    1C
    1UUSER                                                              
    1UDATE              27.october.2022                                 
    1UTIME              00:11:39                                        
    1UHOST                                                              
    1UPGM               CalculiX                                        
    1UVERSION           Version 2.17                             
    1UCOMPILETIME       Thu Jul 23 21:43:50 CEST 2020                    
    1UDIR                                                               
    1UDBN                                                               
    1UMAT    1SOLIDMATERIAL                                             
    2C                          4301                                     1
 -1         1 1.25448E+02 2.67001E+01 0.00000E+00
 -1         2 1.27185E+02 2.20846E+01 0.00000E+00
 -1         3 1.50000E+02 0.00000E+00 0.00000E+00
 -1         4 1.50000E+02 5.00000E+01 0.00000E+00
 -1         5 0.00000E+00 0.00000E+00 0.00000E+00
 -1         6 0.00000E+00 5.00000E+01 0.00000E+00
 -1         7 0.00000E+00 4.70500E+01 0.00000E+00
 -1         8 0.00000E+00 4.41000E+01 0.00000E+00
 -1         9 0.00000E+00 4.11500E+01 0.00000E+00
 -1        10 0.00000E+00 3.82000E+01 0.00000E+00
 -1        11 0.00000E+00 3.52500E+01 0.00000E+00
 -1        12 0.00000E+00 3.23500E+01 0.00000E+00
 -1        13 0.00000E+00 2.94000E+01 0.00000E+00
 -1        14 0.00000E+00 2.64500E+01 0.00000E+00
 -1        15 0.00000E+00 2.35000E+01 0.00000E+00
 -1        16 0.00000E+00 2.05500E+01 0.00000E+00
 -1        17 0.00000E+00 1.76000E+01 0.00000E+00
 -1        18 0.00000E+00 1.47000E+01 0.00000E+00
 -1        19 0.00000E+00 1.17500E+01 0.00000E+00
 -1        20 0.00000E+00 8.80000E+00 0.00000E+00
 -1        21 0.00000E+00 5.85000E+00 0.00000E+00
 -1        22 0.00000E+00 2.90000E+00 0.00000E+00
 -1        23 3.15000E+00 5.00000E+01 0.00000E+00
 -1        24 6.15000E+00 5.00000E+01 0.00000E+00
 -1        25 9.15000E+00 5.00000E+01 0.00000E+00
 -1        26 1.21500E+01 5.00000E+01 0.00000E+00
 -1        27 1.51500E+01 5.00000E+01 0.00000E+00
 -1        28 1.81500E+01 5.00000E+01 0.00000E+00
 -1        29 2.11500E+01 5.00000E+01 0.00000E+00
 -1        30 2.41500E+01 5.00000E+01 0.00000E+00
 -1        31 2.71500E+01 5.00000E+01 0.00000E+00
 -1        32 3.01500E+01 5.00000E+01 0.00000E+00
 -1        33 3.31500E+01 5.00000E+01 0.00000E+00
 -1        34 3.61500E+01 5.00000E+01 0.00000E+00
 -1        35 3.91500E+01 5.00000E+01 0.00000E+00
 -1        36 4.21500E+01 5.00000E+01 0.00000E+00
 -1        37 4.51500E+01 5.00000E+01 0.00000E+00
 -1        38 4.81500E+01 5.00000E+01 0.00000E+00
 -1        39 5.11500E+01 5.00000E+01 0.00000E+00
 -1        40 5.41500E+01 5.00000E+01 0.00000E+00
 -1        41 5.71500E+01 5.00000E+01 0.00000E+00
 -1        42 6.01500E+01 5.00000E+01 0.00000E+00
 -1        43 6.31500E+01 5.00000E+01 0.00000E+00
 -1        44 6.61500E+01 5.00000E+01 0.00000E+00
 -1        45 6.91500E+01 5.00000E+01 0.00000E+00
 -1        46 7.21500E+01 5.00000E+01 0.00000E+00
 -1        47 7.51500E+01 5.00000E+01 0.00000E+00
 -1        48 7.81500E+01 5.00000E+01 0.00000E+00
 -1        49 8.11500E+01 5.00000E+01 0.00000E+00
 -1        50 8.41500E+01 5.00000E+01 0.00000E+00
 -1        51 8.71500E+01 5.00000E+01 0.00000E+00
 -1        52 9.01500E+01 5.00000E+01 0.00000E+00
 -1        53 9.31500E+01 5.00000E+01 0.00000E+00
 -1        54 9.61500E+01 5.00000E+01 0.00000E+00
 -1        55 9.91500E+01 5.00000E+01 0.00000E+00
 -1        56 1.02150E+02 5.00000E+01 0.00000E+00
 -1        57 1.05150E+02 5.00000E+01 0.00000E+00
 -1        58 1.08150E+02 5.00000E+01 0.00000E+00
 -1        59 1.11150E+02 5.00000E+01 0.00000E+00
 -1        60 1.14150E+02 5.00000E+01 0.00000E+00
 -1        61 1.17150E+02 5.00000E+01 0.00000E+00
 -1        62 1.20150E+02 5.00000E+01 0.00000E+00
 -1        63 1.23150E+02 5.00000E+01 0.00000E+00
 -1        64 1.26150E+02 5.00000E+01 0.00000E+00
 -1        65 1.29150E+02 5.00000E+01 0.00000E+00
 -1        66 1.32150E+02 5.00000E+01 0.00000E+00
 -1        67 1.35150E+02 5.00000E+01 0.00000E+00
 -1        68 1.38150E+02 5.00000E+01 0.00000E+00
 -1        69 1.41150E+02 5.00000E+01 0.00000E+00
 -1        70 1.44150E+02 5.00000E+01 0.00000E+00
 -1        71 1.47150E+02 5.00000E+01 0.00000E+00
 -1        72 3.15000E+00 0.00000E+00 0.00000E+00
 -1        73 6.15000E+00 0.00000E+00 0.00000E+00
 -1        74 9.15000E+00 0.00000E+00 0.00000E+00
 -1        75 1.21500E+01 0.00000E+00 0.00000E+00
 -1        76 1.51500E+01 0.00000E+00 0.00000E+00
 -1        77 1.81500E+01 0.00000E+00 0.00000E+00
 -1        78 2.11500E+01 0.00000E+00 0.00000E+00
 -1        79 2.41500E+01 0.00000E+00 0.00000E+00
 -1        80 2.71500E+01 0.00000E+00 0.00000E+00
 -1        81 3.01500E+01 0.00000E+00 0.00000E+00
 -1        82 3.31500E+01 0.00000E+00 0.00000E+00
 -1        83 3.61500E+01 0.00000E+00 0.00000E+00
 -1        84 3.91500E+01 0.00000E+00 0.00000E+00
 -1        85 4.21500E+01 0.00000E+00 0.00000E+00
 -1        86 4.51500E+01 0.00000E+00 0.00000E+00
 -1        87 4.81500E+01 0.00000E+00 0.00000E+00
 -1        88 5.11500E+01 0.00000E+00 0.00000E+00
 -1        89 5.41500E+01 0.00000E+00 0.00000E+00
 -1        90 5.71500E+01 0.00000E+00 0.00000E+00
 -1        91 6.01500E+01 0.00000E+00 0.00000E+00
 -1        92 6.31500E+01 0.00000E+00 0.00000E+00
 -1        93 6.61500E+01 0.00000E+00 0.00000E+00
 -1        94 6.91500E+01 0.00000E+00 0.00000E+00
 -1        95 7.21500E+01 0.00000E+00 0.00000E+00
 -1        96 7.51500E+01 0.00000E+00 0.00000E+00
 -1        97 7.81500E+01 0.00000E+00 0.00000E+00
 -1        98 8.11500E+01 0.00000E+00 0.00000E+00
 -1        99 8.41500E+01 0.00000E+00 0.00000E+00
 -1       100 8.71500E+01 0.00000E+00 0.00000E+00
 -1       101 9.01500E+01 0.00000E+00 0.00000E+00
 -1       102 9.31500E+01 0.00000E+00 0.00000E+00
 -1       103 9.61500E+01 0.00000E+00 0.00000E+00
 -1       104 9.91500E+01 0.00000E+00 0.00000E+00
 -1       105 1.02150E+02 0.00000E+00 0.00000E+00
 -1       106 1.05150E+02 0.00000E+00 0.00000E+00
 -1       107 1.08150E+02 0.00000E+00 0.00000E+00
 -1       108 1.11150E+02 0.00000E+00 0.00000E+00
 -1       109 1.14150E+02 0.00000E+00 0.00000E+00
 -1       110 1.17150E+02 0.00000E+00 0.00000E+00
 -1       111 1.20150E+02 0.00000E+00 0.00000E+00
 -1       112 1.23150E+02 0.00000E+00 0.00000E+00
 -1       113 1.26150E+02 0.00000E+00 0.00000E+00
 -1       114 1.29150E+02 0.00000E+00 0.00000E+00
 -1       115 1.32150E+02 0.00000E+00 0.00000E+00
 -1       116 1.35150E+02 0.00000E+00 0.00000E+00
 -1       117 1.38150E+02 0.00000E+00 0.00000E+00
 -1       118 1.41150E+02 0.00000E+00 0.00000E+00
 -1       119 1.44150E+02 0.00000E+00 0.00000E+00
 -1       120 1.47150E+02 0.00000E+00 0.00000E+00
 -1       121 1.50000E+02 2.95000E+00 0.00000E+00
 -1       122 1.50000E+02 5.90000E+00 0.00000E+00
 -1       123 1.50000E+02 8.85000E+00 0.00000E+00
 -1       124 1.50000E+02 1.18000E+01 0.00000E+00
 -1       125 1.50000E+02 1.47500E+01 0.00000E+00
 -1       126 1.50000E+02 1.76500E+01 0.00000E+00
 -1       127 1.50000E+02 2.06000E+01 0.00000E+00
 -1       128 1.50000E+02 2.35500E+01 0.00000E+00
 -1       129 1.50000E+02 2.65000E+01 0.00000E+00
 -1       130 1.50000E+02 2.94500E+01 0.00000E+00
 -1       131 1.50000E+02 3.24000E+01 0.00000E+00
 -1       132 1.50000E+02 3.53000E+01 0.00000E+00
 -1       133 1.50000E+02 3.82500E+01 0.00000E+00
 -1       134 1.50000E+02 4.12000E+01 0.00000E+00
 -1       135 1.50000E+02 4.41500E+01 0.00000E+00
 -1       136 1.50000E+02 4.71000E+01 0.00000E+00
 -1       137 1.27020E+02 2.05708E+01 0.00000E+00
 -1       138 1.26515E+02 1.90957E+01 0.00000E+00
 -1       139 1.25739E+02 1.78241E+01 0.00000E+00
 -1       140 1.24756E+02 1.67831E+01 0.00000E+00
 -1       141 1.23562E+02 1.59530E+01 0.00000E+00
 -1       142 1.22248E+02 1.53954E+01 0.00000E+00
 -1       143 1.20818E+02 1.51133E+01 0.00000E+00
 -1       144 1.19289E+02 1.51422E+01 0.00000E+00
 -1       145 1.17881E+02 1.54748E+01 0.00000E+00
 -1       146 1.16460E+02 1.61582E+01 0.00000E+00
 -1       147 1.15308E+02 1.70634E+01 0.00000E+00
 -1       148 1.14403E+02 1.81398E+01 0.00000E+00
 -1       149 1.13643E+02 1.95939E+01 0.00000E+00
 -1       150 1.13266E+02 2.10216E+01 0.00000E+00
 -1       151 1.13194E+02 2.24404E+01 0.00000E+00
 -1       152 1.13429E+02 2.39166E+01 0.00000E+00
 -1       153 1.13960E+02 2.52851E+01 0.00000E+00
 -1       154 1.14810E+02 2.65690E+01 0.00000E+00
 -1       155 1.15851E+02 2.75813E+01 0.00000E+00
 -1       156 1.17334E+02 2.84777E+01 0.00000E+00
 -1       157 1.18637E+02 2.89111E+01 0.00000E+00
 -1       158 1.20054E+02 2.90834E+01 0.00000E+00
 -1       159 1.21661E+02 2.89273E+01 0.00000E+00
 -1       160 1.23011E+02 2.84890E+01 0.00000E+00
 -1       161 1.24341E+02 2.77178E+01 0.00000E+00
 -1       162 1.26396E+02 2.53142E+01 0.00000E+00
 -1       163 1.26989E+02 2.37315E+01 0.00000E+00
 -1       164 2.59800E+00 4.55750E+01 0.00000E+00
 -1       165 2.59800E+00 4.26250E+01 0.00000E+00
 -1       166 2.59800E+00 3.96750E+01 0.00000E+00
 -1       167 2.59800E+00 3.67250E+01 0.00000E+00
 -1       168 2.59800E+00 3.38250E+01 0.00000E+00
 -1       169 2.59800E+00 3.08750E+01 0.00000E+00
 -1       170 2.59800E+00 2.79250E+01 0.00000E+00
 -1       171 2.59800E+00 2.49750E+01 0.00000E+00
 -1       172 2.59800E+00 2.20250E+01 0.00000E+00
 -1       173 2.59800E+00 1.90750E+01 0.00000E+00
 -1       174 2.59800E+00 1.61750E+01 0.00000E+00
 -1       175 2.59800E+00 1.32250E+01 0.00000E+00
 -1       176 2.59800E+00 1.02750E+01 0.00000E+00
 -1       177 2.59800E+00 7.32500E+00 0.00000E+00
 -1       178 2.59800E+00 4.37500E+00 0.00000E+00
 -1       179 2.87400E+00 2.18750E+00 0.00000E+00
 -1       180 4.65000E+00 4.74020E+01 0.00000E+00
 -1       181 7.65000E+00 4.74020E+01 0.00000E+00
 -1       182 1.06500E+01 4.74020E+01 0.00000E+00
 -1       183 1.36500E+01 4.74020E+01 0.00000E+00
 -1       184 1.66500E+01 4.74020E+01 0.00000E+00
 -1       185 1.96500E+01 4.74020E+01 0.00000E+00
 -1       186 2.26500E+01 4.74020E+01 0.00000E+00
 -1       187 2.56500E+01 4.74020E+01 0.00000E+00
 -1       188 2.86500E+01 4.74020E+01 0.00000E+00
 -1       189 3.16500E+01 4.74020E+01 0.00000E+00
 -1       190 3.46500E+01 4.74020E+01 0.00000E+00
 -1       191 3.76500E+01 4.74020E+01 0.00000E+00
 -1       192 4.06500E+01 4.74020E+01 0.00000E+00
 -1       193 4.36500E+01 4.74020E+01 0.00000E+00
 -1       194 4.66500E+01 4.74020E+01 0.00000E+00
 -1       195 4.96500E+01 4.74020E+01 0.00000E+00
 -1       196 5.26500E+01 4.74020E+01 0.00000E+00
 -1       197 5.56500E+01 4.74020E+01 0.00000E+00
 -1       198 5.86500E+01 4.74020E+01 0.00000E+00
 -1       199 6.16500E+01 4.74020E+01 0.00000E+00
 -1       200 6.46500E+01 4.74020E+01 0.00000E+00
 -1       201 6.76500E+01 4.74020E+01 0.00000E+00
 -1       202 7.06500E+01 4.74020E+01 0.00000E+00
 -1       203 7.36500E+01 4.74020E+01 0.00000E+00
 -1       204 7.66500E+01 4.74020E+01 0.00000E+00
 -1       205 7.96500E+01 4.74020E+01 0.00000E+00
 -1       206 8.26500E+01 4.74020E+01 0.00000E+00
 -1       207 8.56500E+01 4.74020E+01 0.00000E+00
 -1       208 8.86500E+01 4.74020E+01 0.00000E+00
 -1       209 9.16500E+01 4.74020E+01 0.00000E+00
 -1       210 9.46500E+01 4.74020E+01 0.00000E+00
 -1       211 9.76500E+01 4.74020E+01 0.00000E+00
 -1       212 1.00650E+02 4.74020E+01 0.00000E+00
 -1       213 1.03650E+02 4.74020E+01 0.00000E+00
 -1       214 1.06650E+02 4.74020E+01 0.00000E+00
 -1       215 1.09650E+02 4.74020E+01 0.00000E+00
 -1       216 1.12650E+02 4.74020E+01 0.00000E+00
 -1       217 1.15650E+02 4.74020E+01 0.00000E+00
 -1       218 1.18650E+02 4.74020E+01 0.00000E+00
 -1       219 1.21650E+02 4.74020E+01 0.00000E+00
 -1       220 1.24650E+02 4.74020E+01 0.00000E+00
 -1       221 1.27650E+02 4.74020E+01 0.00000E+00
 -1       222 1.30650E+02 4.74020E+01 0.00000E+00
 -1       223 1.33650E+02 4.74020E+01 0.00000E+00
 -1       224 1.36650E+02 4.74020E+01 0.00000E+00
 -1       225 1.39650E+02 4.74020E+01 0.00000E+00
 -1       226 1.42650E+02 4.74020E+01 0.00000E+00
 -1       227 1.45650E+02 4.74020E+01 0.00000E+00
 -1       228 5.87400E+00 2.18750E+00 0.00000E+00
 -1       229 8.87400E+00 2.18750E+00 0.00000E+00
 -1       230 1.18740E+01 2.18750E+00 0.00000E+00
 -1       231 1.48740E+01 2.18750E+00 0.00000E+00
 -1       232 1.78740E+01 2.18750E+00 0.00000E+00
 -1       233 2.08740E+01 2.18750E+00 0.00000E+00
 -1       234 2.38740E+01 2.18750E+00 0.00000E+00
 -1       235 2.68740E+01 2.18750E+00 0.00000E+00
 -1       236 2.98740E+01 2.18750E+00 0.00000E+00
 -1       237 3.28740E+01 2.18750E+00 0.00000E+00
 -1       238 3.58740E+01 2.18750E+00 0.00000E+00
 -1       239 3.88740E+01 2.18750E+00 0.00000E+00
 -1       240 4.18740E+01 2.18750E+00 0.00000E+00
 -1       241 4.48740E+01 2.18750E+00 0.00000E+00
 -1       242 4.78740E+01 2.18750E+00 0.00000E+00
 -1       243 5.08740E+01 2.18750E+00 0.00000E+00
 -1       244 5.38740E+01 2.18750E+00 0.00000E+00
 -1       245 5.68740E+01 2.18750E+00 0.00000E+00
 -1       246 5.98740E+01 2.18750E+00 0.00000E+00
 -1       247 6.28740E+01 2.18750E+00 0.00000E+00
 -1       248 6.58740E+01 2.18750E+00 0.00000E+00
 -1       249 6.88740E+01 2.18750E+00 0.00000E+00
 -1       250 7.18740E+01 2.18750E+00 0.00000E+00
 -1       251 7.48740E+01 2.18750E+00 0.00000E+00
 -1       252 7.78740E+01 2.18750E+00 0.00000E+00
 -1       253 8.08740E+01 2.18750E+00 0.00000E+00
 -1       254 8.38740E+01 2.18750E+00 0.00000E+00
 -1       255 8.68740E+01 2.18750E+00 0.00000E+00
 -1       256 8.98740E+01 2.18750E+00 0.00000E+00
 -1       257 9.28740E+01 2.18750E+00 0.00000E+00
 -1       258 9.58740E+01 2.18750E+00 0.00000E+00
 -1       259 9.88740E+01 2.18750E+00 0.00000E+00
 -1       260 1.01874E+02 2.18750E+00 0.00000E+00
 -1       261 1.04874E+02 2.18750E+00 0.00000E+00
 -1       262 1.07874E+02 2.18750E+00 0.00000E+00
 -1       263 1.10874E+02 2.18750E+00 0.00000E+00
 -1       264 1.13874E+02 2.18750E+00 0.00000E+00
 -1       265 1.16874E+02 2.18750E+00 0.00000E+00
 -1       266 1.19874E+02 2.18750E+00 0.00000E+00
 -1       267 1.22874E+02 2.18750E+00 0.00000E+00
 -1       268 1.25874E+02 2.18750E+00 0.00000E+00
 -1       269 1.28874E+02 2.18750E+00 0.00000E+00
 -1       270 1.31874E+02 2.18750E+00 0.00000E+00
 -1       271 1.34874E+02 2.18750E+00 0.00000E+00
 -1       272 1.37874E+02 2.18750E+00 0.00000E+00
 -1       273 1.40874E+02 2.18750E+00 0.00000E+00
 -1       274 1.43874E+02 2.18750E+00 0.00000E+00
 -1       275 1.46874E+02 2.18750E+00 0.00000E+00
 -1       276 1.47402E+02 4.42500E+00 0.00000E+00
 -1       277 1.47402E+02 7.37500E+00 0.00000E+00
 -1       278 1.47402E+02 1.03250E+01 0.00000E+00
 -1       279 1.47402E+02 1.32750E+01 0.00000E+00
 -1       280 1.47402E+02 1.61750E+01 0.00000E+00
 -1       281 1.47402E+02 1.91250E+01 0.00000E+00
 -1       282 1.47402E+02 2.20750E+01 0.00000E+00
 -1       283 1.47402E+02 2.50250E+01 0.00000E+00
 -1       284 1.47402E+02 2.79750E+01 0.00000E+00
 -1       285 1.47402E+02 3.09250E+01 0.00000E+00
 -1       286 1.47402E+02 3.38250E+01 0.00000E+00
 -1       287 1.47402E+02 3.67750E+01 0.00000E+00
 -1       288 1.47402E+02 3.97250E+01 0.00000E+00
 -1       289 1.47402E+02 4.26750E+01 0.00000E+00
 -1       290 1.46526E+02 4.50385E+01 0.00000E+00
 -1       291 1.28549E+02 2.11695E+01 0.00000E+00
 -1       292 1.28232E+02 1.93324E+01 0.00000E+00
 -1       293 1.27162E+02 1.78285E+01 0.00000E+00
 -1       294 1.26129E+02 1.64712E+01 0.00000E+00
 -1       295 1.24947E+02 1.52350E+01 0.00000E+00
 -1       296 1.23411E+02 1.44809E+01 0.00000E+00
 -1       297 1.21768E+02 1.40648E+01 0.00000E+00
 -1       298 1.20031E+02 1.39156E+01 0.00000E+00
 -1       299 1.18287E+02 1.40471E+01 0.00000E+00
 -1       300 1.16499E+02 1.44219E+01 0.00000E+00
 -1       301 1.15135E+02 1.56575E+01 0.00000E+00
 -1       302 1.13927E+02 1.68212E+01 0.00000E+00
 -1       303 1.12651E+02 1.81505E+01 0.00000E+00
 -1       304 1.12202E+02 1.99769E+01 0.00000E+00
 -1       305 1.12020E+02 2.16694E+01 0.00000E+00
 -1       306 1.12114E+02 2.33690E+01 0.00000E+00
 -1       307 1.12564E+02 2.50391E+01 0.00000E+00
 -1       308 1.13304E+02 2.66429E+01 0.00000E+00
 -1       309 1.14368E+02 2.80643E+01 0.00000E+00
 -1       310 1.15705E+02 2.94974E+01 0.00000E+00
 -1       311 1.17603E+02 2.98448E+01 0.00000E+00
 -1       312 1.19179E+02 3.03672E+01 0.00000E+00
 -1       313 1.21007E+02 3.05456E+01 0.00000E+00
 -1       314 1.22736E+02 2.99410E+01 0.00000E+00
 -1       315 1.24368E+02 2.92972E+01 0.00000E+00
 -1       316 1.25771E+02 2.81633E+01 0.00000E+00
 -1       317 1.26992E+02 2.67388E+01 0.00000E+00
 -1       318 1.27906E+02 2.49777E+01 0.00000E+00
 -1       319 1.28291E+02 2.30517E+01 0.00000E+00
 -1       320 5.19600E+00 4.11500E+01 0.00000E+00
 -1       321 5.19600E+00 4.41000E+01 0.00000E+00
 -1       322 5.19600E+00 3.52750E+01 0.00000E+00
 -1       323 5.19600E+00 3.23250E+01 0.00000E+00
 -1       324 5.19600E+00 2.93750E+01 0.00000E+00
 -1       325 5.19600E+00 2.64250E+01 0.00000E+00
 -1       326 5.19600E+00 2.34750E+01 0.00000E+00
 -1       327 5.19600E+00 2.05250E+01 0.00000E+00
 -1       328 5.19600E+00 1.76250E+01 0.00000E+00
 -1       329 5.19600E+00 1.46750E+01 0.00000E+00
 -1       330 5.19600E+00 1.17250E+01 0.00000E+00
 -1       331 5.19600E+00 8.77500E+00 0.00000E+00
 -1       332 5.19600E+00 5.82500E+00 0.00000E+00
 -1       333 5.53500E+00 4.00625E+00 0.00000E+00
 -1       334 8.53500E+00 4.00625E+00 0.00000E+00
 -1       335 9.15000E+00 4.48040E+01 0.00000E+00
 -1       336 1.21500E+01 4.48040E+01 0.00000E+00
 -1       337 1.51500E+01 4.48040E+01 0.00000E+00
 -1       338 1.81500E+01 4.48040E+01 0.00000E+00
 -1       339 2.11500E+01 4.48040E+01 0.00000E+00
 -1       340 2.41500E+01 4.48040E+01 0.00000E+00
 -1       341 2.71500E+01 4.48040E+01 0.00000E+00
 -1       342 3.01500E+01 4.48040E+01 0.00000E+00
 -1       343 3.31500E+01 4.48040E+01 0.00000E+00
 -1       344 3.61500E+01 4.48040E+01 0.00000E+00
 -1       345 3.91500E+01 4.48040E+01 0.00000E+00
 -1       346 4.21500E+01 4.48040E+01 0.00000E+00
 -1       347 4.51500E+01 4.48040E+01 0.00000E+00
 -1       348 4.81500E+01 4.48040E+01 0.00000E+00
 -1       349 5.11500E+01 4.48040E+01 0.00000E+00
 -1       350 5.41500E+01 4.48040E+01 0.00000E+00
 -1       351 5.71500E+01 4.48040E+01 0.00000E+00
 -1       352 6.01500E+01 4.48040E+01 0.00000E+00
 -1       353 6.31500E+01 4.48040E+01 0.00000E+00
 -1       354 6.61500E+01 4.48040E+01 0.00000E+00
 -1       355 6.91500E+01 4.48040E+01 0.00000E+00
 -1       356 7.21500E+01 4.48040E+01 0.00000E+00
 -1       357 7.51500E+01 4.48040E+01 0.00000E+00
 -1       358 7.81500E+01 4.48040E+01 0.00000E+00
 -1       359 8.11500E+01 4.48040E+01 0.00000E+00
 -1       360 8.41500E+01 4.48040E+01 0.00000E+00
 -1       361 8.71500E+01 4.48040E+01 0.00000E+00
 -1       362 9.01500E+01 4.48040E+01 0.00000E+00
 -1       363 9.31500E+01 4.48040E+01 0.00000E+00
 -1       364 9.61500E+01 4.48040E+01 0.00000E+00
 -1       365 9.91500E+01 4.48040E+01 0.00000E+00
 -1       366 1.02150E+02 4.48040E+01 0.00000E+00
 -1       367 1.05150E+02 4.48040E+01 0.00000E+00
 -1       368 1.08150E+02 4.48040E+01 0.00000E+00
 -1       369 1.11150E+02 4.48040E+01 0.00000E+00
 -1       370 1.14150E+02 4.48040E+01 0.00000E+00
 -1       371 1.17150E+02 4.48040E+01 0.00000E+00
 -1       372 1.20150E+02 4.48040E+01 0.00000E+00
 -1       373 1.23150E+02 4.48040E+01 0.00000E+00
 -1       374 1.26150E+02 4.48040E+01 0.00000E+00
 -1       375 1.29150E+02 4.48040E+01 0.00000E+00
 -1       376 1.32150E+02 4.48040E+01 0.00000E+00
 -1       377 1.35150E+02 4.48040E+01 0.00000E+00
 -1       378 1.38150E+02 4.48040E+01 0.00000E+00
 -1       379 1.41150E+02 4.48040E+01 0.00000E+00
 -1       380 1.43838E+02 4.49212E+01 0.00000E+00
 -1       381 1.15350E+01 4.00625E+00 0.00000E+00
 -1       382 1.45350E+01 4.00625E+00 0.00000E+00
 -1       383 1.75350E+01 4.00625E+00 0.00000E+00
 -1       384 2.05350E+01 4.00625E+00 0.00000E+00
 -1       385 2.35350E+01 4.00625E+00 0.00000E+00
 -1       386 2.65350E+01 4.00625E+00 0.00000E+00
 -1       387 2.95350E+01 4.00625E+00 0.00000E+00
 -1       388 3.25350E+01 4.00625E+00 0.00000E+00
 -1       389 3.55350E+01 4.00625E+00 0.00000E+00
 -1       390 3.85350E+01 4.00625E+00 0.00000E+00
 -1       391 4.15350E+01 4.00625E+00 0.00000E+00
 -1       392 4.45350E+01 4.00625E+00 0.00000E+00
 -1       393 4.75350E+01 4.00625E+00 0.00000E+00
 -1       394 5.05350E+01 4.00625E+00 0.00000E+00
 -1       395 5.35350E+01 4.00625E+00 0.00000E+00
 -1       396 5.65350E+01 4.00625E+00 0.00000E+00
 -1       397 5.95350E+01 4.00625E+00 0.00000E+00
 -1       398 6.25350E+01 4.00625E+00 0.00000E+00
 -1       399 6.55350E+01 4.00625E+00 0.00000E+00
 -1       400 6.85350E+01 4.00625E+00 0.00000E+00
 -1       401 7.15350E+01 4.00625E+00 0.00000E+00
 -1       402 7.45350E+01 4.00625E+00 0.00000E+00
 -1       403 7.75350E+01 4.00625E+00 0.00000E+00
 -1       404 8.05350E+01 4.00625E+00 0.00000E+00
 -1       405 8.35350E+01 4.00625E+00 0.00000E+00
 -1       406 8.65350E+01 4.00625E+00 0.00000E+00
 -1       407 8.95350E+01 4.00625E+00 0.00000E+00
 -1       408 9.25350E+01 4.00625E+00 0.00000E+00
 -1       409 9.55350E+01 4.00625E+00 0.00000E+00
 -1       410 9.85350E+01 4.00625E+00 0.00000E+00
 -1       411 1.01535E+02 4.00625E+00 0.00000E+00
 -1       412 1.04535E+02 4.00625E+00 0.00000E+00
 -1       413 1.07535E+02 4.00625E+00 0.00000E+00
 -1       414 1.10535E+02 4.00625E+00 0.00000E+00
 -1       415 1.13535E+02 4.00625E+00 0.00000E+00
 -1       416 1.16535E+02 4.00625E+00 0.00000E+00
 -1       417 1.19535E+02 4.00625E+00 0.00000E+00
 -1       418 1.22535E+02 4.00625E+00 0.00000E+00
 -1       419 1.25535E+02 4.00625E+00 0.00000E+00
 -1       420 1.28535E+02 4.00625E+00 0.00000E+00
 -1       421 1.31535E+02 4.00625E+00 0.00000E+00
 -1       422 1.34535E+02 4.00625E+00 0.00000E+00
 -1       423 1.37535E+02 4.00625E+00 0.00000E+00
 -1       424 1.40535E+02 4.00625E+00 0.00000E+00
 -1       425 1.43535E+02 4.00625E+00 0.00000E+00
 -1       426 1.45469E+02 4.21562E+00 0.00000E+00
 -1       427 1.44804E+02 1.18000E+01 0.00000E+00
 -1       428 1.44804E+02 8.85000E+00 0.00000E+00
 -1       429 1.45136E+02 6.53281E+00 0.00000E+00
 -1       430 1.44804E+02 1.47000E+01 0.00000E+00
 -1       431 1.44804E+02 1.76500E+01 0.00000E+00
 -1       432 1.44804E+02 2.06000E+01 0.00000E+00
 -1       433 1.44804E+02 2.35500E+01 0.00000E+00
 -1       434 1.44804E+02 2.65000E+01 0.00000E+00
 -1       435 1.44804E+02 2.94500E+01 0.00000E+00
 -1       436 1.44804E+02 3.23500E+01 0.00000E+00
 -1       437 1.44804E+02 3.53000E+01 0.00000E+00
 -1       438 1.44804E+02 3.82500E+01 0.00000E+00
 -1       439 1.44804E+02 4.12000E+01 0.00000E+00
 -1       440 1.28822E+02 1.77807E+01 0.00000E+00
 -1       441 1.29944E+02 2.23193E+01 0.00000E+00
 -1       442 1.29750E+02 2.00163E+01 0.00000E+00
 -1       443 1.27789E+02 1.64234E+01 0.00000E+00
 -1       444 1.26475E+02 1.49572E+01 0.00000E+00
 -1       445 5.19600E+00 3.82125E+01 0.00000E+00
 -1       446 1.22949E+02 1.28539E+01 0.00000E+00
 -1       447 1.21017E+02 1.26153E+01 0.00000E+00
 -1       448 1.19061E+02 1.26888E+01 0.00000E+00
 -1       449 1.17093E+02 1.28019E+01 0.00000E+00
 -1       450 1.14778E+02 1.38925E+01 0.00000E+00
 -1       451 1.13571E+02 1.50562E+01 0.00000E+00
 -1       452 1.12173E+02 1.64141E+01 0.00000E+00
 -1       453 1.10842E+02 1.86738E+01 0.00000E+00
 -1       454 1.10655E+02 2.06665E+01 0.00000E+00
 -1       455 1.10773E+02 2.25915E+01 0.00000E+00
 -1       456 1.10683E+02 2.46499E+01 0.00000E+00
 -1       457 1.11423E+02 2.62537E+01 0.00000E+00
 -1       458 1.12530E+02 2.83311E+01 0.00000E+00
 -1       459 1.13905E+02 2.98366E+01 0.00000E+00
 -1       460 1.16405E+02 3.10285E+01 0.00000E+00
 -1       461 1.17982E+02 3.15509E+01 0.00000E+00
 -1       462 1.19967E+02 3.17464E+01 0.00000E+00
 -1       463 1.22382E+02 3.17041E+01 0.00000E+00
 -1       464 1.24014E+02 3.10603E+01 0.00000E+00
 -1       465 1.26042E+02 2.99340E+01 0.00000E+00
 -1       466 1.27430E+02 2.83489E+01 0.00000E+00
 -1       467 1.28599E+02 2.64554E+01 0.00000E+00
 -1       468 1.29607E+02 2.43162E+01 0.00000E+00
 -1       469 1.24787E+02 1.36192E+01 0.00000E+00
 -1       470 1.30340E+02 1.84646E+01 0.00000E+00
 -1       471 1.14605E+02 3.13677E+01 0.00000E+00
 -1       472 1.15372E+02 1.22725E+01 0.00000E+00
 -1       473 1.10364E+02 1.69373E+01 0.00000E+00
 -1       474 1.21342E+02 3.29049E+01 0.00000E+00
 -1       475 1.00350E+01 6.60425E+00 0.00000E+00
 -1       476 7.79400E+00 3.08500E+01 0.00000E+00
 -1       477 7.79400E+00 3.38000E+01 0.00000E+00
 -1       478 7.79400E+00 2.49500E+01 0.00000E+00
 -1       479 7.79400E+00 2.20000E+01 0.00000E+00
 -1       480 7.79400E+00 1.91000E+01 0.00000E+00
 -1       481 7.79400E+00 1.61500E+01 0.00000E+00
 -1       482 7.79400E+00 1.32000E+01 0.00000E+00
 -1       483 7.79400E+00 1.02500E+01 0.00000E+00
 -1       484 1.30350E+01 6.60425E+00 0.00000E+00
 -1       485 1.06500E+01 4.22060E+01 0.00000E+00
 -1       486 1.24591E+02 1.14985E+01 0.00000E+00
 -1       487 1.36500E+01 4.22060E+01 0.00000E+00
 -1       488 1.66500E+01 4.22060E+01 0.00000E+00
 -1       489 1.96500E+01 4.22060E+01 0.00000E+00
 -1       490 2.26500E+01 4.22060E+01 0.00000E+00
 -1       491 2.56500E+01 4.22060E+01 0.00000E+00
 -1       492 2.86500E+01 4.22060E+01 0.00000E+00
 -1       493 3.16500E+01 4.22060E+01 0.00000E+00
 -1       494 3.46500E+01 4.22060E+01 0.00000E+00
 -1       495 3.76500E+01 4.22060E+01 0.00000E+00
 -1       496 4.06500E+01 4.22060E+01 0.00000E+00
 -1       497 4.36500E+01 4.22060E+01 0.00000E+00
 -1       498 4.66500E+01 4.22060E+01 0.00000E+00
 -1       499 4.96500E+01 4.22060E+01 0.00000E+00
 -1       500 5.26500E+01 4.22060E+01 0.00000E+00
 -1       501 5.56500E+01 4.22060E+01 0.00000E+00
 -1       502 5.86500E+01 4.22060E+01 0.00000E+00
 -1       503 6.16500E+01 4.22060E+01 0.00000E+00
 -1       504 6.46500E+01 4.22060E+01 0.00000E+00
 -1       505 6.76500E+01 4.22060E+01 0.00000E+00
 -1       506 7.06500E+01 4.22060E+01 0.00000E+00
 -1       507 7.36500E+01 4.22060E+01 0.00000E+00
 -1       508 7.66500E+01 4.22060E+01 0.00000E+00
 -1       509 7.96500E+01 4.22060E+01 0.00000E+00
 -1       510 8.26500E+01 4.22060E+01 0.00000E+00
 -1       511 8.56500E+01 4.22060E+01 0.00000E+00
 -1       512 8.86500E+01 4.22060E+01 0.00000E+00
 -1       513 9.16500E+01 4.22060E+01 0.00000E+00
 -1       514 9.46500E+01 4.22060E+01 0.00000E+00
 -1       515 9.76500E+01 4.22060E+01 0.00000E+00
 -1       516 1.00650E+02 4.22060E+01 0.00000E+00
 -1       517 1.03650E+02 4.22060E+01 0.00000E+00
 -1       518 1.06650E+02 4.22060E+01 0.00000E+00
 -1       519 1.09650E+02 4.22060E+01 0.00000E+00
 -1       520 1.12650E+02 4.22060E+01 0.00000E+00
 -1       521 1.15650E+02 4.22060E+01 0.00000E+00
 -1       522 1.18650E+02 4.22060E+01 0.00000E+00
 -1       523 1.21650E+02 4.22060E+01 0.00000E+00
 -1       524 1.24650E+02 4.22060E+01 0.00000E+00
 -1       525 1.27650E+02 4.22060E+01 0.00000E+00
 -1       526 1.30650E+02 4.22060E+01 0.00000E+00
 -1       527 1.33650E+02 4.22060E+01 0.00000E+00
 -1       528 1.36650E+02 4.22060E+01 0.00000E+00
 -1       529 1.39650E+02 4.22060E+01 0.00000E+00
 -1       530 1.90350E+01 6.60425E+00 0.00000E+00
 -1       531 2.20350E+01 6.60425E+00 0.00000E+00
 -1       532 2.50350E+01 6.60425E+00 0.00000E+00
 -1       533 2.80350E+01 6.60425E+00 0.00000E+00
 -1       534 3.10350E+01 6.60425E+00 0.00000E+00
 -1       535 3.40350E+01 6.60425E+00 0.00000E+00
 -1       536 3.70350E+01 6.60425E+00 0.00000E+00
 -1       537 4.00350E+01 6.60425E+00 0.00000E+00
 -1       538 4.30350E+01 6.60425E+00 0.00000E+00
 -1       539 4.60350E+01 6.60425E+00 0.00000E+00
 -1       540 4.90350E+01 6.60425E+00 0.00000E+00
 -1       541 5.20350E+01 6.60425E+00 0.00000E+00
 -1       542 5.50350E+01 6.60425E+00 0.00000E+00
 -1       543 5.80350E+01 6.60425E+00 0.00000E+00
 -1       544 6.10350E+01 6.60425E+00 0.00000E+00
 -1       545 6.40350E+01 6.60425E+00 0.00000E+00
 -1       546 6.70350E+01 6.60425E+00 0.00000E+00
 -1       547 7.00350E+01 6.60425E+00 0.00000E+00
 -1       548 7.30350E+01 6.60425E+00 0.00000E+00
 -1       549 7.60350E+01 6.60425E+00 0.00000E+00
 -1       550 7.90350E+01 6.60425E+00 0.00000E+00
 -1       551 8.20350E+01 6.60425E+00 0.00000E+00
 -1       552 8.50350E+01 6.60425E+00 0.00000E+00
 -1       553 8.80350E+01 6.60425E+00 0.00000E+00
 -1       554 9.10350E+01 6.60425E+00 0.00000E+00
 -1       555 9.40350E+01 6.60425E+00 0.00000E+00
 -1       556 9.70350E+01 6.60425E+00 0.00000E+00
 -1       557 1.00035E+02 6.60425E+00 0.00000E+00
 -1       558 1.03035E+02 6.60425E+00 0.00000E+00
 -1       559 1.06035E+02 6.60425E+00 0.00000E+00
 -1       560 1.09035E+02 6.60425E+00 0.00000E+00
 -1       561 1.12035E+02 6.60425E+00 0.00000E+00
 -1       562 1.15035E+02 6.60425E+00 0.00000E+00
 -1       563 1.18035E+02 6.60425E+00 0.00000E+00
 -1       564 1.21035E+02 6.60425E+00 0.00000E+00
 -1       565 1.24035E+02 6.60425E+00 0.00000E+00
 -1       566 1.27035E+02 6.60425E+00 0.00000E+00
 -1       567 1.30035E+02 6.60425E+00 0.00000E+00
 -1       568 1.33035E+02 6.60425E+00 0.00000E+00
 -1       569 1.36035E+02 6.60425E+00 0.00000E+00
 -1       570 1.39035E+02 6.60425E+00 0.00000E+00
 -1       571 1.42035E+02 6.60425E+00 0.00000E+00
 -1       572 1.42206E+02 1.61750E+01 0.00000E+00
 -1       573 1.42206E+02 1.91250E+01 0.00000E+00
 -1       574 1.42206E+02 1.03250E+01 0.00000E+00
 -1       575 1.42206E+02 1.32500E+01 0.00000E+00
 -1       576 1.42206E+02 2.20750E+01 0.00000E+00
 -1       577 1.42206E+02 2.50250E+01 0.00000E+00
 -1       578 1.42206E+02 2.79750E+01 0.00000E+00
 -1       579 1.42206E+02 3.08750E+01 0.00000E+00
 -1       580 1.42206E+02 3.38250E+01 0.00000E+00
 -1       581 1.42206E+02 3.67750E+01 0.00000E+00
 -1       582 1.42206E+02 3.97250E+01 0.00000E+00
 -1       583 1.31714E+02 2.10104E+01 0.00000E+00
 -1       584 1.31375E+02 2.35876E+01 0.00000E+00
 -1       585 1.60350E+01 6.60425E+00 0.00000E+00
 -1       586 1.29796E+02 1.59674E+01 0.00000E+00
 -1       587 7.92300E+00 4.16780E+01 0.00000E+00
 -1       588 1.26697E+02 1.29442E+01 0.00000E+00
 -1       589 1.18806E+02 3.33555E+01 0.00000E+00
 -1       590 1.09014E+02 2.35460E+01 0.00000E+00
 -1       591 7.79400E+00 2.79000E+01 0.00000E+00
 -1       592 1.19987E+02 1.12730E+01 0.00000E+00
 -1       593 1.22183E+02 1.11156E+01 0.00000E+00
 -1       594 1.17988E+02 1.12004E+01 0.00000E+00
 -1       595 1.12985E+02 1.32395E+01 0.00000E+00
 -1       596 1.11828E+02 3.03536E+01 0.00000E+00
 -1       597 1.11586E+02 1.45974E+01 0.00000E+00
 -1       598 1.09291E+02 1.95333E+01 0.00000E+00
 -1       599 1.08897E+02 2.16211E+01 0.00000E+00
 -1       600 1.09344E+02 2.62409E+01 0.00000E+00
 -1       601 1.10451E+02 2.83183E+01 0.00000E+00
 -1       602 1.16707E+02 3.27587E+01 0.00000E+00
 -1       603 1.27900E+02 3.01607E+01 0.00000E+00
 -1       604 1.23828E+02 3.29776E+01 0.00000E+00
 -1       605 1.25856E+02 3.18514E+01 0.00000E+00
 -1       606 1.29331E+02 2.82155E+01 0.00000E+00
 -1       607 1.30427E+02 2.60096E+01 0.00000E+00
 -1       608 7.61550E+00 6.21462E+00 0.00000E+00
 -1       609 1.28482E+02 1.45011E+01 0.00000E+00
 -1       610 7.79400E+00 3.67375E+01 0.00000E+00
 -1       611 1.32304E+02 1.94588E+01 0.00000E+00
 -1       612 1.12528E+02 3.18847E+01 0.00000E+00
 -1       613 1.08813E+02 1.77968E+01 0.00000E+00
 -1       614 1.16267E+02 1.06710E+01 0.00000E+00
 -1       615 1.13578E+02 1.16194E+01 0.00000E+00
 -1       616 1.41678E+02 4.22645E+01 0.00000E+00
 -1       617 1.03920E+01 2.05500E+01 0.00000E+00
 -1       618 1.03920E+01 2.35000E+01 0.00000E+00
 -1       619 1.03920E+01 1.46750E+01 0.00000E+00
 -1       620 1.03920E+01 1.17250E+01 0.00000E+00
 -1       621 1.15350E+01 9.20225E+00 0.00000E+00
 -1       622 1.45350E+01 9.20225E+00 0.00000E+00
 -1       623 1.28185E+02 3.25861E+01 0.00000E+00
 -1       624 1.29997E+02 3.02042E+01 0.00000E+00
 -1       625 1.51500E+01 3.96080E+01 0.00000E+00
 -1       626 1.81500E+01 3.96080E+01 0.00000E+00
 -1       627 2.11500E+01 3.96080E+01 0.00000E+00
 -1       628 2.41500E+01 3.96080E+01 0.00000E+00
 -1       629 2.71500E+01 3.96080E+01 0.00000E+00
 -1       630 3.01500E+01 3.96080E+01 0.00000E+00
 -1       631 3.31500E+01 3.96080E+01 0.00000E+00
 -1       632 3.61500E+01 3.96080E+01 0.00000E+00
 -1       633 3.91500E+01 3.96080E+01 0.00000E+00
 -1       634 4.21500E+01 3.96080E+01 0.00000E+00
 -1       635 4.51500E+01 3.96080E+01 0.00000E+00
 -1       636 4.81500E+01 3.96080E+01 0.00000E+00
 -1       637 5.11500E+01 3.96080E+01 0.00000E+00
 -1       638 5.41500E+01 3.96080E+01 0.00000E+00
 -1       639 5.71500E+01 3.96080E+01 0.00000E+00
 -1       640 6.01500E+01 3.96080E+01 0.00000E+00
 -1       641 6.31500E+01 3.96080E+01 0.00000E+00
 -1       642 6.61500E+01 3.96080E+01 0.00000E+00
 -1       643 6.91500E+01 3.96080E+01 0.00000E+00
 -1       644 7.21500E+01 3.96080E+01 0.00000E+00
 -1       645 7.51500E+01 3.96080E+01 0.00000E+00
 -1       646 7.81500E+01 3.96080E+01 0.00000E+00
 -1       647 8.11500E+01 3.96080E+01 0.00000E+00
 -1       648 8.41500E+01 3.96080E+01 0.00000E+00
 -1       649 8.71500E+01 3.96080E+01 0.00000E+00
 -1       650 9.01500E+01 3.96080E+01 0.00000E+00
 -1       651 9.31500E+01 3.96080E+01 0.00000E+00
 -1       652 9.61500E+01 3.96080E+01 0.00000E+00
 -1       653 9.91500E+01 3.96080E+01 0.00000E+00
 -1       654 1.02150E+02 3.96080E+01 0.00000E+00
 -1       655 1.05150E+02 3.96080E+01 0.00000E+00
 -1       656 1.08150E+02 3.96080E+01 0.00000E+00
 -1       657 1.11150E+02 3.96080E+01 0.00000E+00
 -1       658 1.14150E+02 3.96080E+01 0.00000E+00
 -1       659 1.17150E+02 3.96080E+01 0.00000E+00
 -1       660 1.20150E+02 3.96080E+01 0.00000E+00
 -1       661 1.23150E+02 3.96080E+01 0.00000E+00
 -1       662 1.26150E+02 3.96080E+01 0.00000E+00
 -1       663 1.29150E+02 3.96080E+01 0.00000E+00
 -1       664 1.32150E+02 3.96080E+01 0.00000E+00
 -1       665 1.35150E+02 3.96080E+01 0.00000E+00
 -1       666 1.38150E+02 3.96080E+01 0.00000E+00
 -1       667 2.35350E+01 9.20225E+00 0.00000E+00
 -1       668 1.31715E+02 2.80251E+01 0.00000E+00
 -1       669 2.05350E+01 9.20225E+00 0.00000E+00
 -1       670 2.95350E+01 9.20225E+00 0.00000E+00
 -1       671 3.25350E+01 9.20225E+00 0.00000E+00
 -1       672 3.55350E+01 9.20225E+00 0.00000E+00
 -1       673 3.85350E+01 9.20225E+00 0.00000E+00
 -1       674 4.15350E+01 9.20225E+00 0.00000E+00
 -1       675 4.45350E+01 9.20225E+00 0.00000E+00
 -1       676 4.75350E+01 9.20225E+00 0.00000E+00
 -1       677 5.05350E+01 9.20225E+00 0.00000E+00
 -1       678 5.35350E+01 9.20225E+00 0.00000E+00
 -1       679 5.65350E+01 9.20225E+00 0.00000E+00
 -1       680 5.95350E+01 9.20225E+00 0.00000E+00
 -1       681 6.25350E+01 9.20225E+00 0.00000E+00
 -1       682 6.55350E+01 9.20225E+00 0.00000E+00
 -1       683 6.85350E+01 9.20225E+00 0.00000E+00
 -1       684 7.15350E+01 9.20225E+00 0.00000E+00
 -1       685 7.45350E+01 9.20225E+00 0.00000E+00
 -1       686 7.75350E+01 9.20225E+00 0.00000E+00
 -1       687 8.05350E+01 9.20225E+00 0.00000E+00
 -1       688 8.35350E+01 9.20225E+00 0.00000E+00
 -1       689 8.65350E+01 9.20225E+00 0.00000E+00
 -1       690 8.95350E+01 9.20225E+00 0.00000E+00
 -1       691 9.25350E+01 9.20225E+00 0.00000E+00
 -1       692 9.55350E+01 9.20225E+00 0.00000E+00
 -1       693 9.85350E+01 9.20225E+00 0.00000E+00
 -1       694 1.01535E+02 9.20225E+00 0.00000E+00
 -1       695 1.04535E+02 9.20225E+00 0.00000E+00
 -1       696 1.07535E+02 9.20225E+00 0.00000E+00
 -1       697 1.10535E+02 9.20225E+00 0.00000E+00
 -1       698 1.16535E+02 8.82207E+00 0.00000E+00
 -1       699 1.19535E+02 8.82207E+00 0.00000E+00
 -1       700 1.22535E+02 8.82208E+00 0.00000E+00
 -1       701 1.25535E+02 8.82208E+00 0.00000E+00
 -1       702 1.28535E+02 8.82208E+00 0.00000E+00
 -1       703 1.31535E+02 8.82208E+00 0.00000E+00
 -1       704 1.34535E+02 8.82208E+00 0.00000E+00
 -1       705 1.37535E+02 8.82208E+00 0.00000E+00
 -1       706 1.39870E+02 9.57354E+00 0.00000E+00
 -1       707 1.33402E+02 2.25432E+01 0.00000E+00
 -1       708 1.39608E+02 2.35500E+01 0.00000E+00
 -1       709 1.39608E+02 1.76500E+01 0.00000E+00
 -1       710 1.39608E+02 2.65000E+01 0.00000E+00
 -1       711 1.39608E+02 2.06000E+01 0.00000E+00
 -1       712 1.39608E+02 2.94000E+01 0.00000E+00
 -1       713 1.39608E+02 3.23500E+01 0.00000E+00
 -1       714 1.39608E+02 3.53000E+01 0.00000E+00
 -1       715 1.26710E+02 1.06694E+01 0.00000E+00
 -1       716 1.09719E+02 3.02970E+01 0.00000E+00
 -1       717 1.07076E+02 2.26983E+01 0.00000E+00
 -1       718 1.20951E+02 9.31645E+00 0.00000E+00
 -1       719 1.07220E+01 3.94717E+01 0.00000E+00
 -1       720 1.14709E+02 3.34934E+01 0.00000E+00
 -1       721 1.75350E+01 9.20225E+00 0.00000E+00
 -1       722 2.65350E+01 9.20225E+00 0.00000E+00
 -1       723 1.07310E+02 2.51219E+01 0.00000E+00
 -1       724 1.32663E+02 2.56031E+01 0.00000E+00
 -1       725 1.09307E+02 1.48957E+01 0.00000E+00
 -1       726 1.03920E+01 1.76125E+01 0.00000E+00
 -1       727 1.20345E+02 3.46539E+01 0.00000E+00
 -1       728 1.03920E+01 3.23250E+01 0.00000E+00
 -1       729 1.10974E+02 1.25679E+01 0.00000E+00
 -1       730 1.22830E+02 3.47266E+01 0.00000E+00
 -1       731 1.08088E+02 2.82437E+01 0.00000E+00
 -1       732 1.17196E+02 3.50292E+01 0.00000E+00
 -1       733 1.31744E+02 1.68511E+01 0.00000E+00
 -1       734 1.07409E+02 2.02587E+01 0.00000E+00
 -1       735 1.40178E+02 3.96665E+01 0.00000E+00
 -1       736 1.25756E+02 3.40604E+01 0.00000E+00
 -1       737 1.30541E+02 1.39779E+01 0.00000E+00
 -1       738 1.28756E+02 1.24210E+01 0.00000E+00
 -1       739 1.03920E+01 3.52625E+01 0.00000E+00
 -1       740 1.03920E+01 2.64500E+01 0.00000E+00
 -1       741 1.32489E+02 1.48616E+01 0.00000E+00
 -1       742 1.18735E+02 3.63276E+01 0.00000E+00
 -1       743 1.24758E+02 3.58094E+01 0.00000E+00
 -1       744 1.14087E+02 8.86178E+00 0.00000E+00
 -1       745 1.33992E+02 2.09915E+01 0.00000E+00
 -1       746 1.39870E+02 1.24985E+01 0.00000E+00
 -1       747 1.10419E+02 3.18281E+01 0.00000E+00
 -1       748 1.38879E+02 3.74540E+01 0.00000E+00
 -1       749 1.06931E+02 1.85222E+01 0.00000E+00
 -1       750 1.07756E+02 1.57552E+01 0.00000E+00
 -1       751 1.03920E+01 2.93875E+01 0.00000E+00
 -1       752 1.39739E+02 1.50743E+01 0.00000E+00
 -1       753 1.29900E+01 1.32000E+01 0.00000E+00
 -1       754 1.05377E+02 2.12243E+01 0.00000E+00
 -1       755 1.30589E+02 3.25354E+01 0.00000E+00
 -1       756 1.96500E+01 3.70100E+01 0.00000E+00
 -1       757 2.26500E+01 3.70100E+01 0.00000E+00
 -1       758 2.56500E+01 3.70100E+01 0.00000E+00
 -1       759 2.86500E+01 3.70100E+01 0.00000E+00
 -1       760 3.16500E+01 3.70100E+01 0.00000E+00
 -1       761 3.46500E+01 3.70100E+01 0.00000E+00
 -1       762 3.76500E+01 3.70100E+01 0.00000E+00
 -1       763 4.06500E+01 3.70100E+01 0.00000E+00
 -1       764 4.36500E+01 3.70100E+01 0.00000E+00
 -1       765 4.66500E+01 3.70100E+01 0.00000E+00
 -1       766 4.96500E+01 3.70100E+01 0.00000E+00
 -1       767 5.26500E+01 3.70100E+01 0.00000E+00
 -1       768 5.56500E+01 3.70100E+01 0.00000E+00
 -1       769 5.86500E+01 3.70100E+01 0.00000E+00
 -1       770 6.16500E+01 3.70100E+01 0.00000E+00
 -1       771 6.46500E+01 3.70100E+01 0.00000E+00
 -1       772 6.76500E+01 3.70100E+01 0.00000E+00
 -1       773 7.06500E+01 3.70100E+01 0.00000E+00
 -1       774 7.36500E+01 3.70100E+01 0.00000E+00
 -1       775 7.66500E+01 3.70100E+01 0.00000E+00
 -1       776 7.96500E+01 3.70100E+01 0.00000E+00
 -1       777 8.26500E+01 3.70100E+01 0.00000E+00
 -1       778 8.56500E+01 3.70100E+01 0.00000E+00
 -1       779 8.86500E+01 3.70100E+01 0.00000E+00
 -1       780 9.16500E+01 3.70100E+01 0.00000E+00
 -1       781 9.46500E+01 3.70100E+01 0.00000E+00
 -1       782 9.76500E+01 3.70100E+01 0.00000E+00
 -1       783 1.00650E+02 3.70100E+01 0.00000E+00
 -1       784 1.03650E+02 3.70100E+01 0.00000E+00
 -1       785 1.06650E+02 3.70100E+01 0.00000E+00
 -1       786 1.09650E+02 3.70100E+01 0.00000E+00
 -1       787 1.12650E+02 3.70100E+01 0.00000E+00
 -1       788 1.30650E+02 3.70100E+01 0.00000E+00
 -1       789 1.33650E+02 3.70100E+01 0.00000E+00
 -1       790 1.36264E+02 3.72320E+01 0.00000E+00
 -1       791 3.40350E+01 1.18003E+01 0.00000E+00
 -1       792 3.10350E+01 1.18003E+01 0.00000E+00
 -1       793 4.00350E+01 1.18003E+01 0.00000E+00
 -1       794 4.30350E+01 1.18003E+01 0.00000E+00
 -1       795 4.60350E+01 1.18003E+01 0.00000E+00
 -1       796 4.90350E+01 1.18003E+01 0.00000E+00
 -1       797 5.20350E+01 1.18003E+01 0.00000E+00
 -1       798 5.50350E+01 1.18003E+01 0.00000E+00
 -1       799 5.80350E+01 1.18003E+01 0.00000E+00
 -1       800 6.10350E+01 1.18003E+01 0.00000E+00
 -1       801 6.40350E+01 1.18003E+01 0.00000E+00
 -1       802 6.70350E+01 1.18003E+01 0.00000E+00
 -1       803 7.00350E+01 1.18003E+01 0.00000E+00
 -1       804 7.30350E+01 1.18003E+01 0.00000E+00
 -1       805 7.60350E+01 1.18003E+01 0.00000E+00
 -1       806 7.90350E+01 1.18003E+01 0.00000E+00
 -1       807 8.20350E+01 1.18003E+01 0.00000E+00
 -1       808 8.50350E+01 1.18003E+01 0.00000E+00
 -1       809 8.80350E+01 1.18003E+01 0.00000E+00
 -1       810 9.10350E+01 1.18003E+01 0.00000E+00
 -1       811 9.40350E+01 1.18003E+01 0.00000E+00
 -1       812 9.70350E+01 1.18003E+01 0.00000E+00
 -1       813 1.00035E+02 1.18003E+01 0.00000E+00
 -1       814 1.03035E+02 1.18003E+01 0.00000E+00
 -1       815 1.06035E+02 1.18003E+01 0.00000E+00
 -1       816 1.33035E+02 1.14201E+01 0.00000E+00
 -1       817 1.36035E+02 1.14201E+01 0.00000E+00
 -1       818 1.37953E+02 1.19593E+01 0.00000E+00
 -1       819 1.37010E+02 2.79500E+01 0.00000E+00
 -1       820 1.14963E+02 3.58630E+01 0.00000E+00
 -1       821 1.37010E+02 2.50000E+01 0.00000E+00
 -1       822 1.30159E+01 3.69431E+01 0.00000E+00
 -1       823 1.07429E+02 3.04413E+01 0.00000E+00
 -1       824 1.06035E+02 2.70973E+01 0.00000E+00
 -1       825 1.37010E+02 3.09000E+01 0.00000E+00
 -1       826 1.37010E+02 3.38500E+01 0.00000E+00
 -1       827 1.32466E+02 3.03839E+01 0.00000E+00
 -1       828 1.28034E+02 3.50759E+01 0.00000E+00
 -1       829 3.70350E+01 1.18003E+01 0.00000E+00
 -1       830 1.33942E+02 2.75003E+01 0.00000E+00
 -1       831 2.20350E+01 1.18003E+01 0.00000E+00
 -1       832 1.05153E+02 2.41071E+01 0.00000E+00
 -1       833 1.21523E+02 3.69071E+01 0.00000E+00
 -1       834 1.66500E+01 3.70100E+01 0.00000E+00
 -1       835 1.37625E+01 1.12011E+01 0.00000E+00
 -1       836 1.33865E+02 1.77595E+01 0.00000E+00
 -1       837 1.12501E+02 3.42043E+01 0.00000E+00
 -1       838 1.29900E+01 2.20250E+01 0.00000E+00
 -1       839 1.35017E+02 2.45525E+01 0.00000E+00
 -1       840 1.29900E+01 2.49750E+01 0.00000E+00
 -1       841 1.34610E+02 1.57700E+01 0.00000E+00
 -1       842 1.04899E+02 1.94879E+01 0.00000E+00
 -1       843 2.80350E+01 1.18003E+01 0.00000E+00
 -1       844 1.27453E+02 3.68342E+01 0.00000E+00
 -1       845 2.50350E+01 1.18003E+01 0.00000E+00
 -1       846 1.29900E+01 1.61375E+01 0.00000E+00
 -1       847 1.37055E+02 1.91250E+01 0.00000E+00
 -1       848 1.10392E+02 3.41477E+01 0.00000E+00
 -1       849 1.37010E+02 2.20500E+01 0.00000E+00
 -1       850 1.37186E+02 1.65493E+01 0.00000E+00
 -1       851 1.05376E+02 2.92949E+01 0.00000E+00
 -1       852 1.90350E+01 1.18003E+01 0.00000E+00
 -1       853 1.08129E+02 3.19724E+01 0.00000E+00
 -1       854 1.63988E+01 1.15007E+01 0.00000E+00
 -1       855 1.29900E+01 3.08563E+01 0.00000E+00
 -1       856 1.29900E+01 1.90812E+01 0.00000E+00
 -1       857 1.29900E+01 3.37938E+01 0.00000E+00
 -1       858 1.07537E+02 1.35321E+01 0.00000E+00
 -1       859 1.36637E+02 3.55410E+01 0.00000E+00
 -1       860 1.35762E+02 2.25524E+01 0.00000E+00
 -1       861 2.41500E+01 3.44120E+01 0.00000E+00
 -1       862 2.71500E+01 3.44120E+01 0.00000E+00
 -1       863 3.01500E+01 3.44120E+01 0.00000E+00
 -1       864 3.31500E+01 3.44120E+01 0.00000E+00
 -1       865 3.61500E+01 3.44120E+01 0.00000E+00
 -1       866 3.91500E+01 3.44120E+01 0.00000E+00
 -1       867 4.21500E+01 3.44120E+01 0.00000E+00
 -1       868 4.51500E+01 3.44120E+01 0.00000E+00
 -1       869 4.81500E+01 3.44120E+01 0.00000E+00
 -1       870 5.11500E+01 3.44120E+01 0.00000E+00
 -1       871 5.41500E+01 3.44120E+01 0.00000E+00
 -1       872 5.71500E+01 3.44120E+01 0.00000E+00
 -1       873 6.01500E+01 3.44120E+01 0.00000E+00
 -1       874 6.31500E+01 3.44120E+01 0.00000E+00
 -1       875 6.61500E+01 3.44120E+01 0.00000E+00
 -1       876 6.91500E+01 3.44120E+01 0.00000E+00
 -1       877 7.21500E+01 3.44120E+01 0.00000E+00
 -1       878 7.51500E+01 3.44120E+01 0.00000E+00
 -1       879 7.81500E+01 3.44120E+01 0.00000E+00
 -1       880 8.11500E+01 3.44120E+01 0.00000E+00
 -1       881 8.41500E+01 3.44120E+01 0.00000E+00
 -1       882 8.71500E+01 3.44120E+01 0.00000E+00
 -1       883 9.01500E+01 3.44120E+01 0.00000E+00
 -1       884 9.31500E+01 3.44120E+01 0.00000E+00
 -1       885 9.61500E+01 3.44120E+01 0.00000E+00
 -1       886 9.91500E+01 3.44120E+01 0.00000E+00
 -1       887 1.02150E+02 3.44120E+01 0.00000E+00
 -1       888 1.05150E+02 3.44120E+01 0.00000E+00
 -1       889 3.25350E+01 1.43982E+01 0.00000E+00
 -1       890 4.45350E+01 1.43982E+01 0.00000E+00
 -1       891 4.15350E+01 1.43982E+01 0.00000E+00
 -1       892 5.05350E+01 1.43982E+01 0.00000E+00
 -1       893 5.35350E+01 1.43982E+01 0.00000E+00
 -1       894 5.65350E+01 1.43982E+01 0.00000E+00
 -1       895 5.95350E+01 1.43982E+01 0.00000E+00
 -1       896 6.25350E+01 1.43982E+01 0.00000E+00
 -1       897 6.55350E+01 1.43982E+01 0.00000E+00
 -1       898 6.85350E+01 1.43982E+01 0.00000E+00
 -1       899 7.15350E+01 1.43982E+01 0.00000E+00
 -1       900 7.45350E+01 1.43982E+01 0.00000E+00
 -1       901 7.75350E+01 1.43982E+01 0.00000E+00
 -1       902 8.05350E+01 1.43982E+01 0.00000E+00
 -1       903 8.35350E+01 1.43982E+01 0.00000E+00
 -1       904 8.65350E+01 1.43982E+01 0.00000E+00
 -1       905 8.95350E+01 1.43982E+01 0.00000E+00
 -1       906 9.25350E+01 1.43982E+01 0.00000E+00
 -1       907 9.55350E+01 1.43982E+01 0.00000E+00
 -1       908 9.85350E+01 1.43982E+01 0.00000E+00
 -1       909 1.01535E+02 1.43982E+01 0.00000E+00
 -1       910 1.04535E+02 1.43982E+01 0.00000E+00
 -1       911 1.34412E+02 3.23750E+01 0.00000E+00
 -1       912 1.35221E+02 1.34104E+01 0.00000E+00
 -1       913 1.32150E+02 3.44120E+01 0.00000E+00
 -1       914 1.35179E+02 2.99526E+01 0.00000E+00
 -1       915 1.03467E+02 2.62298E+01 0.00000E+00
 -1       916 1.02720E+02 2.24674E+01 0.00000E+00
 -1       917 1.29900E+01 2.79188E+01 0.00000E+00
 -1       918 4.75350E+01 1.43982E+01 0.00000E+00
 -1       919 2.35350E+01 1.43982E+01 0.00000E+00
 -1       920 1.05057E+02 1.64572E+01 0.00000E+00
 -1       921 2.11500E+01 3.44120E+01 0.00000E+00
 -1       922 1.56263E+01 1.34996E+01 0.00000E+00
 -1       923 1.37570E+02 1.42543E+01 0.00000E+00
 -1       924 1.81500E+01 3.44120E+01 0.00000E+00
 -1       925 1.55700E+01 3.41029E+01 0.00000E+00
 -1       926 1.02242E+02 2.07310E+01 0.00000E+00
 -1       927 2.95350E+01 1.43982E+01 0.00000E+00
 -1       928 3.85350E+01 1.43982E+01 0.00000E+00
 -1       929 3.55350E+01 1.43982E+01 0.00000E+00
 -1       930 1.02808E+02 2.84274E+01 0.00000E+00
 -1       931 2.65350E+01 1.43982E+01 0.00000E+00
 -1       932 1.34394E+02 3.49765E+01 0.00000E+00
 -1       933 2.05350E+01 1.43982E+01 0.00000E+00
 -1       934 1.55880E+01 2.35000E+01 0.00000E+00
 -1       935 1.05403E+02 3.16582E+01 0.00000E+00
 -1       936 1.55880E+01 2.05562E+01 0.00000E+00
 -1       937 1.55880E+01 2.93875E+01 0.00000E+00
 -1       938 1.55790E+01 3.17452E+01 0.00000E+00
 -1       939 2.56500E+01 3.18140E+01 0.00000E+00
 -1       940 2.86500E+01 3.18140E+01 0.00000E+00
 -1       941 3.16500E+01 3.18140E+01 0.00000E+00
 -1       942 3.46500E+01 3.18140E+01 0.00000E+00
 -1       943 3.76500E+01 3.18140E+01 0.00000E+00
 -1       944 4.06500E+01 3.18140E+01 0.00000E+00
 -1       945 4.36500E+01 3.18140E+01 0.00000E+00
 -1       946 4.66500E+01 3.18140E+01 0.00000E+00
 -1       947 4.96500E+01 3.18140E+01 0.00000E+00
 -1       948 5.26500E+01 3.18140E+01 0.00000E+00
 -1       949 5.56500E+01 3.18140E+01 0.00000E+00
 -1       950 5.86500E+01 3.18140E+01 0.00000E+00
 -1       951 6.16500E+01 3.18140E+01 0.00000E+00
 -1       952 6.46500E+01 3.18140E+01 0.00000E+00
 -1       953 6.76500E+01 3.18140E+01 0.00000E+00
 -1       954 7.06500E+01 3.18140E+01 0.00000E+00
 -1       955 7.36500E+01 3.18140E+01 0.00000E+00
 -1       956 7.66500E+01 3.18140E+01 0.00000E+00
 -1       957 7.96500E+01 3.18140E+01 0.00000E+00
 -1       958 8.26500E+01 3.18140E+01 0.00000E+00
 -1       959 8.56500E+01 3.18140E+01 0.00000E+00
 -1       960 8.86500E+01 3.18140E+01 0.00000E+00
 -1       961 9.16500E+01 3.18140E+01 0.00000E+00
 -1       962 9.46500E+01 3.18140E+01 0.00000E+00
 -1       963 9.76500E+01 3.18140E+01 0.00000E+00
 -1       964 1.00650E+02 3.18140E+01 0.00000E+00
 -1       965 4.30350E+01 1.69963E+01 0.00000E+00
 -1       966 1.61458E+01 1.66550E+01 0.00000E+00
 -1       967 5.50350E+01 1.69963E+01 0.00000E+00
 -1       968 5.20350E+01 1.69963E+01 0.00000E+00
 -1       969 6.10350E+01 1.69963E+01 0.00000E+00
 -1       970 6.40350E+01 1.69963E+01 0.00000E+00
 -1       971 6.70350E+01 1.69963E+01 0.00000E+00
 -1       972 7.00350E+01 1.69963E+01 0.00000E+00
 -1       973 7.30350E+01 1.69963E+01 0.00000E+00
 -1       974 7.60350E+01 1.69963E+01 0.00000E+00
 -1       975 7.90350E+01 1.69963E+01 0.00000E+00
 -1       976 8.20350E+01 1.69963E+01 0.00000E+00
 -1       977 8.50350E+01 1.69963E+01 0.00000E+00
 -1       978 8.80350E+01 1.69963E+01 0.00000E+00
 -1       979 9.10350E+01 1.69963E+01 0.00000E+00
 -1       980 9.40350E+01 1.69963E+01 0.00000E+00
 -1       981 9.70350E+01 1.69963E+01 0.00000E+00
 -1       982 1.00035E+02 1.69963E+01 0.00000E+00
 -1       983 1.02546E+02 1.67267E+01 0.00000E+00
 -1       984 1.55880E+01 2.64438E+01 0.00000E+00
 -1       985 1.96500E+01 3.18140E+01 0.00000E+00
 -1       986 2.50350E+01 1.69963E+01 0.00000E+00
 -1       987 1.00753E+02 2.48131E+01 0.00000E+00
 -1       988 1.80806E+01 1.39489E+01 0.00000E+00
 -1       989 2.26500E+01 3.18140E+01 0.00000E+00
 -1       990 5.80350E+01 1.69963E+01 0.00000E+00
 -1       991 1.03013E+02 3.05545E+01 0.00000E+00
 -1       992 1.00275E+02 2.30767E+01 0.00000E+00
 -1       993 3.10350E+01 1.69963E+01 0.00000E+00
 -1       994 4.00350E+01 1.69963E+01 0.00000E+00
 -1       995 2.80350E+01 1.69963E+01 0.00000E+00
 -1       996 4.60350E+01 1.69963E+01 0.00000E+00
 -1       997 1.81860E+01 2.49719E+01 0.00000E+00
 -1       998 1.76145E+01 3.17796E+01 0.00000E+00
 -1       999 3.40350E+01 1.69963E+01 0.00000E+00
 -1      1000 1.81860E+01 2.79156E+01 0.00000E+00
 -1      1001 1.00095E+02 2.70107E+01 0.00000E+00
 -1      1002 2.20350E+01 1.69963E+01 0.00000E+00
 -1      1003 1.81860E+01 2.20281E+01 0.00000E+00
 -1      1004 4.90350E+01 1.69963E+01 0.00000E+00
 -1      1005 2.41500E+01 2.92160E+01 0.00000E+00
 -1      1006 2.71500E+01 2.92160E+01 0.00000E+00
 -1      1007 3.01500E+01 2.92160E+01 0.00000E+00
 -1      1008 3.31500E+01 2.92160E+01 0.00000E+00
 -1      1009 3.61500E+01 2.92160E+01 0.00000E+00
 -1      1010 3.91500E+01 2.92160E+01 0.00000E+00
 -1      1011 4.21500E+01 2.92160E+01 0.00000E+00
 -1      1012 4.51500E+01 2.92160E+01 0.00000E+00
 -1      1013 4.81500E+01 2.92160E+01 0.00000E+00
 -1      1014 5.11500E+01 2.92160E+01 0.00000E+00
 -1      1015 5.41500E+01 2.92160E+01 0.00000E+00
 -1      1016 5.71500E+01 2.92160E+01 0.00000E+00
 -1      1017 6.01500E+01 2.92160E+01 0.00000E+00
 -1      1018 6.31500E+01 2.92160E+01 0.00000E+00
 -1      1019 6.61500E+01 2.92160E+01 0.00000E+00
 -1      1020 6.91500E+01 2.92160E+01 0.00000E+00
 -1      1021 7.21500E+01 2.92160E+01 0.00000E+00
 -1      1022 7.51500E+01 2.92160E+01 0.00000E+00
 -1      1023 7.81500E+01 2.92160E+01 0.00000E+00
 -1      1024 8.11500E+01 2.92160E+01 0.00000E+00
 -1      1025 8.41500E+01 2.92160E+01 0.00000E+00
 -1      1026 8.71500E+01 2.92160E+01 0.00000E+00
 -1      1027 9.01500E+01 2.92160E+01 0.00000E+00
 -1      1028 9.31500E+01 2.92160E+01 0.00000E+00
 -1      1029 9.61500E+01 2.92160E+01 0.00000E+00
 -1      1030 9.95815E+01 2.98852E+01 0.00000E+00
 -1      1031 1.86002E+01 1.71044E+01 0.00000E+00
 -1      1032 5.05350E+01 1.95942E+01 0.00000E+00
 -1      1033 3.70350E+01 1.69963E+01 0.00000E+00
 -1      1034 6.55350E+01 1.95942E+01 0.00000E+00
 -1      1035 6.25350E+01 1.95942E+01 0.00000E+00
 -1      1036 7.15350E+01 1.95942E+01 0.00000E+00
 -1      1037 7.45350E+01 1.95942E+01 0.00000E+00
 -1      1038 7.75350E+01 1.95942E+01 0.00000E+00
 -1      1039 8.05350E+01 1.95942E+01 0.00000E+00
 -1      1040 8.35350E+01 1.95942E+01 0.00000E+00
 -1      1041 8.65350E+01 1.95942E+01 0.00000E+00
 -1      1042 8.95350E+01 1.95942E+01 0.00000E+00
 -1      1043 9.25350E+01 1.95942E+01 0.00000E+00
 -1      1044 9.55350E+01 1.95942E+01 0.00000E+00
 -1      1045 9.85350E+01 1.95942E+01 0.00000E+00
 -1      1046 5.65350E+01 1.95942E+01 0.00000E+00
 -1      1047 2.07840E+01 2.64438E+01 0.00000E+00
 -1      1048 6.85350E+01 1.95942E+01 0.00000E+00
 -1      1049 5.35350E+01 1.95942E+01 0.00000E+00
 -1      1050 1.83931E+01 1.95662E+01 0.00000E+00
 -1      1051 5.95350E+01 1.95942E+01 0.00000E+00
 -1      1052 2.65350E+01 1.95942E+01 0.00000E+00
 -1      1053 2.95350E+01 1.95942E+01 0.00000E+00
 -1      1054 4.15350E+01 1.95942E+01 0.00000E+00
 -1      1055 2.04703E+01 3.02277E+01 0.00000E+00
 -1      1056 2.07840E+01 2.35000E+01 0.00000E+00
 -1      1057 2.35350E+01 1.95942E+01 0.00000E+00
 -1      1058 4.45350E+01 1.95942E+01 0.00000E+00
 -1      1059 9.79354E+01 2.51658E+01 0.00000E+00
 -1      1060 3.25350E+01 1.95942E+01 0.00000E+00
 -1      1061 4.75350E+01 1.95942E+01 0.00000E+00
 -1      1062 2.56500E+01 2.66180E+01 0.00000E+00
 -1      1063 4.90350E+01 2.21922E+01 0.00000E+00
 -1      1064 2.86500E+01 2.66180E+01 0.00000E+00
 -1      1065 3.16500E+01 2.66180E+01 0.00000E+00
 -1      1066 3.46500E+01 2.66180E+01 0.00000E+00
 -1      1067 3.76500E+01 2.66180E+01 0.00000E+00
 -1      1068 4.06500E+01 2.66180E+01 0.00000E+00
 -1      1069 4.36500E+01 2.66180E+01 0.00000E+00
 -1      1070 4.66500E+01 2.66180E+01 0.00000E+00
 -1      1071 4.96500E+01 2.66180E+01 0.00000E+00
 -1      1072 5.26500E+01 2.66180E+01 0.00000E+00
 -1      1073 5.56500E+01 2.66180E+01 0.00000E+00
 -1      1074 5.86500E+01 2.66180E+01 0.00000E+00
 -1      1075 6.16500E+01 2.66180E+01 0.00000E+00
 -1      1076 6.46500E+01 2.66180E+01 0.00000E+00
 -1      1077 6.76500E+01 2.66180E+01 0.00000E+00
 -1      1078 7.06500E+01 2.66180E+01 0.00000E+00
 -1      1079 7.36500E+01 2.66180E+01 0.00000E+00
 -1      1080 7.66500E+01 2.66180E+01 0.00000E+00
 -1      1081 7.96500E+01 2.66180E+01 0.00000E+00
 -1      1082 8.26500E+01 2.66180E+01 0.00000E+00
 -1      1083 8.56500E+01 2.66180E+01 0.00000E+00
 -1      1084 8.86500E+01 2.66180E+01 0.00000E+00
 -1      1085 9.16500E+01 2.66180E+01 0.00000E+00
 -1      1086 9.46500E+01 2.66180E+01 0.00000E+00
 -1      1087 9.67352E+01 2.23800E+01 0.00000E+00
 -1      1088 6.40350E+01 2.21922E+01 0.00000E+00
 -1      1089 6.10350E+01 2.21922E+01 0.00000E+00
 -1      1090 5.80350E+01 2.21922E+01 0.00000E+00
 -1      1091 7.60350E+01 2.21922E+01 0.00000E+00
 -1      1092 7.30350E+01 2.21922E+01 0.00000E+00
 -1      1093 8.20350E+01 2.21922E+01 0.00000E+00
 -1      1094 8.50350E+01 2.21922E+01 0.00000E+00
 -1      1095 8.80350E+01 2.21922E+01 0.00000E+00
 -1      1096 9.10350E+01 2.21922E+01 0.00000E+00
 -1      1097 9.38851E+01 2.22861E+01 0.00000E+00
 -1      1098 7.00350E+01 2.21922E+01 0.00000E+00
 -1      1099 6.70350E+01 2.21922E+01 0.00000E+00
 -1      1100 5.50350E+01 2.21922E+01 0.00000E+00
 -1      1101 3.85350E+01 1.95942E+01 0.00000E+00
 -1      1102 7.90350E+01 2.21922E+01 0.00000E+00
 -1      1103 2.09640E+01 1.95802E+01 0.00000E+00
 -1      1104 5.20350E+01 2.21922E+01 0.00000E+00
 -1      1105 2.80350E+01 2.21922E+01 0.00000E+00
 -1      1106 4.60350E+01 2.21922E+01 0.00000E+00
 -1      1107 2.08740E+01 2.15401E+01 0.00000E+00
 -1      1108 9.42676E+01 2.44521E+01 0.00000E+00
 -1      1109 3.55350E+01 1.95942E+01 0.00000E+00
 -1      1110 4.00350E+01 2.21922E+01 0.00000E+00
 -1      1111 2.50350E+01 2.21922E+01 0.00000E+00
 -1      1112 4.30350E+01 2.21922E+01 0.00000E+00
 -1      1113 3.10350E+01 2.21922E+01 0.00000E+00
 -1      1114 3.61500E+01 2.40200E+01 0.00000E+00
 -1      1115 2.33820E+01 2.49719E+01 0.00000E+00
 -1      1116 3.31500E+01 2.40200E+01 0.00000E+00
 -1      1117 0.00000E+00 4.85250E+01 0.00000E+00
 -1      1118 0.00000E+00 4.55750E+01 0.00000E+00
 -1      1119 0.00000E+00 4.26250E+01 0.00000E+00
 -1      1120 0.00000E+00 3.96750E+01 0.00000E+00
 -1      1121 0.00000E+00 3.67250E+01 0.00000E+00
 -1      1122 0.00000E+00 3.38000E+01 0.00000E+00
 -1      1123 0.00000E+00 3.08750E+01 0.00000E+00
 -1      1124 0.00000E+00 2.79250E+01 0.00000E+00
 -1      1125 0.00000E+00 2.49750E+01 0.00000E+00
 -1      1126 0.00000E+00 2.20250E+01 0.00000E+00
 -1      1127 0.00000E+00 1.90750E+01 0.00000E+00
 -1      1128 0.00000E+00 1.61500E+01 0.00000E+00
 -1      1129 0.00000E+00 1.32250E+01 0.00000E+00
 -1      1130 0.00000E+00 1.02750E+01 0.00000E+00
 -1      1131 0.00000E+00 7.32500E+00 0.00000E+00
 -1      1132 0.00000E+00 4.37500E+00 0.00000E+00
 -1      1133 0.00000E+00 1.45000E+00 0.00000E+00
 -1      1134 1.57500E+00 5.00000E+01 0.00000E+00
 -1      1135 4.65000E+00 5.00000E+01 0.00000E+00
 -1      1136 7.65000E+00 5.00000E+01 0.00000E+00
 -1      1137 1.06500E+01 5.00000E+01 0.00000E+00
 -1      1138 1.36500E+01 5.00000E+01 0.00000E+00
 -1      1139 1.66500E+01 5.00000E+01 0.00000E+00
 -1      1140 1.96500E+01 5.00000E+01 0.00000E+00
 -1      1141 2.26500E+01 5.00000E+01 0.00000E+00
 -1      1142 2.56500E+01 5.00000E+01 0.00000E+00
 -1      1143 2.86500E+01 5.00000E+01 0.00000E+00
 -1      1144 3.16500E+01 5.00000E+01 0.00000E+00
 -1      1145 3.46500E+01 5.00000E+01 0.00000E+00
 -1      1146 3.76500E+01 5.00000E+01 0.00000E+00
 -1      1147 4.06500E+01 5.00000E+01 0.00000E+00
 -1      1148 4.36500E+01 5.00000E+01 0.00000E+00
 -1      1149 4.66500E+01 5.00000E+01 0.00000E+00
 -1      1150 4.96500E+01 5.00000E+01 0.00000E+00
 -1      1151 5.26500E+01 5.00000E+01 0.00000E+00
 -1      1152 5.56500E+01 5.00000E+01 0.00000E+00
 -1      1153 5.86500E+01 5.00000E+01 0.00000E+00
 -1      1154 6.16500E+01 5.00000E+01 0.00000E+00
 -1      1155 6.46500E+01 5.00000E+01 0.00000E+00
 -1      1156 6.76500E+01 5.00000E+01 0.00000E+00
 -1      1157 7.06500E+01 5.00000E+01 0.00000E+00
 -1      1158 7.36500E+01 5.00000E+01 0.00000E+00
 -1      1159 7.66500E+01 5.00000E+01 0.00000E+00
 -1      1160 7.96500E+01 5.00000E+01 0.00000E+00
 -1      1161 8.26500E+01 5.00000E+01 0.00000E+00
 -1      1162 8.56500E+01 5.00000E+01 0.00000E+00
 -1      1163 8.86500E+01 5.00000E+01 0.00000E+00
 -1      1164 9.16500E+01 5.00000E+01 0.00000E+00
 -1      1165 9.46500E+01 5.00000E+01 0.00000E+00
 -1      1166 9.76500E+01 5.00000E+01 0.00000E+00
 -1      1167 1.00650E+02 5.00000E+01 0.00000E+00
 -1      1168 1.03650E+02 5.00000E+01 0.00000E+00
 -1      1169 1.06650E+02 5.00000E+01 0.00000E+00
 -1      1170 1.09650E+02 5.00000E+01 0.00000E+00
 -1      1171 1.12650E+02 5.00000E+01 0.00000E+00
 -1      1172 1.15650E+02 5.00000E+01 0.00000E+00
 -1      1173 1.18650E+02 5.00000E+01 0.00000E+00
 -1      1174 1.21650E+02 5.00000E+01 0.00000E+00
 -1      1175 1.24650E+02 5.00000E+01 0.00000E+00
 -1      1176 1.27650E+02 5.00000E+01 0.00000E+00
 -1      1177 1.30650E+02 5.00000E+01 0.00000E+00
 -1      1178 1.33650E+02 5.00000E+01 0.00000E+00
 -1      1179 1.36650E+02 5.00000E+01 0.00000E+00
 -1      1180 1.39650E+02 5.00000E+01 0.00000E+00
 -1      1181 1.42650E+02 5.00000E+01 0.00000E+00
 -1      1182 1.45650E+02 5.00000E+01 0.00000E+00
 -1      1183 1.48575E+02 5.00000E+01 0.00000E+00
 -1      1184 1.57500E+00 0.00000E+00 0.00000E+00
 -1      1185 4.65000E+00 0.00000E+00 0.00000E+00
 -1      1186 7.65000E+00 0.00000E+00 0.00000E+00
 -1      1187 1.06500E+01 0.00000E+00 0.00000E+00
 -1      1188 1.36500E+01 0.00000E+00 0.00000E+00
 -1      1189 1.66500E+01 0.00000E+00 0.00000E+00
 -1      1190 1.96500E+01 0.00000E+00 0.00000E+00
 -1      1191 2.26500E+01 0.00000E+00 0.00000E+00
 -1      1192 2.56500E+01 0.00000E+00 0.00000E+00
 -1      1193 2.86500E+01 0.00000E+00 0.00000E+00
 -1      1194 3.16500E+01 0.00000E+00 0.00000E+00
 -1      1195 3.46500E+01 0.00000E+00 0.00000E+00
 -1      1196 3.76500E+01 0.00000E+00 0.00000E+00
 -1      1197 4.06500E+01 0.00000E+00 0.00000E+00
 -1      1198 4.36500E+01 0.00000E+00 0.00000E+00
 -1      1199 4.66500E+01 0.00000E+00 0.00000E+00
 -1      1200 4.96500E+01 0.00000E+00 0.00000E+00
 -1      1201 5.26500E+01 0.00000E+00 0.00000E+00
 -1      1202 5.56500E+01 0.00000E+00 0.00000E+00
 -1      1203 5.86500E+01 0.00000E+00 0.00000E+00
 -1      1204 6.16500E+01 0.00000E+00 0.00000E+00
 -1      1205 6.46500E+01 0.00000E+00 0.00000E+00
 -1      1206 6.76500E+01 0.00000E+00 0.00000E+00
 -1      1207 7.06500E+01 0.00000E+00 0.00000E+00
 -1      1208 7.36500E+01 0.00000E+00 0.00000E+00
 -1      1209 7.66500E+01 0.00000E+00 0.00000E+00
 -1      1210 7.96500E+01 0.00000E+00 0.00000E+00
 -1      1211 8.26500E+01 0.00000E+00 0.00000E+00
 -1      1212 8.56500E+01 0.00000E+00 0.00000E+00
 -1      1213 8.86500E+01 0.00000E+00 0.00000E+00
 -1      1214 9.16500E+01 0.00000E+00 0.00000E+00
 -1      1215 9.46500E+01 0.00000E+00 0.00000E+00
 -1      1216 9.76500E+01 0.00000E+00 0.00000E+00
 -1      1217 1.00650E+02 0.00000E+00 0.00000E+00
 -1      1218 1.03650E+02 0.00000E+00 0.00000E+00
 -1      1219 1.06650E+02 0.00000E+00 0.00000E+00
 -1      1220 1.09650E+02 0.00000E+00 0.00000E+00
 -1      1221 1.12650E+02 0.00000E+00 0.00000E+00
 -1      1222 1.15650E+02 0.00000E+00 0.00000E+00
 -1      1223 1.18650E+02 0.00000E+00 0.00000E+00
 -1      1224 1.21650E+02 0.00000E+00 0.00000E+00
 -1      1225 1.24650E+02 0.00000E+00 0.00000E+00
 -1      1226 1.27650E+02 0.00000E+00 0.00000E+00
 -1      1227 1.30650E+02 0.00000E+00 0.00000E+00
 -1      1228 1.33650E+02 0.00000E+00 0.00000E+00
 -1      1229 1.36650E+02 0.00000E+00 0.00000E+00
 -1      1230 1.39650E+02 0.00000E+00 0.00000E+00
 -1      1231 1.42650E+02 0.00000E+00 0.00000E+00
 -1      1232 1.45650E+02 0.00000E+00 0.00000E+00
 -1      1233 1.48575E+02 0.00000E+00 0.00000E+00
 -1      1234 1.50000E+02 1.47500E+00 0.00000E+00
 -1      1235 1.50000E+02 4.42500E+00 0.00000E+00
 -1      1236 1.50000E+02 7.37500E+00 0.00000E+00
 -1      1237 1.50000E+02 1.03250E+01 0.00000E+00
 -1      1238 1.50000E+02 1.32750E+01 0.00000E+00
 -1      1239 1.50000E+02 1.62000E+01 0.00000E+00
 -1      1240 1.50000E+02 1.91250E+01 0.00000E+00
 -1      1241 1.50000E+02 2.20750E+01 0.00000E+00
 -1      1242 1.50000E+02 2.50250E+01 0.00000E+00
 -1      1243 1.50000E+02 2.79750E+01 0.00000E+00
 -1      1244 1.50000E+02 3.09250E+01 0.00000E+00
 -1      1245 1.50000E+02 3.38500E+01 0.00000E+00
 -1      1246 1.50000E+02 3.67750E+01 0.00000E+00
 -1      1247 1.50000E+02 3.97250E+01 0.00000E+00
 -1      1248 1.50000E+02 4.26750E+01 0.00000E+00
 -1      1249 1.50000E+02 4.56250E+01 0.00000E+00
 -1      1250 1.50000E+02 4.85500E+01 0.00000E+00
 -1      1251 1.27144E+02 2.13232E+01 0.00000E+00
 -1      1252 1.26808E+02 1.98191E+01 0.00000E+00
 -1      1253 1.26161E+02 1.84392E+01 0.00000E+00
 -1      1254 1.25274E+02 1.72784E+01 0.00000E+00
 -1      1255 1.24181E+02 1.63370E+01 0.00000E+00
 -1      1256 1.22919E+02 1.56406E+01 0.00000E+00
 -1      1257 1.21540E+02 1.52170E+01 0.00000E+00
 -1      1258 1.20053E+02 1.50859E+01 0.00000E+00
 -1      1259 1.18576E+02 1.52720E+01 0.00000E+00
 -1      1260 1.17151E+02 1.57764E+01 0.00000E+00
 -1      1261 1.15860E+02 1.65806E+01 0.00000E+00
 -1      1262 1.14828E+02 1.75788E+01 0.00000E+00
 -1      1263 1.13980E+02 1.88445E+01 0.00000E+00
 -1      1264 1.13417E+02 2.02978E+01 0.00000E+00
 -1      1265 1.13194E+02 2.17291E+01 0.00000E+00
 -1      1266 1.13272E+02 2.31848E+01 0.00000E+00
 -1      1267 1.13658E+02 2.46148E+01 0.00000E+00
 -1      1268 1.14350E+02 2.59505E+01 0.00000E+00
 -1      1269 1.15304E+02 2.71022E+01 0.00000E+00
 -1      1270 1.16565E+02 2.80756E+01 0.00000E+00
 -1      1271 1.17975E+02 2.87264E+01 0.00000E+00
 -1      1272 1.19341E+02 2.90335E+01 0.00000E+00
 -1      1273 1.20862E+02 2.90518E+01 0.00000E+00
 -1      1274 1.22347E+02 2.87425E+01 0.00000E+00
 -1      1275 1.23697E+02 2.81400E+01 0.00000E+00
 -1      1276 1.24922E+02 2.72387E+01 0.00000E+00
 -1      1277 1.25964E+02 2.60357E+01 0.00000E+00
 -1      1278 1.26740E+02 2.45408E+01 0.00000E+00
 -1      1279 1.27136E+02 2.29139E+01 0.00000E+00
 -1      1280 1.57500E+00 4.85250E+01 0.00000E+00
 -1      1281 1.29900E+00 4.48375E+01 0.00000E+00
 -1      1282 1.29900E+00 4.63125E+01 0.00000E+00
 -1      1283 1.29900E+00 4.18875E+01 0.00000E+00
 -1      1284 1.29900E+00 4.33625E+01 0.00000E+00
 -1      1285 2.59800E+00 4.41000E+01 0.00000E+00
 -1      1286 1.29900E+00 3.89375E+01 0.00000E+00
 -1      1287 1.29900E+00 4.04125E+01 0.00000E+00
 -1      1288 2.59800E+00 4.11500E+01 0.00000E+00
 -1      1289 1.29900E+00 3.59875E+01 0.00000E+00
 -1      1290 1.29900E+00 3.74625E+01 0.00000E+00
 -1      1291 2.59800E+00 3.82000E+01 0.00000E+00
 -1      1292 1.29900E+00 3.30875E+01 0.00000E+00
 -1      1293 1.29900E+00 3.45375E+01 0.00000E+00
 -1      1294 2.59800E+00 3.52750E+01 0.00000E+00
 -1      1295 1.29900E+00 3.01375E+01 0.00000E+00
 -1      1296 1.29900E+00 3.16125E+01 0.00000E+00
 -1      1297 2.59800E+00 3.23500E+01 0.00000E+00
 -1      1298 1.29900E+00 2.71875E+01 0.00000E+00
 -1      1299 1.29900E+00 2.86625E+01 0.00000E+00
 -1      1300 2.59800E+00 2.94000E+01 0.00000E+00
 -1      1301 1.29900E+00 2.42375E+01 0.00000E+00
 -1      1302 1.29900E+00 2.57125E+01 0.00000E+00
 -1      1303 2.59800E+00 2.64500E+01 0.00000E+00
 -1      1304 1.29900E+00 2.12875E+01 0.00000E+00
 -1      1305 1.29900E+00 2.27625E+01 0.00000E+00
 -1      1306 2.59800E+00 2.35000E+01 0.00000E+00
 -1      1307 1.29900E+00 1.83375E+01 0.00000E+00
 -1      1308 1.29900E+00 1.98125E+01 0.00000E+00
 -1      1309 2.59800E+00 2.05500E+01 0.00000E+00
 -1      1310 1.29900E+00 1.54375E+01 0.00000E+00
 -1      1311 1.29900E+00 1.68875E+01 0.00000E+00
 -1      1312 2.59800E+00 1.76250E+01 0.00000E+00
 -1      1313 1.29900E+00 1.24875E+01 0.00000E+00
 -1      1314 1.29900E+00 1.39625E+01 0.00000E+00
 -1      1315 2.59800E+00 1.47000E+01 0.00000E+00
 -1      1316 1.29900E+00 9.53750E+00 0.00000E+00
 -1      1317 1.29900E+00 1.10125E+01 0.00000E+00
 -1      1318 2.59800E+00 1.17500E+01 0.00000E+00
 -1      1319 1.29900E+00 6.58750E+00 0.00000E+00
 -1      1320 1.29900E+00 8.06250E+00 0.00000E+00
 -1      1321 2.59800E+00 8.80000E+00 0.00000E+00
 -1      1322 1.29900E+00 3.63750E+00 0.00000E+00
 -1      1323 1.29900E+00 5.11250E+00 0.00000E+00
 -1      1324 2.59800E+00 5.85000E+00 0.00000E+00
 -1      1325 1.43700E+00 1.09375E+00 0.00000E+00
 -1      1326 1.43700E+00 2.54375E+00 0.00000E+00
 -1      1327 2.73600E+00 3.28125E+00 0.00000E+00
 -1      1328 3.01200E+00 1.09375E+00 0.00000E+00
 -1      1329 3.90000E+00 4.87010E+01 0.00000E+00
 -1      1330 5.40000E+00 4.87010E+01 0.00000E+00
 -1      1331 6.90000E+00 4.87010E+01 0.00000E+00
 -1      1332 8.40000E+00 4.87010E+01 0.00000E+00
 -1      1333 6.15000E+00 4.74020E+01 0.00000E+00
 -1      1334 9.90000E+00 4.87010E+01 0.00000E+00
 -1      1335 1.14000E+01 4.87010E+01 0.00000E+00
 -1      1336 9.15000E+00 4.74020E+01 0.00000E+00
 -1      1337 1.29000E+01 4.87010E+01 0.00000E+00
 -1      1338 1.44000E+01 4.87010E+01 0.00000E+00
 -1      1339 1.21500E+01 4.74020E+01 0.00000E+00
 -1      1340 1.59000E+01 4.87010E+01 0.00000E+00
 -1      1341 1.74000E+01 4.87010E+01 0.00000E+00
 -1      1342 1.51500E+01 4.74020E+01 0.00000E+00
 -1      1343 1.89000E+01 4.87010E+01 0.00000E+00
 -1      1344 2.04000E+01 4.87010E+01 0.00000E+00
 -1      1345 1.81500E+01 4.74020E+01 0.00000E+00
 -1      1346 2.19000E+01 4.87010E+01 0.00000E+00
 -1      1347 2.34000E+01 4.87010E+01 0.00000E+00
 -1      1348 2.11500E+01 4.74020E+01 0.00000E+00
 -1      1349 2.49000E+01 4.87010E+01 0.00000E+00
 -1      1350 2.64000E+01 4.87010E+01 0.00000E+00
 -1      1351 2.41500E+01 4.74020E+01 0.00000E+00
 -1      1352 2.79000E+01 4.87010E+01 0.00000E+00
 -1      1353 2.94000E+01 4.87010E+01 0.00000E+00
 -1      1354 2.71500E+01 4.74020E+01 0.00000E+00
 -1      1355 3.09000E+01 4.87010E+01 0.00000E+00
 -1      1356 3.24000E+01 4.87010E+01 0.00000E+00
 -1      1357 3.01500E+01 4.74020E+01 0.00000E+00
 -1      1358 3.39000E+01 4.87010E+01 0.00000E+00
 -1      1359 3.54000E+01 4.87010E+01 0.00000E+00
 -1      1360 3.31500E+01 4.74020E+01 0.00000E+00
 -1      1361 3.69000E+01 4.87010E+01 0.00000E+00
 -1      1362 3.84000E+01 4.87010E+01 0.00000E+00
 -1      1363 3.61500E+01 4.74020E+01 0.00000E+00
 -1      1364 3.99000E+01 4.87010E+01 0.00000E+00
 -1      1365 4.14000E+01 4.87010E+01 0.00000E+00
 -1      1366 3.91500E+01 4.74020E+01 0.00000E+00
 -1      1367 4.29000E+01 4.87010E+01 0.00000E+00
 -1      1368 4.44000E+01 4.87010E+01 0.00000E+00
 -1      1369 4.21500E+01 4.74020E+01 0.00000E+00
 -1      1370 4.59000E+01 4.87010E+01 0.00000E+00
 -1      1371 4.74000E+01 4.87010E+01 0.00000E+00
 -1      1372 4.51500E+01 4.74020E+01 0.00000E+00
 -1      1373 4.89000E+01 4.87010E+01 0.00000E+00
 -1      1374 5.04000E+01 4.87010E+01 0.00000E+00
 -1      1375 4.81500E+01 4.74020E+01 0.00000E+00
 -1      1376 5.19000E+01 4.87010E+01 0.00000E+00
 -1      1377 5.34000E+01 4.87010E+01 0.00000E+00
 -1      1378 5.11500E+01 4.74020E+01 0.00000E+00
 -1      1379 5.49000E+01 4.87010E+01 0.00000E+00
 -1      1380 5.64000E+01 4.87010E+01 0.00000E+00
 -1      1381 5.41500E+01 4.74020E+01 0.00000E+00
 -1      1382 5.79000E+01 4.87010E+01 0.00000E+00
 -1      1383 5.94000E+01 4.87010E+01 0.00000E+00
 -1      1384 5.71500E+01 4.74020E+01 0.00000E+00
 -1      1385 6.09000E+01 4.87010E+01 0.00000E+00
 -1      1386 6.24000E+01 4.87010E+01 0.00000E+00
 -1      1387 6.01500E+01 4.74020E+01 0.00000E+00
 -1      1388 6.39000E+01 4.87010E+01 0.00000E+00
 -1      1389 6.54000E+01 4.87010E+01 0.00000E+00
 -1      1390 6.31500E+01 4.74020E+01 0.00000E+00
 -1      1391 6.69000E+01 4.87010E+01 0.00000E+00
 -1      1392 6.84000E+01 4.87010E+01 0.00000E+00
 -1      1393 6.61500E+01 4.74020E+01 0.00000E+00
 -1      1394 6.99000E+01 4.87010E+01 0.00000E+00
 -1      1395 7.14000E+01 4.87010E+01 0.00000E+00
 -1      1396 6.91500E+01 4.74020E+01 0.00000E+00
 -1      1397 7.29000E+01 4.87010E+01 0.00000E+00
 -1      1398 7.44000E+01 4.87010E+01 0.00000E+00
 -1      1399 7.21500E+01 4.74020E+01 0.00000E+00
 -1      1400 7.59000E+01 4.87010E+01 0.00000E+00
 -1      1401 7.74000E+01 4.87010E+01 0.00000E+00
 -1      1402 7.51500E+01 4.74020E+01 0.00000E+00
 -1      1403 7.89000E+01 4.87010E+01 0.00000E+00
 -1      1404 8.04000E+01 4.87010E+01 0.00000E+00
 -1      1405 7.81500E+01 4.74020E+01 0.00000E+00
 -1      1406 8.19000E+01 4.87010E+01 0.00000E+00
 -1      1407 8.34000E+01 4.87010E+01 0.00000E+00
 -1      1408 8.11500E+01 4.74020E+01 0.00000E+00
 -1      1409 8.49000E+01 4.87010E+01 0.00000E+00
 -1      1410 8.64000E+01 4.87010E+01 0.00000E+00
 -1      1411 8.41500E+01 4.74020E+01 0.00000E+00
 -1      1412 8.79000E+01 4.87010E+01 0.00000E+00
 -1      1413 8.94000E+01 4.87010E+01 0.00000E+00
 -1      1414 8.71500E+01 4.74020E+01 0.00000E+00
 -1      1415 9.09000E+01 4.87010E+01 0.00000E+00
 -1      1416 9.24000E+01 4.87010E+01 0.00000E+00
 -1      1417 9.01500E+01 4.74020E+01 0.00000E+00
 -1      1418 9.39000E+01 4.87010E+01 0.00000E+00
 -1      1419 9.54000E+01 4.87010E+01 0.00000E+00
 -1      1420 9.31500E+01 4.74020E+01 0.00000E+00
 -1      1421 9.69000E+01 4.87010E+01 0.00000E+00
 -1      1422 9.84000E+01 4.87010E+01 0.00000E+00
 -1      1423 9.61500E+01 4.74020E+01 0.00000E+00
 -1      1424 9.99000E+01 4.87010E+01 0.00000E+00
 -1      1425 1.01400E+02 4.87010E+01 0.00000E+00
 -1      1426 9.91500E+01 4.74020E+01 0.00000E+00
 -1      1427 1.02900E+02 4.87010E+01 0.00000E+00
 -1      1428 1.04400E+02 4.87010E+01 0.00000E+00
 -1      1429 1.02150E+02 4.74020E+01 0.00000E+00
 -1      1430 1.05900E+02 4.87010E+01 0.00000E+00
 -1      1431 1.07400E+02 4.87010E+01 0.00000E+00
 -1      1432 1.05150E+02 4.74020E+01 0.00000E+00
 -1      1433 1.08900E+02 4.87010E+01 0.00000E+00
 -1      1434 1.10400E+02 4.87010E+01 0.00000E+00
 -1      1435 1.08150E+02 4.74020E+01 0.00000E+00
 -1      1436 1.11900E+02 4.87010E+01 0.00000E+00
 -1      1437 1.13400E+02 4.87010E+01 0.00000E+00
 -1      1438 1.11150E+02 4.74020E+01 0.00000E+00
 -1      1439 1.14900E+02 4.87010E+01 0.00000E+00
 -1      1440 1.16400E+02 4.87010E+01 0.00000E+00
 -1      1441 1.14150E+02 4.74020E+01 0.00000E+00
 -1      1442 1.17900E+02 4.87010E+01 0.00000E+00
 -1      1443 1.19400E+02 4.87010E+01 0.00000E+00
 -1      1444 1.17150E+02 4.74020E+01 0.00000E+00
 -1      1445 1.20900E+02 4.87010E+01 0.00000E+00
 -1      1446 1.22400E+02 4.87010E+01 0.00000E+00
 -1      1447 1.20150E+02 4.74020E+01 0.00000E+00
 -1      1448 1.23900E+02 4.87010E+01 0.00000E+00
 -1      1449 1.25400E+02 4.87010E+01 0.00000E+00
 -1      1450 1.23150E+02 4.74020E+01 0.00000E+00
 -1      1451 1.26900E+02 4.87010E+01 0.00000E+00
 -1      1452 1.28400E+02 4.87010E+01 0.00000E+00
 -1      1453 1.26150E+02 4.74020E+01 0.00000E+00
 -1      1454 1.29900E+02 4.87010E+01 0.00000E+00
 -1      1455 1.31400E+02 4.87010E+01 0.00000E+00
 -1      1456 1.29150E+02 4.74020E+01 0.00000E+00
 -1      1457 1.32900E+02 4.87010E+01 0.00000E+00
 -1      1458 1.34400E+02 4.87010E+01 0.00000E+00
 -1      1459 1.32150E+02 4.74020E+01 0.00000E+00
 -1      1460 1.35900E+02 4.87010E+01 0.00000E+00
 -1      1461 1.37400E+02 4.87010E+01 0.00000E+00
 -1      1462 1.35150E+02 4.74020E+01 0.00000E+00
 -1      1463 1.38900E+02 4.87010E+01 0.00000E+00
 -1      1464 1.40400E+02 4.87010E+01 0.00000E+00
 -1      1465 1.38150E+02 4.74020E+01 0.00000E+00
 -1      1466 1.41900E+02 4.87010E+01 0.00000E+00
 -1      1467 1.43400E+02 4.87010E+01 0.00000E+00
 -1      1468 1.41150E+02 4.74020E+01 0.00000E+00
 -1      1469 1.44900E+02 4.87010E+01 0.00000E+00
 -1      1470 1.46400E+02 4.87010E+01 0.00000E+00
 -1      1471 1.44150E+02 4.74020E+01 0.00000E+00
 -1      1472 1.48575E+02 4.85500E+01 0.00000E+00
 -1      1473 1.47825E+02 4.72510E+01 0.00000E+00
 -1      1474 6.01200E+00 1.09375E+00 0.00000E+00
 -1      1475 4.51200E+00 1.09375E+00 0.00000E+00
 -1      1476 4.37400E+00 2.18750E+00 0.00000E+00
 -1      1477 9.01200E+00 1.09375E+00 0.00000E+00
 -1      1478 7.51200E+00 1.09375E+00 0.00000E+00
 -1      1479 7.37400E+00 2.18750E+00 0.00000E+00
 -1      1480 1.20120E+01 1.09375E+00 0.00000E+00
 -1      1481 1.05120E+01 1.09375E+00 0.00000E+00
 -1      1482 1.03740E+01 2.18750E+00 0.00000E+00
 -1      1483 1.50120E+01 1.09375E+00 0.00000E+00
 -1      1484 1.35120E+01 1.09375E+00 0.00000E+00
 -1      1485 1.33740E+01 2.18750E+00 0.00000E+00
 -1      1486 1.80120E+01 1.09375E+00 0.00000E+00
 -1      1487 1.65120E+01 1.09375E+00 0.00000E+00
 -1      1488 1.63740E+01 2.18750E+00 0.00000E+00
 -1      1489 2.10120E+01 1.09375E+00 0.00000E+00
 -1      1490 1.95120E+01 1.09375E+00 0.00000E+00
 -1      1491 1.93740E+01 2.18750E+00 0.00000E+00
 -1      1492 2.40120E+01 1.09375E+00 0.00000E+00
 -1      1493 2.25120E+01 1.09375E+00 0.00000E+00
 -1      1494 2.23740E+01 2.18750E+00 0.00000E+00
 -1      1495 2.70120E+01 1.09375E+00 0.00000E+00
 -1      1496 2.55120E+01 1.09375E+00 0.00000E+00
 -1      1497 2.53740E+01 2.18750E+00 0.00000E+00
 -1      1498 3.00120E+01 1.09375E+00 0.00000E+00
 -1      1499 2.85120E+01 1.09375E+00 0.00000E+00
 -1      1500 2.83740E+01 2.18750E+00 0.00000E+00
 -1      1501 3.30120E+01 1.09375E+00 0.00000E+00
 -1      1502 3.15120E+01 1.09375E+00 0.00000E+00
 -1      1503 3.13740E+01 2.18750E+00 0.00000E+00
 -1      1504 3.60120E+01 1.09375E+00 0.00000E+00
 -1      1505 3.45120E+01 1.09375E+00 0.00000E+00
 -1      1506 3.43740E+01 2.18750E+00 0.00000E+00
 -1      1507 3.90120E+01 1.09375E+00 0.00000E+00
 -1      1508 3.75120E+01 1.09375E+00 0.00000E+00
 -1      1509 3.73740E+01 2.18750E+00 0.00000E+00
 -1      1510 4.20120E+01 1.09375E+00 0.00000E+00
 -1      1511 4.05120E+01 1.09375E+00 0.00000E+00
 -1      1512 4.03740E+01 2.18750E+00 0.00000E+00
 -1      1513 4.50120E+01 1.09375E+00 0.00000E+00
 -1      1514 4.35120E+01 1.09375E+00 0.00000E+00
 -1      1515 4.33740E+01 2.18750E+00 0.00000E+00
 -1      1516 4.80120E+01 1.09375E+00 0.00000E+00
 -1      1517 4.65120E+01 1.09375E+00 0.00000E+00
 -1      1518 4.63740E+01 2.18750E+00 0.00000E+00
 -1      1519 5.10120E+01 1.09375E+00 0.00000E+00
 -1      1520 4.95120E+01 1.09375E+00 0.00000E+00
 -1      1521 4.93740E+01 2.18750E+00 0.00000E+00
 -1      1522 5.40120E+01 1.09375E+00 0.00000E+00
 -1      1523 5.25120E+01 1.09375E+00 0.00000E+00
 -1      1524 5.23740E+01 2.18750E+00 0.00000E+00
 -1      1525 5.70120E+01 1.09375E+00 0.00000E+00
 -1      1526 5.55120E+01 1.09375E+00 0.00000E+00
 -1      1527 5.53740E+01 2.18750E+00 0.00000E+00
 -1      1528 6.00120E+01 1.09375E+00 0.00000E+00
 -1      1529 5.85120E+01 1.09375E+00 0.00000E+00
 -1      1530 5.83740E+01 2.18750E+00 0.00000E+00
 -1      1531 6.30120E+01 1.09375E+00 0.00000E+00
 -1      1532 6.15120E+01 1.09375E+00 0.00000E+00
 -1      1533 6.13740E+01 2.18750E+00 0.00000E+00
 -1      1534 6.60120E+01 1.09375E+00 0.00000E+00
 -1      1535 6.45120E+01 1.09375E+00 0.00000E+00
 -1      1536 6.43740E+01 2.18750E+00 0.00000E+00
 -1      1537 6.90120E+01 1.09375E+00 0.00000E+00
 -1      1538 6.75120E+01 1.09375E+00 0.00000E+00
 -1      1539 6.73740E+01 2.18750E+00 0.00000E+00
 -1      1540 7.20120E+01 1.09375E+00 0.00000E+00
 -1      1541 7.05120E+01 1.09375E+00 0.00000E+00
 -1      1542 7.03740E+01 2.18750E+00 0.00000E+00
 -1      1543 7.50120E+01 1.09375E+00 0.00000E+00
 -1      1544 7.35120E+01 1.09375E+00 0.00000E+00
 -1      1545 7.33740E+01 2.18750E+00 0.00000E+00
 -1      1546 7.80120E+01 1.09375E+00 0.00000E+00
 -1      1547 7.65120E+01 1.09375E+00 0.00000E+00
 -1      1548 7.63740E+01 2.18750E+00 0.00000E+00
 -1      1549 8.10120E+01 1.09375E+00 0.00000E+00
 -1      1550 7.95120E+01 1.09375E+00 0.00000E+00
 -1      1551 7.93740E+01 2.18750E+00 0.00000E+00
 -1      1552 8.40120E+01 1.09375E+00 0.00000E+00
 -1      1553 8.25120E+01 1.09375E+00 0.00000E+00
 -1      1554 8.23740E+01 2.18750E+00 0.00000E+00
 -1      1555 8.70120E+01 1.09375E+00 0.00000E+00
 -1      1556 8.55120E+01 1.09375E+00 0.00000E+00
 -1      1557 8.53740E+01 2.18750E+00 0.00000E+00
 -1      1558 9.00120E+01 1.09375E+00 0.00000E+00
 -1      1559 8.85120E+01 1.09375E+00 0.00000E+00
 -1      1560 8.83740E+01 2.18750E+00 0.00000E+00
 -1      1561 9.30120E+01 1.09375E+00 0.00000E+00
 -1      1562 9.15120E+01 1.09375E+00 0.00000E+00
 -1      1563 9.13740E+01 2.18750E+00 0.00000E+00
 -1      1564 9.60120E+01 1.09375E+00 0.00000E+00
 -1      1565 9.45120E+01 1.09375E+00 0.00000E+00
 -1      1566 9.43740E+01 2.18750E+00 0.00000E+00
 -1      1567 9.90120E+01 1.09375E+00 0.00000E+00
 -1      1568 9.75120E+01 1.09375E+00 0.00000E+00
 -1      1569 9.73740E+01 2.18750E+00 0.00000E+00
 -1      1570 1.02012E+02 1.09375E+00 0.00000E+00
 -1      1571 1.00512E+02 1.09375E+00 0.00000E+00
 -1      1572 1.00374E+02 2.18750E+00 0.00000E+00
 -1      1573 1.05012E+02 1.09375E+00 0.00000E+00
 -1      1574 1.03512E+02 1.09375E+00 0.00000E+00
 -1      1575 1.03374E+02 2.18750E+00 0.00000E+00
 -1      1576 1.08012E+02 1.09375E+00 0.00000E+00
 -1      1577 1.06512E+02 1.09375E+00 0.00000E+00
 -1      1578 1.06374E+02 2.18750E+00 0.00000E+00
 -1      1579 1.11012E+02 1.09375E+00 0.00000E+00
 -1      1580 1.09512E+02 1.09375E+00 0.00000E+00
 -1      1581 1.09374E+02 2.18750E+00 0.00000E+00
 -1      1582 1.14012E+02 1.09375E+00 0.00000E+00
 -1      1583 1.12512E+02 1.09375E+00 0.00000E+00
 -1      1584 1.12374E+02 2.18750E+00 0.00000E+00
 -1      1585 1.17012E+02 1.09375E+00 0.00000E+00
 -1      1586 1.15512E+02 1.09375E+00 0.00000E+00
 -1      1587 1.15374E+02 2.18750E+00 0.00000E+00
 -1      1588 1.20012E+02 1.09375E+00 0.00000E+00
 -1      1589 1.18512E+02 1.09375E+00 0.00000E+00
 -1      1590 1.18374E+02 2.18750E+00 0.00000E+00
 -1      1591 1.23012E+02 1.09375E+00 0.00000E+00
 -1      1592 1.21512E+02 1.09375E+00 0.00000E+00
 -1      1593 1.21374E+02 2.18750E+00 0.00000E+00
 -1      1594 1.26012E+02 1.09375E+00 0.00000E+00
 -1      1595 1.24512E+02 1.09375E+00 0.00000E+00
 -1      1596 1.24374E+02 2.18750E+00 0.00000E+00
 -1      1597 1.29012E+02 1.09375E+00 0.00000E+00
 -1      1598 1.27512E+02 1.09375E+00 0.00000E+00
 -1      1599 1.27374E+02 2.18750E+00 0.00000E+00
 -1      1600 1.32012E+02 1.09375E+00 0.00000E+00
 -1      1601 1.30512E+02 1.09375E+00 0.00000E+00
 -1      1602 1.30374E+02 2.18750E+00 0.00000E+00
 -1      1603 1.35012E+02 1.09375E+00 0.00000E+00
 -1      1604 1.33512E+02 1.09375E+00 0.00000E+00
 -1      1605 1.33374E+02 2.18750E+00 0.00000E+00
 -1      1606 1.38012E+02 1.09375E+00 0.00000E+00
 -1      1607 1.36512E+02 1.09375E+00 0.00000E+00
 -1      1608 1.36374E+02 2.18750E+00 0.00000E+00
 -1      1609 1.41012E+02 1.09375E+00 0.00000E+00
 -1      1610 1.39512E+02 1.09375E+00 0.00000E+00
 -1      1611 1.39374E+02 2.18750E+00 0.00000E+00
 -1      1612 1.44012E+02 1.09375E+00 0.00000E+00
 -1      1613 1.42512E+02 1.09375E+00 0.00000E+00
 -1      1614 1.42374E+02 2.18750E+00 0.00000E+00
 -1      1615 1.47012E+02 1.09375E+00 0.00000E+00
 -1      1616 1.45512E+02 1.09375E+00 0.00000E+00
 -1      1617 1.45374E+02 2.18750E+00 0.00000E+00
 -1      1618 1.48575E+02 1.47500E+00 0.00000E+00
 -1      1619 1.48701E+02 5.16250E+00 0.00000E+00
 -1      1620 1.48701E+02 3.68750E+00 0.00000E+00
 -1      1621 1.48701E+02 8.11250E+00 0.00000E+00
 -1      1622 1.48701E+02 6.63750E+00 0.00000E+00
 -1      1623 1.47402E+02 5.90000E+00 0.00000E+00
 -1      1624 1.48701E+02 1.10625E+01 0.00000E+00
 -1      1625 1.48701E+02 9.58750E+00 0.00000E+00
 -1      1626 1.47402E+02 8.85000E+00 0.00000E+00
 -1      1627 1.48701E+02 1.40125E+01 0.00000E+00
 -1      1628 1.48701E+02 1.25375E+01 0.00000E+00
 -1      1629 1.47402E+02 1.18000E+01 0.00000E+00
 -1      1630 1.48701E+02 1.69125E+01 0.00000E+00
 -1      1631 1.48701E+02 1.54625E+01 0.00000E+00
 -1      1632 1.47402E+02 1.47250E+01 0.00000E+00
 -1      1633 1.48701E+02 1.98625E+01 0.00000E+00
 -1      1634 1.48701E+02 1.83875E+01 0.00000E+00
 -1      1635 1.47402E+02 1.76500E+01 0.00000E+00
 -1      1636 1.48701E+02 2.28125E+01 0.00000E+00
 -1      1637 1.48701E+02 2.13375E+01 0.00000E+00
 -1      1638 1.47402E+02 2.06000E+01 0.00000E+00
 -1      1639 1.48701E+02 2.57625E+01 0.00000E+00
 -1      1640 1.48701E+02 2.42875E+01 0.00000E+00
 -1      1641 1.47402E+02 2.35500E+01 0.00000E+00
 -1      1642 1.48701E+02 2.87125E+01 0.00000E+00
 -1      1643 1.48701E+02 2.72375E+01 0.00000E+00
 -1      1644 1.47402E+02 2.65000E+01 0.00000E+00
 -1      1645 1.48701E+02 3.16625E+01 0.00000E+00
 -1      1646 1.48701E+02 3.01875E+01 0.00000E+00
 -1      1647 1.47402E+02 2.94500E+01 0.00000E+00
 -1      1648 1.48701E+02 3.45625E+01 0.00000E+00
 -1      1649 1.48701E+02 3.31125E+01 0.00000E+00
 -1      1650 1.47402E+02 3.23750E+01 0.00000E+00
 -1      1651 1.48701E+02 3.75125E+01 0.00000E+00
 -1      1652 1.48701E+02 3.60375E+01 0.00000E+00
 -1      1653 1.47402E+02 3.53000E+01 0.00000E+00
 -1      1654 1.48701E+02 4.04625E+01 0.00000E+00
 -1      1655 1.48701E+02 3.89875E+01 0.00000E+00
 -1      1656 1.47402E+02 3.82500E+01 0.00000E+00
 -1      1657 1.48701E+02 4.34125E+01 0.00000E+00
 -1      1658 1.48701E+02 4.19375E+01 0.00000E+00
 -1      1659 1.47402E+02 4.12000E+01 0.00000E+00
 -1      1660 1.48263E+02 4.60692E+01 0.00000E+00
 -1      1661 1.48263E+02 4.45942E+01 0.00000E+00
 -1      1662 1.46964E+02 4.38568E+01 0.00000E+00
 -1      1663 1.46088E+02 4.62202E+01 0.00000E+00
 -1      1664 1.27784E+02 2.08701E+01 0.00000E+00
 -1      1665 1.27867E+02 2.16270E+01 0.00000E+00
 -1      1666 1.27373E+02 1.92140E+01 0.00000E+00
 -1      1667 1.27626E+02 1.99516E+01 0.00000E+00
 -1      1668 1.26451E+02 1.78263E+01 0.00000E+00
 -1      1669 1.26839E+02 1.84621E+01 0.00000E+00
 -1      1670 1.25443E+02 1.66272E+01 0.00000E+00
 -1      1671 1.25934E+02 1.71476E+01 0.00000E+00
 -1      1672 1.24254E+02 1.55940E+01 0.00000E+00
 -1      1673 1.24852E+02 1.60091E+01 0.00000E+00
 -1      1674 1.22829E+02 1.49381E+01 0.00000E+00
 -1      1675 1.23487E+02 1.52170E+01 0.00000E+00
 -1      1676 1.21293E+02 1.45891E+01 0.00000E+00
 -1      1677 1.22008E+02 1.47301E+01 0.00000E+00
 -1      1678 1.19660E+02 1.45289E+01 0.00000E+00
 -1      1679 1.20424E+02 1.45144E+01 0.00000E+00
 -1      1680 1.18084E+02 1.47609E+01 0.00000E+00
 -1      1681 1.18788E+02 1.45946E+01 0.00000E+00
 -1      1682 1.16480E+02 1.52901E+01 0.00000E+00
 -1      1683 1.17190E+02 1.49484E+01 0.00000E+00
 -1      1684 1.15221E+02 1.63604E+01 0.00000E+00
 -1      1685 1.15797E+02 1.59079E+01 0.00000E+00
 -1      1686 1.14165E+02 1.74805E+01 0.00000E+00
 -1      1687 1.14618E+02 1.69423E+01 0.00000E+00
 -1      1688 1.13147E+02 1.88722E+01 0.00000E+00
 -1      1689 1.13527E+02 1.81452E+01 0.00000E+00
 -1      1690 1.12734E+02 2.04992E+01 0.00000E+00
 -1      1691 1.12922E+02 1.97854E+01 0.00000E+00
 -1      1692 1.12607E+02 2.20549E+01 0.00000E+00
 -1      1693 1.12643E+02 2.13455E+01 0.00000E+00
 -1      1694 1.12772E+02 2.36428E+01 0.00000E+00
 -1      1695 1.12654E+02 2.29047E+01 0.00000E+00
 -1      1696 1.13262E+02 2.51621E+01 0.00000E+00
 -1      1697 1.12997E+02 2.44778E+01 0.00000E+00
 -1      1698 1.14057E+02 2.66059E+01 0.00000E+00
 -1      1699 1.13632E+02 2.59640E+01 0.00000E+00
 -1      1700 1.15110E+02 2.78228E+01 0.00000E+00
 -1      1701 1.14589E+02 2.73166E+01 0.00000E+00
 -1      1702 1.16520E+02 2.89876E+01 0.00000E+00
 -1      1703 1.15778E+02 2.85394E+01 0.00000E+00
 -1      1704 1.18120E+02 2.93780E+01 0.00000E+00
 -1      1705 1.17468E+02 2.91613E+01 0.00000E+00
 -1      1706 1.19616E+02 2.97253E+01 0.00000E+00
 -1      1707 1.18908E+02 2.96392E+01 0.00000E+00
 -1      1708 1.21334E+02 2.97365E+01 0.00000E+00
 -1      1709 1.20530E+02 2.98145E+01 0.00000E+00
 -1      1710 1.22873E+02 2.92150E+01 0.00000E+00
 -1      1711 1.22198E+02 2.94342E+01 0.00000E+00
 -1      1712 1.24354E+02 2.85075E+01 0.00000E+00
 -1      1713 1.23689E+02 2.88931E+01 0.00000E+00
 -1      1714 1.25610E+02 2.74317E+01 0.00000E+00
 -1      1715 1.25056E+02 2.79405E+01 0.00000E+00
 -1      1716 1.26694E+02 2.60265E+01 0.00000E+00
 -1      1717 1.26220E+02 2.67194E+01 0.00000E+00
 -1      1718 1.27447E+02 2.43546E+01 0.00000E+00
 -1      1719 1.27151E+02 2.51460E+01 0.00000E+00
 -1      1720 1.27738E+02 2.25681E+01 0.00000E+00
 -1      1721 1.27640E+02 2.33916E+01 0.00000E+00
 -1      1722 1.25538E+02 1.58531E+01 0.00000E+00
 -1      1723 1.26646E+02 1.71498E+01 0.00000E+00
 -1      1724 1.48437E+02 2.56875E+00 0.00000E+00
 -1      1725 1.47138E+02 3.30625E+00 0.00000E+00
 -1      1726 1.28390E+02 2.02509E+01 0.00000E+00
 -1      1727 1.27697E+02 1.85804E+01 0.00000E+00
 -1      1728 1.28420E+02 2.21106E+01 0.00000E+00
 -1      1729 1.24179E+02 1.48580E+01 0.00000E+00
 -1      1730 1.22589E+02 1.42729E+01 0.00000E+00
 -1      1731 1.20899E+02 1.39902E+01 0.00000E+00
 -1      1732 1.19159E+02 1.39813E+01 0.00000E+00
 -1      1733 1.17393E+02 1.42345E+01 0.00000E+00
 -1      1734 1.15817E+02 1.50397E+01 0.00000E+00
 -1      1735 1.14531E+02 1.62393E+01 0.00000E+00
 -1      1736 1.13289E+02 1.74859E+01 0.00000E+00
 -1      1737 1.12426E+02 1.90637E+01 0.00000E+00
 -1      1738 1.12111E+02 2.08231E+01 0.00000E+00
 -1      1739 1.12067E+02 2.25192E+01 0.00000E+00
 -1      1740 1.12339E+02 2.42040E+01 0.00000E+00
 -1      1741 1.12934E+02 2.58410E+01 0.00000E+00
 -1      1742 1.13836E+02 2.73536E+01 0.00000E+00
 -1      1743 1.15037E+02 2.87808E+01 0.00000E+00
 -1      1744 1.16654E+02 2.96711E+01 0.00000E+00
 -1      1745 1.18391E+02 3.01060E+01 0.00000E+00
 -1      1746 1.20093E+02 3.04564E+01 0.00000E+00
 -1      1747 1.21871E+02 3.02433E+01 0.00000E+00
 -1      1748 1.23552E+02 2.96191E+01 0.00000E+00
 -1      1749 1.25070E+02 2.87302E+01 0.00000E+00
 -1      1750 1.26382E+02 2.74510E+01 0.00000E+00
 -1      1751 1.27449E+02 2.58582E+01 0.00000E+00
 -1      1752 1.28098E+02 2.40147E+01 0.00000E+00
 -1      1753 2.87400E+00 4.77875E+01 0.00000E+00
 -1      1754 3.89700E+00 4.04125E+01 0.00000E+00
 -1      1755 3.89700E+00 4.18875E+01 0.00000E+00
 -1      1756 3.89700E+00 4.33625E+01 0.00000E+00
 -1      1757 3.89700E+00 4.48375E+01 0.00000E+00
 -1      1758 5.19600E+00 4.26250E+01 0.00000E+00
 -1      1759 3.89700E+00 3.45500E+01 0.00000E+00
 -1      1760 3.89700E+00 3.60000E+01 0.00000E+00
 -1      1761 3.89700E+00 3.16000E+01 0.00000E+00
 -1      1762 3.89700E+00 3.30750E+01 0.00000E+00
 -1      1763 5.19600E+00 3.38000E+01 0.00000E+00
 -1      1764 3.89700E+00 2.86500E+01 0.00000E+00
 -1      1765 3.89700E+00 3.01250E+01 0.00000E+00
 -1      1766 5.19600E+00 3.08500E+01 0.00000E+00
 -1      1767 3.89700E+00 2.57000E+01 0.00000E+00
 -1      1768 3.89700E+00 2.71750E+01 0.00000E+00
 -1      1769 5.19600E+00 2.79000E+01 0.00000E+00
 -1      1770 3.89700E+00 2.27500E+01 0.00000E+00
 -1      1771 3.89700E+00 2.42250E+01 0.00000E+00
 -1      1772 5.19600E+00 2.49500E+01 0.00000E+00
 -1      1773 3.89700E+00 1.98000E+01 0.00000E+00
 -1      1774 3.89700E+00 2.12750E+01 0.00000E+00
 -1      1775 5.19600E+00 2.20000E+01 0.00000E+00
 -1      1776 3.89700E+00 1.69000E+01 0.00000E+00
 -1      1777 3.89700E+00 1.83500E+01 0.00000E+00
 -1      1778 5.19600E+00 1.90750E+01 0.00000E+00
 -1      1779 3.89700E+00 1.39500E+01 0.00000E+00
 -1      1780 3.89700E+00 1.54250E+01 0.00000E+00
 -1      1781 5.19600E+00 1.61500E+01 0.00000E+00
 -1      1782 3.89700E+00 1.10000E+01 0.00000E+00
 -1      1783 3.89700E+00 1.24750E+01 0.00000E+00
 -1      1784 5.19600E+00 1.32000E+01 0.00000E+00
 -1      1785 3.89700E+00 8.05000E+00 0.00000E+00
 -1      1786 3.89700E+00 9.52500E+00 0.00000E+00
 -1      1787 5.19600E+00 1.02500E+01 0.00000E+00
 -1      1788 3.89700E+00 5.10000E+00 0.00000E+00
 -1      1789 3.89700E+00 6.57500E+00 0.00000E+00
 -1      1790 5.19600E+00 7.30000E+00 0.00000E+00
 -1      1791 4.20450E+00 3.09687E+00 0.00000E+00
 -1      1792 4.06650E+00 4.19063E+00 0.00000E+00
 -1      1793 5.36550E+00 4.91563E+00 0.00000E+00
 -1      1794 5.70450E+00 3.09687E+00 0.00000E+00
 -1      1795 3.62400E+00 4.64885E+01 0.00000E+00
 -1      1796 8.70450E+00 3.09687E+00 0.00000E+00
 -1      1797 7.20450E+00 3.09687E+00 0.00000E+00
 -1      1798 7.03500E+00 4.00625E+00 0.00000E+00
 -1      1799 4.92300E+00 4.57510E+01 0.00000E+00
 -1      1800 8.40000E+00 4.61030E+01 0.00000E+00
 -1      1801 9.90000E+00 4.61030E+01 0.00000E+00
 -1      1802 1.14000E+01 4.61030E+01 0.00000E+00
 -1      1803 1.29000E+01 4.61030E+01 0.00000E+00
 -1      1804 1.06500E+01 4.48040E+01 0.00000E+00
 -1      1805 1.44000E+01 4.61030E+01 0.00000E+00
 -1      1806 1.59000E+01 4.61030E+01 0.00000E+00
 -1      1807 1.36500E+01 4.48040E+01 0.00000E+00
 -1      1808 1.74000E+01 4.61030E+01 0.00000E+00
 -1      1809 1.89000E+01 4.61030E+01 0.00000E+00
 -1      1810 1.66500E+01 4.48040E+01 0.00000E+00
 -1      1811 2.04000E+01 4.61030E+01 0.00000E+00
 -1      1812 2.19000E+01 4.61030E+01 0.00000E+00
 -1      1813 1.96500E+01 4.48040E+01 0.00000E+00
 -1      1814 2.34000E+01 4.61030E+01 0.00000E+00
 -1      1815 2.49000E+01 4.61030E+01 0.00000E+00
 -1      1816 2.26500E+01 4.48040E+01 0.00000E+00
 -1      1817 2.64000E+01 4.61030E+01 0.00000E+00
 -1      1818 2.79000E+01 4.61030E+01 0.00000E+00
 -1      1819 2.56500E+01 4.48040E+01 0.00000E+00
 -1      1820 2.94000E+01 4.61030E+01 0.00000E+00
 -1      1821 3.09000E+01 4.61030E+01 0.00000E+00
 -1      1822 2.86500E+01 4.48040E+01 0.00000E+00
 -1      1823 3.24000E+01 4.61030E+01 0.00000E+00
 -1      1824 3.39000E+01 4.61030E+01 0.00000E+00
 -1      1825 3.16500E+01 4.48040E+01 0.00000E+00
 -1      1826 3.54000E+01 4.61030E+01 0.00000E+00
 -1      1827 3.69000E+01 4.61030E+01 0.00000E+00
 -1      1828 3.46500E+01 4.48040E+01 0.00000E+00
 -1      1829 3.84000E+01 4.61030E+01 0.00000E+00
 -1      1830 3.99000E+01 4.61030E+01 0.00000E+00
 -1      1831 3.76500E+01 4.48040E+01 0.00000E+00
 -1      1832 4.14000E+01 4.61030E+01 0.00000E+00
 -1      1833 4.29000E+01 4.61030E+01 0.00000E+00
 -1      1834 4.06500E+01 4.48040E+01 0.00000E+00
 -1      1835 4.44000E+01 4.61030E+01 0.00000E+00
 -1      1836 4.59000E+01 4.61030E+01 0.00000E+00
 -1      1837 4.36500E+01 4.48040E+01 0.00000E+00
 -1      1838 4.74000E+01 4.61030E+01 0.00000E+00
 -1      1839 4.89000E+01 4.61030E+01 0.00000E+00
 -1      1840 4.66500E+01 4.48040E+01 0.00000E+00
 -1      1841 5.04000E+01 4.61030E+01 0.00000E+00
 -1      1842 5.19000E+01 4.61030E+01 0.00000E+00
 -1      1843 4.96500E+01 4.48040E+01 0.00000E+00
 -1      1844 5.34000E+01 4.61030E+01 0.00000E+00
 -1      1845 5.49000E+01 4.61030E+01 0.00000E+00
 -1      1846 5.26500E+01 4.48040E+01 0.00000E+00
 -1      1847 5.64000E+01 4.61030E+01 0.00000E+00
 -1      1848 5.79000E+01 4.61030E+01 0.00000E+00
 -1      1849 5.56500E+01 4.48040E+01 0.00000E+00
 -1      1850 5.94000E+01 4.61030E+01 0.00000E+00
 -1      1851 6.09000E+01 4.61030E+01 0.00000E+00
 -1      1852 5.86500E+01 4.48040E+01 0.00000E+00
 -1      1853 6.24000E+01 4.61030E+01 0.00000E+00
 -1      1854 6.39000E+01 4.61030E+01 0.00000E+00
 -1      1855 6.16500E+01 4.48040E+01 0.00000E+00
 -1      1856 6.54000E+01 4.61030E+01 0.00000E+00
 -1      1857 6.69000E+01 4.61030E+01 0.00000E+00
 -1      1858 6.46500E+01 4.48040E+01 0.00000E+00
 -1      1859 6.84000E+01 4.61030E+01 0.00000E+00
 -1      1860 6.99000E+01 4.61030E+01 0.00000E+00
 -1      1861 6.76500E+01 4.48040E+01 0.00000E+00
 -1      1862 7.14000E+01 4.61030E+01 0.00000E+00
 -1      1863 7.29000E+01 4.61030E+01 0.00000E+00
 -1      1864 7.06500E+01 4.48040E+01 0.00000E+00
 -1      1865 7.44000E+01 4.61030E+01 0.00000E+00
 -1      1866 7.59000E+01 4.61030E+01 0.00000E+00
 -1      1867 7.36500E+01 4.48040E+01 0.00000E+00
 -1      1868 7.74000E+01 4.61030E+01 0.00000E+00
 -1      1869 7.89000E+01 4.61030E+01 0.00000E+00
 -1      1870 7.66500E+01 4.48040E+01 0.00000E+00
 -1      1871 8.04000E+01 4.61030E+01 0.00000E+00
 -1      1872 8.19000E+01 4.61030E+01 0.00000E+00
 -1      1873 7.96500E+01 4.48040E+01 0.00000E+00
 -1      1874 8.34000E+01 4.61030E+01 0.00000E+00
 -1      1875 8.49000E+01 4.61030E+01 0.00000E+00
 -1      1876 8.26500E+01 4.48040E+01 0.00000E+00
 -1      1877 8.64000E+01 4.61030E+01 0.00000E+00
 -1      1878 8.79000E+01 4.61030E+01 0.00000E+00
 -1      1879 8.56500E+01 4.48040E+01 0.00000E+00
 -1      1880 8.94000E+01 4.61030E+01 0.00000E+00
 -1      1881 9.09000E+01 4.61030E+01 0.00000E+00
 -1      1882 8.86500E+01 4.48040E+01 0.00000E+00
 -1      1883 9.24000E+01 4.61030E+01 0.00000E+00
 -1      1884 9.39000E+01 4.61030E+01 0.00000E+00
 -1      1885 9.16500E+01 4.48040E+01 0.00000E+00
 -1      1886 9.54000E+01 4.61030E+01 0.00000E+00
 -1      1887 9.69000E+01 4.61030E+01 0.00000E+00
 -1      1888 9.46500E+01 4.48040E+01 0.00000E+00
 -1      1889 9.84000E+01 4.61030E+01 0.00000E+00
 -1      1890 9.99000E+01 4.61030E+01 0.00000E+00
 -1      1891 9.76500E+01 4.48040E+01 0.00000E+00
 -1      1892 1.01400E+02 4.61030E+01 0.00000E+00
 -1      1893 1.02900E+02 4.61030E+01 0.00000E+00
 -1      1894 1.00650E+02 4.48040E+01 0.00000E+00
 -1      1895 1.04400E+02 4.61030E+01 0.00000E+00
 -1      1896 1.05900E+02 4.61030E+01 0.00000E+00
 -1      1897 1.03650E+02 4.48040E+01 0.00000E+00
 -1      1898 1.07400E+02 4.61030E+01 0.00000E+00
 -1      1899 1.08900E+02 4.61030E+01 0.00000E+00
 -1      1900 1.06650E+02 4.48040E+01 0.00000E+00
 -1      1901 1.10400E+02 4.61030E+01 0.00000E+00
 -1      1902 1.11900E+02 4.61030E+01 0.00000E+00
 -1      1903 1.09650E+02 4.48040E+01 0.00000E+00
 -1      1904 1.13400E+02 4.61030E+01 0.00000E+00
 -1      1905 1.14900E+02 4.61030E+01 0.00000E+00
 -1      1906 1.12650E+02 4.48040E+01 0.00000E+00
 -1      1907 1.16400E+02 4.61030E+01 0.00000E+00
 -1      1908 1.17900E+02 4.61030E+01 0.00000E+00
 -1      1909 1.15650E+02 4.48040E+01 0.00000E+00
 -1      1910 1.19400E+02 4.61030E+01 0.00000E+00
 -1      1911 1.20900E+02 4.61030E+01 0.00000E+00
 -1      1912 1.18650E+02 4.48040E+01 0.00000E+00
 -1      1913 1.22400E+02 4.61030E+01 0.00000E+00
 -1      1914 1.23900E+02 4.61030E+01 0.00000E+00
 -1      1915 1.21650E+02 4.48040E+01 0.00000E+00
 -1      1916 1.25400E+02 4.61030E+01 0.00000E+00
 -1      1917 1.26900E+02 4.61030E+01 0.00000E+00
 -1      1918 1.24650E+02 4.48040E+01 0.00000E+00
 -1      1919 1.28400E+02 4.61030E+01 0.00000E+00
 -1      1920 1.29900E+02 4.61030E+01 0.00000E+00
 -1      1921 1.27650E+02 4.48040E+01 0.00000E+00
 -1      1922 1.31400E+02 4.61030E+01 0.00000E+00
 -1      1923 1.32900E+02 4.61030E+01 0.00000E+00
 -1      1924 1.30650E+02 4.48040E+01 0.00000E+00
 -1      1925 1.34400E+02 4.61030E+01 0.00000E+00
 -1      1926 1.35900E+02 4.61030E+01 0.00000E+00
 -1      1927 1.33650E+02 4.48040E+01 0.00000E+00
 -1      1928 1.37400E+02 4.61030E+01 0.00000E+00
 -1      1929 1.38900E+02 4.61030E+01 0.00000E+00
 -1      1930 1.36650E+02 4.48040E+01 0.00000E+00
 -1      1931 1.40400E+02 4.61030E+01 0.00000E+00
 -1      1932 1.41900E+02 4.61030E+01 0.00000E+00
 -1      1933 1.39650E+02 4.48040E+01 0.00000E+00
 -1      1934 1.43244E+02 4.61616E+01 0.00000E+00
 -1      1935 1.44744E+02 4.61616E+01 0.00000E+00
 -1      1936 1.45182E+02 4.49799E+01 0.00000E+00
 -1      1937 1.42494E+02 4.48626E+01 0.00000E+00
 -1      1938 1.17045E+01 3.09687E+00 0.00000E+00
 -1      1939 1.02045E+01 3.09687E+00 0.00000E+00
 -1      1940 1.00350E+01 4.00625E+00 0.00000E+00
 -1      1941 1.47045E+01 3.09687E+00 0.00000E+00
 -1      1942 1.32045E+01 3.09687E+00 0.00000E+00
 -1      1943 1.30350E+01 4.00625E+00 0.00000E+00
 -1      1944 1.77045E+01 3.09687E+00 0.00000E+00
 -1      1945 1.62045E+01 3.09687E+00 0.00000E+00
 -1      1946 1.60350E+01 4.00625E+00 0.00000E+00
 -1      1947 2.07045E+01 3.09687E+00 0.00000E+00
 -1      1948 1.92045E+01 3.09687E+00 0.00000E+00
 -1      1949 1.90350E+01 4.00625E+00 0.00000E+00
 -1      1950 2.37045E+01 3.09687E+00 0.00000E+00
 -1      1951 2.22045E+01 3.09687E+00 0.00000E+00
 -1      1952 2.20350E+01 4.00625E+00 0.00000E+00
 -1      1953 2.67045E+01 3.09687E+00 0.00000E+00
 -1      1954 2.52045E+01 3.09687E+00 0.00000E+00
 -1      1955 2.50350E+01 4.00625E+00 0.00000E+00
 -1      1956 2.97045E+01 3.09687E+00 0.00000E+00
 -1      1957 2.82045E+01 3.09687E+00 0.00000E+00
 -1      1958 2.80350E+01 4.00625E+00 0.00000E+00
 -1      1959 3.27045E+01 3.09687E+00 0.00000E+00
 -1      1960 3.12045E+01 3.09687E+00 0.00000E+00
 -1      1961 3.10350E+01 4.00625E+00 0.00000E+00
 -1      1962 3.57045E+01 3.09687E+00 0.00000E+00
 -1      1963 3.42045E+01 3.09687E+00 0.00000E+00
 -1      1964 3.40350E+01 4.00625E+00 0.00000E+00
 -1      1965 3.87045E+01 3.09687E+00 0.00000E+00
 -1      1966 3.72045E+01 3.09687E+00 0.00000E+00
 -1      1967 3.70350E+01 4.00625E+00 0.00000E+00
 -1      1968 4.17045E+01 3.09687E+00 0.00000E+00
 -1      1969 4.02045E+01 3.09687E+00 0.00000E+00
 -1      1970 4.00350E+01 4.00625E+00 0.00000E+00
 -1      1971 4.47045E+01 3.09687E+00 0.00000E+00
 -1      1972 4.32045E+01 3.09687E+00 0.00000E+00
 -1      1973 4.30350E+01 4.00625E+00 0.00000E+00
 -1      1974 4.77045E+01 3.09687E+00 0.00000E+00
 -1      1975 4.62045E+01 3.09687E+00 0.00000E+00
 -1      1976 4.60350E+01 4.00625E+00 0.00000E+00
 -1      1977 5.07045E+01 3.09687E+00 0.00000E+00
 -1      1978 4.92045E+01 3.09687E+00 0.00000E+00
 -1      1979 4.90350E+01 4.00625E+00 0.00000E+00
 -1      1980 5.37045E+01 3.09687E+00 0.00000E+00
 -1      1981 5.22045E+01 3.09687E+00 0.00000E+00
 -1      1982 5.20350E+01 4.00625E+00 0.00000E+00
 -1      1983 5.67045E+01 3.09687E+00 0.00000E+00
 -1      1984 5.52045E+01 3.09687E+00 0.00000E+00
 -1      1985 5.50350E+01 4.00625E+00 0.00000E+00
 -1      1986 5.97045E+01 3.09687E+00 0.00000E+00
 -1      1987 5.82045E+01 3.09687E+00 0.00000E+00
 -1      1988 5.80350E+01 4.00625E+00 0.00000E+00
 -1      1989 6.27045E+01 3.09687E+00 0.00000E+00
 -1      1990 6.12045E+01 3.09687E+00 0.00000E+00
 -1      1991 6.10350E+01 4.00625E+00 0.00000E+00
 -1      1992 6.57045E+01 3.09687E+00 0.00000E+00
 -1      1993 6.42045E+01 3.09687E+00 0.00000E+00
 -1      1994 6.40350E+01 4.00625E+00 0.00000E+00
 -1      1995 6.87045E+01 3.09687E+00 0.00000E+00
 -1      1996 6.72045E+01 3.09687E+00 0.00000E+00
 -1      1997 6.70350E+01 4.00625E+00 0.00000E+00
 -1      1998 7.17045E+01 3.09687E+00 0.00000E+00
 -1      1999 7.02045E+01 3.09687E+00 0.00000E+00
 -1      2000 7.00350E+01 4.00625E+00 0.00000E+00
 -1      2001 7.47045E+01 3.09687E+00 0.00000E+00
 -1      2002 7.32045E+01 3.09687E+00 0.00000E+00
 -1      2003 7.30350E+01 4.00625E+00 0.00000E+00
 -1      2004 7.77045E+01 3.09687E+00 0.00000E+00
 -1      2005 7.62045E+01 3.09687E+00 0.00000E+00
 -1      2006 7.60350E+01 4.00625E+00 0.00000E+00
 -1      2007 8.07045E+01 3.09687E+00 0.00000E+00
 -1      2008 7.92045E+01 3.09687E+00 0.00000E+00
 -1      2009 7.90350E+01 4.00625E+00 0.00000E+00
 -1      2010 8.37045E+01 3.09687E+00 0.00000E+00
 -1      2011 8.22045E+01 3.09687E+00 0.00000E+00
 -1      2012 8.20350E+01 4.00625E+00 0.00000E+00
 -1      2013 8.67045E+01 3.09687E+00 0.00000E+00
 -1      2014 8.52045E+01 3.09687E+00 0.00000E+00
 -1      2015 8.50350E+01 4.00625E+00 0.00000E+00
 -1      2016 8.97045E+01 3.09687E+00 0.00000E+00
 -1      2017 8.82045E+01 3.09687E+00 0.00000E+00
 -1      2018 8.80350E+01 4.00625E+00 0.00000E+00
 -1      2019 9.27045E+01 3.09687E+00 0.00000E+00
 -1      2020 9.12045E+01 3.09687E+00 0.00000E+00
 -1      2021 9.10350E+01 4.00625E+00 0.00000E+00
 -1      2022 9.57045E+01 3.09687E+00 0.00000E+00
 -1      2023 9.42045E+01 3.09687E+00 0.00000E+00
 -1      2024 9.40350E+01 4.00625E+00 0.00000E+00
 -1      2025 9.87045E+01 3.09687E+00 0.00000E+00
 -1      2026 9.72045E+01 3.09687E+00 0.00000E+00
 -1      2027 9.70350E+01 4.00625E+00 0.00000E+00
 -1      2028 1.01704E+02 3.09687E+00 0.00000E+00
 -1      2029 1.00204E+02 3.09687E+00 0.00000E+00
 -1      2030 1.00035E+02 4.00625E+00 0.00000E+00
 -1      2031 1.04704E+02 3.09687E+00 0.00000E+00
 -1      2032 1.03204E+02 3.09687E+00 0.00000E+00
 -1      2033 1.03035E+02 4.00625E+00 0.00000E+00
 -1      2034 1.07704E+02 3.09687E+00 0.00000E+00
 -1      2035 1.06204E+02 3.09687E+00 0.00000E+00
 -1      2036 1.06035E+02 4.00625E+00 0.00000E+00
 -1      2037 1.10704E+02 3.09687E+00 0.00000E+00
 -1      2038 1.09204E+02 3.09687E+00 0.00000E+00
 -1      2039 1.09035E+02 4.00625E+00 0.00000E+00
 -1      2040 1.13704E+02 3.09687E+00 0.00000E+00
 -1      2041 1.12204E+02 3.09687E+00 0.00000E+00
 -1      2042 1.12035E+02 4.00625E+00 0.00000E+00
 -1      2043 1.16704E+02 3.09687E+00 0.00000E+00
 -1      2044 1.15204E+02 3.09687E+00 0.00000E+00
 -1      2045 1.15035E+02 4.00625E+00 0.00000E+00
 -1      2046 1.19704E+02 3.09687E+00 0.00000E+00
 -1      2047 1.18204E+02 3.09687E+00 0.00000E+00
 -1      2048 1.18035E+02 4.00625E+00 0.00000E+00
 -1      2049 1.22704E+02 3.09687E+00 0.00000E+00
 -1      2050 1.21204E+02 3.09687E+00 0.00000E+00
 -1      2051 1.21035E+02 4.00625E+00 0.00000E+00
 -1      2052 1.25704E+02 3.09687E+00 0.00000E+00
 -1      2053 1.24204E+02 3.09687E+00 0.00000E+00
 -1      2054 1.24035E+02 4.00625E+00 0.00000E+00
 -1      2055 1.28704E+02 3.09687E+00 0.00000E+00
 -1      2056 1.27204E+02 3.09687E+00 0.00000E+00
 -1      2057 1.27035E+02 4.00625E+00 0.00000E+00
 -1      2058 1.31704E+02 3.09687E+00 0.00000E+00
 -1      2059 1.30204E+02 3.09687E+00 0.00000E+00
 -1      2060 1.30035E+02 4.00625E+00 0.00000E+00
 -1      2061 1.34704E+02 3.09687E+00 0.00000E+00
 -1      2062 1.33204E+02 3.09687E+00 0.00000E+00
 -1      2063 1.33035E+02 4.00625E+00 0.00000E+00
 -1      2064 1.37704E+02 3.09687E+00 0.00000E+00
 -1      2065 1.36204E+02 3.09687E+00 0.00000E+00
 -1      2066 1.36035E+02 4.00625E+00 0.00000E+00
 -1      2067 1.40704E+02 3.09687E+00 0.00000E+00
 -1      2068 1.39204E+02 3.09687E+00 0.00000E+00
 -1      2069 1.39035E+02 4.00625E+00 0.00000E+00
 -1      2070 1.43704E+02 3.09687E+00 0.00000E+00
 -1      2071 1.42204E+02 3.09687E+00 0.00000E+00
 -1      2072 1.42035E+02 4.00625E+00 0.00000E+00
 -1      2073 1.46171E+02 3.20156E+00 0.00000E+00
 -1      2074 1.44671E+02 3.20156E+00 0.00000E+00
 -1      2075 1.44502E+02 4.11094E+00 0.00000E+00
 -1      2076 1.46435E+02 4.32031E+00 0.00000E+00
 -1      2077 1.46103E+02 1.25375E+01 0.00000E+00
 -1      2078 1.46103E+02 1.10625E+01 0.00000E+00
 -1      2079 1.46103E+02 9.58750E+00 0.00000E+00
 -1      2080 1.46103E+02 8.11250E+00 0.00000E+00
 -1      2081 1.44804E+02 1.03250E+01 0.00000E+00
 -1      2082 1.46269E+02 6.95391E+00 0.00000E+00
 -1      2083 1.46269E+02 5.47891E+00 0.00000E+00
 -1      2084 1.45302E+02 5.37422E+00 0.00000E+00
 -1      2085 1.44970E+02 7.69141E+00 0.00000E+00
 -1      2086 1.46103E+02 1.54375E+01 0.00000E+00
 -1      2087 1.46103E+02 1.39875E+01 0.00000E+00
 -1      2088 1.44804E+02 1.32500E+01 0.00000E+00
 -1      2089 1.46103E+02 1.83875E+01 0.00000E+00
 -1      2090 1.46103E+02 1.69125E+01 0.00000E+00
 -1      2091 1.44804E+02 1.61750E+01 0.00000E+00
 -1      2092 1.46103E+02 2.13375E+01 0.00000E+00
 -1      2093 1.46103E+02 1.98625E+01 0.00000E+00
 -1      2094 1.44804E+02 1.91250E+01 0.00000E+00
 -1      2095 1.46103E+02 2.42875E+01 0.00000E+00
 -1      2096 1.46103E+02 2.28125E+01 0.00000E+00
 -1      2097 1.44804E+02 2.20750E+01 0.00000E+00
 -1      2098 1.46103E+02 2.72375E+01 0.00000E+00
 -1      2099 1.46103E+02 2.57625E+01 0.00000E+00
 -1      2100 1.44804E+02 2.50250E+01 0.00000E+00
 -1      2101 1.46103E+02 3.01875E+01 0.00000E+00
 -1      2102 1.46103E+02 2.87125E+01 0.00000E+00
 -1      2103 1.44804E+02 2.79750E+01 0.00000E+00
 -1      2104 1.46103E+02 3.30875E+01 0.00000E+00
 -1      2105 1.46103E+02 3.16375E+01 0.00000E+00
 -1      2106 1.44804E+02 3.09000E+01 0.00000E+00
 -1      2107 1.46103E+02 3.60375E+01 0.00000E+00
 -1      2108 1.46103E+02 3.45625E+01 0.00000E+00
 -1      2109 1.44804E+02 3.38250E+01 0.00000E+00
 -1      2110 1.46103E+02 3.89875E+01 0.00000E+00
 -1      2111 1.46103E+02 3.75125E+01 0.00000E+00
 -1      2112 1.44804E+02 3.67750E+01 0.00000E+00
 -1      2113 1.46103E+02 4.19375E+01 0.00000E+00
 -1      2114 1.46103E+02 4.04625E+01 0.00000E+00
 -1      2115 1.44804E+02 3.97250E+01 0.00000E+00
 -1      2116 1.27992E+02 1.78046E+01 0.00000E+00
 -1      2117 1.28527E+02 1.85566E+01 0.00000E+00
 -1      2118 1.29246E+02 2.17444E+01 0.00000E+00
 -1      2119 1.29117E+02 2.26855E+01 0.00000E+00
 -1      2120 1.28991E+02 1.96743E+01 0.00000E+00
 -1      2121 1.29149E+02 2.05929E+01 0.00000E+00
 -1      2122 1.26959E+02 1.64473E+01 0.00000E+00
 -1      2123 1.27475E+02 1.71260E+01 0.00000E+00
 -1      2124 1.28305E+02 1.71021E+01 0.00000E+00
 -1      2125 1.25711E+02 1.50961E+01 0.00000E+00
 -1      2126 1.26302E+02 1.57142E+01 0.00000E+00
 -1      2127 3.89700E+00 3.74688E+01 0.00000E+00
 -1      2128 3.89700E+00 3.89437E+01 0.00000E+00
 -1      2129 5.19600E+00 3.96813E+01 0.00000E+00
 -1      2130 5.19600E+00 3.67438E+01 0.00000E+00
 -1      2131 1.22358E+02 1.34594E+01 0.00000E+00
 -1      2132 1.23180E+02 1.36674E+01 0.00000E+00
 -1      2133 1.20524E+02 1.32654E+01 0.00000E+00
 -1      2134 1.21392E+02 1.33401E+01 0.00000E+00
 -1      2135 1.18674E+02 1.33679E+01 0.00000E+00
 -1      2136 1.19546E+02 1.33022E+01 0.00000E+00
 -1      2137 1.16796E+02 1.36119E+01 0.00000E+00
 -1      2138 1.17690E+02 1.34245E+01 0.00000E+00
 -1      2139 1.14957E+02 1.47750E+01 0.00000E+00
 -1      2140 1.15639E+02 1.41572E+01 0.00000E+00
 -1      2141 1.13749E+02 1.59387E+01 0.00000E+00
 -1      2142 1.14353E+02 1.53569E+01 0.00000E+00
 -1      2143 1.14175E+02 1.44744E+01 0.00000E+00
 -1      2144 1.12412E+02 1.72823E+01 0.00000E+00
 -1      2145 1.13050E+02 1.66176E+01 0.00000E+00
 -1      2146 1.11522E+02 1.93253E+01 0.00000E+00
 -1      2147 1.11747E+02 1.84122E+01 0.00000E+00
 -1      2148 1.11337E+02 2.11680E+01 0.00000E+00
 -1      2149 1.11428E+02 2.03217E+01 0.00000E+00
 -1      2150 1.11444E+02 2.29802E+01 0.00000E+00
 -1      2151 1.11396E+02 2.21304E+01 0.00000E+00
 -1      2152 1.11624E+02 2.48445E+01 0.00000E+00
 -1      2153 1.11399E+02 2.40095E+01 0.00000E+00
 -1      2154 1.12364E+02 2.64483E+01 0.00000E+00
 -1      2155 1.11994E+02 2.56464E+01 0.00000E+00
 -1      2156 1.11053E+02 2.54518E+01 0.00000E+00
 -1      2157 1.13449E+02 2.81977E+01 0.00000E+00
 -1      2158 1.12917E+02 2.74870E+01 0.00000E+00
 -1      2159 1.14805E+02 2.96670E+01 0.00000E+00
 -1      2160 1.14137E+02 2.89504E+01 0.00000E+00
 -1      2161 1.17004E+02 3.04367E+01 0.00000E+00
 -1      2162 1.16055E+02 3.02630E+01 0.00000E+00
 -1      2163 1.18580E+02 3.09590E+01 0.00000E+00
 -1      2164 1.17792E+02 3.06978E+01 0.00000E+00
 -1      2165 1.17194E+02 3.12897E+01 0.00000E+00
 -1      2166 1.20487E+02 3.11460E+01 0.00000E+00
 -1      2167 1.19573E+02 3.10568E+01 0.00000E+00
 -1      2168 1.22559E+02 3.08226E+01 0.00000E+00
 -1      2169 1.21695E+02 3.11249E+01 0.00000E+00
 -1      2170 1.24191E+02 3.01787E+01 0.00000E+00
 -1      2171 1.23375E+02 3.05006E+01 0.00000E+00
 -1      2172 1.23198E+02 3.13822E+01 0.00000E+00
 -1      2173 1.25907E+02 2.90487E+01 0.00000E+00
 -1      2174 1.25205E+02 2.96156E+01 0.00000E+00
 -1      2175 1.27211E+02 2.75438E+01 0.00000E+00
 -1      2176 1.26601E+02 2.82561E+01 0.00000E+00
 -1      2177 1.28253E+02 2.57165E+01 0.00000E+00
 -1      2178 1.27796E+02 2.65971E+01 0.00000E+00
 -1      2179 1.28949E+02 2.36839E+01 0.00000E+00
 -1      2180 1.28757E+02 2.46469E+01 0.00000E+00
 -1      2181 1.24099E+02 1.40501E+01 0.00000E+00
 -1      2182 1.24867E+02 1.44271E+01 0.00000E+00
 -1      2183 1.27132E+02 1.56903E+01 0.00000E+00
 -1      2184 6.42300E+00 4.57510E+01 0.00000E+00
 -1      2185 1.23868E+02 1.32366E+01 0.00000E+00
 -1      2186 7.17300E+00 4.44520E+01 0.00000E+00
 -1      2187 1.29286E+02 1.88985E+01 0.00000E+00
 -1      2188 1.30045E+02 1.92404E+01 0.00000E+00
 -1      2189 1.29581E+02 1.81227E+01 0.00000E+00
 -1      2190 1.29847E+02 2.11678E+01 0.00000E+00
 -1      2191 1.45665E+02 4.31193E+01 0.00000E+00
 -1      2192 1.29776E+02 2.33177E+01 0.00000E+00
 -1      2193 1.25631E+02 1.42882E+01 0.00000E+00
 -1      2194 1.29103E+02 2.53858E+01 0.00000E+00
 -1      2195 1.28014E+02 2.74021E+01 0.00000E+00
 -1      2196 1.25028E+02 3.04971E+01 0.00000E+00
 -1      2197 1.18974E+02 3.16487E+01 0.00000E+00
 -1      2198 1.15155E+02 3.04326E+01 0.00000E+00
 -1      2199 1.14255E+02 3.06021E+01 0.00000E+00
 -1      2200 1.15505E+02 3.11981E+01 0.00000E+00
 -1      2201 1.11977E+02 2.72924E+01 0.00000E+00
 -1      2202 1.10728E+02 2.36207E+01 0.00000E+00
 -1      2203 1.10714E+02 2.16290E+01 0.00000E+00
 -1      2204 1.10749E+02 1.96702E+01 0.00000E+00
 -1      2205 1.12872E+02 1.57352E+01 0.00000E+00
 -1      2206 1.15936E+02 1.33472E+01 0.00000E+00
 -1      2207 1.16232E+02 1.25372E+01 0.00000E+00
 -1      2208 1.15075E+02 1.30825E+01 0.00000E+00
 -1      2209 1.18077E+02 1.27453E+01 0.00000E+00
 -1      2210 1.21983E+02 1.27346E+01 0.00000E+00
 -1      2211 1.20039E+02 1.26520E+01 0.00000E+00
 -1      2212 1.11508E+02 1.75439E+01 0.00000E+00
 -1      2213 1.11269E+02 1.66757E+01 0.00000E+00
 -1      2214 1.10603E+02 1.78056E+01 0.00000E+00
 -1      2215 1.13218E+02 2.90839E+01 0.00000E+00
 -1      2216 1.21175E+02 3.17253E+01 0.00000E+00
 -1      2217 1.20655E+02 3.23257E+01 0.00000E+00
 -1      2218 1.21862E+02 3.23045E+01 0.00000E+00
 -1      2219 1.26736E+02 2.91414E+01 0.00000E+00
 -1      2220 1.07850E+01 5.30525E+00 0.00000E+00
 -1      2221 9.28500E+00 5.30525E+00 0.00000E+00
 -1      2222 6.49500E+00 3.01125E+01 0.00000E+00
 -1      2223 6.49500E+00 3.15875E+01 0.00000E+00
 -1      2224 6.49500E+00 3.30625E+01 0.00000E+00
 -1      2225 6.49500E+00 3.45375E+01 0.00000E+00
 -1      2226 7.79400E+00 3.23250E+01 0.00000E+00
 -1      2227 6.49500E+00 2.42125E+01 0.00000E+00
 -1      2228 6.49500E+00 2.56875E+01 0.00000E+00
 -1      2229 6.49500E+00 2.12625E+01 0.00000E+00
 -1      2230 6.49500E+00 2.27375E+01 0.00000E+00
 -1      2231 7.79400E+00 2.34750E+01 0.00000E+00
 -1      2232 6.49500E+00 1.83625E+01 0.00000E+00
 -1      2233 6.49500E+00 1.98125E+01 0.00000E+00
 -1      2234 7.79400E+00 2.05500E+01 0.00000E+00
 -1      2235 6.49500E+00 1.54125E+01 0.00000E+00
 -1      2236 6.49500E+00 1.68875E+01 0.00000E+00
 -1      2237 7.79400E+00 1.76250E+01 0.00000E+00
 -1      2238 6.49500E+00 1.24625E+01 0.00000E+00
 -1      2239 6.49500E+00 1.39375E+01 0.00000E+00
 -1      2240 7.79400E+00 1.46750E+01 0.00000E+00
 -1      2241 6.49500E+00 9.51250E+00 0.00000E+00
 -1      2242 6.49500E+00 1.09875E+01 0.00000E+00
 -1      2243 7.79400E+00 1.17250E+01 0.00000E+00
 -1      2244 1.37850E+01 5.30525E+00 0.00000E+00
 -1      2245 1.22850E+01 5.30525E+00 0.00000E+00
 -1      2246 1.15350E+01 6.60425E+00 0.00000E+00
 -1      2247 9.90000E+00 4.35050E+01 0.00000E+00
 -1      2248 1.14000E+01 4.35050E+01 0.00000E+00
 -1      2249 1.23770E+02 1.21762E+01 0.00000E+00
 -1      2250 1.24689E+02 1.25589E+01 0.00000E+00
 -1      2251 1.29000E+01 4.35050E+01 0.00000E+00
 -1      2252 1.44000E+01 4.35050E+01 0.00000E+00
 -1      2253 1.21500E+01 4.22060E+01 0.00000E+00
 -1      2254 1.59000E+01 4.35050E+01 0.00000E+00
 -1      2255 1.74000E+01 4.35050E+01 0.00000E+00
 -1      2256 1.51500E+01 4.22060E+01 0.00000E+00
 -1      2257 1.89000E+01 4.35050E+01 0.00000E+00
 -1      2258 2.04000E+01 4.35050E+01 0.00000E+00
 -1      2259 1.81500E+01 4.22060E+01 0.00000E+00
 -1      2260 2.19000E+01 4.35050E+01 0.00000E+00
 -1      2261 2.34000E+01 4.35050E+01 0.00000E+00
 -1      2262 2.11500E+01 4.22060E+01 0.00000E+00
 -1      2263 2.49000E+01 4.35050E+01 0.00000E+00
 -1      2264 2.64000E+01 4.35050E+01 0.00000E+00
 -1      2265 2.41500E+01 4.22060E+01 0.00000E+00
 -1      2266 2.79000E+01 4.35050E+01 0.00000E+00
 -1      2267 2.94000E+01 4.35050E+01 0.00000E+00
 -1      2268 2.71500E+01 4.22060E+01 0.00000E+00
 -1      2269 3.09000E+01 4.35050E+01 0.00000E+00
 -1      2270 3.24000E+01 4.35050E+01 0.00000E+00
 -1      2271 3.01500E+01 4.22060E+01 0.00000E+00
 -1      2272 3.39000E+01 4.35050E+01 0.00000E+00
 -1      2273 3.54000E+01 4.35050E+01 0.00000E+00
 -1      2274 3.31500E+01 4.22060E+01 0.00000E+00
 -1      2275 3.69000E+01 4.35050E+01 0.00000E+00
 -1      2276 3.84000E+01 4.35050E+01 0.00000E+00
 -1      2277 3.61500E+01 4.22060E+01 0.00000E+00
 -1      2278 3.99000E+01 4.35050E+01 0.00000E+00
 -1      2279 4.14000E+01 4.35050E+01 0.00000E+00
 -1      2280 3.91500E+01 4.22060E+01 0.00000E+00
 -1      2281 4.29000E+01 4.35050E+01 0.00000E+00
 -1      2282 4.44000E+01 4.35050E+01 0.00000E+00
 -1      2283 4.21500E+01 4.22060E+01 0.00000E+00
 -1      2284 4.59000E+01 4.35050E+01 0.00000E+00
 -1      2285 4.74000E+01 4.35050E+01 0.00000E+00
 -1      2286 4.51500E+01 4.22060E+01 0.00000E+00
 -1      2287 4.89000E+01 4.35050E+01 0.00000E+00
 -1      2288 5.04000E+01 4.35050E+01 0.00000E+00
 -1      2289 4.81500E+01 4.22060E+01 0.00000E+00
 -1      2290 5.19000E+01 4.35050E+01 0.00000E+00
 -1      2291 5.34000E+01 4.35050E+01 0.00000E+00
 -1      2292 5.11500E+01 4.22060E+01 0.00000E+00
 -1      2293 5.49000E+01 4.35050E+01 0.00000E+00
 -1      2294 5.64000E+01 4.35050E+01 0.00000E+00
 -1      2295 5.41500E+01 4.22060E+01 0.00000E+00
 -1      2296 5.79000E+01 4.35050E+01 0.00000E+00
 -1      2297 5.94000E+01 4.35050E+01 0.00000E+00
 -1      2298 5.71500E+01 4.22060E+01 0.00000E+00
 -1      2299 6.09000E+01 4.35050E+01 0.00000E+00
 -1      2300 6.24000E+01 4.35050E+01 0.00000E+00
 -1      2301 6.01500E+01 4.22060E+01 0.00000E+00
 -1      2302 6.39000E+01 4.35050E+01 0.00000E+00
 -1      2303 6.54000E+01 4.35050E+01 0.00000E+00
 -1      2304 6.31500E+01 4.22060E+01 0.00000E+00
 -1      2305 6.69000E+01 4.35050E+01 0.00000E+00
 -1      2306 6.84000E+01 4.35050E+01 0.00000E+00
 -1      2307 6.61500E+01 4.22060E+01 0.00000E+00
 -1      2308 6.99000E+01 4.35050E+01 0.00000E+00
 -1      2309 7.14000E+01 4.35050E+01 0.00000E+00
 -1      2310 6.91500E+01 4.22060E+01 0.00000E+00
 -1      2311 7.29000E+01 4.35050E+01 0.00000E+00
 -1      2312 7.44000E+01 4.35050E+01 0.00000E+00
 -1      2313 7.21500E+01 4.22060E+01 0.00000E+00
 -1      2314 7.59000E+01 4.35050E+01 0.00000E+00
 -1      2315 7.74000E+01 4.35050E+01 0.00000E+00
 -1      2316 7.51500E+01 4.22060E+01 0.00000E+00
 -1      2317 7.89000E+01 4.35050E+01 0.00000E+00
 -1      2318 8.04000E+01 4.35050E+01 0.00000E+00
 -1      2319 7.81500E+01 4.22060E+01 0.00000E+00
 -1      2320 8.19000E+01 4.35050E+01 0.00000E+00
 -1      2321 8.34000E+01 4.35050E+01 0.00000E+00
 -1      2322 8.11500E+01 4.22060E+01 0.00000E+00
 -1      2323 8.49000E+01 4.35050E+01 0.00000E+00
 -1      2324 8.64000E+01 4.35050E+01 0.00000E+00
 -1      2325 8.41500E+01 4.22060E+01 0.00000E+00
 -1      2326 8.79000E+01 4.35050E+01 0.00000E+00
 -1      2327 8.94000E+01 4.35050E+01 0.00000E+00
 -1      2328 8.71500E+01 4.22060E+01 0.00000E+00
 -1      2329 9.09000E+01 4.35050E+01 0.00000E+00
 -1      2330 9.24000E+01 4.35050E+01 0.00000E+00
 -1      2331 9.01500E+01 4.22060E+01 0.00000E+00
 -1      2332 9.39000E+01 4.35050E+01 0.00000E+00
 -1      2333 9.54000E+01 4.35050E+01 0.00000E+00
 -1      2334 9.31500E+01 4.22060E+01 0.00000E+00
 -1      2335 9.69000E+01 4.35050E+01 0.00000E+00
 -1      2336 9.84000E+01 4.35050E+01 0.00000E+00
 -1      2337 9.61500E+01 4.22060E+01 0.00000E+00
 -1      2338 9.99000E+01 4.35050E+01 0.00000E+00
 -1      2339 1.01400E+02 4.35050E+01 0.00000E+00
 -1      2340 9.91500E+01 4.22060E+01 0.00000E+00
 -1      2341 1.02900E+02 4.35050E+01 0.00000E+00
 -1      2342 1.04400E+02 4.35050E+01 0.00000E+00
 -1      2343 1.02150E+02 4.22060E+01 0.00000E+00
 -1      2344 1.05900E+02 4.35050E+01 0.00000E+00
 -1      2345 1.07400E+02 4.35050E+01 0.00000E+00
 -1      2346 1.05150E+02 4.22060E+01 0.00000E+00
 -1      2347 1.08900E+02 4.35050E+01 0.00000E+00
 -1      2348 1.10400E+02 4.35050E+01 0.00000E+00
 -1      2349 1.08150E+02 4.22060E+01 0.00000E+00
 -1      2350 1.11900E+02 4.35050E+01 0.00000E+00
 -1      2351 1.13400E+02 4.35050E+01 0.00000E+00
 -1      2352 1.11150E+02 4.22060E+01 0.00000E+00
 -1      2353 1.14900E+02 4.35050E+01 0.00000E+00
 -1      2354 1.16400E+02 4.35050E+01 0.00000E+00
 -1      2355 1.14150E+02 4.22060E+01 0.00000E+00
 -1      2356 1.17900E+02 4.35050E+01 0.00000E+00
 -1      2357 1.19400E+02 4.35050E+01 0.00000E+00
 -1      2358 1.17150E+02 4.22060E+01 0.00000E+00
 -1      2359 1.20900E+02 4.35050E+01 0.00000E+00
 -1      2360 1.22400E+02 4.35050E+01 0.00000E+00
 -1      2361 1.20150E+02 4.22060E+01 0.00000E+00
 -1      2362 1.23900E+02 4.35050E+01 0.00000E+00
 -1      2363 1.25400E+02 4.35050E+01 0.00000E+00
 -1      2364 1.23150E+02 4.22060E+01 0.00000E+00
 -1      2365 1.26900E+02 4.35050E+01 0.00000E+00
 -1      2366 1.28400E+02 4.35050E+01 0.00000E+00
 -1      2367 1.26150E+02 4.22060E+01 0.00000E+00
 -1      2368 1.29900E+02 4.35050E+01 0.00000E+00
 -1      2369 1.31400E+02 4.35050E+01 0.00000E+00
 -1      2370 1.29150E+02 4.22060E+01 0.00000E+00
 -1      2371 1.32900E+02 4.35050E+01 0.00000E+00
 -1      2372 1.34400E+02 4.35050E+01 0.00000E+00
 -1      2373 1.32150E+02 4.22060E+01 0.00000E+00
 -1      2374 1.35900E+02 4.35050E+01 0.00000E+00
 -1      2375 1.37400E+02 4.35050E+01 0.00000E+00
 -1      2376 1.35150E+02 4.22060E+01 0.00000E+00
 -1      2377 1.38900E+02 4.35050E+01 0.00000E+00
 -1      2378 1.40400E+02 4.35050E+01 0.00000E+00
 -1      2379 1.38150E+02 4.22060E+01 0.00000E+00
 -1      2380 1.97850E+01 5.30525E+00 0.00000E+00
 -1      2381 1.82850E+01 5.30525E+00 0.00000E+00
 -1      2382 2.27850E+01 5.30525E+00 0.00000E+00
 -1      2383 2.12850E+01 5.30525E+00 0.00000E+00
 -1      2384 2.05350E+01 6.60425E+00 0.00000E+00
 -1      2385 2.57850E+01 5.30525E+00 0.00000E+00
 -1      2386 2.42850E+01 5.30525E+00 0.00000E+00
 -1      2387 2.35350E+01 6.60425E+00 0.00000E+00
 -1      2388 2.87850E+01 5.30525E+00 0.00000E+00
 -1      2389 2.72850E+01 5.30525E+00 0.00000E+00
 -1      2390 2.65350E+01 6.60425E+00 0.00000E+00
 -1      2391 3.17850E+01 5.30525E+00 0.00000E+00
 -1      2392 3.02850E+01 5.30525E+00 0.00000E+00
 -1      2393 2.95350E+01 6.60425E+00 0.00000E+00
 -1      2394 3.47850E+01 5.30525E+00 0.00000E+00
 -1      2395 3.32850E+01 5.30525E+00 0.00000E+00
 -1      2396 3.25350E+01 6.60425E+00 0.00000E+00
 -1      2397 3.77850E+01 5.30525E+00 0.00000E+00
 -1      2398 3.62850E+01 5.30525E+00 0.00000E+00
 -1      2399 3.55350E+01 6.60425E+00 0.00000E+00
 -1      2400 4.07850E+01 5.30525E+00 0.00000E+00
 -1      2401 3.92850E+01 5.30525E+00 0.00000E+00
 -1      2402 3.85350E+01 6.60425E+00 0.00000E+00
 -1      2403 4.37850E+01 5.30525E+00 0.00000E+00
 -1      2404 4.22850E+01 5.30525E+00 0.00000E+00
 -1      2405 4.15350E+01 6.60425E+00 0.00000E+00
 -1      2406 4.67850E+01 5.30525E+00 0.00000E+00
 -1      2407 4.52850E+01 5.30525E+00 0.00000E+00
 -1      2408 4.45350E+01 6.60425E+00 0.00000E+00
 -1      2409 4.97850E+01 5.30525E+00 0.00000E+00
 -1      2410 4.82850E+01 5.30525E+00 0.00000E+00
 -1      2411 4.75350E+01 6.60425E+00 0.00000E+00
 -1      2412 5.27850E+01 5.30525E+00 0.00000E+00
 -1      2413 5.12850E+01 5.30525E+00 0.00000E+00
 -1      2414 5.05350E+01 6.60425E+00 0.00000E+00
 -1      2415 5.57850E+01 5.30525E+00 0.00000E+00
 -1      2416 5.42850E+01 5.30525E+00 0.00000E+00
 -1      2417 5.35350E+01 6.60425E+00 0.00000E+00
 -1      2418 5.87850E+01 5.30525E+00 0.00000E+00
 -1      2419 5.72850E+01 5.30525E+00 0.00000E+00
 -1      2420 5.65350E+01 6.60425E+00 0.00000E+00
 -1      2421 6.17850E+01 5.30525E+00 0.00000E+00
 -1      2422 6.02850E+01 5.30525E+00 0.00000E+00
 -1      2423 5.95350E+01 6.60425E+00 0.00000E+00
 -1      2424 6.47850E+01 5.30525E+00 0.00000E+00
 -1      2425 6.32850E+01 5.30525E+00 0.00000E+00
 -1      2426 6.25350E+01 6.60425E+00 0.00000E+00
 -1      2427 6.77850E+01 5.30525E+00 0.00000E+00
 -1      2428 6.62850E+01 5.30525E+00 0.00000E+00
 -1      2429 6.55350E+01 6.60425E+00 0.00000E+00
 -1      2430 7.07850E+01 5.30525E+00 0.00000E+00
 -1      2431 6.92850E+01 5.30525E+00 0.00000E+00
 -1      2432 6.85350E+01 6.60425E+00 0.00000E+00
 -1      2433 7.37850E+01 5.30525E+00 0.00000E+00
 -1      2434 7.22850E+01 5.30525E+00 0.00000E+00
 -1      2435 7.15350E+01 6.60425E+00 0.00000E+00
 -1      2436 7.67850E+01 5.30525E+00 0.00000E+00
 -1      2437 7.52850E+01 5.30525E+00 0.00000E+00
 -1      2438 7.45350E+01 6.60425E+00 0.00000E+00
 -1      2439 7.97850E+01 5.30525E+00 0.00000E+00
 -1      2440 7.82850E+01 5.30525E+00 0.00000E+00
 -1      2441 7.75350E+01 6.60425E+00 0.00000E+00
 -1      2442 8.27850E+01 5.30525E+00 0.00000E+00
 -1      2443 8.12850E+01 5.30525E+00 0.00000E+00
 -1      2444 8.05350E+01 6.60425E+00 0.00000E+00
 -1      2445 8.57850E+01 5.30525E+00 0.00000E+00
 -1      2446 8.42850E+01 5.30525E+00 0.00000E+00
 -1      2447 8.35350E+01 6.60425E+00 0.00000E+00
 -1      2448 8.87850E+01 5.30525E+00 0.00000E+00
 -1      2449 8.72850E+01 5.30525E+00 0.00000E+00
 -1      2450 8.65350E+01 6.60425E+00 0.00000E+00
 -1      2451 9.17850E+01 5.30525E+00 0.00000E+00
 -1      2452 9.02850E+01 5.30525E+00 0.00000E+00
 -1      2453 8.95350E+01 6.60425E+00 0.00000E+00
 -1      2454 9.47850E+01 5.30525E+00 0.00000E+00
 -1      2455 9.32850E+01 5.30525E+00 0.00000E+00
 -1      2456 9.25350E+01 6.60425E+00 0.00000E+00
 -1      2457 9.77850E+01 5.30525E+00 0.00000E+00
 -1      2458 9.62850E+01 5.30525E+00 0.00000E+00
 -1      2459 9.55350E+01 6.60425E+00 0.00000E+00
 -1      2460 1.00785E+02 5.30525E+00 0.00000E+00
 -1      2461 9.92850E+01 5.30525E+00 0.00000E+00
 -1      2462 9.85350E+01 6.60425E+00 0.00000E+00
 -1      2463 1.03785E+02 5.30525E+00 0.00000E+00
 -1      2464 1.02285E+02 5.30525E+00 0.00000E+00
 -1      2465 1.01535E+02 6.60425E+00 0.00000E+00
 -1      2466 1.06785E+02 5.30525E+00 0.00000E+00
 -1      2467 1.05285E+02 5.30525E+00 0.00000E+00
 -1      2468 1.04535E+02 6.60425E+00 0.00000E+00
 -1      2469 1.09785E+02 5.30525E+00 0.00000E+00
 -1      2470 1.08285E+02 5.30525E+00 0.00000E+00
 -1      2471 1.07535E+02 6.60425E+00 0.00000E+00
 -1      2472 1.12785E+02 5.30525E+00 0.00000E+00
 -1      2473 1.11285E+02 5.30525E+00 0.00000E+00
 -1      2474 1.10535E+02 6.60425E+00 0.00000E+00
 -1      2475 1.15785E+02 5.30525E+00 0.00000E+00
 -1      2476 1.14285E+02 5.30525E+00 0.00000E+00
 -1      2477 1.13535E+02 6.60425E+00 0.00000E+00
 -1      2478 1.18785E+02 5.30525E+00 0.00000E+00
 -1      2479 1.17285E+02 5.30525E+00 0.00000E+00
 -1      2480 1.16535E+02 6.60425E+00 0.00000E+00
 -1      2481 1.21785E+02 5.30525E+00 0.00000E+00
 -1      2482 1.20285E+02 5.30525E+00 0.00000E+00
 -1      2483 1.19535E+02 6.60425E+00 0.00000E+00
 -1      2484 1.24785E+02 5.30525E+00 0.00000E+00
 -1      2485 1.23285E+02 5.30525E+00 0.00000E+00
 -1      2486 1.22535E+02 6.60425E+00 0.00000E+00
 -1      2487 1.27785E+02 5.30525E+00 0.00000E+00
 -1      2488 1.26285E+02 5.30525E+00 0.00000E+00
 -1      2489 1.25535E+02 6.60425E+00 0.00000E+00
 -1      2490 1.30785E+02 5.30525E+00 0.00000E+00
 -1      2491 1.29285E+02 5.30525E+00 0.00000E+00
 -1      2492 1.28535E+02 6.60425E+00 0.00000E+00
 -1      2493 1.33785E+02 5.30525E+00 0.00000E+00
 -1      2494 1.32285E+02 5.30525E+00 0.00000E+00
 -1      2495 1.31535E+02 6.60425E+00 0.00000E+00
 -1      2496 1.36785E+02 5.30525E+00 0.00000E+00
 -1      2497 1.35285E+02 5.30525E+00 0.00000E+00
 -1      2498 1.34535E+02 6.60425E+00 0.00000E+00
 -1      2499 1.39785E+02 5.30525E+00 0.00000E+00
 -1      2500 1.38285E+02 5.30525E+00 0.00000E+00
 -1      2501 1.37535E+02 6.60425E+00 0.00000E+00
 -1      2502 1.42785E+02 5.30525E+00 0.00000E+00
 -1      2503 1.41285E+02 5.30525E+00 0.00000E+00
 -1      2504 1.40535E+02 6.60425E+00 0.00000E+00
 -1      2505 1.44336E+02 5.26953E+00 0.00000E+00
 -1      2506 1.43505E+02 1.69125E+01 0.00000E+00
 -1      2507 1.43505E+02 1.54375E+01 0.00000E+00
 -1      2508 1.43505E+02 1.98625E+01 0.00000E+00
 -1      2509 1.43505E+02 1.83875E+01 0.00000E+00
 -1      2510 1.42206E+02 1.76500E+01 0.00000E+00
 -1      2511 1.43505E+02 1.10625E+01 0.00000E+00
 -1      2512 1.43505E+02 9.58750E+00 0.00000E+00
 -1      2513 1.43505E+02 1.39750E+01 0.00000E+00
 -1      2514 1.43505E+02 1.25250E+01 0.00000E+00
 -1      2515 1.42206E+02 1.17875E+01 0.00000E+00
 -1      2516 1.42206E+02 1.47125E+01 0.00000E+00
 -1      2517 1.43505E+02 2.28125E+01 0.00000E+00
 -1      2518 1.43505E+02 2.13375E+01 0.00000E+00
 -1      2519 1.42206E+02 2.06000E+01 0.00000E+00
 -1      2520 1.43505E+02 2.57625E+01 0.00000E+00
 -1      2521 1.43505E+02 2.42875E+01 0.00000E+00
 -1      2522 1.42206E+02 2.35500E+01 0.00000E+00
 -1      2523 1.43505E+02 2.87125E+01 0.00000E+00
 -1      2524 1.43505E+02 2.72375E+01 0.00000E+00
 -1      2525 1.42206E+02 2.65000E+01 0.00000E+00
 -1      2526 1.43505E+02 3.16125E+01 0.00000E+00
 -1      2527 1.43505E+02 3.01625E+01 0.00000E+00
 -1      2528 1.42206E+02 2.94250E+01 0.00000E+00
 -1      2529 1.43505E+02 3.45625E+01 0.00000E+00
 -1      2530 1.43505E+02 3.30875E+01 0.00000E+00
 -1      2531 1.42206E+02 3.23500E+01 0.00000E+00
 -1      2532 1.43505E+02 3.75125E+01 0.00000E+00
 -1      2533 1.43505E+02 3.60375E+01 0.00000E+00
 -1      2534 1.42206E+02 3.53000E+01 0.00000E+00
 -1      2535 1.43505E+02 4.04625E+01 0.00000E+00
 -1      2536 1.43505E+02 3.89875E+01 0.00000E+00
 -1      2537 1.42206E+02 3.82500E+01 0.00000E+00
 -1      2538 1.30732E+02 2.05133E+01 0.00000E+00
 -1      2539 1.30829E+02 2.16648E+01 0.00000E+00
 -1      2540 1.30660E+02 2.29535E+01 0.00000E+00
 -1      2541 1.30491E+02 2.39519E+01 0.00000E+00
 -1      2542 1.67850E+01 5.30525E+00 0.00000E+00
 -1      2543 1.52850E+01 5.30525E+00 0.00000E+00
 -1      2544 1.75350E+01 6.60425E+00 0.00000E+00
 -1      2545 1.44321E+02 4.30606E+01 0.00000E+00
 -1      2546 1.28792E+02 1.61954E+01 0.00000E+00
 -1      2547 1.29309E+02 1.68741E+01 0.00000E+00
 -1      2548 6.55950E+00 4.28890E+01 0.00000E+00
 -1      2549 8.53650E+00 4.32410E+01 0.00000E+00
 -1      2550 9.28650E+00 4.19420E+01 0.00000E+00
 -1      2551 6.55950E+00 4.14140E+01 0.00000E+00
 -1      2552 1.25742E+02 1.32817E+01 0.00000E+00
 -1      2553 1.26586E+02 1.39507E+01 0.00000E+00
 -1      2554 1.19386E+02 3.25510E+01 0.00000E+00
 -1      2555 1.18394E+02 3.24532E+01 0.00000E+00
 -1      2556 1.09849E+02 2.40980E+01 0.00000E+00
 -1      2557 1.09894E+02 2.30687E+01 0.00000E+00
 -1      2558 6.49500E+00 2.71625E+01 0.00000E+00
 -1      2559 6.49500E+00 2.86375E+01 0.00000E+00
 -1      2560 7.79400E+00 2.93750E+01 0.00000E+00
 -1      2561 7.79400E+00 2.64250E+01 0.00000E+00
 -1      2562 1.19524E+02 1.19809E+01 0.00000E+00
 -1      2563 1.20502E+02 1.19442E+01 0.00000E+00
 -1      2564 1.21600E+02 1.18654E+01 0.00000E+00
 -1      2565 1.22566E+02 1.19847E+01 0.00000E+00
 -1      2566 1.17540E+02 1.20011E+01 0.00000E+00
 -1      2567 1.18525E+02 1.19446E+01 0.00000E+00
 -1      2568 1.13278E+02 1.41479E+01 0.00000E+00
 -1      2569 1.13882E+02 1.35660E+01 0.00000E+00
 -1      2570 1.12867E+02 3.00951E+01 0.00000E+00
 -1      2571 1.12179E+02 2.93423E+01 0.00000E+00
 -1      2572 1.11880E+02 1.55057E+01 0.00000E+00
 -1      2573 1.12579E+02 1.48268E+01 0.00000E+00
 -1      2574 1.12286E+02 1.39184E+01 0.00000E+00
 -1      2575 1.09973E+02 2.00999E+01 0.00000E+00
 -1      2576 1.10067E+02 1.91035E+01 0.00000E+00
 -1      2577 1.09835E+02 2.21063E+01 0.00000E+00
 -1      2578 1.09776E+02 2.11438E+01 0.00000E+00
 -1      2579 1.08956E+02 2.25835E+01 0.00000E+00
 -1      2580 1.10384E+02 2.62473E+01 0.00000E+00
 -1      2581 1.10013E+02 2.54454E+01 0.00000E+00
 -1      2582 1.11491E+02 2.83247E+01 0.00000E+00
 -1      2583 1.10937E+02 2.72860E+01 0.00000E+00
 -1      2584 1.09897E+02 2.72796E+01 0.00000E+00
 -1      2585 1.17344E+02 3.21548E+01 0.00000E+00
 -1      2586 1.16556E+02 3.18936E+01 0.00000E+00
 -1      2587 1.27665E+02 2.92548E+01 0.00000E+00
 -1      2588 1.26971E+02 3.00473E+01 0.00000E+00
 -1      2589 1.23921E+02 3.20190E+01 0.00000E+00
 -1      2590 1.23105E+02 3.23409E+01 0.00000E+00
 -1      2591 1.25949E+02 3.08927E+01 0.00000E+00
 -1      2592 1.24935E+02 3.14558E+01 0.00000E+00
 -1      2593 1.24842E+02 3.24145E+01 0.00000E+00
 -1      2594 1.28965E+02 2.73354E+01 0.00000E+00
 -1      2595 1.28380E+02 2.82822E+01 0.00000E+00
 -1      2596 1.30017E+02 2.51629E+01 0.00000E+00
 -1      2597 1.29513E+02 2.62325E+01 0.00000E+00
 -1      2598 8.07525E+00 5.11044E+00 0.00000E+00
 -1      2599 6.57525E+00 5.11044E+00 0.00000E+00
 -1      2600 6.40575E+00 6.01981E+00 0.00000E+00
 -1      2601 8.82525E+00 6.40944E+00 0.00000E+00
 -1      2602 1.27479E+02 1.47291E+01 0.00000E+00
 -1      2603 1.28135E+02 1.54623E+01 0.00000E+00
 -1      2604 1.29139E+02 1.52342E+01 0.00000E+00
 -1      2605 1.21085E+02 1.11943E+01 0.00000E+00
 -1      2606 7.79400E+00 3.52687E+01 0.00000E+00
 -1      2607 6.49500E+00 3.60062E+01 0.00000E+00
 -1      2608 6.49500E+00 3.74750E+01 0.00000E+00
 -1      2609 1.45350E+01 6.60425E+00 0.00000E+00
 -1      2610 6.40575E+00 7.49481E+00 0.00000E+00
 -1      2611 1.27589E+02 1.37227E+01 0.00000E+00
 -1      2612 1.30901E+02 2.47986E+01 0.00000E+00
 -1      2613 1.25644E+02 1.22213E+01 0.00000E+00
 -1      2614 1.26878E+02 3.10060E+01 0.00000E+00
 -1      2615 1.30068E+02 1.72160E+01 0.00000E+00
 -1      2616 1.28616E+02 2.91881E+01 0.00000E+00
 -1      2617 1.43586E+02 6.56853E+00 0.00000E+00
 -1      2618 1.31545E+02 2.22990E+01 0.00000E+00
 -1      2619 1.43419E+02 7.72713E+00 0.00000E+00
 -1      2620 1.42120E+02 8.46463E+00 0.00000E+00
 -1      2621 1.31027E+02 1.97375E+01 0.00000E+00
 -1      2622 1.32009E+02 2.02346E+01 0.00000E+00
 -1      2623 1.31322E+02 1.89617E+01 0.00000E+00
 -1      2624 1.11139E+02 2.93359E+01 0.00000E+00
 -1      2625 7.70475E+00 8.23231E+00 0.00000E+00
 -1      2626 6.55950E+00 3.99453E+01 0.00000E+00
 -1      2627 1.10975E+02 1.57673E+01 0.00000E+00
 -1      2628 1.20074E+02 3.31302E+01 0.00000E+00
 -1      2629 1.17756E+02 3.30571E+01 0.00000E+00
 -1      2630 1.13217E+02 3.08606E+01 0.00000E+00
 -1      2631 1.12178E+02 3.11191E+01 0.00000E+00
 -1      2632 1.13567E+02 3.16262E+01 0.00000E+00
 -1      2633 1.09052E+02 1.86651E+01 0.00000E+00
 -1      2634 1.09828E+02 1.82353E+01 0.00000E+00
 -1      2635 1.09589E+02 1.73671E+01 0.00000E+00
 -1      2636 1.16680E+02 1.17364E+01 0.00000E+00
 -1      2637 1.17128E+02 1.09357E+01 0.00000E+00
 -1      2638 1.15819E+02 1.14717E+01 0.00000E+00
 -1      2639 1.09179E+02 2.48935E+01 0.00000E+00
 -1      2640 1.15656E+02 3.20632E+01 0.00000E+00
 -1      2641 1.14178E+02 1.27560E+01 0.00000E+00
 -1      2642 1.14475E+02 1.19460E+01 0.00000E+00
 -1      2643 1.13281E+02 1.24295E+01 0.00000E+00
 -1      2644 1.23387E+02 1.13070E+01 0.00000E+00
 -1      2645 1.18988E+02 1.12367E+01 0.00000E+00
 -1      2646 1.09094E+02 2.05772E+01 0.00000E+00
 -1      2647 1.22585E+02 3.29413E+01 0.00000E+00
 -1      2648 1.42758E+02 4.35929E+01 0.00000E+00
 -1      2649 1.43241E+02 4.17323E+01 0.00000E+00
 -1      2650 1.41942E+02 4.09948E+01 0.00000E+00
 -1      2651 1.41414E+02 4.35342E+01 0.00000E+00
 -1      2652 1.29879E+02 2.71125E+01 0.00000E+00
 -1      2653 1.40664E+02 4.22352E+01 0.00000E+00
 -1      2654 9.09300E+00 1.98250E+01 0.00000E+00
 -1      2655 9.09300E+00 2.12750E+01 0.00000E+00
 -1      2656 9.09300E+00 2.27500E+01 0.00000E+00
 -1      2657 9.09300E+00 2.42250E+01 0.00000E+00
 -1      2658 1.03920E+01 2.20250E+01 0.00000E+00
 -1      2659 9.09300E+00 1.39375E+01 0.00000E+00
 -1      2660 9.09300E+00 1.54125E+01 0.00000E+00
 -1      2661 9.09300E+00 1.09875E+01 0.00000E+00
 -1      2662 9.09300E+00 1.24625E+01 0.00000E+00
 -1      2663 1.03920E+01 1.32000E+01 0.00000E+00
 -1      2664 1.22850E+01 7.90325E+00 0.00000E+00
 -1      2665 1.07850E+01 7.90325E+00 0.00000E+00
 -1      2666 7.85850E+00 3.92077E+01 0.00000E+00
 -1      2667 8.91450E+00 8.42712E+00 0.00000E+00
 -1      2668 1.52850E+01 7.90325E+00 0.00000E+00
 -1      2669 1.37850E+01 7.90325E+00 0.00000E+00
 -1      2670 1.30350E+01 9.20225E+00 0.00000E+00
 -1      2671 1.28043E+02 3.13734E+01 0.00000E+00
 -1      2672 1.27020E+02 3.22187E+01 0.00000E+00
 -1      2673 1.29664E+02 2.92099E+01 0.00000E+00
 -1      2674 1.28949E+02 3.01824E+01 0.00000E+00
 -1      2675 1.44000E+01 4.09070E+01 0.00000E+00
 -1      2676 1.59000E+01 4.09070E+01 0.00000E+00
 -1      2677 1.74000E+01 4.09070E+01 0.00000E+00
 -1      2678 1.89000E+01 4.09070E+01 0.00000E+00
 -1      2679 1.66500E+01 3.96080E+01 0.00000E+00
 -1      2680 2.04000E+01 4.09070E+01 0.00000E+00
 -1      2681 2.19000E+01 4.09070E+01 0.00000E+00
 -1      2682 1.96500E+01 3.96080E+01 0.00000E+00
 -1      2683 2.34000E+01 4.09070E+01 0.00000E+00
 -1      2684 2.49000E+01 4.09070E+01 0.00000E+00
 -1      2685 2.26500E+01 3.96080E+01 0.00000E+00
 -1      2686 2.64000E+01 4.09070E+01 0.00000E+00
 -1      2687 2.79000E+01 4.09070E+01 0.00000E+00
 -1      2688 2.56500E+01 3.96080E+01 0.00000E+00
 -1      2689 2.94000E+01 4.09070E+01 0.00000E+00
 -1      2690 3.09000E+01 4.09070E+01 0.00000E+00
 -1      2691 2.86500E+01 3.96080E+01 0.00000E+00
 -1      2692 3.24000E+01 4.09070E+01 0.00000E+00
 -1      2693 3.39000E+01 4.09070E+01 0.00000E+00
 -1      2694 3.16500E+01 3.96080E+01 0.00000E+00
 -1      2695 3.54000E+01 4.09070E+01 0.00000E+00
 -1      2696 3.69000E+01 4.09070E+01 0.00000E+00
 -1      2697 3.46500E+01 3.96080E+01 0.00000E+00
 -1      2698 3.84000E+01 4.09070E+01 0.00000E+00
 -1      2699 3.99000E+01 4.09070E+01 0.00000E+00
 -1      2700 3.76500E+01 3.96080E+01 0.00000E+00
 -1      2701 4.14000E+01 4.09070E+01 0.00000E+00
 -1      2702 4.29000E+01 4.09070E+01 0.00000E+00
 -1      2703 4.06500E+01 3.96080E+01 0.00000E+00
 -1      2704 4.44000E+01 4.09070E+01 0.00000E+00
 -1      2705 4.59000E+01 4.09070E+01 0.00000E+00
 -1      2706 4.36500E+01 3.96080E+01 0.00000E+00
 -1      2707 4.74000E+01 4.09070E+01 0.00000E+00
 -1      2708 4.89000E+01 4.09070E+01 0.00000E+00
 -1      2709 4.66500E+01 3.96080E+01 0.00000E+00
 -1      2710 5.04000E+01 4.09070E+01 0.00000E+00
 -1      2711 5.19000E+01 4.09070E+01 0.00000E+00
 -1      2712 4.96500E+01 3.96080E+01 0.00000E+00
 -1      2713 5.34000E+01 4.09070E+01 0.00000E+00
 -1      2714 5.49000E+01 4.09070E+01 0.00000E+00
 -1      2715 5.26500E+01 3.96080E+01 0.00000E+00
 -1      2716 5.64000E+01 4.09070E+01 0.00000E+00
 -1      2717 5.79000E+01 4.09070E+01 0.00000E+00
 -1      2718 5.56500E+01 3.96080E+01 0.00000E+00
 -1      2719 5.94000E+01 4.09070E+01 0.00000E+00
 -1      2720 6.09000E+01 4.09070E+01 0.00000E+00
 -1      2721 5.86500E+01 3.96080E+01 0.00000E+00
 -1      2722 6.24000E+01 4.09070E+01 0.00000E+00
 -1      2723 6.39000E+01 4.09070E+01 0.00000E+00
 -1      2724 6.16500E+01 3.96080E+01 0.00000E+00
 -1      2725 6.54000E+01 4.09070E+01 0.00000E+00
 -1      2726 6.69000E+01 4.09070E+01 0.00000E+00
 -1      2727 6.46500E+01 3.96080E+01 0.00000E+00
 -1      2728 6.84000E+01 4.09070E+01 0.00000E+00
 -1      2729 6.99000E+01 4.09070E+01 0.00000E+00
 -1      2730 6.76500E+01 3.96080E+01 0.00000E+00
 -1      2731 7.14000E+01 4.09070E+01 0.00000E+00
 -1      2732 7.29000E+01 4.09070E+01 0.00000E+00
 -1      2733 7.06500E+01 3.96080E+01 0.00000E+00
 -1      2734 7.44000E+01 4.09070E+01 0.00000E+00
 -1      2735 7.59000E+01 4.09070E+01 0.00000E+00
 -1      2736 7.36500E+01 3.96080E+01 0.00000E+00
 -1      2737 7.74000E+01 4.09070E+01 0.00000E+00
 -1      2738 7.89000E+01 4.09070E+01 0.00000E+00
 -1      2739 7.66500E+01 3.96080E+01 0.00000E+00
 -1      2740 8.04000E+01 4.09070E+01 0.00000E+00
 -1      2741 8.19000E+01 4.09070E+01 0.00000E+00
 -1      2742 7.96500E+01 3.96080E+01 0.00000E+00
 -1      2743 8.34000E+01 4.09070E+01 0.00000E+00
 -1      2744 8.49000E+01 4.09070E+01 0.00000E+00
 -1      2745 8.26500E+01 3.96080E+01 0.00000E+00
 -1      2746 8.64000E+01 4.09070E+01 0.00000E+00
 -1      2747 8.79000E+01 4.09070E+01 0.00000E+00
 -1      2748 8.56500E+01 3.96080E+01 0.00000E+00
 -1      2749 8.94000E+01 4.09070E+01 0.00000E+00
 -1      2750 9.09000E+01 4.09070E+01 0.00000E+00
 -1      2751 8.86500E+01 3.96080E+01 0.00000E+00
 -1      2752 9.24000E+01 4.09070E+01 0.00000E+00
 -1      2753 9.39000E+01 4.09070E+01 0.00000E+00
 -1      2754 9.16500E+01 3.96080E+01 0.00000E+00
 -1      2755 9.54000E+01 4.09070E+01 0.00000E+00
 -1      2756 9.69000E+01 4.09070E+01 0.00000E+00
 -1      2757 9.46500E+01 3.96080E+01 0.00000E+00
 -1      2758 9.84000E+01 4.09070E+01 0.00000E+00
 -1      2759 9.99000E+01 4.09070E+01 0.00000E+00
 -1      2760 9.76500E+01 3.96080E+01 0.00000E+00
 -1      2761 1.01400E+02 4.09070E+01 0.00000E+00
 -1      2762 1.02900E+02 4.09070E+01 0.00000E+00
 -1      2763 1.00650E+02 3.96080E+01 0.00000E+00
 -1      2764 1.04400E+02 4.09070E+01 0.00000E+00
 -1      2765 1.05900E+02 4.09070E+01 0.00000E+00
 -1      2766 1.03650E+02 3.96080E+01 0.00000E+00
 -1      2767 1.07400E+02 4.09070E+01 0.00000E+00
 -1      2768 1.08900E+02 4.09070E+01 0.00000E+00
 -1      2769 1.06650E+02 3.96080E+01 0.00000E+00
 -1      2770 1.10400E+02 4.09070E+01 0.00000E+00
 -1      2771 1.11900E+02 4.09070E+01 0.00000E+00
 -1      2772 1.09650E+02 3.96080E+01 0.00000E+00
 -1      2773 1.13400E+02 4.09070E+01 0.00000E+00
 -1      2774 1.14900E+02 4.09070E+01 0.00000E+00
 -1      2775 1.12650E+02 3.96080E+01 0.00000E+00
 -1      2776 1.16400E+02 4.09070E+01 0.00000E+00
 -1      2777 1.17900E+02 4.09070E+01 0.00000E+00
 -1      2778 1.15650E+02 3.96080E+01 0.00000E+00
 -1      2779 1.19400E+02 4.09070E+01 0.00000E+00
 -1      2780 1.20900E+02 4.09070E+01 0.00000E+00
 -1      2781 1.18650E+02 3.96080E+01 0.00000E+00
 -1      2782 1.22400E+02 4.09070E+01 0.00000E+00
 -1      2783 1.23900E+02 4.09070E+01 0.00000E+00
 -1      2784 1.21650E+02 3.96080E+01 0.00000E+00
 -1      2785 1.25400E+02 4.09070E+01 0.00000E+00
 -1      2786 1.26900E+02 4.09070E+01 0.00000E+00
 -1      2787 1.24650E+02 3.96080E+01 0.00000E+00
 -1      2788 1.28400E+02 4.09070E+01 0.00000E+00
 -1      2789 1.29900E+02 4.09070E+01 0.00000E+00
 -1      2790 1.27650E+02 3.96080E+01 0.00000E+00
 -1      2791 1.31400E+02 4.09070E+01 0.00000E+00
 -1      2792 1.32900E+02 4.09070E+01 0.00000E+00
 -1      2793 1.30650E+02 3.96080E+01 0.00000E+00
 -1      2794 1.34400E+02 4.09070E+01 0.00000E+00
 -1      2795 1.35900E+02 4.09070E+01 0.00000E+00
 -1      2796 1.33650E+02 3.96080E+01 0.00000E+00
 -1      2797 1.37400E+02 4.09070E+01 0.00000E+00
 -1      2798 1.38900E+02 4.09070E+01 0.00000E+00
 -1      2799 1.36650E+02 3.96080E+01 0.00000E+00
 -1      2800 2.42850E+01 7.90325E+00 0.00000E+00
 -1      2801 2.27850E+01 7.90325E+00 0.00000E+00
 -1      2802 1.31071E+02 2.70173E+01 0.00000E+00
 -1      2803 1.30523E+02 2.81203E+01 0.00000E+00
 -1      2804 2.12850E+01 7.90325E+00 0.00000E+00
 -1      2805 1.97850E+01 7.90325E+00 0.00000E+00
 -1      2806 2.20350E+01 9.20225E+00 0.00000E+00
 -1      2807 3.02850E+01 7.90325E+00 0.00000E+00
 -1      2808 2.87850E+01 7.90325E+00 0.00000E+00
 -1      2809 3.32850E+01 7.90325E+00 0.00000E+00
 -1      2810 3.17850E+01 7.90325E+00 0.00000E+00
 -1      2811 3.10350E+01 9.20225E+00 0.00000E+00
 -1      2812 3.62850E+01 7.90325E+00 0.00000E+00
 -1      2813 3.47850E+01 7.90325E+00 0.00000E+00
 -1      2814 3.40350E+01 9.20225E+00 0.00000E+00
 -1      2815 3.92850E+01 7.90325E+00 0.00000E+00
 -1      2816 3.77850E+01 7.90325E+00 0.00000E+00
 -1      2817 3.70350E+01 9.20225E+00 0.00000E+00
 -1      2818 4.22850E+01 7.90325E+00 0.00000E+00
 -1      2819 4.07850E+01 7.90325E+00 0.00000E+00
 -1      2820 4.00350E+01 9.20225E+00 0.00000E+00
 -1      2821 4.52850E+01 7.90325E+00 0.00000E+00
 -1      2822 4.37850E+01 7.90325E+00 0.00000E+00
 -1      2823 4.30350E+01 9.20225E+00 0.00000E+00
 -1      2824 4.82850E+01 7.90325E+00 0.00000E+00
 -1      2825 4.67850E+01 7.90325E+00 0.00000E+00
 -1      2826 4.60350E+01 9.20225E+00 0.00000E+00
 -1      2827 5.12850E+01 7.90325E+00 0.00000E+00
 -1      2828 4.97850E+01 7.90325E+00 0.00000E+00
 -1      2829 4.90350E+01 9.20225E+00 0.00000E+00
 -1      2830 5.42850E+01 7.90325E+00 0.00000E+00
 -1      2831 5.27850E+01 7.90325E+00 0.00000E+00
 -1      2832 5.20350E+01 9.20225E+00 0.00000E+00
 -1      2833 5.72850E+01 7.90325E+00 0.00000E+00
 -1      2834 5.57850E+01 7.90325E+00 0.00000E+00
 -1      2835 5.50350E+01 9.20225E+00 0.00000E+00
 -1      2836 6.02850E+01 7.90325E+00 0.00000E+00
 -1      2837 5.87850E+01 7.90325E+00 0.00000E+00
 -1      2838 5.80350E+01 9.20225E+00 0.00000E+00
 -1      2839 6.32850E+01 7.90325E+00 0.00000E+00
 -1      2840 6.17850E+01 7.90325E+00 0.00000E+00
 -1      2841 6.10350E+01 9.20225E+00 0.00000E+00
 -1      2842 6.62850E+01 7.90325E+00 0.00000E+00
 -1      2843 6.47850E+01 7.90325E+00 0.00000E+00
 -1      2844 6.40350E+01 9.20225E+00 0.00000E+00
 -1      2845 6.92850E+01 7.90325E+00 0.00000E+00
 -1      2846 6.77850E+01 7.90325E+00 0.00000E+00
 -1      2847 6.70350E+01 9.20225E+00 0.00000E+00
 -1      2848 7.22850E+01 7.90325E+00 0.00000E+00
 -1      2849 7.07850E+01 7.90325E+00 0.00000E+00
 -1      2850 7.00350E+01 9.20225E+00 0.00000E+00
 -1      2851 7.52850E+01 7.90325E+00 0.00000E+00
 -1      2852 7.37850E+01 7.90325E+00 0.00000E+00
 -1      2853 7.30350E+01 9.20225E+00 0.00000E+00
 -1      2854 7.82850E+01 7.90325E+00 0.00000E+00
 -1      2855 7.67850E+01 7.90325E+00 0.00000E+00
 -1      2856 7.60350E+01 9.20225E+00 0.00000E+00
 -1      2857 8.12850E+01 7.90325E+00 0.00000E+00
 -1      2858 7.97850E+01 7.90325E+00 0.00000E+00
 -1      2859 7.90350E+01 9.20225E+00 0.00000E+00
 -1      2860 8.42850E+01 7.90325E+00 0.00000E+00
 -1      2861 8.27850E+01 7.90325E+00 0.00000E+00
 -1      2862 8.20350E+01 9.20225E+00 0.00000E+00
 -1      2863 8.72850E+01 7.90325E+00 0.00000E+00
 -1      2864 8.57850E+01 7.90325E+00 0.00000E+00
 -1      2865 8.50350E+01 9.20225E+00 0.00000E+00
 -1      2866 9.02850E+01 7.90325E+00 0.00000E+00
 -1      2867 8.87850E+01 7.90325E+00 0.00000E+00
 -1      2868 8.80350E+01 9.20225E+00 0.00000E+00
 -1      2869 9.32850E+01 7.90325E+00 0.00000E+00
 -1      2870 9.17850E+01 7.90325E+00 0.00000E+00
 -1      2871 9.10350E+01 9.20225E+00 0.00000E+00
 -1      2872 9.62850E+01 7.90325E+00 0.00000E+00
 -1      2873 9.47850E+01 7.90325E+00 0.00000E+00
 -1      2874 9.40350E+01 9.20225E+00 0.00000E+00
 -1      2875 9.92850E+01 7.90325E+00 0.00000E+00
 -1      2876 9.77850E+01 7.90325E+00 0.00000E+00
 -1      2877 9.70350E+01 9.20225E+00 0.00000E+00
 -1      2878 1.02285E+02 7.90325E+00 0.00000E+00
 -1      2879 1.00785E+02 7.90325E+00 0.00000E+00
 -1      2880 1.00035E+02 9.20225E+00 0.00000E+00
 -1      2881 1.05285E+02 7.90325E+00 0.00000E+00
 -1      2882 1.03785E+02 7.90325E+00 0.00000E+00
 -1      2883 1.03035E+02 9.20225E+00 0.00000E+00
 -1      2884 1.08285E+02 7.90325E+00 0.00000E+00
 -1      2885 1.06785E+02 7.90325E+00 0.00000E+00
 -1      2886 1.06035E+02 9.20225E+00 0.00000E+00
 -1      2887 1.11285E+02 7.90325E+00 0.00000E+00
 -1      2888 1.09785E+02 7.90325E+00 0.00000E+00
 -1      2889 1.09035E+02 9.20225E+00 0.00000E+00
 -1      2890 1.17285E+02 7.71316E+00 0.00000E+00
 -1      2891 1.15785E+02 7.71316E+00 0.00000E+00
 -1      2892 1.20285E+02 7.71316E+00 0.00000E+00
 -1      2893 1.18785E+02 7.71316E+00 0.00000E+00
 -1      2894 1.23285E+02 7.71316E+00 0.00000E+00
 -1      2895 1.21785E+02 7.71316E+00 0.00000E+00
 -1      2896 1.26285E+02 7.71316E+00 0.00000E+00
 -1      2897 1.24785E+02 7.71316E+00 0.00000E+00
 -1      2898 1.24035E+02 8.82208E+00 0.00000E+00
 -1      2899 1.29285E+02 7.71316E+00 0.00000E+00
 -1      2900 1.27785E+02 7.71316E+00 0.00000E+00
 -1      2901 1.27035E+02 8.82208E+00 0.00000E+00
 -1      2902 1.32285E+02 7.71316E+00 0.00000E+00
 -1      2903 1.30785E+02 7.71316E+00 0.00000E+00
 -1      2904 1.30035E+02 8.82208E+00 0.00000E+00
 -1      2905 1.35285E+02 7.71316E+00 0.00000E+00
 -1      2906 1.33785E+02 7.71316E+00 0.00000E+00
 -1      2907 1.33035E+02 8.82208E+00 0.00000E+00
 -1      2908 1.38285E+02 7.71316E+00 0.00000E+00
 -1      2909 1.36785E+02 7.71316E+00 0.00000E+00
 -1      2910 1.36035E+02 8.82208E+00 0.00000E+00
 -1      2911 1.40953E+02 8.08889E+00 0.00000E+00
 -1      2912 1.39453E+02 8.08889E+00 0.00000E+00
 -1      2913 1.38703E+02 9.19781E+00 0.00000E+00
 -1      2914 1.41038E+02 9.94927E+00 0.00000E+00
 -1      2915 1.32558E+02 2.17768E+01 0.00000E+00
 -1      2916 1.32389E+02 2.30654E+01 0.00000E+00
 -1      2917 1.40907E+02 2.42875E+01 0.00000E+00
 -1      2918 1.40907E+02 2.28125E+01 0.00000E+00
 -1      2919 1.40907E+02 1.83875E+01 0.00000E+00
 -1      2920 1.40907E+02 1.69125E+01 0.00000E+00
 -1      2921 1.40907E+02 2.72375E+01 0.00000E+00
 -1      2922 1.40907E+02 2.57625E+01 0.00000E+00
 -1      2923 1.39608E+02 2.50250E+01 0.00000E+00
 -1      2924 1.40907E+02 2.13375E+01 0.00000E+00
 -1      2925 1.40907E+02 1.98625E+01 0.00000E+00
 -1      2926 1.39608E+02 1.91250E+01 0.00000E+00
 -1      2927 1.39608E+02 2.20750E+01 0.00000E+00
 -1      2928 1.40907E+02 3.01375E+01 0.00000E+00
 -1      2929 1.40907E+02 2.86875E+01 0.00000E+00
 -1      2930 1.39608E+02 2.79500E+01 0.00000E+00
 -1      2931 1.40907E+02 3.30875E+01 0.00000E+00
 -1      2932 1.40907E+02 3.16125E+01 0.00000E+00
 -1      2933 1.39608E+02 3.08750E+01 0.00000E+00
 -1      2934 1.40907E+02 3.60375E+01 0.00000E+00
 -1      2935 1.40907E+02 3.45625E+01 0.00000E+00
 -1      2936 1.39608E+02 3.38250E+01 0.00000E+00
 -1      2937 1.25651E+02 1.10839E+01 0.00000E+00
 -1      2938 1.26703E+02 1.18068E+01 0.00000E+00
 -1      2939 1.10773E+02 3.03253E+01 0.00000E+00
 -1      2940 1.10085E+02 2.93076E+01 0.00000E+00
 -1      2941 1.08045E+02 2.31222E+01 0.00000E+00
 -1      2942 1.07987E+02 2.21597E+01 0.00000E+00
 -1      2943 1.20469E+02 1.02947E+01 0.00000E+00
 -1      2944 1.21567E+02 1.02160E+01 0.00000E+00
 -1      2945 9.32250E+00 4.05749E+01 0.00000E+00
 -1      2946 1.06860E+01 4.08389E+01 0.00000E+00
 -1      2947 1.21860E+01 4.08389E+01 0.00000E+00
 -1      2948 9.25800E+00 3.81046E+01 0.00000E+00
 -1      2949 1.15708E+02 3.31260E+01 0.00000E+00
 -1      2950 1.14657E+02 3.24305E+01 0.00000E+00
 -1      2951 1.82850E+01 7.90325E+00 0.00000E+00
 -1      2952 1.67850E+01 7.90325E+00 0.00000E+00
 -1      2953 1.60350E+01 9.20225E+00 0.00000E+00
 -1      2954 1.90350E+01 9.20225E+00 0.00000E+00
 -1      2955 2.72850E+01 7.90325E+00 0.00000E+00
 -1      2956 2.57850E+01 7.90325E+00 0.00000E+00
 -1      2957 2.50350E+01 9.20225E+00 0.00000E+00
 -1      2958 2.80350E+01 9.20225E+00 0.00000E+00
 -1      2959 1.08327E+02 2.56814E+01 0.00000E+00
 -1      2960 1.08162E+02 2.43340E+01 0.00000E+00
 -1      2961 1.32019E+02 2.45954E+01 0.00000E+00
 -1      2962 1.31545E+02 2.58064E+01 0.00000E+00
 -1      2963 1.32189E+02 2.68141E+01 0.00000E+00
 -1      2964 1.09835E+02 1.59165E+01 0.00000E+00
 -1      2965 1.10447E+02 1.47465E+01 0.00000E+00
 -1      2966 9.09300E+00 1.68813E+01 0.00000E+00
 -1      2967 9.09300E+00 1.83563E+01 0.00000E+00
 -1      2968 1.03920E+01 1.90812E+01 0.00000E+00
 -1      2969 1.03920E+01 1.61437E+01 0.00000E+00
 -1      2970 1.18762E+02 1.00112E+01 0.00000E+00
 -1      2971 1.19761E+02 1.00476E+01 0.00000E+00
 -1      2972 1.20844E+02 3.37794E+01 0.00000E+00
 -1      2973 1.19575E+02 3.40047E+01 0.00000E+00
 -1      2974 1.22359E+02 9.96883E+00 0.00000E+00
 -1      2975 1.23563E+02 1.01603E+01 0.00000E+00
 -1      2976 9.09300E+00 3.15875E+01 0.00000E+00
 -1      2977 9.09300E+00 3.30625E+01 0.00000E+00
 -1      2978 1.11280E+02 1.35826E+01 0.00000E+00
 -1      2979 1.11979E+02 1.29037E+01 0.00000E+00
 -1      2980 1.23329E+02 3.38521E+01 0.00000E+00
 -1      2981 1.22086E+02 3.38158E+01 0.00000E+00
 -1      2982 1.21588E+02 3.46903E+01 0.00000E+00
 -1      2983 1.09269E+02 2.82810E+01 0.00000E+00
 -1      2984 1.08716E+02 2.72423E+01 0.00000E+00
 -1      2985 1.18001E+02 3.41923E+01 0.00000E+00
 -1      2986 1.16951E+02 3.38939E+01 0.00000E+00
 -1      2987 1.30770E+02 1.64092E+01 0.00000E+00
 -1      2988 1.31042E+02 1.76578E+01 0.00000E+00
 -1      2989 1.08153E+02 2.09399E+01 0.00000E+00
 -1      2990 1.08350E+02 1.98960E+01 0.00000E+00
 -1      2991 1.40928E+02 4.09655E+01 0.00000E+00
 -1      2992 1.41192E+02 3.96958E+01 0.00000E+00
 -1      2993 1.39914E+02 4.09362E+01 0.00000E+00
 -1      2994 1.25806E+02 3.29559E+01 0.00000E+00
 -1      2995 1.24792E+02 3.35190E+01 0.00000E+00
 -1      2996 1.29512E+02 1.42395E+01 0.00000E+00
 -1      2997 1.30169E+02 1.49726E+01 0.00000E+00
 -1      2998 1.27726E+02 1.26826E+01 0.00000E+00
 -1      2999 1.28619E+02 1.34611E+01 0.00000E+00
 -1      3000 1.29648E+02 1.31994E+01 0.00000E+00
 -1      3001 9.09300E+00 3.45313E+01 0.00000E+00
 -1      3002 9.09300E+00 3.60000E+01 0.00000E+00
 -1      3003 1.03920E+01 3.37938E+01 0.00000E+00
 -1      3004 1.03920E+01 2.49750E+01 0.00000E+00
 -1      3005 9.09300E+00 2.57000E+01 0.00000E+00
 -1      3006 9.09300E+00 2.71750E+01 0.00000E+00
 -1      3007 1.26970E+02 3.33232E+01 0.00000E+00
 -1      3008 1.13619E+02 3.26890E+01 0.00000E+00
 -1      3009 1.30856E+02 2.91147E+01 0.00000E+00
 -1      3010 1.27733E+02 1.15452E+01 0.00000E+00
 -1      3011 1.39164E+02 3.96372E+01 0.00000E+00
 -1      3012 1.29091E+02 3.13952E+01 0.00000E+00
 -1      3013 1.07243E+02 2.14785E+01 0.00000E+00
 -1      3014 1.20243E+02 9.06926E+00 0.00000E+00
 -1      3015 1.31143E+02 1.54145E+01 0.00000E+00
 -1      3016 1.32116E+02 1.58563E+01 0.00000E+00
 -1      3017 1.31515E+02 1.44197E+01 0.00000E+00
 -1      3018 1.18770E+02 3.48415E+01 0.00000E+00
 -1      3019 1.17965E+02 3.56784E+01 0.00000E+00
 -1      3020 1.19540E+02 3.54907E+01 0.00000E+00
 -1      3021 1.07193E+02 2.39101E+01 0.00000E+00
 -1      3022 1.07699E+02 2.66828E+01 0.00000E+00
 -1      3023 1.24293E+02 3.43935E+01 0.00000E+00
 -1      3024 1.23794E+02 3.52680E+01 0.00000E+00
 -1      3025 1.25257E+02 3.49349E+01 0.00000E+00
 -1      3026 1.15311E+02 8.84193E+00 0.00000E+00
 -1      3027 1.14561E+02 7.73302E+00 0.00000E+00
 -1      3028 1.13061E+02 7.73302E+00 0.00000E+00
 -1      3029 1.12311E+02 9.03202E+00 0.00000E+00
 -1      3030 1.18035E+02 8.82207E+00 0.00000E+00
 -1      3031 1.32853E+02 2.10010E+01 0.00000E+00
 -1      3032 1.33697E+02 2.17674E+01 0.00000E+00
 -1      3033 1.33148E+02 2.02251E+01 0.00000E+00
 -1      3034 1.41038E+02 1.14118E+01 0.00000E+00
 -1      3035 1.39870E+02 1.10360E+01 0.00000E+00
 -1      3036 1.41038E+02 1.28743E+01 0.00000E+00
 -1      3037 1.10140E+02 1.37318E+01 0.00000E+00
 -1      3038 1.11123E+02 3.10908E+01 0.00000E+00
 -1      3039 1.10069E+02 3.10625E+01 0.00000E+00
 -1      3040 1.11473E+02 3.18564E+01 0.00000E+00
 -1      3041 1.21743E+02 9.06926E+00 0.00000E+00
 -1      3042 1.41192E+02 3.82207E+01 0.00000E+00
 -1      3043 1.32024E+02 1.81549E+01 0.00000E+00
 -1      3044 9.66450E+00 9.72612E+00 0.00000E+00
 -1      3045 1.09635E+01 1.04636E+01 0.00000E+00
 -1      3046 1.08903E+02 2.92704E+01 0.00000E+00
 -1      3047 1.39529E+02 3.85602E+01 0.00000E+00
 -1      3048 1.40542E+02 3.71145E+01 0.00000E+00
 -1      3049 1.39243E+02 3.63770E+01 0.00000E+00
 -1      3050 1.38514E+02 3.85310E+01 0.00000E+00
 -1      3051 1.29360E+01 3.95399E+01 0.00000E+00
 -1      3052 1.08111E+02 1.90278E+01 0.00000E+00
 -1      3053 1.07872E+02 1.81595E+01 0.00000E+00
 -1      3054 1.07170E+02 1.93905E+01 0.00000E+00
 -1      3055 1.14922E+02 1.11452E+01 0.00000E+00
 -1      3056 1.12276E+02 1.20937E+01 0.00000E+00
 -1      3057 1.08284E+02 1.67760E+01 0.00000E+00
 -1      3058 1.09060E+02 1.63463E+01 0.00000E+00
 -1      3059 1.08531E+02 1.53254E+01 0.00000E+00
 -1      3060 9.09300E+00 2.86437E+01 0.00000E+00
 -1      3061 9.09300E+00 3.01187E+01 0.00000E+00
 -1      3062 1.03920E+01 3.08563E+01 0.00000E+00
 -1      3063 1.03920E+01 2.79188E+01 0.00000E+00
 -1      3064 1.40973E+02 1.56246E+01 0.00000E+00
 -1      3065 1.40973E+02 1.41621E+01 0.00000E+00
 -1      3066 1.39805E+02 1.37864E+01 0.00000E+00
 -1      3067 1.39674E+02 1.63621E+01 0.00000E+00
 -1      3068 1.15953E+02 3.42613E+01 0.00000E+00
 -1      3069 1.16401E+02 9.74652E+00 0.00000E+00
 -1      3070 1.17262E+02 1.00112E+01 0.00000E+00
 -1      3071 1.15177E+02 9.76637E+00 0.00000E+00
 -1      3072 1.16910E+01 1.24625E+01 0.00000E+00
 -1      3073 1.16910E+01 1.39375E+01 0.00000E+00
 -1      3074 1.06227E+02 2.19613E+01 0.00000E+00
 -1      3075 1.06393E+02 2.07415E+01 0.00000E+00
 -1      3076 1.30293E+02 3.13698E+01 0.00000E+00
 -1      3077 1.29387E+02 3.25607E+01 0.00000E+00
 -1      3078 1.89000E+01 3.83090E+01 0.00000E+00
 -1      3079 2.04000E+01 3.83090E+01 0.00000E+00
 -1      3080 2.19000E+01 3.83090E+01 0.00000E+00
 -1      3081 2.34000E+01 3.83090E+01 0.00000E+00
 -1      3082 2.11500E+01 3.70100E+01 0.00000E+00
 -1      3083 2.49000E+01 3.83090E+01 0.00000E+00
 -1      3084 2.64000E+01 3.83090E+01 0.00000E+00
 -1      3085 2.41500E+01 3.70100E+01 0.00000E+00
 -1      3086 2.79000E+01 3.83090E+01 0.00000E+00
 -1      3087 2.94000E+01 3.83090E+01 0.00000E+00
 -1      3088 2.71500E+01 3.70100E+01 0.00000E+00
 -1      3089 3.09000E+01 3.83090E+01 0.00000E+00
 -1      3090 3.24000E+01 3.83090E+01 0.00000E+00
 -1      3091 3.01500E+01 3.70100E+01 0.00000E+00
 -1      3092 3.39000E+01 3.83090E+01 0.00000E+00
 -1      3093 3.54000E+01 3.83090E+01 0.00000E+00
 -1      3094 3.31500E+01 3.70100E+01 0.00000E+00
 -1      3095 3.69000E+01 3.83090E+01 0.00000E+00
 -1      3096 3.84000E+01 3.83090E+01 0.00000E+00
 -1      3097 3.61500E+01 3.70100E+01 0.00000E+00
 -1      3098 3.99000E+01 3.83090E+01 0.00000E+00
 -1      3099 4.14000E+01 3.83090E+01 0.00000E+00
 -1      3100 3.91500E+01 3.70100E+01 0.00000E+00
 -1      3101 4.29000E+01 3.83090E+01 0.00000E+00
 -1      3102 4.44000E+01 3.83090E+01 0.00000E+00
 -1      3103 4.21500E+01 3.70100E+01 0.00000E+00
 -1      3104 4.59000E+01 3.83090E+01 0.00000E+00
 -1      3105 4.74000E+01 3.83090E+01 0.00000E+00
 -1      3106 4.51500E+01 3.70100E+01 0.00000E+00
 -1      3107 4.89000E+01 3.83090E+01 0.00000E+00
 -1      3108 5.04000E+01 3.83090E+01 0.00000E+00
 -1      3109 4.81500E+01 3.70100E+01 0.00000E+00
 -1      3110 5.19000E+01 3.83090E+01 0.00000E+00
 -1      3111 5.34000E+01 3.83090E+01 0.00000E+00
 -1      3112 5.11500E+01 3.70100E+01 0.00000E+00
 -1      3113 5.49000E+01 3.83090E+01 0.00000E+00
 -1      3114 5.64000E+01 3.83090E+01 0.00000E+00
 -1      3115 5.41500E+01 3.70100E+01 0.00000E+00
 -1      3116 5.79000E+01 3.83090E+01 0.00000E+00
 -1      3117 5.94000E+01 3.83090E+01 0.00000E+00
 -1      3118 5.71500E+01 3.70100E+01 0.00000E+00
 -1      3119 6.09000E+01 3.83090E+01 0.00000E+00
 -1      3120 6.24000E+01 3.83090E+01 0.00000E+00
 -1      3121 6.01500E+01 3.70100E+01 0.00000E+00
 -1      3122 6.39000E+01 3.83090E+01 0.00000E+00
 -1      3123 6.54000E+01 3.83090E+01 0.00000E+00
 -1      3124 6.31500E+01 3.70100E+01 0.00000E+00
 -1      3125 6.69000E+01 3.83090E+01 0.00000E+00
 -1      3126 6.84000E+01 3.83090E+01 0.00000E+00
 -1      3127 6.61500E+01 3.70100E+01 0.00000E+00
 -1      3128 6.99000E+01 3.83090E+01 0.00000E+00
 -1      3129 7.14000E+01 3.83090E+01 0.00000E+00
 -1      3130 6.91500E+01 3.70100E+01 0.00000E+00
 -1      3131 7.29000E+01 3.83090E+01 0.00000E+00
 -1      3132 7.44000E+01 3.83090E+01 0.00000E+00
 -1      3133 7.21500E+01 3.70100E+01 0.00000E+00
 -1      3134 7.59000E+01 3.83090E+01 0.00000E+00
 -1      3135 7.74000E+01 3.83090E+01 0.00000E+00
 -1      3136 7.51500E+01 3.70100E+01 0.00000E+00
 -1      3137 7.89000E+01 3.83090E+01 0.00000E+00
 -1      3138 8.04000E+01 3.83090E+01 0.00000E+00
 -1      3139 7.81500E+01 3.70100E+01 0.00000E+00
 -1      3140 8.19000E+01 3.83090E+01 0.00000E+00
 -1      3141 8.34000E+01 3.83090E+01 0.00000E+00
 -1      3142 8.11500E+01 3.70100E+01 0.00000E+00
 -1      3143 8.49000E+01 3.83090E+01 0.00000E+00
 -1      3144 8.64000E+01 3.83090E+01 0.00000E+00
 -1      3145 8.41500E+01 3.70100E+01 0.00000E+00
 -1      3146 8.79000E+01 3.83090E+01 0.00000E+00
 -1      3147 8.94000E+01 3.83090E+01 0.00000E+00
 -1      3148 8.71500E+01 3.70100E+01 0.00000E+00
 -1      3149 9.09000E+01 3.83090E+01 0.00000E+00
 -1      3150 9.24000E+01 3.83090E+01 0.00000E+00
 -1      3151 9.01500E+01 3.70100E+01 0.00000E+00
 -1      3152 9.39000E+01 3.83090E+01 0.00000E+00
 -1      3153 9.54000E+01 3.83090E+01 0.00000E+00
 -1      3154 9.31500E+01 3.70100E+01 0.00000E+00
 -1      3155 9.69000E+01 3.83090E+01 0.00000E+00
 -1      3156 9.84000E+01 3.83090E+01 0.00000E+00
 -1      3157 9.61500E+01 3.70100E+01 0.00000E+00
 -1      3158 9.99000E+01 3.83090E+01 0.00000E+00
 -1      3159 1.01400E+02 3.83090E+01 0.00000E+00
 -1      3160 9.91500E+01 3.70100E+01 0.00000E+00
 -1      3161 1.02900E+02 3.83090E+01 0.00000E+00
 -1      3162 1.04400E+02 3.83090E+01 0.00000E+00
 -1      3163 1.02150E+02 3.70100E+01 0.00000E+00
 -1      3164 1.05900E+02 3.83090E+01 0.00000E+00
 -1      3165 1.07400E+02 3.83090E+01 0.00000E+00
 -1      3166 1.05150E+02 3.70100E+01 0.00000E+00
 -1      3167 1.08900E+02 3.83090E+01 0.00000E+00
 -1      3168 1.10400E+02 3.83090E+01 0.00000E+00
 -1      3169 1.08150E+02 3.70100E+01 0.00000E+00
 -1      3170 1.11900E+02 3.83090E+01 0.00000E+00
 -1      3171 1.13400E+02 3.83090E+01 0.00000E+00
 -1      3172 1.11150E+02 3.70100E+01 0.00000E+00
 -1      3173 1.17942E+02 3.79678E+01 0.00000E+00
 -1      3174 1.19442E+02 3.79678E+01 0.00000E+00
 -1      3175 1.23954E+02 3.77087E+01 0.00000E+00
 -1      3176 1.25454E+02 3.77087E+01 0.00000E+00
 -1      3177 1.29900E+02 3.83090E+01 0.00000E+00
 -1      3178 1.31400E+02 3.83090E+01 0.00000E+00
 -1      3179 1.32900E+02 3.83090E+01 0.00000E+00
 -1      3180 1.34400E+02 3.83090E+01 0.00000E+00
 -1      3181 1.32150E+02 3.70100E+01 0.00000E+00
 -1      3182 1.35707E+02 3.84200E+01 0.00000E+00
 -1      3183 1.37207E+02 3.84200E+01 0.00000E+00
 -1      3184 1.37572E+02 3.73430E+01 0.00000E+00
 -1      3185 1.34957E+02 3.71210E+01 0.00000E+00
 -1      3186 3.47850E+01 1.05013E+01 0.00000E+00
 -1      3187 3.32850E+01 1.05013E+01 0.00000E+00
 -1      3188 3.17850E+01 1.05013E+01 0.00000E+00
 -1      3189 3.02850E+01 1.05013E+01 0.00000E+00
 -1      3190 3.25350E+01 1.18003E+01 0.00000E+00
 -1      3191 4.07850E+01 1.05013E+01 0.00000E+00
 -1      3192 3.92850E+01 1.05013E+01 0.00000E+00
 -1      3193 4.37850E+01 1.05013E+01 0.00000E+00
 -1      3194 4.22850E+01 1.05013E+01 0.00000E+00
 -1      3195 4.15350E+01 1.18003E+01 0.00000E+00
 -1      3196 4.67850E+01 1.05013E+01 0.00000E+00
 -1      3197 4.52850E+01 1.05013E+01 0.00000E+00
 -1      3198 4.45350E+01 1.18003E+01 0.00000E+00
 -1      3199 4.97850E+01 1.05013E+01 0.00000E+00
 -1      3200 4.82850E+01 1.05013E+01 0.00000E+00
 -1      3201 4.75350E+01 1.18003E+01 0.00000E+00
 -1      3202 5.27850E+01 1.05013E+01 0.00000E+00
 -1      3203 5.12850E+01 1.05013E+01 0.00000E+00
 -1      3204 5.05350E+01 1.18003E+01 0.00000E+00
 -1      3205 5.57850E+01 1.05013E+01 0.00000E+00
 -1      3206 5.42850E+01 1.05013E+01 0.00000E+00
 -1      3207 5.35350E+01 1.18003E+01 0.00000E+00
 -1      3208 5.87850E+01 1.05013E+01 0.00000E+00
 -1      3209 5.72850E+01 1.05013E+01 0.00000E+00
 -1      3210 5.65350E+01 1.18003E+01 0.00000E+00
 -1      3211 6.17850E+01 1.05013E+01 0.00000E+00
 -1      3212 6.02850E+01 1.05013E+01 0.00000E+00
 -1      3213 5.95350E+01 1.18003E+01 0.00000E+00
 -1      3214 6.47850E+01 1.05013E+01 0.00000E+00
 -1      3215 6.32850E+01 1.05013E+01 0.00000E+00
 -1      3216 6.25350E+01 1.18003E+01 0.00000E+00
 -1      3217 6.77850E+01 1.05013E+01 0.00000E+00
 -1      3218 6.62850E+01 1.05013E+01 0.00000E+00
 -1      3219 6.55350E+01 1.18003E+01 0.00000E+00
 -1      3220 7.07850E+01 1.05013E+01 0.00000E+00
 -1      3221 6.92850E+01 1.05013E+01 0.00000E+00
 -1      3222 6.85350E+01 1.18003E+01 0.00000E+00
 -1      3223 7.37850E+01 1.05013E+01 0.00000E+00
 -1      3224 7.22850E+01 1.05013E+01 0.00000E+00
 -1      3225 7.15350E+01 1.18003E+01 0.00000E+00
 -1      3226 7.67850E+01 1.05013E+01 0.00000E+00
 -1      3227 7.52850E+01 1.05013E+01 0.00000E+00
 -1      3228 7.45350E+01 1.18003E+01 0.00000E+00
 -1      3229 7.97850E+01 1.05013E+01 0.00000E+00
 -1      3230 7.82850E+01 1.05013E+01 0.00000E+00
 -1      3231 7.75350E+01 1.18003E+01 0.00000E+00
 -1      3232 8.27850E+01 1.05013E+01 0.00000E+00
 -1      3233 8.12850E+01 1.05013E+01 0.00000E+00
 -1      3234 8.05350E+01 1.18003E+01 0.00000E+00
 -1      3235 8.57850E+01 1.05013E+01 0.00000E+00
 -1      3236 8.42850E+01 1.05013E+01 0.00000E+00
 -1      3237 8.35350E+01 1.18003E+01 0.00000E+00
 -1      3238 8.87850E+01 1.05013E+01 0.00000E+00
 -1      3239 8.72850E+01 1.05013E+01 0.00000E+00
 -1      3240 8.65350E+01 1.18003E+01 0.00000E+00
 -1      3241 9.17850E+01 1.05013E+01 0.00000E+00
 -1      3242 9.02850E+01 1.05013E+01 0.00000E+00
 -1      3243 8.95350E+01 1.18003E+01 0.00000E+00
 -1      3244 9.47850E+01 1.05013E+01 0.00000E+00
 -1      3245 9.32850E+01 1.05013E+01 0.00000E+00
 -1      3246 9.25350E+01 1.18003E+01 0.00000E+00
 -1      3247 9.77850E+01 1.05013E+01 0.00000E+00
 -1      3248 9.62850E+01 1.05013E+01 0.00000E+00
 -1      3249 9.55350E+01 1.18003E+01 0.00000E+00
 -1      3250 1.00785E+02 1.05013E+01 0.00000E+00
 -1      3251 9.92850E+01 1.05013E+01 0.00000E+00
 -1      3252 9.85350E+01 1.18003E+01 0.00000E+00
 -1      3253 1.03785E+02 1.05013E+01 0.00000E+00
 -1      3254 1.02285E+02 1.05013E+01 0.00000E+00
 -1      3255 1.01535E+02 1.18003E+01 0.00000E+00
 -1      3256 1.06785E+02 1.05013E+01 0.00000E+00
 -1      3257 1.05285E+02 1.05013E+01 0.00000E+00
 -1      3258 1.04535E+02 1.18003E+01 0.00000E+00
 -1      3259 1.10754E+02 1.08851E+01 0.00000E+00
 -1      3260 1.09254E+02 1.08851E+01 0.00000E+00
 -1      3261 1.12530E+02 1.07148E+01 0.00000E+00
 -1      3262 1.20993E+02 7.96035E+00 0.00000E+00
 -1      3263 1.33785E+02 1.01211E+01 0.00000E+00
 -1      3264 1.32285E+02 1.01211E+01 0.00000E+00
 -1      3265 1.36785E+02 1.01211E+01 0.00000E+00
 -1      3266 1.35285E+02 1.01211E+01 0.00000E+00
 -1      3267 1.34535E+02 1.14201E+01 0.00000E+00
 -1      3268 1.38912E+02 1.07664E+01 0.00000E+00
 -1      3269 1.37744E+02 1.03907E+01 0.00000E+00
 -1      3270 1.36994E+02 1.16897E+01 0.00000E+00
 -1      3271 1.38912E+02 1.22289E+01 0.00000E+00
 -1      3272 1.38309E+02 2.86750E+01 0.00000E+00
 -1      3273 1.38309E+02 2.72250E+01 0.00000E+00
 -1      3274 1.16079E+02 3.54461E+01 0.00000E+00
 -1      3275 1.14836E+02 3.46782E+01 0.00000E+00
 -1      3276 1.38309E+02 2.57500E+01 0.00000E+00
 -1      3277 1.38309E+02 2.42750E+01 0.00000E+00
 -1      3278 1.37010E+02 2.64750E+01 0.00000E+00
 -1      3279 1.33033E+02 2.40731E+01 0.00000E+00
 -1      3280 1.18690E+01 3.82074E+01 0.00000E+00
 -1      3281 1.40830E+01 3.82756E+01 0.00000E+00
 -1      3282 1.25063E+02 1.01603E+01 0.00000E+00
 -1      3283 1.26122E+02 9.74575E+00 0.00000E+00
 -1      3284 1.08574E+02 3.03691E+01 0.00000E+00
 -1      3285 1.07759E+02 2.93425E+01 0.00000E+00
 -1      3286 1.05570E+01 3.73671E+01 0.00000E+00
 -1      3287 1.07061E+02 2.76705E+01 0.00000E+00
 -1      3288 1.06673E+02 2.61096E+01 0.00000E+00
 -1      3289 1.38309E+02 3.16250E+01 0.00000E+00
 -1      3290 1.38309E+02 3.01500E+01 0.00000E+00
 -1      3291 1.37010E+02 2.94250E+01 0.00000E+00
 -1      3292 1.38309E+02 3.45750E+01 0.00000E+00
 -1      3293 1.38309E+02 3.31000E+01 0.00000E+00
 -1      3294 1.37010E+02 3.23750E+01 0.00000E+00
 -1      3295 1.32091E+02 2.92045E+01 0.00000E+00
 -1      3296 1.31232E+02 3.02941E+01 0.00000E+00
 -1      3297 1.27622E+02 9.74575E+00 0.00000E+00
 -1      3298 1.28109E+02 3.38310E+01 0.00000E+00
 -1      3299 1.26895E+02 3.45681E+01 0.00000E+00
 -1      3300 3.77850E+01 1.05013E+01 0.00000E+00
 -1      3301 3.62850E+01 1.05013E+01 0.00000E+00
 -1      3302 3.55350E+01 1.18003E+01 0.00000E+00
 -1      3303 3.85350E+01 1.18003E+01 0.00000E+00
 -1      3304 1.33303E+02 2.65517E+01 0.00000E+00
 -1      3305 1.32829E+02 2.77627E+01 0.00000E+00
 -1      3306 2.27850E+01 1.05013E+01 0.00000E+00
 -1      3307 2.12850E+01 1.05013E+01 0.00000E+00
 -1      3308 1.06232E+02 2.46145E+01 0.00000E+00
 -1      3309 1.06115E+02 2.34027E+01 0.00000E+00
 -1      3310 1.22177E+02 3.58169E+01 0.00000E+00
 -1      3311 1.20934E+02 3.57805E+01 0.00000E+00
 -1      3312 1.59000E+01 3.83090E+01 0.00000E+00
 -1      3313 1.74000E+01 3.83090E+01 0.00000E+00
 -1      3314 1.81500E+01 3.70100E+01 0.00000E+00
 -1      3315 1.26488E+01 1.02017E+01 0.00000E+00
 -1      3316 1.20772E+01 1.14631E+01 0.00000E+00
 -1      3317 1.33763E+01 1.22006E+01 0.00000E+00
 -1      3318 1.41488E+01 1.02017E+01 0.00000E+00
 -1      3319 1.32804E+02 1.73053E+01 0.00000E+00
 -1      3320 1.33084E+02 1.86091E+01 0.00000E+00
 -1      3321 1.13605E+02 3.38488E+01 0.00000E+00
 -1      3322 1.12514E+02 3.30445E+01 0.00000E+00
 -1      3323 1.16910E+01 2.12875E+01 0.00000E+00
 -1      3324 1.16910E+01 2.27625E+01 0.00000E+00
 -1      3325 1.08504E+02 1.21841E+01 0.00000E+00
 -1      3326 1.34210E+02 2.35478E+01 0.00000E+00
 -1      3327 1.33840E+02 2.50778E+01 0.00000E+00
 -1      3328 1.28645E+02 1.06215E+01 0.00000E+00
 -1      3329 1.30145E+02 1.06215E+01 0.00000E+00
 -1      3330 1.30895E+02 1.19205E+01 0.00000E+00
 -1      3331 1.16910E+01 2.42375E+01 0.00000E+00
 -1      3332 1.16910E+01 2.57125E+01 0.00000E+00
 -1      3333 1.29900E+01 2.35000E+01 0.00000E+00
 -1      3334 1.33177E+02 1.63105E+01 0.00000E+00
 -1      3335 1.34237E+02 1.67647E+01 0.00000E+00
 -1      3336 1.33549E+02 1.53158E+01 0.00000E+00
 -1      3337 1.05138E+02 2.03561E+01 0.00000E+00
 -1      3338 1.06154E+02 1.98733E+01 0.00000E+00
 -1      3339 1.05915E+02 1.90051E+01 0.00000E+00
 -1      3340 2.87850E+01 1.05013E+01 0.00000E+00
 -1      3341 2.72850E+01 1.05013E+01 0.00000E+00
 -1      3342 2.95350E+01 1.18003E+01 0.00000E+00
 -1      3343 1.29312E+02 3.38056E+01 0.00000E+00
 -1      3344 1.20129E+02 3.66174E+01 0.00000E+00
 -1      3345 1.20836E+02 3.82576E+01 0.00000E+00
 -1      3346 1.13807E+02 3.64365E+01 0.00000E+00
 -1      3347 1.14557E+02 3.77355E+01 0.00000E+00
 -1      3348 1.16057E+02 3.77355E+01 0.00000E+00
 -1      3349 1.26106E+02 3.63218E+01 0.00000E+00
 -1      3350 1.26801E+02 3.82211E+01 0.00000E+00
 -1      3351 1.28301E+02 3.82211E+01 0.00000E+00
 -1      3352 1.26604E+02 3.54473E+01 0.00000E+00
 -1      3353 1.22336E+02 3.82576E+01 0.00000E+00
 -1      3354 1.33204E+02 2.89421E+01 0.00000E+00
 -1      3355 2.57850E+01 1.05013E+01 0.00000E+00
 -1      3356 2.42850E+01 1.05013E+01 0.00000E+00
 -1      3357 2.65350E+01 1.18003E+01 0.00000E+00
 -1      3358 1.29900E+01 1.46687E+01 0.00000E+00
 -1      3359 1.16910E+01 1.54063E+01 0.00000E+00
 -1      3360 1.16910E+01 1.68750E+01 0.00000E+00
 -1      3361 1.34480E+02 2.60264E+01 0.00000E+00
 -1      3362 1.05594E+02 2.56022E+01 0.00000E+00
 -1      3363 1.13832E+02 1.02406E+01 0.00000E+00
 -1      3364 1.23141E+02 3.63582E+01 0.00000E+00
 -1      3365 1.38332E+02 1.98625E+01 0.00000E+00
 -1      3366 1.38332E+02 1.83875E+01 0.00000E+00
 -1      3367 1.11460E+02 3.30162E+01 0.00000E+00
 -1      3368 1.10405E+02 3.29879E+01 0.00000E+00
 -1      3369 1.11447E+02 3.41760E+01 0.00000E+00
 -1      3370 1.13732E+02 3.50336E+01 0.00000E+00
 -1      3371 1.37010E+02 2.35250E+01 0.00000E+00
 -1      3372 1.38309E+02 2.28000E+01 0.00000E+00
 -1      3373 1.38309E+02 2.13250E+01 0.00000E+00
 -1      3374 1.38397E+02 1.70996E+01 0.00000E+00
 -1      3375 1.38463E+02 1.58118E+01 0.00000E+00
 -1      3376 1.37121E+02 1.78371E+01 0.00000E+00
 -1      3377 1.17040E+01 3.61028E+01 0.00000E+00
 -1      3378 1.27743E+02 3.59550E+01 0.00000E+00
 -1      3379 1.06403E+02 2.98681E+01 0.00000E+00
 -1      3380 1.06732E+02 2.87693E+01 0.00000E+00
 -1      3381 1.05705E+02 2.81961E+01 0.00000E+00
 -1      3382 1.05265E+02 2.26657E+01 0.00000E+00
 -1      3383 1.31528E+02 3.14596E+01 0.00000E+00
 -1      3384 1.97850E+01 1.05013E+01 0.00000E+00
 -1      3385 1.82850E+01 1.05013E+01 0.00000E+00
 -1      3386 2.05350E+01 1.18003E+01 0.00000E+00
 -1      3387 2.35350E+01 1.18003E+01 0.00000E+00
 -1      3388 1.08924E+02 3.11347E+01 0.00000E+00
 -1      3389 1.07779E+02 3.12068E+01 0.00000E+00
 -1      3390 1.09274E+02 3.19002E+01 0.00000E+00
 -1      3391 1.29051E+02 3.69221E+01 0.00000E+00
 -1      3392 1.07343E+02 1.71387E+01 0.00000E+00
 -1      3393 1.69669E+01 1.03515E+01 0.00000E+00
 -1      3394 1.54669E+01 1.03515E+01 0.00000E+00
 -1      3395 1.50806E+01 1.13509E+01 0.00000E+00
 -1      3396 1.77169E+01 1.16505E+01 0.00000E+00
 -1      3397 1.48330E+01 3.69766E+01 0.00000E+00
 -1      3398 1.16910E+01 3.01219E+01 0.00000E+00
 -1      3399 1.16910E+01 3.15906E+01 0.00000E+00
 -1      3400 1.16910E+01 1.83469E+01 0.00000E+00
 -1      3401 1.16910E+01 1.98156E+01 0.00000E+00
 -1      3402 1.29900E+01 2.05531E+01 0.00000E+00
 -1      3403 1.29900E+01 1.76094E+01 0.00000E+00
 -1      3404 1.29900E+01 3.23250E+01 0.00000E+00
 -1      3405 1.16910E+01 3.30594E+01 0.00000E+00
 -1      3406 1.16910E+01 3.45281E+01 0.00000E+00
 -1      3407 1.33929E+02 1.93755E+01 0.00000E+00
 -1      3408 1.07646E+02 1.46437E+01 0.00000E+00
 -1      3409 1.08422E+02 1.42139E+01 0.00000E+00
 -1      3410 1.37758E+02 3.64975E+01 0.00000E+00
 -1      3411 1.38123E+02 3.54205E+01 0.00000E+00
 -1      3412 1.36824E+02 3.46955E+01 0.00000E+00
 -1      3413 1.36451E+02 3.63865E+01 0.00000E+00
 -1      3414 1.31788E+02 1.26990E+01 0.00000E+00
 -1      3415 1.32762E+02 1.31408E+01 0.00000E+00
 -1      3416 1.34877E+02 2.17720E+01 0.00000E+00
 -1      3417 1.34582E+02 2.25478E+01 0.00000E+00
 -1      3418 1.12576E+02 3.56071E+01 0.00000E+00
 -1      3419 1.16849E+02 3.60953E+01 0.00000E+00
 -1      3420 2.34000E+01 3.57110E+01 0.00000E+00
 -1      3421 2.49000E+01 3.57110E+01 0.00000E+00
 -1      3422 2.64000E+01 3.57110E+01 0.00000E+00
 -1      3423 2.79000E+01 3.57110E+01 0.00000E+00
 -1      3424 2.56500E+01 3.44120E+01 0.00000E+00
 -1      3425 2.94000E+01 3.57110E+01 0.00000E+00
 -1      3426 3.09000E+01 3.57110E+01 0.00000E+00
 -1      3427 2.86500E+01 3.44120E+01 0.00000E+00
 -1      3428 3.24000E+01 3.57110E+01 0.00000E+00
 -1      3429 3.39000E+01 3.57110E+01 0.00000E+00
 -1      3430 3.16500E+01 3.44120E+01 0.00000E+00
 -1      3431 3.54000E+01 3.57110E+01 0.00000E+00
 -1      3432 3.69000E+01 3.57110E+01 0.00000E+00
 -1      3433 3.46500E+01 3.44120E+01 0.00000E+00
 -1      3434 3.84000E+01 3.57110E+01 0.00000E+00
 -1      3435 3.99000E+01 3.57110E+01 0.00000E+00
 -1      3436 3.76500E+01 3.44120E+01 0.00000E+00
 -1      3437 4.14000E+01 3.57110E+01 0.00000E+00
 -1      3438 4.29000E+01 3.57110E+01 0.00000E+00
 -1      3439 4.06500E+01 3.44120E+01 0.00000E+00
 -1      3440 4.44000E+01 3.57110E+01 0.00000E+00
 -1      3441 4.59000E+01 3.57110E+01 0.00000E+00
 -1      3442 4.36500E+01 3.44120E+01 0.00000E+00
 -1      3443 4.74000E+01 3.57110E+01 0.00000E+00
 -1      3444 4.89000E+01 3.57110E+01 0.00000E+00
 -1      3445 4.66500E+01 3.44120E+01 0.00000E+00
 -1      3446 5.04000E+01 3.57110E+01 0.00000E+00
 -1      3447 5.19000E+01 3.57110E+01 0.00000E+00
 -1      3448 4.96500E+01 3.44120E+01 0.00000E+00
 -1      3449 5.34000E+01 3.57110E+01 0.00000E+00
 -1      3450 5.49000E+01 3.57110E+01 0.00000E+00
 -1      3451 5.26500E+01 3.44120E+01 0.00000E+00
 -1      3452 5.64000E+01 3.57110E+01 0.00000E+00
 -1      3453 5.79000E+01 3.57110E+01 0.00000E+00
 -1      3454 5.56500E+01 3.44120E+01 0.00000E+00
 -1      3455 5.94000E+01 3.57110E+01 0.00000E+00
 -1      3456 6.09000E+01 3.57110E+01 0.00000E+00
 -1      3457 5.86500E+01 3.44120E+01 0.00000E+00
 -1      3458 6.24000E+01 3.57110E+01 0.00000E+00
 -1      3459 6.39000E+01 3.57110E+01 0.00000E+00
 -1      3460 6.16500E+01 3.44120E+01 0.00000E+00
 -1      3461 6.54000E+01 3.57110E+01 0.00000E+00
 -1      3462 6.69000E+01 3.57110E+01 0.00000E+00
 -1      3463 6.46500E+01 3.44120E+01 0.00000E+00
 -1      3464 6.84000E+01 3.57110E+01 0.00000E+00
 -1      3465 6.99000E+01 3.57110E+01 0.00000E+00
 -1      3466 6.76500E+01 3.44120E+01 0.00000E+00
 -1      3467 7.14000E+01 3.57110E+01 0.00000E+00
 -1      3468 7.29000E+01 3.57110E+01 0.00000E+00
 -1      3469 7.06500E+01 3.44120E+01 0.00000E+00
 -1      3470 7.44000E+01 3.57110E+01 0.00000E+00
 -1      3471 7.59000E+01 3.57110E+01 0.00000E+00
 -1      3472 7.36500E+01 3.44120E+01 0.00000E+00
 -1      3473 7.74000E+01 3.57110E+01 0.00000E+00
 -1      3474 7.89000E+01 3.57110E+01 0.00000E+00
 -1      3475 7.66500E+01 3.44120E+01 0.00000E+00
 -1      3476 8.04000E+01 3.57110E+01 0.00000E+00
 -1      3477 8.19000E+01 3.57110E+01 0.00000E+00
 -1      3478 7.96500E+01 3.44120E+01 0.00000E+00
 -1      3479 8.34000E+01 3.57110E+01 0.00000E+00
 -1      3480 8.49000E+01 3.57110E+01 0.00000E+00
 -1      3481 8.26500E+01 3.44120E+01 0.00000E+00
 -1      3482 8.64000E+01 3.57110E+01 0.00000E+00
 -1      3483 8.79000E+01 3.57110E+01 0.00000E+00
 -1      3484 8.56500E+01 3.44120E+01 0.00000E+00
 -1      3485 8.94000E+01 3.57110E+01 0.00000E+00
 -1      3486 9.09000E+01 3.57110E+01 0.00000E+00
 -1      3487 8.86500E+01 3.44120E+01 0.00000E+00
 -1      3488 9.24000E+01 3.57110E+01 0.00000E+00
 -1      3489 9.39000E+01 3.57110E+01 0.00000E+00
 -1      3490 9.16500E+01 3.44120E+01 0.00000E+00
 -1      3491 9.54000E+01 3.57110E+01 0.00000E+00
 -1      3492 9.69000E+01 3.57110E+01 0.00000E+00
 -1      3493 9.46500E+01 3.44120E+01 0.00000E+00
 -1      3494 9.84000E+01 3.57110E+01 0.00000E+00
 -1      3495 9.99000E+01 3.57110E+01 0.00000E+00
 -1      3496 9.76500E+01 3.44120E+01 0.00000E+00
 -1      3497 1.01400E+02 3.57110E+01 0.00000E+00
 -1      3498 1.02900E+02 3.57110E+01 0.00000E+00
 -1      3499 1.00650E+02 3.44120E+01 0.00000E+00
 -1      3500 1.04400E+02 3.57110E+01 0.00000E+00
 -1      3501 1.05900E+02 3.57110E+01 0.00000E+00
 -1      3502 1.03650E+02 3.44120E+01 0.00000E+00
 -1      3503 1.07390E+02 3.44912E+01 0.00000E+00
 -1      3504 1.08890E+02 3.44912E+01 0.00000E+00
 -1      3505 1.11076E+02 3.56071E+01 0.00000E+00
 -1      3506 3.32850E+01 1.30992E+01 0.00000E+00
 -1      3507 3.17850E+01 1.30992E+01 0.00000E+00
 -1      3508 4.52850E+01 1.30992E+01 0.00000E+00
 -1      3509 4.37850E+01 1.30992E+01 0.00000E+00
 -1      3510 4.22850E+01 1.30992E+01 0.00000E+00
 -1      3511 4.07850E+01 1.30992E+01 0.00000E+00
 -1      3512 4.30350E+01 1.43982E+01 0.00000E+00
 -1      3513 5.12850E+01 1.30992E+01 0.00000E+00
 -1      3514 4.97850E+01 1.30992E+01 0.00000E+00
 -1      3515 5.42850E+01 1.30992E+01 0.00000E+00
 -1      3516 5.27850E+01 1.30992E+01 0.00000E+00
 -1      3517 5.20350E+01 1.43982E+01 0.00000E+00
 -1      3518 5.72850E+01 1.30992E+01 0.00000E+00
 -1      3519 5.57850E+01 1.30992E+01 0.00000E+00
 -1      3520 5.50350E+01 1.43982E+01 0.00000E+00
 -1      3521 6.02850E+01 1.30992E+01 0.00000E+00
 -1      3522 5.87850E+01 1.30992E+01 0.00000E+00
 -1      3523 5.80350E+01 1.43982E+01 0.00000E+00
 -1      3524 6.32850E+01 1.30992E+01 0.00000E+00
 -1      3525 6.17850E+01 1.30992E+01 0.00000E+00
 -1      3526 6.10350E+01 1.43982E+01 0.00000E+00
 -1      3527 6.62850E+01 1.30992E+01 0.00000E+00
 -1      3528 6.47850E+01 1.30992E+01 0.00000E+00
 -1      3529 6.40350E+01 1.43982E+01 0.00000E+00
 -1      3530 6.92850E+01 1.30992E+01 0.00000E+00
 -1      3531 6.77850E+01 1.30992E+01 0.00000E+00
 -1      3532 6.70350E+01 1.43982E+01 0.00000E+00
 -1      3533 7.22850E+01 1.30992E+01 0.00000E+00
 -1      3534 7.07850E+01 1.30992E+01 0.00000E+00
 -1      3535 7.00350E+01 1.43982E+01 0.00000E+00
 -1      3536 7.52850E+01 1.30992E+01 0.00000E+00
 -1      3537 7.37850E+01 1.30992E+01 0.00000E+00
 -1      3538 7.30350E+01 1.43982E+01 0.00000E+00
 -1      3539 7.82850E+01 1.30992E+01 0.00000E+00
 -1      3540 7.67850E+01 1.30992E+01 0.00000E+00
 -1      3541 7.60350E+01 1.43982E+01 0.00000E+00
 -1      3542 8.12850E+01 1.30992E+01 0.00000E+00
 -1      3543 7.97850E+01 1.30992E+01 0.00000E+00
 -1      3544 7.90350E+01 1.43982E+01 0.00000E+00
 -1      3545 8.42850E+01 1.30992E+01 0.00000E+00
 -1      3546 8.27850E+01 1.30992E+01 0.00000E+00
 -1      3547 8.20350E+01 1.43982E+01 0.00000E+00
 -1      3548 8.72850E+01 1.30992E+01 0.00000E+00
 -1      3549 8.57850E+01 1.30992E+01 0.00000E+00
 -1      3550 8.50350E+01 1.43982E+01 0.00000E+00
 -1      3551 9.02850E+01 1.30992E+01 0.00000E+00
 -1      3552 8.87850E+01 1.30992E+01 0.00000E+00
 -1      3553 8.80350E+01 1.43982E+01 0.00000E+00
 -1      3554 9.32850E+01 1.30992E+01 0.00000E+00
 -1      3555 9.17850E+01 1.30992E+01 0.00000E+00
 -1      3556 9.10350E+01 1.43982E+01 0.00000E+00
 -1      3557 9.62850E+01 1.30992E+01 0.00000E+00
 -1      3558 9.47850E+01 1.30992E+01 0.00000E+00
 -1      3559 9.40350E+01 1.43982E+01 0.00000E+00
 -1      3560 9.92850E+01 1.30992E+01 0.00000E+00
 -1      3561 9.77850E+01 1.30992E+01 0.00000E+00
 -1      3562 9.70350E+01 1.43982E+01 0.00000E+00
 -1      3563 1.02285E+02 1.30992E+01 0.00000E+00
 -1      3564 1.00785E+02 1.30992E+01 0.00000E+00
 -1      3565 1.00035E+02 1.43982E+01 0.00000E+00
 -1      3566 1.05285E+02 1.30992E+01 0.00000E+00
 -1      3567 1.03785E+02 1.30992E+01 0.00000E+00
 -1      3568 1.03035E+02 1.43982E+01 0.00000E+00
 -1      3569 1.35390E+02 2.35525E+01 0.00000E+00
 -1      3570 1.35711E+02 3.31125E+01 0.00000E+00
 -1      3571 1.35711E+02 3.16375E+01 0.00000E+00
 -1      3572 1.37033E+02 2.05875E+01 0.00000E+00
 -1      3573 1.35628E+02 1.24153E+01 0.00000E+00
 -1      3574 1.34128E+02 1.24153E+01 0.00000E+00
 -1      3575 1.33855E+02 1.41360E+01 0.00000E+00
 -1      3576 1.36587E+02 1.26849E+01 0.00000E+00
 -1      3577 1.31400E+02 3.57110E+01 0.00000E+00
 -1      3578 1.32900E+02 3.57110E+01 0.00000E+00
 -1      3579 1.34561E+02 2.87264E+01 0.00000E+00
 -1      3580 1.33823E+02 3.01682E+01 0.00000E+00
 -1      3581 1.09256E+02 1.30500E+01 0.00000E+00
 -1      3582 1.29342E+02 3.60429E+01 0.00000E+00
 -1      3583 1.04751E+02 2.66636E+01 0.00000E+00
 -1      3584 1.04310E+02 2.51684E+01 0.00000E+00
 -1      3585 1.03936E+02 2.32873E+01 0.00000E+00
 -1      3586 1.04048E+02 2.18459E+01 0.00000E+00
 -1      3587 1.16910E+01 2.71844E+01 0.00000E+00
 -1      3588 1.16910E+01 2.86531E+01 0.00000E+00
 -1      3589 1.29900E+01 2.93875E+01 0.00000E+00
 -1      3590 4.82850E+01 1.30992E+01 0.00000E+00
 -1      3591 4.67850E+01 1.30992E+01 0.00000E+00
 -1      3592 4.60350E+01 1.43982E+01 0.00000E+00
 -1      3593 4.90350E+01 1.43982E+01 0.00000E+00
 -1      3594 2.42850E+01 1.30992E+01 0.00000E+00
 -1      3595 2.27850E+01 1.30992E+01 0.00000E+00
 -1      3596 1.05994E+02 1.74897E+01 0.00000E+00
 -1      3597 1.06406E+02 1.61062E+01 0.00000E+00
 -1      3598 1.33439E+02 3.13795E+01 0.00000E+00
 -1      3599 1.32501E+02 3.24552E+01 0.00000E+00
 -1      3600 2.04000E+01 3.57110E+01 0.00000E+00
 -1      3601 2.19000E+01 3.57110E+01 0.00000E+00
 -1      3602 2.26500E+01 3.44120E+01 0.00000E+00
 -1      3603 1.30030E+01 3.53684E+01 0.00000E+00
 -1      3604 1.46944E+01 1.23503E+01 0.00000E+00
 -1      3605 1.43081E+01 1.33498E+01 0.00000E+00
 -1      3606 1.60125E+01 1.25001E+01 0.00000E+00
 -1      3607 1.38654E+02 1.46643E+01 0.00000E+00
 -1      3608 1.38720E+02 1.33764E+01 0.00000E+00
 -1      3609 1.37761E+02 1.31068E+01 0.00000E+00
 -1      3610 1.37378E+02 1.54018E+01 0.00000E+00
 -1      3611 1.74000E+01 3.57110E+01 0.00000E+00
 -1      3612 1.89000E+01 3.57110E+01 0.00000E+00
 -1      3613 1.96500E+01 3.44120E+01 0.00000E+00
 -1      3614 1.42930E+01 3.55230E+01 0.00000E+00
 -1      3615 1.61100E+01 3.55564E+01 0.00000E+00
 -1      3616 1.68600E+01 3.42574E+01 0.00000E+00
 -1      3617 1.42800E+01 3.39483E+01 0.00000E+00
 -1      3618 1.30620E+02 3.47727E+01 0.00000E+00
 -1      3619 1.35460E+02 1.84422E+01 0.00000E+00
 -1      3620 1.35524E+02 2.00583E+01 0.00000E+00
 -1      3621 1.35525E+02 1.71544E+01 0.00000E+00
 -1      3622 1.34915E+02 1.45902E+01 0.00000E+00
 -1      3623 1.03809E+02 2.09777E+01 0.00000E+00
 -1      3624 1.03570E+02 2.01094E+01 0.00000E+00
 -1      3625 1.02481E+02 2.15992E+01 0.00000E+00
 -1      3626 3.02850E+01 1.30992E+01 0.00000E+00
 -1      3627 2.87850E+01 1.30992E+01 0.00000E+00
 -1      3628 3.10350E+01 1.43982E+01 0.00000E+00
 -1      3629 3.92850E+01 1.30992E+01 0.00000E+00
 -1      3630 3.77850E+01 1.30992E+01 0.00000E+00
 -1      3631 4.00350E+01 1.43982E+01 0.00000E+00
 -1      3632 1.10021E+02 3.55789E+01 0.00000E+00
 -1      3633 3.47850E+01 1.30992E+01 0.00000E+00
 -1      3634 3.40350E+01 1.43982E+01 0.00000E+00
 -1      3635 3.62850E+01 1.30992E+01 0.00000E+00
 -1      3636 1.04092E+02 2.88611E+01 0.00000E+00
 -1      3637 1.04421E+02 2.77624E+01 0.00000E+00
 -1      3638 1.03137E+02 2.73286E+01 0.00000E+00
 -1      3639 2.72850E+01 1.30992E+01 0.00000E+00
 -1      3640 2.57850E+01 1.30992E+01 0.00000E+00
 -1      3641 2.80350E+01 1.43982E+01 0.00000E+00
 -1      3642 1.34022E+02 3.59933E+01 0.00000E+00
 -1      3643 1.35329E+02 3.61043E+01 0.00000E+00
 -1      3644 1.35515E+02 3.52588E+01 0.00000E+00
 -1      3645 1.33272E+02 3.46942E+01 0.00000E+00
 -1      3646 2.20350E+01 1.43982E+01 0.00000E+00
 -1      3647 2.12850E+01 1.30992E+01 0.00000E+00
 -1      3648 1.97850E+01 1.30992E+01 0.00000E+00
 -1      3649 1.42890E+01 2.27625E+01 0.00000E+00
 -1      3650 1.42890E+01 2.42375E+01 0.00000E+00
 -1      3651 1.43081E+01 1.48185E+01 0.00000E+00
 -1      3652 1.36409E+02 2.08387E+01 0.00000E+00
 -1      3653 1.36386E+02 2.37762E+01 0.00000E+00
 -1      3654 1.36013E+02 2.47763E+01 0.00000E+00
 -1      3655 1.29900E+01 2.64469E+01 0.00000E+00
 -1      3656 1.09261E+02 3.30600E+01 0.00000E+00
 -1      3657 1.03093E+02 2.43486E+01 0.00000E+00
 -1      3658 1.06416E+02 3.10497E+01 0.00000E+00
 -1      3659 1.05390E+02 3.04765E+01 0.00000E+00
 -1      3660 2.50350E+01 1.43982E+01 0.00000E+00
 -1      3661 1.04978E+02 1.79725E+01 0.00000E+00
 -1      3662 1.36094E+02 3.04263E+01 0.00000E+00
 -1      3663 1.36094E+02 2.89513E+01 0.00000E+00
 -1      3664 1.42890E+01 2.12906E+01 0.00000E+00
 -1      3665 1.55880E+01 2.20281E+01 0.00000E+00
 -1      3666 1.42890E+01 1.98188E+01 0.00000E+00
 -1      3667 1.36386E+02 2.23012E+01 0.00000E+00
 -1      3668 1.06766E+02 3.18153E+01 0.00000E+00
 -1      3669 1.34795E+02 3.11638E+01 0.00000E+00
 -1      3670 1.42890E+01 2.86531E+01 0.00000E+00
 -1      3671 1.42890E+01 3.01219E+01 0.00000E+00
 -1      3672 1.35476E+02 2.77251E+01 0.00000E+00
 -1      3673 1.35476E+02 2.62501E+01 0.00000E+00
 -1      3674 1.04796E+02 1.54277E+01 0.00000E+00
 -1      3675 1.06145E+02 1.50767E+01 0.00000E+00
 -1      3676 1.42845E+01 3.13007E+01 0.00000E+00
 -1      3677 1.42845E+01 3.27695E+01 0.00000E+00
 -1      3678 1.55745E+01 3.29240E+01 0.00000E+00
 -1      3679 1.55835E+01 3.05663E+01 0.00000E+00
 -1      3680 1.06036E+02 1.39652E+01 0.00000E+00
 -1      3681 1.35702E+02 3.44132E+01 0.00000E+00
 -1      3682 1.35898E+02 1.61596E+01 0.00000E+00
 -1      3683 1.06786E+02 1.26662E+01 0.00000E+00
 -1      3684 1.34403E+02 3.36758E+01 0.00000E+00
 -1      3685 2.49000E+01 3.31130E+01 0.00000E+00
 -1      3686 2.64000E+01 3.31130E+01 0.00000E+00
 -1      3687 1.31370E+02 3.34737E+01 0.00000E+00
 -1      3688 1.06640E+02 3.31922E+01 0.00000E+00
 -1      3689 2.79000E+01 3.31130E+01 0.00000E+00
 -1      3690 2.94000E+01 3.31130E+01 0.00000E+00
 -1      3691 2.71500E+01 3.18140E+01 0.00000E+00
 -1      3692 3.09000E+01 3.31130E+01 0.00000E+00
 -1      3693 3.24000E+01 3.31130E+01 0.00000E+00
 -1      3694 3.01500E+01 3.18140E+01 0.00000E+00
 -1      3695 3.39000E+01 3.31130E+01 0.00000E+00
 -1      3696 3.54000E+01 3.31130E+01 0.00000E+00
 -1      3697 3.31500E+01 3.18140E+01 0.00000E+00
 -1      3698 3.69000E+01 3.31130E+01 0.00000E+00
 -1      3699 3.84000E+01 3.31130E+01 0.00000E+00
 -1      3700 3.61500E+01 3.18140E+01 0.00000E+00
 -1      3701 3.99000E+01 3.31130E+01 0.00000E+00
 -1      3702 4.14000E+01 3.31130E+01 0.00000E+00
 -1      3703 3.91500E+01 3.18140E+01 0.00000E+00
 -1      3704 4.29000E+01 3.31130E+01 0.00000E+00
 -1      3705 4.44000E+01 3.31130E+01 0.00000E+00
 -1      3706 4.21500E+01 3.18140E+01 0.00000E+00
 -1      3707 4.59000E+01 3.31130E+01 0.00000E+00
 -1      3708 4.74000E+01 3.31130E+01 0.00000E+00
 -1      3709 4.51500E+01 3.18140E+01 0.00000E+00
 -1      3710 4.89000E+01 3.31130E+01 0.00000E+00
 -1      3711 5.04000E+01 3.31130E+01 0.00000E+00
 -1      3712 4.81500E+01 3.18140E+01 0.00000E+00
 -1      3713 5.19000E+01 3.31130E+01 0.00000E+00
 -1      3714 5.34000E+01 3.31130E+01 0.00000E+00
 -1      3715 5.11500E+01 3.18140E+01 0.00000E+00
 -1      3716 5.49000E+01 3.31130E+01 0.00000E+00
 -1      3717 5.64000E+01 3.31130E+01 0.00000E+00
 -1      3718 5.41500E+01 3.18140E+01 0.00000E+00
 -1      3719 5.79000E+01 3.31130E+01 0.00000E+00
 -1      3720 5.94000E+01 3.31130E+01 0.00000E+00
 -1      3721 5.71500E+01 3.18140E+01 0.00000E+00
 -1      3722 6.09000E+01 3.31130E+01 0.00000E+00
 -1      3723 6.24000E+01 3.31130E+01 0.00000E+00
 -1      3724 6.01500E+01 3.18140E+01 0.00000E+00
 -1      3725 6.39000E+01 3.31130E+01 0.00000E+00
 -1      3726 6.54000E+01 3.31130E+01 0.00000E+00
 -1      3727 6.31500E+01 3.18140E+01 0.00000E+00
 -1      3728 6.69000E+01 3.31130E+01 0.00000E+00
 -1      3729 6.84000E+01 3.31130E+01 0.00000E+00
 -1      3730 6.61500E+01 3.18140E+01 0.00000E+00
 -1      3731 6.99000E+01 3.31130E+01 0.00000E+00
 -1      3732 7.14000E+01 3.31130E+01 0.00000E+00
 -1      3733 6.91500E+01 3.18140E+01 0.00000E+00
 -1      3734 7.29000E+01 3.31130E+01 0.00000E+00
 -1      3735 7.44000E+01 3.31130E+01 0.00000E+00
 -1      3736 7.21500E+01 3.18140E+01 0.00000E+00
 -1      3737 7.59000E+01 3.31130E+01 0.00000E+00
 -1      3738 7.74000E+01 3.31130E+01 0.00000E+00
 -1      3739 7.51500E+01 3.18140E+01 0.00000E+00
 -1      3740 7.89000E+01 3.31130E+01 0.00000E+00
 -1      3741 8.04000E+01 3.31130E+01 0.00000E+00
 -1      3742 7.81500E+01 3.18140E+01 0.00000E+00
 -1      3743 8.19000E+01 3.31130E+01 0.00000E+00
 -1      3744 8.34000E+01 3.31130E+01 0.00000E+00
 -1      3745 8.11500E+01 3.18140E+01 0.00000E+00
 -1      3746 8.49000E+01 3.31130E+01 0.00000E+00
 -1      3747 8.64000E+01 3.31130E+01 0.00000E+00
 -1      3748 8.41500E+01 3.18140E+01 0.00000E+00
 -1      3749 8.79000E+01 3.31130E+01 0.00000E+00
 -1      3750 8.94000E+01 3.31130E+01 0.00000E+00
 -1      3751 8.71500E+01 3.18140E+01 0.00000E+00
 -1      3752 9.09000E+01 3.31130E+01 0.00000E+00
 -1      3753 9.24000E+01 3.31130E+01 0.00000E+00
 -1      3754 9.01500E+01 3.18140E+01 0.00000E+00
 -1      3755 9.39000E+01 3.31130E+01 0.00000E+00
 -1      3756 9.54000E+01 3.31130E+01 0.00000E+00
 -1      3757 9.31500E+01 3.18140E+01 0.00000E+00
 -1      3758 9.69000E+01 3.31130E+01 0.00000E+00
 -1      3759 9.84000E+01 3.31130E+01 0.00000E+00
 -1      3760 9.61500E+01 3.18140E+01 0.00000E+00
 -1      3761 9.99000E+01 3.31130E+01 0.00000E+00
 -1      3762 1.01400E+02 3.31130E+01 0.00000E+00
 -1      3763 9.91500E+01 3.18140E+01 0.00000E+00
 -1      3764 1.03777E+02 3.30351E+01 0.00000E+00
 -1      3765 1.05277E+02 3.30351E+01 0.00000E+00
 -1      3766 1.33281E+02 3.33935E+01 0.00000E+00
 -1      3767 4.37850E+01 1.56973E+01 0.00000E+00
 -1      3768 4.22850E+01 1.56973E+01 0.00000E+00
 -1      3769 1.58860E+01 1.50773E+01 0.00000E+00
 -1      3770 1.45679E+01 1.63963E+01 0.00000E+00
 -1      3771 5.57850E+01 1.56973E+01 0.00000E+00
 -1      3772 5.42850E+01 1.56973E+01 0.00000E+00
 -1      3773 5.27850E+01 1.56973E+01 0.00000E+00
 -1      3774 5.12850E+01 1.56973E+01 0.00000E+00
 -1      3775 5.35350E+01 1.69963E+01 0.00000E+00
 -1      3776 6.17850E+01 1.56973E+01 0.00000E+00
 -1      3777 6.02850E+01 1.56973E+01 0.00000E+00
 -1      3778 6.47850E+01 1.56973E+01 0.00000E+00
 -1      3779 6.32850E+01 1.56973E+01 0.00000E+00
 -1      3780 6.25350E+01 1.69963E+01 0.00000E+00
 -1      3781 6.77850E+01 1.56973E+01 0.00000E+00
 -1      3782 6.62850E+01 1.56973E+01 0.00000E+00
 -1      3783 6.55350E+01 1.69963E+01 0.00000E+00
 -1      3784 7.07850E+01 1.56973E+01 0.00000E+00
 -1      3785 6.92850E+01 1.56973E+01 0.00000E+00
 -1      3786 6.85350E+01 1.69963E+01 0.00000E+00
 -1      3787 7.37850E+01 1.56973E+01 0.00000E+00
 -1      3788 7.22850E+01 1.56973E+01 0.00000E+00
 -1      3789 7.15350E+01 1.69963E+01 0.00000E+00
 -1      3790 7.67850E+01 1.56973E+01 0.00000E+00
 -1      3791 7.52850E+01 1.56973E+01 0.00000E+00
 -1      3792 7.45350E+01 1.69963E+01 0.00000E+00
 -1      3793 7.97850E+01 1.56973E+01 0.00000E+00
 -1      3794 7.82850E+01 1.56973E+01 0.00000E+00
 -1      3795 7.75350E+01 1.69963E+01 0.00000E+00
 -1      3796 8.27850E+01 1.56973E+01 0.00000E+00
 -1      3797 8.12850E+01 1.56973E+01 0.00000E+00
 -1      3798 8.05350E+01 1.69963E+01 0.00000E+00
 -1      3799 8.57850E+01 1.56973E+01 0.00000E+00
 -1      3800 8.42850E+01 1.56973E+01 0.00000E+00
 -1      3801 8.35350E+01 1.69963E+01 0.00000E+00
 -1      3802 8.87850E+01 1.56973E+01 0.00000E+00
 -1      3803 8.72850E+01 1.56973E+01 0.00000E+00
 -1      3804 8.65350E+01 1.69963E+01 0.00000E+00
 -1      3805 9.17850E+01 1.56973E+01 0.00000E+00
 -1      3806 9.02850E+01 1.56973E+01 0.00000E+00
 -1      3807 8.95350E+01 1.69963E+01 0.00000E+00
 -1      3808 9.47850E+01 1.56973E+01 0.00000E+00
 -1      3809 9.32850E+01 1.56973E+01 0.00000E+00
 -1      3810 9.25350E+01 1.69963E+01 0.00000E+00
 -1      3811 9.77850E+01 1.56973E+01 0.00000E+00
 -1      3812 9.62850E+01 1.56973E+01 0.00000E+00
 -1      3813 9.55350E+01 1.69963E+01 0.00000E+00
 -1      3814 1.00785E+02 1.56973E+01 0.00000E+00
 -1      3815 9.92850E+01 1.56973E+01 0.00000E+00
 -1      3816 9.85350E+01 1.69963E+01 0.00000E+00
 -1      3817 1.03541E+02 1.55625E+01 0.00000E+00
 -1      3818 1.02041E+02 1.55625E+01 0.00000E+00
 -1      3819 1.01291E+02 1.68615E+01 0.00000E+00
 -1      3820 1.03802E+02 1.65919E+01 0.00000E+00
 -1      3821 1.42890E+01 2.57094E+01 0.00000E+00
 -1      3822 1.42890E+01 2.71812E+01 0.00000E+00
 -1      3823 1.55880E+01 2.79156E+01 0.00000E+00
 -1      3824 1.55880E+01 2.49719E+01 0.00000E+00
 -1      3825 1.36395E+02 1.38324E+01 0.00000E+00
 -1      3826 1.36090E+02 1.50121E+01 0.00000E+00
 -1      3827 1.89000E+01 3.31130E+01 0.00000E+00
 -1      3828 2.04000E+01 3.31130E+01 0.00000E+00
 -1      3829 2.57850E+01 1.56973E+01 0.00000E+00
 -1      3830 2.42850E+01 1.56973E+01 0.00000E+00
 -1      3831 1.02110E+02 2.55215E+01 0.00000E+00
 -1      3832 1.01737E+02 2.36403E+01 0.00000E+00
 -1      3833 1.85578E+01 1.28746E+01 0.00000E+00
 -1      3834 1.72397E+01 1.27248E+01 0.00000E+00
 -1      3835 1.68534E+01 1.37242E+01 0.00000E+00
 -1      3836 1.93078E+01 1.41736E+01 0.00000E+00
 -1      3837 2.19000E+01 3.31130E+01 0.00000E+00
 -1      3838 2.34000E+01 3.31130E+01 0.00000E+00
 -1      3839 2.41500E+01 3.18140E+01 0.00000E+00
 -1      3840 1.45679E+01 1.78681E+01 0.00000E+00
 -1      3841 5.87850E+01 1.56973E+01 0.00000E+00
 -1      3842 5.72850E+01 1.56973E+01 0.00000E+00
 -1      3843 5.95350E+01 1.69963E+01 0.00000E+00
 -1      3844 1.03723E+02 1.81073E+01 0.00000E+00
 -1      3845 1.02582E+02 3.24832E+01 0.00000E+00
 -1      3846 1.04208E+02 3.11063E+01 0.00000E+00
 -1      3847 1.04195E+02 2.99247E+01 0.00000E+00
 -1      3848 1.01832E+02 3.11842E+01 0.00000E+00
 -1      3849 1.01497E+02 2.27720E+01 0.00000E+00
 -1      3850 1.01258E+02 2.19038E+01 0.00000E+00
 -1      3851 1.00514E+02 2.39449E+01 0.00000E+00
 -1      3852 3.17850E+01 1.56973E+01 0.00000E+00
 -1      3853 3.02850E+01 1.56973E+01 0.00000E+00
 -1      3854 4.07850E+01 1.56973E+01 0.00000E+00
 -1      3855 3.92850E+01 1.56973E+01 0.00000E+00
 -1      3856 4.15350E+01 1.69963E+01 0.00000E+00
 -1      3857 5.65350E+01 1.69963E+01 0.00000E+00
 -1      3858 3.70350E+01 1.43982E+01 0.00000E+00
 -1      3859 1.71132E+01 1.53020E+01 0.00000E+00
 -1      3860 2.11500E+01 3.18140E+01 0.00000E+00
 -1      3861 1.02910E+02 2.94909E+01 0.00000E+00
 -1      3862 2.87850E+01 1.56973E+01 0.00000E+00
 -1      3863 2.72850E+01 1.56973E+01 0.00000E+00
 -1      3864 2.95350E+01 1.69963E+01 0.00000E+00
 -1      3865 4.52850E+01 1.56973E+01 0.00000E+00
 -1      3866 4.45350E+01 1.69963E+01 0.00000E+00
 -1      3867 4.67850E+01 1.56973E+01 0.00000E+00
 -1      3868 1.02394E+02 1.87288E+01 0.00000E+00
 -1      3869 2.65350E+01 1.69963E+01 0.00000E+00
 -1      3870 1.68870E+01 2.42359E+01 0.00000E+00
 -1      3871 1.68870E+01 2.57078E+01 0.00000E+00
 -1      3872 1.65923E+01 3.29412E+01 0.00000E+00
 -1      3873 1.78822E+01 3.30958E+01 0.00000E+00
 -1      3874 1.86322E+01 3.17968E+01 0.00000E+00
 -1      3875 1.65968E+01 3.17624E+01 0.00000E+00
 -1      3876 3.47850E+01 1.56973E+01 0.00000E+00
 -1      3877 3.32850E+01 1.56973E+01 0.00000E+00
 -1      3878 3.25350E+01 1.69963E+01 0.00000E+00
 -1      3879 1.68870E+01 2.71797E+01 0.00000E+00
 -1      3880 1.68870E+01 2.86516E+01 0.00000E+00
 -1      3881 1.81860E+01 2.64438E+01 0.00000E+00
 -1      3882 1.58669E+01 1.86056E+01 0.00000E+00
 -1      3883 1.01781E+02 2.66202E+01 0.00000E+00
 -1      3884 1.00424E+02 2.59119E+01 0.00000E+00
 -1      3885 1.01451E+02 2.77190E+01 0.00000E+00
 -1      3886 2.35350E+01 1.69963E+01 0.00000E+00
 -1      3887 2.27850E+01 1.56973E+01 0.00000E+00
 -1      3888 2.12850E+01 1.56973E+01 0.00000E+00
 -1      3889 1.68870E+01 2.12922E+01 0.00000E+00
 -1      3890 1.68870E+01 2.27641E+01 0.00000E+00
 -1      3891 1.81860E+01 2.35000E+01 0.00000E+00
 -1      3892 4.97850E+01 1.56973E+01 0.00000E+00
 -1      3893 4.82850E+01 1.56973E+01 0.00000E+00
 -1      3894 4.75350E+01 1.69963E+01 0.00000E+00
 -1      3895 1.66012E+01 3.05835E+01 0.00000E+00
 -1      3896 1.79002E+01 2.98476E+01 0.00000E+00
 -1      3897 5.05350E+01 1.69963E+01 0.00000E+00
 -1      3898 2.34000E+01 3.05150E+01 0.00000E+00
 -1      3899 2.49000E+01 3.05150E+01 0.00000E+00
 -1      3900 2.64000E+01 3.05150E+01 0.00000E+00
 -1      3901 2.79000E+01 3.05150E+01 0.00000E+00
 -1      3902 2.56500E+01 2.92160E+01 0.00000E+00
 -1      3903 2.94000E+01 3.05150E+01 0.00000E+00
 -1      3904 3.09000E+01 3.05150E+01 0.00000E+00
 -1      3905 2.86500E+01 2.92160E+01 0.00000E+00
 -1      3906 3.24000E+01 3.05150E+01 0.00000E+00
 -1      3907 3.39000E+01 3.05150E+01 0.00000E+00
 -1      3908 3.16500E+01 2.92160E+01 0.00000E+00
 -1      3909 3.54000E+01 3.05150E+01 0.00000E+00
 -1      3910 3.69000E+01 3.05150E+01 0.00000E+00
 -1      3911 3.46500E+01 2.92160E+01 0.00000E+00
 -1      3912 3.84000E+01 3.05150E+01 0.00000E+00
 -1      3913 3.99000E+01 3.05150E+01 0.00000E+00
 -1      3914 3.76500E+01 2.92160E+01 0.00000E+00
 -1      3915 4.14000E+01 3.05150E+01 0.00000E+00
 -1      3916 4.29000E+01 3.05150E+01 0.00000E+00
 -1      3917 4.06500E+01 2.92160E+01 0.00000E+00
 -1      3918 4.44000E+01 3.05150E+01 0.00000E+00
 -1      3919 4.59000E+01 3.05150E+01 0.00000E+00
 -1      3920 4.36500E+01 2.92160E+01 0.00000E+00
 -1      3921 4.74000E+01 3.05150E+01 0.00000E+00
 -1      3922 4.89000E+01 3.05150E+01 0.00000E+00
 -1      3923 4.66500E+01 2.92160E+01 0.00000E+00
 -1      3924 5.04000E+01 3.05150E+01 0.00000E+00
 -1      3925 5.19000E+01 3.05150E+01 0.00000E+00
 -1      3926 4.96500E+01 2.92160E+01 0.00000E+00
 -1      3927 5.34000E+01 3.05150E+01 0.00000E+00
 -1      3928 5.49000E+01 3.05150E+01 0.00000E+00
 -1      3929 5.26500E+01 2.92160E+01 0.00000E+00
 -1      3930 5.64000E+01 3.05150E+01 0.00000E+00
 -1      3931 5.79000E+01 3.05150E+01 0.00000E+00
 -1      3932 5.56500E+01 2.92160E+01 0.00000E+00
 -1      3933 5.94000E+01 3.05150E+01 0.00000E+00
 -1      3934 6.09000E+01 3.05150E+01 0.00000E+00
 -1      3935 5.86500E+01 2.92160E+01 0.00000E+00
 -1      3936 6.24000E+01 3.05150E+01 0.00000E+00
 -1      3937 6.39000E+01 3.05150E+01 0.00000E+00
 -1      3938 6.16500E+01 2.92160E+01 0.00000E+00
 -1      3939 6.54000E+01 3.05150E+01 0.00000E+00
 -1      3940 6.69000E+01 3.05150E+01 0.00000E+00
 -1      3941 6.46500E+01 2.92160E+01 0.00000E+00
 -1      3942 6.84000E+01 3.05150E+01 0.00000E+00
 -1      3943 6.99000E+01 3.05150E+01 0.00000E+00
 -1      3944 6.76500E+01 2.92160E+01 0.00000E+00
 -1      3945 7.14000E+01 3.05150E+01 0.00000E+00
 -1      3946 7.29000E+01 3.05150E+01 0.00000E+00
 -1      3947 7.06500E+01 2.92160E+01 0.00000E+00
 -1      3948 7.44000E+01 3.05150E+01 0.00000E+00
 -1      3949 7.59000E+01 3.05150E+01 0.00000E+00
 -1      3950 7.36500E+01 2.92160E+01 0.00000E+00
 -1      3951 7.74000E+01 3.05150E+01 0.00000E+00
 -1      3952 7.89000E+01 3.05150E+01 0.00000E+00
 -1      3953 7.66500E+01 2.92160E+01 0.00000E+00
 -1      3954 8.04000E+01 3.05150E+01 0.00000E+00
 -1      3955 8.19000E+01 3.05150E+01 0.00000E+00
 -1      3956 7.96500E+01 2.92160E+01 0.00000E+00
 -1      3957 8.34000E+01 3.05150E+01 0.00000E+00
 -1      3958 8.49000E+01 3.05150E+01 0.00000E+00
 -1      3959 8.26500E+01 2.92160E+01 0.00000E+00
 -1      3960 8.64000E+01 3.05150E+01 0.00000E+00
 -1      3961 8.79000E+01 3.05150E+01 0.00000E+00
 -1      3962 8.56500E+01 2.92160E+01 0.00000E+00
 -1      3963 8.94000E+01 3.05150E+01 0.00000E+00
 -1      3964 9.09000E+01 3.05150E+01 0.00000E+00
 -1      3965 8.86500E+01 2.92160E+01 0.00000E+00
 -1      3966 9.24000E+01 3.05150E+01 0.00000E+00
 -1      3967 9.39000E+01 3.05150E+01 0.00000E+00
 -1      3968 9.16500E+01 2.92160E+01 0.00000E+00
 -1      3969 9.54000E+01 3.05150E+01 0.00000E+00
 -1      3970 9.69000E+01 3.05150E+01 0.00000E+00
 -1      3971 9.46500E+01 2.92160E+01 0.00000E+00
 -1      3972 9.86158E+01 3.08496E+01 0.00000E+00
 -1      3973 1.00116E+02 3.08496E+01 0.00000E+00
 -1      3974 1.01297E+02 3.02198E+01 0.00000E+00
 -1      3975 9.78658E+01 2.95506E+01 0.00000E+00
 -1      3976 1.83404E+01 1.55266E+01 0.00000E+00
 -1      3977 1.73730E+01 1.68797E+01 0.00000E+00
 -1      3978 1.95676E+01 1.57513E+01 0.00000E+00
 -1      3979 5.12850E+01 1.82952E+01 0.00000E+00
 -1      3980 4.97850E+01 1.82952E+01 0.00000E+00
 -1      3981 3.77850E+01 1.56973E+01 0.00000E+00
 -1      3982 3.62850E+01 1.56973E+01 0.00000E+00
 -1      3983 3.55350E+01 1.69963E+01 0.00000E+00
 -1      3984 3.85350E+01 1.69963E+01 0.00000E+00
 -1      3985 6.62850E+01 1.82952E+01 0.00000E+00
 -1      3986 6.47850E+01 1.82952E+01 0.00000E+00
 -1      3987 6.32850E+01 1.82952E+01 0.00000E+00
 -1      3988 6.17850E+01 1.82952E+01 0.00000E+00
 -1      3989 6.40350E+01 1.95942E+01 0.00000E+00
 -1      3990 7.22850E+01 1.82952E+01 0.00000E+00
 -1      3991 7.07850E+01 1.82952E+01 0.00000E+00
 -1      3992 7.52850E+01 1.82952E+01 0.00000E+00
 -1      3993 7.37850E+01 1.82952E+01 0.00000E+00
 -1      3994 7.30350E+01 1.95942E+01 0.00000E+00
 -1      3995 7.82850E+01 1.82952E+01 0.00000E+00
 -1      3996 7.67850E+01 1.82952E+01 0.00000E+00
 -1      3997 7.60350E+01 1.95942E+01 0.00000E+00
 -1      3998 8.12850E+01 1.82952E+01 0.00000E+00
 -1      3999 7.97850E+01 1.82952E+01 0.00000E+00
 -1      4000 7.90350E+01 1.95942E+01 0.00000E+00
 -1      4001 8.42850E+01 1.82952E+01 0.00000E+00
 -1      4002 8.27850E+01 1.82952E+01 0.00000E+00
 -1      4003 8.20350E+01 1.95942E+01 0.00000E+00
 -1      4004 8.72850E+01 1.82952E+01 0.00000E+00
 -1      4005 8.57850E+01 1.82952E+01 0.00000E+00
 -1      4006 8.50350E+01 1.95942E+01 0.00000E+00
 -1      4007 9.02850E+01 1.82952E+01 0.00000E+00
 -1      4008 8.87850E+01 1.82952E+01 0.00000E+00
 -1      4009 8.80350E+01 1.95942E+01 0.00000E+00
 -1      4010 9.32850E+01 1.82952E+01 0.00000E+00
 -1      4011 9.17850E+01 1.82952E+01 0.00000E+00
 -1      4012 9.10350E+01 1.95942E+01 0.00000E+00
 -1      4013 9.62850E+01 1.82952E+01 0.00000E+00
 -1      4014 9.47850E+01 1.82952E+01 0.00000E+00
 -1      4015 9.40350E+01 1.95942E+01 0.00000E+00
 -1      4016 9.92850E+01 1.82952E+01 0.00000E+00
 -1      4017 9.77850E+01 1.82952E+01 0.00000E+00
 -1      4018 9.70350E+01 1.95942E+01 0.00000E+00
 -1      4019 1.01138E+02 1.88636E+01 0.00000E+00
 -1      4020 5.72850E+01 1.82952E+01 0.00000E+00
 -1      4021 5.57850E+01 1.82952E+01 0.00000E+00
 -1      4022 1.94850E+01 2.57078E+01 0.00000E+00
 -1      4023 1.94850E+01 2.71797E+01 0.00000E+00
 -1      4024 6.92850E+01 1.82952E+01 0.00000E+00
 -1      4025 6.77850E+01 1.82952E+01 0.00000E+00
 -1      4026 6.70350E+01 1.95942E+01 0.00000E+00
 -1      4027 5.42850E+01 1.82952E+01 0.00000E+00
 -1      4028 5.27850E+01 1.82952E+01 0.00000E+00
 -1      4029 5.50350E+01 1.95942E+01 0.00000E+00
 -1      4030 1.01195E+02 2.91563E+01 0.00000E+00
 -1      4031 1.72694E+01 1.81106E+01 0.00000E+00
 -1      4032 1.69905E+01 2.00612E+01 0.00000E+00
 -1      4033 1.82895E+01 2.07972E+01 0.00000E+00
 -1      4034 1.84966E+01 1.83353E+01 0.00000E+00
 -1      4035 6.02850E+01 1.82952E+01 0.00000E+00
 -1      4036 5.87850E+01 1.82952E+01 0.00000E+00
 -1      4037 5.80350E+01 1.95942E+01 0.00000E+00
 -1      4038 2.72850E+01 1.82952E+01 0.00000E+00
 -1      4039 2.57850E+01 1.82952E+01 0.00000E+00
 -1      4040 3.02850E+01 1.82952E+01 0.00000E+00
 -1      4041 2.87850E+01 1.82952E+01 0.00000E+00
 -1      4042 2.80350E+01 1.95942E+01 0.00000E+00
 -1      4043 1.00388E+02 2.01626E+01 0.00000E+00
 -1      4044 7.00350E+01 1.95942E+01 0.00000E+00
 -1      4045 4.22850E+01 1.82952E+01 0.00000E+00
 -1      4046 4.07850E+01 1.82952E+01 0.00000E+00
 -1      4047 9.94051E+01 2.13355E+01 0.00000E+00
 -1      4048 5.20350E+01 1.95942E+01 0.00000E+00
 -1      4049 1.93281E+01 2.90717E+01 0.00000E+00
 -1      4050 1.90424E+01 3.10037E+01 0.00000E+00
 -1      4051 6.10350E+01 1.95942E+01 0.00000E+00
 -1      4052 1.94850E+01 2.42359E+01 0.00000E+00
 -1      4053 2.07840E+01 2.49719E+01 0.00000E+00
 -1      4054 1.94850E+01 2.27641E+01 0.00000E+00
 -1      4055 2.50350E+01 1.95942E+01 0.00000E+00
 -1      4056 2.42850E+01 1.82952E+01 0.00000E+00
 -1      4057 2.27850E+01 1.82952E+01 0.00000E+00
 -1      4058 2.06271E+01 2.83357E+01 0.00000E+00
 -1      4059 9.98380E+01 2.84479E+01 0.00000E+00
 -1      4060 4.52850E+01 1.82952E+01 0.00000E+00
 -1      4061 4.37850E+01 1.82952E+01 0.00000E+00
 -1      4062 4.30350E+01 1.95942E+01 0.00000E+00
 -1      4063 9.90150E+01 2.60882E+01 0.00000E+00
 -1      4064 9.93444E+01 2.49894E+01 0.00000E+00
 -1      4065 3.17850E+01 1.82952E+01 0.00000E+00
 -1      4066 3.10350E+01 1.95942E+01 0.00000E+00
 -1      4067 3.32850E+01 1.82952E+01 0.00000E+00
 -1      4068 2.03176E+01 1.70503E+01 0.00000E+00
 -1      4069 4.82850E+01 1.82952E+01 0.00000E+00
 -1      4070 4.67850E+01 1.82952E+01 0.00000E+00
 -1      4071 4.60350E+01 1.95942E+01 0.00000E+00
 -1      4072 9.91053E+01 2.41212E+01 0.00000E+00
 -1      4073 4.90350E+01 1.95942E+01 0.00000E+00
 -1      4074 2.49000E+01 2.79170E+01 0.00000E+00
 -1      4075 2.64000E+01 2.79170E+01 0.00000E+00
 -1      4076 4.97850E+01 2.08932E+01 0.00000E+00
 -1      4077 4.82850E+01 2.08932E+01 0.00000E+00
 -1      4078 2.79000E+01 2.79170E+01 0.00000E+00
 -1      4079 2.94000E+01 2.79170E+01 0.00000E+00
 -1      4080 2.71500E+01 2.66180E+01 0.00000E+00
 -1      4081 3.09000E+01 2.79170E+01 0.00000E+00
 -1      4082 3.24000E+01 2.79170E+01 0.00000E+00
 -1      4083 3.01500E+01 2.66180E+01 0.00000E+00
 -1      4084 3.39000E+01 2.79170E+01 0.00000E+00
 -1      4085 3.54000E+01 2.79170E+01 0.00000E+00
 -1      4086 3.31500E+01 2.66180E+01 0.00000E+00
 -1      4087 3.69000E+01 2.79170E+01 0.00000E+00
 -1      4088 3.84000E+01 2.79170E+01 0.00000E+00
 -1      4089 3.61500E+01 2.66180E+01 0.00000E+00
 -1      4090 3.99000E+01 2.79170E+01 0.00000E+00
 -1      4091 4.14000E+01 2.79170E+01 0.00000E+00
 -1      4092 3.91500E+01 2.66180E+01 0.00000E+00
 -1      4093 4.29000E+01 2.79170E+01 0.00000E+00
 -1      4094 4.44000E+01 2.79170E+01 0.00000E+00
 -1      4095 4.21500E+01 2.66180E+01 0.00000E+00
 -1      4096 4.59000E+01 2.79170E+01 0.00000E+00
 -1      4097 4.74000E+01 2.79170E+01 0.00000E+00
 -1      4098 4.51500E+01 2.66180E+01 0.00000E+00
 -1      4099 4.89000E+01 2.79170E+01 0.00000E+00
 -1      4100 5.04000E+01 2.79170E+01 0.00000E+00
 -1      4101 4.81500E+01 2.66180E+01 0.00000E+00
 -1      4102 5.19000E+01 2.79170E+01 0.00000E+00
 -1      4103 5.34000E+01 2.79170E+01 0.00000E+00
 -1      4104 5.11500E+01 2.66180E+01 0.00000E+00
 -1      4105 5.49000E+01 2.79170E+01 0.00000E+00
 -1      4106 5.64000E+01 2.79170E+01 0.00000E+00
 -1      4107 5.41500E+01 2.66180E+01 0.00000E+00
 -1      4108 5.79000E+01 2.79170E+01 0.00000E+00
 -1      4109 5.94000E+01 2.79170E+01 0.00000E+00
 -1      4110 5.71500E+01 2.66180E+01 0.00000E+00
 -1      4111 6.09000E+01 2.79170E+01 0.00000E+00
 -1      4112 6.24000E+01 2.79170E+01 0.00000E+00
 -1      4113 6.01500E+01 2.66180E+01 0.00000E+00
 -1      4114 6.39000E+01 2.79170E+01 0.00000E+00
 -1      4115 6.54000E+01 2.79170E+01 0.00000E+00
 -1      4116 6.31500E+01 2.66180E+01 0.00000E+00
 -1      4117 6.69000E+01 2.79170E+01 0.00000E+00
 -1      4118 6.84000E+01 2.79170E+01 0.00000E+00
 -1      4119 6.61500E+01 2.66180E+01 0.00000E+00
 -1      4120 6.99000E+01 2.79170E+01 0.00000E+00
 -1      4121 7.14000E+01 2.79170E+01 0.00000E+00
 -1      4122 6.91500E+01 2.66180E+01 0.00000E+00
 -1      4123 7.29000E+01 2.79170E+01 0.00000E+00
 -1      4124 7.44000E+01 2.79170E+01 0.00000E+00
 -1      4125 7.21500E+01 2.66180E+01 0.00000E+00
 -1      4126 7.59000E+01 2.79170E+01 0.00000E+00
 -1      4127 7.74000E+01 2.79170E+01 0.00000E+00
 -1      4128 7.51500E+01 2.66180E+01 0.00000E+00
 -1      4129 7.89000E+01 2.79170E+01 0.00000E+00
 -1      4130 8.04000E+01 2.79170E+01 0.00000E+00
 -1      4131 7.81500E+01 2.66180E+01 0.00000E+00
 -1      4132 8.19000E+01 2.79170E+01 0.00000E+00
 -1      4133 8.34000E+01 2.79170E+01 0.00000E+00
 -1      4134 8.11500E+01 2.66180E+01 0.00000E+00
 -1      4135 8.49000E+01 2.79170E+01 0.00000E+00
 -1      4136 8.64000E+01 2.79170E+01 0.00000E+00
 -1      4137 8.41500E+01 2.66180E+01 0.00000E+00
 -1      4138 8.79000E+01 2.79170E+01 0.00000E+00
 -1      4139 8.94000E+01 2.79170E+01 0.00000E+00
 -1      4140 8.71500E+01 2.66180E+01 0.00000E+00
 -1      4141 9.09000E+01 2.79170E+01 0.00000E+00
 -1      4142 9.24000E+01 2.79170E+01 0.00000E+00
 -1      4143 9.01500E+01 2.66180E+01 0.00000E+00
 -1      4144 9.39000E+01 2.79170E+01 0.00000E+00
 -1      4145 9.54000E+01 2.79170E+01 0.00000E+00
 -1      4146 9.31500E+01 2.66180E+01 0.00000E+00
 -1      4147 9.81223E+01 2.81133E+01 0.00000E+00
 -1      4148 9.85052E+01 2.27283E+01 0.00000E+00
 -1      4149 9.76351E+01 2.09871E+01 0.00000E+00
 -1      4150 9.61351E+01 2.09871E+01 0.00000E+00
 -1      4151 9.73353E+01 2.37729E+01 0.00000E+00
 -1      4152 6.47850E+01 2.08932E+01 0.00000E+00
 -1      4153 6.32850E+01 2.08932E+01 0.00000E+00
 -1      4154 6.17850E+01 2.08932E+01 0.00000E+00
 -1      4155 6.02850E+01 2.08932E+01 0.00000E+00
 -1      4156 6.25350E+01 2.21922E+01 0.00000E+00
 -1      4157 5.87850E+01 2.08932E+01 0.00000E+00
 -1      4158 5.72850E+01 2.08932E+01 0.00000E+00
 -1      4159 5.95350E+01 2.21922E+01 0.00000E+00
 -1      4160 7.67850E+01 2.08932E+01 0.00000E+00
 -1      4161 7.52850E+01 2.08932E+01 0.00000E+00
 -1      4162 7.37850E+01 2.08932E+01 0.00000E+00
 -1      4163 7.22850E+01 2.08932E+01 0.00000E+00
 -1      4164 7.45350E+01 2.21922E+01 0.00000E+00
 -1      4165 8.27850E+01 2.08932E+01 0.00000E+00
 -1      4166 8.12850E+01 2.08932E+01 0.00000E+00
 -1      4167 8.57850E+01 2.08932E+01 0.00000E+00
 -1      4168 8.42850E+01 2.08932E+01 0.00000E+00
 -1      4169 8.35350E+01 2.21922E+01 0.00000E+00
 -1      4170 8.87850E+01 2.08932E+01 0.00000E+00
 -1      4171 8.72850E+01 2.08932E+01 0.00000E+00
 -1      4172 8.65350E+01 2.21922E+01 0.00000E+00
 -1      4173 9.17850E+01 2.08932E+01 0.00000E+00
 -1      4174 9.02850E+01 2.08932E+01 0.00000E+00
 -1      4175 8.95350E+01 2.21922E+01 0.00000E+00
 -1      4176 9.47101E+01 2.09402E+01 0.00000E+00
 -1      4177 9.32101E+01 2.09402E+01 0.00000E+00
 -1      4178 9.24601E+01 2.22392E+01 0.00000E+00
 -1      4179 9.53102E+01 2.23331E+01 0.00000E+00
 -1      4180 7.07850E+01 2.08932E+01 0.00000E+00
 -1      4181 6.92850E+01 2.08932E+01 0.00000E+00
 -1      4182 7.15350E+01 2.21922E+01 0.00000E+00
 -1      4183 2.00601E+01 3.10209E+01 0.00000E+00
 -1      4184 2.15601E+01 3.10209E+01 0.00000E+00
 -1      4185 2.23101E+01 2.97219E+01 0.00000E+00
 -1      4186 6.77850E+01 2.08932E+01 0.00000E+00
 -1      4187 6.62850E+01 2.08932E+01 0.00000E+00
 -1      4188 6.55350E+01 2.21922E+01 0.00000E+00
 -1      4189 6.85350E+01 2.21922E+01 0.00000E+00
 -1      4190 2.24670E+01 2.78299E+01 0.00000E+00
 -1      4191 5.57850E+01 2.08932E+01 0.00000E+00
 -1      4192 5.42850E+01 2.08932E+01 0.00000E+00
 -1      4193 5.65350E+01 2.21922E+01 0.00000E+00
 -1      4194 9.70427E+01 2.71909E+01 0.00000E+00
 -1      4195 4.00350E+01 1.95942E+01 0.00000E+00
 -1      4196 3.92850E+01 1.82952E+01 0.00000E+00
 -1      4197 3.77850E+01 1.82952E+01 0.00000E+00
 -1      4198 7.97850E+01 2.08932E+01 0.00000E+00
 -1      4199 7.82850E+01 2.08932E+01 0.00000E+00
 -1      4200 8.05350E+01 2.21922E+01 0.00000E+00
 -1      4201 2.14995E+01 1.82882E+01 0.00000E+00
 -1      4202 1.97821E+01 1.83423E+01 0.00000E+00
 -1      4203 1.96786E+01 1.95732E+01 0.00000E+00
 -1      4204 2.22495E+01 1.95872E+01 0.00000E+00
 -1      4205 5.27850E+01 2.08932E+01 0.00000E+00
 -1      4206 5.12850E+01 2.08932E+01 0.00000E+00
 -1      4207 5.35350E+01 2.21922E+01 0.00000E+00
 -1      4208 2.87850E+01 2.08932E+01 0.00000E+00
 -1      4209 2.72850E+01 2.08932E+01 0.00000E+00
 -1      4210 2.32170E+01 2.65309E+01 0.00000E+00
 -1      4211 9.62927E+01 2.58919E+01 0.00000E+00
 -1      4212 4.75350E+01 2.21922E+01 0.00000E+00
 -1      4213 4.67850E+01 2.08932E+01 0.00000E+00
 -1      4214 4.52850E+01 2.08932E+01 0.00000E+00
 -1      4215 1.96335E+01 2.05532E+01 0.00000E+00
 -1      4216 1.95300E+01 2.17841E+01 0.00000E+00
 -1      4217 2.08290E+01 2.25201E+01 0.00000E+00
 -1      4218 2.09190E+01 2.05602E+01 0.00000E+00
 -1      4219 9.61015E+01 2.48089E+01 0.00000E+00
 -1      4220 9.55014E+01 2.34160E+01 0.00000E+00
 -1      4221 9.40763E+01 2.33691E+01 0.00000E+00
 -1      4222 9.44588E+01 2.55350E+01 0.00000E+00
 -1      4223 7.75350E+01 2.21922E+01 0.00000E+00
 -1      4224 3.62850E+01 1.82952E+01 0.00000E+00
 -1      4225 3.47850E+01 1.82952E+01 0.00000E+00
 -1      4226 3.40350E+01 1.95942E+01 0.00000E+00
 -1      4227 3.70350E+01 1.95942E+01 0.00000E+00
 -1      4228 4.07850E+01 2.08932E+01 0.00000E+00
 -1      4229 3.92850E+01 2.08932E+01 0.00000E+00
 -1      4230 2.57850E+01 2.08932E+01 0.00000E+00
 -1      4231 2.42850E+01 2.08932E+01 0.00000E+00
 -1      4232 2.65350E+01 2.21922E+01 0.00000E+00
 -1      4233 4.22850E+01 2.08932E+01 0.00000E+00
 -1      4234 4.15350E+01 2.21922E+01 0.00000E+00
 -1      4235 4.37850E+01 2.08932E+01 0.00000E+00
 -1      4236 3.17850E+01 2.08932E+01 0.00000E+00
 -1      4237 3.02850E+01 2.08932E+01 0.00000E+00
 -1      4238 2.95350E+01 2.21922E+01 0.00000E+00
 -1      4239 5.05350E+01 2.21922E+01 0.00000E+00
 -1      4240 2.98425E+01 2.44051E+01 0.00000E+00
 -1      4241 3.13425E+01 2.44051E+01 0.00000E+00
 -1      4242 3.54000E+01 2.53190E+01 0.00000E+00
 -1      4243 3.69000E+01 2.53190E+01 0.00000E+00
 -1      4244 3.88425E+01 2.44051E+01 0.00000E+00
 -1      4245 4.03425E+01 2.44051E+01 0.00000E+00
 -1      4246 4.18425E+01 2.44051E+01 0.00000E+00
 -1      4247 4.33425E+01 2.44051E+01 0.00000E+00
 -1      4248 4.48425E+01 2.44051E+01 0.00000E+00
 -1      4249 4.63425E+01 2.44051E+01 0.00000E+00
 -1      4250 4.78425E+01 2.44051E+01 0.00000E+00
 -1      4251 4.93425E+01 2.44051E+01 0.00000E+00
 -1      4252 5.08425E+01 2.44051E+01 0.00000E+00
 -1      4253 5.23425E+01 2.44051E+01 0.00000E+00
 -1      4254 5.38425E+01 2.44051E+01 0.00000E+00
 -1      4255 5.53425E+01 2.44051E+01 0.00000E+00
 -1      4256 5.68425E+01 2.44051E+01 0.00000E+00
 -1      4257 5.83425E+01 2.44051E+01 0.00000E+00
 -1      4258 5.98425E+01 2.44051E+01 0.00000E+00
 -1      4259 6.13425E+01 2.44051E+01 0.00000E+00
 -1      4260 6.28425E+01 2.44051E+01 0.00000E+00
 -1      4261 6.43425E+01 2.44051E+01 0.00000E+00
 -1      4262 6.58425E+01 2.44051E+01 0.00000E+00
 -1      4263 6.73425E+01 2.44051E+01 0.00000E+00
 -1      4264 6.88425E+01 2.44051E+01 0.00000E+00
 -1      4265 7.03425E+01 2.44051E+01 0.00000E+00
 -1      4266 7.18425E+01 2.44051E+01 0.00000E+00
 -1      4267 7.33425E+01 2.44051E+01 0.00000E+00
 -1      4268 7.48425E+01 2.44051E+01 0.00000E+00
 -1      4269 7.63425E+01 2.44051E+01 0.00000E+00
 -1      4270 7.78425E+01 2.44051E+01 0.00000E+00
 -1      4271 7.93425E+01 2.44051E+01 0.00000E+00
 -1      4272 8.08425E+01 2.44051E+01 0.00000E+00
 -1      4273 8.23425E+01 2.44051E+01 0.00000E+00
 -1      4274 8.38425E+01 2.44051E+01 0.00000E+00
 -1      4275 8.53425E+01 2.44051E+01 0.00000E+00
 -1      4276 8.68425E+01 2.44051E+01 0.00000E+00
 -1      4277 8.83425E+01 2.44051E+01 0.00000E+00
 -1      4278 8.98425E+01 2.44051E+01 0.00000E+00
 -1      4279 9.13425E+01 2.44051E+01 0.00000E+00
 -1      4280 9.29588E+01 2.55350E+01 0.00000E+00
 -1      4281 3.80925E+01 2.31061E+01 0.00000E+00
 -1      4282 3.73425E+01 2.18071E+01 0.00000E+00
 -1      4283 2.20830E+01 2.42359E+01 0.00000E+00
 -1      4284 2.20830E+01 2.57078E+01 0.00000E+00
 -1      4285 2.29095E+01 2.28461E+01 0.00000E+00
 -1      4286 2.42085E+01 2.35821E+01 0.00000E+00
 -1      4287 2.68425E+01 2.44051E+01 0.00000E+00
 -1      4288 2.83425E+01 2.44051E+01 0.00000E+00
 -1      4289 2.53425E+01 2.44051E+01 0.00000E+00
 -1      4290 4.45350E+01 2.21922E+01 0.00000E+00
 -1      4291 3.24000E+01 2.53190E+01 0.00000E+00
 -1      4292 3.39000E+01 2.53190E+01 0.00000E+00
 -1      4293 3.20925E+01 2.31061E+01 0.00000E+00
 -1      4294 2.45160E+01 2.57949E+01 0.00000E+00
 -1      4295 9.26513E+01 2.33222E+01 0.00000E+00
 -1      4296 3.58425E+01 2.18071E+01 0.00000E+00
 -1      4297 3.46500E+01 2.40200E+01 0.00000E+00
 -1      4298 3.28425E+01 2.18071E+01 0.00000E+00
 -1      4299 3.43425E+01 2.18071E+01 0.00000E+00
 -1      4300 2.22045E+01 2.05672E+01 0.00000E+00
 -1      4301 2.21595E+01 2.15471E+01 0.00000E+00
 -3
    3C                          2069                                     1
 -1       164    8    0    1
 -2         6         7        23      1117      1280      1134
 -1       165    8    0    1
 -2         7         8       164      1118      1281      1282
 -1       166    8    0    1
 -2         8         9       165      1119      1283      1284
 -1       167    8    0    1
 -2         8       165       164      1284      1285      1281
 -1       168    8    0    1
 -2         9        10       166      1120      1286      1287
 -1       169    8    0    1
 -2         9       166       165      1287      1288      1283
 -1       170    8    0    1
 -2        10        11       167      1121      1289      1290
 -1       171    8    0    1
 -2        10       167       166      1290      1291      1286
 -1       172    8    0    1
 -2        11        12       168      1122      1292      1293
 -1       173    8    0    1
 -2        11       168       167      1293      1294      1289
 -1       174    8    0    1
 -2        12        13       169      1123      1295      1296
 -1       175    8    0    1
 -2        12       169       168      1296      1297      1292
 -1       176    8    0    1
 -2        13        14       170      1124      1298      1299
 -1       177    8    0    1
 -2        13       170       169      1299      1300      1295
 -1       178    8    0    1
 -2        14        15       171      1125      1301      1302
 -1       179    8    0    1
 -2        14       171       170      1302      1303      1298
 -1       180    8    0    1
 -2        15        16       172      1126      1304      1305
 -1       181    8    0    1
 -2        15       172       171      1305      1306      1301
 -1       182    8    0    1
 -2        16        17       173      1127      1307      1308
 -1       183    8    0    1
 -2        16       173       172      1308      1309      1304
 -1       184    8    0    1
 -2        17        18       174      1128      1310      1311
 -1       185    8    0    1
 -2        17       174       173      1311      1312      1307
 -1       186    8    0    1
 -2        18        19       175      1129      1313      1314
 -1       187    8    0    1
 -2        18       175       174      1314      1315      1310
 -1       188    8    0    1
 -2        19        20       176      1130      1316      1317
 -1       189    8    0    1
 -2        19       176       175      1317      1318      1313
 -1       190    8    0    1
 -2        20        21       177      1131      1319      1320
 -1       191    8    0    1
 -2        20       177       176      1320      1321      1316
 -1       192    8    0    1
 -2        21        22       178      1132      1322      1323
 -1       193    8    0    1
 -2        21       178       177      1323      1324      1319
 -1       194    8    0    1
 -2        22         5       179      1133      1325      1326
 -1       195    8    0    1
 -2       178        22       179      1322      1326      1327
 -1       196    8    0    1
 -2         5        72       179      1184      1328      1325
 -1       197    8    0    1
 -2        24        23       180      1135      1329      1330
 -1       198    8    0    1
 -2        25        24       181      1136      1331      1332
 -1       199    8    0    1
 -2        24       180       181      1330      1333      1331
 -1       200    8    0    1
 -2        26        25       182      1137      1334      1335
 -1       201    8    0    1
 -2        25       181       182      1332      1336      1334
 -1       202    8    0    1
 -2        27        26       183      1138      1337      1338
 -1       203    8    0    1
 -2        26       182       183      1335      1339      1337
 -1       204    8    0    1
 -2        28        27       184      1139      1340      1341
 -1       205    8    0    1
 -2        27       183       184      1338      1342      1340
 -1       206    8    0    1
 -2        29        28       185      1140      1343      1344
 -1       207    8    0    1
 -2        28       184       185      1341      1345      1343
 -1       208    8    0    1
 -2        30        29       186      1141      1346      1347
 -1       209    8    0    1
 -2        29       185       186      1344      1348      1346
 -1       210    8    0    1
 -2        31        30       187      1142      1349      1350
 -1       211    8    0    1
 -2        30       186       187      1347      1351      1349
 -1       212    8    0    1
 -2        32        31       188      1143      1352      1353
 -1       213    8    0    1
 -2        31       187       188      1350      1354      1352
 -1       214    8    0    1
 -2        33        32       189      1144      1355      1356
 -1       215    8    0    1
 -2        32       188       189      1353      1357      1355
 -1       216    8    0    1
 -2        34        33       190      1145      1358      1359
 -1       217    8    0    1
 -2        33       189       190      1356      1360      1358
 -1       218    8    0    1
 -2        35        34       191      1146      1361      1362
 -1       219    8    0    1
 -2        34       190       191      1359      1363      1361
 -1       220    8    0    1
 -2        36        35       192      1147      1364      1365
 -1       221    8    0    1
 -2        35       191       192      1362      1366      1364
 -1       222    8    0    1
 -2        37        36       193      1148      1367      1368
 -1       223    8    0    1
 -2        36       192       193      1365      1369      1367
 -1       224    8    0    1
 -2        38        37       194      1149      1370      1371
 -1       225    8    0    1
 -2        37       193       194      1368      1372      1370
 -1       226    8    0    1
 -2        39        38       195      1150      1373      1374
 -1       227    8    0    1
 -2        38       194       195      1371      1375      1373
 -1       228    8    0    1
 -2        40        39       196      1151      1376      1377
 -1       229    8    0    1
 -2        39       195       196      1374      1378      1376
 -1       230    8    0    1
 -2        41        40       197      1152      1379      1380
 -1       231    8    0    1
 -2        40       196       197      1377      1381      1379
 -1       232    8    0    1
 -2        42        41       198      1153      1382      1383
 -1       233    8    0    1
 -2        41       197       198      1380      1384      1382
 -1       234    8    0    1
 -2        43        42       199      1154      1385      1386
 -1       235    8    0    1
 -2        42       198       199      1383      1387      1385
 -1       236    8    0    1
 -2        44        43       200      1155      1388      1389
 -1       237    8    0    1
 -2        43       199       200      1386      1390      1388
 -1       238    8    0    1
 -2        45        44       201      1156      1391      1392
 -1       239    8    0    1
 -2        44       200       201      1389      1393      1391
 -1       240    8    0    1
 -2        46        45       202      1157      1394      1395
 -1       241    8    0    1
 -2        45       201       202      1392      1396      1394
 -1       242    8    0    1
 -2        47        46       203      1158      1397      1398
 -1       243    8    0    1
 -2        46       202       203      1395      1399      1397
 -1       244    8    0    1
 -2        48        47       204      1159      1400      1401
 -1       245    8    0    1
 -2        47       203       204      1398      1402      1400
 -1       246    8    0    1
 -2        49        48       205      1160      1403      1404
 -1       247    8    0    1
 -2        48       204       205      1401      1405      1403
 -1       248    8    0    1
 -2        50        49       206      1161      1406      1407
 -1       249    8    0    1
 -2        49       205       206      1404      1408      1406
 -1       250    8    0    1
 -2        51        50       207      1162      1409      1410
 -1       251    8    0    1
 -2        50       206       207      1407      1411      1409
 -1       252    8    0    1
 -2        52        51       208      1163      1412      1413
 -1       253    8    0    1
 -2        51       207       208      1410      1414      1412
 -1       254    8    0    1
 -2        53        52       209      1164      1415      1416
 -1       255    8    0    1
 -2        52       208       209      1413      1417      1415
 -1       256    8    0    1
 -2        54        53       210      1165      1418      1419
 -1       257    8    0    1
 -2        53       209       210      1416      1420      1418
 -1       258    8    0    1
 -2        55        54       211      1166      1421      1422
 -1       259    8    0    1
 -2        54       210       211      1419      1423      1421
 -1       260    8    0    1
 -2        56        55       212      1167      1424      1425
 -1       261    8    0    1
 -2        55       211       212      1422      1426      1424
 -1       262    8    0    1
 -2        57        56       213      1168      1427      1428
 -1       263    8    0    1
 -2        56       212       213      1425      1429      1427
 -1       264    8    0    1
 -2        58        57       214      1169      1430      1431
 -1       265    8    0    1
 -2        57       213       214      1428      1432      1430
 -1       266    8    0    1
 -2        59        58       215      1170      1433      1434
 -1       267    8    0    1
 -2        58       214       215      1431      1435      1433
 -1       268    8    0    1
 -2        60        59       216      1171      1436      1437
 -1       269    8    0    1
 -2        59       215       216      1434      1438      1436
 -1       270    8    0    1
 -2        61        60       217      1172      1439      1440
 -1       271    8    0    1
 -2        60       216       217      1437      1441      1439
 -1       272    8    0    1
 -2        62        61       218      1173      1442      1443
 -1       273    8    0    1
 -2        61       217       218      1440      1444      1442
 -1       274    8    0    1
 -2        63        62       219      1174      1445      1446
 -1       275    8    0    1
 -2        62       218       219      1443      1447      1445
 -1       276    8    0    1
 -2        64        63       220      1175      1448      1449
 -1       277    8    0    1
 -2        63       219       220      1446      1450      1448
 -1       278    8    0    1
 -2        65        64       221      1176      1451      1452
 -1       279    8    0    1
 -2        64       220       221      1449      1453      1451
 -1       280    8    0    1
 -2        66        65       222      1177      1454      1455
 -1       281    8    0    1
 -2        65       221       222      1452      1456      1454
 -1       282    8    0    1
 -2        67        66       223      1178      1457      1458
 -1       283    8    0    1
 -2        66       222       223      1455      1459      1457
 -1       284    8    0    1
 -2        68        67       224      1179      1460      1461
 -1       285    8    0    1
 -2        67       223       224      1458      1462      1460
 -1       286    8    0    1
 -2        69        68       225      1180      1463      1464
 -1       287    8    0    1
 -2        68       224       225      1461      1465      1463
 -1       288    8    0    1
 -2        70        69       226      1181      1466      1467
 -1       289    8    0    1
 -2        69       225       226      1464      1468      1466
 -1       290    8    0    1
 -2        71        70       227      1182      1469      1470
 -1       291    8    0    1
 -2        70       226       227      1467      1471      1469
 -1       292    8    0    1
 -2         4        71       136      1183      1472      1250
 -1       293    8    0    1
 -2       136        71       227      1472      1470      1473
 -1       294    8    0    1
 -2        72        73       228      1185      1474      1475
 -1       295    8    0    1
 -2        72       228       179      1475      1476      1328
 -1       296    8    0    1
 -2        73        74       229      1186      1477      1478
 -1       297    8    0    1
 -2        73       229       228      1478      1479      1474
 -1       298    8    0    1
 -2        74        75       230      1187      1480      1481
 -1       299    8    0    1
 -2        74       230       229      1481      1482      1477
 -1       300    8    0    1
 -2        75        76       231      1188      1483      1484
 -1       301    8    0    1
 -2        75       231       230      1484      1485      1480
 -1       302    8    0    1
 -2        76        77       232      1189      1486      1487
 -1       303    8    0    1
 -2        76       232       231      1487      1488      1483
 -1       304    8    0    1
 -2        77        78       233      1190      1489      1490
 -1       305    8    0    1
 -2        77       233       232      1490      1491      1486
 -1       306    8    0    1
 -2        78        79       234      1191      1492      1493
 -1       307    8    0    1
 -2        78       234       233      1493      1494      1489
 -1       308    8    0    1
 -2        79        80       235      1192      1495      1496
 -1       309    8    0    1
 -2        79       235       234      1496      1497      1492
 -1       310    8    0    1
 -2        80        81       236      1193      1498      1499
 -1       311    8    0    1
 -2        80       236       235      1499      1500      1495
 -1       312    8    0    1
 -2        81        82       237      1194      1501      1502
 -1       313    8    0    1
 -2        81       237       236      1502      1503      1498
 -1       314    8    0    1
 -2        82        83       238      1195      1504      1505
 -1       315    8    0    1
 -2        82       238       237      1505      1506      1501
 -1       316    8    0    1
 -2        83        84       239      1196      1507      1508
 -1       317    8    0    1
 -2        83       239       238      1508      1509      1504
 -1       318    8    0    1
 -2        84        85       240      1197      1510      1511
 -1       319    8    0    1
 -2        84       240       239      1511      1512      1507
 -1       320    8    0    1
 -2        85        86       241      1198      1513      1514
 -1       321    8    0    1
 -2        85       241       240      1514      1515      1510
 -1       322    8    0    1
 -2        86        87       242      1199      1516      1517
 -1       323    8    0    1
 -2        86       242       241      1517      1518      1513
 -1       324    8    0    1
 -2        87        88       243      1200      1519      1520
 -1       325    8    0    1
 -2        87       243       242      1520      1521      1516
 -1       326    8    0    1
 -2        88        89       244      1201      1522      1523
 -1       327    8    0    1
 -2        88       244       243      1523      1524      1519
 -1       328    8    0    1
 -2        89        90       245      1202      1525      1526
 -1       329    8    0    1
 -2        89       245       244      1526      1527      1522
 -1       330    8    0    1
 -2        90        91       246      1203      1528      1529
 -1       331    8    0    1
 -2        90       246       245      1529      1530      1525
 -1       332    8    0    1
 -2        91        92       247      1204      1531      1532
 -1       333    8    0    1
 -2        91       247       246      1532      1533      1528
 -1       334    8    0    1
 -2        92        93       248      1205      1534      1535
 -1       335    8    0    1
 -2        92       248       247      1535      1536      1531
 -1       336    8    0    1
 -2        93        94       249      1206      1537      1538
 -1       337    8    0    1
 -2        93       249       248      1538      1539      1534
 -1       338    8    0    1
 -2        94        95       250      1207      1540      1541
 -1       339    8    0    1
 -2        94       250       249      1541      1542      1537
 -1       340    8    0    1
 -2        95        96       251      1208      1543      1544
 -1       341    8    0    1
 -2        95       251       250      1544      1545      1540
 -1       342    8    0    1
 -2        96        97       252      1209      1546      1547
 -1       343    8    0    1
 -2        96       252       251      1547      1548      1543
 -1       344    8    0    1
 -2        97        98       253      1210      1549      1550
 -1       345    8    0    1
 -2        97       253       252      1550      1551      1546
 -1       346    8    0    1
 -2        98        99       254      1211      1552      1553
 -1       347    8    0    1
 -2        98       254       253      1553      1554      1549
 -1       348    8    0    1
 -2        99       100       255      1212      1555      1556
 -1       349    8    0    1
 -2        99       255       254      1556      1557      1552
 -1       350    8    0    1
 -2       100       101       256      1213      1558      1559
 -1       351    8    0    1
 -2       100       256       255      1559      1560      1555
 -1       352    8    0    1
 -2       101       102       257      1214      1561      1562
 -1       353    8    0    1
 -2       101       257       256      1562      1563      1558
 -1       354    8    0    1
 -2       102       103       258      1215      1564      1565
 -1       355    8    0    1
 -2       102       258       257      1565      1566      1561
 -1       356    8    0    1
 -2       103       104       259      1216      1567      1568
 -1       357    8    0    1
 -2       103       259       258      1568      1569      1564
 -1       358    8    0    1
 -2       104       105       260      1217      1570      1571
 -1       359    8    0    1
 -2       104       260       259      1571      1572      1567
 -1       360    8    0    1
 -2       105       106       261      1218      1573      1574
 -1       361    8    0    1
 -2       105       261       260      1574      1575      1570
 -1       362    8    0    1
 -2       106       107       262      1219      1576      1577
 -1       363    8    0    1
 -2       106       262       261      1577      1578      1573
 -1       364    8    0    1
 -2       107       108       263      1220      1579      1580
 -1       365    8    0    1
 -2       107       263       262      1580      1581      1576
 -1       366    8    0    1
 -2       108       109       264      1221      1582      1583
 -1       367    8    0    1
 -2       108       264       263      1583      1584      1579
 -1       368    8    0    1
 -2       109       110       265      1222      1585      1586
 -1       369    8    0    1
 -2       109       265       264      1586      1587      1582
 -1       370    8    0    1
 -2       110       111       266      1223      1588      1589
 -1       371    8    0    1
 -2       110       266       265      1589      1590      1585
 -1       372    8    0    1
 -2       111       112       267      1224      1591      1592
 -1       373    8    0    1
 -2       111       267       266      1592      1593      1588
 -1       374    8    0    1
 -2       112       113       268      1225      1594      1595
 -1       375    8    0    1
 -2       112       268       267      1595      1596      1591
 -1       376    8    0    1
 -2       113       114       269      1226      1597      1598
 -1       377    8    0    1
 -2       113       269       268      1598      1599      1594
 -1       378    8    0    1
 -2       114       115       270      1227      1600      1601
 -1       379    8    0    1
 -2       114       270       269      1601      1602      1597
 -1       380    8    0    1
 -2       115       116       271      1228      1603      1604
 -1       381    8    0    1
 -2       115       271       270      1604      1605      1600
 -1       382    8    0    1
 -2       116       117       272      1229      1606      1607
 -1       383    8    0    1
 -2       116       272       271      1607      1608      1603
 -1       384    8    0    1
 -2       117       118       273      1230      1609      1610
 -1       385    8    0    1
 -2       117       273       272      1610      1611      1606
 -1       386    8    0    1
 -2       118       119       274      1231      1612      1613
 -1       387    8    0    1
 -2       118       274       273      1613      1614      1609
 -1       388    8    0    1
 -2       119       120       275      1232      1615      1616
 -1       389    8    0    1
 -2       119       275       274      1616      1617      1612
 -1       390    8    0    1
 -2       120         3       121      1233      1234      1618
 -1       391    8    0    1
 -2       121       122       276      1235      1619      1620
 -1       392    8    0    1
 -2       122       123       277      1236      1621      1622
 -1       393    8    0    1
 -2       122       277       276      1622      1623      1619
 -1       394    8    0    1
 -2       123       124       278      1237      1624      1625
 -1       395    8    0    1
 -2       123       278       277      1625      1626      1621
 -1       396    8    0    1
 -2       124       125       279      1238      1627      1628
 -1       397    8    0    1
 -2       124       279       278      1628      1629      1624
 -1       398    8    0    1
 -2       125       126       280      1239      1630      1631
 -1       399    8    0    1
 -2       125       280       279      1631      1632      1627
 -1       400    8    0    1
 -2       126       127       281      1240      1633      1634
 -1       401    8    0    1
 -2       126       281       280      1634      1635      1630
 -1       402    8    0    1
 -2       127       128       282      1241      1636      1637
 -1       403    8    0    1
 -2       127       282       281      1637      1638      1633
 -1       404    8    0    1
 -2       128       129       283      1242      1639      1640
 -1       405    8    0    1
 -2       128       283       282      1640      1641      1636
 -1       406    8    0    1
 -2       129       130       284      1243      1642      1643
 -1       407    8    0    1
 -2       129       284       283      1643      1644      1639
 -1       408    8    0    1
 -2       130       131       285      1244      1645      1646
 -1       409    8    0    1
 -2       130       285       284      1646      1647      1642
 -1       410    8    0    1
 -2       131       132       286      1245      1648      1649
 -1       411    8    0    1
 -2       131       286       285      1649      1650      1645
 -1       412    8    0    1
 -2       132       133       287      1246      1651      1652
 -1       413    8    0    1
 -2       132       287       286      1652      1653      1648
 -1       414    8    0    1
 -2       133       134       288      1247      1654      1655
 -1       415    8    0    1
 -2       133       288       287      1655      1656      1651
 -1       416    8    0    1
 -2       134       135       289      1248      1657      1658
 -1       417    8    0    1
 -2       134       289       288      1658      1659      1654
 -1       418    8    0    1
 -2       135       136       290      1249      1660      1661
 -1       419    8    0    1
 -2       289       135       290      1657      1661      1662
 -1       420    8    0    1
 -2       136       227       290      1473      1663      1660
 -1       421    8    0    1
 -2         2       137       291      1251      1664      1665
 -1       422    8    0    1
 -2       137       138       292      1252      1666      1667
 -1       423    8    0    1
 -2       138       139       293      1253      1668      1669
 -1       424    8    0    1
 -2       139       140       294      1254      1670      1671
 -1       425    8    0    1
 -2       140       141       295      1255      1672      1673
 -1       426    8    0    1
 -2       141       142       296      1256      1674      1675
 -1       427    8    0    1
 -2       142       143       297      1257      1676      1677
 -1       428    8    0    1
 -2       143       144       298      1258      1678      1679
 -1       429    8    0    1
 -2       144       145       299      1259      1680      1681
 -1       430    8    0    1
 -2       145       146       300      1260      1682      1683
 -1       431    8    0    1
 -2       146       147       301      1261      1684      1685
 -1       432    8    0    1
 -2       147       148       302      1262      1686      1687
 -1       433    8    0    1
 -2       148       149       303      1263      1688      1689
 -1       434    8    0    1
 -2       149       150       304      1264      1690      1691
 -1       435    8    0    1
 -2       150       151       305      1265      1692      1693
 -1       436    8    0    1
 -2       151       152       306      1266      1694      1695
 -1       437    8    0    1
 -2       152       153       307      1267      1696      1697
 -1       438    8    0    1
 -2       153       154       308      1268      1698      1699
 -1       439    8    0    1
 -2       154       155       309      1269      1700      1701
 -1       440    8    0    1
 -2       155       156       310      1270      1702      1703
 -1       441    8    0    1
 -2       156       157       311      1271      1704      1705
 -1       442    8    0    1
 -2       157       158       312      1272      1706      1707
 -1       443    8    0    1
 -2       158       159       313      1273      1708      1709
 -1       444    8    0    1
 -2       159       160       314      1274      1710      1711
 -1       445    8    0    1
 -2       160       161       315      1275      1712      1713
 -1       446    8    0    1
 -2       161         1       316      1276      1714      1715
 -1       447    8    0    1
 -2         1       162       317      1277      1716      1717
 -1       448    8    0    1
 -2       162       163       318      1278      1718      1719
 -1       449    8    0    1
 -2       163         2       319      1279      1720      1721
 -1       450    8    0    1
 -2       294       140       295      1670      1673      1722
 -1       451    8    0    1
 -2       293       139       294      1668      1671      1723
 -1       452    8    0    1
 -2       120       121       275      1618      1724      1615
 -1       453    8    0    1
 -2       121       276       275      1620      1725      1724
 -1       454    8    0    1
 -2       291       137       292      1664      1667      1726
 -1       455    8    0    1
 -2       292       138       293      1666      1669      1727
 -1       456    8    0    1
 -2         2       291       319      1665      1728      1720
 -1       457    8    0    1
 -2       141       296       295      1675      1729      1672
 -1       458    8    0    1
 -2       142       297       296      1677      1730      1674
 -1       459    8    0    1
 -2       143       298       297      1679      1731      1676
 -1       460    8    0    1
 -2       144       299       298      1681      1732      1678
 -1       461    8    0    1
 -2       145       300       299      1683      1733      1680
 -1       462    8    0    1
 -2       146       301       300      1685      1734      1682
 -1       463    8    0    1
 -2       147       302       301      1687      1735      1684
 -1       464    8    0    1
 -2       148       303       302      1689      1736      1686
 -1       465    8    0    1
 -2       149       304       303      1691      1737      1688
 -1       466    8    0    1
 -2       150       305       304      1693      1738      1690
 -1       467    8    0    1
 -2       151       306       305      1695      1739      1692
 -1       468    8    0    1
 -2       152       307       306      1697      1740      1694
 -1       469    8    0    1
 -2       153       308       307      1699      1741      1696
 -1       470    8    0    1
 -2       154       309       308      1701      1742      1698
 -1       471    8    0    1
 -2       155       310       309      1703      1743      1700
 -1       472    8    0    1
 -2       156       311       310      1705      1744      1702
 -1       473    8    0    1
 -2       157       312       311      1707      1745      1704
 -1       474    8    0    1
 -2       158       313       312      1709      1746      1706
 -1       475    8    0    1
 -2       159       314       313      1711      1747      1708
 -1       476    8    0    1
 -2       160       315       314      1713      1748      1710
 -1       477    8    0    1
 -2       161       316       315      1715      1749      1712
 -1       478    8    0    1
 -2         1       317       316      1717      1750      1714
 -1       479    8    0    1
 -2       162       318       317      1719      1751      1716
 -1       480    8    0    1
 -2       163       319       318      1721      1752      1718
 -1       481    8    0    1
 -2        23         7       164      1280      1282      1753
 -1       482    8    0    1
 -2       165       166       320      1288      1754      1755
 -1       483    8    0    1
 -2       164       165       321      1285      1756      1757
 -1       484    8    0    1
 -2       165       320       321      1755      1758      1756
 -1       485    8    0    1
 -2       167       168       322      1294      1759      1760
 -1       486    8    0    1
 -2       168       169       323      1297      1761      1762
 -1       487    8    0    1
 -2       168       323       322      1762      1763      1759
 -1       488    8    0    1
 -2       169       170       324      1300      1764      1765
 -1       489    8    0    1
 -2       169       324       323      1765      1766      1761
 -1       490    8    0    1
 -2       170       171       325      1303      1767      1768
 -1       491    8    0    1
 -2       170       325       324      1768      1769      1764
 -1       492    8    0    1
 -2       171       172       326      1306      1770      1771
 -1       493    8    0    1
 -2       171       326       325      1771      1772      1767
 -1       494    8    0    1
 -2       172       173       327      1309      1773      1774
 -1       495    8    0    1
 -2       172       327       326      1774      1775      1770
 -1       496    8    0    1
 -2       173       174       328      1312      1776      1777
 -1       497    8    0    1
 -2       173       328       327      1777      1778      1773
 -1       498    8    0    1
 -2       174       175       329      1315      1779      1780
 -1       499    8    0    1
 -2       174       329       328      1780      1781      1776
 -1       500    8    0    1
 -2       175       176       330      1318      1782      1783
 -1       501    8    0    1
 -2       175       330       329      1783      1784      1779
 -1       502    8    0    1
 -2       176       177       331      1321      1785      1786
 -1       503    8    0    1
 -2       176       331       330      1786      1787      1782
 -1       504    8    0    1
 -2       177       178       332      1324      1788      1789
 -1       505    8    0    1
 -2       177       332       331      1789      1790      1785
 -1       506    8    0    1
 -2       178       179       333      1327      1791      1792
 -1       507    8    0    1
 -2       332       178       333      1788      1792      1793
 -1       508    8    0    1
 -2       179       228       333      1476      1794      1791
 -1       509    8    0    1
 -2       180        23       164      1329      1753      1795
 -1       510    8    0    1
 -2       228       229       334      1479      1796      1797
 -1       511    8    0    1
 -2       228       334       333      1797      1798      1794
 -1       512    8    0    1
 -2       180       164       321      1795      1757      1799
 -1       513    8    0    1
 -2       182       181       335      1336      1800      1801
 -1       514    8    0    1
 -2       183       182       336      1339      1802      1803
 -1       515    8    0    1
 -2       182       335       336      1801      1804      1802
 -1       516    8    0    1
 -2       184       183       337      1342      1805      1806
 -1       517    8    0    1
 -2       183       336       337      1803      1807      1805
 -1       518    8    0    1
 -2       185       184       338      1345      1808      1809
 -1       519    8    0    1
 -2       184       337       338      1806      1810      1808
 -1       520    8    0    1
 -2       186       185       339      1348      1811      1812
 -1       521    8    0    1
 -2       185       338       339      1809      1813      1811
 -1       522    8    0    1
 -2       187       186       340      1351      1814      1815
 -1       523    8    0    1
 -2       186       339       340      1812      1816      1814
 -1       524    8    0    1
 -2       188       187       341      1354      1817      1818
 -1       525    8    0    1
 -2       187       340       341      1815      1819      1817
 -1       526    8    0    1
 -2       189       188       342      1357      1820      1821
 -1       527    8    0    1
 -2       188       341       342      1818      1822      1820
 -1       528    8    0    1
 -2       190       189       343      1360      1823      1824
 -1       529    8    0    1
 -2       189       342       343      1821      1825      1823
 -1       530    8    0    1
 -2       191       190       344      1363      1826      1827
 -1       531    8    0    1
 -2       190       343       344      1824      1828      1826
 -1       532    8    0    1
 -2       192       191       345      1366      1829      1830
 -1       533    8    0    1
 -2       191       344       345      1827      1831      1829
 -1       534    8    0    1
 -2       193       192       346      1369      1832      1833
 -1       535    8    0    1
 -2       192       345       346      1830      1834      1832
 -1       536    8    0    1
 -2       194       193       347      1372      1835      1836
 -1       537    8    0    1
 -2       193       346       347      1833      1837      1835
 -1       538    8    0    1
 -2       195       194       348      1375      1838      1839
 -1       539    8    0    1
 -2       194       347       348      1836      1840      1838
 -1       540    8    0    1
 -2       196       195       349      1378      1841      1842
 -1       541    8    0    1
 -2       195       348       349      1839      1843      1841
 -1       542    8    0    1
 -2       197       196       350      1381      1844      1845
 -1       543    8    0    1
 -2       196       349       350      1842      1846      1844
 -1       544    8    0    1
 -2       198       197       351      1384      1847      1848
 -1       545    8    0    1
 -2       197       350       351      1845      1849      1847
 -1       546    8    0    1
 -2       199       198       352      1387      1850      1851
 -1       547    8    0    1
 -2       198       351       352      1848      1852      1850
 -1       548    8    0    1
 -2       200       199       353      1390      1853      1854
 -1       549    8    0    1
 -2       199       352       353      1851      1855      1853
 -1       550    8    0    1
 -2       201       200       354      1393      1856      1857
 -1       551    8    0    1
 -2       200       353       354      1854      1858      1856
 -1       552    8    0    1
 -2       202       201       355      1396      1859      1860
 -1       553    8    0    1
 -2       201       354       355      1857      1861      1859
 -1       554    8    0    1
 -2       203       202       356      1399      1862      1863
 -1       555    8    0    1
 -2       202       355       356      1860      1864      1862
 -1       556    8    0    1
 -2       204       203       357      1402      1865      1866
 -1       557    8    0    1
 -2       203       356       357      1863      1867      1865
 -1       558    8    0    1
 -2       205       204       358      1405      1868      1869
 -1       559    8    0    1
 -2       204       357       358      1866      1870      1868
 -1       560    8    0    1
 -2       206       205       359      1408      1871      1872
 -1       561    8    0    1
 -2       205       358       359      1869      1873      1871
 -1       562    8    0    1
 -2       207       206       360      1411      1874      1875
 -1       563    8    0    1
 -2       206       359       360      1872      1876      1874
 -1       564    8    0    1
 -2       208       207       361      1414      1877      1878
 -1       565    8    0    1
 -2       207       360       361      1875      1879      1877
 -1       566    8    0    1
 -2       209       208       362      1417      1880      1881
 -1       567    8    0    1
 -2       208       361       362      1878      1882      1880
 -1       568    8    0    1
 -2       210       209       363      1420      1883      1884
 -1       569    8    0    1
 -2       209       362       363      1881      1885      1883
 -1       570    8    0    1
 -2       211       210       364      1423      1886      1887
 -1       571    8    0    1
 -2       210       363       364      1884      1888      1886
 -1       572    8    0    1
 -2       212       211       365      1426      1889      1890
 -1       573    8    0    1
 -2       211       364       365      1887      1891      1889
 -1       574    8    0    1
 -2       213       212       366      1429      1892      1893
 -1       575    8    0    1
 -2       212       365       366      1890      1894      1892
 -1       576    8    0    1
 -2       214       213       367      1432      1895      1896
 -1       577    8    0    1
 -2       213       366       367      1893      1897      1895
 -1       578    8    0    1
 -2       215       214       368      1435      1898      1899
 -1       579    8    0    1
 -2       214       367       368      1896      1900      1898
 -1       580    8    0    1
 -2       216       215       369      1438      1901      1902
 -1       581    8    0    1
 -2       215       368       369      1899      1903      1901
 -1       582    8    0    1
 -2       217       216       370      1441      1904      1905
 -1       583    8    0    1
 -2       216       369       370      1902      1906      1904
 -1       584    8    0    1
 -2       218       217       371      1444      1907      1908
 -1       585    8    0    1
 -2       217       370       371      1905      1909      1907
 -1       586    8    0    1
 -2       219       218       372      1447      1910      1911
 -1       587    8    0    1
 -2       218       371       372      1908      1912      1910
 -1       588    8    0    1
 -2       220       219       373      1450      1913      1914
 -1       589    8    0    1
 -2       219       372       373      1911      1915      1913
 -1       590    8    0    1
 -2       221       220       374      1453      1916      1917
 -1       591    8    0    1
 -2       220       373       374      1914      1918      1916
 -1       592    8    0    1
 -2       222       221       375      1456      1919      1920
 -1       593    8    0    1
 -2       221       374       375      1917      1921      1919
 -1       594    8    0    1
 -2       223       222       376      1459      1922      1923
 -1       595    8    0    1
 -2       222       375       376      1920      1924      1922
 -1       596    8    0    1
 -2       224       223       377      1462      1925      1926
 -1       597    8    0    1
 -2       223       376       377      1923      1927      1925
 -1       598    8    0    1
 -2       225       224       378      1465      1928      1929
 -1       599    8    0    1
 -2       224       377       378      1926      1930      1928
 -1       600    8    0    1
 -2       226       225       379      1468      1931      1932
 -1       601    8    0    1
 -2       225       378       379      1929      1933      1931
 -1       602    8    0    1
 -2       227       226       380      1471      1934      1935
 -1       603    8    0    1
 -2       290       227       380      1663      1935      1936
 -1       604    8    0    1
 -2       226       379       380      1932      1937      1934
 -1       605    8    0    1
 -2       229       230       381      1482      1938      1939
 -1       606    8    0    1
 -2       229       381       334      1939      1940      1796
 -1       607    8    0    1
 -2       230       231       382      1485      1941      1942
 -1       608    8    0    1
 -2       230       382       381      1942      1943      1938
 -1       609    8    0    1
 -2       231       232       383      1488      1944      1945
 -1       610    8    0    1
 -2       231       383       382      1945      1946      1941
 -1       611    8    0    1
 -2       232       233       384      1491      1947      1948
 -1       612    8    0    1
 -2       232       384       383      1948      1949      1944
 -1       613    8    0    1
 -2       233       234       385      1494      1950      1951
 -1       614    8    0    1
 -2       233       385       384      1951      1952      1947
 -1       615    8    0    1
 -2       234       235       386      1497      1953      1954
 -1       616    8    0    1
 -2       234       386       385      1954      1955      1950
 -1       617    8    0    1
 -2       235       236       387      1500      1956      1957
 -1       618    8    0    1
 -2       235       387       386      1957      1958      1953
 -1       619    8    0    1
 -2       236       237       388      1503      1959      1960
 -1       620    8    0    1
 -2       236       388       387      1960      1961      1956
 -1       621    8    0    1
 -2       237       238       389      1506      1962      1963
 -1       622    8    0    1
 -2       237       389       388      1963      1964      1959
 -1       623    8    0    1
 -2       238       239       390      1509      1965      1966
 -1       624    8    0    1
 -2       238       390       389      1966      1967      1962
 -1       625    8    0    1
 -2       239       240       391      1512      1968      1969
 -1       626    8    0    1
 -2       239       391       390      1969      1970      1965
 -1       627    8    0    1
 -2       240       241       392      1515      1971      1972
 -1       628    8    0    1
 -2       240       392       391      1972      1973      1968
 -1       629    8    0    1
 -2       241       242       393      1518      1974      1975
 -1       630    8    0    1
 -2       241       393       392      1975      1976      1971
 -1       631    8    0    1
 -2       242       243       394      1521      1977      1978
 -1       632    8    0    1
 -2       242       394       393      1978      1979      1974
 -1       633    8    0    1
 -2       243       244       395      1524      1980      1981
 -1       634    8    0    1
 -2       243       395       394      1981      1982      1977
 -1       635    8    0    1
 -2       244       245       396      1527      1983      1984
 -1       636    8    0    1
 -2       244       396       395      1984      1985      1980
 -1       637    8    0    1
 -2       245       246       397      1530      1986      1987
 -1       638    8    0    1
 -2       245       397       396      1987      1988      1983
 -1       639    8    0    1
 -2       246       247       398      1533      1989      1990
 -1       640    8    0    1
 -2       246       398       397      1990      1991      1986
 -1       641    8    0    1
 -2       247       248       399      1536      1992      1993
 -1       642    8    0    1
 -2       247       399       398      1993      1994      1989
 -1       643    8    0    1
 -2       248       249       400      1539      1995      1996
 -1       644    8    0    1
 -2       248       400       399      1996      1997      1992
 -1       645    8    0    1
 -2       249       250       401      1542      1998      1999
 -1       646    8    0    1
 -2       249       401       400      1999      2000      1995
 -1       647    8    0    1
 -2       250       251       402      1545      2001      2002
 -1       648    8    0    1
 -2       250       402       401      2002      2003      1998
 -1       649    8    0    1
 -2       251       252       403      1548      2004      2005
 -1       650    8    0    1
 -2       251       403       402      2005      2006      2001
 -1       651    8    0    1
 -2       252       253       404      1551      2007      2008
 -1       652    8    0    1
 -2       252       404       403      2008      2009      2004
 -1       653    8    0    1
 -2       253       254       405      1554      2010      2011
 -1       654    8    0    1
 -2       253       405       404      2011      2012      2007
 -1       655    8    0    1
 -2       254       255       406      1557      2013      2014
 -1       656    8    0    1
 -2       254       406       405      2014      2015      2010
 -1       657    8    0    1
 -2       255       256       407      1560      2016      2017
 -1       658    8    0    1
 -2       255       407       406      2017      2018      2013
 -1       659    8    0    1
 -2       256       257       408      1563      2019      2020
 -1       660    8    0    1
 -2       256       408       407      2020      2021      2016
 -1       661    8    0    1
 -2       257       258       409      1566      2022      2023
 -1       662    8    0    1
 -2       257       409       408      2023      2024      2019
 -1       663    8    0    1
 -2       258       259       410      1569      2025      2026
 -1       664    8    0    1
 -2       258       410       409      2026      2027      2022
 -1       665    8    0    1
 -2       259       260       411      1572      2028      2029
 -1       666    8    0    1
 -2       259       411       410      2029      2030      2025
 -1       667    8    0    1
 -2       260       261       412      1575      2031      2032
 -1       668    8    0    1
 -2       260       412       411      2032      2033      2028
 -1       669    8    0    1
 -2       261       262       413      1578      2034      2035
 -1       670    8    0    1
 -2       261       413       412      2035      2036      2031
 -1       671    8    0    1
 -2       262       263       414      1581      2037      2038
 -1       672    8    0    1
 -2       262       414       413      2038      2039      2034
 -1       673    8    0    1
 -2       263       264       415      1584      2040      2041
 -1       674    8    0    1
 -2       263       415       414      2041      2042      2037
 -1       675    8    0    1
 -2       264       265       416      1587      2043      2044
 -1       676    8    0    1
 -2       264       416       415      2044      2045      2040
 -1       677    8    0    1
 -2       265       266       417      1590      2046      2047
 -1       678    8    0    1
 -2       265       417       416      2047      2048      2043
 -1       679    8    0    1
 -2       266       267       418      1593      2049      2050
 -1       680    8    0    1
 -2       266       418       417      2050      2051      2046
 -1       681    8    0    1
 -2       267       268       419      1596      2052      2053
 -1       682    8    0    1
 -2       267       419       418      2053      2054      2049
 -1       683    8    0    1
 -2       268       269       420      1599      2055      2056
 -1       684    8    0    1
 -2       268       420       419      2056      2057      2052
 -1       685    8    0    1
 -2       269       270       421      1602      2058      2059
 -1       686    8    0    1
 -2       269       421       420      2059      2060      2055
 -1       687    8    0    1
 -2       270       271       422      1605      2061      2062
 -1       688    8    0    1
 -2       270       422       421      2062      2063      2058
 -1       689    8    0    1
 -2       271       272       423      1608      2064      2065
 -1       690    8    0    1
 -2       271       423       422      2065      2066      2061
 -1       691    8    0    1
 -2       272       273       424      1611      2067      2068
 -1       692    8    0    1
 -2       272       424       423      2068      2069      2064
 -1       693    8    0    1
 -2       273       274       425      1614      2070      2071
 -1       694    8    0    1
 -2       273       425       424      2071      2072      2067
 -1       695    8    0    1
 -2       274       275       426      1617      2073      2074
 -1       696    8    0    1
 -2       425       274       426      2070      2074      2075
 -1       697    8    0    1
 -2       275       276       426      1725      2076      2073
 -1       698    8    0    1
 -2       278       279       427      1629      2077      2078
 -1       699    8    0    1
 -2       277       278       428      1626      2079      2080
 -1       700    8    0    1
 -2       278       427       428      2078      2081      2079
 -1       701    8    0    1
 -2       276       277       429      1623      2082      2083
 -1       702    8    0    1
 -2       426       276       429      2076      2083      2084
 -1       703    8    0    1
 -2       277       428       429      2080      2085      2082
 -1       704    8    0    1
 -2       279       280       430      1632      2086      2087
 -1       705    8    0    1
 -2       279       430       427      2087      2088      2077
 -1       706    8    0    1
 -2       280       281       431      1635      2089      2090
 -1       707    8    0    1
 -2       280       431       430      2090      2091      2086
 -1       708    8    0    1
 -2       281       282       432      1638      2092      2093
 -1       709    8    0    1
 -2       281       432       431      2093      2094      2089
 -1       710    8    0    1
 -2       282       283       433      1641      2095      2096
 -1       711    8    0    1
 -2       282       433       432      2096      2097      2092
 -1       712    8    0    1
 -2       283       284       434      1644      2098      2099
 -1       713    8    0    1
 -2       283       434       433      2099      2100      2095
 -1       714    8    0    1
 -2       284       285       435      1647      2101      2102
 -1       715    8    0    1
 -2       284       435       434      2102      2103      2098
 -1       716    8    0    1
 -2       285       286       436      1650      2104      2105
 -1       717    8    0    1
 -2       285       436       435      2105      2106      2101
 -1       718    8    0    1
 -2       286       287       437      1653      2107      2108
 -1       719    8    0    1
 -2       286       437       436      2108      2109      2104
 -1       720    8    0    1
 -2       287       288       438      1656      2110      2111
 -1       721    8    0    1
 -2       287       438       437      2111      2112      2107
 -1       722    8    0    1
 -2       288       289       439      1659      2113      2114
 -1       723    8    0    1
 -2       288       439       438      2114      2115      2110
 -1       724    8    0    1
 -2       292       293       440      1727      2116      2117
 -1       725    8    0    1
 -2       319       291       441      1728      2118      2119
 -1       726    8    0    1
 -2       291       292       442      1726      2120      2121
 -1       727    8    0    1
 -2       293       294       443      1723      2122      2123
 -1       728    8    0    1
 -2       293       443       440      2123      2124      2116
 -1       729    8    0    1
 -2       294       295       444      1722      2125      2126
 -1       730    8    0    1
 -2       166       167       445      1291      2127      2128
 -1       731    8    0    1
 -2       320       166       445      1754      2128      2129
 -1       732    8    0    1
 -2       167       322       445      1760      2130      2127
 -1       733    8    0    1
 -2       296       297       446      1730      2131      2132
 -1       734    8    0    1
 -2       297       298       447      1731      2133      2134
 -1       735    8    0    1
 -2       298       299       448      1732      2135      2136
 -1       736    8    0    1
 -2       299       300       449      1733      2137      2138
 -1       737    8    0    1
 -2       300       301       450      1734      2139      2140
 -1       738    8    0    1
 -2       301       302       451      1735      2141      2142
 -1       739    8    0    1
 -2       301       451       450      2142      2143      2139
 -1       740    8    0    1
 -2       302       303       452      1736      2144      2145
 -1       741    8    0    1
 -2       303       304       453      1737      2146      2147
 -1       742    8    0    1
 -2       304       305       454      1738      2148      2149
 -1       743    8    0    1
 -2       305       306       455      1739      2150      2151
 -1       744    8    0    1
 -2       306       307       456      1740      2152      2153
 -1       745    8    0    1
 -2       307       308       457      1741      2154      2155
 -1       746    8    0    1
 -2       307       457       456      2155      2156      2152
 -1       747    8    0    1
 -2       308       309       458      1742      2157      2158
 -1       748    8    0    1
 -2       309       310       459      1743      2159      2160
 -1       749    8    0    1
 -2       310       311       460      1744      2161      2162
 -1       750    8    0    1
 -2       311       312       461      1745      2163      2164
 -1       751    8    0    1
 -2       311       461       460      2164      2165      2161
 -1       752    8    0    1
 -2       312       313       462      1746      2166      2167
 -1       753    8    0    1
 -2       313       314       463      1747      2168      2169
 -1       754    8    0    1
 -2       314       315       464      1748      2170      2171
 -1       755    8    0    1
 -2       314       464       463      2171      2172      2168
 -1       756    8    0    1
 -2       315       316       465      1749      2173      2174
 -1       757    8    0    1
 -2       316       317       466      1750      2175      2176
 -1       758    8    0    1
 -2       317       318       467      1751      2177      2178
 -1       759    8    0    1
 -2       318       319       468      1752      2179      2180
 -1       760    8    0    1
 -2       295       296       469      1729      2181      2182
 -1       761    8    0    1
 -2       443       294       444      2122      2126      2183
 -1       762    8    0    1
 -2       180       321       181      1799      2184      1333
 -1       763    8    0    1
 -2       296       446       469      2132      2185      2181
 -1       764    8    0    1
 -2       335       181       321      1800      2184      2186
 -1       765    8    0    1
 -2       442       292       470      2120      2187      2188
 -1       766    8    0    1
 -2       292       440       470      2117      2189      2187
 -1       767    8    0    1
 -2       441       291       442      2118      2121      2190
 -1       768    8    0    1
 -2       439       289       290      2113      1662      2191
 -1       769    8    0    1
 -2       319       441       468      2119      2192      2179
 -1       770    8    0    1
 -2       444       295       469      2125      2182      2193
 -1       771    8    0    1
 -2       467       318       468      2177      2180      2194
 -1       772    8    0    1
 -2       466       317       467      2175      2178      2195
 -1       773    8    0    1
 -2       464       315       465      2170      2174      2196
 -1       774    8    0    1
 -2       461       312       462      2163      2167      2197
 -1       775    8    0    1
 -2       459       310       471      2159      2198      2199
 -1       776    8    0    1
 -2       310       460       471      2162      2200      2198
 -1       777    8    0    1
 -2       457       308       458      2154      2158      2201
 -1       778    8    0    1
 -2       455       306       456      2150      2153      2202
 -1       779    8    0    1
 -2       454       305       455      2148      2151      2203
 -1       780    8    0    1
 -2       453       304       454      2146      2149      2204
 -1       781    8    0    1
 -2       451       302       452      2141      2145      2205
 -1       782    8    0    1
 -2       449       300       472      2137      2206      2207
 -1       783    8    0    1
 -2       300       450       472      2140      2208      2206
 -1       784    8    0    1
 -2       448       299       449      2135      2138      2209
 -1       785    8    0    1
 -2       446       297       447      2131      2134      2210
 -1       786    8    0    1
 -2       447       298       448      2133      2136      2211
 -1       787    8    0    1
 -2       452       303       473      2144      2212      2213
 -1       788    8    0    1
 -2       303       453       473      2147      2214      2212
 -1       789    8    0    1
 -2       458       309       459      2157      2160      2215
 -1       790    8    0    1
 -2       462       313       474      2166      2216      2217
 -1       791    8    0    1
 -2       313       463       474      2169      2218      2216
 -1       792    8    0    1
 -2       465       316       466      2173      2176      2219
 -1       793    8    0    1
 -2       334       381       475      1940      2220      2221
 -1       794    8    0    1
 -2       323       324       476      1766      2222      2223
 -1       795    8    0    1
 -2       322       323       477      1763      2224      2225
 -1       796    8    0    1
 -2       323       476       477      2223      2226      2224
 -1       797    8    0    1
 -2       325       326       478      1772      2227      2228
 -1       798    8    0    1
 -2       326       327       479      1775      2229      2230
 -1       799    8    0    1
 -2       326       479       478      2230      2231      2227
 -1       800    8    0    1
 -2       327       328       480      1778      2232      2233
 -1       801    8    0    1
 -2       327       480       479      2233      2234      2229
 -1       802    8    0    1
 -2       328       329       481      1781      2235      2236
 -1       803    8    0    1
 -2       328       481       480      2236      2237      2232
 -1       804    8    0    1
 -2       329       330       482      1784      2238      2239
 -1       805    8    0    1
 -2       329       482       481      2239      2240      2235
 -1       806    8    0    1
 -2       330       331       483      1787      2241      2242
 -1       807    8    0    1
 -2       330       483       482      2242      2243      2238
 -1       808    8    0    1
 -2       381       382       484      1943      2244      2245
 -1       809    8    0    1
 -2       381       484       475      2245      2246      2220
 -1       810    8    0    1
 -2       336       335       485      1804      2247      2248
 -1       811    8    0    1
 -2       469       446       486      2185      2249      2250
 -1       812    8    0    1
 -2       337       336       487      1807      2251      2252
 -1       813    8    0    1
 -2       336       485       487      2248      2253      2251
 -1       814    8    0    1
 -2       338       337       488      1810      2254      2255
 -1       815    8    0    1
 -2       337       487       488      2252      2256      2254
 -1       816    8    0    1
 -2       339       338       489      1813      2257      2258
 -1       817    8    0    1
 -2       338       488       489      2255      2259      2257
 -1       818    8    0    1
 -2       340       339       490      1816      2260      2261
 -1       819    8    0    1
 -2       339       489       490      2258      2262      2260
 -1       820    8    0    1
 -2       341       340       491      1819      2263      2264
 -1       821    8    0    1
 -2       340       490       491      2261      2265      2263
 -1       822    8    0    1
 -2       342       341       492      1822      2266      2267
 -1       823    8    0    1
 -2       341       491       492      2264      2268      2266
 -1       824    8    0    1
 -2       343       342       493      1825      2269      2270
 -1       825    8    0    1
 -2       342       492       493      2267      2271      2269
 -1       826    8    0    1
 -2       344       343       494      1828      2272      2273
 -1       827    8    0    1
 -2       343       493       494      2270      2274      2272
 -1       828    8    0    1
 -2       345       344       495      1831      2275      2276
 -1       829    8    0    1
 -2       344       494       495      2273      2277      2275
 -1       830    8    0    1
 -2       346       345       496      1834      2278      2279
 -1       831    8    0    1
 -2       345       495       496      2276      2280      2278
 -1       832    8    0    1
 -2       347       346       497      1837      2281      2282
 -1       833    8    0    1
 -2       346       496       497      2279      2283      2281
 -1       834    8    0    1
 -2       348       347       498      1840      2284      2285
 -1       835    8    0    1
 -2       347       497       498      2282      2286      2284
 -1       836    8    0    1
 -2       349       348       499      1843      2287      2288
 -1       837    8    0    1
 -2       348       498       499      2285      2289      2287
 -1       838    8    0    1
 -2       350       349       500      1846      2290      2291
 -1       839    8    0    1
 -2       349       499       500      2288      2292      2290
 -1       840    8    0    1
 -2       351       350       501      1849      2293      2294
 -1       841    8    0    1
 -2       350       500       501      2291      2295      2293
 -1       842    8    0    1
 -2       352       351       502      1852      2296      2297
 -1       843    8    0    1
 -2       351       501       502      2294      2298      2296
 -1       844    8    0    1
 -2       353       352       503      1855      2299      2300
 -1       845    8    0    1
 -2       352       502       503      2297      2301      2299
 -1       846    8    0    1
 -2       354       353       504      1858      2302      2303
 -1       847    8    0    1
 -2       353       503       504      2300      2304      2302
 -1       848    8    0    1
 -2       355       354       505      1861      2305      2306
 -1       849    8    0    1
 -2       354       504       505      2303      2307      2305
 -1       850    8    0    1
 -2       356       355       506      1864      2308      2309
 -1       851    8    0    1
 -2       355       505       506      2306      2310      2308
 -1       852    8    0    1
 -2       357       356       507      1867      2311      2312
 -1       853    8    0    1
 -2       356       506       507      2309      2313      2311
 -1       854    8    0    1
 -2       358       357       508      1870      2314      2315
 -1       855    8    0    1
 -2       357       507       508      2312      2316      2314
 -1       856    8    0    1
 -2       359       358       509      1873      2317      2318
 -1       857    8    0    1
 -2       358       508       509      2315      2319      2317
 -1       858    8    0    1
 -2       360       359       510      1876      2320      2321
 -1       859    8    0    1
 -2       359       509       510      2318      2322      2320
 -1       860    8    0    1
 -2       361       360       511      1879      2323      2324
 -1       861    8    0    1
 -2       360       510       511      2321      2325      2323
 -1       862    8    0    1
 -2       362       361       512      1882      2326      2327
 -1       863    8    0    1
 -2       361       511       512      2324      2328      2326
 -1       864    8    0    1
 -2       363       362       513      1885      2329      2330
 -1       865    8    0    1
 -2       362       512       513      2327      2331      2329
 -1       866    8    0    1
 -2       364       363       514      1888      2332      2333
 -1       867    8    0    1
 -2       363       513       514      2330      2334      2332
 -1       868    8    0    1
 -2       365       364       515      1891      2335      2336
 -1       869    8    0    1
 -2       364       514       515      2333      2337      2335
 -1       870    8    0    1
 -2       366       365       516      1894      2338      2339
 -1       871    8    0    1
 -2       365       515       516      2336      2340      2338
 -1       872    8    0    1
 -2       367       366       517      1897      2341      2342
 -1       873    8    0    1
 -2       366       516       517      2339      2343      2341
 -1       874    8    0    1
 -2       368       367       518      1900      2344      2345
 -1       875    8    0    1
 -2       367       517       518      2342      2346      2344
 -1       876    8    0    1
 -2       369       368       519      1903      2347      2348
 -1       877    8    0    1
 -2       368       518       519      2345      2349      2347
 -1       878    8    0    1
 -2       370       369       520      1906      2350      2351
 -1       879    8    0    1
 -2       369       519       520      2348      2352      2350
 -1       880    8    0    1
 -2       371       370       521      1909      2353      2354
 -1       881    8    0    1
 -2       370       520       521      2351      2355      2353
 -1       882    8    0    1
 -2       372       371       522      1912      2356      2357
 -1       883    8    0    1
 -2       371       521       522      2354      2358      2356
 -1       884    8    0    1
 -2       373       372       523      1915      2359      2360
 -1       885    8    0    1
 -2       372       522       523      2357      2361      2359
 -1       886    8    0    1
 -2       374       373       524      1918      2362      2363
 -1       887    8    0    1
 -2       373       523       524      2360      2364      2362
 -1       888    8    0    1
 -2       375       374       525      1921      2365      2366
 -1       889    8    0    1
 -2       374       524       525      2363      2367      2365
 -1       890    8    0    1
 -2       376       375       526      1924      2368      2369
 -1       891    8    0    1
 -2       375       525       526      2366      2370      2368
 -1       892    8    0    1
 -2       377       376       527      1927      2371      2372
 -1       893    8    0    1
 -2       376       526       527      2369      2373      2371
 -1       894    8    0    1
 -2       378       377       528      1930      2374      2375
 -1       895    8    0    1
 -2       377       527       528      2372      2376      2374
 -1       896    8    0    1
 -2       379       378       529      1933      2377      2378
 -1       897    8    0    1
 -2       378       528       529      2375      2379      2377
 -1       898    8    0    1
 -2       383       384       530      1949      2380      2381
 -1       899    8    0    1
 -2       384       385       531      1952      2382      2383
 -1       900    8    0    1
 -2       384       531       530      2383      2384      2380
 -1       901    8    0    1
 -2       385       386       532      1955      2385      2386
 -1       902    8    0    1
 -2       385       532       531      2386      2387      2382
 -1       903    8    0    1
 -2       386       387       533      1958      2388      2389
 -1       904    8    0    1
 -2       386       533       532      2389      2390      2385
 -1       905    8    0    1
 -2       387       388       534      1961      2391      2392
 -1       906    8    0    1
 -2       387       534       533      2392      2393      2388
 -1       907    8    0    1
 -2       388       389       535      1964      2394      2395
 -1       908    8    0    1
 -2       388       535       534      2395      2396      2391
 -1       909    8    0    1
 -2       389       390       536      1967      2397      2398
 -1       910    8    0    1
 -2       389       536       535      2398      2399      2394
 -1       911    8    0    1
 -2       390       391       537      1970      2400      2401
 -1       912    8    0    1
 -2       390       537       536      2401      2402      2397
 -1       913    8    0    1
 -2       391       392       538      1973      2403      2404
 -1       914    8    0    1
 -2       391       538       537      2404      2405      2400
 -1       915    8    0    1
 -2       392       393       539      1976      2406      2407
 -1       916    8    0    1
 -2       392       539       538      2407      2408      2403
 -1       917    8    0    1
 -2       393       394       540      1979      2409      2410
 -1       918    8    0    1
 -2       393       540       539      2410      2411      2406
 -1       919    8    0    1
 -2       394       395       541      1982      2412      2413
 -1       920    8    0    1
 -2       394       541       540      2413      2414      2409
 -1       921    8    0    1
 -2       395       396       542      1985      2415      2416
 -1       922    8    0    1
 -2       395       542       541      2416      2417      2412
 -1       923    8    0    1
 -2       396       397       543      1988      2418      2419
 -1       924    8    0    1
 -2       396       543       542      2419      2420      2415
 -1       925    8    0    1
 -2       397       398       544      1991      2421      2422
 -1       926    8    0    1
 -2       397       544       543      2422      2423      2418
 -1       927    8    0    1
 -2       398       399       545      1994      2424      2425
 -1       928    8    0    1
 -2       398       545       544      2425      2426      2421
 -1       929    8    0    1
 -2       399       400       546      1997      2427      2428
 -1       930    8    0    1
 -2       399       546       545      2428      2429      2424
 -1       931    8    0    1
 -2       400       401       547      2000      2430      2431
 -1       932    8    0    1
 -2       400       547       546      2431      2432      2427
 -1       933    8    0    1
 -2       401       402       548      2003      2433      2434
 -1       934    8    0    1
 -2       401       548       547      2434      2435      2430
 -1       935    8    0    1
 -2       402       403       549      2006      2436      2437
 -1       936    8    0    1
 -2       402       549       548      2437      2438      2433
 -1       937    8    0    1
 -2       403       404       550      2009      2439      2440
 -1       938    8    0    1
 -2       403       550       549      2440      2441      2436
 -1       939    8    0    1
 -2       404       405       551      2012      2442      2443
 -1       940    8    0    1
 -2       404       551       550      2443      2444      2439
 -1       941    8    0    1
 -2       405       406       552      2015      2445      2446
 -1       942    8    0    1
 -2       405       552       551      2446      2447      2442
 -1       943    8    0    1
 -2       406       407       553      2018      2448      2449
 -1       944    8    0    1
 -2       406       553       552      2449      2450      2445
 -1       945    8    0    1
 -2       407       408       554      2021      2451      2452
 -1       946    8    0    1
 -2       407       554       553      2452      2453      2448
 -1       947    8    0    1
 -2       408       409       555      2024      2454      2455
 -1       948    8    0    1
 -2       408       555       554      2455      2456      2451
 -1       949    8    0    1
 -2       409       410       556      2027      2457      2458
 -1       950    8    0    1
 -2       409       556       555      2458      2459      2454
 -1       951    8    0    1
 -2       410       411       557      2030      2460      2461
 -1       952    8    0    1
 -2       410       557       556      2461      2462      2457
 -1       953    8    0    1
 -2       411       412       558      2033      2463      2464
 -1       954    8    0    1
 -2       411       558       557      2464      2465      2460
 -1       955    8    0    1
 -2       412       413       559      2036      2466      2467
 -1       956    8    0    1
 -2       412       559       558      2467      2468      2463
 -1       957    8    0    1
 -2       413       414       560      2039      2469      2470
 -1       958    8    0    1
 -2       413       560       559      2470      2471      2466
 -1       959    8    0    1
 -2       414       415       561      2042      2472      2473
 -1       960    8    0    1
 -2       414       561       560      2473      2474      2469
 -1       961    8    0    1
 -2       415       416       562      2045      2475      2476
 -1       962    8    0    1
 -2       415       562       561      2476      2477      2472
 -1       963    8    0    1
 -2       416       417       563      2048      2478      2479
 -1       964    8    0    1
 -2       416       563       562      2479      2480      2475
 -1       965    8    0    1
 -2       417       418       564      2051      2481      2482
 -1       966    8    0    1
 -2       417       564       563      2482      2483      2478
 -1       967    8    0    1
 -2       418       419       565      2054      2484      2485
 -1       968    8    0    1
 -2       418       565       564      2485      2486      2481
 -1       969    8    0    1
 -2       419       420       566      2057      2487      2488
 -1       970    8    0    1
 -2       419       566       565      2488      2489      2484
 -1       971    8    0    1
 -2       420       421       567      2060      2490      2491
 -1       972    8    0    1
 -2       420       567       566      2491      2492      2487
 -1       973    8    0    1
 -2       421       422       568      2063      2493      2494
 -1       974    8    0    1
 -2       421       568       567      2494      2495      2490
 -1       975    8    0    1
 -2       422       423       569      2066      2496      2497
 -1       976    8    0    1
 -2       422       569       568      2497      2498      2493
 -1       977    8    0    1
 -2       423       424       570      2069      2499      2500
 -1       978    8    0    1
 -2       423       570       569      2500      2501      2496
 -1       979    8    0    1
 -2       424       425       571      2072      2502      2503
 -1       980    8    0    1
 -2       424       571       570      2503      2504      2499
 -1       981    8    0    1
 -2       425       426       429      2075      2084      2505
 -1       982    8    0    1
 -2       430       431       572      2091      2506      2507
 -1       983    8    0    1
 -2       431       432       573      2094      2508      2509
 -1       984    8    0    1
 -2       431       573       572      2509      2510      2506
 -1       985    8    0    1
 -2       428       427       574      2081      2511      2512
 -1       986    8    0    1
 -2       427       430       575      2088      2513      2514
 -1       987    8    0    1
 -2       574       427       575      2511      2514      2515
 -1       988    8    0    1
 -2       430       572       575      2507      2516      2513
 -1       989    8    0    1
 -2       432       433       576      2097      2517      2518
 -1       990    8    0    1
 -2       432       576       573      2518      2519      2508
 -1       991    8    0    1
 -2       433       434       577      2100      2520      2521
 -1       992    8    0    1
 -2       433       577       576      2521      2522      2517
 -1       993    8    0    1
 -2       434       435       578      2103      2523      2524
 -1       994    8    0    1
 -2       434       578       577      2524      2525      2520
 -1       995    8    0    1
 -2       435       436       579      2106      2526      2527
 -1       996    8    0    1
 -2       435       579       578      2527      2528      2523
 -1       997    8    0    1
 -2       436       437       580      2109      2529      2530
 -1       998    8    0    1
 -2       436       580       579      2530      2531      2526
 -1       999    8    0    1
 -2       437       438       581      2112      2532      2533
 -1      1000    8    0    1
 -2       437       581       580      2533      2534      2529
 -1      1001    8    0    1
 -2       438       439       582      2115      2535      2536
 -1      1002    8    0    1
 -2       438       582       581      2536      2537      2532
 -1      1003    8    0    1
 -2       441       442       583      2190      2538      2539
 -1      1004    8    0    1
 -2       468       441       584      2192      2540      2541
 -1      1005    8    0    1
 -2       382       383       585      1946      2542      2543
 -1      1006    8    0    1
 -2       383       530       585      2381      2544      2542
 -1      1007    8    0    1
 -2       439       290       380      2191      1936      2545
 -1      1008    8    0    1
 -2       440       443       586      2124      2546      2547
 -1      1009    8    0    1
 -2       335       321       587      2186      2548      2549
 -1      1010    8    0    1
 -2       485       335       587      2247      2549      2550
 -1      1011    8    0    1
 -2       321       320       587      1758      2551      2548
 -1      1012    8    0    1
 -2       444       469       588      2193      2552      2553
 -1      1013    8    0    1
 -2       461       462       589      2197      2554      2555
 -1      1014    8    0    1
 -2       455       456       590      2202      2556      2557
 -1      1015    8    0    1
 -2       324       325       591      1769      2558      2559
 -1      1016    8    0    1
 -2       476       324       591      2222      2559      2560
 -1      1017    8    0    1
 -2       325       478       591      2228      2561      2558
 -1      1018    8    0    1
 -2       447       448       592      2211      2562      2563
 -1      1019    8    0    1
 -2       446       447       593      2210      2564      2565
 -1      1020    8    0    1
 -2       448       449       594      2209      2566      2567
 -1      1021    8    0    1
 -2       450       451       595      2143      2568      2569
 -1      1022    8    0    1
 -2       458       459       596      2215      2570      2571
 -1      1023    8    0    1
 -2       451       452       597      2205      2572      2573
 -1      1024    8    0    1
 -2       451       597       595      2573      2574      2568
 -1      1025    8    0    1
 -2       453       454       598      2204      2575      2576
 -1      1026    8    0    1
 -2       454       455       599      2203      2577      2578
 -1      1027    8    0    1
 -2       455       590       599      2557      2579      2577
 -1      1028    8    0    1
 -2       456       457       600      2156      2580      2581
 -1      1029    8    0    1
 -2       457       458       601      2201      2582      2583
 -1      1030    8    0    1
 -2       457       601       600      2583      2584      2580
 -1      1031    8    0    1
 -2       460       461       602      2165      2585      2586
 -1      1032    8    0    1
 -2       465       466       603      2219      2587      2588
 -1      1033    8    0    1
 -2       463       464       604      2172      2589      2590
 -1      1034    8    0    1
 -2       464       465       605      2196      2591      2592
 -1      1035    8    0    1
 -2       464       605       604      2592      2593      2589
 -1      1036    8    0    1
 -2       466       467       606      2195      2594      2595
 -1      1037    8    0    1
 -2       467       468       607      2194      2596      2597
 -1      1038    8    0    1
 -2       333       334       608      1798      2598      2599
 -1      1039    8    0    1
 -2       332       333       608      1793      2599      2600
 -1      1040    8    0    1
 -2       334       475       608      2221      2601      2598
 -1      1041    8    0    1
 -2       443       444       609      2183      2602      2603
 -1      1042    8    0    1
 -2       443       609       586      2603      2604      2546
 -1      1043    8    0    1
 -2       447       592       593      2563      2605      2564
 -1      1044    8    0    1
 -2       322       477       610      2225      2606      2607
 -1      1045    8    0    1
 -2       322       610       445      2607      2608      2130
 -1      1046    8    0    1
 -2       484       382       585      2244      2543      2609
 -1      1047    8    0    1
 -2       331       332       608      1790      2600      2610
 -1      1048    8    0    1
 -2       609       444       588      2602      2553      2611
 -1      1049    8    0    1
 -2       607       468       584      2596      2541      2612
 -1      1050    8    0    1
 -2       588       469       486      2552      2250      2613
 -1      1051    8    0    1
 -2       605       465       603      2591      2588      2614
 -1      1052    8    0    1
 -2       470       440       586      2189      2547      2615
 -1      1053    8    0    1
 -2       466       606       603      2595      2616      2587
 -1      1054    8    0    1
 -2       425       429       571      2505      2617      2502
 -1      1055    8    0    1
 -2       584       441       583      2540      2539      2618
 -1      1056    8    0    1
 -2       429       428       571      2085      2619      2617
 -1      1057    8    0    1
 -2       571       428       574      2619      2512      2620
 -1      1058    8    0    1
 -2       583       442       611      2538      2621      2622
 -1      1059    8    0    1
 -2       442       470       611      2188      2623      2621
 -1      1060    8    0    1
 -2       601       458       596      2582      2571      2624
 -1      1061    8    0    1
 -2       331       608       483      2610      2625      2241
 -1      1062    8    0    1
 -2       587       320       445      2551      2129      2626
 -1      1063    8    0    1
 -2       597       452       473      2572      2213      2627
 -1      1064    8    0    1
 -2       589       462       474      2554      2217      2628
 -1      1065    8    0    1
 -2       461       589       602      2555      2629      2585
 -1      1066    8    0    1
 -2       596       459       612      2570      2630      2631
 -1      1067    8    0    1
 -2       459       471       612      2199      2632      2630
 -1      1068    8    0    1
 -2       453       598       613      2576      2633      2634
 -1      1069    8    0    1
 -2       453       613       473      2634      2635      2214
 -1      1070    8    0    1
 -2       594       449       614      2566      2636      2637
 -1      1071    8    0    1
 -2       449       472       614      2207      2638      2636
 -1      1072    8    0    1
 -2       456       600       590      2581      2639      2556
 -1      1073    8    0    1
 -2       471       460       602      2200      2586      2640
 -1      1074    8    0    1
 -2       472       450       615      2208      2641      2642
 -1      1075    8    0    1
 -2       450       595       615      2569      2643      2641
 -1      1076    8    0    1
 -2       486       446       593      2249      2565      2644
 -1      1077    8    0    1
 -2       448       594       592      2567      2645      2562
 -1      1078    8    0    1
 -2       598       454       599      2575      2578      2646
 -1      1079    8    0    1
 -2       474       463       604      2218      2590      2647
 -1      1080    8    0    1
 -2       439       380       616      2545      2648      2649
 -1      1081    8    0    1
 -2       582       439       616      2535      2649      2650
 -1      1082    8    0    1
 -2       380       379       616      1937      2651      2648
 -1      1083    8    0    1
 -2       606       467       607      2594      2597      2652
 -1      1084    8    0    1
 -2       616       379       529      2651      2378      2653
 -1      1085    8    0    1
 -2       479       480       617      2234      2654      2655
 -1      1086    8    0    1
 -2       478       479       618      2231      2656      2657
 -1      1087    8    0    1
 -2       479       617       618      2655      2658      2656
 -1      1088    8    0    1
 -2       481       482       619      2240      2659      2660
 -1      1089    8    0    1
 -2       482       483       620      2243      2661      2662
 -1      1090    8    0    1
 -2       482       620       619      2662      2663      2659
 -1      1091    8    0    1
 -2       475       484       621      2246      2664      2665
 -1      1092    8    0    1
 -2       587       445       610      2626      2608      2666
 -1      1093    8    0    1
 -2       608       475       483      2601      2667      2625
 -1      1094    8    0    1
 -2       484       585       622      2609      2668      2669
 -1      1095    8    0    1
 -2       484       622       621      2669      2670      2664
 -1      1096    8    0    1
 -2       605       603       623      2614      2671      2672
 -1      1097    8    0    1
 -2       603       606       624      2616      2673      2674
 -1      1098    8    0    1
 -2       488       487       625      2256      2675      2676
 -1      1099    8    0    1
 -2       489       488       626      2259      2677      2678
 -1      1100    8    0    1
 -2       488       625       626      2676      2679      2677
 -1      1101    8    0    1
 -2       490       489       627      2262      2680      2681
 -1      1102    8    0    1
 -2       489       626       627      2678      2682      2680
 -1      1103    8    0    1
 -2       491       490       628      2265      2683      2684
 -1      1104    8    0    1
 -2       490       627       628      2681      2685      2683
 -1      1105    8    0    1
 -2       492       491       629      2268      2686      2687
 -1      1106    8    0    1
 -2       491       628       629      2684      2688      2686
 -1      1107    8    0    1
 -2       493       492       630      2271      2689      2690
 -1      1108    8    0    1
 -2       492       629       630      2687      2691      2689
 -1      1109    8    0    1
 -2       494       493       631      2274      2692      2693
 -1      1110    8    0    1
 -2       493       630       631      2690      2694      2692
 -1      1111    8    0    1
 -2       495       494       632      2277      2695      2696
 -1      1112    8    0    1
 -2       494       631       632      2693      2697      2695
 -1      1113    8    0    1
 -2       496       495       633      2280      2698      2699
 -1      1114    8    0    1
 -2       495       632       633      2696      2700      2698
 -1      1115    8    0    1
 -2       497       496       634      2283      2701      2702
 -1      1116    8    0    1
 -2       496       633       634      2699      2703      2701
 -1      1117    8    0    1
 -2       498       497       635      2286      2704      2705
 -1      1118    8    0    1
 -2       497       634       635      2702      2706      2704
 -1      1119    8    0    1
 -2       499       498       636      2289      2707      2708
 -1      1120    8    0    1
 -2       498       635       636      2705      2709      2707
 -1      1121    8    0    1
 -2       500       499       637      2292      2710      2711
 -1      1122    8    0    1
 -2       499       636       637      2708      2712      2710
 -1      1123    8    0    1
 -2       501       500       638      2295      2713      2714
 -1      1124    8    0    1
 -2       500       637       638      2711      2715      2713
 -1      1125    8    0    1
 -2       502       501       639      2298      2716      2717
 -1      1126    8    0    1
 -2       501       638       639      2714      2718      2716
 -1      1127    8    0    1
 -2       503       502       640      2301      2719      2720
 -1      1128    8    0    1
 -2       502       639       640      2717      2721      2719
 -1      1129    8    0    1
 -2       504       503       641      2304      2722      2723
 -1      1130    8    0    1
 -2       503       640       641      2720      2724      2722
 -1      1131    8    0    1
 -2       505       504       642      2307      2725      2726
 -1      1132    8    0    1
 -2       504       641       642      2723      2727      2725
 -1      1133    8    0    1
 -2       506       505       643      2310      2728      2729
 -1      1134    8    0    1
 -2       505       642       643      2726      2730      2728
 -1      1135    8    0    1
 -2       507       506       644      2313      2731      2732
 -1      1136    8    0    1
 -2       506       643       644      2729      2733      2731
 -1      1137    8    0    1
 -2       508       507       645      2316      2734      2735
 -1      1138    8    0    1
 -2       507       644       645      2732      2736      2734
 -1      1139    8    0    1
 -2       509       508       646      2319      2737      2738
 -1      1140    8    0    1
 -2       508       645       646      2735      2739      2737
 -1      1141    8    0    1
 -2       510       509       647      2322      2740      2741
 -1      1142    8    0    1
 -2       509       646       647      2738      2742      2740
 -1      1143    8    0    1
 -2       511       510       648      2325      2743      2744
 -1      1144    8    0    1
 -2       510       647       648      2741      2745      2743
 -1      1145    8    0    1
 -2       512       511       649      2328      2746      2747
 -1      1146    8    0    1
 -2       511       648       649      2744      2748      2746
 -1      1147    8    0    1
 -2       513       512       650      2331      2749      2750
 -1      1148    8    0    1
 -2       512       649       650      2747      2751      2749
 -1      1149    8    0    1
 -2       514       513       651      2334      2752      2753
 -1      1150    8    0    1
 -2       513       650       651      2750      2754      2752
 -1      1151    8    0    1
 -2       515       514       652      2337      2755      2756
 -1      1152    8    0    1
 -2       514       651       652      2753      2757      2755
 -1      1153    8    0    1
 -2       516       515       653      2340      2758      2759
 -1      1154    8    0    1
 -2       515       652       653      2756      2760      2758
 -1      1155    8    0    1
 -2       517       516       654      2343      2761      2762
 -1      1156    8    0    1
 -2       516       653       654      2759      2763      2761
 -1      1157    8    0    1
 -2       518       517       655      2346      2764      2765
 -1      1158    8    0    1
 -2       517       654       655      2762      2766      2764
 -1      1159    8    0    1
 -2       519       518       656      2349      2767      2768
 -1      1160    8    0    1
 -2       518       655       656      2765      2769      2767
 -1      1161    8    0    1
 -2       520       519       657      2352      2770      2771
 -1      1162    8    0    1
 -2       519       656       657      2768      2772      2770
 -1      1163    8    0    1
 -2       521       520       658      2355      2773      2774
 -1      1164    8    0    1
 -2       520       657       658      2771      2775      2773
 -1      1165    8    0    1
 -2       522       521       659      2358      2776      2777
 -1      1166    8    0    1
 -2       521       658       659      2774      2778      2776
 -1      1167    8    0    1
 -2       523       522       660      2361      2779      2780
 -1      1168    8    0    1
 -2       522       659       660      2777      2781      2779
 -1      1169    8    0    1
 -2       524       523       661      2364      2782      2783
 -1      1170    8    0    1
 -2       523       660       661      2780      2784      2782
 -1      1171    8    0    1
 -2       525       524       662      2367      2785      2786
 -1      1172    8    0    1
 -2       524       661       662      2783      2787      2785
 -1      1173    8    0    1
 -2       526       525       663      2370      2788      2789
 -1      1174    8    0    1
 -2       525       662       663      2786      2790      2788
 -1      1175    8    0    1
 -2       527       526       664      2373      2791      2792
 -1      1176    8    0    1
 -2       526       663       664      2789      2793      2791
 -1      1177    8    0    1
 -2       528       527       665      2376      2794      2795
 -1      1178    8    0    1
 -2       527       664       665      2792      2796      2794
 -1      1179    8    0    1
 -2       529       528       666      2379      2797      2798
 -1      1180    8    0    1
 -2       528       665       666      2795      2799      2797
 -1      1181    8    0    1
 -2       531       532       667      2387      2800      2801
 -1      1182    8    0    1
 -2       606       607       668      2652      2802      2803
 -1      1183    8    0    1
 -2       530       531       669      2384      2804      2805
 -1      1184    8    0    1
 -2       531       667       669      2801      2806      2804
 -1      1185    8    0    1
 -2       533       534       670      2393      2807      2808
 -1      1186    8    0    1
 -2       534       535       671      2396      2809      2810
 -1      1187    8    0    1
 -2       534       671       670      2810      2811      2807
 -1      1188    8    0    1
 -2       535       536       672      2399      2812      2813
 -1      1189    8    0    1
 -2       535       672       671      2813      2814      2809
 -1      1190    8    0    1
 -2       536       537       673      2402      2815      2816
 -1      1191    8    0    1
 -2       536       673       672      2816      2817      2812
 -1      1192    8    0    1
 -2       537       538       674      2405      2818      2819
 -1      1193    8    0    1
 -2       537       674       673      2819      2820      2815
 -1      1194    8    0    1
 -2       538       539       675      2408      2821      2822
 -1      1195    8    0    1
 -2       538       675       674      2822      2823      2818
 -1      1196    8    0    1
 -2       539       540       676      2411      2824      2825
 -1      1197    8    0    1
 -2       539       676       675      2825      2826      2821
 -1      1198    8    0    1
 -2       540       541       677      2414      2827      2828
 -1      1199    8    0    1
 -2       540       677       676      2828      2829      2824
 -1      1200    8    0    1
 -2       541       542       678      2417      2830      2831
 -1      1201    8    0    1
 -2       541       678       677      2831      2832      2827
 -1      1202    8    0    1
 -2       542       543       679      2420      2833      2834
 -1      1203    8    0    1
 -2       542       679       678      2834      2835      2830
 -1      1204    8    0    1
 -2       543       544       680      2423      2836      2837
 -1      1205    8    0    1
 -2       543       680       679      2837      2838      2833
 -1      1206    8    0    1
 -2       544       545       681      2426      2839      2840
 -1      1207    8    0    1
 -2       544       681       680      2840      2841      2836
 -1      1208    8    0    1
 -2       545       546       682      2429      2842      2843
 -1      1209    8    0    1
 -2       545       682       681      2843      2844      2839
 -1      1210    8    0    1
 -2       546       547       683      2432      2845      2846
 -1      1211    8    0    1
 -2       546       683       682      2846      2847      2842
 -1      1212    8    0    1
 -2       547       548       684      2435      2848      2849
 -1      1213    8    0    1
 -2       547       684       683      2849      2850      2845
 -1      1214    8    0    1
 -2       548       549       685      2438      2851      2852
 -1      1215    8    0    1
 -2       548       685       684      2852      2853      2848
 -1      1216    8    0    1
 -2       549       550       686      2441      2854      2855
 -1      1217    8    0    1
 -2       549       686       685      2855      2856      2851
 -1      1218    8    0    1
 -2       550       551       687      2444      2857      2858
 -1      1219    8    0    1
 -2       550       687       686      2858      2859      2854
 -1      1220    8    0    1
 -2       551       552       688      2447      2860      2861
 -1      1221    8    0    1
 -2       551       688       687      2861      2862      2857
 -1      1222    8    0    1
 -2       552       553       689      2450      2863      2864
 -1      1223    8    0    1
 -2       552       689       688      2864      2865      2860
 -1      1224    8    0    1
 -2       553       554       690      2453      2866      2867
 -1      1225    8    0    1
 -2       553       690       689      2867      2868      2863
 -1      1226    8    0    1
 -2       554       555       691      2456      2869      2870
 -1      1227    8    0    1
 -2       554       691       690      2870      2871      2866
 -1      1228    8    0    1
 -2       555       556       692      2459      2872      2873
 -1      1229    8    0    1
 -2       555       692       691      2873      2874      2869
 -1      1230    8    0    1
 -2       556       557       693      2462      2875      2876
 -1      1231    8    0    1
 -2       556       693       692      2876      2877      2872
 -1      1232    8    0    1
 -2       557       558       694      2465      2878      2879
 -1      1233    8    0    1
 -2       557       694       693      2879      2880      2875
 -1      1234    8    0    1
 -2       558       559       695      2468      2881      2882
 -1      1235    8    0    1
 -2       558       695       694      2882      2883      2878
 -1      1236    8    0    1
 -2       559       560       696      2471      2884      2885
 -1      1237    8    0    1
 -2       559       696       695      2885      2886      2881
 -1      1238    8    0    1
 -2       560       561       697      2474      2887      2888
 -1      1239    8    0    1
 -2       560       697       696      2888      2889      2884
 -1      1240    8    0    1
 -2       562       563       698      2480      2890      2891
 -1      1241    8    0    1
 -2       563       564       699      2483      2892      2893
 -1      1242    8    0    1
 -2       564       565       700      2486      2894      2895
 -1      1243    8    0    1
 -2       565       566       701      2489      2896      2897
 -1      1244    8    0    1
 -2       565       701       700      2897      2898      2894
 -1      1245    8    0    1
 -2       566       567       702      2492      2899      2900
 -1      1246    8    0    1
 -2       566       702       701      2900      2901      2896
 -1      1247    8    0    1
 -2       567       568       703      2495      2902      2903
 -1      1248    8    0    1
 -2       567       703       702      2903      2904      2899
 -1      1249    8    0    1
 -2       568       569       704      2498      2905      2906
 -1      1250    8    0    1
 -2       568       704       703      2906      2907      2902
 -1      1251    8    0    1
 -2       569       570       705      2501      2908      2909
 -1      1252    8    0    1
 -2       569       705       704      2909      2910      2905
 -1      1253    8    0    1
 -2       570       571       706      2504      2911      2912
 -1      1254    8    0    1
 -2       705       570       706      2908      2912      2913
 -1      1255    8    0    1
 -2       571       574       706      2620      2914      2911
 -1      1256    8    0    1
 -2       584       583       707      2618      2915      2916
 -1      1257    8    0    1
 -2       576       577       708      2522      2917      2918
 -1      1258    8    0    1
 -2       572       573       709      2510      2919      2920
 -1      1259    8    0    1
 -2       577       578       710      2525      2921      2922
 -1      1260    8    0    1
 -2       577       710       708      2922      2923      2917
 -1      1261    8    0    1
 -2       573       576       711      2519      2924      2925
 -1      1262    8    0    1
 -2       709       573       711      2919      2925      2926
 -1      1263    8    0    1
 -2       576       708       711      2918      2927      2924
 -1      1264    8    0    1
 -2       578       579       712      2528      2928      2929
 -1      1265    8    0    1
 -2       578       712       710      2929      2930      2921
 -1      1266    8    0    1
 -2       579       580       713      2531      2931      2932
 -1      1267    8    0    1
 -2       579       713       712      2932      2933      2928
 -1      1268    8    0    1
 -2       580       581       714      2534      2934      2935
 -1      1269    8    0    1
 -2       580       714       713      2935      2936      2931
 -1      1270    8    0    1
 -2       588       486       715      2613      2937      2938
 -1      1271    8    0    1
 -2       601       596       716      2624      2939      2940
 -1      1272    8    0    1
 -2       599       590       717      2579      2941      2942
 -1      1273    8    0    1
 -2       593       592       718      2605      2943      2944
 -1      1274    8    0    1
 -2       485       587       719      2550      2945      2946
 -1      1275    8    0    1
 -2       487       485       719      2253      2946      2947
 -1      1276    8    0    1
 -2       587       610       719      2666      2948      2945
 -1      1277    8    0    1
 -2       471       602       720      2640      2949      2950
 -1      1278    8    0    1
 -2       585       530       721      2544      2951      2952
 -1      1279    8    0    1
 -2       622       585       721      2668      2952      2953
 -1      1280    8    0    1
 -2       530       669       721      2805      2954      2951
 -1      1281    8    0    1
 -2       532       533       722      2390      2955      2956
 -1      1282    8    0    1
 -2       667       532       722      2800      2956      2957
 -1      1283    8    0    1
 -2       533       670       722      2808      2958      2955
 -1      1284    8    0    1
 -2       590       600       723      2639      2959      2960
 -1      1285    8    0    1
 -2       607       584       724      2612      2961      2962
 -1      1286    8    0    1
 -2       607       724       668      2962      2963      2802
 -1      1287    8    0    1
 -2       597       473       725      2627      2964      2965
 -1      1288    8    0    1
 -2       480       481       726      2237      2966      2967
 -1      1289    8    0    1
 -2       617       480       726      2654      2967      2968
 -1      1290    8    0    1
 -2       481       619       726      2660      2969      2966
 -1      1291    8    0    1
 -2       592       594       699      2645      2970      2971
 -1      1292    8    0    1
 -2       589       474       727      2628      2972      2973
 -1      1293    8    0    1
 -2       486       593       700      2644      2974      2975
 -1      1294    8    0    1
 -2       477       476       728      2226      2976      2977
 -1      1295    8    0    1
 -2       595       597       729      2574      2978      2979
 -1      1296    8    0    1
 -2       474       604       730      2647      2980      2981
 -1      1297    8    0    1
 -2       474       730       727      2981      2982      2972
 -1      1298    8    0    1
 -2       600       601       731      2584      2983      2984
 -1      1299    8    0    1
 -2       602       589       732      2629      2985      2986
 -1      1300    8    0    1
 -2       470       586       733      2615      2987      2988
 -1      1301    8    0    1
 -2       598       599       734      2646      2989      2990
 -1      1302    8    0    1
 -2       582       616       735      2650      2991      2992
 -1      1303    8    0    1
 -2       616       529       735      2653      2993      2991
 -1      1304    8    0    1
 -2       604       605       736      2593      2994      2995
 -1      1305    8    0    1
 -2       586       609       737      2604      2996      2997
 -1      1306    8    0    1
 -2       609       588       738      2611      2998      2999
 -1      1307    8    0    1
 -2       609       738       737      2999      3000      2996
 -1      1308    8    0    1
 -2       610       477       739      2606      3001      3002
 -1      1309    8    0    1
 -2       477       728       739      2977      3003      3001
 -1      1310    8    0    1
 -2       478       618       740      2657      3004      3005
 -1      1311    8    0    1
 -2       478       740       591      3005      3006      2561
 -1      1312    8    0    1
 -2       605       623       736      2672      3007      2994
 -1      1313    8    0    1
 -2       471       720       612      2950      3008      2632
 -1      1314    8    0    1
 -2       624       606       668      2673      2803      3009
 -1      1315    8    0    1
 -2       738       588       715      2998      2938      3010
 -1      1316    8    0    1
 -2       735       529       666      2993      2798      3011
 -1      1317    8    0    1
 -2       623       603       624      2671      2674      3012
 -1      1318    8    0    1
 -2       734       599       717      2989      2942      3013
 -1      1319    8    0    1
 -2       592       699       718      2971      3014      2943
 -1      1320    8    0    1
 -2       733       586       741      2987      3015      3016
 -1      1321    8    0    1
 -2       586       737       741      2997      3017      3015
 -1      1322    8    0    1
 -2       732       589       742      2985      3018      3019
 -1      1323    8    0    1
 -2       589       727       742      2973      3020      3018
 -1      1324    8    0    1
 -2       590       723       717      2960      3021      2941
 -1      1325    8    0    1
 -2       723       600       731      2959      2984      3022
 -1      1326    8    0    1
 -2       730       604       743      2980      3023      3024
 -1      1327    8    0    1
 -2       604       736       743      2995      3025      3023
 -1      1328    8    0    1
 -2       562       698       744      2891      3026      3027
 -1      1329    8    0    1
 -2       697       561       744      2887      3028      3029
 -1      1330    8    0    1
 -2       698       563       699      2890      2893      3030
 -1      1331    8    0    1
 -2       561       562       744      2477      3027      3028
 -1      1332    8    0    1
 -2       707       583       745      2915      3031      3032
 -1      1333    8    0    1
 -2       583       611       745      2622      3033      3031
 -1      1334    8    0    1
 -2       706       574       746      2914      3034      3035
 -1      1335    8    0    1
 -2       574       575       746      2515      3036      3034
 -1      1336    8    0    1
 -2       729       597       725      2978      2965      3037
 -1      1337    8    0    1
 -2       716       596       747      2939      3038      3039
 -1      1338    8    0    1
 -2       596       612       747      2631      3040      3038
 -1      1339    8    0    1
 -2       700       593       718      2974      2944      3041
 -1      1340    8    0    1
 -2       581       582       735      2537      2992      3042
 -1      1341    8    0    1
 -2       611       470       733      2623      2988      3043
 -1      1342    8    0    1
 -2       620       483       621      2661      3044      3045
 -1      1343    8    0    1
 -2       601       716       731      2940      3046      2983
 -1      1344    8    0    1
 -2       581       735       748      3042      3047      3048
 -1      1345    8    0    1
 -2       714       581       748      2934      3048      3049
 -1      1346    8    0    1
 -2       735       666       748      3011      3050      3047
 -1      1347    8    0    1
 -2       487       719       625      2947      3051      2675
 -1      1348    8    0    1
 -2       613       598       749      2633      3052      3053
 -1      1349    8    0    1
 -2       598       734       749      2990      3054      3052
 -1      1350    8    0    1
 -2       614       472       615      2638      2642      3055
 -1      1351    8    0    1
 -2       615       595       729      2643      2979      3056
 -1      1352    8    0    1
 -2       473       613       750      2635      3057      3058
 -1      1353    8    0    1
 -2       473       750       725      3058      3059      2964
 -1      1354    8    0    1
 -2       476       591       751      2560      3060      3061
 -1      1355    8    0    1
 -2       728       476       751      2976      3061      3062
 -1      1356    8    0    1
 -2       591       740       751      3006      3063      3060
 -1      1357    8    0    1
 -2       575       572       752      2516      3064      3065
 -1      1358    8    0    1
 -2       746       575       752      3036      3065      3066
 -1      1359    8    0    1
 -2       572       709       752      2920      3067      3064
 -1      1360    8    0    1
 -2       720       602       732      2949      2986      3068
 -1      1361    8    0    1
 -2       483       475       621      2667      2665      3044
 -1      1362    8    0    1
 -2       594       614       698      2637      3069      3070
 -1      1363    8    0    1
 -2       699       594       698      2970      3070      3030
 -1      1364    8    0    1
 -2       698       614       744      3069      3071      3026
 -1      1365    8    0    1
 -2       619       620       753      2663      3072      3073
 -1      1366    8    0    1
 -2       734       717       754      3013      3074      3075
 -1      1367    8    0    1
 -2       623       624       755      3012      3076      3077
 -1      1368    8    0    1
 -2       627       626       756      2682      3078      3079
 -1      1369    8    0    1
 -2       628       627       757      2685      3080      3081
 -1      1370    8    0    1
 -2       627       756       757      3079      3082      3080
 -1      1371    8    0    1
 -2       629       628       758      2688      3083      3084
 -1      1372    8    0    1
 -2       628       757       758      3081      3085      3083
 -1      1373    8    0    1
 -2       630       629       759      2691      3086      3087
 -1      1374    8    0    1
 -2       629       758       759      3084      3088      3086
 -1      1375    8    0    1
 -2       631       630       760      2694      3089      3090
 -1      1376    8    0    1
 -2       630       759       760      3087      3091      3089
 -1      1377    8    0    1
 -2       632       631       761      2697      3092      3093
 -1      1378    8    0    1
 -2       631       760       761      3090      3094      3092
 -1      1379    8    0    1
 -2       633       632       762      2700      3095      3096
 -1      1380    8    0    1
 -2       632       761       762      3093      3097      3095
 -1      1381    8    0    1
 -2       634       633       763      2703      3098      3099
 -1      1382    8    0    1
 -2       633       762       763      3096      3100      3098
 -1      1383    8    0    1
 -2       635       634       764      2706      3101      3102
 -1      1384    8    0    1
 -2       634       763       764      3099      3103      3101
 -1      1385    8    0    1
 -2       636       635       765      2709      3104      3105
 -1      1386    8    0    1
 -2       635       764       765      3102      3106      3104
 -1      1387    8    0    1
 -2       637       636       766      2712      3107      3108
 -1      1388    8    0    1
 -2       636       765       766      3105      3109      3107
 -1      1389    8    0    1
 -2       638       637       767      2715      3110      3111
 -1      1390    8    0    1
 -2       637       766       767      3108      3112      3110
 -1      1391    8    0    1
 -2       639       638       768      2718      3113      3114
 -1      1392    8    0    1
 -2       638       767       768      3111      3115      3113
 -1      1393    8    0    1
 -2       640       639       769      2721      3116      3117
 -1      1394    8    0    1
 -2       639       768       769      3114      3118      3116
 -1      1395    8    0    1
 -2       641       640       770      2724      3119      3120
 -1      1396    8    0    1
 -2       640       769       770      3117      3121      3119
 -1      1397    8    0    1
 -2       642       641       771      2727      3122      3123
 -1      1398    8    0    1
 -2       641       770       771      3120      3124      3122
 -1      1399    8    0    1
 -2       643       642       772      2730      3125      3126
 -1      1400    8    0    1
 -2       642       771       772      3123      3127      3125
 -1      1401    8    0    1
 -2       644       643       773      2733      3128      3129
 -1      1402    8    0    1
 -2       643       772       773      3126      3130      3128
 -1      1403    8    0    1
 -2       645       644       774      2736      3131      3132
 -1      1404    8    0    1
 -2       644       773       774      3129      3133      3131
 -1      1405    8    0    1
 -2       646       645       775      2739      3134      3135
 -1      1406    8    0    1
 -2       645       774       775      3132      3136      3134
 -1      1407    8    0    1
 -2       647       646       776      2742      3137      3138
 -1      1408    8    0    1
 -2       646       775       776      3135      3139      3137
 -1      1409    8    0    1
 -2       648       647       777      2745      3140      3141
 -1      1410    8    0    1
 -2       647       776       777      3138      3142      3140
 -1      1411    8    0    1
 -2       649       648       778      2748      3143      3144
 -1      1412    8    0    1
 -2       648       777       778      3141      3145      3143
 -1      1413    8    0    1
 -2       650       649       779      2751      3146      3147
 -1      1414    8    0    1
 -2       649       778       779      3144      3148      3146
 -1      1415    8    0    1
 -2       651       650       780      2754      3149      3150
 -1      1416    8    0    1
 -2       650       779       780      3147      3151      3149
 -1      1417    8    0    1
 -2       652       651       781      2757      3152      3153
 -1      1418    8    0    1
 -2       651       780       781      3150      3154      3152
 -1      1419    8    0    1
 -2       653       652       782      2760      3155      3156
 -1      1420    8    0    1
 -2       652       781       782      3153      3157      3155
 -1      1421    8    0    1
 -2       654       653       783      2763      3158      3159
 -1      1422    8    0    1
 -2       653       782       783      3156      3160      3158
 -1      1423    8    0    1
 -2       655       654       784      2766      3161      3162
 -1      1424    8    0    1
 -2       654       783       784      3159      3163      3161
 -1      1425    8    0    1
 -2       656       655       785      2769      3164      3165
 -1      1426    8    0    1
 -2       655       784       785      3162      3166      3164
 -1      1427    8    0    1
 -2       657       656       786      2772      3167      3168
 -1      1428    8    0    1
 -2       656       785       786      3165      3169      3167
 -1      1429    8    0    1
 -2       658       657       787      2775      3170      3171
 -1      1430    8    0    1
 -2       657       786       787      3168      3172      3170
 -1      1431    8    0    1
 -2       660       659       742      2781      3173      3174
 -1      1432    8    0    1
 -2       662       661       743      2787      3175      3176
 -1      1433    8    0    1
 -2       664       663       788      2793      3177      3178
 -1      1434    8    0    1
 -2       665       664       789      2796      3179      3180
 -1      1435    8    0    1
 -2       664       788       789      3178      3181      3179
 -1      1436    8    0    1
 -2       666       665       790      2799      3182      3183
 -1      1437    8    0    1
 -2       748       666       790      3050      3183      3184
 -1      1438    8    0    1
 -2       665       789       790      3180      3185      3182
 -1      1439    8    0    1
 -2       671       672       791      2814      3186      3187
 -1      1440    8    0    1
 -2       670       671       792      2811      3188      3189
 -1      1441    8    0    1
 -2       671       791       792      3187      3190      3188
 -1      1442    8    0    1
 -2       673       674       793      2820      3191      3192
 -1      1443    8    0    1
 -2       674       675       794      2823      3193      3194
 -1      1444    8    0    1
 -2       674       794       793      3194      3195      3191
 -1      1445    8    0    1
 -2       675       676       795      2826      3196      3197
 -1      1446    8    0    1
 -2       675       795       794      3197      3198      3193
 -1      1447    8    0    1
 -2       676       677       796      2829      3199      3200
 -1      1448    8    0    1
 -2       676       796       795      3200      3201      3196
 -1      1449    8    0    1
 -2       677       678       797      2832      3202      3203
 -1      1450    8    0    1
 -2       677       797       796      3203      3204      3199
 -1      1451    8    0    1
 -2       678       679       798      2835      3205      3206
 -1      1452    8    0    1
 -2       678       798       797      3206      3207      3202
 -1      1453    8    0    1
 -2       679       680       799      2838      3208      3209
 -1      1454    8    0    1
 -2       679       799       798      3209      3210      3205
 -1      1455    8    0    1
 -2       680       681       800      2841      3211      3212
 -1      1456    8    0    1
 -2       680       800       799      3212      3213      3208
 -1      1457    8    0    1
 -2       681       682       801      2844      3214      3215
 -1      1458    8    0    1
 -2       681       801       800      3215      3216      3211
 -1      1459    8    0    1
 -2       682       683       802      2847      3217      3218
 -1      1460    8    0    1
 -2       682       802       801      3218      3219      3214
 -1      1461    8    0    1
 -2       683       684       803      2850      3220      3221
 -1      1462    8    0    1
 -2       683       803       802      3221      3222      3217
 -1      1463    8    0    1
 -2       684       685       804      2853      3223      3224
 -1      1464    8    0    1
 -2       684       804       803      3224      3225      3220
 -1      1465    8    0    1
 -2       685       686       805      2856      3226      3227
 -1      1466    8    0    1
 -2       685       805       804      3227      3228      3223
 -1      1467    8    0    1
 -2       686       687       806      2859      3229      3230
 -1      1468    8    0    1
 -2       686       806       805      3230      3231      3226
 -1      1469    8    0    1
 -2       687       688       807      2862      3232      3233
 -1      1470    8    0    1
 -2       687       807       806      3233      3234      3229
 -1      1471    8    0    1
 -2       688       689       808      2865      3235      3236
 -1      1472    8    0    1
 -2       688       808       807      3236      3237      3232
 -1      1473    8    0    1
 -2       689       690       809      2868      3238      3239
 -1      1474    8    0    1
 -2       689       809       808      3239      3240      3235
 -1      1475    8    0    1
 -2       690       691       810      2871      3241      3242
 -1      1476    8    0    1
 -2       690       810       809      3242      3243      3238
 -1      1477    8    0    1
 -2       691       692       811      2874      3244      3245
 -1      1478    8    0    1
 -2       691       811       810      3245      3246      3241
 -1      1479    8    0    1
 -2       692       693       812      2877      3247      3248
 -1      1480    8    0    1
 -2       692       812       811      3248      3249      3244
 -1      1481    8    0    1
 -2       693       694       813      2880      3250      3251
 -1      1482    8    0    1
 -2       693       813       812      3251      3252      3247
 -1      1483    8    0    1
 -2       694       695       814      2883      3253      3254
 -1      1484    8    0    1
 -2       694       814       813      3254      3255      3250
 -1      1485    8    0    1
 -2       695       696       815      2886      3256      3257
 -1      1486    8    0    1
 -2       695       815       814      3257      3258      3253
 -1      1487    8    0    1
 -2       696       697       729      2889      3259      3260
 -1      1488    8    0    1
 -2       697       744       729      3029      3261      3259
 -1      1489    8    0    1
 -2       564       700       718      2895      3041      3262
 -1      1490    8    0    1
 -2       703       704       816      2907      3263      3264
 -1      1491    8    0    1
 -2       704       705       817      2910      3265      3266
 -1      1492    8    0    1
 -2       704       817       816      3266      3267      3263
 -1      1493    8    0    1
 -2       705       706       818      2913      3268      3269
 -1      1494    8    0    1
 -2       817       705       818      3265      3269      3270
 -1      1495    8    0    1
 -2       706       746       818      3035      3271      3268
 -1      1496    8    0    1
 -2       710       712       819      2930      3272      3273
 -1      1497    8    0    1
 -2       720       732       820      3068      3274      3275
 -1      1498    8    0    1
 -2       708       710       821      2923      3276      3277
 -1      1499    8    0    1
 -2       710       819       821      3273      3278      3276
 -1      1500    8    0    1
 -2       584       707       724      2916      3279      2961
 -1      1501    8    0    1
 -2       625       719       822      3051      3280      3281
 -1      1502    8    0    1
 -2       715       486       701      2937      3282      3283
 -1      1503    8    0    1
 -2       731       716       823      3046      3284      3285
 -1      1504    8    0    1
 -2       719       610       739      2948      3002      3286
 -1      1505    8    0    1
 -2       718       699       564      3014      2892      3262
 -1      1506    8    0    1
 -2       723       731       824      3022      3287      3288
 -1      1507    8    0    1
 -2       712       713       825      2933      3289      3290
 -1      1508    8    0    1
 -2       712       825       819      3290      3291      3272
 -1      1509    8    0    1
 -2       713       714       826      2936      3292      3293
 -1      1510    8    0    1
 -2       713       826       825      3293      3294      3289
 -1      1511    8    0    1
 -2       624       668       827      3009      3295      3296
 -1      1512    8    0    1
 -2       701       702       715      2901      3297      3283
 -1      1513    8    0    1
 -2       736       623       828      3007      3298      3299
 -1      1514    8    0    1
 -2       672       673       829      2817      3300      3301
 -1      1515    8    0    1
 -2       791       672       829      3186      3301      3302
 -1      1516    8    0    1
 -2       673       793       829      3192      3303      3300
 -1      1517    8    0    1
 -2       668       724       830      2963      3304      3305
 -1      1518    8    0    1
 -2       669       667       831      2806      3306      3307
 -1      1519    8    0    1
 -2       717       723       832      3021      3308      3309
 -1      1520    8    0    1
 -2       486       700       701      2975      2898      3282
 -1      1521    8    0    1
 -2       727       730       833      2982      3310      3311
 -1      1522    8    0    1
 -2       626       625       834      2679      3312      3313
 -1      1523    8    0    1
 -2       626       834       756      3313      3314      3078
 -1      1524    8    0    1
 -2       620       621       835      3045      3315      3316
 -1      1525    8    0    1
 -2       753       620       835      3072      3316      3317
 -1      1526    8    0    1
 -2       621       622       835      2670      3318      3315
 -1      1527    8    0    1
 -2       611       733       836      3043      3319      3320
 -1      1528    8    0    1
 -2       612       720       837      3008      3321      3322
 -1      1529    8    0    1
 -2       618       617       838      2658      3323      3324
 -1      1530    8    0    1
 -2       696       729       815      3260      3325      3256
 -1      1531    8    0    1
 -2       724       707       839      3279      3326      3327
 -1      1532    8    0    1
 -2       715       702       738      3297      3328      3010
 -1      1533    8    0    1
 -2       738       702       703      3328      2904      3329
 -1      1534    8    0    1
 -2       738       703       816      3329      3264      3330
 -1      1535    8    0    1
 -2       740       618       840      3004      3331      3332
 -1      1536    8    0    1
 -2       618       838       840      3324      3333      3331
 -1      1537    8    0    1
 -2       836       733       841      3319      3334      3335
 -1      1538    8    0    1
 -2       733       741       841      3016      3336      3334
 -1      1539    8    0    1
 -2       734       754       842      3075      3337      3338
 -1      1540    8    0    1
 -2       734       842       749      3338      3339      3054
 -1      1541    8    0    1
 -2       722       670       843      2958      3340      3341
 -1      1542    8    0    1
 -2       670       792       843      3189      3342      3340
 -1      1543    8    0    1
 -2       623       755       828      3077      3343      3298
 -1      1544    8    0    1
 -2       742       727       833      3020      3311      3344
 -1      1545    8    0    1
 -2       660       742       833      3174      3344      3345
 -1      1546    8    0    1
 -2       658       787       820      3171      3346      3347
 -1      1547    8    0    1
 -2       659       658       820      2778      3347      3348
 -1      1548    8    0    1
 -2       662       743       844      3176      3349      3350
 -1      1549    8    0    1
 -2       663       662       844      2790      3350      3351
 -1      1550    8    0    1
 -2       743       736       844      3025      3352      3349
 -1      1551    8    0    1
 -2       661       660       833      2784      3345      3353
 -1      1552    8    0    1
 -2       668       830       827      3305      3354      3295
 -1      1553    8    0    1
 -2       667       722       845      2957      3355      3356
 -1      1554    8    0    1
 -2       722       843       845      3341      3357      3355
 -1      1555    8    0    1
 -2       619       753       846      3073      3358      3359
 -1      1556    8    0    1
 -2       619       846       726      3359      3360      2969
 -1      1557    8    0    1
 -2       724       839       830      3327      3361      3304
 -1      1558    8    0    1
 -2       723       824       832      3288      3362      3308
 -1      1559    8    0    1
 -2       744       614       615      3071      3055      3363
 -1      1560    8    0    1
 -2       833       730       743      3310      3024      3364
 -1      1561    8    0    1
 -2       709       711       847      2926      3365      3366
 -1      1562    8    0    1
 -2       747       612       848      3040      3367      3368
 -1      1563    8    0    1
 -2       612       837       848      3322      3369      3367
 -1      1564    8    0    1
 -2       720       820       837      3275      3370      3321
 -1      1565    8    0    1
 -2       708       821       849      3277      3371      3372
 -1      1566    8    0    1
 -2       708       849       711      3372      3373      2927
 -1      1567    8    0    1
 -2       752       709       850      3067      3374      3375
 -1      1568    8    0    1
 -2       709       847       850      3366      3376      3374
 -1      1569    8    0    1
 -2       822       719       739      3280      3286      3377
 -1      1570    8    0    1
 -2       736       828       844      3299      3378      3352
 -1      1571    8    0    1
 -2       731       823       851      3285      3379      3380
 -1      1572    8    0    1
 -2       731       851       824      3380      3381      3287
 -1      1573    8    0    1
 -2       754       717       832      3074      3309      3382
 -1      1574    8    0    1
 -2       624       827       755      3296      3383      3076
 -1      1575    8    0    1
 -2       721       669       852      2954      3384      3385
 -1      1576    8    0    1
 -2       669       831       852      3307      3386      3384
 -1      1577    8    0    1
 -2       667       845       831      3356      3387      3306
 -1      1578    8    0    1
 -2       823       716       853      3284      3388      3389
 -1      1579    8    0    1
 -2       716       747       853      3039      3390      3388
 -1      1580    8    0    1
 -2       663       844       788      3351      3391      3177
 -1      1581    8    0    1
 -2       750       613       749      3057      3053      3392
 -1      1582    8    0    1
 -2       622       721       854      2953      3393      3394
 -1      1583    8    0    1
 -2       835       622       854      3318      3394      3395
 -1      1584    8    0    1
 -2       721       852       854      3385      3396      3393
 -1      1585    8    0    1
 -2       625       822       834      3281      3397      3312
 -1      1586    8    0    1
 -2       728       751       855      3062      3398      3399
 -1      1587    8    0    1
 -2       617       726       856      2968      3400      3401
 -1      1588    8    0    1
 -2       838       617       856      3323      3401      3402
 -1      1589    8    0    1
 -2       726       846       856      3360      3403      3400
 -1      1590    8    0    1
 -2       728       855       857      3399      3404      3405
 -1      1591    8    0    1
 -2       728       857       739      3405      3406      3003
 -1      1592    8    0    1
 -2       611       836       745      3320      3407      3033
 -1      1593    8    0    1
 -2       725       750       858      3059      3408      3409
 -1      1594    8    0    1
 -2       714       748       859      3049      3410      3411
 -1      1595    8    0    1
 -2       826       714       859      3292      3411      3412
 -1      1596    8    0    1
 -2       748       790       859      3184      3413      3410
 -1      1597    8    0    1
 -2       743       661       833      3175      3353      3364
 -1      1598    8    0    1
 -2       737       738       816      3000      3330      3414
 -1      1599    8    0    1
 -2       737       816       741      3414      3415      3017
 -1      1600    8    0    1
 -2       707       745       860      3032      3416      3417
 -1      1601    8    0    1
 -2       820       787       837      3346      3418      3370
 -1      1602    8    0    1
 -2       659       820       742      3348      3419      3173
 -1      1603    8    0    1
 -2       758       757       861      3085      3420      3421
 -1      1604    8    0    1
 -2       759       758       862      3088      3422      3423
 -1      1605    8    0    1
 -2       758       861       862      3421      3424      3422
 -1      1606    8    0    1
 -2       760       759       863      3091      3425      3426
 -1      1607    8    0    1
 -2       759       862       863      3423      3427      3425
 -1      1608    8    0    1
 -2       761       760       864      3094      3428      3429
 -1      1609    8    0    1
 -2       760       863       864      3426      3430      3428
 -1      1610    8    0    1
 -2       762       761       865      3097      3431      3432
 -1      1611    8    0    1
 -2       761       864       865      3429      3433      3431
 -1      1612    8    0    1
 -2       763       762       866      3100      3434      3435
 -1      1613    8    0    1
 -2       762       865       866      3432      3436      3434
 -1      1614    8    0    1
 -2       764       763       867      3103      3437      3438
 -1      1615    8    0    1
 -2       763       866       867      3435      3439      3437
 -1      1616    8    0    1
 -2       765       764       868      3106      3440      3441
 -1      1617    8    0    1
 -2       764       867       868      3438      3442      3440
 -1      1618    8    0    1
 -2       766       765       869      3109      3443      3444
 -1      1619    8    0    1
 -2       765       868       869      3441      3445      3443
 -1      1620    8    0    1
 -2       767       766       870      3112      3446      3447
 -1      1621    8    0    1
 -2       766       869       870      3444      3448      3446
 -1      1622    8    0    1
 -2       768       767       871      3115      3449      3450
 -1      1623    8    0    1
 -2       767       870       871      3447      3451      3449
 -1      1624    8    0    1
 -2       769       768       872      3118      3452      3453
 -1      1625    8    0    1
 -2       768       871       872      3450      3454      3452
 -1      1626    8    0    1
 -2       770       769       873      3121      3455      3456
 -1      1627    8    0    1
 -2       769       872       873      3453      3457      3455
 -1      1628    8    0    1
 -2       771       770       874      3124      3458      3459
 -1      1629    8    0    1
 -2       770       873       874      3456      3460      3458
 -1      1630    8    0    1
 -2       772       771       875      3127      3461      3462
 -1      1631    8    0    1
 -2       771       874       875      3459      3463      3461
 -1      1632    8    0    1
 -2       773       772       876      3130      3464      3465
 -1      1633    8    0    1
 -2       772       875       876      3462      3466      3464
 -1      1634    8    0    1
 -2       774       773       877      3133      3467      3468
 -1      1635    8    0    1
 -2       773       876       877      3465      3469      3467
 -1      1636    8    0    1
 -2       775       774       878      3136      3470      3471
 -1      1637    8    0    1
 -2       774       877       878      3468      3472      3470
 -1      1638    8    0    1
 -2       776       775       879      3139      3473      3474
 -1      1639    8    0    1
 -2       775       878       879      3471      3475      3473
 -1      1640    8    0    1
 -2       777       776       880      3142      3476      3477
 -1      1641    8    0    1
 -2       776       879       880      3474      3478      3476
 -1      1642    8    0    1
 -2       778       777       881      3145      3479      3480
 -1      1643    8    0    1
 -2       777       880       881      3477      3481      3479
 -1      1644    8    0    1
 -2       779       778       882      3148      3482      3483
 -1      1645    8    0    1
 -2       778       881       882      3480      3484      3482
 -1      1646    8    0    1
 -2       780       779       883      3151      3485      3486
 -1      1647    8    0    1
 -2       779       882       883      3483      3487      3485
 -1      1648    8    0    1
 -2       781       780       884      3154      3488      3489
 -1      1649    8    0    1
 -2       780       883       884      3486      3490      3488
 -1      1650    8    0    1
 -2       782       781       885      3157      3491      3492
 -1      1651    8    0    1
 -2       781       884       885      3489      3493      3491
 -1      1652    8    0    1
 -2       783       782       886      3160      3494      3495
 -1      1653    8    0    1
 -2       782       885       886      3492      3496      3494
 -1      1654    8    0    1
 -2       784       783       887      3163      3497      3498
 -1      1655    8    0    1
 -2       783       886       887      3495      3499      3497
 -1      1656    8    0    1
 -2       785       784       888      3166      3500      3501
 -1      1657    8    0    1
 -2       784       887       888      3498      3502      3500
 -1      1658    8    0    1
 -2       786       785       853      3169      3503      3504
 -1      1659    8    0    1
 -2       787       786       837      3172      3505      3418
 -1      1660    8    0    1
 -2       792       791       889      3190      3506      3507
 -1      1661    8    0    1
 -2       794       795       890      3198      3508      3509
 -1      1662    8    0    1
 -2       793       794       891      3195      3510      3511
 -1      1663    8    0    1
 -2       794       890       891      3509      3512      3510
 -1      1664    8    0    1
 -2       796       797       892      3204      3513      3514
 -1      1665    8    0    1
 -2       797       798       893      3207      3515      3516
 -1      1666    8    0    1
 -2       797       893       892      3516      3517      3513
 -1      1667    8    0    1
 -2       798       799       894      3210      3518      3519
 -1      1668    8    0    1
 -2       798       894       893      3519      3520      3515
 -1      1669    8    0    1
 -2       799       800       895      3213      3521      3522
 -1      1670    8    0    1
 -2       799       895       894      3522      3523      3518
 -1      1671    8    0    1
 -2       800       801       896      3216      3524      3525
 -1      1672    8    0    1
 -2       800       896       895      3525      3526      3521
 -1      1673    8    0    1
 -2       801       802       897      3219      3527      3528
 -1      1674    8    0    1
 -2       801       897       896      3528      3529      3524
 -1      1675    8    0    1
 -2       802       803       898      3222      3530      3531
 -1      1676    8    0    1
 -2       802       898       897      3531      3532      3527
 -1      1677    8    0    1
 -2       803       804       899      3225      3533      3534
 -1      1678    8    0    1
 -2       803       899       898      3534      3535      3530
 -1      1679    8    0    1
 -2       804       805       900      3228      3536      3537
 -1      1680    8    0    1
 -2       804       900       899      3537      3538      3533
 -1      1681    8    0    1
 -2       805       806       901      3231      3539      3540
 -1      1682    8    0    1
 -2       805       901       900      3540      3541      3536
 -1      1683    8    0    1
 -2       806       807       902      3234      3542      3543
 -1      1684    8    0    1
 -2       806       902       901      3543      3544      3539
 -1      1685    8    0    1
 -2       807       808       903      3237      3545      3546
 -1      1686    8    0    1
 -2       807       903       902      3546      3547      3542
 -1      1687    8    0    1
 -2       808       809       904      3240      3548      3549
 -1      1688    8    0    1
 -2       808       904       903      3549      3550      3545
 -1      1689    8    0    1
 -2       809       810       905      3243      3551      3552
 -1      1690    8    0    1
 -2       809       905       904      3552      3553      3548
 -1      1691    8    0    1
 -2       810       811       906      3246      3554      3555
 -1      1692    8    0    1
 -2       810       906       905      3555      3556      3551
 -1      1693    8    0    1
 -2       811       812       907      3249      3557      3558
 -1      1694    8    0    1
 -2       811       907       906      3558      3559      3554
 -1      1695    8    0    1
 -2       812       813       908      3252      3560      3561
 -1      1696    8    0    1
 -2       812       908       907      3561      3562      3557
 -1      1697    8    0    1
 -2       813       814       909      3255      3563      3564
 -1      1698    8    0    1
 -2       813       909       908      3564      3565      3560
 -1      1699    8    0    1
 -2       814       815       910      3258      3566      3567
 -1      1700    8    0    1
 -2       814       910       909      3567      3568      3563
 -1      1701    8    0    1
 -2       839       707       860      3326      3417      3569
 -1      1702    8    0    1
 -2       729       744       615      3261      3363      3056
 -1      1703    8    0    1
 -2       825       826       911      3294      3570      3571
 -1      1704    8    0    1
 -2       847       711       849      3365      3373      3572
 -1      1705    8    0    1
 -2       816       817       912      3267      3573      3574
 -1      1706    8    0    1
 -2       741       816       912      3415      3574      3575
 -1      1707    8    0    1
 -2       817       818       912      3270      3576      3573
 -1      1708    8    0    1
 -2       789       788       913      3181      3577      3578
 -1      1709    8    0    1
 -2       827       830       914      3354      3579      3580
 -1      1710    8    0    1
 -2       729       725       858      3037      3409      3581
 -1      1711    8    0    1
 -2       844       828       788      3378      3582      3391
 -1      1712    8    0    1
 -2       832       824       915      3362      3583      3584
 -1      1713    8    0    1
 -2       754       832       916      3382      3585      3586
 -1      1714    8    0    1
 -2       751       740       917      3063      3587      3588
 -1      1715    8    0    1
 -2       751       917       855      3588      3589      3398
 -1      1716    8    0    1
 -2       795       796       918      3201      3590      3591
 -1      1717    8    0    1
 -2       890       795       918      3508      3591      3592
 -1      1718    8    0    1
 -2       796       892       918      3514      3593      3590
 -1      1719    8    0    1
 -2       831       845       919      3387      3594      3595
 -1      1720    8    0    1
 -2       750       749       920      3392      3596      3597
 -1      1721    8    0    1
 -2       755       827       911      3383      3598      3599
 -1      1722    8    0    1
 -2       757       756       921      3082      3600      3601
 -1      1723    8    0    1
 -2       757       921       861      3601      3602      3420
 -1      1724    8    0    1
 -2       822       739       857      3377      3406      3603
 -1      1725    8    0    1
 -2       753       835       922      3317      3604      3605
 -1      1726    8    0    1
 -2       835       854       922      3395      3606      3604
 -1      1727    8    0    1
 -2       746       752       923      3066      3607      3608
 -1      1728    8    0    1
 -2       818       746       923      3271      3608      3609
 -1      1729    8    0    1
 -2       752       850       923      3375      3610      3607
 -1      1730    8    0    1
 -2       756       834       924      3314      3611      3612
 -1      1731    8    0    1
 -2       756       924       921      3612      3613      3600
 -1      1732    8    0    1
 -2       834       822       925      3397      3614      3615
 -1      1733    8    0    1
 -2       924       834       925      3611      3615      3616
 -1      1734    8    0    1
 -2       822       857       925      3603      3617      3614
 -1      1735    8    0    1
 -2       788       828       755      3582      3343      3618
 -1      1736    8    0    1
 -2       745       836       847      3407      3619      3620
 -1      1737    8    0    1
 -2       847       836       850      3619      3621      3376
 -1      1738    8    0    1
 -2       841       741       912      3336      3575      3622
 -1      1739    8    0    1
 -2       842       754       926      3337      3623      3624
 -1      1740    8    0    1
 -2       754       916       926      3586      3625      3623
 -1      1741    8    0    1
 -2       843       792       927      3342      3626      3627
 -1      1742    8    0    1
 -2       792       889       927      3507      3628      3626
 -1      1743    8    0    1
 -2       829       793       928      3303      3629      3630
 -1      1744    8    0    1
 -2       793       891       928      3511      3631      3629
 -1      1745    8    0    1
 -2       837       786       848      3505      3632      3369
 -1      1746    8    0    1
 -2       889       791       929      3506      3633      3634
 -1      1747    8    0    1
 -2       791       829       929      3302      3635      3633
 -1      1748    8    0    1
 -2       824       851       930      3381      3636      3637
 -1      1749    8    0    1
 -2       824       930       915      3637      3638      3583
 -1      1750    8    0    1
 -2       845       843       931      3357      3639      3640
 -1      1751    8    0    1
 -2       843       927       931      3627      3641      3639
 -1      1752    8    0    1
 -2       790       789       932      3185      3642      3643
 -1      1753    8    0    1
 -2       859       790       932      3413      3643      3644
 -1      1754    8    0    1
 -2       789       913       932      3578      3645      3642
 -1      1755    8    0    1
 -2       831       919       933      3595      3646      3647
 -1      1756    8    0    1
 -2       831       933       852      3647      3648      3386
 -1      1757    8    0    1
 -2       840       838       934      3333      3649      3650
 -1      1758    8    0    1
 -2       846       753       922      3358      3605      3651
 -1      1759    8    0    1
 -2       745       847       860      3620      3652      3416
 -1      1760    8    0    1
 -2       839       860       821      3569      3653      3654
 -1      1761    8    0    1
 -2       917       740       840      3587      3332      3655
 -1      1762    8    0    1
 -2       820       732       742      3274      3019      3419
 -1      1763    8    0    1
 -2       747       848       853      3368      3656      3390
 -1      1764    8    0    1
 -2       916       832       915      3585      3584      3657
 -1      1765    8    0    1
 -2       851       823       935      3379      3658      3659
 -1      1766    8    0    1
 -2       845       931       919      3640      3660      3594
 -1      1767    8    0    1
 -2       749       842       920      3339      3661      3596
 -1      1768    8    0    1
 -2       819       825       914      3291      3662      3663
 -1      1769    8    0    1
 -2       934       838       936      3649      3664      3665
 -1      1770    8    0    1
 -2       838       856       936      3402      3666      3664
 -1      1771    8    0    1
 -2       821       860       849      3653      3667      3371
 -1      1772    8    0    1
 -2       935       823       853      3658      3389      3668
 -1      1773    8    0    1
 -2       914       825       911      3662      3571      3669
 -1      1774    8    0    1
 -2       855       917       937      3589      3670      3671
 -1      1775    8    0    1
 -2       821       819       830      3278      3672      3673
 -1      1776    8    0    1
 -2       819       914       830      3663      3579      3672
 -1      1777    8    0    1
 -2       750       920       910      3597      3674      3675
 -1      1778    8    0    1
 -2       857       855       938      3404      3676      3677
 -1      1779    8    0    1
 -2       925       857       938      3617      3677      3678
 -1      1780    8    0    1
 -2       855       937       938      3671      3679      3676
 -1      1781    8    0    1
 -2       858       750       910      3408      3675      3680
 -1      1782    8    0    1
 -2       826       859       932      3412      3644      3681
 -1      1783    8    0    1
 -2       839       821       830      3654      3673      3361
 -1      1784    8    0    1
 -2       836       841       850      3335      3682      3621
 -1      1785    8    0    1
 -2       815       729       858      3325      3581      3683
 -1      1786    8    0    1
 -2       815       858       910      3683      3680      3566
 -1      1787    8    0    1
 -2       826       932       911      3681      3684      3570
 -1      1788    8    0    1
 -2       911       827       914      3598      3580      3669
 -1      1789    8    0    1
 -2       862       861       939      3424      3685      3686
 -1      1790    8    0    1
 -2       788       755       913      3618      3687      3577
 -1      1791    8    0    1
 -2       785       888       853      3501      3688      3503
 -1      1792    8    0    1
 -2       863       862       940      3427      3689      3690
 -1      1793    8    0    1
 -2       862       939       940      3686      3691      3689
 -1      1794    8    0    1
 -2       864       863       941      3430      3692      3693
 -1      1795    8    0    1
 -2       863       940       941      3690      3694      3692
 -1      1796    8    0    1
 -2       865       864       942      3433      3695      3696
 -1      1797    8    0    1
 -2       864       941       942      3693      3697      3695
 -1      1798    8    0    1
 -2       866       865       943      3436      3698      3699
 -1      1799    8    0    1
 -2       865       942       943      3696      3700      3698
 -1      1800    8    0    1
 -2       867       866       944      3439      3701      3702
 -1      1801    8    0    1
 -2       866       943       944      3699      3703      3701
 -1      1802    8    0    1
 -2       868       867       945      3442      3704      3705
 -1      1803    8    0    1
 -2       867       944       945      3702      3706      3704
 -1      1804    8    0    1
 -2       869       868       946      3445      3707      3708
 -1      1805    8    0    1
 -2       868       945       946      3705      3709      3707
 -1      1806    8    0    1
 -2       870       869       947      3448      3710      3711
 -1      1807    8    0    1
 -2       869       946       947      3708      3712      3710
 -1      1808    8    0    1
 -2       871       870       948      3451      3713      3714
 -1      1809    8    0    1
 -2       870       947       948      3711      3715      3713
 -1      1810    8    0    1
 -2       872       871       949      3454      3716      3717
 -1      1811    8    0    1
 -2       871       948       949      3714      3718      3716
 -1      1812    8    0    1
 -2       873       872       950      3457      3719      3720
 -1      1813    8    0    1
 -2       872       949       950      3717      3721      3719
 -1      1814    8    0    1
 -2       874       873       951      3460      3722      3723
 -1      1815    8    0    1
 -2       873       950       951      3720      3724      3722
 -1      1816    8    0    1
 -2       875       874       952      3463      3725      3726
 -1      1817    8    0    1
 -2       874       951       952      3723      3727      3725
 -1      1818    8    0    1
 -2       876       875       953      3466      3728      3729
 -1      1819    8    0    1
 -2       875       952       953      3726      3730      3728
 -1      1820    8    0    1
 -2       877       876       954      3469      3731      3732
 -1      1821    8    0    1
 -2       876       953       954      3729      3733      3731
 -1      1822    8    0    1
 -2       878       877       955      3472      3734      3735
 -1      1823    8    0    1
 -2       877       954       955      3732      3736      3734
 -1      1824    8    0    1
 -2       879       878       956      3475      3737      3738
 -1      1825    8    0    1
 -2       878       955       956      3735      3739      3737
 -1      1826    8    0    1
 -2       880       879       957      3478      3740      3741
 -1      1827    8    0    1
 -2       879       956       957      3738      3742      3740
 -1      1828    8    0    1
 -2       881       880       958      3481      3743      3744
 -1      1829    8    0    1
 -2       880       957       958      3741      3745      3743
 -1      1830    8    0    1
 -2       882       881       959      3484      3746      3747
 -1      1831    8    0    1
 -2       881       958       959      3744      3748      3746
 -1      1832    8    0    1
 -2       883       882       960      3487      3749      3750
 -1      1833    8    0    1
 -2       882       959       960      3747      3751      3749
 -1      1834    8    0    1
 -2       884       883       961      3490      3752      3753
 -1      1835    8    0    1
 -2       883       960       961      3750      3754      3752
 -1      1836    8    0    1
 -2       885       884       962      3493      3755      3756
 -1      1837    8    0    1
 -2       884       961       962      3753      3757      3755
 -1      1838    8    0    1
 -2       886       885       963      3496      3758      3759
 -1      1839    8    0    1
 -2       885       962       963      3756      3760      3758
 -1      1840    8    0    1
 -2       887       886       964      3499      3761      3762
 -1      1841    8    0    1
 -2       886       963       964      3759      3763      3761
 -1      1842    8    0    1
 -2       888       887       935      3502      3764      3765
 -1      1843    8    0    1
 -2       932       913       911      3645      3766      3684
 -1      1844    8    0    1
 -2       891       890       965      3512      3767      3768
 -1      1845    8    0    1
 -2       846       922       966      3651      3769      3770
 -1      1846    8    0    1
 -2       893       894       967      3520      3771      3772
 -1      1847    8    0    1
 -2       892       893       968      3517      3773      3774
 -1      1848    8    0    1
 -2       893       967       968      3772      3775      3773
 -1      1849    8    0    1
 -2       895       896       969      3526      3776      3777
 -1      1850    8    0    1
 -2       896       897       970      3529      3778      3779
 -1      1851    8    0    1
 -2       896       970       969      3779      3780      3776
 -1      1852    8    0    1
 -2       897       898       971      3532      3781      3782
 -1      1853    8    0    1
 -2       897       971       970      3782      3783      3778
 -1      1854    8    0    1
 -2       898       899       972      3535      3784      3785
 -1      1855    8    0    1
 -2       898       972       971      3785      3786      3781
 -1      1856    8    0    1
 -2       899       900       973      3538      3787      3788
 -1      1857    8    0    1
 -2       899       973       972      3788      3789      3784
 -1      1858    8    0    1
 -2       900       901       974      3541      3790      3791
 -1      1859    8    0    1
 -2       900       974       973      3791      3792      3787
 -1      1860    8    0    1
 -2       901       902       975      3544      3793      3794
 -1      1861    8    0    1
 -2       901       975       974      3794      3795      3790
 -1      1862    8    0    1
 -2       902       903       976      3547      3796      3797
 -1      1863    8    0    1
 -2       902       976       975      3797      3798      3793
 -1      1864    8    0    1
 -2       903       904       977      3550      3799      3800
 -1      1865    8    0    1
 -2       903       977       976      3800      3801      3796
 -1      1866    8    0    1
 -2       904       905       978      3553      3802      3803
 -1      1867    8    0    1
 -2       904       978       977      3803      3804      3799
 -1      1868    8    0    1
 -2       905       906       979      3556      3805      3806
 -1      1869    8    0    1
 -2       905       979       978      3806      3807      3802
 -1      1870    8    0    1
 -2       906       907       980      3559      3808      3809
 -1      1871    8    0    1
 -2       906       980       979      3809      3810      3805
 -1      1872    8    0    1
 -2       907       908       981      3562      3811      3812
 -1      1873    8    0    1
 -2       907       981       980      3812      3813      3808
 -1      1874    8    0    1
 -2       908       909       982      3565      3814      3815
 -1      1875    8    0    1
 -2       908       982       981      3815      3816      3811
 -1      1876    8    0    1
 -2       909       910       983      3568      3817      3818
 -1      1877    8    0    1
 -2       982       909       983      3814      3818      3819
 -1      1878    8    0    1
 -2       910       920       983      3674      3820      3817
 -1      1879    8    0    1
 -2       917       840       984      3655      3821      3822
 -1      1880    8    0    1
 -2       937       917       984      3670      3822      3823
 -1      1881    8    0    1
 -2       840       934       984      3650      3824      3821
 -1      1882    8    0    1
 -2       912       818       923      3576      3609      3825
 -1      1883    8    0    1
 -2       935       853       888      3668      3688      3765
 -1      1884    8    0    1
 -2       841       912       923      3622      3825      3826
 -1      1885    8    0    1
 -2       921       924       985      3613      3827      3828
 -1      1886    8    0    1
 -2       919       931       986      3660      3829      3830
 -1      1887    8    0    1
 -2       916       915       987      3657      3831      3832
 -1      1888    8    0    1
 -2       854       852       988      3396      3833      3834
 -1      1889    8    0    1
 -2       922       854       988      3606      3834      3835
 -1      1890    8    0    1
 -2       852       933       988      3648      3836      3833
 -1      1891    8    0    1
 -2       850       841       923      3682      3826      3610
 -1      1892    8    0    1
 -2       755       911       913      3599      3766      3687
 -1      1893    8    0    1
 -2       861       921       989      3602      3837      3838
 -1      1894    8    0    1
 -2       861       989       939      3838      3839      3685
 -1      1895    8    0    1
 -2       856       846       966      3403      3770      3840
 -1      1896    8    0    1
 -2       894       895       990      3523      3841      3842
 -1      1897    8    0    1
 -2       895       969       990      3777      3843      3841
 -1      1898    8    0    1
 -2       920       842       983      3661      3844      3820
 -1      1899    8    0    1
 -2       935       887       991      3764      3845      3846
 -1      1900    8    0    1
 -2       851       935       991      3659      3846      3847
 -1      1901    8    0    1
 -2       887       964       991      3762      3848      3845
 -1      1902    8    0    1
 -2       926       916       992      3625      3849      3850
 -1      1903    8    0    1
 -2       916       987       992      3832      3851      3849
 -1      1904    8    0    1
 -2       927       889       993      3628      3852      3853
 -1      1905    8    0    1
 -2       928       891       994      3631      3854      3855
 -1      1906    8    0    1
 -2       891       965       994      3768      3856      3854
 -1      1907    8    0    1
 -2       967       894       990      3771      3842      3857
 -1      1908    8    0    1
 -2       829       928       929      3630      3858      3635
 -1      1909    8    0    1
 -2       966       922       988      3769      3835      3859
 -1      1910    8    0    1
 -2       989       921       985      3837      3828      3860
 -1      1911    8    0    1
 -2       930       851       991      3636      3847      3861
 -1      1912    8    0    1
 -2       786       853       848      3504      3656      3632
 -1      1913    8    0    1
 -2       931       927       995      3641      3862      3863
 -1      1914    8    0    1
 -2       927       993       995      3853      3864      3862
 -1      1915    8    0    1
 -2       965       890       996      3767      3865      3866
 -1      1916    8    0    1
 -2       890       918       996      3592      3867      3865
 -1      1917    8    0    1
 -2       983       842       926      3844      3624      3868
 -1      1918    8    0    1
 -2       931       995       986      3863      3869      3829
 -1      1919    8    0    1
 -2       984       934       997      3824      3870      3871
 -1      1920    8    0    1
 -2       924       925       998      3616      3872      3873
 -1      1921    8    0    1
 -2       985       924       998      3827      3873      3874
 -1      1922    8    0    1
 -2       925       938       998      3678      3875      3872
 -1      1923    8    0    1
 -2       889       929       999      3634      3876      3877
 -1      1924    8    0    1
 -2       889       999       993      3877      3878      3852
 -1      1925    8    0    1
 -2       937       984      1000      3823      3879      3880
 -1      1926    8    0    1
 -2       984       997      1000      3871      3881      3879
 -1      1927    8    0    1
 -2       856       966       936      3840      3882      3666
 -1      1928    8    0    1
 -2       987       915      1001      3831      3883      3884
 -1      1929    8    0    1
 -2       915       930      1001      3638      3885      3883
 -1      1930    8    0    1
 -2       919       986      1002      3830      3886      3887
 -1      1931    8    0    1
 -2       919      1002       933      3887      3888      3646
 -1      1932    8    0    1
 -2       934       936      1003      3665      3889      3890
 -1      1933    8    0    1
 -2       934      1003       997      3890      3891      3870
 -1      1934    8    0    1
 -2       860       847       849      3652      3572      3667
 -1      1935    8    0    1
 -2       918       892      1004      3593      3892      3893
 -1      1936    8    0    1
 -2       918      1004       996      3893      3894      3867
 -1      1937    8    0    1
 -2       938       937       998      3679      3895      3875
 -1      1938    8    0    1
 -2       937      1000       998      3880      3896      3895
 -1      1939    8    0    1
 -2      1004       892       968      3892      3774      3897
 -1      1940    8    0    1
 -2       939       989      1005      3839      3898      3899
 -1      1941    8    0    1
 -2       940       939      1006      3691      3900      3901
 -1      1942    8    0    1
 -2       939      1005      1006      3899      3902      3900
 -1      1943    8    0    1
 -2       941       940      1007      3694      3903      3904
 -1      1944    8    0    1
 -2       940      1006      1007      3901      3905      3903
 -1      1945    8    0    1
 -2       942       941      1008      3697      3906      3907
 -1      1946    8    0    1
 -2       941      1007      1008      3904      3908      3906
 -1      1947    8    0    1
 -2       943       942      1009      3700      3909      3910
 -1      1948    8    0    1
 -2       942      1008      1009      3907      3911      3909
 -1      1949    8    0    1
 -2       944       943      1010      3703      3912      3913
 -1      1950    8    0    1
 -2       943      1009      1010      3910      3914      3912
 -1      1951    8    0    1
 -2       945       944      1011      3706      3915      3916
 -1      1952    8    0    1
 -2       944      1010      1011      3913      3917      3915
 -1      1953    8    0    1
 -2       946       945      1012      3709      3918      3919
 -1      1954    8    0    1
 -2       945      1011      1012      3916      3920      3918
 -1      1955    8    0    1
 -2       947       946      1013      3712      3921      3922
 -1      1956    8    0    1
 -2       946      1012      1013      3919      3923      3921
 -1      1957    8    0    1
 -2       948       947      1014      3715      3924      3925
 -1      1958    8    0    1
 -2       947      1013      1014      3922      3926      3924
 -1      1959    8    0    1
 -2       949       948      1015      3718      3927      3928
 -1      1960    8    0    1
 -2       948      1014      1015      3925      3929      3927
 -1      1961    8    0    1
 -2       950       949      1016      3721      3930      3931
 -1      1962    8    0    1
 -2       949      1015      1016      3928      3932      3930
 -1      1963    8    0    1
 -2       951       950      1017      3724      3933      3934
 -1      1964    8    0    1
 -2       950      1016      1017      3931      3935      3933
 -1      1965    8    0    1
 -2       952       951      1018      3727      3936      3937
 -1      1966    8    0    1
 -2       951      1017      1018      3934      3938      3936
 -1      1967    8    0    1
 -2       953       952      1019      3730      3939      3940
 -1      1968    8    0    1
 -2       952      1018      1019      3937      3941      3939
 -1      1969    8    0    1
 -2       954       953      1020      3733      3942      3943
 -1      1970    8    0    1
 -2       953      1019      1020      3940      3944      3942
 -1      1971    8    0    1
 -2       955       954      1021      3736      3945      3946
 -1      1972    8    0    1
 -2       954      1020      1021      3943      3947      3945
 -1      1973    8    0    1
 -2       956       955      1022      3739      3948      3949
 -1      1974    8    0    1
 -2       955      1021      1022      3946      3950      3948
 -1      1975    8    0    1
 -2       957       956      1023      3742      3951      3952
 -1      1976    8    0    1
 -2       956      1022      1023      3949      3953      3951
 -1      1977    8    0    1
 -2       958       957      1024      3745      3954      3955
 -1      1978    8    0    1
 -2       957      1023      1024      3952      3956      3954
 -1      1979    8    0    1
 -2       959       958      1025      3748      3957      3958
 -1      1980    8    0    1
 -2       958      1024      1025      3955      3959      3957
 -1      1981    8    0    1
 -2       960       959      1026      3751      3960      3961
 -1      1982    8    0    1
 -2       959      1025      1026      3958      3962      3960
 -1      1983    8    0    1
 -2       961       960      1027      3754      3963      3964
 -1      1984    8    0    1
 -2       960      1026      1027      3961      3965      3963
 -1      1985    8    0    1
 -2       962       961      1028      3757      3966      3967
 -1      1986    8    0    1
 -2       961      1027      1028      3964      3968      3966
 -1      1987    8    0    1
 -2       963       962      1029      3760      3969      3970
 -1      1988    8    0    1
 -2       962      1028      1029      3967      3971      3969
 -1      1989    8    0    1
 -2       964       963      1030      3763      3972      3973
 -1      1990    8    0    1
 -2       991       964      1030      3848      3973      3974
 -1      1991    8    0    1
 -2       963      1029      1030      3970      3975      3972
 -1      1992    8    0    1
 -2       966       988      1031      3859      3976      3977
 -1      1993    8    0    1
 -2       988       933      1031      3836      3978      3976
 -1      1994    8    0    1
 -2      1004       968      1032      3897      3979      3980
 -1      1995    8    0    1
 -2       929       928      1033      3858      3981      3982
 -1      1996    8    0    1
 -2       999       929      1033      3876      3982      3983
 -1      1997    8    0    1
 -2       928       994      1033      3855      3984      3981
 -1      1998    8    0    1
 -2       970       971      1034      3783      3985      3986
 -1      1999    8    0    1
 -2       969       970      1035      3780      3987      3988
 -1      2000    8    0    1
 -2       970      1034      1035      3986      3989      3987
 -1      2001    8    0    1
 -2       972       973      1036      3789      3990      3991
 -1      2002    8    0    1
 -2       973       974      1037      3792      3992      3993
 -1      2003    8    0    1
 -2       973      1037      1036      3993      3994      3990
 -1      2004    8    0    1
 -2       974       975      1038      3795      3995      3996
 -1      2005    8    0    1
 -2       974      1038      1037      3996      3997      3992
 -1      2006    8    0    1
 -2       975       976      1039      3798      3998      3999
 -1      2007    8    0    1
 -2       975      1039      1038      3999      4000      3995
 -1      2008    8    0    1
 -2       976       977      1040      3801      4001      4002
 -1      2009    8    0    1
 -2       976      1040      1039      4002      4003      3998
 -1      2010    8    0    1
 -2       977       978      1041      3804      4004      4005
 -1      2011    8    0    1
 -2       977      1041      1040      4005      4006      4001
 -1      2012    8    0    1
 -2       978       979      1042      3807      4007      4008
 -1      2013    8    0    1
 -2       978      1042      1041      4008      4009      4004
 -1      2014    8    0    1
 -2       979       980      1043      3810      4010      4011
 -1      2015    8    0    1
 -2       979      1043      1042      4011      4012      4007
 -1      2016    8    0    1
 -2       980       981      1044      3813      4013      4014
 -1      2017    8    0    1
 -2       980      1044      1043      4014      4015      4010
 -1      2018    8    0    1
 -2       981       982      1045      3816      4016      4017
 -1      2019    8    0    1
 -2       981      1045      1044      4017      4018      4013
 -1      2020    8    0    1
 -2       982       983       926      3819      3868      4019
 -1      2021    8    0    1
 -2       967       990      1046      3857      4020      4021
 -1      2022    8    0    1
 -2      1000       997      1047      3881      4022      4023
 -1      2023    8    0    1
 -2       971       972      1048      3786      4024      4025
 -1      2024    8    0    1
 -2       971      1048      1034      4025      4026      3985
 -1      2025    8    0    1
 -2       968       967      1049      3775      4027      4028
 -1      2026    8    0    1
 -2       967      1046      1049      4021      4029      4027
 -1      2027    8    0    1
 -2       930       991      1030      3861      3974      4030
 -1      2028    8    0    1
 -2       936       966      1050      3882      4031      4032
 -1      2029    8    0    1
 -2      1003       936      1050      3889      4032      4033
 -1      2030    8    0    1
 -2       966      1031      1050      3977      4034      4031
 -1      2031    8    0    1
 -2       990       969      1051      3843      4035      4036
 -1      2032    8    0    1
 -2       990      1051      1046      4036      4037      4020
 -1      2033    8    0    1
 -2       986       995      1052      3869      4038      4039
 -1      2034    8    0    1
 -2       995       993      1053      3864      4040      4041
 -1      2035    8    0    1
 -2       995      1053      1052      4041      4042      4038
 -1      2036    8    0    1
 -2       982       926      1045      4019      4043      4016
 -1      2037    8    0    1
 -2       972      1036      1048      3991      4044      4024
 -1      2038    8    0    1
 -2       994       965      1054      3856      4045      4046
 -1      2039    8    0    1
 -2       926       992      1045      3850      4047      4043
 -1      2040    8    0    1
 -2      1032       968      1049      3979      4028      4048
 -1      2041    8    0    1
 -2       998      1000      1055      3896      4049      4050
 -1      2042    8    0    1
 -2       969      1035      1051      3988      4051      4035
 -1      2043    8    0    1
 -2      1047       997      1056      4022      4052      4053
 -1      2044    8    0    1
 -2       997      1003      1056      3891      4054      4052
 -1      2045    8    0    1
 -2       986      1052      1057      4039      4055      4056
 -1      2046    8    0    1
 -2       986      1057      1002      4056      4057      3886
 -1      2047    8    0    1
 -2      1000      1047      1055      4023      4058      4049
 -1      2048    8    0    1
 -2      1001       930      1030      3885      4030      4059
 -1      2049    8    0    1
 -2       965       996      1058      3866      4060      4061
 -1      2050    8    0    1
 -2       965      1058      1054      4061      4062      4045
 -1      2051    8    0    1
 -2       987      1001      1059      3884      4063      4064
 -1      2052    8    0    1
 -2      1053       993      1060      4040      4065      4066
 -1      2053    8    0    1
 -2       993       999      1060      3878      4067      4065
 -1      2054    8    0    1
 -2       933      1002      1031      3888      4068      3978
 -1      2055    8    0    1
 -2       996      1004      1061      3894      4069      4070
 -1      2056    8    0    1
 -2       996      1061      1058      4070      4071      4060
 -1      2057    8    0    1
 -2       992       987      1059      3851      4064      4072
 -1      2058    8    0    1
 -2      1004      1032      1061      3980      4073      4069
 -1      2059    8    0    1
 -2      1006      1005      1062      3902      4074      4075
 -1      2060    8    0    1
 -2      1061      1032      1063      4073      4076      4077
 -1      2061    8    0    1
 -2      1007      1006      1064      3905      4078      4079
 -1      2062    8    0    1
 -2      1006      1062      1064      4075      4080      4078
 -1      2063    8    0    1
 -2      1008      1007      1065      3908      4081      4082
 -1      2064    8    0    1
 -2      1007      1064      1065      4079      4083      4081
 -1      2065    8    0    1
 -2      1009      1008      1066      3911      4084      4085
 -1      2066    8    0    1
 -2      1008      1065      1066      4082      4086      4084
 -1      2067    8    0    1
 -2      1010      1009      1067      3914      4087      4088
 -1      2068    8    0    1
 -2      1009      1066      1067      4085      4089      4087
 -1      2069    8    0    1
 -2      1011      1010      1068      3917      4090      4091
 -1      2070    8    0    1
 -2      1010      1067      1068      4088      4092      4090
 -1      2071    8    0    1
 -2      1012      1011      1069      3920      4093      4094
 -1      2072    8    0    1
 -2      1011      1068      1069      4091      4095      4093
 -1      2073    8    0    1
 -2      1013      1012      1070      3923      4096      4097
 -1      2074    8    0    1
 -2      1012      1069      1070      4094      4098      4096
 -1      2075    8    0    1
 -2      1014      1013      1071      3926      4099      4100
 -1      2076    8    0    1
 -2      1013      1070      1071      4097      4101      4099
 -1      2077    8    0    1
 -2      1015      1014      1072      3929      4102      4103
 -1      2078    8    0    1
 -2      1014      1071      1072      4100      4104      4102
 -1      2079    8    0    1
 -2      1016      1015      1073      3932      4105      4106
 -1      2080    8    0    1
 -2      1015      1072      1073      4103      4107      4105
 -1      2081    8    0    1
 -2      1017      1016      1074      3935      4108      4109
 -1      2082    8    0    1
 -2      1016      1073      1074      4106      4110      4108
 -1      2083    8    0    1
 -2      1018      1017      1075      3938      4111      4112
 -1      2084    8    0    1
 -2      1017      1074      1075      4109      4113      4111
 -1      2085    8    0    1
 -2      1019      1018      1076      3941      4114      4115
 -1      2086    8    0    1
 -2      1018      1075      1076      4112      4116      4114
 -1      2087    8    0    1
 -2      1020      1019      1077      3944      4117      4118
 -1      2088    8    0    1
 -2      1019      1076      1077      4115      4119      4117
 -1      2089    8    0    1
 -2      1021      1020      1078      3947      4120      4121
 -1      2090    8    0    1
 -2      1020      1077      1078      4118      4122      4120
 -1      2091    8    0    1
 -2      1022      1021      1079      3950      4123      4124
 -1      2092    8    0    1
 -2      1021      1078      1079      4121      4125      4123
 -1      2093    8    0    1
 -2      1023      1022      1080      3953      4126      4127
 -1      2094    8    0    1
 -2      1022      1079      1080      4124      4128      4126
 -1      2095    8    0    1
 -2      1024      1023      1081      3956      4129      4130
 -1      2096    8    0    1
 -2      1023      1080      1081      4127      4131      4129
 -1      2097    8    0    1
 -2      1025      1024      1082      3959      4132      4133
 -1      2098    8    0    1
 -2      1024      1081      1082      4130      4134      4132
 -1      2099    8    0    1
 -2      1026      1025      1083      3962      4135      4136
 -1      2100    8    0    1
 -2      1025      1082      1083      4133      4137      4135
 -1      2101    8    0    1
 -2      1027      1026      1084      3965      4138      4139
 -1      2102    8    0    1
 -2      1026      1083      1084      4136      4140      4138
 -1      2103    8    0    1
 -2      1028      1027      1085      3968      4141      4142
 -1      2104    8    0    1
 -2      1027      1084      1085      4139      4143      4141
 -1      2105    8    0    1
 -2      1029      1028      1086      3971      4144      4145
 -1      2106    8    0    1
 -2      1028      1085      1086      4142      4146      4144
 -1      2107    8    0    1
 -2      1030      1029      1001      3975      4147      4059
 -1      2108    8    0    1
 -2      1045       992      1087      4047      4148      4149
 -1      2109    8    0    1
 -2      1044      1045      1087      4018      4149      4150
 -1      2110    8    0    1
 -2       992      1059      1087      4072      4151      4148
 -1      2111    8    0    1
 -2      1035      1034      1088      3989      4152      4153
 -1      2112    8    0    1
 -2      1051      1035      1089      4051      4154      4155
 -1      2113    8    0    1
 -2      1035      1088      1089      4153      4156      4154
 -1      2114    8    0    1
 -2      1046      1051      1090      4037      4157      4158
 -1      2115    8    0    1
 -2      1051      1089      1090      4155      4159      4157
 -1      2116    8    0    1
 -2      1037      1038      1091      3997      4160      4161
 -1      2117    8    0    1
 -2      1036      1037      1092      3994      4162      4163
 -1      2118    8    0    1
 -2      1037      1091      1092      4161      4164      4162
 -1      2119    8    0    1
 -2      1039      1040      1093      4003      4165      4166
 -1      2120    8    0    1
 -2      1040      1041      1094      4006      4167      4168
 -1      2121    8    0    1
 -2      1040      1094      1093      4168      4169      4165
 -1      2122    8    0    1
 -2      1041      1042      1095      4009      4170      4171
 -1      2123    8    0    1
 -2      1041      1095      1094      4171      4172      4167
 -1      2124    8    0    1
 -2      1042      1043      1096      4012      4173      4174
 -1      2125    8    0    1
 -2      1042      1096      1095      4174      4175      4170
 -1      2126    8    0    1
 -2      1043      1044      1097      4015      4176      4177
 -1      2127    8    0    1
 -2      1096      1043      1097      4173      4177      4178
 -1      2128    8    0    1
 -2      1044      1087      1097      4150      4179      4176
 -1      2129    8    0    1
 -2      1048      1036      1098      4044      4180      4181
 -1      2130    8    0    1
 -2      1036      1092      1098      4163      4182      4180
 -1      2131    8    0    1
 -2       985       998      1055      3874      4050      4183
 -1      2132    8    0    1
 -2      1005       989      1055      3898      4184      4185
 -1      2133    8    0    1
 -2      1034      1048      1099      4026      4186      4187
 -1      2134    8    0    1
 -2      1088      1034      1099      4152      4187      4188
 -1      2135    8    0    1
 -2      1048      1098      1099      4181      4189      4186
 -1      2136    8    0    1
 -2      1055      1047      1005      4058      4190      4185
 -1      2137    8    0    1
 -2      1049      1046      1100      4029      4191      4192
 -1      2138    8    0    1
 -2      1046      1090      1100      4158      4193      4191
 -1      2139    8    0    1
 -2      1059      1001      1029      4063      4147      4194
 -1      2140    8    0    1
 -2       989       985      1055      3860      4183      4184
 -1      2141    8    0    1
 -2       994      1054      1101      4046      4195      4196
 -1      2142    8    0    1
 -2       994      1101      1033      4196      4197      3984
 -1      2143    8    0    1
 -2      1038      1039      1102      4000      4198      4199
 -1      2144    8    0    1
 -2      1039      1093      1102      4166      4200      4198
 -1      2145    8    0    1
 -2      1031      1002      1103      4068      4201      4202
 -1      2146    8    0    1
 -2      1050      1031      1103      4034      4202      4203
 -1      2147    8    0    1
 -2      1002      1057      1103      4057      4204      4201
 -1      2148    8    0    1
 -2      1032      1049      1104      4048      4205      4206
 -1      2149    8    0    1
 -2      1049      1100      1104      4192      4207      4205
 -1      2150    8    0    1
 -2      1052      1053      1105      4042      4208      4209
 -1      2151    8    0    1
 -2      1005      1047      1062      4190      4210      4074
 -1      2152    8    0    1
 -2      1059      1029      1086      4194      4145      4211
 -1      2153    8    0    1
 -2      1061      1063      1106      4077      4212      4213
 -1      2154    8    0    1
 -2      1061      1106      1058      4213      4214      4071
 -1      2155    8    0    1
 -2      1003      1050      1107      4033      4215      4216
 -1      2156    8    0    1
 -2      1056      1003      1107      4054      4216      4217
 -1      2157    8    0    1
 -2      1050      1103      1107      4203      4218      4215
 -1      2158    8    0    1
 -2      1087      1059      1108      4151      4219      4220
 -1      2159    8    0    1
 -2      1097      1087      1108      4179      4220      4221
 -1      2160    8    0    1
 -2      1059      1086      1108      4211      4222      4219
 -1      2161    8    0    1
 -2      1038      1102      1091      4199      4223      4160
 -1      2162    8    0    1
 -2       999      1033      1109      3983      4224      4225
 -1      2163    8    0    1
 -2      1060       999      1109      4067      4225      4226
 -1      2164    8    0    1
 -2      1033      1101      1109      4197      4227      4224
 -1      2165    8    0    1
 -2      1101      1054      1110      4195      4228      4229
 -1      2166    8    0    1
 -2      1057      1052      1111      4055      4230      4231
 -1      2167    8    0    1
 -2      1052      1105      1111      4209      4232      4230
 -1      2168    8    0    1
 -2      1110      1054      1112      4228      4233      4234
 -1      2169    8    0    1
 -2      1054      1058      1112      4062      4235      4233
 -1      2170    8    0    1
 -2      1053      1060      1113      4066      4236      4237
 -1      2171    8    0    1
 -2      1053      1113      1105      4237      4238      4208
 -1      2172    8    0    1
 -2      1032      1104      1063      4206      4239      4076
 -1      2173    8    0    1
 -2      1065      1064      1113      4083      4240      4241
 -1      2174    8    0    1
 -2      1067      1066      1114      4089      4242      4243
 -1      2175    8    0    1
 -2      1068      1067      1110      4092      4244      4245
 -1      2176    8    0    1
 -2      1069      1068      1112      4095      4246      4247
 -1      2177    8    0    1
 -2      1070      1069      1106      4098      4248      4249
 -1      2178    8    0    1
 -2      1071      1070      1063      4101      4250      4251
 -1      2179    8    0    1
 -2      1072      1071      1104      4104      4252      4253
 -1      2180    8    0    1
 -2      1073      1072      1100      4107      4254      4255
 -1      2181    8    0    1
 -2      1074      1073      1090      4110      4256      4257
 -1      2182    8    0    1
 -2      1075      1074      1089      4113      4258      4259
 -1      2183    8    0    1
 -2      1076      1075      1088      4116      4260      4261
 -1      2184    8    0    1
 -2      1077      1076      1099      4119      4262      4263
 -1      2185    8    0    1
 -2      1078      1077      1098      4122      4264      4265
 -1      2186    8    0    1
 -2      1079      1078      1092      4125      4266      4267
 -1      2187    8    0    1
 -2      1080      1079      1091      4128      4268      4269
 -1      2188    8    0    1
 -2      1081      1080      1102      4131      4270      4271
 -1      2189    8    0    1
 -2      1082      1081      1093      4134      4272      4273
 -1      2190    8    0    1
 -2      1083      1082      1094      4137      4274      4275
 -1      2191    8    0    1
 -2      1084      1083      1095      4140      4276      4277
 -1      2192    8    0    1
 -2      1085      1084      1096      4143      4278      4279
 -1      2193    8    0    1
 -2      1086      1085      1108      4146      4280      4222
 -1      2194    8    0    1
 -2      1092      1091      1079      4164      4268      4267
 -1      2195    8    0    1
 -2      1089      1088      1075      4156      4260      4259
 -1      2196    8    0    1
 -2      1102      1080      1091      4270      4269      4223
 -1      2197    8    0    1
 -2      1063      1070      1106      4250      4249      4212
 -1      2198    8    0    1
 -2      1090      1089      1074      4159      4258      4257
 -1      2199    8    0    1
 -2      1094      1095      1083      4172      4276      4275
 -1      2200    8    0    1
 -2      1093      1094      1082      4169      4274      4273
 -1      2201    8    0    1
 -2      1098      1092      1078      4182      4266      4265
 -1      2202    8    0    1
 -2      1110      1067      1114      4244      4243      4281
 -1      2203    8    0    1
 -2      1093      1081      1102      4272      4271      4200
 -1      2204    8    0    1
 -2      1101      1110      1114      4229      4281      4282
 -1      2205    8    0    1
 -2      1098      1077      1099      4264      4263      4189
 -1      2206    8    0    1
 -2      1100      1090      1073      4193      4256      4255
 -1      2207    8    0    1
 -2      1047      1056      1115      4053      4283      4284
 -1      2208    8    0    1
 -2      1104      1100      1072      4207      4254      4253
 -1      2209    8    0    1
 -2      1096      1084      1095      4278      4277      4175
 -1      2210    8    0    1
 -2      1115      1056      1111      4283      4285      4286
 -1      2211    8    0    1
 -2      1104      1071      1063      4252      4251      4239
 -1      2212    8    0    1
 -2      1064      1062      1105      4080      4287      4288
 -1      2213    8    0    1
 -2      1064      1105      1113      4288      4238      4240
 -1      2214    8    0    1
 -2      1068      1110      1112      4245      4234      4246
 -1      2215    8    0    1
 -2      1105      1062      1111      4287      4289      4232
 -1      2216    8    0    1
 -2      1076      1088      1099      4261      4188      4262
 -1      2217    8    0    1
 -2      1058      1106      1112      4214      4290      4235
 -1      2218    8    0    1
 -2      1106      1069      1112      4248      4247      4290
 -1      2219    8    0    1
 -2      1066      1065      1116      4086      4291      4292
 -1      2220    8    0    1
 -2      1116      1065      1113      4291      4241      4293
 -1      2221    8    0    1
 -2      1047      1115      1062      4284      4294      4210
 -1      2222    8    0    1
 -2      1085      1096      1108      4279      4295      4280
 -1      2223    8    0    1
 -2      1111      1062      1115      4289      4294      4286
 -1      2224    8    0    1
 -2      1109      1101      1114      4227      4282      4296
 -1      2225    8    0    1
 -2      1066      1116      1114      4292      4297      4242
 -1      2226    8    0    1
 -2      1113      1060      1116      4236      4298      4293
 -1      2227    8    0    1
 -2      1116      1060      1109      4298      4226      4299
 -1      2228    8    0    1
 -2      1103      1057      1107      4204      4300      4218
 -1      2229    8    0    1
 -2      1116      1109      1114      4299      4296      4297
 -1      2230    8    0    1
 -2      1111      1056      1057      4285      4301      4231
 -1      2231    8    0    1
 -2      1096      1097      1108      4178      4221      4295
 -1      2232    8    0    1
 -2      1057      1056      1107      4301      4217      4300
 -3
    1PSTEP                         1           1           1          
  100CL  101 1.000000000        4301                     0    1           1
 -4  DISP        4    1
 -5  D1          1    2    1    0
 -5  D2          1    2    2    0
 -5  D3          1    2    3    0
 -5  ALL         1    2    0    0    1ALL
 -1         1 1.36343E-02-2.94198E-04-7.38997E-14
 -1         2 1.42494E-02 3.22011E-04-7.49895E-14
 -1         3 1.50195E-02 7.05192E-04-9.42383E-14
 -1         4 1.44132E-02 8.78831E-05-1.02934E-13
 -1         5 0.00000E+00 0.00000E+00 0.00000E+00
 -1         6 0.00000E+00 0.00000E+00 0.00000E+00
 -1         7 0.00000E+00 0.00000E+00 0.00000E+00
 -1         8 0.00000E+00 0.00000E+00 0.00000E+00
 -1         9 0.00000E+00 0.00000E+00 0.00000E+00
 -1        10 0.00000E+00 0.00000E+00 0.00000E+00
 -1        11 0.00000E+00 0.00000E+00 0.00000E+00
 -1        12 0.00000E+00 0.00000E+00 0.00000E+00
 -1        13 0.00000E+00 0.00000E+00 0.00000E+00
 -1        14 0.00000E+00 0.00000E+00 0.00000E+00
 -1        15 0.00000E+00 0.00000E+00 0.00000E+00
 -1        16 0.00000E+00 0.00000E+00 0.00000E+00
 -1        17 0.00000E+00 0.00000E+00 0.00000E+00
 -1        18 0.00000E+00 0.00000E+00 0.00000E+00
 -1        19 0.00000E+00 0.00000E+00 0.00000E+00
 -1        20 0.00000E+00 0.00000E+00 0.00000E+00
 -1        21 0.00000E+00 0.00000E+00 0.00000E+00
 -1        22 0.00000E+00 0.00000E+00 0.00000E+00
 -1        23 4.11407E-04-2.60750E-04 1.92039E-17
 -1        24 7.03415E-04-4.01009E-04-9.04530E-17
 -1        25 9.73510E-04-4.98404E-04-3.23268E-16
 -1        26 1.23803E-03-5.67174E-04-6.74919E-16
 -1        27 1.50158E-03-6.16462E-04-1.14162E-15
 -1        28 1.76627E-03-6.51647E-04-1.72163E-15
 -1        29 2.03304E-03-6.76442E-04-2.41404E-15
 -1        30 2.30226E-03-6.93546E-04-3.21254E-15
 -1        31 2.57397E-03-7.04976E-04-4.11633E-15
 -1        32 2.84805E-03-7.12257E-04-5.12471E-15
 -1        33 3.12424E-03-7.16536E-04-6.23594E-15
 -1        34 3.40228E-03-7.18670E-04-7.44323E-15
 -1        35 3.68187E-03-7.19281E-04-8.74428E-15
 -1        36 3.96276E-03-7.18810E-04-1.01292E-14
 -1        37 4.24470E-03-7.17556E-04-1.16019E-14
 -1        38 4.52750E-03-7.15703E-04-1.31641E-14
 -1        39 4.81103E-03-7.13348E-04-1.48118E-14
 -1        40 5.09518E-03-7.10525E-04-1.65429E-14
 -1        41 5.37995E-03-7.07222E-04-1.83593E-14
 -1        42 5.66537E-03-7.03399E-04-2.02634E-14
 -1        43 5.95157E-03-6.99008E-04-2.22517E-14
 -1        44 6.23877E-03-6.94015E-04-2.43226E-14
 -1        45 6.52729E-03-6.88430E-04-2.64709E-14
 -1        46 6.81756E-03-6.82342E-04-2.86995E-14
 -1        47 7.11015E-03-6.75962E-04-3.09996E-14
 -1        48 7.40574E-03-6.69690E-04-3.33693E-14
 -1        49 7.70514E-03-6.64179E-04-3.58009E-14
 -1        50 8.00923E-03-6.60425E-04-3.82928E-14
 -1        51 8.31886E-03-6.59848E-04-4.08450E-14
 -1        52 8.63473E-03-6.64351E-04-4.34600E-14
 -1        53 8.95707E-03-6.76322E-04-4.61263E-14
 -1        54 9.28537E-03-6.98479E-04-4.88488E-14
 -1        55 9.61786E-03-7.33474E-04-5.16284E-14
 -1        56 9.95109E-03-7.83116E-04-5.44491E-14
 -1        57 1.02798E-02-8.47159E-04-5.72944E-14
 -1        58 1.05972E-02-9.21820E-04-6.01582E-14
 -1        59 1.08968E-02-9.98610E-04-6.30437E-14
 -1        60 1.11744E-02-1.06450E-03-6.59500E-14
 -1        61 1.14308E-02-1.10437E-03-6.88838E-14
 -1        62 1.16728E-02-1.10552E-03-7.18524E-14
 -1        63 1.19115E-02-1.06237E-03-7.48542E-14
 -1        64 1.21579E-02-9.78571E-04-7.78871E-14
 -1        65 1.24187E-02-8.64885E-04-8.09596E-14
 -1        66 1.26950E-02-7.34450E-04-8.40619E-14
 -1        67 1.29826E-02-5.98048E-04-8.71841E-14
 -1        68 1.32753E-02-4.61574E-04-9.03178E-14
 -1        69 1.35676E-02-3.26038E-04-9.34861E-14
 -1        70 1.38564E-02-1.89286E-04-9.66661E-14
 -1        71 1.41423E-02-4.88160E-05-9.98681E-14
 -1        72 4.13854E-04 2.61455E-04 5.61956E-17
 -1        73 7.03241E-04 4.03716E-04 1.25191E-17
 -1        74 9.74047E-04 5.00180E-04-1.30328E-16
 -1        75 1.23885E-03 5.68888E-04-3.74446E-16
 -1        76 1.50254E-03 6.18221E-04-7.21432E-16
 -1        77 1.76729E-03 6.53498E-04-1.16989E-15
 -1        78 2.03410E-03 6.78406E-04-1.71823E-15
 -1        79 2.30334E-03 6.95632E-04-2.36485E-15
 -1        80 2.57507E-03 7.07191E-04-3.10639E-15
 -1        81 2.84916E-03 7.14603E-04-3.94405E-15
 -1        82 3.12535E-03 7.19016E-04-4.87967E-15
 -1        83 3.40339E-03 7.21283E-04-5.90514E-15
 -1        84 3.68298E-03 7.22028E-04-7.02101E-15
 -1        85 3.96386E-03 7.21691E-04-8.23092E-15
 -1        86 4.24579E-03 7.20568E-04-9.53263E-15
 -1        87 4.52858E-03 7.18840E-04-1.09279E-14
 -1        88 4.81208E-03 7.16602E-04-1.24099E-14
 -1        89 5.09621E-03 7.13880E-04-1.39760E-14
 -1        90 5.38093E-03 7.10650E-04-1.56251E-14
 -1        91 5.66629E-03 7.06857E-04-1.73533E-14
 -1        92 5.95243E-03 7.02426E-04-1.91612E-14
 -1        93 6.23957E-03 6.97287E-04-2.10427E-14
 -1        94 6.52807E-03 6.91396E-04-2.29977E-14
 -1        95 6.81842E-03 6.84770E-04-2.50126E-14
 -1        96 7.11130E-03 6.77531E-04-2.70890E-14
 -1        97 7.40760E-03 6.69975E-04-2.92295E-14
 -1        98 7.70848E-03 6.62660E-04-3.14372E-14
 -1        99 8.01537E-03 6.56543E-04-3.37035E-14
 -1       100 8.32999E-03 6.53150E-04-3.60272E-14
 -1       101 8.65430E-03 6.54815E-04-3.84095E-14
 -1       102 8.99034E-03 6.64950E-04-4.08348E-14
 -1       103 9.33978E-03 6.88292E-04-4.33059E-14
 -1       104 9.70316E-03 7.30955E-04-4.58288E-14
 -1       105 1.00787E-02 7.99919E-04-4.84002E-14
 -1       106 1.04605E-02 9.01321E-04-5.10291E-14
 -1       107 1.08374E-02 1.03690E-03-5.37125E-14
 -1       108 1.11939E-02 1.19874E-03-5.64472E-14
 -1       109 1.15143E-02 1.36472E-03-5.92304E-14
 -1       110 1.17926E-02 1.50027E-03-6.20590E-14
 -1       111 1.20396E-02 1.57082E-03-6.49264E-14
 -1       112 1.22809E-02 1.56005E-03-6.78086E-14
 -1       113 1.25429E-02 1.47936E-03-7.07061E-14
 -1       114 1.28385E-02 1.35979E-03-7.36293E-14
 -1       115 1.31626E-02 1.23388E-03-7.65786E-14
 -1       116 1.35000E-02 1.12207E-03-7.95420E-14
 -1       117 1.38347E-02 1.02978E-03-8.25029E-14
 -1       118 1.41557E-02 9.51398E-04-8.54777E-14
 -1       119 1.44593E-02 8.76048E-04-8.84544E-14
 -1       120 1.47488E-02 7.93227E-04-9.14230E-14
 -1       121 1.51141E-02 6.20064E-04-9.47382E-14
 -1       122 1.52189E-02 5.39810E-04-9.52515E-14
 -1       123 1.53327E-02 4.74435E-04-9.57652E-14
 -1       124 1.54461E-02 4.31267E-04-9.63156E-14
 -1       125 1.55460E-02 4.13805E-04-9.68812E-14
 -1       126 1.56169E-02 4.20520E-04-9.74632E-14
 -1       127 1.56482E-02 4.45154E-04-9.80557E-14
 -1       128 1.56308E-02 4.76790E-04-9.86187E-14
 -1       129 1.55642E-02 5.02727E-04-9.91614E-14
 -1       130 1.54560E-02 5.12179E-04-9.96903E-14
 -1       131 1.53183E-02 4.99002E-04-1.00203E-13
 -1       132 1.51670E-02 4.63187E-04-1.00700E-13
 -1       133 1.50078E-02 4.06792E-04-1.01181E-13
 -1       134 1.48506E-02 3.35658E-04-1.01629E-13
 -1       135 1.46988E-02 2.55350E-04-1.02072E-13
 -1       136 1.45530E-02 1.71285E-04-1.02514E-13
 -1       137 1.42032E-02 5.18519E-04-7.46568E-14
 -1       138 1.40417E-02 7.09057E-04-7.39819E-14
 -1       139 1.37883E-02 8.75795E-04-7.30405E-14
 -1       140 1.34638E-02 1.01095E-03-7.19147E-14
 -1       141 1.30698E-02 1.11706E-03-7.06203E-14
 -1       142 1.26351E-02 1.18383E-03-6.92526E-14
 -1       143 1.21619E-02 1.20815E-03-6.78211E-14
 -1       144 1.16570E-02 1.18345E-03-6.63403E-14
 -1       145 1.11947E-02 1.11468E-03-6.50279E-14
 -1       146 1.07346E-02 9.96081E-04-6.37564E-14
 -1       147 1.03620E-02 8.55347E-04-6.27747E-14
 -1       148 1.00726E-02 6.99122E-04-6.20607E-14
 -1       149 9.83101E-03 5.04060E-04-6.15402E-14
 -1       150 9.71134E-03 3.20723E-04-6.13787E-14
 -1       151 9.68716E-03 1.44612E-04-6.15034E-14
 -1       152 9.75856E-03-3.44635E-05-6.19231E-14
 -1       153 9.92203E-03-1.98773E-04-6.26026E-14
 -1       154 1.01864E-02-3.52495E-04-6.35729E-14
 -1       155 1.05127E-02-4.73419E-04-6.46991E-14
 -1       156 1.09780E-02-5.80845E-04-6.62437E-14
 -1       157 1.13952E-02-6.29675E-04-6.75652E-14
 -1       158 1.18511E-02-6.44491E-04-6.89731E-14
 -1       159 1.23710E-02-6.13970E-04-7.05251E-14
 -1       160 1.28167E-02-5.47231E-04-7.17821E-14
 -1       161 1.32594E-02-4.35858E-04-7.29675E-14
 -1       162 1.39611E-02-1.05927E-04-7.46248E-14
 -1       163 1.41719E-02 1.04468E-04-7.49892E-14
 -1       164 2.40416E-04-1.25523E-04-3.03272E-17
 -1       165 2.25282E-04-9.46227E-05-4.50588E-17
 -1       166 2.19524E-04-7.27780E-05-5.24889E-17
 -1       167 2.16705E-04-5.51084E-05-5.61176E-17
 -1       168 2.15216E-04-3.99693E-05-5.72730E-17
 -1       169 2.14379E-04-2.59158E-05-5.73272E-17
 -1       170 2.13959E-04-1.26441E-05-5.64869E-17
 -1       171 2.13836E-04 2.73246E-07-5.52367E-17
 -1       172 2.13977E-04 1.32029E-05-5.34749E-17
 -1       173 2.14419E-04 2.65142E-05-5.11472E-17
 -1       174 2.15264E-04 4.03945E-05-4.76541E-17
 -1       175 2.16816E-04 5.59153E-05-4.28362E-17
 -1       176 2.19675E-04 7.38186E-05-3.57312E-17
 -1       177 2.25451E-04 9.60211E-05-2.41303E-17
 -1       178 2.39347E-04 1.27601E-04-4.62141E-18
 -1       179 2.97727E-04 1.85510E-04 1.66899E-17
 -1       180 4.68652E-04-2.63566E-04-8.02987E-17
 -1       181 7.66811E-04-3.82172E-04-2.71311E-16
 -1       182 1.05068E-03-4.65072E-04-5.75945E-16
 -1       183 1.32808E-03-5.23875E-04-9.93831E-16
 -1       184 1.60270E-03-5.65593E-04-1.52180E-15
 -1       185 1.87660E-03-5.94915E-04-2.16034E-15
 -1       186 2.15091E-03-6.15148E-04-2.90527E-15
 -1       187 2.42623E-03-6.28715E-04-3.75468E-15
 -1       188 2.70281E-03-6.37424E-04-4.70699E-15
 -1       189 2.98072E-03-6.42633E-04-5.76012E-15
 -1       190 3.25992E-03-6.45349E-04-6.91044E-15
 -1       191 3.54028E-03-6.46312E-04-8.15385E-15
 -1       192 3.82166E-03-6.46047E-04-9.48756E-15
 -1       193 4.10393E-03-6.44914E-04-1.09064E-14
 -1       194 4.38697E-03-6.43142E-04-1.24141E-14
 -1       195 4.67066E-03-6.40859E-04-1.40087E-14
 -1       196 4.95495E-03-6.38115E-04-1.56873E-14
 -1       197 5.23981E-03-6.34905E-04-1.74489E-14
 -1       198 5.52527E-03-6.31185E-04-1.92964E-14
 -1       199 5.81142E-03-6.26890E-04-2.12294E-14
 -1       200 6.09839E-03-6.21955E-04-2.32443E-14
 -1       201 6.38641E-03-6.16342E-04-2.53384E-14
 -1       202 6.67579E-03-6.10067E-04-2.75127E-14
 -1       203 6.96690E-03-6.03248E-04-2.97625E-14
 -1       204 7.26023E-03-5.96153E-04-3.20830E-14
 -1       205 7.55632E-03-5.89273E-04-3.44682E-14
 -1       206 7.85578E-03-5.83407E-04-3.69140E-14
 -1       207 8.15921E-03-5.79754E-04-3.94218E-14
 -1       208 8.46715E-03-5.80008E-04-4.19891E-14
 -1       209 8.77990E-03-5.86409E-04-4.46141E-14
 -1       210 9.09738E-03-6.01703E-04-4.72906E-14
 -1       211 9.41888E-03-6.28903E-04-5.00195E-14
 -1       212 9.74278E-03-6.70722E-04-5.27962E-14
 -1       213 1.00664E-02-7.28532E-04-5.56082E-14
 -1       214 1.03860E-02-8.00860E-04-5.84453E-14
 -1       215 1.06975E-02-8.81727E-04-6.13085E-14
 -1       216 1.09971E-02-9.59759E-04-6.41959E-14
 -1       217 1.12835E-02-1.01930E-03-6.71083E-14
 -1       218 1.15586E-02-1.04436E-03-7.00532E-14
 -1       219 1.18278E-02-1.02425E-03-7.30310E-14
 -1       220 1.20979E-02-9.58001E-04-7.60409E-14
 -1       221 1.23741E-02-8.54340E-04-7.90832E-14
 -1       222 1.26587E-02-7.27342E-04-8.21561E-14
 -1       223 1.29503E-02-5.90554E-04-8.52572E-14
 -1       224 1.32456E-02-4.52872E-04-8.83805E-14
 -1       225 1.35409E-02-3.17402E-04-9.15293E-14
 -1       226 1.38338E-02-1.82697E-04-9.47033E-14
 -1       227 1.41231E-02-4.52581E-05-9.78946E-14
 -1       228 6.04602E-04 3.31059E-04-4.58346E-17
 -1       229 8.93713E-04 4.32691E-04-2.01106E-16
 -1       230 1.17262E-03 5.04458E-04-4.54071E-16
 -1       231 1.44698E-03 5.55569E-04-8.06819E-16
 -1       232 1.71981E-03 5.91845E-04-1.25939E-15
 -1       233 1.99271E-03 6.17267E-04-1.81118E-15
 -1       234 2.26654E-03 6.34706E-04-2.46089E-15
 -1       235 2.54169E-03 6.46293E-04-3.20614E-15
 -1       236 2.81830E-03 6.53627E-04-4.04612E-15
 -1       237 3.09635E-03 6.57907E-04-4.98148E-15
 -1       238 3.37573E-03 6.60019E-04-6.00804E-15
 -1       239 3.65629E-03 6.60608E-04-7.12487E-15
 -1       240 3.93787E-03 6.60127E-04-8.33273E-15
 -1       241 4.22033E-03 6.58876E-04-9.63240E-15
 -1       242 4.50353E-03 6.57040E-04-1.10236E-14
 -1       243 4.78737E-03 6.54710E-04-1.25025E-14
 -1       244 5.07181E-03 6.51906E-04-1.40662E-14
 -1       245 5.35683E-03 6.48597E-04-1.57106E-14
 -1       246 5.64249E-03 6.44712E-04-1.74341E-14
 -1       247 5.92890E-03 6.40162E-04-1.92384E-14
 -1       248 6.21628E-03 6.34853E-04-2.11180E-14
 -1       249 6.50490E-03 6.28712E-04-2.30705E-14
 -1       250 6.79519E-03 6.21717E-04-2.50836E-14
 -1       251 7.08769E-03 6.13942E-04-2.71604E-14
 -1       252 7.38311E-03 6.05619E-04-2.93053E-14
 -1       253 7.68232E-03 5.97228E-04-3.15149E-14
 -1       254 7.98639E-03 5.89625E-04-3.37853E-14
 -1       255 8.29659E-03 5.84226E-04-3.61115E-14
 -1       256 8.61427E-03 5.83244E-04-3.84915E-14
 -1       257 8.94083E-03 5.89989E-04-4.09190E-14
 -1       258 9.27734E-03 6.09169E-04-4.33937E-14
 -1       259 9.62421E-03 6.47046E-04-4.59204E-14
 -1       260 9.98039E-03 7.11088E-04-4.84970E-14
 -1       261 1.03426E-02 8.08475E-04-5.11298E-14
 -1       262 1.07046E-02 9.42618E-04-5.38122E-14
 -1       263 1.10574E-02 1.10751E-03-5.65440E-14
 -1       264 1.13917E-02 1.28199E-03-5.93184E-14
 -1       265 1.17024E-02 1.42972E-03-6.21370E-14
 -1       266 1.19941E-02 1.51156E-03-6.49933E-14
 -1       267 1.22802E-02 1.50669E-03-6.78780E-14
 -1       268 1.25757E-02 1.42557E-03-7.07812E-14
 -1       269 1.28880E-02 1.30185E-03-7.37123E-14
 -1       270 1.32142E-02 1.17164E-03-7.66630E-14
 -1       271 1.35459E-02 1.05761E-03-7.96300E-14
 -1       272 1.38737E-02 9.65757E-04-8.25931E-14
 -1       273 1.41913E-02 8.89965E-04-8.55700E-14
 -1       274 1.44963E-02 8.18320E-04-8.85475E-14
 -1       275 1.47900E-02 7.38853E-04-9.15196E-14
 -1       276 1.49184E-02 6.62547E-04-9.24246E-14
 -1       277 1.50322E-02 5.90345E-04-9.29362E-14
 -1       278 1.51523E-02 5.31164E-04-9.34602E-14
 -1       279 1.52667E-02 4.87929E-04-9.40018E-14
 -1       280 1.53587E-02 4.61718E-04-9.45454E-14
 -1       281 1.54161E-02 4.49163E-04-9.51019E-14
 -1       282 1.54253E-02 4.45020E-04-9.56490E-14
 -1       283 1.53814E-02 4.41257E-04-9.61854E-14
 -1       284 1.52888E-02 4.29886E-04-9.67045E-14
 -1       285 1.51588E-02 4.05176E-04-9.72115E-14
 -1       286 1.50087E-02 3.65606E-04-9.76967E-14
 -1       287 1.48465E-02 3.10620E-04-9.81727E-14
 -1       288 1.46843E-02 2.43594E-04-9.86298E-14
 -1       289 1.45275E-02 1.68094E-04-9.90741E-14
 -1       290 1.43233E-02 6.23259E-05-9.84903E-14
 -1       291 1.42680E-02 3.78746E-04-7.62561E-14
 -1       292 1.41153E-02 4.86577E-04-7.56866E-14
 -1       293 1.38411E-02 6.53932E-04-7.44209E-14
 -1       294 1.34916E-02 8.25186E-04-7.32072E-14
 -1       295 1.30921E-02 9.98810E-04-7.18663E-14
 -1       296 1.27059E-02 1.16194E-03-7.02564E-14
 -1       297 1.23245E-02 1.26300E-03-6.85935E-14
 -1       298 1.19303E-02 1.27981E-03-6.68875E-14
 -1       299 1.15410E-02 1.20217E-03-6.52267E-14
 -1       300 1.11543E-02 1.03580E-03-6.35709E-14
 -1       301 1.07119E-02 8.35663E-04-6.24425E-14
 -1       302 1.03404E-02 6.40335E-04-6.14596E-14
 -1       303 1.00143E-02 4.35885E-04-6.04448E-14
 -1       304 9.76187E-03 3.10864E-04-6.02639E-14
 -1       305 9.66082E-03 2.08740E-04-6.03140E-14
 -1       306 9.69347E-03 1.09069E-04-6.06256E-14
 -1       307 9.85772E-03-3.91995E-06-6.12639E-14
 -1       308 1.01386E-02-1.40000E-04-6.21698E-14
 -1       309 1.04957E-02-3.02028E-04-6.33618E-14
 -1       310 1.09272E-02-4.83536E-04-6.48300E-14
 -1       311 1.13021E-02-6.37866E-04-6.66984E-14
 -1       312 1.16682E-02-7.17431E-04-6.83042E-14
 -1       313 1.20501E-02-7.16875E-04-7.01214E-14
 -1       314 1.24563E-02-6.12513E-04-7.17314E-14
 -1       315 1.28534E-02-4.48818E-04-7.32457E-14
 -1       316 1.32822E-02-2.50175E-04-7.44641E-14
 -1       317 1.36974E-02-4.57468E-05-7.54695E-14
 -1       318 1.40494E-02 1.34321E-04-7.61295E-14
 -1       319 1.42490E-02 2.67949E-04-7.62479E-14
 -1       320 4.55406E-04-1.64805E-04-1.76905E-16
 -1       321 4.74274E-04-2.12990E-04-1.53831E-16
 -1       322 4.40440E-04-9.40198E-05-1.95356E-16
 -1       323 4.37475E-04-6.49140E-05-1.97264E-16
 -1       324 4.35849E-04-3.79077E-05-1.96512E-16
 -1       325 4.35138E-04-1.20179E-05-1.93679E-16
 -1       326 4.35168E-04 1.35375E-05-1.89292E-16
 -1       327 4.35946E-04 3.94852E-05-1.83169E-16
 -1       328 4.37615E-04 6.61434E-05-1.74800E-16
 -1       329 4.40675E-04 9.54204E-05-1.63311E-16
 -1       330 4.46068E-04 1.28334E-04-1.47275E-16
 -1       331 4.55908E-04 1.67315E-04-1.24273E-16
 -1       332 4.75909E-04 2.17059E-04-9.05512E-17
 -1       333 5.32043E-04 2.69989E-04-7.39731E-17
 -1       334 8.24537E-04 3.73538E-04-2.36390E-16
 -1       335 8.63301E-04-3.57435E-04-4.69507E-16
 -1       336 1.14967E-03-4.26199E-04-8.41260E-16
 -1       337 1.43247E-03-4.75410E-04-1.32111E-15
 -1       338 1.71319E-03-5.10166E-04-1.90853E-15
 -1       339 1.99298E-03-5.34291E-04-2.60204E-15
 -1       340 2.27257E-03-5.50604E-04-3.39886E-15
 -1       341 2.55246E-03-5.61218E-04-4.29646E-15
 -1       342 2.83288E-03-5.67720E-04-5.29381E-15
 -1       343 3.11396E-03-5.71293E-04-6.38908E-15
 -1       344 3.39573E-03-5.72809E-04-7.57749E-15
 -1       345 3.67817E-03-5.72896E-04-8.85653E-15
 -1       346 3.96121E-03-5.71988E-04-1.02233E-14
 -1       347 4.24480E-03-5.70371E-04-1.16765E-14
 -1       348 4.52889E-03-5.68214E-04-1.32180E-14
 -1       349 4.81343E-03-5.65596E-04-1.48453E-14
 -1       350 5.09842E-03-5.62529E-04-1.65536E-14
 -1       351 5.38387E-03-5.58975E-04-1.83455E-14
 -1       352 5.66983E-03-5.54866E-04-2.02228E-14
 -1       353 5.95638E-03-5.50121E-04-2.21842E-14
 -1       354 6.24366E-03-5.44669E-04-2.42253E-14
 -1       355 6.53186E-03-5.38477E-04-2.63439E-14
 -1       356 6.82122E-03-5.31583E-04-2.85427E-14
 -1       357 7.11206E-03-5.24145E-04-3.08144E-14
 -1       358 7.40474E-03-5.16505E-04-3.31518E-14
 -1       359 7.69969E-03-5.09262E-04-3.55530E-14
 -1       360 7.99737E-03-5.03367E-04-3.80153E-14
 -1       361 8.29828E-03-5.00224E-04-4.05386E-14
 -1       362 8.60289E-03-5.01776E-04-4.31175E-14
 -1       363 8.91161E-03-5.10548E-04-4.57499E-14
 -1       364 9.22464E-03-5.29559E-04-4.84332E-14
 -1       365 9.54183E-03-5.62004E-04-5.11687E-14
 -1       366 9.86243E-03-6.10540E-04-5.39434E-14
 -1       367 1.01847E-02-6.76026E-04-5.67490E-14
 -1       368 1.05059E-02-7.55708E-04-5.95831E-14
 -1       369 1.08222E-02-8.41306E-04-6.24472E-14
 -1       370 1.11301E-02-9.18287E-04-6.53419E-14
 -1       371 1.14281E-02-9.68059E-04-6.82623E-14
 -1       372 1.17187E-02-9.74017E-04-7.12154E-14
 -1       373 1.20074E-02-9.28768E-04-7.42019E-14
 -1       374 1.23001E-02-8.37681E-04-7.72195E-14
 -1       375 1.25993E-02-7.15484E-04-8.02683E-14
 -1       376 1.29036E-02-5.78872E-04-8.33453E-14
 -1       377 1.32096E-02-4.40175E-04-8.64501E-14
 -1       378 1.35135E-02-3.04954E-04-8.95807E-14
 -1       379 1.38127E-02-1.72858E-04-9.27391E-14
 -1       380 1.40702E-02-5.73489E-05-9.56059E-14
 -1       381 1.11003E-03 4.47876E-04-4.93634E-16
 -1       382 1.39079E-03 5.00961E-04-8.48446E-16
 -1       383 1.66911E-03 5.38598E-04-1.30193E-15
 -1       384 1.94652E-03 5.64910E-04-1.85340E-15
 -1       385 2.22395E-03 5.82903E-04-2.50224E-15
 -1       386 2.50193E-03 5.94814E-04-3.24703E-15
 -1       387 2.78074E-03 6.02317E-04-4.08549E-15
 -1       388 3.06048E-03 6.06665E-04-5.01826E-15
 -1       389 3.34115E-03 6.08784E-04-6.04225E-15
 -1       390 3.62269E-03 6.09345E-04-7.15543E-15
 -1       391 3.90501E-03 6.08820E-04-8.36047E-15
 -1       392 4.18803E-03 6.07523E-04-9.65537E-15
 -1       393 4.47165E-03 6.05644E-04-1.10406E-14
 -1       394 4.75583E-03 6.03279E-04-1.25140E-14
 -1       395 5.04052E-03 6.00448E-04-1.40708E-14
 -1       396 5.32573E-03 5.97116E-04-1.57097E-14
 -1       397 5.61151E-03 5.93208E-04-1.74286E-14
 -1       398 5.89795E-03 5.88624E-04-1.92270E-14
 -1       399 6.18521E-03 5.83257E-04-2.11020E-14
 -1       400 6.47354E-03 5.77017E-04-2.30499E-14
 -1       401 6.76324E-03 5.69854E-04-2.50615E-14
 -1       402 7.05474E-03 5.61807E-04-2.71372E-14
 -1       403 7.34857E-03 5.53059E-04-2.92799E-14
 -1       404 7.64538E-03 5.44025E-04-3.14891E-14
 -1       405 7.94597E-03 5.35474E-04-3.37603E-14
 -1       406 8.25124E-03 5.28704E-04-3.60862E-14
 -1       407 8.56223E-03 5.25773E-04-3.84663E-14
 -1       408 8.88001E-03 5.29798E-04-4.08939E-14
 -1       409 9.20562E-03 5.45273E-04-4.33700E-14
 -1       410 9.53990E-03 5.78296E-04-4.58973E-14
 -1       411 9.88312E-03 6.36400E-04-4.84750E-14
 -1       412 1.02345E-02 7.27415E-04-5.11069E-14
 -1       413 1.05913E-02 8.56498E-04-5.37869E-14
 -1       414 1.09478E-02 1.02057E-03-5.65162E-14
 -1       415 1.12960E-02 1.20144E-03-5.92857E-14
 -1       416 1.16283E-02 1.36250E-03-6.20960E-14
 -1       417 1.19447E-02 1.45900E-03-6.49490E-14
 -1       418 1.22552E-02 1.46291E-03-6.78282E-14
 -1       419 1.25725E-02 1.38249E-03-7.07353E-14
 -1       420 1.29018E-02 1.25498E-03-7.36678E-14
 -1       421 1.32388E-02 1.12096E-03-7.66233E-14
 -1       422 1.35752E-02 1.00524E-03-7.95878E-14
 -1       423 1.39038E-02 9.14055E-04-8.25572E-14
 -1       424 1.42211E-02 8.40898E-04-8.55380E-14
 -1       425 1.45261E-02 7.73342E-04-8.85200E-14
 -1       426 1.47243E-02 7.20717E-04-9.04722E-14
 -1       427 1.49720E-02 5.54808E-04-9.11324E-14
 -1       428 1.48470E-02 6.17984E-04-9.06134E-14
 -1       429 1.47822E-02 6.67558E-04-9.05421E-14
 -1       430 1.50830E-02 5.05056E-04-9.16512E-14
 -1       431 1.51670E-02 4.67469E-04-9.21776E-14
 -1       432 1.52055E-02 4.40137E-04-9.27002E-14
 -1       433 1.51882E-02 4.16747E-04-9.32175E-14
 -1       434 1.51148E-02 3.89523E-04-9.37335E-14
 -1       435 1.49954E-02 3.52174E-04-9.42352E-14
 -1       436 1.48482E-02 3.02816E-04-9.47136E-14
 -1       437 1.46841E-02 2.40386E-04-9.51830E-14
 -1       438 1.45176E-02 1.68358E-04-9.56379E-14
 -1       439 1.43563E-02 8.99821E-05-9.60846E-14
 -1       440 1.39403E-02 5.24787E-04-7.60426E-14
 -1       441 1.43004E-02 3.31066E-04-7.78276E-14
 -1       442 1.42287E-02 4.00518E-04-7.72950E-14
 -1       443 1.36469E-02 6.62318E-04-7.48233E-14
 -1       444 1.32550E-02 8.57426E-04-7.33172E-14
 -1       445 4.45599E-04-1.26488E-04-1.89302E-16
 -1       446 1.24533E-02 1.24483E-03-6.95645E-14
 -1       447 1.21165E-02 1.31917E-03-6.76558E-14
 -1       448 1.17789E-02 1.28463E-03-6.57812E-14
 -1       449 1.14434E-02 1.15040E-03-6.39183E-14
 -1       450 1.09623E-02 8.73401E-04-6.18785E-14
 -1       451 1.06270E-02 6.83098E-04-6.09014E-14
 -1       452 1.02584E-02 4.79446E-04-5.97823E-14
 -1       453 9.85474E-03 2.91258E-04-5.88448E-14
 -1       454 9.67858E-03 2.18169E-04-5.89274E-14
 -1       455 9.64435E-03 1.62332E-04-5.92836E-14
 -1       456 9.75304E-03 9.87660E-05-5.94654E-14
 -1       457 9.96026E-03 1.28067E-05-6.03591E-14
 -1       458 1.03438E-02-1.54269E-04-6.16687E-14
 -1       459 1.07174E-02-3.40835E-04-6.31642E-14
 -1       460 1.12184E-02-5.97266E-04-6.57134E-14
 -1       461 1.15043E-02-7.07532E-04-6.73092E-14
 -1       462 1.18333E-02-7.58006E-04-6.92743E-14
 -1       463 1.22299E-02-6.83826E-04-7.16440E-14
 -1       464 1.25430E-02-5.45209E-04-7.31642E-14
 -1       465 1.29958E-02-2.98669E-04-7.50116E-14
 -1       466 1.34331E-02-7.54233E-05-7.61659E-14
 -1       467 1.38598E-02 1.20665E-04-7.70662E-14
 -1       468 1.41827E-02 2.62369E-04-7.77762E-14
 -1       469 1.28224E-02 1.07987E-03-7.14702E-14
 -1       470 1.41175E-02 4.44422E-04-7.76513E-14
 -1       471 1.09729E-02-4.74798E-04-6.40377E-14
 -1       472 1.12174E-02 1.01237E-03-6.22171E-14
 -1       473 1.00294E-02 3.45962E-04-5.81814E-14
 -1       474 1.20225E-02-7.49251E-04-7.07942E-14
 -1       475 9.31283E-04 3.46069E-04-4.28971E-16
 -1       476 6.65827E-04-7.51458E-05-4.17421E-16
 -1       477 6.69792E-04-1.15908E-04-4.16368E-16
 -1       478 6.63156E-04 1.10472E-06-4.07297E-16
 -1       479 6.63875E-04 3.87732E-05-3.97177E-16
 -1       480 6.66014E-04 7.68327E-05-3.83598E-16
 -1       481 6.70108E-04 1.17750E-04-3.65139E-16
 -1       482 6.77118E-04 1.62372E-04-3.40304E-16
 -1       483 6.89033E-04 2.12738E-04-3.06490E-16
 -1       484 1.21717E-03 4.06576E-04-7.55011E-16
 -1       485 9.76309E-04-3.28714E-04-6.87499E-16
 -1       486 1.26275E-02 1.18112E-03-7.09616E-14
 -1       487 1.26227E-03-3.83617E-04-1.12086E-15
 -1       488 1.54727E-03-4.23342E-04-1.65923E-15
 -1       489 1.83140E-03-4.51422E-04-2.30246E-15
 -1       490 2.11494E-03-4.70716E-04-3.04822E-15
 -1       491 2.39821E-03-4.83510E-04-3.89382E-15
 -1       492 2.68146E-03-4.91570E-04-4.83693E-15
 -1       493 2.96484E-03-4.96235E-04-5.87759E-15
 -1       494 3.24845E-03-4.98504E-04-7.01262E-15
 -1       495 3.53234E-03-4.99107E-04-8.23819E-15
 -1       496 3.81652E-03-4.98559E-04-9.55273E-15
 -1       497 4.10098E-03-4.97208E-04-1.09530E-14
 -1       498 4.38570E-03-4.95271E-04-1.24399E-14
 -1       499 4.67069E-03-4.92863E-04-1.40139E-14
 -1       500 4.95593E-03-4.90021E-04-1.56717E-14
 -1       501 5.24144E-03-4.86726E-04-1.74111E-14
 -1       502 5.52723E-03-4.82916E-04-1.92331E-14
 -1       503 5.81335E-03-4.78508E-04-2.11411E-14
 -1       504 6.09987E-03-4.73415E-04-2.31306E-14
 -1       505 6.38689E-03-4.67567E-04-2.51976E-14
 -1       506 6.67453E-03-4.60945E-04-2.73424E-14
 -1       507 6.96296E-03-4.53614E-04-2.95634E-14
 -1       508 7.25241E-03-4.45778E-04-3.18526E-14
 -1       509 7.54315E-03-4.37840E-04-3.42078E-14
 -1       510 7.83552E-03-4.30489E-04-3.66250E-14
 -1       511 8.12999E-03-4.24787E-04-3.91036E-14
 -1       512 8.42710E-03-4.22271E-04-4.16392E-14
 -1       513 8.72759E-03-4.25039E-04-4.42296E-14
 -1       514 9.03232E-03-4.35792E-04-4.68694E-14
 -1       515 9.34230E-03-4.57755E-04-4.95614E-14
 -1       516 9.65840E-03-4.94365E-04-5.22975E-14
 -1       517 9.98096E-03-5.48517E-04-5.50681E-14
 -1       518 1.03090E-02-6.21112E-04-5.78707E-14
 -1       519 1.06393E-02-7.08621E-04-6.07061E-14
 -1       520 1.09665E-02-8.00191E-04-6.35770E-14
 -1       521 1.12855E-02-8.76550E-04-6.64782E-14
 -1       522 1.15946E-02-9.13965E-04-6.94082E-14
 -1       523 1.18987E-02-8.94895E-04-7.23680E-14
 -1       524 1.22057E-02-8.18227E-04-7.53621E-14
 -1       525 1.25205E-02-6.99518E-04-7.83876E-14
 -1       526 1.28419E-02-5.60843E-04-8.14440E-14
 -1       527 1.31643E-02-4.19763E-04-8.45286E-14
 -1       528 1.34822E-02-2.84800E-04-8.76394E-14
 -1       529 1.37920E-02-1.56484E-04-9.07757E-14
 -1       530 1.78404E-03 4.81184E-04-1.69686E-15
 -1       531 2.06603E-03 5.02561E-04-2.31211E-15
 -1       532 2.34778E-03 5.16901E-04-3.02266E-15
 -1       533 2.62961E-03 5.26114E-04-3.82762E-15
 -1       534 2.91175E-03 5.31638E-04-4.72604E-15
 -1       535 3.19429E-03 5.34552E-04-5.71560E-15
 -1       536 3.47728E-03 5.35641E-04-6.79549E-15
 -1       537 3.76071E-03 5.35467E-04-7.96478E-15
 -1       538 4.04456E-03 5.34413E-04-9.22444E-15
 -1       539 4.32881E-03 5.32722E-04-1.05731E-14
 -1       540 4.61342E-03 5.30528E-04-1.20086E-14
 -1       541 4.89838E-03 5.27880E-04-1.35282E-14
 -1       542 5.18369E-03 5.24763E-04-1.51314E-14
 -1       543 5.46938E-03 5.21113E-04-1.68166E-14
 -1       544 5.75550E-03 5.16833E-04-1.85834E-14
 -1       545 6.04213E-03 5.11809E-04-2.04251E-14
 -1       546 6.32941E-03 5.05928E-04-2.23414E-14
 -1       547 6.61748E-03 4.99103E-04-2.43293E-14
 -1       548 6.90658E-03 4.91307E-04-2.63808E-14
 -1       549 7.19697E-03 4.82619E-04-2.85009E-14
 -1       550 7.48899E-03 4.73293E-04-3.06858E-14
 -1       551 7.78302E-03 4.63854E-04-3.29364E-14
 -1       552 8.07956E-03 4.55233E-04-3.52429E-14
 -1       553 8.37920E-03 4.48948E-04-3.76049E-14
 -1       554 8.68267E-03 4.47346E-04-4.00199E-14
 -1       555 8.99098E-03 4.53891E-04-4.24810E-14
 -1       556 9.30552E-03 4.73472E-04-4.49932E-14
 -1       557 9.62827E-03 5.12618E-04-4.75551E-14
 -1       558 9.96174E-03 5.79366E-04-5.01660E-14
 -1       559 1.03084E-02 6.82195E-04-5.28281E-14
 -1       560 1.06686E-02 8.26803E-04-5.55371E-14
 -1       561 1.10374E-02 1.00839E-03-5.82878E-14
 -1       562 1.14037E-02 1.20227E-03-6.10803E-14
 -1       563 1.17555E-02 1.35556E-03-6.39140E-14
 -1       564 1.20949E-02 1.41269E-03-6.67785E-14
 -1       565 1.24369E-02 1.35797E-03-6.96769E-14
 -1       566 1.27913E-02 1.22942E-03-7.26012E-14
 -1       567 1.31525E-02 1.08354E-03-7.55509E-14
 -1       568 1.35075E-02 9.57278E-04-7.85173E-14
 -1       569 1.38477E-02 8.61230E-04-8.14934E-14
 -1       570 1.41712E-02 7.89707E-04-8.44754E-14
 -1       571 1.44796E-02 7.30123E-04-8.74679E-14
 -1       572 1.49018E-02 4.93492E-04-8.92734E-14
 -1       573 1.49746E-02 4.48057E-04-8.97773E-14
 -1       574 1.46615E-02 6.23557E-04-8.82724E-14
 -1       575 1.47908E-02 5.52136E-04-8.87728E-14
 -1       576 1.49897E-02 4.11614E-04-9.02821E-14
 -1       577 1.49396E-02 3.74925E-04-9.07852E-14
 -1       578 1.48316E-02 3.28726E-04-9.12755E-14
 -1       579 1.46861E-02 2.69383E-04-9.17435E-14
 -1       580 1.45184E-02 1.95661E-04-9.22085E-14
 -1       581 1.43470E-02 1.12656E-04-9.26595E-14
 -1       582 1.41811E-02 2.51940E-05-9.31041E-14
 -1       583 1.43356E-02 3.66748E-04-7.94177E-14
 -1       584 1.42914E-02 3.16559E-04-7.94681E-14
 -1       585 1.50129E-03 4.50271E-04-1.17743E-15
 -1       586 1.37874E-02 5.78178E-04-7.67361E-14
 -1       587 7.12625E-04-2.51858E-04-3.90597E-16
 -1       588 1.30433E-02 9.53805E-04-7.32326E-14
 -1       589 1.16645E-02-7.64388E-04-6.83663E-14
 -1       590 9.63339E-03 1.39160E-04-5.77852E-14
 -1       591 6.63764E-04-3.65277E-05-4.14091E-16
 -1       592 1.19515E-02 1.33462E-03-6.64673E-14
 -1       593 1.22661E-02 1.31777E-03-6.85622E-14
 -1       594 1.16654E-02 1.25704E-03-6.45468E-14
 -1       595 1.07807E-02 7.37874E-04-6.01139E-14
 -1       596 1.04984E-02-2.31758E-04-6.12749E-14
 -1       597 1.04438E-02 5.43819E-04-5.90008E-14
 -1       598 9.71137E-03 2.20379E-04-5.75317E-14
 -1       599 9.60846E-03 1.72624E-04-5.74351E-14
 -1       600 9.82850E-03 6.39536E-05-5.84295E-14
 -1       601 1.01277E-02-5.36312E-05-5.97212E-14
 -1       602 1.13592E-02-6.69599E-04-6.62456E-14
 -1       603 1.32239E-02-1.44440E-04-7.69146E-14
 -1       604 1.23719E-02-6.19136E-04-7.32619E-14
 -1       605 1.27471E-02-4.13604E-04-7.51136E-14
 -1       606 1.36608E-02 7.11953E-05-7.80779E-14
 -1       607 1.40413E-02 2.26184E-04-7.88658E-14
 -1       608 7.03837E-04 2.90920E-04-2.27391E-16
 -1       609 1.34585E-02 7.31868E-04-7.52190E-14
 -1       610 6.76580E-04-1.60064E-04-4.09378E-16
 -1       611 1.42968E-02 3.99758E-04-7.97707E-14
 -1       612 1.07183E-02-3.61891E-04-6.21343E-14
 -1       613 9.82979E-03 2.62894E-04-5.68734E-14
 -1       614 1.14412E-02 1.15133E-03-6.28390E-14
 -1       615 1.10046E-02 8.81516E-04-6.04439E-14
 -1       616 1.39932E-02-7.31272E-05-9.29248E-14
 -1       617 8.99773E-04 7.41304E-05-6.73147E-16
 -1       618 8.97686E-04 2.51842E-05-6.91989E-16
 -1       619 9.11843E-04 1.78269E-04-6.15410E-16
 -1       620 9.24209E-04 2.36839E-04-5.72012E-16
 -1       621 1.04890E-03 3.13971E-04-6.49092E-16
 -1       622 1.33464E-03 3.61626E-04-1.04135E-15
 -1       623 1.30146E-02-2.68944E-04-7.75618E-14
 -1       624 1.34881E-02-1.20195E-05-7.90512E-14
 -1       625 1.38330E-03-3.37089E-04-1.41514E-15
 -1       626 1.66951E-03-3.68066E-04-2.00866E-15
 -1       627 1.95572E-03-3.89869E-04-2.70398E-15
 -1       628 2.24176E-03-4.04688E-04-3.49858E-15
 -1       629 2.52762E-03-4.14310E-04-4.39018E-15
 -1       630 2.81333E-03-4.20147E-04-5.37763E-15
 -1       631 3.09895E-03-4.23284E-04-6.45892E-15
 -1       632 3.38453E-03-4.24527E-04-7.63178E-15
 -1       633 3.67008E-03-4.24460E-04-8.89421E-15
 -1       634 3.95565E-03-4.23488E-04-1.02435E-14
 -1       635 4.24123E-03-4.21875E-04-1.16767E-14
 -1       636 4.52684E-03-4.19774E-04-1.31962E-14
 -1       637 4.81249E-03-4.17255E-04-1.48016E-14
 -1       638 5.09819E-03-4.14320E-04-1.64915E-14
 -1       639 5.38394E-03-4.10926E-04-1.82618E-14
 -1       640 5.66975E-03-4.06997E-04-2.01146E-14
 -1       641 5.95565E-03-4.02444E-04-2.20522E-14
 -1       642 6.24165E-03-3.97179E-04-2.40693E-14
 -1       643 6.52779E-03-3.91141E-04-2.61615E-14
 -1       644 6.81413E-03-3.84325E-04-2.83308E-14
 -1       645 7.10074E-03-3.76816E-04-3.05698E-14
 -1       646 7.38777E-03-3.68847E-04-3.28769E-14
 -1       647 7.67542E-03-3.60850E-04-3.52505E-14
 -1       648 7.96403E-03-3.53540E-04-3.76860E-14
 -1       649 8.25412E-03-3.47998E-04-4.01790E-14
 -1       650 8.54647E-03-3.45773E-04-4.27265E-14
 -1       651 8.84228E-03-3.48982E-04-4.53267E-14
 -1       652 9.14318E-03-3.60401E-04-4.79758E-14
 -1       653 9.45129E-03-3.83513E-04-5.06712E-14
 -1       654 9.76885E-03-4.22364E-04-5.34073E-14
 -1       655 1.00975E-02-4.80938E-04-5.61745E-14
 -1       656 1.04367E-02-5.61428E-04-5.89770E-14
 -1       657 1.07817E-02-6.60256E-04-6.18184E-14
 -1       658 1.11243E-02-7.62666E-04-6.46952E-14
 -1       659 1.14553E-02-8.39321E-04-6.76040E-14
 -1       660 1.17766E-02-8.57938E-04-7.05463E-14
 -1       661 1.20974E-02-8.01758E-04-7.35170E-14
 -1       662 1.24275E-02-6.84703E-04-7.65157E-14
 -1       663 1.27684E-02-5.38052E-04-7.95461E-14
 -1       664 1.31115E-02-3.89840E-04-8.26148E-14
 -1       665 1.34476E-02-2.53275E-04-8.57051E-14
 -1       666 1.37713E-02-1.29332E-04-8.88245E-14
 -1       667 2.19069E-03 4.37584E-04-2.78941E-15
 -1       668 1.39158E-02 1.74463E-04-8.04811E-14
 -1       669 1.90570E-03 4.20809E-04-2.11270E-15
 -1       670 2.76013E-03 4.55484E-04-4.42457E-15
 -1       671 3.04481E-03 4.59358E-04-5.38092E-15
 -1       672 3.32955E-03 4.61132E-04-6.42730E-15
 -1       673 3.61440E-03 4.61450E-04-7.56333E-15
 -1       674 3.89938E-03 4.60763E-04-8.78762E-15
 -1       675 4.18449E-03 4.59367E-04-1.01007E-14
 -1       676 4.46975E-03 4.57441E-04-1.15003E-14
 -1       677 4.75514E-03 4.55067E-04-1.29833E-14
 -1       678 5.04067E-03 4.52259E-04-1.45519E-14
 -1       679 5.32636E-03 4.48974E-04-1.62034E-14
 -1       680 5.61223E-03 4.45129E-04-1.79362E-14
 -1       681 5.89829E-03 4.40617E-04-1.97463E-14
 -1       682 6.18459E-03 4.35325E-04-2.16299E-14
 -1       683 6.47117E-03 4.29148E-04-2.35897E-14
 -1       684 6.75809E-03 4.22025E-04-2.56177E-14
 -1       685 7.04541E-03 4.13966E-04-2.77137E-14
 -1       686 7.33322E-03 4.05111E-04-2.98773E-14
 -1       687 7.62159E-03 3.95798E-04-3.21031E-14
 -1       688 7.91064E-03 3.86655E-04-3.43908E-14
 -1       689 8.20057E-03 3.78733E-04-3.67364E-14
 -1       690 8.49171E-03 3.73661E-04-3.91348E-14
 -1       691 8.78469E-03 3.73853E-04-4.15835E-14
 -1       692 9.08076E-03 3.82754E-04-4.40803E-14
 -1       693 9.38220E-03 4.05151E-04-4.66276E-14
 -1       694 9.69288E-03 4.47574E-04-4.92222E-14
 -1       695 1.00186E-02 5.18747E-04-5.18643E-14
 -1       696 1.03659E-02 6.29459E-04-5.45543E-14
 -1       697 1.07393E-02 7.90656E-04-5.72870E-14
 -1       698 1.15367E-02 1.22516E-03-6.28243E-14
 -1       699 1.19107E-02 1.35820E-03-6.56773E-14
 -1       700 1.22793E-02 1.34987E-03-6.85595E-14
 -1       701 1.26590E-02 1.22241E-03-7.14762E-14
 -1       702 1.30482E-02 1.05669E-03-7.44165E-14
 -1       703 1.34273E-02 9.14178E-04-7.73820E-14
 -1       704 1.37833E-02 8.11694E-04-8.03558E-14
 -1       705 1.41151E-02 7.41896E-04-8.33464E-14
 -1       706 1.43948E-02 6.77113E-04-8.58077E-14
 -1       707 1.44039E-02 3.50604E-04-8.13655E-14
 -1       708 1.47696E-02 3.74208E-04-8.78620E-14
 -1       709 1.47286E-02 4.64129E-04-8.68820E-14
 -1       710 1.46754E-02 3.24809E-04-8.83464E-14
 -1       711 1.47874E-02 4.15667E-04-8.73697E-14
 -1       712 1.45283E-02 2.58666E-04-8.88044E-14
 -1       713 1.43515E-02 1.73026E-04-8.92619E-14
 -1       714 1.41707E-02 7.54912E-05-8.97090E-14
 -1       715 1.28872E-02 1.07414E-03-7.29036E-14
 -1       716 1.02376E-02-1.41486E-04-5.92920E-14
 -1       717 9.54785E-03 1.43346E-04-5.59100E-14
 -1       718 1.20844E-02 1.36520E-03-6.71059E-14
 -1       719 9.61617E-04-2.66801E-04-7.28252E-16
 -1       720 1.11065E-02-5.75681E-04-6.44259E-14
 -1       721 1.62035E-03 3.96307E-04-1.52952E-15
 -1       722 2.47546E-03 4.48623E-04-3.56014E-15
 -1       723 9.63373E-03 1.00834E-04-5.64215E-14
 -1       724 1.42178E-02 2.82967E-04-8.10833E-14
 -1       725 1.01560E-02 4.06536E-04-5.69460E-14
 -1       726 9.04222E-04 1.24646E-04-6.48278E-16
 -1       727 1.18582E-02-7.85980E-04-7.00596E-14
 -1       728 9.03852E-04-1.22238E-04-7.15553E-16
 -1       729 1.05729E-02 6.27478E-04-5.81626E-14
 -1       730 1.21682E-02-7.15245E-04-7.25237E-14
 -1       731 9.90234E-03-4.84643E-06-5.75229E-14
 -1       732 1.14656E-02-7.43201E-04-6.70319E-14
 -1       733 1.40599E-02 4.88586E-04-7.88098E-14
 -1       734 9.59679E-03 1.81621E-04-5.59087E-14
 -1       735 1.39792E-02-5.19490E-05-9.09579E-14
 -1       736 1.25799E-02-5.17767E-04-7.53357E-14
 -1       737 1.36578E-02 6.66762E-04-7.71778E-14
 -1       738 1.32885E-02 8.46390E-04-7.51772E-14
 -1       739 9.11285E-04-1.75659E-04-7.10241E-16
 -1       740 8.97623E-04-2.31644E-05-7.05345E-16
 -1       741 1.39525E-02 5.68644E-04-7.92546E-14
 -1       742 1.16509E-02-8.02178E-04-6.87116E-14
 -1       743 1.23756E-02-6.40300E-04-7.45909E-14
 -1       744 1.12188E-02 1.05475E-03-6.05248E-14
 -1       745 1.44315E-02 3.76760E-04-8.17194E-14
 -1       746 1.45363E-02 5.88209E-04-8.62928E-14
 -1       747 1.04380E-02-2.54722E-04-6.01410E-14
 -1       748 1.39676E-02-2.41452E-05-8.92689E-14
 -1       749 9.66147E-03 2.12561E-04-5.52575E-14
 -1       750 9.92939E-03 3.18104E-04-5.56491E-14
 -1       751 8.99568E-04-7.18452E-05-7.13290E-16
 -1       752 1.46429E-02 5.20112E-04-8.65903E-14
 -1       753 1.16156E-03 2.43706E-04-9.20088E-16
 -1       754 9.47905E-03 1.51909E-04-5.41936E-14
 -1       755 1.33380E-02-1.20128E-04-7.99950E-14
 -1       756 1.79732E-03-3.09582E-04-2.36838E-15
 -1       757 2.08499E-03-3.25682E-04-3.11251E-15
 -1       758 2.37279E-03-3.36472E-04-3.95332E-15
 -1       759 2.66049E-03-3.43300E-04-4.88931E-15
 -1       760 2.94800E-03-3.47246E-04-5.91809E-15
 -1       761 3.23527E-03-3.49146E-04-7.03829E-15
 -1       762 3.52229E-03-3.49617E-04-8.24866E-15
 -1       763 3.80909E-03-3.49102E-04-9.54636E-15
 -1       764 4.09567E-03-3.47899E-04-1.09280E-14
 -1       765 4.38206E-03-3.46195E-04-1.23948E-14
 -1       766 4.66827E-03-3.44088E-04-1.39469E-14
 -1       767 4.95431E-03-3.41608E-04-1.55836E-14
 -1       768 5.24019E-03-3.38732E-04-1.73059E-14
 -1       769 5.52588E-03-3.35404E-04-1.91075E-14
 -1       770 5.81137E-03-3.31540E-04-2.09908E-14
 -1       771 6.09664E-03-3.27052E-04-2.29562E-14
 -1       772 6.38163E-03-3.21855E-04-2.49996E-14
 -1       773 6.66632E-03-3.15898E-04-2.71171E-14
 -1       774 6.95067E-03-3.09180E-04-2.93069E-14
 -1       775 7.23467E-03-3.01791E-04-3.15670E-14
 -1       776 7.51838E-03-2.93952E-04-3.38951E-14
 -1       777 7.80195E-03-2.86064E-04-3.62875E-14
 -1       778 8.08573E-03-2.78778E-04-3.87360E-14
 -1       779 8.37034E-03-2.73071E-04-4.12415E-14
 -1       780 8.65687E-03-2.70347E-04-4.38009E-14
 -1       781 8.94703E-03-2.72589E-04-4.64111E-14
 -1       782 9.24339E-03-2.82583E-04-4.90679E-14
 -1       783 9.54943E-03-3.04252E-04-5.17652E-14
 -1       784 9.86928E-03-3.42986E-04-5.44967E-14
 -1       785 1.02058E-02-4.05453E-04-5.72671E-14
 -1       786 1.05614E-02-4.97008E-04-6.00753E-14
 -1       787 1.09262E-02-6.15243E-04-6.29205E-14
 -1       788 1.30573E-02-3.50932E-04-8.07073E-14
 -1       789 1.34143E-02-2.08104E-04-8.37795E-14
 -1       790 1.36984E-02-1.11438E-04-8.65169E-14
 -1       791 3.18005E-03 3.85772E-04-6.05260E-15
 -1       792 2.89348E-03 3.83255E-04-5.03985E-15
 -1       793 3.75274E-03 3.86444E-04-8.34609E-15
 -1       794 4.03891E-03 3.85441E-04-9.62446E-15
 -1       795 4.32497E-03 3.83878E-04-1.09896E-14
 -1       796 4.61095E-03 3.81873E-04-1.24383E-14
 -1       797 4.89686E-03 3.79468E-04-1.39712E-14
 -1       798 5.18270E-03 3.76647E-04-1.55877E-14
 -1       799 5.46846E-03 3.73352E-04-1.72870E-14
 -1       800 5.75414E-03 3.69494E-04-1.90643E-14
 -1       801 6.03970E-03 3.64971E-04-2.09182E-14
 -1       802 6.32510E-03 3.59684E-04-2.28464E-14
 -1       803 6.61030E-03 3.53555E-04-2.48479E-14
 -1       804 6.89519E-03 3.46562E-04-2.69198E-14
 -1       805 7.17966E-03 3.38771E-04-2.90592E-14
 -1       806 7.46358E-03 3.30389E-04-3.12654E-14
 -1       807 7.74676E-03 3.21825E-04-3.35336E-14
 -1       808 8.02903E-03 3.13775E-04-3.58594E-14
 -1       809 8.31029E-03 3.07307E-04-3.82422E-14
 -1       810 8.59062E-03 3.03975E-04-4.06772E-14
 -1       811 8.87055E-03 3.05942E-04-4.31609E-14
 -1       812 9.15149E-03 3.16164E-04-4.56916E-14
 -1       813 9.43645E-03 3.38763E-04-4.82726E-14
 -1       814 9.73107E-03 3.79913E-04-5.08962E-14
 -1       815 1.00448E-02 4.49937E-04-5.35668E-14
 -1       816 1.37566E-02 7.30341E-04-7.92720E-14
 -1       817 1.40917E-02 6.67173E-04-8.22691E-14
 -1       818 1.43202E-02 6.22216E-04-8.42790E-14
 -1       819 1.43837E-02 2.63614E-04-8.58961E-14
 -1       820 1.11957E-02-6.74318E-04-6.49861E-14
 -1       821 1.45382E-02 3.32068E-04-8.54315E-14
 -1       822 1.16414E-03-2.45693E-04-1.07805E-15
 -1       823 9.99786E-03-9.94293E-05-5.71890E-14
 -1       824 9.66016E-03 4.31198E-05-5.55041E-14
 -1       825 1.41877E-02 1.66931E-04-8.63472E-14
 -1       826 1.39884E-02 5.27061E-05-8.67912E-14
 -1       827 1.37562E-02 7.91253E-05-8.15982E-14
 -1       828 1.28276E-02-4.09097E-04-7.77687E-14
 -1       829 3.46647E-03 3.86668E-04-7.15559E-15
 -1       830 1.41583E-02 2.39502E-04-8.26776E-14
 -1       831 2.03275E-03 3.57753E-04-2.54947E-15
 -1       832 9.48199E-03 1.08219E-04-5.43427E-14
 -1       833 1.19641E-02-7.94452E-04-7.15340E-14
 -1       834 1.51022E-03-2.86593E-04-1.72378E-15
 -1       835 1.24624E-03 3.00903E-04-9.84588E-16
 -1       836 1.42919E-02 4.45811E-04-8.10826E-14
 -1       837 1.08363E-02-4.83620E-04-6.24136E-14
 -1       838 1.13828E-03 5.90717E-05-1.04240E-15
 -1       839 1.44252E-02 3.27628E-04-8.33213E-14
 -1       840 1.13691E-03 1.19546E-06-1.06533E-15
 -1       841 1.42227E-02 5.09620E-04-8.15260E-14
 -1       842 9.49914E-03 1.76246E-04-5.35507E-14
 -1       843 2.60673E-03 3.78419E-04-4.11712E-15
 -1       844 1.26719E-02-5.20304E-04-7.74336E-14
 -1       845 2.31980E-03 3.70325E-04-3.28669E-15
 -1       846 1.14982E-03 1.79176E-04-9.71564E-16
 -1       847 1.45765E-02 4.25822E-04-8.45305E-14
 -1       848 1.05600E-02-3.83198E-04-6.04137E-14
 -1       849 1.46075E-02 3.79085E-04-8.49595E-14
 -1       850 1.44874E-02 4.83225E-04-8.42514E-14
 -1       851 9.72939E-03-3.32500E-05-5.51717E-14
 -1       852 1.74570E-03 3.39179E-04-1.90461E-15
 -1       853 1.01713E-02-1.90866E-04-5.80244E-14
 -1       854 1.49560E-03 3.24195E-04-1.40655E-15
 -1       855 1.14205E-03-1.15229E-04-1.08786E-15
 -1       856 1.14238E-03 1.17953E-04-1.01170E-15
 -1       857 1.14924E-03-1.76148E-04-1.08688E-15
 -1       858 1.00886E-02 4.13452E-04-5.51561E-14
 -1       859 1.38402E-02-2.81188E-05-8.66545E-14
 -1       860 1.45265E-02 3.64761E-04-8.37683E-14
 -1       861 2.21838E-03-2.58956E-04-3.52816E-15
 -1       862 2.50747E-03-2.66255E-04-4.41251E-15
 -1       863 2.79649E-03-2.70718E-04-5.38973E-15
 -1       864 3.08526E-03-2.73128E-04-6.45925E-15
 -1       865 3.37368E-03-2.74085E-04-7.61769E-15
 -1       866 3.66171E-03-2.74032E-04-8.86260E-15
 -1       867 3.94935E-03-2.73278E-04-1.01933E-14
 -1       868 4.23660E-03-2.72028E-04-1.16081E-14
 -1       869 4.52348E-03-2.70400E-04-1.31081E-14
 -1       870 4.81000E-03-2.68445E-04-1.46921E-14
 -1       871 5.09616E-03-2.66166E-04-1.63611E-14
 -1       872 5.38193E-03-2.63524E-04-1.81147E-14
 -1       873 5.66727E-03-2.60456E-04-1.99467E-14
 -1       874 5.95211E-03-2.56881E-04-2.18589E-14
 -1       875 6.23637E-03-2.52713E-04-2.38530E-14
 -1       876 6.51994E-03-2.47875E-04-2.59224E-14
 -1       877 6.80268E-03-2.42314E-04-2.80638E-14
 -1       878 7.08447E-03-2.36022E-04-3.02748E-14
 -1       879 7.36520E-03-2.29060E-04-3.25564E-14
 -1       880 7.64483E-03-2.21589E-04-3.49066E-14
 -1       881 7.92345E-03-2.13907E-04-3.73141E-14
 -1       882 8.20135E-03-2.06494E-04-3.97755E-14
 -1       883 8.47922E-03-2.00085E-04-4.22943E-14
 -1       884 8.75832E-03-1.95776E-04-4.48641E-14
 -1       885 9.04079E-03-1.95249E-04-4.74833E-14
 -1       886 9.33001E-03-2.01205E-04-5.01430E-14
 -1       887 9.63103E-03-2.18187E-04-5.28386E-14
 -1       888 9.95080E-03-2.53612E-04-5.55737E-14
 -1       889 3.02950E-03 3.09698E-04-5.67361E-15
 -1       890 4.17934E-03 3.09731E-04-1.04757E-14
 -1       891 3.89235E-03 3.10861E-04-9.14429E-15
 -1       892 4.75245E-03 3.06245E-04-1.33889E-14
 -1       893 5.03859E-03 3.03971E-04-1.49714E-14
 -1       894 5.32444E-03 3.01313E-04-1.66364E-14
 -1       895 5.60996E-03 2.98210E-04-1.83802E-14
 -1       896 5.89508E-03 2.94579E-04-2.02036E-14
 -1       897 6.17972E-03 2.90338E-04-2.21039E-14
 -1       898 6.46373E-03 2.85415E-04-2.40749E-14
 -1       899 6.74693E-03 2.79776E-04-2.61195E-14
 -1       900 7.02908E-03 2.73449E-04-2.82369E-14
 -1       901 7.30987E-03 2.66562E-04-3.04205E-14
 -1       902 7.58893E-03 2.59381E-04-3.26696E-14
 -1       903 7.86582E-03 2.52366E-04-3.49776E-14
 -1       904 8.14006E-03 2.46211E-04-3.73405E-14
 -1       905 8.41120E-03 2.41894E-04-3.97570E-14
 -1       906 8.67891E-03 2.40697E-04-4.22287E-14
 -1       907 8.94327E-03 2.44234E-04-4.47472E-14
 -1       908 9.20520E-03 2.54556E-04-4.73134E-14
 -1       909 9.46726E-03 2.74597E-04-4.99218E-14
 -1       910 9.73531E-03 3.09819E-04-5.25744E-14
 -1       911 1.38074E-02 4.03872E-05-8.38873E-14
 -1       912 1.41263E-02 5.96507E-04-8.17705E-14
 -1       913 1.33936E-02-1.48214E-04-8.18614E-14
 -1       914 1.40754E-02 1.66868E-04-8.43179E-14
 -1       915 9.43878E-03 5.44153E-05-5.30849E-14
 -1       916 9.32533E-03 1.17367E-04-5.19701E-14
 -1       917 1.13812E-03-5.65348E-05-1.08048E-15
 -1       918 4.46603E-03 3.08169E-04-1.18907E-14
 -1       919 2.16425E-03 2.92131E-04-3.00754E-15
 -1       920 9.65741E-03 2.49130E-04-5.33096E-14
 -1       921 1.92958E-03-2.47849E-04-2.73846E-15
 -1       922 1.41045E-03 2.66034E-04-1.32928E-15
 -1       923 1.44051E-02 5.49007E-04-8.42664E-14
 -1       924 1.64162E-03-2.31823E-04-2.04582E-15
 -1       925 1.39421E-03-2.05857E-04-1.52978E-15
 -1       926 9.30917E-03 1.40878E-04-5.13370E-14
 -1       927 2.74126E-03 3.06546E-04-4.69336E-15
 -1       928 3.60505E-03 3.11415E-04-7.89946E-15
 -1       929 3.31744E-03 3.11148E-04-6.74267E-15
 -1       930 9.46898E-03-6.49825E-06-5.27522E-14
 -1       931 2.45279E-03 3.00993E-04-3.80405E-15
 -1       932 1.36234E-02-8.33114E-05-8.42510E-14
 -1       933 1.87594E-03 2.78837E-04-2.30342E-15
 -1       934 1.38107E-03 3.41214E-05-1.48985E-15
 -1       935 9.85668E-03-1.32272E-04-5.54782E-14
 -1       936 1.38425E-03 1.00020E-04-1.45442E-15
 -1       937 1.38393E-03-9.71244E-05-1.52995E-15
 -1       938 1.38786E-03-1.50806E-04-1.53341E-15
 -1       939 2.35535E-03-1.89815E-04-3.94953E-15
 -1       940 2.64537E-03-1.94233E-04-4.87503E-15
 -1       941 2.93528E-03-1.96807E-04-5.89271E-15
 -1       942 3.22488E-03-1.98054E-04-6.99964E-15
 -1       943 3.51402E-03-1.98366E-04-8.19346E-15
 -1       944 3.80265E-03-1.98028E-04-9.47245E-15
 -1       945 4.09076E-03-1.97237E-04-1.08359E-14
 -1       946 4.37836E-03-1.96113E-04-1.22846E-14
 -1       947 4.66544E-03-1.94722E-04-1.38173E-14
 -1       948 4.95200E-03-1.93081E-04-1.54346E-14
 -1       949 5.23802E-03-1.91173E-04-1.71355E-14
 -1       950 5.52344E-03-1.88957E-04-1.89195E-14
 -1       951 5.80818E-03-1.86369E-04-2.07795E-14
 -1       952 6.09212E-03-1.83335E-04-2.27219E-14
 -1       953 6.37510E-03-1.79777E-04-2.47420E-14
 -1       954 6.65692E-03-1.75618E-04-2.68368E-14
 -1       955 6.93736E-03-1.70797E-04-2.90021E-14
 -1       956 7.21619E-03-1.65276E-04-3.12378E-14
 -1       957 7.49316E-03-1.59054E-04-3.35416E-14
 -1       958 7.76812E-03-1.52182E-04-3.59071E-14
 -1       959 8.04099E-03-1.44782E-04-3.83286E-14
 -1       960 8.31192E-03-1.37071E-04-4.08059E-14
 -1       961 8.58145E-03-1.29422E-04-4.33362E-14
 -1       962 8.85068E-03-1.22467E-04-4.59158E-14
 -1       963 9.12178E-03-1.17440E-04-4.85408E-14
 -1       964 9.39852E-03-1.16657E-04-5.12042E-14
 -1       965 4.03315E-03 2.34952E-04-9.95698E-15
 -1       966 1.44674E-03 1.93756E-04-1.48850E-15
 -1       967 5.18032E-03 2.28833E-04-1.59839E-14
 -1       968 4.89422E-03 2.30801E-04-1.43528E-14
 -1       969 5.75089E-03 2.23862E-04-1.94865E-14
 -1       970 6.03516E-03 2.20744E-04-2.13561E-14
 -1       971 6.31854E-03 2.17130E-04-2.33007E-14
 -1       972 6.60079E-03 2.12991E-04-2.53179E-14
 -1       973 6.88159E-03 2.08341E-04-2.74081E-14
 -1       974 7.16056E-03 2.03267E-04-2.95696E-14
 -1       975 7.43722E-03 1.97954E-04-3.17990E-14
 -1       976 7.71095E-03 1.92717E-04-3.40887E-14
 -1       977 7.98107E-03 1.88033E-04-3.64309E-14
 -1       978 8.24676E-03 1.84549E-04-3.88281E-14
 -1       979 8.50709E-03 1.83076E-04-4.12852E-14
 -1       980 8.76106E-03 1.84536E-04-4.37923E-14
 -1       981 9.00762E-03 1.89856E-04-4.63448E-14
 -1       982 9.24594E-03 1.99977E-04-4.89409E-14
 -1       983 9.44996E-03 2.20195E-04-5.11092E-14
 -1       984 1.38098E-03-3.12651E-05-1.51502E-15
 -1       985 1.77682E-03-1.72769E-04-2.37994E-15
 -1       986 2.29954E-03 2.24047E-04-3.48764E-15
 -1       987 9.21720E-03 6.63854E-05-5.05048E-14
 -1       988 1.64270E-03 2.75377E-04-1.78340E-15
 -1       989 2.06564E-03-1.82899E-04-3.11729E-15
 -1       990 5.46590E-03 2.26538E-04-1.76958E-14
 -1       991 9.57286E-03-7.57946E-05-5.31824E-14
 -1       992 9.16925E-03 9.38217E-05-4.98808E-14
 -1       993 2.87872E-03 2.33239E-04-5.28889E-15
 -1       994 3.74522E-03 2.35630E-04-8.65962E-15
 -1       995 2.58917E-03 2.29775E-04-4.34225E-15
 -1       996 4.32062E-03 2.33873E-04-1.13390E-14
 -1       997 1.62759E-03 1.56533E-06-2.01273E-15
 -1       998 1.58174E-03-1.62777E-04-1.93408E-15
 -1       999 3.16797E-03 2.35069E-04-6.32479E-15
 -1      1000 1.62913E-03-7.01495E-05-2.03847E-15
 -1      1001 9.21109E-03 1.74614E-05-5.01744E-14
 -1      1002 2.01020E-03 2.15267E-04-2.72495E-15
 -1      1003 1.62934E-03 7.32848E-05-1.97485E-15
 -1      1004 4.60764E-03 2.32478E-04-1.28039E-14
 -1      1005 2.20507E-03-1.14908E-04-3.50278E-15
 -1      1006 2.49547E-03-1.18468E-04-4.37515E-15
 -1      1007 2.78609E-03-1.20655E-04-5.34050E-15
 -1      1008 3.07653E-03-1.21836E-04-6.39579E-15
 -1      1009 3.36654E-03-1.22297E-04-7.53838E-15
 -1      1010 3.65602E-03-1.22254E-04-8.76579E-15
 -1      1011 3.94491E-03-1.21861E-04-1.00780E-14
 -1      1012 4.23317E-03-1.21217E-04-1.14756E-14
 -1      1013 4.52083E-03-1.20383E-04-1.29587E-14
 -1      1014 4.80786E-03-1.19381E-04-1.45254E-14
 -1      1015 5.09424E-03-1.18212E-04-1.61724E-14
 -1      1016 5.37992E-03-1.16852E-04-1.79060E-14
 -1      1017 5.66482E-03-1.15261E-04-1.97174E-14
 -1      1018 5.94879E-03-1.13387E-04-2.16071E-14
 -1      1019 6.23167E-03-1.11165E-04-2.35786E-14
 -1      1020 6.51321E-03-1.08522E-04-2.56253E-14
 -1      1021 6.79314E-03-1.05382E-04-2.77444E-14
 -1      1022 7.07112E-03-1.01658E-04-2.99356E-14
 -1      1023 7.34679E-03-9.72654E-05-3.21926E-14
 -1      1024 7.61976E-03-9.21114E-05-3.45166E-14
 -1      1025 7.88967E-03-8.61008E-05-3.68969E-14
 -1      1026 8.15618E-03-7.91338E-05-3.93317E-14
 -1      1027 8.41909E-03-7.11175E-05-4.18230E-14
 -1      1028 8.67841E-03-6.19744E-05-4.43649E-14
 -1      1029 8.93466E-03-5.18523E-05-4.69540E-14
 -1      1030 9.24374E-03-5.82260E-05-5.00411E-14
 -1      1031 1.67971E-03 1.97541E-04-1.96651E-15
 -1      1032 4.74974E-03 1.57036E-04-1.37311E-14
 -1      1033 3.45682E-03 2.35750E-04-7.44909E-15
 -1      1034 6.17465E-03 1.48288E-04-2.25239E-14
 -1      1035 5.89143E-03 1.50586E-04-2.06065E-14
 -1      1036 6.73691E-03 1.42750E-04-2.65788E-14
 -1      1037 7.01520E-03 1.39594E-04-2.87161E-14
 -1      1038 7.29094E-03 1.36342E-04-3.09215E-14
 -1      1039 7.56348E-03 1.33229E-04-3.31921E-14
 -1      1040 7.83207E-03 1.30604E-04-3.55179E-14
 -1      1041 8.09573E-03 1.28943E-04-3.78974E-14
 -1      1042 8.35333E-03 1.28830E-04-4.03340E-14
 -1      1043 8.60341E-03 1.30947E-04-4.28280E-14
 -1      1044 8.84402E-03 1.35907E-04-4.53663E-14
 -1      1045 9.07256E-03 1.44261E-04-4.79511E-14
 -1      1046 5.32205E-03 1.54295E-04-1.70086E-14
 -1      1047 1.87716E-03-3.65289E-05-2.60973E-15
 -1      1048 6.45659E-03 1.45671E-04-2.45152E-14
 -1      1049 5.03621E-03 1.55771E-04-1.53299E-14
 -1      1050 1.65321E-03 1.34626E-04-1.97581E-15
 -1      1051 5.60717E-03 1.52578E-04-1.87688E-14
 -1      1052 2.43816E-03 1.53669E-04-3.98865E-15
 -1      1053 2.72854E-03 1.56894E-04-4.89993E-15
 -1      1054 3.88679E-03 1.59570E-04-9.43379E-15
 -1      1055 1.85187E-03-1.34381E-04-2.56605E-15
 -1      1056 1.87727E-03 3.98843E-05-2.57050E-15
 -1      1057 2.14802E-03 1.48599E-04-3.16841E-15
 -1      1058 4.17501E-03 1.58961E-04-1.07831E-14
 -1      1059 9.01636E-03 4.41959E-05-4.80697E-14
 -1      1060 3.01877E-03 1.58756E-04-5.90243E-15
 -1      1061 4.46266E-03 1.58102E-04-1.22157E-14
 -1      1062 2.34750E-03-4.41653E-05-3.89260E-15
 -1      1063 4.60533E-03 8.26380E-05-1.31064E-14
 -1      1064 2.63836E-03-4.52420E-05-4.80416E-15
 -1      1065 2.92926E-03-4.58422E-05-5.80654E-15
 -1      1066 3.21984E-03-4.61109E-05-6.89722E-15
 -1      1067 3.50992E-03-4.61490E-05-8.07381E-15
 -1      1068 3.79941E-03-4.60178E-05-9.33553E-15
 -1      1069 4.08823E-03-4.57727E-05-1.06815E-14
 -1      1070 4.37639E-03-4.54407E-05-1.21139E-14
 -1      1071 4.66387E-03-4.50379E-05-1.36309E-14
 -1      1072 4.95066E-03-4.45669E-05-1.52281E-14
 -1      1073 5.23671E-03-4.40193E-05-1.69077E-14
 -1      1074 5.52194E-03-4.33769E-05-1.86691E-14
 -1      1075 5.80622E-03-4.26117E-05-2.05089E-14
 -1      1076 6.08939E-03-4.16849E-05-2.24312E-14
 -1      1077 6.37118E-03-4.05453E-05-2.44302E-14
 -1      1078 6.65131E-03-3.91255E-05-2.65003E-14
 -1      1079 6.92940E-03-3.73378E-05-2.86460E-14
 -1      1080 7.20501E-03-3.50668E-05-3.08618E-14
 -1      1081 7.47762E-03-3.21617E-05-3.31394E-14
 -1      1082 7.74667E-03-2.84262E-05-3.54781E-14
 -1      1083 8.01152E-03-2.36082E-05-3.78726E-14
 -1      1084 8.27146E-03-1.73910E-05-4.03240E-14
 -1      1085 8.52567E-03-9.45176E-06-4.28277E-14
 -1      1086 8.77346E-03 7.36740E-07-4.53819E-14
 -1      1087 8.91540E-03 8.96301E-05-4.67152E-14
 -1      1088 6.03183E-03 7.85802E-05-2.17422E-14
 -1      1089 5.74838E-03 7.96317E-05-1.98548E-14
 -1      1090 5.46386E-03 8.05554E-05-1.80479E-14
 -1      1091 7.14901E-03 7.36114E-05-3.00388E-14
 -1      1092 6.87301E-03 7.48345E-05-2.78566E-14
 -1      1093 7.69098E-03 7.22142E-05-3.45947E-14
 -1      1094 7.95534E-03 7.26770E-05-3.69607E-14
 -1      1095 8.21392E-03 7.45135E-05-3.93791E-14
 -1      1096 8.46523E-03 7.82275E-05-4.18534E-14
 -1      1097 8.69551E-03 8.24771E-05-4.42632E-14
 -1      1098 6.59450E-03 7.61370E-05-2.57460E-14
 -1      1099 6.31398E-03 7.74062E-05-2.37075E-14
 -1      1100 5.17844E-03 8.13581E-05-1.63184E-14
 -1      1101 3.59800E-03 1.59847E-04-8.17106E-15
 -1      1102 7.42191E-03 7.26487E-05-3.22870E-14
 -1      1103 1.90004E-03 1.42735E-04-2.53883E-15
 -1      1104 4.89224E-03 8.20498E-05-1.46730E-14
 -1      1105 2.57972E-03 8.12751E-05-4.50975E-15
 -1      1106 4.31776E-03 8.31217E-05-1.16237E-14
 -1      1107 1.88790E-03 9.10957E-05-2.55796E-15
 -1      1108 8.72743E-03 4.28244E-05-4.48245E-14
 -1      1109 3.30863E-03 1.59643E-04-6.99349E-15
 -1      1110 3.74065E-03 8.36923E-05-8.90762E-15
 -1      1111 2.28901E-03 7.90601E-05-3.63321E-15
 -1      1112 4.02953E-03 8.34857E-05-1.02231E-14
 -1      1113 2.87053E-03 8.26371E-05-5.47720E-15
 -1      1114 3.36484E-03 3.00442E-05-7.39604E-15
 -1      1115 2.12751E-03 1.76824E-06-3.24103E-15
 -1      1116 3.07444E-03 2.98479E-05-6.27146E-15
 -1      1117 0.00000E+00 0.00000E+00 0.00000E+00
 -1      1118 0.00000E+00 0.00000E+00 0.00000E+00
 -1      1119 0.00000E+00 0.00000E+00 0.00000E+00
 -1      1120 0.00000E+00 0.00000E+00 0.00000E+00
 -1      1121 0.00000E+00 0.00000E+00 0.00000E+00
 -1      1122 0.00000E+00 0.00000E+00 0.00000E+00
 -1      1123 0.00000E+00 0.00000E+00 0.00000E+00
 -1      1124 0.00000E+00 0.00000E+00 0.00000E+00
 -1      1125 0.00000E+00 0.00000E+00 0.00000E+00
 -1      1126 0.00000E+00 0.00000E+00 0.00000E+00
 -1      1127 0.00000E+00 0.00000E+00 0.00000E+00
 -1      1128 0.00000E+00 0.00000E+00 0.00000E+00
 -1      1129 0.00000E+00 0.00000E+00 0.00000E+00
 -1      1130 0.00000E+00 0.00000E+00 0.00000E+00
 -1      1131 0.00000E+00 0.00000E+00 0.00000E+00
 -1      1132 0.00000E+00 0.00000E+00 0.00000E+00
 -1      1133 0.00000E+00 0.00000E+00 0.00000E+00
 -1      1134 2.11676E-04-1.48336E-04 7.48099E-18
 -1      1135 5.51664E-04-3.37524E-04-5.25703E-17
 -1      1136 8.33503E-04-4.59025E-04-2.21177E-16
 -1      1137 1.10310E-03-5.40720E-04-5.13966E-16
 -1      1138 1.36854E-03-5.97990E-04-9.23998E-16
 -1      1139 1.63337E-03-6.38723E-04-1.44741E-15
 -1      1140 1.89945E-03-6.67569E-04-2.08374E-15
 -1      1141 2.16763E-03-6.87650E-04-2.82878E-15
 -1      1142 2.43819E-03-7.01251E-04-3.67928E-15
 -1      1143 2.71113E-03-7.10095E-04-4.63444E-15
 -1      1144 2.98628E-03-7.15485E-04-5.69420E-15
 -1      1145 3.26340E-03-7.18397E-04-6.85370E-15
 -1      1146 3.54221E-03-7.19553E-04-8.10747E-15
 -1      1147 3.82244E-03-7.19469E-04-9.45045E-15
 -1      1148 4.10384E-03-7.18501E-04-1.08785E-14
 -1      1149 4.38620E-03-7.16880E-04-1.23957E-14
 -1      1150 4.66936E-03-7.14738E-04-1.40003E-14
 -1      1151 4.95320E-03-7.12131E-04-1.56901E-14
 -1      1152 5.23767E-03-7.09064E-04-1.74619E-14
 -1      1153 5.52278E-03-7.05501E-04-1.93226E-14
 -1      1154 5.80862E-03-7.01390E-04-2.12695E-14
 -1      1155 6.09535E-03-6.96680E-04-2.33000E-14
 -1      1156 6.38325E-03-6.91347E-04-2.54090E-14
 -1      1157 6.67270E-03-6.85424E-04-2.75964E-14
 -1      1158 6.96419E-03-6.79040E-04-2.98606E-14
 -1      1159 7.25834E-03-6.72480E-04-3.21954E-14
 -1      1160 7.55590E-03-6.66245E-04-3.45947E-14
 -1      1161 7.85769E-03-6.61134E-04-3.70540E-14
 -1      1162 8.16457E-03-6.58342E-04-3.95781E-14
 -1      1163 8.47729E-03-6.59538E-04-4.21622E-14
 -1      1164 8.79630E-03-6.66918E-04-4.48011E-14
 -1      1165 9.12146E-03-6.83159E-04-4.74955E-14
 -1      1166 9.45162E-03-7.11173E-04-5.02455E-14
 -1      1167 9.78422E-03-7.53530E-04-5.30440E-14
 -1      1168 1.01150E-02-8.11426E-04-5.58768E-14
 -1      1169 1.04379E-02-8.83193E-04-5.87308E-14
 -1      1170 1.07465E-02-9.62738E-04-6.16044E-14
 -1      1171 1.10352E-02-1.03879E-03-6.45030E-14
 -1      1172 1.13023E-02-1.09617E-03-6.74234E-14
 -1      1173 1.15515E-02-1.11959E-03-7.03726E-14
 -1      1174 1.17918E-02-1.09898E-03-7.33567E-14
 -1      1175 1.20343E-02-1.03336E-03-7.63743E-14
 -1      1176 1.22880E-02-9.30903E-04-7.94303E-14
 -1      1177 1.25568E-02-8.04961E-04-8.25174E-14
 -1      1178 1.28389E-02-6.68620E-04-8.56308E-14
 -1      1179 1.31291E-02-5.30693E-04-8.87566E-14
 -1      1180 1.34215E-02-3.94452E-04-9.19069E-14
 -1      1181 1.37120E-02-2.58710E-04-9.50823E-14
 -1      1182 1.39990E-02-1.20322E-04-9.82698E-14
 -1      1183 1.42770E-02 1.85628E-05-1.01405E-13
 -1      1184 2.28436E-04 1.60715E-04 2.86229E-17
 -1      1185 5.53838E-04 3.42157E-04 2.33375E-17
 -1      1186 8.34435E-04 4.61195E-04-7.04054E-17
 -1      1187 1.10400E-03 5.42410E-04-2.64938E-16
 -1      1188 1.36944E-03 5.99671E-04-5.61712E-16
 -1      1189 1.63432E-03 6.40492E-04-9.59817E-16
 -1      1190 1.90046E-03 6.69445E-04-1.45878E-15
 -1      1191 2.16867E-03 6.89646E-04-2.05584E-15
 -1      1192 2.43926E-03 7.03375E-04-2.75007E-15
 -1      1193 2.71222E-03 7.12352E-04-3.53874E-15
 -1      1194 2.98738E-03 7.17878E-04-4.42560E-15
 -1      1195 3.26451E-03 7.20928E-04-5.40563E-15
 -1      1196 3.54332E-03 7.22221E-04-6.47606E-15
 -1      1197 3.82354E-03 7.22274E-04-7.63944E-15
 -1      1198 4.10494E-03 7.21442E-04-8.89576E-15
 -1      1199 4.38729E-03 7.19952E-04-1.02453E-14
 -1      1200 4.67043E-03 7.17935E-04-1.16827E-14
 -1      1201 4.95424E-03 7.15443E-04-1.32043E-14
 -1      1202 5.23867E-03 7.12469E-04-1.48111E-14
 -1      1203 5.52373E-03 7.08968E-04-1.65020E-14
 -1      1204 5.80951E-03 7.04864E-04-1.82708E-14
 -1      1205 6.09619E-03 7.00078E-04-2.01130E-14
 -1      1206 6.38406E-03 6.94538E-04-2.20274E-14
 -1      1207 6.67355E-03 6.88214E-04-2.40139E-14
 -1      1208 6.96525E-03 6.81152E-04-2.60606E-14
 -1      1209 7.25995E-03 6.73529E-04-2.81715E-14
 -1      1210 7.55866E-03 6.65729E-04-3.03414E-14
 -1      1211 7.86267E-03 6.58452E-04-3.25764E-14
 -1      1212 8.17354E-03 6.52871E-04-3.48732E-14
 -1      1213 8.49309E-03 6.50841E-04-3.72251E-14
 -1      1214 8.82329E-03 6.55176E-04-3.96301E-14
 -1      1215 9.16591E-03 6.69964E-04-4.20786E-14
 -1      1216 9.52206E-03 7.00811E-04-4.45768E-14
 -1      1217 9.89112E-03 7.54761E-04-4.71217E-14
 -1      1218 1.02694E-02 8.39322E-04-4.97211E-14
 -1      1219 1.06487E-02 9.59791E-04-5.23741E-14
 -1      1220 1.10158E-02 1.11436E-03-5.50824E-14
 -1      1221 1.13549E-02 1.28802E-03-5.78473E-14
 -1      1222 1.16544E-02 1.45003E-03-6.06525E-14
 -1      1223 1.19164E-02 1.56121E-03-6.35037E-14
 -1      1224 1.21593E-02 1.59195E-03-6.63742E-14
 -1      1225 1.24102E-02 1.53951E-03-6.92594E-14
 -1      1226 1.26892E-02 1.42904E-03-7.21680E-14
 -1      1227 1.29996E-02 1.29733E-03-7.51052E-14
 -1      1228 1.33309E-02 1.17365E-03-7.80584E-14
 -1      1229 1.36671E-02 1.07102E-03-8.10177E-14
 -1      1230 1.39949E-02 9.87888E-04-8.39872E-14
 -1      1231 1.43071E-02 9.14170E-04-8.69659E-14
 -1      1232 1.46031E-02 8.37427E-04-8.99373E-14
 -1      1233 1.48822E-02 7.51923E-04-9.28333E-14
 -1      1234 1.50641E-02 6.64803E-04-9.44892E-14
 -1      1235 1.51639E-02 5.81340E-04-9.49977E-14
 -1      1236 1.52755E-02 5.08328E-04-9.55096E-14
 -1      1237 1.53930E-02 4.54042E-04-9.60388E-14
 -1      1238 1.55044E-02 4.23594E-04-9.65967E-14
 -1      1239 1.55941E-02 4.18030E-04-9.71653E-14
 -1      1240 1.56488E-02 4.33265E-04-9.77607E-14
 -1      1241 1.56570E-02 4.61037E-04-9.83405E-14
 -1      1242 1.56139E-02 4.89454E-04-9.88893E-14
 -1      1243 1.55235E-02 5.06772E-04-9.94275E-14
 -1      1244 1.53963E-02 5.04566E-04-9.99449E-14
 -1      1245 1.52477E-02 4.79748E-04-1.00450E-13
 -1      1246 1.50893E-02 4.33676E-04-1.00942E-13
 -1      1247 1.49289E-02 3.70017E-04-1.01408E-13
 -1      1248 1.47733E-02 2.94518E-04-1.01846E-13
 -1      1249 1.46245E-02 2.12466E-04-1.02290E-13
 -1      1250 1.44822E-02 1.28651E-04-1.02733E-13
 -1      1251 1.42828E-02 4.05936E-04-7.48663E-14
 -1      1252 1.41614E-02 5.78001E-04-7.43744E-14
 -1      1253 1.39244E-02 7.50608E-04-7.35645E-14
 -1      1254 1.36066E-02 9.12676E-04-7.25122E-14
 -1      1255 1.32308E-02 1.05745E-03-7.12870E-14
 -1      1256 1.28156E-02 1.17242E-03-6.99498E-14
 -1      1257 1.23770E-02 1.24027E-03-6.85437E-14
 -1      1258 1.19131E-02 1.24715E-03-6.70799E-14
 -1      1259 1.14531E-02 1.18750E-03-6.56815E-14
 -1      1260 1.10016E-02 1.06763E-03-6.43797E-14
 -1      1261 1.05794E-02 9.08922E-04-6.32463E-14
 -1      1262 1.02286E-02 7.39829E-04-6.23904E-14
 -1      1263 9.93192E-03 5.59160E-04-6.17588E-14
 -1      1264 9.72790E-03 3.82271E-04-6.14243E-14
 -1      1265 9.64532E-03 2.26284E-04-6.14113E-14
 -1      1266 9.67314E-03 7.42559E-05-6.16856E-14
 -1      1267 9.81105E-03-7.92634E-05-6.22430E-14
 -1      1268 1.00521E-02-2.35577E-04-6.30662E-14
 -1      1269 1.03738E-02-3.86218E-04-6.41265E-14
 -1      1270 1.07805E-02-5.27870E-04-6.54661E-14
 -1      1271 1.12196E-02-6.33240E-04-6.69153E-14
 -1      1272 1.16367E-02-6.81830E-04-6.82818E-14
 -1      1273 1.20998E-02-6.76024E-04-6.97712E-14
 -1      1274 1.25622E-02-6.11024E-04-7.11830E-14
 -1      1275 1.30008E-02-4.95083E-04-7.24163E-14
 -1      1276 1.34210E-02-3.40802E-04-7.34796E-14
 -1      1277 1.38014E-02-1.59802E-04-7.43099E-14
 -1      1278 1.41031E-02 3.65366E-05-7.48420E-14
 -1      1279 1.42690E-02 2.27943E-04-7.50278E-14
 -1      1280 1.66707E-04-1.10344E-04-9.50032E-18
 -1      1281 1.12545E-04-5.69757E-05-2.77691E-17
 -1      1282 1.17627E-04-6.75837E-05-2.26598E-17
 -1      1283 1.08427E-04-4.34936E-05-3.59955E-17
 -1      1284 1.10289E-04-4.96080E-05-3.36374E-17
 -1      1285 2.26337E-04-1.07628E-04-7.91603E-17
 -1      1286 1.06841E-04-3.36086E-05-4.00342E-17
 -1      1287 1.07690E-04-3.83328E-05-3.89500E-17
 -1      1288 2.19115E-04-8.24610E-05-9.34040E-17
 -1      1289 1.06058E-04-2.53555E-05-4.21890E-17
 -1      1290 1.06489E-04-2.93861E-05-4.17553E-17
 -1      1291 2.15860E-04-6.32770E-05-1.01021E-16
 -1      1292 1.05659E-04-1.80934E-05-4.29344E-17
 -1      1293 1.05889E-04-2.16620E-05-4.28395E-17
 -1      1294 2.14204E-04-4.71949E-05-1.04775E-16
 -1      1295 1.05437E-04-1.12401E-05-4.32190E-17
 -1      1296 1.05560E-04-1.46259E-05-4.32461E-17
 -1      1297 2.13292E-04-3.27561E-05-1.06035E-16
 -1      1298 1.05336E-04-4.68936E-06-4.26227E-17
 -1      1299 1.05389E-04-7.94301E-06-4.29073E-17
 -1      1300 2.12792E-04-1.91915E-05-1.05859E-16
 -1      1301 1.05325E-04 1.74339E-06-4.18773E-17
 -1      1302 1.05323E-04-1.47035E-06-4.21348E-17
 -1      1303 2.12577E-04-6.16054E-06-1.04463E-16
 -1      1304 1.05397E-04 8.22574E-06-4.05898E-17
 -1      1305 1.05341E-04 4.96563E-06-4.10235E-17
 -1      1306 2.12585E-04 6.70960E-06-1.02118E-16
 -1      1307 1.05576E-04 1.49335E-05-3.87738E-17
 -1      1308 1.05448E-04 1.15333E-05-3.93565E-17
 -1      1309 2.12817E-04 1.97665E-05-9.87302E-17
 -1      1310 1.05910E-04 2.19527E-05-3.61581E-17
 -1      1311 1.05674E-04 1.83613E-05-3.69442E-17
 -1      1312 2.13329E-04 3.32698E-05-9.38784E-17
 -1      1313 1.06535E-04 2.98198E-05-3.27700E-17
 -1      1314 1.06095E-04 2.57427E-05-3.39355E-17
 -1      1315 2.14273E-04 4.77984E-05-8.73731E-17
 -1      1316 1.07727E-04 3.89189E-05-2.78098E-17
 -1      1317 1.06875E-04 3.41252E-05-2.96529E-17
 -1      1318 2.15979E-04 6.42120E-05-7.85233E-17
 -1      1319 1.10268E-04 5.03460E-05-1.98409E-17
 -1      1320 1.08429E-04 4.41621E-05-2.32697E-17
 -1      1321 2.19208E-04 8.37104E-05-6.57840E-17
 -1      1322 1.16943E-04 6.76194E-05-7.15573E-18
 -1      1323 1.12192E-04 5.77746E-05-1.32273E-17
 -1      1324 2.26325E-04 1.09447E-04-4.65936E-17
 -1      1325 1.57587E-04 1.09861E-04 1.21024E-17
 -1      1326 1.35668E-04 8.60916E-05 3.11708E-19
 -1      1327 2.56051E-04 1.52095E-04-2.35814E-17
 -1      1328 3.35101E-04 2.20742E-04 8.70072E-18
 -1      1329 4.21560E-04-2.61744E-04-6.09186E-17
 -1      1330 5.74665E-04-3.36807E-04-1.18598E-16
 -1      1331 7.21861E-04-3.97413E-04-2.09075E-16
 -1      1332 8.65038E-04-4.46712E-04-3.29747E-16
 -1      1333 6.12100E-04-3.30901E-04-1.93300E-16
 -1      1334 1.00507E-03-4.87791E-04-4.78851E-16
 -1      1335 1.14292E-03-5.21787E-04-6.56837E-16
 -1      1336 9.05347E-04-4.31607E-04-4.40715E-16
 -1      1337 1.27943E-03-5.50572E-04-8.63269E-16
 -1      1338 1.41508E-03-5.74620E-04-1.09864E-15
 -1      1339 1.18779E-03-5.01045E-04-8.01781E-16
 -1      1340 1.55033E-03-5.94996E-04-1.36157E-15
 -1      1341 1.68543E-03-6.12034E-04-1.65227E-15
 -1      1342 1.46474E-03-5.49841E-04-1.27464E-15
 -1      1343 1.82063E-03-6.26363E-04-1.97074E-15
 -1      1344 1.95602E-03-6.38277E-04-2.31614E-15
 -1      1345 1.73944E-03-5.84167E-04-1.85764E-15
 -1      1346 2.09174E-03-6.48176E-04-2.68832E-15
 -1      1347 2.22782E-03-6.56312E-04-3.08733E-15
 -1      1348 2.01376E-03-6.08010E-04-2.54904E-15
 -1      1349 2.36433E-03-6.62958E-04-3.51227E-15
 -1      1350 2.50127E-03-6.68319E-04-3.96288E-15
 -1      1351 2.28868E-03-6.24182E-04-3.34590E-15
 -1      1352 2.63866E-03-6.72591E-04-4.43990E-15
 -1      1353 2.77648E-03-6.75936E-04-4.94236E-15
 -1      1354 2.56468E-03-6.34756E-04-4.24648E-15
 -1      1355 2.91474E-03-6.78493E-04-5.46960E-15
 -1      1356 3.05340E-03-6.80391E-04-6.02282E-15
 -1      1357 2.84194E-03-6.41280E-04-5.24818E-15
 -1      1358 3.19246E-03-6.81726E-04-6.60000E-15
 -1      1359 3.33188E-03-6.82599E-04-7.20112E-15
 -1      1360 3.12049E-03-6.44911E-04-6.34914E-15
 -1      1361 3.47164E-03-6.83074E-04-7.82528E-15
 -1      1362 3.61173E-03-6.83226E-04-8.47179E-15
 -1      1363 3.40026E-03-6.46503E-04-7.54597E-15
 -1      1364 3.75210E-03-6.83099E-04-9.14069E-15
 -1      1365 3.89275E-03-6.82745E-04-9.83141E-15
 -1      1366 3.68112E-03-6.46671E-04-8.83440E-15
 -1      1367 4.03365E-03-6.82191E-04-1.05438E-14
 -1      1368 4.17477E-03-6.81474E-04-1.12775E-14
 -1      1369 3.96293E-03-6.45845E-04-1.02112E-14
 -1      1370 4.31610E-03-6.80606E-04-1.20339E-14
 -1      1371 4.45762E-03-6.79611E-04-1.28118E-14
 -1      1372 4.24557E-03-6.44308E-04-1.16744E-14
 -1      1373 4.59932E-03-6.78492E-04-1.36101E-14
 -1      1374 4.74119E-03-6.77262E-04-1.44316E-14
 -1      1375 4.52892E-03-6.42228E-04-1.32242E-14
 -1      1376 4.88322E-03-6.75916E-04-1.52738E-14
 -1      1377 5.02540E-03-6.74462E-04-1.61362E-14
 -1      1378 4.81291E-03-6.39686E-04-1.48599E-14
 -1      1379 5.16774E-03-6.72887E-04-1.70206E-14
 -1      1380 5.31023E-03-6.71195E-04-1.79257E-14
 -1      1381 5.09748E-03-6.36698E-04-1.65812E-14
 -1      1382 5.45289E-03-6.69369E-04-1.88525E-14
 -1      1383 5.59572E-03-6.67412E-04-1.98009E-14
 -1      1384 5.38266E-03-6.33230E-04-1.83857E-14
 -1      1385 5.73874E-03-6.65304E-04-2.07700E-14
 -1      1386 5.88197E-03-6.63049E-04-2.17614E-14
 -1      1387 5.66848E-03-6.29220E-04-2.02756E-14
 -1      1388 6.02544E-03-6.60627E-04-2.27727E-14
 -1      1389 6.16917E-03-6.58047E-04-2.38038E-14
 -1      1390 5.95507E-03-6.24594E-04-2.22495E-14
 -1      1391 6.31320E-03-6.55292E-04-2.48555E-14
 -1      1392 6.45758E-03-6.52381E-04-2.59252E-14
 -1      1393 6.24261E-03-6.19289E-04-2.43050E-14
 -1      1394 6.60235E-03-6.49302E-04-2.70155E-14
 -1      1395 6.74757E-03-6.46089E-04-2.81254E-14
 -1      1396 6.53136E-03-6.13280E-04-2.64391E-14
 -1      1397 6.89331E-03-6.42744E-04-2.92526E-14
 -1      1398 7.03962E-03-6.39320E-04-3.03993E-14
 -1      1399 6.82167E-03-6.06618E-04-2.86501E-14
 -1      1400 7.18658E-03-6.35841E-04-3.15628E-14
 -1      1401 7.33428E-03-6.32390E-04-3.27413E-14
 -1      1402 7.11396E-03-5.99473E-04-3.09340E-14
 -1      1403 7.48280E-03-6.29021E-04-3.39376E-14
 -1      1404 7.63222E-03-6.25854E-04-3.51486E-14
 -1      1405 7.40874E-03-5.92203E-04-3.32852E-14
 -1      1406 7.78263E-03-6.22991E-04-3.63753E-14
 -1      1407 7.93413E-03-6.20597E-04-3.76177E-14
 -1      1408 7.70659E-03-5.85427E-04-3.57002E-14
 -1      1409 8.08679E-03-6.18838E-04-3.88751E-14
 -1      1410 8.24070E-03-6.17929E-04-4.01487E-14
 -1      1411 8.00809E-03-5.80127E-04-3.81771E-14
 -1      1412 8.39590E-03-6.18120E-04-4.14362E-14
 -1      1413 8.55245E-03-6.19675E-04-4.27372E-14
 -1      1414 8.31378E-03-5.77740E-04-4.07139E-14
 -1      1415 8.71036E-03-6.22941E-04-4.40534E-14
 -1      1416 8.86959E-03-6.28219E-04-4.53829E-14
 -1      1417 8.62408E-03-5.80258E-04-4.33096E-14
 -1      1418 9.03010E-03-6.35946E-04-4.67261E-14
 -1      1419 9.19175E-03-6.46428E-04-4.80820E-14
 -1      1420 8.93906E-03-5.90251E-04-4.59604E-14
 -1      1421 9.35435E-03-6.60151E-04-4.94510E-14
 -1      1422 9.51763E-03-6.77354E-04-5.08332E-14
 -1      1423 9.25832E-03-6.10761E-04-4.86626E-14
 -1      1424 9.68126E-03-6.98467E-04-5.22263E-14
 -1      1425 9.84480E-03-7.23546E-04-5.36291E-14
 -1      1426 9.58069E-03-6.44925E-04-5.14148E-14
 -1      1427 1.00078E-02-7.52776E-04-5.50390E-14
 -1      1428 1.01695E-02-7.85862E-04-5.64561E-14
 -1      1429 9.90408E-03-6.95173E-04-5.42079E-14
 -1      1430 1.03295E-02-8.22486E-04-5.78794E-14
 -1      1431 1.04870E-02-8.61828E-04-5.93070E-14
 -1      1432 1.02254E-02-7.61877E-04-5.70314E-14
 -1      1433 1.06415E-02-9.02825E-04-6.07419E-14
 -1      1434 1.07924E-02-9.44040E-04-6.21813E-14
 -1      1435 1.05408E-02-8.41588E-04-5.98814E-14
 -1      1436 1.09394E-02-9.83627E-04-6.36267E-14
 -1      1437 1.10822E-02-1.01967E-03-6.50821E-14
 -1      1438 1.08464E-02-9.25475E-04-6.27565E-14
 -1      1439 1.12209E-02-1.04990E-03-6.65402E-14
 -1      1440 1.13559E-02-1.07237E-03-6.80030E-14
 -1      1441 1.11396E-02-9.99200E-04-6.56558E-14
 -1      1442 1.14879E-02-1.08514E-03-6.94786E-14
 -1      1443 1.16176E-02-1.08690E-03-7.09613E-14
 -1      1444 1.14205E-02-1.04556E-03-6.85859E-14
 -1      1445 1.17459E-02-1.07682E-03-7.24507E-14
 -1      1446 1.18742E-02-1.05475E-03-7.39485E-14
 -1      1447 1.16929E-02-1.04983E-03-7.15460E-14
 -1      1448 1.20031E-02-1.02134E-03-7.54559E-14
 -1      1449 1.21338E-02-9.77582E-04-7.69724E-14
 -1      1450 1.19627E-02-1.00562E-03-7.45399E-14
 -1      1451 1.22667E-02-9.25254E-04-7.84965E-14
 -1      1452 1.24022E-02-8.66010E-04-8.00293E-14
 -1      1453 1.22360E-02-9.17372E-04-7.75668E-14
 -1      1454 1.25404E-02-8.01914E-04-8.15697E-14
 -1      1455 1.26811E-02-7.34595E-04-8.31157E-14
 -1      1456 1.25167E-02-7.97892E-04-8.06247E-14
 -1      1457 1.28241E-02-6.65631E-04-8.46682E-14
 -1      1458 1.29688E-02-5.96144E-04-8.62262E-14
 -1      1459 1.28049E-02-6.62411E-04-8.37121E-14
 -1      1460 1.31146E-02-5.26851E-04-8.77906E-14
 -1      1461 1.32610E-02-4.58224E-04-8.93574E-14
 -1      1462 1.30983E-02-5.22978E-04-8.68244E-14
 -1      1463 1.34075E-02-3.90170E-04-9.09314E-14
 -1      1464 1.35538E-02-3.22640E-04-9.25143E-14
 -1      1465 1.33935E-02-3.85676E-04-8.99605E-14
 -1      1466 1.36994E-02-2.55056E-04-9.41019E-14
 -1      1467 1.38443E-02-1.87096E-04-9.56915E-14
 -1      1468 1.36874E-02-2.50881E-04-9.31208E-14
 -1      1469 1.39885E-02-1.18159E-04-9.72857E-14
 -1      1470 1.41320E-02-4.80393E-05-9.88865E-14
 -1      1471 1.39783E-02-1.15400E-04-9.63014E-14
 -1      1472 1.43465E-02 5.99344E-05-1.01196E-13
 -1      1473 1.43377E-02 6.08405E-05-1.00204E-13
 -1      1474 6.43112E-04 3.72023E-04-4.32190E-17
 -1      1475 4.92977E-04 3.03697E-04-4.93312E-18
 -1      1476 4.44904E-04 2.65899E-04-2.89618E-17
 -1      1477 9.28715E-04 4.71998E-04-1.93747E-16
 -1      1478 7.87843E-04 4.26501E-04-1.06252E-16
 -1      1479 7.44780E-04 3.90728E-04-1.36569E-16
 -1      1480 1.20362E-03 5.41433E-04-4.43357E-16
 -1      1481 1.06695E-03 5.09746E-04-3.05772E-16
 -1      1482 1.03084E-03 4.76181E-04-3.41469E-16
 -1      1483 1.47418E-03 5.90649E-04-7.93365E-16
 -1      1484 1.33912E-03 5.68180E-04-6.05784E-16
 -1      1485 1.30877E-03 5.36022E-04-6.44883E-16
 -1      1486 1.74373E-03 6.25567E-04-1.24430E-15
 -1      1487 1.60891E-03 6.09654E-04-1.00623E-15
 -1      1488 1.58301E-03 5.78330E-04-1.04796E-15
 -1      1489 2.01394E-03 6.50054E-04-1.79407E-15
 -1      1490 1.87867E-03 6.38942E-04-1.50684E-15
 -1      1491 1.85618E-03 6.08082E-04-1.55042E-15
 -1      1492 2.28563E-03 6.66857E-04-2.44128E-15
 -1      1493 2.14956E-03 6.59285E-04-2.10540E-15
 -1      1494 2.12970E-03 6.28660E-04-2.15070E-15
 -1      1495 2.55910E-03 6.78016E-04-3.18434E-15
 -1      1496 2.42213E-03 6.73041E-04-2.80093E-15
 -1      1497 2.40426E-03 6.42511E-04-2.84772E-15
 -1      1498 2.83442E-03 6.85068E-04-4.02327E-15
 -1      1499 2.69654E-03 6.81978E-04-3.59192E-15
 -1      1500 2.68017E-03 6.51460E-04-3.64022E-15
 -1      1501 3.11148E-03 6.89168E-04-4.95749E-15
 -1      1502 2.97274E-03 6.87429E-04-4.47853E-15
 -1      1503 2.95750E-03 6.56874E-04-4.52756E-15
 -1      1504 3.39011E-03 6.91172E-04-5.98291E-15
 -1      1505 3.25061E-03 6.90389E-04-5.45911E-15
 -1      1506 3.23621E-03 6.59774E-04-5.50822E-15
 -1      1507 3.67011E-03 6.91702E-04-7.10049E-15
 -1      1508 3.52996E-03 6.91591E-04-6.53039E-15
 -1      1509 3.51616E-03 6.60905E-04-6.57991E-15
 -1      1510 3.95127E-03 6.91196E-04-8.30884E-15
 -1      1511 3.81056E-03 6.91558E-04-7.69306E-15
 -1      1512 3.79722E-03 6.60801E-04-7.74283E-15
 -1      1513 4.23340E-03 6.89942E-04-9.61068E-15
 -1      1514 4.09223E-03 6.90649E-04-8.94772E-15
 -1      1515 4.07922E-03 6.59827E-04-8.99632E-15
 -1      1516 4.51635E-03 6.88119E-04-1.10021E-14
 -1      1517 4.37479E-03 6.89094E-04-1.02951E-14
 -1      1518 4.36204E-03 6.58215E-04-1.03418E-14
 -1      1519 4.80000E-03 6.85811E-04-1.24812E-14
 -1      1520 4.65810E-03 6.87022E-04-1.17315E-14
 -1      1521 4.64555E-03 6.56092E-04-1.17761E-14
 -1      1522 5.08428E-03 6.83037E-04-1.40442E-14
 -1      1523 4.94206E-03 6.84482E-04-1.32524E-14
 -1      1524 4.92969E-03 6.53509E-04-1.32965E-14
 -1      1525 5.36917E-03 6.79764E-04-1.56907E-14
 -1      1526 5.22665E-03 6.81465E-04-1.48574E-14
 -1      1527 5.21442E-03 6.50450E-04-1.48999E-14
 -1      1528 5.65474E-03 6.75922E-04-1.74198E-14
 -1      1529 5.51187E-03 6.77916E-04-1.65449E-14
 -1      1530 5.49978E-03 6.46858E-04-1.65852E-14
 -1      1531 5.94111E-03 6.71423E-04-1.92223E-14
 -1      1532 5.79782E-03 6.73756E-04-1.83113E-14
 -1      1533 5.78584E-03 6.42646E-04-1.83491E-14
 -1      1534 6.22850E-03 6.66176E-04-2.11016E-14
 -1      1535 6.08466E-03 6.68891E-04-2.01533E-14
 -1      1536 6.07278E-03 6.37712E-04-2.01899E-14
 -1      1537 6.51725E-03 6.60112E-04-2.30499E-14
 -1      1538 6.37269E-03 6.63239E-04-2.20665E-14
 -1      1539 6.36083E-03 6.31960E-04-2.21030E-14
 -1      1540 6.80782E-03 6.53213E-04-2.50665E-14
 -1      1541 6.66228E-03 6.56752E-04-2.40510E-14
 -1      1542 6.65037E-03 6.25327E-04-2.40857E-14
 -1      1543 7.10082E-03 6.45558E-04-2.71464E-14
 -1      1544 6.95397E-03 6.49452E-04-2.60980E-14
 -1      1545 6.94186E-03 6.17817E-04-2.61324E-14
 -1      1546 7.39707E-03 6.37383E-04-2.92874E-14
 -1      1547 7.24848E-03 6.41488E-04-2.82084E-14
 -1      1548 7.23593E-03 6.09553E-04-2.82437E-14
 -1      1549 7.69757E-03 6.29174E-04-3.14919E-14
 -1      1550 7.54672E-03 6.33208E-04-3.03827E-14
 -1      1551 7.53338E-03 6.00848E-04-3.04188E-14
 -1      1552 8.00358E-03 6.21795E-04-3.37588E-14
 -1      1553 7.84981E-03 6.25268E-04-3.26171E-14
 -1      1554 7.83518E-03 5.92320E-04-3.26568E-14
 -1      1555 8.31654E-03 6.16672E-04-3.60859E-14
 -1      1556 8.15909E-03 6.18788E-04-3.49160E-14
 -1      1557 8.14248E-03 5.85040E-04-3.49556E-14
 -1      1558 8.63804E-03 6.16040E-04-3.84630E-14
 -1      1559 8.47612E-03 6.15567E-04-3.72685E-14
 -1      1560 8.45656E-03 5.80752E-04-3.73086E-14
 -1      1561 8.96964E-03 6.23256E-04-4.08921E-14
 -1      1562 8.80248E-03 6.18365E-04-3.96715E-14
 -1      1563 8.77876E-03 5.82159E-04-3.97130E-14
 -1      1564 9.31250E-03 6.43124E-04-4.33660E-14
 -1      1565 9.13960E-03 6.31234E-04-4.21228E-14
 -1      1566 9.11024E-03 5.93267E-04-4.21640E-14
 -1      1567 9.66680E-03 6.82083E-04-4.58906E-14
 -1      1568 9.48823E-03 6.59803E-04-4.46219E-14
 -1      1569 9.45167E-03 6.19698E-04-4.46663E-14
 -1      1570 1.00308E-02 7.47856E-04-4.84649E-14
 -1      1571 9.84777E-03 7.11258E-04-4.71711E-14
 -1      1572 9.80271E-03 6.68728E-04-4.72163E-14
 -1      1573 1.04000E-02 8.47877E-04-5.10923E-14
 -1      1574 1.02152E-02 7.93475E-04-4.97715E-14
 -1      1575 1.01613E-02 7.48518E-04-4.98196E-14
 -1      1576 1.07661E-02 9.85560E-04-5.37736E-14
 -1      1577 1.05841E-02 9.12455E-04-5.24275E-14
 -1      1578 1.05228E-02 8.65665E-04-5.24757E-14
 -1      1579 1.11180E-02 1.15436E-03-5.65078E-14
 -1      1580 1.09447E-02 1.06739E-03-5.51325E-14
 -1      1581 1.08800E-02 1.02031E-03-5.51820E-14
 -1      1582 1.14448E-02 1.33168E-03-5.92888E-14
 -1      1583 1.12852E-02 1.24416E-03-5.78946E-14
 -1      1584 1.12239E-02 1.19933E-03-5.79385E-14
 -1      1585 1.17418E-02 1.47989E-03-6.21131E-14
 -1      1586 1.15969E-02 1.41191E-03-6.06945E-14
 -1      1587 1.15468E-02 1.37206E-03-6.07359E-14
 -1      1588 1.20160E-02 1.55934E-03-6.49710E-14
 -1      1589 1.18808E-02 1.52971E-03-6.35383E-14
 -1      1590 1.18480E-02 1.49611E-03-6.35743E-14
 -1      1591 1.22844E-02 1.54995E-03-6.78497E-14
 -1      1592 1.21495E-02 1.56530E-03-6.64090E-14
 -1      1593 1.21365E-02 1.53659E-03-6.64420E-14
 -1      1594 1.25656E-02 1.46359E-03-7.07510E-14
 -1      1595 1.24225E-02 1.51427E-03-6.92981E-14
 -1      1596 1.24272E-02 1.48734E-03-6.93350E-14
 -1      1597 1.28686E-02 1.33542E-03-7.36762E-14
 -1      1598 1.27142E-02 1.40225E-03-7.22093E-14
 -1      1599 1.27315E-02 1.37435E-03-7.22501E-14
 -1      1600 1.31907E-02 1.20238E-03-7.66241E-14
 -1      1601 1.30278E-02 1.26784E-03-7.51470E-14
 -1      1602 1.30512E-02 1.23790E-03-7.51885E-14
 -1      1603 1.35217E-02 1.08721E-03-7.95814E-14
 -1      1604 1.33559E-02 1.14206E-03-7.81034E-14
 -1      1605 1.33801E-02 1.11048E-03-7.81450E-14
 -1      1606 1.38504E-02 9.95310E-04-8.25505E-14
 -1      1607 1.36870E-02 1.03870E-03-8.10654E-14
 -1      1608 1.37095E-02 1.00660E-03-8.11103E-14
 -1      1609 1.41688E-02 9.19793E-04-8.55255E-14
 -1      1610 1.40113E-02 9.56257E-04-8.40361E-14
 -1      1611 1.40319E-02 9.24783E-04-8.40836E-14
 -1      1612 1.44737E-02 8.48069E-04-8.84982E-14
 -1      1613 1.43230E-02 8.84243E-04-8.70119E-14
 -1      1614 1.43430E-02 8.54290E-04-8.70613E-14
 -1      1615 1.47666E-02 7.67927E-04-9.14683E-14
 -1      1616 1.46214E-02 8.09531E-04-8.99842E-14
 -1      1617 1.46423E-02 7.81524E-04-9.00319E-14
 -1      1618 1.49283E-02 7.10024E-04-9.30817E-14
 -1      1619 1.50678E-02 6.06340E-04-9.38381E-14
 -1      1620 1.50142E-02 6.44736E-04-9.35846E-14
 -1      1621 1.51840E-02 5.38837E-04-9.43524E-14
 -1      1622 1.51247E-02 5.70816E-04-9.40942E-14
 -1      1623 1.49733E-02 6.27843E-04-9.26787E-14
 -1      1624 1.53041E-02 4.87760E-04-9.48857E-14
 -1      1625 1.52443E-02 5.10998E-04-9.46153E-14
 -1      1626 1.50936E-02 5.62365E-04-9.31940E-14
 -1      1627 1.54148E-02 4.56065E-04-9.54393E-14
 -1      1628 1.53616E-02 4.69414E-04-9.51632E-14
 -1      1629 1.52153E-02 5.11174E-04-9.37280E-14
 -1      1630 1.54994E-02 4.43620E-04-9.59973E-14
 -1      1631 1.54610E-02 4.47677E-04-9.57160E-14
 -1      1632 1.53231E-02 4.76266E-04-9.42728E-14
 -1      1633 1.55457E-02 4.45973E-04-9.65719E-14
 -1      1634 1.55283E-02 4.43302E-04-9.62841E-14
 -1      1635 1.54022E-02 4.56357E-04-9.48216E-14
 -1      1636 1.55416E-02 4.55891E-04-9.71275E-14
 -1      1637 1.55503E-02 4.50554E-04-9.68522E-14
 -1      1638 1.54380E-02 4.47457E-04-9.53718E-14
 -1      1639 1.54849E-02 4.63944E-04-9.76664E-14
 -1      1640 1.55197E-02 4.60736E-04-9.74003E-14
 -1      1641 1.54208E-02 4.42928E-04-9.59122E-14
 -1      1642 1.53817E-02 4.61421E-04-9.81924E-14
 -1      1643 1.54385E-02 4.64448E-04-9.79321E-14
 -1      1644 1.53502E-02 4.34803E-04-9.64416E-14
 -1      1645 1.52447E-02 4.42541E-04-9.87025E-14
 -1      1646 1.53165E-02 4.54233E-04-9.84477E-14
 -1      1647 1.52351E-02 4.16281E-04-9.69551E-14
 -1      1648 1.50911E-02 4.06178E-04-9.91895E-14
 -1      1649 1.51694E-02 4.26540E-04-9.89490E-14
 -1      1650 1.50906E-02 3.83757E-04-9.74505E-14
 -1      1651 1.49281E-02 3.52520E-04-9.96715E-14
 -1      1652 1.50098E-02 3.81262E-04-9.94336E-14
 -1      1653 1.49308E-02 3.36459E-04-9.79322E-14
 -1      1654 1.47670E-02 2.85562E-04-1.00128E-13
 -1      1655 1.48470E-02 3.20445E-04-9.99038E-14
 -1      1656 1.47659E-02 2.75589E-04-9.84006E-14
 -1      1657 1.46122E-02 2.09518E-04-1.00569E-13
 -1      1658 1.46887E-02 2.48406E-04-1.00351E-13
 -1      1659 1.46049E-02 2.04608E-04-9.88520E-14
 -1      1660 1.44372E-02 1.15134E-04-1.00499E-13
 -1      1661 1.45105E-02 1.56087E-04-1.00277E-13
 -1      1662 1.44243E-02 1.14057E-04-9.87812E-14
 -1      1663 1.42221E-02 7.66544E-06-9.81950E-14
 -1      1664 1.42799E-02 4.04028E-04-7.54538E-14
 -1      1665 1.43123E-02 3.54772E-04-7.56261E-14
 -1      1666 1.40924E-02 5.27845E-04-7.48440E-14
 -1      1667 1.41974E-02 4.66701E-04-7.51849E-14
 -1      1668 1.37951E-02 7.03896E-04-7.37482E-14
 -1      1669 1.39458E-02 6.27212E-04-7.42213E-14
 -1      1670 1.34322E-02 8.80594E-04-7.25706E-14
 -1      1671 1.36048E-02 7.97425E-04-7.31372E-14
 -1      1672 1.30253E-02 1.05513E-03-7.12475E-14
 -1      1673 1.32100E-02 9.72082E-04-7.18952E-14
 -1      1674 1.26318E-02 1.20625E-03-6.97599E-14
 -1      1675 1.28133E-02 1.14340E-03-7.04401E-14
 -1      1676 1.22386E-02 1.28998E-03-6.82115E-14
 -1      1677 1.24218E-02 1.26057E-03-6.89286E-14
 -1      1678 1.18298E-02 1.28438E-03-6.66231E-14
 -1      1679 1.20206E-02 1.29934E-03-6.73593E-14
 -1      1680 1.14344E-02 1.18770E-03-6.51403E-14
 -1      1681 1.16149E-02 1.24343E-03-6.57934E-14
 -1      1682 1.10255E-02 1.00544E-03-6.36771E-14
 -1      1683 1.12225E-02 1.09908E-03-6.43095E-14
 -1      1684 1.05909E-02 8.05807E-04-6.26164E-14
 -1      1685 1.07749E-02 9.00739E-04-6.31075E-14
 -1      1686 1.02286E-02 6.14876E-04-6.17624E-14
 -1      1687 1.03893E-02 7.00043E-04-6.21192E-14
 -1      1688 9.90734E-03 4.18027E-04-6.09945E-14
 -1      1689 1.00552E-02 4.97422E-04-6.12540E-14
 -1      1690 9.69322E-03 2.94531E-04-6.08236E-14
 -1      1691 9.77069E-03 3.50504E-04-6.09041E-14
 -1      1692 9.62446E-03 1.89930E-04-6.09140E-14
 -1      1693 9.63973E-03 2.36805E-04-6.08524E-14
 -1      1694 9.69037E-03 8.30378E-05-6.12846E-14
 -1      1695 9.64244E-03 1.33712E-04-6.10737E-14
 -1      1696 9.88274E-03-3.98429E-05-6.19442E-14
 -1      1697 9.77959E-03 1.93123E-05-6.16066E-14
 -1      1698 1.01894E-02-1.88979E-04-6.28814E-14
 -1      1699 1.00358E-02-1.13878E-04-6.23961E-14
 -1      1700 1.05546E-02-3.55693E-04-6.40455E-14
 -1      1701 1.03861E-02-2.76256E-04-6.34813E-14
 -1      1702 1.10079E-02-5.41535E-04-6.55519E-14
 -1      1703 1.08009E-02-4.50280E-04-6.47792E-14
 -1      1704 1.13765E-02-6.73803E-04-6.71496E-14
 -1      1705 1.12079E-02-6.25306E-04-6.64899E-14
 -1      1706 1.17525E-02-7.36082E-04-6.86489E-14
 -1      1707 1.15828E-02-7.16941E-04-6.79495E-14
 -1      1708 1.21587E-02-7.13391E-04-7.03338E-14
 -1      1709 1.19684E-02-7.38812E-04-6.95549E-14
 -1      1710 1.25671E-02-5.97891E-04-7.17679E-14
 -1      1711 1.23887E-02-6.56616E-04-7.11376E-14
 -1      1712 1.29835E-02-4.21784E-04-7.31228E-14
 -1      1713 1.27856E-02-5.10340E-04-7.25250E-14
 -1      1714 1.34113E-02-2.23287E-04-7.41973E-14
 -1      1715 1.32204E-02-3.16349E-04-7.37282E-14
 -1      1716 1.38245E-02-1.90121E-05-7.50473E-14
 -1      1717 1.36376E-02-1.12957E-04-7.46901E-14
 -1      1718 1.41459E-02 1.55228E-04-7.55492E-14
 -1      1719 1.40143E-02 8.01865E-05-7.53683E-14
 -1      1720 1.43034E-02 2.90453E-04-7.56101E-14
 -1      1721 1.42536E-02 2.30075E-04-7.56111E-14
 -1      1722 1.32552E-02 8.86585E-04-7.25448E-14
 -1      1723 1.36561E-02 6.95278E-04-7.38305E-14
 -1      1724 1.49506E-02 6.83562E-04-9.31311E-14
 -1      1725 1.48515E-02 7.02371E-04-9.19695E-14
 -1      1726 1.42416E-02 4.04269E-04-7.59772E-14
 -1      1727 1.40005E-02 5.19925E-04-7.50688E-14
 -1      1728 1.43197E-02 3.28420E-04-7.62464E-14
 -1      1729 1.28563E-02 1.08501E-03-7.10642E-14
 -1      1730 1.24823E-02 1.24582E-03-6.94266E-14
 -1      1731 1.21167E-02 1.32137E-03-6.77448E-14
 -1      1732 1.17512E-02 1.28824E-03-6.60646E-14
 -1      1733 1.13819E-02 1.14521E-03-6.44081E-14
 -1      1734 1.09799E-02 9.28251E-04-6.30158E-14
 -1      1735 1.05536E-02 7.04408E-04-6.19540E-14
 -1      1736 1.01765E-02 4.88686E-04-6.09525E-14
 -1      1737 9.85601E-03 3.33552E-04-6.03560E-14
 -1      1738 9.66131E-03 2.40861E-04-6.02935E-14
 -1      1739 9.62397E-03 1.67278E-04-6.04796E-14
 -1      1740 9.73605E-03 8.60167E-05-6.09568E-14
 -1      1741 9.98458E-03-2.66144E-05-6.17282E-14
 -1      1742 1.03340E-02-1.80260E-04-6.27774E-14
 -1      1743 1.07531E-02-3.73852E-04-6.41081E-14
 -1      1744 1.11494E-02-5.76063E-04-6.57777E-14
 -1      1745 1.15165E-02-7.14073E-04-6.75150E-14
 -1      1746 1.18652E-02-7.65913E-04-6.92212E-14
 -1      1747 1.22222E-02-7.05035E-04-7.09335E-14
 -1      1748 1.26145E-02-5.46556E-04-7.24986E-14
 -1      1749 1.30277E-02-3.34032E-04-7.38664E-14
 -1      1750 1.34731E-02-1.08407E-04-7.49720E-14
 -1      1751 1.38925E-02 9.10445E-05-7.57925E-14
 -1      1752 1.41998E-02 2.31317E-04-7.61759E-14
 -1      1753 2.85254E-04-1.76232E-04-5.25025E-17
 -1      1754 3.32198E-04-1.16771E-04-1.47370E-16
 -1      1755 3.36337E-04-1.33018E-04-1.39998E-16
 -1      1756 3.42219E-04-1.52006E-04-1.30579E-16
 -1      1757 3.51774E-04-1.74009E-04-1.16891E-16
 -1      1758 4.58344E-04-1.88076E-04-2.03315E-16
 -1      1759 3.24563E-04-6.53760E-05-1.60625E-16
 -1      1760 3.25699E-04-7.66744E-05-1.59039E-16
 -1      1761 3.23068E-04-4.38847E-05-1.61912E-16
 -1      1762 3.23722E-04-5.43738E-05-1.61519E-16
 -1      1763 4.36507E-04-7.92789E-05-2.37359E-16
 -1      1764 3.22284E-04-2.37688E-05-1.61167E-16
 -1      1765 3.22615E-04-3.36814E-05-1.61885E-16
 -1      1766 4.34506E-04-5.13120E-05-2.38348E-16
 -1      1767 3.21990E-04-4.33621E-06-1.58700E-16
 -1      1768 3.22087E-04-1.39877E-05-1.60055E-16
 -1      1769 4.33486E-04-2.49213E-05-2.36654E-16
 -1      1770 3.22112E-04 1.49801E-05-1.54675E-16
 -1      1771 3.21998E-04 5.31847E-06-1.56938E-16
 -1      1772 4.33189E-04 7.57818E-07-2.32494E-16
 -1      1773 3.22677E-04 3.47273E-05-1.49281E-16
 -1      1774 3.22326E-04 2.47823E-05-1.52249E-16
 -1      1775 4.33544E-04 2.64660E-05-2.26381E-16
 -1      1776 3.23805E-04 5.51628E-05-1.41502E-16
 -1      1777 3.23143E-04 4.48011E-05-1.45839E-16
 -1      1778 4.34619E-04 5.27194E-05-2.17965E-16
 -1      1779 3.25862E-04 7.78123E-05-1.31324E-16
 -1      1780 3.24664E-04 6.62322E-05-1.36975E-16
 -1      1781 4.36673E-04 8.05969E-05-2.06527E-16
 -1      1782 3.29550E-04 1.03649E-04-1.16918E-16
 -1      1783 3.27402E-04 9.02993E-05-1.24927E-16
 -1      1784 4.40320E-04 1.11565E-04-1.91009E-16
 -1      1785 3.36585E-04 1.35106E-04-9.60468E-17
 -1      1786 3.32403E-04 1.18608E-04-1.07634E-16
 -1      1787 4.46790E-04 1.47332E-04-1.69122E-16
 -1      1788 3.52313E-04 1.77601E-04-6.52554E-17
 -1      1789 3.42817E-04 1.54755E-04-8.25078E-17
 -1      1790 4.59326E-04 1.91453E-04-1.38209E-16
 -1      1791 4.07716E-04 2.33685E-04-4.29480E-17
 -1      1792 3.78104E-04 2.02660E-04-5.73272E-17
 -1      1793 4.95872E-04 2.43993E-04-1.10182E-16
 -1      1794 5.58571E-04 3.02504E-04-8.66955E-17
 -1      1795 3.40036E-04-1.90908E-04-8.78068E-17
 -1      1796 8.53607E-04 4.07122E-04-2.46683E-16
 -1      1797 7.07195E-04 3.59379E-04-1.54851E-16
 -1      1798 6.73427E-04 3.28810E-04-1.69935E-16
 -1      1799 4.58972E-04-2.36717E-04-1.52669E-16
 -1      1800 8.07262E-04-3.74117E-04-4.00125E-16
 -1      1801 9.52534E-04-4.15303E-04-5.55586E-16
 -1      1802 1.09538E-03-4.49993E-04-7.38667E-16
 -1      1803 1.23706E-03-4.78896E-04-9.49205E-16
 -1      1804 1.00396E-03-3.97916E-04-6.74387E-16
 -1      1805 1.37747E-03-5.03389E-04-1.18708E-15
 -1      1806 1.51717E-03-5.23766E-04-1.45259E-15
 -1      1807 1.28966E-03-4.55897E-04-1.09956E-15
 -1      1808 1.65633E-03-5.40951E-04-1.74504E-15
 -1      1809 1.79518E-03-5.55181E-04-2.06438E-15
 -1      1810 1.57207E-03-4.96854E-04-1.63243E-15
 -1      1811 1.93391E-03-5.67065E-04-2.41026E-15
 -1      1812 2.07257E-03-5.76806E-04-2.78236E-15
 -1      1813 1.85270E-03-5.25409E-04-2.27239E-15
 -1      1814 2.21132E-03-5.84823E-04-3.18060E-15
 -1      1815 2.35016E-03-5.91284E-04-3.60459E-15
 -1      1816 2.13261E-03-5.44901E-04-3.01662E-15
 -1      1817 2.48920E-03-5.96488E-04-4.05389E-15
 -1      1818 2.62842E-03-6.00572E-04-4.52867E-15
 -1      1819 2.41248E-03-5.57782E-04-3.86347E-15
 -1      1820 2.76788E-03-6.03748E-04-5.02881E-15
 -1      1821 2.90755E-03-6.06128E-04-5.55269E-15
 -1      1822 2.69270E-03-5.65880E-04-4.81051E-15
 -1      1823 3.04748E-03-6.07863E-04-6.10189E-15
 -1      1824 3.18762E-03-6.09040E-04-6.67442E-15
 -1      1825 2.97350E-03-5.70560E-04-5.85678E-15
 -1      1826 3.32801E-03-6.09763E-04-7.27035E-15
 -1      1827 3.46860E-03-6.10100E-04-7.88973E-15
 -1      1828 3.25494E-03-5.72831E-04-6.99798E-15
 -1      1829 3.60942E-03-6.10122E-04-8.53115E-15
 -1      1830 3.75043E-03-6.09877E-04-9.19492E-15
 -1      1831 3.53705E-03-5.73428E-04-8.23144E-15
 -1      1832 3.89164E-03-6.09411E-04-9.88006E-15
 -1      1833 4.03301E-03-6.08758E-04-1.05882E-14
 -1      1834 3.81979E-03-5.72868E-04-9.55316E-15
 -1      1835 4.17457E-03-6.07945E-04-1.13174E-14
 -1      1836 4.31627E-03-6.06994E-04-1.20686E-14
 -1      1837 4.10310E-03-5.71502E-04-1.09633E-14
 -1      1838 4.45812E-03-6.05916E-04-1.28416E-14
 -1      1839 4.60012E-03-6.04726E-04-1.36347E-14
 -1      1840 4.38694E-03-5.69546E-04-1.24607E-14
 -1      1841 4.74225E-03-6.03421E-04-1.44507E-14
 -1      1842 4.88451E-03-6.02011E-04-1.52875E-14
 -1      1843 4.67126E-03-5.67116E-04-1.40446E-14
 -1      1844 5.02691E-03-6.00486E-04-1.61445E-14
 -1      1845 5.16944E-03-5.98848E-04-1.70228E-14
 -1      1846 4.95603E-03-5.64250E-04-1.57124E-14
 -1      1847 5.31210E-03-5.97081E-04-1.79232E-14
 -1      1848 5.45491E-03-5.95187E-04-1.88436E-14
 -1      1849 5.24126E-03-5.60927E-04-1.74632E-14
 -1      1850 5.59787E-03-5.93145E-04-1.97849E-14
 -1      1851 5.74100E-03-5.90956E-04-2.07475E-14
 -1      1852 5.52697E-03-5.57087E-04-1.92987E-14
 -1      1853 5.88431E-03-5.88597E-04-2.17305E-14
 -1      1854 6.02782E-03-5.86072E-04-2.27349E-14
 -1      1855 5.81325E-03-5.52647E-04-2.12163E-14
 -1      1856 6.17156E-03-5.83362E-04-2.37592E-14
 -1      1857 6.31556E-03-5.80473E-04-2.48033E-14
 -1      1858 6.10019E-03-5.47521E-04-2.32179E-14
 -1      1859 6.45984E-03-5.77392E-04-2.58672E-14
 -1      1860 6.60445E-03-5.74136E-04-2.69495E-14
 -1      1861 6.38797E-03-5.41645E-04-2.52992E-14
 -1      1862 6.74942E-03-5.70704E-04-2.80508E-14
 -1      1863 6.89481E-03-5.67127E-04-2.91711E-14
 -1      1864 6.67680E-03-5.35007E-04-2.74568E-14
 -1      1865 7.04065E-03-5.63424E-04-3.03096E-14
 -1      1866 7.18702E-03-5.59645E-04-3.14652E-14
 -1      1867 6.96695E-03-5.27689E-04-2.96898E-14
 -1      1868 7.33394E-03-5.55841E-04-3.26377E-14
 -1      1869 7.48153E-03-5.52091E-04-3.38251E-14
 -1      1870 7.25875E-03-5.19918E-04-3.19933E-14
 -1      1871 7.62977E-03-5.48491E-04-3.50292E-14
 -1      1872 7.77882E-03-5.45153E-04-3.62486E-14
 -1      1873 7.55260E-03-5.12145E-04-3.43624E-14
 -1      1874 7.92865E-03-5.42240E-04-3.74828E-14
 -1      1875 8.07941E-03-5.39908E-04-3.87331E-14
 -1      1876 7.84893E-03-5.05125E-04-3.67931E-14
 -1      1877 8.23108E-03-5.38398E-04-3.99979E-14
 -1      1878 8.38378E-03-5.37919E-04-4.12767E-14
 -1      1879 8.14821E-03-5.00022E-04-3.92856E-14
 -1      1880 8.53750E-03-5.38808E-04-4.25704E-14
 -1      1881 8.69228E-03-5.41330E-04-4.38775E-14
 -1      1882 8.45092E-03-4.98517E-04-4.18354E-14
 -1      1883 8.84816E-03-5.45915E-04-4.51982E-14
 -1      1884 9.00505E-03-5.52875E-04-4.65324E-14
 -1      1885 8.75747E-03-5.02886E-04-4.44415E-14
 -1      1886 9.16304E-03-5.62707E-04-4.78807E-14
 -1      1887 9.32184E-03-5.75739E-04-4.92393E-14
 -1      1888 9.06817E-03-5.16005E-04-4.71012E-14
 -1      1889 9.48161E-03-5.92449E-04-5.06084E-14
 -1      1890 9.64181E-03-6.13109E-04-5.19908E-14
 -1      1891 9.38308E-03-5.41171E-04-4.98090E-14
 -1      1892 9.80266E-03-6.38023E-04-5.33821E-14
 -1      1893 9.96335E-03-6.67269E-04-5.47808E-14
 -1      1894 9.70183E-03-5.81613E-04-5.25617E-14
 -1      1895 1.01241E-02-7.00746E-04-5.61893E-14
 -1      1896 1.02839E-02-7.38115E-04-5.76036E-14
 -1      1897 1.00233E-02-6.39495E-04-5.53508E-14
 -1      1898 1.04430E-02-7.78608E-04-5.90246E-14
 -1      1899 1.06002E-02-8.21244E-04-6.04534E-14
 -1      1900 1.03453E-02-7.14287E-04-5.81714E-14
 -1      1901 1.07556E-02-8.64427E-04-6.18866E-14
 -1      1902 1.09086E-02-9.06414E-04-6.33286E-14
 -1      1903 1.06646E-02-8.00673E-04-6.10206E-14
 -1      1904 1.10588E-02-9.44922E-04-6.47760E-14
 -1      1905 1.12065E-02-9.77710E-04-6.62302E-14
 -1      1906 1.09771E-02-8.86897E-04-6.38982E-14
 -1      1907 1.13512E-02-1.00239E-03-6.76942E-14
 -1      1908 1.14941E-02-1.01696E-03-6.91660E-14
 -1      1909 1.12800E-02-9.55234E-04-6.68052E-14
 -1      1910 1.16348E-02-1.01982E-03-7.06454E-14
 -1      1911 1.17752E-02-1.01007E-03-7.21301E-14
 -1      1912 1.15736E-02-9.86415E-04-6.97435E-14
 -1      1913 1.19148E-02-9.87590E-04-7.36250E-14
 -1      1914 1.20556E-02-9.53015E-04-7.51286E-14
 -1      1915 1.18623E-02-9.67159E-04-7.27130E-14
 -1      1916 1.21971E-02-9.07706E-04-7.66384E-14
 -1      1917 1.23405E-02-8.53447E-04-7.81576E-14
 -1      1918 1.21523E-02-8.96426E-04-7.57131E-14
 -1      1919 1.24854E-02-7.92377E-04-7.96863E-14
 -1      1920 1.26321E-02-7.26514E-04-8.12198E-14
 -1      1921 1.24483E-02-7.85563E-04-7.87481E-14
 -1      1922 1.27802E-02-6.57852E-04-8.27613E-14
 -1      1923 1.29292E-02-5.87896E-04-8.43085E-14
 -1      1924 1.27505E-02-6.51997E-04-8.18123E-14
 -1      1925 1.30790E-02-5.17884E-04-8.58599E-14
 -1      1926 1.32287E-02-4.48501E-04-8.74216E-14
 -1      1927 1.30563E-02-5.11435E-04-8.49029E-14
 -1      1928 1.33784E-02-3.80091E-04-8.89913E-14
 -1      1929 1.35273E-02-3.12630E-04-9.05636E-14
 -1      1930 1.33617E-02-3.73169E-04-8.80184E-14
 -1      1931 1.36756E-02-2.45790E-04-9.21440E-14
 -1      1932 1.38227E-02-1.79123E-04-9.37290E-14
 -1      1933 1.36635E-02-2.39486E-04-9.11677E-14
 -1      1934 1.39508E-02-1.20753E-04-9.51608E-14
 -1      1935 1.40959E-02-5.27449E-05-9.67552E-14
 -1      1936 1.41967E-02 7.21112E-07-9.70480E-14
 -1      1937 1.39417E-02-1.16339E-04-9.41777E-14
 -1      1938 1.13867E-03 4.80094E-04-5.02541E-16
 -1      1939 9.96895E-04 4.46838E-04-3.62327E-16
 -1      1940 9.64508E-04 4.17382E-04-3.79972E-16
 -1      1941 1.41780E-03 5.31586E-04-8.56533E-16
 -1      1942 1.27864E-03 5.08132E-04-6.67110E-16
 -1      1943 1.24900E-03 4.79993E-04-6.86083E-16
 -1      1944 1.69419E-03 5.67894E-04-1.30980E-15
 -1      1945 1.55615E-03 5.51393E-04-1.07070E-15
 -1      1946 1.52928E-03 5.24220E-04-1.09042E-15
 -1      1947 1.96977E-03 5.93195E-04-1.86125E-15
 -1      1948 1.83199E-03 5.81750E-04-1.57330E-15
 -1      1949 1.80753E-03 5.55215E-04-1.59321E-15
 -1      1950 2.24561E-03 6.10444E-04-2.50956E-15
 -1      1951 2.10761E-03 6.02701E-04-2.17326E-15
 -1      1952 2.08515E-03 5.76571E-04-2.19292E-15
 -1      1953 2.52226E-03 6.21815E-04-3.25372E-15
 -1      1954 2.38381E-03 6.16770E-04-2.86969E-15
 -1      1955 2.36297E-03 5.90888E-04-2.88897E-15
 -1      1956 2.80000E-03 6.28933E-04-4.09349E-15
 -1      1957 2.66099E-03 6.25835E-04-3.66168E-15
 -1      1958 2.64143E-03 6.00095E-04-3.68018E-15
 -1      1959 3.07887E-03 6.33010E-04-5.02617E-15
 -1      1960 2.93930E-03 6.31300E-04-4.54808E-15
 -1      1961 2.92073E-03 6.05632E-04-4.56552E-15
 -1      1962 3.35886E-03 6.34945E-04-6.05077E-15
 -1      1963 3.21873E-03 6.34208E-04-5.52738E-15
 -1      1964 3.20094E-03 6.08568E-04-5.54351E-15
 -1      1965 3.63986E-03 6.35383E-04-7.16693E-15
 -1      1966 3.49924E-03 6.35325E-04-6.59744E-15
 -1      1967 3.48204E-03 6.09686E-04-6.61231E-15
 -1      1968 3.92177E-03 6.34780E-04-8.37264E-15
 -1      1969 3.78071E-03 6.35194E-04-7.75842E-15
 -1      1970 3.76397E-03 6.09542E-04-7.77151E-15
 -1      1971 4.20446E-03 6.33435E-04-9.67089E-15
 -1      1972 4.06303E-03 6.34190E-04-9.00992E-15
 -1      1973 4.04663E-03 6.08517E-04-9.02113E-15
 -1      1974 4.48784E-03 6.31530E-04-1.10570E-14
 -1      1975 4.34608E-03 6.32547E-04-1.03528E-14
 -1      1976 4.32994E-03 6.06854E-04-1.03614E-14
 -1      1977 4.77184E-03 6.29152E-04-1.25327E-14
 -1      1978 4.62977E-03 6.30398E-04-1.17841E-14
 -1      1979 4.61384E-03 6.04687E-04-1.17898E-14
 -1      1980 5.05640E-03 6.26315E-04-1.40917E-14
 -1      1981 4.91405E-03 6.27792E-04-1.33022E-14
 -1      1982 4.89828E-03 6.02066E-04-1.33048E-14
 -1      1983 5.34154E-03 6.22982E-04-1.57333E-14
 -1      1984 5.19890E-03 6.24713E-04-1.49025E-14
 -1      1985 5.18323E-03 5.98976E-04-1.49024E-14
 -1      1986 5.62730E-03 6.19073E-04-1.74559E-14
 -1      1987 5.48434E-03 6.21103E-04-1.65838E-14
 -1      1988 5.46874E-03 5.95355E-04-1.65815E-14
 -1      1989 5.91380E-03 6.14487E-04-1.92550E-14
 -1      1990 5.77045E-03 6.16867E-04-1.83461E-14
 -1      1991 5.75488E-03 5.91109E-04-1.83401E-14
 -1      1992 6.20122E-03 6.09115E-04-2.11319E-14
 -1      1993 6.05738E-03 6.11900E-04-2.01846E-14
 -1      1994 6.04177E-03 5.86124E-04-2.01766E-14
 -1      1995 6.48984E-03 6.02864E-04-2.30767E-14
 -1      1996 6.34536E-03 6.06096E-04-2.20957E-14
 -1      1997 6.32961E-03 5.80289E-04-2.20860E-14
 -1      1998 6.78001E-03 5.95685E-04-2.50910E-14
 -1      1999 6.63470E-03 5.99382E-04-2.40763E-14
 -1      2000 6.61869E-03 5.73520E-04-2.40654E-14
 -1      2001 7.07224E-03 5.87616E-04-2.71705E-14
 -1      2002 6.92583E-03 5.91744E-04-2.61218E-14
 -1      2003 6.90938E-03 5.65790E-04-2.61105E-14
 -1      2004 7.36714E-03 5.78840E-04-2.93123E-14
 -1      2005 7.21931E-03 5.83284E-04-2.82333E-14
 -1      2006 7.20214E-03 5.57181E-04-2.82208E-14
 -1      2007 7.66548E-03 5.69773E-04-3.15200E-14
 -1      2008 7.51582E-03 5.74290E-04-3.04078E-14
 -1      2009 7.49758E-03 5.47956E-04-3.03956E-14
 -1      2010 7.96817E-03 5.61195E-04-3.37862E-14
 -1      2011 7.81620E-03 5.65340E-04-3.26452E-14
 -1      2012 7.79640E-03 5.38657E-04-3.26331E-14
 -1      2013 8.27626E-03 5.54423E-04-3.61146E-14
 -1      2014 8.12144E-03 5.57459E-04-3.49433E-14
 -1      2015 8.09944E-03 5.30258E-04-3.49297E-14
 -1      2016 8.59091E-03 5.51566E-04-3.84924E-14
 -1      2017 8.43266E-03 5.52326E-04-3.72968E-14
 -1      2018 8.40765E-03 5.24369E-04-3.72829E-14
 -1      2019 8.91324E-03 5.55842E-04-4.09203E-14
 -1      2020 8.75100E-03 5.52562E-04-3.97006E-14
 -1      2021 8.72204E-03 5.23521E-04-3.96871E-14
 -1      2022 9.24419E-03 5.71935E-04-4.33983E-14
 -1      2023 9.07755E-03 5.62079E-04-4.21525E-14
 -1      2024 9.04361E-03 5.31503E-04-4.21396E-14
 -1      2025 9.58423E-03 6.06244E-04-4.59239E-14
 -1      2026 9.41307E-03 5.86404E-04-4.46551E-14
 -1      2027 9.37326E-03 5.53708E-04-4.46420E-14
 -1      2028 9.93290E-03 6.66701E-04-4.85023E-14
 -1      2029 9.75762E-03 6.32771E-04-4.72068E-14
 -1      2030 9.71155E-03 5.97283E-04-4.71947E-14
 -1      2031 1.02883E-02 7.61500E-04-5.11314E-14
 -1      2032 1.01101E-02 7.09513E-04-4.98104E-14
 -1      2033 1.00584E-02 6.70655E-04-4.97989E-14
 -1      2034 1.06461E-02 8.95636E-04-5.38126E-14
 -1      2035 1.04675E-02 8.23775E-04-5.24664E-14
 -1      2036 1.04123E-02 7.81550E-04-5.24546E-14
 -1      2037 1.09999E-02 1.06509E-03-5.65407E-14
 -1      2038 1.08244E-02 9.76968E-04-5.51703E-14
 -1      2039 1.07696E-02 9.32638E-04-5.51575E-14
 -1      2040 1.13410E-02 1.24927E-03-5.93150E-14
 -1      2041 1.11728E-02 1.15740E-03-5.79220E-14
 -1      2042 1.11234E-02 1.11415E-03-5.79064E-14
 -1      2043 1.16634E-02 1.40981E-03-6.21302E-14
 -1      2044 1.15046E-02 1.33521E-03-6.07170E-14
 -1      2045 1.14646E-02 1.29720E-03-6.06966E-14
 -1      2046 1.19687E-02 1.50222E-03-6.49809E-14
 -1      2047 1.18172E-02 1.46643E-03-6.35520E-14
 -1      2048 1.17881E-02 1.43630E-03-6.35293E-14
 -1      2049 1.22683E-02 1.50062E-03-6.78612E-14
 -1      2050 1.21177E-02 1.51290E-03-6.64182E-14
 -1      2051 1.20989E-02 1.48930E-03-6.63937E-14
 -1      2052 1.25756E-02 1.41515E-03-7.07670E-14
 -1      2053 1.24200E-02 1.46615E-03-6.93110E-14
 -1      2054 1.24107E-02 1.44486E-03-6.92878E-14
 -1      2055 1.28964E-02 1.28372E-03-7.36966E-14
 -1      2056 1.27344E-02 1.35259E-03-7.22283E-14
 -1      2057 1.27342E-02 1.33003E-03-7.22053E-14
 -1      2058 1.32270E-02 1.14691E-03-7.66440E-14
 -1      2059 1.30611E-02 1.21430E-03-7.51675E-14
 -1      2060 1.30688E-02 1.18955E-03-7.51462E-14
 -1      2061 1.35594E-02 1.02963E-03-7.96062E-14
 -1      2062 1.33937E-02 1.08537E-03-7.81257E-14
 -1      2063 1.34067E-02 1.05922E-03-7.81031E-14
 -1      2064 1.38863E-02 9.37862E-04-8.25787E-14
 -1      2065 1.37241E-02 9.80948E-04-8.10908E-14
 -1      2066 1.37397E-02 9.54638E-04-8.10726E-14
 -1      2067 1.42031E-02 8.64519E-04-8.55573E-14
 -1      2068 1.40463E-02 8.99670E-04-8.40669E-14
 -1      2069 1.40626E-02 8.74277E-04-8.40490E-14
 -1      2070 1.45083E-02 7.96439E-04-8.85308E-14
 -1      2071 1.43572E-02 8.30646E-04-8.70454E-14
 -1      2072 1.43736E-02 8.07022E-04-8.70300E-14
 -1      2073 1.47546E-02 7.31898E-04-9.09961E-14
 -1      2074 1.46079E-02 7.70321E-04-8.95092E-14
 -1      2075 1.46243E-02 7.48589E-04-8.94961E-14
 -1      2076 1.48205E-02 6.94493E-04-9.14496E-14
 -1      2077 1.51260E-02 5.24367E-04-9.25661E-14
 -1      2078 1.50656E-02 5.49422E-04-9.22976E-14
 -1      2079 1.50033E-02 5.77977E-04-9.20342E-14
 -1      2080 1.49406E-02 6.09523E-04-9.17759E-14
 -1      2081 1.49129E-02 5.86498E-04-9.08701E-14
 -1      2082 1.49080E-02 6.32467E-04-9.17379E-14
 -1      2083 1.48488E-02 6.68615E-04-9.14822E-14
 -1      2084 1.47513E-02 6.95246E-04-9.05068E-14
 -1      2085 1.48147E-02 6.43890E-04-9.05753E-14
 -1      2086 1.52304E-02 4.85272E-04-9.30933E-14
 -1      2087 1.51812E-02 5.03178E-04-9.28286E-14
 -1      2088 1.50353E-02 5.29738E-04-9.13887E-14
 -1      2089 1.53032E-02 4.58451E-04-9.36345E-14
 -1      2090 1.52720E-02 4.70592E-04-9.33645E-14
 -1      2091 1.51376E-02 4.85771E-04-9.19101E-14
 -1      2092 1.53276E-02 4.40565E-04-9.41694E-14
 -1      2093 1.53221E-02 4.49045E-04-9.39043E-14
 -1      2094 1.52025E-02 4.53425E-04-9.24385E-14
 -1      2095 1.52962E-02 4.24832E-04-9.46985E-14
 -1      2096 1.53190E-02 4.33200E-04-9.44355E-14
 -1      2097 1.52145E-02 4.28488E-04-9.29627E-14
 -1      2098 1.52114E-02 4.03835E-04-9.52167E-14
 -1      2099 1.52600E-02 4.15636E-04-9.49584E-14
 -1      2100 1.51680E-02 4.03595E-04-9.34803E-14
 -1      2101 1.50842E-02 3.71934E-04-9.57198E-14
 -1      2102 1.51522E-02 3.89586E-04-9.54698E-14
 -1      2103 1.50682E-02 3.71379E-04-9.39875E-14
 -1      2104 1.49331E-02 3.27558E-04-9.62000E-14
 -1      2105 1.50110E-02 3.51365E-04-9.59606E-14
 -1      2106 1.49305E-02 3.27641E-04-9.44752E-14
 -1      2107 1.47678E-02 2.69724E-04-9.66743E-14
 -1      2108 1.48512E-02 3.00016E-04-9.64397E-14
 -1      2109 1.47708E-02 2.71289E-04-9.49491E-14
 -1      2110 1.46019E-02 2.01514E-04-9.71322E-14
 -1      2111 1.46845E-02 2.36595E-04-9.69035E-14
 -1      2112 1.46024E-02 2.03619E-04-9.54121E-14
 -1      2113 1.44419E-02 1.25944E-04-9.75780E-14
 -1      2114 1.45210E-02 1.64342E-04-9.73573E-14
 -1      2115 1.44366E-02 1.28207E-04-9.58631E-14
 -1      2116 1.38857E-02 5.30401E-04-7.52467E-14
 -1      2117 1.40415E-02 4.63335E-04-7.58796E-14
 -1      2118 1.43284E-02 3.40394E-04-7.70350E-14
 -1      2119 1.43155E-02 3.19020E-04-7.70343E-14
 -1      2120 1.42012E-02 4.01453E-04-7.64981E-14
 -1      2121 1.42847E-02 3.72649E-04-7.67806E-14
 -1      2122 1.35417E-02 6.94140E-04-7.40291E-14
 -1      2123 1.37243E-02 6.06864E-04-7.46407E-14
 -1      2124 1.37942E-02 5.47761E-04-7.54493E-14
 -1      2125 1.31307E-02 9.04379E-04-7.26006E-14
 -1      2126 1.33249E-02 8.03003E-04-7.32737E-14
 -1      2127 3.27126E-04-8.89785E-05-1.56423E-16
 -1      2128 3.29242E-04-1.02122E-04-1.52425E-16
 -1      2129 4.46325E-04-1.45101E-04-2.22383E-16
 -1      2130 4.39987E-04-1.09938E-04-2.32534E-16
 -1      2131 1.23644E-02 1.28893E-03-6.90830E-14
 -1      2132 1.25220E-02 1.22335E-03-6.99131E-14
 -1      2133 1.20325E-02 1.34591E-03-6.72801E-14
 -1      2134 1.21865E-02 1.33247E-03-6.81300E-14
 -1      2135 1.16998E-02 1.28053E-03-6.55140E-14
 -1      2136 1.18553E-02 1.32685E-03-6.63407E-14
 -1      2137 1.13561E-02 1.10592E-03-6.37551E-14
 -1      2138 1.15237E-02 1.20416E-03-6.45804E-14
 -1      2139 1.09002E-02 8.30658E-04-6.21718E-14
 -1      2140 1.11005E-02 9.49876E-04-6.27345E-14
 -1      2141 1.05264E-02 6.18095E-04-6.11876E-14
 -1      2142 1.07136E-02 7.25088E-04-6.16794E-14
 -1      2143 1.08315E-02 7.57095E-04-6.13998E-14
 -1      2144 1.01453E-02 4.10564E-04-6.01172E-14
 -1      2145 1.03247E-02 5.04853E-04-6.06229E-14
 -1      2146 9.78835E-03 2.66111E-04-5.95596E-14
 -1      2147 9.92213E-03 3.11002E-04-5.96490E-14
 -1      2148 9.63169E-03 2.06397E-04-5.96275E-14
 -1      2149 9.68729E-03 2.29932E-04-5.96003E-14
 -1      2150 9.63107E-03 1.59325E-04-5.99641E-14
 -1      2151 9.61187E-03 1.80056E-04-5.98073E-14
 -1      2152 9.78677E-03 9.82362E-05-6.03759E-14
 -1      2153 9.69478E-03 1.29829E-04-6.00581E-14
 -1      2154 1.00526E-02-6.16616E-06-6.12746E-14
 -1      2155 9.90454E-03 5.08369E-05-6.08250E-14
 -1      2156 9.83389E-03 9.38224E-05-5.99244E-14
 -1      2157 1.04520E-02-1.83319E-04-6.25282E-14
 -1      2158 1.02705E-02-9.76912E-05-6.19313E-14
 -1      2159 1.08628E-02-3.95567E-04-6.40098E-14
 -1      2160 1.06610E-02-2.88351E-04-6.32785E-14
 -1      2161 1.12998E-02-6.34933E-04-6.62236E-14
 -1      2162 1.11288E-02-5.42249E-04-6.52857E-14
 -1      2163 1.16016E-02-7.48908E-04-6.78210E-14
 -1      2164 1.14551E-02-6.99277E-04-6.70223E-14
 -1      2165 1.13947E-02-6.74926E-04-6.65260E-14
 -1      2166 1.19263E-02-7.79223E-04-6.97069E-14
 -1      2167 1.17746E-02-7.77978E-04-6.87994E-14
 -1      2168 1.22922E-02-6.75520E-04-7.16961E-14
 -1      2169 1.21297E-02-7.38863E-04-7.08890E-14
 -1      2170 1.26353E-02-4.98978E-04-7.32142E-14
 -1      2171 1.24616E-02-5.97960E-04-7.24524E-14
 -1      2172 1.23521E-02-6.38874E-04-7.24083E-14
 -1      2173 1.30819E-02-2.44145E-04-7.47512E-14
 -1      2174 1.28793E-02-3.60039E-04-7.41385E-14
 -1      2175 1.35370E-02-1.20769E-05-7.58249E-14
 -1      2176 1.33234E-02-1.20656E-04-7.53242E-14
 -1      2177 1.39639E-02 1.72760E-04-7.65924E-14
 -1      2178 1.37729E-02 9.42512E-05-7.62667E-14
 -1      2179 1.42523E-02 2.84905E-04-7.70036E-14
 -1      2180 1.41419E-02 2.47394E-04-7.69465E-14
 -1      2181 1.27201E-02 1.12877E-03-7.08654E-14
 -1      2182 1.28962E-02 1.02949E-03-7.16721E-14
 -1      2183 1.34279E-02 7.24016E-04-7.40849E-14
 -1      2184 6.07902E-04-2.98129E-04-2.44854E-16
 -1      2185 1.25989E-02 1.18153E-03-7.05196E-14
 -1      2186 6.63622E-04-2.92417E-04-3.23621E-16
 -1      2187 1.41258E-02 4.19458E-04-7.66796E-14
 -1      2188 1.41971E-02 3.95166E-04-7.74838E-14
 -1      2189 1.40427E-02 4.42000E-04-7.68586E-14
 -1      2190 1.43215E-02 3.53305E-04-7.75617E-14
 -1      2191 1.43381E-02 7.43528E-05-9.72860E-14
 -1      2192 1.42918E-02 3.14262E-04-7.77963E-14
 -1      2193 1.29979E-02 9.58571E-04-7.24004E-14
 -1      2194 1.40570E-02 2.34385E-04-7.74157E-14
 -1      2195 1.36449E-02 6.74349E-05-7.66182E-14
 -1      2196 1.27293E-02-4.23854E-04-7.40923E-14
 -1      2197 1.16842E-02-7.73324E-04-6.83019E-14
 -1      2198 1.10080E-02-4.68107E-04-6.44485E-14
 -1      2199 1.08879E-02-3.97390E-04-6.36149E-14
 -1      2200 1.11291E-02-5.37584E-04-6.48892E-14
 -1      2201 1.01508E-02-2.74014E-05-6.10257E-14
 -1      2202 9.65514E-03 1.48685E-04-5.93858E-14
 -1      2203 9.61278E-03 1.86510E-04-5.91138E-14
 -1      2204 9.72941E-03 2.28131E-04-5.88941E-14
 -1      2205 1.04589E-02 5.41614E-04-6.03479E-14
 -1      2206 1.12454E-02 1.02326E-03-6.29049E-14
 -1      2207 1.13608E-02 1.09126E-03-6.30742E-14
 -1      2208 1.11365E-02 9.40015E-04-6.20580E-14
 -1      2209 1.16341E-02 1.25327E-03-6.48549E-14
 -1      2210 1.22641E-02 1.32286E-03-6.86145E-14
 -1      2211 1.19514E-02 1.34991E-03-6.67241E-14
 -1      2212 1.00342E-02 3.35211E-04-5.93176E-14
 -1      2213 1.01443E-02 3.67764E-04-5.89870E-14
 -1      2214 9.93461E-03 2.84174E-04-5.85217E-14
 -1      2215 1.05575E-02-2.17774E-04-6.24285E-14
 -1      2216 1.20212E-02-7.71512E-04-7.04641E-14
 -1      2217 1.19320E-02-7.89476E-04-7.00397E-14
 -1      2218 1.21013E-02-7.47387E-04-7.12243E-14
 -1      2219 1.31830E-02-1.59707E-04-7.55963E-14
 -1      2220 1.01662E-03 3.99823E-04-4.91238E-16
 -1      2221 8.72150E-04 3.63436E-04-3.57068E-16
 -1      2222 5.47775E-04-5.53023E-05-3.37512E-16
 -1      2223 5.48813E-04-7.20184E-05-3.37797E-16
 -1      2224 5.50235E-04-8.93382E-05-3.37295E-16
 -1      2225 5.52109E-04-1.07313E-04-3.35547E-16
 -1      2226 6.65279E-04-9.54965E-05-4.56761E-16
 -1      2227 5.46392E-04 8.85744E-06-3.27754E-16
 -1      2228 5.46372E-04-6.98138E-06-3.31319E-16
 -1      2229 5.47147E-04 4.08712E-05-3.18837E-16
 -1      2230 5.46647E-04 2.47953E-05-3.23770E-16
 -1      2231 6.61328E-04 1.99326E-05-4.41257E-16
 -1      2232 5.48975E-04 7.34948E-05-3.06667E-16
 -1      2233 5.47911E-04 5.70016E-05-3.13375E-16
 -1      2234 6.62654E-04 5.77923E-05-4.28802E-16
 -1      2235 5.52371E-04 1.08969E-04-2.89983E-16
 -1      2236 5.50445E-04 9.08932E-05-2.98860E-16
 -1      2237 6.65518E-04 9.72637E-05-4.11550E-16
 -1      2238 5.58255E-04 1.48304E-04-2.67256E-16
 -1      2239 5.54934E-04 1.28079E-04-2.79575E-16
 -1      2240 6.70614E-04 1.40037E-04-3.88402E-16
 -1      2241 5.68589E-04 1.93901E-04-2.36261E-16
 -1      2242 5.62748E-04 1.70184E-04-2.53202E-16
 -1      2243 6.79269E-04 1.87581E-04-3.57394E-16
 -1      2244 1.30208E-03 4.56772E-04-8.31515E-16
 -1      2245 1.15976E-03 4.30827E-04-6.49166E-16
 -1      2246 1.07179E-03 3.81346E-04-6.08630E-16
 -1      2247 9.15204E-04-3.46397E-04-6.09267E-16
 -1      2248 1.05928E-03-3.79699E-04-7.97282E-16
 -1      2249 1.25126E-02 1.23003E-03-7.02659E-14
 -1      2250 1.26748E-02 1.13827E-03-7.12185E-14
 -1      2251 1.20257E-03-4.08094E-04-1.01175E-15
 -1      2252 1.34538E-03-4.31981E-04-1.25294E-15
 -1      2253 1.11696E-03-3.60458E-04-9.24228E-16
 -1      2254 1.48754E-03-4.52200E-04-1.52047E-15
 -1      2255 1.62932E-03-4.69039E-04-1.81501E-15
 -1      2256 1.40333E-03-4.07305E-04-1.40941E-15
 -1      2257 1.77075E-03-4.83170E-04-2.13542E-15
 -1      2258 1.91193E-03-4.94810E-04-2.48179E-15
 -1      2259 1.68845E-03-4.40540E-04-1.99943E-15
 -1      2260 2.05295E-03-5.04452E-04-2.85389E-15
 -1      2261 2.19387E-03-5.12271E-04-3.25187E-15
 -1      2262 1.97263E-03-4.63586E-04-2.69268E-15
 -1      2263 2.33477E-03-5.18627E-04-3.67451E-15
 -1      2264 2.47565E-03-5.23662E-04-4.12227E-15
 -1      2265 2.25626E-03-4.79081E-04-3.48742E-15
 -1      2266 2.61659E-03-5.27640E-04-4.59488E-15
 -1      2267 2.75758E-03-5.30674E-04-5.09221E-15
 -1      2268 2.53967E-03-4.89055E-04-4.38141E-15
 -1      2269 2.89867E-03-5.32954E-04-5.61371E-15
 -1      2270 3.03984E-03-5.34569E-04-6.15933E-15
 -1      2271 2.82308E-03-4.95054E-04-5.37329E-15
 -1      2272 3.18114E-03-5.35656E-04-6.72776E-15
 -1      2273 3.32253E-03-5.36282E-04-7.31946E-15
 -1      2274 3.10664E-03-4.98236E-04-6.46035E-15
 -1      2275 3.46404E-03-5.36541E-04-7.93421E-15
 -1      2276 3.60566E-03-5.36484E-04-8.57086E-15
 -1      2277 3.39043E-03-4.99452E-04-7.63995E-15
 -1      2278 3.74740E-03-5.36174E-04-9.22964E-15
 -1      2279 3.88923E-03-5.35646E-04-9.91031E-15
 -1      2280 3.67448E-03-4.99316E-04-8.90924E-15
 -1      2281 4.03118E-03-5.34940E-04-1.06127E-14
 -1      2282 4.17322E-03-5.34079E-04-1.13375E-14
 -1      2283 3.95882E-03-4.98247E-04-1.02663E-14
 -1      2284 4.31537E-03-5.33084E-04-1.20843E-14
 -1      2285 4.45760E-03-5.31969E-04-1.28519E-14
 -1      2286 4.24342E-03-4.96519E-04-1.17102E-14
 -1      2287 4.59993E-03-5.30742E-04-1.36409E-14
 -1      2288 4.74235E-03-5.29410E-04-1.44519E-14
 -1      2289 4.52829E-03-4.94291E-04-1.32407E-14
 -1      2290 4.88486E-03-5.27968E-04-1.52826E-14
 -1      2291 5.02745E-03-5.26418E-04-1.61340E-14
 -1      2292 4.81341E-03-4.91631E-04-1.48558E-14
 -1      2293 5.17015E-03-5.24749E-04-1.70068E-14
 -1      2294 5.31293E-03-5.22960E-04-1.79011E-14
 -1      2295 5.09879E-03-4.88541E-04-1.65549E-14
 -1      2296 5.45582E-03-5.21032E-04-1.88161E-14
 -1      2297 5.59882E-03-5.18964E-04-1.97508E-14
 -1      2298 5.38445E-03-4.84973E-04-1.83360E-14
 -1      2299 5.74193E-03-5.16734E-04-2.07070E-14
 -1      2300 5.88518E-03-5.14340E-04-2.16840E-14
 -1      2301 5.67043E-03-4.80848E-04-2.02013E-14
 -1      2302 6.02857E-03-5.11763E-04-2.26807E-14
 -1      2303 6.17212E-03-5.09002E-04-2.36984E-14
 -1      2304 5.95677E-03-4.76073E-04-2.21494E-14
 -1      2305 6.31584E-03-5.06041E-04-2.47360E-14
 -1      2306 6.45978E-03-5.02886E-04-2.57926E-14
 -1      2307 6.24357E-03-4.70558E-04-2.41773E-14
 -1      2308 6.60392E-03-4.99532E-04-2.68681E-14
 -1      2309 6.74833E-03-4.95992E-04-2.79618E-14
 -1      2310 6.53092E-03-4.64247E-04-2.62832E-14
 -1      2311 6.89300E-03-4.92278E-04-2.90749E-14
 -1      2312 7.03801E-03-4.88419E-04-3.02052E-14
 -1      2313 6.81899E-03-4.57149E-04-2.84644E-14
 -1      2314 7.18335E-03-4.84451E-04-3.13543E-14
 -1      2315 7.32911E-03-4.80425E-04-3.25198E-14
 -1      2316 7.10795E-03-4.49381E-04-3.07188E-14
 -1      2317 7.47528E-03-4.76415E-04-3.37004E-14
 -1      2318 7.62197E-03-4.72502E-04-3.48966E-14
 -1      2319 7.39805E-03-4.41229E-04-3.30417E-14
 -1      2320 7.76917E-03-4.68810E-04-3.61081E-14
 -1      2321 7.91698E-03-4.65463E-04-3.73355E-14
 -1      2322 7.68959E-03-4.33220E-04-3.54268E-14
 -1      2323 8.06543E-03-4.62651E-04-3.85770E-14
 -1      2324 8.21461E-03-4.60549E-04-3.98338E-14
 -1      2325 7.98296E-03-4.26212E-04-3.78734E-14
 -1      2326 8.36457E-03-4.59427E-04-4.11067E-14
 -1      2327 8.51539E-03-4.59530E-04-4.23922E-14
 -1      2328 8.27865E-03-4.21500E-04-4.03799E-14
 -1      2329 8.66714E-03-4.61207E-04-4.36904E-14
 -1      2330 8.81988E-03-4.64783E-04-4.50020E-14
 -1      2331 8.57731E-03-4.20913E-04-4.29440E-14
 -1      2332 8.97374E-03-4.70675E-04-4.63266E-14
 -1      2333 9.12868E-03-4.79289E-04-4.76651E-14
 -1      2334 8.87973E-03-4.26901E-04-4.55588E-14
 -1      2335 9.28493E-03-4.91064E-04-4.90150E-14
 -1      2336 9.44229E-03-5.06454E-04-5.03747E-14
 -1      2337 9.18691E-03-4.42530E-04-4.82232E-14
 -1      2338 9.60109E-03-5.25823E-04-5.17458E-14
 -1      2339 9.76088E-03-5.49584E-04-5.31267E-14
 -1      2340 9.49988E-03-4.71330E-04-5.09358E-14
 -1      2341 9.92205E-03-5.77868E-04-5.45178E-14
 -1      2342 1.00838E-02-6.10848E-04-5.59163E-14
 -1      2343 9.81941E-03-5.16786E-04-5.36883E-14
 -1      2344 1.02466E-02-6.48214E-04-5.73222E-14
 -1      2345 1.04092E-02-6.89506E-04-5.87354E-14
 -1      2346 1.01454E-02-5.81290E-04-5.64765E-14
 -1      2347 1.05719E-02-7.33726E-04-6.01562E-14
 -1      2348 1.07333E-02-7.79438E-04-6.15852E-14
 -1      2349 1.04757E-02-6.64077E-04-5.92944E-14
 -1      2350 1.08934E-02-8.24822E-04-6.30211E-14
 -1      2351 1.10513E-02-8.67255E-04-6.44657E-14
 -1      2352 1.08058E-02-7.58252E-04-6.21461E-14
 -1      2353 1.12065E-02-9.04367E-04-6.59167E-14
 -1      2354 1.13594E-02-9.32872E-04-6.73755E-14
 -1      2355 1.11295E-02-8.48285E-04-6.50297E-14
 -1      2356 1.15094E-02-9.50595E-04-6.88442E-14
 -1      2357 1.16584E-02-9.55231E-04-7.03204E-14
 -1      2358 1.14425E-02-9.10637E-04-6.79450E-14
 -1      2359 1.18057E-02-9.45769E-04-7.18025E-14
 -1      2360 1.19539E-02-9.22017E-04-7.32921E-14
 -1      2361 1.17465E-02-9.22351E-04-7.08935E-14
 -1      2362 1.21025E-02-8.84709E-04-7.47900E-14
 -1      2363 1.22533E-02-8.36025E-04-7.62966E-14
 -1      2364 1.20495E-02-8.72741E-04-7.38693E-14
 -1      2365 1.24058E-02-7.77893E-04-7.78115E-14
 -1      2366 1.25603E-02-7.13338E-04-7.93356E-14
 -1      2367 1.23593E-02-7.70262E-04-7.68781E-14
 -1      2368 1.27164E-02-6.44481E-04-8.08653E-14
 -1      2369 1.28732E-02-5.73800E-04-8.24019E-14
 -1      2370 1.26781E-02-6.36204E-04-7.99193E-14
 -1      2371 1.30305E-02-5.02786E-04-8.39477E-14
 -1      2372 1.31872E-02-4.32632E-04-8.54956E-14
 -1      2373 1.30015E-02-4.92392E-04-8.29911E-14
 -1      2374 1.33434E-02-3.63965E-04-8.70525E-14
 -1      2375 1.34979E-02-2.96858E-04-8.86182E-14
 -1      2376 1.33230E-02-3.52476E-04-8.60899E-14
 -1      2377 1.36510E-02-2.31229E-04-9.01892E-14
 -1      2378 1.38021E-02-1.66403E-04-9.17675E-14
 -1      2379 1.36377E-02-2.20628E-04-8.92133E-14
 -1      2380 1.86525E-03 5.25277E-04-1.80419E-15
 -1      2381 1.72502E-03 5.12531E-04-1.52456E-15
 -1      2382 2.14532E-03 5.44539E-04-2.43565E-15
 -1      2383 2.00533E-03 5.35886E-04-2.10816E-15
 -1      2384 1.92457E-03 4.94657E-04-2.02034E-15
 -1      2385 2.42536E-03 5.57293E-04-3.16252E-15
 -1      2386 2.28533E-03 5.51624E-04-2.78727E-15
 -1      2387 2.20666E-03 5.11897E-04-2.68306E-15
 -1      2388 2.70575E-03 5.65338E-04-3.98428E-15
 -1      2389 2.56550E-03 5.61823E-04-3.56155E-15
 -1      2390 2.48859E-03 5.23168E-04-3.44047E-15
 -1      2391 2.98668E-03 5.70020E-04-4.89867E-15
 -1      2392 2.84615E-03 5.68038E-04-4.42959E-15
 -1      2393 2.77066E-03 5.30134E-04-4.29141E-15
 -1      2394 3.26826E-03 5.72334E-04-5.90501E-15
 -1      2395 3.12740E-03 5.71427E-04-5.39072E-15
 -1      2396 3.05305E-03 5.34038E-04-5.23529E-15
 -1      2397 3.55047E-03 5.73002E-04-7.00198E-15
 -1      2398 3.40929E-03 5.72839E-04-6.44191E-15
 -1      2399 3.33584E-03 5.35798E-04-6.26990E-15
 -1      2400 3.83329E-03 5.72532E-04-8.18829E-15
 -1      2401 3.69181E-03 5.72885E-04-7.58360E-15
 -1      2402 3.61906E-03 5.36075E-04-7.39404E-15
 -1      2403 4.11668E-03 5.71268E-04-9.46586E-15
 -1      2404 3.97492E-03 5.71983E-04-8.81559E-15
 -1      2405 3.90272E-03 5.35330E-04-8.60875E-15
 -1      2406 4.40057E-03 5.69418E-04-1.08311E-14
 -1      2407 4.25857E-03 5.70406E-04-1.01376E-14
 -1      2408 4.18677E-03 5.33867E-04-9.91222E-15
 -1      2409 4.68494E-03 5.67093E-04-1.22844E-14
 -1      2410 4.54270E-03 5.68310E-04-1.15469E-14
 -1      2411 4.47120E-03 5.31864E-04-1.13035E-14
 -1      2412 4.96975E-03 5.64320E-04-1.38231E-14
 -1      2413 4.82729E-03 5.65761E-04-1.30439E-14
 -1      2414 4.75599E-03 5.29408E-04-1.27811E-14
 -1      2415 5.25502E-03 5.61068E-04-1.54440E-14
 -1      2416 5.11233E-03 5.62755E-04-1.46234E-14
 -1      2417 5.04114E-03 5.26506E-04-1.43436E-14
 -1      2418 5.54077E-03 5.57261E-04-1.71458E-14
 -1      2419 5.39783E-03 5.59237E-04-1.62839E-14
 -1      2420 5.32666E-03 5.23113E-04-1.59874E-14
 -1      2421 5.82710E-03 5.52793E-04-1.89263E-14
 -1      2422 5.68386E-03 5.55113E-04-1.80265E-14
 -1      2423 5.61258E-03 5.19141E-04-1.77123E-14
 -1      2424 6.11411E-03 5.47545E-04-2.07853E-14
 -1      2425 5.97050E-03 5.50270E-04-1.98466E-14
 -1      2426 5.89899E-03 5.14476E-04-1.95161E-14
 -1      2427 6.40199E-03 5.41401E-04-2.27144E-14
 -1      2428 6.25792E-03 5.44586E-04-2.17413E-14
 -1      2429 6.18598E-03 5.08994E-04-2.13946E-14
 -1      2430 6.69099E-03 5.34281E-04-2.47139E-14
 -1      2431 6.54632E-03 5.37961E-04-2.37047E-14
 -1      2432 6.47370E-03 5.02582E-04-2.33459E-14
 -1      2433 6.98140E-03 5.26169E-04-2.67804E-14
 -1      2434 6.83598E-03 5.30340E-04-2.57388E-14
 -1      2435 6.76235E-03 4.95166E-04-2.53651E-14
 -1      2436 7.27364E-03 5.17172E-04-2.89093E-14
 -1      2437 7.12725E-03 5.21762E-04-2.78360E-14
 -1      2438 7.05216E-03 4.86749E-04-2.74511E-14
 -1      2439 7.56817E-03 5.07594E-04-3.11072E-14
 -1      2440 7.42056E-03 5.12422E-04-3.00008E-14
 -1      2441 7.34343E-03 4.77468E-04-2.96034E-14
 -1      2442 7.86558E-03 4.98046E-04-3.33632E-14
 -1      2443 7.71645E-03 5.02760E-04-3.22286E-14
 -1      2444 7.63652E-03 4.67674E-04-3.18213E-14
 -1      2445 8.16653E-03 4.89601E-04-3.56807E-14
 -1      2446 8.01553E-03 4.93597E-04-3.45153E-14
 -1      2447 7.93185E-03 4.58047E-04-3.40995E-14
 -1      2448 8.47179E-03 4.84015E-04-3.80501E-14
 -1      2449 8.31853E-03 4.86315E-04-3.68581E-14
 -1      2450 8.22995E-03 4.49756E-04-3.64320E-14
 -1      2451 8.78224E-03 4.84010E-04-4.04710E-14
 -1      2452 8.62627E-03 4.83113E-04-3.92545E-14
 -1      2453 8.53143E-03 4.44678E-04-3.88197E-14
 -1      2454 9.09889E-03 4.93615E-04-4.29422E-14
 -1      2455 8.93970E-03 4.87319E-04-4.17001E-14
 -1      2456 8.83713E-03 4.45676E-04-4.12588E-14
 -1      2457 9.42289E-03 5.18501E-04-4.54600E-14
 -1      2458 9.25991E-03 5.03741E-04-4.41947E-14
 -1      2459 9.14822E-03 4.56934E-04-4.37452E-14
 -1      2460 9.75556E-03 5.66098E-04-4.80311E-14
 -1      2461 9.58817E-03 5.38933E-04-4.67389E-14
 -1      2462 9.46641E-03 4.84273E-04-4.62818E-14
 -1      2463 1.00982E-02 6.45071E-04-5.06505E-14
 -1      2464 9.92580E-03 6.01053E-04-4.93348E-14
 -1      2465 9.79412E-03 5.35304E-04-4.88691E-14
 -1      2466 1.04510E-02 7.63348E-04-5.33212E-14
 -1      2467 1.02738E-02 6.98881E-04-5.19791E-14
 -1      2468 1.01343E-02 6.19096E-04-5.15040E-14
 -1      2469 1.08116E-02 9.23110E-04-5.60356E-14
 -1      2470 1.06312E-02 8.38200E-04-5.46722E-14
 -1      2471 1.04890E-02 7.44150E-04-5.41869E-14
 -1      2472 1.11730E-02 1.11277E-03-5.87974E-14
 -1      2473 1.09935E-02 1.01578E-03-5.74126E-14
 -1      2474 1.08567E-02 9.13138E-04-5.69162E-14
 -1      2475 1.15231E-02 1.29843E-03-6.16006E-14
 -1      2476 1.13501E-02 1.20944E-03-6.01940E-14
 -1      2477 1.12279E-02 1.11264E-03-5.96900E-14
 -1      2478 1.18551E-02 1.42753E-03-6.44394E-14
 -1      2479 1.16905E-02 1.37378E-03-6.30150E-14
 -1      2480 1.15869E-02 1.30142E-03-6.25032E-14
 -1      2481 1.21764E-02 1.45631E-03-6.73142E-14
 -1      2482 1.20149E-02 1.45585E-03-6.58737E-14
 -1      2483 1.19270E-02 1.41693E-03-6.53529E-14
 -1      2484 1.25035E-02 1.38285E-03-7.02149E-14
 -1      2485 1.23375E-02 1.43004E-03-6.87600E-14
 -1      2486 1.22604E-02 1.41521E-03-6.82345E-14
 -1      2487 1.28449E-02 1.24855E-03-7.31423E-14
 -1      2488 1.26725E-02 1.31957E-03-7.16755E-14
 -1      2489 1.26057E-02 1.31038E-03-7.11435E-14
 -1      2490 1.31941E-02 1.10409E-03-7.60894E-14
 -1      2491 1.30197E-02 1.17512E-03-7.46138E-14
 -1      2492 1.29660E-02 1.15986E-03-7.40787E-14
 -1      2493 1.35393E-02 9.80515E-04-7.90544E-14
 -1      2494 1.33682E-02 1.03878E-03-7.75714E-14
 -1      2495 1.33278E-02 1.01616E-03-7.70363E-14
 -1      2496 1.38734E-02 8.86264E-04-8.20301E-14
 -1      2497 1.37084E-02 9.29978E-04-8.05409E-14
 -1      2498 1.36778E-02 9.02831E-04-8.00081E-14
 -1      2499 1.41936E-02 8.14767E-04-8.50108E-14
 -1      2500 1.40354E-02 8.48454E-04-8.35183E-14
 -1      2501 1.40107E-02 8.20485E-04-8.29875E-14
 -1      2502 1.45004E-02 7.52625E-04-8.79908E-14
 -1      2503 1.43487E-02 7.83463E-04-8.65017E-14
 -1      2504 1.43269E-02 7.58109E-04-8.59714E-14
 -1      2505 1.46528E-02 7.20372E-04-8.95264E-14
 -1      2506 1.50451E-02 4.79425E-04-9.07232E-14
 -1      2507 1.49993E-02 5.02201E-04-9.04649E-14
 -1      2508 1.51017E-02 4.42764E-04-9.12384E-14
 -1      2509 1.50800E-02 4.60074E-04-9.09803E-14
 -1      2510 1.49534E-02 4.68313E-04-8.95297E-14
 -1      2511 1.48222E-02 5.88823E-04-8.97004E-14
 -1      2512 1.47564E-02 6.23794E-04-8.94439E-14
 -1      2513 1.49452E-02 5.27902E-04-9.02062E-14
 -1      2514 1.48858E-02 5.56687E-04-8.99529E-14
 -1      2515 1.47311E-02 5.85731E-04-8.85204E-14
 -1      2516 1.48564E-02 5.20105E-04-8.90235E-14
 -1      2517 1.51000E-02 4.12450E-04-9.17529E-14
 -1      2518 1.51087E-02 4.27636E-04-9.14962E-14
 -1      2519 1.50006E-02 4.28838E-04-9.00355E-14
 -1      2520 1.50367E-02 3.79835E-04-9.22591E-14
 -1      2521 1.50757E-02 3.97260E-04-9.20063E-14
 -1      2522 1.49831E-02 3.94299E-04-9.05412E-14
 -1      2523 1.49208E-02 3.37280E-04-9.27546E-14
 -1      2524 1.49843E-02 3.60299E-04-9.25076E-14
 -1      2525 1.49011E-02 3.54289E-04-9.10357E-14
 -1      2526 1.47724E-02 2.82365E-04-9.32263E-14
 -1      2527 1.48497E-02 3.11493E-04-9.29940E-14
 -1      2528 1.47694E-02 3.01657E-04-9.15151E-14
 -1      2529 1.46047E-02 2.14154E-04-9.36982E-14
 -1      2530 1.46896E-02 2.49554E-04-9.34642E-14
 -1      2531 1.46082E-02 2.34366E-04-9.19843E-14
 -1      2532 1.44343E-02 1.36991E-04-9.41514E-14
 -1      2533 1.45192E-02 1.76300E-04-9.39258E-14
 -1      2534 1.44349E-02 1.54830E-04-9.24446E-14
 -1      2535 1.42696E-02 5.47722E-05-9.45959E-14
 -1      2536 1.43510E-02 9.61501E-05-9.43729E-14
 -1      2537 1.42639E-02 6.86078E-05-9.28910E-14
 -1      2538 1.43143E-02 3.61759E-04-7.83577E-14
 -1      2539 1.43517E-02 3.48976E-04-7.86236E-14
 -1      2540 1.43291E-02 3.30002E-04-7.86440E-14
 -1      2541 1.42665E-02 3.14907E-04-7.86204E-14
 -1      2542 1.58450E-03 4.97102E-04-1.26941E-15
 -1      2543 1.44357E-03 4.78776E-04-1.03799E-15
 -1      2544 1.64184E-03 4.69247E-04-1.45303E-15
 -1      2545 1.42114E-02 1.59663E-05-9.58489E-14
 -1      2546 1.37036E-02 5.75133E-04-7.57961E-14
 -1      2547 1.38552E-02 5.12407E-04-7.64058E-14
 -1      2548 5.88515E-04-2.37980E-04-2.95377E-16
 -1      2549 7.81323E-04-3.04839E-04-4.66329E-16
 -1      2550 8.40770E-04-2.93611E-04-5.63379E-16
 -1      2551 5.78977E-04-2.10186E-04-3.09906E-16
 -1      2552 1.28983E-02 1.00841E-03-7.23579E-14
 -1      2553 1.31003E-02 8.86987E-04-7.32873E-14
 -1      2554 1.17508E-02-7.94004E-04-6.88321E-14
 -1      2555 1.16137E-02-7.65913E-04-6.78530E-14
 -1      2556 9.66409E-03 1.45417E-04-5.86366E-14
 -1      2557 9.61192E-03 1.59841E-04-5.85452E-14
 -1      2558 5.46586E-04-2.29023E-05-3.34083E-16
 -1      2559 5.47044E-04-3.89441E-05-3.36252E-16
 -1      2560 6.62505E-04-5.58204E-05-4.55568E-16
 -1      2561 6.61275E-04-1.77071E-05-4.50174E-16
 -1      2562 1.18831E-02 1.34657E-03-6.61331E-14
 -1      2563 1.20233E-02 1.36473E-03-6.70689E-14
 -1      2564 1.21833E-02 1.35253E-03-6.81188E-14
 -1      2565 1.23247E-02 1.31008E-03-6.90701E-14
 -1      2566 1.15912E-02 1.22885E-03-6.42397E-14
 -1      2567 1.17364E-02 1.30117E-03-6.51697E-14
 -1      2568 1.07457E-02 6.85398E-04-6.05167E-14
 -1      2569 1.09044E-02 7.85988E-04-6.10032E-14
 -1      2570 1.06352E-02-2.58526E-04-6.22312E-14
 -1      2571 1.04551E-02-1.62358E-04-6.14849E-14
 -1      2572 1.03749E-02 4.75736E-04-5.93985E-14
 -1      2573 1.05600E-02 5.76635E-04-5.99577E-14
 -1      2574 1.06329E-02 6.16120E-04-5.95635E-14
 -1      2575 9.67091E-03 2.01370E-04-5.82394E-14
 -1      2576 9.75979E-03 2.23792E-04-5.81984E-14
 -1      2577 9.59569E-03 1.73033E-04-5.83679E-14
 -1      2578 9.61241E-03 1.81386E-04-5.81905E-14
 -1      2579 9.58320E-03 1.61230E-04-5.76225E-14
 -1      2580 9.88769E-03 7.88215E-05-5.94070E-14
 -1      2581 9.77911E-03 1.10384E-04-5.89615E-14
 -1      2582 1.02471E-02-6.25719E-05-6.07061E-14
 -1      2583 1.00550E-02 1.73207E-05-6.00539E-14
 -1      2584 9.96610E-03 3.96419E-05-5.90884E-14
 -1      2585 1.14555E-02-7.09230E-04-6.67926E-14
 -1      2586 1.13306E-02-6.46997E-04-6.59944E-14
 -1      2587 1.32927E-02-7.84390E-05-7.65512E-14
 -1      2588 1.30801E-02-1.96863E-04-7.59711E-14
 -1      2589 1.24154E-02-5.96521E-04-7.32176E-14
 -1      2590 1.22788E-02-6.72400E-04-7.24575E-14
 -1      2591 1.28239E-02-3.47837E-04-7.50731E-14
 -1      2592 1.26125E-02-4.81397E-04-7.41433E-14
 -1      2593 1.25262E-02-5.30226E-04-7.41927E-14
 -1      2594 1.37501E-02 1.36442E-04-7.75714E-14
 -1      2595 1.35334E-02 4.11531E-05-7.71244E-14
 -1      2596 1.41328E-02 2.73585E-04-7.83157E-14
 -1      2597 1.39614E-02 2.18477E-04-7.79630E-14
 -1      2598 7.57907E-04 3.34228E-04-2.61482E-16
 -1      2599 6.11489E-04 2.84863E-04-1.70355E-16
 -1      2600 5.84763E-04 2.58094E-04-1.78934E-16
 -1      2601 8.13729E-04 3.22902E-04-3.48476E-16
 -1      2602 1.33285E-02 7.60631E-04-7.42790E-14
 -1      2603 1.35211E-02 6.60639E-04-7.50374E-14
 -1      2604 1.36150E-02 6.22408E-04-7.59928E-14
 -1      2605 1.21040E-02 1.36848E-03-6.75225E-14
 -1      2606 6.70232E-04-1.37953E-04-4.52329E-16
 -1      2607 5.54600E-04-1.26211E-04-3.32335E-16
 -1      2608 5.57756E-04-1.46198E-04-3.27632E-16
 -1      2609 1.35782E-03 4.32757E-04-9.82572E-16
 -1      2610 5.72260E-04 2.27897E-04-2.03505E-16
 -1      2611 1.32251E-02 8.23082E-04-7.42379E-14
 -1      2612 1.42090E-02 3.00188E-04-7.91659E-14
 -1      2613 1.27994E-02 1.07458E-03-7.21033E-14
 -1      2614 1.29535E-02-2.67977E-04-7.60203E-14
 -1      2615 1.39669E-02 4.74893E-04-7.72080E-14
 -1      2616 1.34285E-02-4.52792E-06-7.75000E-14
 -1      2617 1.46322E-02 7.00832E-04-8.90024E-14
 -1      2618 1.43648E-02 3.45424E-04-7.94459E-14
 -1      2619 1.46658E-02 6.73012E-04-8.90357E-14
 -1      2620 1.45705E-02 6.74832E-04-8.78673E-14
 -1      2621 1.42787E-02 3.76375E-04-7.85408E-14
 -1      2622 1.43443E-02 3.71100E-04-7.96031E-14
 -1      2623 1.42316E-02 3.93766E-04-7.87200E-14
 -1      2624 1.03245E-02-1.12299E-04-6.05080E-14
 -1      2625 6.89543E-04 2.51252E-04-3.00148E-16
 -1      2626 5.71841E-04-1.85212E-04-3.20653E-16
 -1      2627 1.02375E-02 4.07361E-04-5.85998E-14
 -1      2628 1.18402E-02-8.00173E-04-6.95865E-14
 -1      2629 1.15337E-02-7.47466E-04-6.73165E-14
 -1      2630 1.07606E-02-3.31956E-04-6.26635E-14
 -1      2631 1.06345E-02-2.81718E-04-6.17157E-14
 -1      2632 1.08723E-02-4.06423E-04-6.30980E-14
 -1      2633 9.75239E-03 2.18329E-04-5.72164E-14
 -1      2634 9.83667E-03 2.44524E-04-5.78681E-14
 -1      2635 9.91695E-03 2.71622E-04-5.75370E-14
 -1      2636 1.14771E-02 1.16445E-03-6.33863E-14
 -1      2637 1.15719E-02 1.22531E-03-6.36975E-14
 -1      2638 1.13644E-02 1.09345E-03-6.25353E-14
 -1      2639 9.69498E-03 1.26463E-04-5.81211E-14
 -1      2640 1.12043E-02-5.86251E-04-6.51517E-14
 -1      2641 1.10302E-02 8.65223E-04-6.11705E-14
 -1      2642 1.11373E-02 9.42798E-04-6.13353E-14
 -1      2643 1.09243E-02 8.00411E-04-6.02861E-14
 -1      2644 1.24235E-02 1.27943E-03-6.97666E-14
 -1      2645 1.18187E-02 1.33336E-03-6.55120E-14
 -1      2646 9.62137E-03 1.82218E-04-5.74965E-14
 -1      2647 1.21808E-02-7.17529E-04-7.20289E-14
 -1      2648 1.40314E-02-6.74457E-05-9.42709E-14
 -1      2649 1.41755E-02 7.33011E-06-9.45063E-14
 -1      2650 1.40863E-02-2.43971E-05-9.30220E-14
 -1      2651 1.39018E-02-1.23734E-04-9.28410E-14
 -1      2652 1.38657E-02 1.87781E-04-7.84689E-14
 -1      2653 1.38929E-02-1.15490E-04-9.18581E-14
 -1      2654 7.80190E-04 7.73452E-05-5.54840E-16
 -1      2655 7.78930E-04 5.54804E-05-5.64056E-16
 -1      2656 7.78084E-04 3.35648E-05-5.71998E-16
 -1      2657 7.77662E-04 1.18973E-05-5.78869E-16
 -1      2658 8.96498E-04 4.96880E-05-7.19422E-16
 -1      2659 7.91536E-04 1.73152E-04-5.00956E-16
 -1      2660 7.87529E-04 1.47735E-04-5.17517E-16
 -1      2661 8.03398E-04 2.28351E-04-4.60596E-16
 -1      2662 7.96776E-04 1.99960E-04-4.82375E-16
 -1      2663 9.14838E-04 2.07855E-04-6.27536E-16
 -1      2664 1.12982E-03 3.61986E-04-7.32595E-16
 -1      2665 9.86215E-04 3.32914E-04-5.64869E-16
 -1      2666 6.88568E-04-2.04028E-04-4.40931E-16
 -1      2667 8.03089E-04 2.78257E-04-3.99664E-16
 -1      2668 1.41605E-03 4.07892E-04-1.13990E-15
 -1      2669 1.27301E-03 3.86857E-04-9.24323E-16
 -1      2670 1.18966E-03 3.41533E-04-8.63323E-16
 -1      2671 1.30843E-02-1.93284E-04-7.72514E-14
 -1      2672 1.28577E-02-3.30645E-04-7.63443E-14
 -1      2673 1.35563E-02 5.70788E-05-7.85676E-14
 -1      2674 1.33414E-02-5.05106E-05-7.79894E-14
 -1      2675 1.32014E-03-3.62840E-04-1.29936E-15
 -1      2676 1.46337E-03-3.81796E-04-1.56930E-15
 -1      2677 1.60641E-03-3.97878E-04-1.86479E-15
 -1      2678 1.74934E-03-4.11289E-04-2.18617E-15
 -1      2679 1.52497E-03-3.55471E-04-1.73193E-15
 -1      2680 1.89211E-03-4.22496E-04-2.53295E-15
 -1      2681 2.03476E-03-4.31688E-04-2.90511E-15
 -1      2682 1.81165E-03-3.81371E-04-2.37505E-15
 -1      2683 2.17731E-03-4.39239E-04-3.30229E-15
 -1      2684 2.31977E-03-4.45301E-04-3.72392E-15
 -1      2685 2.09811E-03-3.99223E-04-3.11899E-15
 -1      2686 2.46218E-03-4.50162E-04-4.16990E-15
 -1      2687 2.60454E-03-4.53944E-04-4.64055E-15
 -1      2688 2.38428E-03-4.11035E-04-3.96108E-15
 -1      2689 2.74689E-03-4.56862E-04-5.13536E-15
 -1      2690 2.88922E-03-4.59011E-04-5.65392E-15
 -1      2691 2.67023E-03-4.18421E-04-4.90020E-15
 -1      2692 3.03157E-03-4.60552E-04-6.19609E-15
 -1      2693 3.17391E-03-4.61554E-04-6.76080E-15
 -1      2694 2.95600E-03-4.22628E-04-5.93443E-15
 -1      2695 3.31629E-03-4.62134E-04-7.34888E-15
 -1      2696 3.45868E-03-4.62343E-04-7.95936E-15
 -1      2697 3.24168E-03-4.24596E-04-7.06093E-15
 -1      2698 3.60111E-03-4.62262E-04-8.59206E-15
 -1      2699 3.74355E-03-4.61926E-04-9.24688E-15
 -1      2700 3.52729E-03-4.25013E-04-8.27801E-15
 -1      2701 3.88604E-03-4.61390E-04-9.92296E-15
 -1      2702 4.02856E-03-4.60677E-04-1.06208E-14
 -1      2703 3.81289E-03-4.24365E-04-9.58302E-15
 -1      2704 4.17112E-03-4.59820E-04-1.13404E-14
 -1      2705 4.31371E-03-4.58834E-04-1.20817E-14
 -1      2706 4.09849E-03-4.22980E-04-1.09744E-14
 -1      2707 4.45634E-03-4.57733E-04-1.28444E-14
 -1      2708 4.59900E-03-4.56525E-04-1.36279E-14
 -1      2709 4.38410E-03-4.21058E-04-1.24512E-14
 -1      2710 4.74170E-03-4.55214E-04-1.44334E-14
 -1      2711 4.88444E-03-4.53800E-04-1.52589E-14
 -1      2712 4.66975E-03-4.18705E-04-1.40138E-14
 -1      2713 5.02722E-03-4.52279E-04-1.61055E-14
 -1      2714 5.17003E-03-4.50646E-04-1.69737E-14
 -1      2715 4.95544E-03-4.15949E-04-1.56606E-14
 -1      2716 5.31290E-03-4.48890E-04-1.78614E-14
 -1      2717 5.45581E-03-4.47004E-04-1.87705E-14
 -1      2718 5.24118E-03-4.12764E-04-1.73910E-14
 -1      2719 5.59876E-03-4.44973E-04-1.96998E-14
 -1      2720 5.74178E-03-4.42789E-04-2.06505E-14
 -1      2721 5.52698E-03-4.09085E-04-1.92031E-14
 -1      2722 5.88485E-03-4.40435E-04-2.16218E-14
 -1      2723 6.02799E-03-4.37905E-04-2.26123E-14
 -1      2724 5.81286E-03-4.04821E-04-2.10981E-14
 -1      2725 6.17120E-03-4.35182E-04-2.36236E-14
 -1      2726 6.31451E-03-4.32264E-04-2.46547E-14
 -1      2727 6.09882E-03-3.99876E-04-2.30747E-14
 -1      2728 6.45789E-03-4.29142E-04-2.57037E-14
 -1      2729 6.60140E-03-4.25817E-04-2.67718E-14
 -1      2730 6.38491E-03-3.94166E-04-2.51286E-14
 -1      2731 6.74501E-03-4.22293E-04-2.78598E-14
 -1      2732 6.88877E-03-4.18582E-04-2.89645E-14
 -1      2733 6.67117E-03-3.87646E-04-2.72585E-14
 -1      2734 7.03267E-03-4.14706E-04-3.00880E-14
 -1      2735 7.17677E-03-4.10691E-04-3.12292E-14
 -1      2736 6.95765E-03-3.80343E-04-2.94626E-14
 -1      2737 7.32106E-03-4.06589E-04-3.23863E-14
 -1      2738 7.46560E-03-4.02450E-04-3.35595E-14
 -1      2739 7.24446E-03-3.72401E-04-3.17355E-14
 -1      2740 7.61040E-03-3.98362E-04-3.47496E-14
 -1      2741 7.75554E-03-3.94409E-04-3.59547E-14
 -1      2742 7.53176E-03-3.64133E-04-3.40757E-14
 -1      2743 7.90102E-03-3.90728E-04-3.71745E-14
 -1      2744 8.04697E-03-3.87451E-04-3.84083E-14
 -1      2745 7.81981E-03-3.56099E-04-3.64796E-14
 -1      2746 8.19340E-03-3.84774E-04-3.96589E-14
 -1      2747 8.34045E-03-3.82894E-04-4.09238E-14
 -1      2748 8.10903E-03-3.49181E-04-3.89426E-14
 -1      2749 8.48820E-03-3.82070E-04-4.22022E-14
 -1      2750 8.63679E-03-3.82592E-04-4.34918E-14
 -1      2751 8.40006E-03-3.44687E-04-4.14638E-14
 -1      2752 8.78637E-03-3.84773E-04-4.47946E-14
 -1      2753 8.93709E-03-3.89022E-04-4.61109E-14
 -1      2754 8.69391E-03-3.44454E-04-4.40365E-14
 -1      2755 9.08920E-03-3.95690E-04-4.74387E-14
 -1      2756 9.24278E-03-4.05323E-04-4.87793E-14
 -1      2757 8.99202E-03-3.50958E-04-4.66593E-14
 -1      2758 9.39825E-03-4.18266E-04-5.01320E-14
 -1      2759 9.55553E-03-4.35186E-04-5.14929E-14
 -1      2760 9.29639E-03-3.67407E-04-4.93310E-14
 -1      2761 9.71517E-03-4.56339E-04-5.28635E-14
 -1      2762 9.87681E-03-4.82418E-04-5.42447E-14
 -1      2763 9.60936E-03-3.97746E-04-5.20458E-14
 -1      2764 1.00410E-02-5.13465E-04-5.56338E-14
 -1      2765 1.02069E-02-5.49914E-04-5.70311E-14
 -1      2766 9.93317E-03-4.46345E-04-5.47965E-14
 -1      2767 1.03751E-02-5.91413E-04-5.84370E-14
 -1      2768 1.05438E-02-6.37330E-04-5.98517E-14
 -1      2769 1.02687E-02-5.17073E-04-5.75830E-14
 -1      2770 1.07132E-02-6.86535E-04-6.12754E-14
 -1      2771 1.08815E-02-7.36901E-04-6.27063E-14
 -1      2772 1.06132E-02-6.10211E-04-6.04062E-14
 -1      2773 1.10481E-02-7.86433E-04-6.41454E-14
 -1      2774 1.12119E-02-8.30588E-04-6.55927E-14
 -1      2775 1.09592E-02-7.17135E-04-6.32627E-14
 -1      2776 1.13721E-02-8.66672E-04-6.70483E-14
 -1      2777 1.15298E-02-8.89870E-04-6.85146E-14
 -1      2778 1.12964E-02-8.15614E-04-6.61540E-14
 -1      2779 1.16841E-02-8.98038E-04-6.99846E-14
 -1      2780 1.18386E-02-8.88776E-04-7.14643E-14
 -1      2781 1.16189E-02-8.69892E-04-6.90777E-14
 -1      2782 1.19927E-02-8.61843E-04-7.29518E-14
 -1      2783 1.21497E-02-8.19414E-04-7.44450E-14
 -1      2784 1.19342E-02-8.51376E-04-7.20341E-14
 -1      2785 1.23087E-02-7.63473E-04-7.59490E-14
 -1      2786 1.24711E-02-6.98517E-04-7.74591E-14
 -1      2787 1.22559E-02-7.58896E-04-7.50214E-14
 -1      2788 1.26362E-02-6.27051E-04-7.89754E-14
 -1      2789 1.28026E-02-5.53483E-04-8.05029E-14
 -1      2790 1.25916E-02-6.18926E-04-7.80360E-14
 -1      2791 1.29699E-02-4.79575E-04-8.20378E-14
 -1      2792 1.31361E-02-4.07422E-04-8.35794E-14
 -1      2793 1.29360E-02-4.65564E-04-8.10864E-14
 -1      2794 1.33014E-02-3.37805E-04-8.51278E-14
 -1      2795 1.34639E-02-2.70970E-04-8.66822E-14
 -1      2796 1.32783E-02-3.20390E-04-8.41664E-14
 -1      2797 1.36242E-02-2.06945E-04-8.82415E-14
 -1      2798 1.37812E-02-1.44730E-04-8.98091E-14
 -1      2799 1.36101E-02-1.89938E-04-8.72735E-14
 -1      2800 2.26916E-03 4.78613E-04-2.93439E-15
 -1      2801 2.12734E-03 4.71774E-04-2.57632E-15
 -1      2802 1.39799E-02 2.28418E-04-7.96710E-14
 -1      2803 1.37905E-02 1.58668E-04-7.92780E-14
 -1      2804 1.98543E-03 4.63309E-04-2.24151E-15
 -1      2805 1.84339E-03 4.53054E-04-1.93004E-15
 -1      2806 2.04760E-03 4.31375E-04-2.46737E-15
 -1      2807 2.83619E-03 4.94469E-04-4.60261E-15
 -1      2808 2.69443E-03 4.91902E-04-4.15090E-15
 -1      2809 3.11986E-03 4.97676E-04-5.57535E-15
 -1      2810 2.97801E-03 4.96368E-04-5.07763E-15
 -1      2811 2.90236E-03 4.58433E-04-4.91832E-15
 -1      2812 3.40374E-03 4.98955E-04-6.63811E-15
 -1      2813 3.26177E-03 4.98519E-04-6.09545E-15
 -1      2814 3.18714E-03 4.61009E-04-5.91924E-15
 -1      2815 3.68787E-03 4.98904E-04-7.79016E-15
 -1      2816 3.54578E-03 4.99069E-04-7.20306E-15
 -1      2817 3.47198E-03 4.61864E-04-7.01009E-15
 -1      2818 3.97227E-03 4.97937E-04-9.03226E-15
 -1      2819 3.83004E-03 4.98517E-04-8.40025E-15
 -1      2820 3.75693E-03 4.61537E-04-8.18986E-15
 -1      2821 4.25693E-03 4.96319E-04-1.03618E-14
 -1      2822 4.11457E-03 4.97198E-04-9.68568E-15
 -1      2823 4.04200E-03 4.60392E-04-9.45855E-15
 -1      2824 4.54185E-03 4.94202E-04-1.17781E-14
 -1      2825 4.39936E-03 4.95317E-04-1.10596E-14
 -1      2826 4.32719E-03 4.58659E-04-1.08143E-14
 -1      2827 4.82701E-03 4.91648E-04-1.32808E-14
 -1      2828 4.68440E-03 4.92978E-04-1.25190E-14
 -1      2829 4.61253E-03 4.56462E-04-1.22563E-14
 -1      2830 5.11244E-03 4.88648E-04-1.48669E-14
 -1      2831 4.96969E-03 4.90205E-04-1.40635E-14
 -1      2832 4.89801E-03 4.53842E-04-1.37826E-14
 -1      2833 5.39813E-03 4.85145E-04-1.65336E-14
 -1      2834 5.25525E-03 4.86963E-04-1.56899E-14
 -1      2835 5.18364E-03 4.50777E-04-1.53918E-14
 -1      2836 5.68414E-03 4.81042E-04-1.82814E-14
 -1      2837 5.54109E-03 4.83174E-04-1.73973E-14
 -1      2838 5.46943E-03 4.47197E-04-1.70818E-14
 -1      2839 5.97051E-03 4.76220E-04-2.01070E-14
 -1      2840 5.82727E-03 4.78727E-04-1.91848E-14
 -1      2841 5.75542E-03 4.43002E-04-1.88531E-14
 -1      2842 6.25733E-03 4.70556E-04-2.20078E-14
 -1      2843 6.11385E-03 4.73499E-04-2.10488E-14
 -1      2844 6.04163E-03 4.38072E-04-2.07005E-14
 -1      2845 6.54469E-03 4.63943E-04-2.39776E-14
 -1      2846 6.40092E-03 4.67371E-04-2.29840E-14
 -1      2847 6.32811E-03 4.32287E-04-2.26212E-14
 -1      2848 6.83273E-03 4.56319E-04-2.60203E-14
 -1      2849 6.68860E-03 4.60257E-04-2.49904E-14
 -1      2850 6.61490E-03 4.25551E-04-2.46147E-14
 -1      2851 7.12160E-03 4.47710E-04-2.81268E-14
 -1      2852 6.97703E-03 4.52130E-04-2.70657E-14
 -1      2853 6.90207E-03 4.17819E-04-2.66769E-14
 -1      2854 7.41149E-03 4.38288E-04-3.03005E-14
 -1      2855 7.26638E-03 4.43083E-04-2.92044E-14
 -1      2856 7.18967E-03 4.09144E-04-2.88057E-14
 -1      2857 7.70264E-03 4.28452E-04-3.25372E-14
 -1      2858 7.55687E-03 4.33388E-04-3.14108E-14
 -1      2859 7.47778E-03 3.99736E-04-3.09987E-14
 -1      2860 7.99531E-03 4.18947E-04-3.48348E-14
 -1      2861 7.84873E-03 4.23601E-04-3.36787E-14
 -1      2862 7.76650E-03 3.90042E-04-3.32565E-14
 -1      2863 8.28986E-03 4.11018E-04-3.71868E-14
 -1      2864 8.14228E-03 4.14694E-04-3.60045E-14
 -1      2865 8.05594E-03 3.80859E-04-3.55733E-14
 -1      2866 8.58684E-03 4.06618E-04-3.95915E-14
 -1      2867 8.43797E-03 4.08234E-04-3.83815E-14
 -1      2868 8.34633E-03 3.73478E-04-3.79441E-14
 -1      2869 8.88707E-03 4.08670E-04-4.20475E-14
 -1      2870 8.73644E-03 4.06620E-04-4.08131E-14
 -1      2871 8.63813E-03 3.69872E-04-4.03663E-14
 -1      2872 9.19198E-03 4.21381E-04-4.45512E-14
 -1      2873 9.03880E-03 4.13367E-04-4.32932E-14
 -1      2874 8.93224E-03 3.72926E-04-4.28388E-14
 -1      2875 9.50397E-03 4.50569E-04-4.71063E-14
 -1      2876 9.34691E-03 4.33432E-04-4.58224E-14
 -1      2877 9.23042E-03 3.86722E-04-4.53611E-14
 -1      2878 9.82674E-03 5.03922E-04-4.97077E-14
 -1      2879 9.66382E-03 4.73538E-04-4.84014E-14
 -1      2880 9.53586E-03 4.16923E-04-4.79316E-14
 -1      2881 1.01652E-02 5.90965E-04-5.23587E-14
 -1      2882 9.99390E-03 5.42300E-04-5.10279E-14
 -1      2883 9.85375E-03 4.71265E-04-5.05494E-14
 -1      2884 1.05236E-02 7.22043E-04-5.50551E-14
 -1      2885 1.03422E-02 6.50357E-04-5.37010E-14
 -1      2886 1.01912E-02 5.60613E-04-5.32147E-14
 -1      2887 1.09016E-02 8.99879E-04-5.77982E-14
 -1      2888 1.07115E-02 8.04679E-04-5.64212E-14
 -1      2889 1.05555E-02 6.96591E-04-5.59255E-14
 -1      2890 1.16601E-02 1.31267E-03-6.33760E-14
 -1      2891 1.14786E-02 1.22478E-03-6.19601E-14
 -1      2892 1.20069E-02 1.40974E-03-6.62360E-14
 -1      2893 1.18339E-02 1.37761E-03-6.48014E-14
 -1      2894 1.23518E-02 1.37095E-03-6.91285E-14
 -1      2895 1.21764E-02 1.40620E-03-6.76802E-14
 -1      2896 1.27156E-02 1.23333E-03-7.20450E-14
 -1      2897 1.25309E-02 1.30895E-03-7.05822E-14
 -1      2898 1.24557E-02 1.31191E-03-7.00236E-14
 -1      2899 1.30923E-02 1.07089E-03-7.49881E-14
 -1      2900 1.29039E-02 1.15059E-03-7.35144E-14
 -1      2901 1.28409E-02 1.14458E-03-7.29479E-14
 -1      2902 1.34628E-02 9.34025E-04-7.79521E-14
 -1      2903 1.32804E-02 9.98292E-04-7.64685E-14
 -1      2904 1.32317E-02 9.78823E-04-7.59009E-14
 -1      2905 1.38131E-02 8.33930E-04-8.09309E-14
 -1      2906 1.36411E-02 8.79596E-04-7.94395E-14
 -1      2907 1.36050E-02 8.53793E-04-7.88700E-14
 -1      2908 1.41419E-02 7.64263E-04-8.39142E-14
 -1      2909 1.39802E-02 7.96361E-04-8.24209E-14
 -1      2910 1.39513E-02 7.69300E-04-8.18535E-14
 -1      2911 1.44363E-02 7.04544E-04-8.66357E-14
 -1      2912 1.42825E-02 7.29848E-04-8.51415E-14
 -1      2913 1.42576E-02 7.04725E-04-8.45749E-14
 -1      2914 1.45317E-02 6.48048E-04-8.70393E-14
 -1      2915 1.44000E-02 3.54429E-04-8.03933E-14
 -1      2916 1.43745E-02 3.42835E-04-8.04181E-14
 -1      2917 1.48647E-02 3.74462E-04-8.93240E-14
 -1      2918 1.48918E-02 3.94211E-04-8.90787E-14
 -1      2919 1.48640E-02 4.53020E-04-8.83315E-14
 -1      2920 1.48225E-02 4.78349E-04-8.80829E-14
 -1      2921 1.47610E-02 3.26927E-04-8.98072E-14
 -1      2922 1.48201E-02 3.52806E-04-8.95672E-14
 -1      2923 1.47420E-02 3.53499E-04-8.81068E-14
 -1      2924 1.49006E-02 4.12202E-04-8.88306E-14
 -1      2925 1.48910E-02 4.31749E-04-8.85790E-14
 -1      2926 1.47774E-02 4.35871E-04-8.71321E-14
 -1      2927 1.48005E-02 3.94929E-04-8.76226E-14
 -1      2928 1.46124E-02 2.63635E-04-9.02732E-14
 -1      2929 1.46907E-02 2.97531E-04-9.00420E-14
 -1      2930 1.46153E-02 2.97399E-04-8.85767E-14
 -1      2931 1.44385E-02 1.83146E-04-9.07386E-14
 -1      2932 1.45268E-02 2.25012E-04-9.05075E-14
 -1      2933 1.44470E-02 2.20786E-04-8.90387E-14
 -1      2934 1.42611E-02 9.23866E-05-9.11901E-14
 -1      2935 1.43493E-02 1.38458E-04-9.09661E-14
 -1      2936 1.42633E-02 1.27137E-04-8.94942E-14
 -1      2937 1.27356E-02 1.13173E-03-7.19354E-14
 -1      2938 1.29285E-02 1.01226E-03-7.30775E-14
 -1      2939 1.03792E-02-1.60244E-04-6.02952E-14
 -1      2940 1.01985E-02-7.24955E-05-5.95219E-14
 -1      2941 9.56768E-03 1.50560E-04-5.68589E-14
 -1      2942 9.55472E-03 1.57052E-04-5.66850E-14
 -1      2943 1.20221E-02 1.37972E-03-6.67972E-14
 -1      2944 1.21586E-02 1.37237E-03-6.78433E-14
 -1      2945 8.33589E-04-2.63945E-04-5.82772E-16
 -1      2946 9.65163E-04-2.98891E-04-7.43817E-16
 -1      2947 1.10821E-03-3.26693E-04-9.49287E-16
 -1      2948 8.14009E-04-2.12312E-04-5.95606E-16
 -1      2949 1.12554E-02-6.32301E-04-6.53462E-14
 -1      2950 1.10795E-02-5.27788E-04-6.42444E-14
 -1      2951 1.70118E-03 4.40591E-04-1.64274E-15
 -1      2952 1.55872E-03 4.25715E-04-1.37921E-15
 -1      2953 1.47609E-03 3.82243E-04-1.30298E-15
 -1      2954 1.76210E-03 4.11268E-04-1.83791E-15
 -1      2955 2.55267E-03 4.88494E-04-3.72231E-15
 -1      2956 2.41093E-03 4.84143E-04-3.31672E-15
 -1      2957 2.33271E-03 4.44818E-04-3.19093E-15
 -1      2958 2.61758E-03 4.53379E-04-4.00846E-15
 -1      2959 9.71088E-03 1.07323E-04-5.74394E-14
 -1      2960 9.61671E-03 1.34146E-04-5.71180E-14
 -1      2961 1.42786E-02 3.15846E-04-8.02743E-14
 -1      2962 1.41462E-02 2.82677E-04-7.99727E-14
 -1      2963 1.40894E-02 2.55376E-04-8.07827E-14
 -1      2964 1.01025E-02 3.47658E-04-5.75731E-14
 -1      2965 1.03043E-02 4.42077E-04-5.79788E-14
 -1      2966 7.84382E-04 1.23477E-04-5.31584E-16
 -1      2967 7.81994E-04 1.00038E-04-5.44093E-16
 -1      2968 8.99606E-04 9.94650E-05-6.96641E-16
 -1      2969 9.05345E-04 1.51612E-04-6.66635E-16
 -1      2970 1.18099E-02 1.33911E-03-6.51177E-14
 -1      2971 1.19332E-02 1.37281E-03-6.60796E-14
 -1      2972 1.19300E-02-7.96067E-04-7.04323E-14
 -1      2973 1.17716E-02-8.05692E-04-6.92226E-14
 -1      2974 1.22575E-02 1.35638E-03-6.85727E-14
 -1      2975 1.24161E-02 1.29770E-03-6.97658E-14
 -1      2976 7.81728E-04-9.79851E-05-5.95335E-16
 -1      2977 7.84040E-04-1.21340E-04-5.94698E-16
 -1      2978 1.05329E-02 5.64790E-04-5.85907E-14
 -1      2979 1.06966E-02 6.62212E-04-5.91443E-14
 -1      2980 1.22450E-02-6.88901E-04-7.28979E-14
 -1      2981 1.20874E-02-7.56307E-04-7.16629E-14
 -1      2982 1.20065E-02-7.82733E-04-7.12955E-14
 -1      2983 1.00135E-02 1.42536E-06-5.86338E-14
 -1      2984 9.86477E-03 5.38792E-05-5.79921E-14
 -1      2985 1.15746E-02-7.75675E-04-6.77123E-14
 -1      2986 1.14404E-02-7.25119E-04-6.66520E-14
 -1      2987 1.39334E-02 4.99401E-04-7.77886E-14
 -1      2988 1.40939E-02 4.38440E-04-7.82445E-14
 -1      2989 9.57896E-03 1.70772E-04-5.66830E-14
 -1      2990 9.63220E-03 1.83745E-04-5.67323E-14
 -1      2991 1.39859E-02-6.44608E-05-9.19490E-14
 -1      2992 1.40811E-02-1.39413E-05-9.20377E-14
 -1      2993 1.38843E-02-1.04574E-04-9.08781E-14
 -1      2994 1.26284E-02-4.70320E-04-7.52357E-14
 -1      2995 1.24557E-02-5.77647E-04-7.43050E-14
 -1      2996 1.35453E-02 6.71374E-04-7.62097E-14
 -1      2997 1.37086E-02 5.97502E-04-7.69723E-14
 -1      2998 1.31441E-02 8.83979E-04-7.42144E-14
 -1      2999 1.33450E-02 7.70971E-04-7.52104E-14
 -1      3000 1.34617E-02 7.36043E-04-7.61868E-14
 -1      3001 7.87113E-04-1.45501E-04-5.91961E-16
 -1      3002 7.91015E-04-1.70689E-04-5.87285E-16
 -1      3003 9.04892E-04-1.49104E-04-7.50674E-16
 -1      3004 8.95473E-04 1.00932E-06-7.36282E-16
 -1      3005 7.77632E-04-9.72306E-06-5.84548E-16
 -1      3006 7.77996E-04-3.13738E-05-5.89128E-16
 -1      3007 1.27717E-02-3.95374E-04-7.64572E-14
 -1      3008 1.09420E-02-4.69420E-04-6.32873E-14
 -1      3009 1.37062E-02 1.11984E-04-7.97690E-14
 -1      3010 1.30631E-02 9.55529E-04-7.40478E-14
 -1      3011 1.38759E-02-9.04961E-05-8.99009E-14
 -1      3012 1.32306E-02-1.23665E-04-7.83141E-14
 -1      3013 9.53768E-03 1.58380E-04-5.59248E-14
 -1      3014 1.19960E-02 1.38996E-03-6.63981E-14
 -1      3015 1.38633E-02 5.44386E-04-7.80068E-14
 -1      3016 1.40067E-02 5.07458E-04-7.90465E-14
 -1      3017 1.38069E-02 5.93492E-04-7.82249E-14
 -1      3018 1.16692E-02-8.03828E-04-6.85514E-14
 -1      3019 1.15713E-02-7.94717E-04-6.78806E-14
 -1      3020 1.17542E-02-8.17855E-04-6.93924E-14
 -1      3021 9.56014E-03 1.33251E-04-5.61830E-14
 -1      3022 9.74474E-03 7.39517E-05-5.69889E-14
 -1      3023 1.23507E-02-6.40897E-04-7.39338E-14
 -1      3024 1.22603E-02-6.93690E-04-7.35635E-14
 -1      3025 1.24557E-02-5.91937E-04-7.49741E-14
 -1      3026 1.13925E-02 1.15350E-03-6.16779E-14
 -1      3027 1.13266E-02 1.13966E-03-6.08149E-14
 -1      3028 1.11370E-02 1.03292E-03-5.94145E-14
 -1      3029 1.09890E-02 9.16436E-04-5.89087E-14
 -1      3030 1.17334E-02 1.32617E-03-6.42510E-14
 -1      3031 1.44028E-02 3.64955E-04-8.05715E-14
 -1      3032 1.44452E-02 3.62260E-04-8.15462E-14
 -1      3033 1.43921E-02 3.76168E-04-8.07527E-14
 -1      3034 1.46013E-02 6.06387E-04-8.72877E-14
 -1      3035 1.44682E-02 6.28983E-04-8.60513E-14
 -1      3036 1.46698E-02 5.67501E-04-8.75320E-14
 -1      3037 1.03722E-02 4.91237E-04-5.75629E-14
 -1      3038 1.04901E-02-2.24108E-04-6.07212E-14
 -1      3039 1.03510E-02-1.80477E-04-5.97315E-14
 -1      3040 1.05935E-02-2.91563E-04-6.11490E-14
 -1      3041 1.21761E-02 1.38463E-03-6.78426E-14
 -1      3042 1.41636E-02 3.26234E-05-9.18193E-14
 -1      3043 1.42070E-02 4.18242E-04-7.93044E-14
 -1      3044 8.64850E-04 2.66579E-04-4.93027E-16
 -1      3045 9.82942E-04 2.75818E-04-6.42729E-16
 -1      3046 1.00667E-02-4.59086E-05-5.84218E-14
 -1      3047 1.39733E-02-3.91667E-05-9.01225E-14
 -1      3048 1.41606E-02 4.54335E-05-9.09702E-14
 -1      3049 1.40695E-02 2.76228E-05-8.94988E-14
 -1      3050 1.38684E-02-7.59326E-05-8.90578E-14
 -1      3051 1.16985E-03-3.06989E-04-1.07802E-15
 -1      3052 9.67644E-03 1.97675E-04-5.64032E-14
 -1      3053 9.72952E-03 2.15582E-04-5.60760E-14
 -1      3054 9.60908E-03 1.83987E-04-5.55949E-14
 -1      3055 1.12489E-02 1.02581E-03-6.16434E-14
 -1      3056 1.08065E-02 7.39949E-04-5.93077E-14
 -1      3057 9.87637E-03 2.67353E-04-5.62718E-14
 -1      3058 9.98419E-03 3.01531E-04-5.69195E-14
 -1      3059 1.00378E-02 3.37301E-04-5.63050E-14
 -1      3060 7.78774E-04-5.31620E-05-5.92367E-16
 -1      3061 7.79992E-04-7.53539E-05-5.94482E-16
 -1      3062 8.99327E-04-9.71179E-05-7.52491E-16
 -1      3063 8.96368E-04-4.75373E-05-7.47341E-16
 -1      3064 1.47819E-02 5.03552E-04-8.79319E-14
 -1      3065 1.47217E-02 5.36071E-04-8.76828E-14
 -1      3066 1.45966E-02 5.49645E-04-8.64451E-14
 -1      3067 1.46979E-02 4.87145E-04-8.67401E-14
 -1      3068 1.13140E-02-6.82047E-04-6.57362E-14
 -1      3069 1.15105E-02 1.20423E-03-6.28380E-14
 -1      3070 1.16157E-02 1.25856E-03-6.36911E-14
 -1      3071 1.13469E-02 1.10892E-03-6.16876E-14
 -1      3072 1.04027E-03 2.43309E-04-7.67439E-16
 -1      3073 1.03365E-03 2.11584E-04-7.93392E-16
 -1      3074 9.49321E-03 1.47567E-04-5.50639E-14
 -1      3075 9.51968E-03 1.59863E-04-5.50621E-14
 -1      3076 1.33936E-02-5.14712E-05-7.95297E-14
 -1      3077 1.31643E-02-1.80225E-04-7.87848E-14
 -1      3078 1.73166E-03-3.40527E-04-2.21958E-15
 -1      3079 1.87534E-03-3.50735E-04-2.56631E-15
 -1      3080 2.01899E-03-3.59225E-04-2.93788E-15
 -1      3081 2.16264E-03-3.66151E-04-3.33427E-15
 -1      3082 1.94016E-03-3.19416E-04-2.75969E-15
 -1      3083 2.30624E-03-3.71787E-04-3.75447E-15
 -1      3084 2.44979E-03-3.76259E-04-4.19912E-15
 -1      3085 2.22820E-03-3.32534E-04-3.55061E-15
 -1      3086 2.59328E-03-3.79789E-04-4.66790E-15
 -1      3087 2.73671E-03-3.82474E-04-5.16036E-15
 -1      3088 2.51618E-03-3.41044E-04-4.43832E-15
 -1      3089 2.88010E-03-3.84486E-04-5.67570E-15
 -1      3090 3.02342E-03-3.85898E-04-6.21435E-15
 -1      3091 2.80395E-03-3.46176E-04-5.42031E-15
 -1      3092 3.16671E-03-3.86838E-04-6.77637E-15
 -1      3093 3.30994E-03-3.87360E-04-7.36054E-15
 -1      3094 3.09145E-03-3.48890E-04-6.49470E-15
 -1      3095 3.45314E-03-3.87557E-04-7.96660E-15
 -1      3096 3.59629E-03-3.87467E-04-8.59531E-15
 -1      3097 3.37869E-03-3.49909E-04-7.65909E-15
 -1      3098 3.73941E-03-3.87153E-04-9.24610E-15
 -1      3099 3.88250E-03-3.86642E-04-9.91758E-15
 -1      3100 3.66566E-03-3.49760E-04-8.91194E-15
 -1      3101 4.02557E-03-3.85975E-04-1.06105E-14
 -1      3102 4.16860E-03-3.85168E-04-1.13255E-14
 -1      3103 3.95239E-03-3.48805E-04-1.02513E-14
 -1      3104 4.31162E-03-3.84244E-04-1.20625E-14
 -1      3105 4.45461E-03-3.83211E-04-1.28201E-14
 -1      3106 4.23891E-03-3.47283E-04-1.16761E-14
 -1      3107 4.59759E-03-3.82080E-04-1.35979E-14
 -1      3108 4.74055E-03-3.80852E-04-1.43974E-14
 -1      3109 4.52524E-03-3.45329E-04-1.31866E-14
 -1      3110 4.88349E-03-3.79528E-04-1.52196E-14
 -1      3111 5.02642E-03-3.78104E-04-1.60612E-14
 -1      3112 4.81139E-03-3.43002E-04-1.47806E-14
 -1      3113 5.16933E-03-3.76574E-04-1.69231E-14
 -1      3114 5.31223E-03-3.74930E-04-1.78070E-14
 -1      3115 5.09736E-03-3.40300E-04-1.64601E-14
 -1      3116 5.45511E-03-3.73162E-04-1.87098E-14
 -1      3117 5.59797E-03-3.71259E-04-1.96335E-14
 -1      3118 5.38317E-03-3.37180E-04-1.82202E-14
 -1      3119 5.74082E-03-3.69209E-04-2.05783E-14
 -1      3120 5.88366E-03-3.66999E-04-2.15432E-14
 -1      3121 5.66878E-03-3.33564E-04-2.00624E-14
 -1      3122 6.02647E-03-3.64617E-04-2.25281E-14
 -1      3123 6.16927E-03-3.62052E-04-2.35334E-14
 -1      3124 5.95417E-03-3.29360E-04-2.19863E-14
 -1      3125 6.31204E-03-3.59297E-04-2.45581E-14
 -1      3126 6.45480E-03-3.56340E-04-2.56007E-14
 -1      3127 6.23932E-03-3.24475E-04-2.39905E-14
 -1      3128 6.59753E-03-3.53184E-04-2.66625E-14
 -1      3129 6.74026E-03-3.49822E-04-2.77427E-14
 -1      3130 6.52417E-03-3.18831E-04-2.60711E-14
 -1      3131 6.88296E-03-3.46270E-04-2.88405E-14
 -1      3132 7.02567E-03-3.42531E-04-2.99561E-14
 -1      3133 6.80868E-03-3.12392E-04-2.82239E-14
 -1      3134 7.16835E-03-3.38638E-04-3.10901E-14
 -1      3135 7.31108E-03-3.34612E-04-3.22400E-14
 -1      3136 7.09284E-03-3.05191E-04-3.04485E-14
 -1      3137 7.45380E-03-3.30511E-04-3.34066E-14
 -1      3138 7.59661E-03-3.26379E-04-3.45906E-14
 -1      3139 7.37664E-03-2.97368E-04-3.27424E-14
 -1      3140 7.73949E-03-3.22308E-04-3.57884E-14
 -1      3141 7.88253E-03-3.18377E-04-3.70012E-14
 -1      3142 7.66019E-03-2.89218E-04-3.51017E-14
 -1      3143 8.02574E-03-3.14717E-04-3.82290E-14
 -1      3144 8.16926E-03-3.11460E-04-3.94715E-14
 -1      3145 7.94372E-03-2.81253E-04-3.75209E-14
 -1      3146 8.31315E-03-3.08781E-04-4.07293E-14
 -1      3147 8.45757E-03-3.06889E-04-4.19999E-14
 -1      3148 8.22770E-03-2.74266E-04-3.99990E-14
 -1      3149 8.60266E-03-3.05999E-04-4.32812E-14
 -1      3150 8.74866E-03-3.06440E-04-4.45764E-14
 -1      3151 8.51300E-03-2.69427E-04-4.25311E-14
 -1      3152 8.89579E-03-3.08455E-04-4.58849E-14
 -1      3153 9.04434E-03-3.12548E-04-4.72056E-14
 -1      3154 8.80102E-03-2.68407E-04-4.51142E-14
 -1      3155 9.19471E-03-3.18975E-04-4.85361E-14
 -1      3156 9.34719E-03-3.28487E-04-4.98788E-14
 -1      3157 9.09398E-03-2.73562E-04-4.77473E-14
 -1      3158 9.50236E-03-3.41335E-04-5.12326E-14
 -1      3159 9.66038E-03-3.58544E-04-5.25934E-14
 -1      3160 9.39507E-03-2.88259E-04-5.04228E-14
 -1      3161 9.82200E-03-3.80331E-04-5.39635E-14
 -1      3162 9.98701E-03-4.07893E-04-5.53440E-14
 -1      3163 9.70840E-03-3.17273E-04-5.31365E-14
 -1      3164 1.01563E-02-4.41328E-04-5.67343E-14
 -1      3165 1.03287E-02-4.81772E-04-5.81324E-14
 -1      3166 1.00381E-02-3.67009E-04-5.58889E-14
 -1      3167 1.05055E-02-5.28948E-04-5.95411E-14
 -1      3168 1.06831E-02-5.81866E-04-6.09578E-14
 -1      3169 1.03872E-02-4.44531E-04-5.86795E-14
 -1      3170 1.08621E-02-6.39514E-04-6.23821E-14
 -1      3171 1.10392E-02-6.98345E-04-6.38158E-14
 -1      3172 1.07524E-02-5.54278E-04-6.15055E-14
 -1      3173 1.15564E-02-8.33002E-04-6.81679E-14
 -1      3174 1.17204E-02-8.47082E-04-6.96354E-14
 -1      3175 1.22177E-02-7.40747E-04-7.40643E-14
 -1      3176 1.23914E-02-6.69386E-04-7.55627E-14
 -1      3177 1.29008E-02-4.49539E-04-8.01353E-14
 -1      3178 1.30788E-02-3.71969E-04-8.16681E-14
 -1      3179 1.32553E-02-2.99263E-04-8.32070E-14
 -1      3180 1.34278E-02-2.31513E-04-8.47536E-14
 -1      3181 1.32325E-02-2.75499E-04-8.22490E-14
 -1      3182 1.35694E-02-1.81287E-04-8.61206E-14
 -1      3183 1.37342E-02-1.21445E-04-8.76779E-14
 -1      3184 1.38344E-02-6.59685E-05-8.78987E-14
 -1      3185 1.35561E-02-1.56423E-04-8.51544E-14
 -1      3186 3.25491E-03 4.24034E-04-6.26738E-15
 -1      3187 3.11206E-03 4.23260E-04-5.74149E-15
 -1      3188 2.96917E-03 4.22018E-04-5.23815E-15
 -1      3189 2.82627E-03 4.20248E-04-4.75726E-15
 -1      3190 3.03660E-03 3.85299E-04-5.56227E-15
 -1      3191 3.82625E-03 4.23981E-04-8.59360E-15
 -1      3192 3.68343E-03 4.24366E-04-7.97870E-15
 -1      3193 4.11190E-03 4.22707E-04-9.88818E-15
 -1      3194 3.96908E-03 4.23422E-04-9.23007E-15
 -1      3195 3.89584E-03 3.86284E-04-9.00036E-15
 -1      3196 4.39756E-03 4.20901E-04-1.12694E-14
 -1      3197 4.25473E-03 4.21863E-04-1.05679E-14
 -1      3198 4.18199E-03 3.84923E-04-1.03211E-14
 -1      3199 4.68324E-03 4.18664E-04-1.27364E-14
 -1      3200 4.54040E-03 4.19834E-04-1.19923E-14
 -1      3201 4.46803E-03 3.83084E-04-1.17280E-14
 -1      3202 4.96897E-03 4.16016E-04-1.42870E-14
 -1      3203 4.82610E-03 4.17392E-04-1.35009E-14
 -1      3204 4.75400E-03 3.80842E-04-1.32189E-14
 -1      3205 5.25473E-03 4.12925E-04-1.59191E-14
 -1      3206 5.11184E-03 4.14529E-04-1.50930E-14
 -1      3207 5.03989E-03 3.78204E-04-1.47935E-14
 -1      3208 5.54054E-03 4.09314E-04-1.76336E-14
 -1      3209 5.39763E-03 4.11190E-04-1.67665E-14
 -1      3210 5.32572E-03 3.75128E-04-1.64504E-14
 -1      3211 5.82641E-03 4.05080E-04-1.94270E-14
 -1      3212 5.68347E-03 4.07281E-04-1.85208E-14
 -1      3213 5.61146E-03 3.71533E-04-1.81885E-14
 -1      3214 6.11234E-03 4.00106E-04-2.12971E-14
 -1      3215 5.96936E-03 4.02692E-04-2.03523E-14
 -1      3216 5.89710E-03 3.67317E-04-2.00044E-14
 -1      3217 6.39832E-03 3.94280E-04-2.32386E-14
 -1      3218 6.25532E-03 3.97305E-04-2.22596E-14
 -1      3219 6.18262E-03 3.62370E-04-2.18954E-14
 -1      3220 6.68435E-03 3.87522E-04-2.52547E-14
 -1      3221 6.54132E-03 3.91021E-04-2.42377E-14
 -1      3222 6.46795E-03 3.56593E-04-2.38607E-14
 -1      3223 6.97040E-03 3.79809E-04-2.73369E-14
 -1      3224 6.82736E-03 3.83784E-04-2.62865E-14
 -1      3225 6.75302E-03 3.49923E-04-2.58953E-14
 -1      3226 7.25644E-03 3.71224E-04-2.94873E-14
 -1      3227 7.11341E-03 3.75618E-04-2.84041E-14
 -1      3228 7.03772E-03 3.42364E-04-2.80005E-14
 -1      3229 7.54242E-03 3.62014E-04-3.17025E-14
 -1      3230 7.39942E-03 3.66680E-04-3.05873E-14
 -1      3231 7.32192E-03 3.34031E-04-3.01733E-14
 -1      3232 7.82829E-03 3.52668E-04-3.39795E-14
 -1      3233 7.68534E-03 3.57326E-04-3.28335E-14
 -1      3234 7.60544E-03 3.25208E-04-3.24096E-14
 -1      3235 8.11402E-03 3.44019E-04-3.63146E-14
 -1      3236 7.97114E-03 3.48202E-04-3.51385E-14
 -1      3237 7.88808E-03 3.16415E-04-3.47049E-14
 -1      3238 8.39972E-03 3.37368E-04-3.87037E-14
 -1      3239 8.25683E-03 3.40356E-04-3.75039E-14
 -1      3240 8.16969E-03 3.08497E-04-3.70593E-14
 -1      3241 8.68575E-03 3.34642E-04-4.11446E-14
 -1      3242 8.54261E-03 3.35380E-04-3.99174E-14
 -1      3243 8.45020E-03 3.02726E-04-3.94672E-14
 -1      3244 8.97305E-03 3.38582E-04-4.36341E-14
 -1      3245 8.82910E-03 3.35571E-04-4.23833E-14
 -1      3246 8.72987E-03 3.00904E-04-4.19256E-14
 -1      3247 9.26365E-03 3.53005E-04-4.61737E-14
 -1      3248 9.11770E-03 3.44154E-04-4.48975E-14
 -1      3249 9.00965E-03 3.05504E-04-4.44324E-14
 -1      3250 9.56149E-03 3.83258E-04-4.87603E-14
 -1      3251 9.41129E-03 3.65609E-04-4.74617E-14
 -1      3252 9.29176E-03 3.19907E-04-4.69884E-14
 -1      3253 9.87320E-03 4.37071E-04-5.13925E-14
 -1      3254 9.71508E-03 4.06311E-04-5.00691E-14
 -1      3255 9.58073E-03 3.48970E-04-4.95893E-14
 -1      3256 1.02085E-02 5.26383E-04-5.40703E-14
 -1      3257 1.00374E-02 4.75749E-04-5.27262E-14
 -1      3258 9.88467E-03 4.00406E-04-5.22357E-14
 -1      3259 1.06824E-02 7.02829E-04-5.77369E-14
 -1      3260 1.04881E-02 6.15182E-04-5.63633E-14
 -1      3261 1.09333E-02 8.42153E-04-5.93530E-14
 -1      3262 1.20862E-02 1.40915E-03-6.69547E-14
 -1      3263 1.37635E-02 7.66167E-04-7.98204E-14
 -1      3264 1.35833E-02 8.13704E-04-7.83286E-14
 -1      3265 1.41013E-02 7.01465E-04-8.28106E-14
 -1      3266 1.39364E-02 7.30441E-04-8.13146E-14
 -1      3267 1.39268E-02 6.86573E-04-8.07721E-14
 -1      3268 1.43580E-02 6.48059E-04-8.50459E-14
 -1      3269 1.42179E-02 6.76515E-04-8.38149E-14
 -1      3270 1.42095E-02 6.37588E-04-8.32763E-14
 -1      3271 1.44331E-02 6.00401E-04-8.52889E-14
 -1      3272 1.44611E-02 2.64470E-04-8.73492E-14
 -1      3273 1.45436E-02 3.01194E-04-8.71204E-14
 -1      3274 1.13431E-02-7.23151E-04-6.60186E-14
 -1      3275 1.11764E-02-6.34654E-04-6.47163E-14
 -1      3276 1.46154E-02 3.31562E-04-8.68850E-14
 -1      3277 1.46689E-02 3.56848E-04-8.66492E-14
 -1      3278 1.44804E-02 3.07069E-04-8.56648E-14
 -1      3279 1.43560E-02 3.31506E-04-8.12265E-14
 -1      3280 1.06005E-03-2.59302E-04-9.30882E-16
 -1      3281 1.27095E-03-2.92006E-04-1.27638E-15
 -1      3282 1.26175E-02 1.21071E-03-7.12231E-14
 -1      3283 1.27489E-02 1.15830E-03-7.21954E-14
 -1      3284 1.01209E-02-9.92264E-05-5.82528E-14
 -1      3285 9.95517E-03-3.44902E-05-5.73716E-14
 -1      3286 9.32141E-04-2.20426E-04-7.57871E-16
 -1      3287 9.76863E-03 4.04040E-05-5.65259E-14
 -1      3288 9.63795E-03 8.70605E-05-5.59800E-14
 -1      3289 1.42724E-02 1.72427E-04-8.78060E-14
 -1      3290 1.43683E-02 2.20995E-04-8.75775E-14
 -1      3291 1.42945E-02 2.24462E-04-8.61242E-14
 -1      3292 1.40813E-02 6.50639E-05-8.82548E-14
 -1      3293 1.41759E-02 1.19627E-04-8.80323E-14
 -1      3294 1.40894E-02 1.16130E-04-8.65733E-14
 -1      3295 1.38313E-02 1.46287E-04-8.10427E-14
 -1      3296 1.36189E-02 5.68852E-05-8.03287E-14
 -1      3297 1.29513E-02 1.06380E-03-7.36648E-14
 -1      3298 1.28961E-02-3.38409E-04-7.76793E-14
 -1      3299 1.26884E-02-4.63169E-04-7.65621E-14
 -1      3300 3.54060E-03 4.24529E-04-7.38572E-15
 -1      3301 3.39777E-03 4.24442E-04-6.81547E-15
 -1      3302 3.32318E-03 3.86817E-04-6.61966E-15
 -1      3303 3.60958E-03 3.87007E-04-7.76625E-15
 -1      3304 1.41983E-02 2.77722E-04-8.18807E-14
 -1      3305 1.40478E-02 2.29172E-04-8.15798E-14
 -1      3306 2.11106E-03 3.98813E-04-2.69827E-15
 -1      3307 1.96783E-03 3.90893E-04-2.35643E-15
 -1      3308 9.54028E-03 1.15788E-04-5.53953E-14
 -1      3309 9.49898E-03 1.30560E-04-5.51399E-14
 -1      3310 1.20528E-02-7.76977E-04-7.20349E-14
 -1      3311 1.19117E-02-8.10694E-04-7.08024E-14
 -1      3312 1.44457E-03-3.13809E-04-1.60129E-15
 -1      3313 1.58807E-03-3.28280E-04-1.89762E-15
 -1      3314 1.65237E-03-3.00202E-04-2.06648E-15
 -1      3315 1.14500E-03 3.10610E-04-8.39240E-16
 -1      3316 1.08235E-03 2.71672E-04-7.95777E-16
 -1      3317 1.20143E-03 2.73084E-04-9.84401E-16
 -1      3318 1.28817E-03 3.32587E-04-1.04452E-15
 -1      3319 1.41926E-02 4.44022E-04-7.99573E-14
 -1      3320 1.43083E-02 4.07501E-04-8.04375E-14
 -1      3321 1.09897E-02-5.28156E-04-6.34298E-14
 -1      3322 1.08064E-02-4.19506E-04-6.22867E-14
 -1      3323 1.01657E-03 6.82166E-05-8.83069E-16
 -1      3324 1.01540E-03 4.12299E-05-8.94860E-16
 -1      3325 1.03060E-02 5.06398E-04-5.58589E-14
 -1      3326 1.44372E-02 3.44444E-04-8.23454E-14
 -1      3327 1.43418E-02 3.19213E-04-8.22032E-14
 -1      3328 1.31356E-02 9.51983E-04-7.48066E-14
 -1      3329 1.33371E-02 8.72465E-04-7.62868E-14
 -1      3330 1.35203E-02 7.63334E-04-7.72274E-14
 -1      3331 1.01480E-03 1.44494E-05-9.04631E-16
 -1      3332 1.01477E-03-1.22324E-05-9.13020E-16
 -1      3333 1.13549E-03 3.01696E-05-1.08954E-15
 -1      3334 1.41431E-02 4.79582E-04-8.01777E-14
 -1      3335 1.42669E-02 4.63607E-04-8.13122E-14
 -1      3336 1.40972E-02 5.19724E-04-8.03962E-14
 -1      3337 9.47105E-03 1.58227E-04-5.38845E-14
 -1      3338 9.53723E-03 1.69923E-04-5.47386E-14
 -1      3339 9.56385E-03 1.82042E-04-5.44132E-14
 -1      3340 2.68332E-03 4.17808E-04-4.29934E-15
 -1      3341 2.54034E-03 4.14616E-04-3.86435E-15
 -1      3342 2.74983E-03 3.81861E-04-4.59493E-15
 -1      3343 1.30626E-02-2.59190E-04-7.88901E-14
 -1      3344 1.18096E-02-8.27716E-04-7.01259E-14
 -1      3345 1.18655E-02-8.42794E-04-7.10465E-14
 -1      3346 1.10716E-02-6.48531E-04-6.39619E-14
 -1      3347 1.11724E-02-7.25352E-04-6.48524E-14
 -1      3348 1.13469E-02-7.78942E-04-6.63019E-14
 -1      3349 1.25133E-02-5.87195E-04-7.60187E-14
 -1      3350 1.25352E-02-6.13556E-04-7.69871E-14
 -1      3351 1.27128E-02-5.32391E-04-7.84998E-14
 -1      3352 1.26087E-02-5.21215E-04-7.63952E-14
 -1      3353 1.20284E-02-8.11490E-04-7.25307E-14
 -1      3354 1.39701E-02 1.83050E-04-8.21432E-14
 -1      3355 2.39730E-03 4.10481E-04-3.45233E-15
 -1      3356 2.25421E-03 4.05296E-04-3.06359E-15
 -1      3357 2.46283E-03 3.75688E-04-3.71841E-15
 -1      3358 1.15308E-03 2.11863E-04-9.79482E-16
 -1      3359 1.02832E-03 1.81200E-04-8.16120E-16
 -1      3360 1.02414E-03 1.51867E-04-8.36381E-16
 -1      3361 1.43202E-02 3.00370E-04-8.30042E-14
 -1      3362 9.54583E-03 9.07762E-05-5.49372E-14
 -1      3363 1.11417E-02 9.72750E-04-6.04946E-14
 -1      3364 1.21552E-02-7.47248E-04-7.30672E-14
 -1      3365 1.46969E-02 4.16683E-04-8.59529E-14
 -1      3366 1.46611E-02 4.41503E-04-8.57127E-14
 -1      3367 1.06614E-02-3.60871E-04-6.12856E-14
 -1      3368 1.05189E-02-3.10295E-04-6.02906E-14
 -1      3369 1.07108E-02-4.27005E-04-6.14238E-14
 -1      3370 1.10382E-02-5.88135E-04-6.37067E-14
 -1      3371 1.46003E-02 3.59367E-04-8.51967E-14
 -1      3372 1.47015E-02 3.76943E-04-8.64115E-14
 -1      3373 1.47103E-02 3.96876E-04-8.61696E-14
 -1      3374 1.46203E-02 4.67265E-04-8.55663E-14
 -1      3375 1.45706E-02 4.97836E-04-8.54217E-14
 -1      3376 1.45491E-02 4.46224E-04-8.43920E-14
 -1      3377 1.03452E-03-2.11015E-04-9.20826E-16
 -1      3378 1.27339E-02-4.69010E-04-7.76147E-14
 -1      3379 9.85834E-03-4.91204E-05-5.61906E-14
 -1      3380 9.81675E-03-2.07202E-06-5.63593E-14
 -1      3381 9.69089E-03 1.87245E-05-5.53537E-14
 -1      3382 9.45189E-03 1.32521E-04-5.42822E-14
 -1      3383 1.35423E-02-2.03031E-06-8.08019E-14
 -1      3384 1.82455E-03 3.81224E-04-2.03823E-15
 -1      3385 1.68120E-03 3.69630E-04-1.74348E-15
 -1      3386 1.88825E-03 3.50504E-04-2.24420E-15
 -1      3387 2.17562E-03 3.65698E-04-2.93485E-15
 -1      3388 1.02171E-02-1.50362E-04-5.86746E-14
 -1      3389 1.00894E-02-1.30761E-04-5.76213E-14
 -1      3390 1.03119E-02-2.06010E-04-5.90955E-14
 -1      3391 1.28566E-02-4.35245E-04-7.90757E-14
 -1      3392 9.77483E-03 2.41446E-04-5.54634E-14
 -1      3393 1.55630E-03 3.61544E-04-1.49886E-15
 -1      3394 1.41293E-03 3.45369E-04-1.24873E-15
 -1      3395 1.36911E-03 3.15146E-04-1.21661E-15
 -1      3396 1.61929E-03 3.33946E-04-1.67607E-15
 -1      3397 1.33504E-03-2.68980E-04-1.41646E-15
 -1      3398 1.01810E-03-9.30108E-05-9.27616E-16
 -1      3399 1.02048E-03-1.20730E-04-9.28904E-16
 -1      3400 1.02084E-03 1.23312E-04-8.53945E-16
 -1      3401 1.01837E-03 9.55400E-05-8.69530E-16
 -1      3402 1.13815E-03 8.86321E-05-1.06207E-15
 -1      3403 1.14376E-03 1.48799E-04-1.02589E-15
 -1      3404 1.14329E-03-1.45923E-04-1.12352E-15
 -1      3405 1.02368E-03-1.49137E-04-9.28389E-16
 -1      3406 1.02774E-03-1.78381E-04-9.25055E-16
 -1      3407 1.43981E-02 3.96815E-04-8.14068E-14
 -1      3408 1.00103E-02 3.46756E-04-5.54129E-14
 -1      3409 1.01290E-02 3.89741E-04-5.60595E-14
 -1      3410 1.39041E-02-2.62354E-05-8.79674E-14
 -1      3411 1.40085E-02 2.71553E-05-8.81867E-14
 -1      3412 1.39140E-02 1.59672E-05-8.67287E-14
 -1      3413 1.37676E-02-6.75510E-05-8.65920E-14
 -1      3414 1.36928E-02 6.84215E-04-7.82339E-14
 -1      3415 1.38435E-02 6.35841E-04-7.92727E-14
 -1      3416 1.45015E-02 3.68876E-04-8.27467E-14
 -1      3417 1.44811E-02 3.59296E-04-8.25686E-14
 -1      3418 1.09026E-02-5.53494E-04-6.26797E-14
 -1      3419 1.14372E-02-7.67872E-04-6.68494E-14
 -1      3420 2.15042E-03-2.93448E-04-3.35005E-15
 -1      3421 2.29477E-03-2.98350E-04-3.76878E-15
 -1      3422 2.43913E-03-3.02295E-04-4.21171E-15
 -1      3423 2.58345E-03-3.05377E-04-4.67866E-15
 -1      3424 2.36223E-03-2.63646E-04-3.98858E-15
 -1      3425 2.72772E-03-3.07762E-04-5.16746E-15
 -1      3426 2.87192E-03-3.09521E-04-5.68019E-15
 -1      3427 2.65150E-03-2.69316E-04-4.91816E-15
 -1      3428 3.01605E-03-3.10785E-04-6.21633E-15
 -1      3429 3.16009E-03-3.11606E-04-6.77484E-15
 -1      3430 2.94056E-03-2.72571E-04-5.94101E-15
 -1      3431 3.30405E-03-3.12082E-04-7.35532E-15
 -1      3432 3.44791E-03-3.12251E-04-7.95753E-15
 -1      3433 3.22928E-03-2.74106E-04-7.05447E-15
 -1      3434 3.59170E-03-3.12183E-04-8.58164E-15
 -1      3435 3.73540E-03-3.11902E-04-9.22752E-15
 -1      3436 3.51759E-03-2.74440E-04-8.25548E-15
 -1      3437 3.87902E-03-3.11459E-04-9.89508E-15
 -1      3438 4.02256E-03-3.10868E-04-1.05834E-14
 -1      3439 3.80549E-03-2.73946E-04-9.54201E-15
 -1      3440 4.16602E-03-3.10160E-04-1.12935E-14
 -1      3441 4.30941E-03-3.09342E-04-1.20259E-14
 -1      3442 4.09299E-03-2.72876E-04-1.09154E-14
 -1      3443 4.45273E-03-3.08434E-04-1.27781E-14
 -1      3444 4.59598E-03-3.07433E-04-1.35510E-14
 -1      3445 4.38009E-03-2.71389E-04-1.23731E-14
 -1      3446 4.73916E-03-3.06351E-04-1.43454E-14
 -1      3447 4.88227E-03-3.05180E-04-1.51621E-14
 -1      3448 4.66682E-03-2.69563E-04-1.39152E-14
 -1      3449 5.02531E-03-3.03922E-04-1.59996E-14
 -1      3450 5.16828E-03-3.02569E-04-1.68565E-14
 -1      3451 4.95319E-03-2.67422E-04-1.55418E-14
 -1      3452 5.31118E-03-3.01115E-04-1.77344E-14
 -1      3453 5.45401E-03-2.99548E-04-1.86330E-14
 -1      3454 5.23917E-03-2.64943E-04-1.72523E-14
 -1      3455 5.59675E-03-2.97862E-04-1.95511E-14
 -1      3456 5.73941E-03-2.96042E-04-2.04901E-14
 -1      3457 5.52475E-03-2.62072E-04-1.90441E-14
 -1      3458 5.88196E-03-2.94079E-04-2.14497E-14
 -1      3459 6.02443E-03-2.91958E-04-2.24285E-14
 -1      3460 5.80986E-03-2.58730E-04-2.09159E-14
 -1      3461 6.16677E-03-2.89672E-04-2.34280E-14
 -1      3462 6.30901E-03-2.87205E-04-2.44473E-14
 -1      3463 6.09443E-03-2.54830E-04-2.28697E-14
 -1      3464 6.45110E-03-2.84556E-04-2.54834E-14
 -1      3465 6.59306E-03-2.81709E-04-2.65388E-14
 -1      3466 6.37835E-03-2.50282E-04-2.49005E-14
 -1      3467 6.73485E-03-2.78673E-04-2.76124E-14
 -1      3468 6.87650E-03-2.75434E-04-2.87029E-14
 -1      3469 6.66150E-03-2.45015E-04-2.70045E-14
 -1      3470 7.01795E-03-2.72014E-04-2.98127E-14
 -1      3471 7.15925E-03-2.68407E-04-3.09395E-14
 -1      3472 6.94374E-03-2.38990E-04-2.91811E-14
 -1      3473 7.30034E-03-2.64652E-04-3.20841E-14
 -1      3474 7.44127E-03-2.60754E-04-3.32450E-14
 -1      3475 7.22494E-03-2.32221E-04-3.14286E-14
 -1      3476 7.58202E-03-2.56774E-04-3.44207E-14
 -1      3477 7.72263E-03-2.52738E-04-3.56123E-14
 -1      3478 7.50503E-03-2.24807E-04-3.37441E-14
 -1      3479 7.86310E-03-2.48730E-04-3.68176E-14
 -1      3480 8.00354E-03-2.44810E-04-3.80381E-14
 -1      3481 7.78401E-03-2.16961E-04-3.61197E-14
 -1      3482 8.14394E-03-2.41087E-04-3.92741E-14
 -1      3483 8.28448E-03-2.37673E-04-4.05249E-14
 -1      3484 8.06205E-03-2.09052E-04-3.85540E-14
 -1      3485 8.42521E-03-2.34702E-04-4.17858E-14
 -1      3486 8.56639E-03-2.32371E-04-4.30599E-14
 -1      3487 8.33964E-03-2.01659E-04-4.10449E-14
 -1      3488 8.70814E-03-2.30829E-04-4.43492E-14
 -1      3489 8.85086E-03-2.30419E-04-4.56506E-14
 -1      3490 8.61774E-03-1.95650E-04-4.35883E-14
 -1      3491 8.99478E-03-2.31295E-04-4.69613E-14
 -1      3492 9.14044E-03-2.34055E-04-4.82844E-14
 -1      3493 8.89809E-03-1.92333E-04-4.61813E-14
 -1      3494 9.28827E-03-2.38846E-04-4.96185E-14
 -1      3495 9.43896E-03-2.46710E-04-5.09621E-14
 -1      3496 9.18352E-03-1.93777E-04-4.88190E-14
 -1      3497 9.59316E-03-2.57843E-04-5.23171E-14
 -1      3498 9.75157E-03-2.73807E-04-5.36779E-14
 -1      3499 9.47847E-03-2.03553E-04-5.14993E-14
 -1      3500 9.91527E-03-2.94643E-04-5.50486E-14
 -1      3501 1.00845E-02-3.23032E-04-5.64313E-14
 -1      3502 9.78946E-03-2.27555E-04-5.42155E-14
 -1      3503 1.02138E-02-2.96057E-04-5.76647E-14
 -1      3504 1.03946E-02-3.40408E-04-5.90614E-14
 -1      3505 1.07115E-02-4.84533E-04-6.12572E-14
 -1      3506 3.10465E-03 3.48274E-04-5.89080E-15
 -1      3507 2.96091E-03 3.47155E-04-5.38141E-15
 -1      3508 4.25227E-03 3.47057E-04-1.07572E-14
 -1      3509 4.10902E-03 3.47820E-04-1.00732E-14
 -1      3510 3.96571E-03 3.48460E-04-9.41102E-15
 -1      3511 3.82236E-03 3.48967E-04-8.76995E-15
 -1      3512 4.03586E-03 3.10555E-04-9.82474E-15
 -1      3513 4.82480E-03 3.43022E-04-1.37056E-14
 -1      3514 4.68173E-03 3.44171E-04-1.29372E-14
 -1      3515 5.11079E-03 3.40439E-04-1.53036E-14
 -1      3516 4.96781E-03 3.41781E-04-1.44939E-14
 -1      3517 4.89563E-03 3.05241E-04-1.41944E-14
 -1      3518 5.39659E-03 3.37426E-04-1.69845E-14
 -1      3519 5.25371E-03 3.38991E-04-1.61340E-14
 -1      3520 5.18164E-03 3.02754E-04-1.58175E-14
 -1      3521 5.68218E-03 3.33904E-04-1.87455E-14
 -1      3522 5.53941E-03 3.35735E-04-1.78554E-14
 -1      3523 5.46735E-03 2.99855E-04-1.75218E-14
 -1      3524 5.96750E-03 3.29775E-04-2.05843E-14
 -1      3525 5.82487E-03 3.31922E-04-1.96551E-14
 -1      3526 5.75270E-03 2.96465E-04-1.93052E-14
 -1      3527 6.25248E-03 3.24939E-04-2.24971E-14
 -1      3528 6.11003E-03 3.27452E-04-2.15310E-14
 -1      3529 6.03760E-03 2.92496E-04-2.11665E-14
 -1      3530 6.53702E-03 3.19315E-04-2.44843E-14
 -1      3531 6.39481E-03 3.22232E-04-2.34825E-14
 -1      3532 6.32195E-03 2.87862E-04-2.31029E-14
 -1      3533 6.82097E-03 3.12861E-04-2.65418E-14
 -1      3534 6.67907E-03 3.16196E-04-2.55048E-14
 -1      3535 6.60557E-03 2.82500E-04-2.51125E-14
 -1      3536 7.10414E-03 3.05610E-04-2.86690E-14
 -1      3537 6.96266E-03 3.09335E-04-2.75964E-14
 -1      3538 6.88826E-03 2.76395E-04-2.71923E-14
 -1      3539 7.38628E-03 2.97710E-04-3.08623E-14
 -1      3540 7.24534E-03 3.01735E-04-2.97568E-14
 -1      3541 7.16972E-03 2.69609E-04-2.93403E-14
 -1      3542 7.66709E-03 2.89476E-04-3.31187E-14
 -1      3543 7.52685E-03 2.93619E-04-3.19823E-14
 -1      3544 7.44961E-03 2.62322E-04-3.15548E-14
 -1      3545 7.94623E-03 2.81449E-04-3.54348E-14
 -1      3546 7.80686E-03 2.85409E-04-3.42705E-14
 -1      3547 7.72750E-03 2.54877E-04-3.38324E-14
 -1      3548 8.22337E-03 2.74470E-04-3.78069E-14
 -1      3549 8.08504E-03 2.77785E-04-3.66137E-14
 -1      3550 8.00290E-03 2.47825E-04-3.61672E-14
 -1      3551 8.49829E-03 2.69737E-04-4.02323E-14
 -1      3552 8.36107E-03 2.71757E-04-3.90135E-14
 -1      3553 8.27531E-03 2.41975E-04-3.85562E-14
 -1      3554 8.77108E-03 2.68875E-04-4.27083E-14
 -1      3555 8.63487E-03 2.68725E-04-4.14637E-14
 -1      3556 8.54429E-03 2.38417E-04-4.09996E-14
 -1      3557 9.04252E-03 2.74008E-04-4.52330E-14
 -1      3558 8.90680E-03 2.70542E-04-4.39643E-14
 -1      3559 8.80967E-03 2.38530E-04-4.34940E-14
 -1      3560 9.31475E-03 2.87970E-04-4.78056E-14
 -1      3561 9.17818E-03 2.79619E-04-4.65136E-14
 -1      3562 9.07187E-03 2.43977E-04-4.60360E-14
 -1      3563 9.59244E-03 3.15004E-04-5.04204E-14
 -1      3564 9.45225E-03 2.99295E-04-4.91081E-14
 -1      3565 9.33263E-03 2.56879E-04-4.86235E-14
 -1      3566 9.88448E-03 3.62715E-04-5.30812E-14
 -1      3567 9.73561E-03 3.35137E-04-5.17454E-14
 -1      3568 9.59631E-03 2.80733E-04-5.12533E-14
 -1      3569 1.45005E-02 3.51286E-04-8.35500E-14
 -1      3570 1.38978E-02 5.17166E-05-8.53428E-14
 -1      3571 1.40045E-02 1.16258E-04-8.51212E-14
 -1      3572 1.46191E-02 3.98682E-04-8.47471E-14
 -1      3573 1.41089E-02 6.24735E-04-8.20223E-14
 -1      3574 1.39458E-02 6.47504E-04-8.05219E-14
 -1      3575 1.40381E-02 5.68949E-04-8.05184E-14
 -1      3576 1.42248E-02 6.03547E-04-8.30289E-14
 -1      3577 1.32125E-02-2.47839E-04-8.12901E-14
 -1      3578 1.33966E-02-1.76384E-04-8.28272E-14
 -1      3579 1.41190E-02 2.15824E-04-8.34994E-14
 -1      3580 1.39216E-02 1.40139E-04-8.29592E-14
 -1      3581 1.03273E-02 4.90421E-04-5.66622E-14
 -1      3582 1.29334E-02-3.76698E-04-7.92455E-14
 -1      3583 9.53785E-03 6.07723E-05-5.43035E-14
 -1      3584 9.44999E-03 8.89905E-05-5.37259E-14
 -1      3585 9.38820E-03 1.15952E-04-5.31645E-14
 -1      3586 9.39050E-03 1.33484E-04-5.30904E-14
 -1      3587 1.01529E-03-3.89433E-05-9.19756E-16
 -1      3588 1.01638E-03-6.57881E-05-9.24567E-16
 -1      3589 1.13790E-03-8.60006E-05-1.12031E-15
 -1      3590 4.53862E-03 3.45227E-04-1.21891E-14
 -1      3591 4.39547E-03 3.46192E-04-1.14625E-14
 -1      3592 4.32273E-03 3.09151E-04-1.11971E-14
 -1      3593 4.60932E-03 3.07368E-04-1.26539E-14
 -1      3594 2.24125E-03 3.32004E-04-3.17644E-15
 -1      3595 2.09720E-03 3.26205E-04-2.80428E-15
 -1      3596 9.65399E-03 2.16556E-04-5.42922E-14
 -1      3597 9.78188E-03 2.62831E-04-5.44846E-14
 -1      3598 1.37760E-02 7.04446E-05-8.27477E-14
 -1      3599 1.35753E-02-2.04648E-05-8.19441E-14
 -1      3600 1.86187E-03-2.80055E-04-2.58436E-15
 -1      3601 2.00610E-03-2.87389E-04-2.95483E-15
 -1      3602 2.07301E-03-2.54674E-04-3.15233E-15
 -1      3603 1.15395E-03-2.11221E-04-1.11890E-15
 -1      3604 1.32611E-03 2.85694E-04-1.18249E-15
 -1      3605 1.28392E-03 2.56994E-04-1.14669E-15
 -1      3606 1.45112E-03 2.96029E-04-1.39964E-15
 -1      3607 1.45325E-02 5.28413E-04-8.54300E-14
 -1      3608 1.44739E-02 5.65711E-04-8.52845E-14
 -1      3609 1.43666E-02 5.79749E-04-8.42769E-14
 -1      3610 1.44549E-02 5.08444E-04-8.42597E-14
 -1      3611 1.57402E-03-2.60756E-04-1.91648E-15
 -1      3612 1.71783E-03-2.71226E-04-2.23820E-15
 -1      3613 1.78427E-03-2.41330E-04-2.41230E-15
 -1      3614 1.27674E-03-2.28568E-04-1.33048E-15
 -1      3615 1.44998E-03-2.46444E-04-1.66051E-15
 -1      3616 1.51621E-03-2.20110E-04-1.81215E-15
 -1      3617 1.26956E-03-1.92207E-04-1.33374E-15
 -1      3618 1.31704E-02-2.37337E-04-8.03585E-14
 -1      3619 1.44532E-02 4.22910E-04-8.28107E-14
 -1      3620 1.45159E-02 3.96012E-04-8.31291E-14
 -1      3621 1.43938E-02 4.54555E-04-8.26714E-14
 -1      3622 1.41779E-02 5.41606E-04-8.16530E-14
 -1      3623 9.38673E-03 1.42962E-04-5.27712E-14
 -1      3624 9.39113E-03 1.52929E-04-5.24521E-14
 -1      3625 9.30396E-03 1.27784E-04-5.16640E-14
 -1      3626 2.81710E-03 3.45529E-04-4.89492E-15
 -1      3627 2.67322E-03 3.43332E-04-4.43062E-15
 -1      3628 2.88507E-03 3.08877E-04-5.19955E-15
 -1      3629 3.67894E-03 3.49305E-04-8.14958E-15
 -1      3630 3.53547E-03 3.49455E-04-7.55151E-15
 -1      3631 3.74867E-03 3.11476E-04-8.53702E-15
 -1      3632 1.05763E-02-4.38571E-04-6.02584E-14
 -1      3633 3.24833E-03 3.48994E-04-6.42253E-15
 -1      3634 3.17328E-03 3.11005E-04-6.22347E-15
 -1      3635 3.39193E-03 3.49361E-04-6.97587E-15
 -1      3636 9.59090E-03-7.84093E-06-5.39700E-14
 -1      3637 9.56433E-03 2.86442E-05-5.41382E-14
 -1      3638 9.44695E-03 3.25140E-05-5.29300E-14
 -1      3639 2.52928E-03 3.40419E-04-3.98957E-15
 -1      3640 2.38528E-03 3.36705E-04-3.57152E-15
 -1      3641 2.59656E-03 3.04738E-04-4.26552E-15
 -1      3642 1.35136E-02-1.42531E-04-8.40250E-14
 -1      3643 1.36582E-02-9.61965E-05-8.53906E-14
 -1      3644 1.37317E-02-5.16285E-05-8.54591E-14
 -1      3645 1.35061E-02-1.09202E-04-8.30604E-14
 -1      3646 2.01912E-03 2.86970E-04-2.67296E-15
 -1      3647 1.95317E-03 3.19079E-04-2.45564E-15
 -1      3648 1.80918E-03 3.10487E-04-2.13044E-15
 -1      3649 1.25749E-03 4.78619E-05-1.29047E-15
 -1      3650 1.25675E-03 1.67880E-05-1.30390E-15
 -1      3651 1.27728E-03 2.22419E-04-1.17773E-15
 -1      3652 1.45821E-02 3.91372E-04-8.41536E-14
 -1      3653 1.45542E-02 3.52525E-04-8.45998E-14
 -1      3654 1.44940E-02 3.35751E-04-8.43753E-14
 -1      3655 1.13541E-03-2.77054E-05-1.10894E-15
 -1      3656 1.03762E-02-2.73801E-04-5.92280E-14
 -1      3657 9.35606E-03 9.34145E-05-5.25372E-14
 -1      3658 9.93127E-03-1.03591E-04-5.63474E-14
 -1      3659 9.79364E-03-7.06228E-05-5.53404E-14
 -1      3660 2.30783E-03 2.97779E-04-3.42300E-15
 -1      3661 9.55878E-03 1.98351E-04-5.34426E-14
 -1      3662 1.41343E-02 1.74444E-04-8.53331E-14
 -1      3663 1.42424E-02 2.28141E-04-8.51089E-14
 -1      3664 1.25895E-03 7.90864E-05-1.27478E-15
 -1      3665 1.38066E-03 6.71841E-05-1.50659E-15
 -1      3666 1.26115E-03 1.10654E-04-1.25645E-15
 -1      3667 1.45829E-02 3.72170E-04-8.43662E-14
 -1      3668 1.00132E-02-1.46352E-04-5.67632E-14
 -1      3669 1.39435E-02 1.15884E-04-8.41084E-14
 -1      3670 1.25872E-03-7.63546E-05-1.33052E-15
 -1      3671 1.26083E-03-1.07810E-04-1.33480E-15
 -1      3672 1.42776E-02 2.61875E-04-8.42858E-14
 -1      3673 1.43768E-02 3.02826E-04-8.40557E-14
 -1      3674 9.69180E-03 2.66663E-04-5.29527E-14
 -1      3675 9.83400E-03 2.96814E-04-5.41154E-14
 -1      3676 1.26270E-03-1.33363E-04-1.33585E-15
 -1      3677 1.26633E-03-1.65758E-04-1.33614E-15
 -1      3678 1.38907E-03-1.78807E-04-1.56629E-15
 -1      3679 1.38401E-03-1.24276E-04-1.56614E-15
 -1      3680 9.90350E-03 3.40782E-04-5.38714E-14
 -1      3681 1.38078E-02-7.46640E-06-8.55266E-14
 -1      3682 1.43670E-02 4.84329E-04-8.28896E-14
 -1      3683 1.00717E-02 4.18185E-04-5.43705E-14
 -1      3684 1.37103E-02-1.55000E-05-8.40780E-14
 -1      3685 2.28568E-03-2.25242E-04-3.76848E-15
 -1      3686 2.43057E-03-2.28418E-04-4.20902E-15
 -1      3687 1.33559E-02-1.26867E-04-8.09327E-14
 -1      3688 1.00691E-02-2.13476E-04-5.68127E-14
 -1      3689 2.57547E-03-2.30935E-04-4.67291E-15
 -1      3690 2.72034E-03-2.32861E-04-5.15928E-15
 -1      3691 2.49969E-03-1.92709E-04-4.43057E-15
 -1      3692 2.86515E-03-2.34310E-04-5.66870E-15
 -1      3693 3.00987E-03-2.35331E-04-6.20193E-15
 -1      3694 2.78987E-03-1.96065E-04-5.40116E-15
 -1      3695 3.15450E-03-2.36016E-04-6.75669E-15
 -1      3696 3.29902E-03-2.36398E-04-7.33354E-15
 -1      3697 3.07978E-03-1.97856E-04-6.46191E-15
 -1      3698 3.44343E-03-2.36549E-04-7.93200E-15
 -1      3699 3.58771E-03-2.36489E-04-8.55124E-15
 -1      3700 3.36926E-03-1.98538E-04-7.61145E-15
 -1      3701 3.73188E-03-2.36270E-04-9.19348E-15
 -1      3702 3.87593E-03-2.35905E-04-9.85603E-15
 -1      3703 3.65824E-03-1.98449E-04-8.84771E-15
 -1      3704 4.01986E-03-2.35429E-04-1.05402E-14
 -1      3705 4.16367E-03-2.34848E-04-1.12464E-14
 -1      3706 3.94668E-03-1.97826E-04-1.01692E-14
 -1      3707 4.30737E-03-2.34186E-04-1.19723E-14
 -1      3708 4.45095E-03-2.33440E-04-1.27198E-14
 -1      3709 4.23458E-03-1.96825E-04-1.15754E-14
 -1      3710 4.59442E-03-2.32627E-04-1.34883E-14
 -1      3711 4.73777E-03-2.31739E-04-1.42782E-14
 -1      3712 4.52196E-03-1.95536E-04-1.30653E-14
 -1      3713 4.88101E-03-2.30785E-04-1.50901E-14
 -1      3714 5.02414E-03-2.29753E-04-1.59219E-14
 -1      3715 4.80881E-03-1.93998E-04-1.46415E-14
 -1      3716 5.16715E-03-2.28647E-04-1.67742E-14
 -1      3717 5.31003E-03-2.27454E-04-1.76470E-14
 -1      3718 5.09513E-03-1.92208E-04-1.63001E-14
 -1      3719 5.45279E-03-2.26171E-04-1.85407E-14
 -1      3720 5.59540E-03-2.24784E-04-1.94538E-14
 -1      3721 5.38087E-03-1.90133E-04-1.80415E-14
 -1      3722 5.73786E-03-2.23289E-04-2.03883E-14
 -1      3723 5.88016E-03-2.21668E-04-2.13419E-14
 -1      3724 5.66597E-03-1.87717E-04-1.98637E-14
 -1      3725 6.02228E-03-2.19919E-04-2.23153E-14
 -1      3726 6.16421E-03-2.18021E-04-2.33092E-14
 -1      3727 5.95033E-03-1.84889E-04-2.17654E-14
 -1      3728 6.30592E-03-2.15976E-04-2.43206E-14
 -1      3729 6.44740E-03-2.13759E-04-2.53510E-14
 -1      3730 6.23380E-03-1.81567E-04-2.37455E-14
 -1      3731 6.58861E-03-2.11378E-04-2.64016E-14
 -1      3732 6.72956E-03-2.08808E-04-2.74694E-14
 -1      3733 6.51620E-03-1.77670E-04-2.58019E-14
 -1      3734 6.87020E-03-2.06064E-04-2.85539E-14
 -1      3735 7.01051E-03-2.03122E-04-2.96571E-14
 -1      3736 6.79731E-03-1.73122E-04-2.79313E-14
 -1      3737 7.15047E-03-2.00007E-04-3.07779E-14
 -1      3738 7.29007E-03-1.96698E-04-3.19163E-14
 -1      3739 7.07690E-03-1.67866E-04-3.01325E-14
 -1      3740 7.42927E-03-1.93234E-04-3.30701E-14
 -1      3741 7.56809E-03-1.89598E-04-3.42399E-14
 -1      3742 7.35471E-03-1.61873E-04-3.24006E-14
 -1      3743 7.70648E-03-1.85845E-04-3.54250E-14
 -1      3744 7.84451E-03-1.81969E-04-3.66239E-14
 -1      3745 7.63054E-03-1.55157E-04-3.47342E-14
 -1      3746 7.98213E-03-1.78042E-04-3.78383E-14
 -1      3747 8.11945E-03-1.74079E-04-3.90672E-14
 -1      3748 7.90425E-03-1.47786E-04-3.71268E-14
 -1      3749 8.25646E-03-1.70164E-04-4.03083E-14
 -1      3750 8.39335E-03-1.66355E-04-4.15623E-14
 -1      3751 8.17586E-03-1.39904E-04-3.95758E-14
 -1      3752 8.53013E-03-1.62741E-04-4.28313E-14
 -1      3753 8.66714E-03-1.59461E-04-4.41133E-14
 -1      3754 8.44570E-03-1.31758E-04-4.20788E-14
 -1      3755 8.80442E-03-1.56599E-04-4.54060E-14
 -1      3756 8.94254E-03-1.54455E-04-4.67085E-14
 -1      3757 8.71457E-03-1.23768E-04-4.46335E-14
 -1      3758 9.08164E-03-1.53117E-04-4.80245E-14
 -1      3759 9.22256E-03-1.53179E-04-4.93509E-14
 -1      3760 8.98409E-03-1.16668E-04-4.72352E-14
 -1      3761 9.36560E-03-1.54803E-04-5.06851E-14
 -1      3762 9.51202E-03-1.59297E-04-5.20317E-14
 -1      3763 9.25722E-03-1.12041E-04-4.98783E-14
 -1      3764 9.75030E-03-1.69239E-04-5.41743E-14
 -1      3765 9.90944E-03-1.85098E-04-5.55413E-14
 -1      3766 1.35987E-02-4.15319E-05-8.28796E-14
 -1      3767 4.10626E-03 2.72585E-04-1.02417E-14
 -1      3768 3.96255E-03 2.73121E-04-9.57454E-15
 -1      3769 1.42633E-03 2.30716E-04-1.44154E-15
 -1      3770 1.29607E-03 1.88456E-04-1.24865E-15
 -1      3771 5.25247E-03 2.65184E-04-1.63339E-14
 -1      3772 5.10953E-03 2.66401E-04-1.54998E-14
 -1      3773 4.96649E-03 2.67526E-04-1.46873E-14
 -1      3774 4.82335E-03 2.68570E-04-1.38949E-14
 -1      3775 5.03738E-03 2.29911E-04-1.51829E-14
 -1      3776 5.82304E-03 2.59264E-04-1.98692E-14
 -1      3777 5.68059E-03 2.60923E-04-1.89560E-14
 -1      3778 6.10745E-03 2.55536E-04-2.17526E-14
 -1      3779 5.96533E-03 2.57474E-04-2.08017E-14
 -1      3780 5.89322E-03 2.22336E-04-2.04358E-14
 -1      3781 6.39107E-03 2.51202E-04-2.37106E-14
 -1      3782 6.24937E-03 2.53451E-04-2.27213E-14
 -1      3783 6.17707E-03 2.18932E-04-2.23417E-14
 -1      3784 6.67369E-03 2.46222E-04-2.57428E-14
 -1      3785 6.53252E-03 2.48798E-04-2.47179E-14
 -1      3786 6.45989E-03 2.14999E-04-2.43224E-14
 -1      3787 6.95501E-03 2.40607E-04-2.78451E-14
 -1      3788 6.81452E-03 2.43497E-04-2.67861E-14
 -1      3789 6.74142E-03 2.10521E-04-2.63778E-14
 -1      3790 7.23466E-03 2.34450E-04-3.00160E-14
 -1      3791 7.09506E-03 2.37596E-04-2.89220E-14
 -1      3792 7.02130E-03 2.05537E-04-2.85028E-14
 -1      3793 7.51219E-03 2.27961E-04-3.22522E-14
 -1      3794 7.37371E-03 2.31242E-04-3.11263E-14
 -1      3795 7.29907E-03 2.00171E-04-3.06962E-14
 -1      3796 7.78705E-03 2.21506E-04-3.45479E-14
 -1      3797 7.64997E-03 2.24719E-04-3.33920E-14
 -1      3798 7.57418E-03 1.94661E-04-3.29525E-14
 -1      3799 8.05859E-03 2.15637E-04-3.69015E-14
 -1      3800 7.92325E-03 2.18481E-04-3.57196E-14
 -1      3801 7.84595E-03 1.89390E-04-3.52684E-14
 -1      3802 8.32613E-03 2.11117E-04-3.93103E-14
 -1      3803 8.19288E-03 2.13185E-04-3.80987E-14
 -1      3804 8.11360E-03 1.84902E-04-3.76404E-14
 -1      3805 8.58897E-03 2.08914E-04-4.17716E-14
 -1      3806 8.45814E-03 2.09699E-04-4.05341E-14
 -1      3807 8.37622E-03 1.81906E-04-4.00670E-14
 -1      3808 8.84654E-03 2.10147E-04-4.42825E-14
 -1      3809 8.71837E-03 2.09076E-04-4.30203E-14
 -1      3810 8.63278E-03 1.81236E-04-4.25462E-14
 -1      3811 9.09866E-03 2.16016E-04-4.68411E-14
 -1      3812 8.97314E-03 2.12469E-04-4.55562E-14
 -1      3813 8.88219E-03 1.83734E-04-4.50732E-14
 -1      3814 9.34625E-03 2.27892E-04-4.94421E-14
 -1      3815 9.22270E-03 2.21073E-04-4.81366E-14
 -1      3816 9.12342E-03 1.90039E-04-4.76473E-14
 -1      3817 9.57899E-03 2.50158E-04-5.18522E-14
 -1      3818 9.45451E-03 2.38715E-04-5.05270E-14
 -1      3819 9.34207E-03 2.02801E-04-5.00323E-14
 -1      3820 9.54589E-03 2.23018E-04-5.22164E-14
 -1      3821 1.25671E-03-1.41558E-05-1.31492E-15
 -1      3822 1.25735E-03-4.51528E-05-1.32378E-15
 -1      3823 1.38047E-03-6.43026E-05-1.55719E-15
 -1      3824 1.37906E-03 1.42949E-06-1.53703E-15
 -1      3825 1.42738E-02 5.62191E-04-8.30194E-14
 -1      3826 1.43161E-02 5.21163E-04-8.29032E-14
 -1      3827 1.70751E-03-2.03507E-04-2.24428E-15
 -1      3828 1.85168E-03-2.10532E-04-2.58918E-15
 -1      3829 2.37534E-03 2.63012E-04-3.67524E-15
 -1      3830 2.23068E-03 2.59061E-04-3.27372E-15
 -1      3831 9.31729E-03 6.58789E-05-5.18015E-14
 -1      3832 9.26098E-03 9.43143E-05-5.12490E-14
 -1      3833 1.69269E-03 3.08152E-04-1.87472E-15
 -1      3834 1.56723E-03 3.01612E-04-1.62114E-15
 -1      3835 1.52495E-03 2.72570E-04-1.57875E-15
 -1      3836 1.75802E-03 2.78711E-04-2.06489E-15
 -1      3837 1.99616E-03-2.16414E-04-2.95844E-15
 -1      3838 2.14086E-03-2.21267E-04-3.35157E-15
 -1      3839 2.20957E-03-1.87202E-04-3.55240E-15
 -1      3840 1.29176E-03 1.55220E-04-1.27368E-15
 -1      3841 5.53801E-03 2.62454E-04-1.80618E-14
 -1      3842 5.39529E-03 2.63873E-04-1.71880E-14
 -1      3843 5.60857E-03 2.25258E-04-1.86057E-14
 -1      3844 9.46805E-03 1.88334E-04-5.23391E-14
 -1      3845 9.60657E-03-1.39839E-04-5.30271E-14
 -1      3846 9.71001E-03-9.18498E-05-5.43401E-14
 -1      3847 9.65142E-03-4.52405E-05-5.41876E-14
 -1      3848 9.48541E-03-9.03876E-05-5.22035E-14
 -1      3849 9.24039E-03 1.05971E-04-5.09332E-14
 -1      3850 9.22678E-03 1.16634E-04-5.06186E-14
 -1      3851 9.18352E-03 8.20320E-05-5.02039E-14
 -1      3852 2.95374E-03 2.71907E-04-5.50899E-15
 -1      3853 2.80923E-03 2.70528E-04-5.01622E-15
 -1      3854 3.81875E-03 2.73533E-04-8.92926E-15
 -1      3855 3.67484E-03 2.73813E-04-8.30392E-15
 -1      3856 3.88915E-03 2.35525E-04-9.32333E-15
 -1      3857 5.32325E-03 2.27762E-04-1.68536E-14
 -1      3858 3.46115E-03 3.11725E-04-7.33620E-15
 -1      3859 1.54263E-03 2.34706E-04-1.66590E-15
 -1      3860 1.91997E-03-1.78819E-04-2.76855E-15
 -1      3861 9.51645E-03-3.20792E-05-5.29792E-14
 -1      3862 2.66465E-03 2.68638E-04-4.54674E-15
 -1      3863 2.52001E-03 2.66178E-04-4.09975E-15
 -1      3864 2.73348E-03 2.32174E-04-4.83230E-15
 -1      3865 4.24987E-03 2.71952E-04-1.09301E-14
 -1      3866 4.17690E-03 2.34594E-04-1.06621E-14
 -1      3867 4.39338E-03 2.71225E-04-1.16391E-14
 -1      3868 9.35712E-03 1.70501E-04-5.12374E-14
 -1      3869 2.44368E-03 2.27749E-04-3.93255E-15
 -1      3870 1.50242E-03 1.87261E-05-1.77483E-15
 -1      3871 1.50237E-03-1.57207E-05-1.78904E-15
 -1      3872 1.48605E-03-1.86007E-04-1.76125E-15
 -1      3873 1.60987E-03-1.97596E-04-2.02416E-15
 -1      3874 1.67783E-03-1.68551E-04-2.18444E-15
 -1      3875 1.48309E-03-1.57604E-04-1.76175E-15
 -1      3876 3.24248E-03 2.73498E-04-6.56075E-15
 -1      3877 3.09816E-03 2.72883E-04-6.02376E-15
 -1      3878 3.02304E-03 2.34675E-04-5.82294E-15
 -1      3879 1.50312E-03-5.02188E-05-1.80101E-15
 -1      3880 1.50467E-03-8.48773E-05-1.80971E-15
 -1      3881 1.62657E-03-3.43574E-05-2.05989E-15
 -1      3882 1.41300E-03 1.46548E-04-1.50682E-15
 -1      3883 9.32225E-03 4.08908E-05-5.16355E-14
 -1      3884 9.20653E-03 4.61850E-05-5.03519E-14
 -1      3885 9.33062E-03 1.27175E-05-5.14696E-14
 -1      3886 2.15393E-03 2.20683E-04-3.12397E-15
 -1      3887 2.08607E-03 2.54163E-04-2.89551E-15
 -1      3888 1.94157E-03 2.48220E-04-2.54049E-15
 -1      3889 1.50491E-03 8.79137E-05-1.73731E-15
 -1      3890 1.50327E-03 5.32320E-05-1.75740E-15
 -1      3891 1.62667E-03 3.74972E-05-2.02724E-15
 -1      3892 4.68012E-03 2.69532E-04-1.31216E-14
 -1      3893 4.53680E-03 2.70419E-04-1.23696E-14
 -1      3894 4.46419E-03 2.33318E-04-1.20852E-14
 -1      3895 1.48077E-03-1.29529E-04-1.76047E-15
 -1      3896 1.60328E-03-1.16987E-04-2.02225E-15
 -1      3897 4.75102E-03 2.31754E-04-1.35931E-14
 -1      3898 2.13401E-03-1.49685E-04-3.34021E-15
 -1      3899 2.27911E-03-1.52482E-04-3.75428E-15
 -1      3900 2.42432E-03-1.54754E-04-4.19186E-15
 -1      3901 2.56959E-03-1.56535E-04-4.65291E-15
 -1      3902 2.34941E-03-1.17167E-04-3.95746E-15
 -1      3903 2.71485E-03-1.57920E-04-5.13658E-15
 -1      3904 2.86007E-03-1.58943E-04-5.64257E-15
 -1      3905 2.64017E-03-1.19946E-04-4.87536E-15
 -1      3906 3.00522E-03-1.59684E-04-6.17164E-15
 -1      3907 3.15026E-03-1.60163E-04-6.72257E-15
 -1      3908 2.93089E-03-1.21550E-04-5.88479E-15
 -1      3909 3.29519E-03-1.60444E-04-7.29533E-15
 -1      3910 3.43998E-03-1.60541E-04-7.88960E-15
 -1      3911 3.22126E-03-1.22304E-04-6.98280E-15
 -1      3912 3.58463E-03-1.60503E-04-8.50506E-15
 -1      3913 3.72914E-03-1.60336E-04-9.14268E-15
 -1      3914 3.51112E-03-1.22459E-04-8.16712E-15
 -1      3915 3.87351E-03-1.60077E-04-9.80113E-15
 -1      3916 4.01772E-03-1.59726E-04-1.04810E-14
 -1      3917 3.80039E-03-1.22198E-04-9.43662E-15
 -1      3918 4.16179E-03-1.59310E-04-1.11822E-14
 -1      3919 4.30571E-03-1.58825E-04-1.19041E-14
 -1      3920 4.08903E-03-1.21647E-04-1.07922E-14
 -1      3921 4.44949E-03-1.58289E-04-1.26467E-14
 -1      3922 4.59312E-03-1.57695E-04-1.34111E-14
 -1      3923 4.37704E-03-1.20885E-04-1.22321E-14
 -1      3924 4.73661E-03-1.57055E-04-1.41963E-14
 -1      3925 4.87995E-03-1.56359E-04-1.50031E-14
 -1      3926 4.66442E-03-1.19951E-04-1.37563E-14
 -1      3927 5.02313E-03-1.55614E-04-1.58310E-14
 -1      3928 5.16616E-03-1.54807E-04-1.66779E-14
 -1      3929 4.95116E-03-1.18854E-04-1.53640E-14
 -1      3930 5.30902E-03-1.53942E-04-1.75453E-14
 -1      3931 5.45170E-03-1.53005E-04-1.84335E-14
 -1      3932 5.23722E-03-1.17580E-04-1.70536E-14
 -1      3933 5.59420E-03-1.51996E-04-1.93422E-14
 -1      3934 5.73650E-03-1.50899E-04-2.02712E-14
 -1      3935 5.52253E-03-1.16098E-04-1.88252E-14
 -1      3936 5.87857E-03-1.49715E-04-2.12192E-14
 -1      3937 6.02041E-03-1.48423E-04-2.21870E-14
 -1      3938 5.80699E-03-1.14357E-04-2.06764E-14
 -1      3939 6.16198E-03-1.47026E-04-2.31746E-14
 -1      3940 6.30326E-03-1.45501E-04-2.41807E-14
 -1      3941 6.09042E-03-1.12298E-04-2.26067E-14
 -1      3942 6.44422E-03-1.43852E-04-2.52065E-14
 -1      3943 6.58483E-03-1.42051E-04-2.62501E-14
 -1      3944 6.37264E-03-1.09848E-04-2.46151E-14
 -1      3945 6.72505E-03-1.40111E-04-2.73128E-14
 -1      3946 6.86486E-03-1.37997E-04-2.83929E-14
 -1      3947 6.65336E-03-1.06931E-04-2.66971E-14
 -1      3948 7.00419E-03-1.35727E-04-2.94893E-14
 -1      3949 7.14304E-03-1.33264E-04-3.06042E-14
 -1      3950 6.93228E-03-1.03460E-04-2.88516E-14
 -1      3951 7.28133E-03-1.30634E-04-3.17366E-14
 -1      3952 7.41906E-03-1.27794E-04-3.28838E-14
 -1      3953 7.20904E-03-9.93440E-05-3.10745E-14
 -1      3954 7.55616E-03-1.24780E-04-3.40475E-14
 -1      3955 7.69263E-03-1.21543E-04-3.52253E-14
 -1      3956 7.48324E-03-9.44865E-05-3.33644E-14
 -1      3957 7.82840E-03-1.18131E-04-3.64183E-14
 -1      3958 7.96350E-03-1.14492E-04-3.76259E-14
 -1      3959 7.75450E-03-8.87819E-05-3.57146E-14
 -1      3960 8.09786E-03-1.10681E-04-3.88481E-14
 -1      3961 8.23158E-03-1.06650E-04-4.00825E-14
 -1      3962 8.02245E-03-8.21128E-05-3.81227E-14
 -1      3963 8.36456E-03-1.02460E-04-4.13300E-14
 -1      3964 8.49700E-03-9.80780E-05-4.25920E-14
 -1      3965 8.28679E-03-7.43476E-05-4.05863E-14
 -1      3966 8.62880E-03-9.35640E-05-4.38660E-14
 -1      3967 8.76033E-03-8.89405E-05-4.51513E-14
 -1      3968 8.54741E-03-6.53486E-05-4.31016E-14
 -1      3969 8.89148E-03-8.42589E-05-4.64487E-14
 -1      3970 9.02286E-03-7.95868E-05-4.77572E-14
 -1      3971 8.80453E-03-5.49873E-05-4.56669E-14
 -1      3972 9.18225E-03-8.41175E-05-4.93016E-14
 -1      3973 9.31667E-03-8.10439E-05-5.06316E-14
 -1      3974 9.40215E-03-5.89435E-05-5.16167E-14
 -1      3975 9.08475E-03-5.09692E-05-4.85012E-14
 -1      3976 1.65925E-03 2.37256E-04-1.90666E-15
 -1      3977 1.56160E-03 1.97005E-04-1.75077E-15
 -1      3978 1.77616E-03 2.38464E-04-2.16395E-15
 -1      3979 4.82201E-03 1.94057E-04-1.40673E-14
 -1      3980 4.67865E-03 1.94785E-04-1.32902E-14
 -1      3981 3.53082E-03 2.73920E-04-7.70063E-15
 -1      3982 3.38671E-03 2.73835E-04-7.11985E-15
 -1      3983 3.31221E-03 2.35811E-04-6.90217E-15
 -1      3984 3.60092E-03 2.35997E-04-8.06995E-15
 -1      3985 6.24652E-03 1.82726E-04-2.29348E-14
 -1      3986 6.10503E-03 1.84279E-04-2.19608E-14
 -1      3987 5.96328E-03 1.85718E-04-2.10054E-14
 -1      3988 5.82128E-03 1.87060E-04-2.00691E-14
 -1      3989 6.03325E-03 1.49438E-04-2.15788E-14
 -1      3990 6.80892E-03 1.75442E-04-2.70182E-14
 -1      3991 6.66893E-03 1.77427E-04-2.59703E-14
 -1      3992 7.08733E-03 1.71227E-04-2.91646E-14
 -1      3993 6.94840E-03 1.73382E-04-2.80827E-14
 -1      3994 6.87627E-03 1.41007E-04-2.76614E-14
 -1      3995 7.36323E-03 1.66807E-04-3.13795E-14
 -1      3996 7.22562E-03 1.69043E-04-3.02633E-14
 -1      3997 7.15324E-03 1.37695E-04-2.98305E-14
 -1      3998 7.63595E-03 1.62445E-04-3.36549E-14
 -1      3999 7.50002E-03 1.64616E-04-3.25100E-14
 -1      4000 7.42730E-03 1.34367E-04-3.20655E-14
 -1      4001 7.90471E-03 1.58536E-04-3.59918E-14
 -1      4002 7.77086E-03 1.60430E-04-3.48165E-14
 -1      4003 7.69773E-03 1.31309E-04-3.43633E-14
 -1      4004 8.16858E-03 1.55615E-04-3.83817E-14
 -1      4005 8.03731E-03 1.56949E-04-3.71799E-14
 -1      4006 7.96363E-03 1.28928E-04-3.67179E-14
 -1      4007 8.42641E-03 1.54341E-04-4.08262E-14
 -1      4008 8.29830E-03 1.54777E-04-3.95969E-14
 -1      4009 8.22392E-03 1.27747E-04-3.91257E-14
 -1      4010 8.67684E-03 1.55434E-04-4.33229E-14
 -1      4011 8.55261E-03 1.54615E-04-4.20686E-14
 -1      4012 8.47725E-03 1.28382E-04-4.15890E-14
 -1      4013 8.91811E-03 1.59534E-04-4.58686E-14
 -1      4014 8.79866E-03 1.57180E-04-4.45903E-14
 -1      4015 8.72184E-03 1.31496E-04-4.41047E-14
 -1      4016 9.14793E-03 1.66887E-04-4.84570E-14
 -1      4017 9.03445E-03 1.62984E-04-4.71571E-14
 -1      4018 8.95526E-03 1.37533E-04-4.66652E-14
 -1      4019 9.26708E-03 1.63660E-04-5.01468E-14
 -1      4020 5.39402E-03 1.90517E-04-1.73756E-14
 -1      4021 5.25124E-03 1.91507E-04-1.65178E-14
 -1      4022 1.75077E-03-1.69708E-05-2.33400E-15
 -1      4023 1.75156E-03-5.42097E-05-2.34890E-15
 -1      4024 6.52851E-03 1.79297E-04-2.49396E-14
 -1      4025 6.38768E-03 1.81072E-04-2.39279E-14
 -1      4026 6.31584E-03 1.46944E-04-2.35330E-14
 -1      4027 5.10831E-03 1.92422E-04-1.56810E-14
 -1      4028 4.96523E-03 1.93273E-04-1.48647E-14
 -1      4029 5.17927E-03 1.55090E-04-1.61823E-14
 -1      4030 9.35612E-03-2.71877E-05-5.14050E-14
 -1      4031 1.54795E-03 1.66040E-04-1.75601E-15
 -1      4032 1.51681E-03 1.17528E-04-1.73798E-15
 -1      4033 1.63960E-03 1.04116E-04-2.00773E-15
 -1      4034 1.66480E-03 1.66435E-04-2.00333E-15
 -1      4035 5.67905E-03 1.88299E-04-1.91522E-14
 -1      4036 5.53663E-03 1.89453E-04-1.82544E-14
 -1      4037 5.46477E-03 1.53479E-04-1.79019E-14
 -1      4038 2.51283E-03 1.91994E-04-4.19470E-15
 -1      4039 2.36772E-03 1.89577E-04-3.76478E-15
 -1      4040 2.80302E-03 1.95354E-04-5.12273E-15
 -1      4041 2.65795E-03 1.93904E-04-4.64750E-15
 -1      4042 2.58272E-03 1.55797E-04-4.46182E-15
 -1      4043 9.18792E-03 1.38832E-04-4.96467E-14
 -1      4044 6.59698E-03 1.44122E-04-2.55613E-14
 -1      4045 3.95988E-03 1.97470E-04-9.72109E-15
 -1      4046 3.81572E-03 1.97778E-04-9.07088E-15
 -1      4047 9.10744E-03 1.16896E-04-4.89252E-14
 -1      4048 4.89308E-03 1.56475E-04-1.45445E-14
 -1      4049 1.73877E-03-1.01881E-04-2.32820E-15
 -1      4050 1.71514E-03-1.50094E-04-2.27325E-15
 -1      4051 5.74948E-03 1.51607E-04-1.97015E-14
 -1      4052 1.75082E-03 2.02258E-05-2.31609E-15
 -1      4053 1.87563E-03 1.68171E-06-2.62320E-15
 -1      4054 1.75170E-03 5.74720E-05-2.29474E-15
 -1      4055 2.29221E-03 1.51769E-04-3.59668E-15
 -1      4056 2.22267E-03 1.86539E-04-3.35781E-15
 -1      4057 2.07774E-03 1.82815E-04-2.97370E-15
 -1      4058 1.86263E-03-8.57462E-05-2.62282E-15
 -1      4059 9.22203E-03-1.45713E-05-5.01200E-14
 -1      4060 4.24778E-03 1.96600E-04-1.10861E-14
 -1      4061 4.10390E-03 1.97077E-04-1.03933E-14
 -1      4062 4.03088E-03 1.59410E-04-1.01232E-14
 -1      4063 9.10549E-03 3.42742E-05-4.91311E-14
 -1      4064 9.11313E-03 5.71378E-05-4.92964E-14
 -1      4065 2.94803E-03 1.96439E-04-5.62095E-15
 -1      4066 2.87322E-03 1.58234E-04-5.41827E-15
 -1      4067 3.09295E-03 1.97192E-04-6.14112E-15
 -1      4068 1.84359E-03 2.07752E-04-2.36090E-15
 -1      4069 4.53516E-03 1.95450E-04-1.25352E-14
 -1      4070 4.39154E-03 1.96059E-04-1.18001E-14
 -1      4071 4.31887E-03 1.58644E-04-1.15142E-14
 -1      4072 9.08695E-03 7.07530E-05-4.89862E-14
 -1      4073 4.60627E-03 1.57658E-04-1.29879E-14
 -1      4074 2.27506E-03-8.00718E-05-3.72750E-15
 -1      4075 2.42045E-03-8.12699E-05-4.16163E-15
 -1      4076 4.67752E-03 1.19959E-04-1.34434E-14
 -1      4077 4.53391E-03 1.20373E-04-1.26838E-14
 -1      4078 2.56593E-03-8.22356E-05-4.61895E-15
 -1      4079 2.71142E-03-8.29724E-05-5.09885E-15
 -1      4080 2.49218E-03-4.48549E-05-4.36650E-15
 -1      4081 2.85689E-03-8.35254E-05-5.60126E-15
 -1      4082 3.00228E-03-8.39111E-05-6.12658E-15
 -1      4083 2.78328E-03-4.56609E-05-5.32248E-15
 -1      4084 3.14758E-03-8.41687E-05-6.67367E-15
 -1      4085 3.29275E-03-8.43021E-05-7.24221E-15
 -1      4086 3.07419E-03-4.60806E-05-6.36787E-15
 -1      4087 3.43778E-03-8.43509E-05-7.83224E-15
 -1      4088 3.58266E-03-8.43112E-05-8.44352E-15
 -1      4089 3.36465E-03-4.62096E-05-7.50069E-15
 -1      4090 3.72738E-03-8.42123E-05-9.07647E-15
 -1      4091 3.87194E-03-8.40524E-05-9.73039E-15
 -1      4092 3.65454E-03-4.61382E-05-8.71978E-15
 -1      4093 4.01634E-03-8.38532E-05-1.04062E-14
 -1      4094 4.16057E-03-8.36082E-05-1.11032E-14
 -1      4095 3.94377E-03-4.59382E-05-1.00237E-14
 -1      4096 4.30464E-03-8.33338E-05-1.18204E-14
 -1      4097 4.44854E-03-8.30231E-05-1.25594E-14
 -1      4098 4.23232E-03-4.56402E-05-1.14126E-14
 -1      4099 4.59227E-03-8.26876E-05-1.33200E-14
 -1      4100 4.73584E-03-8.23192E-05-1.41008E-14
 -1      4101 4.52019E-03-4.52665E-05-1.28866E-14
 -1      4102 4.87923E-03-8.19257E-05-1.49015E-14
 -1      4103 5.02245E-03-8.14979E-05-1.57238E-14
 -1      4104 4.80736E-03-4.48254E-05-1.44440E-14
 -1      4105 5.16548E-03-8.10408E-05-1.65667E-14
 -1      4106 5.30832E-03-8.05439E-05-1.74288E-14
 -1      4107 5.09381E-03-4.43138E-05-1.60821E-14
 -1      4108 5.45096E-03-8.00102E-05-1.83122E-14
 -1      4109 5.59338E-03-7.94276E-05-1.92156E-14
 -1      4110 5.37948E-03-4.37177E-05-1.78037E-14
 -1      4111 5.73556E-03-7.87981E-05-2.01384E-14
 -1      4112 5.87748E-03-7.81071E-05-2.10814E-14
 -1      4113 5.66426E-03-4.30136E-05-1.96045E-14
 -1      4114 6.01911E-03-7.73567E-05-2.20438E-14
 -1      4115 6.16044E-03-7.65287E-05-2.30258E-14
 -1      4116 5.94800E-03-4.21677E-05-2.14842E-14
 -1      4117 6.30141E-03-7.56265E-05-2.40276E-14
 -1      4118 6.44201E-03-7.46271E-05-2.50475E-14
 -1      4119 6.23049E-03-4.11345E-05-2.34439E-14
 -1      4120 6.58219E-03-7.35359E-05-2.60859E-14
 -1      4121 6.72190E-03-7.23240E-05-2.71426E-14
 -1      4122 6.51145E-03-3.98541E-05-2.54787E-14
 -1      4123 6.86109E-03-7.09995E-05-2.82175E-14
 -1      4124 6.99974E-03-6.95259E-05-2.93089E-14
 -1      4125 6.79053E-03-3.82477E-05-2.75853E-14
 -1      4126 7.13775E-03-6.79149E-05-3.04179E-14
 -1      4127 7.27510E-03-6.61204E-05-3.15442E-14
 -1      4128 7.06733E-03-3.62120E-05-2.97656E-14
 -1      4129 7.41169E-03-6.41581E-05-3.26855E-14
 -1      4130 7.54751E-03-6.19703E-05-3.38421E-14
 -1      4131 7.34136E-03-3.36106E-05-3.20100E-14
 -1      4132 7.68245E-03-5.95768E-05-3.50144E-14
 -1      4133 7.81648E-03-5.69059E-05-3.62007E-14
 -1      4134 7.61205E-03-3.02638E-05-3.43177E-14
 -1      4135 7.94949E-03-5.39812E-05-3.74022E-14
 -1      4136 8.08148E-03-5.07134E-05-3.86178E-14
 -1      4137 7.87878E-03-2.59360E-05-3.66854E-14
 -1      4138 8.21229E-03-4.71325E-05-3.98460E-14
 -1      4139 8.34199E-03-4.31284E-05-4.10870E-14
 -1      4140 8.14086E-03-2.03218E-05-3.91086E-14
 -1      4141 8.47035E-03-3.87611E-05-4.23416E-14
 -1      4142 8.59753E-03-3.38344E-05-4.36093E-14
 -1      4143 8.39748E-03-1.30387E-05-4.15858E-14
 -1      4144 8.72326E-03-2.84777E-05-4.48887E-14
 -1      4145 8.84772E-03-2.24543E-05-4.61795E-14
 -1      4146 8.64778E-03-3.51911E-06-4.41145E-14
 -1      4147 9.07397E-03-1.45337E-05-4.85716E-14
 -1      4148 9.03904E-03 9.07376E-05-4.83028E-14
 -1      4149 8.98418E-03 1.15462E-04-4.73464E-14
 -1      4150 8.87248E-03 1.11084E-04-4.60537E-14
 -1      4151 8.95674E-03 6.78322E-05-4.74054E-14
 -1      4152 6.10317E-03 1.13517E-04-2.21563E-14
 -1      4153 5.96168E-03 1.14392E-04-2.11962E-14
 -1      4154 5.81989E-03 1.15202E-04-2.02560E-14
 -1      4155 5.67782E-03 1.15964E-04-1.93343E-14
 -1      4156 5.89030E-03 7.91050E-05-2.08127E-14
 -1      4157 5.53552E-03 1.16668E-04-1.84321E-14
 -1      4158 5.39299E-03 1.17327E-04-1.75490E-14
 -1      4159 5.60629E-03 8.01056E-05-1.89660E-14
 -1      4160 7.21926E-03 1.04928E-04-3.05003E-14
 -1      4161 7.08181E-03 1.06079E-04-2.93964E-14
 -1      4162 6.94365E-03 1.07219E-04-2.83086E-14
 -1      4163 6.80482E-03 1.08375E-04-2.72390E-14
 -1      4164 7.01117E-03 7.40817E-05-2.89600E-14
 -1      4165 7.75996E-03 1.01183E-04-3.50737E-14
 -1      4166 7.62634E-03 1.01940E-04-3.39070E-14
 -1      4167 8.02330E-03 1.00451E-04-3.74477E-14
 -1      4168 7.89231E-03 1.00709E-04-3.62540E-14
 -1      4169 7.82293E-03 7.20261E-05-3.57878E-14
 -1      4170 8.28044E-03 1.01136E-04-3.98737E-14
 -1      4171 8.15273E-03 1.00634E-04-3.86537E-14
 -1      4172 8.08411E-03 7.30474E-05-3.81797E-14
 -1      4173 8.52984E-03 1.03831E-04-4.23554E-14
 -1      4174 8.40621E-03 1.02255E-04-4.11087E-14
 -1      4175 8.33865E-03 7.57054E-05-4.06254E-14
 -1      4176 8.76320E-03 1.08149E-04-4.48306E-14
 -1      4177 8.64471E-03 1.05251E-04-4.35587E-14
 -1      4178 8.57873E-03 7.95388E-05-4.30686E-14
 -1      4179 8.80297E-03 8.51248E-05-4.54987E-14
 -1      4180 6.66543E-03 1.09486E-04-2.61863E-14
 -1      4181 6.52551E-03 1.10576E-04-2.51504E-14
 -1      4182 6.73395E-03 7.53990E-05-2.68136E-14
 -1      4183 1.81299E-03-1.54226E-04-2.50525E-15
 -1      4184 1.95749E-03-1.58881E-04-2.86713E-15
 -1      4185 2.02712E-03-1.25806E-04-3.04903E-15
 -1      4186 6.38513E-03 1.11605E-04-2.41344E-14
 -1      4187 6.24434E-03 1.12595E-04-2.31359E-14
 -1      4188 6.17311E-03 7.79735E-05-2.27381E-14
 -1      4189 6.45445E-03 7.67243E-05-2.47400E-14
 -1      4190 2.03952E-03-7.50863E-05-3.07225E-15
 -1      4191 5.25026E-03 1.17934E-04-1.66877E-14
 -1      4192 5.10734E-03 1.18502E-04-1.58472E-14
 -1      4193 5.32129E-03 8.09784E-05-1.71970E-14
 -1      4194 8.97021E-03 6.98607E-07-4.75286E-14
 -1      4195 3.74231E-03 1.59895E-04-8.81661E-15
 -1      4196 3.67143E-03 1.97973E-04-8.44172E-15
 -1      4197 3.52701E-03 1.98047E-04-7.83389E-15
 -1      4198 7.49162E-03 1.02814E-04-3.27554E-14
 -1      4199 7.35589E-03 1.03850E-04-3.16200E-14
 -1      4200 7.55641E-03 7.21246E-05-3.34497E-14
 -1      4201 1.95372E-03 1.79179E-04-2.66239E-15
 -1      4202 1.78819E-03 1.71644E-04-2.27495E-15
 -1      4203 1.77521E-03 1.39409E-04-2.27913E-15
 -1      4204 2.02289E-03 1.46304E-04-2.87495E-15
 -1      4205 4.96423E-03 1.19025E-04-1.50253E-14
 -1      4206 4.82096E-03 1.19513E-04-1.42238E-14
 -1      4207 5.03546E-03 8.17339E-05-1.55095E-14
 -1      4208 2.65331E-03 1.19177E-04-4.73386E-15
 -1      4209 2.50791E-03 1.17956E-04-4.27605E-15
 -1      4210 2.11097E-03-4.06125E-05-3.25155E-15
 -1      4211 8.89358E-03 2.39886E-05-4.67358E-14
 -1      4212 4.46160E-03 8.29291E-05-1.23793E-14
 -1      4213 4.39015E-03 1.20743E-04-1.19453E-14
 -1      4214 4.24623E-03 1.21078E-04-1.12268E-14
 -1      4215 1.76894E-03 1.14102E-04-2.28905E-15
 -1      4216 1.75710E-03 8.24245E-05-2.28874E-15
 -1      4217 1.88124E-03 6.56365E-05-2.59601E-15
 -1      4218 1.89264E-03 1.17193E-04-2.57951E-15
 -1      4219 8.86926E-03 4.38361E-05-4.64522E-14
 -1      4220 8.81726E-03 6.65051E-05-4.57821E-14
 -1      4221 8.70647E-03 6.26754E-05-4.45594E-14
 -1      4222 8.74554E-03 2.31108E-05-4.51179E-14
 -1      4223 7.28555E-03 7.29160E-05-3.11732E-14
 -1      4224 3.38245E-03 1.97957E-04-7.24815E-15
 -1      4225 3.23776E-03 1.97692E-04-6.68351E-15
 -1      4226 3.16341E-03 1.59510E-04-6.46392E-15
 -1      4227 3.45314E-03 1.59982E-04-7.59787E-15
 -1      4228 3.81352E-03 1.21782E-04-9.19631E-15
 -1      4229 3.66896E-03 1.21899E-04-8.56246E-15
 -1      4230 2.36253E-03 1.16390E-04-3.84076E-15
 -1      4231 2.21725E-03 1.14464E-04-3.42819E-15
 -1      4232 2.43356E-03 8.04512E-05-4.08975E-15
 -1      4233 3.95791E-03 1.21605E-04-9.85212E-15
 -1      4234 3.88503E-03 8.36731E-05-9.57990E-15
 -1      4235 4.10215E-03 1.21364E-04-1.05291E-14
 -1      4236 2.94404E-03 1.20833E-04-5.71820E-15
 -1      4237 2.79871E-03 1.20131E-04-5.21478E-15
 -1      4238 2.72455E-03 8.21847E-05-5.01106E-15
 -1      4239 4.74887E-03 8.23825E-05-1.39024E-14
 -1      4240 2.75314E-03 1.83501E-05-5.17075E-15
 -1      4241 2.89867E-03 1.85006E-05-5.67377E-15
 -1      4242 3.29183E-03-8.07850E-06-7.17323E-15
 -1      4243 3.43696E-03-8.05279E-06-7.75885E-15
 -1      4244 3.62471E-03 1.88269E-05-8.51841E-15
 -1      4245 3.76946E-03 1.88463E-05-9.15178E-15
 -1      4246 3.91405E-03 1.88438E-05-9.80624E-15
 -1      4247 4.05846E-03 1.88450E-05-1.04827E-14
 -1      4248 4.20270E-03 1.88276E-05-1.11804E-14
 -1      4249 4.34677E-03 1.88136E-05-1.18986E-14
 -1      4250 4.49066E-03 1.87847E-05-1.26375E-14
 -1      4251 4.63438E-03 1.87593E-05-1.33978E-14
 -1      4252 4.77793E-03 1.87214E-05-1.41781E-14
 -1      4253 4.92129E-03 1.86871E-05-1.49788E-14
 -1      4254 5.06446E-03 1.86416E-05-1.58008E-14
 -1      4255 5.20744E-03 1.86005E-05-1.66428E-14
 -1      4256 5.35020E-03 1.85492E-05-1.75044E-14
 -1      4257 5.49275E-03 1.85044E-05-1.83864E-14
 -1      4258 5.63506E-03 1.84505E-05-1.92895E-14
 -1      4259 5.77711E-03 1.84076E-05-2.02114E-14
 -1      4260 5.91887E-03 1.83576E-05-2.11520E-14
 -1      4261 6.06031E-03 1.83268E-05-2.21136E-14
 -1      4262 6.20141E-03 1.82929E-05-2.30945E-14
 -1      4263 6.34213E-03 1.82917E-05-2.40944E-14
 -1      4264 6.48241E-03 1.82954E-05-2.51127E-14
 -1      4265 6.62222E-03 1.83528E-05-2.61488E-14
 -1      4266 6.76150E-03 1.84287E-05-2.72033E-14
 -1      4267 6.90019E-03 1.85901E-05-2.82759E-14
 -1      4268 7.03822E-03 1.87919E-05-2.93659E-14
 -1      4269 7.17553E-03 1.91255E-05-3.04731E-14
 -1      4270 7.31204E-03 1.95329E-05-3.15949E-14
 -1      4271 7.44767E-03 2.01369E-05-3.27327E-14
 -1      4272 7.58230E-03 2.08629E-05-3.38870E-14
 -1      4273 7.71589E-03 2.18741E-05-3.50551E-14
 -1      4274 7.84827E-03 2.30728E-05-3.62389E-14
 -1      4275 7.97938E-03 2.46747E-05-3.74365E-14
 -1      4276 8.10902E-03 2.65480E-05-3.86462E-14
 -1      4277 8.23715E-03 2.89811E-05-3.98702E-14
 -1      4278 8.36348E-03 3.17805E-05-4.11077E-14
 -1      4279 8.48798E-03 3.53895E-05-4.23585E-14
 -1      4280 8.62442E-03 1.76931E-05-4.38398E-14
 -1      4281 3.55261E-03 5.69701E-05-8.16309E-15
 -1      4282 3.48085E-03 9.50891E-05-7.81119E-15
 -1      4283 2.00106E-03 2.13820E-05-2.92739E-15
 -1      4284 2.00101E-03-1.79029E-05-2.94944E-15
 -1      4285 2.08177E-03 5.93001E-05-3.11128E-15
 -1      4286 2.20696E-03 4.00938E-05-3.46720E-15
 -1      4287 2.46201E-03 1.79479E-05-4.23178E-15
 -1      4288 2.60757E-03 1.81805E-05-4.68982E-15
 -1      4289 2.31653E-03 1.76783E-05-3.79629E-15
 -1      4290 4.17365E-03 8.33671E-05-1.09384E-14
 -1      4291 3.00117E-03-8.09759E-06-6.06648E-15
 -1      4292 3.14657E-03-8.08946E-06-6.60898E-15
 -1      4293 2.97191E-03 5.64441E-05-5.89639E-15
 -1      4294 2.23643E-03-2.09434E-05-3.59042E-15
 -1      4295 8.59290E-03 5.96281E-05-4.33453E-14
 -1      4296 3.33589E-03 9.50117E-05-7.22529E-15
 -1      4297 3.21935E-03 3.00115E-05-6.84945E-15
 -1      4298 3.04555E-03 9.45230E-05-6.11818E-15
 -1      4299 3.19078E-03 9.48170E-05-6.66093E-15
 -1      4300 2.01662E-03 1.19787E-04-2.88688E-15
 -1      4301 2.01074E-03 9.33886E-05-2.89691E-15
 -3
    1PSTEP                         2           1           1          
  100CL  101 1.000000000        4301                     0    1           1
 -4  STRESS      6    1
 -5  SXX         1    4    1    1
 -5  SYY         1    4    2    2
 -5  SZZ         1    4    3    3
 -5  SXY         1    4    1    2
 -5  SYZ         1    4    2    3
 -5  SZX         1    4    3    1
 -1         1 7.28011E+00 7.43398E+00-4.10278E-01-7.41463E+00-1.93345E-12 1.77292E-12
 -1         2-8.46456E-01-2.75144E+01-3.73733E+00-1.30311E-01 4.04574E-12 1.45470E-13
 -1         3 1.99408E+01-6.26167E-02 6.54734E-02-6.14611E-02-4.27733E-13-4.32943E-13
 -1         4 1.99870E+01-1.27144E-02 4.01821E-02 1.32576E-02 7.15257E-14 1.53051E-13
 -1         5 3.27686E+01 6.14284E+00 2.74248E+00 6.22434E+00-3.56382E-14 2.47145E-12
 -1         6 3.57526E+01 1.22635E+01 5.12549E+00-8.64669E+00-1.56777E-13 2.05026E-12
 -1         7 2.08192E+01 6.09983E+00-1.28624E-01-4.72547E+00-2.37727E-14 2.02897E-13
 -1         8 1.96721E+01 5.93508E+00 5.09630E-02-3.27474E+00-2.29400E-14-3.21407E-13
 -1         9 1.91378E+01 5.77203E+00 4.91755E-02-2.52651E+00-2.08271E-14-5.86842E-13
 -1        10 1.88948E+01 5.69208E+00 5.09406E-02-1.95112E+00-1.19297E-14-6.97492E-13
 -1        11 1.87734E+01 5.65117E+00 5.02729E-02-1.45623E+00-7.18436E-15-7.34723E-13
 -1        12 1.87101E+01 5.62960E+00 4.88485E-02-1.01522E+00-1.24640E-15-7.43681E-13
 -1        13 1.86765E+01 5.61814E+00 4.74419E-02-5.95365E-01 5.23670E-17-7.36682E-13
 -1        14 1.86623E+01 5.61329E+00 4.67074E-02-1.91194E-01 4.57582E-15-7.03819E-13
 -1        15 1.86628E+01 5.61345E+00 4.67472E-02 2.08227E-01 1.15784E-14-6.83920E-13
 -1        16 1.86780E+01 5.61861E+00 4.75666E-02 6.13215E-01 1.10270E-14-6.46966E-13
 -1        17 1.87128E+01 5.63033E+00 4.90809E-02 1.03499E+00 1.44275E-14-5.88794E-13
 -1        18 1.87777E+01 5.65237E+00 5.08297E-02 1.47907E+00 2.10886E-14-5.15436E-13
 -1        19 1.89010E+01 5.69377E+00 5.15374E-02 1.98020E+00 2.66167E-14-4.04072E-13
 -1        20 1.91425E+01 5.77452E+00 4.87879E-02 2.56379E+00 3.01460E-14-2.12062E-13
 -1        21 1.96677E+01 5.94967E+00 4.59299E-02 3.30876E+00 3.42434E-14 1.71470E-13
 -1        22 2.12020E+01 6.38158E+00 1.39710E-01 4.52303E+00 3.19189E-15 9.09555E-13
 -1        23 2.30302E+01-1.37925E+00-9.38316E-01-7.11168E-01-1.04916E-13 1.51085E-12
 -1        24 1.93675E+01-9.94813E-02-3.09820E-01 6.32263E-02-3.16856E-14 1.03878E-12
 -1        25 1.86793E+01-5.63110E-02-6.87543E-02 6.07461E-02-1.47209E-14 6.14673E-13
 -1        26 1.84768E+01-2.20873E-02-6.45801E-03 3.29428E-02-2.34079E-16 3.00617E-13
 -1        27 1.84879E+01-1.17941E-02 1.56031E-03 2.26061E-02-3.26345E-17 1.20012E-13
 -1        28 1.86019E+01-6.23455E-03 1.78230E-03 1.63158E-02-2.13974E-14-4.69225E-14
 -1        29 1.87614E+01-3.07058E-03 1.75062E-03 1.21528E-02 4.99075E-15-1.97311E-13
 -1        30 1.89351E+01-1.21536E-03 1.93507E-03 9.18733E-03 3.73075E-15-2.31141E-13
 -1        31 1.91052E+01-1.21591E-04 2.09540E-03 6.95721E-03-1.21138E-14-3.12032E-13
 -1        32 1.92620E+01 5.00393E-04 2.12694E-03 5.22623E-03-3.26514E-14-5.54346E-13
 -1        33 1.94006E+01 8.18477E-04 2.03399E-03 3.86276E-03 1.21562E-14-6.98811E-13
 -1        34 1.95194E+01 9.36286E-04 1.85166E-03 2.78397E-03-2.51270E-15-7.49630E-13
 -1        35 1.96188E+01 9.20336E-04 1.61279E-03 1.93170E-03 5.25955E-15-7.59852E-13
 -1        36 1.97005E+01 8.13600E-04 1.34003E-03 1.26221E-03 2.22700E-14-7.02084E-13
 -1        37 1.97673E+01 6.42956E-04 1.04586E-03 7.41850E-04-2.08893E-14-6.68853E-13
 -1        38 1.98223E+01 4.23759E-04 7.34089E-04 3.45439E-04 7.62285E-15-7.59811E-13
 -1        39 1.98692E+01 1.62978E-04 4.01495E-04 5.58815E-05-2.34076E-14-8.98550E-13
 -1        40 1.99122E+01-1.38342E-04 3.92852E-05-1.35496E-04 2.88594E-14-8.98346E-13
 -1        41 1.99559E+01-4.82861E-04-3.65432E-04-2.28182E-04 9.62911E-15-1.07040E-12
 -1        42 2.00055E+01-8.74604E-04-8.27926E-04-2.11400E-04 5.58397E-15-1.25140E-12
 -1        43 2.00670E+01-1.31611E-03-1.36348E-03-6.28419E-05-4.78554E-14-1.23341E-12
 -1        44 2.01471E+01-1.80460E-03-1.98376E-03 2.52544E-04 6.85731E-15-1.03177E-12
 -1        45 2.02537E+01-2.32665E-03-2.69093E-03 7.83185E-04-2.23310E-14-9.44706E-13
 -1        46 2.03950E+01-2.85059E-03-3.46812E-03 1.58988E-03 2.31574E-14-1.12653E-12
 -1        47 2.05802E+01-3.31605E-03-4.26401E-03 2.74110E-03-8.65014E-15-8.90186E-13
 -1        48 2.08178E+01-3.62026E-03-4.96892E-03 4.30084E-03 4.16934E-14-8.24919E-13
 -1        49 2.11145E+01-3.60214E-03-5.37965E-03 6.30256E-03-5.87087E-15-8.16828E-13
 -1        50 2.14728E+01-3.02824E-03-5.15352E-03 8.69912E-03-2.49750E-14-1.03914E-12
 -1        51 2.18867E+01-1.59137E-03-3.76187E-03 1.12752E-02-5.46106E-15-1.09213E-12
 -1        52 2.23360E+01 1.05570E-03-4.78082E-04 1.35104E-02-3.27201E-14-1.00403E-12
 -1        53 2.27794E+01 5.19414E-03 5.51894E-03 1.44021E-02 4.68394E-14-1.01767E-12
 -1        54 2.31469E+01 1.08136E-02 1.47839E-02 1.23161E-02-1.83082E-14-1.10174E-12
 -1        55 2.33362E+01 1.72478E-02 2.68432E-02 5.05482E-03-6.44438E-14-1.09618E-12
 -1        56 2.32207E+01 2.27818E-02 3.90600E-02-9.48503E-03-8.82909E-15-1.17429E-12
 -1        57 2.26791E+01 2.45478E-02 4.57110E-02-3.16157E-02 7.80233E-14-7.78556E-13
 -1        58 2.16530E+01 1.93720E-02 3.91799E-02-5.73604E-02 2.93347E-14-6.48818E-13
 -1        59 2.02229E+01 5.82890E-03 1.42661E-02-7.69261E-02-5.60194E-14-6.33826E-13
 -1        60 1.86546E+01-1.33482E-02-2.51613E-02-7.74112E-02-5.09050E-14-5.46879E-13
 -1        61 1.73552E+01-3.07872E-02-6.30462E-02-5.13048E-02-1.86439E-15-4.25757E-13
 -1        62 1.67111E+01-3.79664E-02-7.90121E-02-5.15797E-03 9.49783E-15-4.73116E-13
 -1        63 1.68845E+01-3.10505E-02-6.32590E-02 4.11196E-02-5.32629E-14-5.83988E-13
 -1        64 1.77170E+01-1.38257E-02-2.50284E-02 6.72149E-02 2.74687E-14-8.62803E-13
 -1        65 1.88217E+01 4.95963E-03 1.48048E-02 6.58952E-02-1.27917E-13-8.72410E-13
 -1        66 1.97913E+01 1.74576E-02 3.91341E-02 4.46667E-02 6.44497E-14-7.92555E-13
 -1        67 2.03712E+01 2.04431E-02 4.25908E-02 1.73063E-02 1.30142E-13-2.48790E-13
 -1        68 2.05164E+01 1.52116E-02 2.94709E-02-4.70523E-03 1.04395E-13 1.15785E-13
 -1        69 2.03507E+01 5.59712E-03 7.98698E-03-1.48344E-02 1.25052E-13 3.01100E-14
 -1        70 2.00915E+01-1.61142E-03-9.70720E-03-7.96499E-03-6.61083E-14 4.19553E-13
 -1        71 1.99619E+01 6.22487E-03-1.01285E-04 9.75641E-03-7.10588E-14 4.24316E-13
 -1        72 2.10427E+01-4.04894E-01-9.80417E-01-3.11617E-01 2.60382E-14 2.30692E-12
 -1        73 1.93321E+01-6.58819E-02-2.91128E-01-5.38330E-02 2.02403E-14 1.81103E-12
 -1        74 1.86887E+01-2.05041E-02-6.42675E-02-2.03455E-02 1.54564E-14 1.40505E-12
 -1        75 1.84858E+01-9.87619E-03-9.30679E-03-1.54453E-02-7.63311E-15 1.11982E-12
 -1        76 1.84970E+01-5.16161E-03 6.85533E-04-1.23779E-02 1.14253E-14 9.24082E-13
 -1        77 1.86101E+01-2.60945E-03 1.75323E-03-1.01068E-02-1.79774E-14 7.81818E-13
 -1        78 1.87686E+01-1.13857E-03 1.89239E-03-8.36412E-03 8.72476E-15 7.45765E-13
 -1        79 1.89412E+01-2.74630E-04 2.08838E-03-6.92658E-03-4.53514E-15 6.87703E-13
 -1        80 1.91104E+01 2.23181E-04 2.23048E-03-5.68740E-03-1.23831E-15 6.75732E-13
 -1        81 1.92662E+01 4.89443E-04 2.24088E-03-4.60367E-03 4.10082E-14 5.63349E-13
 -1        82 1.94040E+01 6.05083E-04 2.12868E-03-3.65576E-03-4.00645E-15 4.87514E-13
 -1        83 1.95220E+01 6.21034E-04 1.92966E-03-2.83062E-03 1.31081E-14 4.26008E-13
 -1        84 1.96206E+01 5.69888E-04 1.67661E-03-2.11569E-03-6.59234E-15 3.23042E-13
 -1        85 1.97015E+01 4.72052E-04 1.39198E-03-1.49724E-03 2.37300E-14 2.07091E-13
 -1        86 1.97674E+01 3.39242E-04 1.08778E-03-9.60541E-04 9.18314E-15 2.37791E-13
 -1        87 1.98215E+01 1.76620E-04 7.67100E-04-4.90554E-04-3.57667E-14 2.77246E-13
 -1        88 1.98675E+01-1.58053E-05 4.25318E-04-7.29509E-05-1.83053E-15 4.13452E-13
 -1        89 1.99094E+01-2.42188E-04 5.10278E-05 3.04760E-04 4.21956E-14 1.79101E-13
 -1        90 1.99519E+01-5.10089E-04-3.73450E-04 6.51888E-04 2.31461E-15-1.26328E-13
 -1        91 2.00006E+01-8.29789E-04-8.71858E-04 9.72873E-04-1.64535E-14-3.70780E-14
 -1        92 2.00618E+01-1.21345E-03-1.47407E-03 1.26495E-03-6.88507E-14 1.13172E-13
 -1        93 2.01431E+01-1.67377E-03-2.21616E-03 1.51465E-03 6.51481E-14 1.26409E-13
 -1        94 2.02540E+01-2.22148E-03-3.13995E-03 1.69219E-03-1.56633E-14-1.53794E-13
 -1        95 2.04059E+01-2.86053E-03-4.29075E-03 1.74263E-03-2.53611E-15-1.39589E-14
 -1        96 2.06126E+01-3.57902E-03-5.71036E-03 1.57181E-03 6.81253E-14 2.20203E-13
 -1        97 2.08907E+01-4.33264E-03-7.41964E-03 1.02485E-03-5.75720E-14 4.03383E-13
 -1        98 2.12594E+01-5.01593E-03-9.37853E-03-1.44291E-04 6.29488E-14 2.97285E-13
 -1        99 2.17393E+01-5.41609E-03-1.14014E-02-2.30965E-03-2.82560E-14-1.92360E-13
 -1       100 2.23498E+01-5.14729E-03-1.29915E-02-5.99991E-03-3.25899E-14-2.85440E-14
 -1       101 2.31031E+01-3.58016E-03-1.30545E-02-1.18621E-02 2.67202E-14-1.32367E-13
 -1       102 2.39916E+01 1.73020E-04-9.49946E-03-2.04324E-02-5.76425E-14-1.69484E-13
 -1       103 2.49680E+01 7.05452E-03 1.05345E-03-3.14621E-02 2.74824E-14 2.46685E-13
 -1       104 2.59136E+01 1.73707E-02 2.27409E-02-4.24511E-02-2.77392E-14 5.58822E-13
 -1       105 2.66042E+01 2.92113E-02 5.73673E-02-4.63866E-02 2.46311E-14 3.77531E-13
 -1       106 2.67001E+01 3.67812E-02 9.76091E-02-3.05095E-02-5.38822E-14 3.80686E-13
 -1       107 2.58186E+01 3.07513E-02 1.19097E-01 1.90787E-02 9.74503E-14-6.26964E-14
 -1       108 2.37579E+01 5.09022E-03 8.51896E-02 1.00449E-01-2.27080E-14-5.07559E-13
 -1       109 2.08372E+01-3.07212E-02-2.25275E-02 1.75217E-01 5.86164E-14-1.54599E-13
 -1       110 1.80701E+01-5.31287E-02-1.53387E-01 1.76701E-01-2.49280E-15-8.74301E-14
 -1       111 1.67289E+01-4.61136E-02-2.11744E-01 7.72619E-02-1.55271E-14 6.46075E-13
 -1       112 1.74217E+01-1.73025E-02-1.49249E-01-6.37090E-02-9.20655E-14 1.16747E-12
 -1       113 1.95731E+01 1.29157E-02-1.85360E-02-1.51840E-01 1.14401E-13 1.07585E-12
 -1       114 2.19124E+01 3.00756E-02 8.74513E-02-1.50004E-01-6.83069E-14 7.36231E-13
 -1       115 2.34005E+01 3.13303E-02 1.21761E-01-9.14196E-02 7.33539E-14 4.90986E-13
 -1       116 2.36954E+01 2.13868E-02 9.83814E-02-2.43156E-02-4.46553E-14 3.73802E-13
 -1       117 2.30180E+01 6.45094E-03 4.98698E-02 2.58078E-02 1.69660E-14-5.08843E-13
 -1       118 2.18341E+01-8.41040E-03-2.22222E-03 5.36807E-02-7.19421E-14-9.63571E-13
 -1       119 2.06589E+01-1.88881E-02-4.46301E-02 5.62242E-02 5.85604E-14-1.03028E-12
 -1       120 2.00072E+01 1.98395E-02-1.88272E-02 9.81092E-03 1.63082E-13-9.64932E-13
 -1       121 1.99926E+01 4.74454E-02-2.55518E-02-8.05696E-03-6.72794E-13 1.76059E-13
 -1       122 1.99693E+01 7.29801E-01-5.98647E-02 3.58402E-02 1.02215E-13-1.01694E-14
 -1       123 1.99803E+01 2.08428E+00-4.01129E-02 6.32463E-02-1.20882E-13 1.75941E-13
 -1       124 1.99964E+01 3.82658E+00-1.12130E-02 7.83423E-02-9.47794E-13 5.50312E-14
 -1       125 2.00161E+01 5.65748E+00 2.43175E-02 7.85360E-02-1.00813E-12-2.25637E-13
 -1       126 2.00363E+01 7.19244E+00 5.99251E-02 6.05874E-02-2.22154E-12-1.20601E-13
 -1       127 2.00478E+01 8.11440E+00 8.25916E-02 2.34622E-02-1.93173E-12 3.27943E-13
 -1       128 2.00475E+01 8.15950E+00 8.16597E-02-2.09774E-02-1.12097E-12 3.08033E-13
 -1       129 2.00350E+01 7.33559E+00 5.70203E-02-5.68949E-02-1.18421E-12-3.59972E-14
 -1       130 2.00157E+01 5.89270E+00 2.02993E-02-7.31358E-02-5.18190E-13 1.53019E-13
 -1       131 1.99971E+01 4.20898E+00-1.31655E-02-6.85147E-02-6.52482E-13-1.56347E-13
 -1       132 1.99834E+01 2.65645E+00-3.37095E-02-5.11440E-02-7.30166E-13 3.75951E-13
 -1       133 1.99782E+01 1.40765E+00-3.98783E-02-2.93917E-02-2.67486E-13 1.16593E-13
 -1       134 1.99772E+01 5.66259E-01-3.72334E-02-1.17726E-02 1.16530E-15 8.42386E-14
 -1       135 1.99861E+01 1.17555E-01-2.43994E-02-1.50952E-03-4.97871E-13-2.89113E-13
 -1       136 1.99872E+01-1.60384E-02-3.10271E-03 2.82484E-02-6.54881E-13 1.92315E-14
 -1       137-1.71195E+00-2.19467E+01-3.34365E+00-4.19218E+00 3.89994E-12 8.23640E-13
 -1       138-1.51494E+00-9.03262E+00-2.37635E+00-2.95142E+00 1.57779E-12 4.84807E-13
 -1       139 3.77692E+00 4.35835E+00-9.76067E-01 4.27657E+00-8.82849E-13-9.30811E-13
 -1       140 1.73090E+01 1.11229E+01 5.77676E-01 1.36880E+01-1.05171E-12-9.00779E-13
 -1       141 3.70072E+01 1.06506E+01 2.06396E+00 1.92169E+01-5.17086E-13-8.91565E-13
 -1       142 5.65225E+01 5.72920E+00 3.22896E+00 1.67357E+01-2.76681E-13-9.79938E-13
 -1       143 6.84745E+01 1.33827E+00 3.84034E+00 5.98215E+00-6.95347E-14-9.59385E-13
 -1       144 6.61936E+01 1.83419E+00 3.66898E+00-8.18264E+00 1.28323E-13-9.14407E-13
 -1       145 5.10487E+01 6.45863E+00 2.76786E+00-1.69403E+01 4.78881E-13-1.03834E-12
 -1       146 2.92369E+01 1.02909E+01 1.34485E+00-1.68682E+01 9.08107E-13-1.31140E-12
 -1       147 1.08316E+01 8.56366E+00-1.99829E-01-9.70916E+00 8.72247E-13-1.06731E-12
 -1       148 1.05931E+00-3.46729E-01-1.55090E+00-1.06312E+00 7.23865E-14-8.48766E-14
 -1       149-2.19786E+00-1.39115E+01-2.70791E+00 4.54976E+00-3.00260E-13 2.52701E-13
 -1       150-1.16805E+00-2.37891E+01-3.31607E+00 3.40976E+00-8.24063E-13 1.59217E-13
 -1       151-7.22752E-01-2.55130E+01-3.39303E+00-1.18892E+00-9.93788E-13-1.00916E-13
 -1       152-1.64344E+00-1.81642E+01-2.94028E+00-4.37867E+00-7.15428E-13 1.41900E-14
 -1       153-1.12674E+00-5.60428E+00-2.01667E+00-2.05042E+00 2.74503E-13 1.59789E-13
 -1       154 5.82109E+00 6.06651E+00-6.81059E-01 6.07236E+00-2.22655E-13-4.28879E-13
 -1       155 2.06976E+01 1.07456E+01 7.66098E-01 1.46336E+01-3.03868E-13-1.93900E-13
 -1       156 4.31517E+01 8.69119E+00 2.29727E+00 1.84509E+01 3.81362E-14-1.51934E-13
 -1       157 6.00998E+01 3.52518E+00 3.22766E+00 1.28118E+01 4.16334E-14 1.69254E-13
 -1       158 6.76062E+01 1.11522E+00 3.61572E+00 9.04242E-01 4.51514E-14 2.21628E-13
 -1       159 6.15718E+01 3.45269E+00 3.36398E+00-1.22851E+01-1.98921E-13 6.01130E-13
 -1       160 4.49774E+01 8.72323E+00 2.52565E+00-1.88874E+01-5.93969E-13 1.39522E-12
 -1       161 2.38852E+01 1.16764E+01 1.17571E+00-1.63678E+01-1.30251E-12 1.65989E-12
 -1       162-1.20600E+00-5.93129E+00-2.10077E+00 2.14347E+00-1.68371E-12 8.26339E-13
 -1       163-1.73114E+00-2.10555E+01-3.31225E+00 4.62802E+00 1.49969E-12 3.71925E-15
 -1       164 2.10137E+01 3.69403E+00-5.73440E-02-3.61030E+00-3.32071E-13-5.11535E-14
 -1       165 1.99911E+01 4.20780E+00-4.57405E-02-2.80950E+00-2.83266E-13-3.68264E-13
 -1       166 1.95091E+01 4.47693E+00-3.16150E-02-2.19427E+00-2.11425E-13-5.31781E-13
 -1       167 1.92670E+01 4.61518E+00-2.37737E-02-1.67558E+00-1.36985E-13-6.05586E-13
 -1       168 1.91372E+01 4.69671E+00-1.94865E-02-1.21923E+00-8.08522E-14-6.27916E-13
 -1       169 1.90633E+01 4.74781E+00-1.74098E-02-7.92101E-01-2.05966E-14-6.19046E-13
 -1       170 1.90261E+01 4.77569E+00-1.64207E-02-3.86903E-01 2.78601E-14-6.02727E-13
 -1       171 1.90152E+01 4.78421E+00-1.61340E-02 8.28188E-03 8.34895E-14-5.77084E-13
 -1       172 1.90277E+01 4.77440E+00-1.64674E-02 4.03812E-01 1.33410E-13-5.47500E-13
 -1       173 1.90669E+01 4.74487E+00-1.75211E-02 8.10094E-01 1.69073E-13-5.29555E-13
 -1       174 1.91415E+01 4.69244E+00-1.96890E-02 1.23160E+00 2.17397E-13-4.54173E-13
 -1       175 1.92770E+01 4.60531E+00-2.40085E-02 1.69832E+00 2.86060E-13-3.64542E-13
 -1       176 1.95239E+01 4.45954E+00-3.28523E-02 2.22669E+00 3.41834E-13-2.37907E-13
 -1       177 2.00135E+01 4.18384E+00-4.72137E-02 2.84691E+00 3.57625E-13 1.64556E-14
 -1       178 2.11354E+01 3.46368E+00-5.97803E-02 3.53681E+00 3.24088E-13 4.65621E-13
 -1       179 2.24198E+01 1.14337E+00-3.36471E-01 3.01489E+00 2.26236E-13 1.05142E-12
 -1       180 2.19721E+01 8.58276E-01 6.69164E-04-1.95904E+00-2.89557E-13 3.63671E-13
 -1       181 2.04475E+01 1.90234E-01-9.97238E-03-7.64138E-01-2.41468E-13 2.36318E-13
 -1       182 1.96721E+01 1.01548E-01 1.35764E-02-2.85698E-01-1.76748E-13 1.25628E-13
 -1       183 1.93321E+01 4.72996E-02 1.00115E-02-6.82717E-02-1.35872E-13 1.63021E-14
 -1       184 1.92023E+01 2.25529E-02 5.13926E-03 3.91865E-02-1.08639E-13-7.98411E-14
 -1       185 1.91887E+01 9.47302E-03 2.43210E-03 9.17308E-02-9.27795E-14-9.41803E-14
 -1       186 1.92370E+01 2.08281E-03 1.12971E-03 1.14007E-01-5.44460E-14-1.64270E-13
 -1       187 1.93158E+01-2.14147E-03 4.94340E-04 1.18850E-01-4.26514E-14-2.32484E-13
 -1       188 1.94063E+01-4.43393E-03 1.59544E-04 1.13681E-01-9.66509E-14-1.76765E-13
 -1       189 1.94975E+01-5.48683E-03-2.50515E-05 1.03119E-01-7.79654E-14-1.55462E-13
 -1       190 1.95831E+01-5.73069E-03-1.22700E-04 9.01525E-02-5.70612E-14-2.82368E-13
 -1       191 1.96599E+01-5.44600E-03-1.64586E-04 7.67430E-02 8.80810E-15-2.57957E-13
 -1       192 1.97271E+01-4.81607E-03-1.68795E-04 6.41841E-02 1.00653E-14-2.72945E-13
 -1       193 1.97849E+01-3.95587E-03-1.46669E-04 5.33389E-02-1.36992E-14-2.66258E-13
 -1       194 1.98348E+01-2.92988E-03-1.05320E-04 4.48071E-02-7.01101E-14-2.51236E-13
 -1       195 1.98789E+01-1.76445E-03-4.89596E-05 3.90479E-02-6.74578E-14-2.93347E-13
 -1       196 1.99200E+01-4.57266E-04 2.01859E-05 3.64714E-02-5.00614E-14-3.64899E-13
 -1       197 1.99612E+01 1.01441E-03 1.01127E-04 3.75055E-02-8.27864E-14-4.87931E-13
 -1       198 2.00063E+01 2.68552E-03 1.93373E-04 4.26389E-02-1.55456E-13-5.32024E-13
 -1       199 2.00596E+01 4.59340E-03 2.96109E-04 5.24398E-02 7.69212E-15-7.16919E-13
 -1       200 2.01257E+01 6.76468E-03 4.07144E-04 6.75434E-02 8.40958E-14-7.38740E-13
 -1       201 2.02102E+01 9.19611E-03 5.21533E-04 8.85966E-02 2.74360E-14-6.81693E-13
 -1       202 2.03187E+01 1.18258E-02 6.29745E-04 1.16141E-01 2.37404E-14-4.73588E-13
 -1       203 2.04574E+01 1.44902E-02 7.15360E-04 1.50403E-01 8.40885E-14-4.08617E-13
 -1       204 2.06318E+01 1.68609E-02 7.52500E-04 1.90954E-01 1.64523E-14-3.95656E-13
 -1       205 2.08465E+01 1.83581E-02 7.03777E-04 2.36187E-01-3.88863E-14-4.61669E-13
 -1       206 2.11032E+01 1.80412E-02 5.20544E-04 2.82557E-01-1.08797E-13-5.74092E-13
 -1       207 2.13990E+01 1.44998E-02 1.48828E-04 3.23577E-01 7.95474E-15-6.49204E-13
 -1       208 2.17234E+01 5.81345E-03-4.54059E-04 3.48666E-01 5.13072E-14-4.78767E-13
 -1       209 2.20546E+01-1.02642E-02-1.28728E-03 3.42207E-01-5.40957E-14-4.57459E-13
 -1       210 2.23564E+01-3.56058E-02-2.25940E-03 2.83737E-01-7.11157E-14-4.43560E-13
 -1       211 2.25758E+01-7.01191E-02-3.14877E-03 1.50911E-01 2.08312E-14-3.55632E-13
 -1       212 2.26457E+01-1.09039E-01-3.60635E-03-7.24089E-02-2.11363E-14-2.68731E-13
 -1       213 2.24952E+01-1.39732E-01-3.24908E-03-3.81157E-01 1.06286E-13-3.17746E-13
 -1       214 2.20728E+01-1.41263E-01-2.01159E-03-7.29560E-01 6.30568E-14-4.72112E-13
 -1       215 2.13825E+01-9.19219E-02-1.70563E-04-1.01991E+00 3.62579E-15-3.83202E-13
 -1       216 2.05183E+01 1.30030E-02 1.57245E-03-1.12153E+00-9.93517E-15-4.57600E-13
 -1       217 1.96716E+01 1.42464E-01 2.50827E-03-9.34378E-01-3.74397E-14-3.35345E-13
 -1       218 1.90760E+01 2.34560E-01 2.79067E-03-4.72920E-01-5.67380E-14-3.30045E-13
 -1       219 1.88976E+01 2.35430E-01 2.82415E-03 1.04433E-01-1.19927E-13-4.46627E-13
 -1       220 1.91391E+01 1.43965E-01 2.68618E-03 5.69471E-01-5.86120E-14-4.01638E-13
 -1       221 1.96377E+01 1.38849E-02 1.91306E-03 7.60753E-01 4.96771E-14-2.70141E-13
 -1       222 2.01624E+01-9.00592E-02 5.79560E-04 6.64503E-01 6.78888E-14-2.47029E-14
 -1       223 2.05284E+01-1.33031E-01-8.15334E-04 3.89383E-01 3.62629E-13 5.07758E-14
 -1       224 2.06580E+01-1.16877E-01-1.61612E-03 8.27458E-02 2.47178E-13-2.55683E-13
 -1       225 2.05771E+01-6.27790E-02-1.77497E-03-1.37813E-01 8.49934E-14-1.80075E-13
 -1       226 2.03749E+01 7.26363E-03-1.12743E-03-2.10423E-01 2.22971E-13-3.93541E-13
 -1       227 2.01546E+01 6.50025E-02 2.32242E-05-1.35531E-01 1.43542E-13-4.66288E-15
 -1       228 2.09638E+01 2.77021E-01-5.13336E-02 1.16492E+00 2.45696E-13 8.86269E-13
 -1       229 1.98690E+01 1.26836E-01 8.31022E-03 4.43230E-01 2.14023E-13 6.98824E-13
 -1       230 1.93625E+01 5.80544E-02 1.27338E-02 1.50212E-01 1.38895E-13 5.51084E-13
 -1       231 1.91527E+01 2.77092E-02 7.62640E-03 1.09685E-02 1.19579E-13 4.09357E-13
 -1       232 1.91027E+01 1.30534E-02 3.82079E-03-5.81190E-02 5.40014E-14 3.34904E-13
 -1       233 1.91383E+01 5.10371E-03 1.90445E-03-9.04881E-02 5.00691E-14 2.78600E-13
 -1       234 1.92170E+01 5.62062E-04 1.00298E-03-1.02189E-01 2.87886E-14 2.54302E-13
 -1       235 1.93143E+01-2.01953E-03 5.44022E-04-1.01950E-01 3.76986E-14 2.28327E-13
 -1       236 1.94154E+01-3.38307E-03 2.82759E-04-9.49907E-02 4.34204E-14 1.96994E-13
 -1       237 1.95120E+01-3.96108E-03 1.25090E-04-8.46141E-02 3.38488E-14 2.10101E-13
 -1       238 1.95996E+01-4.02635E-03 3.12778E-05-7.29641E-02 7.82938E-14 1.46241E-13
 -1       239 1.96764E+01-3.75694E-03-1.94390E-05-6.14466E-02 9.25416E-14 1.35125E-13
 -1       240 1.97424E+01-3.26796E-03-3.98379E-05-5.09882E-02 4.21883E-14 7.20615E-14
 -1       241 1.97985E+01-2.62921E-03-3.82824E-05-4.22121E-02-5.57985E-14 8.02798E-14
 -1       242 1.98468E+01-1.87627E-03-2.02005E-05-3.55671E-02-4.89760E-14 1.81859E-13
 -1       243 1.98899E+01-1.01764E-03 1.10579E-05-3.14254E-02 2.69238E-14 1.13147E-13
 -1       244 1.99308E+01-3.95551E-05 5.36237E-05-3.01607E-02 1.89204E-13 4.90427E-14
 -1       245 1.99734E+01 1.09069E-03 1.06654E-04-3.22124E-02 8.88068E-14-3.37512E-14
 -1       246 2.00220E+01 2.42236E-03 1.69903E-04-3.81402E-02-7.30273E-14 7.29558E-15
 -1       247 2.00818E+01 4.01947E-03 2.43220E-04-4.86701E-02-8.74150E-14-1.57849E-14
 -1       248 2.01591E+01 5.95851E-03 3.25838E-04-6.47320E-02 7.17168E-14-5.02071E-14
 -1       249 2.02611E+01 8.32429E-03 4.15253E-04-8.74855E-02 5.42342E-14-1.03974E-15
 -1       250 2.03968E+01 1.12006E-02 5.05416E-04-1.18320E-01 1.98050E-14-2.31822E-13
 -1       251 2.05763E+01 1.46493E-02 5.83849E-04-1.58806E-01-1.25774E-13-3.20272E-13
 -1       252 2.08117E+01 1.86672E-02 6.27385E-04-2.10536E-01-1.03560E-13-1.31723E-13
 -1       253 2.11157E+01 2.30983E-02 5.96916E-04-2.74771E-01 5.39180E-14-5.83682E-14
 -1       254 2.15014E+01 2.74675E-02 4.33745E-04-3.51698E-01 8.92829E-14 3.36997E-14
 -1       255 2.19796E+01 3.06846E-02 6.55366E-05-4.39020E-01-4.47041E-14-1.00761E-13
 -1       256 2.25543E+01 3.05649E-02-5.60750E-04-5.29450E-01 4.22458E-14-6.79155E-14
 -1       257 2.32157E+01 2.31863E-02-1.39230E-03-6.06708E-01-4.60452E-14-1.59831E-13
 -1       258 2.39284E+01 2.38754E-03-2.11307E-03-6.40109E-01-2.72547E-13-7.93814E-14
 -1       259 2.46169E+01-3.95733E-02-1.99318E-03-5.79770E-01-4.26445E-14-2.06159E-14
 -1       260 2.51517E+01-1.07632E-01 1.43323E-04-3.59022E-01 1.69425E-13 1.52947E-13
 -1       261 2.53491E+01-1.92783E-01 4.62872E-03 8.16909E-02-1.92008E-14-8.60109E-14
 -1       262 2.50098E+01-2.55178E-01 9.44511E-03 7.32309E-01 3.03742E-13-1.31713E-13
 -1       263 2.40220E+01-2.21458E-01 8.68455E-03 1.42288E+00 6.65449E-14-9.06220E-14
 -1       264 2.25206E+01-2.96889E-02-4.36039E-03 1.78809E+00-1.50680E-13-8.13551E-14
 -1       265 2.10024E+01 2.58877E-01-2.31458E-02 1.44835E+00-2.30900E-13 3.52942E-13
 -1       266 2.01505E+01 4.40417E-01-3.14315E-02 4.16830E-01-3.80151E-13 8.56527E-13
 -1       267 2.03483E+01 3.56545E-01-2.07659E-02-7.44852E-01 5.03920E-14 8.47059E-13
 -1       268 2.13357E+01 8.50238E-02-1.20181E-03-1.36188E+00 1.48321E-13 3.76617E-13
 -1       269 2.24408E+01-1.59856E-01 1.14097E-02-1.21538E+00 5.89351E-14 4.21888E-13
 -1       270 2.30982E+01-2.54631E-01 1.17117E-02-5.89419E-01 1.70089E-13 4.72870E-13
 -1       271 2.31118E+01-2.19838E-01 5.80635E-03 1.02302E-01 3.05788E-13 8.28838E-14
 -1       272 2.25884E+01-1.26004E-01 1.84831E-04 5.94062E-01 3.62837E-13-1.63988E-13
 -1       273 2.17745E+01-2.07468E-02-3.69521E-03 7.92142E-01 7.27372E-14 9.41695E-15
 -1       274 2.09426E+01 8.55612E-02-5.21182E-03 6.90251E-01 1.12761E-14-4.47823E-14
 -1       275 2.03043E+01 1.66149E-01-2.06728E-03 3.39637E-01-1.09451E-13-1.98994E-15
 -1       276 2.02177E+01 5.85390E-01 2.10889E-03 6.06551E-01 5.72950E-14 4.95895E-13
 -1       277 2.01571E+01 1.35053E+00 1.61352E-03 1.02901E+00 1.22560E-13-1.74583E-13
 -1       278 2.00769E+01 2.36222E+00-2.10077E-04 1.30780E+00-2.17942E-13-1.97512E-13
 -1       279 1.99751E+01 3.50791E+00-2.29268E-03 1.37129E+00-6.24349E-13-1.69840E-13
 -1       280 1.98569E+01 4.57551E+00-4.73987E-03 1.16781E+00-6.20142E-13-7.13457E-13
 -1       281 1.97546E+01 5.37354E+00-6.15904E-03 6.88693E-01-4.63563E-13-4.85757E-14
 -1       282 1.97155E+01 5.68339E+00-6.63795E-03 3.38128E-02-5.64548E-13 4.28482E-13
 -1       283 1.97593E+01 5.42986E+00-6.20891E-03-6.15921E-01-4.19071E-13 1.97136E-13
 -1       284 1.98649E+01 4.69399E+00-4.92716E-03-1.08138E+00-2.25706E-13 3.98338E-13
 -1       285 1.99852E+01 3.67509E+00-2.84922E-03-1.26846E+00-1.42406E-13-2.33480E-14
 -1       286 2.00755E+01 2.62038E+00-3.19888E-04-1.19797E+00-1.28327E-13-1.39243E-13
 -1       287 2.01208E+01 1.67115E+00 1.71914E-03-9.58938E-01-2.09617E-14 2.73897E-13
 -1       288 2.01243E+01 9.45294E-01 2.97722E-03-6.58625E-01-7.79685E-14 7.81953E-14
 -1       289 2.01023E+01 4.59476E-01 2.25311E-03-3.71223E-01-1.47105E-13-2.30049E-13
 -1       290 2.01412E+01 2.23526E-01 3.34870E-03-2.55731E-01 5.19473E-14-2.09826E-13
 -1       291-6.81121E-01-1.06647E+01-8.04372E-01 1.57080E+00 1.31900E-12 1.92457E-13
 -1       292 4.18066E+00-8.71665E+00-5.62171E-01 4.82508E+00 8.73690E-13-1.18588E-12
 -1       293 1.03329E+01-5.59388E+00-5.28881E-01 5.82871E+00 4.13336E-13-1.13935E-12
 -1       294 2.00785E+01-1.10802E+00-6.83078E-02 7.57269E+00-3.25073E-13-4.38399E-13
 -1       295 3.09973E+01 1.81344E+00 3.29502E-01 7.16103E+00-5.64410E-13-6.90448E-13
 -1       296 3.99635E+01 4.99669E+00 7.28103E-01 6.14581E+00-4.69120E-13-8.98032E-13
 -1       297 4.69492E+01 6.60055E+00 1.09416E+00 3.94818E+00-1.52406E-13-9.62647E-13
 -1       298 4.90040E+01 6.81548E+00 1.18075E+00 9.34544E-02-1.60205E-13-8.46274E-13
 -1       299 4.45730E+01 5.94688E+00 8.72691E-01-3.15245E+00 1.19640E-13-5.38736E-13
 -1       300 3.64348E+01 2.94557E+00 3.99333E-01-4.14397E+00 3.48627E-13-2.66565E-13
 -1       301 2.64120E+01 7.98034E-01 1.62266E-01-7.19318E+00 3.27682E-13-5.14255E-13
 -1       302 1.59924E+01-2.93781E+00-2.75477E-01-6.34514E+00-2.24348E-13-7.03548E-13
 -1       303 8.57231E+00-7.09935E+00-4.25701E-01-5.52128E+00-4.39704E-13-1.37515E-13
 -1       304 1.04550E+00-1.01000E+01-8.24519E-01-2.50967E+00-4.73205E-13 1.29632E-13
 -1       305-1.39767E+00-1.20904E+01-1.03138E+00-1.54585E-01-6.30395E-13-3.01981E-14
 -1       306-4.32863E-01-1.12988E+01-9.85422E-01 1.76658E+00-3.06838E-13 2.85882E-13
 -1       307 3.92516E+00-8.36381E+00-7.59465E-01 3.92692E+00-2.27512E-13 3.78395E-13
 -1       308 1.18612E+01-4.37055E+00-3.84664E-01 6.22038E+00 1.56319E-13-3.56326E-13
 -1       309 2.22348E+01-9.04751E-01 6.91308E-03 7.20859E+00-7.49401E-15-2.16493E-15
 -1       310 3.26174E+01 1.65659E+00 2.16344E-01 4.86698E+00-9.44037E-14 8.36553E-14
 -1       311 4.19060E+01 5.60761E+00 7.86344E-01 5.25889E+00-2.03296E-13 2.77861E-13
 -1       312 4.54495E+01 6.99506E+00 8.39406E-01 1.66069E+00 5.72875E-14 4.14113E-13
 -1       313 4.41704E+01 7.53498E+00 6.81190E-01-1.43344E+00-3.71481E-13 5.02778E-13
 -1       314 4.22365E+01 5.87506E+00 7.77929E-01-5.18375E+00-6.16070E-13 6.34603E-13
 -1       315 3.41881E+01 3.30876E+00 4.72734E-01-6.78749E+00-8.48571E-13 7.38881E-13
 -1       316 2.38585E+01 1.75324E-02 1.10479E-01-7.73546E+00-1.03631E-12 8.70359E-13
 -1       317 1.28945E+01-4.42799E+00-3.62786E-01-6.53888E+00-4.78007E-13 9.79355E-13
 -1       318 3.96340E+00-9.10783E+00-7.95166E-01-4.19082E+00 4.87110E-13 1.26375E-12
 -1       319-9.54607E-01-1.24186E+01-1.11426E+00-1.31754E+00 1.31418E-12 1.00295E-12
 -1       320 2.01457E+01 3.01538E+00-1.78717E-02-2.11065E+00-2.84687E-13-3.22222E-13
 -1       321 2.07563E+01 2.20827E+00-1.78141E-02-2.36343E+00-3.30824E-13-1.43417E-13
 -1       322 1.95844E+01 3.69146E+00-1.50762E-02-1.31727E+00-1.33682E-13-4.72886E-13
 -1       323 1.94603E+01 3.84867E+00-1.35563E-02-9.23571E-01-7.13956E-14-4.85024E-13
 -1       324 1.93913E+01 3.93937E+00-1.26848E-02-5.43908E-01 4.99888E-15-4.67348E-13
 -1       325 1.93607E+01 3.98065E+00-1.22899E-02-1.73266E-01 6.85508E-14-4.42309E-13
 -1       326 1.93621E+01 3.97902E+00-1.23122E-02 1.94425E-01 1.37299E-13-4.25181E-13
 -1       327 1.93954E+01 3.93413E+00-1.27597E-02 5.65442E-01 1.93204E-13-4.21159E-13
 -1       328 1.94663E+01 3.84086E+00-1.37698E-02 9.39398E-01 2.42175E-13-3.74835E-13
 -1       329 1.95932E+01 3.67860E+00-1.56575E-02 1.33346E+00 3.08415E-13-2.81518E-13
 -1       330 1.98088E+01 3.40995E+00-1.88333E-02 1.73878E+00 3.59392E-13-1.95602E-13
 -1       331 2.01793E+01 2.95520E+00-2.29397E-02 2.12732E+00 4.05372E-13-5.01682E-14
 -1       332 2.07492E+01 2.12942E+00-3.04689E-02 2.32226E+00 3.95628E-13 2.27495E-13
 -1       333 2.10957E+01 1.18772E+00-2.49225E-02 1.92200E+00 3.43975E-13 4.86399E-13
 -1       334 2.03920E+01 4.89253E-01 8.33443E-03 9.27445E-01 2.83979E-13 3.84785E-13
 -1       335 2.04580E+01 6.75500E-01 1.23748E-02-1.02539E+00-2.51254E-13-7.57901E-14
 -1       336 2.00377E+01 3.34830E-01 6.84897E-03-4.58329E-01-1.97420E-13-8.43503E-14
 -1       337 1.97826E+01 1.76503E-01 4.06136E-03-1.48749E-01-1.74468E-13-7.81085E-14
 -1       338 1.96470E+01 9.03266E-02 1.89817E-03 2.20239E-02-1.13327E-13-1.11412E-13
 -1       339 1.95913E+01 4.12031E-02 7.95302E-04 1.13024E-01-1.05394E-13-1.19696E-13
 -1       340 1.95858E+01 1.22724E-02 2.72960E-04 1.56091E-01-6.10636E-14-1.44391E-13
 -1       341 1.96096E+01-4.66540E-03 1.45423E-05 1.70108E-01-4.11003E-14-1.82742E-13
 -1       342 1.96488E+01-1.40377E-02-1.19179E-04 1.66870E-01-6.59075E-14-1.79130E-13
 -1       343 1.96946E+01-1.84812E-02-1.84347E-04 1.54021E-01-1.01067E-13-1.24945E-13
 -1       344 1.97414E+01-1.96683E-02-2.06982E-04 1.36632E-01-5.49691E-16-8.78468E-14
 -1       345 1.97861E+01-1.86917E-02-2.01656E-04 1.18102E-01 4.11836E-15-1.00241E-13
 -1       346 1.98274E+01-1.62609E-02-1.77429E-04 1.00732E-01-1.20404E-14-9.76499E-14
 -1       347 1.98650E+01-1.28147E-02-1.39923E-04 8.61103E-02-4.12347E-14-1.61381E-13
 -1       348 1.98997E+01-8.59368E-03-9.23304E-05 7.53938E-02-9.98277E-14-2.20452E-13
 -1       349 1.99326E+01-3.69120E-03-3.60872E-05 6.95083E-02-1.13152E-13-2.02681E-13
 -1       350 1.99657E+01 1.90553E-03 2.85921E-05 6.92964E-02-9.84124E-14-2.89984E-13
 -1       351 2.00012E+01 8.27838E-03 1.02218E-04 7.56183E-02-1.00424E-13-2.16096E-13
 -1       352 2.00418E+01 1.55388E-02 1.85492E-04 8.94080E-02-1.40855E-13-2.28952E-13
 -1       353 2.00906E+01 2.37791E-02 2.78632E-04 1.11679E-01-5.69187E-14-3.20834E-13
 -1       354 2.01509E+01 3.30070E-02 3.80461E-04 1.43467E-01 9.96516E-14-3.77254E-13
 -1       355 2.02267E+01 4.30508E-02 4.87114E-04 1.85688E-01 1.53962E-13-2.61459E-13
 -1       356 2.03217E+01 5.34226E-02 5.90217E-04 2.38873E-01 1.05575E-13-1.75312E-13
 -1       357 2.04401E+01 6.31220E-02 6.74443E-04 3.02743E-01 3.20321E-14-2.42510E-13
 -1       358 2.05854E+01 7.03673E-02 7.14517E-04 3.75547E-01 2.97508E-14-1.85109E-13
 -1       359 2.07602E+01 7.22546E-02 6.72216E-04 4.53115E-01-1.30842E-13-1.44786E-13
 -1       360 2.09656E+01 6.43929E-02 4.94887E-04 5.27592E-01-5.83719E-14-2.01602E-13
 -1       361 2.12002E+01 4.06729E-02 1.18655E-04 5.85888E-01 1.10268E-13-1.63462E-13
 -1       362 2.14586E+01-6.45445E-03-5.17948E-04 6.08169E-01 5.24586E-14-2.59237E-13
 -1       363 2.17298E+01-8.44442E-02-1.44082E-03 5.67136E-01-3.36829E-14-2.24409E-13
 -1       364 2.19952E+01-1.96717E-01-2.58032E-03 4.29741E-01 3.05377E-14-1.32460E-13
 -1       365 2.22254E+01-3.35226E-01-3.71472E-03 1.64093E-01-1.32088E-15-1.07869E-13
 -1       366 2.23775E+01-4.69904E-01-4.40762E-03-2.45118E-01 6.95143E-14-6.99823E-14
 -1       367 2.23950E+01-5.39857E-01-4.00630E-03-7.70474E-01-6.08563E-14 7.34483E-14
 -1       368 2.22200E+01-4.62653E-01-2.52120E-03-1.31075E+00-4.00318E-14-8.37457E-14
 -1       369 2.18291E+01-1.79218E-01-6.28687E-05-1.68231E+00-2.88005E-14-8.65282E-14
 -1       370 2.12840E+01 2.73591E-01 2.58522E-03-1.67248E+00 6.45299E-14-4.68963E-14
 -1       371 2.07595E+01 7.13680E-01 3.93012E-03-1.17280E+00 1.00130E-13-1.55619E-13
 -1       372 2.04673E+01 9.03740E-01 4.49067E-03-3.15761E-01 8.82367E-15 8.40681E-14
 -1       373 2.05120E+01 7.20789E-01 4.19401E-03 5.46497E-01-2.15158E-13 9.21633E-14
 -1       374 2.07967E+01 2.81223E-01 2.61185E-03 1.05684E+00 1.58075E-14-3.85265E-14
 -1       375 2.11110E+01-1.70335E-01 3.02266E-04 1.07853E+00 2.40717E-13-5.49771E-14
 -1       376 2.12785E+01-4.39833E-01-2.04689E-03 7.25644E-01 3.10613E-13 1.81667E-13
 -1       377 2.12393E+01-4.77431E-01-3.11732E-03 2.31299E-01 9.57539E-14-6.90952E-14
 -1       378 2.10269E+01-3.37862E-01-2.79538E-03-1.93010E-01-5.26165E-14-1.37877E-13
 -1       379 2.07130E+01-1.08039E-01-2.04003E-03-4.20342E-01 9.46172E-15-1.04197E-13
 -1       380 2.04117E+01 9.45799E-02 1.73017E-03-4.12978E-01 3.02528E-13-1.48974E-13
 -1       381 1.98903E+01 2.28438E-01 1.07951E-02 3.98855E-01 2.32449E-13 3.15926E-13
 -1       382 1.96016E+01 1.15296E-01 6.17124E-03 1.20239E-01 1.73604E-13 2.14528E-13
 -1       383 1.94668E+01 5.75655E-02 2.80114E-03-2.84917E-02 9.93116E-14 1.37354E-13
 -1       384 1.94268E+01 2.56572E-02 1.17240E-03-1.05220E-01 6.03738E-14 8.53597E-14
 -1       385 1.94422E+01 7.19690E-03 4.46213E-04-1.40270E-01 4.30159E-14 8.60262E-14
 -1       386 1.94880E+01-3.50097E-03 9.95206E-05-1.50596E-01 7.63556E-14 5.72570E-14
 -1       387 1.95479E+01-9.38664E-03-8.09780E-05-1.46440E-01 6.88076E-14 1.76476E-14
 -1       388 1.96122E+01-1.21710E-02-1.74538E-04-1.34306E-01 3.20948E-14 2.80869E-14
 -1       389 1.96748E+01-1.29230E-02-2.14585E-04-1.18449E-01 1.24303E-13 3.84601E-14
 -1       390 1.97328E+01-1.23363E-02-2.19207E-04-1.01691E-01 7.47319E-14 5.37187E-14
 -1       391 1.97847E+01-1.08602E-02-1.99700E-04-8.59204E-02 7.51635E-14 6.36631E-14
 -1       392 1.98307E+01-8.77179E-03-1.63221E-04-7.24282E-02-6.08249E-14 9.68668E-14
 -1       393 1.98718E+01-6.21993E-03-1.13890E-04-6.21453E-02-9.24497E-14 9.10687E-14
 -1       394 1.99096E+01-3.25373E-03-5.35040E-05-5.58223E-02 8.95445E-14-1.21347E-15
 -1       395 1.99465E+01 1.58129E-04 1.79453E-05-5.41700E-02 2.19294E-13-7.28127E-14
 -1       396 1.99852E+01 4.11368E-03 1.01921E-04-5.79712E-02 2.07751E-13-4.48375E-14
 -1       397 2.00293E+01 8.76722E-03 2.01029E-04-6.81727E-02-4.38742E-14-1.14599E-13
 -1       398 2.00828E+01 1.43203E-02 3.18688E-04-8.59587E-02-1.98323E-14-1.61320E-13
 -1       399 2.01503E+01 2.10107E-02 4.58656E-04-1.12807E-01 7.55313E-14-1.20121E-13
 -1       400 2.02376E+01 2.90936E-02 6.24205E-04-1.50516E-01 9.67895E-14-2.16854E-13
 -1       401 2.03512E+01 3.88044E-02 8.16571E-04-2.01191E-01 9.16986E-14-2.63167E-13
 -1       402 2.04984E+01 5.02829E-02 1.03208E-03-2.67140E-01-1.25563E-13-3.11657E-13
 -1       403 2.06876E+01 6.34228E-02 1.25702E-03-3.50607E-01-1.68938E-13-3.03270E-13
 -1       404 2.09276E+01 7.75851E-02 1.45913E-03-4.53204E-01-1.32612E-13-2.40284E-13
 -1       405 2.12269E+01 9.10763E-02 1.57507E-03-5.74801E-01 6.05553E-14 2.68795E-14
 -1       406 2.15927E+01 1.00260E-01 1.49577E-03-7.11511E-01 6.88059E-14-2.21316E-14
 -1       407 2.20287E+01 9.81866E-02 1.05763E-03-8.52270E-01 2.37012E-14-6.41929E-15
 -1       408 2.25320E+01 7.28729E-02 5.95301E-05-9.73553E-01 2.46512E-14 3.73134E-14
 -1       409 2.30890E+01 6.16656E-03-1.65881E-03-1.03243E+00-2.63893E-13-1.59882E-13
 -1       410 2.36693E+01-1.23863E-01-4.03856E-03-9.60390E-01 2.09359E-16-3.96009E-13
 -1       411 2.42176E+01-3.30805E-01-6.51245E-03-6.65688E-01-1.12740E-13-1.86460E-13
 -1       412 2.46437E+01-5.88576E-01-7.35874E-03-6.04870E-02 1.25606E-13 2.15106E-14
 -1       413 2.48107E+01-7.84898E-01-7.09027E-03 8.60350E-01 1.95868E-13 2.41419E-13
 -1       414 2.45676E+01-7.08155E-01-4.21139E-03 1.89372E+00 6.59481E-14 3.85984E-13
 -1       415 2.38277E+01-1.57367E-01-8.05104E-03 2.54981E+00-1.42270E-13 4.32550E-13
 -1       416 2.28197E+01 7.26657E-01-1.53544E-02 2.21470E+00-4.02153E-13 4.51578E-13
 -1       417 2.21035E+01 1.34436E+00-1.65615E-02 7.96815E-01-5.02820E-13 5.58575E-13
 -1       418 2.21328E+01 1.14506E+00-1.11697E-02-9.23678E-01 1.03164E-13 4.39026E-13
 -1       419 2.27358E+01 3.14074E-01-5.70212E-03-1.88112E+00 1.14651E-13 5.35741E-13
 -1       420 2.33212E+01-4.73904E-01-3.26873E-03-1.68863E+00 1.49443E-13 4.90954E-13
 -1       421 2.34700E+01-7.97814E-01-5.50494E-03-7.70905E-01 1.89373E-13 2.11141E-13
 -1       422 2.31471E+01-7.03812E-01-8.06237E-03 2.46638E-01 4.95851E-13-1.04903E-13
 -1       423 2.25132E+01-4.11691E-01-7.24111E-03 9.72903E-01 2.19983E-13 1.02356E-13
 -1       424 2.17494E+01-7.76243E-02-3.28017E-03 1.27680E+00-7.53466E-15 3.33423E-13
 -1       425 2.09998E+01 2.30952E-01-2.06582E-04 1.16325E+00 1.79998E-14 5.55302E-13
 -1       426 2.05758E+01 4.28464E-01 1.80502E-03 9.43576E-01-1.61157E-13 6.03899E-13
 -1       427 2.01112E+01 1.96161E+00 2.90596E-04 2.21529E+00-1.60085E-13-4.61584E-13
 -1       428 2.04289E+01 1.23267E+00 3.75174E-03 1.92538E+00-1.98458E-14-5.07790E-13
 -1       429 2.05340E+01 8.19775E-01 4.05716E-03 1.46584E+00-1.63852E-13 7.25867E-14
 -1       430 1.96885E+01 2.76126E+00-3.57098E-03 2.13140E+00-2.67308E-13-6.47375E-13
 -1       431 1.92414E+01 3.50146E+00-6.67961E-03 1.57797E+00-3.05015E-14-5.49723E-14
 -1       432 1.89518E+01 3.95288E+00-8.02706E-03 6.12889E-01 1.30074E-13 3.73216E-13
 -1       433 1.89594E+01 3.95869E+00-7.95404E-03-5.13869E-01-2.03742E-13 2.32359E-13
 -1       434 1.92617E+01 3.51884E+00-6.45075E-03-1.46728E+00-3.23704E-13 3.56953E-13
 -1       435 1.97137E+01 2.78953E+00-3.73691E-03-2.00168E+00-1.38841E-13 3.25053E-13
 -1       436 2.01236E+01 1.99998E+00-4.60299E-04-2.06800E+00-5.65133E-14-1.25284E-13
 -1       437 2.03866E+01 1.29161E+00 2.33173E-03-1.78221E+00 2.74984E-13 4.81341E-13
 -1       438 2.04772E+01 7.59364E-01 4.29586E-03-1.32375E+00 1.25421E-13 5.06054E-14
 -1       439 2.04347E+01 4.10326E-01 4.91809E-03-8.47361E-01 1.30844E-13-1.17615E-13
 -1       440 1.26130E+01-6.43184E+00-3.53168E-02 7.48722E+00 5.95024E-13-1.51353E-12
 -1       441 1.59062E+00-4.70550E+00-2.46117E-02-6.66626E-01 9.17513E-14 7.49539E-13
 -1       442 4.41671E+00-5.07140E+00 1.78303E-02 4.75620E+00 4.43617E-13-9.74443E-13
 -1       443 1.97790E+01-6.18143E+00-4.89852E-02 7.08580E+00 4.35957E-13-4.70492E-13
 -1       444 2.78367E+01-3.71088E+00 7.40989E-04 4.82939E+00 5.88557E-14-4.25576E-13
 -1       445 1.97870E+01 3.43945E+00-2.09026E-02-1.72578E+00-2.11622E-13-4.23875E-13
 -1       446 3.61624E+01 5.31032E+00 6.48322E-02 1.61094E-01-1.99493E-13-5.36959E-13
 -1       447 3.77038E+01 7.96292E+00 1.23714E-01 4.05801E-01-1.71391E-13-5.04777E-13
 -1       448 3.77523E+01 7.44632E+00 1.40108E-01 7.60252E-01-8.35720E-14-5.63639E-13
 -1       449 3.48729E+01 3.97698E+00-1.02787E-02 1.03112E+00 1.15102E-13-4.53540E-13
 -1       450 3.08800E+01-2.09714E+00-2.84493E-02-1.51303E+00-1.12755E-13-1.09246E-13
 -1       451 2.58427E+01-4.79018E+00-1.16209E-04-4.40651E+00-2.88200E-13-2.10651E-13
 -1       452 1.82097E+01-6.25361E+00 4.63324E-03-6.37789E+00-3.56576E-13-6.00582E-13
 -1       453 8.07444E+00-5.31316E+00 5.70461E-02-6.06702E+00-1.48534E-13-9.42718E-14
 -1       454 2.15831E+00-5.10451E+00-4.31121E-02-2.75460E+00-4.16521E-13-5.40817E-14
 -1       455 8.49928E-01-5.50037E+00-1.08221E-01 1.54379E+00-2.61863E-13 3.87052E-13
 -1       456 5.50772E+00-4.96756E+00 2.59731E-02 5.64648E+00-1.03376E-13 3.80335E-13
 -1       457 1.15058E+01-6.03669E+00-2.82174E-02 7.20515E+00-2.02699E-13-1.72085E-15
 -1       458 2.14989E+01-5.65364E+00 1.20209E-02 6.26178E+00-3.20993E-14-3.38320E-13
 -1       459 2.82883E+01-3.34623E+00-2.74589E-02 3.27163E+00-1.80821E-13 6.07153E-14
 -1       460 3.39520E+01 3.10572E+00 3.76583E-02 3.81696E-01-8.73121E-14 3.08031E-13
 -1       461 3.55214E+01 6.32941E+00 2.24329E-02-5.86657E-01-1.02016E-13 2.17062E-13
 -1       462 3.62857E+01 8.30542E+00 1.64483E-02-4.50961E-01-1.87156E-13 5.25862E-13
 -1       463 3.49490E+01 6.47819E+00-4.78896E-02 1.94511E-01-3.74506E-13 3.12056E-13
 -1       464 3.43528E+01 2.97247E+00 2.78206E-02-6.79164E-01-5.55091E-13 2.59376E-13
 -1       465 3.00599E+01-2.38726E+00-1.39655E-04-3.38474E+00-5.36515E-13 1.53155E-13
 -1       466 2.27816E+01-5.41204E+00-1.56287E-03-6.56786E+00-5.69961E-14 8.16763E-13
 -1       467 1.27710E+01-6.59468E+00-7.78555E-02-7.58140E+00 3.73007E-13 9.80271E-13
 -1       468 4.60507E+00-5.61154E+00-5.11808E-02-5.23951E+00 8.95506E-13 1.67395E-12
 -1       469 3.37065E+01 7.28513E-01 4.74248E-02 1.63382E+00-2.97595E-13-4.51666E-13
 -1       470 1.07160E+01-4.63796E+00 1.11373E-01 7.00709E+00 4.41952E-13-1.37391E-12
 -1       471 3.05115E+01-1.24553E+00-8.54094E-02 1.99144E-02-1.88755E-13 1.49783E-13
 -1       472 3.13842E+01-3.90846E-02-9.37670E-02 1.71918E+00-1.12320E-13-3.54744E-13
 -1       473 1.53973E+01-5.58485E+00 9.70194E-02-6.67506E+00-1.17073E-13-3.24851E-13
 -1       474 3.15896E+01 7.45916E+00-1.36901E-01 4.95952E-01-2.09735E-13-6.52256E-14
 -1       475 2.03733E+01 8.31876E-01 4.02985E-03 9.72160E-01 2.82413E-13 9.83318E-14
 -1       476 1.97329E+01 3.10383E+00-5.32763E-03-6.34133E-01-2.75096E-14-4.26967E-13
 -1       477 1.98289E+01 2.93093E+00-5.65531E-03-9.50611E-01-8.21716E-14-4.31051E-13
 -1       478 1.96653E+01 3.22642E+00-5.02169E-03 8.79586E-03 9.29857E-14-3.87026E-13
 -1       479 1.96838E+01 3.19338E+00-5.10300E-03 3.30512E-01 1.53655E-13-3.83993E-13
 -1       480 1.97374E+01 3.09663E+00-5.42656E-03 6.45961E-01 2.08176E-13-3.55227E-13
 -1       481 1.98360E+01 2.91877E+00-5.96799E-03 9.61590E-01 2.79353E-13-2.82455E-13
 -1       482 1.99915E+01 2.63374E+00-6.52924E-03 1.25694E+00 3.02319E-13-2.16233E-13
 -1       483 2.02334E+01 2.18777E+00-5.69716E-03 1.50166E+00 3.35506E-13-1.16917E-13
 -1       484 2.01115E+01 4.53516E-01 5.07157E-03 4.64434E-01 2.42378E-13 8.59994E-14
 -1       485 2.03418E+01 9.76595E-01 3.88235E-03-9.40038E-01-2.00533E-13-2.05939E-13
 -1       486 3.10697E+01 1.57149E+00-1.36325E-01-1.76195E+00-1.42636E-13-3.25767E-13
 -1       487 2.01762E+01 5.34112E-01 9.09018E-04-4.68418E-01-1.79896E-13-1.91794E-13
 -1       488 2.00241E+01 3.03482E-01 1.13058E-03-1.67152E-01-1.39420E-13-1.39481E-13
 -1       489 1.99232E+01 1.61402E-01 4.63088E-04 1.43922E-02-1.31835E-13-1.39025E-13
 -1       490 1.98644E+01 7.51682E-02 1.64239E-04 1.16917E-01-9.42986E-14-1.16119E-13
 -1       491 1.98369E+01 2.25439E-02 2.31762E-05 1.68195E-01-1.13845E-13-1.47661E-13
 -1       492 1.98307E+01-8.77421E-03-4.65373E-05 1.86893E-01-4.22947E-14-1.68571E-13
 -1       493 1.98379E+01-2.61342E-02-8.11541E-05 1.85648E-01-5.19007E-14-1.55937E-13
 -1       494 1.98529E+01-3.41843E-02-9.51717E-05 1.73097E-01-3.72161E-14-8.02970E-14
 -1       495 1.98719E+01-3.59764E-02-9.57546E-05 1.55169E-01-6.13593E-15-5.52128E-14
 -1       496 1.98924E+01-3.35327E-02-8.72811E-05 1.35950E-01 3.46076E-14-1.03784E-13
 -1       497 1.99132E+01-2.81638E-02-7.25920E-05 1.18278E-01-3.12948E-14-1.33326E-13
 -1       498 1.99339E+01-2.06667E-02-5.33947E-05 1.04181E-01-8.54605E-14-1.00175E-13
 -1       499 1.99546E+01-1.14601E-02-3.05533E-05 9.51933E-02-1.13955E-13-5.89658E-14
 -1       500 1.99759E+01-6.86386E-04-4.30224E-06 9.25916E-02-1.90400E-13-7.96446E-14
 -1       501 1.99988E+01 1.17033E-02 2.55431E-05 9.75598E-02-7.43394E-14-2.05564E-13
 -1       502 2.00246E+01 2.58656E-02 5.93814E-05 1.11298E-01-1.18970E-13-1.59649E-13
 -1       503 2.00549E+01 4.19728E-02 9.75789E-05 1.35067E-01-8.45530E-14-4.98676E-14
 -1       504 2.00914E+01 6.00958E-02 1.40147E-04 1.70171E-01 1.61044E-14-1.16857E-13
 -1       505 2.01364E+01 8.00452E-02 1.86290E-04 2.17843E-01 1.58433E-13-1.07413E-13
 -1       506 2.01921E+01 1.01148E-01 2.33746E-04 2.79031E-01 2.41744E-13-1.52838E-13
 -1       507 2.02610E+01 1.21931E-01 2.77866E-04 3.54022E-01 3.98157E-14-1.34679E-13
 -1       508 2.03460E+01 1.39691E-01 3.10371E-04 4.41868E-01-2.43611E-14-1.26828E-13
 -1       509 2.04502E+01 1.49932E-01 3.17833E-04 5.39556E-01-1.87738E-13-2.29820E-13
 -1       510 2.05774E+01 1.45711E-01 2.80175E-04 6.40864E-01-7.19826E-14-8.73989E-14
 -1       511 2.07322E+01 1.17054E-01 1.69841E-04 7.34882E-01 7.82073E-15-1.05944E-13
 -1       512 2.09204E+01 5.08542E-02-4.68645E-05 8.04276E-01 3.55874E-14-2.19140E-13
 -1       513 2.11490E+01-6.78514E-02-4.02277E-04 8.23572E-01-2.27079E-14-2.58623E-13
 -1       514 2.14255E+01-2.51543E-01-9.00870E-04 7.58242E-01 8.26685E-14-8.24994E-14
 -1       515 2.17532E+01-5.00432E-01-1.46270E-03 5.66459E-01 3.27707E-14-5.30656E-14
 -1       516 2.21223E+01-7.85560E-01-1.94847E-03 2.07291E-01 2.16251E-14-9.00734E-14
 -1       517 2.24948E+01-1.02712E+00-2.02768E-03-3.39825E-01 2.70660E-15-1.45264E-13
 -1       518 2.27864E+01-1.07875E+00-9.84411E-04-1.03585E+00-1.25714E-13 5.45368E-14
 -1       519 2.28741E+01-7.66887E-01-8.97567E-04-1.72558E+00-7.82594E-14 2.48245E-13
 -1       520 2.26689E+01-1.58916E-02-2.13272E-03-2.12417E+00-1.14383E-13 6.32385E-14
 -1       521 2.22353E+01 9.85576E-01-2.30836E-03-1.90578E+00-1.56885E-13-1.71160E-13
 -1       522 2.18372E+01 1.73473E+00-4.18902E-03-1.01033E+00 5.74905E-14-2.49737E-13
 -1       523 2.17650E+01 1.74355E+00-3.16518E-03 2.08988E-01 1.34225E-13 2.17872E-14
 -1       524 2.20196E+01 1.00656E+00-2.91718E-03 1.12428E+00-5.68627E-14 4.13364E-13
 -1       525 2.23264E+01 4.90568E-03-1.22458E-03 1.36073E+00-7.48305E-14 1.75520E-13
 -1       526 2.24081E+01-7.38358E-01-1.18926E-03 9.78603E-01 3.49279E-13-2.02989E-13
 -1       527 2.21889E+01-9.99644E-01-1.66881E-03 3.17543E-01 2.33332E-14-1.97216E-13
 -1       528 2.17562E+01-8.41240E-01-1.63239E-03-3.03641E-01 1.84142E-13-8.03850E-14
 -1       529 2.12385E+01-4.38655E-01-2.88493E-04-6.94515E-01-1.37803E-13-2.06088E-14
 -1       530 1.98090E+01 1.28752E-01 9.88406E-04-1.91326E-02 1.10724E-13 3.08570E-14
 -1       531 1.97509E+01 5.93542E-02 3.62214E-04-1.17509E-01 6.35489E-14-8.08273E-17
 -1       532 1.97319E+01 1.76537E-02 8.26801E-05-1.65550E-01 9.21962E-14-4.01470E-14
 -1       533 1.97378E+01-6.97781E-03-5.24470E-05-1.82202E-01 5.49060E-14-1.25247E-14
 -1       534 1.97581E+01-2.06187E-02-1.20929E-04-1.79871E-01 5.81915E-14 1.54672E-14
 -1       535 1.97858E+01-2.70119E-02-1.51148E-04-1.66854E-01 1.08081E-13-3.62274E-15
 -1       536 1.98164E+01-2.85747E-02-1.56850E-04-1.48765E-01 7.63844E-14 5.43629E-14
 -1       537 1.98471E+01-2.68951E-02-1.46201E-04-1.29428E-01 4.16291E-14 6.52632E-14
 -1       538 1.98767E+01-2.29966E-02-1.24490E-04-1.11473E-01-1.49275E-14 7.57120E-14
 -1       539 1.99048E+01-1.74957E-02-9.48931E-05-9.67673E-02-5.69089E-14 8.18669E-14
 -1       540 1.99319E+01-1.07025E-02-5.89820E-05-8.67235E-02 5.99853E-14-3.41089E-14
 -1       541 1.99588E+01-2.68743E-03-1.71273E-05-8.25377E-02 1.94180E-13-8.09536E-14
 -1       542 1.99870E+01 6.67124E-03 3.12854E-05-8.53757E-02 1.61059E-13 1.19808E-13
 -1       543 2.00185E+01 1.76511E-02 8.76466E-05-9.65179E-02 2.43053E-14 1.79048E-13
 -1       544 2.00553E+01 3.06550E-02 1.53956E-04-1.17472E-01-9.52739E-14 1.21780E-13
 -1       545 2.01003E+01 4.61799E-02 2.32612E-04-1.50051E-01 9.43895E-14 1.06849E-13
 -1       546 2.01563E+01 6.47722E-02 3.26091E-04-1.96422E-01 1.07341E-13-1.07461E-13
 -1       547 2.02267E+01 8.69526E-02 4.36351E-04-2.59092E-01 1.09744E-13-7.39783E-14
 -1       548 2.03153E+01 1.13075E-01 5.63703E-04-3.40814E-01 3.37940E-14-6.38735E-14
 -1       549 2.04260E+01 1.43063E-01 7.04714E-04-4.44342E-01-1.09048E-13-1.59997E-13
 -1       550 2.05629E+01 1.75915E-01 8.48472E-04-5.71934E-01-6.66600E-14-3.09999E-13
 -1       551 2.07301E+01 2.08838E-01 9.70389E-04-7.24420E-01-8.17709E-14-3.17908E-13
 -1       552 2.09319E+01 2.35763E-01 1.02291E-03-8.99580E-01 8.16353E-15-4.04769E-13
 -1       553 2.11736E+01 2.45023E-01 9.24085E-04-1.08945E+00-1.08698E-14-3.06031E-13
 -1       554 2.14626E+01 2.16159E-01 5.46326E-04-1.27607E+00 1.11333E-14-2.78142E-13
 -1       555 2.18117E+01 1.16692E-01-2.85088E-04-1.42535E+00-1.16385E-14-2.53179E-13
 -1       556 2.22431E+01-9.77831E-02-1.75224E-03-1.47917E+00-1.59303E-13-1.89513E-13
 -1       557 2.27893E+01-4.71678E-01-3.89233E-03-1.34814E+00-2.14673E-13 9.48476E-14
 -1       558 2.34817E+01-1.01008E+00-6.23367E-03-9.13333E-01-1.05740E-13 4.51465E-14
 -1       559 2.43102E+01-1.59264E+00-4.91813E-03-5.52962E-02 2.67184E-14 3.53117E-13
 -1       560 2.51093E+01-1.85393E+00-8.25716E-03 1.22730E+00 9.01720E-15 3.64144E-13
 -1       561 2.55747E+01-1.30786E+00-2.17512E-02 2.58271E+00-4.07474E-14 2.66731E-13
 -1       562 2.53461E+01 5.01462E-01-3.66585E-02 3.18825E+00-2.52888E-13 2.85945E-13
 -1       563 2.47022E+01 2.56115E+00-6.19309E-02 2.15864E+00-4.27408E-13 2.54967E-13
 -1       564 2.43756E+01 3.09688E+00-7.20516E-02-1.61711E-01-1.64011E-13-4.07484E-14
 -1       565 2.47614E+01 1.62092E+00-4.95945E-02-2.00457E+00 2.11485E-13 7.07438E-14
 -1       566 2.50761E+01-5.00822E-01-3.10375E-02-2.17685E+00 2.95358E-13-1.03098E-13
 -1       567 2.47609E+01-1.71583E+00-1.07640E-02-1.06043E+00 2.94566E-13-2.53641E-13
 -1       568 2.38971E+01-1.78735E+00-6.75176E-03 3.24686E-01 5.18541E-13-2.19474E-13
 -1       569 2.28784E+01-1.22527E+00-6.09177E-03 1.36187E+00 2.88339E-13-9.98317E-14
 -1       570 2.19582E+01-4.85567E-01-1.06612E-03 1.87754E+00-9.61264E-14 2.06201E-13
 -1       571 2.11828E+01 2.15634E-01 1.17625E-03 1.90509E+00-3.01107E-14 3.77706E-13
 -1       572 1.89155E+01 1.96539E+00-2.97445E-03 2.55525E+00 2.18331E-13-3.09620E-13
 -1       573 1.80569E+01 2.60778E+00-1.98291E-03 1.54299E+00 1.79754E-13 2.51315E-13
 -1       574 2.06214E+01 6.72653E-01 1.03534E-03 2.63262E+00-6.51365E-14-7.00127E-13
 -1       575 1.98724E+01 1.24734E+00-1.34303E-03 2.87717E+00 4.88461E-14-5.35851E-13
 -1       576 1.77170E+01 2.85978E+00-1.53656E-03 4.45733E-02-6.92615E-14-7.74864E-14
 -1       577 1.80814E+01 2.57898E+00-1.70831E-03-1.44792E+00-1.41006E-13 1.21983E-13
 -1       578 1.89509E+01 1.90646E+00-1.33221E-03-2.44866E+00 8.45732E-15 7.17586E-13
 -1       579 1.98982E+01 1.14891E+00-5.44736E-04-2.75485E+00 2.56733E-13-6.49431E-14
 -1       580 2.06086E+01 5.29062E-01 1.03401E-03-2.49057E+00 1.23882E-13 1.40159E-13
 -1       581 2.09415E+01 1.45315E-01 2.76970E-03-1.91766E+00 1.41098E-13 5.84695E-14
 -1       582 2.09379E+01-1.53318E-02-1.16455E-03-1.27446E+00-4.28786E-15 9.13589E-14
 -1       583 6.33190E+00-1.47870E+00 2.16890E-01 2.25044E+00-4.64503E-13 1.21694E-13
 -1       584 6.17610E+00-2.13421E+00 1.76100E-01-3.42112E+00 1.18031E-14 9.38388E-13
 -1       585 1.99240E+01 2.46163E-01 2.43586E-03 1.59104E-01 1.75182E-13 6.23989E-14
 -1       586 1.99079E+01-6.09365E+00 9.69279E-02 7.01248E+00 8.09477E-13-3.12454E-13
 -1       587 2.03942E+01 1.76885E+00-5.38259E-03-1.54555E+00-2.65669E-13-2.58610E-13
 -1       588 3.00753E+01-3.37469E+00-6.76439E-02 9.93493E-01 1.52014E-13-3.02855E-13
 -1       589 3.02927E+01 6.82637E+00-1.92042E-01-1.49477E+00-7.46070E-14 4.54390E-13
 -1       590 5.56060E+00-2.10041E+00 1.72079E-01 3.37219E+00-4.85514E-14 5.30187E-13
 -1       591 1.96809E+01 3.19784E+00-5.09785E-03-3.12973E-01 3.12002E-14-4.01557E-13
 -1       592 3.20707E+01 7.34273E+00-1.66565E-01 8.30235E-01 2.85466E-14-7.02757E-13
 -1       593 3.13465E+01 5.93148E+00-1.79478E-01-1.15681E+00-6.02296E-14-5.20792E-13
 -1       594 3.13552E+01 5.35504E+00-1.62835E-01 2.36818E+00 5.07511E-14-7.57241E-13
 -1       595 2.80815E+01-4.79116E+00-6.82955E-02-1.44144E+00-1.71443E-13-1.98105E-13
 -1       596 2.55983E+01-5.39833E+00 9.21522E-03 3.46951E+00 1.67227E-14 1.25566E-13
 -1       597 2.38197E+01-6.17585E+00 4.05161E-02-4.34075E+00-4.56572E-13-3.30048E-13
 -1       598 7.21107E+00-2.85416E+00 1.69892E-01-4.43602E+00-1.69920E-13-1.78454E-13
 -1       599 4.64075E+00-1.64489E+00 1.92257E-01-5.52034E-01-1.09943E-13 2.07112E-13
 -1       600 1.21022E+01-3.89203E+00 1.52124E-01 6.70136E+00-1.36571E-13 5.56222E-14
 -1       601 1.91937E+01-5.70472E+00 8.44630E-02 6.46953E+00 3.34524E-14-2.49906E-13
 -1       602 3.09809E+01 3.67603E+00-1.52128E-01-2.05546E+00-1.31034E-13 3.17545E-13
 -1       603 2.71222E+01-5.38676E+00-1.98281E-02-3.85719E+00-6.72171E-14-1.03278E-13
 -1       604 3.06032E+01 3.41834E+00-1.70820E-01 1.61128E+00-7.74589E-14-4.77549E-13
 -1       605 3.06802E+01-1.13889E+00-8.04221E-02 4.90836E-02-1.98903E-13-5.87065E-13
 -1       606 2.02270E+01-6.29173E+00 6.76139E-02-7.09550E+00 5.38583E-13 8.10819E-13
 -1       607 1.17552E+01-4.69792E+00 1.26636E-01-7.28374E+00 7.08072E-13 1.42322E-12
 -1       608 2.05852E+01 1.30519E+00-9.98558E-04 1.54801E+00 3.50993E-13 1.39280E-13
 -1       609 2.55197E+01-6.15084E+00 7.38588E-03 4.72417E+00 4.88914E-13-1.78794E-13
 -1       610 1.99821E+01 2.66182E+00-6.24551E-03-1.25804E+00-1.55551E-13-3.97377E-13
 -1       611 9.93789E+00-1.74164E+00 1.55576E-01 4.68598E+00-3.13027E-13-7.54966E-13
 -1       612 2.77360E+01-4.00887E+00-5.51314E-02 7.23372E-01-8.40647E-15 3.21958E-13
 -1       613 1.24169E+01-3.39877E+00 1.23369E-01-5.70882E+00-7.09641E-14-3.82791E-13
 -1       614 2.99633E+01 1.98507E+00-1.21087E-01 3.16027E+00-1.47563E-13-6.19026E-13
 -1       615 2.91954E+01-2.77948E+00-4.20690E-02 1.55573E+00-1.63810E-13-3.68594E-13
 -1       616 2.08806E+01-1.18152E-01 3.54738E-05-7.88689E-01-4.70432E-14 1.00386E-13
 -1       617 1.99607E+01 2.44871E+00-1.57369E-03 3.94499E-01 1.69351E-13-3.16540E-13
 -1       618 1.99287E+01 2.52380E+00-1.50838E-03 1.35752E-01 1.05022E-13-3.35663E-13
 -1       619 2.01207E+01 2.04560E+00-1.59733E-03 8.50558E-01 2.36144E-13-2.34672E-13
 -1       620 2.02386E+01 1.67581E+00-2.23152E-03 9.92382E-01 2.62588E-13-1.41072E-13
 -1       621 2.03192E+01 1.03643E+00 2.91227E-03 8.31701E-01 2.50737E-13-5.60334E-14
 -1       622 2.02053E+01 6.14564E-01 1.11962E-03 4.20990E-01 1.90547E-13-1.90605E-14
 -1       623 2.80474E+01-3.85078E+00-3.82898E-02-8.52217E-01 4.80059E-14-6.23317E-13
 -1       624 2.42909E+01-5.82680E+00 2.60769E-02-4.88684E+00 4.95496E-13 7.76532E-14
 -1       625 2.02428E+01 6.67898E-01 1.22735E-03-3.92270E-01-1.28189E-13-2.06690E-13
 -1       626 2.01672E+01 3.91256E-01 1.95034E-04-1.39872E-01-1.40154E-13-1.93169E-13
 -1       627 2.01017E+01 2.11952E-01 6.12196E-05 2.12914E-02-1.07824E-13-1.84961E-13
 -1       628 2.00514E+01 9.78612E-02 7.21605E-06 1.16125E-01-1.17821E-13-2.03609E-13
 -1       629 2.00165E+01 2.64539E-02-1.55485E-05 1.64886E-01-5.59205E-14-1.54022E-13
 -1       630 1.99941E+01-1.63870E-02-2.62777E-05 1.83193E-01-1.49518E-14-1.23455E-13
 -1       631 1.99814E+01-3.98437E-02-3.11422E-05 1.82488E-01-3.38781E-14-6.74559E-14
 -1       632 1.99755E+01-5.00766E-02-3.21400E-05 1.70985E-01-1.74430E-14-9.42480E-14
 -1       633 1.99744E+01-5.12629E-02-3.02481E-05 1.54507E-01-3.43868E-14-9.78430E-14
 -1       634 1.99766E+01-4.62024E-02-2.62590E-05 1.37172E-01-2.98122E-14-1.55224E-13
 -1       635 1.99810E+01-3.66999E-02-2.07276E-05 1.21919E-01-3.02803E-14-1.18025E-13
 -1       636 1.99872E+01-2.38267E-02-1.40373E-05 1.10918E-01-3.28952E-14-1.00184E-13
 -1       637 1.99949E+01-8.11167E-03-6.33860E-06 1.05873E-01-1.74679E-13-9.36824E-14
 -1       638 2.00039E+01 1.03058E-02 2.38292E-06 1.08253E-01-2.03860E-13-1.43530E-14
 -1       639 2.00144E+01 3.15386E-02 1.22631E-05 1.19451E-01-2.34261E-14 8.08690E-14
 -1       640 2.00268E+01 5.58115E-02 2.34810E-05 1.40881E-01-1.58404E-14 9.43594E-14
 -1       641 2.00415E+01 8.32978E-02 3.61810E-05 1.74006E-01-1.31107E-13 1.43416E-13
 -1       642 2.00592E+01 1.13911E-01 5.03682E-05 2.20294E-01 1.84536E-14 1.23528E-14
 -1       643 2.00805E+01 1.47024E-01 6.57575E-05 2.81084E-01 1.37511E-13-1.18865E-13
 -1       644 2.01068E+01 1.81078E-01 8.15535E-05 3.57339E-01 1.13321E-13-2.00537E-13
 -1       645 2.01397E+01 2.13059E-01 9.61321E-05 4.49254E-01-1.64727E-15-2.35714E-13
 -1       646 2.01818E+01 2.37789E-01 1.06593E-04 5.55683E-01-1.37722E-13-1.95203E-13
 -1       647 2.02376E+01 2.47070E-01 1.08137E-04 6.73349E-01-3.50856E-14-1.32195E-13
 -1       648 2.03139E+01 2.28742E-01 9.31895E-05 7.95757E-01-3.10763E-14-1.19878E-13
 -1       649 2.04218E+01 1.65973E-01 4.99520E-05 9.11769E-01-3.57786E-14-3.11549E-14
 -1       650 2.05785E+01 3.74650E-02-3.98915E-05 1.00370E+00-2.98055E-14 2.04135E-15
 -1       651 2.08078E+01-1.79933E-01-1.99102E-04 1.04482E+00 1.01423E-13 8.94262E-14
 -1       652 2.11403E+01-5.03358E-01-4.10652E-04 9.96269E-01 1.13562E-13-5.21184E-14
 -1       653 2.16051E+01-9.26326E-01-5.21321E-04 8.04932E-01 6.86019E-14 1.70505E-14
 -1       654 2.22098E+01-1.38822E+00-7.46668E-04 4.08797E-01-1.81440E-13-3.51781E-14
 -1       655 2.29160E+01-1.74067E+00-6.79945E-04-2.43975E-01-1.12285E-15-1.62186E-13
 -1       656 2.35697E+01-1.69230E+00 1.01538E-03-1.13113E+00-7.79303E-14-2.20120E-13
 -1       657 2.39334E+01-9.50458E-01-7.35812E-03-2.02018E+00-3.06674E-13-1.93192E-13
 -1       658 2.38315E+01 5.78628E-01-1.01371E-02-2.46631E+00-2.06370E-13-5.00544E-14
 -1       659 2.33338E+01 2.31529E+00-2.75330E-02-1.90425E+00-1.24507E-13 3.57570E-14
 -1       660 2.30776E+01 3.07643E+00-2.63132E-02-4.51406E-01 1.37515E-13-6.85142E-14
 -1       661 2.32772E+01 2.35286E+00-2.84208E-02 1.03486E+00 7.91528E-14-1.72902E-13
 -1       662 2.37352E+01 6.13638E-01-6.88637E-03 1.61736E+00-1.56638E-13-2.19076E-13
 -1       663 2.38231E+01-9.12423E-01-5.75301E-03 1.20379E+00-1.07910E-13-1.46433E-13
 -1       664 2.34295E+01-1.63031E+00-1.99334E-03 3.14608E-01 9.27720E-14-3.59655E-13
 -1       665 2.26999E+01-1.54983E+00-1.84932E-03-5.40326E-01 1.77250E-13-5.01544E-13
 -1       666 2.19015E+01-1.00030E+00-9.14003E-04-1.09498E+00 2.18523E-13-2.46640E-13
 -1       667 1.99727E+01 8.75667E-02 5.58368E-05-1.18500E-01 1.04114E-13-6.80321E-15
 -1       668 1.80578E+01-4.47961E+00 9.16491E-02-6.74157E+00 4.74738E-13 8.69745E-13
 -1       669 2.00264E+01 1.88982E-01 1.68825E-04-2.01759E-02 1.00677E-13 2.82830E-14
 -1       670 1.99252E+01-1.29593E-02-2.88916E-05-1.86813E-01 3.60244E-14-9.34276E-14
 -1       671 1.99208E+01-3.36990E-02-4.41416E-05-1.85687E-01 1.12458E-13-1.00679E-13
 -1       672 1.99237E+01-4.30180E-02-5.01761E-05-1.73471E-01 5.07691E-14-4.23867E-14
 -1       673 1.99311E+01-4.45811E-02-4.96547E-05-1.56076E-01 3.48350E-14-2.17117E-14
 -1       674 1.99412E+01-4.08265E-02-4.46360E-05-1.37635E-01 4.85923E-14 2.14838E-14
 -1       675 1.99529E+01-3.33141E-02-3.64164E-05-1.21079E-01-4.77165E-14-3.23343E-14
 -1       676 1.99657E+01-2.29567E-02-2.57166E-05-1.08562E-01 4.15135E-14-1.13508E-13
 -1       677 1.99795E+01-1.01693E-02-1.28756E-05-1.01780E-01 6.77377E-14-1.52700E-14
 -1       678 1.99946E+01 5.02477E-03 2.18586E-06-1.02227E-01 2.80139E-14 1.48563E-13
 -1       679 2.00115E+01 2.29122E-02 1.98251E-05-1.11388E-01 5.58938E-14 2.40458E-13
 -1       680 2.00309E+01 4.40228E-02 4.06619E-05-1.30885E-01 4.80947E-14 2.56584E-13
 -1       681 2.00537E+01 6.90685E-02 6.55222E-05-1.62581E-01 5.91631E-14 8.95424E-14
 -1       682 2.00809E+01 9.88705E-02 9.53669E-05-2.08638E-01 1.06800E-13 2.15284E-13
 -1       683 2.01133E+01 1.34254E-01 1.31177E-04-2.71525E-01 1.42214E-13 2.74574E-13
 -1       684 2.01518E+01 1.75872E-01 1.73740E-04-3.53959E-01 1.84163E-13 6.65063E-14
 -1       685 2.01969E+01 2.23890E-01 2.23232E-04-4.58738E-01 7.63379E-15-1.28007E-14
 -1       686 2.02492E+01 2.77436E-01 2.78437E-04-5.88431E-01-5.46248E-14 4.50065E-14
 -1       687 2.03089E+01 3.33625E-01 3.35308E-04-7.44837E-01-6.40074E-14-8.71529E-14
 -1       688 2.03770E+01 3.85942E-01 3.84394E-04-9.28118E-01 4.08423E-14-7.51572E-14
 -1       689 2.04563E+01 4.21634E-01 4.06294E-04-1.13547E+00-5.58786E-14-1.01394E-14
 -1       690 2.05551E+01 4.17875E-01 3.65744E-04-1.35913E+00-1.58313E-14-1.68030E-14
 -1       691 2.06925E+01 3.36830E-01 1.94583E-04-1.58326E+00-6.53766E-14 1.03346E-13
 -1       692 2.09080E+01 1.21377E-01-2.40581E-04-1.77889E+00-1.18712E-13 1.85427E-13
 -1       693 2.12743E+01-3.02709E-01-1.12162E-03-1.89472E+00-1.86747E-13-5.85022E-15
 -1       694 2.19051E+01-1.00322E+00-2.42525E-03-1.84022E+00-1.66673E-13-1.31655E-13
 -1       695 2.29336E+01-1.96432E+00-3.88951E-03-1.46022E+00-1.63458E-13-1.20057E-13
 -1       696 2.44494E+01-2.97065E+00 1.03637E-03-5.25564E-01 5.41320E-14-1.62346E-13
 -1       697 2.61138E+01-3.01821E+00-2.88934E-02 1.10304E+00-3.14922E-14-1.96868E-13
 -1       698 2.72610E+01 2.25492E+00-1.13798E-01 3.25394E+00-2.31939E-13 1.24673E-13
 -1       699 2.68939E+01 4.99415E+00-1.56792E-01 1.30140E+00-1.21229E-13-3.48620E-13
 -1       700 2.70187E+01 4.03177E+00-1.43536E-01-1.56661E+00-2.49800E-16-4.95321E-13
 -1       701 2.72381E+01 4.06165E-01-7.92359E-02-2.40851E+00 8.74162E-14-3.01911E-13
 -1       702 2.64788E+01-2.32536E+00-6.19066E-02-1.20551E+00 4.05084E-13-3.52033E-13
 -1       703 2.50633E+01-3.02255E+00-8.31683E-03 5.54642E-01 4.06971E-13-4.87371E-13
 -1       704 2.34258E+01-2.28774E+00-3.95854E-03 1.83578E+00 3.40023E-13-3.82058E-13
 -1       705 2.21521E+01-1.17214E+00 1.48242E-03 2.43166E+00-1.22739E-14-9.03713E-14
 -1       706 2.12682E+01-2.86639E-01 4.84510E-04 2.71181E+00 4.86557E-14-5.72492E-13
 -1       707 9.05832E+00-7.03305E-02 1.65921E-01-9.04822E-01-1.96848E-13 2.95111E-13
 -1       708 1.62540E+01 1.88846E+00 7.31323E-03-1.03786E+00-2.58764E-14 1.19752E-14
 -1       709 1.74623E+01 1.26778E+00 5.24863E-03 2.76933E+00 2.09431E-13-3.80424E-13
 -1       710 1.74882E+01 1.18620E+00 6.24573E-03-2.71795E+00 2.91796E-13 4.32809E-13
 -1       711 1.62318E+01 1.91927E+00 7.16340E-03 1.08809E+00-1.36138E-13-5.36897E-16
 -1       712 1.92004E+01 2.61810E-01 4.78955E-03-3.40857E+00 3.36897E-13 5.87846E-13
 -1       713 2.06570E+01-4.52933E-01 1.76238E-03-3.18327E+00 2.77461E-13-1.82050E-13
 -1       714 2.14381E+01-7.57817E-01 1.42711E-03-2.44556E+00 3.43525E-13 2.03869E-13
 -1       715 2.88286E+01-1.77261E+00-6.78179E-02-1.30713E+00 1.30980E-13-2.28192E-13
 -1       716 2.27141E+01-5.31359E+00 3.52772E-02 4.28565E+00 2.15756E-13 1.75997E-13
 -1       717 7.93207E+00-2.70391E-01 1.52395E-01 1.35091E+00-4.85107E-14 6.23390E-13
 -1       718 2.76076E+01 5.43779E+00-1.81526E-01-1.36626E-01-3.80945E-14-4.55704E-13
 -1       719 2.02974E+01 1.42629E+00 9.66365E-04-9.75419E-01-1.73478E-13-2.85898E-13
 -1       720 2.88823E+01 8.05007E-02-1.02994E-01-2.15207E+00-1.05967E-13 4.21878E-13
 -1       721 2.01049E+01 3.52697E-01 5.73570E-04 1.49902E-01 1.49392E-13 1.64975E-14
 -1       722 1.99408E+01 2.46756E-02 5.14344E-07-1.68412E-01 7.89024E-14-1.78887E-14
 -1       723 1.05981E+01-1.49386E+00 1.25868E-01 4.66025E+00-2.17899E-13 1.72945E-13
 -1       724 1.21330E+01-2.01487E+00 1.39668E-01-5.60094E+00 2.46404E-13 1.26072E-12
 -1       725 2.03697E+01-5.21202E+00 3.11890E-02-4.92498E+00-2.22579E-13-3.85228E-13
 -1       726 2.00243E+01 2.29431E+00-1.65860E-03 6.37957E-01 2.18430E-13-2.77858E-13
 -1       727 2.77521E+01 6.48886E+00-1.73831E-01-2.07821E-01 3.01335E-13-2.32011E-13
 -1       728 2.00191E+01 2.30412E+00-1.74085E-03-6.29734E-01-5.21923E-14-3.69398E-13
 -1       729 2.60375E+01-5.40053E+00-2.84508E-02-1.73235E+00-1.84221E-13-4.05906E-13
 -1       730 2.77045E+01 4.75447E+00-1.44887E-01 1.50485E+00-2.16632E-14-3.90014E-13
 -1       731 1.73905E+01-3.98945E+00 8.80513E-02 5.86243E+00-3.42087E-15-6.61381E-14
 -1       732 2.72805E+01 4.12494E+00-1.25854E-01-2.44695E+00-1.20931E-13 2.41751E-14
 -1       733 1.62234E+01-3.95618E+00 1.27449E-01 6.67942E+00 6.33459E-13-6.51094E-13
 -1       734 8.47779E+00-7.63147E-01 1.61362E-01-2.51981E+00-5.50809E-14-1.23707E-13
 -1       735 2.13978E+01-5.07333E-01 2.36967E-03-1.25572E+00 1.38446E-13-1.23157E-13
 -1       736 2.84603E+01 1.10899E-01-1.06255E-01 1.61871E+00-2.02702E-13-4.39735E-13
 -1       737 2.36430E+01-5.57650E+00 2.86649E-02 4.71757E+00 6.40904E-13-4.88545E-13
 -1       738 2.74198E+01-4.94109E+00-1.88341E-02 1.83869E+00 4.83037E-13-3.22464E-13
 -1       739 2.01099E+01 2.06552E+00-2.72648E-03-8.47787E-01-1.11112E-13-3.49306E-13
 -1       740 1.99277E+01 2.52546E+00-1.51028E-03-1.26642E-01 4.01458E-14-3.42211E-13
 -1       741 2.04058E+01-4.14760E+00 5.57308E-02 5.56121E+00 6.77583E-13-5.99260E-13
 -1       742 2.56438E+01 4.75679E+00-9.10259E-02-1.55713E+00 1.06855E-13-2.40409E-13
 -1       743 2.65499E+01 1.93841E+00-8.40395E-02 1.99471E+00-7.81354E-14-2.58561E-14
 -1       744 2.74934E+01-7.80884E-01-6.53293E-02 3.17293E+00-1.98598E-13 1.58333E-13
 -1       745 1.03538E+01 7.14826E-02 1.14599E-01 1.71217E+00-3.47323E-13-3.73659E-14
 -1       746 2.02965E+01 3.96057E-02-2.62984E-04 3.30369E+00 1.85997E-13-4.30905E-13
 -1       747 2.50990E+01-4.85198E+00-1.21949E-02 2.25644E+00 8.60544E-14 4.74344E-13
 -1       748 2.18205E+01-9.97277E-01 2.41744E-03-1.78176E+00 2.87421E-13-1.75517E-13
 -1       749 1.18192E+01-1.42482E+00 1.06470E-01-4.18199E+00-1.56802E-14-5.05998E-13
 -1       750 1.75684E+01-3.59011E+00 9.44145E-02-5.14652E+00-1.66117E-14-5.57037E-14
 -1       751 1.99575E+01 2.45453E+00-1.57329E-03-3.84455E-01-5.89399E-15-3.58523E-13
 -1       752 1.89899E+01 5.69772E-01 4.46422E-04 3.38724E+00 2.43013E-13-2.87437E-13
 -1       753 2.02643E+01 1.30734E+00-3.56515E-06 6.31172E-01 1.94869E-13-1.73852E-13
 -1       754 1.03465E+01 3.39947E-01 9.22610E-02-7.08677E-01 9.76693E-15 1.54855E-13
 -1       755 2.57085E+01-4.70605E+00-1.22345E-02-2.48456E+00 2.74244E-13-3.94333E-13
 -1       756 2.02623E+01 4.32239E-01-4.71285E-05-9.45604E-02-1.03332E-13-1.95740E-13
 -1       757 2.02222E+01 2.33684E-01-1.93146E-05 3.48070E-02-1.19750E-13-1.32055E-13
 -1       758 2.01809E+01 1.03628E-01-1.53113E-05 1.11983E-01-7.84938E-14-1.39593E-13
 -1       759 2.01435E+01 2.11245E-02-1.19783E-05 1.51722E-01-6.66496E-15-1.68283E-13
 -1       760 2.01118E+01-2.81673E-02-9.62992E-06 1.66186E-01-6.49582E-15-2.22539E-13
 -1       761 2.00861E+01-5.43194E-02-8.68395E-06 1.64806E-01 1.54806E-14-1.27204E-13
 -1       762 2.00657E+01-6.43980E-02-8.13058E-06 1.54581E-01-1.74385E-15-7.02155E-14
 -1       763 2.00501E+01-6.32986E-02-7.42336E-06 1.40602E-01-4.07713E-14 2.31278E-14
 -1       764 2.00383E+01-5.43134E-02-6.21859E-06 1.26555E-01-4.89955E-14-6.27457E-14
 -1       765 2.00296E+01-3.95387E-02-4.69613E-06 1.15141E-01-8.12571E-14-1.03718E-13
 -1       766 2.00232E+01-2.01735E-02-2.95844E-06 1.08421E-01-8.13244E-14-2.23923E-14
 -1       767 2.00183E+01 3.24664E-03-1.06387E-06 1.08075E-01-1.66157E-13 7.49594E-14
 -1       768 2.00144E+01 3.06498E-02 1.03555E-06 1.15611E-01-1.10414E-13 2.01212E-13
 -1       769 2.00107E+01 6.22367E-02 3.41178E-06 1.32496E-01-9.43349E-17 1.35679E-13
 -1       770 2.00065E+01 9.82771E-02 6.14777E-06 1.60240E-01-1.99846E-14 5.34811E-14
 -1       771 2.00013E+01 1.38868E-01 9.33033E-06 2.00413E-01-1.19599E-13 8.23864E-14
 -1       772 1.99944E+01 1.83625E-01 1.30393E-05 2.54605E-01-1.85807E-15 8.85234E-14
 -1       773 1.99856E+01 2.31268E-01 1.73325E-05 3.24311E-01 1.01166E-13-2.64741E-14
 -1       774 1.99751E+01 2.79067E-01 2.22270E-05 4.10737E-01-3.18408E-15-7.92573E-14
 -1       775 1.99642E+01 3.22107E-01 2.76717E-05 5.14512E-01-6.00663E-14-1.78974E-13
 -1       776 1.99560E+01 3.52352E-01 3.34618E-05 6.35298E-01-1.07362E-14-1.72840E-13
 -1       777 1.99566E+01 3.57521E-01 3.88956E-05 7.71257E-01 6.15339E-14-2.97908E-14
 -1       778 1.99769E+01 3.19920E-01 4.17207E-05 9.18289E-01 9.79896E-14-6.49789E-14
 -1       779 2.00355E+01 2.15576E-01 3.48124E-05 1.06884E+00 1.95135E-14 1.77062E-13
 -1       780 2.01616E+01 1.44971E-02-1.79797E-06 1.20978E+00 5.39692E-15 2.41886E-13
 -1       781 2.03989E+01-3.16122E-01-1.04206E-04 1.31814E+00-9.07564E-14 8.07251E-14
 -1       782 2.08062E+01-8.01298E-01-1.53908E-04 1.35313E+00 2.35312E-14-9.94716E-14
 -1       783 2.14506E+01-1.43227E+00 4.95025E-04 1.24355E+00-1.45422E-13-3.37110E-13
 -1       784 2.23727E+01-2.10999E+00 1.03905E-03 8.77309E-01-1.82201E-13-3.48262E-13
 -1       785 2.35570E+01-2.58412E+00-1.01466E-02 9.83146E-02-1.75638E-13-5.93101E-13
 -1       786 2.47376E+01-2.41417E+00-1.29699E-02-1.04616E+00-1.43600E-13-4.93929E-13
 -1       787 2.53587E+01-8.23798E-01-2.99954E-02-2.23153E+00-2.10705E-13-7.39237E-14
 -1       788 2.49513E+01-2.35230E+00-1.22609E-02 2.46874E-01 7.69979E-14 4.98180E-14
 -1       789 2.37667E+01-2.45885E+00-1.12150E-03-9.56967E-01-1.59862E-13-1.49511E-14
 -1       790 2.26994E+01-1.83457E+00-4.45527E-04-1.54208E+00 6.84055E-14-1.95518E-13
 -1       791 2.00420E+01-4.80606E-02-1.31184E-05-1.74074E-01 2.66618E-14-6.27719E-14
 -1       792 2.00622E+01-2.30497E-02-1.23329E-05-1.75379E-01 4.08802E-14-1.27795E-13
 -1       793 2.00187E+01-5.83193E-02-1.23056E-05-1.47795E-01-1.15187E-14-5.64946E-14
 -1       794 2.00131E+01-5.11833E-02-1.08819E-05-1.32152E-01 1.78752E-14-3.39576E-14
 -1       795 2.00103E+01-3.88116E-02-8.51684E-06-1.18985E-01 2.60088E-15 2.07392E-14
 -1       796 2.00098E+01-2.22844E-02-5.56047E-06-1.10446E-01 6.95786E-15 4.12498E-14
 -1       797 2.00108E+01-2.01182E-03-1.95731E-06-1.08297E-01-2.10284E-14 5.05665E-14
 -1       798 2.00131E+01 2.21146E-02 2.27950E-06-1.14140E-01-1.60614E-14 7.81101E-15
 -1       799 2.00161E+01 5.06051E-02 7.25797E-06-1.29584E-01 1.53208E-14 5.25314E-14
 -1       800 2.00193E+01 8.42702E-02 1.31765E-05-1.56371E-01 8.10343E-14 4.55823E-14
 -1       801 2.00221E+01 1.24116E-01 2.03029E-05-1.96442E-01-1.29391E-14 8.29919E-14
 -1       802 2.00236E+01 1.71215E-01 2.89660E-05-2.51967E-01 4.50261E-14 1.17681E-13
 -1       803 2.00223E+01 2.26510E-01 3.95564E-05-3.25304E-01 2.02095E-13 2.76166E-13
 -1       804 2.00165E+01 2.90516E-01 5.25323E-05-4.18913E-01 1.20940E-13 2.55704E-13
 -1       805 2.00038E+01 3.62798E-01 6.84268E-05-5.35189E-01 2.31599E-14 1.64516E-13
 -1       806 1.99812E+01 4.41121E-01 8.78167E-05-6.76243E-01 3.32643E-14 1.01803E-13
 -1       807 1.99460E+01 5.20040E-01 1.11016E-04-8.43641E-01-1.34060E-13-2.05621E-14
 -1       808 1.98962E+01 5.88659E-01 1.36633E-04-1.03818E+00-1.44707E-13 1.19319E-14
 -1       809 1.98340E+01 6.27242E-01 1.57592E-04-1.25982E+00-5.36836E-14 5.71396E-15
 -1       810 1.97701E+01 6.02350E-01 1.63877E-04-1.50787E+00-1.86570E-15-5.40848E-14
 -1       811 1.97331E+01 4.60515E-01 1.19966E-04-1.78101E+00-1.25992E-13-1.91944E-13
 -1       812 1.97851E+01 1.22191E-01-8.20975E-05-2.07495E+00-1.53199E-13-2.55856E-13
 -1       813 2.00443E+01-5.17783E-01-1.87523E-04-2.37198E+00-6.29230E-14-1.68313E-13
 -1       814 2.07102E+01-1.56160E+00 1.87799E-03-2.61163E+00-9.93690E-14-4.41034E-13
 -1       815 2.20362E+01-3.00663E+00 3.11910E-02-2.62803E+00-6.50786E-14-6.65239E-13
 -1       816 2.36850E+01-3.67675E+00 1.77374E-02 3.03095E+00 4.71152E-13-2.77663E-13
 -1       817 2.18548E+01-2.03104E+00 3.98362E-03 3.38171E+00-2.77723E-14-6.09936E-13
 -1       818 2.09279E+01-9.95330E-01 5.52484E-04 3.46863E+00-6.82926E-14-5.40601E-13
 -1       819 1.77907E+01-6.11555E-01 1.99780E-02-4.17542E+00 1.38038E-13 8.50128E-13
 -1       820 2.64352E+01 1.16955E+00-8.34704E-02-2.79946E+00-9.63153E-14-1.73500E-13
 -1       821 1.49518E+01 7.08381E-01 4.49152E-02-2.78821E+00 6.51393E-14 7.82503E-13
 -1       822 2.02747E+01 1.28186E+00-3.75403E-04-6.31570E-01-1.11913E-13-3.00336E-13
 -1       823 2.07558E+01-4.07022E+00 2.93250E-02 4.22489E+00-1.04833E-13 1.99469E-13
 -1       824 1.48735E+01-1.91874E+00 7.15897E-02 4.80551E+00-2.31509E-13 2.83249E-13
 -1       825 2.04137E+01-1.56487E+00 1.50271E-02-4.01336E+00 2.10084E-13 5.28943E-14
 -1       826 2.19810E+01-1.90940E+00 1.71387E-03-2.99400E+00 3.02330E-13 1.50823E-13
 -1       827 2.20453E+01-4.46826E+00 3.86698E-02-5.06294E+00 3.67534E-13 2.18980E-13
 -1       828 2.69259E+01-1.99375E+00-2.02989E-02 7.90312E-01-8.49416E-14-1.37316E-13
 -1       829 2.00280E+01-5.82931E-02-1.29232E-05-1.63067E-01 2.67192E-14-7.53799E-14
 -1       830 1.65638E+01-2.28506E+00 5.48512E-02-5.63985E+00 2.34259E-13 8.64475E-13
 -1       831 2.01706E+01 2.23484E-01 1.93941E-06-3.12925E-02 1.25915E-13-1.34895E-13
 -1       832 1.12596E+01 3.57909E-02 7.25615E-02 2.56532E+00-1.41599E-13 2.55507E-13
 -1       833 2.50799E+01 4.47209E+00-1.01616E-01 5.26695E-01 2.28137E-13 3.62813E-14
 -1       834 2.02894E+01 7.29874E-01 2.62978E-04-2.91738E-01-1.00986E-13-2.42276E-13
 -1       835 2.02778E+01 9.42613E-01 1.66254E-05 5.53865E-01 1.88763E-13-1.10188E-13
 -1       836 1.46145E+01-1.51126E+00 1.10903E-01 5.19675E+00 2.74818E-13-3.36960E-13
 -1       837 2.70540E+01-2.33313E+00-5.41266E-02-1.25440E+00-1.23871E-13 1.18901E-13
 -1       838 2.01394E+01 1.88826E+00-2.92902E-04 1.99280E-01 1.26011E-13-2.85665E-13
 -1       839 1.28402E+01 3.73809E-02 9.63203E-02-3.14083E+00 8.11538E-14 8.74818E-13
 -1       840 2.01277E+01 1.92634E+00-3.08779E-04 3.27831E-03 6.65276E-14-2.91373E-13
 -1       841 1.81464E+01-2.12268E+00 4.28215E-02 5.11268E+00 3.37681E-13-1.63395E-13
 -1       842 1.20690E+01 1.15429E-02 5.69589E-02-2.42547E+00-4.65860E-15-4.40170E-13
 -1       843 2.00897E+01 2.33713E-02-9.86490E-06-1.59430E-01 1.03034E-13-1.49058E-13
 -1       844 2.56757E+01-7.64832E-01-2.94125E-02 1.49998E+00-3.11414E-13 6.60340E-14
 -1       845 2.01259E+01 1.00834E-01-3.60670E-06-1.15951E-01 8.84023E-14-1.48584E-13
 -1       846 2.02223E+01 1.58072E+00 2.53119E-04 5.36381E-01 1.70033E-13-2.58299E-13
 -1       847 1.50106E+01 7.77943E-01 3.34061E-02 2.79113E+00 3.08677E-14-1.74610E-13
 -1       848 2.58918E+01-3.57662E+00 4.45441E-02 2.24047E-02 5.79914E-14 8.40387E-14
 -1       849 1.39193E+01 1.26166E+00 6.68327E-02 4.39480E-02-9.00144E-14-1.05297E-13
 -1       850 1.74710E+01-2.08733E-01 1.76404E-02 3.95802E+00-1.96367E-13-1.55690E-13
 -1       851 1.82049E+01-2.61554E+00 2.48975E-02 4.31537E+00-6.40937E-14 2.25861E-15
 -1       852 2.02197E+01 4.14298E-01 8.95794E-06 1.11572E-01 1.04946E-13-9.66887E-14
 -1       853 2.31808E+01-4.44696E+00 8.81129E-04 2.82431E+00 2.86906E-14 3.10494E-13
 -1       854 2.02494E+01 6.36227E-01 1.38072E-05 2.95446E-01 1.45620E-13-9.88249E-14
 -1       855 2.01680E+01 1.78137E+00-5.82452E-04-3.75444E-01-2.19224E-14-3.33192E-13
 -1       856 2.01737E+01 1.77372E+00-3.81774E-05 3.83592E-01 1.74405E-13-2.79552E-13
 -1       857 2.02139E+01 1.59452E+00-4.23703E-04-5.29203E-01-6.84527E-14-2.82362E-13
 -1       858 2.12198E+01-3.86838E+00 7.69361E-02-3.67375E+00-1.38306E-13-4.73887E-13
 -1       859 2.24754E+01-1.95479E+00-2.13897E-03-2.27282E+00 1.64308E-13-2.09242E-14
 -1       860 1.24341E+01 8.67504E-01 5.50137E-02-6.00266E-01-1.72278E-13 3.52253E-14
 -1       861 2.03053E+01 2.27180E-01-9.11582E-06 4.65053E-02-7.40823E-14-1.10076E-13
 -1       862 2.02693E+01 9.23669E-02-1.45101E-05 1.02414E-01-1.03395E-13-1.06505E-13
 -1       863 2.02302E+01 6.90014E-03-6.72811E-06 1.30433E-01-3.08132E-14-1.12362E-13
 -1       864 2.01923E+01-4.31964E-02-2.70032E-06 1.39648E-01 2.67538E-14-9.14215E-14
 -1       865 2.01576E+01-6.82306E-02-1.88859E-06 1.37201E-01 7.43529E-14-4.31214E-14
 -1       866 2.01271E+01-7.56174E-02-2.39995E-06 1.28512E-01-2.19854E-14-1.14750E-13
 -1       867 2.01009E+01-7.05351E-02-2.21704E-06 1.17600E-01-7.05284E-14-1.42046E-13
 -1       868 2.00784E+01-5.64480E-02-1.81254E-06 1.07443E-01-3.31796E-14-5.51896E-14
 -1       869 2.00590E+01-3.55135E-02-1.35965E-06 1.00282E-01-4.53851E-14 9.11717E-15
 -1       870 2.00416E+01-8.89293E-03-1.09560E-06 9.78802E-02-5.85727E-14 6.03856E-14
 -1       871 2.00249E+01 2.29833E-02-9.59865E-07 1.01746E-01-9.50941E-14 6.83521E-14
 -1       872 2.00077E+01 6.01731E-02-9.03283E-07 1.13291E-01-1.02359E-13 1.54830E-13
 -1       873 1.99884E+01 1.02982E-01-8.94860E-07 1.33945E-01-5.91960E-14 1.10760E-13
 -1       874 1.99653E+01 1.51703E-01-9.04747E-07 1.65223E-01-1.11384E-13 6.31688E-14
 -1       875 1.99369E+01 2.06294E-01-8.91223E-07 2.08761E-01-1.35493E-14-1.28648E-14
 -1       876 1.99013E+01 2.65985E-01-7.86794E-07 2.66301E-01-2.78054E-14 5.29569E-14
 -1       877 1.98574E+01 3.28743E-01-4.70367E-07 3.39664E-01-8.32595E-16-8.13561E-14
 -1       878 1.98045E+01 3.90598E-01 2.97806E-07 4.30686E-01-3.32172E-14-9.31899E-14
 -1       879 1.97434E+01 4.44754E-01 1.99536E-06 5.41162E-01-6.77849E-15-8.83061E-14
 -1       880 1.96771E+01 4.80502E-01 5.38579E-06 6.72799E-01 1.01923E-13 1.30970E-13
 -1       881 1.96128E+01 4.81928E-01 1.08606E-05 8.27167E-01 4.64586E-14 5.75588E-14
 -1       882 1.95641E+01 4.26527E-01 1.64335E-05 1.00552E+00 7.29011E-14-8.77639E-14
 -1       883 1.95550E+01 2.83986E-01 9.87316E-06 1.20819E+00 8.24170E-14-4.09523E-14
 -1       884 1.96245E+01 1.55539E-02-5.66217E-05 1.43254E+00-9.70671E-14-1.51866E-13
 -1       885 1.98344E+01-4.24057E-01-3.92530E-04 1.66652E+00-1.36388E-13-1.34070E-13
 -1       886 2.02779E+01-1.07708E+00-7.47425E-04 1.87640E+00-2.04909E-13-2.58168E-13
 -1       887 2.11171E+01-1.95967E+00-3.97976E-05 1.96967E+00-2.10644E-13-3.19907E-13
 -1       888 2.24043E+01-2.92195E+00 1.85340E-03 1.78312E+00-3.77772E-13-2.43401E-13
 -1       889 2.01587E+01-3.68868E-02-6.85177E-07-1.52940E-01-1.69715E-15-1.26608E-13
 -1       890 2.00628E+01-5.60096E-02-5.21354E-08-1.16868E-01-4.59708E-14 9.57839E-15
 -1       891 2.00804E+01-6.78287E-02 4.67830E-07-1.28763E-01-1.93537E-14-9.40964E-14
 -1       892 2.00359E+01-1.40267E-02-1.57304E-07-1.03838E-01-2.46815E-14-6.32205E-14
 -1       893 2.00247E+01 1.47814E-02 2.23392E-07-1.06250E-01-7.85878E-15-7.13380E-14
 -1       894 2.00133E+01 4.90097E-02 7.54029E-07-1.16662E-01-5.24290E-14-1.23058E-13
 -1       895 2.00004E+01 8.94128E-02 1.45119E-06-1.36591E-01-3.07058E-14-1.02487E-13
 -1       896 1.99841E+01 1.37050E-01 2.37253E-06-1.67644E-01 2.55829E-14-2.42396E-14
 -1       897 1.99623E+01 1.93130E-01 3.60862E-06-2.11540E-01 3.64682E-14-8.10128E-14
 -1       898 1.99321E+01 2.58808E-01 5.29851E-06-2.70100E-01 4.47177E-14-8.61189E-14
 -1       899 1.98901E+01 3.34905E-01 7.66703E-06-3.45181E-01 7.67669E-14 8.78369E-14
 -1       900 1.98319E+01 4.21478E-01 1.11021E-05-4.38589E-01 6.63788E-14 2.20656E-13
 -1       901 1.97523E+01 5.17155E-01 1.63131E-05-5.52001E-01-2.52838E-14 1.74696E-13
 -1       902 1.96452E+01 6.18095E-01 2.45433E-05-6.87006E-01-1.03175E-13 2.94057E-13
 -1       903 1.95040E+01 7.16396E-01 3.71606E-05-8.45402E-01-1.34694E-13 2.03375E-13
 -1       904 1.93233E+01 7.97715E-01 5.10702E-05-1.03005E+00 1.70506E-14 1.65639E-13
 -1       905 1.91005E+01 8.37909E-01 4.94084E-05-1.24671E+00 6.23683E-14-4.67126E-14
 -1       906 1.88408E+01 7.98188E-01 5.33275E-05-1.50769E+00 7.74836E-14-3.90930E-14
 -1       907 1.85668E+01 6.17399E-01 1.42450E-04-1.83685E+00-1.42576E-13-9.22342E-14
 -1       908 1.83357E+01 2.02962E-01 4.93304E-04-2.27201E+00-1.07848E-13-2.53428E-13
 -1       909 1.82656E+01-5.80339E-01 2.44618E-03-2.85983E+00 7.96127E-14-2.23459E-13
 -1       910 1.86418E+01-1.91058E+00 2.02767E-02-3.61240E+00 8.74717E-14-2.42157E-13
 -1       911 2.25497E+01-3.29413E+00 9.51960E-03-3.68416E+00 1.55458E-13-2.44817E-13
 -1       912 2.08505E+01-2.40413E+00 2.13163E-02 4.30310E+00 1.25500E-13-6.77484E-13
 -1       913 2.47937E+01-3.62918E+00-6.92705E-04-1.79906E+00 1.58636E-13-7.27604E-14
 -1       914 2.00384E+01-2.45736E+00 2.38731E-02-4.72884E+00 2.36009E-13 5.34794E-13
 -1       915 1.44989E+01-3.62485E-01 3.19029E-02 3.24510E+00-5.25044E-14 2.63554E-13
 -1       916 1.27698E+01 8.38523E-01 3.32137E-02 5.49627E-01 1.67447E-13 2.23687E-13
 -1       917 2.01380E+01 1.89119E+00-3.30942E-04-1.92907E-01 1.83938E-14-2.99944E-13
 -1       918 2.00482E+01-3.77207E-02-3.22149E-07-1.07920E-01-1.01106E-14-5.84575E-14
 -1       919 2.02696E+01 2.29217E-01 1.44209E-05-4.42368E-02 1.08155E-13-1.93305E-13
 -1       920 1.59100E+01-1.39994E+00 5.02049E-02-3.99548E+00-2.17491E-15-4.30992E-14
 -1       921 2.03310E+01 4.29848E-01-8.01331E-05-4.73645E-02-5.54048E-14-1.45229E-13
 -1       922 2.02976E+01 9.01219E-01-1.75470E-04 3.76764E-01 1.22123E-13-1.45215E-13
 -1       923 1.95241E+01-7.68642E-01 6.59334E-03 3.97999E+00-9.74104E-14-5.12952E-13
 -1       924 2.03336E+01 7.27181E-01 4.42807E-07-1.89661E-01-4.88040E-14-1.87923E-13
 -1       925 2.03030E+01 1.10014E+00 6.88068E-05-3.46225E-01-2.43979E-14-2.53860E-13
 -1       926 1.33722E+01 8.50037E-01 1.72645E-02-8.34197E-01 1.68648E-13 1.52898E-13
 -1       927 2.01937E+01 1.28679E-02-5.38239E-06-1.41709E-01 6.06308E-14-1.45652E-13
 -1       928 2.01020E+01-7.10768E-02 4.26546E-06-1.41137E-01 1.30092E-14-1.43268E-13
 -1       929 2.01280E+01-6.24406E-02 6.01755E-06-1.50692E-01 4.51013E-14-1.37010E-13
 -1       930 1.69272E+01-1.07765E+00 1.04622E-02 3.41879E+00-8.45089E-14 1.04333E-13
 -1       931 2.02318E+01 9.68663E-02-3.70415E-06-1.08895E-01 6.97476E-14-1.66631E-13
 -1       932 2.34565E+01-2.86252E+00-2.81167E-03-2.18609E+00-2.15870E-13-3.62776E-14
 -1       933 2.03012E+01 4.28951E-01-1.27896E-04 6.49153E-02 1.24284E-13-2.10268E-13
 -1       934 2.02761E+01 1.40514E+00-3.09879E-05 6.98010E-02 8.44116E-14-2.37358E-13
 -1       935 2.08220E+01-3.14103E+00 1.59492E-02 3.23299E+00-2.01868E-13 3.14097E-13
 -1       936 2.02849E+01 1.33675E+00-6.47747E-04 1.97100E-01 1.14374E-13-2.62118E-13
 -1       937 2.02858E+01 1.34142E+00 3.01018E-04-1.93863E-01 4.80071E-14-2.96387E-13
 -1       938 2.02947E+01 1.24449E+00 7.35484E-04-2.81583E-01 1.21799E-14-3.22392E-13
 -1       939 2.03611E+01 1.97106E-01 3.77128E-05 5.01703E-02-5.26712E-14-1.54788E-13
 -1       940 2.03257E+01 6.74572E-02-1.28498E-05 8.50209E-02-9.58394E-15-5.59822E-14
 -1       941 2.02842E+01-1.36324E-02-2.23402E-06 1.01637E-01 1.26672E-14-5.78329E-14
 -1       942 2.02415E+01-5.94072E-02 7.94943E-07 1.05960E-01 5.73764E-15-3.14129E-14
 -1       943 2.02006E+01-7.99040E-02-7.12934E-08 1.02867E-01-2.64945E-14-1.10321E-13
 -1       944 2.01631E+01-8.24284E-02-1.09423E-07 9.60994E-02-6.27409E-14-1.04799E-13
 -1       945 2.01293E+01-7.20249E-02 1.53231E-07 8.85063E-02-3.98335E-14-5.90282E-14
 -1       946 2.00989E+01-5.20515E-02 1.80884E-07 8.22308E-02-1.66948E-14-1.09591E-13
 -1       947 2.00709E+01-2.45082E-02-4.06141E-07 7.89166E-02 1.68080E-14-7.89337E-14
 -1       948 2.00440E+01 9.64084E-03-1.47635E-06 7.99196E-02-6.33538E-14-1.73042E-14
 -1       949 2.00164E+01 5.01691E-02-2.95641E-06 8.64674E-02-2.61918E-14 2.75195E-14
 -1       950 1.99861E+01 9.73151E-02-4.86293E-06 9.97788E-02-2.25899E-14-6.24823E-15
 -1       951 1.99506E+01 1.51505E-01-7.26416E-06 1.21158E-01-3.42238E-14 1.16390E-13
 -1       952 1.99075E+01 2.13043E-01-1.02573E-05 1.52066E-01-3.58804E-14 1.73477E-13
 -1       953 1.98541E+01 2.81738E-01-1.39648E-05 1.94184E-01-1.47443E-14 1.57145E-13
 -1       954 1.97875E+01 3.56436E-01-1.85372E-05 2.49475E-01-8.57566E-14 7.59443E-14
 -1       955 1.97053E+01 4.34430E-01-2.41472E-05 3.20267E-01-1.55661E-14 4.61043E-14
 -1       956 1.96056E+01 5.10713E-01-3.09348E-05 4.09395E-01 1.06849E-15 2.59312E-14
 -1       957 1.94879E+01 5.77067E-01-3.89001E-05 5.20451E-01 1.97974E-13 1.51114E-14
 -1       958 1.93541E+01 6.20942E-01-4.81108E-05 6.58196E-01 1.77663E-14-9.42860E-16
 -1       959 1.92098E+01 6.24125E-01-6.04895E-05 8.29167E-01-7.54303E-14 2.97566E-14
 -1       960 1.90673E+01 5.61205E-01-8.31842E-05 1.04243E+00 5.60744E-14-1.02890E-13
 -1       961 1.89494E+01 3.97806E-01-7.23828E-05 1.31016E+00-1.84876E-14-8.69242E-14
 -1       962 1.88951E+01 8.83626E-02-4.42428E-04 1.64783E+00-1.55076E-13-6.51341E-14
 -1       963 1.89791E+01-4.28546E-01-8.72712E-04 2.05972E+00-2.27250E-13-6.49696E-14
 -1       964 1.93505E+01-1.22806E+00 4.30967E-03 2.53440E+00-1.27613E-13 7.38188E-14
 -1       965 2.01186E+01-7.18510E-02 6.01613E-06-1.02399E-01-5.22817E-14-1.67467E-13
 -1       966 2.03189E+01 1.05571E+00-7.05103E-05 2.97371E-01 1.35778E-13-2.80416E-13
 -1       967 2.00220E+01 3.96614E-02 9.78224E-07-9.50577E-02-8.76966E-15-1.32018E-13
 -1       968 2.00449E+01 1.87831E-03 2.54322E-06-8.93933E-02-4.63165E-14-1.58994E-13
 -1       969 1.99669E+01 1.37012E-01-2.28303E-06-1.29012E-01 2.04318E-14-2.00390E-13
 -1       970 1.99294E+01 1.98756E-01-4.02966E-06-1.59733E-01 5.37628E-14-1.21878E-13
 -1       971 1.98805E+01 2.70857E-01-5.88327E-06-2.01237E-01-4.81326E-14-9.10273E-14
 -1       972 1.98159E+01 3.54320E-01-7.85956E-06-2.54670E-01-4.45525E-14-4.76588E-14
 -1       973 1.97302E+01 4.49550E-01-9.97434E-06-3.21036E-01-1.70391E-14-1.43188E-15
 -1       974 1.96168E+01 5.55854E-01-1.22302E-05-4.01124E-01 1.20350E-14 1.83158E-13
 -1       975 1.94678E+01 6.70735E-01-1.44577E-05-4.95566E-01-1.35816E-14 1.37647E-13
 -1       976 1.92738E+01 7.88915E-01-1.59688E-05-6.05160E-01-1.10172E-13 7.21961E-14
 -1       977 1.90238E+01 9.00937E-01-1.62265E-05-7.31784E-01-3.31073E-14-7.51730E-14
 -1       978 1.87052E+01 9.91265E-01-2.24859E-05-8.80159E-01 9.72100E-14 8.46122E-15
 -1       979 1.83040E+01 1.03629E+00-9.50341E-05-1.06133E+00 5.89077E-14-1.05224E-14
 -1       980 1.78042E+01 1.00129E+00 8.12881E-05-1.30024E+00-2.33526E-14 1.04028E-13
 -1       981 1.71887E+01 8.32074E-01 9.72675E-04-1.64770E+00 2.24536E-14-1.48746E-13
 -1       982 1.64450E+01 4.38967E-01 3.40309E-03-2.20384E+00 5.74755E-15-3.00369E-13
 -1       983 1.60378E+01-2.49405E-01 2.05840E-02-2.98962E+00-8.28876E-14-2.57339E-13
 -1       984 2.02757E+01 1.40672E+00 3.30626E-05-6.52413E-02 7.17989E-14-2.75793E-13
 -1       985 2.03744E+01 6.77328E-01 6.64857E-04-1.02953E-01-8.89662E-16-2.34096E-13
 -1       986 2.03374E+01 2.09184E-01 4.03974E-06-5.14010E-02 5.64298E-14-2.40513E-13
 -1       987 1.47820E+01 6.15041E-01 4.70801E-03 1.69052E+00 1.33918E-14 1.67476E-13
 -1       988 2.03036E+01 6.35677E-01-9.48538E-06 1.94800E-01 1.44211E-13-1.82277E-13
 -1       989 2.03809E+01 3.90133E-01-4.96609E-04-1.06253E-02-3.34591E-14-1.84295E-13
 -1       990 1.99968E+01 8.43839E-02-6.22109E-07-1.07861E-01-2.85621E-14-1.45179E-13
 -1       991 1.89214E+01-1.82920E+00 9.83769E-03 3.27264E+00-1.90526E-13 1.34372E-13
 -1       992 1.45304E+01 9.88375E-01 1.36172E-02 6.87290E-01-9.80005E-15 1.97163E-13
 -1       993 2.02620E+01-5.15928E-03-5.03432E-06-1.16233E-01 5.04038E-14-2.35644E-13
 -1       994 2.01491E+01-8.00102E-02 8.25956E-06-1.11504E-01 1.14848E-15-1.46496E-13
 -1       995 2.03022E+01 7.77143E-02 3.39142E-06-9.49913E-02 7.07594E-14-2.53483E-13
 -1       996 2.00918E+01-5.43800E-02 5.80124E-06-9.44908E-02 2.73197E-14-1.23279E-13
 -1       997 2.03698E+01 9.97351E-01 2.76714E-05 1.31347E-03 8.67561E-14-2.35431E-13
 -1       998 2.03468E+01 9.29274E-01-7.10894E-04-1.84051E-01 3.00905E-14-2.95591E-13
 -1       999 2.02216E+01-5.29566E-02 2.83361E-06-1.22313E-01 2.05355E-14-2.54548E-13
 -1      1000 2.03687E+01 9.71879E-01 5.80109E-05-7.82169E-02 6.42807E-14-2.63376E-13
 -1      1001 1.62565E+01 1.34645E-01 4.23693E-03 2.29355E+00-7.88083E-14 7.89813E-14
 -1      1002 2.03600E+01 4.06883E-01 1.25828E-04 2.27610E-02 1.02829E-13-2.26366E-13
 -1      1003 2.03679E+01 9.68498E-01-6.62665E-05 7.90259E-02 9.97155E-14-2.21647E-13
 -1      1004 2.00676E+01-2.94985E-02 4.11574E-06-8.96423E-02-5.92702E-15-1.76843E-13
 -1      1005 2.04160E+01 3.25871E-01 5.49756E-05 9.66673E-03 8.23965E-15-1.90955E-13
 -1      1006 2.03923E+01 1.50721E-01-2.37069E-05 4.14578E-02-7.50363E-15-1.24503E-13
 -1      1007 2.03546E+01 3.40409E-02-4.20085E-05 5.88436E-02-8.54377E-15-1.44898E-13
 -1      1008 2.03099E+01-3.66904E-02 3.90999E-06 6.62986E-02 2.80511E-14-9.82306E-14
 -1      1009 2.02636E+01-7.42672E-02 4.11815E-08 6.72159E-02-1.74506E-14-6.03254E-14
 -1      1010 2.02187E+01-8.77679E-02-4.06360E-06 6.44340E-02-1.32976E-14-3.70173E-14
 -1      1011 2.01769E+01-8.39726E-02 1.37727E-06 5.99963E-02-4.39180E-14-1.26463E-14
 -1      1012 2.01383E+01-6.75177E-02 1.72365E-07 5.57005E-02-8.42317E-14-1.03375E-13
 -1      1013 2.01025E+01-4.14560E-02-1.33130E-06 5.27655E-02 2.60275E-14-1.33700E-13
 -1      1014 2.00682E+01-7.41692E-03-4.74587E-06 5.22050E-02 3.06643E-14-1.63873E-13
 -1      1015 2.00336E+01 3.39552E-02-9.64727E-06 5.49223E-02 1.36114E-14 2.60363E-15
 -1      1016 1.99964E+01 8.27088E-02-1.58892E-05 6.17995E-02-3.31874E-14 7.94057E-14
 -1      1017 1.99539E+01 1.39300E-01-2.34631E-05 7.37887E-02-1.87316E-14 2.23089E-14
 -1      1018 1.99029E+01 2.04292E-01-3.24312E-05 9.19964E-02-9.35743E-15 4.94385E-14
 -1      1019 1.98401E+01 2.78018E-01-4.29016E-05 1.17772E-01 2.21693E-15 4.13353E-14
 -1      1020 1.97616E+01 3.60176E-01-5.50434E-05 1.52814E-01-1.22318E-13 1.24854E-14
 -1      1021 1.96634E+01 4.49340E-01-6.91568E-05 1.99312E-01-7.68762E-14 5.44774E-14
 -1      1022 1.95416E+01 5.42357E-01-8.58310E-05 2.60163E-01 3.64988E-14 6.68094E-14
 -1      1023 1.93924E+01 6.33639E-01-1.06268E-04 3.39304E-01 3.57204E-15 7.85862E-14
 -1      1024 1.92127E+01 7.14344E-01-1.33110E-04 4.42252E-01 9.28514E-14-1.31091E-13
 -1      1025 1.90007E+01 7.71423E-01-1.74278E-04 5.76977E-01-3.84261E-15-2.01201E-13
 -1      1026 1.87564E+01 7.86414E-01-2.41857E-04 7.55219E-01-6.22147E-14-9.52866E-14
 -1      1027 1.84833E+01 7.34359E-01-3.19678E-04 9.94074E-01 3.94491E-14-1.67321E-13
 -1      1028 1.81911E+01 5.79334E-01-5.76321E-04 1.32256E+00-1.24504E-13-1.80163E-13
 -1      1029 1.79188E+01 2.76495E-01-4.51761E-04 1.78080E+00-8.02783E-14-5.86129E-14
 -1      1030 1.80522E+01-4.95121E-01 2.26141E-03 2.49475E+00-1.04720E-13 2.34496E-14
 -1      1031 2.03548E+01 7.50488E-01 2.85980E-04 1.54593E-01 1.16241E-13-2.51344E-13
 -1      1032 2.00708E+01-1.47060E-02 3.21282E-06-6.53454E-02-8.18038E-14-1.09991E-13
 -1      1033 2.01835E+01-7.53875E-02 1.19118E-05-1.19223E-01-2.58578E-14-2.18036E-13
 -1      1034 1.98625E+01 2.63872E-01-3.05468E-05-1.28885E-01-1.95421E-16-1.36257E-13
 -1      1035 1.99210E+01 1.89349E-01-2.19055E-05-1.04109E-01-1.54220E-14-1.75726E-13
 -1      1036 1.96891E+01 4.48178E-01-5.17825E-05-2.00148E-01-8.56187E-14-1.85566E-13
 -1      1037 1.95617E+01 5.58183E-01-6.54062E-05-2.46666E-01-1.37592E-13-2.95775E-14
 -1      1038 1.93967E+01 6.78233E-01-8.26284E-05-2.99773E-01-3.57221E-14-5.28761E-14
 -1      1039 1.91838E+01 8.04579E-01-1.05518E-04-3.58483E-01 2.43867E-14 3.80330E-14
 -1      1040 1.89104E+01 9.30797E-01-1.35636E-04-4.21855E-01-1.68321E-14-7.43075E-14
 -1      1041 1.85595E+01 1.04700E+00-1.98223E-04-4.90285E-01-8.63318E-14 6.74961E-14
 -1      1042 1.81102E+01 1.13774E+00-2.27233E-04-5.67408E-01 4.48150E-14 2.32202E-13
 -1      1043 1.75273E+01 1.18622E+00-5.40174E-04-6.61053E-01 5.63586E-14 1.42200E-13
 -1      1044 1.67615E+01 1.16451E+00-4.83446E-04-7.98249E-01 3.89059E-14 2.86128E-14
 -1      1045 1.57371E+01 1.05255E+00 4.11784E-03-1.03385E+00 2.12492E-14 4.69880E-14
 -1      1046 2.00058E+01 7.06728E-02-7.57994E-06-7.40459E-02 4.17517E-14-1.19392E-13
 -1      1047 2.04217E+01 6.60472E-01 1.75403E-04-1.78482E-02 5.71075E-14-2.27768E-13
 -1      1048 1.97871E+01 3.49962E-01-4.03931E-05-1.60831E-01 5.68921E-15-2.30121E-13
 -1      1049 2.00394E+01 2.42334E-02-1.73494E-06-6.74120E-02-2.92480E-14-2.32812E-14
 -1      1050 2.03688E+01 8.75131E-01 1.49866E-04 1.27283E-01 8.47164E-14-2.62995E-13
 -1      1051 1.99675E+01 1.25349E-01-1.42864E-05-8.60377E-02-2.99406E-14-1.89031E-13
 -1      1052 2.03799E+01 1.69597E-01-2.34507E-05-4.79556E-02 7.37958E-14-2.59695E-13
 -1      1053 2.03436E+01 4.76247E-02-1.01883E-05-7.24515E-02 5.42038E-14-2.33872E-13
 -1      1054 2.01724E+01-8.37974E-02 1.25761E-05-7.70905E-02 2.38635E-14-2.12073E-13
 -1      1055 2.03978E+01 6.34790E-01 4.13281E-04-6.27592E-02 1.05218E-14-2.50117E-13
 -1      1056 2.04214E+01 6.59965E-01 4.23978E-05 2.04074E-02 7.52817E-14-1.99391E-13
 -1      1057 2.04023E+01 3.51569E-01-5.97233E-04-3.16415E-03 9.47201E-14-2.37222E-13
 -1      1058 2.01359E+01-6.99381E-02 9.47491E-06-7.12957E-02 7.18332E-15-2.91042E-13
 -1      1059 1.60709E+01 8.43755E-01 4.16526E-03 1.27404E+00-5.18209E-14-6.04052E-15
 -1      1060 2.03004E+01-2.66363E-02-1.77303E-05-8.34652E-02 2.02748E-14-1.85236E-13
 -1      1061 2.01024E+01-4.63110E-02 7.08280E-06-6.69739E-02-3.38162E-14-1.81772E-13
 -1      1062 2.04311E+01 2.49616E-01 4.54476E-04 9.66542E-03 5.92777E-14-1.93660E-13
 -1      1063 2.00986E+01-3.25467E-02-8.77741E-06-3.61187E-02-4.79209E-14-1.51483E-14
 -1      1064 2.04012E+01 9.76327E-02 9.13627E-05 2.00093E-02 1.43617E-14-1.45940E-13
 -1      1065 2.03583E+01-4.99646E-04 1.68169E-05 2.46087E-02 3.01526E-15-1.35719E-13
 -1      1066 2.03107E+01-5.84124E-02 2.24026E-06 2.61721E-02 5.59494E-15-1.74672E-13
 -1      1067 2.02630E+01-8.56127E-02-9.83246E-07 2.53994E-02-2.54390E-14-1.84135E-13
 -1      1068 2.02167E+01-9.03613E-02 1.47572E-05 2.39828E-02-2.98995E-14-1.99585E-13
 -1      1069 2.01729E+01-7.96462E-02 3.61070E-05 2.25420E-02-7.05785E-14-1.39851E-13
 -1      1070 2.01321E+01-5.72858E-02 2.85447E-05 2.12248E-02-4.26503E-15-1.53001E-13
 -1      1071 2.00933E+01-2.55674E-02 2.38830E-05 2.06730E-02 4.11132E-14-1.18374E-13
 -1      1072 2.00548E+01 1.43216E-02 2.14304E-05 2.13284E-02 8.24139E-14-8.95602E-14
 -1      1073 2.00145E+01 6.21166E-02 2.12768E-05 2.36256E-02 4.10249E-14-1.14444E-13
 -1      1074 1.99695E+01 1.18175E-01 2.35850E-05 2.80613E-02-4.07372E-14-1.27322E-14
 -1      1075 1.99164E+01 1.83184E-01 2.86565E-05 3.52645E-02-3.03975E-14 5.98479E-14
 -1      1076 1.98515E+01 2.57858E-01 3.70375E-05 4.60783E-02-6.72302E-14 1.91742E-14
 -1      1077 1.97704E+01 3.42588E-01 4.96524E-05 6.16688E-02-1.04839E-13-8.09896E-14
 -1      1078 1.96682E+01 4.37036E-01 6.79906E-05 8.36741E-02-8.23962E-14-4.54427E-14
 -1      1079 1.95395E+01 5.39661E-01 9.43361E-05 1.14417E-01-9.79239E-14-9.74994E-14
 -1      1080 1.93785E+01 6.47163E-01 1.31816E-04 1.57205E-01 7.79357E-15-1.77571E-13
 -1      1081 1.91786E+01 7.53893E-01 1.83263E-04 2.16770E-01-7.90689E-14-2.81988E-13
 -1      1082 1.89328E+01 8.51239E-01 2.44913E-04 2.99890E-01-6.69931E-14-4.35699E-13
 -1      1083 1.86326E+01 9.27027E-01 2.78476E-04 4.16267E-01 2.87101E-14-3.94092E-13
 -1      1084 1.82675E+01 9.63634E-01-1.52431E-04 5.80302E-01-3.23298E-14-2.26524E-13
 -1      1085 1.78412E+01 9.40131E-01 1.54137E-03 8.07723E-01 3.99019E-14-1.30980E-13
 -1      1086 1.73282E+01 8.18456E-01 1.94672E-03 1.13060E+00-4.38101E-14-9.36001E-14
 -1      1087 1.60664E+01 1.17659E+00 5.74722E-04 1.30245E-01 6.40039E-14 1.59887E-13
 -1      1088 1.98696E+01 2.41838E-01-1.51496E-05-6.01904E-02-2.41827E-14-1.92188E-13
 -1      1089 1.99308E+01 1.68377E-01-9.53674E-06-5.01347E-02-5.21863E-14-1.67330E-13
 -1      1090 1.99807E+01 1.05135E-01-6.84124E-06-4.28689E-02 5.16173E-15-1.98613E-13
 -1      1091 1.94047E+01 6.48626E-01-9.35357E-05-1.19762E-01-8.96090E-14-5.37022E-15
 -1      1092 1.95669E+01 5.30747E-01-6.16051E-05-1.03991E-01-1.62622E-13-7.72902E-14
 -1      1093 1.89349E+01 8.99303E-01-2.04332E-04-1.39139E-01-2.82867E-14 2.25586E-14
 -1      1094 1.86011E+01 1.01882E+00-2.74947E-04-1.34526E-01-1.09746E-14 8.43939E-14
 -1      1095 1.81750E+01 1.12263E+00-1.03278E-04-1.12439E-01-7.11475E-14-3.31340E-14
 -1      1096 1.76206E+01 1.19958E+00-5.41200E-04-7.74138E-02 1.30684E-13-1.20087E-13
 -1      1097 1.69777E+01 1.20769E+00 2.66120E-03 6.85766E-05 7.84779E-14-1.04321E-14
 -1      1098 1.96935E+01 4.22870E-01-3.95733E-05-8.78297E-02-8.56320E-14-2.14039E-14
 -1      1099 1.97923E+01 3.26484E-01-2.47095E-05-7.29103E-02-1.62915E-14-1.33079E-13
 -1      1100 2.00232E+01 5.10597E-02-6.25425E-06-3.82947E-02 1.98956E-14-1.83261E-13
 -1      1101 2.02130E+01-8.55160E-02-9.35992E-05-8.29881E-02-2.14684E-15-1.76697E-13
 -1      1102 1.91978E+01 7.73282E-01-1.39528E-04-1.32651E-01-7.39551E-14 2.55506E-14
 -1      1103 2.03969E+01 5.79408E-01 2.39502E-05 5.06084E-02 8.57189E-14-2.60446E-13
 -1      1104 2.00616E+01 5.29731E-03-7.10420E-06-3.61647E-02-6.76744E-14-1.35631E-13
 -1      1105 2.04001E+01 1.19302E-01-2.85163E-05-3.09550E-02 3.89499E-14-1.69934E-13
 -1      1106 2.01364E+01-6.21532E-02-1.05624E-05-3.76816E-02-2.83790E-14-3.01182E-14
 -1      1107 2.04140E+01 6.31903E-01 1.25513E-03 4.08055E-02 7.25732E-14-2.60692E-13
 -1      1108 1.69812E+01 1.09112E+00-2.54290E-03 6.01050E-01-2.06757E-16-9.02028E-14
 -1      1109 2.02569E+01-6.87417E-02-2.57366E-05-8.58679E-02-3.06269E-14-1.67192E-13
 -1      1110 2.02200E+01-9.01415E-02 6.39809E-05-4.27574E-02-3.62337E-14-1.21820E-13
 -1      1111 2.04258E+01 2.83191E-01 3.99559E-04-1.08741E-02 8.48243E-14-1.76676E-13
 -1      1112 2.01766E+01-8.22240E-02-3.99049E-06-4.02281E-02 8.04676E-15-1.01012E-13
 -1      1113 2.03613E+01 1.28214E-02 5.58036E-05-4.14773E-02 1.68458E-14-1.48890E-13
 -1      1114 2.02903E+01-7.52632E-02 7.46993E-05-1.62687E-02-4.05036E-14-1.05636E-13
 -1      1115 2.04366E+01 4.12124E-01-1.65065E-03-1.53817E-03 5.16893E-14-2.17005E-13
 -1      1116 2.03400E+01-3.43586E-02-4.05077E-06-1.63432E-02 8.14314E-15-1.10935E-13
 -1      1117 2.79637E+01 9.08677E+00 2.32537E+00-6.69837E+00-4.59632E-14 1.10240E-12
 -1      1118 2.05479E+01 6.22730E+00 2.09747E-01-3.90411E+00-2.27041E-14 1.06859E-15
 -1      1119 1.94350E+01 5.85312E+00 7.53904E-02-2.88811E+00-1.43358E-14-4.42663E-13
 -1      1120 1.90260E+01 5.72588E+00 6.02866E-02-2.23508E+00-7.86871E-15-6.28226E-13
 -1      1121 1.88394E+01 5.66907E+00 5.75077E-02-1.70164E+00-4.75661E-15-7.02670E-13
 -1      1122 1.87458E+01 5.64042E+00 5.55639E-02-1.23436E+00-1.92988E-15-7.27434E-13
 -1      1123 1.86969E+01 5.62523E+00 5.38128E-02-8.04454E-01-3.26128E-16-7.28882E-13
 -1      1124 1.86729E+01 5.61763E+00 5.25424E-02-3.92883E-01 6.59629E-16-7.05881E-13
 -1      1125 1.86660E+01 5.61544E+00 5.21377E-02 8.49691E-03 2.47870E-15-6.78991E-13
 -1      1126 1.86739E+01 5.61796E+00 5.26482E-02 4.10280E-01 4.68722E-15-6.57382E-13
 -1      1127 1.86990E+01 5.62593E+00 5.40362E-02 8.23165E-01 4.69980E-15-6.04889E-13
 -1      1128 1.87498E+01 5.64181E+00 5.62431E-02 1.25562E+00 8.68750E-15-5.38781E-13
 -1      1129 1.88450E+01 5.67105E+00 5.84525E-02 1.72744E+00 1.03077E-14-4.47403E-13
 -1      1130 1.90316E+01 5.72759E+00 6.04018E-02 2.26850E+00 1.34059E-14-2.94502E-13
 -1      1131 1.94313E+01 5.85017E+00 6.92175E-02 2.92865E+00 1.68199E-14-6.39246E-15
 -1      1132 2.04540E+01 6.18219E+00 1.53292E-01 3.87867E+00 1.74305E-14 5.45560E-13
 -1      1133 2.52180E+01 7.99458E+00 1.43047E+00 5.84652E+00 3.43614E-14 1.63358E-12
 -1      1134 2.88134E+01 3.61640E+00 1.27130E+00-4.21715E+00-1.78940E-13 1.79334E-12
 -1      1135 2.02283E+01-1.77735E-01-6.16319E-01-1.09902E-01-6.33729E-14 1.36502E-12
 -1      1136 1.88343E+01-9.63734E-02-2.36334E-01 6.25397E-02-2.60660E-14 8.09767E-13
 -1      1137 1.85004E+01-4.80280E-02-5.95490E-02 4.05102E-02-1.09019E-14 4.62769E-13
 -1      1138 1.84450E+01-2.46322E-02-1.52120E-02 2.67743E-02-7.77330E-15 1.94084E-13
 -1      1139 1.85266E+01-1.30568E-02-4.99726E-03 1.90799E-02-1.60668E-14 5.88869E-14
 -1      1140 1.86734E+01-6.59222E-03-1.45732E-03 1.41276E-02-1.78965E-14-1.35277E-13
 -1      1141 1.88456E+01-2.82377E-03 5.93685E-04 1.06879E-02 5.23241E-15-2.17344E-13
 -1      1142 1.90207E+01-5.91242E-04 1.91095E-03 8.14359E-03-1.00451E-14-2.62862E-13
 -1      1143 1.91859E+01 7.00244E-04 2.65429E-03 6.18250E-03-1.31203E-14-4.27883E-13
 -1      1144 1.93345E+01 1.39006E-03 2.95717E-03 4.63800E-03-1.53225E-14-6.79381E-13
 -1      1145 1.94635E+01 1.68552E-03 2.94931E-03 3.41158E-03-2.46564E-15-7.28975E-13
 -1      1146 1.95725E+01 1.71935E-03 2.73427E-03 2.43735E-03 3.71377E-15-7.93974E-13
 -1      1147 1.96627E+01 1.57797E-03 2.38479E-03 1.66695E-03 4.50539E-15-7.26419E-13
 -1      1148 1.97364E+01 1.31658E-03 1.94698E-03 1.06330E-03-3.49598E-15-6.80626E-13
 -1      1149 1.97966E+01 9.68117E-04 1.44573E-03 5.98009E-04 2.77389E-15-7.18854E-13
 -1      1150 1.98468E+01 5.49167E-04 8.89375E-04 2.50693E-04 3.01696E-15-8.52583E-13
 -1      1151 1.98909E+01 6.44027E-05 2.73598E-04 9.04281E-06-1.04496E-16-8.55997E-13
 -1      1152 1.99333E+01-4.89713E-04-4.15206E-04-1.30538E-04 1.23619E-14-1.01605E-12
 -1      1153 1.99789E+01-1.12129E-03-1.19639E-03-1.62001E-04 1.45786E-14-1.18357E-12
 -1      1154 2.00332E+01-1.83887E-03-2.09078E-03-6.85241E-05-1.36275E-14-1.27719E-12
 -1      1155 2.01026E+01-2.64606E-03-3.11482E-03 1.78618E-04-9.84225E-15-1.14887E-12
 -1      1156 2.01943E+01-3.53409E-03-4.27171E-03 6.20760E-04-7.06043E-15-9.32647E-13
 -1      1157 2.03166E+01-4.47120E-03-5.53777E-03 1.31131E-03-2.83161E-14-1.07259E-12
 -1      1158 2.04782E+01-5.38735E-03-6.84142E-03 2.31240E-03 2.30950E-14-1.02381E-12
 -1      1159 2.06881E+01-6.15324E-03-8.03150E-03 3.68575E-03-2.43011E-14-8.10718E-13
 -1      1160 2.09545E+01-6.55304E-03-8.83185E-03 5.47278E-03 3.90110E-14-7.95431E-13
 -1      1161 2.12825E+01-6.25332E-03-8.78222E-03 7.65601E-03-3.37528E-15-1.00205E-12
 -1      1162 2.16711E+01-4.77788E-03-7.17592E-03 1.00905E-02-1.23304E-14-1.02179E-12
 -1      1163 2.21086E+01-1.51263E-03-3.03049E-03 1.23940E-02-1.44074E-14-1.11478E-12
 -1      1164 2.25655E+01 4.20937E-03 4.82168E-03 1.37966E-02-1.25859E-14-9.62666E-13
 -1      1165 2.29871E+01 1.28599E-02 1.73622E-02 1.29877E-02 4.29084E-15-1.09319E-12
 -1      1166 2.32868E+01 2.42050E-02 3.45302E-02 8.08990E-03-1.98843E-15-1.16818E-12
 -1      1167 2.33468E+01 3.65067E-02 5.38025E-02-2.97841E-03 1.19913E-15-1.15552E-12
 -1      1168 2.30351E+01 4.57001E-02 6.86465E-02-2.13495E-02 3.29224E-14-1.00341E-12
 -1      1169 2.22497E+01 4.53421E-02 6.86163E-02-4.51689E-02 3.67939E-14-7.02514E-13
 -1      1170 2.09899E+01 2.91270E-02 4.35560E-02-6.76194E-02 1.61672E-14-6.50945E-13
 -1      1171 1.94282E+01-3.95968E-03-7.85297E-03-7.74735E-02-7.57704E-14-6.23612E-13
 -1      1172 1.79199E+01-4.42437E-02-6.99909E-02-6.45778E-02 2.35064E-14-4.67168E-13
 -1      1173 1.68963E+01-7.27074E-02-1.13514E-01-2.84198E-02-2.03535E-14-5.07525E-13
 -1      1174 1.66605E+01-7.30517E-02-1.13809E-01 1.78400E-02-1.73351E-14-4.11523E-13
 -1      1175 1.72148E+01-4.49384E-02-7.03911E-02 5.40792E-02 2.71701E-15-7.00509E-13
 -1      1176 1.82578E+01-4.82824E-03-7.91897E-03 6.65867E-02-4.98107E-14-9.43828E-13
 -1      1177 1.93563E+01 2.75508E-02 4.30635E-02 5.55407E-02-2.65241E-14-7.93469E-13
 -1      1178 2.01582E+01 4.12732E-02 6.49427E-02 3.15446E-02 9.36161E-14-5.21951E-13
 -1      1179 2.05130E+01 3.66647E-02 5.73952E-02 7.10458E-03 6.30711E-14 1.03181E-13
 -1      1180 2.04717E+01 2.02049E-02 3.04338E-02-8.93457E-03 4.80800E-14-1.00610E-13
 -1      1181 2.02192E+01 1.23715E-04-1.62061E-03-1.14205E-02 5.77402E-14 2.95155E-13
 -1      1182 1.99990E+01-1.60495E-02-1.60892E-02 2.28393E-03-8.05942E-14 3.63105E-13
 -1      1183 1.99709E+01 1.12813E-02 2.21684E-02 9.67888E-03 2.52515E-14 3.56194E-13
 -1      1184 2.77931E+01 5.25755E-01 3.77039E-01 1.96669E+00-3.16067E-14 2.51393E-12
 -1      1185 2.00860E+01-6.62442E-02-5.73630E-01 1.29466E-01 1.30243E-14 2.09202E-12
 -1      1186 1.89088E+01-4.06102E-02-1.93233E-01 1.94110E-02 9.76129E-15 1.62680E-12
 -1      1187 1.85291E+01-2.14249E-02-5.05663E-02 1.45549E-03 1.33027E-14 1.26575E-12
 -1      1188 1.84577E+01-1.24126E-02-1.34180E-02-4.08347E-03 1.31102E-15 1.04344E-12
 -1      1189 1.85331E+01-7.40479E-03-4.67005E-03-5.54241E-03 1.19219E-15 8.57300E-13
 -1      1190 1.86766E+01-4.32483E-03-1.93506E-03-5.73346E-03-3.91690E-15 7.72889E-13
 -1      1191 1.88471E+01-2.34935E-03-3.42592E-04-5.45418E-03 1.38735E-14 7.24632E-13
 -1      1192 1.90213E+01-1.07302E-03 7.82800E-04-4.95686E-03-6.58890E-15 7.05004E-13
 -1      1193 1.91859E+01-2.64344E-04 1.49979E-03-4.35487E-03 1.38596E-14 6.36518E-13
 -1      1194 1.93342E+01 2.22459E-04 1.87139E-03-3.71458E-03 2.41358E-14 5.09650E-13
 -1      1195 1.94629E+01 4.84021E-04 1.98347E-03-3.07717E-03-9.79906E-15 4.87812E-13
 -1      1196 1.95718E+01 5.85450E-04 1.91285E-03-2.46677E-03 4.32635E-15 3.81601E-13
 -1      1197 1.96618E+01 5.69908E-04 1.71592E-03-1.89511E-03-1.56295E-15 2.69456E-13
 -1      1198 1.97353E+01 4.64276E-04 1.42870E-03-1.36489E-03 2.01079E-14 2.31370E-13
 -1      1199 1.97952E+01 2.82707E-04 1.06977E-03-8.72358E-04 1.29214E-15 2.43606E-13
 -1      1200 1.98449E+01 2.88653E-05 6.42882E-04-4.09448E-04-2.47069E-14 3.43968E-13
 -1      1201 1.98884E+01-3.02651E-04 1.38751E-04 3.45114E-05 1.98497E-14 3.41577E-13
 -1      1202 1.99300E+01-7.25381E-04-4.63821E-04 4.71171E-04 4.05316E-14 4.43691E-14
 -1      1203 1.99749E+01-1.26040E-03-1.19747E-03 9.11524E-04-1.14433E-14-1.06895E-13
 -1      1204 2.00287E+01-1.93579E-03-2.10622E-03 1.36397E-03-1.78014E-14 4.11933E-14
 -1      1205 2.00986E+01-2.78572E-03-3.24554E-03 1.83165E-03-3.13822E-16 1.79257E-13
 -1      1206 2.01929E+01-3.84827E-03-4.68181E-03 2.30824E-03 3.14050E-14-5.48018E-14
 -1      1207 2.03219E+01-5.16039E-03-6.48933E-03 2.77108E-03-1.83912E-14-1.06205E-13
 -1      1208 2.04982E+01-6.74669E-03-8.74146E-03 3.16955E-03 1.35275E-14 8.30625E-14
 -1      1209 2.07369E+01-8.59642E-03-1.14884E-02 3.40584E-03-4.71465E-15 3.16741E-13
 -1      1210 2.10557E+01-1.06189E-02-1.47072E-02 3.30410E-03 1.18914E-14 4.17655E-13
 -1      1211 2.14749E+01-1.25621E-02-1.81981E-02 2.56458E-03 3.50666E-14-1.88044E-15
 -1      1212 2.20150E+01-1.38769E-02-2.13842E-02 7.04682E-04-3.93813E-14-3.29285E-14
 -1      1213 2.26932E+01-1.35169E-02-2.29641E-02-2.99065E-03 6.27298E-15-8.01720E-14
 -1      1214 2.35145E+01-9.71930E-03-2.04046E-02-9.43353E-03-2.56633E-14-2.39586E-13
 -1      1215 2.44566E+01 4.11253E-05-9.45844E-03-1.94272E-02 2.70846E-14 4.77673E-14
 -1      1216 2.54430E+01 1.84023E-02 1.55928E-02-3.27460E-02-3.09054E-14 4.19432E-13
 -1      1217 2.63093E+01 4.59462E-02 5.92843E-02-4.62087E-02-4.00587E-14 5.09440E-13
 -1      1218 2.67729E+01 7.65488E-02 1.17705E-01-5.12013E-02-1.38197E-14 3.98214E-13
 -1      1219 2.64531E+01 9.33064E-02 1.67799E-01-3.34863E-02 3.99784E-14 1.83097E-13
 -1      1220 2.50106E+01 7.18987E-02 1.64714E-01 1.90409E-02 6.17319E-14-3.27960E-13
 -1      1221 2.24490E+01 1.54913E-03 6.61312E-02 9.66435E-02-6.25862E-14-2.73837E-13
 -1      1222 1.94308E+01-8.32655E-02-1.06909E-01 1.55841E-01 5.97890E-14-1.73694E-13
 -1      1223 1.71930E+01-1.21339E-01-2.48703E-01 1.43073E-01 2.69802E-14 2.20657E-13
 -1      1224 1.68030E+01-8.62269E-02-2.53914E-01 5.20253E-02-5.02497E-14 8.79380E-13
 -1      1225 1.83110E+01-1.48683E-02-1.25184E-01-5.94456E-02-1.09643E-14 1.19139E-12
 -1      1226 2.07076E+01 3.97960E-02 3.47515E-02-1.23444E-01-4.33182E-15 9.44494E-13
 -1      1227 2.27346E+01 5.77699E-02 1.30505E-01-1.20088E-01 1.36384E-14 5.56347E-13
 -1      1228 2.36653E+01 4.84554E-02 1.41410E-01-7.48320E-02-3.42035E-14 5.01987E-13
 -1      1229 2.34569E+01 2.58692E-02 9.78123E-02-2.10808E-02-1.03086E-14 1.20095E-14
 -1      1230 2.24783E+01-1.94999E-03 3.32120E-02 2.24447E-02-4.77699E-16-8.29850E-13
 -1      1231 2.12322E+01-3.04297E-02-3.23863E-02 4.80958E-02 2.12191E-14-9.18557E-13
 -1      1232 2.02362E+01-4.52995E-02-6.80537E-02 4.29121E-02 8.13321E-14-1.06698E-12
 -1      1233 1.99532E+01 1.69064E-02 2.80019E-02-1.66623E-02-3.48402E-14-7.21084E-13
 -1      1234 2.00173E+01-4.69752E-02 2.24081E-02-1.43211E-02-6.83438E-13 1.91548E-14
 -1      1235 1.99464E+01 2.50977E-01-8.54999E-02 7.19243E-03-3.02048E-13 7.50112E-14
 -1      1236 1.99528E+01 1.31491E+00-7.74951E-02 4.98129E-02 2.11497E-13 8.00575E-16
 -1      1237 1.99755E+01 2.91061E+00-3.96602E-02 7.08651E-02-6.71768E-13 1.00280E-14
 -1      1238 2.00096E+01 4.76092E+00 1.20319E-02 7.83802E-02-8.85819E-13-6.19256E-14
 -1      1239 2.00490E+01 6.51406E+00 7.02790E-02 6.87657E-02-1.77452E-12-1.86864E-13
 -1      1240 2.00821E+01 7.80129E+00 1.17950E-01 4.19936E-02-2.21200E-12-2.19807E-14
 -1      1241 2.00950E+01 8.30754E+00 1.36327E-01 1.30367E-03-1.41778E-12 1.71393E-13
 -1      1242 2.00810E+01 7.89301E+00 1.15453E-01-3.87282E-02-1.01227E-12 9.92583E-14
 -1      1243 2.00467E+01 6.69848E+00 6.51079E-02-6.47644E-02-1.01207E-12 1.92255E-13
 -1      1244 2.00071E+01 5.06368E+00 7.34199E-03-7.06911E-02-5.86899E-13-8.71793E-14
 -1      1245 1.99768E+01 3.39046E+00-3.71396E-02-5.94677E-02-7.54674E-13 9.70827E-14
 -1      1246 1.99608E+01 1.96106E+00-5.91231E-02-4.06614E-02-5.41345E-13 7.33684E-14
 -1      1247 1.99585E+01 9.11426E-01-6.19133E-02-2.06467E-02-7.49401E-16 1.13204E-13
 -1      1248 1.99671E+01 2.62646E-01-5.42304E-02-8.28987E-03-2.66962E-13-9.22422E-14
 -1      1249 1.99654E+01-6.39680E-04-3.18659E-02 1.78896E-02-6.89071E-13-1.26228E-13
 -1      1250 2.00090E+01-3.07144E-02 1.83795E-02 1.09440E-02-3.32471E-13 6.21834E-14
 -1      1251-1.45639E+00-2.68018E+01-4.15211E+00-2.57104E+00 4.32238E-12 5.66606E-13
 -1      1252-2.10382E+00-1.68384E+01-3.35560E+00-4.31395E+00 2.98428E-12 8.22065E-13
 -1      1253 4.22353E-01-2.62473E+00-1.95574E+00-2.74639E-02 1.52323E-13-2.23377E-13
 -1      1254 1.01722E+01 8.41430E+00-1.03507E-01 9.05684E+00-1.11622E-12-1.19238E-12
 -1      1255 2.74904E+01 1.18010E+01 1.67437E+00 1.70527E+01-6.20837E-13-9.02389E-13
 -1      1256 4.80879E+01 8.88484E+00 3.20845E+00 1.88710E+01-4.62408E-13-8.97726E-13
 -1      1257 6.47259E+01 3.76523E+00 4.21575E+00 1.20154E+01-1.83242E-13-9.49019E-13
 -1      1258 6.99814E+01 1.54980E+00 4.46475E+00-1.20886E+00 3.29251E-14-8.85098E-13
 -1      1259 6.07698E+01 4.52723E+00 3.92256E+00-1.33672E+01 2.75197E-13-1.00642E-12
 -1      1260 4.11024E+01 9.20821E+00 2.55082E+00-1.76965E+01 6.67022E-13-1.18261E-12
 -1      1261 2.00199E+01 1.03061E+01 8.35900E-01-1.37904E+01 1.01674E-12-1.39866E-12
 -1      1262 5.25664E+00 4.34008E+00-1.01271E+00-5.08129E+00 5.08260E-13-5.21361E-13
 -1      1263-1.21071E+00-7.66515E+00-2.43319E+00 2.42974E+00-1.27676E-13 1.09246E-13
 -1      1264-1.88545E+00-2.03892E+01-3.47768E+00 4.64220E+00-6.48814E-13 1.36668E-13
 -1      1265-9.48357E-01-2.64329E+01-3.84158E+00 1.24846E+00-9.23248E-13 1.01495E-13
 -1      1266-1.22658E+00-2.34093E+01-3.59516E+00-3.20006E+00-9.57012E-13-1.32692E-13
 -1      1267-1.73939E+00-1.27420E+01-2.80109E+00-3.90411E+00-1.21902E-13 1.29785E-13
 -1      1268 1.77048E+00 3.55565E-01-1.45550E+00 1.55523E+00 7.01661E-14-1.39000E-13
 -1      1269 1.30299E+01 9.30353E+00 2.58805E-01 1.05580E+01-3.71259E-13-3.91909E-13
 -1      1270 3.24054E+01 1.06534E+01 1.90676E+00 1.72939E+01-1.16240E-13-1.93845E-13
 -1      1271 5.36160E+01 6.53679E+00 3.44212E+00 1.66055E+01 4.35207E-14 2.73115E-14
 -1      1272 6.64357E+01 2.69279E+00 4.26023E+00 7.28399E+00-1.61537E-14 2.18492E-13
 -1      1273 6.72759E+01 2.56938E+00 4.29649E+00-6.01442E+00-6.54338E-15 2.95264E-13
 -1      1274 5.54033E+01 6.64155E+00 3.71014E+00-1.65443E+01-3.83416E-13 1.02118E-12
 -1      1275 3.51926E+01 1.10806E+01 2.30466E+00-1.84716E+01-9.39915E-13 1.55587E-12
 -1      1276 1.54228E+01 1.04296E+01 5.87402E-01-1.22252E+01-1.74594E-12 1.77702E-12
 -1      1277 2.37263E+00 9.82746E-01-1.36241E+00-2.16945E+00-1.90492E-12 1.37179E-12
 -1      1278-1.82776E+00-1.45201E+01-3.05931E+00 4.22301E+00-4.34541E-13 5.24358E-13
 -1      1279-1.09748E+00-2.64863E+01-4.04665E+00 2.65699E+00 3.15786E-12-1.49193E-13
 -1      1280 2.22673E+01 1.83822E+00-7.25868E-01-2.79068E+00-6.71130E-14 8.39717E-13
 -1      1281 2.03596E+01 4.69026E+00-4.86511E-02-3.30711E+00-1.63466E-13-2.08007E-13
 -1      1282 2.08671E+01 4.81075E+00-1.13352E-01-4.16133E+00-2.21601E-13 2.38698E-14
 -1      1283 1.95321E+01 4.99343E+00-1.96042E-02-2.65481E+00-1.53502E-13-5.23519E-13
 -1      1284 1.98300E+01 5.09032E+00 2.61594E-04-3.04582E+00-1.76956E-13-3.92235E-13
 -1      1285 2.05262E+01 3.95289E+00-2.58937E-02-3.07513E+00-2.85466E-13-1.83409E-13
 -1      1286 1.91841E+01 5.08412E+00-3.67504E-03-2.07045E+00-1.13784E-13-6.63972E-13
 -1      1287 1.93336E+01 5.13939E+00 1.05853E-02-2.36363E+00-1.34524E-13-6.04877E-13
 -1      1288 1.97545E+01 4.36602E+00-2.42680E-02-2.48981E+00-2.35147E-13-4.43527E-13
 -1      1289 1.90087E+01 5.13088E+00 3.26370E-03-1.56501E+00-7.35766E-14-7.24774E-13
 -1      1290 1.90862E+01 5.16079E+00 1.25453E-02-1.81491E+00-8.67778E-14-7.02275E-13
 -1      1291 1.93924E+01 4.55564E+00-1.95788E-02-1.93135E+00-1.63630E-13-5.62220E-13
 -1      1292 1.89155E+01 5.16055E+00 6.60756E-03-1.11724E+00-3.57891E-14-7.36598E-13
 -1      1293 1.89578E+01 5.17683E+00 1.27176E-02-1.33875E+00-5.15265E-14-7.29777E-13
 -1      1294 1.92055E+01 4.66132E+00-1.60768E-02-1.44519E+00-1.08005E-13-6.11171E-13
 -1      1295 1.88641E+01 5.18038E+00 8.20633E-03-6.93890E-01-6.13528E-15-7.28362E-13
 -1      1296 1.88871E+01 5.18924E+00 1.20388E-02-9.04127E-01-1.41441E-14-7.33606E-13
 -1      1297 1.91029E+01 4.72666E+00-1.39448E-02-1.00438E+00-4.61955E-14-6.21423E-13
 -1      1298 1.88401E+01 5.19231E+00 9.29083E-03-2.89183E-01 2.12426E-14-7.04308E-13
 -1      1299 1.88500E+01 5.19613E+00 1.10725E-02-4.91310E-01 1.07531E-14-7.17653E-13
 -1      1300 1.90471E+01 4.76566E+00-1.29094E-02-5.88834E-01 5.34512E-16-6.03087E-13
 -1      1301 1.88364E+01 5.19724E+00 1.02204E-02 1.08236E-01 5.43575E-14-6.76769E-13
 -1      1302 1.88360E+01 5.19711E+00 1.01489E-02-9.14411E-02 4.39915E-14-6.90935E-13
 -1      1303 1.90229E+01 4.78366E+00-1.24758E-02-1.89109E-01 5.43506E-14-5.88460E-13
 -1      1304 1.88517E+01 5.19577E+00 1.11581E-02 5.08691E-01 7.98550E-14-6.43770E-13
 -1      1305 1.88411E+01 5.19166E+00 9.22454E-03 3.06147E-01 7.30744E-14-6.63315E-13
 -1      1306 1.90237E+01 4.78302E+00-1.24964E-02 2.05808E-01 1.00811E-13-5.56527E-13
 -1      1307 1.88903E+01 5.18809E+00 1.20922E-02 9.22979E-01 1.01881E-13-6.04676E-13
 -1      1308 1.88665E+01 5.17906E+00 8.13296E-03 7.11794E-01 9.54696E-14-6.35356E-13
 -1      1309 1.90497E+01 4.76359E+00-1.29820E-02 6.06233E-01 1.49473E-13-5.34062E-13
 -1      1310 1.89622E+01 5.17511E+00 1.28982E-02 1.35622E+00 1.34665E-13-5.28253E-13
 -1      1311 1.89189E+01 5.15837E+00 6.44728E-03 1.13332E+00 1.20137E-13-5.68760E-13
 -1      1312 1.91071E+01 4.72317E+00-1.40042E-02 1.01958E+00 1.78783E-13-4.88387E-13
 -1      1313 1.90949E+01 5.15667E+00 1.28256E-02 1.84090E+00 1.75998E-13-4.22964E-13
 -1      1314 1.90153E+01 5.12632E+00 3.14174E-03 1.58809E+00 1.59215E-13-4.83225E-13
 -1      1315 1.92126E+01 4.65482E+00-1.61489E-02 1.46272E+00 2.39124E-13-4.01679E-13
 -1      1316 1.93436E+01 5.13345E+00 1.01701E-02 2.39800E+00 2.10443E-13-2.63171E-13
 -1      1317 1.91935E+01 5.07632E+00-4.38004E-03 2.10072E+00 1.94841E-13-3.64105E-13
 -1      1318 1.94052E+01 4.54241E+00-1.99859E-02 1.95843E+00 3.01387E-13-2.97408E-13
 -1      1319 1.98553E+01 5.09943E+00 6.05066E-03 3.08411E+00 2.21989E-13 5.48520E-14
 -1      1320 1.95433E+01 4.98442E+00-2.05467E-02 2.69673E+00 2.01811E-13-1.36641E-13
 -1      1321 1.97746E+01 4.34642E+00-2.45622E-02 2.52830E+00 3.34290E-13-9.94621E-14
 -1      1322 2.11033E+01 4.90702E+00 8.31328E-03 4.05414E+00 1.81744E-13 6.43388E-13
 -1      1323 2.03342E+01 4.73386E+00-4.79723E-02 3.41649E+00 1.80272E-13 2.87527E-13
 -1      1324 2.05645E+01 3.91595E+00-2.24124E-02 3.17863E+00 3.24608E-13 2.49550E-13
 -1      1325 2.72031E+01 3.20543E+00 9.29058E-01 4.58242E+00 8.05189E-14 1.70441E-12
 -1      1326 2.20201E+01 3.52221E+00-1.82003E-01 3.88517E+00 8.63476E-14 9.74998E-13
 -1      1327 2.21124E+01 2.56181E+00-3.25501E-02 3.45679E+00 2.91493E-13 7.73215E-13
 -1      1328 2.14270E+01 3.59588E-01-7.63536E-01 1.18394E+00 1.47347E-13 1.65701E-12
 -1      1329 2.20014E+01 1.31375E-01-4.00865E-01-1.28580E+00-1.79801E-13 9.13186E-13
 -1      1330 2.06786E+01 3.06736E-01-1.64804E-01-8.05836E-01-1.65826E-13 6.94847E-13
 -1      1331 2.00808E+01 1.53506E-01-7.35273E-02-4.02137E-01-1.32134E-13 6.13781E-13
 -1      1332 1.96110E+01 9.11912E-02-1.49156E-02-3.29971E-01-1.20584E-13 4.21635E-13
 -1      1333 2.09724E+01 3.69273E-01-1.04212E-01-1.27403E+00-2.90379E-13 3.09544E-13
 -1      1334 1.92536E+01 6.44589E-02 3.05303E-03-1.35398E-01-1.03396E-13 3.66891E-13
 -1      1335 1.90992E+01 4.12063E-02 1.32239E-02-1.17641E-01-9.13956E-14 2.19685E-13
 -1      1336 1.99215E+01 1.33762E-01-3.51653E-02-5.04027E-01-2.09520E-13 1.86535E-13
 -1      1337 1.89387E+01 3.15314E-02 1.32361E-02-2.82082E-02-6.23967E-14 1.52562E-13
 -1      1338 1.89190E+01 1.94218E-02 1.10420E-02-1.87981E-02-5.69965E-14 6.00943E-14
 -1      1339 1.94443E+01 5.55773E-02-8.44019E-03-1.70276E-01-1.61536E-13 7.05061E-14
 -1      1340 1.88628E+01 1.60210E-02 8.75721E-03 2.48932E-02-5.21488E-14 2.05599E-14
 -1      1341 1.89050E+01 9.06280E-03 6.41796E-03 2.95210E-02-6.38556E-14-5.84602E-14
 -1      1342 1.92350E+01 2.44173E-02-3.52833E-03-1.14460E-02-1.20100E-13-3.64977E-14
 -1      1343 1.89049E+01 7.83424E-03 4.66676E-03 5.06498E-02-6.28548E-14-8.05380E-14
 -1      1344 1.89750E+01 3.47873E-03 3.64436E-03 5.25252E-02-4.27201E-14-1.39609E-13
 -1      1345 1.91779E+01 1.01773E-02-2.21992E-03 6.72429E-02-1.14568E-13-8.99038E-14
 -1      1346 1.90043E+01 3.16357E-03 2.44815E-03 6.12685E-02-1.58278E-14-1.77544E-13
 -1      1347 1.90845E+01 3.10133E-04 2.21562E-03 6.15233E-02-2.39977E-14-2.09287E-13
 -1      1348 1.92036E+01 2.73156E-03-1.31599E-03 1.03962E-01-6.13570E-14-1.10308E-13
 -1      1349 1.91278E+01 4.22539E-04 1.33873E-03 6.31631E-02-1.83539E-14-2.18861E-13
 -1      1350 1.92082E+01-1.47950E-03 1.44364E-03 6.24700E-02-3.21138E-14-2.60306E-13
 -1      1351 1.92722E+01-1.34189E-03-5.51767E-04 1.17118E-01-5.21811E-14-2.05221E-13
 -1      1352 1.92565E+01-1.15743E-03 7.54755E-04 6.00517E-02-4.96221E-14-2.39139E-13
 -1      1353 1.93316E+01-2.41528E-03 9.76741E-04 5.88427E-02-6.84712E-14-3.40290E-13
 -1      1354 1.93599E+01-3.53774E-03 4.62981E-06 1.16695E-01-6.70399E-14-2.22895E-13
 -1      1355 1.93795E+01-1.99653E-03 4.20982E-04 5.42587E-02-6.25482E-14-3.58602E-13
 -1      1356 1.94465E+01-2.80109E-03 6.68819E-04 5.28201E-02-2.90275E-14-4.20428E-13
 -1      1357 1.94525E+01-4.58528E-03 3.53473E-04 1.08654E-01-9.88082E-14-1.81039E-13
 -1      1358 1.94910E+01-2.34989E-03 2.20878E-04 4.72915E-02-2.33940E-14-4.72089E-13
 -1      1359 1.95489E+01-2.82898E-03 4.58542E-04 4.58133E-02-2.44747E-14-4.99388E-13
 -1      1360 1.95418E+01-4.90088E-03 5.37998E-04 9.67676E-02-6.34381E-14-2.28157E-13
 -1      1361 1.95886E+01-2.38169E-03 1.01758E-04 4.01399E-02-1.53483E-14-4.87688E-13
 -1      1362 1.96373E+01-2.62442E-03 3.15756E-04 3.87470E-02-7.95249E-15-5.07382E-13
 -1      1363 1.96234E+01-4.74529E-03 6.04869E-04 8.34946E-02-2.74205E-14-2.94848E-13
 -1      1364 1.96718E+01-2.19953E-03 3.57566E-05 3.34551E-02 2.06576E-14-5.06398E-13
 -1      1365 1.97121E+01-2.26880E-03 2.22676E-04 3.22288E-02 1.74989E-14-4.85913E-13
 -1      1366 1.96955E+01-4.28699E-03 5.90718E-04 7.04507E-02 2.88297E-14-2.76761E-13
 -1      1367 1.97416E+01-1.87250E-03 5.86084E-06 2.76686E-02 2.21738E-14-4.82252E-13
 -1      1368 1.97748E+01-1.81229E-03 1.67506E-04 2.66631E-02-1.60890E-14-4.83722E-13
 -1      1369 1.97577E+01-3.63305E-03 5.21020E-04 5.87059E-02-1.14474E-14-2.67407E-13
 -1      1370 1.98001E+01-1.44179E-03 6.97106E-07 2.30773E-02-3.78864E-14-4.60788E-13
 -1      1371 1.98277E+01-1.28197E-03 1.41958E-04 2.23316E-02-3.92769E-14-5.25711E-13
 -1      1372 1.98112E+01-2.84634E-03 4.12100E-04 4.89856E-02-3.94220E-14-2.68032E-13
 -1      1373 1.98499E+01-9.27716E-04 1.21743E-05 1.99063E-02-3.46384E-14-5.21118E-13
 -1      1374 1.98737E+01-6.87705E-04 1.39973E-04 1.94534E-02-5.46854E-14-6.19083E-13
 -1      1375 1.98578E+01-1.95660E-03 2.73284E-04 4.18145E-02-7.26377E-14-2.75981E-13
 -1      1376 1.98943E+01-3.34798E-04 3.41169E-05 1.83559E-02-5.25045E-14-6.04396E-13
 -1      1377 1.99162E+01-2.67560E-05 1.56870E-04 1.82300E-02-2.65850E-14-6.37940E-13
 -1      1378 1.98998E+01-9.68421E-04 1.08643E-04 3.76236E-02-6.81621E-14-3.37195E-13
 -1      1379 1.99368E+01 3.43981E-04 6.12930E-05 1.86357E-02-2.60795E-14-6.81917E-13
 -1      1380 1.99592E+01 7.12069E-04 1.88625E-04 1.88774E-02-4.33882E-14-7.50822E-13
 -1      1381 1.99402E+01 1.32235E-04-8.15866E-05 3.68298E-02-6.38397E-14-4.36360E-13
 -1      1382 1.99817E+01 1.12316E-03 8.86094E-05 2.09885E-02-7.65234E-14-8.01904E-13
 -1      1383 2.00071E+01 1.54411E-03 2.31156E-04 2.16477E-02-8.85085E-14-9.25090E-13
 -1      1384 1.99825E+01 1.37193E-03-2.99721E-04 3.98898E-02-1.20528E-13-5.21627E-13
 -1      1385 2.00337E+01 2.02022E-03 1.10369E-04 2.57003E-02 4.76778E-17-9.87470E-13
 -1      1386 2.00651E+01 2.48362E-03 2.79524E-04 2.68374E-02-1.99245E-14-1.01232E-12
 -1      1387 2.00308E+01 2.78293E-03-5.49308E-04 4.73323E-02-9.01600E-14-6.41557E-13
 -1      1388 2.00983E+01 3.04971E-03 1.19551E-04 3.30965E-02 2.72023E-14-9.22531E-13
 -1      1389 2.01390E+01 3.53667E-03 3.26982E-04 3.47799E-02 5.60231E-14-8.66242E-13
 -1      1390 2.00894E+01 4.39435E-03-8.33555E-04 5.97606E-02 5.54444E-14-7.62921E-13
 -1      1391 2.01814E+01 4.21472E-03 1.07151E-04 4.35165E-02 1.30857E-14-8.37278E-13
 -1      1392 2.02351E+01 4.69089E-03 3.63917E-04 4.58156E-02 1.01786E-14-8.04232E-13
 -1      1393 2.01636E+01 6.21939E-03-1.15328E-03 7.78198E-02 5.14624E-14-7.38380E-13
 -1      1394 2.02899E+01 5.49425E-03 6.17543E-05 5.72577E-02 4.22882E-15-7.48150E-13
 -1      1395 2.03608E+01 5.90039E-03 3.76795E-04 6.02295E-02 1.22619E-14-7.68524E-13
 -1      1396 2.02589E+01 8.23607E-03-1.50399E-03 1.02111E-01 3.70867E-14-5.91507E-13
 -1      1397 2.04309E+01 6.82429E-03-3.02623E-05 7.44745E-02 5.14085E-14-7.55507E-13
 -1      1398 2.05232E+01 7.06363E-03 3.47588E-04 7.81388E-02 5.64877E-14-6.85631E-13
 -1      1399 2.03813E+01 1.03579E-02-1.87177E-03 1.33032E-01 3.02966E-14-4.00477E-13
 -1      1400 2.06117E+01 8.07001E-03-1.83053E-04 9.50110E-02 1.28983E-14-6.18563E-13
 -1      1401 2.07295E+01 7.99228E-03 2.54645E-04 9.93107E-02 8.12002E-15-5.95258E-13
 -1      1402 2.05367E+01 1.23898E-02-2.22711E-03 1.70499E-01 8.66507E-14-4.09748E-13
 -1      1403 2.08387E+01 8.98660E-03-4.06617E-04 1.18141E-01 4.44597E-14-6.43743E-13
 -1      1404 2.09849E+01 8.37021E-03 7.69037E-05 1.22879E-01-1.48787E-14-6.33343E-13
 -1      1405 2.07306E+01 1.39654E-02-2.51635E-03 2.13524E-01-1.39799E-14-4.30600E-13
 -1      1406 2.11159E+01 9.16902E-03-6.96679E-04 1.42185E-01-7.52630E-14-6.93030E-13
 -1      1407 2.12913E+01 7.70633E-03-1.95598E-04 1.46935E-01-8.22432E-14-8.06449E-13
 -1      1408 2.09664E+01 1.44636E-02-2.64977E-03 2.59568E-01-8.73208E-14-5.45066E-13
 -1      1409 2.14427E+01 7.99758E-03-1.01619E-03 1.63997E-01-5.72459E-15-8.32973E-13
 -1      1410 2.16436E+01 5.29719E-03-5.41532E-04 1.67977E-01 6.33651E-15-8.45032E-13
 -1      1411 2.12440E+01 1.29147E-02-2.48698E-03 3.03667E-01-5.04749E-14-6.31789E-13
 -1      1412 2.18101E+01 4.60519E-03-1.26716E-03 1.78352E-01-8.58254E-15-8.14190E-13
 -1      1413 2.20260E+01 2.40181E-04-8.77511E-04 1.80282E-01 9.59112E-16-7.54707E-13
 -1      1414 2.15573E+01 7.93473E-03-1.82288E-03 3.37336E-01 1.81376E-14-5.75326E-13
 -1      1415 2.21966E+01-2.07174E-03-1.25891E-03 1.77406E-01-3.62435E-14-7.31734E-13
 -1      1416 2.24067E+01-8.41746E-03-1.02560E-03 1.75395E-01-7.73210E-15-6.86809E-13
 -1      1417 2.18911E+01-2.21546E-03-3.84921E-04 3.47503E-01 2.32587E-14-5.00172E-13
 -1      1418 2.25624E+01-1.30372E-02-6.97343E-04 1.50667E-01 1.94480E-14-7.14252E-13
 -1      1419 2.27325E+01-2.12544E-02-7.11120E-04 1.42254E-01-5.06886E-14-7.05066E-13
 -1      1420 2.22168E+01-1.92532E-02 2.13252E-03 3.16073E-01-5.80144E-14-4.29416E-13
 -1      1421 2.28458E+01-2.86008E-02 7.48107E-04 8.63049E-02 3.10914E-14-7.12071E-13
 -1      1422 2.29273E+01-3.76255E-02 3.51372E-04 6.89029E-02 2.06389E-15-7.50055E-13
 -1      1423 2.24898E+01-4.38929E-02 5.94789E-03 2.21403E-01-3.46355E-14-3.86424E-13
 -1      1424 2.29626E+01-4.72219E-02 3.23045E-03-2.49707E-02-6.78416E-14-6.65320E-13
 -1      1425 2.28971E+01-5.43796E-02 2.22417E-03-5.29035E-02-1.42464E-14-7.34714E-13
 -1      1426 2.26489E+01-7.40197E-02 1.09263E-02 4.37009E-02 8.88178E-16-3.36926E-13
 -1      1427 2.28167E+01-6.39672E-02 6.33527E-03-1.82381E-01 2.99795E-14-6.92448E-13
 -1      1428 2.25509E+01-6.46870E-02 4.34155E-03-2.19185E-01 1.13089E-13-5.36649E-13
 -1      1429 2.26213E+01-1.02208E-01 1.61642E-02-2.23497E-01 1.66507E-14-3.10114E-13
 -1      1430 2.23268E+01-6.97986E-02 8.64869E-03-3.64781E-01 5.82485E-14-6.30475E-13
 -1      1431 2.18392E+01-5.87278E-02 5.30868E-03-4.03090E-01 3.58307E-14-5.67605E-13
 -1      1432 2.23400E+01-1.14329E-01 1.95289E-02-5.55784E-01 9.75400E-14-4.04995E-13
 -1      1433 2.14726E+01-5.39656E-02 8.12459E-03-5.23678E-01 3.72900E-14-5.09343E-13
 -1      1434 2.08057E+01-2.83387E-02 3.36688E-03-5.49723E-01-6.67695E-15-4.87291E-13
 -1      1435 2.17736E+01-9.31545E-02 1.77466E-02-8.81540E-01 4.26143E-14-4.32621E-13
 -1      1436 2.03462E+01-1.13285E-02 3.29668E-03-5.90849E-01-1.63441E-14-5.40727E-13
 -1      1437 1.96240E+01 2.44474E-02-2.23573E-03-5.88796E-01-2.11630E-14-5.26197E-13
 -1      1438 2.09669E+01-2.87657E-02 8.19117E-03-1.08453E+00-1.23280E-14-4.67300E-13
 -1      1439 1.91737E+01 4.82237E-02-4.79036E-03-5.09487E-01-6.36644E-14-3.56534E-13
 -1      1440 1.85787E+01 8.10129E-02-9.52765E-03-4.71679E-01-1.66204E-14-3.75370E-13
 -1      1441 2.00675E+01 6.64725E-02-8.38958E-03-1.04489E+00-3.79007E-14-3.79330E-13
 -1      1442 1.82631E+01 9.86208E-02-1.19075E-02-2.78593E-01-2.78579E-14-4.01915E-13
 -1      1443 1.79644E+01 1.12609E-01-1.41017E-02-2.14909E-01-2.81459E-14-4.77056E-13
 -1      1444 1.93049E+01 1.54924E-01-2.52087E-02-7.15760E-01-1.82684E-14-4.13130E-13
 -1      1445 1.78730E+01 1.12136E-01-1.35660E-02 2.60108E-02-3.11227E-14-5.59658E-13
 -1      1446 1.79410E+01 9.98573E-02-1.23952E-02 8.99441E-02-1.04926E-13-5.69256E-13
 -1      1447 1.89004E+01 1.91456E-01-3.25929E-02-1.84503E-01-5.85348E-14-4.02517E-13
 -1      1448 1.80753E+01 8.10405E-02-8.83723E-03 2.84429E-01-8.22675E-14-5.89240E-13
 -1      1449 1.84413E+01 4.96826E-02-5.02238E-03 3.22653E-01-6.85996E-15-6.59049E-13
 -1      1450 1.89486E+01 1.55680E-01-2.54406E-02 3.48698E-01-1.33846E-13-3.85308E-13
 -1      1451 1.87132E+01 2.43064E-02-1.17397E-03 4.03595E-01 2.84861E-14-6.15855E-13
 -1      1452 1.92083E+01-9.95227E-03 3.50792E-03 4.05746E-01-4.50076E-14-6.45102E-13
 -1      1453 1.93595E+01 6.70926E-02-8.65592E-03 6.81858E-01 7.35609E-15-3.40254E-13
 -1      1454 1.94935E+01-2.82474E-02 4.90837E-03 3.66775E-01-4.91521E-14-4.47007E-13
 -1      1455 1.99363E+01-5.14428E-02 8.89690E-03 3.40881E-01 7.87508E-14-4.18866E-13
 -1      1456 1.99142E+01-2.79856E-02 8.00570E-03 7.26078E-01 7.53278E-14-1.62776E-13
 -1      1457 2.01357E+01-5.63124E-02 7.11902E-03 2.26612E-01 1.72849E-13-4.06716E-13
 -1      1458 2.04089E+01-6.32818E-02 9.61499E-03 1.89915E-01 2.21279E-13-1.66072E-13
 -1      1459 2.03866E+01-8.94229E-02 1.71834E-02 5.32747E-01 2.13499E-13-3.35149E-15
 -1      1460 2.04813E+01-5.63356E-02 5.75994E-03 6.17794E-02 2.37862E-13-2.97097E-13
 -1      1461 2.05599E+01-4.96499E-02 6.74405E-03 3.02843E-02 1.87892E-13-7.54140E-14
 -1      1462 2.06395E+01-1.02054E-01 1.75971E-02 2.34530E-01 3.23883E-13-1.03724E-13
 -1      1463 2.05198E+01-3.59682E-02 2.17228E-03-6.22109E-02 5.26198E-14-7.63994E-14
 -1      1464 2.04562E+01-2.15428E-02 2.22246E-03-7.86603E-02 5.64405E-14-6.02201E-14
 -1      1465 2.06515E+01-7.42364E-02 1.17111E-02-3.37327E-02 1.18836E-13-2.30546E-13
 -1      1466 2.03524E+01-5.73251E-03-2.19501E-03-1.09182E-01 2.05048E-13-2.03298E-13
 -1      1467 2.02417E+01 9.87725E-03-1.25155E-03-1.06681E-01 9.28345E-14-5.31606E-15
 -1      1468 2.04897E+01-2.34349E-02 3.39913E-03-1.82071E-01 1.30062E-13-3.18143E-13
 -1      1469 2.01312E+01 2.40993E-02-4.02196E-03-7.30822E-02 8.32564E-15 1.96287E-13
 -1      1470 2.00680E+01 2.76564E-02 1.22334E-03-5.74016E-02 7.61468E-15 2.01764E-13
 -1      1471 2.02628E+01 3.41787E-02-1.65447E-03-1.79785E-01 2.02636E-13-1.55809E-13
 -1      1472 1.99901E+01 5.51660E-03 3.44802E-03 9.35098E-03-3.04055E-13 2.60776E-13
 -1      1473 2.00573E+01 4.41928E-02-6.98323E-04-5.07685E-02-1.63957E-13 1.28789E-14
 -1      1474 2.02596E+01 7.54756E-02-1.52095E-01 4.83935E-01 1.39659E-13 1.33803E-12
 -1      1475 2.15300E+01 2.16132E-01-2.29287E-01 7.20930E-01 1.18058E-13 1.54775E-12
 -1      1476 2.17285E+01 8.81777E-01-8.54682E-02 2.06499E+00 2.35763E-13 1.02029E-12
 -1      1477 1.93311E+01 3.23783E-02-2.13326E-02 1.86101E-01 1.18492E-13 1.04156E-12
 -1      1478 1.97518E+01 1.13615E-01-6.27016E-02 2.38109E-01 1.15401E-13 1.21792E-12
 -1      1479 2.03031E+01 1.87677E-01-5.51902E-02 7.86338E-01 2.28068E-13 8.16528E-13
 -1      1480 1.89491E+01 1.51016E-02 5.66675E-03 5.36140E-02 6.30052E-14 8.26627E-13
 -1      1481 1.90878E+01 5.16207E-02 9.76807E-04 7.99238E-02 8.00341E-14 9.51204E-13
 -1      1482 1.95579E+01 7.18319E-02-1.21548E-02 2.99170E-01 1.78458E-13 6.41064E-13
 -1      1483 1.88383E+01 7.11616E-03 6.97561E-03-8.86414E-03 6.57382E-14 6.60496E-13
 -1      1484 1.88530E+01 2.58530E-02 1.10874E-02 5.53137E-03 4.91968E-14 7.49095E-13
 -1      1485 1.92223E+01 3.10268E-02-2.46289E-03 8.37078E-02 1.20821E-13 4.86781E-13
 -1      1486 1.88639E+01 3.20107E-03 4.78311E-03-3.90883E-02 1.63214E-14 5.54650E-13
 -1      1487 1.88204E+01 1.37970E-02 8.51849E-03-3.09767E-02 3.47528E-14 6.08969E-13
 -1      1488 1.91054E+01 1.32509E-02-1.61747E-03-2.12289E-02 9.51791E-14 3.73677E-13
 -1      1489 1.89576E+01 1.04239E-03 3.29563E-03-5.24754E-02 2.80043E-14 5.02692E-13
 -1      1490 1.88874E+01 7.26337E-03 5.36612E-03-4.80145E-02 9.74644E-15 5.08848E-13
 -1      1491 1.91062E+01 4.51881E-03-1.63124E-03-7.26490E-02 4.36164E-14 3.17419E-13
 -1      1492 1.90812E+01-2.05471E-04 2.51416E-03-5.63754E-02 1.03657E-14 4.49489E-13
 -1      1493 1.90015E+01 3.42693E-03 3.43030E-03-5.41752E-02 2.05690E-14 4.64309E-13
 -1      1494 1.91684E+01-1.36729E-04-1.37395E-03-9.51995E-02 4.96547E-14 2.69407E-13
 -1      1495 1.92132E+01-9.10056E-04 2.04951E-03-5.48277E-02 2.40547E-14 4.39887E-13
 -1      1496 1.91334E+01 1.09554E-03 2.32893E-03-5.40484E-02 1.39242E-14 4.52015E-13
 -1      1497 1.92597E+01-2.65280E-03-9.97050E-04-1.01296E-01 2.78805E-14 2.68798E-13
 -1      1498 1.93409E+01-1.26640E-03 1.70486E-03-5.02763E-02 3.92879E-14 3.72669E-13
 -1      1499 1.92665E+01-3.07068E-04 1.65180E-03-5.03738E-02 1.77659E-14 4.20966E-13
 -1      1500 1.93612E+01-3.91454E-03-6.54047E-04-9.79554E-02 4.12029E-14 2.06147E-13
 -1      1501 1.94576E+01-1.39368E-03 1.41361E-03-4.42752E-02 2.35813E-14 3.49301E-13
 -1      1502 1.93913E+01-1.10329E-03 1.19329E-03-4.48851E-02 3.14307E-14 3.89782E-13
 -1      1503 1.94616E+01-4.39926E-03-3.90931E-04-8.94686E-02 3.41188E-14 2.05786E-13
 -1      1504 1.95602E+01-1.36983E-03 1.15764E-03-3.78344E-02 6.05616E-14 2.79768E-13
 -1      1505 1.95030E+01-1.49257E-03 8.64288E-04-3.87077E-02 3.87202E-14 3.31827E-13
 -1      1506 1.95547E+01-4.39384E-03-2.04881E-04-7.85798E-02 5.85404E-14 1.93762E-13
 -1      1507 1.96478E+01-1.24652E-03 9.32047E-04-3.16129E-02 3.88034E-14 2.21293E-13
 -1      1508 1.95998E+01-1.60504E-03 6.23432E-04-3.25781E-02 4.75633E-14 2.42625E-13
 -1      1509 1.96376E+01-4.08097E-03-8.16838E-05-6.70784E-02 9.34681E-14 1.24510E-13
 -1      1510 1.97213E+01-1.05697E-03 7.34275E-04-2.60422E-02 2.86771E-14 1.21807E-13
 -1      1511 1.96816E+01-1.52655E-03 4.47769E-04-2.69791E-02 1.31835E-14 1.85874E-13
 -1      1512 1.97094E+01-3.57848E-03-8.22659E-06-5.61401E-02 6.51161E-14 1.39079E-13
 -1      1513 1.97824E+01-8.20587E-04 5.61368E-04-2.14108E-02-3.42573E-14 1.44694E-13
 -1      1514 1.97499E+01-1.31187E-03 3.22447E-04-2.22322E-02-1.61186E-14 1.19865E-13
 -1      1515 1.97706E+01-2.95964E-03 2.49150E-05-4.65458E-02-3.86271E-15 6.11080E-14
 -1      1516 1.98338E+01-5.46053E-04 4.09497E-04-1.79268E-02-4.76677E-14 2.17069E-13
 -1      1517 1.98069E+01-9.92501E-04 2.37037E-04-1.85645E-02-9.37328E-15 1.99533E-13
 -1      1518 1.98228E+01-2.26518E-03 2.34359E-05-3.88354E-02-4.39195E-14 1.33120E-13
 -1      1519 1.98785E+01-2.33380E-04 2.73939E-04-1.57665E-02-4.47217E-15 2.46978E-13
 -1      1520 1.98555E+01-5.81548E-04 1.84015E-04-1.61594E-02-1.16522E-14 2.04364E-13
 -1      1521 1.98684E+01-1.51099E-03-1.04202E-05-3.34205E-02-7.95700E-15 1.50367E-13
 -1      1522 1.99202E+01 1.24659E-04 1.49127E-04-1.51129E-02 1.04873E-13 1.06579E-13
 -1      1523 1.98990E+01-7.68650E-05 1.57942E-04-1.51976E-02 9.26981E-14 2.22731E-13
 -1      1524 1.99101E+01-6.93293E-04-7.77050E-05-3.06737E-02 9.27397E-14 7.51546E-14
 -1      1525 1.99632E+01 5.41528E-04 2.86835E-05-1.61886E-02 2.98709E-14-8.72254E-14
 -1      1526 1.99415E+01 5.36920E-04 1.54959E-04-1.58899E-02 8.07110E-14 3.97878E-14
 -1      1527 1.99514E+01 2.07742E-04-1.82747E-04-3.09993E-02 1.73452E-13 1.77641E-14
 -1      1528 2.00122E+01 1.03618E-03-9.46253E-05-1.92829E-02-4.93677E-14-3.10174E-14
 -1      1529 1.99875E+01 1.28709E-03 1.72380E-04-1.85057E-02-3.32106E-14-8.45429E-14
 -1      1530 1.99964E+01 1.22545E-03-3.33276E-04-3.48928E-02-7.55743E-16-2.86251E-14
 -1      1531 2.00733E+01 1.63238E-03-2.29086E-04-2.47765E-02-8.57825E-14 4.87465E-14
 -1      1532 2.00422E+01 2.21198E-03 2.08279E-04-2.33974E-02-4.38523E-14 2.19188E-14
 -1      1533 2.00499E+01 2.40470E-03-5.40677E-04-4.29910E-02-7.74638E-14 4.58171E-14
 -1      1534 2.01533E+01 2.35772E-03-3.84412E-04-3.31614E-02 8.76447E-14 5.52039E-14
 -1      1535 2.01121E+01 3.36006E-03 2.60910E-04-3.10205E-02 9.41467E-15 3.77619E-14
 -1      1536 2.01174E+01 3.80011E-03-8.20333E-04-5.61145E-02-7.18956E-15-6.21218E-14
 -1      1537 2.02606E+01 3.24167E-03-5.72307E-04-4.50554E-02 1.52597E-14-6.34488E-14
 -1      1538 2.02047E+01 4.78818E-03 3.27815E-04-4.19481E-02 3.97965E-14 6.76784E-14
 -1      1539 2.02057E+01 5.47347E-03-1.19194E-03-7.52992E-02 5.05986E-14 2.51312E-14
 -1      1540 2.04054E+01 4.31120E-03-8.07086E-04-6.12041E-02 2.42773E-14-1.15300E-13
 -1      1541 2.03292E+01 6.55723E-03 4.04373E-04-5.68751E-02 1.63745E-14-1.21638E-13
 -1      1542 2.03229E+01 7.48852E-03-1.67948E-03-1.01810E-01 6.05575E-14-8.67375E-14
 -1      1543 2.05998E+01 5.58154E-03-1.10592E-03-8.24563E-02-2.19351E-14-5.39920E-14
 -1      1544 2.04966E+01 8.72184E-03 4.81524E-04-7.65988E-02-6.81200E-14-1.48783E-13
 -1      1545 2.04784E+01 9.89968E-03-2.31014E-03-1.37120E-01-5.41585E-14-3.03599E-13
 -1      1546 2.08580E+01 7.03721E-03-1.48732E-03-1.09685E-01-9.83558E-14 1.22655E-13
 -1      1547 2.07197E+01 1.13078E-02 5.42474E-04-1.01953E-01-2.46498E-14 6.17945E-14
 -1      1548 2.06833E+01 1.27279E-02-3.11065E-03-1.82806E-01-1.13078E-13-2.25713E-13
 -1      1549 2.11960E+01 8.59517E-03-1.96423E-03-1.43597E-01 6.35323E-14 1.51413E-13
 -1      1550 2.10135E+01 1.42655E-02 5.58815E-04-1.33646E-01-8.13759E-15 1.57577E-13
 -1      1551 2.09500E+01 1.59112E-02-4.09763E-03-2.40312E-01-4.70437E-14-1.00810E-13
 -1      1552 2.16304E+01 1.00369E-02-2.52334E-03-1.84336E-01 2.14355E-14-8.66963E-14
 -1      1553 2.13939E+01 1.73790E-02 4.88467E-04-1.71928E-01 1.09468E-13 1.13868E-13
 -1      1554 2.12916E+01 1.92079E-02-5.25546E-03-3.10407E-01 1.30982E-13 1.03435E-14
 -1      1555 2.21758E+01 1.08915E-02-3.07368E-03-2.30710E-01-4.11498E-14-9.15292E-14
 -1      1556 2.18766E+01 2.01014E-02 2.82716E-04-2.15931E-01-6.24052E-14-1.47460E-13
 -1      1557 2.17204E+01 2.20179E-02-6.48914E-03-3.92145E-01-3.08004E-14-4.90558E-15
 -1      1558 2.28396E+01 1.02578E-02-3.33825E-03-2.78808E-01 2.84399E-14-7.55646E-14
 -1      1559 2.24729E+01 2.12823E-02-8.14228E-05-2.62492E-01 3.91462E-15-6.93404E-14
 -1      1560 2.22447E+01 2.30778E-02-7.53364E-03-4.80954E-01-3.23960E-15-7.81181E-14
 -1      1561 2.36117E+01 6.58938E-03-2.66835E-03-3.19752E-01-6.27974E-14-1.84353E-13
 -1      1562 2.31827E+01 1.87850E-02-5.16872E-04-3.04223E-01 2.15062E-14-1.44820E-13
 -1      1563 2.28633E+01 2.00090E-02-7.80223E-03-5.65444E-01 5.49916E-14-1.00494E-13
 -1      1564 2.44485E+01-2.40147E-03 1.71971E-04-3.36631E-01-1.06025E-13 6.20996E-14
 -1      1565 2.39824E+01 9.13453E-03-6.68501E-04-3.26801E-01-1.62614E-13-1.34719E-13
 -1      1566 2.35563E+01 8.82656E-03-6.19335E-03-6.22720E-01-2.09952E-13-1.89676E-13
 -1      1567 2.52510E+01-1.92801E-02 6.99513E-03-3.01749E-01-3.69414E-14 2.57894E-13
 -1      1568 2.48067E+01-1.23002E-02 2.72765E-04-3.06288E-01-5.20113E-14 1.81681E-13
 -1      1569 2.42717E+01-1.60823E-02-1.00293E-03-6.13171E-01-1.62234E-13 4.31790E-14
 -1      1570 2.58420E+01-4.49110E-02 1.92261E-02-1.77987E-01 1.21178E-13 2.26713E-13
 -1      1571 2.55267E+01-4.93272E-02 3.56880E-03-2.09374E-01 9.27730E-14 3.15751E-13
 -1      1572 2.49104E+01-6.02133E-02 9.62674E-03-4.78806E-01 5.29984E-14-7.25114E-16
 -1      1573 2.59646E+01-7.39577E-02 3.49792E-02 6.73585E-02-3.95274E-14 1.70041E-13
 -1      1574 2.59349E+01-9.94203E-02 9.94904E-03-3.12819E-03-4.32987E-15 1.47758E-13
 -1      1575 2.53154E+01-1.22573E-01 2.60749E-02-1.55157E-01 5.13582E-14 6.95234E-14
 -1      1576 2.53408E+01-8.97684E-02 4.48128E-02 4.26955E-01 2.20039E-13-9.13297E-14
 -1      1577 2.57652E+01-1.44829E-01 1.73128E-02 3.16637E-01 1.47099E-13 1.10977E-13
 -1      1578 2.52854E+01-1.85121E-01 4.32552E-02 3.86460E-01 1.60122E-13-1.17265E-13
 -1      1579 2.38321E+01-6.56646E-02 3.21648E-02 8.02251E-01 5.89234E-14-3.12653E-13
 -1      1580 2.47888E+01-1.48356E-01 1.84850E-02 6.80618E-01 9.79737E-14-1.15054E-13
 -1      1581 2.46429E+01-2.00242E-01 4.98821E-02 1.06285E+00 1.88601E-13-8.88664E-14
 -1      1582 2.16725E+01 1.22642E-02-1.59679E-02 9.87820E-01-4.01827E-14-8.19345E-14
 -1      1583 2.30051E+01-7.16463E-02 2.88420E-03 9.17663E-01-1.41418E-13-2.31398E-13
 -1      1584 2.33718E+01-1.09680E-01 3.01577E-02 1.60848E+00-8.94692E-14-7.38853E-14
 -1      1585 1.95953E+01 1.09934E-01-7.86191E-02 7.78009E-01-1.46312E-13 1.40526E-13
 -1      1586 2.08458E+01 7.50767E-02-2.98525E-02 8.22402E-01-5.91575E-14 5.41928E-14
 -1      1587 2.17837E+01 1.01722E-01-1.32177E-02 1.64035E+00-1.43529E-13 1.10682E-13
 -1      1588 1.85355E+01 1.53733E-01-1.07565E-01 1.92690E-01-1.51356E-13 7.76684E-13
 -1      1589 1.91419E+01 2.03637E-01-5.81776E-02 3.46752E-01-1.73063E-13 4.36026E-13
 -1      1590 2.05092E+01 3.23689E-01-5.27461E-02 9.56286E-01-3.28952E-13 6.07289E-13
 -1      1591 1.89636E+01 1.04773E-01-7.40403E-02-4.47899E-01-4.25771E-14 1.04394E-12
 -1      1592 1.86607E+01 2.16173E-01-5.63311E-02-2.73998E-01-3.34836E-14 8.49033E-13
 -1      1593 2.01374E+01 3.80039E-01-6.03325E-02-1.59111E-01-1.52867E-13 8.82841E-13
 -1      1594 2.04800E+01 6.52454E-03-4.11989E-03-7.72965E-01 1.74474E-13 7.32220E-13
 -1      1595 1.95220E+01 1.09486E-01-2.31515E-02-6.78481E-01 7.18176E-15 7.46792E-13
 -1      1596 2.07467E+01 2.12580E-01-3.72012E-02-1.06604E+00 9.77343E-14 5.44422E-13
 -1      1597 2.21520E+01-6.80544E-02 5.08763E-02-6.73713E-01-7.97973E-15 5.26121E-13
 -1      1598 2.11020E+01-2.63949E-02 1.57336E-02-6.86017E-01 5.50254E-14 6.98636E-13
 -1      1599 2.18436E+01-4.21468E-02-6.39637E-03-1.30270E+00 1.13389E-13 4.60174E-13
 -1      1600 2.32006E+01-8.83189E-02 6.51716E-02-3.18511E-01 1.52869E-13 4.28206E-13
 -1      1601 2.25266E+01-1.07968E-01 3.58380E-02-3.96093E-01 1.06875E-13 5.78565E-13
 -1      1602 2.27738E+01-2.09452E-01 1.33899E-02-9.08561E-01 1.37116E-13 4.70290E-13
 -1      1603 2.33568E+01-6.87749E-02 4.90512E-02 6.14505E-02 6.59178E-14 2.14560E-13
 -1      1604 2.32218E+01-1.18664E-01 3.35561E-02-2.62493E-02 1.23079E-13 3.25552E-13
 -1      1605 2.31387E+01-2.34380E-01 1.91393E-02-2.43054E-01 2.23155E-13 3.35744E-13
 -1      1606 2.27743E+01-3.38783E-02 2.25711E-02 3.24330E-01 1.99216E-13-2.73608E-13
 -1      1607 2.30856E+01-8.44177E-02 1.98437E-02 2.60390E-01 1.84572E-13 9.13384E-14
 -1      1608 2.28904E+01-1.67098E-01 1.53193E-02 3.51582E-01 3.23342E-13-1.10757E-13
 -1      1609 2.18011E+01 2.71284E-03-2.20955E-03 4.24386E-01-3.23930E-14-5.21340E-13
 -1      1610 2.23468E+01-3.22050E-02 4.89685E-03 3.97108E-01 7.29792E-14-3.15910E-13
 -1      1611 2.22089E+01-6.97421E-02 6.41145E-03 6.98436E-01 2.31876E-13-4.32848E-14
 -1      1612 2.08236E+01 3.65025E-02-1.96963E-02 3.61165E-01 6.23997E-14-5.11150E-13
 -1      1613 2.13642E+01 2.50668E-02-7.04572E-03 3.75165E-01-4.20592E-14-4.72775E-13
 -1      1614 2.13593E+01 2.86918E-02-4.72523E-03 7.50433E-01 2.50234E-15 1.04673E-14
 -1      1615 2.01897E+01 6.86861E-02-7.36954E-03 1.64056E-01-7.07141E-14-5.20873E-13
 -1      1616 2.04977E+01 7.73176E-02-1.11922E-02 2.13532E-01-2.22097E-14-6.02046E-13
 -1      1617 2.05960E+01 1.21431E-01-1.25044E-02 5.24506E-01 3.88231E-14-9.76146E-14
 -1      1618 2.00341E+01 5.99661E-02-5.48867E-03 2.37176E-02-2.81669E-13-3.28025E-13
 -1      1619 2.00873E+01 7.00406E-01-1.32021E-02 3.37484E-01 8.80563E-14 2.09835E-13
 -1      1620 2.01010E+01 3.48749E-01-2.48791E-03 2.75006E-01-2.38233E-13 2.81293E-13
 -1      1621 2.00596E+01 1.74122E+00-7.16874E-03 5.56092E-01 3.74978E-14-3.23214E-14
 -1      1622 2.00801E+01 1.09869E+00-1.07636E-02 5.17179E-01 1.40651E-13-9.02212E-14
 -1      1623 2.01649E+01 9.09540E-01-1.94900E-02 8.21180E-01 1.18296E-13 9.35415E-14
 -1      1624 2.00212E+01 3.08788E+00-3.33879E-03 6.92478E-01-5.56936E-13-1.27977E-13
 -1      1625 2.00486E+01 2.26932E+00-8.12622E-03 6.71862E-01-2.33882E-13 2.40225E-14
 -1      1626 2.00947E+01 1.81501E+00-1.58819E-02 1.17768E+00-3.79080E-14-2.03530E-13
 -1      1627 1.99709E+01 4.54218E+00 4.99013E-04 7.13321E-01-8.17901E-13-1.42991E-13
 -1      1628 2.00039E+01 3.68822E+00-4.01810E-03 7.18630E-01-7.76296E-13-1.42505E-14
 -1      1629 2.00199E+01 2.92666E+00-5.41735E-03 1.35265E+00-4.21118E-13-2.73917E-13
 -1      1630 1.99169E+01 5.81299E+00 4.85124E-03 5.91850E-01-1.33839E-12-3.56354E-13
 -1      1631 1.99482E+01 5.10233E+00 1.09211E-03 6.27464E-01-7.83262E-13-5.02165E-13
 -1      1632 1.99304E+01 4.07930E+00 1.04707E-02 1.28417E+00-6.65879E-13-4.96544E-13
 -1      1633 1.98760E+01 6.65908E+00 8.79412E-03 3.27754E-01-1.17857E-12 1.79858E-13
 -1      1634 1.98965E+01 6.23371E+00 6.63634E-03 3.91667E-01-1.28988E-12-1.03539E-13
 -1      1635 1.98436E+01 5.05821E+00 2.71497E-02 9.41573E-01-6.22048E-13-3.84373E-13
 -1      1636 1.98686E+01 6.84482E+00 9.55127E-03-1.97170E-02-8.51153E-13 2.60354E-13
 -1      1637 1.98683E+01 6.82225E+00 9.44980E-03 5.48292E-02-1.23311E-12 4.33969E-13
 -1      1638 1.97884E+01 5.64128E+00 3.84646E-02 3.66360E-01-5.39179E-13 4.06746E-13
 -1      1639 1.98988E+01 6.33435E+00 6.17356E-03-3.53042E-01-6.90309E-13 1.38778E-17
 -1      1640 1.98779E+01 6.71108E+00 8.14956E-03-2.90432E-01-8.48197E-13 3.08181E-13
 -1      1641 1.97904E+01 5.66891E+00 3.82090E-02-2.96593E-01-5.54360E-13 2.84141E-13
 -1      1642 1.99524E+01 5.28158E+00 2.86327E-04-5.81419E-01-3.97085E-13 4.07735E-13
 -1      1643 1.99202E+01 5.94703E+00 3.63788E-03-5.47372E-01-7.31686E-13 2.08601E-13
 -1      1644 1.98493E+01 5.14400E+00 2.64792E-02-8.62110E-01-2.52385E-13 1.61872E-13
 -1      1645 2.00069E+01 3.96169E+00-5.00499E-03-6.62157E-01-3.55591E-13-1.34502E-13
 -1      1646 1.99759E+01 4.74673E+00-1.28073E-03-6.60215E-01-2.87048E-13 5.42654E-14
 -1      1647 1.99386E+01 4.22044E+00 9.25461E-03-1.19036E+00-2.19448E-13 3.74398E-13
 -1      1648 2.00441E+01 2.67720E+00-7.50626E-03-6.12309E-01-4.16656E-13 1.68912E-13
 -1      1649 2.00232E+01 3.41093E+00-4.16492E-03-6.33263E-01-3.00718E-13-2.28740E-13
 -1      1650 2.00237E+01 3.13945E+00-5.96854E-03-1.24449E+00-1.27816E-13-2.57853E-13
 -1      1651 2.00601E+01 1.58254E+00-7.36191E-03-4.80551E-01-1.65951E-13 1.06819E-13
 -1      1652 2.00502E+01 2.18320E+00-4.84455E-03-5.12761E-01-3.46417E-13 2.97354E-13
 -1      1653 2.00785E+01 2.10800E+00-1.49488E-02-1.08461E+00-1.64325E-13 2.44180E-13
 -1      1654 2.00585E+01 7.94868E-01-5.42237E-03-3.23474E-01-8.69461E-14 1.20131E-13
 -1      1655 2.00573E+01 1.20783E+00-3.77928E-03-3.54856E-01-1.34148E-13 1.12981E-13
 -1      1656 2.00990E+01 1.25827E+00-1.75588E-02-8.09407E-01-1.36085E-14 8.62027E-14
 -1      1657 2.00523E+01 3.24316E-01 1.39317E-03-1.83944E-01-3.31745E-13-2.50000E-13
 -1      1658 2.00457E+01 5.48414E-01-3.67783E-03-2.04243E-01-1.19083E-13-1.44638E-13
 -1      1659 2.00959E+01 6.55174E-01-1.44752E-02-5.13689E-01-1.42096E-13-4.75947E-14
 -1      1660 2.00621E+01 1.18181E-01 5.85445E-03-1.02517E-01-2.69083E-13-1.06963E-13
 -1      1661 2.00650E+01 2.02614E-01-1.52947E-03-1.34332E-01-1.73896E-13-2.11665E-13
 -1      1662 2.01157E+01 3.17610E-01-6.31131E-03-3.08751E-01-8.77978E-14-8.23187E-14
 -1      1663 2.01387E+01 1.26741E-01-6.24239E-03-1.95610E-01 1.63281E-13-1.77688E-13
 -1      1664-5.84127E-01-1.55590E+01-1.64681E+00-8.97661E-01 2.53469E-12 3.42670E-13
 -1      1665-6.25708E-01-1.80043E+01-1.91137E+00 3.97312E-01 2.58284E-12 3.66374E-13
 -1      1666 2.12129E+00-8.69514E+00-1.11075E+00 1.12820E+00 1.26521E-12-3.43975E-13
 -1      1667 1.18345E+00-1.40880E+01-1.62021E+00 4.26217E-01 2.17071E-12-6.55240E-14
 -1      1668 7.47434E+00-4.61669E-01-5.32989E-01 4.82626E+00-2.47358E-13-9.45355E-13
 -1      1669 4.19252E+00-6.55718E+00-1.33605E+00 1.73620E+00 8.75966E-13-3.46834E-13
 -1      1670 1.84999E+01 5.03773E+00 2.56440E-01 1.01849E+01-7.59393E-13-5.91971E-13
 -1      1671 1.17402E+01 1.57223E+00-6.47676E-01 6.33091E+00-5.40679E-13-6.93001E-13
 -1      1672 3.32582E+01 6.22217E+00 1.02940E+00 1.26824E+01-5.47118E-13-7.43849E-13
 -1      1673 2.42161E+01 5.73589E+00 1.91862E-01 1.06346E+01-7.62612E-13-7.43849E-13
 -1      1674 4.70867E+01 5.51574E+00 1.71251E+00 1.13267E+01-3.51608E-13-9.90652E-13
 -1      1675 3.82238E+01 6.92047E+00 1.00031E+00 1.25342E+01-4.85223E-13-8.49987E-13
 -1      1676 5.65513E+01 3.87098E+00 2.10116E+00 5.29845E+00-1.29813E-13-1.01819E-12
 -1      1677 5.11183E+01 5.35482E+00 1.70683E+00 9.92616E+00-2.23224E-13-9.57345E-13
 -1      1678 5.67177E+01 3.76516E+00 1.97790E+00-3.56564E+00-3.89966E-14-8.09630E-13
 -1      1679 5.77861E+01 3.66570E+00 2.09417E+00 2.52297E+00-1.18461E-13-8.93841E-13
 -1      1680 4.72051E+01 5.35181E+00 1.34865E+00-9.68256E+00 2.95777E-13-7.31637E-13
 -1      1681 5.41221E+01 3.95892E+00 1.93290E+00-5.86544E+00 1.32755E-13-7.39075E-13
 -1      1682 3.29254E+01 5.69750E+00 5.40938E-01-1.05101E+01 4.78173E-13-7.17204E-13
 -1      1683 4.25106E+01 4.79718E+00 1.28751E+00-1.02320E+01 3.90743E-13-7.28972E-13
 -1      1684 1.83462E+01 4.37762E+00-2.37360E-01-8.75996E+00 5.77760E-13-8.39773E-13
 -1      1685 2.71156E+01 5.69268E+00 6.38909E-01-1.16337E+01 6.58140E-13-8.78853E-13
 -1      1686 8.31420E+00-1.24644E+00-9.05672E-01-4.09382E+00-2.26485E-14-3.56271E-13
 -1      1687 1.35908E+01 3.02745E+00-7.10445E-02-7.67834E+00 3.10418E-13-8.14904E-13
 -1      1688 3.03874E+00-9.60429E+00-1.38049E+00-8.30651E-01-3.79918E-13 1.13271E-13
 -1      1689 5.49927E+00-3.77549E+00-7.20560E-01-3.16793E+00-2.48468E-13-1.55542E-13
 -1      1690-1.53093E-01-1.60723E+01-1.84839E+00 5.64366E-01-6.07570E-13 1.08635E-13
 -1      1691 7.25194E-02-1.16364E+01-1.42681E+00 8.07563E-01-4.22884E-13 1.96676E-13
 -1      1692-8.03420E-01-1.80882E+01-1.91831E+00-3.65460E-01-7.93046E-13-1.21569E-14
 -1      1693-8.69557E-01-1.72911E+01-1.84684E+00 1.28186E+00-6.79456E-13 6.64468E-14
 -1      1694-4.62622E-01-1.43341E+01-1.64427E+00-9.96744E-01-4.90941E-13 1.81466E-13
 -1      1695-4.97911E-01-1.76399E+01-1.94179E+00 6.82997E-02-6.49258E-13 3.34732E-14
 -1      1696 2.00596E+00-6.81517E+00-1.11669E+00 9.27971E-01-1.77636E-15 2.64677E-13
 -1      1697 9.01672E-01-1.25115E+01-1.72519E+00-2.23308E-01-4.31544E-13 2.19366E-13
 -1      1698 9.13656E+00 8.59661E-01-3.88235E-01 5.83908E+00-7.77156E-15-3.86913E-13
 -1      1699 5.12113E+00-4.58057E+00-1.20139E+00 2.44604E+00 1.67422E-13-1.12521E-13
 -1      1700 2.10176E+01 4.87952E+00 3.02439E-01 1.04024E+01-1.66422E-13-1.19682E-13
 -1      1701 1.38173E+01 2.34762E+00-5.23345E-01 7.01237E+00-1.22458E-13-1.83742E-13
 -1      1702 3.68941E+01 5.17781E+00 1.01970E+00 1.10280E+01-6.09512E-14-3.43059E-14
 -1      1703 2.69543E+01 5.33282E+00 2.24673E-01 9.89608E+00-1.88183E-13-1.75415E-14
 -1      1704 4.97983E+01 4.66826E+00 1.69465E+00 9.14383E+00-6.11317E-14 2.91545E-13
 -1      1705 4.20488E+01 6.39723E+00 1.13709E+00 1.17561E+01-6.62248E-14 1.13576E-13
 -1      1706 5.50826E+01 3.72219E+00 1.70490E+00 1.64556E+00 2.29816E-14 4.07563E-13
 -1      1707 5.18922E+01 4.63300E+00 1.55845E+00 6.73771E+00 5.62606E-14 3.66596E-13
 -1      1708 5.19928E+01 4.82060E+00 1.51187E+00-6.28003E+00-2.53075E-13 5.39180E-13
 -1      1709 5.45724E+01 3.98794E+00 1.63289E+00-7.13121E-01-8.78186E-14 2.77112E-13
 -1      1710 4.30770E+01 6.43882E+00 1.19760E+00-1.17557E+01-5.77260E-13 9.77995E-13
 -1      1711 5.04556E+01 4.63015E+00 1.65328E+00-8.81691E+00-4.27686E-13 6.85785E-13
 -1      1712 2.89824E+01 6.62968E+00 4.88369E-01-1.16525E+01-1.00076E-12 1.27476E-12
 -1      1713 3.85895E+01 6.09256E+00 1.27346E+00-1.24849E+01-7.15816E-13 1.06604E-12
 -1      1714 1.54354E+01 3.44556E+00-3.34168E-01-7.99055E+00-1.35714E-12 1.21714E-12
 -1      1715 2.34537E+01 5.91907E+00 5.96220E-01-1.15704E+01-1.19937E-12 1.18194E-12
 -1      1716 5.59339E+00-4.68776E+00-1.21555E+00-2.60417E+00-1.00253E-12 8.50320E-13
 -1      1717 1.03785E+01 1.48957E+00-2.44213E-01-6.61406E+00-1.23479E-12 1.40710E-12
 -1      1718 8.92005E-01-1.41520E+01-1.87933E+00 2.27515E-01 8.92064E-13 7.43634E-13
 -1      1719 2.11080E+00-7.45575E+00-1.16098E+00-1.05200E+00-6.15286E-13 1.00706E-12
 -1      1720-7.04605E-01-1.91195E+01-2.11174E+00-3.67314E-01 2.59784E-12 3.66263E-13
 -1      1721-7.77224E-01-1.63203E+01-1.88977E+00 1.29654E+00 1.49758E-12 4.88831E-13
 -1      1722 2.60378E+01 6.89355E-01 3.50594E-01 7.61652E+00-4.89941E-13-5.89973E-13
 -1      1723 1.50863E+01-3.43773E+00-3.49759E-01 6.70816E+00 1.84297E-14-8.73968E-13
 -1      1724 2.01116E+01 1.46494E-01-1.54229E-02 1.62071E-01-3.90558E-13 5.72814E-14
 -1      1725 2.02484E+01 3.50542E-01-1.27237E-02 4.67023E-01-6.03536E-14 4.26129E-13
 -1      1726 1.19895E+00-1.04877E+01-1.04070E+00 3.14834E+00 1.13676E-12-5.32518E-13
 -1      1727 6.73214E+00-8.10262E+00-9.07054E-01 5.05590E+00 7.99583E-13-1.16190E-12
 -1      1728-1.44524E+00-1.25664E+01-1.39364E+00 1.27660E-01 1.45033E-12 6.43430E-13
 -1      1729 3.61717E+01 3.90893E+00 8.74712E-01 6.75217E+00-5.14866E-13-7.18869E-13
 -1      1730 4.45474E+01 6.48461E+00 1.40888E+00 5.20145E+00-3.29181E-13-9.81326E-13
 -1      1731 4.94365E+01 7.40170E+00 1.72514E+00 2.09307E+00-1.36724E-13-9.16545E-13
 -1      1732 4.81397E+01 7.04693E+00 1.57912E+00-1.64035E+00-5.98410E-14-6.89226E-13
 -1      1733 4.11767E+01 5.02849E+00 9.88407E-01-3.74922E+00 2.72407E-13-4.89608E-13
 -1      1734 3.25007E+01 2.38375E+00 6.87314E-01-6.15001E+00 3.35287E-13-3.14859E-13
 -1      1735 2.12484E+01-9.34653E-01-1.01269E-03-6.84019E+00 3.95239E-14-7.12541E-13
 -1      1736 1.17994E+01-5.69568E+00-6.26356E-01-5.59308E+00-3.23852E-13-4.33820E-13
 -1      1737 4.34340E+00-8.95424E+00-8.40739E-01-4.03295E+00-5.50116E-13 1.25455E-13
 -1      1738-6.95066E-01-1.19647E+01-1.30045E+00-1.23819E+00-4.93328E-13-5.44009E-15
 -1      1739-1.37894E+00-1.26820E+01-1.39379E+00 7.66152E-01-5.65131E-13 7.36078E-14
 -1      1740 1.27305E+00-1.05796E+01-1.19756E+00 2.75248E+00-2.51577E-13 3.67817E-13
 -1      1741 7.59471E+00-6.71272E+00-7.40854E-01 5.05683E+00-6.25056E-14 1.83048E-14
 -1      1742 1.71534E+01-2.52192E+00-1.19731E-01 6.78169E+00 1.02807E-13-1.59817E-13
 -1      1743 2.82788E+01 8.12299E-01 4.32064E-01 6.45724E+00-8.59313E-14-7.77156E-15
 -1      1744 3.75236E+01 4.19353E+00 7.57410E-01 5.09052E+00-1.71359E-13 1.20348E-13
 -1      1745 4.50949E+01 6.98244E+00 1.39098E+00 3.58655E+00-8.59313E-14 3.94462E-13
 -1      1746 4.63312E+01 7.92143E+00 1.34476E+00 6.94456E-02-1.02696E-13 3.33580E-13
 -1      1747 4.48010E+01 7.38827E+00 1.33610E+00-3.44047E+00-5.30131E-13 6.48148E-13
 -1      1748 3.91696E+01 5.25753E+00 1.08679E+00-6.15206E+00-6.78145E-13 5.44342E-13
 -1      1749 2.96651E+01 2.06645E+00 5.77324E-01-7.44931E+00-1.04527E-12 9.66560E-13
 -1      1750 1.84960E+01-2.15782E+00-7.04427E-02-7.18519E+00-7.78377E-13 1.00375E-12
 -1      1751 8.14520E+00-7.22416E+00-7.63739E-01-5.31971E+00-5.49560E-14 1.01313E-12
 -1      1752 9.56239E-01-1.15986E+01-1.31206E+00-2.70931E+00 9.61897E-13 1.39899E-12
 -1      1753 2.28601E+01 1.98495E+00-2.35550E-02-2.72248E+00-2.23509E-13 6.68882E-13
 -1      1754 1.98258E+01 3.71362E+00-3.54190E-02-2.15316E+00-2.42608E-13-3.86996E-13
 -1      1755 2.00582E+01 3.56276E+00-4.02612E-02-2.44536E+00-2.90039E-13-3.09877E-13
 -1      1756 2.03637E+01 3.18151E+00-4.58251E-02-2.58496E+00-2.95706E-13-2.04177E-13
 -1      1757 2.05840E+01 2.80981E+00-1.42522E-01-2.85328E+00-3.29351E-13-5.83006E-14
 -1      1758 2.04246E+01 2.69309E+00-4.13646E-03-2.22455E+00-3.02791E-13-2.30087E-13
 -1      1759 1.93549E+01 4.18875E+00-2.00475E-02-1.27063E+00-1.10344E-13-5.01208E-13
 -1      1760 1.94286E+01 4.14926E+00-1.69397E-02-1.49508E+00-1.38655E-13-4.83627E-13
 -1      1761 1.92581E+01 4.29465E+00-1.67393E-02-8.59606E-01-4.45013E-14-5.00270E-13
 -1      1762 1.93010E+01 4.27072E+00-1.42207E-02-1.07037E+00-8.01754E-14-5.08527E-13
 -1      1763 1.95271E+01 3.78314E+00-8.90303E-03-1.11956E+00-1.03154E-13-4.85226E-13
 -1      1764 1.92065E+01 4.35505E+00-1.47905E-02-4.66784E-01 1.62010E-14-4.86347E-13
 -1      1765 1.92285E+01 4.34220E+00-1.32985E-02-6.67082E-01-9.07911E-15-4.94067E-13
 -1      1766 1.94295E+01 3.90329E+00-9.14318E-03-7.33182E-01-3.03570E-14-4.75651E-13
 -1      1767 1.91871E+01 4.38064E+00-1.36675E-02-8.36218E-02 8.06320E-14-4.61079E-13
 -1      1768 1.91936E+01 4.37672E+00-1.32152E-02-2.79073E-01 4.75668E-14-4.79325E-13
 -1      1769 1.93791E+01 3.96767E+00-9.15011E-03-3.58301E-01 3.29981E-14-4.62170E-13
 -1      1770 1.91952E+01 4.37533E+00-1.31718E-02 2.98153E-01 1.37365E-13-4.40831E-13
 -1      1771 1.91876E+01 4.37980E+00-1.37534E-02 1.02536E-01 1.09886E-13-4.54234E-13
 -1      1772 1.93644E+01 3.98705E+00-9.14624E-03 1.05654E-02 9.97283E-14-4.34286E-13
 -1      1773 1.92325E+01 4.33816E+00-1.33313E-02 6.86904E-01 1.85527E-13-4.27746E-13
 -1      1774 1.92093E+01 4.35185E+00-1.49173E-02 4.86095E-01 1.65547E-13-4.38037E-13
 -1      1775 1.93818E+01 3.96434E+00-9.19129E-03 3.79640E-01 1.61422E-13-4.22383E-13
 -1      1776 1.93061E+01 4.26477E+00-1.44121E-02 1.08456E+00 2.32731E-13-3.68216E-13
 -1      1777 1.92627E+01 4.28923E+00-1.69748E-02 8.76592E-01 2.00094E-13-4.07238E-13
 -1      1778 1.94347E+01 3.89687E+00-9.19522E-03 7.51812E-01 2.10076E-13-4.02312E-13
 -1      1779 1.94379E+01 4.13758E+00-1.74068E-02 1.51458E+00 3.01779E-13-2.81893E-13
 -1      1780 1.93613E+01 4.18015E+00-2.05040E-02 1.28504E+00 2.63142E-13-3.23980E-13
 -1      1781 1.95344E+01 3.77297E+00-9.24578E-03 1.13557E+00 2.71583E-13-3.28553E-13
 -1      1782 1.96672E+01 3.92108E+00-2.51970E-02 1.97965E+00 3.54834E-13-1.78527E-13
 -1      1783 1.95343E+01 3.99783E+00-2.69033E-02 1.72232E+00 3.18502E-13-2.44173E-13
 -1      1784 1.97079E+01 3.56593E+00-8.70191E-03 1.53530E+00 3.24480E-13-2.39184E-13
 -1      1785 2.00761E+01 3.52279E+00-4.51860E-02 2.47206E+00 3.89430E-13 1.86032E-14
 -1      1786 1.98359E+01 3.68323E+00-3.97237E-02 2.18297E+00 3.65021E-13-1.04073E-13
 -1      1787 2.00046E+01 3.22285E+00-5.26925E-03 1.93461E+00 3.76178E-13-1.20109E-13
 -1      1788 2.09217E+01 2.68182E+00-5.76487E-02 2.85775E+00 3.56765E-13 3.66214E-13
 -1      1789 2.04142E+01 3.09694E+00-5.04297E-02 2.61597E+00 3.69934E-13 1.51004E-13
 -1      1790 2.05179E+01 2.60993E+00 3.18723E-03 2.24456E+00 4.02649E-13 8.87450E-14
 -1      1791 2.17322E+01 1.21298E+00-1.22094E-01 2.32982E+00 2.91211E-13 7.90423E-13
 -1      1792 2.12756E+01 2.26306E+00 1.17948E-04 2.74042E+00 3.28040E-13 5.12826E-13
 -1      1793 2.09383E+01 1.68503E+00-2.29594E-02 2.14018E+00 3.65505E-13 3.62311E-13
 -1      1794 2.09535E+01 7.78677E-01-6.24493E-02 1.52413E+00 3.04499E-13 6.88853E-13
 -1      1795 2.17980E+01 2.45827E+00 9.09144E-02-3.04817E+00-2.96783E-13 2.10248E-13
 -1      1796 2.01027E+01 2.97929E-01-8.91512E-03 6.57000E-01 2.52756E-13 5.47687E-13
 -1      1797 2.06548E+01 4.40401E-01-1.24662E-02 1.03403E+00 2.60958E-13 6.33071E-13
 -1      1798 2.07459E+01 8.45117E-01 2.25022E-03 1.41510E+00 3.12549E-13 4.42264E-13
 -1      1799 2.15083E+01 1.74236E+00 7.94379E-02-2.33715E+00-3.11293E-13 1.09440E-13
 -1      1800 2.05217E+01 5.00802E-01 3.24313E-02-9.21432E-01-2.40207E-13 8.19762E-14
 -1      1801 2.00900E+01 3.51939E-01 7.53617E-03-6.29434E-01-2.01575E-13 1.67262E-14
 -1      1802 1.98963E+01 2.56715E-01 2.74239E-02-3.91350E-01-1.84056E-13 1.69430E-14
 -1      1803 1.97050E+01 1.77684E-01 1.03565E-02-2.54061E-01-1.73005E-13-3.03828E-14
 -1      1804 2.01995E+01 4.81232E-01-6.61953E-03-7.22320E-01-2.30092E-13-8.64426E-14
 -1      1805 1.95826E+01 1.32995E-01 1.66520E-02-1.20161E-01-1.61424E-13-2.70782E-14
 -1      1806 1.95044E+01 9.31052E-02 6.92429E-03-4.93407E-02-1.32066E-13-7.94143E-14
 -1      1807 1.98736E+01 2.43001E-01-6.20124E-03-2.96083E-01-1.89326E-13-8.00293E-14
 -1      1808 1.94395E+01 6.82567E-02 8.67262E-03 2.40800E-02-1.11660E-13-9.34951E-14
 -1      1809 1.94248E+01 4.65127E-02 4.10157E-03 6.01609E-02-9.58938E-14-1.06946E-13
 -1      1810 1.96910E+01 1.25155E-01-4.65401E-03-5.91498E-02-1.49309E-13-9.62238E-14
 -1      1811 1.93986E+01 3.21561E-02 4.23400E-03 9.86985E-02-9.62252E-14-1.15193E-13
 -1      1812 1.94181E+01 1.97087E-02 2.42583E-03 1.15336E-01-7.48290E-14-1.34064E-13
 -1      1813 1.96043E+01 6.06052E-02-3.44977E-03 7.00711E-02-1.15789E-13-1.22670E-13
 -1      1814 1.94161E+01 1.10685E-02 1.85191E-03 1.33087E-01-6.43101E-14-1.64079E-13
 -1      1815 1.94528E+01 3.88206E-03 1.43865E-03 1.38366E-01-3.78723E-14-1.90613E-13
 -1      1816 1.95796E+01 2.37003E-02-2.32752E-03 1.36109E-01-8.54077E-14-1.31532E-13
 -1      1817 1.94650E+01-1.31173E-03 5.50323E-04 1.43575E-01-3.87514E-14-2.05607E-13
 -1      1818 1.95088E+01-5.29385E-03 8.25473E-04 1.42212E-01-5.21177E-14-1.81624E-13
 -1      1819 1.95927E+01 2.15785E-03-1.43176E-03 1.64043E-01-5.33221E-14-1.54240E-13
 -1      1820 1.95284E+01-8.27361E-03-1.69270E-04 1.40020E-01-8.32027E-14-1.64732E-13
 -1      1821 1.95733E+01-1.02194E-02 4.33652E-04 1.34964E-01-6.98897E-14-1.48846E-13
 -1      1822 1.96267E+01-1.00929E-02-7.90149E-04 1.69041E-01-5.19465E-14-1.99191E-13
 -1      1823 1.95960E+01-1.17305E-02-5.51707E-04 1.28699E-01-8.42718E-14-1.35305E-13
 -1      1824 1.96385E+01-1.23569E-02 1.89155E-04 1.21867E-01-7.08682E-14-1.72920E-13
 -1      1825 1.96708E+01-1.64337E-02-3.62513E-04 1.60737E-01-9.15289E-14-1.80345E-13
 -1      1826 1.96617E+01-1.28805E-02-7.26412E-04 1.13729E-01-3.68310E-14-1.88731E-13
 -1      1827 1.97002E+01-1.26469E-02 5.02986E-05 1.06385E-01 2.84028E-14-1.72600E-13
 -1      1828 1.97180E+01-1.89178E-02-9.62257E-05 1.45443E-01-6.22454E-14-1.00465E-13
 -1      1829 1.97223E+01-1.25026E-02-7.69394E-04 9.78468E-02 1.69861E-14-1.69452E-13
 -1      1830 1.97561E+01-1.17065E-02-9.32955E-06 9.08335E-02-5.09179E-15-1.88509E-13
 -1      1831 1.97643E+01-1.88577E-02 5.32077E-05 1.27365E-01 7.77774E-15-8.52258E-14
 -1      1832 1.97764E+01-1.11053E-02-7.28741E-04 8.28881E-02-9.61807E-15-1.92383E-13
 -1      1833 1.98057E+01-9.93305E-03-6.86520E-06 7.67726E-02-2.26065E-14-1.72844E-13
 -1      1834 1.98075E+01-1.71055E-02 1.18800E-04 1.09332E-01 9.93083E-15-1.07360E-13
 -1      1835 1.98242E+01-9.00817E-03-6.35776E-04 7.01045E-02-4.31221E-14-1.92756E-13
 -1      1836 1.98496E+01-7.56635E-03 4.72124E-05 6.52834E-02-5.16839E-14-1.85887E-13
 -1      1837 1.98469E+01-1.42023E-02 1.23782E-04 9.32782E-02-3.37413E-14-1.33599E-13
 -1      1838 1.98667E+01-6.39366E-03-5.10788E-04 6.03901E-02-9.25065E-14-2.19508E-13
 -1      1839 1.98893E+01-4.72968E-03 1.47471E-04 5.71663E-02-7.03401E-14-2.11035E-13
 -1      1840 1.98829E+01-1.04657E-02 8.39491E-05 8.05648E-02-7.25860E-14-2.37514E-13
 -1      1841 1.99054E+01-3.34213E-03-3.66526E-04 5.44472E-02-7.72226E-14-2.34221E-13
 -1      1842 1.99266E+01-1.45985E-03 2.92240E-04 5.30857E-02-5.18119E-14-2.63477E-13
 -1      1843 1.99163E+01-6.04907E-03 9.61694E-06 7.22260E-02-1.00961E-13-2.21069E-13
 -1      1844 1.99428E+01 1.40536E-04-2.10608E-04 5.29076E-02-6.83173E-14-3.20864E-13
 -1      1845 1.99641E+01 2.26786E-03 4.82378E-04 5.36761E-02-9.85255E-14-4.06002E-13
 -1      1846 1.99489E+01-9.85122E-04-9.28487E-05 6.91407E-02-1.10202E-13-2.17191E-13
 -1      1847 1.99815E+01 4.09902E-03-4.73517E-05 5.64172E-02-8.34282E-14-4.05276E-13
 -1      1848 2.00048E+01 6.51600E-03 7.19885E-04 5.96125E-02-1.00141E-13-3.80668E-13
 -1      1849 1.99827E+01 4.77706E-03-2.19757E-04 7.21569E-02-1.08162E-13-2.47957E-13
 -1      1850 2.00247E+01 8.60407E-03 1.20703E-04 6.56876E-02-1.49048E-13-3.51988E-13
 -1      1851 2.00522E+01 1.13586E-02 1.00611E-03 7.16466E-02-7.23739E-14-4.20311E-13
 -1      1852 2.00201E+01 1.13354E-02-3.68943E-04 8.21703E-02-1.21355E-13-2.06699E-13
 -1      1853 2.00761E+01 1.37235E-02 2.91404E-04 8.15096E-02-2.82548E-14-4.78552E-13
 -1      1854 2.01102E+01 1.68477E-02 1.33929E-03 9.06008E-02-3.21265E-15-5.52160E-13
 -1      1855 2.00640E+01 1.87929E-02-5.38656E-04 1.00156E-01-9.87070E-14-3.02717E-13
 -1      1856 2.01398E+01 1.94836E-02 4.61624E-04 1.04720E-01 8.48000E-14-5.61056E-13
 -1      1857 2.01831E+01 2.29663E-02 1.71094E-03 1.17310E-01 7.28909E-14-5.28002E-13
 -1      1858 2.01178E+01 2.72024E-02-7.26415E-04 1.27141E-01 1.19244E-14-3.43273E-13
 -1      1859 2.02203E+01 2.58138E-02 6.25864E-04 1.36103E-01 7.49726E-14-4.41094E-13
 -1      1860 2.02758E+01 2.95614E-02 2.10081E-03 1.52489E-01 8.45653E-14-3.53304E-13
 -1      1861 2.01850E+01 3.64892E-02-9.27817E-04 1.64112E-01 1.27193E-13-3.31706E-13
 -1      1862 2.03226E+01 3.24673E-02 7.74844E-04 1.76207E-01 5.06873E-14-3.44652E-13
 -1      1863 2.03932E+01 3.62449E-02 2.46977E-03 1.96489E-01 8.89799E-14-3.16842E-13
 -1      1864 2.02696E+01 4.63388E-02-1.13530E-03 2.11806E-01 1.25464E-13-1.98246E-13
 -1      1865 2.04516E+01 3.89050E-02 8.94249E-04 2.25023E-01 7.04331E-14-3.25973E-13
 -1      1866 2.05399E+01 4.22546E-02 2.75062E-03 2.48911E-01 2.43638E-14-3.20936E-13
 -1      1867 2.03756E+01 5.60338E-02-1.33698E-03 2.70373E-01 8.82002E-14-2.34948E-13
 -1      1868 2.06118E+01 4.41342E-02 9.64006E-04 2.81491E-01-2.76743E-15-3.05012E-13
 -1      1869 2.07199E+01 4.62637E-02 2.83730E-03 3.08003E-01-2.40539E-14-2.92202E-13
 -1      1870 2.05068E+01 6.42261E-02-1.51564E-03 3.38832E-01 1.15196E-14-2.53561E-13
 -1      1871 2.08067E+01 4.64982E-02 9.58837E-04 3.42771E-01-1.04859E-13-2.96583E-13
 -1      1872 2.09352E+01 4.61487E-02 2.57499E-03 3.69810E-01-9.21772E-14-3.36306E-13
 -1      1873 2.06667E+01 6.86368E-02-1.64802E-03 4.14273E-01-4.44540E-14-1.79312E-13
 -1      1874 2.10376E+01 4.34356E-02 8.51021E-04 4.03229E-01-8.08555E-14-3.89519E-13
 -1      1875 2.11846E+01 3.87583E-02 1.75753E-03 4.27022E-01-2.66628E-14-4.01291E-13
 -1      1876 2.08571E+01 6.57066E-02-1.70402E-03 4.90749E-01-1.13534E-13-1.90951E-13
 -1      1877 2.13022E+01 3.12882E-02 6.16017E-04 4.53167E-01 6.05772E-14-3.87745E-13
 -1      1878 2.14617E+01 1.98186E-02 1.44820E-04 4.67644E-01 1.04326E-13-2.95085E-13
 -1      1879 2.10783E+01 5.02982E-02-1.64461E-03 5.57862E-01 3.33915E-14-2.01374E-13
 -1      1880 2.15923E+01 5.35640E-03 2.39598E-04 4.77487E-01 5.31950E-14-3.32390E-13
 -1      1881 2.17529E+01-1.57192E-02-2.47740E-03 4.73797E-01-1.35004E-14-3.65742E-13
 -1      1882 2.13270E+01 1.57153E-02-1.41491E-03 5.99218E-01 8.28614E-14-1.94727E-13
 -1      1883 2.18914E+01-3.93785E-02-2.78793E-04 4.54859E-01-6.15068E-14-3.39599E-13
 -1      1884 2.20344E+01-7.23210E-02-6.16431E-03 4.21518E-01-7.63315E-14-3.63770E-13
 -1      1885 2.15954E+01-4.54038E-02-9.26483E-04 5.91261E-01 1.72955E-14-2.31607E-13
 -1      1886 2.21720E+01-1.06170E-01-9.36935E-04 3.58650E-01-3.34745E-14-3.33377E-13
 -1      1887 2.22708E+01-1.50711E-01-1.05895E-02 2.83225E-01 3.84285E-14-2.25624E-13
 -1      1888 2.18689E+01-1.38373E-01-2.49833E-05 5.03670E-01-4.88264E-14-1.96956E-13
 -1      1889 2.23927E+01-1.92277E-01-1.77643E-03 1.61828E-01-3.36888E-14-2.39180E-13
 -1      1890 2.24151E+01-2.42348E-01-1.47702E-02 3.53939E-02 1.79266E-14-1.90744E-13
 -1      1891 2.21234E+01-2.60805E-01 1.52955E-03 3.03511E-01 3.57626E-14-1.46836E-13
 -1      1892 2.24989E+01-2.82467E-01-2.92614E-03-1.51364E-01 7.08374E-15-1.46954E-13
 -1      1893 2.24127E+01-3.22376E-01-1.68410E-02-3.26091E-01 6.77175E-14-1.74477E-13
 -1      1894 2.23224E+01-3.93746E-01 4.00260E-03-3.37525E-02 3.43822E-14-1.31677E-13
 -1      1895 2.24275E+01-3.42419E-01-4.51095E-03-5.65058E-01 1.42785E-14-1.68748E-13
 -1      1896 2.22127E+01-3.46214E-01-1.44811E-02-7.62924E-01 2.26147E-14-2.02421E-13
 -1      1897 2.24150E+01-4.92101E-01 7.49311E-03-5.03629E-01 4.23793E-15-2.84050E-14
 -1      1898 2.21258E+01-3.20888E-01-6.54739E-03-1.00698E+00 4.22856E-14-3.09323E-13
 -1      1899 2.17908E+01-2.61464E-01-6.42511E-03-1.17371E+00-9.67369E-15-2.26128E-13
 -1      1900 2.23407E+01-4.85234E-01 1.10071E-02-1.04334E+00-2.55507E-14 4.18647E-14
 -1      1901 2.15870E+01-1.72433E-01-7.74110E-03-1.33886E+00-4.41452E-14-2.61923E-13
 -1      1902 2.11813E+01-4.33556E-02 5.66935E-03-1.40063E+00-5.13034E-14-2.44499E-13
 -1      1903 2.20532E+01-3.05859E-01 1.15444E-02-1.51000E+00-2.10392E-14-1.27427E-13
 -1      1904 2.08922E+01 9.80465E-02-5.66122E-03-1.39160E+00 4.33308E-14-2.36618E-13
 -1      1905 2.05033E+01 2.58694E-01 1.58585E-02-1.28964E+00 4.26339E-14-2.11419E-13
 -1      1906 2.15667E+01 5.40851E-02 6.20253E-03-1.70113E+00 3.78191E-15-8.21253E-14
 -1      1907 2.02238E+01 3.96034E-01 1.44392E-03-1.06057E+00 6.43981E-14-2.53061E-13
 -1      1908 1.99514E+01 5.10800E-01 1.78314E-02-8.01349E-01 2.85440E-14-1.88076E-13
 -1      1909 2.10023E+01 4.84331E-01-5.46743E-03-1.44693E+00 4.37753E-14-1.18688E-13
 -1      1910 1.97980E+01 5.70235E-01 1.19588E-02-4.13276E-01-1.72987E-14-6.09452E-15
 -1      1911 1.97087E+01 5.71132E-01 1.06807E-02-8.66996E-02-3.49339E-14-1.38873E-14
 -1      1912 2.05702E+01 7.84643E-01-1.61478E-02-7.55396E-01 8.47647E-14-1.04389E-13
 -1      1913 1.97390E+01 5.14612E-01 1.94764E-02 3.03548E-01-1.68456E-13-9.17096E-14
 -1      1914 1.98341E+01 4.00366E-01 3.34076E-04 5.65258E-01-9.36308E-14-2.58881E-14
 -1      1915 2.04459E+01 7.88200E-01-1.61276E-02 1.25836E-01-1.47726E-13 7.97762E-14
 -1      1916 1.99947E+01 2.63813E-01 1.78493E-02 7.98802E-01-1.28291E-14-1.07792E-13
 -1      1917 2.02088E+01 1.02288E-01-6.75601E-03 9.03704E-01 5.53576E-14-2.99951E-14
 -1      1918 2.06334E+01 4.90757E-01-6.00346E-03 8.25902E-01-8.48848E-14 3.90872E-14
 -1      1919 2.03834E+01-3.81559E-02 7.86793E-03 9.17629E-01 1.58608E-13-1.12197E-13
 -1      1920 2.06196E+01-1.65896E-01-8.01069E-03 8.59848E-01 1.92018E-13 9.71705E-15
 -1      1921 2.09619E+01 6.17355E-02 5.81296E-03 1.09138E+00 1.30302E-13-1.23599E-13
 -1      1922 2.07119E+01-2.50189E-01-4.24009E-03 7.02739E-01 1.55590E-13 9.55945E-14
 -1      1923 2.08864E+01-3.01358E-01-5.35515E-03 5.45863E-01 3.93376E-13 2.83251E-13
 -1      1924 2.12205E+01-2.90784E-01 1.12083E-02 9.14943E-01 2.89785E-13 5.06158E-14
 -1      1925 2.08654E+01-3.14169E-01-1.23524E-02 3.22105E-01 2.43515E-13 1.16984E-13
 -1      1926 2.09377E+01-2.91979E-01-1.11837E-03 1.49380E-01 1.18243E-13-3.96813E-14
 -1      1927 2.12872E+01-4.44377E-01 1.01816E-02 4.79320E-01 2.04399E-13 1.27178E-13
 -1      1928 2.08231E+01-2.50288E-01-1.45666E-02-4.42532E-02 8.00605E-14-2.37885E-13
 -1      1929 2.07989E+01-1.82133E-01 2.85246E-03-1.67672E-01 1.17272E-13-2.23379E-13
 -1      1930 2.11540E+01-3.98142E-01 6.05585E-03 1.16251E-02 3.20768E-14-1.83215E-13
 -1      1931 2.06325E+01-1.13093E-01-1.23502E-02-2.73107E-01 1.11858E-13-2.16503E-13
 -1      1932 2.05479E+01-2.83714E-02 5.64531E-03-3.14829E-01 1.20556E-13-2.03879E-13
 -1      1933 2.08820E+01-2.21455E-01 1.69936E-03-3.18035E-01-1.53736E-14-1.41856E-13
 -1      1934 2.03829E+01 3.00264E-02-8.26170E-03-3.08232E-01 2.84572E-13-2.50236E-13
 -1      1935 2.02902E+01 9.77271E-02 7.97006E-03-2.73906E-01 2.78086E-13-1.69109E-13
 -1      1936 2.02816E+01 1.52111E-01 1.28678E-03-3.43275E-01 1.63391E-13-2.33608E-13
 -1      1937 2.05675E+01 7.32331E-03 4.63613E-03-4.25756E-01 1.38057E-13-1.12948E-13
 -1      1938 1.96200E+01 1.42017E-01 7.88221E-03 2.59406E-01 1.92943E-13 4.35285E-13
 -1      1939 1.98921E+01 2.04079E-01 1.64337E-02 4.32392E-01 2.17146E-13 5.09775E-13
 -1      1940 2.01035E+01 3.50533E-01-1.52802E-03 6.54961E-01 2.59463E-13 3.59621E-13
 -1      1941 1.93776E+01 7.18941E-02 6.94425E-03 5.64642E-02 1.49190E-13 3.09145E-13
 -1      1942 1.94926E+01 1.01780E-01 1.41934E-02 1.44970E-01 1.56113E-13 3.73215E-13
 -1      1943 1.97108E+01 1.65158E-01-1.94484E-03 2.56250E-01 2.03091E-13 2.72067E-13
 -1      1944 1.92870E+01 3.61128E-02 4.42514E-03-4.89494E-02 6.85758E-14 2.29375E-13
 -1      1945 1.93172E+01 5.19326E-02 8.33269E-03-1.76350E-03 1.10084E-13 2.79418E-13
 -1      1946 1.95104E+01 8.06425E-02-2.82620E-03 4.43075E-02 1.45720E-13 1.83840E-13
 -1      1947 1.92851E+01 1.61674E-02 2.85763E-03-1.01377E-01 5.84459E-14 1.89403E-13
 -1      1948 1.92700E+01 2.50303E-02 4.34778E-03-7.67835E-02 5.31502E-14 2.22330E-13
 -1      1949 1.94313E+01 3.74246E-02-2.84293E-03-6.75237E-02 6.87083E-14 1.08791E-13
 -1      1950 1.93321E+01 4.53782E-03 1.98434E-03-1.23404E-01 3.28435E-14 1.88611E-13
 -1      1951 1.92939E+01 9.56818E-03 2.14444E-03-1.12005E-01 4.89370E-14 1.93493E-13
 -1      1952 1.94246E+01 1.35914E-02-2.31166E-03-1.22995E-01 6.04972E-14 9.06072E-14
 -1      1953 1.94033E+01-2.23737E-03 1.44294E-03-1.27566E-01 5.23265E-14 1.52182E-13
 -1      1954 1.93550E+01 5.00895E-04 9.47939E-04-1.24091E-01 4.36953E-14 1.86576E-13
 -1      1955 1.94589E+01 1.84814E-05-1.69152E-03-1.45473E-01 5.07669E-14 8.10406E-14
 -1      1956 1.94835E+01-5.97624E-03 1.06370E-03-1.21427E-01 5.45385E-14 9.26336E-14
 -1      1957 1.94327E+01-4.66923E-03 2.77829E-04-1.22656E-01 5.46449E-14 1.08213E-13
 -1      1958 1.95142E+01-7.55491E-03-1.17076E-03-1.48449E-01 8.23177E-14 4.12374E-14
 -1      1959 1.95636E+01-7.74517E-03 7.82893E-04-1.09792E-01 2.17533E-14 1.01748E-13
 -1      1960 1.95148E+01-7.34612E-03-1.00727E-04-1.13650E-01 3.82556E-14 1.07174E-13
 -1      1961 1.95780E+01-1.13953E-02-7.81427E-04-1.40248E-01 5.22121E-14 2.14539E-14
 -1      1962 1.96385E+01-8.21617E-03 5.74404E-04-9.58008E-02 8.08951E-14 1.01685E-13
 -1      1963 1.95941E+01-8.38994E-03-3.02292E-04-1.00910E-01 8.28956E-14 1.16688E-13
 -1      1964 1.96425E+01-1.28370E-02-5.05124E-04-1.26225E-01 8.77394E-14 3.24182E-14
 -1      1965 1.97056E+01-7.82728E-03 4.24076E-04-8.15264E-02 9.79700E-14 1.18045E-13
 -1      1966 1.96665E+01-8.35469E-03-3.89377E-04-8.69623E-02 7.27620E-14 8.24716E-14
 -1      1967 1.97035E+01-1.27184E-02-3.16512E-04-1.09905E-01 8.81539E-14 3.21577E-14
 -1      1968 1.97644E+01-6.86231E-03 3.22678E-04-6.83501E-02 6.18442E-14 7.52683E-14
 -1      1969 1.97307E+01-7.60165E-03-4.00062E-04-7.34820E-02 8.21101E-14 1.04076E-13
 -1      1970 1.97588E+01-1.15790E-02-1.94638E-04-9.36356E-02 8.34123E-14 6.81681E-14
 -1      1971 1.98153E+01-5.49517E-03 2.64131E-04-5.72111E-02-5.71353E-14 1.02682E-13
 -1      1972 1.97866E+01-6.35941E-03-3.58666E-04-6.15977E-02-2.20652E-14 6.94075E-14
 -1      1973 1.98079E+01-9.75945E-03-1.24195E-04-7.89994E-02 2.45192E-16 8.96019E-14
 -1      1974 1.98599E+01-3.81745E-03 2.45043E-04-4.87888E-02-7.85579E-14 1.40773E-13
 -1      1975 1.98352E+01-4.75942E-03-2.80493E-04-5.20999E-02-7.34060E-14 1.17568E-13
 -1      1976 1.98514E+01-7.45775E-03-9.45482E-05-6.71024E-02-6.47313E-14 9.65242E-14
 -1      1977 1.99003E+01-1.85627E-03 2.64509E-04-4.36395E-02 5.21620E-14 6.21227E-14
 -1      1978 1.98782E+01-2.85860E-03-1.74449E-04-4.55958E-02-1.87389E-15 9.83816E-14
 -1      1979 1.98906E+01-4.76387E-03-9.87222E-05-5.87812E-02-5.79566E-15 1.18126E-14
 -1      1980 1.99393E+01 4.13672E-04 3.23991E-04-4.23049E-02 1.91464E-13-1.31261E-14
 -1      1981 1.99182E+01-6.54413E-04-4.47178E-05-4.26296E-02 1.25278E-13 3.89552E-14
 -1      1982 1.99277E+01-1.68276E-03-1.32717E-04-5.47624E-02 1.52513E-13 1.94370E-16
 -1      1983 1.99801E+01 3.06138E-03 4.27279E-04-4.53996E-02 1.22686E-13 1.16251E-14
 -1      1984 1.99582E+01 1.90476E-03 1.08052E-04-4.37781E-02 2.14015E-13 8.48907E-15
 -1      1985 1.99651E+01 1.85007E-03-1.94942E-04-5.57885E-02 2.42258E-13-7.88325E-14
 -1      1986 2.00266E+01 6.19300E-03 5.80433E-04-5.36841E-02-7.64196E-14-4.19918E-14
 -1      1987 2.00017E+01 4.91181E-03 2.85815E-04-4.97287E-02 6.83427E-16-5.89915E-14
 -1      1988 2.00060E+01 5.95716E-03-2.85765E-04-6.27199E-02 6.21389E-14-6.88345E-14
 -1      1989 2.00836E+01 9.94599E-03 7.91588E-04-6.81237E-02-5.00492E-14-1.26130E-13
 -1      1990 2.00530E+01 8.49470E-03 4.92278E-04-6.13441E-02-5.00123E-14-6.60426E-14
 -1      1991 2.00540E+01 1.08100E-02-4.07128E-04-7.66173E-02-1.73664E-14-1.27547E-13
 -1      1992 2.01564E+01 1.44816E-02 1.07036E-03-8.99353E-02 5.10898E-14-1.22765E-13
 -1      1993 2.01170E+01 1.28097E-02 7.31940E-04-7.97127E-02-1.04766E-15-1.29653E-13
 -1      1994 2.01137E+01 1.66195E-02-5.62207E-04-9.88059E-02 3.07966E-14-1.58212E-13
 -1      1995 2.02517E+01 1.99719E-02 1.42642E-03-1.20613E-01 7.65248E-14-1.23226E-13
 -1      1996 2.01997E+01 1.80307E-02 1.00878E-03-1.06183E-01 4.28746E-14-1.33945E-13
 -1      1997 2.01901E+01 2.36222E-02-7.55061E-04-1.30919E-01 5.41710E-14-1.58785E-13
 -1      1998 2.03771E+01 2.65729E-02 1.86635E-03-1.61921E-01 3.52939E-14-2.83992E-13
 -1      1999 2.03081E+01 2.43294E-02 1.32419E-03-1.42368E-01 1.08086E-13-1.90306E-13
 -1      2000 2.02893E+01 3.20533E-02-9.90294E-04-1.74905E-01 1.16772E-13-2.25464E-13
 -1      2001 2.05415E+01 3.43705E-02 2.38739E-03-2.15808E-01-1.44996E-13-3.20666E-13
 -1      2002 2.04503E+01 3.18337E-02 1.67349E-03-1.90100E-01-8.62437E-14-3.44966E-13
 -1      2003 2.04182E+01 4.20927E-02-1.27277E-03-2.32969E-01-1.62253E-14-3.18276E-13
 -1      2004 2.07550E+01 4.32727E-02 2.96583E-03-2.84194E-01-1.36025E-13-2.48191E-13
 -1      2005 2.06356E+01 4.05448E-02 2.04022E-03-2.51269E-01-1.69792E-13-3.31252E-13
 -1      2006 2.05848E+01 5.37556E-02-1.60751E-03-3.07396E-01-1.55039E-13-2.48202E-13
 -1      2007 2.10283E+01 5.28048E-02 3.53688E-03-3.68493E-01-4.48248E-14-1.55606E-13
 -1      2008 2.08745E+01 5.01773E-02 2.38703E-03-3.27482E-01-1.03148E-13-1.60647E-13
 -1      2009 2.07977E+01 6.66815E-02-1.99979E-03-4.00141E-01-1.50451E-13-2.57515E-13
 -1      2010 2.13722E+01 6.17374E-02 3.96357E-03-4.68657E-01 8.20884E-14 6.02443E-14
 -1      2011 2.11775E+01 5.98624E-02 2.64264E-03-4.19337E-01 6.73689E-14 1.00796E-14
 -1      2012 2.10656E+01 7.97417E-02-2.45525E-03-5.12007E-01-2.88970E-14-1.06583E-13
 -1      2013 2.17950E+01 6.74577E-02 3.99665E-03-5.81427E-01 3.67848E-15-8.05541E-14
 -1      2014 2.15548E+01 6.76311E-02 2.68673E-03-5.25086E-01 5.78283E-14 5.44269E-17
 -1      2015 2.13967E+01 9.03547E-02-2.97827E-03-6.41112E-01 8.74173E-14 3.00488E-14
 -1      2016 2.23000E+01 6.50155E-02 3.24142E-03-6.97304E-01 6.96210E-15-4.43799E-14
 -1      2017 2.20131E+01 6.95868E-02 2.34022E-03-6.38270E-01-4.50954E-14-1.52719E-14
 -1      2018 2.17970E+01 9.33878E-02-3.56304E-03-7.80213E-01-1.45196E-14-5.99574E-14
 -1      2019 2.28795E+01 4.59688E-02 1.17992E-03-7.95818E-01 1.38096E-14-5.23435E-14
 -1      2020 2.25526E+01 5.87748E-02 1.37952E-03-7.43911E-01 6.66760E-14-1.57257E-14
 -1      2021 2.22676E+01 7.96539E-02-4.16472E-03-9.12401E-01 7.37203E-14 2.35534E-14
 -1      2022 2.35077E+01-2.22077E-03-2.64968E-03-8.39290E-01-2.74497E-13-1.73906E-13
 -1      2023 2.31603E+01 2.41571E-02-3.94833E-04-8.13144E-01-2.13186E-13-1.75341E-13
 -1      2024 2.28013E+01 3.45309E-02-4.62734E-03-1.00499E+00-1.50166E-13-5.44465E-14
 -1      2025 2.41302E+01-9.40422E-02-8.18032E-03-7.67428E-01-8.04738E-15-2.46070E-13
 -1      2026 2.38019E+01-4.88397E-02-3.00616E-03-7.97508E-01-1.40369E-13-2.16362E-13
 -1      2027 2.33770E+01-6.13868E-02-4.54255E-03-1.00283E+00-1.34469E-13-2.57548E-13
 -1      2028 2.46556E+01-2.36528E-01-1.38882E-02-5.00161E-01 1.81964E-14 2.89230E-14
 -1      2029 2.44103E+01-1.72762E-01-6.11408E-03-6.27632E-01-4.02196E-14-1.74127E-13
 -1      2030 2.39531E+01-2.25055E-01-3.05041E-03-8.25850E-01-2.90202E-14-3.30800E-13
 -1      2031 2.49527E+01-4.06661E-01-1.61190E-02 3.55835E-02 3.44030E-14-1.96076E-14
 -1      2032 2.48750E+01-3.41351E-01-8.63980E-03-2.27310E-01 9.36178E-14 1.38607E-13
 -1      2033 2.44571E+01-4.50017E-01 1.32391E-03-3.82564E-01-1.71581E-14-1.86092E-14
 -1      2034 2.48656E+01-5.22136E-01-1.15394E-02 8.32683E-01 2.61227E-13 4.65999E-14
 -1      2035 2.50387E+01-5.00112E-01-1.05178E-02 4.37335E-01 1.36537E-13 6.78711E-16
 -1      2036 2.47735E+01-6.65232E-01 9.63530E-03 3.79401E-01 1.84967E-13 8.66210E-14
 -1      2037 2.42722E+01-4.38571E-01 3.58979E-04 1.69592E+00 2.72022E-14 1.39982E-13
 -1      2038 2.47341E+01-5.24381E-01-1.08531E-02 1.26774E+00 1.37635E-13 8.65662E-14
 -1      2039 2.47495E+01-7.15652E-01 1.79391E-02 1.36915E+00 1.47259E-13 2.95357E-13
 -1      2040 2.31894E+01-4.65414E-02 4.71319E-03 2.18609E+00-1.70622E-13 6.60826E-14
 -1      2041 2.38774E+01-2.65050E-01-1.21569E-02 1.94603E+00-9.00044E-14 1.04371E-13
 -1      2042 2.42577E+01-3.96795E-01 1.94104E-02 2.24716E+00-4.03410E-14 4.71628E-13
 -1      2043 2.19428E+01 5.26112E-01-9.59867E-03 1.81718E+00-2.91350E-13 4.16486E-13
 -1      2044 2.26533E+01 2.80390E-01-1.10484E-02 1.99488E+00-2.58899E-13 1.80592E-13
 -1      2045 2.33483E+01 2.93773E-01-3.71335E-03 2.43626E+00-2.84734E-13 4.23545E-13
 -1      2046 2.11374E+01 8.76426E-01-3.29191E-02 5.72158E-01-5.56739E-13 6.70696E-13
 -1      2047 2.15783E+01 7.94698E-01-3.41857E-03 1.15337E+00-3.82284E-13 4.86791E-13
 -1      2048 2.24396E+01 1.00799E+00-3.11922E-02 1.54798E+00-4.07709E-13 4.53070E-13
 -1      2049 2.12201E+01 6.96922E-01-3.97537E-02-8.63519E-01 1.34712E-13 6.13207E-13
 -1      2050 2.11930E+01 8.60902E-01 5.39792E-03-2.17085E-01-1.61184E-13 6.59868E-13
 -1      2051 2.20809E+01 1.20811E+00-3.48111E-02-7.70137E-02-2.92807E-13 5.39797E-13
 -1      2052 2.20129E+01 1.51546E-01-2.05311E-02-1.63332E+00 1.09019E-13 4.49991E-13
 -1      2053 2.15891E+01 4.24646E-01 4.81130E-03-1.29845E+00 1.70253E-13 5.37955E-13
 -1      2054 2.24202E+01 7.22912E-01-1.35043E-02-1.45496E+00 2.23394E-13 4.08694E-13
 -1      2055 2.28816E+01-3.32188E-01 6.70569E-03-1.45028E+00 1.31659E-13 4.46854E-13
 -1      2056 2.23513E+01-1.45611E-01-4.36171E-03-1.52855E+00 1.03301E-13 4.75290E-13
 -1      2057 2.30399E+01-5.94170E-02 5.69227E-03-1.82665E+00 5.74540E-14 5.73206E-13
 -1      2058 2.33062E+01-5.14713E-01 1.99979E-02-6.71024E-01 9.88203E-14 2.78339E-13
 -1      2059 2.29543E+01-4.81730E-01-1.32989E-02-9.99042E-01 1.08554E-13 3.10781E-13
 -1      2060 2.34116E+01-6.13056E-01 7.50922E-03-1.23927E+00 2.15246E-13 3.43968E-13
 -1      2061 2.31566E+01-4.39641E-01 1.81184E-02 1.86191E-01 4.93137E-13-1.52248E-14
 -1      2062 2.31086E+01-5.09706E-01-1.63062E-02-1.75054E-01 3.40783E-13 2.25304E-13
 -1      2063 2.33188E+01-7.40198E-01-9.86009E-04-2.50656E-01 3.54494E-13 4.80423E-14
 -1      2064 2.25730E+01-2.46356E-01 1.12113E-02 7.93112E-01 2.71358E-13-9.18016E-14
 -1      2065 2.27957E+01-3.50927E-01-1.34256E-02 5.34852E-01 2.88138E-13 2.40398E-14
 -1      2066 2.28346E+01-5.56714E-01-6.69100E-03 6.27120E-01 3.38906E-13 2.55854E-14
 -1      2067 2.17789E+01-2.90146E-02 6.23741E-03 1.03768E+00-1.62132E-14 2.41036E-13
 -1      2068 2.21565E+01-1.31264E-01-7.32027E-03 9.33963E-01 1.28406E-13 6.56853E-14
 -1      2069 2.21305E+01-2.49157E-01-7.12457E-03 1.14185E+00 1.14022E-13 1.61862E-13
 -1      2070 2.09877E+01 1.78202E-01 5.30849E-03 9.20193E-01-4.43176E-14 3.26661E-13
 -1      2071 2.13836E+01 8.52208E-02-1.98165E-03 9.81977E-01 5.25955E-14 3.05251E-13
 -1      2072 2.13673E+01 6.74201E-02-6.45345E-03 1.23734E+00 2.84508E-14 4.82198E-13
 -1      2073 2.04490E+01 3.23506E-01 7.44088E-03 6.29492E-01-9.40454E-14 4.09707E-13
 -1      2074 2.07701E+01 2.44462E-01-5.45739E-04 8.16014E-01-6.95329E-14 2.51296E-13
 -1      2075 2.07804E+01 3.05118E-01-7.51274E-03 1.05453E+00-7.77002E-14 5.70181E-13
 -1      2076 2.03987E+01 5.11163E-01 6.61389E-04 7.75483E-01-9.43243E-14 6.51424E-13
 -1      2077 2.00038E+01 2.72194E+00-7.61355E-03 1.78933E+00-2.95057E-13-3.85860E-13
 -1      2078 2.01299E+01 2.17665E+00 6.50917E-03 1.75144E+00-2.29044E-13-3.50649E-13
 -1      2079 2.02309E+01 1.79968E+00 2.06692E-03 1.62478E+00-1.27532E-13-2.98674E-13
 -1      2080 2.03188E+01 1.31022E+00 7.00503E-03 1.46456E+00 3.19072E-14-2.65409E-13
 -1      2081 2.02579E+01 1.57799E+00-7.58912E-03 2.08701E+00-1.43740E-13-4.52313E-13
 -1      2082 2.03403E+01 1.10472E+00 6.47370E-03 1.24735E+00-4.62182E-14-3.62809E-14
 -1      2083 2.03956E+01 7.20506E-01 7.30649E-03 1.01773E+00-7.03537E-14 2.73218E-13
 -1      2084 2.05611E+01 6.26384E-01 4.44881E-03 1.19528E+00-1.52475E-13 3.47214E-13
 -1      2085 2.04713E+01 1.02038E+00-1.58533E-03 1.69448E+00-1.10175E-13-2.18454E-13
 -1      2086 1.97208E+01 3.63575E+00-1.95684E-02 1.63354E+00-4.91128E-13-6.52166E-13
 -1      2087 1.98705E+01 3.13699E+00 2.11423E-03 1.74871E+00-4.68035E-13-2.96819E-13
 -1      2088 1.98984E+01 2.36447E+00-1.71682E-03 2.19415E+00-2.26530E-13-5.69038E-13
 -1      2089 1.94497E+01 4.39067E+00-2.64582E-02 1.10668E+00-2.26246E-13-1.81506E-13
 -1      2090 1.95802E+01 4.02402E+00-5.70853E-03 1.38273E+00-3.98724E-13-3.27433E-13
 -1      2091 1.94803E+01 3.16790E+00 8.96804E-03 1.87885E+00-1.51614E-13-3.83886E-13
 -1      2092 1.93088E+01 4.77077E+00-2.42441E-02 2.94261E-01-2.00867E-13 4.14301E-13
 -1      2093 1.93591E+01 4.62836E+00-1.62619E-02 6.72990E-01-1.08262E-13 1.35364E-13
 -1      2094 1.91298E+01 3.79578E+00 2.11677E-02 1.11153E+00 8.31136E-14 7.77139E-14
 -1      2095 1.93668E+01 4.65999E+00-1.52169E-02-5.86741E-01-3.52746E-13 2.54833E-13
 -1      2096 1.93110E+01 4.77318E+00-2.52118E-02-2.10701E-01-2.62499E-13 2.19588E-13
 -1      2097 1.89968E+01 4.03798E+00 2.67986E-02 4.91866E-02 3.03783E-15 2.69365E-13
 -1      2098 1.95956E+01 4.09173E+00-4.76394E-03-1.28359E+00-2.31371E-13 2.81771E-13
 -1      2099 1.94610E+01 4.42708E+00-2.73351E-02-1.01475E+00-3.06616E-13 2.82066E-13
 -1      2100 1.91439E+01 3.80770E+00 2.13725E-02-1.00713E+00-4.02107E-13 2.97561E-13
 -1      2101 1.98888E+01 3.23528E+00 2.60323E-03-1.63263E+00-2.26522E-13 2.59632E-13
 -1      2102 1.97368E+01 3.70846E+00-2.06980E-02-1.52523E+00-2.07421E-13 4.17696E-13
 -1      2103 1.95033E+01 3.19135E+00 9.18247E-03-1.75877E+00-1.74691E-13 2.87659E-13
 -1      2104 2.01317E+01 2.32412E+00 6.09708E-03-1.62357E+00-1.19833E-13-1.91261E-13
 -1      2105 2.00175E+01 2.82539E+00-8.40646E-03-1.66384E+00-1.73050E-13-8.59623E-14
 -1      2106 1.99182E+01 2.39801E+00-2.19902E-03-2.05539E+00-1.12756E-13 1.28581E-13
 -1      2107 2.02722E+01 1.49967E+00 6.63889E-03-1.35919E+00 1.16397E-13 4.40704E-13
 -1      2108 2.02153E+01 1.96128E+00 3.65969E-03-1.49623E+00 4.12699E-14 2.45690E-13
 -1      2109 2.02432E+01 1.62520E+00-8.93267E-03-1.93797E+00 1.19814E-13 9.63570E-14
 -1      2110 2.03058E+01 8.69041E-01 5.57555E-03-9.80231E-01 6.36324E-14 3.31159E-15
 -1      2111 2.03016E+01 1.23253E+00 1.19424E-02-1.15255E+00 1.22802E-13 2.26539E-13
 -1      2112 2.04164E+01 9.95301E-01-9.86731E-03-1.55692E+00 2.03814E-13 3.99937E-13
 -1      2113 2.02659E+01 4.44433E-01 3.05958E-03-6.03147E-01 2.18891E-14-1.36153E-13
 -1      2114 2.02904E+01 6.95414E-01 1.30197E-02-7.67220E-01-9.49761E-15 1.27485E-14
 -1      2115 2.04432E+01 5.53300E-01-8.06105E-03-1.08485E+00 7.00154E-14-7.96069E-14
 -1      2116 1.17806E+01-6.10531E+00-1.77361E-01 6.85933E+00 5.11147E-13-1.37537E-12
 -1      2117 8.39045E+00-7.22537E+00-2.53157E-01 6.20955E+00 7.68885E-13-1.44804E-12
 -1      2118 5.15569E-01-7.39999E+00-3.18818E-01 6.28930E-01 6.72407E-13 5.04985E-13
 -1      2119 5.05763E-01-8.21687E+00-4.44186E-01-1.30674E+00 7.16177E-13 8.42326E-13
 -1      2120 4.31475E+00-6.91289E+00-2.60457E-01 4.87292E+00 6.40710E-13-1.09268E-12
 -1      2121 1.85350E+00-7.78917E+00-3.99973E-01 2.92817E+00 8.81906E-13-3.99736E-13
 -1      2122 1.99154E+01-3.65479E+00 4.45303E-03 7.31212E+00 5.07372E-14-5.19029E-13
 -1      2123 1.50307E+01-5.86338E+00-3.50550E-01 6.46011E+00 3.80695E-13-8.09186E-13
 -1      2124 1.61484E+01-6.55904E+00-1.02232E-01 7.26110E+00 5.37126E-13-9.00842E-13
 -1      2125 2.90747E+01-8.82256E-01 1.36925E-01 6.04023E+00-2.42195E-13-6.33604E-13
 -1      2126 2.39859E+01-2.66952E+00-1.50218E-01 6.11844E+00-8.58758E-14-4.59410E-13
 -1      2127 1.95182E+01 4.01563E+00-2.70796E-02-1.70271E+00-1.72306E-13-4.63619E-13
 -1      2128 1.96466E+01 3.94562E+00-2.47565E-02-1.95400E+00-2.18723E-13-4.28331E-13
 -1      2129 1.99726E+01 3.24667E+00-1.37173E-02-1.91865E+00-2.39908E-13-3.72476E-13
 -1      2130 1.96973E+01 3.58524E+00-7.10250E-03-1.52095E+00-1.68657E-13-4.48062E-13
 -1      2131 4.09897E+01 5.95329E+00 4.63489E-01 2.20921E+00-1.91624E-13-7.74047E-13
 -1      2132 3.78155E+01 4.76088E+00 1.79094E-01 2.84037E+00-3.66679E-13-7.33413E-13
 -1      2133 4.27973E+01 7.24998E+00 4.69391E-01 5.92003E-01-1.58540E-13-6.47954E-13
 -1      2134 4.18551E+01 7.00218E+00 3.90760E-01 1.78109E+00-9.97535E-14-6.38267E-13
 -1      2135 4.08156E+01 6.38522E+00 3.02258E-01-9.20542E-01-1.17129E-14-5.75262E-13
 -1      2136 4.29019E+01 7.07037E+00 5.32429E-01 1.25113E-01-1.24734E-13-7.29750E-13
 -1      2137 3.56937E+01 3.34984E+00 1.30585E-01-1.45081E+00 3.05755E-13-3.64042E-13
 -1      2138 3.96311E+01 5.08210E+00 4.87500E-01-1.29751E+00 1.56597E-13-4.75064E-13
 -1      2139 2.88198E+01-1.01887E+00-4.70270E-02-4.14877E+00 9.18154E-14-2.60014E-13
 -1      2140 3.29244E+01 3.28436E-01 1.17398E-02-2.77778E+00 1.64611E-13-1.60649E-13
 -1      2141 2.09973E+01-3.97916E+00-2.30356E-01-5.45411E+00-3.00315E-13-5.59108E-13
 -1      2142 2.60702E+01-2.05666E+00 1.03414E-01-5.72902E+00 1.70974E-14-4.03177E-13
 -1      2143 2.88048E+01-3.19403E+00 1.67054E-01-3.01954E+00-1.72945E-13-1.01363E-13
 -1      2144 1.34786E+01-6.34032E+00-1.57867E-01-6.11157E+00-3.20910E-13-4.30531E-13
 -1      2145 1.74612E+01-4.69214E+00-1.07004E-02-6.50187E+00-3.00426E-13-6.30801E-13
 -1      2146 4.54318E+00-7.61047E+00-4.05646E-01-4.19463E+00-3.81195E-13 1.13465E-13
 -1      2147 8.26295E+00-6.30481E+00-1.89291E-01-5.81613E+00-2.88214E-13-6.16174E-14
 -1      2148 3.96444E-01-8.28232E+00-4.70334E-01-1.25469E+00-5.12645E-13-7.47735E-14
 -1      2149 1.78705E+00-7.40701E+00-3.18692E-01-2.82651E+00-4.00624E-13 6.66134E-16
 -1      2150 3.29111E-01-8.11232E+00-4.28897E-01 1.86108E+00-3.05311E-13 3.95683E-13
 -1      2151-1.93876E-01-8.50248E+00-4.72898E-01 4.69369E-01-4.86122E-13 1.63314E-13
 -1      2152 5.01560E+00-6.51198E+00-2.13445E-01 5.05749E+00-1.53211E-13 3.83971E-13
 -1      2153 2.56777E+00-7.68048E+00-3.91536E-01 3.67145E+00-1.96010E-13 3.39950E-13
 -1      2154 1.17130E+01-5.25174E+00-1.37630E-01 6.76685E+00-3.21965E-14-1.94129E-13
 -1      2155 7.71517E+00-7.04217E+00-3.94345E-01 5.54008E+00-1.78635E-13 1.99854E-13
 -1      2156 8.45303E+00-5.81452E+00-8.78974E-02 6.38149E+00-1.25289E-13 2.40030E-13
 -1      2157 2.17273E+01-3.37704E+00 9.57803E-03 6.69792E+00 2.77556E-15-1.40332E-13
 -1      2158 1.67722E+01-5.14798E+00-2.63339E-01 6.23440E+00 4.89608E-14-2.96929E-13
 -1      2159 2.98615E+01-8.91592E-01-2.75501E-02 4.08380E+00-9.52294E-14 2.85882E-14
 -1      2160 2.53994E+01-2.36987E+00-1.02370E-01 5.07983E+00-6.30607E-14-4.44089E-16
 -1      2161 3.78375E+01 4.39209E+00 4.50960E-01 2.90380E+00-1.77608E-13 2.46358E-13
 -1      2162 3.32372E+01 2.36154E+00 6.33695E-02 2.69769E+00-6.67105E-14 2.51965E-13
 -1      2163 3.99552E+01 6.54008E+00 2.80225E-01 7.58568E-01-6.35048E-14 2.18964E-13
 -1      2164 3.86174E+01 5.58122E+00 2.49825E-01 1.94949E+00-1.75332E-13 2.22655E-13
 -1      2165 3.52642E+01 4.95172E+00 2.42037E-01-1.19783E-01-1.08191E-13 2.55851E-13
 -1      2166 4.00001E+01 7.77659E+00 2.60754E-01-7.08557E-01-2.52243E-13 5.13631E-13
 -1      2167 4.07946E+01 7.56918E+00 3.89100E-01 2.41122E-01-2.43694E-14 3.34094E-13
 -1      2168 3.85323E+01 5.94445E+00 2.67387E-01-2.06823E+00-4.54414E-13 4.78673E-13
 -1      2169 3.90001E+01 6.95178E+00 1.76614E-01-7.95434E-01-4.17222E-13 5.06289E-13
 -1      2170 3.41238E+01 2.83659E+00 6.89116E-02-3.48258E+00-6.33736E-13 3.79030E-13
 -1      2171 3.77993E+01 4.37416E+00 3.03605E-01-3.01104E+00-5.32907E-13 4.08951E-13
 -1      2172 3.52112E+01 5.10634E+00 2.42779E-01-2.47572E-01-4.08062E-13 2.72782E-13
 -1      2173 2.70542E+01-1.52921E+00-7.37994E-02-5.40689E+00-7.41740E-13 6.57141E-13
 -1      2174 3.17370E+01 4.13186E-01 1.78945E-01-5.07648E+00-7.47791E-13 4.76730E-13
 -1      2175 1.78713E+01-4.98128E+00-2.59087E-01-6.51863E+00-2.56684E-13 8.28171E-13
 -1      2176 2.31739E+01-2.75112E+00 5.49484E-02-7.12038E+00-5.75984E-13 7.95808E-13
 -1      2177 8.32843E+00-7.59697E+00-4.31712E-01-5.81556E+00 4.18332E-13 9.28847E-13
 -1      2178 1.29214E+01-5.49718E+00-1.51093E-01-7.15928E+00-6.58362E-14 9.21097E-13
 -1      2179 1.86629E+00-8.53105E+00-4.88037E-01-3.13798E+00 1.05360E-12 1.36052E-12
 -1      2180 4.46908E+00-7.18184E+00-2.90685E-01-4.99977E+00 7.42517E-13 1.46183E-12
 -1      2181 3.64446E+01 2.87592E+00 3.37386E-01 3.97478E+00-4.19130E-13-6.70797E-13
 -1      2182 3.22378E+01 9.98945E-01 3.31915E-02 4.22827E+00-3.69357E-13-6.43485E-13
 -1      2183 2.40163E+01-4.94408E+00 5.07274E-02 6.03839E+00 2.29150E-13-4.72844E-13
 -1      2184 2.07364E+01 1.10860E+00-2.06972E-02-1.61594E+00-2.89387E-13 4.68028E-14
 -1      2185 3.54907E+01 3.28128E+00 2.66938E-01 8.82186E-01-2.64372E-13-5.16254E-13
 -1      2186 2.06268E+01 1.33050E+00-1.85113E-02-1.67798E+00-2.98227E-13-9.11389E-14
 -1      2187 7.84034E+00-6.38698E+00-1.09932E-01 6.05218E+00 6.21059E-13-1.33318E-12
 -1      2188 7.69034E+00-4.68797E+00 1.16527E-01 6.00375E+00 3.82139E-13-1.16934E-12
 -1      2189 1.13424E+01-5.79625E+00-1.16235E-01 7.25039E+00 5.50504E-13-1.46350E-12
 -1      2190 2.66563E+00-5.26798E+00-1.26887E-01 2.10965E+00 2.72019E-13 2.81442E-14
 -1      2191 2.02842E+01 3.23817E-01 5.00305E-03-5.32060E-01 7.04411E-14-1.83528E-13
 -1      2192 2.87487E+00-5.48504E+00-1.76257E-01-2.95577E+00 5.86448E-13 1.10290E-12
 -1      2193 3.12683E+01-1.36749E+00 1.72109E-01 3.33043E+00-1.55487E-13-4.71123E-13
 -1      2194 8.47338E+00-6.46481E+00-1.57985E-01-6.47225E+00 7.38576E-13 1.33402E-12
 -1      2195 1.78900E+01-6.12219E+00-3.18211E-02-7.19109E+00 9.12603E-14 9.51433E-13
 -1      2196 3.27098E+01 4.59375E-01 1.76386E-01-2.03449E+00-6.34326E-13 1.39777E-13
 -1      2197 3.65808E+01 7.67281E+00 2.73934E-01-4.96250E-01-1.68088E-13 3.18912E-13
 -1      2198 3.15889E+01 3.31856E-02 7.40537E-02 2.24797E+00-8.79088E-14 1.41331E-13
 -1      2199 2.97497E+01-2.04571E+00 1.02450E-01 1.74645E+00-2.36762E-13 1.56986E-13
 -1      2200 3.19114E+01 5.77629E-01-1.94730E-01 1.36873E-01-1.00198E-13 2.27818E-13
 -1      2201 1.65883E+01-5.92416E+00 1.74243E-02 6.89923E+00-1.64702E-13-2.62373E-13
 -1      2202 2.88978E+00-5.54039E+00-1.82107E-01 3.68779E+00-1.82632E-13 4.13891E-13
 -1      2203 1.19912E+00-5.69121E+00-2.36677E-01-6.28111E-01-3.60746E-13 5.01266E-14
 -1      2204 4.93192E+00-5.45831E+00-8.23497E-02-4.47100E+00-3.10085E-13 1.68199E-14
 -1      2205 2.20610E+01-5.72950E+00-2.59728E-02-5.40867E+00-3.53606E-13-4.26159E-13
 -1      2206 3.37930E+01 1.26751E+00 1.32101E-01-8.26979E-01 1.73764E-13-2.84772E-13
 -1      2207 3.28814E+01 1.75986E+00-1.45856E-01 1.49624E+00-2.66454E-15-4.58023E-13
 -1      2208 3.15790E+01-8.63415E-01 9.87698E-02 3.19202E-02-9.88445E-14-2.24931E-13
 -1      2209 3.67868E+01 5.98403E+00 2.49837E-01 9.08359E-01 2.23155E-14-4.74398E-13
 -1      2210 3.75630E+01 7.04214E+00 3.65650E-01 2.78179E-01-1.51490E-13-5.06040E-13
 -1      2211 3.84551E+01 8.11807E+00 4.16564E-01 5.98033E-01-1.66034E-13-5.36265E-13
 -1      2212 1.24515E+01-6.19668E+00-4.45887E-02-6.25033E+00-2.45470E-13-3.22159E-13
 -1      2213 1.63834E+01-6.30740E+00-1.48328E-01-6.54621E+00-2.41751E-13-5.65714E-13
 -1      2214 1.19792E+01-5.21627E+00 1.86594E-01-6.48804E+00-1.01197E-13-2.66009E-13
 -1      2215 2.52654E+01-4.38092E+00 1.23890E-01 4.80038E+00-4.07174E-14-1.48798E-13
 -1      2216 3.70845E+01 7.46047E+00 1.41629E-01-3.53968E-01-3.41172E-13 2.84023E-13
 -1      2217 3.37576E+01 7.92081E+00-8.78497E-02 3.51448E-03-1.84963E-13 2.92388E-13
 -1      2218 3.33504E+01 7.09267E+00-2.52261E-02 3.68518E-01-3.60267E-13 1.62842E-13
 -1      2219 2.68167E+01-3.83142E+00 1.15039E-01-5.06970E+00-2.98844E-13 4.81504E-13
 -1      2220 2.01481E+01 5.06388E-01 3.73414E-03 6.78085E-01 2.56628E-13 2.05321E-13
 -1      2221 2.04161E+01 6.99936E-01 2.07915E-02 9.69669E-01 2.81844E-13 2.43659E-13
 -1      2222 1.95599E+01 3.51603E+00-1.10741E-02-5.91647E-01-1.00880E-14-4.44433E-13
 -1      2223 1.95954E+01 3.47024E+00-1.03990E-02-7.76017E-01-5.02526E-14-4.59002E-13
 -1      2224 1.96420E+01 3.38230E+00-1.26198E-02-9.40404E-01-7.38428E-14-4.62698E-13
 -1      2225 1.97036E+01 3.30129E+00-1.24734E-02-1.12970E+00-1.12961E-13-4.59844E-13
 -1      2226 1.97868E+01 3.03336E+00 3.91065E-04-7.92604E-01-5.27184E-14-4.31332E-13
 -1      2227 1.95126E+01 3.59844E+00-9.61665E-03 9.94653E-02 1.17519E-13-4.08267E-13
 -1      2228 1.95119E+01 3.59927E+00-9.62318E-03-8.00774E-02 7.92319E-14-4.13569E-13
 -1      2229 1.95387E+01 3.55902E+00-9.72408E-03 4.45670E-01 1.76493E-13-4.04270E-13
 -1      2230 1.95213E+01 3.58159E+00-1.01383E-02 2.64768E-01 1.44649E-13-4.05200E-13
 -1      2231 1.96788E+01 3.22110E+00-8.98854E-04 1.69637E-01 1.20231E-13-3.85036E-13
 -1      2232 1.96005E+01 3.46253E+00-1.06143E-02 7.89738E-01 2.28001E-13-3.69712E-13
 -1      2233 1.95642E+01 3.50953E+00-1.12122E-02 6.08262E-01 1.97362E-13-3.98313E-13
 -1      2234 1.97155E+01 3.15759E+00-5.10754E-04 4.88248E-01 1.77006E-13-3.74350E-13
 -1      2235 1.97113E+01 3.28880E+00-1.29562E-02 1.14318E+00 2.96072E-13-2.85065E-13
 -1      2236 1.96486E+01 3.37211E+00-1.28854E-02 9.53863E-01 2.60419E-13-3.33946E-13
 -1      2237 1.97926E+01 3.02395E+00 2.46131E-04 8.03999E-01 2.39399E-13-3.20334E-13
 -1      2238 1.98906E+01 3.00328E+00-1.81734E-02 1.49033E+00 3.35606E-13-2.08282E-13
 -1      2239 1.97911E+01 3.14454E+00-1.51810E-02 1.29989E+00 3.03046E-13-2.55132E-13
 -1      2240 1.99219E+01 2.79885E+00 1.94047E-03 1.11038E+00 2.86685E-13-2.52289E-13
 -1      2241 2.01691E+01 2.54383E+00-2.83958E-02 1.79467E+00 3.77113E-13-8.58792E-14
 -1      2242 2.00178E+01 2.78316E+00-1.70925E-02 1.62021E+00 3.49136E-13-1.53972E-13
 -1      2243 2.01167E+01 2.44833E+00 5.85460E-03 1.37622E+00 3.16788E-13-1.59914E-13
 -1      2244 1.98709E+01 2.68170E-01 4.72365E-03 2.85619E-01 2.05420E-13 1.53279E-13
 -1      2245 2.00317E+01 3.67929E-01 2.01680E-02 4.42746E-01 2.33697E-13 1.97132E-13
 -1      2246 2.02107E+01 6.34553E-01-2.21990E-03 7.05050E-01 2.63996E-13 9.78332E-14
 -1      2247 2.03988E+01 8.56932E-01 1.29408E-02-1.00129E+00-2.16726E-13-1.44899E-13
 -1      2248 2.01874E+01 6.25951E-01-5.44497E-03-6.87725E-01-1.91751E-13-1.47985E-13
 -1      2249 3.32211E+01 3.20965E+00-1.53351E-01-6.62168E-01-1.63536E-13-4.35069E-13
 -1      2250 3.23895E+01 1.11361E+00-7.59107E-02-2.80481E-01-2.39156E-13-3.41949E-13
 -1      2251 2.01297E+01 4.70344E-01 1.79249E-02-4.79499E-01-1.82675E-13-1.36969E-13
 -1      2252 1.99828E+01 3.47100E-01 4.92394E-04-3.04147E-01-1.72299E-13-1.38195E-13
 -1      2253 2.02391E+01 7.25835E-01-9.35515E-03-6.90879E-01-2.00246E-13-2.00877E-13
 -1      2254 1.99205E+01 2.59282E-01 1.09626E-02-1.66394E-01-1.60488E-13-1.04646E-13
 -1      2255 1.98411E+01 1.87715E-01 6.97911E-04-6.93047E-02-1.27849E-13-1.20870E-13
 -1      2256 2.00783E+01 4.17875E-01-3.75310E-03-3.09725E-01-1.58925E-13-1.65767E-13
 -1      2257 1.97966E+01 1.38214E-01 6.39619E-03 1.25805E-02-1.27396E-13-1.19287E-13
 -1      2258 1.97613E+01 9.58829E-02 7.18016E-04 6.57512E-02-1.20480E-13-1.23451E-13
 -1      2259 1.99593E+01 2.26848E-01-3.61118E-03-7.21617E-02-1.40884E-13-1.44968E-13
 -1      2260 1.97354E+01 6.59905E-02 3.58786E-03 1.11340E-01-9.41306E-14-1.19175E-13
 -1      2261 1.97278E+01 4.04552E-02 6.15902E-04 1.37770E-01-7.09233E-14-1.31863E-13
 -1      2262 1.98833E+01 1.14436E-01-2.91778E-03 6.83304E-02-1.19731E-13-1.30112E-13
 -1      2263 1.97160E+01 2.22110E-02 1.85915E-03 1.59880E-01-8.75761E-14-1.30102E-13
 -1      2264 1.97250E+01 6.98051E-03 4.94945E-04 1.69885E-01-7.91198E-14-1.57267E-13
 -1      2265 1.98435E+01 4.62914E-02-2.11825E-03 1.44264E-01-9.68078E-14-1.19796E-13
 -1      2266 1.97229E+01-3.90039E-03 7.96564E-04 1.77162E-01-5.10037E-14-1.80810E-13
 -1      2267 1.97408E+01-1.25323E-02 3.82736E-04 1.77260E-01-4.08782E-14-1.95222E-13
 -1      2268 1.98291E+01 5.26010E-03-1.43716E-03 1.78613E-01-8.55799E-14-1.64057E-13
 -1      2269 1.97448E+01-1.85836E-02 1.47338E-04 1.75536E-01-6.53452E-14-1.78123E-13
 -1      2270 1.97668E+01-2.28801E-02 2.93586E-04 1.69990E-01-8.21634E-14-1.46989E-13
 -1      2271 1.98315E+01-1.84190E-02-9.22609E-04 1.86905E-01-5.13074E-14-1.67121E-13
 -1      2272 1.97744E+01-2.57012E-02-2.34641E-04 1.63236E-01-6.49522E-14-1.00586E-13
 -1      2273 1.97974E+01-2.71160E-02 2.33652E-04 1.54892E-01-4.17144E-15-9.26771E-14
 -1      2274 1.98438E+01-3.06796E-02-5.59688E-04 1.79708E-01-4.66318E-14-1.20922E-13
 -1      2275 1.98067E+01-2.77586E-02-4.40377E-04 1.45826E-01-4.04416E-15-7.10862E-14
 -1      2276 1.98291E+01-2.72479E-02 2.04359E-04 1.36605E-01-2.30451E-15-6.67432E-14
 -1      2277 1.98615E+01-3.53176E-02-3.17794E-04 1.64263E-01-1.49082E-14-7.89943E-14
 -1      2278 1.98391E+01-2.64106E-02-5.30276E-04 1.27092E-01 3.23037E-14-8.73980E-14
 -1      2279 1.98600E+01-2.45989E-02 2.05537E-04 1.18303E-01 1.84684E-14-6.41565E-14
 -1      2280 1.98817E+01-3.48278E-02-1.68051E-04 1.45547E-01 1.01640E-14-8.00585E-14
 -1      2281 1.98700E+01-2.27360E-02-5.45714E-04 1.09635E-01-4.42414E-14-1.05111E-13
 -1      2282 1.98893E+01-2.00136E-02 2.37227E-04 1.02188E-01-4.63571E-14-1.35675E-13
 -1      2283 1.99026E+01-3.08454E-02-8.74184E-05 1.27001E-01 1.78071E-15-1.16820E-13
 -1      2284 1.98991E+01-1.74021E-02-5.15265E-04 9.52861E-02-7.08488E-14-1.43289E-13
 -1      2285 1.99170E+01-1.39878E-02 3.00418E-04 8.98431E-02-8.66928E-14-1.76690E-13
 -1      2286 1.99235E+01-2.44018E-02-5.85846E-05 1.11043E-01-6.79781E-14-1.27553E-13
 -1      2287 1.99268E+01-1.07740E-02-4.58558E-04 8.54056E-02-9.32167E-14-1.46657E-13
 -1      2288 1.99440E+01-6.76032E-03 3.97114E-04 8.24948E-02-1.12328E-13-1.43211E-13
 -1      2289 1.99441E+01-1.60888E-02-6.89422E-05 9.94422E-02-8.49501E-14-1.00151E-13
 -1      2290 1.99541E+01-2.99441E-03-3.88854E-04 8.11045E-02-1.64799E-13-1.41908E-13
 -1      2291 1.99714E+01 1.61678E-03 5.30015E-04 8.11991E-02-1.26123E-13-1.77441E-13
 -1      2292 1.99649E+01-6.17616E-03-1.09512E-04 9.35964E-02-1.58118E-13-5.99736E-14
 -1      2293 1.99822E+01 5.95080E-03-3.14833E-04 8.34025E-02-5.53330E-14-2.46953E-13
 -1      2294 2.00009E+01 1.12167E-02 7.01854E-04 8.69763E-02-8.04632E-14-1.85416E-13
 -1      2295 1.99867E+01 5.29667E-03-1.73974E-04 9.47295E-02-1.31375E-13-1.43529E-13
 -1      2296 2.00130E+01 1.61721E-02-2.41814E-04 9.33336E-02-1.29648E-13-1.67588E-13
 -1      2297 2.00344E+01 2.21753E-02 9.14352E-04 1.00891E-01-1.33760E-13-1.67829E-13
 -1      2298 2.00108E+01 1.84374E-02-2.57801E-04 1.04030E-01-1.01729E-13-2.23168E-13
 -1      2299 2.00487E+01 2.78100E-02-1.72564E-04 1.11998E-01-1.02847E-13-1.92425E-13
 -1      2300 2.00742E+01 3.46190E-02 1.16665E-03 1.24078E-01-5.00577E-14-2.24411E-13
 -1      2301 2.00384E+01 3.34142E-02-3.57517E-04 1.22729E-01-1.11167E-13-8.99675E-14
 -1      2302 2.00915E+01 4.09539E-02-1.07679E-04 1.40556E-01-1.72341E-14-2.09179E-13
 -1      2303 2.01231E+01 4.85695E-02 1.45300E-03 1.57700E-01 5.24826E-14-2.75165E-13
 -1      2304 2.00715E+01 5.03526E-02-4.70128E-04 1.52110E-01-5.09148E-14-6.21551E-14
 -1      2305 2.01444E+01 5.55316E-02-4.55071E-05 1.80143E-01 1.14983E-13-2.49487E-13
 -1      2306 2.01838E+01 6.38125E-02 1.75956E-03 2.02821E-01 1.65674E-13-2.23650E-13
 -1      2307 2.01118E+01 6.91979E-02-5.92821E-04 1.93449E-01 1.05190E-13-1.20768E-13
 -1      2308 2.02104E+01 7.11547E-02 1.85174E-05 2.31693E-01 2.12900E-13-1.90027E-13
 -1      2309 2.02595E+01 7.97113E-02 2.05984E-03 2.60163E-01 1.73213E-13-1.17732E-13
 -1      2310 2.01617E+01 8.95255E-02-7.23114E-04 2.47850E-01 2.05248E-13-1.14369E-13
 -1      2311 2.02926E+01 8.68979E-02 9.33233E-05 2.95617E-01 8.25610E-14-9.75431E-14
 -1      2312 2.03534E+01 9.49423E-02 2.30888E-03 3.29705E-01 5.33987E-14-1.19868E-13
 -1      2313 2.02235E+01 1.10271E-01-8.59763E-04 3.15948E-01 1.30342E-13-1.54318E-13
 -1      2314 2.03946E+01 1.00992E-01 1.94623E-04 3.71303E-01 9.43852E-15-1.53494E-13
 -1      2315 2.04686E+01 1.07136E-01 2.43614E-03 4.10062E-01 2.10355E-14-1.04538E-13
 -1      2316 2.03000E+01 1.29357E-01-1.00484E-03 3.97445E-01 1.55515E-14-1.37158E-13
 -1      2317 2.05196E+01 1.10417E-01 3.48328E-04 4.56372E-01-5.20489E-14-1.72084E-13
 -1      2318 2.06080E+01 1.12419E-01 2.33802E-03 4.97602E-01-1.26288E-13-1.53616E-13
 -1      2319 2.03943E+01 1.43191E-01-1.16732E-03 4.90401E-01-1.15738E-13-1.99616E-13
 -1      2320 2.06710E+01 1.10408E-01 5.94331E-04 5.45623E-01-1.19007E-13-1.40879E-13
 -1      2321 2.07738E+01 1.04905E-01 1.87234E-03 5.85233E-01-6.13474E-14-1.11344E-13
 -1      2322 2.05097E+01 1.46060E-01-1.36797E-03 5.90258E-01-1.34546E-13-1.88103E-13
 -1      2323 2.08516E+01 9.39735E-02 9.88238E-04 6.29664E-01-1.88647E-14-1.33875E-13
 -1      2324 2.09674E+01 7.63049E-02 8.59485E-04 6.60913E-01 5.46545E-14-1.38143E-13
 -1      2325 2.06504E+01 1.29497E-01-1.64372E-03 6.88520E-01-4.39266E-14-5.40808E-14
 -1      2326 2.10636E+01 5.16910E-02 1.59472E-03 6.93266E-01 7.23716E-14-1.95611E-13
 -1      2327 2.11890E+01 1.60764E-02-8.99942E-04 7.06024E-01 7.43311E-14-2.30931E-13
 -1      2328 2.08215E+01 8.19332E-02-2.04559E-03 7.71150E-01 3.30005E-14-1.94691E-13
 -1      2329 2.13079E+01-2.76179E-02 2.45938E-03 7.13766E-01 1.81042E-14-3.06279E-13
 -1      2330 2.14367E+01-8.70235E-02-3.57005E-03 6.94176E-01 1.02702E-14-2.58794E-13
 -1      2331 2.10294E+01-1.07091E-02-2.61592E-03 8.16817E-01-1.29097E-14-2.28474E-13
 -1      2332 2.15826E+01-1.54180E-01 3.54036E-03 6.60296E-01 1.54525E-14-1.93140E-13
 -1      2333 2.17045E+01-2.40505E-01-7.14560E-03 5.91610E-01 2.59341E-14-9.48505E-14
 -1      2334 2.12814E+01-1.62178E-01-3.31567E-03 7.95543E-01 3.10919E-14-1.83095E-13
 -1      2335 2.18796E+01-3.30812E-01 4.58379E-03 4.95631E-01 3.92856E-14-7.85425E-14
 -1      2336 2.19798E+01-4.39053E-01-1.12177E-02 3.61537E-01 4.66196E-14-3.97367E-14
 -1      2337 2.15831E+01-3.78724E-01-3.87104E-03 6.69007E-01 7.61303E-14-4.98576E-14
 -1      2338 2.21783E+01-5.41250E-01 4.91172E-03 1.83873E-01-2.40348E-14-3.89225E-14
 -1      2339 2.22368E+01-6.50275E-01-1.46779E-02-2.40097E-02 3.00142E-14-8.42526E-14
 -1      2340 2.19327E+01-6.45507E-01-3.60591E-03 3.95293E-01 2.02783E-14-7.90433E-14
 -1      2341 2.24364E+01-7.34378E-01 3.35580E-03-2.91913E-01 6.29145E-14-6.97806E-14
 -1      2342 2.24300E+01-7.98779E-01-1.51420E-02-5.61480E-01-3.69023E-14-1.55309E-14
 -1      2343 2.23081E+01-9.07420E-01-1.46944E-03-5.74033E-02 2.89089E-14-1.64902E-13
 -1      2344 2.25824E+01-8.11526E-01-1.22919E-03-8.97430E-01-7.79758E-14 1.09238E-13
 -1      2345 2.24912E+01-7.65371E-01-9.75628E-03-1.17966E+00-9.83272E-14 3.57908E-14
 -1      2346 2.26506E+01-1.05000E+00 3.96409E-03-6.82576E-01-8.34896E-14-6.30651E-14
 -1      2347 2.25270E+01-6.45393E-01-9.85335E-03-1.50517E+00-1.04043E-13 7.34960E-14
 -1      2348 2.23505E+01-4.35346E-01 1.83837E-03-1.70690E+00-5.45354E-14 1.17686E-13
 -1      2349 2.28547E+01-9.11286E-01 1.15482E-02-1.38604E+00-8.97717E-14 1.19112E-13
 -1      2350 2.22214E+01-1.58720E-01-1.85671E-02-1.88481E+00-8.25089E-14 2.21359E-14
 -1      2351 2.19922E+01 1.96573E-01 1.57445E-02-1.89349E+00-4.15523E-14 9.04788E-14
 -1      2352 2.28050E+01-3.75274E-01 1.37918E-02-1.94666E+00-1.15030E-13 1.21885E-13
 -1      2353 2.17349E+01 5.59299E-01-1.92836E-02-1.77670E+00-4.07107E-14-4.16832E-14
 -1      2354 2.15233E+01 9.14580E-01 2.09830E-02-1.52502E+00-1.25221E-14-9.30887E-14
 -1      2355 2.24730E+01 4.99518E-01 6.57003E-03-2.05176E+00-1.31759E-13-1.02769E-13
 -1      2356 2.12955E+01 1.18112E+00-7.77888E-03-1.09310E+00 8.66009E-14-2.44702E-13
 -1      2357 2.11724E+01 1.33786E+00 1.04368E-02-6.47417E-01 5.67818E-14-1.72554E-13
 -1      2358 2.20349E+01 1.35698E+00-8.38478E-03-1.49088E+00-2.91629E-14-2.32042E-13
 -1      2359 2.11356E+01 1.34193E+00 1.19123E-02-6.84120E-02 4.81386E-15-6.27498E-14
 -1      2360 2.11354E+01 1.19140E+00-8.09419E-03 3.80237E-01-1.21745E-13-4.93073E-15
 -1      2361 2.17852E+01 1.72445E+00-1.77729E-02-4.00716E-01 9.20002E-14-1.26803E-13
 -1      2362 2.12932E+01 9.28790E-01 2.26994E-02 8.20540E-01-1.43741E-13 2.03437E-13
 -1      2363 2.13840E+01 5.73136E-01-2.07698E-02 1.07825E+00-4.41444E-14 1.18482E-13
 -1      2364 2.18878E+01 1.36894E+00-1.01166E-02 6.98105E-01 3.38462E-14 2.66995E-13
 -1      2365 2.15787E+01 2.11566E-01 1.79892E-02 1.20321E+00-2.24495E-15 5.20322E-14
 -1      2366 2.16911E+01-1.43791E-01-1.94017E-02 1.20187E+00 9.86722E-14 8.51923E-15
 -1      2367 2.21926E+01 5.19375E-01 6.22910E-03 1.27975E+00-8.82380E-14 3.70273E-13
 -1      2368 2.17597E+01-4.16591E-01 3.45892E-03 1.03142E+00 2.82605E-13-1.03267E-13
 -1      2369 2.18248E+01-6.16846E-01-1.00933E-02 8.39959E-01 3.60391E-13-1.14313E-13
 -1      2370 2.23990E+01-3.50299E-01 1.39817E-02 1.19205E+00 1.37067E-13-5.08954E-14
 -1      2371 2.17222E+01-7.17685E-01-9.46040E-03 5.27993E-01 1.25347E-13-1.42166E-13
 -1      2372 2.17094E+01-7.33945E-01 2.03133E-04 2.70521E-01 5.57150E-14-2.32092E-13
 -1      2373 2.23212E+01-8.58244E-01 1.07014E-02 6.52087E-01 1.73525E-13-2.13871E-13
 -1      2374 2.14829E+01-6.81622E-01-1.54023E-02-2.99036E-02 2.12293E-13-1.28501E-13
 -1      2375 2.13972E+01-5.65349E-01 7.16693E-03-2.46023E-01 9.46829E-14-4.57932E-14
 -1      2376 2.19804E+01-9.18505E-01 3.42529E-03-1.41068E-03 1.26556E-13-1.56427E-13
 -1      2377 2.11195E+01-4.20149E-01-1.44095E-02-4.41711E-01-1.62853E-13-8.82486E-15
 -1      2378 2.09797E+01-2.49287E-01 6.75773E-03-5.52423E-01-1.04872E-13-2.15158E-14
 -1      2379 2.14958E+01-6.45281E-01-1.06785E-03-5.14348E-01 2.21368E-14-9.76890E-14
 -1      2380 1.96231E+01 7.24481E-02 2.05930E-03-6.56672E-02 7.53814E-14 3.71385E-14
 -1      2381 1.96506E+01 1.04184E-01 6.90461E-03-1.95706E-02 1.13131E-13 8.88383E-14
 -1      2382 1.95994E+01 3.06050E-02 1.33289E-03-1.31244E-01 5.24710E-14 2.05569E-14
 -1      2383 1.95964E+01 4.95168E-02 3.67960E-03-1.08785E-01 6.49028E-14 3.34578E-14
 -1      2384 1.97678E+01 8.96873E-02-3.17772E-03-7.09312E-02 8.46996E-14 9.33910E-15
 -1      2385 1.96112E+01 5.59924E-03 8.69426E-04-1.59609E-01 8.32168E-14-5.68295E-15
 -1      2386 1.95913E+01 1.68292E-02 1.81616E-03-1.51405E-01 6.61979E-14 1.32784E-14
 -1      2387 1.97335E+01 3.57261E-02-2.28581E-03-1.43168E-01 7.26177E-14-1.53657E-14
 -1      2388 1.96431E+01-8.93323E-03 5.54048E-04-1.65282E-01 6.16502E-14 1.14433E-14
 -1      2389 1.96149E+01-2.54573E-03 7.19264E-04-1.65591E-01 7.67437E-14 1.33382E-14
 -1      2390 1.97299E+01 3.66725E-03-1.51789E-03-1.74897E-01 8.07892E-14-3.14723E-14
 -1      2391 1.96849E+01-1.66851E-02 3.38667E-04-1.57656E-01 4.12835E-14 2.61979E-14
 -1      2392 1.96537E+01-1.34487E-02 6.90120E-05-1.62793E-01 5.77374E-14 2.08899E-14
 -1      2393 1.97451E+01-1.47144E-02-9.44952E-04-1.81644E-01 5.63050E-14-1.86759E-15
 -1      2394 1.97298E+01-1.99550E-02 2.00383E-04-1.42964E-01 1.16418E-13 1.63699E-14
 -1      2395 1.96988E+01-1.88008E-02-3.02693E-04-1.50494E-01 8.00921E-14 2.03502E-14
 -1      2396 1.97705E+01-2.42359E-02-5.47131E-04-1.73689E-01 9.20754E-14 8.27040E-15
 -1      2397 1.97739E+01-2.02364E-02 1.24046E-04-1.25387E-01 5.71005E-14 5.40890E-14
 -1      2398 1.97450E+01-2.04667E-02-4.93557E-04-1.33682E-01 1.08314E-13 4.83014E-14
 -1      2399 1.98005E+01-2.79079E-02-2.86405E-04-1.57944E-01 1.00246E-13 1.47885E-14
 -1      2400 1.98153E+01-1.85076E-02 9.89835E-05-1.07758E-01 6.88682E-14 5.80997E-14
 -1      2401 1.97892E+01-1.96686E-02-5.65797E-04-1.15716E-01 6.47799E-14 6.14308E-14
 -1      2402 1.98317E+01-2.76811E-02-1.28326E-04-1.39098E-01 4.15319E-14 6.21717E-14
 -1      2403 1.98533E+01-1.53905E-02 1.18348E-04-9.20217E-02-4.08745E-14 8.69825E-14
 -1      2404 1.98299E+01-1.71996E-02-5.60949E-04-9.88803E-02 2.88168E-14 8.24939E-14
 -1      2405 1.98621E+01-2.48238E-02-4.64063E-05-1.20359E-01 2.72885E-14 7.17988E-14
 -1      2406 1.98881E+01-1.12461E-02 1.78924E-04-7.95667E-02-6.38402E-14 8.03826E-14
 -1      2407 1.98671E+01-1.35472E-02-5.06970E-04-8.47713E-02-4.16330E-14 1.07788E-13
 -1      2408 1.98909E+01-2.01299E-02-2.15407E-05-1.03960E-01-3.98321E-14 7.23999E-14
 -1      2409 1.99208E+01-6.23630E-03 2.80868E-04-7.14696E-02 7.09115E-14-4.03763E-14
 -1      2410 1.99013E+01-8.97097E-03-4.22451E-04-7.45718E-02-2.06692E-14 3.18879E-14
 -1      2411 1.99184E+01-1.40452E-02-4.02372E-05-9.15309E-02 1.25177E-14 1.01666E-14
 -1      2412 1.99531E+01-3.65739E-04 4.27343E-04-6.86830E-02 2.03931E-13-9.37204E-14
 -1      2413 1.99339E+01-3.55343E-03-3.19439E-04-6.92630E-02 1.69425E-13-3.19531E-14
 -1      2414 1.99451E+01-6.74878E-03-9.34338E-05-8.43667E-02 1.23362E-13-5.73704E-14
 -1      2415 1.99870E+01 6.48860E-03 6.24169E-04-7.21839E-02 1.97822E-13-2.79801E-14
 -1      2416 1.99668E+01 2.76493E-03-2.05347E-04-6.97879E-02 2.17176E-13-2.46331E-14
 -1      2417 1.99723E+01 1.79101E-03-1.75352E-04-8.36417E-02 1.83134E-13 2.14095E-14
 -1      2418 2.00252E+01 1.45540E-02 8.79426E-04-8.30912E-02 1.50245E-14-1.09575E-14
 -1      2419 2.00023E+01 1.01590E-02-8.44241E-05-7.71813E-02 1.30288E-13 4.06360E-14
 -1      2420 2.00017E+01 1.17765E-02-2.82394E-04-9.05738E-02 6.65784E-14 1.59420E-13
 -1      2421 2.00709E+01 2.41421E-02 1.20289E-03-1.02758E-01-6.39721E-14 1.64397E-15
 -1      2422 2.00431E+01 1.88981E-02 4.10371E-05-9.26723E-02-4.19644E-14 1.20255E-14
 -1      2423 2.00353E+01 2.35483E-02-4.12176E-04-1.06553E-01-1.62986E-14 1.19941E-13
 -1      2424 2.01278E+01 3.56259E-02 1.60501E-03-1.32838E-01 8.67672E-14-8.46122E-15
 -1      2425 2.00928E+01 2.93251E-02 1.69671E-04-1.17762E-01 9.69767E-15-2.11832E-14
 -1      2426 2.00756E+01 3.75560E-02-5.62556E-04-1.33237E-01-2.58228E-14 1.06896E-13
 -1      2427 2.02001E+01 4.94058E-02 2.09509E-03-1.75322E-01 8.97981E-14-2.13471E-13
 -1      2428 2.01551E+01 4.18300E-02 3.00108E-04-1.54274E-01 1.07936E-13-1.12648E-13
 -1      2429 2.01253E+01 5.43212E-02-7.30649E-04-1.72615E-01 1.26283E-13 1.38139E-14
 -1      2430 2.02929E+01 6.58477E-02 2.67777E-03-2.32521E-01 1.17956E-13-1.69233E-13
 -1      2431 2.02345E+01 5.68050E-02 4.30120E-04-2.04366E-01 1.33632E-13-1.58925E-13
 -1      2432 2.01878E+01 7.43803E-02-9.11873E-04-2.27025E-01 9.00212E-14-1.14176E-13
 -1      2433 2.04115E+01 8.51643E-02 3.34686E-03-3.06961E-01-2.48132E-14-2.11481E-13
 -1      2434 2.03362E+01 7.45602E-02 5.55932E-04-2.70472E-01 6.17727E-14-1.80276E-13
 -1      2435 2.02665E+01 9.81775E-02-1.09933E-03-2.99105E-01 8.71475E-14-8.22272E-14
 -1      2436 2.05622E+01 1.07191E-01 4.07439E-03-4.01122E-01-1.49965E-13-2.29061E-13
 -1      2437 2.04657E+01 9.51633E-02 6.71993E-04-3.55133E-01-1.35663E-13-1.89837E-13
 -1      2438 2.03653E+01 1.25865E-01-1.28414E-03-3.91622E-01-5.86666E-14-7.14366E-14
 -1      2439 2.07512E+01 1.30967E-01 4.79273E-03-5.16894E-01-1.26167E-13-3.17747E-13
 -1      2440 2.06294E+01 1.18136E-01 7.71904E-04-4.60607E-01-1.08448E-13-3.14688E-13
 -1      2441 2.04883E+01 1.56925E-01-1.45813E-03-5.07110E-01-7.12683E-14-2.55005E-13
 -1      2442 2.09846E+01 1.54001E-01 5.36695E-03-6.54533E-01-3.00023E-14-2.15962E-13
 -1      2443 2.08334E+01 1.41906E-01 8.52029E-04-5.88123E-01-1.19661E-13-3.20583E-13
 -1      2444 2.06396E+01 1.89493E-01-1.62140E-03-6.47166E-01-9.17059E-14-2.79028E-13
 -1      2445 2.12679E+01 1.71020E-01 5.55684E-03-8.10826E-01 4.12307E-14-2.04759E-13
 -1      2446 2.10843E+01 1.62847E-01 9.20672E-04-7.36498E-01 1.42675E-14-2.42200E-13
 -1      2447 2.08236E+01 2.19171E-01-1.79870E-03-8.11184E-01-1.74124E-14-3.65165E-13
 -1      2448 2.16054E+01 1.72071E-01 4.97331E-03-9.76000E-01 1.59052E-14-1.92475E-13
 -1      2449 2.13881E+01 1.73738E-01 1.01741E-03-8.99759E-01 4.05817E-14-1.63602E-13
 -1      2450 2.10451E+01 2.37112E-01-2.06952E-03-9.94217E-01 1.01167E-14-3.64187E-13
 -1      2451 2.19990E+01 1.40035E-01 3.04809E-03-1.12895E+00 1.01410E-14-8.09797E-14
 -1      2452 2.17504E+01 1.61531E-01 1.24469E-03-1.06327E+00 4.65842E-14-1.18376E-13
 -1      2453 2.13102E+01 2.27219E-01-2.61287E-03-1.18353E+00-1.97565E-14-3.14378E-13
 -1      2454 2.24480E+01 4.86175E-02-9.33969E-04-1.23072E+00-1.18088E-13-2.13349E-13
 -1      2455 2.21763E+01 1.04856E-01 1.80026E-03-1.19794E+00-3.99860E-14-1.05034E-13
 -1      2456 2.16285E+01 1.62869E-01-3.75012E-03-1.35343E+00 1.34813E-14-2.27232E-13
 -1      2457 2.29483E+01-1.35762E-01-7.62525E-03-1.21755E+00-6.10874E-14-2.75779E-13
 -1      2458 2.26701E+01-2.68068E-02 2.95958E-03-1.25281E+00-1.57368E-13-1.89188E-13
 -1      2459 2.20165E+01 5.26768E-03-5.91325E-03-1.45820E+00-7.52351E-14-2.82435E-13
 -1      2460 2.34889E+01-4.40232E-01-1.70025E-02-9.98693E-01-1.87510E-13-7.02507E-14
 -1      2461 2.32330E+01-2.66935E-01 4.88203E-03-1.14846E+00-8.80537E-14-1.78126E-13
 -1      2462 2.25010E+01-2.90543E-01-9.34390E-03-1.42442E+00-1.81747E-13-5.45014E-14
 -1      2463 2.40414E+01-8.47260E-01-2.67320E-02-4.70981E-01 2.19781E-14 2.06567E-14
 -1      2464 2.38519E+01-6.28431E-01 7.04725E-03-7.79796E-01-1.53576E-13-6.66494E-14
 -1      2465 2.31145E+01-7.49362E-01-1.31899E-02-1.14769E+00-1.82137E-13 8.31105E-14
 -1      2466 2.45338E+01-1.22197E+00-3.08273E-02 4.26975E-01 7.12295E-14 2.98800E-13
 -1      2467 2.44727E+01-1.04802E+00 8.11644E-03-4.58932E-02 9.05300E-14 1.20300E-13
 -1      2468 2.38730E+01-1.31420E+00-1.36247E-02-5.07563E-01-2.12434E-14 1.90102E-13
 -1      2469 2.48214E+01-1.25707E+00-2.21609E-02 1.58621E+00 8.28287E-14 3.91793E-13
 -1      2470 2.49418E+01-1.30747E+00-1.65084E-03 1.04800E+00 7.91468E-14 4.03146E-13
 -1      2471 2.47043E+01-1.72627E+00-3.39514E-03 5.68411E-01 2.28454E-14 3.74447E-13
 -1      2472 2.47204E+01-5.97816E-01-1.82789E-04 2.58864E+00-5.81440E-14 4.08585E-13
 -1      2473 2.50353E+01-1.05081E+00-2.51538E-02 2.22322E+00 3.85369E-14 4.30163E-13
 -1      2474 2.53646E+01-1.56263E+00-3.12703E-04 1.90931E+00-2.13332E-14 3.26538E-13
 -1      2475 2.41254E+01 7.88936E-01 8.94419E-03 2.68986E+00-3.70187E-13 3.68373E-13
 -1      2476 2.45459E+01 4.06259E-02-5.46735E-02 2.84718E+00-1.66395E-13 4.57437E-13
 -1      2477 2.55215E+01-4.11253E-01-7.60681E-03 2.95676E+00-1.19070E-13 2.20655E-13
 -1      2478 2.34432E+01 2.02585E+00-1.25259E-02 1.43875E+00-3.97481E-13 3.86352E-13
 -1      2479 2.37504E+01 1.50691E+00-6.11028E-02 2.16880E+00-4.03400E-13 4.23953E-13
 -1      2480 2.50643E+01 1.55680E+00-4.04360E-02 2.76749E+00-3.66651E-13 3.14276E-13
 -1      2481 2.32682E+01 2.02861E+00-5.13811E-02-5.53560E-01-7.07351E-14 2.51257E-13
 -1      2482 2.32873E+01 2.22358E+00-2.80616E-02 3.28184E-01-2.93716E-13 3.67087E-13
 -1      2483 2.45525E+01 2.85974E+00-7.65799E-02 1.02529E+00-3.43350E-13 1.45601E-13
 -1      2484 2.36964E+01 7.93551E-01-6.52247E-02-1.91196E+00 2.00912E-13 3.18757E-13
 -1      2485 2.34878E+01 1.50897E+00 6.87368E-03-1.45044E+00 2.04191E-13 2.50358E-13
 -1      2486 2.46002E+01 2.38227E+00-6.32078E-02-1.15436E+00 6.34701E-14 2.17968E-14
 -1      2487 2.41378E+01-5.94949E-01-4.27974E-02-1.89704E+00 2.24614E-13 1.83961E-13
 -1      2488 2.39151E+01 4.16473E-02 5.17392E-03-2.03258E+00 1.65860E-13 2.61674E-13
 -1      2489 2.49777E+01 5.83859E-01-1.85819E-02-2.17993E+00 2.58783E-13-2.94799E-14
 -1      2490 2.40740E+01-1.26482E+00-9.85906E-03-9.05810E-01 2.96311E-13 4.72370E-14
 -1      2491 2.40140E+01-1.03503E+00-1.20118E-02-1.38638E+00 2.80934E-13 1.78240E-13
 -1      2492 2.49731E+01-1.09263E+00 4.70301E-03-1.65551E+00 3.32505E-13-1.86790E-13
 -1      2493 2.35111E+01-1.19875E+00 6.86871E-03 2.76573E-01 4.77712E-13-1.64562E-13
 -1      2494 2.36461E+01-1.30199E+00-2.55055E-02-2.32278E-01 3.86803E-13 8.96470E-14
 -1      2495 2.43390E+01-1.74601E+00 3.06149E-03-3.58391E-01 3.70205E-13-2.52623E-13
 -1      2496 2.27052E+01-7.56860E-01 1.18410E-02 1.15271E+00 2.58515E-13 2.35428E-14
 -1      2497 2.29853E+01-1.00482E+00-2.61975E-02 7.98747E-01 3.22875E-13-1.49932E-14
 -1      2498 2.33695E+01-1.51454E+00-9.86356E-03 8.67349E-01 3.92896E-13-1.75932E-13
 -1      2499 2.18720E+01-2.23560E-01 1.47727E-02 1.56310E+00 1.35577E-14 2.07584E-13
 -1      2500 2.22172E+01-4.96332E-01-1.93580E-02 1.42077E+00 1.27650E-13 1.76498E-13
 -1      2501 2.23866E+01-8.65302E-01-1.28693E-02 1.64222E+00 1.13236E-13 2.31256E-14
 -1      2502 2.11076E+01 2.71243E-01 1.28910E-02 1.51908E+00-3.13486E-15 3.64457E-13
 -1      2503 2.14594E+01 2.86611E-02-1.04704E-02 1.58298E+00 4.62115E-14 3.77702E-13
 -1      2504 2.15433E+01-1.35499E-01-8.92653E-03 1.90664E+00-5.52972E-14 3.34751E-13
 -1      2505 2.07722E+01 4.94952E-01-5.84486E-04 1.31551E+00-5.20766E-14 2.80012E-13
 -1      2506 1.90007E+01 2.69616E+00-3.08502E-02 2.04744E+00 9.57669E-14-1.39218E-13
 -1      2507 1.93650E+01 2.37927E+00 1.36273E-02 2.33626E+00 2.70339E-14-5.21111E-13
 -1      2508 1.84548E+01 3.23847E+00-2.80807E-02 1.05247E+00 1.96022E-13 3.52140E-13
 -1      2509 1.86952E+01 3.05164E+00 3.61013E-03 1.56413E+00 9.32867E-14 1.12502E-13
 -1      2510 1.84966E+01 2.32049E+00 1.23459E-02 2.08101E+00 1.94254E-13-6.75365E-14
 -1      2511 2.03176E+01 1.31088E+00-6.58705E-03 2.41988E+00-1.25729E-13-4.43648E-13
 -1      2512 2.05541E+01 9.67836E-01 1.13548E-02 2.27147E+00-3.51703E-14-6.62644E-13
 -1      2513 1.97091E+01 1.98252E+00-2.04055E-02 2.49410E+00-1.46031E-13-6.15886E-13
 -1      2514 2.00429E+01 1.62733E+00 1.55749E-02 2.53584E+00-8.57129E-14-4.42538E-13
 -1      2515 2.02524E+01 9.44654E-01-3.43005E-03 2.77197E+00 2.46005E-16-5.37112E-13
 -1      2516 1.94024E+01 1.61007E+00 1.91185E-03 2.74594E+00 1.39083E-13-4.25540E-13
 -1      2517 1.83391E+01 3.38228E+00-1.29761E-02-2.53583E-01-1.00450E-13 1.57437E-13
 -1      2518 1.83337E+01 3.37891E+00-1.39677E-02 3.47851E-01-6.23926E-15 2.05386E-13
 -1      2519 1.79199E+01 2.79511E+00 2.78816E-02 8.07835E-01 5.85394E-14 1.18178E-13
 -1      2520 1.87186E+01 3.04605E+00 4.72728E-03-1.46165E+00-2.66542E-13 3.17764E-13
 -1      2521 1.84692E+01 3.22587E+00-2.90188E-02-9.55287E-01-2.97817E-13 2.86865E-13
 -1      2522 1.79321E+01 2.78113E+00 2.80581E-02-7.16255E-01-1.41444E-13-6.26062E-15
 -1      2523 1.93977E+01 2.36349E+00 1.51848E-02-2.21621E+00-4.63089E-14 4.20279E-13
 -1      2524 1.90308E+01 2.67200E+00-3.13108E-02-1.93761E+00-1.98493E-13 5.64685E-13
 -1      2525 1.85313E+01 2.27652E+00 1.37880E-02-1.98129E+00-2.89658E-14 3.98682E-13
 -1      2526 2.00665E+01 1.59651E+00 1.61682E-02-2.39746E+00 9.96924E-14-3.17389E-14
 -1      2527 1.97401E+01 1.94515E+00-2.11036E-02-2.36783E+00 8.59798E-14 4.83261E-14
 -1      2528 1.94223E+01 1.52686E+00-2.28859E-03-2.63407E+00 1.90260E-13 1.58496E-13
 -1      2529 2.05308E+01 9.29375E-01 1.18602E-02-2.12445E+00 2.51554E-13 3.36432E-13
 -1      2530 2.03276E+01 1.25840E+00-5.95871E-03-2.27921E+00 3.70162E-14 6.45480E-15
 -1      2531 2.02403E+01 8.16850E-01-1.14322E-02-2.64390E+00 8.53232E-14 2.88392E-14
 -1      2532 2.07154E+01 4.67551E-01 4.94875E-03-1.61241E+00 9.63849E-14 9.74368E-14
 -1      2533 2.06501E+01 7.28453E-01 5.31282E-03-1.85085E+00 2.12326E-13 3.23207E-13
 -1      2534 2.07634E+01 3.13112E-01-1.10135E-02-2.20821E+00 1.86975E-13 1.86514E-13
 -1      2535 2.06874E+01 2.13349E-01 4.18085E-03-1.06197E+00 6.42569E-15 2.39930E-14
 -1      2536 2.07202E+01 3.90199E-01 1.29936E-02-1.30009E+00 3.18032E-14 3.67414E-15
 -1      2537 2.09557E+01 5.88778E-02 1.87729E-03-1.58790E+00 1.26741E-13-1.49469E-14
 -1      2538 5.30382E+00-3.25695E+00 1.07012E-01 3.56124E+00-3.51386E-14-3.62266E-13
 -1      2539 4.00002E+00-2.97079E+00 1.24537E-01 7.79353E-01-2.62885E-13 4.67626E-13
 -1      2540 3.90650E+00-3.32205E+00 7.02078E-02-1.96475E+00 6.46705E-14 7.36078E-13
 -1      2541 5.40767E+00-3.81579E+00 6.50704E-02-4.42318E+00 3.90327E-13 1.31745E-12
 -1      2542 1.97043E+01 1.43233E-01 3.25367E-03 6.03165E-02 1.42942E-13 9.51174E-14
 -1      2543 1.97830E+01 1.98083E-01 1.23771E-02 1.46490E-01 1.68881E-13 1.31504E-13
 -1      2544 1.98488E+01 1.80805E-01-3.86910E-03 6.58367E-02 1.50127E-13 4.96807E-14
 -1      2545 2.04190E+01 2.15079E-01-5.82870E-03-6.18149E-01 2.25961E-13-7.82759E-14
 -1      2546 1.97790E+01-6.22926E+00 2.47901E-03 7.13191E+00 6.26332E-13-3.72771E-13
 -1      2547 1.65238E+01-6.14009E+00 9.17799E-02 7.19114E+00 7.21978E-13-8.26755E-13
 -1      2548 2.05473E+01 1.95488E+00-1.39132E-02-1.89808E+00-2.89080E-13-2.08975E-13
 -1      2549 2.04137E+01 1.21512E+00-6.12808E-03-1.28667E+00-2.58720E-13-1.72796E-13
 -1      2550 2.03790E+01 1.37452E+00 5.50650E-03-1.23504E+00-2.30423E-13-2.30364E-13
 -1      2551 2.02885E+01 2.38485E+00-5.30020E-03-1.84333E+00-2.75138E-13-2.80121E-13
 -1      2552 3.14936E+01-1.51770E+00-1.25674E-01 1.36183E+00-5.93388E-14-3.61267E-13
 -1      2553 2.91106E+01-3.50077E+00-2.02241E-02 2.75546E+00 1.04181E-13-2.74725E-13
 -1      2554 3.31624E+01 7.47915E+00-1.40387E-01-7.45557E-01-1.40332E-13 5.28570E-13
 -1      2555 3.28235E+01 6.56705E+00-1.20228E-01-1.17181E+00-4.20775E-14 4.26270E-13
 -1      2556 5.32066E+00-3.52613E+00 5.97082E-02 4.51637E+00-9.05387E-14 4.00291E-13
 -1      2557 3.38534E+00-3.65288E+00 8.26239E-02 2.36846E+00-1.60982E-13 4.27436E-13
 -1      2558 1.95192E+01 3.58466E+00-1.00876E-02-2.45369E-01 5.01861E-14-4.23541E-13
 -1      2559 1.95352E+01 3.56401E+00-9.64613E-03-4.26136E-01 1.34257E-14-4.37625E-13
 -1      2560 1.97116E+01 3.16337E+00-5.54139E-04-4.73552E-01 5.32343E-17-4.10300E-13
 -1      2561 1.96773E+01 3.22324E+00-9.14397E-04-1.52082E-01 6.15044E-14-3.98015E-13
 -1      2562 3.47568E+01 7.35597E+00-7.05574E-02 9.69171E-01-6.19504E-14-6.37851E-13
 -1      2563 3.47232E+01 7.59390E+00-8.42872E-02 4.91035E-01-1.30340E-13-6.26117E-13
 -1      2564 3.42808E+01 6.83047E+00-9.42966E-02-2.35406E-01-1.53044E-13-5.80480E-13
 -1      2565 3.35817E+01 5.63856E+00-1.06878E-01-6.74481E-01-1.02252E-13-4.98740E-13
 -1      2566 3.31369E+01 4.64089E+00-1.24882E-01 1.77623E+00 7.40519E-14-6.24251E-13
 -1      2567 3.44356E+01 6.28806E+00-4.33957E-02 1.41977E+00 3.67484E-14-6.56863E-13
 -1      2568 2.70426E+01-4.79010E+00-4.64906E-02-2.71810E+00-1.96065E-13-1.30396E-13
 -1      2569 2.91264E+01-3.52364E+00-1.28884E-01-1.47992E+00-1.37446E-13-2.03088E-13
 -1      2570 2.66212E+01-4.50214E+00-9.02823E-02 3.39319E+00-8.06022E-14 1.23096E-13
 -1      2571 2.37202E+01-5.47603E+00 1.79223E-02 4.69357E+00-9.46465E-15-1.02876E-13
 -1      2572 2.11973E+01-6.16086E+00 5.27749E-02-5.22348E+00-4.37150E-13-4.84029E-13
 -1      2573 2.45909E+01-5.65468E+00-4.81150E-02-4.39719E+00-3.57714E-13-2.63831E-13
 -1      2574 2.61646E+01-5.53343E+00 2.74040E-02-2.81534E+00-2.94723E-13-2.34007E-13
 -1      2575 4.76863E+00-3.92853E+00 7.85997E-02-3.53167E+00-3.11043E-13 2.21489E-14
 -1      2576 7.45762E+00-4.15153E+00 6.73126E-02-5.24805E+00-1.86101E-13-5.83145E-14
 -1      2577 2.78779E+00-3.42713E+00 6.48586E-02 5.61858E-01-1.71214E-13 2.25875E-13
 -1      2578 3.37783E+00-3.24640E+00 9.37180E-02-1.70001E+00-2.58696E-13 7.53841E-14
 -1      2579 5.09802E+00-1.97645E+00 1.65544E-01 1.39272E+00-6.71234E-14 3.77698E-13
 -1      2580 1.17485E+01-4.97581E+00 3.23827E-02 7.04016E+00-1.85768E-13 7.68552E-14
 -1      2581 9.01086E+00-4.28378E+00 1.42070E-01 6.10303E+00-1.16573E-13 1.80272E-13
 -1      2582 2.00691E+01-5.78360E+00-2.27749E-02 6.43692E+00-1.09635E-14-3.58085E-13
 -1      2583 1.55581E+01-5.72498E+00 6.01419E-02 6.81576E+00-9.35363E-14-1.84470E-13
 -1      2584 1.57569E+01-4.90369E+00 1.35382E-01 6.59778E+00-2.93932E-14-8.25173E-14
 -1      2585 3.29340E+01 4.85923E+00-1.52227E-01-1.18424E+00-1.34392E-13 3.72841E-13
 -1      2586 3.25476E+01 3.34661E+00-5.62329E-02-1.04372E+00-1.32755E-13 3.16636E-13
 -1      2587 2.52074E+01-5.28764E+00 5.25326E-02-5.05908E+00 1.42386E-14 4.59105E-13
 -1      2588 2.81718E+01-4.07772E+00-1.37046E-01-3.74114E+00-2.76792E-13 2.98928E-14
 -1      2589 3.24652E+01 3.22467E+00-7.16094E-02 6.35480E-01-3.18578E-13-7.66887E-14
 -1      2590 3.26267E+01 4.82206E+00-1.66982E-01 7.08957E-01-2.69590E-13-9.64229E-14
 -1      2591 3.05127E+01-1.62829E+00 2.22301E-03-1.49068E+00-3.36686E-13-2.21823E-13
 -1      2592 3.21547E+01 7.46588E-01-1.31613E-01-4.26060E-01-4.16472E-13-1.61537E-13
 -1      2593 3.09158E+01 1.26651E+00-4.84099E-02 8.50100E-01-1.05194E-13-5.37959E-13
 -1      2594 1.67639E+01-6.28272E+00 5.22306E-02-7.24835E+00 3.79585E-13 9.27397E-13
 -1      2595 2.11675E+01-6.03726E+00-7.12361E-02-6.91496E+00 2.17437E-13 8.47281E-13
 -1      2596 8.23755E+00-5.01906E+00 6.31139E-02-6.18730E+00 7.77323E-13 1.62712E-12
 -1      2597 1.21019E+01-5.75723E+00-2.76665E-02-7.55279E+00 5.32463E-13 1.20998E-12
 -1      2598 2.04905E+01 8.74900E-01-7.31538E-03 1.22687E+00 3.20053E-13 2.64398E-13
 -1      2599 2.08411E+01 1.25692E+00-6.05132E-03 1.72756E+00 3.41786E-13 3.07235E-13
 -1      2600 2.06469E+01 1.71561E+00-1.57900E-02 1.92172E+00 3.74918E-13 1.87985E-13
 -1      2601 2.04491E+01 1.05794E+00-9.39178E-03 1.24167E+00 3.23693E-13 1.24220E-13
 -1      2602 2.64214E+01-5.10711E+00-5.97563E-02 4.84297E+00 3.29320E-13-2.82802E-13
 -1      2603 2.28006E+01-6.08534E+00-1.35632E-02 5.85267E+00 4.16667E-13-2.58515E-13
 -1      2604 2.27549E+01-6.21404E+00 5.11200E-02 5.85011E+00 6.09929E-13-2.18249E-13
 -1      2605 3.20553E+01 6.86590E+00-4.89453E-02-1.81492E-01-7.00551E-14-5.96245E-13
 -1      2606 1.99146E+01 2.81707E+00 3.45743E-03-1.10052E+00-1.15871E-13-4.16448E-13
 -1      2607 1.97806E+01 3.16021E+00-1.50115E-02-1.28550E+00-1.36041E-13-4.35231E-13
 -1      2608 1.98750E+01 3.03576E+00-1.82917E-02-1.48181E+00-1.89479E-13-4.12828E-13
 -1      2609 1.99946E+01 3.40087E-01-3.56922E-03 3.04922E-01 2.11119E-13 8.00150E-14
 -1      2610 2.04225E+01 2.11574E+00-1.27804E-02 1.87474E+00 3.75849E-13 3.95482E-14
 -1      2611 2.80682E+01-4.81306E+00 3.73639E-02 2.90707E+00 3.50303E-13-2.55018E-13
 -1      2612 8.84609E+00-3.45885E+00 1.64888E-01-5.40412E+00 3.98653E-13 1.39030E-12
 -1      2613 3.09950E+01-8.49238E-01-4.10598E-03-4.07226E-01-1.31353E-14-3.36148E-13
 -1      2614 2.92355E+01-3.30689E+00 1.08136E-02-1.87973E+00-1.99570E-13-3.62183E-13
 -1      2615 1.53881E+01-5.39682E+00 1.33980E-01 7.21561E+00 7.20812E-13-9.07635E-13
 -1      2616 2.38977E+01-5.90642E+00 7.28894E-02-5.57100E+00 3.01620E-13 4.59369E-13
 -1      2617 2.08477E+01 5.13192E-01 2.32537E-04 1.70333E+00-8.25158E-14 1.17190E-13
 -1      2618 6.09346E+00-1.86235E+00 1.92102E-01-5.33884E-01-1.99653E-13 4.10505E-13
 -1      2619 2.07793E+01 6.98080E-01-6.93914E-04 1.92807E+00-5.83501E-15-7.69801E-14
 -1      2620 2.09106E+01 4.12113E-01-5.65331E-03 2.28076E+00-1.20636E-13-2.66563E-13
 -1      2621 7.54166E+00-3.26063E+00 1.52760E-01 4.71261E+00 2.31482E-14-8.89011E-13
 -1      2622 8.14726E+00-1.62760E+00 1.63031E-01 3.56380E+00-4.62241E-13-3.05950E-13
 -1      2623 9.95868E+00-3.26272E+00 2.51927E-02 5.74413E+00 7.40380E-14-1.01930E-12
 -1      2624 2.26253E+01-5.62186E+00 9.06558E-02 5.02474E+00-1.49603E-14-1.41248E-13
 -1      2625 2.04365E+01 1.80801E+00 1.25475E-02 1.56250E+00 3.38523E-13 6.38465E-15
 -1      2626 2.01145E+01 2.62143E+00-1.13399E-02-1.67953E+00-2.32866E-13-3.38216E-13
 -1      2627 1.96548E+01-6.00020E+00 6.97046E-02-5.72875E+00-3.16580E-13-3.86927E-13
 -1      2628 3.12171E+01 7.31778E+00-1.16226E-01-5.65144E-01-7.16094E-14 2.28213E-13
 -1      2629 3.09126E+01 5.40722E+00-7.63688E-02-1.80788E+00-6.64191E-14 4.27769E-13
 -1      2630 2.81117E+01-3.70656E+00-1.50377E-02 1.90212E+00-1.58651E-13 1.83797E-13
 -1      2631 2.68015E+01-4.56393E+00 4.36091E-02 2.13654E+00 2.79013E-14 3.23797E-13
 -1      2632 2.87424E+01-2.84110E+00-2.02886E-01 3.94059E-01-1.09775E-13 1.62120E-13
 -1      2633 9.93076E+00-3.12411E+00 1.71574E-01-5.22269E+00-1.19946E-13-3.51885E-13
 -1      2634 1.05785E+01-4.34213E+00 1.43882E-01-5.92303E+00-8.35998E-14-3.22020E-13
 -1      2635 1.36271E+01-4.53764E+00 3.53102E-02-6.00423E+00-1.04472E-13-2.00479E-13
 -1      2636 3.23282E+01 2.78423E+00-9.94330E-02 2.20329E+00-1.58762E-14-6.13204E-13
 -1      2637 3.06317E+01 3.58179E+00-1.58491E-01 2.79580E+00-8.12406E-14-7.40047E-13
 -1      2638 3.08630E+01 1.20730E+00-2.21383E-02 2.43083E+00-1.16962E-13-5.60690E-13
 -1      2639 8.65202E+00-3.04342E+00 1.48861E-01 5.21139E+00-9.86988E-14 2.49578E-13
 -1      2640 3.10871E+01 1.29754E+00-5.93460E-02-9.85791E-01-1.62453E-13 2.09083E-13
 -1      2641 3.01110E+01-2.47563E+00-1.89887E-03 7.16152E-02-1.41538E-13-3.01703E-13
 -1      2642 2.99478E+01-1.71277E+00-2.35671E-01 1.59869E+00-9.03166E-14-3.72091E-13
 -1      2643 2.87282E+01-3.57009E+00 2.77047E-02-4.94569E-02-1.97937E-13-3.06644E-13
 -1      2644 3.14831E+01 4.02921E+00-2.97204E-02-1.57991E+00-7.03049E-14-3.95045E-13
 -1      2645 3.20082E+01 6.60508E+00-3.81817E-02 1.69351E+00 3.95239E-14-7.24198E-13
 -1      2646 5.80748E+00-2.35274E+00 1.66137E-01-2.52755E+00-1.64133E-13 3.40838E-14
 -1      2647 3.12633E+01 5.50933E+00-1.27591E-01 1.13588E+00-2.04142E-13-2.86715E-13
 -1      2648 2.06453E+01 1.18373E-02 6.90729E-03-5.99345E-01 1.51313E-13 2.30085E-14
 -1      2649 2.06724E+01 1.48059E-01 8.52515E-03-8.36412E-01 5.45244E-14 2.80060E-14
 -1      2650 2.09002E+01-9.17549E-02-1.08253E-02-1.02884E+00-9.52439E-14 1.11470E-13
 -1      2651 2.07800E+01-1.38590E-01-1.31693E-02-5.98968E-01 1.47639E-14-2.49952E-14
 -1      2652 1.60958E+01-5.59915E+00 1.19714E-01-7.31917E+00 5.95413E-13 1.05459E-12
 -1      2653 2.10640E+01-2.68205E-01 4.38731E-03-7.46568E-01-9.30093E-14 5.34800E-14
 -1      2654 1.98451E+01 2.76466E+00-6.31743E-03 5.16486E-01 1.88968E-13-3.31416E-13
 -1      2655 1.98204E+01 2.81437E+00-5.70019E-03 3.65547E-01 1.57242E-13-3.49330E-13
 -1      2656 1.98035E+01 2.85192E+00-5.60533E-03 2.29911E-01 1.28567E-13-3.62626E-13
 -1      2657 1.97950E+01 2.86881E+00-5.43304E-03 7.52305E-02 9.74815E-14-3.57461E-13
 -1      2658 1.99501E+01 2.50059E+00 3.67644E-03 2.65327E-01 1.34255E-13-3.38795E-13
 -1      2659 2.00439E+01 2.32369E+00-1.07195E-02 1.04631E+00 2.73837E-13-2.25966E-13
 -1      2660 1.99796E+01 2.47260E+00-6.33625E-03 9.10657E-01 2.59881E-13-2.57372E-13
 -1      2661 2.02168E+01 1.90848E+00-1.19287E-02 1.22767E+00 2.97173E-13-1.38810E-13
 -1      2662 2.01244E+01 2.14613E+00-4.82771E-03 1.13440E+00 2.80709E-13-1.75325E-13
 -1      2663 2.01896E+01 1.88636E+00 6.45157E-03 9.26976E-01 2.51799E-13-1.84378E-13
 -1      2664 2.02127E+01 7.26637E-01-3.49307E-03 6.43162E-01 2.45118E-13 1.53927E-14
 -1      2665 2.03547E+01 9.51527E-01 9.17742E-03 9.06814E-01 2.58777E-13 1.76377E-14
 -1      2666 2.01887E+01 2.27579E+00 3.71210E-03-1.42738E+00-2.12960E-13-3.24996E-13
 -1      2667 2.03379E+01 1.50018E+00-1.90481E-03 1.26727E+00 3.05430E-13-1.56810E-14
 -1      2668 2.00695E+01 4.15438E-01-1.61758E-03 2.88292E-01 1.85264E-13 3.90799E-14
 -1      2669 2.01710E+01 5.53858E-01 1.04810E-02 4.51154E-01 2.14323E-13 3.27278E-14
 -1      2670 2.02538E+01 8.21742E-01 8.63487E-04 6.17834E-01 2.24967E-13-3.89992E-14
 -1      2671 2.78491E+01-4.37589E+00 7.79710E-02-2.18380E+00-7.16458E-14-5.33351E-13
 -1      2672 2.90165E+01-2.75205E+00-1.79322E-01-5.00286E-01-1.38306E-13-6.54254E-13
 -1      2673 2.25026E+01-5.86899E+00 1.34308E-01-5.84517E+00 5.55181E-13 5.26738E-13
 -1      2674 2.53251E+01-5.82528E+00-1.36588E-01-4.48806E+00 2.36811E-13-9.88098E-14
 -1      2675 2.02260E+01 6.23560E-01 1.13299E-02-4.34556E-01-1.50681E-13-1.90313E-13
 -1      2676 2.01321E+01 4.71873E-01-4.35078E-03-2.78912E-01-1.28438E-13-1.84034E-13
 -1      2677 2.01058E+01 3.62543E-01 6.69443E-03-1.58867E-01-1.40083E-13-1.65790E-13
 -1      2678 2.00466E+01 2.67460E-01-1.81173E-03-6.14742E-02-1.33026E-13-1.78095E-13
 -1      2679 2.01957E+01 5.28792E-01-1.45726E-03-2.62835E-01-1.36944E-13-1.98421E-13
 -1      2680 2.00206E+01 1.97280E-01 4.51947E-03 1.36907E-02-1.10468E-13-1.63255E-13
 -1      2681 1.99848E+01 1.37792E-01-8.32116E-04 7.02356E-02-1.05441E-13-1.50562E-13
 -1      2682 2.01263E+01 2.98330E-01-2.07006E-03-5.60567E-02-1.25303E-13-1.92023E-13
 -1      2683 1.99638E+01 9.37284E-02 2.90090E-03 1.13563E-01-1.03654E-13-1.42289E-13
 -1      2684 1.99457E+01 5.65507E-02-2.88689E-04 1.43003E-01-1.14101E-13-1.66153E-13
 -1      2685 2.00697E+01 1.52313E-01-1.89676E-03 7.10689E-02-1.15292E-13-1.88143E-13
 -1      2686 1.99307E+01 2.92175E-02 1.73520E-03 1.64518E-01-1.00230E-13-1.44169E-13
 -1      2687 1.99248E+01 6.62752E-03 1.38454E-05 1.76490E-01-4.66278E-14-1.47445E-13
 -1      2688 2.00287E+01 6.02093E-02-1.52642E-03 1.42089E-01-9.59543E-14-1.78140E-13
 -1      2689 1.99151E+01-9.64857E-03 9.28434E-04 1.83713E-01-2.28035E-14-1.35527E-13
 -1      2690 1.99170E+01-2.24894E-02 1.79234E-04 1.84839E-01-2.80359E-14-1.39311E-13
 -1      2691 2.00014E+01 3.63109E-03-1.14859E-03 1.75054E-01-2.43305E-14-1.48707E-13
 -1      2692 1.99113E+01-3.13150E-02 3.86900E-04 1.83233E-01-2.88139E-14-1.18262E-13
 -1      2693 1.99179E+01-3.75665E-02 2.68586E-04 1.78085E-01-3.72438E-14-7.19451E-14
 -1      2694 1.99850E+01-2.90964E-02-8.31721E-04 1.83447E-01-3.32035E-14-8.43257E-14
 -1      2695 1.99151E+01-4.13292E-02 3.65037E-05 1.71549E-01-3.89811E-14-8.15302E-14
 -1      2696 1.99242E+01-4.31093E-02 3.18352E-04 1.63290E-01-6.19339E-15-9.33488E-14
 -1      2697 1.99765E+01-4.56309E-02-5.87871E-04 1.77052E-01-2.60123E-14-7.97204E-14
 -1      2698 1.99236E+01-4.34165E-02-1.79930E-04 1.54578E-01-2.11639E-14-7.29279E-14
 -1      2699 1.99339E+01-4.21469E-02 3.51104E-04 1.45400E-01-3.33944E-15-1.08695E-13
 -1      2700 1.99736E+01-5.11220E-02-4.10365E-04 1.62857E-01-2.22411E-14-1.08224E-13
 -1      2701 1.99346E+01-4.00714E-02-3.05614E-04 1.36449E-01 7.80578E-16-1.49923E-13
 -1      2702 1.99453E+01-3.66839E-02 3.81597E-04 1.27884E-01-6.13758E-15-1.38632E-13
 -1      2703 1.99746E+01-4.90395E-02-2.87809E-04 1.45806E-01-2.80351E-14-1.19884E-13
 -1      2704 1.99471E+01-3.29147E-02-3.72744E-04 1.20075E-01-1.19862E-14-1.48181E-13
 -1      2705 1.99579E+01-2.79836E-02 4.20196E-04 1.13222E-01-5.73959E-14-1.28947E-13
 -1      2706 1.99781E+01-4.16695E-02-2.08928E-04 1.29407E-01-2.40181E-14-1.25794E-13
 -1      2707 1.99604E+01-2.29275E-02-4.05098E-04 1.07570E-01-6.26122E-14-1.11926E-13
 -1      2708 1.99714E+01-1.67634E-02 4.74646E-04 1.03262E-01-7.11102E-14-9.13404E-14
 -1      2709 1.99836E+01-3.04368E-02-1.63951E-04 1.16201E-01-4.35599E-14-1.22915E-13
 -1      2710 1.99745E+01-1.06187E-02-4.20089E-04 1.00568E-01-1.51087E-13-3.69447E-14
 -1      2711 1.99860E+01-3.33877E-03 5.50984E-04 9.94913E-02-1.72953E-13-4.58970E-14
 -1      2712 1.99906E+01-1.61310E-02-1.44863E-04 1.08113E-01-9.50294E-14-1.19841E-13
 -1      2713 1.99897E+01 3.84614E-03-4.30246E-04 1.00450E-01-1.99753E-13-4.27027E-14
 -1      2714 2.00021E+01 1.22586E-02 6.53774E-04 1.03233E-01-1.48530E-13-9.44697E-14
 -1      2715 1.99989E+01 9.21736E-04-1.45298E-04 1.06721E-01-1.80031E-13-5.44578E-14
 -1      2716 2.00064E+01 2.05316E-02-4.44171E-04 1.08511E-01-6.13107E-14-8.92110E-14
 -1      2717 2.00205E+01 3.01702E-02 7.85933E-04 1.15783E-01-5.04408E-14-8.38197E-14
 -1      2718 2.00086E+01 2.07147E-02-1.60232E-04 1.13451E-01-1.13528E-13 1.66137E-14
 -1      2719 2.00256E+01 3.96209E-02-4.67044E-04 1.26063E-01-6.38965E-14-3.33232E-14
 -1      2720 2.00420E+01 5.05933E-02 9.48167E-04 1.38473E-01-5.62215E-14 1.35530E-15
 -1      2721 2.00200E+01 4.34220E-02-1.85743E-04 1.29705E-01-2.51641E-14 1.19032E-13
 -1      2722 2.00481E+01 6.12885E-02-5.00586E-04 1.54470E-01-1.19898E-13 4.74690E-14
 -1      2723 2.00679E+01 7.36392E-02 1.13801E-03 1.72683E-01-6.54680E-14-5.49108E-15
 -1      2724 2.00334E+01 6.92469E-02-2.18995E-04 1.56919E-01-7.92551E-14 7.37461E-14
 -1      2725 2.00753E+01 8.55397E-02-5.42384E-04 1.95119E-01 4.00613E-14-3.58640E-15
 -1      2726 2.00994E+01 9.91471E-02 1.34846E-03 2.19756E-01 9.03272E-14-5.49041E-14
 -1      2727 2.00494E+01 9.82364E-02-2.58595E-04 1.96565E-01-2.94048E-14 9.32175E-14
 -1      2728 2.01085E+01 1.11994E-01-5.84403E-04 2.49295E-01 1.32688E-13-1.04324E-13
 -1      2729 2.01381E+01 1.26427E-01 1.56611E-03 2.80827E-01 1.78167E-13-1.70754E-13
 -1      2730 2.00688E+01 1.30036E-01-3.05578E-04 2.50054E-01 5.31198E-14-5.36893E-14
 -1      2731 2.01496E+01 1.39583E-01-6.10431E-04 3.17949E-01 1.98339E-13-2.37149E-13
 -1      2732 2.01859E+01 1.53905E-01 1.76891E-03 3.56510E-01 8.64510E-14-1.94821E-13
 -1      2733 2.00925E+01 1.63552E-01-3.65399E-04 3.18549E-01 1.43505E-13-2.21282E-13
 -1      2734 2.02006E+01 1.66137E-01-5.92201E-04 4.01311E-01 1.24006E-14-2.85949E-13
 -1      2735 2.02449E+01 1.78635E-01 1.92351E-03 4.46416E-01-1.20857E-14-2.40308E-13
 -1      2736 2.01219E+01 1.96491E-01-4.51447E-04 4.02650E-01 3.64327E-14-1.81302E-13
 -1      2737 2.02645E+01 1.87826E-01-4.83976E-04 4.98313E-01-1.11278E-13-2.13558E-13
 -1      2738 2.03182E+01 1.95666E-01 1.98232E-03 5.48459E-01-1.94861E-13-2.48957E-13
 -1      2739 2.01591E+01 2.24740E-01-5.90648E-04 5.01911E-01-6.77932E-14-2.02365E-13
 -1      2740 2.03449E+01 1.98457E-01-2.15836E-04 6.05772E-01-1.41169E-13-2.08910E-13
 -1      2741 2.04096E+01 1.97278E-01 1.88011E-03 6.57889E-01-3.26660E-14-1.33089E-13
 -1      2742 2.02076E+01 2.41572E-01-8.31433E-04 6.14159E-01-9.39856E-14-1.68030E-13
 -1      2743 2.04475E+01 1.88689E-01 3.12978E-04 7.17265E-01-4.33779E-14-1.15843E-13
 -1      2744 2.05251E+01 1.72221E-01 1.52922E-03 7.66024E-01-3.35108E-14-1.11625E-13
 -1      2745 2.02727E+01 2.36738E-01-1.25325E-03 7.34562E-01-1.97580E-14-1.46125E-13
 -1      2746 2.05803E+01 1.45383E-01 1.23647E-03 8.21673E-01 2.58920E-14-1.10797E-13
 -1      2747 2.06730E+01 1.05309E-01 8.10843E-04 8.58672E-01 3.54915E-14-1.51260E-13
 -1      2748 2.03633E+01 1.95627E-01-1.97408E-03 8.54371E-01-4.00367E-14-7.45804E-14
 -1      2749 2.07549E+01 5.16373E-02 2.70965E-03 9.01357E-01-2.00065E-14-1.64960E-13
 -1      2750 2.08654E+01-2.18187E-02-4.39968E-04 9.14321E-01-2.43803E-14-1.12683E-13
 -1      2751 2.04929E+01 9.90017E-02-3.14589E-03 9.59270E-01-4.77926E-14-2.43813E-14
 -1      2752 2.09871E+01-1.11356E-01 4.85934E-03 9.30081E-01 5.19678E-14-1.00629E-13
 -1      2753 2.11180E+01-2.27147E-01-2.43772E-03 9.02391E-01 9.06357E-14-2.82569E-14
 -1      2754 2.06817E+01-7.55753E-02-4.91109E-03 1.02718E+00 6.80738E-14 5.08874E-14
 -1      2755 2.12955E+01-3.58475E-01 7.66579E-03 8.71144E-01 1.12824E-13-5.87594E-14
 -1      2756 2.14471E+01-5.19172E-01-5.35833E-03 7.82476E-01 6.73127E-14-8.75841E-14
 -1      2757 2.09567E+01-3.48420E-01-7.25110E-03 1.02546E+00 9.20633E-14 4.16616E-14
 -1      2758 2.16954E+01-6.87621E-01 1.07225E-02 6.77494E-01 1.58827E-15-3.51211E-14
 -1      2759 2.18618E+01-8.78900E-01-9.08806E-03 5.07239E-01 3.71823E-14-4.37074E-14
 -1      2760 2.13487E+01-7.24780E-01-9.64332E-03 9.08258E-01 7.90409E-14-3.45820E-14
 -1      2761 2.21837E+01-1.05713E+00 1.26140E-02 2.98812E-01-2.46736E-14-5.84847E-14
 -1      2762 2.23467E+01-1.23322E+00-1.30226E-02 3.50382E-02-2.98520E-14-1.42924E-13
 -1      2763 2.18793E+01-1.16987E+00-1.07374E-02 6.17422E-01-8.67064E-14-2.90133E-16
 -1      2764 2.27156E+01-1.35702E+00 1.08260E-02-2.98015E-01 1.08543E-14-1.51213E-13
 -1      2765 2.28395E+01-1.42438E+00-1.38741E-02-6.41399E-01-7.55253E-14-5.77256E-14
 -1      2766 2.25356E+01-1.57622E+00-8.79790E-03 9.66135E-02-2.98294E-14-7.36607E-14
 -1      2767 2.31744E+01-1.38447E+00 2.98352E-03-1.07988E+00-1.08863E-13-1.83262E-14
 -1      2768 2.32112E+01-1.21412E+00-7.43962E-03-1.43414E+00-6.12327E-14 7.45939E-14
 -1      2769 2.32343E+01-1.73016E+00-1.58872E-03-6.78500E-01-4.42675E-14-1.83720E-13
 -1      2770 2.33731E+01-8.99627E-01-1.75300E-02-1.85305E+00-1.74224E-13 5.97506E-14
 -1      2771 2.32983E+01-4.18932E-01 2.11989E-03-2.07552E+00-2.30169E-13-3.84152E-14
 -1      2772 2.37749E+01-1.30538E+00 1.23558E-02-1.58066E+00-1.96465E-13-2.59640E-13
 -1      2773 2.32002E+01 1.88561E-01-3.68968E-02-2.26483E+00-1.66157E-13-5.09333E-14
 -1      2774 2.30427E+01 8.94906E-01 1.86918E-02-2.18242E+00-1.99677E-13-1.36365E-13
 -1      2775 2.39302E+01-1.82431E-01 6.61740E-03-2.27748E+00-2.85365E-13-1.51715E-13
 -1      2776 2.27466E+01 1.52441E+00-4.95387E-02-1.86671E+00-1.46193E-13-9.04762E-14
 -1      2777 2.26287E+01 2.07406E+00 8.91031E-03-1.43876E+00-1.52864E-14-1.01573E-13
 -1      2778 2.36239E+01 1.52964E+00 4.66511E-03-2.25282E+00-1.40747E-13 7.36737E-15
 -1      2779 2.24554E+01 2.37544E+00-2.08555E-02-7.26819E-01 1.11975E-13-1.10882E-13
 -1      2780 2.24261E+01 2.38236E+00-1.85938E-02-1.15879E-01 2.29823E-13-9.92349E-15
 -1      2781 2.32634E+01 2.68926E+00-1.64797E-02-1.21697E+00 6.00908E-15 4.46691E-14
 -1      2782 2.25641E+01 2.10258E+00 1.15744E-02 5.98931E-01 2.29858E-13 3.62258E-14
 -1      2783 2.26131E+01 1.56169E+00-4.90912E-02 1.04685E+00 7.78076E-14 1.80336E-13
 -1      2784 2.32358E+01 2.71447E+00-2.20045E-02 3.18374E-01 1.45470E-13-1.69626E-13
 -1      2785 2.28981E+01 9.25625E-01 2.17458E-02 1.36703E+00-4.51687E-14 4.86867E-14
 -1      2786 2.29808E+01 2.17368E-01-3.94214E-02 1.46117E+00-1.16124E-13-1.09988E-14
 -1      2787 2.35497E+01 1.52296E+00 1.56743E-04 1.39668E+00-6.22488E-14-2.52917E-13
 -1      2788 2.30795E+01-3.86873E-01 6.83360E-03 1.28533E+00-2.06437E-13 5.29371E-14
 -1      2789 2.30848E+01-8.70497E-01-2.01502E-02 1.07163E+00 5.89281E-14-1.83967E-13
 -1      2790 2.38309E+01-1.35778E-01 1.03161E-02 1.45092E+00-1.48155E-13-3.95760E-14
 -1      2791 2.29081E+01-1.16878E+00-7.95989E-03 6.52788E-01 2.57498E-13-2.46047E-13
 -1      2792 2.28032E+01-1.30847E+00 5.27988E-04 3.13794E-01 8.56832E-14-2.05534E-13
 -1      2793 2.36525E+01-1.25387E+00 1.26944E-02 7.70630E-01 3.20349E-14-2.95791E-13
 -1      2794 2.24355E+01-1.30025E+00-1.59604E-02-1.09119E-01 8.57156E-14-2.64965E-13
 -1      2795 2.22422E+01-1.16546E+00 1.09012E-02-4.15640E-01 1.14552E-13-2.79802E-13
 -1      2796 2.30603E+01-1.59888E+00-3.63416E-04-1.25484E-01 1.14308E-13-4.35435E-13
 -1      2797 2.18241E+01-9.56241E-01-1.40516E-02-6.99841E-01 1.57658E-13-1.55607E-13
 -1      2798 2.15861E+01-6.91197E-01 1.07199E-02-8.85390E-01 8.63664E-14-1.14905E-13
 -1      2799 2.22855E+01-1.28221E+00-3.33087E-03-8.34738E-01 1.95389E-13-4.53689E-13
 -1      2800 1.98543E+01 4.91220E-02 4.80465E-05-1.43019E-01 1.01320E-13-1.85384E-14
 -1      2801 1.98684E+01 8.09655E-02 3.16201E-03-1.14748E-01 9.27174E-14 1.65097E-14
 -1      2802 1.51532E+01-4.45605E+00 1.53577E-01-6.95108E+00 6.09138E-13 9.46548E-13
 -1      2803 1.87944E+01-5.51999E+00-2.82052E-02-7.00670E+00 5.25302E-13 7.74561E-13
 -1      2804 1.98913E+01 1.18527E-01-2.60766E-04-7.03017E-02 8.29974E-14 2.00871E-14
 -1      2805 1.99271E+01 1.70134E-01 5.19446E-03-1.48673E-02 1.03837E-13 3.30267E-14
 -1      2806 1.99912E+01 1.35164E-01-2.34246E-03-7.18406E-02 1.09756E-13 9.22095E-15
 -1      2807 1.98426E+01-1.79447E-02 2.56154E-04-1.83735E-01 5.59492E-14-3.30820E-14
 -1      2808 1.98342E+01-7.01887E-03 8.81488E-04-1.83173E-01 4.93028E-14-3.13991E-14
 -1      2809 1.98539E+01-3.08821E-02 2.76315E-04-1.76500E-01 1.11576E-13-3.38775E-14
 -1      2810 1.98410E+01-2.54969E-02 2.96782E-04-1.81994E-01 8.80393E-14-2.72119E-14
 -1      2811 1.99202E+01-2.43043E-02-8.64653E-04-1.86873E-01 7.08386E-14-1.25094E-13
 -1      2812 1.98705E+01-3.58895E-02 2.83368E-04-1.61250E-01 5.94965E-14-9.70820E-15
 -1      2813 1.98555E+01-3.42323E-02-6.69388E-05-1.69747E-01 8.19203E-14-3.39893E-14
 -1      2814 1.99204E+01-3.89678E-02-5.70525E-04-1.79906E-01 9.32013E-14-6.83219E-14
 -1      2815 1.98895E+01-3.55234E-02 2.92424E-04-1.42838E-01 2.46414E-14 2.73999E-14
 -1      2816 1.98741E+01-3.63882E-02-2.79178E-04-1.52243E-01 5.12878E-14 3.50406E-14
 -1      2817 1.99263E+01-4.41650E-02-3.67288E-04-1.64894E-01 3.70717E-14-2.57945E-14
 -1      2818 1.99093E+01-3.14650E-02 3.12909E-04-1.24634E-01 2.09394E-14 4.18675E-14
 -1      2819 1.98942E+01-3.40672E-02-3.89992E-04-1.33498E-01 5.36389E-14 4.25730E-14
 -1      2820 1.99355E+01-4.29182E-02-2.35670E-04-1.46830E-01 4.82030E-14-8.76287E-15
 -1      2821 1.99292E+01-2.47665E-02 3.51683E-04-1.09029E-01-6.33353E-14 1.63645E-14
 -1      2822 1.99147E+01-2.86268E-02-4.35537E-04-1.16319E-01-3.26225E-14 3.28144E-14
 -1      2823 1.99466E+01-3.72045E-02-1.59555E-04-1.29228E-01 2.75096E-15 2.39858E-14
 -1      2824 1.99492E+01-1.60115E-02 4.14774E-04-9.78004E-02 6.78184E-14-6.51006E-14
 -1      2825 1.99351E+01-2.08803E-02-4.41777E-04-1.02734E-01 1.10080E-15 5.65554E-16
 -1      2826 1.99590E+01-2.82432E-02-1.25916E-04-1.14613E-01 4.41775E-16-1.05138E-13
 -1      2827 1.99697E+01-5.42027E-03 5.08171E-04-9.23926E-02 1.36190E-13-2.81524E-14
 -1      2828 1.99555E+01-1.12274E-02-4.27699E-04-9.43134E-02 8.07850E-14-7.33762E-15
 -1      2829 1.99722E+01-1.66856E-02-1.24562E-04-1.04897E-01 4.53432E-14-6.97850E-14
 -1      2830 1.99916E+01 7.07438E-03 6.38101E-04-9.41337E-02 8.04712E-14 1.86481E-13
 -1      2831 1.99765E+01 2.56616E-04-4.07291E-04-9.24105E-02 1.07790E-13 6.11366E-14
 -1      2832 1.99865E+01-2.74188E-03-1.47826E-04-1.01668E-01 6.06300E-14 5.91441E-14
 -1      2833 2.00160E+01 2.17688E-02 8.11033E-04-1.04406E-01 3.53703E-14 2.50853E-13
 -1      2834 1.99992E+01 1.37545E-02-3.91084E-04-9.83582E-02 1.04014E-13 2.31751E-13
 -1      2835 2.00024E+01 1.37266E-02-1.89459E-04-1.06407E-01 3.09072E-14 1.96959E-13
 -1      2836 2.00444E+01 3.91397E-02 1.03349E-03-1.24773E-01-1.77085E-14 2.09150E-13
 -1      2837 2.00247E+01 2.96537E-02-3.87460E-04-1.13613E-01 4.61724E-14 2.62185E-13
 -1      2838 2.00203E+01 3.31338E-02-2.43851E-04-1.20664E-01 5.51218E-14 2.34179E-13
 -1      2839 2.00787E+01 5.97973E-02 1.31149E-03-1.57070E-01 6.70710E-14 1.20890E-13
 -1      2840 2.00547E+01 4.84999E-02-4.03570E-04-1.39862E-01-2.75489E-14 1.39093E-13
 -1      2841 2.00412E+01 5.61064E-02-3.05165E-04-1.46176E-01 6.63942E-14 1.92920E-13
 -1      2842 2.01206E+01 8.44243E-02 1.64952E-03-2.03458E-01 1.21929E-13 1.25933E-13
 -1      2843 2.00908E+01 7.09455E-02-4.45927E-04-1.79099E-01 1.32473E-13 1.57795E-13
 -1      2844 2.00659E+01 8.34178E-02-3.66477E-04-1.84955E-01 6.89929E-14 8.09404E-14
 -1      2845 2.01725E+01 1.13682E-01 2.04882E-03-2.66415E-01 1.11967E-13 1.30416E-13
 -1      2846 2.01351E+01 9.76760E-02-5.20499E-04-2.33646E-01 1.54965E-13 1.39453E-13
 -1      2847 2.00955E+01 1.15901E-01-4.19069E-04-2.39317E-01 1.36112E-13 2.89471E-13
 -1      2848 2.02364E+01 1.48047E-01 2.50462E-03-3.48663E-01 1.12746E-13-6.09071E-15
 -1      2849 2.01896E+01 1.29288E-01-6.31937E-04-3.06120E-01 1.43881E-13 1.67717E-14
 -1      2850 2.01307E+01 1.54307E-01-4.52250E-04-3.11861E-01 1.67984E-13 1.49478E-13
 -1      2851 2.03147E+01 1.87509E-01 3.00208E-03-4.52955E-01-2.56685E-14-6.77673E-14
 -1      2852 2.02565E+01 1.66069E-01-7.81219E-04-3.99303E-01 1.00215E-14-3.52390E-14
 -1      2853 2.01724E+01 1.99062E-01-4.54481E-04-4.05352E-01 7.89318E-14-1.34751E-16
 -1      2854 2.04095E+01 2.31040E-01 3.51044E-03-5.81676E-01-7.24262E-14-1.14738E-13
 -1      2855 2.03380E+01 2.07601E-01-9.60397E-04-5.15861E-01-4.93702E-14-6.54341E-14
 -1      2856 2.02211E+01 2.49831E-01-4.17428E-04-5.22492E-01-8.07389E-15 2.58114E-14
 -1      2857 2.05231E+01 2.75650E-01 3.97546E-03-7.36105E-01-4.35453E-14-1.77599E-13
 -1      2858 2.04362E+01 2.52053E-01-1.14234E-03-6.57821E-01-2.04316E-14-1.58537E-13
 -1      2859 2.02773E+01 3.04751E-01-3.45797E-04-6.65494E-01-8.48840E-14 3.91785E-14
 -1      2860 2.06581E+01 3.14814E-01 4.31053E-03-9.15188E-01 6.37906E-14-2.00170E-13
 -1      2861 2.05539E+01 2.94968E-01-1.26224E-03-8.25656E-01 4.11651E-14-1.79944E-13
 -1      2862 2.03414E+01 3.59116E-01-2.77733E-04-8.35386E-01 1.97937E-15-1.07668E-13
 -1      2863 2.08185E+01 3.35984E-01 4.38658E-03-1.11355E+00-6.32752E-14-1.25100E-13
 -1      2864 2.06948E+01 3.27273E-01-1.18670E-03-1.01678E+00-3.83510E-14-1.66214E-13
 -1      2865 2.04153E+01 4.03238E-01-3.23006E-04-1.03092E+00-1.99268E-14-7.16799E-14
 -1      2866 2.10124E+01 3.17025E-01 4.01466E-03-1.31842E+00 1.58128E-14-1.81538E-13
 -1      2867 2.08661E+01 3.32278E-01-6.65071E-04-1.22315E+00-1.02381E-15-1.20613E-13
 -1      2868 2.05038E+01 4.19160E-01-7.28027E-04-1.24690E+00-2.94612E-14 1.05552E-14
 -1      2869 2.12563E+01 2.22084E-01 2.89953E-03-1.50512E+00-4.79586E-15-5.05188E-14
 -1      2870 2.10819E+01 2.81708E-01 7.29071E-04-1.42751E+00 5.73033E-15-7.90595E-14
 -1      2871 2.06194E+01 3.76167E-01-1.97188E-03-1.47169E+00-4.35152E-14 2.25953E-14
 -1      2872 2.15814E+01-5.89892E-04 5.30127E-04-1.63062E+00-1.42946E-13 2.07907E-15
 -1      2873 2.13697E+01 1.32045E-01 3.63115E-03-1.59767E+00-3.79235E-14-2.85412E-15
 -1      2874 2.07894E+01 2.26036E-01-4.86832E-03-1.68317E+00-8.64695E-14 1.58242E-13
 -1      2875 2.20403E+01-4.11554E-01-3.98669E-03-1.62521E+00-1.85258E-13 2.04859E-14
 -1      2876 2.17782E+01-1.74405E-01 8.80573E-03-1.67792E+00-1.85244E-13-3.38348E-14
 -1      2877 2.10667E+01-9.81563E-02-1.05413E-02-1.84169E+00-1.37923E-13 5.96743E-14
 -1      2878 2.27035E+01-1.04737E+00-1.18506E-02-1.38453E+00-1.31057E-13-8.44984E-15
 -1      2879 2.23806E+01-6.92525E-01 1.67374E-02-1.57755E+00-1.58020E-13 3.12940E-14
 -1      2880 2.15416E+01-6.69224E-01-1.98696E-02-1.87750E+00-1.61158E-13-1.14821E-13
 -1      2881 2.36281E+01-1.83500E+00-2.12749E-02-7.71825E-01-7.61561E-14 1.39783E-13
 -1      2882 2.32550E+01-1.41985E+00 2.62746E-02-1.16241E+00-1.21737E-13 2.26529E-14
 -1      2883 2.23391E+01-1.51576E+00-3.21793E-02-1.66993E+00-1.77508E-13-1.23681E-13
 -1      2884 2.47838E+01-2.43802E+00-2.46614E-02 3.31713E-01 2.42618E-14 8.69981E-14
 -1      2885 2.44224E+01-2.18803E+00 3.28463E-02-2.73182E-01 2.55438E-14 1.68107E-13
 -1      2886 2.35626E+01-2.51684E+00-4.90603E-02-1.03327E+00-7.68292E-14-1.12483E-13
 -1      2887 2.58346E+01-2.15080E+00-4.04285E-02 1.80727E+00-4.91517E-14 5.93601E-14
 -1      2888 2.56560E+01-2.43774E+00 5.74120E-03 1.15131E+00-2.49627E-14 8.31713E-14
 -1      2889 2.52764E+01-3.00488E+00-1.95080E-03 3.06762E-01 1.58259E-14-2.00503E-13
 -1      2890 2.60192E+01 2.63783E+00-4.17204E-02 2.72899E+00-3.40852E-13 8.16187E-14
 -1      2891 2.62405E+01 1.16640E+00-1.31301E-01 3.17498E+00-2.38795E-13 1.29771E-13
 -1      2892 2.56335E+01 4.07579E+00-9.06043E-02 5.41525E-01-2.44776E-13-2.47926E-13
 -1      2893 2.57448E+01 3.64961E+00-1.47002E-01 1.68903E+00-3.36536E-13-1.71654E-13
 -1      2894 2.57956E+01 2.59969E+00-1.53335E-01-1.72060E+00 8.61117E-14-2.43052E-13
 -1      2895 2.57170E+01 3.66805E+00-5.96328E-02-8.05436E-01-2.68674E-14-3.83272E-13
 -1      2896 2.60593E+01-2.42374E-01-1.15873E-01-2.23935E+00 1.91434E-13-9.12534E-14
 -1      2897 2.60172E+01 1.25871E+00-1.64064E-02-2.21192E+00 1.09128E-13-1.05433E-13
 -1      2898 2.72158E+01 2.31336E+00-8.78894E-02-2.13341E+00 4.95021E-14-4.26451E-13
 -1      2899 2.56195E+01-2.08520E+00-3.80640E-02-1.09312E+00 3.27294E-13-2.64622E-13
 -1      2900 2.58233E+01-1.30614E+00-1.96575E-02-1.67537E+00 3.56291E-13-2.48488E-13
 -1      2901 2.69373E+01-1.02695E+00-4.44289E-02-1.84432E+00 2.57065E-13-3.32692E-13
 -1      2902 2.44909E+01-2.32580E+00 1.94026E-02 4.44303E-01 4.04486E-13-3.50078E-13
 -1      2903 2.48999E+01-2.34738E+00-1.80747E-02-2.19491E-01 2.69102E-13-4.13393E-13
 -1      2904 2.57756E+01-2.66744E+00-1.86564E-02-3.52196E-01 4.10932E-13-3.90864E-13
 -1      2905 2.31950E+01-1.67418E+00 2.98502E-02 1.57733E+00 3.87046E-13-2.32678E-13
 -1      2906 2.36423E+01-2.09117E+00-2.89285E-02 1.09916E+00 4.87430E-13-2.46345E-13
 -1      2907 2.41241E+01-2.69353E+00-4.44615E-02 1.23091E+00 3.40893E-13-4.14568E-13
 -1      2908 2.20999E+01-7.65860E-01 2.93944E-02 2.13470E+00-8.15225E-14 7.32294E-14
 -1      2909 2.24966E+01-1.25849E+00-2.18996E-02 1.91087E+00 1.75988E-13-5.45913E-14
 -1      2910 2.26964E+01-1.76343E+00-3.00449E-02 2.16367E+00 1.51255E-13-2.29180E-13
 -1      2911 2.12737E+01 1.66621E-02 1.91952E-02 2.28281E+00-1.13051E-13-1.33563E-13
 -1      2912 2.16098E+01-4.35748E-01-1.31664E-02 2.29864E+00-1.63477E-13-1.69572E-13
 -1      2913 2.16482E+01-7.50378E-01-1.73619E-02 2.58578E+00-9.99580E-15-2.79205E-13
 -1      2914 2.08939E+01 1.90886E-01-1.16205E-02 2.67838E+00-3.58717E-14-6.84415E-13
 -1      2915 7.61102E+00-8.16664E-01 1.53291E-01 6.42549E-01-2.62134E-13 1.98369E-13
 -1      2916 7.62699E+00-1.06145E+00 1.74203E-01-2.14133E+00-1.04264E-13 5.94330E-13
 -1      2917 1.72237E+01 2.23064E+00 1.25414E-02-1.25078E+00-5.24778E-14 5.41975E-14
 -1      2918 1.69553E+01 2.33687E+00-1.76773E-02-4.70662E-01-3.06591E-15-1.11211E-13
 -1      2919 1.76632E+01 1.89159E+00-3.38670E-02 2.13514E+00 1.93773E-13-1.11857E-13
 -1      2920 1.82773E+01 1.63992E+00 2.59860E-02 2.64530E+00 2.56852E-13-2.98435E-13
 -1      2921 1.83182E+01 1.57583E+00 3.21508E-02-2.56802E+00 1.60515E-13 6.55543E-13
 -1      2922 1.76905E+01 1.83243E+00-3.53143E-02-2.05630E+00 7.31281E-14 2.24741E-13
 -1      2923 1.68962E+01 1.57387E+00 2.98785E-02-1.92148E+00 8.56359E-14 2.38165E-13
 -1      2924 1.69473E+01 2.35246E+00-1.68676E-02 5.40770E-01-1.53007E-13-1.04093E-13
 -1      2925 1.72005E+01 2.26017E+00 1.17435E-02 1.32347E+00 4.44115E-14 1.00267E-13
 -1      2926 1.68619E+01 1.62990E+00 2.81515E-02 1.97745E+00 1.22001E-13-1.63894E-13
 -1      2927 1.62712E+01 1.95998E+00 3.90258E-02 2.39921E-02-1.68954E-13-1.13242E-13
 -1      2928 1.96404E+01 7.43208E-01 3.25090E-02-3.05744E+00 3.19151E-13 2.17629E-13
 -1      2929 1.89750E+01 1.04806E+00-3.08581E-02-2.91519E+00 1.89051E-13 7.16847E-13
 -1      2930 1.83318E+01 7.12864E-01 4.79488E-04-3.11504E+00 3.66189E-13 6.58296E-13
 -1      2931 2.06862E+01 6.97170E-02 2.12111E-02-2.81839E+00 1.60987E-13-1.09030E-13
 -1      2932 2.02114E+01 3.36260E-01-1.39781E-02-2.96808E+00 2.74864E-13-9.90932E-14
 -1      2933 1.99094E+01-1.34033E-01-1.52681E-02-3.33069E+00 2.88087E-13 4.48107E-14
 -1      2934 2.12144E+01-2.74083E-01 1.54086E-02-2.17100E+00 1.87545E-13 1.16424E-13
 -1      2935 2.10021E+01-1.11292E-01 1.41619E-03-2.46897E+00 2.30926E-13 1.54164E-13
 -1      2936 2.10406E+01-6.44365E-01-1.62285E-02-2.82369E+00 2.86892E-13 7.78995E-14
 -1      2937 2.97606E+01-2.46462E-01-1.42176E-01-1.49750E+00 4.71845E-15-2.02768E-13
 -1      2938 2.96157E+01-2.41878E+00-5.80816E-03-3.17793E-01 9.94690E-14-2.65427E-13
 -1      2939 2.39206E+01-5.46439E+00-4.76691E-02 3.93253E+00 7.92838E-14 9.99478E-14
 -1      2940 2.11302E+01-5.41193E+00 1.04785E-01 5.28459E+00 9.91152E-14-5.08985E-14
 -1      2941 6.68616E+00-1.19991E+00 1.15138E-01 2.35869E+00-5.96745E-15 6.01241E-13
 -1      2942 6.33011E+00-9.43970E-01 1.66607E-01 3.77132E-01-5.74124E-14 4.01956E-13
 -1      2943 2.96584E+01 6.33204E+00-2.19407E-01 3.66557E-01 2.70894E-14-5.98738E-13
 -1      2944 2.93138E+01 5.73414E+00-2.20782E-01-6.00617E-01-5.36515E-14-4.67973E-13
 -1      2945 2.03085E+01 1.58836E+00-1.20949E-02-1.23621E+00-2.20734E-13-2.76685E-13
 -1      2946 2.03277E+01 1.23122E+00 1.28713E-02-9.68375E-01-1.91305E-13-2.47859E-13
 -1      2947 2.02445E+01 9.50073E-01-4.72157E-03-7.22609E-01-1.75995E-13-2.44127E-13
 -1      2948 2.01595E+01 2.04534E+00-1.82482E-04-1.13967E+00-1.63099E-13-3.34474E-13
 -1      2949 2.97039E+01 1.72278E+00-2.13385E-01-2.05954E+00-1.40943E-13 3.30194E-13
 -1      2950 2.98305E+01-3.96755E-01-2.16266E-02-1.16196E+00-1.83395E-13 2.14911E-13
 -1      2951 1.99607E+01 2.30913E-01-8.26219E-04 6.32281E-02 1.22869E-13 2.53787E-14
 -1      2952 2.00265E+01 3.14827E-01 7.83949E-03 1.60894E-01 1.62199E-13 4.40947E-14
 -1      2953 2.01459E+01 4.77771E-01-1.83331E-03 2.80954E-01 1.76577E-13 8.80340E-15
 -1      2954 2.00559E+01 2.65697E-01-2.70884E-03 6.12477E-02 1.17327E-13 1.70502E-14
 -1      2955 1.98407E+01 6.76254E-03 1.96137E-04-1.75948E-01 6.05825E-14-2.19184E-14
 -1      2956 1.98407E+01 2.59818E-02 1.78652E-03-1.64851E-01 9.19432E-14-3.03624E-14
 -1      2957 1.99507E+01 5.39223E-02-1.77558E-03-1.45100E-01 9.50608E-14-2.00183E-14
 -1      2958 1.99288E+01 4.36316E-03-1.26618E-03-1.78657E-01 5.62239E-14-5.07317E-14
 -1      2959 1.09964E+01-2.79722E+00 2.74701E-02 5.70151E+00-1.83062E-13 1.11300E-13
 -1      2960 8.26728E+00-1.71298E+00 1.92582E-01 3.98949E+00-1.28994E-13 3.37841E-13
 -1      2961 9.13863E+00-2.05493E+00 1.31643E-01-4.54875E+00 1.57555E-13 1.20659E-12
 -1      2962 1.18424E+01-3.39619E+00 8.22824E-02-6.46544E+00 4.95659E-13 1.36038E-12
 -1      2963 1.52452E+01-3.25372E+00 1.68533E-01-6.22661E+00 3.83957E-13 9.81784E-13
 -1      2964 1.80825E+01-5.17942E+00 1.39735E-01-5.72410E+00-1.69864E-13-3.34614E-13
 -1      2965 2.18006E+01-5.83671E+00-5.66163E-02-4.76611E+00-3.47541E-13-3.16816E-13
 -1      2966 1.99237E+01 2.59554E+00-7.91380E-03 7.94702E-01 2.53124E-13-2.80396E-13
 -1      2967 1.98798E+01 2.68772E+00-6.15019E-03 6.45622E-01 2.15524E-13-3.11618E-13
 -1      2968 1.99988E+01 2.38812E+00 4.43347E-03 5.17067E-01 1.92152E-13-2.96233E-13
 -1      2969 2.00803E+01 2.19025E+00 5.64080E-03 7.45950E-01 2.26739E-13-2.59451E-13
 -1      2970 2.90257E+01 5.34890E+00-1.61586E-01 1.91874E+00 1.19349E-14-4.62463E-13
 -1      2971 2.92653E+01 5.99284E+00-2.21073E-01 9.94722E-01 5.74818E-14-4.69856E-13
 -1      2972 2.97090E+01 6.96614E+00-1.46285E-01 1.80399E-01 8.04634E-14-1.23804E-13
 -1      2973 2.90188E+01 6.71728E+00-1.78455E-01-8.40589E-01 8.56260E-14 4.57412E-14
 -1      2974 2.90337E+01 4.77798E+00-2.30906E-01-1.28808E+00-3.26128E-14-4.83585E-13
 -1      2975 2.90752E+01 3.14445E+00-1.18270E-01-1.76024E+00-7.52454E-14-4.40314E-13
 -1      2976 1.98751E+01 2.69623E+00-6.09897E-03-6.35492E-01-4.00595E-14-4.05730E-13
 -1      2977 1.99175E+01 2.60626E+00-7.90223E-03-7.85290E-01-6.39158E-14-3.95906E-13
 -1      2978 2.51468E+01-5.41888E+00 1.42832E-01-2.85041E+00-2.96180E-13-3.19744E-13
 -1      2979 2.70031E+01-5.23097E+00-7.51890E-02-1.66136E+00-2.08639E-13-2.57031E-13
 -1      2980 2.91312E+01 4.17949E+00-1.44528E-01 1.52846E+00-7.66331E-14-4.86097E-13
 -1      2981 2.95894E+01 5.96659E+00-1.61788E-01 9.47980E-01-1.34615E-13-2.91336E-13
 -1      2982 2.78674E+01 5.65342E+00-1.39021E-01 7.02785E-01 1.39999E-13-2.40273E-13
 -1      2983 1.79917E+01-4.92845E+00-3.08354E-03 6.22581E+00 1.14908E-14-1.38688E-13
 -1      2984 1.50061E+01-3.85414E+00 1.83229E-01 6.19681E+00-4.26742E-14 2.58266E-14
 -1      2985 2.85769E+01 5.38629E+00-1.91149E-01-1.94684E+00-1.50546E-13 2.69659E-13
 -1      2986 2.91219E+01 4.01655E+00-9.88163E-02-2.37024E+00-1.05554E-13 1.42497E-13
 -1      2987 1.77212E+01-5.13725E+00 1.98517E-02 6.83680E+00 7.29528E-13-4.99711E-13
 -1      2988 1.37279E+01-4.19217E+00 1.98927E-01 6.78961E+00 6.03795E-13-1.08638E-12
 -1      2989 6.53559E+00-1.21545E+00 1.62019E-01-1.54648E+00-8.30898E-14 1.32450E-13
 -1      2990 7.77600E+00-1.83569E+00 1.37459E-01-3.48047E+00-9.06220E-14-1.62231E-13
 -1      2991 2.11479E+01-2.88577E-01 8.44690E-03-1.00358E+00 1.84814E-14 4.86236E-14
 -1      2992 2.11634E+01-2.76930E-01-3.98213E-03-1.27155E+00 1.08883E-13 1.16087E-14
 -1      2993 2.13071E+01-4.88415E-01-8.27866E-03-9.66682E-01 7.13837E-14 1.72698E-14
 -1      2994 2.96450E+01-3.30492E-01-4.20153E-02 9.81481E-01-1.82757E-13-4.86389E-13
 -1      2995 2.93290E+01 1.67989E+00-1.91950E-01 1.57074E+00-7.83956E-14-4.19859E-13
 -1      2996 2.43824E+01-5.94678E+00-3.92226E-02 4.84274E+00 5.36682E-13-3.01689E-13
 -1      2997 2.17939E+01-5.71482E+00 6.05600E-02 5.77110E+00 6.88241E-13-3.17288E-13
 -1      2998 2.84192E+01-4.34159E+00-1.50560E-01 1.54422E+00 3.24005E-13-3.40394E-13
 -1      2999 2.66021E+01-5.33391E+00 5.45411E-02 3.22053E+00 4.24827E-13-2.57711E-13
 -1      3000 2.56506E+01-5.41120E+00 1.76800E-02 3.42229E+00 5.35766E-13-4.00631E-13
 -1      3001 1.99731E+01 2.48485E+00-6.44625E-03-9.00971E-01-9.24560E-14-3.85139E-13
 -1      3002 2.00279E+01 2.33843E+00-1.50276E-02-1.04421E+00-1.35168E-13-3.87706E-13
 -1      3003 2.00732E+01 2.20247E+00 5.22259E-03-7.38013E-01-7.42186E-14-3.49346E-13
 -1      3004 1.99334E+01 2.53813E+00 3.43680E-03 4.57012E-03 7.45222E-14-3.26193E-13
 -1      3005 1.97943E+01 2.86965E+00-5.48747E-03-6.19423E-02 7.04072E-14-3.65068E-13
 -1      3006 1.98018E+01 2.85502E+00-5.54799E-03-2.16712E-01 3.67828E-14-3.75762E-13
 -1      3007 2.84589E+01-1.88006E+00-3.85589E-02 4.74308E-01-1.46928E-13-4.69791E-13
 -1      3008 2.85594E+01-2.00115E+00-4.38698E-02-6.99891E-01-4.10956E-14 3.29986E-13
 -1      3009 2.12879E+01-5.21296E+00 1.08559E-01-5.88805E+00 4.43340E-13 6.64382E-13
 -1      3010 2.84560E+01-3.39311E+00 5.53146E-03 1.59166E-01 2.88807E-13-3.14831E-13
 -1      3011 2.16283E+01-7.45879E-01-3.22128E-03-1.18484E+00 1.68519E-13-1.62513E-13
 -1      3012 2.63983E+01-4.93244E+00 6.07730E-03-2.91673E+00 3.02230E-13-4.21690E-13
 -1      3013 8.09922E+00-4.89949E-01 1.76857E-01-5.85274E-01-5.73899E-14 2.49523E-13
 -1      3014 2.74038E+01 5.23338E+00-1.10104E-01 5.92861E-01-9.36196E-14-3.57771E-13
 -1      3015 2.02207E+01-5.10889E+00 9.76185E-02 6.22981E+00 7.19827E-13-3.92464E-13
 -1      3016 1.83195E+01-4.01401E+00 8.28096E-02 6.14535E+00 6.28358E-13-4.62484E-13
 -1      3017 2.19523E+01-4.86113E+00 3.68267E-02 5.11454E+00 6.38031E-13-6.53587E-13
 -1      3018 2.78027E+01 5.58196E+00-1.69871E-01-1.54473E+00-1.12133E-14 5.39013E-14
 -1      3019 2.66251E+01 4.60597E+00-1.56812E-02-2.04622E+00-1.75276E-14-1.24588E-13
 -1      3020 2.65764E+01 5.61150E+00-1.53916E-01-8.87139E-01 2.38476E-13-2.83096E-13
 -1      3021 9.33905E+00-8.57365E-01 1.84776E-01 3.01253E+00-1.18454E-13 4.35929E-13
 -1      3022 1.39768E+01-2.74459E+00 1.34735E-01 5.42542E+00-8.24896E-14 8.56398E-14
 -1      3023 2.84933E+01 2.54748E+00-1.25694E-01 1.79884E+00-5.05013E-14-3.68428E-13
 -1      3024 2.70651E+01 3.26520E+00-1.46516E-01 1.77630E+00-2.07057E-14-2.83856E-13
 -1      3025 2.75428E+01 1.12204E+00-5.90395E-02 1.73201E+00-1.29466E-13-3.74888E-13
 -1      3026 2.73316E+01 7.08589E-01-8.86562E-02 3.20287E+00-2.11511E-13 1.34434E-13
 -1      3027 2.63268E+01 1.17509E-01-2.45046E-03 3.14239E+00-1.39021E-13 1.74635E-13
 -1      3028 2.64740E+01-1.16125E+00-3.88526E-02 2.83106E+00-6.39376E-14 2.17614E-13
 -1      3029 2.68496E+01-2.10977E+00-8.69434E-02 2.14244E+00-1.18624E-13 1.84922E-15
 -1      3030 2.72086E+01 3.76629E+00-1.06726E-01 2.39057E+00-1.73236E-13-1.04985E-13
 -1      3031 8.67453E+00-6.91480E-01 2.19665E-01 1.89090E+00-3.88464E-13 3.47500E-14
 -1      3032 9.73222E+00-1.58583E-03 1.40725E-01 4.80886E-01-3.14109E-13 9.14407E-14
 -1      3033 9.82769E+00-9.33281E-01 3.01059E-02 3.13353E+00-3.42192E-13-3.38118E-13
 -1      3034 2.05226E+01 3.91840E-01 2.08672E-02 2.94720E+00 1.29470E-13-4.14516E-13
 -1      3035 2.08040E+01-1.47563E-01-1.66983E-03 3.02363E+00 2.82777E-13-4.66184E-13
 -1      3036 2.00105E+01 6.28199E-01-2.19855E-02 3.08544E+00 1.30447E-13-5.32540E-13
 -1      3037 2.32405E+01-5.35966E+00 9.59068E-03-3.54645E+00-1.71807E-13-3.98247E-13
 -1      3038 2.54330E+01-5.08689E+00 3.34774E-02 2.79408E+00 6.83203E-14 3.59913E-13
 -1      3039 2.39648E+01-5.10595E+00 1.40532E-02 3.33186E+00 1.67699E-13 3.87142E-13
 -1      3040 2.62652E+01-4.44697E+00-5.68379E-02 1.47959E+00 2.69142E-14 4.20962E-13
 -1      3041 2.74272E+01 4.79846E+00-1.01285E-01-8.85937E-01-2.15383E-14-4.65919E-13
 -1      3042 2.11768E+01-2.21823E-01-1.66533E-03-1.59779E+00 1.53486E-13-1.22194E-13
 -1      3043 1.31457E+01-2.88926E+00 1.92195E-01 5.86279E+00 2.69992E-13-8.43478E-13
 -1      3044 2.02903E+01 1.58751E+00-1.21368E-03 1.16611E+00 2.92091E-13-8.34493E-14
 -1      3045 2.02792E+01 1.36619E+00 2.01054E-03 9.19865E-01 2.57041E-13-1.01871E-13
 -1      3046 2.01382E+01-4.72783E+00 8.43099E-02 5.11794E+00 1.06845E-13-2.16147E-15
 -1      3047 2.16378E+01-7.28706E-01 1.57905E-02-1.51645E+00 1.63322E-13-2.77664E-13
 -1      3048 2.13517E+01-4.36717E-01-3.32737E-03-1.87048E+00 2.53055E-13-1.54672E-14
 -1      3049 2.16119E+01-9.11696E-01-1.32651E-02-2.12435E+00 3.19185E-13 1.08632E-13
 -1      3050 2.18628E+01-1.02917E+00-9.71490E-03-1.43533E+00 2.30576E-13-2.81199E-13
 -1      3051 2.02647E+01 1.02070E+00-1.89461E-03-6.69662E-01-1.53846E-13-2.41210E-13
 -1      3052 9.76641E+00-2.04950E+00 1.80780E-01-4.26421E+00-4.18554E-14-4.10005E-13
 -1      3053 1.19070E+01-2.48615E+00 4.42661E-02-4.93814E+00-3.08781E-14-4.28241E-13
 -1      3054 1.02305E+01-1.08645E+00 1.53219E-01-3.42369E+00-4.76355E-14-3.48638E-13
 -1      3055 2.98501E+01-4.28115E-01-4.77183E-02 2.42210E+00-1.23193E-13-5.34767E-13
 -1      3056 2.75526E+01-4.35471E+00-1.41085E-01-1.59522E-01-2.15508E-13-3.13083E-13
 -1      3057 1.51284E+01-3.41884E+00 1.52949E-01-5.48361E+00-2.93376E-14-1.17253E-13
 -1      3058 1.65583E+01-4.52970E+00 9.73845E-02-5.84881E+00-2.79915E-14-7.11514E-14
 -1      3059 1.88673E+01-4.38125E+00 4.08424E-02-4.92415E+00-1.26690E-13-2.24310E-13
 -1      3060 1.98174E+01 2.81952E+00-5.70168E-03-3.51884E-01 1.75257E-14-3.74236E-13
 -1      3061 1.98415E+01 2.77118E+00-6.19529E-03-5.05600E-01-1.74679E-14-3.91662E-13
 -1      3062 1.99945E+01 2.39553E+00 4.22733E-03-5.07766E-01-3.43005E-14-3.70945E-13
 -1      3063 1.99480E+01 2.50411E+00 3.63254E-03-2.55844E-01 1.78000E-14-3.56961E-13
 -1      3064 1.88571E+01 1.23320E+00-3.27047E-02 2.96002E+00 2.33722E-13-3.18632E-13
 -1      3065 1.95089E+01 9.40487E-01 2.33473E-02 3.11254E+00 1.81749E-13-4.70751E-13
 -1      3066 1.96556E+01 2.93288E-01 1.23527E-03 3.37225E+00 1.21017E-13-4.22445E-13
 -1      3067 1.82358E+01 9.21320E-01 8.80318E-03 3.12064E+00 2.94666E-13-2.41542E-13
 -1      3068 2.82165E+01 2.12763E+00-1.18072E-01-2.34139E+00-9.58539E-14 2.07834E-13
 -1      3069 2.84835E+01 2.26881E+00-9.29324E-02 3.14670E+00-2.21073E-13-1.17253E-13
 -1      3070 2.91231E+01 3.60200E+00-1.88333E-01 2.79795E+00-1.14631E-13-2.05266E-13
 -1      3071 2.83989E+01 3.60994E-01-1.99050E-01 3.01146E+00-2.17860E-13-1.31659E-13
 -1      3072 2.02401E+01 1.48128E+00-6.05507E-03 8.03253E-01 2.29662E-13-1.56307E-13
 -1      3073 2.02009E+01 1.66895E+00-5.12655E-04 7.47200E-01 2.08402E-13-1.99498E-13
 -1      3074 9.03127E+00-6.54126E-03 8.38612E-02 2.87583E-01-4.57256E-14 4.09450E-13
 -1      3075 9.39017E+00-2.29159E-01 1.12511E-01-1.59915E+00-2.57329E-14-4.63241E-14
 -1      3076 2.52256E+01-5.01598E+00 1.15783E-01-3.57547E+00 4.11771E-13-3.54810E-13
 -1      3077 2.65608E+01-4.51602E+00-1.60248E-01-1.77981E+00 2.28054E-13-4.81268E-13
 -1      3078 2.02212E+01 4.22423E-01 4.12397E-03-1.20879E-01-1.29183E-13-1.82184E-13
 -1      3079 2.01818E+01 3.14604E-01-2.31107E-03-3.62130E-02-1.14750E-13-1.89327E-13
 -1      3080 2.01676E+01 2.31088E-01 3.17781E-03 2.51623E-02-1.23054E-13-1.63415E-13
 -1      3081 2.01373E+01 1.60606E-01-1.30369E-03 7.60038E-02-1.28251E-13-1.78072E-13
 -1      3082 2.02379E+01 3.31193E-01-8.78482E-04-2.72497E-02-1.08936E-13-1.75226E-13
 -1      3083 2.01205E+01 1.06695E-01 2.23624E-03 1.11816E-01-1.01738E-13-1.81321E-13
 -1      3084 2.00994E+01 6.16639E-02-6.23368E-04 1.38966E-01-6.31363E-14-1.70143E-13
 -1      3085 2.01973E+01 1.67021E-01-1.02844E-03 7.52912E-02-1.04318E-13-1.04584E-13
 -1      3086 2.00832E+01 2.78546E-02 1.46513E-03 1.56650E-01-2.25844E-14-1.61030E-13
 -1      3087 2.00696E+01 3.20447E-04-1.83390E-04 1.67939E-01-4.59053E-15-1.56389E-13
 -1      3088 2.01584E+01 6.09757E-02-9.76975E-04 1.33165E-01-4.03985E-14-1.70237E-13
 -1      3089 2.00553E+01-1.96631E-02 8.77131E-04 1.73508E-01-1.85591E-14-1.56113E-13
 -1      3090 2.00474E+01-3.50997E-02 9.22832E-05 1.74761E-01-2.17901E-14-1.37013E-13
 -1      3091 2.01245E+01-4.67087E-03-8.49327E-04 1.59802E-01-1.04411E-14-1.95680E-13
 -1      3092 2.00353E+01-4.55398E-02 4.51839E-04 1.72830E-01-2.66845E-14-9.59955E-14
 -1      3093 2.00316E+01-5.26195E-02 2.59610E-04 1.68265E-01-8.62914E-15-8.29212E-14
 -1      3094 2.00964E+01-4.21598E-02-7.04583E-04 1.65999E-01 6.63183E-16-1.97719E-13
 -1      3095 2.00216E+01-5.64704E-02 1.54598E-04 1.62238E-01-3.00689E-14-7.38452E-14
 -1      3096 2.00208E+01-5.77803E-02 3.59221E-04 1.54870E-01-3.00323E-14-9.52062E-14
 -1      3097 2.00739E+01-6.00765E-02-5.68817E-04 1.59945E-01 2.08658E-15-9.33669E-14
 -1      3098 2.00128E+01-5.70681E-02-4.85885E-05 1.47209E-01-3.73878E-14-3.89110E-14
 -1      3099 2.00140E+01-5.43657E-02 4.19747E-04 1.39182E-01-2.97416E-14-6.60028E-14
 -1      3100 2.00564E+01-6.44044E-02-4.51053E-04 1.47662E-01-1.90748E-14-2.35054E-14
 -1      3101 2.00077E+01-5.04434E-02-1.86948E-04 1.31660E-01-4.70325E-14-9.01975E-14
 -1      3102 2.00103E+01-4.48751E-02 4.61413E-04 1.24513E-01-4.12159E-14-6.51030E-14
 -1      3103 2.00430E+01-5.92345E-02-3.52796E-04 1.33518E-01-3.58804E-14 3.56262E-17
 -1      3104 2.00054E+01-3.85985E-02-2.84238E-04 1.18427E-01-5.35674E-14-8.39172E-14
 -1      3105 2.00091E+01-3.08552E-02 4.98507E-04 1.13299E-01-5.32322E-14-6.78709E-14
 -1      3106 2.00330E+01-4.72557E-02-2.72228E-04 1.20690E-01-6.58740E-14-1.30680E-13
 -1      3107 2.00051E+01-2.27089E-02-3.59307E-04 1.09638E-01-5.02678E-14-5.35029E-14
 -1      3108 2.00097E+01-1.31422E-02 5.41449E-04 1.07421E-01-1.15728E-13-9.62808E-14
 -1      3109 2.00257E+01-3.01092E-02-2.05877E-04 1.11546E-01-8.58497E-14-6.03330E-14
 -1      3110 2.00064E+01-3.33763E-03-4.26746E-04 1.06994E-01-1.79690E-13-4.81680E-14
 -1      3111 2.00118E+01 7.94617E-03 5.97731E-04 1.08452E-01-1.76677E-13 2.49289E-14
 -1      3112 2.00202E+01-8.65620E-03-1.49932E-04 1.07948E-01-1.16449E-13-1.10493E-14
 -1      3113 2.00089E+01 1.93877E-02-4.97428E-04 1.11992E-01-1.48456E-13 8.33520E-14
 -1      3114 2.00152E+01 3.24428E-02 6.72450E-04 1.17841E-01-6.13797E-14 1.49389E-13
 -1      3115 2.00160E+01 1.68054E-02-1.00597E-04 1.11482E-01-1.37730E-13 1.48667E-13
 -1      3116 2.00122E+01 4.56099E-02-5.78861E-04 1.26068E-01-2.88434E-14 1.45277E-13
 -1      3117 2.00196E+01 6.05653E-02 7.68496E-04 1.37025E-01-5.89420E-15 1.42355E-13
 -1      3118 2.00123E+01 4.63454E-02-5.43902E-05 1.23630E-01-6.14148E-14 1.71351E-13
 -1      3119 2.00162E+01 7.55707E-02-6.75134E-04 1.50687E-01-1.01033E-14 1.34751E-13
 -1      3120 2.00249E+01 9.25330E-02 8.86577E-04 1.67486E-01-8.06428E-14 1.48596E-13
 -1      3121 2.00085E+01 8.02040E-02-8.63878E-06 1.45880E-01-2.99607E-16 1.16948E-13
 -1      3122 2.00209E+01 1.09409E-01-7.86297E-04 1.87369E-01-1.40898E-13 1.68790E-13
 -1      3123 2.00312E+01 1.28340E-01 1.02512E-03 2.10741E-01-6.91002E-14 5.20883E-14
 -1      3124 2.00039E+01 1.18568E-01 3.77217E-05 1.79771E-01-7.86957E-14 2.43129E-14
 -1      3125 2.00261E+01 1.46906E-01-9.07037E-04 2.37642E-01-9.27326E-15 3.21499E-14
 -1      3126 2.00386E+01 1.67460E-01 1.18021E-03 2.68248E-01 8.08130E-14 1.09888E-14
 -1      3127 1.99979E+01 1.61295E-01 8.27774E-05 2.26889E-01-7.00435E-14 9.89493E-14
 -1      3128 2.00323E+01 1.87137E-01-1.02446E-03 3.02918E-01 1.21878E-13-5.37469E-14
 -1      3129 2.00474E+01 2.08442E-01 1.34568E-03 3.41235E-01 8.37820E-14-8.67785E-14
 -1      3130 1.99902E+01 2.07550E-01 1.19329E-04 2.88781E-01 6.12149E-14 4.68140E-14
 -1      3131 2.00402E+01 2.28008E-01-1.11472E-03 3.84266E-01 1.47519E-14-9.66262E-14
 -1      3132 2.00587E+01 2.48371E-01 1.51370E-03 4.30403E-01-9.21037E-15-1.20446E-13
 -1      3133 1.99807E+01 2.55316E-01 1.31139E-04 3.66807E-01 3.68031E-14-4.31626E-14
 -1      3134 2.00513E+01 2.65630E-01-1.13800E-03 4.82076E-01-3.49956E-14-1.70656E-13
 -1      3135 2.00744E+01 2.82146E-01 1.67576E-03 5.35506E-01-8.06500E-14-1.37697E-13
 -1      3136 1.99701E+01 3.00747E-01 8.70771E-05 4.61901E-01-5.33966E-15-1.72794E-13
 -1      3137 2.00685E+01 2.93508E-01-1.03162E-03 5.95561E-01-8.36267E-14-1.82238E-13
 -1      3138 2.00984E+01 3.01581E-01 1.82345E-03 6.54762E-01-3.86049E-14-1.72174E-13
 -1      3139 1.99603E+01 3.37320E-01-6.75969E-05 5.74226E-01-3.40848E-14-1.31725E-13
 -1      3140 2.00974E+01 3.01562E-01-7.00500E-04 7.22085E-01-5.80441E-15-1.03399E-13
 -1      3141 2.01372E+01 2.94366E-01 1.94691E-03 7.84061E-01 3.35580E-14-6.28550E-14
 -1      3142 1.99557E+01 3.54790E-01-4.23366E-04 7.02720E-01 1.87517E-14-1.38889E-13
 -1      3143 2.01470E+01 2.75100E-01-5.12348E-06 8.56233E-01 3.66265E-14-4.10307E-14
 -1      3144 2.02021E+01 2.43113E-01 2.02483E-03 9.15876E-01-3.56501E-15 1.97850E-14
 -1      3145 1.99646E+01 3.38031E-01-1.12160E-03 8.44450E-01 1.03323E-13-6.14110E-14
 -1      3146 2.02327E+01 1.94061E-01 1.25190E-03 9.88472E-01-5.09486E-14 9.36116E-14
 -1      3147 2.03110E+01 1.24966E-01 1.99185E-03 1.03772E+00-1.61565E-14 1.42801E-13
 -1      3148 2.00010E+01 2.65992E-01-2.37042E-03 9.93649E-01 5.32887E-14 2.92355E-14
 -1      3149 2.03779E+01 3.33165E-02 3.33401E-03 1.10313E+00-1.21719E-14 1.34398E-13
 -1      3150 2.04907E+01-8.70702E-02 1.66016E-03 1.12983E+00 5.89824E-14 1.96331E-13
 -1      3151 2.00881E+01 1.11373E-01-4.45345E-03 1.14008E+00 2.05608E-15 2.50857E-13
 -1      3152 2.06170E+01-2.34383E-01 6.54900E-03 1.17501E+00-2.18413E-14 1.04922E-13
 -1      3153 2.07779E+01-4.18703E-01 6.19619E-04 1.16137E+00 2.19658E-14 2.24262E-14
 -1      3154 2.02613E+01-1.57651E-01-7.69768E-03 1.26595E+00-4.22154E-14 1.60592E-13
 -1      3155 2.09946E+01-6.29377E-01 1.11715E-02 1.16407E+00 8.38306E-14-7.49914E-14
 -1      3156 2.12156E+01-8.80131E-01-1.75522E-03 1.08521E+00 9.61657E-14-4.80074E-14
 -1      3157 2.05711E+01-5.70466E-01-1.22391E-02 1.33986E+00-4.64010E-14-1.84060E-14
 -1      3158 2.15572E+01-1.14421E+00 1.70905E-02 1.00845E+00 2.06514E-14-1.69288E-13
 -1      3159 2.18384E+01-1.43646E+00-6.37811E-03 8.33677E-01-2.12906E-13-1.65473E-13
 -1      3160 2.10813E+01-1.13543E+00-1.72900E-02 1.30658E+00-5.21020E-14-2.79802E-13
 -1      3161 2.23240E+01-1.70311E+00 2.18615E-02 6.24065E-01-2.28950E-13-2.13429E-13
 -1      3162 2.26491E+01-1.95820E+00-1.13001E-02 3.26460E-01-9.80509E-14-2.90666E-13
 -1      3163 2.18518E+01-1.79907E+00-2.08274E-02 1.07447E+00-1.96871E-13-2.81445E-13
 -1      3164 2.32374E+01-2.11283E+00 1.90867E-02-5.92687E-02-1.00073E-13-3.97873E-13
 -1      3165 2.35393E+01-2.17265E+00-1.83241E-02-4.65256E-01-7.57892E-14-4.27173E-13
 -1      3166 2.28473E+01-2.38979E+00-3.62507E-02 5.10821E-01-1.59876E-13-4.88837E-13
 -1      3167 2.41824E+01-2.01404E+00 2.27250E-02-1.09570E+00-1.15737E-13-4.09297E-13
 -1      3168 2.43150E+01-1.63399E+00-1.07990E-02-1.53415E+00-2.04468E-13-3.32905E-13
 -1      3169 2.41400E+01-2.56154E+00-3.41335E-02-4.56419E-01-1.73804E-13-6.01228E-13
 -1      3170 2.46241E+01-9.62794E-01-3.60651E-02-2.10695E+00-2.47521E-13-1.62858E-13
 -1      3171 2.45846E+01-9.42319E-02-2.60066E-02-2.31247E+00-2.18672E-13-1.01551E-13
 -1      3172 2.50478E+01-1.66103E+00-9.73089E-03-1.65828E+00-1.44578E-13-2.75764E-13
 -1      3173 2.43648E+01 3.40153E+00-1.01629E-01-1.70701E+00-4.17930E-14-5.54474E-14
 -1      3174 2.42696E+01 3.95877E+00-5.25249E-02-9.55408E-01 7.79168E-14-1.17275E-13
 -1      3175 2.48760E+01 2.35452E+00-3.07020E-02 1.51690E+00-9.73041E-14 6.53991E-16
 -1      3176 2.50392E+01 1.13860E+00-7.40919E-02 1.74740E+00-1.73028E-13 3.39659E-14
 -1      3177 2.43970E+01-1.60236E+00-2.07296E-03 7.01781E-01 1.00646E-13-1.22270E-13
 -1      3178 2.41545E+01-1.99099E+00-8.73838E-03 2.46853E-01 8.05671E-14-8.81506E-14
 -1      3179 2.35978E+01-2.07370E+00-1.58771E-02-3.28556E-01-1.05657E-13-1.39060E-13
 -1      3180 2.32498E+01-1.96412E+00 1.32466E-02-7.38471E-01-9.11857E-15-2.02986E-13
 -1      3181 2.42762E+01-2.43611E+00-2.38003E-02-3.82442E-01 4.25354E-15 1.51005E-13
 -1      3182 2.26998E+01-1.73091E+00-1.52639E-02-1.04882E+00 2.13211E-13-2.96324E-13
 -1      3183 2.23216E+01-1.38270E+00 1.37406E-02-1.31256E+00 1.64909E-13-2.76186E-13
 -1      3184 2.22328E+01-1.40643E+00-1.23438E-03-1.66351E+00 1.24777E-13-2.36313E-13
 -1      3185 2.31907E+01-2.15697E+00-9.59310E-03-1.26532E+00-3.35895E-14-1.06234E-13
 -1      3186 1.99836E+01-4.60218E-02 2.67330E-04-1.74111E-01 4.19745E-14-5.94042E-14
 -1      3187 1.99830E+01-3.92762E-02 4.35169E-04-1.79055E-01 8.85936E-14-8.20551E-14
 -1      3188 1.99924E+01-2.95379E-02 1.28346E-04-1.80953E-01 7.47246E-14-1.21699E-13
 -1      3189 1.99961E+01-1.52465E-02 9.09072E-04-1.79852E-01 3.47680E-14-1.16220E-13
 -1      3190 2.00495E+01-3.64967E-02-7.52190E-04-1.75276E-01 4.34292E-14-9.63507E-14
 -1      3191 1.99806E+01-4.92391E-02 4.00170E-04-1.42963E-01 5.31382E-15-8.15546E-15
 -1      3192 1.99754E+01-5.12415E-02-9.49894E-05-1.51621E-01 1.18904E-14-4.18177E-14
 -1      3193 1.99836E+01-4.16603E-02 4.39485E-04-1.26852E-01-1.45589E-14-5.53899E-15
 -1      3194 1.99774E+01-4.62012E-02-2.29338E-04-1.34723E-01 2.54711E-14 1.43590E-14
 -1      3195 2.00148E+01-5.51361E-02-3.27936E-04-1.39922E-01-1.87295E-15-4.57080E-14
 -1      3196 1.99886E+01-3.00891E-02 4.80373E-04-1.14015E-01 1.21646E-14-5.34353E-14
 -1      3197 1.99817E+01-3.65508E-02-3.15651E-04-1.19956E-01-8.35266E-15-3.30493E-14
 -1      3198 2.00109E+01-4.52912E-02-2.51534E-04-1.25415E-01 1.50489E-14-1.14239E-14
 -1      3199 1.99953E+01-1.52427E-02 5.32985E-04-1.06376E-01 2.05443E-14-1.43731E-15
 -1      3200 1.99877E+01-2.33313E-02-3.75547E-04-1.09486E-01 1.62889E-14-3.04202E-14
 -1      3201 2.00094E+01-3.07813E-02-1.97004E-04-1.14482E-01 3.07597E-15 3.52759E-14
 -1      3202 2.00034E+01 2.68482E-03 6.05312E-04-1.05562E-01-3.91453E-15 8.21645E-14
 -1      3203 1.99950E+01-6.99107E-03-4.26244E-04-1.05055E-01 1.57868E-14 3.11978E-14
 -1      3204 2.00097E+01-1.23446E-02-1.58528E-04-1.09069E-01-9.68697E-15 4.60453E-14
 -1      3205 2.00131E+01 2.39074E-02 7.03500E-04-1.13113E-01 6.85250E-15 9.23380E-14
 -1      3206 2.00036E+01 1.24853E-02-4.81387E-04-1.08220E-01 2.88592E-14 7.86013E-14
 -1      3207 2.00115E+01 9.87661E-03-1.29726E-04-1.10849E-01-1.05732E-15 3.59687E-14
 -1      3208 2.00245E+01 4.89560E-02 8.32199E-04-1.30642E-01-1.37821E-15 1.38280E-13
 -1      3209 2.00135E+01 3.54752E-02-5.52459E-04-1.20535E-01 1.51104E-14 1.41385E-13
 -1      3210 2.00142E+01 3.61995E-02-1.03890E-04-1.21423E-01-2.17876E-14 2.70062E-15
 -1      3211 2.00376E+01 7.85968E-02 9.94435E-04-1.59946E-01 9.21567E-14 9.80607E-14
 -1      3212 2.00248E+01 6.26331E-02-6.49501E-04-1.43691E-01 7.43032E-14 1.24150E-13
 -1      3213 2.00174E+01 6.72934E-02-7.34194E-05-1.42462E-01 3.67232E-14 4.46414E-14
 -1      3214 2.00528E+01 1.13742E-01 1.19121E-03-2.03070E-01 2.08194E-14 1.25343E-13
 -1      3215 2.00375E+01 9.48071E-02-7.81625E-04-1.79596E-01 2.37671E-14 6.37839E-14
 -1      3216 2.00205E+01 1.04077E-01-2.92292E-05-1.75805E-01 4.43755E-14 6.90412E-14
 -1      3217 2.00698E+01 1.55329E-01 1.42096E-03-2.62322E-01 6.59988E-14 2.01841E-13
 -1      3218 2.00517E+01 1.32938E-01-9.57135E-04-2.30423E-01 6.48734E-14 1.82382E-13
 -1      3219 2.00227E+01 1.47602E-01 3.97237E-05-2.23508E-01 1.98947E-14 9.00862E-14
 -1      3220 2.00885E+01 2.04136E-01 1.67904E-03-3.40225E-01 2.07103E-13 1.89881E-13
 -1      3221 2.00670E+01 1.77914E-01-1.18298E-03-2.98597E-01 1.78166E-13 1.96398E-13
 -1      3222 2.00231E+01 1.98894E-01 1.46507E-04-2.87837E-01 1.31360E-13 1.64492E-13
 -1      3223 2.01083E+01 2.60469E-01 1.95775E-03-4.39390E-01 3.65247E-14 1.15657E-13
 -1      3224 2.00831E+01 2.30328E-01-1.46314E-03-3.86714E-01 1.35394E-13 1.55125E-13
 -1      3225 2.00200E+01 2.58700E-01 3.05261E-04-3.71208E-01 1.87936E-13 3.10227E-13
 -1      3226 2.01280E+01 3.23628E-01 2.24783E-03-5.62277E-01-1.53453E-15 3.96988E-14
 -1      3227 2.00989E+01 2.90074E-01-1.79509E-03-4.97381E-01 2.23663E-14 8.82275E-14
 -1      3228 2.00114E+01 3.27081E-01 5.28027E-04-4.76057E-01 3.94235E-14 2.33480E-13
 -1      3229 2.01464E+01 3.90993E-01 2.54298E-03-7.10827E-01-6.73537E-14-2.59534E-14
 -1      3230 2.01133E+01 3.55647E-01-2.16313E-03-6.32937E-01 5.82587E-15 4.17867E-14
 -1      3231 1.99946E+01 4.02718E-01 8.17202E-04-6.04649E-01 3.04632E-14 1.39088E-13
 -1      3232 2.01626E+01 4.56522E-01 2.85004E-03-8.85909E-01-7.81028E-14-6.07263E-14
 -1      3233 2.01251E+01 4.22969E-01-2.52659E-03-7.95050E-01-1.09191E-13-1.11830E-13
 -1      3234 1.99667E+01 4.81771E-01 1.14993E-03-7.58833E-01-2.91003E-14-2.27878E-15
 -1      3235 2.01773E+01 5.08344E-01 3.20753E-03-1.08658E+00-8.29501E-14-7.53117E-14
 -1      3236 2.01340E+01 4.83476E-01-2.80020E-03-9.84141E-01-5.75093E-14-4.10545E-14
 -1      3237 1.99253E+01 5.56025E-01 1.44878E-03-9.39801E-01-1.51169E-13 2.37286E-14
 -1      3238 2.01961E+01 5.25161E-01 3.71184E-03-1.30909E+00-5.49344E-14 1.50974E-15
 -1      3239 2.01429E+01 5.21156E-01-2.82081E-03-1.19864E+00-8.97129E-15-3.88210E-14
 -1      3240 1.98700E+01 6.10033E-01 1.53042E-03-1.14793E+00-9.05439E-14-3.96652E-14
 -1      3241 2.02347E+01 4.71296E-01 4.52096E-03-1.54557E+00-7.78648E-14 2.22509E-14
 -1      3242 2.01619E+01 5.08294E-01-2.28048E-03-1.43401E+00-4.37396E-14-2.94009E-15
 -1      3243 1.98061E+01 6.16904E-01 1.01704E-03-1.38281E+00-4.24709E-14 1.50877E-14
 -1      3244 2.03285E+01 2.91145E-01 5.75973E-03-1.78153E+00-1.76436E-13 2.68660E-14
 -1      3245 2.02164E+01 4.00081E-01-6.20042E-04-1.68102E+00-1.38572E-13-3.90719E-14
 -1      3246 1.97515E+01 5.32551E-01-8.07080E-04-1.64344E+00-7.04296E-14-1.71465E-13
 -1      3247 2.05466E+01-9.34471E-02 7.23353E-03-1.99024E+00-1.47228E-13-1.13365E-13
 -1      3248 2.03596E+01 1.29918E-01 3.13653E-03-1.92182E+00-1.16573E-13-6.85499E-14
 -1      3249 1.97478E+01 2.89315E-01-5.17966E-03-1.92712E+00-1.32423E-13-2.14536E-13
 -1      3250 2.10067E+01-7.72545E-01 8.18521E-03-2.11887E+00-1.23138E-13-1.70586E-13
 -1      3251 2.06903E+01-3.88358E-01 1.07793E-02-2.11977E+00-1.21229E-13-1.18798E-13
 -1      3252 1.98795E+01-2.07048E-01-1.38460E-02-2.22354E+00-9.44639E-14-2.64344E-13
 -1      3253 2.18753E+01-1.80146E+00 5.11301E-03-2.06071E+00-1.29171E-13-3.09949E-13
 -1      3254 2.13707E+01-1.23471E+00 2.58690E-02-2.19494E+00-1.54880E-13-2.77539E-13
 -1      3255 2.02984E+01-1.06385E+00-2.77653E-02-2.49359E+00-1.06279E-13-2.15464E-13
 -1      3256 2.33034E+01-3.07522E+00 8.12803E-03-1.63144E+00 1.68372E-14-4.72449E-13
 -1      3257 2.26261E+01-2.37345E+00 6.12736E-02-1.96947E+00-1.09576E-13-4.46190E-13
 -1      3258 2.12566E+01-2.34529E+00-4.42158E-02-2.61802E+00-7.27387E-14-5.71893E-13
 -1      3259 2.63186E+01-4.11573E+00-1.17356E-02-1.39759E-01-1.38322E-13-4.00461E-13
 -1      3260 2.51574E+01-4.05333E+00 2.24824E-02-1.06218E+00-1.93769E-14-3.75136E-13
 -1      3261 2.73916E+01-3.09219E+00-2.78009E-02 1.03957E+00-2.66037E-13-1.81952E-13
 -1      3262 2.59668E+01 4.09213E+00-1.57097E-01-1.54668E-01-1.25261E-13-3.44879E-13
 -1      3263 2.36683E+01-2.86042E+00 5.70686E-02 2.36540E+00 3.12921E-13-4.99107E-13
 -1      3264 2.44540E+01-3.43604E+00 1.40915E-03 1.83146E+00 4.63726E-13-4.47370E-13
 -1      3265 2.21108E+01-1.53906E+00 4.06397E-02 2.87370E+00-1.32624E-14-4.09955E-13
 -1      3266 2.27150E+01-2.23227E+00-8.64646E-05 2.63942E+00 1.48406E-13-5.71267E-13
 -1      3267 2.26159E+01-2.87560E+00-2.50686E-02 3.25476E+00 2.52723E-13-4.68828E-13
 -1      3268 2.11746E+01-5.99329E-01 2.79224E-02 3.07214E+00 8.98851E-14-4.32956E-13
 -1      3269 2.15900E+01-1.12417E+00 7.84182E-04 2.96060E+00-8.06226E-14-2.76289E-13
 -1      3270 2.13369E+01-1.51056E+00-1.14545E-02 3.41158E+00-1.40547E-13-5.62731E-13
 -1      3271 2.05338E+01-4.86777E-01-2.08218E-02 3.38185E+00 1.22210E-13-4.74952E-13
 -1      3272 1.86399E+01-1.18310E-01 5.78642E-02-3.74837E+00 2.29077E-13 7.97288E-13
 -1      3273 1.74754E+01 2.56148E-01-3.54480E-02-3.43774E+00 2.64052E-13 7.03096E-13
 -1      3274 2.67721E+01 2.46065E+00-1.85440E-01-2.58660E+00-4.74620E-14-5.24442E-14
 -1      3275 2.77609E+01 7.68438E-01-2.10689E-02-2.52080E+00-3.46320E-14 1.28370E-13
 -1      3276 1.64038E+01 9.82981E-01 6.62265E-02-2.69867E+00 1.63518E-13 4.52301E-13
 -1      3277 1.55396E+01 1.24414E+00-1.64833E-02-1.86336E+00 1.45929E-14 4.04458E-13
 -1      3278 1.62736E+01 2.55390E-02 7.18482E-03-3.54718E+00 9.05040E-14 7.39721E-13
 -1      3279 1.04042E+01-9.72918E-01 1.78551E-01-3.31105E+00-1.73056E-14 7.74991E-13
 -1      3280 2.02761E+01 1.35631E+00-1.37152E-03-7.97348E-01-1.47643E-13-2.88835E-13
 -1      3281 2.02525E+01 9.59255E-01-5.43054E-03-5.10570E-01-1.19035E-13-2.58940E-13
 -1      3282 2.89879E+01 8.36384E-01-1.55913E-01-2.08896E+00 9.31200E-15-4.22468E-13
 -1      3283 2.79924E+01-5.70211E-01-5.46306E-02-1.78296E+00 1.58713E-13-3.38556E-13
 -1      3284 2.16124E+01-4.74876E+00-3.29880E-03 4.28303E+00 6.26721E-14 1.74180E-13
 -1      3285 1.91723E+01-4.01471E+00 6.32575E-02 4.98479E+00-6.95832E-14-1.40860E-15
 -1      3286 2.02168E+01 1.78098E+00 7.34262E-03-9.25305E-01-1.46203E-13-3.18841E-13
 -1      3287 1.58870E+01-3.01972E+00 1.32870E-02 5.34725E+00-1.17240E-13 1.50130E-13
 -1      3288 1.28942E+01-1.66481E+00 1.43498E-01 4.76136E+00-2.17049E-13 2.10540E-13
 -1      3289 2.06231E+01-9.65559E-01 3.82823E-02-3.56331E+00 1.99719E-13-5.72524E-14
 -1      3290 1.97087E+01-6.61633E-01-1.17666E-02-3.70603E+00 2.55204E-13 3.21953E-13
 -1      3291 1.91055E+01-1.15617E+00-5.82799E-03-4.13737E+00 1.79738E-13 4.97082E-13
 -1      3292 2.17344E+01-1.29693E+00 1.71281E-02-2.70519E+00 4.07874E-13 1.23304E-13
 -1      3293 2.12821E+01-1.17603E+00 1.10825E-04-3.09547E+00 2.82845E-13 3.04600E-14
 -1      3294 2.11919E+01-1.79552E+00-1.99622E-02-3.52111E+00 1.77065E-13 7.74871E-14
 -1      3295 2.02726E+01-4.34373E+00 1.33933E-01-5.81411E+00 4.35423E-13 7.10418E-13
 -1      3296 2.28505E+01-5.30250E+00-8.11177E-02-5.06852E+00 4.11886E-13 2.26612E-13
 -1      3297 2.75122E+01-2.22359E+00-1.39889E-01-1.19432E+00 2.97984E-13-3.33518E-13
 -1      3298 2.76861E+01-2.70108E+00 7.04592E-02 1.09631E-01 1.71911E-14-3.04652E-13
 -1      3299 2.75195E+01-1.10535E+00-1.32281E-01 1.15314E+00-1.74447E-13-2.41585E-13
 -1      3300 1.99802E+01-5.14434E-02 3.49097E-04-1.59853E-01 2.24800E-14-6.88862E-14
 -1      3301 1.99768E+01-4.98720E-02 1.14668E-04-1.67744E-01 3.85806E-14-5.46768E-14
 -1      3302 2.00331E+01-5.38755E-02-5.72922E-04-1.68849E-01 1.40764E-14-8.61809E-14
 -1      3303 2.00219E+01-5.88232E-02-4.33188E-04-1.55518E-01 1.17830E-14-5.89022E-14
 -1      3304 1.45495E+01-2.09281E+00 1.37841E-01-5.54008E+00 2.81782E-13 9.65117E-13
 -1      3305 1.71078E+01-3.50624E+00-1.70503E-02-6.21837E+00 3.49845E-13 8.95645E-13
 -1      3306 2.00726E+01 1.50118E-01-1.12926E-03-7.56646E-02 1.06775E-13-6.70303E-14
 -1      3307 2.01051E+01 2.15401E-01 3.66397E-03-2.22905E-02 1.15009E-13-4.07637E-14
 -1      3308 1.07441E+01-7.91724E-01 1.81916E-02 3.57252E+00-1.99292E-13 2.03060E-13
 -1      3309 9.69226E+00-1.14751E-01 1.19612E-01 1.95318E+00-1.15108E-13 4.35221E-13
 -1      3310 2.64374E+01 4.70499E+00-9.43077E-02 1.08546E+00 9.80604E-14-1.94539E-13
 -1      3311 2.63512E+01 5.38085E+00-1.62035E-01 7.92510E-02 2.52187E-13-8.41271E-14
 -1      3312 2.02722E+01 7.15306E-01 5.89327E-03-3.47074E-01-1.18310E-13-2.17758E-13
 -1      3313 2.02266E+01 5.49479E-01-3.95704E-03-2.15467E-01-1.20712E-13-2.19066E-13
 -1      3314 2.02727E+01 5.78865E-01-3.44385E-04-1.90020E-01-1.04118E-13-2.17467E-13
 -1      3315 2.02912E+01 9.88751E-01-4.16719E-04 6.90610E-01 2.14979E-13-9.56942E-14
 -1      3316 2.02673E+01 1.30654E+00 2.94222E-03 7.71655E-01 2.24724E-13-1.22001E-13
 -1      3317 2.02707E+01 1.12657E+00-1.19421E-04 5.93989E-01 1.98753E-13-1.40060E-13
 -1      3318 2.02317E+01 7.75557E-01-3.89342E-03 4.85456E-01 1.84101E-13-7.52161E-14
 -1      3319 1.51581E+01-2.84705E+00 3.34177E-02 5.92773E+00 4.90614E-13-5.41983E-13
 -1      3320 1.24922E+01-1.52507E+00 2.17897E-01 4.97369E+00 1.56611E-14-6.20601E-13
 -1      3321 2.78043E+01-1.27301E+00-1.40997E-01-1.62849E+00-1.50151E-13 3.46737E-13
 -1      3322 2.74978E+01-2.98297E+00-2.84242E-03-2.99630E-01-7.24212E-14 1.84838E-13
 -1      3323 2.00456E+01 2.15996E+00-4.26193E-03 2.92757E-01 1.55220E-13-3.03314E-13
 -1      3324 2.00322E+01 2.19891E+00-3.31017E-03 1.70991E-01 1.10396E-13-3.21497E-13
 -1      3325 2.36261E+01-4.23087E+00-1.13902E-02-2.32430E+00-5.95531E-14-4.95021E-13
 -1      3326 1.09315E+01-3.76688E-02 1.08271E-01-2.06417E+00-1.79752E-14 5.81341E-13
 -1      3327 1.23466E+01-1.02225E+00 6.99299E-02-4.37480E+00 8.92966E-14 1.04439E-12
 -1      3328 2.71507E+01-3.48602E+00-2.09667E-02 2.02928E-01 4.40082E-13-3.13135E-13
 -1      3329 2.62364E+01-3.96380E+00-7.87457E-04 1.10518E+00 5.18073E-13-3.76182E-13
 -1      3330 2.52057E+01-4.45480E+00-4.10542E-02 2.51020E+00 5.05800E-13-2.50737E-13
 -1      3331 2.00251E+01 2.21765E+00-3.66569E-03 6.59963E-02 9.31130E-14-3.00586E-13
 -1      3332 2.00247E+01 2.21854E+00-3.62621E-03-5.81363E-02 4.90267E-14-3.07517E-13
 -1      3333 2.01393E+01 1.92182E+00 4.99878E-03 1.01617E-01 9.14215E-14-2.93506E-13
 -1      3334 1.73545E+01-2.98368E+00 1.23141E-01 5.84031E+00 4.95964E-13-2.20962E-13
 -1      3335 1.64274E+01-1.86703E+00 6.05616E-02 5.21100E+00 3.81761E-13-1.60594E-13
 -1      3336 1.91464E+01-3.15448E+00 2.97343E-02 5.28795E+00 5.45321E-13-2.74246E-13
 -1      3337 1.12856E+01 1.63044E-01 9.37576E-02-1.63305E+00 3.03889E-14-1.56090E-13
 -1      3338 1.04404E+01-3.55421E-01 1.26347E-01-2.41435E+00-1.49811E-14-2.56628E-13
 -1      3339 1.17393E+01-7.59884E-01 1.01908E-02-3.25557E+00-1.18586E-14-4.87527E-13
 -1      3340 2.00084E+01 3.07026E-03-1.06666E-04-1.73648E-01 5.71355E-14-1.29966E-13
 -1      3341 2.00189E+01 2.83736E-02 1.58508E-03-1.62115E-01 9.29037E-14-8.72402E-14
 -1      3342 2.00725E+01-1.09215E-03-9.68181E-04-1.68326E-01 6.90238E-14-1.45718E-13
 -1      3343 2.65818E+01-3.44745E+00-4.48604E-04-7.54671E-01 1.27769E-13-2.47066E-13
 -1      3344 2.53903E+01 4.68319E+00-9.58380E-02-4.55352E-01 1.76109E-13-4.90810E-14
 -1      3345 2.40280E+01 3.81560E+00-4.81829E-02 3.63571E-02 1.52427E-13-1.92307E-14
 -1      3346 2.58793E+01 8.50555E-02-5.88650E-02-2.47953E+00-1.91187E-13-2.18159E-14
 -1      3347 2.50220E+01 7.93430E-01-6.54996E-02-2.58868E+00-1.72879E-13-1.18459E-13
 -1      3348 2.48384E+01 2.00093E+00-2.55718E-02-2.38394E+00-1.58942E-13-2.10131E-13
 -1      3349 2.61170E+01 5.24788E-01-5.23366E-02 1.78585E+00-2.18586E-13 1.29612E-13
 -1      3350 2.46977E+01 3.17453E-02-6.50956E-03 1.53185E+00-2.86859E-13 9.63118E-15
 -1      3351 2.47024E+01-9.07122E-01-4.63228E-02 1.32414E+00-1.45160E-13-1.39001E-13
 -1      3352 2.70171E+01-4.12754E-01-7.13079E-02 1.54292E+00-2.59050E-13-1.55743E-13
 -1      3353 2.40914E+01 3.33033E+00-9.22798E-02 7.64590E-01 1.10301E-13-1.45932E-13
 -1      3354 1.94250E+01-3.42586E+00 7.88431E-02-5.47147E+00 3.10085E-13 7.06421E-13
 -1      3355 2.00344E+01 5.92385E-02-4.97891E-04-1.42832E-01 7.84993E-14-6.67138E-14
 -1      3356 2.00543E+01 1.00690E-01 2.51257E-03-1.14696E-01 8.51938E-14-6.70468E-14
 -1      3357 2.01035E+01 6.04785E-02-1.19605E-03-1.39119E-01 9.68430E-14-1.52007E-13
 -1      3358 2.02538E+01 1.46232E+00 7.07816E-03 5.88124E-01 1.85653E-13-2.12916E-13
 -1      3359 2.01589E+01 1.80101E+00-6.94022E-03 6.86007E-01 2.01731E-13-2.46552E-13
 -1      3360 2.01239E+01 1.92969E+00-2.70821E-03 5.91144E-01 1.89095E-13-2.67159E-13
 -1      3361 1.45652E+01-1.11959E+00 7.02898E-02-4.48927E+00 9.45216E-14 8.62255E-13
 -1      3362 1.30953E+01-8.96185E-01 1.26938E-01 3.76195E+00-2.01918E-13 2.24841E-13
 -1      3363 2.85947E+01-1.49285E+00 4.53172E-02 2.45442E+00-2.27394E-13-1.26343E-13
 -1      3364 2.59314E+01 3.38057E+00-7.14545E-02 1.35000E+00 8.41688E-14-1.96926E-14
 -1      3365 1.55371E+01 1.30056E+00-1.53132E-02 1.89337E+00-1.33118E-14-2.02477E-14
 -1      3366 1.63928E+01 1.04795E+00 5.80547E-02 2.73276E+00 7.89416E-14-3.82267E-13
 -1      3367 2.66766E+01-3.84289E+00-3.63749E-02 4.09849E-01 2.86299E-14 2.15578E-13
 -1      3368 2.55349E+01-4.12613E+00 3.66051E-02 1.11697E+00-1.17094E-16 2.81150E-13
 -1      3369 2.64384E+01-3.01962E+00-1.00041E-02-6.07948E-01 4.87978E-14 4.57898E-14
 -1      3370 2.69399E+01-6.32973E-01-5.24736E-02-2.04711E+00-1.54432E-13 3.51941E-14
 -1      3371 1.43749E+01 1.01692E+00 5.98195E-02-1.39721E+00 5.20721E-14 2.89258E-13
 -1      3372 1.50850E+01 1.55612E+00 1.99553E-02-5.08390E-01-9.81758E-14-7.70842E-14
 -1      3373 1.50733E+01 1.55760E+00 1.52880E-02 5.56693E-01-1.68730E-13 3.19328E-14
 -1      3374 1.73241E+01 4.71021E-01-3.74643E-02 3.35318E+00-2.31369E-14-3.11355E-13
 -1      3375 1.83290E+01 2.22318E-01 4.30766E-02 3.64823E+00 5.02116E-14-1.95548E-13
 -1      3376 1.62654E+01 2.65208E-01 3.31602E-02 3.43072E+00-5.53620E-14-1.53559E-13
 -1      3377 2.02031E+01 1.68062E+00 2.61860E-03-7.53255E-01-1.11373E-13-3.12105E-13
 -1      3378 2.62362E+01-1.28277E+00-1.14112E-02 1.10681E+00-2.03237E-13-3.49495E-14
 -1      3379 1.94482E+01-3.34473E+00 2.90523E-02 4.25322E+00-9.71896E-14 9.39526E-14
 -1      3380 1.79139E+01-3.26340E+00 7.92102E-02 5.01221E+00-6.58848E-14-5.41858E-14
 -1      3381 1.65420E+01-2.29678E+00 2.56239E-02 4.60888E+00-1.77833E-13 1.08739E-13
 -1      3382 1.07603E+01 2.54794E-01 1.19396E-01 9.57332E-01-4.41886E-14 2.99406E-13
 -1      3383 2.39518E+01-4.68553E+00 2.33463E-02-3.86668E+00 3.11674E-13-2.73719E-13
 -1      3384 2.01241E+01 2.93213E-01-1.98279E-03 4.47730E-02 1.02323E-13-3.16006E-14
 -1      3385 2.01690E+01 3.94540E-01 4.32004E-03 1.35064E-01 1.35991E-13-3.55563E-14
 -1      3386 2.01898E+01 3.15186E-01-1.52100E-03 3.70304E-02 1.13767E-13-1.25209E-13
 -1      3387 2.01429E+01 1.60158E-01-1.38251E-03-7.57374E-02 1.03695E-13-1.51821E-13
 -1      3388 2.29318E+01-4.73603E+00 5.83052E-02 3.50439E+00 1.21538E-13 2.33945E-13
 -1      3389 2.19175E+01-4.23805E+00 2.41185E-02 3.61794E+00-2.87687E-14 3.03663E-13
 -1      3390 2.39279E+01-4.75424E+00-6.98365E-02 2.63720E+00 9.50871E-14 3.31051E-13
 -1      3391 2.53661E+01-1.63197E+00-5.11544E-03 8.76881E-01-2.95371E-14-5.24164E-14
 -1      3392 1.46401E+01-2.55840E+00 1.12250E-01-4.80708E+00-5.12854E-14-2.28470E-13
 -1      3393 2.01759E+01 4.86307E-01-2.75230E-03 2.21968E-01 1.55409E-13-5.01247E-14
 -1      3394 2.02312E+01 6.34892E-01 3.84349E-03 3.61237E-01 1.66030E-13-7.06276E-14
 -1      3395 2.02604E+01 7.94035E-01 1.20188E-03 4.22161E-01 1.68774E-13-9.79273E-14
 -1      3396 2.02298E+01 5.24751E-01-7.24837E-04 2.00956E-01 1.32049E-13-8.21064E-14
 -1      3397 2.02818E+01 9.99720E-01 5.86972E-04-4.54534E-01-1.01582E-13-2.67769E-13
 -1      3398 2.00631E+01 2.11079E+00-2.97722E-03-3.83666E-01-1.29366E-14-3.41321E-13
 -1      3399 2.00873E+01 2.03261E+00-5.35556E-03-4.98277E-01-4.10793E-14-3.49311E-13
 -1      3400 2.00901E+01 2.02348E+00-5.84988E-03 5.03860E-01 2.00087E-13-2.77440E-13
 -1      3401 2.00649E+01 2.10467E+00-3.23281E-03 3.91776E-01 1.74299E-13-2.88328E-13
 -1      3402 2.01623E+01 1.84839E+00 5.93155E-03 2.92423E-01 1.55104E-13-2.73305E-13
 -1      3403 2.02083E+01 1.69524E+00 7.66145E-03 4.62528E-01 1.68032E-13-2.74536E-13
 -1      3404 2.01967E+01 1.70340E+00 4.78914E-03-4.53439E-01-5.01547E-14-3.02992E-13
 -1      3405 2.01202E+01 1.94084E+00-2.33281E-03-5.83733E-01-5.87788E-14-3.21948E-13
 -1      3406 2.01495E+01 1.81558E+00-8.02996E-03-6.82364E-01-9.05357E-14-3.21873E-13
 -1      3407 1.24135E+01-6.93839E-01 1.44611E-01 3.62286E+00-7.94712E-14-2.59862E-13
 -1      3408 1.93774E+01-3.75094E+00 5.18366E-02-4.43416E+00-7.91311E-14-3.06449E-13
 -1      3409 2.09890E+01-4.48350E+00 1.17058E-01-4.26600E+00-1.44273E-13-4.52829E-13
 -1      3410 2.21761E+01-1.43677E+00 1.67280E-02-2.01173E+00 2.09608E-13-5.90112E-14
 -1      3411 2.19345E+01-1.34049E+00 3.53753E-03-2.36115E+00 2.99813E-13 1.31867E-13
 -1      3412 2.22088E+01-1.94791E+00-1.02314E-02-2.63173E+00 2.74262E-13 3.84757E-14
 -1      3413 2.26023E+01-1.91805E+00-7.48410E-03-1.90641E+00 4.55818E-14-1.35438E-13
 -1      3414 2.38150E+01-4.55113E+00 7.85570E-02 3.76677E+00 5.74285E-13-3.68443E-13
 -1      3415 2.22354E+01-3.94959E+00 2.82933E-02 4.30494E+00 5.70981E-13-5.30510E-13
 -1      3416 1.12572E+01 4.33459E-01 2.13324E-02 5.27901E-01-2.91387E-13-4.97935E-14
 -1      3417 1.10373E+01 3.99074E-01 1.55076E-01-7.79703E-01-1.71044E-13 1.19599E-13
 -1      3418 2.62618E+01-1.48535E+00-1.74480E-02-1.78558E+00-1.71297E-13 5.26419E-14
 -1      3419 2.61433E+01 3.10589E+00-7.38271E-02-2.32655E+00-2.51882E-14-2.05641E-13
 -1      3420 2.02675E+01 2.36473E-01 2.15003E-03 3.87259E-02-9.28696E-14-1.18003E-13
 -1      3421 2.02429E+01 1.61241E-01-1.28882E-03 7.94802E-02-7.60199E-14-1.00907E-13
 -1      3422 2.02282E+01 1.02535E-01 1.61455E-03 1.05578E-01-8.48353E-14-1.26903E-13
 -1      3423 2.02067E+01 5.40119E-02-6.51899E-04 1.27424E-01-5.13736E-14-1.31655E-13
 -1      3424 2.02847E+01 1.58818E-01-4.33183E-04 7.58818E-02-8.98450E-14-9.00599E-14
 -1      3425 2.01893E+01 1.71912E-02 1.12106E-03 1.39782E-01-4.06536E-14-1.39348E-13
 -1      3426 2.01717E+01-1.22523E-02-2.08392E-04 1.48727E-01-2.97816E-14-1.70601E-13
 -1      3427 2.02471E+01 4.86198E-02-5.94184E-04 1.17398E-01-6.58815E-14-1.04934E-13
 -1      3428 2.01539E+01-3.35932E-02 7.19725E-04 1.51920E-01 9.80588E-15-1.74405E-13
 -1      3429 2.01399E+01-4.95588E-02 8.17566E-05 1.52657E-01 3.62039E-14-1.33337E-13
 -1      3430 2.02087E+01-1.90944E-02-6.28502E-04 1.35670E-01-1.19802E-14-1.18543E-13
 -1      3431 2.01232E+01-6.00234E-02 4.09136E-04 1.50260E-01 4.90824E-14-1.06235E-13
 -1      3432 2.01125E+01-6.65315E-02 2.62394E-04 1.46308E-01 5.48784E-14-7.02422E-14
 -1      3433 2.01727E+01-5.65525E-02-5.99393E-04 1.38789E-01 5.62254E-14-6.28069E-14
 -1      3434 2.00974E+01-6.93841E-02 1.75587E-04 1.41009E-01 5.77331E-15-7.50707E-14
 -1      3435 2.00894E+01-6.92650E-02 3.70041E-04 1.34947E-01-3.22629E-14-5.66307E-14
 -1      3436 2.01405E+01-7.26403E-02-5.37244E-04 1.33025E-01 2.09757E-14-6.26432E-14
 -1      3437 2.00761E+01-6.67624E-02 6.61130E-07 1.28730E-01-6.79417E-14-7.86498E-14
 -1      3438 2.00704E+01-6.19411E-02 4.32764E-04 1.22436E-01-6.18986E-14-1.02463E-13
 -1      3439 2.01125E+01-7.36673E-02-4.57541E-04 1.23079E-01-4.49704E-14-1.46031E-13
 -1      3440 2.00587E+01-5.55822E-02-1.34001E-04 1.16761E-01-4.77642E-14-9.26296E-14
 -1      3441 2.00547E+01-4.72987E-02 4.70063E-04 1.11619E-01-5.92281E-14-1.02964E-13
 -1      3442 2.00884E+01-6.39639E-02-3.70604E-04 1.12438E-01-5.27837E-14-1.09666E-13
 -1      3443 2.00444E+01-3.80090E-02-2.45078E-04 1.07583E-01-6.48225E-14-3.51976E-14
 -1      3444 2.00418E+01-2.69832E-02 4.96497E-04 1.04648E-01-8.18933E-14 1.46048E-14
 -1      3445 2.00678E+01-4.63393E-02-2.79641E-04 1.03697E-01-1.61999E-14-2.66931E-14
 -1      3446 2.00323E+01-1.52553E-02-3.46890E-04 1.03116E-01-8.69130E-14 2.54931E-14
 -1      3447 2.00306E+01-1.81829E-03 5.22643E-04 1.03247E-01-9.67031E-14 6.85209E-14
 -1      3448 2.00496E+01-2.24518E-02-1.85746E-04 9.88485E-02-7.62185E-14 2.93863E-14
 -1      3449 2.00214E+01 1.21707E-02-4.50892E-04 1.04963E-01-1.54284E-13 1.24942E-13
 -1      3450 2.00203E+01 2.79622E-02 5.56016E-04 1.08922E-01-1.29058E-13 1.80527E-13
 -1      3451 2.00329E+01 6.90579E-03-8.81508E-05 9.95208E-02-6.19525E-14 6.32774E-14
 -1      3452 2.00106E+01 4.42439E-02-5.65848E-04 1.14588E-01-1.31252E-13 1.75874E-13
 -1      3453 2.00098E+01 6.24979E-02 6.01657E-04 1.23110E-01-5.43235E-14 1.29955E-13
 -1      3454 2.00162E+01 4.15517E-02 1.52174E-05 1.07168E-01-1.07207E-13 1.13360E-13
 -1      3455 1.99989E+01 8.12059E-02-6.97927E-04 1.33445E-01-1.73458E-14 1.22157E-13
 -1      3456 1.99980E+01 1.02082E-01 6.62800E-04 1.47279E-01-3.67549E-14 3.71475E-14
 -1      3457 1.99983E+01 8.16726E-02 1.26662E-04 1.23206E-01-7.79634E-14 1.70731E-13
 -1      3458 1.99851E+01 1.23333E-01-8.50316E-04 1.63052E-01-7.87641E-14 3.22237E-14
 -1      3459 1.99838E+01 1.46906E-01 7.41554E-04 1.82968E-01-1.01046E-13 1.50164E-15
 -1      3460 1.99774E+01 1.27571E-01 2.47646E-04 1.49107E-01-7.42898E-14 8.08704E-14
 -1      3461 1.99680E+01 1.70655E-01-1.02241E-03 2.05012E-01-4.82532E-14-5.28997E-15
 -1      3462 1.99661E+01 1.96754E-01 8.39788E-04 2.31788E-01-9.35070E-15 3.95937E-15
 -1      3463 1.99520E+01 1.79377E-01 3.77373E-04 1.86445E-01-6.81178E-14-3.08696E-15
 -1      3464 1.99465E+01 2.22608E-01-1.20846E-03 2.60989E-01-1.64781E-14 4.47672E-14
 -1      3465 1.99439E+01 2.50591E-01 9.60523E-04 2.95359E-01 5.24433E-14-2.55559E-14
 -1      3466 1.99204E+01 2.36681E-01 5.10714E-04 2.36910E-01-2.85234E-14 2.17846E-14
 -1      3467 1.99199E+01 2.77556E-01-1.39558E-03 3.32633E-01 6.01452E-14-9.41633E-14
 -1      3468 1.99167E+01 3.06025E-01 1.11021E-03 3.75199E-01 2.14474E-15-8.06507E-14
 -1      3469 1.98811E+01 2.98076E-01 6.35093E-04 3.02287E-01-8.35086E-16 2.22562E-14
 -1      3470 1.98881E+01 3.32186E-01-1.56072E-03 4.21445E-01-2.54041E-14-8.12396E-14
 -1      3471 1.98849E+01 3.58606E-01 1.30222E-03 4.72558E-01-5.45140E-14-1.90220E-13
 -1      3472 1.98331E+01 3.60539E-01 7.25803E-04 3.84406E-01-2.62827E-14-7.60735E-14
 -1      3473 1.98520E+01 3.80695E-01-1.66609E-03 5.28605E-01-5.17491E-14-1.56865E-13
 -1      3474 1.98504E+01 4.00917E-01 1.56151E-03 5.88198E-01 8.05196E-15-9.36794E-14
 -1      3475 1.97763E+01 4.18652E-01 7.38974E-04 4.85085E-01-1.51742E-14-1.31491E-13
 -1      3476 1.98150E+01 4.13793E-01-1.65170E-03 6.54736E-01 6.15711E-14-5.92544E-14
 -1      3477 1.98180E+01 4.21469E-01 1.92907E-03 7.22118E-01 7.89885E-14 5.97914E-14
 -1      3478 1.97124E+01 4.63593E-01 6.00900E-04 6.06076E-01 4.08311E-14 1.81960E-14
 -1      3479 1.97839E+01 4.17509E-01-1.42288E-03 7.99603E-01 7.51032E-14 2.34994E-14
 -1      3480 1.97970E+01 4.03460E-01 2.46220E-03 8.73154E-01 1.01946E-13-4.70822E-14
 -1      3481 1.96464E+01 4.81939E-01 1.91763E-04 7.49018E-01 7.89848E-14 1.37755E-13
 -1      3482 1.97713E+01 3.71969E-01-8.28149E-04 9.61619E-01 6.04767E-14-1.31560E-13
 -1      3483 1.98038E+01 3.23606E-01 3.22067E-03 1.03832E+00 5.11407E-14-1.12095E-14
 -1      3484 1.95879E+01 4.54292E-01-6.78359E-04 9.15332E-01 5.47873E-14-4.28678E-14
 -1      3485 1.97991E+01 2.50445E-01 3.80754E-04 1.13690E+00 6.70636E-14 6.90832E-14
 -1      3486 1.98653E+01 1.51525E-01 4.21099E-03 1.21144E+00 5.77652E-14 1.26946E-13
 -1      3487 1.95550E+01 3.53947E-01-2.30637E-03 1.10584E+00 8.53039E-14-6.83818E-14
 -1      3488 1.99022E+01 1.94208E-02 2.61691E-03 1.31710E+00-5.70949E-14-1.39194E-14
 -1      3489 2.00233E+01-1.49315E-01 5.21263E-03 1.38005E+00-7.45293E-14-4.26879E-14
 -1      3490 1.95778E+01 1.45944E-01-5.15449E-03 1.31949E+00-2.14681E-14-7.53549E-14
 -1      3491 2.01348E+01-3.58670E-01 6.53960E-03 1.48413E+00-1.12097E-13-6.24245E-14
 -1      3492 2.03382E+01-6.15709E-01 5.61448E-03 1.51804E+00-7.70547E-14-1.01666E-13
 -1      3493 1.97050E+01-2.12815E-01-1.00139E-02 1.54936E+00-1.19350E-13-1.55663E-13
 -1      3494 2.05744E+01-9.15356E-01 1.32044E-02 1.59933E+00-1.07060E-13-1.50110E-13
 -1      3495 2.08905E+01-1.26706E+00 4.87558E-03 1.57173E+00-1.69028E-13-3.17980E-13
 -1      3496 2.00117E+01-7.67195E-01-1.76319E-02 1.77380E+00-1.76819E-13-2.11658E-13
 -1      3497 2.13184E+01-1.64844E+00 2.39351E-02 1.58381E+00-2.21681E-13-2.78494E-13
 -1      3498 2.17675E+01-2.06000E+00 2.25169E-03 1.43835E+00-2.26394E-13-2.97877E-13
 -1      3499 2.06099E+01-1.53349E+00-2.37167E-02 1.93645E+00-2.06187E-13-2.98927E-13
 -1      3500 2.24756E+01-2.46649E+00 3.85424E-02 1.29810E+00-2.67541E-13-2.74163E-13
 -1      3501 2.31138E+01-2.77637E+00 1.55625E-02 8.98754E-01-3.00404E-13-4.36335E-13
 -1      3502 2.16614E+01-2.44057E+00-1.89877E-02 1.87650E+00-3.02946E-13-2.85304E-13
 -1      3503 2.36103E+01-3.44092E+00 2.33474E-02 1.29761E+00-1.45609E-13-1.44921E-13
 -1      3504 2.43617E+01-3.50545E+00 2.42460E-03 7.70847E-01-7.45168E-14-1.09209E-13
 -1      3505 2.57386E+01-2.46020E+00-4.95122E-02-1.05156E+00-8.25559E-14-1.52966E-13
 -1      3506 2.01012E+01-4.34041E-02 8.71047E-05-1.63929E-01 4.97088E-15-6.93119E-14
 -1      3507 2.01125E+01-2.76515E-02 7.92739E-04-1.63086E-01 1.95971E-14-1.17654E-13
 -1      3508 2.00373E+01-4.67245E-02 4.78916E-04-1.18241E-01-4.90145E-14 2.69115E-14
 -1      3509 2.00383E+01-5.37993E-02-1.53483E-04-1.24282E-01-2.49184E-14 5.59898E-16
 -1      3510 2.00475E+01-5.90511E-02 4.37930E-04-1.30796E-01-7.98537E-15-5.28336E-14
 -1      3511 2.00502E+01-6.28978E-02-1.51718E-05-1.37916E-01-1.80366E-14-7.38317E-14
 -1      3512 2.00704E+01-6.23813E-02-3.65443E-04-1.22737E-01-3.66302E-14-9.41598E-15
 -1      3513 2.00240E+01-6.98148E-03 5.48081E-04-1.06354E-01-3.60300E-14-2.58995E-14
 -1      3514 2.00228E+01-1.88912E-02-3.56210E-04-1.07103E-01-4.76235E-15-2.44738E-14
 -1      3515 2.00196E+01 1.96507E-02 5.94036E-04-1.10473E-01-1.22497E-14-1.90279E-14
 -1      3516 2.00175E+01 5.42521E-03-4.52503E-04-1.07307E-01-8.25040E-15-1.87822E-14
 -1      3517 2.00298E+01 2.06360E-04-1.15740E-04-1.04739E-01-4.64471E-14-5.66194E-14
 -1      3518 2.00154E+01 5.11859E-02 6.54240E-04-1.23394E-01-1.94450E-14-6.61748E-14
 -1      3519 2.00128E+01 3.43744E-02-5.62433E-04-1.15504E-01-5.45018E-14-5.19860E-14
 -1      3520 2.00188E+01 3.18171E-02-2.61152E-05-1.11089E-01-1.15033E-14-1.11987E-13
 -1      3521 2.00105E+01 8.84117E-02 7.30430E-04-1.46739E-01 3.35043E-14-5.61832E-14
 -1      3522 2.00077E+01 6.85709E-02-6.96870E-04-1.33267E-01 2.97081E-14-6.03085E-14
 -1      3523 2.00069E+01 6.92373E-02 7.76100E-05-1.26195E-01-4.52312E-14-1.43611E-13
 -1      3524 2.00038E+01 1.32359E-01 8.21689E-04-1.82273E-01 6.07183E-15 6.18116E-14
 -1      3525 2.00010E+01 1.08937E-01-8.65637E-04-1.62278E-01 6.12698E-14 2.17232E-14
 -1      3526 1.99927E+01 1.13386E-01 2.04924E-04-1.51616E-01 1.35369E-16-5.44478E-14
 -1      3527 1.99935E+01 1.84158E-01 9.24425E-04-2.31930E-01-4.16025E-15 3.79686E-14
 -1      3528 1.99912E+01 1.56572E-01-1.07780E-03-2.04378E-01-1.75655E-14-9.85164E-16
 -1      3529 1.99741E+01 1.65410E-01 3.67676E-04-1.89016E-01 2.97857E-14-7.81252E-14
 -1      3530 1.99776E+01 2.44843E-01 1.03268E-03-2.97783E-01 9.32780E-14 9.62358E-14
 -1      3531 1.99764E+01 2.12586E-01-1.34170E-03-2.61572E-01 5.08467E-14-5.75892E-15
 -1      3532 1.99486E+01 2.26511E-01 5.80189E-04-2.40167E-01 4.59667E-14-6.46933E-14
 -1      3533 1.99535E+01 3.15057E-01 1.13949E-03-3.81973E-01 1.30531E-13 1.87766E-13
 -1      3534 1.99543E+01 2.77863E-01-1.66460E-03-3.35982E-01 1.20557E-13 1.99140E-13
 -1      3535 1.99133E+01 2.97697E-01 8.58935E-04-3.06912E-01 5.50708E-14-3.74601E-15
 -1      3536 1.99177E+01 3.94590E-01 1.24057E-03-4.86580E-01 1.56442E-14 1.91521E-13
 -1      3537 1.99217E+01 3.52694E-01-2.05203E-03-4.29752E-01 8.60598E-14 2.17666E-13
 -1      3538 1.98643E+01 3.79432E-01 1.22116E-03-3.91086E-01 8.27939E-14 1.73643E-13
 -1      3539 1.98661E+01 4.81626E-01 1.34240E-03-6.13485E-01 1.30403E-14 1.65143E-13
 -1      3540 1.98748E+01 4.36180E-01-2.50652E-03-5.44933E-01 3.26964E-14 1.66818E-13
 -1      3541 1.97967E+01 4.71083E-01 1.68146E-03-4.94435E-01 1.28689E-14 2.19857E-13
 -1      3542 1.97943E+01 5.71547E-01 1.47767E-03-7.64266E-01-1.05859E-13 1.74093E-13
 -1      3543 1.98091E+01 5.25284E-01-3.02547E-03-6.83378E-01-8.15778E-15 2.13221E-13
 -1      3544 1.97050E+01 5.70063E-01 2.24437E-03-6.18587E-01-5.41319E-14 2.06937E-13
 -1      3545 1.96983E+01 6.55053E-01 1.73075E-03-9.40266E-01-1.79074E-13 1.30089E-13
 -1      3546 1.97200E+01 6.13317E-01-3.59792E-03-8.46759E-01-1.62343E-13 1.21396E-13
 -1      3547 1.95830E+01 6.70503E-01 2.88962E-03-7.65216E-01-1.04574E-13 2.07250E-13
 -1      3548 1.95766E+01 7.15352E-01 2.28155E-03-1.14301E+00-5.05516E-14 9.94680E-14
 -1      3549 1.96039E+01 6.87613E-01-4.20068E-03-1.03685E+00-8.69090E-14 1.05978E-13
 -1      3550 1.94243E+01 7.61234E-01 3.54486E-03-9.36599E-01-7.09947E-14 1.95018E-13
 -1      3551 1.94341E+01 7.24124E-01 3.47834E-03-1.37529E+00 6.51559E-14-5.26454E-14
 -1      3552 1.94609E+01 7.26141E-01-4.78606E-03-1.25639E+00 1.06248E-14 1.97524E-14
 -1      3553 1.92245E+01 8.22911E-01 4.04643E-03-1.13694E+00 4.22072E-14 5.30219E-14
 -1      3554 1.92891E+01 6.35822E-01 5.88369E-03-1.64316E+00-1.34194E-14-1.37960E-13
 -1      3555 1.93000E+01 6.92746E-01-5.18347E-03-1.51088E+00 6.73063E-14-4.59601E-14
 -1      3556 1.89842E+01 8.23821E-01 4.06188E-03-1.37503E+00 7.31509E-14-3.25688E-14
 -1      3557 1.91858E+01 3.80343E-01 1.01762E-02-1.95737E+00-1.90247E-13-1.91803E-13
 -1      3558 1.91483E+01 5.30603E-01-4.89383E-03-1.81083E+00-1.02287E-13-1.67085E-13
 -1      3559 1.87150E+01 7.13469E-01 2.94463E-03-1.66867E+00-3.39475E-14-5.06819E-14
 -1      3560 1.92154E+01-1.42017E-01 1.73623E-02-2.32951E+00-9.84945E-14-1.97822E-13
 -1      3561 1.90688E+01 1.55384E-01-2.64661E-03-2.17158E+00-1.45275E-13-2.14019E-13
 -1      3562 1.84530E+01 4.13585E-01-4.83489E-04-2.04863E+00-1.13056E-13-2.11207E-13
 -1      3563 1.95404E+01-1.05823E+00 2.68021E-02-2.75214E+00-8.32971E-15-3.13162E-13
 -1      3564 1.91892E+01-5.49228E-01 4.51759E-03-2.60496E+00 2.65031E-14-9.88086E-14
 -1      3565 1.82799E+01-1.89410E-01-7.89070E-03-2.55771E+00-1.79828E-14-2.13452E-13
 -1      3566 2.03784E+01-2.54184E+00 1.13842E-02-3.16541E+00 5.83561E-15-4.58218E-13
 -1      3567 1.97519E+01-1.69379E+00 3.25744E-02-3.07821E+00 2.65318E-14-4.07842E-13
 -1      3568 1.83855E+01-1.24855E+00-1.10379E-02-3.22484E+00 7.92300E-14-2.82795E-13
 -1      3569 1.26184E+01 4.47125E-01 6.80504E-02-1.81321E+00 5.38480E-14 4.37532E-13
 -1      3570 2.22991E+01-2.55640E+00 1.76115E-02-3.31087E+00 1.44839E-13 1.15715E-13
 -1      3571 2.14126E+01-2.44696E+00-2.38048E-03-3.85400E+00 1.80820E-13-1.02538E-13
 -1      3572 1.42981E+01 9.93538E-01 1.80071E-02 1.45008E+00-6.52044E-14-6.44866E-14
 -1      3573 2.13576E+01-2.19496E+00 1.91409E-02 3.81688E+00 3.39711E-14-6.18249E-13
 -1      3574 2.22634E+01-3.10411E+00 7.35212E-03 3.71138E+00 3.99063E-13-4.70887E-13
 -1      3575 2.06904E+01-3.25253E+00 5.17022E-02 4.90299E+00 4.42705E-13-6.49895E-13
 -1      3576 2.09137E+01-1.66255E+00 2.45921E-02 3.85531E+00-2.63418E-15-7.03602E-13
 -1      3577 2.50096E+01-2.92182E+00 1.92714E-02-7.15052E-01 2.72399E-14 2.64927E-14
 -1      3578 2.43466E+01-2.98208E+00 2.81419E-02-1.33598E+00-3.34715E-15-6.37546E-14
 -1      3579 1.84645E+01-2.39024E+00 4.61744E-02-5.17646E+00 1.96497E-13 8.01241E-13
 -1      3580 2.08471E+01-3.49184E+00-1.71432E-02-4.92463E+00 2.86160E-13 3.30524E-13
 -1      3581 2.33584E+01-4.83330E+00-2.54733E-02-2.90508E+00-1.27634E-13-4.02272E-13
 -1      3582 2.57980E+01-2.34155E+00-8.39945E-02 4.80763E-01-1.62500E-14-9.15765E-14
 -1      3583 1.45771E+01-1.17582E+00 1.28451E-02 4.00316E+00-1.10878E-13 2.94105E-13
 -1      3584 1.29349E+01-1.73084E-01 5.91285E-02 2.93908E+00-1.22450E-13 2.28810E-13
 -1      3585 1.19104E+01 4.10751E-01 1.24665E-02 1.51184E+00 5.93484E-14 2.96020E-13
 -1      3586 1.15962E+01 5.95501E-01 5.68800E-02-6.37441E-02 1.27134E-13 2.37803E-13
 -1      3587 2.00310E+01 2.20121E+00-3.34670E-03-1.63117E-01 3.23217E-14-3.23368E-13
 -1      3588 2.00431E+01 2.16451E+00-4.28581E-03-2.84732E-01 5.98751E-16-3.32987E-13
 -1      3589 2.01592E+01 1.85160E+00 5.08611E-03-2.84983E-01-6.99828E-15-3.18206E-13
 -1      3590 2.00297E+01-2.91309E-02 5.12040E-04-1.09481E-01-4.48167E-15-5.65068E-15
 -1      3591 2.00294E+01-3.87591E-02-2.61148E-04-1.13330E-01-9.36590E-15-4.19565E-15
 -1      3592 2.00546E+01-4.72202E-02-2.80333E-04-1.12227E-01-2.13741E-14-2.53267E-14
 -1      3593 2.00414E+01-2.61345E-02-1.98627E-04-1.05639E-01 6.72000E-15-5.97364E-14
 -1      3594 2.01979E+01 1.60419E-01-1.28871E-03-8.04461E-02 1.06719E-13-1.70234E-13
 -1      3595 2.02247E+01 2.33321E-01 2.61097E-03-3.54856E-02 1.20796E-13-1.64451E-13
 -1      3596 1.40150E+01-1.37574E+00 1.17178E-01-4.09401E+00-1.05228E-14-2.49661E-13
 -1      3597 1.65106E+01-2.48702E+00 2.86831E-02-4.52933E+00-2.74017E-14-1.47105E-14
 -1      3598 2.24296E+01-3.74787E+00 8.56833E-02-4.26181E+00 2.67043E-13-2.58271E-13
 -1      3599 2.39067E+01-4.08016E+00-2.38190E-02-3.19317E+00 2.49607E-13-3.22865E-13
 -1      3600 2.03004E+01 4.38360E-01 2.45951E-03-7.31509E-02-7.99790E-14-1.80588E-13
 -1      3601 2.02756E+01 3.25954E-01-2.15188E-03-6.33198E-03-8.47742E-14-1.45234E-13
 -1      3602 2.03161E+01 3.27752E-01-9.18826E-05 1.51776E-03-6.43161E-14-1.33806E-13
 -1      3603 2.02485E+01 1.45517E+00 3.76365E-03-5.85696E-01-9.30027E-14-2.96922E-13
 -1      3604 2.02882E+01 9.27927E-01 1.26012E-03 4.65484E-01 1.62324E-13-1.22479E-13
 -1      3605 2.02777E+01 1.09873E+00-1.84162E-03 5.00120E-01 1.57833E-13-1.60599E-13
 -1      3606 2.02681E+01 7.67553E-01-2.34701E-03 3.34648E-01 1.38486E-13-1.16965E-13
 -1      3607 1.91582E+01-1.31610E-01-2.74574E-02 3.67005E+00 5.77752E-14-4.34331E-13
 -1      3608 1.99807E+01-3.30643E-01 2.81456E-02 3.61864E+00-5.42036E-15-5.67097E-13
 -1      3609 2.02164E+01-8.95157E-01-2.69025E-03 3.74314E+00-2.50312E-14-6.05977E-13
 -1      3610 1.85059E+01-5.08149E-01 1.00118E-02 4.01814E+00-1.60354E-13-2.69812E-13
 -1      3611 2.03128E+01 7.34513E-01 1.42480E-03-2.43294E-01-7.11262E-14-2.31629E-13
 -1      3612 2.02961E+01 5.72257E-01-2.91797E-03-1.42147E-01-6.90261E-14-2.08447E-13
 -1      3613 2.03317E+01 5.76098E-01 1.69626E-04-1.15785E-01-5.50893E-14-1.64830E-13
 -1      3614 2.02842E+01 1.19165E+00-1.27040E-03-4.83810E-01-7.30599E-14-2.94090E-13
 -1      3615 2.02934E+01 9.12483E-01-2.22340E-03-3.20436E-01-6.50119E-14-2.58069E-13
 -1      3616 2.03200E+01 9.15517E-01 1.69857E-03-2.67596E-01-3.65679E-14-2.18407E-13
 -1      3617 2.02615E+01 1.34747E+00 1.51121E-03-4.40520E-01-3.98423E-14-2.60585E-13
 -1      3618 2.55360E+01-3.36331E+00 2.14622E-02-9.72366E-01 5.72875E-14-1.11357E-13
 -1      3619 1.45868E+01-4.03208E-01 2.20356E-03 3.92042E+00 1.42365E-13-1.80835E-13
 -1      3620 1.29202E+01 5.14962E-01 1.33471E-01 2.28953E+00-1.34896E-13-1.45037E-13
 -1      3621 1.62417E+01-8.21872E-01 9.43879E-02 4.47700E+00 8.73936E-14-1.35503E-13
 -1      3622 1.94848E+01-2.29288E+00 1.27422E-02 4.75543E+00 1.51823E-13-4.99881E-13
 -1      3623 1.20130E+01 6.04724E-01 6.67073E-02-6.91732E-01 1.13806E-13 1.05645E-13
 -1      3624 1.26332E+01 4.11040E-01 2.75895E-03-1.58609E+00 9.21216E-14-1.91073E-13
 -1      3625 1.30834E+01 7.99816E-01 1.21814E-02-1.60128E-01 1.83398E-13 2.01625E-13
 -1      3626 2.01287E+01-6.90308E-03-2.01200E-04-1.58984E-01 4.11818E-14-1.32972E-13
 -1      3627 2.01445E+01 2.16752E-02 1.27021E-03-1.49128E-01 7.97350E-14-1.36550E-13
 -1      3628 2.01734E+01-1.30446E-02-7.16469E-04-1.48051E-01 2.80464E-14-1.45220E-13
 -1      3629 2.00611E+01-6.45611E-02 3.75124E-04-1.44834E-01 1.47508E-14-1.01542E-13
 -1      3630 2.00660E+01-6.40047E-02 1.73560E-04-1.51562E-01 3.29831E-14-9.36735E-14
 -1      3631 2.00897E+01-7.00355E-02-4.52324E-04-1.34994E-01-2.89218E-15-1.62032E-13
 -1      3632 2.53265E+01-2.89970E+00 3.22605E-02-5.05347E-01-1.64972E-14-2.08807E-13
 -1      3633 2.00865E+01-5.38807E-02 4.34573E-04-1.61609E-01 3.33255E-14-8.46302E-14
 -1      3634 2.01410E+01-5.05258E-02-6.28873E-04-1.52236E-01 3.42138E-14-1.38619E-13
 -1      3635 2.00788E+01-6.06724E-02 2.68678E-04-1.57277E-01 2.97286E-14-9.84228E-14
 -1      3636 1.74611E+01-1.84585E+00-4.71964E-03 3.84077E+00-1.53271E-14 1.01566E-13
 -1      3637 1.60520E+01-1.45622E+00 6.37736E-02 4.03856E+00-1.17898E-13 2.45914E-13
 -1      3638 1.57464E+01-7.64304E-01 8.97359E-03 3.38329E+00-6.09625E-14 2.11661E-13
 -1      3639 2.01613E+01 5.71062E-02-6.41680E-04-1.34584E-01 8.22420E-14-1.47995E-13
 -1      3640 2.01825E+01 1.03970E-01 1.87587E-03-1.10553E-01 8.42966E-14-1.62000E-13
 -1      3641 2.02096E+01 5.37048E-02-7.40661E-04-1.26421E-01 6.77682E-14-1.54663E-13
 -1      3642 2.36494E+01-2.69335E+00-6.99638E-03-1.57806E+00-1.12922E-13-1.41230E-13
 -1      3643 2.31104E+01-2.30862E+00 1.44075E-02-1.83846E+00-8.42451E-14-1.68252E-13
 -1      3644 2.29432E+01-2.39188E+00 1.54301E-03-2.23125E+00-6.07676E-14-8.30403E-14
 -1      3645 2.40474E+01-3.29830E+00-2.90194E-02-2.01348E+00-3.73486E-15-7.84507E-14
 -1      3646 2.02818E+01 3.28161E-01-4.80170E-04 7.70273E-03 1.17908E-13-2.09536E-13
 -1      3647 2.02350E+01 3.20599E-01-1.98138E-03 1.66866E-02 1.17802E-13-1.65654E-13
 -1      3648 2.02648E+01 4.29853E-01 2.85555E-03 9.09343E-02 1.01168E-13-1.60543E-13
 -1      3649 2.02034E+01 1.63865E+00-3.40117E-03 1.30890E-01 1.04429E-13-2.60833E-13
 -1      3650 2.01996E+01 1.65861E+00-2.64752E-03 4.00246E-02 7.17477E-14-2.77696E-13
 -1      3651 2.02647E+01 1.23033E+00-2.03538E-03 4.62650E-01 1.43915E-13-2.01208E-13
 -1      3652 1.37036E+01 8.83491E-01 7.04590E-02 1.24410E+00-1.41217E-13-2.18020E-14
 -1      3653 1.35985E+01 7.21671E-01 1.73236E-03-1.81263E+00 2.30545E-14 4.66731E-13
 -1      3654 1.40721E+01 4.77788E-01 1.46681E-01-2.95416E+00 7.84884E-14 9.13714E-13
 -1      3655 2.01386E+01 1.92327E+00 4.97029E-03-9.49953E-02 4.49285E-14-3.00199E-13
 -1      3656 2.46118E+01-4.13077E+00 2.33664E-03 1.47785E+00 6.88807E-14 1.76342E-13
 -1      3657 1.35062E+01 3.14621E-01 5.55327E-02 1.95233E+00 4.22882E-15 1.99604E-13
 -1      3658 2.08738E+01-3.55248E+00 6.41919E-02 3.71216E+00-1.69168E-13 3.24709E-13
 -1      3659 1.95006E+01-2.95425E+00-6.90830E-03 3.81674E+00-1.09168E-13 1.96185E-13
 -1      3660 2.02474E+01 1.61748E-01-6.66605E-04-7.81906E-02 8.67266E-14-1.74695E-13
 -1      3661 1.40655E+01-6.78238E-01 9.98097E-02-3.27918E+00-1.61607E-14-3.34812E-13
 -1      3662 2.03121E+01-1.92571E+00 6.82058E-02-4.36119E+00 3.00532E-13 3.21333E-13
 -1      3663 1.89134E+01-1.51079E+00 3.50028E-02-4.41589E+00 1.24147E-13 7.96288E-13
 -1      3664 2.02127E+01 1.60506E+00-2.06660E-03 2.01353E-01 1.22860E-13-2.74843E-13
 -1      3665 2.02863E+01 1.38466E+00 4.78519E-03 1.33725E-01 1.02192E-13-2.41292E-13
 -1      3666 2.02240E+01 1.54402E+00-4.76239E-03 2.87388E-01 1.42686E-13-2.80434E-13
 -1      3667 1.31975E+01 1.11806E+00 8.84163E-02-2.51525E-01-1.24834E-13-2.54588E-14
 -1      3668 2.18630E+01-3.74966E+00 2.04735E-02 3.06447E+00-1.29743E-13 3.47887E-13
 -1      3669 2.13023E+01-2.95776E+00-1.14623E-02-4.26384E+00 2.68389E-13-6.83273E-14
 -1      3670 2.02106E+01 1.60913E+00-2.16795E-03-1.97137E-01 3.11143E-14-2.85704E-13
 -1      3671 2.02206E+01 1.55241E+00-3.95427E-03-2.80107E-01 2.82115E-15-3.23811E-13
 -1      3672 1.72610E+01-1.35439E+00 7.09648E-02-4.85078E+00 1.89997E-13 7.86281E-13
 -1      3673 1.54682E+01-7.45468E-01 2.47444E-02-4.16097E+00 4.12656E-14 8.55122E-13
 -1      3674 1.72447E+01-1.67705E+00 1.39072E-02-3.80500E+00 2.70305E-14-7.75942E-14
 -1      3675 1.81789E+01-2.68271E+00 7.78713E-02-4.24905E+00 1.73160E-14-1.87905E-13
 -1      3676 2.02338E+01 1.50551E+00-8.73806E-04-3.31067E-01-2.66735E-15-3.28848E-13
 -1      3677 2.02482E+01 1.41113E+00-3.48665E-03-3.99969E-01-2.90690E-14-2.92685E-13
 -1      3678 2.02972E+01 1.17842E+00 1.17011E-03-3.13261E-01-4.18549E-15-2.74087E-13
 -1      3679 2.02952E+01 1.30260E+00 4.34150E-03-2.39542E-01 2.45914E-14-3.25673E-13
 -1      3680 1.97739E+01-2.91245E+00 4.87533E-03-3.67717E+00-5.13652E-14-3.47902E-13
 -1      3681 2.27225E+01-2.38343E+00 1.10943E-02-2.59113E+00-1.00369E-14 7.55149E-14
 -1      3682 1.76678E+01-1.17486E+00-6.41526E-03 4.47791E+00 6.96700E-14-2.08316E-13
 -1      3683 2.16547E+01-3.35637E+00 9.65876E-02-3.11011E+00-1.13952E-13-5.34999E-13
 -1      3684 2.30575E+01-3.04478E+00 1.08066E-02-2.91379E+00-7.45124E-14 7.89950E-15
 -1      3685 2.03356E+01 2.16502E-01 1.43510E-03 4.71156E-02-5.82649E-14-1.41303E-13
 -1      3686 2.03148E+01 1.41763E-01-1.04971E-03 7.63707E-02-8.31663E-14-1.29902E-13
 -1      3687 2.51735E+01-4.12142E+00-1.59542E-02-2.12472E+00 2.45173E-13-9.06185E-14
 -1      3688 2.26727E+01-3.65175E+00-2.01426E-02 2.27637E+00-2.19557E-13 1.02245E-14
 -1      3689 2.02997E+01 8.30637E-02 1.05558E-03 9.25591E-02-5.87936E-14-9.29492E-14
 -1      3690 2.02783E+01 3.52535E-02-5.11898E-04 1.08040E-01-2.21053E-15-7.10044E-14
 -1      3691 2.03416E+01 1.31709E-01-1.06366E-04 6.84432E-02-3.92688E-14-1.10875E-13
 -1      3692 2.02591E+01-1.10036E-03 7.83735E-04 1.15036E-01 1.86004E-15-7.61063E-14
 -1      3693 2.02389E+01-2.94839E-02-1.29754E-04 1.21054E-01 9.27437E-15-5.72202E-14
 -1      3694 2.03029E+01 2.61355E-02-3.76171E-04 9.39766E-02 6.21785E-16-4.97141E-14
 -1      3695 2.02184E+01-4.97855E-02 5.36854E-04 1.21977E-01 1.33089E-14-4.46081E-14
 -1      3696 2.02003E+01-6.42604E-02 1.20310E-04 1.22028E-01 3.76708E-14-3.57294E-14
 -1      3697 2.02607E+01-3.73423E-02-5.00042E-04 1.04206E-01 1.12067E-14-4.86942E-14
 -1      3698 2.01803E+01-7.31516E-02 3.29072E-04 1.19376E-01 8.56283E-15-6.94706E-14
 -1      3699 2.01647E+01-7.77614E-02 2.73170E-04 1.16134E-01-3.38398E-14-1.10400E-13
 -1      3700 2.02190E+01-7.04302E-02-5.28774E-04 1.04636E-01-1.49180E-14-7.99289E-14
 -1      3701 2.01460E+01-7.85749E-02 1.58366E-04 1.11805E-01-3.07036E-14-1.37713E-13
 -1      3702 2.01328E+01-7.61713E-02 3.61888E-04 1.07267E-01-4.56522E-14-1.09000E-13
 -1      3703 2.01800E+01-8.18545E-02-4.99817E-04 9.95713E-02-5.43503E-14-1.26027E-13
 -1      3704 2.01157E+01-7.11994E-02 1.67180E-05 1.02691E-01-5.46524E-14-9.37961E-14
 -1      3705 2.01046E+01-6.37110E-02 4.07118E-04 9.83508E-02-4.87273E-14-3.48393E-14
 -1      3706 2.01447E+01-7.78107E-02-4.36863E-04 9.22871E-02-3.67577E-14-7.47571E-14
 -1      3707 2.00890E+01-5.44644E-02-1.06034E-04 9.46016E-02-1.67983E-14-5.90388E-14
 -1      3708 2.00796E+01-4.31056E-02 4.25967E-04 9.15809E-02-2.15070E-14-5.73963E-14
 -1      3709 2.01129E+01-6.24992E-02-3.47288E-04 8.52754E-02-3.73077E-14-7.35010E-14
 -1      3710 2.00651E+01-3.04772E-02-2.21782E-04 8.94820E-02-3.92045E-14-3.19829E-14
 -1      3711 2.00568E+01-1.59078E-02 4.31457E-04 8.86658E-02-4.89085E-14 1.75635E-14
 -1      3712 2.00840E+01-3.86054E-02-2.38132E-04 8.04195E-02 5.77446E-15-1.26450E-13
 -1      3713 2.00427E+01-3.25097E-04-3.40565E-04 8.88979E-02-6.13636E-14 1.90847E-14
 -1      3714 2.00350E+01 1.72050E-02 4.33048E-04 9.10383E-02-4.93720E-14-4.88252E-15
 -1      3715 2.00570E+01-7.61421E-03-1.13669E-04 7.92110E-02-5.12924E-14-4.10676E-14
 -1      3716 2.00203E+01 3.56444E-02-4.70616E-04 9.42227E-02-6.34536E-14 6.48641E-15
 -1      3717 2.00124E+01 5.61620E-02 4.37296E-04 1.00017E-01-4.96955E-14 7.32478E-14
 -1      3718 2.00301E+01 2.98818E-02 2.59007E-05 8.29363E-02-4.31447E-14 2.19107E-14
 -1      3719 1.99963E+01 7.75646E-02-6.18963E-04 1.06777E-01-2.59530E-14 6.04003E-14
 -1      3720 1.99875E+01 1.01245E-01 4.48936E-04 1.16923E-01-4.43438E-14 8.91529E-14
 -1      3721 2.00016E+01 7.38927E-02 1.82028E-04 9.28141E-02 6.59361E-16-3.28902E-14
 -1      3722 1.99686E+01 1.25791E-01-7.91122E-04 1.27933E-01-4.84670E-14 1.03454E-13
 -1      3723 1.99581E+01 1.52817E-01 4.71937E-04 1.43165E-01-5.51065E-14 1.15292E-13
 -1      3724 1.99692E+01 1.24756E-01 3.56580E-04 1.10102E-01-5.68012E-14 4.26817E-14
 -1      3725 1.99352E+01 1.80614E-01-9.90693E-04 1.59184E-01-6.84511E-14 1.39299E-13
 -1      3726 1.99221E+01 2.11016E-01 5.10771E-04 1.80289E-01-1.41750E-14 1.37217E-13
 -1      3727 1.99305E+01 1.82841E-01 5.50571E-04 1.36181E-01-2.47580E-14 1.37379E-13
 -1      3728 1.98938E+01 2.41915E-01-1.21883E-03 2.02188E-01-4.41633E-14 1.01201E-13
 -1      3729 1.98775E+01 2.75365E-01 5.72188E-04 2.30008E-01-5.12709E-14 7.27559E-14
 -1      3730 1.98828E+01 2.48206E-01 7.62549E-04 1.72620E-01-3.08985E-14 1.84738E-13
 -1      3731 1.98423E+01 3.08731E-01-1.47355E-03 2.58797E-01-3.37462E-14 8.96206E-14
 -1      3732 1.98221E+01 3.44279E-01 6.67891E-04 2.94216E-01-4.32311E-14 4.63448E-14
 -1      3733 1.98235E+01 3.20178E-01 9.86455E-04 2.21237E-01-4.59836E-14 1.11196E-13
 -1      3734 1.97789E+01 3.78696E-01-1.74895E-03 3.31077E-01-3.48940E-14-8.77621E-15
 -1      3735 1.97544E+01 4.14440E-01 8.18649E-04 3.75010E-01 6.12786E-15-7.28441E-15
 -1      3736 1.97498E+01 3.96817E-01 1.20870E-03 2.84174E-01-6.34107E-14 6.69845E-14
 -1      3737 1.97022E+01 4.47326E-01-2.03388E-03 4.21348E-01 3.22018E-14-3.46651E-14
 -1      3738 1.96740E+01 4.79986E-01 1.06048E-03 4.74733E-01 4.69305E-14-5.12149E-14
 -1      3739 1.96596E+01 4.74248E-01 1.40410E-03 3.64006E-01-5.65615E-17 2.97227E-14
 -1      3740 1.96125E+01 5.07119E-01-2.30959E-03 5.32269E-01 8.04005E-14-2.07714E-14
 -1      3741 1.95823E+01 5.31518E-01 1.45313E-03 5.96081E-01 1.43296E-13 1.04715E-13
 -1      3742 1.95515E+01 5.45823E-01 1.52978E-03 4.63932E-01 1.02614E-13 1.46210E-14
 -1      3743 1.95124E+01 5.46459E-01-2.54369E-03 6.67020E-01 5.94516E-14 1.06540E-13
 -1      3744 1.94839E+01 5.54905E-01 2.08909E-03 7.42304E-01-1.76782E-14 8.71077E-14
 -1      3745 1.94261E+01 6.01095E-01 1.51493E-03 5.88103E-01 1.33293E-13-1.35693E-14
 -1      3746 1.94085E+01 5.48330E-01-2.67659E-03 8.29551E-01-2.41253E-14 2.95049E-14
 -1      3747 1.93889E+01 5.29914E-01 3.10130E-03 9.17437E-01 3.94806E-14-8.14162E-15
 -1      3748 1.92867E+01 6.24575E-01 1.24094E-03 7.42139E-01-6.36696E-14 7.18701E-15
 -1      3749 1.93142E+01 4.88917E-01-2.58785E-03 1.02485E+00 9.68737E-14-7.25152E-14
 -1      3750 1.93156E+01 4.28778E-01 4.65229E-03 1.12639E+00 9.63381E-14-9.17108E-14
 -1      3751 1.91419E+01 5.94273E-01 5.08516E-04 9.33796E-01-6.53714E-15-4.24542E-14
 -1      3752 1.92536E+01 3.36262E-01-2.00533E-03 1.25882E+00 3.08594E-14-9.53063E-14
 -1      3753 1.92961E+01 2.14879E-01 6.95527E-03 1.37423E+00-3.85949E-14-1.02845E-13
 -1      3754 1.90080E+01 4.79912E-01-1.02117E-03 1.17368E+00 4.86855E-14-1.12313E-13
 -1      3755 1.92678E+01 4.91602E-02-3.46842E-04 1.53710E+00-1.22231E-13-8.92058E-14
 -1      3756 1.93810E+01-1.59851E-01 9.04833E-03 1.66379E+00-1.14815E-13-1.96992E-14
 -1      3757 1.89150E+01 2.41177E-01-3.90792E-03 1.47497E+00-1.13855E-13-6.01638E-14
 -1      3758 1.94282E+01-4.20770E-01 4.58989E-03 1.85549E+00-1.67048E-13-1.33674E-13
 -1      3759 1.96479E+01-7.47463E-01 9.24244E-03 1.98310E+00-2.04501E-13-1.68092E-13
 -1      3760 1.89171E+01-1.83116E-01-1.07760E-02 1.85193E+00-1.72352E-13-1.10460E-13
 -1      3761 1.98440E+01-1.13945E+00 1.03762E-02 2.18709E+00-1.74699E-13-1.30583E-13
 -1      3762 2.02499E+01-1.59830E+00 8.76496E-03 2.27771E+00-1.55211E-13-1.01075E-13
 -1      3763 1.91107E+01-8.49699E-01-1.97953E-02 2.30185E+00-1.65869E-13 2.21231E-14
 -1      3764 2.10365E+01-2.51458E+00 2.14649E-02 2.54585E+00-1.81087E-13-6.96006E-14
 -1      3765 2.15826E+01-3.05464E+00-1.27477E-02 2.52394E+00-2.81202E-13 2.50425E-14
 -1      3766 2.36441E+01-3.55154E+00-8.10142E-03-2.81511E+00 2.27426E-13-1.63931E-13
 -1      3767 2.00915E+01-6.34118E-02 4.30328E-04-1.10009E-01-4.26446E-14-1.01491E-13
 -1      3768 2.01001E+01-6.97421E-02 1.30572E-05-1.15211E-01-3.36718E-14-1.22671E-13
 -1      3769 2.03170E+01 9.93054E-01 5.57067E-03 3.41108E-01 1.18968E-13-2.19431E-13
 -1      3770 2.02631E+01 1.30420E+00-4.67610E-03 4.10808E-01 1.49942E-13-2.77788E-13
 -1      3771 2.00181E+01 4.54011E-02 4.89293E-04-1.06042E-01-1.04716E-14-8.49416E-14
 -1      3772 2.00230E+01 2.62627E-02-4.76286E-04-1.00743E-01 1.17967E-14-9.43150E-14
 -1      3773 2.00354E+01 9.28685E-03 4.80001E-04-9.80606E-02-4.08952E-14-1.00527E-13
 -1      3774 2.00403E+01-6.79985E-03-3.49931E-04-9.65973E-02-5.32327E-14-1.14652E-13
 -1      3775 2.00333E+01 2.06995E-02-9.73422E-06-9.19515E-02-2.77944E-14-1.22166E-13
 -1      3776 1.99757E+01 1.38301E-01 5.11379E-04-1.48351E-01 1.53658E-14-1.66358E-13
 -1      3777 1.99828E+01 1.11740E-01-7.98629E-04-1.33143E-01-3.42945E-14-1.24339E-13
 -1      3778 1.99458E+01 1.97298E-01 5.17475E-04-1.85535E-01 5.18207E-14-1.39549E-13
 -1      3779 1.99555E+01 1.66130E-01-1.01193E-03-1.64192E-01 4.30922E-14-1.22714E-13
 -1      3780 1.99495E+01 1.68403E-01 5.42279E-04-1.43946E-01 6.27214E-14-1.65775E-13
 -1      3781 1.99059E+01 2.66241E-01 5.10928E-04-2.35395E-01 1.87388E-14-8.61043E-14
 -1      3782 1.99197E+01 2.29883E-01-1.27069E-03-2.07094E-01 5.11417E-14-7.10897E-14
 -1      3783 1.99070E+01 2.35621E-01 8.17298E-04-1.80009E-01-1.44923E-14-1.06874E-13
 -1      3784 1.98522E+01 3.46024E-01 4.82349E-04-2.99414E-01 5.98213E-15 5.27079E-14
 -1      3785 1.98718E+01 3.04076E-01-1.58285E-03-2.63347E-01 1.64008E-14-5.54782E-14
 -1      3786 1.98512E+01 3.13781E-01 1.16327E-03-2.27433E-01-4.03390E-14-9.91755E-14
 -1      3787 1.97797E+01 4.36859E-01 4.23498E-04-3.78973E-01 4.05408E-14 1.41269E-13
 -1      3788 1.98072E+01 3.89320E-01-1.95739E-03-3.34395E-01 4.04678E-14 7.34853E-14
 -1      3789 1.97774E+01 4.03611E-01 1.59994E-03-2.87298E-01-1.73831E-14 4.32079E-14
 -1      3790 1.96824E+01 5.37708E-01 3.33593E-04-4.75288E-01-6.48841E-16 2.13209E-13
 -1      3791 1.97205E+01 4.85285E-01-2.40658E-03-4.21557E-01 7.01973E-14 2.28590E-13
 -1      3792 1.96794E+01 5.05000E-01 2.15003E-03-3.60501E-01-3.67331E-14 7.01461E-14
 -1      3793 1.95533E+01 6.45440E-01 2.31959E-04-5.89450E-01-1.00708E-13 2.02417E-13
 -1      3794 1.96051E+01 5.90001E-01-2.95046E-03-5.26010E-01-5.23658E-14 1.82124E-13
 -1      3795 1.95503E+01 6.16385E-01 2.83896E-03-4.47750E-01 2.62857E-14 1.92134E-13
 -1      3796 1.93846E+01 7.53580E-01 1.79494E-04-7.22763E-01-1.33487E-13 1.27366E-13
 -1      3797 1.94532E+01 6.98823E-01-3.62474E-03-6.48974E-01-1.20928E-13 1.74259E-13
 -1      3798 1.93814E+01 7.33922E-01 3.69437E-03-5.49737E-01-4.99582E-14 3.77832E-14
 -1      3799 1.91680E+01 8.50472E-01 3.01274E-04-8.77637E-01 1.30215E-14 6.50639E-14
 -1      3800 1.92559E+01 8.02902E-01-4.49366E-03-7.92313E-01-7.54873E-14 1.18012E-13
 -1      3801 1.91627E+01 8.50289E-01 4.74257E-03-6.67745E-01-9.72870E-14 2.49570E-14
 -1      3802 1.88963E+01 9.16813E-01 8.47537E-04-1.05939E+00 7.00768E-14-4.32774E-14
 -1      3803 1.90042E+01 8.86981E-01-5.67983E-03-9.59843E-01 9.55964E-14 8.08586E-14
 -1      3804 1.88825E+01 9.52990E-01 5.99231E-03-8.04989E-01 3.89483E-14-7.56179E-14
 -1      3805 1.85657E+01 9.22404E-01 2.35421E-03-1.27987E+00 5.92435E-14-7.02101E-14
 -1      3806 1.86898E+01 9.26561E-01-7.41979E-03-1.16004E+00 4.11037E-14-3.04246E-14
 -1      3807 1.85277E+01 1.02258E+00 7.48823E-03-9.69127E-01 8.08519E-14 6.73284E-15
 -1      3808 1.81809E+01 8.20683E-01 5.97780E-03-1.56380E+00-7.91513E-14 4.39798E-14
 -1      3809 1.83076E+01 8.83950E-01-9.84005E-03-1.41141E+00 1.41953E-14 5.34734E-14
 -1      3810 1.80835E+01 1.02989E+00 9.32051E-03-1.17769E+00 6.91775E-15 5.06263E-14
 -1      3811 1.77653E+01 5.38454E-01 1.33120E-02-1.95617E+00-7.06168E-14-2.30547E-13
 -1      3812 1.78627E+01 7.00125E-01-1.26799E-02-1.75071E+00-5.12724E-14-1.32655E-13
 -1      3813 1.75341E+01 9.31229E-01 1.22060E-02-1.46736E+00 3.30561E-14-7.74841E-14
 -1      3814 1.73742E+01-4.32706E-02 2.51586E-02-2.52574E+00 1.79320E-14-3.38608E-13
 -1      3815 1.73894E+01 2.81974E-01-1.40275E-02-2.23793E+00-3.29454E-14-2.85833E-13
 -1      3816 1.68753E+01 6.55769E-01 1.99949E-02-1.91301E+00 8.00748E-15-1.96738E-13
 -1      3817 1.73095E+01-1.04765E+00 3.84236E-02-3.31105E+00 4.25601E-14-1.59707E-13
 -1      3818 1.71127E+01-4.42448E-01-1.11671E-02-2.90363E+00 4.24413E-14-2.35407E-13
 -1      3819 1.62342E+01 9.09094E-02 8.47439E-03-2.57973E+00-4.48903E-14-3.12673E-13
 -1      3820 1.59212E+01-8.72432E-01 2.88492E-03-3.47642E+00-5.11318E-14-1.93828E-13
 -1      3821 2.01993E+01 1.65924E+00-2.68362E-03-3.45187E-02 7.43410E-14-2.83847E-13
 -1      3822 2.02029E+01 1.64113E+00-3.20792E-03-1.25161E-01 4.87408E-14-2.82794E-13
 -1      3823 2.02865E+01 1.38760E+00 5.14548E-03-1.30150E-01 6.43276E-14-2.72629E-13
 -1      3824 2.02814E+01 1.41982E+00 4.99848E-03 2.18256E-03 7.46887E-14-2.63396E-13
 -1      3825 2.00903E+01-1.57964E+00-2.92026E-03 4.13070E+00-3.95148E-14-5.67984E-13
 -1      3826 1.89300E+01-1.39822E+00 5.13466E-02 4.50159E+00 4.57637E-14-4.20110E-13
 -1      3827 2.03543E+01 7.04738E-01 4.67762E-04-1.47477E-01-1.73450E-14-1.93823E-13
 -1      3828 2.03509E+01 5.48218E-01-2.10125E-03-7.55051E-02-2.04489E-14-1.80698E-13
 -1      3829 2.02844E+01 1.49550E-01-1.13410E-03-8.02860E-02 5.53780E-14-2.06448E-13
 -1      3830 2.03064E+01 2.24090E-01 1.67403E-03-4.62792E-02 6.64474E-14-2.24659E-13
 -1      3831 1.45795E+01 1.52318E-01 1.38110E-02 2.42714E+00-2.04327E-14 2.30923E-13
 -1      3832 1.37816E+01 7.33548E-01 2.49665E-02 1.18205E+00 3.59686E-14 1.30503E-13
 -1      3833 2.02587E+01 5.21138E-01-2.14232E-03 1.52420E-01 1.19254E-13-1.28698E-13
 -1      3834 2.02792E+01 6.42918E-01 2.37845E-03 2.46478E-01 1.40783E-13-1.39618E-13
 -1      3835 2.02943E+01 7.68182E-01-1.32953E-03 2.80976E-01 1.38038E-13-1.72136E-13
 -1      3836 2.02974E+01 5.31155E-01-1.35313E-03 1.26454E-01 1.36093E-13-1.94211E-13
 -1      3837 2.03590E+01 4.15766E-01 1.59282E-03-3.01913E-02-3.81655E-14-1.68525E-13
 -1      3838 2.03420E+01 3.05301E-01-1.84791E-03 1.76114E-02-4.98138E-14-1.57763E-13
 -1      3839 2.03700E+01 2.95078E-01 4.46310E-04 2.12516E-02-3.89875E-14-1.62765E-13
 -1      3840 2.02487E+01 1.40485E+00-1.79782E-03 3.46205E-01 1.51078E-13-2.86230E-13
 -1      3841 1.99989E+01 8.80690E-02 5.00346E-04-1.22340E-01-4.92878E-14-6.04639E-14
 -1      3842 2.00045E+01 6.54936E-02-6.22857E-04-1.12467E-01-2.40734E-14-9.23057E-14
 -1      3843 1.99826E+01 1.10981E-01 3.21473E-04-1.18061E-01-1.91123E-14-1.54617E-13
 -1      3844 1.41274E+01-1.08542E-01 4.71915E-02-2.75379E+00-1.06782E-13-3.97470E-13
 -1      3845 2.00939E+01-1.95138E+00-5.06409E-03 2.63708E+00-1.73357E-13-9.05237E-14
 -1      3846 1.98176E+01-2.48411E+00 3.86496E-03 3.26186E+00-1.77957E-13 2.36696E-13
 -1      3847 1.86551E+01-2.15416E+00 6.02109E-02 3.75734E+00-9.00151E-14 1.28142E-13
 -1      3848 1.91479E+01-1.51459E+00 9.43375E-03 2.88067E+00-1.80375E-13 7.52176E-14
 -1      3849 1.37903E+01 9.12639E-01 5.30276E-02 6.54595E-01 1.05415E-14 1.50732E-13
 -1      3850 1.38568E+01 8.88978E-01-1.53600E-02-4.00016E-03 7.67017E-14 1.69241E-13
 -1      3851 1.46565E+01 7.72997E-01 2.72597E-03 1.16595E+00-4.57514E-14 1.53565E-13
 -1      3852 2.02109E+01-2.23347E-02-1.68067E-04-1.35010E-01 1.07399E-14-1.81406E-13
 -1      3853 2.02299E+01 6.51733E-03 9.26769E-04-1.27854E-01 5.23320E-14-1.86710E-13
 -1      3854 2.01156E+01-7.36208E-02 3.77919E-04-1.20531E-01-1.49536E-14-1.50076E-13
 -1      3855 2.01264E+01-7.49912E-02 1.75804E-04-1.25793E-01-1.07656E-14-1.70373E-13
 -1      3856 2.01322E+01-7.65053E-02-4.44882E-04-1.06925E-01-3.72830E-14-1.60696E-13
 -1      3857 2.00096E+01 6.21144E-02 1.41112E-04-1.01135E-01-1.52177E-14-1.66163E-13
 -1      3858 2.01131E+01-6.74702E-02-5.37300E-04-1.46118E-01 2.21267E-14-1.25153E-13
 -1      3859 2.03147E+01 8.40934E-01-7.91256E-04 2.50347E-01 1.37504E-13-2.32197E-13
 -1      3860 2.03780E+01 5.30529E-01 1.40276E-04-5.39226E-02-2.69959E-14-2.10298E-13
 -1      3861 1.78961E+01-1.50085E+00-4.74030E-03 3.39264E+00-1.16933E-13 1.02883E-13
 -1      3862 2.02483E+01 4.30191E-02-5.65625E-04-1.18669E-01 6.48463E-14-1.75196E-13
 -1      3863 2.02696E+01 9.10244E-02 1.30539E-03-1.00600E-01 6.61107E-14-2.00149E-13
 -1      3864 2.02798E+01 3.54447E-02-4.48431E-04-1.06399E-01 6.31201E-14-2.23334E-13
 -1      3865 2.00776E+01-5.54133E-02-1.15962E-04-1.05441E-01 1.68618E-14-7.40531E-14
 -1      3866 2.01039E+01-6.35839E-02-3.52198E-04-9.83553E-02-1.03729E-14-1.32224E-13
 -1      3867 2.00707E+01-4.53500E-02 4.57241E-04-1.01539E-01 2.05902E-15-1.12864E-13
 -1      3868 1.46260E+01 3.49491E-01 3.96385E-02-2.00269E+00-2.32696E-14-1.45137E-13
 -1      3869 2.03177E+01 1.42720E-01-2.27399E-04-7.43349E-02 6.63082E-14-2.54702E-13
 -1      3870 2.03196E+01 1.19435E+00-2.65815E-03 3.20425E-02 8.50619E-14-2.33315E-13
 -1      3871 2.03198E+01 1.19535E+00-2.44918E-03-2.86080E-02 6.98079E-14-2.70044E-13
 -1      3872 2.03235E+01 1.01456E+00-7.54543E-04-2.62685E-01 6.70893E-15-2.67082E-13
 -1      3873 2.03387E+01 8.30725E-01-6.38760E-04-1.87040E-01-1.52615E-14-2.22807E-13
 -1      3874 2.03583E+01 8.00571E-01-9.91508E-04-1.42675E-01 1.86366E-14-2.69548E-13
 -1      3875 2.03199E+01 1.08500E+00-4.62550E-04-2.33743E-01 1.58722E-14-3.11428E-13
 -1      3876 2.01756E+01-5.82579E-02 1.13290E-04-1.36934E-01 2.96629E-14-1.98677E-13
 -1      3877 2.01918E+01-4.31354E-02 6.26137E-04-1.36748E-01 1.56357E-14-2.04936E-13
 -1      3878 2.02395E+01-3.00021E-02-5.81883E-04-1.19801E-01 3.58646E-14-2.45634E-13
 -1      3879 2.03201E+01 1.18231E+00-2.07051E-03-7.49735E-02 6.97445E-14-2.67159E-13
 -1      3880 2.03233E+01 1.15191E+00-2.08531E-03-1.31645E-01 6.90032E-14-2.83375E-13
 -1      3881 2.03746E+01 9.96142E-01 4.50787E-03-3.87901E-02 7.10182E-14-2.50929E-13
 -1      3882 2.03065E+01 1.21202E+00 3.85636E-03 2.50799E-01 1.25884E-13-2.67902E-13
 -1      3883 1.54999E+01-7.71635E-02 4.39744E-02 2.71159E+00-2.57179E-14 2.59549E-13
 -1      3884 1.54990E+01 3.53261E-01-5.76187E-03 2.02972E+00-2.55594E-14 1.80201E-13
 -1      3885 1.64966E+01-4.73287E-01-1.19766E-02 2.83122E+00-1.29033E-13 7.74398E-14
 -1      3886 2.03474E+01 3.07058E-01 6.76481E-05-1.57702E-02 7.08201E-14-2.35398E-13
 -1      3887 2.03140E+01 3.12918E-01-1.84371E-03-1.06323E-02 9.50298E-14-2.27860E-13
 -1      3888 2.03341E+01 4.23234E-01 2.11239E-03 4.48435E-02 1.15091E-13-2.22095E-13
 -1      3889 2.03214E+01 1.14471E+00-3.61961E-03 1.34559E-01 1.06265E-13-2.34865E-13
 -1      3890 2.03219E+01 1.18107E+00-1.52284E-03 7.79410E-02 9.16319E-14-2.15018E-13
 -1      3891 2.03736E+01 9.95433E-01 4.24352E-03 4.07088E-02 9.23758E-14-2.13417E-13
 -1      3892 2.00524E+01-2.09229E-02 4.70971E-04-9.70287E-02-1.05641E-14-1.01564E-13
 -1      3893 2.00581E+01-3.40964E-02-2.33810E-04-9.86560E-02 3.06432E-15-1.31521E-13
 -1      3894 2.00788E+01-4.22847E-02-2.52546E-04-9.19031E-02 1.89890E-14-1.65109E-13
 -1      3895 2.03177E+01 1.13219E+00-1.10292E-03-1.94599E-01 4.37160E-14-3.12193E-13
 -1      3896 2.03611E+01 9.64040E-01 3.09942E-03-1.33086E-01 5.21759E-14-2.88589E-13
 -1      3897 2.00557E+01-1.40237E-02-1.39218E-04-8.92961E-02-4.43896E-14-1.76529E-13
 -1      3898 2.04020E+01 3.65937E-01 2.59456E-03-7.76887E-04-1.04079E-14-1.84480E-13
 -1      3899 2.03865E+01 2.59732E-01-1.50828E-03 2.91962E-02-2.39638E-14-1.63221E-13
 -1      3900 2.03783E+01 1.76779E-01 8.85974E-04 4.50175E-02-2.93064E-14-1.33096E-13
 -1      3901 2.03588E+01 1.07322E-01-7.12955E-04 6.33410E-02-1.18853E-14-9.33951E-14
 -1      3902 2.04017E+01 2.40874E-01 4.10390E-04 2.62515E-02-2.93273E-15-1.46465E-13
 -1      3903 2.03416E+01 5.27596E-02 5.96361E-04 7.10891E-02-4.79909E-15-9.56549E-14
 -1      3904 2.03198E+01 9.16688E-03-2.86911E-04 8.05516E-02 8.21396E-15-9.51641E-14
 -1      3905 2.03720E+01 9.17429E-02-1.37035E-04 5.05167E-02-1.10659E-14-1.53093E-13
 -1      3906 2.02984E+01-2.37067E-02 5.01185E-04 8.31598E-02 2.34931E-14-9.14263E-14
 -1      3907 2.02764E+01-4.85544E-02-2.67388E-06 8.65608E-02 2.82594E-14-5.05329E-14
 -1      3908 2.03304E+01-2.10717E-03-3.60334E-04 6.28757E-02 4.15470E-15-1.19116E-13
 -1      3909 2.02538E+01-6.58130E-02 3.81149E-04 8.59136E-02-1.16037E-14-5.88266E-14
 -1      3910 2.02329E+01-7.71550E-02 1.78984E-04 8.55196E-02-1.31967E-14-9.09594E-14
 -1      3911 2.02848E+01-5.61949E-02-4.43935E-04 6.69880E-02 7.82736E-15-7.21260E-14
 -1      3912 2.02107E+01-8.31987E-02 2.56471E-04 8.30861E-02-2.29027E-14-7.64381E-14
 -1      3913 2.01918E+01-8.48959E-02 2.87261E-04 8.07149E-02-6.72680E-14-5.56129E-14
 -1      3914 2.02392E+01-8.17557E-02-5.12964E-04 6.59146E-02-2.05151E-14-5.56708E-14
 -1      3915 2.01707E+01-8.28734E-02 1.41412E-04 7.75955E-02-6.14650E-14-3.01069E-14
 -1      3916 2.01539E+01-7.75907E-02 3.38448E-04 7.46600E-02-2.06569E-14-2.85096E-14
 -1      3917 2.01961E+01-8.65825E-02-5.00604E-04 6.22391E-02-3.05701E-14-8.04017E-15
 -1      3918 2.01343E+01-6.97120E-02 3.26293E-05 7.17695E-02-7.15259E-14-6.44491E-14
 -1      3919 2.01193E+01-5.92658E-02 3.50129E-04 6.93119E-02-6.66477E-14-8.22323E-14
 -1      3920 2.01561E+01-7.63208E-02-4.28488E-04 5.78033E-02-5.36156E-14-6.01052E-14
 -1      3921 2.01010E+01-4.69267E-02-7.72158E-05 6.72879E-02 4.48117E-15-1.12036E-13
 -1      3922 2.00873E+01-3.23910E-02 3.38562E-04 6.61128E-02 4.86164E-14-1.00277E-13
 -1      3923 2.01193E+01-5.49161E-02-3.17469E-04 5.41449E-02-2.59158E-14-1.42549E-13
 -1      3924 2.00696E+01-1.63537E-02-1.95028E-04 6.54772E-02 3.72770E-14-1.60820E-13
 -1      3925 2.00565E+01 1.75348E-03 3.13743E-04 6.62489E-02-1.22516E-14-1.08833E-13
 -1      3926 2.00846E+01-2.47003E-02-1.81785E-04 5.23581E-02 1.50391E-14-1.83136E-13
 -1      3927 2.00386E+01 2.11877E-02-3.25894E-04 6.74710E-02-3.39759E-14-2.33729E-14
 -1      3928 2.00252E+01 4.27452E-02 2.82569E-04 7.07854E-02-2.52639E-14 2.01826E-14
 -1      3929 2.00507E+01 1.31903E-02-2.39649E-05 5.33996E-02 3.89799E-14-6.05445E-14
 -1      3930 2.00059E+01 6.55938E-02-4.76099E-04 7.43293E-02-1.36560E-14 6.04308E-14
 -1      3931 1.99913E+01 9.07374E-02 2.50076E-04 8.07710E-02-1.77391E-14 4.78496E-14
 -1      3932 2.00153E+01 5.84607E-02 1.56761E-04 5.81580E-02-1.85583E-14 2.25346E-14
 -1      3933 1.99691E+01 1.17198E-01-6.51947E-04 8.71430E-02-3.15382E-14 9.55229E-15
 -1      3934 1.99521E+01 1.46179E-01 2.20483E-04 9.73310E-02-1.31699E-14 7.04115E-14
 -1      3935 1.99760E+01 1.11368E-01 3.62902E-04 6.75467E-02-3.00955E-14 3.28237E-15
 -1      3936 1.99255E+01 1.76482E-01-8.59576E-04 1.07123E-01-2.41598E-14 7.82954E-14
 -1      3937 1.99048E+01 2.09512E-01 1.98463E-04 1.21747E-01-3.24021E-14 7.08967E-14
 -1      3938 1.99300E+01 1.72429E-01 5.97701E-04 8.25916E-02-1.29017E-14 2.55892E-14
 -1      3939 1.98721E+01 2.43752E-01-1.10490E-03 1.35680E-01-4.07944E-14 1.01603E-13
 -1      3940 1.98464E+01 2.80818E-01 1.90769E-04 1.55533E-01 1.26225E-14 1.15578E-13
 -1      3941 1.98738E+01 2.42099E-01 8.64003E-04 1.04517E-01-5.29394E-15 4.79375E-14
 -1      3942 1.98056E+01 3.18747E-01-1.39379E-03 1.74508E-01-5.97928E-14 8.55711E-14
 -1      3943 1.97735E+01 3.59384E-01 2.08480E-04 2.00520E-01-1.19027E-13 3.61456E-14
 -1      3944 1.98040E+01 3.20399E-01 1.16300E-03 1.34841E-01-7.46632E-14 1.49670E-14
 -1      3945 1.97226E+01 4.00159E-01-1.73266E-03 2.25685E-01-7.30189E-14 2.80725E-14
 -1      3946 1.96831E+01 4.43170E-01 2.70228E-04 2.58974E-01-3.48880E-14 6.13073E-14
 -1      3947 1.97167E+01 4.06467E-01 1.49287E-03 1.75501E-01-8.56501E-14 4.77529E-14
 -1      3948 1.96199E+01 4.85032E-01-2.12974E-03 2.91822E-01 1.61232E-14 9.33797E-14
 -1      3949 1.95721E+01 5.28147E-01 4.07073E-04 3.33774E-01-4.88066E-15 6.80701E-14
 -1      3950 1.96078E+01 4.98013E-01 1.84731E-03 2.29028E-01-1.94245E-14 9.50000E-14
 -1      3951 1.94948E+01 5.68028E-01-2.59731E-03 3.76300E-01-3.65356E-14 7.73789E-14
 -1      3952 1.94385E+01 6.07492E-01 6.70116E-04 4.28709E-01 1.10745E-13 2.79789E-14
 -1      3953 1.94736E+01 5.90663E-01 2.21413E-03 2.98822E-01 1.81179E-14 5.45847E-14
 -1      3954 1.93454E+01 6.40554E-01-3.15450E-03 4.83661E-01 1.32945E-13-1.10378E-13
 -1      3955 1.92819E+01 6.70641E-01 1.14271E-03 5.48963E-01 7.45008E-14-1.14616E-13
 -1      3956 1.93105E+01 6.77189E-01 2.57320E-03 3.89580E-01 3.40076E-14-3.12448E-14
 -1      3957 1.91718E+01 6.89720E-01-3.82831E-03 6.20246E-01 4.90199E-14-1.11495E-13
 -1      3958 1.91043E+01 7.02154E-01 1.95334E-03 7.01867E-01-4.79964E-14-5.28662E-14
 -1      3959 1.91160E+01 7.46628E-01 2.89052E-03 5.07994E-01 8.48450E-14-1.97132E-13
 -1      3960 1.89769E+01 6.97108E-01-4.64413E-03 7.95141E-01-7.66863E-14-1.25189E-14
 -1      3961 1.89121E+01 6.80396E-01 3.30507E-03 8.97959E-01-3.94629E-14-7.17275E-14
 -1      3962 1.88890E+01 7.83189E-01 3.09330E-03 6.63863E-01-5.55818E-14-1.32994E-13
 -1      3963 1.87691E+01 6.37473E-01-5.55153E-03 1.02148E+00 5.43769E-14-8.97211E-14
 -1      3964 1.87193E+01 5.76224E-01 5.57732E-03 1.15226E+00 3.60189E-14-1.12266E-13
 -1      3965 1.86310E+01 7.64894E-01 3.00687E-03 8.71569E-01-5.92305E-15-1.27032E-13
 -1      3966 1.85664E+01 4.75638E-01-6.30354E-03 1.31861E+00-9.30046E-14-1.56266E-13
 -1      3967 1.85515E+01 3.47820E-01 8.61608E-03 1.48544E+00-1.61570E-13-1.38510E-13
 -1      3968 1.83478E+01 6.60867E-01 2.22213E-03 1.15360E+00-5.11761E-14-2.25181E-13
 -1      3969 1.84030E+01 1.74256E-01-3.47739E-03 1.70970E+00-1.38123E-13-1.33752E-13
 -1      3970 1.84426E+01-6.50926E-02 7.46683E-03 1.92479E+00-1.78979E-13-4.94952E-14
 -1      3971 1.80643E+01 4.34106E-01 4.71516E-03 1.54455E+00-1.22372E-13-8.41562E-14
 -1      3972 1.85350E+01-4.49964E-01 7.60225E-03 2.25794E+00-1.47550E-13 8.80002E-14
 -1      3973 1.86762E+01-8.72813E-01-6.93552E-04 2.53543E+00-1.04344E-13 9.84826E-14
 -1      3974 1.83950E+01-1.14864E+00-9.81132E-03 2.86332E+00-1.89161E-13 1.93161E-14
 -1      3975 1.79292E+01-1.21908E-01-2.00048E-02 2.12260E+00-6.18933E-14-3.01929E-15
 -1      3976 2.03344E+01 7.02300E-01 3.06617E-03 1.79111E-01 1.30654E-13-2.06621E-13
 -1      3977 2.03327E+01 9.02481E-01-6.92535E-04 2.23050E-01 1.29211E-13-2.59235E-13
 -1      3978 2.03306E+01 5.82958E-01-1.30276E-03 1.12757E-01 1.28544E-13-2.24410E-13
 -1      3979 2.00584E+01-5.70320E-03 3.68654E-04-7.75900E-02-5.61859E-14-1.44521E-13
 -1      3980 2.00693E+01-2.25247E-02-2.04957E-04-7.73945E-02-3.15668E-14-1.43534E-13
 -1      3981 2.01436E+01-7.32894E-02 2.86403E-04-1.30600E-01-1.39648E-14-1.73142E-13
 -1      3982 2.01570E+01-6.78306E-02 3.80999E-04-1.34276E-01 1.21926E-14-1.91952E-13
 -1      3983 2.02004E+01-6.50050E-02-5.73985E-04-1.21059E-01-4.63561E-15-2.40610E-13
 -1      3984 2.01644E+01-7.84226E-02-5.35979E-04-1.15494E-01-1.01782E-14-1.73188E-13
 -1      3985 1.98706E+01 2.68049E-01 8.48441E-05-1.64573E-01-4.35353E-14-1.06763E-13
 -1      3986 1.98943E+01 2.29676E-01-1.07290E-03-1.45032E-01 3.56152E-14-1.08892E-13
 -1      3987 1.99247E+01 1.94811E-01 1.79373E-04-1.31650E-01 2.17966E-14-1.40751E-13
 -1      3988 1.99428E+01 1.61824E-01-8.40265E-04-1.17063E-01 1.14765E-14-2.09399E-13
 -1      3989 1.98940E+01 2.27509E-01 8.72903E-04-1.16206E-01-6.80269E-17-1.45832E-13
 -1      3990 1.97075E+01 4.49168E-01-2.32587E-04-2.59448E-01-4.33133E-14-1.66557E-13
 -1      3991 1.97496E+01 3.98971E-01-1.67174E-03-2.28738E-01-5.62276E-14-2.14867E-13
 -1      3992 1.95862E+01 5.56971E-01-4.83034E-04-3.22265E-01-1.27529E-13 7.79171E-15
 -1      3993 1.96422E+01 5.01219E-01-2.05707E-03-2.85600E-01-9.91193E-14-1.30004E-13
 -1      3994 1.96318E+01 5.05643E-01 2.26224E-03-2.23123E-01-1.00116E-13-8.37253E-14
 -1      3995 1.94280E+01 6.73976E-01-8.07071E-04-3.95409E-01 2.13842E-14 2.82622E-14
 -1      3996 1.95018E+01 6.13962E-01-2.52567E-03-3.52731E-01-1.79090E-14 1.55402E-14
 -1      3997 1.94877E+01 6.21481E-01 2.96961E-03-2.72978E-01-1.12765E-13-2.63385E-14
 -1      3998 1.92230E+01 7.95722E-01-1.19582E-03-4.78756E-01-5.81867E-14 3.62172E-14
 -1      3999 1.93195E+01 7.33999E-01-3.12213E-03-4.29997E-01 3.40612E-15 5.07848E-14
 -1      4000 1.93015E+01 7.45708E-01 3.86401E-03-3.28946E-01 2.84186E-14-1.10762E-14
 -1      4001 1.89593E+01 9.14439E-01-1.59657E-03-5.72735E-01-2.24913E-14-6.63784E-14
 -1      4002 1.90838E+01 8.55307E-01-3.93370E-03-5.17401E-01-4.69850E-14-1.99519E-14
 -1      4003 1.90620E+01 8.73312E-01 5.01845E-03-3.90040E-01-2.31280E-14-5.73161E-14
 -1      4004 1.86222E+01 1.01761E+00-1.95448E-03-6.79924E-01 1.48915E-15 7.14628E-14
 -1      4005 1.87808E+01 9.67895E-01-5.11801E-03-6.16184E-01-5.07383E-14-5.09597E-14
 -1      4006 1.87547E+01 9.96294E-01 6.54900E-03-4.55884E-01-4.17917E-14-2.13861E-14
 -1      4007 1.81936E+01 1.08645E+00-2.13793E-03-8.07444E-01 6.51463E-14 1.08169E-13
 -1      4008 1.83930E+01 1.05603E+00-6.95971E-03-7.30597E-01 6.96492E-14 1.05320E-13
 -1      4009 1.83609E+01 1.10225E+00 8.56937E-03-5.28619E-01-2.51868E-14 1.92194E-13
 -1      4010 1.76485E+01 1.09639E+00-1.62326E-03-9.71665E-01-8.94575E-16 1.07576E-13
 -1      4011 1.78959E+01 1.09780E+00-1.00350E-02-8.70729E-01 3.78988E-14 6.65550E-14
 -1      4012 1.78557E+01 1.17520E+00 1.17684E-02-6.13167E-01 6.88881E-14 1.85796E-13
 -1      4013 1.69502E+01 1.00676E+00-5.05833E-04-1.20997E+00 3.65192E-14-3.32950E-14
 -1      4014 1.72546E+01 1.06111E+00-1.50585E-02-1.06273E+00 4.45607E-15 2.02774E-14
 -1      4015 1.71973E+01 1.19466E+00 1.67488E-02-7.26977E-01 3.77596E-14 4.43426E-14
 -1      4016 1.60231E+01 7.52636E-01-9.35199E-03-1.59644E+00 3.00246E-14-8.57786E-14
 -1      4017 1.64096E+01 9.03091E-01-2.29952E-02-1.34940E+00 4.97374E-14 2.63225E-14
 -1      4018 1.63338E+01 1.13516E+00 3.01768E-02-9.01733E-01 3.49889E-14 5.63451E-14
 -1      4019 1.48910E+01 6.40400E-01 6.96291E-03-1.64433E+00 7.62038E-14-2.45550E-15
 -1      4020 2.00014E+01 7.83078E-02 2.99014E-04-9.09795E-02 1.62980E-14-1.79647E-13
 -1      4021 2.00134E+01 5.43032E-02-4.76421E-04-8.47163E-02 3.23309E-14-1.43484E-13
 -1      4022 2.03919E+01 8.25123E-01-2.10704E-03-1.12051E-02 8.95155E-14-2.34088E-13
 -1      4023 2.03909E+01 8.12607E-01-2.21769E-03-4.40504E-02 6.32039E-14-2.49833E-13
 -1      4024 1.98001E+01 3.52683E-01-4.78091E-05-2.06980E-01-3.47414E-14-2.09604E-13
 -1      4025 1.98315E+01 3.08466E-01-1.34757E-03-1.82027E-01-2.77731E-14-1.56797E-13
 -1      4026 1.98281E+01 3.08225E-01 1.24135E-03-1.44553E-01 2.02057E-14-1.90800E-13
 -1      4027 2.00310E+01 3.27014E-02 3.38630E-04-8.13670E-02-2.11660E-14-6.65345E-14
 -1      4028 2.00420E+01 1.24142E-02-3.32542E-04-7.84299E-02-2.61443E-14-6.69649E-14
 -1      4029 2.00228E+01 4.75199E-02 1.18566E-04-7.05182E-02 2.22957E-14-5.40628E-14
 -1      4030 1.75770E+01-7.24267E-01 4.32699E-02 2.92421E+00-1.49196E-13-3.47972E-14
 -1      4031 2.03395E+01 9.64969E-01-1.92676E-03 2.08905E-01 1.15947E-13-2.74003E-13
 -1      4032 2.03293E+01 1.10484E+00 5.72871E-04 1.66070E-01 9.87863E-14-2.55678E-13
 -1      4033 2.03727E+01 9.30629E-01 3.50685E-03 1.04196E-01 9.54390E-14-2.52603E-13
 -1      4034 2.03580E+01 8.16777E-01-3.61931E-04 1.38703E-01 9.57740E-14-2.70992E-13
 -1      4035 1.99671E+01 1.31965E-01 2.47779E-04-1.07420E-01-1.10027E-14-2.06037E-13
 -1      4036 1.99814E+01 1.03767E-01-6.43487E-04-9.72692E-02-3.72219E-14-2.21560E-13
 -1      4037 1.99874E+01 9.83057E-02 3.25112E-04-7.98004E-02-5.12810E-15-2.03044E-13
 -1      4038 2.03408E+01 1.21362E-01-8.61766E-04-7.15869E-02 6.87024E-14-2.92608E-13
 -1      4039 2.03606E+01 1.92796E-01 1.07558E-03-4.87576E-02 7.70104E-14-2.60796E-13
 -1      4040 2.03031E+01 1.99276E-02-3.54145E-04-9.46315E-02 6.42021E-14-2.52431E-13
 -1      4041 2.03246E+01 6.52324E-02 8.27128E-04-8.27842E-02 6.36086E-14-2.52512E-13
 -1      4042 2.03601E+01 1.07974E-01-1.45150E-04-6.09330E-02 5.36772E-14-2.30448E-13
 -1      4043 1.47178E+01 9.83537E-01 4.78634E-02-9.55845E-01 1.02042E-13 1.60421E-13
 -1      4044 1.97427E+01 4.00890E-01 1.69659E-03-1.80186E-01-5.75884E-14-2.49310E-13
 -1      4045 2.01463E+01-7.74404E-02 3.59800E-04-9.01489E-02-1.27285E-14-1.71461E-13
 -1      4046 2.01616E+01-8.15050E-02 1.80928E-04-9.37926E-02 1.73356E-14-1.52270E-13
 -1      4047 1.50672E+01 1.03332E+00 1.08603E-03-2.40384E-01 1.99346E-14 1.06860E-13
 -1      4048 2.00548E+01 4.63490E-03-5.63284E-05-6.62014E-02-8.28474E-14-6.81071E-14
 -1      4049 2.03835E+01 7.98571E-01-1.48710E-03-7.51422E-02 3.62064E-14-2.64994E-13
 -1      4050 2.03701E+01 7.80860E-01-5.92373E-04-1.19130E-01 2.61481E-14-2.84161E-13
 -1      4051 1.99457E+01 1.57916E-01 5.72531E-04-9.48043E-02-1.83749E-14-1.71189E-13
 -1      4052 2.03929E+01 8.25327E-01-1.58709E-03 1.29147E-02 8.80380E-14-2.14160E-13
 -1      4053 2.04233E+01 6.75421E-01 3.84832E-03 9.88260E-04 7.22543E-14-2.25094E-13
 -1      4054 2.03900E+01 8.08912E-01-2.71968E-03 4.53370E-02 9.71565E-14-2.07070E-13
 -1      4055 2.03895E+01 2.62478E-01 4.37404E-04-2.70464E-02 9.25888E-14-2.49142E-13
 -1      4056 2.03682E+01 2.78958E-01-1.35991E-03-2.73929E-02 8.44180E-14-2.33762E-13
 -1      4057 2.03825E+01 3.84254E-01 9.98457E-04 1.09384E-02 1.05188E-13-2.29684E-13
 -1      4058 2.04135E+01 6.61219E-01 3.58441E-03-4.27150E-02 2.93959E-14-2.32994E-13
 -1      4059 1.71747E+01-2.17229E-01-9.01685E-04 2.44349E+00-9.32622E-14-2.28486E-14
 -1      4060 2.01146E+01-6.16126E-02 3.88120E-04-8.32536E-02 8.65442E-15-2.20797E-13
 -1      4061 2.01278E+01-7.08237E-02 2.80855E-05-8.65074E-02-1.61920E-14-2.17651E-13
 -1      4062 2.01526E+01-7.74887E-02-4.38273E-04-7.41654E-02 9.20017E-15-2.45546E-13
 -1      4063 1.60935E+01 4.75369E-01-1.29278E-02 1.77880E+00-9.60523E-14 4.99887E-14
 -1      4064 1.55237E+01 7.55287E-01 3.54893E-02 1.48008E+00-1.14497E-14 1.02396E-13
 -1      4065 2.02824E+01-1.43270E-02 5.95749E-04-9.92282E-02 5.53414E-14-2.28292E-13
 -1      4066 2.03194E+01 9.55223E-03-4.70699E-04-7.83301E-02 3.94203E-14-2.15423E-13
 -1      4067 2.02615E+01-4.09842E-02-6.92836E-05-1.03802E-01 3.12172E-14-2.29607E-13
 -1      4068 2.03580E+01 5.73169E-01 2.06417E-04 8.66760E-02 1.14989E-13-2.29206E-13
 -1      4069 2.00857E+01-3.72592E-02 3.87339E-04-7.86045E-02-1.12526E-14-1.73202E-13
 -1      4070 2.00974E+01-5.05372E-02-8.67806E-05-8.05107E-02 1.90683E-15-1.60415E-13
 -1      4071 2.01180E+01-5.85794E-02-3.32840E-04-6.90405E-02-2.20646E-14-2.69001E-13
 -1      4072 1.52758E+01 8.73839E-01-1.48285E-02 1.00556E+00-6.57157E-15 1.15534E-13
 -1      4073 2.00858E+01-3.08092E-02-2.05856E-04-6.60202E-02-3.96957E-14-1.14534E-13
 -1      4074 2.04245E+01 2.90678E-01 1.42740E-03 9.70195E-03 2.98261E-14-1.83716E-13
 -1      4075 2.04106E+01 1.98098E-01-8.94937E-04 2.64504E-02 2.58243E-14-1.57770E-13
 -1      4076 2.00849E+01-2.30435E-02 2.99533E-04-5.09335E-02-5.21648E-14-6.34581E-14
 -1      4077 2.01005E+01-3.94629E-02-1.36635E-05-5.11526E-02-4.26744E-14-8.20848E-14
 -1      4078 2.03963E+01 1.25107E-01 1.88887E-04 2.94299E-02 8.40021E-15-1.41986E-13
 -1      4079 2.03779E+01 6.52171E-02-1.31337E-05 3.98916E-02 8.01767E-15-1.48586E-13
 -1      4080 2.04131E+01 1.72610E-01-4.38741E-04 1.41698E-02 4.13447E-14-1.88235E-13
 -1      4081 2.03571E+01 1.71803E-02 2.15472E-04 4.04893E-02 1.09998E-15-1.33454E-13
 -1      4082 2.03344E+01-1.91294E-02-2.48820E-06 4.56803E-02 1.87165E-14-1.26567E-13
 -1      4083 2.03777E+01 4.65073E-02-5.43068E-04 2.20299E-02 1.25923E-14-1.22122E-13
 -1      4084 2.03114E+01-4.66820E-02 3.35641E-04 4.56143E-02 1.44369E-14-1.45566E-13
 -1      4085 2.02880E+01-6.63288E-02 1.50280E-04 4.71873E-02-7.85233E-16-1.10507E-13
 -1      4086 2.03321E+01-3.06505E-02-4.65232E-04 2.56173E-02 5.27275E-16-1.59309E-13
 -1      4087 2.02637E+01-7.89788E-02 2.56379E-04 4.60158E-02-2.70494E-14-9.22899E-14
 -1      4088 2.02418E+01-8.61175E-02 4.09215E-04 4.59612E-02-2.22080E-14-9.32969E-14
 -1      4089 2.02840E+01-7.26333E-02-6.49970E-04 2.57767E-02-3.32893E-15-1.83154E-13
 -1      4090 2.02180E+01-8.86305E-02 2.16984E-04 4.36357E-02-6.89370E-15-1.28169E-13
 -1      4091 2.01972E+01-8.66637E-02 3.87887E-04 4.27173E-02-3.72806E-14-1.30277E-13
 -1      4092 2.02373E+01-8.94329E-02-8.79238E-04 2.43092E-02-4.03103E-14-1.81642E-13
 -1      4093 2.01751E+01-8.14721E-02 1.83460E-04 4.07458E-02-8.04422E-14-1.11114E-13
 -1      4094 2.01560E+01-7.30333E-02 3.71881E-04 3.96716E-02-7.80070E-14-1.36687E-13
 -1      4095 2.01919E+01-8.63303E-02-9.25894E-04 2.30368E-02-4.41391E-14-1.73439E-13
 -1      4096 2.01353E+01-6.22784E-02 8.23314E-05 3.80530E-02-4.73829E-14-1.27554E-13
 -1      4097 2.01176E+01-4.88461E-02 3.27110E-04 3.73962E-02-5.02117E-15-1.58603E-13
 -1      4098 2.01502E+01-6.95475E-02-7.38157E-04 2.16644E-02-2.93280E-14-1.37976E-13
 -1      4099 2.00979E+01-3.36196E-02-3.06905E-05 3.64180E-02 2.07507E-14-1.34100E-13
 -1      4100 2.00810E+01-1.60322E-02 2.70042E-04 3.66724E-02 2.26432E-14-1.09895E-13
 -1      4101 2.01111E+01-4.21568E-02-4.79555E-04 2.07510E-02 7.53145E-15-2.01037E-13
 -1      4102 2.00614E+01 3.08612E-03-1.63197E-04 3.65703E-02 4.96847E-14-4.73491E-14
 -1      4103 2.00444E+01 2.45097E-02 2.05277E-04 3.81708E-02 6.75112E-14-1.48775E-14
 -1      4104 2.00733E+01-5.97877E-03-1.73448E-04 2.08141E-02 6.42047E-14-6.71845E-14
 -1      4105 2.00237E+01 4.73734E-02-3.19794E-04 3.91826E-02 5.31883E-14-1.76315E-14
 -1      4106 2.00056E+01 7.26801E-02 1.36015E-04 4.25446E-02-3.21208E-16 2.54075E-14
 -1      4107 2.00349E+01 3.82687E-02 1.79727E-04 2.22937E-02 6.98033E-14-1.28980E-13
 -1      4108 1.99824E+01 9.94318E-02-5.06352E-04 4.49503E-02-7.10854E-14 8.17035E-14
 -1      4109 1.99617E+01 1.28892E-01 6.46260E-05 5.05109E-02-4.05551E-14 4.44274E-14
 -1      4110 1.99933E+01 9.06459E-02 5.87327E-04 2.56568E-02-2.06056E-14-7.21439E-14
 -1      4111 1.99344E+01 1.59818E-01-7.30303E-04 5.46698E-02-4.89985E-14 1.36222E-13
 -1      4112 1.99097E+01 1.93777E-01-6.16072E-06 6.29280E-02-3.47194E-14 8.02519E-14
 -1      4113 1.99455E+01 1.51693E-01 1.06095E-03 3.14676E-02-7.00904E-15 3.67790E-14
 -1      4114 1.98761E+01 2.29151E-01-1.00081E-03 6.93217E-02-1.98129E-14 8.75339E-14
 -1      4115 1.98457E+01 2.67868E-01-7.18346E-05 8.08811E-02-6.94530E-15 2.78147E-14
 -1      4116 1.98880E+01 2.22132E-01 1.61489E-03 4.04624E-02-5.10436E-14-5.59436E-15
 -1      4117 1.98038E+01 3.07771E-01-1.32926E-03 9.01680E-02-4.05784E-14-3.84813E-14
 -1      4118 1.97658E+01 3.51224E-01-1.24355E-04 1.05789E-01-1.01081E-13-3.31427E-14
 -1      4119 1.98168E+01 3.02536E-01 2.26530E-03 5.36446E-02-9.21382E-14-4.27649E-14
 -1      4120 1.97130E+01 3.95327E-01-1.73045E-03 1.18878E-01-9.75979E-14-1.47721E-14
 -1      4121 1.96656E+01 4.42986E-01-1.49895E-04 1.39552E-01-9.99940E-14-3.97643E-14
 -1      4122 1.97272E+01 3.92957E-01 3.03012E-03 7.24126E-02-9.92911E-14-4.39271E-14
 -1      4123 1.95991E+01 4.90290E-01-2.22500E-03 1.57705E-01-9.24170E-14-4.11101E-14
 -1      4124 1.95405E+01 5.40847E-01-1.25859E-04 1.84760E-01-4.19362E-14-3.58575E-15
 -1      4125 1.96143E+01 4.92479E-01 3.93058E-03 9.87394E-02-7.80006E-14-1.11055E-13
 -1      4126 1.94571E+01 5.89369E-01-2.84391E-03 2.09739E-01 5.93760E-14-8.80603E-14
 -1      4127 1.93855E+01 6.40421E-01-1.69881E-05 2.45010E-01 6.83586E-14-1.29219E-14
 -1      4128 1.94724E+01 5.98717E-01 4.99503E-03 1.35427E-01-7.20353E-14-1.39421E-13
 -1      4129 1.92819E+01 6.86843E-01-3.63686E-03 2.79292E-01-3.49550E-14-6.18014E-14
 -1      4130 1.91962E+01 7.34554E-01 2.29456E-04 3.25386E-01 2.22104E-14-1.47417E-13
 -1      4131 1.92956E+01 7.07241E-01 6.26570E-03 1.86473E-01-4.00554E-14-1.52460E-13
 -1      4132 1.90683E+01 7.73828E-01-4.68626E-03 3.72486E-01 2.24673E-14-2.17930E-13
 -1      4133 1.89680E+01 8.12567E-01 6.90299E-04 4.33215E-01-5.56622E-14-3.09309E-13
 -1      4134 1.90773E+01 8.10985E-01 7.80279E-03 2.57594E-01-6.13768E-14-3.82275E-13
 -1      4135 1.88109E+01 8.37548E-01-6.12226E-03 4.98207E-01-2.34698E-14-2.97437E-13
 -1      4136 1.86968E+01 8.59469E-01 1.50921E-03 5.79291E-01-2.87923E-14-2.48030E-13
 -1      4137 1.88097E+01 8.99602E-01 9.64359E-03 3.56966E-01-2.38248E-14-4.19363E-13
 -1      4138 1.85043E+01 8.60397E-01-8.12758E-03 6.69838E-01-6.11212E-14-1.84613E-13
 -1      4139 1.83789E+01 8.54330E-01 2.65266E-03 7.80202E-01-2.56400E-14-1.83813E-13
 -1      4140 1.84828E+01 9.58352E-01 1.14028E-02 4.96216E-01-9.68062E-15-3.43313E-13
 -1      4141 1.81438E+01 8.22751E-01-9.67507E-03 9.06217E-01-9.60454E-15-1.41598E-13
 -1      4142 1.80076E+01 7.70219E-01 3.26018E-03 1.06434E+00-3.83544E-14-1.43975E-13
 -1      4143 1.80813E+01 9.60218E-01 9.47907E-03 6.89986E-01-8.57680E-15-1.13101E-13
 -1      4144 1.77248E+01 6.84663E-01-1.25772E-02 1.23102E+00-1.05894E-13-4.74611E-14
 -1      4145 1.75780E+01 5.50665E-01-4.96228E-03 1.46541E+00-1.03618E-13 3.24270E-14
 -1      4146 1.76026E+01 8.76157E-01 3.47191E-03 9.67883E-01 2.88945E-15-1.47528E-13
 -1      4147 1.71939E+01 2.29976E-01 2.60265E-02 2.02123E+00-3.57034E-14-6.24808E-14
 -1      4148 1.53780E+01 1.12846E+00 3.41842E-02 3.88736E-01 7.83867E-14 2.42123E-13
 -1      4149 1.58108E+01 1.09359E+00-2.27300E-02-4.31417E-01 5.75234E-15 1.02686E-13
 -1      4150 1.63513E+01 1.15762E+00-1.70031E-02-3.49554E-01 5.74937E-14 1.48365E-13
 -1      4151 1.60573E+01 1.01664E+00 6.26336E-03 6.67244E-01 4.13411E-14 2.44966E-14
 -1      4152 1.98653E+01 2.52495E-01-3.08237E-04-9.40529E-02-1.84349E-14-1.41198E-13
 -1      4153 1.98945E+01 2.14124E-01-8.01389E-04-8.29278E-02 6.85196E-15-1.46647E-13
 -1      4154 1.99255E+01 1.78805E-01-1.25621E-04-7.68296E-02-2.57939E-14-1.39346E-13
 -1      4155 1.99486E+01 1.45722E-01-6.00301E-04-6.85541E-02-2.76101E-14-1.26176E-13
 -1      4156 1.99037E+01 2.06353E-01 1.32025E-03-5.50922E-02-1.53248E-14-1.67306E-13
 -1      4157 1.99739E+01 1.15415E-01 1.81344E-05-6.43149E-02-1.44600E-14-1.53319E-13
 -1      4158 1.99929E+01 8.70662E-02-4.26294E-04-5.86652E-02 3.70318E-15-1.14277E-13
 -1      4159 1.99579E+01 1.37449E-01 8.02359E-04-4.64536E-02-2.56267E-14-1.99835E-13
 -1      4160 1.93976E+01 6.60579E-01-1.79757E-03-2.07828E-01-6.35100E-14 7.83305E-15
 -1      4161 1.94811E+01 6.00430E-01-1.97135E-03-1.86172E-01-6.62461E-14 5.17963E-14
 -1      4162 1.95621E+01 5.42501E-01-1.26065E-03-1.73888E-01-1.44660E-13-9.66517E-15
 -1      4163 1.96263E+01 4.86891E-01-1.61065E-03-1.54280E-01-1.28098E-13-3.14030E-14
 -1      4164 1.94988E+01 5.94527E-01 4.55944E-03-1.11842E-01-1.27678E-13-6.56433E-14
 -1      4165 1.89167E+01 9.09687E-01-3.44819E-03-2.77165E-01 1.31457E-14 1.67905E-14
 -1      4166 1.90558E+01 8.47947E-01-2.97336E-03-2.54030E-01 6.84689E-14 8.90513E-14
 -1      4167 1.85717E+01 1.02595E+00-4.71520E-03-3.08119E-01-8.10353E-14 9.61905E-14
 -1      4168 1.87508E+01 9.69969E-01-3.77237E-03-2.85232E-01-3.16941E-14 9.71980E-14
 -1      4169 1.87964E+01 9.69257E-01 9.37065E-03-1.37102E-01-2.49548E-14 5.79316E-14
 -1      4170 1.81301E+01 1.12225E+00-5.89472E-03-3.35202E-01-4.81597E-14 1.30976E-13
 -1      4171 1.83597E+01 1.07853E+00-4.93987E-03-3.11589E-01-1.04332E-13 9.51713E-14
 -1      4172 1.84251E+01 1.08310E+00 1.19470E-02-1.24129E-01-4.83488E-14 2.78167E-14
 -1      4173 1.75595E+01 1.17779E+00-8.05790E-03-3.62833E-01 1.33789E-13 6.43778E-14
 -1      4174 1.78545E+01 1.15538E+00-7.86757E-03-3.36099E-01 1.06011E-13 9.63623E-14
 -1      4175 1.79432E+01 1.17478E+00 1.40165E-02-9.23746E-02 2.68638E-14-9.33042E-14
 -1      4176 1.68239E+01 1.18104E+00-1.00668E-02-3.86407E-01 6.73671E-14 3.99878E-14
 -1      4177 1.72133E+01 1.19230E+00-9.65758E-03-3.41667E-01 1.02000E-13 9.96375E-14
 -1      4178 1.73456E+01 1.20975E+00 1.23647E-02-5.17562E-02 1.25484E-13-2.58767E-14
 -1      4179 1.65714E+01 1.20175E+00 1.52125E-02 7.38899E-02 5.64804E-14 3.59795E-14
 -1      4180 1.96898E+01 4.34245E-01-8.53544E-04-1.42946E-01-9.39926E-14-3.19409E-14
 -1      4181 1.97390E+01 3.84227E-01-1.30176E-03-1.25954E-01-5.59808E-14-7.46622E-14
 -1      4182 1.96401E+01 4.80477E-01 3.52096E-03-9.58399E-02-1.06748E-13-5.08706E-14
 -1      4183 2.03892E+01 6.63197E-01 3.80034E-03-8.19656E-02 3.31428E-15-2.49095E-13
 -1      4184 2.03853E+01 5.03267E-01-3.30724E-03-3.66435E-02-7.84306E-15-2.09093E-13
 -1      4185 2.04054E+01 4.74265E-01-1.10788E-03-2.24564E-02 9.36546E-15-2.15891E-13
 -1      4186 1.97886E+01 3.37467E-01-5.44391E-04-1.16140E-01 2.27466E-14-1.21025E-13
 -1      4187 1.98264E+01 2.93358E-01-1.03385E-03-1.02054E-01 2.26223E-14-1.26669E-13
 -1      4188 1.98362E+01 2.86068E-01 1.93096E-03-6.64670E-02-3.24989E-14-1.89668E-13
 -1      4189 1.97503E+01 3.77381E-01 2.65596E-03-8.02852E-02-4.78813E-14-7.41161E-14
 -1      4190 2.04201E+01 4.84057E-01-1.64871E-03-8.31854E-03 3.45290E-14-2.08662E-13
 -1      4191 2.00145E+01 6.12170E-02 1.33373E-04-5.61585E-02 3.94149E-14-1.26628E-13
 -1      4192 2.00310E+01 3.70906E-02-2.74394E-04-5.28372E-02 2.94283E-14-9.94671E-14
 -1      4193 2.00028E+01 7.83205E-02 3.58878E-04-4.05648E-02 5.53862E-15-2.18711E-13
 -1      4194 1.69996E+01 5.24157E-01-7.28846E-03 1.58162E+00-7.38207E-14 1.28148E-14
 -1      4195 2.01899E+01-8.51362E-02-7.23086E-04-8.01555E-02 1.81620E-14-2.06530E-13
 -1      4196 2.01813E+01-8.21536E-02 2.85707E-04-9.73421E-02 1.10285E-14-1.49113E-13
 -1      4197 2.01994E+01-7.92177E-02 4.78149E-04-9.98361E-02-2.66947E-14-1.72763E-13
 -1      4198 1.91866E+01 7.84956E-01-2.50644E-03-2.43004E-01 1.63974E-14 5.99497E-14
 -1      4199 1.92945E+01 7.22334E-01-2.40805E-03-2.20138E-01-6.14330E-14 3.97333E-14
 -1      4200 1.90882E+01 8.44321E-01 7.38100E-03-1.36020E-01-3.69841E-14 3.04563E-15
 -1      4201 2.03767E+01 4.91358E-01-1.36133E-03 3.62951E-02 9.63782E-14-2.30417E-13
 -1      4202 2.03751E+01 6.63265E-01-5.93651E-04 1.00919E-01 9.08656E-14-2.64927E-13
 -1      4203 2.03832E+01 7.25940E-01 4.21645E-04 8.97462E-02 8.30118E-14-2.69933E-13
 -1      4204 2.03986E+01 4.63961E-01-4.92146E-04 2.17637E-02 9.92783E-14-2.33145E-13
 -1      4205 2.00506E+01 1.52520E-02 2.26389E-04-5.18865E-02-6.89126E-14-1.14600E-13
 -1      4206 2.00661E+01-4.99502E-03-1.38926E-04-5.05407E-02-9.04265E-14-1.27873E-13
 -1      4207 2.00422E+01 2.79931E-02-2.54380E-05-3.72544E-02-2.75840E-14-1.34958E-13
 -1      4208 2.03707E+01 8.21132E-02-5.27139E-04-5.27169E-02 3.79445E-14-1.83577E-13
 -1      4209 2.03909E+01 1.46526E-01 8.47428E-04-3.86695E-02 5.25032E-14-1.96901E-13
 -1      4210 2.04277E+01 4.41707E-01-2.78025E-04-3.56272E-03 4.20732E-14-1.95017E-13
 -1      4211 1.67429E+01 8.37874E-01 9.89274E-03 1.20475E+00-4.03015E-14-7.20310E-14
 -1      4212 2.01155E+01-4.82270E-02-6.55212E-04-3.70575E-02-6.80477E-14-1.90326E-14
 -1      4213 2.01197E+01-5.35990E-02 3.51050E-04-5.26368E-02-5.90162E-14-1.08382E-13
 -1      4214 2.01363E+01-6.58256E-02 1.07299E-04-5.39353E-02-9.73249E-15-1.48590E-13
 -1      4215 2.03883E+01 7.47774E-01-1.71003E-03 8.08487E-02 8.10653E-14-2.65601E-13
 -1      4216 2.03907E+01 7.95122E-01-3.50679E-04 6.03453E-02 8.59419E-14-2.59922E-13
 -1      4217 2.04199E+01 6.51338E-01 2.32105E-03 3.23433E-02 7.53270E-14-2.20323E-13
 -1      4218 2.04064E+01 6.10379E-01 2.09807E-03 4.57393E-02 9.22345E-14-2.69509E-13
 -1      4219 1.65362E+01 9.83745E-01 3.57896E-03 9.09310E-01-1.21374E-14-5.76943E-14
 -1      4220 1.65136E+01 1.11828E+00-9.91559E-03 3.82136E-01 1.60499E-14 7.28042E-15
 -1      4221 1.69744E+01 1.14602E+00-7.78894E-04 3.00697E-01 1.90698E-14-8.44157E-14
 -1      4222 1.71874E+01 9.51786E-01 8.71255E-03 8.63835E-01 3.00847E-14-1.40271E-13
 -1      4223 1.93182E+01 7.17223E-01 5.82011E-03-1.26235E-01-9.05197E-14 8.80914E-15
 -1      4224 2.02204E+01-7.21373E-02 2.05016E-04-1.03144E-01-3.18771E-14-1.96009E-13
 -1      4225 2.02403E+01-5.93226E-02 6.26905E-04-1.03058E-01-3.38548E-15-2.11289E-13
 -1      4226 2.02760E+01-4.94508E-02-9.09355E-04-8.53157E-02-6.52652E-15-1.64427E-13
 -1      4227 2.02321E+01-7.86636E-02-1.05227E-03-8.52138E-02-2.82952E-14-1.70348E-13
 -1      4228 2.01967E+01-8.66664E-02 3.72878E-04-6.06688E-02 2.88925E-15-1.83449E-13
 -1      4229 2.02182E+01-8.73357E-02 5.67332E-04-6.26475E-02-1.44090E-14-1.48822E-13
 -1      4230 2.04007E+01 2.23799E-01-1.30613E-03-3.13359E-02 9.49705E-14-2.09863E-13
 -1      4231 2.04144E+01 3.18839E-01 2.81090E-04-6.87405E-03 8.97495E-14-2.12795E-13
 -1      4232 2.04107E+01 1.99946E-01-3.49954E-04-2.30798E-02 6.71272E-14-1.75335E-13
 -1      4233 2.01749E+01-8.25334E-02 2.42232E-04-5.80307E-02 1.10152E-14-1.79232E-13
 -1      4234 2.01953E+01-8.74971E-02-9.77408E-04-4.18434E-02-1.39486E-14-1.25309E-13
 -1      4235 2.01565E+01-7.54657E-02 3.74962E-04-5.62080E-02 7.02902E-15-1.87251E-13
 -1      4236 2.03312E+01-6.93292E-03 2.10409E-04-6.20061E-02 1.49182E-14-1.67816E-13
 -1      4237 2.03533E+01 3.17158E-02 7.82942E-04-5.57136E-02 4.23513E-14-1.84213E-13
 -1      4238 2.03771E+01 6.44669E-02-6.90415E-04-3.76954E-02 2.99892E-14-1.50617E-13
 -1      4239 2.00790E+01-1.41737E-02-3.61793E-04-3.62226E-02-4.04492E-14-8.65385E-14
 -1      4240 2.03846E+01 5.45956E-02 2.53314E-05-9.92901E-03 3.64800E-15-1.47722E-13
 -1      4241 2.03629E+01 8.61328E-03 4.78985E-04-7.62708E-03-4.38854E-15-1.45291E-13
 -1      4242 2.03010E+01-6.66779E-02 2.07283E-04 4.10640E-03-3.02179E-14-1.31685E-13
 -1      4243 2.02784E+01-8.00786E-02 6.67790E-04 4.90332E-03-2.52204E-14-1.69531E-13
 -1      4244 2.02439E+01-8.79368E-02 2.97127E-04-9.43317E-03-2.65745E-14-1.56994E-13
 -1      4245 2.02215E+01-8.89767E-02 6.80753E-04-8.65133E-03-4.47332E-14-1.42413E-13
 -1      4246 2.01998E+01-8.60377E-02 5.78645E-04-8.40239E-03-1.60618E-14-1.28088E-13
 -1      4247 2.01778E+01-8.01599E-02 6.02158E-04-8.29950E-03-5.26022E-15-8.88727E-14
 -1      4248 2.01574E+01-7.06434E-02 5.45102E-04-7.83818E-03-1.18290E-14-8.13673E-14
 -1      4249 2.01366E+01-5.91342E-02 4.61696E-04-7.85422E-03 3.49543E-15-7.53545E-14
 -1      4250 2.01173E+01-4.47306E-02 3.80485E-04-7.61500E-03-2.17551E-14-7.88824E-14
 -1      4251 2.00975E+01-2.85894E-02 2.86538E-04-7.47429E-03 2.01558E-15-6.95018E-14
 -1      4252 2.00785E+01-1.00683E-02 1.64493E-04-7.74205E-03-1.61497E-15-1.05280E-13
 -1      4253 2.00588E+01 1.02181E-02 9.23884E-05-7.28425E-03 6.67789E-15-1.17601E-13
 -1      4254 2.00391E+01 3.25978E-02-9.36572E-05-8.24495E-03 2.46304E-14-1.45448E-13
 -1      4255 2.00184E+01 5.69808E-02-1.22108E-04-7.31318E-03-6.15390E-16-1.79074E-13
 -1      4256 1.99966E+01 8.33299E-02-3.96859E-04-9.08849E-03 5.88379E-15-1.85575E-13
 -1      4257 1.99734E+01 1.12063E-01-3.62449E-04-7.49899E-03-1.12088E-15-1.54364E-13
 -1      4258 1.99478E+01 1.42725E-01-7.53470E-04-1.01433E-02-4.93175E-14-1.30819E-13
 -1      4259 1.99206E+01 1.76225E-01-6.35579E-04-7.65588E-03-2.35378E-14-9.75913E-14
 -1      4260 1.98891E+01 2.11638E-01-1.17569E-03-1.11337E-02-2.20114E-14-1.09791E-13
 -1      4261 1.98559E+01 2.50345E-01-9.48732E-04-7.41420E-03-5.97234E-14-1.33656E-13
 -1      4262 1.98162E+01 2.90890E-01-1.67919E-03-1.15590E-02-9.51588E-14-8.59129E-14
 -1      4263 1.97747E+01 3.35097E-01-1.30879E-03-6.12751E-03-8.50371E-14-1.30822E-13
 -1      4264 1.97241E+01 3.80926E-01-2.28371E-03-1.05793E-02-1.02175E-13-6.67221E-14
 -1      4265 1.96718E+01 4.30591E-01-1.72219E-03-2.73841E-03-7.75392E-14-2.62794E-14
 -1      4266 1.96070E+01 4.81416E-01-3.01508E-03-6.86131E-03-1.02558E-13-4.50655E-14
 -1      4267 1.95413E+01 5.35937E-01-2.19594E-03 4.40614E-03-1.17021E-13-1.14361E-13
 -1      4268 1.94583E+01 5.90794E-01-3.90961E-03 1.62585E-03-1.24224E-13-4.71662E-14
 -1      4269 1.93761E+01 6.48755E-01-2.74021E-03 1.77992E-02-1.22878E-13-1.24674E-13
 -1      4270 1.92704E+01 7.05733E-01-5.02196E-03 1.78685E-02-7.85545E-14-8.57658E-14
 -1      4271 1.91684E+01 7.64641E-01-3.37214E-03 4.10879E-02-8.48619E-14-1.64462E-13
 -1      4272 1.90341E+01 8.20601E-01-6.43429E-03 4.61352E-02-9.37089E-14-2.20120E-13
 -1      4273 1.89085E+01 8.76639E-01-4.11172E-03 7.94688E-02-7.50092E-14-2.32760E-13
 -1      4274 1.87382E+01 9.27011E-01-8.23923E-03 9.24295E-02-4.45835E-15-2.36558E-13
 -1      4275 1.85847E+01 9.74872E-01-4.90082E-03 1.40199E-01 4.48030E-14-1.84048E-13
 -1      4276 1.83685E+01 1.01387E+00-1.02996E-02 1.65361E-01 1.26325E-14-2.28970E-13
 -1      4277 1.81831E+01 1.04662E+00-5.09150E-03 2.33942E-01-4.87143E-15-1.70172E-13
 -1      4278 1.79066E+01 1.07370E+00-9.68056E-03 2.79562E-01 2.27957E-14-2.02145E-13
 -1      4279 1.76894E+01 1.08191E+00-6.36846E-04 3.69695E-01 7.37081E-14-1.81806E-13
 -1      4280 1.74134E+01 1.00564E+00-3.46441E-03 7.04046E-01 2.78601E-14-1.25615E-13
 -1      4281 2.02518E+01-8.47550E-02-8.89788E-04-2.94999E-02-4.07413E-14-1.13098E-13
 -1      4282 2.02540E+01-8.07910E-02 1.77448E-04-5.03584E-02-1.01868E-14-1.45822E-13
 -1      4283 2.04283E+01 5.33181E-01-1.50508E-03 6.87870E-03 6.58095E-14-2.18194E-13
 -1      4284 2.04300E+01 5.33925E-01-5.66537E-04-6.22981E-03 4.41865E-14-2.19710E-13
 -1      4285 2.04257E+01 4.63712E-01 2.87199E-04 5.64396E-03 6.80464E-14-1.83228E-13
 -1      4286 2.04335E+01 3.50815E-01 5.34645E-04-3.69165E-03 6.08108E-14-1.95752E-13
 -1      4287 2.04185E+01 1.85319E-01-1.22786E-04-8.30897E-03 6.11330E-14-2.00656E-13
 -1      4288 2.04044E+01 1.11973E-01 7.58666E-04-3.96295E-03 3.01581E-14-1.78228E-13
 -1      4289 2.04303E+01 2.73725E-01 9.45204E-04 1.94022E-04 6.89301E-14-1.89992E-13
 -1      4290 2.01538E+01-7.33496E-02-8.94654E-04-3.92114E-02 1.49376E-14-7.01205E-14
 -1      4291 2.03497E+01-1.68111E-02 2.35674E-04 4.65073E-03 2.26093E-15-1.37254E-13
 -1      4292 2.03257E+01-4.59170E-02 4.05828E-04 6.06376E-03 1.52763E-14-1.45084E-13
 -1      4293 2.03480E+01-1.09827E-02-8.08757E-04-3.04640E-02 1.30882E-14-1.28043E-13
 -1      4294 2.04327E+01 3.32460E-01-8.58136E-05 1.82859E-03 5.59750E-14-1.99902E-13
 -1      4295 1.72951E+01 1.15570E+00-6.96972E-04 2.45260E-01 6.26145E-14-1.47299E-13
 -1      4296 2.02772E+01-6.99177E-02 7.73669E-04-5.01246E-02-1.46696E-14-1.40930E-13
 -1      4297 2.03118E+01-5.66050E-02-8.95546E-04-1.67605E-02-1.56110E-14-9.58851E-14
 -1      4298 2.03237E+01-2.79915E-02 7.01684E-04-4.90934E-02-3.21593E-15-1.42681E-13
 -1      4299 2.03015E+01-5.21200E-02 2.90462E-04-5.12114E-02-1.98811E-14-1.42569E-13
 -1      4300 2.04073E+01 4.88776E-01-5.19652E-04 1.96416E-02 8.27715E-14-2.39652E-13
 -1      4301 2.04160E+01 5.04208E-01-1.46785E-04 1.36361E-02 6.90543E-14-2.21010E-13
 -3
    1PSTEP                         3           1           1          
  100CL  101 1.000000000        4301                     0    1           1
 -4  TOSTRAIN    6    1
 -5  EXX         1    4    1    1
 -5  EYY         1    4    2    2
 -5  EZZ         1    4    3    3
 -5  EXY         1    4    1    2
 -5  EYZ         1    4    2    3
 -5  EZX         1    4    3    1
 -1         1 2.46333E-05 2.55859E-05-2.29738E-05-4.59001E-05-1.19660E-17 1.09742E-17
 -1         2 4.06145E-05-1.24473E-04 2.27187E-05-8.06686E-07 2.50452E-17 9.00290E-19
 -1         3 9.49523E-05-2.88786E-05-2.80857E-05-3.80473E-07-2.64788E-18-2.68013E-18
 -1         4 9.51370E-05-2.86708E-05-2.83434E-05 8.20711E-08 4.42780E-19 9.47457E-19
 -1         5 1.43348E-04-2.14785E-05-4.25284E-05 3.85316E-05-2.20652E-19 1.52993E-17
 -1         6 1.45409E-04 2.57574E-10-4.41874E-05-5.35271E-05-9.70276E-19 1.26928E-17
 -1         7 9.06085E-05-5.11092E-07-3.90682E-05-2.92529E-05-1.47384E-19 1.25581E-18
 -1         8 8.51253E-05 8.64329E-08-3.63390E-05-2.02722E-05-1.41984E-19-1.98971E-18
 -1         9 8.28161E-05 7.59711E-08-3.53512E-05-1.56403E-05-1.28961E-19-3.63283E-18
 -1        10 8.17711E-05 3.97236E-08-3.48816E-05-1.20784E-05-7.38375E-20-4.31780E-18
 -1        11 8.12524E-05 1.93262E-08-3.46529E-05-9.01474E-06-4.44692E-20-4.54829E-18
 -1        12 8.09836E-05 9.11738E-09-3.45384E-05-6.28471E-06-7.71263E-21-4.60375E-18
 -1        13 8.08419E-05 4.57227E-09-3.44807E-05-3.68559E-06 3.20946E-22-4.56043E-18
 -1        14 8.07826E-05 2.74057E-09-3.44571E-05-1.18358E-06 2.83258E-20-4.35697E-18
 -1        15 8.07846E-05 2.73316E-09-3.44578E-05 1.28902E-06 7.16758E-20-4.23378E-18
 -1        16 8.08482E-05 4.52412E-09-3.44829E-05 3.79610E-06 6.82598E-20-4.00503E-18
 -1        17 8.09951E-05 8.40776E-09-3.45422E-05 6.40707E-06 8.93272E-20-3.64492E-18
 -1        18 8.12701E-05 1.81708E-08-3.46580E-05 9.15616E-06 1.30562E-19-3.19080E-18
 -1        19 8.17970E-05 3.81954E-08-3.48899E-05 1.22584E-05 1.64735E-19-2.50140E-18
 -1        20 8.28360E-05 8.15276E-08-3.53635E-05 1.58711E-05 1.86493E-19-1.31277E-18
 -1        21 8.50904E-05 1.69461E-07-3.63775E-05 2.04828E-05 2.11996E-19 1.06151E-18
 -1        22 9.16458E-05-9.96754E-08-3.87398E-05 2.79997E-05 1.96935E-20 5.63055E-18
 -1        23 1.12978E-04-3.81276E-05-3.53980E-05-4.40247E-06-6.49542E-19 9.35326E-18
 -1        24 9.28110E-05-2.76990E-05-2.90011E-05 3.91401E-07-1.96148E-19 6.43049E-18
 -1        25 8.91279E-05-2.68547E-05-2.69317E-05 3.76047E-07-9.11288E-20 3.80510E-18
 -1        26 8.80256E-05-2.64914E-05-2.63946E-05 2.03932E-07-1.44426E-21 1.86098E-18
 -1        27 8.80521E-05-2.64696E-05-2.63870E-05 1.39943E-07-2.03073E-22 7.42921E-19
 -1        28 8.85866E-05-2.66063E-05-2.65567E-05 1.01003E-07-1.32461E-19-2.90473E-19
 -1        29 8.93419E-05-2.68191E-05-2.67893E-05 7.52319E-08 3.08957E-20-1.22144E-18
 -1        30 9.01661E-05-2.70587E-05-2.70392E-05 5.68740E-08 2.30952E-20-1.43086E-18
 -1        31 9.09744E-05-2.72967E-05-2.72830E-05 4.30684E-08-7.49905E-20-1.93162E-18
 -1        32 9.17201E-05-2.75178E-05-2.75077E-05 3.23529E-08-2.02128E-19-3.43166E-18
 -1        33 9.23799E-05-2.77142E-05-2.77067E-05 2.39123E-08 7.52525E-20-4.32597E-18
 -1        34 9.29456E-05-2.78831E-05-2.78774E-05 1.72341E-08-1.55549E-20-4.64056E-18
 -1        35 9.34192E-05-2.80248E-05-2.80205E-05 1.19581E-08 3.25590E-20-4.70384E-18
 -1        36 9.38090E-05-2.81417E-05-2.81384E-05 7.81367E-09 1.37861E-19-4.34623E-18
 -1        37 9.41275E-05-2.82374E-05-2.82349E-05 4.59240E-09-1.29315E-19-4.14052E-18
 -1        38 9.43901E-05-2.83166E-05-2.83146E-05 2.13843E-09 4.71892E-20-4.70359E-18
 -1        39 9.46144E-05-2.83843E-05-2.83829E-05 3.45933E-10-1.44904E-19-5.56245E-18
 -1        40 9.48201E-05-2.84467E-05-2.84456E-05-8.38784E-10 1.78654E-19-5.56119E-18
 -1        41 9.50292E-05-2.85102E-05-2.85095E-05-1.41256E-09 5.96088E-20-6.62628E-18
 -1        42 9.52667E-05-2.85823E-05-2.85820E-05-1.30867E-09 3.45674E-20-7.74674E-18
 -1        43 9.55609E-05-2.86715E-05-2.86717E-05-3.89021E-10-2.96248E-19-7.63542E-18
 -1        44 9.59442E-05-2.87874E-05-2.87885E-05 1.56337E-09 4.24499E-20-6.38714E-18
 -1        45 9.64531E-05-2.89410E-05-2.89433E-05 4.84829E-09-1.38240E-19-5.84818E-18
 -1        46 9.71281E-05-2.91444E-05-2.91482E-05 9.84211E-09 1.43356E-19-6.97373E-18
 -1        47 9.80117E-05-2.94100E-05-2.94158E-05 1.69687E-08-5.35492E-20-5.51067E-18
 -1        48 9.91445E-05-2.97498E-05-2.97582E-05 2.66242E-08 2.58102E-19-5.10663E-18
 -1        49 1.00558E-04-3.01731E-05-3.01841E-05 3.90159E-08-3.63432E-20-5.05655E-18
 -1        50 1.02263E-04-3.06825E-05-3.06957E-05 5.38517E-08-1.54607E-19-6.43276E-18
 -1        51 1.04230E-04-3.12689E-05-3.12823E-05 6.97986E-08-3.38073E-20-6.76079E-18
 -1        52 1.06361E-04-3.19029E-05-3.19124E-05 8.36359E-08-2.02554E-19-6.21542E-18
 -1        53 1.08458E-04-3.25252E-05-3.25232E-05 8.91560E-08 2.89959E-19-6.29984E-18
 -1        54 1.10187E-04-3.30366E-05-3.30120E-05 7.62423E-08-1.13335E-19-6.82027E-18
 -1        55 1.11062E-04-3.32936E-05-3.32342E-05 3.12917E-08-3.98941E-19-6.78588E-18
 -1        56 1.10487E-04-3.31198E-05-3.30190E-05-5.87168E-08-5.46477E-20-7.26941E-18
 -1        57 1.07895E-04-3.23471E-05-3.22160E-05-1.95716E-07 4.83006E-19-4.81959E-18
 -1        58 1.03026E-04-3.08966E-05-3.07740E-05-3.55088E-07 1.81594E-19-4.01646E-18
 -1        59 9.62709E-05-2.88825E-05-2.88303E-05-4.76209E-07-3.46787E-19-3.92367E-18
 -1        60 8.88864E-05-2.66770E-05-2.67501E-05-4.79212E-07-3.15124E-19-3.38535E-18
 -1        61 8.27781E-05-2.48497E-05-2.50494E-05-3.17601E-07-1.15491E-20-2.63554E-18
 -1        62 7.97438E-05-2.39409E-05-2.41950E-05-3.19303E-08 5.87910E-20-2.92881E-18
 -1        63 8.05372E-05-2.41782E-05-2.43776E-05 2.54550E-07-3.29718E-19-3.61514E-18
 -1        64 8.44222E-05-2.53401E-05-2.54094E-05 4.16092E-07 1.70041E-19-5.34114E-18
 -1        65 8.95991E-05-2.68857E-05-2.68248E-05 4.07923E-07-7.91866E-19-5.40063E-18
 -1        66 9.41633E-05-2.82460E-05-2.81118E-05 2.76508E-07 3.98975E-19-4.90625E-18
 -1        67 9.69154E-05-2.90651E-05-2.89280E-05 1.07134E-07 8.05644E-19-1.54009E-18
 -1        68 9.76334E-05-2.92788E-05-2.91906E-05-2.91276E-08 6.46257E-19 7.16764E-19
 -1        69 9.68889E-05-2.90572E-05-2.90425E-05-9.18319E-08 7.74132E-19 1.86394E-19
 -1        70 9.56902E-05-2.86960E-05-2.87461E-05-4.93071E-08-4.09241E-19 2.59723E-18
 -1        71 9.50480E-05-2.84872E-05-2.85264E-05 6.03968E-08-4.39889E-19 2.62672E-18
 -1        72 1.02182E-04-3.05885E-05-3.41513E-05-1.92906E-06 1.61360E-19 1.42810E-17
 -1        73 9.25675E-05-2.75151E-05-2.89095E-05-3.33252E-07 1.25331E-19 1.12112E-17
 -1        74 8.91149E-05-2.67040E-05-2.69749E-05-1.25949E-07 9.56800E-20 8.69793E-18
 -1        75 8.80551E-05-2.64420E-05-2.64385E-05-9.56140E-08-4.72519E-20 6.93220E-18
 -1        76 8.80872E-05-2.64498E-05-2.64136E-05-7.66254E-08 7.07260E-20 5.72054E-18
 -1        77 8.86207E-05-2.66008E-05-2.65738E-05-6.25659E-08-1.11289E-19 4.83983E-18
 -1        78 8.93730E-05-2.68203E-05-2.68016E-05-5.17779E-08 5.40097E-20 4.61664E-18
 -1        79 9.01937E-05-2.70632E-05-2.70485E-05-4.28789E-08-2.80743E-20 4.25721E-18
 -1        80 9.09982E-05-2.73026E-05-2.72902E-05-3.52077E-08-7.66579E-21 4.18310E-18
 -1        81 9.17401E-05-2.75241E-05-2.75132E-05-2.84989E-08 2.53860E-19 3.48739E-18
 -1        82 9.23960E-05-2.77201E-05-2.77107E-05-2.26309E-08-2.48018E-20 3.01795E-18
 -1        83 9.29581E-05-2.78883E-05-2.78802E-05-1.75229E-08 8.11455E-20 2.63720E-18
 -1        84 9.34280E-05-2.80290E-05-2.80222E-05-1.30971E-08-4.08096E-20 1.99979E-18
 -1        85 9.38141E-05-2.81448E-05-2.81391E-05-9.26865E-09 1.46900E-19 1.28199E-18
 -1        86 9.41286E-05-2.82391E-05-2.82345E-05-5.94621E-09 5.68480E-20 1.47204E-18
 -1        87 9.43869E-05-2.83167E-05-2.83131E-05-3.03676E-09-2.21413E-19 1.71628E-18
 -1        88 9.46063E-05-2.83828E-05-2.83800E-05-4.51601E-10-1.13318E-20 2.55947E-18
 -1        89 9.48067E-05-2.84432E-05-2.84414E-05 1.88661E-09 2.61211E-19 1.10872E-18
 -1        90 9.50105E-05-2.85047E-05-2.85038E-05 4.03550E-09 1.43285E-20-7.82029E-19
 -1        91 9.52434E-05-2.85750E-05-2.85753E-05 6.02254E-09-1.01855E-19-2.29530E-19
 -1        92 9.55361E-05-2.86634E-05-2.86650E-05 7.83067E-09-4.26219E-19 7.00591E-19
 -1        93 9.59252E-05-2.87807E-05-2.87841E-05 9.37640E-09 4.03297E-19 7.82532E-19
 -1        94 9.64554E-05-2.89404E-05-2.89461E-05 1.04754E-08-9.69628E-20-9.52061E-19
 -1        95 9.71812E-05-2.91588E-05-2.91676E-05 1.07877E-08-1.57003E-20-8.64139E-20
 -1        96 9.81685E-05-2.94555E-05-2.94687E-05 9.73025E-09 4.21729E-19 1.36316E-18
 -1        97 9.94965E-05-2.98539E-05-2.98730E-05 6.34431E-09-3.56399E-19 2.49713E-18
 -1        98 1.01256E-04-3.03810E-05-3.04081E-05-8.93228E-10 3.89683E-19 1.84033E-18
 -1        99 1.03544E-04-3.10656E-05-3.11027E-05-1.42978E-08-1.74917E-19-1.19080E-18
 -1       100 1.06454E-04-3.19343E-05-3.19828E-05-3.71423E-08-2.01746E-19-1.76666E-19
 -1       101 1.10038E-04-3.30028E-05-3.30614E-05-7.34321E-08 1.65409E-19-8.19425E-19
 -1       102 1.14259E-04-3.42594E-05-3.43193E-05-1.26486E-07-3.56835E-19-1.04917E-18
 -1       103 1.18884E-04-3.56365E-05-3.56737E-05-1.94765E-07 1.70131E-19 1.52709E-18
 -1       104 1.23341E-04-3.69692E-05-3.69360E-05-2.62793E-07-1.71722E-19 3.45936E-18
 -1       105 1.26563E-04-3.79489E-05-3.77746E-05-2.87155E-07 1.52478E-19 2.33712E-18
 -1       106 1.26951E-04-3.81073E-05-3.77307E-05-1.88868E-07-3.33572E-19 2.35655E-18
 -1       107 1.22732E-04-3.69074E-05-3.63605E-05 1.18106E-07 6.03263E-19-3.88206E-19
 -1       108 1.13004E-04-3.40374E-05-3.35415E-05 6.21827E-07-1.40573E-19-3.14212E-18
 -1       109 9.93008E-05-2.98815E-05-2.98308E-05 1.08468E-06 3.62867E-19-9.57147E-19
 -1       110 8.63430E-05-2.58483E-05-2.64689E-05 1.09386E-06-1.54286E-20-5.41201E-19
 -1       111 8.00300E-05-2.38156E-05-2.48409E-05 4.78288E-07-9.61085E-20 3.99953E-18
 -1       112 8.31984E-05-2.47573E-05-2.55741E-05-3.94389E-07-5.69914E-19 7.22715E-18
 -1       113 9.32132E-05-2.78736E-05-2.80683E-05-9.39961E-07 7.08200E-19 6.66006E-18
 -1       114 1.04177E-04-3.12852E-05-3.09300E-05-9.28599E-07-4.22875E-19 4.55751E-18
 -1       115 1.11212E-04-3.34540E-05-3.28942E-05-5.65931E-07 4.54092E-19 3.03937E-18
 -1       116 1.12664E-04-3.38893E-05-3.34126E-05-1.50525E-07-2.76437E-19 2.31399E-18
 -1       117 1.09529E-04-3.29234E-05-3.26547E-05 1.59763E-07 1.05032E-19-3.15004E-18
 -1       118 1.03987E-04-3.12285E-05-3.11901E-05 3.32309E-07-4.45357E-19-5.96495E-18
 -1       119 9.84666E-05-2.95389E-05-2.96983E-05 3.48055E-07 3.62513E-19-6.37795E-18
 -1       120 9.52711E-05-2.84604E-05-2.86998E-05 6.07343E-08 1.00955E-18-5.97339E-18
 -1       121 9.51715E-05-2.82984E-05-2.87503E-05-4.98764E-08-4.16492E-18 1.08989E-18
 -1       122 9.41349E-05-2.49668E-05-2.98552E-05 2.21868E-07 6.32747E-19-6.29518E-20
 -1       123 9.22242E-05-1.85609E-05-3.17119E-05 3.91525E-07-7.48287E-19 1.08916E-18
 -1       124 8.97705E-05-1.03285E-05-3.40862E-05 4.84976E-07-5.86726E-18 3.40669E-19
 -1       125 8.71977E-05-1.68872E-06-3.65607E-05 4.86175E-07-6.24086E-18-1.39680E-18
 -1       126 8.50504E-05 5.54086E-06-3.86128E-05 3.75065E-07-1.37523E-17-7.46575E-19
 -1       127 8.37557E-05 9.88231E-06-3.98384E-05 1.45242E-07-1.19583E-17 2.03013E-18
 -1       128 8.36911E-05 1.00989E-05-3.99068E-05-1.29860E-07-6.93934E-18 1.90687E-18
 -1       129 8.48437E-05 6.22855E-06-3.88293E-05-3.52206E-07-7.33081E-18-2.22841E-19
 -1       130 8.68655E-05-5.62306E-07-3.69153E-05-4.52745E-07-3.20787E-18 9.47260E-19
 -1       131 8.92301E-05-8.50568E-06-3.46428E-05-4.24139E-07-4.03918E-18-9.67863E-19
 -1       132 9.14125E-05-1.58499E-05-3.25032E-05-3.16606E-07-4.52005E-18 2.32731E-18
 -1       133 9.31803E-05-2.17802E-05-3.07411E-05-1.81948E-07-1.65588E-18 7.21771E-19
 -1       134 9.43736E-05-2.57892E-05-2.95251E-05-7.28781E-08 7.20309E-21 5.21480E-19
 -1       135 9.50389E-05-2.79570E-05-2.88357E-05-9.34467E-09-3.08206E-18-1.78975E-18
 -1       136 9.52044E-05-2.86251E-05-2.85450E-05 1.74871E-07-4.05404E-18 1.19051E-19
 -1       137 2.79769E-05-9.72858E-05 1.78759E-05-2.59516E-05 2.41434E-17 5.09874E-18
 -1       138 9.08453E-06-3.74535E-05 3.75199E-06-1.82707E-05 9.76629E-18 3.00104E-18
 -1       139 1.31535E-05 1.67528E-05-1.62698E-05 2.64740E-05-5.46548E-18-5.75982E-18
 -1       140 6.57087E-05 2.74137E-05-3.78661E-05 8.47355E-05-6.51072E-18-5.57475E-18
 -1       141 1.58061E-04-5.09882E-06-5.82542E-05 1.18962E-04-3.20094E-18-5.51969E-18
 -1       142 2.56358E-04-5.80774E-05-7.35550E-05 1.03602E-04-1.71312E-18-6.06645E-18
 -1       143 3.18671E-04-9.69342E-05-8.14452E-05 3.70324E-05-4.30518E-19-5.93865E-18
 -1       144 3.07346E-04-9.10695E-05-7.97113E-05-5.06544E-05 7.94360E-19-5.66114E-18
 -1       145 2.29908E-04-4.61254E-05-6.89730E-05-1.04868E-04 2.96493E-18-6.42856E-18
 -1       146 1.22601E-04 5.31603E-06-5.00642E-05-1.04422E-04 5.62091E-18-8.12008E-18
 -1       147 3.96306E-05 2.55911E-05-2.86590E-05-6.01043E-05 5.39941E-18-6.60813E-18
 -1       148 7.75525E-06-9.48829E-07-8.40320E-06-6.58124E-06 4.47657E-19-5.26431E-19
 -1       149 1.32760E-05-5.92371E-05 1.01186E-05 2.81652E-05-1.85881E-18 1.56511E-18
 -1       150 3.31596E-05-1.06876E-04 1.98622E-05 2.11080E-05-5.10168E-18 9.85593E-19
 -1       151 3.78527E-05-1.15611E-04 2.13224E-05-7.35999E-06-6.15168E-18-6.24753E-19
 -1       152 2.23233E-05-7.99478E-05 1.42952E-05-2.71060E-05-4.42659E-18 8.75620E-20
 -1       153 5.52163E-06-2.21964E-05 1.25360E-08-1.26931E-05 1.70042E-18 9.89546E-19
 -1       154 2.00260E-05 2.15453E-05-2.02254E-05 3.75908E-05-1.37982E-18-2.65333E-18
 -1       155 8.21146E-05 2.05070E-05-4.12707E-05 9.05887E-05-1.88041E-18-1.20109E-18
 -1       156 1.89787E-04-2.35406E-05-6.31219E-05 1.14220E-04 2.36534E-19-9.42748E-19
 -1       157 2.76543E-04-7.36812E-05-7.55230E-05 7.93112E-05 2.57604E-19 1.04820E-18
 -1       158 3.15176E-04-9.64350E-05-8.09557E-05 5.59769E-06 2.79680E-19 1.37198E-18
 -1       159 2.83461E-04-7.63241E-05-7.68732E-05-7.60509E-05-1.23145E-18 3.72186E-18
 -1       160 1.98108E-04-2.63223E-05-6.46882E-05-1.16922E-04-3.67697E-18 8.63762E-18
 -1       161 9.53787E-05 1.98006E-05-4.52036E-05-1.01324E-04-8.06291E-18 1.02741E-17
 -1       162 5.73154E-06-2.35203E-05 1.92472E-07 1.32691E-05-1.04232E-17 5.11587E-18
 -1       163 2.65675E-05-9.30595E-05 1.67797E-05 2.86496E-05 9.28369E-18 2.31875E-20
 -1       164 9.48700E-05-1.23471E-05-3.55698E-05-2.23494E-05-2.05566E-18-3.16579E-19
 -1       165 8.92501E-05-8.45628E-06-3.47877E-05-1.73921E-05-1.75358E-18-2.27976E-18
 -1       166 8.65501E-05-6.50628E-06-3.44163E-05-1.35836E-05-1.30881E-18-3.29199E-18
 -1       167 8.51885E-05-5.51328E-06-3.42306E-05-1.03726E-05-8.48002E-19-3.74886E-18
 -1       168 8.44477E-05-4.94569E-06-3.41412E-05-7.54762E-06-5.00513E-19-3.88707E-18
 -1       169 8.40199E-05-4.59980E-06-3.40988E-05-4.90348E-06-1.27501E-19-3.83218E-18
 -1       170 8.38013E-05-4.41525E-06-3.40807E-05-2.39512E-06 1.72468E-19-3.73118E-18
 -1       171 8.37369E-05-4.35950E-06-3.40759E-05 5.12688E-08 5.16840E-19-3.57245E-18
 -1       172 8.38111E-05-4.42368E-06-3.40814E-05 2.49979E-06 8.25871E-19-3.38930E-18
 -1       173 8.40414E-05-4.61879E-06-3.41002E-05 5.01487E-06 1.04664E-18-3.27821E-18
 -1       174 8.44745E-05-4.97186E-06-3.41422E-05 7.62422E-06 1.34579E-18-2.81157E-18
 -1       175 8.52508E-05-5.57429E-06-3.42320E-05 1.05134E-05 1.77085E-18-2.25665E-18
 -1       176 8.66473E-05-6.60849E-06-3.44186E-05 1.37843E-05 2.11611E-18-1.47277E-18
 -1       177 8.93930E-05-8.60024E-06-3.47925E-05 1.76237E-05 2.21385E-18 1.01842E-19
 -1       178 9.57819E-05-1.36143E-05-3.54262E-05 2.18946E-05 2.00621E-18 2.88229E-18
 -1       179 1.05608E-04-2.61030E-05-3.52639E-05 1.86636E-05 1.40050E-18 6.50887E-18
 -1       180 1.03402E-04-2.73026E-05-3.26116E-05-1.21274E-05-1.79251E-18 2.25123E-18
 -1       181 9.71117E-05-2.82906E-05-2.95300E-05-4.73038E-06-1.49484E-18 1.46293E-18
 -1       182 9.35121E-05-2.76388E-05-2.81834E-05-1.76861E-06-1.09414E-18 7.77689E-19
 -1       183 9.19760E-05-2.74064E-05-2.76373E-05-4.22634E-07-8.41112E-19 1.00909E-19
 -1       184 9.13999E-05-2.73318E-05-2.74396E-05 2.42583E-07-6.72525E-19-4.94254E-19
 -1       185 9.13575E-05-2.73707E-05-2.74143E-05 5.67858E-07-5.74348E-19-5.83022E-19
 -1       186 9.16001E-05-2.74731E-05-2.74790E-05 7.05760E-07-3.37047E-19-1.01691E-18
 -1       187 9.19823E-05-2.76049E-05-2.75886E-05 7.35741E-07-2.64032E-19-1.43919E-18
 -1       188 9.24172E-05-2.77447E-05-2.77162E-05 7.03738E-07-5.98315E-19-1.09426E-18
 -1       189 9.28532E-05-2.78797E-05-2.78459E-05 6.38355E-07-4.82643E-19-9.62384E-19
 -1       190 9.32612E-05-2.80030E-05-2.79683E-05 5.58087E-07-3.53236E-19-1.74799E-18
 -1       191 9.36268E-05-2.81113E-05-2.80786E-05 4.75076E-07 5.45257E-20-1.59688E-18
 -1       192 9.39455E-05-2.82042E-05-2.81754E-05 3.97330E-07 6.23086E-20-1.68966E-18
 -1       193 9.42195E-05-2.82827E-05-2.82591E-05 3.30193E-07-8.48049E-20-1.64827E-18
 -1       194 9.44556E-05-2.83492E-05-2.83317E-05 2.77378E-07-4.34015E-19-1.55527E-18
 -1       195 9.46641E-05-2.84068E-05-2.83962E-05 2.41725E-07-4.17596E-19-1.81596E-18
 -1       196 9.48577E-05-2.84593E-05-2.84564E-05 2.25775E-07-3.09904E-19-2.25890E-18
 -1       197 9.50519E-05-2.85114E-05-2.85170E-05 2.32177E-07-5.12487E-19-3.02052E-18
 -1       198 9.52642E-05-2.85680E-05-2.85834E-05 2.63955E-07-9.62349E-19-3.29348E-18
 -1       199 9.55148E-05-2.86351E-05-2.86617E-05 3.24627E-07 4.76180E-20-4.43807E-18
 -1       200 9.58266E-05-2.87194E-05-2.87588E-05 4.18126E-07 5.20593E-19-4.57315E-18
 -1       201 9.62251E-05-2.88287E-05-2.88824E-05 5.48455E-07 1.69841E-19-4.22001E-18
 -1       202 9.67382E-05-2.89714E-05-2.90407E-05 7.18967E-07 1.46964E-19-2.93174E-18
 -1       203 9.73945E-05-2.91569E-05-2.92422E-05 9.31066E-07 5.20549E-19-2.52953E-18
 -1       204 9.82217E-05-2.93949E-05-2.94946E-05 1.18210E-06 1.01848E-19-2.44930E-18
 -1       205 9.92419E-05-2.96943E-05-2.98036E-05 1.46211E-06-2.40725E-19-2.85795E-18
 -1       206 1.00465E-04-3.00623E-05-3.01707E-05 1.74916E-06-6.73508E-19-3.55390E-18
 -1       207 1.01879E-04-3.05012E-05-3.05900E-05 2.00310E-06 4.92431E-20-4.01888E-18
 -1       208 1.03437E-04-3.10051E-05-3.10439E-05 2.15841E-06 3.17617E-19-2.96380E-18
 -1       209 1.05038E-04-3.15536E-05-3.14980E-05 2.11842E-06-3.34879E-19-2.83189E-18
 -1       210 1.06513E-04-3.21040E-05-3.18976E-05 1.75647E-06-4.40239E-19-2.74585E-18
 -1       211 1.07609E-04-3.25806E-05-3.21660E-05 9.34213E-07 1.28956E-19-2.20153E-18
 -1       212 1.07998E-04-3.28651E-05-3.22124E-05-4.48246E-07-1.30845E-19-1.66358E-18
 -1       213 1.07324E-04-3.27967E-05-3.19518E-05-2.35955E-06 6.57963E-19-1.96700E-18
 -1       214 1.05313E-04-3.22024E-05-3.13404E-05-4.51633E-06 3.90350E-19-2.92260E-18
 -1       215 1.01953E-04-3.09838E-05-3.04159E-05-6.31370E-06 2.24431E-20-2.37219E-18
 -1       216 9.76854E-05-2.92522E-05-2.93230E-05-6.94278E-06-6.15032E-20-2.83274E-18
 -1       217 9.34673E-05-2.74275E-05-2.82939E-05-5.78425E-06-2.31758E-19-2.07595E-18
 -1       218 9.04992E-05-2.61385E-05-2.75733E-05-2.92760E-06-3.51247E-19-2.04313E-18
 -1       219 8.96484E-05-2.58796E-05-2.73195E-05 6.46487E-07-7.42408E-19-2.76484E-18
 -1       220 9.09292E-05-2.66599E-05-2.75345E-05 3.52530E-06-3.62841E-19-2.48632E-18
 -1       221 9.34903E-05-2.79905E-05-2.80646E-05 4.70942E-06 3.07524E-19-1.67230E-18
 -1       222 9.61393E-05-2.92331E-05-2.86720E-05 4.11359E-06 4.20264E-19-1.52926E-19
 -1       223 9.79453E-05-2.99585E-05-2.91401E-05 2.41047E-06 2.24484E-18 3.14324E-19
 -1       224 9.85406E-05-3.00656E-05-2.93521E-05 5.12236E-07 1.53015E-18-1.58281E-18
 -1       225 9.80784E-05-2.96923E-05-2.93146E-05-8.53126E-07 5.26151E-19-1.11475E-18
 -1       226 9.70147E-05-2.90708E-05-2.91228E-05-1.30262E-06 1.38029E-18-2.43620E-18
 -1       227 9.58813E-05-2.84828E-05-2.88850E-05-8.39002E-07 8.88594E-19-2.88645E-20
 -1       228 9.95052E-05-2.85558E-05-3.05885E-05 7.21139E-06 1.52094E-18 5.48642E-18
 -1       229 9.44211E-05-2.77922E-05-2.85259E-05 2.74380E-06 1.32490E-18 4.32606E-18
 -1       230 9.21014E-05-2.74025E-05-2.76831E-05 9.29884E-07 8.59831E-19 3.41147E-18
 -1       231 9.11530E-05-2.72400E-05-2.73643E-05 6.79005E-08 7.40251E-19 2.53412E-18
 -1       232 9.09413E-05-2.72329E-05-2.72901E-05-3.59784E-07 3.34293E-19 2.07321E-18
 -1       233 9.11246E-05-2.73188E-05-2.73386E-05-5.60164E-07 3.09952E-19 1.72467E-18
 -1       234 9.15074E-05-2.74516E-05-2.74489E-05-6.32599E-07 1.78215E-19 1.57425E-18
 -1       235 9.19747E-05-2.76022E-05-2.75863E-05-6.31117E-07 2.33373E-19 1.41345E-18
 -1       236 9.24586E-05-2.77528E-05-2.77301E-05-5.88038E-07 2.68792E-19 1.21949E-18
 -1       237 9.29196E-05-2.78933E-05-2.78680E-05-5.23801E-07 2.09540E-19 1.30063E-18
 -1       238 9.33372E-05-2.80187E-05-2.79935E-05-4.51682E-07 4.84676E-19 9.05301E-19
 -1       239 9.37027E-05-2.81271E-05-2.81039E-05-3.80384E-07 5.72876E-19 8.36486E-19
 -1       240 9.40160E-05-2.82189E-05-2.81989E-05-3.15641E-07 2.61166E-19 4.46095E-19
 -1       241 9.42825E-05-2.82961E-05-2.82800E-05-2.61313E-07-3.45419E-19 4.96970E-19
 -1       242 9.45115E-05-2.83615E-05-2.83500E-05-2.20177E-07-3.03185E-19 1.12579E-18
 -1       243 9.47152E-05-2.84190E-05-2.84126E-05-1.94538E-07 1.66671E-19 7.00432E-19
 -1       244 9.49087E-05-2.84729E-05-2.84723E-05-1.86709E-07 1.17126E-18 3.03598E-19
 -1       245 9.51098E-05-2.85284E-05-2.85345E-05-1.99410E-07 5.49757E-19-2.08936E-19
 -1       246 9.53392E-05-2.85916E-05-2.86055E-05-2.36106E-07-4.52074E-19 4.51629E-20
 -1       247 9.56217E-05-2.86695E-05-2.86929E-05-3.01291E-07-5.41140E-19-9.77160E-20
 -1       248 9.59866E-05-2.87708E-05-2.88056E-05-4.00722E-07 4.43962E-19-3.10806E-19
 -1       249 9.64690E-05-2.89054E-05-2.89544E-05-5.41577E-07 3.35736E-19-6.43609E-21
 -1       250 9.71108E-05-2.90856E-05-2.91518E-05-7.32460E-07 1.22602E-19-1.43509E-18
 -1       251 9.79608E-05-2.93259E-05-2.94129E-05-9.83084E-07-7.78603E-19-1.98264E-18
 -1       252 9.90757E-05-2.96430E-05-2.97546E-05-1.30332E-06-6.41085E-19-8.15427E-19
 -1       253 1.00517E-04-3.00562E-05-3.01955E-05-1.70096E-06 3.33780E-19-3.61327E-19
 -1       254 1.02348E-04-3.05862E-05-3.07535E-05-2.17718E-06 5.52701E-19 2.08618E-19
 -1       255 1.04621E-04-3.12534E-05-3.14430E-05-2.71774E-06-2.76742E-19-6.23754E-19
 -1       256 1.07359E-04-3.20741E-05-3.22668E-05-3.27755E-06 2.61521E-19-4.20428E-19
 -1       257 1.10520E-04-3.30529E-05-3.32051E-05-3.75581E-06-2.85042E-19-9.89439E-19
 -1       258 1.13945E-04-3.41691E-05-3.41969E-05-3.96258E-06-1.68720E-18-4.91415E-19
 -1       259 1.17283E-04-3.53526E-05-3.51200E-05-3.58906E-06-2.63988E-19-1.27624E-19
 -1       260 1.19924E-04-3.64438E-05-3.57766E-05-2.22252E-06 1.04882E-18 9.46817E-19
 -1       261 1.20979E-04-3.71377E-05-3.59156E-05 5.05705E-07-1.18879E-19-5.32444E-19
 -1       262 1.19445E-04-3.69569E-05-3.53188E-05 4.53334E-06 1.88031E-18-8.15402E-19
 -1       263 1.14694E-04-3.53841E-05-3.39594E-05 8.80833E-06 4.11946E-19-5.60974E-19
 -1       264 1.07289E-04-3.23074E-05-3.21506E-05 1.10691E-05-9.32785E-19-5.03614E-19
 -1       265 9.96748E-05-2.87377E-05-3.04835E-05 8.96599E-06-1.42939E-18 2.18491E-18
 -1       266 9.53707E-05-2.66444E-05-2.95653E-05 2.58037E-06-2.35328E-18 5.30232E-18
 -1       267 9.64172E-05-2.73416E-05-2.96773E-05-4.61099E-06 3.11953E-19 5.24373E-18
 -1       268 1.01479E-04-3.00730E-05-3.06068E-05-8.43071E-06 9.18174E-19 2.33146E-18
 -1       269 1.07073E-04-3.28358E-05-3.17756E-05-7.52380E-06 3.64836E-19 2.61170E-18
 -1       270 1.10338E-04-3.42266E-05-3.25778E-05-3.64879E-06 1.05295E-18 2.92727E-18
 -1       271 1.10362E-04-3.40720E-05-3.26752E-05 6.33295E-07 1.89296E-18 5.13097E-19
 -1       272 1.07743E-04-3.28694E-05-3.20882E-05 3.67753E-06 2.24613E-18-1.01516E-18
 -1       273 1.03723E-04-3.11999E-05-3.10943E-05 4.90374E-06 4.50279E-19 5.83030E-20
 -1       274 9.96118E-05-2.95031E-05-3.00650E-05 4.27299E-06 6.98000E-20-2.77218E-19
 -1       275 9.64529E-05-2.82120E-05-2.92534E-05 2.10252E-06-6.77554E-19-1.23188E-20
 -1       276 9.54354E-05-2.60978E-05-2.97086E-05 3.75484E-06 3.54685E-19 3.06981E-18
 -1       277 9.40544E-05-2.23670E-05-3.07175E-05 6.37007E-06 7.58705E-19-1.08075E-18
 -1       278 9.22302E-05-1.74324E-05-3.20569E-05 8.09592E-06-1.34916E-18-1.22269E-18
 -1       279 9.01114E-05-1.18282E-05-3.35580E-05 8.48894E-06-3.86501E-18-1.05139E-18
 -1       280 8.80268E-05-6.57203E-06-3.49259E-05 7.22930E-06-3.83897E-18-4.41665E-18
 -1       281 8.64020E-05-2.62381E-06-3.59267E-05 4.26334E-06-2.86969E-18-3.00707E-19
 -1       282 8.57735E-05-1.09172E-06-3.63157E-05 2.09317E-07-3.49482E-18 2.65252E-18
 -1       283 8.63439E-05-2.36224E-06-3.60141E-05-3.81285E-06-2.59426E-18 1.22037E-18
 -1       284 8.78963E-05-6.01911E-06-3.51077E-05-6.69428E-06-1.39725E-18 2.46591E-18
 -1       285 8.99218E-05-1.10459E-05-3.38140E-05-7.85236E-06-8.81563E-19-1.44535E-19
 -1       286 9.18549E-05-1.62009E-05-3.24243E-05-7.41602E-06-7.94401E-19-8.61980E-19
 -1       287 9.34236E-05-2.07886E-05-3.11232E-05-5.93628E-06-1.29768E-19 1.69556E-18
 -1       288 9.44751E-05-2.42518E-05-3.00852E-05-4.07720E-06-4.82660E-19 4.84059E-19
 -1       289 9.50657E-05-2.65328E-05-2.93633E-05-2.29805E-06-9.10651E-19-1.42412E-18
 -1       290 9.55865E-05-2.77136E-05-2.90766E-05-1.58310E-06 3.21580E-19-1.29892E-18
 -1       291 1.31409E-05-4.86619E-05 1.23779E-05 9.72400E-06 8.16519E-18 1.19241E-18
 -1       292 3.31633E-05-4.66771E-05 3.80298E-06 2.98696E-05 5.40852E-18-7.34092E-18
 -1       293 5.79513E-05-4.06433E-05-9.28858E-06 3.60825E-05 2.55910E-18-7.05324E-18
 -1       294 9.72922E-05-3.38622E-05-2.74259E-05 4.68785E-05-2.01234E-18-2.71474E-18
 -1       295 1.44545E-04-3.61171E-05-4.53034E-05 4.43302E-05-3.49412E-18-4.27413E-18
 -1       296 1.82124E-04-3.43371E-05-6.07617E-05 3.80455E-05-2.90393E-18-5.55950E-18
 -1       297 2.12575E-04-3.72022E-05-7.12894E-05 2.44411E-05-9.43065E-19-5.95835E-18
 -1       298 2.21929E-04-3.92378E-05-7.41195E-05 5.78527E-07-9.91981E-19-5.23887E-18
 -1       299 2.02510E-04-3.66039E-05-6.80155E-05-1.95151E-05 7.40624E-19-3.33562E-18
 -1       300 1.68721E-04-3.85937E-05-5.43561E-05-2.56532E-05 2.15829E-18-1.65002E-18
 -1       301 1.24400E-04-3.41631E-05-3.80988E-05-4.45292E-05 2.02801E-18-3.18294E-18
 -1       302 8.07446E-05-3.64423E-05-1.99612E-05-3.92794E-05-1.38850E-18-4.35544E-18
 -1       303 5.15706E-05-4.54444E-05-4.13138E-06-3.41793E-05-2.72279E-18-8.51209E-19
 -1       304 2.05850E-05-4.84108E-05 9.00869E-06-1.55361E-05-2.92946E-18 8.02458E-19
 -1       305 1.20899E-05-5.41034E-05 1.43574E-05-9.56955E-07-3.90231E-18-1.86983E-19
 -1       306 1.54876E-05-5.17775E-05 1.20670E-05 1.09360E-05-1.89968E-18 1.76966E-18
 -1       307 3.17245E-05-4.43501E-05 2.72443E-06 2.43095E-05-1.40862E-18 2.34244E-18
 -1       308 6.32749E-05-3.72072E-05-1.25326E-05 3.85071E-05 9.66888E-19-2.20578E-18
 -1       309 1.07163E-04-3.60822E-05-3.04386E-05 4.46246E-05-4.65868E-20-1.29173E-20
 -1       310 1.52645E-04-3.90167E-05-4.79326E-05 3.01289E-05-5.84506E-19 5.17537E-19
 -1       311 1.90418E-04-3.42862E-05-6.41321E-05 3.25550E-05-1.25864E-18 1.72011E-18
 -1       312 2.05234E-04-3.28172E-05-7.09236E-05 1.02804E-05 3.54907E-19 2.56333E-18
 -1       313 1.98598E-04-2.81929E-05-7.06211E-05-8.87370E-06-2.29938E-18 3.11237E-18
 -1       314 1.91622E-04-3.34727E-05-6.50264E-05-3.20899E-05-3.81361E-18 3.92854E-18
 -1       315 1.57398E-04-3.37595E-05-5.13158E-05-4.20178E-05-5.25325E-18 4.57440E-18
 -1       316 1.13429E-04-3.41579E-05-3.35825E-05-4.78862E-05-6.41564E-18 5.38798E-18
 -1       317 6.82465E-05-3.89882E-05-1.38226E-05-4.04788E-05-2.95869E-18 6.06285E-18
 -1       318 3.30205E-05-4.78967E-05 3.56269E-06-2.59432E-05 3.01692E-18 7.82306E-18
 -1       319 1.47869E-05-5.61808E-05 1.37986E-05-8.15620E-06 8.13554E-18 6.20843E-18
 -1       320 9.16498E-05-1.43951E-05-3.31724E-05-1.30659E-05-1.76234E-18-1.99468E-18
 -1       321 9.57101E-05-1.91108E-05-3.28913E-05-1.46308E-05-2.04794E-18-8.87836E-19
 -1       322 8.80069E-05-1.03778E-05-3.33230E-05-8.15454E-06-8.27556E-19-2.92739E-18
 -1       323 8.71895E-05-9.45412E-06-3.33631E-05-5.71734E-06-4.41973E-19-3.00253E-18
 -1       324 8.67299E-05-8.92479E-06-3.33899E-05-3.36705E-06 3.09452E-20-2.89311E-18
 -1       325 8.65250E-05-8.68519E-06-3.34034E-05-1.07260E-06 4.24362E-19-2.73810E-18
 -1       326 8.65336E-05-8.69481E-06-3.34030E-05 1.20358E-06 8.49943E-19-2.63208E-18
 -1       327 8.67573E-05-8.95559E-06-3.33887E-05 3.50036E-06 1.19602E-18-2.60718E-18
 -1       328 8.72292E-05-9.49947E-06-3.33614E-05 5.81532E-06 1.49918E-18-2.32040E-18
 -1       329 8.80682E-05-1.04508E-05-3.33200E-05 8.25478E-06 1.90923E-18-1.74272E-18
 -1       330 8.94830E-05-1.20335E-05-3.32593E-05 1.07639E-05 2.22480E-18-1.21086E-18
 -1       331 9.19031E-05-1.47224E-05-3.31586E-05 1.31691E-05 2.50945E-18-3.10570E-19
 -1       332 9.58071E-05-1.94580E-05-3.28288E-05 1.43759E-05 2.44913E-18 1.40830E-18
 -1       333 9.87948E-05-2.44454E-05-3.19522E-05 1.18981E-05 2.12937E-18 3.01104E-18
 -1       334 9.63939E-05-2.68136E-05-2.97907E-05 5.74133E-06 1.75797E-18 2.38200E-18
 -1       335 9.64361E-05-2.60267E-05-3.01317E-05-6.34766E-06-1.55538E-18-4.69173E-19
 -1       336 9.49296E-05-2.70407E-05-2.90710E-05-2.83727E-06-1.22213E-18-5.22163E-19
 -1       337 9.39451E-05-2.74262E-05-2.84937E-05-9.20825E-07-1.08004E-18-4.83530E-19
 -1       338 9.34252E-05-2.76397E-05-2.81871E-05 1.36338E-07-7.01549E-19-6.89697E-19
 -1       339 9.32321E-05-2.77926E-05-2.80427E-05 6.99670E-07-6.52440E-19-7.40977E-19
 -1       340 9.32479E-05-2.79217E-05-2.79960E-05 9.66277E-07-3.78013E-19-8.93848E-19
 -1       341 9.33857E-05-2.80359E-05-2.80070E-05 1.05305E-06-2.54431E-19-1.13126E-18
 -1       342 9.35860E-05-2.81364E-05-2.80503E-05 1.03300E-06-4.07999E-19-1.10890E-18
 -1       343 9.38103E-05-2.82228E-05-2.81096E-05 9.53464E-07-6.25652E-19-7.73468E-19
 -1       344 9.40349E-05-2.82953E-05-2.81748E-05 8.45819E-07-3.40292E-21-5.43814E-19
 -1       345 9.42465E-05-2.83546E-05-2.82401E-05 7.31111E-07 2.54946E-20-6.20539E-19
 -1       346 9.44396E-05-2.84020E-05-2.83025E-05 6.23579E-07-7.45357E-20-6.04499E-19
 -1       347 9.46139E-05-2.84394E-05-2.83610E-05 5.33064E-07-2.55263E-19-9.99028E-19
 -1       348 9.47728E-05-2.84689E-05-2.84163E-05 4.66723E-07-6.17981E-19-1.36471E-18
 -1       349 9.49227E-05-2.84927E-05-2.84701E-05 4.30289E-07-7.00464E-19-1.25469E-18
 -1       350 9.50722E-05-2.85135E-05-2.85251E-05 4.28978E-07-6.09219E-19-1.79514E-18
 -1       351 9.52320E-05-2.85339E-05-2.85845E-05 4.68113E-07-6.21675E-19-1.33774E-18
 -1       352 9.54147E-05-2.85574E-05-2.86525E-05 5.53478E-07-8.71960E-19-1.41732E-18
 -1       353 9.56349E-05-2.85880E-05-2.87334E-05 6.91346E-07-3.52354E-19-1.98611E-18
 -1       354 9.59091E-05-2.86304E-05-2.88324E-05 8.88129E-07 6.16891E-19-2.33538E-18
 -1       355 9.62552E-05-2.86909E-05-2.89544E-05 1.14949E-06 9.53096E-19-1.61855E-18
 -1       356 9.66931E-05-2.87775E-05-2.91046E-05 1.47874E-06 6.53560E-19-1.08527E-18
 -1       357 9.72428E-05-2.89006E-05-2.92871E-05 1.87412E-06 1.98294E-19-1.50125E-18
 -1       358 9.79240E-05-2.90736E-05-2.95048E-05 2.32481E-06 1.84172E-19-1.14591E-18
 -1       359 9.87538E-05-2.93143E-05-2.97574E-05 2.80500E-06-8.09974E-19-8.96294E-19
 -1       360 9.97436E-05-2.96450E-05-3.00405E-05 3.26604E-06-3.61350E-19-1.24802E-18
 -1       361 1.00895E-04-3.00925E-05-3.03436E-05 3.62692E-06 6.82612E-19-1.01191E-18
 -1       362 1.02194E-04-3.06851E-05-3.06484E-05 3.76485E-06 3.24744E-19-1.60480E-18
 -1       363 1.03598E-04-3.14427E-05-3.09288E-05 3.51084E-06-2.08513E-19-1.38920E-18
 -1       364 1.05024E-04-3.23548E-05-3.11530E-05 2.66030E-06 1.89044E-19-8.19990E-19
 -1       365 1.06319E-04-3.33416E-05-3.12894E-05 1.01581E-06-8.17585E-21-6.67758E-19
 -1       366 1.07237E-04-3.41991E-05-3.13175E-05-1.51739E-06 4.30324E-19-4.33224E-19
 -1       367 1.07420E-04-3.45579E-05-3.12407E-05-4.76960E-06-3.76734E-19 4.54680E-19
 -1       368 1.06474E-04-3.39424E-05-3.10940E-05-8.11414E-06-2.47819E-19-5.18426E-19
 -1       369 1.04204E-04-3.20378E-05-3.09288E-05-1.04143E-05-1.78292E-19-5.35652E-19
 -1       370 1.00958E-04-2.91066E-05-3.07842E-05-1.03535E-05 3.99468E-19-2.90308E-19
 -1       371 9.78298E-05-2.62636E-05-3.06573E-05-7.26021E-06 6.19851E-19-9.63355E-19
 -1       372 9.61659E-05-2.49419E-05-3.05087E-05-1.95471E-06 5.46171E-20 5.20421E-19
 -1       373 9.66406E-05-2.58765E-05-3.03126E-05 3.38308E-06-1.33193E-18 5.70535E-19
 -1       374 9.86263E-05-2.83741E-05-3.00989E-05 6.54234E-06 9.78571E-20-2.38494E-19
 -1       375 1.00771E-04-3.09701E-05-2.99138E-05 6.67662E-06 1.49015E-18-3.40338E-19
 -1       376 1.01957E-04-3.24893E-05-2.97792E-05 4.49208E-06 1.92284E-18 1.12460E-18
 -1       377 1.01826E-04-3.26110E-05-2.96747E-05 1.43185E-06 5.92761E-19-4.27733E-19
 -1       378 1.00615E-04-3.16433E-05-2.95691E-05-1.19482E-06-3.25724E-19-8.53526E-19
 -1       379 9.87904E-05-3.01015E-05-2.94453E-05-2.60212E-06 5.85729E-20-6.45028E-19
 -1       380 9.70609E-05-2.87116E-05-2.92864E-05-2.55653E-06 1.87279E-18-9.22222E-19
 -1       381 9.43740E-05-2.73423E-05-2.86896E-05 2.46910E-06 1.43896E-18 1.95573E-18
 -1       382 9.31673E-05-2.74620E-05-2.81376E-05 7.44335E-07 1.07469E-18 1.32803E-18
 -1       383 9.26128E-05-2.75396E-05-2.78786E-05-1.76377E-07 6.14787E-19 8.50288E-19
 -1       384 9.24700E-05-2.76320E-05-2.77836E-05-6.51359E-07 3.73742E-19 5.28418E-19
 -1       385 9.25711E-05-2.77410E-05-2.77828E-05-8.68338E-07 2.66289E-19 5.32542E-19
 -1       386 9.28046E-05-2.78567E-05-2.78345E-05-9.32263E-07 4.72678E-19 3.54448E-19
 -1       387 9.30988E-05-2.79702E-05-2.79126E-05-9.06535E-07 4.25952E-19 1.09247E-19
 -1       388 9.34089E-05-2.80751E-05-2.80008E-05-8.31421E-07 1.98682E-19 1.73871E-19
 -1       389 9.37085E-05-2.81681E-05-2.80895E-05-7.33257E-07 7.69498E-19 2.38086E-19
 -1       390 9.39835E-05-2.82481E-05-2.81731E-05-6.29514E-07 4.62626E-19 3.32544E-19
 -1       391 9.42287E-05-2.83153E-05-2.82493E-05-5.31888E-07 4.65298E-19 3.94105E-19
 -1       392 9.44447E-05-2.83711E-05-2.83178E-05-4.48365E-07-3.76535E-19 5.99652E-19
 -1       393 9.46365E-05-2.84177E-05-2.83799E-05-3.84709E-07-5.72307E-19 5.63759E-19
 -1       394 9.48123E-05-2.84577E-05-2.84379E-05-3.45567E-07 5.54323E-19-7.51194E-21
 -1       395 9.49829E-05-2.84942E-05-2.84951E-05-3.35338E-07 1.35753E-18-4.50745E-19
 -1       396 9.51618E-05-2.85309E-05-2.85557E-05-3.58869E-07 1.28608E-18-2.77566E-19
 -1       397 9.53649E-05-2.85719E-05-2.86249E-05-4.22021E-07-2.71602E-19-7.09420E-19
 -1       398 9.56113E-05-2.86219E-05-2.87086E-05-5.32126E-07-1.22771E-19-9.98648E-19
 -1       399 9.59233E-05-2.86868E-05-2.88140E-05-6.98326E-07 4.67574E-19-7.43606E-19
 -1       400 9.63272E-05-2.87732E-05-2.89495E-05-9.31763E-07 5.99172E-19-1.34243E-18
 -1       401 9.68537E-05-2.88895E-05-2.91246E-05-1.24547E-06 5.67659E-19-1.62913E-18
 -1       402 9.75381E-05-2.90455E-05-2.93504E-05-1.65372E-06-7.77294E-19-1.92930E-18
 -1       403 9.84200E-05-2.92535E-05-2.96383E-05-2.17042E-06-1.04581E-18-1.87739E-18
 -1       404 9.95422E-05-2.95292E-05-3.00004E-05-2.80555E-06-8.20932E-19-1.48747E-18
 -1       405 1.00948E-04-2.98926E-05-3.04467E-05-3.55829E-06 3.74867E-19 1.66397E-19
 -1       406 1.02677E-04-3.03714E-05-3.09828E-05-4.40459E-06 4.25943E-19-1.37006E-19
 -1       407 1.04757E-04-3.10035E-05-3.16047E-05-5.27596E-06 1.46720E-19-3.97361E-20
 -1       408 1.07191E-04-3.18417E-05-3.22924E-05-6.02676E-06 1.52602E-19 2.30986E-19
 -1       409 1.09941E-04-3.29526E-05-3.30011E-05-6.39122E-06-1.63362E-18-9.89744E-19
 -1       410 1.12894E-04-3.43973E-05-3.36556E-05-5.94527E-06 1.29702E-21-2.45148E-18
 -1       411 1.15804E-04-3.61626E-05-3.41551E-05-4.12093E-06-6.97910E-19-1.15428E-18
 -1       412 1.18202E-04-3.79976E-05-3.43995E-05-3.74443E-07 7.77560E-19 1.33164E-19
 -1       413 1.19277E-04-3.91713E-05-3.43563E-05 5.32598E-06 1.21251E-18 1.49450E-18
 -1       414 1.18006E-04-3.84628E-05-3.41050E-05 1.17230E-05 4.08267E-19 2.38942E-18
 -1       415 1.13701E-04-3.47774E-05-3.38531E-05 1.57845E-05-8.80720E-19 2.67769E-18
 -1       416 1.07649E-04-2.91173E-05-3.37107E-05 1.37101E-05-2.48952E-18 2.79547E-18
 -1       417 1.03358E-04-2.51511E-05-3.35759E-05 4.93267E-06-3.11266E-18 3.45784E-18
 -1       418 1.03774E-04-2.61497E-05-3.33073E-05-5.71801E-06 6.38623E-19 2.71776E-18
 -1       419 1.07825E-04-3.09760E-05-3.29556E-05-1.16450E-05 7.09741E-19 3.31650E-18
 -1       420 1.11735E-04-3.55681E-05-3.26546E-05-1.04534E-05 9.25129E-19 3.03925E-18
 -1       421 1.12910E-04-3.73198E-05-3.24150E-05-4.77227E-06 1.17230E-18 1.30706E-18
 -1       422 1.11241E-04-3.64073E-05-3.21003E-05 1.52681E-06 3.06956E-18-6.49393E-19
 -1       423 1.07804E-04-3.41117E-05-3.16080E-05 6.02273E-06 1.36181E-18 6.33627E-19
 -1       424 1.03684E-04-3.14356E-05-3.09753E-05 7.90400E-06-4.66439E-20 2.06405E-18
 -1       425 9.96692E-05-2.88996E-05-3.03306E-05 7.20109E-06 1.11428E-19 3.43759E-18
 -1       426 9.73653E-05-2.73563E-05-2.99975E-05 5.84118E-06-9.97634E-19 3.73842E-18
 -1       427 9.29649E-05-1.93897E-05-3.15312E-05 1.37137E-05-9.91000E-19-2.85743E-18
 -1       428 9.55140E-05-2.33196E-05-3.09272E-05 1.19190E-05-1.22856E-19-3.14346E-18
 -1       429 9.66040E-05-2.54364E-05-3.04861E-05 9.07425E-06-1.01432E-18 4.49354E-19
 -1       430 8.98151E-05-1.49725E-05-3.20881E-05 1.31944E-05-1.65476E-18-4.00756E-18
 -1       431 8.66329E-05-1.08045E-05-3.25215E-05 9.76836E-06-1.88821E-19-3.40305E-19
 -1       432 8.46110E-05-8.23923E-06-3.27592E-05 3.79407E-06 8.05221E-19 2.31038E-18
 -1       433 8.46389E-05-8.22259E-06-3.27780E-05-3.18109E-06-1.26126E-18 1.43841E-18
 -1       434 8.67047E-05-1.07511E-05-3.25744E-05-9.08313E-06-2.00388E-18 2.20971E-18
 -1       435 8.98952E-05-1.48736E-05-3.21653E-05-1.23914E-05-8.59489E-19 2.01223E-18
 -1       436 9.29701E-05-1.92236E-05-3.16073E-05-1.28019E-05-3.49844E-19-7.75566E-19
 -1       437 9.52306E-05-2.29765E-05-3.09578E-05-1.10327E-05 1.70228E-18 2.97973E-18
 -1       438 9.64194E-05-2.56432E-05-3.03175E-05-8.19465E-06 7.76417E-19 3.13273E-19
 -1       439 9.67147E-05-2.72455E-05-2.97551E-05-5.24557E-06 8.09985E-19-7.28093E-19
 -1       440 6.93007E-05-4.85959E-05-8.99839E-06 4.63494E-05 3.68353E-18-9.36945E-18
 -1       441 1.43317E-05-2.46443E-05 4.33263E-06-4.12673E-06 5.68002E-19 4.64005E-18
 -1       442 2.82514E-05-3.04846E-05 1.02017E-06 2.94431E-05 2.74603E-18-6.03246E-18
 -1       443 1.03086E-04-5.76212E-05-1.96584E-05 4.38645E-05 2.69875E-18-2.91247E-18
 -1       444 1.37856E-04-5.74386E-05-3.44619E-05 2.98962E-05 3.64436E-19-2.63470E-18
 -1       445 8.93402E-05-1.18590E-05-3.32802E-05-1.06834E-05-1.31004E-18-2.62399E-18
 -1       446 1.64523E-04-2.64660E-05-5.89381E-05 9.97248E-07-1.23508E-18-3.32386E-18
 -1       447 1.67990E-04-1.61206E-05-6.46491E-05 2.51210E-06-1.06091E-18-3.12486E-18
 -1       448 1.68935E-04-1.86733E-05-6.39022E-05 4.70632E-06-5.17114E-19-3.48909E-18
 -1       449 1.60395E-04-3.08658E-05-5.55488E-05 6.38310E-06 7.12884E-19-2.80823E-18
 -1       450 1.50084E-04-5.40600E-05-4.12538E-05-9.36640E-06-6.98008E-19-6.76462E-19
 -1       451 1.29904E-04-5.97284E-05-3.00756E-05-2.72784E-05-1.78417E-18-1.30401E-18
 -1       452 9.56401E-05-5.57996E-05-1.70581E-05-3.94822E-05-2.20747E-18-3.71796E-18
 -1       453 4.59585E-05-3.69172E-05-3.67304E-06-3.75577E-05-9.19772E-19-5.83817E-19
 -1       454 1.76314E-05-2.73289E-05 4.00356E-06-1.70523E-05-2.57832E-18-3.34896E-19
 -1       455 1.20596E-05-2.72518E-05 6.12815E-06 9.55679E-06-1.62101E-18 2.39573E-18
 -1       456 3.32866E-05-3.15603E-05-6.47974E-07 3.49544E-05-6.39828E-19 2.35465E-18
 -1       457 6.34536E-05-4.51427E-05-7.94735E-06 4.46033E-05-1.25520E-18-1.06673E-20
 -1       458 1.10435E-04-5.76519E-05-2.25788E-05 3.87634E-05-1.98312E-19-2.09445E-18
 -1       459 1.39526E-04-5.63070E-05-3.57623E-05 2.02529E-05-1.11935E-18 3.75659E-19
 -1       460 1.57186E-04-3.37675E-05-5.27603E-05 2.36288E-06-5.40248E-19 1.90667E-18
 -1       461 1.60076E-04-2.06369E-05-5.96801E-05-3.63168E-06-6.31145E-19 1.34392E-18
 -1       462 1.60901E-04-1.23106E-05-6.36233E-05-2.79166E-06-1.15874E-18 3.25529E-18
 -1       463 1.57238E-04-1.90103E-05-5.94098E-05 1.20412E-06-2.31791E-18 1.93166E-18
 -1       464 1.59299E-04-3.49606E-05-5.31894E-05-4.20435E-06-3.43620E-18 1.60534E-18
 -1       465 1.46553E-04-5.43104E-05-3.95330E-05-2.09532E-05-3.32130E-18 9.48042E-19
 -1       466 1.16217E-04-5.83145E-05-2.48210E-05-4.06582E-05-3.53107E-19 5.05610E-18
 -1       467 7.03463E-05-4.95363E-05-9.19400E-06-4.69325E-05 2.30912E-18 6.06832E-18
 -1       468 3.00185E-05-3.32272E-05 1.19408E-06-3.24351E-05 5.54383E-18 1.03628E-17
 -1       469 1.59399E-04-4.47508E-05-4.89670E-05 1.01141E-05-1.84223E-18-2.79606E-18
 -1       470 5.74950E-05-3.75531E-05-8.15253E-06 4.33772E-05 2.73581E-18-8.50506E-18
 -1       471 1.47194E-04-4.93970E-05-4.22153E-05 1.23279E-07-1.16855E-18 9.27025E-19
 -1       472 1.49639E-04-4.48868E-05-4.52253E-05 1.06426E-05-6.95520E-19-2.19609E-18
 -1       473 8.11604E-05-4.87293E-05-1.35558E-05-4.13218E-05-7.24531E-19-2.01096E-18
 -1       474 1.39966E-04-9.41258E-06-5.64358E-05 3.07018E-06-1.29840E-18-4.03770E-19
 -1       475 9.58217E-05-2.51492E-05-3.02739E-05 6.01813E-06 1.74827E-18 6.08723E-19
 -1       476 8.95399E-05-1.34021E-05-3.26493E-05-3.92559E-06-1.70297E-19-2.64313E-18
 -1       477 9.02445E-05-1.43621E-05-3.25410E-05-5.88474E-06-5.08682E-19-2.66841E-18
 -1       478 8.90422E-05-1.27222E-05-3.27263E-05 5.44506E-08 5.75626E-19-2.39587E-18
 -1       479 8.91776E-05-1.29058E-05-3.27059E-05 2.04603E-06 9.51195E-19-2.37710E-18
 -1       480 8.95716E-05-1.34427E-05-3.26459E-05 3.99880E-06 1.28871E-18-2.19902E-18
 -1       481 9.02962E-05-1.44298E-05-3.25353E-05 5.95270E-06 1.72933E-18-1.74854E-18
 -1       482 9.14443E-05-1.60083E-05-3.23528E-05 7.78106E-06 1.87150E-18-1.33858E-18
 -1       483 9.32324E-05-1.84788E-05-3.20574E-05 9.29597E-06 2.07694E-18-7.23771E-19
 -1       484 9.51138E-05-2.65783E-05-2.93544E-05 2.87507E-06 1.50044E-18 5.32375E-19
 -1       485 9.54652E-05-2.44149E-05-3.04364E-05-5.81928E-06-1.24139E-18-1.27486E-18
 -1       486 1.45901E-04-3.67073E-05-4.72794E-05-1.09073E-05-8.82979E-19-2.01663E-18
 -1       487 9.53129E-05-2.62811E-05-2.95819E-05-2.89973E-06-1.11364E-18-1.18730E-18
 -1       488 9.49177E-05-2.71623E-05-2.90340E-05-1.03475E-06-8.63076E-19-8.63451E-19
 -1       489 9.46411E-05-2.76938E-05-2.86901E-05 8.90948E-08-8.16122E-19-8.60630E-19
 -1       490 9.44846E-05-2.80200E-05-2.84843E-05 7.23772E-07-5.83754E-19-7.18830E-19
 -1       491 9.44291E-05-2.82311E-05-2.83705E-05 1.04120E-06-7.04758E-19-9.14089E-19
 -1       492 9.44445E-05-2.83713E-05-2.83173E-05 1.15696E-06-2.61824E-19-1.04353E-18
 -1       493 9.45039E-05-2.84643E-05-2.83030E-05 1.14925E-06-3.21290E-19-9.65324E-19
 -1       494 9.45867E-05-2.85240E-05-2.83129E-05 1.07155E-06-2.30385E-19-4.97077E-19
 -1       495 9.46794E-05-2.85595E-05-2.83374E-05 9.60571E-07-3.79843E-20-3.41793E-19
 -1       496 9.47736E-05-2.85772E-05-2.83702E-05 8.41594E-07 2.14237E-19-6.42470E-19
 -1       497 9.48651E-05-2.85814E-05-2.84075E-05 7.32195E-07-1.93730E-19-8.25352E-19
 -1       498 9.49528E-05-2.85753E-05-2.84477E-05 6.44928E-07-5.29041E-19-6.20133E-19
 -1       499 9.50382E-05-2.85610E-05-2.84903E-05 5.89292E-07-7.05435E-19-3.65027E-19
 -1       500 9.51242E-05-2.85402E-05-2.85360E-05 5.73186E-07-1.17867E-18-4.93038E-19
 -1       501 9.52155E-05-2.85140E-05-2.85863E-05 6.03941E-07-4.60196E-19-1.27254E-18
 -1       502 9.53181E-05-2.84835E-05-2.86432E-05 6.88985E-07-7.36478E-19-9.88303E-19
 -1       503 9.54392E-05-2.84501E-05-2.87093E-05 8.36130E-07-5.23423E-19-3.08704E-19
 -1       504 9.55875E-05-2.84161E-05-2.87873E-05 1.05344E-06 9.96937E-20-7.23398E-19
 -1       505 9.57731E-05-2.83854E-05-2.88798E-05 1.34855E-06 9.80775E-19-6.64940E-19
 -1       506 9.60080E-05-2.83645E-05-2.89892E-05 1.72734E-06 1.49651E-18-9.46139E-19
 -1       507 9.63064E-05-2.83641E-05-2.91172E-05 2.19156E-06 2.46478E-19-8.33726E-19
 -1       508 9.66856E-05-2.84009E-05-2.92638E-05 2.73537E-06-1.50807E-19-7.85129E-19
 -1       509 9.71673E-05-2.85011E-05-2.94273E-05 3.34011E-06-1.16219E-18-1.42270E-18
 -1       510 9.77792E-05-2.87029E-05-2.96031E-05 3.96725E-06-4.45606E-19-5.41041E-19
 -1       511 9.85574E-05-2.90603E-05-2.97839E-05 4.54927E-06 4.84141E-20-6.55843E-19
 -1       512 9.95483E-05-2.96440E-05-2.99591E-05 4.97885E-06 2.20303E-19-1.35658E-18
 -1       513 1.00807E-04-3.05355E-05-3.01179E-05 5.09830E-06-1.40573E-19-1.60100E-18
 -1       514 1.02387E-04-3.18044E-05-3.02528E-05 4.69388E-06 5.11757E-19-5.10711E-19
 -1       515 1.04304E-04-3.34570E-05-3.03681E-05 3.50665E-06 2.02866E-19-3.28500E-19
 -1       516 1.06469E-04-3.53413E-05-3.04904E-05 1.28323E-06 1.33870E-19-5.57598E-19
 -1       517 1.08588E-04-3.70236E-05-3.06778E-05-2.10368E-06 1.67562E-20-8.99252E-19
 -1       518 1.10049E-04-3.76875E-05-3.10156E-05-6.41240E-06-7.78231E-19 3.37609E-19
 -1       519 1.10021E-04-3.63279E-05-3.15861E-05-1.06821E-05-4.84465E-19 1.53675E-18
 -1       520 1.07973E-04-3.24567E-05-3.23716E-05-1.31496E-05-7.08088E-19 3.91477E-19
 -1       521 1.04478E-04-2.70682E-05-3.31837E-05-1.17977E-05-9.71194E-19-1.05956E-18
 -1       522 1.01514E-04-2.29293E-05-3.36941E-05-6.25445E-06 3.55893E-19-1.54599E-18
 -1       523 1.01157E-04-2.27858E-05-3.35987E-05 1.29374E-06 8.30918E-19 1.34873E-19
 -1       524 1.03421E-04-2.66592E-05-3.29084E-05 6.95981E-06-3.52002E-19 2.55892E-18
 -1       525 1.06311E-04-3.18698E-05-3.19078E-05 8.42358E-06-4.63237E-19 1.08656E-18
 -1       526 1.07762E-04-3.55258E-05-3.09624E-05 6.05802E-06 2.16220E-18-1.25660E-18
 -1       527 1.07092E-04-3.64562E-05-3.02782E-05 1.96574E-06 1.44444E-19-1.22086E-18
 -1       528 1.04805E-04-3.50838E-05-2.98863E-05-1.87968E-06 1.13992E-18-4.97623E-19
 -1       529 1.01763E-04-3.24291E-05-2.97154E-05-4.29938E-06-8.53068E-19-1.27579E-19
 -1       530 9.41433E-05-2.76869E-05-2.84778E-05-1.18440E-07 6.85436E-19 1.91019E-19
 -1       531 9.39667E-05-2.79335E-05-2.82987E-05-7.27438E-07 3.93398E-19-5.00082E-22
 -1       532 9.39362E-05-2.81045E-05-2.82133E-05-1.02484E-06 5.70738E-19-2.48529E-19
 -1       533 9.39994E-05-2.82300E-05-2.81871E-05-1.12792E-06 3.39895E-19-7.75337E-20
 -1       534 9.41157E-05-2.83238E-05-2.81970E-05-1.11349E-06 3.60233E-19 9.57491E-20
 -1       535 9.42569E-05-2.83938E-05-2.82276E-05-1.03291E-06 6.69072E-19-2.24265E-20
 -1       536 9.44047E-05-2.84449E-05-2.82690E-05-9.20929E-07 4.72856E-19 3.36532E-19
 -1       537 9.45487E-05-2.84809E-05-2.83153E-05-8.01218E-07 2.57704E-19 4.04011E-19
 -1       538 9.46841E-05-2.85046E-05-2.83630E-05-6.90069E-07-9.24085E-20 4.68693E-19
 -1       539 9.48100E-05-2.85186E-05-2.84109E-05-5.99036E-07-3.52293E-19 5.06795E-19
 -1       540 9.49290E-05-2.85250E-05-2.84591E-05-5.36860E-07 3.71337E-19-2.11150E-19
 -1       541 9.50457E-05-2.85253E-05-2.85088E-05-5.10948E-07 1.20206E-18-5.01141E-19
 -1       542 9.51668E-05-2.85212E-05-2.85623E-05-5.28516E-07 9.97032E-19 7.41668E-19
 -1       543 9.53007E-05-2.85139E-05-2.86226E-05-5.97492E-07 1.50462E-19 1.10839E-18
 -1       544 9.54576E-05-2.85047E-05-2.86935E-05-7.27205E-07-5.89791E-19 7.53877E-19
 -1       545 9.56492E-05-2.84951E-05-2.87795E-05-9.28889E-07 5.84316E-19 6.61445E-19
 -1       546 9.58892E-05-2.84867E-05-2.88856E-05-1.21595E-06 6.64493E-19-6.65235E-19
 -1       547 9.61929E-05-2.84819E-05-2.90175E-05-1.60391E-06 6.79367E-19-4.57961E-19
 -1       548 9.65773E-05-2.84842E-05-2.91808E-05-2.10980E-06 2.09201E-19-3.95407E-19
 -1       549 9.70614E-05-2.84998E-05-2.93811E-05-2.75069E-06-6.75059E-19-9.90457E-19
 -1       550 9.76660E-05-2.85391E-05-2.96228E-05-3.54054E-06-4.12658E-19-1.91904E-18
 -1       551 9.84149E-05-2.86213E-05-2.99081E-05-4.48450E-06-5.06201E-19-1.96800E-18
 -1       552 9.93375E-05-2.87815E-05-3.02347E-05-5.56883E-06 5.05349E-20-2.50571E-18
 -1       553 1.00475E-04-2.90825E-05-3.05936E-05-6.74419E-06-6.72891E-20-1.89448E-18
 -1       554 1.01893E-04-2.96322E-05-3.09670E-05-7.89946E-06 6.89213E-20-1.72183E-18
 -1       555 1.03699E-04-3.06035E-05-3.13276E-05-8.82358E-06-7.20481E-20-1.56730E-18
 -1       556 1.06062E-04-3.22390E-05-3.16445E-05-9.15678E-06-9.86164E-19-1.17318E-18
 -1       557 1.09200E-04-3.47967E-05-3.19009E-05-8.34563E-06-1.32893E-18 5.87151E-19
 -1       558 1.13269E-04-3.83462E-05-3.21320E-05-5.65397E-06-6.54576E-19 2.79481E-19
 -1       559 1.18045E-04-4.23058E-05-3.24771E-05-3.42310E-07 1.65401E-19 2.18596E-18
 -1       560 1.22228E-04-4.46869E-05-3.32613E-05 7.59760E-06 5.58256E-20 2.25422E-18
 -1       561 1.23684E-04-4.27322E-05-3.47705E-05 1.59882E-05-2.52247E-19 1.65119E-18
 -1       562 1.20032E-04-3.37684E-05-3.70996E-05 1.97368E-05-1.56554E-18 1.77013E-18
 -1       563 1.14059E-04-2.30045E-05-3.92426E-05 1.33630E-05-2.64596E-18 1.57836E-18
 -1       564 1.11753E-04-1.99722E-05-3.95895E-05-1.00107E-06-1.01529E-18-2.52259E-19
 -1       565 1.15667E-04-2.75839E-05-3.79252E-05-1.24093E-05 1.30913E-18 4.37936E-19
 -1       566 1.20170E-04-3.81636E-05-3.52554E-05-1.34757E-05 1.82840E-18-6.38224E-19
 -1       567 1.20376E-04-4.35280E-05-3.29728E-05-6.56459E-06 1.82349E-18-1.57016E-18
 -1       568 1.16359E-04-4.26403E-05-3.16175E-05 2.00996E-06 3.21001E-18-1.35865E-18
 -1       569 1.10704E-04-3.85094E-05-3.09621E-05 8.43063E-06 1.78496E-18-6.18006E-19
 -1       570 1.05258E-04-3.36796E-05-3.06803E-05 1.16229E-05-5.95068E-19 1.27648E-18
 -1       571 1.00561E-04-2.92360E-05-3.05636E-05 1.17934E-05-1.86401E-19 2.33818E-18
 -1       572 8.72705E-05-1.76589E-05-2.98441E-05 1.58182E-05 1.35157E-18-1.91670E-18
 -1       573 8.22628E-05-1.33748E-05-2.95305E-05 9.55187E-06 1.11277E-18 1.55577E-18
 -1       574 9.72347E-05-2.62575E-05-3.04151E-05 1.62972E-05-4.03226E-19-4.33412E-18
 -1       575 9.28504E-05-2.24475E-05-3.01774E-05 1.78111E-05 3.02381E-19-3.31717E-18
 -1       576 8.02833E-05-1.16897E-05-2.94027E-05 2.75930E-07-4.28761E-19-4.79674E-19
 -1       577 8.24199E-05-1.35472E-05-2.95229E-05-8.96331E-06-8.72894E-19 7.55132E-19
 -1       578 8.75206E-05-1.79923E-05-2.98025E-05-1.51584E-05 5.23564E-20 4.44220E-18
 -1       579 9.31127E-05-2.29542E-05-3.00699E-05-1.70538E-05 1.58930E-18-4.02028E-19
 -1       580 9.73791E-05-2.69231E-05-3.01918E-05-1.54178E-05 7.66891E-19 8.67650E-19
 -1       581 9.95097E-05-2.92283E-05-3.01108E-05-1.18712E-05 8.73464E-19 3.61955E-19
 -1       582 9.97278E-05-2.99826E-05-2.98949E-05-7.88953E-06-2.65437E-20 5.65555E-19
 -1       583 3.19545E-05-1.63968E-05-5.90033E-06 1.39313E-05-2.87549E-18 7.53330E-19
 -1       584 3.22073E-05-1.92375E-05-4.93555E-06-2.11784E-05 7.30831E-20 5.80906E-18
 -1       585 9.45212E-05-2.72942E-05-2.88030E-05 9.84931E-07 1.08446E-18 3.86278E-19
 -1       586 1.03366E-04-5.75957E-05-1.92731E-05 4.34106E-05 5.01110E-18-1.93420E-18
 -1       587 9.45962E-05-2.07038E-05-3.16872E-05-9.56768E-06-1.64462E-18-1.60091E-18
 -1       588 1.48133E-04-5.89380E-05-3.84658E-05 6.15019E-06 9.41034E-19-1.87485E-18
 -1       589 1.34773E-04-1.04944E-05-5.39417E-05-9.25334E-06-4.61951E-19 2.81292E-18
 -1       590 2.92338E-05-1.81915E-05-4.12372E-06 2.08754E-05-3.00538E-19 3.28204E-18
 -1       591 8.91574E-05-1.28805E-05-3.27082E-05-1.93745E-06 1.93144E-19-2.48583E-18
 -1       592 1.42466E-04-1.06119E-05-5.70980E-05 5.13955E-06 1.76924E-19-4.35041E-18
 -1       593 1.41052E-04-1.62791E-05-5.41089E-05-7.16118E-06-3.72694E-19-3.22407E-18
 -1       594 1.41893E-04-1.90603E-05-5.32186E-05 1.46601E-05 3.14355E-19-4.68772E-18
 -1       595 1.40664E-04-6.28340E-05-3.35972E-05-8.92320E-06-1.06128E-18-1.22611E-18
 -1       596 1.29596E-04-6.22886E-05-2.88133E-05 2.14779E-05 1.03497E-19 7.77312E-19
 -1       597 1.22192E-04-6.34949E-05-2.50126E-05-2.68713E-05-2.82634E-18-2.04318E-18
 -1       598 3.81731E-05-2.41355E-05-5.41515E-06-2.74611E-05-1.05196E-18-1.10495E-18
 -1       599 2.41740E-05-1.47371E-05-3.36429E-06-3.41735E-06-6.80617E-19 1.28230E-18
 -1       600 6.29721E-05-3.60396E-05-1.10044E-05 4.14846E-05-8.45286E-19 3.44319E-19
 -1       601 9.94275E-05-5.47055E-05-1.88678E-05 4.00495E-05 2.07100E-19-1.54704E-18
 -1       602 1.42494E-04-2.65361E-05-5.02343E-05-1.27243E-05-8.10981E-19 1.96591E-18
 -1       603 1.36877E-04-6.43689E-05-3.11451E-05-2.38778E-05-4.16158E-19-6.39298E-19
 -1       604 1.41090E-04-2.71970E-05-4.94156E-05 9.97458E-06-4.79368E-19-2.95609E-18
 -1       605 1.47838E-04-4.91372E-05-4.25848E-05 3.03851E-07-1.23127E-18-3.63409E-18
 -1       606 1.05211E-04-5.89529E-05-1.95855E-05-4.39245E-05 3.33424E-18 5.01937E-18
 -1       607 6.25077E-05-3.93452E-05-9.47884E-06-4.50898E-05 4.38318E-18 8.81052E-18
 -1       608 9.61617E-05-2.31908E-05-3.12768E-05 9.58294E-06 2.17280E-18 8.62207E-19
 -1       609 1.30299E-04-6.57570E-05-2.76347E-05 2.92449E-05 3.02661E-18-1.10683E-18
 -1       610 9.13593E-05-1.58617E-05-3.23782E-05-7.78786E-06-9.62938E-19-2.45995E-18
 -1       611 4.95891E-05-2.27127E-05-1.09681E-05 2.90085E-05-1.93780E-18-4.67398E-18
 -1       612 1.37882E-04-5.86340E-05-3.41585E-05 4.47801E-06-5.20330E-20 1.99304E-18
 -1       613 6.38072E-05-3.40993E-05-1.22956E-05-3.53403E-05-4.39451E-19-2.36968E-18
 -1       614 1.40019E-04-3.31790E-05-4.62171E-05 1.95636E-05-9.13472E-19-3.83214E-18
 -1       615 1.43057E-04-5.48833E-05-3.79374E-05 9.63071E-06-1.01402E-18-2.28180E-18
 -1       616 9.96004E-05-3.03922E-05-2.96605E-05-4.88236E-06-2.91220E-19 6.21434E-19
 -1       617 9.15549E-05-1.68525E-05-3.20209E-05 2.44214E-06 1.04836E-18-1.95954E-18
 -1       618 9.12952E-05-1.64493E-05-3.20822E-05 8.40371E-07 6.50135E-19-2.07792E-18
 -1       619 9.28927E-05-1.90006E-05-3.16737E-05 5.26536E-06 1.46185E-18-1.45273E-18
 -1       620 9.39837E-05-2.09291E-05-3.13170E-05 6.14331E-06 1.62554E-18-8.73305E-19
 -1       621 9.52734E-05-2.40962E-05-3.04942E-05 5.14862E-06 1.55218E-18-3.46872E-19
 -1       622 9.53363E-05-2.59399E-05-2.97374E-05 2.60613E-06 1.17958E-18-1.17993E-19
 -1       623 1.39115E-04-5.83501E-05-3.47490E-05-5.27563E-06 2.97203E-19-3.85866E-18
 -1       624 1.23958E-04-6.24852E-05-2.62531E-05-3.02519E-05 3.06737E-18 4.80711E-19
 -1       625 9.54384E-05-2.57396E-05-2.98666E-05-2.42834E-06-7.93553E-19-1.27951E-18
 -1       626 9.54753E-05-2.69475E-05-2.93684E-05-8.65876E-07-8.67621E-19-1.19581E-18
 -1       627 9.54197E-05-2.77076E-05-2.90193E-05 1.31804E-07-6.67480E-19-1.14499E-18
 -1       628 9.53433E-05-2.81789E-05-2.87847E-05 7.18867E-07-7.29369E-19-1.26043E-18
 -1       629 9.52787E-05-2.84689E-05-2.86328E-05 1.02072E-06-3.46175E-19-9.53469E-19
 -1       630 9.52336E-05-2.86410E-05-2.85398E-05 1.13405E-06-9.25588E-20-7.64245E-19
 -1       631 9.52063E-05-2.87345E-05-2.84880E-05 1.12969E-06-2.09721E-19-4.17584E-19
 -1       632 9.51929E-05-2.87748E-05-2.84650E-05 1.05848E-06-1.07980E-19-5.83440E-19
 -1       633 9.51893E-05-2.87789E-05-2.84617E-05 9.56472E-07-2.12871E-19-6.05695E-19
 -1       634 9.51925E-05-2.87579E-05-2.84721E-05 8.49160E-07-1.84552E-19-9.60907E-19
 -1       635 9.52003E-05-2.87191E-05-2.84920E-05 7.54739E-07-1.87450E-19-7.30632E-19
 -1       636 9.52114E-05-2.86666E-05-2.85192E-05 6.86636E-07-2.03637E-19-6.20188E-19
 -1       637 9.52252E-05-2.86027E-05-2.85525E-05 6.55405E-07-1.08135E-18-5.79939E-19
 -1       638 9.52418E-05-2.85279E-05-2.85917E-05 6.70138E-07-1.26199E-18-8.88517E-20
 -1       639 9.52617E-05-2.84419E-05-2.86370E-05 7.39461E-07-1.45019E-19 5.00618E-19
 -1       640 9.52860E-05-2.83440E-05-2.86894E-05 8.72123E-07-9.80598E-20 5.84130E-19
 -1       641 9.53168E-05-2.82342E-05-2.87496E-05 1.07718E-06-8.11614E-19 8.87813E-19
 -1       642 9.53570E-05-2.81136E-05-2.88184E-05 1.36373E-06 1.14236E-19 7.64696E-20
 -1       643 9.54115E-05-2.79865E-05-2.88962E-05 1.74005E-06 8.51260E-19-7.35832E-19
 -1       644 9.54879E-05-2.78619E-05-2.89823E-05 2.21210E-06 7.01509E-19-1.24142E-18
 -1       645 9.55987E-05-2.77565E-05-2.90749E-05 2.78109E-06-1.01974E-20-1.45918E-18
 -1       646 9.57641E-05-2.76990E-05-2.91704E-05 3.43994E-06-8.52566E-19-1.20840E-18
 -1       647 9.60162E-05-2.77344E-05-2.92632E-05 4.16835E-06-2.17196E-19-8.18351E-19
 -1       648 9.64058E-05-2.79307E-05-2.93461E-05 4.92612E-06-1.92377E-19-7.42101E-19
 -1       649 9.70097E-05-2.83838E-05-2.94109E-05 5.64429E-06-2.21487E-19-1.92864E-19
 -1       650 9.79392E-05-2.92193E-05-2.94515E-05 6.21340E-06-1.84510E-19 1.26371E-20
 -1       651 9.93423E-05-3.05820E-05-2.94694E-05 6.46796E-06 6.27856E-19 5.53591E-19
 -1       652 1.01388E-04-3.25968E-05-2.94833E-05 6.16738E-06 7.03001E-19-3.22637E-19
 -1       653 1.04205E-04-3.52747E-05-2.95436E-05 4.98292E-06 4.24678E-19 1.05550E-19
 -1       654 1.07745E-04-3.83377E-05-2.97486E-05 2.53065E-06-1.12320E-18-2.17769E-19
 -1       655 1.11612E-04-4.10252E-05-3.02538E-05-1.51032E-06-6.95028E-21-1.00401E-18
 -1       656 1.14653E-04-4.17310E-05-3.12485E-05-7.00224E-06-4.82432E-19-1.36265E-18
 -1       657 1.15337E-04-3.87061E-05-3.28679E-05-1.25059E-05-1.89846E-18-1.19595E-18
 -1       658 1.12671E-04-3.12751E-05-3.49198E-05-1.52677E-05-1.27752E-18-3.09867E-19
 -1       659 1.07845E-04-2.22694E-05-3.67726E-05-1.17882E-05-7.70780E-19 2.21354E-19
 -1       660 1.05536E-04-1.82808E-05-3.74882E-05-2.79442E-06 8.51281E-19-4.24137E-19
 -1       661 1.07523E-04-2.20084E-05-3.67496E-05 6.40626E-06 4.90009E-19-1.07034E-18
 -1       662 1.12158E-04-3.09755E-05-3.48169E-05 1.00122E-05-9.69663E-19-1.35619E-18
 -1       663 1.14755E-04-3.83697E-05-3.27570E-05 7.45204E-06-6.68008E-19-9.06496E-19
 -1       664 1.13901E-04-4.12313E-05-3.11512E-05 1.94757E-06 5.74303E-19-2.22643E-18
 -1       665 1.10311E-04-3.98059E-05-3.02232E-05-3.34488E-06 1.09726E-18-3.10480E-18
 -1       666 1.05723E-04-3.60498E-05-2.98632E-05-6.77847E-06 1.35276E-18-1.52682E-18
 -1       667 9.49828E-05-2.81155E-05-2.86572E-05-7.33572E-07 6.44517E-19-4.21150E-20
 -1       668 9.22579E-05-4.72592E-05-1.89609E-05-4.17335E-05 2.93886E-18 5.38419E-18
 -1       669 9.50936E-05-2.77095E-05-2.88783E-05-1.24898E-07 6.23241E-19 1.75086E-19
 -1       670 9.49003E-05-2.85262E-05-2.84461E-05-1.15646E-06 2.23008E-19-5.78361E-19
 -1       671 9.49091E-05-2.86187E-05-2.84103E-05-1.14949E-06 6.96166E-19-6.23254E-19
 -1       672 9.49363E-05-2.86672E-05-2.84012E-05-1.07387E-06 3.14285E-19-2.62394E-19
 -1       673 9.49740E-05-2.86853E-05-2.84096E-05-9.66182E-07 2.15645E-19-1.34406E-19
 -1       674 9.50167E-05-2.86818E-05-2.84294E-05-8.52024E-07 3.00809E-19 1.32995E-19
 -1       675 9.50617E-05-2.86628E-05-2.84568E-05-7.49539E-07-2.95388E-19-2.00165E-19
 -1       676 9.51076E-05-2.86317E-05-2.84898E-05-6.72052E-07 2.56988E-19-7.02670E-19
 -1       677 9.51550E-05-2.85905E-05-2.85277E-05-6.30067E-07 4.19329E-19-9.45286E-20
 -1       678 9.52050E-05-2.85397E-05-2.85708E-05-6.32833E-07 1.73419E-19 9.19673E-19
 -1       679 9.52599E-05-2.84787E-05-2.86204E-05-6.89544E-07 3.46009E-19 1.48855E-18
 -1       680 9.53223E-05-2.84060E-05-2.86783E-05-8.10242E-07 2.97729E-19 1.58838E-18
 -1       681 9.53952E-05-2.83194E-05-2.87466E-05-1.00646E-06 3.66248E-19 5.54310E-19
 -1       682 9.54820E-05-2.82163E-05-2.88278E-05-1.29157E-06 6.61143E-19 1.33271E-18
 -1       683 9.55858E-05-2.80942E-05-2.89245E-05-1.68087E-06 8.80371E-19 1.69975E-18
 -1       684 9.57094E-05-2.79510E-05-2.90387E-05-2.19118E-06 1.14006E-18 4.11705E-19
 -1       685 9.58557E-05-2.77869E-05-2.91715E-05-2.83981E-06 4.72566E-20-7.92427E-20
 -1       686 9.60279E-05-2.76067E-05-2.93224E-05-3.64267E-06-3.38153E-19 2.78612E-19
 -1       687 9.62319E-05-2.74245E-05-2.94877E-05-4.61089E-06-3.96237E-19-5.39518E-19
 -1       688 9.64812E-05-2.72727E-05-2.96594E-05-5.74549E-06 2.52833E-19-4.65259E-19
 -1       689 9.68082E-05-2.72161E-05-2.98237E-05-7.02911E-06-3.45915E-19-6.27676E-20
 -1       690 9.72841E-05-2.73751E-05-2.99597E-05-8.41364E-06-9.80029E-20-1.04018E-19
 -1       691 9.80541E-05-2.79570E-05-3.00409E-05-9.80113E-06-4.04712E-19 6.39761E-19
 -1       692 9.93890E-05-2.92903E-05-3.00432E-05-1.10122E-05-7.34881E-19 1.14788E-18
 -1       693 1.01740E-04-3.18317E-05-2.99647E-05-1.17292E-05-1.15606E-18-3.62157E-20
 -1       694 1.05747E-04-3.60667E-05-2.98714E-05-1.13918E-05-1.03178E-18-8.15008E-19
 -1       695 1.12019E-04-4.21106E-05-2.99746E-05-9.03948E-06-1.01189E-18-7.43207E-19
 -1       696 1.20668E-04-4.90752E-05-3.06790E-05-3.25349E-06 3.35107E-19-1.00500E-18
 -1       697 1.28704E-04-5.16365E-05-3.31312E-05 6.82835E-06-1.94937E-19-1.21871E-18
 -1       698 1.26756E-04-2.80440E-05-4.27075E-05 2.01435E-05-1.43588E-18 7.71779E-19
 -1       699 1.21156E-04-1.44142E-05-4.63009E-05 8.05631E-06-7.50418E-19-2.15812E-18
 -1       700 1.23106E-04-1.91942E-05-4.50413E-05-9.69804E-06-1.37643E-21-3.06625E-18
 -1       701 1.29238E-04-3.68642E-05-3.98691E-05-1.49098E-05 5.41148E-19-1.86903E-18
 -1       702 1.29500E-04-4.88116E-05-3.47997E-05-7.46270E-06 2.50767E-18-2.17925E-18
 -1       703 1.23679E-04-5.01859E-05-3.15264E-05 3.43350E-06 2.51936E-18-3.01705E-18
 -1       704 1.14826E-04-4.43538E-05-3.02161E-05 1.13644E-05 2.10491E-18-2.36511E-18
 -1       705 1.07159E-04-3.72296E-05-2.99643E-05 1.50532E-05-7.59786E-20-5.59440E-19
 -1       706 1.01686E-04-3.17488E-05-2.99713E-05 1.67874E-05 3.01203E-19-3.54400E-18
 -1       707 4.29983E-05-1.35124E-05-1.20499E-05-5.60128E-06-1.21857E-18 1.82689E-18
 -1       708 7.46917E-05-1.42377E-05-2.58830E-05-6.42485E-06-1.60188E-19 7.41402E-20
 -1       709 8.13351E-05-1.89166E-05-2.67322E-05 1.71434E-05 1.29647E-18-2.35500E-18
 -1       710 8.15738E-05-1.93435E-05-2.66480E-05-1.68254E-05 1.80636E-18 2.67928E-18
 -1       711 7.45422E-05-1.40591E-05-2.58960E-05 6.73577E-06-8.42760E-19-3.32196E-21
 -1       712 9.10498E-05-2.61893E-05-2.77804E-05-2.11007E-05 2.08556E-18 3.63904E-18
 -1       713 9.90110E-05-3.16693E-05-2.88545E-05-1.97059E-05 1.71762E-18-1.12698E-18
 -1       714 1.03167E-04-3.42365E-05-2.95364E-05-1.51392E-05 2.12658E-18 1.26205E-18
 -1       715 1.39908E-04-4.95278E-05-3.89743E-05-8.09177E-06 8.10822E-19-1.41264E-18
 -1       716 1.15703E-04-5.78019E-05-2.46898E-05 2.65302E-05 1.33570E-18 1.08951E-18
 -1       717 3.79403E-05-1.28368E-05-1.02196E-05 8.36279E-06-3.00293E-19 3.85903E-18
 -1       718 1.23956E-04-1.32859E-05-4.80722E-05-8.45778E-07-2.35793E-19-2.82105E-18
 -1       719 9.46154E-05-2.22058E-05-3.10293E-05-6.03831E-06-1.07391E-18-1.76984E-18
 -1       720 1.37567E-04-4.07300E-05-4.18659E-05-1.33223E-05-6.56027E-19 2.61159E-18
 -1       721 9.52329E-05-2.70426E-05-2.92224E-05 9.27967E-07 9.24806E-19 1.02127E-19
 -1       722 9.49209E-05-2.83693E-05-2.85221E-05-1.04255E-06 4.88443E-19-1.10740E-19
 -1       723 5.24213E-05-2.24335E-05-1.24066E-05 2.88492E-05-1.34889E-18 1.07054E-18
 -1       724 6.04549E-05-2.71270E-05-1.37893E-05-3.46725E-05 1.52535E-18 7.80435E-18
 -1       725 1.04400E-04-5.39633E-05-2.15053E-05-3.04880E-05-1.37794E-18-2.38473E-18
 -1       726 9.20786E-05-1.76785E-05-3.18916E-05 3.94926E-06 1.35218E-18-1.72007E-18
 -1       727 1.23131E-04-8.49819E-06-4.97434E-05-1.28651E-06 1.86522E-18-1.43628E-18
 -1       728 9.20398E-05-1.76242E-05-3.18986E-05-3.89835E-06-3.23095E-19-2.28675E-18
 -1       729 1.31744E-04-6.28727E-05-2.96169E-05-1.07240E-05-1.14045E-18-2.51273E-18
 -1       730 1.25341E-04-1.67306E-05-4.70599E-05 9.31577E-06-1.34202E-19-2.41447E-18
 -1       731 8.83854E-05-4.39668E-05-1.87251E-05 3.62913E-05-2.11758E-20-4.09421E-19
 -1       732 1.24194E-04-1.91498E-05-4.54642E-05-1.51478E-05-7.48512E-19 1.49634E-19
 -1       733 8.27241E-05-4.21974E-05-1.69177E-05 4.13488E-05 3.92150E-18-4.03053E-18
 -1       734 4.12301E-05-1.59757E-05-1.02525E-05-1.55988E-05-3.40970E-19-7.65824E-19
 -1       735 1.02616E-04-3.29875E-05-2.98322E-05-7.77352E-06 8.57046E-19-7.62398E-19
 -1       736 1.35518E-04-3.99776E-05-4.13219E-05 1.00206E-05-1.25480E-18-2.72218E-18
 -1       737 1.20511E-04-6.03715E-05-2.56728E-05 2.92040E-05 3.96758E-18-3.02430E-18
 -1       738 1.37656E-04-6.26732E-05-3.22021E-05 1.13824E-05 2.99023E-18-1.99619E-18
 -1       739 9.28147E-05-1.88888E-05-3.16922E-05-5.24820E-06-6.87836E-19-2.16237E-18
 -1       740 9.12882E-05-1.64400E-05-3.20831E-05-7.83972E-07 2.48522E-19-2.11845E-18
 -1       741 1.03016E-04-4.89812E-05-2.29606E-05 3.44265E-05 4.19457E-18-3.70970E-18
 -1       742 1.15448E-04-1.38526E-05-4.38628E-05-9.63936E-06 6.61480E-19-1.48825E-18
 -1       743 1.23779E-04-2.85779E-05-4.10978E-05 1.23482E-05-4.83682E-19-1.60010E-19
 -1       744 1.32130E-04-4.29015E-05-3.84719E-05 1.96419E-05-1.22940E-18 9.80183E-19
 -1       745 4.90382E-05-1.46145E-05-1.43476E-05 1.05992E-05-2.15010E-18-2.31319E-19
 -1       746 9.65936E-05-2.88060E-05-2.90528E-05 2.04514E-05 1.15141E-18-2.66751E-18
 -1       747 1.26468E-04-5.89430E-05-2.89824E-05 1.39684E-05 5.32711E-19 2.93640E-18
 -1       748 1.05328E-04-3.59245E-05-2.97359E-05-1.10299E-05 1.77927E-18-1.08653E-18
 -1       749 5.81652E-05-2.38215E-05-1.43421E-05-2.58885E-05-9.70382E-20-3.13235E-18
 -1       750 8.86530E-05-4.23284E-05-1.95194E-05-3.18594E-05-1.02888E-19-3.44862E-19
 -1       751 9.15313E-05-1.68202E-05-3.20246E-05-2.37996E-06-3.64865E-20-2.21943E-18
 -1       752 8.96136E-05-2.44159E-05-2.79403E-05 2.09686E-05 1.50436E-18-1.77938E-18
 -1       753 9.46292E-05-2.27236E-05-3.08167E-05 3.90726E-06 1.20633E-18-1.07623E-18
 -1       754 4.86516E-05-1.32937E-05-1.48270E-05-4.38705E-06 6.04520E-20 9.58603E-19
 -1       755 1.29162E-04-5.91187E-05-3.00618E-05-1.53806E-05 1.69769E-18-2.44110E-18
 -1       756 9.58696E-05-2.68877E-05-2.95638E-05-5.85374E-07-6.39676E-19-1.21173E-18
 -1       757 9.59625E-05-2.77761E-05-2.92228E-05 2.15472E-07-7.41311E-19-8.17481E-19
 -1       758 9.59513E-05-2.83363E-05-2.89779E-05 6.93229E-07-4.85914E-19-8.64148E-19
 -1       759 9.58911E-05-2.86758E-05-2.88066E-05 9.39233E-07-4.12593E-20-1.04175E-18
 -1       760 9.58107E-05-2.88653E-05-2.86910E-05 1.02877E-06-4.02123E-20-1.37762E-18
 -1       761 9.57255E-05-2.89530E-05-2.86168E-05 1.02023E-06 9.58326E-20-7.87452E-19
 -1       762 9.56431E-05-2.89720E-05-2.85734E-05 9.56929E-07-1.07953E-20-4.34667E-19
 -1       763 9.55670E-05-2.89444E-05-2.85526E-05 8.70396E-07-2.52394E-19 1.43172E-19
 -1       764 9.54980E-05-2.88848E-05-2.85486E-05 7.83436E-07-3.03305E-19-3.88426E-19
 -1       765 9.54354E-05-2.88020E-05-2.85572E-05 7.12780E-07-5.03020E-19-6.42066E-19
 -1       766 9.53772E-05-2.87006E-05-2.85757E-05 6.71175E-07-5.03437E-19-1.38619E-19
 -1       767 9.53208E-05-2.85822E-05-2.86023E-05 6.69037E-07-1.02859E-18 4.64034E-19
 -1       768 9.52630E-05-2.84461E-05-2.86358E-05 7.15689E-07-6.83516E-19 1.24560E-18
 -1       769 9.52002E-05-2.82904E-05-2.86756E-05 8.20215E-07-5.83967E-22 8.39915E-19
 -1       770 9.51289E-05-2.81128E-05-2.87211E-05 9.91960E-07-1.23714E-19 3.31073E-19
 -1       771 9.50458E-05-2.79120E-05-2.87716E-05 1.24065E-06-7.40377E-19 5.10011E-19
 -1       772 9.49490E-05-2.76890E-05-2.88257E-05 1.57612E-06-1.15023E-20 5.48002E-19
 -1       773 9.48390E-05-2.74496E-05-2.88811E-05 2.00764E-06 6.26267E-19-1.63887E-19
 -1       774 9.47209E-05-2.72070E-05-2.89344E-05 2.54266E-06-1.97109E-20-4.90640E-19
 -1       775 9.46077E-05-2.69866E-05-2.89804E-05 3.18507E-06-3.71839E-19-1.10794E-18
 -1       776 9.45253E-05-2.68308E-05-2.90118E-05 3.93280E-06-6.64623E-20-1.06996E-18
 -1       777 9.45206E-05-2.68070E-05-2.90200E-05 4.77445E-06 3.80924E-19-1.84419E-19
 -1       778 9.46710E-05-2.70151E-05-2.89953E-05 5.68465E-06 6.06602E-19-4.02250E-19
 -1       779 9.50990E-05-2.75956E-05-2.89299E-05 6.61666E-06 1.20798E-19 1.09610E-18
 -1       780 9.59870E-05-2.87333E-05-2.88230E-05 7.48913E-06 3.34098E-20 1.49739E-18
 -1       781 9.75892E-05-3.06464E-05-2.86901E-05 8.15990E-06-5.61826E-19 4.99727E-19
 -1       782 1.00222E-04-3.35386E-05-2.85791E-05 8.37654E-06 1.45672E-19-6.15775E-19
 -1       783 1.04191E-04-3.74647E-05-2.85952E-05 7.69817E-06-9.00230E-19-2.08687E-18
 -1       784 1.09550E-04-4.20101E-05-2.89418E-05 5.43096E-06-1.12791E-18-2.15591E-18
 -1       785 1.15882E-04-4.59437E-05-3.00096E-05 6.08614E-07-1.08728E-18-3.67159E-18
 -1       786 1.21266E-04-4.68170E-05-3.19524E-05-6.47622E-06-8.88953E-19-3.05766E-18
 -1       787 1.21976E-04-4.01067E-05-3.51927E-05-1.38142E-05-1.30432E-18-4.57624E-19
 -1       788 1.22194E-04-4.68286E-05-3.23427E-05 1.52827E-06 4.76641E-19 3.08404E-19
 -1       789 1.16689E-04-4.56596E-05-3.04451E-05-5.92408E-06-9.89621E-19-9.25583E-20
 -1       790 1.10714E-04-4.11632E-05-2.98091E-05-9.54624E-06 4.23463E-19-1.21035E-18
 -1       791 9.55070E-05-2.88603E-05-2.85629E-05-1.07760E-06 1.65049E-19-3.88588E-19
 -1       792 9.55671E-05-2.87700E-05-2.86274E-05-1.08568E-06 2.53068E-19-7.91111E-19
 -1       793 9.54103E-05-2.88758E-05-2.85148E-05-9.14920E-07-7.13061E-20-3.49729E-19
 -1       794 9.53735E-05-2.88338E-05-2.85170E-05-8.18086E-07 1.10656E-19-2.10214E-19
 -1       795 9.53427E-05-2.87710E-05-2.85308E-05-7.36575E-07 1.61007E-20 1.28386E-19
 -1       796 9.53164E-05-2.86915E-05-2.85536E-05-6.83715E-07 4.30725E-20 2.55356E-19
 -1       797 9.52925E-05-2.85965E-05-2.85840E-05-6.70412E-07-1.30176E-19 3.13031E-19
 -1       798 9.52689E-05-2.84848E-05-2.86217E-05-7.06578E-07-9.94277E-20 4.83539E-20
 -1       799 9.52425E-05-2.83535E-05-2.86667E-05-8.02186E-07 9.48433E-20 3.25195E-19
 -1       800 9.52098E-05-2.81978E-05-2.87194E-05-9.68009E-07 5.01641E-19 2.82176E-19
 -1       801 9.51662E-05-2.80121E-05-2.87803E-05-1.21607E-06-8.00989E-20 5.13759E-19
 -1       802 9.51057E-05-2.77898E-05-2.88496E-05-1.55979E-06 2.78733E-19 7.28501E-19
 -1       803 9.50207E-05-2.75247E-05-2.89267E-05-2.01379E-06 1.25106E-18 1.70960E-18
 -1       804 9.49016E-05-2.72117E-05-2.90098E-05-2.59327E-06 7.48679E-19 1.58293E-18
 -1       805 9.47378E-05-2.68493E-05-2.90948E-05-3.31308E-06 1.43371E-19 1.01843E-18
 -1       806 9.45185E-05-2.64442E-05-2.91744E-05-4.18627E-06 2.05922E-19 6.30208E-19
 -1       807 9.42377E-05-2.60180E-05-2.92366E-05-5.22254E-06-8.29898E-19-1.27289E-19
 -1       808 9.39028E-05-2.56202E-05-2.92635E-05-6.42684E-06-8.95804E-19 7.38643E-20
 -1       809 9.35513E-05-2.53476E-05-2.92296E-05-7.79889E-06-3.32327E-19 3.53722E-20
 -1       810 9.32825E-05-2.53749E-05-2.91027E-05-9.33445E-06-1.15495E-20-3.34811E-19
 -1       811 9.33092E-05-2.59974E-05-2.88475E-05-1.10253E-05-7.79950E-19-1.18822E-18
 -1       812 9.40401E-05-2.76824E-05-2.84393E-05-1.28449E-05-9.48377E-19-1.58387E-18
 -1       813 9.61888E-05-3.11000E-05-2.78958E-05-1.46837E-05-3.89523E-19-1.04193E-18
 -1       814 1.00848E-04-3.70249E-05-2.73463E-05-1.61672E-05-6.15142E-19-2.73022E-18
 -1       815 1.09185E-04-4.58421E-05-2.70365E-05-1.62687E-05-4.02855E-19-4.11815E-18
 -1       816 1.18013E-04-5.13694E-05-2.84987E-05 1.87630E-05 2.91665E-18-1.71887E-18
 -1       817 1.06966E-04-4.08984E-05-2.83006E-05 2.09344E-05-1.71930E-19-3.77579E-18
 -1       818 1.01078E-04-3.46375E-05-2.84725E-05 2.14725E-05-4.22766E-19-3.34659E-18
 -1       819 8.55629E-05-2.83560E-05-2.44466E-05-2.58478E-05 8.54537E-19 5.26269E-18
 -1       820 1.24331E-04-3.20761E-05-3.98329E-05-1.73300E-05-5.96232E-19-1.07408E-18
 -1       821 7.01230E-05-1.80507E-05-2.21578E-05-1.72603E-05 4.03241E-19 4.84406E-18
 -1       822 9.47154E-05-2.28592E-05-3.07968E-05-3.90972E-06-6.92792E-19-1.85922E-18
 -1       823 1.04610E-04-4.90751E-05-2.36969E-05 2.61541E-05-6.48946E-19 1.23478E-18
 -1       824 7.34648E-05-3.04869E-05-1.81658E-05 2.97484E-05-1.43317E-18 1.75341E-18
 -1       825 9.94220E-05-3.66356E-05-2.68553E-05-2.48446E-05 1.30052E-18 3.27446E-19
 -1       826 1.07397E-04-4.04963E-05-2.86656E-05-1.85343E-05 1.87156E-18 9.33665E-19
 -1       827 1.11306E-04-5.28260E-05-2.49259E-05-3.13420E-05 2.27517E-18 1.35556E-18
 -1       828 1.31096E-04-4.79307E-05-3.57141E-05 4.89240E-06-5.25822E-19-8.50031E-19
 -1       829 9.54546E-05-2.88890E-05-2.85282E-05-1.00946E-06 1.65405E-19-4.66637E-19
 -1       830 8.20614E-05-3.46222E-05-2.01370E-05-3.49134E-05 1.45017E-18 5.35155E-18
 -1       831 9.57313E-05-2.77510E-05-2.91344E-05-1.93716E-07 7.79473E-19-8.35066E-19
 -1       832 5.34626E-05-1.60184E-05-1.57908E-05 1.58805E-05-8.76560E-19 1.58166E-18
 -1       833 1.13185E-04-1.43876E-05-4.27010E-05 3.26049E-06 1.41230E-18 2.24594E-19
 -1       834 9.55734E-05-2.55097E-05-3.00264E-05-1.80600E-06-6.25153E-19-1.49980E-18
 -1       835 9.52141E-05-2.44796E-05-3.03147E-05 3.42869E-06 1.16853E-18-6.82117E-19
 -1       836 7.15935E-05-2.82328E-05-1.81908E-05 3.21703E-05 1.70127E-18-2.08585E-18
 -1       837 1.32239E-04-4.96814E-05-3.55733E-05-7.76532E-06-7.66823E-19 7.36111E-19
 -1       838 9.32046E-05-1.97783E-05-3.14694E-05 1.23364E-06 7.80065E-19-1.76840E-18
 -1       839 6.09529E-05-1.83028E-05-1.79379E-05-1.94432E-05 5.02377E-19 5.41548E-18
 -1       840 9.30948E-05-1.95804E-05-3.15073E-05 2.02943E-08 4.11838E-19-1.80374E-18
 -1       841 8.93828E-05-3.60927E-05-2.26872E-05 3.16499E-05 2.09041E-18-1.01152E-18
 -1       842 5.73734E-05-1.72678E-05-1.69866E-05-1.50148E-05-2.88488E-20-2.72479E-18
 -1       843 9.56321E-05-2.85883E-05-2.87331E-05-9.86946E-07 6.37832E-19-9.22738E-19
 -1       844 1.23400E-04-4.02795E-05-3.57269E-05 9.28557E-06-1.92781E-18 4.08773E-19
 -1       845 9.56935E-05-2.82711E-05-2.88953E-05-7.17794E-07 5.47252E-19-9.19803E-19
 -1       846 9.40384E-05-2.13622E-05-3.11460E-05 3.32045E-06 1.05258E-18-1.59899E-18
 -1       847 7.03200E-05-1.77869E-05-2.23960E-05 1.72784E-05 1.91080E-19-1.08095E-18
 -1       848 1.28340E-04-5.40835E-05-3.16667E-05 1.38696E-07 3.58986E-19 5.20264E-19
 -1       849 6.43845E-05-1.39723E-05-2.13688E-05 2.72059E-07-5.57232E-19-6.51825E-19
 -1       850 8.34684E-05-2.59778E-05-2.45764E-05 2.45020E-05-1.21560E-18-9.63804E-19
 -1       851 9.03910E-05-3.84975E-05-2.21520E-05 2.67142E-05-3.96765E-19 1.39893E-20
 -1       852 9.56924E-05-2.69125E-05-2.94771E-05 6.90684E-07 6.49663E-19-5.98550E-19
 -1       853 1.16736E-04-5.42926E-05-2.67584E-05 1.74838E-05 1.77625E-19 1.92211E-18
 -1       854 9.55167E-05-2.58981E-05-2.98365E-05 1.82895E-06 9.01459E-19-6.11773E-19
 -1       855 9.34943E-05-2.03279E-05-3.13591E-05-2.32418E-06-1.35710E-19-2.06262E-18
 -1       856 9.35313E-05-2.03732E-05-3.13536E-05 2.37462E-06 1.07965E-18-1.73056E-18
 -1       857 9.39793E-05-2.12834E-05-3.11569E-05-3.27602E-06-4.23755E-19-1.74796E-18
 -1       858 1.06463E-04-4.88448E-05-2.44214E-05-2.27423E-05-8.56180E-19-2.93359E-18
 -1       859 1.09821E-04-4.14132E-05-2.93254E-05-1.40698E-05 1.01715E-18-1.29533E-19
 -1       860 5.78922E-05-1.37107E-05-1.87404E-05-3.71593E-06-1.06649E-18 2.18058E-19
 -1       861 9.63675E-05-2.79258E-05-2.93322E-05 2.87890E-07-4.58605E-19-6.81420E-19
 -1       862 9.63885E-05-2.85163E-05-2.90881E-05 6.33989E-07-6.40067E-19-6.59314E-19
 -1       863 9.63245E-05-2.88674E-05-2.89102E-05 8.07442E-07-1.90749E-19-6.95574E-19
 -1       864 9.62154E-05-2.90518E-05-2.87844E-05 8.64488E-07 1.65618E-19-5.65942E-19
 -1       865 9.60862E-05-2.91215E-05-2.86992E-05 8.49340E-07 4.60280E-19-2.66942E-19
 -1       866 9.59516E-05-2.91131E-05-2.86451E-05 7.95549E-07-1.36100E-19-7.10360E-19
 -1       867 9.58193E-05-2.90514E-05-2.86148E-05 7.27998E-07-4.36605E-19-8.79331E-19
 -1       868 9.56923E-05-2.89523E-05-2.86029E-05 6.65125E-07-2.05398E-19-3.41650E-19
 -1       869 9.55698E-05-2.88248E-05-2.86050E-05 6.20792E-07-2.80955E-19 5.64396E-20
 -1       870 9.54487E-05-2.86732E-05-2.86181E-05 6.05925E-07-3.62593E-19 3.73816E-19
 -1       871 9.53240E-05-2.84976E-05-2.86399E-05 6.29857E-07-5.88678E-19 4.23132E-19
 -1       872 9.51888E-05-2.82959E-05-2.86684E-05 7.01327E-07-6.33651E-19 9.58472E-19
 -1       873 9.50357E-05-2.80644E-05-2.87020E-05 8.29182E-07-3.66452E-19 6.85655E-19
 -1       874 9.48563E-05-2.77995E-05-2.87386E-05 1.02281E-06-6.89519E-19 3.91045E-19
 -1       875 9.46427E-05-2.74989E-05-2.87759E-05 1.29233E-06-8.38766E-20-7.96395E-20
 -1       876 9.43883E-05-2.71639E-05-2.88105E-05 1.64853E-06-1.72129E-19 3.27828E-19
 -1       877 9.40896E-05-2.68023E-05-2.88374E-05 2.10268E-06-5.15423E-21-5.03633E-19
 -1       878 9.37493E-05-2.64322E-05-2.88502E-05 2.66615E-06-2.05630E-19-5.76890E-19
 -1       879 9.33807E-05-2.60869E-05-2.88402E-05 3.35005E-06-4.19621E-20-5.46657E-19
 -1       880 9.30138E-05-2.58220E-05-2.87965E-05 4.16495E-06 6.30951E-19 8.10765E-19
 -1       881 9.27056E-05-2.57234E-05-2.87067E-05 5.12056E-06 2.87601E-19 3.56316E-19
 -1       882 9.25532E-05-2.59177E-05-2.85580E-05 6.22467E-06 4.51292E-19-5.43301E-19
 -1       883 9.27131E-05-2.65833E-05-2.83413E-05 7.47928E-06 5.10200E-19-2.53514E-19
 -1       884 9.34276E-05-2.79608E-05-2.80574E-05 8.86810E-06-6.00891E-19-9.40124E-19
 -1       885 9.50557E-05-3.03536E-05-2.77309E-05 1.03166E-05-8.44306E-19-8.29960E-19
 -1       886 9.81011E-05-3.40963E-05-2.74333E-05 1.16158E-05-1.26848E-18-1.59818E-18
 -1       887 1.03357E-04-3.94991E-05-2.73680E-05 1.21932E-05-1.30399E-18-1.98037E-18
 -1       888 1.10859E-04-4.59228E-05-2.78231E-05 1.10383E-05-2.33860E-18-1.50677E-18
 -1       889 9.60464E-05-2.89738E-05-2.87454E-05-9.46773E-07-1.05062E-20-7.83765E-19
 -1       890 9.56171E-05-2.89278E-05-2.85811E-05-7.23468E-07-2.84581E-19 5.92948E-20
 -1       891 9.57181E-05-2.90093E-05-2.85894E-05-7.97107E-07-1.19808E-19-5.82502E-19
 -1       892 9.54291E-05-2.86895E-05-2.86027E-05-6.42809E-07-1.52790E-19-3.91365E-19
 -1       893 9.53345E-05-2.85363E-05-2.86278E-05-6.57735E-07-4.86496E-20-4.41616E-19
 -1       894 9.52316E-05-2.83571E-05-2.86605E-05-7.22191E-07-3.24560E-19-7.61788E-19
 -1       895 9.51123E-05-2.81463E-05-2.86997E-05-8.45566E-07-1.90083E-19-6.34440E-19
 -1       896 9.49668E-05-2.78962E-05-2.87446E-05-1.03779E-06 1.58370E-19-1.50055E-19
 -1       897 9.47827E-05-2.75979E-05-2.87935E-05-1.30953E-06 2.25755E-19-5.01508E-19
 -1       898 9.45452E-05-2.72421E-05-2.88442E-05-1.67205E-06 2.76824E-19-5.33117E-19
 -1       899 9.42364E-05-2.68197E-05-2.88929E-05-2.13684E-06 4.75224E-19 5.43752E-19
 -1       900 9.38357E-05-2.63243E-05-2.89334E-05-2.71507E-06 4.10917E-19 1.36597E-18
 -1       901 9.33198E-05-2.57550E-05-2.89563E-05-3.41715E-06-1.56519E-19 1.08145E-18
 -1       902 9.26653E-05-2.51212E-05-2.89474E-05-4.25289E-06-6.38705E-19 1.82035E-18
 -1       903 9.18528E-05-2.44515E-05-2.88861E-05-5.23344E-06-8.33822E-19 1.25899E-18
 -1       904 9.08760E-05-2.38061E-05-2.87441E-05-6.37647E-06 1.05552E-19 1.02538E-18
 -1       905 8.97577E-05-2.32965E-05-2.84832E-05-7.71772E-06 3.86089E-19-2.89173E-19
 -1       906 8.85779E-05-2.31147E-05-2.80555E-05-9.33330E-06 4.79661E-19-2.42004E-19
 -1       907 8.75311E-05-2.35842E-05-2.74053E-05-1.13710E-05-8.82615E-19-5.70973E-19
 -1       908 8.70223E-05-2.52281E-05-2.64815E-05-1.40648E-05-6.67629E-19-1.56884E-18
 -1       909 8.78048E-05-2.88608E-05-2.52531E-05-1.77037E-05 4.92840E-19-1.38331E-18
 -1       910 9.14708E-05-3.57581E-05-2.38052E-05-2.23625E-05 5.41491E-19-1.49908E-18
 -1       911 1.12072E-04-4.79138E-05-2.74626E-05-2.28067E-05 9.62351E-19-1.51554E-18
 -1       912 1.02692E-04-4.12651E-05-2.62504E-05 2.66382E-05 7.76895E-19-4.19395E-18
 -1       913 1.23251E-04-5.27004E-05-3.02383E-05-1.11371E-05 9.82042E-19-4.50449E-19
 -1       914 9.88975E-05-4.03622E-05-2.50021E-05-2.92737E-05 1.46101E-18 3.31063E-18
 -1       915 6.95148E-05-2.24845E-05-2.00430E-05 2.00887E-05-3.25025E-19 1.63154E-18
 -1       916 5.95634E-05-1.42971E-05-1.92824E-05 3.40245E-06 1.03658E-18 1.38474E-18
 -1       917 9.31938E-05-1.97624E-05-3.14718E-05-1.19418E-06 1.13866E-19-1.85680E-18
 -1       918 9.55217E-05-2.88200E-05-2.85865E-05-6.68078E-07-6.25897E-20-3.61880E-19
 -1       919 9.61946E-05-2.78651E-05-2.92840E-05-2.73847E-07 6.69531E-19-1.19665E-18
 -1       920 7.76899E-05-2.94666E-05-2.04895E-05-2.47339E-05-1.34830E-20-2.66776E-19
 -1       921 9.62001E-05-2.69972E-05-2.96587E-05-2.93209E-07-3.42982E-19-8.99037E-19
 -1       922 9.53679E-05-2.47048E-05-3.02848E-05 2.33235E-06 7.55997E-19-8.98950E-19
 -1       923 9.40607E-05-3.15613E-05-2.67622E-05 2.46380E-05-6.03016E-19-3.17542E-18
 -1       924 9.57880E-05-2.55853E-05-3.00869E-05-1.17409E-06-3.02120E-19-1.16333E-18
 -1       925 9.51091E-05-2.37656E-05-3.05756E-05-2.14330E-06-1.51034E-19-1.57151E-18
 -1       926 6.24383E-05-1.50800E-05-2.02353E-05-5.16407E-06 1.04401E-18 9.46510E-19
 -1       927 9.61421E-05-2.87869E-05-2.88666E-05-8.77244E-07 3.75333E-19-9.01657E-19
 -1       928 9.58253E-05-2.90556E-05-2.86156E-05-8.73708E-07 8.05333E-20-8.86896E-19
 -1       929 9.59368E-05-2.90516E-05-2.86650E-05-9.32854E-07 2.79199E-19-8.48158E-19
 -1       930 8.21301E-05-2.93283E-05-2.25923E-05 2.11639E-05-5.23152E-19 6.45875E-19
 -1       931 9.62033E-05-2.84412E-05-2.90409E-05-6.74113E-07 4.31771E-19-1.03153E-18
 -1       932 1.15791E-04-4.71363E-05-2.94334E-05-1.35329E-05-1.33634E-18-2.24573E-19
 -1       933 9.60598E-05-2.69589E-05-2.96151E-05 4.01857E-07 7.69380E-19-1.30166E-18
 -1       934 9.45457E-05-2.22747E-05-3.09734E-05 4.32102E-07 5.22548E-19-1.46936E-18
 -1       935 1.03617E-04-4.47258E-05-2.51826E-05 2.00138E-05-1.24966E-18 1.94442E-18
 -1       936 9.46861E-05-2.26120E-05-3.08912E-05 1.22014E-06 7.08032E-19-1.62263E-18
 -1       937 9.46823E-05-2.25925E-05-3.08946E-05-1.20010E-06 2.97187E-19-1.83478E-18
 -1       938 9.48624E-05-2.30673E-05-3.07667E-05-1.74313E-06 7.53995E-20-1.99576E-18
 -1       939 9.66760E-05-2.81487E-05-2.93687E-05 3.10578E-07-3.26060E-19-9.58212E-19
 -1       940 9.66928E-05-2.87155E-05-2.91332E-05 5.26320E-07-5.93291E-20-3.46556E-19
 -1       941 9.66109E-05-2.90423E-05-2.89580E-05 6.29184E-07 7.84160E-20-3.58013E-19
 -1       942 9.64728E-05-2.91993E-05-2.88315E-05 6.55945E-07 3.55187E-20-1.94461E-19
 -1       943 9.63074E-05-2.92385E-05-2.87438E-05 6.36793E-07-1.64014E-19-6.82937E-19
 -1       944 9.61323E-05-2.91969E-05-2.86866E-05 5.94901E-07-3.88396E-19-6.48755E-19
 -1       945 9.59566E-05-2.90991E-05-2.86532E-05 5.47896E-07-2.46589E-19-3.65412E-19
 -1       946 9.57833E-05-2.89605E-05-2.86383E-05 5.09048E-07-1.03349E-19-6.78419E-19
 -1       947 9.56108E-05-2.87894E-05-2.86377E-05 4.88531E-07 1.04049E-19-4.88637E-19
 -1       948 9.54339E-05-2.85884E-05-2.86481E-05 4.94740E-07-3.92190E-19-1.07121E-19
 -1       949 9.52446E-05-2.83560E-05-2.86666E-05 5.35274E-07-1.62140E-19 1.70359E-19
 -1       950 9.50327E-05-2.80881E-05-2.86906E-05 6.17678E-07-1.39842E-19-3.86796E-20
 -1       951 9.47866E-05-2.77794E-05-2.87174E-05 7.50023E-07-2.11862E-19 7.20507E-19
 -1       952 9.44935E-05-2.74248E-05-2.87437E-05 9.41358E-07-2.22117E-19 1.07391E-18
 -1       953 9.41407E-05-2.70213E-05-2.87655E-05 1.20209E-06-9.12741E-20 9.72804E-19
 -1       954 9.37169E-05-2.65705E-05-2.87771E-05 1.54437E-06-5.30874E-19 4.70131E-19
 -1       955 9.32140E-05-2.60816E-05-2.87711E-05 1.98260E-06-9.63616E-20 2.85407E-19
 -1       956 9.26304E-05-2.55760E-05-2.87377E-05 2.53435E-06 6.61435E-21 1.60527E-19
 -1       957 9.19753E-05-2.50919E-05-2.86645E-05 3.22184E-06 1.22556E-18 9.35465E-20
 -1       958 9.12754E-05-2.46918E-05-2.85360E-05 4.07455E-06 1.09982E-19-5.83681E-21
 -1       959 9.05838E-05-2.44705E-05-2.83345E-05 5.13294E-06-4.66949E-19 1.84208E-19
 -1       960 8.99949E-05-2.45664E-05-2.80411E-05 6.45313E-06 3.47127E-19-6.36940E-19
 -1       961 8.96673E-05-2.51762E-05-2.76393E-05 8.11051E-06-1.14447E-19-5.38103E-19
 -1       962 8.98510E-05-2.65716E-05-2.71213E-05 1.02009E-05-9.59996E-19-4.03212E-19
 -1       963 9.09902E-05-2.91525E-05-2.65050E-05 1.27507E-05-1.40679E-18-4.02195E-19
 -1       964 9.38935E-05-3.34976E-05-2.58687E-05 1.56892E-05-7.89986E-19 4.56971E-19
 -1       965 9.59054E-05-2.90830E-05-2.86381E-05-6.33900E-07-3.23649E-19-1.03670E-18
 -1       966 9.52488E-05-2.39998E-05-3.05355E-05 1.84087E-06 8.40528E-19-1.73591E-18
 -1       967 9.52862E-05-2.84140E-05-2.86595E-05-5.88452E-07-5.42883E-20-8.17255E-19
 -1       968 9.54494E-05-2.86267E-05-2.86383E-05-5.53387E-07-2.86721E-19-9.84248E-19
 -1       969 9.48848E-05-2.78717E-05-2.87199E-05-7.98647E-07 1.26483E-19-1.24051E-18
 -1       970 9.46177E-05-2.75240E-05-2.87545E-05-9.88823E-07 3.32817E-19-7.54480E-19
 -1       971 9.42821E-05-2.71109E-05-2.87877E-05-1.24575E-06-2.97964E-19-5.63502E-19
 -1       972 9.38553E-05-2.66212E-05-2.88146E-05-1.57653E-06-2.75801E-19-2.95031E-19
 -1       973 9.33111E-05-2.60453E-05-2.88283E-05-1.98736E-06-1.05480E-19-8.86411E-21
 -1       974 9.26193E-05-2.53771E-05-2.88181E-05-2.48315E-06 7.45022E-20 1.13384E-18
 -1       975 9.17457E-05-2.46172E-05-2.87694E-05-3.06779E-06-8.40765E-20 8.52101E-19
 -1       976 9.06530E-05-2.37772E-05-2.86611E-05-3.74623E-06-6.82020E-19 4.46928E-19
 -1       977 8.93023E-05-2.28866E-05-2.84639E-05-4.53009E-06-2.04950E-19-4.65357E-19
 -1       978 8.76564E-05-2.20014E-05-2.81379E-05-5.44861E-06 6.01777E-19 5.23795E-20
 -1       979 8.56816E-05-2.12137E-05-2.76294E-05-6.57012E-06 3.64667E-19-6.51384E-20
 -1       980 8.33515E-05-2.06667E-05-2.68646E-05-8.04911E-06-1.44562E-19 6.43981E-19
 -1       981 8.06610E-05-2.05945E-05-2.57394E-05-1.02001E-05 1.38998E-19-9.20812E-19
 -1       982 7.76777E-05-2.14074E-05-2.41038E-05-1.36428E-05 3.55789E-20-1.85943E-18
 -1       983 7.66974E-05-2.41282E-05-2.24568E-05-1.85072E-05-5.13113E-19-1.59306E-18
 -1       984 9.45413E-05-2.22667E-05-3.09747E-05-4.03875E-07 4.44469E-19-1.70729E-18
 -1       985 9.60524E-05-2.58819E-05-3.00707E-05-6.37325E-07-5.50745E-21-1.44917E-18
 -1       986 9.65461E-05-2.80574E-05-2.93523E-05-3.18197E-07 3.49328E-19-1.48889E-18
 -1       987 6.95049E-05-1.81950E-05-2.19733E-05 1.04651E-05 8.28992E-20 1.03675E-18
 -1       988 9.57756E-05-2.59781E-05-2.99133E-05 1.20590E-06 8.92737E-19-1.12838E-18
 -1       989 9.64952E-05-2.72571E-05-2.96752E-05-6.57754E-08-2.07127E-19-1.14088E-18
 -1       990 9.51024E-05-2.81650E-05-2.86874E-05-6.67709E-07-1.76813E-19-8.98728E-19
 -1       991 9.27011E-05-3.57551E-05-2.43706E-05 2.02592E-05-1.17945E-18 8.31836E-19
 -1       992 6.77611E-05-1.60706E-05-2.21049E-05 4.25465E-06-6.06738E-20 1.22053E-18
 -1       993 9.64930E-05-2.89703E-05-2.89383E-05-7.19535E-07 3.12024E-19-1.45875E-18
 -1       994 9.60622E-05-2.91654E-05-2.86700E-05-6.90262E-07 7.10964E-21-9.06880E-19
 -1       995 9.65662E-05-2.86331E-05-2.91142E-05-5.88041E-07 4.38034E-19-1.56918E-18
 -1       996 9.57528E-05-2.89615E-05-2.86248E-05-5.84943E-07 1.69122E-19-7.63157E-19
 -1       997 9.55741E-05-2.43504E-05-3.05243E-05 8.13099E-09 5.37062E-19-1.45743E-18
 -1       998 9.55630E-05-2.46407E-05-3.03978E-05-1.13936E-06 1.86274E-19-1.82985E-18
 -1       999 9.63690E-05-2.91402E-05-2.88123E-05-7.57178E-07 1.27125E-19-1.57577E-18
 -1      1000 9.56055E-05-2.44703E-05-3.04863E-05-4.84200E-07 3.97928E-19-1.63043E-18
 -1      1001 7.72133E-05-2.25884E-05-2.33957E-05 1.41981E-05-4.87861E-19 4.88935E-19
 -1      1002 9.63711E-05-2.71484E-05-2.96664E-05 1.40901E-07 6.36562E-19-1.40131E-18
 -1      1003 9.56064E-05-2.44850E-05-3.04808E-05 4.89208E-07 6.17286E-19-1.37210E-18
 -1      1004 9.56023E-05-2.88085E-05-2.86259E-05-5.54929E-07-3.66911E-20-1.09474E-18
 -1      1005 9.67535E-05-2.76141E-05-2.96310E-05 5.98417E-08 5.10077E-20-1.18210E-18
 -1      1006 9.68908E-05-2.84141E-05-2.93472E-05 2.56643E-07-4.64511E-20-7.70730E-19
 -1      1007 9.68781E-05-2.89158E-05-2.91268E-05 3.64270E-07-5.28900E-20-8.96988E-19
 -1      1008 9.67663E-05-2.91889E-05-2.89617E-05 4.10420E-07 1.73650E-19-6.08094E-19
 -1      1009 9.65996E-05-2.93017E-05-2.88419E-05 4.16098E-07-1.08027E-19-3.73443E-19
 -1      1010 9.64051E-05-2.93019E-05-2.87586E-05 3.98877E-07-8.23186E-20-2.29155E-19
 -1      1011 9.62002E-05-2.92240E-05-2.87041E-05 3.71406E-07-2.71874E-19-7.82866E-20
 -1      1012 9.59929E-05-2.90905E-05-2.86725E-05 3.44812E-07-5.21434E-19-6.39940E-19
 -1      1013 9.57852E-05-2.89152E-05-2.86586E-05 3.26643E-07 1.61123E-19-8.27665E-19
 -1      1014 9.55734E-05-2.87041E-05-2.86583E-05 3.23174E-07 1.89827E-19-1.01445E-18
 -1      1015 9.53496E-05-2.84577E-05-2.86680E-05 3.39995E-07 8.42611E-20 1.61177E-20
 -1      1016 9.51028E-05-2.81724E-05-2.86845E-05 3.82569E-07-2.05446E-19 4.91559E-19
 -1      1017 9.48195E-05-2.78422E-05-2.87047E-05 4.56787E-07-1.15958E-19 1.38103E-19
 -1      1018 9.44841E-05-2.74599E-05-2.87248E-05 5.69502E-07-5.79270E-20 3.06048E-19
 -1      1019 9.40795E-05-2.70190E-05-2.87404E-05 7.29066E-07 1.37238E-20 2.55885E-19
 -1      1020 9.35882E-05-2.65156E-05-2.87456E-05 9.45991E-07-7.57204E-19 7.72903E-20
 -1      1021 9.29933E-05-2.59507E-05-2.87328E-05 1.23384E-06-4.75901E-19 3.37241E-19
 -1      1022 9.22803E-05-2.53337E-05-2.86917E-05 1.61053E-06 2.25945E-19 4.13582E-19
 -1      1023 9.14396E-05-2.46859E-05-2.86091E-05 2.10045E-06 2.21124E-20 4.86486E-19
 -1      1024 9.04689E-05-2.40449E-05-2.84679E-05 2.73775E-06 5.74794E-19-8.11517E-19
 -1      1025 8.93777E-05-2.34702E-05-2.82467E-05 3.57176E-06-2.37875E-20-1.24553E-18
 -1      1026 8.81931E-05-2.30497E-05-2.79195E-05 4.67517E-06-3.85139E-19-5.89869E-19
 -1      1027 8.69670E-05-2.29073E-05-2.74553E-05 6.15379E-06 2.44209E-19-1.03579E-18
 -1      1028 8.57974E-05-2.32277E-05-2.68176E-05 8.18728E-06-7.70739E-19-1.11529E-18
 -1      1029 8.49333E-05-2.42810E-05-2.59954E-05 1.10240E-05-4.96961E-19-3.62839E-19
 -1      1030 8.66669E-05-2.81498E-05-2.50708E-05 1.54437E-05-6.48266E-19 1.45162E-19
 -1      1031 9.58551E-05-2.55050E-05-3.01491E-05 9.57007E-07 7.19585E-19-1.55594E-18
 -1      1032 9.55963E-05-2.87426E-05-2.86516E-05-4.04519E-07-5.06404E-19-6.80899E-19
 -1      1033 9.62196E-05-2.91926E-05-2.87258E-05-7.38050E-07-1.60072E-19-1.34975E-18
 -1      1034 9.42063E-05-2.71184E-05-2.87521E-05-7.97862E-07-1.20985E-21-8.43498E-19
 -1      1035 9.45916E-05-2.75569E-05-2.87292E-05-6.44483E-07-9.54697E-20-1.08783E-18
 -1      1036 9.31175E-05-2.59930E-05-2.87678E-05-1.23901E-06-5.30021E-19-1.14874E-18
 -1      1037 9.23539E-05-2.52872E-05-2.87431E-05-1.52698E-06-8.51761E-19-1.83099E-19
 -1      1038 9.13965E-05-2.44798E-05-2.86789E-05-1.85574E-06-2.21137E-19-3.27328E-19
 -1      1039 9.02024E-05-2.35740E-05-2.85554E-05-2.21918E-06 1.50965E-19 2.35442E-19
 -1      1040 8.87199E-05-2.25823E-05-2.83452E-05-2.61148E-06-1.04198E-19-4.59999E-19
 -1      1041 8.68832E-05-2.15276E-05-2.80102E-05-3.03510E-06-5.34436E-19 4.17832E-19
 -1      1042 8.46141E-05-2.04536E-05-2.74982E-05-3.51253E-06 2.77426E-19 1.43744E-18
 -1      1043 8.17693E-05-1.93895E-05-2.67361E-05-4.09223E-06 3.48888E-19 8.80283E-19
 -1      1044 7.81538E-05-1.83990E-05-2.56109E-05-4.94154E-06 2.40847E-19 1.77128E-19
 -1      1045 7.34292E-05-1.74754E-05-2.39656E-05-6.40005E-06 1.31545E-19 2.90872E-19
 -1      1046 9.51650E-05-2.82432E-05-2.86808E-05-4.58379E-07 2.58463E-19-7.39091E-19
 -1      1047 9.63023E-05-2.60290E-05-3.01165E-05-1.10489E-07 3.53523E-19-1.40999E-18
 -1      1048 9.37242E-05-2.66007E-05-2.87674E-05-9.95622E-07 3.52190E-20-1.42456E-18
 -1      1049 9.53909E-05-2.85123E-05-2.86623E-05-4.17312E-07-1.81059E-19-1.44122E-19
 -1      1050 9.57441E-05-2.49313E-05-3.03478E-05 7.87944E-07 5.24435E-19-1.62806E-18
 -1      1051 9.49043E-05-2.79281E-05-2.87041E-05-5.32614E-07-1.85346E-19-1.17019E-18
 -1      1052 9.68048E-05-2.83065E-05-2.93565E-05-2.96868E-07 4.56831E-19-1.60764E-18
 -1      1053 9.68063E-05-2.88355E-05-2.91304E-05-4.48509E-07 3.35547E-19-1.44778E-18
 -1      1054 9.61786E-05-2.92167E-05-2.86979E-05-4.77227E-07 1.47727E-19-1.31283E-18
 -1      1055 9.62248E-05-2.61175E-05-3.00445E-05-3.88509E-07 6.51349E-20-1.54835E-18
 -1      1056 9.63021E-05-2.60309E-05-3.01161E-05 1.26331E-07 4.66030E-19-1.23432E-18
 -1      1057 9.66522E-05-2.74711E-05-2.96512E-05-1.95876E-08 5.86363E-19-1.46852E-18
 -1      1058 9.59852E-05-2.90986E-05-2.86656E-05-4.41354E-07 4.44681E-20-1.80169E-18
 -1      1059 7.53166E-05-1.89464E-05-2.41439E-05 7.88694E-06-3.20796E-19-3.73910E-20
 -1      1060 9.67067E-05-2.91274E-05-2.89626E-05-5.16689E-07 1.25510E-19-1.14670E-18
 -1      1061 9.57920E-05-2.89383E-05-2.86516E-05-4.14601E-07-2.09338E-19-1.12525E-18
 -1      1062 9.69338E-05-2.79993E-05-2.95417E-05 5.98336E-08 3.66957E-19-1.19884E-18
 -1      1063 9.57540E-05-2.88672E-05-2.86658E-05-2.23592E-07-2.96653E-19-9.37752E-20
 -1      1064 9.70092E-05-2.86799E-05-2.92837E-05 1.23867E-07 8.89059E-20-9.03439E-19
 -1      1065 9.69449E-05-2.90857E-05-2.90825E-05 1.52340E-07 1.86659E-20-8.40164E-19
 -1      1066 9.68009E-05-2.92934E-05-2.89318E-05 1.62018E-07 3.46353E-20-1.08130E-18
 -1      1067 9.66126E-05-2.93548E-05-2.88248E-05 1.57234E-07-1.57480E-19-1.13988E-18
 -1      1068 9.63989E-05-2.93113E-05-2.87518E-05 1.48465E-07-1.85092E-19-1.23553E-18
 -1      1069 9.61754E-05-2.91978E-05-2.87045E-05 1.39546E-07-4.36914E-19-8.65742E-19
 -1      1070 9.59490E-05-2.90330E-05-2.86782E-05 1.31391E-07-2.64026E-20-9.47147E-19
 -1      1071 9.57189E-05-2.88265E-05-2.86681E-05 1.27975E-07 2.54510E-19-7.32792E-19
 -1      1072 9.54788E-05-2.85816E-05-2.86701E-05 1.32033E-07 5.10181E-19-5.54420E-19
 -1      1073 9.52184E-05-2.82964E-05-2.86808E-05 1.46253E-07 2.53964E-19-7.08461E-19
 -1      1074 9.49238E-05-2.79651E-05-2.86965E-05 1.73713E-07-2.52183E-19-7.88184E-20
 -1      1075 9.45783E-05-2.75797E-05-2.87136E-05 2.18304E-07-1.88175E-19 3.70487E-19
 -1      1076 9.41625E-05-2.71314E-05-2.87275E-05 2.85247E-07-4.16187E-19 1.18697E-19
 -1      1077 9.36551E-05-2.66121E-05-2.87326E-05 3.81759E-07-6.49004E-19-5.01364E-19
 -1      1078 9.30335E-05-2.60163E-05-2.87214E-05 5.17983E-07-5.10072E-19-2.81312E-19
 -1      1079 9.22741E-05-2.53439E-05-2.86840E-05 7.08294E-07-6.06196E-19-6.03568E-19
 -1      1080 9.13536E-05-2.46020E-05-2.86074E-05 9.73175E-07 4.82458E-20-1.09925E-18
 -1      1081 9.02496E-05-2.38083E-05-2.84742E-05 1.34191E-06-4.89474E-19-1.74564E-18
 -1      1082 8.89399E-05-2.29937E-05-2.82618E-05 1.85646E-06-4.14720E-19-2.69718E-18
 -1      1083 8.74020E-05-2.22040E-05-2.79410E-05 2.57689E-06 1.77728E-19-2.43962E-18
 -1      1084 8.56116E-05-2.15075E-05-2.74738E-05 3.59235E-06-2.00137E-19-1.40229E-18
 -1      1085 8.36131E-05-2.10129E-05-2.68232E-05 5.00019E-06 2.47012E-19-8.10827E-19
 -1      1086 8.13432E-05-2.08599E-05-2.59145E-05 6.99894E-06-2.71205E-19-5.79427E-19
 -1      1087 7.48252E-05-1.73501E-05-2.46302E-05 8.06277E-07 3.96215E-19 9.89777E-19
 -1      1088 9.42716E-05-2.72335E-05-2.87307E-05-3.72607E-07-1.49703E-19-1.18974E-18
 -1      1089 9.46682E-05-2.76708E-05-2.87132E-05-3.10358E-07-3.23058E-19-1.03585E-18
 -1      1090 9.49961E-05-2.80432E-05-2.86941E-05-2.65379E-07 3.19535E-20-1.22951E-18
 -1      1091 9.14767E-05-2.46321E-05-2.86480E-05-7.41385E-07-5.54722E-19-3.32440E-20
 -1      1092 9.24174E-05-2.54252E-05-2.87112E-05-6.43753E-07-1.00671E-18-4.78463E-19
 -1      1093 8.88817E-05-2.27671E-05-2.83355E-05-8.61337E-07-1.75108E-19 1.39649E-19
 -1      1094 8.71215E-05-2.17211E-05-2.80297E-05-8.32778E-07-6.79373E-20 5.22439E-19
 -1      1095 8.49439E-05-2.06183E-05-2.75685E-05-6.96054E-07-4.40437E-19-2.05116E-19
 -1      1096 8.21946E-05-1.94592E-05-2.68885E-05-4.79228E-07 8.08996E-19-7.43396E-19
 -1      1097 7.91171E-05-1.85067E-05-2.59664E-05 4.24522E-10 4.85817E-19-6.45813E-20
 -1      1098 9.31747E-05-2.61199E-05-2.87379E-05-5.43707E-07-5.30103E-19-1.32501E-19
 -1      1099 9.37827E-05-2.67200E-05-2.87412E-05-4.51349E-07-1.00852E-19-8.23820E-19
 -1      1100 9.52756E-05-2.83614E-05-2.86775E-05-2.37062E-07 1.23163E-19-1.13447E-18
 -1      1101 9.63747E-05-2.92828E-05-2.87540E-05-5.13736E-07-1.32899E-20-1.09384E-18
 -1      1102 9.03136E-05-2.37429E-05-2.85308E-05-8.21173E-07-4.57818E-19 1.58170E-19
 -1      1103 9.63004E-05-2.63794E-05-2.99661E-05 3.13290E-07 5.30640E-19-1.61228E-18
 -1      1104 9.55237E-05-2.86341E-05-2.86670E-05-2.23877E-07-4.18937E-19-8.39619E-19
 -1      1105 9.69729E-05-2.85748E-05-2.93136E-05-1.91626E-07 2.41118E-19-1.05197E-18
 -1      1106 9.59764E-05-2.90622E-05-2.86776E-05-2.33267E-07-1.75680E-19-1.86446E-19
 -1      1107 9.63052E-05-2.61556E-05-3.00597E-05 2.52605E-07 4.49263E-19-1.61380E-18
 -1      1108 7.93077E-05-1.90594E-05-2.58297E-05 3.72078E-06-1.27965E-21-5.58399E-19
 -1      1109 9.65599E-05-2.92658E-05-2.88404E-05-5.31563E-07-1.89595E-19-1.03500E-18
 -1      1110 9.64144E-05-2.93151E-05-2.87566E-05-2.64689E-07-2.24304E-19-7.54127E-19
 -1      1111 9.68605E-05-2.78317E-05-2.95823E-05-6.73160E-08 5.25103E-19-1.09371E-18
 -1      1112 9.61967E-05-2.92153E-05-2.87063E-05-2.49031E-07 4.98133E-20-6.25314E-19
 -1      1113 9.69404E-05-2.90267E-05-2.91057E-05-2.56764E-07 1.04284E-19-9.21699E-19
 -1      1114 9.67281E-05-2.93447E-05-2.88783E-05-1.00711E-07-2.50736E-19-6.53940E-19
 -1      1115 9.67307E-05-2.72303E-05-2.97917E-05-9.52198E-09 3.19981E-19-1.34337E-18
 -1      1116 9.69062E-05-2.92207E-05-2.90081E-05-1.01172E-07 5.04099E-20-6.86742E-19
 -1      1117 1.16857E-04 2.57574E-10-4.18560E-05-4.14661E-05-2.85450E-19 6.82454E-18
 -1      1118 8.86512E-05 7.19187E-11-3.72514E-05-2.41683E-05-1.40713E-19 6.56451E-21
 -1      1119 8.40782E-05 4.14538E-11-3.57669E-05-1.78788E-05-8.88855E-20-2.74034E-18
 -1      1120 8.23339E-05 3.20284E-11-3.50727E-05-1.38362E-05-4.87573E-20-3.88902E-18
 -1      1121 8.15305E-05 2.73266E-11-3.47382E-05-1.05340E-05-2.94609E-20-4.34986E-18
 -1      1122 8.11287E-05 2.46110E-11-3.45729E-05-7.64126E-06-1.19379E-20-4.50316E-18
 -1      1123 8.09201E-05 2.29543E-11-3.44897E-05-4.97995E-06-2.01832E-21-4.51215E-18
 -1      1124 8.08182E-05 2.20586E-11-3.44505E-05-2.43213E-06 4.08296E-21-4.36974E-18
 -1      1125 8.07891E-05 2.17881E-11-3.44395E-05 5.25999E-08 1.53434E-20-4.20327E-18
 -1      1126 8.08224E-05 2.21025E-11-3.44519E-05 2.53983E-06 2.90192E-20-4.06951E-18
 -1      1127 8.09288E-05 2.30522E-11-3.44926E-05 5.09578E-06 2.90969E-20-3.74455E-18
 -1      1128 8.11445E-05 2.47685E-11-3.45773E-05 7.77289E-06 5.37800E-20-3.33532E-18
 -1      1129 8.15532E-05 2.76412E-11-3.47446E-05 1.06937E-05 6.37922E-20-2.76964E-18
 -1      1130 8.23579E-05 3.24998E-11-3.50826E-05 1.40431E-05 8.29298E-20-1.82312E-18
 -1      1131 8.40738E-05 4.19245E-11-3.57868E-05 1.81297E-05 1.03920E-19-3.95459E-20
 -1      1132 8.83492E-05 6.67447E-11-3.73217E-05 2.40108E-05 1.07997E-19 3.37733E-18
 -1      1133 1.06621E-04 1.63927E-10-4.06348E-05 3.61928E-05 2.12182E-19 1.01125E-17
 -1      1134 1.30224E-04-2.57572E-05-4.02746E-05-2.61062E-05-1.10760E-18 1.11021E-17
 -1      1135 9.74598E-05-2.88635E-05-3.15786E-05-6.80347E-07-3.92309E-19 8.45021E-18
 -1      1136 9.01623E-05-2.70274E-05-2.78938E-05 3.87150E-07-1.61347E-19 5.01282E-18
 -1      1137 8.82508E-05-2.65728E-05-2.66441E-05 2.50777E-07-6.74880E-20 2.86482E-18
 -1      1138 8.78905E-05-2.64456E-05-2.63873E-05 1.65745E-07-4.81188E-20 1.20149E-18
 -1      1139 8.82477E-05-2.65216E-05-2.64717E-05 1.18113E-07-9.94627E-20 3.64515E-19
 -1      1140 8.89322E-05-2.67055E-05-2.66737E-05 8.74565E-08-1.10788E-19-8.37424E-19
 -1      1141 8.97440E-05-2.69365E-05-2.69154E-05 6.61633E-08 3.23914E-20-1.34543E-18
 -1      1142 9.05728E-05-2.71780E-05-2.71625E-05 5.04127E-08-6.21842E-20-1.62723E-18
 -1      1143 9.13568E-05-2.74089E-05-2.73968E-05 3.82726E-08-8.12208E-20-2.64880E-18
 -1      1144 9.20628E-05-2.76183E-05-2.76086E-05 2.87114E-08-9.48537E-20-4.20569E-18
 -1      1145 9.26767E-05-2.78012E-05-2.77933E-05 2.11193E-08-1.52634E-20-4.51270E-18
 -1      1146 9.31959E-05-2.79564E-05-2.79501E-05 1.50883E-08 2.29900E-20-4.91507E-18
 -1      1147 9.36262E-05-2.80854E-05-2.80804E-05 1.03192E-08 2.78904E-20-4.49688E-18
 -1      1148 9.39782E-05-2.81914E-05-2.81875E-05 6.58231E-09-2.16418E-20-4.21340E-18
 -1      1149 9.42661E-05-2.82783E-05-2.82754E-05 3.70196E-09 1.71719E-20-4.45005E-18
 -1      1150 9.45066E-05-2.83512E-05-2.83491E-05 1.55191E-09 1.86763E-20-5.27789E-18
 -1      1151 9.47182E-05-2.84157E-05-2.84144E-05 5.59793E-11-6.46878E-22-5.29903E-18
 -1      1152 9.49218E-05-2.84779E-05-2.84774E-05-8.08090E-10 7.65259E-20-6.28985E-18
 -1      1153 9.51407E-05-2.85449E-05-2.85453E-05-1.00286E-09 9.02482E-20-7.32689E-18
 -1      1154 9.54016E-05-2.86246E-05-2.86261E-05-4.24197E-10-8.43605E-20-7.90640E-18
 -1      1155 9.57348E-05-2.87261E-05-2.87290E-05 1.10573E-09-6.09281E-20-7.11203E-18
 -1      1156 9.61747E-05-2.88598E-05-2.88643E-05 3.84280E-09-4.37076E-20-5.77353E-18
 -1      1157 9.67600E-05-2.90371E-05-2.90437E-05 8.11765E-09-1.75289E-19-6.63982E-18
 -1      1158 9.75327E-05-2.92704E-05-2.92794E-05 1.43149E-08 1.42969E-19-6.33785E-18
 -1      1159 9.85352E-05-2.95723E-05-2.95839E-05 2.28165E-08-1.50437E-19-5.01872E-18
 -1      1160 9.98054E-05-2.99536E-05-2.99677E-05 3.38791E-08 2.41496E-19-4.92409E-18
 -1      1161 1.01367E-04-3.04208E-05-3.04364E-05 4.73943E-08-2.08946E-20-6.20315E-18
 -1      1162 1.03213E-04-3.09713E-05-3.09861E-05 6.24648E-08-7.63326E-20-6.32536E-18
 -1      1163 1.05286E-04-3.15866E-05-3.15960E-05 7.67249E-08-8.91886E-20-6.90099E-18
 -1      1164 1.07442E-04-3.22233E-05-3.22195E-05 8.54073E-08-7.79130E-20-5.95937E-18
 -1      1165 1.09419E-04-3.28023E-05-3.27744E-05 8.04001E-08 2.65633E-20-6.76736E-18
 -1      1166 1.10806E-04-3.32009E-05-3.31370E-05 5.00803E-08-1.23068E-20-7.23157E-18
 -1      1167 1.11046E-04-3.32556E-05-3.31485E-05-1.84378E-08 7.42146E-21-7.15321E-18
 -1      1168 1.09528E-04-3.27877E-05-3.26457E-05-1.32164E-07 2.03814E-19-6.21153E-18
 -1      1169 1.05788E-04-3.16673E-05-3.15233E-05-2.79617E-07 2.27772E-19-4.34883E-18
 -1      1170 9.98483E-05-2.99092E-05-2.98198E-05-4.18596E-07 1.00081E-19-4.02971E-18
 -1      1171 9.25320E-05-2.77622E-05-2.77863E-05-4.79598E-07-4.69054E-19-3.86025E-18
 -1      1172 8.54960E-05-2.57105E-05-2.58699E-05-3.99767E-07 1.45521E-19-2.89198E-18
 -1      1173 8.07245E-05-2.43216E-05-2.45742E-05-1.75932E-07-1.26003E-19-3.14175E-18
 -1      1174 7.96025E-05-2.39859E-05-2.42383E-05 1.10438E-07-1.07308E-19-2.54753E-18
 -1      1175 8.21401E-05-2.47060E-05-2.48636E-05 3.34776E-07 1.68215E-20-4.33644E-18
 -1      1176 8.69602E-05-2.60943E-05-2.61134E-05 4.12204E-07-3.08351E-19-5.84273E-18
 -1      1177 9.20720E-05-2.75822E-05-2.74862E-05 3.43823E-07-1.64197E-19-4.91194E-18
 -1      1178 9.58396E-05-2.86936E-05-2.85471E-05 1.95276E-07 5.79526E-19-3.23109E-18
 -1      1179 9.75468E-05-2.92117E-05-2.90834E-05 4.39808E-08 3.90439E-19 6.38749E-19
 -1      1180 9.74119E-05-2.91925E-05-2.91292E-05-5.53092E-08 2.97633E-19-6.22821E-19
 -1      1181 9.62839E-05-2.88816E-05-2.88924E-05-7.06984E-08 3.57439E-19 1.82715E-18
 -1      1182 9.52793E-05-2.86235E-05-2.86237E-05 1.41386E-08-4.98915E-19 2.24780E-18
 -1      1183 9.50516E-05-2.85078E-05-2.84404E-05 5.99169E-08 1.56320E-19 2.20501E-18
 -1      1184 1.31059E-04-3.77395E-05-3.86602E-05 1.21747E-05-1.95453E-19 1.55621E-17
 -1      1185 9.65616E-05-2.81902E-05-3.13312E-05 8.01454E-07 8.07064E-20 1.29505E-17
 -1      1186 9.03762E-05-2.69300E-05-2.78748E-05 1.20163E-07 6.04504E-20 1.00707E-17
 -1      1187 8.83368E-05-2.65000E-05-2.66804E-05 9.01016E-09 8.23607E-20 7.83558E-18
 -1      1188 8.79309E-05-2.64081E-05-2.64144E-05-2.52787E-08 8.11464E-21 6.45937E-18
 -1      1189 8.82699E-05-2.65044E-05-2.64874E-05-3.43102E-08 7.38093E-21 5.30716E-18
 -1      1190 8.89452E-05-2.66987E-05-2.66839E-05-3.54929E-08-2.42484E-20 4.78457E-18
 -1      1191 8.97519E-05-2.69351E-05-2.69227E-05-3.37640E-08 8.58841E-20 4.48583E-18
 -1      1192 9.05778E-05-2.71794E-05-2.71680E-05-3.06853E-08-4.07884E-20 4.36430E-18
 -1      1193 9.13598E-05-2.74119E-05-2.74010E-05-2.69587E-08 8.57972E-20 3.94034E-18
 -1      1194 9.20645E-05-2.76219E-05-2.76117E-05-2.29950E-08 1.49412E-19 3.15498E-18
 -1      1195 9.26771E-05-2.78047E-05-2.77954E-05-1.90492E-08-6.06609E-20 3.01979E-18
 -1      1196 9.31953E-05-2.79596E-05-2.79514E-05-1.52705E-08 2.67822E-20 2.36230E-18
 -1      1197 9.36243E-05-2.80880E-05-2.80809E-05-1.17316E-08-9.67543E-21 1.66807E-18
 -1      1198 9.39748E-05-2.81931E-05-2.81871E-05-8.44929E-09 1.24478E-19 1.43229E-18
 -1      1199 9.42607E-05-2.82790E-05-2.82741E-05-5.40031E-09 7.99884E-21 1.50804E-18
 -1      1200 9.44985E-05-2.83506E-05-2.83468E-05-2.53468E-09-1.52947E-19 2.12932E-18
 -1      1201 9.47068E-05-2.84136E-05-2.84109E-05 2.13642E-10 1.22879E-19 2.11452E-18
 -1      1202 9.49066E-05-2.84743E-05-2.84727E-05 2.91677E-09 2.50910E-19 2.74666E-19
 -1      1203 9.51219E-05-2.85398E-05-2.85394E-05 5.64277E-09-7.08394E-20-6.61732E-19
 -1      1204 9.53806E-05-2.86187E-05-2.86197E-05 8.44364E-09-1.10198E-19 2.55006E-19
 -1      1205 9.57162E-05-2.87209E-05-2.87237E-05 1.13388E-08-1.94263E-21 1.10969E-18
 -1      1206 9.61688E-05-2.88586E-05-2.88638E-05 1.42891E-08 1.94412E-19-3.39249E-19
 -1      1207 9.67877E-05-2.90466E-05-2.90548E-05 1.71543E-08-1.13850E-19-6.57458E-19
 -1      1208 9.76326E-05-2.93028E-05-2.93151E-05 1.96210E-08 8.37413E-20 5.14197E-19
 -1      1209 9.87757E-05-2.96486E-05-2.96665E-05 2.10838E-08-2.91846E-20 1.96077E-18
 -1      1210 1.00302E-04-3.01092E-05-3.01345E-05 2.04540E-08 7.36141E-20 2.58548E-18
 -1      1211 1.02305E-04-3.07123E-05-3.07472E-05 1.58760E-08 2.17079E-19-1.16467E-20
 -1      1212 1.04884E-04-3.14855E-05-3.15320E-05 4.36232E-09-2.43787E-19-2.03831E-19
 -1      1213 1.08115E-04-3.24504E-05-3.25088E-05-1.85135E-08 3.88320E-20-4.96282E-19
 -1      1214 1.12017E-04-3.36093E-05-3.36755E-05-5.83981E-08-1.58868E-19-1.48315E-18
 -1      1215 1.16473E-04-3.49242E-05-3.49830E-05-1.20264E-07 1.67667E-19 2.95720E-19
 -1      1216 1.21109E-04-3.62818E-05-3.62992E-05-2.02713E-07-1.91316E-19 2.59647E-18
 -1      1217 1.25132E-04-3.74506E-05-3.73680E-05-2.86054E-07-2.47992E-19 3.15369E-18
 -1      1218 1.27212E-04-3.80506E-05-3.77959E-05-3.16960E-07-8.55437E-20 2.46514E-18
 -1      1219 1.25594E-04-3.75856E-05-3.71245E-05-2.07296E-07 2.47466E-19 1.13333E-18
 -1      1220 1.18760E-04-3.56224E-05-3.50479E-05 1.17872E-07 3.82144E-19-2.03034E-18
 -1      1221 1.06803E-04-3.21571E-05-3.17573E-05 5.98269E-07-3.87441E-19-1.69555E-18
 -1      1222 9.27992E-05-2.80020E-05-2.81484E-05 9.64731E-07 3.70134E-19-1.07531E-18
 -1      1223 8.23999E-05-2.47839E-05-2.55723E-05 8.85692E-07 1.67024E-19 1.36595E-18
 -1      1224 8.05001E-05-2.40521E-05-2.50902E-05 3.22062E-07-3.11073E-19 5.44375E-18
 -1      1225 8.73953E-05-2.60505E-05-2.67334E-05-3.67996E-07-6.78685E-20 7.37533E-18
 -1      1226 9.85013E-05-2.94425E-05-2.94737E-05-7.64175E-07-2.68122E-20 5.84675E-18
 -1      1227 1.07991E-04-3.23894E-05-3.19391E-05-7.43400E-07 8.44055E-20 3.44404E-18
 -1      1228 1.12421E-04-3.37789E-05-3.32035E-05-4.63246E-07-2.11738E-19 3.10755E-18
 -1      1229 1.11523E-04-3.35264E-05-3.30810E-05-1.30500E-07-6.38021E-20 7.43139E-20
 -1      1230 1.06995E-04-3.21686E-05-3.19510E-05 1.38943E-07-2.95800E-21-5.13725E-18
 -1      1231 1.01196E-04-3.04304E-05-3.04425E-05 2.97736E-07 1.31356E-19-5.68629E-18
 -1      1232 9.65249E-05-2.90274E-05-2.91683E-05 2.65646E-07 5.03475E-19-6.60511E-18
 -1      1233 9.49510E-05-2.84640E-05-2.83954E-05-1.03148E-07-2.15682E-19-4.46386E-18
 -1      1234 9.53557E-05-2.88519E-05-2.84224E-05-8.86542E-08-4.23081E-18 1.18571E-19
 -1      1235 9.47463E-05-2.71775E-05-2.92605E-05 4.45245E-08-1.86984E-18 4.64363E-19
 -1      1236 9.32457E-05-2.21319E-05-3.07515E-05 3.08366E-07 1.30930E-18 4.95647E-21
 -1      1237 9.10201E-05-1.46197E-05-3.28833E-05 4.38689E-07-4.15856E-18 6.20749E-20
 -1      1238 8.84651E-05-5.93122E-06-3.53291E-05 4.85211E-07-5.48359E-18-3.83349E-19
 -1      1239 8.60654E-05 2.27747E-06-3.76126E-05 4.25693E-07-1.09851E-17-1.15677E-18
 -1      1240 8.43159E-05 8.29176E-06-3.92718E-05 2.59961E-07-1.36933E-17-1.36075E-19
 -1      1241 8.36279E-05 1.06578E-05-3.99259E-05 8.07032E-09-8.77676E-18 1.06101E-18
 -1      1242 8.41830E-05 8.73374E-06-3.94130E-05-2.39746E-07-6.26643E-18 6.14463E-19
 -1      1243 8.57982E-05 3.16635E-06-3.78974E-05-4.00923E-07-6.26534E-18 1.19015E-18
 -1      1244 8.80278E-05-4.47934E-06-3.57805E-05-4.37612E-07-3.63314E-18-5.39682E-19
 -1      1245 9.03370E-05-1.23401E-05-3.35586E-05-3.68134E-07-4.67176E-18 6.00985E-19
 -1      1246 9.23345E-05-1.90926E-05-3.15985E-05-2.51713E-07-3.35113E-18 4.54192E-19
 -1      1247 9.38267E-05-2.40835E-05-3.01090E-05-1.27813E-07-4.63221E-21 7.00791E-19
 -1      1248 9.47837E-05-2.71963E-05-2.91579E-05-5.13182E-08-1.65262E-18-5.71026E-19
 -1      1249 9.51199E-05-2.84796E-05-2.86729E-05 1.10745E-07-4.26568E-18-7.81419E-19
 -1      1250 9.52983E-05-2.87567E-05-2.84528E-05 6.77485E-08-2.05816E-18 3.84945E-19
 -1      1251 3.72847E-05-1.19615E-04 2.05968E-05-1.59159E-05 2.67578E-17 3.50746E-18
 -1      1252 1.88304E-05-7.23837E-05 1.10813E-05-2.67054E-05 1.84763E-17 5.08897E-18
 -1      1253 8.55474E-06-1.03082E-05-6.16680E-06-1.70014E-07 9.38513E-19-1.38236E-18
 -1      1254 3.65667E-05 2.56842E-05-2.70451E-05 5.60661E-05-6.90840E-18-7.37935E-18
 -1      1255 1.11656E-04 1.45310E-05-4.81574E-05 1.05565E-04-3.84468E-18-5.58534E-18
 -1      1256 2.11714E-04-3.09717E-05-6.61113E-05 1.16820E-04-2.86212E-18-5.55823E-18
 -1      1257 2.96817E-04-8.05584E-05-7.77695E-05 7.43813E-05-1.13428E-18-5.87502E-18
 -1      1258 3.24652E-04-9.89716E-05-8.09267E-05-7.48339E-06 2.03923E-19-5.47871E-18
 -1      1259 2.77309E-04-7.08594E-05-7.46027E-05-8.27495E-05 1.70360E-18-6.23247E-18
 -1      1260 1.78927E-04-1.85131E-05-5.97255E-05-1.09550E-04 4.12929E-18-7.32175E-18
 -1      1261 7.94159E-05 1.92827E-05-3.93425E-05-8.53693E-05 6.29345E-18-8.66006E-18
 -1      1262 2.02782E-05 1.46043E-05-1.85320E-05-3.14556E-05 3.14588E-18-3.22720E-18
 -1      1263 8.66093E-06-3.12951E-05 1.09316E-06 1.50413E-05-7.89435E-19 6.76779E-19
 -1      1264 2.51173E-05-8.94299E-05 1.52606E-05 2.87375E-05-4.01832E-18 8.45974E-19
 -1      1265 3.87333E-05-1.19028E-04 2.08228E-05 7.72854E-06-5.71546E-18 6.28181E-19
 -1      1266 3.27369E-05-1.04585E-04 1.80743E-05-1.98099E-05-5.92457E-18-8.21516E-19
 -1      1267 1.39216E-05-5.41897E-05 7.34914E-06-2.41683E-05-7.51318E-19 8.03411E-19
 -1      1268 1.00022E-05 1.24319E-06-9.96816E-06 9.62762E-06 4.31987E-19-8.59738E-19
 -1      1269 4.83866E-05 2.53187E-05-3.06725E-05 6.53589E-05-2.29885E-18-2.42590E-18
 -1      1270 1.36368E-04 1.71324E-06-5.24328E-05 1.07057E-04-7.19978E-19-1.19940E-18
 -1      1271 2.41059E-04-5.03840E-05-6.95415E-05 1.02796E-04 2.69780E-19 1.67713E-19
 -1      1272 3.06427E-04-8.81713E-05-7.84681E-05 4.50914E-05-1.00056E-19 1.35229E-18
 -1      1273 3.10553E-04-9.00112E-05-7.93195E-05-3.72321E-05-4.06576E-20 1.82832E-18
 -1      1274 2.49037E-04-5.28214E-05-7.09682E-05-1.02417E-04-2.37339E-18 6.32141E-18
 -1      1275 1.48462E-04-8.02885E-07-5.51300E-05-1.14348E-04-5.81742E-18 9.63246E-18
 -1      1276 5.77036E-05 2.67927E-05-3.41348E-05-7.56797E-05-1.08081E-17 1.09979E-17
 -1      1277 1.18406E-05 3.23657E-06-1.12810E-05-1.34299E-05-1.17924E-17 8.49066E-18
 -1      1278 1.64097E-05-6.21616E-05 8.78587E-06 2.61425E-05-2.68848E-18 3.24668E-18
 -1      1279 3.83924E-05-1.18776E-04 2.01356E-05 1.64481E-05 1.95495E-17-9.23531E-19
 -1      1280 1.04446E-04-2.20200E-05-3.78929E-05-1.72756E-05-4.15681E-19 5.19866E-18
 -1      1281 9.03197E-05-6.68111E-06-3.60172E-05-2.04726E-05-1.01199E-18-1.28770E-18
 -1      1282 9.26568E-05-6.73993E-06-3.72225E-05-2.57606E-05-1.37177E-18 1.47807E-19
 -1      1283 8.59043E-05-4.09671E-06-3.51298E-05-1.64346E-05-9.50318E-19-3.24080E-18
 -1      1284 8.71563E-05-4.08933E-06-3.55992E-05-1.88551E-05-1.09537E-18-2.42815E-18
 -1      1285 9.21337E-05-1.04628E-05-3.50934E-05-1.90365E-05-1.76718E-18-1.13545E-18
 -1      1286 8.40949E-05-3.19046E-06-3.46863E-05-1.28171E-05-7.04361E-19-4.11031E-18
 -1      1287 8.47075E-05-3.16120E-06-3.49110E-05-1.46320E-05-8.32792E-19-3.74447E-18
 -1      1288 8.78665E-05-7.39545E-06-3.45735E-05-1.54131E-05-1.45565E-18-2.74566E-18
 -1      1289 8.31830E-05-2.72714E-06-3.44695E-05-9.68813E-06-4.55479E-19-4.48669E-18
 -1      1290 8.34962E-05-2.70873E-06-3.45788E-05-1.12352E-05-5.37178E-19-4.34741E-18
 -1      1291 8.58649E-05-5.98198E-06-3.43048E-05-1.19559E-05-1.01295E-18-3.48046E-18
 -1      1292 8.26923E-05-2.45758E-06-3.43629E-05-6.91622E-06-2.21552E-19-4.55990E-18
 -1      1293 8.28615E-05-2.44915E-06-3.44174E-05-8.28750E-06-3.18967E-19-4.51765E-18
 -1      1294 8.48189E-05-5.21674E-06-3.41721E-05-8.94640E-06-6.68597E-19-3.78343E-18
 -1      1295 8.24167E-05-2.29195E-06-3.43101E-05-4.29551E-06-3.79808E-20-4.50889E-18
 -1      1296 8.25079E-05-2.28805E-06-3.43374E-05-5.59698E-06-8.75620E-20-4.54137E-18
 -1      1297 8.42337E-05-4.76202E-06-3.41086E-05-6.21757E-06-2.85970E-19-3.84688E-18
 -1      1298 8.22840E-05-2.20246E-06-3.42878E-05-1.79018E-06 1.31502E-19-4.36001E-18
 -1      1299 8.23230E-05-2.20090E-06-3.42989E-05-3.04144E-06 6.65649E-20-4.44261E-18
 -1      1300 8.39108E-05-4.49807E-06-3.40797E-05-3.64516E-06 3.31038E-21-3.73340E-18
 -1      1301 8.22578E-05-2.17494E-06-3.42851E-05 6.70034E-07 3.36500E-19-4.18952E-18
 -1      1302 8.22565E-05-2.17499E-06-3.42847E-05-5.66064E-07 2.72328E-19-4.27723E-18
 -1      1303 8.37693E-05-4.37840E-06-3.40688E-05-1.17068E-06 3.36456E-19-3.64289E-18
 -1      1304 8.23315E-05-2.20518E-06-3.43004E-05 3.14904E-06 4.94338E-19-3.98524E-18
 -1      1305 8.22896E-05-2.20681E-06-3.42886E-05 1.89519E-06 4.52366E-19-4.10624E-18
 -1      1306 8.37741E-05-4.38261E-06-3.40692E-05 1.27405E-06 6.24067E-19-3.44519E-18
 -1      1307 8.25248E-05-2.29817E-06-3.43400E-05 5.71368E-06 6.30695E-19-3.74324E-18
 -1      1308 8.24301E-05-2.30154E-06-3.43121E-05 4.40634E-06 5.91004E-19-3.93314E-18
 -1      1309 8.39261E-05-4.51149E-06-3.40808E-05 3.75287E-06 9.25308E-19-3.30610E-18
 -1      1310 8.28846E-05-2.46386E-06-3.44204E-05 8.39564E-06 8.33639E-19-3.27016E-18
 -1      1311 8.27117E-05-2.47254E-06-3.43654E-05 7.01577E-06 7.43711E-19-3.52093E-18
 -1      1312 8.42587E-05-4.78453E-06-3.41099E-05 6.31168E-06 1.10675E-18-3.02340E-18
 -1      1313 8.35429E-05-2.74113E-06-3.45840E-05 1.13960E-05 1.08947E-18-2.61834E-18
 -1      1314 8.32215E-05-2.75823E-06-3.44731E-05 9.83102E-06 9.85615E-19-2.99136E-18
 -1      1315 8.48617E-05-5.25766E-06-3.41732E-05 9.05495E-06 1.48029E-18-2.48662E-18
 -1      1316 8.47644E-05-3.20327E-06-3.49188E-05 1.48448E-05 1.30268E-18-1.62919E-18
 -1      1317 8.41518E-05-3.24001E-06-3.46920E-05 1.30045E-05 1.20615E-18-2.25395E-18
 -1      1318 8.59453E-05-6.06271E-06-3.43061E-05 1.21236E-05 1.86573E-18-1.84108E-18
 -1      1319 8.72555E-05-4.09039E-06-3.56208E-05 1.90921E-05 1.37431E-18 3.39475E-19
 -1      1320 8.59719E-05-4.15425E-06-3.51374E-05 1.66941E-05 1.24924E-18-8.45921E-19
 -1      1321 8.79908E-05-7.51713E-06-3.45756E-05 1.56514E-05 2.06939E-18-6.15793E-19
 -1      1322 9.34699E-05-6.79267E-06-3.71180E-05 2.50971E-05 1.12518E-18 3.98285E-18
 -1      1323 9.01354E-05-6.43815E-06-3.60400E-05 2.11497E-05 1.11591E-18 1.77978E-18
 -1      1324 9.23639E-05-1.06984E-05-3.50788E-05 1.96772E-05 2.00948E-18 1.54478E-18
 -1      1325 1.23632E-04-2.49248E-05-3.90166E-05 2.83673E-05 4.98373E-19 1.05515E-17
 -1      1326 1.00086E-04-1.44249E-05-3.73557E-05 2.40510E-05 5.34584E-19 6.03553E-18
 -1      1327 1.01684E-04-1.93435E-05-3.54038E-05 2.13992E-05 1.80445E-18 4.78637E-18
 -1      1328 1.02610E-04-2.78069E-05-3.47596E-05 7.32916E-06 9.12254E-19 1.02578E-17
 -1      1329 1.05153E-04-3.02322E-05-3.35271E-05-7.95971E-06-1.11311E-18 5.65310E-18
 -1      1330 9.82667E-05-2.78448E-05-3.07638E-05-4.98851E-06-1.02660E-18 4.30139E-18
 -1      1331 9.55086E-05-2.78508E-05-2.92563E-05-2.48942E-06-8.17969E-19 3.79960E-18
 -1      1332 9.32767E-05-2.75601E-05-2.82170E-05-2.04268E-06-7.46501E-19 2.61011E-18
 -1      1333 9.94898E-05-2.80532E-05-3.09843E-05-7.88684E-06-1.79762E-18 1.91623E-18
 -1      1334 9.15874E-05-2.72026E-05-2.75827E-05-8.38178E-07-6.40059E-19 2.27121E-18
 -1      1335 9.08707E-05-2.71072E-05-2.72804E-05-7.28254E-07-5.65778E-19 1.35996E-18
 -1      1336 9.47236E-05-2.77721E-05-2.88179E-05-3.12017E-06-1.29702E-18 1.15472E-18
 -1      1337 9.01202E-05-2.69240E-05-2.70373E-05-1.74622E-07-3.86264E-19 9.44442E-19
 -1      1338 9.00471E-05-2.69505E-05-2.70024E-05-1.16369E-07-3.52836E-19 3.71980E-19
 -1      1339 9.25245E-05-2.75008E-05-2.78971E-05-1.05409E-06-9.99975E-19 4.36460E-19
 -1      1340 8.97876E-05-2.68831E-05-2.69281E-05 1.54101E-07-3.22829E-19 1.27253E-19
 -1      1341 9.00019E-05-2.69732E-05-2.69896E-05 1.82749E-07-3.95300E-19-3.61895E-19
 -1      1342 9.15652E-05-2.73572E-05-2.75302E-05-7.08561E-08-7.43480E-19-2.25933E-19
 -1      1343 9.00054E-05-2.69763E-05-2.69960E-05 3.13546E-07-3.89100E-19-4.98565E-19
 -1      1344 9.03471E-05-2.70958E-05-2.70948E-05 3.25156E-07-2.64456E-19-8.64252E-19
 -1      1345 9.13117E-05-2.73453E-05-2.74220E-05 4.16266E-07-7.09231E-19-5.56550E-19
 -1      1346 9.04885E-05-2.71374E-05-2.71418E-05 3.79282E-07-9.79812E-20-1.09906E-18
 -1      1347 9.08750E-05-2.72653E-05-2.72535E-05 3.80858E-07-1.48558E-19-1.29558E-18
 -1      1348 9.14438E-05-2.74189E-05-2.74439E-05 6.43574E-07-3.79830E-19-6.82861E-19
 -1      1349 9.10823E-05-2.73253E-05-2.73197E-05 3.91010E-07-1.13619E-19-1.35485E-18
 -1      1350 9.14679E-05-2.74494E-05-2.74314E-05 3.86719E-07-1.98800E-19-1.61142E-18
 -1      1351 9.17750E-05-2.75373E-05-2.75324E-05 7.25017E-07-3.23026E-19-1.27042E-18
 -1      1352 9.16981E-05-2.75158E-05-2.75040E-05 3.71749E-07-3.07185E-19-1.48038E-18
 -1      1353 9.20574E-05-2.76295E-05-2.76085E-05 3.64264E-07-4.23869E-19-2.10655E-18
 -1      1354 9.21948E-05-2.76738E-05-2.76519E-05 7.22399E-07-4.15009E-19-1.37982E-18
 -1      1355 9.22855E-05-2.76951E-05-2.76801E-05 3.35887E-07-3.87203E-19-2.21992E-18
 -1      1356 9.26056E-05-2.77951E-05-2.77736E-05 3.26982E-07-1.79694E-19-2.60265E-18
 -1      1357 9.26369E-05-2.78116E-05-2.77810E-05 6.72617E-07-6.11670E-19-1.12072E-18
 -1      1358 9.28174E-05-2.78558E-05-2.78399E-05 2.92757E-07-1.44820E-19-2.92246E-18
 -1      1359 9.30935E-05-2.79412E-05-2.79208E-05 2.83606E-07-1.51510E-19-3.09145E-18
 -1      1360 9.30625E-05-2.79410E-05-2.79073E-05 5.99037E-07-3.92712E-19-1.41240E-18
 -1      1361 9.32821E-05-2.79951E-05-2.79798E-05 2.48485E-07-9.50139E-20-3.01902E-18
 -1      1362 9.35144E-05-2.80663E-05-2.80481E-05 2.39862E-07-4.92301E-20-3.14094E-18
 -1      1363 9.34509E-05-2.80569E-05-2.80238E-05 5.16871E-07-1.69746E-19-1.82525E-18
 -1      1364 9.36781E-05-2.81130E-05-2.80992E-05 2.07103E-07 1.27880E-19-3.13484E-18
 -1      1365 9.38702E-05-2.81713E-05-2.81559E-05 1.99512E-07 1.08326E-19-3.00803E-18
 -1      1366 9.37932E-05-2.81576E-05-2.81275E-05 4.36123E-07 1.78470E-19-1.71328E-18
 -1      1367 9.40103E-05-2.82112E-05-2.81996E-05 1.71282E-07 1.37266E-19-2.98537E-18
 -1      1368 9.41681E-05-2.82586E-05-2.82463E-05 1.65057E-07-9.95985E-20-2.99447E-18
 -1      1369 9.40889E-05-2.82434E-05-2.82177E-05 3.63418E-07-7.08646E-20-1.65537E-18
 -1      1370 9.42883E-05-2.82928E-05-2.82838E-05 1.42860E-07-2.34535E-19-2.85250E-18
 -1      1371 9.44192E-05-2.83316E-05-2.83228E-05 1.38243E-07-2.43143E-19-3.25440E-18
 -1      1372 9.43427E-05-2.83159E-05-2.82957E-05 3.03244E-07-2.44040E-19-1.65925E-18
 -1      1373 9.45249E-05-2.83615E-05-2.83557E-05 1.23230E-07-2.14428E-19-3.22597E-18
 -1      1374 9.46373E-05-2.83944E-05-2.83893E-05 1.20426E-07-3.38529E-19-3.83242E-18
 -1      1375 9.45631E-05-2.83779E-05-2.83641E-05 2.58851E-07-4.49662E-19-1.70846E-18
 -1      1376 9.47352E-05-2.84221E-05-2.84198E-05 1.13632E-07-3.25028E-19-3.74150E-18
 -1      1377 9.48389E-05-2.84521E-05-2.84509E-05 1.12852E-07-1.64573E-19-3.94916E-18
 -1      1378 9.47620E-05-2.84330E-05-2.84263E-05 2.32908E-07-4.21956E-19-2.08740E-18
 -1      1379 9.49367E-05-2.84796E-05-2.84814E-05 1.15364E-07-1.61444E-19-4.22139E-18
 -1      1380 9.50426E-05-2.85100E-05-2.85133E-05 1.16860E-07-2.68593E-19-4.64795E-18
 -1      1381 9.49533E-05-2.84853E-05-2.84866E-05 2.27994E-07-3.95198E-19-2.70128E-18
 -1      1382 9.51493E-05-2.85401E-05-2.85465E-05 1.29929E-07-4.73716E-19-4.96417E-18
 -1      1383 9.52696E-05-2.85746E-05-2.85827E-05 1.34009E-07-5.47910E-19-5.72675E-18
 -1      1384 9.51535E-05-2.85395E-05-2.85499E-05 2.46937E-07-7.46126E-19-3.22912E-18
 -1      1385 9.53957E-05-2.86102E-05-2.86220E-05 1.59097E-07 2.94890E-22-6.11291E-18
 -1      1386 9.55443E-05-2.86531E-05-2.86667E-05 1.66136E-07-1.23342E-19-6.26672E-18
 -1      1387 9.53815E-05-2.86014E-05-2.86220E-05 2.93010E-07-5.58134E-19-3.97154E-18
 -1      1388 9.57015E-05-2.86975E-05-2.87156E-05 2.04883E-07 1.68395E-19-5.71090E-18
 -1      1389 9.58943E-05-2.87536E-05-2.87734E-05 2.15304E-07 3.46810E-19-5.36245E-18
 -1      1390 9.56588E-05-2.86771E-05-2.87094E-05 3.69947E-07 3.43227E-19-4.72284E-18
 -1      1391 9.60957E-05-2.88106E-05-2.88361E-05 2.69388E-07 8.10066E-20-5.18315E-18
 -1      1392 9.63506E-05-2.88855E-05-2.89123E-05 2.83621E-07 6.30097E-20-4.97858E-18
 -1      1393 9.60098E-05-2.87738E-05-2.88195E-05 4.81742E-07 3.18576E-19-4.57093E-18
 -1      1394 9.66104E-05-2.89594E-05-2.89931E-05 3.54452E-07 2.61786E-20-4.63140E-18
 -1      1395 9.69471E-05-2.90593E-05-2.90935E-05 3.72849E-07 7.59075E-20-4.75753E-18
 -1      1396 9.64612E-05-2.88999E-05-2.89602E-05 6.32118E-07 2.29585E-19-3.66171E-18
 -1      1397 9.72802E-05-2.91544E-05-2.91969E-05 4.61033E-07 3.18243E-19-4.67695E-18
 -1      1398 9.77191E-05-2.92858E-05-2.93273E-05 4.83717E-07 3.49687E-19-4.24438E-18
 -1      1399 9.70415E-05-2.90641E-05-2.91398E-05 8.23530E-07 1.87552E-19-2.47914E-18
 -1      1400 9.81397E-05-2.94066E-05-2.94577E-05 5.88163E-07 7.98461E-20-3.82920E-18
 -1      1401 9.87001E-05-2.95759E-05-2.96238E-05 6.14781E-07 5.02669E-20-3.68493E-18
 -1      1402 9.77795E-05-2.92760E-05-2.93665E-05 1.05547E-06 5.36408E-19-2.53653E-18
 -1      1403 9.92197E-05-2.97262E-05-2.97843E-05 7.31346E-07 2.75227E-19-3.98507E-18
 -1      1404 9.99162E-05-2.99387E-05-2.99901E-05 7.60681E-07-9.21057E-20-3.92069E-18
 -1      1405 9.87008E-05-2.95451E-05-2.96471E-05 1.32181E-06-8.65405E-20-2.66562E-18
 -1      1406 1.00540E-04-3.01209E-05-3.01820E-05 8.80191E-07-4.65914E-19-4.29019E-18
 -1      1407 1.01376E-04-3.03791E-05-3.04280E-05 9.09598E-07-5.09126E-19-4.99231E-18
 -1      1408 9.98230E-05-2.98793E-05-2.99852E-05 1.60685E-06-5.40558E-19-3.37422E-18
 -1      1409 1.02098E-04-3.05929E-05-3.06487E-05 1.01522E-06-3.54372E-20-5.15650E-18
 -1      1410 1.03058E-04-3.08934E-05-3.09295E-05 1.03986E-06 3.92249E-20-5.23117E-18
 -1      1411 1.01147E-04-3.02835E-05-3.03788E-05 1.87984E-06-3.12467E-19-3.91107E-18
 -1      1412 1.03853E-04-3.11335E-05-3.11699E-05 1.10409E-06-5.31301E-20-5.04023E-18
 -1      1413 1.04887E-04-3.14633E-05-3.14703E-05 1.11603E-06 5.93730E-21-4.67198E-18
 -1      1414 1.02645E-04-3.07558E-05-3.08162E-05 2.08827E-06 1.12281E-19-3.56154E-18
 -1      1415 1.05703E-04-3.17174E-05-3.17124E-05 1.09823E-06-2.24364E-19-4.52979E-18
 -1      1416 1.06712E-04-3.20482E-05-3.20024E-05 1.08578E-06-4.78644E-20-4.25167E-18
 -1      1417 1.04247E-04-3.12829E-05-3.12716E-05 2.15121E-06 1.43982E-19-3.09631E-18
 -1      1418 1.07460E-04-3.22932E-05-3.22168E-05 9.32702E-07 1.20393E-19-4.42156E-18
 -1      1419 1.08282E-04-3.25752E-05-3.24481E-05 8.80619E-07-3.13786E-19-4.36469E-18
 -1      1420 1.05819E-04-3.18330E-05-3.17006E-05 1.95664E-06-3.59137E-19-2.65829E-18
 -1      1421 1.08830E-04-3.27742E-05-3.25925E-05 5.34269E-07 1.92468E-19-4.40805E-18
 -1      1422 1.09231E-04-3.29329E-05-3.26978E-05 4.26542E-07 1.27750E-20-4.64320E-18
 -1      1423 1.07149E-04-3.23459E-05-3.20373E-05 1.37059E-06-2.14405E-19-2.39215E-18
 -1      1424 1.09409E-04-3.30333E-05-3.27209E-05-1.54580E-07-4.19966E-19-4.11865E-18
 -1      1425 1.09108E-04-3.29723E-05-3.26219E-05-3.27498E-07-8.81874E-20-4.54824E-18
 -1      1426 1.07942E-04-3.27236E-05-3.21978E-05 2.70530E-07 5.49910E-21-2.08574E-18
 -1      1427 1.08733E-04-3.29090E-05-3.24738E-05-1.12902E-06 1.85599E-19-4.28658E-18
 -1      1428 1.07471E-04-3.25298E-05-3.21025E-05-1.35686E-06 7.00079E-19-3.32212E-18
 -1      1429 1.07844E-04-3.28260E-05-3.20932E-05-1.38355E-06 1.03080E-19-1.91975E-18
 -1      1430 1.06405E-04-3.22402E-05-3.17545E-05-2.25817E-06 3.60585E-19-3.90294E-18
 -1      1431 1.04073E-04-3.14861E-05-3.10897E-05-2.49532E-06 2.21804E-19-3.51376E-18
 -1      1432 1.06516E-04-3.24866E-05-3.16579E-05-3.44057E-06 6.03829E-19-2.50711E-18
 -1      1433 1.02316E-04-3.09437E-05-3.05594E-05-3.24182E-06 2.30846E-19-3.15303E-18
 -1      1434 9.91105E-05-2.98622E-05-2.96659E-05-3.40304E-06-4.13326E-20-3.01652E-18
 -1      1435 1.03792E-04-3.15741E-05-3.08875E-05-5.45715E-06 2.63804E-19-2.67811E-18
 -1      1436 9.68981E-05-2.91246E-05-2.90341E-05-3.65764E-06-1.01178E-19-3.34726E-18
 -1      1437 9.34160E-05-2.79147E-05-2.80799E-05-3.64493E-06-1.31007E-19-3.25732E-18
 -1      1438 9.98718E-05-3.01014E-05-2.98726E-05-6.71374E-06-7.63190E-20-2.89280E-18
 -1      1439 9.12413E-05-2.71545E-05-2.74827E-05-3.15397E-06-3.94102E-19-2.20705E-18
 -1      1440 8.83678E-05-2.61416E-05-2.67021E-05-2.91992E-06-1.02875E-19-2.32370E-18
 -1      1441 9.54765E-05-2.83393E-05-2.88027E-05-6.46836E-06-2.34618E-19-2.34821E-18
 -1      1442 8.68431E-05-2.56034E-05-2.62877E-05-1.72462E-06-1.72457E-19-2.48805E-18
 -1      1443 8.54039E-05-2.51070E-05-2.58914E-05-1.33039E-06-1.74237E-19-2.95319E-18
 -1      1444 9.17429E-05-2.68047E-05-2.79198E-05-4.43089E-06-1.13099E-19-2.55747E-18
 -1      1445 8.49689E-05-2.49795E-05-2.57577E-05 1.61019E-07-1.92667E-19-3.46455E-18
 -1      1446 8.53084E-05-2.51368E-05-2.58317E-05 5.56797E-07-6.49555E-19-3.52395E-18
 -1      1447 8.97747E-05-2.60422E-05-2.74292E-05-1.14216E-06-3.62371E-19-2.49178E-18
 -1      1448 8.59695E-05-2.54233E-05-2.59797E-05 1.76075E-06-5.09272E-19-3.64764E-18
 -1      1449 8.77519E-05-2.61009E-05-2.64396E-05 1.99737E-06-4.24641E-20-4.07984E-18
 -1      1450 9.00454E-05-2.62918E-05-2.74130E-05 2.15861E-06-8.28577E-19-2.38524E-18
 -1      1451 8.90776E-05-2.66158E-05-2.67735E-05 2.49845E-06 1.76341E-19-3.81244E-18
 -1      1452 9.14775E-05-2.74929E-05-2.74096E-05 2.51176E-06-2.78619E-19-3.99344E-18
 -1      1453 9.21046E-05-2.73246E-05-2.77935E-05 4.22102E-06 4.55346E-20-2.10633E-18
 -1      1454 9.28597E-05-2.79894E-05-2.77842E-05 2.27051E-06-3.04270E-19-2.76718E-18
 -1      1455 9.49958E-05-2.87382E-05-2.83646E-05 2.11022E-06 4.87507E-19-2.59295E-18
 -1      1456 9.48581E-05-2.85936E-05-2.83708E-05 4.49477E-06 4.66315E-19-1.00766E-18
 -1      1457 9.59545E-05-2.90436E-05-2.86509E-05 1.40284E-06 1.07001E-18-2.51773E-18
 -1      1458 9.72617E-05-2.94706E-05-2.90193E-05 1.17566E-06 1.36982E-18-1.02806E-18
 -1      1459 9.71822E-05-2.95741E-05-2.89141E-05 3.29796E-06 1.32166E-18-2.07523E-20
 -1      1460 9.76022E-05-2.95355E-05-2.91511E-05 3.82444E-07 1.47248E-18-1.83917E-18
 -1      1461 9.79654E-05-2.96173E-05-2.92682E-05 1.87474E-07 1.16315E-18-4.66848E-19
 -1      1462 9.84041E-05-2.99961E-05-2.92554E-05 1.45185E-06 2.00500E-18-6.42107E-19
 -1      1463 9.77618E-05-2.94884E-05-2.92523E-05-3.85115E-07 3.25740E-19-4.72949E-19
 -1      1464 9.74381E-05-2.93289E-05-2.91818E-05-4.86945E-07 3.49394E-19-3.72800E-19
 -1      1465 9.84298E-05-2.98724E-05-2.93403E-05-2.08821E-07 7.35655E-19-1.42719E-18
 -1      1466 9.69275E-05-2.90990E-05-2.90771E-05-6.75889E-07 1.26934E-18-1.25853E-18
 -1      1467 9.63768E-05-2.88679E-05-2.89368E-05-6.60406E-07 5.74689E-19-3.29119E-20
 -1      1468 9.75985E-05-2.93874E-05-2.92213E-05-1.12711E-06 8.05143E-19-1.96946E-18
 -1      1469 9.58340E-05-2.86383E-05-2.88124E-05-4.52414E-07 5.15400E-20 1.21511E-18
 -1      1470 9.55205E-05-2.85386E-05-2.87022E-05-3.55343E-07 4.71375E-20 1.24902E-18
 -1      1471 9.64428E-05-2.87817E-05-2.90035E-05-1.11296E-06 1.25442E-18-9.64529E-19
 -1      1472 9.51782E-05-2.85360E-05-2.85488E-05 5.78870E-08-1.88224E-18 1.61433E-18
 -1      1473 9.54490E-05-2.84419E-05-2.87198E-05-3.14281E-07-1.01498E-18 7.97270E-20
 -1      1474 9.65836E-05-2.83655E-05-2.97743E-05 2.99579E-06 8.64503E-19 8.28306E-18
 -1      1475 1.02542E-04-2.94003E-05-3.21577E-05 4.46290E-06 7.30831E-19 9.58142E-18
 -1      1476 1.02332E-04-2.67197E-05-3.27074E-05 1.27833E-05 1.45954E-18 6.31611E-18
 -1      1477 9.20369E-05-2.74312E-05-2.77636E-05 1.15206E-06 7.33504E-19 6.44772E-18
 -1      1478 9.39836E-05-2.75863E-05-2.86778E-05 1.47401E-06 7.14380E-19 7.53950E-18
 -1      1479 9.64924E-05-2.80320E-05-2.95354E-05 4.86781E-06 1.41182E-18 5.05468E-18
 -1      1480 9.02039E-05-2.70063E-05-2.70647E-05 3.31896E-07 3.90026E-19 5.11719E-18
 -1      1481 9.08190E-05-2.70238E-05-2.73373E-05 4.94767E-07 4.95455E-19 5.88839E-18
 -1      1482 9.30474E-05-2.75804E-05-2.81003E-05 1.85200E-06 1.10473E-18 3.96848E-18
 -1      1483 8.96860E-05-2.68879E-05-2.68888E-05-5.48733E-08 4.06953E-19 4.08877E-18
 -1      1484 8.97236E-05-2.68256E-05-2.69171E-05 3.42418E-08 3.04553E-19 4.63723E-18
 -1      1485 9.14937E-05-2.73091E-05-2.75164E-05 5.18191E-07 7.47937E-19 3.01340E-18
 -1      1486 8.98169E-05-2.69401E-05-2.69303E-05-2.41975E-07 1.01038E-19 3.43355E-18
 -1      1487 8.95888E-05-2.68327E-05-2.68654E-05-1.91760E-07 2.15136E-19 3.76983E-18
 -1      1488 9.09613E-05-2.72280E-05-2.73200E-05-1.31417E-07 5.89202E-19 2.31323E-18
 -1      1489 9.02679E-05-2.70820E-05-2.70680E-05-3.24848E-07 1.73360E-19 3.11190E-18
 -1      1490 8.99218E-05-2.69550E-05-2.69668E-05-2.97233E-07 6.03350E-20 3.15002E-18
 -1      1491 9.09776E-05-2.72707E-05-2.73087E-05-4.49732E-07 2.70008E-19 1.96497E-18
 -1      1492 9.08597E-05-2.72635E-05-2.72466E-05-3.48991E-07 6.41685E-20 2.78256E-18
 -1      1493 9.04734E-05-2.71335E-05-2.71335E-05-3.35370E-07 1.27332E-19 2.87430E-18
 -1      1494 9.12802E-05-2.73821E-05-2.73898E-05-5.89330E-07 3.07386E-19 1.66776E-18
 -1      1495 9.14897E-05-2.74547E-05-2.74363E-05-3.39410E-07 1.48910E-19 2.72311E-18
 -1      1496 9.11067E-05-2.73316E-05-2.73240E-05-3.34585E-07 8.61972E-20 2.79819E-18
 -1      1497 9.17182E-05-2.75251E-05-2.75149E-05-6.27073E-07 1.72594E-19 1.66399E-18
 -1      1498 9.20989E-05-2.76383E-05-2.76199E-05-3.11234E-07 2.43211E-19 2.30699E-18
 -1      1499 9.17435E-05-2.75274E-05-2.75153E-05-3.11838E-07 1.09979E-19 2.60598E-18
 -1      1500 9.22026E-05-2.76765E-05-2.76563E-05-6.06391E-07 2.55066E-19 1.27615E-18
 -1      1501 9.26554E-05-2.78053E-05-2.77879E-05-2.74085E-07 1.45980E-19 2.16234E-18
 -1      1502 9.23396E-05-2.77089E-05-2.76947E-05-2.77860E-07 1.94571E-19 2.41293E-18
 -1      1503 9.26809E-05-2.78226E-05-2.77978E-05-5.53853E-07 2.11211E-19 1.27392E-18
 -1      1504 9.31441E-05-2.79513E-05-2.79357E-05-2.34213E-07 3.74905E-19 1.73190E-18
 -1      1505 9.28725E-05-2.78698E-05-2.78552E-05-2.39619E-07 2.39697E-19 2.05417E-18
 -1      1506 9.31242E-05-2.79559E-05-2.79300E-05-4.86446E-07 3.62393E-19 1.19948E-18
 -1      1507 9.35616E-05-2.80756E-05-2.80621E-05-1.95699E-07 2.40212E-19 1.36991E-18
 -1      1508 9.33337E-05-2.80082E-05-2.79944E-05-2.01674E-07 2.94440E-19 1.50197E-18
 -1      1509 9.35183E-05-2.80730E-05-2.80483E-05-4.15247E-07 5.78613E-19 7.70775E-19
 -1      1510 9.39114E-05-2.81794E-05-2.81683E-05-1.61214E-07 1.77525E-19 7.54045E-19
 -1      1511 9.37235E-05-2.81245E-05-2.81123E-05-1.67013E-07 8.16117E-20 1.15065E-18
 -1      1512 9.38592E-05-2.81733E-05-2.81511E-05-3.47534E-07 4.03100E-19 8.60962E-19
 -1      1513 9.42025E-05-2.82653E-05-2.82568E-05-1.32543E-07-2.12069E-19 8.95725E-19
 -1      1514 9.40486E-05-2.82209E-05-2.82108E-05-1.37628E-07-9.97816E-20 7.42022E-19
 -1      1515 9.41498E-05-2.82578E-05-2.82393E-05-2.88141E-07-2.39121E-20 3.78288E-19
 -1      1516 9.44469E-05-2.83372E-05-2.83313E-05-1.10975E-07-2.95086E-19 1.34376E-18
 -1      1517 9.43198E-05-2.83007E-05-2.82931E-05-1.14923E-07-5.80249E-20 1.23520E-18
 -1      1518 9.43976E-05-2.83291E-05-2.83150E-05-2.40409E-07-2.71882E-19 8.24074E-19
 -1      1519 9.46596E-05-2.83994E-05-2.83962E-05-9.76019E-08-2.76849E-20 1.52891E-18
 -1      1520 9.45506E-05-2.83680E-05-2.83633E-05-1.00035E-07-7.21329E-20 1.26511E-18
 -1      1521 9.46134E-05-2.83906E-05-2.83813E-05-2.06889E-07-4.92577E-20 9.30846E-19
 -1      1522 9.48579E-05-2.84571E-05-2.84569E-05-9.35560E-08 6.49212E-19 6.59777E-19
 -1      1523 9.47573E-05-2.84278E-05-2.84264E-05-9.40804E-08 5.73845E-19 1.37881E-18
 -1      1524 9.48111E-05-2.84462E-05-2.84424E-05-1.89885E-07 5.74103E-19 4.65243E-19
 -1      1525 9.50619E-05-2.85163E-05-2.85194E-05-1.00215E-07 1.84915E-19-5.39967E-19
 -1      1526 9.49586E-05-2.84855E-05-2.84879E-05-9.83658E-08 4.99639E-19 2.46305E-19
 -1      1527 9.50068E-05-2.85008E-05-2.85032E-05-1.91901E-07 1.07375E-18 1.09968E-19
 -1      1528 9.52950E-05-2.85838E-05-2.85908E-05-1.19370E-07-3.05610E-19-1.92013E-19
 -1      1529 9.51763E-05-2.85476E-05-2.85545E-05-1.14559E-07-2.05590E-19-5.23361E-19
 -1      1530 9.52199E-05-2.85600E-05-2.85697E-05-2.16003E-07-4.67833E-21-1.77204E-19
 -1      1531 9.55850E-05-2.86680E-05-2.86795E-05-1.53379E-07-5.31035E-19 3.01764E-19
 -1      1532 9.54356E-05-2.86215E-05-2.86339E-05-1.44841E-07-2.71467E-19 1.35688E-19
 -1      1533 9.54729E-05-2.86305E-05-2.86487E-05-2.66135E-07-4.79537E-19 2.83630E-19
 -1      1534 9.59651E-05-2.87786E-05-2.87956E-05-2.05285E-07 5.42563E-19 3.41738E-19
 -1      1535 9.57667E-05-2.87159E-05-2.87351E-05-1.92031E-07 5.82811E-20 2.33765E-19
 -1      1536 9.57928E-05-2.87199E-05-2.87485E-05-3.47375E-07-4.45065E-20-3.84563E-19
 -1      1537 9.64752E-05-2.89274E-05-2.89511E-05-2.78915E-07 9.44657E-20-3.92778E-19
 -1      1538 9.62056E-05-2.88416E-05-2.88692E-05-2.59679E-07 2.46359E-19 4.18962E-19
 -1      1539 9.62116E-05-2.88375E-05-2.88788E-05-4.66138E-07 3.13229E-19 1.55574E-19
 -1      1540 9.71635E-05-2.91289E-05-2.91606E-05-3.78883E-07 1.50288E-19-7.13763E-19
 -1      1541 9.67959E-05-2.90111E-05-2.90492E-05-3.52084E-07 1.01365E-19-7.52999E-19
 -1      1542 9.67674E-05-2.89946E-05-2.90514E-05-6.30254E-07 3.74880E-19-5.36946E-19
 -1      1543 9.80879E-05-2.94001E-05-2.94415E-05-5.10444E-07-1.35788E-19-3.34236E-19
 -1      1544 9.75896E-05-2.92400E-05-2.92910E-05-4.74183E-07-4.21694E-19-9.21039E-19
 -1      1545 9.75054E-05-2.92044E-05-2.92800E-05-8.48835E-07-3.35268E-19-1.87942E-18
 -1      1546 9.93160E-05-2.97615E-05-2.98143E-05-6.79002E-07-6.08873E-19 7.59291E-19
 -1      1547 9.86483E-05-2.95465E-05-2.96132E-05-6.31135E-07-1.52592E-19 3.82538E-19
 -1      1548 9.84782E-05-2.94825E-05-2.95806E-05-1.13166E-06-7.00007E-19-1.39727E-18
 -1      1549 1.00924E-04-3.02363E-05-3.03016E-05-8.88933E-07 3.93298E-19 9.37325E-19
 -1      1550 1.00043E-04-2.99521E-05-3.00369E-05-8.27333E-07-5.03753E-20 9.75468E-19
 -1      1551 9.97450E-05-2.98469E-05-2.99708E-05-1.48765E-06-2.91222E-19-6.24064E-19
 -1      1552 1.02991E-04-3.08492E-05-3.09269E-05-1.14113E-06 1.32696E-19-5.36688E-19
 -1      1553 1.01850E-04-3.04806E-05-3.05852E-05-1.06432E-06 6.77659E-19 7.04897E-19
 -1      1554 1.01369E-04-3.03176E-05-3.04690E-05-1.92157E-06 8.10842E-19 6.40329E-20
 -1      1555 1.05588E-04-3.16235E-05-3.17100E-05-1.42821E-06-2.54739E-19-5.66592E-19
 -1      1556 1.04145E-04-3.11570E-05-3.12796E-05-1.33672E-06-3.86318E-19-9.12837E-19
 -1      1557 1.03408E-04-3.09150E-05-3.10915E-05-2.42756E-06-1.90668E-19-3.03675E-20
 -1      1558 1.08750E-04-3.25744E-05-3.26586E-05-1.72595E-06 1.76057E-19-4.67800E-19
 -1      1559 1.06983E-04-3.20026E-05-3.21349E-05-1.62495E-06 2.42347E-20-4.29221E-19
 -1      1560 1.05905E-04-3.16575E-05-3.18470E-05-2.97734E-06-2.00509E-20-4.83586E-19
 -1      1561 1.12431E-04-3.36958E-05-3.37531E-05-1.97941E-06-3.88747E-19-1.14119E-18
 -1      1562 1.10368E-04-3.30279E-05-3.31474E-05-1.88328E-06 1.33133E-19-8.96505E-19
 -1      1563 1.08856E-04-3.25555E-05-3.27276E-05-3.50037E-06 3.40425E-19-6.22106E-19
 -1      1564 1.16425E-04-3.49381E-05-3.49222E-05-2.08391E-06-6.56345E-19 3.84421E-19
 -1      1565 1.14190E-04-3.42161E-05-3.42768E-05-2.02305E-06-1.00666E-18-8.33983E-19
 -1      1566 1.12169E-04-3.36009E-05-3.36939E-05-3.85493E-06-1.29971E-18-1.17420E-18
 -1      1567 1.20260E-04-3.61747E-05-3.60120E-05-1.86797E-06-2.28684E-19 1.59650E-18
 -1      1568 1.18144E-04-3.54972E-05-3.54193E-05-1.89607E-06-3.21968E-19 1.12470E-18
 -1      1569 1.15604E-04-3.47490E-05-3.46557E-05-3.79582E-06-1.00430E-18 2.67312E-19
 -1      1570 1.23094E-04-3.71584E-05-3.67614E-05-1.10182E-06 7.50154E-19 1.40347E-18
 -1      1571 1.21621E-04-3.67067E-05-3.63793E-05-1.29613E-06 5.74295E-19 1.95466E-18
 -1      1572 1.18693E-04-3.58867E-05-3.54544E-05-2.96403E-06 3.28080E-19-4.48663E-21
 -1      1573 1.23696E-04-3.74944E-05-3.68200E-05 4.16981E-07-2.44700E-19 1.05264E-18
 -1      1574 1.23627E-04-3.75374E-05-3.68604E-05-1.93650E-08-2.68139E-20 9.14693E-19
 -1      1575 1.20687E-04-3.67858E-05-3.58656E-05-9.60496E-07 3.17929E-19 4.30382E-19
 -1      1576 1.20735E-04-3.66926E-05-3.58595E-05 2.64306E-06 1.36217E-18-5.65342E-19
 -1      1577 1.22874E-04-3.75218E-05-3.65181E-05 1.96014E-06 9.10613E-19 6.86944E-19
 -1      1578 1.20609E-04-3.70654E-05-3.56516E-05 2.39237E-06 9.91240E-19-7.25934E-19
 -1      1579 1.13534E-04-3.44046E-05-3.37989E-05 4.96632E-06 3.64767E-19-1.93568E-18
 -1      1580 1.18227E-04-3.61454E-05-3.51126E-05 4.21335E-06 6.06489E-19-7.12249E-19
 -1      1581 1.17562E-04-3.62289E-05-3.46805E-05 6.57956E-06 1.16750E-18-5.50068E-19
 -1      1582 1.03208E-04-3.08795E-05-3.10543E-05 6.11508E-06-2.48748E-19-5.07267E-19
 -1      1583 1.09646E-04-3.32097E-05-3.27484E-05 5.68077E-06-8.75447E-19-1.43244E-18
 -1      1584 1.11408E-04-3.39536E-05-3.30880E-05 9.95726E-06-5.53847E-19-4.57345E-19
 -1      1585 9.32663E-05-2.73575E-05-2.85247E-05 4.81625E-06-9.05743E-19 8.70062E-19
 -1      1586 9.92013E-05-2.93796E-05-3.00292E-05 5.09106E-06-3.66209E-19 3.35637E-19
 -1      1587 1.03606E-04-3.06163E-05-3.13279E-05 1.01546E-05-8.88511E-19 6.85170E-19
 -1      1588 8.81983E-05-2.55935E-05-2.72111E-05 1.19284E-06-9.36951E-19 4.80807E-18
 -1      1589 9.09443E-05-2.62928E-05-2.79136E-05 2.14656E-06-1.07136E-18 2.69918E-18
 -1      1590 9.72758E-05-2.76821E-05-3.00124E-05 5.91986E-06-2.03637E-18 3.75945E-18
 -1      1591 9.02590E-05-2.64862E-05-2.75931E-05-2.77271E-06-2.63546E-19 6.46249E-18
 -1      1592 8.86320E-05-2.55482E-05-2.72352E-05-1.69618E-06-2.07258E-19 5.25597E-18
 -1      1593 9.54355E-05-2.68718E-05-2.95979E-05-9.84975E-07-9.46348E-19 5.46522E-18
 -1      1594 9.75202E-05-2.92201E-05-2.92860E-05-4.78502E-06 1.08008E-18 4.53279E-18
 -1      1595 9.28386E-05-2.73341E-05-2.81552E-05-4.20012E-06 4.44626E-20 4.62300E-18
 -1      1596 9.85434E-05-2.85728E-05-3.01190E-05-6.59929E-06 6.05020E-19 3.37029E-18
 -1      1597 1.05510E-04-3.20425E-05-3.13062E-05-4.17061E-06-4.94058E-20 3.25695E-18
 -1      1598 1.00501E-04-3.02938E-05-3.00331E-05-4.24677E-06 3.40640E-19 4.32495E-18
 -1      1599 1.04086E-04-3.13967E-05-3.11754E-05-8.06435E-06 7.01939E-19 2.84870E-18
 -1      1600 1.10512E-04-3.36573E-05-3.27071E-05-1.97174E-06 9.46328E-19 2.65074E-18
 -1      1601 1.07373E-04-3.27463E-05-3.18560E-05-2.45201E-06 6.61599E-19 3.58157E-18
 -1      1602 1.08727E-04-3.35505E-05-3.21710E-05-5.62443E-06 8.48806E-19 2.91133E-18
 -1      1603 1.11251E-04-3.37644E-05-3.30350E-05 3.80408E-07 4.08052E-19 1.32823E-18
 -1      1604 1.10702E-04-3.37870E-05-3.28447E-05-1.62496E-07 7.61880E-19 2.01530E-18
 -1      1605 1.10492E-04-3.41987E-05-3.26293E-05-1.50462E-06 1.38142E-18 2.07839E-18
 -1      1606 1.08465E-04-3.27283E-05-3.23789E-05 2.00776E-06 1.23324E-18-1.69377E-18
 -1      1607 1.10024E-04-3.34098E-05-3.27644E-05 1.61194E-06 1.14258E-18 5.65434E-19
 -1      1608 1.09219E-04-3.35181E-05-3.23888E-05 2.17646E-06 2.00163E-18-6.85633E-19
 -1      1609 1.03814E-04-3.11283E-05-3.11588E-05 2.62715E-06-2.00528E-19-3.22733E-18
 -1      1610 1.06452E-04-3.20843E-05-3.18546E-05 2.45829E-06 4.51780E-19-1.95569E-18
 -1      1611 1.05847E-04-3.20683E-05-3.15969E-05 4.32365E-06 1.43543E-18-2.67954E-19
 -1      1612 9.91359E-05-2.95460E-05-2.98939E-05 2.23578E-06 3.86283E-19-3.16425E-18
 -1      1613 1.01708E-04-3.03908E-05-3.05896E-05 2.32245E-06-2.60373E-19-2.92668E-18
 -1      1614 1.01677E-04-3.03700E-05-3.05768E-05 4.64554E-06 1.54848E-20 6.48113E-20
 -1      1615 9.60539E-05-2.85048E-05-2.89757E-05 1.01558E-06-4.37754E-19-3.22445E-18
 -1      1616 9.75135E-05-2.88982E-05-2.94462E-05 1.32186E-06-1.37494E-19-3.72694E-18
 -1      1617 9.79206E-05-2.88268E-05-2.96559E-05 3.24694E-06 2.40326E-19-6.04285E-19
 -1      1618 9.53225E-05-2.83267E-05-2.87319E-05 1.46823E-07-1.74367E-18-2.03063E-18
 -1      1619 9.46719E-05-2.53419E-05-2.97595E-05 2.08918E-06 5.45092E-19 1.29896E-18
 -1      1620 9.52245E-05-2.70515E-05-2.92258E-05 1.70242E-06-1.47477E-18 1.74134E-18
 -1      1621 9.30445E-05-2.03547E-05-3.11781E-05 3.44247E-06 2.32140E-19-2.00092E-19
 -1      1622 9.40653E-05-2.34386E-05-3.03067E-05 3.20159E-06 8.70697E-19-5.58519E-19
 -1      1623 9.47519E-05-2.44480E-05-3.01992E-05 5.08350E-06 7.32305E-19 5.79053E-19
 -1      1624 9.09328E-05-1.38928E-05-3.30289E-05 4.28677E-06-3.44774E-18-7.92237E-19
 -1      1625 9.22392E-05-1.78229E-05-3.19214E-05 4.15915E-06-1.44782E-18 1.48707E-19
 -1      1626 9.31189E-05-2.00411E-05-3.13752E-05 7.29042E-06-2.34681E-19-1.25995E-18
 -1      1627 8.86102E-05-6.90120E-06-3.50164E-05 4.41580E-06-5.06325E-18-8.85184E-19
 -1      1628 8.99937E-05-1.10083E-05-3.38651E-05 4.44866E-06-4.80564E-18-8.82172E-20
 -1      1629 9.11597E-05-1.46556E-05-3.28066E-05 8.37357E-06-2.60690E-18-1.69567E-18
 -1      1630 8.65314E-05-7.78796E-07-3.67340E-05 3.66383E-06-8.28525E-18-2.20600E-18
 -1      1631 8.77010E-05-4.20222E-06-3.57813E-05 3.88430E-06-4.84879E-18-3.10864E-18
 -1      1632 8.90642E-05-9.06175E-06-3.42497E-05 7.94962E-06-4.12207E-18-3.07385E-18
 -1      1633 8.51223E-05 3.30299E-06-3.78654E-05 2.02896E-06-7.29589E-18 1.11341E-18
 -1      1634 8.58305E-05 1.25125E-06-3.72973E-05 2.42461E-06-7.98495E-18-6.40952E-19
 -1      1635 8.72284E-05-4.30000E-06-3.54447E-05 5.82879E-06-3.85077E-18-2.37945E-18
 -1      1636 8.48206E-05 4.19697E-06-3.81166E-05-1.22057E-07-5.26903E-18 1.61169E-18
 -1      1637 8.48514E-05 4.09014E-06-3.80844E-05 3.39419E-07-7.63354E-18 2.68647E-18
 -1      1638 8.61165E-05-1.46084E-06-3.61449E-05 2.26794E-06-3.33778E-18 2.51796E-18
 -1      1639 8.56981E-05 1.72795E-06-3.74465E-05-2.18550E-06-4.27333E-18 9.92617E-23
 -1      1640 8.50576E-05 3.54892E-06-3.79454E-05-1.79791E-06-5.25073E-18 1.90778E-18
 -1      1641 8.60872E-05-1.33186E-06-3.61886E-05-1.83605E-06-3.43177E-18 1.75896E-18
 -1      1642 8.74661E-05-3.35352E-06-3.60473E-05-3.59926E-06-2.45820E-18 2.52408E-18
 -1      1643 8.63573E-05-1.43464E-07-3.69359E-05-3.38849E-06-4.52954E-18 1.29135E-18
 -1      1644 8.71339E-05-3.89869E-06-3.55786E-05-5.33687E-06-1.56241E-18 1.00209E-18
 -1      1645 8.96186E-05-9.70894E-06-3.42647E-05-4.09907E-06-2.20128E-18-8.32633E-19
 -1      1646 8.83443E-05-5.93177E-06-3.53242E-05-4.08705E-06-1.77692E-18 3.35927E-19
 -1      1647 8.89035E-05-8.39969E-06-3.44689E-05-7.36890E-06-1.35847E-18 2.31770E-18
 -1      1648 9.16342E-05-1.58751E-05-3.24947E-05-3.79049E-06-2.57927E-18 1.04564E-18
 -1      1649 9.04817E-05-1.23561E-05-3.34972E-05-3.92020E-06-1.86165E-18-1.41601E-18
 -1      1650 9.08746E-05-1.36470E-05-3.31187E-05-7.70400E-06-7.91248E-19-1.59623E-18
 -1      1651 9.32742E-05-2.11109E-05-3.09532E-05-2.97484E-06-1.02731E-18 6.61261E-19
 -1      1652 9.23650E-05-1.82400E-05-3.17850E-05-3.17423E-06-2.14448E-18 1.84076E-18
 -1      1653 9.26219E-05-1.86241E-05-3.17662E-05-6.71427E-06-1.01724E-18 1.51159E-18
 -1      1654 9.43890E-05-2.48622E-05-2.98164E-05-2.00246E-06-5.38250E-19 7.43668E-19
 -1      1655 9.37907E-05-2.28962E-05-3.03967E-05-2.19673E-06-8.30463E-19 6.99408E-19
 -1      1656 9.39369E-05-2.26959E-05-3.05939E-05-5.01062E-06-8.42401E-20 5.33637E-19
 -1      1657 9.50220E-05-2.71038E-05-2.91029E-05-1.13870E-06-2.05366E-18-1.54762E-18
 -1      1658 9.46775E-05-2.60200E-05-2.94377E-05-1.26436E-06-7.37183E-19-8.95377E-19
 -1      1659 9.47796E-05-2.55679E-05-2.97134E-05-3.17998E-06-8.79640E-19-2.94635E-19
 -1      1660 9.53568E-05-2.81058E-05-2.88011E-05-6.34630E-07-1.66576E-18-6.62155E-19
 -1      1661 9.52605E-05-2.76973E-05-2.89611E-05-8.31581E-07-1.07650E-18-1.31031E-18
 -1      1662 9.53442E-05-2.72152E-05-2.92204E-05-1.91132E-06-5.43511E-19-5.09596E-19
 -1      1663 9.57265E-05-2.81572E-05-2.89804E-05-1.21092E-06 1.01079E-18-1.09997E-18
 -1      1664 2.17982E-05-7.09036E-05 1.52197E-05-5.55695E-06 1.56917E-17 2.12139E-18
 -1      1665 2.54714E-05-8.21104E-05 1.75126E-05 2.45955E-06 1.59887E-17 2.26793E-18
 -1      1666 2.41098E-05-4.28491E-05 4.10192E-06 6.98409E-06 7.83167E-18-2.12944E-18
 -1      1667 2.80757E-05-6.64618E-05 1.07198E-05 2.63849E-06 1.34382E-17-4.05464E-19
 -1      1668 3.70130E-05-1.21146E-05-1.25561E-05 2.98768E-05-1.53144E-18-5.85130E-18
 -1      1669 3.12404E-05-3.53053E-05-2.98405E-06 1.07479E-05 5.42101E-18-2.14765E-18
 -1      1670 8.05317E-05-2.80556E-06-3.24040E-05 6.30494E-05-4.70103E-18-3.66426E-18
 -1      1671 5.45849E-05-8.35962E-06-2.21019E-05 3.91914E-05-3.34663E-18-4.28937E-18
 -1      1672 1.48013E-04-1.93530E-05-5.14987E-05 7.85101E-05-3.38601E-18-4.60617E-18
 -1      1673 1.06847E-04-7.55475E-06-4.18749E-05 6.58330E-05-4.72051E-18-4.60447E-18
 -1      1674 2.13896E-04-4.34477E-05-6.69915E-05 7.01174E-05-2.17687E-18-6.13252E-18
 -1      1675 1.70703E-04-2.30799E-05-5.97285E-05 7.75925E-05-3.00358E-18-5.26262E-18
 -1      1676 2.60760E-04-6.53560E-05-7.63120E-05 3.28000E-05-8.03411E-19-6.30277E-18
 -1      1677 2.33332E-04-4.99653E-05-7.25481E-05 6.14477E-05-1.38167E-18-5.92669E-18
 -1      1678 2.61880E-04-6.59215E-05-7.69854E-05-2.20730E-05-2.41404E-19-5.01232E-18
 -1      1679 2.66944E-04-6.80876E-05-7.78161E-05 1.56184E-05-7.33531E-19-5.53345E-18
 -1      1680 2.15214E-04-4.38777E-05-6.86592E-05-5.99397E-05 1.83123E-18-4.52993E-18
 -1      1681 2.49307E-04-6.12266E-05-7.37686E-05-3.63098E-05 8.21940E-19-4.57610E-18
 -1      1682 1.47875E-04-2.06781E-05-5.25996E-05-6.50624E-05 2.96038E-18-4.43845E-18
 -1      1683 1.93739E-04-3.97250E-05-6.14515E-05-6.33408E-05 2.41934E-18-4.51214E-18
 -1      1684 8.14482E-05-5.02397E-06-3.35929E-05-5.42283E-05 3.57448E-18-5.19909E-18
 -1      1685 1.20077E-04-1.25413E-05-4.38266E-05-7.20180E-05 4.07338E-18-5.44049E-18
 -1      1686 4.26659E-05-1.65191E-05-1.44095E-05-2.53427E-05-1.41455E-19-2.20652E-18
 -1      1687 6.04946E-05-4.89749E-06-2.40787E-05-4.75326E-05 1.92192E-18-5.04493E-18
 -1      1688 3.01627E-05-4.81036E-05 2.80560E-06-5.14213E-06-2.35136E-18 7.01343E-19
 -1      1689 3.26099E-05-2.48053E-05-5.89378E-06-1.96110E-05-1.53906E-18-9.63076E-19
 -1      1690 2.48720E-05-7.36756E-05 1.43773E-05 3.49370E-06-3.76167E-18 6.72544E-19
 -1      1691 1.90070E-05-5.34766E-05 9.72545E-06 4.99920E-06-2.61818E-18 1.21782E-18
 -1      1692 2.47549E-05-8.22459E-05 1.78532E-05-2.26237E-06-4.90919E-18-7.53859E-20
 -1      1693 2.31992E-05-7.84580E-05 1.71493E-05 7.93532E-06-4.20637E-18 4.11446E-19
 -1      1694 2.06233E-05-6.52477E-05 1.33083E-05-6.17032E-06-3.03746E-18 1.12338E-18
 -1      1695 2.56029E-05-8.05143E-05 1.66646E-05 4.22808E-07-4.01959E-18 2.07311E-19
 -1      1696 2.08834E-05-3.37236E-05 1.55274E-06 5.74458E-06-1.10114E-20 1.63816E-18
 -1      1697 2.46319E-05-5.84023E-05 8.37034E-06-1.38238E-06-2.67069E-18 1.35790E-18
 -1      1698 4.28340E-05-8.40398E-06-1.61291E-05 3.61467E-05-4.99749E-20-2.39456E-18
 -1      1699 3.26463E-05-2.74119E-05-6.49311E-06 1.51421E-05 1.03762E-18-6.95838E-19
 -1      1700 9.26809E-05-7.22138E-06-3.55557E-05 6.43959E-05-1.02999E-18-7.40307E-19
 -1      1701 6.31906E-05-7.81222E-06-2.55849E-05 4.34099E-05-7.59789E-19-1.13587E-18
 -1      1702 1.66832E-04-2.95062E-05-5.52470E-05 6.82685E-05-3.77777E-19-2.13452E-19
 -1      1703 1.20414E-04-1.34327E-05-4.50545E-05 6.12615E-05-1.16509E-18-1.10114E-19
 -1      1704 2.28045E-04-5.13315E-05-6.97396E-05 5.66047E-05-3.78518E-19 1.80503E-18
 -1      1705 1.89469E-04-3.12311E-05-6.37938E-05 7.27757E-05-4.09752E-19 7.00496E-19
 -1      1706 2.54545E-04-6.34003E-05-7.58883E-05 1.01868E-05 1.42302E-19 2.52310E-18
 -1      1707 2.38261E-04-5.42962E-05-7.33292E-05 4.17096E-05 3.48554E-19 2.26962E-18
 -1      1708 2.38538E-04-5.34800E-05-7.39626E-05-3.88764E-05-1.56659E-18 3.33816E-18
 -1      1709 2.51839E-04-6.13030E-05-7.58819E-05-4.41456E-06-5.43372E-19 1.71567E-18
 -1      1710 1.94219E-04-3.25884E-05-6.50341E-05-7.27733E-05-3.57363E-18 6.05459E-18
 -1      1711 2.31288E-04-5.23929E-05-7.08212E-05-5.45809E-05-2.64772E-18 4.24533E-18
 -1      1712 1.27843E-04-1.05311E-05-4.85488E-05-7.21343E-05-6.19520E-18 7.89265E-18
 -1      1713 1.73237E-04-2.79350E-05-5.77675E-05-7.72875E-05-4.43125E-18 6.60093E-18
 -1      1714 6.90569E-05-5.16573E-06-2.85640E-05-4.94653E-05-8.40087E-18 7.53436E-18
 -1      1715 1.02377E-04-6.17091E-06-3.91219E-05-7.16260E-05-7.42424E-18 7.31752E-18
 -1      1716 3.50685E-05-2.85767E-05-7.08210E-06-1.61211E-05-6.20621E-18 5.26346E-18
 -1      1717 4.76425E-05-7.38440E-06-1.81173E-05-4.09442E-05-7.64278E-18 8.71089E-18
 -1      1718 2.71495E-05-6.59798E-05 9.99357E-06 1.40843E-06 5.52265E-18 4.60352E-18
 -1      1719 2.23611E-05-3.68605E-05 2.10716E-06-6.51237E-06-3.80826E-18 6.23480E-18
 -1      1720 2.69750E-05-8.70218E-05 1.82642E-05-2.27385E-06 1.60820E-17 2.26708E-18
 -1      1721 2.23133E-05-7.39056E-05 1.54261E-05 8.02620E-06 9.27162E-18 3.02592E-18
 -1      1722 1.22504E-04-3.44150E-05-3.65121E-05 4.71499E-05-3.03322E-18-3.65241E-18
 -1      1723 7.72503E-05-3.74224E-05-1.83064E-05 4.15267E-05 1.16044E-19-5.41085E-18
 -1      1724 9.55825E-05-2.80113E-05-2.90136E-05 1.00330E-06-2.41775E-18 3.54598E-19
 -1      1725 9.59385E-05-2.72389E-05-2.94877E-05 2.89109E-06-3.73618E-19 2.63794E-18
 -1      1726 2.21785E-05-5.01675E-05 8.31393E-06 1.94897E-05 7.03715E-18-3.29559E-18
 -1      1727 4.49288E-05-4.69054E-05-2.36148E-06 3.12985E-05 4.95091E-18-7.19306E-18
 -1      1728 1.30608E-05-5.57844E-05 1.33802E-05 7.90278E-07 8.97813E-18 3.98317E-18
 -1      1729 1.65412E-04-3.43095E-05-5.30928E-05 4.17992E-05-3.18696E-18-4.45116E-18
 -1      1730 2.00854E-04-3.47728E-05-6.61939E-05 3.21994E-05-2.03754E-18-6.07365E-18
 -1      1731 2.22374E-04-3.78419E-05-7.29825E-05 1.29571E-05-8.45762E-19-5.67385E-18
 -1      1732 2.16914E-04-3.74701E-05-7.13185E-05-1.01545E-05-3.70153E-19-4.26693E-18
 -1      1733 1.87484E-04-3.62907E-05-6.13008E-05-2.32095E-05 1.68634E-18-3.03068E-18
 -1      1734 1.50378E-04-3.60603E-05-4.65621E-05-3.80715E-05 2.07544E-18-1.94902E-18
 -1      1735 1.02519E-04-3.48041E-05-2.90244E-05-4.23441E-05 2.43945E-19-4.41135E-18
 -1      1736 6.52192E-05-4.30838E-05-1.17023E-05-3.46238E-05-2.00493E-18-2.68552E-18
 -1      1737 3.46757E-05-4.76431E-05 2.58341E-06-2.49659E-05-3.40592E-18 7.76729E-19
 -1      1738 1.56404E-05-5.41240E-05 1.18928E-05-7.66499E-06-3.05355E-18-3.34578E-20
 -1      1739 1.35419E-05-5.64293E-05 1.34499E-05 4.74285E-06-3.49835E-18 4.55280E-19
 -1      1740 2.28867E-05-5.04869E-05 7.59244E-06 1.70391E-05-1.55812E-18 2.27725E-18
 -1      1741 4.68132E-05-4.17566E-05-4.78785E-06 3.13042E-05-3.87094E-19 1.13291E-19
 -1      1742 8.54566E-05-3.63429E-05-2.14722E-05 4.19819E-05 6.36122E-19-9.88911E-19
 -1      1743 1.32883E-04-3.71474E-05-3.95013E-05 3.99734E-05-5.31937E-19-4.82809E-20
 -1      1744 1.71611E-04-3.47179E-05-5.59892E-05 3.15127E-05-1.06096E-18 7.46236E-19
 -1      1745 2.02775E-04-3.31587E-05-6.77724E-05 2.22025E-05-5.31725E-19 2.44200E-18
 -1      1746 2.07388E-04-3.03875E-05-7.11002E-05 4.29901E-07-6.35698E-19 2.06491E-18
 -1      1747 2.00875E-04-3.07279E-05-6.81938E-05-2.12982E-05-3.28183E-18 4.01197E-18
 -1      1748 1.77459E-04-3.24733E-05-5.82922E-05-3.80842E-05-4.19805E-18 3.36950E-18
 -1      1749 1.37486E-04-3.33632E-05-4.25817E-05-4.61148E-05-6.47218E-18 5.98344E-18
 -1      1750 9.12593E-05-3.65975E-05-2.36757E-05-4.44798E-05-4.81792E-18 6.21383E-18
 -1      1751 5.01980E-05-4.49457E-05-4.95263E-06-3.29315E-05-3.38813E-19 6.27164E-18
 -1      1752 2.29973E-05-5.47229E-05 8.95540E-06-1.67719E-05 5.95549E-18 8.66028E-18
 -1      1753 1.06056E-04-2.31715E-05-3.56051E-05-1.68534E-05-1.38367E-18 4.14114E-18
 -1      1754 8.91538E-05-1.05880E-05-3.37964E-05-1.33291E-05-1.50186E-18-2.39567E-18
 -1      1755 9.04833E-05-1.16316E-05-3.39360E-05-1.51379E-05-1.79548E-18-1.91832E-18
 -1      1756 9.24907E-05-1.38755E-05-3.38543E-05-1.60021E-05-1.83057E-18-1.26391E-18
 -1      1757 9.42088E-05-1.58221E-05-3.40984E-05-1.76632E-05-2.03882E-18-3.60942E-19
 -1      1758 9.34186E-05-1.63478E-05-3.30449E-05-1.37710E-05-1.87442E-18-1.42434E-18
 -1      1759 8.62109E-05-7.67480E-06-3.37293E-05-7.86579E-06-6.83086E-19-3.10273E-18
 -1      1760 8.66140E-05-7.97261E-06-3.37634E-05-9.25523E-06-8.58342E-19-2.99390E-18
 -1      1761 8.55940E-05-7.03695E-06-3.37265E-05-5.32137E-06-2.75484E-19-3.09688E-18
 -1      1762 8.58287E-05-7.21575E-06-3.37416E-05-6.62613E-06-4.96323E-19-3.14802E-18
 -1      1763 8.75942E-05-9.86814E-06-3.33427E-05-6.93062E-06-6.38574E-19-3.00379E-18
 -1      1764 8.52594E-05-6.67846E-06-3.37299E-05-2.88962E-06 1.00293E-19-3.01073E-18
 -1      1765 8.53802E-05-6.77315E-06-3.37358E-05-4.12955E-06-5.62040E-20-3.05852E-18
 -1      1766 8.69581E-05-9.15621E-06-3.33760E-05-4.53874E-06-1.87925E-19-2.94450E-18
 -1      1767 8.51287E-05-6.53047E-06-3.37333E-05-5.17659E-07 4.99151E-19-2.85432E-18
 -1      1768 8.51643E-05-6.55896E-06-3.37348E-05-1.72759E-06 2.94461E-19-2.96726E-18
 -1      1769 8.66265E-05-8.77771E-06-3.33962E-05-2.21806E-06 2.04274E-19-2.86105E-18
 -1      1770 8.51741E-05-6.56798E-06-3.37349E-05 1.84571E-06 8.50353E-19-2.72897E-18
 -1      1771 8.51324E-05-6.53506E-06-3.37332E-05 6.34745E-07 6.80248E-19-2.81191E-18
 -1      1772 8.65285E-05-8.66434E-06-3.34027E-05 6.54051E-08 6.17366E-19-2.68844E-18
 -1      1773 8.54051E-05-6.79807E-06-3.37359E-05 4.25226E-06 1.14850E-18-2.64793E-18
 -1      1774 8.52771E-05-6.69743E-06-3.37298E-05 3.00916E-06 1.02482E-18-2.71167E-18
 -1      1775 8.66441E-05-8.79737E-06-3.33954E-05 2.35015E-06 9.99278E-19-2.61475E-18
 -1      1776 8.58620E-05-7.25115E-06-3.37413E-05 6.71397E-06 1.44071E-18-2.27943E-18
 -1      1777 8.56239E-05-7.06898E-06-3.37265E-05 5.42652E-06 1.23867E-18-2.52101E-18
 -1      1778 8.69922E-05-9.19416E-06-3.33745E-05 4.65408E-06 1.30047E-18-2.49050E-18
 -1      1779 8.66754E-05-8.04076E-06-3.37621E-05 9.37597E-06 1.86815E-18-1.74505E-18
 -1      1780 8.62544E-05-7.72425E-06-3.37283E-05 7.95501E-06 1.62897E-18-2.00558E-18
 -1      1781 8.76443E-05-9.92656E-06-3.33403E-05 7.02971E-06 1.68123E-18-2.03387E-18
 -1      1782 8.80880E-05-9.38826E-06-3.38176E-05 1.22550E-05 2.19659E-18-1.10514E-18
 -1      1783 8.73478E-05-8.83043E-06-3.37455E-05 1.06620E-05 1.97168E-18-1.51153E-18
 -1      1784 8.87656E-05-1.11612E-05-3.32898E-05 9.50425E-06 2.00869E-18-1.48064E-18
 -1      1785 9.06326E-05-1.18404E-05-3.39279E-05 1.53032E-05 2.41075E-18 1.15196E-19
 -1      1786 8.92518E-05-1.07411E-05-3.37880E-05 1.35136E-05 2.25965E-18-6.44248E-19
 -1      1787 9.06632E-05-1.32235E-05-3.32071E-05 1.19762E-05 2.32872E-18-7.43536E-19
 -1      1788 9.58784E-05-1.70352E-05-3.39938E-05 1.76909E-05 2.20854E-18 2.26698E-18
 -1      1789 9.28582E-05-1.43437E-05-3.38275E-05 1.61941E-05 2.29008E-18 9.34807E-19
 -1      1790 9.39714E-05-1.68876E-05-3.30246E-05 1.38949E-05 2.49259E-18 5.49354E-19
 -1      1791 1.01928E-04-2.50955E-05-3.33602E-05 1.44227E-05 1.80280E-18 4.89331E-18
 -1      1792 9.80793E-05-1.96174E-05-3.36261E-05 1.69645E-05 2.03072E-18 3.17468E-18
 -1      1793 9.73318E-05-2.18551E-05-3.24284E-05 1.32487E-05 2.26262E-18 2.24284E-18
 -1      1794 9.87555E-05-2.61364E-05-3.13434E-05 9.43511E-06 1.88505E-18 4.26432E-18
 -1      1795 1.00158E-04-1.95639E-05-3.42189E-05-1.88696E-05-1.83721E-18 1.30147E-18
 -1      1796 9.53143E-05-2.72867E-05-2.91862E-05 4.06714E-06 1.56468E-18 3.39042E-18
 -1      1797 9.77448E-05-2.73919E-05-3.01953E-05 6.40113E-06 1.61550E-18 3.91900E-18
 -1      1798 9.75793E-05-2.56158E-05-3.08336E-05 8.76016E-06 1.93484E-18 2.73781E-18
 -1      1799 9.98178E-05-2.25427E-05-3.28369E-05-1.44681E-05-1.92708E-18 6.77415E-19
 -1      1800 9.69606E-05-2.69783E-05-2.98777E-05-5.70410E-06-1.48702E-18 5.07477E-19
 -1      1801 9.51533E-05-2.70349E-05-2.91669E-05-3.89650E-06-1.24785E-18 1.03537E-19
 -1      1802 9.43383E-05-2.72400E-05-2.86594E-05-2.42264E-06-1.13939E-18 1.04893E-19
 -1      1803 9.35645E-05-2.73186E-05-2.83545E-05-1.57276E-06-1.07099E-18-1.88081E-19
 -1      1804 9.55102E-05-2.65554E-05-2.95755E-05-4.47150E-06-1.42439E-18-5.35120E-19
 -1      1805 9.30365E-05-2.73656E-05-2.80858E-05-7.43851E-07-9.99290E-19-1.67633E-19
 -1      1806 9.27350E-05-2.74299E-05-2.79634E-05-3.05443E-07-8.17552E-19-4.91610E-19
 -1      1807 9.42978E-05-2.72248E-05-2.87675E-05-1.83290E-06-1.17203E-18-4.95415E-19
 -1      1808 9.24591E-05-2.74580E-05-2.78269E-05 1.49066E-07-6.91224E-19-5.78782E-19
 -1      1809 9.24267E-05-2.75341E-05-2.77966E-05 3.72425E-07-5.93628E-19-6.62046E-19
 -1      1810 9.35946E-05-2.75274E-05-2.83310E-05-3.66166E-07-9.24290E-19-5.95673E-19
 -1      1811 9.23221E-05-2.75652E-05-2.77380E-05 6.10991E-07-5.95681E-19-7.13098E-19
 -1      1812 9.24354E-05-2.76497E-05-2.77567E-05 7.13987E-07-4.63228E-19-8.29923E-19
 -1      1813 9.32721E-05-2.77126E-05-2.81091E-05 4.33774E-07-7.16786E-19-7.59389E-19
 -1      1814 9.24392E-05-2.76872E-05-2.77443E-05 8.23869E-07-3.98110E-19-1.01573E-18
 -1      1815 9.26248E-05-2.77733E-05-2.77884E-05 8.56550E-07-2.34448E-19-1.17999E-18
 -1      1816 9.32058E-05-2.78547E-05-2.80158E-05 8.42581E-07-5.28714E-19-8.14249E-19
 -1      1817 9.26917E-05-2.78142E-05-2.78027E-05 8.88797E-07-2.39890E-19-1.27281E-18
 -1      1818 9.29053E-05-2.78961E-05-2.78582E-05 8.80359E-07-3.22633E-19-1.12434E-18
 -1      1819 9.32974E-05-2.79772E-05-2.79994E-05 1.01551E-06-3.30089E-19-9.54822E-19
 -1      1820 9.30047E-05-2.79369E-05-2.78868E-05 8.66792E-07-5.15064E-19-1.01977E-18
 -1      1821 9.32200E-05-2.80111E-05-2.79451E-05 8.35494E-07-4.32651E-19-9.21425E-19
 -1      1822 9.34761E-05-2.80851E-05-2.80275E-05 1.04644E-06-3.21573E-19-1.23309E-18
 -1      1823 9.33320E-05-2.80494E-05-2.79802E-05 7.96710E-07-5.21683E-19-8.37603E-19
 -1      1824 9.35342E-05-2.81142E-05-2.80365E-05 7.54413E-07-4.38708E-19-1.07046E-18
 -1      1825 9.36945E-05-2.81789E-05-2.80794E-05 9.95040E-07-5.66607E-19-1.11642E-18
 -1      1826 9.36467E-05-2.81485E-05-2.80732E-05 7.04036E-07-2.28001E-19-1.16834E-18
 -1      1827 9.38283E-05-2.82034E-05-2.81248E-05 6.58574E-07 1.75827E-19-1.06848E-18
 -1      1828 9.39225E-05-2.82586E-05-2.81420E-05 9.00362E-07-3.85329E-19-6.21929E-19
 -1      1829 9.39346E-05-2.82331E-05-2.81605E-05 6.05719E-07 1.05152E-19-1.04899E-18
 -1      1830 9.40933E-05-2.82787E-05-2.82063E-05 5.62303E-07-3.15210E-20-1.16696E-18
 -1      1831 9.41425E-05-2.83246E-05-2.82075E-05 7.88447E-07 4.81479E-20-5.27589E-19
 -1      1832 9.41904E-05-2.83039E-05-2.82397E-05 5.13117E-07-5.95409E-20-1.19094E-18
 -1      1833 9.43271E-05-2.83411E-05-2.82797E-05 4.75259E-07-1.39945E-19-1.06999E-18
 -1      1834 9.43457E-05-2.83780E-05-2.82714E-05 6.76820E-07 6.14767E-20-6.64608E-19
 -1      1835 9.44149E-05-2.83623E-05-2.83105E-05 4.33980E-07-2.66946E-19-1.19325E-18
 -1      1836 9.45328E-05-2.83927E-05-2.83456E-05 4.04135E-07-3.19948E-19-1.15073E-18
 -1      1837 9.45292E-05-2.84205E-05-2.83319E-05 5.77436E-07-2.08875E-19-8.27039E-19
 -1      1838 9.46130E-05-2.84107E-05-2.83743E-05 3.73843E-07-5.72659E-19-1.35886E-18
 -1      1839 9.47174E-05-2.84360E-05-2.84058E-05 3.53886E-07-4.35439E-19-1.30641E-18
 -1      1840 9.46951E-05-2.84540E-05-2.83887E-05 4.98734E-07-4.49341E-19-1.47033E-18
 -1      1841 9.47931E-05-2.84517E-05-2.84333E-05 3.37054E-07-4.78045E-19-1.44994E-18
 -1      1842 9.48902E-05-2.84739E-05-2.84631E-05 3.28625E-07-3.20740E-19-1.63105E-18
 -1      1843 9.48482E-05-2.84807E-05-2.84432E-05 4.47113E-07-6.24997E-19-1.36852E-18
 -1      1844 9.49658E-05-2.84887E-05-2.84909E-05 3.27523E-07-4.22917E-19-1.98630E-18
 -1      1845 9.50632E-05-2.85100E-05-2.85211E-05 3.32280E-07-6.09920E-19-2.51334E-18
 -1      1846 9.49963E-05-2.85030E-05-2.84975E-05 4.28014E-07-6.82201E-19-1.34452E-18
 -1      1847 9.51441E-05-2.85254E-05-2.85511E-05 3.49249E-07-5.16460E-19-2.50885E-18
 -1      1848 9.52507E-05-2.85483E-05-2.85842E-05 3.69030E-07-6.19919E-19-2.35651E-18
 -1      1849 9.51490E-05-2.85236E-05-2.85545E-05 4.46685E-07-6.69577E-19-1.53497E-18
 -1      1850 9.53432E-05-2.85659E-05-2.86184E-05 4.06638E-07-9.22681E-19-2.17897E-18
 -1      1851 9.54689E-05-2.85933E-05-2.86574E-05 4.43527E-07-4.48029E-19-2.60193E-18
 -1      1852 9.53179E-05-2.85456E-05-2.86180E-05 5.08673E-07-7.51243E-19-1.27956E-18
 -1      1853 9.55803E-05-2.86152E-05-2.86983E-05 5.04583E-07-1.74910E-19-2.96246E-18
 -1      1854 9.57367E-05-2.86505E-05-2.87465E-05 5.60862E-07-1.98883E-20-3.41814E-18
 -1      1855 9.55168E-05-2.85726E-05-2.86923E-05 6.20011E-07-6.11043E-19-1.87396E-18
 -1      1856 9.58752E-05-2.86790E-05-2.87967E-05 6.48265E-07 5.24952E-19-3.47321E-18
 -1      1857 9.60748E-05-2.87261E-05-2.88577E-05 7.26207E-07 4.51229E-19-3.26859E-18
 -1      1858 9.57612E-05-2.86091E-05-2.87820E-05 7.87066E-07 7.38180E-20-2.12502E-18
 -1      1859 9.62495E-05-2.87642E-05-2.89201E-05 8.42544E-07 4.64117E-19-2.73058E-18
 -1      1860 9.65063E-05-2.88277E-05-2.89977E-05 9.43978E-07 5.23500E-19-2.18712E-18
 -1      1861 9.60683E-05-2.86607E-05-2.88923E-05 1.01593E-06 7.87388E-19-2.05342E-18
 -1      1862 9.67269E-05-2.88788E-05-2.90750E-05 1.09081E-06 3.13779E-19-2.13356E-18
 -1      1863 9.70551E-05-2.89641E-05-2.91731E-05 1.21636E-06 5.50829E-19-1.96141E-18
 -1      1864 9.64574E-05-2.87343E-05-2.90282E-05 1.31118E-06 7.76680E-19-1.22724E-18
 -1      1865 9.73316E-05-2.90326E-05-2.92679E-05 1.39300E-06 4.36015E-19-2.01793E-18
 -1      1866 9.77449E-05-2.91455E-05-2.93900E-05 1.54088E-06 1.50822E-19-1.98675E-18
 -1      1867 9.69485E-05-2.88393E-05-2.91944E-05 1.67374E-06 5.46002E-19-1.45444E-18
 -1      1868 9.80868E-05-2.92366E-05-2.95038E-05 1.74256E-06-1.71309E-20-1.88817E-18
 -1      1869 9.85961E-05-2.93836E-05-2.96524E-05 1.90669E-06-1.48905E-19-1.80887E-18
 -1      1870 9.75621E-05-2.89875E-05-2.93945E-05 2.09753E-06 7.13133E-20-1.56967E-18
 -1      1871 9.90116E-05-2.95038E-05-2.97857E-05 2.12192E-06-6.49130E-19-1.83599E-18
 -1      1872 9.96217E-05-2.96913E-05-2.99611E-05 2.28930E-06-5.70621E-19-2.08190E-18
 -1      1873 9.83169E-05-2.91946E-05-2.96297E-05 2.56455E-06-2.75192E-19-1.11003E-18
 -1      1874 1.00116E-04-2.98481E-05-3.01117E-05 2.49618E-06-5.00534E-19-2.41131E-18
 -1      1875 1.00821E-04-3.00816E-05-3.03107E-05 2.64347E-06-1.65056E-19-2.48419E-18
 -1      1876 9.92282E-05-2.94806E-05-2.98979E-05 3.03797E-06-7.02828E-19-1.18208E-18
 -1      1877 1.01393E-04-3.02836E-05-3.04735E-05 2.80532E-06 3.75002E-19-2.40033E-18
 -1      1878 1.02170E-04-3.05654E-05-3.06872E-05 2.89494E-06 6.45831E-19-1.82672E-18
 -1      1879 1.00303E-04-2.98700E-05-3.01915E-05 3.45343E-06 2.06709E-19-1.24660E-18
 -1      1880 1.02812E-04-3.08210E-05-3.08526E-05 2.95587E-06 3.29303E-19-2.05765E-18
 -1      1881 1.03611E-04-3.11469E-05-3.10649E-05 2.93303E-06-8.35734E-20-2.26412E-18
 -1      1882 1.01537E-04-3.03903E-05-3.04963E-05 3.70945E-06 5.12952E-19-1.20545E-18
 -1      1883 1.04302E-04-3.14606E-05-3.12186E-05 2.81579E-06-3.80757E-19-2.10228E-18
 -1      1884 1.05038E-04-3.18133E-05-3.14037E-05 2.60940E-06-4.72527E-19-2.25191E-18
 -1      1885 1.02901E-04-3.10655E-05-3.07901E-05 3.66019E-06 1.07069E-19-1.43376E-18
 -1      1886 1.05734E-04-3.21785E-05-3.15270E-05 2.22022E-06-2.07222E-19-2.06376E-18
 -1      1887 1.06282E-04-3.25180E-05-3.16506E-05 1.75330E-06 2.37891E-19-1.39672E-18
 -1      1888 1.04335E-04-3.19001E-05-3.10437E-05 3.11796E-06-3.02258E-19-1.21925E-18
 -1      1889 1.06909E-04-3.29027E-05-3.17234E-05 1.00179E-06-2.08549E-19-1.48064E-18
 -1      1890 1.07106E-04-3.31546E-05-3.17457E-05 2.19105E-07 1.10978E-19-1.18079E-18
 -1      1891 1.05720E-04-3.28489E-05-3.12250E-05 1.87888E-06 2.21387E-19-9.08981E-19
 -1      1892 1.07545E-04-3.34821E-05-3.17516E-05-9.37017E-07 4.38571E-20-9.09718E-19
 -1      1893 1.07212E-04-3.35292E-05-3.16378E-05-2.01866E-06 4.19209E-19-1.08010E-18
 -1      1894 1.06854E-04-3.37698E-05-3.13076E-05-2.08944E-07 2.12843E-19-8.15144E-19
 -1      1895 1.07293E-04-3.36634E-05-3.15716E-05-3.49798E-06 8.83892E-20-1.04463E-18
 -1      1896 1.06290E-04-3.33604E-05-3.13068E-05-4.72286E-06 1.39992E-19-1.25309E-18
 -1      1897 1.07430E-04-3.43755E-05-3.12828E-05-3.11770E-06 2.62316E-20-1.75840E-19
 -1      1898 1.05829E-04-3.31270E-05-3.11811E-05-6.23368E-06 2.61770E-19-1.91486E-18
 -1      1899 1.04149E-04-3.23656E-05-3.07868E-05-7.26581E-06-5.98879E-20-1.39984E-18
 -1      1900 1.07062E-04-3.42417E-05-3.11697E-05-6.45880E-06-1.58173E-19 2.59164E-19
 -1      1901 1.03053E-04-3.16487E-05-3.06292E-05-8.28821E-06-2.73287E-19-1.62144E-18
 -1      1902 1.00917E-04-3.04735E-05-3.01700E-05-8.67056E-06-3.17593E-19-1.51357E-18
 -1      1903 1.05436E-04-3.29775E-05-3.10127E-05-9.34761E-06-1.30240E-19-7.88831E-19
 -1      1904 9.93545E-05-2.93710E-05-3.00130E-05-8.61469E-06 2.68236E-19-1.46478E-18
 -1      1905 9.72427E-05-2.80813E-05-2.95845E-05-7.98351E-06 2.63924E-19-1.30879E-18
 -1      1906 1.02612E-04-3.05608E-05-3.08573E-05-1.05308E-05 2.34076E-20-5.08398E-19
 -1      1907 9.57362E-05-2.70074E-05-2.94501E-05-6.56545E-06 3.98655E-19-1.56657E-18
 -1      1908 9.42515E-05-2.60951E-05-2.91468E-05-4.96073E-06 1.76692E-19-1.16428E-18
 -1      1909 9.93269E-05-2.76891E-05-3.07212E-05-8.95717E-06 2.70991E-19-7.34733E-19
 -1      1910 9.34443E-05-2.55845E-05-2.90405E-05-2.55837E-06-1.07097E-19-3.77327E-20
 -1      1911 9.30197E-05-2.54508E-05-2.89203E-05-5.36712E-07-2.16251E-19-8.59738E-20
 -1      1912 9.68557E-05-2.56266E-05-3.05839E-05-4.67626E-06 5.24724E-19-6.46217E-19
 -1      1913 9.32321E-05-2.57758E-05-2.88410E-05 1.87911E-06-1.04282E-18-5.67724E-19
 -1      1914 9.38759E-05-2.64285E-05-2.89049E-05 3.49921E-06-5.79635E-19-1.60248E-19
 -1      1915 9.62583E-05-2.54320E-05-3.04112E-05 7.78987E-07-9.14491E-19 4.93856E-19
 -1      1916 9.48106E-05-2.73331E-05-2.88558E-05 4.94496E-06-7.94226E-20-6.67277E-19
 -1      1917 9.60959E-05-2.83730E-05-2.90480E-05 5.59436E-06 3.42689E-19-1.85686E-19
 -1      1918 9.75619E-05-2.71308E-05-3.02060E-05 5.11272E-06-5.25478E-19 2.41967E-19
 -1      1919 9.71073E-05-2.93121E-05-2.90272E-05 5.68056E-06 9.81858E-19-6.94554E-19
 -1      1920 9.84368E-05-3.02350E-05-2.92577E-05 5.32287E-06 1.18868E-18 6.01460E-20
 -1      1921 9.97220E-05-2.96599E-05-3.00061E-05 6.75619E-06 8.06628E-19-7.65139E-19
 -1      1922 9.89918E-05-3.07738E-05-2.92513E-05 4.35029E-06 9.63169E-19 5.91775E-19
 -1      1923 9.98973E-05-3.12651E-05-2.94327E-05 3.37915E-06 2.43518E-18 1.75346E-18
 -1      1924 1.01449E-04-3.17157E-05-2.98462E-05 5.66393E-06 1.79390E-18 3.13338E-19
 -1      1925 9.98254E-05-3.12861E-05-2.94177E-05 1.99399E-06 1.50748E-18 7.24188E-19
 -1      1926 1.00122E-04-3.12997E-05-2.94991E-05 9.24731E-07 7.31985E-19-2.45647E-19
 -1      1927 1.01988E-04-3.25409E-05-2.97270E-05 2.96722E-06 1.26533E-18 7.87292E-19
 -1      1928 9.95358E-05-3.09183E-05-2.94591E-05-2.73948E-07 4.95610E-19-1.47262E-18
 -1      1929 9.92987E-05-3.05841E-05-2.94390E-05-1.03797E-06 7.25967E-19-1.38282E-18
 -1      1930 1.01294E-04-3.21246E-05-2.96224E-05 7.19649E-08 1.98573E-19-1.13419E-18
 -1      1931 9.84292E-05-2.99959E-05-2.93722E-05-1.69066E-06 6.92456E-19-1.34025E-18
 -1      1932 9.78794E-05-2.94972E-05-2.92867E-05-1.94894E-06 7.46300E-19-1.26211E-18
 -1      1933 9.97521E-05-3.08884E-05-2.95070E-05-1.96879E-06-9.51754E-20-8.78156E-19
 -1      1934 9.70304E-05-2.89637E-05-2.92007E-05-1.90810E-06 1.76164E-18-1.54908E-18
 -1      1935 9.64690E-05-2.85320E-05-2.90877E-05-1.69561E-06 1.72148E-18-1.04687E-18
 -1      1936 9.63599E-05-2.82512E-05-2.91849E-05-2.12503E-06 1.01147E-18-1.44615E-18
 -1      1937 9.79233E-05-2.93539E-05-2.93705E-05-2.63563E-06 8.54639E-19-6.99204E-19
 -1      1938 9.32143E-05-2.73635E-05-2.81939E-05 1.60585E-06 1.19440E-18 2.69462E-18
 -1      1939 9.44091E-05-2.74689E-05-2.86305E-05 2.67671E-06 1.34421E-18 3.15574E-18
 -1      1940 9.52326E-05-2.70480E-05-2.92274E-05 4.05452E-06 1.60620E-18 2.22623E-18
 -1      1941 9.21615E-05-2.73498E-05-2.77519E-05 3.49540E-07 9.23557E-19 1.91376E-18
 -1      1942 9.26562E-05-2.73822E-05-2.79244E-05 8.97431E-07 9.66412E-19 2.31038E-18
 -1      1943 9.36276E-05-2.73690E-05-2.84034E-05 1.58631E-06 1.25723E-18 1.68422E-18
 -1      1944 9.17849E-05-2.73872E-05-2.75834E-05-3.03020E-07 4.24514E-19 1.41994E-18
 -1      1945 9.19006E-05-2.73606E-05-2.76305E-05-1.09169E-08 6.81474E-19 1.72973E-18
 -1      1946 9.27956E-05-2.74840E-05-2.80007E-05 2.74284E-07 9.02079E-19 1.13806E-18
 -1      1947 9.18068E-05-2.74773E-05-2.75597E-05-6.27573E-07 3.61809E-19 1.17250E-18
 -1      1948 9.17199E-05-2.74156E-05-2.75436E-05-4.75327E-07 3.29024E-19 1.37633E-18
 -1      1949 9.24804E-05-2.75767E-05-2.78259E-05-4.18004E-07 4.25335E-19 6.73469E-19
 -1      1950 9.20484E-05-2.75985E-05-2.76143E-05-7.63929E-07 2.03317E-19 1.16759E-18
 -1      1951 9.18590E-05-2.75202E-05-2.75662E-05-6.93366E-07 3.02944E-19 1.19782E-18
 -1      1952 9.24818E-05-2.76813E-05-2.77798E-05-7.61400E-07 3.74506E-19 5.60901E-19
 -1      1953 9.23978E-05-2.77317E-05-2.77089E-05-7.89692E-07 3.23926E-19 9.42080E-19
 -1      1954 9.21645E-05-2.76489E-05-2.76462E-05-7.68184E-07 2.70495E-19 1.15500E-18
 -1      1955 9.26638E-05-2.77959E-05-2.78065E-05-9.00545E-07 3.14272E-19 5.01679E-19
 -1      1956 9.27857E-05-2.78636E-05-2.78200E-05-7.51688E-07 3.37619E-19 5.73447E-19
 -1      1957 9.25432E-05-2.77837E-05-2.77531E-05-7.59299E-07 3.38278E-19 6.69888E-19
 -1      1958 9.29373E-05-2.79118E-05-2.78722E-05-9.18969E-07 5.09586E-19 2.55279E-19
 -1      1959 9.31701E-05-2.79860E-05-2.79332E-05-6.79666E-07 1.34663E-19 6.29867E-19
 -1      1960 9.29385E-05-2.79132E-05-2.78683E-05-7.03547E-07 2.36820E-19 6.63456E-19
 -1      1961 9.32459E-05-2.80217E-05-2.79560E-05-8.68202E-07 3.23218E-19 1.32810E-19
 -1      1962 9.35275E-05-2.80949E-05-2.80405E-05-5.93052E-07 5.00779E-19 6.29480E-19
 -1      1963 9.33174E-05-2.80310E-05-2.79810E-05-6.24684E-07 5.13163E-19 7.22351E-19
 -1      1964 9.35549E-05-2.81212E-05-2.80448E-05-7.81394E-07 5.43148E-19 2.00684E-19
 -1      1965 9.38469E-05-2.81888E-05-2.81377E-05-5.04687E-07 6.06481E-19 7.30754E-19
 -1      1966 9.36627E-05-2.81343E-05-2.80850E-05-5.38338E-07 4.50431E-19 5.10539E-19
 -1      1967 9.38447E-05-2.82079E-05-2.81312E-05-6.80367E-07 5.45714E-19 1.99071E-19
 -1      1968 9.41254E-05-2.82680E-05-2.82235E-05-4.23119E-07 3.82845E-19 4.65947E-19
 -1      1969 9.39673E-05-2.82224E-05-2.81778E-05-4.54888E-07 5.08301E-19 6.44283E-19
 -1      1970 9.41062E-05-2.82817E-05-2.82112E-05-5.79649E-07 5.16362E-19 4.21993E-19
 -1      1971 9.43661E-05-2.83341E-05-2.82985E-05-3.54164E-07-3.53695E-19 6.35648E-19
 -1      1972 9.42315E-05-2.82963E-05-2.82592E-05-3.81319E-07-1.36594E-19 4.29665E-19
 -1      1973 9.43373E-05-2.83433E-05-2.82836E-05-4.89044E-07 1.51788E-21 5.54678E-19
 -1      1974 9.45761E-05-2.83898E-05-2.83647E-05-3.02026E-07-4.86311E-19 8.71452E-19
 -1      1975 9.44603E-05-2.83582E-05-2.83305E-05-3.22523E-07-4.54418E-19 7.27800E-19
 -1      1976 9.45411E-05-2.83945E-05-2.83489E-05-4.15396E-07-4.00717E-19 5.97531E-19
 -1      1977 9.47657E-05-2.84382E-05-2.84251E-05-2.70149E-07 3.22908E-19 3.84569E-19
 -1      1978 9.46625E-05-2.84108E-05-2.83942E-05-2.82260E-07-1.16001E-20 6.09029E-19
 -1      1979 9.47243E-05-2.84377E-05-2.84089E-05-3.63884E-07-3.58779E-20 7.31255E-20
 -1      1980 9.49478E-05-2.84832E-05-2.84837E-05-2.61887E-07 1.18525E-18-8.12568E-20
 -1      1981 9.48498E-05-2.84577E-05-2.84539E-05-2.63898E-07 7.75533E-19 2.41151E-19
 -1      1982 9.48963E-05-2.84759E-05-2.84664E-05-3.39005E-07 9.44129E-19 1.20329E-21
 -1      1983 9.51382E-05-2.85290E-05-2.85453E-05-2.81045E-07 7.59483E-19 7.19647E-20
 -1      1984 9.50362E-05-2.85028E-05-2.85139E-05-2.71007E-07 1.32485E-18 5.25514E-20
 -1      1985 9.50695E-05-2.85125E-05-2.85251E-05-3.45357E-07 1.49969E-18-4.88011E-19
 -1      1986 9.53552E-05-2.85808E-05-2.86155E-05-3.32330E-07-4.73074E-19-2.59949E-19
 -1      1987 9.52388E-05-2.85509E-05-2.85795E-05-3.07845E-07 4.23082E-21-3.65186E-19
 -1      1988 9.52584E-05-2.85512E-05-2.85898E-05-3.88266E-07 3.84669E-19-4.26119E-19
 -1      1989 9.56207E-05-2.86446E-05-2.87012E-05-4.21718E-07-3.09828E-19-7.80802E-19
 -1      1990 9.54774E-05-2.86073E-05-2.86569E-05-3.79749E-07-3.09600E-19-4.08835E-19
 -1      1991 9.54806E-05-2.85966E-05-2.86660E-05-4.74297E-07-1.07506E-19-7.89575E-19
 -1      1992 9.59608E-05-2.87275E-05-2.88105E-05-5.56742E-07 3.16271E-19-7.59975E-19
 -1      1993 9.57758E-05-2.86786E-05-2.87534E-05-4.93459E-07-6.48592E-21-8.02614E-19
 -1      1994 9.57566E-05-2.86539E-05-2.87603E-05-6.11655E-07 1.90646E-19-9.79406E-19
 -1      1995 9.64062E-05-2.88380E-05-2.89528E-05-7.46655E-07 4.73726E-19-7.62825E-19
 -1      1996 9.61618E-05-2.87723E-05-2.88777E-05-6.57323E-07 2.65414E-19-8.29184E-19
 -1      1997 9.61106E-05-2.87294E-05-2.88803E-05-8.10451E-07 3.35343E-19-9.82954E-19
 -1      1998 9.69933E-05-2.89863E-05-2.91392E-05-1.00237E-06 2.18487E-19-1.75805E-18
 -1      1999 9.66685E-05-2.88976E-05-2.90400E-05-8.81329E-07 6.69104E-19-1.17809E-18
 -1      2000 9.65712E-05-2.88306E-05-2.90352E-05-1.08274E-06 7.22877E-19-1.39573E-18
 -1      2001 9.77643E-05-2.91848E-05-2.93828E-05-1.33595E-06-8.97597E-19-1.98508E-18
 -1      2002 9.73344E-05-2.90655E-05-2.92522E-05-1.17681E-06-5.33890E-19-2.13550E-18
 -1      2003 9.71713E-05-2.89666E-05-2.92351E-05-1.44219E-06-1.00442E-19-1.97028E-18
 -1      2004 9.87673E-05-2.94482E-05-2.96977E-05-1.75930E-06-8.42057E-19-1.53642E-18
 -1      2005 9.82041E-05-2.92893E-05-2.95277E-05-1.55548E-06-1.05109E-18-2.05061E-18
 -1      2006 9.79484E-05-2.91486E-05-2.94913E-05-1.90293E-06-9.59766E-19-1.53649E-18
 -1      2007 1.00055E-04-2.97941E-05-3.00991E-05-2.28114E-06-2.77486E-19-9.63275E-19
 -1      2008 9.93272E-05-2.95851E-05-2.98810E-05-2.02727E-06-6.38534E-19-9.94482E-19
 -1      2009 9.89440E-05-2.93905E-05-2.98157E-05-2.47706E-06-9.31366E-19-1.59414E-18
 -1      2010 1.01678E-04-3.02433E-05-3.06010E-05-2.90121E-06 5.08167E-19 3.72942E-19
 -1      2011 1.00756E-04-2.99723E-05-3.03265E-05-2.59590E-06 4.17043E-19 6.23980E-20
 -1      2012 1.00202E-04-2.97104E-05-3.02193E-05-3.16957E-06-1.78888E-19-6.59798E-19
 -1      2013 1.03683E-04-3.08201E-05-3.12130E-05-3.59931E-06 2.27706E-20-4.98667E-19
 -1      2014 1.02541E-04-3.04743E-05-3.08763E-05-3.25053E-06 3.57984E-19 3.35835E-22
 -1      2015 1.01764E-04-3.01322E-05-3.07100E-05-3.96879E-06 5.41158E-19 1.86016E-19
 -1      2016 1.06093E-04-3.15521E-05-3.19345E-05-4.31664E-06 4.30978E-20-2.74730E-19
 -1      2017 1.04722E-04-3.11193E-05-3.15356E-05-3.95119E-06-2.79167E-19-9.45352E-20
 -1      2018 1.03667E-04-3.06888E-05-3.12890E-05-4.82989E-06-8.98848E-20-3.71164E-19
 -1      2019 1.08883E-04-3.24679E-05-3.27451E-05-4.92649E-06 8.54875E-20-3.24026E-19
 -1      2020 1.07307E-04-3.19401E-05-3.22954E-05-4.60516E-06 4.12753E-19-9.73492E-20
 -1      2021 1.05928E-04-3.14256E-05-3.19445E-05-5.64819E-06 4.56365E-19 1.45805E-19
 -1      2022 1.11948E-04-3.35892E-05-3.35919E-05-5.19560E-06-1.69927E-18-1.07655E-18
 -1      2023 1.10253E-04-3.29706E-05-3.31226E-05-5.03375E-06-1.31972E-18-1.08545E-18
 -1      2024 1.08535E-04-3.24022E-05-3.26446E-05-6.22138E-06-9.29599E-19-3.37056E-19
 -1      2025 1.15052E-04-3.49078E-05-3.43763E-05-4.75075E-06-4.98161E-20-1.52329E-18
 -1      2026 1.13417E-04-3.42310E-05-3.39473E-05-4.93695E-06-8.68957E-19-1.33938E-18
 -1      2027 1.11413E-04-3.36816E-05-3.33297E-05-6.20799E-06-8.32428E-19-1.59434E-18
 -1      2028 1.17765E-04-3.63288E-05-3.49505E-05-3.09624E-06 1.12642E-19 1.79042E-19
 -1      2029 1.16495E-04-3.56858E-05-3.46541E-05-3.88534E-06-2.48968E-19-1.07793E-18
 -1      2030 1.14388E-04-3.52860E-05-3.39117E-05-5.11241E-06-1.79644E-19-2.04781E-18
 -1      2031 1.19427E-04-3.75602E-05-3.51426E-05 2.20279E-07 2.12969E-19-1.21384E-19
 -1      2032 1.18952E-04-3.71488E-05-3.50892E-05-1.40715E-06 5.79556E-19 8.58041E-19
 -1      2033 1.17103E-04-3.70835E-05-3.42895E-05-2.36825E-06-1.06210E-19-1.15203E-19
 -1      2034 1.19170E-04-3.79921E-05-3.48313E-05 5.15471E-06 1.61711E-18 2.88468E-19
 -1      2035 1.19961E-04-3.81360E-05-3.51052E-05 2.70731E-06 8.45220E-19 4.21200E-21
 -1      2036 1.18905E-04-3.85722E-05-3.43944E-05 2.34868E-06 1.14506E-18 5.36230E-19
 -1      2037 1.16208E-04-3.67635E-05-3.40463E-05 1.04986E-05 1.68388E-19 8.66568E-19
 -1      2038 1.18546E-04-3.78159E-05-3.46369E-05 7.84793E-06 8.52023E-19 5.35841E-19
 -1      2039 1.18852E-04-3.87900E-05-3.42487E-05 8.47570E-06 9.11606E-19 1.82840E-18
 -1      2040 1.10485E-04-3.33560E-05-3.30387E-05 1.35329E-05-1.05623E-18 4.09064E-19
 -1      2041 1.14098E-04-3.53554E-05-3.37899E-05 1.20468E-05-5.57162E-19 6.46074E-19
 -1      2042 1.16052E-04-3.65710E-05-3.39945E-05 1.39110E-05-2.49729E-19 2.91962E-18
 -1      2043 1.03752E-04-2.88279E-05-3.21442E-05 1.12492E-05-1.80357E-18 2.57825E-18
 -1      2044 1.07488E-04-3.10109E-05-3.28151E-05 1.23493E-05-1.60273E-18 1.11792E-18
 -1      2045 1.10768E-04-3.19505E-05-3.37921E-05 1.50816E-05-1.76265E-18 2.62194E-18
 -1      2046 9.94494E-05-2.59758E-05-3.16051E-05 3.54193E-06-3.44644E-18 4.15192E-18
 -1      2047 1.01623E-04-2.70370E-05-3.19777E-05 7.13993E-06-2.36648E-18 3.01347E-18
 -1      2048 1.05460E-04-2.72121E-05-3.36451E-05 9.58276E-06-2.52389E-18 2.80472E-18
 -1      2049 1.00109E-04-2.69390E-05-3.14993E-05-5.34559E-06 8.33957E-19 3.79606E-18
 -1      2050 9.96817E-05-2.61839E-05-3.14799E-05-1.34386E-06-9.97778E-19 4.08491E-18
 -1      2051 1.03471E-04-2.57415E-05-3.34358E-05-4.76751E-07-1.81265E-18 3.34160E-18
 -1      2052 1.04636E-04-3.06961E-05-3.17613E-05-1.01110E-05 6.74874E-19 2.78568E-18
 -1      2053 1.02191E-04-2.88263E-05-3.14252E-05-8.03805E-06 1.05397E-18 3.33024E-18
 -1      2054 1.05750E-04-2.85672E-05-3.31259E-05-9.00687E-06 1.38294E-18 2.53002E-18
 -1      2055 1.09425E-04-3.42794E-05-3.21814E-05-8.97792E-06 8.15018E-19 2.76625E-18
 -1      2056 1.06649E-04-3.26176E-05-3.17432E-05-9.46248E-06 6.39484E-19 2.94227E-18
 -1      2057 1.09790E-04-3.32052E-05-3.28021E-05-1.13078E-05 3.55671E-19 3.54841E-18
 -1      2058 1.11689E-04-3.57741E-05-3.24640E-05-4.15396E-06 6.11750E-19 1.72305E-18
 -1      2059 1.10014E-04-3.50669E-05-3.21671E-05-6.18454E-06 6.71988E-19 1.92389E-18
 -1      2060 1.12349E-04-3.63751E-05-3.25335E-05-7.67168E-06 1.33247E-18 2.12933E-18
 -1      2061 1.10872E-04-3.52003E-05-3.23666E-05 1.15261E-06 3.05273E-18-9.42457E-20
 -1      2062 1.10792E-04-3.54162E-05-3.23618E-05-1.08367E-06 2.10961E-18 1.39474E-18
 -1      2063 1.12101E-04-3.68359E-05-3.22598E-05-1.55168E-06 2.19450E-18 2.97405E-19
 -1      2064 1.07826E-04-3.34363E-05-3.18418E-05 4.90974E-06 1.67983E-18-5.68306E-19
 -1      2065 1.09071E-04-3.42171E-05-3.21279E-05 3.31099E-06 1.78371E-18 1.48813E-19
 -1      2066 1.09541E-04-3.52623E-05-3.18574E-05 3.88217E-06 2.09800E-18 1.58385E-19
 -1      2067 1.03742E-04-3.12598E-05-3.10416E-05 6.42371E-06-1.00363E-19 1.49215E-18
 -1      2068 1.05705E-04-3.22667E-05-3.14995E-05 5.78167E-06 7.94894E-19 4.06629E-19
 -1      2069 1.05749E-04-3.27912E-05-3.12929E-05 7.06859E-06 7.05853E-19 1.00201E-18
 -1      2070 9.96794E-05-2.91415E-05-3.02118E-05 5.69643E-06-2.74344E-19 2.02220E-18
 -1      2071 1.01708E-04-3.01394E-05-3.06792E-05 6.07890E-06 3.25592E-19 1.88966E-18
 -1      2072 1.01662E-04-3.01945E-05-3.06518E-05 7.65975E-06 1.76124E-19 2.98504E-18
 -1      2073 9.69033E-05-2.76829E-05-2.96395E-05 3.89686E-06-5.82183E-19 2.53628E-18
 -1      2074 9.85568E-05-2.85067E-05-3.00234E-05 5.05151E-06-4.30442E-19 1.55564E-18
 -1      2075 9.85291E-05-2.82226E-05-3.01579E-05 6.52805E-06-4.81001E-19 3.52970E-18
 -1      2076 9.64054E-05-2.67078E-05-2.98681E-05 4.80061E-06-5.83910E-19 4.03263E-18
 -1      2077 9.13786E-05-1.56044E-05-3.25016E-05 1.10768E-05-1.82653E-18-2.38866E-18
 -1      2078 9.27379E-05-1.84013E-05-3.18355E-05 1.08423E-05-1.41787E-18-2.17068E-18
 -1      2079 9.37635E-05-2.03343E-05-3.14624E-05 1.00581E-05-7.89481E-19-1.84894E-18
 -1      2080 9.48744E-05-2.27977E-05-3.08652E-05 9.06635E-06 1.97521E-19-1.64300E-18
 -1      2081 9.42228E-05-2.14148E-05-3.12303E-05 1.29196E-05-8.89821E-19-2.80003E-18
 -1      2082 9.52713E-05-2.38063E-05-3.06050E-05 7.72167E-06-2.86112E-19-2.24589E-19
 -1      2083 9.60820E-05-2.57160E-05-3.01310E-05 6.30024E-06-4.35521E-19 1.69135E-18
 -1      2084 9.70089E-05-2.63966E-05-3.02467E-05 7.39936E-06-9.43889E-19 2.14943E-18
 -1      2085 9.60268E-05-2.43835E-05-3.07099E-05 1.04896E-05-6.82034E-19-1.35233E-18
 -1      2086 8.87427E-05-1.08316E-05-3.34597E-05 1.01124E-05-3.04032E-18-4.03722E-18
 -1      2087 9.01371E-05-1.34514E-05-3.28578E-05 1.08254E-05-2.89737E-18-1.83744E-18
 -1      2088 9.13788E-05-1.71644E-05-3.18122E-05 1.35829E-05-1.40233E-18-3.52262E-18
 -1      2089 8.63829E-05-6.83951E-06-3.41836E-05 6.85088E-06-1.40057E-18-1.12360E-18
 -1      2090 8.74987E-05-8.80161E-06-3.37475E-05 8.55976E-06-2.46830E-18-2.02697E-18
 -1      2091 8.82250E-05-1.27566E-05-3.23119E-05 1.16310E-05-9.38565E-19-2.37644E-18
 -1      2092 8.51659E-05-4.83143E-06-3.45148E-05 1.82162E-06-1.24346E-18 2.56471E-18
 -1      2093 8.55977E-05-5.59290E-06-3.43453E-05 4.16613E-06-6.70202E-19 8.37967E-19
 -1      2094 8.56414E-05-9.28333E-06-3.26500E-05 6.88091E-06 5.14511E-19 4.81082E-19
 -1      2095 8.55875E-05-5.45470E-06-3.43965E-05-3.63221E-06-2.18367E-18 1.57755E-18
 -1      2096 8.51744E-05-4.82171E-06-3.45261E-05-1.30434E-06-1.62499E-18 1.35938E-18
 -1      2097 8.46543E-05-7.94813E-06-3.27793E-05 3.04489E-07 1.88043E-20 1.66748E-18
 -1      2098 8.74737E-05-8.50241E-06-3.38617E-05-7.94604E-06-1.43231E-18 1.74430E-18
 -1      2099 8.63863E-05-6.68110E-06-3.42561E-05-6.28179E-06-1.89810E-18 1.74613E-18
 -1      2100 8.56912E-05-9.24703E-06-3.26862E-05-6.23462E-06-2.48923E-18 1.84204E-18
 -1      2101 9.00832E-05-1.30103E-05-3.30221E-05-1.01067E-05-1.40228E-18 1.60725E-18
 -1      2102 8.87167E-05-1.05066E-05-3.35919E-05-9.44193E-06-1.28404E-18 2.58573E-18
 -1      2103 8.83006E-05-1.26781E-05-3.23772E-05-1.08876E-05-1.08142E-18 1.78074E-18
 -1      2104 9.25362E-05-1.77010E-05-3.20506E-05-1.00507E-05-7.41825E-19-1.18400E-18
 -1      2105 9.12971E-05-1.51302E-05-3.26727E-05-1.03000E-05-1.07126E-18-5.32147E-19
 -1      2106 9.14258E-05-1.70323E-05-3.18907E-05-1.27238E-05-6.98008E-19 7.95976E-19
 -1      2107 9.43822E-05-2.18284E-05-3.10710E-05-8.41401E-06 7.20544E-19 2.72816E-18
 -1      2108 9.34562E-05-1.95448E-05-3.16634E-05-9.26241E-06 2.55476E-19 1.52094E-18
 -1      2109 9.40872E-05-2.11671E-05-3.12831E-05-1.19970E-05 7.41706E-19 5.96495E-19
 -1      2110 9.54446E-05-2.48779E-05-3.02232E-05-6.06809E-06 3.93915E-19 2.05042E-20
 -1      2111 9.48963E-05-2.31501E-05-3.07061E-05-7.13485E-06 7.60199E-19 1.40239E-18
 -1      2112 9.58133E-05-2.44127E-05-3.06352E-05-9.63810E-06 1.26171E-18 2.47580E-18
 -1      2113 9.58649E-05-2.68393E-05-2.95716E-05-3.73376E-06 1.35504E-19-8.42851E-19
 -1      2114 9.56087E-05-2.56933E-05-2.99177E-05-4.74946E-06-5.87927E-20 7.89196E-20
 -1      2115 9.65698E-05-2.65583E-05-3.00334E-05-6.71571E-06 4.33429E-19-4.92811E-19
 -1      2116 6.50733E-05-4.56489E-05-8.95213E-06 4.24625E-05 3.16452E-18-8.51438E-18
 -1      2117 5.06381E-05-4.60312E-05-2.86990E-06 3.84401E-05 4.75990E-18-8.96426E-18
 -1      2118 1.34820E-05-3.55191E-05 8.31671E-06 3.89338E-06 4.16253E-18 3.12640E-18
 -1      2119 1.47813E-05-3.92159E-05 8.90070E-06-8.08934E-06 4.43337E-18 5.21433E-18
 -1      2120 3.07941E-05-3.87104E-05 2.47135E-06 3.01657E-05 3.96581E-18-6.76377E-18
 -1      2121 2.05250E-05-3.91678E-05 6.57489E-06 1.81268E-05 5.45913E-18-2.47461E-18
 -1      2122 1.00050E-04-4.58606E-05-2.32082E-05 4.52655E-05 3.13402E-19-3.21364E-18
 -1      2123 8.04520E-05-4.88926E-05-1.47655E-05 3.99911E-05 2.35645E-18-5.00914E-18
 -1      2124 8.64134E-05-5.41567E-05-1.41860E-05 4.49496E-05 3.32545E-18-5.57663E-18
 -1      2125 1.39516E-04-4.59322E-05-3.96230E-05 3.73919E-05-1.49967E-18-3.92261E-18
 -1      2126 1.18247E-04-4.67630E-05-3.11673E-05 3.78761E-05-5.32360E-19-2.84391E-18
 -1      2127 8.72459E-05-8.72243E-06-3.37487E-05-1.05406E-05-1.06667E-18-2.87004E-18
 -1      2128 8.79539E-05-9.24250E-06-3.38210E-05-1.20962E-05-1.35400E-18-2.65162E-18
 -1      2129 9.04893E-05-1.30524E-05-3.32358E-05-1.18773E-05-1.48514E-18-2.30578E-18
 -1      2130 8.86850E-05-1.10563E-05-3.32946E-05-9.41540E-06-1.04407E-18-2.77372E-18
 -1      2131 1.86022E-04-3.08698E-05-6.48543E-05 1.36760E-05-1.18627E-18-4.79167E-18
 -1      2132 1.73017E-04-3.16071E-05-5.99706E-05 1.75833E-05-2.27005E-18-4.54010E-18
 -1      2133 1.92769E-04-2.72859E-05-6.92610E-05 3.66478E-06-9.81288E-19-4.01107E-18
 -1      2134 1.88749E-04-2.70075E-05-6.79354E-05 1.10258E-05-6.17064E-19-3.95099E-18
 -1      2135 1.84807E-04-2.83340E-05-6.59904E-05-5.69859E-06-7.19978E-20-3.56135E-18
 -1      2136 1.93434E-04-2.83806E-05-6.88536E-05 7.74507E-07-7.72494E-19-4.51754E-18
 -1      2137 1.64998E-04-3.52259E-05-5.51546E-05-8.98123E-06 1.89270E-18-2.25353E-18
 -1      2138 1.80763E-04-3.31118E-05-6.15545E-05-8.03221E-06 9.69641E-19-2.94132E-18
 -1      2139 1.38760E-04-4.59557E-05-3.99395E-05-2.56829E-05 5.68571E-19-1.61021E-18
 -1      2140 1.56297E-04-4.54876E-05-4.74481E-05-1.71958E-05 1.01909E-18-9.94840E-19
 -1      2141 1.06001E-04-4.86155E-05-2.54086E-05-3.37635E-05-1.85966E-18-3.46098E-18
 -1      2142 1.26934E-04-4.71845E-05-3.38127E-05-3.54654E-05 1.05879E-19-2.49536E-18
 -1      2143 1.41490E-04-5.65980E-05-3.57913E-05-1.86924E-05-1.07065E-18-6.27651E-19
 -1      2144 7.34669E-05-4.92216E-05-1.09493E-05-3.78335E-05-1.98587E-18-2.66527E-18
 -1      2145 8.98668E-05-4.72728E-05-1.82924E-05-4.02497E-05-1.86008E-18-3.90525E-18
 -1      2146 3.30858E-05-4.21511E-05 2.45019E-06-2.59667E-05-2.35941E-18 7.02190E-19
 -1      2147 4.86247E-05-4.15567E-05-3.69873E-06-3.60046E-05-1.78470E-18-3.81588E-19
 -1      2148 1.43916E-05-3.93341E-05 9.02585E-06-7.76714E-06-3.17341E-18-4.63327E-19
 -1      2149 1.95465E-05-3.73691E-05 6.51094E-06-1.74974E-05-2.47927E-18 3.81165E-21
 -1      2150 1.37689E-05-3.84876E-05 9.07651E-06 1.15210E-05-1.88973E-18 2.44920E-18
 -1      2151 1.18988E-05-3.95355E-05 1.01715E-05 2.90562E-06-3.00927E-18 1.01093E-18
 -1      2152 3.34916E-05-3.78696E-05 1.12128E-06 3.13083E-05-9.48253E-19 2.37741E-18
 -1      2153 2.37589E-05-3.96826E-05 5.43942E-06 2.27280E-05-1.21337E-18 2.10424E-18
 -1      2154 6.34754E-05-4.15446E-05-9.88580E-06 4.18900E-05-1.99476E-19-1.20181E-18
 -1      2155 4.73625E-05-4.39925E-05-2.83926E-06 3.42957E-05-1.10580E-18 1.23699E-18
 -1      2156 4.86845E-05-3.96384E-05-4.18786E-06 3.95045E-05-7.75882E-19 1.48591E-18
 -1      2157 1.08274E-04-4.71338E-05-2.61690E-05 4.14633E-05 1.73642E-20-8.68209E-19
 -1      2158 8.75978E-05-4.80982E-05-1.78600E-05 3.85939E-05 3.03238E-19-1.83806E-18
 -1      2159 1.43511E-04-4.68656E-05-4.15168E-05 2.52806E-05-5.89217E-19 1.76606E-19
 -1      2160 1.24482E-04-4.74238E-05-3.33869E-05 3.14465E-05-3.90059E-19-2.54110E-21
 -1      2161 1.73260E-04-3.37831E-05-5.81805E-05 1.79759E-05-1.09924E-18 1.52551E-18
 -1      2162 1.54808E-04-3.63268E-05-5.05536E-05 1.67000E-05-4.12717E-19 1.55939E-18
 -1      2163 1.80520E-04-2.63360E-05-6.50875E-05 4.69590E-06-3.93023E-19 1.35525E-18
 -1      2164 1.75563E-04-2.89474E-05-6.19513E-05 1.20682E-05-1.08568E-18 1.37897E-18
 -1      2165 1.60505E-04-2.71436E-05-5.62988E-05-7.41516E-07-6.70215E-19 1.58353E-18
 -1      2166 1.78995E-04-2.04841E-05-6.70107E-05-4.38630E-06-1.56108E-18 3.17960E-18
 -1      2167 1.82891E-04-2.27901E-05-6.72382E-05 1.49266E-06-1.50348E-19 2.06814E-18
 -1      2168 1.74613E-04-2.71212E-05-6.22650E-05-1.28033E-05-2.81321E-18 2.96334E-18
 -1      2169 1.75531E-04-2.28630E-05-6.48045E-05-4.92412E-06-2.58260E-18 3.13402E-18
 -1      2170 1.58344E-04-3.53392E-05-5.24724E-05-2.15588E-05-3.92314E-18 2.34501E-18
 -1      2171 1.73314E-04-3.36034E-05-5.88021E-05-1.86398E-05-3.29877E-18 2.53220E-18
 -1      2172 1.60031E-04-2.63326E-05-5.64403E-05-1.53259E-06-2.52585E-18 1.68856E-18
 -1      2173 1.31119E-04-4.58253E-05-3.68156E-05-3.34712E-05-4.59155E-18 4.06830E-18
 -1      2174 1.50283E-04-4.36267E-05-4.50768E-05-3.14258E-05-4.62904E-18 2.95191E-18
 -1      2175 9.25874E-05-4.88806E-05-1.96480E-05-4.03534E-05-1.58819E-18 5.12624E-18
 -1      2176 1.14203E-04-4.62846E-05-2.89137E-05-4.40785E-05-3.56559E-18 4.92719E-18
 -1      2177 5.11287E-05-4.74571E-05-3.10070E-06-3.60011E-05 2.59065E-18 5.74998E-18
 -1      2178 6.95992E-05-4.44203E-05-1.13255E-05-4.43194E-05-4.06576E-19 5.70191E-18
 -1      2179 2.17715E-05-4.25930E-05 7.19709E-06-1.94256E-05 6.52258E-18 8.42247E-18
 -1      2180 3.19564E-05-4.01684E-05 2.49116E-06-3.09510E-05 4.59727E-18 9.04928E-18
 -1      2181 1.68955E-04-3.88508E-05-5.45656E-05 2.46058E-05-2.59457E-18-4.15343E-18
 -1      2182 1.52039E-04-4.13446E-05-4.73231E-05 2.61750E-05-2.28657E-18-3.98360E-18
 -1      2183 1.21354E-04-5.79248E-05-2.70045E-05 3.73805E-05 1.41793E-18-2.92692E-18
 -1      2184 9.71907E-05-2.43148E-05-3.13057E-05-1.00035E-05-1.79142E-18 2.89738E-19
 -1      2185 1.63935E-04-3.54572E-05-5.41175E-05 5.46115E-06-1.63689E-18-3.19586E-18
 -1      2186 9.63485E-05-2.31047E-05-3.14557E-05-1.03875E-05-1.84615E-18-5.64164E-19
 -1      2187 4.66162E-05-4.14576E-05-2.59971E-06 3.74659E-05 3.84384E-18-8.25285E-18
 -1      2188 4.31513E-05-3.34763E-05-3.73421E-06 3.71660E-05 2.36555E-18-7.23853E-18
 -1      2189 6.24581E-05-4.36386E-05-8.47664E-06 4.48834E-05 3.40761E-18-9.05944E-18
 -1      2190 2.04004E-05-2.87124E-05 3.11342E-06 1.30597E-05 1.68390E-18 1.74489E-19
 -1      2191 9.61219E-05-2.74426E-05-2.94163E-05-3.29370E-06 4.36064E-19-1.13612E-18
 -1      2192 2.17774E-05-2.99744E-05 2.88949E-06-1.82976E-05 3.63070E-18 6.82793E-18
 -1      2193 1.50604E-04-5.14267E-05-4.18958E-05 2.06170E-05-9.62335E-19-2.91676E-18
 -1      2194 4.98106E-05-4.26639E-05-3.62170E-06-4.00663E-05 4.57228E-18 8.25836E-18
 -1      2195 9.39819E-05-5.46650E-05-1.69627E-05-4.45163E-05 5.65394E-19 5.88942E-18
 -1      2196 1.54853E-04-4.47928E-05-4.65447E-05-1.25944E-05-3.92688E-18 8.65668E-19
 -1      2197 1.62842E-04-1.61125E-05-6.19151E-05-3.07203E-06-1.04058E-18 1.97443E-18
 -1      2198 1.50270E-04-4.50748E-05-4.48218E-05 1.39160E-05-5.44113E-19 8.74138E-19
 -1      2199 1.44441E-04-5.23874E-05-3.90893E-05 1.08114E-05-1.46553E-18 9.71970E-19
 -1      2200 1.51412E-04-4.25589E-05-4.73401E-05 8.47311E-07-6.20240E-19 1.41010E-18
 -1      2201 8.74302E-05-5.19328E-05-1.51515E-05 4.27095E-05-1.01898E-18-1.62427E-18
 -1      2202 2.19358E-05-3.02509E-05 2.91941E-06 2.28292E-05-1.13037E-18 2.56185E-18
 -1      2203 1.41785E-05-2.84759E-05 5.29024E-06-3.88831E-06-2.23310E-18 3.10014E-19
 -1      2204 3.14006E-05-3.29199E-05 3.59840E-07-2.76776E-05-1.91959E-18 1.03973E-19
 -1      2205 1.13274E-04-5.87619E-05-2.34544E-05-3.34823E-05-2.18958E-18-2.63808E-18
 -1      2206 1.58920E-04-4.24287E-05-4.94574E-05-5.11939E-06 1.07573E-18-1.76310E-18
 -1      2207 1.54273E-04-3.83848E-05-5.01821E-05 9.26245E-06-1.65171E-20-2.83608E-18
 -1      2208 1.51469E-04-4.93655E-05-4.34091E-05 1.97601E-07-6.11875E-19-1.39337E-18
 -1      2209 1.66270E-04-2.44142E-05-5.99115E-05 5.62317E-06 1.38913E-19-2.93709E-18
 -1      2210 1.68289E-04-2.06498E-05-6.19805E-05 1.72206E-06-9.38089E-19-3.13212E-18
 -1      2211 1.70927E-04-1.68736E-05-6.45495E-05 3.70211E-06-1.02830E-18-3.31963E-18
 -1      2212 6.82089E-05-4.72322E-05-9.14776E-06-3.86925E-05-1.51958E-18-1.99434E-18
 -1      2213 8.72386E-05-5.32282E-05-1.51006E-05-4.05242E-05-1.49650E-18-3.50206E-18
 -1      2214 6.42289E-05-4.22190E-05-8.77274E-06-4.01640E-05-6.26381E-19-1.64663E-18
 -1      2215 1.26393E-04-5.71319E-05-2.92450E-05 2.97166E-05-2.51781E-19-9.21572E-19
 -1      2216 1.65733E-04-1.76541E-05-6.29612E-05-2.19123E-06-2.11208E-18 1.75812E-18
 -1      2217 1.49561E-04-1.03816E-05-5.99590E-05 2.17563E-08-1.14477E-18 1.81003E-18
 -1      2218 1.48715E-04-1.38328E-05-5.78960E-05 2.28130E-06-2.22939E-18 1.00786E-18
 -1      2219 1.33008E-04-5.67188E-05-3.22883E-05-3.13839E-05-1.85034E-18 2.98029E-18
 -1      2220 9.52147E-05-2.63770E-05-2.94887E-05 4.19767E-06 1.58863E-18 1.27104E-18
 -1      2221 9.61898E-05-2.58625E-05-3.00667E-05 6.00271E-06 1.74476E-18 1.50837E-18
 -1      2222 8.81352E-05-1.11839E-05-3.30183E-05-3.66258E-06-6.24497E-20-2.75124E-18
 -1      2223 8.83689E-05-1.14536E-05-3.30005E-05-4.80392E-06-3.11088E-19-2.84144E-18
 -1      2224 8.87193E-05-1.19357E-05-3.29519E-05-5.82155E-06-4.57122E-19-2.86431E-18
 -1      2225 8.91283E-05-1.24097E-05-3.29235E-05-6.99340E-06-6.99282E-19-2.84664E-18
 -1      2226 8.98891E-05-1.38229E-05-3.25984E-05-4.90660E-06-3.26352E-19-2.67015E-18
 -1      2227 8.77902E-05-1.07260E-05-3.30615E-05 6.15737E-07 7.27500E-19-2.52737E-18
 -1      2228 8.77857E-05-1.07210E-05-3.30618E-05-4.95717E-07 4.90483E-19-2.56018E-18
 -1      2229 8.79709E-05-1.09508E-05-3.30430E-05 2.75891E-06 1.09258E-18-2.50263E-18
 -1      2230 8.78563E-05-1.08179E-05-3.30523E-05 1.63904E-06 8.95449E-19-2.50838E-18
 -1      2231 8.91082E-05-1.27727E-05-3.27184E-05 1.05014E-06 7.44285E-19-2.38356E-18
 -1      2232 8.84046E-05-1.14974E-05-3.29978E-05 4.88886E-06 1.41144E-18-2.28868E-18
 -1      2233 8.81654E-05-1.12208E-05-3.30159E-05 3.76543E-06 1.22176E-18-2.46574E-18
 -1      2234 8.93734E-05-1.31282E-05-3.26783E-05 3.02249E-06 1.09575E-18-2.31741E-18
 -1      2235 8.91838E-05-1.24796E-05-3.29190E-05 7.07686E-06 1.83283E-18-1.76469E-18
 -1      2236 8.87659E-05-1.19934E-05-3.29481E-05 5.90487E-06 1.61212E-18-2.06728E-18
 -1      2237 8.99302E-05-1.38757E-05-3.25939E-05 4.97714E-06 1.48200E-18-1.98302E-18
 -1      2238 9.04528E-05-1.40879E-05-3.27921E-05 9.22588E-06 2.07756E-18-1.28936E-18
 -1      2239 8.97727E-05-1.32773E-05-3.28374E-05 8.04693E-06 1.87600E-18-1.57939E-18
 -1      2240 9.08652E-05-1.51348E-05-3.24490E-05 6.87376E-06 1.77472E-18-1.56178E-18
 -1      2241 9.24500E-05-1.66590E-05-3.25823E-05 1.11099E-05 2.33451E-18-5.31652E-19
 -1      2242 9.13715E-05-1.53193E-05-3.26543E-05 1.00299E-05 2.16131E-18-9.53137E-19
 -1      2243 9.22879E-05-1.70878E-05-3.22079E-05 8.51945E-06 1.96107E-18-9.89947E-19
 -1      2244 9.42335E-05-2.71168E-05-2.87476E-05 1.76812E-06 1.27165E-18 9.48867E-19
 -1      2245 9.48346E-05-2.68935E-05-2.90463E-05 2.74081E-06 1.44668E-18 1.22034E-18
 -1      2246 9.53382E-05-2.58476E-05-2.97895E-05 4.36460E-06 1.63425E-18 6.05635E-19
 -1      2247 9.58944E-05-2.50790E-05-3.03037E-05-6.19846E-06-1.34164E-18-8.96996E-19
 -1      2248 9.52442E-05-2.58507E-05-2.97593E-05-4.25734E-06-1.18703E-18-9.16097E-19
 -1      2249 1.53830E-04-3.19556E-05-5.27742E-05-4.09914E-06-1.01199E-18-2.69293E-18
 -1      2250 1.52753E-04-4.08594E-05-4.82231E-05-1.73631E-06-1.48061E-18-2.11674E-18
 -1      2251 9.51583E-05-2.65426E-05-2.93433E-05-2.96833E-06-1.13085E-18-8.47897E-19
 -1      2252 9.46595E-05-2.68947E-05-2.90403E-05-1.88281E-06-1.06661E-18-8.55495E-19
 -1      2253 9.53531E-05-2.54433E-05-2.99945E-05-4.27687E-06-1.23962E-18-1.24353E-18
 -1      2254 9.44734E-05-2.72388E-05-2.87760E-05-1.03006E-06-9.93496E-19-6.47807E-19
 -1      2255 9.42122E-05-2.74515E-05-2.86093E-05-4.29029E-07-7.91450E-19-7.48245E-19
 -1      2256 9.50194E-05-2.66881E-05-2.92981E-05-1.91734E-06-9.83824E-19-1.02618E-18
 -1      2257 9.40628E-05-2.76318E-05-2.84478E-05 7.78792E-08-7.88641E-19-7.38441E-19
 -1      2258 9.39636E-05-2.77749E-05-2.83640E-05 4.07031E-07-7.45830E-19-7.64218E-19
 -1      2259 9.47252E-05-2.74278E-05-2.88545E-05-4.46715E-07-8.72138E-19-8.97421E-19
 -1      2260 9.38785E-05-2.78843E-05-2.82706E-05 6.89248E-07-5.82713E-19-7.37751E-19
 -1      2261 9.38833E-05-2.79908E-05-2.82375E-05 8.52861E-07-4.39049E-19-8.16298E-19
 -1      2262 9.45230E-05-2.78556E-05-2.85821E-05 4.22998E-07-7.41193E-19-8.05456E-19
 -1      2263 9.38515E-05-2.80627E-05-2.81886E-05 9.89732E-07-5.42138E-19-8.05395E-19
 -1      2264 9.39178E-05-2.81460E-05-2.81862E-05 1.05167E-06-4.89789E-19-9.73557E-19
 -1      2265 9.44295E-05-2.81243E-05-2.84240E-05 8.93064E-07-5.99286E-19-7.41595E-19
 -1      2266 9.39230E-05-2.81953E-05-2.81662E-05 1.09672E-06-3.15737E-19-1.11930E-18
 -1      2267 9.40212E-05-2.82614E-05-2.81814E-05 1.09732E-06-2.53055E-19-1.20852E-18
 -1      2268 9.44190E-05-2.83002E-05-2.83417E-05 1.10570E-06-5.29780E-19-1.01559E-18
 -1      2269 9.40494E-05-2.82956E-05-2.81797E-05 1.08665E-06-4.04518E-19-1.10267E-18
 -1      2270 9.41601E-05-2.83477E-05-2.82043E-05 1.05232E-06-5.08631E-19-9.09934E-19
 -1      2271 9.44631E-05-2.84170E-05-2.83087E-05 1.15703E-06-3.17617E-19-1.03456E-18
 -1      2272 9.42008E-05-2.83712E-05-2.82135E-05 1.01051E-06-4.02085E-19-6.22673E-19
 -1      2273 9.43120E-05-2.84115E-05-2.82422E-05 9.58857E-07-2.58231E-20-5.73715E-19
 -1      2274 9.45389E-05-2.84936E-05-2.83071E-05 1.11248E-06-2.88673E-19-7.48566E-19
 -1      2275 9.43580E-05-2.84269E-05-2.82578E-05 9.02730E-07-2.50352E-20-4.40058E-19
 -1      2276 9.44631E-05-2.84574E-05-2.82874E-05 8.45651E-07-1.42661E-20-4.13172E-19
 -1      2277 9.46297E-05-2.85414E-05-2.83247E-05 1.01686E-06-9.22890E-20-4.89012E-19
 -1      2278 9.45102E-05-2.84665E-05-2.83063E-05 7.86758E-07 1.99976E-19-5.41035E-19
 -1      2279 9.46062E-05-2.84888E-05-2.83353E-05 7.32352E-07 1.14328E-19-3.97159E-19
 -1      2280 9.47249E-05-2.85681E-05-2.83535E-05 9.01003E-07 6.29200E-20-4.95600E-19
 -1      2281 9.46522E-05-2.84932E-05-2.83558E-05 6.78693E-07-2.73875E-19-6.50685E-19
 -1      2282 9.47390E-05-2.85089E-05-2.83835E-05 6.32590E-07-2.86973E-19-8.39895E-19
 -1      2283 9.48187E-05-2.85791E-05-2.83887E-05 7.86195E-07 1.10234E-20-7.23174E-19
 -1      2284 9.47833E-05-2.85094E-05-2.84049E-05 5.89867E-07-4.38588E-19-8.87028E-19
 -1      2285 9.48626E-05-2.85199E-05-2.84315E-05 5.56172E-07-5.36669E-19-1.09380E-18
 -1      2286 9.49086E-05-2.85782E-05-2.84275E-05 6.87407E-07-4.20817E-19-7.89612E-19
 -1      2287 9.49057E-05-2.85176E-05-2.84537E-05 5.28702E-07-5.77056E-19-9.07876E-19
 -1      2288 9.49806E-05-2.85242E-05-2.84799E-05 5.10682E-07-6.95365E-19-8.86543E-19
 -1      2289 9.49949E-05-2.85680E-05-2.84689E-05 6.15595E-07-5.25881E-19-6.19981E-19
 -1      2290 9.50242E-05-2.85195E-05-2.85034E-05 5.02075E-07-1.02019E-18-8.78476E-19
 -1      2291 9.50990E-05-2.85237E-05-2.85304E-05 5.02661E-07-7.80764E-19-1.09844E-18
 -1      2292 9.50799E-05-2.85505E-05-2.85130E-05 5.79406E-07-9.78826E-19-3.71265E-19
 -1      2293 9.51453E-05-2.85172E-05-2.85560E-05 5.16301E-07-3.42538E-19-1.52876E-18
 -1      2294 9.52253E-05-2.85203E-05-2.85854E-05 5.38425E-07-4.98105E-19-1.14781E-18
 -1      2295 9.51676E-05-2.85270E-05-2.85609E-05 5.86420E-07-8.13275E-19-8.88512E-19
 -1      2296 9.52774E-05-2.85127E-05-2.86143E-05 5.77780E-07-8.02580E-19-1.03745E-18
 -1      2297 9.53689E-05-2.85163E-05-2.86479E-05 6.24565E-07-8.28036E-19-1.03894E-18
 -1      2298 9.52634E-05-2.84987E-05-2.86144E-05 6.43996E-07-6.29750E-19-1.38151E-18
 -1      2299 9.54303E-05-2.85083E-05-2.86815E-05 6.93322E-07-6.36674E-19-1.19120E-18
 -1      2300 9.55405E-05-2.85143E-05-2.87214E-05 7.68102E-07-3.09881E-19-1.38921E-18
 -1      2301 9.53739E-05-2.84667E-05-2.86758E-05 7.59749E-07-6.88175E-19-5.56942E-19
 -1      2302 9.56157E-05-2.85070E-05-2.87612E-05 8.70107E-07-1.06687E-19-1.29492E-18
 -1      2303 9.57528E-05-2.85181E-05-2.88097E-05 9.76236E-07 3.24892E-19-1.70340E-18
 -1      2304 9.55071E-05-2.84331E-05-2.87477E-05 9.41633E-07-3.15187E-19-3.84770E-19
 -1      2305 9.58466E-05-2.85133E-05-2.88573E-05 1.11517E-06 7.11799E-19-1.54445E-18
 -1      2306 9.60197E-05-2.85327E-05-2.89168E-05 1.25556E-06 1.02560E-18-1.38450E-18
 -1      2307 9.56724E-05-2.84008E-05-2.88328E-05 1.19754E-06 6.51177E-19-7.47610E-19
 -1      2308 9.61383E-05-2.85332E-05-2.89735E-05 1.43429E-06 1.31795E-18-1.17636E-18
 -1      2309 9.63571E-05-2.85655E-05-2.90462E-05 1.61053E-06 1.07227E-18-7.28815E-19
 -1      2310 9.58810E-05-2.83750E-05-2.89337E-05 1.53431E-06 1.27058E-18-7.07998E-19
 -1      2311 9.65074E-05-2.85758E-05-2.91132E-05 1.83001E-06 5.11092E-19-6.03838E-19
 -1      2312 9.67821E-05-2.86275E-05-2.92009E-05 2.04103E-06 3.30564E-19-7.42041E-19
 -1      2313 9.61461E-05-2.83644E-05-2.90523E-05 1.95587E-06 8.06882E-19-9.55302E-19
 -1      2314 9.69726E-05-2.86545E-05-2.92785E-05 2.29855E-06 5.84287E-20-9.50201E-19
 -1      2315 9.73131E-05-2.87342E-05-2.93823E-05 2.53848E-06 1.30221E-19-6.47139E-19
 -1      2316 9.64835E-05-2.83826E-05-2.91896E-05 2.46037E-06 9.62716E-20-8.49074E-19
 -1      2317 9.75543E-05-2.87885E-05-2.94698E-05 2.82516E-06-3.22207E-19-1.06528E-18
 -1      2318 9.79692E-05-2.89080E-05-2.95894E-05 3.08039E-06-7.81784E-19-9.50959E-19
 -1      2319 9.69127E-05-2.84512E-05-2.93448E-05 3.03582E-06-7.16472E-19-1.23572E-18
 -1      2320 9.82747E-05-2.90051E-05-2.96849E-05 3.37767E-06-7.36711E-19-8.72109E-19
 -1      2321 9.87701E-05-2.91799E-05-2.98177E-05 3.62287E-06-3.79770E-19-6.89275E-19
 -1      2322 9.74585E-05-2.86021E-05-2.95147E-05 3.65398E-06-8.32901E-19-1.16445E-18
 -1      2323 9.91575E-05-2.93419E-05-2.99175E-05 3.89792E-06-1.16782E-19-8.28749E-19
 -1      2324 9.97346E-05-2.95913E-05-3.00584E-05 4.09136E-06 3.38338E-19-8.55169E-19
 -1      2325 9.81526E-05-2.88816E-05-2.96934E-05 4.26227E-06-2.71927E-19-3.34786E-19
 -1      2326 1.00227E-04-2.98469E-05-3.01571E-05 4.29165E-06 4.48015E-19-1.21092E-18
 -1      2327 1.00879E-04-3.01922E-05-3.02973E-05 4.37062E-06 4.60145E-19-1.42957E-18
 -1      2328 9.90360E-05-2.93520E-05-2.98718E-05 4.77378E-06 2.04289E-19-1.20523E-18
 -1      2329 1.01502E-04-3.05749E-05-3.03887E-05 4.41855E-06 1.12073E-19-1.89601E-18
 -1      2330 1.02209E-04-3.10331E-05-3.05165E-05 4.29728E-06 6.35779E-20-1.60206E-18
 -1      2331 1.00159E-04-3.00893E-05-3.00392E-05 5.05648E-06-7.99171E-20-1.41436E-18
 -1      2332 1.02989E-04-3.15715E-05-3.05952E-05 4.08755E-06 9.56585E-20-1.19563E-18
 -1      2333 1.03709E-04-3.21415E-05-3.06969E-05 3.66235E-06 1.60546E-19-5.87168E-19
 -1      2334 1.01576E-04-3.11695E-05-3.01861E-05 4.92479E-06 1.92473E-19-1.13344E-18
 -1      2335 1.04655E-04-3.28384E-05-3.07622E-05 3.06819E-06 2.43198E-19-4.86213E-19
 -1      2336 1.05309E-04-3.34745E-05-3.08260E-05 2.23809E-06 2.88598E-19-2.45987E-19
 -1      2337 1.03323E-04-3.26310E-05-3.03104E-05 4.14147E-06 4.71284E-19-3.08642E-19
 -1      2338 1.06377E-04-3.42677E-05-3.08867E-05 1.13826E-06-1.48785E-19-2.40947E-19
 -1      2339 1.06840E-04-3.48425E-05-3.09079E-05-1.48632E-07 1.85795E-19-5.21564E-19
 -1      2340 1.05369E-04-3.44011E-05-3.04274E-05 2.44705E-06 1.25534E-19-4.89316E-19
 -1      2341 1.07884E-04-3.55538E-05-3.09869E-05-1.80708E-06 3.89473E-19-4.31976E-19
 -1      2342 1.07972E-04-3.58249E-05-3.09738E-05-3.47583E-06-2.28444E-19-9.61428E-20
 -1      2343 1.07527E-04-3.61876E-05-3.05794E-05-3.55354E-07 1.78960E-19-1.02082E-18
 -1      2344 1.08696E-04-3.61232E-05-3.11071E-05-5.55552E-06-4.82710E-19 6.76235E-19
 -1      2345 1.08208E-04-3.57609E-05-3.10833E-05-7.30269E-06-6.08699E-19 2.21564E-19
 -1      2346 1.09354E-04-3.73637E-05-3.08392E-05-4.22547E-06-5.16841E-19-3.90402E-19
 -1      2347 1.08207E-04-3.52406E-05-3.13063E-05-9.31769E-06-6.44078E-19 4.54975E-19
 -1      2348 1.07050E-04-3.40049E-05-3.12986E-05-1.05665E-05-3.37599E-19 7.28536E-19
 -1      2349 1.10117E-04-3.70056E-05-3.12928E-05-8.58027E-06-5.55728E-19 7.37362E-19
 -1      2350 1.06070E-04-3.24742E-05-3.16066E-05-1.16679E-05-5.10771E-19 1.37037E-19
 -1      2351 1.04421E-04-3.05039E-05-3.16233E-05-1.17216E-05-2.57233E-19 5.60107E-19
 -1      2352 1.09112E-04-3.43853E-05-3.19769E-05-1.20507E-05-7.12094E-19 7.54524E-19
 -1      2353 1.02728E-04-2.83589E-05-3.19406E-05-1.09986E-05-2.52020E-19-2.58037E-19
 -1      2354 1.01155E-04-2.64224E-05-3.19542E-05-9.44060E-06-7.75167E-20-5.76265E-19
 -1      2355 1.06291E-04-2.97350E-05-3.27866E-05-1.27013E-05-8.15660E-19-6.36194E-19
 -1      2356 9.97310E-05-2.47867E-05-3.21465E-05-6.76682E-06 5.36099E-19-1.51482E-18
 -1      2357 9.88947E-05-2.38904E-05-3.21078E-05-4.00782E-06 3.51505E-19-1.06819E-18
 -1      2358 1.03002E-04-2.50047E-05-3.34570E-05-9.22928E-06-1.80521E-19-1.43645E-18
 -1      2359 9.87119E-05-2.38206E-05-3.20541E-05-4.23503E-07 2.98050E-20-3.88449E-19
 -1      2360 9.89545E-05-2.45086E-05-3.19340E-05 2.35385E-06-7.53664E-19-3.05246E-20
 -1      2361 1.01301E-04-2.28846E-05-3.36698E-05-2.48062E-06 5.69520E-19-7.84967E-19
 -1      2362 1.00037E-04-2.60285E-05-3.16376E-05 5.07953E-06-8.89828E-19 1.25937E-18
 -1      2363 1.01039E-04-2.77897E-05-3.14662E-05 6.67490E-06-2.73276E-19 7.33464E-19
 -1      2364 1.02286E-04-2.47350E-05-3.32721E-05 4.32160E-06 2.09531E-19 1.65282E-18
 -1      2365 1.02428E-04-2.98450E-05-3.10433E-05 7.44844E-06-1.38999E-20 3.22107E-19
 -1      2366 1.03524E-04-3.16444E-05-3.08743E-05 7.44018E-06 6.10827E-19 5.27344E-20
 -1      2367 1.04928E-04-2.92395E-05-3.24161E-05 7.92229E-06-5.46230E-19 2.29217E-18
 -1      2368 1.04208E-04-3.30740E-05-3.04737E-05 6.38500E-06 1.74946E-18-6.39272E-19
 -1      2369 1.04823E-04-3.41012E-05-3.03451E-05 5.19974E-06 2.23100E-18-7.07651E-19
 -1      2370 1.07142E-04-3.36866E-05-3.14315E-05 7.37933E-06 8.48506E-19-3.15067E-19
 -1      2371 1.04478E-04-3.44358E-05-3.00515E-05 3.26853E-06 7.75962E-19-8.80074E-19
 -1      2372 1.04426E-04-3.45087E-05-2.99639E-05 1.67465E-06 3.44903E-19-1.43676E-18
 -1      2373 1.07502E-04-3.59896E-05-3.06105E-05 4.03673E-06 1.07420E-18-1.32396E-18
 -1      2374 1.03295E-04-3.39137E-05-2.97895E-05-1.85118E-07 1.31420E-18-7.95484E-19
 -1      2375 1.02689E-04-3.32698E-05-2.97257E-05-1.52300E-06 5.86130E-19-2.83482E-19
 -1      2376 1.05976E-04-3.57793E-05-3.00721E-05-8.73279E-09 7.83443E-19-9.68355E-19
 -1      2377 1.01190E-04-3.21508E-05-2.96391E-05-2.73440E-06-1.00814E-18-5.46303E-20
 -1      2378 1.00250E-04-3.11677E-05-2.95827E-05-3.41976E-06-6.49204E-19-1.33193E-19
 -1      2379 1.03284E-04-3.37796E-05-2.97916E-05-3.18406E-06 1.37037E-19-6.04741E-19
 -1      2380 9.33370E-05-2.76910E-05-2.81267E-05-4.06511E-07 4.66646E-19 2.29906E-19
 -1      2381 9.34156E-05-2.75860E-05-2.81883E-05-1.21152E-07 7.00334E-19 5.49952E-19
 -1      2382 9.32847E-05-2.78553E-05-2.80365E-05-8.12462E-07 3.24820E-19 1.27257E-19
 -1      2383 9.32402E-05-2.77643E-05-2.80481E-05-6.73429E-07 4.01779E-19 2.07119E-19
 -1      2384 9.40086E-05-2.78080E-05-2.83829E-05-4.39098E-07 5.24330E-19 5.78133E-20
 -1      2385 9.33773E-05-2.79905E-05-2.80198E-05-9.88058E-07 5.15152E-19-3.51804E-20
 -1      2386 9.32652E-05-2.79100E-05-2.80029E-05-9.37272E-07 4.09797E-19 8.21996E-20
 -1      2387 9.39211E-05-2.80173E-05-2.82526E-05-8.86280E-07 4.49538E-19-9.51208E-20
 -1      2388 9.35506E-05-2.81049E-05-2.80462E-05-1.02317E-06 3.81644E-19 7.08393E-20
 -1      2389 9.34069E-05-2.80344E-05-2.80142E-05-1.02509E-06 4.75080E-19 8.25696E-20
 -1      2390 9.39490E-05-2.81660E-05-2.81981E-05-1.08269E-06 5.00123E-19-1.94829E-19
 -1      2391 9.37608E-05-2.82012E-05-2.80958E-05-9.75969E-07 2.55565E-19 1.62177E-19
 -1      2392 9.36080E-05-2.81408E-05-2.80571E-05-1.00777E-06 3.57422E-19 1.29318E-19
 -1      2393 9.40467E-05-2.82760E-05-2.81908E-05-1.12446E-06 3.48555E-19-1.15612E-20
 -1      2394 9.39795E-05-2.82807E-05-2.81559E-05-8.85013E-07 7.20686E-19 1.01337E-19
 -1      2395 9.38313E-05-2.82303E-05-2.81158E-05-9.31630E-07 4.95809E-19 1.25977E-19
 -1      2396 9.41807E-05-2.83582E-05-2.82116E-05-1.07522E-06 5.69991E-19 5.11977E-20
 -1      2397 9.41904E-05-2.83450E-05-2.82190E-05-7.76205E-07 3.53479E-19 3.34837E-19
 -1      2398 9.40539E-05-2.83039E-05-2.81803E-05-8.27555E-07 6.70515E-19 2.99009E-19
 -1      2399 9.43285E-05-2.84189E-05-2.82480E-05-9.77749E-07 6.20572E-19 9.15479E-20
 -1      2400 9.43851E-05-2.83959E-05-2.82807E-05-6.67073E-07 4.26327E-19 3.59665E-19
 -1      2401 9.42631E-05-2.83631E-05-2.82448E-05-7.16335E-07 4.01018E-19 3.80286E-19
 -1      2402 9.44763E-05-2.84626E-05-2.82920E-05-8.61083E-07 2.57102E-19 3.84872E-19
 -1      2403 9.45613E-05-2.84353E-05-2.83393E-05-5.69658E-07-2.53033E-19 5.38463E-19
 -1      2404 9.44536E-05-2.84096E-05-2.83066E-05-6.12116E-07 1.78390E-19 5.10677E-19
 -1      2405 9.46168E-05-2.84925E-05-2.83391E-05-7.45077E-07 1.68929E-19 4.44469E-19
 -1      2406 9.47211E-05-2.84654E-05-2.83947E-05-4.92556E-07-3.95201E-19 4.97606E-19
 -1      2407 9.46252E-05-2.84453E-05-2.83646E-05-5.24775E-07-2.57728E-19 6.67260E-19
 -1      2408 9.47476E-05-2.85115E-05-2.83870E-05-6.43563E-07-2.46580E-19 4.48190E-19
 -1      2409 9.48695E-05-2.84884E-05-2.84481E-05-4.42431E-07 4.38976E-19-2.49948E-19
 -1      2410 9.47816E-05-2.84726E-05-2.84197E-05-4.61635E-07-1.27952E-19 1.97401E-19
 -1      2411 9.48696E-05-2.85217E-05-2.84350E-05-5.66620E-07 7.74903E-20 6.29358E-20
 -1      2412 9.50145E-05-2.85067E-05-2.85018E-05-4.25180E-07 1.26243E-18-5.80174E-19
 -1      2413 9.49291E-05-2.84935E-05-2.84735E-05-4.28771E-07 1.04882E-18-1.97805E-19
 -1      2414 9.49865E-05-2.85250E-05-2.84838E-05-5.22270E-07 7.63668E-19-3.55150E-19
 -1      2415 9.51659E-05-2.85228E-05-2.85591E-05-4.46853E-07 1.22461E-18-1.73210E-19
 -1      2416 9.50764E-05-2.85106E-05-2.85289E-05-4.32020E-07 1.34442E-18-1.52491E-19
 -1      2417 9.51040E-05-2.85231E-05-2.85353E-05-5.17782E-07 1.13368E-18 1.32535E-19
 -1      2418 9.53361E-05-2.85394E-05-2.86240E-05-5.14374E-07 9.30091E-20-6.78323E-20
 -1      2419 9.52345E-05-2.85262E-05-2.85896E-05-4.77789E-07 8.06545E-19 2.51556E-19
 -1      2420 9.52299E-05-2.85174E-05-2.85921E-05-5.60695E-07 4.12152E-19 9.86886E-19
 -1      2421 9.55395E-05-2.85595E-05-2.87015E-05-6.36120E-07-3.96018E-19 1.01769E-20
 -1      2422 9.54165E-05-2.85431E-05-2.86599E-05-5.73686E-07-2.59780E-19 7.44437E-20
 -1      2423 9.53733E-05-2.85092E-05-2.86575E-05-6.59612E-07-1.00896E-19 7.42489E-19
 -1      2424 9.57934E-05-2.85866E-05-2.87972E-05-8.22332E-07 5.37131E-19-5.23788E-20
 -1      2425 9.56378E-05-2.85646E-05-2.87451E-05-7.29003E-07 6.00335E-20-1.31134E-19
 -1      2426 9.55452E-05-2.84998E-05-2.87357E-05-8.24799E-07-1.59855E-19 6.61738E-19
 -1      2427 9.61174E-05-2.86250E-05-2.89179E-05-1.08533E-06 5.55893E-19-1.32149E-18
 -1      2428 9.59163E-05-2.85942E-05-2.88513E-05-9.55031E-07 6.68175E-19-6.97342E-19
 -1      2429 9.57584E-05-2.84908E-05-2.88316E-05-1.06857E-06 7.81751E-19 8.55147E-20
 -1      2430 9.65348E-05-2.86801E-05-2.90711E-05-1.43941E-06 7.30204E-19-1.04763E-18
 -1      2431 9.62730E-05-2.86365E-05-2.89855E-05-1.26512E-06 8.27246E-19-9.83824E-19
 -1      2432 9.60273E-05-2.84842E-05-2.89503E-05-1.40540E-06 5.57274E-19-7.06802E-19
 -1      2433 9.70714E-05-2.87586E-05-2.92651E-05-1.90023E-06-1.53605E-19-1.30916E-18
 -1      2434 9.67316E-05-2.86974E-05-2.91555E-05-1.67435E-06 3.82404E-19-1.11599E-18
 -1      2435 9.63683E-05-2.84830E-05-2.90976E-05-1.85160E-06 5.39484E-19-5.09026E-19
 -1      2436 9.77563E-05-2.88700E-05-2.95083E-05-2.48314E-06-9.28354E-19-1.41799E-18
 -1      2437 9.73190E-05-2.87846E-05-2.93695E-05-2.19844E-06-8.39821E-19-1.17518E-18
 -1      2438 9.67995E-05-2.84920E-05-2.92792E-05-2.42433E-06-3.63174E-19-4.42226E-19
 -1      2439 9.86211E-05-2.90277E-05-2.98088E-05-3.19982E-06-7.81033E-19-1.96700E-18
 -1      2440 9.80652E-05-2.89091E-05-2.96356E-05-2.85138E-06-6.71347E-19-1.94807E-18
 -1      2441 9.73410E-05-2.85196E-05-2.95001E-05-3.13925E-06-4.41185E-19-1.57860E-18
 -1      2442 9.96988E-05-2.92523E-05-3.01724E-05-4.05187E-06-1.85729E-19-1.33691E-18
 -1      2443 9.90028E-05-2.90875E-05-2.99607E-05-3.64076E-06-7.40754E-19-1.98456E-18
 -1      2444 9.80154E-05-2.85805E-05-2.97636E-05-4.00627E-06-5.67704E-19-1.72732E-18
 -1      2445 1.01024E-04-2.95763E-05-3.06006E-05-5.01940E-06 2.55240E-19-1.26756E-18
 -1      2446 1.00167E-04-2.93463E-05-3.03487E-05-4.55927E-06 8.83247E-20-1.49933E-18
 -1      2447 9.88497E-05-2.87018E-05-3.00697E-05-5.02161E-06-1.07792E-19-2.26054E-18
 -1      2448 1.02630E-04-3.00526E-05-3.10870E-05-6.04190E-06 9.84610E-20-1.19151E-18
 -1      2449 1.01598E-04-2.97286E-05-3.07978E-05-5.56994E-06 2.51222E-19-1.01278E-18
 -1      2450 9.98790E-05-2.89324E-05-3.04130E-05-6.15467E-06 6.26275E-20-2.25449E-18
 -1      2451 1.04553E-04-3.07646E-05-3.16126E-05-6.98875E-06 6.27780E-20-5.01303E-19
 -1      2452 1.03341E-04-3.03046E-05-3.12968E-05-6.58214E-06 2.88379E-19-7.32802E-19
 -1      2453 1.01156E-04-2.93574E-05-3.07801E-05-7.32662E-06-1.22302E-19-1.94615E-18
 -1      2454 1.06827E-04-3.18357E-05-3.21424E-05-7.61873E-06-7.31018E-19-1.32073E-18
 -1      2455 1.05449E-04-3.11836E-05-3.18216E-05-7.41584E-06-2.47532E-19-6.50208E-19
 -1      2456 1.02765E-04-3.01169E-05-3.11483E-05-8.37837E-06 8.34559E-20-1.40667E-18
 -1      2457 1.09482E-04-3.34189E-05-3.26256E-05-7.53724E-06-3.78159E-19-1.70720E-18
 -1      2458 1.07987E-04-3.25177E-05-3.23334E-05-7.75548E-06-9.74181E-19-1.17116E-18
 -1      2459 1.04842E-04-3.14187E-05-3.14879E-05-9.02697E-06-4.65742E-19-1.74841E-18
 -1      2460 1.12505E-04-3.56277E-05-3.30077E-05-6.18239E-06-1.16078E-18-4.34885E-19
 -1      2461 1.11007E-04-3.44680E-05-3.27853E-05-7.10948E-06-5.45091E-19-1.10269E-18
 -1      2462 1.07576E-04-3.35144E-05-3.17737E-05-8.81786E-06-1.12510E-18-3.37390E-19
 -1      2463 1.15731E-04-3.83412E-05-3.32617E-05-2.91560E-06 1.36061E-19 1.27879E-19
 -1      2464 1.14468E-04-3.70767E-05-3.31428E-05-4.82731E-06-9.50708E-19-4.12591E-19
 -1      2465 1.11158E-04-3.65702E-05-3.20130E-05-7.10475E-06-1.12751E-18 5.14494E-19
 -1      2466 1.18617E-04-4.08232E-05-3.34495E-05 2.64318E-06 4.40960E-19 1.84971E-18
 -1      2467 1.18022E-04-3.99632E-05-3.34252E-05-2.84100E-07 5.60418E-19 7.44722E-19
 -1      2468 1.15578E-04-4.03429E-05-3.22918E-05-3.14206E-06-1.31495E-19 1.17682E-18
 -1      2469 1.20025E-04-4.14135E-05-3.37688E-05 9.81936E-06 5.12759E-19 2.42538E-18
 -1      2470 1.20640E-04-4.18548E-05-3.37711E-05 6.48763E-06 4.89962E-19 2.49566E-18
 -1      2471 1.20110E-04-4.35073E-05-3.28419E-05 3.51874E-06 1.41425E-19 2.31800E-18
 -1      2472 1.18570E-04-3.81613E-05-3.44616E-05 1.60249E-05-3.59941E-19 2.52935E-18
 -1      2473 1.20753E-04-4.07326E-05-3.43833E-05 1.37628E-05 2.38572E-19 2.66291E-18
 -1      2474 1.23017E-04-4.36758E-05-3.40043E-05 1.18195E-05-1.32058E-19 2.02142E-18
 -1      2475 1.13743E-04-3.07208E-05-3.55493E-05 1.66515E-05-2.29167E-18 2.28039E-18
 -1      2476 1.16905E-04-3.47940E-05-3.53840E-05 1.76254E-05-1.03007E-18 2.83175E-18
 -1      2477 1.22129E-04-3.84067E-05-3.59079E-05 1.83038E-05-7.37117E-19 1.36596E-18
 -1      2478 1.08758E-04-2.38254E-05-3.64440E-05 8.90654E-06-2.46058E-18 2.39170E-18
 -1      2479 1.11032E-04-2.66662E-05-3.63729E-05 1.34259E-05-2.49726E-18 2.62446E-18
 -1      2480 1.17187E-04-2.83350E-05-3.82227E-05 1.71321E-05-2.26984E-18 1.94553E-18
 -1      2481 1.07976E-04-2.35068E-05-3.63829E-05-3.42680E-06-4.37943E-19 1.55539E-18
 -1      2482 1.07756E-04-2.26391E-05-3.65778E-05 2.03161E-06-1.81826E-18 2.27245E-18
 -1      2483 1.12941E-04-2.13478E-05-3.95250E-05 6.34704E-06-2.12542E-18 9.01332E-19
 -1      2484 1.11800E-04-2.99800E-05-3.52962E-05-1.18359E-05 1.24375E-18 1.97326E-18
 -1      2485 1.09681E-04-2.63783E-05-3.56770E-05-8.97890E-06 1.26406E-18 1.54981E-18
 -1      2486 1.13831E-04-2.37087E-05-3.88474E-05-7.14604E-06 3.92917E-19 1.34916E-19
 -1      2487 1.15853E-04-3.72545E-05-3.38364E-05-1.17436E-05 1.39048E-18 1.13882E-18
 -1      2488 1.13815E-04-3.39736E-05-3.41993E-05-1.25826E-05 1.02674E-18 1.61988E-18
 -1      2489 1.18134E-04-3.28756E-05-3.66050E-05-1.34948E-05 1.60195E-18-1.82483E-19
 -1      2490 1.16459E-04-4.04002E-05-3.26314E-05-5.60740E-06 1.83430E-18 2.92420E-19
 -1      2491 1.15848E-04-3.92173E-05-3.28843E-05-8.58234E-06 1.73912E-18 1.10339E-18
 -1      2492 1.20474E-04-4.08856E-05-3.40926E-05-1.02484E-05 2.05837E-18-1.15632E-18
 -1      2493 1.13660E-04-3.93054E-05-3.18421E-05 1.71212E-06 2.95727E-18-1.01872E-18
 -1      2494 1.14497E-04-3.99436E-05-3.20416E-05-1.43791E-06 2.39450E-18 5.54959E-19
 -1      2495 1.18390E-04-4.30888E-05-3.22612E-05-2.21861E-06 2.29174E-18-1.56386E-18
 -1      2496 1.09184E-04-3.60570E-05-3.12984E-05 7.13581E-06 1.60033E-18 1.45736E-19
 -1      2497 1.10927E-04-3.75836E-05-3.15255E-05 4.94462E-06 1.99875E-18-9.28146E-20
 -1      2498 1.13461E-04-4.05831E-05-3.12684E-05 5.36930E-06 2.43221E-18-1.08910E-18
 -1      2499 1.04451E-04-3.23314E-05-3.08560E-05 9.67635E-06 8.39324E-20 1.28504E-18
 -1      2500 1.06533E-04-3.40747E-05-3.11220E-05 8.79524E-06 7.90216E-19 1.09260E-18
 -1      2501 1.07857E-04-3.60830E-05-3.08060E-05 1.01661E-05 7.00983E-19 1.43158E-19
 -1      2502 1.00106E-04-2.88805E-05-3.04798E-05 9.40385E-06-1.94057E-20 2.25616E-18
 -1      2503 1.02161E-04-3.05048E-05-3.07470E-05 9.79941E-06 2.86070E-19 2.33816E-18
 -1      2504 1.02794E-04-3.14087E-05-3.06251E-05 1.18030E-05-3.42320E-19 2.07226E-18
 -1      2505 9.82088E-05-2.73168E-05-3.03844E-05 8.14364E-06-3.22378E-19 1.73343E-18
 -1      2506 8.66720E-05-1.42610E-05-3.11424E-05 1.26746E-05 5.92845E-19-8.61820E-19
 -1      2507 8.87958E-05-1.63539E-05-3.09983E-05 1.44626E-05 1.67352E-19-3.22592E-18
 -1      2508 8.32935E-05-1.09025E-05-3.11240E-05 6.51527E-06 1.21347E-18 2.17992E-18
 -1      2509 8.46601E-05-1.21810E-05-3.10497E-05 9.68273E-06 5.77491E-19 6.96446E-19
 -1      2510 8.47463E-05-1.53914E-05-2.96799E-05 1.28824E-05 1.20252E-18-4.18080E-19
 -1      2511 9.48871E-05-2.27734E-05-3.09292E-05 1.49802E-05-7.78321E-19-2.74639E-18
 -1      2512 9.64780E-05-2.47705E-05-3.06916E-05 1.40615E-05-2.17722E-19-4.10208E-18
 -1      2513 9.10500E-05-1.86862E-05-3.10853E-05 1.54396E-05-9.04006E-19-3.81263E-18
 -1      2514 9.30953E-05-2.09057E-05-3.08833E-05 1.56981E-05-5.30603E-19-2.73952E-18
 -1      2515 9.50955E-05-2.44288E-05-3.02979E-05 1.71598E-05 1.52201E-21-3.32498E-18
 -1      2516 9.00898E-05-2.00535E-05-3.00088E-05 1.69987E-05 8.60989E-19-2.63429E-18
 -1      2517 8.25158E-05-1.00741E-05-3.10923E-05-1.56980E-06-6.21833E-19 9.74617E-19
 -1      2518 8.24962E-05-1.00810E-05-3.10845E-05 2.15336E-06-3.86244E-20 1.27143E-18
 -1      2519 8.13002E-05-1.23297E-05-2.94602E-05 5.00088E-06 3.62388E-19 7.31585E-19
 -1      2520 8.47779E-05-1.22426E-05-3.10698E-05-9.04833E-06-1.65002E-18 1.96711E-18
 -1      2521 8.33818E-05-1.09819E-05-3.11312E-05-5.91368E-06-1.84363E-18 1.77584E-18
 -1      2522 8.13780E-05-1.24139E-05-2.94568E-05-4.43396E-06-8.75604E-19-3.87551E-20
 -1      2523 8.89720E-05-1.64780E-05-3.10151E-05-1.37194E-05-2.86674E-19 2.60173E-18
 -1      2524 8.68505E-05-1.44184E-05-3.11531E-05-1.19947E-05-1.22877E-18 3.49567E-18
 -1      2525 8.49725E-05-1.56524E-05-2.96598E-05-1.22651E-05-1.79312E-19 2.46803E-18
 -1      2526 9.32510E-05-2.10871E-05-3.08702E-05-1.48414E-05 6.17145E-19-1.96479E-19
 -1      2527 9.12518E-05-1.89074E-05-3.10794E-05-1.46580E-05 5.32256E-19 2.99161E-19
 -1      2528 9.03092E-05-2.04721E-05-2.99383E-05-1.63061E-05 1.17780E-18 9.81168E-19
 -1      2529 9.64209E-05-2.49210E-05-3.06009E-05-1.31514E-05 1.55724E-18 2.08268E-18
 -1      2530 9.50090E-05-2.30386E-05-3.08655E-05-1.41094E-05 2.29149E-19 3.99594E-20
 -1      2531 9.52318E-05-2.50086E-05-3.01361E-05-1.63670E-05 5.28191E-19 1.78528E-19
 -1      2532 9.79696E-05-2.73740E-05-3.02377E-05-9.98160E-06 5.96668E-19 6.03180E-19
 -1      2533 9.72856E-05-2.60389E-05-3.05155E-05-1.14576E-05 1.31440E-18 2.00081E-18
 -1      2534 9.84419E-05-2.81553E-05-3.01618E-05-1.36699E-05 1.15746E-18 1.15461E-18
 -1      2535 9.82006E-05-2.85434E-05-2.98383E-05-6.57412E-06 3.97775E-20 1.48525E-19
 -1      2536 9.80918E-05-2.77608E-05-3.00959E-05-8.04818E-06 1.96878E-19 2.27392E-20
 -1      2537 9.97021E-05-2.96590E-05-3.00118E-05-9.82989E-06 7.84587E-19-9.25272E-20
 -1      2538 2.97562E-05-2.32390E-05-2.41453E-06 2.20458E-05-2.17687E-19-2.24273E-18
 -1      2539 2.31138E-05-2.00389E-05-8.77296E-07 4.82456E-06-1.62739E-18 2.89474E-18
 -1      2540 2.32479E-05-2.15003E-05-5.00606E-07-1.21627E-05 4.00435E-19 4.55746E-18
 -1      2541 3.11090E-05-2.59886E-05-1.96426E-06-2.73816E-05 2.41680E-18 8.15608E-18
 -1      2542 9.36208E-05-2.74716E-05-2.83382E-05 3.73388E-07 8.84878E-19 5.88822E-19
 -1      2543 9.39039E-05-2.73358E-05-2.84854E-05 9.06846E-07 1.04545E-18 8.14073E-19
 -1      2544 9.42655E-05-2.74890E-05-2.86322E-05 4.07561E-07 9.29356E-19 3.07546E-19
 -1      2545 9.69344E-05-2.81375E-05-2.95050E-05-3.82664E-06 1.39880E-18-4.84562E-19
 -1      2546 1.03081E-04-5.79225E-05-1.93450E-05 4.41499E-05 3.87793E-18-2.30764E-18
 -1      2547 8.73252E-05-5.29751E-05-1.43968E-05 4.45166E-05 4.46937E-18-5.11804E-18
 -1      2548 9.50714E-05-2.00244E-05-3.22122E-05-1.17500E-05-1.78954E-18-1.29368E-18
 -1      2549 9.54810E-05-2.33674E-05-3.09275E-05-7.96512E-06-1.60160E-18-1.06969E-18
 -1      2550 9.50715E-05-2.25754E-05-3.10503E-05-7.64546E-06-1.42643E-18-1.42607E-18
 -1      2551 9.32123E-05-1.76195E-05-3.24157E-05-1.14111E-05-1.70324E-18-1.73409E-18
 -1      2552 1.52317E-04-5.20385E-05-4.34212E-05 8.43040E-06-3.67348E-19-2.23617E-18
 -1      2553 1.43652E-04-5.82281E-05-3.66818E-05 1.70576E-05 6.45121E-19-1.70042E-18
 -1      2554 1.47432E-04-1.15593E-05-5.87279E-05-4.61535E-06-8.68209E-19 3.27209E-18
 -1      2555 1.47093E-04-1.54473E-05-5.68448E-05-7.25407E-06-2.60251E-19 2.63914E-18
 -1      2556 3.02885E-05-2.44773E-05-2.27928E-06 2.79585E-05-5.60312E-19 2.47757E-18
 -1      2557 2.12210E-05-2.23489E-05 7.75658E-07 1.46619E-05-9.96534E-19 2.64528E-18
 -1      2558 8.78420E-05-1.08004E-05-3.30536E-05-1.51895E-06 3.10676E-19-2.62192E-18
 -1      2559 8.79472E-05-1.09222E-05-3.30449E-05-2.63799E-06 8.31114E-20-2.70909E-18
 -1      2560 8.93466E-05-1.30950E-05-3.26812E-05-2.93151E-06 3.29528E-22-2.53996E-18
 -1      2561 8.90983E-05-1.27604E-05-3.27195E-05-9.41458E-07 3.80742E-19-2.46390E-18
 -1      2562 1.55101E-04-1.45234E-05-6.04971E-05 5.99963E-06-3.83282E-19-3.94844E-18
 -1      2563 1.54621E-04-1.33228E-05-6.08544E-05 3.03974E-06-8.07222E-19-3.87597E-18
 -1      2564 1.53619E-04-1.63118E-05-5.91794E-05-1.45727E-06-9.47406E-19-3.59354E-18
 -1      2565 1.52010E-04-2.09709E-05-5.65379E-05-4.17536E-06-6.32945E-19-3.08701E-18
 -1      2566 1.51343E-04-2.50605E-05-5.45629E-05 1.09957E-05 4.58880E-19-3.86416E-18
 -1      2567 1.55058E-04-1.91886E-05-5.83833E-05 8.78904E-06 2.27428E-19-4.06618E-18
 -1      2568 1.35684E-04-6.13759E-05-3.20107E-05-1.68263E-05-1.21390E-18-8.07434E-19
 -1      2569 1.43915E-04-5.82043E-05-3.71892E-05-9.16142E-06-8.50845E-19-1.25742E-18
 -1      2570 1.33328E-04-5.93400E-05-3.20286E-05 2.10055E-05-4.99008E-19 7.62012E-19
 -1      2571 1.20751E-04-5.99879E-05-2.59777E-05 2.90554E-05-5.85512E-20-6.36969E-19
 -1      2572 1.09665E-04-5.96947E-05-2.12293E-05-3.23359E-05-2.70627E-18-2.99648E-18
 -1      2573 1.25247E-04-6.19882E-05-2.72809E-05-2.72207E-05-2.21414E-18-1.63340E-18
 -1      2574 1.32459E-04-6.37668E-05-2.93426E-05-1.74283E-05-1.82451E-18-1.44853E-18
 -1      2575 2.82077E-05-2.56319E-05-8.25865E-07-2.18627E-05-1.92552E-18 1.37219E-19
 -1      2576 4.13471E-05-3.05191E-05-4.40245E-06-3.24880E-05-1.15196E-18-3.60624E-19
 -1      2577 1.80784E-05-2.03949E-05 1.22220E-06 3.47817E-06-1.05993E-18 1.39803E-18
 -1      2578 2.05888E-05-2.04184E-05 2.58512E-07-1.05239E-05-1.60153E-18 4.66715E-19
 -1      2579 2.68633E-05-1.69310E-05-3.67108E-06 8.62163E-06-4.15496E-19 2.33802E-18
 -1      2580 6.30072E-05-4.05241E-05-9.52105E-06 4.35819E-05-1.14985E-18 4.75715E-19
 -1      2581 4.88256E-05-3.34746E-05-6.07645E-06 3.77807E-05-7.21672E-19 1.11597E-18
 -1      2582 1.03862E-04-5.61785E-05-2.05163E-05 3.98476E-05-6.77626E-20-2.21666E-18
 -1      2583 8.21787E-05-4.95736E-05-1.37609E-05 4.21928E-05-5.78947E-19-1.14196E-18
 -1      2584 8.18449E-05-4.60542E-05-1.48600E-05 4.08434E-05-1.81689E-19-5.10920E-19
 -1      2585 1.50104E-04-2.36919E-05-5.47152E-05-7.33103E-06-8.31786E-19 2.30816E-18
 -1      2586 1.50288E-04-3.04801E-05-5.15453E-05-6.46111E-06-8.21834E-19 1.96003E-18
 -1      2587 1.27514E-04-6.12649E-05-2.82067E-05-3.13181E-05 8.80914E-20 2.84201E-18
 -1      2588 1.40172E-04-5.94673E-05-3.50727E-05-2.31594E-05-1.71376E-18 1.85077E-19
 -1      2589 1.50092E-04-3.09209E-05-5.13265E-05 3.93392E-06-1.97189E-18-4.74762E-19
 -1      2590 1.48715E-04-2.34088E-05-5.42933E-05 4.38878E-06-1.66823E-18-5.97158E-19
 -1      2591 1.47621E-04-5.13464E-05-4.12528E-05-9.22801E-06-2.08428E-18-1.37304E-18
 -1      2592 1.52239E-04-4.21921E-05-4.76286E-05-2.63752E-06-2.57794E-18-9.99711E-19
 -1      2593 1.45478E-04-3.80653E-05-4.62053E-05 5.26252E-06-6.51368E-19-3.32990E-18
 -1      2594 8.87288E-05-5.39408E-05-1.47244E-05-4.48708E-05 2.34988E-18 5.74100E-18
 -1      2595 1.09524E-04-5.88864E-05-2.19539E-05-4.28069E-05 1.34594E-18 5.24504E-18
 -1      2596 4.63064E-05-3.57584E-05-4.29731E-06-3.83023E-05 4.81199E-18 1.00727E-17
 -1      2597 6.58921E-05-4.46643E-05-9.19552E-06-4.67554E-05 3.29623E-18 7.49010E-18
 -1      2598 9.63346E-05-2.50956E-05-3.05569E-05 7.59492E-06 1.98129E-18 1.63675E-18
 -1      2599 9.74563E-05-2.37790E-05-3.15974E-05 1.06944E-05 2.11578E-18 1.90193E-18
 -1      2600 9.58904E-05-2.13035E-05-3.20217E-05 1.18964E-05 2.32091E-18 1.16373E-18
 -1      2601 9.58789E-05-2.41618E-05-3.07691E-05 7.68652E-06 2.00380E-18 7.68974E-19
 -1      2602 1.33197E-04-6.19790E-05-3.07335E-05 2.99803E-05 2.03860E-18-1.75039E-18
 -1      2603 1.17287E-04-6.15307E-05-2.39435E-05 3.62308E-05 2.57943E-18-1.60015E-18
 -1      2604 1.17161E-04-6.21707E-05-2.33864E-05 3.62150E-05 3.77586E-18-1.35123E-18
 -1      2605 1.42906E-04-1.30286E-05-5.58347E-05-1.12352E-06-4.33469E-19-3.69116E-18
 -1      2606 9.08020E-05-1.50397E-05-3.24573E-05-6.81275E-06-7.17295E-19-2.57801E-18
 -1      2607 8.97002E-05-1.31879E-05-3.28441E-05-7.95785E-06-8.42162E-19-2.69428E-18
 -1      2608 9.03323E-05-1.39107E-05-3.28168E-05-9.17313E-06-1.17297E-18-2.55560E-18
 -1      2609 9.47317E-05-2.69392E-05-2.90666E-05 1.88761E-06 1.30693E-18 4.95331E-19
 -1      2610 9.42459E-05-1.90818E-05-3.22584E-05 1.16055E-05 2.32668E-18 2.44832E-19
 -1      2611 1.40481E-04-6.30701E-05-3.30437E-05 1.79961E-05 2.16851E-18-1.57887E-18
 -1      2612 4.68299E-05-2.93435E-05-6.91088E-06-3.34540E-05 2.46794E-18 8.60670E-18
 -1      2613 1.48814E-04-4.83166E-05-4.30849E-05-2.52092E-06-8.13152E-20-2.08116E-18
 -1      2614 1.43925E-04-5.75275E-05-3.69894E-05-1.16364E-05-1.23550E-18-2.24210E-18
 -1      2615 8.07952E-05-4.78736E-05-1.36353E-05 4.46681E-05 4.46196E-18-5.61837E-18
 -1      2616 1.22132E-04-6.23695E-05-2.53547E-05-3.44872E-05 1.86707E-18 2.84370E-18
 -1      2617 9.85412E-05-2.73390E-05-3.05144E-05 1.05444E-05-5.10812E-19 7.25462E-19
 -1      2618 3.14026E-05-1.78477E-05-5.12968E-06-3.30500E-06-1.23597E-18 2.54110E-18
 -1      2619 9.79526E-05-2.63595E-05-3.06852E-05 1.19357E-05-3.61230E-20-4.76542E-19
 -1      2620 9.89936E-05-2.79017E-05-3.04879E-05 1.41190E-05-7.46798E-19-1.65015E-18
 -1      2621 4.03525E-05-2.65189E-05-5.38833E-06 2.91733E-05 1.43360E-19-5.50360E-18
 -1      2622 4.08887E-05-1.96223E-05-8.53746E-06 2.20616E-05-2.86144E-18-1.89397E-18
 -1      2623 5.20473E-05-2.97994E-05-9.44570E-06 3.55589E-05 4.58351E-19-6.30997E-18
 -1      2624 1.15641E-04-5.92222E-05-2.38589E-05 3.11055E-05-9.28560E-20-8.74403E-19
 -1      2625 9.47158E-05-2.06033E-05-3.17181E-05 9.67261E-06 2.09561E-18 3.95194E-20
 -1      2626 9.20546E-05-1.62358E-05-3.25339E-05-1.03971E-05-1.44155E-18-2.09371E-18
 -1      2627 1.02066E-04-5.67503E-05-1.91747E-05-3.54637E-05-1.95982E-18-2.39521E-18
 -1      2628 1.38365E-04-9.58319E-06-5.56032E-05-3.49851E-06-4.43422E-19 1.41280E-18
 -1      2629 1.39587E-04-1.83031E-05-5.22491E-05-1.11916E-05-4.11234E-19 2.64804E-18
 -1      2630 1.39182E-04-5.77883E-05-3.49360E-05 1.17750E-05-9.82082E-19 1.13799E-18
 -1      2631 1.34084E-04-6.00831E-05-3.15603E-05 1.32262E-05 1.72742E-19 2.00429E-18
 -1      2632 1.41217E-04-5.42998E-05-3.79680E-05 2.43941E-06-6.79559E-19 1.00373E-18
 -1      2633 5.15072E-05-2.93086E-05-8.90676E-06-3.23309E-05-7.42742E-19-2.17878E-18
 -1      2634 5.63714E-05-3.59945E-05-8.22397E-06-3.66664E-05-5.17961E-19-1.99370E-18
 -1      2635 7.13228E-05-4.11255E-05-1.28168E-05-3.71690E-05-6.46710E-19-1.24101E-18
 -1      2636 1.50109E-04-3.27829E-05-5.06341E-05 1.36394E-05-9.80441E-20-3.79661E-18
 -1      2637 1.40975E-04-2.64770E-05-4.96311E-05 1.73074E-05-5.02926E-19-4.58118E-18
 -1      2638 1.45274E-04-3.83093E-05-4.59202E-05 1.50480E-05-7.24319E-19-3.47114E-18
 -1      2639 4.53352E-05-2.70652E-05-7.30342E-06 3.22610E-05-6.10923E-19 1.54499E-18
 -1      2640 1.46265E-04-3.81466E-05-4.65463E-05-6.10251E-06-1.00575E-18 1.29427E-18
 -1      2641 1.46925E-04-5.48017E-05-3.94882E-05 4.43332E-07-8.76170E-19-1.86771E-18
 -1      2642 1.45392E-04-5.06019E-05-4.14579E-05 9.89668E-06-5.59148E-19-2.30372E-18
 -1      2643 1.41861E-04-5.80803E-05-3.58082E-05-3.06162E-07-1.22530E-18-1.89820E-18
 -1      2644 1.44206E-04-2.57466E-05-5.08733E-05-9.78038E-06-4.35375E-19-2.44602E-18
 -1      2645 1.43039E-04-1.42187E-05-5.53436E-05 1.04837E-05 2.45640E-19-4.48313E-18
 -1      2646 3.07784E-05-1.97373E-05-4.14420E-06-1.56467E-05-1.01607E-18 2.11335E-19
 -1      2647 1.41185E-04-1.82447E-05-5.31399E-05 7.03166E-06-1.26398E-18-1.77496E-18
 -1      2648 9.82842E-05-2.94468E-05-2.94773E-05-3.71023E-06 9.36702E-19 1.42432E-19
 -1      2649 9.82163E-05-2.88391E-05-2.97029E-05-5.17779E-06 3.37532E-19 1.73369E-19
 -1      2650 9.96712E-05-3.02789E-05-2.97779E-05-6.36901E-06-5.89605E-19 6.90050E-19
 -1      2651 9.91691E-05-3.03268E-05-2.95504E-05-3.70790E-06 9.13956E-20-1.54732E-19
 -1      2652 8.44745E-05-4.98277E-05-1.44252E-05-4.53091E-05 3.68629E-18 6.52829E-18
 -1      2653 1.00682E-04-3.13749E-05-2.96874E-05-4.62161E-06-5.75771E-19 3.31066E-19
 -1      2654 9.05601E-05-1.51761E-05-3.23298E-05 3.19729E-06 1.16980E-18-2.05162E-18
 -1      2655 9.03706E-05-1.49050E-05-3.23626E-05 2.26291E-06 9.73401E-19-2.16252E-18
 -1      2656 9.02364E-05-1.47022E-05-3.23916E-05 1.42326E-06 7.95891E-19-2.24483E-18
 -1      2657 9.01712E-05-1.46097E-05-3.24027E-05 4.65713E-07 6.03457E-19-2.21285E-18
 -1      2658 9.14230E-05-1.65978E-05-3.20549E-05 1.64250E-06 8.31100E-19-2.09730E-18
 -1      2659 9.21429E-05-1.75537E-05-3.20048E-05 6.47717E-06 1.69518E-18-1.39884E-18
 -1      2660 9.16179E-05-1.67590E-05-3.21048E-05 5.63740E-06 1.60879E-18-1.59325E-18
 -1      2661 9.35610E-05-1.97760E-05-3.16643E-05 7.59986E-06 1.83964E-18-8.59305E-19
 -1      2662 9.27715E-05-1.85226E-05-3.18380E-05 7.02247E-06 1.73772E-18-1.08534E-18
 -1      2663 9.34370E-05-1.98688E-05-3.15064E-05 5.73842E-06 1.55875E-18-1.14139E-18
 -1      2664 9.52177E-05-2.54101E-05-2.99299E-05 3.98148E-06 1.51740E-18 9.52883E-20
 -1      2665 9.55549E-05-2.45602E-05-3.03938E-05 5.61361E-06 1.60195E-18 1.09189E-19
 -1      2666 9.28803E-05-1.80092E-05-3.20745E-05-8.83614E-06-1.31832E-18-2.01188E-18
 -1      2667 9.47069E-05-2.19077E-05-3.12064E-05 7.84500E-06 1.89076E-18-9.70680E-20
 -1      2668 9.49780E-05-2.66902E-05-2.92719E-05 1.78466E-06 1.14687E-18 2.41924E-19
 -1      2669 9.52461E-05-2.61932E-05-2.95570E-05 2.79286E-06 1.32677E-18 2.02600E-19
 -1      2670 9.52716E-05-2.50222E-05-3.01038E-05 3.82469E-06 1.39265E-18-2.41423E-19
 -1      2671 1.38755E-04-6.07334E-05-3.31619E-05-1.35188E-05-4.43501E-19-3.30173E-18
 -1      2672 1.42362E-04-5.43010E-05-3.83746E-05-3.09701E-06-8.56125E-19-4.05009E-18
 -1      2673 1.15347E-04-6.02860E-05-2.31227E-05-3.61844E-05 3.43684E-18 3.26076E-18
 -1      2674 1.29113E-04-6.37230E-05-2.85073E-05-2.77832E-05 1.46590E-18-6.11822E-19
 -1      2675 9.54072E-05-2.59411E-05-2.97311E-05-2.69011E-06-9.32783E-19-1.17813E-18
 -1      2676 9.51992E-05-2.65069E-05-2.94549E-05-1.72660E-06-7.95092E-19-1.13926E-18
 -1      2677 9.52144E-05-2.70057E-05-2.92086E-05-9.83460E-07-8.67178E-19-1.02632E-18
 -1      2678 9.50805E-05-2.73618E-05-2.90287E-05-3.80555E-07-8.23496E-19-1.10249E-18
 -1      2679 9.54169E-05-2.63309E-05-2.96134E-05-1.62707E-06-8.47750E-19-1.22832E-18
 -1      2680 9.50479E-05-2.76679E-05-2.88612E-05 8.47517E-08-6.83851E-19-1.01063E-18
 -1      2681 9.49700E-05-2.78923E-05-2.87505E-05 4.34792E-07-6.52727E-19-9.32050E-19
 -1      2682 9.54165E-05-2.73283E-05-2.91880E-05-3.47018E-07-7.75684E-19-1.18871E-18
 -1      2683 9.49278E-05-2.80776E-05-2.86398E-05 7.03008E-07-6.41671E-19-8.80839E-19
 -1      2684 9.48991E-05-2.82242E-05-2.85760E-05 8.85255E-07-7.06343E-19-1.02857E-18
 -1      2685 9.53553E-05-2.79431E-05-2.88977E-05 4.39951E-07-7.13714E-19-1.16469E-18
 -1      2686 9.48640E-05-2.83358E-05-2.85060E-05 1.01844E-06-6.20469E-19-8.92472E-19
 -1      2687 9.48706E-05-2.84325E-05-2.84734E-05 1.09255E-06-2.88648E-19-9.12755E-19
 -1      2688 9.52908E-05-2.83235E-05-2.87057E-05 8.79597E-07-5.94003E-19-1.10277E-18
 -1      2689 9.48461E-05-2.84974E-05-2.84319E-05 1.13727E-06-1.41164E-19-8.38974E-19
 -1      2690 9.48747E-05-2.85602E-05-2.84199E-05 1.14424E-06-1.73555E-19-8.62399E-19
 -1      2691 9.52413E-05-2.85545E-05-2.85841E-05 1.08367E-06-1.50617E-19-9.20565E-19
 -1      2692 9.48598E-05-2.85944E-05-2.83981E-05 1.13430E-06-1.78372E-19-7.32100E-19
 -1      2693 9.49003E-05-2.86334E-05-2.83992E-05 1.10243E-06-2.30557E-19-4.45374E-19
 -1      2694 9.52094E-05-2.86873E-05-2.85124E-05 1.13562E-06-2.05545E-19-5.22016E-19
 -1      2695 9.48929E-05-2.86470E-05-2.83910E-05 1.06197E-06-2.41312E-19-5.04711E-19
 -1      2696 9.49385E-05-2.86689E-05-2.84001E-05 1.01084E-06-3.83400E-20-5.77874E-19
 -1      2697 9.51922E-05-2.87543E-05-2.84755E-05 1.09604E-06-1.61028E-19-4.93507E-19
 -1      2698 9.49364E-05-2.86687E-05-2.84011E-05 9.56911E-07-1.31015E-19-4.51458E-19
 -1      2699 9.49829E-05-2.86782E-05-2.84151E-05 9.00093E-07-2.06728E-20-6.72872E-19
 -1      2700 9.51860E-05-2.87766E-05-2.84626E-05 1.00816E-06-1.37683E-19-6.69958E-19
 -1      2701 9.49844E-05-2.86684E-05-2.84222E-05 8.44684E-07 4.83208E-21-9.28095E-19
 -1      2702 9.50297E-05-2.86686E-05-2.84391E-05 7.91664E-07-3.79945E-20-8.58196E-19
 -1      2703 9.51874E-05-2.87682E-05-2.84664E-05 9.02609E-07-1.73551E-19-7.42138E-19
 -1      2704 9.50336E-05-2.86520E-05-2.84506E-05 7.43320E-07-7.42004E-20-9.17309E-19
 -1      2705 9.50772E-05-2.86452E-05-2.84694E-05 7.00901E-07-3.55308E-19-7.98241E-19
 -1      2706 9.51939E-05-2.87383E-05-2.84817E-05 8.01094E-07-1.48684E-19-7.78723E-19
 -1      2707 9.50829E-05-2.86235E-05-2.84841E-05 6.65913E-07-3.87599E-19-6.92872E-19
 -1      2708 9.51254E-05-2.86111E-05-2.85044E-05 6.39243E-07-4.40206E-19-5.65440E-19
 -1      2709 9.52038E-05-2.86927E-05-2.85053E-05 7.19340E-07-2.69656E-19-7.60904E-19
 -1      2710 9.51326E-05-2.85850E-05-2.85219E-05 6.22567E-07-9.35298E-19-2.28705E-19
 -1      2711 9.51754E-05-2.85681E-05-2.85440E-05 6.15898E-07-1.07066E-18-2.84124E-19
 -1      2712 9.52165E-05-2.86346E-05-2.85356E-05 6.69268E-07-5.88277E-19-7.41871E-19
 -1      2713 9.51841E-05-2.85378E-05-2.85642E-05 6.21836E-07-1.23657E-18-2.64350E-19
 -1      2714 9.52297E-05-2.85170E-05-2.85888E-05 6.39064E-07-9.19475E-19-5.84813E-19
 -1      2715 9.52316E-05-2.85652E-05-2.85718E-05 6.60651E-07-1.11448E-18-3.37120E-19
 -1      2716 9.52401E-05-2.84822E-05-2.86121E-05 6.71738E-07-3.79542E-19-5.52259E-19
 -1      2717 9.52913E-05-2.84581E-05-2.86400E-05 7.16750E-07-3.12253E-19-5.18884E-19
 -1      2718 9.52496E-05-2.84848E-05-2.86140E-05 7.02316E-07-7.02791E-19 1.02846E-19
 -1      2719 9.53040E-05-2.84186E-05-2.86668E-05 7.80389E-07-3.95550E-19-2.06286E-19
 -1      2720 9.53644E-05-2.83919E-05-2.86992E-05 8.57215E-07-3.48038E-19 8.38986E-21
 -1      2721 9.52714E-05-2.83929E-05-2.86629E-05 8.02933E-07-1.55778E-19 7.36863E-19
 -1      2722 9.53804E-05-2.83476E-05-2.87301E-05 9.56241E-07-7.42223E-19 2.93856E-19
 -1      2723 9.54544E-05-2.83193E-05-2.87682E-05 1.06899E-06-4.05278E-19-3.39924E-20
 -1      2724 9.52985E-05-2.82891E-05-2.87191E-05 9.71406E-07-4.90627E-19 4.56524E-19
 -1      2725 9.54752E-05-2.82709E-05-2.88038E-05 1.20788E-06 2.47998E-19-2.22015E-20
 -1      2726 9.55678E-05-2.82432E-05-2.88486E-05 1.36040E-06 5.59169E-19-3.39882E-19
 -1      2727 9.53335E-05-2.81739E-05-2.87836E-05 1.21683E-06-1.82030E-19 5.77060E-19
 -1      2728 9.55958E-05-2.81923E-05-2.88892E-05 1.54326E-06 8.21405E-19-6.45812E-19
 -1      2729 9.57130E-05-2.81689E-05-2.89419E-05 1.73846E-06 1.10294E-18-1.05705E-18
 -1      2730 9.53804E-05-2.80501E-05-2.88569E-05 1.54795E-06 3.28837E-19-3.32363E-19
 -1      2731 9.57519E-05-2.81196E-05-2.89874E-05 1.96826E-06 1.22782E-18-1.46806E-18
 -1      2732 9.59009E-05-2.81066E-05-2.90484E-05 2.20696E-06 5.35173E-19-1.20604E-18
 -1      2733 9.54453E-05-2.79242E-05-2.89389E-05 1.97197E-06 8.88362E-19-1.36984E-18
 -1      2734 9.59570E-05-2.80661E-05-2.90982E-05 2.48431E-06 7.67659E-20-1.77016E-18
 -1      2735 9.61465E-05-2.80734E-05-2.91674E-05 2.76352E-06-7.48161E-20-1.48762E-18
 -1      2736 9.55383E-05-2.78092E-05-2.90284E-05 2.49260E-06 2.25536E-19-1.12235E-18
 -1      2737 9.62298E-05-2.80541E-05-2.92199E-05 3.08479E-06-6.88862E-19-1.32203E-18
 -1      2738 9.64709E-05-2.80971E-05-2.92961E-05 3.39522E-06-1.20629E-18-1.54116E-18
 -1      2739 9.56755E-05-2.77277E-05-2.91226E-05 3.10707E-06-4.19672E-19-1.25273E-18
 -1      2740 9.65973E-05-2.81188E-05-2.93487E-05 3.75001E-06-8.73900E-19-1.29325E-18
 -1      2741 9.69042E-05-2.82199E-05-2.94295E-05 4.07265E-06-2.02218E-19-8.23887E-19
 -1      2742 9.58826E-05-2.77164E-05-2.92170E-05 3.80194E-06-5.81815E-19-1.04019E-18
 -1      2743 9.70991E-05-2.83126E-05-2.94788E-05 4.44021E-06-2.68530E-19-7.17123E-19
 -1      2744 9.74902E-05-2.85036E-05-2.95603E-05 4.74206E-06-2.07448E-19-6.91011E-19
 -1      2745 9.62004E-05-2.78319E-05-2.93052E-05 4.54729E-06-1.22311E-19-9.04581E-19
 -1      2746 9.77919E-05-2.87099E-05-2.96022E-05 5.08655E-06 1.60284E-19-6.85889E-19
 -1      2747 9.82912E-05-2.90325E-05-2.96794E-05 5.31559E-06 2.19709E-19-9.36371E-19
 -1      2748 9.66914E-05-2.81560E-05-2.93793E-05 5.28897E-06-2.47846E-19-4.61688E-19
 -1      2749 9.87551E-05-2.94078E-05-2.97107E-05 5.57983E-06-1.23849E-19-1.02118E-18
 -1      2750 9.93910E-05-2.99110E-05-2.97787E-05 5.66008E-06-1.50925E-19-6.97559E-19
 -1      2751 9.74483E-05-2.87997E-05-2.94320E-05 5.93834E-06-2.95859E-19-1.50932E-19
 -1      2752 1.00091E-04-3.05187E-05-2.97993E-05 5.75764E-06 3.21705E-19-6.22942E-19
 -1      2753 1.00890E-04-3.12467E-05-2.98556E-05 5.58623E-06 5.61077E-19-1.74924E-19
 -1      2754 9.85992E-05-2.98981E-05-2.94607E-05 6.35872E-06 4.21409E-19 3.15017E-19
 -1      2755 1.01908E-04-3.21401E-05-2.98735E-05 5.39280E-06 6.98433E-19-3.63749E-19
 -1      2756 1.02878E-04-3.31033E-05-2.99225E-05 4.84390E-06 4.16697E-19-5.42185E-19
 -1      2757 1.00302E-04-3.15869E-05-2.94749E-05 6.34811E-06 5.69916E-19 2.57905E-19
 -1      2758 1.04278E-04-3.42831E-05-2.99601E-05 4.19401E-06 9.83228E-21-2.17414E-19
 -1      2759 1.05372E-04-3.54034E-05-3.00189E-05 3.14005E-06 2.30177E-19-2.70572E-19
 -1      2760 1.02710E-04-3.39357E-05-2.95087E-05 5.62255E-06 4.89300E-19-2.14079E-19
 -1      2761 1.07129E-04-3.67430E-05-3.01208E-05 1.84979E-06-1.52742E-19-3.62050E-19
 -1      2762 1.08193E-04-3.77777E-05-3.02241E-05 2.16903E-07-1.84797E-19-8.84767E-19
 -1      2763 1.05874E-04-3.68116E-05-2.96360E-05 3.82214E-06-5.36755E-19-1.79664E-21
 -1      2764 1.10093E-04-3.89283E-05-3.04607E-05-1.84486E-06 6.71939E-20-9.36077E-19
 -1      2765 1.10814E-04-3.93908E-05-3.06591E-05-3.97056E-06-4.67536E-19-3.57348E-19
 -1      2766 1.09577E-04-3.96869E-05-2.99839E-05 5.98083E-07-1.84656E-19-4.55995E-19
 -1      2767 1.12328E-04-3.97032E-05-3.11142E-05-6.68500E-06-6.73914E-19-1.13447E-19
 -1      2768 1.12275E-04-3.89297E-05-3.14598E-05-8.87803E-06-3.79059E-19 4.61772E-19
 -1      2769 1.13113E-04-4.14284E-05-3.07277E-05-4.20024E-06-2.74045E-19-1.13731E-18
 -1      2770 1.12611E-04-3.76491E-05-3.21885E-05-1.14713E-05-1.07853E-18 3.69884E-19
 -1      2771 1.11540E-04-3.52812E-05-3.26747E-05-1.28484E-05-1.42485E-18-2.37802E-19
 -1      2772 1.15061E-04-4.01979E-05-3.20405E-05-9.78501E-06-1.21621E-18-1.60730E-18
 -1      2773 1.10260E-04-3.21925E-05-3.35882E-05-1.40204E-05-1.02859E-18-3.15300E-19
 -1      2774 1.08422E-04-2.86834E-05-3.41076E-05-1.35102E-05-1.23609E-18-8.44169E-19
 -1      2775 1.14204E-04-3.50641E-05-3.38938E-05-1.40987E-05-1.76655E-18-9.39201E-19
 -1      2776 1.06210E-04-2.51652E-05-3.49087E-05-1.15558E-05-9.05002E-19-5.60091E-19
 -1      2777 1.04780E-04-2.24629E-05-3.52472E-05-8.90663E-06-9.46162E-20-6.28786E-19
 -1      2778 1.10303E-04-2.64711E-05-3.59114E-05-1.39460E-05-8.71293E-19 4.56008E-20
 -1      2779 1.03567E-04-2.07378E-05-3.55720E-05-4.49936E-06 6.93164E-19-6.86416E-19
 -1      2780 1.03414E-04-2.06661E-05-3.55292E-05-7.17346E-07 1.42272E-18-6.14297E-20
 -1      2781 1.06960E-04-2.04039E-05-3.71537E-05-7.53364E-06 3.71636E-20 2.76520E-19
 -1      2782 1.04428E-04-2.22387E-05-3.51831E-05 3.70767E-06 1.42294E-18 2.24254E-19
 -1      2783 1.05521E-04-2.47977E-05-3.47692E-05 6.48053E-06 4.81657E-19 1.11637E-18
 -1      2784 1.06800E-04-2.02366E-05-3.71766E-05 1.97088E-06 9.00542E-19-1.05006E-18
 -1      2785 1.07685E-04-2.83349E-05-3.39304E-05 8.46260E-06-2.79620E-19 3.01401E-19
 -1      2786 1.09178E-04-3.17383E-05-3.33280E-05 9.04532E-06-7.18866E-19-6.80852E-20
 -1      2787 1.09966E-04-2.63905E-05-3.58174E-05 8.64609E-06-3.85354E-19-1.56566E-18
 -1      2788 1.10445E-04-3.48228E-05-3.23855E-05 7.95678E-06-1.27793E-18 3.27708E-19
 -1      2789 1.11200E-04-3.70947E-05-3.18307E-05 6.63390E-06 3.64794E-19-1.13884E-18
 -1      2790 1.13660E-04-3.47055E-05-3.38011E-05 8.98191E-06-9.17140E-19-2.44998E-19
 -1      2791 1.10767E-04-3.82802E-05-3.10941E-05 4.04107E-06 1.59404E-18-1.52315E-18
 -1      2792 1.10455E-04-3.88076E-05-3.07043E-05 1.94253E-06 5.30420E-19-1.27235E-18
 -1      2793 1.14404E-04-3.97782E-05-3.19376E-05 4.77057E-06 1.98312E-19-1.83109E-18
 -1      2794 1.08716E-04-3.82196E-05-3.02693E-05-6.75497E-07 5.30621E-19-1.64026E-18
 -1      2795 1.07564E-04-3.73399E-05-3.00577E-05-2.57301E-06 7.09128E-19-1.73211E-18
 -1      2796 1.12096E-04-4.05565E-05-3.06609E-05-7.76808E-07 7.07624E-19-2.69555E-18
 -1      2797 1.05310E-04-3.57107E-05-2.98781E-05-4.33235E-06 9.75979E-19-9.63285E-19
 -1      2798 1.03763E-04-3.41440E-05-2.97988E-05-5.48099E-06 5.34648E-19-7.11317E-19
 -1      2799 1.07958E-04-3.79374E-05-3.00205E-05-5.16743E-06 1.20955E-18-2.80855E-18
 -1      2800 9.44741E-05-2.81294E-05-2.84332E-05-8.85355E-07 6.27220E-19-1.14762E-19
 -1      2801 9.44910E-05-2.80023E-05-2.84840E-05-7.10346E-07 5.73964E-19 1.02203E-19
 -1      2802 7.83045E-05-4.30861E-05-1.45503E-05-4.30305E-05 3.77088E-18 5.85956E-18
 -1      2803 9.74233E-05-5.30946E-05-1.90978E-05-4.33748E-05 3.25197E-18 4.79495E-18
 -1      2804 9.45517E-05-2.78514E-05-2.85867E-05-4.35201E-07 5.13793E-19 1.24350E-19
 -1      2805 9.46404E-05-2.76645E-05-2.86856E-05-9.20355E-08 6.42800E-19 2.04451E-19
 -1      2806 9.50067E-05-2.79119E-05-2.87632E-05-4.44727E-07 6.79441E-19 5.70825E-20
 -1      2807 9.45138E-05-2.84324E-05-2.83197E-05-1.13740E-06 3.46352E-19-2.04793E-19
 -1      2808 9.44571E-05-2.83692E-05-2.83203E-05-1.13393E-06 3.05208E-19-1.94375E-19
 -1      2809 9.45863E-05-2.85102E-05-2.83173E-05-1.09262E-06 6.90706E-19-2.09718E-19
 -1      2810 9.45169E-05-2.84661E-05-2.83064E-05-1.12663E-06 5.45005E-19-1.68455E-19
 -1      2811 9.48939E-05-2.85719E-05-2.84268E-05-1.15683E-06 4.38524E-19-7.74390E-19
 -1      2812 9.46722E-05-2.85577E-05-2.83338E-05-9.98217E-07 3.68311E-19-6.00984E-20
 -1      2813 9.45992E-05-2.85280E-05-2.83165E-05-1.05082E-06 5.07126E-19-2.10410E-19
 -1      2814 9.49157E-05-2.86425E-05-2.84048E-05-1.11370E-06 5.76960E-19-4.22945E-19
 -1      2815 9.47621E-05-2.85831E-05-2.83614E-05-8.84233E-07 1.52542E-19 1.69618E-19
 -1      2816 9.46908E-05-2.85644E-05-2.83409E-05-9.42457E-07 3.17496E-19 2.16918E-19
 -1      2817 9.49507E-05-2.86759E-05-2.84048E-05-1.02077E-06 2.29491E-19-1.59680E-19
 -1      2818 9.48507E-05-2.85921E-05-2.83954E-05-7.71541E-07 1.29625E-19 2.59180E-19
 -1      2819 9.47835E-05-2.85819E-05-2.83735E-05-8.26414E-07 3.32050E-19 2.63547E-19
 -1      2820 9.49926E-05-2.86833E-05-2.84191E-05-9.08949E-07 2.98400E-19-5.42464E-20
 -1      2821 9.49360E-05-2.85888E-05-2.84333E-05-6.74939E-07-3.92075E-19 1.01304E-19
 -1      2822 9.48733E-05-2.85852E-05-2.84107E-05-7.20067E-07-2.01949E-19 2.03137E-19
 -1      2823 9.50374E-05-2.86721E-05-2.84428E-05-7.99981E-07 1.70298E-20 1.48483E-19
 -1      2824 9.50186E-05-2.85757E-05-2.84740E-05-6.05431E-07 4.19828E-19-4.03004E-19
 -1      2825 9.49593E-05-2.85775E-05-2.84509E-05-6.35974E-07 6.81449E-21 3.50099E-21
 -1      2826 9.50832E-05-2.86471E-05-2.84731E-05-7.09506E-07 2.73481E-21-6.50853E-19
 -1      2827 9.51009E-05-2.85547E-05-2.85180E-05-5.71954E-07 8.43083E-19-1.74277E-19
 -1      2828 9.50427E-05-2.85607E-05-2.84938E-05-5.83845E-07 5.00097E-19-4.54234E-20
 -1      2829 9.51298E-05-2.86110E-05-2.85085E-05-6.49364E-07 2.80696E-19-4.32002E-19
 -1      2830 9.51870E-05-2.85266E-05-2.85665E-05-5.82732E-07 4.98155E-19 1.15440E-18
 -1      2831 9.51265E-05-2.85361E-05-2.85402E-05-5.72065E-07 6.67274E-19 3.78465E-19
 -1      2832 9.51781E-05-2.85651E-05-2.85490E-05-6.29373E-07 3.75328E-19 3.66130E-19
 -1      2833 9.52820E-05-2.84918E-05-2.86215E-05-6.46321E-07 2.18959E-19 1.55290E-18
 -1      2834 9.52151E-05-2.85042E-05-2.85918E-05-6.08884E-07 6.43896E-19 1.43465E-18
 -1      2835 9.52300E-05-2.85092E-05-2.85953E-05-6.58713E-07 1.91330E-19 1.21927E-18
 -1      2836 9.53923E-05-2.84500E-05-2.86859E-05-7.72401E-07-1.09624E-19 1.29474E-18
 -1      2837 9.53140E-05-2.84650E-05-2.86509E-05-7.03316E-07 2.85829E-19 1.62305E-18
 -1      2838 9.52878E-05-2.84423E-05-2.86489E-05-7.46967E-07 3.41230E-19 1.44968E-18
 -1      2839 9.55254E-05-2.84009E-05-2.87630E-05-9.72339E-07 4.15202E-19 7.48366E-19
 -1      2840 9.54297E-05-2.84180E-05-2.87207E-05-8.65814E-07-1.70541E-19 8.61052E-19
 -1      2841 9.53546E-05-2.83627E-05-2.87119E-05-9.04901E-07 4.11012E-19 1.19426E-18
 -1      2842 9.56896E-05-2.83441E-05-2.88565E-05-1.25950E-06 7.54796E-19 7.79583E-19
 -1      2843 9.55699E-05-2.83627E-05-2.88047E-05-1.10871E-06 8.20073E-19 9.76827E-19
 -1      2844 9.54335E-05-2.82679E-05-2.87865E-05-1.14496E-06 4.27099E-19 5.01060E-19
 -1      2845 9.58941E-05-2.82794E-05-2.89705E-05-1.64924E-06 6.93130E-19 8.07339E-19
 -1      2846 9.57427E-05-2.82986E-05-2.89065E-05-1.44638E-06 9.59306E-19 8.63278E-19
 -1      2847 9.55278E-05-2.81553E-05-2.88754E-05-1.48149E-06 8.42600E-19 1.79196E-18
 -1      2848 9.61488E-05-2.82078E-05-2.91087E-05-2.15839E-06 6.97950E-19-3.77043E-20
 -1      2849 9.59573E-05-2.82258E-05-2.90300E-05-1.89503E-06 8.90690E-19 1.03825E-19
 -1      2850 9.56408E-05-2.80227E-05-2.89808E-05-1.93057E-06 1.03990E-18 9.25341E-19
 -1      2851 9.64645E-05-2.81324E-05-2.92746E-05-2.80401E-06-1.58901E-19-4.19512E-19
 -1      2852 9.62236E-05-2.81460E-05-2.91789E-05-2.47188E-06 6.20375E-20-2.18146E-19
 -1      2853 9.57754E-05-2.78692E-05-2.91043E-05-2.50932E-06 4.88626E-19-8.34263E-22
 -1      2854 9.68532E-05-2.80613E-05-2.94698E-05-3.60085E-06-4.48353E-19-7.10281E-19
 -1      2855 9.65523E-05-2.80643E-05-2.93554E-05-3.19343E-06-3.05626E-19-4.05068E-19
 -1      2856 9.59348E-05-2.76971E-05-2.92462E-05-3.23447E-06-4.99811E-20 1.59785E-19
 -1      2857 9.73297E-05-2.80118E-05-2.96936E-05-4.55684E-06-2.69567E-19-1.09942E-18
 -1      2858 9.69569E-05-2.79927E-05-2.95601E-05-4.07223E-06-1.26481E-19-9.81419E-19
 -1      2859 9.61236E-05-2.75159E-05-2.94046E-05-4.11972E-06-5.25473E-19 2.42533E-19
 -1      2860 9.79160E-05-2.80186E-05-2.99408E-05-5.66545E-06 3.94893E-19-1.23915E-18
 -1      2861 9.74561E-05-2.79563E-05-2.97901E-05-5.11121E-06 2.54831E-19-1.11394E-18
 -1      2862 9.63514E-05-2.73487E-05-2.95735E-05-5.17144E-06 1.22530E-20-6.66514E-19
 -1      2863 9.86496E-05-2.81471E-05-3.01998E-05-6.89339E-06-3.91704E-19-7.74431E-19
 -1      2864 9.80809E-05-2.80039E-05-3.00372E-05-6.29437E-06-2.37412E-19-1.02894E-18
 -1      2865 9.66401E-05-2.72441E-05-2.97423E-05-6.38187E-06-1.23357E-19-4.43733E-19
 -1      2866 9.96006E-05-2.85139E-05-3.04515E-05-8.16166E-06 9.78890E-20-1.12381E-18
 -1      2867 9.88886E-05-2.82255E-05-3.02866E-05-7.57190E-06-6.33744E-21-7.46650E-19
 -1      2868 9.70394E-05-2.72941E-05-2.98934E-05-7.71891E-06-1.82378E-19 6.53419E-20
 -1      2869 1.00899E-04-2.93127E-05-3.06695E-05-9.31744E-06-2.96890E-20-3.12735E-19
 -1      2870 9.99865E-05-2.87766E-05-3.05160E-05-8.83699E-06 3.54741E-20-4.89416E-19
 -1      2871 9.76530E-05-2.76622E-05-3.00031E-05-9.11049E-06-2.69380E-19 1.39875E-19
 -1      2872 1.02769E-04-3.08341E-05-3.08272E-05-1.00943E-05-8.84906E-19 1.28693E-20
 -1      2873 1.01567E-04-2.99045E-05-3.06995E-05-9.89031E-06-2.34765E-19-1.76685E-20
 -1      2874 9.86811E-05-2.86158E-05-3.00452E-05-1.04196E-05-5.35287E-19 9.79591E-19
 -1      2875 1.05548E-04-3.34403E-05-3.09172E-05-1.00608E-05-1.14683E-18 1.26817E-19
 -1      2876 1.03942E-04-3.19548E-05-3.08206E-05-1.03871E-05-1.14675E-18-2.09455E-19
 -1      2877 1.00473E-04-3.05477E-05-3.00053E-05-1.14010E-05-8.53807E-19 3.69412E-19
 -1      2878 1.09625E-04-3.74041E-05-3.09938E-05-8.57088E-06-8.11299E-19-5.23059E-20
 -1      2879 1.07539E-04-3.52939E-05-3.09032E-05-9.76577E-06-9.78221E-19 1.93724E-19
 -1      2880 1.03563E-04-3.39321E-05-2.99123E-05-1.16226E-05-9.97645E-19-7.10800E-19
 -1      2881 1.15167E-04-4.24622E-05-3.12344E-05-4.77797E-06-4.71440E-19 8.65322E-19
 -1      2882 1.12729E-04-4.00202E-05-3.10680E-05-7.19589E-06-7.53613E-19 1.40237E-19
 -1      2883 1.08588E-04-3.90849E-05-2.99009E-05-1.03376E-05-1.09886E-18-7.65643E-19
 -1      2884 1.21536E-04-4.69799E-05-3.20401E-05 2.05346E-06 1.50203E-19 5.38554E-19
 -1      2885 1.19376E-04-4.53552E-05-3.16070E-05-1.69113E-06 1.58117E-19 1.04066E-18
 -1      2886 1.15868E-04-4.55757E-05-3.02990E-05-6.39641E-06-4.75622E-19-6.96318E-19
 -1      2887 1.26152E-04-4.70907E-05-3.40265E-05 1.11879E-05-3.04297E-19 3.67463E-19
 -1      2888 1.25646E-04-4.82679E-05-3.31416E-05 7.12717E-06-1.54544E-19 5.14877E-19
 -1      2889 1.24659E-04-5.04153E-05-3.18257E-05 1.89900E-06 9.80044E-20-1.24121E-18
 -1      2890 1.20192E-04-2.45496E-05-4.11373E-05 1.68938E-05-2.11012E-18 5.05255E-19
 -1      2891 1.23476E-04-3.17446E-05-3.97780E-05 1.96546E-05-1.47828E-18 8.03358E-19
 -1      2892 1.16371E-04-1.70813E-05-4.28733E-05 3.35230E-06-1.51534E-18-1.53481E-18
 -1      2893 1.17590E-04-1.91891E-05-4.26920E-05 1.04559E-05-2.08328E-18-1.06263E-18
 -1      2894 1.19341E-04-2.42523E-05-4.12948E-05-1.06514E-05 5.33101E-19-1.50458E-18
 -1      2895 1.17307E-04-1.91865E-05-4.22626E-05-4.98604E-06-1.66230E-19-2.37259E-18
 -1      2896 1.24604E-04-3.82161E-05-3.74330E-05-1.38626E-05 1.18508E-18-5.64945E-19
 -1      2897 1.22117E-04-3.11501E-05-3.90437E-05-1.36928E-05 6.75509E-19-6.52639E-19
 -1      2898 1.26420E-04-2.77382E-05-4.26031E-05-1.32068E-05 3.06626E-19-2.63999E-18
 -1      2899 1.25031E-04-4.64744E-05-3.38017E-05-6.76691E-06 2.02611E-18-1.63814E-18
 -1      2900 1.24862E-04-4.30821E-05-3.51181E-05-1.03714E-05 2.20565E-18-1.53825E-18
 -1      2901 1.29803E-04-4.33086E-05-3.72264E-05-1.14172E-05 1.59134E-18-2.05956E-18
 -1      2902 1.19918E-04-4.60900E-05-3.15721E-05 2.75045E-06 2.50397E-18-2.16715E-18
 -1      2903 1.21950E-04-4.67234E-05-3.23039E-05-1.35876E-06 1.66586E-18-2.55910E-18
 -1      2904 1.26578E-04-4.94977E-05-3.31005E-05-2.18026E-06 2.54389E-18-2.41963E-18
 -1      2905 1.12801E-04-4.11506E-05-3.06018E-05 9.76442E-06 2.39600E-18-1.44038E-18
 -1      2906 1.15611E-04-4.36913E-05-3.09250E-05 6.80431E-06 3.01742E-18-1.52500E-18
 -1      2907 1.18788E-04-4.72258E-05-3.08269E-05 7.61993E-06 2.11030E-18-2.56637E-18
 -1      2908 1.06290E-04-3.52603E-05-3.03373E-05 1.32148E-05-5.04663E-19 4.53325E-19
 -1      2909 1.08956E-04-3.80996E-05-3.04445E-05 1.18292E-05 1.08945E-18-3.37946E-19
 -1      2910 1.10640E-04-4.07777E-05-3.00472E-05 1.33941E-05 9.36342E-19-1.41873E-18
 -1      2911 1.01252E-04-3.03391E-05-3.03234E-05 1.41317E-05-6.99839E-19-8.26817E-19
 -1      2912 1.03545E-04-3.29273E-05-3.03113E-05 1.42297E-05-1.01200E-18-1.04973E-18
 -1      2913 1.04183E-04-3.44744E-05-2.99367E-05 1.60072E-05-6.18756E-20-1.72841E-18
 -1      2914 9.92386E-05-2.89228E-05-3.01764E-05 1.65805E-05-2.22062E-19-4.23685E-18
 -1      2915 3.71906E-05-1.49807E-05-8.97626E-06 3.97769E-06-1.62272E-18 1.22777E-18
 -1      2916 3.75865E-05-1.61991E-05-8.54980E-06-1.32558E-05-6.45492E-19 3.67951E-18
 -1      2917 7.88130E-05-1.40011E-05-2.77322E-05-7.74294E-06-3.24865E-19 3.35504E-19
 -1      2918 7.74264E-05-1.30686E-05-2.76444E-05-2.91362E-06-1.89797E-20-6.88446E-19
 -1      2919 8.14564E-05-1.61771E-05-2.80966E-05 1.32175E-05 1.19955E-18-6.92436E-19
 -1      2920 8.46549E-05-1.83384E-05-2.83294E-05 1.63756E-05 1.59004E-18-1.84746E-18
 -1      2921 8.49322E-05-1.87108E-05-2.82669E-05-1.58973E-05 9.93669E-19 4.05812E-18
 -1      2922 8.16731E-05-1.64958E-05-2.80581E-05-1.27295E-05 4.52696E-19 1.39126E-18
 -1      2923 7.81672E-05-1.66855E-05-2.62436E-05-1.18949E-05 5.30124E-19 1.47437E-18
 -1      2924 7.73647E-05-1.29841E-05-2.76514E-05 3.34762E-06-9.47187E-19-6.44380E-19
 -1      2925 7.86614E-05-1.38261E-05-2.77450E-05 8.19292E-06 2.74933E-19 6.20696E-19
 -1      2926 7.79262E-05-1.63673E-05-2.62828E-05 1.22413E-05 7.55247E-19-1.01458E-18
 -1      2927 7.46264E-05-1.39671E-05-2.58588E-05 1.48523E-07-1.04591E-18-7.01022E-19
 -1      2928 9.24176E-05-2.45651E-05-2.89647E-05-1.89270E-05 1.97570E-18 1.34723E-18
 -1      2929 8.89041E-05-2.20723E-05-2.87514E-05-1.80464E-05 1.17032E-18 4.43763E-18
 -1      2930 8.62753E-05-2.27944E-05-2.72044E-05-1.92836E-05 2.26688E-18 4.07515E-18
 -1      2931 9.83756E-05-2.92500E-05-2.95503E-05-1.74472E-05 9.96586E-19-6.74945E-19
 -1      2932 9.57844E-05-2.72522E-05-2.94204E-05-1.83738E-05 1.70154E-18-6.13434E-19
 -1      2933 9.50197E-05-2.90584E-05-2.83232E-05-2.06186E-05 1.78339E-18 2.77398E-19
 -1      2934 1.01390E-04-3.16334E-05-2.98413E-05-1.34395E-05 1.16099E-18 7.20722E-19
 -1      2935 1.00167E-04-3.05350E-05-2.98372E-05-1.52841E-05 1.42954E-18 9.54347E-19
 -1      2936 1.01137E-04-3.31032E-05-2.92147E-05-1.74800E-05 1.77600E-18 4.82235E-19
 -1      2937 1.42272E-04-4.34857E-05-4.28401E-05-9.27025E-06 2.92226E-20-1.25520E-18
 -1      2938 1.44491E-04-5.38178E-05-3.88803E-05-1.96729E-06 6.15687E-19-1.64335E-18
 -1      2939 1.21782E-04-6.01252E-05-2.65931E-05 2.43442E-05 4.90909E-19 6.18731E-19
 -1      2940 1.08202E-04-5.61068E-05-2.19557E-05 3.27141E-05 6.13464E-19-3.15143E-19
 -1      2941 3.33885E-05-1.54300E-05-7.28922E-06 1.46014E-05-3.68989E-20 3.72207E-18
 -1      2942 3.12539E-05-1.37761E-05-6.90112E-06 2.33462E-06-3.55393E-19 2.48816E-18
 -1      2943 1.32498E-04-1.19032E-05-5.24598E-05 2.26916E-06 1.67501E-19-3.70649E-18
 -1      2944 1.31713E-04-1.42560E-05-5.11198E-05-3.71810E-06-3.32037E-19-2.89701E-18
 -1      2945 9.44551E-05-2.14312E-05-3.13387E-05-7.65270E-06-1.36644E-18-1.71281E-18
 -1      2946 9.50212E-05-2.31950E-05-3.07372E-05-5.99470E-06-1.18427E-18-1.53436E-18
 -1      2947 9.50518E-05-2.43898E-05-3.03004E-05-4.47329E-06-1.08949E-18-1.51126E-18
 -1      2948 9.30758E-05-1.90593E-05-3.17220E-05-7.05509E-06-1.00966E-18-2.07056E-18
 -1      2949 1.39291E-04-3.39256E-05-4.59114E-05-1.27495E-05-8.72444E-19 2.04389E-18
 -1      2950 1.42647E-04-4.44734E-05-4.21511E-05-7.19310E-06-1.13539E-18 1.33048E-18
 -1      2951 9.47223E-05-2.74145E-05-2.88491E-05 3.91412E-07 7.60615E-19 1.57106E-19
 -1      2952 9.49034E-05-2.71213E-05-2.90217E-05 9.96011E-07 1.00409E-18 2.72967E-19
 -1      2953 9.52530E-05-2.65021E-05-2.94711E-05 1.73924E-06 1.09309E-18 5.44976E-20
 -1      2954 9.51286E-05-2.73822E-05-2.90438E-05 3.79152E-07 7.26310E-19 1.05549E-19
 -1      2955 9.44696E-05-2.83119E-05-2.83526E-05-1.08920E-06 3.75034E-19-1.35685E-19
 -1      2956 9.44397E-05-2.82226E-05-2.83724E-05-1.02051E-06 5.69172E-19-1.87958E-19
 -1      2957 9.49288E-05-2.82417E-05-2.85865E-05-8.98236E-07 5.88471E-19-1.23923E-19
 -1      2958 9.48945E-05-2.84471E-05-2.84819E-05-1.10597E-06 3.48053E-19-3.14053E-19
 -1      2959 5.63208E-05-2.90685E-05-1.15824E-05 3.52950E-05-1.13312E-18 6.88955E-19
 -1      2960 4.15400E-05-2.02426E-05-8.44623E-06 2.46969E-05-7.98540E-19 2.09132E-18
 -1      2961 4.62648E-05-2.30286E-05-9.49269E-06-2.81589E-05 9.75253E-19 7.46892E-18
 -1      2962 6.11266E-05-3.32076E-05-1.16742E-05-4.00242E-05 3.06817E-18 8.42120E-18
 -1      2963 7.70038E-05-3.75136E-05-1.63282E-05-3.85457E-05 2.37667E-18 6.07778E-18
 -1      2964 9.33066E-05-5.06957E-05-1.77675E-05-3.54349E-05-1.05170E-18-2.07142E-18
 -1      2965 1.12231E-04-5.88567E-05-2.30751E-05-2.95045E-05-2.15125E-18-1.96125E-18
 -1      2966 9.11782E-05-1.60914E-05-3.22080E-05 4.91958E-06 1.56696E-18-1.73578E-18
 -1      2967 9.08350E-05-1.55923E-05-3.22686E-05 3.99671E-06 1.33420E-18-1.92906E-18
 -1      2968 9.18147E-05-1.72041E-05-3.19603E-05 3.20089E-06 1.18951E-18-1.83383E-18
 -1      2969 9.24833E-05-1.82644E-05-3.17882E-05 4.61778E-06 1.40362E-18-1.60612E-18
 -1      2970 1.30807E-04-1.57635E-05-4.98760E-05 1.18779E-05 7.45389E-20-2.86281E-18
 -1      2971 1.31113E-04-1.29544E-05-5.14216E-05 6.15780E-06 3.55754E-19-2.90860E-18
 -1      2972 1.31729E-04-9.06031E-06-5.30896E-05 1.11676E-06 4.98055E-19-7.66353E-19
 -1      2973 1.28844E-04-9.21348E-06-5.19014E-05-5.20365E-06 5.29819E-19 2.83134E-19
 -1      2974 1.31760E-04-1.83946E-05-4.94020E-05-7.97384E-06-2.01806E-19-2.99357E-18
 -1      2975 1.34130E-04-2.63934E-05-4.65913E-05-1.08967E-05-4.65868E-19-2.72586E-18
 -1      2976 9.08001E-05-1.55450E-05-3.22737E-05-3.93400E-06-2.47987E-19-2.51166E-18
 -1      2977 9.11331E-05-1.60315E-05-3.22144E-05-4.86132E-06-3.95670E-19-2.45085E-18
 -1      2978 1.27284E-04-6.19322E-05-2.75025E-05-1.76454E-05-1.83351E-18-1.97936E-18
 -1      2979 1.36167E-04-6.33779E-05-3.14611E-05-1.02846E-05-1.29162E-18-1.59105E-18
 -1      2980 1.32956E-04-2.15072E-05-4.82750E-05 9.46187E-06-4.74338E-19-3.00919E-18
 -1      2981 1.32609E-04-1.36272E-05-5.15647E-05 5.86845E-06-8.33480E-19-1.80349E-18
 -1      2982 1.24824E-04-1.26909E-05-4.85488E-05 4.35058E-06 8.66515E-19-1.48750E-18
 -1      2983 9.27199E-05-4.91669E-05-1.86765E-05 3.85407E-05 7.09390E-20-8.58574E-19
 -1      2984 7.67020E-05-4.00522E-05-1.50589E-05 3.83612E-05-2.64168E-19 1.59825E-19
 -1      2985 1.28659E-04-1.49021E-05-4.94291E-05-1.20519E-05-9.32160E-19 1.66940E-18
 -1      2986 1.33079E-04-2.23352E-05-4.78112E-05-1.46729E-05-6.53062E-19 8.81973E-19
 -1      2987 9.16974E-05-4.98075E-05-1.78826E-05 4.23231E-05 4.51638E-18-3.09347E-18
 -1      2988 7.10757E-05-3.98582E-05-1.26752E-05 4.20309E-05 3.73785E-18-6.72523E-18
 -1      2989 3.26268E-05-1.53559E-05-6.82868E-06-9.57343E-06-5.14361E-19 8.20140E-19
 -1      2990 3.94546E-05-2.00463E-05-7.83158E-06-2.15458E-05-5.61001E-19-1.00416E-18
 -1      2991 1.01105E-04-3.15976E-05-2.97589E-05-6.21266E-06 1.14409E-19 3.01004E-19
 -1      2992 1.01179E-04-3.15464E-05-2.98567E-05-7.87152E-06 6.74036E-19 7.18623E-20
 -1      2993 1.02172E-04-3.27527E-05-2.97804E-05-5.98422E-06 4.41899E-19 1.06908E-19
 -1      2994 1.41699E-04-4.38637E-05-4.20779E-05 6.07584E-06-1.13132E-18-3.01078E-18
 -1      2995 1.37536E-04-3.36249E-05-4.52125E-05 9.72365E-06-4.85138E-19-2.59912E-18
 -1      2996 1.24658E-04-6.30940E-05-2.65234E-05 2.99789E-05 3.32238E-18-1.86763E-18
 -1      2997 1.11858E-04-5.84341E-05-2.26818E-05 3.57258E-05 4.26058E-18-1.96418E-18
 -1      2998 1.41747E-04-6.10580E-05-3.51135E-05 9.55945E-06 2.00572E-18-2.10721E-18
 -1      2999 1.34219E-04-6.34805E-05-3.01234E-05 1.99366E-05 2.62988E-18-1.59539E-18
 -1      3000 1.29851E-04-6.24366E-05-2.88293E-05 2.11856E-05 3.31666E-18-2.48001E-18
 -1      3001 9.15693E-05-1.66911E-05-3.21134E-05-5.57744E-06-5.72347E-19-2.38419E-18
 -1      3002 9.20517E-05-1.74544E-05-3.20234E-05-6.46413E-06-8.36755E-19-2.40008E-18
 -1      3003 9.24326E-05-1.81954E-05-3.17975E-05-4.56865E-06-4.59448E-19-2.16262E-18
 -1      3004 9.12901E-05-1.63949E-05-3.20858E-05 2.82912E-08 4.61328E-19-2.01929E-18
 -1      3005 9.01670E-05-1.46047E-05-3.24032E-05-3.83453E-07 4.35854E-19-2.25995E-18
 -1      3006 9.02235E-05-1.46850E-05-3.23933E-05-1.34155E-06 2.27704E-19-2.32615E-18
 -1      3007 1.38259E-04-4.95532E-05-3.81534E-05 2.93619E-06-9.09502E-19-2.90829E-18
 -1      3008 1.38919E-04-5.02657E-05-3.81493E-05-4.33266E-06-2.54441E-19 2.04283E-18
 -1      3009 1.08663E-04-5.53899E-05-2.24472E-05-3.64498E-05 2.74439E-18 4.11290E-18
 -1      3010 1.40344E-04-5.68170E-05-3.57778E-05 9.85311E-07 1.78783E-18-1.94902E-18
 -1      3011 1.04062E-04-3.44448E-05-2.98474E-05-7.33474E-06 1.04321E-18-1.00603E-18
 -1      3012 1.32744E-04-6.12083E-05-3.06365E-05-1.80559E-05 1.87083E-18-2.61056E-18
 -1      3013 3.90150E-05-1.41561E-05-1.00282E-05-3.62312E-06-3.55251E-19 1.54456E-18
 -1      3014 1.23176E-04-1.40702E-05-4.71489E-05 3.67009E-06-5.79688E-19-2.21481E-18
 -1      3015 1.03448E-04-5.33542E-05-2.11234E-05 3.85655E-05 4.45592E-18-2.42953E-18
 -1      3016 9.28517E-05-4.54034E-05-2.00421E-05 3.80427E-05 3.88989E-18-2.86302E-18
 -1      3017 1.11426E-04-5.45612E-05-2.42405E-05 3.16615E-05 3.94977E-18-4.04601E-18
 -1      3018 1.24662E-04-1.28947E-05-4.85013E-05-9.56264E-06-6.92449E-20 3.33678E-19
 -1      3019 1.20228E-04-1.60802E-05-4.46904E-05-1.26671E-05-1.08420E-19-7.71171E-19
 -1      3020 1.18758E-04-1.10249E-05-4.67156E-05-5.49182E-06 1.47627E-18-1.75252E-18
 -1      3021 4.54325E-05-1.76882E-05-1.12368E-05 1.86490E-05-7.33239E-19 2.69854E-18
 -1      3022 7.02848E-05-3.32289E-05-1.54045E-05 3.35859E-05-5.10655E-19 5.30031E-19
 -1      3023 1.32223E-04-2.83943E-05-4.49425E-05 1.11357E-05-3.12449E-19-2.28080E-18
 -1      3024 1.24426E-04-2.29065E-05-4.40267E-05 1.09962E-05-1.28220E-19-1.75722E-18
 -1      3025 1.29638E-04-3.39195E-05-4.12309E-05 1.07220E-05-8.01452E-19-2.32066E-18
 -1      3026 1.29265E-04-3.55443E-05-4.04796E-05 1.98273E-05-1.30941E-18 8.32236E-19
 -1      3027 1.25201E-04-3.70467E-05-3.77893E-05 1.94529E-05-8.60585E-19 1.08107E-18
 -1      3028 1.27781E-04-4.32942E-05-3.63460E-05 1.75256E-05-3.95796E-19 1.34715E-18
 -1      3029 1.30993E-04-4.82788E-05-3.57566E-05 1.32627E-05-7.34325E-19 1.14482E-20
 -1      3030 1.24337E-04-2.07822E-05-4.47580E-05 1.47988E-05-1.07234E-18-6.49833E-19
 -1      3031 4.19813E-05-1.59988E-05-1.03583E-05 1.17055E-05-2.40478E-18 2.14935E-19
 -1      3032 4.61452E-05-1.41118E-05-1.32308E-05 2.97691E-06-1.94448E-18 5.66030E-19
 -1      3033 4.80888E-05-1.85268E-05-1.25629E-05 1.93980E-05-2.11835E-18-2.09334E-18
 -1      3034 9.71369E-05-2.74818E-05-2.97783E-05 1.82445E-05 8.01482E-19-2.56605E-18
 -1      3035 9.92796E-05-3.04202E-05-2.95171E-05 1.87177E-05 1.75052E-18-2.88590E-18
 -1      3036 9.44220E-05-2.55636E-05-2.95885E-05 1.91003E-05 8.07530E-19-3.29668E-18
 -1      3037 1.18312E-04-5.87367E-05-2.54984E-05-2.19542E-05-1.06356E-18-2.46533E-18
 -1      3038 1.28329E-04-6.06040E-05-2.89065E-05 1.72967E-05 4.22987E-19 2.22801E-18
 -1      3039 1.21392E-04-5.85696E-05-2.68744E-05 2.06258E-05 1.03814E-18 2.39660E-18
 -1      3040 1.31507E-04-5.86166E-05-3.14396E-05 9.15935E-06 1.66601E-19 2.60584E-18
 -1      3041 1.23896E-04-1.61872E-05-4.65190E-05-5.48437E-06-1.33090E-19-2.88425E-18
 -1      3042 1.01161E-04-3.13065E-05-2.99437E-05-9.89110E-06 9.50149E-19-7.56440E-19
 -1      3043 6.64517E-05-3.28126E-05-1.37369E-05 3.62935E-05 1.67130E-18-5.22164E-18
 -1      3044 9.43545E-05-2.14249E-05-3.12598E-05 7.21881E-06 1.80818E-18-5.16597E-19
 -1      3045 9.46132E-05-2.24676E-05-3.09125E-05 5.69440E-06 1.59120E-18-6.30633E-19
 -1      3046 1.02530E-04-5.14028E-05-2.16133E-05 3.16825E-05 6.61480E-19-1.33540E-20
 -1      3047 1.04056E-04-3.44038E-05-2.97950E-05-9.38757E-06 1.01104E-18-1.71887E-18
 -1      3048 1.02304E-04-3.25773E-05-2.98944E-05-1.15791E-05 1.56653E-18-9.57503E-20
 -1      3049 1.04235E-04-3.51966E-05-2.96349E-05-1.31508E-05 1.97591E-18 6.72482E-19
 -1      3050 1.05593E-04-3.61195E-05-2.98086E-05-8.88539E-06 1.42738E-18-1.74075E-18
 -1      3051 9.50430E-05-2.40863E-05-3.04167E-05-4.14553E-06-9.52376E-19-1.49321E-18
 -1      3052 4.91763E-05-2.39698E-05-1.01633E-05-2.63975E-05-2.59192E-19-2.53835E-18
 -1      3053 6.01882E-05-2.89120E-05-1.32475E-05-3.05694E-05-1.91112E-19-2.65079E-18
 -1      3054 5.00497E-05-2.00074E-05-1.23333E-05-2.11943E-05-2.94873E-19-2.15824E-18
 -1      3055 1.42823E-04-4.46134E-05-4.22586E-05 1.49940E-05-7.62541E-19-3.31042E-18
 -1      3056 1.37626E-04-5.98960E-05-3.38117E-05-9.87515E-07-1.33405E-18-1.93812E-18
 -1      3057 7.67058E-05-3.81108E-05-1.59997E-05-3.39462E-05-1.81636E-19-7.25801E-19
 -1      3058 8.51808E-05-4.53638E-05-1.67199E-05-3.62069E-05-1.73218E-19-4.40404E-19
 -1      3059 9.60448E-05-4.78747E-05-2.04998E-05-3.04828E-05-7.84247E-19-1.38858E-18
 -1      3060 9.03488E-05-1.48761E-05-3.23656E-05-2.17833E-06 1.08492E-19-2.31670E-18
 -1      3061 9.05336E-05-1.51401E-05-3.23334E-05-3.12990E-06-1.08134E-19-2.42458E-18
 -1      3062 9.17836E-05-1.71623E-05-3.19656E-05-3.14332E-06-2.12336E-19-2.29632E-18
 -1      3063 9.14082E-05-1.65780E-05-3.20572E-05-1.58380E-06 1.10191E-19-2.20976E-18
 -1      3064 8.80809E-05-2.10196E-05-2.88562E-05 1.83240E-05 1.44685E-18-1.97248E-18
 -1      3065 9.15227E-05-2.34247E-05-2.91022E-05 1.92681E-05 1.12511E-18-2.91417E-18
 -1      3066 9.31771E-05-2.66845E-05-2.84925E-05 2.08759E-05 7.49149E-19-2.61514E-18
 -1      3067 8.55086E-05-2.16765E-05-2.73255E-05 1.93183E-05 1.82412E-18-1.49527E-18
 -1      3068 1.31494E-04-3.00091E-05-4.39110E-05-1.44943E-05-5.93029E-19 1.28654E-18
 -1      3069 1.32527E-04-2.97541E-05-4.43745E-05 1.94796E-05-1.36881E-18-7.25854E-19
 -1      3070 1.33805E-04-2.41831E-05-4.76470E-05 1.73207E-05-7.09814E-19-1.27066E-18
 -1      3071 1.35001E-04-3.85665E-05-4.20334E-05 1.86424E-05-1.34869E-18-8.15005E-19
 -1      3072 9.42740E-05-2.18521E-05-3.10594E-05 4.97252E-06 1.42172E-18-9.67614E-19
 -1      3073 9.38114E-05-2.09103E-05-3.12451E-05 4.62552E-06 1.29011E-18-1.23499E-18
 -1      3074 4.28956E-05-1.30528E-05-1.24931E-05 1.78028E-06-2.83061E-19 2.53464E-18
 -1      3075 4.48818E-05-1.46665E-05-1.25514E-05-9.89949E-06-1.59295E-19-2.86827E-19
 -1      3076 1.27122E-04-6.00876E-05-2.83195E-05-2.21339E-05 2.54909E-18-2.19649E-18
 -1      3077 1.33160E-04-5.92200E-05-3.22556E-05-1.10178E-05 1.41177E-18-2.97931E-18
 -1      3078 9.56823E-05-2.68818E-05-2.94713E-05-7.48299E-07-7.99702E-19-1.12781E-18
 -1      3079 9.56576E-05-2.73297E-05-2.92916E-05-2.24176E-07-7.10354E-19-1.17202E-18
 -1      3080 9.57014E-05-2.77150E-05-2.91258E-05 1.55766E-07-7.61765E-19-1.01161E-18
 -1      3081 9.56642E-05-2.80009E-05-2.90032E-05 4.70500E-07-7.93934E-19-1.10235E-18
 -1      3082 9.58992E-05-2.73330E-05-2.93886E-05-1.68689E-07-6.74366E-19-1.08473E-18
 -1      3083 9.56565E-05-2.82388E-05-2.88854E-05 6.92197E-07-6.29805E-19-1.12246E-18
 -1      3084 9.56243E-05-2.84189E-05-2.88045E-05 8.60268E-07-3.90844E-19-1.05327E-18
 -1      3085 9.59403E-05-2.80564E-05-2.90967E-05 4.66088E-07-6.45776E-19-6.47424E-19
 -1      3086 9.55925E-05-2.85598E-05-2.87231E-05 9.69740E-07-1.39808E-19-9.96852E-19
 -1      3087 9.55695E-05-2.86691E-05-2.86722E-05 1.03962E-06-2.84175E-20-9.68125E-19
 -1      3088 9.59067E-05-2.85060E-05-2.88895E-05 8.24352E-07-2.50086E-19-1.05385E-18
 -1      3089 9.55281E-05-2.87453E-05-2.86181E-05 1.07410E-06-1.14890E-19-9.66415E-19
 -1      3090 9.55139E-05-2.88064E-05-2.85886E-05 1.08185E-06-1.34891E-19-8.48178E-19
 -1      3091 9.58390E-05-2.87704E-05-2.87467E-05 9.89249E-07-6.46353E-20-1.21135E-18
 -1      3092 9.54704E-05-2.88393E-05-2.85546E-05 1.06990E-06-1.65190E-19-5.94258E-19
 -1      3093 9.54631E-05-2.88674E-05-2.85401E-05 1.04164E-06-5.34184E-20-5.13322E-19
 -1      3094 9.57585E-05-2.89089E-05-2.86523E-05 1.02761E-06 4.10543E-21-1.22398E-18
 -1      3095 9.54214E-05-2.88714E-05-2.85209E-05 1.00433E-06-1.86141E-19-4.57137E-19
 -1      3096 9.54191E-05-2.88768E-05-2.85169E-05 9.58721E-07-1.85915E-19-5.89372E-19
 -1      3097 9.56768E-05-2.89623E-05-2.85939E-05 9.90136E-07 1.29169E-20-5.77985E-19
 -1      3098 9.53807E-05-2.88614E-05-2.85084E-05 9.11292E-07-2.31448E-19-2.40878E-19
 -1      3099 9.53819E-05-2.88509E-05-2.85118E-05 8.61602E-07-1.84115E-19-4.08588E-19
 -1      3100 9.55992E-05-2.89580E-05-2.85621E-05 9.14100E-07-1.18082E-19-1.45510E-19
 -1      3101 9.53472E-05-2.88224E-05-2.85113E-05 8.15037E-07-2.91154E-19-5.58365E-19
 -1      3102 9.53507E-05-2.88005E-05-2.85199E-05 7.70796E-07-2.55146E-19-4.03019E-19
 -1      3103 9.55280E-05-2.89144E-05-2.85499E-05 8.26542E-07-2.22117E-19 2.20547E-22
 -1      3104 9.53194E-05-2.87625E-05-2.85254E-05 7.33122E-07-3.31608E-19-5.19487E-19
 -1      3105 9.53246E-05-2.87320E-05-2.85379E-05 7.01376E-07-3.29532E-19-4.20153E-19
 -1      3106 9.54633E-05-2.88433E-05-2.85524E-05 7.47129E-07-4.07791E-19-8.08971E-19
 -1      3107 9.52956E-05-2.86864E-05-2.85481E-05 6.78710E-07-3.11182E-19-3.31208E-19
 -1      3108 9.53022E-05-2.86486E-05-2.85639E-05 6.64986E-07-7.16409E-19-5.96024E-19
 -1      3109 9.54037E-05-2.87512E-05-2.85661E-05 6.90525E-07-5.31450E-19-3.73490E-19
 -1      3110 9.52741E-05-2.85959E-05-2.85779E-05 6.62346E-07-1.11236E-18-2.98183E-19
 -1      3111 9.52821E-05-2.85513E-05-2.85968E-05 6.71373E-07-1.09372E-18 1.54322E-19
 -1      3112 9.53470E-05-2.86413E-05-2.85887E-05 6.68248E-07-7.20875E-19-6.84004E-20
 -1      3113 9.52534E-05-2.84911E-05-2.86142E-05 6.93286E-07-9.19014E-19 5.15988E-19
 -1      3114 9.52631E-05-2.84396E-05-2.86363E-05 7.29494E-07-3.79970E-19 9.24791E-19
 -1      3115 9.52904E-05-2.85141E-05-2.86188E-05 6.90124E-07-8.52613E-19 9.20319E-19
 -1      3116 9.52319E-05-2.83709E-05-2.86568E-05 7.80422E-07-1.78554E-19 8.99331E-19
 -1      3117 9.52438E-05-2.83121E-05-2.86823E-05 8.48251E-07-3.64879E-20 8.81243E-19
 -1      3118 9.52305E-05-2.83682E-05-2.86555E-05 7.65330E-07-3.80187E-19 1.06074E-18
 -1      3119 9.52084E-05-2.82338E-05-2.87058E-05 9.32827E-07-6.25443E-20 8.34172E-19
 -1      3120 9.52234E-05-2.81677E-05-2.87350E-05 1.03682E-06-4.99217E-19 9.19883E-19
 -1      3121 9.51639E-05-2.82016E-05-2.86982E-05 9.03066E-07-1.85473E-21 7.23965E-19
 -1      3122 9.51823E-05-2.80791E-05-2.87613E-05 1.15990E-06-8.72223E-19 1.04489E-18
 -1      3123 9.52020E-05-2.80064E-05-2.87945E-05 1.30459E-06-4.27763E-19 3.22451E-19
 -1      3124 9.50872E-05-2.80124E-05-2.87462E-05 1.11287E-06-4.87164E-19 1.50508E-19
 -1      3125 9.51539E-05-2.79079E-05-2.88229E-05 1.47112E-06-5.74059E-20 1.99023E-19
 -1      3126 9.51808E-05-2.78308E-05-2.88601E-05 1.66059E-06 5.00271E-19 6.80260E-20
 -1      3127 9.49978E-05-2.78005E-05-2.87985E-05 1.40455E-06-4.33603E-19 6.12543E-19
 -1      3128 9.51262E-05-2.77250E-05-2.88898E-05 1.87520E-06 7.54482E-19-3.32719E-19
 -1      3129 9.51640E-05-2.76484E-05-2.89305E-05 2.11241E-06 5.18650E-19-5.37201E-19
 -1      3130 9.48950E-05-2.75693E-05-2.88534E-05 1.78769E-06 3.78950E-19 2.89801E-19
 -1      3131 9.51054E-05-2.75415E-05-2.89599E-05 2.37879E-06 9.13211E-20-5.98163E-19
 -1      3132 9.51605E-05-2.74747E-05-2.90028E-05 2.66440E-06-5.70166E-20-7.45615E-19
 -1      3133 9.47813E-05-2.73283E-05-2.89080E-05 2.27071E-06 2.27828E-19-2.67197E-19
 -1      3134 9.51044E-05-2.73782E-05-2.90296E-05 2.98428E-06-2.16639E-19-1.05644E-18
 -1      3135 9.51871E-05-2.73366E-05-2.90729E-05 3.31503E-06-4.99262E-19-8.52413E-19
 -1      3136 9.46657E-05-2.70966E-05-2.89579E-05 2.85939E-06-3.30550E-20-1.06968E-18
 -1      3137 9.51467E-05-2.72702E-05-2.90936E-05 3.68680E-06-5.17689E-19-1.12814E-18
 -1      3138 9.52733E-05-2.72785E-05-2.91342E-05 4.05329E-06-2.38983E-19-1.06584E-18
 -1      3139 9.45671E-05-2.69083E-05-2.89969E-05 3.55473E-06-2.11001E-19-8.15439E-19
 -1      3140 9.52720E-05-2.72735E-05-2.91447E-05 4.47005E-06-3.59321E-20-6.40088E-19
 -1      3141 9.54683E-05-2.73685E-05-2.91787E-05 4.85371E-06 2.07740E-19-3.89103E-19
 -1      3142 9.45211E-05-2.68181E-05-2.90170E-05 4.35017E-06 1.16082E-19-8.59787E-19
 -1      3143 9.55452E-05-2.74714E-05-2.91745E-05 5.30049E-06 2.26735E-19-2.54000E-19
 -1      3144 9.58505E-05-2.77054E-05-2.91979E-05 5.66971E-06-2.20693E-20 1.22478E-19
 -1      3145 9.45882E-05-2.69096E-05-2.90091E-05 5.22755E-06 6.39620E-19-3.80163E-19
 -1      3146 9.60670E-05-2.79815E-05-2.91751E-05 6.11911E-06-3.15396E-19 5.79500E-19
 -1      3147 9.65378E-05-2.84235E-05-2.91848E-05 6.42400E-06-1.00017E-19 8.84005E-19
 -1      3148 9.48663E-05-2.73029E-05-2.89642E-05 6.15116E-06 3.29882E-19 1.80981E-19
 -1      3149 9.69853E-05-2.89574E-05-2.91430E-05 6.82887E-06-7.53494E-20 8.31991E-19
 -1      3150 9.76968E-05-2.96894E-05-2.91402E-05 6.99416E-06 3.65129E-19 1.21538E-18
 -1      3151 9.55049E-05-2.81606E-05-2.88776E-05 7.05766E-06 1.27284E-20 1.55292E-18
 -1      3152 9.85018E-05-3.05784E-05-2.90869E-05 7.27390E-06-1.35207E-19 6.49514E-19
 -1      3153 9.95397E-05-3.16774E-05-2.90816E-05 7.18943E-06 1.35979E-19 1.38829E-19
 -1      3154 9.67186E-05-2.96844E-05-2.87562E-05 7.83682E-06-2.61333E-19 9.94142E-19
 -1      3155 1.00858E-04-3.30053E-05-2.90400E-05 7.20613E-06 5.18951E-19-4.64231E-19
 -1      3156 1.02287E-04-3.44966E-05-2.90591E-05 6.71795E-06 5.95311E-19-2.97190E-19
 -1      3157 9.87900E-05-3.20863E-05-2.86306E-05 8.29436E-06-2.87245E-19-1.13942E-19
 -1      3158 1.04263E-04-3.62690E-05-2.90800E-05 6.24278E-06 1.27840E-19-1.04797E-18
 -1      3159 1.06053E-04-3.80289E-05-2.91760E-05 5.16086E-06-1.31799E-18-1.02435E-18
 -1      3160 1.02034E-04-3.54982E-05-2.85764E-05 8.08837E-06-3.22533E-19-1.73211E-18
 -1      3161 1.08706E-04-4.00327E-05-2.93543E-05 3.86326E-06-1.41731E-18-1.32123E-18
 -1      3162 1.10666E-04-4.16645E-05-2.96122E-05 2.02095E-06-6.06980E-19-1.79936E-18
 -1      3163 1.06656E-04-3.97541E-05-2.87459E-05 6.65146E-06-1.21872E-18-1.74228E-18
 -1      3164 1.13646E-04-4.32847E-05-3.00871E-05-3.66902E-07-6.19499E-19-2.46302E-18
 -1      3165 1.15222E-04-4.39474E-05-3.06111E-05-2.88016E-06-4.69174E-19-2.64441E-18
 -1      3166 1.12262E-04-4.39671E-05-2.93976E-05 3.16223E-06-9.89702E-19-3.02613E-18
 -1      3167 1.17999E-04-4.41694E-05-3.15609E-05-6.78291E-06-7.16458E-19-2.53374E-18
 -1      3168 1.18135E-04-4.25012E-05-3.24529E-05-9.49715E-06-1.26576E-18-2.06084E-18
 -1      3169 1.18660E-04-4.66347E-05-3.09889E-05-2.82545E-06-1.07593E-18-3.72190E-18
 -1      3170 1.18685E-04-3.97105E-05-3.39736E-05-1.30430E-05-1.53227E-18-1.00817E-18
 -1      3171 1.17241E-04-3.55325E-05-3.51101E-05-1.43153E-05-1.35368E-18-6.28651E-19
 -1      3172 1.21662E-04-4.36783E-05-3.34560E-05-1.02656E-05-8.94970E-19-1.70712E-18
 -1      3173 1.11309E-04-1.84639E-05-4.01501E-05-1.05672E-05-2.58769E-19-3.43263E-19
 -1      3174 1.09989E-04-1.57445E-05-4.05763E-05-5.91443E-06 4.82385E-19-7.25993E-19
 -1      3175 1.15137E-04-2.42813E-05-3.90469E-05 9.39035E-06-6.02346E-19 4.04988E-21
 -1      3176 1.17714E-04-3.02426E-05-3.77497E-05 1.08172E-05-1.07111E-18 2.10263E-19
 -1      3177 1.18468E-04-4.24802E-05-3.25736E-05 4.34436E-06 6.23047E-19-7.56910E-19
 -1      3178 1.17878E-04-4.39749E-05-3.17038E-05 1.52814E-06 4.98749E-19-5.45694E-19
 -1      3179 1.15356E-04-4.35632E-05-3.08243E-05-2.03392E-06-6.54070E-19-8.60845E-19
 -1      3180 1.13500E-04-4.25859E-05-3.03450E-05-4.57149E-06-5.64468E-20-1.25658E-18
 -1      3181 1.19115E-04-4.62468E-05-3.13134E-05-2.36750E-06 2.63308E-20 9.34794E-19
 -1      3182 1.10589E-04-4.06489E-05-3.00282E-05-6.49271E-06 1.31987E-18-1.83439E-18
 -1      3183 1.08249E-04-3.84920E-05-2.98473E-05-8.12539E-06 1.02087E-18-1.70972E-18
 -1      3184 1.07881E-04-3.84567E-05-2.97578E-05-1.02979E-05 7.72429E-19-1.46289E-18
 -1      3185 1.13527E-04-4.33872E-05-3.00939E-05-7.83292E-06-2.07930E-19-6.57642E-19
 -1      3186 9.52256E-05-2.87676E-05-2.84810E-05-1.07783E-06 2.59842E-19-3.67740E-19
 -1      3187 9.52127E-05-2.87348E-05-2.84890E-05-1.10843E-06 5.48436E-19-5.07960E-19
 -1      3188 9.52437E-05-2.87013E-05-2.85177E-05-1.12018E-06 4.62581E-19-7.53378E-19
 -1      3189 9.52401E-05-2.86398E-05-2.85398E-05-1.11337E-06 2.15231E-19-7.19459E-19
 -1      3190 9.55271E-05-2.88149E-05-2.85936E-05-1.08504E-06 2.68847E-19-5.96457E-19
 -1      3191 9.52154E-05-2.87787E-05-2.84714E-05-8.85009E-07 3.28951E-20-5.04863E-20
 -1      3192 9.51945E-05-2.87802E-05-2.84636E-05-9.38609E-07 7.36073E-20-2.58871E-19
 -1      3193 9.52189E-05-2.87470E-05-2.84864E-05-7.85271E-07-9.01266E-20-3.42890E-20
 -1      3194 9.51968E-05-2.87588E-05-2.84742E-05-8.34002E-07 1.57678E-19 8.88888E-20
 -1      3195 9.53878E-05-2.88546E-05-2.85154E-05-8.66187E-07-1.15945E-20-2.82954E-19
 -1      3196 9.52262E-05-2.86991E-05-2.85099E-05-7.05807E-07 7.53044E-20-3.30790E-19
 -1      3197 9.52035E-05-2.87189E-05-2.84945E-05-7.42584E-07-5.17070E-20-2.04591E-19
 -1      3198 9.53549E-05-2.88023E-05-2.85235E-05-7.76379E-07 9.31597E-20-7.07195E-20
 -1      3199 9.52366E-05-2.86380E-05-2.85404E-05-6.58521E-07 1.27179E-19-8.89759E-21
 -1      3200 9.52132E-05-2.86644E-05-2.85223E-05-6.77773E-07 1.00836E-19-1.88315E-19
 -1      3201 9.53270E-05-2.87311E-05-2.85418E-05-7.08699E-07 1.90417E-20 2.18375E-19
 -1      3202 9.52497E-05-2.85644E-05-2.85773E-05-6.53479E-07-2.42328E-20 5.08637E-19
 -1      3203 9.52249E-05-2.85970E-05-2.85563E-05-6.50342E-07 9.77277E-20 1.93129E-19
 -1      3204 9.53024E-05-2.86439E-05-2.85685E-05-6.75189E-07-5.99670E-20 2.85042E-19
 -1      3205 9.52653E-05-2.84773E-05-2.86210E-05-7.00223E-07 4.24202E-20 5.71616E-19
 -1      3206 9.52382E-05-2.85165E-05-2.85967E-05-6.69930E-07 1.78652E-19 4.86579E-19
 -1      3207 9.52789E-05-2.85406E-05-2.86026E-05-6.86211E-07-6.54533E-21 2.22663E-19
 -1      3208 9.52834E-05-2.83744E-05-2.86723E-05-8.08737E-07-8.53181E-21 8.56018E-19
 -1      3209 9.52526E-05-2.84210E-05-2.86440E-05-7.46170E-07 9.35407E-20 8.75242E-19
 -1      3210 9.52540E-05-2.84191E-05-2.86439E-05-7.51667E-07-1.34876E-19 1.67181E-20
 -1      3211 9.53037E-05-2.82524E-05-2.87328E-05-9.90143E-07 5.70494E-19 6.07042E-19
 -1      3212 9.52676E-05-2.83077E-05-2.86994E-05-8.89514E-07 4.59972E-19 7.68545E-19
 -1      3213 9.52247E-05-2.82757E-05-2.86927E-05-8.81907E-07 2.27334E-19 2.76352E-19
 -1      3214 9.53253E-05-2.81069E-05-2.88037E-05-1.25710E-06 1.28882E-19 7.75930E-19
 -1      3215 9.52824E-05-2.81724E-05-2.87642E-05-1.11178E-06 1.47130E-19 3.94853E-19
 -1      3216 9.51869E-05-2.81050E-05-2.87495E-05-1.08832E-06 2.74706E-19 4.27398E-19
 -1      3217 9.53468E-05-2.79336E-05-2.88863E-05-1.62390E-06 4.08564E-19 1.24949E-18
 -1      3218 9.52956E-05-2.80108E-05-2.88397E-05-1.42643E-06 4.01597E-19 1.12903E-18
 -1      3219 9.51354E-05-2.79011E-05-2.88146E-05-1.38362E-06 1.23158E-19 5.57677E-19
 -1      3220 9.53657E-05-2.77282E-05-2.89816E-05-2.10616E-06 1.28206E-18 1.17545E-18
 -1      3221 9.53049E-05-2.78183E-05-2.89270E-05-1.84846E-06 1.10293E-18 1.21580E-18
 -1      3222 9.50637E-05-2.76575E-05-2.88878E-05-1.78185E-06 8.13179E-19 1.01828E-18
 -1      3223 9.53787E-05-2.74885E-05-2.90889E-05-2.72003E-06 2.26105E-19 7.15971E-19
 -1      3224 9.53068E-05-2.75912E-05-2.90261E-05-2.39395E-06 8.38156E-19 9.60300E-19
 -1      3225 9.49632E-05-2.73685E-05-2.89681E-05-2.29796E-06 1.16342E-18 1.92046E-18
 -1      3226 9.53819E-05-2.72163E-05-2.92058E-05-3.48076E-06-9.49924E-21 2.45754E-19
 -1      3227 9.52974E-05-2.73289E-05-2.91357E-05-3.07902E-06 1.38458E-19 5.46170E-19
 -1      3228 9.48242E-05-2.70309E-05-2.90524E-05-2.94702E-06 2.44050E-19 1.44535E-18
 -1      3229 9.53729E-05-2.69223E-05-2.93270E-05-4.40035E-06-4.16951E-19-1.60664E-19
 -1      3230 9.52728E-05-2.70367E-05-2.92517E-05-3.91818E-06 3.60650E-20 2.58680E-19
 -1      3231 9.46358E-05-2.66472E-05-2.91351E-05-3.74306E-06 1.88581E-19 8.61023E-19
 -1      3232 9.53560E-05-2.66338E-05-2.94423E-05-5.48420E-06-4.83494E-19-3.75925E-19
 -1      3233 9.52332E-05-2.67324E-05-2.93664E-05-4.92174E-06-6.75943E-19-6.92284E-19
 -1      3234 9.43898E-05-2.62314E-05-2.92067E-05-4.69753E-06-1.80145E-19-1.41068E-20
 -1      3235 9.53516E-05-2.64086E-05-2.95357E-05-6.72644E-06-5.13501E-19-4.66215E-19
 -1      3236 9.51895E-05-2.64566E-05-2.94669E-05-6.09230E-06-3.56010E-19-2.54147E-19
 -1      3237 9.40860E-05-2.58191E-05-2.92522E-05-5.81781E-06-9.35807E-19 1.46891E-19
 -1      3238 9.54163E-05-2.63561E-05-2.95841E-05-8.10391E-06-3.40070E-19 9.34621E-21
 -1      3239 9.51779E-05-2.62898E-05-2.95335E-05-7.42018E-06-5.55367E-20-2.40321E-19
 -1      3240 9.37453E-05-2.54829E-05-2.92499E-05-7.10621E-06-5.60510E-19-2.45546E-19
 -1      3241 9.56759E-05-2.66689E-05-2.95584E-05-9.56781E-06-4.82020E-19 1.37744E-19
 -1      3242 9.52862E-05-2.63790E-05-2.95397E-05-8.87721E-06-2.70769E-19-1.82005E-20
 -1      3243 9.34321E-05-2.53583E-05-2.91709E-05-8.56028E-06-2.62914E-19 9.33999E-20
 -1      3244 9.63784E-05-2.76626E-05-2.94293E-05-1.10285E-05-1.09222E-18 1.66313E-19
 -1      3245 9.56981E-05-2.69746E-05-2.94551E-05-1.04063E-05-8.57830E-19-2.41874E-19
 -1      3246 9.32950E-05-2.56793E-05-2.89810E-05-1.01737E-05-4.35994E-19-1.06145E-18
 -1      3247 9.79640E-05-2.98076E-05-2.91843E-05-1.23206E-05-9.11414E-19-7.01785E-19
 -1      3248 9.67606E-05-2.84710E-05-2.92559E-05-1.18970E-05-7.21643E-19-4.24357E-19
 -1      3249 9.36314E-05-2.68261E-05-2.86492E-05-1.19298E-05-8.19763E-19-1.32808E-18
 -1      3250 1.01124E-04-3.37000E-05-2.88669E-05-1.31168E-05-7.62278E-19-1.05600E-18
 -1      3251 9.90644E-05-3.14222E-05-2.89514E-05-1.31224E-05-7.50468E-19-7.35413E-19
 -1      3252 9.49798E-05-2.93654E-05-2.81694E-05-1.37647E-05-5.84776E-19-1.63642E-18
 -1      3253 1.06734E-04-3.98361E-05-2.86525E-05-1.27568E-05-7.99635E-19-1.91873E-18
 -1      3254 1.03492E-04-3.64461E-05-2.86424E-05-1.35877E-05-9.58780E-19-1.71809E-18
 -1      3255 9.82185E-05-3.40240E-05-2.76101E-05-1.54365E-05-6.57914E-19-1.33383E-18
 -1      3256 1.15350E-04-4.79460E-05-2.88586E-05-1.00994E-05 1.04212E-19-2.92466E-18
 -1      3257 1.11047E-04-4.37127E-05-2.86406E-05-1.21919E-05-6.78338E-19-2.76212E-18
 -1      3258 1.04635E-04-4.14714E-05-2.72266E-05-1.62068E-05-4.50277E-19-3.54030E-18
 -1      3259 1.31223E-04-5.71799E-05-3.17742E-05-8.65177E-07-8.56258E-19-2.47908E-18
 -1      3260 1.25556E-04-5.52729E-05-3.00417E-05-6.57541E-06-1.19961E-19-2.32224E-18
 -1      3261 1.34893E-04-5.38158E-05-3.48458E-05 6.43545E-06-1.64686E-18-1.12640E-18
 -1      3262 1.18030E-04-1.73846E-05-4.36894E-05-9.57470E-07-7.75459E-19-2.13498E-18
 -1      3263 1.16711E-04-4.75144E-05-2.94538E-05 1.46430E-05 1.93714E-18-3.08969E-18
 -1      3264 1.21354E-04-5.12984E-05-3.00190E-05 1.13376E-05 2.87067E-18-2.76943E-18
 -1      3265 1.07430E-04-3.89737E-05-2.91946E-05 1.77896E-05-8.21002E-20-2.53781E-18
 -1      3266 1.11356E-04-4.30797E-05-2.92615E-05 1.63392E-05 9.18700E-19-3.53639E-18
 -1      3267 1.11839E-04-4.59659E-05-2.83198E-05 2.01485E-05 1.56447E-18-2.90227E-18
 -1      3268 1.01648E-04-3.31433E-05-2.92603E-05 1.90180E-05 5.56433E-19-2.68021E-18
 -1      3269 1.04415E-04-3.61972E-05-2.92332E-05 1.83275E-05-4.99088E-19-1.71036E-18
 -1      3270 1.03779E-04-3.76581E-05-2.83779E-05 2.11193E-05-8.70052E-19-3.48358E-18
 -1      3271 9.85051E-05-3.16222E-05-2.87377E-05 2.09353E-05 7.56539E-19-2.94018E-18
 -1      3272 8.88478E-05-2.72745E-05-2.61839E-05-2.32042E-05 1.41810E-18 4.93558E-18
 -1      3273 8.29008E-05-2.36944E-05-2.54996E-05-2.12813E-05 1.63460E-18 4.35248E-18
 -1      3274 1.24236E-04-2.62635E-05-4.26441E-05-1.60123E-05-2.93762E-19-3.24678E-19
 -1      3275 1.31127E-04-3.59691E-05-4.08565E-05-1.56049E-05-2.14299E-19 7.94782E-19
 -1      3276 7.66145E-05-1.88478E-05-2.45229E-05-1.67061E-05 1.01226E-18 2.79993E-18
 -1      3277 7.22443E-05-1.62514E-05-2.40553E-05-1.15351E-05 9.03380E-20 2.50379E-18
 -1      3278 7.74465E-05-2.31366E-05-2.32502E-05-2.19587E-05 5.60259E-19 4.57925E-18
 -1      3279 5.06786E-05-1.97511E-05-1.26230E-05-2.04970E-05-1.07097E-19 4.79749E-18
 -1      3280 9.46174E-05-2.25053E-05-3.09100E-05-4.93597E-06-9.13977E-19-1.78803E-18
 -1      3281 9.50780E-05-2.43565E-05-3.03284E-05-3.16067E-06-7.36881E-19-1.60296E-18
 -1      3282 1.37066E-04-3.72058E-05-4.33486E-05-1.29316E-05 5.75982E-20-2.61511E-18
 -1      3283 1.34190E-04-4.26263E-05-3.94346E-05-1.10374E-05 9.82558E-19-2.09577E-18
 -1      3284 1.09705E-04-5.34833E-05-2.41066E-05 2.65140E-05 3.88020E-19 1.07822E-18
 -1      3285 9.69416E-05-4.65970E-05-2.13525E-05 3.08582E-05-4.30769E-19-8.70856E-21
 -1      3286 9.37155E-05-2.04107E-05-3.13904E-05-5.72808E-06-9.05068E-19-1.97378E-18
 -1      3287 7.99471E-05-3.70943E-05-1.83185E-05 3.31020E-05-7.25748E-19 9.29407E-19
 -1      3288 6.35744E-05-2.65530E-05-1.53587E-05 2.94751E-05-1.34371E-18 1.30316E-18
 -1      3289 9.95297E-05-3.41141E-05-2.78999E-05-2.20586E-05 1.23636E-18-3.54419E-19
 -1      3290 9.48132E-05-3.12892E-05-2.72662E-05-2.29421E-05 1.57985E-18 1.99305E-18
 -1      3291 9.26386E-05-3.27908E-05-2.56697E-05-2.56123E-05 1.11267E-18 3.07717E-18
 -1      3292 1.05325E-04-3.72495E-05-2.91148E-05-1.67464E-05 2.52493E-18 7.63309E-19
 -1      3293 1.03023E-04-3.60033E-05-2.87225E-05-1.91624E-05 1.75094E-18 1.88560E-19
 -1      3294 1.03507E-04-3.87957E-05-2.78041E-05-2.17973E-05 1.09611E-18 4.79685E-19
 -1      3295 1.02550E-04-4.98366E-05-2.21178E-05-3.59921E-05 2.69547E-18 4.39785E-18
 -1      3296 1.16503E-04-5.77778E-05-2.54549E-05-3.13766E-05 2.54978E-18 1.40282E-18
 -1      3297 1.34387E-04-4.96918E-05-3.67928E-05-7.39342E-06 1.84468E-18-2.06464E-18
 -1      3298 1.35596E-04-5.25145E-05-3.53573E-05 6.78667E-07 1.06461E-19-1.88597E-18
 -1      3299 1.32813E-04-4.43881E-05-3.83644E-05 7.13851E-06-1.07986E-18-1.49554E-18
 -1      3300 9.52170E-05-2.87887E-05-2.84680E-05-9.89567E-07 1.39162E-19-4.26438E-19
 -1      3301 9.51987E-05-2.87759E-05-2.84665E-05-1.03842E-06 2.38832E-19-3.38475E-19
 -1      3302 9.54733E-05-2.88744E-05-2.85444E-05-1.04526E-06 8.71393E-20-5.33501E-19
 -1      3303 9.54269E-05-2.88822E-05-2.85207E-05-9.62733E-07 7.29427E-20-3.64632E-19
 -1      3304 7.20760E-05-3.09476E-05-1.71389E-05-3.42958E-05 1.74431E-18 5.97465E-18
 -1      3305 8.64991E-05-4.11117E-05-1.95120E-05-3.84947E-05 2.16565E-18 5.54457E-18
 -1      3306 9.53710E-05-2.79587E-05-2.88950E-05-4.68400E-07 6.60987E-19-4.14950E-19
 -1      3307 9.54255E-05-2.77011E-05-2.90118E-05-1.37989E-07 7.11958E-19-2.52347E-19
 -1      3308 5.22674E-05-1.91448E-05-1.41311E-05 2.21156E-05-1.23373E-18 1.25700E-18
 -1      3309 4.61467E-05-1.45634E-05-1.31126E-05 1.20911E-05-7.12580E-19 2.69420E-18
 -1      3310 1.19306E-04-1.52283E-05-4.49383E-05 6.71951E-06 6.07005E-19-1.20440E-18
 -1      3311 1.18026E-04-1.17900E-05-4.61031E-05 4.90601E-07 1.56108E-18-5.20793E-19
 -1      3312 9.55039E-05-2.55625E-05-2.99541E-05-2.14855E-06-7.32394E-19-1.34803E-18
 -1      3313 9.55379E-05-2.62729E-05-2.96990E-05-1.33385E-06-7.47265E-19-1.35612E-18
 -1      3314 9.57104E-05-2.62041E-05-2.97897E-05-1.17631E-06-6.44541E-19-1.34623E-18
 -1      3315 9.52129E-05-2.42785E-05-3.04019E-05 4.27520E-06 1.33082E-18-5.92392E-19
 -1      3316 9.46401E-05-2.27358E-05-3.08057E-05 4.77691E-06 1.39115E-18-7.55246E-19
 -1      3317 9.49178E-05-2.35933E-05-3.05681E-05 3.67708E-06 1.23037E-18-8.67036E-19
 -1      3318 9.52392E-05-2.52038E-05-3.00290E-05 3.00520E-06 1.13967E-18-4.65623E-19
 -1      3319 7.62007E-05-3.52595E-05-1.74280E-05 3.66955E-05 3.03720E-18-3.35489E-18
 -1      3320 6.13538E-05-2.54194E-05-1.46297E-05 3.07895E-05 9.68794E-20-3.84193E-18
 -1      3321 1.34422E-04-4.55810E-05-3.85733E-05-1.00811E-05-9.29486E-19 2.14649E-18
 -1      3322 1.35207E-04-5.34831E-05-3.50347E-05-1.85485E-06-4.48332E-19 1.14413E-18
 -1      3323 9.23757E-05-1.83450E-05-3.17425E-05 1.81230E-06 9.60887E-19-1.87766E-18
 -1      3324 9.22548E-05-1.81417E-05-3.17745E-05 1.05851E-06 6.83402E-19-1.99022E-18
 -1      3325 1.18565E-04-5.38823E-05-2.77616E-05-1.43885E-05-3.68671E-19-3.06438E-18
 -1      3326 5.19538E-05-1.59504E-05-1.50470E-05-1.27782E-05-1.11279E-19 3.59883E-18
 -1      3327 6.01536E-05-2.26057E-05-1.58446E-05-2.70821E-05 5.52848E-19 6.46519E-18
 -1      3328 1.34299E-04-5.53568E-05-3.39065E-05 1.25622E-06 2.72435E-18-1.93849E-18
 -1      3329 1.30599E-04-5.63547E-05-3.18217E-05 6.84162E-06 3.20713E-18-2.32875E-18
 -1      3330 1.26450E-04-5.71629E-05-2.98397E-05 1.55393E-05 3.13114E-18-1.55221E-18
 -1      3331 9.21949E-05-1.80418E-05-3.17929E-05 4.08549E-07 5.76414E-19-1.86077E-18
 -1      3332 9.21917E-05-1.80371E-05-3.17934E-05-3.59891E-07 3.03499E-19-1.90368E-18
 -1      3333 9.31487E-05-1.96260E-05-3.14920E-05 6.29060E-07 5.65943E-19-1.81694E-18
 -1      3334 8.67268E-05-3.91760E-05-1.99433E-05 3.61543E-05 3.07034E-18-1.36785E-18
 -1      3335 8.08064E-05-3.24449E-05-2.05122E-05 3.22586E-05 2.36333E-18-9.94152E-19
 -1      3336 9.56370E-05-4.24157E-05-2.27040E-05 3.27349E-05 3.37584E-18-1.69775E-18
 -1      3337 5.33741E-05-1.54798E-05-1.59087E-05-1.01094E-05 1.88094E-19-9.66253E-19
 -1      3338 5.00435E-05-1.67879E-05-1.38055E-05-1.49460E-05-9.27369E-20-1.58882E-18
 -1      3339 5.69723E-05-2.04034E-05-1.56363E-05-2.01536E-05-7.34272E-20-3.01808E-18
 -1      3340 9.52741E-05-2.85687E-05-2.85884E-05-1.07496E-06 3.53696E-19-8.04554E-19
 -1      3341 9.52851E-05-2.84655E-05-2.86313E-05-1.00357E-06 5.75118E-19-5.40058E-19
 -1      3342 9.55865E-05-2.86789E-05-2.86781E-05-1.04202E-06 4.27290E-19-9.02061E-19
 -1      3343 1.31506E-04-5.43898E-05-3.30512E-05-4.67178E-06 7.90953E-19-1.52942E-18
 -1      3344 1.14353E-04-1.38340E-05-4.34185E-05-2.81885E-06 1.09018E-18-3.03833E-19
 -1      3345 1.09037E-04-1.60874E-05-4.00061E-05 2.25068E-07 9.43648E-19-1.19043E-19
 -1      3346 1.23198E-04-3.64814E-05-3.73723E-05-1.53494E-05-1.18352E-18-1.35075E-19
 -1      3347 1.18112E-04-3.18738E-05-3.71910E-05-1.60251E-05-1.07020E-18-7.33332E-19
 -1      3348 1.15456E-04-2.59186E-05-3.84636E-05-1.47578E-05-9.83935E-19-1.30079E-18
 -1      3349 1.23692E-04-3.47363E-05-3.83090E-05 1.10553E-05-1.35314E-18 8.02352E-19
 -1      3350 1.17572E-04-3.51220E-05-3.53588E-05 9.48290E-06-1.77580E-18 5.96000E-20
 -1      3351 1.18993E-04-3.95426E-05-3.42139E-05 8.19707E-06-8.98616E-19-8.60490E-19
 -1      3352 1.29345E-04-4.04595E-05-3.83458E-05 9.55139E-06-1.60359E-18-9.64109E-19
 -1      3353 1.10095E-04-1.84258E-05-3.96133E-05 4.73318E-06 6.82894E-19-9.03384E-19
 -1      3354 9.72816E-05-4.41763E-05-2.24805E-05-3.38710E-05 1.91959E-18 4.37310E-18
 -1      3355 9.53179E-05-2.83378E-05-2.87076E-05-8.84198E-07 4.85948E-19-4.12991E-19
 -1      3356 9.53493E-05-2.81731E-05-2.87809E-05-7.10026E-07 5.27390E-19-4.15052E-19
 -1      3357 9.56461E-05-2.84295E-05-2.88113E-05-8.61212E-07 5.99504E-19-9.40997E-19
 -1      3358 9.43476E-05-2.19807E-05-3.09893E-05 3.64077E-06 1.14928E-18-1.31805E-18
 -1      3359 9.34320E-05-2.02123E-05-3.14044E-05 4.24671E-06 1.24881E-18-1.52627E-18
 -1      3360 9.30752E-05-1.95555E-05-3.15180E-05 3.65946E-06 1.17059E-18-1.65384E-18
 -1      3361 7.08570E-05-2.62392E-05-1.88733E-05-2.77907E-05 5.85167E-19 5.33774E-18
 -1      3362 6.34575E-05-2.31564E-05-1.68228E-05 2.32883E-05-1.24996E-18 1.39178E-18
 -1      3363 1.38233E-04-4.80231E-05-3.85011E-05 1.51940E-05-1.40766E-18-7.82129E-19
 -1      3364 1.18755E-04-2.08448E-05-4.22144E-05 8.35715E-06 5.21084E-19-1.21920E-19
 -1      3365 7.21501E-05-1.59808E-05-2.41267E-05 1.17209E-05-8.24120E-20-1.25361E-19
 -1      3366 7.64812E-05-1.85111E-05-2.46390E-05 1.69171E-05 4.88680E-19-2.36640E-18
 -1      3367 1.32573E-04-5.63569E-05-3.27928E-05 2.53716E-06 1.77215E-19 1.33450E-18
 -1      3368 1.27437E-04-5.61790E-05-3.04097E-05 6.91459E-06-7.21301E-22 1.74044E-18
 -1      3369 1.30225E-04-5.21340E-05-3.35030E-05-3.76349E-06 3.02067E-19 2.83438E-19
 -1      3370 1.29265E-04-4.14248E-05-3.78313E-05-1.26726E-05-9.55983E-19 2.17793E-19
 -1      3371 6.69139E-05-1.57786E-05-2.17035E-05-8.64939E-06 3.22356E-19 1.79065E-18
 -1      3372 6.95820E-05-1.41685E-05-2.36781E-05-3.14718E-06-6.07749E-19-4.77177E-19
 -1      3373 6.95308E-05-1.41381E-05-2.36857E-05 3.44620E-06-1.04452E-18 1.97670E-19
 -1      3374 8.18764E-05-2.24522E-05-2.56000E-05 2.07578E-05-1.43230E-19-1.92744E-18
 -1      3375 8.69017E-05-2.51871E-05-2.62967E-05 2.25843E-05 3.10828E-19-1.21053E-18
 -1      3376 7.70279E-05-2.20207E-05-2.34572E-05 2.12378E-05-3.42704E-19-9.50636E-19
 -1      3377 9.38006E-05-2.08624E-05-3.12500E-05-4.66300E-06-6.89452E-19-1.93208E-18
 -1      3378 1.26783E-04-4.35724E-05-3.57021E-05 6.85169E-06-1.25816E-18-2.16344E-19
 -1      3379 9.73472E-05-4.37519E-05-2.28666E-05 2.63295E-05-6.01658E-19 5.81581E-19
 -1      3380 8.98531E-05-4.12444E-05-2.05521E-05 3.10280E-05-4.07873E-19-3.35425E-19
 -1      3381 8.20160E-05-3.46051E-05-2.02283E-05 2.85312E-05-1.10085E-18 6.73126E-19
 -1      3382 5.07050E-05-1.43291E-05-1.51673E-05 5.92634E-06-2.73545E-19 1.85336E-18
 -1      3383 1.20716E-04-5.65622E-05-2.74120E-05-2.39366E-05 1.92941E-18-1.69447E-18
 -1      3384 9.54130E-05-2.73496E-05-2.91770E-05 2.77166E-07 6.33431E-19-1.95623E-19
 -1      3385 9.54730E-05-2.69402E-05-2.93559E-05 8.36111E-07 8.41849E-19-2.20111E-19
 -1      3386 9.56939E-05-2.73395E-05-2.93001E-05 2.29236E-07 7.04271E-19-7.75100E-19
 -1      3387 9.56919E-05-2.80110E-05-2.90110E-05-4.68850E-07 6.41919E-19-9.39845E-19
 -1      3388 1.15882E-04-5.53955E-05-2.57163E-05 2.16939E-05 7.52377E-19 1.44821E-18
 -1      3389 1.10389E-04-5.15263E-05-2.51415E-05 2.23967E-05-1.78036E-19 1.87982E-18
 -1      3390 1.20834E-04-5.67222E-05-2.77235E-05 1.63256E-05 5.88635E-19 2.04936E-18
 -1      3391 1.23130E-04-4.40013E-05-3.39303E-05 5.42831E-06-1.82880E-19-3.24493E-19
 -1      3392 7.32095E-05-3.32577E-05-1.67251E-05-2.97581E-05-3.17479E-19-1.41428E-18
 -1      3393 9.53850E-05-2.65031E-05-2.95306E-05 1.37409E-06 9.62055E-19-3.10296E-19
 -1      3394 9.54267E-05-2.58839E-05-2.97904E-05 2.23623E-06 1.02781E-18-4.37218E-19
 -1      3395 9.53421E-05-2.51641E-05-3.00721E-05 2.61338E-06 1.04479E-18-6.06216E-19
 -1      3396 9.55837E-05-2.63998E-05-2.96528E-05 1.24401E-06 8.17444E-19-5.08278E-19
 -1      3397 9.51512E-05-2.42143E-05-3.03994E-05-2.81378E-06-6.28844E-19-1.65762E-18
 -1      3398 9.25275E-05-1.86060E-05-3.16912E-05-2.37507E-06-8.00836E-20-2.11294E-18
 -1      3399 9.27575E-05-1.90093E-05-3.16253E-05-3.08457E-06-2.54300E-19-2.16240E-18
 -1      3400 9.27850E-05-1.90562E-05-3.16187E-05 3.11913E-06 1.23863E-18-1.71749E-18
 -1      3401 9.25451E-05-1.86373E-05-3.16862E-05 2.42528E-06 1.07899E-18-1.78489E-18
 -1      3402 9.33618E-05-2.00099E-05-3.14155E-05 1.81024E-06 9.60169E-19-1.69189E-18
 -1      3403 9.37972E-05-2.08074E-05-3.12543E-05 2.86327E-06 1.04020E-18-1.69951E-18
 -1      3404 9.37345E-05-2.07478E-05-3.12631E-05-2.80700E-06-3.10482E-19-1.87567E-18
 -1      3405 9.30411E-05-1.94977E-05-3.15269E-05-3.61359E-06-3.63869E-19-1.99301E-18
 -1      3406 9.33680E-05-2.01280E-05-3.14170E-05-4.22416E-06-5.60459E-19-1.99255E-18
 -1      3407 5.98964E-05-2.12441E-05-1.60537E-05 2.24272E-05-4.91994E-19-1.60862E-18
 -1      3408 9.75577E-05-4.56176E-05-2.20767E-05-2.74496E-05-4.89876E-19-1.89709E-18
 -1      3409 1.06185E-04-5.15015E-05-2.30219E-05-2.64086E-05-8.93143E-19-2.80323E-18
 -1      3410 1.07629E-04-3.85458E-05-2.95480E-05-1.24536E-05 1.29758E-18-3.65308E-19
 -1      3411 1.06360E-04-3.77234E-05-2.94032E-05-1.46167E-05 1.85598E-18 8.16315E-19
 -1      3412 1.08554E-04-4.09881E-05-2.89929E-05-1.62916E-05 1.69781E-18 2.38182E-19
 -1      3413 1.10381E-04-4.14119E-05-2.95846E-05-1.18016E-05 2.82174E-19-8.38426E-19
 -1      3414 1.19794E-04-5.58057E-05-2.71458E-05 2.33181E-05 3.55512E-18-2.28080E-18
 -1      3415 1.11485E-04-5.06129E-05-2.59879E-05 2.66496E-05 3.53462E-18-3.28409E-18
 -1      3416 5.29561E-05-1.40481E-05-1.65994E-05 3.26796E-06-1.80383E-18-3.08267E-19
 -1      3417 5.17671E-05-1.40888E-05-1.55993E-05-4.82673E-06-1.05884E-18 7.40254E-19
 -1      3418 1.27203E-04-4.45650E-05-3.54780E-05-1.10536E-05-1.06035E-18 3.25856E-19
 -1      3419 1.20161E-04-2.24522E-05-4.21362E-05-1.44025E-05-1.56013E-19-1.27304E-18
 -1      3420 9.61709E-05-2.78306E-05-2.92811E-05 2.39732E-07-5.74907E-19-7.30493E-19
 -1      3421 9.61664E-05-2.81488E-05-2.91550E-05 4.92020E-07-4.70599E-19-6.24662E-19
 -1      3422 9.61760E-05-2.84115E-05-2.90362E-05 6.53581E-07-5.25171E-19-7.85591E-19
 -1      3423 9.61464E-05-2.86086E-05-2.89470E-05 7.88816E-07-3.18027E-19-8.15010E-19
 -1      3424 9.63674E-05-2.82212E-05-2.92070E-05 4.69744E-07-5.56183E-19-5.57514E-19
 -1      3425 9.61135E-05-2.87616E-05-2.88611E-05 8.65318E-07-2.51665E-19-8.62628E-19
 -1      3426 9.60733E-05-2.88747E-05-2.88001E-05 9.20689E-07-1.84362E-19-1.05610E-18
 -1      3427 9.63460E-05-2.86920E-05-2.89967E-05 7.26752E-07-4.07838E-19-6.49591E-19
 -1      3428 9.60181E-05-2.89523E-05-2.87399E-05 9.40459E-07 6.07030E-20-1.07965E-18
 -1      3429 9.59752E-05-2.90075E-05-2.87002E-05 9.45020E-07 2.24120E-19-8.25418E-19
 -1      3430 9.62602E-05-2.89596E-05-2.88453E-05 8.39859E-07-7.41631E-20-7.33835E-19
 -1      3431 9.59100E-05-2.90339E-05-2.86598E-05 9.30178E-07 3.03843E-19-6.57643E-19
 -1      3432 9.58685E-05-2.90493E-05-2.86358E-05 9.05713E-07 3.39724E-19-4.34833E-19
 -1      3433 9.61422E-05-2.90866E-05-2.87402E-05 8.59170E-07 3.48062E-19-3.88805E-19
 -1      3434 9.58008E-05-2.90412E-05-2.86106E-05 8.72913E-07 3.57395E-20-4.64723E-19
 -1      3435 9.57623E-05-2.90295E-05-2.85985E-05 8.35385E-07-1.99723E-19-3.50571E-19
 -1      3436 9.60116E-05-2.91173E-05-2.86709E-05 8.23485E-07 1.29850E-19-3.87791E-19
 -1      3437 9.56959E-05-2.89981E-05-2.85848E-05 7.96900E-07-4.20592E-19-4.86880E-19
 -1      3438 9.56611E-05-2.89675E-05-2.85814E-05 7.57936E-07-3.83182E-19-6.34292E-19
 -1      3439 9.58795E-05-2.90822E-05-2.86290E-05 7.61920E-07-2.78389E-19-9.04001E-19
 -1      3440 9.55973E-05-2.89198E-05-2.85766E-05 7.22808E-07-2.95683E-19-5.73421E-19
 -1      3441 9.55656E-05-2.88755E-05-2.85798E-05 6.90976E-07-3.66650E-19-6.37399E-19
 -1      3442 9.57510E-05-2.90018E-05-2.86081E-05 6.96043E-07-3.26756E-19-6.78887E-19
 -1      3443 9.55043E-05-2.88155E-05-2.85818E-05 6.65991E-07-4.01282E-19-2.17890E-19
 -1      3444 9.54748E-05-2.87603E-05-2.85902E-05 6.47822E-07-5.06959E-19 9.04107E-20
 -1      3445 9.56274E-05-2.88885E-05-2.86034E-05 6.41933E-07-1.00285E-19-1.65243E-19
 -1      3446 9.54142E-05-2.86897E-05-2.85974E-05 6.38339E-07-5.38033E-19 1.57814E-19
 -1      3447 9.53856E-05-2.86245E-05-2.86101E-05 6.39150E-07-5.98638E-19 4.24177E-19
 -1      3448 9.55067E-05-2.87490E-05-2.86111E-05 6.11919E-07-4.71828E-19 1.81915E-19
 -1      3449 9.53232E-05-2.85434E-05-2.86215E-05 6.49770E-07-9.55092E-19 7.73449E-19
 -1      3450 9.52939E-05-2.84680E-05-2.86377E-05 6.74280E-07-7.98928E-19 1.11755E-18
 -1      3451 9.53849E-05-2.85854E-05-2.86287E-05 6.16081E-07-3.83516E-19 3.91717E-19
 -1      3452 9.52264E-05-2.83751E-05-2.86525E-05 7.09354E-07-8.12515E-19 1.08874E-18
 -1      3453 9.51945E-05-2.82886E-05-2.86718E-05 7.62112E-07-3.36288E-19 8.04484E-19
 -1      3454 9.52560E-05-2.83968E-05-2.86539E-05 6.63419E-07-6.63661E-19 7.01752E-19
 -1      3455 9.51180E-05-2.81822E-05-2.86892E-05 8.26091E-07-1.07378E-19 7.56211E-19
 -1      3456 9.50818E-05-2.80834E-05-2.87112E-05 9.11726E-07-2.27530E-19 2.29961E-19
 -1      3457 9.51130E-05-2.81802E-05-2.86850E-05 7.62704E-07-4.82631E-19 1.05691E-18
 -1      3458 9.49921E-05-2.79616E-05-2.87304E-05 1.00937E-06-4.87587E-19 1.99480E-19
 -1      3459 9.49500E-05-2.78498E-05-2.87546E-05 1.13266E-06-6.25524E-19 9.29586E-21
 -1      3460 9.49480E-05-2.79320E-05-2.87202E-05 9.23041E-07-4.59889E-19 5.00626E-19
 -1      3461 9.48433E-05-2.77116E-05-2.87744E-05 1.26912E-06-2.98711E-19-3.27474E-20
 -1      3462 9.47943E-05-2.75872E-05-2.88001E-05 1.43488E-06-5.78853E-20 2.45103E-20
 -1      3463 9.47529E-05-2.76493E-05-2.87573E-05 1.15418E-06-4.21681E-19-1.91097E-20
 -1      3464 9.46672E-05-2.74333E-05-2.88188E-05 1.61565E-06-1.02007E-19 2.77130E-19
 -1      3465 9.46115E-05-2.72994E-05-2.88447E-05 1.82841E-06 3.24649E-19-1.58203E-19
 -1      3466 9.45204E-05-2.73314E-05-2.87934E-05 1.46659E-06-1.76573E-19 1.34857E-19
 -1      3467 9.44624E-05-2.71334E-05-2.88602E-05 2.05916E-06 3.72328E-19-5.82916E-19
 -1      3468 9.44027E-05-2.69968E-05-2.88843E-05 2.32266E-06 1.32770E-20-4.99266E-19
 -1      3469 9.42454E-05-2.69831E-05-2.88244E-05 1.87130E-06-5.16953E-21 1.37776E-19
 -1      3470 9.42329E-05-2.68275E-05-2.88935E-05 2.60895E-06-1.57263E-19-5.02912E-19
 -1      3471 9.41758E-05-2.67012E-05-2.89131E-05 2.92536E-06-3.37468E-19-1.17756E-18
 -1      3472 9.39273E-05-2.66172E-05-2.88446E-05 2.37966E-06-1.62703E-19-4.70931E-19
 -1      3473 9.39921E-05-2.65448E-05-2.89118E-05 3.27231E-06-3.20352E-19-9.71069E-19
 -1      3474 9.39507E-05-2.64508E-05-2.89230E-05 3.64123E-06 4.98455E-20-5.79920E-19
 -1      3475 9.35738E-05-2.62593E-05-2.88464E-05 3.00291E-06-9.39359E-20-8.13992E-19
 -1      3476 9.37685E-05-2.63344E-05-2.89062E-05 4.05313E-06 3.81155E-19-3.66813E-19
 -1      3477 9.37666E-05-2.63072E-05-2.89043E-05 4.47025E-06 4.88977E-19 3.70137E-19
 -1      3478 9.32057E-05-2.59539E-05-2.88201E-05 3.75190E-06 2.52764E-19 1.12642E-19
 -1      3479 9.36146E-05-2.62725E-05-2.88659E-05 4.94992E-06 4.64925E-19 1.45473E-19
 -1      3480 9.36915E-05-2.63637E-05-2.88461E-05 5.40524E-06 6.31094E-19-2.91461E-19
 -1      3481 9.28653E-05-2.57716E-05-2.87538E-05 4.63678E-06 4.88954E-19 8.52767E-19
 -1      3482 9.36190E-05-2.64723E-05-2.87801E-05 5.95288E-06 3.74379E-19-8.14416E-19
 -1      3483 9.38368E-05-2.67547E-05-2.87381E-05 6.42771E-06 3.16585E-19-6.93923E-20
 -1      3484 9.26278E-05-2.58185E-05-2.86350E-05 5.66634E-06 3.39159E-19-2.65372E-19
 -1      3485 9.39229E-05-2.70923E-05-2.86403E-05 7.03793E-06 4.15156E-19 4.27658E-19
 -1      3486 9.43742E-05-2.76635E-05-2.85754E-05 7.49941E-06 3.57594E-19 7.85858E-19
 -1      3487 9.26168E-05-2.62470E-05-2.84524E-05 6.84566E-06 5.28072E-19-4.23316E-19
 -1      3488 9.47408E-05-2.83429E-05-2.84470E-05 8.15349E-06-3.53444E-19-8.61674E-20
 -1      3489 9.55548E-05-2.93231E-05-2.83665E-05 8.54315E-06-4.61372E-19-2.64259E-19
 -1      3490 9.30266E-05-2.72660E-05-2.82013E-05 8.16824E-06-1.32898E-19-4.66483E-19
 -1      3491 9.63829E-05-3.04813E-05-2.82204E-05 9.18748E-06-6.93937E-19-3.86437E-19
 -1      3492 9.77199E-05-3.19945E-05-2.81482E-05 9.39740E-06-4.77004E-19-6.29362E-19
 -1      3493 9.41518E-05-2.91492E-05-2.78937E-05 9.59128E-06-7.38835E-19-9.63628E-19
 -1      3494 9.92620E-05-3.37697E-05-2.80214E-05 9.90064E-06-6.62749E-19-9.29250E-19
 -1      3495 1.01282E-04-3.58841E-05-2.80103E-05 9.72978E-06-1.04637E-18-1.96845E-18
 -1      3496 9.64150E-05-3.22163E-05-2.75761E-05 1.09807E-05-1.09460E-18-1.31027E-18
 -1      3497 1.03837E-04-3.83388E-05-2.79860E-05 9.80453E-06-1.37232E-18-1.72401E-18
 -1      3498 1.06595E-04-4.09092E-05-2.81429E-05 8.90407E-06-1.40149E-18-1.84402E-18
 -1      3499 1.00367E-04-3.67112E-05-2.73650E-05 1.19875E-05-1.27640E-18-1.85050E-18
 -1      3500 1.10495E-04-4.39083E-05-2.84010E-05 8.03588E-06-1.65621E-18-1.69722E-18
 -1      3501 1.14010E-04-4.62628E-05-2.89794E-05 5.56371E-06-1.85964E-18-2.70113E-18
 -1      3502 1.06663E-04-4.25394E-05-2.75487E-05 1.16164E-05-1.87537E-18-1.76617E-18
 -1      3503 1.17312E-04-5.01477E-05-2.87023E-05 8.03285E-06-9.01375E-19-8.97140E-19
 -1      3504 1.21012E-04-5.14985E-05-2.97831E-05 4.77191E-06-4.61282E-19-6.76032E-19
 -1      3505 1.26150E-04-4.84140E-05-3.34907E-05-6.50963E-06-5.11065E-19-9.46913E-19
 -1      3506 9.57817E-05-2.89228E-05-2.86535E-05-1.01480E-06 3.07722E-20-4.29074E-19
 -1      3507 9.58121E-05-2.88649E-05-2.86888E-05-1.00958E-06 1.21315E-19-7.28333E-19
 -1      3508 9.54816E-05-2.88479E-05-2.85556E-05-7.31971E-07-3.03423E-19 1.66595E-19
 -1      3509 9.54974E-05-2.88821E-05-2.85500E-05-7.69364E-07-1.54257E-19 3.46603E-21
 -1      3510 9.55481E-05-2.89211E-05-2.85529E-05-8.09689E-07-4.94332E-20-3.27065E-19
 -1      3511 9.55669E-05-2.89426E-05-2.85533E-05-8.53765E-07-1.11655E-19-4.57053E-19
 -1      3512 9.56629E-05-2.89685E-05-2.85846E-05-7.59798E-07-2.26758E-19-5.82893E-20
 -1      3513 9.53618E-05-2.86398E-05-2.85932E-05-6.58383E-07-2.23043E-19-1.60330E-19
 -1      3514 9.53740E-05-2.86934E-05-2.85787E-05-6.63020E-07-2.94812E-20-1.51504E-19
 -1      3515 9.53023E-05-2.85066E-05-2.86246E-05-6.83883E-07-7.58314E-20-1.17792E-19
 -1      3516 9.53145E-05-2.85700E-05-2.86064E-05-6.64281E-07-5.10739E-20-1.16270E-19
 -1      3517 9.53800E-05-2.86129E-05-2.86149E-05-6.48387E-07-2.87529E-19-3.50501E-19
 -1      3518 9.52373E-05-2.83506E-05-2.86634E-05-7.63869E-07-1.20374E-19-4.09653E-19
 -1      3519 9.52509E-05-2.84253E-05-2.86416E-05-7.15026E-07-3.37392E-19-3.21818E-19
 -1      3520 9.52821E-05-2.84467E-05-2.86438E-05-6.87691E-07-7.12110E-20-6.93252E-19
 -1      3521 9.51609E-05-2.81665E-05-2.87093E-05-9.08385E-07 2.07407E-19-3.47801E-19
 -1      3522 9.51778E-05-2.82549E-05-2.86837E-05-8.24988E-07 1.83907E-19-3.73338E-19
 -1      3523 9.51721E-05-2.82517E-05-2.86799E-05-7.81205E-07-2.80002E-19-8.89021E-19
 -1      3524 9.50658E-05-2.79477E-05-2.87620E-05-1.12836E-06 3.75875E-20 3.82643E-19
 -1      3525 9.50883E-05-2.80528E-05-2.87325E-05-1.00458E-06 3.79289E-19 1.34477E-19
 -1      3526 9.50409E-05-2.80213E-05-2.87220E-05-9.38576E-07 8.38063E-22-3.37058E-19
 -1      3527 9.49427E-05-2.76865E-05-2.88208E-05-1.43575E-06-2.57539E-20 2.35043E-19
 -1      3528 9.49739E-05-2.78117E-05-2.87876E-05-1.26520E-06-1.08739E-19-6.09867E-21
 -1      3529 9.48777E-05-2.77472E-05-2.87689E-05-1.17010E-06 1.84387E-19-4.83632E-19
 -1      3530 9.47803E-05-2.73750E-05-2.88843E-05-1.84342E-06 5.77435E-19 5.95745E-19
 -1      3531 9.48240E-05-2.75235E-05-2.88478E-05-1.61926E-06 3.14765E-19-3.56505E-20
 -1      3532 9.46690E-05-2.74202E-05-2.88189E-05-1.48675E-06 2.84556E-19-4.00482E-19
 -1      3533 9.45649E-05-2.70064E-05-2.89497E-05-2.36459E-06 8.08049E-19 1.16236E-18
 -1      3534 9.46259E-05-2.71806E-05-2.89110E-05-2.07989E-06 7.46305E-19 1.23277E-18
 -1      3535 9.43988E-05-2.70312E-05-2.88688E-05-1.89993E-06 3.40914E-19-2.31896E-20
 -1      3536 9.42806E-05-2.65766E-05-2.90116E-05-3.01216E-06 9.68450E-20 1.18561E-18
 -1      3537 9.43644E-05-2.67772E-05-2.89732E-05-2.66037E-06 5.32751E-19 1.34745E-18
 -1      3538 9.40479E-05-2.65724E-05-2.89137E-05-2.42101E-06 5.12534E-19 1.07493E-18
 -1      3539 9.39105E-05-2.60886E-05-2.90618E-05-3.79776E-06 8.07260E-20 1.02232E-18
 -1      3540 9.40224E-05-2.63120E-05-2.90276E-05-3.37339E-06 2.02406E-19 1.03269E-18
 -1      3541 9.35947E-05-2.60402E-05-2.89460E-05-3.06079E-06 7.96647E-20 1.36102E-18
 -1      3542 9.34398E-05-2.55580E-05-2.90870E-05-4.73117E-06-6.55318E-19 1.07772E-18
 -1      3543 9.35829E-05-2.57930E-05-2.90635E-05-4.23043E-06-5.05005E-20 1.31994E-18
 -1      3544 9.30160E-05-2.54387E-05-2.89538E-05-3.82935E-06-3.35103E-19 1.28104E-18
 -1      3545 9.28630E-05-2.50236E-05-2.90679E-05-5.82069E-06-1.10855E-18 8.05315E-19
 -1      3546 9.30335E-05-2.52457E-05-2.90647E-05-5.24184E-06-1.00498E-18 7.51497E-19
 -1      3547 9.22902E-05-2.47869E-05-2.89197E-05-4.73705E-06-6.47366E-19 1.28298E-18
 -1      3548 9.21968E-05-2.45634E-05-2.89777E-05-7.07576E-06-3.12939E-19 6.15754E-19
 -1      3549 9.23754E-05-2.47252E-05-2.90078E-05-6.41860E-06-5.38008E-19 6.56057E-19
 -1      3550 9.14039E-05-2.41291E-05-2.88195E-05-5.79800E-06-4.39491E-19 1.20726E-18
 -1      3551 9.15041E-05-2.43198E-05-2.87810E-05-8.51372E-06 4.03347E-19-3.25900E-19
 -1      3552 9.16406E-05-2.43367E-05-2.88615E-05-7.77768E-06 6.57733E-20 1.22277E-19
 -1      3553 9.03639E-05-2.35507E-05-2.86199E-05-7.03818E-06 2.61283E-19 3.28231E-19
 -1      3554 9.09362E-05-2.45366E-05-2.84362E-05-1.01720E-05-8.30725E-20-8.54038E-19
 -1      3555 9.09224E-05-2.42652E-05-2.85857E-05-9.35307E-06 4.16657E-19-2.84515E-19
 -1      3556 8.92182E-05-2.32031E-05-2.82778E-05-8.51206E-06 4.52839E-19-2.01617E-19
 -1      3557 9.08029E-05-2.56116E-05-2.79031E-05-1.21170E-05-1.17772E-18-1.18735E-18
 -1      3558 9.04311E-05-2.48210E-05-2.81360E-05-1.12099E-05-6.33207E-19-1.03434E-18
 -1      3559 8.80958E-05-2.33425E-05-2.77410E-05-1.03299E-05-2.10151E-19-3.13745E-19
 -1      3560 9.16800E-05-2.81517E-05-2.71650E-05-1.44208E-05-6.09727E-19-1.22461E-18
 -1      3561 9.05854E-05-2.64974E-05-2.74757E-05-1.34431E-05-8.99324E-19-1.32488E-18
 -1      3562 8.72813E-05-2.43913E-05-2.69546E-05-1.26820E-05-6.99868E-19-1.30747E-18
 -1      3563 9.45230E-05-3.29923E-05-2.62755E-05-1.70370E-05-5.15598E-20-1.93862E-18
 -1      3564 9.21551E-05-3.00349E-05-2.66070E-05-1.61260E-05 1.64066E-19-6.11670E-19
 -1      3565 8.73289E-05-2.70048E-05-2.58811E-05-1.58335E-05-1.11322E-19-1.32137E-18
 -1      3566 1.00655E-04-4.12322E-05-2.54266E-05-1.95954E-05 3.61312E-20-2.83658E-18
 -1      3567 9.64298E-05-3.63292E-05-2.56422E-05-1.90556E-05 1.64247E-19-2.52474E-18
 -1      3568 8.93493E-05-3.21947E-05-2.45339E-05-1.99633E-05 4.90468E-19-1.75065E-18
 -1      3569 5.93517E-05-1.59944E-05-1.83410E-05-1.12247E-05 3.33339E-19 2.70844E-18
 -1      3570 1.09813E-04-4.40543E-05-2.81200E-05-2.04959E-05 8.96621E-19 7.16328E-19
 -1      3571 1.05464E-04-4.22382E-05-2.71051E-05-2.38581E-05 1.11936E-18-6.34742E-19
 -1      3572 6.66413E-05-1.57205E-05-2.17595E-05 8.97669E-06-4.03648E-19-3.99217E-19
 -1      3573 1.04811E-04-4.09903E-05-2.72840E-05 2.36283E-05 2.10294E-19-3.82726E-18
 -1      3574 1.10440E-04-4.65969E-05-2.73355E-05 2.29752E-05 2.47038E-18-2.91502E-18
 -1      3575 1.03098E-04-4.51198E-05-2.46651E-05 3.03518E-05 2.74055E-18-4.02316E-18
 -1      3576 1.01929E-04-3.78288E-05-2.73846E-05 2.38662E-05-1.63120E-20-4.35563E-18
 -1      3577 1.23240E-04-4.96689E-05-3.14621E-05-4.42651E-06 1.68626E-19 1.63980E-19
 -1      3578 1.20156E-04-4.90215E-05-3.03867E-05-8.27032E-06-2.07325E-20-3.94678E-19
 -1      3579 9.12748E-05-3.78259E-05-2.27433E-05-3.20447E-05 1.21641E-18 4.96007E-18
 -1      3580 1.04285E-04-4.63849E-05-2.48749E-05-3.04858E-05 1.77149E-18 2.04609E-18
 -1      3581 1.18172E-04-5.63485E-05-2.65858E-05-1.79838E-05-7.90070E-19-2.49022E-18
 -1      3582 1.26313E-04-4.78845E-05-3.39092E-05 2.97615E-06-1.00602E-19-5.66890E-19
 -1      3583 7.10759E-05-2.64419E-05-1.90834E-05 2.47814E-05-6.86381E-19 1.82070E-18
 -1      3584 6.17576E-05-1.93871E-05-1.79496E-05 1.81943E-05-7.58015E-19 1.41645E-18
 -1      3585 5.61114E-05-1.50766E-05-1.75422E-05 9.35898E-06 3.67387E-19 1.83256E-18
 -1      3586 5.42881E-05-1.38116E-05-1.71459E-05-3.94606E-07 7.87023E-19 1.47209E-18
 -1      3587 9.22457E-05-1.81289E-05-3.17762E-05-1.00977E-06 2.00087E-19-2.00180E-18
 -1      3588 9.23573E-05-1.83197E-05-3.17456E-05-1.76263E-06 3.70618E-21-2.06135E-18
 -1      3589 9.33436E-05-1.99889E-05-3.14197E-05-1.76418E-06-4.33232E-20-1.96985E-18
 -1      3590 9.54204E-05-2.87533E-05-2.85698E-05-6.77739E-07-2.77437E-20-3.49804E-20
 -1      3591 9.54339E-05-2.87976E-05-2.85593E-05-7.01565E-07-5.79794E-20-2.59731E-20
 -1      3592 9.55658E-05-2.88738E-05-2.85833E-05-6.94739E-07-1.32316E-19-1.56784E-19
 -1      3593 9.54727E-05-2.87547E-05-2.85941E-05-6.53958E-07 4.16000E-20-3.69797E-19
 -1      3594 9.59529E-05-2.80883E-05-2.90894E-05-4.98000E-07 6.60640E-19-1.05383E-18
 -1      3595 9.59710E-05-2.77851E-05-2.92133E-05-2.19672E-07 7.47784E-19-1.01803E-18
 -1      3596 6.85361E-05-2.67400E-05-1.74981E-05-2.53439E-05-6.51686E-20-1.54552E-18
 -1      3597 8.21337E-05-3.54705E-05-1.98971E-05-2.80387E-05-1.69671E-19-9.10825E-20
 -1      3598 1.12039E-04-5.00116E-05-2.62801E-05-2.63826E-05 1.65312E-18-1.59884E-18
 -1      3599 1.19704E-04-5.35477E-05-2.84371E-05-1.97672E-05 1.54518E-18-1.99868E-18
 -1      3600 9.60388E-05-2.69167E-05-2.96151E-05-4.52839E-07-4.95108E-19-1.11793E-18
 -1      3601 9.60881E-05-2.74100E-05-2.94411E-05-3.91980E-08-5.24793E-19-8.99069E-19
 -1      3602 9.62750E-05-2.74621E-05-2.94916E-05 9.39564E-09-3.98148E-19-8.28324E-19
 -1      3603 9.43375E-05-2.20025E-05-3.09874E-05-3.62574E-06-5.75732E-19-1.83809E-18
 -1      3604 9.52829E-05-2.45662E-05-3.03027E-05 2.88157E-06 1.00486E-18-7.58203E-19
 -1      3605 9.49934E-05-2.37334E-05-3.05465E-05 3.09598E-06 9.77062E-19-9.94183E-19
 -1      3606 9.54218E-05-2.52961E-05-3.00622E-05 2.07163E-06 8.57293E-19-7.24067E-19
 -1      3607 9.14566E-05-2.79563E-05-2.73116E-05 2.27194E-05 3.57656E-19-2.68872E-18
 -1      3608 9.55785E-05-3.01586E-05-2.79375E-05 2.24011E-05-3.35554E-20-3.51060E-18
 -1      3609 9.75510E-05-3.31393E-05-2.76145E-05 2.31718E-05-1.54954E-19-3.75129E-18
 -1      3610 8.88350E-05-2.88711E-05-2.56634E-05 2.48742E-05-9.92670E-19-1.67026E-18
 -1      3611 9.56765E-05-2.55227E-05-3.00609E-05-1.50610E-06-4.40305E-19-1.43390E-18
 -1      3612 9.58346E-05-2.62652E-05-2.98258E-05-8.79957E-07-4.27304E-19-1.29039E-18
 -1      3613 9.59946E-05-2.63023E-05-2.98675E-05-7.16766E-07-3.41029E-19-1.02037E-18
 -1      3614 9.48909E-05-2.33011E-05-3.06858E-05-2.99502E-06-4.52275E-19-1.82056E-18
 -1      3615 9.53350E-05-2.46423E-05-3.03047E-05-1.98365E-06-4.02454E-19-1.59757E-18
 -1      3616 9.54518E-05-2.46714E-05-3.03284E-05-1.65655E-06-2.26372E-19-1.35204E-18
 -1      3617 9.45563E-05-2.25307E-05-3.08628E-05-2.72703E-06-2.46643E-19-1.61315E-18
 -1      3618 1.26374E-04-5.25264E-05-3.15730E-05-6.01941E-06 3.54642E-19-6.89339E-19
 -1      3619 7.00337E-05-2.27614E-05-2.02517E-05 2.42693E-05 8.81298E-19-1.11946E-18
 -1      3620 6.05985E-05-1.61959E-05-1.85575E-05 1.41733E-05-8.35075E-19-8.97802E-19
 -1      3621 7.83805E-05-2.72509E-05-2.15788E-05 2.77147E-05 5.41049E-19-8.38827E-19
 -1      3622 9.60420E-05-3.87721E-05-2.44992E-05 2.94384E-05 9.39862E-19-3.09449E-18
 -1      3623 5.62457E-05-1.43771E-05-1.77077E-05-4.28215E-06 7.04500E-19 6.54015E-19
 -1      3624 5.95669E-05-1.60940E-05-1.86215E-05-9.81864E-06 5.70275E-19-1.18280E-18
 -1      3625 6.11419E-05-1.48993E-05-1.97752E-05-9.91271E-07 1.13532E-18 1.24817E-18
 -1      3626 9.58609E-05-2.87878E-05-2.87463E-05-9.84185E-07 2.54935E-19-8.23158E-19
 -1      3627 9.58935E-05-2.86765E-05-2.88028E-05-9.23172E-07 4.93598E-19-8.45312E-19
 -1      3628 9.60836E-05-2.88803E-05-2.88040E-05-9.16504E-07 1.73620E-19-8.98982E-19
 -1      3629 9.56208E-05-2.89667E-05-2.85647E-05-8.96593E-07 9.13146E-20-6.28594E-19
 -1      3630 9.56434E-05-2.89707E-05-2.85734E-05-9.38238E-07 2.04181E-19-5.79884E-19
 -1      3631 9.57657E-05-2.90324E-05-2.86016E-05-8.35677E-07-1.79040E-20-1.00305E-18
 -1      3632 1.24698E-04-5.00348E-05-3.18846E-05-3.12834E-06-1.02140E-19-1.29259E-18
 -1      3633 9.57262E-05-2.89522E-05-2.86159E-05-1.00044E-06 2.06301E-19-5.23901E-19
 -1      3634 9.59827E-05-2.90126E-05-2.87037E-05-9.42416E-07 2.11800E-19-8.58118E-19
 -1      3635 9.56996E-05-2.89733E-05-2.85960E-05-9.73620E-07 1.84034E-19-6.09284E-19
 -1      3636 8.57916E-05-3.37274E-05-2.23299E-05 2.37762E-05-9.48793E-20 6.28750E-19
 -1      3637 7.84273E-05-2.99569E-05-2.05474E-05 2.50006E-05-7.29851E-19 1.52230E-18
 -1      3638 7.60617E-05-2.61472E-05-2.13602E-05 2.09442E-05-3.77393E-19 1.31028E-18
 -1      3639 9.59253E-05-2.85290E-05-2.88864E-05-8.33140E-07 5.09117E-19-9.16162E-19
 -1      3640 9.59558E-05-2.83397E-05-2.89717E-05-6.84375E-07 5.21836E-19-1.00286E-18
 -1      3641 9.61606E-05-2.86141E-05-2.89511E-05-7.82604E-07 4.19517E-19-9.57435E-19
 -1      3642 1.16474E-04-4.66004E-05-2.99706E-05-9.76895E-06-6.99042E-19-8.74281E-19
 -1      3643 1.13327E-04-4.40289E-05-2.96483E-05-1.13810E-05-5.21514E-19-1.04156E-18
 -1      3644 1.12668E-04-4.41682E-05-2.93517E-05-1.38125E-05-3.76177E-19-5.14063E-19
 -1      3645 1.19265E-04-5.00182E-05-2.97798E-05-1.24644E-05-2.31147E-20-4.85648E-19
 -1      3646 9.61118E-05-2.74106E-05-2.94450E-05 4.76835E-08 7.29904E-19-1.29713E-18
 -1      3647 9.59020E-05-2.73777E-05-2.93746E-05 1.03298E-07 7.29252E-19-1.02548E-18
 -1      3648 9.58810E-05-2.69069E-05-2.95502E-05 5.62927E-07 6.26280E-19-9.93838E-19
 -1      3649 9.38708E-05-2.10541E-05-3.12192E-05 8.10271E-07 6.46466E-19-1.61468E-18
 -1      3650 9.38228E-05-2.09546E-05-3.12386E-05 2.47771E-07 4.44152E-19-1.71907E-18
 -1      3651 9.47437E-05-2.30879E-05-3.07168E-05 2.86402E-06 8.90902E-19-1.24557E-18
 -1      3652 6.38925E-05-1.54702E-05-2.05032E-05 7.70160E-06-8.74191E-19-1.34996E-19
 -1      3653 6.37213E-05-1.59924E-05-2.04491E-05-1.12211E-05 1.42712E-19 2.88923E-18
 -1      3654 6.61178E-05-1.80373E-05-2.00870E-05-1.82876E-05 4.85866E-19 5.65630E-18
 -1      3655 9.31433E-05-1.96180E-05-3.14932E-05-5.88066E-07 2.78129E-19-1.85838E-18
 -1      3656 1.23097E-04-5.48334E-05-2.92475E-05 9.14862E-06 4.26415E-19 1.09167E-18
 -1      3657 6.37864E-05-1.78757E-05-1.94796E-05 1.20858E-05 2.61786E-20 1.23569E-18
 -1      3658 1.04382E-04-4.68280E-05-2.44390E-05 2.29800E-05-1.04722E-18 2.01010E-18
 -1      3659 9.70900E-05-4.19160E-05-2.36705E-05 2.36274E-05-6.75787E-19 1.21446E-18
 -1      3660 9.61862E-05-2.81537E-05-2.91592E-05-4.84037E-07 5.36879E-19-1.08144E-18
 -1      3661 6.78050E-05-2.34659E-05-1.86494E-05-2.02997E-05-1.00056E-19-2.07258E-18
 -1      3662 9.93777E-05-3.82847E-05-2.59414E-05-2.69979E-05 1.86045E-18 1.98920E-18
 -1      3663 9.21723E-05-3.42634E-05-2.46943E-05-2.73365E-05 7.68524E-19 4.92941E-18
 -1      3664 9.39611E-05-2.12292E-05-3.11781E-05 1.24647E-06 7.60559E-19-1.70141E-18
 -1      3665 9.46167E-05-2.23937E-05-3.09358E-05 8.27822E-07 6.32620E-19-1.49371E-18
 -1      3666 9.41059E-05-2.15322E-05-3.11199E-05 1.77907E-06 8.83296E-19-1.73602E-18
 -1      3667 6.11218E-05-1.36558E-05-2.00298E-05-1.55706E-06-7.72792E-19-1.57601E-19
 -1      3668 1.09437E-04-4.91176E-05-2.57787E-05 1.89705E-05-8.03169E-19 2.15359E-18
 -1      3669 1.05681E-04-4.45000E-05-2.62610E-05-2.63952E-05 1.66148E-18-4.22974E-19
 -1      3670 9.39452E-05-2.12067E-05-3.11813E-05-1.22037E-06 1.92612E-19-1.76864E-18
 -1      3671 9.40766E-05-2.14885E-05-3.11232E-05-1.73400E-06 1.74643E-20-2.00455E-18
 -1      3672 8.40286E-05-3.12094E-05-2.23858E-05-3.00287E-05 1.17621E-18 4.86742E-18
 -1      3673 7.46877E-05-2.56826E-05-2.09146E-05-2.57584E-05 2.55473E-19 5.29364E-18
 -1      3674 8.44937E-05-3.26412E-05-2.21733E-05-2.35548E-05 1.67315E-19-4.80347E-19
 -1      3675 9.02873E-05-3.88559E-05-2.17666E-05-2.63037E-05 1.07176E-19-1.16324E-18
 -1      3676 9.42019E-05-2.17351E-05-3.10603E-05-2.04946E-06-1.65124E-20-2.03572E-18
 -1      3677 9.44091E-05-2.22013E-05-3.09585E-05-2.47600E-06-1.79951E-19-1.81186E-18
 -1      3678 9.49680E-05-2.33861E-05-3.06738E-05-1.93923E-06-2.59102E-20-1.69673E-18
 -1      3679 9.47770E-05-2.27965E-05-3.08334E-05-1.48288E-06 1.52233E-19-2.01607E-18
 -1      3680 9.83150E-05-4.21242E-05-2.40645E-05-2.27634E-05-3.17973E-19-2.15370E-18
 -1      3681 1.11591E-04-4.38263E-05-2.90030E-05-1.60403E-05-6.21312E-20 4.67469E-19
 -1      3682 8.58197E-05-3.08250E-05-2.35918E-05 2.77204E-05 4.31289E-19-1.28955E-18
 -1      3683 1.07775E-04-4.70560E-05-2.56805E-05-1.92530E-05-7.05433E-19-3.31187E-18
 -1      3684 1.14132E-04-4.74536E-05-2.85381E-05-1.80377E-05-4.61269E-19 4.88996E-20
 -1      3685 9.65247E-05-2.80219E-05-2.93533E-05 2.91668E-07-3.60688E-19-8.74731E-19
 -1      3686 9.65361E-05-2.83446E-05-2.92287E-05 4.72771E-07-5.14839E-19-8.04157E-19
 -1      3687 1.25785E-04-5.55652E-05-3.01504E-05-1.31530E-05 1.51775E-18-5.60987E-19
 -1      3688 1.13211E-04-4.97500E-05-2.72686E-05 1.40918E-05-1.35918E-18 6.32892E-20
 -1      3689 9.65449E-05-2.86055E-05-2.91132E-05 5.72985E-07-3.63961E-19-5.75400E-19
 -1      3690 9.65136E-05-2.88004E-05-2.90218E-05 6.68819E-07-1.36844E-20-4.39551E-19
 -1      3691 9.66768E-05-2.84321E-05-2.92481E-05 4.23696E-07-2.43093E-19-6.86371E-19
 -1      3692 9.64722E-05-2.89479E-05-2.89362E-05 7.12130E-07 1.15146E-20-4.71134E-19
 -1      3693 9.64178E-05-2.90529E-05-2.88712E-05 7.49382E-07 5.74128E-20-3.54220E-19
 -1      3694 9.66437E-05-2.88791E-05-2.90433E-05 5.81760E-07 3.84916E-21-3.07754E-19
 -1      3695 9.63484E-05-2.91212E-05-2.88097E-05 7.55096E-07 8.23883E-20-2.76145E-19
 -1      3696 9.62837E-05-2.91638E-05-2.87652E-05 7.55409E-07 2.33200E-19-2.21182E-19
 -1      3697 9.65335E-05-2.91209E-05-2.88929E-05 6.45087E-07 6.93747E-20-3.01440E-19
 -1      3698 9.62007E-05-2.91778E-05-2.87229E-05 7.38996E-07 5.30080E-20-4.30056E-19
 -1      3699 9.61331E-05-2.91774E-05-2.86943E-05 7.18923E-07-2.09485E-19-6.83429E-19
 -1      3700 9.63823E-05-2.92189E-05-2.87862E-05 6.47748E-07-9.23496E-20-4.94798E-19
 -1      3701 9.60453E-05-2.91544E-05-2.86670E-05 6.92129E-07-1.90070E-19-8.52507E-19
 -1      3702 9.59788E-05-2.91244E-05-2.86506E-05 6.64035E-07-2.82609E-19-6.74761E-19
 -1      3703 9.62130E-05-2.92177E-05-2.87140E-05 6.16394E-07-3.36454E-19-7.80165E-19
 -1      3704 9.58907E-05-2.90758E-05-2.86349E-05 6.35709E-07-3.38324E-19-5.80643E-19
 -1      3705 9.58268E-05-2.90249E-05-2.86280E-05 6.08838E-07-3.01645E-19-2.15672E-19
 -1      3706 9.60387E-05-2.91480E-05-2.86690E-05 5.71301E-07-2.27548E-19-4.62782E-19
 -1      3707 9.57399E-05-2.89578E-05-2.86213E-05 5.85629E-07-1.03989E-19-3.65478E-19
 -1      3708 9.56783E-05-2.88911E-05-2.86216E-05 5.66929E-07-1.33139E-19-3.55310E-19
 -1      3709 9.58654E-05-2.90298E-05-2.86451E-05 5.27896E-07-2.30952E-19-4.55006E-19
 -1      3710 9.55918E-05-2.88092E-05-2.86219E-05 5.53936E-07-2.42694E-19-1.97989E-19
 -1      3711 9.55309E-05-2.87290E-05-2.86279E-05 5.48884E-07-3.02767E-19 1.08726E-19
 -1      3712 9.56938E-05-2.88750E-05-2.86375E-05 4.97835E-07 3.57467E-20-7.82783E-19
 -1      3713 9.54422E-05-2.86334E-05-2.86335E-05 5.50320E-07-3.79870E-19 1.18143E-19
 -1      3714 9.53794E-05-2.85401E-05-2.86439E-05 5.63570E-07-3.05636E-19-3.02251E-20
 -1      3715 9.55205E-05-2.86889E-05-2.86425E-05 4.90354E-07-3.17524E-19-2.54228E-19
 -1      3716 9.52845E-05-2.84300E-05-2.86536E-05 5.83283E-07-3.92808E-19 4.01540E-20
 -1      3717 9.52164E-05-2.83224E-05-2.86673E-05 6.19152E-07-3.07639E-19 4.53439E-19
 -1      3718 9.53389E-05-2.84722E-05-2.86570E-05 5.13415E-07-2.67087E-19 1.35638E-19
 -1      3719 9.51103E-05-2.81958E-05-2.86798E-05 6.61002E-07-1.60662E-19 3.73906E-19
 -1      3720 9.50331E-05-2.80720E-05-2.86960E-05 7.23811E-07-2.74509E-19 5.51899E-19
 -1      3721 9.51399E-05-2.82221E-05-2.86784E-05 5.74563E-07 4.08176E-21-2.03606E-19
 -1      3722 9.49099E-05-2.79264E-05-2.87100E-05 7.91967E-07-3.00034E-19 6.40432E-19
 -1      3723 9.48195E-05-2.77845E-05-2.87276E-05 8.86262E-07-3.41135E-19 7.13713E-19
 -1      3724 9.49127E-05-2.79339E-05-2.87039E-05 6.81585E-07-3.51626E-19 2.64220E-19
 -1      3725 9.46727E-05-2.76173E-05-2.87415E-05 9.85422E-07-4.23745E-19 8.62327E-19
 -1      3726 9.45652E-05-2.74561E-05-2.87592E-05 1.11608E-06-8.77503E-20 8.49440E-19
 -1      3727 9.46451E-05-2.76022E-05-2.87307E-05 8.43025E-07-1.53264E-19 8.50440E-19
 -1      3728 9.43886E-05-2.72660E-05-2.87711E-05 1.25164E-06-2.73392E-19 6.26482E-19
 -1      3729 9.42605E-05-2.70860E-05-2.87871E-05 1.42386E-06-3.17391E-19 4.50394E-19
 -1      3730 9.43244E-05-2.72232E-05-2.87550E-05 1.06860E-06-1.91276E-19 1.14362E-18
 -1      3731 9.40484E-05-2.68740E-05-2.87943E-05 1.60208E-06-2.08905E-19 5.54794E-19
 -1      3732 9.38982E-05-2.66788E-05-2.88059E-05 1.82134E-06-2.67621E-19 2.86896E-19
 -1      3733 9.39387E-05-2.67960E-05-2.87719E-05 1.36956E-06-2.84661E-19 6.88359E-19
 -1      3734 9.36466E-05-2.64497E-05-2.88049E-05 2.04953E-06-2.16011E-19-5.43289E-20
 -1      3735 9.34756E-05-2.62483E-05-2.88088E-05 2.32149E-06 3.79343E-20-4.50938E-20
 -1      3736 9.34780E-05-2.63261E-05-2.87751E-05 1.75918E-06-3.92542E-19 4.14666E-19
 -1      3737 9.31839E-05-2.60130E-05-2.87947E-05 2.60834E-06 1.99344E-19-2.14593E-19
 -1      3738 9.29987E-05-2.58216E-05-2.87864E-05 2.93882E-06 2.90522E-19-3.17045E-19
 -1      3739 9.29375E-05-2.58288E-05-2.87559E-05 2.25337E-06-3.49949E-22 1.83998E-19
 -1      3740 9.26718E-05-2.55997E-05-2.87533E-05 3.29500E-06 4.97717E-19-1.28585E-19
 -1      3741 9.24877E-05-2.54457E-05-2.87271E-05 3.69002E-06 8.87071E-19 6.48235E-19
 -1      3742 9.23205E-05-2.53338E-05-2.87032E-05 2.87196E-06 6.35229E-19 9.05109E-20
 -1      3743 9.21392E-05-2.52690E-05-2.86676E-05 4.12917E-06 3.68034E-19 6.59534E-19
 -1      3744 9.19848E-05-2.51947E-05-2.86169E-05 4.59521E-06-1.09437E-19 5.39238E-19
 -1      3745 9.16443E-05-2.48914E-05-2.86030E-05 3.64064E-06 8.25148E-19-8.40006E-20
 -1      3746 9.16420E-05-2.51115E-05-2.85225E-05 5.13532E-06-1.49347E-19 1.82649E-19
 -1      3747 9.15665E-05-2.51794E-05-2.84406E-05 5.67937E-06 2.44404E-19-5.04005E-20
 -1      3748 9.09475E-05-2.45801E-05-2.84388E-05 4.59419E-06-3.94145E-19 4.44909E-20
 -1      3749 9.12777E-05-2.52599E-05-2.83025E-05 6.34430E-06 5.99694E-19-4.48904E-19
 -1      3750 9.13601E-05-2.55586E-05-2.81842E-05 6.97289E-06 5.96379E-19-5.67734E-19
 -1      3751 9.03020E-05-2.45164E-05-2.81920E-05 5.78064E-06-4.04682E-20-2.62811E-19
 -1      3752 9.12061E-05-2.59010E-05-2.79950E-05 7.79267E-06 1.91034E-19-5.89992E-19
 -1      3753 9.15695E-05-2.65526E-05-2.78398E-05 8.50711E-06-2.38921E-19-6.36660E-19
 -1      3754 8.98304E-05-2.48676E-05-2.78448E-05 7.26563E-06 3.01387E-19-6.95273E-19
 -1      3755 9.16817E-05-2.72908E-05-2.75973E-05 9.51537E-06-7.56668E-19-5.52226E-19
 -1      3756 9.25060E-05-2.84613E-05-2.74157E-05 1.02996E-05-7.10758E-19-1.21949E-19
 -1      3757 8.97324E-05-2.58674E-05-2.73845E-05 9.13075E-06-7.04817E-19-3.72443E-19
 -1      3758 9.31097E-05-2.97648E-05-2.71316E-05 1.14864E-05-1.03410E-18-8.27507E-19
 -1      3759 9.46160E-05-3.16410E-05-2.69566E-05 1.22763E-05-1.26596E-18-1.04057E-18
 -1      3760 9.03585E-05-2.78810E-05-2.68142E-05 1.14643E-05-1.06694E-18-6.83801E-19
 -1      3761 9.61080E-05-3.37893E-05-2.66713E-05 1.35392E-05-1.08147E-18-8.08371E-19
 -1      3762 9.86989E-05-3.65519E-05-2.66034E-05 1.41001E-05-9.60830E-19-6.25699E-19
 -1      3763 9.22457E-05-3.13190E-05-2.61815E-05 1.42495E-05-1.02681E-18 1.36951E-19
 -1      3764 1.03735E-04-4.20570E-05-2.63577E-05 1.57600E-05-1.12102E-18-4.30859E-19
 -1      3765 1.07156E-04-4.53600E-05-2.65292E-05 1.56244E-05-1.74077E-18 1.55027E-19
 -1      3766 1.17676E-04-5.06778E-05-2.87422E-05-1.74269E-05 1.40786E-18-1.01483E-18
 -1      3767 9.57637E-05-2.90047E-05-2.86095E-05-6.81006E-07-2.63991E-19-6.28277E-19
 -1      3768 9.58145E-05-2.90466E-05-2.86148E-05-7.13210E-07-2.08444E-19-7.59393E-19
 -1      3769 9.53212E-05-2.43035E-05-3.04165E-05 2.11162E-06 7.36467E-19-1.35838E-18
 -1      3770 9.46345E-05-2.27301E-05-3.08327E-05 2.54309E-06 9.28214E-19-1.71964E-18
 -1      3771 9.52588E-05-2.83818E-05-2.86598E-05-6.56453E-07-6.48243E-20-5.25829E-19
 -1      3772 9.53108E-05-2.84786E-05-2.86441E-05-6.23646E-07 7.30271E-20-5.83855E-19
 -1      3773 9.53925E-05-2.85784E-05-2.86329E-05-6.07042E-07-2.53160E-19-6.22308E-19
 -1      3774 9.54403E-05-2.86609E-05-2.86210E-05-5.97983E-07-3.29536E-19-7.09748E-19
 -1      3775 9.53670E-05-2.85204E-05-2.86486E-05-5.69223E-07-1.72060E-19-7.56266E-19
 -1      3776 9.49241E-05-2.78789E-05-2.87319E-05-9.18362E-07 9.51215E-20-1.02983E-18
 -1      3777 9.49976E-05-2.80136E-05-2.87103E-05-8.24216E-07-2.12299E-19-7.69721E-19
 -1      3778 9.46973E-05-2.75552E-05-2.87734E-05-1.14855E-06 3.20795E-19-8.63877E-19
 -1      3779 9.47903E-05-2.77153E-05-2.87500E-05-1.01643E-06 2.66761E-19-7.59661E-19
 -1      3780 9.47560E-05-2.76981E-05-2.87372E-05-8.91095E-07 3.88275E-19-1.02623E-18
 -1      3781 9.44091E-05-2.71700E-05-2.88150E-05-1.45721E-06 1.16002E-19-5.33027E-19
 -1      3782 9.45291E-05-2.73602E-05-2.87912E-05-1.28201E-06 3.16591E-19-4.40079E-19
 -1      3783 9.44575E-05-2.73177E-05-2.87713E-05-1.11434E-06-8.97140E-20-6.61599E-19
 -1      3784 9.40393E-05-2.67133E-05-2.88523E-05-1.85351E-06 3.70322E-20 3.26287E-19
 -1      3785 9.41953E-05-2.69380E-05-2.88301E-05-1.63024E-06 1.01529E-19-3.43437E-19
 -1      3786 9.40798E-05-2.68664E-05-2.88016E-05-1.40792E-06-2.49717E-19-6.13943E-19
 -1      3787 9.35643E-05-2.61770E-05-2.88788E-05-2.34602E-06 2.50967E-19 8.74520E-19
 -1      3788 9.37666E-05-2.64393E-05-2.88615E-05-2.07007E-06 2.50515E-19 4.54909E-19
 -1      3789 9.35990E-05-2.63337E-05-2.88223E-05-1.77851E-06-1.07610E-19 2.67477E-19
 -1      3790 9.29570E-05-2.55577E-05-2.88843E-05-2.94226E-06-4.01648E-21 1.31986E-18
 -1      3791 9.32174E-05-2.58579E-05-2.88769E-05-2.60964E-06 4.34555E-19 1.41508E-18
 -1      3792 9.29871E-05-2.57118E-05-2.88247E-05-2.23167E-06-2.27395E-19 4.34238E-19
 -1      3793 9.21887E-05-2.48601E-05-2.88543E-05-3.64898E-06-6.23430E-19 1.25305E-18
 -1      3794 9.25191E-05-2.51936E-05-2.88642E-05-3.25625E-06-3.24169E-19 1.12744E-18
 -1      3795 9.22121E-05-2.49979E-05-2.87960E-05-2.77179E-06 1.62721E-19 1.18940E-18
 -1      3796 9.12308E-05-2.41041E-05-2.87680E-05-4.47425E-06-8.26348E-19 7.88459E-19
 -1      3797 9.16410E-05-2.44573E-05-2.88058E-05-4.01746E-06-7.48604E-19 1.07875E-18
 -1      3798 9.12388E-05-2.41982E-05-2.87186E-05-3.40314E-06-3.09265E-19 2.33896E-19
 -1      3799 9.00608E-05-2.33334E-05-2.85964E-05-5.43299E-06 8.06094E-20 4.02776E-19
 -1      3800 9.05542E-05-2.36787E-05-2.86768E-05-4.90480E-06-4.67302E-19 7.30548E-19
 -1      3801 9.00295E-05-2.33331E-05-2.85674E-05-4.13366E-06-6.02253E-19 1.54496E-19
 -1      3802 8.86715E-05-2.26302E-05-2.83004E-05-6.55815E-06 4.33809E-19-2.67907E-19
 -1      3803 8.92374E-05-2.29171E-05-2.84431E-05-5.94188E-06 5.91788E-19 5.00553E-19
 -1      3804 8.85466E-05-2.24455E-05-2.83079E-05-4.98326E-06 2.41108E-19-4.68111E-19
 -1      3805 8.70871E-05-2.21334E-05-2.78290E-05-7.92299E-06 3.66746E-19-4.34633E-19
 -1      3806 8.76862E-05-2.22770E-05-2.80588E-05-7.18120E-06 2.54451E-19-1.88342E-19
 -1      3807 8.67557E-05-2.16094E-05-2.78933E-05-5.99936E-06 5.00512E-19 4.16796E-20
 -1      3808 8.53947E-05-2.20732E-05-2.71166E-05-9.68070E-06-4.89984E-19 2.72257E-19
 -1      3809 8.59305E-05-2.19304E-05-2.74634E-05-8.73732E-06 8.78755E-20 3.31026E-19
 -1      3810 8.46273E-05-2.09427E-05-2.72604E-05-7.29044E-06 4.28238E-20 3.13401E-19
 -1      3811 8.38085E-05-2.28340E-05-2.60848E-05-1.21096E-05-4.37152E-19-1.42720E-18
 -1      3812 8.40784E-05-2.21661E-05-2.65787E-05-1.08377E-05-3.17401E-19-8.21194E-19
 -1      3813 8.21481E-05-2.06318E-05-2.63209E-05-9.08364E-06 2.04635E-19-4.79664E-19
 -1      3814 8.27601E-05-2.50623E-05-2.46387E-05-1.56356E-05 1.11007E-19-2.09615E-18
 -1      3815 8.24239E-05-2.34792E-05-2.53116E-05-1.38539E-05-2.03948E-19-1.76945E-18
 -1      3816 7.93931E-05-2.10134E-05-2.49491E-05-1.18424E-05 4.95692E-20-1.21791E-18
 -1      3817 8.38678E-05-2.97715E-05-2.30482E-05-2.04970E-05 2.63467E-19-9.88693E-19
 -1      3818 8.21370E-05-2.65376E-05-2.38678E-05-1.79749E-05 2.62731E-19-1.45727E-18
 -1      3819 7.71636E-05-2.27709E-05-2.32812E-05-1.59698E-05-2.77895E-19-1.93560E-18
 -1      3820 7.70574E-05-2.69031E-05-2.14845E-05-2.15207E-05-3.16526E-19-1.19985E-18
 -1      3821 9.38204E-05-2.09511E-05-3.12392E-05-2.13687E-07 4.60207E-19-1.75715E-18
 -1      3822 9.38646E-05-2.10419E-05-3.12211E-05-7.74804E-07 3.01728E-19-1.75063E-18
 -1      3823 9.46127E-05-2.23804E-05-3.09385E-05-8.05690E-07 3.98218E-19-1.68770E-18
 -1      3824 9.45426E-05-2.22195E-05-3.09779E-05 1.35111E-08 4.62359E-19-1.63055E-18
 -1      3825 9.79290E-05-3.62184E-05-2.64577E-05 2.55710E-05-2.44627E-19-3.51609E-18
 -1      3826 9.20671E-05-3.37744E-05-2.48009E-05 2.78670E-05 2.83293E-19-2.60068E-18
 -1      3827 9.59180E-05-2.57224E-05-3.00822E-05-9.12954E-07-1.07374E-19-1.19985E-18
 -1      3828 9.61290E-05-2.64592E-05-2.98659E-05-4.67413E-07-1.26588E-19-1.11861E-18
 -1      3829 9.63801E-05-2.82639E-05-2.91967E-05-4.97009E-07 3.42816E-19-1.27801E-18
 -1      3830 9.63745E-05-2.79444E-05-2.93213E-05-2.86490E-07 4.11341E-19-1.39074E-18
 -1      3831 6.91887E-05-2.01222E-05-2.09796E-05 1.50251E-05-1.26485E-19 1.42951E-18
 -1      3832 6.45432E-05-1.62306E-05-2.06171E-05 7.31744E-06 2.22664E-19 8.07884E-19
 -1      3833 9.57287E-05-2.64564E-05-2.96957E-05 9.43552E-07 7.38239E-19-7.96699E-19
 -1      3834 9.56460E-05-2.59122E-05-2.98775E-05 1.52582E-06 8.71512E-19-8.64299E-19
 -1      3835 9.55442E-05-2.53320E-05-3.00957E-05 1.73938E-06 8.54520E-19-1.06561E-18
 -1      3836 9.58976E-05-2.64651E-05-2.97616E-05 7.82810E-07 8.42478E-19-1.20226E-18
 -1      3837 9.63512E-05-2.71067E-05-2.96706E-05-1.86899E-07-2.36263E-19-1.04325E-18
 -1      3838 9.64334E-05-2.76036E-05-2.95050E-05 1.09023E-07-3.08371E-19-9.76626E-19
 -1      3839 9.65780E-05-2.76956E-05-2.95195E-05 1.31557E-07-2.41351E-19-1.00759E-18
 -1      3840 9.44182E-05-2.22344E-05-3.09423E-05 2.14317E-06 9.35248E-19-1.77190E-18
 -1      3841 9.51065E-05-2.81513E-05-2.86934E-05-7.57340E-07-3.05115E-19-3.74300E-19
 -1      3842 9.51668E-05-2.82651E-05-2.86744E-05-6.96225E-07-1.49026E-19-5.71416E-19
 -1      3843 9.49961E-05-2.80185E-05-2.87036E-05-7.30854E-07-1.18314E-19-9.57152E-19
 -1      3844 6.73609E-05-2.07663E-05-1.98022E-05-1.70473E-05-6.61030E-19-2.46047E-18
 -1      3845 9.84799E-05-3.79905E-05-2.59419E-05 1.63248E-05-1.07316E-18-5.60378E-19
 -1      3846 9.79125E-05-4.01454E-05-2.47437E-05 2.01925E-05-1.10164E-18 1.46529E-18
 -1      3847 9.18252E-05-3.69941E-05-2.32861E-05 2.32597E-05-5.57233E-19 7.93266E-19
 -1      3848 9.33308E-05-3.45800E-05-2.51455E-05 1.78327E-05-1.11661E-18 4.65637E-19
 -1      3849 6.42883E-05-1.54302E-05-2.07516E-05 4.05225E-06 6.52480E-20 9.33106E-19
 -1      3850 6.47369E-05-1.55403E-05-2.11386E-05-2.47629E-08 4.74808E-19 1.04769E-18
 -1      3851 6.86845E-05-1.72607E-05-2.20291E-05 7.21777E-06-2.83223E-19 9.50636E-19
 -1      3852 9.62747E-05-2.89789E-05-2.88417E-05-8.35778E-07 6.64850E-20-1.12299E-18
 -1      3853 9.63224E-05-2.88702E-05-2.89048E-05-7.91478E-07 3.23960E-19-1.15583E-18
 -1      3854 9.58930E-05-2.90876E-05-2.86295E-05-7.46143E-07-9.25700E-20-9.29045E-19
 -1      3855 9.59470E-05-2.91094E-05-2.86441E-05-7.78719E-07-6.66440E-20-1.05469E-18
 -1      3856 9.59777E-05-2.91240E-05-2.86532E-05-6.61920E-07-2.30800E-19-9.94784E-19
 -1      3857 9.51950E-05-2.82896E-05-2.86732E-05-6.26071E-07-9.42047E-20-1.02863E-18
 -1      3858 9.58737E-05-2.90535E-05-2.86391E-05-9.04539E-07 1.36975E-19-7.74755E-19
 -1      3859 9.55362E-05-2.50154E-05-3.02260E-05 1.54977E-06 8.51214E-19-1.43741E-18
 -1      3860 9.62799E-05-2.65853E-05-2.98686E-05-3.33807E-07-1.67117E-19-1.30185E-18
 -1      3861 8.73703E-05-3.27060E-05-2.34444E-05 2.10020E-05-7.23876E-19 6.36903E-19
 -1      3862 9.63597E-05-2.87204E-05-2.89903E-05-7.34620E-07 4.01430E-19-1.08455E-18
 -1      3863 9.63898E-05-2.85249E-05-2.90803E-05-6.22763E-07 4.09256E-19-1.23902E-18
 -1      3864 9.65204E-05-2.88017E-05-2.90239E-05-6.58660E-07 3.90744E-19-1.38254E-18
 -1      3865 9.56871E-05-2.89460E-05-2.86037E-05-6.52727E-07 1.04382E-19-4.58424E-19
 -1      3866 9.58244E-05-2.90222E-05-2.86308E-05-6.08866E-07-6.42131E-20-8.18532E-19
 -1      3867 9.56390E-05-2.88891E-05-2.86055E-05-6.28572E-07 1.27464E-20-6.98684E-19
 -1      3868 6.90915E-05-1.92866E-05-2.12047E-05-1.23976E-05-1.44035E-19-8.98470E-19
 -1      3869 9.65476E-05-2.83454E-05-2.92303E-05-4.60169E-07 4.10479E-19-1.57673E-18
 -1      3870 9.50575E-05-2.33368E-05-3.07469E-05 1.98358E-07 5.26574E-19-1.44433E-18
 -1      3871 9.50567E-05-2.33326E-05-3.07475E-05-1.77097E-07 4.32144E-19-1.67170E-18
 -1      3872 9.53304E-05-2.42013E-05-3.04866E-05-1.62614E-06 4.15314E-20-1.65337E-18
 -1      3873 9.56653E-05-2.50986E-05-3.02451E-05-1.15787E-06-9.44757E-20-1.37928E-18
 -1      3874 9.58022E-05-2.52697E-05-3.02317E-05-8.83228E-07 1.15370E-19-1.66863E-18
 -1      3875 9.52121E-05-2.38611E-05-3.05806E-05-1.44698E-06 9.82568E-20-1.92789E-18
 -1      3876 9.61572E-05-2.90998E-05-2.87385E-05-8.47685E-07 1.83627E-19-1.22991E-18
 -1      3877 9.62122E-05-2.90517E-05-2.87808E-05-8.46533E-07 9.67922E-20-1.26865E-18
 -1      3878 9.64221E-05-2.90555E-05-2.88734E-05-7.41624E-07 2.22019E-19-1.52059E-18
 -1      3879 9.50762E-05-2.33957E-05-3.07276E-05-4.64122E-07 4.31752E-19-1.65384E-18
 -1      3880 9.51351E-05-2.35450E-05-3.06888E-05-8.14948E-07 4.27163E-19-1.75423E-18
 -1      3881 9.55922E-05-2.43694E-05-3.05081E-05-2.40129E-07 4.39636E-19-1.55337E-18
 -1      3882 9.49608E-05-2.32433E-05-3.07224E-05 1.55256E-06 7.79280E-19-1.65844E-18
 -1      3883 7.38563E-05-2.25729E-05-2.18230E-05 1.67860E-05-1.59209E-19 1.60673E-18
 -1      3884 7.33084E-05-2.04510E-05-2.26735E-05 1.25649E-05-1.58230E-19 1.11553E-18
 -1      3885 7.92483E-05-2.58032E-05-2.29474E-05 1.75266E-05-7.98782E-19 4.79394E-19
 -1      3886 9.64537E-05-2.76056E-05-2.95061E-05-9.76250E-08 4.38410E-19-1.45723E-18
 -1      3887 9.62891E-05-2.75273E-05-2.94758E-05-6.58192E-08 5.88280E-19-1.41056E-18
 -1      3888 9.62215E-05-2.70364E-05-2.96433E-05 2.77603E-07 7.12470E-19-1.37487E-18
 -1      3889 9.51386E-05-2.35745E-05-3.06832E-05 8.32986E-07 6.57828E-19-1.45393E-18
 -1      3890 9.50859E-05-2.34050E-05-3.07258E-05 4.82492E-07 5.67245E-19-1.33106E-18
 -1      3891 9.55890E-05-2.43710E-05-3.05070E-05 2.52007E-07 5.71850E-19-1.32115E-18
 -1      3892 9.55169E-05-2.87466E-05-2.86142E-05-6.00654E-07-6.53968E-20-6.28729E-19
 -1      3893 9.55637E-05-2.88164E-05-2.86068E-05-6.10727E-07 1.89696E-20-8.14178E-19
 -1      3894 9.56741E-05-2.88850E-05-2.86248E-05-5.68924E-07 1.17551E-19-1.02211E-18
 -1      3895 9.51353E-05-2.36324E-05-3.06480E-05-1.20466E-06 2.70623E-19-1.93263E-18
 -1      3896 9.55759E-05-2.45010E-05-3.04497E-05-8.23865E-07 3.22994E-19-1.78650E-18
 -1      3897 9.55237E-05-2.87176E-05-2.86317E-05-5.52785E-07-2.74792E-19-1.09280E-18
 -1      3898 9.66259E-05-2.74068E-05-2.96561E-05-4.80930E-09-6.44297E-20-1.14202E-18
 -1      3899 9.67097E-05-2.78846E-05-2.95018E-05 1.80739E-07-1.48347E-19-1.01042E-18
 -1      3900 9.67857E-05-2.82713E-05-2.93602E-05 2.78680E-07-1.81420E-19-8.23930E-19
 -1      3901 9.67946E-05-2.85720E-05-2.92408E-05 3.92111E-07-7.35756E-20-5.78160E-19
 -1      3902 9.68061E-05-2.79988E-05-2.94874E-05 1.62509E-07-1.81549E-20-9.06690E-19
 -1      3903 9.67885E-05-2.88090E-05-2.91319E-05 4.40075E-07-2.97087E-20-5.92149E-19
 -1      3904 9.67484E-05-2.89843E-05-2.90428E-05 4.98653E-07 5.08483E-20-5.89111E-19
 -1      3905 9.68785E-05-2.86657E-05-2.92345E-05 3.12722E-07-6.85035E-20-9.47718E-19
 -1      3906 9.66923E-05-2.91114E-05-2.89615E-05 5.14799E-07 1.45433E-19-5.65972E-19
 -1      3907 9.66235E-05-2.91975E-05-2.88969E-05 5.35853E-07 1.74939E-19-3.12823E-19
 -1      3908 9.68150E-05-2.90530E-05-2.90421E-05 3.89231E-07 2.57195E-20-7.37382E-19
 -1      3909 9.65399E-05-2.92479E-05-2.88381E-05 5.31846E-07-7.18325E-20-3.64165E-19
 -1      3910 9.64572E-05-2.92718E-05-2.87931E-05 5.29407E-07-8.16936E-20-5.63082E-19
 -1      3911 9.66751E-05-2.92452E-05-2.89001E-05 4.14688E-07 4.84550E-20-4.46494E-19
 -1      3912 9.63598E-05-2.92689E-05-2.87523E-05 5.14343E-07-1.41779E-19-4.73188E-19
 -1      3913 9.62721E-05-2.92501E-05-2.87227E-05 4.99664E-07-4.16421E-19-3.44270E-19
 -1      3914 9.64949E-05-2.93018E-05-2.87989E-05 4.08043E-07-1.26999E-19-3.44629E-19
 -1      3915 9.61693E-05-2.92102E-05-2.86963E-05 4.80353E-07-3.80498E-19-1.86376E-19
 -1      3916 9.60811E-05-2.91612E-05-2.86788E-05 4.62181E-07-1.27876E-19-1.76488E-19
 -1      3917 9.62962E-05-2.92631E-05-2.87302E-05 3.85290E-07-1.89244E-19-4.97725E-20
 -1      3918 9.59772E-05-2.90953E-05-2.86636E-05 4.44287E-07-4.42779E-19-3.98971E-19
 -1      3919 9.58902E-05-2.90245E-05-2.86555E-05 4.29074E-07-4.12581E-19-5.09057E-19
 -1      3920 9.60910E-05-2.91572E-05-2.86874E-05 3.57830E-07-3.31906E-19-3.72080E-19
 -1      3921 9.57861E-05-2.89390E-05-2.86490E-05 4.16544E-07 2.77406E-20-6.93559E-19
 -1      3922 9.56994E-05-2.88508E-05-2.86482E-05 4.09269E-07 3.00959E-19-6.20763E-19
 -1      3923 9.58849E-05-2.90029E-05-2.86649E-05 3.35183E-07-1.60431E-19-8.82445E-19
 -1      3924 9.55932E-05-2.87485E-05-2.86484E-05 4.05335E-07 2.30762E-19-9.95551E-19
 -1      3925 9.55043E-05-2.86443E-05-2.86532E-05 4.10112E-07-7.58432E-20-6.73729E-19
 -1      3926 9.56767E-05-2.88097E-05-2.86579E-05 3.24122E-07 9.30994E-20-1.13370E-18
 -1      3927 9.53920E-05-2.85252E-05-2.86584E-05 4.17678E-07-2.10327E-19-1.44690E-19
 -1      3928 9.52968E-05-2.84043E-05-2.86672E-05 4.38195E-07-1.56396E-19 1.24940E-19
 -1      3929 9.54605E-05-2.85810E-05-2.86628E-05 3.30569E-07 2.41304E-19-3.74800E-19
 -1      3930 9.51731E-05-2.82668E-05-2.86758E-05 4.60134E-07-8.45369E-20 3.74095E-19
 -1      3931 9.50666E-05-2.81272E-05-2.86874E-05 5.00011E-07-1.09814E-19 2.96212E-19
 -1      3932 9.52272E-05-2.83151E-05-2.86760E-05 3.60026E-07-1.14885E-19 1.39500E-19
 -1      3933 9.49245E-05-2.79683E-05-2.86978E-05 5.39457E-07-1.95236E-19 5.91332E-20
 -1      3934 9.48008E-05-2.78072E-05-2.87108E-05 6.02525E-07-8.15280E-20 4.35881E-19
 -1      3935 9.49643E-05-2.80074E-05-2.86945E-05 4.18146E-07-1.86305E-19 2.03195E-20
 -1      3936 9.46326E-05-2.76234E-05-2.87212E-05 6.63142E-07-1.49561E-19 4.84686E-19
 -1      3937 9.44853E-05-2.74381E-05-2.87338E-05 7.53673E-07-2.00584E-19 4.38884E-19
 -1      3938 9.46574E-05-2.76511E-05-2.87149E-05 5.11281E-07-7.98678E-20 1.58409E-19
 -1      3939 9.42824E-05-2.72264E-05-2.87422E-05 8.39925E-07-2.52537E-19 6.28971E-19
 -1      3940 9.41052E-05-2.70150E-05-2.87522E-05 9.62825E-07 7.81395E-20 7.15483E-19
 -1      3941 9.42903E-05-2.72396E-05-2.87329E-05 6.47008E-07-3.27721E-20 2.96756E-19
 -1      3942 9.38589E-05-2.67738E-05-2.87557E-05 1.08029E-06-3.70146E-19 5.29726E-19
 -1      3943 9.36460E-05-2.65369E-05-2.87603E-05 1.24132E-06-7.36836E-19 2.23759E-19
 -1      3944 9.38456E-05-2.67674E-05-2.87437E-05 8.34729E-07-4.62201E-19 9.26530E-20
 -1      3945 9.33479E-05-2.62671E-05-2.87550E-05 1.39710E-06-4.52022E-19 1.73782E-19
 -1      3946 9.30954E-05-2.60087E-05-2.87505E-05 1.60317E-06-2.15973E-19 3.79522E-19
 -1      3947 9.33062E-05-2.62333E-05-2.87403E-05 1.08643E-06-5.30214E-19 2.95613E-19
 -1      3948 9.27383E-05-2.57157E-05-2.87315E-05 1.80651E-06 9.98105E-20 5.78065E-19
 -1      3949 9.24453E-05-2.54457E-05-2.87127E-05 2.06622E-06-3.02138E-20 4.21386E-19
 -1      3950 9.26565E-05-2.56423E-05-2.87138E-05 1.41779E-06-1.20247E-19 5.88095E-19
 -1      3951 9.20245E-05-2.51411E-05-2.86735E-05 2.32947E-06-2.26173E-19 4.79012E-19
 -1      3952 9.16957E-05-2.48775E-05-2.86340E-05 2.65392E-06 6.85563E-19 1.73202E-19
 -1      3953 9.18843E-05-2.50099E-05-2.86527E-05 1.84985E-06 1.12158E-19 3.37905E-19
 -1      3954 9.12103E-05-2.45815E-05-2.85664E-05 2.99409E-06 8.22996E-19-6.83294E-19
 -1      3955 9.08589E-05-2.43537E-05-2.84982E-05 3.39834E-06 4.61195E-19-7.09526E-19
 -1      3956 9.09836E-05-2.43654E-05-2.85416E-05 2.41169E-06 2.10523E-19-1.93420E-19
 -1      3957 9.03142E-05-2.40984E-05-2.83918E-05 3.83962E-06 3.03456E-19-6.90209E-19
 -1      3958 8.99669E-05-2.39510E-05-2.82856E-05 4.34489E-06-2.97121E-19-3.27267E-19
 -1      3959 8.99578E-05-2.37573E-05-2.83614E-05 3.14472E-06 5.25231E-19-1.22034E-18
 -1      3960 8.93770E-05-2.37837E-05-2.81279E-05 4.92230E-06-4.74725E-19-7.74981E-20
 -1      3961 8.90811E-05-2.37821E-05-2.79736E-05 5.55879E-06-2.44294E-19-4.44027E-19
 -1      3962 8.88244E-05-2.32592E-05-2.80884E-05 4.10963E-06-3.44078E-19-8.23294E-19
 -1      3963 8.84739E-05-2.37695E-05-2.77501E-05 6.32346E-06 3.36619E-19-5.55416E-19
 -1      3964 8.83082E-05-2.40058E-05-2.75384E-05 7.13304E-06 2.22974E-19-6.94982E-19
 -1      3965 8.76219E-05-2.29776E-05-2.76941E-05 5.39543E-06-3.66662E-20-7.86386E-19
 -1      3966 8.77410E-05-2.42495E-05-2.72329E-05 8.16282E-06-5.75743E-19-9.67360E-19
 -1      3967 8.78315E-05-2.48582E-05-2.69581E-05 9.19556E-06-1.00020E-18-8.57444E-19
 -1      3968 8.64231E-05-2.30673E-05-2.71446E-05 7.14135E-06-3.16804E-19-1.39398E-18
 -1      3969 8.73893E-05-2.54552E-05-2.65555E-05 1.05839E-05-8.55050E-19-8.27985E-19
 -1      3970 8.79041E-05-2.66672E-05-2.62180E-05 1.19154E-05-1.10796E-18-3.06401E-19
 -1      3971 8.53936E-05-2.37457E-05-2.64038E-05 9.56148E-06-7.57543E-19-5.20967E-19
 -1      3972 8.88937E-05-2.86321E-05-2.57995E-05 1.39777E-05-9.13405E-19 5.44760E-19
 -1      3973 9.01824E-05-3.08356E-05-2.54368E-05 1.56955E-05-6.45942E-19 6.09652E-19
 -1      3974 8.92503E-05-3.17343E-05-2.46844E-05 1.77253E-05-1.17100E-18 1.19577E-19
 -1      3975 8.55799E-05-2.61651E-05-2.55343E-05 1.31399E-05-3.83147E-19-1.86926E-20
 -1      3976 9.58226E-05-2.57092E-05-3.00378E-05 1.10878E-06 8.08811E-19-1.27908E-18
 -1      3977 9.55340E-05-2.47482E-05-3.03392E-05 1.38079E-06 7.99877E-19-1.60479E-18
 -1      3978 9.59814E-05-2.62659E-05-2.98827E-05 6.98017E-07 7.95751E-19-1.38920E-18
 -1      3979 9.55236E-05-2.86825E-05-2.86449E-05-4.80319E-07-3.47817E-19-8.94655E-19
 -1      3980 9.56006E-05-2.87774E-05-2.86392E-05-4.79109E-07-1.95414E-19-8.88545E-19
 -1      3981 9.60261E-05-2.91259E-05-2.86705E-05-8.08474E-07-8.64486E-20-1.07183E-18
 -1      3982 9.60821E-05-2.91193E-05-2.86970E-05-8.31231E-07 7.54779E-20-1.18827E-18
 -1      3983 9.62861E-05-2.91664E-05-2.87676E-05-7.49414E-07-2.86966E-20-1.48949E-18
 -1      3984 9.61336E-05-2.91789E-05-2.86968E-05-7.14963E-07-6.30082E-20-1.07212E-18
 -1      3985 9.42389E-05-2.71103E-05-2.87691E-05-1.01879E-06-2.69504E-19-6.60916E-19
 -1      3986 9.44080E-05-2.73251E-05-2.87536E-05-8.97819E-07 2.20475E-19-6.74094E-19
 -1      3987 9.46012E-05-2.75365E-05-2.87414E-05-8.14974E-07 1.34931E-19-8.71317E-19
 -1      3988 9.47357E-05-2.77179E-05-2.87249E-05-7.24677E-07 7.10447E-20-1.29628E-18
 -1      3989 9.44073E-05-2.73379E-05-2.87409E-05-7.19369E-07-4.21164E-22-9.02769E-19
 -1      3990 9.32040E-05-2.60144E-05-2.87964E-05-1.60611E-06-2.68130E-19-1.03107E-18
 -1      3991 9.34780E-05-2.63114E-05-2.87916E-05-1.41600E-06-3.48076E-19-1.33013E-18
 -1      3992 9.24727E-05-2.53274E-05-2.87783E-05-1.99497E-06-7.89468E-19 4.82346E-20
 -1      3993 9.28210E-05-2.56705E-05-2.87860E-05-1.76800E-06-6.13595E-19-8.04784E-19
 -1      3994 9.27590E-05-2.56408E-05-2.87569E-05-1.38124E-06-6.19764E-19-5.18300E-19
 -1      3995 9.15525E-05-2.45437E-05-2.87209E-05-2.44777E-06 1.32378E-19 1.74956E-19
 -1      3996 9.19924E-05-2.49325E-05-2.87489E-05-2.18357E-06-1.10865E-19 9.62014E-20
 -1      3997 9.19065E-05-2.48844E-05-2.87133E-05-1.68986E-06-6.98066E-19-1.63048E-19
 -1      3998 9.04030E-05-2.36705E-05-2.86038E-05-2.96373E-06-3.60203E-19 2.24201E-19
 -1      3999 9.09534E-05-2.40996E-05-2.86627E-05-2.66189E-06 2.10855E-20 3.14382E-19
 -1      4000 9.08411E-05-2.40281E-05-2.86205E-05-2.03633E-06 1.75925E-19-6.85669E-20
 -1      4001 8.89782E-05-2.27279E-05-2.83986E-05-3.54550E-06-1.39231E-19-4.10914E-19
 -1      4002 8.96592E-05-2.31841E-05-2.85032E-05-3.20296E-06-2.90860E-19-1.23512E-19
 -1      4003 8.95165E-05-2.30799E-05-2.84551E-05-2.41453E-06-1.43173E-19-3.54814E-19
 -1      4004 8.72261E-05-2.17546E-05-2.80661E-05-4.20905E-06 9.21851E-21 4.42389E-19
 -1      4005 8.80572E-05-2.22134E-05-2.82369E-05-3.81447E-06-3.14095E-19-3.15465E-19
 -1      4006 8.78754E-05-2.20575E-05-2.81845E-05-2.82214E-06-2.58710E-19-1.32390E-19
 -1      4007 8.50873E-05-2.08143E-05-2.75531E-05-4.99846E-06 4.03287E-19 6.69621E-19
 -1      4008 8.60868E-05-2.12370E-05-2.78174E-05-4.52274E-06 4.31163E-19 6.51983E-19
 -1      4009 8.58461E-05-2.09933E-05-2.77637E-05-3.27240E-06-1.55919E-19 1.18977E-18
 -1      4010 8.24766E-05-1.99889E-05-2.67862E-05-6.01507E-06-5.53549E-21 6.65947E-19
 -1      4011 8.36647E-05-2.03237E-05-2.71817E-05-5.39022E-06 2.34611E-19 4.12009E-19
 -1      4012 8.33313E-05-1.99287E-05-2.71309E-05-3.79580E-06 4.26450E-19 1.15017E-18
 -1      4013 7.92778E-05-1.94198E-05-2.56552E-05-7.49031E-06 2.26071E-19-2.06114E-19
 -1      4014 8.06705E-05-1.95750E-05-2.62370E-05-6.57881E-06 2.75873E-20 1.25526E-19
 -1      4015 8.01614E-05-1.89027E-05-2.61945E-05-4.50034E-06 2.33752E-19 2.74500E-19
 -1      4016 7.52386E-05-1.92928E-05-2.40098E-05-9.88270E-06 1.85864E-19-5.31010E-19
 -1      4017 7.68839E-05-1.91091E-05-2.48420E-05-8.35341E-06 3.07899E-19 1.62950E-19
 -1      4018 7.61153E-05-1.79716E-05-2.48120E-05-5.58216E-06 2.16599E-19 3.48806E-19
 -1      4019 6.99846E-05-1.82332E-05-2.21545E-05-1.01792E-05 4.71738E-19-1.52135E-20
 -1      4020 9.51327E-05-2.82010E-05-2.86839E-05-5.63207E-07 1.00892E-19-1.11210E-18
 -1      4021 9.52252E-05-2.83314E-05-2.86705E-05-5.24435E-07 2.00144E-19-8.88231E-19
 -1      4022 9.59284E-05-2.51991E-05-3.03200E-05-6.93651E-08 5.54144E-19-1.44912E-18
 -1      4023 9.59419E-05-2.52571E-05-3.03013E-05-2.72693E-07 3.91263E-19-1.54658E-18
 -1      4024 9.37823E-05-2.66063E-05-2.87899E-05-1.28130E-06-2.15066E-19-1.29755E-18
 -1      4025 9.39972E-05-2.68600E-05-2.87779E-05-1.12683E-06-1.71929E-19-9.70649E-19
 -1      4026 9.39775E-05-2.68599E-05-2.87603E-05-8.94855E-07 1.25083E-19-1.18114E-18
 -1      4027 9.53385E-05-2.84605E-05-2.86608E-05-5.03700E-07-1.31027E-19-4.11880E-19
 -1      4028 9.54207E-05-2.85718E-05-2.86507E-05-4.85518E-07-1.61845E-19-4.14545E-19
 -1      4029 9.52785E-05-2.83778E-05-2.86713E-05-4.36541E-07 1.38021E-19-3.34674E-19
 -1      4030 8.46727E-05-2.86207E-05-2.38692E-05 1.81023E-05-9.23597E-19-2.15413E-19
 -1      4031 9.54790E-05-2.44586E-05-3.04441E-05 1.29322E-06 7.17768E-19-1.69621E-18
 -1      4032 9.52271E-05-2.37815E-05-3.06175E-05 1.02805E-06 6.11534E-19-1.58277E-18
 -1      4033 9.56781E-05-2.46772E-05-3.04166E-05 6.45022E-07 5.90813E-19-1.56373E-18
 -1      4034 9.57763E-05-2.51929E-05-3.02513E-05 8.58636E-07 5.92887E-19-1.67757E-18
 -1      4035 9.48924E-05-2.78963E-05-2.87117E-05-6.64982E-07-6.81120E-20-1.27547E-18
 -1      4036 9.50020E-05-2.80497E-05-2.86961E-05-6.02143E-07-2.30421E-19-1.37156E-18
 -1      4037 9.50373E-05-2.80858E-05-2.86923E-05-4.94003E-07-3.17454E-20-1.25694E-18
 -1      4038 9.66888E-05-2.84791E-05-2.92358E-05-4.43157E-07 4.25301E-19-1.81138E-18
 -1      4039 9.66784E-05-2.81701E-05-2.93569E-05-3.01833E-07 4.76731E-19-1.61445E-18
 -1      4040 9.66535E-05-2.89091E-05-2.90346E-05-5.85814E-07 3.97441E-19-1.56267E-18
 -1      4041 9.66896E-05-2.87257E-05-2.91244E-05-5.12473E-07 3.93768E-19-1.56317E-18
 -1      4042 9.67989E-05-2.85715E-05-2.92408E-05-3.77204E-07 3.32288E-19-1.42658E-18
 -1      4043 6.86115E-05-1.64104E-05-2.22026E-05-5.91714E-06 6.31693E-19 9.93067E-19
 -1      4044 9.34379E-05-2.62973E-05-2.87685E-05-1.11543E-06-3.56499E-19-1.54335E-18
 -1      4045 9.60447E-05-2.91497E-05-2.86680E-05-5.58065E-07-7.87957E-20-1.06142E-18
 -1      4046 9.61237E-05-2.91906E-05-2.86849E-05-5.80621E-07 1.07316E-19-9.42626E-19
 -1      4047 7.02707E-05-1.66055E-05-2.29955E-05-1.48809E-06 1.23409E-19 6.61505E-19
 -1      4048 9.54923E-05-2.86275E-05-2.86565E-05-4.09818E-07-5.12865E-19-4.21616E-19
 -1      4049 9.59257E-05-2.53145E-05-3.02672E-05-4.65166E-07 2.24135E-19-1.64044E-18
 -1      4050 9.58860E-05-2.53810E-05-3.02185E-05-7.37469E-07 1.61869E-19-1.75909E-18
 -1      4051 9.47532E-05-2.77427E-05-2.87167E-05-5.86884E-07-1.13749E-19-1.05974E-18
 -1      4052 9.59324E-05-2.52004E-05-3.03193E-05 7.99482E-08 5.44997E-19-1.32575E-18
 -1      4053 9.62832E-05-2.59653E-05-3.01226E-05 6.11780E-09 4.47288E-19-1.39344E-18
 -1      4054 9.59434E-05-2.52727E-05-3.02971E-05 2.80658E-07 6.01445E-19-1.28186E-18
 -1      4055 9.67170E-05-2.78785E-05-2.95007E-05-1.67430E-07 5.73169E-19-1.54231E-18
 -1      4056 9.65947E-05-2.77671E-05-2.95024E-05-1.69575E-07 5.22587E-19-1.44710E-18
 -1      4057 9.65093E-05-2.72896E-05-2.96621E-05 6.77142E-08 6.51162E-19-1.42185E-18
 -1      4058 9.62575E-05-2.60186E-05-3.00897E-05-2.64426E-07 1.81975E-19-1.44234E-18
 -1      4059 8.20960E-05-2.55685E-05-2.42293E-05 1.51264E-05-5.77332E-19-1.41440E-19
 -1      4060 9.58711E-05-2.90290E-05-2.86452E-05-5.15380E-07 5.35750E-20-1.36684E-18
 -1      4061 9.59478E-05-2.90913E-05-2.86527E-05-5.35522E-07-1.00236E-19-1.34737E-18
 -1      4062 9.60763E-05-2.91579E-05-2.86809E-05-4.59119E-07 5.69534E-20-1.52004E-18
 -1      4063 7.59752E-05-2.07086E-05-2.37314E-05 1.10116E-05-5.94611E-19 3.09452E-19
 -1      4064 7.27928E-05-1.86308E-05-2.30867E-05 9.16237E-06-7.08803E-20 6.33878E-19
 -1      4065 9.66027E-05-2.90440E-05-2.89516E-05-6.14270E-07 3.42590E-19-1.41323E-18
 -1      4066 9.67461E-05-2.89816E-05-2.90436E-05-4.84901E-07 2.44030E-19-1.33357E-18
 -1      4067 9.65422E-05-2.91401E-05-2.88868E-05-6.42583E-07 1.93250E-19-1.42137E-18
 -1      4068 9.61236E-05-2.63537E-05-2.99006E-05 5.36566E-07 7.11835E-19-1.41890E-18
 -1      4069 9.56987E-05-2.88718E-05-2.86387E-05-4.86599E-07-6.96591E-20-1.07220E-18
 -1      4070 9.57743E-05-2.89511E-05-2.86388E-05-4.98400E-07 1.18042E-20-9.93044E-19
 -1      4071 9.58841E-05-2.90185E-05-2.86579E-05-4.27394E-07-1.36590E-19-1.66525E-18
 -1      4072 7.15147E-05-1.76402E-05-2.31415E-05 6.22487E-06-4.06807E-20 7.15213E-19
 -1      4073 9.56912E-05-2.88405E-05-2.86510E-05-4.08696E-07-2.45735E-19-7.09022E-19
 -1      4074 9.68420E-05-2.77957E-05-2.95863E-05 6.00597E-08 1.84638E-19-1.13729E-18
 -1      4075 9.69116E-05-2.82134E-05-2.94452E-05 1.63741E-07 1.59865E-19-9.76673E-19
 -1      4076 9.56749E-05-2.88029E-05-2.86584E-05-3.15302E-07-3.22925E-19-3.92836E-19
 -1      4077 9.57732E-05-2.89029E-05-2.86587E-05-3.16659E-07-2.64175E-19-5.08144E-19
 -1      4078 9.69464E-05-2.85421E-05-2.93154E-05 1.82185E-07 5.20013E-20-8.78958E-19
 -1      4079 9.69442E-05-2.88006E-05-2.92044E-05 2.46948E-07 4.96331E-20-9.19815E-19
 -1      4080 9.69595E-05-2.83391E-05-2.94103E-05 8.77178E-08 2.55943E-19-1.16526E-18
 -1      4081 9.69139E-05-2.90001E-05-2.91051E-05 2.50648E-07 6.80951E-21-8.26146E-19
 -1      4082 9.68578E-05-2.91402E-05-2.90218E-05 2.82783E-07 1.15864E-19-7.83512E-19
 -1      4083 9.69712E-05-2.88888E-05-2.91801E-05 1.36376E-07 7.79520E-20-7.55991E-19
 -1      4084 9.67871E-05-2.92390E-05-2.89480E-05 2.82374E-07 8.93711E-20-9.01121E-19
 -1      4085 9.67040E-05-2.92989E-05-2.88874E-05 2.92112E-07-4.86088E-21-6.84090E-19
 -1      4086 9.68640E-05-2.91911E-05-2.90043E-05 1.58584E-07 3.26405E-21-9.86199E-19
 -1      4087 9.66064E-05-2.93246E-05-2.88341E-05 2.84860E-07-1.67449E-19-5.71319E-19
 -1      4088 9.65118E-05-2.93275E-05-2.87918E-05 2.84522E-07-1.37478E-19-5.77552E-19
 -1      4089 9.66950E-05-2.93220E-05-2.88764E-05 1.59570E-07-2.06076E-20-1.13381E-18
 -1      4090 9.64026E-05-2.93053E-05-2.87552E-05 2.70125E-07-4.26754E-20-7.93429E-19
 -1      4091 9.63006E-05-2.92664E-05-2.87275E-05 2.64441E-07-2.30785E-19-8.06476E-19
 -1      4092 9.64972E-05-2.93351E-05-2.87869E-05 1.50486E-07-2.49540E-19-1.12445E-18
 -1      4093 9.61882E-05-2.92098E-05-2.87044E-05 2.52236E-07-4.97975E-19-6.87848E-19
 -1      4094 9.60847E-05-2.91426E-05-2.86882E-05 2.45586E-07-4.82901E-19-8.46156E-19
 -1      4095 9.62764E-05-2.92553E-05-2.87266E-05 1.42608E-07-2.73242E-19-1.07367E-18
 -1      4096 9.59713E-05-2.90614E-05-2.86754E-05 2.35566E-07-2.93323E-19-7.89623E-19
 -1      4097 9.58675E-05-2.89725E-05-2.86681E-05 2.31500E-07-3.10834E-20-9.81830E-19
 -1      4098 9.60536E-05-2.91161E-05-2.86901E-05 1.34113E-07-1.81555E-19-8.54140E-19
 -1      4099 9.57523E-05-2.88713E-05-2.86634E-05 2.25445E-07 1.28457E-19-8.30143E-19
 -1      4100 9.56464E-05-2.87639E-05-2.86630E-05 2.27020E-07 1.40173E-19-6.80305E-19
 -1      4101 9.58281E-05-2.89302E-05-2.86722E-05 1.28459E-07 4.66233E-20-1.24451E-18
 -1      4102 9.55261E-05-2.86442E-05-2.86643E-05 2.26387E-07 3.07572E-19-2.93113E-19
 -1      4103 9.54143E-05-2.85185E-05-2.86689E-05 2.36295E-07 4.17927E-19-9.20989E-20
 -1      4104 9.55960E-05-2.87044E-05-2.86684E-05 1.28849E-07 3.97458E-19-4.15904E-19
 -1      4105 9.52838E-05-2.83793E-05-2.86745E-05 2.42559E-07 3.29261E-19-1.09147E-19
 -1      4106 9.51606E-05-2.82335E-05-2.86826E-05 2.63371E-07-1.98844E-21 1.57284E-19
 -1      4107 9.53493E-05-2.84393E-05-2.86751E-05 1.38008E-07 4.32115E-19-7.98448E-19
 -1      4108 9.50129E-05-2.80721E-05-2.86907E-05 2.78264E-07-4.40052E-19 5.05783E-19
 -1      4109 9.48716E-05-2.79031E-05-2.87006E-05 3.12686E-07-2.51055E-19 2.75027E-19
 -1      4110 9.50758E-05-2.81310E-05-2.86885E-05 1.58828E-07-1.27559E-19-4.46605E-19
 -1      4111 9.46982E-05-2.77156E-05-2.87094E-05 3.38432E-07-3.03324E-19 8.43280E-19
 -1      4112 9.45311E-05-2.75196E-05-2.87192E-05 3.89554E-07-2.14929E-19 4.96798E-19
 -1      4113 9.47604E-05-2.77728E-05-2.87052E-05 1.94800E-07-4.33893E-20 2.27679E-19
 -1      4114 9.43223E-05-2.73018E-05-2.87266E-05 4.29134E-07-1.22651E-19 5.41877E-19
 -1      4115 9.41208E-05-2.70753E-05-2.87340E-05 5.00693E-07-4.29948E-20 1.72186E-19
 -1      4116 9.43853E-05-2.73560E-05-2.87211E-05 2.50482E-07-3.15984E-19-3.46316E-20
 -1      4117 9.38660E-05-2.68237E-05-2.87371E-05 5.58183E-07-2.51200E-19-2.38218E-19
 -1      4118 9.36215E-05-2.65642E-05-2.87393E-05 6.54887E-07-6.25738E-19-2.05169E-19
 -1      4119 9.39302E-05-2.68723E-05-2.87311E-05 3.32085E-07-5.70380E-19-2.64735E-19
 -1      4120 9.33092E-05-2.62765E-05-2.87345E-05 7.35913E-07-6.04178E-19-9.14463E-20
 -1      4121 9.30133E-05-2.59841E-05-2.87273E-05 8.63896E-07-6.19010E-19-2.46160E-19
 -1      4122 9.33735E-05-2.63149E-05-2.87287E-05 4.48268E-07-6.14659E-19-2.71929E-19
 -1      4123 9.26318E-05-2.56608E-05-2.87097E-05 9.76269E-07-5.72105E-19-2.54491E-19
 -1      4124 9.22773E-05-2.53393E-05-2.86882E-05 1.14375E-06-2.59605E-19-2.21978E-20
 -1      4125 9.26922E-05-2.56809E-05-2.87052E-05 6.11244E-07-4.82860E-19-6.87483E-19
 -1      4126 9.18150E-05-2.49853E-05-2.86514E-05 1.29838E-06 3.67566E-19-5.45135E-19
 -1      4127 9.13972E-05-2.46440E-05-2.86086E-05 1.51673E-06 4.23173E-19-7.99929E-20
 -1      4128 9.18635E-05-2.49739E-05-2.86493E-05 8.38358E-07-4.45933E-19-8.63083E-19
 -1      4129 9.08425E-05-2.42697E-05-2.85441E-05 1.72895E-06-2.16389E-19-3.82580E-19
 -1      4130 9.03608E-05-2.39256E-05-2.84714E-05 2.01429E-06 1.37493E-19-9.12580E-19
 -1      4131 9.08647E-05-2.42063E-05-2.85457E-05 1.15435E-06-2.47962E-19-9.43798E-19
 -1      4132 8.97025E-05-2.35488E-05-2.83682E-05 2.30587E-06 1.39083E-19-1.34909E-18
 -1      4133 8.91618E-05-2.32287E-05-2.82546E-05 2.68181E-06-3.44575E-19-1.91477E-18
 -1      4134 8.96744E-05-2.34025E-05-2.83746E-05 1.59463E-06-3.79951E-19-2.36646E-18
 -1      4135 8.83880E-05-2.28757E-05-2.80984E-05 3.08414E-06-1.45290E-19-1.84127E-18
 -1      4136 8.78023E-05-2.26191E-05-2.79303E-05 3.58609E-06-1.78238E-19-1.53542E-18
 -1      4137 8.82711E-05-2.26009E-05-2.81102E-05 2.20979E-06-1.47489E-19-2.59606E-18
 -1      4138 8.68980E-05-2.23259E-05-2.77025E-05 4.14662E-06-3.78369E-19-1.14284E-18
 -1      4139 8.62943E-05-2.21911E-05-2.74634E-05 4.82982E-06-1.58724E-19-1.13789E-18
 -1      4140 8.66280E-05-2.18567E-05-2.77188E-05 3.07181E-06-5.99292E-20-2.12527E-18
 -1      4141 8.52373E-05-2.19880E-05-2.71411E-05 5.60992E-06-5.94562E-20-8.76557E-19
 -1      4142 8.46457E-05-2.20622E-05-2.68100E-05 6.58878E-06-2.37432E-19-8.91272E-19
 -1      4143 8.47163E-05-2.12716E-05-2.71571E-05 4.27134E-06-5.30963E-20-7.00152E-19
 -1      4144 8.34439E-05-2.20429E-05-2.63592E-05 7.62059E-06-6.55535E-19-2.93807E-19
 -1      4145 8.29253E-05-2.24822E-05-2.59218E-05 9.07158E-06-6.41449E-19 2.00741E-19
 -1      4146 8.25650E-05-2.09793E-05-2.63816E-05 5.99166E-06 1.78870E-20-9.13270E-19
 -1      4147 8.15099E-05-2.35047E-05-2.47673E-05 1.25124E-05-2.21020E-19-3.86783E-19
 -1      4148 7.15674E-05-1.66437E-05-2.34178E-05 2.40646E-06 4.85254E-19 1.49886E-18
 -1      4149 7.37595E-05-1.73467E-05-2.42573E-05-2.67068E-06 3.56118E-20 6.35678E-19
 -1      4150 7.62338E-05-1.78222E-05-2.50937E-05-2.16391E-06 3.55913E-19 9.18453E-19
 -1      4151 7.50019E-05-1.81067E-05-2.43615E-05 4.13056E-06 2.55920E-19 1.51647E-19
 -1      4152 9.42366E-05-2.71763E-05-2.87412E-05-5.82232E-07-1.14121E-19-8.74083E-19
 -1      4153 9.44311E-05-2.74000E-05-2.87305E-05-5.13362E-07 4.24168E-20-9.07814E-19
 -1      4154 9.46282E-05-2.76134E-05-2.87211E-05-4.75612E-07-1.59676E-19-8.62618E-19
 -1      4155 9.47860E-05-2.78032E-05-2.87090E-05-4.24383E-07-1.70920E-19-7.81090E-19
 -1      4156 9.44830E-05-2.74532E-05-2.87224E-05-3.41047E-07-9.48674E-20-1.03570E-18
 -1      4157 9.49490E-05-2.79846E-05-2.86990E-05-3.98140E-07-8.95142E-20-9.49118E-19
 -1      4158 9.50804E-05-2.81461E-05-2.86877E-05-3.63165E-07 2.29245E-20-7.07426E-19
 -1      4159 9.48400E-05-2.78579E-05-2.87038E-05-2.87570E-07-1.58641E-19-1.23707E-18
 -1      4160 9.14285E-05-2.45627E-05-2.86631E-05-1.28655E-06-3.93157E-19 4.84903E-20
 -1      4161 9.19121E-05-2.49681E-05-2.86972E-05-1.15249E-06-4.10095E-19 3.20644E-19
 -1      4162 9.23798E-05-2.53608E-05-2.87269E-05-1.07645E-06-8.95517E-19-5.98321E-20
 -1      4163 9.27653E-05-2.57167E-05-2.87408E-05-9.55067E-07-7.92987E-19-1.94399E-19
 -1      4164 9.19957E-05-2.50309E-05-2.86831E-05-6.92354E-07-7.90388E-19-4.06364E-19
 -1      4165 8.87847E-05-2.26870E-05-2.83398E-05-1.71578E-06 8.13776E-20 1.03940E-19
 -1      4166 8.95348E-05-2.31805E-05-2.84481E-05-1.57257E-06 4.23855E-19 5.51270E-19
 -1      4167 8.69778E-05-2.16388E-05-2.80191E-05-1.90740E-06-5.01646E-19 5.95465E-19
 -1      4168 8.79092E-05-2.21626E-05-2.81905E-05-1.76572E-06-1.96201E-19 6.01702E-19
 -1      4169 8.81084E-05-2.22498E-05-2.81920E-05-8.48729E-07-1.54483E-19 3.58624E-19
 -1      4170 8.47392E-05-2.05477E-05-2.75315E-05-2.07506E-06-2.98132E-19 8.10802E-19
 -1      4171 8.58936E-05-2.10853E-05-2.77925E-05-1.92888E-06-6.45866E-19 5.89155E-19
 -1      4172 8.61740E-05-2.11809E-05-2.78119E-05-7.68420E-07-2.99302E-19 1.72197E-19
 -1      4173 8.19458E-05-1.94650E-05-2.68060E-05-2.24611E-06 8.28219E-19 3.98529E-19
 -1      4174 8.33823E-05-1.99934E-05-2.71945E-05-2.08062E-06 6.56259E-19 5.96529E-19
 -1      4175 8.37455E-05-2.00590E-05-2.72447E-05-5.71843E-07 1.66299E-19-5.77598E-19
 -1      4176 7.84408E-05-1.83957E-05-2.57692E-05-2.39204E-06 4.17036E-19 2.47542E-19
 -1      4177 8.02788E-05-1.88991E-05-2.63398E-05-2.11508E-06 6.31430E-19 6.16803E-19
 -1      4178 8.08520E-05-1.90363E-05-2.64487E-05-3.20396E-07 7.76809E-19-1.60188E-19
 -1      4179 7.71731E-05-1.79726E-05-2.53178E-05 4.57414E-07 3.49642E-19 2.22727E-19
 -1      4180 9.31418E-05-2.60592E-05-2.87527E-05-8.84902E-07-5.81859E-19-1.97729E-19
 -1      4181 9.34481E-05-2.63670E-05-2.87536E-05-7.79716E-07-3.46547E-19-4.62194E-19
 -1      4182 9.28329E-05-2.57743E-05-2.87269E-05-5.93294E-07-6.60821E-19-3.14913E-19
 -1      4183 9.61387E-05-2.59748E-05-3.00568E-05-5.07406E-07 2.05171E-20-1.54202E-18
 -1      4184 9.63588E-05-2.67207E-05-2.98566E-05-2.26841E-07-4.85519E-20-1.29439E-18
 -1      4185 9.64924E-05-2.68905E-05-2.98333E-05-1.39016E-07 5.79771E-20-1.33647E-18
 -1      4186 9.37503E-05-2.66617E-05-2.87542E-05-7.18964E-07 1.40812E-19-7.49200E-19
 -1      4187 9.39936E-05-2.69249E-05-2.87474E-05-6.31762E-07 1.40043E-19-7.84139E-19
 -1      4188 9.40467E-05-2.69780E-05-2.87369E-05-4.11462E-07-2.01183E-19-1.17414E-18
 -1      4189 9.35060E-05-2.64214E-05-2.87412E-05-4.97004E-07-2.96408E-19-4.58814E-19
 -1      4190 9.65496E-05-2.68642E-05-2.98710E-05-5.14958E-08 2.13751E-19-1.29171E-18
 -1      4191 9.52195E-05-2.83008E-05-2.86790E-05-3.47648E-07 2.43997E-19-7.83886E-19
 -1      4192 9.53333E-05-2.84388E-05-2.86701E-05-3.27087E-07 1.82175E-19-6.15749E-19
 -1      4193 9.51391E-05-2.82030E-05-2.86856E-05-2.51115E-07 3.42866E-20-1.35393E-18
 -1      4194 8.02122E-05-2.17788E-05-2.50687E-05 9.79097E-06-4.56984E-19 7.93357E-20
 -1      4195 9.62650E-05-2.92471E-05-2.87245E-05-4.96201E-07 1.12432E-19-1.27852E-18
 -1      4196 9.62185E-05-2.92221E-05-2.87117E-05-6.02594E-07 6.82718E-20-9.23079E-19
 -1      4197 9.63001E-05-2.92342E-05-2.87408E-05-6.18033E-07-1.65253E-19-1.06949E-18
 -1      4198 9.02468E-05-2.36679E-05-2.85427E-05-1.50431E-06 1.01507E-19 3.71117E-19
 -1      4199 9.08502E-05-2.41205E-05-2.86070E-05-1.36276E-06-3.80300E-19 2.45968E-19
 -1      4200 8.96797E-05-2.32589E-05-2.84400E-05-8.42029E-07-2.28950E-19 1.88531E-20
 -1      4201 9.63321E-05-2.67679E-05-2.98180E-05 2.24684E-07 5.96627E-19-1.42639E-18
 -1      4202 9.60778E-05-2.59481E-05-3.00577E-05 6.24736E-07 5.62501E-19-1.64002E-18
 -1      4203 9.60253E-05-2.56626E-05-3.01539E-05 5.55572E-07 5.13883E-19-1.67102E-18
 -1      4204 9.64740E-05-2.69308E-05-2.98060E-05 1.34728E-07 6.14580E-19-1.44328E-18
 -1      4205 9.54568E-05-2.85714E-05-2.86644E-05-3.21202E-07-4.26602E-19-7.09429E-19
 -1      4206 9.55601E-05-2.86894E-05-2.86594E-05-3.12871E-07-5.59783E-19-7.91592E-19
 -1      4207 9.53990E-05-2.84984E-05-2.86718E-05-2.30623E-07-1.70758E-19-8.35452E-19
 -1      4208 9.68869E-05-2.87093E-05-2.92209E-05-3.26342E-07 2.34895E-19-1.13643E-18
 -1      4209 9.68891E-05-2.84333E-05-2.93352E-05-2.39383E-07 3.25020E-19-1.21891E-18
 -1      4210 9.66439E-05-2.70786E-05-2.98147E-05-2.20549E-08 2.60453E-19-1.20725E-18
 -1      4211 7.85170E-05-1.99427E-05-2.50683E-05 7.45797E-06-2.49486E-19-4.45902E-19
 -1      4212 9.58581E-05-2.89652E-05-2.86707E-05-2.29403E-07-4.21248E-19-1.17821E-19
 -1      4213 9.58840E-05-2.89981E-05-2.86641E-05-3.25847E-07-3.65339E-19-6.70939E-19
 -1      4214 9.59812E-05-2.90798E-05-2.86716E-05-3.33885E-07-6.02489E-20-9.19841E-19
 -1      4215 9.60214E-05-2.55629E-05-3.02025E-05 5.00492E-07 5.01833E-19-1.64420E-18
 -1      4216 9.59633E-05-2.53428E-05-3.02672E-05 3.73566E-07 5.32022E-19-1.60904E-18
 -1      4217 9.63038E-05-2.60730E-05-3.00907E-05 2.00221E-07 4.66310E-19-1.36390E-18
 -1      4218 9.62982E-05-2.62484E-05-3.00139E-05 2.83148E-07 5.70976E-19-1.66839E-18
 -1      4219 7.73333E-05-1.89438E-05-2.50114E-05 5.62906E-06-7.51370E-20-3.57153E-19
 -1      4220 7.70530E-05-1.82516E-05-2.52357E-05 2.36560E-06 9.93551E-20 4.50681E-20
 -1      4221 7.91944E-05-1.87908E-05-2.58900E-05 1.86146E-06 1.18051E-19-5.22575E-19
 -1      4222 8.04728E-05-2.00336E-05-2.58717E-05 5.34755E-06 1.86238E-19-8.68339E-19
 -1      4223 9.09584E-05-2.41904E-05-2.85943E-05-7.81454E-07-5.60360E-19 5.45327E-20
 -1      4224 9.63902E-05-2.92300E-05-2.87822E-05-6.38513E-07-1.97334E-19-1.21339E-18
 -1      4225 9.64661E-05-2.91981E-05-2.88269E-05-6.37977E-07-2.09578E-20-1.30798E-18
 -1      4226 9.66244E-05-2.91999E-05-2.88994E-05-5.28145E-07-4.04021E-20-1.01788E-18
 -1      4227 9.64573E-05-2.92761E-05-2.87956E-05-5.27514E-07-1.75161E-19-1.05454E-18
 -1      4228 9.62983E-05-2.92657E-05-2.87269E-05-3.75569E-07 1.78858E-20-1.13564E-18
 -1      4229 9.64010E-05-2.92998E-05-2.87556E-05-3.87818E-07-8.91986E-20-9.21278E-19
 -1      4230 9.68284E-05-2.80763E-05-2.94698E-05-1.93984E-07 5.87913E-19-1.29915E-18
 -1      4231 9.67556E-05-2.76456E-05-2.96176E-05-4.25536E-08 5.55592E-19-1.31731E-18
 -1      4232 9.69086E-05-2.82055E-05-2.94454E-05-1.42875E-07 4.15549E-19-1.08541E-18
 -1      4233 9.61883E-05-2.92146E-05-2.87022E-05-3.59238E-07 6.81896E-20-1.10953E-18
 -1      4234 9.62945E-05-2.92657E-05-2.87301E-05-2.59031E-07-8.63485E-20-7.75722E-19
 -1      4235 9.60908E-05-2.91550E-05-2.86855E-05-3.47954E-07 4.35130E-20-1.15917E-18
 -1      4236 9.68247E-05-2.90778E-05-2.90336E-05-3.83848E-07 9.23506E-20-1.03886E-18
 -1      4237 9.68739E-05-2.89262E-05-2.91177E-05-3.44894E-07 2.62175E-19-1.14036E-18
 -1      4238 9.69429E-05-2.88022E-05-2.92056E-05-2.33352E-07 1.85648E-19-9.32393E-19
 -1      4239 9.56348E-05-2.87512E-05-2.86657E-05-2.24235E-07-2.50400E-19-5.35714E-19
 -1      4240 9.69917E-05-2.88610E-05-2.91988E-05-6.14653E-08 2.25828E-20-9.14467E-19
 -1      4241 9.69532E-05-2.90495E-05-2.90999E-05-4.72153E-08-2.71672E-20-8.99420E-19
 -1      4242 9.67664E-05-2.93193E-05-2.89052E-05 2.54206E-08-1.87063E-19-8.15193E-19
 -1      4243 9.66771E-05-2.93514E-05-2.88515E-05 3.03539E-08-1.56126E-19-1.04948E-18
 -1      4244 9.65247E-05-2.93390E-05-2.87928E-05-5.83958E-08-1.64509E-19-9.71865E-19
 -1      4245 9.64190E-05-2.93125E-05-2.87575E-05-5.35559E-08-2.76920E-19-8.81606E-19
 -1      4246 9.63117E-05-2.92674E-05-2.87312E-05-5.20148E-08-9.94301E-20-7.92924E-19
 -1      4247 9.61983E-05-2.92080E-05-2.87080E-05-5.13778E-08-3.25632E-20-5.50164E-19
 -1      4248 9.60877E-05-2.91334E-05-2.86928E-05-4.85221E-08-7.32273E-20-5.03702E-19
 -1      4249 9.59724E-05-2.90488E-05-2.86799E-05-4.86214E-08 2.16384E-20-4.66481E-19
 -1      4250 9.58600E-05-2.89525E-05-2.86733E-05-4.71405E-08-1.34674E-19-4.88320E-19
 -1      4251 9.57426E-05-2.88472E-05-2.86684E-05-4.62694E-08 1.24774E-20-4.30249E-19
 -1      4252 9.56261E-05-2.87318E-05-2.86684E-05-4.79270E-08-9.99741E-21-6.51735E-19
 -1      4253 9.55033E-05-2.86069E-05-2.86696E-05-4.50930E-08 4.13393E-20-7.28006E-19
 -1      4254 9.53779E-05-2.84719E-05-2.86743E-05-5.10401E-08 1.52474E-19-9.00391E-19
 -1      4255 9.52444E-05-2.83262E-05-2.86797E-05-4.52721E-08-3.80961E-21-1.10856E-18
 -1      4256 9.51033E-05-2.81692E-05-2.86875E-05-5.62621E-08 3.64235E-20-1.14880E-18
 -1      4257 9.49520E-05-2.79993E-05-2.86953E-05-4.64223E-08-6.93886E-21-9.55585E-19
 -1      4258 9.47868E-05-2.78162E-05-2.87044E-05-6.27918E-08-3.05299E-19-8.09832E-19
 -1      4259 9.46091E-05-2.76179E-05-2.87127E-05-4.73935E-08-1.45710E-19-6.04136E-19
 -1      4260 9.44095E-05-2.74036E-05-2.87210E-05-6.89232E-08-1.36261E-19-6.79658E-19
 -1      4261 9.41954E-05-2.71720E-05-2.87277E-05-4.58974E-08-3.69716E-19-8.27395E-19
 -1      4262 9.39498E-05-2.69213E-05-2.87325E-05-7.15555E-08-5.89078E-19-5.31842E-19
 -1      4263 9.36884E-05-2.66520E-05-2.87345E-05-3.79322E-08-5.26420E-19-8.09849E-19
 -1      4264 9.33834E-05-2.63601E-05-2.87323E-05-6.54911E-08-6.32512E-19-4.13041E-19
 -1      4265 9.30628E-05-2.60497E-05-2.87260E-05-1.69520E-08-4.80005E-19-1.62682E-19
 -1      4266 9.26832E-05-2.57132E-05-2.87121E-05-4.24748E-08-6.34882E-19-2.78977E-19
 -1      4267 9.22912E-05-2.53609E-05-2.86922E-05 2.72761E-08-7.24417E-19-7.07950E-19
 -1      4268 9.18203E-05-2.49787E-05-2.86602E-05 1.00648E-08-7.69004E-19-2.91981E-19
 -1      4269 9.13444E-05-2.45870E-05-2.86200E-05 1.10186E-07-7.60673E-19-7.71791E-19
 -1      4270 9.07627E-05-2.41613E-05-2.85612E-05 1.10614E-07-4.86291E-19-5.30931E-19
 -1      4271 9.01905E-05-2.37374E-05-2.84918E-05 2.54354E-07-5.25336E-19-1.01810E-18
 -1      4272 8.94754E-05-2.32747E-05-2.83945E-05 2.85599E-07-5.80102E-19-1.36265E-18
 -1      4273 8.87940E-05-2.28318E-05-2.82841E-05 4.91950E-07-4.64342E-19-1.44090E-18
 -1      4274 8.79170E-05-2.23427E-05-2.81324E-05 5.72183E-07-2.76005E-20-1.46440E-18
 -1      4275 8.71131E-05-2.19004E-05-2.79656E-05 8.67902E-07 2.77352E-19-1.13935E-18
 -1      4276 8.60354E-05-2.13981E-05-2.77381E-05 1.02366E-06 7.81992E-20-1.41744E-18
 -1      4277 8.50981E-05-2.09846E-05-2.74952E-05 1.44821E-06-3.01561E-20-1.05345E-18
 -1      4278 8.37494E-05-2.04541E-05-2.71608E-05 1.73062E-06 1.41115E-19-1.25137E-18
 -1      4279 8.26906E-05-2.01177E-05-2.68192E-05 2.28859E-06 4.56288E-19-1.12546E-18
 -1      4280 8.14894E-05-2.00826E-05-2.63294E-05 4.35838E-06 1.72467E-19-7.77616E-19
 -1      4281 9.65594E-05-2.93334E-05-2.88143E-05-1.82618E-07-2.52208E-19-7.00128E-19
 -1      4282 9.65628E-05-2.93193E-05-2.88180E-05-3.11742E-07-6.30613E-20-9.02709E-19
 -1      4283 9.65183E-05-2.66422E-05-2.99522E-05 4.25824E-08 4.07392E-19-1.35072E-18
 -1      4284 9.65240E-05-2.66425E-05-2.99512E-05-3.85655E-08 2.73535E-19-1.36011E-18
 -1      4285 9.66023E-05-2.69718E-05-2.98406E-05 3.49388E-08 4.21240E-19-1.13427E-18
 -1      4286 9.68004E-05-2.75209E-05-2.96893E-05-2.28531E-08 3.76448E-19-1.21180E-18
 -1      4287 9.69664E-05-2.82866E-05-2.94346E-05-5.14365E-08 3.78442E-19-1.24215E-18
 -1      4288 9.70027E-05-2.86170E-05-2.93055E-05-2.45326E-08 1.86693E-19-1.10332E-18
 -1      4289 9.68947E-05-2.78840E-05-2.95727E-05 1.20109E-09 4.26710E-19-1.17614E-18
 -1      4290 9.60767E-05-2.91392E-05-2.86907E-05-2.42737E-07 9.24707E-20-4.34079E-19
 -1      4291 9.69272E-05-2.91514E-05-2.90459E-05 2.87902E-08 1.39962E-20-8.49668E-19
 -1      4292 9.68543E-05-2.92560E-05-2.89693E-05 3.75375E-08 9.45673E-20-8.98137E-19
 -1      4293 9.69121E-05-2.91197E-05-2.90568E-05-1.88587E-07 8.10221E-20-7.92649E-19
 -1      4294 9.68238E-05-2.76063E-05-2.96649E-05 1.13198E-08 3.46512E-19-1.23749E-18
 -1      4295 8.07076E-05-1.92030E-05-2.63616E-05 1.51828E-06 3.87614E-19-9.11854E-19
 -1      4296 9.66570E-05-2.93015E-05-2.88639E-05-3.10295E-07-9.08121E-20-8.72423E-19
 -1      4297 9.68049E-05-2.92851E-05-2.89402E-05-1.03755E-07-9.66398E-20-5.93574E-19
 -1      4298 9.68185E-05-2.91682E-05-2.89905E-05-3.03912E-07-1.99081E-20-8.83262E-19
 -1      4299 9.67476E-05-2.92507E-05-2.89262E-05-3.17023E-07-1.23074E-19-8.82567E-19
 -1      4300 9.64802E-05-2.68251E-05-2.98540E-05 1.21591E-07 5.12395E-19-1.48356E-18
 -1      4301 9.64990E-05-2.67645E-05-2.98867E-05 8.44137E-08 4.27479E-19-1.36815E-18
 -3
    1PSTEP                         4           1           1          
  100CL  101 1.000000000        4301                     0    1           1
 -4  ERROR       1    1
 -5  STR(%)      1    1    0    0
 -1         1 4.29326E+01
 -1         2 2.57467E+01
 -1         3 1.95337E-01
 -1         4 8.90344E-02
 -1         5 1.40396E+01
 -1         6 1.31438E+01
 -1         7 1.31438E+01
 -1         8 3.66367E+00
 -1         9 1.82371E+00
 -1        10 1.29204E+00
 -1        11 1.04582E+00
 -1        12 8.99306E-01
 -1        13 8.08919E-01
 -1        14 7.54033E-01
 -1        15 7.55966E-01
 -1        16 8.13203E-01
 -1        17 9.00852E-01
 -1        18 1.05258E+00
 -1        19 1.30770E+00
 -1        20 1.83569E+00
 -1        21 3.50551E+00
 -1        22 8.64168E+00
 -1        23 1.31438E+01
 -1        24 4.31809E+00
 -1        25 3.34104E+00
 -1        26 2.11162E+00
 -1        27 1.36329E+00
 -1        28 1.01448E+00
 -1        29 7.75542E-01
 -1        30 5.95919E-01
 -1        31 4.56065E-01
 -1        32 3.48979E-01
 -1        33 2.70738E-01
 -1        34 2.08171E-01
 -1        35 1.59256E-01
 -1        36 1.22056E-01
 -1        37 9.47976E-02
 -1        38 7.59115E-02
 -1        39 6.40241E-02
 -1        40 6.14112E-02
 -1        41 6.93580E-02
 -1        42 8.05212E-02
 -1        43 1.02088E-01
 -1        44 1.34474E-01
 -1        45 1.75601E-01
 -1        46 2.25117E-01
 -1        47 2.81389E-01
 -1        48 3.40756E-01
 -1        49 3.96619E-01
 -1        50 4.95047E-01
 -1        51 6.19806E-01
 -1        52 7.78159E-01
 -1        53 9.13702E-01
 -1        54 9.79025E-01
 -1        55 9.92671E-01
 -1        56 1.08136E+00
 -1        57 1.11490E+00
 -1        58 1.52304E+00
 -1        59 2.22030E+00
 -1        60 3.24275E+00
 -1        61 3.66813E+00
 -1        62 3.66813E+00
 -1        63 3.48483E+00
 -1        64 3.25728E+00
 -1        65 2.39002E+00
 -1        66 1.44355E+00
 -1        67 7.21207E-01
 -1        68 4.03029E-01
 -1        69 3.77213E-01
 -1        70 3.55854E-01
 -1        71 3.20755E-01
 -1        72 1.40396E+01
 -1        73 3.39485E+00
 -1        74 2.41332E+00
 -1        75 1.66617E+00
 -1        76 1.14514E+00
 -1        77 9.05965E-01
 -1        78 7.31380E-01
 -1        79 5.88081E-01
 -1        80 4.68789E-01
 -1        81 3.69704E-01
 -1        82 2.95855E-01
 -1        83 2.34806E-01
 -1        84 1.84844E-01
 -1        85 1.45267E-01
 -1        86 1.15200E-01
 -1        87 9.37562E-02
 -1        88 8.01371E-02
 -1        89 7.87797E-02
 -1        90 9.12802E-02
 -1        91 1.10897E-01
 -1        92 1.37588E-01
 -1        93 1.71188E-01
 -1        94 2.11145E-01
 -1        95 2.56617E-01
 -1        96 3.36557E-01
 -1        97 4.32644E-01
 -1        98 5.42751E-01
 -1        99 6.60363E-01
 -1       100 7.71779E-01
 -1       101 8.52673E-01
 -1       102 8.84189E-01
 -1       103 1.21023E+00
 -1       104 1.52095E+00
 -1       105 1.68345E+00
 -1       106 2.10931E+00
 -1       107 2.21604E+00
 -1       108 2.68343E+00
 -1       109 3.54771E+00
 -1       110 5.05076E+00
 -1       111 5.46388E+00
 -1       112 5.46388E+00
 -1       113 5.10593E+00
 -1       114 3.09314E+00
 -1       115 1.51382E+00
 -1       116 1.50274E+00
 -1       117 1.50274E+00
 -1       118 1.43073E+00
 -1       119 1.24438E+00
 -1       120 8.38411E-01
 -1       121 4.42776E-01
 -1       122 4.42776E-01
 -1       123 3.94692E-01
 -1       124 2.84715E-01
 -1       125 2.32475E-01
 -1       126 5.06219E-01
 -1       127 6.12778E-01
 -1       128 6.12778E-01
 -1       129 5.02580E-01
 -1       130 2.27939E-01
 -1       131 2.63028E-01
 -1       132 3.20414E-01
 -1       133 3.20414E-01
 -1       134 2.94862E-01
 -1       135 2.38172E-01
 -1       136 2.38172E-01
 -1       137 2.57467E+01
 -1       138 4.76042E+01
 -1       139 4.76042E+01
 -1       140 1.97619E+01
 -1       141 1.22987E+01
 -1       142 1.22987E+01
 -1       143 1.21299E+01
 -1       144 1.26401E+01
 -1       145 1.26401E+01
 -1       146 1.33496E+01
 -1       147 2.89049E+01
 -1       148 2.89049E+01
 -1       149 2.80305E+01
 -1       150 2.47201E+01
 -1       151 2.35555E+01
 -1       152 2.35555E+01
 -1       153 4.39046E+01
 -1       154 4.39046E+01
 -1       155 1.63114E+01
 -1       156 1.22611E+01
 -1       157 1.30256E+01
 -1       158 1.34456E+01
 -1       159 1.34456E+01
 -1       160 1.27924E+01
 -1       161 1.47707E+01
 -1       162 4.29326E+01
 -1       163 2.40660E+01
 -1       164 6.07795E+00
 -1       165 2.29802E+00
 -1       166 1.50845E+00
 -1       167 1.15758E+00
 -1       168 9.73155E-01
 -1       169 8.64176E-01
 -1       170 7.96172E-01
 -1       171 7.55966E-01
 -1       172 7.99548E-01
 -1       173 8.67282E-01
 -1       174 9.81011E-01
 -1       175 1.17245E+00
 -1       176 1.52749E+00
 -1       177 2.26074E+00
 -1       178 3.93119E+00
 -1       179 1.40396E+01
 -1       180 4.31809E+00
 -1       181 3.34104E+00
 -1       182 2.11162E+00
 -1       183 1.44775E+00
 -1       184 1.02627E+00
 -1       185 7.75542E-01
 -1       186 5.95919E-01
 -1       187 4.68854E-01
 -1       188 3.69225E-01
 -1       189 2.91534E-01
 -1       190 2.35356E-01
 -1       191 1.87901E-01
 -1       192 1.48996E-01
 -1       193 1.17993E-01
 -1       194 9.40030E-02
 -1       195 7.60240E-02
 -1       196 6.30037E-02
 -1       197 6.14112E-02
 -1       198 6.93580E-02
 -1       199 8.53017E-02
 -1       200 1.09465E-01
 -1       201 1.40245E-01
 -1       202 1.77408E-01
 -1       203 2.25117E-01
 -1       204 2.83904E-01
 -1       205 3.68802E-01
 -1       206 4.59550E-01
 -1       207 5.45985E-01
 -1       208 6.43084E-01
 -1       209 7.78159E-01
 -1       210 9.13702E-01
 -1       211 9.79025E-01
 -1       212 9.92671E-01
 -1       213 1.08136E+00
 -1       214 1.11490E+00
 -1       215 1.52304E+00
 -1       216 2.22030E+00
 -1       217 3.24275E+00
 -1       218 3.66813E+00
 -1       219 3.48483E+00
 -1       220 3.25728E+00
 -1       221 2.39002E+00
 -1       222 1.69804E+00
 -1       223 1.17785E+00
 -1       224 7.54504E-01
 -1       225 5.75311E-01
 -1       226 4.41773E-01
 -1       227 3.68782E-01
 -1       228 3.39485E+00
 -1       229 2.41332E+00
 -1       230 1.66617E+00
 -1       231 1.14514E+00
 -1       232 9.05965E-01
 -1       233 7.31380E-01
 -1       234 5.88081E-01
 -1       235 4.68789E-01
 -1       236 3.69704E-01
 -1       237 2.95855E-01
 -1       238 2.34806E-01
 -1       239 1.87451E-01
 -1       240 1.49547E-01
 -1       241 1.19758E-01
 -1       242 9.74966E-02
 -1       243 8.21123E-02
 -1       244 7.50457E-02
 -1       245 8.25658E-02
 -1       246 9.57424E-02
 -1       247 1.14181E-01
 -1       248 1.37588E-01
 -1       249 1.76316E-01
 -1       250 2.30786E-01
 -1       251 2.97598E-01
 -1       252 3.76436E-01
 -1       253 4.65689E-01
 -1       254 5.60520E-01
 -1       255 6.60363E-01
 -1       256 7.71779E-01
 -1       257 8.52673E-01
 -1       258 1.05452E+00
 -1       259 1.24352E+00
 -1       260 1.52095E+00
 -1       261 1.68345E+00
 -1       262 2.10931E+00
 -1       263 2.21604E+00
 -1       264 2.68343E+00
 -1       265 3.54771E+00
 -1       266 5.05076E+00
 -1       267 5.46388E+00
 -1       268 5.10593E+00
 -1       269 3.09314E+00
 -1       270 1.51382E+00
 -1       271 1.06693E+00
 -1       272 1.50274E+00
 -1       273 1.43073E+00
 -1       274 1.24438E+00
 -1       275 8.38411E-01
 -1       276 5.71108E-01
 -1       277 6.57150E-01
 -1       278 6.57150E-01
 -1       279 4.81659E-01
 -1       280 8.42429E-01
 -1       281 1.19097E+00
 -1       282 1.19097E+00
 -1       283 1.19058E+00
 -1       284 8.37555E-01
 -1       285 4.58197E-01
 -1       286 5.93986E-01
 -1       287 5.93986E-01
 -1       288 5.82638E-01
 -1       289 4.78666E-01
 -1       290 3.68782E-01
 -1       291 3.03083E+01
 -1       292 2.70117E+01
 -1       293 4.76042E+01
 -1       294 2.14990E+01
 -1       295 1.09775E+01
 -1       296 1.22987E+01
 -1       297 1.21299E+01
 -1       298 1.16817E+01
 -1       299 1.26401E+01
 -1       300 1.25675E+01
 -1       301 1.33496E+01
 -1       302 2.89049E+01
 -1       303 2.85797E+01
 -1       304 2.52984E+01
 -1       305 2.66962E+01
 -1       306 2.66962E+01
 -1       307 3.83054E+01
 -1       308 4.39046E+01
 -1       309 1.74310E+01
 -1       310 1.20067E+01
 -1       311 1.22611E+01
 -1       312 1.30256E+01
 -1       313 1.34456E+01
 -1       314 1.27924E+01
 -1       315 1.18195E+01
 -1       316 1.54023E+01
 -1       317 4.29326E+01
 -1       318 3.81671E+01
 -1       319 3.03083E+01
 -1       320 1.04637E+00
 -1       321 2.48004E+00
 -1       322 7.91300E-01
 -1       323 6.94063E-01
 -1       324 6.31757E-01
 -1       325 5.87686E-01
 -1       326 5.90914E-01
 -1       327 6.34558E-01
 -1       328 7.01258E-01
 -1       329 7.96406E-01
 -1       330 9.31782E-01
 -1       331 1.16005E+00
 -1       332 1.32905E+00
 -1       333 2.20090E+00
 -1       334 1.91445E+00
 -1       335 1.72947E+00
 -1       336 1.26805E+00
 -1       337 9.07452E-01
 -1       338 6.56778E-01
 -1       339 5.39078E-01
 -1       340 4.42196E-01
 -1       341 3.57000E-01
 -1       342 2.91855E-01
 -1       343 2.37091E-01
 -1       344 1.90227E-01
 -1       345 1.54437E-01
 -1       346 1.25491E-01
 -1       347 1.01188E-01
 -1       348 8.11830E-02
 -1       349 6.48439E-02
 -1       350 5.57087E-02
 -1       351 5.54867E-02
 -1       352 6.74824E-02
 -1       353 8.53017E-02
 -1       354 1.09465E-01
 -1       355 1.46249E-01
 -1       356 2.00645E-01
 -1       357 2.65605E-01
 -1       358 3.39591E-01
 -1       359 4.18426E-01
 -1       360 4.94165E-01
 -1       361 5.59810E-01
 -1       362 6.30332E-01
 -1       363 7.05035E-01
 -1       364 7.20533E-01
 -1       365 6.32747E-01
 -1       366 5.42892E-01
 -1       367 5.68206E-01
 -1       368 1.06634E+00
 -1       369 1.58785E+00
 -1       370 2.04508E+00
 -1       371 2.37393E+00
 -1       372 2.32049E+00
 -1       373 2.28071E+00
 -1       374 2.09772E+00
 -1       375 1.75740E+00
 -1       376 1.37891E+00
 -1       377 1.16292E+00
 -1       378 8.89195E-01
 -1       379 6.77462E-01
 -1       380 6.11941E-01
 -1       381 1.13066E+00
 -1       382 8.91693E-01
 -1       383 7.04307E-01
 -1       384 5.45690E-01
 -1       385 4.38319E-01
 -1       386 3.72047E-01
 -1       387 3.08607E-01
 -1       388 2.53376E-01
 -1       389 2.08483E-01
 -1       390 1.69303E-01
 -1       391 1.36312E-01
 -1       392 1.10273E-01
 -1       393 9.07189E-02
 -1       394 7.67430E-02
 -1       395 6.79649E-02
 -1       396 6.75678E-02
 -1       397 7.34804E-02
 -1       398 8.76193E-02
 -1       399 1.13771E-01
 -1       400 1.47816E-01
 -1       401 2.04013E-01
 -1       402 2.89223E-01
 -1       403 3.98714E-01
 -1       404 5.34989E-01
 -1       405 6.97538E-01
 -1       406 8.79938E-01
 -1       407 1.06573E+00
 -1       408 1.22361E+00
 -1       409 1.36826E+00
 -1       410 1.41079E+00
 -1       411 1.41079E+00
 -1       412 1.23955E+00
 -1       413 1.06452E+00
 -1       414 1.48706E+00
 -1       415 2.48679E+00
 -1       416 2.90706E+00
 -1       417 3.33611E+00
 -1       418 3.25809E+00
 -1       419 2.96756E+00
 -1       420 2.21683E+00
 -1       421 1.63297E+00
 -1       422 1.19814E+00
 -1       423 1.05500E+00
 -1       424 9.68934E-01
 -1       425 9.29929E-01
 -1       426 8.27154E-01
 -1       427 8.48113E-01
 -1       428 8.71873E-01
 -1       429 8.71873E-01
 -1       430 9.95584E-01
 -1       431 1.72696E+00
 -1       432 1.81060E+00
 -1       433 1.81060E+00
 -1       434 1.72229E+00
 -1       435 9.87621E-01
 -1       436 8.48369E-01
 -1       437 8.48369E-01
 -1       438 7.72373E-01
 -1       439 7.02593E-01
 -1       440 2.70117E+01
 -1       441 3.22521E+01
 -1       442 3.22521E+01
 -1       443 1.66580E+01
 -1       444 9.01691E+00
 -1       445 9.19772E-01
 -1       446 1.00943E+01
 -1       447 1.06567E+01
 -1       448 1.04070E+01
 -1       449 8.66948E+00
 -1       450 5.85652E+00
 -1       451 1.20673E+01
 -1       452 2.01207E+01
 -1       453 2.42661E+01
 -1       454 3.53097E+01
 -1       455 3.53097E+01
 -1       456 2.48541E+01
 -1       457 2.50850E+01
 -1       458 1.45863E+01
 -1       459 7.77831E+00
 -1       460 8.13191E+00
 -1       461 9.73079E+00
 -1       462 9.98750E+00
 -1       463 9.56871E+00
 -1       464 8.41555E+00
 -1       465 7.66203E+00
 -1       466 1.43273E+01
 -1       467 2.63010E+01
 -1       468 2.71710E+01
 -1       469 7.01964E+00
 -1       470 2.24942E+01
 -1       471 4.06566E+00
 -1       472 5.55373E+00
 -1       473 1.73703E+01
 -1       474 9.98750E+00
 -1       475 1.04814E+00
 -1       476 4.86011E-01
 -1       477 5.09961E-01
 -1       478 4.31715E-01
 -1       479 4.57547E-01
 -1       480 4.87152E-01
 -1       481 5.11243E-01
 -1       482 5.11243E-01
 -1       483 6.08868E-01
 -1       484 8.91693E-01
 -1       485 8.03679E-01
 -1       486 5.67898E+00
 -1       487 7.05374E-01
 -1       488 5.89484E-01
 -1       489 4.77254E-01
 -1       490 3.78746E-01
 -1       491 3.23951E-01
 -1       492 2.74255E-01
 -1       493 2.27350E-01
 -1       494 1.88685E-01
 -1       495 1.55311E-01
 -1       496 1.26211E-01
 -1       497 1.01554E-01
 -1       498 8.11830E-02
 -1       499 6.48439E-02
 -1       500 5.24876E-02
 -1       501 4.42815E-02
 -1       502 5.20498E-02
 -1       503 6.36436E-02
 -1       504 9.03846E-02
 -1       505 1.29541E-01
 -1       506 1.77569E-01
 -1       507 2.35143E-01
 -1       508 3.01888E-01
 -1       509 3.75722E-01
 -1       510 4.52021E-01
 -1       511 5.22700E-01
 -1       512 5.86727E-01
 -1       513 6.41355E-01
 -1       514 7.01953E-01
 -1       515 7.23565E-01
 -1       516 7.30137E-01
 -1       517 9.03288E-01
 -1       518 1.02573E+00
 -1       519 1.34926E+00
 -1       520 1.60767E+00
 -1       521 1.93211E+00
 -1       522 2.30806E+00
 -1       523 2.16506E+00
 -1       524 2.12802E+00
 -1       525 1.75348E+00
 -1       526 1.68756E+00
 -1       527 1.48821E+00
 -1       528 1.16292E+00
 -1       529 8.89195E-01
 -1       530 5.45690E-01
 -1       531 4.38319E-01
 -1       532 3.72047E-01
 -1       533 3.08607E-01
 -1       534 2.53376E-01
 -1       535 2.09020E-01
 -1       536 1.70320E-01
 -1       537 1.37392E-01
 -1       538 1.10967E-01
 -1       539 8.99046E-02
 -1       540 7.19241E-02
 -1       541 5.81894E-02
 -1       542 5.17799E-02
 -1       543 5.50430E-02
 -1       544 6.83659E-02
 -1       545 8.78800E-02
 -1       546 1.31859E-01
 -1       547 1.89461E-01
 -1       548 2.64070E-01
 -1       549 3.59079E-01
 -1       550 4.77350E-01
 -1       551 6.20195E-01
 -1       552 7.85661E-01
 -1       553 9.65900E-01
 -1       554 1.14365E+00
 -1       555 1.28869E+00
 -1       556 1.41119E+00
 -1       557 1.61334E+00
 -1       558 1.75942E+00
 -1       559 1.79679E+00
 -1       560 2.28414E+00
 -1       561 2.52797E+00
 -1       562 2.90706E+00
 -1       563 3.78238E+00
 -1       564 4.61968E+00
 -1       565 3.25809E+00
 -1       566 2.45336E+00
 -1       567 2.24429E+00
 -1       568 1.92269E+00
 -1       569 1.49823E+00
 -1       570 1.13624E+00
 -1       571 9.68934E-01
 -1       572 2.01429E+00
 -1       573 2.94848E+00
 -1       574 1.12829E+00
 -1       575 1.58993E+00
 -1       576 2.94848E+00
 -1       577 2.94644E+00
 -1       578 2.03147E+00
 -1       579 1.63305E+00
 -1       580 1.26578E+00
 -1       581 1.12409E+00
 -1       582 7.02593E-01
 -1       583 3.22521E+01
 -1       584 2.71710E+01
 -1       585 7.04307E-01
 -1       586 1.46118E+01
 -1       587 8.73808E-01
 -1       588 5.40174E+00
 -1       589 7.78038E+00
 -1       590 2.48541E+01
 -1       591 4.57461E-01
 -1       592 7.94134E+00
 -1       593 7.88879E+00
 -1       594 6.98796E+00
 -1       595 5.79436E+00
 -1       596 7.92970E+00
 -1       597 1.13196E+01
 -1       598 2.42661E+01
 -1       599 3.53097E+01
 -1       600 1.86483E+01
 -1       601 1.26790E+01
 -1       602 5.74219E+00
 -1       603 8.31219E+00
 -1       604 5.59981E+00
 -1       605 4.76438E+00
 -1       606 1.25350E+01
 -1       607 2.05857E+01
 -1       608 1.32822E+00
 -1       609 8.01153E+00
 -1       610 7.25572E-01
 -1       611 1.55637E+01
 -1       612 3.78769E+00
 -1       613 1.48636E+01
 -1       614 4.77772E+00
 -1       615 3.42014E+00
 -1       616 6.87935E-01
 -1       617 3.58411E-01
 -1       618 3.42981E-01
 -1       619 3.61865E-01
 -1       620 3.37820E-01
 -1       621 5.44115E-01
 -1       622 5.15724E-01
 -1       623 5.11379E+00
 -1       624 7.49190E+00
 -1       625 3.98216E-01
 -1       626 3.84178E-01
 -1       627 3.44003E-01
 -1       628 2.94539E-01
 -1       629 2.45022E-01
 -1       630 2.13659E-01
 -1       631 1.81225E-01
 -1       632 1.50173E-01
 -1       633 1.22062E-01
 -1       634 9.93814E-02
 -1       635 8.00512E-02
 -1       636 6.36787E-02
 -1       637 4.96064E-02
 -1       638 3.69715E-02
 -1       639 3.46320E-02
 -1       640 4.35052E-02
 -1       641 7.06481E-02
 -1       642 1.03885E-01
 -1       643 1.44655E-01
 -1       644 1.94239E-01
 -1       645 2.53549E-01
 -1       646 3.22794E-01
 -1       647 4.01005E-01
 -1       648 4.85742E-01
 -1       649 5.71769E-01
 -1       650 6.46190E-01
 -1       651 7.54918E-01
 -1       652 8.87640E-01
 -1       653 1.00242E+00
 -1       654 1.11327E+00
 -1       655 1.39256E+00
 -1       656 1.88844E+00
 -1       657 1.74106E+00
 -1       658 2.63389E+00
 -1       659 3.95746E+00
 -1       660 3.78676E+00
 -1       661 4.23117E+00
 -1       662 2.84471E+00
 -1       663 2.14583E+00
 -1       664 1.70800E+00
 -1       665 1.48821E+00
 -1       666 1.12345E+00
 -1       667 3.28742E-01
 -1       668 1.04950E+01
 -1       669 3.97174E-01
 -1       670 2.34967E-01
 -1       671 1.98182E-01
 -1       672 1.64214E-01
 -1       673 1.36074E-01
 -1       674 1.11298E-01
 -1       675 8.99046E-02
 -1       676 7.19241E-02
 -1       677 5.71817E-02
 -1       678 4.56648E-02
 -1       679 4.09117E-02
 -1       680 4.92236E-02
 -1       681 7.19240E-02
 -1       682 1.09102E-01
 -1       683 1.56719E-01
 -1       684 2.17604E-01
 -1       685 2.94869E-01
 -1       686 3.91803E-01
 -1       687 5.11657E-01
 -1       688 6.57270E-01
 -1       689 8.30428E-01
 -1       690 1.03073E+00
 -1       691 1.25327E+00
 -1       692 1.48395E+00
 -1       693 1.69029E+00
 -1       694 2.12746E+00
 -1       695 2.66414E+00
 -1       696 4.12034E+00
 -1       697 2.52797E+00
 -1       698 4.29083E+00
 -1       699 6.73688E+00
 -1       700 5.01332E+00
 -1       701 3.41396E+00
 -1       702 2.75135E+00
 -1       703 3.74401E+00
 -1       704 2.11962E+00
 -1       705 1.67895E+00
 -1       706 1.36671E+00
 -1       707 1.29581E+01
 -1       708 4.28391E+00
 -1       709 3.76593E+00
 -1       710 3.85690E+00
 -1       711 4.28391E+00
 -1       712 2.89028E+00
 -1       713 2.14541E+00
 -1       714 1.69285E+00
 -1       715 3.13035E+00
 -1       716 6.85610E+00
 -1       717 1.34204E+01
 -1       718 6.56728E+00
 -1       719 4.65261E-01
 -1       720 2.88058E+00
 -1       721 4.64599E-01
 -1       722 2.74130E-01
 -1       723 1.50374E+01
 -1       724 1.58327E+01
 -1       725 8.47767E+00
 -1       726 3.61865E-01
 -1       727 5.77148E+00
 -1       728 3.65280E-01
 -1       729 6.93805E+00
 -1       730 4.89231E+00
 -1       731 1.16188E+01
 -1       732 5.15275E+00
 -1       733 1.28798E+01
 -1       734 1.54690E+01
 -1       735 1.09349E+00
 -1       736 3.02346E+00
 -1       737 6.29001E+00
 -1       738 4.52697E+00
 -1       739 4.65261E-01
 -1       740 3.42490E-01
 -1       741 6.77862E+00
 -1       742 5.65102E+00
 -1       743 4.23117E+00
 -1       744 3.42014E+00
 -1       745 1.09820E+01
 -1       746 1.89783E+00
 -1       747 4.07274E+00
 -1       748 1.31912E+00
 -1       749 1.02623E+01
 -1       750 9.60842E+00
 -1       751 3.57848E-01
 -1       752 2.53399E+00
 -1       753 2.40594E-01
 -1       754 9.56254E+00
 -1       755 4.44193E+00
 -1       756 2.56306E-01
 -1       757 2.49351E-01
 -1       758 2.27568E-01
 -1       759 1.99269E-01
 -1       760 1.72541E-01
 -1       761 1.51272E-01
 -1       762 1.28753E-01
 -1       763 1.06808E-01
 -1       764 8.63395E-02
 -1       765 6.76095E-02
 -1       766 5.04212E-02
 -1       767 3.42460E-02
 -1       768 2.34148E-02
 -1       769 2.77686E-02
 -1       770 4.94177E-02
 -1       771 7.65564E-02
 -1       772 1.11642E-01
 -1       773 1.54508E-01
 -1       774 2.05568E-01
 -1       775 2.64418E-01
 -1       776 3.37597E-01
 -1       777 4.30347E-01
 -1       778 5.37379E-01
 -1       779 6.54653E-01
 -1       780 7.91848E-01
 -1       781 9.33651E-01
 -1       782 1.18914E+00
 -1       783 1.47143E+00
 -1       784 1.71926E+00
 -1       785 1.88844E+00
 -1       786 2.97542E+00
 -1       787 2.63389E+00
 -1       788 2.41875E+00
 -1       789 1.70800E+00
 -1       790 1.30092E+00
 -1       791 1.63946E-01
 -1       792 1.89639E-01
 -1       793 1.13516E-01
 -1       794 9.12334E-02
 -1       795 7.12701E-02
 -1       796 5.44161E-02
 -1       797 4.04808E-02
 -1       798 2.69149E-02
 -1       799 2.84940E-02
 -1       800 4.98576E-02
 -1       801 7.88982E-02
 -1       802 1.15145E-01
 -1       803 1.60742E-01
 -1       804 2.21330E-01
 -1       805 3.05236E-01
 -1       806 4.11583E-01
 -1       807 5.43661E-01
 -1       808 7.03148E-01
 -1       809 8.87802E-01
 -1       810 1.11678E+00
 -1       811 1.43229E+00
 -1       812 1.88938E+00
 -1       813 2.47113E+00
 -1       814 3.13483E+00
 -1       815 4.70393E+00
 -1       816 4.29406E+00
 -1       817 2.67426E+00
 -1       818 1.96811E+00
 -1       819 5.42332E+00
 -1       820 3.95746E+00
 -1       821 5.61311E+00
 -1       822 2.73727E-01
 -1       823 5.65246E+00
 -1       824 8.71602E+00
 -1       825 3.68207E+00
 -1       826 2.63227E+00
 -1       827 6.77381E+00
 -1       828 3.03830E+00
 -1       829 1.38009E-01
 -1       830 8.12691E+00
 -1       831 2.87347E-01
 -1       832 9.56254E+00
 -1       833 4.35751E+00
 -1       834 2.33881E-01
 -1       835 2.82761E-01
 -1       836 1.09820E+01
 -1       837 2.97542E+00
 -1       838 2.88384E-01
 -1       839 9.98269E+00
 -1       840 2.81914E-01
 -1       841 6.09884E+00
 -1       842 7.82875E+00
 -1       843 2.18252E-01
 -1       844 2.84471E+00
 -1       845 2.54887E-01
 -1       846 2.81764E-01
 -1       847 9.76759E+00
 -1       848 3.43517E+00
 -1       849 5.57385E+00
 -1       850 4.63954E+00
 -1       851 5.23209E+00
 -1       852 3.06005E-01
 -1       853 3.43517E+00
 -1       854 2.70249E-01
 -1       855 2.89046E-01
 -1       856 2.88384E-01
 -1       857 2.80926E-01
 -1       858 5.68870E+00
 -1       859 1.68667E+00
 -1       860 9.76759E+00
 -1       861 1.83123E-01
 -1       862 1.75881E-01
 -1       863 1.60143E-01
 -1       864 1.40344E-01
 -1       865 1.23718E-01
 -1       866 1.07002E-01
 -1       867 8.98501E-02
 -1       868 7.32280E-02
 -1       869 5.75216E-02
 -1       870 4.27028E-02
 -1       871 3.50631E-02
 -1       872 3.75342E-02
 -1       873 4.79109E-02
 -1       874 7.44279E-02
 -1       875 1.07964E-01
 -1       876 1.49442E-01
 -1       877 2.00127E-01
 -1       878 2.60935E-01
 -1       879 3.32078E-01
 -1       880 4.12468E-01
 -1       881 4.98733E-01
 -1       882 6.19375E-01
 -1       883 7.74438E-01
 -1       884 1.02294E+00
 -1       885 1.32776E+00
 -1       886 1.68364E+00
 -1       887 2.73945E+00
 -1       888 2.91943E+00
 -1       889 1.52750E-01
 -1       890 7.89314E-02
 -1       891 9.72397E-02
 -1       892 4.58975E-02
 -1       893 3.06236E-02
 -1       894 3.21488E-02
 -1       895 4.24440E-02
 -1       896 6.89462E-02
 -1       897 1.04427E-01
 -1       898 1.50951E-01
 -1       899 2.10980E-01
 -1       900 2.88136E-01
 -1       901 3.86759E-01
 -1       902 5.12066E-01
 -1       903 6.70299E-01
 -1       904 8.69015E-01
 -1       905 1.11678E+00
 -1       906 1.42067E+00
 -1       907 1.80988E+00
 -1       908 2.47662E+00
 -1       909 3.52342E+00
 -1       910 4.42881E+00
 -1       911 3.47072E+00
 -1       912 3.93681E+00
 -1       913 3.47072E+00
 -1       914 5.10785E+00
 -1       915 6.55847E+00
 -1       916 6.55847E+00
 -1       917 2.89046E-01
 -1       918 6.18507E-02
 -1       919 2.10150E-01
 -1       920 7.56113E+00
 -1       921 1.75297E-01
 -1       922 1.60888E-01
 -1       923 3.20599E+00
 -1       924 1.41139E-01
 -1       925 1.51222E-01
 -1       926 7.00591E+00
 -1       927 1.76531E-01
 -1       928 1.16422E-01
 -1       929 1.35512E-01
 -1       930 3.91252E+00
 -1       931 1.97257E-01
 -1       932 1.96334E+00
 -1       933 2.08436E-01
 -1       934 2.19433E-01
 -1       935 3.69771E+00
 -1       936 2.27281E-01
 -1       937 2.17087E-01
 -1       938 2.02904E-01
 -1       939 1.36379E-01
 -1       940 1.35811E-01
 -1       941 1.26922E-01
 -1       942 1.13463E-01
 -1       943 9.83626E-02
 -1       944 8.57532E-02
 -1       945 7.25229E-02
 -1       946 5.94839E-02
 -1       947 4.70730E-02
 -1       948 4.29692E-02
 -1       949 4.51281E-02
 -1       950 5.03521E-02
 -1       951 6.51980E-02
 -1       952 9.43176E-02
 -1       953 1.31089E-01
 -1       954 1.77258E-01
 -1       955 2.34740E-01
 -1       956 3.05616E-01
 -1       957 3.92074E-01
 -1       958 4.96199E-01
 -1       959 6.19375E-01
 -1       960 7.60552E-01
 -1       961 9.84067E-01
 -1       962 1.31547E+00
 -1       963 1.59587E+00
 -1       964 2.18810E+00
 -1       965 7.99238E-02
 -1       966 2.27281E-01
 -1       967 4.12905E-02
 -1       968 3.97313E-02
 -1       969 6.10590E-02
 -1       970 9.16597E-02
 -1       971 1.30905E-01
 -1       972 1.81260E-01
 -1       973 2.45774E-01
 -1       974 3.28358E-01
 -1       975 4.34328E-01
 -1       976 5.71372E-01
 -1       977 7.51034E-01
 -1       978 9.92522E-01
 -1       979 1.32751E+00
 -1       980 1.80988E+00
 -1       981 2.47932E+00
 -1       982 5.02911E+00
 -1       983 7.00591E+00
 -1       984 2.17087E-01
 -1       985 1.03449E-01
 -1       986 1.56120E-01
 -1       987 3.80113E+00
 -1       988 1.60891E-01
 -1       989 1.24138E-01
 -1       990 4.59127E-02
 -1       991 3.00071E+00
 -1       992 4.43357E+00
 -1       993 1.41025E-01
 -1       994 9.50448E-02
 -1       995 1.52733E-01
 -1       996 6.52821E-02
 -1       997 1.53457E-01
 -1       998 1.31381E-01
 -1       999 1.25051E-01
 -1      1000 1.52961E-01
 -1      1001 3.16165E+00
 -1      1002 1.46481E-01
 -1      1003 1.53457E-01
 -1      1004 5.13463E-02
 -1      1005 9.15061E-02
 -1      1006 1.01721E-01
 -1      1007 1.03501E-01
 -1      1008 9.80768E-02
 -1      1009 8.86075E-02
 -1      1010 7.72012E-02
 -1      1011 6.54977E-02
 -1      1012 5.57006E-02
 -1      1013 4.91170E-02
 -1      1014 4.77150E-02
 -1      1015 4.90584E-02
 -1      1016 5.36822E-02
 -1      1017 6.28724E-02
 -1      1018 7.88812E-02
 -1      1019 1.04040E-01
 -1      1020 1.41848E-01
 -1      1021 1.90484E-01
 -1      1022 2.52936E-01
 -1      1023 3.33232E-01
 -1      1024 4.37030E-01
 -1      1025 5.72325E-01
 -1      1026 7.50285E-01
 -1      1027 9.84067E-01
 -1      1028 1.29065E+00
 -1      1029 3.16165E+00
 -1      1030 2.81486E+00
 -1      1031 1.21816E-01
 -1      1032 4.57506E-02
 -1      1033 1.09476E-01
 -1      1034 1.02927E-01
 -1      1035 7.30223E-02
 -1      1036 1.89573E-01
 -1      1037 2.51076E-01
 -1      1038 3.29275E-01
 -1      1039 4.29832E-01
 -1      1040 5.62606E-01
 -1      1041 7.43867E-01
 -1      1042 1.00455E+00
 -1      1043 1.40651E+00
 -1      1044 2.03548E+00
 -1      1045 4.43357E+00
 -1      1046 4.96493E-02
 -1      1047 1.00778E-01
 -1      1048 1.41080E-01
 -1      1049 4.61862E-02
 -1      1050 1.53122E-01
 -1      1051 5.67654E-02
 -1      1052 1.17006E-01
 -1      1053 1.17485E-01
 -1      1054 7.22865E-02
 -1      1055 1.03449E-01
 -1      1056 1.00778E-01
 -1      1057 1.05352E-01
 -1      1058 6.30129E-02
 -1      1059 3.16165E+00
 -1      1060 1.22022E-01
 -1      1061 5.18233E-02
 -1      1062 6.63723E-02
 -1      1063 5.20898E-02
 -1      1064 7.93739E-02
 -1      1065 7.60499E-02
 -1      1066 7.20221E-02
 -1      1067 9.63114E-02
 -1      1068 6.76399E-02
 -1      1069 6.02659E-02
 -1      1070 5.26459E-02
 -1      1071 4.91170E-02
 -1      1072 4.90584E-02
 -1      1073 5.36822E-02
 -1      1074 6.28724E-02
 -1      1075 7.88812E-02
 -1      1076 1.01145E-01
 -1      1077 1.35481E-01
 -1      1078 1.81429E-01
 -1      1079 2.42964E-01
 -1      1080 3.26024E-01
 -1      1081 4.39758E-01
 -1      1082 5.98308E-01
 -1      1083 8.21399E-01
 -1      1084 1.12794E+00
 -1      1085 1.24833E+00
 -1      1086 2.30435E+00
 -1      1087 2.72675E+00
 -1      1088 9.12691E-02
 -1      1089 7.11267E-02
 -1      1090 5.67654E-02
 -1      1091 2.63965E-01
 -1      1092 2.02725E-01
 -1      1093 4.46159E-01
 -1      1094 5.98308E-01
 -1      1095 8.21399E-01
 -1      1096 1.24833E+00
 -1      1097 1.43697E+00
 -1      1098 1.55217E-01
 -1      1099 1.18645E-01
 -1      1100 4.96493E-02
 -1      1101 1.11855E-01
 -1      1102 3.42988E-01
 -1      1103 8.32357E-02
 -1      1104 4.64961E-02
 -1      1105 8.72992E-02
 -1      1106 6.02659E-02
 -1      1107 1.00198E-01
 -1      1108 1.96768E+00
 -1      1109 1.22022E-01
 -1      1110 9.63114E-02
 -1      1111 7.61171E-02
 -1      1112 6.76399E-02
 -1      1113 9.03818E-02
 -1      1114 1.11855E-01
 -1      1115 4.93108E-02
 -1      1116 1.22022E-01
 -1      1117 1.31438E+01
 -1      1118 8.40373E+00
 -1      1119 2.74369E+00
 -1      1120 1.55787E+00
 -1      1121 1.16893E+00
 -1      1122 9.72565E-01
 -1      1123 8.54113E-01
 -1      1124 7.81476E-01
 -1      1125 7.55000E-01
 -1      1126 7.84584E-01
 -1      1127 8.57027E-01
 -1      1128 9.76715E-01
 -1      1129 1.18014E+00
 -1      1130 1.57170E+00
 -1      1131 2.67060E+00
 -1      1132 6.07360E+00
 -1      1133 1.13406E+01
 -1      1134 1.31438E+01
 -1      1135 8.73094E+00
 -1      1136 3.82956E+00
 -1      1137 2.72633E+00
 -1      1138 1.73746E+00
 -1      1139 1.18889E+00
 -1      1140 8.95010E-01
 -1      1141 6.85731E-01
 -1      1142 5.25992E-01
 -1      1143 4.02522E-01
 -1      1144 3.09859E-01
 -1      1145 2.39455E-01
 -1      1146 1.83714E-01
 -1      1147 1.40656E-01
 -1      1148 1.08427E-01
 -1      1149 8.53546E-02
 -1      1150 6.99678E-02
 -1      1151 6.27176E-02
 -1      1152 6.53846E-02
 -1      1153 7.49396E-02
 -1      1154 9.13047E-02
 -1      1155 1.18281E-01
 -1      1156 1.55038E-01
 -1      1157 2.00359E-01
 -1      1158 2.53253E-01
 -1      1159 3.11073E-01
 -1      1160 3.68688E-01
 -1      1161 4.45833E-01
 -1      1162 5.57427E-01
 -1      1163 6.98983E-01
 -1      1164 8.45931E-01
 -1      1165 9.46364E-01
 -1      1166 9.85848E-01
 -1      1167 1.03702E+00
 -1      1168 1.09813E+00
 -1      1169 1.31897E+00
 -1      1170 1.87167E+00
 -1      1171 2.73152E+00
 -1      1172 3.45544E+00
 -1      1173 3.66813E+00
 -1      1174 3.57648E+00
 -1      1175 3.37106E+00
 -1      1176 2.82365E+00
 -1      1177 1.91679E+00
 -1      1178 1.08238E+00
 -1      1179 5.62118E-01
 -1      1180 3.90121E-01
 -1      1181 3.66534E-01
 -1      1182 3.38305E-01
 -1      1183 2.04895E-01
 -1      1184 1.40396E+01
 -1      1185 8.71721E+00
 -1      1186 2.90408E+00
 -1      1187 2.03974E+00
 -1      1188 1.40565E+00
 -1      1189 1.02555E+00
 -1      1190 8.18672E-01
 -1      1191 6.59731E-01
 -1      1192 5.28435E-01
 -1      1193 4.19246E-01
 -1      1194 3.32779E-01
 -1      1195 2.65331E-01
 -1      1196 2.09825E-01
 -1      1197 1.65056E-01
 -1      1198 1.30234E-01
 -1      1199 1.04478E-01
 -1      1200 8.69467E-02
 -1      1201 7.94584E-02
 -1      1202 8.50300E-02
 -1      1203 1.01088E-01
 -1      1204 1.24242E-01
 -1      1205 1.54388E-01
 -1      1206 1.91166E-01
 -1      1207 2.33881E-01
 -1      1208 2.96587E-01
 -1      1209 3.84600E-01
 -1      1210 4.87697E-01
 -1      1211 6.01557E-01
 -1      1212 7.16071E-01
 -1      1213 8.12226E-01
 -1      1214 8.68431E-01
 -1      1215 1.04721E+00
 -1      1216 1.36559E+00
 -1      1217 1.60220E+00
 -1      1218 1.89638E+00
 -1      1219 2.16268E+00
 -1      1220 2.44974E+00
 -1      1221 3.11557E+00
 -1      1222 4.29923E+00
 -1      1223 5.25732E+00
 -1      1224 5.46388E+00
 -1      1225 5.28491E+00
 -1      1226 4.09953E+00
 -1      1227 2.30348E+00
 -1      1228 1.50828E+00
 -1      1229 1.50274E+00
 -1      1230 1.46673E+00
 -1      1231 1.33755E+00
 -1      1232 1.04140E+00
 -1      1233 5.16874E-01
 -1      1234 3.19057E-01
 -1      1235 4.42776E-01
 -1      1236 4.18734E-01
 -1      1237 3.39703E-01
 -1      1238 2.58595E-01
 -1      1239 3.69347E-01
 -1      1240 5.59498E-01
 -1      1241 6.12778E-01
 -1      1242 5.57679E-01
 -1      1243 3.65260E-01
 -1      1244 2.45484E-01
 -1      1245 2.91721E-01
 -1      1246 3.20414E-01
 -1      1247 3.07638E-01
 -1      1248 2.66517E-01
 -1      1249 2.38172E-01
 -1      1250 1.63603E-01
 -1      1251 2.57467E+01
 -1      1252 3.66755E+01
 -1      1253 4.76042E+01
 -1      1254 3.36831E+01
 -1      1255 1.60303E+01
 -1      1256 1.22987E+01
 -1      1257 1.22143E+01
 -1      1258 1.23850E+01
 -1      1259 1.26401E+01
 -1      1260 1.29949E+01
 -1      1261 2.11273E+01
 -1      1262 2.89049E+01
 -1      1263 2.84677E+01
 -1      1264 2.63753E+01
 -1      1265 2.41378E+01
 -1      1266 2.35555E+01
 -1      1267 3.37300E+01
 -1      1268 4.39046E+01
 -1      1269 3.01080E+01
 -1      1270 1.42863E+01
 -1      1271 1.26434E+01
 -1      1272 1.32356E+01
 -1      1273 1.34456E+01
 -1      1274 1.31190E+01
 -1      1275 1.37816E+01
 -1      1276 2.88517E+01
 -1      1277 4.29326E+01
 -1      1278 3.34993E+01
 -1      1279 2.49063E+01
 -1      1280 1.31438E+01
 -1      1281 4.87081E+00
 -1      1282 9.61087E+00
 -1      1283 2.06086E+00
 -1      1284 2.98084E+00
 -1      1285 4.18798E+00
 -1      1286 1.40025E+00
 -1      1287 1.66608E+00
 -1      1288 1.90324E+00
 -1      1289 1.10170E+00
 -1      1290 1.22481E+00
 -1      1291 1.33301E+00
 -1      1292 9.36231E-01
 -1      1293 1.00949E+00
 -1      1294 1.06537E+00
 -1      1295 8.36548E-01
 -1      1296 8.81741E-01
 -1      1297 9.18666E-01
 -1      1298 7.75103E-01
 -1      1299 8.02546E-01
 -1      1300 8.30174E-01
 -1      1301 7.55966E-01
 -1      1302 7.55000E-01
 -1      1303 7.76069E-01
 -1      1304 8.06376E-01
 -1      1305 7.77757E-01
 -1      1306 7.77757E-01
 -1      1307 8.84067E-01
 -1      1308 8.40242E-01
 -1      1309 8.33415E-01
 -1      1310 1.01679E+00
 -1      1311 9.40932E-01
 -1      1312 9.24146E-01
 -1      1313 1.24008E+00
 -1      1314 1.11251E+00
 -1      1315 1.07673E+00
 -1      1316 1.68159E+00
 -1      1317 1.41760E+00
 -1      1318 1.34997E+00
 -1      1319 2.88313E+00
 -1      1320 2.04822E+00
 -1      1321 1.89411E+00
 -1      1322 6.28644E+00
 -1      1323 3.71835E+00
 -1      1324 3.09596E+00
 -1      1325 1.40396E+01
 -1      1326 1.13406E+01
 -1      1327 8.98538E+00
 -1      1328 1.40396E+01
 -1      1329 8.73094E+00
 -1      1330 4.31809E+00
 -1      1331 3.82956E+00
 -1      1332 3.34104E+00
 -1      1333 3.82956E+00
 -1      1334 2.72633E+00
 -1      1335 2.11162E+00
 -1      1336 2.72633E+00
 -1      1337 1.77969E+00
 -1      1338 1.40552E+00
 -1      1339 1.77969E+00
 -1      1340 1.19478E+00
 -1      1341 1.02037E+00
 -1      1342 1.23701E+00
 -1      1343 8.95010E-01
 -1      1344 7.75542E-01
 -1      1345 9.00906E-01
 -1      1346 6.85731E-01
 -1      1347 5.95919E-01
 -1      1348 6.85731E-01
 -1      1349 5.32387E-01
 -1      1350 4.62460E-01
 -1      1351 5.32387E-01
 -1      1352 4.12645E-01
 -1      1353 3.59102E-01
 -1      1354 4.19039E-01
 -1      1355 3.20256E-01
 -1      1356 2.81136E-01
 -1      1357 3.30379E-01
 -1      1358 2.53047E-01
 -1      1359 2.21763E-01
 -1      1360 2.63445E-01
 -1      1361 1.98036E-01
 -1      1362 1.73579E-01
 -1      1363 2.11628E-01
 -1      1364 1.54126E-01
 -1      1365 1.35526E-01
 -1      1366 1.68449E-01
 -1      1367 1.20024E-01
 -1      1368 1.06395E-01
 -1      1369 1.33495E-01
 -1      1370 9.44003E-02
 -1      1371 8.49573E-02
 -1      1372 1.05998E-01
 -1      1373 7.59678E-02
 -1      1374 7.00240E-02
 -1      1375 8.50135E-02
 -1      1376 6.35139E-02
 -1      1377 6.22074E-02
 -1      1378 6.95138E-02
 -1      1379 6.14112E-02
 -1      1380 6.53846E-02
 -1      1381 6.22074E-02
 -1      1382 6.93580E-02
 -1      1383 7.49396E-02
 -1      1384 6.53846E-02
 -1      1385 8.29114E-02
 -1      1386 9.36949E-02
 -1      1387 7.73298E-02
 -1      1388 1.05777E-01
 -1      1389 1.21970E-01
 -1      1390 9.73834E-02
 -1      1391 1.37360E-01
 -1      1392 1.57923E-01
 -1      1393 1.24855E-01
 -1      1394 1.76505E-01
 -1      1395 2.01263E-01
 -1      1396 1.58827E-01
 -1      1397 2.25117E-01
 -1      1398 2.53253E-01
 -1      1399 2.01263E-01
 -1      1400 2.82647E-01
 -1      1401 3.12330E-01
 -1      1402 2.54511E-01
 -1      1403 3.54779E-01
 -1      1404 3.82710E-01
 -1      1405 3.26353E-01
 -1      1406 4.28084E-01
 -1      1407 4.77298E-01
 -1      1408 4.14176E-01
 -1      1409 5.20516E-01
 -1      1410 5.82896E-01
 -1      1411 5.02767E-01
 -1      1412 6.31445E-01
 -1      1413 7.10622E-01
 -1      1414 5.94534E-01
 -1      1415 7.78159E-01
 -1      1416 8.45931E-01
 -1      1417 7.10622E-01
 -1      1418 9.13702E-01
 -1      1419 9.46364E-01
 -1      1420 8.45931E-01
 -1      1421 9.79025E-01
 -1      1422 9.85848E-01
 -1      1423 9.46364E-01
 -1      1424 9.92671E-01
 -1      1425 1.03702E+00
 -1      1426 9.85848E-01
 -1      1427 1.08136E+00
 -1      1428 1.09813E+00
 -1      1429 1.03702E+00
 -1      1430 1.11490E+00
 -1      1431 1.31897E+00
 -1      1432 1.09813E+00
 -1      1433 1.52304E+00
 -1      1434 1.87167E+00
 -1      1435 1.31897E+00
 -1      1436 2.22030E+00
 -1      1437 2.73152E+00
 -1      1438 1.87167E+00
 -1      1439 3.24275E+00
 -1      1440 3.45544E+00
 -1      1441 2.73152E+00
 -1      1442 3.66813E+00
 -1      1443 3.66813E+00
 -1      1444 3.45544E+00
 -1      1445 3.57648E+00
 -1      1446 3.48483E+00
 -1      1447 3.57648E+00
 -1      1448 3.37106E+00
 -1      1449 3.25728E+00
 -1      1450 3.37106E+00
 -1      1451 2.82365E+00
 -1      1452 2.39002E+00
 -1      1453 2.82365E+00
 -1      1454 2.04403E+00
 -1      1455 1.57079E+00
 -1      1456 2.04403E+00
 -1      1457 1.31070E+00
 -1      1458 9.49527E-01
 -1      1459 1.43794E+00
 -1      1460 7.37855E-01
 -1      1461 5.78766E-01
 -1      1462 9.66176E-01
 -1      1463 4.89170E-01
 -1      1464 4.76262E-01
 -1      1465 6.64907E-01
 -1      1466 4.09493E-01
 -1      1467 3.98813E-01
 -1      1468 5.08542E-01
 -1      1469 3.62318E-01
 -1      1470 3.44769E-01
 -1      1471 4.05277E-01
 -1      1472 2.79464E-01
 -1      1473 3.03477E-01
 -1      1474 3.39485E+00
 -1      1475 8.71721E+00
 -1      1476 8.71721E+00
 -1      1477 2.41332E+00
 -1      1478 2.90408E+00
 -1      1479 2.90408E+00
 -1      1480 1.66617E+00
 -1      1481 2.03974E+00
 -1      1482 2.03974E+00
 -1      1483 1.14514E+00
 -1      1484 1.40565E+00
 -1      1485 1.40565E+00
 -1      1486 9.05965E-01
 -1      1487 1.02555E+00
 -1      1488 1.02555E+00
 -1      1489 7.31380E-01
 -1      1490 8.18672E-01
 -1      1491 8.18672E-01
 -1      1492 5.88081E-01
 -1      1493 6.59731E-01
 -1      1494 6.59731E-01
 -1      1495 4.68789E-01
 -1      1496 5.28435E-01
 -1      1497 5.28435E-01
 -1      1498 3.69704E-01
 -1      1499 4.19246E-01
 -1      1500 4.19246E-01
 -1      1501 2.95855E-01
 -1      1502 3.32779E-01
 -1      1503 3.32779E-01
 -1      1504 2.34806E-01
 -1      1505 2.65331E-01
 -1      1506 2.65331E-01
 -1      1507 1.86147E-01
 -1      1508 2.11128E-01
 -1      1509 2.11128E-01
 -1      1510 1.47407E-01
 -1      1511 1.67195E-01
 -1      1512 1.68499E-01
 -1      1513 1.17479E-01
 -1      1514 1.32513E-01
 -1      1515 1.34653E-01
 -1      1516 9.56264E-02
 -1      1517 1.06348E-01
 -1      1518 1.08627E-01
 -1      1519 8.11247E-02
 -1      1520 8.79343E-02
 -1      1521 8.98045E-02
 -1      1522 7.69127E-02
 -1      1523 7.75914E-02
 -1      1524 7.85790E-02
 -1      1525 8.69230E-02
 -1      1526 8.06728E-02
 -1      1527 7.88057E-02
 -1      1528 1.03320E-01
 -1      1529 9.35113E-02
 -1      1530 8.91541E-02
 -1      1531 1.25884E-01
 -1      1532 1.12539E-01
 -1      1533 1.04962E-01
 -1      1534 1.54388E-01
 -1      1535 1.37588E-01
 -1      1536 1.25884E-01
 -1      1537 1.93730E-01
 -1      1538 1.73752E-01
 -1      1539 1.56952E-01
 -1      1540 2.43702E-01
 -1      1541 2.20965E-01
 -1      1542 2.03551E-01
 -1      1543 3.17077E-01
 -1      1544 2.77108E-01
 -1      1545 2.64192E-01
 -1      1546 4.04540E-01
 -1      1547 3.56496E-01
 -1      1548 3.37017E-01
 -1      1549 5.04220E-01
 -1      1550 4.49167E-01
 -1      1551 4.21063E-01
 -1      1552 6.10442E-01
 -1      1553 5.51636E-01
 -1      1554 5.13105E-01
 -1      1555 7.16071E-01
 -1      1556 6.60363E-01
 -1      1557 6.10442E-01
 -1      1558 8.12226E-01
 -1      1559 7.71779E-01
 -1      1560 7.16071E-01
 -1      1561 8.68431E-01
 -1      1562 8.52673E-01
 -1      1563 8.12226E-01
 -1      1564 1.13238E+00
 -1      1565 9.69355E-01
 -1      1566 9.53597E-01
 -1      1567 1.38223E+00
 -1      1568 1.22688E+00
 -1      1569 1.14902E+00
 -1      1570 1.60220E+00
 -1      1571 1.52095E+00
 -1      1572 1.38223E+00
 -1      1573 1.89638E+00
 -1      1574 1.68345E+00
 -1      1575 1.60220E+00
 -1      1576 2.16268E+00
 -1      1577 2.10931E+00
 -1      1578 1.89638E+00
 -1      1579 2.44974E+00
 -1      1580 2.21604E+00
 -1      1581 2.16268E+00
 -1      1582 3.11557E+00
 -1      1583 2.68343E+00
 -1      1584 2.44974E+00
 -1      1585 4.29923E+00
 -1      1586 3.54771E+00
 -1      1587 3.11557E+00
 -1      1588 5.25732E+00
 -1      1589 5.05076E+00
 -1      1590 4.29923E+00
 -1      1591 5.46388E+00
 -1      1592 5.46388E+00
 -1      1593 5.25732E+00
 -1      1594 5.10593E+00
 -1      1595 5.28491E+00
 -1      1596 5.28491E+00
 -1      1597 3.09314E+00
 -1      1598 4.09953E+00
 -1      1599 4.09953E+00
 -1      1600 1.51382E+00
 -1      1601 2.30348E+00
 -1      1602 2.30348E+00
 -1      1603 1.28484E+00
 -1      1604 1.29038E+00
 -1      1605 1.29038E+00
 -1      1606 1.50274E+00
 -1      1607 1.50274E+00
 -1      1608 1.28484E+00
 -1      1609 1.43073E+00
 -1      1610 1.46673E+00
 -1      1611 1.46673E+00
 -1      1612 1.24438E+00
 -1      1613 1.33755E+00
 -1      1614 1.33755E+00
 -1      1615 8.38411E-01
 -1      1616 1.04140E+00
 -1      1617 1.04140E+00
 -1      1618 6.40594E-01
 -1      1619 5.06942E-01
 -1      1620 5.06942E-01
 -1      1621 5.25921E-01
 -1      1622 5.49963E-01
 -1      1623 6.14129E-01
 -1      1624 4.70932E-01
 -1      1625 5.25921E-01
 -1      1626 6.57150E-01
 -1      1627 3.57067E-01
 -1      1628 3.83187E-01
 -1      1629 5.69405E-01
 -1      1630 6.74324E-01
 -1      1631 5.37452E-01
 -1      1632 6.62044E-01
 -1      1633 9.01876E-01
 -1      1634 8.48597E-01
 -1      1635 1.01670E+00
 -1      1636 9.01876E-01
 -1      1637 9.01876E-01
 -1      1638 1.19097E+00
 -1      1639 8.46580E-01
 -1      1640 9.01679E-01
 -1      1641 1.19078E+00
 -1      1642 5.32747E-01
 -1      1643 6.70068E-01
 -1      1644 1.01407E+00
 -1      1645 3.60613E-01
 -1      1646 3.43068E-01
 -1      1647 6.47876E-01
 -1      1648 4.57200E-01
 -1      1649 4.28507E-01
 -1      1650 5.26092E-01
 -1      1651 4.57200E-01
 -1      1652 4.57200E-01
 -1      1653 5.93986E-01
 -1      1654 4.38750E-01
 -1      1655 4.51526E-01
 -1      1656 5.88312E-01
 -1      1657 3.58419E-01
 -1      1658 3.86764E-01
 -1      1659 5.30652E-01
 -1      1660 3.03477E-01
 -1      1661 3.03477E-01
 -1      1662 4.23724E-01
 -1      1663 3.68782E-01
 -1      1664 2.80275E+01
 -1      1665 2.80275E+01
 -1      1666 3.73079E+01
 -1      1667 2.63792E+01
 -1      1668 4.76042E+01
 -1      1669 4.76042E+01
 -1      1670 2.06304E+01
 -1      1671 3.45516E+01
 -1      1672 1.16381E+01
 -1      1673 1.53697E+01
 -1      1674 1.22987E+01
 -1      1675 1.22987E+01
 -1      1676 1.21299E+01
 -1      1677 1.22143E+01
 -1      1678 1.21609E+01
 -1      1679 1.19058E+01
 -1      1680 1.26401E+01
 -1      1681 1.26401E+01
 -1      1682 1.29586E+01
 -1      1683 1.26038E+01
 -1      1684 2.11273E+01
 -1      1685 1.33496E+01
 -1      1686 2.89049E+01
 -1      1687 2.89049E+01
 -1      1688 2.83051E+01
 -1      1689 2.87423E+01
 -1      1690 2.50092E+01
 -1      1691 2.66644E+01
 -1      1692 2.51258E+01
 -1      1693 2.57082E+01
 -1      1694 2.51258E+01
 -1      1695 2.51258E+01
 -1      1696 4.11050E+01
 -1      1697 3.09304E+01
 -1      1698 4.39046E+01
 -1      1699 4.39046E+01
 -1      1700 1.68712E+01
 -1      1701 3.06678E+01
 -1      1702 1.21339E+01
 -1      1703 1.41591E+01
 -1      1704 1.26434E+01
 -1      1705 1.22611E+01
 -1      1706 1.32356E+01
 -1      1707 1.30256E+01
 -1      1708 1.34456E+01
 -1      1709 1.34456E+01
 -1      1710 1.27924E+01
 -1      1711 1.31190E+01
 -1      1712 1.32951E+01
 -1      1713 1.23059E+01
 -1      1714 2.91675E+01
 -1      1715 1.50865E+01
 -1      1716 4.29326E+01
 -1      1717 4.29326E+01
 -1      1718 3.11166E+01
 -1      1719 4.05499E+01
 -1      1720 2.80275E+01
 -1      1721 2.71872E+01
 -1      1722 1.62382E+01
 -1      1723 3.45516E+01
 -1      1724 6.40594E-01
 -1      1725 7.04759E-01
 -1      1726 2.86600E+01
 -1      1727 3.73079E+01
 -1      1728 3.03083E+01
 -1      1729 1.16381E+01
 -1      1730 1.22143E+01
 -1      1731 1.19058E+01
 -1      1732 1.21609E+01
 -1      1733 1.26038E+01
 -1      1734 1.29586E+01
 -1      1735 2.11273E+01
 -1      1736 2.87423E+01
 -1      1737 2.69390E+01
 -1      1738 2.59973E+01
 -1      1739 2.66962E+01
 -1      1740 3.25008E+01
 -1      1741 4.11050E+01
 -1      1742 3.06678E+01
 -1      1743 1.47188E+01
 -1      1744 1.21339E+01
 -1      1745 1.26434E+01
 -1      1746 1.32356E+01
 -1      1747 1.31190E+01
 -1      1748 1.23059E+01
 -1      1749 1.36109E+01
 -1      1750 2.91675E+01
 -1      1751 4.05499E+01
 -1      1752 3.42377E+01
 -1      1753 9.61087E+00
 -1      1754 1.27741E+00
 -1      1755 1.67219E+00
 -1      1756 2.38903E+00
 -1      1757 4.27900E+00
 -1      1758 1.76321E+00
 -1      1759 8.82228E-01
 -1      1760 9.74438E-01
 -1      1761 7.79120E-01
 -1      1762 8.33609E-01
 -1      1763 7.42681E-01
 -1      1764 7.13965E-01
 -1      1765 7.47967E-01
 -1      1766 6.62910E-01
 -1      1767 6.71826E-01
 -1      1768 6.91929E-01
 -1      1769 6.09721E-01
 -1      1770 6.95231E-01
 -1      1771 6.73440E-01
 -1      1772 5.89300E-01
 -1      1773 7.50920E-01
 -1      1774 7.17053E-01
 -1      1775 6.12736E-01
 -1      1776 8.41134E-01
 -1      1777 7.84270E-01
 -1      1778 6.67908E-01
 -1      1779 9.84428E-01
 -1      1780 8.88709E-01
 -1      1781 7.48832E-01
 -1      1782 1.22964E+00
 -1      1783 1.05212E+00
 -1      1784 8.64094E-01
 -1      1785 1.71039E+00
 -1      1786 1.34377E+00
 -1      1787 1.04592E+00
 -1      1788 2.63012E+00
 -1      1789 1.79490E+00
 -1      1790 1.24455E+00
 -1      1791 8.12024E+00
 -1      1792 3.06604E+00
 -1      1793 1.76498E+00
 -1      1794 2.79787E+00
 -1      1795 5.19802E+00
 -1      1796 2.16388E+00
 -1      1797 2.65465E+00
 -1      1798 2.05767E+00
 -1      1799 3.39907E+00
 -1      1800 2.53525E+00
 -1      1801 1.92055E+00
 -1      1802 1.68984E+00
 -1      1803 1.35790E+00
 -1      1804 1.49876E+00
 -1      1805 1.17760E+00
 -1      1806 9.66860E-01
 -1      1807 1.08775E+00
 -1      1808 8.41523E-01
 -1      1809 7.16160E-01
 -1      1810 7.82115E-01
 -1      1811 6.57310E-01
 -1      1812 5.67498E-01
 -1      1813 5.97928E-01
 -1      1814 5.19057E-01
 -1      1815 4.55525E-01
 -1      1816 4.90637E-01
 -1      1817 4.12927E-01
 -1      1818 3.63113E-01
 -1      1819 3.99598E-01
 -1      1820 3.30540E-01
 -1      1821 2.91695E-01
 -1      1822 3.24428E-01
 -1      1823 2.64313E-01
 -1      1824 2.36224E-01
 -1      1825 2.64473E-01
 -1      1826 2.12791E-01
 -1      1827 1.89064E-01
 -1      1828 2.13659E-01
 -1      1829 1.71169E-01
 -1      1830 1.51717E-01
 -1      1831 1.72332E-01
 -1      1832 1.37243E-01
 -1      1833 1.21742E-01
 -1      1834 1.39964E-01
 -1      1835 1.09590E-01
 -1      1836 9.75953E-02
 -1      1837 1.13339E-01
 -1      1838 8.75930E-02
 -1      1839 7.86035E-02
 -1      1840 9.11853E-02
 -1      1841 7.04340E-02
 -1      1842 6.39238E-02
 -1      1843 7.30134E-02
 -1      1844 5.93562E-02
 -1      1845 5.85599E-02
 -1      1846 6.02763E-02
 -1      1847 5.84490E-02
 -1      1848 6.24224E-02
 -1      1849 5.55977E-02
 -1      1850 6.84202E-02
 -1      1851 7.63920E-02
 -1      1852 6.14846E-02
 -1      1853 8.53017E-02
 -1      1854 9.73834E-02
 -1      1855 7.63920E-02
 -1      1856 1.09465E-01
 -1      1857 1.24855E-01
 -1      1858 9.73834E-02
 -1      1859 1.43247E-01
 -1      1860 1.61829E-01
 -1      1861 1.27857E-01
 -1      1862 1.89027E-01
 -1      1863 2.12881E-01
 -1      1864 1.73447E-01
 -1      1865 2.45361E-01
 -1      1866 2.74755E-01
 -1      1867 2.33125E-01
 -1      1868 3.11748E-01
 -1      1869 3.54197E-01
 -1      1870 3.02598E-01
 -1      1871 3.93614E-01
 -1      1872 4.38988E-01
 -1      1873 3.79009E-01
 -1      1874 4.76857E-01
 -1      1875 5.20075E-01
 -1      1876 4.56295E-01
 -1      1877 5.52898E-01
 -1      1878 6.01447E-01
 -1      1879 5.26988E-01
 -1      1880 6.36708E-01
 -1      1881 7.04246E-01
 -1      1882 5.95071E-01
 -1      1883 7.41597E-01
 -1      1884 8.09369E-01
 -1      1885 6.67683E-01
 -1      1886 8.17118E-01
 -1      1887 8.49779E-01
 -1      1888 7.12784E-01
 -1      1889 8.05886E-01
 -1      1890 8.12709E-01
 -1      1891 6.76640E-01
 -1      1892 7.67781E-01
 -1      1893 8.12128E-01
 -1      1894 5.87819E-01
 -1      1895 8.24785E-01
 -1      1896 8.41554E-01
 -1      1897 5.55549E-01
 -1      1898 1.09062E+00
 -1      1899 1.29469E+00
 -1      1900 8.17274E-01
 -1      1901 1.55544E+00
 -1      1902 1.90407E+00
 -1      1903 1.32709E+00
 -1      1904 2.13269E+00
 -1      1905 2.64391E+00
 -1      1906 1.81646E+00
 -1      1907 2.80834E+00
 -1      1908 3.02103E+00
 -1      1909 2.20951E+00
 -1      1910 2.99431E+00
 -1      1911 2.90266E+00
 -1      1912 2.34721E+00
 -1      1913 2.88277E+00
 -1      1914 2.76900E+00
 -1      1915 2.30060E+00
 -1      1916 2.67750E+00
 -1      1917 2.24387E+00
 -1      1918 2.18922E+00
 -1      1919 2.07371E+00
 -1      1920 1.72772E+00
 -1      1921 1.92756E+00
 -1      1922 1.53847E+00
 -1      1923 1.27838E+00
 -1      1924 1.56815E+00
 -1      1925 1.17039E+00
 -1      1926 9.58713E-01
 -1      1927 1.27091E+00
 -1      1928 8.21849E-01
 -1      1929 7.32253E-01
 -1      1930 1.02606E+00
 -1      1931 6.26386E-01
 -1      1932 5.59617E-01
 -1      1933 7.83328E-01
 -1      1934 5.26857E-01
 -1      1935 4.90361E-01
 -1      1936 4.90361E-01
 -1      1937 6.44701E-01
 -1      1938 1.39841E+00
 -1      1939 1.77199E+00
 -1      1940 1.52256E+00
 -1      1941 1.01842E+00
 -1      1942 1.27893E+00
 -1      1943 1.01118E+00
 -1      1944 8.05136E-01
 -1      1945 9.24723E-01
 -1      1946 7.98000E-01
 -1      1947 6.38535E-01
 -1      1948 7.25827E-01
 -1      1949 6.24998E-01
 -1      1950 5.13200E-01
 -1      1951 5.84850E-01
 -1      1952 4.92004E-01
 -1      1953 4.20418E-01
 -1      1954 4.80064E-01
 -1      1955 4.05183E-01
 -1      1956 3.39156E-01
 -1      1957 3.88698E-01
 -1      1958 3.40327E-01
 -1      1959 2.74616E-01
 -1      1960 3.11540E-01
 -1      1961 2.80992E-01
 -1      1962 2.21644E-01
 -1      1963 2.52169E-01
 -1      1964 2.30929E-01
 -1      1965 1.78377E-01
 -1      1966 2.02055E-01
 -1      1967 1.88893E-01
 -1      1968 1.42929E-01
 -1      1969 1.61881E-01
 -1      1970 1.52807E-01
 -1      1971 1.15016E-01
 -1      1972 1.29910E-01
 -1      1973 1.23292E-01
 -1      1974 9.41077E-02
 -1      1975 1.05239E-01
 -1      1976 1.00496E-01
 -1      1977 7.94277E-02
 -1      1978 8.71198E-02
 -1      1979 8.37309E-02
 -1      1980 7.15053E-02
 -1      1981 7.50386E-02
 -1      1982 7.23540E-02
 -1      1983 7.50668E-02
 -1      1984 7.13067E-02
 -1      1985 6.77664E-02
 -1      1986 8.46114E-02
 -1      1987 7.80231E-02
 -1      1988 7.05241E-02
 -1      1989 1.00900E-01
 -1      1990 9.16808E-02
 -1      1991 8.05498E-02
 -1      1992 1.25680E-01
 -1      1993 1.13976E-01
 -1      1994 1.00695E-01
 -1      1995 1.62066E-01
 -1      1996 1.42702E-01
 -1      1997 1.30794E-01
 -1      1998 2.17399E-01
 -1      1999 1.90165E-01
 -1      2000 1.75914E-01
 -1      2001 2.93411E-01
 -1      2002 2.60005E-01
 -1      2003 2.46618E-01
 -1      2004 3.87575E-01
 -1      2005 3.48156E-01
 -1      2006 3.43969E-01
 -1      2007 5.00339E-01
 -1      2008 4.55712E-01
 -1      2009 4.66851E-01
 -1      2010 6.29029E-01
 -1      2011 5.81614E-01
 -1      2012 6.16263E-01
 -1      2013 7.70151E-01
 -1      2014 7.20229E-01
 -1      2015 7.88738E-01
 -1      2016 9.18754E-01
 -1      2017 8.63046E-01
 -1      2018 9.72833E-01
 -1      2019 1.03814E+00
 -1      2020 9.97695E-01
 -1      2021 1.14467E+00
 -1      2022 1.21139E+00
 -1      2023 1.11047E+00
 -1      2024 1.29594E+00
 -1      2025 1.32716E+00
 -1      2026 1.23266E+00
 -1      2027 1.38953E+00
 -1      2028 1.46587E+00
 -1      2029 1.32716E+00
 -1      2030 1.41079E+00
 -1      2031 1.46150E+00
 -1      2032 1.38025E+00
 -1      2033 1.32517E+00
 -1      2034 1.58691E+00
 -1      2035 1.37399E+00
 -1      2036 1.15204E+00
 -1      2037 1.85155E+00
 -1      2038 1.79818E+00
 -1      2039 1.27579E+00
 -1      2040 2.58511E+00
 -1      2041 2.35142E+00
 -1      2042 1.98693E+00
 -1      2043 3.22738E+00
 -1      2044 2.79524E+00
 -1      2045 2.69692E+00
 -1      2046 4.19343E+00
 -1      2047 3.44191E+00
 -1      2048 3.12158E+00
 -1      2049 4.36099E+00
 -1      2050 4.15442E+00
 -1      2051 3.29710E+00
 -1      2052 4.03675E+00
 -1      2053 4.21572E+00
 -1      2054 3.11283E+00
 -1      2055 2.65498E+00
 -1      2056 3.66138E+00
 -1      2057 2.59220E+00
 -1      2058 1.57340E+00
 -1      2059 2.36306E+00
 -1      2060 1.92490E+00
 -1      2061 1.13254E+00
 -1      2062 1.35598E+00
 -1      2063 1.41556E+00
 -1      2064 1.27887E+00
 -1      2065 1.06097E+00
 -1      2066 1.12657E+00
 -1      2067 1.19983E+00
 -1      2068 1.23584E+00
 -1      2069 1.01197E+00
 -1      2070 1.08715E+00
 -1      2071 1.18033E+00
 -1      2072 9.49432E-01
 -1      2073 8.32783E-01
 -1      2074 1.03577E+00
 -1      2075 8.78541E-01
 -1      2076 6.99131E-01
 -1      2077 6.64886E-01
 -1      2078 7.52632E-01
 -1      2079 7.64511E-01
 -1      2080 7.64511E-01
 -1      2081 8.59993E-01
 -1      2082 7.64511E-01
 -1      2083 7.21490E-01
 -1      2084 8.49513E-01
 -1      2085 8.71873E-01
 -1      2086 9.19006E-01
 -1      2087 7.38621E-01
 -1      2088 9.21848E-01
 -1      2089 1.45897E+00
 -1      2090 1.28469E+00
 -1      2091 1.36127E+00
 -1      2092 1.50079E+00
 -1      2093 1.50079E+00
 -1      2094 1.76878E+00
 -1      2095 1.50059E+00
 -1      2096 1.50079E+00
 -1      2097 1.81060E+00
 -1      2098 1.27992E+00
 -1      2099 1.45643E+00
 -1      2100 1.76644E+00
 -1      2101 7.22909E-01
 -1      2102 9.12588E-01
 -1      2103 1.35495E+00
 -1      2104 7.21177E-01
 -1      2105 6.53283E-01
 -1      2106 9.17995E-01
 -1      2107 7.21177E-01
 -1      2108 7.21177E-01
 -1      2109 8.48369E-01
 -1      2110 6.77506E-01
 -1      2111 6.83180E-01
 -1      2112 8.10371E-01
 -1      2113 5.90629E-01
 -1      2114 6.42616E-01
 -1      2115 7.37483E-01
 -1      2116 3.73079E+01
 -1      2117 2.70117E+01
 -1      2118 3.12802E+01
 -1      2119 3.12802E+01
 -1      2120 2.96319E+01
 -1      2121 3.12802E+01
 -1      2122 1.90785E+01
 -1      2123 3.21311E+01
 -1      2124 2.18348E+01
 -1      2125 9.99718E+00
 -1      2126 1.52579E+01
 -1      2127 1.03867E+00
 -1      2128 1.21411E+00
 -1      2129 9.83070E-01
 -1      2130 8.55536E-01
 -1      2131 1.11121E+01
 -1      2132 1.11965E+01
 -1      2133 1.11692E+01
 -1      2134 1.13933E+01
 -1      2135 1.15236E+01
 -1      2136 1.10444E+01
 -1      2137 1.06185E+01
 -1      2138 1.06548E+01
 -1      2139 9.60308E+00
 -1      2140 9.21201E+00
 -1      2141 2.04861E+01
 -1      2142 1.27085E+01
 -1      2143 8.96192E+00
 -1      2144 2.43502E+01
 -1      2145 2.45128E+01
 -1      2146 2.47822E+01
 -1      2147 2.64229E+01
 -1      2148 3.10030E+01
 -1      2149 3.03040E+01
 -1      2150 3.10030E+01
 -1      2151 3.10030E+01
 -1      2152 3.15797E+01
 -1      2153 2.57751E+01
 -1      2154 3.44948E+01
 -1      2155 3.16952E+01
 -1      2156 2.49695E+01
 -1      2157 1.60087E+01
 -1      2158 2.92455E+01
 -1      2159 9.89249E+00
 -1      2160 1.26047E+01
 -1      2161 1.01965E+01
 -1      2162 1.00693E+01
 -1      2163 1.13782E+01
 -1      2164 1.09959E+01
 -1      2165 8.93135E+00
 -1      2166 1.17165E+01
 -1      2167 1.15066E+01
 -1      2168 1.11806E+01
 -1      2169 1.15071E+01
 -1      2170 1.01175E+01
 -1      2171 1.06040E+01
 -1      2172 8.99213E+00
 -1      2173 1.15322E+01
 -1      2174 9.74076E+00
 -1      2175 2.86300E+01
 -1      2176 1.48648E+01
 -1      2177 3.22341E+01
 -1      2178 3.46168E+01
 -1      2179 2.87397E+01
 -1      2180 3.26691E+01
 -1      2181 9.65916E+00
 -1      2182 8.99855E+00
 -1      2183 1.28374E+01
 -1      2184 2.91054E+00
 -1      2185 8.55697E+00
 -1      2186 2.10476E+00
 -1      2187 2.47530E+01
 -1      2188 2.73732E+01
 -1      2189 2.47530E+01
 -1      2190 3.22521E+01
 -1      2191 5.35687E-01
 -1      2192 2.97116E+01
 -1      2193 8.01827E+00
 -1      2194 2.67360E+01
 -1      2195 2.03142E+01
 -1      2196 8.03879E+00
 -1      2197 9.85915E+00
 -1      2198 8.03616E+00
 -1      2199 5.92199E+00
 -1      2200 6.09879E+00
 -1      2201 1.98357E+01
 -1      2202 3.00819E+01
 -1      2203 3.53097E+01
 -1      2204 2.97879E+01
 -1      2205 1.60940E+01
 -1      2206 9.06062E+00
 -1      2207 7.11161E+00
 -1      2208 5.70512E+00
 -1      2209 9.53826E+00
 -1      2210 1.03755E+01
 -1      2211 1.05319E+01
 -1      2212 2.29750E+01
 -1      2213 1.87455E+01
 -1      2214 2.08182E+01
 -1      2215 1.11823E+01
 -1      2216 1.17165E+01
 -1      2217 9.98750E+00
 -1      2218 9.77810E+00
 -1      2219 1.09947E+01
 -1      2220 1.08940E+00
 -1      2221 1.48130E+00
 -1      2222 5.58884E-01
 -1      2223 5.90037E-01
 -1      2224 6.02012E-01
 -1      2225 6.50631E-01
 -1      2226 4.97986E-01
 -1      2227 5.11315E-01
 -1      2228 5.09700E-01
 -1      2229 5.46053E-01
 -1      2230 5.24231E-01
 -1      2231 4.44631E-01
 -1      2232 5.94205E-01
 -1      2233 5.60855E-01
 -1      2234 4.72350E-01
 -1      2235 6.53825E-01
 -1      2236 6.06250E-01
 -1      2237 4.99198E-01
 -1      2238 7.21512E-01
 -1      2239 6.53825E-01
 -1      2240 5.11243E-01
 -1      2241 8.84458E-01
 -1      2242 7.70325E-01
 -1      2243 5.60055E-01
 -1      2244 8.91693E-01
 -1      2245 1.01118E+00
 -1      2246 9.69918E-01
 -1      2247 1.26657E+00
 -1      2248 1.03586E+00
 -1      2249 7.88664E+00
 -1      2250 6.34931E+00
 -1      2251 9.86712E-01
 -1      2252 8.06413E-01
 -1      2253 7.54526E-01
 -1      2254 7.48468E-01
 -1      2255 6.23131E-01
 -1      2256 6.47429E-01
 -1      2257 5.67016E-01
 -1      2258 5.08166E-01
 -1      2259 5.33369E-01
 -1      2260 4.58912E-01
 -1      2261 4.10471E-01
 -1      2262 4.28000E-01
 -1      2263 3.83073E-01
 -1      2264 3.40476E-01
 -1      2265 3.51348E-01
 -1      2266 3.15627E-01
 -1      2267 2.83055E-01
 -1      2268 2.99103E-01
 -1      2269 2.59603E-01
 -1      2270 2.32221E-01
 -1      2271 2.50802E-01
 -1      2272 2.12888E-01
 -1      2273 1.89456E-01
 -1      2274 2.08017E-01
 -1      2275 1.72769E-01
 -1      2276 1.54874E-01
 -1      2277 1.71998E-01
 -1      2278 1.40324E-01
 -1      2279 1.25851E-01
 -1      2280 1.40761E-01
 -1      2281 1.13523E-01
 -1      2282 1.01371E-01
 -1      2283 1.13883E-01
 -1      2284 9.11853E-02
 -1      2285 8.11830E-02
 -1      2286 9.13686E-02
 -1      2287 7.30134E-02
 -1      2288 6.48439E-02
 -1      2289 7.30134E-02
 -1      2290 5.86658E-02
 -1      2291 5.40982E-02
 -1      2292 5.86658E-02
 -1      2293 4.99951E-02
 -1      2294 4.98841E-02
 -1      2295 4.83846E-02
 -1      2296 5.37683E-02
 -1      2297 5.97661E-02
 -1      2298 4.81657E-02
 -1      2299 6.55630E-02
 -1      2300 7.44726E-02
 -1      2301 5.78467E-02
 -1      2302 8.78431E-02
 -1      2303 9.99248E-02
 -1      2304 7.70141E-02
 -1      2305 1.19503E-01
 -1      2306 1.37895E-01
 -1      2307 1.09963E-01
 -1      2308 1.61909E-01
 -1      2309 1.89107E-01
 -1      2310 1.53555E-01
 -1      2311 2.17894E-01
 -1      2312 2.50374E-01
 -1      2313 2.06356E-01
 -1      2314 2.83746E-01
 -1      2315 3.20739E-01
 -1      2316 2.68516E-01
 -1      2317 3.57656E-01
 -1      2318 3.97074E-01
 -1      2319 3.38805E-01
 -1      2320 4.35224E-01
 -1      2321 4.73093E-01
 -1      2322 4.13871E-01
 -1      2323 5.08432E-01
 -1      2324 5.41255E-01
 -1      2325 4.87361E-01
 -1      2326 5.73269E-01
 -1      2327 6.08529E-01
 -1      2328 5.54714E-01
 -1      2329 6.35843E-01
 -1      2330 6.73195E-01
 -1      2331 6.14041E-01
 -1      2332 7.03494E-01
 -1      2333 7.11243E-01
 -1      2334 6.71654E-01
 -1      2335 7.22049E-01
 -1      2336 6.78156E-01
 -1      2337 7.12759E-01
 -1      2338 6.81442E-01
 -1      2339 6.36514E-01
 -1      2340 7.26851E-01
 -1      2341 7.23090E-01
 -1      2342 7.35747E-01
 -1      2343 8.16713E-01
 -1      2344 7.96967E-01
 -1      2345 1.04604E+00
 -1      2346 9.64508E-01
 -1      2347 1.20780E+00
 -1      2348 1.46855E+00
 -1      2349 1.18750E+00
 -1      2350 1.59776E+00
 -1      2351 1.82637E+00
 -1      2352 1.47846E+00
 -1      2353 1.98859E+00
 -1      2354 2.15302E+00
 -1      2355 1.76989E+00
 -1      2356 2.34100E+00
 -1      2357 2.31428E+00
 -1      2358 2.12009E+00
 -1      2359 2.24277E+00
 -1      2360 2.22289E+00
 -1      2361 2.23656E+00
 -1      2362 2.20437E+00
 -1      2363 2.11287E+00
 -1      2364 2.14654E+00
 -1      2365 1.92560E+00
 -1      2366 1.75544E+00
 -1      2367 1.94075E+00
 -1      2368 1.72248E+00
 -1      2369 1.53323E+00
 -1      2370 1.72052E+00
 -1      2371 1.43356E+00
 -1      2372 1.32557E+00
 -1      2373 1.58789E+00
 -1      2374 1.16292E+00
 -1      2375 1.02606E+00
 -1      2376 1.32557E+00
 -1      2377 8.89195E-01
 -1      2378 7.83328E-01
 -1      2379 1.02606E+00
 -1      2380 5.45690E-01
 -1      2381 6.24998E-01
 -1      2382 4.38319E-01
 -1      2383 4.92004E-01
 -1      2384 4.92004E-01
 -1      2385 3.72047E-01
 -1      2386 4.05183E-01
 -1      2387 4.05183E-01
 -1      2388 3.08607E-01
 -1      2389 3.40327E-01
 -1      2390 3.40327E-01
 -1      2391 2.53376E-01
 -1      2392 2.80992E-01
 -1      2393 2.80992E-01
 -1      2394 2.08751E-01
 -1      2395 2.31198E-01
 -1      2396 2.31198E-01
 -1      2397 1.69811E-01
 -1      2398 1.89401E-01
 -1      2399 1.89670E-01
 -1      2400 1.36852E-01
 -1      2401 1.53348E-01
 -1      2402 1.53856E-01
 -1      2403 1.10620E-01
 -1      2404 1.23640E-01
 -1      2405 1.24180E-01
 -1      2406 9.03118E-02
 -1      2407 1.00089E-01
 -1      2408 1.00436E-01
 -1      2409 7.43335E-02
 -1      2410 8.13215E-02
 -1      2411 8.09143E-02
 -1      2412 6.30772E-02
 -1      2413 6.74662E-02
 -1      2414 6.50567E-02
 -1      2415 5.96739E-02
 -1      2416 5.98724E-02
 -1      2417 5.49847E-02
 -1      2418 6.42617E-02
 -1      2419 6.13054E-02
 -1      2420 5.34115E-02
 -1      2421 7.79926E-02
 -1      2422 7.09231E-02
 -1      2423 6.17045E-02
 -1      2424 1.00826E-01
 -1      2425 8.77496E-02
 -1      2426 7.81229E-02
 -1      2427 1.39837E-01
 -1      2428 1.22815E-01
 -1      2429 1.09869E-01
 -1      2430 1.96737E-01
 -1      2431 1.68639E-01
 -1      2432 1.60660E-01
 -1      2433 2.76647E-01
 -1      2434 2.34041E-01
 -1      2435 2.26766E-01
 -1      2436 3.78896E-01
 -1      2437 3.24151E-01
 -1      2438 3.11574E-01
 -1      2439 5.06169E-01
 -1      2440 4.38032E-01
 -1      2441 4.18214E-01
 -1      2442 6.58866E-01
 -1      2443 5.77592E-01
 -1      2444 5.48772E-01
 -1      2445 8.32800E-01
 -1      2446 7.41599E-01
 -1      2447 7.02928E-01
 -1      2448 1.01581E+00
 -1      2449 9.22919E-01
 -1      2450 8.75781E-01
 -1      2451 1.18363E+00
 -1      2452 1.10469E+00
 -1      2453 1.05478E+00
 -1      2454 1.32847E+00
 -1      2455 1.25615E+00
 -1      2456 1.21617E+00
 -1      2457 1.41099E+00
 -1      2458 1.38972E+00
 -1      2459 1.34994E+00
 -1      2460 1.51207E+00
 -1      2461 1.51207E+00
 -1      2462 1.51226E+00
 -1      2463 1.49949E+00
 -1      2464 1.58511E+00
 -1      2465 1.68638E+00
 -1      2466 1.43066E+00
 -1      2467 1.51817E+00
 -1      2468 1.77811E+00
 -1      2469 1.88560E+00
 -1      2470 1.67433E+00
 -1      2471 2.04047E+00
 -1      2472 2.50738E+00
 -1      2473 2.00751E+00
 -1      2474 2.40605E+00
 -1      2475 2.90706E+00
 -1      2476 2.69692E+00
 -1      2477 2.71751E+00
 -1      2478 3.55924E+00
 -1      2479 3.34472E+00
 -1      2480 3.34472E+00
 -1      2481 3.93888E+00
 -1      2482 3.97789E+00
 -1      2483 4.20103E+00
 -1      2484 3.11283E+00
 -1      2485 3.25809E+00
 -1      2486 3.93888E+00
 -1      2487 2.33510E+00
 -1      2488 2.71046E+00
 -1      2489 2.85573E+00
 -1      2490 1.93863E+00
 -1      2491 2.23056E+00
 -1      2492 2.34883E+00
 -1      2493 1.56042E+00
 -1      2494 1.77783E+00
 -1      2495 2.08349E+00
 -1      2496 1.27662E+00
 -1      2497 1.34819E+00
 -1      2498 1.71046E+00
 -1      2499 1.05259E+00
 -1      2500 1.09562E+00
 -1      2501 1.31723E+00
 -1      2502 9.49432E-01
 -1      2503 9.68934E-01
 -1      2504 1.05259E+00
 -1      2505 9.00901E-01
 -1      2506 1.87062E+00
 -1      2507 1.50493E+00
 -1      2508 2.37954E+00
 -1      2509 2.33772E+00
 -1      2510 2.48138E+00
 -1      2511 9.88203E-01
 -1      2512 1.00008E+00
 -1      2513 1.29276E+00
 -1      2514 1.21902E+00
 -1      2515 1.35911E+00
 -1      2516 1.80211E+00
 -1      2517 2.37954E+00
 -1      2518 2.37954E+00
 -1      2519 2.94848E+00
 -1      2520 2.33436E+00
 -1      2521 2.37852E+00
 -1      2522 2.94746E+00
 -1      2523 1.50955E+00
 -1      2524 1.87688E+00
 -1      2525 2.48896E+00
 -1      2526 1.24071E+00
 -1      2527 1.31034E+00
 -1      2528 1.83226E+00
 -1      2529 1.05708E+00
 -1      2530 1.05708E+00
 -1      2531 1.44942E+00
 -1      2532 9.48231E-01
 -1      2533 9.86229E-01
 -1      2534 1.19494E+00
 -1      2535 7.02593E-01
 -1      2536 7.37483E-01
 -1      2537 9.13341E-01
 -1      2538 3.22521E+01
 -1      2539 3.22521E+01
 -1      2540 2.97116E+01
 -1      2541 2.71710E+01
 -1      2542 7.04307E-01
 -1      2543 7.98000E-01
 -1      2544 6.24998E-01
 -1      2545 6.57267E-01
 -1      2546 1.56349E+01
 -1      2547 2.08117E+01
 -1      2548 1.67693E+00
 -1      2549 1.30164E+00
 -1      2550 8.38743E-01
 -1      2551 9.60088E-01
 -1      2552 6.21069E+00
 -1      2553 7.20932E+00
 -1      2554 8.88394E+00
 -1      2555 8.75559E+00
 -1      2556 2.48541E+01
 -1      2557 3.00819E+01
 -1      2558 5.22573E-01
 -1      2559 5.44609E-01
 -1      2560 4.71736E-01
 -1      2561 4.44588E-01
 -1      2562 9.17419E+00
 -1      2563 9.29901E+00
 -1      2564 9.27273E+00
 -1      2565 8.99154E+00
 -1      2566 7.82872E+00
 -1      2567 8.69750E+00
 -1      2568 8.93084E+00
 -1      2569 5.82544E+00
 -1      2570 7.85401E+00
 -1      2571 1.12580E+01
 -1      2572 1.57201E+01
 -1      2573 1.16934E+01
 -1      2574 8.55697E+00
 -1      2575 2.97879E+01
 -1      2576 2.42661E+01
 -1      2577 3.53097E+01
 -1      2578 3.53097E+01
 -1      2579 3.00819E+01
 -1      2580 2.18667E+01
 -1      2581 2.17512E+01
 -1      2582 1.36326E+01
 -1      2583 1.88820E+01
 -1      2584 1.56637E+01
 -1      2585 7.73649E+00
 -1      2586 6.93705E+00
 -1      2587 1.13198E+01
 -1      2588 7.98711E+00
 -1      2589 7.00768E+00
 -1      2590 7.58426E+00
 -1      2591 6.21321E+00
 -1      2592 6.58997E+00
 -1      2593 5.18209E+00
 -1      2594 1.94180E+01
 -1      2595 1.34312E+01
 -1      2596 2.38784E+01
 -1      2597 2.34434E+01
 -1      2598 1.62134E+00
 -1      2599 1.76456E+00
 -1      2600 1.32864E+00
 -1      2601 1.18818E+00
 -1      2602 8.51422E+00
 -1      2603 1.23347E+01
 -1      2604 1.13116E+01
 -1      2605 7.91507E+00
 -1      2606 6.17767E-01
 -1      2607 7.58436E-01
 -1      2608 8.22672E-01
 -1      2609 7.98000E-01
 -1      2610 1.24414E+00
 -1      2611 6.70663E+00
 -1      2612 2.38784E+01
 -1      2613 5.54036E+00
 -1      2614 6.53829E+00
 -1      2615 1.85530E+01
 -1      2616 1.04236E+01
 -1      2617 9.20404E-01
 -1      2618 2.97116E+01
 -1      2619 9.20404E-01
 -1      2620 1.04861E+00
 -1      2621 2.39079E+01
 -1      2622 2.39079E+01
 -1      2623 1.90290E+01
 -1      2624 1.03043E+01
 -1      2625 9.68546E-01
 -1      2626 8.96790E-01
 -1      2627 1.43450E+01
 -1      2628 8.88394E+00
 -1      2629 6.76129E+00
 -1      2630 5.78300E+00
 -1      2631 5.85870E+00
 -1      2632 3.92668E+00
 -1      2633 1.95649E+01
 -1      2634 1.95649E+01
 -1      2635 1.61170E+01
 -1      2636 6.72360E+00
 -1      2637 5.88284E+00
 -1      2638 5.16573E+00
 -1      2639 2.17512E+01
 -1      2640 4.90392E+00
 -1      2641 4.63833E+00
 -1      2642 4.48694E+00
 -1      2643 4.60725E+00
 -1      2644 6.78389E+00
 -1      2645 7.46465E+00
 -1      2646 2.97879E+01
 -1      2647 7.79365E+00
 -1      2648 6.49938E-01
 -1      2649 6.95264E-01
 -1      2650 6.95264E-01
 -1      2651 6.82698E-01
 -1      2652 1.65604E+01
 -1      2653 7.88565E-01
 -1      2654 4.22782E-01
 -1      2655 4.07979E-01
 -1      2656 4.00264E-01
 -1      2657 3.87348E-01
 -1      2658 3.50696E-01
 -1      2659 4.36554E-01
 -1      2660 4.36554E-01
 -1      2661 4.73344E-01
 -1      2662 4.24531E-01
 -1      2663 3.49842E-01
 -1      2664 7.17904E-01
 -1      2665 7.96129E-01
 -1      2666 7.99690E-01
 -1      2667 8.28506E-01
 -1      2668 6.10015E-01
 -1      2669 7.03709E-01
 -1      2670 5.29920E-01
 -1      2671 6.71299E+00
 -1      2672 4.93909E+00
 -1      2673 1.00135E+01
 -1      2674 7.90204E+00
 -1      2675 5.51795E-01
 -1      2676 4.93850E-01
 -1      2677 4.86831E-01
 -1      2678 4.30716E-01
 -1      2679 3.91197E-01
 -1      2680 4.10628E-01
 -1      2681 3.61374E-01
 -1      2682 3.64090E-01
 -1      2683 3.36643E-01
 -1      2684 3.09245E-01
 -1      2685 3.19271E-01
 -1      2686 2.84487E-01
 -1      2687 2.59639E-01
 -1      2688 2.69781E-01
 -1      2689 2.43957E-01
 -1      2690 2.20504E-01
 -1      2691 2.29340E-01
 -1      2692 2.04288E-01
 -1      2693 1.84955E-01
 -1      2694 1.97442E-01
 -1      2695 1.69429E-01
 -1      2696 1.52742E-01
 -1      2697 1.65699E-01
 -1      2698 1.38686E-01
 -1      2699 1.24137E-01
 -1      2700 1.36117E-01
 -1      2701 1.12796E-01
 -1      2702 1.00468E-01
 -1      2703 1.10722E-01
 -1      2704 9.08027E-02
 -1      2705 8.06171E-02
 -1      2706 8.97163E-02
 -1      2707 7.24309E-02
 -1      2708 6.42613E-02
 -1      2709 7.18650E-02
 -1      2710 5.72252E-02
 -1      2711 5.10470E-02
 -1      2712 5.66426E-02
 -1      2713 4.47296E-02
 -1      2714 4.06265E-02
 -1      2715 4.32890E-02
 -1      2716 3.94568E-02
 -1      2717 4.33409E-02
 -1      2718 3.58018E-02
 -1      2719 4.77775E-02
 -1      2720 5.35744E-02
 -1      2721 3.90686E-02
 -1      2722 6.71458E-02
 -1      2723 8.05163E-02
 -1      2724 5.70766E-02
 -1      2725 9.71350E-02
 -1      2726 1.16713E-01
 -1      2727 8.72667E-02
 -1      2728 1.37098E-01
 -1      2729 1.61112E-01
 -1      2730 1.24270E-01
 -1      2731 1.85904E-01
 -1      2732 2.14691E-01
 -1      2733 1.69447E-01
 -1      2734 2.44346E-01
 -1      2735 2.77718E-01
 -1      2736 2.23894E-01
 -1      2737 3.12341E-01
 -1      2738 3.49258E-01
 -1      2739 2.88172E-01
 -1      2740 3.88363E-01
 -1      2741 4.26513E-01
 -1      2742 3.61899E-01
 -1      2743 4.68881E-01
 -1      2744 5.04221E-01
 -1      2745 4.43373E-01
 -1      2746 5.47234E-01
 -1      2747 5.79248E-01
 -1      2748 5.28755E-01
 -1      2749 6.16459E-01
 -1      2750 6.43772E-01
 -1      2751 6.08979E-01
 -1      2752 6.98136E-01
 -1      2753 7.28436E-01
 -1      2754 7.00554E-01
 -1      2755 7.94797E-01
 -1      2756 8.05602E-01
 -1      2757 8.21279E-01
 -1      2758 8.62991E-01
 -1      2759 8.66278E-01
 -1      2760 9.45029E-01
 -1      2761 9.21702E-01
 -1      2762 1.00828E+00
 -1      2763 1.05784E+00
 -1      2764 1.14792E+00
 -1      2765 1.20914E+00
 -1      2766 1.25291E+00
 -1      2767 1.45708E+00
 -1      2768 1.61885E+00
 -1      2769 1.64050E+00
 -1      2770 1.54516E+00
 -1      2771 1.67436E+00
 -1      2772 1.81475E+00
 -1      2773 2.12078E+00
 -1      2774 2.28300E+00
 -1      2775 2.18747E+00
 -1      2776 2.94479E+00
 -1      2777 3.13276E+00
 -1      2778 3.29568E+00
 -1      2779 3.04741E+00
 -1      2780 2.97591E+00
 -1      2781 3.87211E+00
 -1      2782 3.19811E+00
 -1      2783 3.17959E+00
 -1      2784 4.00896E+00
 -1      2785 2.48636E+00
 -1      2786 2.29909E+00
 -1      2787 3.53794E+00
 -1      2788 1.94966E+00
 -1      2789 1.91670E+00
 -1      2790 2.49527E+00
 -1      2791 1.69778E+00
 -1      2792 1.59810E+00
 -1      2793 1.92691E+00
 -1      2794 1.48821E+00
 -1      2795 1.32557E+00
 -1      2796 1.59810E+00
 -1      2797 1.14319E+00
 -1      2798 1.00632E+00
 -1      2799 1.30583E+00
 -1      2800 3.50395E-01
 -1      2801 3.83531E-01
 -1      2802 1.55404E+01
 -1      2803 1.15150E+01
 -1      2804 4.17747E-01
 -1      2805 4.71432E-01
 -1      2806 3.62958E-01
 -1      2807 2.44172E-01
 -1      2808 2.71787E-01
 -1      2809 2.03601E-01
 -1      2810 2.25779E-01
 -1      2811 2.16574E-01
 -1      2812 1.67267E-01
 -1      2813 1.86617E-01
 -1      2814 1.81198E-01
 -1      2815 1.36733E-01
 -1      2816 1.53197E-01
 -1      2817 1.50144E-01
 -1      2818 1.11133E-01
 -1      2819 1.24345E-01
 -1      2820 1.23686E-01
 -1      2821 8.99046E-02
 -1      2822 1.00436E-01
 -1      2823 1.00601E-01
 -1      2824 7.19241E-02
 -1      2825 8.09143E-02
 -1      2826 8.09143E-02
 -1      2827 5.76855E-02
 -1      2828 6.45529E-02
 -1      2829 6.45529E-02
 -1      2830 4.87223E-02
 -1      2831 5.19271E-02
 -1      2832 5.14232E-02
 -1      2833 4.79774E-02
 -1      2834 4.63458E-02
 -1      2835 4.32883E-02
 -1      2836 5.87948E-02
 -1      2837 5.21333E-02
 -1      2838 4.50677E-02
 -1      2839 7.99020E-02
 -1      2840 7.01449E-02
 -1      2841 6.05738E-02
 -1      2842 1.20481E-01
 -1      2843 9.84912E-02
 -1      2844 9.05132E-02
 -1      2845 1.73090E-01
 -1      2846 1.44289E-01
 -1      2847 1.32911E-01
 -1      2848 2.40837E-01
 -1      2849 2.03533E-01
 -1      2850 1.87161E-01
 -1      2851 3.26974E-01
 -1      2852 2.79469E-01
 -1      2853 2.56237E-01
 -1      2854 4.34576E-01
 -1      2855 3.75441E-01
 -1      2856 3.43336E-01
 -1      2857 5.65926E-01
 -1      2858 4.94503E-01
 -1      2859 4.51730E-01
 -1      2860 7.21465E-01
 -1      2861 6.38732E-01
 -1      2862 5.84463E-01
 -1      2863 8.98164E-01
 -1      2864 8.08044E-01
 -1      2865 7.43849E-01
 -1      2866 1.08719E+00
 -1      2867 9.98316E-01
 -1      2868 9.30580E-01
 -1      2869 1.27098E+00
 -1      2870 1.19846E+00
 -1      2871 1.14200E+00
 -1      2872 1.44757E+00
 -1      2873 1.38632E+00
 -1      2874 1.36861E+00
 -1      2875 1.65181E+00
 -1      2876 1.55074E+00
 -1      2877 1.58712E+00
 -1      2878 1.94344E+00
 -1      2879 1.87040E+00
 -1      2880 1.90888E+00
 -1      2881 2.23046E+00
 -1      2882 2.21178E+00
 -1      2883 2.39580E+00
 -1      2884 3.20224E+00
 -1      2885 2.95856E+00
 -1      2886 3.39224E+00
 -1      2887 2.52797E+00
 -1      2888 2.40605E+00
 -1      2889 3.32415E+00
 -1      2890 4.03660E+00
 -1      2891 3.59894E+00
 -1      2892 5.67828E+00
 -1      2893 5.25963E+00
 -1      2894 4.13570E+00
 -1      2895 4.81650E+00
 -1      2896 2.93366E+00
 -1      2897 3.33603E+00
 -1      2898 4.21364E+00
 -1      2899 2.49782E+00
 -1      2900 2.60236E+00
 -1      2901 3.08266E+00
 -1      2902 2.83335E+00
 -1      2903 2.99415E+00
 -1      2904 3.24768E+00
 -1      2905 1.80892E+00
 -1      2906 2.02115E+00
 -1      2907 2.93181E+00
 -1      2908 1.40759E+00
 -1      2909 1.58859E+00
 -1      2910 1.89928E+00
 -1      2911 1.16782E+00
 -1      2912 1.25147E+00
 -1      2913 1.52283E+00
 -1      2914 1.24750E+00
 -1      2915 2.26051E+01
 -1      2916 2.00646E+01
 -1      2917 3.61518E+00
 -1      2918 3.61620E+00
 -1      2919 3.35720E+00
 -1      2920 2.89011E+00
 -1      2921 2.94419E+00
 -1      2922 3.40167E+00
 -1      2923 4.07040E+00
 -1      2924 3.61620E+00
 -1      2925 3.61620E+00
 -1      2926 4.02492E+00
 -1      2927 4.28391E+00
 -1      2928 2.26167E+00
 -1      2929 2.46088E+00
 -1      2930 3.37359E+00
 -1      2931 1.70560E+00
 -1      2932 1.88923E+00
 -1      2933 2.51785E+00
 -1      2934 1.40847E+00
 -1      2935 1.47932E+00
 -1      2936 1.91913E+00
 -1      2937 4.40467E+00
 -1      2938 4.26604E+00
 -1      2939 7.39290E+00
 -1      2940 9.76754E+00
 -1      2941 1.91372E+01
 -1      2942 2.43651E+01
 -1      2943 7.25431E+00
 -1      2944 7.22804E+00
 -1      2945 6.69535E-01
 -1      2946 6.34470E-01
 -1      2947 5.85317E-01
 -1      2948 5.95417E-01
 -1      2949 4.31139E+00
 -1      2950 3.47312E+00
 -1      2951 5.05144E-01
 -1      2952 5.84453E-01
 -1      2953 4.90162E-01
 -1      2954 4.30887E-01
 -1      2955 2.91369E-01
 -1      2956 3.23089E-01
 -1      2957 3.01436E-01
 -1      2958 2.54549E-01
 -1      2959 1.68429E+01
 -1      2960 1.99457E+01
 -1      2961 2.15019E+01
 -1      2962 1.82092E+01
 -1      2963 1.31639E+01
 -1      2964 1.29240E+01
 -1      2965 9.89862E+00
 -1      2966 4.36554E-01
 -1      2967 4.24509E-01
 -1      2968 3.60138E-01
 -1      2969 3.61865E-01
 -1      2970 6.86242E+00
 -1      2971 7.33911E+00
 -1      2972 7.87949E+00
 -1      2973 6.77593E+00
 -1      2974 6.45106E+00
 -1      2975 5.34615E+00
 -1      2976 4.25646E-01
 -1      2977 4.37621E-01
 -1      2978 9.12881E+00
 -1      2979 6.36620E+00
 -1      2980 5.24606E+00
 -1      2981 7.43990E+00
 -1      2982 5.33190E+00
 -1      2983 1.21489E+01
 -1      2984 1.51336E+01
 -1      2985 6.46657E+00
 -1      2986 5.44747E+00
 -1      2987 1.37458E+01
 -1      2988 1.76870E+01
 -1      2989 2.53893E+01
 -1      2990 1.98675E+01
 -1      2991 8.90713E-01
 -1      2992 8.98042E-01
 -1      2993 9.91343E-01
 -1      2994 3.89392E+00
 -1      2995 4.31163E+00
 -1      2996 7.15077E+00
 -1      2997 1.04509E+01
 -1      2998 4.96435E+00
 -1      2999 6.26925E+00
 -1      3000 5.40849E+00
 -1      3001 4.87611E-01
 -1      3002 5.95417E-01
 -1      3003 4.15271E-01
 -1      3004 3.42736E-01
 -1      3005 3.87103E-01
 -1      3006 3.99975E-01
 -1      3007 4.06862E+00
 -1      3008 3.33414E+00
 -1      3009 8.99346E+00
 -1      3010 3.82866E+00
 -1      3011 1.10847E+00
 -1      3012 6.30285E+00
 -1      3013 1.44447E+01
 -1      3014 6.65208E+00
 -1      3015 1.06952E+01
 -1      3016 9.82921E+00
 -1      3017 6.53432E+00
 -1      3018 6.71570E+00
 -1      3019 5.40188E+00
 -1      3020 5.71125E+00
 -1      3021 1.42289E+01
 -1      3022 1.33281E+01
 -1      3023 4.91549E+00
 -1      3024 4.56174E+00
 -1      3025 3.62731E+00
 -1      3026 3.85549E+00
 -1      3027 3.16360E+00
 -1      3028 2.97405E+00
 -1      3029 2.97405E+00
 -1      3030 5.51386E+00
 -1      3031 2.16171E+01
 -1      3032 1.19701E+01
 -1      3033 1.32729E+01
 -1      3034 1.51306E+00
 -1      3035 1.63227E+00
 -1      3036 1.74388E+00
 -1      3037 7.70786E+00
 -1      3038 6.00122E+00
 -1      3039 5.46442E+00
 -1      3040 3.93021E+00
 -1      3041 5.79030E+00
 -1      3042 1.10879E+00
 -1      3043 1.42218E+01
 -1      3044 5.76492E-01
 -1      3045 4.40968E-01
 -1      3046 9.23745E+00
 -1      3047 1.20630E+00
 -1      3048 1.22160E+00
 -1      3049 1.50599E+00
 -1      3050 1.22129E+00
 -1      3051 4.31739E-01
 -1      3052 1.72642E+01
 -1      3053 1.25629E+01
 -1      3054 1.28656E+01
 -1      3055 4.09893E+00
 -1      3056 5.17910E+00
 -1      3057 1.22360E+01
 -1      3058 1.34894E+01
 -1      3059 9.04304E+00
 -1      3060 4.07654E-01
 -1      3061 4.21930E-01
 -1      3062 3.61564E-01
 -1      3063 3.50169E-01
 -1      3064 2.27414E+00
 -1      3065 2.06196E+00
 -1      3066 2.21591E+00
 -1      3067 3.14996E+00
 -1      3068 4.01667E+00
 -1      3069 4.53428E+00
 -1      3070 5.63940E+00
 -1      3071 4.09893E+00
 -1      3072 2.89207E-01
 -1      3073 3.01229E-01
 -1      3074 1.14915E+01
 -1      3075 1.25158E+01
 -1      3076 5.96691E+00
 -1      3077 4.77786E+00
 -1      3078 3.20242E-01
 -1      3079 3.00155E-01
 -1      3080 2.96677E-01
 -1      3081 2.71945E-01
 -1      3082 2.52829E-01
 -1      3083 2.61054E-01
 -1      3084 2.36295E-01
 -1      3085 2.38459E-01
 -1      3086 2.22146E-01
 -1      3087 2.06464E-01
 -1      3088 2.13418E-01
 -1      3089 1.93100E-01
 -1      3090 1.76883E-01
 -1      3091 1.85905E-01
 -1      3092 1.66249E-01
 -1      3093 1.50722E-01
 -1      3094 1.61906E-01
 -1      3095 1.39463E-01
 -1      3096 1.25408E-01
 -1      3097 1.40013E-01
 -1      3098 1.14435E-01
 -1      3099 1.03095E-01
 -1      3100 1.17781E-01
 -1      3101 9.28605E-02
 -1      3102 8.31954E-02
 -1      3103 9.65736E-02
 -1      3104 7.38303E-02
 -1      3105 6.56441E-02
 -1      3106 7.69745E-02
 -1      3107 5.70499E-02
 -1      3108 5.00138E-02
 -1      3109 5.90153E-02
 -1      3110 4.19262E-02
 -1      3111 3.56088E-02
 -1      3112 4.23336E-02
 -1      3113 3.01932E-02
 -1      3114 2.90234E-02
 -1      3115 2.88304E-02
 -1      3116 3.12003E-02
 -1      3117 3.56369E-02
 -1      3118 2.55917E-02
 -1      3119 4.64614E-02
 -1      3120 6.00329E-02
 -1      3121 3.85932E-02
 -1      3122 7.36022E-02
 -1      3123 9.02209E-02
 -1      3124 6.29870E-02
 -1      3125 1.07764E-01
 -1      3126 1.28148E-01
 -1      3127 9.40993E-02
 -1      3128 1.49581E-01
 -1      3129 1.74374E-01
 -1      3130 1.33075E-01
 -1      3131 1.99904E-01
 -1      3132 2.29558E-01
 -1      3133 1.80038E-01
 -1      3134 2.58983E-01
 -1      3135 2.93606E-01
 -1      3136 2.34993E-01
 -1      3137 3.30196E-01
 -1      3138 3.69301E-01
 -1      3139 3.01007E-01
 -1      3140 4.15676E-01
 -1      3141 4.58045E-01
 -1      3142 3.83972E-01
 -1      3143 5.11560E-01
 -1      3144 5.54574E-01
 -1      3145 4.83863E-01
 -1      3146 6.13211E-01
 -1      3147 6.50422E-01
 -1      3148 5.96016E-01
 -1      3149 7.19019E-01
 -1      3150 7.73383E-01
 -1      3151 7.23250E-01
 -1      3152 8.44285E-01
 -1      3153 9.10646E-01
 -1      3154 8.62750E-01
 -1      3155 1.03839E+00
 -1      3156 1.09578E+00
 -1      3157 1.06140E+00
 -1      3158 1.23692E+00
 -1      3159 1.29235E+00
 -1      3160 1.33029E+00
 -1      3161 1.41626E+00
 -1      3162 1.55591E+00
 -1      3163 1.59534E+00
 -1      3164 1.64050E+00
 -1      3165 1.88844E+00
 -1      3166 1.80385E+00
 -1      3167 2.43193E+00
 -1      3168 2.35824E+00
 -1      3169 2.43193E+00
 -1      3170 2.18747E+00
 -1      3171 2.63389E+00
 -1      3172 2.80466E+00
 -1      3173 4.80424E+00
 -1      3174 4.71889E+00
 -1      3175 4.23117E+00
 -1      3176 3.53794E+00
 -1      3177 2.28229E+00
 -1      3178 2.06337E+00
 -1      3179 1.70800E+00
 -1      3180 1.59810E+00
 -1      3181 2.06337E+00
 -1      3182 1.39457E+00
 -1      3183 1.21219E+00
 -1      3184 1.31002E+00
 -1      3185 1.50446E+00
 -1      3186 1.64080E-01
 -1      3187 1.81064E-01
 -1      3188 1.93910E-01
 -1      3189 2.12303E-01
 -1      3190 1.76792E-01
 -1      3191 1.12407E-01
 -1      3192 1.24795E-01
 -1      3193 9.05690E-02
 -1      3194 1.01266E-01
 -1      3195 1.02375E-01
 -1      3196 7.15971E-02
 -1      3197 8.05874E-02
 -1      3198 8.12517E-02
 -1      3199 5.57989E-02
 -1      3200 6.31701E-02
 -1      3201 6.28431E-02
 -1      3202 4.30728E-02
 -1      3203 4.88312E-02
 -1      3204 4.74485E-02
 -1      3205 3.39133E-02
 -1      3206 3.62898E-02
 -1      3207 3.36979E-02
 -1      3208 3.88588E-02
 -1      3209 3.47029E-02
 -1      3210 2.77045E-02
 -1      3211 6.08908E-02
 -1      3212 4.95406E-02
 -1      3213 3.91758E-02
 -1      3214 9.40003E-02
 -1      3215 7.54111E-02
 -1      3216 6.43779E-02
 -1      3217 1.35932E-01
 -1      3218 1.12124E-01
 -1      3219 9.70215E-02
 -1      3220 1.89173E-01
 -1      3221 1.58730E-01
 -1      3222 1.37943E-01
 -1      3223 2.58099E-01
 -1      3224 2.19467E-01
 -1      3225 1.91036E-01
 -1      3226 3.48520E-01
 -1      3227 3.00053E-01
 -1      3228 2.63283E-01
 -1      3229 4.61620E-01
 -1      3230 4.01693E-01
 -1      3231 3.58410E-01
 -1      3232 6.00465E-01
 -1      3233 5.27659E-01
 -1      3234 4.77622E-01
 -1      3235 7.66788E-01
 -1      3236 6.80209E-01
 -1      3237 6.23404E-01
 -1      3238 9.59268E-01
 -1      3239 8.59115E-01
 -1      3240 7.95475E-01
 -1      3241 1.18503E+00
 -1      3242 1.07376E+00
 -1      3243 1.00229E+00
 -1      3244 1.45812E+00
 -1      3245 1.34278E+00
 -1      3246 1.27454E+00
 -1      3247 1.78984E+00
 -1      3248 1.68666E+00
 -1      3249 1.66084E+00
 -1      3250 2.29930E+00
 -1      3251 2.08071E+00
 -1      3252 2.18026E+00
 -1      3253 2.89949E+00
 -1      3254 2.63115E+00
 -1      3255 2.80298E+00
 -1      3256 4.41213E+00
 -1      3257 3.68403E+00
 -1      3258 3.91938E+00
 -1      3259 4.73301E+00
 -1      3260 5.52919E+00
 -1      3261 5.17910E+00
 -1      3262 5.59348E+00
 -1      3263 3.20684E+00
 -1      3264 4.01904E+00
 -1      3265 2.17660E+00
 -1      3266 2.39694E+00
 -1      3267 3.48416E+00
 -1      3268 1.66741E+00
 -1      3269 1.82353E+00
 -1      3270 2.32118E+00
 -1      3271 1.93297E+00
 -1      3272 4.15680E+00
 -1      3273 4.64011E+00
 -1      3274 4.55511E+00
 -1      3275 3.41902E+00
 -1      3276 4.73500E+00
 -1      3277 4.94851E+00
 -1      3278 5.51821E+00
 -1      3279 1.43954E+01
 -1      3280 3.69494E-01
 -1      3281 3.35972E-01
 -1      3282 4.54647E+00
 -1      3283 3.27216E+00
 -1      3284 6.25428E+00
 -1      3285 8.63563E+00
 -1      3286 4.65261E-01
 -1      3287 1.01674E+01
 -1      3288 1.18767E+01
 -1      3289 2.91374E+00
 -1      3290 3.28618E+00
 -1      3291 4.55269E+00
 -1      3292 2.16256E+00
 -1      3293 2.38884E+00
 -1      3294 3.15717E+00
 -1      3295 8.63442E+00
 -1      3296 7.13286E+00
 -1      3297 2.94085E+00
 -1      3298 4.07604E+00
 -1      3299 3.03088E+00
 -1      3300 1.37041E-01
 -1      3301 1.51111E-01
 -1      3302 1.50977E-01
 -1      3303 1.25763E-01
 -1      3304 1.19798E+01
 -1      3305 9.31097E+00
 -1      3306 3.08045E-01
 -1      3307 3.42261E-01
 -1      3308 1.23000E+01
 -1      3309 1.14915E+01
 -1      3310 4.62491E+00
 -1      3311 5.06450E+00
 -1      3312 3.16049E-01
 -1      3313 3.09029E-01
 -1      3314 2.45094E-01
 -1      3315 4.13438E-01
 -1      3316 3.10290E-01
 -1      3317 2.61677E-01
 -1      3318 3.99242E-01
 -1      3319 1.19309E+01
 -1      3320 1.32729E+01
 -1      3321 2.92800E+00
 -1      3322 3.38156E+00
 -1      3323 3.23398E-01
 -1      3324 3.15683E-01
 -1      3325 5.82099E+00
 -1      3326 1.14704E+01
 -1      3327 1.29077E+01
 -1      3328 3.63916E+00
 -1      3329 4.13549E+00
 -1      3330 4.41051E+00
 -1      3331 3.12448E-01
 -1      3332 3.12202E-01
 -1      3333 2.85149E-01
 -1      3334 9.48932E+00
 -1      3335 8.54044E+00
 -1      3336 6.43873E+00
 -1      3337 8.69564E+00
 -1      3338 1.16489E+01
 -1      3339 9.04550E+00
 -1      3340 2.26609E-01
 -1      3341 2.46191E-01
 -1      3342 2.03945E-01
 -1      3343 3.74011E+00
 -1      3344 5.00426E+00
 -1      3345 4.07213E+00
 -1      3346 3.29568E+00
 -1      3347 3.29568E+00
 -1      3348 3.95746E+00
 -1      3349 3.53794E+00
 -1      3350 2.84471E+00
 -1      3351 2.49527E+00
 -1      3352 2.93408E+00
 -1      3353 4.29434E+00
 -1      3354 7.45036E+00
 -1      3355 2.64509E-01
 -1      3356 2.91815E-01
 -1      3357 2.36569E-01
 -1      3358 2.61179E-01
 -1      3359 3.21814E-01
 -1      3360 3.21814E-01
 -1      3361 9.05480E+00
 -1      3362 9.13928E+00
 -1      3363 3.42014E+00
 -1      3364 4.29434E+00
 -1      3365 7.02575E+00
 -1      3366 6.76676E+00
 -1      3367 3.61143E+00
 -1      3368 3.75395E+00
 -1      3369 3.20529E+00
 -1      3370 3.46644E+00
 -1      3371 5.59348E+00
 -1      3372 4.92888E+00
 -1      3373 4.92888E+00
 -1      3374 4.20273E+00
 -1      3375 3.58676E+00
 -1      3376 7.20356E+00
 -1      3377 3.69494E-01
 -1      3378 2.94150E+00
 -1      3379 5.44228E+00
 -1      3380 8.42544E+00
 -1      3381 6.97405E+00
 -1      3382 9.56254E+00
 -1      3383 5.60787E+00
 -1      3384 3.51590E-01
 -1      3385 3.85302E-01
 -1      3386 2.96676E-01
 -1      3387 2.71117E-01
 -1      3388 5.14563E+00
 -1      3389 4.54381E+00
 -1      3390 3.75395E+00
 -1      3391 2.63173E+00
 -1      3392 9.93534E+00
 -1      3393 3.67424E-01
 -1      3394 3.92986E-01
 -1      3395 2.76505E-01
 -1      3396 2.88127E-01
 -1      3397 2.53804E-01
 -1      3398 3.23447E-01
 -1      3399 3.27163E-01
 -1      3400 3.25125E-01
 -1      3401 3.23398E-01
 -1      3402 2.88384E-01
 -1      3403 2.85074E-01
 -1      3404 2.84986E-01
 -1      3405 3.23103E-01
 -1      3406 3.73094E-01
 -1      3407 1.09820E+01
 -1      3408 7.64856E+00
 -1      3409 7.08318E+00
 -1      3410 1.50289E+00
 -1      3411 1.68976E+00
 -1      3412 2.15947E+00
 -1      3413 1.49380E+00
 -1      3414 5.29204E+00
 -1      3415 5.53634E+00
 -1      3416 1.03748E+01
 -1      3417 1.13629E+01
 -1      3418 2.80466E+00
 -1      3419 4.80424E+00
 -1      3420 2.16237E-01
 -1      3421 2.05345E-01
 -1      3422 2.01724E-01
 -1      3423 1.87575E-01
 -1      3424 1.79502E-01
 -1      3425 1.79706E-01
 -1      3426 1.66342E-01
 -1      3427 1.68012E-01
 -1      3428 1.56442E-01
 -1      3429 1.45808E-01
 -1      3430 1.50243E-01
 -1      3431 1.37495E-01
 -1      3432 1.26236E-01
 -1      3433 1.32031E-01
 -1      3434 1.17878E-01
 -1      3435 1.06905E-01
 -1      3436 1.15360E-01
 -1      3437 9.83289E-02
 -1      3438 8.80948E-02
 -1      3439 9.84260E-02
 -1      3440 7.97838E-02
 -1      3441 7.04187E-02
 -1      3442 8.15390E-02
 -1      3443 6.25655E-02
 -1      3444 5.39714E-02
 -1      3445 6.53748E-02
 -1      3446 4.65620E-02
 -1      3447 3.84744E-02
 -1      3448 5.01122E-02
 -1      3449 3.46546E-02
 -1      3450 2.92389E-02
 -1      3451 3.88829E-02
 -1      3452 3.04745E-02
 -1      3453 3.26514E-02
 -1      3454 3.62986E-02
 -1      3455 3.78398E-02
 -1      3456 4.86643E-02
 -1      3457 4.27225E-02
 -1      3458 6.19228E-02
 -1      3459 7.54922E-02
 -1      3460 6.11694E-02
 -1      3461 9.22601E-02
 -1      3462 1.09803E-01
 -1      3463 9.11958E-02
 -1      3464 1.30542E-01
 -1      3465 1.51975E-01
 -1      3466 1.28703E-01
 -1      3467 1.77318E-01
 -1      3468 2.02848E-01
 -1      3469 1.74785E-01
 -1      3470 2.33252E-01
 -1      3471 2.62677E-01
 -1      3472 2.30531E-01
 -1      3473 2.98248E-01
 -1      3474 3.34837E-01
 -1      3475 2.96507E-01
 -1      3476 3.75033E-01
 -1      3477 4.21408E-01
 -1      3478 3.72273E-01
 -1      3479 4.64540E-01
 -1      3480 5.18056E-01
 -1      3481 4.55600E-01
 -1      3482 5.78377E-01
 -1      3483 6.37014E-01
 -1      3484 5.59054E-01
 -1      3485 7.14546E-01
 -1      3486 7.83143E-01
 -1      3487 6.96906E-01
 -1      3488 9.07394E-01
 -1      3489 9.78296E-01
 -1      3490 8.98689E-01
 -1      3491 1.13071E+00
 -1      3492 1.25845E+00
 -1      3493 1.17535E+00
 -1      3494 1.43639E+00
 -1      3495 1.57753E+00
 -1      3496 1.50570E+00
 -1      3497 2.10544E+00
 -1      3498 2.22935E+00
 -1      3499 2.21154E+00
 -1      3500 2.31934E+00
 -1      3501 2.40393E+00
 -1      3502 2.82944E+00
 -1      3503 2.66180E+00
 -1      3504 3.20529E+00
 -1      3505 2.97542E+00
 -1      3506 1.58348E-01
 -1      3507 1.71194E-01
 -1      3508 7.51008E-02
 -1      3509 8.50824E-02
 -1      3510 9.42366E-02
 -1      3511 1.05378E-01
 -1      3512 8.80856E-02
 -1      3513 4.31892E-02
 -1      3514 5.01568E-02
 -1      3515 2.87692E-02
 -1      3516 3.55522E-02
 -1      3517 3.82605E-02
 -1      3518 3.03214E-02
 -1      3519 2.95318E-02
 -1      3520 3.13862E-02
 -1      3521 4.61508E-02
 -1      3522 3.54690E-02
 -1      3523 3.72964E-02
 -1      3524 7.39222E-02
 -1      3525 5.94019E-02
 -1      3526 5.56951E-02
 -1      3527 1.09786E-01
 -1      3528 9.16624E-02
 -1      3529 8.66864E-02
 -1      3530 1.55846E-01
 -1      3531 1.33048E-01
 -1      3532 1.27689E-01
 -1      3533 2.16155E-01
 -1      3534 1.85861E-01
 -1      3535 1.80966E-01
 -1      3536 2.96686E-01
 -1      3537 2.54733E-01
 -1      3538 2.49558E-01
 -1      3539 3.99171E-01
 -1      3540 3.45998E-01
 -1      3541 3.37448E-01
 -1      3542 5.27863E-01
 -1      3543 4.61825E-01
 -1      3544 4.49413E-01
 -1      3545 6.86724E-01
 -1      3546 6.06980E-01
 -1      3547 5.91183E-01
 -1      3548 8.78409E-01
 -1      3549 7.86081E-01
 -1      3550 7.69657E-01
 -1      3551 1.11678E+00
 -1      3552 1.00229E+00
 -1      3553 9.92898E-01
 -1      3554 1.42648E+00
 -1      3555 1.26873E+00
 -1      3556 1.26873E+00
 -1      3557 1.84963E+00
 -1      3558 1.62109E+00
 -1      3559 1.61528E+00
 -1      3560 2.47388E+00
 -1      3561 2.18300E+00
 -1      3562 2.14325E+00
 -1      3563 3.32913E+00
 -1      3564 2.99727E+00
 -1      3565 3.00002E+00
 -1      3566 4.56637E+00
 -1      3567 3.78182E+00
 -1      3568 3.97611E+00
 -1      3569 9.87514E+00
 -1      3570 3.05150E+00
 -1      3571 3.57640E+00
 -1      3572 7.67072E+00
 -1      3573 3.30554E+00
 -1      3574 4.11544E+00
 -1      3575 5.35772E+00
 -1      3576 2.95246E+00
 -1      3577 2.94473E+00
 -1      3578 2.58936E+00
 -1      3579 6.61738E+00
 -1      3580 5.94083E+00
 -1      3581 6.31337E+00
 -1      3582 2.72852E+00
 -1      3583 7.63724E+00
 -1      3584 8.06051E+00
 -1      3585 8.06051E+00
 -1      3586 8.06051E+00
 -1      3587 3.15768E-01
 -1      3588 3.23447E-01
 -1      3589 2.89046E-01
 -1      3590 5.81334E-02
 -1      3591 6.65604E-02
 -1      3592 7.03911E-02
 -1      3593 5.38741E-02
 -1      3594 2.32519E-01
 -1      3595 2.48748E-01
 -1      3596 8.91170E+00
 -1      3597 8.58478E+00
 -1      3598 5.12227E+00
 -1      3599 3.95633E+00
 -1      3600 2.15802E-01
 -1      3601 2.12324E-01
 -1      3602 1.79210E-01
 -1      3603 2.77326E-01
 -1      3604 2.21825E-01
 -1      3605 2.00741E-01
 -1      3606 2.15568E-01
 -1      3607 2.86999E+00
 -1      3608 2.55191E+00
 -1      3609 2.58705E+00
 -1      3610 3.92276E+00
 -1      3611 1.87510E-01
 -1      3612 1.98723E-01
 -1      3613 1.58218E-01
 -1      3614 2.12474E-01
 -1      3615 1.92552E-01
 -1      3616 1.46181E-01
 -1      3617 2.16074E-01
 -1      3618 3.43034E+00
 -1      3619 1.03748E+01
 -1      3620 1.03748E+01
 -1      3621 7.81079E+00
 -1      3622 5.01783E+00
 -1      3623 8.28423E+00
 -1      3624 7.41733E+00
 -1      3625 6.78219E+00
 -1      3626 1.83085E-01
 -1      3627 1.97391E-01
 -1      3628 1.64641E-01
 -1      3629 1.14969E-01
 -1      3630 1.27216E-01
 -1      3631 1.06831E-01
 -1      3632 3.20529E+00
 -1      3633 1.49729E-01
 -1      3634 1.44131E-01
 -1      3635 1.36761E-01
 -1      3636 4.57231E+00
 -1      3637 6.31427E+00
 -1      3638 5.23550E+00
 -1      3639 2.07754E-01
 -1      3640 2.26072E-01
 -1      3641 1.86894E-01
 -1      3642 1.83567E+00
 -1      3643 1.63213E+00
 -1      3644 1.82501E+00
 -1      3645 2.71703E+00
 -1      3646 2.09293E-01
 -1      3647 2.47891E-01
 -1      3648 2.57220E-01
 -1      3649 2.53909E-01
 -1      3650 2.50674E-01
 -1      3651 2.21326E-01
 -1      3652 9.76759E+00
 -1      3653 7.69035E+00
 -1      3654 7.79790E+00
 -1      3655 2.85480E-01
 -1      3656 3.43517E+00
 -1      3657 6.55847E+00
 -1      3658 4.67509E+00
 -1      3659 4.46490E+00
 -1      3660 2.03704E-01
 -1      3661 7.69494E+00
 -1      3662 4.39496E+00
 -1      3663 5.26558E+00
 -1      3664 2.57832E-01
 -1      3665 2.23357E-01
 -1      3666 2.57832E-01
 -1      3667 7.67072E+00
 -1      3668 3.56644E+00
 -1      3669 4.28929E+00
 -1      3670 2.53066E-01
 -1      3671 2.53066E-01
 -1      3672 6.77511E+00
 -1      3673 6.87001E+00
 -1      3674 5.99497E+00
 -1      3675 7.01861E+00
 -1      3676 2.45975E-01
 -1      3677 2.41915E-01
 -1      3678 1.77063E-01
 -1      3679 2.09996E-01
 -1      3680 5.05875E+00
 -1      3681 2.29781E+00
 -1      3682 5.36919E+00
 -1      3683 5.19631E+00
 -1      3684 2.71703E+00
 -1      3685 1.59751E-01
 -1      3686 1.56130E-01
 -1      3687 3.95633E+00
 -1      3688 3.17730E+00
 -1      3689 1.55846E-01
 -1      3690 1.47977E-01
 -1      3691 1.36095E-01
 -1      3692 1.43532E-01
 -1      3693 1.33633E-01
 -1      3694 1.31367E-01
 -1      3695 1.26904E-01
 -1      3696 1.18591E-01
 -1      3697 1.20193E-01
 -1      3698 1.11040E-01
 -1      3699 1.02682E-01
 -1      3700 1.05913E-01
 -1      3701 9.63776E-02
 -1      3702 8.78016E-02
 -1      3703 9.20579E-02
 -1      3704 8.11865E-02
 -1      3705 7.28754E-02
 -1      3706 7.91380E-02
 -1      3707 6.63559E-02
 -1      3708 5.85027E-02
 -1      3709 6.60034E-02
 -1      3710 5.22973E-02
 -1      3711 4.48879E-02
 -1      3712 5.32784E-02
 -1      3713 4.28360E-02
 -1      3714 3.90161E-02
 -1      3715 4.50211E-02
 -1      3716 4.00956E-02
 -1      3717 4.13311E-02
 -1      3718 4.40486E-02
 -1      3719 4.39431E-02
 -1      3720 4.91315E-02
 -1      3721 4.77401E-02
 -1      3722 5.65545E-02
 -1      3723 6.98129E-02
 -1      3724 5.77750E-02
 -1      3725 8.43727E-02
 -1      3726 1.01141E-01
 -1      3727 7.97578E-02
 -1      3728 1.19527E-01
 -1      3729 1.40266E-01
 -1      3730 1.12704E-01
 -1      3731 1.63350E-01
 -1      3732 1.88693E-01
 -1      3733 1.54174E-01
 -1      3734 2.17434E-01
 -1      3735 2.47838E-01
 -1      3736 2.05999E-01
 -1      3737 2.83276E-01
 -1      3738 3.18847E-01
 -1      3739 2.70178E-01
 -1      3740 3.62076E-01
 -1      3741 4.02271E-01
 -1      3742 3.48845E-01
 -1      3743 4.54334E-01
 -1      3744 4.97466E-01
 -1      3745 4.44136E-01
 -1      3746 5.59054E-01
 -1      3747 6.19375E-01
 -1      3748 5.57787E-01
 -1      3749 6.89963E-01
 -1      3750 7.67495E-01
 -1      3751 6.89963E-01
 -1      3752 8.79253E-01
 -1      3753 1.00350E+00
 -1      3754 8.72310E-01
 -1      3755 1.16921E+00
 -1      3756 1.32162E+00
 -1      3757 1.14977E+00
 -1      3758 1.46181E+00
 -1      3759 1.63975E+00
 -1      3760 1.45567E+00
 -1      3761 1.93587E+00
 -1      3762 2.46378E+00
 -1      3763 1.89198E+00
 -1      3764 3.21858E+00
 -1      3765 3.30857E+00
 -1      3766 3.47072E+00
 -1      3767 7.94276E-02
 -1      3768 8.85818E-02
 -1      3769 1.94085E-01
 -1      3770 2.54522E-01
 -1      3771 3.67197E-02
 -1      3772 3.59570E-02
 -1      3773 3.51774E-02
 -1      3774 4.28144E-02
 -1      3775 4.05109E-02
 -1      3776 6.50026E-02
 -1      3777 5.17515E-02
 -1      3778 9.80432E-02
 -1      3779 8.03030E-02
 -1      3780 7.63594E-02
 -1      3781 1.40928E-01
 -1      3782 1.17666E-01
 -1      3783 1.11282E-01
 -1      3784 1.96120E-01
 -1      3785 1.66106E-01
 -1      3786 1.56083E-01
 -1      3787 2.66955E-01
 -1      3788 2.28377E-01
 -1      3789 2.13517E-01
 -1      3790 3.57559E-01
 -1      3791 3.08247E-01
 -1      3792 2.87066E-01
 -1      3793 4.73197E-01
 -1      3794 4.10544E-01
 -1      3795 3.81343E-01
 -1      3796 6.20835E-01
 -1      3797 5.41719E-01
 -1      3798 5.02850E-01
 -1      3799 8.10024E-01
 -1      3800 7.10666E-01
 -1      3801 6.61203E-01
 -1      3802 1.05465E+00
 -1      3803 9.30768E-01
 -1      3804 8.71778E-01
 -1      3805 1.37409E+00
 -1      3806 1.22215E+00
 -1      3807 1.16002E+00
 -1      3808 1.80988E+00
 -1      3809 1.61528E+00
 -1      3810 1.56870E+00
 -1      3811 2.47797E+00
 -1      3812 2.14460E+00
 -1      3813 2.14460E+00
 -1      3814 4.27626E+00
 -1      3815 3.75286E+00
 -1      3816 3.75421E+00
 -1      3817 5.71736E+00
 -1      3818 5.26466E+00
 -1      3819 6.01751E+00
 -1      3820 7.28352E+00
 -1      3821 2.49501E-01
 -1      3822 2.53066E-01
 -1      3823 2.17087E-01
 -1      3824 2.18260E-01
 -1      3825 3.57140E+00
 -1      3826 4.65241E+00
 -1      3827 1.22294E-01
 -1      3828 1.39373E-01
 -1      3829 1.76688E-01
 -1      3830 1.83135E-01
 -1      3831 5.17980E+00
 -1      3832 5.17980E+00
 -1      3833 2.33448E-01
 -1      3834 2.15570E-01
 -1      3835 1.60889E-01
 -1      3836 1.84663E-01
 -1      3837 1.49717E-01
 -1      3838 1.53630E-01
 -1      3839 1.30258E-01
 -1      3840 2.57832E-01
 -1      3841 4.41783E-02
 -1      3842 3.90307E-02
 -1      3843 5.34858E-02
 -1      3844 7.41733E+00
 -1      3845 2.87008E+00
 -1      3846 3.34921E+00
 -1      3847 4.11640E+00
 -1      3848 2.59441E+00
 -1      3849 5.49602E+00
 -1      3850 5.71974E+00
 -1      3851 4.11735E+00
 -1      3852 1.46888E-01
 -1      3853 1.58778E-01
 -1      3854 9.61423E-02
 -1      3855 1.05734E-01
 -1      3856 8.74843E-02
 -1      3857 4.36016E-02
 -1      3858 1.25967E-01
 -1      3859 1.94086E-01
 -1      3860 1.13793E-01
 -1      3861 3.45662E+00
 -1      3862 1.64632E-01
 -1      3863 1.74995E-01
 -1      3864 1.46879E-01
 -1      3865 7.21068E-02
 -1      3866 7.26030E-02
 -1      3867 6.35664E-02
 -1      3868 7.00591E+00
 -1      3869 1.54426E-01
 -1      3870 1.86445E-01
 -1      3871 1.85272E-01
 -1      3872 1.41302E-01
 -1      3873 1.36260E-01
 -1      3874 1.17415E-01
 -1      3875 1.67143E-01
 -1      3876 1.30282E-01
 -1      3877 1.38901E-01
 -1      3878 1.33038E-01
 -1      3879 1.85024E-01
 -1      3880 1.85024E-01
 -1      3881 1.53209E-01
 -1      3882 2.27281E-01
 -1      3883 4.86006E+00
 -1      3884 3.48139E+00
 -1      3885 3.53709E+00
 -1      3886 1.51301E-01
 -1      3887 1.78316E-01
 -1      3888 1.77459E-01
 -1      3889 1.90369E-01
 -1      3890 1.86445E-01
 -1      3891 1.53457E-01
 -1      3892 4.86219E-02
 -1      3893 5.65985E-02
 -1      3894 5.83142E-02
 -1      3895 1.74234E-01
 -1      3896 1.42171E-01
 -1      3897 4.55388E-02
 -1      3898 1.07822E-01
 -1      3899 1.13942E-01
 -1      3900 1.19050E-01
 -1      3901 1.18766E-01
 -1      3902 9.66135E-02
 -1      3903 1.19656E-01
 -1      3904 1.15211E-01
 -1      3905 1.02611E-01
 -1      3906 1.12499E-01
 -1      3907 1.05770E-01
 -1      3908 1.00789E-01
 -1      3909 1.01035E-01
 -1      3910 9.34850E-02
 -1      3911 9.33421E-02
 -1      3912 8.77819E-02
 -1      3913 8.14772E-02
 -1      3914 8.29043E-02
 -1      3915 7.56254E-02
 -1      3916 6.90103E-02
 -1      3917 7.13494E-02
 -1      3918 6.41117E-02
 -1      3919 5.75922E-02
 -1      3920 6.05991E-02
 -1      3921 5.43004E-02
 -1      3922 4.80950E-02
 -1      3923 5.24088E-02
 -1      3924 4.73940E-02
 -1      3925 4.53421E-02
 -1      3926 4.84160E-02
 -1      3927 4.60138E-02
 -1      3928 4.70932E-02
 -1      3929 4.83867E-02
 -1      3930 4.94051E-02
 -1      3931 5.20171E-02
 -1      3932 5.13703E-02
 -1      3933 5.66123E-02
 -1      3934 6.40352E-02
 -1      3935 5.82773E-02
 -1      3936 7.20396E-02
 -1      3937 8.65994E-02
 -1      3938 7.08768E-02
 -1      3939 9.91786E-02
 -1      3940 1.17565E-01
 -1      3941 9.14604E-02
 -1      3942 1.36469E-01
 -1      3943 1.59553E-01
 -1      3944 1.22944E-01
 -1      3945 1.83871E-01
 -1      3946 2.12612E-01
 -1      3947 1.66166E-01
 -1      3948 2.43838E-01
 -1      3949 2.79276E-01
 -1      3950 2.21710E-01
 -1      3951 3.19424E-01
 -1      3952 3.62653E-01
 -1      3953 2.93084E-01
 -1      3954 4.14552E-01
 -1      3955 4.66614E-01
 -1      3956 3.85131E-01
 -1      3957 5.34262E-01
 -1      3958 5.95850E-01
 -1      3959 5.04677E-01
 -1      3960 6.84830E-01
 -1      3961 7.55419E-01
 -1      3962 6.61305E-01
 -1      3963 8.72310E-01
 -1      3964 9.84067E-01
 -1      3965 8.67176E-01
 -1      3966 1.13736E+00
 -1      3967 1.30306E+00
 -1      3968 1.13736E+00
 -1      3969 2.23856E+00
 -1      3970 2.37876E+00
 -1      3971 2.22615E+00
 -1      3972 2.20537E+00
 -1      3973 2.50148E+00
 -1      3974 2.90779E+00
 -1      3975 2.98826E+00
 -1      3976 1.41353E-01
 -1      3977 1.74548E-01
 -1      3978 1.65126E-01
 -1      3979 4.27409E-02
 -1      3980 4.85485E-02
 -1      3981 1.12949E-01
 -1      3982 1.22494E-01
 -1      3983 1.17263E-01
 -1      3984 1.02260E-01
 -1      3985 1.16916E-01
 -1      3986 9.72932E-02
 -1      3987 8.23410E-02
 -1      3988 6.70406E-02
 -1      3989 8.79745E-02
 -1      3990 2.17674E-01
 -1      3991 1.85417E-01
 -1      3992 2.89717E-01
 -1      3993 2.48425E-01
 -1      3994 2.20325E-01
 -1      3995 3.81802E-01
 -1      3996 3.28817E-01
 -1      3997 2.90176E-01
 -1      3998 5.00602E-01
 -1      3999 4.32080E-01
 -1      4000 3.79554E-01
 -1      4001 6.56820E-01
 -1      4002 5.66989E-01
 -1      4003 4.96219E-01
 -1      4004 8.68195E-01
 -1      4005 7.47451E-01
 -1      4006 6.53237E-01
 -1      4007 1.16603E+00
 -1      4008 9.98536E-01
 -1      4009 8.74209E-01
 -1      4010 1.60820E+00
 -1      4011 1.36701E+00
 -1      4012 1.20553E+00
 -1      4013 2.25740E+00
 -1      4014 1.92268E+00
 -1      4015 1.72099E+00
 -1      4016 4.73134E+00
 -1      4017 3.45644E+00
 -1      4018 3.23452E+00
 -1      4019 6.01751E+00
 -1      4020 4.77810E-02
 -1      4021 4.54699E-02
 -1      4022 1.27118E-01
 -1      4023 1.26869E-01
 -1      4024 1.61170E-01
 -1      4025 1.35992E-01
 -1      4026 1.22003E-01
 -1      4027 4.37384E-02
 -1      4028 4.29587E-02
 -1      4029 4.79177E-02
 -1      4030 3.36369E+00
 -1      4031 1.90202E-01
 -1      4032 1.90202E-01
 -1      4033 1.53290E-01
 -1      4034 1.37469E-01
 -1      4035 5.89122E-02
 -1      4036 5.13391E-02
 -1      4037 5.32073E-02
 -1      4038 1.34869E-01
 -1      4039 1.36563E-01
 -1      4040 1.29255E-01
 -1      4041 1.35109E-01
 -1      4042 1.17246E-01
 -1      4043 5.71974E+00
 -1      4044 1.65327E-01
 -1      4045 7.61051E-02
 -1      4046 8.36656E-02
 -1      4047 4.43357E+00
 -1      4048 4.59684E-02
 -1      4049 1.28205E-01
 -1      4050 1.17415E-01
 -1      4051 6.48938E-02
 -1      4052 1.27118E-01
 -1      4053 1.00778E-01
 -1      4054 1.27118E-01
 -1      4055 1.11179E-01
 -1      4056 1.30736E-01
 -1      4057 1.25917E-01
 -1      4058 1.02113E-01
 -1      4059 2.98826E+00
 -1      4060 6.41475E-02
 -1      4061 7.14684E-02
 -1      4062 6.76497E-02
 -1      4063 3.16165E+00
 -1      4064 3.48139E+00
 -1      4065 1.31523E-01
 -1      4066 1.19753E-01
 -1      4067 1.23536E-01
 -1      4068 1.34149E-01
 -1      4069 5.15848E-02
 -1      4070 5.85527E-02
 -1      4071 5.74181E-02
 -1      4072 3.79761E+00
 -1      4073 4.87870E-02
 -1      4074 7.89392E-02
 -1      4075 8.40466E-02
 -1      4076 4.89202E-02
 -1      4077 5.19566E-02
 -1      4078 9.05474E-02
 -1      4079 9.14375E-02
 -1      4080 7.28731E-02
 -1      4081 8.97755E-02
 -1      4082 8.70633E-02
 -1      4083 7.77119E-02
 -1      4084 8.50495E-02
 -1      4085 8.03148E-02
 -1      4086 7.40360E-02
 -1      4087 9.24594E-02
 -1      4088 8.67563E-02
 -1      4089 8.41667E-02
 -1      4090 7.24205E-02
 -1      4091 6.65688E-02
 -1      4092 8.19756E-02
 -1      4093 6.28818E-02
 -1      4094 5.79833E-02
 -1      4095 6.39529E-02
 -1      4096 5.41733E-02
 -1      4097 5.08815E-02
 -1      4098 5.64559E-02
 -1      4099 4.91170E-02
 -1      4100 4.84160E-02
 -1      4101 5.08815E-02
 -1      4102 4.83867E-02
 -1      4103 4.90584E-02
 -1      4104 4.90877E-02
 -1      4105 5.13703E-02
 -1      4106 5.36822E-02
 -1      4107 5.13703E-02
 -1      4108 5.82773E-02
 -1      4109 6.28724E-02
 -1      4110 5.82773E-02
 -1      4111 7.08768E-02
 -1      4112 7.88812E-02
 -1      4113 7.08768E-02
 -1      4114 9.00129E-02
 -1      4115 1.02592E-01
 -1      4116 9.00129E-02
 -1      4117 1.19760E-01
 -1      4118 1.38664E-01
 -1      4119 1.18313E-01
 -1      4120 1.61639E-01
 -1      4121 1.85957E-01
 -1      4122 1.58455E-01
 -1      4123 2.16724E-01
 -1      4124 2.47950E-01
 -1      4125 2.12197E-01
 -1      4126 2.89480E-01
 -1      4127 3.29628E-01
 -1      4128 2.84494E-01
 -1      4129 3.86495E-01
 -1      4130 4.38394E-01
 -1      4131 3.82891E-01
 -1      4132 5.17669E-01
 -1      4133 5.85317E-01
 -1      4134 5.19033E-01
 -1      4135 6.96862E-01
 -1      4136 7.85842E-01
 -1      4137 7.09854E-01
 -1      4138 9.39115E-01
 -1      4139 1.05601E+00
 -1      4140 9.74671E-01
 -1      4141 1.11620E+00
 -1      4142 1.26949E+00
 -1      4143 1.18814E+00
 -1      4144 1.79750E+00
 -1      4145 2.73300E+00
 -1      4146 1.77634E+00
 -1      4147 3.16165E+00
 -1      4148 3.58016E+00
 -1      4149 3.58016E+00
 -1      4150 2.38111E+00
 -1      4151 2.94420E+00
 -1      4152 9.70979E-02
 -1      4153 8.21457E-02
 -1      4154 7.20745E-02
 -1      4155 6.39461E-02
 -1      4156 8.11979E-02
 -1      4157 5.67654E-02
 -1      4158 5.32073E-02
 -1      4159 6.39461E-02
 -1      4160 2.96620E-01
 -1      4161 2.57521E-01
 -1      4162 2.26900E-01
 -1      4163 1.96149E-01
 -1      4164 2.33345E-01
 -1      4165 5.04383E-01
 -1      4166 4.37996E-01
 -1      4167 6.71088E-01
 -1      4168 5.80457E-01
 -1      4169 5.22234E-01
 -1      4170 9.12975E-01
 -1      4171 7.82633E-01
 -1      4172 7.09854E-01
 -1      4173 1.32742E+00
 -1      4174 1.12644E+00
 -1      4175 1.03486E+00
 -1      4176 1.73622E+00
 -1      4177 1.42174E+00
 -1      4178 1.34265E+00
 -1      4179 2.08186E+00
 -1      4180 1.72395E-01
 -1      4181 1.48149E-01
 -1      4182 1.78971E-01
 -1      4183 1.03449E-01
 -1      4184 1.13793E-01
 -1      4185 9.74773E-02
 -1      4186 1.29863E-01
 -1      4187 1.10786E-01
 -1      4188 1.04957E-01
 -1      4189 1.36931E-01
 -1      4190 9.61423E-02
 -1      4191 4.96493E-02
 -1      4192 4.79177E-02
 -1      4193 5.32073E-02
 -1      4194 3.16165E+00
 -1      4195 9.20705E-02
 -1      4196 1.03450E-01
 -1      4197 1.10665E-01
 -1      4198 3.86410E-01
 -1      4199 3.36132E-01
 -1      4200 3.94573E-01
 -1      4201 1.14859E-01
 -1      4202 1.02526E-01
 -1      4203 1.18179E-01
 -1      4204 9.42938E-02
 -1      4205 4.63412E-02
 -1      4206 4.61234E-02
 -1      4207 4.80727E-02
 -1      4208 1.02392E-01
 -1      4209 1.02153E-01
 -1      4210 8.35753E-02
 -1      4211 2.73300E+00
 -1      4212 5.61779E-02
 -1      4213 5.60446E-02
 -1      4214 6.16394E-02
 -1      4215 1.26660E-01
 -1      4216 1.26828E-01
 -1      4217 1.00488E-01
 -1      4218 9.17169E-02
 -1      4219 2.56467E+00
 -1      4220 2.34722E+00
 -1      4221 1.70233E+00
 -1      4222 2.13602E+00
 -1      4223 3.03476E-01
 -1      4224 1.15749E-01
 -1      4225 1.23536E-01
 -1      4226 1.22022E-01
 -1      4227 1.16938E-01
 -1      4228 8.42989E-02
 -1      4229 1.04083E-01
 -1      4230 9.65616E-02
 -1      4231 9.07346E-02
 -1      4232 8.17082E-02
 -1      4233 6.99632E-02
 -1      4234 8.19756E-02
 -1      4235 6.53264E-02
 -1      4236 1.06202E-01
 -1      4237 1.03934E-01
 -1      4238 8.88405E-02
 -1      4239 4.92930E-02
 -1      4240 8.48779E-02
 -1      4241 8.32159E-02
 -1      4242 9.19383E-02
 -1      4243 1.04083E-01
 -1      4244 9.63114E-02
 -1      4245 8.19756E-02
 -1      4246 6.76399E-02
 -1      4247 6.39529E-02
 -1      4248 6.02659E-02
 -1      4249 5.64559E-02
 -1      4250 5.23679E-02
 -1      4251 5.06034E-02
 -1      4252 4.78066E-02
 -1      4253 4.77773E-02
 -1      4254 4.93538E-02
 -1      4255 5.16657E-02
 -1      4256 5.52238E-02
 -1      4257 5.98189E-02
 -1      4258 6.69996E-02
 -1      4259 7.50039E-02
 -1      4260 8.50752E-02
 -1      4261 9.62069E-02
 -1      4262 1.09895E-01
 -1      4263 1.27063E-01
 -1      4264 1.45349E-01
 -1      4265 1.68323E-01
 -1      4266 1.92077E-01
 -1      4267 2.22844E-01
 -1      4268 2.53465E-01
 -1      4269 2.94994E-01
 -1      4270 3.34506E-01
 -1      4271 3.91373E-01
 -1      4272 4.42959E-01
 -1      4273 5.22234E-01
 -1      4274 5.98308E-01
 -1      4275 7.09854E-01
 -1      4276 8.21399E-01
 -1      4277 9.74671E-01
 -1      4278 1.18814E+00
 -1      4279 1.24833E+00
 -1      4280 1.60800E+00
 -1      4281 1.04083E-01
 -1      4282 1.11855E-01
 -1      4283 7.50446E-02
 -1      4284 7.50446E-02
 -1      4285 8.84478E-02
 -1      4286 6.27140E-02
 -1      4287 7.68357E-02
 -1      4288 8.33366E-02
 -1      4289 7.12447E-02
 -1      4290 6.39529E-02
 -1      4291 9.90358E-02
 -1      4292 9.70219E-02
 -1      4293 1.06202E-01
 -1      4294 5.78415E-02
 -1      4295 1.60800E+00
 -1      4296 1.16938E-01
 -1      4297 1.16938E-01
 -1      4298 1.22022E-01
 -1      4299 1.22022E-01
 -1      4300 1.02775E-01
 -1      4301 1.03065E-01
 -3
 9999
