    1C
    1UUSER                                                              
    1UDATE              27.october.2022                                 
    1UTIME              00:29:04                                        
    1UHOST                                                              
    1UPGM               CalculiX                                        
    1UVERSION           Version 2.17                             
    1UCOMPILETIME       Thu Jul 23 21:43:50 CEST 2020                    
    1UDIR                                                               
    1UDBN                                                               
    1UMAT    1SOLIDMATERIAL                                             
    2C                          4344                                     1
 -1         1 3.71022E+01 3.56552E+01 0.00000E+00
 -1         2 4.40934E+01 2.86552E+01 0.00000E+00
 -1         3 1.50000E+02 0.00000E+00 0.00000E+00
 -1         4 1.50000E+02 5.00000E+01 0.00000E+00
 -1         5 0.00000E+00 0.00000E+00 0.00000E+00
 -1         6 0.00000E+00 5.00000E+01 0.00000E+00
 -1         7 0.00000E+00 4.70500E+01 0.00000E+00
 -1         8 0.00000E+00 4.41000E+01 0.00000E+00
 -1         9 0.00000E+00 4.11500E+01 0.00000E+00
 -1        10 0.00000E+00 3.82000E+01 0.00000E+00
 -1        11 0.00000E+00 3.52500E+01 0.00000E+00
 -1        12 0.00000E+00 3.23500E+01 0.00000E+00
 -1        13 0.00000E+00 2.94000E+01 0.00000E+00
 -1        14 0.00000E+00 2.64500E+01 0.00000E+00
 -1        15 0.00000E+00 2.35000E+01 0.00000E+00
 -1        16 0.00000E+00 2.05500E+01 0.00000E+00
 -1        17 0.00000E+00 1.76000E+01 0.00000E+00
 -1        18 0.00000E+00 1.47000E+01 0.00000E+00
 -1        19 0.00000E+00 1.17500E+01 0.00000E+00
 -1        20 0.00000E+00 8.80000E+00 0.00000E+00
 -1        21 0.00000E+00 5.85000E+00 0.00000E+00
 -1        22 0.00000E+00 2.90000E+00 0.00000E+00
 -1        23 3.15000E+00 5.00000E+01 0.00000E+00
 -1        24 6.15000E+00 5.00000E+01 0.00000E+00
 -1        25 9.15000E+00 5.00000E+01 0.00000E+00
 -1        26 1.21500E+01 5.00000E+01 0.00000E+00
 -1        27 1.51500E+01 5.00000E+01 0.00000E+00
 -1        28 1.81500E+01 5.00000E+01 0.00000E+00
 -1        29 2.11500E+01 5.00000E+01 0.00000E+00
 -1        30 2.41500E+01 5.00000E+01 0.00000E+00
 -1        31 2.71500E+01 5.00000E+01 0.00000E+00
 -1        32 3.01500E+01 5.00000E+01 0.00000E+00
 -1        33 3.31500E+01 5.00000E+01 0.00000E+00
 -1        34 3.61500E+01 5.00000E+01 0.00000E+00
 -1        35 3.91500E+01 5.00000E+01 0.00000E+00
 -1        36 4.21500E+01 5.00000E+01 0.00000E+00
 -1        37 4.51500E+01 5.00000E+01 0.00000E+00
 -1        38 4.81500E+01 5.00000E+01 0.00000E+00
 -1        39 5.11500E+01 5.00000E+01 0.00000E+00
 -1        40 5.41500E+01 5.00000E+01 0.00000E+00
 -1        41 5.71500E+01 5.00000E+01 0.00000E+00
 -1        42 6.01500E+01 5.00000E+01 0.00000E+00
 -1        43 6.31500E+01 5.00000E+01 0.00000E+00
 -1        44 6.61500E+01 5.00000E+01 0.00000E+00
 -1        45 6.91500E+01 5.00000E+01 0.00000E+00
 -1        46 7.21500E+01 5.00000E+01 0.00000E+00
 -1        47 7.51500E+01 5.00000E+01 0.00000E+00
 -1        48 7.81500E+01 5.00000E+01 0.00000E+00
 -1        49 8.11500E+01 5.00000E+01 0.00000E+00
 -1        50 8.41500E+01 5.00000E+01 0.00000E+00
 -1        51 8.71500E+01 5.00000E+01 0.00000E+00
 -1        52 9.01500E+01 5.00000E+01 0.00000E+00
 -1        53 9.31500E+01 5.00000E+01 0.00000E+00
 -1        54 9.61500E+01 5.00000E+01 0.00000E+00
 -1        55 9.91500E+01 5.00000E+01 0.00000E+00
 -1        56 1.02150E+02 5.00000E+01 0.00000E+00
 -1        57 1.05150E+02 5.00000E+01 0.00000E+00
 -1        58 1.08150E+02 5.00000E+01 0.00000E+00
 -1        59 1.11150E+02 5.00000E+01 0.00000E+00
 -1        60 1.14150E+02 5.00000E+01 0.00000E+00
 -1        61 1.17150E+02 5.00000E+01 0.00000E+00
 -1        62 1.20150E+02 5.00000E+01 0.00000E+00
 -1        63 1.23150E+02 5.00000E+01 0.00000E+00
 -1        64 1.26150E+02 5.00000E+01 0.00000E+00
 -1        65 1.29150E+02 5.00000E+01 0.00000E+00
 -1        66 1.32150E+02 5.00000E+01 0.00000E+00
 -1        67 1.35150E+02 5.00000E+01 0.00000E+00
 -1        68 1.38150E+02 5.00000E+01 0.00000E+00
 -1        69 1.41150E+02 5.00000E+01 0.00000E+00
 -1        70 1.44150E+02 5.00000E+01 0.00000E+00
 -1        71 1.47150E+02 5.00000E+01 0.00000E+00
 -1        72 3.15000E+00 0.00000E+00 0.00000E+00
 -1        73 6.15000E+00 0.00000E+00 0.00000E+00
 -1        74 9.15000E+00 0.00000E+00 0.00000E+00
 -1        75 1.21500E+01 0.00000E+00 0.00000E+00
 -1        76 1.51500E+01 0.00000E+00 0.00000E+00
 -1        77 1.81500E+01 0.00000E+00 0.00000E+00
 -1        78 2.11500E+01 0.00000E+00 0.00000E+00
 -1        79 2.41500E+01 0.00000E+00 0.00000E+00
 -1        80 2.71500E+01 0.00000E+00 0.00000E+00
 -1        81 3.01500E+01 0.00000E+00 0.00000E+00
 -1        82 3.31500E+01 0.00000E+00 0.00000E+00
 -1        83 3.61500E+01 0.00000E+00 0.00000E+00
 -1        84 3.91500E+01 0.00000E+00 0.00000E+00
 -1        85 4.21500E+01 0.00000E+00 0.00000E+00
 -1        86 4.51500E+01 0.00000E+00 0.00000E+00
 -1        87 4.81500E+01 0.00000E+00 0.00000E+00
 -1        88 5.11500E+01 0.00000E+00 0.00000E+00
 -1        89 5.41500E+01 0.00000E+00 0.00000E+00
 -1        90 5.71500E+01 0.00000E+00 0.00000E+00
 -1        91 6.01500E+01 0.00000E+00 0.00000E+00
 -1        92 6.31500E+01 0.00000E+00 0.00000E+00
 -1        93 6.61500E+01 0.00000E+00 0.00000E+00
 -1        94 6.91500E+01 0.00000E+00 0.00000E+00
 -1        95 7.21500E+01 0.00000E+00 0.00000E+00
 -1        96 7.51500E+01 0.00000E+00 0.00000E+00
 -1        97 7.81500E+01 0.00000E+00 0.00000E+00
 -1        98 8.11500E+01 0.00000E+00 0.00000E+00
 -1        99 8.41500E+01 0.00000E+00 0.00000E+00
 -1       100 8.71500E+01 0.00000E+00 0.00000E+00
 -1       101 9.01500E+01 0.00000E+00 0.00000E+00
 -1       102 9.31500E+01 0.00000E+00 0.00000E+00
 -1       103 9.61500E+01 0.00000E+00 0.00000E+00
 -1       104 9.91500E+01 0.00000E+00 0.00000E+00
 -1       105 1.02150E+02 0.00000E+00 0.00000E+00
 -1       106 1.05150E+02 0.00000E+00 0.00000E+00
 -1       107 1.08150E+02 0.00000E+00 0.00000E+00
 -1       108 1.11150E+02 0.00000E+00 0.00000E+00
 -1       109 1.14150E+02 0.00000E+00 0.00000E+00
 -1       110 1.17150E+02 0.00000E+00 0.00000E+00
 -1       111 1.20150E+02 0.00000E+00 0.00000E+00
 -1       112 1.23150E+02 0.00000E+00 0.00000E+00
 -1       113 1.26150E+02 0.00000E+00 0.00000E+00
 -1       114 1.29150E+02 0.00000E+00 0.00000E+00
 -1       115 1.32150E+02 0.00000E+00 0.00000E+00
 -1       116 1.35150E+02 0.00000E+00 0.00000E+00
 -1       117 1.38150E+02 0.00000E+00 0.00000E+00
 -1       118 1.41150E+02 0.00000E+00 0.00000E+00
 -1       119 1.44150E+02 0.00000E+00 0.00000E+00
 -1       120 1.47150E+02 0.00000E+00 0.00000E+00
 -1       121 1.50000E+02 2.95000E+00 0.00000E+00
 -1       122 1.50000E+02 5.90000E+00 0.00000E+00
 -1       123 1.50000E+02 8.85000E+00 0.00000E+00
 -1       124 1.50000E+02 1.18000E+01 0.00000E+00
 -1       125 1.50000E+02 1.47500E+01 0.00000E+00
 -1       126 1.50000E+02 1.76500E+01 0.00000E+00
 -1       127 1.50000E+02 2.06000E+01 0.00000E+00
 -1       128 1.50000E+02 2.35500E+01 0.00000E+00
 -1       129 1.50000E+02 2.65000E+01 0.00000E+00
 -1       130 1.50000E+02 2.94500E+01 0.00000E+00
 -1       131 1.50000E+02 3.24000E+01 0.00000E+00
 -1       132 1.50000E+02 3.53000E+01 0.00000E+00
 -1       133 1.50000E+02 3.82500E+01 0.00000E+00
 -1       134 1.50000E+02 4.12000E+01 0.00000E+00
 -1       135 1.50000E+02 4.41500E+01 0.00000E+00
 -1       136 1.50000E+02 4.71000E+01 0.00000E+00
 -1       137 4.39246E+01 2.71270E+01 0.00000E+00
 -1       138 4.34356E+01 2.56925E+01 0.00000E+00
 -1       139 4.27008E+01 2.44650E+01 0.00000E+00
 -1       140 4.16897E+01 2.33756E+01 0.00000E+00
 -1       141 4.04973E+01 2.25385E+01 0.00000E+00
 -1       142 3.89426E+01 2.19038E+01 0.00000E+00
 -1       143 3.75448E+01 2.16697E+01 0.00000E+00
 -1       144 3.60328E+01 2.17360E+01 0.00000E+00
 -1       145 3.45417E+01 2.21368E+01 0.00000E+00
 -1       146 3.32218E+01 2.28233E+01 0.00000E+00
 -1       147 3.21020E+01 2.37475E+01 0.00000E+00
 -1       148 3.10531E+01 2.51176E+01 0.00000E+00
 -1       149 3.04809E+01 2.63585E+01 0.00000E+00
 -1       150 3.01374E+01 2.78717E+01 0.00000E+00
 -1       151 3.01198E+01 2.92627E+01 0.00000E+00
 -1       152 3.04063E+01 3.07247E+01 0.00000E+00
 -1       153 3.09457E+01 3.20026E+01 0.00000E+00
 -1       154 3.17495E+01 3.31765E+01 0.00000E+00
 -1       155 3.27946E+01 3.41797E+01 0.00000E+00
 -1       156 3.41252E+01 3.49947E+01 0.00000E+00
 -1       157 3.56796E+01 3.55109E+01 0.00000E+00
 -1       158 3.84707E+01 3.55183E+01 0.00000E+00
 -1       159 3.98695E+01 3.50812E+01 0.00000E+00
 -1       160 4.10455E+01 3.44328E+01 0.00000E+00
 -1       161 4.21095E+01 3.35377E+01 0.00000E+00
 -1       162 4.29463E+01 3.24949E+01 0.00000E+00
 -1       163 4.35822E+01 3.12810E+01 0.00000E+00
 -1       164 4.39640E+01 2.99949E+01 0.00000E+00
 -1       165 2.59800E+00 4.55750E+01 0.00000E+00
 -1       166 2.59800E+00 4.26250E+01 0.00000E+00
 -1       167 2.59800E+00 3.96750E+01 0.00000E+00
 -1       168 2.59800E+00 3.67250E+01 0.00000E+00
 -1       169 2.59800E+00 3.38250E+01 0.00000E+00
 -1       170 2.59800E+00 3.08750E+01 0.00000E+00
 -1       171 2.59800E+00 2.79250E+01 0.00000E+00
 -1       172 2.59800E+00 2.49750E+01 0.00000E+00
 -1       173 2.59800E+00 2.20250E+01 0.00000E+00
 -1       174 2.59800E+00 1.90750E+01 0.00000E+00
 -1       175 2.59800E+00 1.61750E+01 0.00000E+00
 -1       176 2.59800E+00 1.32250E+01 0.00000E+00
 -1       177 2.59800E+00 1.02750E+01 0.00000E+00
 -1       178 2.59800E+00 7.32500E+00 0.00000E+00
 -1       179 2.59800E+00 4.37500E+00 0.00000E+00
 -1       180 2.87400E+00 2.18750E+00 0.00000E+00
 -1       181 4.65000E+00 4.74020E+01 0.00000E+00
 -1       182 7.65000E+00 4.74020E+01 0.00000E+00
 -1       183 1.06500E+01 4.74020E+01 0.00000E+00
 -1       184 1.36500E+01 4.74020E+01 0.00000E+00
 -1       185 1.66500E+01 4.74020E+01 0.00000E+00
 -1       186 1.96500E+01 4.74020E+01 0.00000E+00
 -1       187 2.26500E+01 4.74020E+01 0.00000E+00
 -1       188 2.56500E+01 4.74020E+01 0.00000E+00
 -1       189 2.86500E+01 4.74020E+01 0.00000E+00
 -1       190 3.16500E+01 4.74020E+01 0.00000E+00
 -1       191 3.46500E+01 4.74020E+01 0.00000E+00
 -1       192 3.76500E+01 4.74020E+01 0.00000E+00
 -1       193 4.06500E+01 4.74020E+01 0.00000E+00
 -1       194 4.36500E+01 4.74020E+01 0.00000E+00
 -1       195 4.66500E+01 4.74020E+01 0.00000E+00
 -1       196 4.96500E+01 4.74020E+01 0.00000E+00
 -1       197 5.26500E+01 4.74020E+01 0.00000E+00
 -1       198 5.56500E+01 4.74020E+01 0.00000E+00
 -1       199 5.86500E+01 4.74020E+01 0.00000E+00
 -1       200 6.16500E+01 4.74020E+01 0.00000E+00
 -1       201 6.46500E+01 4.74020E+01 0.00000E+00
 -1       202 6.76500E+01 4.74020E+01 0.00000E+00
 -1       203 7.06500E+01 4.74020E+01 0.00000E+00
 -1       204 7.36500E+01 4.74020E+01 0.00000E+00
 -1       205 7.66500E+01 4.74020E+01 0.00000E+00
 -1       206 7.96500E+01 4.74020E+01 0.00000E+00
 -1       207 8.26500E+01 4.74020E+01 0.00000E+00
 -1       208 8.56500E+01 4.74020E+01 0.00000E+00
 -1       209 8.86500E+01 4.74020E+01 0.00000E+00
 -1       210 9.16500E+01 4.74020E+01 0.00000E+00
 -1       211 9.46500E+01 4.74020E+01 0.00000E+00
 -1       212 9.76500E+01 4.74020E+01 0.00000E+00
 -1       213 1.00650E+02 4.74020E+01 0.00000E+00
 -1       214 1.03650E+02 4.74020E+01 0.00000E+00
 -1       215 1.06650E+02 4.74020E+01 0.00000E+00
 -1       216 1.09650E+02 4.74020E+01 0.00000E+00
 -1       217 1.12650E+02 4.74020E+01 0.00000E+00
 -1       218 1.15650E+02 4.74020E+01 0.00000E+00
 -1       219 1.18650E+02 4.74020E+01 0.00000E+00
 -1       220 1.21650E+02 4.74020E+01 0.00000E+00
 -1       221 1.24650E+02 4.74020E+01 0.00000E+00
 -1       222 1.27650E+02 4.74020E+01 0.00000E+00
 -1       223 1.30650E+02 4.74020E+01 0.00000E+00
 -1       224 1.33650E+02 4.74020E+01 0.00000E+00
 -1       225 1.36650E+02 4.74020E+01 0.00000E+00
 -1       226 1.39650E+02 4.74020E+01 0.00000E+00
 -1       227 1.42650E+02 4.74020E+01 0.00000E+00
 -1       228 1.45650E+02 4.74020E+01 0.00000E+00
 -1       229 5.87400E+00 2.18750E+00 0.00000E+00
 -1       230 8.87400E+00 2.18750E+00 0.00000E+00
 -1       231 1.18740E+01 2.18750E+00 0.00000E+00
 -1       232 1.48740E+01 2.18750E+00 0.00000E+00
 -1       233 1.78740E+01 2.18750E+00 0.00000E+00
 -1       234 2.08740E+01 2.18750E+00 0.00000E+00
 -1       235 2.38740E+01 2.18750E+00 0.00000E+00
 -1       236 2.68740E+01 2.18750E+00 0.00000E+00
 -1       237 2.98740E+01 2.18750E+00 0.00000E+00
 -1       238 3.28740E+01 2.18750E+00 0.00000E+00
 -1       239 3.58740E+01 2.18750E+00 0.00000E+00
 -1       240 3.88740E+01 2.18750E+00 0.00000E+00
 -1       241 4.18740E+01 2.18750E+00 0.00000E+00
 -1       242 4.48740E+01 2.18750E+00 0.00000E+00
 -1       243 4.78740E+01 2.18750E+00 0.00000E+00
 -1       244 5.08740E+01 2.18750E+00 0.00000E+00
 -1       245 5.38740E+01 2.18750E+00 0.00000E+00
 -1       246 5.68740E+01 2.18750E+00 0.00000E+00
 -1       247 5.98740E+01 2.18750E+00 0.00000E+00
 -1       248 6.28740E+01 2.18750E+00 0.00000E+00
 -1       249 6.58740E+01 2.18750E+00 0.00000E+00
 -1       250 6.88740E+01 2.18750E+00 0.00000E+00
 -1       251 7.18740E+01 2.18750E+00 0.00000E+00
 -1       252 7.48740E+01 2.18750E+00 0.00000E+00
 -1       253 7.78740E+01 2.18750E+00 0.00000E+00
 -1       254 8.08740E+01 2.18750E+00 0.00000E+00
 -1       255 8.38740E+01 2.18750E+00 0.00000E+00
 -1       256 8.68740E+01 2.18750E+00 0.00000E+00
 -1       257 8.98740E+01 2.18750E+00 0.00000E+00
 -1       258 9.28740E+01 2.18750E+00 0.00000E+00
 -1       259 9.58740E+01 2.18750E+00 0.00000E+00
 -1       260 9.88740E+01 2.18750E+00 0.00000E+00
 -1       261 1.01874E+02 2.18750E+00 0.00000E+00
 -1       262 1.04874E+02 2.18750E+00 0.00000E+00
 -1       263 1.07874E+02 2.18750E+00 0.00000E+00
 -1       264 1.10874E+02 2.18750E+00 0.00000E+00
 -1       265 1.13874E+02 2.18750E+00 0.00000E+00
 -1       266 1.16874E+02 2.18750E+00 0.00000E+00
 -1       267 1.19874E+02 2.18750E+00 0.00000E+00
 -1       268 1.22874E+02 2.18750E+00 0.00000E+00
 -1       269 1.25874E+02 2.18750E+00 0.00000E+00
 -1       270 1.28874E+02 2.18750E+00 0.00000E+00
 -1       271 1.31874E+02 2.18750E+00 0.00000E+00
 -1       272 1.34874E+02 2.18750E+00 0.00000E+00
 -1       273 1.37874E+02 2.18750E+00 0.00000E+00
 -1       274 1.40874E+02 2.18750E+00 0.00000E+00
 -1       275 1.43874E+02 2.18750E+00 0.00000E+00
 -1       276 1.46874E+02 2.18750E+00 0.00000E+00
 -1       277 1.47402E+02 4.42500E+00 0.00000E+00
 -1       278 1.47402E+02 7.37500E+00 0.00000E+00
 -1       279 1.47402E+02 1.03250E+01 0.00000E+00
 -1       280 1.47402E+02 1.32750E+01 0.00000E+00
 -1       281 1.47402E+02 1.61750E+01 0.00000E+00
 -1       282 1.47402E+02 1.91250E+01 0.00000E+00
 -1       283 1.47402E+02 2.20750E+01 0.00000E+00
 -1       284 1.47402E+02 2.50250E+01 0.00000E+00
 -1       285 1.47402E+02 2.79750E+01 0.00000E+00
 -1       286 1.47402E+02 3.09250E+01 0.00000E+00
 -1       287 1.47402E+02 3.38250E+01 0.00000E+00
 -1       288 1.47402E+02 3.67750E+01 0.00000E+00
 -1       289 1.47402E+02 3.97250E+01 0.00000E+00
 -1       290 1.47402E+02 4.26750E+01 0.00000E+00
 -1       291 1.46526E+02 4.50385E+01 0.00000E+00
 -1       292 4.53806E+01 2.77395E+01 0.00000E+00
 -1       293 4.51448E+01 2.59104E+01 0.00000E+00
 -1       294 4.41803E+01 2.44130E+01 0.00000E+00
 -1       295 4.31453E+01 2.30385E+01 0.00000E+00
 -1       296 4.18383E+01 2.18962E+01 0.00000E+00
 -1       297 4.03049E+01 2.07884E+01 0.00000E+00
 -1       298 3.84440E+01 2.05910E+01 0.00000E+00
 -1       299 3.67284E+01 2.03242E+01 0.00000E+00
 -1       300 3.49072E+01 2.05228E+01 0.00000E+00
 -1       301 3.32450E+01 2.12558E+01 0.00000E+00
 -1       302 3.18369E+01 2.22857E+01 0.00000E+00
 -1       303 3.02822E+01 2.34409E+01 0.00000E+00
 -1       304 2.96660E+01 2.52304E+01 0.00000E+00
 -1       305 2.88000E+01 2.67725E+01 0.00000E+00
 -1       306 2.89163E+01 2.85519E+01 0.00000E+00
 -1       307 2.89911E+01 3.02430E+01 0.00000E+00
 -1       308 2.95590E+01 3.18351E+01 0.00000E+00
 -1       309 3.03473E+01 3.32746E+01 0.00000E+00
 -1       310 3.14325E+01 3.45528E+01 0.00000E+00
 -1       311 3.27391E+01 3.57639E+01 0.00000E+00
 -1       312 3.44410E+01 3.66419E+01 0.00000E+00
 -1       313 3.62601E+01 3.68726E+01 0.00000E+00
 -1       314 3.79071E+01 3.67931E+01 0.00000E+00
 -1       315 3.95818E+01 3.66169E+01 0.00000E+00
 -1       316 4.10429E+01 3.58187E+01 0.00000E+00
 -1       317 4.24120E+01 3.49771E+01 0.00000E+00
 -1       318 4.34735E+01 3.37751E+01 0.00000E+00
 -1       319 4.44125E+01 3.24895E+01 0.00000E+00
 -1       320 4.49354E+01 3.09830E+01 0.00000E+00
 -1       321 4.52355E+01 2.94416E+01 0.00000E+00
 -1       322 5.19600E+00 4.11500E+01 0.00000E+00
 -1       323 5.19600E+00 4.41000E+01 0.00000E+00
 -1       324 5.19600E+00 3.52750E+01 0.00000E+00
 -1       325 5.19600E+00 3.23250E+01 0.00000E+00
 -1       326 5.19600E+00 2.93750E+01 0.00000E+00
 -1       327 5.19600E+00 2.64250E+01 0.00000E+00
 -1       328 5.19600E+00 2.34750E+01 0.00000E+00
 -1       329 5.19600E+00 2.05250E+01 0.00000E+00
 -1       330 5.19600E+00 1.76250E+01 0.00000E+00
 -1       331 5.19600E+00 1.46750E+01 0.00000E+00
 -1       332 5.19600E+00 1.17250E+01 0.00000E+00
 -1       333 5.19600E+00 8.77500E+00 0.00000E+00
 -1       334 5.19600E+00 5.82500E+00 0.00000E+00
 -1       335 5.53500E+00 4.00625E+00 0.00000E+00
 -1       336 8.53500E+00 4.00625E+00 0.00000E+00
 -1       337 9.15000E+00 4.48040E+01 0.00000E+00
 -1       338 1.21500E+01 4.48040E+01 0.00000E+00
 -1       339 1.51500E+01 4.48040E+01 0.00000E+00
 -1       340 1.81500E+01 4.48040E+01 0.00000E+00
 -1       341 2.11500E+01 4.48040E+01 0.00000E+00
 -1       342 2.41500E+01 4.48040E+01 0.00000E+00
 -1       343 2.71500E+01 4.48040E+01 0.00000E+00
 -1       344 3.01500E+01 4.48040E+01 0.00000E+00
 -1       345 3.31500E+01 4.48040E+01 0.00000E+00
 -1       346 3.61500E+01 4.48040E+01 0.00000E+00
 -1       347 3.91500E+01 4.48040E+01 0.00000E+00
 -1       348 4.21500E+01 4.48040E+01 0.00000E+00
 -1       349 4.51500E+01 4.48040E+01 0.00000E+00
 -1       350 4.81500E+01 4.48040E+01 0.00000E+00
 -1       351 5.11500E+01 4.48040E+01 0.00000E+00
 -1       352 5.41500E+01 4.48040E+01 0.00000E+00
 -1       353 5.71500E+01 4.48040E+01 0.00000E+00
 -1       354 6.01500E+01 4.48040E+01 0.00000E+00
 -1       355 6.31500E+01 4.48040E+01 0.00000E+00
 -1       356 6.61500E+01 4.48040E+01 0.00000E+00
 -1       357 6.91500E+01 4.48040E+01 0.00000E+00
 -1       358 7.21500E+01 4.48040E+01 0.00000E+00
 -1       359 7.51500E+01 4.48040E+01 0.00000E+00
 -1       360 7.81500E+01 4.48040E+01 0.00000E+00
 -1       361 8.11500E+01 4.48040E+01 0.00000E+00
 -1       362 8.41500E+01 4.48040E+01 0.00000E+00
 -1       363 8.71500E+01 4.48040E+01 0.00000E+00
 -1       364 9.01500E+01 4.48040E+01 0.00000E+00
 -1       365 9.31500E+01 4.48040E+01 0.00000E+00
 -1       366 9.61500E+01 4.48040E+01 0.00000E+00
 -1       367 9.91500E+01 4.48040E+01 0.00000E+00
 -1       368 1.02150E+02 4.48040E+01 0.00000E+00
 -1       369 1.05150E+02 4.48040E+01 0.00000E+00
 -1       370 1.08150E+02 4.48040E+01 0.00000E+00
 -1       371 1.11150E+02 4.48040E+01 0.00000E+00
 -1       372 1.14150E+02 4.48040E+01 0.00000E+00
 -1       373 1.17150E+02 4.48040E+01 0.00000E+00
 -1       374 1.20150E+02 4.48040E+01 0.00000E+00
 -1       375 1.23150E+02 4.48040E+01 0.00000E+00
 -1       376 1.26150E+02 4.48040E+01 0.00000E+00
 -1       377 1.29150E+02 4.48040E+01 0.00000E+00
 -1       378 1.32150E+02 4.48040E+01 0.00000E+00
 -1       379 1.35150E+02 4.48040E+01 0.00000E+00
 -1       380 1.38150E+02 4.48040E+01 0.00000E+00
 -1       381 1.41150E+02 4.48040E+01 0.00000E+00
 -1       382 1.43838E+02 4.49212E+01 0.00000E+00
 -1       383 1.15350E+01 4.00625E+00 0.00000E+00
 -1       384 1.45350E+01 4.00625E+00 0.00000E+00
 -1       385 1.75350E+01 4.00625E+00 0.00000E+00
 -1       386 2.05350E+01 4.00625E+00 0.00000E+00
 -1       387 2.35350E+01 4.00625E+00 0.00000E+00
 -1       388 2.65350E+01 4.00625E+00 0.00000E+00
 -1       389 2.95350E+01 4.00625E+00 0.00000E+00
 -1       390 3.25350E+01 4.00625E+00 0.00000E+00
 -1       391 3.55350E+01 4.00625E+00 0.00000E+00
 -1       392 3.85350E+01 4.00625E+00 0.00000E+00
 -1       393 4.15350E+01 4.00625E+00 0.00000E+00
 -1       394 4.45350E+01 4.00625E+00 0.00000E+00
 -1       395 4.75350E+01 4.00625E+00 0.00000E+00
 -1       396 5.05350E+01 4.00625E+00 0.00000E+00
 -1       397 5.35350E+01 4.00625E+00 0.00000E+00
 -1       398 5.65350E+01 4.00625E+00 0.00000E+00
 -1       399 5.95350E+01 4.00625E+00 0.00000E+00
 -1       400 6.25350E+01 4.00625E+00 0.00000E+00
 -1       401 6.55350E+01 4.00625E+00 0.00000E+00
 -1       402 6.85350E+01 4.00625E+00 0.00000E+00
 -1       403 7.15350E+01 4.00625E+00 0.00000E+00
 -1       404 7.45350E+01 4.00625E+00 0.00000E+00
 -1       405 7.75350E+01 4.00625E+00 0.00000E+00
 -1       406 8.05350E+01 4.00625E+00 0.00000E+00
 -1       407 8.35350E+01 4.00625E+00 0.00000E+00
 -1       408 8.65350E+01 4.00625E+00 0.00000E+00
 -1       409 8.95350E+01 4.00625E+00 0.00000E+00
 -1       410 9.25350E+01 4.00625E+00 0.00000E+00
 -1       411 9.55350E+01 4.00625E+00 0.00000E+00
 -1       412 9.85350E+01 4.00625E+00 0.00000E+00
 -1       413 1.01535E+02 4.00625E+00 0.00000E+00
 -1       414 1.04535E+02 4.00625E+00 0.00000E+00
 -1       415 1.07535E+02 4.00625E+00 0.00000E+00
 -1       416 1.10535E+02 4.00625E+00 0.00000E+00
 -1       417 1.13535E+02 4.00625E+00 0.00000E+00
 -1       418 1.16535E+02 4.00625E+00 0.00000E+00
 -1       419 1.19535E+02 4.00625E+00 0.00000E+00
 -1       420 1.22535E+02 4.00625E+00 0.00000E+00
 -1       421 1.25535E+02 4.00625E+00 0.00000E+00
 -1       422 1.28535E+02 4.00625E+00 0.00000E+00
 -1       423 1.31535E+02 4.00625E+00 0.00000E+00
 -1       424 1.34535E+02 4.00625E+00 0.00000E+00
 -1       425 1.37535E+02 4.00625E+00 0.00000E+00
 -1       426 1.40535E+02 4.00625E+00 0.00000E+00
 -1       427 1.43535E+02 4.00625E+00 0.00000E+00
 -1       428 1.45469E+02 4.21562E+00 0.00000E+00
 -1       429 1.44804E+02 1.18000E+01 0.00000E+00
 -1       430 1.44804E+02 8.85000E+00 0.00000E+00
 -1       431 1.45136E+02 6.53281E+00 0.00000E+00
 -1       432 1.44804E+02 1.47000E+01 0.00000E+00
 -1       433 1.44804E+02 1.76500E+01 0.00000E+00
 -1       434 1.44804E+02 2.06000E+01 0.00000E+00
 -1       435 1.44804E+02 2.35500E+01 0.00000E+00
 -1       436 1.44804E+02 2.65000E+01 0.00000E+00
 -1       437 1.44804E+02 2.94500E+01 0.00000E+00
 -1       438 1.44804E+02 3.23500E+01 0.00000E+00
 -1       439 1.44804E+02 3.53000E+01 0.00000E+00
 -1       440 1.44804E+02 3.82500E+01 0.00000E+00
 -1       441 1.44804E+02 4.12000E+01 0.00000E+00
 -1       442 4.58227E+01 2.44144E+01 0.00000E+00
 -1       443 4.66830E+01 2.87078E+01 0.00000E+00
 -1       444 4.69638E+01 2.66057E+01 0.00000E+00
 -1       445 4.47652E+01 2.28957E+01 0.00000E+00
 -1       446 4.33999E+01 2.14283E+01 0.00000E+00
 -1       447 5.19600E+00 3.82125E+01 0.00000E+00
 -1       448 3.95465E+01 1.90675E+01 0.00000E+00
 -1       449 3.78309E+01 1.88007E+01 0.00000E+00
 -1       450 3.56500E+01 1.88851E+01 0.00000E+00
 -1       451 3.35532E+01 1.97033E+01 0.00000E+00
 -1       452 3.17263E+01 2.06569E+01 0.00000E+00
 -1       453 3.01716E+01 2.18121E+01 0.00000E+00
 -1       454 2.86693E+01 2.38864E+01 0.00000E+00
 -1       455 2.78033E+01 2.54285E+01 0.00000E+00
 -1       456 2.73139E+01 2.77631E+01 0.00000E+00
 -1       457 2.73887E+01 2.94542E+01 0.00000E+00
 -1       458 2.80542E+01 3.14745E+01 0.00000E+00
 -1       459 2.85958E+01 3.32981E+01 0.00000E+00
 -1       460 2.95824E+01 3.50237E+01 0.00000E+00
 -1       461 3.08890E+01 3.62349E+01 0.00000E+00
 -1       462 3.27269E+01 3.78761E+01 0.00000E+00
 -1       463 3.51348E+01 3.84588E+01 0.00000E+00
 -1       464 3.67818E+01 3.83793E+01 0.00000E+00
 -1       465 3.88889E+01 3.80774E+01 0.00000E+00
 -1       466 4.10543E+01 3.75759E+01 0.00000E+00
 -1       467 4.24233E+01 3.67343E+01 0.00000E+00
 -1       468 4.42283E+01 3.55115E+01 0.00000E+00
 -1       469 4.51672E+01 3.42258E+01 0.00000E+00
 -1       470 4.60567E+01 3.22163E+01 0.00000E+00
 -1       471 4.63568E+01 3.06749E+01 0.00000E+00
 -1       472 4.19778E+01 2.00878E+01 0.00000E+00
 -1       473 4.12194E+01 1.83669E+01 0.00000E+00
 -1       474 2.85587E+01 2.22576E+01 0.00000E+00
 -1       475 1.00350E+01 6.60425E+00 0.00000E+00
 -1       476 7.79400E+00 3.08500E+01 0.00000E+00
 -1       477 7.79400E+00 3.38000E+01 0.00000E+00
 -1       478 7.79400E+00 2.49500E+01 0.00000E+00
 -1       479 7.79400E+00 2.20000E+01 0.00000E+00
 -1       480 7.79400E+00 1.91000E+01 0.00000E+00
 -1       481 7.79400E+00 1.61500E+01 0.00000E+00
 -1       482 7.79400E+00 1.32000E+01 0.00000E+00
 -1       483 7.79400E+00 1.02500E+01 0.00000E+00
 -1       484 1.30350E+01 6.60425E+00 0.00000E+00
 -1       485 1.06500E+01 4.22060E+01 0.00000E+00
 -1       486 4.37503E+01 1.96319E+01 0.00000E+00
 -1       487 1.36500E+01 4.22060E+01 0.00000E+00
 -1       488 1.66500E+01 4.22060E+01 0.00000E+00
 -1       489 1.96500E+01 4.22060E+01 0.00000E+00
 -1       490 2.26500E+01 4.22060E+01 0.00000E+00
 -1       491 2.56500E+01 4.22060E+01 0.00000E+00
 -1       492 2.86500E+01 4.22060E+01 0.00000E+00
 -1       493 3.16500E+01 4.22060E+01 0.00000E+00
 -1       494 3.46500E+01 4.22060E+01 0.00000E+00
 -1       495 3.76500E+01 4.22060E+01 0.00000E+00
 -1       496 4.06500E+01 4.22060E+01 0.00000E+00
 -1       497 4.36500E+01 4.22060E+01 0.00000E+00
 -1       498 4.66500E+01 4.22060E+01 0.00000E+00
 -1       499 4.96500E+01 4.22060E+01 0.00000E+00
 -1       500 5.26500E+01 4.22060E+01 0.00000E+00
 -1       501 5.56500E+01 4.22060E+01 0.00000E+00
 -1       502 5.86500E+01 4.22060E+01 0.00000E+00
 -1       503 6.16500E+01 4.22060E+01 0.00000E+00
 -1       504 6.46500E+01 4.22060E+01 0.00000E+00
 -1       505 6.76500E+01 4.22060E+01 0.00000E+00
 -1       506 7.06500E+01 4.22060E+01 0.00000E+00
 -1       507 7.36500E+01 4.22060E+01 0.00000E+00
 -1       508 7.66500E+01 4.22060E+01 0.00000E+00
 -1       509 7.96500E+01 4.22060E+01 0.00000E+00
 -1       510 8.26500E+01 4.22060E+01 0.00000E+00
 -1       511 8.56500E+01 4.22060E+01 0.00000E+00
 -1       512 8.86500E+01 4.22060E+01 0.00000E+00
 -1       513 9.16500E+01 4.22060E+01 0.00000E+00
 -1       514 9.46500E+01 4.22060E+01 0.00000E+00
 -1       515 9.76500E+01 4.22060E+01 0.00000E+00
 -1       516 1.00650E+02 4.22060E+01 0.00000E+00
 -1       517 1.03650E+02 4.22060E+01 0.00000E+00
 -1       518 1.06650E+02 4.22060E+01 0.00000E+00
 -1       519 1.09650E+02 4.22060E+01 0.00000E+00
 -1       520 1.12650E+02 4.22060E+01 0.00000E+00
 -1       521 1.15650E+02 4.22060E+01 0.00000E+00
 -1       522 1.18650E+02 4.22060E+01 0.00000E+00
 -1       523 1.21650E+02 4.22060E+01 0.00000E+00
 -1       524 1.24650E+02 4.22060E+01 0.00000E+00
 -1       525 1.27650E+02 4.22060E+01 0.00000E+00
 -1       526 1.30650E+02 4.22060E+01 0.00000E+00
 -1       527 1.33650E+02 4.22060E+01 0.00000E+00
 -1       528 1.36650E+02 4.22060E+01 0.00000E+00
 -1       529 1.39650E+02 4.22060E+01 0.00000E+00
 -1       530 1.90350E+01 6.60425E+00 0.00000E+00
 -1       531 2.20350E+01 6.60425E+00 0.00000E+00
 -1       532 2.50350E+01 6.60425E+00 0.00000E+00
 -1       533 2.80350E+01 6.60425E+00 0.00000E+00
 -1       534 3.10350E+01 6.60425E+00 0.00000E+00
 -1       535 3.40350E+01 6.60425E+00 0.00000E+00
 -1       536 3.70350E+01 6.60425E+00 0.00000E+00
 -1       537 4.00350E+01 6.60425E+00 0.00000E+00
 -1       538 4.30350E+01 6.60425E+00 0.00000E+00
 -1       539 4.60350E+01 6.60425E+00 0.00000E+00
 -1       540 4.90350E+01 6.60425E+00 0.00000E+00
 -1       541 5.20350E+01 6.60425E+00 0.00000E+00
 -1       542 5.50350E+01 6.60425E+00 0.00000E+00
 -1       543 5.80350E+01 6.60425E+00 0.00000E+00
 -1       544 6.10350E+01 6.60425E+00 0.00000E+00
 -1       545 6.40350E+01 6.60425E+00 0.00000E+00
 -1       546 6.70350E+01 6.60425E+00 0.00000E+00
 -1       547 7.00350E+01 6.60425E+00 0.00000E+00
 -1       548 7.30350E+01 6.60425E+00 0.00000E+00
 -1       549 7.60350E+01 6.60425E+00 0.00000E+00
 -1       550 7.90350E+01 6.60425E+00 0.00000E+00
 -1       551 8.20350E+01 6.60425E+00 0.00000E+00
 -1       552 8.50350E+01 6.60425E+00 0.00000E+00
 -1       553 8.80350E+01 6.60425E+00 0.00000E+00
 -1       554 9.10350E+01 6.60425E+00 0.00000E+00
 -1       555 9.40350E+01 6.60425E+00 0.00000E+00
 -1       556 9.70350E+01 6.60425E+00 0.00000E+00
 -1       557 1.00035E+02 6.60425E+00 0.00000E+00
 -1       558 1.03035E+02 6.60425E+00 0.00000E+00
 -1       559 1.06035E+02 6.60425E+00 0.00000E+00
 -1       560 1.09035E+02 6.60425E+00 0.00000E+00
 -1       561 1.12035E+02 6.60425E+00 0.00000E+00
 -1       562 1.15035E+02 6.60425E+00 0.00000E+00
 -1       563 1.18035E+02 6.60425E+00 0.00000E+00
 -1       564 1.21035E+02 6.60425E+00 0.00000E+00
 -1       565 1.24035E+02 6.60425E+00 0.00000E+00
 -1       566 1.27035E+02 6.60425E+00 0.00000E+00
 -1       567 1.30035E+02 6.60425E+00 0.00000E+00
 -1       568 1.33035E+02 6.60425E+00 0.00000E+00
 -1       569 1.36035E+02 6.60425E+00 0.00000E+00
 -1       570 1.39035E+02 6.60425E+00 0.00000E+00
 -1       571 1.42035E+02 6.60425E+00 0.00000E+00
 -1       572 1.42206E+02 1.61750E+01 0.00000E+00
 -1       573 1.42206E+02 1.91250E+01 0.00000E+00
 -1       574 1.42206E+02 1.03250E+01 0.00000E+00
 -1       575 1.42206E+02 1.32500E+01 0.00000E+00
 -1       576 1.42206E+02 2.20750E+01 0.00000E+00
 -1       577 1.42206E+02 2.50250E+01 0.00000E+00
 -1       578 1.42206E+02 2.79750E+01 0.00000E+00
 -1       579 1.42206E+02 3.08750E+01 0.00000E+00
 -1       580 1.42206E+02 3.38250E+01 0.00000E+00
 -1       581 1.42206E+02 3.67750E+01 0.00000E+00
 -1       582 1.42206E+02 3.97250E+01 0.00000E+00
 -1       583 4.86895E+01 2.79059E+01 0.00000E+00
 -1       584 4.65640E+01 2.27707E+01 0.00000E+00
 -1       585 1.60350E+01 6.60425E+00 0.00000E+00
 -1       586 4.83633E+01 2.98730E+01 0.00000E+00
 -1       587 4.76915E+01 2.48340E+01 0.00000E+00
 -1       588 4.71803E+01 3.39152E+01 0.00000E+00
 -1       589 3.81023E+01 4.00920E+01 0.00000E+00
 -1       590 3.04423E+01 3.85847E+01 0.00000E+00
 -1       591 2.74547E+01 3.50954E+01 0.00000E+00
 -1       592 3.18461E+01 1.86596E+01 0.00000E+00
 -1       593 7.79400E+00 2.79000E+01 0.00000E+00
 -1       594 3.39430E+01 1.78415E+01 0.00000E+00
 -1       595 3.89394E+01 1.73222E+01 0.00000E+00
 -1       596 2.69218E+01 3.28030E+01 0.00000E+00
 -1       597 3.66676E+01 1.69616E+01 0.00000E+00
 -1       598 2.99760E+01 1.99251E+01 0.00000E+00
 -1       599 2.67409E+01 2.38177E+01 0.00000E+00
 -1       600 2.60440E+01 2.62783E+01 0.00000E+00
 -1       601 2.59727E+01 2.86696E+01 0.00000E+00
 -1       602 3.34487E+01 4.01602E+01 0.00000E+00
 -1       603 2.62516E+01 3.09486E+01 0.00000E+00
 -1       604 2.89485E+01 3.68401E+01 0.00000E+00
 -1       605 4.02677E+01 3.95905E+01 0.00000E+00
 -1       606 3.57755E+01 4.01261E+01 0.00000E+00
 -1       607 4.28125E+01 3.89017E+01 0.00000E+00
 -1       608 4.46174E+01 3.76789E+01 0.00000E+00
 -1       609 4.62181E+01 3.59790E+01 0.00000E+00
 -1       610 4.77718E+01 3.18941E+01 0.00000E+00
 -1       611 7.92300E+00 4.16780E+01 0.00000E+00
 -1       612 7.61550E+00 6.21462E+00 0.00000E+00
 -1       613 4.53382E+01 2.09937E+01 0.00000E+00
 -1       614 7.79400E+00 3.67375E+01 0.00000E+00
 -1       615 4.94173E+01 2.61342E+01 0.00000E+00
 -1       616 2.83631E+01 2.03706E+01 0.00000E+00
 -1       617 4.29919E+01 1.79110E+01 0.00000E+00
 -1       618 1.41678E+02 4.22645E+01 0.00000E+00
 -1       619 1.03920E+01 2.05500E+01 0.00000E+00
 -1       620 1.03920E+01 2.35000E+01 0.00000E+00
 -1       621 1.03920E+01 1.46750E+01 0.00000E+00
 -1       622 1.03920E+01 1.17250E+01 0.00000E+00
 -1       623 1.15350E+01 9.20225E+00 0.00000E+00
 -1       624 2.51313E+01 3.24018E+01 0.00000E+00
 -1       625 1.07220E+01 3.94717E+01 0.00000E+00
 -1       626 1.51500E+01 3.96080E+01 0.00000E+00
 -1       627 1.81500E+01 3.96080E+01 0.00000E+00
 -1       628 2.11500E+01 3.96080E+01 0.00000E+00
 -1       629 2.41500E+01 3.96080E+01 0.00000E+00
 -1       630 2.71500E+01 3.96080E+01 0.00000E+00
 -1       631 4.81500E+01 3.96080E+01 0.00000E+00
 -1       632 5.11500E+01 3.96080E+01 0.00000E+00
 -1       633 5.41500E+01 3.96080E+01 0.00000E+00
 -1       634 5.71500E+01 3.96080E+01 0.00000E+00
 -1       635 6.01500E+01 3.96080E+01 0.00000E+00
 -1       636 6.31500E+01 3.96080E+01 0.00000E+00
 -1       637 6.61500E+01 3.96080E+01 0.00000E+00
 -1       638 6.91500E+01 3.96080E+01 0.00000E+00
 -1       639 7.21500E+01 3.96080E+01 0.00000E+00
 -1       640 7.51500E+01 3.96080E+01 0.00000E+00
 -1       641 7.81500E+01 3.96080E+01 0.00000E+00
 -1       642 8.11500E+01 3.96080E+01 0.00000E+00
 -1       643 8.41500E+01 3.96080E+01 0.00000E+00
 -1       644 8.71500E+01 3.96080E+01 0.00000E+00
 -1       645 9.01500E+01 3.96080E+01 0.00000E+00
 -1       646 9.31500E+01 3.96080E+01 0.00000E+00
 -1       647 9.61500E+01 3.96080E+01 0.00000E+00
 -1       648 9.91500E+01 3.96080E+01 0.00000E+00
 -1       649 1.02150E+02 3.96080E+01 0.00000E+00
 -1       650 1.05150E+02 3.96080E+01 0.00000E+00
 -1       651 1.08150E+02 3.96080E+01 0.00000E+00
 -1       652 1.11150E+02 3.96080E+01 0.00000E+00
 -1       653 1.14150E+02 3.96080E+01 0.00000E+00
 -1       654 1.17150E+02 3.96080E+01 0.00000E+00
 -1       655 1.20150E+02 3.96080E+01 0.00000E+00
 -1       656 1.23150E+02 3.96080E+01 0.00000E+00
 -1       657 1.26150E+02 3.96080E+01 0.00000E+00
 -1       658 1.29150E+02 3.96080E+01 0.00000E+00
 -1       659 1.32150E+02 3.96080E+01 0.00000E+00
 -1       660 1.35150E+02 3.96080E+01 0.00000E+00
 -1       661 1.38150E+02 3.96080E+01 0.00000E+00
 -1       662 2.35350E+01 9.20225E+00 0.00000E+00
 -1       663 1.39206E+02 1.03250E+01 0.00000E+00
 -1       664 2.05350E+01 9.20225E+00 0.00000E+00
 -1       665 2.95350E+01 9.20225E+00 0.00000E+00
 -1       666 3.25350E+01 9.20225E+00 0.00000E+00
 -1       667 3.55350E+01 9.20225E+00 0.00000E+00
 -1       668 3.85350E+01 9.20225E+00 0.00000E+00
 -1       669 4.15350E+01 9.20225E+00 0.00000E+00
 -1       670 4.45350E+01 9.20225E+00 0.00000E+00
 -1       671 4.75350E+01 9.20225E+00 0.00000E+00
 -1       672 5.05350E+01 9.20225E+00 0.00000E+00
 -1       673 5.35350E+01 9.20225E+00 0.00000E+00
 -1       674 5.65350E+01 9.20225E+00 0.00000E+00
 -1       675 5.95350E+01 9.20225E+00 0.00000E+00
 -1       676 6.25350E+01 9.20225E+00 0.00000E+00
 -1       677 6.55350E+01 9.20225E+00 0.00000E+00
 -1       678 6.85350E+01 9.20225E+00 0.00000E+00
 -1       679 7.15350E+01 9.20225E+00 0.00000E+00
 -1       680 7.45350E+01 9.20225E+00 0.00000E+00
 -1       681 7.75350E+01 9.20225E+00 0.00000E+00
 -1       682 8.05350E+01 9.20225E+00 0.00000E+00
 -1       683 8.35350E+01 9.20225E+00 0.00000E+00
 -1       684 8.65350E+01 9.20225E+00 0.00000E+00
 -1       685 8.95350E+01 9.20225E+00 0.00000E+00
 -1       686 9.25350E+01 9.20225E+00 0.00000E+00
 -1       687 9.55350E+01 9.20225E+00 0.00000E+00
 -1       688 9.85350E+01 9.20225E+00 0.00000E+00
 -1       689 1.01535E+02 9.20225E+00 0.00000E+00
 -1       690 1.04535E+02 9.20225E+00 0.00000E+00
 -1       691 1.07535E+02 9.20225E+00 0.00000E+00
 -1       692 1.10535E+02 9.20225E+00 0.00000E+00
 -1       693 1.13535E+02 9.20225E+00 0.00000E+00
 -1       694 1.16535E+02 9.20225E+00 0.00000E+00
 -1       695 1.19535E+02 9.20225E+00 0.00000E+00
 -1       696 1.22535E+02 9.20225E+00 0.00000E+00
 -1       697 1.25535E+02 9.20225E+00 0.00000E+00
 -1       698 1.28535E+02 9.20225E+00 0.00000E+00
 -1       699 1.31535E+02 9.20225E+00 0.00000E+00
 -1       700 1.34535E+02 9.20225E+00 0.00000E+00
 -1       701 1.36870E+02 9.76363E+00 0.00000E+00
 -1       702 4.75009E+01 2.08132E+01 0.00000E+00
 -1       703 1.39608E+02 2.35500E+01 0.00000E+00
 -1       704 1.40178E+02 3.96665E+01 0.00000E+00
 -1       705 1.39608E+02 1.76500E+01 0.00000E+00
 -1       706 1.39608E+02 2.65000E+01 0.00000E+00
 -1       707 1.39608E+02 2.06000E+01 0.00000E+00
 -1       708 1.39608E+02 2.94000E+01 0.00000E+00
 -1       709 1.39608E+02 3.23500E+01 0.00000E+00
 -1       710 1.39608E+02 3.53000E+01 0.00000E+00
 -1       711 4.86284E+01 2.28765E+01 0.00000E+00
 -1       712 5.03837E+01 2.91975E+01 0.00000E+00
 -1       713 2.99499E+01 1.78719E+01 0.00000E+00
 -1       714 1.75350E+01 9.20225E+00 0.00000E+00
 -1       715 2.65350E+01 9.20225E+00 0.00000E+00
 -1       716 1.45350E+01 9.20225E+00 0.00000E+00
 -1       717 2.65329E+01 2.17361E+01 0.00000E+00
 -1       718 4.56608E+01 1.90109E+01 0.00000E+00
 -1       719 4.85574E+01 3.58135E+01 0.00000E+00
 -1       720 4.10033E+01 1.58283E+01 0.00000E+00
 -1       721 1.03920E+01 1.76125E+01 0.00000E+00
 -1       722 2.45810E+01 2.45350E+01 0.00000E+00
 -1       723 2.56642E+01 3.46941E+01 0.00000E+00
 -1       724 1.03920E+01 3.23250E+01 0.00000E+00
 -1       725 2.42940E+01 2.74228E+01 0.00000E+00
 -1       726 3.22102E+01 1.64967E+01 0.00000E+00
 -1       727 2.39108E+01 3.00786E+01 0.00000E+00
 -1       728 3.81249E+01 1.51170E+01 0.00000E+00
 -1       729 3.49348E+01 1.56168E+01 0.00000E+00
 -1       730 4.56337E+01 3.99424E+01 0.00000E+00
 -1       731 1.03920E+01 3.52625E+01 0.00000E+00
 -1       732 1.03920E+01 2.64500E+01 0.00000E+00
 -1       733 2.43730E+01 2.24534E+01 0.00000E+00
 -1       734 1.39608E+02 1.47250E+01 0.00000E+00
 -1       735 4.97922E+01 3.12186E+01 0.00000E+00
 -1       736 2.83370E+01 1.83174E+01 0.00000E+00
 -1       737 3.63921E+01 1.37722E+01 0.00000E+00
 -1       738 5.03542E+01 2.41767E+01 0.00000E+00
 -1       739 5.11115E+01 2.74258E+01 0.00000E+00
 -1       740 4.91489E+01 3.37924E+01 0.00000E+00
 -1       741 1.03920E+01 2.93875E+01 0.00000E+00
 -1       742 4.49024E+01 1.72900E+01 0.00000E+00
 -1       743 2.61111E+01 3.68954E+01 0.00000E+00
 -1       744 1.29900E+01 1.32000E+01 0.00000E+00
 -1       745 1.66500E+01 3.70100E+01 0.00000E+00
 -1       746 1.96500E+01 3.70100E+01 0.00000E+00
 -1       747 2.26500E+01 3.70100E+01 0.00000E+00
 -1       748 1.35210E+01 3.61362E+01 0.00000E+00
 -1       749 5.26500E+01 3.70100E+01 0.00000E+00
 -1       750 5.56500E+01 3.70100E+01 0.00000E+00
 -1       751 5.86500E+01 3.70100E+01 0.00000E+00
 -1       752 6.16500E+01 3.70100E+01 0.00000E+00
 -1       753 6.46500E+01 3.70100E+01 0.00000E+00
 -1       754 6.76500E+01 3.70100E+01 0.00000E+00
 -1       755 7.06500E+01 3.70100E+01 0.00000E+00
 -1       756 7.36500E+01 3.70100E+01 0.00000E+00
 -1       757 7.66500E+01 3.70100E+01 0.00000E+00
 -1       758 7.96500E+01 3.70100E+01 0.00000E+00
 -1       759 8.26500E+01 3.70100E+01 0.00000E+00
 -1       760 8.56500E+01 3.70100E+01 0.00000E+00
 -1       761 8.86500E+01 3.70100E+01 0.00000E+00
 -1       762 9.16500E+01 3.70100E+01 0.00000E+00
 -1       763 9.46500E+01 3.70100E+01 0.00000E+00
 -1       764 9.76500E+01 3.70100E+01 0.00000E+00
 -1       765 1.00650E+02 3.70100E+01 0.00000E+00
 -1       766 1.03650E+02 3.70100E+01 0.00000E+00
 -1       767 1.06650E+02 3.70100E+01 0.00000E+00
 -1       768 1.09650E+02 3.70100E+01 0.00000E+00
 -1       769 1.12650E+02 3.70100E+01 0.00000E+00
 -1       770 1.15650E+02 3.70100E+01 0.00000E+00
 -1       771 1.18650E+02 3.70100E+01 0.00000E+00
 -1       772 1.21650E+02 3.70100E+01 0.00000E+00
 -1       773 1.24650E+02 3.70100E+01 0.00000E+00
 -1       774 1.27650E+02 3.70100E+01 0.00000E+00
 -1       775 1.30650E+02 3.70100E+01 0.00000E+00
 -1       776 1.33650E+02 3.70100E+01 0.00000E+00
 -1       777 1.36650E+02 3.70100E+01 0.00000E+00
 -1       778 2.20350E+01 1.18003E+01 0.00000E+00
 -1       779 3.40350E+01 1.18003E+01 0.00000E+00
 -1       780 3.10350E+01 1.18003E+01 0.00000E+00
 -1       781 4.00350E+01 1.18003E+01 0.00000E+00
 -1       782 4.30350E+01 1.18003E+01 0.00000E+00
 -1       783 4.60350E+01 1.18003E+01 0.00000E+00
 -1       784 4.90350E+01 1.18003E+01 0.00000E+00
 -1       785 5.20350E+01 1.18003E+01 0.00000E+00
 -1       786 5.50350E+01 1.18003E+01 0.00000E+00
 -1       787 5.80350E+01 1.18003E+01 0.00000E+00
 -1       788 6.10350E+01 1.18003E+01 0.00000E+00
 -1       789 6.40350E+01 1.18003E+01 0.00000E+00
 -1       790 6.70350E+01 1.18003E+01 0.00000E+00
 -1       791 7.00350E+01 1.18003E+01 0.00000E+00
 -1       792 7.30350E+01 1.18003E+01 0.00000E+00
 -1       793 7.60350E+01 1.18003E+01 0.00000E+00
 -1       794 7.90350E+01 1.18003E+01 0.00000E+00
 -1       795 8.20350E+01 1.18003E+01 0.00000E+00
 -1       796 8.50350E+01 1.18003E+01 0.00000E+00
 -1       797 8.80350E+01 1.18003E+01 0.00000E+00
 -1       798 9.10350E+01 1.18003E+01 0.00000E+00
 -1       799 9.40350E+01 1.18003E+01 0.00000E+00
 -1       800 9.70350E+01 1.18003E+01 0.00000E+00
 -1       801 1.00035E+02 1.18003E+01 0.00000E+00
 -1       802 1.03035E+02 1.18003E+01 0.00000E+00
 -1       803 1.06035E+02 1.18003E+01 0.00000E+00
 -1       804 1.09035E+02 1.18003E+01 0.00000E+00
 -1       805 1.12035E+02 1.18003E+01 0.00000E+00
 -1       806 1.15035E+02 1.18003E+01 0.00000E+00
 -1       807 1.18035E+02 1.18003E+01 0.00000E+00
 -1       808 1.21035E+02 1.18003E+01 0.00000E+00
 -1       809 1.24035E+02 1.18003E+01 0.00000E+00
 -1       810 1.27035E+02 1.18003E+01 0.00000E+00
 -1       811 1.30035E+02 1.18003E+01 0.00000E+00
 -1       812 1.33035E+02 1.18003E+01 0.00000E+00
 -1       813 1.37010E+02 2.79500E+01 0.00000E+00
 -1       814 1.37010E+02 3.38250E+01 0.00000E+00
 -1       815 1.37010E+02 2.50000E+01 0.00000E+00
 -1       816 3.29425E+01 1.41057E+01 0.00000E+00
 -1       817 3.01014E+01 1.55759E+01 0.00000E+00
 -1       818 4.98638E+01 2.08617E+01 0.00000E+00
 -1       819 4.00157E+01 1.36450E+01 0.00000E+00
 -1       820 1.90350E+01 1.18003E+01 0.00000E+00
 -1       821 1.37010E+02 3.08875E+01 0.00000E+00
 -1       822 3.70350E+01 1.18003E+01 0.00000E+00
 -1       823 1.37625E+01 1.12011E+01 0.00000E+00
 -1       824 2.23973E+01 2.57762E+01 0.00000E+00
 -1       825 2.30027E+01 3.20378E+01 0.00000E+00
 -1       826 2.20141E+01 2.84319E+01 0.00000E+00
 -1       827 2.63222E+01 1.95444E+01 0.00000E+00
 -1       828 2.35356E+01 3.43302E+01 0.00000E+00
 -1       829 4.82500E+01 1.82080E+01 0.00000E+00
 -1       830 1.29900E+01 2.20250E+01 0.00000E+00
 -1       831 4.29137E+01 1.52073E+01 0.00000E+00
 -1       832 1.29900E+01 2.49750E+01 0.00000E+00
 -1       833 2.21893E+01 2.36946E+01 0.00000E+00
 -1       834 4.74916E+01 1.64870E+01 0.00000E+00
 -1       835 1.37010E+02 1.61875E+01 0.00000E+00
 -1       836 5.18949E+01 3.07368E+01 0.00000E+00
 -1       837 1.36940E+02 1.29756E+01 0.00000E+00
 -1       838 2.50350E+01 1.18003E+01 0.00000E+00
 -1       839 1.63988E+01 1.15007E+01 0.00000E+00
 -1       840 2.80350E+01 1.18003E+01 0.00000E+00
 -1       841 1.34988E+02 1.23879E+01 0.00000E+00
 -1       842 1.37010E+02 1.91375E+01 0.00000E+00
 -1       843 1.37010E+02 2.20688E+01 0.00000E+00
 -1       844 5.15895E+01 2.21619E+01 0.00000E+00
 -1       845 5.20484E+01 2.54683E+01 0.00000E+00
 -1       846 5.26226E+01 2.89651E+01 0.00000E+00
 -1       847 2.41623E+01 2.02617E+01 0.00000E+00
 -1       848 2.84886E+01 1.60214E+01 0.00000E+00
 -1       849 1.29900E+01 1.90875E+01 0.00000E+00
 -1       850 2.11060E+01 3.03912E+01 0.00000E+00
 -1       851 1.29900E+01 1.61437E+01 0.00000E+00
 -1       852 1.35210E+01 3.31987E+01 0.00000E+00
 -1       853 1.35210E+01 3.02612E+01 0.00000E+00
 -1       854 2.11500E+01 3.44120E+01 0.00000E+00
 -1       855 5.41500E+01 3.44120E+01 0.00000E+00
 -1       856 5.12516E+01 3.33106E+01 0.00000E+00
 -1       857 5.71500E+01 3.44120E+01 0.00000E+00
 -1       858 6.01500E+01 3.44120E+01 0.00000E+00
 -1       859 6.31500E+01 3.44120E+01 0.00000E+00
 -1       860 6.61500E+01 3.44120E+01 0.00000E+00
 -1       861 6.91500E+01 3.44120E+01 0.00000E+00
 -1       862 7.21500E+01 3.44120E+01 0.00000E+00
 -1       863 7.51500E+01 3.44120E+01 0.00000E+00
 -1       864 7.81500E+01 3.44120E+01 0.00000E+00
 -1       865 8.11500E+01 3.44120E+01 0.00000E+00
 -1       866 8.41500E+01 3.44120E+01 0.00000E+00
 -1       867 8.71500E+01 3.44120E+01 0.00000E+00
 -1       868 9.01500E+01 3.44120E+01 0.00000E+00
 -1       869 9.31500E+01 3.44120E+01 0.00000E+00
 -1       870 9.61500E+01 3.44120E+01 0.00000E+00
 -1       871 9.91500E+01 3.44120E+01 0.00000E+00
 -1       872 1.02150E+02 3.44120E+01 0.00000E+00
 -1       873 1.05150E+02 3.44120E+01 0.00000E+00
 -1       874 1.08150E+02 3.44120E+01 0.00000E+00
 -1       875 1.11150E+02 3.44120E+01 0.00000E+00
 -1       876 1.14150E+02 3.44120E+01 0.00000E+00
 -1       877 1.17150E+02 3.44120E+01 0.00000E+00
 -1       878 1.20150E+02 3.44120E+01 0.00000E+00
 -1       879 1.23150E+02 3.44120E+01 0.00000E+00
 -1       880 1.26150E+02 3.44120E+01 0.00000E+00
 -1       881 1.29150E+02 3.44120E+01 0.00000E+00
 -1       882 1.32150E+02 3.44120E+01 0.00000E+00
 -1       883 1.34580E+02 3.41185E+01 0.00000E+00
 -1       884 4.45350E+01 1.43982E+01 0.00000E+00
 -1       885 5.05350E+01 1.43982E+01 0.00000E+00
 -1       886 5.35350E+01 1.43982E+01 0.00000E+00
 -1       887 5.65350E+01 1.43982E+01 0.00000E+00
 -1       888 5.95350E+01 1.43982E+01 0.00000E+00
 -1       889 6.25350E+01 1.43982E+01 0.00000E+00
 -1       890 6.55350E+01 1.43982E+01 0.00000E+00
 -1       891 6.85350E+01 1.43982E+01 0.00000E+00
 -1       892 7.15350E+01 1.43982E+01 0.00000E+00
 -1       893 7.45350E+01 1.43982E+01 0.00000E+00
 -1       894 7.75350E+01 1.43982E+01 0.00000E+00
 -1       895 8.05350E+01 1.43982E+01 0.00000E+00
 -1       896 8.35350E+01 1.43982E+01 0.00000E+00
 -1       897 8.65350E+01 1.43982E+01 0.00000E+00
 -1       898 8.95350E+01 1.43982E+01 0.00000E+00
 -1       899 9.25350E+01 1.43982E+01 0.00000E+00
 -1       900 9.55350E+01 1.43982E+01 0.00000E+00
 -1       901 9.85350E+01 1.43982E+01 0.00000E+00
 -1       902 1.01535E+02 1.43982E+01 0.00000E+00
 -1       903 1.04535E+02 1.43982E+01 0.00000E+00
 -1       904 1.07535E+02 1.43982E+01 0.00000E+00
 -1       905 1.10535E+02 1.43982E+01 0.00000E+00
 -1       906 1.13535E+02 1.43982E+01 0.00000E+00
 -1       907 1.16535E+02 1.43982E+01 0.00000E+00
 -1       908 1.19535E+02 1.43982E+01 0.00000E+00
 -1       909 1.22535E+02 1.43982E+01 0.00000E+00
 -1       910 1.25535E+02 1.43982E+01 0.00000E+00
 -1       911 1.28535E+02 1.43982E+01 0.00000E+00
 -1       912 1.31535E+02 1.43982E+01 0.00000E+00
 -1       913 2.64737E+01 1.72484E+01 0.00000E+00
 -1       914 2.05350E+01 1.43982E+01 0.00000E+00
 -1       915 3.87210E+01 1.25601E+01 0.00000E+00
 -1       916 1.32555E+01 2.76181E+01 0.00000E+00
 -1       917 1.34412E+02 2.64750E+01 0.00000E+00
 -1       918 4.75350E+01 1.43982E+01 0.00000E+00
 -1       919 5.09518E+01 1.83824E+01 0.00000E+00
 -1       920 1.81500E+01 3.44120E+01 0.00000E+00
 -1       921 2.01765E+01 2.68112E+01 0.00000E+00
 -1       922 1.99685E+01 2.47296E+01 0.00000E+00
 -1       923 2.43139E+01 1.79657E+01 0.00000E+00
 -1       924 1.34412E+02 2.35438E+01 0.00000E+00
 -1       925 1.61190E+01 3.17300E+01 0.00000E+00
 -1       926 1.35057E+02 1.55998E+01 0.00000E+00
 -1       927 1.35057E+02 1.85498E+01 0.00000E+00
 -1       928 1.34412E+02 2.94125E+01 0.00000E+00
 -1       929 1.78988E+01 1.40987E+01 0.00000E+00
 -1       930 1.55880E+01 2.35000E+01 0.00000E+00
 -1       931 5.26776E+01 1.96827E+01 0.00000E+00
 -1       932 2.35350E+01 1.43982E+01 0.00000E+00
 -1       933 1.55880E+01 2.05625E+01 0.00000E+00
 -1       934 1.33296E+02 1.49990E+01 0.00000E+00
 -1       935 5.32837E+01 2.34534E+01 0.00000E+00
 -1       936 5.35595E+01 2.70076E+01 0.00000E+00
 -1       937 1.34496E+02 3.17655E+01 0.00000E+00
 -1       938 2.19786E+01 2.15029E+01 0.00000E+00
 -1       939 5.43102E+01 3.06937E+01 0.00000E+00
 -1       940 5.01934E+01 1.66615E+01 0.00000E+00
 -1       941 1.46944E+01 1.38222E+01 0.00000E+00
 -1       942 1.92684E+01 2.87705E+01 0.00000E+00
 -1       943 5.52472E+01 2.87362E+01 0.00000E+00
 -1       944 1.58535E+01 2.90869E+01 0.00000E+00
 -1       945 5.86500E+01 3.18140E+01 0.00000E+00
 -1       946 6.16500E+01 3.18140E+01 0.00000E+00
 -1       947 6.46500E+01 3.18140E+01 0.00000E+00
 -1       948 6.76500E+01 3.18140E+01 0.00000E+00
 -1       949 7.06500E+01 3.18140E+01 0.00000E+00
 -1       950 7.36500E+01 3.18140E+01 0.00000E+00
 -1       951 7.66500E+01 3.18140E+01 0.00000E+00
 -1       952 7.96500E+01 3.18140E+01 0.00000E+00
 -1       953 8.26500E+01 3.18140E+01 0.00000E+00
 -1       954 8.56500E+01 3.18140E+01 0.00000E+00
 -1       955 8.86500E+01 3.18140E+01 0.00000E+00
 -1       956 9.16500E+01 3.18140E+01 0.00000E+00
 -1       957 9.46500E+01 3.18140E+01 0.00000E+00
 -1       958 9.76500E+01 3.18140E+01 0.00000E+00
 -1       959 1.00650E+02 3.18140E+01 0.00000E+00
 -1       960 1.03650E+02 3.18140E+01 0.00000E+00
 -1       961 1.06650E+02 3.18140E+01 0.00000E+00
 -1       962 1.09650E+02 3.18140E+01 0.00000E+00
 -1       963 1.12650E+02 3.18140E+01 0.00000E+00
 -1       964 1.15650E+02 3.18140E+01 0.00000E+00
 -1       965 1.18650E+02 3.18140E+01 0.00000E+00
 -1       966 1.21650E+02 3.18140E+01 0.00000E+00
 -1       967 1.24650E+02 3.18140E+01 0.00000E+00
 -1       968 1.27650E+02 3.18140E+01 0.00000E+00
 -1       969 1.30650E+02 3.18140E+01 0.00000E+00
 -1       970 1.32573E+02 3.17897E+01 0.00000E+00
 -1       971 5.50350E+01 1.69963E+01 0.00000E+00
 -1       972 6.10350E+01 1.69963E+01 0.00000E+00
 -1       973 6.40350E+01 1.69963E+01 0.00000E+00
 -1       974 6.70350E+01 1.69963E+01 0.00000E+00
 -1       975 7.00350E+01 1.69963E+01 0.00000E+00
 -1       976 7.30350E+01 1.69963E+01 0.00000E+00
 -1       977 7.60350E+01 1.69963E+01 0.00000E+00
 -1       978 7.90350E+01 1.69963E+01 0.00000E+00
 -1       979 8.20350E+01 1.69963E+01 0.00000E+00
 -1       980 8.50350E+01 1.69963E+01 0.00000E+00
 -1       981 8.80350E+01 1.69963E+01 0.00000E+00
 -1       982 9.10350E+01 1.69963E+01 0.00000E+00
 -1       983 9.40350E+01 1.69963E+01 0.00000E+00
 -1       984 9.70350E+01 1.69963E+01 0.00000E+00
 -1       985 1.00035E+02 1.69963E+01 0.00000E+00
 -1       986 1.03035E+02 1.69963E+01 0.00000E+00
 -1       987 1.06035E+02 1.69963E+01 0.00000E+00
 -1       988 1.09035E+02 1.69963E+01 0.00000E+00
 -1       989 1.12035E+02 1.69963E+01 0.00000E+00
 -1       990 1.15035E+02 1.69963E+01 0.00000E+00
 -1       991 1.18035E+02 1.69963E+01 0.00000E+00
 -1       992 1.21035E+02 1.69963E+01 0.00000E+00
 -1       993 1.24035E+02 1.69963E+01 0.00000E+00
 -1       994 1.27035E+02 1.69963E+01 0.00000E+00
 -1       995 1.30035E+02 1.69963E+01 0.00000E+00
 -1       996 2.63276E+01 1.47406E+01 0.00000E+00
 -1       997 1.87092E+01 3.15912E+01 0.00000E+00
 -1       998 1.34735E+02 2.10468E+01 0.00000E+00
 -1       999 1.58535E+01 2.61431E+01 0.00000E+00
 -1      1000 5.80350E+01 1.69963E+01 0.00000E+00
 -1      1001 1.55880E+01 1.76187E+01 0.00000E+00
 -1      1002 1.31814E+02 2.79438E+01 0.00000E+00
 -1      1003 2.21302E+01 1.92069E+01 0.00000E+00
 -1      1004 1.31814E+02 2.50125E+01 0.00000E+00
 -1      1005 5.47949E+01 2.49928E+01 0.00000E+00
 -1      1006 1.83057E+01 2.45619E+01 0.00000E+00
 -1      1007 1.97577E+01 2.25379E+01 0.00000E+00
 -1      1008 1.89235E+01 1.68299E+01 0.00000E+00
 -1      1009 1.33296E+02 1.79490E+01 0.00000E+00
 -1      1010 5.43718E+01 2.09742E+01 0.00000E+00
 -1      1011 5.20350E+01 1.69963E+01 0.00000E+00
 -1      1012 1.77102E+01 2.68582E+01 0.00000E+00
 -1      1013 1.31666E+02 1.74726E+01 0.00000E+00
 -1      1014 6.01500E+01 2.92160E+01 0.00000E+00
 -1      1015 6.31500E+01 2.92160E+01 0.00000E+00
 -1      1016 6.61500E+01 2.92160E+01 0.00000E+00
 -1      1017 6.91500E+01 2.92160E+01 0.00000E+00
 -1      1018 7.21500E+01 2.92160E+01 0.00000E+00
 -1      1019 7.51500E+01 2.92160E+01 0.00000E+00
 -1      1020 7.81500E+01 2.92160E+01 0.00000E+00
 -1      1021 8.11500E+01 2.92160E+01 0.00000E+00
 -1      1022 8.41500E+01 2.92160E+01 0.00000E+00
 -1      1023 8.71500E+01 2.92160E+01 0.00000E+00
 -1      1024 9.01500E+01 2.92160E+01 0.00000E+00
 -1      1025 9.31500E+01 2.92160E+01 0.00000E+00
 -1      1026 9.61500E+01 2.92160E+01 0.00000E+00
 -1      1027 9.91500E+01 2.92160E+01 0.00000E+00
 -1      1028 1.02150E+02 2.92160E+01 0.00000E+00
 -1      1029 1.05150E+02 2.92160E+01 0.00000E+00
 -1      1030 1.08150E+02 2.92160E+01 0.00000E+00
 -1      1031 1.11150E+02 2.92160E+01 0.00000E+00
 -1      1032 1.14150E+02 2.92160E+01 0.00000E+00
 -1      1033 1.17150E+02 2.92160E+01 0.00000E+00
 -1      1034 1.20150E+02 2.92160E+01 0.00000E+00
 -1      1035 1.23150E+02 2.92160E+01 0.00000E+00
 -1      1036 1.26150E+02 2.92160E+01 0.00000E+00
 -1      1037 1.29150E+02 2.92160E+01 0.00000E+00
 -1      1038 6.55350E+01 1.95942E+01 0.00000E+00
 -1      1039 5.71183E+01 2.87819E+01 0.00000E+00
 -1      1040 6.25350E+01 1.95942E+01 0.00000E+00
 -1      1041 7.15350E+01 1.95942E+01 0.00000E+00
 -1      1042 7.45350E+01 1.95942E+01 0.00000E+00
 -1      1043 7.75350E+01 1.95942E+01 0.00000E+00
 -1      1044 8.05350E+01 1.95942E+01 0.00000E+00
 -1      1045 8.35350E+01 1.95942E+01 0.00000E+00
 -1      1046 8.65350E+01 1.95942E+01 0.00000E+00
 -1      1047 8.95350E+01 1.95942E+01 0.00000E+00
 -1      1048 9.25350E+01 1.95942E+01 0.00000E+00
 -1      1049 9.55350E+01 1.95942E+01 0.00000E+00
 -1      1050 9.85350E+01 1.95942E+01 0.00000E+00
 -1      1051 1.01535E+02 1.95942E+01 0.00000E+00
 -1      1052 1.04535E+02 1.95942E+01 0.00000E+00
 -1      1053 1.07535E+02 1.95942E+01 0.00000E+00
 -1      1054 1.10535E+02 1.95942E+01 0.00000E+00
 -1      1055 1.13535E+02 1.95942E+01 0.00000E+00
 -1      1056 1.16535E+02 1.95942E+01 0.00000E+00
 -1      1057 1.19535E+02 1.95942E+01 0.00000E+00
 -1      1058 1.22535E+02 1.95942E+01 0.00000E+00
 -1      1059 1.25535E+02 1.95942E+01 0.00000E+00
 -1      1060 1.28535E+02 1.95942E+01 0.00000E+00
 -1      1061 1.87852E+01 1.92023E+01 0.00000E+00
 -1      1062 5.65350E+01 1.95942E+01 0.00000E+00
 -1      1063 5.64825E+01 2.67213E+01 0.00000E+00
 -1      1064 5.95350E+01 1.95942E+01 0.00000E+00
 -1      1065 6.85350E+01 1.95942E+01 0.00000E+00
 -1      1066 1.29216E+02 2.64781E+01 0.00000E+00
 -1      1067 5.58829E+01 2.25136E+01 0.00000E+00
 -1      1068 1.32973E+02 2.04460E+01 0.00000E+00
 -1      1069 1.30166E+02 2.00706E+01 0.00000E+00
 -1      1070 1.32394E+02 2.27292E+01 0.00000E+00
 -1      1071 5.95142E+01 2.71554E+01 0.00000E+00
 -1      1072 6.25142E+01 2.71554E+01 0.00000E+00
 -1      1073 6.10350E+01 2.21922E+01 0.00000E+00
 -1      1074 5.84590E+01 2.23529E+01 0.00000E+00
 -1      1075 6.55142E+01 2.71554E+01 0.00000E+00
 -1      1076 6.85142E+01 2.71554E+01 0.00000E+00
 -1      1077 7.15142E+01 2.71554E+01 0.00000E+00
 -1      1078 7.45142E+01 2.71554E+01 0.00000E+00
 -1      1079 7.75142E+01 2.71554E+01 0.00000E+00
 -1      1080 8.05142E+01 2.71554E+01 0.00000E+00
 -1      1081 8.35142E+01 2.71554E+01 0.00000E+00
 -1      1082 8.65142E+01 2.71554E+01 0.00000E+00
 -1      1083 8.95142E+01 2.71554E+01 0.00000E+00
 -1      1084 9.25142E+01 2.71554E+01 0.00000E+00
 -1      1085 9.55142E+01 2.71554E+01 0.00000E+00
 -1      1086 9.85142E+01 2.71554E+01 0.00000E+00
 -1      1087 1.01514E+02 2.71554E+01 0.00000E+00
 -1      1088 1.04514E+02 2.71554E+01 0.00000E+00
 -1      1089 1.07514E+02 2.71554E+01 0.00000E+00
 -1      1090 1.10514E+02 2.71554E+01 0.00000E+00
 -1      1091 1.13514E+02 2.71554E+01 0.00000E+00
 -1      1092 1.16514E+02 2.71554E+01 0.00000E+00
 -1      1093 1.19514E+02 2.71554E+01 0.00000E+00
 -1      1094 1.22514E+02 2.71554E+01 0.00000E+00
 -1      1095 1.25514E+02 2.71554E+01 0.00000E+00
 -1      1096 1.27365E+02 2.68168E+01 0.00000E+00
 -1      1097 6.70350E+01 2.21922E+01 0.00000E+00
 -1      1098 6.40350E+01 2.21922E+01 0.00000E+00
 -1      1099 7.60350E+01 2.21922E+01 0.00000E+00
 -1      1100 7.30350E+01 2.21922E+01 0.00000E+00
 -1      1101 8.20350E+01 2.21922E+01 0.00000E+00
 -1      1102 8.50350E+01 2.21922E+01 0.00000E+00
 -1      1103 8.80350E+01 2.21922E+01 0.00000E+00
 -1      1104 9.10350E+01 2.21922E+01 0.00000E+00
 -1      1105 9.40350E+01 2.21922E+01 0.00000E+00
 -1      1106 9.70350E+01 2.21922E+01 0.00000E+00
 -1      1107 1.00035E+02 2.21922E+01 0.00000E+00
 -1      1108 1.03035E+02 2.21922E+01 0.00000E+00
 -1      1109 1.06035E+02 2.21922E+01 0.00000E+00
 -1      1110 1.09035E+02 2.21922E+01 0.00000E+00
 -1      1111 1.12035E+02 2.21922E+01 0.00000E+00
 -1      1112 1.15035E+02 2.21922E+01 0.00000E+00
 -1      1113 1.18035E+02 2.21922E+01 0.00000E+00
 -1      1114 1.21035E+02 2.21922E+01 0.00000E+00
 -1      1115 1.24035E+02 2.21922E+01 0.00000E+00
 -1      1116 1.27035E+02 2.21922E+01 0.00000E+00
 -1      1117 5.76986E+01 2.48345E+01 0.00000E+00
 -1      1118 7.90350E+01 2.21922E+01 0.00000E+00
 -1      1119 7.00350E+01 2.21922E+01 0.00000E+00
 -1      1120 1.29238E+02 2.34825E+01 0.00000E+00
 -1      1121 1.27200E+02 2.45045E+01 0.00000E+00
 -1      1122 6.10142E+01 2.45574E+01 0.00000E+00
 -1      1123 6.85350E+01 2.47903E+01 0.00000E+00
 -1      1124 8.95350E+01 2.47903E+01 0.00000E+00
 -1      1125 7.30142E+01 2.45574E+01 0.00000E+00
 -1      1126 9.40142E+01 2.45574E+01 0.00000E+00
 -1      1127 6.47746E+01 2.46738E+01 0.00000E+00
 -1      1128 0.00000E+00 4.85250E+01 0.00000E+00
 -1      1129 0.00000E+00 4.55750E+01 0.00000E+00
 -1      1130 0.00000E+00 4.26250E+01 0.00000E+00
 -1      1131 0.00000E+00 3.96750E+01 0.00000E+00
 -1      1132 0.00000E+00 3.67250E+01 0.00000E+00
 -1      1133 0.00000E+00 3.38000E+01 0.00000E+00
 -1      1134 0.00000E+00 3.08750E+01 0.00000E+00
 -1      1135 0.00000E+00 2.79250E+01 0.00000E+00
 -1      1136 0.00000E+00 2.49750E+01 0.00000E+00
 -1      1137 0.00000E+00 2.20250E+01 0.00000E+00
 -1      1138 0.00000E+00 1.90750E+01 0.00000E+00
 -1      1139 0.00000E+00 1.61500E+01 0.00000E+00
 -1      1140 0.00000E+00 1.32250E+01 0.00000E+00
 -1      1141 0.00000E+00 1.02750E+01 0.00000E+00
 -1      1142 0.00000E+00 7.32500E+00 0.00000E+00
 -1      1143 0.00000E+00 4.37500E+00 0.00000E+00
 -1      1144 0.00000E+00 1.45000E+00 0.00000E+00
 -1      1145 1.57500E+00 5.00000E+01 0.00000E+00
 -1      1146 4.65000E+00 5.00000E+01 0.00000E+00
 -1      1147 7.65000E+00 5.00000E+01 0.00000E+00
 -1      1148 1.06500E+01 5.00000E+01 0.00000E+00
 -1      1149 1.36500E+01 5.00000E+01 0.00000E+00
 -1      1150 1.66500E+01 5.00000E+01 0.00000E+00
 -1      1151 1.96500E+01 5.00000E+01 0.00000E+00
 -1      1152 2.26500E+01 5.00000E+01 0.00000E+00
 -1      1153 2.56500E+01 5.00000E+01 0.00000E+00
 -1      1154 2.86500E+01 5.00000E+01 0.00000E+00
 -1      1155 3.16500E+01 5.00000E+01 0.00000E+00
 -1      1156 3.46500E+01 5.00000E+01 0.00000E+00
 -1      1157 3.76500E+01 5.00000E+01 0.00000E+00
 -1      1158 4.06500E+01 5.00000E+01 0.00000E+00
 -1      1159 4.36500E+01 5.00000E+01 0.00000E+00
 -1      1160 4.66500E+01 5.00000E+01 0.00000E+00
 -1      1161 4.96500E+01 5.00000E+01 0.00000E+00
 -1      1162 5.26500E+01 5.00000E+01 0.00000E+00
 -1      1163 5.56500E+01 5.00000E+01 0.00000E+00
 -1      1164 5.86500E+01 5.00000E+01 0.00000E+00
 -1      1165 6.16500E+01 5.00000E+01 0.00000E+00
 -1      1166 6.46500E+01 5.00000E+01 0.00000E+00
 -1      1167 6.76500E+01 5.00000E+01 0.00000E+00
 -1      1168 7.06500E+01 5.00000E+01 0.00000E+00
 -1      1169 7.36500E+01 5.00000E+01 0.00000E+00
 -1      1170 7.66500E+01 5.00000E+01 0.00000E+00
 -1      1171 7.96500E+01 5.00000E+01 0.00000E+00
 -1      1172 8.26500E+01 5.00000E+01 0.00000E+00
 -1      1173 8.56500E+01 5.00000E+01 0.00000E+00
 -1      1174 8.86500E+01 5.00000E+01 0.00000E+00
 -1      1175 9.16500E+01 5.00000E+01 0.00000E+00
 -1      1176 9.46500E+01 5.00000E+01 0.00000E+00
 -1      1177 9.76500E+01 5.00000E+01 0.00000E+00
 -1      1178 1.00650E+02 5.00000E+01 0.00000E+00
 -1      1179 1.03650E+02 5.00000E+01 0.00000E+00
 -1      1180 1.06650E+02 5.00000E+01 0.00000E+00
 -1      1181 1.09650E+02 5.00000E+01 0.00000E+00
 -1      1182 1.12650E+02 5.00000E+01 0.00000E+00
 -1      1183 1.15650E+02 5.00000E+01 0.00000E+00
 -1      1184 1.18650E+02 5.00000E+01 0.00000E+00
 -1      1185 1.21650E+02 5.00000E+01 0.00000E+00
 -1      1186 1.24650E+02 5.00000E+01 0.00000E+00
 -1      1187 1.27650E+02 5.00000E+01 0.00000E+00
 -1      1188 1.30650E+02 5.00000E+01 0.00000E+00
 -1      1189 1.33650E+02 5.00000E+01 0.00000E+00
 -1      1190 1.36650E+02 5.00000E+01 0.00000E+00
 -1      1191 1.39650E+02 5.00000E+01 0.00000E+00
 -1      1192 1.42650E+02 5.00000E+01 0.00000E+00
 -1      1193 1.45650E+02 5.00000E+01 0.00000E+00
 -1      1194 1.48575E+02 5.00000E+01 0.00000E+00
 -1      1195 1.57500E+00 0.00000E+00 0.00000E+00
 -1      1196 4.65000E+00 0.00000E+00 0.00000E+00
 -1      1197 7.65000E+00 0.00000E+00 0.00000E+00
 -1      1198 1.06500E+01 0.00000E+00 0.00000E+00
 -1      1199 1.36500E+01 0.00000E+00 0.00000E+00
 -1      1200 1.66500E+01 0.00000E+00 0.00000E+00
 -1      1201 1.96500E+01 0.00000E+00 0.00000E+00
 -1      1202 2.26500E+01 0.00000E+00 0.00000E+00
 -1      1203 2.56500E+01 0.00000E+00 0.00000E+00
 -1      1204 2.86500E+01 0.00000E+00 0.00000E+00
 -1      1205 3.16500E+01 0.00000E+00 0.00000E+00
 -1      1206 3.46500E+01 0.00000E+00 0.00000E+00
 -1      1207 3.76500E+01 0.00000E+00 0.00000E+00
 -1      1208 4.06500E+01 0.00000E+00 0.00000E+00
 -1      1209 4.36500E+01 0.00000E+00 0.00000E+00
 -1      1210 4.66500E+01 0.00000E+00 0.00000E+00
 -1      1211 4.96500E+01 0.00000E+00 0.00000E+00
 -1      1212 5.26500E+01 0.00000E+00 0.00000E+00
 -1      1213 5.56500E+01 0.00000E+00 0.00000E+00
 -1      1214 5.86500E+01 0.00000E+00 0.00000E+00
 -1      1215 6.16500E+01 0.00000E+00 0.00000E+00
 -1      1216 6.46500E+01 0.00000E+00 0.00000E+00
 -1      1217 6.76500E+01 0.00000E+00 0.00000E+00
 -1      1218 7.06500E+01 0.00000E+00 0.00000E+00
 -1      1219 7.36500E+01 0.00000E+00 0.00000E+00
 -1      1220 7.66500E+01 0.00000E+00 0.00000E+00
 -1      1221 7.96500E+01 0.00000E+00 0.00000E+00
 -1      1222 8.26500E+01 0.00000E+00 0.00000E+00
 -1      1223 8.56500E+01 0.00000E+00 0.00000E+00
 -1      1224 8.86500E+01 0.00000E+00 0.00000E+00
 -1      1225 9.16500E+01 0.00000E+00 0.00000E+00
 -1      1226 9.46500E+01 0.00000E+00 0.00000E+00
 -1      1227 9.76500E+01 0.00000E+00 0.00000E+00
 -1      1228 1.00650E+02 0.00000E+00 0.00000E+00
 -1      1229 1.03650E+02 0.00000E+00 0.00000E+00
 -1      1230 1.06650E+02 0.00000E+00 0.00000E+00
 -1      1231 1.09650E+02 0.00000E+00 0.00000E+00
 -1      1232 1.12650E+02 0.00000E+00 0.00000E+00
 -1      1233 1.15650E+02 0.00000E+00 0.00000E+00
 -1      1234 1.18650E+02 0.00000E+00 0.00000E+00
 -1      1235 1.21650E+02 0.00000E+00 0.00000E+00
 -1      1236 1.24650E+02 0.00000E+00 0.00000E+00
 -1      1237 1.27650E+02 0.00000E+00 0.00000E+00
 -1      1238 1.30650E+02 0.00000E+00 0.00000E+00
 -1      1239 1.33650E+02 0.00000E+00 0.00000E+00
 -1      1240 1.36650E+02 0.00000E+00 0.00000E+00
 -1      1241 1.39650E+02 0.00000E+00 0.00000E+00
 -1      1242 1.42650E+02 0.00000E+00 0.00000E+00
 -1      1243 1.45650E+02 0.00000E+00 0.00000E+00
 -1      1244 1.48575E+02 0.00000E+00 0.00000E+00
 -1      1245 1.50000E+02 1.47500E+00 0.00000E+00
 -1      1246 1.50000E+02 4.42500E+00 0.00000E+00
 -1      1247 1.50000E+02 7.37500E+00 0.00000E+00
 -1      1248 1.50000E+02 1.03250E+01 0.00000E+00
 -1      1249 1.50000E+02 1.32750E+01 0.00000E+00
 -1      1250 1.50000E+02 1.62000E+01 0.00000E+00
 -1      1251 1.50000E+02 1.91250E+01 0.00000E+00
 -1      1252 1.50000E+02 2.20750E+01 0.00000E+00
 -1      1253 1.50000E+02 2.50250E+01 0.00000E+00
 -1      1254 1.50000E+02 2.79750E+01 0.00000E+00
 -1      1255 1.50000E+02 3.09250E+01 0.00000E+00
 -1      1256 1.50000E+02 3.38500E+01 0.00000E+00
 -1      1257 1.50000E+02 3.67750E+01 0.00000E+00
 -1      1258 1.50000E+02 3.97250E+01 0.00000E+00
 -1      1259 1.50000E+02 4.26750E+01 0.00000E+00
 -1      1260 1.50000E+02 4.56250E+01 0.00000E+00
 -1      1261 1.50000E+02 4.85500E+01 0.00000E+00
 -1      1262 4.40511E+01 2.78864E+01 0.00000E+00
 -1      1263 4.37190E+01 2.63965E+01 0.00000E+00
 -1      1264 4.30996E+01 2.50599E+01 0.00000E+00
 -1      1265 4.22243E+01 2.38934E+01 0.00000E+00
 -1      1266 4.11154E+01 2.29259E+01 0.00000E+00
 -1      1267 3.97391E+01 2.21744E+01 0.00000E+00
 -1      1268 3.82496E+01 2.17513E+01 0.00000E+00
 -1      1269 3.67870E+01 2.16619E+01 0.00000E+00
 -1      1270 3.52762E+01 2.18952E+01 0.00000E+00
 -1      1271 3.38635E+01 2.24449E+01 0.00000E+00
 -1      1272 3.26379E+01 2.32563E+01 0.00000E+00
 -1      1273 3.15352E+01 2.44001E+01 0.00000E+00
 -1      1274 3.07366E+01 2.57241E+01 0.00000E+00
 -1      1275 3.02671E+01 2.71056E+01 0.00000E+00
 -1      1276 3.00940E+01 2.85668E+01 0.00000E+00
 -1      1277 3.02241E+01 3.00013E+01 0.00000E+00
 -1      1278 3.06443E+01 3.13771E+01 0.00000E+00
 -1      1279 3.13177E+01 3.26100E+01 0.00000E+00
 -1      1280 3.22460E+01 3.37052E+01 0.00000E+00
 -1      1281 3.34371E+01 3.46244E+01 0.00000E+00
 -1      1282 3.48872E+01 3.52984E+01 0.00000E+00
 -1      1283 3.63872E+01 3.56195E+01 0.00000E+00
 -1      1284 3.77898E+01 3.56204E+01 0.00000E+00
 -1      1285 3.91816E+01 3.53365E+01 0.00000E+00
 -1      1286 4.04731E+01 3.47852E+01 0.00000E+00
 -1      1287 4.15998E+01 3.40117E+01 0.00000E+00
 -1      1288 4.25529E+01 3.30363E+01 0.00000E+00
 -1      1289 4.32941E+01 3.19036E+01 0.00000E+00
 -1      1290 4.38040E+01 3.06471E+01 0.00000E+00
 -1      1291 4.40610E+01 2.93282E+01 0.00000E+00
 -1      1292 1.57500E+00 4.85250E+01 0.00000E+00
 -1      1293 1.29900E+00 4.48375E+01 0.00000E+00
 -1      1294 1.29900E+00 4.63125E+01 0.00000E+00
 -1      1295 1.29900E+00 4.18875E+01 0.00000E+00
 -1      1296 1.29900E+00 4.33625E+01 0.00000E+00
 -1      1297 2.59800E+00 4.41000E+01 0.00000E+00
 -1      1298 1.29900E+00 3.89375E+01 0.00000E+00
 -1      1299 1.29900E+00 4.04125E+01 0.00000E+00
 -1      1300 2.59800E+00 4.11500E+01 0.00000E+00
 -1      1301 1.29900E+00 3.59875E+01 0.00000E+00
 -1      1302 1.29900E+00 3.74625E+01 0.00000E+00
 -1      1303 2.59800E+00 3.82000E+01 0.00000E+00
 -1      1304 1.29900E+00 3.30875E+01 0.00000E+00
 -1      1305 1.29900E+00 3.45375E+01 0.00000E+00
 -1      1306 2.59800E+00 3.52750E+01 0.00000E+00
 -1      1307 1.29900E+00 3.01375E+01 0.00000E+00
 -1      1308 1.29900E+00 3.16125E+01 0.00000E+00
 -1      1309 2.59800E+00 3.23500E+01 0.00000E+00
 -1      1310 1.29900E+00 2.71875E+01 0.00000E+00
 -1      1311 1.29900E+00 2.86625E+01 0.00000E+00
 -1      1312 2.59800E+00 2.94000E+01 0.00000E+00
 -1      1313 1.29900E+00 2.42375E+01 0.00000E+00
 -1      1314 1.29900E+00 2.57125E+01 0.00000E+00
 -1      1315 2.59800E+00 2.64500E+01 0.00000E+00
 -1      1316 1.29900E+00 2.12875E+01 0.00000E+00
 -1      1317 1.29900E+00 2.27625E+01 0.00000E+00
 -1      1318 2.59800E+00 2.35000E+01 0.00000E+00
 -1      1319 1.29900E+00 1.83375E+01 0.00000E+00
 -1      1320 1.29900E+00 1.98125E+01 0.00000E+00
 -1      1321 2.59800E+00 2.05500E+01 0.00000E+00
 -1      1322 1.29900E+00 1.54375E+01 0.00000E+00
 -1      1323 1.29900E+00 1.68875E+01 0.00000E+00
 -1      1324 2.59800E+00 1.76250E+01 0.00000E+00
 -1      1325 1.29900E+00 1.24875E+01 0.00000E+00
 -1      1326 1.29900E+00 1.39625E+01 0.00000E+00
 -1      1327 2.59800E+00 1.47000E+01 0.00000E+00
 -1      1328 1.29900E+00 9.53750E+00 0.00000E+00
 -1      1329 1.29900E+00 1.10125E+01 0.00000E+00
 -1      1330 2.59800E+00 1.17500E+01 0.00000E+00
 -1      1331 1.29900E+00 6.58750E+00 0.00000E+00
 -1      1332 1.29900E+00 8.06250E+00 0.00000E+00
 -1      1333 2.59800E+00 8.80000E+00 0.00000E+00
 -1      1334 1.29900E+00 3.63750E+00 0.00000E+00
 -1      1335 1.29900E+00 5.11250E+00 0.00000E+00
 -1      1336 2.59800E+00 5.85000E+00 0.00000E+00
 -1      1337 1.43700E+00 1.09375E+00 0.00000E+00
 -1      1338 1.43700E+00 2.54375E+00 0.00000E+00
 -1      1339 2.73600E+00 3.28125E+00 0.00000E+00
 -1      1340 3.01200E+00 1.09375E+00 0.00000E+00
 -1      1341 3.90000E+00 4.87010E+01 0.00000E+00
 -1      1342 5.40000E+00 4.87010E+01 0.00000E+00
 -1      1343 6.90000E+00 4.87010E+01 0.00000E+00
 -1      1344 8.40000E+00 4.87010E+01 0.00000E+00
 -1      1345 6.15000E+00 4.74020E+01 0.00000E+00
 -1      1346 9.90000E+00 4.87010E+01 0.00000E+00
 -1      1347 1.14000E+01 4.87010E+01 0.00000E+00
 -1      1348 9.15000E+00 4.74020E+01 0.00000E+00
 -1      1349 1.29000E+01 4.87010E+01 0.00000E+00
 -1      1350 1.44000E+01 4.87010E+01 0.00000E+00
 -1      1351 1.21500E+01 4.74020E+01 0.00000E+00
 -1      1352 1.59000E+01 4.87010E+01 0.00000E+00
 -1      1353 1.74000E+01 4.87010E+01 0.00000E+00
 -1      1354 1.51500E+01 4.74020E+01 0.00000E+00
 -1      1355 1.89000E+01 4.87010E+01 0.00000E+00
 -1      1356 2.04000E+01 4.87010E+01 0.00000E+00
 -1      1357 1.81500E+01 4.74020E+01 0.00000E+00
 -1      1358 2.19000E+01 4.87010E+01 0.00000E+00
 -1      1359 2.34000E+01 4.87010E+01 0.00000E+00
 -1      1360 2.11500E+01 4.74020E+01 0.00000E+00
 -1      1361 2.49000E+01 4.87010E+01 0.00000E+00
 -1      1362 2.64000E+01 4.87010E+01 0.00000E+00
 -1      1363 2.41500E+01 4.74020E+01 0.00000E+00
 -1      1364 2.79000E+01 4.87010E+01 0.00000E+00
 -1      1365 2.94000E+01 4.87010E+01 0.00000E+00
 -1      1366 2.71500E+01 4.74020E+01 0.00000E+00
 -1      1367 3.09000E+01 4.87010E+01 0.00000E+00
 -1      1368 3.24000E+01 4.87010E+01 0.00000E+00
 -1      1369 3.01500E+01 4.74020E+01 0.00000E+00
 -1      1370 3.39000E+01 4.87010E+01 0.00000E+00
 -1      1371 3.54000E+01 4.87010E+01 0.00000E+00
 -1      1372 3.31500E+01 4.74020E+01 0.00000E+00
 -1      1373 3.69000E+01 4.87010E+01 0.00000E+00
 -1      1374 3.84000E+01 4.87010E+01 0.00000E+00
 -1      1375 3.61500E+01 4.74020E+01 0.00000E+00
 -1      1376 3.99000E+01 4.87010E+01 0.00000E+00
 -1      1377 4.14000E+01 4.87010E+01 0.00000E+00
 -1      1378 3.91500E+01 4.74020E+01 0.00000E+00
 -1      1379 4.29000E+01 4.87010E+01 0.00000E+00
 -1      1380 4.44000E+01 4.87010E+01 0.00000E+00
 -1      1381 4.21500E+01 4.74020E+01 0.00000E+00
 -1      1382 4.59000E+01 4.87010E+01 0.00000E+00
 -1      1383 4.74000E+01 4.87010E+01 0.00000E+00
 -1      1384 4.51500E+01 4.74020E+01 0.00000E+00
 -1      1385 4.89000E+01 4.87010E+01 0.00000E+00
 -1      1386 5.04000E+01 4.87010E+01 0.00000E+00
 -1      1387 4.81500E+01 4.74020E+01 0.00000E+00
 -1      1388 5.19000E+01 4.87010E+01 0.00000E+00
 -1      1389 5.34000E+01 4.87010E+01 0.00000E+00
 -1      1390 5.11500E+01 4.74020E+01 0.00000E+00
 -1      1391 5.49000E+01 4.87010E+01 0.00000E+00
 -1      1392 5.64000E+01 4.87010E+01 0.00000E+00
 -1      1393 5.41500E+01 4.74020E+01 0.00000E+00
 -1      1394 5.79000E+01 4.87010E+01 0.00000E+00
 -1      1395 5.94000E+01 4.87010E+01 0.00000E+00
 -1      1396 5.71500E+01 4.74020E+01 0.00000E+00
 -1      1397 6.09000E+01 4.87010E+01 0.00000E+00
 -1      1398 6.24000E+01 4.87010E+01 0.00000E+00
 -1      1399 6.01500E+01 4.74020E+01 0.00000E+00
 -1      1400 6.39000E+01 4.87010E+01 0.00000E+00
 -1      1401 6.54000E+01 4.87010E+01 0.00000E+00
 -1      1402 6.31500E+01 4.74020E+01 0.00000E+00
 -1      1403 6.69000E+01 4.87010E+01 0.00000E+00
 -1      1404 6.84000E+01 4.87010E+01 0.00000E+00
 -1      1405 6.61500E+01 4.74020E+01 0.00000E+00
 -1      1406 6.99000E+01 4.87010E+01 0.00000E+00
 -1      1407 7.14000E+01 4.87010E+01 0.00000E+00
 -1      1408 6.91500E+01 4.74020E+01 0.00000E+00
 -1      1409 7.29000E+01 4.87010E+01 0.00000E+00
 -1      1410 7.44000E+01 4.87010E+01 0.00000E+00
 -1      1411 7.21500E+01 4.74020E+01 0.00000E+00
 -1      1412 7.59000E+01 4.87010E+01 0.00000E+00
 -1      1413 7.74000E+01 4.87010E+01 0.00000E+00
 -1      1414 7.51500E+01 4.74020E+01 0.00000E+00
 -1      1415 7.89000E+01 4.87010E+01 0.00000E+00
 -1      1416 8.04000E+01 4.87010E+01 0.00000E+00
 -1      1417 7.81500E+01 4.74020E+01 0.00000E+00
 -1      1418 8.19000E+01 4.87010E+01 0.00000E+00
 -1      1419 8.34000E+01 4.87010E+01 0.00000E+00
 -1      1420 8.11500E+01 4.74020E+01 0.00000E+00
 -1      1421 8.49000E+01 4.87010E+01 0.00000E+00
 -1      1422 8.64000E+01 4.87010E+01 0.00000E+00
 -1      1423 8.41500E+01 4.74020E+01 0.00000E+00
 -1      1424 8.79000E+01 4.87010E+01 0.00000E+00
 -1      1425 8.94000E+01 4.87010E+01 0.00000E+00
 -1      1426 8.71500E+01 4.74020E+01 0.00000E+00
 -1      1427 9.09000E+01 4.87010E+01 0.00000E+00
 -1      1428 9.24000E+01 4.87010E+01 0.00000E+00
 -1      1429 9.01500E+01 4.74020E+01 0.00000E+00
 -1      1430 9.39000E+01 4.87010E+01 0.00000E+00
 -1      1431 9.54000E+01 4.87010E+01 0.00000E+00
 -1      1432 9.31500E+01 4.74020E+01 0.00000E+00
 -1      1433 9.69000E+01 4.87010E+01 0.00000E+00
 -1      1434 9.84000E+01 4.87010E+01 0.00000E+00
 -1      1435 9.61500E+01 4.74020E+01 0.00000E+00
 -1      1436 9.99000E+01 4.87010E+01 0.00000E+00
 -1      1437 1.01400E+02 4.87010E+01 0.00000E+00
 -1      1438 9.91500E+01 4.74020E+01 0.00000E+00
 -1      1439 1.02900E+02 4.87010E+01 0.00000E+00
 -1      1440 1.04400E+02 4.87010E+01 0.00000E+00
 -1      1441 1.02150E+02 4.74020E+01 0.00000E+00
 -1      1442 1.05900E+02 4.87010E+01 0.00000E+00
 -1      1443 1.07400E+02 4.87010E+01 0.00000E+00
 -1      1444 1.05150E+02 4.74020E+01 0.00000E+00
 -1      1445 1.08900E+02 4.87010E+01 0.00000E+00
 -1      1446 1.10400E+02 4.87010E+01 0.00000E+00
 -1      1447 1.08150E+02 4.74020E+01 0.00000E+00
 -1      1448 1.11900E+02 4.87010E+01 0.00000E+00
 -1      1449 1.13400E+02 4.87010E+01 0.00000E+00
 -1      1450 1.11150E+02 4.74020E+01 0.00000E+00
 -1      1451 1.14900E+02 4.87010E+01 0.00000E+00
 -1      1452 1.16400E+02 4.87010E+01 0.00000E+00
 -1      1453 1.14150E+02 4.74020E+01 0.00000E+00
 -1      1454 1.17900E+02 4.87010E+01 0.00000E+00
 -1      1455 1.19400E+02 4.87010E+01 0.00000E+00
 -1      1456 1.17150E+02 4.74020E+01 0.00000E+00
 -1      1457 1.20900E+02 4.87010E+01 0.00000E+00
 -1      1458 1.22400E+02 4.87010E+01 0.00000E+00
 -1      1459 1.20150E+02 4.74020E+01 0.00000E+00
 -1      1460 1.23900E+02 4.87010E+01 0.00000E+00
 -1      1461 1.25400E+02 4.87010E+01 0.00000E+00
 -1      1462 1.23150E+02 4.74020E+01 0.00000E+00
 -1      1463 1.26900E+02 4.87010E+01 0.00000E+00
 -1      1464 1.28400E+02 4.87010E+01 0.00000E+00
 -1      1465 1.26150E+02 4.74020E+01 0.00000E+00
 -1      1466 1.29900E+02 4.87010E+01 0.00000E+00
 -1      1467 1.31400E+02 4.87010E+01 0.00000E+00
 -1      1468 1.29150E+02 4.74020E+01 0.00000E+00
 -1      1469 1.32900E+02 4.87010E+01 0.00000E+00
 -1      1470 1.34400E+02 4.87010E+01 0.00000E+00
 -1      1471 1.32150E+02 4.74020E+01 0.00000E+00
 -1      1472 1.35900E+02 4.87010E+01 0.00000E+00
 -1      1473 1.37400E+02 4.87010E+01 0.00000E+00
 -1      1474 1.35150E+02 4.74020E+01 0.00000E+00
 -1      1475 1.38900E+02 4.87010E+01 0.00000E+00
 -1      1476 1.40400E+02 4.87010E+01 0.00000E+00
 -1      1477 1.38150E+02 4.74020E+01 0.00000E+00
 -1      1478 1.41900E+02 4.87010E+01 0.00000E+00
 -1      1479 1.43400E+02 4.87010E+01 0.00000E+00
 -1      1480 1.41150E+02 4.74020E+01 0.00000E+00
 -1      1481 1.44900E+02 4.87010E+01 0.00000E+00
 -1      1482 1.46400E+02 4.87010E+01 0.00000E+00
 -1      1483 1.44150E+02 4.74020E+01 0.00000E+00
 -1      1484 1.48575E+02 4.85500E+01 0.00000E+00
 -1      1485 1.47825E+02 4.72510E+01 0.00000E+00
 -1      1486 6.01200E+00 1.09375E+00 0.00000E+00
 -1      1487 4.51200E+00 1.09375E+00 0.00000E+00
 -1      1488 4.37400E+00 2.18750E+00 0.00000E+00
 -1      1489 9.01200E+00 1.09375E+00 0.00000E+00
 -1      1490 7.51200E+00 1.09375E+00 0.00000E+00
 -1      1491 7.37400E+00 2.18750E+00 0.00000E+00
 -1      1492 1.20120E+01 1.09375E+00 0.00000E+00
 -1      1493 1.05120E+01 1.09375E+00 0.00000E+00
 -1      1494 1.03740E+01 2.18750E+00 0.00000E+00
 -1      1495 1.50120E+01 1.09375E+00 0.00000E+00
 -1      1496 1.35120E+01 1.09375E+00 0.00000E+00
 -1      1497 1.33740E+01 2.18750E+00 0.00000E+00
 -1      1498 1.80120E+01 1.09375E+00 0.00000E+00
 -1      1499 1.65120E+01 1.09375E+00 0.00000E+00
 -1      1500 1.63740E+01 2.18750E+00 0.00000E+00
 -1      1501 2.10120E+01 1.09375E+00 0.00000E+00
 -1      1502 1.95120E+01 1.09375E+00 0.00000E+00
 -1      1503 1.93740E+01 2.18750E+00 0.00000E+00
 -1      1504 2.40120E+01 1.09375E+00 0.00000E+00
 -1      1505 2.25120E+01 1.09375E+00 0.00000E+00
 -1      1506 2.23740E+01 2.18750E+00 0.00000E+00
 -1      1507 2.70120E+01 1.09375E+00 0.00000E+00
 -1      1508 2.55120E+01 1.09375E+00 0.00000E+00
 -1      1509 2.53740E+01 2.18750E+00 0.00000E+00
 -1      1510 3.00120E+01 1.09375E+00 0.00000E+00
 -1      1511 2.85120E+01 1.09375E+00 0.00000E+00
 -1      1512 2.83740E+01 2.18750E+00 0.00000E+00
 -1      1513 3.30120E+01 1.09375E+00 0.00000E+00
 -1      1514 3.15120E+01 1.09375E+00 0.00000E+00
 -1      1515 3.13740E+01 2.18750E+00 0.00000E+00
 -1      1516 3.60120E+01 1.09375E+00 0.00000E+00
 -1      1517 3.45120E+01 1.09375E+00 0.00000E+00
 -1      1518 3.43740E+01 2.18750E+00 0.00000E+00
 -1      1519 3.90120E+01 1.09375E+00 0.00000E+00
 -1      1520 3.75120E+01 1.09375E+00 0.00000E+00
 -1      1521 3.73740E+01 2.18750E+00 0.00000E+00
 -1      1522 4.20120E+01 1.09375E+00 0.00000E+00
 -1      1523 4.05120E+01 1.09375E+00 0.00000E+00
 -1      1524 4.03740E+01 2.18750E+00 0.00000E+00
 -1      1525 4.50120E+01 1.09375E+00 0.00000E+00
 -1      1526 4.35120E+01 1.09375E+00 0.00000E+00
 -1      1527 4.33740E+01 2.18750E+00 0.00000E+00
 -1      1528 4.80120E+01 1.09375E+00 0.00000E+00
 -1      1529 4.65120E+01 1.09375E+00 0.00000E+00
 -1      1530 4.63740E+01 2.18750E+00 0.00000E+00
 -1      1531 5.10120E+01 1.09375E+00 0.00000E+00
 -1      1532 4.95120E+01 1.09375E+00 0.00000E+00
 -1      1533 4.93740E+01 2.18750E+00 0.00000E+00
 -1      1534 5.40120E+01 1.09375E+00 0.00000E+00
 -1      1535 5.25120E+01 1.09375E+00 0.00000E+00
 -1      1536 5.23740E+01 2.18750E+00 0.00000E+00
 -1      1537 5.70120E+01 1.09375E+00 0.00000E+00
 -1      1538 5.55120E+01 1.09375E+00 0.00000E+00
 -1      1539 5.53740E+01 2.18750E+00 0.00000E+00
 -1      1540 6.00120E+01 1.09375E+00 0.00000E+00
 -1      1541 5.85120E+01 1.09375E+00 0.00000E+00
 -1      1542 5.83740E+01 2.18750E+00 0.00000E+00
 -1      1543 6.30120E+01 1.09375E+00 0.00000E+00
 -1      1544 6.15120E+01 1.09375E+00 0.00000E+00
 -1      1545 6.13740E+01 2.18750E+00 0.00000E+00
 -1      1546 6.60120E+01 1.09375E+00 0.00000E+00
 -1      1547 6.45120E+01 1.09375E+00 0.00000E+00
 -1      1548 6.43740E+01 2.18750E+00 0.00000E+00
 -1      1549 6.90120E+01 1.09375E+00 0.00000E+00
 -1      1550 6.75120E+01 1.09375E+00 0.00000E+00
 -1      1551 6.73740E+01 2.18750E+00 0.00000E+00
 -1      1552 7.20120E+01 1.09375E+00 0.00000E+00
 -1      1553 7.05120E+01 1.09375E+00 0.00000E+00
 -1      1554 7.03740E+01 2.18750E+00 0.00000E+00
 -1      1555 7.50120E+01 1.09375E+00 0.00000E+00
 -1      1556 7.35120E+01 1.09375E+00 0.00000E+00
 -1      1557 7.33740E+01 2.18750E+00 0.00000E+00
 -1      1558 7.80120E+01 1.09375E+00 0.00000E+00
 -1      1559 7.65120E+01 1.09375E+00 0.00000E+00
 -1      1560 7.63740E+01 2.18750E+00 0.00000E+00
 -1      1561 8.10120E+01 1.09375E+00 0.00000E+00
 -1      1562 7.95120E+01 1.09375E+00 0.00000E+00
 -1      1563 7.93740E+01 2.18750E+00 0.00000E+00
 -1      1564 8.40120E+01 1.09375E+00 0.00000E+00
 -1      1565 8.25120E+01 1.09375E+00 0.00000E+00
 -1      1566 8.23740E+01 2.18750E+00 0.00000E+00
 -1      1567 8.70120E+01 1.09375E+00 0.00000E+00
 -1      1568 8.55120E+01 1.09375E+00 0.00000E+00
 -1      1569 8.53740E+01 2.18750E+00 0.00000E+00
 -1      1570 9.00120E+01 1.09375E+00 0.00000E+00
 -1      1571 8.85120E+01 1.09375E+00 0.00000E+00
 -1      1572 8.83740E+01 2.18750E+00 0.00000E+00
 -1      1573 9.30120E+01 1.09375E+00 0.00000E+00
 -1      1574 9.15120E+01 1.09375E+00 0.00000E+00
 -1      1575 9.13740E+01 2.18750E+00 0.00000E+00
 -1      1576 9.60120E+01 1.09375E+00 0.00000E+00
 -1      1577 9.45120E+01 1.09375E+00 0.00000E+00
 -1      1578 9.43740E+01 2.18750E+00 0.00000E+00
 -1      1579 9.90120E+01 1.09375E+00 0.00000E+00
 -1      1580 9.75120E+01 1.09375E+00 0.00000E+00
 -1      1581 9.73740E+01 2.18750E+00 0.00000E+00
 -1      1582 1.02012E+02 1.09375E+00 0.00000E+00
 -1      1583 1.00512E+02 1.09375E+00 0.00000E+00
 -1      1584 1.00374E+02 2.18750E+00 0.00000E+00
 -1      1585 1.05012E+02 1.09375E+00 0.00000E+00
 -1      1586 1.03512E+02 1.09375E+00 0.00000E+00
 -1      1587 1.03374E+02 2.18750E+00 0.00000E+00
 -1      1588 1.08012E+02 1.09375E+00 0.00000E+00
 -1      1589 1.06512E+02 1.09375E+00 0.00000E+00
 -1      1590 1.06374E+02 2.18750E+00 0.00000E+00
 -1      1591 1.11012E+02 1.09375E+00 0.00000E+00
 -1      1592 1.09512E+02 1.09375E+00 0.00000E+00
 -1      1593 1.09374E+02 2.18750E+00 0.00000E+00
 -1      1594 1.14012E+02 1.09375E+00 0.00000E+00
 -1      1595 1.12512E+02 1.09375E+00 0.00000E+00
 -1      1596 1.12374E+02 2.18750E+00 0.00000E+00
 -1      1597 1.17012E+02 1.09375E+00 0.00000E+00
 -1      1598 1.15512E+02 1.09375E+00 0.00000E+00
 -1      1599 1.15374E+02 2.18750E+00 0.00000E+00
 -1      1600 1.20012E+02 1.09375E+00 0.00000E+00
 -1      1601 1.18512E+02 1.09375E+00 0.00000E+00
 -1      1602 1.18374E+02 2.18750E+00 0.00000E+00
 -1      1603 1.23012E+02 1.09375E+00 0.00000E+00
 -1      1604 1.21512E+02 1.09375E+00 0.00000E+00
 -1      1605 1.21374E+02 2.18750E+00 0.00000E+00
 -1      1606 1.26012E+02 1.09375E+00 0.00000E+00
 -1      1607 1.24512E+02 1.09375E+00 0.00000E+00
 -1      1608 1.24374E+02 2.18750E+00 0.00000E+00
 -1      1609 1.29012E+02 1.09375E+00 0.00000E+00
 -1      1610 1.27512E+02 1.09375E+00 0.00000E+00
 -1      1611 1.27374E+02 2.18750E+00 0.00000E+00
 -1      1612 1.32012E+02 1.09375E+00 0.00000E+00
 -1      1613 1.30512E+02 1.09375E+00 0.00000E+00
 -1      1614 1.30374E+02 2.18750E+00 0.00000E+00
 -1      1615 1.35012E+02 1.09375E+00 0.00000E+00
 -1      1616 1.33512E+02 1.09375E+00 0.00000E+00
 -1      1617 1.33374E+02 2.18750E+00 0.00000E+00
 -1      1618 1.38012E+02 1.09375E+00 0.00000E+00
 -1      1619 1.36512E+02 1.09375E+00 0.00000E+00
 -1      1620 1.36374E+02 2.18750E+00 0.00000E+00
 -1      1621 1.41012E+02 1.09375E+00 0.00000E+00
 -1      1622 1.39512E+02 1.09375E+00 0.00000E+00
 -1      1623 1.39374E+02 2.18750E+00 0.00000E+00
 -1      1624 1.44012E+02 1.09375E+00 0.00000E+00
 -1      1625 1.42512E+02 1.09375E+00 0.00000E+00
 -1      1626 1.42374E+02 2.18750E+00 0.00000E+00
 -1      1627 1.47012E+02 1.09375E+00 0.00000E+00
 -1      1628 1.45512E+02 1.09375E+00 0.00000E+00
 -1      1629 1.45374E+02 2.18750E+00 0.00000E+00
 -1      1630 1.48575E+02 1.47500E+00 0.00000E+00
 -1      1631 1.48701E+02 5.16250E+00 0.00000E+00
 -1      1632 1.48701E+02 3.68750E+00 0.00000E+00
 -1      1633 1.48701E+02 8.11250E+00 0.00000E+00
 -1      1634 1.48701E+02 6.63750E+00 0.00000E+00
 -1      1635 1.47402E+02 5.90000E+00 0.00000E+00
 -1      1636 1.48701E+02 1.10625E+01 0.00000E+00
 -1      1637 1.48701E+02 9.58750E+00 0.00000E+00
 -1      1638 1.47402E+02 8.85000E+00 0.00000E+00
 -1      1639 1.48701E+02 1.40125E+01 0.00000E+00
 -1      1640 1.48701E+02 1.25375E+01 0.00000E+00
 -1      1641 1.47402E+02 1.18000E+01 0.00000E+00
 -1      1642 1.48701E+02 1.69125E+01 0.00000E+00
 -1      1643 1.48701E+02 1.54625E+01 0.00000E+00
 -1      1644 1.47402E+02 1.47250E+01 0.00000E+00
 -1      1645 1.48701E+02 1.98625E+01 0.00000E+00
 -1      1646 1.48701E+02 1.83875E+01 0.00000E+00
 -1      1647 1.47402E+02 1.76500E+01 0.00000E+00
 -1      1648 1.48701E+02 2.28125E+01 0.00000E+00
 -1      1649 1.48701E+02 2.13375E+01 0.00000E+00
 -1      1650 1.47402E+02 2.06000E+01 0.00000E+00
 -1      1651 1.48701E+02 2.57625E+01 0.00000E+00
 -1      1652 1.48701E+02 2.42875E+01 0.00000E+00
 -1      1653 1.47402E+02 2.35500E+01 0.00000E+00
 -1      1654 1.48701E+02 2.87125E+01 0.00000E+00
 -1      1655 1.48701E+02 2.72375E+01 0.00000E+00
 -1      1656 1.47402E+02 2.65000E+01 0.00000E+00
 -1      1657 1.48701E+02 3.16625E+01 0.00000E+00
 -1      1658 1.48701E+02 3.01875E+01 0.00000E+00
 -1      1659 1.47402E+02 2.94500E+01 0.00000E+00
 -1      1660 1.48701E+02 3.45625E+01 0.00000E+00
 -1      1661 1.48701E+02 3.31125E+01 0.00000E+00
 -1      1662 1.47402E+02 3.23750E+01 0.00000E+00
 -1      1663 1.48701E+02 3.75125E+01 0.00000E+00
 -1      1664 1.48701E+02 3.60375E+01 0.00000E+00
 -1      1665 1.47402E+02 3.53000E+01 0.00000E+00
 -1      1666 1.48701E+02 4.04625E+01 0.00000E+00
 -1      1667 1.48701E+02 3.89875E+01 0.00000E+00
 -1      1668 1.47402E+02 3.82500E+01 0.00000E+00
 -1      1669 1.48701E+02 4.34125E+01 0.00000E+00
 -1      1670 1.48701E+02 4.19375E+01 0.00000E+00
 -1      1671 1.47402E+02 4.12000E+01 0.00000E+00
 -1      1672 1.48263E+02 4.60692E+01 0.00000E+00
 -1      1673 1.48263E+02 4.45942E+01 0.00000E+00
 -1      1674 1.46964E+02 4.38568E+01 0.00000E+00
 -1      1675 1.46088E+02 4.62202E+01 0.00000E+00
 -1      1676 4.46526E+01 2.74332E+01 0.00000E+00
 -1      1677 4.47370E+01 2.81973E+01 0.00000E+00
 -1      1678 4.42902E+01 2.58014E+01 0.00000E+00
 -1      1679 4.45347E+01 2.65187E+01 0.00000E+00
 -1      1680 4.34406E+01 2.44390E+01 0.00000E+00
 -1      1681 4.38079E+01 2.50527E+01 0.00000E+00
 -1      1682 4.24175E+01 2.32071E+01 0.00000E+00
 -1      1683 4.29231E+01 2.37518E+01 0.00000E+00
 -1      1684 4.11678E+01 2.22173E+01 0.00000E+00
 -1      1685 4.17640E+01 2.26359E+01 0.00000E+00
 -1      1686 3.96237E+01 2.13461E+01 0.00000E+00
 -1      1687 4.04011E+01 2.16635E+01 0.00000E+00
 -1      1688 3.79944E+01 2.11304E+01 0.00000E+00
 -1      1689 3.86933E+01 2.12474E+01 0.00000E+00
 -1      1690 3.63806E+01 2.10301E+01 0.00000E+00
 -1      1691 3.71366E+01 2.09970E+01 0.00000E+00
 -1      1692 3.47245E+01 2.13298E+01 0.00000E+00
 -1      1693 3.54700E+01 2.11294E+01 0.00000E+00
 -1      1694 3.32334E+01 2.20395E+01 0.00000E+00
 -1      1695 3.38934E+01 2.16963E+01 0.00000E+00
 -1      1696 3.19694E+01 2.30166E+01 0.00000E+00
 -1      1697 3.25293E+01 2.25545E+01 0.00000E+00
 -1      1698 3.06676E+01 2.42793E+01 0.00000E+00
 -1      1699 3.11921E+01 2.35942E+01 0.00000E+00
 -1      1700 3.00735E+01 2.57945E+01 0.00000E+00
 -1      1701 3.03595E+01 2.51740E+01 0.00000E+00
 -1      1702 2.94687E+01 2.73221E+01 0.00000E+00
 -1      1703 2.96405E+01 2.65655E+01 0.00000E+00
 -1      1704 2.95181E+01 2.89073E+01 0.00000E+00
 -1      1705 2.95269E+01 2.82118E+01 0.00000E+00
 -1      1706 2.96987E+01 3.04838E+01 0.00000E+00
 -1      1707 2.95555E+01 2.97528E+01 0.00000E+00
 -1      1708 3.02524E+01 3.19189E+01 0.00000E+00
 -1      1709 2.99827E+01 3.12799E+01 0.00000E+00
 -1      1710 3.10484E+01 3.32255E+01 0.00000E+00
 -1      1711 3.06465E+01 3.26386E+01 0.00000E+00
 -1      1712 3.21136E+01 3.43662E+01 0.00000E+00
 -1      1713 3.15910E+01 3.38646E+01 0.00000E+00
 -1      1714 3.34321E+01 3.53793E+01 0.00000E+00
 -1      1715 3.27668E+01 3.49718E+01 0.00000E+00
 -1      1716 3.50603E+01 3.60764E+01 0.00000E+00
 -1      1717 3.42831E+01 3.58183E+01 0.00000E+00
 -1      1718 3.66811E+01 3.62639E+01 0.00000E+00
 -1      1719 3.59698E+01 3.61917E+01 0.00000E+00
 -1      1720 3.81889E+01 3.61557E+01 0.00000E+00
 -1      1721 3.75046E+01 3.62242E+01 0.00000E+00
 -1      1722 3.97257E+01 3.58490E+01 0.00000E+00
 -1      1723 3.90262E+01 3.60676E+01 0.00000E+00
 -1      1724 4.10442E+01 3.51257E+01 0.00000E+00
 -1      1725 4.04562E+01 3.54499E+01 0.00000E+00
 -1      1726 4.22607E+01 3.42574E+01 0.00000E+00
 -1      1727 4.17287E+01 3.47050E+01 0.00000E+00
 -1      1728 4.32099E+01 3.31350E+01 0.00000E+00
 -1      1729 4.27915E+01 3.36564E+01 0.00000E+00
 -1      1730 4.39974E+01 3.18853E+01 0.00000E+00
 -1      1731 4.36794E+01 3.24922E+01 0.00000E+00
 -1      1732 4.44497E+01 3.04890E+01 0.00000E+00
 -1      1733 4.42588E+01 3.11320E+01 0.00000E+00
 -1      1734 4.46645E+01 2.90484E+01 0.00000E+00
 -1      1735 4.45998E+01 2.97183E+01 0.00000E+00
 -1      1736 4.24918E+01 2.24674E+01 0.00000E+00
 -1      1737 4.36628E+01 2.37258E+01 0.00000E+00
 -1      1738 1.48437E+02 2.56875E+00 0.00000E+00
 -1      1739 1.47138E+02 3.30625E+00 0.00000E+00
 -1      1740 4.52627E+01 2.68249E+01 0.00000E+00
 -1      1741 4.46626E+01 2.51617E+01 0.00000E+00
 -1      1742 4.53081E+01 2.85906E+01 0.00000E+00
 -1      1743 4.10716E+01 2.13423E+01 0.00000E+00
 -1      1744 3.93744E+01 2.06897E+01 0.00000E+00
 -1      1745 3.75862E+01 2.04576E+01 0.00000E+00
 -1      1746 3.58178E+01 2.04235E+01 0.00000E+00
 -1      1747 3.40761E+01 2.08893E+01 0.00000E+00
 -1      1748 3.25409E+01 2.17707E+01 0.00000E+00
 -1      1749 3.10595E+01 2.28633E+01 0.00000E+00
 -1      1750 2.99741E+01 2.43357E+01 0.00000E+00
 -1      1751 2.92330E+01 2.60015E+01 0.00000E+00
 -1      1752 2.88582E+01 2.76622E+01 0.00000E+00
 -1      1753 2.89537E+01 2.93974E+01 0.00000E+00
 -1      1754 2.92751E+01 3.10390E+01 0.00000E+00
 -1      1755 2.99531E+01 3.25548E+01 0.00000E+00
 -1      1756 3.08899E+01 3.39137E+01 0.00000E+00
 -1      1757 3.20858E+01 3.51583E+01 0.00000E+00
 -1      1758 3.35900E+01 3.62029E+01 0.00000E+00
 -1      1759 3.53506E+01 3.67573E+01 0.00000E+00
 -1      1760 3.70836E+01 3.68329E+01 0.00000E+00
 -1      1761 3.87444E+01 3.67050E+01 0.00000E+00
 -1      1762 4.03123E+01 3.62178E+01 0.00000E+00
 -1      1763 4.17274E+01 3.53979E+01 0.00000E+00
 -1      1764 4.29427E+01 3.43761E+01 0.00000E+00
 -1      1765 4.39430E+01 3.31323E+01 0.00000E+00
 -1      1766 4.46739E+01 3.17362E+01 0.00000E+00
 -1      1767 4.50855E+01 3.02123E+01 0.00000E+00
 -1      1768 2.87400E+00 4.77875E+01 0.00000E+00
 -1      1769 3.89700E+00 4.04125E+01 0.00000E+00
 -1      1770 3.89700E+00 4.18875E+01 0.00000E+00
 -1      1771 3.89700E+00 4.33625E+01 0.00000E+00
 -1      1772 3.89700E+00 4.48375E+01 0.00000E+00
 -1      1773 5.19600E+00 4.26250E+01 0.00000E+00
 -1      1774 3.89700E+00 3.45500E+01 0.00000E+00
 -1      1775 3.89700E+00 3.60000E+01 0.00000E+00
 -1      1776 3.89700E+00 3.16000E+01 0.00000E+00
 -1      1777 3.89700E+00 3.30750E+01 0.00000E+00
 -1      1778 5.19600E+00 3.38000E+01 0.00000E+00
 -1      1779 3.89700E+00 2.86500E+01 0.00000E+00
 -1      1780 3.89700E+00 3.01250E+01 0.00000E+00
 -1      1781 5.19600E+00 3.08500E+01 0.00000E+00
 -1      1782 3.89700E+00 2.57000E+01 0.00000E+00
 -1      1783 3.89700E+00 2.71750E+01 0.00000E+00
 -1      1784 5.19600E+00 2.79000E+01 0.00000E+00
 -1      1785 3.89700E+00 2.27500E+01 0.00000E+00
 -1      1786 3.89700E+00 2.42250E+01 0.00000E+00
 -1      1787 5.19600E+00 2.49500E+01 0.00000E+00
 -1      1788 3.89700E+00 1.98000E+01 0.00000E+00
 -1      1789 3.89700E+00 2.12750E+01 0.00000E+00
 -1      1790 5.19600E+00 2.20000E+01 0.00000E+00
 -1      1791 3.89700E+00 1.69000E+01 0.00000E+00
 -1      1792 3.89700E+00 1.83500E+01 0.00000E+00
 -1      1793 5.19600E+00 1.90750E+01 0.00000E+00
 -1      1794 3.89700E+00 1.39500E+01 0.00000E+00
 -1      1795 3.89700E+00 1.54250E+01 0.00000E+00
 -1      1796 5.19600E+00 1.61500E+01 0.00000E+00
 -1      1797 3.89700E+00 1.10000E+01 0.00000E+00
 -1      1798 3.89700E+00 1.24750E+01 0.00000E+00
 -1      1799 5.19600E+00 1.32000E+01 0.00000E+00
 -1      1800 3.89700E+00 8.05000E+00 0.00000E+00
 -1      1801 3.89700E+00 9.52500E+00 0.00000E+00
 -1      1802 5.19600E+00 1.02500E+01 0.00000E+00
 -1      1803 3.89700E+00 5.10000E+00 0.00000E+00
 -1      1804 3.89700E+00 6.57500E+00 0.00000E+00
 -1      1805 5.19600E+00 7.30000E+00 0.00000E+00
 -1      1806 4.20450E+00 3.09687E+00 0.00000E+00
 -1      1807 4.06650E+00 4.19063E+00 0.00000E+00
 -1      1808 5.36550E+00 4.91563E+00 0.00000E+00
 -1      1809 5.70450E+00 3.09687E+00 0.00000E+00
 -1      1810 3.62400E+00 4.64885E+01 0.00000E+00
 -1      1811 8.70450E+00 3.09687E+00 0.00000E+00
 -1      1812 7.20450E+00 3.09687E+00 0.00000E+00
 -1      1813 7.03500E+00 4.00625E+00 0.00000E+00
 -1      1814 4.92300E+00 4.57510E+01 0.00000E+00
 -1      1815 8.40000E+00 4.61030E+01 0.00000E+00
 -1      1816 9.90000E+00 4.61030E+01 0.00000E+00
 -1      1817 1.14000E+01 4.61030E+01 0.00000E+00
 -1      1818 1.29000E+01 4.61030E+01 0.00000E+00
 -1      1819 1.06500E+01 4.48040E+01 0.00000E+00
 -1      1820 1.44000E+01 4.61030E+01 0.00000E+00
 -1      1821 1.59000E+01 4.61030E+01 0.00000E+00
 -1      1822 1.36500E+01 4.48040E+01 0.00000E+00
 -1      1823 1.74000E+01 4.61030E+01 0.00000E+00
 -1      1824 1.89000E+01 4.61030E+01 0.00000E+00
 -1      1825 1.66500E+01 4.48040E+01 0.00000E+00
 -1      1826 2.04000E+01 4.61030E+01 0.00000E+00
 -1      1827 2.19000E+01 4.61030E+01 0.00000E+00
 -1      1828 1.96500E+01 4.48040E+01 0.00000E+00
 -1      1829 2.34000E+01 4.61030E+01 0.00000E+00
 -1      1830 2.49000E+01 4.61030E+01 0.00000E+00
 -1      1831 2.26500E+01 4.48040E+01 0.00000E+00
 -1      1832 2.64000E+01 4.61030E+01 0.00000E+00
 -1      1833 2.79000E+01 4.61030E+01 0.00000E+00
 -1      1834 2.56500E+01 4.48040E+01 0.00000E+00
 -1      1835 2.94000E+01 4.61030E+01 0.00000E+00
 -1      1836 3.09000E+01 4.61030E+01 0.00000E+00
 -1      1837 2.86500E+01 4.48040E+01 0.00000E+00
 -1      1838 3.24000E+01 4.61030E+01 0.00000E+00
 -1      1839 3.39000E+01 4.61030E+01 0.00000E+00
 -1      1840 3.16500E+01 4.48040E+01 0.00000E+00
 -1      1841 3.54000E+01 4.61030E+01 0.00000E+00
 -1      1842 3.69000E+01 4.61030E+01 0.00000E+00
 -1      1843 3.46500E+01 4.48040E+01 0.00000E+00
 -1      1844 3.84000E+01 4.61030E+01 0.00000E+00
 -1      1845 3.99000E+01 4.61030E+01 0.00000E+00
 -1      1846 3.76500E+01 4.48040E+01 0.00000E+00
 -1      1847 4.14000E+01 4.61030E+01 0.00000E+00
 -1      1848 4.29000E+01 4.61030E+01 0.00000E+00
 -1      1849 4.06500E+01 4.48040E+01 0.00000E+00
 -1      1850 4.44000E+01 4.61030E+01 0.00000E+00
 -1      1851 4.59000E+01 4.61030E+01 0.00000E+00
 -1      1852 4.36500E+01 4.48040E+01 0.00000E+00
 -1      1853 4.74000E+01 4.61030E+01 0.00000E+00
 -1      1854 4.89000E+01 4.61030E+01 0.00000E+00
 -1      1855 4.66500E+01 4.48040E+01 0.00000E+00
 -1      1856 5.04000E+01 4.61030E+01 0.00000E+00
 -1      1857 5.19000E+01 4.61030E+01 0.00000E+00
 -1      1858 4.96500E+01 4.48040E+01 0.00000E+00
 -1      1859 5.34000E+01 4.61030E+01 0.00000E+00
 -1      1860 5.49000E+01 4.61030E+01 0.00000E+00
 -1      1861 5.26500E+01 4.48040E+01 0.00000E+00
 -1      1862 5.64000E+01 4.61030E+01 0.00000E+00
 -1      1863 5.79000E+01 4.61030E+01 0.00000E+00
 -1      1864 5.56500E+01 4.48040E+01 0.00000E+00
 -1      1865 5.94000E+01 4.61030E+01 0.00000E+00
 -1      1866 6.09000E+01 4.61030E+01 0.00000E+00
 -1      1867 5.86500E+01 4.48040E+01 0.00000E+00
 -1      1868 6.24000E+01 4.61030E+01 0.00000E+00
 -1      1869 6.39000E+01 4.61030E+01 0.00000E+00
 -1      1870 6.16500E+01 4.48040E+01 0.00000E+00
 -1      1871 6.54000E+01 4.61030E+01 0.00000E+00
 -1      1872 6.69000E+01 4.61030E+01 0.00000E+00
 -1      1873 6.46500E+01 4.48040E+01 0.00000E+00
 -1      1874 6.84000E+01 4.61030E+01 0.00000E+00
 -1      1875 6.99000E+01 4.61030E+01 0.00000E+00
 -1      1876 6.76500E+01 4.48040E+01 0.00000E+00
 -1      1877 7.14000E+01 4.61030E+01 0.00000E+00
 -1      1878 7.29000E+01 4.61030E+01 0.00000E+00
 -1      1879 7.06500E+01 4.48040E+01 0.00000E+00
 -1      1880 7.44000E+01 4.61030E+01 0.00000E+00
 -1      1881 7.59000E+01 4.61030E+01 0.00000E+00
 -1      1882 7.36500E+01 4.48040E+01 0.00000E+00
 -1      1883 7.74000E+01 4.61030E+01 0.00000E+00
 -1      1884 7.89000E+01 4.61030E+01 0.00000E+00
 -1      1885 7.66500E+01 4.48040E+01 0.00000E+00
 -1      1886 8.04000E+01 4.61030E+01 0.00000E+00
 -1      1887 8.19000E+01 4.61030E+01 0.00000E+00
 -1      1888 7.96500E+01 4.48040E+01 0.00000E+00
 -1      1889 8.34000E+01 4.61030E+01 0.00000E+00
 -1      1890 8.49000E+01 4.61030E+01 0.00000E+00
 -1      1891 8.26500E+01 4.48040E+01 0.00000E+00
 -1      1892 8.64000E+01 4.61030E+01 0.00000E+00
 -1      1893 8.79000E+01 4.61030E+01 0.00000E+00
 -1      1894 8.56500E+01 4.48040E+01 0.00000E+00
 -1      1895 8.94000E+01 4.61030E+01 0.00000E+00
 -1      1896 9.09000E+01 4.61030E+01 0.00000E+00
 -1      1897 8.86500E+01 4.48040E+01 0.00000E+00
 -1      1898 9.24000E+01 4.61030E+01 0.00000E+00
 -1      1899 9.39000E+01 4.61030E+01 0.00000E+00
 -1      1900 9.16500E+01 4.48040E+01 0.00000E+00
 -1      1901 9.54000E+01 4.61030E+01 0.00000E+00
 -1      1902 9.69000E+01 4.61030E+01 0.00000E+00
 -1      1903 9.46500E+01 4.48040E+01 0.00000E+00
 -1      1904 9.84000E+01 4.61030E+01 0.00000E+00
 -1      1905 9.99000E+01 4.61030E+01 0.00000E+00
 -1      1906 9.76500E+01 4.48040E+01 0.00000E+00
 -1      1907 1.01400E+02 4.61030E+01 0.00000E+00
 -1      1908 1.02900E+02 4.61030E+01 0.00000E+00
 -1      1909 1.00650E+02 4.48040E+01 0.00000E+00
 -1      1910 1.04400E+02 4.61030E+01 0.00000E+00
 -1      1911 1.05900E+02 4.61030E+01 0.00000E+00
 -1      1912 1.03650E+02 4.48040E+01 0.00000E+00
 -1      1913 1.07400E+02 4.61030E+01 0.00000E+00
 -1      1914 1.08900E+02 4.61030E+01 0.00000E+00
 -1      1915 1.06650E+02 4.48040E+01 0.00000E+00
 -1      1916 1.10400E+02 4.61030E+01 0.00000E+00
 -1      1917 1.11900E+02 4.61030E+01 0.00000E+00
 -1      1918 1.09650E+02 4.48040E+01 0.00000E+00
 -1      1919 1.13400E+02 4.61030E+01 0.00000E+00
 -1      1920 1.14900E+02 4.61030E+01 0.00000E+00
 -1      1921 1.12650E+02 4.48040E+01 0.00000E+00
 -1      1922 1.16400E+02 4.61030E+01 0.00000E+00
 -1      1923 1.17900E+02 4.61030E+01 0.00000E+00
 -1      1924 1.15650E+02 4.48040E+01 0.00000E+00
 -1      1925 1.19400E+02 4.61030E+01 0.00000E+00
 -1      1926 1.20900E+02 4.61030E+01 0.00000E+00
 -1      1927 1.18650E+02 4.48040E+01 0.00000E+00
 -1      1928 1.22400E+02 4.61030E+01 0.00000E+00
 -1      1929 1.23900E+02 4.61030E+01 0.00000E+00
 -1      1930 1.21650E+02 4.48040E+01 0.00000E+00
 -1      1931 1.25400E+02 4.61030E+01 0.00000E+00
 -1      1932 1.26900E+02 4.61030E+01 0.00000E+00
 -1      1933 1.24650E+02 4.48040E+01 0.00000E+00
 -1      1934 1.28400E+02 4.61030E+01 0.00000E+00
 -1      1935 1.29900E+02 4.61030E+01 0.00000E+00
 -1      1936 1.27650E+02 4.48040E+01 0.00000E+00
 -1      1937 1.31400E+02 4.61030E+01 0.00000E+00
 -1      1938 1.32900E+02 4.61030E+01 0.00000E+00
 -1      1939 1.30650E+02 4.48040E+01 0.00000E+00
 -1      1940 1.34400E+02 4.61030E+01 0.00000E+00
 -1      1941 1.35900E+02 4.61030E+01 0.00000E+00
 -1      1942 1.33650E+02 4.48040E+01 0.00000E+00
 -1      1943 1.37400E+02 4.61030E+01 0.00000E+00
 -1      1944 1.38900E+02 4.61030E+01 0.00000E+00
 -1      1945 1.36650E+02 4.48040E+01 0.00000E+00
 -1      1946 1.40400E+02 4.61030E+01 0.00000E+00
 -1      1947 1.41900E+02 4.61030E+01 0.00000E+00
 -1      1948 1.39650E+02 4.48040E+01 0.00000E+00
 -1      1949 1.43244E+02 4.61616E+01 0.00000E+00
 -1      1950 1.44744E+02 4.61616E+01 0.00000E+00
 -1      1951 1.45182E+02 4.49799E+01 0.00000E+00
 -1      1952 1.42494E+02 4.48626E+01 0.00000E+00
 -1      1953 1.17045E+01 3.09687E+00 0.00000E+00
 -1      1954 1.02045E+01 3.09687E+00 0.00000E+00
 -1      1955 1.00350E+01 4.00625E+00 0.00000E+00
 -1      1956 1.47045E+01 3.09687E+00 0.00000E+00
 -1      1957 1.32045E+01 3.09687E+00 0.00000E+00
 -1      1958 1.30350E+01 4.00625E+00 0.00000E+00
 -1      1959 1.77045E+01 3.09687E+00 0.00000E+00
 -1      1960 1.62045E+01 3.09687E+00 0.00000E+00
 -1      1961 1.60350E+01 4.00625E+00 0.00000E+00
 -1      1962 2.07045E+01 3.09687E+00 0.00000E+00
 -1      1963 1.92045E+01 3.09687E+00 0.00000E+00
 -1      1964 1.90350E+01 4.00625E+00 0.00000E+00
 -1      1965 2.37045E+01 3.09687E+00 0.00000E+00
 -1      1966 2.22045E+01 3.09687E+00 0.00000E+00
 -1      1967 2.20350E+01 4.00625E+00 0.00000E+00
 -1      1968 2.67045E+01 3.09687E+00 0.00000E+00
 -1      1969 2.52045E+01 3.09687E+00 0.00000E+00
 -1      1970 2.50350E+01 4.00625E+00 0.00000E+00
 -1      1971 2.97045E+01 3.09687E+00 0.00000E+00
 -1      1972 2.82045E+01 3.09687E+00 0.00000E+00
 -1      1973 2.80350E+01 4.00625E+00 0.00000E+00
 -1      1974 3.27045E+01 3.09687E+00 0.00000E+00
 -1      1975 3.12045E+01 3.09687E+00 0.00000E+00
 -1      1976 3.10350E+01 4.00625E+00 0.00000E+00
 -1      1977 3.57045E+01 3.09687E+00 0.00000E+00
 -1      1978 3.42045E+01 3.09687E+00 0.00000E+00
 -1      1979 3.40350E+01 4.00625E+00 0.00000E+00
 -1      1980 3.87045E+01 3.09687E+00 0.00000E+00
 -1      1981 3.72045E+01 3.09687E+00 0.00000E+00
 -1      1982 3.70350E+01 4.00625E+00 0.00000E+00
 -1      1983 4.17045E+01 3.09687E+00 0.00000E+00
 -1      1984 4.02045E+01 3.09687E+00 0.00000E+00
 -1      1985 4.00350E+01 4.00625E+00 0.00000E+00
 -1      1986 4.47045E+01 3.09687E+00 0.00000E+00
 -1      1987 4.32045E+01 3.09687E+00 0.00000E+00
 -1      1988 4.30350E+01 4.00625E+00 0.00000E+00
 -1      1989 4.77045E+01 3.09687E+00 0.00000E+00
 -1      1990 4.62045E+01 3.09687E+00 0.00000E+00
 -1      1991 4.60350E+01 4.00625E+00 0.00000E+00
 -1      1992 5.07045E+01 3.09687E+00 0.00000E+00
 -1      1993 4.92045E+01 3.09687E+00 0.00000E+00
 -1      1994 4.90350E+01 4.00625E+00 0.00000E+00
 -1      1995 5.37045E+01 3.09687E+00 0.00000E+00
 -1      1996 5.22045E+01 3.09687E+00 0.00000E+00
 -1      1997 5.20350E+01 4.00625E+00 0.00000E+00
 -1      1998 5.67045E+01 3.09687E+00 0.00000E+00
 -1      1999 5.52045E+01 3.09687E+00 0.00000E+00
 -1      2000 5.50350E+01 4.00625E+00 0.00000E+00
 -1      2001 5.97045E+01 3.09687E+00 0.00000E+00
 -1      2002 5.82045E+01 3.09687E+00 0.00000E+00
 -1      2003 5.80350E+01 4.00625E+00 0.00000E+00
 -1      2004 6.27045E+01 3.09687E+00 0.00000E+00
 -1      2005 6.12045E+01 3.09687E+00 0.00000E+00
 -1      2006 6.10350E+01 4.00625E+00 0.00000E+00
 -1      2007 6.57045E+01 3.09687E+00 0.00000E+00
 -1      2008 6.42045E+01 3.09687E+00 0.00000E+00
 -1      2009 6.40350E+01 4.00625E+00 0.00000E+00
 -1      2010 6.87045E+01 3.09687E+00 0.00000E+00
 -1      2011 6.72045E+01 3.09687E+00 0.00000E+00
 -1      2012 6.70350E+01 4.00625E+00 0.00000E+00
 -1      2013 7.17045E+01 3.09687E+00 0.00000E+00
 -1      2014 7.02045E+01 3.09687E+00 0.00000E+00
 -1      2015 7.00350E+01 4.00625E+00 0.00000E+00
 -1      2016 7.47045E+01 3.09687E+00 0.00000E+00
 -1      2017 7.32045E+01 3.09687E+00 0.00000E+00
 -1      2018 7.30350E+01 4.00625E+00 0.00000E+00
 -1      2019 7.77045E+01 3.09687E+00 0.00000E+00
 -1      2020 7.62045E+01 3.09687E+00 0.00000E+00
 -1      2021 7.60350E+01 4.00625E+00 0.00000E+00
 -1      2022 8.07045E+01 3.09687E+00 0.00000E+00
 -1      2023 7.92045E+01 3.09687E+00 0.00000E+00
 -1      2024 7.90350E+01 4.00625E+00 0.00000E+00
 -1      2025 8.37045E+01 3.09687E+00 0.00000E+00
 -1      2026 8.22045E+01 3.09687E+00 0.00000E+00
 -1      2027 8.20350E+01 4.00625E+00 0.00000E+00
 -1      2028 8.67045E+01 3.09687E+00 0.00000E+00
 -1      2029 8.52045E+01 3.09687E+00 0.00000E+00
 -1      2030 8.50350E+01 4.00625E+00 0.00000E+00
 -1      2031 8.97045E+01 3.09687E+00 0.00000E+00
 -1      2032 8.82045E+01 3.09687E+00 0.00000E+00
 -1      2033 8.80350E+01 4.00625E+00 0.00000E+00
 -1      2034 9.27045E+01 3.09687E+00 0.00000E+00
 -1      2035 9.12045E+01 3.09687E+00 0.00000E+00
 -1      2036 9.10350E+01 4.00625E+00 0.00000E+00
 -1      2037 9.57045E+01 3.09687E+00 0.00000E+00
 -1      2038 9.42045E+01 3.09687E+00 0.00000E+00
 -1      2039 9.40350E+01 4.00625E+00 0.00000E+00
 -1      2040 9.87045E+01 3.09687E+00 0.00000E+00
 -1      2041 9.72045E+01 3.09687E+00 0.00000E+00
 -1      2042 9.70350E+01 4.00625E+00 0.00000E+00
 -1      2043 1.01704E+02 3.09687E+00 0.00000E+00
 -1      2044 1.00204E+02 3.09687E+00 0.00000E+00
 -1      2045 1.00035E+02 4.00625E+00 0.00000E+00
 -1      2046 1.04704E+02 3.09687E+00 0.00000E+00
 -1      2047 1.03204E+02 3.09687E+00 0.00000E+00
 -1      2048 1.03035E+02 4.00625E+00 0.00000E+00
 -1      2049 1.07704E+02 3.09687E+00 0.00000E+00
 -1      2050 1.06204E+02 3.09687E+00 0.00000E+00
 -1      2051 1.06035E+02 4.00625E+00 0.00000E+00
 -1      2052 1.10704E+02 3.09687E+00 0.00000E+00
 -1      2053 1.09204E+02 3.09687E+00 0.00000E+00
 -1      2054 1.09035E+02 4.00625E+00 0.00000E+00
 -1      2055 1.13704E+02 3.09687E+00 0.00000E+00
 -1      2056 1.12204E+02 3.09687E+00 0.00000E+00
 -1      2057 1.12035E+02 4.00625E+00 0.00000E+00
 -1      2058 1.16704E+02 3.09687E+00 0.00000E+00
 -1      2059 1.15204E+02 3.09687E+00 0.00000E+00
 -1      2060 1.15035E+02 4.00625E+00 0.00000E+00
 -1      2061 1.19704E+02 3.09687E+00 0.00000E+00
 -1      2062 1.18204E+02 3.09687E+00 0.00000E+00
 -1      2063 1.18035E+02 4.00625E+00 0.00000E+00
 -1      2064 1.22704E+02 3.09687E+00 0.00000E+00
 -1      2065 1.21204E+02 3.09687E+00 0.00000E+00
 -1      2066 1.21035E+02 4.00625E+00 0.00000E+00
 -1      2067 1.25704E+02 3.09687E+00 0.00000E+00
 -1      2068 1.24204E+02 3.09687E+00 0.00000E+00
 -1      2069 1.24035E+02 4.00625E+00 0.00000E+00
 -1      2070 1.28704E+02 3.09687E+00 0.00000E+00
 -1      2071 1.27204E+02 3.09687E+00 0.00000E+00
 -1      2072 1.27035E+02 4.00625E+00 0.00000E+00
 -1      2073 1.31704E+02 3.09687E+00 0.00000E+00
 -1      2074 1.30204E+02 3.09687E+00 0.00000E+00
 -1      2075 1.30035E+02 4.00625E+00 0.00000E+00
 -1      2076 1.34704E+02 3.09687E+00 0.00000E+00
 -1      2077 1.33204E+02 3.09687E+00 0.00000E+00
 -1      2078 1.33035E+02 4.00625E+00 0.00000E+00
 -1      2079 1.37704E+02 3.09687E+00 0.00000E+00
 -1      2080 1.36204E+02 3.09687E+00 0.00000E+00
 -1      2081 1.36035E+02 4.00625E+00 0.00000E+00
 -1      2082 1.40704E+02 3.09687E+00 0.00000E+00
 -1      2083 1.39204E+02 3.09687E+00 0.00000E+00
 -1      2084 1.39035E+02 4.00625E+00 0.00000E+00
 -1      2085 1.43704E+02 3.09687E+00 0.00000E+00
 -1      2086 1.42204E+02 3.09687E+00 0.00000E+00
 -1      2087 1.42035E+02 4.00625E+00 0.00000E+00
 -1      2088 1.46171E+02 3.20156E+00 0.00000E+00
 -1      2089 1.44671E+02 3.20156E+00 0.00000E+00
 -1      2090 1.44502E+02 4.11094E+00 0.00000E+00
 -1      2091 1.46435E+02 4.32031E+00 0.00000E+00
 -1      2092 1.46103E+02 1.25375E+01 0.00000E+00
 -1      2093 1.46103E+02 1.10625E+01 0.00000E+00
 -1      2094 1.46103E+02 9.58750E+00 0.00000E+00
 -1      2095 1.46103E+02 8.11250E+00 0.00000E+00
 -1      2096 1.44804E+02 1.03250E+01 0.00000E+00
 -1      2097 1.46269E+02 6.95391E+00 0.00000E+00
 -1      2098 1.46269E+02 5.47891E+00 0.00000E+00
 -1      2099 1.45302E+02 5.37422E+00 0.00000E+00
 -1      2100 1.44970E+02 7.69141E+00 0.00000E+00
 -1      2101 1.46103E+02 1.54375E+01 0.00000E+00
 -1      2102 1.46103E+02 1.39875E+01 0.00000E+00
 -1      2103 1.44804E+02 1.32500E+01 0.00000E+00
 -1      2104 1.46103E+02 1.83875E+01 0.00000E+00
 -1      2105 1.46103E+02 1.69125E+01 0.00000E+00
 -1      2106 1.44804E+02 1.61750E+01 0.00000E+00
 -1      2107 1.46103E+02 2.13375E+01 0.00000E+00
 -1      2108 1.46103E+02 1.98625E+01 0.00000E+00
 -1      2109 1.44804E+02 1.91250E+01 0.00000E+00
 -1      2110 1.46103E+02 2.42875E+01 0.00000E+00
 -1      2111 1.46103E+02 2.28125E+01 0.00000E+00
 -1      2112 1.44804E+02 2.20750E+01 0.00000E+00
 -1      2113 1.46103E+02 2.72375E+01 0.00000E+00
 -1      2114 1.46103E+02 2.57625E+01 0.00000E+00
 -1      2115 1.44804E+02 2.50250E+01 0.00000E+00
 -1      2116 1.46103E+02 3.01875E+01 0.00000E+00
 -1      2117 1.46103E+02 2.87125E+01 0.00000E+00
 -1      2118 1.44804E+02 2.79750E+01 0.00000E+00
 -1      2119 1.46103E+02 3.30875E+01 0.00000E+00
 -1      2120 1.46103E+02 3.16375E+01 0.00000E+00
 -1      2121 1.44804E+02 3.09000E+01 0.00000E+00
 -1      2122 1.46103E+02 3.60375E+01 0.00000E+00
 -1      2123 1.46103E+02 3.45625E+01 0.00000E+00
 -1      2124 1.44804E+02 3.38250E+01 0.00000E+00
 -1      2125 1.46103E+02 3.89875E+01 0.00000E+00
 -1      2126 1.46103E+02 3.75125E+01 0.00000E+00
 -1      2127 1.44804E+02 3.67750E+01 0.00000E+00
 -1      2128 1.46103E+02 4.19375E+01 0.00000E+00
 -1      2129 1.46103E+02 4.04625E+01 0.00000E+00
 -1      2130 1.44804E+02 3.97250E+01 0.00000E+00
 -1      2131 4.50015E+01 2.44137E+01 0.00000E+00
 -1      2132 4.54838E+01 2.51624E+01 0.00000E+00
 -1      2133 4.60318E+01 2.82237E+01 0.00000E+00
 -1      2134 4.59593E+01 2.90747E+01 0.00000E+00
 -1      2135 4.60543E+01 2.62580E+01 0.00000E+00
 -1      2136 4.61722E+01 2.71726E+01 0.00000E+00
 -1      2137 4.39553E+01 2.29671E+01 0.00000E+00
 -1      2138 4.44728E+01 2.36543E+01 0.00000E+00
 -1      2139 4.26191E+01 2.16622E+01 0.00000E+00
 -1      2140 4.32726E+01 2.22334E+01 0.00000E+00
 -1      2141 3.89700E+00 3.74688E+01 0.00000E+00
 -1      2142 3.89700E+00 3.89437E+01 0.00000E+00
 -1      2143 5.19600E+00 3.96813E+01 0.00000E+00
 -1      2144 5.19600E+00 3.67438E+01 0.00000E+00
 -1      2145 3.89952E+01 1.98293E+01 0.00000E+00
 -1      2146 3.99257E+01 1.99280E+01 0.00000E+00
 -1      2147 3.72796E+01 1.95625E+01 0.00000E+00
 -1      2148 3.81374E+01 1.96959E+01 0.00000E+00
 -1      2149 3.86887E+01 1.89341E+01 0.00000E+00
 -1      2150 3.52786E+01 1.97040E+01 0.00000E+00
 -1      2151 3.61892E+01 1.96047E+01 0.00000E+00
 -1      2152 3.33991E+01 2.04795E+01 0.00000E+00
 -1      2153 3.42302E+01 2.01131E+01 0.00000E+00
 -1      2154 3.17816E+01 2.14713E+01 0.00000E+00
 -1      2155 3.24857E+01 2.09563E+01 0.00000E+00
 -1      2156 3.02269E+01 2.26265E+01 0.00000E+00
 -1      2157 3.10042E+01 2.20489E+01 0.00000E+00
 -1      2158 3.09490E+01 2.12345E+01 0.00000E+00
 -1      2159 2.91677E+01 2.45584E+01 0.00000E+00
 -1      2160 2.94758E+01 2.36637E+01 0.00000E+00
 -1      2161 2.83017E+01 2.61005E+01 0.00000E+00
 -1      2162 2.87347E+01 2.53295E+01 0.00000E+00
 -1      2163 2.82363E+01 2.46574E+01 0.00000E+00
 -1      2164 2.81151E+01 2.81575E+01 0.00000E+00
 -1      2165 2.80570E+01 2.72678E+01 0.00000E+00
 -1      2166 2.81899E+01 2.98486E+01 0.00000E+00
 -1      2167 2.81525E+01 2.90031E+01 0.00000E+00
 -1      2168 2.73513E+01 2.86087E+01 0.00000E+00
 -1      2169 2.88066E+01 3.16548E+01 0.00000E+00
 -1      2170 2.85227E+01 3.08587E+01 0.00000E+00
 -1      2171 2.94715E+01 3.32863E+01 0.00000E+00
 -1      2172 2.90774E+01 3.25666E+01 0.00000E+00
 -1      2173 3.05075E+01 3.47882E+01 0.00000E+00
 -1      2174 2.99649E+01 3.41491E+01 0.00000E+00
 -1      2175 3.18141E+01 3.59994E+01 0.00000E+00
 -1      2176 3.11608E+01 3.53938E+01 0.00000E+00
 -1      2177 3.02357E+01 3.56293E+01 0.00000E+00
 -1      2178 3.35840E+01 3.72590E+01 0.00000E+00
 -1      2179 3.27330E+01 3.68200E+01 0.00000E+00
 -1      2180 3.56975E+01 3.76657E+01 0.00000E+00
 -1      2181 3.47879E+01 3.75503E+01 0.00000E+00
 -1      2182 3.73444E+01 3.75862E+01 0.00000E+00
 -1      2183 3.65209E+01 3.76259E+01 0.00000E+00
 -1      2184 3.59583E+01 3.84190E+01 0.00000E+00
 -1      2185 3.92353E+01 3.73471E+01 0.00000E+00
 -1      2186 3.83980E+01 3.74353E+01 0.00000E+00
 -1      2187 4.10486E+01 3.66973E+01 0.00000E+00
 -1      2188 4.03180E+01 3.70964E+01 0.00000E+00
 -1      2189 4.24176E+01 3.58557E+01 0.00000E+00
 -1      2190 4.17331E+01 3.62765E+01 0.00000E+00
 -1      2191 4.17388E+01 3.71551E+01 0.00000E+00
 -1      2192 4.38509E+01 3.46433E+01 0.00000E+00
 -1      2193 4.33201E+01 3.52443E+01 0.00000E+00
 -1      2194 4.47899E+01 3.33576E+01 0.00000E+00
 -1      2195 4.43204E+01 3.40005E+01 0.00000E+00
 -1      2196 4.46978E+01 3.48686E+01 0.00000E+00
 -1      2197 4.54961E+01 3.15996E+01 0.00000E+00
 -1      2198 4.52346E+01 3.23529E+01 0.00000E+00
 -1      2199 4.57962E+01 3.00582E+01 0.00000E+00
 -1      2200 4.56461E+01 3.08289E+01 0.00000E+00
 -1      2201 4.62068E+01 3.14456E+01 0.00000E+00
 -1      2202 4.11413E+01 2.04381E+01 0.00000E+00
 -1      2203 4.19080E+01 2.09920E+01 0.00000E+00
 -1      2204 4.40826E+01 2.21620E+01 0.00000E+00
 -1      2205 6.42300E+00 4.57510E+01 0.00000E+00
 -1      2206 4.26889E+01 2.07581E+01 0.00000E+00
 -1      2207 4.03829E+01 1.87172E+01 0.00000E+00
 -1      2208 4.07621E+01 1.95777E+01 0.00000E+00
 -1      2209 4.15986E+01 1.92274E+01 0.00000E+00
 -1      2210 7.17300E+00 4.44520E+01 0.00000E+00
 -1      2211 4.63932E+01 2.55100E+01 0.00000E+00
 -1      2212 4.68234E+01 2.76567E+01 0.00000E+00
 -1      2213 1.45665E+02 4.31193E+01 0.00000E+00
 -1      2214 4.52940E+01 2.36550E+01 0.00000E+00
 -1      2215 4.65199E+01 2.96913E+01 0.00000E+00
 -1      2216 4.56120E+01 3.32210E+01 0.00000E+00
 -1      2217 4.33258E+01 3.61229E+01 0.00000E+00
 -1      2218 3.78353E+01 3.82283E+01 0.00000E+00
 -1      2219 3.18080E+01 3.70555E+01 0.00000E+00
 -1      2220 2.90891E+01 3.41609E+01 0.00000E+00
 -1      2221 2.77215E+01 3.04644E+01 0.00000E+00
 -1      2222 2.75586E+01 2.65958E+01 0.00000E+00
 -1      2223 2.94205E+01 2.28493E+01 0.00000E+00
 -1      2224 2.93652E+01 2.20349E+01 0.00000E+00
 -1      2225 2.86140E+01 2.30720E+01 0.00000E+00
 -1      2226 3.26397E+01 2.01801E+01 0.00000E+00
 -1      2227 3.67405E+01 1.88429E+01 0.00000E+00
 -1      2228 3.46016E+01 1.92942E+01 0.00000E+00
 -1      2229 2.83250E+01 3.23863E+01 0.00000E+00
 -1      2230 3.39309E+01 3.81674E+01 0.00000E+00
 -1      2231 3.99716E+01 3.78266E+01 0.00000E+00
 -1      2232 1.07850E+01 5.30525E+00 0.00000E+00
 -1      2233 9.28500E+00 5.30525E+00 0.00000E+00
 -1      2234 6.49500E+00 3.01125E+01 0.00000E+00
 -1      2235 6.49500E+00 3.15875E+01 0.00000E+00
 -1      2236 6.49500E+00 3.30625E+01 0.00000E+00
 -1      2237 6.49500E+00 3.45375E+01 0.00000E+00
 -1      2238 7.79400E+00 3.23250E+01 0.00000E+00
 -1      2239 6.49500E+00 2.42125E+01 0.00000E+00
 -1      2240 6.49500E+00 2.56875E+01 0.00000E+00
 -1      2241 6.49500E+00 2.12625E+01 0.00000E+00
 -1      2242 6.49500E+00 2.27375E+01 0.00000E+00
 -1      2243 7.79400E+00 2.34750E+01 0.00000E+00
 -1      2244 6.49500E+00 1.83625E+01 0.00000E+00
 -1      2245 6.49500E+00 1.98125E+01 0.00000E+00
 -1      2246 7.79400E+00 2.05500E+01 0.00000E+00
 -1      2247 6.49500E+00 1.54125E+01 0.00000E+00
 -1      2248 6.49500E+00 1.68875E+01 0.00000E+00
 -1      2249 7.79400E+00 1.76250E+01 0.00000E+00
 -1      2250 6.49500E+00 1.24625E+01 0.00000E+00
 -1      2251 6.49500E+00 1.39375E+01 0.00000E+00
 -1      2252 7.79400E+00 1.46750E+01 0.00000E+00
 -1      2253 6.49500E+00 9.51250E+00 0.00000E+00
 -1      2254 6.49500E+00 1.09875E+01 0.00000E+00
 -1      2255 7.79400E+00 1.17250E+01 0.00000E+00
 -1      2256 1.37850E+01 5.30525E+00 0.00000E+00
 -1      2257 1.22850E+01 5.30525E+00 0.00000E+00
 -1      2258 1.15350E+01 6.60425E+00 0.00000E+00
 -1      2259 9.90000E+00 4.35050E+01 0.00000E+00
 -1      2260 1.14000E+01 4.35050E+01 0.00000E+00
 -1      2261 4.28641E+01 1.98599E+01 0.00000E+00
 -1      2262 4.35751E+01 2.05301E+01 0.00000E+00
 -1      2263 1.29000E+01 4.35050E+01 0.00000E+00
 -1      2264 1.44000E+01 4.35050E+01 0.00000E+00
 -1      2265 1.21500E+01 4.22060E+01 0.00000E+00
 -1      2266 1.59000E+01 4.35050E+01 0.00000E+00
 -1      2267 1.74000E+01 4.35050E+01 0.00000E+00
 -1      2268 1.51500E+01 4.22060E+01 0.00000E+00
 -1      2269 1.89000E+01 4.35050E+01 0.00000E+00
 -1      2270 2.04000E+01 4.35050E+01 0.00000E+00
 -1      2271 1.81500E+01 4.22060E+01 0.00000E+00
 -1      2272 2.19000E+01 4.35050E+01 0.00000E+00
 -1      2273 2.34000E+01 4.35050E+01 0.00000E+00
 -1      2274 2.11500E+01 4.22060E+01 0.00000E+00
 -1      2275 2.49000E+01 4.35050E+01 0.00000E+00
 -1      2276 2.64000E+01 4.35050E+01 0.00000E+00
 -1      2277 2.41500E+01 4.22060E+01 0.00000E+00
 -1      2278 2.79000E+01 4.35050E+01 0.00000E+00
 -1      2279 2.94000E+01 4.35050E+01 0.00000E+00
 -1      2280 2.71500E+01 4.22060E+01 0.00000E+00
 -1      2281 3.09000E+01 4.35050E+01 0.00000E+00
 -1      2282 3.24000E+01 4.35050E+01 0.00000E+00
 -1      2283 3.01500E+01 4.22060E+01 0.00000E+00
 -1      2284 3.39000E+01 4.35050E+01 0.00000E+00
 -1      2285 3.54000E+01 4.35050E+01 0.00000E+00
 -1      2286 3.31500E+01 4.22060E+01 0.00000E+00
 -1      2287 3.69000E+01 4.35050E+01 0.00000E+00
 -1      2288 3.84000E+01 4.35050E+01 0.00000E+00
 -1      2289 3.61500E+01 4.22060E+01 0.00000E+00
 -1      2290 3.99000E+01 4.35050E+01 0.00000E+00
 -1      2291 4.14000E+01 4.35050E+01 0.00000E+00
 -1      2292 3.91500E+01 4.22060E+01 0.00000E+00
 -1      2293 4.29000E+01 4.35050E+01 0.00000E+00
 -1      2294 4.44000E+01 4.35050E+01 0.00000E+00
 -1      2295 4.21500E+01 4.22060E+01 0.00000E+00
 -1      2296 4.59000E+01 4.35050E+01 0.00000E+00
 -1      2297 4.74000E+01 4.35050E+01 0.00000E+00
 -1      2298 4.51500E+01 4.22060E+01 0.00000E+00
 -1      2299 4.89000E+01 4.35050E+01 0.00000E+00
 -1      2300 5.04000E+01 4.35050E+01 0.00000E+00
 -1      2301 4.81500E+01 4.22060E+01 0.00000E+00
 -1      2302 5.19000E+01 4.35050E+01 0.00000E+00
 -1      2303 5.34000E+01 4.35050E+01 0.00000E+00
 -1      2304 5.11500E+01 4.22060E+01 0.00000E+00
 -1      2305 5.49000E+01 4.35050E+01 0.00000E+00
 -1      2306 5.64000E+01 4.35050E+01 0.00000E+00
 -1      2307 5.41500E+01 4.22060E+01 0.00000E+00
 -1      2308 5.79000E+01 4.35050E+01 0.00000E+00
 -1      2309 5.94000E+01 4.35050E+01 0.00000E+00
 -1      2310 5.71500E+01 4.22060E+01 0.00000E+00
 -1      2311 6.09000E+01 4.35050E+01 0.00000E+00
 -1      2312 6.24000E+01 4.35050E+01 0.00000E+00
 -1      2313 6.01500E+01 4.22060E+01 0.00000E+00
 -1      2314 6.39000E+01 4.35050E+01 0.00000E+00
 -1      2315 6.54000E+01 4.35050E+01 0.00000E+00
 -1      2316 6.31500E+01 4.22060E+01 0.00000E+00
 -1      2317 6.69000E+01 4.35050E+01 0.00000E+00
 -1      2318 6.84000E+01 4.35050E+01 0.00000E+00
 -1      2319 6.61500E+01 4.22060E+01 0.00000E+00
 -1      2320 6.99000E+01 4.35050E+01 0.00000E+00
 -1      2321 7.14000E+01 4.35050E+01 0.00000E+00
 -1      2322 6.91500E+01 4.22060E+01 0.00000E+00
 -1      2323 7.29000E+01 4.35050E+01 0.00000E+00
 -1      2324 7.44000E+01 4.35050E+01 0.00000E+00
 -1      2325 7.21500E+01 4.22060E+01 0.00000E+00
 -1      2326 7.59000E+01 4.35050E+01 0.00000E+00
 -1      2327 7.74000E+01 4.35050E+01 0.00000E+00
 -1      2328 7.51500E+01 4.22060E+01 0.00000E+00
 -1      2329 7.89000E+01 4.35050E+01 0.00000E+00
 -1      2330 8.04000E+01 4.35050E+01 0.00000E+00
 -1      2331 7.81500E+01 4.22060E+01 0.00000E+00
 -1      2332 8.19000E+01 4.35050E+01 0.00000E+00
 -1      2333 8.34000E+01 4.35050E+01 0.00000E+00
 -1      2334 8.11500E+01 4.22060E+01 0.00000E+00
 -1      2335 8.49000E+01 4.35050E+01 0.00000E+00
 -1      2336 8.64000E+01 4.35050E+01 0.00000E+00
 -1      2337 8.41500E+01 4.22060E+01 0.00000E+00
 -1      2338 8.79000E+01 4.35050E+01 0.00000E+00
 -1      2339 8.94000E+01 4.35050E+01 0.00000E+00
 -1      2340 8.71500E+01 4.22060E+01 0.00000E+00
 -1      2341 9.09000E+01 4.35050E+01 0.00000E+00
 -1      2342 9.24000E+01 4.35050E+01 0.00000E+00
 -1      2343 9.01500E+01 4.22060E+01 0.00000E+00
 -1      2344 9.39000E+01 4.35050E+01 0.00000E+00
 -1      2345 9.54000E+01 4.35050E+01 0.00000E+00
 -1      2346 9.31500E+01 4.22060E+01 0.00000E+00
 -1      2347 9.69000E+01 4.35050E+01 0.00000E+00
 -1      2348 9.84000E+01 4.35050E+01 0.00000E+00
 -1      2349 9.61500E+01 4.22060E+01 0.00000E+00
 -1      2350 9.99000E+01 4.35050E+01 0.00000E+00
 -1      2351 1.01400E+02 4.35050E+01 0.00000E+00
 -1      2352 9.91500E+01 4.22060E+01 0.00000E+00
 -1      2353 1.02900E+02 4.35050E+01 0.00000E+00
 -1      2354 1.04400E+02 4.35050E+01 0.00000E+00
 -1      2355 1.02150E+02 4.22060E+01 0.00000E+00
 -1      2356 1.05900E+02 4.35050E+01 0.00000E+00
 -1      2357 1.07400E+02 4.35050E+01 0.00000E+00
 -1      2358 1.05150E+02 4.22060E+01 0.00000E+00
 -1      2359 1.08900E+02 4.35050E+01 0.00000E+00
 -1      2360 1.10400E+02 4.35050E+01 0.00000E+00
 -1      2361 1.08150E+02 4.22060E+01 0.00000E+00
 -1      2362 1.11900E+02 4.35050E+01 0.00000E+00
 -1      2363 1.13400E+02 4.35050E+01 0.00000E+00
 -1      2364 1.11150E+02 4.22060E+01 0.00000E+00
 -1      2365 1.14900E+02 4.35050E+01 0.00000E+00
 -1      2366 1.16400E+02 4.35050E+01 0.00000E+00
 -1      2367 1.14150E+02 4.22060E+01 0.00000E+00
 -1      2368 1.17900E+02 4.35050E+01 0.00000E+00
 -1      2369 1.19400E+02 4.35050E+01 0.00000E+00
 -1      2370 1.17150E+02 4.22060E+01 0.00000E+00
 -1      2371 1.20900E+02 4.35050E+01 0.00000E+00
 -1      2372 1.22400E+02 4.35050E+01 0.00000E+00
 -1      2373 1.20150E+02 4.22060E+01 0.00000E+00
 -1      2374 1.23900E+02 4.35050E+01 0.00000E+00
 -1      2375 1.25400E+02 4.35050E+01 0.00000E+00
 -1      2376 1.23150E+02 4.22060E+01 0.00000E+00
 -1      2377 1.26900E+02 4.35050E+01 0.00000E+00
 -1      2378 1.28400E+02 4.35050E+01 0.00000E+00
 -1      2379 1.26150E+02 4.22060E+01 0.00000E+00
 -1      2380 1.29900E+02 4.35050E+01 0.00000E+00
 -1      2381 1.31400E+02 4.35050E+01 0.00000E+00
 -1      2382 1.29150E+02 4.22060E+01 0.00000E+00
 -1      2383 1.32900E+02 4.35050E+01 0.00000E+00
 -1      2384 1.34400E+02 4.35050E+01 0.00000E+00
 -1      2385 1.32150E+02 4.22060E+01 0.00000E+00
 -1      2386 1.35900E+02 4.35050E+01 0.00000E+00
 -1      2387 1.37400E+02 4.35050E+01 0.00000E+00
 -1      2388 1.35150E+02 4.22060E+01 0.00000E+00
 -1      2389 1.38900E+02 4.35050E+01 0.00000E+00
 -1      2390 1.40400E+02 4.35050E+01 0.00000E+00
 -1      2391 1.38150E+02 4.22060E+01 0.00000E+00
 -1      2392 1.97850E+01 5.30525E+00 0.00000E+00
 -1      2393 1.82850E+01 5.30525E+00 0.00000E+00
 -1      2394 2.27850E+01 5.30525E+00 0.00000E+00
 -1      2395 2.12850E+01 5.30525E+00 0.00000E+00
 -1      2396 2.05350E+01 6.60425E+00 0.00000E+00
 -1      2397 2.57850E+01 5.30525E+00 0.00000E+00
 -1      2398 2.42850E+01 5.30525E+00 0.00000E+00
 -1      2399 2.35350E+01 6.60425E+00 0.00000E+00
 -1      2400 2.87850E+01 5.30525E+00 0.00000E+00
 -1      2401 2.72850E+01 5.30525E+00 0.00000E+00
 -1      2402 2.65350E+01 6.60425E+00 0.00000E+00
 -1      2403 3.17850E+01 5.30525E+00 0.00000E+00
 -1      2404 3.02850E+01 5.30525E+00 0.00000E+00
 -1      2405 2.95350E+01 6.60425E+00 0.00000E+00
 -1      2406 3.47850E+01 5.30525E+00 0.00000E+00
 -1      2407 3.32850E+01 5.30525E+00 0.00000E+00
 -1      2408 3.25350E+01 6.60425E+00 0.00000E+00
 -1      2409 3.77850E+01 5.30525E+00 0.00000E+00
 -1      2410 3.62850E+01 5.30525E+00 0.00000E+00
 -1      2411 3.55350E+01 6.60425E+00 0.00000E+00
 -1      2412 4.07850E+01 5.30525E+00 0.00000E+00
 -1      2413 3.92850E+01 5.30525E+00 0.00000E+00
 -1      2414 3.85350E+01 6.60425E+00 0.00000E+00
 -1      2415 4.37850E+01 5.30525E+00 0.00000E+00
 -1      2416 4.22850E+01 5.30525E+00 0.00000E+00
 -1      2417 4.15350E+01 6.60425E+00 0.00000E+00
 -1      2418 4.67850E+01 5.30525E+00 0.00000E+00
 -1      2419 4.52850E+01 5.30525E+00 0.00000E+00
 -1      2420 4.45350E+01 6.60425E+00 0.00000E+00
 -1      2421 4.97850E+01 5.30525E+00 0.00000E+00
 -1      2422 4.82850E+01 5.30525E+00 0.00000E+00
 -1      2423 4.75350E+01 6.60425E+00 0.00000E+00
 -1      2424 5.27850E+01 5.30525E+00 0.00000E+00
 -1      2425 5.12850E+01 5.30525E+00 0.00000E+00
 -1      2426 5.05350E+01 6.60425E+00 0.00000E+00
 -1      2427 5.57850E+01 5.30525E+00 0.00000E+00
 -1      2428 5.42850E+01 5.30525E+00 0.00000E+00
 -1      2429 5.35350E+01 6.60425E+00 0.00000E+00
 -1      2430 5.87850E+01 5.30525E+00 0.00000E+00
 -1      2431 5.72850E+01 5.30525E+00 0.00000E+00
 -1      2432 5.65350E+01 6.60425E+00 0.00000E+00
 -1      2433 6.17850E+01 5.30525E+00 0.00000E+00
 -1      2434 6.02850E+01 5.30525E+00 0.00000E+00
 -1      2435 5.95350E+01 6.60425E+00 0.00000E+00
 -1      2436 6.47850E+01 5.30525E+00 0.00000E+00
 -1      2437 6.32850E+01 5.30525E+00 0.00000E+00
 -1      2438 6.25350E+01 6.60425E+00 0.00000E+00
 -1      2439 6.77850E+01 5.30525E+00 0.00000E+00
 -1      2440 6.62850E+01 5.30525E+00 0.00000E+00
 -1      2441 6.55350E+01 6.60425E+00 0.00000E+00
 -1      2442 7.07850E+01 5.30525E+00 0.00000E+00
 -1      2443 6.92850E+01 5.30525E+00 0.00000E+00
 -1      2444 6.85350E+01 6.60425E+00 0.00000E+00
 -1      2445 7.37850E+01 5.30525E+00 0.00000E+00
 -1      2446 7.22850E+01 5.30525E+00 0.00000E+00
 -1      2447 7.15350E+01 6.60425E+00 0.00000E+00
 -1      2448 7.67850E+01 5.30525E+00 0.00000E+00
 -1      2449 7.52850E+01 5.30525E+00 0.00000E+00
 -1      2450 7.45350E+01 6.60425E+00 0.00000E+00
 -1      2451 7.97850E+01 5.30525E+00 0.00000E+00
 -1      2452 7.82850E+01 5.30525E+00 0.00000E+00
 -1      2453 7.75350E+01 6.60425E+00 0.00000E+00
 -1      2454 8.27850E+01 5.30525E+00 0.00000E+00
 -1      2455 8.12850E+01 5.30525E+00 0.00000E+00
 -1      2456 8.05350E+01 6.60425E+00 0.00000E+00
 -1      2457 8.57850E+01 5.30525E+00 0.00000E+00
 -1      2458 8.42850E+01 5.30525E+00 0.00000E+00
 -1      2459 8.35350E+01 6.60425E+00 0.00000E+00
 -1      2460 8.87850E+01 5.30525E+00 0.00000E+00
 -1      2461 8.72850E+01 5.30525E+00 0.00000E+00
 -1      2462 8.65350E+01 6.60425E+00 0.00000E+00
 -1      2463 9.17850E+01 5.30525E+00 0.00000E+00
 -1      2464 9.02850E+01 5.30525E+00 0.00000E+00
 -1      2465 8.95350E+01 6.60425E+00 0.00000E+00
 -1      2466 9.47850E+01 5.30525E+00 0.00000E+00
 -1      2467 9.32850E+01 5.30525E+00 0.00000E+00
 -1      2468 9.25350E+01 6.60425E+00 0.00000E+00
 -1      2469 9.77850E+01 5.30525E+00 0.00000E+00
 -1      2470 9.62850E+01 5.30525E+00 0.00000E+00
 -1      2471 9.55350E+01 6.60425E+00 0.00000E+00
 -1      2472 1.00785E+02 5.30525E+00 0.00000E+00
 -1      2473 9.92850E+01 5.30525E+00 0.00000E+00
 -1      2474 9.85350E+01 6.60425E+00 0.00000E+00
 -1      2475 1.03785E+02 5.30525E+00 0.00000E+00
 -1      2476 1.02285E+02 5.30525E+00 0.00000E+00
 -1      2477 1.01535E+02 6.60425E+00 0.00000E+00
 -1      2478 1.06785E+02 5.30525E+00 0.00000E+00
 -1      2479 1.05285E+02 5.30525E+00 0.00000E+00
 -1      2480 1.04535E+02 6.60425E+00 0.00000E+00
 -1      2481 1.09785E+02 5.30525E+00 0.00000E+00
 -1      2482 1.08285E+02 5.30525E+00 0.00000E+00
 -1      2483 1.07535E+02 6.60425E+00 0.00000E+00
 -1      2484 1.12785E+02 5.30525E+00 0.00000E+00
 -1      2485 1.11285E+02 5.30525E+00 0.00000E+00
 -1      2486 1.10535E+02 6.60425E+00 0.00000E+00
 -1      2487 1.15785E+02 5.30525E+00 0.00000E+00
 -1      2488 1.14285E+02 5.30525E+00 0.00000E+00
 -1      2489 1.13535E+02 6.60425E+00 0.00000E+00
 -1      2490 1.18785E+02 5.30525E+00 0.00000E+00
 -1      2491 1.17285E+02 5.30525E+00 0.00000E+00
 -1      2492 1.16535E+02 6.60425E+00 0.00000E+00
 -1      2493 1.21785E+02 5.30525E+00 0.00000E+00
 -1      2494 1.20285E+02 5.30525E+00 0.00000E+00
 -1      2495 1.19535E+02 6.60425E+00 0.00000E+00
 -1      2496 1.24785E+02 5.30525E+00 0.00000E+00
 -1      2497 1.23285E+02 5.30525E+00 0.00000E+00
 -1      2498 1.22535E+02 6.60425E+00 0.00000E+00
 -1      2499 1.27785E+02 5.30525E+00 0.00000E+00
 -1      2500 1.26285E+02 5.30525E+00 0.00000E+00
 -1      2501 1.25535E+02 6.60425E+00 0.00000E+00
 -1      2502 1.30785E+02 5.30525E+00 0.00000E+00
 -1      2503 1.29285E+02 5.30525E+00 0.00000E+00
 -1      2504 1.28535E+02 6.60425E+00 0.00000E+00
 -1      2505 1.33785E+02 5.30525E+00 0.00000E+00
 -1      2506 1.32285E+02 5.30525E+00 0.00000E+00
 -1      2507 1.31535E+02 6.60425E+00 0.00000E+00
 -1      2508 1.36785E+02 5.30525E+00 0.00000E+00
 -1      2509 1.35285E+02 5.30525E+00 0.00000E+00
 -1      2510 1.34535E+02 6.60425E+00 0.00000E+00
 -1      2511 1.39785E+02 5.30525E+00 0.00000E+00
 -1      2512 1.38285E+02 5.30525E+00 0.00000E+00
 -1      2513 1.37535E+02 6.60425E+00 0.00000E+00
 -1      2514 1.42785E+02 5.30525E+00 0.00000E+00
 -1      2515 1.41285E+02 5.30525E+00 0.00000E+00
 -1      2516 1.40535E+02 6.60425E+00 0.00000E+00
 -1      2517 1.44336E+02 5.26953E+00 0.00000E+00
 -1      2518 1.43505E+02 1.69125E+01 0.00000E+00
 -1      2519 1.43505E+02 1.54375E+01 0.00000E+00
 -1      2520 1.43505E+02 1.98625E+01 0.00000E+00
 -1      2521 1.43505E+02 1.83875E+01 0.00000E+00
 -1      2522 1.42206E+02 1.76500E+01 0.00000E+00
 -1      2523 1.43505E+02 1.10625E+01 0.00000E+00
 -1      2524 1.43505E+02 9.58750E+00 0.00000E+00
 -1      2525 1.43505E+02 1.39750E+01 0.00000E+00
 -1      2526 1.43505E+02 1.25250E+01 0.00000E+00
 -1      2527 1.42206E+02 1.17875E+01 0.00000E+00
 -1      2528 1.42206E+02 1.47125E+01 0.00000E+00
 -1      2529 1.43505E+02 2.28125E+01 0.00000E+00
 -1      2530 1.43505E+02 2.13375E+01 0.00000E+00
 -1      2531 1.42206E+02 2.06000E+01 0.00000E+00
 -1      2532 1.43505E+02 2.57625E+01 0.00000E+00
 -1      2533 1.43505E+02 2.42875E+01 0.00000E+00
 -1      2534 1.42206E+02 2.35500E+01 0.00000E+00
 -1      2535 1.43505E+02 2.87125E+01 0.00000E+00
 -1      2536 1.43505E+02 2.72375E+01 0.00000E+00
 -1      2537 1.42206E+02 2.65000E+01 0.00000E+00
 -1      2538 1.43505E+02 3.16125E+01 0.00000E+00
 -1      2539 1.43505E+02 3.01625E+01 0.00000E+00
 -1      2540 1.42206E+02 2.94250E+01 0.00000E+00
 -1      2541 1.43505E+02 3.45625E+01 0.00000E+00
 -1      2542 1.43505E+02 3.30875E+01 0.00000E+00
 -1      2543 1.42206E+02 3.23500E+01 0.00000E+00
 -1      2544 1.43505E+02 3.75125E+01 0.00000E+00
 -1      2545 1.43505E+02 3.60375E+01 0.00000E+00
 -1      2546 1.42206E+02 3.53000E+01 0.00000E+00
 -1      2547 1.43505E+02 4.04625E+01 0.00000E+00
 -1      2548 1.43505E+02 3.89875E+01 0.00000E+00
 -1      2549 1.42206E+02 3.82500E+01 0.00000E+00
 -1      2550 4.78266E+01 2.72558E+01 0.00000E+00
 -1      2551 4.76863E+01 2.83069E+01 0.00000E+00
 -1      2552 4.56646E+01 2.28332E+01 0.00000E+00
 -1      2553 4.61933E+01 2.35926E+01 0.00000E+00
 -1      2554 1.67850E+01 5.30525E+00 0.00000E+00
 -1      2555 1.52850E+01 5.30525E+00 0.00000E+00
 -1      2556 1.75350E+01 6.60425E+00 0.00000E+00
 -1      2557 1.44321E+02 4.30606E+01 0.00000E+00
 -1      2558 4.75232E+01 2.92904E+01 0.00000E+00
 -1      2559 4.73601E+01 3.02739E+01 0.00000E+00
 -1      2560 4.85264E+01 2.88895E+01 0.00000E+00
 -1      2561 4.67571E+01 2.46242E+01 0.00000E+00
 -1      2562 4.73276E+01 2.57198E+01 0.00000E+00
 -1      2563 4.66185E+01 3.30657E+01 0.00000E+00
 -1      2564 4.61738E+01 3.40705E+01 0.00000E+00
 -1      2565 3.84956E+01 3.90847E+01 0.00000E+00
 -1      2566 3.74421E+01 3.92356E+01 0.00000E+00
 -1      2567 3.15846E+01 3.82304E+01 0.00000E+00
 -1      2568 3.06657E+01 3.74098E+01 0.00000E+00
 -1      2569 2.85186E+01 3.50595E+01 0.00000E+00
 -1      2570 2.80253E+01 3.41967E+01 0.00000E+00
 -1      2571 3.17862E+01 1.96583E+01 0.00000E+00
 -1      2572 3.26996E+01 1.91815E+01 0.00000E+00
 -1      2573 6.49500E+00 2.71625E+01 0.00000E+00
 -1      2574 6.49500E+00 2.86375E+01 0.00000E+00
 -1      2575 7.79400E+00 2.93750E+01 0.00000E+00
 -1      2576 7.79400E+00 2.64250E+01 0.00000E+00
 -1      2577 3.37481E+01 1.87724E+01 0.00000E+00
 -1      2578 3.47965E+01 1.83633E+01 0.00000E+00
 -1      2579 3.28945E+01 1.82506E+01 0.00000E+00
 -1      2580 3.83851E+01 1.80614E+01 0.00000E+00
 -1      2581 3.92429E+01 1.81948E+01 0.00000E+00
 -1      2582 2.77588E+01 3.30505E+01 0.00000E+00
 -1      2583 2.74880E+01 3.21388E+01 0.00000E+00
 -1      2584 3.61588E+01 1.79234E+01 0.00000E+00
 -1      2585 3.72493E+01 1.78812E+01 0.00000E+00
 -1      2586 3.00738E+01 2.08686E+01 0.00000E+00
 -1      2587 3.08511E+01 2.02910E+01 0.00000E+00
 -1      2588 2.72721E+01 2.46231E+01 0.00000E+00
 -1      2589 2.77051E+01 2.38520E+01 0.00000E+00
 -1      2590 2.66790E+01 2.70207E+01 0.00000E+00
 -1      2591 2.69237E+01 2.58534E+01 0.00000E+00
 -1      2592 2.66807E+01 2.90619E+01 0.00000E+00
 -1      2593 2.66433E+01 2.82164E+01 0.00000E+00
 -1      2594 3.42917E+01 3.93095E+01 0.00000E+00
 -1      2595 3.30878E+01 3.90181E+01 0.00000E+00
 -1      2596 2.71529E+01 3.12115E+01 0.00000E+00
 -1      2597 2.68202E+01 3.02014E+01 0.00000E+00
 -1      2598 2.99188E+01 3.65375E+01 0.00000E+00
 -1      2599 2.92655E+01 3.59319E+01 0.00000E+00
 -1      2600 2.82016E+01 3.59677E+01 0.00000E+00
 -1      2601 2.96954E+01 3.77124E+01 0.00000E+00
 -1      2602 4.06610E+01 3.85832E+01 0.00000E+00
 -1      2603 3.95783E+01 3.88339E+01 0.00000E+00
 -1      2604 3.91850E+01 3.98412E+01 0.00000E+00
 -1      2605 3.62786E+01 3.92527E+01 0.00000E+00
 -1      2606 3.54552E+01 3.92924E+01 0.00000E+00
 -1      2607 3.46121E+01 4.01431E+01 0.00000E+00
 -1      2608 3.69389E+01 4.01090E+01 0.00000E+00
 -1      2609 4.26179E+01 3.78180E+01 0.00000E+00
 -1      2610 4.19334E+01 3.82388E+01 0.00000E+00
 -1      2611 4.44228E+01 3.65952E+01 0.00000E+00
 -1      2612 4.35204E+01 3.72066E+01 0.00000E+00
 -1      2613 4.37149E+01 3.82903E+01 0.00000E+00
 -1      2614 4.56927E+01 3.51024E+01 0.00000E+00
 -1      2615 4.52232E+01 3.57452E+01 0.00000E+00
 -1      2616 4.70643E+01 3.12845E+01 0.00000E+00
 -1      2617 4.69143E+01 3.20552E+01 0.00000E+00
 -1      2618 4.74761E+01 3.29047E+01 0.00000E+00
 -1      2619 4.80676E+01 3.08836E+01 0.00000E+00
 -1      2620 6.55950E+00 4.28890E+01 0.00000E+00
 -1      2621 8.53650E+00 4.32410E+01 0.00000E+00
 -1      2622 9.28650E+00 4.19420E+01 0.00000E+00
 -1      2623 6.55950E+00 4.14140E+01 0.00000E+00
 -1      2624 8.07525E+00 5.11044E+00 0.00000E+00
 -1      2625 6.57525E+00 5.11044E+00 0.00000E+00
 -1      2626 6.40575E+00 6.01981E+00 0.00000E+00
 -1      2627 8.82525E+00 6.40944E+00 0.00000E+00
 -1      2628 4.43691E+01 2.12110E+01 0.00000E+00
 -1      2629 4.50517E+01 2.19447E+01 0.00000E+00
 -1      2630 3.53053E+01 1.74015E+01 0.00000E+00
 -1      2631 7.79400E+00 3.52687E+01 0.00000E+00
 -1      2632 6.49500E+00 3.60062E+01 0.00000E+00
 -1      2633 6.49500E+00 3.74750E+01 0.00000E+00
 -1      2634 1.45350E+01 6.60425E+00 0.00000E+00
 -1      2635 6.40575E+00 7.49481E+00 0.00000E+00
 -1      2636 4.45443E+01 2.03128E+01 0.00000E+00
 -1      2637 2.65867E+01 3.18758E+01 0.00000E+00
 -1      2638 4.00794E+01 1.78445E+01 0.00000E+00
 -1      2639 4.54178E+01 3.68289E+01 0.00000E+00
 -1      2640 2.61122E+01 2.98091E+01 0.00000E+00
 -1      2641 2.60084E+01 2.74740E+01 0.00000E+00
 -1      2642 1.43586E+02 6.56853E+00 0.00000E+00
 -1      2643 4.59511E+01 2.18822E+01 0.00000E+00
 -1      2644 1.43419E+02 7.72713E+00 0.00000E+00
 -1      2645 2.63925E+01 2.50480E+01 0.00000E+00
 -1      2646 4.85544E+01 2.54841E+01 0.00000E+00
 -1      2647 4.81905E+01 2.63699E+01 0.00000E+00
 -1      2648 4.90534E+01 2.70201E+01 0.00000E+00
 -1      2649 4.71277E+01 2.38024E+01 0.00000E+00
 -1      2650 2.92674E+01 2.10914E+01 0.00000E+00
 -1      2651 2.91695E+01 2.01478E+01 0.00000E+00
 -1      2652 2.84609E+01 2.13141E+01 0.00000E+00
 -1      2653 7.70475E+00 8.23231E+00 0.00000E+00
 -1      2654 6.55950E+00 3.99453E+01 0.00000E+00
 -1      2655 4.66992E+01 3.49471E+01 0.00000E+00
 -1      2656 4.15401E+01 3.92461E+01 0.00000E+00
 -1      2657 3.09110E+01 1.92924E+01 0.00000E+00
 -1      2658 3.19455E+01 3.93725E+01 0.00000E+00
 -1      2659 2.71883E+01 3.39492E+01 0.00000E+00
 -1      2660 2.76498E+01 2.30376E+01 0.00000E+00
 -1      2661 4.24849E+01 1.89994E+01 0.00000E+00
 -1      2662 4.33711E+01 1.87715E+01 0.00000E+00
 -1      2663 4.21057E+01 1.81390E+01 0.00000E+00
 -1      2664 3.78035E+01 1.71419E+01 0.00000E+00
 -1      2665 1.42758E+02 4.35929E+01 0.00000E+00
 -1      2666 1.43241E+02 4.17323E+01 0.00000E+00
 -1      2667 1.41942E+02 4.09948E+01 0.00000E+00
 -1      2668 1.41414E+02 4.35342E+01 0.00000E+00
 -1      2669 1.42120E+02 8.46463E+00 0.00000E+00
 -1      2670 1.40664E+02 4.22352E+01 0.00000E+00
 -1      2671 9.09300E+00 1.98250E+01 0.00000E+00
 -1      2672 9.09300E+00 2.12750E+01 0.00000E+00
 -1      2673 9.09300E+00 2.27500E+01 0.00000E+00
 -1      2674 9.09300E+00 2.42250E+01 0.00000E+00
 -1      2675 1.03920E+01 2.20250E+01 0.00000E+00
 -1      2676 9.09300E+00 1.39375E+01 0.00000E+00
 -1      2677 9.09300E+00 1.54125E+01 0.00000E+00
 -1      2678 9.09300E+00 1.09875E+01 0.00000E+00
 -1      2679 9.09300E+00 1.24625E+01 0.00000E+00
 -1      2680 1.03920E+01 1.32000E+01 0.00000E+00
 -1      2681 1.22850E+01 7.90325E+00 0.00000E+00
 -1      2682 1.07850E+01 7.90325E+00 0.00000E+00
 -1      2683 7.85850E+00 3.92077E+01 0.00000E+00
 -1      2684 8.91450E+00 8.42712E+00 0.00000E+00
 -1      2685 2.60266E+01 3.26024E+01 0.00000E+00
 -1      2686 2.56915E+01 3.16752E+01 0.00000E+00
 -1      2687 9.32250E+00 4.05749E+01 0.00000E+00
 -1      2688 1.06860E+01 4.08389E+01 0.00000E+00
 -1      2689 1.21860E+01 4.08389E+01 0.00000E+00
 -1      2690 9.25800E+00 3.81046E+01 0.00000E+00
 -1      2691 1.44000E+01 4.09070E+01 0.00000E+00
 -1      2692 1.59000E+01 4.09070E+01 0.00000E+00
 -1      2693 1.74000E+01 4.09070E+01 0.00000E+00
 -1      2694 1.89000E+01 4.09070E+01 0.00000E+00
 -1      2695 1.66500E+01 3.96080E+01 0.00000E+00
 -1      2696 2.04000E+01 4.09070E+01 0.00000E+00
 -1      2697 2.19000E+01 4.09070E+01 0.00000E+00
 -1      2698 1.96500E+01 3.96080E+01 0.00000E+00
 -1      2699 2.34000E+01 4.09070E+01 0.00000E+00
 -1      2700 2.49000E+01 4.09070E+01 0.00000E+00
 -1      2701 2.26500E+01 3.96080E+01 0.00000E+00
 -1      2702 2.64000E+01 4.09070E+01 0.00000E+00
 -1      2703 2.79000E+01 4.09070E+01 0.00000E+00
 -1      2704 2.56500E+01 3.96080E+01 0.00000E+00
 -1      2705 3.25493E+01 4.11831E+01 0.00000E+00
 -1      2706 3.40493E+01 4.11831E+01 0.00000E+00
 -1      2707 3.52127E+01 4.11660E+01 0.00000E+00
 -1      2708 3.67127E+01 4.11660E+01 0.00000E+00
 -1      2709 3.78762E+01 4.11490E+01 0.00000E+00
 -1      2710 3.93762E+01 4.11490E+01 0.00000E+00
 -1      2711 4.17312E+01 4.05539E+01 0.00000E+00
 -1      2712 4.32312E+01 4.05539E+01 0.00000E+00
 -1      2713 4.74000E+01 4.09070E+01 0.00000E+00
 -1      2714 4.89000E+01 4.09070E+01 0.00000E+00
 -1      2715 5.04000E+01 4.09070E+01 0.00000E+00
 -1      2716 5.19000E+01 4.09070E+01 0.00000E+00
 -1      2717 4.96500E+01 3.96080E+01 0.00000E+00
 -1      2718 5.34000E+01 4.09070E+01 0.00000E+00
 -1      2719 5.49000E+01 4.09070E+01 0.00000E+00
 -1      2720 5.26500E+01 3.96080E+01 0.00000E+00
 -1      2721 5.64000E+01 4.09070E+01 0.00000E+00
 -1      2722 5.79000E+01 4.09070E+01 0.00000E+00
 -1      2723 5.56500E+01 3.96080E+01 0.00000E+00
 -1      2724 5.94000E+01 4.09070E+01 0.00000E+00
 -1      2725 6.09000E+01 4.09070E+01 0.00000E+00
 -1      2726 5.86500E+01 3.96080E+01 0.00000E+00
 -1      2727 6.24000E+01 4.09070E+01 0.00000E+00
 -1      2728 6.39000E+01 4.09070E+01 0.00000E+00
 -1      2729 6.16500E+01 3.96080E+01 0.00000E+00
 -1      2730 6.54000E+01 4.09070E+01 0.00000E+00
 -1      2731 6.69000E+01 4.09070E+01 0.00000E+00
 -1      2732 6.46500E+01 3.96080E+01 0.00000E+00
 -1      2733 6.84000E+01 4.09070E+01 0.00000E+00
 -1      2734 6.99000E+01 4.09070E+01 0.00000E+00
 -1      2735 6.76500E+01 3.96080E+01 0.00000E+00
 -1      2736 7.14000E+01 4.09070E+01 0.00000E+00
 -1      2737 7.29000E+01 4.09070E+01 0.00000E+00
 -1      2738 7.06500E+01 3.96080E+01 0.00000E+00
 -1      2739 7.44000E+01 4.09070E+01 0.00000E+00
 -1      2740 7.59000E+01 4.09070E+01 0.00000E+00
 -1      2741 7.36500E+01 3.96080E+01 0.00000E+00
 -1      2742 7.74000E+01 4.09070E+01 0.00000E+00
 -1      2743 7.89000E+01 4.09070E+01 0.00000E+00
 -1      2744 7.66500E+01 3.96080E+01 0.00000E+00
 -1      2745 8.04000E+01 4.09070E+01 0.00000E+00
 -1      2746 8.19000E+01 4.09070E+01 0.00000E+00
 -1      2747 7.96500E+01 3.96080E+01 0.00000E+00
 -1      2748 8.34000E+01 4.09070E+01 0.00000E+00
 -1      2749 8.49000E+01 4.09070E+01 0.00000E+00
 -1      2750 8.26500E+01 3.96080E+01 0.00000E+00
 -1      2751 8.64000E+01 4.09070E+01 0.00000E+00
 -1      2752 8.79000E+01 4.09070E+01 0.00000E+00
 -1      2753 8.56500E+01 3.96080E+01 0.00000E+00
 -1      2754 8.94000E+01 4.09070E+01 0.00000E+00
 -1      2755 9.09000E+01 4.09070E+01 0.00000E+00
 -1      2756 8.86500E+01 3.96080E+01 0.00000E+00
 -1      2757 9.24000E+01 4.09070E+01 0.00000E+00
 -1      2758 9.39000E+01 4.09070E+01 0.00000E+00
 -1      2759 9.16500E+01 3.96080E+01 0.00000E+00
 -1      2760 9.54000E+01 4.09070E+01 0.00000E+00
 -1      2761 9.69000E+01 4.09070E+01 0.00000E+00
 -1      2762 9.46500E+01 3.96080E+01 0.00000E+00
 -1      2763 9.84000E+01 4.09070E+01 0.00000E+00
 -1      2764 9.99000E+01 4.09070E+01 0.00000E+00
 -1      2765 9.76500E+01 3.96080E+01 0.00000E+00
 -1      2766 1.01400E+02 4.09070E+01 0.00000E+00
 -1      2767 1.02900E+02 4.09070E+01 0.00000E+00
 -1      2768 1.00650E+02 3.96080E+01 0.00000E+00
 -1      2769 1.04400E+02 4.09070E+01 0.00000E+00
 -1      2770 1.05900E+02 4.09070E+01 0.00000E+00
 -1      2771 1.03650E+02 3.96080E+01 0.00000E+00
 -1      2772 1.07400E+02 4.09070E+01 0.00000E+00
 -1      2773 1.08900E+02 4.09070E+01 0.00000E+00
 -1      2774 1.06650E+02 3.96080E+01 0.00000E+00
 -1      2775 1.10400E+02 4.09070E+01 0.00000E+00
 -1      2776 1.11900E+02 4.09070E+01 0.00000E+00
 -1      2777 1.09650E+02 3.96080E+01 0.00000E+00
 -1      2778 1.13400E+02 4.09070E+01 0.00000E+00
 -1      2779 1.14900E+02 4.09070E+01 0.00000E+00
 -1      2780 1.12650E+02 3.96080E+01 0.00000E+00
 -1      2781 1.16400E+02 4.09070E+01 0.00000E+00
 -1      2782 1.17900E+02 4.09070E+01 0.00000E+00
 -1      2783 1.15650E+02 3.96080E+01 0.00000E+00
 -1      2784 1.19400E+02 4.09070E+01 0.00000E+00
 -1      2785 1.20900E+02 4.09070E+01 0.00000E+00
 -1      2786 1.18650E+02 3.96080E+01 0.00000E+00
 -1      2787 1.22400E+02 4.09070E+01 0.00000E+00
 -1      2788 1.23900E+02 4.09070E+01 0.00000E+00
 -1      2789 1.21650E+02 3.96080E+01 0.00000E+00
 -1      2790 1.25400E+02 4.09070E+01 0.00000E+00
 -1      2791 1.26900E+02 4.09070E+01 0.00000E+00
 -1      2792 1.24650E+02 3.96080E+01 0.00000E+00
 -1      2793 1.28400E+02 4.09070E+01 0.00000E+00
 -1      2794 1.29900E+02 4.09070E+01 0.00000E+00
 -1      2795 1.27650E+02 3.96080E+01 0.00000E+00
 -1      2796 1.31400E+02 4.09070E+01 0.00000E+00
 -1      2797 1.32900E+02 4.09070E+01 0.00000E+00
 -1      2798 1.30650E+02 3.96080E+01 0.00000E+00
 -1      2799 1.34400E+02 4.09070E+01 0.00000E+00
 -1      2800 1.35900E+02 4.09070E+01 0.00000E+00
 -1      2801 1.33650E+02 3.96080E+01 0.00000E+00
 -1      2802 1.37400E+02 4.09070E+01 0.00000E+00
 -1      2803 1.38900E+02 4.09070E+01 0.00000E+00
 -1      2804 1.36650E+02 3.96080E+01 0.00000E+00
 -1      2805 2.42850E+01 7.90325E+00 0.00000E+00
 -1      2806 2.27850E+01 7.90325E+00 0.00000E+00
 -1      2807 1.40706E+02 1.03250E+01 0.00000E+00
 -1      2808 1.40620E+02 8.46463E+00 0.00000E+00
 -1      2809 1.39120E+02 8.46463E+00 0.00000E+00
 -1      2810 2.12850E+01 7.90325E+00 0.00000E+00
 -1      2811 1.97850E+01 7.90325E+00 0.00000E+00
 -1      2812 2.20350E+01 9.20225E+00 0.00000E+00
 -1      2813 3.02850E+01 7.90325E+00 0.00000E+00
 -1      2814 2.87850E+01 7.90325E+00 0.00000E+00
 -1      2815 3.32850E+01 7.90325E+00 0.00000E+00
 -1      2816 3.17850E+01 7.90325E+00 0.00000E+00
 -1      2817 3.10350E+01 9.20225E+00 0.00000E+00
 -1      2818 3.62850E+01 7.90325E+00 0.00000E+00
 -1      2819 3.47850E+01 7.90325E+00 0.00000E+00
 -1      2820 3.40350E+01 9.20225E+00 0.00000E+00
 -1      2821 3.92850E+01 7.90325E+00 0.00000E+00
 -1      2822 3.77850E+01 7.90325E+00 0.00000E+00
 -1      2823 3.70350E+01 9.20225E+00 0.00000E+00
 -1      2824 4.22850E+01 7.90325E+00 0.00000E+00
 -1      2825 4.07850E+01 7.90325E+00 0.00000E+00
 -1      2826 4.00350E+01 9.20225E+00 0.00000E+00
 -1      2827 4.52850E+01 7.90325E+00 0.00000E+00
 -1      2828 4.37850E+01 7.90325E+00 0.00000E+00
 -1      2829 4.30350E+01 9.20225E+00 0.00000E+00
 -1      2830 4.82850E+01 7.90325E+00 0.00000E+00
 -1      2831 4.67850E+01 7.90325E+00 0.00000E+00
 -1      2832 4.60350E+01 9.20225E+00 0.00000E+00
 -1      2833 5.12850E+01 7.90325E+00 0.00000E+00
 -1      2834 4.97850E+01 7.90325E+00 0.00000E+00
 -1      2835 4.90350E+01 9.20225E+00 0.00000E+00
 -1      2836 5.42850E+01 7.90325E+00 0.00000E+00
 -1      2837 5.27850E+01 7.90325E+00 0.00000E+00
 -1      2838 5.20350E+01 9.20225E+00 0.00000E+00
 -1      2839 5.72850E+01 7.90325E+00 0.00000E+00
 -1      2840 5.57850E+01 7.90325E+00 0.00000E+00
 -1      2841 5.50350E+01 9.20225E+00 0.00000E+00
 -1      2842 6.02850E+01 7.90325E+00 0.00000E+00
 -1      2843 5.87850E+01 7.90325E+00 0.00000E+00
 -1      2844 5.80350E+01 9.20225E+00 0.00000E+00
 -1      2845 6.32850E+01 7.90325E+00 0.00000E+00
 -1      2846 6.17850E+01 7.90325E+00 0.00000E+00
 -1      2847 6.10350E+01 9.20225E+00 0.00000E+00
 -1      2848 6.62850E+01 7.90325E+00 0.00000E+00
 -1      2849 6.47850E+01 7.90325E+00 0.00000E+00
 -1      2850 6.40350E+01 9.20225E+00 0.00000E+00
 -1      2851 6.92850E+01 7.90325E+00 0.00000E+00
 -1      2852 6.77850E+01 7.90325E+00 0.00000E+00
 -1      2853 6.70350E+01 9.20225E+00 0.00000E+00
 -1      2854 7.22850E+01 7.90325E+00 0.00000E+00
 -1      2855 7.07850E+01 7.90325E+00 0.00000E+00
 -1      2856 7.00350E+01 9.20225E+00 0.00000E+00
 -1      2857 7.52850E+01 7.90325E+00 0.00000E+00
 -1      2858 7.37850E+01 7.90325E+00 0.00000E+00
 -1      2859 7.30350E+01 9.20225E+00 0.00000E+00
 -1      2860 7.82850E+01 7.90325E+00 0.00000E+00
 -1      2861 7.67850E+01 7.90325E+00 0.00000E+00
 -1      2862 7.60350E+01 9.20225E+00 0.00000E+00
 -1      2863 8.12850E+01 7.90325E+00 0.00000E+00
 -1      2864 7.97850E+01 7.90325E+00 0.00000E+00
 -1      2865 7.90350E+01 9.20225E+00 0.00000E+00
 -1      2866 8.42850E+01 7.90325E+00 0.00000E+00
 -1      2867 8.27850E+01 7.90325E+00 0.00000E+00
 -1      2868 8.20350E+01 9.20225E+00 0.00000E+00
 -1      2869 8.72850E+01 7.90325E+00 0.00000E+00
 -1      2870 8.57850E+01 7.90325E+00 0.00000E+00
 -1      2871 8.50350E+01 9.20225E+00 0.00000E+00
 -1      2872 9.02850E+01 7.90325E+00 0.00000E+00
 -1      2873 8.87850E+01 7.90325E+00 0.00000E+00
 -1      2874 8.80350E+01 9.20225E+00 0.00000E+00
 -1      2875 9.32850E+01 7.90325E+00 0.00000E+00
 -1      2876 9.17850E+01 7.90325E+00 0.00000E+00
 -1      2877 9.10350E+01 9.20225E+00 0.00000E+00
 -1      2878 9.62850E+01 7.90325E+00 0.00000E+00
 -1      2879 9.47850E+01 7.90325E+00 0.00000E+00
 -1      2880 9.40350E+01 9.20225E+00 0.00000E+00
 -1      2881 9.92850E+01 7.90325E+00 0.00000E+00
 -1      2882 9.77850E+01 7.90325E+00 0.00000E+00
 -1      2883 9.70350E+01 9.20225E+00 0.00000E+00
 -1      2884 1.02285E+02 7.90325E+00 0.00000E+00
 -1      2885 1.00785E+02 7.90325E+00 0.00000E+00
 -1      2886 1.00035E+02 9.20225E+00 0.00000E+00
 -1      2887 1.05285E+02 7.90325E+00 0.00000E+00
 -1      2888 1.03785E+02 7.90325E+00 0.00000E+00
 -1      2889 1.03035E+02 9.20225E+00 0.00000E+00
 -1      2890 1.08285E+02 7.90325E+00 0.00000E+00
 -1      2891 1.06785E+02 7.90325E+00 0.00000E+00
 -1      2892 1.06035E+02 9.20225E+00 0.00000E+00
 -1      2893 1.11285E+02 7.90325E+00 0.00000E+00
 -1      2894 1.09785E+02 7.90325E+00 0.00000E+00
 -1      2895 1.09035E+02 9.20225E+00 0.00000E+00
 -1      2896 1.14285E+02 7.90325E+00 0.00000E+00
 -1      2897 1.12785E+02 7.90325E+00 0.00000E+00
 -1      2898 1.12035E+02 9.20225E+00 0.00000E+00
 -1      2899 1.17285E+02 7.90325E+00 0.00000E+00
 -1      2900 1.15785E+02 7.90325E+00 0.00000E+00
 -1      2901 1.15035E+02 9.20225E+00 0.00000E+00
 -1      2902 1.20285E+02 7.90325E+00 0.00000E+00
 -1      2903 1.18785E+02 7.90325E+00 0.00000E+00
 -1      2904 1.18035E+02 9.20225E+00 0.00000E+00
 -1      2905 1.23285E+02 7.90325E+00 0.00000E+00
 -1      2906 1.21785E+02 7.90325E+00 0.00000E+00
 -1      2907 1.21035E+02 9.20225E+00 0.00000E+00
 -1      2908 1.26285E+02 7.90325E+00 0.00000E+00
 -1      2909 1.24785E+02 7.90325E+00 0.00000E+00
 -1      2910 1.24035E+02 9.20225E+00 0.00000E+00
 -1      2911 1.29285E+02 7.90325E+00 0.00000E+00
 -1      2912 1.27785E+02 7.90325E+00 0.00000E+00
 -1      2913 1.27035E+02 9.20225E+00 0.00000E+00
 -1      2914 1.32285E+02 7.90325E+00 0.00000E+00
 -1      2915 1.30785E+02 7.90325E+00 0.00000E+00
 -1      2916 1.30035E+02 9.20225E+00 0.00000E+00
 -1      2917 1.35285E+02 7.90325E+00 0.00000E+00
 -1      2918 1.33785E+02 7.90325E+00 0.00000E+00
 -1      2919 1.33035E+02 9.20225E+00 0.00000E+00
 -1      2920 1.37953E+02 8.18394E+00 0.00000E+00
 -1      2921 1.36453E+02 8.18394E+00 0.00000E+00
 -1      2922 1.35703E+02 9.48294E+00 0.00000E+00
 -1      2923 1.38038E+02 1.00443E+01 0.00000E+00
 -1      2924 4.64195E+01 2.09035E+01 0.00000E+00
 -1      2925 4.70324E+01 2.17920E+01 0.00000E+00
 -1      2926 1.40907E+02 2.42875E+01 0.00000E+00
 -1      2927 1.40907E+02 2.28125E+01 0.00000E+00
 -1      2928 1.39914E+02 4.09362E+01 0.00000E+00
 -1      2929 1.40928E+02 4.09655E+01 0.00000E+00
 -1      2930 1.39164E+02 3.96372E+01 0.00000E+00
 -1      2931 1.40907E+02 1.83875E+01 0.00000E+00
 -1      2932 1.40907E+02 1.69125E+01 0.00000E+00
 -1      2933 1.40907E+02 2.72375E+01 0.00000E+00
 -1      2934 1.40907E+02 2.57625E+01 0.00000E+00
 -1      2935 1.39608E+02 2.50250E+01 0.00000E+00
 -1      2936 1.40907E+02 2.13375E+01 0.00000E+00
 -1      2937 1.40907E+02 1.98625E+01 0.00000E+00
 -1      2938 1.39608E+02 1.91250E+01 0.00000E+00
 -1      2939 1.39608E+02 2.20750E+01 0.00000E+00
 -1      2940 1.40907E+02 3.01375E+01 0.00000E+00
 -1      2941 1.40907E+02 2.86875E+01 0.00000E+00
 -1      2942 1.39608E+02 2.79500E+01 0.00000E+00
 -1      2943 1.40907E+02 3.30875E+01 0.00000E+00
 -1      2944 1.40907E+02 3.16125E+01 0.00000E+00
 -1      2945 1.39608E+02 3.08750E+01 0.00000E+00
 -1      2946 1.40907E+02 3.60375E+01 0.00000E+00
 -1      2947 1.40907E+02 3.45625E+01 0.00000E+00
 -1      2948 1.39608E+02 3.38250E+01 0.00000E+00
 -1      2949 4.75962E+01 2.28236E+01 0.00000E+00
 -1      2950 4.81600E+01 2.38552E+01 0.00000E+00
 -1      2951 4.80646E+01 2.18449E+01 0.00000E+00
 -1      2952 4.95366E+01 2.85517E+01 0.00000E+00
 -1      2953 4.93735E+01 2.95352E+01 0.00000E+00
 -1      2954 2.99629E+01 1.88985E+01 0.00000E+00
 -1      2955 3.08980E+01 1.82658E+01 0.00000E+00
 -1      2956 4.71841E+01 3.77935E+01 0.00000E+00
 -1      2957 4.63837E+01 3.86434E+01 0.00000E+00
 -1      2958 1.82850E+01 7.90325E+00 0.00000E+00
 -1      2959 1.67850E+01 7.90325E+00 0.00000E+00
 -1      2960 1.90350E+01 9.20225E+00 0.00000E+00
 -1      2961 2.72850E+01 7.90325E+00 0.00000E+00
 -1      2962 2.57850E+01 7.90325E+00 0.00000E+00
 -1      2963 2.50350E+01 9.20225E+00 0.00000E+00
 -1      2964 2.80350E+01 9.20225E+00 0.00000E+00
 -1      2965 1.52850E+01 7.90325E+00 0.00000E+00
 -1      2966 1.37850E+01 7.90325E+00 0.00000E+00
 -1      2967 1.30350E+01 9.20225E+00 0.00000E+00
 -1      2968 1.60350E+01 9.20225E+00 0.00000E+00
 -1      2969 2.66369E+01 2.27769E+01 0.00000E+00
 -1      2970 2.75458E+01 2.19968E+01 0.00000E+00
 -1      2971 4.47055E+01 1.93214E+01 0.00000E+00
 -1      2972 4.54995E+01 2.00023E+01 0.00000E+00
 -1      2973 4.78689E+01 3.48644E+01 0.00000E+00
 -1      2974 4.73878E+01 3.58963E+01 0.00000E+00
 -1      2975 3.99713E+01 1.65752E+01 0.00000E+00
 -1      2976 4.11113E+01 1.70976E+01 0.00000E+00
 -1      2977 9.09300E+00 1.68813E+01 0.00000E+00
 -1      2978 9.09300E+00 1.83563E+01 0.00000E+00
 -1      2979 1.03920E+01 1.90812E+01 0.00000E+00
 -1      2980 1.03920E+01 1.61437E+01 0.00000E+00
 -1      2981 1.41192E+02 3.96958E+01 0.00000E+00
 -1      2982 3.10462E+01 4.03954E+01 0.00000E+00
 -1      2983 2.53125E+01 2.54066E+01 0.00000E+00
 -1      2984 2.56610E+01 2.41763E+01 0.00000E+00
 -1      2985 2.65595E+01 3.48948E+01 0.00000E+00
 -1      2986 2.62930E+01 3.37486E+01 0.00000E+00
 -1      2987 2.53978E+01 3.35479E+01 0.00000E+00
 -1      2988 9.09300E+00 3.15875E+01 0.00000E+00
 -1      2989 9.09300E+00 3.30625E+01 0.00000E+00
 -1      2990 2.51334E+01 2.80462E+01 0.00000E+00
 -1      2991 2.51690E+01 2.68506E+01 0.00000E+00
 -1      2992 3.20281E+01 1.75781E+01 0.00000E+00
 -1      2993 3.30766E+01 1.71691E+01 0.00000E+00
 -1      2994 2.50812E+01 3.05136E+01 0.00000E+00
 -1      2995 2.49418E+01 2.93741E+01 0.00000E+00
 -1      2996 3.73962E+01 1.60393E+01 0.00000E+00
 -1      2997 3.85321E+01 1.62196E+01 0.00000E+00
 -1      2998 3.44389E+01 1.67291E+01 0.00000E+00
 -1      2999 3.58012E+01 1.62892E+01 0.00000E+00
 -1      3000 3.35725E+01 1.60567E+01 0.00000E+00
 -1      3001 4.42231E+01 3.94221E+01 0.00000E+00
 -1      3002 4.46419E+01 4.10742E+01 0.00000E+00
 -1      3003 4.61419E+01 4.10742E+01 0.00000E+00
 -1      3004 4.51256E+01 3.88107E+01 0.00000E+00
 -1      3005 2.95462E+01 4.03954E+01 0.00000E+00
 -1      3006 2.87962E+01 3.90964E+01 0.00000E+00
 -1      3007 9.09300E+00 3.45313E+01 0.00000E+00
 -1      3008 9.09300E+00 3.60000E+01 0.00000E+00
 -1      3009 1.03920E+01 3.37938E+01 0.00000E+00
 -1      3010 1.03920E+01 2.49750E+01 0.00000E+00
 -1      3011 9.09300E+00 2.57000E+01 0.00000E+00
 -1      3012 9.09300E+00 2.71750E+01 0.00000E+00
 -1      3013 2.55569E+01 2.31355E+01 0.00000E+00
 -1      3014 2.54529E+01 2.20947E+01 0.00000E+00
 -1      3015 2.44770E+01 2.34942E+01 0.00000E+00
 -1      3016 2.80493E+01 3.82240E+01 0.00000E+00
 -1      3017 1.29360E+01 3.95399E+01 0.00000E+00
 -1      3018 1.41192E+02 3.82207E+01 0.00000E+00
 -1      3019 3.95641E+01 1.54727E+01 0.00000E+00
 -1      3020 4.04589E+01 4.08982E+01 0.00000E+00
 -1      3021 1.39608E+02 1.61875E+01 0.00000E+00
 -1      3022 1.40907E+02 1.54500E+01 0.00000E+00
 -1      3023 1.40907E+02 1.39875E+01 0.00000E+00
 -1      3024 5.00880E+01 3.02080E+01 0.00000E+00
 -1      3025 4.90778E+01 3.05458E+01 0.00000E+00
 -1      3026 4.87820E+01 3.15563E+01 0.00000E+00
 -1      3027 4.65808E+01 1.99121E+01 0.00000E+00
 -1      3028 1.40706E+02 1.17875E+01 0.00000E+00
 -1      3029 2.91565E+01 1.91212E+01 0.00000E+00
 -1      3030 2.91434E+01 1.80946E+01 0.00000E+00
 -1      3031 2.83500E+01 1.93440E+01 0.00000E+00
 -1      3032 3.65298E+01 1.53669E+01 0.00000E+00
 -1      3033 3.72585E+01 1.44446E+01 0.00000E+00
 -1      3034 3.56635E+01 1.46945E+01 0.00000E+00
 -1      3035 4.90228E+01 2.45054E+01 0.00000E+00
 -1      3036 4.98857E+01 2.51555E+01 0.00000E+00
 -1      3037 4.94913E+01 2.35266E+01 0.00000E+00
 -1      3038 1.39893E+02 3.74832E+01 0.00000E+00
 -1      3039 9.66450E+00 9.72612E+00 0.00000E+00
 -1      3040 1.09635E+01 1.04636E+01 0.00000E+00
 -1      3041 4.99005E+01 2.76658E+01 0.00000E+00
 -1      3042 5.07476E+01 2.83116E+01 0.00000E+00
 -1      3043 5.02644E+01 2.67800E+01 0.00000E+00
 -1      3044 2.74480E+01 2.10533E+01 0.00000E+00
 -1      3045 4.83537E+01 3.77107E+01 0.00000E+00
 -1      3046 3.10800E+01 1.71843E+01 0.00000E+00
 -1      3047 4.19976E+01 1.68697E+01 0.00000E+00
 -1      3048 4.81646E+01 3.38538E+01 0.00000E+00
 -1      3049 4.88532E+01 3.48029E+01 0.00000E+00
 -1      3050 4.84604E+01 3.28432E+01 0.00000E+00
 -1      3051 9.09300E+00 2.86437E+01 0.00000E+00
 -1      3052 9.09300E+00 3.01187E+01 0.00000E+00
 -1      3053 1.03920E+01 3.08563E+01 0.00000E+00
 -1      3054 1.03920E+01 2.79188E+01 0.00000E+00
 -1      3055 4.43264E+01 1.84610E+01 0.00000E+00
 -1      3056 4.52816E+01 1.81504E+01 0.00000E+00
 -1      3057 4.39472E+01 1.76005E+01 0.00000E+00
 -1      3058 2.45211E+01 3.12402E+01 0.00000E+00
 -1      3059 2.41024E+01 2.87507E+01 0.00000E+00
 -1      3060 2.67829E+01 3.59954E+01 0.00000E+00
 -1      3061 2.58877E+01 3.57948E+01 0.00000E+00
 -1      3062 2.44375E+01 2.59789E+01 0.00000E+00
 -1      3063 2.75298E+01 3.68677E+01 0.00000E+00
 -1      3064 1.16910E+01 1.24625E+01 0.00000E+00
 -1      3065 1.16910E+01 1.39375E+01 0.00000E+00
 -1      3066 1.05570E+01 3.73671E+01 0.00000E+00
 -1      3067 1.59000E+01 3.83090E+01 0.00000E+00
 -1      3068 1.74000E+01 3.83090E+01 0.00000E+00
 -1      3069 1.89000E+01 3.83090E+01 0.00000E+00
 -1      3070 2.04000E+01 3.83090E+01 0.00000E+00
 -1      3071 1.81500E+01 3.70100E+01 0.00000E+00
 -1      3072 2.19000E+01 3.83090E+01 0.00000E+00
 -1      3073 2.34000E+01 3.83090E+01 0.00000E+00
 -1      3074 2.11500E+01 3.70100E+01 0.00000E+00
 -1      3075 2.51306E+01 3.82517E+01 0.00000E+00
 -1      3076 2.66306E+01 3.82517E+01 0.00000E+00
 -1      3077 1.21215E+01 3.78040E+01 0.00000E+00
 -1      3078 1.43355E+01 3.78721E+01 0.00000E+00
 -1      3079 1.50855E+01 3.65731E+01 0.00000E+00
 -1      3080 1.19565E+01 3.56994E+01 0.00000E+00
 -1      3081 5.19000E+01 3.83090E+01 0.00000E+00
 -1      3082 5.34000E+01 3.83090E+01 0.00000E+00
 -1      3083 5.49000E+01 3.83090E+01 0.00000E+00
 -1      3084 5.64000E+01 3.83090E+01 0.00000E+00
 -1      3085 5.41500E+01 3.70100E+01 0.00000E+00
 -1      3086 5.79000E+01 3.83090E+01 0.00000E+00
 -1      3087 5.94000E+01 3.83090E+01 0.00000E+00
 -1      3088 5.71500E+01 3.70100E+01 0.00000E+00
 -1      3089 6.09000E+01 3.83090E+01 0.00000E+00
 -1      3090 6.24000E+01 3.83090E+01 0.00000E+00
 -1      3091 6.01500E+01 3.70100E+01 0.00000E+00
 -1      3092 6.39000E+01 3.83090E+01 0.00000E+00
 -1      3093 6.54000E+01 3.83090E+01 0.00000E+00
 -1      3094 6.31500E+01 3.70100E+01 0.00000E+00
 -1      3095 6.69000E+01 3.83090E+01 0.00000E+00
 -1      3096 6.84000E+01 3.83090E+01 0.00000E+00
 -1      3097 6.61500E+01 3.70100E+01 0.00000E+00
 -1      3098 6.99000E+01 3.83090E+01 0.00000E+00
 -1      3099 7.14000E+01 3.83090E+01 0.00000E+00
 -1      3100 6.91500E+01 3.70100E+01 0.00000E+00
 -1      3101 7.29000E+01 3.83090E+01 0.00000E+00
 -1      3102 7.44000E+01 3.83090E+01 0.00000E+00
 -1      3103 7.21500E+01 3.70100E+01 0.00000E+00
 -1      3104 7.59000E+01 3.83090E+01 0.00000E+00
 -1      3105 7.74000E+01 3.83090E+01 0.00000E+00
 -1      3106 7.51500E+01 3.70100E+01 0.00000E+00
 -1      3107 7.89000E+01 3.83090E+01 0.00000E+00
 -1      3108 8.04000E+01 3.83090E+01 0.00000E+00
 -1      3109 7.81500E+01 3.70100E+01 0.00000E+00
 -1      3110 8.19000E+01 3.83090E+01 0.00000E+00
 -1      3111 8.34000E+01 3.83090E+01 0.00000E+00
 -1      3112 8.11500E+01 3.70100E+01 0.00000E+00
 -1      3113 8.49000E+01 3.83090E+01 0.00000E+00
 -1      3114 8.64000E+01 3.83090E+01 0.00000E+00
 -1      3115 8.41500E+01 3.70100E+01 0.00000E+00
 -1      3116 8.79000E+01 3.83090E+01 0.00000E+00
 -1      3117 8.94000E+01 3.83090E+01 0.00000E+00
 -1      3118 8.71500E+01 3.70100E+01 0.00000E+00
 -1      3119 9.09000E+01 3.83090E+01 0.00000E+00
 -1      3120 9.24000E+01 3.83090E+01 0.00000E+00
 -1      3121 9.01500E+01 3.70100E+01 0.00000E+00
 -1      3122 9.39000E+01 3.83090E+01 0.00000E+00
 -1      3123 9.54000E+01 3.83090E+01 0.00000E+00
 -1      3124 9.31500E+01 3.70100E+01 0.00000E+00
 -1      3125 9.69000E+01 3.83090E+01 0.00000E+00
 -1      3126 9.84000E+01 3.83090E+01 0.00000E+00
 -1      3127 9.61500E+01 3.70100E+01 0.00000E+00
 -1      3128 9.99000E+01 3.83090E+01 0.00000E+00
 -1      3129 1.01400E+02 3.83090E+01 0.00000E+00
 -1      3130 9.91500E+01 3.70100E+01 0.00000E+00
 -1      3131 1.02900E+02 3.83090E+01 0.00000E+00
 -1      3132 1.04400E+02 3.83090E+01 0.00000E+00
 -1      3133 1.02150E+02 3.70100E+01 0.00000E+00
 -1      3134 1.05900E+02 3.83090E+01 0.00000E+00
 -1      3135 1.07400E+02 3.83090E+01 0.00000E+00
 -1      3136 1.05150E+02 3.70100E+01 0.00000E+00
 -1      3137 1.08900E+02 3.83090E+01 0.00000E+00
 -1      3138 1.10400E+02 3.83090E+01 0.00000E+00
 -1      3139 1.08150E+02 3.70100E+01 0.00000E+00
 -1      3140 1.11900E+02 3.83090E+01 0.00000E+00
 -1      3141 1.13400E+02 3.83090E+01 0.00000E+00
 -1      3142 1.11150E+02 3.70100E+01 0.00000E+00
 -1      3143 1.14900E+02 3.83090E+01 0.00000E+00
 -1      3144 1.16400E+02 3.83090E+01 0.00000E+00
 -1      3145 1.14150E+02 3.70100E+01 0.00000E+00
 -1      3146 1.17900E+02 3.83090E+01 0.00000E+00
 -1      3147 1.19400E+02 3.83090E+01 0.00000E+00
 -1      3148 1.17150E+02 3.70100E+01 0.00000E+00
 -1      3149 1.20900E+02 3.83090E+01 0.00000E+00
 -1      3150 1.22400E+02 3.83090E+01 0.00000E+00
 -1      3151 1.20150E+02 3.70100E+01 0.00000E+00
 -1      3152 1.23900E+02 3.83090E+01 0.00000E+00
 -1      3153 1.25400E+02 3.83090E+01 0.00000E+00
 -1      3154 1.23150E+02 3.70100E+01 0.00000E+00
 -1      3155 1.26900E+02 3.83090E+01 0.00000E+00
 -1      3156 1.28400E+02 3.83090E+01 0.00000E+00
 -1      3157 1.26150E+02 3.70100E+01 0.00000E+00
 -1      3158 1.29900E+02 3.83090E+01 0.00000E+00
 -1      3159 1.31400E+02 3.83090E+01 0.00000E+00
 -1      3160 1.29150E+02 3.70100E+01 0.00000E+00
 -1      3161 1.32900E+02 3.83090E+01 0.00000E+00
 -1      3162 1.34400E+02 3.83090E+01 0.00000E+00
 -1      3163 1.32150E+02 3.70100E+01 0.00000E+00
 -1      3164 1.35900E+02 3.83090E+01 0.00000E+00
 -1      3165 1.37400E+02 3.83090E+01 0.00000E+00
 -1      3166 1.35150E+02 3.70100E+01 0.00000E+00
 -1      3167 2.27850E+01 1.05013E+01 0.00000E+00
 -1      3168 2.12850E+01 1.05013E+01 0.00000E+00
 -1      3169 3.47850E+01 1.05013E+01 0.00000E+00
 -1      3170 3.32850E+01 1.05013E+01 0.00000E+00
 -1      3171 3.17850E+01 1.05013E+01 0.00000E+00
 -1      3172 3.02850E+01 1.05013E+01 0.00000E+00
 -1      3173 3.25350E+01 1.18003E+01 0.00000E+00
 -1      3174 4.07850E+01 1.05013E+01 0.00000E+00
 -1      3175 3.92850E+01 1.05013E+01 0.00000E+00
 -1      3176 4.37850E+01 1.05013E+01 0.00000E+00
 -1      3177 4.22850E+01 1.05013E+01 0.00000E+00
 -1      3178 4.15350E+01 1.18003E+01 0.00000E+00
 -1      3179 4.67850E+01 1.05013E+01 0.00000E+00
 -1      3180 4.52850E+01 1.05013E+01 0.00000E+00
 -1      3181 4.45350E+01 1.18003E+01 0.00000E+00
 -1      3182 4.97850E+01 1.05013E+01 0.00000E+00
 -1      3183 4.82850E+01 1.05013E+01 0.00000E+00
 -1      3184 4.75350E+01 1.18003E+01 0.00000E+00
 -1      3185 5.27850E+01 1.05013E+01 0.00000E+00
 -1      3186 5.12850E+01 1.05013E+01 0.00000E+00
 -1      3187 5.05350E+01 1.18003E+01 0.00000E+00
 -1      3188 5.57850E+01 1.05013E+01 0.00000E+00
 -1      3189 5.42850E+01 1.05013E+01 0.00000E+00
 -1      3190 5.35350E+01 1.18003E+01 0.00000E+00
 -1      3191 5.87850E+01 1.05013E+01 0.00000E+00
 -1      3192 5.72850E+01 1.05013E+01 0.00000E+00
 -1      3193 5.65350E+01 1.18003E+01 0.00000E+00
 -1      3194 6.17850E+01 1.05013E+01 0.00000E+00
 -1      3195 6.02850E+01 1.05013E+01 0.00000E+00
 -1      3196 5.95350E+01 1.18003E+01 0.00000E+00
 -1      3197 6.47850E+01 1.05013E+01 0.00000E+00
 -1      3198 6.32850E+01 1.05013E+01 0.00000E+00
 -1      3199 6.25350E+01 1.18003E+01 0.00000E+00
 -1      3200 6.77850E+01 1.05013E+01 0.00000E+00
 -1      3201 6.62850E+01 1.05013E+01 0.00000E+00
 -1      3202 6.55350E+01 1.18003E+01 0.00000E+00
 -1      3203 7.07850E+01 1.05013E+01 0.00000E+00
 -1      3204 6.92850E+01 1.05013E+01 0.00000E+00
 -1      3205 6.85350E+01 1.18003E+01 0.00000E+00
 -1      3206 7.37850E+01 1.05013E+01 0.00000E+00
 -1      3207 7.22850E+01 1.05013E+01 0.00000E+00
 -1      3208 7.15350E+01 1.18003E+01 0.00000E+00
 -1      3209 7.67850E+01 1.05013E+01 0.00000E+00
 -1      3210 7.52850E+01 1.05013E+01 0.00000E+00
 -1      3211 7.45350E+01 1.18003E+01 0.00000E+00
 -1      3212 7.97850E+01 1.05013E+01 0.00000E+00
 -1      3213 7.82850E+01 1.05013E+01 0.00000E+00
 -1      3214 7.75350E+01 1.18003E+01 0.00000E+00
 -1      3215 8.27850E+01 1.05013E+01 0.00000E+00
 -1      3216 8.12850E+01 1.05013E+01 0.00000E+00
 -1      3217 8.05350E+01 1.18003E+01 0.00000E+00
 -1      3218 8.57850E+01 1.05013E+01 0.00000E+00
 -1      3219 8.42850E+01 1.05013E+01 0.00000E+00
 -1      3220 8.35350E+01 1.18003E+01 0.00000E+00
 -1      3221 8.87850E+01 1.05013E+01 0.00000E+00
 -1      3222 8.72850E+01 1.05013E+01 0.00000E+00
 -1      3223 8.65350E+01 1.18003E+01 0.00000E+00
 -1      3224 9.17850E+01 1.05013E+01 0.00000E+00
 -1      3225 9.02850E+01 1.05013E+01 0.00000E+00
 -1      3226 8.95350E+01 1.18003E+01 0.00000E+00
 -1      3227 9.47850E+01 1.05013E+01 0.00000E+00
 -1      3228 9.32850E+01 1.05013E+01 0.00000E+00
 -1      3229 9.25350E+01 1.18003E+01 0.00000E+00
 -1      3230 9.77850E+01 1.05013E+01 0.00000E+00
 -1      3231 9.62850E+01 1.05013E+01 0.00000E+00
 -1      3232 9.55350E+01 1.18003E+01 0.00000E+00
 -1      3233 1.00785E+02 1.05013E+01 0.00000E+00
 -1      3234 9.92850E+01 1.05013E+01 0.00000E+00
 -1      3235 9.85350E+01 1.18003E+01 0.00000E+00
 -1      3236 1.03785E+02 1.05013E+01 0.00000E+00
 -1      3237 1.02285E+02 1.05013E+01 0.00000E+00
 -1      3238 1.01535E+02 1.18003E+01 0.00000E+00
 -1      3239 1.06785E+02 1.05013E+01 0.00000E+00
 -1      3240 1.05285E+02 1.05013E+01 0.00000E+00
 -1      3241 1.04535E+02 1.18003E+01 0.00000E+00
 -1      3242 1.09785E+02 1.05013E+01 0.00000E+00
 -1      3243 1.08285E+02 1.05013E+01 0.00000E+00
 -1      3244 1.07535E+02 1.18003E+01 0.00000E+00
 -1      3245 1.12785E+02 1.05013E+01 0.00000E+00
 -1      3246 1.11285E+02 1.05013E+01 0.00000E+00
 -1      3247 1.10535E+02 1.18003E+01 0.00000E+00
 -1      3248 1.15785E+02 1.05013E+01 0.00000E+00
 -1      3249 1.14285E+02 1.05013E+01 0.00000E+00
 -1      3250 1.13535E+02 1.18003E+01 0.00000E+00
 -1      3251 1.18785E+02 1.05013E+01 0.00000E+00
 -1      3252 1.17285E+02 1.05013E+01 0.00000E+00
 -1      3253 1.16535E+02 1.18003E+01 0.00000E+00
 -1      3254 1.21785E+02 1.05013E+01 0.00000E+00
 -1      3255 1.20285E+02 1.05013E+01 0.00000E+00
 -1      3256 1.19535E+02 1.18003E+01 0.00000E+00
 -1      3257 1.24785E+02 1.05013E+01 0.00000E+00
 -1      3258 1.23285E+02 1.05013E+01 0.00000E+00
 -1      3259 1.22535E+02 1.18003E+01 0.00000E+00
 -1      3260 1.27785E+02 1.05013E+01 0.00000E+00
 -1      3261 1.26285E+02 1.05013E+01 0.00000E+00
 -1      3262 1.25535E+02 1.18003E+01 0.00000E+00
 -1      3263 1.30785E+02 1.05013E+01 0.00000E+00
 -1      3264 1.29285E+02 1.05013E+01 0.00000E+00
 -1      3265 1.28535E+02 1.18003E+01 0.00000E+00
 -1      3266 1.33785E+02 1.05013E+01 0.00000E+00
 -1      3267 1.32285E+02 1.05013E+01 0.00000E+00
 -1      3268 1.31535E+02 1.18003E+01 0.00000E+00
 -1      3269 1.38309E+02 2.86750E+01 0.00000E+00
 -1      3270 1.38309E+02 2.72250E+01 0.00000E+00
 -1      3271 1.38309E+02 3.45625E+01 0.00000E+00
 -1      3272 1.38309E+02 3.30875E+01 0.00000E+00
 -1      3273 1.38309E+02 2.57500E+01 0.00000E+00
 -1      3274 1.38309E+02 2.42750E+01 0.00000E+00
 -1      3275 1.37010E+02 2.64750E+01 0.00000E+00
 -1      3276 3.25763E+01 1.53012E+01 0.00000E+00
 -1      3277 3.39387E+01 1.48613E+01 0.00000E+00
 -1      3278 3.00256E+01 1.67239E+01 0.00000E+00
 -1      3279 3.11558E+01 1.60363E+01 0.00000E+00
 -1      3280 4.86823E+01 2.08374E+01 0.00000E+00
 -1      3281 4.92461E+01 2.18691E+01 0.00000E+00
 -1      3282 3.90703E+01 1.43810E+01 0.00000E+00
 -1      3283 4.05095E+01 1.47366E+01 0.00000E+00
 -1      3284 1.97850E+01 1.05013E+01 0.00000E+00
 -1      3285 1.82850E+01 1.05013E+01 0.00000E+00
 -1      3286 2.05350E+01 1.18003E+01 0.00000E+00
 -1      3287 1.38309E+02 3.16187E+01 0.00000E+00
 -1      3288 1.38309E+02 3.01437E+01 0.00000E+00
 -1      3289 1.37010E+02 2.94188E+01 0.00000E+00
 -1      3290 1.37010E+02 3.23563E+01 0.00000E+00
 -1      3291 3.77850E+01 1.05013E+01 0.00000E+00
 -1      3292 3.62850E+01 1.05013E+01 0.00000E+00
 -1      3293 3.55350E+01 1.18003E+01 0.00000E+00
 -1      3294 3.85350E+01 1.18003E+01 0.00000E+00
 -1      3295 4.98537E+01 3.77107E+01 0.00000E+00
 -1      3296 4.68919E+01 3.97752E+01 0.00000E+00
 -1      3297 1.26488E+01 1.02017E+01 0.00000E+00
 -1      3298 1.20772E+01 1.14631E+01 0.00000E+00
 -1      3299 1.33763E+01 1.22006E+01 0.00000E+00
 -1      3300 1.41488E+01 1.02017E+01 0.00000E+00
 -1      3301 1.39407E+02 1.25250E+01 0.00000E+00
 -1      3302 2.33457E+01 2.65995E+01 0.00000E+00
 -1      3303 2.34892E+01 2.51556E+01 0.00000E+00
 -1      3304 2.40670E+01 3.22198E+01 0.00000E+00
 -1      3305 2.34568E+01 3.10582E+01 0.00000E+00
 -1      3306 2.29624E+01 2.92552E+01 0.00000E+00
 -1      3307 2.31541E+01 2.79274E+01 0.00000E+00
 -1      3308 2.22057E+01 2.71040E+01 0.00000E+00
 -1      3309 2.64275E+01 2.06402E+01 0.00000E+00
 -1      3310 2.73426E+01 1.99575E+01 0.00000E+00
 -1      3311 2.45999E+01 3.45122E+01 0.00000E+00
 -1      3312 2.43335E+01 3.33660E+01 0.00000E+00
 -1      3313 2.32692E+01 3.31840E+01 0.00000E+00
 -1      3314 4.69554E+01 1.86094E+01 0.00000E+00
 -1      3315 4.78754E+01 1.95106E+01 0.00000E+00
 -1      3316 2.43806E+01 3.69527E+01 0.00000E+00
 -1      3317 2.41571E+01 3.58521E+01 0.00000E+00
 -1      3318 1.16910E+01 2.12875E+01 0.00000E+00
 -1      3319 1.16910E+01 2.27625E+01 0.00000E+00
 -1      3320 4.19585E+01 1.55178E+01 0.00000E+00
 -1      3321 4.29528E+01 1.65591E+01 0.00000E+00
 -1      3322 4.39081E+01 1.62486E+01 0.00000E+00
 -1      3323 5.06037E+01 3.64117E+01 0.00000E+00
 -1      3324 1.16910E+01 2.42375E+01 0.00000E+00
 -1      3325 1.16910E+01 2.57125E+01 0.00000E+00
 -1      3326 1.29900E+01 2.35000E+01 0.00000E+00
 -1      3327 2.33852E+01 2.41148E+01 0.00000E+00
 -1      3328 2.32811E+01 2.30740E+01 0.00000E+00
 -1      3329 2.22933E+01 2.47354E+01 0.00000E+00
 -1      3330 4.61970E+01 1.68885E+01 0.00000E+00
 -1      3331 4.65762E+01 1.77490E+01 0.00000E+00
 -1      3332 4.78708E+01 1.73475E+01 0.00000E+00
 -1      3333 1.38309E+02 1.69188E+01 0.00000E+00
 -1      3334 1.38309E+02 1.54563E+01 0.00000E+00
 -1      3335 5.11393E+01 2.99671E+01 0.00000E+00
 -1      3336 5.08436E+01 3.09777E+01 0.00000E+00
 -1      3337 1.38274E+02 1.38503E+01 0.00000E+00
 -1      3338 1.38073E+02 1.16503E+01 0.00000E+00
 -1      3339 1.36905E+02 1.13696E+01 0.00000E+00
 -1      3340 1.36975E+02 1.45815E+01 0.00000E+00
 -1      3341 2.42850E+01 1.05013E+01 0.00000E+00
 -1      3342 2.35350E+01 1.18003E+01 0.00000E+00
 -1      3343 2.57850E+01 1.05013E+01 0.00000E+00
 -1      3344 1.69669E+01 1.03515E+01 0.00000E+00
 -1      3345 1.54669E+01 1.03515E+01 0.00000E+00
 -1      3346 1.50806E+01 1.13509E+01 0.00000E+00
 -1      3347 1.77169E+01 1.16505E+01 0.00000E+00
 -1      3348 2.95350E+01 1.18003E+01 0.00000E+00
 -1      3349 2.87850E+01 1.05013E+01 0.00000E+00
 -1      3350 2.72850E+01 1.05013E+01 0.00000E+00
 -1      3351 3.46673E+01 1.39389E+01 0.00000E+00
 -1      3352 1.35929E+02 1.10758E+01 0.00000E+00
 -1      3353 1.34761E+02 1.07951E+01 0.00000E+00
 -1      3354 1.34011E+02 1.20941E+01 0.00000E+00
 -1      3355 1.35964E+02 1.26817E+01 0.00000E+00
 -1      3356 1.38309E+02 1.98687E+01 0.00000E+00
 -1      3357 1.38309E+02 1.83937E+01 0.00000E+00
 -1      3358 1.37010E+02 1.76625E+01 0.00000E+00
 -1      3359 3.15220E+01 1.48408E+01 0.00000E+00
 -1      3360 1.38309E+02 2.28094E+01 0.00000E+00
 -1      3361 1.38309E+02 2.13344E+01 0.00000E+00
 -1      3362 1.37010E+02 2.06031E+01 0.00000E+00
 -1      3363 1.37010E+02 2.35344E+01 0.00000E+00
 -1      3364 2.73296E+01 1.89309E+01 0.00000E+00
 -1      3365 5.01090E+01 2.25192E+01 0.00000E+00
 -1      3366 5.09719E+01 2.31693E+01 0.00000E+00
 -1      3367 5.07266E+01 2.15118E+01 0.00000E+00
 -1      3368 5.07328E+01 2.58013E+01 0.00000E+00
 -1      3369 5.15799E+01 2.64470E+01 0.00000E+00
 -1      3370 5.12013E+01 2.48225E+01 0.00000E+00
 -1      3371 1.38414E+02 3.83382E+01 0.00000E+00
 -1      3372 1.38129E+02 3.61550E+01 0.00000E+00
 -1      3373 4.14647E+01 1.44261E+01 0.00000E+00
 -1      3374 5.18671E+01 2.81955E+01 0.00000E+00
 -1      3375 5.15032E+01 2.90813E+01 0.00000E+00
 -1      3376 5.22588E+01 2.98510E+01 0.00000E+00
 -1      3377 2.42676E+01 2.13575E+01 0.00000E+00
 -1      3378 2.53476E+01 2.09989E+01 0.00000E+00
 -1      3379 2.52422E+01 1.99030E+01 0.00000E+00
 -1      3380 2.84128E+01 1.71694E+01 0.00000E+00
 -1      3381 2.92192E+01 1.69466E+01 0.00000E+00
 -1      3382 2.92950E+01 1.57986E+01 0.00000E+00
 -1      3383 1.16910E+01 1.98188E+01 0.00000E+00
 -1      3384 1.29900E+01 2.05562E+01 0.00000E+00
 -1      3385 1.16910E+01 1.83500E+01 0.00000E+00
 -1      3386 4.90569E+01 1.95348E+01 0.00000E+00
 -1      3387 4.94706E+01 3.25055E+01 0.00000E+00
 -1      3388 2.25084E+01 3.02349E+01 0.00000E+00
 -1      3389 2.15601E+01 2.94115E+01 0.00000E+00
 -1      3390 2.20544E+01 3.12145E+01 0.00000E+00
 -1      3391 1.36830E+02 3.54175E+01 0.00000E+00
 -1      3392 1.16910E+01 1.54094E+01 0.00000E+00
 -1      3393 1.16910E+01 1.68781E+01 0.00000E+00
 -1      3394 1.29900E+01 1.76156E+01 0.00000E+00
 -1      3395 1.29900E+01 1.46719E+01 0.00000E+00
 -1      3396 1.19565E+01 3.27619E+01 0.00000E+00
 -1      3397 1.19565E+01 3.42306E+01 0.00000E+00
 -1      3398 1.35210E+01 3.46675E+01 0.00000E+00
 -1      3399 1.19565E+01 2.98244E+01 0.00000E+00
 -1      3400 1.19565E+01 3.12931E+01 0.00000E+00
 -1      3401 1.35210E+01 3.17300E+01 0.00000E+00
 -1      3402 2.04000E+01 3.57110E+01 0.00000E+00
 -1      3403 2.19000E+01 3.57110E+01 0.00000E+00
 -1      3404 3.34887E+01 1.29530E+01 0.00000E+00
 -1      3405 3.19887E+01 1.29530E+01 0.00000E+00
 -1      3406 5.34000E+01 3.57110E+01 0.00000E+00
 -1      3407 5.49000E+01 3.57110E+01 0.00000E+00
 -1      3408 5.15732E+01 3.20237E+01 0.00000E+00
 -1      3409 5.05219E+01 3.22646E+01 0.00000E+00
 -1      3410 5.02002E+01 3.35515E+01 0.00000E+00
 -1      3411 5.64000E+01 3.57110E+01 0.00000E+00
 -1      3412 5.79000E+01 3.57110E+01 0.00000E+00
 -1      3413 5.56500E+01 3.44120E+01 0.00000E+00
 -1      3414 5.94000E+01 3.57110E+01 0.00000E+00
 -1      3415 6.09000E+01 3.57110E+01 0.00000E+00
 -1      3416 5.86500E+01 3.44120E+01 0.00000E+00
 -1      3417 6.24000E+01 3.57110E+01 0.00000E+00
 -1      3418 6.39000E+01 3.57110E+01 0.00000E+00
 -1      3419 6.16500E+01 3.44120E+01 0.00000E+00
 -1      3420 6.54000E+01 3.57110E+01 0.00000E+00
 -1      3421 6.69000E+01 3.57110E+01 0.00000E+00
 -1      3422 6.46500E+01 3.44120E+01 0.00000E+00
 -1      3423 6.84000E+01 3.57110E+01 0.00000E+00
 -1      3424 6.99000E+01 3.57110E+01 0.00000E+00
 -1      3425 6.76500E+01 3.44120E+01 0.00000E+00
 -1      3426 7.14000E+01 3.57110E+01 0.00000E+00
 -1      3427 7.29000E+01 3.57110E+01 0.00000E+00
 -1      3428 7.06500E+01 3.44120E+01 0.00000E+00
 -1      3429 7.44000E+01 3.57110E+01 0.00000E+00
 -1      3430 7.59000E+01 3.57110E+01 0.00000E+00
 -1      3431 7.36500E+01 3.44120E+01 0.00000E+00
 -1      3432 7.74000E+01 3.57110E+01 0.00000E+00
 -1      3433 7.89000E+01 3.57110E+01 0.00000E+00
 -1      3434 7.66500E+01 3.44120E+01 0.00000E+00
 -1      3435 8.04000E+01 3.57110E+01 0.00000E+00
 -1      3436 8.19000E+01 3.57110E+01 0.00000E+00
 -1      3437 7.96500E+01 3.44120E+01 0.00000E+00
 -1      3438 8.34000E+01 3.57110E+01 0.00000E+00
 -1      3439 8.49000E+01 3.57110E+01 0.00000E+00
 -1      3440 8.26500E+01 3.44120E+01 0.00000E+00
 -1      3441 8.64000E+01 3.57110E+01 0.00000E+00
 -1      3442 8.79000E+01 3.57110E+01 0.00000E+00
 -1      3443 8.56500E+01 3.44120E+01 0.00000E+00
 -1      3444 8.94000E+01 3.57110E+01 0.00000E+00
 -1      3445 9.09000E+01 3.57110E+01 0.00000E+00
 -1      3446 8.86500E+01 3.44120E+01 0.00000E+00
 -1      3447 9.24000E+01 3.57110E+01 0.00000E+00
 -1      3448 9.39000E+01 3.57110E+01 0.00000E+00
 -1      3449 9.16500E+01 3.44120E+01 0.00000E+00
 -1      3450 9.54000E+01 3.57110E+01 0.00000E+00
 -1      3451 9.69000E+01 3.57110E+01 0.00000E+00
 -1      3452 9.46500E+01 3.44120E+01 0.00000E+00
 -1      3453 9.84000E+01 3.57110E+01 0.00000E+00
 -1      3454 9.99000E+01 3.57110E+01 0.00000E+00
 -1      3455 9.76500E+01 3.44120E+01 0.00000E+00
 -1      3456 1.01400E+02 3.57110E+01 0.00000E+00
 -1      3457 1.02900E+02 3.57110E+01 0.00000E+00
 -1      3458 1.00650E+02 3.44120E+01 0.00000E+00
 -1      3459 1.04400E+02 3.57110E+01 0.00000E+00
 -1      3460 1.05900E+02 3.57110E+01 0.00000E+00
 -1      3461 1.03650E+02 3.44120E+01 0.00000E+00
 -1      3462 1.07400E+02 3.57110E+01 0.00000E+00
 -1      3463 1.08900E+02 3.57110E+01 0.00000E+00
 -1      3464 1.06650E+02 3.44120E+01 0.00000E+00
 -1      3465 1.10400E+02 3.57110E+01 0.00000E+00
 -1      3466 1.11900E+02 3.57110E+01 0.00000E+00
 -1      3467 1.09650E+02 3.44120E+01 0.00000E+00
 -1      3468 1.13400E+02 3.57110E+01 0.00000E+00
 -1      3469 1.14900E+02 3.57110E+01 0.00000E+00
 -1      3470 1.12650E+02 3.44120E+01 0.00000E+00
 -1      3471 1.16400E+02 3.57110E+01 0.00000E+00
 -1      3472 1.17900E+02 3.57110E+01 0.00000E+00
 -1      3473 1.15650E+02 3.44120E+01 0.00000E+00
 -1      3474 1.19400E+02 3.57110E+01 0.00000E+00
 -1      3475 1.20900E+02 3.57110E+01 0.00000E+00
 -1      3476 1.18650E+02 3.44120E+01 0.00000E+00
 -1      3477 1.22400E+02 3.57110E+01 0.00000E+00
 -1      3478 1.23900E+02 3.57110E+01 0.00000E+00
 -1      3479 1.21650E+02 3.44120E+01 0.00000E+00
 -1      3480 1.25400E+02 3.57110E+01 0.00000E+00
 -1      3481 1.26900E+02 3.57110E+01 0.00000E+00
 -1      3482 1.24650E+02 3.44120E+01 0.00000E+00
 -1      3483 1.28400E+02 3.57110E+01 0.00000E+00
 -1      3484 1.29900E+02 3.57110E+01 0.00000E+00
 -1      3485 1.27650E+02 3.44120E+01 0.00000E+00
 -1      3486 1.31400E+02 3.57110E+01 0.00000E+00
 -1      3487 1.32900E+02 3.57110E+01 0.00000E+00
 -1      3488 1.30650E+02 3.44120E+01 0.00000E+00
 -1      3489 1.34115E+02 3.55643E+01 0.00000E+00
 -1      3490 1.35615E+02 3.55643E+01 0.00000E+00
 -1      3491 1.35795E+02 3.39717E+01 0.00000E+00
 -1      3492 1.33365E+02 3.42653E+01 0.00000E+00
 -1      3493 4.52850E+01 1.30992E+01 0.00000E+00
 -1      3494 4.37850E+01 1.30992E+01 0.00000E+00
 -1      3495 5.12850E+01 1.30992E+01 0.00000E+00
 -1      3496 4.97850E+01 1.30992E+01 0.00000E+00
 -1      3497 5.42850E+01 1.30992E+01 0.00000E+00
 -1      3498 5.27850E+01 1.30992E+01 0.00000E+00
 -1      3499 5.20350E+01 1.43982E+01 0.00000E+00
 -1      3500 5.72850E+01 1.30992E+01 0.00000E+00
 -1      3501 5.57850E+01 1.30992E+01 0.00000E+00
 -1      3502 5.50350E+01 1.43982E+01 0.00000E+00
 -1      3503 6.02850E+01 1.30992E+01 0.00000E+00
 -1      3504 5.87850E+01 1.30992E+01 0.00000E+00
 -1      3505 5.80350E+01 1.43982E+01 0.00000E+00
 -1      3506 6.32850E+01 1.30992E+01 0.00000E+00
 -1      3507 6.17850E+01 1.30992E+01 0.00000E+00
 -1      3508 6.10350E+01 1.43982E+01 0.00000E+00
 -1      3509 6.62850E+01 1.30992E+01 0.00000E+00
 -1      3510 6.47850E+01 1.30992E+01 0.00000E+00
 -1      3511 6.40350E+01 1.43982E+01 0.00000E+00
 -1      3512 6.92850E+01 1.30992E+01 0.00000E+00
 -1      3513 6.77850E+01 1.30992E+01 0.00000E+00
 -1      3514 6.70350E+01 1.43982E+01 0.00000E+00
 -1      3515 7.22850E+01 1.30992E+01 0.00000E+00
 -1      3516 7.07850E+01 1.30992E+01 0.00000E+00
 -1      3517 7.00350E+01 1.43982E+01 0.00000E+00
 -1      3518 7.52850E+01 1.30992E+01 0.00000E+00
 -1      3519 7.37850E+01 1.30992E+01 0.00000E+00
 -1      3520 7.30350E+01 1.43982E+01 0.00000E+00
 -1      3521 7.82850E+01 1.30992E+01 0.00000E+00
 -1      3522 7.67850E+01 1.30992E+01 0.00000E+00
 -1      3523 7.60350E+01 1.43982E+01 0.00000E+00
 -1      3524 8.12850E+01 1.30992E+01 0.00000E+00
 -1      3525 7.97850E+01 1.30992E+01 0.00000E+00
 -1      3526 7.90350E+01 1.43982E+01 0.00000E+00
 -1      3527 8.42850E+01 1.30992E+01 0.00000E+00
 -1      3528 8.27850E+01 1.30992E+01 0.00000E+00
 -1      3529 8.20350E+01 1.43982E+01 0.00000E+00
 -1      3530 8.72850E+01 1.30992E+01 0.00000E+00
 -1      3531 8.57850E+01 1.30992E+01 0.00000E+00
 -1      3532 8.50350E+01 1.43982E+01 0.00000E+00
 -1      3533 9.02850E+01 1.30992E+01 0.00000E+00
 -1      3534 8.87850E+01 1.30992E+01 0.00000E+00
 -1      3535 8.80350E+01 1.43982E+01 0.00000E+00
 -1      3536 9.32850E+01 1.30992E+01 0.00000E+00
 -1      3537 9.17850E+01 1.30992E+01 0.00000E+00
 -1      3538 9.10350E+01 1.43982E+01 0.00000E+00
 -1      3539 9.62850E+01 1.30992E+01 0.00000E+00
 -1      3540 9.47850E+01 1.30992E+01 0.00000E+00
 -1      3541 9.40350E+01 1.43982E+01 0.00000E+00
 -1      3542 9.92850E+01 1.30992E+01 0.00000E+00
 -1      3543 9.77850E+01 1.30992E+01 0.00000E+00
 -1      3544 9.70350E+01 1.43982E+01 0.00000E+00
 -1      3545 1.02285E+02 1.30992E+01 0.00000E+00
 -1      3546 1.00785E+02 1.30992E+01 0.00000E+00
 -1      3547 1.00035E+02 1.43982E+01 0.00000E+00
 -1      3548 1.05285E+02 1.30992E+01 0.00000E+00
 -1      3549 1.03785E+02 1.30992E+01 0.00000E+00
 -1      3550 1.03035E+02 1.43982E+01 0.00000E+00
 -1      3551 1.08285E+02 1.30992E+01 0.00000E+00
 -1      3552 1.06785E+02 1.30992E+01 0.00000E+00
 -1      3553 1.06035E+02 1.43982E+01 0.00000E+00
 -1      3554 1.11285E+02 1.30992E+01 0.00000E+00
 -1      3555 1.09785E+02 1.30992E+01 0.00000E+00
 -1      3556 1.09035E+02 1.43982E+01 0.00000E+00
 -1      3557 1.14285E+02 1.30992E+01 0.00000E+00
 -1      3558 1.12785E+02 1.30992E+01 0.00000E+00
 -1      3559 1.12035E+02 1.43982E+01 0.00000E+00
 -1      3560 1.17285E+02 1.30992E+01 0.00000E+00
 -1      3561 1.15785E+02 1.30992E+01 0.00000E+00
 -1      3562 1.15035E+02 1.43982E+01 0.00000E+00
 -1      3563 1.20285E+02 1.30992E+01 0.00000E+00
 -1      3564 1.18785E+02 1.30992E+01 0.00000E+00
 -1      3565 1.18035E+02 1.43982E+01 0.00000E+00
 -1      3566 1.23285E+02 1.30992E+01 0.00000E+00
 -1      3567 1.21785E+02 1.30992E+01 0.00000E+00
 -1      3568 1.21035E+02 1.43982E+01 0.00000E+00
 -1      3569 1.26285E+02 1.30992E+01 0.00000E+00
 -1      3570 1.24785E+02 1.30992E+01 0.00000E+00
 -1      3571 1.24035E+02 1.43982E+01 0.00000E+00
 -1      3572 1.29285E+02 1.30992E+01 0.00000E+00
 -1      3573 1.27785E+02 1.30992E+01 0.00000E+00
 -1      3574 1.27035E+02 1.43982E+01 0.00000E+00
 -1      3575 1.32285E+02 1.30992E+01 0.00000E+00
 -1      3576 1.30785E+02 1.30992E+01 0.00000E+00
 -1      3577 1.30035E+02 1.43982E+01 0.00000E+00
 -1      3578 2.63979E+01 1.83964E+01 0.00000E+00
 -1      3579 2.74054E+01 1.77829E+01 0.00000E+00
 -1      3580 2.74811E+01 1.66349E+01 0.00000E+00
 -1      3581 2.12850E+01 1.30992E+01 0.00000E+00
 -1      3582 1.97850E+01 1.30992E+01 0.00000E+00
 -1      3583 3.75565E+01 1.31662E+01 0.00000E+00
 -1      3584 3.84229E+01 1.38386E+01 0.00000E+00
 -1      3585 2.30928E+01 3.56701E+01 0.00000E+00
 -1      3586 5.08995E+01 3.54012E+01 0.00000E+00
 -1      3587 3.52135E+01 1.27862E+01 0.00000E+00
 -1      3588 1.18237E+01 2.70341E+01 0.00000E+00
 -1      3589 1.18237E+01 2.85028E+01 0.00000E+00
 -1      3590 1.33883E+01 2.89397E+01 0.00000E+00
 -1      3591 1.31228E+01 2.62966E+01 0.00000E+00
 -1      3592 1.35711E+02 2.72125E+01 0.00000E+00
 -1      3593 1.35711E+02 2.57375E+01 0.00000E+00
 -1      3594 4.82850E+01 1.30992E+01 0.00000E+00
 -1      3595 4.67850E+01 1.30992E+01 0.00000E+00
 -1      3596 4.60350E+01 1.43982E+01 0.00000E+00
 -1      3597 4.90350E+01 1.43982E+01 0.00000E+00
 -1      3598 4.96009E+01 1.82952E+01 0.00000E+00
 -1      3599 5.04078E+01 1.96220E+01 0.00000E+00
 -1      3600 3.93684E+01 1.31025E+01 0.00000E+00
 -1      3601 1.74000E+01 3.57110E+01 0.00000E+00
 -1      3602 1.89000E+01 3.57110E+01 0.00000E+00
 -1      3603 1.96500E+01 3.44120E+01 0.00000E+00
 -1      3604 2.10953E+01 2.76215E+01 0.00000E+00
 -1      3605 2.12869E+01 2.62937E+01 0.00000E+00
 -1      3606 2.23428E+01 3.43711E+01 0.00000E+00
 -1      3607 2.20764E+01 3.32249E+01 0.00000E+00
 -1      3608 4.37244E+01 1.48028E+01 0.00000E+00
 -1      3609 4.47187E+01 1.58441E+01 0.00000E+00
 -1      3610 3.05682E+01 1.36881E+01 0.00000E+00
 -1      3611 2.90682E+01 1.36881E+01 0.00000E+00
 -1      3612 2.11829E+01 2.52529E+01 0.00000E+00
 -1      3613 2.10789E+01 2.42121E+01 0.00000E+00
 -1      3614 2.00725E+01 2.57704E+01 0.00000E+00
 -1      3615 4.60133E+01 1.54426E+01 0.00000E+00
 -1      3616 2.42381E+01 1.91137E+01 0.00000E+00
 -1      3617 2.53180E+01 1.87550E+01 0.00000E+00
 -1      3618 2.53938E+01 1.76070E+01 0.00000E+00
 -1      3619 1.34412E+02 2.50094E+01 0.00000E+00
 -1      3620 1.35711E+02 2.42719E+01 0.00000E+00
 -1      3621 1.35711E+02 2.28062E+01 0.00000E+00
 -1      3622 1.48200E+01 3.09956E+01 0.00000E+00
 -1      3623 1.48200E+01 3.24644E+01 0.00000E+00
 -1      3624 1.36034E+02 1.58937E+01 0.00000E+00
 -1      3625 1.35999E+02 1.42877E+01 0.00000E+00
 -1      3626 1.35023E+02 1.39939E+01 0.00000E+00
 -1      3627 4.29744E+01 1.35038E+01 0.00000E+00
 -1      3628 1.36034E+02 1.88437E+01 0.00000E+00
 -1      3629 1.36034E+02 1.73687E+01 0.00000E+00
 -1      3630 1.35057E+02 1.70748E+01 0.00000E+00
 -1      3631 1.35711E+02 3.01500E+01 0.00000E+00
 -1      3632 1.35711E+02 2.86812E+01 0.00000E+00
 -1      3633 1.34412E+02 2.79438E+01 0.00000E+00
 -1      3634 1.84669E+01 1.29495E+01 0.00000E+00
 -1      3635 1.71488E+01 1.27997E+01 0.00000E+00
 -1      3636 1.92169E+01 1.42485E+01 0.00000E+00
 -1      3637 1.42890E+01 2.27625E+01 0.00000E+00
 -1      3638 1.42890E+01 2.42375E+01 0.00000E+00
 -1      3639 5.18147E+01 1.90326E+01 0.00000E+00
 -1      3640 5.12707E+01 2.02722E+01 0.00000E+00
 -1      3641 5.21335E+01 2.09223E+01 0.00000E+00
 -1      3642 4.14744E+01 1.35038E+01 0.00000E+00
 -1      3643 2.65350E+01 1.18003E+01 0.00000E+00
 -1      3644 2.27850E+01 1.30992E+01 0.00000E+00
 -1      3645 2.20350E+01 1.43982E+01 0.00000E+00
 -1      3646 2.42850E+01 1.30992E+01 0.00000E+00
 -1      3647 1.71345E+01 3.30710E+01 0.00000E+00
 -1      3648 1.58355E+01 3.38054E+01 0.00000E+00
 -1      3649 1.42890E+01 2.12938E+01 0.00000E+00
 -1      3650 1.55880E+01 2.20313E+01 0.00000E+00
 -1      3651 1.42890E+01 1.98250E+01 0.00000E+00
 -1      3652 1.34142E+02 1.36935E+01 0.00000E+00
 -1      3653 1.33166E+02 1.33996E+01 0.00000E+00
 -1      3654 1.32416E+02 1.46986E+01 0.00000E+00
 -1      3655 1.34177E+02 1.52994E+01 0.00000E+00
 -1      3656 5.18190E+01 2.38151E+01 0.00000E+00
 -1      3657 5.26661E+01 2.44609E+01 0.00000E+00
 -1      3658 5.24366E+01 2.28077E+01 0.00000E+00
 -1      3659 5.28040E+01 2.62380E+01 0.00000E+00
 -1      3660 5.23355E+01 2.72167E+01 0.00000E+00
 -1      3661 5.30911E+01 2.79864E+01 0.00000E+00
 -1      3662 1.35753E+02 3.27952E+01 0.00000E+00
 -1      3663 1.35753E+02 3.13265E+01 0.00000E+00
 -1      3664 1.34454E+02 3.05890E+01 0.00000E+00
 -1      3665 1.34538E+02 3.29420E+01 0.00000E+00
 -1      3666 2.31758E+01 2.19781E+01 0.00000E+00
 -1      3667 2.30704E+01 2.08823E+01 0.00000E+00
 -1      3668 2.20839E+01 2.25987E+01 0.00000E+00
 -1      3669 5.34664E+01 2.98294E+01 0.00000E+00
 -1      3670 5.31026E+01 3.07152E+01 0.00000E+00
 -1      3671 4.88425E+01 1.65743E+01 0.00000E+00
 -1      3672 4.92217E+01 1.74347E+01 0.00000E+00
 -1      3673 5.05726E+01 1.75220E+01 0.00000E+00
 -1      3674 5.30224E+01 3.25744E+01 0.00000E+00
 -1      3675 5.27008E+01 3.38613E+01 0.00000E+00
 -1      3676 1.42284E+01 1.25117E+01 0.00000E+00
 -1      3677 1.38422E+01 1.35111E+01 0.00000E+00
 -1      3678 1.38422E+01 1.49830E+01 0.00000E+00
 -1      3679 1.55466E+01 1.26615E+01 0.00000E+00
 -1      3680 2.11280E+01 3.24016E+01 0.00000E+00
 -1      3681 2.01872E+01 2.95808E+01 0.00000E+00
 -1      3682 2.06413E+01 2.86012E+01 0.00000E+00
 -1      3683 1.97225E+01 2.77908E+01 0.00000E+00
 -1      3684 1.58355E+01 3.52741E+01 0.00000E+00
 -1      3685 5.16495E+01 3.41022E+01 0.00000E+00
 -1      3686 3.67135E+01 1.27862E+01 0.00000E+00
 -1      3687 5.42301E+01 3.25528E+01 0.00000E+00
 -1      3688 5.39349E+01 2.88507E+01 0.00000E+00
 -1      3689 5.47787E+01 2.97149E+01 0.00000E+00
 -1      3690 5.44034E+01 2.78719E+01 0.00000E+00
 -1      3691 1.46873E+01 2.96741E+01 0.00000E+00
 -1      3692 1.59862E+01 3.04084E+01 0.00000E+00
 -1      3693 1.45545E+01 2.83525E+01 0.00000E+00
 -1      3694 5.57301E+01 3.25528E+01 0.00000E+00
 -1      3695 5.79000E+01 3.31130E+01 0.00000E+00
 -1      3696 5.94000E+01 3.31130E+01 0.00000E+00
 -1      3697 6.09000E+01 3.31130E+01 0.00000E+00
 -1      3698 6.24000E+01 3.31130E+01 0.00000E+00
 -1      3699 6.01500E+01 3.18140E+01 0.00000E+00
 -1      3700 6.39000E+01 3.31130E+01 0.00000E+00
 -1      3701 6.54000E+01 3.31130E+01 0.00000E+00
 -1      3702 6.31500E+01 3.18140E+01 0.00000E+00
 -1      3703 6.69000E+01 3.31130E+01 0.00000E+00
 -1      3704 6.84000E+01 3.31130E+01 0.00000E+00
 -1      3705 6.61500E+01 3.18140E+01 0.00000E+00
 -1      3706 6.99000E+01 3.31130E+01 0.00000E+00
 -1      3707 7.14000E+01 3.31130E+01 0.00000E+00
 -1      3708 6.91500E+01 3.18140E+01 0.00000E+00
 -1      3709 7.29000E+01 3.31130E+01 0.00000E+00
 -1      3710 7.44000E+01 3.31130E+01 0.00000E+00
 -1      3711 7.21500E+01 3.18140E+01 0.00000E+00
 -1      3712 7.59000E+01 3.31130E+01 0.00000E+00
 -1      3713 7.74000E+01 3.31130E+01 0.00000E+00
 -1      3714 7.51500E+01 3.18140E+01 0.00000E+00
 -1      3715 7.89000E+01 3.31130E+01 0.00000E+00
 -1      3716 8.04000E+01 3.31130E+01 0.00000E+00
 -1      3717 7.81500E+01 3.18140E+01 0.00000E+00
 -1      3718 8.19000E+01 3.31130E+01 0.00000E+00
 -1      3719 8.34000E+01 3.31130E+01 0.00000E+00
 -1      3720 8.11500E+01 3.18140E+01 0.00000E+00
 -1      3721 8.49000E+01 3.31130E+01 0.00000E+00
 -1      3722 8.64000E+01 3.31130E+01 0.00000E+00
 -1      3723 8.41500E+01 3.18140E+01 0.00000E+00
 -1      3724 8.79000E+01 3.31130E+01 0.00000E+00
 -1      3725 8.94000E+01 3.31130E+01 0.00000E+00
 -1      3726 8.71500E+01 3.18140E+01 0.00000E+00
 -1      3727 9.09000E+01 3.31130E+01 0.00000E+00
 -1      3728 9.24000E+01 3.31130E+01 0.00000E+00
 -1      3729 9.01500E+01 3.18140E+01 0.00000E+00
 -1      3730 9.39000E+01 3.31130E+01 0.00000E+00
 -1      3731 9.54000E+01 3.31130E+01 0.00000E+00
 -1      3732 9.31500E+01 3.18140E+01 0.00000E+00
 -1      3733 9.69000E+01 3.31130E+01 0.00000E+00
 -1      3734 9.84000E+01 3.31130E+01 0.00000E+00
 -1      3735 9.61500E+01 3.18140E+01 0.00000E+00
 -1      3736 9.99000E+01 3.31130E+01 0.00000E+00
 -1      3737 1.01400E+02 3.31130E+01 0.00000E+00
 -1      3738 9.91500E+01 3.18140E+01 0.00000E+00
 -1      3739 1.02900E+02 3.31130E+01 0.00000E+00
 -1      3740 1.04400E+02 3.31130E+01 0.00000E+00
 -1      3741 1.02150E+02 3.18140E+01 0.00000E+00
 -1      3742 1.05900E+02 3.31130E+01 0.00000E+00
 -1      3743 1.07400E+02 3.31130E+01 0.00000E+00
 -1      3744 1.05150E+02 3.18140E+01 0.00000E+00
 -1      3745 1.08900E+02 3.31130E+01 0.00000E+00
 -1      3746 1.10400E+02 3.31130E+01 0.00000E+00
 -1      3747 1.08150E+02 3.18140E+01 0.00000E+00
 -1      3748 1.11900E+02 3.31130E+01 0.00000E+00
 -1      3749 1.13400E+02 3.31130E+01 0.00000E+00
 -1      3750 1.11150E+02 3.18140E+01 0.00000E+00
 -1      3751 1.14900E+02 3.31130E+01 0.00000E+00
 -1      3752 1.16400E+02 3.31130E+01 0.00000E+00
 -1      3753 1.14150E+02 3.18140E+01 0.00000E+00
 -1      3754 1.17900E+02 3.31130E+01 0.00000E+00
 -1      3755 1.19400E+02 3.31130E+01 0.00000E+00
 -1      3756 1.17150E+02 3.18140E+01 0.00000E+00
 -1      3757 1.20900E+02 3.31130E+01 0.00000E+00
 -1      3758 1.22400E+02 3.31130E+01 0.00000E+00
 -1      3759 1.20150E+02 3.18140E+01 0.00000E+00
 -1      3760 1.23900E+02 3.31130E+01 0.00000E+00
 -1      3761 1.25400E+02 3.31130E+01 0.00000E+00
 -1      3762 1.23150E+02 3.18140E+01 0.00000E+00
 -1      3763 1.26900E+02 3.31130E+01 0.00000E+00
 -1      3764 1.28400E+02 3.31130E+01 0.00000E+00
 -1      3765 1.26150E+02 3.18140E+01 0.00000E+00
 -1      3766 1.29900E+02 3.31130E+01 0.00000E+00
 -1      3767 1.31400E+02 3.31130E+01 0.00000E+00
 -1      3768 1.29150E+02 3.18140E+01 0.00000E+00
 -1      3769 1.32361E+02 3.31009E+01 0.00000E+00
 -1      3770 1.33577E+02 3.29541E+01 0.00000E+00
 -1      3771 1.33535E+02 3.17776E+01 0.00000E+00
 -1      3772 1.31611E+02 3.18019E+01 0.00000E+00
 -1      3773 5.57850E+01 1.56973E+01 0.00000E+00
 -1      3774 5.42850E+01 1.56973E+01 0.00000E+00
 -1      3775 6.17850E+01 1.56973E+01 0.00000E+00
 -1      3776 6.02850E+01 1.56973E+01 0.00000E+00
 -1      3777 6.47850E+01 1.56973E+01 0.00000E+00
 -1      3778 6.32850E+01 1.56973E+01 0.00000E+00
 -1      3779 6.25350E+01 1.69963E+01 0.00000E+00
 -1      3780 6.77850E+01 1.56973E+01 0.00000E+00
 -1      3781 6.62850E+01 1.56973E+01 0.00000E+00
 -1      3782 6.55350E+01 1.69963E+01 0.00000E+00
 -1      3783 7.07850E+01 1.56973E+01 0.00000E+00
 -1      3784 6.92850E+01 1.56973E+01 0.00000E+00
 -1      3785 6.85350E+01 1.69963E+01 0.00000E+00
 -1      3786 7.37850E+01 1.56973E+01 0.00000E+00
 -1      3787 7.22850E+01 1.56973E+01 0.00000E+00
 -1      3788 7.15350E+01 1.69963E+01 0.00000E+00
 -1      3789 7.67850E+01 1.56973E+01 0.00000E+00
 -1      3790 7.52850E+01 1.56973E+01 0.00000E+00
 -1      3791 7.45350E+01 1.69963E+01 0.00000E+00
 -1      3792 7.97850E+01 1.56973E+01 0.00000E+00
 -1      3793 7.82850E+01 1.56973E+01 0.00000E+00
 -1      3794 7.75350E+01 1.69963E+01 0.00000E+00
 -1      3795 8.27850E+01 1.56973E+01 0.00000E+00
 -1      3796 8.12850E+01 1.56973E+01 0.00000E+00
 -1      3797 8.05350E+01 1.69963E+01 0.00000E+00
 -1      3798 8.57850E+01 1.56973E+01 0.00000E+00
 -1      3799 8.42850E+01 1.56973E+01 0.00000E+00
 -1      3800 8.35350E+01 1.69963E+01 0.00000E+00
 -1      3801 8.87850E+01 1.56973E+01 0.00000E+00
 -1      3802 8.72850E+01 1.56973E+01 0.00000E+00
 -1      3803 8.65350E+01 1.69963E+01 0.00000E+00
 -1      3804 9.17850E+01 1.56973E+01 0.00000E+00
 -1      3805 9.02850E+01 1.56973E+01 0.00000E+00
 -1      3806 8.95350E+01 1.69963E+01 0.00000E+00
 -1      3807 9.47850E+01 1.56973E+01 0.00000E+00
 -1      3808 9.32850E+01 1.56973E+01 0.00000E+00
 -1      3809 9.25350E+01 1.69963E+01 0.00000E+00
 -1      3810 9.77850E+01 1.56973E+01 0.00000E+00
 -1      3811 9.62850E+01 1.56973E+01 0.00000E+00
 -1      3812 9.55350E+01 1.69963E+01 0.00000E+00
 -1      3813 1.00785E+02 1.56973E+01 0.00000E+00
 -1      3814 9.92850E+01 1.56973E+01 0.00000E+00
 -1      3815 9.85350E+01 1.69963E+01 0.00000E+00
 -1      3816 1.03785E+02 1.56973E+01 0.00000E+00
 -1      3817 1.02285E+02 1.56973E+01 0.00000E+00
 -1      3818 1.01535E+02 1.69963E+01 0.00000E+00
 -1      3819 1.06785E+02 1.56973E+01 0.00000E+00
 -1      3820 1.05285E+02 1.56973E+01 0.00000E+00
 -1      3821 1.04535E+02 1.69963E+01 0.00000E+00
 -1      3822 1.09785E+02 1.56973E+01 0.00000E+00
 -1      3823 1.08285E+02 1.56973E+01 0.00000E+00
 -1      3824 1.07535E+02 1.69963E+01 0.00000E+00
 -1      3825 1.12785E+02 1.56973E+01 0.00000E+00
 -1      3826 1.11285E+02 1.56973E+01 0.00000E+00
 -1      3827 1.10535E+02 1.69963E+01 0.00000E+00
 -1      3828 1.15785E+02 1.56973E+01 0.00000E+00
 -1      3829 1.14285E+02 1.56973E+01 0.00000E+00
 -1      3830 1.13535E+02 1.69963E+01 0.00000E+00
 -1      3831 1.18785E+02 1.56973E+01 0.00000E+00
 -1      3832 1.17285E+02 1.56973E+01 0.00000E+00
 -1      3833 1.16535E+02 1.69963E+01 0.00000E+00
 -1      3834 1.21785E+02 1.56973E+01 0.00000E+00
 -1      3835 1.20285E+02 1.56973E+01 0.00000E+00
 -1      3836 1.19535E+02 1.69963E+01 0.00000E+00
 -1      3837 1.24785E+02 1.56973E+01 0.00000E+00
 -1      3838 1.23285E+02 1.56973E+01 0.00000E+00
 -1      3839 1.22535E+02 1.69963E+01 0.00000E+00
 -1      3840 1.27785E+02 1.56973E+01 0.00000E+00
 -1      3841 1.26285E+02 1.56973E+01 0.00000E+00
 -1      3842 1.25535E+02 1.69963E+01 0.00000E+00
 -1      3843 1.30785E+02 1.56973E+01 0.00000E+00
 -1      3844 1.29285E+02 1.56973E+01 0.00000E+00
 -1      3845 1.28535E+02 1.69963E+01 0.00000E+00
 -1      3846 2.64007E+01 1.59945E+01 0.00000E+00
 -1      3847 2.74081E+01 1.53810E+01 0.00000E+00
 -1      3848 2.71813E+01 1.32704E+01 0.00000E+00
 -1      3849 2.56813E+01 1.32704E+01 0.00000E+00
 -1      3850 3.78780E+01 1.21802E+01 0.00000E+00
 -1      3851 1.99296E+01 3.30016E+01 0.00000E+00
 -1      3852 1.99076E+01 3.09912E+01 0.00000E+00
 -1      3853 1.89888E+01 3.01808E+01 0.00000E+00
 -1      3854 1.84296E+01 3.30016E+01 0.00000E+00
 -1      3855 1.74141E+01 3.16606E+01 0.00000E+00
 -1      3856 1.35872E+02 2.15578E+01 0.00000E+00
 -1      3857 1.35872E+02 2.00921E+01 0.00000E+00
 -1      3858 1.34896E+02 1.97983E+01 0.00000E+00
 -1      3859 1.34573E+02 2.22953E+01 0.00000E+00
 -1      3860 1.57207E+01 2.48216E+01 0.00000E+00
 -1      3861 1.44218E+01 2.55591E+01 0.00000E+00
 -1      3862 1.45545E+01 2.68806E+01 0.00000E+00
 -1      3863 5.87850E+01 1.56973E+01 0.00000E+00
 -1      3864 5.72850E+01 1.56973E+01 0.00000E+00
 -1      3865 5.95350E+01 1.69963E+01 0.00000E+00
 -1      3866 5.64801E+01 3.12538E+01 0.00000E+00
 -1      3867 3.93780E+01 1.21802E+01 0.00000E+00
 -1      3868 4.00254E+01 1.27226E+01 0.00000E+00
 -1      3869 4.75133E+01 1.54426E+01 0.00000E+00
 -1      3870 1.42890E+01 1.68813E+01 0.00000E+00
 -1      3871 1.42890E+01 1.83531E+01 0.00000E+00
 -1      3872 1.55880E+01 1.90906E+01 0.00000E+00
 -1      3873 1.33113E+02 2.86781E+01 0.00000E+00
 -1      3874 1.33113E+02 2.72094E+01 0.00000E+00
 -1      3875 2.31462E+01 1.97343E+01 0.00000E+00
 -1      3876 2.32220E+01 1.85863E+01 0.00000E+00
 -1      3877 2.20544E+01 2.03549E+01 0.00000E+00
 -1      3878 1.33113E+02 2.57437E+01 0.00000E+00
 -1      3879 1.33113E+02 2.42781E+01 0.00000E+00
 -1      3880 1.31814E+02 2.64781E+01 0.00000E+00
 -1      3881 5.40393E+01 2.42231E+01 0.00000E+00
 -1      3882 5.34216E+01 2.52305E+01 0.00000E+00
 -1      3883 5.41772E+01 2.60002E+01 0.00000E+00
 -1      3884 1.69469E+01 2.40310E+01 0.00000E+00
 -1      3885 1.70796E+01 2.53525E+01 0.00000E+00
 -1      3886 2.09735E+01 2.31162E+01 0.00000E+00
 -1      3887 2.08682E+01 2.20204E+01 0.00000E+00
 -1      3888 1.98631E+01 2.36337E+01 0.00000E+00
 -1      3889 1.97293E+01 1.56141E+01 0.00000E+00
 -1      3890 1.84111E+01 1.54643E+01 0.00000E+00
 -1      3891 1.34177E+02 1.67744E+01 0.00000E+00
 -1      3892 1.33296E+02 1.64740E+01 0.00000E+00
 -1      3893 1.34177E+02 1.82494E+01 0.00000E+00
 -1      3894 5.35247E+01 2.03285E+01 0.00000E+00
 -1      3895 5.29807E+01 2.15681E+01 0.00000E+00
 -1      3896 5.38278E+01 2.22138E+01 0.00000E+00
 -1      3897 5.27850E+01 1.56973E+01 0.00000E+00
 -1      3898 5.12850E+01 1.56973E+01 0.00000E+00
 -1      3899 2.49313E+01 1.45694E+01 0.00000E+00
 -1      3900 5.11142E+01 1.68289E+01 0.00000E+00
 -1      3901 5.03642E+01 1.55299E+01 0.00000E+00
 -1      3902 4.88642E+01 1.55299E+01 0.00000E+00
 -1      3903 5.35350E+01 1.69963E+01 0.00000E+00
 -1      3904 1.76729E+01 2.15502E+01 0.00000E+00
 -1      3905 1.76729E+01 2.30189E+01 0.00000E+00
 -1      3906 5.65350E+01 1.69963E+01 0.00000E+00
 -1      3907 1.72814E+01 3.03391E+01 0.00000E+00
 -1      3908 5.14934E+01 1.76893E+01 0.00000E+00
 -1      3909 1.51412E+01 1.57205E+01 0.00000E+00
 -1      3910 5.23563E+01 1.83395E+01 0.00000E+00
 -1      3911 2.82145E+01 1.51583E+01 0.00000E+00
 -1      3912 1.84893E+01 2.78144E+01 0.00000E+00
 -1      3913 1.89434E+01 2.68347E+01 0.00000E+00
 -1      3914 1.62966E+01 1.39605E+01 0.00000E+00
 -1      3915 1.32481E+02 1.62358E+01 0.00000E+00
 -1      3916 1.31600E+02 1.59354E+01 0.00000E+00
 -1      3917 1.30850E+02 1.72344E+01 0.00000E+00
 -1      3918 1.32481E+02 1.77108E+01 0.00000E+00
 -1      3919 1.88394E+01 2.57939E+01 0.00000E+00
 -1      3920 2.13326E+01 1.68026E+01 0.00000E+00
 -1      3921 2.05269E+01 1.80184E+01 0.00000E+00
 -1      3922 2.50044E+01 1.58233E+01 0.00000E+00
 -1      3923 2.28326E+01 1.68026E+01 0.00000E+00
 -1      3924 1.58535E+01 2.76150E+01 0.00000E+00
 -1      3925 5.94000E+01 3.05150E+01 0.00000E+00
 -1      3926 6.09000E+01 3.05150E+01 0.00000E+00
 -1      3927 2.39244E+01 1.61820E+01 0.00000E+00
 -1      3928 6.24000E+01 3.05150E+01 0.00000E+00
 -1      3929 6.39000E+01 3.05150E+01 0.00000E+00
 -1      3930 6.16500E+01 2.92160E+01 0.00000E+00
 -1      3931 6.54000E+01 3.05150E+01 0.00000E+00
 -1      3932 6.69000E+01 3.05150E+01 0.00000E+00
 -1      3933 6.46500E+01 2.92160E+01 0.00000E+00
 -1      3934 6.84000E+01 3.05150E+01 0.00000E+00
 -1      3935 6.99000E+01 3.05150E+01 0.00000E+00
 -1      3936 6.76500E+01 2.92160E+01 0.00000E+00
 -1      3937 7.14000E+01 3.05150E+01 0.00000E+00
 -1      3938 7.29000E+01 3.05150E+01 0.00000E+00
 -1      3939 7.06500E+01 2.92160E+01 0.00000E+00
 -1      3940 7.44000E+01 3.05150E+01 0.00000E+00
 -1      3941 7.59000E+01 3.05150E+01 0.00000E+00
 -1      3942 7.36500E+01 2.92160E+01 0.00000E+00
 -1      3943 7.74000E+01 3.05150E+01 0.00000E+00
 -1      3944 7.89000E+01 3.05150E+01 0.00000E+00
 -1      3945 7.66500E+01 2.92160E+01 0.00000E+00
 -1      3946 8.04000E+01 3.05150E+01 0.00000E+00
 -1      3947 8.19000E+01 3.05150E+01 0.00000E+00
 -1      3948 7.96500E+01 2.92160E+01 0.00000E+00
 -1      3949 8.34000E+01 3.05150E+01 0.00000E+00
 -1      3950 8.49000E+01 3.05150E+01 0.00000E+00
 -1      3951 8.26500E+01 2.92160E+01 0.00000E+00
 -1      3952 8.64000E+01 3.05150E+01 0.00000E+00
 -1      3953 8.79000E+01 3.05150E+01 0.00000E+00
 -1      3954 8.56500E+01 2.92160E+01 0.00000E+00
 -1      3955 8.94000E+01 3.05150E+01 0.00000E+00
 -1      3956 9.09000E+01 3.05150E+01 0.00000E+00
 -1      3957 8.86500E+01 2.92160E+01 0.00000E+00
 -1      3958 9.24000E+01 3.05150E+01 0.00000E+00
 -1      3959 9.39000E+01 3.05150E+01 0.00000E+00
 -1      3960 9.16500E+01 2.92160E+01 0.00000E+00
 -1      3961 9.54000E+01 3.05150E+01 0.00000E+00
 -1      3962 9.69000E+01 3.05150E+01 0.00000E+00
 -1      3963 9.46500E+01 2.92160E+01 0.00000E+00
 -1      3964 9.84000E+01 3.05150E+01 0.00000E+00
 -1      3965 9.99000E+01 3.05150E+01 0.00000E+00
 -1      3966 9.76500E+01 2.92160E+01 0.00000E+00
 -1      3967 1.01400E+02 3.05150E+01 0.00000E+00
 -1      3968 1.02900E+02 3.05150E+01 0.00000E+00
 -1      3969 1.00650E+02 2.92160E+01 0.00000E+00
 -1      3970 1.04400E+02 3.05150E+01 0.00000E+00
 -1      3971 1.05900E+02 3.05150E+01 0.00000E+00
 -1      3972 1.03650E+02 2.92160E+01 0.00000E+00
 -1      3973 1.07400E+02 3.05150E+01 0.00000E+00
 -1      3974 1.08900E+02 3.05150E+01 0.00000E+00
 -1      3975 1.06650E+02 2.92160E+01 0.00000E+00
 -1      3976 1.10400E+02 3.05150E+01 0.00000E+00
 -1      3977 1.11900E+02 3.05150E+01 0.00000E+00
 -1      3978 1.09650E+02 2.92160E+01 0.00000E+00
 -1      3979 1.13400E+02 3.05150E+01 0.00000E+00
 -1      3980 1.14900E+02 3.05150E+01 0.00000E+00
 -1      3981 1.12650E+02 2.92160E+01 0.00000E+00
 -1      3982 1.16400E+02 3.05150E+01 0.00000E+00
 -1      3983 1.17900E+02 3.05150E+01 0.00000E+00
 -1      3984 1.15650E+02 2.92160E+01 0.00000E+00
 -1      3985 1.19400E+02 3.05150E+01 0.00000E+00
 -1      3986 1.20900E+02 3.05150E+01 0.00000E+00
 -1      3987 1.18650E+02 2.92160E+01 0.00000E+00
 -1      3988 1.22400E+02 3.05150E+01 0.00000E+00
 -1      3989 1.23900E+02 3.05150E+01 0.00000E+00
 -1      3990 1.21650E+02 2.92160E+01 0.00000E+00
 -1      3991 1.25400E+02 3.05150E+01 0.00000E+00
 -1      3992 1.26900E+02 3.05150E+01 0.00000E+00
 -1      3993 1.24650E+02 2.92160E+01 0.00000E+00
 -1      3994 1.28400E+02 3.05150E+01 0.00000E+00
 -1      3995 1.29900E+02 3.05150E+01 0.00000E+00
 -1      3996 1.27650E+02 2.92160E+01 0.00000E+00
 -1      3997 6.62850E+01 1.82952E+01 0.00000E+00
 -1      3998 6.47850E+01 1.82952E+01 0.00000E+00
 -1      3999 5.57143E+01 2.97378E+01 0.00000E+00
 -1      4000 5.78841E+01 3.02980E+01 0.00000E+00
 -1      4001 6.32850E+01 1.82952E+01 0.00000E+00
 -1      4002 6.17850E+01 1.82952E+01 0.00000E+00
 -1      4003 6.40350E+01 1.95942E+01 0.00000E+00
 -1      4004 7.22850E+01 1.82952E+01 0.00000E+00
 -1      4005 7.07850E+01 1.82952E+01 0.00000E+00
 -1      4006 7.52850E+01 1.82952E+01 0.00000E+00
 -1      4007 7.37850E+01 1.82952E+01 0.00000E+00
 -1      4008 7.30350E+01 1.95942E+01 0.00000E+00
 -1      4009 7.82850E+01 1.82952E+01 0.00000E+00
 -1      4010 7.67850E+01 1.82952E+01 0.00000E+00
 -1      4011 7.60350E+01 1.95942E+01 0.00000E+00
 -1      4012 8.12850E+01 1.82952E+01 0.00000E+00
 -1      4013 7.97850E+01 1.82952E+01 0.00000E+00
 -1      4014 7.90350E+01 1.95942E+01 0.00000E+00
 -1      4015 8.42850E+01 1.82952E+01 0.00000E+00
 -1      4016 8.27850E+01 1.82952E+01 0.00000E+00
 -1      4017 8.20350E+01 1.95942E+01 0.00000E+00
 -1      4018 8.72850E+01 1.82952E+01 0.00000E+00
 -1      4019 8.57850E+01 1.82952E+01 0.00000E+00
 -1      4020 8.50350E+01 1.95942E+01 0.00000E+00
 -1      4021 9.02850E+01 1.82952E+01 0.00000E+00
 -1      4022 8.87850E+01 1.82952E+01 0.00000E+00
 -1      4023 8.80350E+01 1.95942E+01 0.00000E+00
 -1      4024 9.32850E+01 1.82952E+01 0.00000E+00
 -1      4025 9.17850E+01 1.82952E+01 0.00000E+00
 -1      4026 9.10350E+01 1.95942E+01 0.00000E+00
 -1      4027 9.62850E+01 1.82952E+01 0.00000E+00
 -1      4028 9.47850E+01 1.82952E+01 0.00000E+00
 -1      4029 9.40350E+01 1.95942E+01 0.00000E+00
 -1      4030 9.92850E+01 1.82952E+01 0.00000E+00
 -1      4031 9.77850E+01 1.82952E+01 0.00000E+00
 -1      4032 9.70350E+01 1.95942E+01 0.00000E+00
 -1      4033 1.02285E+02 1.82952E+01 0.00000E+00
 -1      4034 1.00785E+02 1.82952E+01 0.00000E+00
 -1      4035 1.00035E+02 1.95942E+01 0.00000E+00
 -1      4036 1.05285E+02 1.82952E+01 0.00000E+00
 -1      4037 1.03785E+02 1.82952E+01 0.00000E+00
 -1      4038 1.03035E+02 1.95942E+01 0.00000E+00
 -1      4039 1.08285E+02 1.82952E+01 0.00000E+00
 -1      4040 1.06785E+02 1.82952E+01 0.00000E+00
 -1      4041 1.06035E+02 1.95942E+01 0.00000E+00
 -1      4042 1.11285E+02 1.82952E+01 0.00000E+00
 -1      4043 1.09785E+02 1.82952E+01 0.00000E+00
 -1      4044 1.09035E+02 1.95942E+01 0.00000E+00
 -1      4045 1.14285E+02 1.82952E+01 0.00000E+00
 -1      4046 1.12785E+02 1.82952E+01 0.00000E+00
 -1      4047 1.12035E+02 1.95942E+01 0.00000E+00
 -1      4048 1.17285E+02 1.82952E+01 0.00000E+00
 -1      4049 1.15785E+02 1.82952E+01 0.00000E+00
 -1      4050 1.15035E+02 1.95942E+01 0.00000E+00
 -1      4051 1.20285E+02 1.82952E+01 0.00000E+00
 -1      4052 1.18785E+02 1.82952E+01 0.00000E+00
 -1      4053 1.18035E+02 1.95942E+01 0.00000E+00
 -1      4054 1.23285E+02 1.82952E+01 0.00000E+00
 -1      4055 1.21785E+02 1.82952E+01 0.00000E+00
 -1      4056 1.21035E+02 1.95942E+01 0.00000E+00
 -1      4057 1.26285E+02 1.82952E+01 0.00000E+00
 -1      4058 1.24785E+02 1.82952E+01 0.00000E+00
 -1      4059 1.24035E+02 1.95942E+01 0.00000E+00
 -1      4060 1.29285E+02 1.82952E+01 0.00000E+00
 -1      4061 1.27785E+02 1.82952E+01 0.00000E+00
 -1      4062 1.27035E+02 1.95942E+01 0.00000E+00
 -1      4063 1.67434E+01 1.58587E+01 0.00000E+00
 -1      4064 1.75610E+01 2.89287E+01 0.00000E+00
 -1      4065 1.71866E+01 1.98824E+01 0.00000E+00
 -1      4066 1.92714E+01 2.08701E+01 0.00000E+00
 -1      4067 5.72850E+01 1.82952E+01 0.00000E+00
 -1      4068 5.57850E+01 1.82952E+01 0.00000E+00
 -1      4069 5.50210E+01 2.68645E+01 0.00000E+00
 -1      4070 5.58648E+01 2.77288E+01 0.00000E+00
 -1      4071 5.56387E+01 2.58571E+01 0.00000E+00
 -1      4072 2.03819E+01 2.03526E+01 0.00000E+00
 -1      4073 1.33492E+02 3.06011E+01 0.00000E+00
 -1      4074 6.02850E+01 1.82952E+01 0.00000E+00
 -1      4075 5.87850E+01 1.82952E+01 0.00000E+00
 -1      4076 5.80350E+01 1.95942E+01 0.00000E+00
 -1      4077 5.38563E+01 1.83395E+01 0.00000E+00
 -1      4078 1.71866E+01 1.84105E+01 0.00000E+00
 -1      4079 2.04577E+01 1.92046E+01 0.00000E+00
 -1      4080 6.92850E+01 1.82952E+01 0.00000E+00
 -1      4081 6.77850E+01 1.82952E+01 0.00000E+00
 -1      4082 6.70350E+01 1.95942E+01 0.00000E+00
 -1      4083 5.86341E+01 2.89990E+01 0.00000E+00
 -1      4084 5.46063E+01 1.96385E+01 0.00000E+00
 -1      4085 1.32193E+02 2.98668E+01 0.00000E+00
 -1      4086 1.30515E+02 2.72109E+01 0.00000E+00
 -1      4087 1.30515E+02 2.57453E+01 0.00000E+00
 -1      4088 5.45833E+01 2.29835E+01 0.00000E+00
 -1      4089 5.53389E+01 2.37532E+01 0.00000E+00
 -1      4090 5.51274E+01 2.17439E+01 0.00000E+00
 -1      4091 1.90317E+01 2.35499E+01 0.00000E+00
 -1      4092 1.34015E+02 1.94979E+01 0.00000E+00
 -1      4093 1.33135E+02 1.91975E+01 0.00000E+00
 -1      4094 1.33854E+02 2.07464E+01 0.00000E+00
 -1      4095 1.80080E+01 2.57101E+01 0.00000E+00
 -1      4096 1.91371E+01 2.46458E+01 0.00000E+00
 -1      4097 6.10350E+01 1.95942E+01 0.00000E+00
 -1      4098 1.72558E+01 1.72243E+01 0.00000E+00
 -1      4099 1.30100E+02 1.85334E+01 0.00000E+00
 -1      4100 1.29350E+02 1.98324E+01 0.00000E+00
 -1      4101 1.30916E+02 1.87716E+01 0.00000E+00
 -1      4102 1.88543E+01 1.80161E+01 0.00000E+00
 -1      4103 7.00350E+01 1.95942E+01 0.00000E+00
 -1      4104 1.67819E+01 2.79726E+01 0.00000E+00
 -1      4105 1.67819E+01 2.65007E+01 0.00000E+00
 -1      4106 1.33403E+02 2.31365E+01 0.00000E+00
 -1      4107 1.33564E+02 2.18880E+01 0.00000E+00
 -1      4108 1.32684E+02 2.15876E+01 0.00000E+00
 -1      4109 1.32104E+02 2.38709E+01 0.00000E+00
 -1      4110 5.61827E+01 2.87590E+01 0.00000E+00
 -1      4111 5.68004E+01 2.77516E+01 0.00000E+00
 -1      4112 5.79984E+01 2.69384E+01 0.00000E+00
 -1      4113 5.83162E+01 2.79687E+01 0.00000E+00
 -1      4114 5.98321E+01 2.81857E+01 0.00000E+00
 -1      4115 1.30482E+02 2.85799E+01 0.00000E+00
 -1      4116 1.29183E+02 2.78471E+01 0.00000E+00
 -1      4117 5.54534E+01 2.02842E+01 0.00000E+00
 -1      4118 5.62090E+01 2.10539E+01 0.00000E+00
 -1      4119 6.13321E+01 2.81857E+01 0.00000E+00
 -1      4120 6.28321E+01 2.81857E+01 0.00000E+00
 -1      4121 6.10142E+01 2.71554E+01 0.00000E+00
 -1      4122 6.17850E+01 2.08932E+01 0.00000E+00
 -1      4123 6.02850E+01 2.08932E+01 0.00000E+00
 -1      4124 5.89970E+01 2.09736E+01 0.00000E+00
 -1      4125 5.74970E+01 2.09736E+01 0.00000E+00
 -1      4126 5.71710E+01 2.24333E+01 0.00000E+00
 -1      4127 5.97470E+01 2.22726E+01 0.00000E+00
 -1      4128 6.43321E+01 2.81857E+01 0.00000E+00
 -1      4129 6.58321E+01 2.81857E+01 0.00000E+00
 -1      4130 6.40142E+01 2.71554E+01 0.00000E+00
 -1      4131 6.73321E+01 2.81857E+01 0.00000E+00
 -1      4132 6.88321E+01 2.81857E+01 0.00000E+00
 -1      4133 6.70142E+01 2.71554E+01 0.00000E+00
 -1      4134 7.03321E+01 2.81857E+01 0.00000E+00
 -1      4135 7.18321E+01 2.81857E+01 0.00000E+00
 -1      4136 7.00142E+01 2.71554E+01 0.00000E+00
 -1      4137 7.33321E+01 2.81857E+01 0.00000E+00
 -1      4138 7.48321E+01 2.81857E+01 0.00000E+00
 -1      4139 7.30142E+01 2.71554E+01 0.00000E+00
 -1      4140 7.63321E+01 2.81857E+01 0.00000E+00
 -1      4141 7.78321E+01 2.81857E+01 0.00000E+00
 -1      4142 7.60142E+01 2.71554E+01 0.00000E+00
 -1      4143 7.93321E+01 2.81857E+01 0.00000E+00
 -1      4144 8.08321E+01 2.81857E+01 0.00000E+00
 -1      4145 7.90142E+01 2.71554E+01 0.00000E+00
 -1      4146 8.23321E+01 2.81857E+01 0.00000E+00
 -1      4147 8.38321E+01 2.81857E+01 0.00000E+00
 -1      4148 8.20142E+01 2.71554E+01 0.00000E+00
 -1      4149 8.53321E+01 2.81857E+01 0.00000E+00
 -1      4150 8.68321E+01 2.81857E+01 0.00000E+00
 -1      4151 8.50142E+01 2.71554E+01 0.00000E+00
 -1      4152 8.83321E+01 2.81857E+01 0.00000E+00
 -1      4153 8.98321E+01 2.81857E+01 0.00000E+00
 -1      4154 8.80142E+01 2.71554E+01 0.00000E+00
 -1      4155 9.13321E+01 2.81857E+01 0.00000E+00
 -1      4156 9.28321E+01 2.81857E+01 0.00000E+00
 -1      4157 9.10142E+01 2.71554E+01 0.00000E+00
 -1      4158 9.43321E+01 2.81857E+01 0.00000E+00
 -1      4159 9.58321E+01 2.81857E+01 0.00000E+00
 -1      4160 9.40142E+01 2.71554E+01 0.00000E+00
 -1      4161 9.73321E+01 2.81857E+01 0.00000E+00
 -1      4162 9.88321E+01 2.81857E+01 0.00000E+00
 -1      4163 9.70142E+01 2.71554E+01 0.00000E+00
 -1      4164 1.00332E+02 2.81857E+01 0.00000E+00
 -1      4165 1.01832E+02 2.81857E+01 0.00000E+00
 -1      4166 1.00014E+02 2.71554E+01 0.00000E+00
 -1      4167 1.03332E+02 2.81857E+01 0.00000E+00
 -1      4168 1.04832E+02 2.81857E+01 0.00000E+00
 -1      4169 1.03014E+02 2.71554E+01 0.00000E+00
 -1      4170 1.06332E+02 2.81857E+01 0.00000E+00
 -1      4171 1.07832E+02 2.81857E+01 0.00000E+00
 -1      4172 1.06014E+02 2.71554E+01 0.00000E+00
 -1      4173 1.09332E+02 2.81857E+01 0.00000E+00
 -1      4174 1.10832E+02 2.81857E+01 0.00000E+00
 -1      4175 1.09014E+02 2.71554E+01 0.00000E+00
 -1      4176 1.12332E+02 2.81857E+01 0.00000E+00
 -1      4177 1.13832E+02 2.81857E+01 0.00000E+00
 -1      4178 1.12014E+02 2.71554E+01 0.00000E+00
 -1      4179 1.15332E+02 2.81857E+01 0.00000E+00
 -1      4180 1.16832E+02 2.81857E+01 0.00000E+00
 -1      4181 1.15014E+02 2.71554E+01 0.00000E+00
 -1      4182 1.18332E+02 2.81857E+01 0.00000E+00
 -1      4183 1.19832E+02 2.81857E+01 0.00000E+00
 -1      4184 1.18014E+02 2.71554E+01 0.00000E+00
 -1      4185 1.21332E+02 2.81857E+01 0.00000E+00
 -1      4186 1.22832E+02 2.81857E+01 0.00000E+00
 -1      4187 1.21014E+02 2.71554E+01 0.00000E+00
 -1      4188 1.24332E+02 2.81857E+01 0.00000E+00
 -1      4189 1.25832E+02 2.81857E+01 0.00000E+00
 -1      4190 1.24014E+02 2.71554E+01 0.00000E+00
 -1      4191 1.26758E+02 2.80164E+01 0.00000E+00
 -1      4192 1.28258E+02 2.80164E+01 0.00000E+00
 -1      4193 1.28291E+02 2.66474E+01 0.00000E+00
 -1      4194 1.26440E+02 2.69861E+01 0.00000E+00
 -1      4195 1.31232E+02 2.98789E+01 0.00000E+00
 -1      4196 6.77850E+01 2.08932E+01 0.00000E+00
 -1      4197 6.62850E+01 2.08932E+01 0.00000E+00
 -1      4198 6.47850E+01 2.08932E+01 0.00000E+00
 -1      4199 6.32850E+01 2.08932E+01 0.00000E+00
 -1      4200 6.25350E+01 2.21922E+01 0.00000E+00
 -1      4201 7.67850E+01 2.08932E+01 0.00000E+00
 -1      4202 7.52850E+01 2.08932E+01 0.00000E+00
 -1      4203 7.37850E+01 2.08932E+01 0.00000E+00
 -1      4204 7.22850E+01 2.08932E+01 0.00000E+00
 -1      4205 7.45350E+01 2.21922E+01 0.00000E+00
 -1      4206 8.27850E+01 2.08932E+01 0.00000E+00
 -1      4207 8.12850E+01 2.08932E+01 0.00000E+00
 -1      4208 8.57850E+01 2.08932E+01 0.00000E+00
 -1      4209 8.42850E+01 2.08932E+01 0.00000E+00
 -1      4210 8.35350E+01 2.21922E+01 0.00000E+00
 -1      4211 8.87850E+01 2.08932E+01 0.00000E+00
 -1      4212 8.72850E+01 2.08932E+01 0.00000E+00
 -1      4213 8.65350E+01 2.21922E+01 0.00000E+00
 -1      4214 9.17850E+01 2.08932E+01 0.00000E+00
 -1      4215 9.02850E+01 2.08932E+01 0.00000E+00
 -1      4216 8.95350E+01 2.21922E+01 0.00000E+00
 -1      4217 9.47850E+01 2.08932E+01 0.00000E+00
 -1      4218 9.32850E+01 2.08932E+01 0.00000E+00
 -1      4219 9.25350E+01 2.21922E+01 0.00000E+00
 -1      4220 9.77850E+01 2.08932E+01 0.00000E+00
 -1      4221 9.62850E+01 2.08932E+01 0.00000E+00
 -1      4222 9.55350E+01 2.21922E+01 0.00000E+00
 -1      4223 1.00785E+02 2.08932E+01 0.00000E+00
 -1      4224 9.92850E+01 2.08932E+01 0.00000E+00
 -1      4225 9.85350E+01 2.21922E+01 0.00000E+00
 -1      4226 1.03785E+02 2.08932E+01 0.00000E+00
 -1      4227 1.02285E+02 2.08932E+01 0.00000E+00
 -1      4228 1.01535E+02 2.21922E+01 0.00000E+00
 -1      4229 1.06785E+02 2.08932E+01 0.00000E+00
 -1      4230 1.05285E+02 2.08932E+01 0.00000E+00
 -1      4231 1.04535E+02 2.21922E+01 0.00000E+00
 -1      4232 1.09785E+02 2.08932E+01 0.00000E+00
 -1      4233 1.08285E+02 2.08932E+01 0.00000E+00
 -1      4234 1.07535E+02 2.21922E+01 0.00000E+00
 -1      4235 1.12785E+02 2.08932E+01 0.00000E+00
 -1      4236 1.11285E+02 2.08932E+01 0.00000E+00
 -1      4237 1.10535E+02 2.21922E+01 0.00000E+00
 -1      4238 1.15785E+02 2.08932E+01 0.00000E+00
 -1      4239 1.14285E+02 2.08932E+01 0.00000E+00
 -1      4240 1.13535E+02 2.21922E+01 0.00000E+00
 -1      4241 1.18785E+02 2.08932E+01 0.00000E+00
 -1      4242 1.17285E+02 2.08932E+01 0.00000E+00
 -1      4243 1.16535E+02 2.21922E+01 0.00000E+00
 -1      4244 1.21785E+02 2.08932E+01 0.00000E+00
 -1      4245 1.20285E+02 2.08932E+01 0.00000E+00
 -1      4246 1.19535E+02 2.21922E+01 0.00000E+00
 -1      4247 1.24785E+02 2.08932E+01 0.00000E+00
 -1      4248 1.23285E+02 2.08932E+01 0.00000E+00
 -1      4249 1.22535E+02 2.21922E+01 0.00000E+00
 -1      4250 1.27785E+02 2.08932E+01 0.00000E+00
 -1      4251 1.26285E+02 2.08932E+01 0.00000E+00
 -1      4252 1.25535E+02 2.21922E+01 0.00000E+00
 -1      4253 5.62467E+01 2.49137E+01 0.00000E+00
 -1      4254 5.70905E+01 2.57779E+01 0.00000E+00
 -1      4255 5.86064E+01 2.59950E+01 0.00000E+00
 -1      4256 5.67908E+01 2.36741E+01 0.00000E+00
 -1      4257 7.97850E+01 2.08932E+01 0.00000E+00
 -1      4258 7.82850E+01 2.08932E+01 0.00000E+00
 -1      4259 8.05350E+01 2.21922E+01 0.00000E+00
 -1      4260 7.07850E+01 2.08932E+01 0.00000E+00
 -1      4261 6.92850E+01 2.08932E+01 0.00000E+00
 -1      4262 6.85350E+01 2.21922E+01 0.00000E+00
 -1      4263 1.29227E+02 2.49803E+01 0.00000E+00
 -1      4264 1.30526E+02 2.42475E+01 0.00000E+00
 -1      4265 7.75350E+01 2.21922E+01 0.00000E+00
 -1      4266 6.55350E+01 2.21922E+01 0.00000E+00
 -1      4267 7.15350E+01 2.21922E+01 0.00000E+00
 -1      4268 1.28887E+02 2.15384E+01 0.00000E+00
 -1      4269 1.28137E+02 2.28374E+01 0.00000E+00
 -1      4270 1.28208E+02 2.54913E+01 0.00000E+00
 -1      4271 1.28219E+02 2.39935E+01 0.00000E+00
 -1      4272 1.27118E+02 2.33484E+01 0.00000E+00
 -1      4273 1.27283E+02 2.56606E+01 0.00000E+00
 -1      4274 1.30816E+02 2.31059E+01 0.00000E+00
 -1      4275 1.32320E+02 1.89593E+01 0.00000E+00
 -1      4276 1.31570E+02 2.02583E+01 0.00000E+00
 -1      4277 6.02642E+01 2.58564E+01 0.00000E+00
 -1      4278 6.17642E+01 2.58564E+01 0.00000E+00
 -1      4279 6.92850E+01 2.34912E+01 0.00000E+00
 -1      4280 6.77850E+01 2.34912E+01 0.00000E+00
 -1      4281 9.02850E+01 2.34912E+01 0.00000E+00
 -1      4282 8.87850E+01 2.34912E+01 0.00000E+00
 -1      4283 6.70246E+01 2.59728E+01 0.00000E+00
 -1      4284 6.85246E+01 2.59728E+01 0.00000E+00
 -1      4285 7.00246E+01 2.59728E+01 0.00000E+00
 -1      4286 7.22642E+01 2.58564E+01 0.00000E+00
 -1      4287 7.37642E+01 2.58564E+01 0.00000E+00
 -1      4288 7.52746E+01 2.46738E+01 0.00000E+00
 -1      4289 7.67746E+01 2.46738E+01 0.00000E+00
 -1      4290 7.82746E+01 2.46738E+01 0.00000E+00
 -1      4291 7.97746E+01 2.46738E+01 0.00000E+00
 -1      4292 8.12746E+01 2.46738E+01 0.00000E+00
 -1      4293 8.27746E+01 2.46738E+01 0.00000E+00
 -1      4294 8.42746E+01 2.46738E+01 0.00000E+00
 -1      4295 8.57746E+01 2.46738E+01 0.00000E+00
 -1      4296 8.80246E+01 2.59728E+01 0.00000E+00
 -1      4297 8.95246E+01 2.59728E+01 0.00000E+00
 -1      4298 9.10246E+01 2.59728E+01 0.00000E+00
 -1      4299 9.32642E+01 2.58564E+01 0.00000E+00
 -1      4300 9.47642E+01 2.58564E+01 0.00000E+00
 -1      4301 9.62746E+01 2.46738E+01 0.00000E+00
 -1      4302 9.77746E+01 2.46738E+01 0.00000E+00
 -1      4303 9.92746E+01 2.46738E+01 0.00000E+00
 -1      4304 1.00775E+02 2.46738E+01 0.00000E+00
 -1      4305 1.02275E+02 2.46738E+01 0.00000E+00
 -1      4306 1.03775E+02 2.46738E+01 0.00000E+00
 -1      4307 1.05275E+02 2.46738E+01 0.00000E+00
 -1      4308 1.06775E+02 2.46738E+01 0.00000E+00
 -1      4309 1.08275E+02 2.46738E+01 0.00000E+00
 -1      4310 1.09775E+02 2.46738E+01 0.00000E+00
 -1      4311 1.11275E+02 2.46738E+01 0.00000E+00
 -1      4312 1.12775E+02 2.46738E+01 0.00000E+00
 -1      4313 1.14275E+02 2.46738E+01 0.00000E+00
 -1      4314 1.15775E+02 2.46738E+01 0.00000E+00
 -1      4315 1.17275E+02 2.46738E+01 0.00000E+00
 -1      4316 1.18775E+02 2.46738E+01 0.00000E+00
 -1      4317 1.20275E+02 2.46738E+01 0.00000E+00
 -1      4318 1.21775E+02 2.46738E+01 0.00000E+00
 -1      4319 1.23275E+02 2.46738E+01 0.00000E+00
 -1      4320 1.24775E+02 2.46738E+01 0.00000E+00
 -1      4321 1.26357E+02 2.58300E+01 0.00000E+00
 -1      4322 7.45246E+01 2.33748E+01 0.00000E+00
 -1      4323 7.30246E+01 2.33748E+01 0.00000E+00
 -1      4324 6.36444E+01 2.59146E+01 0.00000E+00
 -1      4325 6.51444E+01 2.59146E+01 0.00000E+00
 -1      4326 6.66548E+01 2.47320E+01 0.00000E+00
 -1      4327 6.28944E+01 2.46156E+01 0.00000E+00
 -1      4328 6.25246E+01 2.33748E+01 0.00000E+00
 -1      4329 6.10246E+01 2.33748E+01 0.00000E+00
 -1      4330 6.59048E+01 2.34330E+01 0.00000E+00
 -1      4331 6.44048E+01 2.34330E+01 0.00000E+00
 -1      4332 1.30464E+02 2.11618E+01 0.00000E+00
 -1      4333 9.40246E+01 2.33748E+01 0.00000E+00
 -1      4334 9.25246E+01 2.33748E+01 0.00000E+00
 -1      4335 9.55246E+01 2.33748E+01 0.00000E+00
 -1      4336 1.25618E+02 2.33484E+01 0.00000E+00
 -1      4337 7.15246E+01 2.33748E+01 0.00000E+00
 -1      4338 5.97366E+01 2.34552E+01 0.00000E+00
 -1      4339 5.80788E+01 2.35937E+01 0.00000E+00
 -1      4340 7.07746E+01 2.46738E+01 0.00000E+00
 -1      4341 9.17746E+01 2.46738E+01 0.00000E+00
 -1      4342 8.72850E+01 2.34912E+01 0.00000E+00
 -1      4343 5.93564E+01 2.46960E+01 0.00000E+00
 -1      4344 1.31280E+02 2.14000E+01 0.00000E+00
 -3
    3C                          2090                                     1
 -1       165    8    0    1
 -2         6         7        23      1128      1292      1145
 -1       166    8    0    1
 -2         7         8       165      1129      1293      1294
 -1       167    8    0    1
 -2         8         9       166      1130      1295      1296
 -1       168    8    0    1
 -2         8       166       165      1296      1297      1293
 -1       169    8    0    1
 -2         9        10       167      1131      1298      1299
 -1       170    8    0    1
 -2         9       167       166      1299      1300      1295
 -1       171    8    0    1
 -2        10        11       168      1132      1301      1302
 -1       172    8    0    1
 -2        10       168       167      1302      1303      1298
 -1       173    8    0    1
 -2        11        12       169      1133      1304      1305
 -1       174    8    0    1
 -2        11       169       168      1305      1306      1301
 -1       175    8    0    1
 -2        12        13       170      1134      1307      1308
 -1       176    8    0    1
 -2        12       170       169      1308      1309      1304
 -1       177    8    0    1
 -2        13        14       171      1135      1310      1311
 -1       178    8    0    1
 -2        13       171       170      1311      1312      1307
 -1       179    8    0    1
 -2        14        15       172      1136      1313      1314
 -1       180    8    0    1
 -2        14       172       171      1314      1315      1310
 -1       181    8    0    1
 -2        15        16       173      1137      1316      1317
 -1       182    8    0    1
 -2        15       173       172      1317      1318      1313
 -1       183    8    0    1
 -2        16        17       174      1138      1319      1320
 -1       184    8    0    1
 -2        16       174       173      1320      1321      1316
 -1       185    8    0    1
 -2        17        18       175      1139      1322      1323
 -1       186    8    0    1
 -2        17       175       174      1323      1324      1319
 -1       187    8    0    1
 -2        18        19       176      1140      1325      1326
 -1       188    8    0    1
 -2        18       176       175      1326      1327      1322
 -1       189    8    0    1
 -2        19        20       177      1141      1328      1329
 -1       190    8    0    1
 -2        19       177       176      1329      1330      1325
 -1       191    8    0    1
 -2        20        21       178      1142      1331      1332
 -1       192    8    0    1
 -2        20       178       177      1332      1333      1328
 -1       193    8    0    1
 -2        21        22       179      1143      1334      1335
 -1       194    8    0    1
 -2        21       179       178      1335      1336      1331
 -1       195    8    0    1
 -2        22         5       180      1144      1337      1338
 -1       196    8    0    1
 -2       179        22       180      1334      1338      1339
 -1       197    8    0    1
 -2         5        72       180      1195      1340      1337
 -1       198    8    0    1
 -2        24        23       181      1146      1341      1342
 -1       199    8    0    1
 -2        25        24       182      1147      1343      1344
 -1       200    8    0    1
 -2        24       181       182      1342      1345      1343
 -1       201    8    0    1
 -2        26        25       183      1148      1346      1347
 -1       202    8    0    1
 -2        25       182       183      1344      1348      1346
 -1       203    8    0    1
 -2        27        26       184      1149      1349      1350
 -1       204    8    0    1
 -2        26       183       184      1347      1351      1349
 -1       205    8    0    1
 -2        28        27       185      1150      1352      1353
 -1       206    8    0    1
 -2        27       184       185      1350      1354      1352
 -1       207    8    0    1
 -2        29        28       186      1151      1355      1356
 -1       208    8    0    1
 -2        28       185       186      1353      1357      1355
 -1       209    8    0    1
 -2        30        29       187      1152      1358      1359
 -1       210    8    0    1
 -2        29       186       187      1356      1360      1358
 -1       211    8    0    1
 -2        31        30       188      1153      1361      1362
 -1       212    8    0    1
 -2        30       187       188      1359      1363      1361
 -1       213    8    0    1
 -2        32        31       189      1154      1364      1365
 -1       214    8    0    1
 -2        31       188       189      1362      1366      1364
 -1       215    8    0    1
 -2        33        32       190      1155      1367      1368
 -1       216    8    0    1
 -2        32       189       190      1365      1369      1367
 -1       217    8    0    1
 -2        34        33       191      1156      1370      1371
 -1       218    8    0    1
 -2        33       190       191      1368      1372      1370
 -1       219    8    0    1
 -2        35        34       192      1157      1373      1374
 -1       220    8    0    1
 -2        34       191       192      1371      1375      1373
 -1       221    8    0    1
 -2        36        35       193      1158      1376      1377
 -1       222    8    0    1
 -2        35       192       193      1374      1378      1376
 -1       223    8    0    1
 -2        37        36       194      1159      1379      1380
 -1       224    8    0    1
 -2        36       193       194      1377      1381      1379
 -1       225    8    0    1
 -2        38        37       195      1160      1382      1383
 -1       226    8    0    1
 -2        37       194       195      1380      1384      1382
 -1       227    8    0    1
 -2        39        38       196      1161      1385      1386
 -1       228    8    0    1
 -2        38       195       196      1383      1387      1385
 -1       229    8    0    1
 -2        40        39       197      1162      1388      1389
 -1       230    8    0    1
 -2        39       196       197      1386      1390      1388
 -1       231    8    0    1
 -2        41        40       198      1163      1391      1392
 -1       232    8    0    1
 -2        40       197       198      1389      1393      1391
 -1       233    8    0    1
 -2        42        41       199      1164      1394      1395
 -1       234    8    0    1
 -2        41       198       199      1392      1396      1394
 -1       235    8    0    1
 -2        43        42       200      1165      1397      1398
 -1       236    8    0    1
 -2        42       199       200      1395      1399      1397
 -1       237    8    0    1
 -2        44        43       201      1166      1400      1401
 -1       238    8    0    1
 -2        43       200       201      1398      1402      1400
 -1       239    8    0    1
 -2        45        44       202      1167      1403      1404
 -1       240    8    0    1
 -2        44       201       202      1401      1405      1403
 -1       241    8    0    1
 -2        46        45       203      1168      1406      1407
 -1       242    8    0    1
 -2        45       202       203      1404      1408      1406
 -1       243    8    0    1
 -2        47        46       204      1169      1409      1410
 -1       244    8    0    1
 -2        46       203       204      1407      1411      1409
 -1       245    8    0    1
 -2        48        47       205      1170      1412      1413
 -1       246    8    0    1
 -2        47       204       205      1410      1414      1412
 -1       247    8    0    1
 -2        49        48       206      1171      1415      1416
 -1       248    8    0    1
 -2        48       205       206      1413      1417      1415
 -1       249    8    0    1
 -2        50        49       207      1172      1418      1419
 -1       250    8    0    1
 -2        49       206       207      1416      1420      1418
 -1       251    8    0    1
 -2        51        50       208      1173      1421      1422
 -1       252    8    0    1
 -2        50       207       208      1419      1423      1421
 -1       253    8    0    1
 -2        52        51       209      1174      1424      1425
 -1       254    8    0    1
 -2        51       208       209      1422      1426      1424
 -1       255    8    0    1
 -2        53        52       210      1175      1427      1428
 -1       256    8    0    1
 -2        52       209       210      1425      1429      1427
 -1       257    8    0    1
 -2        54        53       211      1176      1430      1431
 -1       258    8    0    1
 -2        53       210       211      1428      1432      1430
 -1       259    8    0    1
 -2        55        54       212      1177      1433      1434
 -1       260    8    0    1
 -2        54       211       212      1431      1435      1433
 -1       261    8    0    1
 -2        56        55       213      1178      1436      1437
 -1       262    8    0    1
 -2        55       212       213      1434      1438      1436
 -1       263    8    0    1
 -2        57        56       214      1179      1439      1440
 -1       264    8    0    1
 -2        56       213       214      1437      1441      1439
 -1       265    8    0    1
 -2        58        57       215      1180      1442      1443
 -1       266    8    0    1
 -2        57       214       215      1440      1444      1442
 -1       267    8    0    1
 -2        59        58       216      1181      1445      1446
 -1       268    8    0    1
 -2        58       215       216      1443      1447      1445
 -1       269    8    0    1
 -2        60        59       217      1182      1448      1449
 -1       270    8    0    1
 -2        59       216       217      1446      1450      1448
 -1       271    8    0    1
 -2        61        60       218      1183      1451      1452
 -1       272    8    0    1
 -2        60       217       218      1449      1453      1451
 -1       273    8    0    1
 -2        62        61       219      1184      1454      1455
 -1       274    8    0    1
 -2        61       218       219      1452      1456      1454
 -1       275    8    0    1
 -2        63        62       220      1185      1457      1458
 -1       276    8    0    1
 -2        62       219       220      1455      1459      1457
 -1       277    8    0    1
 -2        64        63       221      1186      1460      1461
 -1       278    8    0    1
 -2        63       220       221      1458      1462      1460
 -1       279    8    0    1
 -2        65        64       222      1187      1463      1464
 -1       280    8    0    1
 -2        64       221       222      1461      1465      1463
 -1       281    8    0    1
 -2        66        65       223      1188      1466      1467
 -1       282    8    0    1
 -2        65       222       223      1464      1468      1466
 -1       283    8    0    1
 -2        67        66       224      1189      1469      1470
 -1       284    8    0    1
 -2        66       223       224      1467      1471      1469
 -1       285    8    0    1
 -2        68        67       225      1190      1472      1473
 -1       286    8    0    1
 -2        67       224       225      1470      1474      1472
 -1       287    8    0    1
 -2        69        68       226      1191      1475      1476
 -1       288    8    0    1
 -2        68       225       226      1473      1477      1475
 -1       289    8    0    1
 -2        70        69       227      1192      1478      1479
 -1       290    8    0    1
 -2        69       226       227      1476      1480      1478
 -1       291    8    0    1
 -2        71        70       228      1193      1481      1482
 -1       292    8    0    1
 -2        70       227       228      1479      1483      1481
 -1       293    8    0    1
 -2         4        71       136      1194      1484      1261
 -1       294    8    0    1
 -2       136        71       228      1484      1482      1485
 -1       295    8    0    1
 -2        72        73       229      1196      1486      1487
 -1       296    8    0    1
 -2        72       229       180      1487      1488      1340
 -1       297    8    0    1
 -2        73        74       230      1197      1489      1490
 -1       298    8    0    1
 -2        73       230       229      1490      1491      1486
 -1       299    8    0    1
 -2        74        75       231      1198      1492      1493
 -1       300    8    0    1
 -2        74       231       230      1493      1494      1489
 -1       301    8    0    1
 -2        75        76       232      1199      1495      1496
 -1       302    8    0    1
 -2        75       232       231      1496      1497      1492
 -1       303    8    0    1
 -2        76        77       233      1200      1498      1499
 -1       304    8    0    1
 -2        76       233       232      1499      1500      1495
 -1       305    8    0    1
 -2        77        78       234      1201      1501      1502
 -1       306    8    0    1
 -2        77       234       233      1502      1503      1498
 -1       307    8    0    1
 -2        78        79       235      1202      1504      1505
 -1       308    8    0    1
 -2        78       235       234      1505      1506      1501
 -1       309    8    0    1
 -2        79        80       236      1203      1507      1508
 -1       310    8    0    1
 -2        79       236       235      1508      1509      1504
 -1       311    8    0    1
 -2        80        81       237      1204      1510      1511
 -1       312    8    0    1
 -2        80       237       236      1511      1512      1507
 -1       313    8    0    1
 -2        81        82       238      1205      1513      1514
 -1       314    8    0    1
 -2        81       238       237      1514      1515      1510
 -1       315    8    0    1
 -2        82        83       239      1206      1516      1517
 -1       316    8    0    1
 -2        82       239       238      1517      1518      1513
 -1       317    8    0    1
 -2        83        84       240      1207      1519      1520
 -1       318    8    0    1
 -2        83       240       239      1520      1521      1516
 -1       319    8    0    1
 -2        84        85       241      1208      1522      1523
 -1       320    8    0    1
 -2        84       241       240      1523      1524      1519
 -1       321    8    0    1
 -2        85        86       242      1209      1525      1526
 -1       322    8    0    1
 -2        85       242       241      1526      1527      1522
 -1       323    8    0    1
 -2        86        87       243      1210      1528      1529
 -1       324    8    0    1
 -2        86       243       242      1529      1530      1525
 -1       325    8    0    1
 -2        87        88       244      1211      1531      1532
 -1       326    8    0    1
 -2        87       244       243      1532      1533      1528
 -1       327    8    0    1
 -2        88        89       245      1212      1534      1535
 -1       328    8    0    1
 -2        88       245       244      1535      1536      1531
 -1       329    8    0    1
 -2        89        90       246      1213      1537      1538
 -1       330    8    0    1
 -2        89       246       245      1538      1539      1534
 -1       331    8    0    1
 -2        90        91       247      1214      1540      1541
 -1       332    8    0    1
 -2        90       247       246      1541      1542      1537
 -1       333    8    0    1
 -2        91        92       248      1215      1543      1544
 -1       334    8    0    1
 -2        91       248       247      1544      1545      1540
 -1       335    8    0    1
 -2        92        93       249      1216      1546      1547
 -1       336    8    0    1
 -2        92       249       248      1547      1548      1543
 -1       337    8    0    1
 -2        93        94       250      1217      1549      1550
 -1       338    8    0    1
 -2        93       250       249      1550      1551      1546
 -1       339    8    0    1
 -2        94        95       251      1218      1552      1553
 -1       340    8    0    1
 -2        94       251       250      1553      1554      1549
 -1       341    8    0    1
 -2        95        96       252      1219      1555      1556
 -1       342    8    0    1
 -2        95       252       251      1556      1557      1552
 -1       343    8    0    1
 -2        96        97       253      1220      1558      1559
 -1       344    8    0    1
 -2        96       253       252      1559      1560      1555
 -1       345    8    0    1
 -2        97        98       254      1221      1561      1562
 -1       346    8    0    1
 -2        97       254       253      1562      1563      1558
 -1       347    8    0    1
 -2        98        99       255      1222      1564      1565
 -1       348    8    0    1
 -2        98       255       254      1565      1566      1561
 -1       349    8    0    1
 -2        99       100       256      1223      1567      1568
 -1       350    8    0    1
 -2        99       256       255      1568      1569      1564
 -1       351    8    0    1
 -2       100       101       257      1224      1570      1571
 -1       352    8    0    1
 -2       100       257       256      1571      1572      1567
 -1       353    8    0    1
 -2       101       102       258      1225      1573      1574
 -1       354    8    0    1
 -2       101       258       257      1574      1575      1570
 -1       355    8    0    1
 -2       102       103       259      1226      1576      1577
 -1       356    8    0    1
 -2       102       259       258      1577      1578      1573
 -1       357    8    0    1
 -2       103       104       260      1227      1579      1580
 -1       358    8    0    1
 -2       103       260       259      1580      1581      1576
 -1       359    8    0    1
 -2       104       105       261      1228      1582      1583
 -1       360    8    0    1
 -2       104       261       260      1583      1584      1579
 -1       361    8    0    1
 -2       105       106       262      1229      1585      1586
 -1       362    8    0    1
 -2       105       262       261      1586      1587      1582
 -1       363    8    0    1
 -2       106       107       263      1230      1588      1589
 -1       364    8    0    1
 -2       106       263       262      1589      1590      1585
 -1       365    8    0    1
 -2       107       108       264      1231      1591      1592
 -1       366    8    0    1
 -2       107       264       263      1592      1593      1588
 -1       367    8    0    1
 -2       108       109       265      1232      1594      1595
 -1       368    8    0    1
 -2       108       265       264      1595      1596      1591
 -1       369    8    0    1
 -2       109       110       266      1233      1597      1598
 -1       370    8    0    1
 -2       109       266       265      1598      1599      1594
 -1       371    8    0    1
 -2       110       111       267      1234      1600      1601
 -1       372    8    0    1
 -2       110       267       266      1601      1602      1597
 -1       373    8    0    1
 -2       111       112       268      1235      1603      1604
 -1       374    8    0    1
 -2       111       268       267      1604      1605      1600
 -1       375    8    0    1
 -2       112       113       269      1236      1606      1607
 -1       376    8    0    1
 -2       112       269       268      1607      1608      1603
 -1       377    8    0    1
 -2       113       114       270      1237      1609      1610
 -1       378    8    0    1
 -2       113       270       269      1610      1611      1606
 -1       379    8    0    1
 -2       114       115       271      1238      1612      1613
 -1       380    8    0    1
 -2       114       271       270      1613      1614      1609
 -1       381    8    0    1
 -2       115       116       272      1239      1615      1616
 -1       382    8    0    1
 -2       115       272       271      1616      1617      1612
 -1       383    8    0    1
 -2       116       117       273      1240      1618      1619
 -1       384    8    0    1
 -2       116       273       272      1619      1620      1615
 -1       385    8    0    1
 -2       117       118       274      1241      1621      1622
 -1       386    8    0    1
 -2       117       274       273      1622      1623      1618
 -1       387    8    0    1
 -2       118       119       275      1242      1624      1625
 -1       388    8    0    1
 -2       118       275       274      1625      1626      1621
 -1       389    8    0    1
 -2       119       120       276      1243      1627      1628
 -1       390    8    0    1
 -2       119       276       275      1628      1629      1624
 -1       391    8    0    1
 -2       120         3       121      1244      1245      1630
 -1       392    8    0    1
 -2       121       122       277      1246      1631      1632
 -1       393    8    0    1
 -2       122       123       278      1247      1633      1634
 -1       394    8    0    1
 -2       122       278       277      1634      1635      1631
 -1       395    8    0    1
 -2       123       124       279      1248      1636      1637
 -1       396    8    0    1
 -2       123       279       278      1637      1638      1633
 -1       397    8    0    1
 -2       124       125       280      1249      1639      1640
 -1       398    8    0    1
 -2       124       280       279      1640      1641      1636
 -1       399    8    0    1
 -2       125       126       281      1250      1642      1643
 -1       400    8    0    1
 -2       125       281       280      1643      1644      1639
 -1       401    8    0    1
 -2       126       127       282      1251      1645      1646
 -1       402    8    0    1
 -2       126       282       281      1646      1647      1642
 -1       403    8    0    1
 -2       127       128       283      1252      1648      1649
 -1       404    8    0    1
 -2       127       283       282      1649      1650      1645
 -1       405    8    0    1
 -2       128       129       284      1253      1651      1652
 -1       406    8    0    1
 -2       128       284       283      1652      1653      1648
 -1       407    8    0    1
 -2       129       130       285      1254      1654      1655
 -1       408    8    0    1
 -2       129       285       284      1655      1656      1651
 -1       409    8    0    1
 -2       130       131       286      1255      1657      1658
 -1       410    8    0    1
 -2       130       286       285      1658      1659      1654
 -1       411    8    0    1
 -2       131       132       287      1256      1660      1661
 -1       412    8    0    1
 -2       131       287       286      1661      1662      1657
 -1       413    8    0    1
 -2       132       133       288      1257      1663      1664
 -1       414    8    0    1
 -2       132       288       287      1664      1665      1660
 -1       415    8    0    1
 -2       133       134       289      1258      1666      1667
 -1       416    8    0    1
 -2       133       289       288      1667      1668      1663
 -1       417    8    0    1
 -2       134       135       290      1259      1669      1670
 -1       418    8    0    1
 -2       134       290       289      1670      1671      1666
 -1       419    8    0    1
 -2       135       136       291      1260      1672      1673
 -1       420    8    0    1
 -2       290       135       291      1669      1673      1674
 -1       421    8    0    1
 -2       136       228       291      1485      1675      1672
 -1       422    8    0    1
 -2         2       137       292      1262      1676      1677
 -1       423    8    0    1
 -2       137       138       293      1263      1678      1679
 -1       424    8    0    1
 -2       138       139       294      1264      1680      1681
 -1       425    8    0    1
 -2       139       140       295      1265      1682      1683
 -1       426    8    0    1
 -2       140       141       296      1266      1684      1685
 -1       427    8    0    1
 -2       141       142       297      1267      1686      1687
 -1       428    8    0    1
 -2       142       143       298      1268      1688      1689
 -1       429    8    0    1
 -2       143       144       299      1269      1690      1691
 -1       430    8    0    1
 -2       144       145       300      1270      1692      1693
 -1       431    8    0    1
 -2       145       146       301      1271      1694      1695
 -1       432    8    0    1
 -2       146       147       302      1272      1696      1697
 -1       433    8    0    1
 -2       147       148       303      1273      1698      1699
 -1       434    8    0    1
 -2       148       149       304      1274      1700      1701
 -1       435    8    0    1
 -2       149       150       305      1275      1702      1703
 -1       436    8    0    1
 -2       150       151       306      1276      1704      1705
 -1       437    8    0    1
 -2       151       152       307      1277      1706      1707
 -1       438    8    0    1
 -2       152       153       308      1278      1708      1709
 -1       439    8    0    1
 -2       153       154       309      1279      1710      1711
 -1       440    8    0    1
 -2       154       155       310      1280      1712      1713
 -1       441    8    0    1
 -2       155       156       311      1281      1714      1715
 -1       442    8    0    1
 -2       156       157       312      1282      1716      1717
 -1       443    8    0    1
 -2       157         1       313      1283      1718      1719
 -1       444    8    0    1
 -2         1       158       314      1284      1720      1721
 -1       445    8    0    1
 -2       158       159       315      1285      1722      1723
 -1       446    8    0    1
 -2       159       160       316      1286      1724      1725
 -1       447    8    0    1
 -2       160       161       317      1287      1726      1727
 -1       448    8    0    1
 -2       161       162       318      1288      1728      1729
 -1       449    8    0    1
 -2       162       163       319      1289      1730      1731
 -1       450    8    0    1
 -2       163       164       320      1290      1732      1733
 -1       451    8    0    1
 -2       164         2       321      1291      1734      1735
 -1       452    8    0    1
 -2       295       140       296      1682      1685      1736
 -1       453    8    0    1
 -2       294       139       295      1680      1683      1737
 -1       454    8    0    1
 -2       120       121       276      1630      1738      1627
 -1       455    8    0    1
 -2       121       277       276      1632      1739      1738
 -1       456    8    0    1
 -2       292       137       293      1676      1679      1740
 -1       457    8    0    1
 -2       293       138       294      1678      1681      1741
 -1       458    8    0    1
 -2         2       292       321      1677      1742      1734
 -1       459    8    0    1
 -2       141       297       296      1687      1743      1684
 -1       460    8    0    1
 -2       142       298       297      1689      1744      1686
 -1       461    8    0    1
 -2       143       299       298      1691      1745      1688
 -1       462    8    0    1
 -2       144       300       299      1693      1746      1690
 -1       463    8    0    1
 -2       145       301       300      1695      1747      1692
 -1       464    8    0    1
 -2       146       302       301      1697      1748      1694
 -1       465    8    0    1
 -2       147       303       302      1699      1749      1696
 -1       466    8    0    1
 -2       148       304       303      1701      1750      1698
 -1       467    8    0    1
 -2       149       305       304      1703      1751      1700
 -1       468    8    0    1
 -2       150       306       305      1705      1752      1702
 -1       469    8    0    1
 -2       151       307       306      1707      1753      1704
 -1       470    8    0    1
 -2       152       308       307      1709      1754      1706
 -1       471    8    0    1
 -2       153       309       308      1711      1755      1708
 -1       472    8    0    1
 -2       154       310       309      1713      1756      1710
 -1       473    8    0    1
 -2       155       311       310      1715      1757      1712
 -1       474    8    0    1
 -2       156       312       311      1717      1758      1714
 -1       475    8    0    1
 -2       157       313       312      1719      1759      1716
 -1       476    8    0    1
 -2         1       314       313      1721      1760      1718
 -1       477    8    0    1
 -2       158       315       314      1723      1761      1720
 -1       478    8    0    1
 -2       159       316       315      1725      1762      1722
 -1       479    8    0    1
 -2       160       317       316      1727      1763      1724
 -1       480    8    0    1
 -2       161       318       317      1729      1764      1726
 -1       481    8    0    1
 -2       162       319       318      1731      1765      1728
 -1       482    8    0    1
 -2       163       320       319      1733      1766      1730
 -1       483    8    0    1
 -2       164       321       320      1735      1767      1732
 -1       484    8    0    1
 -2        23         7       165      1292      1294      1768
 -1       485    8    0    1
 -2       166       167       322      1300      1769      1770
 -1       486    8    0    1
 -2       165       166       323      1297      1771      1772
 -1       487    8    0    1
 -2       166       322       323      1770      1773      1771
 -1       488    8    0    1
 -2       168       169       324      1306      1774      1775
 -1       489    8    0    1
 -2       169       170       325      1309      1776      1777
 -1       490    8    0    1
 -2       169       325       324      1777      1778      1774
 -1       491    8    0    1
 -2       170       171       326      1312      1779      1780
 -1       492    8    0    1
 -2       170       326       325      1780      1781      1776
 -1       493    8    0    1
 -2       171       172       327      1315      1782      1783
 -1       494    8    0    1
 -2       171       327       326      1783      1784      1779
 -1       495    8    0    1
 -2       172       173       328      1318      1785      1786
 -1       496    8    0    1
 -2       172       328       327      1786      1787      1782
 -1       497    8    0    1
 -2       173       174       329      1321      1788      1789
 -1       498    8    0    1
 -2       173       329       328      1789      1790      1785
 -1       499    8    0    1
 -2       174       175       330      1324      1791      1792
 -1       500    8    0    1
 -2       174       330       329      1792      1793      1788
 -1       501    8    0    1
 -2       175       176       331      1327      1794      1795
 -1       502    8    0    1
 -2       175       331       330      1795      1796      1791
 -1       503    8    0    1
 -2       176       177       332      1330      1797      1798
 -1       504    8    0    1
 -2       176       332       331      1798      1799      1794
 -1       505    8    0    1
 -2       177       178       333      1333      1800      1801
 -1       506    8    0    1
 -2       177       333       332      1801      1802      1797
 -1       507    8    0    1
 -2       178       179       334      1336      1803      1804
 -1       508    8    0    1
 -2       178       334       333      1804      1805      1800
 -1       509    8    0    1
 -2       179       180       335      1339      1806      1807
 -1       510    8    0    1
 -2       334       179       335      1803      1807      1808
 -1       511    8    0    1
 -2       180       229       335      1488      1809      1806
 -1       512    8    0    1
 -2       181        23       165      1341      1768      1810
 -1       513    8    0    1
 -2       229       230       336      1491      1811      1812
 -1       514    8    0    1
 -2       229       336       335      1812      1813      1809
 -1       515    8    0    1
 -2       181       165       323      1810      1772      1814
 -1       516    8    0    1
 -2       183       182       337      1348      1815      1816
 -1       517    8    0    1
 -2       184       183       338      1351      1817      1818
 -1       518    8    0    1
 -2       183       337       338      1816      1819      1817
 -1       519    8    0    1
 -2       185       184       339      1354      1820      1821
 -1       520    8    0    1
 -2       184       338       339      1818      1822      1820
 -1       521    8    0    1
 -2       186       185       340      1357      1823      1824
 -1       522    8    0    1
 -2       185       339       340      1821      1825      1823
 -1       523    8    0    1
 -2       187       186       341      1360      1826      1827
 -1       524    8    0    1
 -2       186       340       341      1824      1828      1826
 -1       525    8    0    1
 -2       188       187       342      1363      1829      1830
 -1       526    8    0    1
 -2       187       341       342      1827      1831      1829
 -1       527    8    0    1
 -2       189       188       343      1366      1832      1833
 -1       528    8    0    1
 -2       188       342       343      1830      1834      1832
 -1       529    8    0    1
 -2       190       189       344      1369      1835      1836
 -1       530    8    0    1
 -2       189       343       344      1833      1837      1835
 -1       531    8    0    1
 -2       191       190       345      1372      1838      1839
 -1       532    8    0    1
 -2       190       344       345      1836      1840      1838
 -1       533    8    0    1
 -2       192       191       346      1375      1841      1842
 -1       534    8    0    1
 -2       191       345       346      1839      1843      1841
 -1       535    8    0    1
 -2       193       192       347      1378      1844      1845
 -1       536    8    0    1
 -2       192       346       347      1842      1846      1844
 -1       537    8    0    1
 -2       194       193       348      1381      1847      1848
 -1       538    8    0    1
 -2       193       347       348      1845      1849      1847
 -1       539    8    0    1
 -2       195       194       349      1384      1850      1851
 -1       540    8    0    1
 -2       194       348       349      1848      1852      1850
 -1       541    8    0    1
 -2       196       195       350      1387      1853      1854
 -1       542    8    0    1
 -2       195       349       350      1851      1855      1853
 -1       543    8    0    1
 -2       197       196       351      1390      1856      1857
 -1       544    8    0    1
 -2       196       350       351      1854      1858      1856
 -1       545    8    0    1
 -2       198       197       352      1393      1859      1860
 -1       546    8    0    1
 -2       197       351       352      1857      1861      1859
 -1       547    8    0    1
 -2       199       198       353      1396      1862      1863
 -1       548    8    0    1
 -2       198       352       353      1860      1864      1862
 -1       549    8    0    1
 -2       200       199       354      1399      1865      1866
 -1       550    8    0    1
 -2       199       353       354      1863      1867      1865
 -1       551    8    0    1
 -2       201       200       355      1402      1868      1869
 -1       552    8    0    1
 -2       200       354       355      1866      1870      1868
 -1       553    8    0    1
 -2       202       201       356      1405      1871      1872
 -1       554    8    0    1
 -2       201       355       356      1869      1873      1871
 -1       555    8    0    1
 -2       203       202       357      1408      1874      1875
 -1       556    8    0    1
 -2       202       356       357      1872      1876      1874
 -1       557    8    0    1
 -2       204       203       358      1411      1877      1878
 -1       558    8    0    1
 -2       203       357       358      1875      1879      1877
 -1       559    8    0    1
 -2       205       204       359      1414      1880      1881
 -1       560    8    0    1
 -2       204       358       359      1878      1882      1880
 -1       561    8    0    1
 -2       206       205       360      1417      1883      1884
 -1       562    8    0    1
 -2       205       359       360      1881      1885      1883
 -1       563    8    0    1
 -2       207       206       361      1420      1886      1887
 -1       564    8    0    1
 -2       206       360       361      1884      1888      1886
 -1       565    8    0    1
 -2       208       207       362      1423      1889      1890
 -1       566    8    0    1
 -2       207       361       362      1887      1891      1889
 -1       567    8    0    1
 -2       209       208       363      1426      1892      1893
 -1       568    8    0    1
 -2       208       362       363      1890      1894      1892
 -1       569    8    0    1
 -2       210       209       364      1429      1895      1896
 -1       570    8    0    1
 -2       209       363       364      1893      1897      1895
 -1       571    8    0    1
 -2       211       210       365      1432      1898      1899
 -1       572    8    0    1
 -2       210       364       365      1896      1900      1898
 -1       573    8    0    1
 -2       212       211       366      1435      1901      1902
 -1       574    8    0    1
 -2       211       365       366      1899      1903      1901
 -1       575    8    0    1
 -2       213       212       367      1438      1904      1905
 -1       576    8    0    1
 -2       212       366       367      1902      1906      1904
 -1       577    8    0    1
 -2       214       213       368      1441      1907      1908
 -1       578    8    0    1
 -2       213       367       368      1905      1909      1907
 -1       579    8    0    1
 -2       215       214       369      1444      1910      1911
 -1       580    8    0    1
 -2       214       368       369      1908      1912      1910
 -1       581    8    0    1
 -2       216       215       370      1447      1913      1914
 -1       582    8    0    1
 -2       215       369       370      1911      1915      1913
 -1       583    8    0    1
 -2       217       216       371      1450      1916      1917
 -1       584    8    0    1
 -2       216       370       371      1914      1918      1916
 -1       585    8    0    1
 -2       218       217       372      1453      1919      1920
 -1       586    8    0    1
 -2       217       371       372      1917      1921      1919
 -1       587    8    0    1
 -2       219       218       373      1456      1922      1923
 -1       588    8    0    1
 -2       218       372       373      1920      1924      1922
 -1       589    8    0    1
 -2       220       219       374      1459      1925      1926
 -1       590    8    0    1
 -2       219       373       374      1923      1927      1925
 -1       591    8    0    1
 -2       221       220       375      1462      1928      1929
 -1       592    8    0    1
 -2       220       374       375      1926      1930      1928
 -1       593    8    0    1
 -2       222       221       376      1465      1931      1932
 -1       594    8    0    1
 -2       221       375       376      1929      1933      1931
 -1       595    8    0    1
 -2       223       222       377      1468      1934      1935
 -1       596    8    0    1
 -2       222       376       377      1932      1936      1934
 -1       597    8    0    1
 -2       224       223       378      1471      1937      1938
 -1       598    8    0    1
 -2       223       377       378      1935      1939      1937
 -1       599    8    0    1
 -2       225       224       379      1474      1940      1941
 -1       600    8    0    1
 -2       224       378       379      1938      1942      1940
 -1       601    8    0    1
 -2       226       225       380      1477      1943      1944
 -1       602    8    0    1
 -2       225       379       380      1941      1945      1943
 -1       603    8    0    1
 -2       227       226       381      1480      1946      1947
 -1       604    8    0    1
 -2       226       380       381      1944      1948      1946
 -1       605    8    0    1
 -2       228       227       382      1483      1949      1950
 -1       606    8    0    1
 -2       291       228       382      1675      1950      1951
 -1       607    8    0    1
 -2       227       381       382      1947      1952      1949
 -1       608    8    0    1
 -2       230       231       383      1494      1953      1954
 -1       609    8    0    1
 -2       230       383       336      1954      1955      1811
 -1       610    8    0    1
 -2       231       232       384      1497      1956      1957
 -1       611    8    0    1
 -2       231       384       383      1957      1958      1953
 -1       612    8    0    1
 -2       232       233       385      1500      1959      1960
 -1       613    8    0    1
 -2       232       385       384      1960      1961      1956
 -1       614    8    0    1
 -2       233       234       386      1503      1962      1963
 -1       615    8    0    1
 -2       233       386       385      1963      1964      1959
 -1       616    8    0    1
 -2       234       235       387      1506      1965      1966
 -1       617    8    0    1
 -2       234       387       386      1966      1967      1962
 -1       618    8    0    1
 -2       235       236       388      1509      1968      1969
 -1       619    8    0    1
 -2       235       388       387      1969      1970      1965
 -1       620    8    0    1
 -2       236       237       389      1512      1971      1972
 -1       621    8    0    1
 -2       236       389       388      1972      1973      1968
 -1       622    8    0    1
 -2       237       238       390      1515      1974      1975
 -1       623    8    0    1
 -2       237       390       389      1975      1976      1971
 -1       624    8    0    1
 -2       238       239       391      1518      1977      1978
 -1       625    8    0    1
 -2       238       391       390      1978      1979      1974
 -1       626    8    0    1
 -2       239       240       392      1521      1980      1981
 -1       627    8    0    1
 -2       239       392       391      1981      1982      1977
 -1       628    8    0    1
 -2       240       241       393      1524      1983      1984
 -1       629    8    0    1
 -2       240       393       392      1984      1985      1980
 -1       630    8    0    1
 -2       241       242       394      1527      1986      1987
 -1       631    8    0    1
 -2       241       394       393      1987      1988      1983
 -1       632    8    0    1
 -2       242       243       395      1530      1989      1990
 -1       633    8    0    1
 -2       242       395       394      1990      1991      1986
 -1       634    8    0    1
 -2       243       244       396      1533      1992      1993
 -1       635    8    0    1
 -2       243       396       395      1993      1994      1989
 -1       636    8    0    1
 -2       244       245       397      1536      1995      1996
 -1       637    8    0    1
 -2       244       397       396      1996      1997      1992
 -1       638    8    0    1
 -2       245       246       398      1539      1998      1999
 -1       639    8    0    1
 -2       245       398       397      1999      2000      1995
 -1       640    8    0    1
 -2       246       247       399      1542      2001      2002
 -1       641    8    0    1
 -2       246       399       398      2002      2003      1998
 -1       642    8    0    1
 -2       247       248       400      1545      2004      2005
 -1       643    8    0    1
 -2       247       400       399      2005      2006      2001
 -1       644    8    0    1
 -2       248       249       401      1548      2007      2008
 -1       645    8    0    1
 -2       248       401       400      2008      2009      2004
 -1       646    8    0    1
 -2       249       250       402      1551      2010      2011
 -1       647    8    0    1
 -2       249       402       401      2011      2012      2007
 -1       648    8    0    1
 -2       250       251       403      1554      2013      2014
 -1       649    8    0    1
 -2       250       403       402      2014      2015      2010
 -1       650    8    0    1
 -2       251       252       404      1557      2016      2017
 -1       651    8    0    1
 -2       251       404       403      2017      2018      2013
 -1       652    8    0    1
 -2       252       253       405      1560      2019      2020
 -1       653    8    0    1
 -2       252       405       404      2020      2021      2016
 -1       654    8    0    1
 -2       253       254       406      1563      2022      2023
 -1       655    8    0    1
 -2       253       406       405      2023      2024      2019
 -1       656    8    0    1
 -2       254       255       407      1566      2025      2026
 -1       657    8    0    1
 -2       254       407       406      2026      2027      2022
 -1       658    8    0    1
 -2       255       256       408      1569      2028      2029
 -1       659    8    0    1
 -2       255       408       407      2029      2030      2025
 -1       660    8    0    1
 -2       256       257       409      1572      2031      2032
 -1       661    8    0    1
 -2       256       409       408      2032      2033      2028
 -1       662    8    0    1
 -2       257       258       410      1575      2034      2035
 -1       663    8    0    1
 -2       257       410       409      2035      2036      2031
 -1       664    8    0    1
 -2       258       259       411      1578      2037      2038
 -1       665    8    0    1
 -2       258       411       410      2038      2039      2034
 -1       666    8    0    1
 -2       259       260       412      1581      2040      2041
 -1       667    8    0    1
 -2       259       412       411      2041      2042      2037
 -1       668    8    0    1
 -2       260       261       413      1584      2043      2044
 -1       669    8    0    1
 -2       260       413       412      2044      2045      2040
 -1       670    8    0    1
 -2       261       262       414      1587      2046      2047
 -1       671    8    0    1
 -2       261       414       413      2047      2048      2043
 -1       672    8    0    1
 -2       262       263       415      1590      2049      2050
 -1       673    8    0    1
 -2       262       415       414      2050      2051      2046
 -1       674    8    0    1
 -2       263       264       416      1593      2052      2053
 -1       675    8    0    1
 -2       263       416       415      2053      2054      2049
 -1       676    8    0    1
 -2       264       265       417      1596      2055      2056
 -1       677    8    0    1
 -2       264       417       416      2056      2057      2052
 -1       678    8    0    1
 -2       265       266       418      1599      2058      2059
 -1       679    8    0    1
 -2       265       418       417      2059      2060      2055
 -1       680    8    0    1
 -2       266       267       419      1602      2061      2062
 -1       681    8    0    1
 -2       266       419       418      2062      2063      2058
 -1       682    8    0    1
 -2       267       268       420      1605      2064      2065
 -1       683    8    0    1
 -2       267       420       419      2065      2066      2061
 -1       684    8    0    1
 -2       268       269       421      1608      2067      2068
 -1       685    8    0    1
 -2       268       421       420      2068      2069      2064
 -1       686    8    0    1
 -2       269       270       422      1611      2070      2071
 -1       687    8    0    1
 -2       269       422       421      2071      2072      2067
 -1       688    8    0    1
 -2       270       271       423      1614      2073      2074
 -1       689    8    0    1
 -2       270       423       422      2074      2075      2070
 -1       690    8    0    1
 -2       271       272       424      1617      2076      2077
 -1       691    8    0    1
 -2       271       424       423      2077      2078      2073
 -1       692    8    0    1
 -2       272       273       425      1620      2079      2080
 -1       693    8    0    1
 -2       272       425       424      2080      2081      2076
 -1       694    8    0    1
 -2       273       274       426      1623      2082      2083
 -1       695    8    0    1
 -2       273       426       425      2083      2084      2079
 -1       696    8    0    1
 -2       274       275       427      1626      2085      2086
 -1       697    8    0    1
 -2       274       427       426      2086      2087      2082
 -1       698    8    0    1
 -2       275       276       428      1629      2088      2089
 -1       699    8    0    1
 -2       427       275       428      2085      2089      2090
 -1       700    8    0    1
 -2       276       277       428      1739      2091      2088
 -1       701    8    0    1
 -2       279       280       429      1641      2092      2093
 -1       702    8    0    1
 -2       278       279       430      1638      2094      2095
 -1       703    8    0    1
 -2       279       429       430      2093      2096      2094
 -1       704    8    0    1
 -2       277       278       431      1635      2097      2098
 -1       705    8    0    1
 -2       428       277       431      2091      2098      2099
 -1       706    8    0    1
 -2       278       430       431      2095      2100      2097
 -1       707    8    0    1
 -2       280       281       432      1644      2101      2102
 -1       708    8    0    1
 -2       280       432       429      2102      2103      2092
 -1       709    8    0    1
 -2       281       282       433      1647      2104      2105
 -1       710    8    0    1
 -2       281       433       432      2105      2106      2101
 -1       711    8    0    1
 -2       282       283       434      1650      2107      2108
 -1       712    8    0    1
 -2       282       434       433      2108      2109      2104
 -1       713    8    0    1
 -2       283       284       435      1653      2110      2111
 -1       714    8    0    1
 -2       283       435       434      2111      2112      2107
 -1       715    8    0    1
 -2       284       285       436      1656      2113      2114
 -1       716    8    0    1
 -2       284       436       435      2114      2115      2110
 -1       717    8    0    1
 -2       285       286       437      1659      2116      2117
 -1       718    8    0    1
 -2       285       437       436      2117      2118      2113
 -1       719    8    0    1
 -2       286       287       438      1662      2119      2120
 -1       720    8    0    1
 -2       286       438       437      2120      2121      2116
 -1       721    8    0    1
 -2       287       288       439      1665      2122      2123
 -1       722    8    0    1
 -2       287       439       438      2123      2124      2119
 -1       723    8    0    1
 -2       288       289       440      1668      2125      2126
 -1       724    8    0    1
 -2       288       440       439      2126      2127      2122
 -1       725    8    0    1
 -2       289       290       441      1671      2128      2129
 -1       726    8    0    1
 -2       289       441       440      2129      2130      2125
 -1       727    8    0    1
 -2       293       294       442      1741      2131      2132
 -1       728    8    0    1
 -2       321       292       443      1742      2133      2134
 -1       729    8    0    1
 -2       292       293       444      1740      2135      2136
 -1       730    8    0    1
 -2       294       295       445      1737      2137      2138
 -1       731    8    0    1
 -2       295       296       446      1736      2139      2140
 -1       732    8    0    1
 -2       167       168       447      1303      2141      2142
 -1       733    8    0    1
 -2       322       167       447      1769      2142      2143
 -1       734    8    0    1
 -2       168       324       447      1775      2144      2141
 -1       735    8    0    1
 -2       297       298       448      1744      2145      2146
 -1       736    8    0    1
 -2       298       299       449      1745      2147      2148
 -1       737    8    0    1
 -2       298       449       448      2148      2149      2145
 -1       738    8    0    1
 -2       299       300       450      1746      2150      2151
 -1       739    8    0    1
 -2       300       301       451      1747      2152      2153
 -1       740    8    0    1
 -2       301       302       452      1748      2154      2155
 -1       741    8    0    1
 -2       302       303       453      1749      2156      2157
 -1       742    8    0    1
 -2       302       453       452      2157      2158      2154
 -1       743    8    0    1
 -2       303       304       454      1750      2159      2160
 -1       744    8    0    1
 -2       304       305       455      1751      2161      2162
 -1       745    8    0    1
 -2       304       455       454      2162      2163      2159
 -1       746    8    0    1
 -2       305       306       456      1752      2164      2165
 -1       747    8    0    1
 -2       306       307       457      1753      2166      2167
 -1       748    8    0    1
 -2       306       457       456      2167      2168      2164
 -1       749    8    0    1
 -2       307       308       458      1754      2169      2170
 -1       750    8    0    1
 -2       308       309       459      1755      2171      2172
 -1       751    8    0    1
 -2       309       310       460      1756      2173      2174
 -1       752    8    0    1
 -2       310       311       461      1757      2175      2176
 -1       753    8    0    1
 -2       310       461       460      2176      2177      2173
 -1       754    8    0    1
 -2       311       312       462      1758      2178      2179
 -1       755    8    0    1
 -2       312       313       463      1759      2180      2181
 -1       756    8    0    1
 -2       313       314       464      1760      2182      2183
 -1       757    8    0    1
 -2       313       464       463      2183      2184      2180
 -1       758    8    0    1
 -2       314       315       465      1761      2185      2186
 -1       759    8    0    1
 -2       315       316       466      1762      2187      2188
 -1       760    8    0    1
 -2       316       317       467      1763      2189      2190
 -1       761    8    0    1
 -2       316       467       466      2190      2191      2187
 -1       762    8    0    1
 -2       317       318       468      1764      2192      2193
 -1       763    8    0    1
 -2       318       319       469      1765      2194      2195
 -1       764    8    0    1
 -2       318       469       468      2195      2196      2192
 -1       765    8    0    1
 -2       319       320       470      1766      2197      2198
 -1       766    8    0    1
 -2       320       321       471      1767      2199      2200
 -1       767    8    0    1
 -2       320       471       470      2200      2201      2197
 -1       768    8    0    1
 -2       296       297       472      1743      2202      2203
 -1       769    8    0    1
 -2       445       295       446      2137      2140      2204
 -1       770    8    0    1
 -2       181       323       182      1814      2205      1345
 -1       771    8    0    1
 -2       446       296       472      2139      2203      2206
 -1       772    8    0    1
 -2       297       448       473      2146      2207      2208
 -1       773    8    0    1
 -2       297       473       472      2208      2209      2202
 -1       774    8    0    1
 -2       337       182       323      1815      2205      2210
 -1       775    8    0    1
 -2       444       293       442      2135      2132      2211
 -1       776    8    0    1
 -2       443       292       444      2133      2136      2212
 -1       777    8    0    1
 -2       441       290       291      2128      1674      2213
 -1       778    8    0    1
 -2       442       294       445      2131      2138      2214
 -1       779    8    0    1
 -2       321       443       471      2134      2215      2199
 -1       780    8    0    1
 -2       469       319       470      2194      2198      2216
 -1       781    8    0    1
 -2       467       317       468      2189      2193      2217
 -1       782    8    0    1
 -2       464       314       465      2182      2186      2218
 -1       783    8    0    1
 -2       461       311       462      2175      2179      2219
 -1       784    8    0    1
 -2       459       309       460      2171      2174      2220
 -1       785    8    0    1
 -2       457       307       458      2166      2170      2221
 -1       786    8    0    1
 -2       455       305       456      2161      2165      2222
 -1       787    8    0    1
 -2       453       303       474      2156      2223      2224
 -1       788    8    0    1
 -2       303       454       474      2160      2225      2223
 -1       789    8    0    1
 -2       451       301       452      2152      2155      2226
 -1       790    8    0    1
 -2       299       450       449      2151      2227      2147
 -1       791    8    0    1
 -2       450       300       451      2150      2153      2228
 -1       792    8    0    1
 -2       458       308       459      2169      2172      2229
 -1       793    8    0    1
 -2       462       312       463      2178      2181      2230
 -1       794    8    0    1
 -2       465       315       466      2185      2188      2231
 -1       795    8    0    1
 -2       336       383       475      1955      2232      2233
 -1       796    8    0    1
 -2       325       326       476      1781      2234      2235
 -1       797    8    0    1
 -2       324       325       477      1778      2236      2237
 -1       798    8    0    1
 -2       325       476       477      2235      2238      2236
 -1       799    8    0    1
 -2       327       328       478      1787      2239      2240
 -1       800    8    0    1
 -2       328       329       479      1790      2241      2242
 -1       801    8    0    1
 -2       328       479       478      2242      2243      2239
 -1       802    8    0    1
 -2       329       330       480      1793      2244      2245
 -1       803    8    0    1
 -2       329       480       479      2245      2246      2241
 -1       804    8    0    1
 -2       330       331       481      1796      2247      2248
 -1       805    8    0    1
 -2       330       481       480      2248      2249      2244
 -1       806    8    0    1
 -2       331       332       482      1799      2250      2251
 -1       807    8    0    1
 -2       331       482       481      2251      2252      2247
 -1       808    8    0    1
 -2       332       333       483      1802      2253      2254
 -1       809    8    0    1
 -2       332       483       482      2254      2255      2250
 -1       810    8    0    1
 -2       383       384       484      1958      2256      2257
 -1       811    8    0    1
 -2       383       484       475      2257      2258      2232
 -1       812    8    0    1
 -2       338       337       485      1819      2259      2260
 -1       813    8    0    1
 -2       446       472       486      2206      2261      2262
 -1       814    8    0    1
 -2       339       338       487      1822      2263      2264
 -1       815    8    0    1
 -2       338       485       487      2260      2265      2263
 -1       816    8    0    1
 -2       340       339       488      1825      2266      2267
 -1       817    8    0    1
 -2       339       487       488      2264      2268      2266
 -1       818    8    0    1
 -2       341       340       489      1828      2269      2270
 -1       819    8    0    1
 -2       340       488       489      2267      2271      2269
 -1       820    8    0    1
 -2       342       341       490      1831      2272      2273
 -1       821    8    0    1
 -2       341       489       490      2270      2274      2272
 -1       822    8    0    1
 -2       343       342       491      1834      2275      2276
 -1       823    8    0    1
 -2       342       490       491      2273      2277      2275
 -1       824    8    0    1
 -2       344       343       492      1837      2278      2279
 -1       825    8    0    1
 -2       343       491       492      2276      2280      2278
 -1       826    8    0    1
 -2       345       344       493      1840      2281      2282
 -1       827    8    0    1
 -2       344       492       493      2279      2283      2281
 -1       828    8    0    1
 -2       346       345       494      1843      2284      2285
 -1       829    8    0    1
 -2       345       493       494      2282      2286      2284
 -1       830    8    0    1
 -2       347       346       495      1846      2287      2288
 -1       831    8    0    1
 -2       346       494       495      2285      2289      2287
 -1       832    8    0    1
 -2       348       347       496      1849      2290      2291
 -1       833    8    0    1
 -2       347       495       496      2288      2292      2290
 -1       834    8    0    1
 -2       349       348       497      1852      2293      2294
 -1       835    8    0    1
 -2       348       496       497      2291      2295      2293
 -1       836    8    0    1
 -2       350       349       498      1855      2296      2297
 -1       837    8    0    1
 -2       349       497       498      2294      2298      2296
 -1       838    8    0    1
 -2       351       350       499      1858      2299      2300
 -1       839    8    0    1
 -2       350       498       499      2297      2301      2299
 -1       840    8    0    1
 -2       352       351       500      1861      2302      2303
 -1       841    8    0    1
 -2       351       499       500      2300      2304      2302
 -1       842    8    0    1
 -2       353       352       501      1864      2305      2306
 -1       843    8    0    1
 -2       352       500       501      2303      2307      2305
 -1       844    8    0    1
 -2       354       353       502      1867      2308      2309
 -1       845    8    0    1
 -2       353       501       502      2306      2310      2308
 -1       846    8    0    1
 -2       355       354       503      1870      2311      2312
 -1       847    8    0    1
 -2       354       502       503      2309      2313      2311
 -1       848    8    0    1
 -2       356       355       504      1873      2314      2315
 -1       849    8    0    1
 -2       355       503       504      2312      2316      2314
 -1       850    8    0    1
 -2       357       356       505      1876      2317      2318
 -1       851    8    0    1
 -2       356       504       505      2315      2319      2317
 -1       852    8    0    1
 -2       358       357       506      1879      2320      2321
 -1       853    8    0    1
 -2       357       505       506      2318      2322      2320
 -1       854    8    0    1
 -2       359       358       507      1882      2323      2324
 -1       855    8    0    1
 -2       358       506       507      2321      2325      2323
 -1       856    8    0    1
 -2       360       359       508      1885      2326      2327
 -1       857    8    0    1
 -2       359       507       508      2324      2328      2326
 -1       858    8    0    1
 -2       361       360       509      1888      2329      2330
 -1       859    8    0    1
 -2       360       508       509      2327      2331      2329
 -1       860    8    0    1
 -2       362       361       510      1891      2332      2333
 -1       861    8    0    1
 -2       361       509       510      2330      2334      2332
 -1       862    8    0    1
 -2       363       362       511      1894      2335      2336
 -1       863    8    0    1
 -2       362       510       511      2333      2337      2335
 -1       864    8    0    1
 -2       364       363       512      1897      2338      2339
 -1       865    8    0    1
 -2       363       511       512      2336      2340      2338
 -1       866    8    0    1
 -2       365       364       513      1900      2341      2342
 -1       867    8    0    1
 -2       364       512       513      2339      2343      2341
 -1       868    8    0    1
 -2       366       365       514      1903      2344      2345
 -1       869    8    0    1
 -2       365       513       514      2342      2346      2344
 -1       870    8    0    1
 -2       367       366       515      1906      2347      2348
 -1       871    8    0    1
 -2       366       514       515      2345      2349      2347
 -1       872    8    0    1
 -2       368       367       516      1909      2350      2351
 -1       873    8    0    1
 -2       367       515       516      2348      2352      2350
 -1       874    8    0    1
 -2       369       368       517      1912      2353      2354
 -1       875    8    0    1
 -2       368       516       517      2351      2355      2353
 -1       876    8    0    1
 -2       370       369       518      1915      2356      2357
 -1       877    8    0    1
 -2       369       517       518      2354      2358      2356
 -1       878    8    0    1
 -2       371       370       519      1918      2359      2360
 -1       879    8    0    1
 -2       370       518       519      2357      2361      2359
 -1       880    8    0    1
 -2       372       371       520      1921      2362      2363
 -1       881    8    0    1
 -2       371       519       520      2360      2364      2362
 -1       882    8    0    1
 -2       373       372       521      1924      2365      2366
 -1       883    8    0    1
 -2       372       520       521      2363      2367      2365
 -1       884    8    0    1
 -2       374       373       522      1927      2368      2369
 -1       885    8    0    1
 -2       373       521       522      2366      2370      2368
 -1       886    8    0    1
 -2       375       374       523      1930      2371      2372
 -1       887    8    0    1
 -2       374       522       523      2369      2373      2371
 -1       888    8    0    1
 -2       376       375       524      1933      2374      2375
 -1       889    8    0    1
 -2       375       523       524      2372      2376      2374
 -1       890    8    0    1
 -2       377       376       525      1936      2377      2378
 -1       891    8    0    1
 -2       376       524       525      2375      2379      2377
 -1       892    8    0    1
 -2       378       377       526      1939      2380      2381
 -1       893    8    0    1
 -2       377       525       526      2378      2382      2380
 -1       894    8    0    1
 -2       379       378       527      1942      2383      2384
 -1       895    8    0    1
 -2       378       526       527      2381      2385      2383
 -1       896    8    0    1
 -2       380       379       528      1945      2386      2387
 -1       897    8    0    1
 -2       379       527       528      2384      2388      2386
 -1       898    8    0    1
 -2       381       380       529      1948      2389      2390
 -1       899    8    0    1
 -2       380       528       529      2387      2391      2389
 -1       900    8    0    1
 -2       385       386       530      1964      2392      2393
 -1       901    8    0    1
 -2       386       387       531      1967      2394      2395
 -1       902    8    0    1
 -2       386       531       530      2395      2396      2392
 -1       903    8    0    1
 -2       387       388       532      1970      2397      2398
 -1       904    8    0    1
 -2       387       532       531      2398      2399      2394
 -1       905    8    0    1
 -2       388       389       533      1973      2400      2401
 -1       906    8    0    1
 -2       388       533       532      2401      2402      2397
 -1       907    8    0    1
 -2       389       390       534      1976      2403      2404
 -1       908    8    0    1
 -2       389       534       533      2404      2405      2400
 -1       909    8    0    1
 -2       390       391       535      1979      2406      2407
 -1       910    8    0    1
 -2       390       535       534      2407      2408      2403
 -1       911    8    0    1
 -2       391       392       536      1982      2409      2410
 -1       912    8    0    1
 -2       391       536       535      2410      2411      2406
 -1       913    8    0    1
 -2       392       393       537      1985      2412      2413
 -1       914    8    0    1
 -2       392       537       536      2413      2414      2409
 -1       915    8    0    1
 -2       393       394       538      1988      2415      2416
 -1       916    8    0    1
 -2       393       538       537      2416      2417      2412
 -1       917    8    0    1
 -2       394       395       539      1991      2418      2419
 -1       918    8    0    1
 -2       394       539       538      2419      2420      2415
 -1       919    8    0    1
 -2       395       396       540      1994      2421      2422
 -1       920    8    0    1
 -2       395       540       539      2422      2423      2418
 -1       921    8    0    1
 -2       396       397       541      1997      2424      2425
 -1       922    8    0    1
 -2       396       541       540      2425      2426      2421
 -1       923    8    0    1
 -2       397       398       542      2000      2427      2428
 -1       924    8    0    1
 -2       397       542       541      2428      2429      2424
 -1       925    8    0    1
 -2       398       399       543      2003      2430      2431
 -1       926    8    0    1
 -2       398       543       542      2431      2432      2427
 -1       927    8    0    1
 -2       399       400       544      2006      2433      2434
 -1       928    8    0    1
 -2       399       544       543      2434      2435      2430
 -1       929    8    0    1
 -2       400       401       545      2009      2436      2437
 -1       930    8    0    1
 -2       400       545       544      2437      2438      2433
 -1       931    8    0    1
 -2       401       402       546      2012      2439      2440
 -1       932    8    0    1
 -2       401       546       545      2440      2441      2436
 -1       933    8    0    1
 -2       402       403       547      2015      2442      2443
 -1       934    8    0    1
 -2       402       547       546      2443      2444      2439
 -1       935    8    0    1
 -2       403       404       548      2018      2445      2446
 -1       936    8    0    1
 -2       403       548       547      2446      2447      2442
 -1       937    8    0    1
 -2       404       405       549      2021      2448      2449
 -1       938    8    0    1
 -2       404       549       548      2449      2450      2445
 -1       939    8    0    1
 -2       405       406       550      2024      2451      2452
 -1       940    8    0    1
 -2       405       550       549      2452      2453      2448
 -1       941    8    0    1
 -2       406       407       551      2027      2454      2455
 -1       942    8    0    1
 -2       406       551       550      2455      2456      2451
 -1       943    8    0    1
 -2       407       408       552      2030      2457      2458
 -1       944    8    0    1
 -2       407       552       551      2458      2459      2454
 -1       945    8    0    1
 -2       408       409       553      2033      2460      2461
 -1       946    8    0    1
 -2       408       553       552      2461      2462      2457
 -1       947    8    0    1
 -2       409       410       554      2036      2463      2464
 -1       948    8    0    1
 -2       409       554       553      2464      2465      2460
 -1       949    8    0    1
 -2       410       411       555      2039      2466      2467
 -1       950    8    0    1
 -2       410       555       554      2467      2468      2463
 -1       951    8    0    1
 -2       411       412       556      2042      2469      2470
 -1       952    8    0    1
 -2       411       556       555      2470      2471      2466
 -1       953    8    0    1
 -2       412       413       557      2045      2472      2473
 -1       954    8    0    1
 -2       412       557       556      2473      2474      2469
 -1       955    8    0    1
 -2       413       414       558      2048      2475      2476
 -1       956    8    0    1
 -2       413       558       557      2476      2477      2472
 -1       957    8    0    1
 -2       414       415       559      2051      2478      2479
 -1       958    8    0    1
 -2       414       559       558      2479      2480      2475
 -1       959    8    0    1
 -2       415       416       560      2054      2481      2482
 -1       960    8    0    1
 -2       415       560       559      2482      2483      2478
 -1       961    8    0    1
 -2       416       417       561      2057      2484      2485
 -1       962    8    0    1
 -2       416       561       560      2485      2486      2481
 -1       963    8    0    1
 -2       417       418       562      2060      2487      2488
 -1       964    8    0    1
 -2       417       562       561      2488      2489      2484
 -1       965    8    0    1
 -2       418       419       563      2063      2490      2491
 -1       966    8    0    1
 -2       418       563       562      2491      2492      2487
 -1       967    8    0    1
 -2       419       420       564      2066      2493      2494
 -1       968    8    0    1
 -2       419       564       563      2494      2495      2490
 -1       969    8    0    1
 -2       420       421       565      2069      2496      2497
 -1       970    8    0    1
 -2       420       565       564      2497      2498      2493
 -1       971    8    0    1
 -2       421       422       566      2072      2499      2500
 -1       972    8    0    1
 -2       421       566       565      2500      2501      2496
 -1       973    8    0    1
 -2       422       423       567      2075      2502      2503
 -1       974    8    0    1
 -2       422       567       566      2503      2504      2499
 -1       975    8    0    1
 -2       423       424       568      2078      2505      2506
 -1       976    8    0    1
 -2       423       568       567      2506      2507      2502
 -1       977    8    0    1
 -2       424       425       569      2081      2508      2509
 -1       978    8    0    1
 -2       424       569       568      2509      2510      2505
 -1       979    8    0    1
 -2       425       426       570      2084      2511      2512
 -1       980    8    0    1
 -2       425       570       569      2512      2513      2508
 -1       981    8    0    1
 -2       426       427       571      2087      2514      2515
 -1       982    8    0    1
 -2       426       571       570      2515      2516      2511
 -1       983    8    0    1
 -2       427       428       431      2090      2099      2517
 -1       984    8    0    1
 -2       432       433       572      2106      2518      2519
 -1       985    8    0    1
 -2       433       434       573      2109      2520      2521
 -1       986    8    0    1
 -2       433       573       572      2521      2522      2518
 -1       987    8    0    1
 -2       430       429       574      2096      2523      2524
 -1       988    8    0    1
 -2       429       432       575      2103      2525      2526
 -1       989    8    0    1
 -2       574       429       575      2523      2526      2527
 -1       990    8    0    1
 -2       432       572       575      2519      2528      2525
 -1       991    8    0    1
 -2       434       435       576      2112      2529      2530
 -1       992    8    0    1
 -2       434       576       573      2530      2531      2520
 -1       993    8    0    1
 -2       435       436       577      2115      2532      2533
 -1       994    8    0    1
 -2       435       577       576      2533      2534      2529
 -1       995    8    0    1
 -2       436       437       578      2118      2535      2536
 -1       996    8    0    1
 -2       436       578       577      2536      2537      2532
 -1       997    8    0    1
 -2       437       438       579      2121      2538      2539
 -1       998    8    0    1
 -2       437       579       578      2539      2540      2535
 -1       999    8    0    1
 -2       438       439       580      2124      2541      2542
 -1      1000    8    0    1
 -2       438       580       579      2542      2543      2538
 -1      1001    8    0    1
 -2       439       440       581      2127      2544      2545
 -1      1002    8    0    1
 -2       439       581       580      2545      2546      2541
 -1      1003    8    0    1
 -2       440       441       582      2130      2547      2548
 -1      1004    8    0    1
 -2       440       582       581      2548      2549      2544
 -1      1005    8    0    1
 -2       443       444       583      2212      2550      2551
 -1      1006    8    0    1
 -2       442       445       584      2214      2552      2553
 -1      1007    8    0    1
 -2       384       385       585      1961      2554      2555
 -1      1008    8    0    1
 -2       385       530       585      2393      2556      2554
 -1      1009    8    0    1
 -2       441       291       382      2213      1951      2557
 -1      1010    8    0    1
 -2       471       443       586      2215      2558      2559
 -1      1011    8    0    1
 -2       443       583       586      2551      2560      2558
 -1      1012    8    0    1
 -2       444       442       587      2211      2561      2562
 -1      1013    8    0    1
 -2       469       470       588      2216      2563      2564
 -1      1014    8    0    1
 -2       464       465       589      2218      2565      2566
 -1      1015    8    0    1
 -2       461       462       590      2219      2567      2568
 -1      1016    8    0    1
 -2       459       460       591      2220      2569      2570
 -1      1017    8    0    1
 -2       451       452       592      2226      2571      2572
 -1      1018    8    0    1
 -2       326       327       593      1784      2573      2574
 -1      1019    8    0    1
 -2       476       326       593      2234      2574      2575
 -1      1020    8    0    1
 -2       327       478       593      2240      2576      2573
 -1      1021    8    0    1
 -2       450       451       594      2228      2577      2578
 -1      1022    8    0    1
 -2       451       592       594      2572      2579      2577
 -1      1023    8    0    1
 -2       448       449       595      2149      2580      2581
 -1      1024    8    0    1
 -2       458       459       596      2229      2582      2583
 -1      1025    8    0    1
 -2       449       450       597      2227      2584      2585
 -1      1026    8    0    1
 -2       452       453       598      2158      2586      2587
 -1      1027    8    0    1
 -2       454       455       599      2163      2588      2589
 -1      1028    8    0    1
 -2       455       456       600      2222      2590      2591
 -1      1029    8    0    1
 -2       456       457       601      2168      2592      2593
 -1      1030    8    0    1
 -2       462       463       602      2230      2594      2595
 -1      1031    8    0    1
 -2       457       458       603      2221      2596      2597
 -1      1032    8    0    1
 -2       460       461       604      2177      2598      2599
 -1      1033    8    0    1
 -2       591       460       604      2569      2599      2600
 -1      1034    8    0    1
 -2       461       590       604      2568      2601      2598
 -1      1035    8    0    1
 -2       465       466       605      2231      2602      2603
 -1      1036    8    0    1
 -2       465       605       589      2603      2604      2565
 -1      1037    8    0    1
 -2       463       464       606      2184      2605      2606
 -1      1038    8    0    1
 -2       602       463       606      2594      2606      2607
 -1      1039    8    0    1
 -2       464       589       606      2566      2608      2605
 -1      1040    8    0    1
 -2       466       467       607      2191      2609      2610
 -1      1041    8    0    1
 -2       467       468       608      2217      2611      2612
 -1      1042    8    0    1
 -2       467       608       607      2612      2613      2609
 -1      1043    8    0    1
 -2       468       469       609      2196      2614      2615
 -1      1044    8    0    1
 -2       470       471       610      2201      2616      2617
 -1      1045    8    0    1
 -2       588       470       610      2563      2617      2618
 -1      1046    8    0    1
 -2       471       586       610      2559      2619      2616
 -1      1047    8    0    1
 -2       337       323       611      2210      2620      2621
 -1      1048    8    0    1
 -2       485       337       611      2259      2621      2622
 -1      1049    8    0    1
 -2       323       322       611      1773      2623      2620
 -1      1050    8    0    1
 -2       335       336       612      1813      2624      2625
 -1      1051    8    0    1
 -2       334       335       612      1808      2625      2626
 -1      1052    8    0    1
 -2       336       475       612      2233      2627      2624
 -1      1053    8    0    1
 -2       445       446       613      2204      2628      2629
 -1      1054    8    0    1
 -2       450       594       597      2578      2630      2584
 -1      1055    8    0    1
 -2       324       477       614      2237      2631      2632
 -1      1056    8    0    1
 -2       324       614       447      2632      2633      2144
 -1      1057    8    0    1
 -2       484       384       585      2256      2555      2634
 -1      1058    8    0    1
 -2       333       334       612      1805      2626      2635
 -1      1059    8    0    1
 -2       613       446       486      2628      2262      2636
 -1      1060    8    0    1
 -2       603       458       596      2596      2583      2637
 -1      1061    8    0    1
 -2       473       448       595      2207      2581      2638
 -1      1062    8    0    1
 -2       468       609       608      2615      2639      2611
 -1      1063    8    0    1
 -2       601       457       603      2592      2597      2640
 -1      1064    8    0    1
 -2       600       456       601      2590      2593      2641
 -1      1065    8    0    1
 -2       427       431       571      2517      2642      2514
 -1      1066    8    0    1
 -2       584       445       613      2552      2629      2643
 -1      1067    8    0    1
 -2       431       430       571      2100      2644      2642
 -1      1068    8    0    1
 -2       599       455       600      2588      2591      2645
 -1      1069    8    0    1
 -2       444       587       615      2562      2646      2647
 -1      1070    8    0    1
 -2       444       615       583      2647      2648      2550
 -1      1071    8    0    1
 -2       442       584       587      2553      2649      2561
 -1      1072    8    0    1
 -2       598       453       616      2586      2650      2651
 -1      1073    8    0    1
 -2       453       474       616      2224      2652      2650
 -1      1074    8    0    1
 -2       333       612       483      2635      2653      2253
 -1      1075    8    0    1
 -2       611       322       447      2623      2143      2654
 -1      1076    8    0    1
 -2       469       588       609      2564      2655      2614
 -1      1077    8    0    1
 -2       466       607       605      2610      2656      2602
 -1      1078    8    0    1
 -2       592       452       598      2571      2587      2657
 -1      1079    8    0    1
 -2       590       462       602      2567      2595      2658
 -1      1080    8    0    1
 -2       459       591       596      2570      2659      2582
 -1      1081    8    0    1
 -2       474       454       599      2225      2589      2660
 -1      1082    8    0    1
 -2       486       472       617      2261      2661      2662
 -1      1083    8    0    1
 -2       472       473       617      2209      2663      2661
 -1      1084    8    0    1
 -2       595       449       597      2580      2585      2664
 -1      1085    8    0    1
 -2       441       382       618      2557      2665      2666
 -1      1086    8    0    1
 -2       582       441       618      2547      2666      2667
 -1      1087    8    0    1
 -2       382       381       618      1952      2668      2665
 -1      1088    8    0    1
 -2       571       430       574      2644      2524      2669
 -1      1089    8    0    1
 -2       618       381       529      2668      2390      2670
 -1      1090    8    0    1
 -2       479       480       619      2246      2671      2672
 -1      1091    8    0    1
 -2       478       479       620      2243      2673      2674
 -1      1092    8    0    1
 -2       479       619       620      2672      2675      2673
 -1      1093    8    0    1
 -2       481       482       621      2252      2676      2677
 -1      1094    8    0    1
 -2       482       483       622      2255      2678      2679
 -1      1095    8    0    1
 -2       482       622       621      2679      2680      2676
 -1      1096    8    0    1
 -2       475       484       623      2258      2681      2682
 -1      1097    8    0    1
 -2       611       447       614      2654      2633      2683
 -1      1098    8    0    1
 -2       612       475       483      2627      2684      2653
 -1      1099    8    0    1
 -2       603       596       624      2637      2685      2686
 -1      1100    8    0    1
 -2       485       611       625      2622      2687      2688
 -1      1101    8    0    1
 -2       487       485       625      2265      2688      2689
 -1      1102    8    0    1
 -2       611       614       625      2683      2690      2687
 -1      1103    8    0    1
 -2       488       487       626      2268      2691      2692
 -1      1104    8    0    1
 -2       489       488       627      2271      2693      2694
 -1      1105    8    0    1
 -2       488       626       627      2692      2695      2693
 -1      1106    8    0    1
 -2       490       489       628      2274      2696      2697
 -1      1107    8    0    1
 -2       489       627       628      2694      2698      2696
 -1      1108    8    0    1
 -2       491       490       629      2277      2699      2700
 -1      1109    8    0    1
 -2       490       628       629      2697      2701      2699
 -1      1110    8    0    1
 -2       492       491       630      2280      2702      2703
 -1      1111    8    0    1
 -2       491       629       630      2700      2704      2702
 -1      1112    8    0    1
 -2       494       493       602      2286      2705      2706
 -1      1113    8    0    1
 -2       495       494       606      2289      2707      2708
 -1      1114    8    0    1
 -2       496       495       589      2292      2709      2710
 -1      1115    8    0    1
 -2       497       496       607      2295      2711      2712
 -1      1116    8    0    1
 -2       499       498       631      2301      2713      2714
 -1      1117    8    0    1
 -2       500       499       632      2304      2715      2716
 -1      1118    8    0    1
 -2       499       631       632      2714      2717      2715
 -1      1119    8    0    1
 -2       501       500       633      2307      2718      2719
 -1      1120    8    0    1
 -2       500       632       633      2716      2720      2718
 -1      1121    8    0    1
 -2       502       501       634      2310      2721      2722
 -1      1122    8    0    1
 -2       501       633       634      2719      2723      2721
 -1      1123    8    0    1
 -2       503       502       635      2313      2724      2725
 -1      1124    8    0    1
 -2       502       634       635      2722      2726      2724
 -1      1125    8    0    1
 -2       504       503       636      2316      2727      2728
 -1      1126    8    0    1
 -2       503       635       636      2725      2729      2727
 -1      1127    8    0    1
 -2       505       504       637      2319      2730      2731
 -1      1128    8    0    1
 -2       504       636       637      2728      2732      2730
 -1      1129    8    0    1
 -2       506       505       638      2322      2733      2734
 -1      1130    8    0    1
 -2       505       637       638      2731      2735      2733
 -1      1131    8    0    1
 -2       507       506       639      2325      2736      2737
 -1      1132    8    0    1
 -2       506       638       639      2734      2738      2736
 -1      1133    8    0    1
 -2       508       507       640      2328      2739      2740
 -1      1134    8    0    1
 -2       507       639       640      2737      2741      2739
 -1      1135    8    0    1
 -2       509       508       641      2331      2742      2743
 -1      1136    8    0    1
 -2       508       640       641      2740      2744      2742
 -1      1137    8    0    1
 -2       510       509       642      2334      2745      2746
 -1      1138    8    0    1
 -2       509       641       642      2743      2747      2745
 -1      1139    8    0    1
 -2       511       510       643      2337      2748      2749
 -1      1140    8    0    1
 -2       510       642       643      2746      2750      2748
 -1      1141    8    0    1
 -2       512       511       644      2340      2751      2752
 -1      1142    8    0    1
 -2       511       643       644      2749      2753      2751
 -1      1143    8    0    1
 -2       513       512       645      2343      2754      2755
 -1      1144    8    0    1
 -2       512       644       645      2752      2756      2754
 -1      1145    8    0    1
 -2       514       513       646      2346      2757      2758
 -1      1146    8    0    1
 -2       513       645       646      2755      2759      2757
 -1      1147    8    0    1
 -2       515       514       647      2349      2760      2761
 -1      1148    8    0    1
 -2       514       646       647      2758      2762      2760
 -1      1149    8    0    1
 -2       516       515       648      2352      2763      2764
 -1      1150    8    0    1
 -2       515       647       648      2761      2765      2763
 -1      1151    8    0    1
 -2       517       516       649      2355      2766      2767
 -1      1152    8    0    1
 -2       516       648       649      2764      2768      2766
 -1      1153    8    0    1
 -2       518       517       650      2358      2769      2770
 -1      1154    8    0    1
 -2       517       649       650      2767      2771      2769
 -1      1155    8    0    1
 -2       519       518       651      2361      2772      2773
 -1      1156    8    0    1
 -2       518       650       651      2770      2774      2772
 -1      1157    8    0    1
 -2       520       519       652      2364      2775      2776
 -1      1158    8    0    1
 -2       519       651       652      2773      2777      2775
 -1      1159    8    0    1
 -2       521       520       653      2367      2778      2779
 -1      1160    8    0    1
 -2       520       652       653      2776      2780      2778
 -1      1161    8    0    1
 -2       522       521       654      2370      2781      2782
 -1      1162    8    0    1
 -2       521       653       654      2779      2783      2781
 -1      1163    8    0    1
 -2       523       522       655      2373      2784      2785
 -1      1164    8    0    1
 -2       522       654       655      2782      2786      2784
 -1      1165    8    0    1
 -2       524       523       656      2376      2787      2788
 -1      1166    8    0    1
 -2       523       655       656      2785      2789      2787
 -1      1167    8    0    1
 -2       525       524       657      2379      2790      2791
 -1      1168    8    0    1
 -2       524       656       657      2788      2792      2790
 -1      1169    8    0    1
 -2       526       525       658      2382      2793      2794
 -1      1170    8    0    1
 -2       525       657       658      2791      2795      2793
 -1      1171    8    0    1
 -2       527       526       659      2385      2796      2797
 -1      1172    8    0    1
 -2       526       658       659      2794      2798      2796
 -1      1173    8    0    1
 -2       528       527       660      2388      2799      2800
 -1      1174    8    0    1
 -2       527       659       660      2797      2801      2799
 -1      1175    8    0    1
 -2       529       528       661      2391      2802      2803
 -1      1176    8    0    1
 -2       528       660       661      2800      2804      2802
 -1      1177    8    0    1
 -2       531       532       662      2399      2805      2806
 -1      1178    8    0    1
 -2       571       574       663      2669      2807      2808
 -1      1179    8    0    1
 -2       571       663       570      2808      2809      2516
 -1      1180    8    0    1
 -2       530       531       664      2396      2810      2811
 -1      1181    8    0    1
 -2       531       662       664      2806      2812      2810
 -1      1182    8    0    1
 -2       533       534       665      2405      2813      2814
 -1      1183    8    0    1
 -2       534       535       666      2408      2815      2816
 -1      1184    8    0    1
 -2       534       666       665      2816      2817      2813
 -1      1185    8    0    1
 -2       535       536       667      2411      2818      2819
 -1      1186    8    0    1
 -2       535       667       666      2819      2820      2815
 -1      1187    8    0    1
 -2       536       537       668      2414      2821      2822
 -1      1188    8    0    1
 -2       536       668       667      2822      2823      2818
 -1      1189    8    0    1
 -2       537       538       669      2417      2824      2825
 -1      1190    8    0    1
 -2       537       669       668      2825      2826      2821
 -1      1191    8    0    1
 -2       538       539       670      2420      2827      2828
 -1      1192    8    0    1
 -2       538       670       669      2828      2829      2824
 -1      1193    8    0    1
 -2       539       540       671      2423      2830      2831
 -1      1194    8    0    1
 -2       539       671       670      2831      2832      2827
 -1      1195    8    0    1
 -2       540       541       672      2426      2833      2834
 -1      1196    8    0    1
 -2       540       672       671      2834      2835      2830
 -1      1197    8    0    1
 -2       541       542       673      2429      2836      2837
 -1      1198    8    0    1
 -2       541       673       672      2837      2838      2833
 -1      1199    8    0    1
 -2       542       543       674      2432      2839      2840
 -1      1200    8    0    1
 -2       542       674       673      2840      2841      2836
 -1      1201    8    0    1
 -2       543       544       675      2435      2842      2843
 -1      1202    8    0    1
 -2       543       675       674      2843      2844      2839
 -1      1203    8    0    1
 -2       544       545       676      2438      2845      2846
 -1      1204    8    0    1
 -2       544       676       675      2846      2847      2842
 -1      1205    8    0    1
 -2       545       546       677      2441      2848      2849
 -1      1206    8    0    1
 -2       545       677       676      2849      2850      2845
 -1      1207    8    0    1
 -2       546       547       678      2444      2851      2852
 -1      1208    8    0    1
 -2       546       678       677      2852      2853      2848
 -1      1209    8    0    1
 -2       547       548       679      2447      2854      2855
 -1      1210    8    0    1
 -2       547       679       678      2855      2856      2851
 -1      1211    8    0    1
 -2       548       549       680      2450      2857      2858
 -1      1212    8    0    1
 -2       548       680       679      2858      2859      2854
 -1      1213    8    0    1
 -2       549       550       681      2453      2860      2861
 -1      1214    8    0    1
 -2       549       681       680      2861      2862      2857
 -1      1215    8    0    1
 -2       550       551       682      2456      2863      2864
 -1      1216    8    0    1
 -2       550       682       681      2864      2865      2860
 -1      1217    8    0    1
 -2       551       552       683      2459      2866      2867
 -1      1218    8    0    1
 -2       551       683       682      2867      2868      2863
 -1      1219    8    0    1
 -2       552       553       684      2462      2869      2870
 -1      1220    8    0    1
 -2       552       684       683      2870      2871      2866
 -1      1221    8    0    1
 -2       553       554       685      2465      2872      2873
 -1      1222    8    0    1
 -2       553       685       684      2873      2874      2869
 -1      1223    8    0    1
 -2       554       555       686      2468      2875      2876
 -1      1224    8    0    1
 -2       554       686       685      2876      2877      2872
 -1      1225    8    0    1
 -2       555       556       687      2471      2878      2879
 -1      1226    8    0    1
 -2       555       687       686      2879      2880      2875
 -1      1227    8    0    1
 -2       556       557       688      2474      2881      2882
 -1      1228    8    0    1
 -2       556       688       687      2882      2883      2878
 -1      1229    8    0    1
 -2       557       558       689      2477      2884      2885
 -1      1230    8    0    1
 -2       557       689       688      2885      2886      2881
 -1      1231    8    0    1
 -2       558       559       690      2480      2887      2888
 -1      1232    8    0    1
 -2       558       690       689      2888      2889      2884
 -1      1233    8    0    1
 -2       559       560       691      2483      2890      2891
 -1      1234    8    0    1
 -2       559       691       690      2891      2892      2887
 -1      1235    8    0    1
 -2       560       561       692      2486      2893      2894
 -1      1236    8    0    1
 -2       560       692       691      2894      2895      2890
 -1      1237    8    0    1
 -2       561       562       693      2489      2896      2897
 -1      1238    8    0    1
 -2       561       693       692      2897      2898      2893
 -1      1239    8    0    1
 -2       562       563       694      2492      2899      2900
 -1      1240    8    0    1
 -2       562       694       693      2900      2901      2896
 -1      1241    8    0    1
 -2       563       564       695      2495      2902      2903
 -1      1242    8    0    1
 -2       563       695       694      2903      2904      2899
 -1      1243    8    0    1
 -2       564       565       696      2498      2905      2906
 -1      1244    8    0    1
 -2       564       696       695      2906      2907      2902
 -1      1245    8    0    1
 -2       565       566       697      2501      2908      2909
 -1      1246    8    0    1
 -2       565       697       696      2909      2910      2905
 -1      1247    8    0    1
 -2       566       567       698      2504      2911      2912
 -1      1248    8    0    1
 -2       566       698       697      2912      2913      2908
 -1      1249    8    0    1
 -2       567       568       699      2507      2914      2915
 -1      1250    8    0    1
 -2       567       699       698      2915      2916      2911
 -1      1251    8    0    1
 -2       568       569       700      2510      2917      2918
 -1      1252    8    0    1
 -2       568       700       699      2918      2919      2914
 -1      1253    8    0    1
 -2       569       570       701      2513      2920      2921
 -1      1254    8    0    1
 -2       700       569       701      2917      2921      2922
 -1      1255    8    0    1
 -2       570       663       701      2809      2923      2920
 -1      1256    8    0    1
 -2       584       613       702      2643      2924      2925
 -1      1257    8    0    1
 -2       576       577       703      2534      2926      2927
 -1      1258    8    0    1
 -2       618       529       704      2670      2928      2929
 -1      1259    8    0    1
 -2       529       661       704      2803      2930      2928
 -1      1260    8    0    1
 -2       572       573       705      2522      2931      2932
 -1      1261    8    0    1
 -2       577       578       706      2537      2933      2934
 -1      1262    8    0    1
 -2       577       706       703      2934      2935      2926
 -1      1263    8    0    1
 -2       573       576       707      2531      2936      2937
 -1      1264    8    0    1
 -2       705       573       707      2931      2937      2938
 -1      1265    8    0    1
 -2       576       703       707      2927      2939      2936
 -1      1266    8    0    1
 -2       578       579       708      2540      2940      2941
 -1      1267    8    0    1
 -2       578       708       706      2941      2942      2933
 -1      1268    8    0    1
 -2       579       580       709      2543      2943      2944
 -1      1269    8    0    1
 -2       579       709       708      2944      2945      2940
 -1      1270    8    0    1
 -2       580       581       710      2546      2946      2947
 -1      1271    8    0    1
 -2       580       710       709      2947      2948      2943
 -1      1272    8    0    1
 -2       587       584       711      2649      2949      2950
 -1      1273    8    0    1
 -2       584       702       711      2925      2951      2949
 -1      1274    8    0    1
 -2       586       583       712      2560      2952      2953
 -1      1275    8    0    1
 -2       592       598       713      2657      2954      2955
 -1      1276    8    0    1
 -2       608       609       631      2639      2956      2957
 -1      1277    8    0    1
 -2       585       530       714      2556      2958      2959
 -1      1278    8    0    1
 -2       530       664       714      2811      2960      2958
 -1      1279    8    0    1
 -2       532       533       715      2402      2961      2962
 -1      1280    8    0    1
 -2       662       532       715      2805      2962      2963
 -1      1281    8    0    1
 -2       533       665       715      2814      2964      2961
 -1      1282    8    0    1
 -2       484       585       716      2634      2965      2966
 -1      1283    8    0    1
 -2       623       484       716      2681      2966      2967
 -1      1284    8    0    1
 -2       585       714       716      2959      2968      2965
 -1      1285    8    0    1
 -2       474       599       717      2660      2969      2970
 -1      1286    8    0    1
 -2       613       486       718      2636      2971      2972
 -1      1287    8    0    1
 -2       609       588       719      2655      2973      2974
 -1      1288    8    0    1
 -2       589       495       606      2709      2708      2608
 -1      1289    8    0    1
 -2       473       595       720      2638      2975      2976
 -1      1290    8    0    1
 -2       480       481       721      2249      2977      2978
 -1      1291    8    0    1
 -2       619       480       721      2671      2978      2979
 -1      1292    8    0    1
 -2       481       621       721      2677      2980      2977
 -1      1293    8    0    1
 -2       582       618       704      2667      2929      2981
 -1      1294    8    0    1
 -2       590       602       493      2658      2705      2982
 -1      1295    8    0    1
 -2       599       600       722      2645      2983      2984
 -1      1296    8    0    1
 -2       596       591       723      2659      2985      2986
 -1      1297    8    0    1
 -2       596       723       624      2986      2987      2685
 -1      1298    8    0    1
 -2       477       476       724      2238      2988      2989
 -1      1299    8    0    1
 -2       600       601       725      2641      2990      2991
 -1      1300    8    0    1
 -2       594       592       726      2579      2992      2993
 -1      1301    8    0    1
 -2       601       603       727      2640      2994      2995
 -1      1302    8    0    1
 -2       595       597       728      2664      2996      2997
 -1      1303    8    0    1
 -2       597       594       729      2630      2998      2999
 -1      1304    8    0    1
 -2       594       726       729      2993      3000      2998
 -1      1305    8    0    1
 -2       494       602       606      2706      2607      2707
 -1      1306    8    0    1
 -2       497       607       730      2712      3001      3002
 -1      1307    8    0    1
 -2       498       497       730      2298      3002      3003
 -1      1308    8    0    1
 -2       607       608       730      2613      3004      3001
 -1      1309    8    0    1
 -2       590       493       492      2982      2283      3005
 -1      1310    8    0    1
 -2       590       492       630      3005      2703      3006
 -1      1311    8    0    1
 -2       614       477       731      2631      3007      3008
 -1      1312    8    0    1
 -2       477       724       731      2989      3009      3007
 -1      1313    8    0    1
 -2       478       620       732      2674      3010      3011
 -1      1314    8    0    1
 -2       478       732       593      3011      3012      2576
 -1      1315    8    0    1
 -2       717       599       733      2969      3013      3014
 -1      1316    8    0    1
 -2       599       722       733      2984      3015      3013
 -1      1317    8    0    1
 -2       604       590       630      2601      3006      3016
 -1      1318    8    0    1
 -2       487       625       626      2689      3017      2691
 -1      1319    8    0    1
 -2       582       704       581      2981      3018      2549
 -1      1320    8    0    1
 -2       720       595       728      2975      2997      3019
 -1      1321    8    0    1
 -2       496       589       605      2710      2604      3020
 -1      1322    8    0    1
 -2       572       705       734      2932      3021      3022
 -1      1323    8    0    1
 -2       572       734       575      3022      3023      2528
 -1      1324    8    0    1
 -2       586       712       735      2953      3024      3025
 -1      1325    8    0    1
 -2       586       735       610      3025      3026      2619
 -1      1326    8    0    1
 -2       702       613       718      2924      2972      3027
 -1      1327    8    0    1
 -2       574       575       663      2527      3028      2807
 -1      1328    8    0    1
 -2       713       598       736      2954      3029      3030
 -1      1329    8    0    1
 -2       598       616       736      2651      3031      3029
 -1      1330    8    0    1
 -2       728       597       737      2996      3032      3033
 -1      1331    8    0    1
 -2       597       729       737      2999      3034      3032
 -1      1332    8    0    1
 -2       615       587       738      2646      3035      3036
 -1      1333    8    0    1
 -2       587       711       738      2950      3037      3035
 -1      1334    8    0    1
 -2       710       581       704      2946      3018      3038
 -1      1335    8    0    1
 -2       622       483       623      2678      3039      3040
 -1      1336    8    0    1
 -2       712       583       739      2952      3041      3042
 -1      1337    8    0    1
 -2       583       615       739      2648      3043      3041
 -1      1338    8    0    1
 -2       616       474       717      2652      2970      3044
 -1      1339    8    0    1
 -2       631       609       719      2956      2974      3045
 -1      1340    8    0    1
 -2       483       475       623      2684      2682      3039
 -1      1341    8    0    1
 -2       592       713       726      2955      3046      2992
 -1      1342    8    0    1
 -2       607       496       605      2711      3020      2656
 -1      1343    8    0    1
 -2       617       473       720      2663      2976      3047
 -1      1344    8    0    1
 -2       719       588       740      2973      3048      3049
 -1      1345    8    0    1
 -2       588       610       740      2618      3050      3048
 -1      1346    8    0    1
 -2       476       593       741      2575      3051      3052
 -1      1347    8    0    1
 -2       724       476       741      2988      3052      3053
 -1      1348    8    0    1
 -2       593       732       741      3012      3054      3051
 -1      1349    8    0    1
 -2       718       486       742      2971      3055      3056
 -1      1350    8    0    1
 -2       486       617       742      2662      3057      3055
 -1      1351    8    0    1
 -2       727       603       624      2994      2686      3058
 -1      1352    8    0    1
 -2       725       601       727      2990      2995      3059
 -1      1353    8    0    1
 -2       723       591       743      2985      3060      3061
 -1      1354    8    0    1
 -2       722       600       725      2983      2991      3062
 -1      1355    8    0    1
 -2       591       604       743      2600      3063      3060
 -1      1356    8    0    1
 -2       621       622       744      2680      3064      3065
 -1      1357    8    0    1
 -2       625       614       731      2690      3008      3066
 -1      1358    8    0    1
 -2       627       626       745      2695      3067      3068
 -1      1359    8    0    1
 -2       628       627       746      2698      3069      3070
 -1      1360    8    0    1
 -2       627       745       746      3068      3071      3069
 -1      1361    8    0    1
 -2       629       628       747      2701      3072      3073
 -1      1362    8    0    1
 -2       628       746       747      3070      3074      3072
 -1      1363    8    0    1
 -2       630       629       743      2704      3075      3076
 -1      1364    8    0    1
 -2       604       630       743      3016      3076      3063
 -1      1365    8    0    1
 -2       626       625       748      3017      3077      3078
 -1      1366    8    0    1
 -2       745       626       748      3067      3078      3079
 -1      1367    8    0    1
 -2       625       731       748      3066      3080      3077
 -1      1368    8    0    1
 -2       633       632       749      2720      3081      3082
 -1      1369    8    0    1
 -2       634       633       750      2723      3083      3084
 -1      1370    8    0    1
 -2       633       749       750      3082      3085      3083
 -1      1371    8    0    1
 -2       635       634       751      2726      3086      3087
 -1      1372    8    0    1
 -2       634       750       751      3084      3088      3086
 -1      1373    8    0    1
 -2       636       635       752      2729      3089      3090
 -1      1374    8    0    1
 -2       635       751       752      3087      3091      3089
 -1      1375    8    0    1
 -2       637       636       753      2732      3092      3093
 -1      1376    8    0    1
 -2       636       752       753      3090      3094      3092
 -1      1377    8    0    1
 -2       638       637       754      2735      3095      3096
 -1      1378    8    0    1
 -2       637       753       754      3093      3097      3095
 -1      1379    8    0    1
 -2       639       638       755      2738      3098      3099
 -1      1380    8    0    1
 -2       638       754       755      3096      3100      3098
 -1      1381    8    0    1
 -2       640       639       756      2741      3101      3102
 -1      1382    8    0    1
 -2       639       755       756      3099      3103      3101
 -1      1383    8    0    1
 -2       641       640       757      2744      3104      3105
 -1      1384    8    0    1
 -2       640       756       757      3102      3106      3104
 -1      1385    8    0    1
 -2       642       641       758      2747      3107      3108
 -1      1386    8    0    1
 -2       641       757       758      3105      3109      3107
 -1      1387    8    0    1
 -2       643       642       759      2750      3110      3111
 -1      1388    8    0    1
 -2       642       758       759      3108      3112      3110
 -1      1389    8    0    1
 -2       644       643       760      2753      3113      3114
 -1      1390    8    0    1
 -2       643       759       760      3111      3115      3113
 -1      1391    8    0    1
 -2       645       644       761      2756      3116      3117
 -1      1392    8    0    1
 -2       644       760       761      3114      3118      3116
 -1      1393    8    0    1
 -2       646       645       762      2759      3119      3120
 -1      1394    8    0    1
 -2       645       761       762      3117      3121      3119
 -1      1395    8    0    1
 -2       647       646       763      2762      3122      3123
 -1      1396    8    0    1
 -2       646       762       763      3120      3124      3122
 -1      1397    8    0    1
 -2       648       647       764      2765      3125      3126
 -1      1398    8    0    1
 -2       647       763       764      3123      3127      3125
 -1      1399    8    0    1
 -2       649       648       765      2768      3128      3129
 -1      1400    8    0    1
 -2       648       764       765      3126      3130      3128
 -1      1401    8    0    1
 -2       650       649       766      2771      3131      3132
 -1      1402    8    0    1
 -2       649       765       766      3129      3133      3131
 -1      1403    8    0    1
 -2       651       650       767      2774      3134      3135
 -1      1404    8    0    1
 -2       650       766       767      3132      3136      3134
 -1      1405    8    0    1
 -2       652       651       768      2777      3137      3138
 -1      1406    8    0    1
 -2       651       767       768      3135      3139      3137
 -1      1407    8    0    1
 -2       653       652       769      2780      3140      3141
 -1      1408    8    0    1
 -2       652       768       769      3138      3142      3140
 -1      1409    8    0    1
 -2       654       653       770      2783      3143      3144
 -1      1410    8    0    1
 -2       653       769       770      3141      3145      3143
 -1      1411    8    0    1
 -2       655       654       771      2786      3146      3147
 -1      1412    8    0    1
 -2       654       770       771      3144      3148      3146
 -1      1413    8    0    1
 -2       656       655       772      2789      3149      3150
 -1      1414    8    0    1
 -2       655       771       772      3147      3151      3149
 -1      1415    8    0    1
 -2       657       656       773      2792      3152      3153
 -1      1416    8    0    1
 -2       656       772       773      3150      3154      3152
 -1      1417    8    0    1
 -2       658       657       774      2795      3155      3156
 -1      1418    8    0    1
 -2       657       773       774      3153      3157      3155
 -1      1419    8    0    1
 -2       659       658       775      2798      3158      3159
 -1      1420    8    0    1
 -2       658       774       775      3156      3160      3158
 -1      1421    8    0    1
 -2       660       659       776      2801      3161      3162
 -1      1422    8    0    1
 -2       659       775       776      3159      3163      3161
 -1      1423    8    0    1
 -2       661       660       777      2804      3164      3165
 -1      1424    8    0    1
 -2       660       776       777      3162      3166      3164
 -1      1425    8    0    1
 -2       664       662       778      2812      3167      3168
 -1      1426    8    0    1
 -2       666       667       779      2820      3169      3170
 -1      1427    8    0    1
 -2       665       666       780      2817      3171      3172
 -1      1428    8    0    1
 -2       666       779       780      3170      3173      3171
 -1      1429    8    0    1
 -2       668       669       781      2826      3174      3175
 -1      1430    8    0    1
 -2       669       670       782      2829      3176      3177
 -1      1431    8    0    1
 -2       669       782       781      3177      3178      3174
 -1      1432    8    0    1
 -2       670       671       783      2832      3179      3180
 -1      1433    8    0    1
 -2       670       783       782      3180      3181      3176
 -1      1434    8    0    1
 -2       671       672       784      2835      3182      3183
 -1      1435    8    0    1
 -2       671       784       783      3183      3184      3179
 -1      1436    8    0    1
 -2       672       673       785      2838      3185      3186
 -1      1437    8    0    1
 -2       672       785       784      3186      3187      3182
 -1      1438    8    0    1
 -2       673       674       786      2841      3188      3189
 -1      1439    8    0    1
 -2       673       786       785      3189      3190      3185
 -1      1440    8    0    1
 -2       674       675       787      2844      3191      3192
 -1      1441    8    0    1
 -2       674       787       786      3192      3193      3188
 -1      1442    8    0    1
 -2       675       676       788      2847      3194      3195
 -1      1443    8    0    1
 -2       675       788       787      3195      3196      3191
 -1      1444    8    0    1
 -2       676       677       789      2850      3197      3198
 -1      1445    8    0    1
 -2       676       789       788      3198      3199      3194
 -1      1446    8    0    1
 -2       677       678       790      2853      3200      3201
 -1      1447    8    0    1
 -2       677       790       789      3201      3202      3197
 -1      1448    8    0    1
 -2       678       679       791      2856      3203      3204
 -1      1449    8    0    1
 -2       678       791       790      3204      3205      3200
 -1      1450    8    0    1
 -2       679       680       792      2859      3206      3207
 -1      1451    8    0    1
 -2       679       792       791      3207      3208      3203
 -1      1452    8    0    1
 -2       680       681       793      2862      3209      3210
 -1      1453    8    0    1
 -2       680       793       792      3210      3211      3206
 -1      1454    8    0    1
 -2       681       682       794      2865      3212      3213
 -1      1455    8    0    1
 -2       681       794       793      3213      3214      3209
 -1      1456    8    0    1
 -2       682       683       795      2868      3215      3216
 -1      1457    8    0    1
 -2       682       795       794      3216      3217      3212
 -1      1458    8    0    1
 -2       683       684       796      2871      3218      3219
 -1      1459    8    0    1
 -2       683       796       795      3219      3220      3215
 -1      1460    8    0    1
 -2       684       685       797      2874      3221      3222
 -1      1461    8    0    1
 -2       684       797       796      3222      3223      3218
 -1      1462    8    0    1
 -2       685       686       798      2877      3224      3225
 -1      1463    8    0    1
 -2       685       798       797      3225      3226      3221
 -1      1464    8    0    1
 -2       686       687       799      2880      3227      3228
 -1      1465    8    0    1
 -2       686       799       798      3228      3229      3224
 -1      1466    8    0    1
 -2       687       688       800      2883      3230      3231
 -1      1467    8    0    1
 -2       687       800       799      3231      3232      3227
 -1      1468    8    0    1
 -2       688       689       801      2886      3233      3234
 -1      1469    8    0    1
 -2       688       801       800      3234      3235      3230
 -1      1470    8    0    1
 -2       689       690       802      2889      3236      3237
 -1      1471    8    0    1
 -2       689       802       801      3237      3238      3233
 -1      1472    8    0    1
 -2       690       691       803      2892      3239      3240
 -1      1473    8    0    1
 -2       690       803       802      3240      3241      3236
 -1      1474    8    0    1
 -2       691       692       804      2895      3242      3243
 -1      1475    8    0    1
 -2       691       804       803      3243      3244      3239
 -1      1476    8    0    1
 -2       692       693       805      2898      3245      3246
 -1      1477    8    0    1
 -2       692       805       804      3246      3247      3242
 -1      1478    8    0    1
 -2       693       694       806      2901      3248      3249
 -1      1479    8    0    1
 -2       693       806       805      3249      3250      3245
 -1      1480    8    0    1
 -2       694       695       807      2904      3251      3252
 -1      1481    8    0    1
 -2       694       807       806      3252      3253      3248
 -1      1482    8    0    1
 -2       695       696       808      2907      3254      3255
 -1      1483    8    0    1
 -2       695       808       807      3255      3256      3251
 -1      1484    8    0    1
 -2       696       697       809      2910      3257      3258
 -1      1485    8    0    1
 -2       696       809       808      3258      3259      3254
 -1      1486    8    0    1
 -2       697       698       810      2913      3260      3261
 -1      1487    8    0    1
 -2       697       810       809      3261      3262      3257
 -1      1488    8    0    1
 -2       698       699       811      2916      3263      3264
 -1      1489    8    0    1
 -2       698       811       810      3264      3265      3260
 -1      1490    8    0    1
 -2       699       700       812      2919      3266      3267
 -1      1491    8    0    1
 -2       699       812       811      3267      3268      3263
 -1      1492    8    0    1
 -2       706       708       813      2942      3269      3270
 -1      1493    8    0    1
 -2       709       710       814      2948      3271      3272
 -1      1494    8    0    1
 -2       703       706       815      2935      3273      3274
 -1      1495    8    0    1
 -2       706       813       815      3270      3275      3273
 -1      1496    8    0    1
 -2       729       726       816      3000      3276      3277
 -1      1497    8    0    1
 -2       726       713       817      3046      3278      3279
 -1      1498    8    0    1
 -2       711       702       818      2951      3280      3281
 -1      1499    8    0    1
 -2       720       728       819      3019      3282      3283
 -1      1500    8    0    1
 -2       714       664       820      2960      3284      3285
 -1      1501    8    0    1
 -2       664       778       820      3168      3286      3284
 -1      1502    8    0    1
 -2       708       709       821      2945      3287      3288
 -1      1503    8    0    1
 -2       813       708       821      3269      3288      3289
 -1      1504    8    0    1
 -2       709       814       821      3272      3290      3287
 -1      1505    8    0    1
 -2       667       668       822      2823      3291      3292
 -1      1506    8    0    1
 -2       779       667       822      3169      3292      3293
 -1      1507    8    0    1
 -2       668       781       822      3175      3294      3291
 -1      1508    8    0    1
 -2       632       631       719      2717      3045      3295
 -1      1509    8    0    1
 -2       608       631       730      2957      3296      3004
 -1      1510    8    0    1
 -2       631       498       730      2713      3003      3296
 -1      1511    8    0    1
 -2       622       623       823      3040      3297      3298
 -1      1512    8    0    1
 -2       744       622       823      3064      3298      3299
 -1      1513    8    0    1
 -2       623       716       823      2967      3300      3297
 -1      1514    8    0    1
 -2       663       575       734      3028      3023      3301
 -1      1515    8    0    1
 -2       722       725       824      3062      3302      3303
 -1      1516    8    0    1
 -2       727       624       825      3058      3304      3305
 -1      1517    8    0    1
 -2       725       727       826      3059      3306      3307
 -1      1518    8    0    1
 -2       725       826       824      3307      3308      3302
 -1      1519    8    0    1
 -2       616       717       827      3044      3309      3310
 -1      1520    8    0    1
 -2       624       723       828      2987      3311      3312
 -1      1521    8    0    1
 -2       624       828       825      3312      3313      3304
 -1      1522    8    0    1
 -2       702       718       829      3027      3314      3315
 -1      1523    8    0    1
 -2       723       743       747      3061      3316      3317
 -1      1524    8    0    1
 -2       620       619       830      2675      3318      3319
 -1      1525    8    0    1
 -2       617       720       831      3047      3320      3321
 -1      1526    8    0    1
 -2       617       831       742      3321      3322      3057
 -1      1527    8    0    1
 -2       743       629       747      3075      3073      3316
 -1      1528    8    0    1
 -2       632       719       749      3295      3323      3081
 -1      1529    8    0    1
 -2       732       620       832      3010      3324      3325
 -1      1530    8    0    1
 -2       620       830       832      3319      3326      3324
 -1      1531    8    0    1
 -2       733       722       833      3015      3327      3328
 -1      1532    8    0    1
 -2       722       824       833      3303      3329      3327
 -1      1533    8    0    1
 -2       718       742       834      3056      3330      3331
 -1      1534    8    0    1
 -2       718       834       829      3331      3332      3314
 -1      1535    8    0    1
 -2       734       705       835      3021      3333      3334
 -1      1536    8    0    1
 -2       735       712       836      3024      3335      3336
 -1      1537    8    0    1
 -2       663       734       837      3301      3337      3338
 -1      1538    8    0    1
 -2       701       663       837      2923      3338      3339
 -1      1539    8    0    1
 -2       734       835       837      3334      3340      3337
 -1      1540    8    0    1
 -2       778       662       838      3167      3341      3342
 -1      1541    8    0    1
 -2       662       715       838      2963      3343      3341
 -1      1542    8    0    1
 -2       716       714       839      2968      3344      3345
 -1      1543    8    0    1
 -2       823       716       839      3300      3345      3346
 -1      1544    8    0    1
 -2       714       820       839      3285      3347      3344
 -1      1545    8    0    1
 -2       665       780       840      3172      3348      3349
 -1      1546    8    0    1
 -2       665       840       715      3349      3350      2964
 -1      1547    8    0    1
 -2       729       816       737      3277      3351      3034
 -1      1548    8    0    1
 -2       700       701       841      2922      3352      3353
 -1      1549    8    0    1
 -2       812       700       841      3266      3353      3354
 -1      1550    8    0    1
 -2       701       837       841      3339      3355      3352
 -1      1551    8    0    1
 -2       705       707       842      2938      3356      3357
 -1      1552    8    0    1
 -2       705       842       835      3357      3358      3333
 -1      1553    8    0    1
 -2       816       726       817      3276      3279      3359
 -1      1554    8    0    1
 -2       707       703       843      2939      3360      3361
 -1      1555    8    0    1
 -2       842       707       843      3356      3361      3362
 -1      1556    8    0    1
 -2       703       815       843      3274      3363      3360
 -1      1557    8    0    1
 -2       736       616       827      3031      3310      3364
 -1      1558    8    0    1
 -2       738       711       844      3037      3365      3366
 -1      1559    8    0    1
 -2       711       818       844      3281      3367      3365
 -1      1560    8    0    1
 -2       739       615       845      3043      3368      3369
 -1      1561    8    0    1
 -2       615       738       845      3036      3370      3368
 -1      1562    8    0    1
 -2       710       704       777      3038      3371      3372
 -1      1563    8    0    1
 -2       720       819       831      3283      3373      3320
 -1      1564    8    0    1
 -2       712       739       846      3042      3374      3375
 -1      1565    8    0    1
 -2       712       846       836      3375      3376      3335
 -1      1566    8    0    1
 -2       717       733       847      3014      3377      3378
 -1      1567    8    0    1
 -2       717       847       827      3378      3379      3309
 -1      1568    8    0    1
 -2       713       736       848      3030      3380      3381
 -1      1569    8    0    1
 -2       713       848       817      3381      3382      3278
 -1      1570    8    0    1
 -2       830       619       849      3318      3383      3384
 -1      1571    8    0    1
 -2       619       721       849      2979      3385      3383
 -1      1572    8    0    1
 -2       818       702       829      3280      3315      3386
 -1      1573    8    0    1
 -2       610       735       740      3026      3387      3050
 -1      1574    8    0    1
 -2       826       727       850      3306      3388      3389
 -1      1575    8    0    1
 -2       727       825       850      3305      3390      3388
 -1      1576    8    0    1
 -2       814       710       777      3271      3372      3391
 -1      1577    8    0    1
 -2       721       621       851      2980      3392      3393
 -1      1578    8    0    1
 -2       849       721       851      3385      3393      3394
 -1      1579    8    0    1
 -2       621       744       851      3065      3395      3392
 -1      1580    8    0    1
 -2       731       724       852      3009      3396      3397
 -1      1581    8    0    1
 -2       731       852       748      3397      3398      3080
 -1      1582    8    0    1
 -2       724       741       853      3053      3399      3400
 -1      1583    8    0    1
 -2       724       853       852      3400      3401      3396
 -1      1584    8    0    1
 -2       747       746       854      3074      3402      3403
 -1      1585    8    0    1
 -2       780       779       816      3173      3404      3405
 -1      1586    8    0    1
 -2       750       749       855      3085      3406      3407
 -1      1587    8    0    1
 -2       735       836       856      3336      3408      3409
 -1      1588    8    0    1
 -2       735       856       740      3409      3410      3387
 -1      1589    8    0    1
 -2       751       750       857      3088      3411      3412
 -1      1590    8    0    1
 -2       750       855       857      3407      3413      3411
 -1      1591    8    0    1
 -2       752       751       858      3091      3414      3415
 -1      1592    8    0    1
 -2       751       857       858      3412      3416      3414
 -1      1593    8    0    1
 -2       753       752       859      3094      3417      3418
 -1      1594    8    0    1
 -2       752       858       859      3415      3419      3417
 -1      1595    8    0    1
 -2       754       753       860      3097      3420      3421
 -1      1596    8    0    1
 -2       753       859       860      3418      3422      3420
 -1      1597    8    0    1
 -2       755       754       861      3100      3423      3424
 -1      1598    8    0    1
 -2       754       860       861      3421      3425      3423
 -1      1599    8    0    1
 -2       756       755       862      3103      3426      3427
 -1      1600    8    0    1
 -2       755       861       862      3424      3428      3426
 -1      1601    8    0    1
 -2       757       756       863      3106      3429      3430
 -1      1602    8    0    1
 -2       756       862       863      3427      3431      3429
 -1      1603    8    0    1
 -2       758       757       864      3109      3432      3433
 -1      1604    8    0    1
 -2       757       863       864      3430      3434      3432
 -1      1605    8    0    1
 -2       759       758       865      3112      3435      3436
 -1      1606    8    0    1
 -2       758       864       865      3433      3437      3435
 -1      1607    8    0    1
 -2       760       759       866      3115      3438      3439
 -1      1608    8    0    1
 -2       759       865       866      3436      3440      3438
 -1      1609    8    0    1
 -2       761       760       867      3118      3441      3442
 -1      1610    8    0    1
 -2       760       866       867      3439      3443      3441
 -1      1611    8    0    1
 -2       762       761       868      3121      3444      3445
 -1      1612    8    0    1
 -2       761       867       868      3442      3446      3444
 -1      1613    8    0    1
 -2       763       762       869      3124      3447      3448
 -1      1614    8    0    1
 -2       762       868       869      3445      3449      3447
 -1      1615    8    0    1
 -2       764       763       870      3127      3450      3451
 -1      1616    8    0    1
 -2       763       869       870      3448      3452      3450
 -1      1617    8    0    1
 -2       765       764       871      3130      3453      3454
 -1      1618    8    0    1
 -2       764       870       871      3451      3455      3453
 -1      1619    8    0    1
 -2       766       765       872      3133      3456      3457
 -1      1620    8    0    1
 -2       765       871       872      3454      3458      3456
 -1      1621    8    0    1
 -2       767       766       873      3136      3459      3460
 -1      1622    8    0    1
 -2       766       872       873      3457      3461      3459
 -1      1623    8    0    1
 -2       768       767       874      3139      3462      3463
 -1      1624    8    0    1
 -2       767       873       874      3460      3464      3462
 -1      1625    8    0    1
 -2       769       768       875      3142      3465      3466
 -1      1626    8    0    1
 -2       768       874       875      3463      3467      3465
 -1      1627    8    0    1
 -2       770       769       876      3145      3468      3469
 -1      1628    8    0    1
 -2       769       875       876      3466      3470      3468
 -1      1629    8    0    1
 -2       771       770       877      3148      3471      3472
 -1      1630    8    0    1
 -2       770       876       877      3469      3473      3471
 -1      1631    8    0    1
 -2       772       771       878      3151      3474      3475
 -1      1632    8    0    1
 -2       771       877       878      3472      3476      3474
 -1      1633    8    0    1
 -2       773       772       879      3154      3477      3478
 -1      1634    8    0    1
 -2       772       878       879      3475      3479      3477
 -1      1635    8    0    1
 -2       774       773       880      3157      3480      3481
 -1      1636    8    0    1
 -2       773       879       880      3478      3482      3480
 -1      1637    8    0    1
 -2       775       774       881      3160      3483      3484
 -1      1638    8    0    1
 -2       774       880       881      3481      3485      3483
 -1      1639    8    0    1
 -2       776       775       882      3163      3486      3487
 -1      1640    8    0    1
 -2       775       881       882      3484      3488      3486
 -1      1641    8    0    1
 -2       777       776       883      3166      3489      3490
 -1      1642    8    0    1
 -2       814       777       883      3391      3490      3491
 -1      1643    8    0    1
 -2       776       882       883      3487      3492      3489
 -1      1644    8    0    1
 -2       782       783       884      3181      3493      3494
 -1      1645    8    0    1
 -2       784       785       885      3187      3495      3496
 -1      1646    8    0    1
 -2       785       786       886      3190      3497      3498
 -1      1647    8    0    1
 -2       785       886       885      3498      3499      3495
 -1      1648    8    0    1
 -2       786       787       887      3193      3500      3501
 -1      1649    8    0    1
 -2       786       887       886      3501      3502      3497
 -1      1650    8    0    1
 -2       787       788       888      3196      3503      3504
 -1      1651    8    0    1
 -2       787       888       887      3504      3505      3500
 -1      1652    8    0    1
 -2       788       789       889      3199      3506      3507
 -1      1653    8    0    1
 -2       788       889       888      3507      3508      3503
 -1      1654    8    0    1
 -2       789       790       890      3202      3509      3510
 -1      1655    8    0    1
 -2       789       890       889      3510      3511      3506
 -1      1656    8    0    1
 -2       790       791       891      3205      3512      3513
 -1      1657    8    0    1
 -2       790       891       890      3513      3514      3509
 -1      1658    8    0    1
 -2       791       792       892      3208      3515      3516
 -1      1659    8    0    1
 -2       791       892       891      3516      3517      3512
 -1      1660    8    0    1
 -2       792       793       893      3211      3518      3519
 -1      1661    8    0    1
 -2       792       893       892      3519      3520      3515
 -1      1662    8    0    1
 -2       793       794       894      3214      3521      3522
 -1      1663    8    0    1
 -2       793       894       893      3522      3523      3518
 -1      1664    8    0    1
 -2       794       795       895      3217      3524      3525
 -1      1665    8    0    1
 -2       794       895       894      3525      3526      3521
 -1      1666    8    0    1
 -2       795       796       896      3220      3527      3528
 -1      1667    8    0    1
 -2       795       896       895      3528      3529      3524
 -1      1668    8    0    1
 -2       796       797       897      3223      3530      3531
 -1      1669    8    0    1
 -2       796       897       896      3531      3532      3527
 -1      1670    8    0    1
 -2       797       798       898      3226      3533      3534
 -1      1671    8    0    1
 -2       797       898       897      3534      3535      3530
 -1      1672    8    0    1
 -2       798       799       899      3229      3536      3537
 -1      1673    8    0    1
 -2       798       899       898      3537      3538      3533
 -1      1674    8    0    1
 -2       799       800       900      3232      3539      3540
 -1      1675    8    0    1
 -2       799       900       899      3540      3541      3536
 -1      1676    8    0    1
 -2       800       801       901      3235      3542      3543
 -1      1677    8    0    1
 -2       800       901       900      3543      3544      3539
 -1      1678    8    0    1
 -2       801       802       902      3238      3545      3546
 -1      1679    8    0    1
 -2       801       902       901      3546      3547      3542
 -1      1680    8    0    1
 -2       802       803       903      3241      3548      3549
 -1      1681    8    0    1
 -2       802       903       902      3549      3550      3545
 -1      1682    8    0    1
 -2       803       804       904      3244      3551      3552
 -1      1683    8    0    1
 -2       803       904       903      3552      3553      3548
 -1      1684    8    0    1
 -2       804       805       905      3247      3554      3555
 -1      1685    8    0    1
 -2       804       905       904      3555      3556      3551
 -1      1686    8    0    1
 -2       805       806       906      3250      3557      3558
 -1      1687    8    0    1
 -2       805       906       905      3558      3559      3554
 -1      1688    8    0    1
 -2       806       807       907      3253      3560      3561
 -1      1689    8    0    1
 -2       806       907       906      3561      3562      3557
 -1      1690    8    0    1
 -2       807       808       908      3256      3563      3564
 -1      1691    8    0    1
 -2       807       908       907      3564      3565      3560
 -1      1692    8    0    1
 -2       808       809       909      3259      3566      3567
 -1      1693    8    0    1
 -2       808       909       908      3567      3568      3563
 -1      1694    8    0    1
 -2       809       810       910      3262      3569      3570
 -1      1695    8    0    1
 -2       809       910       909      3570      3571      3566
 -1      1696    8    0    1
 -2       810       811       911      3265      3572      3573
 -1      1697    8    0    1
 -2       810       911       910      3573      3574      3569
 -1      1698    8    0    1
 -2       811       812       912      3268      3575      3576
 -1      1699    8    0    1
 -2       811       912       911      3576      3577      3572
 -1      1700    8    0    1
 -2       736       827       913      3364      3578      3579
 -1      1701    8    0    1
 -2       736       913       848      3579      3580      3380
 -1      1702    8    0    1
 -2       820       778       914      3286      3581      3582
 -1      1703    8    0    1
 -2       728       737       915      3033      3583      3584
 -1      1704    8    0    1
 -2       828       723       747      3311      3317      3585
 -1      1705    8    0    1
 -2       749       719       740      3323      3049      3586
 -1      1706    8    0    1
 -2       737       816       779      3351      3404      3587
 -1      1707    8    0    1
 -2       741       732       916      3054      3588      3589
 -1      1708    8    0    1
 -2       853       741       916      3399      3589      3590
 -1      1709    8    0    1
 -2       732       832       916      3325      3591      3588
 -1      1710    8    0    1
 -2       815       813       917      3275      3592      3593
 -1      1711    8    0    1
 -2       783       784       918      3184      3594      3595
 -1      1712    8    0    1
 -2       884       783       918      3493      3595      3596
 -1      1713    8    0    1
 -2       784       885       918      3496      3597      3594
 -1      1714    8    0    1
 -2       818       829       919      3386      3598      3599
 -1      1715    8    0    1
 -2       819       728       915      3282      3584      3600
 -1      1716    8    0    1
 -2       746       745       920      3071      3601      3602
 -1      1717    8    0    1
 -2       746       920       854      3602      3603      3402
 -1      1718    8    0    1
 -2       824       826       921      3308      3604      3605
 -1      1719    8    0    1
 -2       825       828       854      3313      3606      3607
 -1      1720    8    0    1
 -2       742       831       884      3322      3608      3609
 -1      1721    8    0    1
 -2       780       816       817      3405      3359      3610
 -1      1722    8    0    1
 -2       828       747       854      3585      3403      3606
 -1      1723    8    0    1
 -2       780       817       840      3610      3611      3348
 -1      1724    8    0    1
 -2       833       824       922      3329      3612      3613
 -1      1725    8    0    1
 -2       824       921       922      3605      3614      3612
 -1      1726    8    0    1
 -2       834       742       884      3330      3609      3615
 -1      1727    8    0    1
 -2       827       847       923      3379      3616      3617
 -1      1728    8    0    1
 -2       827       923       913      3617      3618      3578
 -1      1729    8    0    1
 -2       815       917       924      3593      3619      3620
 -1      1730    8    0    1
 -2       815       924       843      3620      3621      3363
 -1      1731    8    0    1
 -2       852       853       925      3401      3622      3623
 -1      1732    8    0    1
 -2       837       835       926      3340      3624      3625
 -1      1733    8    0    1
 -2       837       926       841      3625      3626      3355
 -1      1734    8    0    1
 -2       782       884       831      3494      3608      3627
 -1      1735    8    0    1
 -2       835       842       927      3358      3628      3629
 -1      1736    8    0    1
 -2       835       927       926      3629      3630      3624
 -1      1737    8    0    1
 -2       813       821       928      3289      3631      3632
 -1      1738    8    0    1
 -2       813       928       917      3632      3633      3592
 -1      1739    8    0    1
 -2       839       820       929      3347      3634      3635
 -1      1740    8    0    1
 -2       820       914       929      3582      3636      3634
 -1      1741    8    0    1
 -2       832       830       930      3326      3637      3638
 -1      1742    8    0    1
 -2       818       919       931      3599      3639      3640
 -1      1743    8    0    1
 -2       818       931       844      3640      3641      3367
 -1      1744    8    0    1
 -2       781       782       831      3178      3627      3642
 -1      1745    8    0    1
 -2       838       715       840      3343      3350      3643
 -1      1746    8    0    1
 -2       914       778       932      3581      3644      3645
 -1      1747    8    0    1
 -2       778       838       932      3342      3646      3644
 -1      1748    8    0    1
 -2       852       925       920      3623      3647      3648
 -1      1749    8    0    1
 -2       930       830       933      3637      3649      3650
 -1      1750    8    0    1
 -2       830       849       933      3384      3651      3649
 -1      1751    8    0    1
 -2       812       841       934      3354      3652      3653
 -1      1752    8    0    1
 -2       912       812       934      3575      3653      3654
 -1      1753    8    0    1
 -2       841       926       934      3626      3655      3652
 -1      1754    8    0    1
 -2       845       738       935      3370      3656      3657
 -1      1755    8    0    1
 -2       738       844       935      3366      3658      3656
 -1      1756    8    0    1
 -2       739       845       936      3369      3659      3660
 -1      1757    8    0    1
 -2       739       936       846      3660      3661      3374
 -1      1758    8    0    1
 -2       821       814       937      3290      3662      3663
 -1      1759    8    0    1
 -2       928       821       937      3631      3663      3664
 -1      1760    8    0    1
 -2       814       883       937      3491      3665      3662
 -1      1761    8    0    1
 -2       847       733       938      3377      3666      3667
 -1      1762    8    0    1
 -2       733       833       938      3328      3668      3666
 -1      1763    8    0    1
 -2       704       661       777      2930      3165      3371
 -1      1764    8    0    1
 -2       836       846       939      3376      3669      3670
 -1      1765    8    0    1
 -2       829       834       940      3332      3671      3672
 -1      1766    8    0    1
 -2       829       940       919      3672      3673      3598
 -1      1767    8    0    1
 -2       856       836       855      3408      3674      3675
 -1      1768    8    0    1
 -2       744       823       941      3299      3676      3677
 -1      1769    8    0    1
 -2       851       744       941      3395      3677      3678
 -1      1770    8    0    1
 -2       823       839       941      3346      3679      3676
 -1      1771    8    0    1
 -2       850       825       854      3390      3607      3680
 -1      1772    8    0    1
 -2       826       850       942      3389      3681      3682
 -1      1773    8    0    1
 -2       826       942       921      3682      3683      3604
 -1      1774    8    0    1
 -2       748       852       920      3398      3648      3684
 -1      1775    8    0    1
 -2       749       740       855      3586      3685      3406
 -1      1776    8    0    1
 -2       737       779       822      3587      3293      3686
 -1      1777    8    0    1
 -2       836       939       855      3670      3687      3674
 -1      1778    8    0    1
 -2       939       846       943      3669      3688      3689
 -1      1779    8    0    1
 -2       846       936       943      3661      3690      3688
 -1      1780    8    0    1
 -2       925       853       944      3622      3691      3692
 -1      1781    8    0    1
 -2       853       916       944      3590      3693      3691
 -1      1782    8    0    1
 -2       857       855       939      3413      3687      3694
 -1      1783    8    0    1
 -2       858       857       945      3416      3695      3696
 -1      1784    8    0    1
 -2       859       858       946      3419      3697      3698
 -1      1785    8    0    1
 -2       858       945       946      3696      3699      3697
 -1      1786    8    0    1
 -2       860       859       947      3422      3700      3701
 -1      1787    8    0    1
 -2       859       946       947      3698      3702      3700
 -1      1788    8    0    1
 -2       861       860       948      3425      3703      3704
 -1      1789    8    0    1
 -2       860       947       948      3701      3705      3703
 -1      1790    8    0    1
 -2       862       861       949      3428      3706      3707
 -1      1791    8    0    1
 -2       861       948       949      3704      3708      3706
 -1      1792    8    0    1
 -2       863       862       950      3431      3709      3710
 -1      1793    8    0    1
 -2       862       949       950      3707      3711      3709
 -1      1794    8    0    1
 -2       864       863       951      3434      3712      3713
 -1      1795    8    0    1
 -2       863       950       951      3710      3714      3712
 -1      1796    8    0    1
 -2       865       864       952      3437      3715      3716
 -1      1797    8    0    1
 -2       864       951       952      3713      3717      3715
 -1      1798    8    0    1
 -2       866       865       953      3440      3718      3719
 -1      1799    8    0    1
 -2       865       952       953      3716      3720      3718
 -1      1800    8    0    1
 -2       867       866       954      3443      3721      3722
 -1      1801    8    0    1
 -2       866       953       954      3719      3723      3721
 -1      1802    8    0    1
 -2       868       867       955      3446      3724      3725
 -1      1803    8    0    1
 -2       867       954       955      3722      3726      3724
 -1      1804    8    0    1
 -2       869       868       956      3449      3727      3728
 -1      1805    8    0    1
 -2       868       955       956      3725      3729      3727
 -1      1806    8    0    1
 -2       870       869       957      3452      3730      3731
 -1      1807    8    0    1
 -2       869       956       957      3728      3732      3730
 -1      1808    8    0    1
 -2       871       870       958      3455      3733      3734
 -1      1809    8    0    1
 -2       870       957       958      3731      3735      3733
 -1      1810    8    0    1
 -2       872       871       959      3458      3736      3737
 -1      1811    8    0    1
 -2       871       958       959      3734      3738      3736
 -1      1812    8    0    1
 -2       873       872       960      3461      3739      3740
 -1      1813    8    0    1
 -2       872       959       960      3737      3741      3739
 -1      1814    8    0    1
 -2       874       873       961      3464      3742      3743
 -1      1815    8    0    1
 -2       873       960       961      3740      3744      3742
 -1      1816    8    0    1
 -2       875       874       962      3467      3745      3746
 -1      1817    8    0    1
 -2       874       961       962      3743      3747      3745
 -1      1818    8    0    1
 -2       876       875       963      3470      3748      3749
 -1      1819    8    0    1
 -2       875       962       963      3746      3750      3748
 -1      1820    8    0    1
 -2       877       876       964      3473      3751      3752
 -1      1821    8    0    1
 -2       876       963       964      3749      3753      3751
 -1      1822    8    0    1
 -2       878       877       965      3476      3754      3755
 -1      1823    8    0    1
 -2       877       964       965      3752      3756      3754
 -1      1824    8    0    1
 -2       879       878       966      3479      3757      3758
 -1      1825    8    0    1
 -2       878       965       966      3755      3759      3757
 -1      1826    8    0    1
 -2       880       879       967      3482      3760      3761
 -1      1827    8    0    1
 -2       879       966       967      3758      3762      3760
 -1      1828    8    0    1
 -2       881       880       968      3485      3763      3764
 -1      1829    8    0    1
 -2       880       967       968      3761      3765      3763
 -1      1830    8    0    1
 -2       882       881       969      3488      3766      3767
 -1      1831    8    0    1
 -2       881       968       969      3764      3768      3766
 -1      1832    8    0    1
 -2       883       882       970      3492      3769      3770
 -1      1833    8    0    1
 -2       937       883       970      3665      3770      3771
 -1      1834    8    0    1
 -2       882       969       970      3767      3772      3769
 -1      1835    8    0    1
 -2       886       887       971      3502      3773      3774
 -1      1836    8    0    1
 -2       888       889       972      3508      3775      3776
 -1      1837    8    0    1
 -2       889       890       973      3511      3777      3778
 -1      1838    8    0    1
 -2       889       973       972      3778      3779      3775
 -1      1839    8    0    1
 -2       890       891       974      3514      3780      3781
 -1      1840    8    0    1
 -2       890       974       973      3781      3782      3777
 -1      1841    8    0    1
 -2       891       892       975      3517      3783      3784
 -1      1842    8    0    1
 -2       891       975       974      3784      3785      3780
 -1      1843    8    0    1
 -2       892       893       976      3520      3786      3787
 -1      1844    8    0    1
 -2       892       976       975      3787      3788      3783
 -1      1845    8    0    1
 -2       893       894       977      3523      3789      3790
 -1      1846    8    0    1
 -2       893       977       976      3790      3791      3786
 -1      1847    8    0    1
 -2       894       895       978      3526      3792      3793
 -1      1848    8    0    1
 -2       894       978       977      3793      3794      3789
 -1      1849    8    0    1
 -2       895       896       979      3529      3795      3796
 -1      1850    8    0    1
 -2       895       979       978      3796      3797      3792
 -1      1851    8    0    1
 -2       896       897       980      3532      3798      3799
 -1      1852    8    0    1
 -2       896       980       979      3799      3800      3795
 -1      1853    8    0    1
 -2       897       898       981      3535      3801      3802
 -1      1854    8    0    1
 -2       897       981       980      3802      3803      3798
 -1      1855    8    0    1
 -2       898       899       982      3538      3804      3805
 -1      1856    8    0    1
 -2       898       982       981      3805      3806      3801
 -1      1857    8    0    1
 -2       899       900       983      3541      3807      3808
 -1      1858    8    0    1
 -2       899       983       982      3808      3809      3804
 -1      1859    8    0    1
 -2       900       901       984      3544      3810      3811
 -1      1860    8    0    1
 -2       900       984       983      3811      3812      3807
 -1      1861    8    0    1
 -2       901       902       985      3547      3813      3814
 -1      1862    8    0    1
 -2       901       985       984      3814      3815      3810
 -1      1863    8    0    1
 -2       902       903       986      3550      3816      3817
 -1      1864    8    0    1
 -2       902       986       985      3817      3818      3813
 -1      1865    8    0    1
 -2       903       904       987      3553      3819      3820
 -1      1866    8    0    1
 -2       903       987       986      3820      3821      3816
 -1      1867    8    0    1
 -2       904       905       988      3556      3822      3823
 -1      1868    8    0    1
 -2       904       988       987      3823      3824      3819
 -1      1869    8    0    1
 -2       905       906       989      3559      3825      3826
 -1      1870    8    0    1
 -2       905       989       988      3826      3827      3822
 -1      1871    8    0    1
 -2       906       907       990      3562      3828      3829
 -1      1872    8    0    1
 -2       906       990       989      3829      3830      3825
 -1      1873    8    0    1
 -2       907       908       991      3565      3831      3832
 -1      1874    8    0    1
 -2       907       991       990      3832      3833      3828
 -1      1875    8    0    1
 -2       908       909       992      3568      3834      3835
 -1      1876    8    0    1
 -2       908       992       991      3835      3836      3831
 -1      1877    8    0    1
 -2       909       910       993      3571      3837      3838
 -1      1878    8    0    1
 -2       909       993       992      3838      3839      3834
 -1      1879    8    0    1
 -2       910       911       994      3574      3840      3841
 -1      1880    8    0    1
 -2       910       994       993      3841      3842      3837
 -1      1881    8    0    1
 -2       911       912       995      3577      3843      3844
 -1      1882    8    0    1
 -2       911       995       994      3844      3845      3840
 -1      1883    8    0    1
 -2       848       913       996      3580      3846      3847
 -1      1884    8    0    1
 -2       838       840       996      3643      3848      3849
 -1      1885    8    0    1
 -2       915       737       822      3583      3686      3850
 -1      1886    8    0    1
 -2       850       854       997      3680      3851      3852
 -1      1887    8    0    1
 -2       942       850       997      3681      3852      3853
 -1      1888    8    0    1
 -2       854       920       997      3603      3854      3851
 -1      1889    8    0    1
 -2       920       925       997      3647      3855      3854
 -1      1890    8    0    1
 -2       842       843       998      3362      3856      3857
 -1      1891    8    0    1
 -2       927       842       998      3628      3857      3858
 -1      1892    8    0    1
 -2       843       924       998      3621      3859      3856
 -1      1893    8    0    1
 -2       832       930       999      3638      3860      3861
 -1      1894    8    0    1
 -2       832       999       916      3861      3862      3591
 -1      1895    8    0    1
 -2       887       888      1000      3505      3863      3864
 -1      1896    8    0    1
 -2       888       972      1000      3776      3865      3863
 -1      1897    8    0    1
 -2       857       939       945      3694      3866      3695
 -1      1898    8    0    1
 -2       819       915       781      3600      3867      3868
 -1      1899    8    0    1
 -2       920       745       748      3601      3079      3684
 -1      1900    8    0    1
 -2       834       884       918      3615      3596      3869
 -1      1901    8    0    1
 -2       849       851      1001      3394      3870      3871
 -1      1902    8    0    1
 -2       849      1001       933      3871      3872      3651
 -1      1903    8    0    1
 -2       917       928      1002      3633      3873      3874
 -1      1904    8    0    1
 -2       923       847      1003      3616      3875      3876
 -1      1905    8    0    1
 -2       847       938      1003      3667      3877      3875
 -1      1906    8    0    1
 -2       924       917      1004      3619      3878      3879
 -1      1907    8    0    1
 -2       917      1002      1004      3874      3880      3878
 -1      1908    8    0    1
 -2       845       935      1005      3657      3881      3882
 -1      1909    8    0    1
 -2       845      1005       936      3882      3883      3659
 -1      1910    8    0    1
 -2       999       930      1006      3860      3884      3885
 -1      1911    8    0    1
 -2       819       781       831      3868      3642      3373
 -1      1912    8    0    1
 -2       938       833      1007      3668      3886      3887
 -1      1913    8    0    1
 -2       833       922      1007      3613      3888      3886
 -1      1914    8    0    1
 -2       929       914      1008      3636      3889      3890
 -1      1915    8    0    1
 -2       934       926      1009      3655      3891      3892
 -1      1916    8    0    1
 -2       926       927      1009      3630      3893      3891
 -1      1917    8    0    1
 -2       844       931      1010      3641      3894      3895
 -1      1918    8    0    1
 -2       844      1010       935      3895      3896      3658
 -1      1919    8    0    1
 -2       885       886      1011      3499      3897      3898
 -1      1920    8    0    1
 -2       838       996       932      3849      3899      3646
 -1      1921    8    0    1
 -2       885      1011       940      3898      3900      3901
 -1      1922    8    0    1
 -2       885       940       918      3901      3902      3597
 -1      1923    8    0    1
 -2       886       971      1011      3774      3903      3897
 -1      1924    8    0    1
 -2       930       933      1007      3650      3904      3905
 -1      1925    8    0    1
 -2       971       887      1000      3773      3864      3906
 -1      1926    8    0    1
 -2       940       834       918      3671      3869      3902
 -1      1927    8    0    1
 -2       997       925       944      3855      3692      3907
 -1      1928    8    0    1
 -2       919       940      1011      3673      3900      3908
 -1      1929    8    0    1
 -2       851       941      1001      3678      3909      3870
 -1      1930    8    0    1
 -2       919      1011       931      3908      3910      3639
 -1      1931    8    0    1
 -2       840       817       996      3611      3911      3848
 -1      1932    8    0    1
 -2       781       915       822      3867      3850      3294
 -1      1933    8    0    1
 -2       921       942      1012      3683      3912      3913
 -1      1934    8    0    1
 -2       941       839       929      3679      3635      3914
 -1      1935    8    0    1
 -2       912       934      1013      3654      3915      3916
 -1      1936    8    0    1
 -2       995       912      1013      3843      3916      3917
 -1      1937    8    0    1
 -2       934      1009      1013      3892      3918      3915
 -1      1938    8    0    1
 -2       922       921      1012      3614      3913      3919
 -1      1939    8    0    1
 -2      1008       914      1003      3889      3920      3921
 -1      1940    8    0    1
 -2       932       996       913      3899      3846      3922
 -1      1941    8    0    1
 -2      1003       914       932      3920      3645      3923
 -1      1942    8    0    1
 -2       944       916       999      3693      3862      3924
 -1      1943    8    0    1
 -2       946       945      1014      3699      3925      3926
 -1      1944    8    0    1
 -2       932       913       923      3922      3618      3927
 -1      1945    8    0    1
 -2       947       946      1015      3702      3928      3929
 -1      1946    8    0    1
 -2       946      1014      1015      3926      3930      3928
 -1      1947    8    0    1
 -2       948       947      1016      3705      3931      3932
 -1      1948    8    0    1
 -2       947      1015      1016      3929      3933      3931
 -1      1949    8    0    1
 -2       949       948      1017      3708      3934      3935
 -1      1950    8    0    1
 -2       948      1016      1017      3932      3936      3934
 -1      1951    8    0    1
 -2       950       949      1018      3711      3937      3938
 -1      1952    8    0    1
 -2       949      1017      1018      3935      3939      3937
 -1      1953    8    0    1
 -2       951       950      1019      3714      3940      3941
 -1      1954    8    0    1
 -2       950      1018      1019      3938      3942      3940
 -1      1955    8    0    1
 -2       952       951      1020      3717      3943      3944
 -1      1956    8    0    1
 -2       951      1019      1020      3941      3945      3943
 -1      1957    8    0    1
 -2       953       952      1021      3720      3946      3947
 -1      1958    8    0    1
 -2       952      1020      1021      3944      3948      3946
 -1      1959    8    0    1
 -2       954       953      1022      3723      3949      3950
 -1      1960    8    0    1
 -2       953      1021      1022      3947      3951      3949
 -1      1961    8    0    1
 -2       955       954      1023      3726      3952      3953
 -1      1962    8    0    1
 -2       954      1022      1023      3950      3954      3952
 -1      1963    8    0    1
 -2       956       955      1024      3729      3955      3956
 -1      1964    8    0    1
 -2       955      1023      1024      3953      3957      3955
 -1      1965    8    0    1
 -2       957       956      1025      3732      3958      3959
 -1      1966    8    0    1
 -2       956      1024      1025      3956      3960      3958
 -1      1967    8    0    1
 -2       958       957      1026      3735      3961      3962
 -1      1968    8    0    1
 -2       957      1025      1026      3959      3963      3961
 -1      1969    8    0    1
 -2       959       958      1027      3738      3964      3965
 -1      1970    8    0    1
 -2       958      1026      1027      3962      3966      3964
 -1      1971    8    0    1
 -2       960       959      1028      3741      3967      3968
 -1      1972    8    0    1
 -2       959      1027      1028      3965      3969      3967
 -1      1973    8    0    1
 -2       961       960      1029      3744      3970      3971
 -1      1974    8    0    1
 -2       960      1028      1029      3968      3972      3970
 -1      1975    8    0    1
 -2       962       961      1030      3747      3973      3974
 -1      1976    8    0    1
 -2       961      1029      1030      3971      3975      3973
 -1      1977    8    0    1
 -2       963       962      1031      3750      3976      3977
 -1      1978    8    0    1
 -2       962      1030      1031      3974      3978      3976
 -1      1979    8    0    1
 -2       964       963      1032      3753      3979      3980
 -1      1980    8    0    1
 -2       963      1031      1032      3977      3981      3979
 -1      1981    8    0    1
 -2       965       964      1033      3756      3982      3983
 -1      1982    8    0    1
 -2       964      1032      1033      3980      3984      3982
 -1      1983    8    0    1
 -2       966       965      1034      3759      3985      3986
 -1      1984    8    0    1
 -2       965      1033      1034      3983      3987      3985
 -1      1985    8    0    1
 -2       967       966      1035      3762      3988      3989
 -1      1986    8    0    1
 -2       966      1034      1035      3986      3990      3988
 -1      1987    8    0    1
 -2       968       967      1036      3765      3991      3992
 -1      1988    8    0    1
 -2       967      1035      1036      3989      3993      3991
 -1      1989    8    0    1
 -2       969       968      1037      3768      3994      3995
 -1      1990    8    0    1
 -2       968      1036      1037      3992      3996      3994
 -1      1991    8    0    1
 -2       973       974      1038      3782      3997      3998
 -1      1992    8    0    1
 -2       945       939      1039      3866      3999      4000
 -1      1993    8    0    1
 -2       972       973      1040      3779      4001      4002
 -1      1994    8    0    1
 -2       973      1038      1040      3998      4003      4001
 -1      1995    8    0    1
 -2       975       976      1041      3788      4004      4005
 -1      1996    8    0    1
 -2       976       977      1042      3791      4006      4007
 -1      1997    8    0    1
 -2       976      1042      1041      4007      4008      4004
 -1      1998    8    0    1
 -2       977       978      1043      3794      4009      4010
 -1      1999    8    0    1
 -2       977      1043      1042      4010      4011      4006
 -1      2000    8    0    1
 -2       978       979      1044      3797      4012      4013
 -1      2001    8    0    1
 -2       978      1044      1043      4013      4014      4009
 -1      2002    8    0    1
 -2       979       980      1045      3800      4015      4016
 -1      2003    8    0    1
 -2       979      1045      1044      4016      4017      4012
 -1      2004    8    0    1
 -2       980       981      1046      3803      4018      4019
 -1      2005    8    0    1
 -2       980      1046      1045      4019      4020      4015
 -1      2006    8    0    1
 -2       981       982      1047      3806      4021      4022
 -1      2007    8    0    1
 -2       981      1047      1046      4022      4023      4018
 -1      2008    8    0    1
 -2       982       983      1048      3809      4024      4025
 -1      2009    8    0    1
 -2       982      1048      1047      4025      4026      4021
 -1      2010    8    0    1
 -2       983       984      1049      3812      4027      4028
 -1      2011    8    0    1
 -2       983      1049      1048      4028      4029      4024
 -1      2012    8    0    1
 -2       984       985      1050      3815      4030      4031
 -1      2013    8    0    1
 -2       984      1050      1049      4031      4032      4027
 -1      2014    8    0    1
 -2       985       986      1051      3818      4033      4034
 -1      2015    8    0    1
 -2       985      1051      1050      4034      4035      4030
 -1      2016    8    0    1
 -2       986       987      1052      3821      4036      4037
 -1      2017    8    0    1
 -2       986      1052      1051      4037      4038      4033
 -1      2018    8    0    1
 -2       987       988      1053      3824      4039      4040
 -1      2019    8    0    1
 -2       987      1053      1052      4040      4041      4036
 -1      2020    8    0    1
 -2       988       989      1054      3827      4042      4043
 -1      2021    8    0    1
 -2       988      1054      1053      4043      4044      4039
 -1      2022    8    0    1
 -2       989       990      1055      3830      4045      4046
 -1      2023    8    0    1
 -2       989      1055      1054      4046      4047      4042
 -1      2024    8    0    1
 -2       990       991      1056      3833      4048      4049
 -1      2025    8    0    1
 -2       990      1056      1055      4049      4050      4045
 -1      2026    8    0    1
 -2       991       992      1057      3836      4051      4052
 -1      2027    8    0    1
 -2       991      1057      1056      4052      4053      4048
 -1      2028    8    0    1
 -2       992       993      1058      3839      4054      4055
 -1      2029    8    0    1
 -2       992      1058      1057      4055      4056      4051
 -1      2030    8    0    1
 -2       993       994      1059      3842      4057      4058
 -1      2031    8    0    1
 -2       993      1059      1058      4058      4059      4054
 -1      2032    8    0    1
 -2       994       995      1060      3845      4060      4061
 -1      2033    8    0    1
 -2       994      1060      1059      4061      4062      4057
 -1      2034    8    0    1
 -2      1001       941       929      3909      3914      4063
 -1      2035    8    0    1
 -2       997       944       942      3907      4064      3853
 -1      2036    8    0    1
 -2      1007       933      1061      3904      4065      4066
 -1      2037    8    0    1
 -2       971      1000      1062      3906      4067      4068
 -1      2038    8    0    1
 -2       943       936      1063      3690      4069      4070
 -1      2039    8    0    1
 -2       936      1005      1063      3883      4071      4069
 -1      2040    8    0    1
 -2       938      1007      1061      3887      4066      4072
 -1      2041    8    0    1
 -2       928       937       970      3664      3771      4073
 -1      2042    8    0    1
 -2      1000       972      1064      3865      4074      4075
 -1      2043    8    0    1
 -2      1000      1064      1062      4075      4076      4067
 -1      2044    8    0    1
 -2      1011       971       931      3903      4077      3910
 -1      2045    8    0    1
 -2       933      1001      1061      3872      4078      4065
 -1      2046    8    0    1
 -2      1003       938      1061      3877      4072      4079
 -1      2047    8    0    1
 -2       974       975      1065      3785      4080      4081
 -1      2048    8    0    1
 -2       974      1065      1038      4081      4082      3997
 -1      2049    8    0    1
 -2       945      1039      1014      4000      4083      3925
 -1      2050    8    0    1
 -2       931       971      1062      4077      4068      4084
 -1      2051    8    0    1
 -2      1002       928       970      3873      4073      4085
 -1      2052    8    0    1
 -2      1004      1002      1066      3880      4086      4087
 -1      2053    8    0    1
 -2      1005       935      1067      3881      4088      4089
 -1      2054    8    0    1
 -2       935      1010      1067      3896      4090      4088
 -1      2055    8    0    1
 -2      1006       930      1007      3884      3905      4091
 -1      2056    8    0    1
 -2       996       817       848      3911      3382      3847
 -1      2057    8    0    1
 -2      1009       927      1068      3893      4092      4093
 -1      2058    8    0    1
 -2       927       998      1068      3858      4094      4092
 -1      2059    8    0    1
 -2       922      1012      1006      3919      4095      4096
 -1      2060    8    0    1
 -2       972      1040      1064      4002      4097      4074
 -1      2061    8    0    1
 -2      1001       929      1008      4063      3890      4098
 -1      2062    8    0    1
 -2      1060       995      1069      4060      4099      4100
 -1      2063    8    0    1
 -2       995      1013      1069      3917      4101      4099
 -1      2064    8    0    1
 -2      1003      1061      1008      4079      4102      3921
 -1      2065    8    0    1
 -2       975      1041      1065      4005      4103      4080
 -1      2066    8    0    1
 -2      1012       942       944      3912      4064      4104
 -1      2067    8    0    1
 -2       922      1006      1007      4096      4091      3888
 -1      2068    8    0    1
 -2      1001      1008      1061      4098      4102      4078
 -1      2069    8    0    1
 -2      1006      1012       999      4095      4105      3885
 -1      2070    8    0    1
 -2       999      1012       944      4105      4104      3924
 -1      2071    8    0    1
 -2       998       924      1070      3859      4106      4107
 -1      2072    8    0    1
 -2      1068       998      1070      4094      4107      4108
 -1      2073    8    0    1
 -2       924      1004      1070      3879      4109      4106
 -1      2074    8    0    1
 -2       939       943      1039      3689      4110      3999
 -1      2075    8    0    1
 -2      1039       943      1063      4110      4070      4111
 -1      2076    8    0    1
 -2      1039      1063      1071      4111      4112      4113
 -1      2077    8    0    1
 -2      1039      1071      1014      4113      4114      4083
 -1      2078    8    0    1
 -2      1066      1002      1037      4086      4115      4116
 -1      2079    8    0    1
 -2       923      1003       932      3876      3923      3927
 -1      2080    8    0    1
 -2       931      1062      1010      4084      4117      3894
 -1      2081    8    0    1
 -2      1010      1062      1067      4117      4118      4090
 -1      2082    8    0    1
 -2      1015      1014      1072      3930      4119      4120
 -1      2083    8    0    1
 -2      1014      1071      1072      4114      4121      4119
 -1      2084    8    0    1
 -2      1064      1040      1073      4097      4122      4123
 -1      2085    8    0    1
 -2      1062      1064      1074      4076      4124      4125
 -1      2086    8    0    1
 -2      1067      1062      1074      4118      4125      4126
 -1      2087    8    0    1
 -2      1064      1073      1074      4123      4127      4124
 -1      2088    8    0    1
 -2      1016      1015      1075      3933      4128      4129
 -1      2089    8    0    1
 -2      1015      1072      1075      4120      4130      4128
 -1      2090    8    0    1
 -2      1017      1016      1076      3936      4131      4132
 -1      2091    8    0    1
 -2      1016      1075      1076      4129      4133      4131
 -1      2092    8    0    1
 -2      1018      1017      1077      3939      4134      4135
 -1      2093    8    0    1
 -2      1017      1076      1077      4132      4136      4134
 -1      2094    8    0    1
 -2      1019      1018      1078      3942      4137      4138
 -1      2095    8    0    1
 -2      1018      1077      1078      4135      4139      4137
 -1      2096    8    0    1
 -2      1020      1019      1079      3945      4140      4141
 -1      2097    8    0    1
 -2      1019      1078      1079      4138      4142      4140
 -1      2098    8    0    1
 -2      1021      1020      1080      3948      4143      4144
 -1      2099    8    0    1
 -2      1020      1079      1080      4141      4145      4143
 -1      2100    8    0    1
 -2      1022      1021      1081      3951      4146      4147
 -1      2101    8    0    1
 -2      1021      1080      1081      4144      4148      4146
 -1      2102    8    0    1
 -2      1023      1022      1082      3954      4149      4150
 -1      2103    8    0    1
 -2      1022      1081      1082      4147      4151      4149
 -1      2104    8    0    1
 -2      1024      1023      1083      3957      4152      4153
 -1      2105    8    0    1
 -2      1023      1082      1083      4150      4154      4152
 -1      2106    8    0    1
 -2      1025      1024      1084      3960      4155      4156
 -1      2107    8    0    1
 -2      1024      1083      1084      4153      4157      4155
 -1      2108    8    0    1
 -2      1026      1025      1085      3963      4158      4159
 -1      2109    8    0    1
 -2      1025      1084      1085      4156      4160      4158
 -1      2110    8    0    1
 -2      1027      1026      1086      3966      4161      4162
 -1      2111    8    0    1
 -2      1026      1085      1086      4159      4163      4161
 -1      2112    8    0    1
 -2      1028      1027      1087      3969      4164      4165
 -1      2113    8    0    1
 -2      1027      1086      1087      4162      4166      4164
 -1      2114    8    0    1
 -2      1029      1028      1088      3972      4167      4168
 -1      2115    8    0    1
 -2      1028      1087      1088      4165      4169      4167
 -1      2116    8    0    1
 -2      1030      1029      1089      3975      4170      4171
 -1      2117    8    0    1
 -2      1029      1088      1089      4168      4172      4170
 -1      2118    8    0    1
 -2      1031      1030      1090      3978      4173      4174
 -1      2119    8    0    1
 -2      1030      1089      1090      4171      4175      4173
 -1      2120    8    0    1
 -2      1032      1031      1091      3981      4176      4177
 -1      2121    8    0    1
 -2      1031      1090      1091      4174      4178      4176
 -1      2122    8    0    1
 -2      1033      1032      1092      3984      4179      4180
 -1      2123    8    0    1
 -2      1032      1091      1092      4177      4181      4179
 -1      2124    8    0    1
 -2      1034      1033      1093      3987      4182      4183
 -1      2125    8    0    1
 -2      1033      1092      1093      4180      4184      4182
 -1      2126    8    0    1
 -2      1035      1034      1094      3990      4185      4186
 -1      2127    8    0    1
 -2      1034      1093      1094      4183      4187      4185
 -1      2128    8    0    1
 -2      1036      1035      1095      3993      4188      4189
 -1      2129    8    0    1
 -2      1035      1094      1095      4186      4190      4188
 -1      2130    8    0    1
 -2      1037      1036      1096      3996      4191      4192
 -1      2131    8    0    1
 -2      1066      1037      1096      4116      4192      4193
 -1      2132    8    0    1
 -2      1036      1095      1096      4189      4194      4191
 -1      2133    8    0    1
 -2       970       969      1002      3772      4195      4085
 -1      2134    8    0    1
 -2      1038      1065      1097      4082      4196      4197
 -1      2135    8    0    1
 -2      1040      1038      1098      4003      4198      4199
 -1      2136    8    0    1
 -2      1040      1098      1073      4199      4200      4122
 -1      2137    8    0    1
 -2      1042      1043      1099      4011      4201      4202
 -1      2138    8    0    1
 -2      1041      1042      1100      4008      4203      4204
 -1      2139    8    0    1
 -2      1042      1099      1100      4202      4205      4203
 -1      2140    8    0    1
 -2      1044      1045      1101      4017      4206      4207
 -1      2141    8    0    1
 -2      1045      1046      1102      4020      4208      4209
 -1      2142    8    0    1
 -2      1045      1102      1101      4209      4210      4206
 -1      2143    8    0    1
 -2      1046      1047      1103      4023      4211      4212
 -1      2144    8    0    1
 -2      1046      1103      1102      4212      4213      4208
 -1      2145    8    0    1
 -2      1047      1048      1104      4026      4214      4215
 -1      2146    8    0    1
 -2      1047      1104      1103      4215      4216      4211
 -1      2147    8    0    1
 -2      1048      1049      1105      4029      4217      4218
 -1      2148    8    0    1
 -2      1048      1105      1104      4218      4219      4214
 -1      2149    8    0    1
 -2      1049      1050      1106      4032      4220      4221
 -1      2150    8    0    1
 -2      1049      1106      1105      4221      4222      4217
 -1      2151    8    0    1
 -2      1050      1051      1107      4035      4223      4224
 -1      2152    8    0    1
 -2      1050      1107      1106      4224      4225      4220
 -1      2153    8    0    1
 -2      1051      1052      1108      4038      4226      4227
 -1      2154    8    0    1
 -2      1051      1108      1107      4227      4228      4223
 -1      2155    8    0    1
 -2      1052      1053      1109      4041      4229      4230
 -1      2156    8    0    1
 -2      1052      1109      1108      4230      4231      4226
 -1      2157    8    0    1
 -2      1053      1054      1110      4044      4232      4233
 -1      2158    8    0    1
 -2      1053      1110      1109      4233      4234      4229
 -1      2159    8    0    1
 -2      1054      1055      1111      4047      4235      4236
 -1      2160    8    0    1
 -2      1054      1111      1110      4236      4237      4232
 -1      2161    8    0    1
 -2      1055      1056      1112      4050      4238      4239
 -1      2162    8    0    1
 -2      1055      1112      1111      4239      4240      4235
 -1      2163    8    0    1
 -2      1056      1057      1113      4053      4241      4242
 -1      2164    8    0    1
 -2      1056      1113      1112      4242      4243      4238
 -1      2165    8    0    1
 -2      1057      1058      1114      4056      4244      4245
 -1      2166    8    0    1
 -2      1057      1114      1113      4245      4246      4241
 -1      2167    8    0    1
 -2      1058      1059      1115      4059      4247      4248
 -1      2168    8    0    1
 -2      1058      1115      1114      4248      4249      4244
 -1      2169    8    0    1
 -2      1059      1060      1116      4062      4250      4251
 -1      2170    8    0    1
 -2      1059      1116      1115      4251      4252      4247
 -1      2171    8    0    1
 -2      1063      1005      1117      4071      4253      4254
 -1      2172    8    0    1
 -2      1071      1063      1117      4112      4254      4255
 -1      2173    8    0    1
 -2      1005      1067      1117      4089      4256      4253
 -1      2174    8    0    1
 -2      1043      1044      1118      4014      4257      4258
 -1      2175    8    0    1
 -2      1044      1101      1118      4207      4259      4257
 -1      2176    8    0    1
 -2      1065      1041      1119      4103      4260      4261
 -1      2177    8    0    1
 -2      1065      1119      1097      4261      4262      4196
 -1      2178    8    0    1
 -2      1002       969      1037      4195      3995      4115
 -1      2179    8    0    1
 -2      1004      1066      1120      4087      4263      4264
 -1      2180    8    0    1
 -2       855       740       856      3685      3410      3675
 -1      2181    8    0    1
 -2      1043      1118      1099      4258      4265      4201
 -1      2182    8    0    1
 -2      1098      1038      1097      4198      4197      4266
 -1      2183    8    0    1
 -2      1041      1100      1119      4204      4267      4260
 -1      2184    8    0    1
 -2      1116      1060      1120      4250      4268      4269
 -1      2185    8    0    1
 -2      1120      1066      1121      4263      4270      4271
 -1      2186    8    0    1
 -2      1116      1120      1121      4269      4271      4272
 -1      2187    8    0    1
 -2      1066      1096      1121      4193      4273      4270
 -1      2188    8    0    1
 -2      1070      1004      1120      4109      4264      4274
 -1      2189    8    0    1
 -2      1013      1009      1068      3918      4093      4275
 -1      2190    8    0    1
 -2      1013      1068      1069      4275      4276      4101
 -1      2191    8    0    1
 -2      1072      1071      1122      4121      4277      4278
 -1      2192    8    0    1
 -2      1097      1119      1123      4262      4279      4280
 -1      2193    8    0    1
 -2      1103      1104      1124      4216      4281      4282
 -1      2194    8    0    1
 -2      1076      1075      1123      4133      4283      4284
 -1      2195    8    0    1
 -2      1077      1076      1123      4136      4284      4285
 -1      2196    8    0    1
 -2      1078      1077      1125      4139      4286      4287
 -1      2197    8    0    1
 -2      1079      1078      1099      4142      4288      4289
 -1      2198    8    0    1
 -2      1080      1079      1118      4145      4290      4291
 -1      2199    8    0    1
 -2      1081      1080      1101      4148      4292      4293
 -1      2200    8    0    1
 -2      1082      1081      1102      4151      4294      4295
 -1      2201    8    0    1
 -2      1083      1082      1124      4154      4296      4297
 -1      2202    8    0    1
 -2      1084      1083      1124      4157      4297      4298
 -1      2203    8    0    1
 -2      1085      1084      1126      4160      4299      4300
 -1      2204    8    0    1
 -2      1086      1085      1106      4163      4301      4302
 -1      2205    8    0    1
 -2      1087      1086      1107      4166      4303      4304
 -1      2206    8    0    1
 -2      1088      1087      1108      4169      4305      4306
 -1      2207    8    0    1
 -2      1089      1088      1109      4172      4307      4308
 -1      2208    8    0    1
 -2      1090      1089      1110      4175      4309      4310
 -1      2209    8    0    1
 -2      1091      1090      1111      4178      4311      4312
 -1      2210    8    0    1
 -2      1092      1091      1112      4181      4313      4314
 -1      2211    8    0    1
 -2      1093      1092      1113      4184      4315      4316
 -1      2212    8    0    1
 -2      1094      1093      1114      4187      4317      4318
 -1      2213    8    0    1
 -2      1095      1094      1115      4190      4319      4320
 -1      2214    8    0    1
 -2      1096      1095      1121      4194      4321      4273
 -1      2215    8    0    1
 -2      1100      1099      1125      4205      4322      4323
 -1      2216    8    0    1
 -2      1107      1086      1106      4303      4302      4225
 -1      2217    8    0    1
 -2      1075      1072      1127      4130      4324      4325
 -1      2218    8    0    1
 -2      1123      1075      1127      4283      4325      4326
 -1      2219    8    0    1
 -2      1072      1122      1127      4278      4327      4324
 -1      2220    8    0    1
 -2      1073      1098      1122      4200      4328      4329
 -1      2221    8    0    1
 -2      1098      1097      1127      4266      4330      4331
 -1      2222    8    0    1
 -2      1120      1060      1070      4268      4332      4274
 -1      2223    8    0    1
 -2      1101      1102      1081      4210      4294      4293
 -1      2224    8    0    1
 -2      1104      1105      1126      4219      4333      4334
 -1      2225    8    0    1
 -2      1105      1106      1126      4222      4335      4333
 -1      2226    8    0    1
 -2      1107      1108      1087      4228      4305      4304
 -1      2227    8    0    1
 -2      1108      1109      1088      4231      4307      4306
 -1      2228    8    0    1
 -2      1109      1110      1089      4234      4309      4308
 -1      2229    8    0    1
 -2      1110      1111      1090      4237      4311      4310
 -1      2230    8    0    1
 -2      1111      1112      1091      4240      4313      4312
 -1      2231    8    0    1
 -2      1112      1113      1092      4243      4315      4314
 -1      2232    8    0    1
 -2      1113      1114      1093      4246      4317      4316
 -1      2233    8    0    1
 -2      1114      1115      1094      4249      4319      4318
 -1      2234    8    0    1
 -2      1115      1116      1121      4252      4272      4336
 -1      2235    8    0    1
 -2      1119      1100      1125      4267      4323      4337
 -1      2236    8    0    1
 -2      1099      1118      1079      4265      4290      4289
 -1      2237    8    0    1
 -2      1118      1101      1080      4259      4292      4291
 -1      2238    8    0    1
 -2      1095      1115      1121      4320      4336      4321
 -1      2239    8    0    1
 -2      1074      1073      1122      4127      4329      4338
 -1      2240    8    0    1
 -2      1097      1123      1127      4280      4326      4330
 -1      2241    8    0    1
 -2      1067      1074      1117      4126      4339      4256
 -1      2242    8    0    1
 -2      1077      1123      1125      4285      4340      4286
 -1      2243    8    0    1
 -2      1104      1126      1124      4334      4341      4281
 -1      2244    8    0    1
 -2      1082      1102      1124      4295      4342      4296
 -1      2245    8    0    1
 -2      1084      1124      1126      4298      4341      4299
 -1      2246    8    0    1
 -2      1098      1127      1122      4331      4327      4328
 -1      2247    8    0    1
 -2      1071      1117      1122      4255      4343      4277
 -1      2248    8    0    1
 -2      1119      1125      1123      4337      4340      4279
 -1      2249    8    0    1
 -2      1106      1085      1126      4301      4300      4335
 -1      2250    8    0    1
 -2      1099      1078      1125      4288      4287      4322
 -1      2251    8    0    1
 -2      1074      1122      1117      4338      4343      4339
 -1      2252    8    0    1
 -2      1102      1103      1124      4213      4282      4342
 -1      2253    8    0    1
 -2      1069      1068      1070      4276      4108      4344
 -1      2254    8    0    1
 -2      1070      1060      1069      4332      4100      4344
 -3
    1PSTEP                         1           1           1          
  100CL  101 1.000000000        4344                     0    1           1
 -4  DISP        4    1
 -5  D1          1    2    1    0
 -5  D2          1    2    2    0
 -5  D3          1    2    3    0
 -5  ALL         1    2    0    0    1ALL
 -1         1 4.07076E-03-1.18456E-03-6.71881E-15
 -1         2 6.21749E-03-3.37217E-04-1.03504E-14
 -1         3 1.47854E-02-1.23968E-03-1.26084E-13
 -1         4 1.56543E-02-2.66915E-03-1.16685E-13
 -1         5 0.00000E+00 0.00000E+00 0.00000E+00
 -1         6 0.00000E+00 0.00000E+00 0.00000E+00
 -1         7 0.00000E+00 0.00000E+00 0.00000E+00
 -1         8 0.00000E+00 0.00000E+00 0.00000E+00
 -1         9 0.00000E+00 0.00000E+00 0.00000E+00
 -1        10 0.00000E+00 0.00000E+00 0.00000E+00
 -1        11 0.00000E+00 0.00000E+00 0.00000E+00
 -1        12 0.00000E+00 0.00000E+00 0.00000E+00
 -1        13 0.00000E+00 0.00000E+00 0.00000E+00
 -1        14 0.00000E+00 0.00000E+00 0.00000E+00
 -1        15 0.00000E+00 0.00000E+00 0.00000E+00
 -1        16 0.00000E+00 0.00000E+00 0.00000E+00
 -1        17 0.00000E+00 0.00000E+00 0.00000E+00
 -1        18 0.00000E+00 0.00000E+00 0.00000E+00
 -1        19 0.00000E+00 0.00000E+00 0.00000E+00
 -1        20 0.00000E+00 0.00000E+00 0.00000E+00
 -1        21 0.00000E+00 0.00000E+00 0.00000E+00
 -1        22 0.00000E+00 0.00000E+00 0.00000E+00
 -1        23 4.34870E-04-2.45573E-04 7.05477E-17
 -1        24 7.66280E-04-3.66911E-04 6.54960E-17
 -1        25 1.09112E-03-4.54794E-04-2.04711E-17
 -1        26 1.42422E-03-5.28964E-04-1.91934E-16
 -1        27 1.77044E-03-6.03726E-04-4.52682E-16
 -1        28 2.13115E-03-6.90800E-04-8.06968E-16
 -1        29 2.50342E-03-8.00547E-04-1.26052E-15
 -1        30 2.87858E-03-9.39689E-04-1.81543E-15
 -1        31 3.24183E-03-1.10628E-03-2.48022E-15
 -1        32 3.57589E-03-1.28374E-03-3.26216E-15
 -1        33 3.86999E-03-1.43941E-03-4.16221E-15
 -1        34 4.13041E-03-1.53457E-03-5.18752E-15
 -1        35 4.38223E-03-1.54523E-03-6.34777E-15
 -1        36 4.65636E-03-1.47818E-03-7.64511E-15
 -1        37 4.97137E-03-1.36673E-03-9.07652E-15
 -1        38 5.32597E-03-1.25042E-03-1.06358E-14
 -1        39 5.70533E-03-1.15744E-03-1.23134E-14
 -1        40 6.09206E-03-1.09958E-03-1.41021E-14
 -1        41 6.47313E-03-1.07649E-03-1.59922E-14
 -1        42 6.84153E-03-1.08200E-03-1.79841E-14
 -1        43 7.19497E-03-1.10852E-03-2.00900E-14
 -1        44 7.53399E-03-1.14934E-03-2.23125E-14
 -1        45 7.86041E-03-1.19926E-03-2.46509E-14
 -1        46 8.17648E-03-1.25456E-03-2.70997E-14
 -1        47 8.48433E-03-1.31273E-03-2.96522E-14
 -1        48 8.78586E-03-1.37213E-03-3.23072E-14
 -1        49 9.08260E-03-1.43174E-03-3.50511E-14
 -1        50 9.37579E-03-1.49098E-03-3.78865E-14
 -1        51 9.66639E-03-1.54952E-03-4.08002E-14
 -1        52 9.95514E-03-1.60723E-03-4.37833E-14
 -1        53 1.02426E-02-1.66408E-03-4.68328E-14
 -1        54 1.05291E-02-1.72011E-03-4.99605E-14
 -1        55 1.08151E-02-1.77540E-03-5.31623E-14
 -1        56 1.11007E-02-1.83005E-03-5.64336E-14
 -1        57 1.13861E-02-1.88415E-03-5.97671E-14
 -1        58 1.16714E-02-1.93779E-03-6.31733E-14
 -1        59 1.19567E-02-1.99107E-03-6.66502E-14
 -1        60 1.22419E-02-2.04404E-03-7.01840E-14
 -1        61 1.25272E-02-2.09679E-03-7.37794E-14
 -1        62 1.28126E-02-2.14936E-03-7.74447E-14
 -1        63 1.30980E-02-2.20179E-03-8.11850E-14
 -1        64 1.33835E-02-2.25412E-03-8.49824E-14
 -1        65 1.36690E-02-2.30639E-03-8.88390E-14
 -1        66 1.39545E-02-2.35861E-03-9.27533E-14
 -1        67 1.42401E-02-2.41080E-03-9.67265E-14
 -1        68 1.45258E-02-2.46298E-03-1.00719E-13
 -1        69 1.48115E-02-2.51515E-03-1.04724E-13
 -1        70 1.50972E-02-2.56734E-03-1.08747E-13
 -1        71 1.53829E-02-2.61954E-03-1.12802E-13
 -1        72 4.33281E-04 2.53364E-04 2.63732E-17
 -1        73 7.52917E-04 3.84294E-04-6.54926E-17
 -1        74 1.06248E-03 4.76815E-04-2.69516E-16
 -1        75 1.37222E-03 5.52559E-04-5.86171E-16
 -1        76 1.68469E-03 6.22127E-04-1.01540E-15
 -1        77 1.99895E-03 6.92083E-04-1.55754E-15
 -1        78 2.31162E-03 7.65734E-04-2.21448E-15
 -1        79 2.61760E-03 8.42667E-04-2.98938E-15
 -1        80 2.91137E-03 9.18048E-04-3.88519E-15
 -1        81 3.18893E-03 9.82682E-04-4.90547E-15
 -1        82 3.45006E-03 1.02473E-03-6.05462E-15
 -1        83 3.69968E-03 1.03327E-03-7.33435E-15
 -1        84 3.94697E-03 1.00246E-03-8.74444E-15
 -1        85 4.20236E-03 9.34187E-04-1.02861E-14
 -1        86 4.47377E-03 8.37421E-04-1.19597E-14
 -1        87 4.76425E-03 7.24902E-04-1.37547E-14
 -1        88 5.07193E-03 6.09027E-04-1.56646E-14
 -1        89 5.39186E-03 4.98995E-04-1.76855E-14
 -1        90 5.71816E-03 3.99898E-04-1.98185E-14
 -1        91 6.04567E-03 3.13298E-04-2.20646E-14
 -1        92 6.37069E-03 2.38405E-04-2.44190E-14
 -1        93 6.69105E-03 1.73238E-04-2.68688E-14
 -1        94 7.00580E-03 1.15452E-04-2.94225E-14
 -1        95 7.31491E-03 6.28401E-05-3.20682E-14
 -1        96 7.61880E-03 1.35534E-05-3.48069E-14
 -1        97 7.91820E-03-3.38347E-05-3.76371E-14
 -1        98 8.21389E-03-8.03554E-05-4.05623E-14
 -1        99 8.50661E-03-1.26709E-04-4.35696E-14
 -1       100 8.79707E-03-1.73338E-04-4.66557E-14
 -1       101 9.08581E-03-2.20494E-04-4.98267E-14
 -1       102 9.37332E-03-2.68294E-04-5.30745E-14
 -1       103 9.65996E-03-3.16767E-04-5.63990E-14
 -1       104 9.94601E-03-3.65886E-04-5.98004E-14
 -1       105 1.02317E-02-4.15591E-04-6.32755E-14
 -1       106 1.05171E-02-4.65809E-04-6.68365E-14
 -1       107 1.08025E-02-5.16459E-04-7.04791E-14
 -1       108 1.10877E-02-5.67468E-04-7.41860E-14
 -1       109 1.13730E-02-6.18766E-04-7.79584E-14
 -1       110 1.16583E-02-6.70291E-04-8.17898E-14
 -1       111 1.19437E-02-7.21994E-04-8.56809E-14
 -1       112 1.22291E-02-7.73829E-04-8.96361E-14
 -1       113 1.25145E-02-8.25763E-04-9.36309E-14
 -1       114 1.28001E-02-8.77766E-04-9.76664E-14
 -1       115 1.30856E-02-9.29816E-04-1.01740E-13
 -1       116 1.33712E-02-9.81894E-04-1.05820E-13
 -1       117 1.36569E-02-1.03399E-03-1.09904E-13
 -1       118 1.39426E-02-1.08608E-03-1.13985E-13
 -1       119 1.42283E-02-1.13816E-03-1.18079E-13
 -1       120 1.45140E-02-1.19023E-03-1.22187E-13
 -1       121 1.48366E-02-1.32396E-03-1.25570E-13
 -1       122 1.48878E-02-1.40825E-03-1.25043E-13
 -1       123 1.49389E-02-1.49255E-03-1.24491E-13
 -1       124 1.49901E-02-1.57687E-03-1.23946E-13
 -1       125 1.50412E-02-1.66122E-03-1.23425E-13
 -1       126 1.50915E-02-1.74415E-03-1.22940E-13
 -1       127 1.51427E-02-1.82853E-03-1.22433E-13
 -1       128 1.51940E-02-1.91293E-03-1.21898E-13
 -1       129 1.52452E-02-1.99733E-03-1.21353E-13
 -1       130 1.52965E-02-2.08172E-03-1.20788E-13
 -1       131 1.53479E-02-2.16610E-03-1.20206E-13
 -1       132 1.53984E-02-2.24904E-03-1.19664E-13
 -1       133 1.54497E-02-2.33338E-03-1.19102E-13
 -1       134 1.55011E-02-2.41770E-03-1.18512E-13
 -1       135 1.55525E-02-2.50200E-03-1.17899E-13
 -1       136 1.56038E-02-2.58629E-03-1.17292E-13
 -1       137 6.14289E-03-1.56850E-04-1.03655E-14
 -1       138 5.97054E-03 1.35790E-05-1.02077E-14
 -1       139 5.72543E-03 1.65043E-04-9.91595E-15
 -1       140 5.39573E-03 3.03555E-04-9.48593E-15
 -1       141 5.01142E-03 4.14550E-04-8.96174E-15
 -1       142 4.51844E-03 5.05978E-04-8.27589E-15
 -1       143 4.07380E-03 5.45959E-04-7.66494E-15
 -1       144 3.59791E-03 5.49799E-04-7.01809E-15
 -1       145 3.13146E-03 5.11777E-04-6.39158E-15
 -1       146 2.71972E-03 4.38122E-04-5.84692E-15
 -1       147 2.37245E-03 3.35445E-04-5.38956E-15
 -1       148 2.05077E-03 1.82522E-04-4.95554E-15
 -1       149 1.87787E-03 4.08953E-05-4.70441E-15
 -1       150 1.77740E-03-1.29787E-04-4.52429E-15
 -1       151 1.77869E-03-2.93781E-04-4.46058E-15
 -1       152 1.87645E-03-4.70289E-04-4.49248E-15
 -1       153 2.05415E-03-6.32740E-04-4.61642E-15
 -1       154 2.31729E-03-7.90592E-04-4.83668E-15
 -1       155 2.65982E-03-9.34811E-04-5.15601E-15
 -1       156 3.09624E-03-1.06157E-03-5.59859E-15
 -1       157 3.60496E-03-1.15109E-03-6.16105E-15
 -1       158 4.51671E-03-1.17512E-03-7.29833E-15
 -1       159 4.96398E-03-1.12131E-03-7.93493E-15
 -1       160 5.33525E-03-1.03845E-03-8.50837E-15
 -1       161 5.66291E-03-9.24713E-04-9.06076E-15
 -1       162 5.91333E-03-7.95352E-04-9.53091E-15
 -1       163 6.09599E-03-6.48805E-04-9.92073E-15
 -1       164 6.19662E-03-4.95738E-04-1.01941E-14
 -1       165 2.61993E-04-1.00731E-04 9.22927E-18
 -1       166 2.39358E-04-6.42020E-05-1.08827E-17
 -1       167 2.23937E-04-4.10515E-05-2.43945E-17
 -1       168 2.11418E-04-2.62649E-05-3.36204E-17
 -1       169 2.01694E-04-1.75253E-05-3.98241E-17
 -1       170 1.94926E-04-1.26430E-05-4.39949E-17
 -1       171 1.91704E-04-9.85930E-06-4.68816E-17
 -1       172 1.92045E-04-7.22491E-06-4.88331E-17
 -1       173 1.95526E-04-3.01850E-06-4.97446E-17
 -1       174 2.01411E-04 4.03635E-06-5.00088E-17
 -1       175 2.08773E-04 1.45109E-05-4.95345E-17
 -1       176 2.17319E-04 2.92387E-05-4.78912E-17
 -1       177 2.26903E-04 4.86822E-05-4.42354E-17
 -1       178 2.38625E-04 7.44204E-05-3.68290E-17
 -1       179 2.57008E-04 1.11368E-04-2.25107E-17
 -1       180 3.18974E-04 1.73001E-04-7.65718E-18
 -1       181 5.15259E-04-2.27821E-04 1.75370E-17
 -1       182 8.53202E-04-3.28880E-04-5.76931E-17
 -1       183 1.18561E-03-4.06215E-04-2.12825E-16
 -1       184 1.52129E-03-4.76577E-04-4.53874E-16
 -1       185 1.86413E-03-5.52961E-04-7.84715E-16
 -1       186 2.21529E-03-6.47372E-04-1.20966E-15
 -1       187 2.57290E-03-7.70032E-04-1.73407E-15
 -1       188 2.93162E-03-9.25566E-04-2.36151E-15
 -1       189 3.28312E-03-1.10637E-03-3.10017E-15
 -1       190 3.61884E-03-1.28652E-03-3.95472E-15
 -1       191 3.93575E-03-1.42436E-03-4.93200E-15
 -1       192 4.24122E-03-1.48066E-03-6.03793E-15
 -1       193 4.55062E-03-1.44421E-03-7.28285E-15
 -1       194 4.87711E-03-1.34050E-03-8.66373E-15
 -1       195 5.22375E-03-1.21381E-03-1.01760E-14
 -1       196 5.58435E-03-1.10225E-03-1.18105E-14
 -1       197 5.94954E-03-1.02564E-03-1.35574E-14
 -1       198 6.31139E-03-9.87630E-04-1.54108E-14
 -1       199 6.66504E-03-9.82932E-04-1.73649E-14
 -1       200 7.00837E-03-1.00333E-03-1.94259E-14
 -1       201 7.34116E-03-1.04101E-03-2.16006E-14
 -1       202 7.66423E-03-1.08976E-03-2.38890E-14
 -1       203 7.97892E-03-1.14508E-03-2.62914E-14
 -1       204 8.28664E-03-1.20393E-03-2.88017E-14
 -1       205 8.58875E-03-1.26432E-03-3.14147E-14
 -1       206 8.88646E-03-1.32504E-03-3.41222E-14
 -1       207 9.18076E-03-1.38535E-03-3.69198E-14
 -1       208 9.47249E-03-1.44488E-03-3.98004E-14
 -1       209 9.76229E-03-1.50345E-03-4.27544E-14
 -1       210 1.00507E-02-1.56105E-03-4.57834E-14
 -1       211 1.03381E-02-1.61770E-03-4.88789E-14
 -1       212 1.06247E-02-1.67350E-03-5.20505E-14
 -1       213 1.09109E-02-1.72856E-03-5.52949E-14
 -1       214 1.11968E-02-1.78298E-03-5.86015E-14
 -1       215 1.14824E-02-1.83687E-03-6.19778E-14
 -1       216 1.17679E-02-1.89033E-03-6.54287E-14
 -1       217 1.20534E-02-1.94345E-03-6.89410E-14
 -1       218 1.23389E-02-1.99630E-03-7.25132E-14
 -1       219 1.26244E-02-2.04894E-03-7.61493E-14
 -1       220 1.29098E-02-2.10143E-03-7.98571E-14
 -1       221 1.31954E-02-2.15379E-03-8.36326E-14
 -1       222 1.34809E-02-2.20608E-03-8.74684E-14
 -1       223 1.37665E-02-2.25831E-03-9.13504E-14
 -1       224 1.40521E-02-2.31050E-03-9.52876E-14
 -1       225 1.43378E-02-2.36268E-03-9.92610E-14
 -1       226 1.46234E-02-2.41485E-03-1.03258E-13
 -1       227 1.49091E-02-2.46702E-03-1.07277E-13
 -1       228 1.51948E-02-2.51921E-03-1.11322E-13
 -1       229 6.53230E-04 3.05255E-04-1.09820E-16
 -1       230 9.74753E-04 4.00793E-04-3.17559E-16
 -1       231 1.29053E-03 4.77475E-04-6.33191E-16
 -1       232 1.60494E-03 5.46955E-04-1.05829E-15
 -1       233 1.91900E-03 6.16633E-04-1.59304E-15
 -1       234 2.23148E-03 6.90564E-04-2.24043E-15
 -1       235 2.53968E-03 7.69001E-04-3.00307E-15
 -1       236 2.84036E-03 8.47535E-04-3.88490E-15
 -1       237 3.13097E-03 9.16882E-04-4.88840E-15
 -1       238 3.41117E-03 9.64436E-04-6.01887E-15
 -1       239 3.68379E-03 9.77967E-04-7.27921E-15
 -1       240 3.95444E-03 9.50367E-04-8.66818E-15
 -1       241 4.22973E-03 8.82873E-04-1.01881E-14
 -1       242 4.51485E-03 7.84728E-04-1.18367E-14
 -1       243 4.81193E-03 6.69552E-04-1.36071E-14
 -1       244 5.11997E-03 5.50737E-04-1.54962E-14
 -1       245 5.43586E-03 4.38204E-04-1.74998E-14
 -1       246 5.75581E-03 3.37389E-04-1.96132E-14
 -1       247 6.07637E-03 2.49889E-04-2.18344E-14
 -1       248 6.39495E-03 1.74778E-04-2.41647E-14
 -1       249 6.70995E-03 1.09875E-04-2.65946E-14
 -1       250 7.02063E-03 5.26493E-05-2.91265E-14
 -1       251 7.32684E-03 7.39489E-07-3.17508E-14
 -1       252 7.62887E-03-4.78106E-05-3.44707E-14
 -1       253 7.92718E-03-9.44961E-05-3.72815E-14
 -1       254 8.22236E-03-1.40387E-04-4.01843E-14
 -1       255 8.51499E-03-1.86200E-04-4.31719E-14
 -1       256 8.80559E-03-2.32381E-04-4.62396E-14
 -1       257 9.09463E-03-2.79175E-04-4.93898E-14
 -1       258 9.38251E-03-3.26692E-04-5.26206E-14
 -1       259 9.66953E-03-3.74948E-04-5.59275E-14
 -1       260 9.95596E-03-4.23904E-04-5.93120E-14
 -1       261 1.02420E-02-4.73490E-04-6.27750E-14
 -1       262 1.05277E-02-5.23623E-04-6.63191E-14
 -1       263 1.08133E-02-5.74216E-04-6.99390E-14
 -1       264 1.10988E-02-6.25186E-04-7.36237E-14
 -1       265 1.13842E-02-6.76460E-04-7.73694E-14
 -1       266 1.16697E-02-7.27972E-04-8.11768E-14
 -1       267 1.19551E-02-7.79668E-04-8.50440E-14
 -1       268 1.22406E-02-8.31502E-04-8.89782E-14
 -1       269 1.25261E-02-8.83438E-04-9.29570E-14
 -1       270 1.28117E-02-9.35445E-04-9.69761E-14
 -1       271 1.30973E-02-9.87501E-04-1.01029E-13
 -1       272 1.33829E-02-1.03958E-03-1.05092E-13
 -1       273 1.36686E-02-1.09168E-03-1.09163E-13
 -1       274 1.39542E-02-1.14378E-03-1.13241E-13
 -1       275 1.42399E-02-1.19587E-03-1.17330E-13
 -1       276 1.45256E-02-1.24794E-03-1.21429E-13
 -1       277 1.46147E-02-1.32103E-03-1.21762E-13
 -1       278 1.46659E-02-1.40533E-03-1.21243E-13
 -1       279 1.47171E-02-1.48964E-03-1.20717E-13
 -1       280 1.47682E-02-1.57397E-03-1.20194E-13
 -1       281 1.48185E-02-1.65688E-03-1.19688E-13
 -1       282 1.48697E-02-1.74124E-03-1.19169E-13
 -1       283 1.49209E-02-1.82561E-03-1.18639E-13
 -1       284 1.49721E-02-1.90998E-03-1.18102E-13
 -1       285 1.50234E-02-1.99435E-03-1.17553E-13
 -1       286 1.50747E-02-2.07872E-03-1.16994E-13
 -1       287 1.51252E-02-2.16165E-03-1.16441E-13
 -1       288 1.51766E-02-2.24599E-03-1.15868E-13
 -1       289 1.52280E-02-2.33032E-03-1.15281E-13
 -1       290 1.52794E-02-2.41463E-03-1.14677E-13
 -1       291 1.52371E-02-2.46692E-03-1.13003E-13
 -1       292 6.21391E-03-3.08343E-04-1.11791E-14
 -1       293 6.03987E-03-2.12309E-04-1.11782E-14
 -1       294 5.76643E-03-6.07247E-05-1.07429E-14
 -1       295 5.41960E-03 1.06138E-04-1.02805E-14
 -1       296 5.03303E-03 2.89735E-04-9.67801E-15
 -1       297 4.59791E-03 4.69461E-04-8.98539E-15
 -1       298 4.21828E-03 5.89294E-04-8.12210E-15
 -1       299 3.84575E-03 6.33267E-04-7.37976E-15
 -1       300 3.46808E-03 5.85540E-04-6.61792E-15
 -1       301 3.07827E-03 4.60836E-04-5.94335E-15
 -1       302 2.69517E-03 3.05583E-04-5.38964E-15
 -1       303 2.32650E-03 1.15249E-04-4.82464E-15
 -1       304 2.00053E-03-6.58701E-06-4.54597E-15
 -1       305 1.80769E-03-1.25945E-04-4.23190E-15
 -1       306 1.74040E-03-2.08962E-04-4.18561E-15
 -1       307 1.80608E-03-2.98866E-04-4.14467E-15
 -1       308 1.99703E-03-4.18989E-04-4.24650E-15
 -1       309 2.28109E-03-5.65680E-04-4.42662E-15
 -1       310 2.63827E-03-7.46619E-04-4.71262E-15
 -1       311 3.06278E-03-9.43791E-04-5.08993E-15
 -1       312 3.50258E-03-1.13822E-03-5.64238E-15
 -1       313 3.89679E-03-1.24727E-03-6.31394E-15
 -1       314 4.25971E-03-1.25845E-03-6.98345E-15
 -1       315 4.62219E-03-1.19122E-03-7.71570E-15
 -1       316 5.00058E-03-1.05552E-03-8.43321E-15
 -1       317 5.34927E-03-8.93393E-04-9.14682E-15
 -1       318 5.68412E-03-7.37976E-04-9.75700E-15
 -1       319 5.95574E-03-5.94474E-04-1.03321E-14
 -1       320 6.15185E-03-4.86941E-04-1.07090E-14
 -1       321 6.24187E-03-3.95234E-04-1.09766E-14
 -1       322 4.74637E-04-1.10390E-04-8.77120E-17
 -1       323 5.13741E-04-1.62874E-04-5.03273E-17
 -1       324 4.17268E-04-5.03031E-05-1.34946E-16
 -1       325 3.98218E-04-3.51429E-05-1.49420E-16
 -1       326 3.87045E-04-2.55352E-05-1.59788E-16
 -1       327 3.84264E-04-1.79124E-05-1.66933E-16
 -1       328 3.89315E-04-8.85896E-06-1.71558E-16
 -1       329 4.00677E-04 4.38779E-06-1.73899E-16
 -1       330 4.16112E-04 2.32758E-05-1.74004E-16
 -1       331 4.34531E-04 4.94726E-05-1.71666E-16
 -1       332 4.55023E-04 8.35065E-05-1.65480E-16
 -1       333 4.78617E-04 1.26870E-04-1.52906E-16
 -1       334 5.10040E-04 1.83393E-04-1.30274E-16
 -1       335 5.74326E-04 2.39932E-04-1.25327E-16
 -1       336 8.94914E-04 3.35540E-04-3.32809E-16
 -1       337 9.48228E-04-2.88996E-04-2.09580E-16
 -1       338 1.27214E-03-3.57875E-04-4.32376E-16
 -1       339 1.59970E-03-4.25962E-04-7.41913E-16
 -1       340 1.93406E-03-5.05130E-04-1.14139E-15
 -1       341 2.27785E-03-6.07211E-04-1.63609E-15
 -1       342 2.63222E-03-7.42107E-04-2.22960E-15
 -1       343 2.99494E-03-9.12718E-04-2.92586E-15
 -1       344 3.35857E-03-1.10604E-03-3.73436E-15
 -1       345 3.71285E-03-1.28535E-03-4.66179E-15
 -1       346 4.05349E-03-1.39689E-03-5.71522E-15
 -1       347 4.38983E-03-1.40271E-03-6.90426E-15
 -1       348 4.73636E-03-1.31346E-03-8.23548E-15
 -1       349 5.09709E-03-1.17926E-03-9.70228E-15
 -1       350 5.46403E-03-1.05100E-03-1.12955E-14
 -1       351 5.82681E-03-9.57229E-04-1.30024E-14
 -1       352 6.17964E-03-9.05041E-04-1.48173E-14
 -1       353 6.52117E-03-8.89898E-04-1.67348E-14
 -1       354 6.85230E-03-9.03250E-04-1.87561E-14
 -1       355 7.17453E-03-9.36603E-04-2.08854E-14
 -1       356 7.48933E-03-9.83029E-04-2.31261E-14
 -1       357 7.79797E-03-1.03741E-03-2.54791E-14
 -1       358 8.10154E-03-1.09621E-03-2.79443E-14
 -1       359 8.40098E-03-1.15708E-03-3.05140E-14
 -1       360 8.69709E-03-1.21853E-03-3.31843E-14
 -1       361 8.99054E-03-1.27970E-03-3.59465E-14
 -1       362 9.28192E-03-1.34008E-03-3.87940E-14
 -1       363 9.57168E-03-1.39947E-03-4.17205E-14
 -1       364 9.86023E-03-1.45778E-03-4.47180E-14
 -1       365 1.01479E-02-1.51506E-03-4.77892E-14
 -1       366 1.04348E-02-1.57138E-03-5.09321E-14
 -1       367 1.07213E-02-1.62687E-03-5.41489E-14
 -1       368 1.10074E-02-1.68163E-03-5.74325E-14
 -1       369 1.12933E-02-1.73580E-03-6.07807E-14
 -1       370 1.15791E-02-1.78948E-03-6.42009E-14
 -1       371 1.18648E-02-1.84277E-03-6.76899E-14
 -1       372 1.21504E-02-1.89574E-03-7.12419E-14
 -1       373 1.24360E-02-1.94847E-03-7.48522E-14
 -1       374 1.27216E-02-2.00102E-03-7.85303E-14
 -1       375 1.30071E-02-2.05344E-03-8.22774E-14
 -1       376 1.32928E-02-2.10575E-03-8.60900E-14
 -1       377 1.35784E-02-2.15800E-03-8.99561E-14
 -1       378 1.38640E-02-2.21020E-03-9.38608E-14
 -1       379 1.41497E-02-2.26237E-03-9.78108E-14
 -1       380 1.44353E-02-2.31454E-03-1.01791E-13
 -1       381 1.47210E-02-2.36671E-03-1.05803E-13
 -1       382 1.49791E-02-2.41681E-03-1.09394E-13
 -1       383 1.21194E-03 4.12616E-04-6.44311E-16
 -1       384 1.52737E-03 4.81720E-04-1.06236E-15
 -1       385 1.84253E-03 5.50548E-04-1.58755E-15
 -1       386 2.15726E-03 6.23814E-04-2.22305E-15
 -1       387 2.47000E-03 7.02610E-04-2.97160E-15
 -1       388 2.77828E-03 7.83326E-04-3.83652E-15
 -1       389 3.07956E-03 8.57049E-04-4.82160E-15
 -1       390 3.37269E-03 9.10650E-04-5.93141E-15
 -1       391 3.65916E-03 9.30443E-04-7.17004E-15
 -1       392 3.94327E-03 9.07566E-04-8.53650E-15
 -1       393 4.23056E-03 8.42209E-04-1.00338E-14
 -1       394 4.52536E-03 7.43744E-04-1.16586E-14
 -1       395 4.82918E-03 6.26737E-04-1.34080E-14
 -1       396 5.14075E-03 5.05637E-04-1.52755E-14
 -1       397 5.45721E-03 3.91076E-04-1.72589E-14
 -1       398 5.77544E-03 2.88790E-04-1.93513E-14
 -1       399 6.09287E-03 2.00405E-04-2.15509E-14
 -1       400 6.40774E-03 1.24903E-04-2.38581E-14
 -1       401 6.71909E-03 5.99745E-05-2.62675E-14
 -1       402 7.02653E-03 2.96632E-06-2.87770E-14
 -1       403 7.33011E-03-4.85824E-05-3.13812E-14
 -1       404 7.63013E-03-9.67032E-05-3.40817E-14
 -1       405 7.92702E-03-1.42944E-04-3.68724E-14
 -1       406 8.22124E-03-1.88410E-04-3.97558E-14
 -1       407 8.51329E-03-2.33837E-04-4.27227E-14
 -1       408 8.80359E-03-2.79682E-04-4.57723E-14
 -1       409 9.09253E-03-3.26193E-04-4.89047E-14
 -1       410 9.38043E-03-3.73476E-04-5.21165E-14
 -1       411 9.66756E-03-4.21545E-04-5.54062E-14
 -1       412 9.95412E-03-4.70353E-04-5.87741E-14
 -1       413 1.02403E-02-5.19826E-04-6.22213E-14
 -1       414 1.05262E-02-5.69873E-04-6.57517E-14
 -1       415 1.08119E-02-6.20403E-04-6.93523E-14
 -1       416 1.10976E-02-6.71328E-04-7.30161E-14
 -1       417 1.13831E-02-7.22570E-04-7.67401E-14
 -1       418 1.16687E-02-7.74060E-04-8.05240E-14
 -1       419 1.19542E-02-8.25743E-04-8.43716E-14
 -1       420 1.22398E-02-8.77569E-04-8.82869E-14
 -1       421 1.25253E-02-9.29501E-04-9.22481E-14
 -1       422 1.28109E-02-9.81508E-04-9.62537E-14
 -1       423 1.30965E-02-1.03356E-03-1.00289E-13
 -1       424 1.33822E-02-1.08565E-03-1.04341E-13
 -1       425 1.36678E-02-1.13775E-03-1.08404E-13
 -1       426 1.39535E-02-1.18985E-03-1.12474E-13
 -1       427 1.42392E-02-1.24194E-03-1.16558E-13
 -1       428 1.44270E-02-1.28149E-03-1.19158E-13
 -1       429 1.44952E-02-1.48670E-03-1.16950E-13
 -1       430 1.44440E-02-1.40239E-03-1.17457E-13
 -1       431 1.44355E-02-1.34194E-03-1.18308E-13
 -1       432 1.45455E-02-1.56960E-03-1.16444E-13
 -1       433 1.45966E-02-1.65394E-03-1.15922E-13
 -1       434 1.46478E-02-1.73829E-03-1.15389E-13
 -1       435 1.46991E-02-1.82265E-03-1.14853E-13
 -1       436 1.47503E-02-1.90701E-03-1.14317E-13
 -1       437 1.48016E-02-1.99137E-03-1.13769E-13
 -1       438 1.48521E-02-2.07429E-03-1.13220E-13
 -1       439 1.49035E-02-2.15863E-03-1.12647E-13
 -1       440 1.49548E-02-2.24296E-03-1.12061E-13
 -1       441 1.50062E-02-2.32727E-03-1.11463E-13
 -1       442 5.86547E-03-1.96474E-04-1.16827E-14
 -1       443 6.26362E-03-3.68358E-04-1.18808E-14
 -1       444 6.16669E-03-3.20238E-04-1.21969E-14
 -1       445 5.54630E-03-5.15983E-05-1.11847E-14
 -1       446 5.15492E-03 1.45386E-04-1.05315E-14
 -1       447 4.42942E-04-7.42911E-05-1.14929E-16
 -1       448 4.30477E-03 5.71851E-04-8.71711E-15
 -1       449 4.02577E-03 6.52653E-04-7.93670E-15
 -1       450 3.68267E-03 6.50836E-04-6.99531E-15
 -1       451 3.30750E-03 5.33305E-04-6.13120E-15
 -1       452 2.93329E-03 3.59409E-04-5.43103E-15
 -1       453 2.57427E-03 1.80203E-04-4.86727E-15
 -1       454 2.13145E-03-1.62917E-05-4.32564E-15
 -1       455 1.89753E-03-1.08798E-04-4.02227E-15
 -1       456 1.72961E-03-1.80366E-04-3.80526E-15
 -1       457 1.73688E-03-2.19436E-04-3.76408E-15
 -1       458 1.89838E-03-2.98457E-04-3.86485E-15
 -1       459 2.16588E-03-4.01910E-04-3.94532E-15
 -1       460 2.52644E-03-5.66851E-04-4.15383E-15
 -1       461 2.87762E-03-7.59703E-04-4.48633E-15
 -1       462 3.35481E-03-1.02690E-03-4.99062E-15
 -1       463 3.77852E-03-1.23748E-03-5.79886E-15
 -1       464 4.04263E-03-1.29872E-03-6.43197E-15
 -1       465 4.39635E-03-1.26839E-03-7.32085E-15
 -1       466 4.78262E-03-1.12118E-03-8.32843E-15
 -1       467 5.07848E-03-9.68842E-04-9.04431E-15
 -1       468 5.48039E-03-7.52451E-04-1.00503E-14
 -1       469 5.75634E-03-6.19273E-04-1.06434E-14
 -1       470 6.06859E-03-4.86063E-04-1.12758E-14
 -1       471 6.20924E-03-4.24687E-04-1.15530E-14
 -1       472 4.77244E-03 3.43782E-04-9.86520E-15
 -1       473 4.51018E-03 4.72213E-04-9.57233E-15
 -1       474 2.33349E-03 5.95168E-05-4.35729E-15
 -1       475 9.99553E-04 2.98862E-04-5.26489E-16
 -1       476 5.89675E-04-4.97417E-05-3.32264E-16
 -1       477 6.14942E-04-6.92334E-05-3.09052E-16
 -1       478 5.81400E-04-2.09863E-05-3.61080E-16
 -1       479 5.96397E-04-2.27610E-06-3.68375E-16
 -1       480 6.19631E-04 2.34011E-05-3.71478E-16
 -1       481 6.48513E-04 5.85229E-05-3.70164E-16
 -1       482 6.80454E-04 1.03326E-04-3.63601E-16
 -1       483 7.15343E-04 1.58305E-04-3.48957E-16
 -1       484 1.31240E-03 3.66738E-04-8.99817E-16
 -1       485 1.03672E-03-2.51762E-04-3.91065E-16
 -1       486 4.97644E-03 2.08605E-04-1.08275E-14
 -1       487 1.34558E-03-3.12508E-04-6.80181E-16
 -1       488 1.66006E-03-3.77254E-04-1.05604E-15
 -1       489 1.98435E-03-4.56785E-04-1.52301E-15
 -1       490 2.32408E-03-5.63033E-04-2.08408E-15
 -1       491 2.68424E-03-7.07674E-04-2.74279E-15
 -1       492 3.06416E-03-8.95662E-04-3.50457E-15
 -1       493 3.45241E-03-1.10844E-03-4.37984E-15
 -1       494 3.83276E-03-1.28958E-03-5.37867E-15
 -1       495 4.20019E-03-1.35990E-03-6.51330E-15
 -1       496 4.57194E-03-1.29315E-03-7.79005E-15
 -1       497 4.95706E-03-1.14602E-03-9.21070E-15
 -1       498 5.34516E-03-9.95247E-04-1.07637E-14
 -1       499 5.71903E-03-8.84637E-04-1.24344E-14
 -1       500 6.07137E-03-8.21812E-04-1.42123E-14
 -1       501 6.40423E-03-7.99573E-04-1.60940E-14
 -1       502 6.72286E-03-8.07779E-04-1.80778E-14
 -1       503 7.03202E-03-8.37308E-04-2.01658E-14
 -1       504 7.33502E-03-8.81037E-04-2.23615E-14
 -1       505 7.63391E-03-9.33704E-04-2.46677E-14
 -1       506 7.92987E-03-9.91583E-04-2.70843E-14
 -1       507 8.22362E-03-1.05213E-03-2.96095E-14
 -1       508 8.51562E-03-1.11367E-03-3.22397E-14
 -1       509 8.80621E-03-1.17518E-03-3.49650E-14
 -1       510 9.09565E-03-1.23604E-03-3.77777E-14
 -1       511 9.38417E-03-1.29595E-03-4.06734E-14
 -1       512 9.67194E-03-1.35479E-03-4.36446E-14
 -1       513 9.95914E-03-1.41255E-03-4.66874E-14
 -1       514 1.02459E-02-1.46932E-03-4.98031E-14
 -1       515 1.05323E-02-1.52518E-03-5.29925E-14
 -1       516 1.08185E-02-1.58026E-03-5.62516E-14
 -1       517 1.11045E-02-1.63469E-03-5.95755E-14
 -1       518 1.13903E-02-1.68858E-03-6.29686E-14
 -1       519 1.16761E-02-1.74203E-03-6.64315E-14
 -1       520 1.19618E-02-1.79513E-03-6.99572E-14
 -1       521 1.22475E-02-1.84796E-03-7.35471E-14
 -1       522 1.25332E-02-1.90058E-03-7.71987E-14
 -1       523 1.28188E-02-1.95304E-03-8.09190E-14
 -1       524 1.31045E-02-2.00540E-03-8.47076E-14
 -1       525 1.33902E-02-2.05767E-03-8.85513E-14
 -1       526 1.36758E-02-2.10988E-03-9.24392E-14
 -1       527 1.39615E-02-2.16206E-03-9.63664E-14
 -1       528 1.42472E-02-2.21423E-03-1.00328E-13
 -1       529 1.45329E-02-2.26639E-03-1.04322E-13
 -1       530 1.94483E-03 5.00288E-04-1.95869E-15
 -1       531 2.26466E-03 5.75534E-04-2.64936E-15
 -1       532 2.58515E-03 6.57491E-04-3.45065E-15
 -1       533 2.90322E-03 7.40490E-04-4.36807E-15
 -1       534 3.21533E-03 8.12479E-04-5.40607E-15
 -1       535 3.51981E-03 8.56889E-04-6.56936E-15
 -1       536 3.81883E-03 8.58518E-04-7.86154E-15
 -1       537 4.11793E-03 8.11160E-04-9.28283E-15
 -1       538 4.42274E-03 7.21352E-04-1.08341E-14
 -1       539 4.73553E-03 6.04887E-04-1.25115E-14
 -1       540 5.05460E-03 4.79512E-04-1.43094E-14
 -1       541 5.37620E-03 3.58878E-04-1.62253E-14
 -1       542 5.69675E-03 2.50586E-04-1.82508E-14
 -1       543 6.01395E-03 1.57119E-04-2.03841E-14
 -1       544 6.32678E-03 7.77145E-05-2.26257E-14
 -1       545 6.63509E-03 1.00315E-05-2.49704E-14
 -1       546 6.93924E-03-4.87391E-05-2.74160E-14
 -1       547 7.23972E-03-1.01255E-04-2.99601E-14
 -1       548 7.53709E-03-1.49746E-04-3.25986E-14
 -1       549 7.83189E-03-1.95938E-04-3.53321E-14
 -1       550 8.12456E-03-2.41084E-04-3.81561E-14
 -1       551 8.41554E-03-2.86038E-04-4.10689E-14
 -1       552 8.70514E-03-3.31340E-04-4.40641E-14
 -1       553 8.99369E-03-3.77299E-04-4.71430E-14
 -1       554 9.28141E-03-4.24060E-04-5.03032E-14
 -1       555 9.56851E-03-4.71656E-04-5.35402E-14
 -1       556 9.85514E-03-5.20053E-04-5.68560E-14
 -1       557 1.01414E-02-5.69178E-04-6.02552E-14
 -1       558 1.04275E-02-6.18938E-04-6.37333E-14
 -1       559 1.07134E-02-6.69235E-04-6.72887E-14
 -1       560 1.09991E-02-7.19977E-04-7.09060E-14
 -1       561 1.12848E-02-7.71077E-04-7.45793E-14
 -1       562 1.15705E-02-8.22460E-04-7.83135E-14
 -1       563 1.18561E-02-8.74062E-04-8.21128E-14
 -1       564 1.21418E-02-9.25831E-04-8.59793E-14
 -1       565 1.24274E-02-9.77722E-04-8.99013E-14
 -1       566 1.27130E-02-1.02970E-03-9.38673E-14
 -1       567 1.29987E-02-1.08174E-03-9.78739E-14
 -1       568 1.32843E-02-1.13382E-03-1.01901E-13
 -1       569 1.35700E-02-1.18592E-03-1.05951E-13
 -1       570 1.38557E-02-1.23803E-03-1.10010E-13
 -1       571 1.41414E-02-1.29013E-03-1.14078E-13
 -1       572 1.43236E-02-1.56665E-03-1.12682E-13
 -1       573 1.43748E-02-1.65099E-03-1.12159E-13
 -1       574 1.42222E-02-1.39943E-03-1.13685E-13
 -1       575 1.42729E-02-1.48303E-03-1.13189E-13
 -1       576 1.44260E-02-1.73533E-03-1.11625E-13
 -1       577 1.44772E-02-1.81968E-03-1.11086E-13
 -1       578 1.45285E-02-1.90403E-03-1.10540E-13
 -1       579 1.45790E-02-1.98695E-03-1.09997E-13
 -1       580 1.46303E-02-2.07128E-03-1.09427E-13
 -1       581 1.46817E-02-2.15561E-03-1.08845E-13
 -1       582 1.47331E-02-2.23993E-03-1.08254E-13
 -1       583 6.28731E-03-3.74119E-04-1.31381E-14
 -1       584 5.69923E-03-1.58792E-04-1.22235E-14
 -1       585 1.62733E-03 4.31911E-04-1.37625E-15
 -1       586 6.29249E-03-4.01035E-04-1.27962E-14
 -1       587 6.02973E-03-2.87299E-04-1.27540E-14
 -1       588 5.96628E-03-5.27570E-04-1.17954E-14
 -1       589 4.24949E-03-1.32418E-03-6.85390E-15
 -1       590 3.07967E-03-8.48322E-04-4.23791E-15
 -1       591 2.30984E-03-4.25397E-04-3.57502E-15
 -1       592 3.12622E-03 4.55979E-04-5.55126E-15
 -1       593 5.78481E-04-3.53242E-05-3.49384E-16
 -1       594 3.46163E-03 6.05041E-04-6.35661E-15
 -1       595 4.14617E-03 6.33181E-04-8.51443E-15
 -1       596 1.99027E-03-2.99369E-04-3.52884E-15
 -1       597 3.84092E-03 6.85049E-04-7.50622E-15
 -1       598 2.76520E-03 2.69596E-04-4.87715E-15
 -1       599 1.99660E-03-7.05588E-05-3.79256E-15
 -1       600 1.75963E-03-1.49246E-04-3.53138E-15
 -1       601 1.69334E-03-1.87579E-04-3.43554E-15
 -1       602 3.61118E-03-1.16811E-03-5.10118E-15
 -1       603 1.78831E-03-2.29061E-04-3.42755E-15
 -1       604 2.69630E-03-6.22211E-04-3.89775E-15
 -1       605 4.56062E-03-1.23918E-03-7.82559E-15
 -1       606 3.93109E-03-1.29714E-03-5.93447E-15
 -1       607 4.95755E-03-1.04690E-03-9.08011E-15
 -1       608 5.30076E-03-8.55162E-04-1.00953E-14
 -1       609 5.66111E-03-6.66161E-04-1.10935E-14
 -1       610 6.17859E-03-4.45225E-04-1.22931E-14
 -1       611 7.49150E-04-1.81602E-04-2.11125E-16
 -1       612 7.54888E-04 2.47481E-04-2.94324E-16
 -1       613 5.33938E-03 1.06456E-05-1.16285E-14
 -1       614 6.52239E-04-9.82803E-05-2.78210E-16
 -1       615 6.22603E-03-3.52293E-04-1.37086E-14
 -1       616 2.51388E-03 1.56414E-04-4.36129E-15
 -1       617 4.72917E-03 3.52586E-04-1.05104E-14
 -1       618 1.47271E-02-2.30332E-03-1.07029E-13
 -1       619 8.17901E-04 1.39699E-05-6.37545E-16
 -1       620 7.87393E-04-1.76147E-05-6.28376E-16
 -1       621 9.01421E-04 1.09536E-04-6.35888E-16
 -1       622 9.47573E-04 1.73625E-04-6.22159E-16
 -1       623 1.10523E-03 2.58982E-04-7.38213E-16
 -1       624 1.84544E-03-2.41221E-04-3.10313E-15
 -1       625 9.72018E-04-1.89602E-04-4.66925E-16
 -1       626 1.40275E-03-2.69492E-04-9.55446E-16
 -1       627 1.70033E-03-3.28350E-04-1.39625E-15
 -1       628 2.01117E-03-4.03423E-04-1.92728E-15
 -1       629 2.34511E-03-5.08659E-04-2.55119E-15
 -1       630 2.71244E-03-6.62204E-04-3.27102E-15
 -1       631 5.63843E-03-8.01645E-04-1.18500E-14
 -1       632 5.99212E-03-7.31907E-04-1.35944E-14
 -1       633 6.31453E-03-7.07937E-04-1.54420E-14
 -1       634 6.61811E-03-7.15228E-04-1.73904E-14
 -1       635 6.91121E-03-7.43180E-04-1.94388E-14
 -1       636 7.19931E-03-7.84875E-04-2.15934E-14
 -1       637 7.48541E-03-8.35537E-04-2.38548E-14
 -1       638 7.77094E-03-8.91756E-04-2.62234E-14
 -1       639 8.05648E-03-9.51102E-04-2.87038E-14
 -1       640 8.34221E-03-1.01189E-03-3.12894E-14
 -1       641 8.62811E-03-1.07300E-03-3.39742E-14
 -1       642 8.91413E-03-1.13374E-03-3.67532E-14
 -1       643 9.20019E-03-1.19370E-03-3.96152E-14
 -1       644 9.48626E-03-1.25270E-03-4.25591E-14
 -1       645 9.77229E-03-1.31068E-03-4.55737E-14
 -1       646 1.00583E-02-1.36768E-03-4.86635E-14
 -1       647 1.03442E-02-1.42377E-03-5.18269E-14
 -1       648 1.06301E-02-1.47906E-03-5.50582E-14
 -1       649 1.09159E-02-1.53368E-03-5.83579E-14
 -1       650 1.12018E-02-1.58772E-03-6.17279E-14
 -1       651 1.14875E-02-1.64130E-03-6.51643E-14
 -1       652 1.17733E-02-1.69451E-03-6.86660E-14
 -1       653 1.20590E-02-1.74743E-03-7.22316E-14
 -1       654 1.23448E-02-1.80012E-03-7.58589E-14
 -1       655 1.26305E-02-1.85263E-03-7.95581E-14
 -1       656 1.29162E-02-1.90502E-03-8.33196E-14
 -1       657 1.32019E-02-1.95732E-03-8.71428E-14
 -1       658 1.34876E-02-2.00955E-03-9.10152E-14
 -1       659 1.37734E-02-2.06174E-03-9.49256E-14
 -1       660 1.40591E-02-2.11391E-03-9.88689E-14
 -1       661 1.43448E-02-2.16607E-03-1.02843E-13
 -1       662 2.37953E-03 5.21999E-04-3.07660E-15
 -1       663 1.39365E-02-1.34732E-03-1.09628E-13
 -1       664 2.05102E-03 4.44741E-04-2.33509E-15
 -1       665 3.04290E-03 6.96902E-04-4.89475E-15
 -1       666 3.36662E-03 7.69177E-04-5.98315E-15
 -1       667 3.68110E-03 8.02582E-04-7.19812E-15
 -1       668 3.99117E-03 7.79857E-04-8.54467E-15
 -1       669 4.30530E-03 7.00981E-04-1.00225E-14
 -1       670 4.62853E-03 5.83460E-04-1.16287E-14
 -1       671 4.95920E-03 4.51175E-04-1.33587E-14
 -1       672 5.29134E-03 3.23014E-04-1.52071E-14
 -1       673 5.61939E-03 2.08857E-04-1.71687E-14
 -1       674 5.94034E-03 1.11431E-04-1.92377E-14
 -1       675 6.25361E-03 2.94976E-05-2.14117E-14
 -1       676 6.56007E-03-3.97833E-05-2.36921E-14
 -1       677 6.86104E-03-9.95482E-05-2.60733E-14
 -1       678 7.15786E-03-1.52639E-04-2.85539E-14
 -1       679 7.45164E-03-2.01392E-04-3.11322E-14
 -1       680 7.74321E-03-2.47610E-04-3.38053E-14
 -1       681 8.03319E-03-2.92608E-04-3.65746E-14
 -1       682 8.32201E-03-3.37297E-04-3.94319E-14
 -1       683 8.60998E-03-3.82265E-04-4.23733E-14
 -1       684 8.89733E-03-4.27859E-04-4.53975E-14
 -1       685 9.18422E-03-4.74253E-04-4.85049E-14
 -1       686 9.47076E-03-5.21502E-04-5.16921E-14
 -1       687 9.75705E-03-5.69584E-04-5.49583E-14
 -1       688 1.00432E-02-6.18432E-04-5.83053E-14
 -1       689 1.03291E-02-6.67955E-04-6.17341E-14
 -1       690 1.06150E-02-7.18055E-04-6.52393E-14
 -1       691 1.09008E-02-7.68635E-04-6.88118E-14
 -1       692 1.11866E-02-8.19605E-04-7.24406E-14
 -1       693 1.14723E-02-8.70886E-04-7.61269E-14
 -1       694 1.17580E-02-9.22410E-04-7.98781E-14
 -1       695 1.20437E-02-9.74120E-04-8.36961E-14
 -1       696 1.23294E-02-1.02597E-03-8.75758E-14
 -1       697 1.26151E-02-1.07792E-03-9.15012E-14
 -1       698 1.29008E-02-1.12994E-03-9.54737E-14
 -1       699 1.31865E-02-1.18201E-03-9.94781E-14
 -1       700 1.34722E-02-1.23410E-03-1.03509E-13
 -1       701 1.37043E-02-1.29071E-03-1.06567E-13
 -1       702 5.57109E-03-9.77671E-05-1.28901E-14
 -1       703 1.42041E-02-1.73236E-03-1.07879E-13
 -1       704 1.45389E-02-2.20300E-03-1.05540E-13
 -1       705 1.41017E-02-1.56368E-03-1.08929E-13
 -1       706 1.42554E-02-1.81670E-03-1.07335E-13
 -1       707 1.41529E-02-1.64802E-03-1.08411E-13
 -1       708 1.43058E-02-1.89962E-03-1.06789E-13
 -1       709 1.43572E-02-1.98395E-03-1.06224E-13
 -1       710 1.44086E-02-2.06828E-03-1.05649E-13
 -1       711 5.89394E-03-2.37648E-04-1.34442E-14
 -1       712 6.36721E-03-4.06783E-04-1.40750E-14
 -1       713 2.90788E-03 3.76177E-04-4.93116E-15
 -1       714 1.72908E-03 3.77751E-04-1.69971E-15
 -1       715 2.71193E-03 6.08739E-04-3.92741E-15
 -1       716 1.41408E-03 3.17562E-04-1.16812E-15
 -1       717 2.17922E-03 1.94461E-05-3.79657E-15
 -1       718 5.17471E-03 1.04157E-04-1.19203E-14
 -1       719 5.92802E-03-5.91940E-04-1.24334E-14
 -1       720 4.36961E-03 5.56696E-04-9.57791E-15
 -1       721 8.57497E-04 5.61950E-05-6.40347E-16
 -1       722 1.79212E-03-1.05663E-04-3.21323E-15
 -1       723 2.09584E-03-3.33140E-04-3.14166E-15
 -1       724 8.03529E-04-8.29731E-05-5.57886E-16
 -1       725 1.65016E-03-1.57373E-04-3.06477E-15
 -1       726 3.26672E-03 5.56102E-04-5.75117E-15
 -1       727 1.65489E-03-1.82703E-04-2.89518E-15
 -1       728 4.00452E-03 6.85513E-04-8.22402E-15
 -1       729 3.62538E-03 6.79318E-04-6.82827E-15
 -1       730 5.29757E-03-9.27188E-04-1.04396E-14
 -1       731 8.49480E-04-1.14510E-04-5.16995E-16
 -1       732 7.72198E-04-4.08119E-05-6.12371E-16
 -1       733 1.91968E-03-3.86697E-05-3.21024E-15
 -1       734 1.40510E-02-1.48007E-03-1.09430E-13
 -1       735 6.30892E-03-4.32648E-04-1.35530E-14
 -1       736 2.66758E-03 2.70981E-04-4.40770E-15
 -1       737 3.79448E-03 7.20341E-04-7.49361E-15
 -1       738 6.13943E-03-3.16565E-04-1.44197E-14
 -1       739 6.36509E-03-3.90723E-04-1.46632E-14
 -1       740 6.12879E-03-4.99927E-04-1.29549E-14
 -1       741 7.77092E-04-6.04357E-05-5.89240E-16
 -1       742 4.94680E-03 2.45964E-04-1.15778E-14
 -1       743 2.35762E-03-4.56766E-04-3.15192E-15
 -1       744 1.17537E-03 1.75975E-04-9.69304E-16
 -1       745 1.44195E-03-2.28696E-04-1.25761E-15
 -1       746 1.71569E-03-2.78307E-04-1.76085E-15
 -1       747 2.00252E-03-3.43476E-04-2.35264E-15
 -1       748 1.13629E-03-1.67369E-04-8.48104E-16
 -1       749 6.25874E-03-6.13654E-04-1.47779E-14
 -1       750 6.53880E-03-6.25015E-04-1.66937E-14
 -1       751 6.81001E-03-6.54414E-04-1.87057E-14
 -1       752 7.07933E-03-6.95292E-04-2.08188E-14
 -1       753 7.34982E-03-7.44013E-04-2.30374E-14
 -1       754 7.62266E-03-7.98001E-04-2.53631E-14
 -1       755 7.89811E-03-8.55297E-04-2.77976E-14
 -1       756 8.17592E-03-9.14414E-04-3.03403E-14
 -1       757 8.45573E-03-9.74274E-04-3.29830E-14
 -1       758 8.73713E-03-1.03413E-03-3.57239E-14
 -1       759 9.01974E-03-1.09352E-03-3.85527E-14
 -1       760 9.30327E-03-1.15217E-03-4.14623E-14
 -1       761 9.58747E-03-1.20996E-03-4.44512E-14
 -1       762 9.87217E-03-1.26688E-03-4.75132E-14
 -1       763 1.01572E-02-1.32296E-03-5.06496E-14
 -1       764 1.04425E-02-1.37829E-03-5.38571E-14
 -1       765 1.07280E-02-1.43295E-03-5.71325E-14
 -1       766 1.10135E-02-1.48706E-03-6.04754E-14
 -1       767 1.12992E-02-1.54070E-03-6.38870E-14
 -1       768 1.15849E-02-1.59397E-03-6.73660E-14
 -1       769 1.18706E-02-1.64693E-03-7.09103E-14
 -1       770 1.21564E-02-1.69967E-03-7.45150E-14
 -1       771 1.24422E-02-1.75222E-03-7.81897E-14
 -1       772 1.27279E-02-1.80464E-03-8.19271E-14
 -1       773 1.30137E-02-1.85696E-03-8.57291E-14
 -1       774 1.32994E-02-1.90921E-03-8.95864E-14
 -1       775 1.35852E-02-1.96141E-03-9.34825E-14
 -1       776 1.38709E-02-2.01358E-03-9.74072E-14
 -1       777 1.41566E-02-2.06574E-03-1.01368E-13
 -1       778 2.15684E-03 3.81465E-04-2.71493E-15
 -1       779 3.52829E-03 7.32927E-04-6.55097E-15
 -1       780 3.19173E-03 6.58021E-04-5.41472E-15
 -1       781 4.17860E-03 6.87676E-04-9.22324E-15
 -1       782 4.51341E-03 5.67827E-04-1.07580E-14
 -1       783 4.85935E-03 4.22557E-04-1.24198E-14
 -1       784 5.20652E-03 2.82385E-04-1.42041E-14
 -1       785 5.54612E-03 1.60968E-04-1.61023E-14
 -1       786 5.87360E-03 6.05092E-05-1.81059E-14
 -1       787 6.18884E-03-2.20561E-05-2.02159E-14
 -1       788 6.49392E-03-9.10148E-05-2.24305E-14
 -1       789 6.79153E-03-1.50279E-04-2.47481E-14
 -1       790 7.08407E-03-2.02975E-04-2.71672E-14
 -1       791 7.37338E-03-2.51480E-04-2.96827E-14
 -1       792 7.66075E-03-2.97552E-04-3.22977E-14
 -1       793 7.94703E-03-3.42451E-04-3.50058E-14
 -1       794 8.23275E-03-3.87046E-04-3.78088E-14
 -1       795 8.51823E-03-4.31907E-04-4.06986E-14
 -1       796 8.80363E-03-4.77374E-04-4.36710E-14
 -1       797 9.08906E-03-5.23626E-04-4.67259E-14
 -1       798 9.37453E-03-5.70724E-04-4.98632E-14
 -1       799 9.66007E-03-6.18656E-04-5.30790E-14
 -1       800 9.94566E-03-6.67359E-04-5.63748E-14
 -1       801 1.02313E-02-7.16748E-04-5.97509E-14
 -1       802 1.05170E-02-7.66728E-04-6.32046E-14
 -1       803 1.08027E-02-8.17203E-04-6.67296E-14
 -1       804 1.10884E-02-8.68084E-04-7.03178E-14
 -1       805 1.13742E-02-9.19291E-04-7.39642E-14
 -1       806 1.16599E-02-9.70755E-04-7.76687E-14
 -1       807 1.19456E-02-1.02242E-03-8.14371E-14
 -1       808 1.22314E-02-1.07423E-03-8.52690E-14
 -1       809 1.25171E-02-1.12615E-03-8.91527E-14
 -1       810 1.28028E-02-1.17815E-03-9.30861E-14
 -1       811 1.30886E-02-1.23020E-03-9.70651E-14
 -1       812 1.33743E-02-1.28229E-03-1.01077E-13
 -1       813 1.40331E-02-1.81301E-03-1.03599E-13
 -1       814 1.41354E-02-1.98096E-03-1.02471E-13
 -1       815 1.39819E-02-1.72867E-03-1.04145E-13
 -1       816 3.39640E-03 6.53631E-04-6.08394E-15
 -1       817 3.01920E-03 4.88023E-04-5.03554E-15
 -1       818 5.82387E-03-1.81076E-04-1.43199E-14
 -1       819 4.20263E-03 6.51009E-04-9.16587E-15
 -1       820 1.82854E-03 3.16578E-04-2.03177E-15
 -1       821 1.40843E-02-1.89699E-03-1.03040E-13
 -1       822 3.85359E-03 7.48271E-04-7.82005E-15
 -1       823 1.29290E-03 2.43210E-04-1.06986E-15
 -1       824 1.60273E-03-1.18230E-04-2.66477E-15
 -1       825 1.69716E-03-2.01632E-04-2.62475E-15
 -1       826 1.54153E-03-1.47015E-04-2.51518E-15
 -1       827 2.33434E-03 1.28478E-04-3.78993E-15
 -1       828 1.88559E-03-2.67667E-04-2.65954E-15
 -1       829 5.43387E-03 1.10097E-05-1.34739E-14
 -1       830 1.00823E-03-5.90933E-06-9.67732E-16
 -1       831 4.58899E-03 4.63525E-04-1.05856E-14
 -1       832 9.72762E-04-4.12199E-05-9.48619E-16
 -1       833 1.67490E-03-7.49317E-05-2.66044E-15
 -1       834 5.22948E-03 1.37207E-04-1.31014E-14
 -1       835 1.38289E-02-1.47674E-03-1.05691E-13
 -1       836 6.42742E-03-4.42289E-04-1.48905E-14
 -1       837 1.37666E-02-1.38372E-03-1.06132E-13
 -1       838 2.49722E-03 4.62292E-04-3.50285E-15
 -1       839 1.55730E-03 2.78783E-04-1.51207E-15
 -1       840 2.84526E-03 5.58501E-04-4.40069E-15
 -1       841 1.35705E-02-1.33300E-03-1.03602E-13
 -1       842 1.38801E-02-1.56107E-03-1.05190E-13
 -1       843 1.39309E-02-1.64487E-03-1.04675E-13
 -1       844 6.08409E-03-2.69962E-04-1.53232E-14
 -1       845 6.33010E-03-3.66559E-04-1.53974E-14
 -1       846 6.47040E-03-4.25001E-04-1.54967E-14
 -1       847 2.04833E-03 5.07508E-05-3.19896E-15
 -1       848 2.79843E-03 3.95638E-04-4.50155E-15
 -1       849 1.05920E-03 4.21080E-05-9.77822E-16
 -1       850 1.52251E-03-1.58485E-04-2.26870E-15
 -1       851 1.11692E-03 1.03412E-04-9.78855E-16
 -1       852 1.06256E-03-1.22987E-04-9.11543E-16
 -1       853 1.01520E-03-9.17209E-05-9.61806E-16
 -1       854 1.70190E-03-2.30341E-04-2.14829E-15
 -1       855 6.48518E-03-5.40491E-04-1.59861E-14
 -1       856 6.30914E-03-4.89548E-04-1.42673E-14
 -1       857 6.72518E-03-5.72681E-04-1.79642E-14
 -1       858 6.97082E-03-6.13402E-04-2.00393E-14
 -1       859 7.22300E-03-6.60035E-04-2.22168E-14
 -1       860 7.48158E-03-7.11180E-04-2.45001E-14
 -1       861 7.74580E-03-7.65584E-04-2.68926E-14
 -1       862 8.01480E-03-8.22115E-04-2.93922E-14
 -1       863 8.28770E-03-8.79827E-04-3.19920E-14
 -1       864 8.56373E-03-9.37991E-04-3.46913E-14
 -1       865 8.84223E-03-9.96092E-04-3.74860E-14
 -1       866 9.12264E-03-1.05379E-03-4.03617E-14
 -1       867 9.40451E-03-1.11090E-03-4.33191E-14
 -1       868 9.68749E-03-1.16734E-03-4.63555E-14
 -1       869 9.97130E-03-1.22309E-03-4.94658E-14
 -1       870 1.02557E-02-1.27820E-03-5.26475E-14
 -1       871 1.05406E-02-1.33272E-03-5.59007E-14
 -1       872 1.08258E-02-1.38674E-03-5.92149E-14
 -1       873 1.11112E-02-1.44034E-03-6.26024E-14
 -1       874 1.13967E-02-1.49358E-03-6.60586E-14
 -1       875 1.16824E-02-1.54654E-03-6.95797E-14
 -1       876 1.19681E-02-1.59928E-03-7.31633E-14
 -1       877 1.22538E-02-1.65184E-03-7.68161E-14
 -1       878 1.25396E-02-1.70427E-03-8.05338E-14
 -1       879 1.28254E-02-1.75660E-03-8.43134E-14
 -1       880 1.31112E-02-1.80886E-03-8.81513E-14
 -1       881 1.33970E-02-1.86107E-03-9.20327E-14
 -1       882 1.36827E-02-1.91325E-03-9.59499E-14
 -1       883 1.39091E-02-1.94711E-03-9.91969E-14
 -1       884 4.76241E-03 3.98988E-04-1.14923E-14
 -1       885 5.48404E-03 1.05141E-04-1.50497E-14
 -1       886 5.81907E-03 2.07099E-06-1.69913E-14
 -1       887 6.13577E-03-7.88529E-05-1.90375E-14
 -1       888 6.43834E-03-1.44971E-04-2.11882E-14
 -1       889 6.73126E-03-2.01668E-04-2.34415E-14
 -1       890 7.01824E-03-2.52537E-04-2.57984E-14
 -1       891 7.30192E-03-2.99943E-04-2.82541E-14
 -1       892 7.58403E-03-3.45468E-04-3.08051E-14
 -1       893 7.86567E-03-3.90180E-04-3.34548E-14
 -1       894 8.14745E-03-4.34791E-04-3.62009E-14
 -1       895 8.42969E-03-4.79762E-04-3.90389E-14
 -1       896 8.71251E-03-5.25367E-04-4.19598E-14
 -1       897 8.99591E-03-5.71748E-04-4.49636E-14
 -1       898 9.27986E-03-6.18949E-04-4.80495E-14
 -1       899 9.56427E-03-6.66953E-04-5.12176E-14
 -1       900 9.84905E-03-7.15700E-04-5.44634E-14
 -1       901 1.01341E-02-7.65110E-04-5.77885E-14
 -1       902 1.04194E-02-8.15093E-04-6.11897E-14
 -1       903 1.07049E-02-8.65558E-04-6.46653E-14
 -1       904 1.09905E-02-9.16422E-04-6.82098E-14
 -1       905 1.12761E-02-9.67607E-04-7.18162E-14
 -1       906 1.15619E-02-1.01905E-03-7.54821E-14
 -1       907 1.18476E-02-1.07069E-03-7.92021E-14
 -1       908 1.21334E-02-1.12248E-03-8.29863E-14
 -1       909 1.24191E-02-1.17438E-03-8.68278E-14
 -1       910 1.27049E-02-1.22637E-03-9.07211E-14
 -1       911 1.29907E-02-1.27841E-03-9.46667E-14
 -1       912 1.32764E-02-1.33049E-03-9.86546E-14
 -1       913 2.49036E-03 2.54835E-04-3.87461E-15
 -1       914 1.91847E-03 2.46077E-04-2.36938E-15
 -1       915 4.04305E-03 7.09510E-04-8.57533E-15
 -1       916 9.81381E-04-6.69396E-05-9.59942E-16
 -1       917 1.37600E-02-1.72569E-03-1.00425E-13
 -1       918 5.12956E-03 2.37838E-04-1.32115E-14
 -1       919 5.75370E-03-9.64185E-05-1.51323E-14
 -1       920 1.46348E-03-1.91676E-04-1.58574E-15
 -1       921 1.45005E-03-1.12704E-04-2.16301E-15
 -1       922 1.48017E-03-8.16365E-05-2.15873E-15
 -1       923 2.19756E-03 1.60498E-04-3.27177E-15
 -1       924 1.37091E-02-1.64189E-03-1.00951E-13
 -1       925 1.22740E-03-1.29557E-04-1.31932E-15
 -1       926 1.36327E-02-1.42602E-03-1.03171E-13
 -1       927 1.36839E-02-1.51034E-03-1.02678E-13
 -1       928 1.38111E-02-1.80966E-03-9.98773E-14
 -1       929 1.64838E-03 2.15617E-04-1.81174E-15
 -1       930 1.18756E-03-3.53344E-05-1.35761E-15
 -1       931 6.01554E-03-1.96274E-04-1.61678E-14
 -1       932 2.25455E-03 3.08663E-04-3.09679E-15
 -1       933 1.25077E-03 1.67928E-05-1.37881E-15
 -1       934 1.34546E-02-1.37825E-03-1.00911E-13
 -1       935 6.30317E-03-3.32271E-04-1.63303E-14
 -1       936 6.48233E-03-4.06994E-04-1.62545E-14
 -1       937 1.38601E-02-1.87839E-03-9.95421E-14
 -1       938 1.76841E-03-1.11183E-05-2.64876E-15
 -1       939 6.56865E-03-4.67245E-04-1.64367E-14
 -1       940 5.56191E-03 1.10124E-05-1.47392E-14
 -1       941 1.33034E-03 1.81364E-04-1.23399E-15
 -1       942 1.39035E-03-1.25180E-04-1.94017E-15
 -1       943 6.62026E-03-4.49029E-04-1.72216E-14
 -1       944 1.17020E-03-9.95998E-05-1.32805E-15
 -1       945 6.86583E-03-5.40952E-04-1.92539E-14
 -1       946 7.09849E-03-5.84321E-04-2.13931E-14
 -1       947 7.34251E-03-6.31679E-04-2.36358E-14
 -1       948 7.59557E-03-6.82297E-04-2.59852E-14
 -1       949 7.85581E-03-7.35366E-04-2.84436E-14
 -1       950 8.12179E-03-7.90090E-04-3.10031E-14
 -1       951 8.39235E-03-8.45774E-04-3.36599E-14
 -1       952 8.66655E-03-9.01876E-04-3.64136E-14
 -1       953 8.94361E-03-9.58002E-04-3.92578E-14
 -1       954 9.22291E-03-1.01389E-03-4.21805E-14
 -1       955 9.50394E-03-1.06940E-03-4.51864E-14
 -1       956 9.78629E-03-1.12445E-03-4.82713E-14
 -1       957 1.00696E-02-1.17904E-03-5.14292E-14
 -1       958 1.03537E-02-1.23319E-03-5.46576E-14
 -1       959 1.06384E-02-1.28694E-03-5.79521E-14
 -1       960 1.09234E-02-1.34034E-03-6.13121E-14
 -1       961 1.12087E-02-1.39345E-03-6.47459E-14
 -1       962 1.14943E-02-1.44632E-03-6.82454E-14
 -1       963 1.17799E-02-1.49900E-03-7.18060E-14
 -1       964 1.20656E-02-1.55153E-03-7.54339E-14
 -1       965 1.23514E-02-1.60394E-03-7.91301E-14
 -1       966 1.26372E-02-1.65626E-03-8.28896E-14
 -1       967 1.29230E-02-1.70852E-03-8.67075E-14
 -1       968 1.32088E-02-1.76073E-03-9.05743E-14
 -1       969 1.34946E-02-1.81291E-03-9.44814E-14
 -1       970 1.36773E-02-1.84565E-03-9.70063E-14
 -1       971 6.10078E-03-1.41754E-04-1.78768E-14
 -1       972 6.68169E-03-2.53858E-04-2.21540E-14
 -1       973 6.96064E-03-3.01262E-04-2.44472E-14
 -1       974 7.23688E-03-3.46569E-04-2.68429E-14
 -1       975 7.51242E-03-3.91038E-04-2.93341E-14
 -1       976 7.78842E-03-4.35401E-04-3.19230E-14
 -1       977 8.06549E-03-4.80102E-04-3.46095E-14
 -1       978 8.34386E-03-5.25392E-04-3.73939E-14
 -1       979 8.62357E-03-5.71414E-04-4.02655E-14
 -1       980 8.90452E-03-6.18227E-04-4.32173E-14
 -1       981 9.18658E-03-6.65827E-04-4.62509E-14
 -1       982 9.46955E-03-7.14174E-04-4.93720E-14
 -1       983 9.75327E-03-7.63202E-04-5.25707E-14
 -1       984 1.00376E-02-8.12832E-04-5.58460E-14
 -1       985 1.03223E-02-8.62981E-04-5.91962E-14
 -1       986 1.06074E-02-9.13567E-04-6.26183E-14
 -1       987 1.08928E-02-9.64515E-04-6.61164E-14
 -1       988 1.11783E-02-1.01576E-03-6.96824E-14
 -1       989 1.14639E-02-1.06723E-03-7.33056E-14
 -1       990 1.17496E-02-1.11889E-03-7.69872E-14
 -1       991 1.20354E-02-1.17069E-03-8.07257E-14
 -1       992 1.23212E-02-1.22259E-03-8.45213E-14
 -1       993 1.26070E-02-1.27458E-03-8.83746E-14
 -1       994 1.28927E-02-1.32662E-03-9.22842E-14
 -1       995 1.31785E-02-1.37870E-03-9.62436E-14
 -1       996 2.57320E-03 3.73773E-04-3.86304E-15
 -1       997 1.40584E-03-1.51681E-04-1.76645E-15
 -1       998 1.36965E-02-1.57611E-03-1.01819E-13
 -1       999 1.17167E-03-7.04688E-05-1.37239E-15
 -1      1000 6.39677E-03-2.02101E-04-1.99640E-14
 -1      1001 1.32507E-03 8.54531E-05-1.38882E-15
 -1      1002 1.35381E-02-1.72252E-03-9.67262E-14
 -1      1003 1.89944E-03 7.39734E-05-2.71378E-15
 -1      1004 1.34871E-02-1.63873E-03-9.72529E-14
 -1      1005 6.48801E-03-3.83201E-04-1.72171E-14
 -1      1006 1.36805E-03-6.71439E-05-1.83088E-15
 -1      1007 1.53690E-03-3.59855E-05-2.14768E-15
 -1      1008 1.67135E-03 1.33431E-04-2.01918E-15
 -1      1009 1.35057E-02-1.46257E-03-1.00427E-13
 -1      1010 6.25064E-03-2.72712E-04-1.72059E-14
 -1      1011 5.78673E-03-6.54377E-05-1.58922E-14
 -1      1012 1.29343E-03-9.24422E-05-1.68446E-15
 -1      1013 1.33421E-02-1.42063E-03-9.83309E-14
 -1      1014 6.96622E-03-5.16636E-04-2.05638E-14
 -1      1015 7.19817E-03-5.58998E-04-2.27673E-14
 -1      1016 7.44201E-03-6.04984E-04-2.50760E-14
 -1      1017 7.69495E-03-6.53886E-04-2.74899E-14
 -1      1018 7.95503E-03-7.04945E-04-3.00076E-14
 -1      1019 8.22079E-03-7.57517E-04-3.26268E-14
 -1      1020 8.49109E-03-8.11016E-04-3.53425E-14
 -1      1021 8.76502E-03-8.65005E-04-3.81463E-14
 -1      1022 9.04184E-03-9.19169E-04-4.10385E-14
 -1      1023 9.32094E-03-9.73301E-04-4.40133E-14
 -1      1024 9.60181E-03-1.02728E-03-4.70658E-14
 -1      1025 9.88404E-03-1.08103E-03-5.01983E-14
 -1      1026 1.01673E-02-1.13453E-03-5.34019E-14
 -1      1027 1.04514E-02-1.18780E-03-5.66744E-14
 -1      1028 1.07360E-02-1.24084E-03-6.00138E-14
 -1      1029 1.10210E-02-1.29368E-03-6.34221E-14
 -1      1030 1.13063E-02-1.34636E-03-6.69020E-14
 -1      1031 1.15918E-02-1.39890E-03-7.04422E-14
 -1      1032 1.18775E-02-1.45133E-03-7.40480E-14
 -1      1033 1.21632E-02-1.50368E-03-7.77203E-14
 -1      1034 1.24490E-02-1.55596E-03-8.14564E-14
 -1      1035 1.27348E-02-1.60820E-03-8.52541E-14
 -1      1036 1.30206E-02-1.66040E-03-8.91014E-14
 -1      1037 1.33064E-02-1.71257E-03-9.29981E-14
 -1      1038 7.17761E-03-3.90758E-04-2.54469E-14
 -1      1039 6.74371E-03-4.71286E-04-1.84778E-14
 -1      1040 6.91140E-03-3.48372E-04-2.31146E-14
 -1      1041 7.71425E-03-4.77689E-04-3.04105E-14
 -1      1042 7.98590E-03-5.22582E-04-3.30399E-14
 -1      1043 8.25991E-03-5.68421E-04-3.57659E-14
 -1      1044 8.53615E-03-6.15160E-04-3.85853E-14
 -1      1045 8.81437E-03-6.62733E-04-4.14893E-14
 -1      1046 9.09430E-03-7.11060E-04-4.44707E-14
 -1      1047 9.37565E-03-7.60053E-04-4.75399E-14
 -1      1048 9.65815E-03-8.09634E-04-5.06949E-14
 -1      1049 9.94155E-03-8.59719E-04-5.39230E-14
 -1      1050 1.02257E-02-9.10230E-04-5.72229E-14
 -1      1051 1.05103E-02-9.61097E-04-6.05954E-14
 -1      1052 1.07953E-02-1.01226E-03-6.40383E-14
 -1      1053 1.10806E-02-1.06366E-03-6.75583E-14
 -1      1054 1.13661E-02-1.11524E-03-7.11433E-14
 -1      1055 1.16518E-02-1.16698E-03-7.47819E-14
 -1      1056 1.19375E-02-1.21883E-03-7.84803E-14
 -1      1057 1.22233E-02-1.27076E-03-8.22361E-14
 -1      1058 1.25091E-02-1.32277E-03-8.60475E-14
 -1      1059 1.27949E-02-1.37482E-03-8.99184E-14
 -1      1060 1.30807E-02-1.42690E-03-9.38439E-14
 -1      1061 1.57529E-03 5.54632E-05-1.98009E-15
 -1      1062 6.37373E-03-2.61231E-04-1.87586E-14
 -1      1063 6.66141E-03-4.31284E-04-1.82187E-14
 -1      1064 6.64457E-03-3.05868E-04-2.08856E-14
 -1      1065 7.44494E-03-4.33776E-04-2.78806E-14
 -1      1066 1.32651E-02-1.63547E-03-9.35772E-14
 -1      1067 6.45827E-03-3.37374E-04-1.81234E-14
 -1      1068 1.35183E-02-1.52834E-03-9.95799E-14
 -1      1069 1.32443E-02-1.46883E-03-9.59178E-14
 -1      1070 1.35027E-02-1.58353E-03-9.84192E-14
 -1      1071 6.88759E-03-4.73176E-04-2.02938E-14
 -1      1072 7.11721E-03-5.12109E-04-2.24876E-14
 -1      1073 6.86941E-03-3.92062E-04-2.17997E-14
 -1      1074 6.66153E-03-3.64030E-04-1.99231E-14
 -1      1075 7.35891E-03-5.54926E-04-2.47845E-14
 -1      1076 7.60981E-03-6.00857E-04-2.71831E-14
 -1      1077 7.86795E-03-6.49177E-04-2.96869E-14
 -1      1078 8.13204E-03-6.99333E-04-3.22931E-14
 -1      1079 8.40072E-03-7.50688E-04-3.49964E-14
 -1      1080 8.67332E-03-8.02807E-04-3.77864E-14
 -1      1081 8.94903E-03-8.55382E-04-4.06642E-14
 -1      1082 9.22720E-03-9.08184E-04-4.36273E-14
 -1      1083 9.50736E-03-9.61066E-04-4.66721E-14
 -1      1084 9.78903E-03-1.01392E-03-4.97953E-14
 -1      1085 1.00719E-02-1.06672E-03-5.29939E-14
 -1      1086 1.03556E-02-1.11942E-03-5.62585E-14
 -1      1087 1.06400E-02-1.17203E-03-5.95951E-14
 -1      1088 1.09248E-02-1.22454E-03-6.29998E-14
 -1      1089 1.12100E-02-1.27697E-03-6.64730E-14
 -1      1090 1.14955E-02-1.32933E-03-7.00123E-14
 -1      1091 1.17811E-02-1.38163E-03-7.36140E-14
 -1      1092 1.20668E-02-1.43388E-03-7.72810E-14
 -1      1093 1.23526E-02-1.48610E-03-8.10095E-14
 -1      1094 1.26384E-02-1.53830E-03-8.47987E-14
 -1      1095 1.29242E-02-1.59047E-03-8.86421E-14
 -1      1096 1.30946E-02-1.61297E-03-9.10974E-14
 -1      1097 7.37984E-03-4.72949E-04-2.64427E-14
 -1      1098 7.12248E-03-4.31323E-04-2.40702E-14
 -1      1099 8.17666E-03-6.08558E-04-3.41562E-14
 -1      1100 7.90725E-03-5.61856E-04-3.14847E-14
 -1      1101 8.72469E-03-7.05032E-04-3.97706E-14
 -1      1102 9.00243E-03-7.54428E-04-4.27060E-14
 -1      1103 9.28213E-03-8.04383E-04-4.57241E-14
 -1      1104 9.56337E-03-8.54821E-04-4.88291E-14
 -1      1105 9.84583E-03-9.05608E-04-5.20096E-14
 -1      1106 1.01293E-02-9.56705E-04-5.52655E-14
 -1      1107 1.04134E-02-1.00804E-03-5.85882E-14
 -1      1108 1.06981E-02-1.05956E-03-6.19782E-14
 -1      1109 1.09831E-02-1.11123E-03-6.54482E-14
 -1      1110 1.12685E-02-1.16302E-03-6.89905E-14
 -1      1111 1.15540E-02-1.21490E-03-7.25884E-14
 -1      1112 1.18397E-02-1.26686E-03-7.62437E-14
 -1      1113 1.21254E-02-1.31886E-03-7.99609E-14
 -1      1114 1.24112E-02-1.37091E-03-8.37342E-14
 -1      1115 1.26970E-02-1.42299E-03-8.75644E-14
 -1      1116 1.29828E-02-1.47509E-03-9.14530E-14
 -1      1117 6.69219E-03-4.09952E-04-1.92041E-14
 -1      1118 8.44927E-03-6.56350E-04-3.69196E-14
 -1      1119 7.64151E-03-5.16590E-04-2.89127E-14
 -1      1120 1.32152E-02-1.55024E-03-9.41226E-14
 -1      1121 1.30387E-02-1.54403E-03-9.12812E-14
 -1      1122 6.93999E-03-4.42993E-04-2.15996E-14
 -1      1123 7.56767E-03-5.51551E-04-2.74305E-14
 -1      1124 9.46852E-03-8.98645E-04-4.69742E-14
 -1      1125 7.95303E-03-6.15881E-04-3.12429E-14
 -1      1126 9.88534E-03-9.69662E-04-5.17106E-14
 -1      1127 7.24824E-03-4.94752E-04-2.44359E-14
 -1      1128 0.00000E+00 0.00000E+00 0.00000E+00
 -1      1129 0.00000E+00 0.00000E+00 0.00000E+00
 -1      1130 0.00000E+00 0.00000E+00 0.00000E+00
 -1      1131 0.00000E+00 0.00000E+00 0.00000E+00
 -1      1132 0.00000E+00 0.00000E+00 0.00000E+00
 -1      1133 0.00000E+00 0.00000E+00 0.00000E+00
 -1      1134 0.00000E+00 0.00000E+00 0.00000E+00
 -1      1135 0.00000E+00 0.00000E+00 0.00000E+00
 -1      1136 0.00000E+00 0.00000E+00 0.00000E+00
 -1      1137 0.00000E+00 0.00000E+00 0.00000E+00
 -1      1138 0.00000E+00 0.00000E+00 0.00000E+00
 -1      1139 0.00000E+00 0.00000E+00 0.00000E+00
 -1      1140 0.00000E+00 0.00000E+00 0.00000E+00
 -1      1141 0.00000E+00 0.00000E+00 0.00000E+00
 -1      1142 0.00000E+00 0.00000E+00 0.00000E+00
 -1      1143 0.00000E+00 0.00000E+00 0.00000E+00
 -1      1144 0.00000E+00 0.00000E+00 0.00000E+00
 -1      1145 2.21639E-04-1.42768E-04 3.35561E-17
 -1      1146 5.94932E-04-3.10481E-04 5.79371E-17
 -1      1147 9.24724E-04-4.15250E-04 1.23870E-17
 -1      1148 1.25607E-03-4.92796E-04-1.17893E-16
 -1      1149 1.59689E-03-5.63410E-04-3.35208E-16
 -1      1150 1.95066E-03-6.40839E-04-6.43921E-16
 -1      1151 2.31706E-03-7.36935E-04-1.04871E-15
 -1      1152 2.69076E-03-8.61488E-04-1.55392E-15
 -1      1153 3.06040E-03-1.01839E-03-2.16393E-15
 -1      1154 3.40994E-03-1.19900E-03-2.88734E-15
 -1      1155 3.72466E-03-1.37689E-03-3.72900E-15
 -1      1156 4.00145E-03-1.51172E-03-4.69347E-15
 -1      1157 4.25611E-03-1.56712E-03-5.78561E-15
 -1      1158 4.51788E-03-1.53293E-03-7.01511E-15
 -1      1159 4.81244E-03-1.43245E-03-8.37964E-15
 -1      1160 5.14805E-03-1.30743E-03-9.87429E-15
 -1      1161 5.51571E-03-1.19539E-03-1.14914E-14
 -1      1162 5.89885E-03-1.11700E-03-1.32236E-14
 -1      1163 6.28242E-03-1.07676E-03-1.50641E-14
 -1      1164 6.65674E-03-1.06981E-03-1.70060E-14
 -1      1165 7.01735E-03-1.08811E-03-1.90563E-14
 -1      1166 7.36345E-03-1.12388E-03-2.12216E-14
 -1      1167 7.69617E-03-1.17094E-03-2.34987E-14
 -1      1168 8.01751E-03-1.22481E-03-2.58904E-14
 -1      1169 8.32960E-03-1.28242E-03-2.83911E-14
 -1      1170 8.63444E-03-1.34180E-03-3.09949E-14
 -1      1171 8.93370E-03-1.40170E-03-3.36907E-14
 -1      1172 9.22878E-03-1.46136E-03-3.64791E-14
 -1      1173 9.52077E-03-1.52039E-03-3.93573E-14
 -1      1174 9.81052E-03-1.57859E-03-4.23040E-14
 -1      1175 1.00987E-02-1.63589E-03-4.53174E-14
 -1      1176 1.03857E-02-1.69234E-03-4.84069E-14
 -1      1177 1.06720E-02-1.74798E-03-5.15703E-14
 -1      1178 1.09579E-02-1.80293E-03-5.48078E-14
 -1      1179 1.12434E-02-1.85728E-03-5.81093E-14
 -1      1180 1.15288E-02-1.91112E-03-6.14770E-14
 -1      1181 1.18140E-02-1.96455E-03-6.49184E-14
 -1      1182 1.20993E-02-2.01765E-03-6.84269E-14
 -1      1183 1.23846E-02-2.07049E-03-7.19913E-14
 -1      1184 1.26699E-02-2.12313E-03-7.56185E-14
 -1      1185 1.29553E-02-2.17562E-03-7.93239E-14
 -1      1186 1.32407E-02-2.22799E-03-8.30918E-14
 -1      1187 1.35262E-02-2.28028E-03-8.69177E-14
 -1      1188 1.38118E-02-2.33251E-03-9.08021E-14
 -1      1189 1.40973E-02-2.38471E-03-9.47491E-14
 -1      1190 1.43830E-02-2.43689E-03-9.87304E-14
 -1      1191 1.46686E-02-2.48907E-03-1.02725E-13
 -1      1192 1.49543E-02-2.54124E-03-1.06739E-13
 -1      1193 1.52400E-02-2.59344E-03-1.10778E-13
 -1      1194 1.55186E-02-2.64434E-03-1.14748E-13
 -1      1195 2.37329E-04 1.58209E-04 1.40404E-17
 -1      1196 5.88293E-04 3.26475E-04-3.29191E-17
 -1      1197 9.03773E-04 4.36365E-04-1.81008E-16
 -1      1198 1.21518E-03 5.18138E-04-4.42354E-16
 -1      1199 1.52730E-03 5.88513E-04-8.16323E-16
 -1      1200 1.84110E-03 6.56849E-04-1.30217E-15
 -1      1201 2.15471E-03 7.28407E-04-1.90306E-15
 -1      1202 2.46412E-03 8.04841E-04-2.61875E-15
 -1      1203 2.76413E-03 8.83547E-04-3.45535E-15
 -1      1204 3.04998E-03 9.57134E-04-4.41327E-15
 -1      1205 3.31949E-03 1.01420E-03-5.49768E-15
 -1      1206 3.57495E-03 1.04216E-03-6.71173E-15
 -1      1207 3.82341E-03 1.03159E-03-8.05791E-15
 -1      1208 4.07477E-03 9.80218E-04-9.53371E-15
 -1      1209 4.33826E-03 8.94067E-04-1.11407E-14
 -1      1210 4.61933E-03 7.85153E-04-1.28770E-14
 -1      1211 4.91849E-03 6.67167E-04-1.47288E-14
 -1      1212 5.23227E-03 5.51562E-04-1.66924E-14
 -1      1213 5.55525E-03 4.45607E-04-1.87675E-14
 -1      1214 5.88196E-03 3.52400E-04-2.09568E-14
 -1      1215 6.20803E-03 2.71967E-04-2.32590E-14
 -1      1216 6.53056E-03 2.02592E-04-2.56597E-14
 -1      1217 6.84801E-03 1.41871E-04-2.81582E-14
 -1      1218 7.15990E-03 8.73856E-05-3.07603E-14
 -1      1219 7.46640E-03 3.70389E-05-3.34529E-14
 -1      1220 7.76808E-03-1.08271E-05-3.62353E-14
 -1      1221 8.06567E-03-5.74350E-05-3.91121E-14
 -1      1222 8.35994E-03-1.03632E-04-4.20784E-14
 -1      1223 8.65159E-03-1.49968E-04-4.51261E-14
 -1      1224 8.94124E-03-1.96768E-04-4.82536E-14
 -1      1225 9.22941E-03-2.44200E-04-5.14619E-14
 -1      1226 9.51652E-03-2.92321E-04-5.47481E-14
 -1      1227 9.80290E-03-3.41121E-04-5.81097E-14
 -1      1228 1.00888E-02-3.90549E-04-6.15464E-14
 -1      1229 1.03744E-02-4.40532E-04-6.50645E-14
 -1      1230 1.06598E-02-4.90991E-04-6.86658E-14
 -1      1231 1.09451E-02-5.41845E-04-7.23393E-14
 -1      1232 1.12304E-02-5.93020E-04-7.60798E-14
 -1      1233 1.15157E-02-6.44451E-04-7.98834E-14
 -1      1234 1.18010E-02-6.96083E-04-8.37445E-14
 -1      1235 1.20864E-02-7.47866E-04-8.76695E-14
 -1      1236 1.23718E-02-7.99763E-04-9.16424E-14
 -1      1237 1.26573E-02-8.51741E-04-9.56528E-14
 -1      1238 1.29429E-02-9.03776E-04-9.97049E-14
 -1      1239 1.32284E-02-9.55846E-04-1.03781E-13
 -1      1240 1.35141E-02-1.00794E-03-1.07867E-13
 -1      1241 1.37997E-02-1.06003E-03-1.11949E-13
 -1      1242 1.40854E-02-1.11212E-03-1.16034E-13
 -1      1243 1.43711E-02-1.16420E-03-1.20133E-13
 -1      1244 1.46497E-02-1.21495E-03-1.24139E-13
 -1      1245 1.48110E-02-1.28182E-03-1.25827E-13
 -1      1246 1.48622E-02-1.36611E-03-1.25313E-13
 -1      1247 1.49133E-02-1.45040E-03-1.24769E-13
 -1      1248 1.49645E-02-1.53471E-03-1.24215E-13
 -1      1249 1.50156E-02-1.61904E-03-1.23679E-13
 -1      1250 1.50664E-02-1.70268E-03-1.23178E-13
 -1      1251 1.51171E-02-1.78634E-03-1.22690E-13
 -1      1252 1.51683E-02-1.87073E-03-1.22174E-13
 -1      1253 1.52196E-02-1.95513E-03-1.21628E-13
 -1      1254 1.52709E-02-2.03952E-03-1.21072E-13
 -1      1255 1.53222E-02-2.12391E-03-1.20493E-13
 -1      1256 1.53731E-02-2.20757E-03-1.19929E-13
 -1      1257 1.54240E-02-2.29121E-03-1.19384E-13
 -1      1258 1.54754E-02-2.37554E-03-1.18810E-13
 -1      1259 1.55268E-02-2.45985E-03-1.18200E-13
 -1      1260 1.55782E-02-2.54415E-03-1.17594E-13
 -1      1261 1.56291E-02-2.62772E-03-1.16997E-13
 -1      1262 6.23148E-03-2.61549E-04-1.03879E-14
 -1      1263 6.08971E-03-1.06200E-04-1.03175E-14
 -1      1264 5.85456E-03 4.87865E-05-1.00944E-14
 -1      1265 5.54232E-03 2.03884E-04-9.74255E-15
 -1      1266 5.16909E-03 3.51190E-04-9.27089E-15
 -1      1267 4.73141E-03 4.80653E-04-8.67389E-15
 -1      1268 4.27705E-03 5.66608E-04-8.02602E-15
 -1      1269 3.84071E-03 5.92980E-04-7.39502E-15
 -1      1270 3.39070E-03 5.63584E-04-6.75263E-15
 -1      1271 2.96123E-03 4.83659E-04-6.15862E-15
 -1      1272 2.57530E-03 3.69235E-04-5.64628E-15
 -1      1273 2.21506E-03 2.22736E-04-5.18349E-15
 -1      1274 1.94371E-03 7.24159E-05-4.83632E-15
 -1      1275 1.78271E-03-6.97201E-05-4.61012E-15
 -1      1276 1.72453E-03-2.13655E-04-4.48686E-15
 -1      1277 1.77915E-03-3.59109E-04-4.46964E-15
 -1      1278 1.93806E-03-5.12183E-04-4.55265E-15
 -1      1279 2.18440E-03-6.70656E-04-4.73124E-15
 -1      1280 2.51131E-03-8.35585E-04-5.01110E-15
 -1      1281 2.91301E-03-9.97270E-04-5.40187E-15
 -1      1282 3.38126E-03-1.13548E-03-5.91508E-15
 -1      1283 3.85048E-03-1.21488E-03-6.48529E-15
 -1      1284 4.28232E-03-1.22699E-03-7.06247E-15
 -1      1285 4.71009E-03-1.17896E-03-7.67425E-15
 -1      1286 5.11205E-03-1.08503E-03-8.27525E-15
 -1      1287 5.47020E-03-9.61273E-04-8.83159E-15
 -1      1288 5.77878E-03-8.22173E-04-9.33473E-15
 -1      1289 6.02082E-03-6.80481E-04-9.75910E-15
 -1      1290 6.18486E-03-5.40778E-04-1.00839E-14
 -1      1291 6.25816E-03-4.05645E-04-1.02959E-14
 -1      1292 1.80204E-04-1.01357E-04 1.93395E-17
 -1      1293 1.22318E-04-4.21101E-05-4.02510E-18
 -1      1294 1.28618E-04-5.51359E-05 2.07354E-18
 -1      1295 1.14213E-04-2.53328E-05-1.47316E-17
 -1      1296 1.18129E-04-3.25514E-05-1.10318E-17
 -1      1297 2.45045E-04-7.72588E-05-2.53161E-17
 -1      1298 1.08028E-04-1.49993E-05-2.21990E-17
 -1      1299 1.11177E-04-1.95505E-05-1.98409E-17
 -1      1300 2.28646E-04-4.79933E-05-4.62548E-17
 -1      1301 1.02837E-04-8.85610E-06-2.76336E-17
 -1      1302 1.05421E-04-1.15970E-05-2.59802E-17
 -1      1303 2.15504E-04-2.95370E-05-6.13387E-17
 -1      1304 9.88479E-05-5.73510E-06-3.12521E-17
 -1      1305 1.00758E-04-7.16486E-06-3.02357E-17
 -1      1306 2.04782E-04-1.85382E-05-7.22214E-17
 -1      1307 9.61892E-05-4.52229E-06-3.38542E-17
 -1      1308 9.73653E-05-5.17276E-06-3.32037E-17
 -1      1309 1.96721E-04-1.27061E-05-7.99057E-17
 -1      1310 9.51191E-05-4.19642E-06-3.58329E-17
 -1      1311 9.54683E-05-4.56112E-06-3.54534E-17
 -1      1312 1.91834E-04-1.00568E-05-8.55707E-17
 -1      1313 9.56087E-05-3.67889E-06-3.71881E-17
 -1      1314 9.51744E-05-4.25531E-06-3.69442E-17
 -1      1315 1.90459E-04-8.56223E-06-8.98126E-17
 -1      1316 9.74365E-05-2.05514E-06-3.77438E-17
 -1      1317 9.63523E-05-3.24566E-06-3.77031E-17
 -1      1318 1.92400E-04-6.23279E-06-9.23198E-17
 -1      1319 1.00261E-04 1.30956E-06-3.80284E-17
 -1      1320 9.87067E-05-7.60017E-07-3.80826E-17
 -1      1321 1.97061E-04-1.45895E-06-9.35531E-17
 -1      1322 1.03672E-04 6.65424E-06-3.75269E-17
 -1      1323 1.01844E-04 3.62973E-06-3.77302E-17
 -1      1324 2.03583E-04 6.73799E-06-9.35260E-17
 -1      1325 1.07556E-04 1.43556E-05-3.61717E-17
 -1      1326 1.05475E-04 1.01652E-05-3.66325E-17
 -1      1327 2.11288E-04 1.89639E-05-9.18455E-17
 -1      1328 1.11852E-04 2.46543E-05-3.35018E-17
 -1      1329 1.09479E-04 1.91454E-05-3.45996E-17
 -1      1330 2.19867E-04 3.58134E-05-8.81456E-17
 -1      1331 1.17088E-04 3.85531E-05-2.81622E-17
 -1      1332 1.13994E-04 3.10782E-05-3.05203E-17
 -1      1333 2.29500E-04 5.81352E-05-8.07189E-17
 -1      1334 1.25610E-04 5.97009E-05-1.84585E-17
 -1      1335 1.20171E-04 4.78710E-05-2.32832E-17
 -1      1336 2.42066E-04 8.88108E-05-6.75593E-17
 -1      1337 1.67081E-04 1.05815E-04-1.88380E-18
 -1      1338 1.45768E-04 7.94113E-05-1.29020E-17
 -1      1339 2.76163E-04 1.36534E-04-5.09846E-17
 -1      1340 3.57264E-04 2.09766E-04-2.41913E-17
 -1      1341 4.60113E-04-2.35169E-04 2.84061E-17
 -1      1342 6.32906E-04-2.98896E-04 1.79978E-17
 -1      1343 8.02298E-04-3.50356E-04-1.30917E-17
 -1      1344 9.70301E-04-3.93276E-04-6.44558E-17
 -1      1345 6.79751E-04-2.82446E-04-3.13334E-17
 -1      1346 1.13795E-03-4.31459E-04-1.36067E-16
 -1      1347 1.30626E-03-4.66558E-04-2.29051E-16
 -1      1348 1.01735E-03-3.69526E-04-1.47451E-16
 -1      1349 1.47612E-03-5.01105E-04-3.43787E-16
 -1      1350 1.64798E-03-5.36269E-04-4.81237E-16
 -1      1351 1.35307E-03-4.39997E-04-3.46606E-16
 -1      1352 1.82223E-03-5.74080E-04-6.41428E-16
 -1      1353 1.99885E-03-6.15679E-04-8.25268E-16
 -1      1354 1.69290E-03-5.09829E-04-6.33499E-16
 -1      1355 2.17776E-03-6.62912E-04-1.03326E-15
 -1      1356 2.35841E-03-7.16777E-04-1.26543E-15
 -1      1357 2.03977E-03-5.92223E-04-1.01233E-15
 -1      1358 2.54022E-03-7.78730E-04-1.52269E-15
 -1      1359 2.72206E-03-8.49134E-04-1.80655E-15
 -1      1360 2.39372E-03-6.99270E-04-1.48785E-15
 -1      1361 2.90284E-03-9.28276E-04-2.11646E-15
 -1      1362 3.08100E-03-1.01505E-03-2.45320E-15
 -1      1363 2.75161E-03-8.39939E-04-2.06401E-15
 -1      1364 3.25523E-03-1.10747E-03-2.81947E-15
 -1      1365 3.42405E-03-1.20213E-03-3.21448E-15
 -1      1366 3.10701E-03-1.01431E-03-2.74764E-15
 -1      1367 3.58658E-03-1.29430E-03-3.63842E-15
 -1      1368 3.74247E-03-1.37860E-03-4.09332E-15
 -1      1369 3.45141E-03-1.20562E-03-3.54477E-15
 -1      1370 3.89210E-03-1.44893E-03-4.57887E-15
 -1      1371 4.03702E-03-1.50029E-03-5.09658E-15
 -1      1372 3.77823E-03-1.37674E-03-4.46087E-15
 -1      1373 4.17903E-03-1.52878E-03-5.64770E-15
 -1      1374 4.32120E-03-1.53298E-03-6.23099E-15
 -1      1375 4.08890E-03-1.48110E-03-5.50361E-15
 -1      1376 4.46578E-03-1.51395E-03-6.84935E-15
 -1      1377 4.61540E-03-1.47494E-03-7.50275E-15
 -1      1378 4.39541E-03-1.48893E-03-6.68015E-15
 -1      1379 4.77135E-03-1.42128E-03-8.18891E-15
 -1      1380 4.93443E-03-1.35866E-03-8.90720E-15
 -1      1381 4.71322E-03-1.40855E-03-7.99309E-15
 -1      1382 5.10446E-03-1.29309E-03-9.65815E-15
 -1      1383 5.28045E-03-1.22952E-03-1.04409E-14
 -1      1384 5.05048E-03-1.28065E-03-9.43912E-15
 -1      1385 5.46124E-03-1.17183E-03-1.12529E-14
 -1      1386 5.64517E-03-1.12263E-03-1.20940E-14
 -1      1387 5.40472E-03-1.15182E-03-1.10109E-14
 -1      1388 5.83091E-03-1.08310E-03-1.29631E-14
 -1      1389 6.01698E-03-1.05383E-03-1.38590E-14
 -1      1390 5.76756E-03-1.05293E-03-1.27001E-14
 -1      1391 6.20236E-03-1.03421E-03-1.47820E-14
 -1      1392 6.38608E-03-1.02377E-03-1.57319E-14
 -1      1393 6.13053E-03-9.94790E-04-1.44996E-14
 -1      1394 6.56755E-03-1.02120E-03-1.67069E-14
 -1      1395 6.74631E-03-1.02564E-03-1.77076E-14
 -1      1396 6.48765E-03-9.74847E-04-1.64039E-14
 -1      1397 6.92216E-03-1.03579E-03-1.87363E-14
 -1      1398 7.09497E-03-1.05079E-03-1.97929E-14
 -1      1399 6.83569E-03-9.84927E-04-1.84139E-14
 -1      1400 7.26478E-03-1.06963E-03-2.08782E-14
 -1      1401 7.43169E-03-1.09156E-03-2.19911E-14
 -1      1402 7.17354E-03-1.01619E-03-2.05326E-14
 -1      1403 7.59585E-03-1.11592E-03-2.31336E-14
 -1      1404 7.75744E-03-1.14211E-03-2.43025E-14
 -1      1405 7.50146E-03-1.06128E-03-2.27653E-14
 -1      1406 7.91670E-03-1.16972E-03-2.54993E-14
 -1      1407 8.07381E-03-1.19833E-03-2.67253E-14
 -1      1408 7.82044E-03-1.11475E-03-2.51082E-14
 -1      1409 8.22900E-03-1.22768E-03-2.79774E-14
 -1      1410 8.38248E-03-1.25747E-03-2.92567E-14
 -1      1411 8.13180E-03-1.17288E-03-2.75630E-14
 -1      1412 8.53443E-03-1.28758E-03-3.05599E-14
 -1      1413 8.68503E-03-1.31780E-03-3.18862E-14
 -1      1414 8.43689E-03-1.23322E-03-3.01224E-14
 -1      1415 8.83446E-03-1.34806E-03-3.32372E-14
 -1      1416 8.98284E-03-1.37824E-03-3.46101E-14
 -1      1417 8.73697E-03-1.29425E-03-3.27814E-14
 -1      1418 9.13034E-03-1.40831E-03-3.60064E-14
 -1      1419 9.27705E-03-1.43819E-03-3.74252E-14
 -1      1420 9.03311E-03-1.35507E-03-3.55330E-14
 -1      1421 9.42310E-03-1.46787E-03-3.88633E-14
 -1      1422 9.56857E-03-1.49732E-03-4.03222E-14
 -1      1423 9.32625E-03-1.41517E-03-3.83709E-14
 -1      1424 9.71355E-03-1.52654E-03-4.17978E-14
 -1      1425 9.85810E-03-1.55551E-03-4.32882E-14
 -1      1426 9.61710E-03-1.47433E-03-4.12873E-14
 -1      1427 1.00023E-02-1.58425E-03-4.47988E-14
 -1      1428 1.01462E-02-1.61275E-03-4.63276E-14
 -1      1429 9.90627E-03-1.53247E-03-4.42777E-14
 -1      1430 1.02899E-02-1.64103E-03-4.78751E-14
 -1      1431 1.04333E-02-1.66909E-03-4.94404E-14
 -1      1432 1.01942E-02-1.58961E-03-4.73399E-14
 -1      1433 1.05766E-02-1.69696E-03-5.10241E-14
 -1      1434 1.07198E-02-1.72463E-03-5.26259E-14
 -1      1435 1.04813E-02-1.64583E-03-5.04753E-14
 -1      1436 1.08628E-02-1.75213E-03-5.42458E-14
 -1      1437 1.10057E-02-1.77946E-03-5.58824E-14
 -1      1438 1.07677E-02-1.70124E-03-5.36831E-14
 -1      1439 1.11486E-02-1.80665E-03-5.75355E-14
 -1      1440 1.12914E-02-1.83370E-03-5.92039E-14
 -1      1441 1.10538E-02-1.75595E-03-5.69598E-14
 -1      1442 1.14342E-02-1.86063E-03-6.08915E-14
 -1      1443 1.15769E-02-1.88744E-03-6.25937E-14
 -1      1444 1.13396E-02-1.81008E-03-6.03012E-14
 -1      1445 1.17196E-02-1.91416E-03-6.43147E-14
 -1      1446 1.18623E-02-1.94079E-03-6.60553E-14
 -1      1447 1.16252E-02-1.86373E-03-6.37132E-14
 -1      1448 1.20050E-02-1.96734E-03-6.78106E-14
 -1      1449 1.21477E-02-1.99382E-03-6.95827E-14
 -1      1450 1.19107E-02-1.91700E-03-6.71949E-14
 -1      1451 1.22904E-02-2.02024E-03-7.13666E-14
 -1      1452 1.24331E-02-2.04660E-03-7.31626E-14
 -1      1453 1.21962E-02-1.96996E-03-7.07374E-14
 -1      1454 1.25758E-02-2.07292E-03-7.49810E-14
 -1      1455 1.27185E-02-2.09919E-03-7.68177E-14
 -1      1456 1.24816E-02-2.02269E-03-7.43433E-14
 -1      1457 1.28612E-02-2.12543E-03-7.86680E-14
 -1      1458 1.30040E-02-2.15164E-03-8.05396E-14
 -1      1459 1.27671E-02-2.07524E-03-7.80142E-14
 -1      1460 1.31467E-02-2.17782E-03-8.24250E-14
 -1      1461 1.32894E-02-2.20398E-03-8.43237E-14
 -1      1462 1.30526E-02-2.12765E-03-8.17537E-14
 -1      1463 1.34322E-02-2.23013E-03-8.62381E-14
 -1      1464 1.35750E-02-2.25625E-03-8.81670E-14
 -1      1465 1.33381E-02-2.17997E-03-8.55583E-14
 -1      1466 1.37177E-02-2.28237E-03-9.01107E-14
 -1      1467 1.38605E-02-2.30847E-03-9.20649E-14
 -1      1468 1.36237E-02-2.23221E-03-8.94169E-14
 -1      1469 1.40033E-02-2.33457E-03-9.40335E-14
 -1      1470 1.41461E-02-2.36066E-03-9.60166E-14
 -1      1471 1.39093E-02-2.28442E-03-9.33262E-14
 -1      1472 1.42890E-02-2.38674E-03-9.80046E-14
 -1      1473 1.44318E-02-2.41283E-03-9.99938E-14
 -1      1474 1.41949E-02-2.33660E-03-9.72794E-14
 -1      1475 1.45746E-02-2.43891E-03-1.01992E-13
 -1      1476 1.47175E-02-2.46500E-03-1.03997E-13
 -1      1477 1.44806E-02-2.38876E-03-1.01263E-13
 -1      1478 1.48603E-02-2.49109E-03-1.06008E-13
 -1      1479 1.50031E-02-2.51718E-03-1.08020E-13
 -1      1480 1.47663E-02-2.44093E-03-1.05271E-13
 -1      1481 1.51460E-02-2.54327E-03-1.10040E-13
 -1      1482 1.52888E-02-2.56938E-03-1.12068E-13
 -1      1483 1.50520E-02-2.49311E-03-1.09302E-13
 -1      1484 1.54934E-02-2.60291E-03-1.15053E-13
 -1      1485 1.53993E-02-2.55275E-03-1.14306E-13
 -1      1486 6.94362E-04 3.47539E-04-1.17921E-16
 -1      1487 5.28858E-04 2.85374E-04-5.64869E-17
 -1      1488 4.80105E-04 2.44936E-04-7.63820E-17
 -1      1489 1.01519E-03 4.41604E-04-3.24813E-16
 -1      1490 8.55970E-04 3.97865E-04-2.07814E-16
 -1      1491 8.10114E-04 3.58573E-04-2.29024E-16
 -1      1492 1.33030E-03 5.16503E-04-6.41834E-16
 -1      1493 1.17297E-03 4.80548E-04-4.69094E-16
 -1      1494 1.13073E-03 4.42460E-04-4.91171E-16
 -1      1495 1.64430E-03 5.84905E-04-1.06862E-15
 -1      1496 1.48724E-03 5.51076E-04-8.41395E-16
 -1      1497 1.44686E-03 5.13392E-04-8.61615E-16
 -1      1498 1.95795E-03 6.54255E-04-1.60818E-15
 -1      1499 1.80118E-03 6.19264E-04-1.32419E-15
 -1      1500 1.76141E-03 5.81555E-04-1.34177E-15
 -1      1501 2.26946E-03 7.28428E-04-2.26146E-15
 -1      1502 2.11414E-03 6.90770E-04-1.92062E-15
 -1      1503 2.07464E-03 6.53000E-04-1.93351E-15
 -1      1504 2.57541E-03 8.07412E-04-3.03101E-15
 -1      1505 2.42338E-03 7.67619E-04-2.63162E-15
 -1      1506 2.38487E-03 7.30132E-04-2.63921E-15
 -1      1507 2.87195E-03 8.86452E-04-3.92092E-15
 -1      1508 2.72511E-03 8.47503E-04-3.46045E-15
 -1      1509 2.68926E-03 8.10970E-04-3.46193E-15
 -1      1510 3.15629E-03 9.55889E-04-4.93354E-15
 -1      1511 3.01577E-03 9.23140E-04-4.41185E-15
 -1      1512 2.98499E-03 8.88394E-04-4.40463E-15
 -1      1513 3.42834E-03 1.00282E-03-6.07378E-15
 -1      1514 3.29374E-03 9.82923E-04-5.48782E-15
 -1      1515 3.27062E-03 9.50657E-04-5.47228E-15
 -1      1516 3.69173E-03 1.01496E-03-7.34289E-15
 -1      1517 3.56075E-03 1.01370E-03-6.69171E-15
 -1      1518 3.54732E-03 9.84126E-04-6.66696E-15
 -1      1519 3.95316E-03 9.85412E-04-8.74428E-15
 -1      1520 3.82217E-03 1.00535E-03-8.02720E-15
 -1      1521 3.81925E-03 9.77998E-04-7.99149E-15
 -1      1522 4.22036E-03 9.15790E-04-1.02741E-14
 -1      1523 4.08556E-03 9.55048E-04-9.49275E-15
 -1      1524 4.09251E-03 9.28897E-04-9.44646E-15
 -1      1525 4.49936E-03 8.15731E-04-1.19337E-14
 -1      1526 4.35810E-03 8.68691E-04-1.10880E-14
 -1      1527 4.37298E-03 8.42584E-04-1.10303E-14
 -1      1528 4.79269E-03 6.99138E-04-1.37169E-14
 -1      1529 4.64420E-03 7.58611E-04-1.28105E-14
 -1      1530 4.66425E-03 7.31645E-04-1.27410E-14
 -1      1531 5.09929E-03 5.79511E-04-1.56145E-14
 -1      1532 4.94451E-03 6.39026E-04-1.46512E-14
 -1      1533 4.96682E-03 6.10763E-04-1.45701E-14
 -1      1534 5.41562E-03 4.66712E-04-1.76246E-14
 -1      1535 5.25652E-03 5.21875E-04-1.66060E-14
 -1      1536 5.27861E-03 4.92309E-04-1.65155E-14
 -1      1537 5.73727E-03 3.66015E-04-1.97470E-14
 -1      1538 5.57607E-03 4.14728E-04-1.86718E-14
 -1      1539 5.59625E-03 3.84122E-04-1.85723E-14
 -1      1540 6.06018E-03 2.78829E-04-2.19812E-14
 -1      1541 5.89881E-03 3.20784E-04-2.08500E-14
 -1      1542 5.91618E-03 2.89506E-04-2.07396E-14
 -1      1543 6.38126E-03 2.04077E-04-2.43214E-14
 -1      1544 6.22111E-03 2.40037E-04-2.31379E-14
 -1      1545 6.23546E-03 2.08443E-04-2.30154E-14
 -1      1546 6.69859E-03 1.39479E-04-2.67605E-14
 -1      1547 6.54049E-03 1.70673E-04-2.55290E-14
 -1      1548 6.55205E-03 1.39046E-04-2.53944E-14
 -1      1549 7.01124E-03 8.24612E-05-2.92995E-14
 -1      1550 6.85554E-03 1.10177E-04-2.80180E-14
 -1      1551 6.86478E-03 7.87141E-05-2.78739E-14
 -1      1552 7.31901E-03 3.06551E-05-3.19396E-14
 -1      1553 7.16573E-03 5.60355E-05-3.06078E-14
 -1      1554 7.17319E-03 2.48526E-05-3.04529E-14
 -1      1555 7.62219E-03-1.78803E-05-3.46657E-14
 -1      1556 7.47115E-03 6.07778E-06-3.32911E-14
 -1      1557 7.47732E-03-2.47717E-05-3.31257E-14
 -1      1558 7.92130E-03-6.46171E-05-3.74865E-14
 -1      1559 7.77221E-03-4.14018E-05-3.60647E-14
 -1      1560 7.77754E-03-7.19095E-05-3.58907E-14
 -1      1561 8.21699E-03-1.10601E-04-4.03974E-14
 -1      1562 8.06953E-03-8.76543E-05-3.89309E-14
 -1      1563 8.07436E-03-1.17840E-04-3.87471E-14
 -1      1564 8.50991E-03-1.56530E-04-4.33946E-14
 -1      1565 8.36376E-03-1.33542E-04-4.18855E-14
 -1      1566 8.36833E-03-1.63440E-04-4.16912E-14
 -1      1567 8.80064E-03-2.02834E-04-4.64737E-14
 -1      1568 8.65551E-03-1.79617E-04-4.49236E-14
 -1      1569 8.66001E-03-2.09271E-04-4.47190E-14
 -1      1570 9.08971E-03-2.49748E-04-4.96309E-14
 -1      1571 8.94536E-03-2.26206E-04-4.80432E-14
 -1      1572 8.94989E-03-2.55658E-04-4.78283E-14
 -1      1573 9.37755E-03-2.97375E-04-5.28707E-14
 -1      1574 9.23376E-03-2.73470E-04-5.12403E-14
 -1      1575 9.23841E-03-3.02759E-04-5.10180E-14
 -1      1576 9.66449E-03-3.45728E-04-5.61853E-14
 -1      1577 9.52111E-03-3.21462E-04-5.45185E-14
 -1      1578 9.52590E-03-3.50624E-04-5.42854E-14
 -1      1579 9.95081E-03-3.94767E-04-5.95774E-14
 -1      1580 9.80771E-03-3.70165E-04-5.78719E-14
 -1      1581 9.81266E-03-3.99230E-04-5.76313E-14
 -1      1582 1.02367E-02-4.44422E-04-6.30481E-14
 -1      1583 1.00938E-02-4.19522E-04-6.13030E-14
 -1      1584 1.00989E-02-4.48513E-04-6.10550E-14
 -1      1585 1.05224E-02-4.94610E-04-6.65992E-14
 -1      1586 1.03796E-02-4.69454E-04-6.48116E-14
 -1      1587 1.03848E-02-4.98392E-04-6.45578E-14
 -1      1588 1.08078E-02-5.45247E-04-7.02252E-14
 -1      1589 1.06651E-02-5.19877E-04-6.84039E-14
 -1      1590 1.06705E-02-5.48778E-04-6.81386E-14
 -1      1591 1.10932E-02-5.96251E-04-7.39217E-14
 -1      1592 1.09505E-02-5.70707E-04-7.20652E-14
 -1      1593 1.09560E-02-5.99582E-04-7.17902E-14
 -1      1594 1.13786E-02-6.47551E-04-7.76811E-14
 -1      1595 1.12359E-02-6.21868E-04-7.57938E-14
 -1      1596 1.12415E-02-6.50726E-04-7.55056E-14
 -1      1597 1.16640E-02-6.99082E-04-8.15004E-14
 -1      1598 1.15213E-02-6.73291E-04-7.95836E-14
 -1      1599 1.15270E-02-7.02138E-04-7.92824E-14
 -1      1600 1.19494E-02-7.50792E-04-8.53840E-14
 -1      1601 1.18067E-02-7.24918E-04-8.34343E-14
 -1      1602 1.18124E-02-7.53759E-04-8.31217E-14
 -1      1603 1.22349E-02-8.02636E-04-8.93227E-14
 -1      1604 1.20921E-02-7.76700E-04-8.73454E-14
 -1      1605 1.20979E-02-8.05538E-04-8.70226E-14
 -1      1606 1.25204E-02-8.54579E-04-9.33055E-14
 -1      1607 1.23776E-02-8.28597E-04-9.13099E-14
 -1      1608 1.23834E-02-8.57435E-04-9.09762E-14
 -1      1609 1.28059E-02-9.06591E-04-9.73306E-14
 -1      1610 1.26631E-02-8.80578E-04-9.53123E-14
 -1      1611 1.26689E-02-9.09417E-04-9.49714E-14
 -1      1612 1.30915E-02-9.58649E-04-1.01384E-13
 -1      1613 1.29487E-02-9.32615E-04-9.93555E-14
 -1      1614 1.29545E-02-9.61456E-04-9.90040E-14
 -1      1615 1.33771E-02-1.01073E-03-1.05459E-13
 -1      1616 1.32343E-02-9.84689E-04-1.03420E-13
 -1      1617 1.32401E-02-1.01353E-03-1.03061E-13
 -1      1618 1.36627E-02-1.06283E-03-1.09539E-13
 -1      1619 1.35199E-02-1.03678E-03-1.07498E-13
 -1      1620 1.35257E-02-1.06563E-03-1.07131E-13
 -1      1621 1.39484E-02-1.11493E-03-1.13619E-13
 -1      1622 1.38056E-02-1.08888E-03-1.11579E-13
 -1      1623 1.38114E-02-1.11773E-03-1.11208E-13
 -1      1624 1.42341E-02-1.16701E-03-1.17707E-13
 -1      1625 1.40913E-02-1.14097E-03-1.15660E-13
 -1      1626 1.40971E-02-1.16982E-03-1.15289E-13
 -1      1627 1.45198E-02-1.21908E-03-1.21809E-13
 -1      1628 1.43770E-02-1.19305E-03-1.19758E-13
 -1      1629 1.43828E-02-1.22191E-03-1.19381E-13
 -1      1630 1.46753E-02-1.25710E-03-1.23880E-13
 -1      1631 1.47513E-02-1.36465E-03-1.23405E-13
 -1      1632 1.47257E-02-1.32250E-03-1.23667E-13
 -1      1633 1.48024E-02-1.44895E-03-1.22869E-13
 -1      1634 1.47768E-02-1.40679E-03-1.23139E-13
 -1      1635 1.46403E-02-1.36318E-03-1.21503E-13
 -1      1636 1.48536E-02-1.53326E-03-1.22330E-13
 -1      1637 1.48280E-02-1.49110E-03-1.22598E-13
 -1      1638 1.46915E-02-1.44749E-03-1.20975E-13
 -1      1639 1.49047E-02-1.61760E-03-1.21806E-13
 -1      1640 1.48791E-02-1.57543E-03-1.22067E-13
 -1      1641 1.47426E-02-1.53181E-03-1.20449E-13
 -1      1642 1.49550E-02-1.70052E-03-1.21309E-13
 -1      1643 1.49299E-02-1.65906E-03-1.21556E-13
 -1      1644 1.47933E-02-1.61543E-03-1.19936E-13
 -1      1645 1.50062E-02-1.78489E-03-1.20799E-13
 -1      1646 1.49806E-02-1.74270E-03-1.21056E-13
 -1      1647 1.48441E-02-1.69906E-03-1.19426E-13
 -1      1648 1.50574E-02-1.86927E-03-1.20270E-13
 -1      1649 1.50318E-02-1.82708E-03-1.20537E-13
 -1      1650 1.48953E-02-1.78342E-03-1.18906E-13
 -1      1651 1.51087E-02-1.95365E-03-1.19727E-13
 -1      1652 1.50830E-02-1.91146E-03-1.20000E-13
 -1      1653 1.49465E-02-1.86779E-03-1.18372E-13
 -1      1654 1.51600E-02-2.03803E-03-1.19169E-13
 -1      1655 1.51343E-02-1.99584E-03-1.19451E-13
 -1      1656 1.49978E-02-1.95216E-03-1.17830E-13
 -1      1657 1.52113E-02-2.12240E-03-1.18599E-13
 -1      1658 1.51856E-02-2.08022E-03-1.18886E-13
 -1      1659 1.50491E-02-2.03653E-03-1.17273E-13
 -1      1660 1.52618E-02-2.20533E-03-1.18044E-13
 -1      1661 1.52365E-02-2.16387E-03-1.18319E-13
 -1      1662 1.51000E-02-2.12018E-03-1.16713E-13
 -1      1663 1.53132E-02-2.28968E-03-1.17480E-13
 -1      1664 1.52875E-02-2.24751E-03-1.17762E-13
 -1      1665 1.51509E-02-2.20382E-03-1.16149E-13
 -1      1666 1.53645E-02-2.37400E-03-1.16893E-13
 -1      1667 1.53389E-02-2.33184E-03-1.17194E-13
 -1      1668 1.52023E-02-2.28815E-03-1.15574E-13
 -1      1669 1.54159E-02-2.45831E-03-1.16289E-13
 -1      1670 1.53902E-02-2.41616E-03-1.16592E-13
 -1      1671 1.52537E-02-2.37247E-03-1.14983E-13
 -1      1672 1.54205E-02-2.52660E-03-1.15146E-13
 -1      1673 1.53948E-02-2.48446E-03-1.15449E-13
 -1      1674 1.52582E-02-2.44077E-03-1.13842E-13
 -1      1675 1.52160E-02-2.49307E-03-1.12166E-13
 -1      1676 6.21781E-03-2.74422E-04-1.07823E-14
 -1      1677 6.26460E-03-3.20875E-04-1.07748E-14
 -1      1678 6.01546E-03-1.64274E-04-1.07027E-14
 -1      1679 6.12316E-03-2.19738E-04-1.07851E-14
 -1      1680 5.72655E-03-6.88337E-06-1.03466E-14
 -1      1681 5.86992E-03-7.62690E-05-1.04932E-14
 -1      1682 5.36350E-03 1.67511E-04-9.90855E-15
 -1      1683 5.53851E-03 8.37339E-05-1.01278E-14
 -1      1684 4.97155E-03 3.49099E-04-9.35439E-15
 -1      1685 5.15259E-03 2.66189E-04-9.61874E-15
 -1      1686 4.52376E-03 5.22431E-04-8.67389E-15
 -1      1687 4.72635E-03 4.43692E-04-9.01980E-15
 -1      1688 4.14500E-03 6.18340E-04-7.94493E-15
 -1      1689 4.31624E-03 5.84507E-04-8.25184E-15
 -1      1690 3.76031E-03 6.39375E-04-7.25212E-15
 -1      1691 3.93696E-03 6.41910E-04-7.57613E-15
 -1      1692 3.36809E-03 5.71681E-04-6.55693E-15
 -1      1693 3.54855E-03 6.14187E-04-6.86856E-15
 -1      1694 2.97082E-03 4.37782E-04-5.94240E-15
 -1      1695 3.14929E-03 5.04938E-04-6.21261E-15
 -1      1696 2.58632E-03 2.80010E-04-5.42726E-15
 -1      1697 2.75781E-03 3.54896E-04-5.65440E-15
 -1      1698 2.20858E-03 8.83676E-05-4.91926E-15
 -1      1699 2.38901E-03 1.71348E-04-5.13124E-15
 -1      1700 1.91964E-03-2.69095E-05-4.64401E-15
 -1      1701 2.02699E-03 2.74267E-05-4.76754E-15
 -1      1702 1.74881E-03-1.45825E-04-4.39110E-15
 -1      1703 1.81646E-03-9.98102E-05-4.47883E-15
 -1      1704 1.71075E-03-2.34319E-04-4.33063E-15
 -1      1705 1.71151E-03-1.92619E-04-4.36195E-15
 -1      1706 1.80805E-03-3.35657E-04-4.32600E-15
 -1      1707 1.74551E-03-2.85994E-04-4.31054E-15
 -1      1708 2.02008E-03-4.63994E-04-4.44176E-15
 -1      1709 1.91029E-03-4.03479E-04-4.38122E-15
 -1      1710 2.32469E-03-6.22097E-04-4.64792E-15
 -1      1711 2.17312E-03-5.44558E-04-4.53914E-15
 -1      1712 2.69591E-03-8.10043E-04-4.95930E-15
 -1      1713 2.51787E-03-7.20414E-04-4.80190E-15
 -1      1714 3.12958E-03-1.00919E-03-5.37886E-15
 -1      1715 2.93049E-03-9.13881E-04-5.16061E-15
 -1      1716 3.57909E-03-1.18820E-03-5.94506E-15
 -1      1717 3.37577E-03-1.11259E-03-5.66677E-15
 -1      1718 3.97341E-03-1.27202E-03-6.56642E-15
 -1      1719 3.79802E-03-1.24547E-03-6.28845E-15
 -1      1720 4.34373E-03-1.26204E-03-7.19777E-15
 -1      1721 4.17490E-03-1.27625E-03-6.90488E-15
 -1      1722 4.72131E-03-1.17356E-03-7.88093E-15
 -1      1723 4.54324E-03-1.22617E-03-7.56193E-15
 -1      1724 5.09987E-03-1.03241E-03-8.51904E-15
 -1      1725 4.93378E-03-1.10099E-03-8.23183E-15
 -1      1726 5.45403E-03-8.65073E-04-9.14430E-15
 -1      1727 5.28934E-03-9.43451E-04-8.86534E-15
 -1      1728 5.77901E-03-7.11716E-04-9.67392E-15
 -1      1729 5.63846E-03-7.81623E-04-9.43683E-15
 -1      1730 6.03838E-03-5.71294E-04-1.01488E-14
 -1      1731 5.92532E-03-6.31128E-04-9.95118E-15
 -1      1732 6.21286E-03-4.64172E-04-1.04668E-14
 -1      1733 6.14569E-03-5.12137E-04-1.03280E-14
 -1      1734 6.27798E-03-3.71063E-04-1.06730E-14
 -1      1735 6.26167E-03-4.12394E-04-1.05947E-14
 -1      1736 5.19356E-03 1.73374E-04-1.00084E-14
 -1      1737 5.58295E-03-1.96249E-05-1.05327E-14
 -1      1738 1.46811E-02-1.28595E-03-1.23502E-13
 -1      1739 1.45702E-02-1.28449E-03-1.21597E-13
 -1      1740 6.17037E-03-2.86781E-04-1.11897E-14
 -1      1741 5.92124E-03-1.82343E-04-1.09737E-14
 -1      1742 6.28058E-03-3.51402E-04-1.10873E-14
 -1      1743 4.77057E-03 3.82784E-04-9.36827E-15
 -1      1744 4.38315E-03 5.62742E-04-8.59499E-15
 -1      1745 4.02057E-03 6.56152E-04-7.79758E-15
 -1      1746 3.67358E-03 6.50380E-04-7.04393E-15
 -1      1747 3.31190E-03 5.43117E-04-6.32285E-15
 -1      1748 2.92751E-03 3.74654E-04-5.70313E-15
 -1      1749 2.53212E-03 1.76281E-04-5.13264E-15
 -1      1750 2.15883E-03 1.04414E-05-4.70691E-15
 -1      1751 1.87220E-03-1.07655E-04-4.40113E-15
 -1      1752 1.72331E-03-1.79566E-04-4.21819E-15
 -1      1753 1.72082E-03-2.43165E-04-4.17205E-15
 -1      1754 1.86397E-03-3.22480E-04-4.20444E-15
 -1      1755 2.12729E-03-4.45468E-04-4.34972E-15
 -1      1756 2.47545E-03-6.15102E-04-4.58937E-15
 -1      1757 2.88798E-03-8.25315E-04-4.93030E-15
 -1      1758 3.32459E-03-1.05289E-03-5.40209E-15
 -1      1759 3.72258E-03-1.23340E-03-6.01944E-15
 -1      1760 4.07676E-03-1.30170E-03-6.69590E-15
 -1      1761 4.41907E-03-1.26436E-03-7.39808E-15
 -1      1762 4.76771E-03-1.13828E-03-8.12040E-15
 -1      1763 5.13509E-03-9.62048E-04-8.82821E-15
 -1      1764 5.49101E-03-7.79418E-04-9.48261E-15
 -1      1765 5.81905E-03-6.18956E-04-1.00670E-14
 -1      1766 6.07929E-03-4.98974E-04-1.05370E-14
 -1      1767 6.24147E-03-4.16579E-04-1.08538E-14
 -1      1768 3.12994E-04-1.54414E-04 1.18720E-17
 -1      1769 3.42798E-04-6.94922E-05-7.91874E-17
 -1      1770 3.54743E-04-8.65733E-05-6.60550E-17
 -1      1771 3.68152E-04-1.07798E-04-5.14996E-17
 -1      1772 3.84124E-04-1.33553E-04-3.33257E-17
 -1      1773 4.88930E-04-1.31889E-04-9.45560E-17
 -1      1774 3.05528E-04-2.93891E-05-1.14329E-16
 -1      1775 3.13196E-04-3.59071E-05-1.07431E-16
 -1      1776 2.93558E-04-2.07378E-05-1.25076E-16
 -1      1777 2.98874E-04-2.43779E-05-1.20021E-16
 -1      1778 4.04483E-04-3.94501E-05-1.74191E-16
 -1      1779 2.87148E-04-1.59505E-05-1.32883E-16
 -1      1780 2.89626E-04-1.80370E-05-1.29142E-16
 -1      1781 3.89418E-04-2.83444E-05-1.88339E-16
 -1      1782 2.86506E-04-1.20732E-05-1.38385E-16
 -1      1783 2.86132E-04-1.40719E-05-1.35823E-16
 -1      1784 3.82540E-04-2.11608E-05-1.98504E-16
 -1      1785 2.91088E-04-6.39565E-06-1.41624E-16
 -1      1786 2.88223E-04-9.60084E-06-1.40269E-16
 -1      1787 3.83861E-04-1.41874E-05-2.05483E-16
 -1      1788 2.99750E-04 3.17290E-06-1.43169E-16
 -1      1789 2.95013E-04-2.18662E-06-1.42491E-16
 -1      1790 3.92289E-04-4.14399E-06-2.09685E-16
 -1      1791 3.10943E-04 1.76553E-05-1.42640E-16
 -1      1792 3.05105E-04 9.75025E-06-1.43237E-16
 -1      1793 4.05855E-04 1.12022E-05-2.11230E-16
 -1      1794 3.24004E-04 3.82974E-05-1.39835E-16
 -1      1795 3.17309E-04 2.72302E-05-1.41624E-16
 -1      1796 4.22725E-04 3.33105E-05-2.10254E-16
 -1      1797 3.38421E-04 6.56631E-05-1.33167E-16
 -1      1798 3.31022E-04 5.11361E-05-1.37138E-16
 -1      1799 4.41800E-04 6.32772E-05-2.05321E-16
 -1      1800 3.55197E-04 1.01537E-04-1.20767E-16
 -1      1801 3.46347E-04 8.24759E-05-1.28166E-16
 -1      1802 4.62882E-04 1.01991E-04-1.94899E-16
 -1      1803 3.78884E-04 1.50782E-04-9.88792E-17
 -1      1804 3.65749E-04 1.24249E-04-1.11375E-16
 -1      1805 4.88349E-04 1.52045E-04-1.75871E-16
 -1      1806 4.40582E-04 2.10886E-04-8.57062E-17
 -1      1807 4.07993E-04 1.77352E-04-9.53556E-17
 -1      1808 5.34766E-04 2.10149E-04-1.59378E-16
 -1      1809 6.05288E-04 2.72742E-04-1.47966E-16
 -1      1810 3.75105E-04-1.58149E-04-7.39968E-18
 -1      1811 9.30538E-04 3.69624E-04-3.56391E-16
 -1      1812 7.68541E-04 3.24628E-04-2.38904E-16
 -1      1813 7.30101E-04 2.91542E-04-2.46073E-16
 -1      1814 5.05720E-04-1.90798E-04-3.84621E-17
 -1      1815 8.97836E-04-3.08682E-04-1.52805E-16
 -1      1816 1.06403E-03-3.45846E-04-2.37820E-16
 -1      1817 1.22962E-03-3.80454E-04-3.43394E-16
 -1      1818 1.39600E-03-4.13691E-04-4.70652E-16
 -1      1819 1.10840E-03-3.22717E-04-3.34856E-16
 -1      1820 1.56328E-03-4.47833E-04-6.19920E-16
 -1      1821 1.73192E-03-4.83948E-04-7.91820E-16
 -1      1822 1.43491E-03-3.88284E-04-6.01637E-16
 -1      1823 1.90247E-03-5.24060E-04-9.86800E-16
 -1      1824 2.07460E-03-5.69419E-04-1.20546E-15
 -1      1825 1.76604E-03-4.58909E-04-9.56578E-16
 -1      1826 2.24925E-03-6.21692E-04-1.44805E-15
 -1      1827 2.42512E-03-6.82125E-04-1.71523E-15
 -1      1828 2.10507E-03-5.47127E-04-1.40407E-15
 -1      1829 2.60353E-03-7.51552E-04-2.00813E-15
 -1      1830 2.78207E-03-8.30491E-04-2.32687E-15
 -1      1831 2.45451E-03-6.64966E-04-1.94850E-15
 -1      1832 2.96217E-03-9.18080E-04-2.67259E-15
 -1      1833 3.14061E-03-1.01274E-03-3.04569E-15
 -1      1834 2.81450E-03-8.20681E-04-2.59450E-15
 -1      1835 3.31818E-03-1.11110E-03-3.44791E-15
 -1      1836 3.49229E-03-1.20810E-03-3.87877E-15
 -1      1837 3.18028E-03-1.01111E-03-3.34749E-15
 -1      1838 3.66249E-03-1.29797E-03-4.34016E-15
 -1      1839 3.82925E-03-1.37342E-03-4.83234E-15
 -1      1840 3.54132E-03-1.21071E-03-4.21629E-15
 -1      1841 3.99072E-03-1.42884E-03-5.35700E-15
 -1      1842 4.15219E-03-1.45885E-03-5.91507E-15
 -1      1843 3.88728E-03-1.36893E-03-5.20714E-15
 -1      1844 4.31108E-03-1.46180E-03-6.50758E-15
 -1      1845 4.47433E-03-1.43927E-03-7.13355E-15
 -1      1846 4.22065E-03-1.43130E-03-6.33039E-15
 -1      1847 4.63952E-03-1.39497E-03-7.79350E-15
 -1      1848 4.81016E-03-1.33567E-03-8.48858E-15
 -1      1849 4.55795E-03-1.38117E-03-7.59050E-15
 -1      1850 4.98488E-03-1.26755E-03-9.21660E-15
 -1      1851 5.16267E-03-1.19784E-03-9.97618E-15
 -1      1852 4.91168E-03-1.25507E-03-8.98912E-15
 -1      1853 5.34356E-03-1.13166E-03-1.07656E-14
 -1      1854 5.52435E-03-1.07263E-03-1.15855E-14
 -1      1855 5.27811E-03-1.11154E-03-1.05172E-14
 -1      1856 5.70613E-03-1.02339E-03-1.24353E-14
 -1      1857 5.88589E-03-9.84601E-04-1.33110E-14
 -1      1858 5.64514E-03-9.93986E-04-1.21657E-14
 -1      1859 6.06496E-03-9.56633E-04-1.42135E-14
 -1      1860 6.24131E-03-9.38727E-04-1.51427E-14
 -1      1861 6.00373E-03-9.19179E-04-1.39258E-14
 -1      1862 6.41594E-03-9.30027E-04-1.60994E-14
 -1      1863 6.58784E-03-9.29375E-04-1.70820E-14
 -1      1864 6.35078E-03-8.86396E-04-1.57921E-14
 -1      1865 6.75758E-03-9.35527E-04-1.80900E-14
 -1      1866 6.92482E-03-9.47445E-04-1.91248E-14
 -1      1867 6.68667E-03-8.87511E-04-1.77636E-14
 -1      1868 7.08983E-03-9.63968E-04-2.01864E-14
 -1      1869 7.25266E-03-9.84301E-04-2.12762E-14
 -1      1870 7.01295E-03-9.13056E-04-1.98391E-14
 -1      1871 7.41337E-03-1.00754E-03-2.23954E-14
 -1      1872 7.57223E-03-1.03311E-03-2.35423E-14
 -1      1873 7.33123E-03-9.54892E-04-2.20249E-14
 -1      1874 7.72921E-03-1.06039E-03-2.47170E-14
 -1      1875 7.88464E-03-1.08897E-03-2.59176E-14
 -1      1876 7.64287E-03-1.00686E-03-2.43227E-14
 -1      1877 8.03846E-03-1.11845E-03-2.71465E-14
 -1      1878 8.19101E-03-1.14856E-03-2.84027E-14
 -1      1879 7.94899E-03-1.06462E-03-2.67305E-14
 -1      1880 8.34225E-03-1.17906E-03-2.96848E-14
 -1      1881 8.49245E-03-1.20975E-03-3.09916E-14
 -1      1882 8.25058E-03-1.12530E-03-2.92451E-14
 -1      1883 8.64159E-03-1.24052E-03-3.23231E-14
 -1      1884 8.78991E-03-1.27124E-03-3.36777E-14
 -1      1885 8.54845E-03-1.18705E-03-3.18629E-14
 -1      1886 8.93740E-03-1.30184E-03-3.50571E-14
 -1      1887 9.08425E-03-1.33224E-03-3.64568E-14
 -1      1888 8.84333E-03-1.24875E-03-3.45779E-14
 -1      1889 9.23045E-03-1.36244E-03-3.78771E-14
 -1      1890 9.37616E-03-1.39238E-03-3.93188E-14
 -1      1891 9.13584E-03-1.30978E-03-3.73819E-14
 -1      1892 9.52138E-03-1.42207E-03-4.07791E-14
 -1      1893 9.66623E-03-1.45147E-03-4.22572E-14
 -1      1894 9.42649E-03-1.36982E-03-4.02679E-14
 -1      1895 9.81071E-03-1.48062E-03-4.37545E-14
 -1      1896 9.95491E-03-1.50949E-03-4.52689E-14
 -1      1897 9.71572E-03-1.42876E-03-4.32284E-14
 -1      1898 1.00988E-02-1.53811E-03-4.68029E-14
 -1      1899 1.02426E-02-1.56649E-03-4.83552E-14
 -1      1900 1.00039E-02-1.48660E-03-4.62625E-14
 -1      1901 1.03861E-02-1.59464E-03-4.99245E-14
 -1      1902 1.05295E-02-1.62256E-03-5.15119E-14
 -1      1903 1.02912E-02-1.54341E-03-4.93713E-14
 -1      1904 1.06728E-02-1.65029E-03-5.31174E-14
 -1      1905 1.08159E-02-1.67783E-03-5.47403E-14
 -1      1906 1.05780E-02-1.59931E-03-5.25500E-14
 -1      1907 1.09590E-02-1.70520E-03-5.63800E-14
 -1      1908 1.11020E-02-1.73242E-03-5.80357E-14
 -1      1909 1.08643E-02-1.65442E-03-5.57996E-14
 -1      1910 1.12449E-02-1.75949E-03-5.97103E-14
 -1      1911 1.13878E-02-1.78644E-03-6.14011E-14
 -1      1912 1.11503E-02-1.70887E-03-5.91153E-14
 -1      1913 1.15307E-02-1.81327E-03-6.31090E-14
 -1      1914 1.16735E-02-1.83999E-03-6.48334E-14
 -1      1915 1.14362E-02-1.76277E-03-6.25021E-14
 -1      1916 1.18163E-02-1.86663E-03-6.65742E-14
 -1      1917 1.19591E-02-1.89318E-03-6.83334E-14
 -1      1918 1.17219E-02-1.81623E-03-6.59557E-14
 -1      1919 1.21019E-02-1.91966E-03-7.01076E-14
 -1      1920 1.22446E-02-1.94608E-03-7.18946E-14
 -1      1921 1.20076E-02-1.86934E-03-6.94738E-14
 -1      1922 1.23874E-02-1.97244E-03-7.36990E-14
 -1      1923 1.25302E-02-1.99875E-03-7.55209E-14
 -1      1924 1.22932E-02-1.92218E-03-7.30554E-14
 -1      1925 1.26729E-02-2.02503E-03-7.73603E-14
 -1      1926 1.28157E-02-2.05126E-03-7.92135E-14
 -1      1927 1.25788E-02-1.97480E-03-7.67006E-14
 -1      1928 1.29585E-02-2.07747E-03-8.10851E-14
 -1      1929 1.31013E-02-2.10364E-03-8.29729E-14
 -1      1930 1.28644E-02-2.02727E-03-8.04158E-14
 -1      1931 1.32441E-02-2.12980E-03-8.48768E-14
 -1      1932 1.33869E-02-2.15594E-03-8.67941E-14
 -1      1933 1.31499E-02-2.07963E-03-8.41935E-14
 -1      1934 1.35296E-02-2.18206E-03-8.87229E-14
 -1      1935 1.36724E-02-2.20817E-03-9.06662E-14
 -1      1936 1.34356E-02-2.13190E-03-8.80303E-14
 -1      1937 1.38153E-02-2.23427E-03-9.26202E-14
 -1      1938 1.39581E-02-2.26036E-03-9.45851E-14
 -1      1939 1.37212E-02-2.18411E-03-9.19133E-14
 -1      1940 1.41009E-02-2.28645E-03-9.65600E-14
 -1      1941 1.42437E-02-2.31253E-03-9.85430E-14
 -1      1942 1.40068E-02-2.23630E-03-9.58423E-14
 -1      1943 1.43866E-02-2.33861E-03-1.00535E-13
 -1      1944 1.45294E-02-2.36469E-03-1.02532E-13
 -1      1945 1.42925E-02-2.28846E-03-9.98063E-14
 -1      1946 1.46722E-02-2.39078E-03-1.04536E-13
 -1      1947 1.48151E-02-2.41686E-03-1.06549E-13
 -1      1948 1.45782E-02-2.34062E-03-1.03802E-13
 -1      1949 1.49441E-02-2.44191E-03-1.08342E-13
 -1      1950 1.50869E-02-2.46801E-03-1.10362E-13
 -1      1951 1.51081E-02-2.44186E-03-1.11198E-13
 -1      1952 1.48500E-02-2.39175E-03-1.07602E-13
 -1      1953 1.24941E-03 4.45985E-04-6.70200E-16
 -1      1954 1.09032E-03 4.09523E-04-4.99777E-16
 -1      1955 1.05094E-03 3.76618E-04-5.05509E-16
 -1      1956 1.56528E-03 5.14592E-04-1.09156E-15
 -1      1957 1.40748E-03 4.80782E-04-8.67375E-16
 -1      1958 1.36832E-03 4.48044E-04-8.70181E-16
 -1      1959 1.87993E-03 5.83580E-04-1.62232E-15
 -1      1960 1.72275E-03 5.48777E-04-1.34335E-15
 -1      1961 1.68411E-03 5.15773E-04-1.34198E-15
 -1      1962 2.19312E-03 6.57595E-04-2.26449E-15
 -1      1963 2.03686E-03 6.19905E-04-1.92913E-15
 -1      1964 1.99925E-03 5.86449E-04-1.92247E-15
 -1      1965 2.50309E-03 7.37408E-04-3.02110E-15
 -1      1966 2.34876E-03 6.96981E-04-2.62817E-15
 -1      1967 2.31315E-03 6.63315E-04-2.61470E-15
 -1      1968 2.80727E-03 8.18901E-04-3.89520E-15
 -1      1969 2.65617E-03 7.78444E-04-3.44372E-15
 -1      1970 2.62392E-03 7.45288E-04-3.42196E-15
 -1      1971 3.10338E-03 8.92617E-04-4.89062E-15
 -1      1972 2.95649E-03 8.57477E-04-4.37701E-15
 -1      1973 2.92903E-03 8.25921E-04-4.34718E-15
 -1      1974 3.39078E-03 9.45107E-04-6.01133E-15
 -1      1975 3.24809E-03 9.22314E-04-5.43500E-15
 -1      1976 3.22650E-03 8.93455E-04-5.39472E-15
 -1      1977 3.67149E-03 9.62799E-04-7.25979E-15
 -1      1978 3.53162E-03 9.58848E-04-6.61966E-15
 -1      1979 3.51629E-03 9.33257E-04-6.56864E-15
 -1      1980 3.95018E-03 9.37342E-04-8.63922E-15
 -1      1981 3.81055E-03 9.55497E-04-7.93297E-15
 -1      1982 3.80131E-03 9.32839E-04-7.87178E-15
 -1      1983 4.23253E-03 8.69488E-04-1.01471E-14
 -1      1984 4.09039E-03 9.08196E-04-9.37701E-15
 -1      1985 4.08673E-03 8.87352E-04-9.30426E-15
 -1      1986 4.52300E-03 7.68950E-04-1.17830E-14
 -1      1987 4.37645E-03 8.22445E-04-1.09491E-14
 -1      1988 4.37771E-03 8.02064E-04-1.08650E-14
 -1      1989 4.82332E-03 6.50419E-04-1.35427E-14
 -1      1990 4.67190E-03 7.11055E-04-1.26481E-14
 -1      1991 4.67722E-03 6.90108E-04-1.25530E-14
 -1      1992 5.13246E-03 5.28345E-04-1.54198E-14
 -1      1993 4.97696E-03 5.89169E-04-1.44663E-14
 -1      1994 4.98518E-03 5.67184E-04-1.43602E-14
 -1      1995 5.44769E-03 4.13298E-04-1.74108E-14
 -1      1996 5.28958E-03 4.69589E-04-1.64014E-14
 -1      1997 5.29935E-03 4.46548E-04-1.62852E-14
 -1      1998 5.76582E-03 3.10919E-04-1.95129E-14
 -1      1999 5.60667E-03 3.60429E-04-1.84480E-14
 -1      2000 5.61667E-03 3.36547E-04-1.83214E-14
 -1      2001 6.08402E-03 2.22707E-04-2.17236E-14
 -1      2002 5.92514E-03 2.65110E-04-2.06043E-14
 -1      2003 5.93433E-03 2.40664E-04-2.04672E-14
 -1      2004 6.40021E-03 1.47513E-04-2.40400E-14
 -1      2005 6.24252E-03 1.83628E-04-2.28690E-14
 -1      2006 6.25027E-03 1.58871E-04-2.27201E-14
 -1      2007 6.71309E-03 8.29218E-05-2.64601E-14
 -1      2008 6.55715E-03 1.14056E-04-2.52379E-14
 -1      2009 6.56319E-03 8.91858E-05-2.50786E-14
 -1      2010 7.02206E-03 2.62112E-05-2.89775E-14
 -1      2011 6.86810E-03 5.37302E-05-2.77066E-14
 -1      2012 6.87245E-03 2.88921E-05-2.75372E-14
 -1      2013 7.32702E-03-2.51137E-05-3.15957E-14
 -1      2014 7.17504E-03-3.87758E-09-3.02745E-14
 -1      2015 7.17790E-03-2.47158E-05-3.00949E-14
 -1      2016 7.62818E-03-7.30920E-05-3.43036E-14
 -1      2017 7.47805E-03-4.94309E-05-3.29375E-14
 -1      2018 7.47968E-03-7.39619E-05-3.27479E-14
 -1      2019 7.92596E-03-1.19264E-04-3.71042E-14
 -1      2020 7.77746E-03-9.63405E-05-3.56922E-14
 -1      2021 7.77815E-03-1.20666E-04-3.54926E-14
 -1      2022 8.22086E-03-1.64718E-04-3.99952E-14
 -1      2023 8.07374E-03-1.42039E-04-3.85390E-14
 -1      2024 8.07375E-03-1.66157E-04-3.83289E-14
 -1      2025 8.51338E-03-2.10175E-04-4.29715E-14
 -1      2026 8.36738E-03-1.87421E-04-4.14730E-14
 -1      2027 8.36694E-03-2.11342E-04-4.12539E-14
 -1      2028 8.80400E-03-2.56076E-04-4.60313E-14
 -1      2029 8.65890E-03-2.33057E-04-4.44903E-14
 -1      2030 8.65817E-03-2.56801E-04-4.42615E-14
 -1      2031 9.09313E-03-3.02656E-04-4.91721E-14
 -1      2032 8.94872E-03-2.79275E-04-4.75914E-14
 -1      2033 8.94784E-03-3.02866E-04-4.73528E-14
 -1      2034 9.38114E-03-3.50013E-04-5.23908E-14
 -1      2035 9.23725E-03-3.26237E-04-5.07712E-14
 -1      2036 9.23631E-03-3.49698E-04-5.05242E-14
 -1      2037 9.66831E-03-3.98153E-04-5.56894E-14
 -1      2038 9.52481E-03-3.73988E-04-5.40303E-14
 -1      2039 9.52386E-03-3.97343E-04-5.37736E-14
 -1      2040 9.95487E-03-4.47028E-04-5.90659E-14
 -1      2041 9.81165E-03-4.22503E-04-5.73689E-14
 -1      2042 9.81074E-03-4.45774E-04-5.71036E-14
 -1      2043 1.02410E-02-4.96559E-04-6.25232E-14
 -1      2044 1.00980E-02-4.71717E-04-6.07843E-14
 -1      2045 1.00971E-02-4.94921E-04-6.05122E-14
 -1      2046 1.05269E-02-5.46657E-04-6.60563E-14
 -1      2047 1.03840E-02-5.21543E-04-6.42791E-14
 -1      2048 1.03832E-02-5.44696E-04-6.40000E-14
 -1      2049 1.08126E-02-5.97229E-04-6.96628E-14
 -1      2050 1.06697E-02-5.71889E-04-6.78506E-14
 -1      2051 1.06690E-02-5.95003E-04-6.75619E-14
 -1      2052 1.10981E-02-6.48188E-04-7.33363E-14
 -1      2053 1.09554E-02-6.22664E-04-7.14925E-14
 -1      2054 1.09547E-02-6.45751E-04-7.11933E-14
 -1      2055 1.13837E-02-6.99457E-04-7.70717E-14
 -1      2056 1.12409E-02-6.73788E-04-7.51969E-14
 -1      2057 1.12403E-02-6.96854E-04-7.48876E-14
 -1      2058 1.16692E-02-7.50970E-04-8.08690E-14
 -1      2059 1.15264E-02-7.25186E-04-7.89630E-14
 -1      2060 1.15259E-02-7.48238E-04-7.86423E-14
 -1      2061 1.19547E-02-8.02668E-04-8.47313E-14
 -1      2062 1.18119E-02-7.76798E-04-8.27922E-14
 -1      2063 1.18114E-02-7.99841E-04-8.24629E-14
 -1      2064 1.22402E-02-8.54507E-04-8.86473E-14
 -1      2065 1.20974E-02-8.28572E-04-8.66816E-14
 -1      2066 1.20970E-02-8.51609E-04-8.63422E-14
 -1      2067 1.25257E-02-9.06448E-04-9.26156E-14
 -1      2068 1.23830E-02-8.80467E-04-9.06269E-14
 -1      2069 1.23825E-02-9.03500E-04-9.02770E-14
 -1      2070 1.28113E-02-9.58461E-04-9.66238E-14
 -1      2071 1.26685E-02-9.32447E-04-9.46145E-14
 -1      2072 1.26681E-02-9.55479E-04-9.42578E-14
 -1      2073 1.30969E-02-1.01052E-03-1.00661E-13
 -1      2074 1.29541E-02-9.84487E-04-9.86410E-14
 -1      2075 1.29537E-02-1.00752E-03-9.82764E-14
 -1      2076 1.33826E-02-1.06261E-03-1.04718E-13
 -1      2077 1.32397E-02-1.03656E-03-1.02688E-13
 -1      2078 1.32394E-02-1.05960E-03-1.02317E-13
 -1      2079 1.36682E-02-1.11471E-03-1.08787E-13
 -1      2080 1.35254E-02-1.08866E-03-1.06751E-13
 -1      2081 1.35250E-02-1.11170E-03-1.06374E-13
 -1      2082 1.39539E-02-1.16682E-03-1.12866E-13
 -1      2083 1.38110E-02-1.14076E-03-1.10826E-13
 -1      2084 1.38107E-02-1.16380E-03-1.10443E-13
 -1      2085 1.42396E-02-1.21891E-03-1.16947E-13
 -1      2086 1.40967E-02-1.19286E-03-1.14904E-13
 -1      2087 1.40964E-02-1.21590E-03-1.14520E-13
 -1      2088 1.44763E-02-1.26472E-03-1.20296E-13
 -1      2089 1.43335E-02-1.23868E-03-1.18248E-13
 -1      2090 1.43331E-02-1.26172E-03-1.17862E-13
 -1      2091 1.45209E-02-1.30126E-03-1.20462E-13
 -1      2092 1.46317E-02-1.53034E-03-1.18570E-13
 -1      2093 1.46061E-02-1.48818E-03-1.18828E-13
 -1      2094 1.45806E-02-1.44602E-03-1.19085E-13
 -1      2095 1.45550E-02-1.40386E-03-1.19346E-13
 -1      2096 1.44696E-02-1.44455E-03-1.17200E-13
 -1      2097 1.45507E-02-1.37364E-03-1.19775E-13
 -1      2098 1.45251E-02-1.33149E-03-1.20032E-13
 -1      2099 1.44312E-02-1.31172E-03-1.18733E-13
 -1      2100 1.44398E-02-1.37216E-03-1.17879E-13
 -1      2101 1.46820E-02-1.61325E-03-1.18064E-13
 -1      2102 1.46568E-02-1.57179E-03-1.18316E-13
 -1      2103 1.45203E-02-1.52815E-03-1.16695E-13
 -1      2104 1.47332E-02-1.69759E-03-1.17545E-13
 -1      2105 1.47076E-02-1.65542E-03-1.17806E-13
 -1      2106 1.45711E-02-1.61178E-03-1.16185E-13
 -1      2107 1.47844E-02-1.78195E-03-1.17017E-13
 -1      2108 1.47588E-02-1.73977E-03-1.17283E-13
 -1      2109 1.46222E-02-1.69612E-03-1.15662E-13
 -1      2110 1.48356E-02-1.86631E-03-1.16482E-13
 -1      2111 1.48100E-02-1.82413E-03-1.16751E-13
 -1      2112 1.46734E-02-1.78047E-03-1.15130E-13
 -1      2113 1.48869E-02-1.95068E-03-1.15937E-13
 -1      2114 1.48612E-02-1.90850E-03-1.16210E-13
 -1      2115 1.47247E-02-1.86483E-03-1.14591E-13
 -1      2116 1.49382E-02-2.03504E-03-1.15382E-13
 -1      2117 1.49125E-02-1.99286E-03-1.15661E-13
 -1      2118 1.47760E-02-1.94919E-03-1.14044E-13
 -1      2119 1.49887E-02-2.11796E-03-1.14825E-13
 -1      2120 1.49634E-02-2.07650E-03-1.15104E-13
 -1      2121 1.48269E-02-2.03282E-03-1.13493E-13
 -1      2122 1.50400E-02-2.20230E-03-1.14252E-13
 -1      2123 1.50143E-02-2.16013E-03-1.14541E-13
 -1      2124 1.48778E-02-2.11646E-03-1.12931E-13
 -1      2125 1.50914E-02-2.28663E-03-1.13670E-13
 -1      2126 1.50657E-02-2.24447E-03-1.13961E-13
 -1      2127 1.49292E-02-2.20079E-03-1.12352E-13
 -1      2128 1.51428E-02-2.37094E-03-1.13073E-13
 -1      2129 1.51171E-02-2.32879E-03-1.13374E-13
 -1      2130 1.49805E-02-2.28511E-03-1.11764E-13
 -1      2131 5.81189E-03-1.82641E-04-1.12289E-14
 -1      2132 5.96279E-03-2.44476E-04-1.14478E-14
 -1      2133 6.27788E-03-3.53342E-04-1.15427E-14
 -1      2134 6.29066E-03-3.68932E-04-1.14400E-14
 -1      2135 6.12805E-03-3.08188E-04-1.17003E-14
 -1      2136 6.22081E-03-3.32406E-04-1.17028E-14
 -1      2137 5.45568E-03-1.91972E-05-1.07558E-14
 -1      2138 5.63690E-03-1.03873E-04-1.09889E-14
 -1      2139 5.05122E-03 1.94162E-04-1.01341E-14
 -1      2140 5.24109E-03 8.96758E-05-1.04391E-14
 -1      2141 3.22018E-04-4.46002E-05-9.94891E-17
 -1      2142 3.31854E-04-5.55930E-05-8.97313E-17
 -1      2143 4.54749E-04-8.76349E-05-1.29020E-16
 -1      2144 4.26675E-04-5.80847E-05-1.54824E-16
 -1      2145 4.24205E-03 6.14527E-04-8.46515E-15
 -1      2146 4.39957E-03 5.41462E-04-8.89702E-15
 -1      2147 3.94755E-03 6.84548E-04-7.70586E-15
 -1      2148 4.09060E-03 6.60343E-04-8.07983E-15
 -1      2149 4.14764E-03 6.46472E-04-8.36741E-15
 -1      2150 3.61591E-03 6.49427E-04-6.85511E-15
 -1      2151 3.76581E-03 6.81307E-04-7.23645E-15
 -1      2152 3.24948E-03 5.03640E-04-6.08351E-15
 -1      2153 3.41760E-03 5.81565E-04-6.41886E-15
 -1      2154 2.87019E-03 3.10586E-04-5.45015E-15
 -1      2155 3.04862E-03 4.04342E-04-5.72516E-15
 -1      2156 2.48254E-03 1.08085E-04-4.87749E-15
 -1      2157 2.67369E-03 2.08940E-04-5.15844E-15
 -1      2158 2.78588E-03 2.48893E-04-5.17860E-15
 -1      2159 2.06985E-03-5.88506E-05-4.45935E-15
 -1      2160 2.23786E-03 5.13563E-08-4.59576E-15
 -1      2161 1.83025E-03-1.48705E-04-4.14531E-15
 -1      2162 1.93801E-03-1.10836E-04-4.29990E-15
 -1      2163 1.99882E-03-1.03068E-04-4.19337E-15
 -1      2164 1.69798E-03-1.97535E-04-4.00768E-15
 -1      2165 1.73329E-03-1.82422E-04-4.02999E-15
 -1      2166 1.73534E-03-2.32412E-04-3.96504E-15
 -1      2167 1.69960E-03-2.16299E-04-3.98504E-15
 -1      2168 1.68915E-03-2.00515E-04-3.79875E-15
 -1      2169 1.92981E-03-3.10046E-04-4.06705E-15
 -1      2170 1.82322E-03-2.71466E-04-4.01656E-15
 -1      2171 2.23260E-03-4.26921E-04-4.20046E-15
 -1      2172 2.07899E-03-3.63206E-04-4.11292E-15
 -1      2173 2.61737E-03-6.10464E-04-4.45358E-15
 -1      2174 2.43423E-03-5.16313E-04-4.31401E-15
 -1      2175 3.01165E-03-8.33139E-04-4.81494E-15
 -1      2176 2.81188E-03-7.18614E-04-4.63070E-15
 -1      2177 2.72757E-03-6.32778E-04-4.34452E-15
 -1      2178 3.46545E-03-1.09713E-03-5.35159E-15
 -1      2179 3.27604E-03-9.81102E-04-5.08073E-15
 -1      2180 3.84899E-03-1.28299E-03-6.10100E-15
 -1      2181 3.69177E-03-1.21587E-03-5.76671E-15
 -1      2182 4.12776E-03-1.32418E-03-6.75588E-15
 -1      2183 3.98882E-03-1.31511E-03-6.42252E-15
 -1      2184 3.92126E-03-1.30723E-03-6.15512E-15
 -1      2185 4.46332E-03-1.25871E-03-7.56917E-15
 -1      2186 4.31634E-03-1.30308E-03-7.20284E-15
 -1      2187 4.82742E-03-1.08952E-03-8.42845E-15
 -1      2188 4.66628E-03-1.17365E-03-8.06801E-15
 -1      2189 5.15586E-03-9.07008E-04-9.13751E-15
 -1      2190 4.99050E-03-1.00278E-03-8.77918E-15
 -1      2191 4.89018E-03-1.04549E-03-8.72411E-15
 -1      2192 5.54137E-03-6.98337E-04-9.93853E-15
 -1      2193 5.37503E-03-7.83533E-04-9.62961E-15
 -1      2194 5.84431E-03-5.57406E-04-1.05165E-14
 -1      2195 5.69684E-03-6.24334E-04-1.02257E-14
 -1      2196 5.60268E-03-6.47703E-04-1.03756E-14
 -1      2197 6.12754E-03-4.48316E-04-1.10140E-14
 -1      2198 6.01930E-03-4.86875E-04-1.08225E-14
 -1      2199 6.26190E-03-3.95649E-04-1.12793E-14
 -1      2200 6.20685E-03-4.17986E-04-1.11452E-14
 -1      2201 6.16727E-03-4.23819E-04-1.14336E-14
 -1      2202 4.64707E-03 4.12899E-04-9.46099E-15
 -1      2203 4.84031E-03 3.04326E-04-9.81146E-15
 -1      2204 5.32807E-03 1.32753E-05-1.08839E-14
 -1      2205 6.71390E-04-2.41345E-04-8.01361E-17
 -1      2206 4.92361E-03 2.33021E-04-1.02303E-14
 -1      2207 4.38371E-03 5.39346E-04-9.18154E-15
 -1      2208 4.49910E-03 4.80892E-04-9.32227E-15
 -1      2209 4.59585E-03 4.15114E-04-9.75817E-15
 -1      2210 7.25132E-04-2.27082E-04-1.39035E-16
 -1      2211 6.05122E-03-2.97250E-04-1.19568E-14
 -1      2212 6.26072E-03-3.54354E-04-1.20554E-14
 -1      2213 1.51217E-02-2.39710E-03-1.12235E-13
 -1      2214 5.70673E-03-1.66845E-04-1.14548E-14
 -1      2215 6.28392E-03-3.82352E-04-1.17316E-14
 -1      2216 5.92555E-03-5.09128E-04-1.09829E-14
 -1      2217 5.25003E-03-8.36818E-04-9.57608E-15
 -1      2218 4.20732E-03-1.32996E-03-6.91474E-15
 -1      2219 3.15868E-03-8.89759E-04-4.76764E-15
 -1      2220 2.34969E-03-4.42021E-04-4.06955E-15
 -1      2221 1.77175E-03-2.33328E-04-3.82743E-15
 -1      2222 1.76780E-03-1.71089E-04-3.92959E-15
 -1      2223 2.36005E-03 3.78019E-05-4.61830E-15
 -1      2224 2.47102E-03 8.34964E-05-4.63739E-15
 -1      2225 2.24457E-03-1.61008E-05-4.36870E-15
 -1      2226 3.15950E-03 4.51545E-04-5.81525E-15
 -1      2227 3.85864E-03 6.94957E-04-7.50371E-15
 -1      2228 3.52667E-03 6.23906E-04-6.60011E-15
 -1      2229 2.01032E-03-3.10525E-04-3.92064E-15
 -1      2230 3.59674E-03-1.16071E-03-5.42429E-15
 -1      2231 4.55882E-03-1.22390E-03-7.86076E-15
 -1      2232 1.10191E-03 3.55227E-04-6.16518E-16
 -1      2233 9.43373E-04 3.18060E-04-4.57899E-16
 -1      2234 4.84613E-04-3.52490E-05-2.72162E-16
 -1      2235 4.91885E-04-4.11803E-05-2.63908E-16
 -1      2236 5.01941E-04-4.85726E-05-2.54327E-16
 -1      2237 5.14433E-04-5.79207E-05-2.43146E-16
 -1      2238 5.97552E-04-5.66376E-05-3.52745E-16
 -1      2239 4.83084E-04-1.47426E-05-2.93710E-16
 -1      2240 4.79530E-04-2.04548E-05-2.89807E-16
 -1      2241 4.96634E-04 5.74597E-07-2.98725E-16
 -1      2242 4.88947E-04-7.83479E-06-2.96651E-16
 -1      2243 5.84768E-04-1.33550E-05-4.00111E-16
 -1      2244 5.16047E-04 2.25675E-05-3.00378E-16
 -1      2245 5.05802E-04 1.06315E-05-2.99972E-16
 -1      2246 6.04499E-04 7.93434E-06-4.05980E-16
 -1      2247 5.39512E-04 5.33098E-05-2.98074E-16
 -1      2248 5.27486E-04 3.68674E-05-2.99741E-16
 -1      2249 6.30967E-04 3.78371E-05-4.07172E-16
 -1      2250 5.65336E-04 9.32208E-05-2.90336E-16
 -1      2251 5.52211E-04 7.21166E-05-2.95106E-16
 -1      2252 6.61461E-04 7.77371E-05-4.03093E-16
 -1      2253 5.94001E-04 1.43400E-04-2.75021E-16
 -1      2254 5.79279E-04 1.16961E-04-2.83966E-16
 -1      2255 6.94446E-04 1.27846E-04-3.91953E-16
 -1      2256 1.41797E-03 4.23723E-04-1.01179E-15
 -1      2257 1.26001E-03 3.90264E-04-8.01009E-16
 -1      2258 1.15351E-03 3.33457E-04-7.31403E-16
 -1      2259 9.91741E-04-2.68313E-04-3.21479E-16
 -1      2260 1.15045E-03-3.00521E-04-4.39495E-16
 -1      2261 4.84222E-03 2.65791E-04-1.03781E-14
 -1      2262 5.02156E-03 1.57920E-04-1.07157E-14
 -1      2263 1.30965E-03-3.31909E-04-5.78341E-16
 -1      2264 1.47000E-03-3.63551E-04-7.39263E-16
 -1      2265 1.18881E-03-2.79143E-04-5.50748E-16
 -1      2266 1.63177E-03-3.97117E-04-9.22087E-16
 -1      2267 1.79540E-03-4.33971E-04-1.12792E-15
 -1      2268 1.50074E-03-3.39450E-04-8.83598E-16
 -1      2269 1.96178E-03-4.75598E-04-1.35651E-15
 -1      2270 2.13085E-03-5.23861E-04-1.60877E-15
 -1      2271 1.82010E-03-4.08820E-04-1.30503E-15
 -1      2272 2.30412E-03-5.79799E-04-1.88526E-15
 -1      2273 2.48062E-03-6.45507E-04-2.18669E-15
 -1      2274 2.15246E-03-4.99169E-04-1.81905E-15
 -1      2275 2.66230E-03-7.21144E-04-2.51250E-15
 -1      2276 2.84658E-03-8.07849E-04-2.86502E-15
 -1      2277 2.50418E-03-6.23721E-04-2.42886E-15
 -1      2278 3.03508E-03-9.04234E-04-3.24461E-15
 -1      2279 3.22346E-03-1.00760E-03-3.65201E-15
 -1      2280 2.87846E-03-7.93605E-04-3.13985E-15
 -1      2281 3.41248E-03-1.11367E-03-4.08912E-15
 -1      2282 3.59752E-03-1.21412E-03-4.55594E-15
 -1      2283 3.26874E-03-1.00565E-03-3.95978E-15
 -1      2284 3.77683E-03-1.30269E-03-5.05421E-15
 -1      2285 3.95302E-03-1.36638E-03-5.58531E-15
 -1      2286 3.65483E-03-1.22225E-03-4.89864E-15
 -1      2287 4.12285E-03-1.40070E-03-6.14984E-15
 -1      2288 4.29586E-03-1.40146E-03-6.74959E-15
 -1      2289 4.02047E-03-1.36345E-03-5.96668E-15
 -1      2290 4.46825E-03-1.36958E-03-7.38474E-15
 -1      2291 4.64816E-03-1.31477E-03-8.05421E-15
 -1      2292 4.37802E-03-1.36103E-03-7.17357E-15
 -1      2293 4.83279E-03-1.24255E-03-8.75669E-15
 -1      2294 5.02055E-03-1.16542E-03-9.49494E-15
 -1      2295 4.75208E-03-1.23426E-03-8.52211E-15
 -1      2296 5.21086E-03-1.08904E-03-1.02647E-14
 -1      2297 5.39923E-03-1.02025E-03-1.10641E-14
 -1      2298 5.14298E-03-1.06729E-03-1.00060E-14
 -1      2299 5.58644E-03-9.62140E-04-1.18929E-14
 -1      2300 5.76858E-03-9.15160E-04-1.27510E-14
 -1      2301 5.52938E-03-9.28270E-04-1.16173E-14
 -1      2302 5.94761E-03-8.80416E-04-1.36351E-14
 -1      2303 6.12153E-03-8.56374E-04-1.45446E-14
 -1      2304 5.89570E-03-8.39935E-04-1.33399E-14
 -1      2305 6.29211E-03-8.42805E-04-1.54814E-14
 -1      2306 6.45872E-03-8.37756E-04-1.64455E-14
 -1      2307 6.23919E-03-7.98628E-04-1.51697E-14
 -1      2308 6.62254E-03-8.40434E-04-1.74339E-14
 -1      2309 6.78357E-03-8.49315E-04-1.84491E-14
 -1      2310 6.56467E-03-7.93880E-04-1.71025E-14
 -1      2311 6.94245E-03-8.63463E-04-1.94907E-14
 -1      2312 7.09941E-03-8.81837E-04-2.05583E-14
 -1      2313 6.87800E-03-8.15026E-04-1.91391E-14
 -1      2314 7.25469E-03-9.03590E-04-2.16539E-14
 -1      2315 7.40862E-03-9.28036E-04-2.27771E-14
 -1      2316 7.18359E-03-8.53640E-04-2.12818E-14
 -1      2317 7.56122E-03-9.54511E-04-2.39292E-14
 -1      2318 7.71280E-03-9.82572E-04-2.51072E-14
 -1      2319 7.48421E-03-9.03449E-04-2.35339E-14
 -1      2320 7.86332E-03-1.01175E-03-2.63134E-14
 -1      2321 8.01304E-03-1.04175E-03-2.75457E-14
 -1      2322 7.78147E-03-9.59966E-04-2.58950E-14
 -1      2323 8.16189E-03-1.07226E-03-2.88055E-14
 -1      2324 8.31010E-03-1.10311E-03-3.00916E-14
 -1      2325 8.07626E-03-1.02010E-03-2.83650E-14
 -1      2326 8.45760E-03-1.13410E-03-3.14038E-14
 -1      2327 8.60458E-03-1.16511E-03-3.27395E-14
 -1      2328 8.36914E-03-1.08181E-03-3.09419E-14
 -1      2329 8.75099E-03-1.19603E-03-3.40979E-14
 -1      2330 8.89698E-03-1.22680E-03-3.54809E-14
 -1      2331 8.66048E-03-1.14381E-03-3.36184E-14
 -1      2332 9.04251E-03-1.25737E-03-3.68838E-14
 -1      2333 9.18770E-03-1.28769E-03-3.83080E-14
 -1      2334 8.95055E-03-1.20531E-03-3.63834E-14
 -1      2335 9.33253E-03-1.31774E-03-3.97514E-14
 -1      2336 9.47710E-03-1.34751E-03-4.12166E-14
 -1      2337 9.23959E-03-1.26590E-03-3.92347E-14
 -1      2338 9.62139E-03-1.37700E-03-4.27009E-14
 -1      2339 9.76547E-03-1.40620E-03-4.42009E-14
 -1      2340 9.52779E-03-1.32540E-03-4.21679E-14
 -1      2341 9.90933E-03-1.43514E-03-4.57197E-14
 -1      2342 1.00530E-02-1.46380E-03-4.72583E-14
 -1      2343 9.81533E-03-1.38378E-03-4.51745E-14
 -1      2344 1.01966E-02-1.49221E-03-4.88144E-14
 -1      2345 1.03400E-02-1.52038E-03-5.03880E-14
 -1      2346 1.01023E-02-1.44108E-03-4.82546E-14
 -1      2347 1.04833E-02-1.54834E-03-5.19799E-14
 -1      2348 1.06266E-02-1.57608E-03-5.35891E-14
 -1      2349 1.03890E-02-1.49740E-03-5.14062E-14
 -1      2350 1.07697E-02-1.60364E-03-5.52176E-14
 -1      2351 1.09128E-02-1.63102E-03-5.68602E-14
 -1      2352 1.06753E-02-1.55287E-03-5.46308E-14
 -1      2353 1.10558E-02-1.65824E-03-5.85206E-14
 -1      2354 1.11988E-02-1.68532E-03-6.01990E-14
 -1      2355 1.09614E-02-1.60762E-03-5.79231E-14
 -1      2356 1.13417E-02-1.71227E-03-6.18933E-14
 -1      2357 1.14846E-02-1.73910E-03-6.36044E-14
 -1      2358 1.12473E-02-1.66176E-03-6.12828E-14
 -1      2359 1.16275E-02-1.76582E-03-6.53321E-14
 -1      2360 1.17704E-02-1.79246E-03-6.70768E-14
 -1      2361 1.15332E-02-1.71541E-03-6.47079E-14
 -1      2362 1.19132E-02-1.81901E-03-6.88387E-14
 -1      2363 1.20561E-02-1.84549E-03-7.06167E-14
 -1      2364 1.18189E-02-1.76867E-03-6.82019E-14
 -1      2365 1.21989E-02-1.87190E-03-7.24087E-14
 -1      2366 1.23417E-02-1.89826E-03-7.42159E-14
 -1      2367 1.21046E-02-1.82162E-03-7.17599E-14
 -1      2368 1.24846E-02-1.92457E-03-7.60422E-14
 -1      2369 1.26274E-02-1.95084E-03-7.78863E-14
 -1      2370 1.23903E-02-1.87433E-03-7.53818E-14
 -1      2371 1.27702E-02-1.97707E-03-7.97449E-14
 -1      2372 1.29130E-02-2.00327E-03-8.16185E-14
 -1      2373 1.26760E-02-1.92686E-03-7.90718E-14
 -1      2374 1.30558E-02-2.02944E-03-8.35096E-14
 -1      2375 1.31986E-02-2.05560E-03-8.54153E-14
 -1      2376 1.29617E-02-1.97926E-03-8.28242E-14
 -1      2377 1.33415E-02-2.08173E-03-8.73329E-14
 -1      2378 1.34843E-02-2.10785E-03-8.92651E-14
 -1      2379 1.32473E-02-2.03156E-03-8.66375E-14
 -1      2380 1.36271E-02-2.13396E-03-9.12083E-14
 -1      2381 1.37699E-02-2.16005E-03-9.31614E-14
 -1      2382 1.35330E-02-2.08379E-03-9.05017E-14
 -1      2383 1.39128E-02-2.18614E-03-9.51255E-14
 -1      2384 1.40556E-02-2.21223E-03-9.70971E-14
 -1      2385 1.38187E-02-2.13599E-03-9.44089E-14
 -1      2386 1.41984E-02-2.23831E-03-9.90792E-14
 -1      2387 1.43413E-02-2.26439E-03-1.01069E-13
 -1      2388 1.41044E-02-2.18815E-03-9.83531E-14
 -1      2389 1.44841E-02-2.29047E-03-1.03066E-13
 -1      2390 1.46270E-02-2.31655E-03-1.05071E-13
 -1      2391 1.43901E-02-2.24031E-03-1.02330E-13
 -1      2392 2.05081E-03 5.62137E-04-2.12172E-15
 -1      2393 1.89248E-03 5.25673E-04-1.80361E-15
 -1      2394 2.36765E-03 6.40577E-04-2.84150E-15
 -1      2395 2.20947E-03 6.00488E-04-2.46754E-15
 -1      2396 2.10430E-03 5.36969E-04-2.32193E-15
 -1      2397 2.68260E-03 7.24142E-04-3.67530E-15
 -1      2398 2.52567E-03 6.82061E-04-3.24365E-15
 -1      2399 2.42523E-03 6.16984E-04-3.06824E-15
 -1      2400 2.99280E-03 8.05121E-04-4.62748E-15
 -1      2401 2.83854E-03 7.65683E-04-4.13665E-15
 -1      2402 2.74542E-03 7.02360E-04-3.92809E-15
 -1      2403 3.29580E-03 8.70163E-04-5.70213E-15
 -1      2404 3.14522E-03 8.40643E-04-5.14898E-15
 -1      2405 3.06121E-03 7.83957E-04-4.90625E-15
 -1      2406 3.59148E-03 9.03354E-04-6.90272E-15
 -1      2407 3.44423E-03 8.91692E-04-6.28660E-15
 -1      2408 3.36945E-03 8.46408E-04-6.00712E-15
 -1      2409 3.88316E-03 8.92334E-04-8.23304E-15
 -1      2410 3.73721E-03 9.03822E-04-7.55159E-15
 -1      2411 3.67015E-03 8.72183E-04-7.23487E-15
 -1      2412 4.17646E-03 8.34354E-04-9.69231E-15
 -1      2413 4.02898E-03 8.68914E-04-8.94615E-15
 -1      2414 3.96766E-03 8.49245E-04-8.59152E-15
 -1      2415 4.47632E-03 7.37911E-04-1.12792E-14
 -1      2416 4.32524E-03 7.90035E-04-1.04698E-14
 -1      2417 4.26850E-03 7.77705E-04-1.00781E-14
 -1      2418 4.78444E-03 6.18772E-04-1.29920E-14
 -1      2419 4.62938E-03 6.80093E-04-1.21199E-14
 -1      2420 4.57715E-03 6.69993E-04-1.16915E-14
 -1      2421 5.09920E-03 4.93444E-04-1.48237E-14
 -1      2422 4.94125E-03 5.56001E-04-1.38930E-14
 -1      2423 4.89368E-03 5.44543E-04-1.34291E-14
 -1      2424 5.41740E-03 3.74266E-04-1.67707E-14
 -1      2425 5.25821E-03 4.32555E-04-1.57835E-14
 -1      2426 5.21480E-03 4.18133E-04-1.52854E-14
 -1      2427 5.73590E-03 2.67975E-04-1.88291E-14
 -1      2428 5.57690E-03 3.19303E-04-1.77862E-14
 -1      2429 5.53646E-03 3.01668E-04-1.72554E-14
 -1      2430 6.05244E-03 1.76567E-04-2.09957E-14
 -1      2431 5.89461E-03 2.20420E-04-1.98992E-14
 -1      2432 5.85559E-03 1.99974E-04-1.93354E-14
 -1      2433 6.36573E-03 9.90315E-05-2.32679E-14
 -1      2434 6.20960E-03 1.36187E-04-2.21191E-14
 -1      2435 6.17061E-03 1.13526E-04-2.15220E-14
 -1      2436 6.67526E-03 3.29045E-05-2.56453E-14
 -1      2437 6.52102E-03 6.47029E-05-2.44433E-14
 -1      2438 6.48106E-03 4.04203E-05-2.38142E-14
 -1      2439 6.98096E-03-2.46672E-05-2.81208E-14
 -1      2440 6.82859E-03 3.20775E-06-2.68711E-14
 -1      2441 6.78714E-03-2.21749E-05-2.62088E-14
 -1      2442 7.28307E-03-7.63344E-05-3.06963E-14
 -1      2443 7.13245E-03-5.11025E-05-2.93956E-14
 -1      2444 7.08933E-03-7.71561E-05-2.87029E-14
 -1      2445 7.58194E-03-1.24287E-04-3.33654E-14
 -1      2446 7.43287E-03-1.00667E-04-3.20194E-14
 -1      2447 7.38817E-03-1.27056E-04-3.12941E-14
 -1      2448 7.87800E-03-1.70193E-04-3.61261E-14
 -1      2449 7.73028E-03-1.47415E-04-3.47340E-14
 -1      2450 7.68421E-03-1.73894E-04-3.39797E-14
 -1      2451 8.17169E-03-2.15245E-04-3.89794E-14
 -1      2452 8.02510E-03-1.92769E-04-3.75420E-14
 -1      2453 7.97794E-03-2.19167E-04-3.67586E-14
 -1      2454 8.46343E-03-2.60240E-04-4.19169E-14
 -1      2455 8.31777E-03-2.37712E-04-4.04374E-14
 -1      2456 8.26978E-03-2.63922E-04-3.96267E-14
 -1      2457 8.75359E-03-3.05669E-04-4.49406E-14
 -1      2458 8.60868E-03-2.82877E-04-4.34191E-14
 -1      2459 8.56009E-03-3.08840E-04-4.25803E-14
 -1      2460 9.04251E-03-3.51803E-04-4.80463E-14
 -1      2461 8.89818E-03-3.28635E-04-4.64827E-14
 -1      2462 8.84920E-03-3.54331E-04-4.56178E-14
 -1      2463 9.33047E-03-3.98758E-04-5.12304E-14
 -1      2464 9.18659E-03-3.75172E-04-4.96292E-14
 -1      2465 9.13737E-03-4.00603E-04-4.87369E-14
 -1      2466 9.61771E-03-4.46549E-04-5.44933E-14
 -1      2467 9.47416E-03-4.22548E-04-5.28511E-14
 -1      2468 9.42481E-03-4.47732E-04-5.19355E-14
 -1      2469 9.90440E-03-4.95130E-04-5.78377E-14
 -1      2470 9.76111E-03-4.70743E-04-5.61559E-14
 -1      2471 9.71171E-03-4.95707E-04-5.52129E-14
 -1      2472 1.01907E-02-5.44420E-04-6.12629E-14
 -1      2473 1.00476E-02-5.19690E-04-5.95398E-14
 -1      2474 9.99820E-03-5.44464E-04-5.85717E-14
 -1      2475 1.04767E-02-5.94324E-04-6.47618E-14
 -1      2476 1.03338E-02-5.69300E-04-6.30027E-14
 -1      2477 1.02844E-02-5.93914E-04-6.20100E-14
 -1      2478 1.07626E-02-6.44743E-04-6.83343E-14
 -1      2479 1.06197E-02-6.19473E-04-6.65385E-14
 -1      2480 1.05704E-02-6.43957E-04-6.55207E-14
 -1      2481 1.10483E-02-6.95584E-04-7.19730E-14
 -1      2482 1.09055E-02-6.70115E-04-7.01468E-14
 -1      2483 1.08562E-02-6.94493E-04-6.91048E-14
 -1      2484 1.13340E-02-7.46764E-04-7.56753E-14
 -1      2485 1.11911E-02-7.21136E-04-7.38173E-14
 -1      2486 1.11420E-02-7.45431E-04-7.27516E-14
 -1      2487 1.16196E-02-7.98211E-04-7.94362E-14
 -1      2488 1.14768E-02-7.72457E-04-7.75481E-14
 -1      2489 1.14276E-02-7.96690E-04-7.64597E-14
 -1      2490 1.19052E-02-8.49862E-04-8.32635E-14
 -1      2491 1.17624E-02-8.24014E-04-8.13411E-14
 -1      2492 1.17133E-02-8.48197E-04-8.02270E-14
 -1      2493 1.21908E-02-9.01668E-04-8.71470E-14
 -1      2494 1.20480E-02-8.75748E-04-8.51975E-14
 -1      2495 1.19989E-02-8.99896E-04-8.40593E-14
 -1      2496 1.24764E-02-9.53587E-04-9.10863E-14
 -1      2497 1.23336E-02-9.27615E-04-8.91105E-14
 -1      2498 1.22846E-02-9.51738E-04-8.79509E-14
 -1      2499 1.27620E-02-1.00559E-03-9.50691E-14
 -1      2500 1.26192E-02-9.79578E-04-9.30721E-14
 -1      2501 1.25702E-02-1.00368E-03-9.18920E-14
 -1      2502 1.30476E-02-1.05764E-03-9.90846E-14
 -1      2503 1.29048E-02-1.03161E-03-9.70745E-14
 -1      2504 1.28559E-02-1.05570E-03-9.58763E-14
 -1      2505 1.33333E-02-1.10973E-03-1.03126E-13
 -1      2506 1.31904E-02-1.08368E-03-1.01104E-13
 -1      2507 1.31415E-02-1.10777E-03-9.98937E-14
 -1      2508 1.36189E-02-1.16183E-03-1.07180E-13
 -1      2509 1.34761E-02-1.13578E-03-1.05149E-13
 -1      2510 1.34272E-02-1.15986E-03-1.03932E-13
 -1      2511 1.39046E-02-1.21394E-03-1.11245E-13
 -1      2512 1.37618E-02-1.18789E-03-1.09209E-13
 -1      2513 1.37129E-02-1.21197E-03-1.07982E-13
 -1      2514 1.41903E-02-1.26604E-03-1.15319E-13
 -1      2515 1.40475E-02-1.23999E-03-1.13281E-13
 -1      2516 1.39986E-02-1.26408E-03-1.12044E-13
 -1      2517 1.43374E-02-1.29194E-03-1.17434E-13
 -1      2518 1.44601E-02-1.61030E-03-1.14301E-13
 -1      2519 1.44345E-02-1.56813E-03-1.14560E-13
 -1      2520 1.45113E-02-1.69464E-03-1.13776E-13
 -1      2521 1.44857E-02-1.65247E-03-1.14039E-13
 -1      2522 1.43492E-02-1.60882E-03-1.12419E-13
 -1      2523 1.43587E-02-1.44307E-03-1.15317E-13
 -1      2524 1.43331E-02-1.40091E-03-1.15568E-13
 -1      2525 1.44092E-02-1.52632E-03-1.14816E-13
 -1      2526 1.43840E-02-1.48487E-03-1.15064E-13
 -1      2527 1.42475E-02-1.44123E-03-1.13437E-13
 -1      2528 1.42982E-02-1.52484E-03-1.12934E-13
 -1      2529 1.45625E-02-1.77899E-03-1.13243E-13
 -1      2530 1.45369E-02-1.73682E-03-1.13512E-13
 -1      2531 1.44004E-02-1.69316E-03-1.11895E-13
 -1      2532 1.46138E-02-1.86334E-03-1.12705E-13
 -1      2533 1.45881E-02-1.82117E-03-1.12978E-13
 -1      2534 1.44516E-02-1.77751E-03-1.11365E-13
 -1      2535 1.46651E-02-1.94770E-03-1.12157E-13
 -1      2536 1.46394E-02-1.90552E-03-1.12430E-13
 -1      2537 1.45029E-02-1.86186E-03-1.10823E-13
 -1      2538 1.47155E-02-2.03061E-03-1.11606E-13
 -1      2539 1.46903E-02-1.98915E-03-1.11884E-13
 -1      2540 1.45537E-02-1.94549E-03-1.10275E-13
 -1      2541 1.47669E-02-2.11495E-03-1.11038E-13
 -1      2542 1.47412E-02-2.07278E-03-1.11325E-13
 -1      2543 1.46046E-02-2.02912E-03-1.09718E-13
 -1      2544 1.48183E-02-2.19928E-03-1.10456E-13
 -1      2545 1.47926E-02-2.15712E-03-1.10748E-13
 -1      2546 1.46560E-02-2.11345E-03-1.09147E-13
 -1      2547 1.48697E-02-2.28360E-03-1.09862E-13
 -1      2548 1.48440E-02-2.24144E-03-1.10156E-13
 -1      2549 1.47074E-02-2.19777E-03-1.08558E-13
 -1      2550 6.25847E-03-3.65766E-04-1.26856E-14
 -1      2551 6.30147E-03-3.72614E-04-1.25239E-14
 -1      2552 5.61134E-03-1.46826E-04-1.17265E-14
 -1      2553 5.77556E-03-2.14708E-04-1.19775E-14
 -1      2554 1.73405E-03 4.90728E-04-1.51271E-15
 -1      2555 1.57602E-03 4.57060E-04-1.24870E-15
 -1      2556 1.78506E-03 4.65008E-04-1.68524E-15
 -1      2557 1.49926E-02-2.37204E-03-1.10432E-13
 -1      2558 6.30758E-03-3.81788E-04-1.23553E-14
 -1      2559 6.27899E-03-3.90114E-04-1.21885E-14
 -1      2560 6.32668E-03-3.85166E-04-1.29880E-14
 -1      2561 5.95769E-03-2.81400E-04-1.22360E-14
 -1      2562 6.11781E-03-3.28332E-04-1.24975E-14
 -1      2563 6.01836E-03-4.71175E-04-1.15627E-14
 -1      2564 5.86106E-03-5.29543E-04-1.12407E-14
 -1      2565 4.29655E-03-1.32852E-03-7.13302E-15
 -1      2566 4.15148E-03-1.34707E-03-6.68733E-15
 -1      2567 3.24529E-03-9.33480E-04-4.63961E-15
 -1      2568 3.02724E-03-7.89678E-04-4.39663E-15
 -1      2569 2.42939E-03-4.54841E-04-3.88230E-15
 -1      2570 2.25060E-03-3.75640E-04-3.78188E-15
 -1      2571 3.07839E-03 4.03823E-04-5.53203E-15
 -1      2572 3.24857E-03 4.99734E-04-5.87928E-15
 -1      2573 4.78451E-04-2.54435E-05-2.84942E-16
 -1      2574 4.80116E-04-3.01845E-05-2.79060E-16
 -1      2575 5.79219E-04-4.12419E-05-3.74212E-16
 -1      2576 5.75304E-04-2.84925E-05-3.89744E-16
 -1      2577 3.42538E-03 5.86078E-04-6.28845E-15
 -1      2578 3.58662E-03 6.53987E-04-6.71625E-15
 -1      2579 3.32338E-03 5.46369E-04-5.98537E-15
 -1      2580 4.07886E-03 6.71761E-04-8.26891E-15
 -1      2581 4.19753E-03 6.27265E-04-8.66074E-15
 -1      2582 2.06883E-03-3.08903E-04-3.75242E-15
 -1      2583 1.93235E-03-2.66742E-04-3.71303E-15
 -1      2584 3.78046E-03 6.99461E-04-7.29524E-15
 -1      2585 3.92262E-03 7.01699E-04-7.76703E-15
 -1      2586 2.70906E-03 2.01922E-04-4.90696E-15
 -1      2587 2.88291E-03 2.96655E-04-5.18610E-15
 -1      2588 1.94042E-03-1.22264E-04-3.93118E-15
 -1      2589 2.06321E-03-8.47041E-05-4.07934E-15
 -1      2590 1.71721E-03-1.78771E-04-3.68709E-15
 -1      2591 1.80513E-03-1.60723E-04-3.79335E-15
 -1      2592 1.68429E-03-1.96515E-04-3.61533E-15
 -1      2593 1.67993E-03-1.91925E-04-3.63556E-15
 -1      2594 3.71292E-03-1.22488E-03-5.48574E-15
 -1      2595 3.52599E-03-1.11244E-03-5.08546E-15
 -1      2596 1.81989E-03-2.32676E-04-3.65976E-15
 -1      2597 1.73237E-03-2.11660E-04-3.61092E-15
 -1      2598 2.81463E-03-6.63095E-04-4.21528E-15
 -1      2599 2.64270E-03-5.64277E-04-4.05294E-15
 -1      2600 2.51166E-03-4.92982E-04-3.75953E-15
 -1      2601 2.91462E-03-7.20987E-04-4.09525E-15
 -1      2602 4.62649E-03-1.19789E-03-8.12078E-15
 -1      2603 4.45911E-03-1.27832E-03-7.61747E-15
 -1      2604 4.38695E-03-1.31565E-03-7.37257E-15
 -1      2605 3.98804E-03-1.33082E-03-6.22638E-15
 -1      2606 3.87708E-03-1.29668E-03-5.91083E-15
 -1      2607 3.78574E-03-1.26358E-03-5.54700E-15
 -1      2608 4.09053E-03-1.35155E-03-6.42582E-15
 -1      2609 4.96924E-03-1.00142E-03-9.10483E-15
 -1      2610 4.83625E-03-1.08435E-03-8.74267E-15
 -1      2611 5.35063E-03-7.78974E-04-1.01108E-14
 -1      2612 5.15728E-03-8.90579E-04-9.60073E-15
 -1      2613 5.10181E-03-9.43443E-04-9.61834E-15
 -1      2614 5.68677E-03-6.06794E-04-1.09004E-14
 -1      2615 5.55115E-03-6.72728E-04-1.05988E-14
 -1      2616 6.21247E-03-4.10227E-04-1.19439E-14
 -1      2617 6.13926E-03-4.29877E-04-1.18043E-14
 -1      2618 6.09141E-03-4.54505E-04-1.20689E-14
 -1      2619 6.27033E-03-4.02736E-04-1.25662E-14
 -1      2620 6.30377E-04-1.72782E-04-1.43237E-16
 -1      2621 8.42273E-04-2.30139E-04-2.38877E-16
 -1      2622 8.88856E-04-2.14396E-04-3.19528E-16
 -1      2623 6.06616E-04-1.43233E-04-1.67929E-16
 -1      2624 8.19271E-04 2.90879E-04-3.45725E-16
 -1      2625 6.59803E-04 2.45630E-04-2.33700E-16
 -1      2626 6.27762E-04 2.16746E-04-2.35353E-16
 -1      2627 8.73834E-04 2.74263E-04-4.33261E-16
 -1      2628 5.21928E-03 4.67108E-05-1.11058E-14
 -1      2629 5.41228E-03-5.43463E-05-1.14380E-14
 -1      2630 3.67066E-03 6.83922E-04-6.95917E-15
 -1      2631 6.29169E-04-7.97106E-05-3.24122E-16
 -1      2632 5.29289E-04-6.97339E-05-2.30366E-16
 -1      2633 5.46039E-04-8.44285E-05-2.15390E-16
 -1      2634 1.46828E-03 3.98941E-04-1.15608E-15
 -1      2635 6.08242E-04 1.82465E-04-2.52063E-16
 -1      2636 5.13314E-03 8.98982E-05-1.12583E-14
 -1      2637 1.86111E-03-2.36314E-04-3.49662E-15
 -1      2638 4.30021E-03 5.80960E-04-9.07534E-15
 -1      2639 5.46468E-03-7.35464E-04-1.06227E-14
 -1      2640 1.69758E-03-1.97211E-04-3.45043E-15
 -1      2641 1.68373E-03-1.79224E-04-3.50364E-15
 -1      2642 1.42885E-02-1.31604E-03-1.16191E-13
 -1      2643 5.50943E-03-1.06024E-04-1.19537E-14
 -1      2644 1.42927E-02-1.34626E-03-1.15768E-13
 -1      2645 1.84881E-03-1.39778E-04-3.68371E-15
 -1      2646 6.15073E-03-3.44108E-04-1.32522E-14
 -1      2647 6.21050E-03-3.57157E-04-1.29683E-14
 -1      2648 6.28256E-03-3.73789E-04-1.34455E-14
 -1      2649 5.87843E-03-2.58358E-04-1.25136E-14
 -1      2650 2.57608E-03 1.36211E-04-4.64418E-15
 -1      2651 2.65909E-03 1.91989E-04-4.64677E-15
 -1      2652 2.44677E-03 8.08248E-05-4.39053E-15
 -1      2653 7.29597E-04 1.99485E-04-3.57705E-16
 -1      2654 5.84651E-04-1.18417E-04-1.89342E-16
 -1      2655 5.81356E-03-5.63200E-04-1.14719E-14
 -1      2656 4.73215E-03-1.15919E-03-8.48005E-15
 -1      2657 2.97698E-03 3.57713E-04-5.24347E-15
 -1      2658 3.37729E-03-1.02331E-03-4.68966E-15
 -1      2659 2.14179E-03-3.27715E-04-3.57405E-15
 -1      2660 2.15716E-03-4.55113E-05-4.09479E-15
 -1      2661 4.70675E-03 3.44397E-04-1.02264E-14
 -1      2662 4.81793E-03 2.78007E-04-1.07062E-14
 -1      2663 4.59447E-03 4.17149E-04-1.00738E-14
 -1      2664 3.98580E-03 6.95180E-04-8.04353E-15
 -1      2665 1.48531E-02-2.36006E-03-1.08216E-13
 -1      2666 1.48667E-02-2.31529E-03-1.09247E-13
 -1      2667 1.47301E-02-2.27163E-03-1.07646E-13
 -1      2668 1.47240E-02-2.33502E-03-1.06423E-13
 -1      2669 1.41818E-02-1.34478E-03-1.13884E-13
 -1      2670 1.46300E-02-2.28486E-03-1.05681E-13
 -1      2671 7.16683E-04 1.80763E-05-5.31029E-16
 -1      2672 7.02084E-04 2.90129E-06-5.28589E-16
 -1      2673 6.89388E-04-1.01508E-05-5.24673E-16
 -1      2674 6.79735E-04-2.10903E-05-5.19441E-16
 -1      2675 7.97760E-04-4.65404E-06-6.67272E-16
 -1      2676 7.88897E-04 1.06133E-04-5.25296E-16
 -1      2677 7.69722E-04 8.00782E-05-5.29484E-16
 -1      2678 8.29175E-04 1.66255E-04-5.09860E-16
 -1      2679 8.08766E-04 1.34900E-04-5.19021E-16
 -1      2680 9.21712E-04 1.38562E-04-6.64277E-16
 -1      2681 1.20558E-03 3.11000E-04-8.50326E-16
 -1      2682 1.05009E-03 2.79000E-04-6.61878E-16
 -1      2683 6.94096E-04-1.31433E-04-2.76079E-16
 -1      2684 8.49401E-04 2.23238E-04-4.68701E-16
 -1      2685 1.90328E-03-2.42376E-04-3.33302E-15
 -1      2686 1.79996E-03-2.16002E-04-3.28420E-15
 -1      2687 8.60520E-04-1.84283E-04-3.52935E-16
 -1      2688 1.00122E-03-2.16286E-04-4.56774E-16
 -1      2689 1.15023E-03-2.43797E-04-5.97043E-16
 -1      2690 8.02372E-04-1.36924E-04-3.96533E-16
 -1      2691 1.37442E-03-2.86668E-04-8.41002E-16
 -1      2692 1.52694E-03-3.15829E-04-1.03457E-15
 -1      2693 1.68158E-03-3.47309E-04-1.25026E-15
 -1      2694 1.83918E-03-3.82958E-04-1.48843E-15
 -1      2695 1.54822E-03-2.92178E-04-1.19203E-15
 -1      2696 2.00090E-03-4.23588E-04-1.74985E-15
 -1      2697 2.16746E-03-4.72057E-04-2.03465E-15
 -1      2698 1.85230E-03-3.55738E-04-1.67783E-15
 -1      2699 2.34092E-03-5.28824E-04-2.34306E-15
 -1      2700 2.52083E-03-5.97848E-04-2.67563E-15
 -1      2701 2.17563E-03-4.41835E-04-2.25499E-15
 -1      2702 2.71053E-03-6.78586E-04-3.03346E-15
 -1      2703 2.90570E-03-7.74978E-04-3.41803E-15
 -1      2704 2.53075E-03-5.68040E-04-2.92653E-15
 -1      2705 3.54773E-03-1.14794E-03-4.77178E-15
 -1      2706 3.74344E-03-1.25178E-03-5.27749E-15
 -1      2707 3.88893E-03-1.31579E-03-5.69545E-15
 -1      2708 4.07652E-03-1.36111E-03-6.26154E-15
 -1      2709 4.21708E-03-1.36677E-03-6.72631E-15
 -1      2710 4.40600E-03-1.33478E-03-7.35714E-15
 -1      2711 4.72083E-03-1.19498E-03-8.46732E-15
 -1      2712 4.92684E-03-1.09898E-03-9.19021E-15
 -1      2713 5.47904E-03-8.90431E-04-1.13362E-14
 -1      2714 5.66846E-03-8.35566E-04-1.21753E-14
 -1      2715 5.85172E-03-7.96269E-04-1.30418E-14
 -1      2716 6.02577E-03-7.68669E-04-1.39346E-14
 -1      2717 5.81504E-03-7.48767E-04-1.27400E-14
 -1      2718 6.19371E-03-7.53133E-04-1.48537E-14
 -1      2719 6.35570E-03-7.46205E-04-1.57986E-14
 -1      2720 6.15572E-03-7.05555E-04-1.45350E-14
 -1      2721 6.51344E-03-7.47555E-04-1.67695E-14
 -1      2722 6.66769E-03-7.54905E-04-1.77651E-14
 -1      2723 6.46878E-03-7.00828E-04-1.64330E-14
 -1      2724 6.81936E-03-7.67722E-04-1.87859E-14
 -1      2725 6.96916E-03-7.84695E-04-1.98337E-14
 -1      2726 6.76639E-03-7.21241E-04-1.84323E-14
 -1      2727 7.11749E-03-8.05203E-04-2.09085E-14
 -1      2728 7.26488E-03-8.28472E-04-2.20094E-14
 -1      2729 7.05623E-03-7.58166E-04-2.05335E-14
 -1      2730 7.41144E-03-8.53930E-04-2.31387E-14
 -1      2731 7.55753E-03-8.81120E-04-2.42951E-14
 -1      2732 7.34275E-03-8.05965E-04-2.27420E-14
 -1      2733 7.70312E-03-9.09576E-04-2.54770E-14
 -1      2734 7.84848E-03-9.39019E-04-2.66862E-14
 -1      2735 7.62818E-03-8.60650E-04-2.50585E-14
 -1      2736 7.99348E-03-9.69106E-04-2.79251E-14
 -1      2737 8.13835E-03-9.99665E-04-2.91887E-14
 -1      2738 7.91350E-03-9.19375E-04-2.74829E-14
 -1      2739 8.28296E-03-1.03046E-03-3.04790E-14
 -1      2740 8.42746E-03-1.06139E-03-3.17953E-14
 -1      2741 8.19903E-03-9.80143E-04-3.00166E-14
 -1      2742 8.57175E-03-1.09229E-03-3.31351E-14
 -1      2743 8.71595E-03-1.12312E-03-3.44974E-14
 -1      2744 8.48481E-03-1.04160E-03-3.26503E-14
 -1      2745 8.85997E-03-1.15378E-03-3.58823E-14
 -1      2746 9.00390E-03-1.18424E-03-3.72889E-14
 -1      2747 8.77078E-03-1.10288E-03-3.53794E-14
 -1      2748 9.14769E-03-1.21445E-03-3.87175E-14
 -1      2749 9.29139E-03-1.24441E-03-4.01655E-14
 -1      2750 9.05685E-03-1.16348E-03-3.81975E-14
 -1      2751 9.43497E-03-1.27409E-03-4.16330E-14
 -1      2752 9.57848E-03-1.30349E-03-4.31213E-14
 -1      2753 9.34296E-03-1.22312E-03-4.10989E-14
 -1      2754 9.72189E-03-1.33262E-03-4.46275E-14
 -1      2755 9.86524E-03-1.36148E-03-4.61511E-14
 -1      2756 9.62905E-03-1.28171E-03-4.40767E-14
 -1      2757 1.00085E-02-1.39008E-03-4.76941E-14
 -1      2758 1.01517E-02-1.41843E-03-4.92543E-14
 -1      2759 9.91510E-03-1.33926E-03-4.71300E-14
 -1      2760 1.02949E-02-1.44655E-03-5.08325E-14
 -1      2761 1.04380E-02-1.47446E-03-5.24284E-14
 -1      2762 1.02011E-02-1.39583E-03-5.02554E-14
 -1      2763 1.05811E-02-1.50216E-03-5.40418E-14
 -1      2764 1.07241E-02-1.52968E-03-5.56729E-14
 -1      2765 1.04870E-02-1.45154E-03-5.34525E-14
 -1      2766 1.08671E-02-1.55703E-03-5.73229E-14
 -1      2767 1.10101E-02-1.58422E-03-5.89892E-14
 -1      2768 1.07729E-02-1.50649E-03-5.67188E-14
 -1      2769 1.11530E-02-1.61127E-03-6.06695E-14
 -1      2770 1.12959E-02-1.63819E-03-6.23681E-14
 -1      2771 1.10588E-02-1.56081E-03-6.00539E-14
 -1      2772 1.14389E-02-1.66500E-03-6.40827E-14
 -1      2773 1.15818E-02-1.69171E-03-6.58137E-14
 -1      2774 1.13446E-02-1.61461E-03-6.34540E-14
 -1      2775 1.17246E-02-1.71832E-03-6.75645E-14
 -1      2776 1.18675E-02-1.74486E-03-6.93299E-14
 -1      2777 1.16304E-02-1.66799E-03-6.69241E-14
 -1      2778 1.20104E-02-1.77133E-03-7.11117E-14
 -1      2779 1.21533E-02-1.79773E-03-7.29067E-14
 -1      2780 1.19161E-02-1.72104E-03-7.04594E-14
 -1      2781 1.22961E-02-1.82408E-03-7.47188E-14
 -1      2782 1.24390E-02-1.85038E-03-7.65512E-14
 -1      2783 1.22019E-02-1.77383E-03-7.40567E-14
 -1      2784 1.25818E-02-1.87664E-03-7.83962E-14
 -1      2785 1.27247E-02-1.90287E-03-8.02581E-14
 -1      2786 1.24876E-02-1.82642E-03-7.77200E-14
 -1      2787 1.28675E-02-1.92906E-03-8.21363E-14
 -1      2788 1.30104E-02-1.95523E-03-8.40299E-14
 -1      2789 1.27733E-02-1.87886E-03-8.14471E-14
 -1      2790 1.31532E-02-1.98138E-03-8.59394E-14
 -1      2791 1.32961E-02-2.00751E-03-8.78592E-14
 -1      2792 1.30591E-02-1.93120E-03-8.52380E-14
 -1      2793 1.34389E-02-2.03363E-03-8.97911E-14
 -1      2794 1.35817E-02-2.05973E-03-9.17375E-14
 -1      2795 1.33448E-02-1.98346E-03-8.90835E-14
 -1      2796 1.37246E-02-2.08583E-03-9.36930E-14
 -1      2797 1.38674E-02-2.11191E-03-9.56561E-14
 -1      2798 1.36305E-02-2.03566E-03-9.29752E-14
 -1      2799 1.40103E-02-2.13800E-03-9.76276E-14
 -1      2800 1.41531E-02-2.16407E-03-9.96074E-14
 -1      2801 1.39162E-02-2.08784E-03-9.69028E-14
 -1      2802 1.42960E-02-2.19015E-03-1.01593E-13
 -1      2803 1.44389E-02-2.21623E-03-1.03591E-13
 -1      2804 1.42019E-02-2.13999E-03-1.00860E-13
 -1      2805 2.48525E-03 5.91825E-04-3.29447E-15
 -1      2806 2.32207E-03 5.49838E-04-2.89466E-15
 -1      2807 1.40793E-02-1.37338E-03-1.11658E-13
 -1      2808 1.40389E-02-1.31873E-03-1.11853E-13
 -1      2809 1.38961E-02-1.29267E-03-1.09823E-13
 -1      2810 2.15920E-03 5.10114E-04-2.52303E-15
 -1      2811 1.99757E-03 4.72816E-04-2.17812E-15
 -1      2812 2.21544E-03 4.81758E-04-2.72445E-15
 -1      2813 3.13376E-03 7.62878E-04-5.18335E-15
 -1      2814 2.97368E-03 7.22991E-04-4.66660E-15
 -1      2815 3.44713E-03 8.23257E-04-6.30980E-15
 -1      2816 3.29150E-03 7.97382E-04-5.73109E-15
 -1      2817 3.20914E-03 7.42900E-04-5.45886E-15
 -1      2818 3.75220E-03 8.40986E-04-7.56423E-15
 -1      2819 3.60010E-03 8.38639E-04-6.92095E-15
 -1      2820 3.52705E-03 8.00987E-04-6.61057E-15
 -1      2821 4.05497E-03 8.04391E-04-8.94876E-15
 -1      2822 3.90293E-03 8.29622E-04-8.24030E-15
 -1      2823 3.83620E-03 8.08621E-04-7.89206E-15
 -1      2824 4.36337E-03 7.17484E-04-1.04626E-14
 -1      2825 4.20784E-03 7.66160E-04-9.68938E-15
 -1      2826 4.14508E-03 7.55523E-04-9.30392E-15
 -1      2827 4.68112E-03 5.97877E-04-1.21027E-14
 -1      2828 4.52104E-03 6.60227E-04-1.12667E-14
 -1      2829 4.46241E-03 6.51837E-04-1.08457E-14
 -1      2830 5.00602E-03 4.66920E-04-1.38664E-14
 -1      2831 4.84307E-03 5.32548E-04-1.29699E-14
 -1      2832 4.79005E-03 5.20967E-04-1.25133E-14
 -1      2833 5.33293E-03 3.40898E-04-1.57463E-14
 -1      2834 5.16973E-03 4.02560E-04-1.47918E-14
 -1      2835 5.12305E-03 3.86361E-04-1.43023E-14
 -1      2836 5.65714E-03 2.28583E-04-1.77388E-14
 -1      2837 5.49574E-03 2.82791E-04-1.67288E-14
 -1      2838 5.45460E-03 2.62754E-04-1.62060E-14
 -1      2839 5.97603E-03 1.32503E-04-1.98390E-14
 -1      2840 5.81745E-03 1.78565E-04-1.87755E-14
 -1      2841 5.77999E-03 1.56040E-04-1.82204E-14
 -1      2842 6.28890E-03 5.15714E-05-2.20463E-14
 -1      2843 6.13329E-03 9.03214E-05-2.09296E-14
 -1      2844 6.09746E-03 6.63540E-05-2.03409E-14
 -1      2845 6.59615E-03-1.69021E-05-2.43572E-14
 -1      2846 6.44322E-03 1.59848E-05-2.31887E-14
 -1      2847 6.40734E-03-8.79528E-06-2.25680E-14
 -1      2848 6.89865E-03-7.59874E-05-2.67703E-14
 -1      2849 6.74795E-03-4.74274E-05-2.55514E-14
 -1      2850 6.71092E-03-7.26787E-05-2.48981E-14
 -1      2851 7.19732E-03-1.28517E-04-2.92817E-14
 -1      2852 7.04841E-03-1.02914E-04-2.80141E-14
 -1      2853 7.00964E-03-1.28443E-04-2.73296E-14
 -1      2854 7.49299E-03-1.76835E-04-3.18910E-14
 -1      2855 7.34548E-03-1.53082E-04-3.05742E-14
 -1      2856 7.30478E-03-1.78758E-04-2.98585E-14
 -1      2857 7.78631E-03-2.22748E-04-3.45930E-14
 -1      2858 7.63990E-03-2.00004E-04-3.32303E-14
 -1      2859 7.59734E-03-2.25728E-04-3.24848E-14
 -1      2860 8.07780E-03-2.67562E-04-3.73891E-14
 -1      2861 7.93225E-03-2.45231E-04-3.59790E-14
 -1      2862 7.88804E-03-2.70924E-04-3.52043E-14
 -1      2863 8.36786E-03-3.12168E-04-4.02718E-14
 -1      2864 8.22298E-03-2.89851E-04-3.88198E-14
 -1      2865 8.17741E-03-3.15451E-04-3.80165E-14
 -1      2866 8.65682E-03-3.57132E-04-4.32414E-14
 -1      2867 8.51245E-03-3.34581E-04-4.17461E-14
 -1      2868 8.46579E-03-3.60047E-04-4.09167E-14
 -1      2869 8.94491E-03-4.02779E-04-4.62928E-14
 -1      2870 8.80095E-03-3.79857E-04-4.47575E-14
 -1      2871 8.75346E-03-4.05166E-04-4.39001E-14
 -1      2872 9.23234E-03-4.49262E-04-4.94264E-14
 -1      2873 9.08869E-03-4.25911E-04-4.78494E-14
 -1      2874 9.04059E-03-4.51052E-04-4.69666E-14
 -1      2875 9.51927E-03-4.96619E-04-5.26384E-14
 -1      2876 9.37586E-03-4.72831E-04-5.10237E-14
 -1      2877 9.32733E-03-4.97808E-04-5.01144E-14
 -1      2878 9.80582E-03-5.44816E-04-5.59312E-14
 -1      2879 9.66258E-03-5.20615E-04-5.42745E-14
 -1      2880 9.61377E-03-5.45437E-04-5.33422E-14
 -1      2881 1.00921E-02-5.93776E-04-5.93038E-14
 -1      2882 9.94899E-03-5.69205E-04-5.76064E-14
 -1      2883 9.89999E-03-5.93886E-04-5.66477E-14
 -1      2884 1.03782E-02-6.43403E-04-6.27547E-14
 -1      2885 1.02351E-02-6.18511E-04-6.10205E-14
 -1      2886 1.01861E-02-6.43070E-04-6.00335E-14
 -1      2887 1.06641E-02-6.93595E-04-6.62788E-14
 -1      2888 1.05211E-02-6.68433E-04-6.45091E-14
 -1      2889 1.04720E-02-6.92888E-04-6.34992E-14
 -1      2890 1.09499E-02-7.44256E-04-6.98699E-14
 -1      2891 1.08070E-02-7.18872E-04-6.80657E-14
 -1      2892 1.07578E-02-7.43240E-04-6.70339E-14
 -1      2893 1.12357E-02-7.95294E-04-7.35268E-14
 -1      2894 1.10928E-02-7.69732E-04-7.16919E-14
 -1      2895 1.10436E-02-7.94029E-04-7.06354E-14
 -1      2896 1.15214E-02-8.46631E-04-7.72376E-14
 -1      2897 1.13785E-02-8.20929E-04-7.53738E-14
 -1      2898 1.13294E-02-8.45169E-04-7.42953E-14
 -1      2899 1.18071E-02-8.98200E-04-8.10154E-14
 -1      2900 1.16642E-02-8.72389E-04-7.91188E-14
 -1      2901 1.16151E-02-8.96585E-04-7.80152E-14
 -1      2902 1.20927E-02-9.49944E-04-8.48531E-14
 -1      2903 1.19499E-02-9.24053E-04-8.29265E-14
 -1      2904 1.19008E-02-9.48214E-04-8.17989E-14
 -1      2905 1.23784E-02-1.00182E-03-8.87493E-14
 -1      2906 1.22356E-02-9.75868E-04-8.67942E-14
 -1      2907 1.21865E-02-1.00000E-03-8.56446E-14
 -1      2908 1.26641E-02-1.05379E-03-9.26945E-14
 -1      2909 1.25212E-02-1.02780E-03-9.07173E-14
 -1      2910 1.24722E-02-1.05191E-03-8.95452E-14
 -1      2911 1.29497E-02-1.10583E-03-9.66799E-14
 -1      2912 1.28069E-02-1.07980E-03-9.46828E-14
 -1      2913 1.27579E-02-1.10391E-03-9.34932E-14
 -1      2914 1.32354E-02-1.15790E-03-1.00697E-13
 -1      2915 1.30926E-02-1.13186E-03-9.86838E-14
 -1      2916 1.30436E-02-1.15596E-03-9.74803E-14
 -1      2917 1.35211E-02-1.21001E-03-1.04733E-13
 -1      2918 1.33783E-02-1.18395E-03-1.02715E-13
 -1      2919 1.33293E-02-1.20804E-03-1.01498E-13
 -1      2920 1.37800E-02-1.26437E-03-1.08288E-13
 -1      2921 1.36372E-02-1.23831E-03-1.06262E-13
 -1      2922 1.35882E-02-1.26240E-03-1.05040E-13
 -1      2923 1.38204E-02-1.31901E-03-1.08100E-13
 -1      2924 5.44340E-03-7.19885E-05-1.22841E-14
 -1      2925 5.61941E-03-1.54965E-04-1.25869E-14
 -1      2926 1.43407E-02-1.77602E-03-1.09486E-13
 -1      2927 1.43151E-02-1.73385E-03-1.09753E-13
 -1      2928 1.45359E-02-2.23470E-03-1.04940E-13
 -1      2929 1.46330E-02-2.25316E-03-1.06290E-13
 -1      2930 1.44419E-02-2.18453E-03-1.04198E-13
 -1      2931 1.42382E-02-1.60733E-03-1.10543E-13
 -1      2932 1.42127E-02-1.56517E-03-1.10800E-13
 -1      2933 1.43920E-02-1.86037E-03-1.08939E-13
 -1      2934 1.43663E-02-1.81819E-03-1.09216E-13
 -1      2935 1.42298E-02-1.77453E-03-1.07610E-13
 -1      2936 1.42894E-02-1.69168E-03-1.10018E-13
 -1      2937 1.42638E-02-1.64950E-03-1.10281E-13
 -1      2938 1.41273E-02-1.60585E-03-1.08668E-13
 -1      2939 1.41785E-02-1.69019E-03-1.08145E-13
 -1      2940 1.44424E-02-1.94328E-03-1.08394E-13
 -1      2941 1.44172E-02-1.90182E-03-1.08669E-13
 -1      2942 1.42806E-02-1.85816E-03-1.07067E-13
 -1      2943 1.44938E-02-2.02762E-03-1.07830E-13
 -1      2944 1.44681E-02-1.98545E-03-1.08113E-13
 -1      2945 1.43315E-02-1.94179E-03-1.06515E-13
 -1      2946 1.45451E-02-2.11195E-03-1.07255E-13
 -1      2947 1.45194E-02-2.06978E-03-1.07545E-13
 -1      2948 1.43829E-02-2.02612E-03-1.05948E-13
 -1      2949 5.79748E-03-2.29567E-04-1.28546E-14
 -1      2950 5.96401E-03-2.87579E-04-1.31250E-14
 -1      2951 5.73334E-03-1.93825E-04-1.31960E-14
 -1      2952 6.35106E-03-3.92732E-04-1.36265E-14
 -1      2953 6.35054E-03-3.96768E-04-1.34517E-14
 -1      2954 2.87030E-03 3.15009E-04-4.94015E-15
 -1      2955 3.04121E-03 4.11501E-04-5.27355E-15
 -1      2956 5.61676E-03-7.16124E-04-1.15085E-14
 -1      2957 5.45245E-03-8.03865E-04-1.09936E-14
 -1      2958 1.83680E-03 4.37837E-04-1.86008E-15
 -1      2959 1.67743E-03 4.04795E-04-1.56849E-15
 -1      2960 1.88905E-03 4.09204E-04-2.03659E-15
 -1      2961 2.81176E-03 6.79684E-04-4.18021E-15
 -1      2962 2.64889E-03 6.35534E-04-3.72293E-15
 -1      2963 2.54753E-03 5.65736E-04-3.52095E-15
 -1      2964 2.88096E-03 6.57166E-04-4.43077E-15
 -1      2965 1.51908E-03 3.73109E-04-1.30313E-15
 -1      2966 1.36184E-03 3.42127E-04-1.06394E-15
 -1      2967 1.25719E-03 2.87559E-04-9.72882E-16
 -1      2968 1.56981E-03 3.46117E-04-1.45326E-15
 -1      2969 2.08988E-03-5.30925E-05-3.82250E-15
 -1      2970 2.26646E-03 6.42634E-06-4.10083E-15
 -1      2971 5.05314E-03 1.39584E-04-1.14045E-14
 -1      2972 5.22893E-03 3.91895E-05-1.18103E-14
 -1      2973 5.93839E-03-5.33158E-04-1.21441E-14
 -1      2974 5.79272E-03-5.98662E-04-1.17860E-14
 -1      2975 4.24589E-03 6.14005E-04-9.07901E-15
 -1      2976 4.40757E-03 5.28558E-04-9.61670E-15
 -1      2977 7.51063E-04 5.67363E-05-5.31395E-16
 -1      2978 7.33303E-04 3.60526E-05-5.31937E-16
 -1      2979 8.33946E-04 3.16694E-05-6.73777E-16
 -1      2980 8.76469E-04 7.94572E-05-6.73181E-16
 -1      2981 1.46360E-02-2.22146E-03-1.06901E-13
 -1      2982 3.30835E-03-9.90777E-04-4.34640E-15
 -1      2983 1.76269E-03-1.46084E-04-3.39578E-15
 -1      2984 1.87989E-03-1.16419E-04-3.52171E-15
 -1      2985 2.19999E-03-3.48911E-04-3.37818E-15
 -1      2986 2.04334E-03-2.88567E-04-3.35615E-15
 -1      2987 1.95443E-03-2.60936E-04-3.14620E-15
 -1      2988 6.91434E-04-6.34785E-05-4.69975E-16
 -1      2989 7.06896E-04-7.45094E-05-4.54470E-16
 -1      2990 1.64719E-03-1.75333E-04-3.26940E-15
 -1      2991 1.67940E-03-1.68065E-04-3.31596E-15
 -1      2992 3.23011E-03 5.14220E-04-5.69217E-15
 -1      2993 3.38336E-03 5.92189E-04-6.09148E-15
 -1      2994 1.69857E-03-1.90374E-04-3.17735E-15
 -1      2995 1.65041E-03-1.82104E-04-3.18143E-15
 -1      2996 3.92586E-03 7.10814E-04-7.90410E-15
 -1      2997 4.06066E-03 6.82561E-04-8.41265E-15
 -1      2998 3.56844E-03 6.64270E-04-6.63324E-15
 -1      2999 3.73628E-03 7.07162E-04-7.20574E-15
 -1      3000 3.46564E-03 6.42303E-04-6.31489E-15
 -1      3001 5.10967E-03-9.75908E-04-9.78600E-15
 -1      3002 5.10591E-03-1.03800E-03-9.85326E-15
 -1      3003 5.30642E-03-9.56209E-04-1.06387E-14
 -1      3004 5.27102E-03-8.80088E-04-1.03059E-14
 -1      3005 3.10092E-03-8.67871E-04-3.90313E-15
 -1      3006 2.90954E-03-7.36723E-04-3.76827E-15
 -1      3007 7.26373E-04-8.79334E-05-4.36771E-16
 -1      3008 7.49220E-04-1.04402E-04-4.16618E-16
 -1      3009 8.20593E-04-9.48629E-05-5.68257E-16
 -1      3010 7.73773E-04-3.07559E-05-6.53815E-16
 -1      3011 6.73505E-04-3.03391E-05-5.12651E-16
 -1      3012 6.71341E-04-3.85401E-05-5.04425E-16
 -1      3013 1.96151E-03-7.98455E-05-3.52437E-15
 -1      3014 2.04350E-03-3.50878E-05-3.52475E-15
 -1      3015 1.84708E-03-9.17301E-05-3.23935E-15
 -1      3016 2.73357E-03-6.25838E-04-3.61049E-15
 -1      3017 1.18309E-03-2.25290E-04-7.15262E-16
 -1      3018 1.46103E-02-2.17931E-03-1.07200E-13
 -1      3019 4.17262E-03 6.50699E-04-8.92530E-15
 -1      3020 4.54417E-03-1.28268E-03-7.85464E-15
 -1      3021 1.40764E-02-1.52187E-03-1.09178E-13
 -1      3022 1.41873E-02-1.52336E-03-1.11055E-13
 -1      3023 1.41620E-02-1.48155E-03-1.11307E-13
 -1      3024 6.36645E-03-4.10228E-04-1.38374E-14
 -1      3025 6.32071E-03-4.05221E-04-1.31963E-14
 -1      3026 6.26337E-03-4.16905E-04-1.29424E-14
 -1      3027 5.36094E-03-1.84439E-05-1.24349E-14
 -1      3028 1.41047E-02-1.41518E-03-1.11412E-13
 -1      3029 2.74249E-03 2.54550E-04-4.67490E-15
 -1      3030 2.80575E-03 3.14990E-04-4.69878E-15
 -1      3031 2.61500E-03 1.99408E-04-4.41796E-15
 -1      3032 3.82013E-03 7.21534E-04-7.54757E-15
 -1      3033 3.89590E-03 7.25226E-04-7.89501E-15
 -1      3034 3.71964E-03 7.21048E-04-7.19771E-15
 -1      3035 6.08883E-03-3.25288E-04-1.36039E-14
 -1      3036 6.19639E-03-3.50326E-04-1.40884E-14
 -1      3037 6.02986E-03-2.99686E-04-1.39549E-14
 -1      3038 1.44738E-02-2.13564E-03-1.05606E-13
 -1      3039 9.04788E-04 2.06871E-04-5.58608E-16
 -1      3040 1.02265E-03 2.13258E-04-7.13242E-16
 -1      3041 6.34113E-03-3.87973E-04-1.39165E-14
 -1      3042 6.38987E-03-3.99986E-04-1.43915E-14
 -1      3043 6.31739E-03-3.82051E-04-1.42069E-14
 -1      3044 2.35187E-03 5.99015E-05-4.10208E-15
 -1      3045 5.76674E-03-6.78270E-04-1.21760E-14
 -1      3046 3.11331E-03 4.73183E-04-5.36799E-15
 -1      3047 4.51698E-03 4.71538E-04-1.00766E-14
 -1      3048 6.05412E-03-4.84623E-04-1.23967E-14
 -1      3049 6.03475E-03-5.21798E-04-1.27220E-14
 -1      3050 6.16098E-03-4.48717E-04-1.26506E-14
 -1      3051 6.73524E-04-4.62376E-05-4.94694E-16
 -1      3052 6.80211E-04-5.43688E-05-4.83012E-16
 -1      3053 7.83658E-04-6.94700E-05-6.05337E-16
 -1      3054 7.67934E-04-5.03503E-05-6.33310E-16
 -1      3055 4.92798E-03 2.18037E-04-1.12401E-14
 -1      3056 5.03742E-03 1.67923E-04-1.17860E-14
 -1      3057 4.81754E-03 2.94751E-04-1.10752E-14
 -1      3058 1.71713E-03-1.93843E-04-3.02129E-15
 -1      3059 1.61521E-03-1.70150E-04-3.00287E-15
 -1      3060 2.34740E-03-4.16523E-04-3.38732E-15
 -1      3061 2.22811E-03-3.71022E-04-3.17318E-15
 -1      3062 1.68806E-03-1.48684E-04-3.16347E-15
 -1      3063 2.53339E-03-5.09089E-04-3.54058E-15
 -1      3064 1.05977E-03 1.74485E-04-8.19847E-16
 -1      3065 1.03357E-03 1.38896E-04-8.27450E-16
 -1      3066 9.03628E-04-1.44733E-04-5.23765E-16
 -1      3067 1.42156E-03-2.43807E-04-1.13036E-15
 -1      3068 1.56413E-03-2.68921E-04-1.35558E-15
 -1      3069 1.70875E-03-2.96190E-04-1.60284E-15
 -1      3070 1.85742E-03-3.27754E-04-1.87270E-15
 -1      3071 1.57413E-03-2.45603E-04-1.52528E-15
 -1      3072 2.01100E-03-3.63900E-04-2.16458E-15
 -1      3073 2.17192E-03-4.09017E-04-2.47957E-15
 -1      3074 1.85385E-03-2.98063E-04-2.07249E-15
 -1      3075 2.36557E-03-4.69247E-04-2.87450E-15
 -1      3076 2.54865E-03-5.42473E-04-3.24052E-15
 -1      3077 1.05523E-03-1.75315E-04-6.72016E-16
 -1      3078 1.26001E-03-2.09459E-04-9.32251E-16
 -1      3079 1.28259E-03-1.92000E-04-1.07016E-15
 -1      3080 9.87069E-04-1.36794E-04-7.00828E-16
 -1      3081 6.12835E-03-6.56407E-04-1.42135E-14
 -1      3082 6.28304E-03-6.51187E-04-1.51410E-14
 -1      3083 6.43182E-03-6.54275E-04-1.60929E-14
 -1      3084 6.57692E-03-6.62597E-04-1.70719E-14
 -1      3085 6.40299E-03-6.07062E-04-1.57520E-14
 -1      3086 6.71910E-03-6.75934E-04-1.80758E-14
 -1      3087 6.85981E-03-6.92771E-04-1.91033E-14
 -1      3088 6.67744E-03-6.31474E-04-1.77154E-14
 -1      3089 6.99935E-03-7.12800E-04-2.01582E-14
 -1      3090 7.13860E-03-7.35277E-04-2.12385E-14
 -1      3091 6.94665E-03-6.68968E-04-1.97801E-14
 -1      3092 7.27759E-03-7.59791E-04-2.23449E-14
 -1      3093 7.41680E-03-7.85974E-04-2.34790E-14
 -1      3094 7.21569E-03-7.15389E-04-2.19473E-14
 -1      3095 7.55614E-03-8.13421E-04-2.46401E-14
 -1      3096 7.69590E-03-8.41924E-04-2.58271E-14
 -1      3097 7.48676E-03-7.67925E-04-2.42196E-14
 -1      3098 7.83591E-03-8.71139E-04-2.70410E-14
 -1      3099 7.97635E-03-9.00945E-04-2.82834E-14
 -1      3100 7.76052E-03-8.24460E-04-2.66003E-14
 -1      3101 8.11706E-03-9.31079E-04-2.95522E-14
 -1      3102 8.25815E-03-9.61468E-04-3.08466E-14
 -1      3103 8.03692E-03-8.83345E-04-2.90878E-14
 -1      3104 8.39946E-03-9.91924E-04-3.21658E-14
 -1      3105 8.54108E-03-1.02241E-03-3.35086E-14
 -1      3106 8.31561E-03-9.43341E-04-3.16805E-14
 -1      3107 8.68286E-03-1.05279E-03-3.48747E-14
 -1      3108 8.82488E-03-1.08305E-03-3.62644E-14
 -1      3109 8.59616E-03-1.00357E-03-3.43698E-14
 -1      3110 8.96702E-03-1.11313E-03-3.76761E-14
 -1      3111 9.10932E-03-1.14300E-03-3.91077E-14
 -1      3112 8.87816E-03-1.06346E-03-3.71528E-14
 -1      3113 9.25172E-03-1.17263E-03-4.05609E-14
 -1      3114 9.39423E-03-1.20202E-03-4.20321E-14
 -1      3115 9.16124E-03-1.12266E-03-4.00198E-14
 -1      3116 9.53680E-03-1.23116E-03-4.35238E-14
 -1      3117 9.67945E-03-1.26005E-03-4.50347E-14
 -1      3118 9.44513E-03-1.18101E-03-4.29697E-14
 -1      3119 9.82213E-03-1.28870E-03-4.65621E-14
 -1      3120 9.96487E-03-1.31711E-03-4.81097E-14
 -1      3121 9.72961E-03-1.23844E-03-4.59932E-14
 -1      3122 1.01076E-02-1.34530E-03-4.96747E-14
 -1      3123 1.02504E-02-1.37327E-03-5.12581E-14
 -1      3124 1.00145E-02-1.29498E-03-4.90915E-14
 -1      3125 1.03933E-02-1.40104E-03-5.28594E-14
 -1      3126 1.05361E-02-1.42863E-03-5.44776E-14
 -1      3127 1.02997E-02-1.35071E-03-5.22637E-14
 -1      3128 1.06789E-02-1.45604E-03-5.61130E-14
 -1      3129 1.08218E-02-1.48330E-03-5.77663E-14
 -1      3130 1.05851E-02-1.40571E-03-5.55060E-14
 -1      3131 1.09647E-02-1.51041E-03-5.94364E-14
 -1      3132 1.11075E-02-1.53740E-03-6.11210E-14
 -1      3133 1.08707E-02-1.46010E-03-5.88135E-14
 -1      3134 1.12504E-02-1.56426E-03-6.28235E-14
 -1      3135 1.13933E-02-1.59102E-03-6.45432E-14
 -1      3136 1.11563E-02-1.51396E-03-6.21917E-14
 -1      3137 1.15362E-02-1.61768E-03-6.62821E-14
 -1      3138 1.16790E-02-1.64426E-03-6.80365E-14
 -1      3139 1.14420E-02-1.56741E-03-6.56371E-14
 -1      3140 1.18219E-02-1.67077E-03-6.98057E-14
 -1      3141 1.19648E-02-1.69721E-03-7.15914E-14
 -1      3142 1.17277E-02-1.62051E-03-6.91501E-14
 -1      3143 1.21077E-02-1.72359E-03-7.33919E-14
 -1      3144 1.22506E-02-1.74991E-03-7.52089E-14
 -1      3145 1.20135E-02-1.67335E-03-7.27257E-14
 -1      3146 1.23934E-02-1.77620E-03-7.70437E-14
 -1      3147 1.25363E-02-1.80245E-03-7.88939E-14
 -1      3148 1.22992E-02-1.72599E-03-7.63653E-14
 -1      3149 1.26792E-02-1.82866E-03-8.07597E-14
 -1      3150 1.28221E-02-1.85485E-03-8.26407E-14
 -1      3151 1.25850E-02-1.77846E-03-8.00705E-14
 -1      3152 1.29649E-02-1.88101E-03-8.45380E-14
 -1      3153 1.31078E-02-1.90715E-03-8.64500E-14
 -1      3154 1.28708E-02-1.83082E-03-8.38367E-14
 -1      3155 1.32507E-02-1.93328E-03-8.83739E-14
 -1      3156 1.33935E-02-1.95939E-03-9.03089E-14
 -1      3157 1.31565E-02-1.88310E-03-8.76633E-14
 -1      3158 1.35364E-02-1.98549E-03-9.22545E-14
 -1      3159 1.36793E-02-2.01159E-03-9.42105E-14
 -1      3160 1.34423E-02-1.93532E-03-9.15360E-14
 -1      3161 1.38221E-02-2.03767E-03-9.61791E-14
 -1      3162 1.39650E-02-2.06375E-03-9.81500E-14
 -1      3163 1.37280E-02-1.98751E-03-9.54496E-14
 -1      3164 1.41078E-02-2.08983E-03-1.00126E-13
 -1      3165 1.42507E-02-2.11591E-03-1.02113E-13
 -1      3166 1.40138E-02-2.03967E-03-9.93933E-14
 -1      3167 2.27188E-03 4.51171E-04-2.92598E-15
 -1      3168 2.10534E-03 4.13035E-04-2.55693E-15
 -1      3169 3.61004E-03 7.80614E-04-6.90970E-15
 -1      3170 3.45020E-03 7.59204E-04-6.30474E-15
 -1      3171 3.28771E-03 7.24569E-04-5.73249E-15
 -1      3172 3.12156E-03 6.82217E-04-5.19143E-15
 -1      3173 3.36727E-03 7.09460E-04-6.00367E-15
 -1      3174 4.23898E-03 7.02728E-04-9.65825E-15
 -1      3175 4.07945E-03 7.46943E-04-8.92191E-15
 -1      3176 4.56664E-03 5.80090E-04-1.12270E-14
 -1      3177 4.40100E-03 6.45262E-04-1.04267E-14
 -1      3178 4.33881E-03 6.42271E-04-1.00113E-14
 -1      3179 4.90493E-03 4.38651E-04-1.29228E-14
 -1      3180 4.73502E-03 5.09627E-04-1.20594E-14
 -1      3181 4.67924E-03 5.00427E-04-1.16087E-14
 -1      3182 5.24547E-03 3.02629E-04-1.47371E-14
 -1      3183 5.07576E-03 3.68869E-04-1.38155E-14
 -1      3184 5.02822E-03 3.51364E-04-1.33317E-14
 -1      3185 5.58017E-03 1.83778E-04-1.66639E-14
 -1      3186 5.41412E-03 2.40829E-04-1.56865E-14
 -1      3187 5.37436E-03 2.17379E-04-1.51712E-14
 -1      3188 5.90503E-03 8.42395E-05-1.86998E-14
 -1      3189 5.74406E-03 1.31767E-04-1.76692E-14
 -1      3190 5.70971E-03 1.05656E-04-1.71210E-14
 -1      3191 6.21969E-03 1.72762E-06-2.08420E-14
 -1      3192 6.06365E-03 4.11521E-05-1.97575E-14
 -1      3193 6.03191E-03 1.44712E-05-1.91784E-14
 -1      3194 6.52569E-03-6.74210E-05-2.30874E-14
 -1      3195 6.37369E-03-3.42301E-05-2.19522E-14
 -1      3196 6.34228E-03-6.05594E-05-2.13406E-14
 -1      3197 6.82510E-03-1.26809E-04-2.54383E-14
 -1      3198 6.67611E-03-9.81013E-05-2.42503E-14
 -1      3199 6.64352E-03-1.23872E-04-2.36070E-14
 -1      3200 7.11986E-03-1.79482E-04-2.78862E-14
 -1      3201 6.97296E-03-1.53807E-04-2.66495E-14
 -1      3202 6.93837E-03-1.79115E-04-2.59753E-14
 -1      3203 7.41147E-03-2.27849E-04-3.04346E-14
 -1      3204 7.26598E-03-2.04075E-04-2.91487E-14
 -1      3205 7.22906E-03-2.29082E-04-2.84428E-14
 -1      3206 7.70103E-03-2.73724E-04-3.30775E-14
 -1      3207 7.55645E-03-2.51007E-04-3.17442E-14
 -1      3208 7.51720E-03-2.75847E-04-3.10077E-14
 -1      3209 7.98925E-03-3.18421E-04-3.58150E-14
 -1      3210 7.84526E-03-2.96158E-04-3.44341E-14
 -1      3211 7.80389E-03-3.20916E-04-3.36678E-14
 -1      3212 8.27663E-03-3.62842E-04-3.86420E-14
 -1      3213 8.13301E-03-3.40626E-04-3.72171E-14
 -1      3214 8.08979E-03-3.65341E-04-3.64218E-14
 -1      3215 8.56346E-03-4.07571E-04-4.15585E-14
 -1      3216 8.42009E-03-3.85144E-04-4.00904E-14
 -1      3217 8.37534E-03-4.09828E-04-3.92673E-14
 -1      3218 8.84994E-03-4.52953E-04-4.45571E-14
 -1      3219 8.70673E-03-4.30168E-04-4.30468E-14
 -1      3220 8.66076E-03-4.54819E-04-4.21989E-14
 -1      3221 9.13619E-03-4.99161E-04-4.76379E-14
 -1      3222 8.99308E-03-4.75949E-04-4.60873E-14
 -1      3223 8.94617E-03-5.00559E-04-4.52127E-14
 -1      3224 9.42229E-03-5.46249E-04-5.08013E-14
 -1      3225 9.27925E-03-5.22595E-04-4.92095E-14
 -1      3226 9.23163E-03-5.47156E-04-4.83091E-14
 -1      3227 9.70828E-03-5.94193E-04-5.40420E-14
 -1      3228 9.56529E-03-5.70117E-04-5.24115E-14
 -1      3229 9.51715E-03-5.94624E-04-5.14865E-14
 -1      3230 9.99419E-03-6.42926E-04-5.73637E-14
 -1      3231 9.85124E-03-6.18466E-04-5.56927E-14
 -1      3232 9.80274E-03-6.42916E-04-5.47414E-14
 -1      3233 1.02801E-02-6.92353E-04-6.07634E-14
 -1      3234 1.01371E-02-6.67558E-04-5.90538E-14
 -1      3235 1.00884E-02-6.91953E-04-5.80779E-14
 -1      3236 1.05659E-02-7.42376E-04-6.42401E-14
 -1      3237 1.04230E-02-7.17296E-04-6.24922E-14
 -1      3238 1.03741E-02-7.41638E-04-6.14904E-14
 -1      3239 1.08517E-02-7.92894E-04-6.77830E-14
 -1      3240 1.07088E-02-7.67578E-04-6.60034E-14
 -1      3241 1.06598E-02-7.91872E-04-6.49769E-14
 -1      3242 1.11374E-02-8.43815E-04-7.13961E-14
 -1      3243 1.09945E-02-8.18309E-04-6.95810E-14
 -1      3244 1.09455E-02-8.42560E-04-6.85334E-14
 -1      3245 1.14232E-02-8.95058E-04-7.50616E-14
 -1      3246 1.12803E-02-8.69401E-04-7.32219E-14
 -1      3247 1.12312E-02-8.93616E-04-7.21515E-14
 -1      3248 1.17089E-02-9.46554E-04-7.87907E-14
 -1      3249 1.15661E-02-9.20778E-04-7.69172E-14
 -1      3250 1.15170E-02-9.44963E-04-7.58269E-14
 -1      3251 1.19946E-02-9.98242E-04-8.25821E-14
 -1      3252 1.18518E-02-9.72376E-04-8.06799E-14
 -1      3253 1.18027E-02-9.96536E-04-7.95636E-14
 -1      3254 1.22804E-02-1.05008E-03-8.64330E-14
 -1      3255 1.21375E-02-1.02414E-03-8.45010E-14
 -1      3256 1.20885E-02-1.04828E-03-8.33636E-14
 -1      3257 1.25661E-02-1.10201E-03-9.03372E-14
 -1      3258 1.24232E-02-1.07603E-03-8.83784E-14
 -1      3259 1.23742E-02-1.10016E-03-8.72200E-14
 -1      3260 1.28518E-02-1.15403E-03-9.42914E-14
 -1      3261 1.27090E-02-1.12801E-03-9.23114E-14
 -1      3262 1.26600E-02-1.15212E-03-9.11285E-14
 -1      3263 1.31375E-02-1.20609E-03-9.82796E-14
 -1      3264 1.29947E-02-1.18006E-03-9.62808E-14
 -1      3265 1.29457E-02-1.20416E-03-9.50856E-14
 -1      3266 1.34232E-02-1.25819E-03-1.02298E-13
 -1      3267 1.32804E-02-1.23214E-03-1.00284E-13
 -1      3268 1.32314E-02-1.25624E-03-9.90771E-14
 -1      3269 1.41695E-02-1.85631E-03-1.05197E-13
 -1      3270 1.41443E-02-1.81486E-03-1.05469E-13
 -1      3271 1.42720E-02-2.02462E-03-1.04068E-13
 -1      3272 1.42463E-02-1.98246E-03-1.04353E-13
 -1      3273 1.41186E-02-1.77269E-03-1.05741E-13
 -1      3274 1.40930E-02-1.73052E-03-1.06010E-13
 -1      3275 1.40075E-02-1.77084E-03-1.03875E-13
 -1      3276 3.35242E-03 6.18479E-04-5.95716E-15
 -1      3277 3.51930E-03 6.81540E-04-6.49070E-15
 -1      3278 2.98892E-03 4.33874E-04-5.02028E-15
 -1      3279 3.15842E-03 5.25669E-04-5.42479E-15
 -1      3280 5.69609E-03-1.61592E-04-1.36267E-14
 -1      3281 5.85253E-03-2.28081E-04-1.39077E-14
 -1      3282 4.09915E-03 6.86336E-04-8.72837E-15
 -1      3283 4.26981E-03 6.20186E-04-9.41102E-15
 -1      3284 1.94087E-03 3.78432E-04-2.21374E-15
 -1      3285 1.77920E-03 3.46680E-04-1.89677E-15
 -1      3286 1.99190E-03 3.45445E-04-2.39259E-15
 -1      3287 1.42207E-02-1.94047E-03-1.04637E-13
 -1      3288 1.41950E-02-1.89830E-03-1.04919E-13
 -1      3289 1.40587E-02-1.85500E-03-1.03326E-13
 -1      3290 1.41098E-02-1.93898E-03-1.02765E-13
 -1      3291 3.92306E-03 7.76030E-04-8.21824E-15
 -1      3292 3.76644E-03 7.87270E-04-7.54762E-15
 -1      3293 3.69388E-03 7.61716E-04-7.20685E-15
 -1      3294 4.01289E-03 7.39602E-04-8.54312E-15
 -1      3295 5.93773E-03-6.47365E-04-1.30464E-14
 -1      3296 5.45966E-03-8.48966E-04-1.11676E-14
 -1      3297 1.19780E-03 2.51132E-04-9.29758E-16
 -1      3298 1.11621E-03 2.06353E-04-8.63770E-16
 -1      3299 1.23183E-03 2.06851E-04-1.05210E-15
 -1      3300 1.35163E-03 2.78401E-04-1.15142E-15
 -1      3301 1.39937E-02-1.41369E-03-1.09533E-13
 -1      3302 1.61147E-03-1.46076E-04-2.88703E-15
 -1      3303 1.67857E-03-1.27962E-04-2.95799E-15
 -1      3304 1.75702E-03-2.04679E-04-2.88178E-15
 -1      3305 1.65606E-03-1.82061E-04-2.78231E-15
 -1      3306 1.57608E-03-1.60702E-04-2.72679E-15
 -1      3307 1.57804E-03-1.55869E-04-2.80736E-15
 -1      3308 1.54572E-03-1.38920E-04-2.61600E-15
 -1      3309 2.26928E-03 5.47747E-05-3.82452E-15
 -1      3310 2.43719E-03 1.21047E-04-4.10217E-15
 -1      3311 1.98222E-03-2.77749E-04-2.91955E-15
 -1      3312 1.86062E-03-2.35815E-04-2.90179E-15
 -1      3313 1.77366E-03-2.17088E-04-2.66741E-15
 -1      3314 5.29274E-03 3.99183E-05-1.27209E-14
 -1      3315 5.48387E-03-5.82910E-05-1.32159E-14
 -1      3316 2.17622E-03-3.76725E-04-2.76337E-15
 -1      3317 2.05905E-03-3.20210E-04-2.76125E-15
 -1      3318 9.10662E-04 3.22422E-06-8.27870E-16
 -1      3319 8.91778E-04-1.46658E-05-8.21663E-16
 -1      3320 4.46482E-03 5.19968E-04-1.01131E-14
 -1      3321 4.62939E-03 4.14772E-04-1.05891E-14
 -1      3322 4.74299E-03 3.61271E-04-1.11144E-14
 -1      3323 6.09106E-03-5.80696E-04-1.36167E-14
 -1      3324 8.76738E-04-2.96697E-05-8.13545E-16
 -1      3325 8.66859E-04-4.24329E-05-8.03136E-16
 -1      3326 9.83536E-04-2.67537E-05-9.91042E-16
 -1      3327 1.72786E-03-1.04638E-04-2.95776E-15
 -1      3328 1.78364E-03-7.50734E-05-2.95600E-15
 -1      3329 1.62431E-03-1.08143E-04-2.69001E-15
 -1      3330 5.07603E-03 1.81913E-04-1.23651E-14
 -1      3331 5.18024E-03 1.10287E-04-1.25440E-14
 -1      3332 5.31914E-03 6.57895E-05-1.33227E-14
 -1      3333 1.39653E-02-1.52021E-03-1.07311E-13
 -1      3334 1.39400E-02-1.47840E-03-1.07558E-13
 -1      3335 6.41448E-03-4.18933E-04-1.45050E-14
 -1      3336 6.38306E-03-4.26484E-04-1.42404E-14
 -1      3337 1.39088E-02-1.43189E-03-1.07781E-13
 -1      3338 1.38515E-02-1.36552E-03-1.07880E-13
 -1      3339 1.37355E-02-1.33721E-03-1.06350E-13
 -1      3340 1.37978E-02-1.43022E-03-1.05914E-13
 -1      3341 2.44089E-03 4.92861E-04-3.32237E-15
 -1      3342 2.32821E-03 4.18704E-04-3.12822E-15
 -1      3343 2.61101E-03 5.37991E-04-3.74676E-15
 -1      3344 1.64244E-03 3.25959E-04-1.63784E-15
 -1      3345 1.48508E-03 2.97730E-04-1.36867E-15
 -1      3346 1.42308E-03 2.59263E-04-1.31352E-15
 -1      3347 1.69148E-03 2.95257E-04-1.79429E-15
 -1      3348 3.02554E-03 6.13863E-04-4.92786E-15
 -1      3349 2.95257E-03 6.34602E-04-4.67990E-15
 -1      3350 2.78228E-03 5.85984E-04-4.19887E-15
 -1      3351 3.60482E-03 7.15352E-04-6.80502E-15
 -1      3352 1.36374E-02-1.31185E-03-1.05083E-13
 -1      3353 1.35213E-02-1.28354E-03-1.03560E-13
 -1      3354 1.34724E-02-1.30764E-03-1.02342E-13
 -1      3355 1.36685E-02-1.35835E-03-1.04867E-13
 -1      3356 1.40165E-02-1.60454E-03-1.06799E-13
 -1      3357 1.39909E-02-1.56237E-03-1.07056E-13
 -1      3358 1.38545E-02-1.51890E-03-1.05444E-13
 -1      3359 3.22665E-03 5.85484E-04-5.58070E-15
 -1      3360 1.40675E-02-1.68861E-03-1.06277E-13
 -1      3361 1.40419E-02-1.64644E-03-1.06540E-13
 -1      3362 1.39055E-02-1.60296E-03-1.04933E-13
 -1      3363 1.39564E-02-1.68677E-03-1.04411E-13
 -1      3364 2.51123E-03 1.82876E-04-4.12355E-15
 -1      3365 5.98935E-03-2.73134E-04-1.43997E-14
 -1      3366 6.11470E-03-3.07601E-04-1.48968E-14
 -1      3367 5.96018E-03-2.42726E-04-1.48455E-14
 -1      3368 6.28671E-03-3.71030E-04-1.45683E-14
 -1      3369 6.36461E-03-3.86426E-04-1.50536E-14
 -1      3370 6.25073E-03-3.55230E-04-1.49306E-14
 -1      3371 1.43478E-02-2.13437E-03-1.03458E-13
 -1      3372 1.42826E-02-2.06701E-03-1.03514E-13
 -1      3373 4.37797E-03 5.77783E-04-9.90076E-15
 -1      3374 6.43631E-03-4.09440E-04-1.51028E-14
 -1      3375 6.43200E-03-4.13694E-04-1.48034E-14
 -1      3376 6.46801E-03-4.28791E-04-1.52175E-14
 -1      3377 1.98497E-03-1.07689E-05-3.23457E-15
 -1      3378 2.12203E-03 1.53922E-05-3.52238E-15
 -1      3379 2.19167E-03 7.06902E-05-3.51775E-15
 -1      3380 2.75437E-03 3.29500E-04-4.49010E-15
 -1      3381 2.87255E-03 3.81161E-04-4.75091E-15
 -1      3382 2.92272E-03 4.41838E-04-4.79914E-15
 -1      3383 9.32636E-04 2.41492E-05-8.32125E-16
 -1      3384 1.02883E-03 1.39940E-05-1.00628E-15
 -1      3385 9.56451E-04 4.82399E-05-8.34375E-16
 -1      3386 5.62407E-03-1.03880E-04-1.39258E-14
 -1      3387 6.24439E-03-4.43659E-04-1.32799E-14
 -1      3388 1.57741E-03-1.64589E-04-2.59702E-15
 -1      3389 1.51271E-03-1.50102E-04-2.41625E-15
 -1      3390 1.59035E-03-1.70581E-04-2.46884E-15
 -1      3391 1.41460E-02-2.02335E-03-1.01929E-13
 -1      3392 1.00742E-03 1.05797E-04-8.32125E-16
 -1      3393 9.81734E-04 7.55923E-05-8.34253E-16
 -1      3394 1.08485E-03 6.87171E-05-1.01228E-15
 -1      3395 1.14402E-03 1.36338E-04-1.00808E-15
 -1      3396 9.27539E-04-9.98663E-05-7.53846E-16
 -1      3397 9.54641E-04-1.16670E-04-7.28679E-16
 -1      3398 1.09224E-03-1.39817E-04-9.09591E-16
 -1      3399 8.91362E-04-7.42564E-05-7.95086E-16
 -1      3400 9.06136E-04-8.61320E-05-7.75896E-16
 -1      3401 1.02988E-03-1.03859E-04-9.67176E-16
 -1      3402 1.70696E-03-2.44677E-04-1.97832E-15
 -1      3403 1.83943E-03-2.69306E-04-2.27722E-15
 -1      3404 3.47320E-03 7.07276E-04-6.35454E-15
 -1      3405 3.30177E-03 6.62580E-04-5.78471E-15
 -1      3406 6.38375E-03-5.61695E-04-1.54082E-14
 -1      3407 6.51341E-03-5.73810E-04-1.63686E-14
 -1      3408 6.38973E-03-4.51193E-04-1.46047E-14
 -1      3409 6.31984E-03-4.45621E-04-1.39364E-14
 -1      3410 6.23006E-03-4.75123E-04-1.36314E-14
 -1      3411 6.64106E-03-5.88942E-04-1.73546E-14
 -1      3412 6.76929E-03-6.06929E-04-1.83649E-14
 -1      3413 6.60993E-03-5.48437E-04-1.69917E-14
 -1      3414 6.89736E-03-6.27254E-04-1.94004E-14
 -1      3415 7.02645E-03-6.49384E-04-2.04616E-14
 -1      3416 6.85106E-03-5.87516E-04-1.90191E-14
 -1      3417 7.15624E-03-6.73055E-04-2.15471E-14
 -1      3418 7.28729E-03-6.98165E-04-2.26594E-14
 -1      3419 7.09879E-03-6.32797E-04-2.11465E-14
 -1      3420 7.41930E-03-7.24350E-04-2.37998E-14
 -1      3421 7.55254E-03-7.51572E-04-2.49658E-14
 -1      3422 7.35336E-03-6.82719E-04-2.33784E-14
 -1      3423 7.68674E-03-7.79492E-04-2.61589E-14
 -1      3424 7.82201E-03-8.08089E-04-2.73787E-14
 -1      3425 7.61421E-03-7.36266E-04-2.57166E-14
 -1      3426 7.95815E-03-8.37082E-04-2.86234E-14
 -1      3427 8.09518E-03-8.66454E-04-2.98965E-14
 -1      3428 7.88047E-03-7.92330E-04-2.81616E-14
 -1      3429 8.23293E-03-8.95989E-04-3.11949E-14
 -1      3430 8.37140E-03-9.25677E-04-3.25177E-14
 -1      3431 8.15121E-03-8.49913E-04-3.07092E-14
 -1      3432 8.51044E-03-9.55360E-04-3.38647E-14
 -1      3433 8.65005E-03-9.85037E-04-3.52347E-14
 -1      3434 8.42555E-03-9.08202E-04-3.33580E-14
 -1      3435 8.79010E-03-1.01460E-03-3.66284E-14
 -1      3436 8.93059E-03-1.04406E-03-3.80439E-14
 -1      3437 8.70276E-03-9.66595E-04-3.61036E-14
 -1      3438 9.07142E-03-1.07333E-03-3.94788E-14
 -1      3439 9.21258E-03-1.10244E-03-4.09349E-14
 -1      3440 8.98219E-03-1.02468E-03-3.89366E-14
 -1      3441 9.35400E-03-1.13135E-03-4.24116E-14
 -1      3442 9.49566E-03-1.16005E-03-4.39083E-14
 -1      3443 9.26334E-03-1.08222E-03-4.18525E-14
 -1      3444 9.63751E-03-1.18855E-03-4.54221E-14
 -1      3445 9.77954E-03-1.21685E-03-4.69553E-14
 -1      3446 9.54579E-03-1.13908E-03-4.48490E-14
 -1      3447 9.92171E-03-1.24495E-03-4.85079E-14
 -1      3448 1.00640E-02-1.27285E-03-5.00781E-14
 -1      3449 9.82920E-03-1.19523E-03-4.79216E-14
 -1      3450 1.02064E-02-1.30058E-03-5.16654E-14
 -1      3451 1.03489E-02-1.32813E-03-5.32715E-14
 -1      3452 1.01133E-02-1.25069E-03-5.10661E-14
 -1      3453 1.04915E-02-1.35553E-03-5.48951E-14
 -1      3454 1.06341E-02-1.38278E-03-5.65353E-14
 -1      3455 1.03980E-02-1.30552E-03-5.42828E-14
 -1      3456 1.07768E-02-1.40989E-03-5.81927E-14
 -1      3457 1.09195E-02-1.43687E-03-5.98664E-14
 -1      3458 1.06831E-02-1.35980E-03-5.75685E-14
 -1      3459 1.10623E-02-1.46374E-03-6.15583E-14
 -1      3460 1.12051E-02-1.49051E-03-6.32650E-14
 -1      3461 1.09684E-02-1.41361E-03-6.09216E-14
 -1      3462 1.13479E-02-1.51718E-03-6.49882E-14
 -1      3463 1.14907E-02-1.54378E-03-6.67323E-14
 -1      3464 1.12539E-02-1.46702E-03-6.43420E-14
 -1      3465 1.16336E-02-1.57029E-03-6.84906E-14
 -1      3466 1.17765E-02-1.59675E-03-7.02641E-14
 -1      3467 1.15395E-02-1.52012E-03-6.78302E-14
 -1      3468 1.19193E-02-1.62314E-03-7.20555E-14
 -1      3469 1.20622E-02-1.64948E-03-7.38628E-14
 -1      3470 1.18252E-02-1.57295E-03-7.13826E-14
 -1      3471 1.22051E-02-1.67578E-03-7.56831E-14
 -1      3472 1.23480E-02-1.70204E-03-7.75229E-14
 -1      3473 1.21109E-02-1.62560E-03-7.50013E-14
 -1      3474 1.24909E-02-1.72827E-03-7.93783E-14
 -1      3475 1.26337E-02-1.75447E-03-8.12493E-14
 -1      3476 1.23967E-02-1.67808E-03-7.86839E-14
 -1      3477 1.27766E-02-1.78064E-03-8.31360E-14
 -1      3478 1.29195E-02-1.80679E-03-8.50379E-14
 -1      3479 1.26825E-02-1.73046E-03-8.24334E-14
 -1      3480 1.30624E-02-1.83292E-03-8.69524E-14
 -1      3481 1.32053E-02-1.85904E-03-8.88785E-14
 -1      3482 1.29683E-02-1.78275E-03-8.62396E-14
 -1      3483 1.33482E-02-1.88515E-03-9.08164E-14
 -1      3484 1.34911E-02-1.91125E-03-9.27630E-14
 -1      3485 1.32541E-02-1.83498E-03-9.00948E-14
 -1      3486 1.36339E-02-1.93734E-03-9.47194E-14
 -1      3487 1.37768E-02-1.96342E-03-9.66879E-14
 -1      3488 1.35398E-02-1.88717E-03-9.39923E-14
 -1      3489 1.38900E-02-1.98035E-03-9.83146E-14
 -1      3490 1.40329E-02-2.00643E-03-1.00290E-13
 -1      3491 1.40222E-02-1.96404E-03-1.00840E-13
 -1      3492 1.37959E-02-1.93018E-03-9.75766E-14
 -1      3493 4.80099E-03 4.12171E-04-1.19910E-14
 -1      3494 4.62236E-03 4.92765E-04-1.11618E-14
 -1      3495 5.50964E-03 1.30937E-04-1.56039E-14
 -1      3496 5.33718E-03 1.91539E-04-1.46583E-14
 -1      3497 5.84285E-03 2.88888E-05-1.75770E-14
 -1      3498 5.67859E-03 7.71735E-05-1.65776E-14
 -1      3499 5.65092E-03 4.62061E-05-1.60374E-14
 -1      3500 6.16011E-03-5.28710E-05-1.96552E-14
 -1      3501 6.00339E-03-1.39849E-05-1.86031E-14
 -1      3502 5.97837E-03-4.45174E-05-1.80322E-14
 -1      3503 6.46472E-03-1.20266E-04-2.18373E-14
 -1      3504 6.31379E-03-8.79321E-05-2.07333E-14
 -1      3505 6.28843E-03-1.16637E-04-2.01299E-14
 -1      3506 6.76042E-03-1.78029E-04-2.41230E-14
 -1      3507 6.61347E-03-1.50053E-04-2.29668E-14
 -1      3508 6.58608E-03-1.76847E-04-2.23320E-14
 -1      3509 7.05039E-03-2.29557E-04-2.65096E-14
 -1      3510 6.90595E-03-2.04374E-04-2.53037E-14
 -1      3511 6.87575E-03-2.29705E-04-2.46364E-14
 -1      3512 7.33698E-03-2.77243E-04-2.89963E-14
 -1      3513 7.19398E-03-2.53749E-04-2.77403E-14
 -1      3514 7.16076E-03-2.78135E-04-2.70435E-14
 -1      3515 7.62178E-03-3.22775E-04-3.15776E-14
 -1      3516 7.47952E-03-3.00192E-04-3.02752E-14
 -1      3517 7.44337E-03-3.24059E-04-2.95466E-14
 -1      3518 7.90578E-03-3.67332E-04-3.42563E-14
 -1      3519 7.76382E-03-3.45120E-04-3.29052E-14
 -1      3520 7.72503E-03-3.68763E-04-3.21472E-14
 -1      3521 8.18957E-03-4.11715E-04-3.70288E-14
 -1      3522 8.04766E-03-3.89511E-04-3.56318E-14
 -1      3523 8.00659E-03-4.13111E-04-3.48449E-14
 -1      3524 8.47348E-03-4.56440E-04-3.98916E-14
 -1      3525 8.33149E-03-4.34015E-04-3.84482E-14
 -1      3526 8.28850E-03-4.57669E-04-3.76358E-14
 -1      3527 8.75764E-03-5.01818E-04-4.28382E-14
 -1      3528 8.61552E-03-4.79038E-04-4.13547E-14
 -1      3529 8.57097E-03-5.02786E-04-4.05144E-14
 -1      3530 9.04212E-03-5.48007E-04-4.58663E-14
 -1      3531 8.89983E-03-5.24809E-04-4.43412E-14
 -1      3532 8.85405E-03-5.48659E-04-4.34755E-14
 -1      3533 9.32688E-03-5.95058E-04-4.89790E-14
 -1      3534 9.18446E-03-5.71427E-04-4.74128E-14
 -1      3535 9.13773E-03-5.95369E-04-4.65193E-14
 -1      3536 9.61191E-03-6.42949E-04-5.21710E-14
 -1      3537 9.46936E-03-6.18903E-04-5.05655E-14
 -1      3538 9.42191E-03-6.42920E-04-4.96487E-14
 -1      3539 9.89714E-03-6.91619E-04-5.54414E-14
 -1      3540 9.75450E-03-6.67192E-04-5.37952E-14
 -1      3541 9.70652E-03-6.91266E-04-5.28548E-14
 -1      3542 1.01825E-02-7.40978E-04-5.87914E-14
 -1      3543 1.00398E-02-7.16218E-04-5.71073E-14
 -1      3544 9.99146E-03-7.40329E-04-5.61407E-14
 -1      3545 1.04681E-02-7.90931E-04-6.22161E-14
 -1      3546 1.03253E-02-7.65886E-04-6.04948E-14
 -1      3547 1.02767E-02-7.90021E-04-5.95028E-14
 -1      3548 1.07537E-02-8.41383E-04-6.57123E-14
 -1      3549 1.06109E-02-8.16101E-04-6.39562E-14
 -1      3550 1.05621E-02-8.40248E-04-6.29394E-14
 -1      3551 1.10394E-02-8.92245E-04-6.92794E-14
 -1      3552 1.08965E-02-8.66768E-04-6.74870E-14
 -1      3553 1.08476E-02-8.90918E-04-6.64469E-14
 -1      3554 1.13251E-02-9.43434E-04-7.29063E-14
 -1      3555 1.11822E-02-9.17803E-04-7.10853E-14
 -1      3556 1.11333E-02-9.41951E-04-7.00228E-14
 -1      3557 1.16108E-02-9.94883E-04-7.65891E-14
 -1      3558 1.14680E-02-9.69130E-04-7.47399E-14
 -1      3559 1.14190E-02-9.93273E-04-7.36570E-14
 -1      3560 1.18966E-02-1.04653E-03-8.03350E-14
 -1      3561 1.17537E-02-1.02069E-03-7.84545E-14
 -1      3562 1.17047E-02-1.04482E-03-7.73502E-14
 -1      3563 1.21823E-02-1.09833E-03-8.41415E-14
 -1      3564 1.20395E-02-1.07242E-03-8.22317E-14
 -1      3565 1.19905E-02-1.09654E-03-8.11035E-14
 -1      3566 1.24681E-02-1.15025E-03-8.80026E-14
 -1      3567 1.23252E-02-1.12428E-03-8.60662E-14
 -1      3568 1.22762E-02-1.14840E-03-8.49172E-14
 -1      3569 1.27539E-02-1.20224E-03-9.19191E-14
 -1      3570 1.26110E-02-1.17624E-03-8.99535E-14
 -1      3571 1.25620E-02-1.20035E-03-8.87859E-14
 -1      3572 1.30396E-02-1.25430E-03-9.58775E-14
 -1      3573 1.28967E-02-1.22826E-03-9.38940E-14
 -1      3574 1.28478E-02-1.25237E-03-9.27057E-14
 -1      3575 1.33254E-02-1.30638E-03-9.98704E-14
 -1      3576 1.31825E-02-1.28034E-03-9.78689E-14
 -1      3577 1.31335E-02-1.30444E-03-9.66673E-14
 -1      3578 2.42716E-03 1.81113E-04-3.86553E-15
 -1      3579 2.59156E-03 2.51973E-04-4.17059E-15
 -1      3580 2.65610E-03 3.18877E-04-4.21470E-15
 -1      3581 2.04043E-03 3.09711E-04-2.57224E-15
 -1      3582 1.87583E-03 2.79801E-04-2.23191E-15
 -1      3583 3.91984E-03 7.36158E-04-8.06310E-15
 -1      3584 4.01994E-03 7.12244E-04-8.44168E-15
 -1      3585 1.94390E-03-2.89703E-04-2.53182E-15
 -1      3586 6.17945E-03-5.39760E-04-1.38892E-14
 -1      3587 3.66291E-03 7.43087E-04-7.05470E-15
 -1      3588 8.72590E-04-5.31741E-05-8.08571E-16
 -1      3589 8.74304E-04-6.37572E-05-7.93948E-16
 -1      3590 9.89530E-04-7.82476E-05-9.92004E-16
 -1      3591 9.69253E-04-5.51528E-05-9.86231E-16
 -1      3592 1.38966E-02-1.76935E-03-1.02013E-13
 -1      3593 1.38709E-02-1.72718E-03-1.02281E-13
 -1      3594 5.16027E-03 2.58902E-04-1.37409E-14
 -1      3595 4.98177E-03 3.32687E-04-1.28504E-14
 -1      3596 4.93716E-03 3.15258E-04-1.23724E-14
 -1      3597 5.30291E-03 1.64036E-04-1.41487E-14
 -1      3598 5.59195E-03-5.80050E-05-1.43231E-14
 -1      3599 5.77959E-03-1.50689E-04-1.47529E-14
 -1      3600 4.11574E-03 6.96155E-04-8.90707E-15
 -1      3601 1.44968E-03-2.03989E-04-1.44563E-15
 -1      3602 1.57810E-03-2.23680E-04-1.70147E-15
 -1      3603 1.57608E-03-2.02555E-04-1.88251E-15
 -1      3604 1.48188E-03-1.31685E-04-2.36297E-15
 -1      3605 1.51251E-03-1.21745E-04-2.43395E-15
 -1      3606 1.78646E-03-2.34779E-04-2.42205E-15
 -1      3607 1.69239E-03-2.04271E-04-2.40696E-15
 -1      3608 4.66316E-03 4.34569E-04-1.10723E-14
 -1      3609 4.82967E-03 3.25614E-04-1.15758E-14
 -1      3610 3.12714E-03 5.84294E-04-5.26344E-15
 -1      3611 2.94488E-03 5.23944E-04-4.75603E-15
 -1      3612 1.53434E-03-1.06817E-04-2.43306E-15
 -1      3613 1.56503E-03-8.80936E-05-2.43045E-15
 -1      3614 1.45148E-03-1.02776E-04-2.18910E-15
 -1      3615 4.97864E-03 2.67093E-04-1.23211E-14
 -1      3616 2.12906E-03 9.35571E-05-3.26696E-15
 -1      3617 2.27507E-03 1.31956E-04-3.55916E-15
 -1      3618 2.34810E-03 1.95746E-04-3.59795E-15
 -1      3619 1.37345E-02-1.68379E-03-1.00690E-13
 -1      3620 1.38455E-02-1.68528E-03-1.02547E-13
 -1      3621 1.38200E-02-1.64338E-03-1.02810E-13
 -1      3622 1.11322E-03-1.07435E-04-1.16331E-15
 -1      3623 1.14101E-03-1.23527E-04-1.13402E-15
 -1      3624 1.37308E-02-1.45137E-03-1.04434E-13
 -1      3625 1.36997E-02-1.40486E-03-1.04653E-13
 -1      3626 1.36016E-02-1.37950E-03-1.03390E-13
 -1      3627 4.53558E-03 5.23472E-04-1.07144E-14
 -1      3628 1.37820E-02-1.53570E-03-1.03934E-13
 -1      3629 1.37564E-02-1.49354E-03-1.04185E-13
 -1      3630 1.36583E-02-1.46817E-03-1.02929E-13
 -1      3631 1.39477E-02-1.85333E-03-1.01463E-13
 -1      3632 1.39221E-02-1.81134E-03-1.01740E-13
 -1      3633 1.37855E-02-1.76768E-03-1.00156E-13
 -1      3634 1.73829E-03 2.62278E-04-1.95274E-15
 -1      3635 1.60345E-03 2.45924E-04-1.69283E-15
 -1      3636 1.78218E-03 2.26676E-04-2.11322E-15
 -1      3637 1.09490E-03-2.19962E-05-1.18665E-15
 -1      3638 1.07270E-03-4.12069E-05-1.17495E-15
 -1      3639 5.88592E-03-1.58318E-04-1.56760E-14
 -1      3640 5.91703E-03-2.01406E-04-1.52613E-14
 -1      3641 6.04760E-03-2.43925E-04-1.57739E-14
 -1      3642 4.35948E-03 6.00812E-04-9.93540E-15
 -1      3643 2.67532E-03 5.09910E-04-3.97135E-15
 -1      3644 2.20995E-03 3.43906E-04-2.93801E-15
 -1      3645 2.08613E-03 2.70932E-04-2.75275E-15
 -1      3646 2.38284E-03 3.83525E-04-3.33009E-15
 -1      3647 1.33048E-03-1.53012E-04-1.47929E-15
 -1      3648 1.25380E-03-1.51065E-04-1.25406E-15
 -1      3649 1.12235E-03 8.72800E-07-1.19592E-15
 -1      3650 1.21228E-03-1.46164E-05-1.40034E-15
 -1      3651 1.15305E-03 2.77635E-05-1.20266E-15
 -1      3652 1.35125E-02-1.35562E-03-1.02256E-13
 -1      3653 1.34144E-02-1.33026E-03-1.00999E-13
 -1      3654 1.33655E-02-1.35436E-03-9.97862E-14
 -1      3655 1.35437E-02-1.40213E-03-1.02044E-13
 -1      3656 6.22493E-03-3.36396E-04-1.53899E-14
 -1      3657 6.32475E-03-3.58889E-04-1.58879E-14
 -1      3658 6.20337E-03-3.13479E-04-1.58510E-14
 -1      3659 6.42223E-03-3.93227E-04-1.58491E-14
 -1      3660 6.43379E-03-4.02580E-04-1.54755E-14
 -1      3661 6.49325E-03-4.17383E-04-1.58998E-14
 -1      3662 1.39977E-02-1.92968E-03-1.01012E-13
 -1      3663 1.39722E-02-1.88769E-03-1.01296E-13
 -1      3664 1.38356E-02-1.84403E-03-9.97180E-14
 -1      3665 1.38846E-02-1.91275E-03-9.93793E-14
 -1      3666 1.84275E-03-3.88228E-05-2.95202E-15
 -1      3667 1.90087E-03 3.28792E-06-2.94578E-15
 -1      3668 1.71446E-03-5.54678E-05-2.68350E-15
 -1      3669 6.53269E-03-4.42652E-04-1.59908E-14
 -1      3670 6.50749E-03-4.48789E-04-1.56816E-14
 -1      3671 5.39093E-03 6.36606E-05-1.39417E-14
 -1      3672 5.48933E-03 1.56709E-06-1.41319E-14
 -1      3673 5.65275E-03-5.19406E-05-1.49643E-14
 -1      3674 6.46553E-03-4.79087E-04-1.54663E-14
 -1      3675 6.39974E-03-5.02673E-04-1.51450E-14
 -1      3676 1.31096E-03 2.10731E-04-1.18448E-15
 -1      3677 1.25103E-03 1.76947E-04-1.13025E-15
 -1      3678 1.21957E-03 1.37465E-04-1.13597E-15
 -1      3679 1.44136E-03 2.25852E-04-1.40266E-15
 -1      3680 1.58619E-03-1.80402E-04-2.23802E-15
 -1      3681 1.44143E-03-1.39003E-04-2.12849E-15
 -1      3682 1.45620E-03-1.35575E-04-2.24473E-15
 -1      3683 1.40461E-03-1.20478E-04-2.07761E-15
 -1      3684 1.30120E-03-1.75915E-04-1.21474E-15
 -1      3685 6.30930E-03-4.99751E-04-1.44678E-14
 -1      3686 3.82582E-03 7.49042E-04-7.69686E-15
 -1      3687 6.54700E-03-4.93026E-04-1.62430E-14
 -1      3688 6.55363E-03-4.35809E-04-1.63764E-14
 -1      3689 6.60864E-03-4.55760E-04-1.68553E-14
 -1      3690 6.56474E-03-4.28971E-04-1.67629E-14
 -1      3691 1.08712E-03-9.44895E-05-1.16660E-15
 -1      3692 1.18666E-03-1.11507E-04-1.35342E-15
 -1      3693 1.06941E-03-8.21366E-05-1.16704E-15
 -1      3694 6.65255E-03-5.11772E-04-1.72256E-14
 -1      3695 6.80630E-03-5.50766E-04-1.86362E-14
 -1      3696 6.92291E-03-5.72482E-04-1.96786E-14
 -1      3697 7.04197E-03-5.94930E-04-2.07449E-14
 -1      3698 7.16386E-03-6.18645E-04-2.18362E-14
 -1      3699 6.98493E-03-5.59476E-04-2.03415E-14
 -1      3700 7.28786E-03-6.43146E-04-2.29558E-14
 -1      3701 7.41410E-03-6.68673E-04-2.41025E-14
 -1      3702 7.22216E-03-6.05635E-04-2.25330E-14
 -1      3703 7.54213E-03-6.94833E-04-2.52737E-14
 -1      3704 7.67196E-03-7.21759E-04-2.64722E-14
 -1      3705 7.46998E-03-6.55186E-04-2.48305E-14
 -1      3706 7.80328E-03-7.49131E-04-2.76974E-14
 -1      3707 7.93603E-03-7.77015E-04-2.89479E-14
 -1      3708 7.72616E-03-7.07479E-04-2.72324E-14
 -1      3709 8.06999E-03-8.05162E-04-3.02247E-14
 -1      3710 8.20509E-03-8.33606E-04-3.15267E-14
 -1      3711 7.98897E-03-7.61741E-04-2.97396E-14
 -1      3712 8.34116E-03-8.62156E-04-3.28537E-14
 -1      3713 8.47814E-03-8.90836E-04-3.42039E-14
 -1      3714 8.25705E-03-8.17238E-04-3.23487E-14
 -1      3715 8.61588E-03-9.19507E-04-3.55782E-14
 -1      3716 8.75434E-03-9.48186E-04-3.69755E-14
 -1      3717 8.52931E-03-8.73358E-04-3.50527E-14
 -1      3718 8.89339E-03-9.76777E-04-3.83934E-14
 -1      3719 9.03299E-03-1.00530E-03-3.98325E-14
 -1      3720 8.80488E-03-9.29644E-04-3.78497E-14
 -1      3721 9.17305E-03-1.03369E-03-4.12937E-14
 -1      3722 9.31354E-03-1.06196E-03-4.27741E-14
 -1      3723 9.08304E-03-9.85776E-04-4.07323E-14
 -1      3724 9.45437E-03-1.09007E-03-4.42733E-14
 -1      3725 9.59553E-03-1.11805E-03-4.57929E-14
 -1      3726 9.36321E-03-1.04156E-03-4.36968E-14
 -1      3727 9.73695E-03-1.14587E-03-4.73318E-14
 -1      3728 9.87862E-03-1.17355E-03-4.88890E-14
 -1      3729 9.64491E-03-1.09690E-03-4.67395E-14
 -1      3730 1.00205E-02-1.20107E-03-5.04653E-14
 -1      3731 1.01625E-02-1.22847E-03-5.20579E-14
 -1      3732 9.92779E-03-1.15176E-03-4.98597E-14
 -1      3733 1.03047E-02-1.25572E-03-5.36678E-14
 -1      3734 1.04470E-02-1.28285E-03-5.52963E-14
 -1      3735 1.02115E-02-1.20615E-03-5.30523E-14
 -1      3736 1.05894E-02-1.30987E-03-5.69416E-14
 -1      3737 1.07320E-02-1.33678E-03-5.86044E-14
 -1      3738 1.04959E-02-1.26011E-03-5.63139E-14
 -1      3739 1.08745E-02-1.36358E-03-6.02836E-14
 -1      3740 1.10172E-02-1.39030E-03-6.19787E-14
 -1      3741 1.07808E-02-1.31369E-03-5.96426E-14
 -1      3742 1.11599E-02-1.41694E-03-6.36916E-14
 -1      3743 1.13027E-02-1.44350E-03-6.54223E-14
 -1      3744 1.10660E-02-1.36694E-03-6.30394E-14
 -1      3745 1.14454E-02-1.46999E-03-6.71683E-14
 -1      3746 1.15883E-02-1.49642E-03-6.89297E-14
 -1      3747 1.13514E-02-1.41993E-03-6.65049E-14
 -1      3748 1.17311E-02-1.52281E-03-7.07097E-14
 -1      3749 1.18739E-02-1.54914E-03-7.25058E-14
 -1      3750 1.16370E-02-1.47270E-03-7.00350E-14
 -1      3751 1.20168E-02-1.57543E-03-7.43175E-14
 -1      3752 1.21597E-02-1.60169E-03-7.61439E-14
 -1      3753 1.19227E-02-1.52530E-03-7.36311E-14
 -1      3754 1.23026E-02-1.62791E-03-7.79888E-14
 -1      3755 1.24455E-02-1.65411E-03-7.98516E-14
 -1      3756 1.22085E-02-1.57776E-03-7.72925E-14
 -1      3757 1.25884E-02-1.68028E-03-8.17278E-14
 -1      3758 1.27313E-02-1.70644E-03-8.36194E-14
 -1      3759 1.24943E-02-1.63012E-03-8.10200E-14
 -1      3760 1.28742E-02-1.73257E-03-8.55240E-14
 -1      3761 1.30171E-02-1.75869E-03-8.74407E-14
 -1      3762 1.27801E-02-1.68240E-03-8.48055E-14
 -1      3763 1.31600E-02-1.78480E-03-8.93729E-14
 -1      3764 1.33029E-02-1.81090E-03-9.13122E-14
 -1      3765 1.30659E-02-1.73463E-03-8.86462E-14
 -1      3766 1.34457E-02-1.83700E-03-9.32616E-14
 -1      3767 1.35886E-02-1.86308E-03-9.52220E-14
 -1      3768 1.33517E-02-1.78683E-03-9.25307E-14
 -1      3769 1.36800E-02-1.87945E-03-9.64841E-14
 -1      3770 1.37932E-02-1.89638E-03-9.81103E-14
 -1      3771 1.37687E-02-1.86202E-03-9.82805E-14
 -1      3772 1.35859E-02-1.82928E-03-9.57488E-14
 -1      3773 6.11519E-03-1.13903E-04-1.84861E-14
 -1      3774 5.95884E-03-7.70616E-05-1.74657E-14
 -1      3775 6.70573E-03-2.30197E-04-2.28250E-14
 -1      3776 6.56188E-03-2.04070E-04-2.17018E-14
 -1      3777 6.98908E-03-2.78911E-04-2.51505E-14
 -1      3778 6.84794E-03-2.54964E-04-2.39755E-14
 -1      3779 6.82264E-03-2.80257E-04-2.33179E-14
 -1      3780 7.26918E-03-3.24914E-04-2.75749E-14
 -1      3781 7.12936E-03-3.02130E-04-2.63498E-14
 -1      3782 7.09981E-03-3.25776E-04-2.56622E-14
 -1      3783 7.54804E-03-3.69608E-04-3.00966E-14
 -1      3784 7.40865E-03-3.47355E-04-2.88233E-14
 -1      3785 7.37533E-03-3.70090E-04-2.81050E-14
 -1      3786 7.82684E-03-4.13886E-04-3.27159E-14
 -1      3787 7.68738E-03-3.91760E-04-3.13947E-14
 -1      3788 7.65080E-03-4.14099E-04-3.06462E-14
 -1      3789 8.10624E-03-4.58319E-04-3.54333E-14
 -1      3790 7.96643E-03-4.36062E-04-3.40627E-14
 -1      3791 7.92712E-03-4.58339E-04-3.32856E-14
 -1      3792 8.38653E-03-5.03259E-04-3.82398E-14
 -1      3793 8.24625E-03-4.80715E-04-3.68245E-14
 -1      3794 8.20469E-03-5.03123E-04-3.60188E-14
 -1      3795 8.66778E-03-5.48913E-04-4.11351E-14
 -1      3796 8.52703E-03-5.25994E-04-3.96762E-14
 -1      3797 8.48364E-03-5.48626E-04-3.88435E-14
 -1      3798 8.94997E-03-5.95379E-04-4.41111E-14
 -1      3799 8.80876E-03-5.72047E-04-4.26142E-14
 -1      3800 8.76391E-03-5.94936E-04-4.17551E-14
 -1      3801 9.23299E-03-6.42675E-04-4.71743E-14
 -1      3802 9.09138E-03-6.18928E-04-4.56324E-14
 -1      3803 9.04539E-03-6.42068E-04-4.47490E-14
 -1      3804 9.51670E-03-6.90767E-04-5.03183E-14
 -1      3805 9.37476E-03-6.66627E-04-4.87351E-14
 -1      3806 9.32790E-03-6.89993E-04-4.78274E-14
 -1      3807 9.80098E-03-7.39591E-04-5.35381E-14
 -1      3808 9.65877E-03-7.15094E-04-5.19180E-14
 -1      3809 9.61125E-03-7.38651E-04-5.09860E-14
 -1      3810 1.00857E-02-7.89063E-04-5.68380E-14
 -1      3811 9.94329E-03-7.64253E-04-5.51782E-14
 -1      3812 9.89528E-03-7.87963E-04-5.42208E-14
 -1      3813 1.03708E-02-8.39093E-04-6.02128E-14
 -1      3814 1.02282E-02-8.14015E-04-5.85167E-14
 -1      3815 1.01798E-02-8.37846E-04-5.75342E-14
 -1      3816 1.06561E-02-8.89594E-04-6.36600E-14
 -1      3817 1.05134E-02-8.64290E-04-6.19274E-14
 -1      3818 1.04648E-02-8.88213E-04-6.09207E-14
 -1      3819 1.09415E-02-9.40482E-04-6.71792E-14
 -1      3820 1.07988E-02-9.14995E-04-6.54107E-14
 -1      3821 1.07500E-02-9.38983E-04-6.43783E-14
 -1      3822 1.12272E-02-9.91685E-04-7.07644E-14
 -1      3823 1.10843E-02-9.66048E-04-6.89630E-14
 -1      3824 1.10355E-02-9.90084E-04-6.79091E-14
 -1      3825 1.15128E-02-1.04314E-03-7.44058E-14
 -1      3826 1.13700E-02-1.01738E-03-7.25782E-14
 -1      3827 1.13211E-02-1.04145E-03-7.15022E-14
 -1      3828 1.17986E-02-1.09478E-03-7.81097E-14
 -1      3829 1.16557E-02-1.06894E-03-7.62507E-14
 -1      3830 1.16067E-02-1.09302E-03-7.51541E-14
 -1      3831 1.20843E-02-1.14657E-03-8.18699E-14
 -1      3832 1.19415E-02-1.12066E-03-7.99810E-14
 -1      3833 1.18925E-02-1.14476E-03-7.88640E-14
 -1      3834 1.23701E-02-1.19848E-03-8.56880E-14
 -1      3835 1.22272E-02-1.17251E-03-8.37723E-14
 -1      3836 1.21783E-02-1.19662E-03-8.26325E-14
 -1      3837 1.26559E-02-1.25046E-03-8.95646E-14
 -1      3838 1.25130E-02-1.22446E-03-8.76203E-14
 -1      3839 1.24640E-02-1.24857E-03-8.64598E-14
 -1      3840 1.29417E-02-1.30250E-03-9.34884E-14
 -1      3841 1.27988E-02-1.27648E-03-9.15187E-14
 -1      3842 1.27498E-02-1.30058E-03-9.03382E-14
 -1      3843 1.32275E-02-1.35459E-03-9.74553E-14
 -1      3844 1.30846E-02-1.32854E-03-9.54689E-14
 -1      3845 1.30356E-02-1.35264E-03-9.42702E-14
 -1      3846 2.54578E-03 3.10914E-04-3.90408E-15
 -1      3847 2.69513E-03 3.79992E-04-4.21124E-15
 -1      3848 2.72323E-03 4.69053E-04-4.16198E-15
 -1      3849 2.54369E-03 4.17596E-04-3.71820E-15
 -1      3850 3.94568E-03 7.45629E-04-8.23151E-15
 -1      3851 1.53139E-03-1.78038E-04-1.98151E-15
 -1      3852 1.45605E-03-1.50245E-04-2.03617E-15
 -1      3853 1.38112E-03-1.34778E-04-1.88097E-15
 -1      3854 1.42324E-03-1.64416E-04-1.70388E-15
 -1      3855 1.31018E-03-1.36813E-04-1.56200E-15
 -1      3856 1.38137E-02-1.61049E-03-1.03248E-13
 -1      3857 1.37883E-02-1.56859E-03-1.03504E-13
 -1      3858 1.36902E-02-1.54323E-03-1.02251E-13
 -1      3859 1.37028E-02-1.60900E-03-1.01388E-13
 -1      3860 1.17046E-03-5.61594E-05-1.39614E-15
 -1      3861 1.06795E-03-5.62909E-05-1.18209E-15
 -1      3862 1.06955E-03-6.97642E-05-1.18678E-15
 -1      3863 6.41599E-03-1.76496E-04-2.06045E-14
 -1      3864 6.26732E-03-1.46484E-04-1.95326E-14
 -1      3865 6.54111E-03-2.31934E-04-2.10766E-14
 -1      3866 6.71771E-03-4.98973E-04-1.78504E-14
 -1      3867 4.10710E-03 7.12196E-04-8.93426E-15
 -1      3868 4.18337E-03 6.81384E-04-9.23445E-15
 -1      3869 5.16663E-03 1.84691E-04-1.31938E-14
 -1      3870 1.21952E-03 9.30651E-05-1.20799E-15
 -1      3871 1.18602E-03 5.86803E-05-1.20685E-15
 -1      3872 1.28426E-03 4.57738E-05-1.41669E-15
 -1      3873 1.36746E-02-1.76609E-03-9.83043E-14
 -1      3874 1.36490E-02-1.72411E-03-9.85730E-14
 -1      3875 1.97587E-03 5.14563E-05-2.98225E-15
 -1      3876 2.04737E-03 1.04473E-04-3.01648E-15
 -1      3877 1.83211E-03 2.01094E-05-2.71166E-15
 -1      3878 1.36235E-02-1.68221E-03-9.88399E-14
 -1      3879 1.35981E-02-1.64031E-03-9.91002E-14
 -1      3880 1.35126E-02-1.68062E-03-9.69932E-14
 -1      3881 6.40691E-03-3.65557E-04-1.68000E-14
 -1      3882 6.41514E-03-3.81139E-04-1.63237E-14
 -1      3883 6.49595E-03-3.99985E-04-1.67611E-14
 -1      3884 1.27352E-03-5.37816E-05-1.61583E-15
 -1      3885 1.25961E-03-7.25755E-05-1.62241E-15
 -1      3886 1.60229E-03-6.36703E-05-2.42627E-15
 -1      3887 1.64337E-03-3.44569E-05-2.42004E-15
 -1      3888 1.49913E-03-6.68167E-05-2.18237E-15
 -1      3889 1.79422E-03 1.82752E-04-2.22294E-15
 -1      3890 1.66122E-03 1.71563E-04-1.94780E-15
 -1      3891 1.35692E-02-1.44429E-03-1.01802E-13
 -1      3892 1.34801E-02-1.42040E-03-1.00672E-13
 -1      3893 1.35948E-02-1.48645E-03-1.01554E-13
 -1      3894 6.13794E-03-2.44434E-04-1.67138E-14
 -1      3895 6.16740E-03-2.80687E-04-1.62816E-14
 -1      3896 6.27969E-03-3.11405E-04-1.67953E-14
 -1      3897 5.79717E-03-3.58976E-05-1.64694E-14
 -1      3898 5.62981E-03 1.24847E-05-1.54998E-14
 -1      3899 2.41753E-03 3.35050E-04-3.50163E-15
 -1      3900 5.67210E-03-3.56395E-05-1.53396E-14
 -1      3901 5.51490E-03 5.35768E-05-1.49245E-14
 -1      3902 5.33709E-03 1.16240E-04-1.39988E-14
 -1      3903 5.94523E-03-1.12130E-04-1.69016E-14
 -1      3904 1.39472E-03-1.20392E-05-1.77487E-15
 -1      3905 1.35267E-03-4.16760E-05-1.75999E-15
 -1      3906 6.25086E-03-1.77845E-04-1.89388E-14
 -1      3907 1.27373E-03-1.21370E-04-1.56973E-15
 -1      3908 5.76593E-03-8.86456E-05-1.55388E-14
 -1      3909 1.32807E-03 1.30259E-04-1.34537E-15
 -1      3910 5.89886E-03-1.40531E-04-1.60612E-14
 -1      3911 2.80394E-03 4.24182E-04-4.46325E-15
 -1      3912 1.33008E-03-1.09306E-04-1.83881E-15
 -1      3913 1.36380E-03-1.04570E-04-1.94413E-15
 -1      3914 1.48664E-03 1.95438E-04-1.54111E-15
 -1      3915 1.33983E-02-1.39943E-03-9.96238E-14
 -1      3916 1.33092E-02-1.37555E-03-9.85011E-14
 -1      3917 1.32603E-02-1.39966E-03-9.72931E-14
 -1      3918 1.34239E-02-1.44159E-03-9.93822E-14
 -1      3919 1.37190E-03-9.22914E-05-1.94257E-15
 -1      3920 1.92232E-03 1.56408E-04-2.57739E-15
 -1      3921 1.78877E-03 9.93839E-05-2.38760E-15
 -1      3922 2.38174E-03 2.76022E-04-3.51225E-15
 -1      3923 2.08652E-03 1.80220E-04-2.93713E-15
 -1      3924 1.15828E-03-8.57659E-05-1.38064E-15
 -1      3925 6.92541E-03-5.26420E-04-1.99365E-14
 -1      3926 7.03824E-03-5.47951E-04-2.10094E-14
 -1      3927 2.23785E-03 2.30338E-04-3.21993E-15
 -1      3928 7.15467E-03-5.70065E-04-2.21088E-14
 -1      3929 7.27431E-03-5.93323E-04-2.32347E-14
 -1      3930 7.08443E-03-5.36309E-04-2.16833E-14
 -1      3931 7.39666E-03-6.17190E-04-2.43863E-14
 -1      3932 7.52144E-03-6.41972E-04-2.55637E-14
 -1      3933 7.32146E-03-5.80743E-04-2.39405E-14
 -1      3934 7.64833E-03-6.67268E-04-2.67673E-14
 -1      3935 7.77712E-03-6.93236E-04-2.79968E-14
 -1      3936 7.56927E-03-6.28413E-04-2.63006E-14
 -1      3937 7.90756E-03-7.19582E-04-2.92537E-14
 -1      3938 8.03951E-03-7.46382E-04-3.05350E-14
 -1      3939 7.82538E-03-6.78619E-04-2.87666E-14
 -1      3940 8.17277E-03-7.73415E-04-3.18414E-14
 -1      3941 8.30723E-03-8.00723E-04-3.31729E-14
 -1      3942 8.08805E-03-7.30646E-04-3.13337E-14
 -1      3943 8.44273E-03-8.28145E-04-3.45267E-14
 -1      3944 8.57918E-03-8.55709E-04-3.59038E-14
 -1      3945 8.35592E-03-7.83844E-04-3.39998E-14
 -1      3946 8.71645E-03-8.83295E-04-3.73045E-14
 -1      3947 8.85448E-03-9.10925E-04-3.87250E-14
 -1      3948 8.62793E-03-8.37725E-04-3.67580E-14
 -1      3949 8.99315E-03-9.38514E-04-4.01685E-14
 -1      3950 9.13241E-03-9.66084E-04-4.16343E-14
 -1      3951 8.90325E-03-8.91904E-04-3.96054E-14
 -1      3952 9.27218E-03-9.93577E-04-4.31177E-14
 -1      3953 9.41240E-03-1.02101E-03-4.46210E-14
 -1      3954 9.18119E-03-9.46127E-04-4.25366E-14
 -1      3955 9.55301E-03-1.04835E-03-4.61468E-14
 -1      3956 9.69397E-03-1.07561E-03-4.76896E-14
 -1      3957 9.46118E-03-1.00023E-03-4.55499E-14
 -1      3958 9.83522E-03-1.10277E-03-4.92513E-14
 -1      3959 9.97674E-03-1.12985E-03-5.08335E-14
 -1      3960 9.74274E-03-1.05413E-03-4.86425E-14
 -1      3961 1.01185E-02-1.15683E-03-5.24336E-14
 -1      3962 1.02604E-02-1.18373E-03-5.40478E-14
 -1      3963 1.00255E-02-1.10778E-03-5.18102E-14
 -1      3964 1.04025E-02-1.21054E-03-5.56807E-14
 -1      3965 1.05448E-02-1.23728E-03-5.73318E-14
 -1      3966 1.03092E-02-1.16118E-03-5.50458E-14
 -1      3967 1.06871E-02-1.26394E-03-5.89983E-14
 -1      3968 1.08296E-02-1.29053E-03-6.06835E-14
 -1      3969 1.05935E-02-1.21434E-03-5.83513E-14
 -1      3970 1.09722E-02-1.31706E-03-6.23851E-14
 -1      3971 1.11148E-02-1.34353E-03-6.41033E-14
 -1      3972 1.08784E-02-1.26728E-03-6.17262E-14
 -1      3973 1.12575E-02-1.36994E-03-6.58394E-14
 -1      3974 1.14002E-02-1.39632E-03-6.75898E-14
 -1      3975 1.11636E-02-1.32004E-03-6.51703E-14
 -1      3976 1.15430E-02-1.42265E-03-6.93602E-14
 -1      3977 1.16858E-02-1.44894E-03-7.11455E-14
 -1      3978 1.14490E-02-1.37265E-03-6.86832E-14
 -1      3979 1.18286E-02-1.47520E-03-7.29446E-14
 -1      3980 1.19715E-02-1.50142E-03-7.47614E-14
 -1      3981 1.17346E-02-1.42514E-03-7.22571E-14
 -1      3982 1.21144E-02-1.52763E-03-7.65947E-14
 -1      3983 1.22573E-02-1.55381E-03-7.84440E-14
 -1      3984 1.20203E-02-1.47752E-03-7.58954E-14
 -1      3985 1.24002E-02-1.57997E-03-8.03098E-14
 -1      3986 1.25431E-02-1.60611E-03-8.21905E-14
 -1      3987 1.23061E-02-1.52984E-03-7.95978E-14
 -1      3988 1.26860E-02-1.63224E-03-8.40856E-14
 -1      3989 1.28289E-02-1.65836E-03-8.59935E-14
 -1      3990 1.25919E-02-1.58209E-03-8.33630E-14
 -1      3991 1.29718E-02-1.68447E-03-8.79147E-14
 -1      3992 1.31147E-02-1.71056E-03-8.98496E-14
 -1      3993 1.28777E-02-1.63431E-03-8.71824E-14
 -1      3994 1.32576E-02-1.73666E-03-9.17954E-14
 -1      3995 1.34005E-02-1.76274E-03-9.37491E-14
 -1      3996 1.31635E-02-1.68649E-03-9.10543E-14
 -1      3997 7.20765E-03-3.70468E-04-2.61723E-14
 -1      3998 7.07201E-03-3.48829E-04-2.49782E-14
 -1      3999 6.66710E-03-4.66815E-04-1.74739E-14
 -1      4000 6.81506E-03-5.02772E-04-1.88983E-14
 -1      4001 6.93630E-03-3.27147E-04-2.38099E-14
 -1      4002 6.79997E-03-3.05194E-04-2.26654E-14
 -1      4003 7.04596E-03-3.71286E-04-2.42989E-14
 -1      4004 7.75160E-03-4.57667E-04-3.11942E-14
 -1      4005 7.61511E-03-4.35672E-04-2.99013E-14
 -1      4006 8.02584E-03-5.02235E-04-3.38535E-14
 -1      4007 7.88847E-03-4.79862E-04-3.25123E-14
 -1      4008 7.85038E-03-5.00598E-04-3.17426E-14
 -1      4009 8.30194E-03-5.47613E-04-3.66050E-14
 -1      4010 8.16364E-03-5.24828E-04-3.52178E-14
 -1      4011 8.12302E-03-5.45800E-04-3.44199E-14
 -1      4012 8.57983E-03-5.93840E-04-3.94466E-14
 -1      4013 8.44066E-03-5.70627E-04-3.80144E-14
 -1      4014 8.39801E-03-5.91966E-04-3.71904E-14
 -1      4015 8.85937E-03-6.40906E-04-4.23747E-14
 -1      4016 8.71940E-03-6.17277E-04-4.09009E-14
 -1      4017 8.67516E-03-6.39039E-04-4.00500E-14
 -1      4018 9.14033E-03-6.88766E-04-4.53850E-14
 -1      4019 8.99968E-03-6.64747E-04-4.38687E-14
 -1      4020 8.95419E-03-6.86933E-04-4.29936E-14
 -1      4021 9.42247E-03-7.37355E-04-4.84789E-14
 -1      4022 9.28126E-03-7.12978E-04-4.69212E-14
 -1      4023 9.23481E-03-7.35555E-04-4.60193E-14
 -1      4024 9.70558E-03-7.86593E-04-5.16538E-14
 -1      4025 9.56392E-03-7.61901E-04-5.00570E-14
 -1      4026 9.51673E-03-7.84821E-04-4.91305E-14
 -1      4027 9.98944E-03-8.36400E-04-5.49029E-14
 -1      4028 9.84743E-03-8.11433E-04-5.32686E-14
 -1      4029 9.79970E-03-8.34640E-04-5.23213E-14
 -1      4030 1.02739E-02-8.86691E-04-5.82282E-14
 -1      4031 1.01316E-02-8.61492E-04-5.65554E-14
 -1      4032 1.00835E-02-8.84933E-04-5.55836E-14
 -1      4033 1.05588E-02-9.37389E-04-6.16247E-14
 -1      4034 1.04163E-02-9.11995E-04-5.99182E-14
 -1      4035 1.03679E-02-9.35620E-04-5.89191E-14
 -1      4036 1.08440E-02-9.88422E-04-6.50952E-14
 -1      4037 1.07013E-02-9.62868E-04-6.33521E-14
 -1      4038 1.06527E-02-9.86636E-04-6.23271E-14
 -1      4039 1.11294E-02-1.03973E-03-6.86365E-14
 -1      4040 1.09867E-02-1.01404E-03-6.68579E-14
 -1      4041 1.09379E-02-1.03792E-03-6.58105E-14
 -1      4042 1.14150E-02-1.09125E-03-7.22371E-14
 -1      4043 1.12722E-02-1.06546E-03-7.04285E-14
 -1      4044 1.12233E-02-1.08942E-03-6.93605E-14
 -1      4045 1.17007E-02-1.14294E-03-7.58985E-14
 -1      4046 1.15578E-02-1.11707E-03-7.40605E-14
 -1      4047 1.15089E-02-1.14108E-03-7.29697E-14
 -1      4048 1.19864E-02-1.19476E-03-7.96161E-14
 -1      4049 1.18435E-02-1.16883E-03-7.77500E-14
 -1      4050 1.17946E-02-1.19288E-03-7.66385E-14
 -1      4051 1.22722E-02-1.24668E-03-8.33912E-14
 -1      4052 1.21293E-02-1.22070E-03-8.14963E-14
 -1      4053 1.20803E-02-1.24478E-03-8.03651E-14
 -1      4054 1.25580E-02-1.29867E-03-8.72259E-14
 -1      4055 1.24151E-02-1.27266E-03-8.53013E-14
 -1      4056 1.23661E-02-1.29675E-03-8.41486E-14
 -1      4057 1.28438E-02-1.35071E-03-9.11136E-14
 -1      4058 1.27009E-02-1.32468E-03-8.91644E-14
 -1      4059 1.26519E-02-1.34878E-03-8.79904E-14
 -1      4060 1.31296E-02-1.40279E-03-9.50497E-14
 -1      4061 1.29867E-02-1.37675E-03-9.30748E-14
 -1      4062 1.29377E-02-1.40085E-03-9.18853E-14
 -1      4063 1.48142E-03 1.41152E-04-1.62638E-15
 -1      4064 1.27473E-03-1.11172E-04-1.64762E-15
 -1      4065 1.40455E-03 2.85517E-05-1.69678E-15
 -1      4066 1.55415E-03 1.82805E-06-2.09555E-15
 -1      4067 6.38399E-03-2.35872E-04-1.93900E-14
 -1      4068 6.24052E-03-2.09921E-04-1.83492E-14
 -1      4069 6.57772E-03-4.21018E-04-1.72518E-14
 -1      4070 6.65180E-03-4.41297E-04-1.77462E-14
 -1      4071 6.58599E-03-4.10920E-04-1.77443E-14
 -1      4072 1.67493E-03 1.63464E-05-2.33490E-15
 -1      4073 1.37442E-02-1.82766E-03-9.84474E-14
 -1      4074 6.66295E-03-2.82937E-04-2.15474E-14
 -1      4075 6.52434E-03-2.59822E-04-2.04568E-14
 -1      4076 6.51188E-03-2.87944E-04-1.98399E-14
 -1      4077 6.05282E-03-1.74773E-04-1.70460E-14
 -1      4078 1.44958E-03 6.78600E-05-1.70397E-15
 -1      4079 1.73275E-03 5.56858E-05-2.36314E-15
 -1      4080 7.47904E-03-4.13824E-04-2.86340E-14
 -1      4081 7.34321E-03-3.92104E-04-2.73909E-14
 -1      4082 7.31224E-03-4.13381E-04-2.66811E-14
 -1      4083 6.85842E-03-4.92216E-04-1.95380E-14
 -1      4084 6.19876E-03-2.37633E-04-1.74728E-14
 -1      4085 1.36077E-02-1.78409E-03-9.68724E-14
 -1      4086 1.34016E-02-1.67899E-03-9.51531E-14
 -1      4087 1.33761E-02-1.63710E-03-9.54158E-14
 -1      4088 6.38342E-03-3.41189E-04-1.72449E-14
 -1      4089 6.47950E-03-3.66739E-04-1.76982E-14
 -1      4090 6.36139E-03-3.12926E-04-1.76919E-14
 -1      4091 1.44048E-03-5.93928E-05-2.01507E-15
 -1      4092 1.36011E-02-1.51934E-03-1.01127E-13
 -1      4093 1.35120E-02-1.49545E-03-1.00006E-13
 -1      4094 1.36074E-02-1.55222E-03-1.00701E-13
 -1      4095 1.31787E-03-8.41177E-05-1.78599E-15
 -1      4096 1.41653E-03-7.90516E-05-2.01961E-15
 -1      4097 6.78003E-03-3.29817E-04-2.20181E-14
 -1      4098 1.49245E-03 1.03319E-04-1.72078E-15
 -1      4099 1.32114E-02-1.42376E-03-9.60889E-14
 -1      4100 1.31624E-02-1.44786E-03-9.48844E-14
 -1      4101 1.32932E-02-1.44473E-03-9.71284E-14
 -1      4102 1.62196E-03 8.81591E-05-2.03165E-15
 -1      4103 7.58018E-03-4.56458E-04-2.91613E-14
 -1      4104 1.22068E-03-9.65291E-05-1.52984E-15
 -1      4105 1.22585E-03-8.25875E-05-1.55359E-15
 -1      4106 1.36059E-02-1.61271E-03-9.96855E-14
 -1      4107 1.35996E-02-1.57982E-03-1.00120E-13
 -1      4108 1.35104E-02-1.55594E-03-9.90014E-14
 -1      4109 1.34949E-02-1.61113E-03-9.78388E-14
 -1      4110 6.68905E-03-4.59259E-04-1.78739E-14
 -1      4111 6.71341E-03-4.51966E-04-1.83788E-14
 -1      4112 6.77889E-03-4.52631E-04-1.92728E-14
 -1      4113 6.82154E-03-4.72314E-04-1.94076E-14
 -1      4114 6.93401E-03-4.94521E-04-2.04602E-14
 -1      4115 1.34222E-02-1.71755E-03-9.48638E-14
 -1      4116 1.32857E-02-1.67402E-03-9.32957E-14
 -1      4117 6.31253E-03-2.72564E-04-1.80050E-14
 -1      4118 6.41875E-03-3.06118E-04-1.84722E-14
 -1      4119 7.04651E-03-5.14147E-04-2.15475E-14
 -1      4120 7.16255E-03-5.35062E-04-2.26607E-14
 -1      4121 7.00489E-03-4.92352E-04-2.14086E-14
 -1      4122 6.89193E-03-3.72893E-04-2.24872E-14
 -1      4123 6.76265E-03-3.53405E-04-2.13751E-14
 -1      4124 6.65521E-03-3.39106E-04-2.04347E-14
 -1      4125 6.52594E-03-3.20113E-04-1.93712E-14
 -1      4126 6.56344E-03-3.54712E-04-1.90439E-14
 -1      4127 6.76816E-03-3.80397E-04-2.08835E-14
 -1      4128 7.28186E-03-5.56718E-04-2.37977E-14
 -1      4129 7.40379E-03-5.79408E-04-2.49622E-14
 -1      4130 7.23964E-03-5.32996E-04-2.36531E-14
 -1      4131 7.52822E-03-6.02718E-04-2.61530E-14
 -1      4132 7.65468E-03-6.26836E-04-2.73684E-14
 -1      4133 7.48531E-03-5.77324E-04-2.60007E-14
 -1      4134 7.78304E-03-6.51433E-04-2.86108E-14
 -1      4135 7.91306E-03-6.76589E-04-2.98784E-14
 -1      4136 7.73941E-03-6.24570E-04-2.84525E-14
 -1      4137 8.04460E-03-7.02124E-04-3.11700E-14
 -1      4138 8.17745E-03-7.28016E-04-3.24887E-14
 -1      4139 8.00021E-03-6.73896E-04-3.10047E-14
 -1      4140 8.31149E-03-7.54145E-04-3.38298E-14
 -1      4141 8.44660E-03-7.80513E-04-3.51944E-14
 -1      4142 8.26643E-03-7.24752E-04-3.36576E-14
 -1      4143 8.58267E-03-8.07006E-04-3.65831E-14
 -1      4144 8.71960E-03-8.33632E-04-3.79916E-14
 -1      4145 8.53696E-03-7.76561E-04-3.64033E-14
 -1      4146 8.85730E-03-8.60316E-04-3.94243E-14
 -1      4147 8.99568E-03-8.87058E-04-4.08767E-14
 -1      4148 8.81104E-03-8.28968E-04-3.92392E-14
 -1      4149 9.13467E-03-9.13810E-04-4.23488E-14
 -1      4150 9.27419E-03-9.40577E-04-4.38420E-14
 -1      4151 9.08794E-03-8.81703E-04-4.21583E-14
 -1      4152 9.41420E-03-9.67315E-04-4.53565E-14
 -1      4153 9.55463E-03-9.94043E-04-4.68916E-14
 -1      4154 9.36710E-03-9.34564E-04-4.51607E-14
 -1      4155 9.69542E-03-1.02073E-03-4.84447E-14
 -1      4156 9.83653E-03-1.04738E-03-5.00165E-14
 -1      4157 9.64801E-03-9.87461E-04-4.82428E-14
 -1      4158 9.97792E-03-1.07399E-03-5.16084E-14
 -1      4159 1.01196E-02-1.10056E-03-5.32174E-14
 -1      4160 9.93028E-03-1.04031E-03-5.14039E-14
 -1      4161 1.02614E-02-1.12708E-03-5.48428E-14
 -1      4162 1.04034E-02-1.15356E-03-5.64848E-14
 -1      4163 1.02136E-02-1.09307E-03-5.46354E-14
 -1      4164 1.05456E-02-1.18000E-03-5.81455E-14
 -1      4165 1.06879E-02-1.20640E-03-5.98230E-14
 -1      4166 1.04976E-02-1.14573E-03-5.79361E-14
 -1      4167 1.08303E-02-1.23276E-03-6.15175E-14
 -1      4168 1.09729E-02-1.25909E-03-6.32305E-14
 -1      4169 1.07823E-02-1.19829E-03-6.13064E-14
 -1      4170 1.11155E-02-1.28538E-03-6.49603E-14
 -1      4171 1.12581E-02-1.31165E-03-6.67052E-14
 -1      4172 1.10673E-02-1.25076E-03-6.47463E-14
 -1      4173 1.14008E-02-1.33789E-03-6.84679E-14
 -1      4174 1.15436E-02-1.36411E-03-7.02483E-14
 -1      4175 1.13527E-02-1.30316E-03-6.82528E-14
 -1      4176 1.16864E-02-1.39030E-03-7.20421E-14
 -1      4177 1.18292E-02-1.41648E-03-7.38514E-14
 -1      4178 1.16382E-02-1.35549E-03-7.18234E-14
 -1      4179 1.19721E-02-1.44264E-03-7.56772E-14
 -1      4180 1.21150E-02-1.46878E-03-7.75190E-14
 -1      4181 1.19239E-02-1.40777E-03-7.54579E-14
 -1      4182 1.22579E-02-1.49491E-03-7.93773E-14
 -1      4183 1.24008E-02-1.52104E-03-8.12512E-14
 -1      4184 1.22096E-02-1.46000E-03-7.91534E-14
 -1      4185 1.25437E-02-1.54715E-03-8.31407E-14
 -1      4186 1.26866E-02-1.57325E-03-8.50425E-14
 -1      4187 1.24954E-02-1.51221E-03-8.29140E-14
 -1      4188 1.28295E-02-1.59934E-03-8.69570E-14
 -1      4189 1.29724E-02-1.62543E-03-8.88846E-14
 -1      4190 1.27813E-02-1.56439E-03-8.67292E-14
 -1      4191 1.30576E-02-1.63669E-03-9.01094E-14
 -1      4192 1.32005E-02-1.66277E-03-9.20603E-14
 -1      4193 1.31798E-02-1.62422E-03-9.23428E-14
 -1      4194 1.30094E-02-1.60172E-03-8.98796E-14
 -1      4195 1.35163E-02-1.76772E-03-9.56069E-14
 -1      4196 7.41351E-03-4.54782E-04-2.71877E-14
 -1      4197 7.28204E-03-4.33693E-04-2.59745E-14
 -1      4198 7.15141E-03-4.12982E-04-2.47866E-14
 -1      4199 7.02132E-03-3.92752E-04-2.36238E-14
 -1      4200 6.99793E-03-4.13187E-04-2.29533E-14
 -1      4201 8.21870E-03-5.89156E-04-3.49854E-14
 -1      4202 8.08257E-03-5.65987E-04-3.36249E-14
 -1      4203 7.94720E-03-5.43056E-04-3.22905E-14
 -1      4204 7.81256E-03-5.20470E-04-3.09766E-14
 -1      4205 8.04217E-03-5.85355E-04-3.28354E-14
 -1      4206 8.76966E-03-6.84297E-04-4.06517E-14
 -1      4207 8.63102E-03-6.60191E-04-3.92020E-14
 -1      4208 9.04841E-03-7.33066E-04-4.36130E-14
 -1      4209 8.90880E-03-7.08599E-04-4.21227E-14
 -1      4210 8.86342E-03-7.29719E-04-4.12534E-14
 -1      4211 9.32887E-03-7.82471E-04-4.66542E-14
 -1      4212 9.18845E-03-7.57703E-04-4.51222E-14
 -1      4213 9.14212E-03-7.79401E-04-4.42299E-14
 -1      4214 9.61071E-03-8.32416E-04-4.97822E-14
 -1      4215 9.46963E-03-8.07387E-04-4.82076E-14
 -1      4216 9.42258E-03-8.29582E-04-4.72888E-14
 -1      4217 9.89362E-03-8.82807E-04-5.29859E-14
 -1      4218 9.75204E-03-8.57563E-04-5.13752E-14
 -1      4219 9.70444E-03-8.80189E-04-5.04322E-14
 -1      4220 1.01774E-02-9.33573E-04-5.62603E-14
 -1      4221 1.00354E-02-9.08151E-04-5.46135E-14
 -1      4222 9.98739E-03-9.31133E-04-5.36470E-14
 -1      4223 1.04618E-02-9.84642E-04-5.96088E-14
 -1      4224 1.03195E-02-9.59074E-04-5.79273E-14
 -1      4225 1.02712E-02-9.82343E-04-5.69367E-14
 -1      4226 1.07466E-02-1.03596E-03-6.30286E-14
 -1      4227 1.06041E-02-1.01027E-03-6.13081E-14
 -1      4228 1.05556E-02-1.03377E-03-6.02951E-14
 -1      4229 1.10318E-02-1.08748E-03-6.65198E-14
 -1      4230 1.08892E-02-1.06170E-03-6.47642E-14
 -1      4231 1.08405E-02-1.08537E-03-6.37234E-14
 -1      4232 1.13172E-02-1.13915E-03-7.00777E-14
 -1      4233 1.11745E-02-1.11330E-03-6.82918E-14
 -1      4234 1.11257E-02-1.13710E-03-6.72252E-14
 -1      4235 1.16028E-02-1.19095E-03-7.36976E-14
 -1      4236 1.14600E-02-1.16504E-03-7.18811E-14
 -1      4237 1.14112E-02-1.18894E-03-7.07949E-14
 -1      4238 1.18885E-02-1.24285E-03-7.73753E-14
 -1      4239 1.17457E-02-1.21689E-03-7.55293E-14
 -1      4240 1.16968E-02-1.24087E-03-7.44218E-14
 -1      4241 1.21743E-02-1.29482E-03-8.11106E-14
 -1      4242 1.20314E-02-1.26883E-03-7.92366E-14
 -1      4243 1.19825E-02-1.29285E-03-7.81085E-14
 -1      4244 1.24601E-02-1.34684E-03-8.49023E-14
 -1      4245 1.23172E-02-1.32082E-03-8.29984E-14
 -1      4246 1.22683E-02-1.34488E-03-8.18528E-14
 -1      4247 1.27459E-02-1.39890E-03-8.87556E-14
 -1      4248 1.26030E-02-1.37287E-03-8.68229E-14
 -1      4249 1.25541E-02-1.39694E-03-8.56551E-14
 -1      4250 1.30317E-02-1.45099E-03-9.26549E-14
 -1      4251 1.28888E-02-1.42494E-03-9.07005E-14
 -1      4252 1.28399E-02-1.44903E-03-8.95158E-14
 -1      4253 6.59470E-03-3.99734E-04-1.82281E-14
 -1      4254 6.68393E-03-4.23387E-04-1.87388E-14
 -1      4255 6.79908E-03-4.43462E-04-1.97781E-14
 -1      4256 6.58581E-03-3.79475E-04-1.86921E-14
 -1      4257 8.49297E-03-6.36279E-04-3.77752E-14
 -1      4258 8.35549E-03-6.12603E-04-3.63711E-14
 -1      4259 8.58690E-03-6.80704E-04-3.83597E-14
 -1      4260 7.67875E-03-4.98205E-04-2.96902E-14
 -1      4261 7.54569E-03-4.76324E-04-2.84273E-14
 -1      4262 7.51146E-03-4.95215E-04-2.76955E-14
 -1      4263 1.32401E-02-1.59285E-03-9.38583E-14
 -1      4264 1.33511E-02-1.59448E-03-9.56926E-14
 -1      4265 8.31299E-03-6.32504E-04-3.55525E-14
 -1      4266 7.25244E-03-4.52999E-04-2.52733E-14
 -1      4267 7.77482E-03-5.39449E-04-3.02168E-14
 -1      4268 1.31479E-02-1.48857E-03-9.39923E-14
 -1      4269 1.30990E-02-1.51266E-03-9.27943E-14
 -1      4270 1.31519E-02-1.58975E-03-9.24389E-14
 -1      4271 1.31269E-02-1.54714E-03-9.27103E-14
 -1      4272 1.30107E-02-1.50956E-03-9.13818E-14
 -1      4273 1.30666E-02-1.57850E-03-9.12046E-14
 -1      4274 1.33589E-02-1.56689E-03-9.62716E-14
 -1      4275 1.34302E-02-1.47448E-03-9.89606E-14
 -1      4276 1.33813E-02-1.49858E-03-9.77488E-14
 -1      4277 6.91955E-03-4.59874E-04-2.09754E-14
 -1      4278 7.03530E-03-4.78550E-04-2.20756E-14
 -1      4279 7.60623E-03-5.34953E-04-2.82005E-14
 -1      4280 7.47695E-03-5.13015E-04-2.69668E-14
 -1      4281 9.51597E-03-8.76908E-04-4.79220E-14
 -1      4282 9.37548E-03-8.51398E-04-4.63726E-14
 -1      4283 7.46485E-03-5.53706E-04-2.61240E-14
 -1      4284 7.59136E-03-5.76379E-04-2.73394E-14
 -1      4285 7.71968E-03-5.99762E-04-2.85796E-14
 -1      4286 7.91204E-03-6.32874E-04-3.04926E-14
 -1      4287 8.04399E-03-6.57322E-04-3.17968E-14
 -1      4288 8.15678E-03-6.54941E-04-3.32563E-14
 -1      4289 8.29134E-03-6.79534E-04-3.46088E-14
 -1      4290 8.42685E-03-7.04314E-04-3.59864E-14
 -1      4291 8.56321E-03-7.29370E-04-3.73867E-14
 -1      4292 8.70035E-03-7.54561E-04-3.88057E-14
 -1      4293 8.83820E-03-7.79946E-04-4.02491E-14
 -1      4294 8.97669E-03-8.05421E-04-4.17147E-14
 -1      4295 9.11576E-03-8.31030E-04-4.31980E-14
 -1      4296 9.34783E-03-9.03680E-04-4.53118E-14
 -1      4297 9.48805E-03-9.29823E-04-4.68463E-14
 -1      4298 9.62866E-03-9.55983E-04-4.83998E-14
 -1      4299 9.83721E-03-9.91903E-04-5.07705E-14
 -1      4300 9.97859E-03-1.01806E-03-5.23724E-14
 -1      4301 1.01007E-02-1.01192E-03-5.41499E-14
 -1      4302 1.02425E-02-1.03790E-03-5.57882E-14
 -1      4303 1.03845E-02-1.06389E-03-5.74453E-14
 -1      4304 1.05267E-02-1.08990E-03-5.91183E-14
 -1      4305 1.06690E-02-1.11592E-03-6.08089E-14
 -1      4306 1.08114E-02-1.14195E-03-6.25186E-14
 -1      4307 1.09539E-02-1.16798E-03-6.42443E-14
 -1      4308 1.10965E-02-1.19402E-03-6.59892E-14
 -1      4309 1.12392E-02-1.22006E-03-6.77492E-14
 -1      4310 1.13819E-02-1.24611E-03-6.95268E-14
 -1      4311 1.15247E-02-1.27217E-03-7.13199E-14
 -1      4312 1.16675E-02-1.29822E-03-7.31270E-14
 -1      4313 1.18103E-02-1.32428E-03-7.49509E-14
 -1      4314 1.19532E-02-1.35034E-03-7.67870E-14
 -1      4315 1.20961E-02-1.37640E-03-7.86393E-14
 -1      4316 1.22389E-02-1.40246E-03-8.05081E-14
 -1      4317 1.23818E-02-1.42853E-03-8.23875E-14
 -1      4318 1.25247E-02-1.45459E-03-8.42856E-14
 -1      4319 1.26676E-02-1.48065E-03-8.62008E-14
 -1      4320 1.28106E-02-1.50672E-03-8.81241E-14
 -1      4321 1.29814E-02-1.56725E-03-8.99739E-14
 -1      4322 8.06510E-03-6.12822E-04-3.27158E-14
 -1      4323 7.93160E-03-5.89320E-04-3.13957E-14
 -1      4324 7.18592E-03-5.04286E-04-2.34846E-14
 -1      4325 7.30776E-03-5.25250E-04-2.46417E-14
 -1      4326 7.40860E-03-5.22991E-04-2.59444E-14
 -1      4327 7.09553E-03-4.69094E-04-2.30278E-14
 -1      4328 7.03221E-03-4.38821E-04-2.28514E-14
 -1      4329 6.90967E-03-4.20198E-04-2.17339E-14
 -1      4330 7.31558E-03-4.85063E-04-2.54614E-14
 -1      4331 7.18946E-03-4.64594E-04-2.42853E-14
 -1      4332 1.32916E-02-1.50521E-03-9.61348E-14
 -1      4333 9.86561E-03-9.37660E-04-5.18818E-14
 -1      4334 9.72432E-03-9.12003E-04-5.02848E-14
 -1      4335 1.00072E-02-9.63368E-04-5.34955E-14
 -1      4336 1.28678E-02-1.48350E-03-8.94338E-14
 -1      4337 7.79917E-03-5.66171E-04-3.00996E-14
 -1      4338 6.80845E-03-4.06770E-04-2.07865E-14
 -1      4339 6.68256E-03-3.91106E-04-1.95945E-14
 -1      4340 7.75996E-03-5.83422E-04-2.93366E-14
 -1      4341 9.67656E-03-9.34141E-04-4.93409E-14
 -1      4342 9.23537E-03-8.25974E-04-4.48459E-14
 -1      4343 6.81855E-03-4.27823E-04-2.04162E-14
 -1      4344 1.33734E-02-1.52618E-03-9.71735E-14
 -3
    1PSTEP                         2           1           1          
  100CL  101 1.000000000        4344                     0    1           1
 -4  STRESS      6    1
 -5  SXX         1    4    1    1
 -5  SYY         1    4    2    2
 -5  SZZ         1    4    3    3
 -5  SXY         1    4    1    2
 -5  SYZ         1    4    2    3
 -5  SZX         1    4    3    1
 -1         1 6.85978E+01 8.83934E-01 3.85571E+00 2.66821E-02-7.26502E-15-6.83259E-13
 -1         2-7.30714E-01-2.47251E+01-3.37415E+00-1.38478E-01-2.01856E-13 8.17055E-15
 -1         3 1.99999E+01 5.61049E-05-1.11503E-04 5.55061E-05-4.75815E-13-5.25062E-13
 -1         4 1.99998E+01 4.99463E-05-1.17268E-04-5.04378E-05 1.39403E-13 3.06570E-13
 -1         5 3.38668E+01 6.37919E+00 2.66536E+00 6.22843E+00-2.11706E-14 1.94601E-12
 -1         6 3.66338E+01 1.24581E+01 4.89283E+00-8.50001E+00-6.50174E-14 2.64250E-12
 -1         7 2.27868E+01 6.63324E+00 1.22827E-02-4.12413E+00-1.07553E-14 1.07866E-12
 -1         8 2.11553E+01 6.36239E+00 1.11450E-01-2.28666E+00-3.37091E-14 4.35790E-13
 -1         9 1.99360E+01 6.00479E+00 6.69659E-02-1.37025E+00-3.40422E-14 1.65389E-14
 -1        10 1.89225E+01 5.69891E+00 3.59176E-02-8.10045E-01-2.71172E-14-2.39845E-13
 -1        11 1.80781E+01 5.44447E+00 9.85517E-03-4.85733E-01-2.36998E-14-4.09514E-13
 -1        12 1.74483E+01 5.25434E+00-9.30287E-03-3.31511E-01-1.85997E-14-5.05059E-13
 -1        13 1.70558E+01 5.13605E+00-1.92358E-02-2.79092E-01-1.33886E-14-5.64687E-13
 -1        14 1.69340E+01 5.09913E+00-1.84790E-02-2.63518E-01-9.36995E-15-5.99702E-13
 -1        15 1.70703E+01 5.13976E+00-8.16861E-03-2.19527E-01-4.90753E-15-6.22034E-13
 -1        16 1.74221E+01 5.24532E+00 8.60524E-03-9.44226E-02 4.61436E-16-6.26206E-13
 -1        17 1.79315E+01 5.39826E+00 2.79357E-02 1.46408E-01 4.33681E-16-6.20994E-13
 -1        18 1.85314E+01 5.57984E+00 4.62592E-02 5.12241E-01 1.64452E-15-5.93221E-13
 -1        19 1.92106E+01 5.78625E+00 6.20203E-02 1.02739E+00 1.31839E-14-5.41745E-13
 -1        20 1.99701E+01 6.01911E+00 7.45317E-02 1.70929E+00 1.76803E-14-4.26164E-13
 -1        21 2.09219E+01 6.31377E+00 9.19803E-02 2.63905E+00 2.36061E-14-1.58906E-13
 -1        22 2.26639E+01 6.78049E+00 1.97842E-01 4.15051E+00 9.67282E-15 4.38363E-13
 -1        23 2.52742E+01-1.51328E+00-1.00545E+00-5.23365E-01-5.05429E-14 2.36884E-12
 -1        24 2.27134E+01-1.01725E-01-2.99539E-01 1.00486E-01-8.84709E-15 2.12988E-12
 -1        25 2.29961E+01-5.70341E-02-6.60487E-02 8.57183E-02-6.83676E-15 1.87297E-12
 -1        26 2.37651E+01-2.05847E-02-7.80617E-03 6.30665E-02 8.33199E-15 1.66715E-12
 -1        27 2.47525E+01-2.25832E-03 1.17142E-02 5.77855E-02-1.63338E-14 1.55509E-12
 -1        28 2.57047E+01 1.73386E-02 4.06297E-02 4.72627E-02-1.98460E-14 1.48033E-12
 -1        29 2.62713E+01 3.73923E-02 8.29986E-02 1.74075E-02-7.52957E-15 1.47011E-12
 -1        30 2.60146E+01 5.00737E-02 1.20647E-01-4.38974E-02 2.47020E-14 1.47632E-12
 -1        31 2.45763E+01 4.23163E-02 1.14403E-01-1.31265E-01 1.47530E-14 1.38053E-12
 -1        32 2.20360E+01 5.93735E-03 2.68070E-02-2.01564E-01-3.24517E-14 1.16211E-12
 -1        33 1.92397E+01-4.67356E-02-1.22103E-01-1.84659E-01 3.16834E-14 1.02689E-12
 -1        34 1.75959E+01-8.20932E-02-2.30775E-01-5.19528E-02 5.39499E-16 1.08368E-12
 -1        35 1.81196E+01-7.26059E-02-2.01599E-01 1.19284E-01-4.29795E-14 8.02965E-13
 -1        36 2.05394E+01-2.58507E-02-6.32310E-02 2.10913E-01 3.78913E-14 6.24958E-13
 -1        37 2.35491E+01 2.42326E-02 7.05981E-02 1.87315E-01-1.63370E-14 5.66484E-13
 -1        38 2.58711E+01 5.04436E-02 1.24734E-01 1.03182E-01-2.85167E-14 3.94455E-13
 -1        39 2.69643E+01 4.99366E-02 1.08889E-01 2.45602E-02-5.76240E-14 2.70497E-13
 -1        40 2.69598E+01 3.48140E-02 6.57680E-02-2.14361E-02 6.58096E-14 1.91905E-13
 -1        41 2.62639E+01 1.74943E-02 2.63537E-02-3.82425E-02-6.99180E-15 2.88684E-13
 -1        42 2.52639E+01 4.25124E-03 1.42151E-03-3.81494E-02-2.13156E-14 4.27521E-13
 -1        43 2.42202E+01-3.73541E-03-1.05454E-02-3.12799E-02-5.14827E-14 4.56161E-13
 -1        44 2.32700E+01-7.53726E-03-1.43673E-02-2.31979E-02 5.90259E-14 6.39040E-13
 -1        45 2.24676E+01-8.67132E-03-1.40880E-02-1.61705E-02-2.27004E-14 6.87462E-13
 -1        46 2.18205E+01-8.35559E-03-1.21762E-02-1.07712E-02 3.67962E-14 3.40896E-13
 -1        47 2.13148E+01-7.37987E-03-9.87904E-03-6.88395E-03-3.72433E-14 4.40047E-13
 -1        48 2.09286E+01-6.19509E-03-7.73234E-03-4.19323E-03 2.66013E-14 5.97628E-13
 -1        49 2.06393E+01-5.03167E-03-5.91603E-03-2.38190E-03-4.94852E-15 5.45549E-13
 -1        50 2.04263E+01-3.99180E-03-4.45262E-03-1.19229E-03-4.61110E-14 9.99152E-14
 -1        51 2.02724E+01-3.10911E-03-3.30490E-03-4.32600E-04-6.28425E-15 4.29797E-13
 -1        52 2.01632E+01-2.38349E-03-2.41958E-03 3.39792E-05-8.46004E-15 4.67372E-13
 -1        53 2.00877E+01-1.80003E-03-1.74479E-03 3.03185E-04 2.17060E-14 2.50953E-13
 -1        54 2.00370E+01-1.33881E-03-1.23588E-03 4.41478E-04 6.09496E-14 2.03935E-13
 -1        55 2.00043E+01-9.79492E-04-8.56269E-04 4.94882E-04-1.18923E-13 9.74741E-14
 -1        56 1.99844E+01-7.03380E-04-5.76605E-04 4.95174E-04 1.15236E-13 1.72160E-13
 -1        57 1.99735E+01-4.94120E-04-3.73579E-04 4.64135E-04 7.55835E-15 4.12162E-13
 -1        58 1.99687E+01-3.37843E-04-2.28799E-04 4.16487E-04-6.35035E-14 1.05481E-13
 -1        59 1.99679E+01-2.23028E-04-1.27851E-04 3.61985E-04 5.15024E-14 1.14574E-13
 -1        60 1.99695E+01-1.40243E-04-5.95058E-05 3.06899E-04-3.30854E-14 3.25781E-13
 -1        61 1.99725E+01-8.18582E-05-1.50603E-05 2.55081E-04 1.12920E-13 2.63217E-13
 -1        62 1.99762E+01-4.17540E-05 1.21970E-05 2.08709E-04-1.43561E-13 2.08501E-13
 -1        63 1.99801E+01-1.50558E-05 2.74267E-05 1.68825E-04 1.99530E-14 1.55090E-13
 -1        64 1.99840E+01 2.10933E-06 3.46127E-05 1.35707E-04-6.88387E-14 1.64220E-13
 -1        65 1.99876E+01 1.28316E-05 3.69138E-05 1.09104E-04-9.59301E-14-1.64014E-14
 -1        66 1.99908E+01 1.96026E-05 3.70364E-05 8.83297E-05 4.08286E-14-4.42177E-13
 -1        67 1.99937E+01 2.44676E-05 3.77313E-05 7.21792E-05 1.11636E-13-1.78448E-13
 -1        68 1.99961E+01 2.90621E-05 4.22048E-05 5.85549E-05 2.02600E-14 6.88606E-13
 -1        69 1.99980E+01 3.39656E-05 5.30829E-05 4.29609E-05 1.81101E-14 5.14610E-13
 -1        70 1.99993E+01 3.29243E-05 6.17468E-05 1.24205E-05-2.02569E-14 4.19052E-13
 -1        71 1.99999E+01-6.26721E-06 1.60630E-05-3.25930E-05-1.24470E-14 4.50375E-13
 -1        72 2.27928E+01-4.19594E-01-1.01963E+00-3.82757E-01 3.81778E-14 1.68565E-12
 -1        73 2.17950E+01-6.14497E-02-2.77418E-01-7.67375E-02 2.49531E-14 1.14018E-12
 -1        74 2.16510E+01-1.39924E-02-4.84987E-02-3.67968E-02 1.69623E-14 7.30653E-13
 -1        75 2.17987E+01-7.73106E-04 8.04262E-03-3.08346E-02 5.17655E-15 4.73212E-13
 -1        76 2.19772E+01 6.95075E-03 2.45405E-02-2.62263E-02 1.09849E-14 2.72334E-13
 -1        77 2.19962E+01 1.14903E-02 3.43688E-02-1.82262E-02 1.02706E-15 1.04430E-13
 -1        78 2.17085E+01 1.19665E-02 4.01486E-02-3.60966E-03 4.77830E-15 7.76358E-14
 -1        79 2.10308E+01 7.18254E-03 3.60871E-02 1.82690E-02 1.10114E-14-6.74981E-14
 -1        80 1.99960E+01-2.53245E-03 1.68628E-02 4.30525E-02-2.57988E-14-1.41338E-13
 -1        81 1.87967E+01-1.40590E-02-1.60211E-02 6.07348E-02 2.12514E-14-1.47108E-13
 -1        82 1.77668E+01-2.22914E-02-5.09930E-02 5.98736E-02 3.22255E-14-3.41291E-13
 -1        83 1.72638E+01-2.31575E-02-7.09470E-02 3.61542E-02 3.80243E-14-6.27126E-13
 -1        84 1.74955E+01-1.63960E-02-6.46861E-02-1.95528E-03-2.54575E-14-7.42335E-13
 -1        85 1.84043E+01-5.48868E-03-3.58480E-02-3.76637E-02 8.19711E-15-7.43631E-13
 -1        86 1.97003E+01 4.86863E-03 6.96816E-05-5.72036E-02-4.61664E-15-9.20836E-13
 -1        87 2.10141E+01 1.14865E-02 2.74632E-02-5.74167E-02-4.83278E-14-8.00693E-13
 -1        88 2.20570E+01 1.36131E-02 3.93556E-02-4.44038E-02-1.84656E-14-5.47210E-13
 -1        89 2.26960E+01 1.22752E-02 3.76553E-02-2.69215E-02 4.07600E-14-6.51186E-13
 -1        90 2.29374E+01 9.14242E-03 2.85007E-02-1.13226E-02-2.48771E-14-9.38548E-13
 -1        91 2.28680E+01 5.63594E-03 1.75753E-02-3.03668E-04 4.70596E-14-1.10035E-12
 -1        92 2.25981E+01 2.60615E-03 8.22811E-03 6.04925E-03-5.69491E-14-9.30105E-13
 -1        93 2.22262E+01 3.81853E-04 1.63238E-03 8.81742E-03 3.49051E-14-7.68713E-13
 -1        94 2.18253E+01-1.03726E-03-2.33240E-03 9.27994E-03 2.90437E-14-1.06831E-12
 -1        95 2.14422E+01-1.80214E-03-4.29405E-03 8.48062E-03-5.92186E-14-8.71781E-13
 -1        96 2.11023E+01-2.09994E-03-4.93258E-03 7.13080E-03 2.68869E-14-4.23779E-13
 -1        97 2.08159E+01-2.09787E-03-4.79612E-03 5.65710E-03 3.41088E-14-5.16222E-13
 -1        98 2.05842E+01-1.92431E-03-4.26618E-03 4.28494E-03-1.18788E-14-6.60176E-13
 -1        99 2.04029E+01-1.66865E-03-3.58316E-03 3.11311E-03-6.13870E-14-8.02437E-13
 -1       100 2.02653E+01-1.38844E-03-2.88596E-03 2.16776E-03 2.05028E-15-3.31304E-13
 -1       101 2.01639E+01-1.11779E-03-2.24693E-03 1.43735E-03 3.30296E-14-4.01630E-13
 -1       102 2.00914E+01-8.74743E-04-1.69763E-03 8.93529E-04-4.05783E-14-5.71641E-13
 -1       103 2.00413E+01-6.66982E-04-1.24605E-03 5.02775E-04-4.60454E-16-3.70099E-13
 -1       104 2.00083E+01-4.95826E-04-8.87431E-04 2.32434E-04 2.58649E-14-4.22911E-13
 -1       105 1.99877E+01-3.59006E-04-6.10890E-04 5.35794E-05 1.00258E-13-9.30938E-13
 -1       106 1.99760E+01-2.52474E-04-4.03318E-04-5.79373E-05-1.29856E-13-1.03127E-12
 -1       107 1.99706E+01-1.71539E-04-2.51628E-04-1.21430E-04-1.13007E-14-9.93880E-13
 -1       108 1.99692E+01-1.11535E-04-1.43926E-04-1.51847E-04 1.34257E-13-1.15029E-12
 -1       109 1.99704E+01-6.81777E-05-6.99842E-05-1.60450E-04-1.58324E-14-1.03821E-12
 -1       110 1.99732E+01-3.77220E-05-2.13290E-05-1.55525E-04-2.81288E-14-1.25418E-12
 -1       111 1.99767E+01-1.70013E-05 8.87583E-06-1.43026E-04 1.26876E-13-1.25817E-12
 -1       112 1.99804E+01-3.39539E-06 2.60436E-05-1.27122E-04-1.62140E-13-6.61462E-13
 -1       113 1.99842E+01 5.24168E-06 3.44263E-05-1.10661E-04 1.30472E-13-3.16663E-13
 -1       114 1.99877E+01 1.06754E-05 3.74189E-05-9.55276E-05 2.66299E-14-8.61413E-13
 -1       115 1.99909E+01 1.43504E-05 3.79410E-05-8.28510E-05-9.01560E-14-1.13494E-12
 -1       116 1.99937E+01 1.74576E-05 3.89401E-05-7.30603E-05 1.06981E-13-1.13186E-12
 -1       117 1.99961E+01 2.09656E-05 4.40241E-05-6.57956E-05-1.03980E-13-9.49940E-13
 -1       118 1.99980E+01 2.48031E-05 5.57297E-05-5.85117E-05 2.07577E-14-5.42701E-13
 -1       119 1.99994E+01 2.46135E-05 6.50077E-05-3.98147E-05-1.77401E-14-8.79842E-13
 -1       120 1.99999E+01-2.30335E-05 8.35319E-06 1.58074E-05 2.28749E-13-8.97643E-13
 -1       121 1.99998E+01 3.75102E-05 1.09266E-05 3.31067E-05-5.78672E-13 1.75223E-13
 -1       122 1.99998E+01-5.02455E-04 5.82357E-05-2.40140E-05 1.14519E-12 2.96766E-14
 -1       123 1.99998E+01-1.74420E-03 3.46277E-05-5.28632E-05 1.43255E-12 2.27800E-13
 -1       124 1.99998E+01-3.32477E-03 5.25886E-06-6.03833E-05 7.62845E-13-4.90714E-14
 -1       125 1.99998E+01-4.94291E-03-1.77876E-05-5.53140E-05-8.57506E-14-1.71759E-13
 -1       126 1.99998E+01-6.34062E-03-3.39743E-05-4.39673E-05-9.75802E-13-3.49209E-13
 -1       127 1.99998E+01-7.38593E-03-4.39757E-05-2.78352E-05-4.53378E-13 2.45936E-13
 -1       128 1.99998E+01-7.93648E-03-4.88784E-05-9.45698E-06 6.88052E-13 1.50646E-13
 -1       129 1.99998E+01-7.93406E-03-4.89067E-05 9.62795E-06 4.34892E-13 3.49119E-14
 -1       130 1.99998E+01-7.37839E-03-4.40382E-05 2.80071E-05 7.58691E-13-2.82069E-14
 -1       131 1.99998E+01-6.32789E-03-3.37081E-05 4.46386E-05 2.73332E-13-3.47995E-15
 -1       132 1.99998E+01-4.92581E-03-1.78450E-05 5.56120E-05-7.62244E-13 1.00718E-13
 -1       133 1.99998E+01-3.30383E-03 5.29916E-06 6.03868E-05-6.92655E-13 3.27165E-14
 -1       134 1.99998E+01-1.71808E-03 3.76009E-05 5.71589E-05-2.05629E-13 2.34675E-14
 -1       135 1.99998E+01-5.06736E-04 5.10348E-05 3.34618E-05-2.83444E-13-2.28680E-13
 -1       136 1.99998E+01 2.01940E-05 8.37750E-06-6.55932E-05-5.80121E-13-3.32415E-14
 -1       137-1.48961E+00-1.90874E+01-3.00086E+00-3.68170E+00 1.02857E-12 2.61399E-13
 -1       138-1.14425E+00-7.42778E+00-2.13917E+00-2.26526E+00 2.03748E-12 1.10292E-12
 -1       139 3.58131E+00 4.23128E+00-9.52073E-01 4.18058E+00 2.71638E-12 2.08661E-12
 -1       140 1.62390E+01 1.07772E+01 4.52843E-01 1.30894E+01 2.37238E-12 2.64416E-12
 -1       141 3.51281E+01 1.00157E+01 1.82085E+00 1.81189E+01 1.45320E-12 2.63328E-12
 -1       142 5.56034E+01 4.81963E+00 2.98380E+00 1.48591E+01 5.30728E-13 1.65740E-12
 -1       143 6.56402E+01 1.06439E+00 3.49092E+00 3.84749E+00 6.67418E-14 5.52100E-13
 -1       144 6.26032E+01 2.35202E+00 3.35971E+00-9.20464E+00 1.89776E-13-8.33833E-13
 -1       145 4.74584E+01 7.26354E+00 2.56364E+00-1.74284E+01 9.12020E-13-2.10154E-12
 -1       146 2.75804E+01 1.10683E+01 1.33532E+00-1.70829E+01 1.77458E-12-2.68952E-12
 -1       147 1.07866E+01 8.95285E+00-9.64369E-02-9.86228E+00 2.51915E-12-2.42967E-12
 -1       148 1.73487E-01-1.54193E+00-1.63646E+00-1.38505E-01 2.85366E-12-1.74505E-12
 -1       149-1.57774E+00-1.35769E+01-2.65791E+00 3.65872E+00 2.46025E-12-8.63629E-13
 -1       150-1.03687E+00-2.28294E+01-3.27306E+00 2.47505E+00 1.26116E-12-2.36804E-13
 -1       151-8.55420E-01-2.40208E+01-3.37803E+00-2.00097E+00-5.79675E-14-3.12077E-14
 -1       152-1.80329E+00-1.64955E+01-2.94277E+00-4.41450E+00-1.28447E-12-4.33306E-13
 -1       153-1.00245E+00-4.80386E+00-2.07469E+00-1.75668E+00-2.18692E-12-1.21525E-12
 -1       154 5.54941E+00 5.92982E+00-8.29647E-01 5.93556E+00-2.56273E-12-2.22017E-12
 -1       155 2.04562E+01 1.08779E+01 7.13068E-01 1.47047E+01-2.16316E-12-2.74891E-12
 -1       156 4.21872E+01 8.85385E+00 2.31561E+00 1.84225E+01-1.28422E-12-2.65604E-12
 -1       157 6.17840E+01 3.46638E+00 3.49096E+00 1.23318E+01-3.63126E-13-1.69054E-12
 -1       158 6.19414E+01 3.22037E+00 3.48063E+00-1.19937E+01-1.73504E-13 6.20504E-13
 -1       159 4.47164E+01 8.01869E+00 2.42429E+00-1.81005E+01-9.65866E-13 2.10298E-12
 -1       160 2.54016E+01 1.08411E+01 1.07438E+00-1.63079E+01-2.04198E-12 2.82763E-12
 -1       161 9.43122E+00 8.04679E+00-3.62452E-01-8.79175E+00-2.96752E-12 2.92233E-12
 -1       162 6.95499E-01-4.62305E-01-1.62682E+00-7.23480E-01-3.16236E-12 2.05508E-12
 -1       163-1.96081E+00-1.19523E+01-2.60817E+00 4.10629E+00-3.07082E-12 1.21059E-12
 -1       164-1.29415E+00-2.14518E+01-3.20417E+00 3.79553E+00-1.81935E-12 4.49529E-13
 -1       165 2.30202E+01 3.69870E+00-4.68891E-02-2.69543E+00-2.84280E-13 6.68101E-13
 -1       166 2.12721E+01 4.32447E+00-4.02859E-02-1.74565E+00-3.35364E-13 2.37324E-13
 -1       167 1.98994E+01 4.65348E+00-2.95451E-02-1.09924E+00-3.28403E-13-4.51045E-14
 -1       168 1.87724E+01 4.82302E+00-2.12297E-02-6.82955E-01-2.85553E-13-2.44381E-13
 -1       169 1.78928E+01 4.91784E+00-1.57150E-02-4.50385E-01-2.46733E-13-3.66475E-13
 -1       170 1.72804E+01 4.95976E+00-1.28049E-02-3.42461E-01-2.09401E-13-4.47016E-13
 -1       171 1.69914E+01 4.95357E+00-1.14477E-02-3.01338E-01-1.52861E-13-4.80600E-13
 -1       172 1.70276E+01 4.90687E+00-1.13954E-02-2.60150E-01-1.09938E-13-5.13392E-13
 -1       173 1.73492E+01 4.83393E+00-1.24934E-02-1.59708E-01-6.62933E-14-5.16973E-13
 -1       174 1.78873E+01 4.75165E+00-1.47238E-02 4.15202E-02-1.42356E-14-5.24209E-13
 -1       175 1.85553E+01 4.67218E+00-1.82983E-02 3.57778E-01 4.33451E-14-4.97880E-13
 -1       176 1.93247E+01 4.58771E+00-2.38642E-02 8.06536E-01 1.24220E-13-4.62188E-13
 -1       177 2.01795E+01 4.46513E+00-3.31929E-02 1.38926E+00 1.97326E-13-3.90452E-13
 -1       178 2.12090E+01 4.20885E+00-4.59390E-02 2.11969E+00 2.64613E-13-2.19200E-13
 -1       179 2.27418E+01 3.47058E+00-5.57210E-02 2.96599E+00 3.03722E-13 1.16705E-13
 -1       180 2.42193E+01 1.07890E+00-3.38088E-01 2.60131E+00 2.45940E-13 6.04086E-13
 -1       181 2.44833E+01 8.08625E-01 3.00591E-03-1.24868E+00-2.03632E-13 1.06608E-12
 -1       182 2.35255E+01 1.84809E-01-7.53931E-03-3.93123E-02-1.68364E-13 9.24060E-13
 -1       183 2.34067E+01 1.12034E-01 1.32237E-02 4.55633E-01-1.23622E-13 8.36274E-13
 -1       184 2.37491E+01 3.68602E-02 6.90559E-03 6.74805E-01-9.08052E-14 7.63088E-13
 -1       185 2.42722E+01-5.04609E-02-8.44472E-06 6.81353E-01-3.38585E-14 7.60437E-13
 -1       186 2.47707E+01-1.69217E-01-3.60297E-03 4.32121E-01-1.38674E-14 7.92867E-13
 -1       187 2.50255E+01-3.01200E-01-3.61403E-03-1.20930E-01-3.36380E-14 7.78521E-13
 -1       188 2.48233E+01-3.70059E-01-8.67150E-04-9.19303E-01-6.09842E-15 7.71680E-13
 -1       189 2.40534E+01-2.51837E-01 1.08316E-03-1.67131E+00-1.17347E-13 7.98306E-13
 -1       190 2.28774E+01 1.09015E-01-3.90121E-03-1.86243E+00-1.06955E-13 7.59542E-13
 -1       191 2.18262E+01 5.38124E-01-1.40748E-02-1.09996E+00-5.88193E-14 5.14541E-13
 -1       192 2.15617E+01 6.75282E-01-1.78214E-02 3.59025E-01-1.99863E-13 3.51232E-13
 -1       193 2.22990E+01 3.86842E-01-1.03644E-02 1.63088E+00-1.86360E-13 2.47349E-13
 -1       194 2.35829E+01-5.54822E-02-1.97624E-03 2.00825E+00-1.09573E-13 3.25018E-14
 -1       195 2.47383E+01-3.32297E-01-7.76853E-04 1.52492E+00-1.12937E-13 1.13564E-14
 -1       196 2.53596E+01-3.65362E-01-3.19792E-03 6.84285E-01-4.84977E-14-2.44583E-14
 -1       197 2.54009E+01-2.62625E-01-5.48124E-03-6.62095E-02-4.98161E-14 2.03008E-14
 -1       198 2.50105E+01-1.36919E-01-5.72262E-03-5.43937E-01-2.53447E-14-1.24909E-13
 -1       199 2.43783E+01-4.17531E-02-4.05606E-03-7.58595E-01 6.40542E-14-1.31992E-13
 -1       200 2.36602E+01 1.37338E-02-1.88126E-03-7.92399E-01 9.04007E-14 5.05440E-14
 -1       201 2.29581E+01 3.91767E-02-9.54146E-05-7.27338E-01 6.63206E-15 2.09846E-13
 -1       202 2.23274E+01 4.65491E-02 1.02906E-03-6.20861E-01 3.32846E-14 1.86075E-13
 -1       203 2.17904E+01 4.47026E-02 1.56261E-03-5.06302E-01-6.56669E-14 3.09959E-13
 -1       204 2.13501E+01 3.89847E-02 1.69371E-03-4.00158E-01 1.02953E-14 2.34811E-13
 -1       205 2.09987E+01 3.22328E-02 1.59752E-03-3.08968E-01-6.36984E-14 1.45508E-13
 -1       206 2.07244E+01 2.57818E-02 1.39718E-03-2.34033E-01-6.78764E-14-3.45214E-14
 -1       207 2.05141E+01 2.01577E-02 1.16629E-03-1.74218E-01-1.07868E-13 1.19034E-14
 -1       208 2.03557E+01 1.54880E-02 9.43386E-04-1.27462E-01 1.39629E-13 1.03347E-13
 -1       209 2.02384E+01 1.17224E-02 7.45656E-04-9.15207E-02 4.26920E-14 1.27808E-13
 -1       210 2.01531E+01 8.74473E-03 5.78548E-04-6.43035E-02-9.46957E-14 6.61889E-14
 -1       211 2.00923E+01 6.42506E-03 4.41639E-04-4.39939E-02 6.54533E-16 1.38066E-13
 -1       212 2.00500E+01 4.64131E-03 3.31912E-04-2.90733E-02-2.80093E-14 1.96077E-13
 -1       213 2.00215E+01 3.28693E-03 2.45477E-04-1.83011E-02-1.50535E-14 2.00485E-13
 -1       214 2.00030E+01 2.27212E-03 1.78409E-04-1.06809E-02 7.92495E-14 6.77481E-14
 -1       215 1.99918E+01 1.52281E-03 1.27108E-04-5.42270E-03-5.86054E-14-1.67631E-14
 -1       216 1.99856E+01 9.78774E-04 8.84347E-05-1.90794E-03 7.35811E-14 6.69535E-14
 -1       217 1.99828E+01 5.91661E-04 5.97269E-05 3.42268E-04 4.08339E-14-1.43196E-13
 -1       218 1.99823E+01 3.22975E-04 3.87741E-05 1.69412E-03 5.79078E-14 2.01995E-13
 -1       219 1.99833E+01 1.42290E-04 2.37650E-05 2.42374E-03-4.35968E-14 1.35357E-13
 -1       220 1.99850E+01 2.57072E-05 1.32296E-05 2.73584E-03-1.12363E-13 2.55620E-13
 -1       221 1.99872E+01-4.54921E-05 5.98092E-06 2.77879E-03-3.49507E-14-1.86194E-14
 -1       222 1.99894E+01-8.60342E-05 1.06516E-06 2.65657E-03-4.29838E-14-5.46526E-14
 -1       223 1.99917E+01-1.07748E-04-2.26831E-06 2.43790E-03-8.48671E-14 3.21948E-13
 -1       224 1.99937E+01-1.20574E-04-4.56059E-06 2.16272E-03 3.64306E-13 5.59859E-13
 -1       225 1.99956E+01-1.33361E-04-5.99076E-06 1.84682E-03 3.41431E-13 5.40522E-13
 -1       226 1.99971E+01-1.55342E-04-6.29456E-06 1.48437E-03-1.07162E-13 1.54192E-13
 -1       227 1.99983E+01-1.94851E-04-5.96382E-06 1.05245E-03 3.75459E-14 2.27543E-13
 -1       228 1.99992E+01-2.45827E-04-3.98004E-06 5.37332E-04 5.51805E-14 2.94148E-13
 -1       229 2.30627E+01 2.45737E-01-4.79031E-02 7.97998E-01 2.48041E-13 5.14190E-13
 -1       230 2.23001E+01 9.89108E-02 9.34666E-03 1.54168E-01 1.83915E-13 3.55134E-13
 -1       231 2.20603E+01 2.28612E-02 1.21591E-02-4.57181E-02 1.32064E-13 2.30878E-13
 -1       232 2.20015E+01-2.36691E-02 6.85641E-03-5.44203E-02 1.04398E-13 1.23779E-13
 -1       233 2.19324E+01-5.87012E-02 3.78074E-03 6.13543E-02 6.75679E-14 4.13870E-14
 -1       234 2.17243E+01-8.17024E-02 2.97965E-03 2.64909E-01 1.88625E-14-1.01444E-14
 -1       235 2.13053E+01-8.21795E-02 2.90298E-03 5.03025E-01 5.35839E-14 3.19909E-14
 -1       236 2.06810E+01-4.87469E-02 2.13269E-03 6.91210E-01 4.26336E-14-2.19876E-14
 -1       237 1.99550E+01 1.89466E-02 5.70395E-05 7.28431E-01 3.30648E-14-1.43355E-13
 -1       238 1.93188E+01 9.96742E-02-2.57056E-03 5.45269E-01 1.07836E-13-1.23815E-13
 -1       239 1.89873E+01 1.55104E-01-3.98144E-03 1.61810E-01 1.75273E-13-1.80585E-13
 -1       240 1.90959E+01 1.54195E-01-2.92725E-03-2.97783E-01 3.78430E-14-2.79584E-13
 -1       241 1.96235E+01 9.78962E-02-1.13399E-04-6.65916E-01 3.68976E-14-3.90646E-13
 -1       242 2.04040E+01 1.75514E-02 2.40506E-03-8.26638E-01 2.00909E-14-3.64032E-13
 -1       243 2.12138E+01-4.97444E-02 3.20610E-03-7.67930E-01-9.05914E-14-2.37157E-13
 -1       244 2.18695E+01-8.40829E-02 2.33494E-03-5.61585E-01-6.14266E-14-2.43852E-13
 -1       245 2.22779E+01-8.67710E-02 7.28490E-04-3.04261E-01 1.25695E-13-3.08629E-13
 -1       246 2.24309E+01-7.01045E-02-6.39730E-04-7.05343E-02 9.88851E-14-3.71298E-13
 -1       247 2.23745E+01-4.68036E-02-1.34604E-03 1.02455E-01-1.35395E-14-3.60633E-13
 -1       248 2.21745E+01-2.51069E-02-1.43308E-03 2.08143E-01-1.38962E-13-3.06752E-13
 -1       249 2.18946E+01-8.57233E-03-1.14359E-03 2.56936E-01-2.74530E-14-3.65012E-13
 -1       250 2.15856E+01 2.30327E-03-7.18749E-04 2.64970E-01 7.35371E-14-4.22362E-13
 -1       251 2.12825E+01 8.45496E-03-3.15424E-04 2.47657E-01-1.12256E-13-4.81791E-13
 -1       252 2.10064E+01 1.12042E-02-4.76552E-06 2.17075E-01-1.50626E-13-3.90669E-13
 -1       253 2.07676E+01 1.17570E-02 1.99207E-04 1.81576E-01 6.70211E-14-1.25703E-13
 -1       254 2.05692E+01 1.10385E-02 3.10974E-04 1.46364E-01-1.91348E-14-6.76164E-14
 -1       255 2.04097E+01 9.68720E-03 3.54372E-04 1.14318E-01 4.93060E-14-1.33261E-14
 -1       256 2.02851E+01 8.11054E-03 3.52607E-04 8.67467E-02-1.67601E-13-1.69536E-13
 -1       257 2.01903E+01 6.54863E-03 3.24325E-04 6.39843E-02 7.03536E-14-2.96606E-14
 -1       258 2.01202E+01 5.12927E-03 2.82932E-04 4.58025E-02 2.41856E-14-5.59793E-15
 -1       259 2.00697E+01 3.90897E-03 2.37294E-04 3.16885E-02-8.64232E-14-8.05286E-14
 -1       260 2.00345E+01 2.90120E-03 1.92816E-04 2.10185E-02 1.91896E-13-2.18930E-13
 -1       261 2.00109E+01 2.09521E-03 1.52473E-04 1.31605E-02 2.59249E-13-3.66870E-13
 -1       262 1.99959E+01 1.46810E-03 1.17624E-04 7.53136E-03-2.28520E-13-3.94808E-13
 -1       263 1.99871E+01 9.92384E-04 8.86061E-05 3.62305E-03 2.53909E-14-3.79577E-13
 -1       264 1.99827E+01 6.40462E-04 6.51465E-05 1.01077E-03-2.88048E-14-4.26056E-13
 -1       265 1.99812E+01 3.86961E-04 4.66524E-05-6.49672E-04-1.10293E-13-1.46181E-13
 -1       266 1.99815E+01 2.09764E-04 3.23966E-05-1.62977E-03 1.41276E-13-2.08301E-13
 -1       267 1.99830E+01 9.02658E-05 2.16307E-05-2.13841E-03-5.33887E-14-1.49912E-13
 -1       268 1.99852E+01 1.32028E-05 1.36469E-05-2.33214E-03-2.56794E-13-4.48363E-14
 -1       269 1.99876E+01-3.37562E-05 7.80883E-06-2.32479E-03 1.39452E-13-2.40483E-13
 -1       270 1.99900E+01-6.05596E-05 3.57239E-06-2.19552E-03 5.69364E-14 2.99985E-14
 -1       271 1.99923E+01-7.54644E-05 5.13888E-07-1.99538E-03 1.88782E-13-4.49178E-15
 -1       272 1.99944E+01-8.55448E-05-1.46930E-06-1.75168E-03 1.46110E-13-2.98529E-13
 -1       273 1.99962E+01-9.72921E-05-1.95142E-06-1.47167E-03-2.27738E-13-6.98370E-14
 -1       274 1.99977E+01-1.17728E-04-2.83619E-07-1.14393E-03-2.36403E-14-6.47454E-14
 -1       275 1.99988E+01-1.55949E-04-7.98745E-08-7.42109E-04 3.43276E-14-6.87329E-14
 -1       276 1.99995E+01-1.70841E-04-4.99419E-06-2.73753E-04 1.13413E-13 6.87236E-14
 -1       277 1.99996E+01-5.92171E-04-4.19437E-06-5.51853E-04 1.16157E-13 7.56896E-13
 -1       278 1.99996E+01-1.39985E-03-1.68633E-06-9.82316E-04 3.30109E-13 1.75821E-14
 -1       279 1.99997E+01-2.43098E-03-7.65846E-07-1.21891E-03 1.86677E-13-3.61237E-13
 -1       280 1.99998E+01-3.54426E-03 7.45717E-07-1.24283E-03 1.58193E-13-3.75507E-13
 -1       281 1.99999E+01-4.57341E-03 2.99071E-06-1.09214E-03 1.82028E-13-6.48560E-13
 -1       282 1.99999E+01-5.42358E-03 4.92897E-06-8.03530E-04 2.88375E-13-1.33800E-14
 -1       283 2.00000E+01-5.97387E-03 6.23382E-06-4.23594E-04 1.70928E-13 5.92082E-13
 -1       284 2.00000E+01-6.16333E-03 6.68075E-06 1.77386E-06 1.20915E-13-1.61775E-13
 -1       285 2.00000E+01-5.97107E-03 6.23733E-06 4.27280E-04 1.62399E-13 4.27051E-14
 -1       286 1.99999E+01-5.41765E-03 4.93185E-06 8.07608E-04-3.43168E-14-4.33156E-14
 -1       287 1.99999E+01-4.58148E-03 2.87587E-06 1.09247E-03 1.27817E-13-4.24128E-13
 -1       288 1.99998E+01-3.53259E-03 7.24447E-07 1.24543E-03 1.04847E-13 3.57992E-14
 -1       289 1.99997E+01-2.41791E-03-9.91943E-07 1.21912E-03-5.17053E-14 1.06601E-13
 -1       290 1.99996E+01-1.39350E-03-4.27609E-06 9.70995E-04-3.69931E-13-4.63838E-14
 -1       291 1.99994E+01-7.69078E-04-5.39374E-06 8.59912E-04-2.33535E-13 1.49959E-14
 -1       292-6.01491E-01-9.70694E+00-7.84251E-01 1.70126E+00-1.66950E-14 7.00870E-13
 -1       293 4.00589E+00-7.38744E+00-5.07966E-01 4.73563E+00 3.19245E-13 7.79224E-13
 -1       294 1.01326E+01-4.67389E+00-4.25847E-01 5.94048E+00 7.22505E-13 1.05531E-12
 -1       295 1.91621E+01-9.10067E-01-7.86350E-02 7.30209E+00 9.42357E-13 9.14047E-13
 -1       296 2.92589E+01 2.39738E+00 2.99661E-01 7.43412E+00 8.33958E-13 7.41879E-13
 -1       297 3.76874E+01 4.68455E+00 4.72840E-01 4.32203E+00 7.53383E-13 2.88103E-13
 -1       298 4.53340E+01 6.47128E+00 9.41960E-01 3.00369E+00 6.34312E-13 2.78638E-13
 -1       299 4.52304E+01 7.12631E+00 8.51347E-01-6.60476E-01 6.82704E-13-2.16334E-13
 -1       300 4.15189E+01 6.12321E+00 6.52906E-01-3.53758E+00 8.51250E-13-5.38597E-13
 -1       301 3.50093E+01 3.93891E+00 4.76917E-01-6.30454E+00 8.48824E-13-7.80570E-13
 -1       302 2.55313E+01 1.23771E+00 1.51015E-01-7.53538E+00 1.03395E-12-9.98979E-13
 -1       303 1.66307E+01-3.58198E+00-1.52939E-01-7.03071E+00 8.00110E-13-7.49359E-13
 -1       304 5.98269E+00-6.37126E+00-6.26575E-01-4.82808E+00 9.97175E-13-8.79199E-13
 -1       305 1.40143E+00-8.00897E+00-6.00188E-01-3.44741E+00 4.63379E-13-8.19719E-13
 -1       306-1.27352E+00-1.08745E+01-9.77779E-01-4.18393E-01 2.16722E-13-6.84897E-13
 -1       307 1.21080E-01-9.82724E+00-8.98001E-01 1.92727E+00-1.69254E-13-6.73420E-13
 -1       308 4.54203E+00-7.60592E+00-7.71467E-01 3.91245E+00-5.48700E-13-8.86000E-13
 -1       309 1.19455E+01-4.05376E+00-4.55281E-01 6.00019E+00-8.26006E-13-1.02887E-12
 -1       310 2.17571E+01-3.57839E-01-3.76136E-02 7.36188E+00-9.03555E-13-1.03498E-12
 -1       311 3.28395E+01 2.36190E+00 3.75143E-01 6.41118E+00-8.07021E-13-8.24674E-13
 -1       312 4.10905E+01 5.34119E+00 6.66169E-01 3.83786E+00-7.83165E-13-5.62911E-13
 -1       313 4.67496E+01 6.78466E+00 9.81216E-01 1.69135E+00-6.78069E-13-4.15334E-13
 -1       314 4.76436E+01 6.68233E+00 1.11972E+00-1.57741E+00-7.50539E-13 1.52961E-13
 -1       315 4.18861E+01 5.45588E+00 7.41997E-01-3.93076E+00-9.90666E-13 5.19390E-13
 -1       316 3.46571E+01 3.35505E+00 5.08665E-01-6.81412E+00-1.12181E-12 9.26093E-13
 -1       317 2.51568E+01 1.27187E-01 8.45463E-02-7.02239E+00-1.23326E-12 8.77132E-13
 -1       318 1.52217E+01-2.89956E+00-3.01649E-01-6.44454E+00-1.29263E-12 1.25402E-12
 -1       319 7.52856E+00-6.40719E+00-5.94959E-01-4.96075E+00-1.20637E-12 9.50198E-13
 -1       320 1.65816E+00-9.41104E+00-8.75801E-01-2.62175E+00-8.21065E-13 1.09300E-12
 -1       321-1.07717E+00-1.10809E+01-1.00504E+00-6.37829E-01-4.40259E-13 8.86236E-13
 -1       322 2.10094E+01 3.18807E+00-1.89344E-02-9.05807E-01-3.61417E-13 1.34023E-13
 -1       323 2.25839E+01 2.22983E+00-1.58788E-02-1.25866E+00-3.28064E-13 4.00908E-13
 -1       324 1.84762E+01 4.19690E+00-1.06731E-02-3.57053E-01-3.09530E-13-2.05111E-13
 -1       325 1.76051E+01 4.46358E+00-7.29631E-03-2.80740E-01-2.67743E-13-3.14282E-13
 -1       326 1.70970E+01 4.58535E+00-5.42653E-03-2.99899E-01-2.19830E-13-3.52170E-13
 -1       327 1.69823E+01 4.56540E+00-5.07051E-03-3.42899E-01-1.70276E-13-3.77133E-13
 -1       328 1.72344E+01 4.42567E+00-6.01897E-03-3.33521E-01-1.15777E-13-4.01019E-13
 -1       329 1.77758E+01 4.20527E+00-8.06807E-03-2.15178E-01-5.99631E-14-3.99275E-13
 -1       330 1.84938E+01 3.94800E+00-1.09970E-02 2.97894E-02 1.16157E-14-3.87988E-13
 -1       331 1.93294E+01 3.66233E+00-1.48049E-02 4.00276E-01 9.50279E-14-3.39312E-13
 -1       332 2.02298E+01 3.32653E+00-1.96436E-02 8.59408E-01 1.88701E-13-3.01309E-13
 -1       333 2.12201E+01 2.84997E+00-2.40336E-02 1.34511E+00 2.66558E-13-1.98486E-13
 -1       334 2.23051E+01 2.03385E+00-3.19400E-02 1.66934E+00 3.17162E-13 1.59855E-14
 -1       335 2.29349E+01 1.11085E+00-2.43669E-02 1.38138E+00 3.15267E-13 2.15271E-13
 -1       336 2.24550E+01 4.02725E-01 7.12933E-03 4.65301E-01 2.49355E-13 1.43194E-13
 -1       337 2.28899E+01 7.30741E-01 1.29140E-02 1.52400E-01-2.02314E-13 4.19441E-13
 -1       338 2.29022E+01 3.58946E-01 5.66556E-03 7.88566E-01-1.31188E-13 3.82622E-13
 -1       339 2.31598E+01 4.97309E-02 4.19276E-04 1.08189E+00-6.02315E-14 3.74847E-13
 -1       340 2.36129E+01-3.29277E-01-4.50571E-03 1.03180E+00-5.53149E-15 3.61799E-13
 -1       341 2.42008E+01-7.92705E-01-8.48936E-03 5.67081E-01-3.34073E-14 3.51109E-13
 -1       342 2.48093E+01-1.20086E+00-1.04044E-02-3.56818E-01 3.87234E-15 3.89842E-13
 -1       343 2.52181E+01-1.20569E+00-1.12282E-02-1.57961E+00 2.07612E-14 4.59541E-13
 -1       344 2.51577E+01-4.07358E-01-1.47695E-02-2.52510E+00-1.44219E-13 5.56814E-13
 -1       345 2.45869E+01 1.11384E+00-3.11671E-02-2.33167E+00-2.90743E-13 5.09984E-13
 -1       346 2.40794E+01 2.27854E+00-4.21268E-02-6.11119E-01-3.49498E-13 3.04695E-13
 -1       347 2.42504E+01 1.96854E+00-4.04001E-02 1.61523E+00-3.83620E-13-1.39279E-14
 -1       348 2.49390E+01 4.83103E-01-2.35174E-02 2.77621E+00-2.30994E-13-1.33119E-13
 -1       349 2.53887E+01-8.43675E-01-1.71724E-02 2.42317E+00-1.79653E-13-2.15815E-13
 -1       350 2.52743E+01-1.31260E+00-1.15925E-02 1.23316E+00-6.59559E-14-2.77073E-13
 -1       351 2.47522E+01-1.11414E+00-9.49128E-03 3.20740E-02-3.15980E-15-2.22912E-13
 -1       352 2.40862E+01-6.83931E-01-8.13935E-03-7.98512E-01-2.59760E-14-1.69656E-13
 -1       353 2.34283E+01-2.92799E-01-5.05921E-03-1.22246E+00 4.28133E-14-8.31999E-14
 -1       354 2.28333E+01-3.19668E-02-2.08706E-03-1.34299E+00 1.13092E-13-9.04434E-14
 -1       355 2.23108E+01 1.08227E-01-2.50036E-05-1.28152E+00 1.30239E-13-8.65668E-14
 -1       356 2.18588E+01 1.65968E-01 1.13764E-03-1.13067E+00 9.43898E-14 2.05380E-14
 -1       357 2.14733E+01 1.76203E-01 1.62256E-03-9.49392E-01-4.55586E-14 9.90679E-14
 -1       358 2.11498E+01 1.62891E-01 1.69507E-03-7.70488E-01-6.32096E-14 1.13260E-13
 -1       359 2.08832E+01 1.40186E-01 1.55562E-03-6.09700E-01-9.49066E-14 1.88748E-14
 -1       360 2.06672E+01 1.15590E-01 1.33082E-03-4.72791E-01 2.67048E-14 9.40389E-14
 -1       361 2.04953E+01 9.26432E-02 1.09038E-03-3.60212E-01-1.32601E-13 2.05842E-13
 -1       362 2.03606E+01 7.27303E-02 8.67743E-04-2.69898E-01-2.22588E-14 2.43309E-13
 -1       363 2.02568E+01 5.61500E-02 6.75895E-04-1.98817E-01 1.25619E-13 1.47815E-13
 -1       364 2.01782E+01 4.27045E-02 5.17349E-04-1.43775E-01-6.67708E-14 5.02379E-14
 -1       365 2.01197E+01 3.20048E-02 3.89817E-04-1.01788E-01-5.27854E-14 1.61131E-13
 -1       366 2.00769E+01 2.36182E-02 2.89199E-04-7.02342E-02 9.30727E-14 2.14903E-13
 -1       367 2.00463E+01 1.71334E-02 2.11033E-04-4.68924E-02-4.04819E-14 1.72034E-13
 -1       368 2.00250E+01 1.21853E-02 1.51152E-04-2.99232E-02-1.91875E-13 1.38446E-13
 -1       369 2.00106E+01 8.46167E-03 1.05905E-04-1.78313E-02-3.98157E-14 7.26852E-14
 -1       370 2.00013E+01 5.70134E-03 7.22137E-05-9.41918E-03-5.04661E-14 1.41557E-13
 -1       371 1.99956E+01 3.68988E-03 4.75281E-05-3.74054E-03-1.82889E-14 2.06595E-13
 -1       372 1.99926E+01 2.25340E-03 2.97732E-05-5.71889E-05 1.78856E-13 3.02816E-13
 -1       373 1.99912E+01 1.25219E-03 1.72790E-05 2.19900E-03 8.65431E-14 2.38857E-13
 -1       374 1.99911E+01 5.74963E-04 8.71244E-06 3.45856E-03 8.96834E-14 4.25315E-13
 -1       375 1.99916E+01 1.33634E-04 3.01406E-06 4.04177E-03-4.14968E-14 6.13892E-13
 -1       376 1.99926E+01-1.41377E-04-6.58772E-07 4.18110E-03-2.37260E-13 7.38080E-13
 -1       377 1.99937E+01-3.05346E-04-2.97712E-06 4.03926E-03 1.30850E-13 7.26057E-13
 -1       378 1.99950E+01-4.03054E-04-4.46467E-06 3.72327E-03 2.78984E-13 8.88457E-13
 -1       379 1.99961E+01-4.71860E-04-5.56048E-06 3.29508E-03 7.73329E-14 5.10315E-13
 -1       380 1.99972E+01-5.42263E-04-6.26152E-06 2.78177E-03-1.75033E-13 3.34720E-13
 -1       381 1.99981E+01-6.43309E-04-8.20088E-06 2.18550E-03-4.43148E-14 2.22172E-13
 -1       382 1.99988E+01-7.14455E-04-7.44718E-06 1.54793E-03 7.41928E-14 1.82095E-13
 -1       383 2.21761E+01 1.13720E-01 8.40029E-03 6.21980E-02 1.82691E-13 1.09851E-13
 -1       384 2.20620E+01-5.13184E-02 2.91317E-03-2.58773E-02 1.47926E-13 4.87440E-14
 -1       385 2.20088E+01-1.73071E-01-8.66423E-04 1.00126E-01 1.00072E-13 6.12097E-15
 -1       386 2.19103E+01-2.52451E-01-2.33391E-03 3.78538E-01 1.72254E-14-2.70515E-14
 -1       387 2.16887E+01-2.59642E-01-2.01275E-03 7.28069E-01 9.68973E-15-8.17690E-14
 -1       388 2.13116E+01-1.59914E-01-5.37037E-04 1.02289E+00 7.47315E-14-5.23431E-15
 -1       389 2.08196E+01 5.00344E-02 1.36162E-03 1.10717E+00 6.53577E-14 5.80009E-14
 -1       390 2.03393E+01 3.07485E-01 3.12528E-03 8.62170E-01 9.15270E-14 2.44819E-14
 -1       391 2.00485E+01 4.92356E-01 4.48557E-03 2.99459E-01 2.12567E-13-1.03147E-14
 -1       392 2.00816E+01 5.00617E-01 5.27019E-03-4.02127E-01 1.16577E-13-4.53346E-14
 -1       393 2.04390E+01 3.27282E-01 4.87923E-03-9.80800E-01 8.42312E-14-1.57552E-13
 -1       394 2.09846E+01 6.89544E-02 2.90100E-03-1.24617E+00 5.94616E-14-1.26781E-13
 -1       395 2.15338E+01-1.53587E-01 9.22317E-05-1.17007E+00-1.01658E-13-2.30393E-13
 -1       396 2.19468E+01-2.71734E-01-2.37428E-03-8.59918E-01-4.52505E-14-2.48825E-13
 -1       397 2.21664E+01-2.86111E-01-3.79933E-03-4.64818E-01 1.38929E-13-2.70378E-13
 -1       398 2.22015E+01-2.34922E-01-3.98153E-03-1.01088E-01 1.52773E-13-1.26008E-13
 -1       399 2.20940E+01-1.59510E-01-3.30485E-03 1.72005E-01-2.18449E-14-1.44674E-13
 -1       400 2.18939E+01-8.75477E-02-2.26206E-03 3.42099E-01-2.83541E-14-2.21432E-13
 -1       401 2.16453E+01-3.16220E-02-1.22655E-03 4.23388E-01-3.75414E-14-3.60557E-13
 -1       402 2.13823E+01 5.89851E-03-3.95313E-04 4.39691E-01 9.50886E-14-3.66370E-13
 -1       403 2.11281E+01 2.76508E-02 1.75990E-04 4.14499E-01-9.47265E-14-2.55130E-13
 -1       404 2.08967E+01 3.78016E-02 5.11726E-04 3.66712E-01-1.49595E-13-2.67041E-13
 -1       405 2.06953E+01 4.03053E-02 6.67366E-04 3.09757E-01-1.02533E-13-1.78232E-13
 -1       406 2.05262E+01 3.82729E-02 7.01129E-04 2.52256E-01-2.54218E-15-7.90141E-14
 -1       407 2.03882E+01 3.38997E-02 6.61430E-04 1.99167E-01 2.99695E-14 1.35355E-13
 -1       408 2.02787E+01 2.86151E-02 5.83654E-04 1.52910E-01-1.13582E-13 1.63292E-13
 -1       409 2.01938E+01 2.32814E-02 4.91329E-04 1.14265E-01-1.20556E-14 3.73610E-13
 -1       410 2.01295E+01 1.83720E-02 3.98812E-04 8.30404E-02 8.24697E-14 3.90899E-13
 -1       411 2.00821E+01 1.41082E-02 3.14006E-04 5.85196E-02 8.55842E-14 1.02006E-13
 -1       412 2.00480E+01 1.05563E-02 2.40565E-04 3.97564E-02 2.58660E-13-2.01885E-13
 -1       413 2.00242E+01 7.69287E-03 1.79533E-04 2.57556E-02 5.83681E-14 1.37938E-14
 -1       414 2.00082E+01 5.44784E-03 1.30436E-04 1.55754E-02-8.96074E-14 4.06295E-13
 -1       415 1.99981E+01 3.73158E-03 9.20320E-05 8.38072E-03-1.91629E-14 2.83564E-13
 -1       416 1.99920E+01 2.45145E-03 6.27468E-05 3.46248E-03 1.06971E-13 1.74576E-13
 -1       417 1.99890E+01 1.52077E-03 4.09624E-05 2.38673E-04-1.42903E-13-7.33277E-14
 -1       418 1.99879E+01 8.63022E-04 2.51663E-05-1.75545E-03 7.33956E-14-2.44998E-13
 -1       419 1.99881E+01 4.13161E-04 1.40215E-05-2.88168E-03-1.84492E-13-1.11625E-13
 -1       420 1.99890E+01 1.17397E-04 6.38730E-06-3.41455E-03-1.23060E-13 2.21246E-16
 -1       421 1.99904E+01-6.80056E-05 1.30972E-06-3.55640E-03-2.70882E-14-7.61644E-14
 -1       422 1.99920E+01-1.78404E-04-2.00040E-06-3.45072E-03-7.88797E-14 1.79460E-13
 -1       423 1.99937E+01-2.42767E-04-4.19227E-06-3.19318E-03 3.25413E-13 1.22866E-13
 -1       424 1.99952E+01-2.85794E-04-5.69197E-06-2.84001E-03-7.43083E-15 7.51795E-16
 -1       425 1.99966E+01-3.27096E-04-6.28793E-06-2.41474E-03-3.05941E-13 1.97762E-13
 -1       426 1.99977E+01-3.86250E-04-6.23624E-06-1.91623E-03-6.99591E-14 1.38244E-13
 -1       427 1.99987E+01-4.70145E-04-5.80215E-06-1.33123E-03-7.81542E-14 4.59571E-13
 -1       428 1.99992E+01-5.55125E-04-4.77833E-06-9.56506E-04 3.07159E-15 4.98675E-13
 -1       429 1.99998E+01-2.62619E-03-6.17822E-07-2.11449E-03 2.80258E-14-3.60740E-13
 -1       430 1.99995E+01-1.76831E-03-4.71398E-06-1.94942E-03-1.23141E-13-2.55564E-13
 -1       431 1.99993E+01-1.13402E-03-6.88437E-06-1.52118E-03-9.03506E-14 2.84241E-13
 -1       432 2.00000E+01-3.42983E-03 1.98406E-06-1.98387E-03 1.11215E-13-4.79172E-13
 -1       433 2.00003E+01-4.12823E-03 4.28412E-06-1.60164E-03 5.63227E-13-2.22863E-13
 -1       434 2.00004E+01-4.63557E-03 5.83957E-06-1.03472E-03 5.19154E-13 1.55041E-13
 -1       435 2.00005E+01-4.90213E-03 6.62862E-06-3.55825E-04-2.15546E-14 1.24330E-14
 -1       436 2.00005E+01-4.90197E-03 6.63536E-06 3.60762E-04 6.79810E-14 7.93141E-14
 -1       437 2.00004E+01-4.63481E-03 5.83254E-06 1.04027E-03-1.67421E-13-4.02382E-13
 -1       438 2.00003E+01-4.13686E-03 4.22884E-06 1.59983E-03-1.81786E-13-6.75028E-14
 -1       439 2.00000E+01-3.43850E-03 1.96808E-06 1.98536E-03 1.41000E-13 2.05956E-13
 -1       440 1.99998E+01-2.62004E-03-4.83799E-07 2.11865E-03 2.42927E-13-1.89522E-13
 -1       441 1.99994E+01-1.75950E-03-4.82664E-06 1.96198E-03-8.51911E-15-4.20225E-13
 -1       442 1.17153E+01-5.46276E+00-1.29317E-02 7.22550E+00-7.91034E-14 7.20604E-13
 -1       443 1.13934E+00-4.39188E+00-5.01818E-02 3.02169E-01-2.25207E-13 8.36470E-13
 -1       444 4.68558E+00-3.76537E+00 7.47088E-02 4.80462E+00-1.87017E-13 8.53775E-13
 -1       445 1.91634E+01-5.16011E+00-2.69032E-02 6.79260E+00 8.28365E-14 4.33618E-13
 -1       446 2.67645E+01-2.93504E+00 8.08294E-03 4.58678E+00 3.18218E-13-3.69704E-14
 -1       447 1.96315E+01 3.78766E+00-1.68399E-02-5.75159E-01-3.50661E-13-7.17672E-14
 -1       448 3.39364E+01 6.02691E+00-4.54569E-02-4.29726E-01 6.23307E-13-2.00409E-13
 -1       449 3.45885E+01 8.01973E+00-3.57875E-02-2.70725E-01 8.50486E-13-2.14457E-13
 -1       450 3.46838E+01 7.43101E+00-1.25885E-02 3.69645E-01 8.21399E-13-1.85477E-13
 -1       451 3.41699E+01 3.74108E+00 4.15442E-02-7.11124E-01 7.31464E-13-1.96690E-13
 -1       452 3.03674E+01-7.33134E-01 1.23981E-02-2.88465E+00 5.33285E-13-2.28054E-13
 -1       453 2.45459E+01-4.02098E+00-6.98883E-03-5.32098E+00 3.24185E-13-2.50550E-13
 -1       454 1.41395E+01-5.28323E+00-3.30485E-02-7.30226E+00 1.47965E-13-4.71281E-13
 -1       455 7.82550E+00-4.60843E+00 2.13600E-02-6.51834E+00-5.74540E-15-6.41348E-13
 -1       456 2.17508E+00-3.60732E+00 2.79942E-04-2.41548E+00-2.11636E-14-8.77354E-13
 -1       457 1.81647E+00-3.79879E+00-1.84097E-02 1.51221E+00 1.99667E-14-7.50427E-13
 -1       458 5.69010E+00-5.25593E+00-9.36472E-02 5.35149E+00-1.09357E-14-8.21218E-13
 -1       459 1.35478E+01-5.65359E+00-2.43076E-02 7.03306E+00 2.44527E-14-6.55007E-13
 -1       460 2.22926E+01-5.48592E+00 7.51589E-04 5.89054E+00 1.11161E-14-3.43565E-13
 -1       461 2.84943E+01-3.49775E+00-4.59391E-02 3.36738E+00-2.24924E-13-1.47049E-13
 -1       462 3.29852E+01 1.14602E+00-6.51202E-02-5.44663E-01-4.23411E-13 4.09672E-14
 -1       463 3.47977E+01 6.29249E+00-4.38690E-02-9.71891E-01-7.03493E-13 9.56873E-14
 -1       464 3.61849E+01 7.93153E+00 3.10222E-02 5.43034E-02-8.75910E-13 8.07930E-14
 -1       465 3.66026E+01 6.53731E+00 7.53810E-02 6.14858E-01-8.99975E-13 2.82968E-14
 -1       466 3.39898E+01 1.98569E+00-6.75044E-03 7.19863E-02-6.59979E-13-1.67671E-13
 -1       467 3.10906E+01-1.63242E+00 9.60114E-03-2.00568E+00-5.07316E-13-2.03448E-13
 -1       468 2.44384E+01-5.27178E+00-3.06547E-02-4.87767E+00-2.09902E-13-2.38559E-14
 -1       469 1.79616E+01-5.89278E+00 1.75953E-02-6.66722E+00-1.44454E-13 3.41251E-13
 -1       470 8.53835E+00-5.51451E+00-4.91789E-02-6.25535E+00 3.40006E-15 7.78780E-13
 -1       471 3.27105E+00-5.13332E+00-9.48317E-02-3.89548E+00-6.05210E-14 9.49837E-13
 -1       472 3.14951E+01 3.79552E-01-3.13286E-02 1.42709E+00 3.23627E-13-2.33272E-13
 -1       473 3.06787E+01 2.52401E+00-1.34096E-01-1.50349E+00 2.94903E-13-3.98521E-13
 -1       474 2.08994E+01-5.40231E+00 4.79854E-02-6.29431E+00-4.30628E-14-1.94990E-13
 -1       475 2.20759E+01 6.22871E-01 2.79214E-03 3.84580E-01 2.19090E-13-3.17632E-14
 -1       476 1.72163E+01 4.04357E+00-2.44570E-03-1.40098E-01-2.30579E-13-2.94302E-13
 -1       477 1.80022E+01 3.73628E+00-3.34112E-03-1.51362E-03-2.62691E-13-2.32819E-13
 -1       478 1.70256E+01 4.00257E+00-2.06353E-03-5.07131E-01-1.64756E-13-3.54155E-13
 -1       479 1.75527E+01 3.71242E+00-2.70321E-03-5.40822E-01-1.07341E-13-3.63080E-13
 -1       480 1.83207E+01 3.33829E+00-3.82143E-03-4.05520E-01-4.36569E-14-3.42888E-13
 -1       481 1.92228E+01 2.92454E+00-5.18697E-03-1.14041E-01 4.78227E-14-2.88648E-13
 -1       482 2.01517E+01 2.49271E+00-6.40521E-03 2.67681E-01 1.28041E-13-2.45624E-13
 -1       483 2.10832E+01 1.99149E+00-6.00015E-03 6.47126E-01 2.08924E-13-2.05498E-13
 -1       484 2.20304E+01 1.37021E-01 3.12225E-03 4.18293E-02 1.83023E-13-2.74943E-14
 -1       485 2.18272E+01 1.12771E+00 1.61638E-03 5.64457E-01-1.83778E-13 1.75202E-13
 -1       486 2.85070E+01-2.92844E+00-5.24171E-02 1.36611E+00-1.57803E-14-5.03174E-13
 -1       487 2.19563E+01 5.38242E-01 6.66846E-05 1.17664E+00-1.02435E-13 1.59769E-13
 -1       488 2.22873E+01-8.20046E-02-7.17674E-04 1.50551E+00-3.51894E-14 1.74015E-13
 -1       489 2.29313E+01-8.76757E-01-3.23847E-03 1.48007E+00-1.86331E-14 1.69345E-13
 -1       490 2.39699E+01-1.79797E+00-5.06461E-03 9.63363E-01 3.75089E-14 2.34234E-13
 -1       491 2.53394E+01-2.46547E+00-9.17104E-03-1.73204E-01 8.01268E-14 2.87202E-13
 -1       492 2.66564E+01-2.05337E+00-2.27562E-02-1.80573E+00 6.90613E-14 3.22981E-13
 -1       493 2.71008E+01 2.60927E-01-1.02823E-01-2.92190E+00-2.41064E-13 3.89980E-13
 -1       494 2.68786E+01 3.43560E+00-1.21165E-01-2.04409E+00-4.85736E-13 3.29365E-13
 -1       495 2.66927E+01 4.52565E+00-1.42165E-01 6.84597E-01-6.54990E-13 4.03592E-14
 -1       496 2.69571E+01 2.32916E+00-1.39563E-01 2.95727E+00-4.69985E-13-1.43332E-13
 -1       497 2.71528E+01-8.78539E-01-4.76891E-02 2.85099E+00-2.31279E-13-3.61862E-13
 -1       498 2.62152E+01-2.45463E+00-1.74244E-02 1.28642E+00-1.25019E-13-2.71248E-13
 -1       499 2.47997E+01-2.37562E+00-2.80211E-03-2.51379E-01 3.00161E-14-1.37910E-13
 -1       500 2.34854E+01-1.59222E+00-3.81403E-03-1.23326E+00-2.71277E-14-5.78127E-14
 -1       501 2.25108E+01-7.79697E-01-2.98535E-03-1.69518E+00 9.22232E-14-1.13062E-13
 -1       502 2.18619E+01-1.96788E-01-1.31572E-03-1.80158E+00 4.37251E-14-1.30685E-13
 -1       503 2.14331E+01 1.43297E-01-2.43985E-04-1.70861E+00 1.11445E-13-1.02977E-13
 -1       504 2.11360E+01 3.04420E-01 4.24459E-04-1.51829E+00 8.46305E-14-2.48525E-13
 -1       505 2.09143E+01 3.54753E-01 7.20598E-04-1.29279E+00 7.11008E-14-2.67541E-13
 -1       506 2.07374E+01 3.45038E-01 7.89698E-04-1.06747E+00 1.48341E-14-1.09090E-13
 -1       507 2.05908E+01 3.07436E-01 7.39588E-04-8.60710E-01-1.19049E-13-7.90318E-14
 -1       508 2.04676E+01 2.60320E-01 6.39320E-04-6.80491E-01 1.72826E-14 1.30825E-13
 -1       509 2.03646E+01 2.13242E-01 5.26983E-04-5.28774E-01-3.40297E-15-6.73224E-14
 -1       510 2.02795E+01 1.70601E-01 4.20907E-04-4.04269E-01-1.74853E-13-5.32949E-14
 -1       511 2.02103E+01 1.33991E-01 3.28641E-04-3.04137E-01 1.90549E-15-3.17927E-14
 -1       512 2.01551E+01 1.03582E-01 2.52037E-04-2.24975E-01-5.33632E-14 9.87111E-14
 -1       513 2.01119E+01 7.88964E-02 1.90291E-04-1.63362E-01 3.21318E-14 1.69630E-13
 -1       514 2.00786E+01 5.92052E-02 1.41535E-04-1.16122E-01-2.86843E-14 1.95029E-13
 -1       515 2.00535E+01 4.37312E-02 1.03614E-04-8.04511E-02-1.44856E-13 6.63564E-14
 -1       516 2.00349E+01 3.17391E-02 7.45096E-05-5.39465E-02-2.87435E-13-1.26091E-14
 -1       517 2.00215E+01 2.25726E-02 5.24537E-05-3.45980E-02 4.53268E-14 1.97534E-13
 -1       518 2.00120E+01 1.56657E-02 3.59785E-05-2.07557E-02 1.05997E-13 3.12520E-13
 -1       519 2.00056E+01 1.05421E-02 2.38685E-05-1.10875E-02 6.20316E-14 3.80834E-13
 -1       520 2.00013E+01 6.80825E-03 1.51252E-05-4.53238E-03 6.00911E-14 2.59762E-13
 -1       521 1.99987E+01 4.14285E-03 8.94532E-06-2.58085E-04 6.23442E-15 1.06575E-13
 -1       522 1.99973E+01 2.28625E-03 4.68835E-06 2.37887E-03 1.75287E-13 8.05331E-14
 -1       523 1.99966E+01 1.03059E-03 1.84586E-06 3.86749E-03 1.52704E-13 2.74172E-13
 -1       524 1.99965E+01 2.10520E-04 1.57311E-08 4.57195E-03-2.71204E-14 4.63146E-13
 -1       525 1.99966E+01-3.05210E-04-1.12515E-06 4.75644E-03-1.01828E-13 4.23805E-13
 -1       526 1.99970E+01-6.21354E-04-1.83054E-06 4.60551E-03 5.41036E-14 3.81207E-13
 -1       527 1.99975E+01-8.22875E-04-2.28860E-06 4.24080E-03-1.02039E-13 2.28646E-13
 -1       528 1.99980E+01-9.79403E-04-2.69367E-06 3.73148E-03-9.06986E-14 5.92364E-14
 -1       529 1.99985E+01-1.13829E-03-3.26174E-06 3.11673E-03-6.93593E-14 9.53712E-14
 -1       530 2.21814E+01-4.85964E-01-1.65185E-03 2.30635E-01 7.32016E-14-2.51940E-14
 -1       531 2.22659E+01-6.20000E-01-1.98770E-03 6.37460E-01 3.93539E-14-2.33550E-14
 -1       532 2.22450E+01-5.36467E-01-1.03414E-03 1.10642E+00-9.58836E-15-7.49148E-14
 -1       533 2.20526E+01-1.70744E-01 3.85761E-04 1.43736E+00 1.19340E-14-1.54916E-14
 -1       534 2.17073E+01 4.21847E-01 1.10484E-03 1.39539E+00 7.67956E-14 4.08628E-14
 -1       535 2.13566E+01 1.00404E+00 1.43847E-03 8.48915E-01 2.05853E-13 2.71169E-14
 -1       536 2.12105E+01 1.25665E+00 2.33918E-03-7.57044E-02 2.01835E-13-1.59706E-14
 -1       537 2.13742E+01 1.02033E+00 2.75877E-03-1.00663E+00 1.48202E-13-3.13621E-14
 -1       538 2.17445E+01 4.42257E-01 1.79222E-03-1.56597E+00 8.02165E-14-1.00803E-13
 -1       539 2.21103E+01-1.69649E-01 7.17615E-05-1.61039E+00 4.15681E-14-1.23895E-13
 -1       540 2.23094E+01-5.69689E-01-1.39766E-03-1.25446E+00-7.15205E-14-1.55263E-13
 -1       541 2.23067E+01-6.99202E-01-2.60913E-03-7.22425E-01 5.71873E-15-2.31883E-13
 -1       542 2.21521E+01-6.28640E-01-2.89656E-03-2.02510E-01 3.41173E-14 1.81197E-17
 -1       543 2.19151E+01-4.62690E-01-2.49345E-03 2.04131E-01 4.33868E-14 9.13391E-14
 -1       544 2.16498E+01-2.81980E-01-1.76713E-03 4.69670E-01 1.39917E-14 2.91142E-14
 -1       545 2.13886E+01-1.29727E-01-1.01366E-03 6.08205E-01 1.16077E-14-5.50914E-14
 -1       546 2.11474E+01-2.01362E-02-3.96408E-04 6.50211E-01 8.02570E-15-1.15117E-13
 -1       547 2.09326E+01 4.88147E-02 3.58560E-05 6.27631E-01-5.85793E-14-1.18677E-13
 -1       548 2.07461E+01 8.56585E-02 2.97572E-04 5.67272E-01-6.11238E-14-1.11215E-13
 -1       549 2.05874E+01 9.99651E-02 4.26972E-04 4.89020E-01-1.23374E-13-1.64600E-13
 -1       550 2.04547E+01 9.99453E-02 4.65217E-04 4.06299E-01-5.68048E-14-1.69143E-13
 -1       551 2.03458E+01 9.17712E-02 4.47300E-04 3.27364E-01-1.44607E-13-5.76924E-14
 -1       552 2.02579E+01 7.96924E-02 3.99271E-04 2.56703E-01-6.41923E-14 2.23219E-14
 -1       553 2.01882E+01 6.64292E-02 3.38679E-04 1.96243E-01-1.68313E-13-1.75796E-14
 -1       554 2.01340E+01 5.35938E-02 2.76384E-04 1.46293E-01 7.16552E-14 1.01425E-13
 -1       555 2.00926E+01 4.20431E-02 2.18504E-04 1.06207E-01 1.68815E-13 4.88928E-14
 -1       556 2.00616E+01 3.21467E-02 1.67949E-04 7.48563E-02 1.62280E-13 6.04651E-14
 -1       557 2.00388E+01 2.39745E-02 1.25688E-04 5.09192E-02-2.07325E-14 5.76640E-13
 -1       558 2.00226E+01 1.74251E-02 9.15262E-05 3.30715E-02-1.49522E-13 6.38530E-13
 -1       559 2.00113E+01 1.23113E-02 6.47119E-05 2.00901E-02 6.72873E-14 4.78129E-13
 -1       560 2.00038E+01 8.41382E-03 4.42081E-05 1.09037E-02 1.41042E-13 1.44525E-13
 -1       561 1.99990E+01 5.51389E-03 2.89205E-05 4.60892E-03 1.40919E-13 1.43975E-13
 -1       562 1.99962E+01 3.40994E-03 1.78154E-05 4.67113E-04 9.51694E-14 1.13055E-13
 -1       563 1.99948E+01 1.92533E-03 9.97288E-06-2.11032E-03 1.38527E-14 1.50348E-13
 -1       564 1.99943E+01 9.10563E-04 4.60612E-06-3.58071E-03-1.87170E-13 3.92271E-14
 -1       565 1.99945E+01 2.42070E-04 1.06187E-06-4.29037E-03-1.49158E-13 1.10608E-14
 -1       566 1.99950E+01-1.80793E-04-1.20090E-06-4.49374E-03-2.83061E-14 1.09870E-13
 -1       567 1.99957E+01-4.39690E-04-2.62161E-06-4.37032E-03 1.90041E-13-3.09842E-14
 -1       568 1.99965E+01-6.01005E-04-3.68165E-06-4.03952E-03 3.99327E-14 4.32755E-13
 -1       569 1.99972E+01-7.23353E-04-5.59338E-06-3.57758E-03-2.57269E-13 5.76454E-13
 -1       570 1.99980E+01-8.51291E-04-6.73690E-06-3.01171E-03-3.64576E-13 6.88256E-13
 -1       571 1.99986E+01-9.98330E-04-5.03532E-06-2.34038E-03-1.65543E-13 6.51096E-13
 -1       572 2.00006E+01-3.22250E-03 1.51058E-06-2.36326E-03 4.88263E-13-1.69814E-13
 -1       573 2.00009E+01-3.68802E-03 2.46968E-06-1.72681E-03 6.01850E-13-4.46200E-14
 -1       574 1.99995E+01-1.92843E-03-1.52026E-06-2.78589E-03-1.34189E-13-2.83693E-13
 -1       575 2.00001E+01-2.61684E-03-1.23698E-06-2.72747E-03-2.07141E-13-1.29368E-13
 -1       576 2.00011E+01-3.98229E-03 2.89958E-06-9.08663E-04 3.70901E-13-2.24433E-13
 -1       577 2.00012E+01-4.08356E-03 3.01511E-06 1.89123E-06 2.76955E-13-2.31708E-14
 -1       578 2.00011E+01-3.98461E-03 2.86297E-06 9.13139E-04-1.21782E-13-3.81318E-13
 -1       579 2.00009E+01-3.69847E-03 2.41002E-06 1.72026E-03 3.23292E-14-9.04442E-14
 -1       580 2.00006E+01-3.23656E-03 1.34670E-06 2.36242E-03 8.14107E-14-9.77780E-14
 -1       581 2.00001E+01-2.62187E-03-2.99701E-08 2.73230E-03-5.90018E-14 6.49547E-14
 -1       582 1.99995E+01-1.92104E-03-1.99610E-06 2.77548E-03-1.97047E-13-4.89704E-13
 -1       583 5.71504E+00-9.56824E-01 1.93507E-01 1.83659E+00-9.48018E-14 7.60045E-13
 -1       584 1.81949E+01-5.32237E+00 7.55783E-02 6.78588E+00-4.48794E-13 2.12695E-13
 -1       585 2.20790E+01-2.20089E-01-8.66864E-06 9.36972E-03 1.42858E-13-2.09229E-14
 -1       586 5.43911E+00-1.38777E+00 1.87907E-01-2.06668E+00 5.55476E-14 6.33077E-13
 -1       587 1.10106E+01-3.56244E+00 1.27040E-01 6.59872E+00-3.10890E-13 5.27592E-13
 -1       588 1.56489E+01-4.82469E+00 1.00577E-01-6.52201E+00 2.85591E-13 3.01429E-13
 -1       589 3.02169E+01 6.32315E+00-1.90164E-01 1.17467E+00-7.96155E-13 4.41869E-14
 -1       590 2.95004E+01-2.90467E+00-7.56547E-02-5.54938E-01-3.41428E-14 2.05849E-13
 -1       591 2.00580E+01-5.35363E+00 7.63258E-02 5.95457E+00 2.58342E-13-1.96491E-13
 -1       592 3.01296E+01 1.60151E-01-1.04733E-01 6.72854E-01 3.80734E-13 7.43086E-14
 -1       593 1.68871E+01 4.12992E+00-2.05919E-03-3.42603E-01-1.89309E-13-3.40797E-13
 -1       594 3.04827E+01 4.53983E+00-1.46753E-01 1.64396E+00 6.54768E-13 1.02154E-13
 -1       595 2.97187E+01 6.27396E+00-1.81314E-01-1.39122E+00 6.11899E-13-3.98293E-13
 -1       596 1.18875E+01-3.93773E+00 1.10933E-01 6.49438E+00 2.17867E-13-6.15265E-13
 -1       597 2.90028E+01 7.12294E+00-1.99689E-01 3.17293E-01 7.01744E-13-6.92103E-14
 -1       598 2.77595E+01-3.60155E+00-5.23327E-02-2.14762E+00 1.45677E-13 2.77278E-14
 -1       599 1.43949E+01-4.02525E+00 1.31825E-01-7.03497E+00-2.57176E-13-3.69493E-13
 -1       600 7.31327E+00-1.84389E+00 1.58936E-01-4.89087E+00-2.42070E-13-7.14317E-13
 -1       601 4.46299E+00-1.05217E+00 1.68432E-01-3.36454E-01-5.17785E-14-7.38742E-13
 -1       602 2.98979E+01 2.76068E+00-1.47534E-01-2.59997E+00-4.61332E-13 2.73684E-13
 -1       603 6.72089E+00-2.03101E+00 1.57281E-01 4.22110E+00 9.35085E-14-7.12846E-13
 -1       604 2.61587E+01-5.33855E+00-5.38664E-03 3.21037E+00 1.74423E-13-2.24820E-15
 -1       605 3.10972E+01 3.56039E+00-1.42351E-01 2.52073E+00-6.28338E-13-1.69129E-13
 -1       606 3.01480E+01 6.04568E+00-1.90135E-01-1.16876E+00-7.55923E-13 1.98248E-13
 -1       607 3.01368E+01-1.41524E+00-1.11306E-01 1.62962E+00-3.96124E-13-2.22863E-13
 -1       608 2.79569E+01-4.67423E+00-1.66278E-02-1.40172E+00-1.61763E-13-4.04302E-13
 -1       609 2.28777E+01-5.78430E+00 3.92106E-02-4.70923E+00 1.36093E-13-1.50982E-13
 -1       610 9.01063E+00-3.07249E+00 1.38596E-01-5.45258E+00 2.77917E-13 7.24268E-13
 -1       611 2.15095E+01 1.96360E+00-5.39980E-03-1.75312E-01-3.00108E-13 1.46232E-13
 -1       612 2.22075E+01 1.15810E+00-3.24439E-03 9.09145E-01 2.77335E-13-1.06460E-14
 -1       613 2.45121E+01-5.19746E+00 1.40904E-02 4.42818E+00-1.92651E-13-4.37803E-13
 -1       614 1.91420E+01 3.24363E+00-4.82249E-03 5.10774E-03-2.78143E-13-1.16627E-13
 -1       615 9.33963E+00-1.17714E+00 1.54958E-01 4.33506E+00-2.25308E-13 7.23914E-13
 -1       616 2.49799E+01-4.90855E+00 1.70432E-02-3.77884E+00-1.08181E-13-1.21049E-14
 -1       617 2.88104E+01-6.35428E-01-9.71975E-02-1.18389E+00 4.91829E-14-5.67796E-13
 -1       618 1.99988E+01-1.26192E-03-3.78769E-06 2.63040E-03-1.70100E-13 5.87427E-14
 -1       619 1.80163E+01 2.79659E+00-1.09124E-03-8.86035E-01-8.58952E-14-2.90635E-13
 -1       620 1.71574E+01 3.26420E+00-8.00752E-04-8.51796E-01-1.47669E-13-3.29320E-13
 -1       621 2.00263E+01 1.80265E+00-1.27615E-03-3.30709E-01 5.94486E-14-1.86605E-13
 -1       622 2.09172E+01 1.34404E+00-1.79289E-03 3.28147E-02 1.53545E-13-1.63849E-13
 -1       623 2.16424E+01 6.61205E-01 2.62466E-03 1.06226E-01 1.82515E-13-1.21391E-13
 -1       624 1.16028E+01-1.77738E+00 1.32704E-01 5.14705E+00 2.02983E-13-5.39624E-13
 -1       625 2.05071E+01 1.78873E+00 7.04392E-04 6.59837E-01-1.91274E-13-3.00717E-16
 -1       626 2.07345E+01 6.38024E-01 2.95569E-03 1.63845E+00-7.61000E-14 2.04625E-15
 -1       627 2.11257E+01-3.12445E-01 9.22252E-04 2.10161E+00-2.48064E-14-1.52754E-14
 -1       628 2.20170E+01-1.57052E+00 2.53159E-03 2.30794E+00 7.06947E-14 3.26599E-14
 -1       629 2.36772E+01-3.03457E+00 4.45324E-03 1.98928E+00 1.32376E-13 1.28172E-13
 -1       630 2.60937E+01-3.94028E+00-4.49621E-03 7.92576E-01 1.78724E-13 2.02388E-13
 -1       631 2.51177E+01-3.93224E+00 7.35466E-03-1.26045E+00 6.26122E-14-9.73952E-14
 -1       632 2.28486E+01-2.71050E+00-9.41034E-03-2.16037E+00 8.56051E-14 2.50705E-14
 -1       633 2.14110E+01-1.37288E+00 4.92029E-04-2.40655E+00-2.33455E-14 5.07384E-14
 -1       634 2.06761E+01-4.20070E-01 6.48071E-04-2.29666E+00 4.38216E-14 8.19455E-14
 -1       635 2.03329E+01 1.55297E-01 1.63410E-04-2.05872E+00 1.33032E-13 1.18746E-13
 -1       636 2.01976E+01 4.45775E-01 2.53082E-04-1.78488E+00 3.07786E-14 3.15487E-14
 -1       637 2.01555E+01 5.54829E-01 2.97376E-04-1.51178E+00-4.49364E-14-2.07298E-14
 -1       638 2.01471E+01 5.60342E-01 2.99246E-04-1.25584E+00 7.61386E-14-1.60604E-13
 -1       639 2.01453E+01 5.13450E-01 2.70261E-04-1.02516E+00 3.63715E-14-7.74699E-14
 -1       640 2.01401E+01 4.44887E-01 2.29419E-04-8.23305E-01 8.84602E-15 5.58040E-14
 -1       641 2.01296E+01 3.71752E-01 1.87707E-04-6.50943E-01-1.47811E-13 2.26688E-13
 -1       642 2.01150E+01 3.02742E-01 1.49174E-04-5.06845E-01-7.31906E-14 1.60141E-13
 -1       643 2.00984E+01 2.41681E-01 1.15886E-04-3.88606E-01-7.60096E-14 2.20071E-13
 -1       644 2.00815E+01 1.89732E-01 8.84379E-05-2.93223E-01 6.08262E-14 1.54578E-13
 -1       645 2.00657E+01 1.46699E-01 6.65449E-05-2.17496E-01 3.99056E-14 9.97597E-14
 -1       646 2.00516E+01 1.11758E-01 4.95117E-05-1.58296E-01 4.92192E-14 1.58059E-13
 -1       647 2.00396E+01 8.38541E-02 3.64111E-05-1.12724E-01-8.15148E-14 3.19704E-13
 -1       648 2.00297E+01 6.18998E-02 2.64071E-05-7.81911E-02-8.72896E-14 4.28714E-13
 -1       649 2.00217E+01 4.48704E-02 1.87389E-05-5.24568E-02-2.62348E-13 5.42170E-13
 -1       650 2.00155E+01 3.18475E-02 1.29329E-05-3.36263E-02-8.91898E-14 4.36972E-13
 -1       651 2.00107E+01 2.20360E-02 8.63726E-06-2.01309E-02 1.32075E-15-1.92891E-14
 -1       652 2.00071E+01 1.47641E-02 5.52263E-06-1.06933E-02-1.14855E-13-1.39629E-13
 -1       653 2.00045E+01 9.47338E-03 3.31294E-06-4.28961E-03-8.73709E-15-1.49909E-13
 -1       654 2.00026E+01 5.70518E-03 1.78455E-06-1.12678E-04 7.86517E-14-1.69872E-13
 -1       655 2.00013E+01 3.08749E-03 7.61175E-07 2.46330E-03 2.40085E-13-1.10384E-13
 -1       656 2.00004E+01 1.32139E-03 1.01373E-07 3.91444E-03 1.49500E-13-3.05877E-13
 -1       657 1.99999E+01 1.68403E-04-3.06264E-07 4.59526E-03-6.80902E-14-2.87478E-13
 -1       658 1.99996E+01-5.61324E-04-5.72370E-07 4.76261E-03-9.80065E-15-5.35295E-14
 -1       659 1.99994E+01-1.01949E-03-6.66168E-07 4.59543E-03-8.10750E-14-1.65513E-14
 -1       660 1.99993E+01-1.32551E-03-1.30782E-06 4.21403E-03-2.13581E-13 1.09392E-13
 -1       661 1.99994E+01-1.59210E-03 5.60554E-07 3.68020E-03-8.21187E-14-4.45254E-15
 -1       662 2.28865E+01-1.08193E+00-1.28738E-03 7.55140E-01 3.98989E-14 9.91363E-14
 -1       663 1.99994E+01-1.64420E-03-1.96928E-07-3.48207E-03-3.73635E-13-5.77607E-13
 -1       664 2.25228E+01-9.47555E-01-6.35402E-04 2.14468E-01 3.95361E-14 8.98470E-14
 -1       665 2.30074E+01 7.55099E-02-2.95999E-03 1.73285E+00 1.20183E-14 8.66201E-14
 -1       666 2.26592E+01 1.23839E+00-7.83493E-03 1.50715E+00 1.66285E-13 1.08615E-14
 -1       667 2.23328E+01 2.11425E+00-8.25398E-03 5.63787E-01 2.33447E-13 2.82079E-14
 -1       668 2.23201E+01 2.13719E+00-4.92494E-03-7.18361E-01 2.24147E-13-4.58425E-14
 -1       669 2.26377E+01 1.27201E+00-4.95814E-03-1.67140E+00 1.70289E-13-4.07237E-14
 -1       670 2.29760E+01 9.09909E-02-4.10801E-03-1.91587E+00 7.78043E-14-7.77973E-14
 -1       671 2.30564E+01-8.13090E-01-1.43801E-03-1.52149E+00 3.95823E-14-1.61822E-13
 -1       672 2.28234E+01-1.20344E+00-1.37458E-03-8.46619E-01-5.30500E-14-1.12604E-13
 -1       673 2.24007E+01-1.16945E+00-1.30332E-03-1.85105E-01-1.15455E-13-6.43974E-14
 -1       674 2.19303E+01-9.10259E-01-1.14116E-03 3.19622E-01-3.35627E-14 5.72904E-14
 -1       675 2.15023E+01-5.90837E-01-8.44377E-04 6.39447E-01-2.01471E-14 1.66005E-13
 -1       676 2.11519E+01-3.05286E-01-5.12006E-04 8.00947E-01 9.27833E-14 1.46296E-13
 -1       677 2.08802E+01-8.99076E-02-2.39879E-04 8.46371E-01 4.30085E-15 6.67601E-14
 -1       678 2.06743E+01 5.27982E-02-5.14101E-05 8.15540E-01 6.13983E-14 7.28156E-14
 -1       679 2.05186E+01 1.35118E-01 6.56634E-05 7.40095E-01-1.74765E-14-3.30324E-14
 -1       680 2.03999E+01 1.73142E-01 1.28804E-04 6.43024E-01-7.94841E-14 3.71023E-14
 -1       681 2.03083E+01 1.81639E-01 1.54076E-04 5.39907E-01-1.20727E-13-5.27507E-14
 -1       682 2.02369E+01 1.72263E-01 1.54993E-04 4.40537E-01-2.18929E-13-3.95471E-14
 -1       683 2.01807E+01 1.53383E-01 1.42270E-04 3.50474E-01-5.18154E-14-1.35883E-13
 -1       684 2.01365E+01 1.30597E-01 1.23115E-04 2.72345E-01-8.31833E-14-6.77845E-14
 -1       685 2.01019E+01 1.07403E-01 1.02049E-04 2.06835E-01-3.57916E-14-1.26565E-13
 -1       686 2.00748E+01 8.58071E-02 8.18734E-05 1.53441E-01 3.34115E-14 1.35021E-13
 -1       687 2.00539E+01 6.68127E-02 6.38822E-05 1.10989E-01 1.00857E-13 3.16568E-13
 -1       688 2.00379E+01 5.07794E-02 4.86012E-05 7.80023E-02-1.27674E-13 4.12855E-13
 -1       689 2.00259E+01 3.76761E-02 3.59634E-05 5.29296E-02 4.11067E-15 5.93462E-14
 -1       690 2.00170E+01 2.72540E-02 2.58792E-05 3.42943E-02 1.31352E-13 1.73500E-13
 -1       691 2.00105E+01 1.91634E-02 1.80486E-05 2.07703E-02 2.01020E-13 4.58608E-14
 -1       692 2.00060E+01 1.30273E-02 1.21222E-05 1.12151E-02 1.82223E-13 4.83278E-14
 -1       693 2.00028E+01 8.48169E-03 7.75330E-06 4.67480E-03 2.94105E-14 2.46422E-13
 -1       694 2.00008E+01 5.19725E-03 4.61877E-06 3.74546E-04-3.24147E-14 3.17931E-13
 -1       695 1.99995E+01 2.88847E-03 2.43540E-06-2.29990E-03-1.01918E-13 3.65941E-13
 -1       696 1.99988E+01 1.31516E-03 9.61734E-07-3.82377E-03 4.02657E-14 2.92225E-13
 -1       697 1.99984E+01 2.79461E-04 1.13922E-08-4.55541E-03-6.62389E-14-4.57628E-15
 -1       698 1.99983E+01-3.79613E-04-5.72376E-07-4.75694E-03 2.92163E-13-1.97268E-13
 -1       699 1.99984E+01-7.92687E-04-1.05523E-06-4.61306E-03-1.04323E-13-2.61874E-13
 -1       700 1.99986E+01-1.06828E-03-9.71195E-07-4.24899E-03-1.62573E-13-1.85377E-13
 -1       701 1.99990E+01-1.34634E-03-1.07314E-06-3.90078E-03-2.36093E-13-4.66788E-13
 -1       702 2.20586E+01-5.02540E+00 3.36895E-02 4.77653E+00-3.84026E-13-3.54505E-13
 -1       703 2.00021E+01-3.41179E-03 1.03409E-06-5.38116E-04 5.10532E-13-1.88509E-13
 -1       704 1.99994E+01-1.75121E-03 1.72851E-08 3.27562E-03-1.83999E-13-3.42556E-13
 -1       705 2.00014E+01-2.95952E-03 8.00957E-07-2.44139E-03 2.22536E-13 3.68151E-14
 -1       706 2.00021E+01-3.41489E-03 8.92798E-07 5.38489E-04 2.72870E-13-6.49554E-13
 -1       707 2.00018E+01-3.25834E-03 1.10715E-06-1.56400E-03 3.65156E-13-9.08304E-15
 -1       708 2.00018E+01-3.27033E-03 1.00239E-06 1.55030E-03 2.09468E-13-3.15918E-13
 -1       709 2.00014E+01-2.97606E-03 9.81621E-07 2.43504E-03 1.40264E-13-3.57208E-14
 -1       710 2.00007E+01-2.55218E-03 1.51056E-07 3.08437E-03 6.90158E-14-3.37792E-13
 -1       711 1.66868E+01-3.84345E+00 8.49675E-02 6.16170E+00-3.73982E-13 2.21351E-13
 -1       712 8.39512E+00 1.68101E-01 1.49255E-01-4.91631E-01 2.66007E-14 4.95645E-13
 -1       713 2.78785E+01-2.22732E+00-7.39118E-02 2.96355E-01 7.65854E-14 2.58536E-13
 -1       714 2.21421E+01-5.39580E-01-5.06705E-04-1.00486E-01 6.81076E-14 1.89755E-14
 -1       715 2.30921E+01-7.70993E-01-1.29065E-03 1.36231E+00-4.89235E-15 6.75700E-14
 -1       716 2.18394E+01 5.20575E-03-3.73041E-05-1.38383E-01 1.34791E-13-6.21775E-14
 -1       717 2.01578E+01-4.59065E+00 6.01988E-02-5.74290E+00-2.80300E-13-8.59347E-14
 -1       718 2.62833E+01-4.29673E+00-1.46470E-02 1.85516E+00-1.82834E-13-5.13655E-13
 -1       719 2.01560E+01-4.30203E+00 7.69713E-02-4.87406E+00 2.26361E-13-6.31439E-14
 -1       720 2.71923E+01 3.07308E+00-1.13631E-01-2.35402E+00 2.66863E-13-4.18200E-13
 -1       721 1.90264E+01 2.28689E+00-1.69141E-03-6.83483E-01-2.94770E-14-2.50975E-13
 -1       722 1.27694E+01-1.56918E+00 1.28591E-01-5.55375E+00-3.16063E-13-4.66821E-13
 -1       723 1.76760E+01-3.71441E+00 8.98946E-02 5.68113E+00 2.90167E-13-2.82982E-13
 -1       724 1.73495E+01 3.36327E+00-1.47804E-03 2.58489E-01-2.07708E-13-2.37535E-13
 -1       725 8.11967E+00 2.29761E-01 1.49117E-01-2.36073E+00-1.74100E-13-6.27422E-13
 -1       726 2.79654E+01 1.58604E+00-1.05034E-01 2.11648E+00 3.85105E-13 3.11393E-13
 -1       727 8.84878E+00 4.57788E-01 1.51471E-01 1.85460E+00-1.00241E-14-5.72591E-13
 -1       728 2.61464E+01 5.46533E+00-1.42639E-01-8.88816E-01 4.60090E-13-1.96924E-13
 -1       729 2.68997E+01 5.07784E+00-1.37408E-01 1.55923E+00 5.41941E-13 4.84664E-14
 -1       730 2.71464E+01-3.51572E+00-3.24104E-02 5.77906E-01-7.10838E-14-1.49009E-13
 -1       731 1.84588E+01 2.85777E+00-3.32316E-03 5.16671E-01-2.20550E-13-1.80549E-13
 -1       732 1.66674E+01 3.57278E+00-7.91609E-04-5.72931E-01-1.67015E-13-3.39439E-13
 -1       733 1.73127E+01-2.71533E+00 6.38805E-02-5.46371E+00-3.26636E-13-2.24265E-13
 -1       734 2.00007E+01-2.52896E-03 5.74695E-07-3.07845E-03 3.04441E-15 5.41922E-13
 -1       735 9.60115E+00-8.46796E-01 1.32277E-01-3.56626E+00 1.04880E-13 5.67733E-13
 -1       736 2.64552E+01-3.75784E+00-1.72779E-02-1.24328E+00-5.61877E-14 2.22735E-13
 -1       737 2.48426E+01 4.69541E+00-7.78281E-02 4.32735E-01 4.34479E-13-4.57267E-14
 -1       738 1.38198E+01-1.83198E+00 9.74261E-02 5.16848E+00-2.65322E-13 4.27446E-13
 -1       739 9.81423E+00 2.34001E-01 1.12699E-01 1.95708E+00-3.19007E-14 6.14606E-13
 -1       740 1.50758E+01-2.93056E+00 1.04082E-01-5.48668E+00 3.16865E-13 4.46875E-13
 -1       741 1.67181E+01 3.61818E+00-6.48324E-04-1.48595E-01-1.74163E-13-2.79266E-13
 -1       742 2.70566E+01-2.57473E+00-4.49166E-02-4.23483E-01-4.42753E-14-4.47163E-13
 -1       743 2.26068E+01-4.47997E+00 5.76240E-02 4.02128E+00 2.16240E-13-5.04180E-14
 -1       744 2.08322E+01 7.29339E-01-1.68046E-03-5.03483E-01 5.18524E-14-9.04011E-14
 -1       745 1.91336E+01 7.41323E-01-2.59793E-03 2.09129E+00-3.29388E-14-1.11212E-13
 -1       746 1.93700E+01-4.56055E-01 7.19643E-03 2.88181E+00 5.41479E-14-1.01393E-13
 -1       747 2.03135E+01-2.15935E+00 3.07016E-02 3.62092E+00 1.71814E-13-7.23566E-14
 -1       748 1.87156E+01 1.87492E+00-1.06985E-03 1.27560E+00-1.22711E-13-1.64195E-13
 -1       749 1.96849E+01-1.81813E+00 1.06468E-02-3.43433E+00 6.22881E-14 5.63802E-14
 -1       750 1.90058E+01-5.41891E-01 3.54104E-03-2.85652E+00 1.32513E-13 1.68816E-13
 -1       751 1.89180E+01 2.22248E-01 1.50095E-03-2.32703E+00 5.73298E-15 1.51937E-13
 -1       752 1.90374E+01 6.12153E-01 5.18336E-04-1.91255E+00 5.92211E-14 5.34976E-14
 -1       753 1.92262E+01 7.69208E-01 1.93432E-04-1.58047E+00-3.58112E-16 7.18347E-14
 -1       754 1.94171E+01 7.89442E-01 1.21685E-04-1.30585E+00-6.87057E-14 2.34617E-13
 -1       755 1.95816E+01 7.36515E-01 8.94102E-05-1.07273E+00 1.85458E-13 1.33818E-13
 -1       756 1.97119E+01 6.49845E-01 6.89926E-05-8.72632E-01-1.94495E-14 1.33943E-13
 -1       757 1.98097E+01 5.52593E-01 5.57488E-05-7.01215E-01-3.98525E-14 6.04280E-14
 -1       758 1.98800E+01 4.57536E-01 4.36550E-05-5.55794E-01-1.66990E-13 1.06989E-13
 -1       759 1.99288E+01 3.71025E-01 3.24979E-05-4.34102E-01-3.62477E-14 1.27018E-13
 -1       760 1.99617E+01 2.95652E-01 2.31199E-05-3.33832E-01 3.33435E-15 1.52590E-13
 -1       761 1.99830E+01 2.31916E-01 1.60785E-05-2.52523E-01-3.89295E-14 1.73256E-13
 -1       762 1.99963E+01 1.79210E-01 1.13565E-05-1.87643E-01 1.62086E-13 3.11659E-13
 -1       763 2.00041E+01 1.36416E-01 8.33885E-06-1.36699E-01-6.65613E-14 1.35809E-13
 -1       764 2.00082E+01 1.02226E-01 6.45168E-06-9.73421E-02-1.36882E-13 3.12339E-14
 -1       765 2.00099E+01 7.53193E-02 4.84424E-06-6.74397E-02-1.91682E-13 3.11689E-14
 -1       766 2.00102E+01 5.44508E-02 3.34995E-06-4.51148E-02-2.81441E-13 7.41048E-14
 -1       767 2.00097E+01 3.85011E-02 2.18273E-06-2.87654E-02-3.45674E-13-2.11061E-13
 -1       768 2.00086E+01 2.65013E-02 1.34611E-06-1.70504E-02-1.14928E-13-1.51136E-13
 -1       769 2.00074E+01 1.76277E-02 7.69834E-07-8.86753E-03-1.95457E-13-3.13441E-13
 -1       770 2.00062E+01 1.11917E-02 3.81840E-07-3.32788E-03 7.23215E-14-2.21172E-13
 -1       771 2.00050E+01 6.62551E-03 1.27750E-07 2.71466E-04 1.05615E-13-1.67315E-13
 -1       772 2.00040E+01 3.46749E-03-2.64830E-08 2.47618E-03 8.74233E-14-3.35742E-13
 -1       773 2.00030E+01 1.34588E-03-1.18125E-07 3.70147E-03 1.61534E-13-1.50363E-13
 -1       774 2.00022E+01-3.63371E-05-1.67936E-07 4.25603E-03 1.58766E-13-2.97512E-13
 -1       775 2.00016E+01-9.15737E-04-1.38441E-07 4.36295E-03 5.11559E-14-5.69712E-13
 -1       776 2.00010E+01-1.48243E-03-2.44016E-07 4.18038E-03-1.95448E-13-3.35778E-13
 -1       777 2.00005E+01-1.89337E-03-2.38561E-06 3.80916E-03-2.09234E-13-3.60979E-13
 -1       778 2.30053E+01-1.55204E+00 8.23675E-04-2.61315E-02 2.16001E-14 1.08219E-13
 -1       779 2.37770E+01 2.66521E+00-3.22973E-02 1.45385E+00 2.41722E-13 1.13953E-13
 -1       780 2.41622E+01 7.56461E-01-2.88767E-02 2.01108E+00 1.34351E-13 1.41679E-13
 -1       781 2.37177E+01 2.75320E+00-4.35656E-02-1.63196E+00 1.61763E-13-1.70240E-13
 -1       782 2.41516E+01 7.97350E-01-1.77502E-02-2.18484E+00 1.42119E-13-1.83481E-13
 -1       783 2.41437E+01-9.40482E-01-1.00263E-02-1.70819E+00 1.43758E-13-2.43109E-13
 -1       784 2.36440E+01-1.77633E+00-4.05795E-03-8.11785E-01-9.90965E-14-2.17448E-13
 -1       785 2.28620E+01-1.83676E+00-1.02289E-03 3.58729E-02-2.04950E-13-4.23183E-14
 -1       786 2.20626E+01-1.47468E+00-4.65528E-04 6.19592E-01-5.91616E-14-6.25417E-14
 -1       787 2.13974E+01-9.86754E-01-3.80209E-04 9.41231E-01-1.04486E-13-6.31587E-14
 -1       788 2.09069E+01-5.37840E-01-2.10732E-04 1.06883E+00-3.02380E-14-9.21919E-14
 -1       789 2.05730E+01-1.92224E-01-8.02877E-05 1.07179E+00 6.54073E-14 1.53919E-13
 -1       790 2.03578E+01 4.28785E-02-9.00698E-06 1.00205E+00-3.29308E-14 1.69120E-13
 -1       791 2.02247E+01 1.84277E-01 2.81001E-05 8.94379E-01-4.50861E-14 3.08914E-13
 -1       792 2.01448E+01 2.55349E-01 4.66889E-05 7.71221E-01 1.76920E-14 3.45387E-13
 -1       793 2.00976E+01 2.78138E-01 5.26385E-05 6.46743E-01-3.62037E-14 2.70322E-13
 -1       794 2.00697E+01 2.70543E-01 5.06641E-05 5.29475E-01-2.32545E-14 2.52295E-14
 -1       795 2.00529E+01 2.45766E-01 4.48114E-05 4.24100E-01-1.53100E-13-2.17346E-13
 -1       796 2.00422E+01 2.12915E-01 3.78497E-05 3.32742E-01-4.11134E-14-1.48372E-13
 -1       797 2.00347E+01 1.77911E-01 3.05369E-05 2.55811E-01-1.57375E-13-1.83350E-13
 -1       798 2.00290E+01 1.44323E-01 2.40762E-05 1.92629E-01-8.64693E-14-1.17793E-13
 -1       799 2.00243E+01 1.14094E-01 1.88173E-05 1.41895E-01-3.26071E-14 4.96489E-14
 -1       800 2.00203E+01 8.80804E-02 1.47000E-05 1.02002E-01-9.17551E-14 1.58114E-13
 -1       801 2.00167E+01 6.64543E-02 1.10043E-05 7.12630E-02 8.69625E-14 1.97016E-13
 -1       802 2.00136E+01 4.89762E-02 7.98940E-06 4.80510E-02 6.95859E-14 1.82964E-13
 -1       803 2.00109E+01 3.51929E-02 5.59677E-06 3.08915E-02 1.95830E-13 5.00739E-14
 -1       804 2.00086E+01 2.45692E-02 3.76307E-06 1.84982E-02 1.72575E-13-1.05772E-14
 -1       805 2.00066E+01 1.65632E-02 2.41276E-06 9.78166E-03-8.95254E-14 2.62872E-13
 -1       806 2.00050E+01 1.06682E-02 1.44639E-06 3.84319E-03-1.38038E-13 4.23470E-13
 -1       807 2.00037E+01 6.43388E-03 7.72212E-07-4.02368E-05-1.59109E-14 2.78642E-13
 -1       808 2.00027E+01 3.47452E-03 3.15125E-07-2.43732E-03 1.28623E-14-8.26254E-14
 -1       809 2.00018E+01 1.46826E-03 4.89432E-09-3.78527E-03 6.20533E-14-2.56514E-13
 -1       810 2.00012E+01 1.51318E-04-1.53128E-07-4.41182E-03 1.18612E-13-2.40607E-13
 -1       811 2.00007E+01-6.90572E-04-2.77956E-07-4.55561E-03 4.62058E-14 2.30545E-13
 -1       812 2.00003E+01-1.22863E-03 4.83509E-07-4.38384E-03-1.64687E-13 9.95863E-14
 -1       813 2.00029E+01-2.79018E-03-1.21514E-07 1.16566E-03 2.61892E-13-3.49739E-13
 -1       814 2.00017E+01-2.35832E-03-7.17157E-07 3.13153E-03 1.33559E-13-2.95688E-13
 -1       815 2.00031E+01-2.83778E-03 8.22013E-08-1.36247E-05 1.13349E-13-7.43087E-13
 -1       816 2.55922E+01 2.49878E+00-7.30416E-02 2.12572E+00 2.85948E-13 1.88119E-13
 -1       817 2.65956E+01-7.78466E-01-4.75592E-02 1.64306E+00 7.95267E-14 2.84835E-13
 -1       818 1.99397E+01-3.72400E+00 3.15839E-02 4.64640E+00-2.61150E-13-2.75709E-13
 -1       819 2.50111E+01 3.41094E+00-8.19387E-02-1.79370E+00 2.43718E-13-1.72172E-13
 -1       820 2.22631E+01-1.01356E+00 1.73632E-04-4.34572E-01-5.85585E-15 8.56727E-14
 -1       821 2.00025E+01-2.63140E-03 4.94334E-07 2.24549E-03 2.73222E-13-1.89771E-13
 -1       822 2.35520E+01 3.53388E+00-3.09989E-02-5.06572E-02 3.31324E-13-5.06817E-14
 -1       823 2.14317E+01 3.02952E-01 1.08284E-04-3.03533E-01 7.95661E-14-4.75250E-14
 -1       824 1.21177E+01 4.64159E-01 7.80442E-02-3.38090E+00-2.35984E-13-4.86059E-13
 -1       825 1.23658E+01-4.11574E-02 7.47451E-02 3.54630E+00 9.71168E-14-4.17756E-13
 -1       826 1.07422E+01 1.38481E+00 8.25360E-02-5.83243E-01-1.21409E-13-4.88155E-13
 -1       827 2.34845E+01-4.35136E+00 1.10860E-02-3.49065E+00-2.54552E-13 2.71304E-14
 -1       828 1.63113E+01-1.71650E+00 6.78563E-02 4.70237E+00 1.89699E-13-3.34292E-13
 -1       829 2.40581E+01-4.17100E+00 9.34959E-03 2.33173E+00-2.61065E-13-2.90624E-13
 -1       830 1.74889E+01 2.31572E+00 5.44697E-05-1.37796E+00-1.30501E-13-2.61888E-13
 -1       831 2.65049E+01 6.68979E-01-5.80137E-02-2.28951E+00 1.82774E-13-2.94783E-13
 -1       832 1.65156E+01 2.86090E+00 3.38716E-05-1.06597E+00-1.42227E-13-3.19005E-13
 -1       833 1.50917E+01-5.80162E-01 4.81881E-02-4.32314E+00-2.76734E-13-3.18507E-13
 -1       834 2.51061E+01-3.43904E+00-1.45585E-02 5.31154E-01-1.07441E-13-1.31161E-13
 -1       835 2.00017E+01-2.33070E-03-1.89979E-07-3.13202E-03-4.28160E-14 5.72103E-13
 -1       836 1.12983E+01 3.14131E-01 8.06483E-02-2.16019E+00 7.81909E-14 4.38802E-13
 -1       837 2.00005E+01-1.89805E-03 8.67801E-08-3.75257E-03-1.96013E-14 2.88602E-13
 -1       838 2.37619E+01-1.63124E+00-1.62271E-03 7.10865E-01 1.90362E-14 1.64465E-13
 -1       839 2.17652E+01-3.66115E-01-9.58402E-04-4.63556E-01 2.81761E-14 2.00951E-14
 -1       840 2.42321E+01-9.03193E-01-4.83521E-03 1.56399E+00 2.60263E-15 1.67346E-13
 -1       841 2.00004E+01-1.56393E-03-1.26231E-07-4.09896E-03-9.08708E-14 2.55015E-13
 -1       842 2.00025E+01-2.61078E-03 1.39673E-07-2.25368E-03 2.00760E-13-7.58106E-14
 -1       843 2.00029E+01-2.77712E-03 1.93856E-07-1.18269E-03 2.63254E-13 8.46029E-15
 -1       844 1.72823E+01-2.22237E+00 4.20126E-02 4.58854E+00-3.46237E-13 4.87162E-14
 -1       845 1.26759E+01-2.83660E-01 6.58738E-02 3.49691E+00-1.58185E-13 4.34430E-13
 -1       846 1.11996E+01 7.85271E-01 7.31156E-02-6.70518E-02 3.81867E-14 4.30229E-13
 -1       847 2.07729E+01-3.28802E+00 2.46115E-02-4.22935E+00-2.59190E-13-5.29949E-14
 -1       848 2.62590E+01-2.36387E+00-3.63557E-02 5.61425E-01-1.80173E-14 2.79216E-13
 -1       849 1.87068E+01 1.69260E+00-6.23762E-04-1.30287E+00-7.96298E-14-2.51001E-13
 -1       850 1.22505E+01 1.40067E+00 4.78914E-02 1.41324E+00-2.37820E-14-4.17621E-13
 -1       851 1.98917E+01 1.14385E+00 1.02212E-03-9.52091E-01-2.71580E-14-1.60514E-13
 -1       852 1.71897E+01 2.55571E+00-5.27126E-05 9.03435E-01-1.31684E-13-2.15566E-13
 -1       853 1.62021E+01 2.97640E+00-4.21028E-04 2.13071E-01-1.51835E-13-2.45246E-13
 -1       854 1.64988E+01-2.57289E-01 3.63538E-02 3.59914E+00 9.25033E-14-2.71927E-13
 -1       855 1.65184E+01-3.00732E-01 2.60491E-02-3.27916E+00 1.58797E-13 2.81714E-13
 -1       856 1.44162E+01-1.17656E+00 1.01412E-01-4.11579E+00 1.76937E-13 4.34231E-13
 -1       857 1.70669E+01 4.39999E-01 3.97415E-03-2.39581E+00-3.65972E-16 1.54049E-13
 -1       858 1.76359E+01 8.37314E-01 9.23564E-04-1.81882E+00 4.31674E-14 2.04234E-13
 -1       859 1.81585E+01 9.96047E-01 2.29591E-04-1.44699E+00-7.25374E-14 2.01504E-13
 -1       860 1.85945E+01 1.01410E+00 3.26663E-05-1.18221E+00 1.46544E-13 5.39046E-14
 -1       861 1.89463E+01 9.53059E-01 5.04861E-06-9.76092E-01 2.74921E-14 2.65993E-13
 -1       862 1.92229E+01 8.52063E-01 2.89338E-06-8.05425E-01 7.49775E-14 8.32872E-14
 -1       863 1.94361E+01 7.35709E-01 1.41953E-05-6.59435E-01-8.70307E-14 3.70321E-14
 -1       864 1.95976E+01 6.18771E-01 1.50963E-05-5.33507E-01-2.53266E-15 7.67112E-14
 -1       865 1.97181E+01 5.09571E-01 1.01606E-05-4.25454E-01-4.84166E-14 1.29852E-13
 -1       866 1.98068E+01 4.12108E-01 4.70126E-06-3.33973E-01 4.40590E-14 3.26015E-13
 -1       867 1.98712E+01 3.27912E-01 6.63236E-07-2.57818E-01-1.24645E-13 1.92356E-13
 -1       868 1.99172E+01 2.56928E-01-1.29640E-06-1.95520E-01 1.57077E-13 2.30220E-13
 -1       869 1.99495E+01 1.98278E-01-1.59510E-06-1.45474E-01-6.57505E-15 1.18318E-14
 -1       870 1.99717E+01 1.50668E-01-1.36220E-07-1.05966E-01-1.34617E-13-1.24608E-13
 -1       871 1.99866E+01 1.12638E-01 6.67332E-07-7.53372E-02-1.54050E-13-2.16825E-13
 -1       872 1.99962E+01 8.27315E-02 3.73191E-07-5.20089E-02-1.36183E-13-1.75279E-13
 -1       873 2.00022E+01 5.95546E-02-3.13608E-08-3.45763E-02-4.11548E-13-1.43720E-13
 -1       874 2.00055E+01 4.18718E-02-2.19669E-07-2.18195E-02-6.49563E-14-1.48611E-14
 -1       875 2.00071E+01 2.86049E-02-2.59030E-07-1.26972E-02-1.82742E-13-3.96833E-14
 -1       876 2.00076E+01 1.88306E-02-2.39781E-07-6.34657E-03-1.14476E-13 1.08445E-13
 -1       877 2.00073E+01 1.17736E-02-2.05910E-07-2.06952E-03 5.50054E-14-2.73362E-15
 -1       878 2.00066E+01 6.79410E-03-1.74513E-07 6.87199E-04 1.18049E-13 3.83813E-14
 -1       879 2.00057E+01 3.37114E-03-1.30624E-07 2.35328E-03 1.08113E-13-7.31574E-14
 -1       880 2.00047E+01 1.08517E-03-1.14481E-07 3.25549E-03 4.55096E-14-3.22660E-13
 -1       881 2.00037E+01-4.00006E-04 1.74651E-07 3.63555E-03-2.48771E-13-6.69652E-13
 -1       882 2.00028E+01-1.34710E-03 1.12273E-06 3.66853E-03 6.94035E-14-8.10124E-13
 -1       883 2.00022E+01-1.90632E-03 1.87074E-07 3.44813E-03 1.29426E-13-5.92006E-13
 -1       884 2.57053E+01-8.34191E-01-3.33634E-02-1.85124E+00 1.31889E-13-2.46619E-13
 -1       885 2.34524E+01-2.63364E+00 6.84235E-03 5.68698E-01-2.92576E-13-1.79276E-13
 -1       886 2.21816E+01-2.13298E+00 1.16180E-03 1.20716E+00-1.70249E-13-1.73002E-13
 -1       887 2.12164E+01-1.42585E+00 2.70576E-04 1.45258E+00-1.15709E-13-1.24431E-13
 -1       888 2.05678E+01-7.83254E-01 9.61399E-05 1.46477E+00-6.28918E-14-8.68474E-14
 -1       889 2.01738E+01-2.93669E-01 6.63896E-05 1.35892E+00-5.62940E-14-8.63284E-14
 -1       890 1.99577E+01 3.97656E-02 4.17675E-05 1.20467E+00 8.36822E-14-4.40165E-14
 -1       891 1.98561E+01 2.43326E-01 3.48002E-05 1.03707E+00-5.61522E-14-8.12198E-14
 -1       892 1.98233E+01 3.49603E-01 3.39317E-05 8.73425E-01-3.36716E-14-1.10124E-13
 -1       893 1.98282E+01 3.88242E-01 2.79917E-05 7.22068E-01-3.36886E-15 9.92569E-15
 -1       894 1.98513E+01 3.83348E-01 1.88390E-05 5.86918E-01 2.79195E-14-9.77362E-14
 -1       895 1.98808E+01 3.52972E-01 1.21894E-05 4.69236E-01-5.07207E-14-2.60014E-14
 -1       896 1.99102E+01 3.09695E-01 8.40729E-06 3.68988E-01-1.38252E-13-1.82229E-14
 -1       897 1.99362E+01 2.61989E-01 4.84757E-06 2.85305E-01-6.11698E-14-5.57590E-14
 -1       898 1.99576E+01 2.15157E-01 2.65461E-06 2.16734E-01-5.69791E-14-3.46400E-13
 -1       899 1.99742E+01 1.72222E-01 1.69071E-06 1.61561E-01-2.51126E-13-2.63610E-13
 -1       900 1.99864E+01 1.34686E-01 2.51864E-06 1.17942E-01-2.45302E-13-4.86429E-14
 -1       901 1.99950E+01 1.03026E-01 1.86973E-06 8.40654E-02-7.00780E-14 9.37870E-14
 -1       902 2.00007E+01 7.70920E-02 1.31664E-06 5.82142E-02 9.36667E-14 1.02690E-13
 -1       903 2.00042E+01 5.63634E-02 8.15607E-07 3.88526E-02 9.74548E-14 4.98667E-14
 -1       904 2.00061E+01 4.01649E-02 4.23904E-07 2.46474E-02 1.27630E-13 1.22540E-13
 -1       905 2.00068E+01 2.77809E-02 1.93181E-07 1.44616E-02-9.27702E-14 4.50009E-13
 -1       906 2.00068E+01 1.85190E-02 6.49459E-08 7.34926E-03-7.23033E-14 2.66379E-13
 -1       907 2.00064E+01 1.17492E-02-8.37012E-09 2.54242E-03-2.32537E-14-1.48045E-13
 -1       908 2.00056E+01 6.92221E-03-5.73695E-08-5.69604E-04 3.80677E-14 5.39742E-14
 -1       909 2.00048E+01 3.57359E-03-9.46153E-08-2.46270E-03 1.76045E-13 1.64336E-13
 -1       910 2.00039E+01 1.31879E-03-1.86984E-07-3.49984E-03-2.11299E-14 7.56197E-14
 -1       911 2.00030E+01-1.55238E-04 2.55520E-08-3.95111E-03-3.69064E-13 5.08548E-13
 -1       912 2.00022E+01-1.09780E-03 1.14017E-06-4.00830E-03-9.75684E-14 8.66595E-13
 -1       913 2.50120E+01-3.53825E+00-1.08542E-03-1.27406E+00-9.84269E-14 2.10866E-13
 -1       914 2.23418E+01-1.61628E+00-8.13651E-03-1.06189E+00-5.89520E-14 3.03529E-14
 -1       915 2.40414E+01 3.65284E+00-5.01695E-02-1.05111E+00 3.09242E-13-8.01323E-14
 -1       916 1.60533E+01 3.07625E+00 6.64926E-04-5.11457E-01-1.47831E-13-3.50358E-13
 -1       917 2.00041E+01-2.16044E-03-1.12006E-07 6.13010E-04-1.88941E-14-2.69334E-13
 -1       918 2.47914E+01-2.42615E+00 1.24888E-03-5.50120E-01-1.48007E-14-1.59511E-13
 -1       919 2.18275E+01-3.30144E+00 1.56258E-02 2.91151E+00-2.23042E-13-3.14658E-13
 -1       920 1.70028E+01 9.91543E-01 5.76407E-03 2.36432E+00 6.49827E-15-2.23600E-13
 -1       921 1.30187E+01 1.55415E+00 3.64384E-02-1.77078E+00-1.72990E-13-4.36212E-13
 -1       922 1.46060E+01 9.23107E-01 2.15714E-02-2.90741E+00-2.34424E-13-3.73447E-13
 -1       923 2.29951E+01-3.26583E+00 9.72744E-03-2.46822E+00-1.74868E-13 2.34279E-14
 -1       924 2.00041E+01-2.15013E-03-8.42233E-07-6.42803E-04-9.50666E-14-5.33815E-13
 -1       925 1.58637E+01 2.27126E+00 1.10621E-02 1.00631E+00-7.58271E-14-2.52574E-13
 -1       926 2.00020E+01-1.92882E-03 5.64032E-08-3.48698E-03-1.64931E-13 5.62835E-13
 -1       927 2.00030E+01-2.15015E-03 2.99549E-07-2.58856E-03-2.57848E-14 5.37928E-14
 -1       928 2.00038E+01-2.10444E-03 1.11187E-06 1.82108E-03 1.03879E-13-9.80155E-14
 -1       929 2.15756E+01-7.66080E-01 2.03320E-03-1.06144E+00-4.38394E-14-3.06897E-14
 -1       930 1.66007E+01 1.91432E+00 3.02191E-03-1.83904E+00-1.50817E-13-3.04118E-13
 -1       931 1.98405E+01-2.45900E+00 6.57411E-03 3.48663E+00-2.92753E-13-2.61724E-13
 -1       932 2.36389E+01-2.35429E+00 9.13286E-03-5.81891E-01-3.74507E-14 1.52951E-13
 -1       933 1.81869E+01 1.11997E+00-1.15673E-03-1.98844E+00-1.41335E-13-2.21561E-13
 -1       934 2.00021E+01-1.53420E-03-2.08941E-07-3.77515E-03-1.60791E-13 6.00416E-13
 -1       935 1.56283E+01-8.40664E-01 2.84555E-02 3.77148E+00-2.16723E-13 1.34480E-13
 -1       936 1.25405E+01 6.69298E-01 4.43290E-02 1.70897E+00 3.51407E-14 4.86939E-13
 -1       937 2.00031E+01-2.02654E-03-3.86342E-07 2.70841E-03 2.62448E-13-2.42885E-13
 -1       938 1.81330E+01-1.52751E+00 2.32959E-02-4.15300E+00-2.44076E-13-1.49248E-13
 -1       939 1.33313E+01 8.52560E-01 2.45350E-02-1.46515E+00-4.46952E-15 3.63791E-13
 -1       940 2.32347E+01-3.36190E+00-7.52251E-03 1.70490E+00-2.44197E-13-3.15078E-14
 -1       941 2.09405E+01 2.52780E-01-9.00801E-04-7.92330E-01-7.53557E-15-7.23392E-14
 -1       942 1.32866E+01 1.99079E+00 2.15375E-02-1.82431E-01-1.04324E-13-3.87629E-13
 -1       943 1.34998E+01 1.09395E+00 3.08791E-02 1.32463E-01 5.32117E-14 4.19612E-13
 -1       944 1.51850E+01 2.63707E+00 2.42850E-03-6.54169E-02-1.34326E-13-3.12069E-13
 -1       945 1.61006E+01 1.09198E+00-2.80515E-04-1.31702E+00 1.98412E-14 2.84909E-13
 -1       946 1.70365E+01 1.20264E+00-3.84951E-04-1.02244E+00 1.07509E-13 2.62595E-13
 -1       947 1.77570E+01 1.20125E+00-2.15139E-04-8.39442E-01 7.77346E-15 4.12344E-13
 -1       948 1.83057E+01 1.13138E+00-1.81140E-04-7.09761E-01 1.02997E-13 3.12792E-13
 -1       949 1.87272E+01 1.02302E+00-1.30485E-04-6.04714E-01-1.28032E-14 1.05483E-13
 -1       950 1.90514E+01 8.96868E-01-3.98027E-05-5.12475E-01-1.54805E-13-6.37976E-14
 -1       951 1.93004E+01 7.66412E-01-3.79499E-05-4.28566E-01 7.39670E-14 2.04590E-14
 -1       952 1.94904E+01 6.41436E-01-3.81403E-05-3.52420E-01 1.04116E-13 1.89417E-13
 -1       953 1.96346E+01 5.26805E-01-3.42629E-05-2.84423E-01-2.84734E-14 1.51500E-13
 -1       954 1.97428E+01 4.25314E-01-2.64647E-05-2.25265E-01-8.77228E-14 3.28598E-14
 -1       955 1.98231E+01 3.37970E-01-1.76441E-05-1.74957E-01-1.94164E-14 1.65228E-13
 -1       956 1.98819E+01 2.64350E-01-1.47372E-05-1.33188E-01 1.46102E-14 8.41203E-15
 -1       957 1.99242E+01 2.03625E-01-5.24459E-06-9.92606E-02-1.22984E-13 7.73834E-14
 -1       958 1.99542E+01 1.54275E-01-6.43942E-06-7.22586E-02-1.83250E-13 8.23160E-14
 -1       959 1.99750E+01 1.14944E-01-6.00896E-06-5.12191E-02-9.53278E-14-5.04630E-14
 -1       960 1.99890E+01 8.40322E-02-5.16091E-06-3.51471E-02-1.87531E-13 6.29629E-14
 -1       961 1.99980E+01 6.01259E-02-4.02959E-06-2.31451E-02-1.63570E-13 2.71639E-13
 -1       962 2.00035E+01 4.19477E-02-2.91308E-06-1.43786E-02-1.44834E-13 2.93080E-13
 -1       963 2.00065E+01 2.83665E-02-1.98274E-06-8.13005E-03-1.39041E-13 1.80978E-13
 -1       964 2.00078E+01 1.84114E-02-1.28244E-06-3.80284E-03 6.89291E-14 1.05582E-13
 -1       965 2.00080E+01 1.12676E-02-7.86062E-07-9.11866E-04 6.02531E-14 5.13105E-14
 -1       966 2.00076E+01 6.26248E-03-4.55768E-07 9.28331E-04-2.82689E-14 4.54886E-14
 -1       967 2.00067E+01 2.84884E-03-2.91883E-07 2.01692E-03-2.04524E-13-1.28810E-13
 -1       968 2.00056E+01 5.87001E-04-3.57783E-08 2.58237E-03-1.96888E-13-3.37255E-13
 -1       969 2.00045E+01-8.76106E-04-1.37665E-06 2.78987E-03-7.54232E-14-1.32171E-13
 -1       970 2.00038E+01-1.52645E-03-1.96183E-06 2.78599E-03 2.92589E-13-9.25696E-14
 -1       971 2.07454E+01-1.83733E+00 1.48484E-03 2.23046E+00-1.54822E-13-1.97492E-13
 -1       972 1.95882E+01-3.40292E-01 4.17183E-04 1.71312E+00 7.63820E-15-1.72919E-13
 -1       973 1.94219E+01 7.94114E-02 7.74088E-05 1.42105E+00-2.18724E-14-2.02395E-13
 -1       974 1.93892E+01 3.33138E-01 6.25997E-06 1.16267E+00-2.03924E-14-7.18648E-14
 -1       975 1.94287E+01 4.65849E-01 2.80682E-05 9.42847E-01-6.93524E-14-2.35087E-14
 -1       976 1.95024E+01 5.15177E-01 3.53010E-05 7.58369E-01-1.95271E-13 2.19082E-14
 -1       977 1.95880E+01 5.09621E-01-7.93828E-06 6.04958E-01 5.77390E-14 2.10609E-13
 -1       978 1.96720E+01 4.71954E-01-2.37930E-05 4.77983E-01-1.41464E-15 2.27556E-13
 -1       979 1.97479E+01 4.17153E-01-1.78619E-05 3.73423E-01-1.30967E-13 1.92265E-13
 -1       980 1.98126E+01 3.55824E-01-1.25084E-05 2.88180E-01-1.89894E-15 1.02108E-13
 -1       981 1.98655E+01 2.94927E-01-8.59019E-06 2.19383E-01 4.83058E-14 5.18033E-14
 -1       982 1.99071E+01 2.38364E-01-9.09959E-06 1.64425E-01-1.13309E-13 1.37697E-13
 -1       983 1.99389E+01 1.88394E-01 3.11827E-08 1.21118E-01-3.77880E-13-2.59267E-14
 -1       984 1.99625E+01 1.45718E-01-3.37920E-06 8.74397E-02-2.74824E-13 5.35102E-14
 -1       985 1.99793E+01 1.10405E-01-3.47048E-06 6.16336E-02-1.71951E-13 2.75015E-13
 -1       986 1.99910E+01 8.18609E-02-3.15145E-06 4.21552E-02 9.03209E-14 4.17743E-13
 -1       987 1.99986E+01 5.92922E-02-2.55346E-06 2.77223E-02 1.79610E-14 3.66145E-13
 -1       988 2.00034E+01 4.18289E-02-1.86857E-06 1.72394E-02-8.36819E-14 3.26818E-13
 -1       989 2.00060E+01 2.85985E-02-1.25437E-06 9.79413E-03 4.06601E-14 1.37072E-13
 -1       990 2.00072E+01 1.87884E-02-7.75394E-07 4.64727E-03 1.84141E-13 2.25534E-13
 -1       991 2.00073E+01 1.16789E-02-4.34013E-07 1.20917E-03-1.04881E-13 2.84382E-13
 -1       992 2.00069E+01 6.65408E-03-2.22350E-07-9.82687E-04 7.79309E-14 1.36495E-13
 -1       993 2.00061E+01 3.19969E-03-9.07063E-08-2.28544E-03 7.49423E-14 2.20929E-13
 -1       994 2.00051E+01 8.91858E-04-3.17624E-07-2.96691E-03-5.59993E-13 4.25407E-13
 -1       995 2.00041E+01-6.06128E-04 5.41742E-07-3.22680E-03-2.93839E-13 1.52905E-13
 -1       996 2.47929E+01-2.46243E+00-4.43416E-03 1.91639E-01-1.17480E-14 2.11516E-13
 -1       997 1.46224E+01 1.73991E+00 2.23938E-02 1.55121E+00-3.29222E-14-3.18587E-13
 -1       998 2.00037E+01-2.18380E-03 5.93220E-07-1.66592E-03-1.10027E-13 9.55438E-14
 -1       999 1.54798E+01 2.41781E+00 7.24466E-03-1.21907E+00-1.37043E-13-3.48653E-13
 -1      1000 1.99789E+01-9.69636E-01 7.15439E-04 2.01429E+00-1.50848E-13-1.16111E-13
 -1      1001 1.97063E+01 4.42597E-01-1.44077E-03-1.64900E+00-8.65835E-14-1.61355E-13
 -1      1002 2.00051E+01-1.27871E-03 4.60418E-07 1.24944E-03 8.53414E-14 1.34168E-13
 -1      1003 2.08026E+01-2.29666E+00 9.43344E-03-3.27590E+00-2.13868E-13-1.08405E-13
 -1      1004 2.00053E+01-1.25992E-03 1.52303E-06-2.78422E-05-8.06241E-14-3.80811E-13
 -1      1005 1.46540E+01 2.36768E-01 1.76290E-02 2.61092E+00 2.49286E-14 2.03004E-13
 -1      1006 1.53888E+01 1.40609E+00 2.51502E-02-2.33711E+00-1.71471E-13-3.47574E-13
 -1      1007 1.67703E+01 7.91484E-02 7.11526E-03-3.33098E+00-2.14810E-13-2.58252E-13
 -1      1008 2.09513E+01-9.95777E-01 8.18864E-03-1.94408E+00-1.12277E-13-1.16240E-13
 -1      1009 2.00034E+01-1.67101E-03-8.69654E-07-2.88400E-03-1.86961E-13 2.82876E-13
 -1      1010 1.82175E+01-1.37965E+00 1.75491E-02 3.37658E+00-1.87818E-13-1.83405E-13
 -1      1011 2.20221E+01-2.84560E+00 6.17661E-04 2.19812E+00-1.81058E-13-1.70944E-13
 -1      1012 1.44718E+01 2.14690E+00 1.25451E-02-1.21741E+00-1.46958E-13-3.55962E-13
 -1      1013 2.00038E+01-1.18195E-03-4.37779E-07-3.07833E-03-7.29653E-14 6.62186E-14
 -1      1014 1.60831E+01 1.28467E+00 4.34687E-04-2.14150E-01 6.54826E-15 4.25535E-13
 -1      1015 1.70517E+01 1.28057E+00-3.99986E-04-2.37002E-01 1.10319E-13 1.55260E-13
 -1      1016 1.77637E+01 1.22172E+00-3.47014E-04-2.56165E-01 2.79147E-14 9.48555E-14
 -1      1017 1.83004E+01 1.12658E+00-6.71137E-05-2.63138E-01-1.63554E-13 1.54716E-13
 -1      1018 1.87129E+01 1.00625E+00-1.15101E-04-2.56159E-01-2.45508E-13-1.01170E-13
 -1      1019 1.90315E+01 8.77184E-01-1.17945E-04-2.37271E-01 1.63888E-14-8.98956E-14
 -1      1020 1.92776E+01 7.48342E-01-2.50101E-04-2.10876E-01 2.97730E-13 5.68599E-14
 -1      1021 1.94689E+01 6.25241E-01-1.93855E-04-1.80597E-01-3.97181E-14 2.15806E-14
 -1      1022 1.96155E+01 5.12686E-01-1.62973E-04-1.50045E-01-1.70832E-13-8.09454E-14
 -1      1023 1.97271E+01 4.13361E-01-6.67415E-05-1.21212E-01-4.44461E-14-2.40204E-13
 -1      1024 1.98107E+01 3.27915E-01-3.18505E-06-9.54658E-02 3.46250E-14-3.08972E-13
 -1      1025 1.98724E+01 2.55958E-01-5.87704E-06-7.35363E-02-4.84360E-14-2.96416E-13
 -1      1026 1.99174E+01 1.96441E-01-3.56100E-05-5.49643E-02-8.74863E-14-1.45808E-13
 -1      1027 1.99495E+01 1.48378E-01-4.33582E-05-4.00316E-02-2.17392E-13-1.19240E-13
 -1      1028 1.99721E+01 1.09970E-01-2.72781E-05-2.82449E-02-1.50017E-13-2.69234E-13
 -1      1029 1.99873E+01 7.98717E-02-1.93947E-05-1.92499E-02 1.13992E-14-3.78733E-13
 -1      1030 1.99973E+01 5.66972E-02-1.30787E-05-1.25204E-02-1.79406E-13-5.40599E-13
 -1      1031 2.00033E+01 3.91589E-02-8.24313E-06-7.60699E-03-1.09268E-14-1.49680E-13
 -1      1032 2.00067E+01 2.61281E-02-4.74795E-06-4.11704E-03 1.74203E-14 3.87500E-14
 -1      1033 2.00082E+01 1.66391E-02-2.32552E-06-1.71663E-03 1.94521E-13 1.72574E-13
 -1      1034 2.00085E+01 9.88251E-03-7.12022E-07-1.30650E-04 2.63044E-15 4.64622E-13
 -1      1035 2.00080E+01 5.19154E-03 4.31398E-07 8.61954E-04-2.41996E-13 3.48068E-13
 -1      1036 2.00071E+01 2.03987E-03 3.34203E-06 1.42110E-03-2.66946E-13 2.91147E-13
 -1      1037 2.00060E+01-5.82895E-05 2.53504E-06 1.70157E-03-1.18073E-13 5.08161E-14
 -1      1038 1.87935E+01 4.78218E-01-3.19458E-04 1.24141E+00-1.20964E-13 4.40709E-15
 -1      1039 1.46471E+01 1.21391E+00 6.67976E-03 3.19910E-02 1.57014E-15 4.71542E-13
 -1      1040 1.86826E+01 2.04275E-01-1.98383E-04 1.61106E+00 2.98279E-14-1.39102E-13
 -1      1041 1.91233E+01 6.63475E-01 1.38937E-04 7.41320E-01-9.13902E-14-6.20310E-14
 -1      1042 1.92881E+01 6.49127E-01-4.56247E-05 5.72211E-01-2.61525E-13-8.15910E-14
 -1      1043 1.94364E+01 5.99968E-01-1.37180E-04 4.41612E-01-1.01300E-13 2.30268E-13
 -1      1044 1.95651E+01 5.31389E-01-1.16750E-04 3.38672E-01-5.58386E-14 3.38391E-13
 -1      1045 1.96728E+01 4.55065E-01-6.45490E-05 2.58059E-01-3.35976E-14 2.83475E-13
 -1      1046 1.97603E+01 3.79068E-01-5.71371E-05 1.95076E-01-2.75259E-14 2.46325E-13
 -1      1047 1.98291E+01 3.08826E-01-2.77519E-05 1.45620E-01-1.04536E-13 2.36572E-13
 -1      1048 1.98824E+01 2.45938E-01 3.50072E-06 1.07547E-01-1.33186E-13 3.76437E-13
 -1      1049 1.99223E+01 1.91986E-01-1.75021E-05 7.79338E-02-3.74525E-13 2.35098E-13
 -1      1050 1.99517E+01 1.46916E-01-2.48195E-05 5.54948E-02-2.50626E-13 1.51292E-13
 -1      1051 1.99726E+01 1.10200E-01-2.33437E-05 3.84932E-02-3.72372E-14-1.25072E-14
 -1      1052 1.99872E+01 8.08583E-02-1.71311E-05 2.58809E-02 7.52125E-15 9.66393E-14
 -1      1053 1.99967E+01 5.79345E-02-1.26928E-05 1.66727E-02 4.67525E-14 1.56025E-13
 -1      1054 2.00027E+01 4.03833E-02-9.05328E-06 1.00665E-02-1.14570E-13 4.94119E-13
 -1      1055 2.00061E+01 2.72153E-02-6.22457E-06 5.43244E-03 1.26515E-13 5.90089E-13
 -1      1056 2.00077E+01 1.75447E-02-4.10377E-06 2.27248E-03 2.88934E-14 5.32252E-13
 -1      1057 2.00081E+01 1.06049E-02-2.56930E-06 1.96272E-04 5.90161E-14 4.21230E-13
 -1      1058 2.00077E+01 5.74985E-03-1.32774E-06-1.09688E-03-5.38203E-14 5.14928E-13
 -1      1059 2.00068E+01 2.45031E-03-3.12230E-07-1.83995E-03-1.89509E-13 7.03340E-13
 -1      1060 2.00058E+01 2.62221E-04-1.59998E-06-2.20946E-03-2.32025E-13 6.76657E-14
 -1      1061 1.94657E+01-5.36417E-01-7.29904E-04-2.61394E+00-1.41919E-13-1.37172E-13
 -1      1062 1.89022E+01-9.91605E-01 4.43449E-03 2.67871E+00-1.43630E-13-1.56494E-13
 -1      1063 1.45857E+01 9.31602E-01 4.31560E-03 1.25328E+00 3.65877E-14 4.70670E-13
 -1      1064 1.86794E+01-2.62258E-01 4.28755E-04 2.09158E+00-5.85328E-14-1.96555E-13
 -1      1065 1.89523E+01 6.16673E-01-2.24843E-05 9.58215E-01 3.43321E-15 4.52151E-15
 -1      1066 2.00064E+01 2.11914E-05-1.66938E-06 5.67686E-04-1.73179E-13 1.29927E-13
 -1      1067 1.68758E+01-3.85908E-01 6.28491E-03 2.92252E+00-1.05852E-13-1.01788E-13
 -1      1068 2.00043E+01-1.64034E-03 2.85183E-06-1.96576E-03-3.71295E-13 1.49674E-13
 -1      1069 2.00053E+01-5.43002E-04-6.28489E-06-2.06889E-03-2.96536E-13-1.90650E-14
 -1      1070 2.00049E+01-1.48624E-03 3.79212E-06-1.02163E-03-2.72087E-13-7.01511E-14
 -1      1071 1.58809E+01 1.17223E+00 1.40142E-03 6.26036E-01-7.66276E-14 3.11523E-13
 -1      1072 1.68776E+01 1.20882E+00 8.45735E-04 3.70813E-01-1.17874E-13 1.81987E-13
 -1      1073 1.76972E+01 4.45190E-01 1.43865E-03 1.67217E+00-1.06300E-13-1.18972E-13
 -1      1074 1.72737E+01 1.33198E-01 1.80071E-03 2.20565E+00-1.08584E-13-2.06164E-13
 -1      1075 1.76093E+01 1.18479E+00 2.28536E-04 1.95228E-01 1.60136E-14 3.51946E-14
 -1      1076 1.81668E+01 1.11274E+00 7.98189E-04 7.61397E-02-5.99533E-14 4.46893E-14
 -1      1077 1.85864E+01 1.01977E+00 3.67432E-05 4.69378E-03-2.75109E-13 7.26147E-14
 -1      1078 1.89215E+01 9.03887E-01 6.77544E-04-3.19283E-02 1.54447E-14 2.94812E-13
 -1      1079 1.91783E+01 7.84930E-01-9.86994E-05-5.31303E-02 8.34445E-14-9.30179E-14
 -1      1080 1.93876E+01 6.63599E-01-9.23214E-05-6.16995E-02-6.75518E-15-4.18504E-13
 -1      1081 1.95501E+01 5.50406E-01-5.92661E-05-6.09964E-02-2.20629E-13-3.89272E-13
 -1      1082 1.96791E+01 4.46903E-01 4.14324E-04-5.45801E-02-2.25368E-13-2.99020E-13
 -1      1083 1.97751E+01 3.56386E-01 3.04799E-04-4.63121E-02 3.39559E-14-4.95418E-13
 -1      1084 1.98450E+01 2.79984E-01-7.13497E-05-3.75308E-02 1.84423E-14-4.23586E-13
 -1      1085 1.98971E+01 2.17389E-01 1.42662E-04-2.85146E-02-1.71694E-14-4.09791E-13
 -1      1086 1.99342E+01 1.65765E-01-9.33496E-06-2.15512E-02-1.86080E-13-3.05718E-13
 -1      1087 1.99616E+01 1.23647E-01-7.17740E-06-1.58176E-02-2.54450E-13-3.02220E-13
 -1      1088 1.99804E+01 9.04544E-02-3.21246E-06-1.11314E-02-1.66225E-13-5.32148E-13
 -1      1089 1.99929E+01 6.47124E-02-1.52191E-06-7.47262E-03-1.08364E-13-6.67323E-13
 -1      1090 2.00009E+01 4.50969E-02-8.66895E-07-4.71994E-03 2.66008E-13-4.65358E-13
 -1      1091 2.00055E+01 3.04249E-02-5.81578E-07-2.71649E-03 1.39712E-13-1.94119E-13
 -1      1092 2.00079E+01 1.96678E-02-4.28941E-07-1.30700E-03 1.75257E-13-1.17342E-13
 -1      1093 2.00087E+01 1.19523E-02-3.09371E-07-3.53004E-04 2.09140E-13-3.15088E-13
 -1      1094 2.00086E+01 6.55259E-03-5.25575E-08 2.61886E-04-1.07776E-13-1.01704E-13
 -1      1095 2.00077E+01 2.86311E-03-3.63253E-06 6.35567E-04-3.22548E-13 3.44325E-13
 -1      1096 2.00071E+01 1.28729E-03-4.00013E-07 6.37462E-04-4.09915E-13 3.04957E-13
 -1      1097 1.83986E+01 8.08357E-01 4.16399E-05 8.81041E-01-2.91481E-14-3.07444E-14
 -1      1098 1.80610E+01 6.96143E-01-6.08471E-04 1.20920E+00-1.02064E-13 8.36582E-14
 -1      1099 1.91824E+01 7.35884E-01 2.42126E-05 3.52611E-01-3.86706E-13-1.04077E-13
 -1      1100 1.89723E+01 7.96889E-01 9.47522E-04 4.73938E-01-1.45578E-13 6.47800E-14
 -1      1101 1.95238E+01 5.56682E-01-1.59711E-05 1.91554E-01-5.80907E-14-7.17623E-14
 -1      1102 1.96477E+01 4.64979E-01-1.86928E-04 1.38938E-01-4.76302E-15 5.41149E-14
 -1      1103 1.97502E+01 3.79188E-01 5.27342E-04 1.01224E-01-1.16465E-13 1.60059E-13
 -1      1104 1.98234E+01 3.03073E-01-2.76643E-06 7.35997E-02-1.97479E-13 1.19974E-13
 -1      1105 1.98804E+01 2.38650E-01 2.34313E-04 5.32030E-02-1.22939E-13 1.11802E-13
 -1      1106 1.99205E+01 1.84909E-01-6.19911E-06 3.80288E-02-1.85334E-13-2.62537E-14
 -1      1107 1.99512E+01 1.40043E-01 2.81588E-06 2.61235E-02-8.13100E-14-9.26111E-14
 -1      1108 1.99730E+01 1.03836E-01 1.68216E-06 1.77919E-02-1.41486E-13 1.42552E-13
 -1      1109 1.99878E+01 7.53566E-02 3.10973E-06 1.16901E-02-1.27596E-13 2.62583E-13
 -1      1110 1.99976E+01 5.33541E-02 3.52857E-06 7.30382E-03-1.48217E-13 1.98867E-13
 -1      1111 2.00035E+01 3.66792E-02 3.40044E-06 4.21190E-03 7.75675E-14-1.77782E-13
 -1      1112 2.00068E+01 2.42939E-02 3.05860E-06 2.08271E-03 8.21962E-14-3.77192E-14
 -1      1113 2.00083E+01 1.52917E-02 2.66989E-06 6.59830E-04 1.54286E-13 7.92560E-14
 -1      1114 2.00086E+01 8.90180E-03 2.31712E-06-2.52914E-04 6.25464E-14-1.08852E-13
 -1      1115 2.00080E+01 4.45839E-03 7.50257E-07-8.19033E-04-6.07030E-14-4.13461E-13
 -1      1116 2.00070E+01 1.51906E-03 7.96977E-06-1.10998E-03-2.14634E-14-1.47841E-13
 -1      1117 1.58607E+01 6.40218E-01 8.09014E-04 1.80852E+00-9.01702E-14 1.24278E-13
 -1      1118 1.93696E+01 6.49317E-01-3.11052E-05 2.59196E-01-2.06385E-13-8.74837E-14
 -1      1119 1.87016E+01 8.33492E-01 1.39875E-04 6.42888E-01-2.54231E-14 1.16712E-13
 -1      1120 2.00063E+01 2.77646E-05-5.94440E-06-6.68971E-04-6.05520E-13-1.19033E-13
 -1      1121 2.00072E+01 1.44773E-03-8.79357E-08-2.55475E-04-2.90251E-13-1.91811E-13
 -1      1122 1.69088E+01 8.70664E-01-1.57171E-03 1.23235E+00-1.78339E-13 3.28577E-14
 -1      1123 1.82719E+01 1.01246E+00-8.85117E-04 4.31791E-01-6.54422E-15 2.76793E-14
 -1      1124 1.97677E+01 3.56363E-01-3.01421E-04 1.77050E-02-9.35065E-14 2.13689E-14
 -1      1125 1.88124E+01 9.00169E-01-1.72127E-03 2.52647E-01-4.67581E-14 1.37048E-13
 -1      1126 1.98686E+01 2.48100E-01-2.38501E-04 1.21140E-02-6.84456E-14-2.78861E-13
 -1      1127 1.76877E+01 1.00530E+00-9.16485E-04 7.42723E-01-1.05768E-13 3.33716E-14
 -1      1128 2.94658E+01 9.53987E+00 2.33359E+00-6.37637E+00-9.99201E-15 1.83750E-12
 -1      1129 2.22493E+01 6.76752E+00 3.09028E-01-3.08436E+00-1.74305E-14 8.10227E-13
 -1      1130 2.05865E+01 6.21319E+00 1.24079E-01-1.80247E+00-1.78191E-14 2.37288E-13
 -1      1131 1.94424E+01 5.85185E+00 6.37769E-02-1.07575E+00-1.41831E-14-1.01820E-13
 -1      1132 1.85035E+01 5.55890E+00 2.61957E-02-6.37237E-01-1.05055E-14-3.14745E-13
 -1      1133 1.77624E+01 5.32836E+00-1.16442E-03-4.01210E-01-8.27116E-15-4.46238E-13
 -1      1134 1.72494E+01 5.16942E+00-1.79738E-02-3.01541E-01-7.46625E-15-5.22085E-13
 -1      1135 1.69912E+01 5.09028E+00-2.36286E-02-2.71285E-01-5.46785E-15-5.73364E-13
 -1      1136 1.69980E+01 5.09404E+00-1.78565E-02-2.44811E-01-4.18589E-15-5.98205E-13
 -1      1137 1.72422E+01 5.17178E+00-2.95475E-03-1.62620E-01-1.25594E-15-6.13049E-13
 -1      1138 1.76738E+01 5.30736E+00 1.74178E-02 1.89900E-02 1.03390E-15-6.13455E-13
 -1      1139 1.82317E+01 5.48142E+00 3.96742E-02 3.22295E-01 1.94289E-15-5.96869E-13
 -1      1140 1.88751E+01 5.68075E+00 6.07393E-02 7.62333E-01 5.19029E-15-5.52643E-13
 -1      1141 1.96029E+01 5.90542E+00 8.17697E-02 1.35958E+00 9.27036E-15-4.68936E-13
 -1      1142 2.04814E+01 6.17856E+00 1.13716E-01 2.15938E+00 1.31700E-14-2.78352E-13
 -1      1143 2.18390E+01 6.61932E+00 2.25300E-01 3.34715E+00 1.93179E-14 1.45078E-13
 -1      1144 2.65795E+01 8.41624E+00 1.47448E+00 5.64024E+00 5.01266E-14 1.11983E-12
 -1      1145 3.02998E+01 3.51702E+00 1.07614E+00-4.01961E+00-8.64725E-14 2.52454E-12
 -1      1146 2.29774E+01-1.98946E-01-6.46041E-01-1.65295E-02-2.77695E-14 2.34202E-12
 -1      1147 2.26684E+01-1.01811E-01-2.31198E-01 9.31712E-02-6.65787E-15 2.01483E-12
 -1      1148 2.32991E+01-5.16538E-02-6.11525E-02 6.85196E-02-4.60135E-15 1.79121E-12
 -1      1149 2.42326E+01-1.99651E-02-8.31422E-03 5.93368E-02-5.73738E-15 1.62547E-12
 -1      1150 2.52608E+01 1.14139E-02 3.35676E-02 5.13906E-02-2.34467E-14 1.54440E-12
 -1      1151 2.60931E+01 4.92069E-02 9.12919E-02 3.09487E-02 1.22558E-15 1.47673E-12
 -1      1152 2.63219E+01 8.79470E-02 1.54460E-01-1.46529E-02 9.18536E-16 1.51082E-12
 -1      1153 2.55038E+01 1.06398E-01 1.81467E-01-8.88359E-02 8.71438E-15 1.47692E-12
 -1      1154 2.34358E+01 7.15857E-02 1.13543E-01-1.67946E-01-1.33834E-15 1.27715E-12
 -1      1155 2.05634E+01-3.07690E-02-6.68444E-02-1.95464E-01 1.31327E-14 1.08816E-12
 -1      1156 1.81174E+01-1.51740E-01-2.68789E-01-1.20196E-01 5.49213E-15 1.07632E-12
 -1      1157 1.74871E+01-1.90234E-01-3.31766E-01 3.42494E-02-1.13104E-14 9.73686E-13
 -1      1158 1.91077E+01-1.08690E-01-1.98862E-01 1.67552E-01-1.79023E-15 6.70491E-13
 -1      1159 2.20612E+01 1.63290E-02 1.29325E-02 2.01261E-01 8.39921E-15 6.08319E-13
 -1      1160 2.48895E+01 9.56765E-02 1.54944E-01 1.46669E-01-2.14126E-14 4.86361E-13
 -1      1161 2.66295E+01 1.07575E-01 1.80956E-01 6.52076E-02-3.56208E-14 3.50886E-13
 -1      1162 2.71228E+01 7.99139E-02 1.34528E-01 2.99131E-03 2.59341E-16 2.74534E-13
 -1      1163 2.67006E+01 4.35641E-02 7.14558E-02-2.87115E-02 8.50838E-15 1.76317E-13
 -1      1164 2.57946E+01 1.45887E-02 2.22081E-02-3.76241E-02-1.22198E-14 3.87954E-13
 -1      1165 2.47369E+01-3.39634E-03-6.63166E-03-3.46609E-02-2.64810E-14 4.56003E-13
 -1      1166 2.37224E+01-1.23859E-02-1.95978E-02-2.75281E-02 9.73483E-15 5.44630E-13
 -1      1167 2.28402E+01-1.55490E-02-2.30746E-02-2.01329E-02 3.95979E-14 7.13696E-13
 -1      1168 2.21158E+01-1.54870E-02-2.18624E-02-1.39505E-02-4.53266E-14 4.67140E-13
 -1      1169 2.15426E+01-1.39032E-02-1.88058E-02-9.26788E-03 1.49279E-14 4.36030E-13
 -1      1170 2.11008E+01-1.17792E-02-1.53524E-02-5.91044E-03-2.14587E-14 5.45757E-13
 -1      1171 2.07671E+01-9.62296E-03-1.21415E-02-3.58566E-03 2.38354E-14 6.95905E-13
 -1      1172 2.05195E+01-7.66611E-03-9.39813E-03-2.01767E-03-4.19953E-14 2.67813E-13
 -1      1173 2.03391E+01-5.99140E-03-7.15612E-03-9.86086E-04-4.37909E-16 2.16444E-13
 -1      1174 2.02100E+01-4.60777E-03-5.37122E-03-3.27215E-04 6.31022E-15 4.95069E-13
 -1      1175 2.01196E+01-3.49126E-03-3.97475E-03 7.62732E-05-2.17157E-14 3.91714E-13
 -1      1176 2.00580E+01-2.60602E-03-2.89667E-03 3.07097E-04 4.07980E-14 2.02994E-13
 -1      1177 2.00175E+01-1.91441E-03-2.07429E-03 4.23165E-04 6.10143E-15 1.37047E-13
 -1      1178 1.99921E+01-1.38139E-03-1.45450E-03 4.64868E-04 2.49323E-15 1.20222E-13
 -1      1179 1.99774E+01-9.76117E-04-9.93482E-04 4.60231E-04 5.25930E-14 4.01000E-13
 -1      1180 1.99700E+01-6.72342E-04-6.55634E-04 4.28510E-04 2.40845E-15 3.23345E-13
 -1      1181 1.99676E+01-4.48205E-04-4.12358E-04 3.82732E-04-7.20809E-15-3.68698E-14
 -1      1182 1.99682E+01-2.85785E-04-2.40899E-04 3.31525E-04 8.98751E-15 2.86263E-13
 -1      1183 1.99708E+01-1.70567E-04-1.23288E-04 2.80418E-04-1.55761E-15 3.08111E-13
 -1      1184 1.99742E+01-9.09036E-05-4.54267E-05 2.32781E-04-1.06048E-14 2.09740E-13
 -1      1185 1.99781E+01-3.75200E-05 3.69164E-06 1.90487E-04-2.09588E-14 1.91441E-13
 -1      1186 1.99821E+01-3.06852E-06 3.26412E-05 1.54388E-04-5.52723E-15 2.13899E-13
 -1      1187 1.99858E+01 1.82759E-05 4.81592E-05 1.24631E-04-8.67280E-14 5.60431E-14
 -1      1188 1.99893E+01 3.11795E-05 5.57133E-05 1.00837E-04-1.84323E-14-1.38927E-13
 -1      1189 1.99923E+01 3.94506E-05 6.01066E-05 8.21122E-05 2.55731E-14-3.67464E-13
 -1      1190 1.99949E+01 4.62209E-05 6.60632E-05 6.68443E-05 7.76588E-14 3.26478E-13
 -1      1191 1.99971E+01 5.40058E-05 7.80239E-05 5.18983E-05-9.02640E-15 6.87185E-13
 -1      1192 1.99988E+01 6.27704E-05 9.46533E-05 3.01775E-05 1.55339E-14 5.20531E-13
 -1      1193 1.99997E+01 7.54107E-05 8.72524E-05-1.24007E-05-2.54310E-14 3.81484E-13
 -1      1194 1.99999E+01-2.84922E-05-5.62656E-05-3.04951E-05 7.11110E-14 3.91733E-13
 -1      1195 2.90579E+01 5.33209E-01 2.49474E-01 1.95166E+00-2.01367E-14 1.96576E-12
 -1      1196 2.22036E+01-6.61917E-02-5.80590E-01 9.96357E-02 2.28741E-14 1.43498E-12
 -1      1197 2.16283E+01-3.39706E-02-1.76332E-01 2.00565E-04 1.53055E-14 9.41858E-13
 -1      1198 2.16820E+01-8.57376E-03-2.87124E-02-1.57040E-02 1.67162E-14 5.97869E-13
 -1      1199 2.18839E+01 8.35380E-03 1.73029E-02-2.18656E-02 7.64661E-15 3.93255E-13
 -1      1200 2.20150E+01 2.15864E-02 3.95433E-02-2.27887E-02 5.75907E-15 1.85345E-13
 -1      1201 2.19079E+01 2.96181E-02 5.47336E-02-1.76685E-02-2.30762E-15 1.01928E-13
 -1      1202 2.14409E+01 2.85445E-02 5.88903E-02-4.45007E-03 7.23206E-15 1.96926E-14
 -1      1203 2.05791E+01 1.53228E-02 4.37198E-02 1.65665E-02-9.85822E-15-1.26295E-13
 -1      1204 1.94295E+01-8.22716E-03 6.35578E-03 4.00976E-02 3.06661E-15-1.35898E-13
 -1      1205 1.82615E+01-3.33892E-02-4.36907E-02 5.60353E-02 1.28413E-14-2.57003E-13
 -1      1206 1.74412E+01-4.81881E-02-8.54052E-02 5.44259E-02 2.51275E-14-4.69656E-13
 -1      1207 1.72759E+01-4.55218E-02-9.80268E-02 3.29554E-02 1.16331E-14-7.15723E-13
 -1      1208 1.78528E+01-2.83561E-02-7.58574E-02 5.71349E-05-2.77387E-14-7.42122E-13
 -1      1209 1.89901E+01-6.54372E-03-3.21962E-02-3.02341E-02 1.30273E-14-8.54095E-13
 -1      1210 2.03384E+01 1.06631E-02 1.14291E-02-4.72152E-02 1.05528E-14-9.29909E-13
 -1      1211 2.15511E+01 1.93479E-02 3.94838E-02-4.86349E-02-3.28171E-14-6.92127E-13
 -1      1212 2.24099E+01 2.04729E-02 4.83277E-02-3.91380E-02 7.17308E-16-5.45952E-13
 -1      1213 2.28535E+01 1.70651E-02 4.30342E-02-2.53757E-02 2.13579E-14-8.02797E-13
 -1      1214 2.29342E+01 1.19707E-02 3.11693E-02-1.24071E-02 1.56236E-14-9.99022E-13
 -1      1215 2.27558E+01 7.01823E-03 1.85827E-02-2.65490E-03 1.62814E-14-1.08034E-12
 -1      1216 2.24263E+01 3.05175E-03 8.31484E-03 3.47705E-03-2.50419E-14-7.88970E-13
 -1      1217 2.20328E+01 2.67928E-04 1.22048E-03 6.61225E-03 3.97636E-14-9.27610E-13
 -1      1218 2.16358E+01-1.46193E-03-3.01701E-03 7.66340E-03-1.03693E-14-1.05490E-12
 -1      1219 2.12711E+01-2.38044E-03-5.12082E-03 7.45398E-03-2.10311E-14-6.45921E-13
 -1      1220 2.09561E+01-2.73382E-03-5.81480E-03 6.59356E-03 2.30611E-14-4.89172E-13
 -1      1221 2.06963E+01-2.72675E-03-5.67141E-03 5.48049E-03-5.04376E-15-5.94619E-13
 -1      1222 2.04896E+01-2.51194E-03-5.09041E-03 4.34901E-03 3.39095E-14-8.11914E-13
 -1      1223 2.03303E+01-2.19515E-03-4.32801E-03 3.32109E-03-3.95403E-14-5.92963E-13
 -1      1224 2.02112E+01-1.84505E-03-3.53654E-03 2.44842E-03 4.01746E-15-3.64773E-13
 -1      1225 2.01247E+01-1.50328E-03-2.79894E-03 1.74193E-03 2.32259E-14-5.72753E-13
 -1      1226 2.00640E+01-1.19274E-03-2.15435E-03 1.19101E-03-1.49857E-14-4.46872E-13
 -1      1227 2.00229E+01-9.23936E-04-1.61551E-03 7.75214E-04-7.85133E-15-4.42530E-13
 -1      1228 1.99965E+01-6.99553E-04-1.18020E-03 4.71001E-04 4.15430E-15-6.49289E-13
 -1      1229 1.99807E+01-5.17661E-04-8.38403E-04 2.55500E-04 5.54767E-14-1.07782E-12
 -1      1230 1.99724E+01-3.73910E-04-5.76796E-04 1.08331E-04-5.39038E-14-9.82274E-13
 -1      1231 1.99692E+01-2.62938E-04-3.81452E-04 1.23142E-05 6.44021E-14-1.12680E-12
 -1      1232 1.99693E+01-1.79216E-04-2.39285E-04-4.64802E-05 4.20580E-14-1.08753E-12
 -1      1233 1.99715E+01-1.17520E-04-1.38730E-04-7.90234E-05-4.25751E-14-1.16122E-12
 -1      1234 1.99747E+01-7.31699E-05-6.99610E-05-9.37529E-05 4.60743E-14-1.33000E-12
 -1      1235 1.99784E+01-4.20988E-05-2.48423E-05-9.70256E-05 3.66972E-14-1.03665E-12
 -1      1236 1.99822E+01-2.08292E-05 3.26410E-06-9.35496E-05-8.66316E-14-2.91454E-13
 -1      1237 1.99859E+01-6.37151E-06 1.97979E-05-8.67681E-05 7.24874E-14-6.60530E-13
 -1      1238 1.99893E+01 3.92166E-06 2.94058E-05-7.91652E-05-3.84410E-15-1.03200E-12
 -1      1239 1.99923E+01 1.24446E-05 3.64301E-05-7.24413E-05-3.35016E-14-1.11998E-12
 -1      1240 1.99949E+01 2.15253E-05 4.55871E-05-6.75594E-05 8.30161E-14-1.16584E-12
 -1      1241 1.99971E+01 3.34039E-05 6.16789E-05-6.42696E-05-7.46886E-14-6.29938E-13
 -1      1242 1.99988E+01 4.69777E-05 8.31034E-05-5.77751E-05 2.41263E-14-6.33162E-13
 -1      1243 1.99997E+01 4.42802E-05 7.63252E-05-3.10504E-05 9.02514E-14-1.02708E-12
 -1      1244 1.99999E+01-2.55809E-05-5.77497E-05 2.66893E-05-1.73369E-14-6.93861E-13
 -1      1245 1.99998E+01 7.57896E-05-5.41450E-05 2.44237E-05-6.84709E-13-8.56100E-14
 -1      1246 1.99999E+01-9.10554E-05 7.82567E-05 9.91880E-06 2.57302E-13 1.55766E-13
 -1      1247 1.99998E+01-1.03510E-03 7.26137E-05-3.89422E-05 1.42642E-12 6.22734E-14
 -1      1248 1.99998E+01-2.50087E-03 2.96170E-05-5.66221E-05 1.26109E-12-3.91230E-14
 -1      1249 1.99998E+01-4.15144E-03-1.22006E-05-5.77796E-05 3.21316E-13-2.01495E-14
 -1      1250 1.99998E+01-5.69912E-03-4.44178E-05-4.91561E-05-7.70695E-13-2.70700E-13
 -1      1251 1.99998E+01-6.94935E-03-6.61978E-05-3.59423E-05-7.14889E-13-6.35756E-14
 -1      1252 1.99997E+01-7.76485E-03-7.92366E-05-1.86586E-05 2.88886E-13 1.47029E-13
 -1      1253 1.99997E+01-8.04472E-03-8.35315E-05 8.74084E-08 4.49098E-13-9.76466E-14
 -1      1254 1.99997E+01-7.75993E-03-7.92863E-05 1.88667E-05 6.14440E-13 5.23550E-14
 -1      1255 1.99998E+01-6.93919E-03-6.61200E-05 3.61664E-05 8.74563E-13-7.64182E-14
 -1      1256 1.99998E+01-5.68308E-03-4.40537E-05 5.01472E-05-5.01272E-13 1.76897E-14
 -1      1257 1.99998E+01-4.13184E-03-1.20661E-05 5.79952E-05-8.25157E-13-3.52415E-15
 -1      1258 1.99998E+01-2.47752E-03 3.07039E-05 5.75572E-05-4.60048E-13 6.66797E-14
 -1      1259 1.99998E+01-9.92296E-04 8.02832E-05 4.65942E-05-1.36475E-13-8.55190E-14
 -1      1260 1.99999E+01-1.11348E-04 7.36414E-05-2.75057E-05-4.45437E-13-1.79650E-13
 -1      1261 1.99998E+01 8.42181E-05-5.63592E-05-2.69751E-05-3.14168E-13 1.14694E-13
 -1      1262-1.16094E+00-2.38035E+01-3.70437E+00-2.26628E+00 4.35652E-13 1.44412E-13
 -1      1263-1.79829E+00-1.43512E+01-2.99848E+00-3.63224E+00 1.58029E-12 6.96443E-13
 -1      1264 5.72447E-01-1.90960E+00-1.81334E+00 3.33707E-01 2.50422E-12 1.66778E-12
 -1      1265 9.46730E+00 8.08432E+00-2.02831E-01 8.62159E+00 2.66898E-12 2.49134E-12
 -1      1266 2.60369E+01 1.13383E+01 1.51923E+00 1.62776E+01 1.96954E-12 2.74247E-12
 -1      1267 4.66822E+01 8.10608E+00 2.93805E+00 1.73558E+01 1.01097E-12 2.28706E-12
 -1      1268 6.31708E+01 3.06968E+00 3.99223E+00 9.94491E+00 2.42847E-13 1.08624E-12
 -1      1269 6.67263E+01 1.91065E+00 4.20332E+00-2.83689E+00 9.84629E-14-1.02973E-13
 -1      1270 5.71373E+01 5.31715E+00 3.68804E+00-1.41099E+01 5.32296E-13-1.52989E-12
 -1      1271 3.85267E+01 1.00133E+01 2.47629E+00-1.81410E+01 1.37990E-12-2.52154E-12
 -1      1272 1.91135E+01 1.08491E+01 8.26719E-01-1.39350E+01 2.20490E-12-2.69473E-12
 -1      1273 4.84755E+00 4.06617E+00-9.19022E-01-4.68851E+00 2.79110E-12-2.17804E-12
 -1      1274-1.18451E+00-8.41394E+00-2.51682E+00 2.57490E+00 2.78044E-12-1.37523E-12
 -1      1275-1.63646E+00-1.95141E+01-3.39686E+00 3.55856E+00 1.93978E-12-5.69961E-13
 -1      1276-9.08295E-01-2.54676E+01-3.88158E+00 3.04178E-01 5.85906E-13-1.32915E-13
 -1      1277-1.49165E+00-2.17730E+01-3.60628E+00-3.66179E+00-6.63469E-13-2.25181E-13
 -1      1278-1.82427E+00-1.15030E+01-2.85901E+00-3.76401E+00-1.80211E-12-8.44935E-13
 -1      1279 1.69193E+00 5.50436E-01-1.60631E+00 1.62016E+00-2.43006E-12-1.78879E-12
 -1      1280 1.26355E+01 9.09262E+00 4.76641E-02 1.04446E+01-2.46869E-12-2.60081E-12
 -1      1281 3.18839E+01 1.08257E+01 1.95440E+00 1.73588E+01-1.77836E-12-2.82685E-12
 -1      1282 5.38966E+01 6.73069E+00 3.57542E+00 1.63406E+01-8.37108E-13-2.25642E-12
 -1      1283 6.78674E+01 2.37707E+00 4.47552E+00 6.52722E+00-1.66044E-13-1.22474E-12
 -1      1284 6.79264E+01 2.22238E+00 4.46490E+00-6.34663E+00-3.50622E-14-1.18516E-13
 -1      1285 5.49622E+01 6.18690E+00 3.56089E+00-1.58118E+01-5.66158E-13 1.42419E-12
 -1      1286 3.57986E+01 1.02054E+01 2.18537E+00-1.79930E+01-1.49669E-12 2.57061E-12
 -1      1287 1.72311E+01 1.01390E+01 5.04146E-01-1.28113E+01-2.62279E-12 3.04268E-12
 -1      1288 4.48606E+00 4.01229E+00-1.08772E+00-4.46026E+00-3.15281E-12 2.55174E-12
 -1      1289-1.17654E+00-6.69289E+00-2.39637E+00 2.27539E+00-3.19789E-12 1.68632E-12
 -1      1290-1.90464E+00-1.79385E+01-3.32005E+00 4.53829E+00-2.59415E-12 8.66113E-13
 -1      1291-1.09477E+00-2.48506E+01-3.80319E+00 2.07800E+00-9.46854E-13 2.19699E-13
 -1      1292 2.43199E+01 1.95268E+00-7.14825E-01-2.39871E+00-3.16969E-14 1.69698E-12
 -1      1293 2.20649E+01 4.86908E+00-3.46841E-02-2.38793E+00-1.63952E-13 5.48991E-13
 -1      1294 2.28432E+01 5.02294E+00-6.10925E-02-3.37174E+00-1.75721E-13 8.45574E-13
 -1      1295 2.05476E+01 5.14800E+00-2.08424E-02-1.55277E+00-1.96829E-13 9.67108E-14
 -1      1296 2.12279E+01 5.34899E+00 3.40197E-02-2.01353E+00-2.11067E-13 3.09155E-13
 -1      1297 2.21754E+01 4.04539E+00-1.09591E-02-2.09611E+00-2.98307E-13 4.84987E-13
 -1      1298 1.93752E+01 5.16849E+00-1.74062E-02-9.54169E-01-1.89071E-13-1.80321E-13
 -1      1299 1.99465E+01 5.34586E+00 2.72562E-02-1.23657E+00-2.04115E-13-4.56024E-14
 -1      1300 2.05927E+01 4.52398E+00-1.77252E-02-1.40452E+00-3.14106E-13 1.02710E-13
 -1      1301 1.84014E+01 5.13314E+00-1.81514E-02-5.82024E-01-1.63369E-13-3.66046E-13
 -1      1302 1.88725E+01 5.27846E+00 1.63575E-02-7.50706E-01-1.73778E-13-2.73920E-13
 -1      1303 1.93380E+01 4.74593E+00-1.83341E-02-8.81893E-01-2.89550E-13-1.39253E-13
 -1      1304 1.76572E+01 5.09254E+00-1.84161E-02-3.86988E-01-1.39333E-13-4.75467E-13
 -1      1305 1.80063E+01 5.19988E+00 5.89321E-03-4.73732E-01-1.51240E-13-4.20115E-13
 -1      1306 1.83319E+01 4.86665E+00-1.58046E-02-5.59565E-01-2.54463E-13-2.98213E-13
 -1      1307 1.71647E+01 5.05953E+00-1.65028E-02-3.05145E-01-1.14186E-13-5.44630E-13
 -1      1308 1.73785E+01 5.12501E+00-3.85346E-03-3.42864E-01-1.26898E-13-5.12599E-13
 -1      1309 1.75832E+01 4.92956E+00-1.38162E-02-3.92036E-01-2.17947E-13-4.06567E-13
 -1      1310 1.69683E+01 5.04143E+00-1.12456E-02-2.75808E-01-8.47872E-14-5.86372E-13
 -1      1311 1.70299E+01 5.06038E+00-1.11327E-02-2.95769E-01-9.48720E-14-5.62340E-13
 -1      1312 1.71315E+01 4.94446E+00-1.28918E-02-3.20572E-01-1.71316E-13-4.55165E-13
 -1      1313 1.70613E+01 5.03934E+00-3.66969E-03-2.33007E-01-5.86701E-14-6.12579E-13
 -1      1314 1.69789E+01 5.01435E+00-1.46734E-02-2.66550E-01-6.75961E-14-5.99620E-13
 -1      1315 1.70046E+01 4.91688E+00-1.28322E-02-2.82342E-01-1.23307E-13-4.95125E-13
 -1      1316 1.74016E+01 5.05433E+00 4.64900E-03-1.20890E-01-3.04722E-14-6.17482E-13
 -1      1317 1.72006E+01 4.99300E+00-1.42684E-02-1.93307E-01-4.27124E-14-6.12834E-13
 -1      1318 1.71836E+01 4.85752E+00-1.35035E-02-2.13811E-01-8.74023E-14-5.10311E-13
 -1      1319 1.79258E+01 5.08682E+00 1.20177E-02 9.86158E-02-2.88658E-15-6.16503E-13
 -1      1320 1.76402E+01 4.99956E+00-1.08605E-02-2.92125E-02-1.08386E-14-6.18387E-13
 -1      1321 1.76142E+01 4.78213E+00-1.46406E-02-6.43340E-02-3.61109E-14-5.15362E-13
 -1      1322 1.85592E+01 5.13535E+00 1.77767E-02 4.38100E-01 2.87687E-14-5.92297E-13
 -1      1323 1.82254E+01 5.03173E+00-6.39957E-03 2.50466E-01 2.06224E-14-6.05410E-13
 -1      1324 1.82197E+01 4.70555E+00-1.58798E-02 1.94252E-01 1.62266E-14-5.07858E-13
 -1      1325 1.92832E+01 5.19601E+00 2.17353E-02 9.18477E-01 8.11434E-14-5.47753E-13
 -1      1326 1.89059E+01 5.07753E+00-3.41435E-03 6.58157E-01 6.12774E-14-5.72979E-13
 -1      1327 1.89403E+01 4.62988E+00-1.78346E-02 5.76319E-01 7.77382E-14-4.74541E-13
 -1      1328 2.00916E+01 5.25493E+00 2.35463E-02 1.54939E+00 1.25094E-13-4.52156E-13
 -1      1329 1.96658E+01 5.11808E+00-4.93656E-03 1.20684E+00 1.05187E-13-5.10841E-13
 -1      1330 1.97564E+01 4.53710E+00-2.02979E-02 1.09125E+00 1.50831E-13-4.17444E-13
 -1      1331 2.10837E+01 5.28130E+00 2.65626E-02 2.37942E+00 1.68393E-13-2.34007E-13
 -1      1332 2.05430E+01 5.10589E+00-1.48464E-02 1.91033E+00 1.41401E-13-3.66242E-13
 -1      1333 2.07027E+01 4.37143E+00-2.14670E-02 1.74414E+00 2.18991E-13-2.99448E-13
 -1      1334 2.26444E+01 5.07520E+00 3.01740E-02 3.57421E+00 1.74027E-13 2.17909E-13
 -1      1335 2.17526E+01 4.89080E+00-3.49446E-02 2.80671E+00 1.60760E-13-6.62595E-14
 -1      1336 2.19743E+01 3.95550E+00-1.29534E-02 2.52821E+00 2.77070E-13-4.24522E-14
 -1      1337 2.86907E+01 3.26308E+00 8.94412E-01 4.37790E+00 9.95315E-14 1.19982E-12
 -1      1338 2.36243E+01 3.63321E+00-1.74505E-01 3.51352E+00 9.58678E-14 5.05762E-13
 -1      1339 2.38270E+01 2.57172E+00-1.78904E-02 2.95526E+00 2.88465E-13 3.79807E-13
 -1      1340 2.32177E+01 3.30624E-01-7.73648E-01 9.19001E-01 1.66527E-13 1.12244E-12
 -1      1341 2.44731E+01 1.00988E-01-3.98449E-01-8.55229E-01-1.19210E-13 1.70311E-12
 -1      1342 2.36245E+01 2.81745E-01-1.48458E-01-4.30988E-01-1.15338E-13 1.58174E-12
 -1      1343 2.33030E+01 1.53837E-01-6.84685E-02-2.43657E-02-7.85275E-14 1.49759E-12
 -1      1344 2.33043E+01 9.15010E-02-9.63536E-03 4.27663E-02-8.90989E-14 1.38316E-12
 -1      1345 2.37534E+01 3.41970E-01-1.03490E-01-5.52282E-01-1.97370E-13 1.01531E-12
 -1      1346 2.32854E+01 7.12354E-02 2.86267E-03 2.45035E-01-6.49376E-14 1.32830E-12
 -1      1347 2.36026E+01 4.31226E-02 1.27785E-02 2.67139E-01-6.21083E-14 1.23488E-12
 -1      1348 2.33189E+01 1.32323E-01-3.84347E-02 2.27890E-01-1.47160E-13 8.98056E-13
 -1      1349 2.37953E+01 3.20133E-02 1.00776E-02 3.56371E-01-3.47465E-14 1.18688E-12
 -1      1350 2.42389E+01 6.61208E-03 8.84327E-03 3.65449E-01-5.42752E-14 1.13069E-12
 -1      1351 2.35200E+01 5.31322E-02-1.10037E-02 5.74764E-01-1.09211E-13 8.14231E-13
 -1      1352 2.45204E+01-7.99869E-03 7.39815E-03 3.65365E-01-1.59456E-14 1.12840E-12
 -1      1353 2.49467E+01-3.70874E-02 6.74745E-03 3.53884E-01-2.95361E-14 1.10058E-12
 -1      1354 2.39958E+01-1.33864E-02-2.14052E-03 6.88800E-01-6.53917E-14 7.63533E-13
 -1      1355 2.52098E+01-6.14712E-02 1.07357E-02 2.46023E-01-1.71694E-14 1.11916E-12
 -1      1356 2.54485E+01-9.25855E-02 1.12126E-02 2.03690E-01-7.94243E-15 1.10015E-12
 -1      1357 2.45497E+01-9.96193E-02 8.65664E-03 5.70937E-01-3.29251E-14 8.00533E-13
 -1      1358 2.55772E+01-1.25221E-01 2.12265E-02-3.19285E-02-1.27919E-14 1.12056E-12
 -1      1359 2.54314E+01-1.45322E-01 1.99326E-02-1.11343E-01-1.22905E-14 1.10521E-12
 -1      1360 2.49701E+01-2.04650E-01 2.42556E-02 1.71168E-01-3.82333E-15 7.96541E-13
 -1      1361 2.53105E+01-1.70956E-01 3.22111E-02-4.48411E-01 2.01401E-15 1.11119E-12
 -1      1362 2.46360E+01-1.55018E-01 2.44832E-02-5.50742E-01-2.50910E-14 1.07613E-12
 -1      1363 2.50283E+01-2.85683E-01 3.98131E-02-5.12230E-01-2.32037E-14 7.96349E-13
 -1      1364 2.42049E+01-1.43924E-01 2.95646E-02-8.64176E-01-4.04234E-14 1.05299E-12
 -1      1365 2.30619E+01-7.11338E-02 1.15467E-02-9.38449E-01-9.28771E-14 9.63396E-13
 -1      1366 2.45357E+01-2.56425E-01 4.18873E-02-1.31075E+00-5.62848E-14 7.91662E-13
 -1      1367 2.24089E+01-4.27248E-03 5.95117E-04-1.01257E+00-7.54414E-14 9.40859E-13
 -1      1368 2.11828E+01 1.07120E-01-2.37846E-02-9.87144E-01-5.08118E-14 8.62310E-13
 -1      1369 2.34927E+01-4.62205E-02 1.31769E-02-1.81388E+00-1.25315E-13 8.02150E-13
 -1      1370 2.06005E+01 1.96271E-01-4.41231E-02-6.63422E-01 2.04697E-15 7.59282E-13
 -1      1371 1.98921E+01 2.74288E-01-6.08557E-02-5.14387E-01-1.61329E-14 7.70023E-13
 -1      1372 2.22609E+01 2.80318E-01-4.64549E-02-1.53829E+00-8.98587E-14 6.33379E-13
 -1      1373 1.97443E+01 3.04017E-01-6.82993E-02 9.61973E-02-1.04930E-13 7.29208E-13
 -1      1374 1.99752E+01 2.82881E-01-6.35028E-02 2.85375E-01-1.41141E-13 5.91943E-13
 -1      1375 2.15164E+01 5.08103E-01-9.29008E-02-3.88882E-01-1.21632E-13 4.44235E-13
 -1      1376 2.03803E+01 2.21816E-01-4.92536E-02 8.19089E-01-1.03424E-13 5.31859E-13
 -1      1377 2.14377E+01 1.19778E-01-2.74591E-02 9.24278E-01-6.32324E-14 4.50390E-13
 -1      1378 2.17763E+01 4.46947E-01-8.05879E-02 1.03367E+00-1.80533E-13 3.02675E-13
 -1      1379 2.21461E+01 3.12404E-02-9.44753E-03 1.08818E+00-3.93012E-14 3.41657E-13
 -1      1380 2.34837E+01-7.26236E-02 1.40209E-02 1.06753E+00-5.01680E-14 2.77639E-13
 -1      1381 2.28989E+01 1.52456E-01-2.15320E-02 1.87789E+00-1.63470E-13 1.42372E-13
 -1      1382 2.41239E+01-1.18583E-01 1.77850E-02 8.70029E-01-7.70720E-14 2.68938E-13
 -1      1383 2.51853E+01-1.70191E-01 3.18238E-02 7.75219E-01-7.78943E-14 1.67109E-13
 -1      1384 2.42263E+01-1.51634E-01 2.82278E-02 1.80257E+00-1.06555E-13 2.64823E-14
 -1      1385 2.55349E+01-1.62762E-01 2.21899E-02 4.23084E-01-4.12257E-14 1.76088E-13
 -1      1386 2.60605E+01-1.63184E-01 2.70246E-02 3.24189E-01-5.03729E-14 9.32553E-14
 -1      1387 2.51610E+01-2.90828E-01 4.45541E-02 1.10945E+00-7.30561E-14-1.76317E-14
 -1      1388 2.60954E+01-1.31800E-01 1.40776E-02 6.74195E-03-7.76705E-14 1.34941E-13
 -1      1389 2.61188E+01-1.07620E-01 1.38234E-02-6.08490E-02 2.70617E-16 1.06954E-13
 -1      1390 2.54833E+01-2.67608E-01 3.62476E-02 2.97213E-01-5.78981E-14 1.14526E-14
 -1      1391 2.59210E+01-7.76067E-02 4.74981E-03-2.64132E-01 2.66167E-14 3.00107E-15
 -1      1392 2.56127E+01-5.03318E-02 2.86338E-03-2.97138E-01-1.72640E-14 5.97820E-14
 -1      1393 2.52748E+01-1.72562E-01 2.02649E-02-3.19773E-01-4.25875E-14-7.49392E-14
 -1      1394 2.52858E+01-3.10527E-02-7.76901E-04-3.89159E-01 5.42812E-14 9.86329E-14
 -1      1395 2.48213E+01-1.00960E-02-2.65811E-03-3.97522E-01 1.55622E-14 1.37904E-13
 -1      1396 2.47279E+01-7.85098E-02 6.84598E-03-6.62575E-01 3.50943E-14-1.40438E-13
 -1      1397 2.44495E+01-1.20938E-03-2.47590E-03-4.12740E-01 3.96346E-14 2.34802E-13
 -1      1398 2.39531E+01 1.20053E-02-4.10078E-03-4.07542E-01 1.14854E-14 2.43562E-13
 -1      1399 2.40261E+01-1.39966E-02-1.31308E-03-7.82343E-01 6.90422E-14-3.88977E-14
 -1      1400 2.35905E+01 1.41048E-02-2.10246E-03-3.80726E-01-2.80613E-14 3.52749E-13
 -1      1401 2.31317E+01 2.13001E-02-3.56411E-03-3.69763E-01 4.91991E-14 4.36463E-13
 -1      1402 2.32997E+01 2.06062E-02-5.19988E-03-7.63306E-01 2.52133E-14 1.42256E-13
 -1      1403 2.28070E+01 1.99041E-02-1.09734E-03-3.25335E-01 7.39797E-14 3.98223E-13
 -1      1404 2.24152E+01 2.32171E-02-2.45590E-03-3.13034E-01 2.22019E-14 4.15452E-13
 -1      1405 2.26254E+01 3.45735E-02-6.45125E-03-6.75432E-01 4.79725E-14 1.93435E-13
 -1      1406 2.21398E+01 2.04495E-02-1.85840E-04-2.65150E-01-1.03167E-13 4.21845E-13
 -1      1407 2.18212E+01 2.15282E-02-1.43115E-03-2.53647E-01-5.26523E-14 2.79340E-13
 -1      1408 2.20391E+01 3.69120E-02-6.34437E-03-5.63781E-01-5.18756E-14 2.42205E-13
 -1      1409 2.15962E+01 1.85268E-02 4.12710E-04-2.09292E-01 5.53366E-14 2.59909E-13
 -1      1410 2.13455E+01 1.84369E-02-6.82790E-04-1.99414E-01 1.02698E-14 2.80406E-13
 -1      1411 2.15510E+01 3.37440E-02-5.65129E-03-4.52898E-01-1.35820E-14 3.26908E-13
 -1      1412 2.11666E+01 1.57141E-02 7.17703E-04-1.61346E-01-3.06784E-14 2.74070E-13
 -1      1413 2.09741E+01 1.50808E-02-2.03327E-04-1.53258E-01-6.50521E-18 3.37131E-13
 -1      1414 2.11572E+01 2.85632E-02-4.77641E-03-3.54030E-01-2.99149E-14 1.76982E-13
 -1      1415 2.08349E+01 1.28110E-02 8.17383E-04-1.22014E-01 5.26207E-15 3.03812E-13
 -1      1416 2.06900E+01 1.19769E-02 7.37588E-05-1.15586E-01-2.26264E-14 2.37247E-13
 -1      1417 2.08470E+01 2.31249E-02-3.91015E-03-2.70933E-01-4.30298E-14 1.08729E-13
 -1      1418 2.05836E+01 1.01727E-02 7.96197E-04-9.06794E-02-8.55890E-14 2.30360E-13
 -1      1419 2.04764E+01 9.31434E-03 2.15883E-04-8.56769E-02-9.27088E-14 1.23818E-13
 -1      1420 2.06073E+01 1.81940E-02-3.13169E-03-2.03599E-01-1.12502E-13-6.98690E-14
 -1      1421 2.03966E+01 7.92256E-03 7.14661E-04-6.62333E-02 7.46570E-14 8.39673E-14
 -1      1422 2.03187E+01 7.12397E-03 2.74595E-04-6.24025E-02 8.65100E-14 2.32867E-13
 -1      1423 2.04253E+01 1.40256E-02-2.46616E-03-1.50382E-01 5.13031E-14 5.61530E-14
 -1      1424 2.02597E+01 6.07258E-03 6.10280E-04-4.74759E-02-3.12118E-14 2.50313E-13
 -1      1425 2.02043E+01 5.36831E-03 2.84897E-04-4.45843E-02-1.23805E-15 2.95765E-13
 -1      1426 2.02895E+01 1.06371E-02-1.91391E-03-1.09108E-01 5.33713E-14 1.10449E-13
 -1      1427 2.01615E+01 4.58711E-03 5.03944E-04-3.32956E-02-1.93228E-14 2.21475E-13
 -1      1428 2.01229E+01 3.98630E-03 2.69038E-04-3.11436E-02-2.74566E-14 2.15828E-13
 -1      1429 2.01899E+01 7.94872E-03-1.46492E-03-7.75988E-02 2.61519E-14 3.33598E-14
 -1      1430 2.00925E+01 3.41458E-03 4.06024E-04-2.27310E-02-5.75999E-15 2.05958E-13
 -1      1431 2.00664E+01 2.91391E-03 2.40555E-04-2.11537E-02-5.44866E-15 2.01781E-13
 -1      1432 2.01182E+01 5.85181E-03-1.10561E-03-5.38970E-02-7.40847E-14 1.76737E-13
 -1      1433 2.00454E+01 2.50204E-03 3.20775E-04-1.49817E-02 2.12566E-14 1.66213E-13
 -1      1434 2.00284E+01 2.09245E-03 2.07399E-04-1.38452E-02-7.14753E-14 8.44274E-14
 -1      1435 2.00678E+01 4.23840E-03-8.21997E-04-3.63343E-02 6.15502E-15 1.52309E-13
 -1      1436 2.00143E+01 1.80102E-03 2.49150E-04-9.39589E-03-5.70163E-14 1.10750E-13
 -1      1437 2.00038E+01 1.47125E-03 1.74072E-04-8.59350E-03 9.66103E-14 1.08377E-13
 -1      1438 2.00333E+01 3.01251E-03-6.01056E-04-2.35314E-02-6.99465E-14 1.46048E-13
 -1      1439 1.99947E+01 1.26950E-03 1.90462E-04-5.45130E-03 1.00833E-13 1.36753E-13
 -1      1440 1.99888E+01 1.00786E-03 1.42992E-04-4.89877E-03 3.35150E-14 2.23500E-13
 -1      1441 2.00105E+01 2.09290E-03-4.31196E-04-1.43708E-02 6.44479E-14 1.29928E-13
 -1      1442 1.99834E+01 8.72070E-04 1.43302E-04-2.73488E-03-5.48037E-14 2.02875E-13
 -1      1443 1.99806E+01 6.67431E-04 1.15321E-04-2.36645E-03-7.25889E-14 7.33635E-14
 -1      1444 1.99961E+01 1.41261E-03-3.02401E-04-7.96031E-03-4.47865E-15 7.29590E-14
 -1      1445 1.99777E+01 5.79487E-04 1.06023E-04-9.23706E-04 1.58207E-14 2.63623E-14
 -1      1446 1.99769E+01 4.21720E-04 9.14663E-05-6.88608E-04 9.57516E-14 8.26718E-14
 -1      1447 1.99878E+01 9.17302E-04-2.06197E-04-3.59669E-03 2.66134E-15-1.44985E-14
 -1      1448 1.99757E+01 3.67942E-04 7.69804E-05 2.31820E-04 8.50779E-14 2.76173E-14
 -1      1449 1.99763E+01 2.48119E-04 7.13956E-05 3.72319E-04 2.86437E-14 7.09844E-14
 -1      1450 1.99836E+01 5.63439E-04-1.35538E-04-7.32185E-04 6.55975E-14 1.83237E-14
 -1      1451 1.99761E+01 2.18261E-04 5.46574E-05 9.22292E-04-1.68051E-14 2.63392E-13
 -1      1452 1.99775E+01 1.28673E-04 5.48291E-05 9.97386E-04 7.18923E-14 2.13999E-13
 -1      1453 1.99822E+01 3.16455E-04-8.46475E-05 1.05489E-03 5.41620E-14-8.32384E-15
 -1      1454 1.99780E+01 1.15133E-04 3.77151E-05 1.29128E-03 6.10517E-14 2.29229E-13
 -1      1455 1.99797E+01 4.92278E-05 4.13650E-05 1.32263E-03-1.15041E-13 1.13356E-13
 -1      1456 1.99826E+01 1.49115E-04-4.88357E-05 2.08495E-03 3.24367E-14 1.99106E-13
 -1      1457 1.99807E+01 4.64193E-05 2.50058E-05 1.44513E-03-1.08544E-13 2.10595E-13
 -1      1458 1.99825E+01-1.31275E-06 3.05529E-05 1.44847E-03-1.02695E-13 1.21806E-13
 -1      1459 1.99840E+01 4.00892E-05-2.43335E-05 2.59780E-03-4.13087E-14 2.11807E-13
 -1      1460 1.99837E+01 2.53511E-06 1.55679E-05 1.46089E-03-5.46579E-14 8.80237E-16
 -1      1461 1.99855E+01-3.16232E-05 2.19417E-05 1.44735E-03-5.20687E-14-4.41794E-14
 -1      1462 1.99860E+01-2.72677E-05-8.13679E-06 2.76945E-03-1.47029E-13 1.29940E-13
 -1      1463 1.99867E+01-2.40988E-05 8.62014E-06 1.39256E-03-6.53149E-14 6.16532E-14
 -1      1464 1.99884E+01-4.85261E-05 1.51228E-05 1.36964E-03-9.15164E-14-3.36680E-14
 -1      1465 1.99883E+01-6.59633E-05 2.13756E-06 2.72568E-03-1.33247E-14-4.49810E-14
 -1      1466 1.99896E+01-3.95661E-05 3.57694E-06 1.27588E-03-1.01721E-13 1.74164E-13
 -1      1467 1.99912E+01-5.75029E-05 9.79871E-06 1.24816E-03-2.57753E-14-6.11215E-14
 -1      1468 1.99906E+01-8.63171E-05 8.39087E-06 2.55251E-03-5.14240E-14 1.57261E-13
 -1      1469 1.99923E+01-4.89391E-05 1.16362E-07 1.13175E-03 1.70906E-13-3.31321E-14
 -1      1470 1.99936E+01-6.31319E-05 5.95148E-06 1.10136E-03 2.16303E-13 1.72860E-13
 -1      1471 1.99927E+01-9.68348E-05 1.21876E-05 2.30408E-03 1.31562E-13 3.35056E-13
 -1      1472 1.99946E+01-5.66253E-05-1.60313E-06 9.68521E-04 2.70400E-13 1.96586E-13
 -1      1473 1.99958E+01-6.94737E-05 4.01819E-06 9.35367E-04 1.79343E-13 5.92033E-13
 -1      1474 1.99947E+01-1.04935E-04 1.49303E-05 2.00807E-03 3.96528E-13 5.88155E-13
 -1      1475 1.99966E+01-6.69596E-05-7.35073E-07 7.83162E-04-6.63671E-14 3.47033E-13
 -1      1476 1.99975E+01-8.02146E-05 4.81233E-06 7.44602E-04-9.49825E-14 3.26889E-13
 -1      1477 1.99964E+01-1.18247E-04 1.78513E-05 1.66954E-03 5.96293E-14 3.27398E-13
 -1      1478 1.99981E+01-8.33632E-05 3.62172E-06 5.63367E-04-3.76016E-15 3.46991E-13
 -1      1479 1.99988E+01-9.65186E-05 6.50736E-06 5.13957E-04-4.70096E-14 3.05619E-13
 -1      1480 1.99978E+01-1.43907E-04 2.12607E-05 1.27328E-03-3.91225E-14 2.23902E-13
 -1      1481 1.99992E+01-1.13031E-04 6.23137E-06 2.93061E-04 3.56172E-14 3.42957E-13
 -1      1482 1.99995E+01-1.04039E-04-1.50972E-06 2.32245E-04-2.23050E-15 3.44546E-13
 -1      1483 1.99989E+01-1.86369E-04 2.29780E-05 8.01153E-04 8.92009E-14 3.09819E-13
 -1      1484 1.99998E+01-3.10225E-05-8.69957E-06-1.50410E-05-2.95949E-13 2.36576E-13
 -1      1485 1.99996E+01-1.65915E-04 9.08912E-06 2.20393E-04-2.26610E-13 9.80983E-14
 -1      1486 2.25424E+01 6.34541E-02-1.41277E-01 2.88236E-01 1.48912E-13 8.15544E-13
 -1      1487 2.35049E+01 2.13403E-01-2.30297E-01 5.09114E-01 1.25025E-13 1.05858E-12
 -1      1488 2.36308E+01 8.33729E-01-9.69699E-02 1.67746E+00 2.46018E-13 6.35367E-13
 -1      1489 2.20220E+01 2.18069E-02-1.32743E-02 3.64807E-02 1.06644E-13 5.39319E-13
 -1      1490 2.22055E+01 1.02129E-01-5.68107E-02 7.91764E-02 1.02552E-13 7.18063E-13
 -1      1491 2.25619E+01 1.55669E-01-5.52687E-02 4.59645E-01 2.13871E-13 4.41629E-13
 -1      1492 2.19437E+01 1.34997E-03 1.19527E-02-4.52536E-02 7.00742E-14 3.44676E-13
 -1      1493 2.19157E+01 3.43672E-02 4.63208E-03-2.99537E-02 7.56808E-14 4.64358E-13
 -1      1494 2.21287E+01 4.32801E-02-9.17681E-03 5.54097E-02 1.63085E-13 3.07938E-13
 -1      1495 2.19861E+01-1.27888E-02 1.44639E-02-3.71416E-02 6.46459E-14 1.97373E-13
 -1      1496 2.19240E+01-1.11614E-03 1.30993E-02-4.05697E-02 5.00379E-14 2.92301E-13
 -1      1497 2.20130E+01-5.02282E-03 3.46659E-03-5.06851E-02 1.05641E-13 1.82868E-13
 -1      1498 2.19486E+01-2.36228E-02 1.50943E-02 3.26296E-02 4.08952E-14 7.03500E-14
 -1      1499 2.19546E+01-2.59927E-02 1.06459E-02 1.29796E-02 3.89810E-14 1.43694E-13
 -1      1500 2.19744E+01-3.67624E-02 8.63460E-03-1.24073E-04 8.70762E-14 9.07954E-14
 -1      1501 2.16932E+01-2.96795E-02 1.57726E-02 1.46614E-01 2.09559E-14 4.21208E-14
 -1      1502 2.18393E+01-4.41127E-02 8.46352E-03 1.13429E-01 6.29358E-15 4.65735E-14
 -1      1503 2.18558E+01-5.97580E-02 1.31929E-02 1.57534E-01 3.94225E-14 1.77800E-14
 -1      1504 2.11448E+01-2.68732E-02 1.36392E-02 2.76595E-01 4.59784E-14-1.08524E-14
 -1      1505 2.14692E+01-5.09818E-02 7.02461E-03 2.36799E-01 3.70433E-14 4.13680E-14
 -1      1506 2.15543E+01-6.90920E-02 1.60963E-02 3.78434E-01 3.90157E-14 1.66273E-14
 -1      1507 2.03248E+01-1.18283E-02 5.78004E-03 3.76672E-01 1.51890E-14-8.33326E-14
 -1      1508 2.08101E+01-3.98854E-02 4.43207E-03 3.43068E-01 1.88191E-14-5.24025E-14
 -1      1509 2.10324E+01-5.51859E-02 1.45775E-02 5.94422E-01 4.05158E-14 1.05714E-14
 -1      1510 1.93803E+01 1.38592E-02-7.89495E-03 3.92352E-01 4.04130E-14-1.31201E-13
 -1      1511 1.99360E+01-8.21130E-03-6.79558E-04 3.80924E-01 6.14092E-15-1.33948E-13
 -1      1512 2.03417E+01-1.20271E-02 7.06453E-03 7.12166E-01 4.11964E-14-9.35918E-14
 -1      1513 1.85678E+01 4.09047E-02-2.27749E-02 2.87547E-01 7.82863E-14-2.15959E-13
 -1      1514 1.90408E+01 3.61792E-02-7.58385E-03 3.09500E-01 6.19392E-14-1.39912E-13
 -1      1515 1.96329E+01 5.28655E-02-4.72133E-03 6.44060E-01 7.11913E-14-1.52644E-13
 -1      1516 1.81644E+01 5.57548E-02-3.10670E-02 7.58127E-02 1.00794E-13-3.88992E-13
 -1      1517 1.83927E+01 7.46916E-02-1.31418E-02 1.28531E-01 9.41573E-14-2.68747E-13
 -1      1518 1.91197E+01 1.14138E-01-1.57316E-02 3.62480E-01 1.39172E-13-1.48172E-13
 -1      1519 1.83351E+01 4.99593E-02-2.71675E-02-1.73233E-01 1.05731E-14-5.16424E-13
 -1      1520 1.82252E+01 8.80714E-02-1.37082E-02-1.07803E-01 5.78565E-14-4.80088E-13
 -1      1521 1.89896E+01 1.39749E-01-2.06754E-02-6.13894E-02 1.30384E-13-2.27101E-13
 -1      1522 1.90412E+01 2.70050E-02-1.26873E-02-3.68420E-01 4.74924E-15-5.42809E-13
 -1      1523 1.86196E+01 7.01948E-02-8.24414E-03-3.14139E-01-1.67496E-14-5.42646E-13
 -1      1524 1.93062E+01 1.13708E-01-1.80035E-02-4.79589E-01 7.23727E-15-3.30428E-13
 -1      1525 2.00614E+01-8.03425E-04 4.59096E-03-4.48870E-01-1.86958E-14-5.94372E-13
 -1      1526 1.94595E+01 3.21529E-02 4.38560E-04-4.21824E-01 2.99411E-14-5.63695E-13
 -1      1527 1.99734E+01 4.96230E-02-1.05720E-02-7.47416E-01 5.44395E-14-4.26666E-13
 -1      1528 2.11071E+01-2.15432E-02 1.68627E-02-4.11040E-01-7.93150E-14-5.02029E-13
 -1      1529 2.04937E+01-7.04445E-03 7.87348E-03-4.12878E-01-2.51843E-14-5.51365E-13
 -1      1530 2.07882E+01-2.01021E-02-2.71159E-03-7.99551E-01-2.40114E-14-2.98683E-13
 -1      1531 2.19469E+01-3.02874E-02 2.09692E-02-2.96037E-01-3.38839E-14-4.05766E-13
 -1      1532 2.14559E+01-3.31883E-02 1.12172E-02-3.17420E-01-5.82971E-14-4.82826E-13
 -1      1533 2.15392E+01-6.75152E-02 2.75150E-03-6.66531E-01-9.12924E-14-2.38209E-13
 -1      1534 2.24678E+01-2.89203E-02 1.84116E-02-1.56745E-01 7.47540E-14-4.72551E-13
 -1      1535 2.21634E+01-4.25781E-02 1.04333E-02-1.85443E-01 3.94121E-14-4.14224E-13
 -1      1536 2.20836E+01-8.34911E-02 5.19609E-03-4.33834E-01 3.30361E-14-2.92415E-13
 -1      1537 2.26673E+01-2.20832E-02 1.27062E-02-3.26620E-02 2.43043E-14-6.73244E-13
 -1      1538 2.25491E+01-3.92504E-02 7.26571E-03-5.94326E-02 8.36310E-14-5.45816E-13
 -1      1539 2.23702E+01-7.50173E-02 5.38229E-03-1.87738E-01 1.46987E-13-3.55679E-13
 -1      1540 2.26088E+01-1.39094E-02 6.80560E-03 5.74972E-02 3.26341E-14-7.24053E-13
 -1      1541 2.26384E+01-2.95533E-02 3.67365E-03 3.72233E-02-5.60012E-15-6.69955E-13
 -1      1542 2.24191E+01-5.46138E-02 4.40610E-03 1.58297E-02 2.40979E-14-3.75596E-13
 -1      1543 2.23786E+01-6.80335E-03 2.23464E-03 1.11352E-01-9.75847E-14-6.29989E-13
 -1      1544 2.25052E+01-1.85834E-02 8.44558E-04 9.84776E-02-4.04969E-14-6.86052E-13
 -1      1545 2.22883E+01-3.25028E-02 3.09403E-03 1.55192E-01-5.88011E-14-3.17690E-13
 -1      1546 2.20567E+01-1.64216E-03-6.60654E-04 1.35193E-01 2.64472E-14-5.82519E-13
 -1      1547 2.22339E+01-9.17240E-03-8.66811E-04 1.28643E-01-3.41915E-14-6.13429E-13
 -1      1548 2.20446E+01-1.42101E-02 1.89397E-03 2.32421E-01-1.05894E-13-3.30432E-13
 -1      1549 2.17048E+01 1.60115E-03-2.14908E-03 1.37953E-01 4.78077E-14-6.96877E-13
 -1      1550 2.18975E+01-2.31277E-03-1.61449E-03 1.35992E-01 5.52387E-14-5.78366E-13
 -1      1551 2.17464E+01-1.43869E-03 9.68207E-04 2.60852E-01 3.23212E-14-4.06646E-13
 -1      1552 2.13635E+01 3.32794E-03-2.67523E-03 1.27883E-01-8.11847E-14-6.67882E-13
 -1      1553 2.15490E+01 2.06276E-03-1.72541E-03 1.28846E-01-1.29772E-14-7.39251E-13
 -1      1554 2.14371E+01 6.23670E-03 3.25606E-04 2.56264E-01 1.68447E-14-4.56089E-13
 -1      1555 2.10565E+01 4.00432E-03-2.63788E-03 1.11305E-01-8.64293E-14-3.65966E-13
 -1      1556 2.12221E+01 4.45956E-03-1.50231E-03 1.13882E-01-1.57311E-13-5.83099E-13
 -1      1557 2.11452E+01 1.00367E-02-8.40602E-05 2.32383E-01-1.76116E-13-4.75820E-13
 -1      1558 2.07944E+01 4.02684E-03-2.32225E-03 9.25120E-02 4.33055E-14-2.89251E-13
 -1      1559 2.09345E+01 5.46196E-03-1.15551E-03 9.57855E-02 4.87303E-14-2.70018E-13
 -1      1560 2.08861E+01 1.12397E-02-3.21752E-04 1.99406E-01-2.79358E-14-2.39481E-13
 -1      1561 2.05793E+01 3.68725E-03-1.90590E-03 7.41213E-02-3.13172E-14-3.19787E-13
 -1      1562 2.06933E+01 5.57421E-03-8.04974E-04 7.75103E-02-8.40474E-15-2.42305E-13
 -1      1563 2.06666E+01 1.08859E-02-4.40413E-04 1.64100E-01-2.19876E-16-6.10033E-14
 -1      1564 2.04088E+01 3.18090E-03-1.48715E-03 5.75444E-02-2.78558E-14-3.83581E-13
 -1      1565 2.04983E+01 5.17512E-03-5.06059E-04 6.07146E-02 3.73872E-14-3.75372E-13
 -1      1566 2.04872E+01 9.71668E-03-4.80642E-04 1.30501E-01 6.06881E-14-9.29762E-14
 -1      1567 2.02773E+01 2.62879E-03-1.11337E-03 4.33927E-02-1.06628E-13-2.37658E-13
 -1      1568 2.03457E+01 4.52498E-03-2.75632E-04 4.61782E-02-1.60084E-13-4.57943E-13
 -1      1569 2.03450E+01 8.21485E-03-4.71828E-04 1.00705E-01-9.71883E-14-9.37757E-14
 -1      1570 2.01789E+01 2.09998E-03-8.02201E-04 3.17876E-02 4.87178E-14-1.56073E-13
 -1      1571 2.02295E+01 3.79021E-03-1.11010E-04 3.41293E-02 5.52245E-14-1.48962E-13
 -1      1572 2.02354E+01 6.66989E-03-4.34582E-04 7.55371E-02-1.96602E-14-1.32983E-13
 -1      1573 2.01072E+01 1.62938E-03-5.55326E-04 2.25753E-02-5.04246E-15-2.93152E-13
 -1      1574 2.01436E+01 3.06962E-03-1.49228E-06 2.44779E-02 4.51704E-14-2.34942E-13
 -1      1575 2.01532E+01 5.23955E-03-3.82995E-04 5.50543E-02 5.78856E-14-7.74245E-14
 -1      1576 2.00567E+01 1.23075E-03-3.66775E-04 1.54675E-02-4.63678E-14-2.20473E-13
 -1      1577 2.00819E+01 2.41624E-03 6.54950E-05 1.69697E-02-7.05313E-14-3.08646E-13
 -1      1578 2.00932E+01 3.99726E-03-3.26404E-04 3.88901E-02-2.10177E-14-3.83253E-14
 -1      1579 2.00223E+01 9.05328E-04-2.27565E-04 1.01274E-02 1.02363E-13-2.77520E-13
 -1      1580 2.00391E+01 1.85366E-03 1.01562E-04 1.12835E-02 6.59874E-14-2.27208E-13
 -1      1581 2.00506E+01 2.96551E-03-2.70714E-04 2.64791E-02 2.29094E-14-9.06568E-14
 -1      1582 2.00000E+01 6.47587E-04-1.28160E-04 6.22102E-03 1.72483E-13-6.15149E-13
 -1      1583 2.00106E+01 1.38737E-03 1.16322E-04 7.08933E-03 1.52485E-13-4.20521E-13
 -1      1584 2.00215E+01 2.13787E-03-2.19376E-04 1.71955E-02 2.43898E-13-4.06558E-13
 -1      1585 1.99865E+01 4.48795E-04-5.97058E-05 3.44398E-03-1.75597E-13-7.25761E-13
 -1      1586 1.99926E+01 1.01254E-03 1.17237E-04 4.08029E-03-3.57447E-14-6.54587E-13
 -1      1587 2.00025E+01 1.49315E-03-1.74135E-04 1.04332E-02 9.73904E-15-3.35516E-13
 -1      1588 1.99792E+01 2.99258E-04-1.45737E-05 1.53360E-03 3.15937E-14-6.82874E-13
 -1      1589 1.99822E+01 7.19075E-04 1.09819E-04 1.98778E-03-5.08043E-14-6.78128E-13
 -1      1590 1.99908E+01 1.00411E-03-1.35610E-04 5.64762E-03-9.21309E-14-4.15241E-13
 -1      1591 1.99762E+01 1.89587E-04 1.34795E-05 2.71906E-04 1.04104E-13-7.77734E-13
 -1      1592 1.99771E+01 4.94849E-04 9.79601E-05 5.86512E-04 1.63844E-14-7.11587E-13
 -1      1593 1.99844E+01 6.42676E-04-1.03713E-04 2.37262E-03 2.45873E-15-3.93675E-13
 -1      1594 1.99760E+01 1.11334E-04 2.93807E-05-5.16572E-04-5.16622E-14-5.35552E-13
 -1      1595 1.99756E+01 3.27602E-04 8.42817E-05-3.06378E-04-3.62117E-14-5.83900E-13
 -1      1596 1.99815E+01 3.82757E-04-7.79502E-05 2.23864E-04-1.10045E-13-2.44791E-13
 -1      1597 1.99775E+01 5.72341E-05 3.69121E-05-9.69411E-04 3.67509E-14-7.01426E-13
 -1      1598 1.99763E+01 2.05968E-04 7.04553E-05-8.35393E-04 5.44678E-14-5.68604E-13
 -1      1599 1.99810E+01 2.01527E-04-5.76156E-05-1.10659E-03 6.50731E-14-2.09876E-13
 -1      1600 1.99799E+01 2.12380E-05 3.89100E-05-1.19184E-03 4.78446E-14-7.43736E-13
 -1      1601 1.99783E+01 1.19934E-04 5.74720E-05-1.11188E-03-3.96344E-16-7.50720E-13
 -1      1602 1.99821E+01 7.97898E-05-4.19208E-05-1.85913E-03 4.49849E-14-2.59474E-13
 -1      1603 1.99828E+01-1.58558E-06 3.74561E-05-1.26226E-03-2.07657E-13-4.03936E-13
 -1      1604 1.99811E+01 6.09777E-05 4.58495E-05-1.21945E-03-6.86504E-14-5.81700E-13
 -1      1605 1.99839E+01 1.84744E-06-3.00715E-05-2.21674E-03-1.32565E-13 1.08097E-14
 -1      1606 1.99859E+01-1.52079E-05 3.40537E-05-1.23725E-03 1.49312E-13-2.29041E-13
 -1      1607 1.99841E+01 2.19906E-05 3.57887E-05-1.21907E-03-7.08411E-14-3.17065E-13
 -1      1608 1.99863E+01-4.48794E-05-2.13067E-05-2.31493E-03-1.23239E-13-1.73728E-13
 -1      1609 1.99889E+01-2.28401E-05 2.97970E-05-1.15579E-03 6.45778E-14-4.18679E-13
 -1      1610 1.99872E+01-2.92141E-06 2.72926E-05-1.15339E-03 1.50242E-13-2.31726E-13
 -1      1611 1.99887E+01-7.03715E-05-1.49031E-05-2.25053E-03 1.75079E-13-1.41769E-13
 -1      1612 1.99916E+01-2.71763E-05 2.55791E-05-1.04256E-03 1.41245E-14-5.37702E-13
 -1      1613 1.99901E+01-1.87486E-05 2.02773E-05-1.05020E-03 1.12099E-13-3.65118E-13
 -1      1614 1.99911E+01-8.26087E-05-1.01337E-05-2.08900E-03 9.50273E-14 4.48336E-14
 -1      1615 1.99940E+01-3.05116E-05 2.24106E-05-9.10111E-04 1.02437E-13-7.40238E-13
 -1      1616 1.99927E+01-2.98736E-05 1.47575E-05-9.24914E-04 3.86423E-14-7.23759E-13
 -1      1617 1.99933E+01-8.82055E-05-6.15256E-06-1.86992E-03 1.71585E-13-1.67808E-13
 -1      1618 1.99961E+01-3.49803E-05 2.17379E-05-7.60559E-04-1.45422E-13-4.86579E-13
 -1      1619 1.99950E+01-4.03917E-05 1.10986E-05-7.82372E-04-3.09938E-14-6.01618E-13
 -1      1620 1.99953E+01-9.28929E-05-1.79184E-06-1.61097E-03-5.85185E-14-2.60088E-13
 -1      1621 1.99978E+01-4.28813E-05 2.44669E-05-5.85834E-04-3.24143E-14-3.24591E-13
 -1      1622 1.99969E+01-5.45819E-05 1.00541E-05-6.17832E-04-1.17142E-13-5.22115E-13
 -1      1623 1.99970E+01-1.02525E-04 4.32414E-06-1.31065E-03-1.52303E-13-8.62490E-14
 -1      1624 1.99990E+01-5.56243E-05 2.58521E-05-3.68540E-04 1.68955E-14-5.20174E-13
 -1      1625 1.99984E+01-7.61505E-05 1.09788E-05-4.18902E-04 4.21083E-14-3.84896E-13
 -1      1626 1.99983E+01-1.23939E-04 1.17764E-05-9.51219E-04 9.57109E-15-1.32651E-14
 -1      1627 1.99996E+01-6.76083E-05-1.04469E-06-1.18166E-04 6.44761E-14-4.47655E-13
 -1      1628 1.99994E+01-9.37172E-05 7.46590E-06-1.80799E-04 7.69201E-14-4.73435E-13
 -1      1629 1.99992E+01-1.50157E-04 1.57091E-05-5.13904E-04 1.53658E-13-2.70541E-15
 -1      1630 1.99998E+01-3.58633E-05-1.14085E-05 2.87706E-06-2.36876E-13-2.69235E-13
 -1      1631 1.99997E+01-5.92897E-04 1.34366E-05-3.03399E-04 6.10182E-13 4.67804E-13
 -1      1632 1.99997E+01-2.98507E-04-3.76462E-06-2.37547E-04-1.14090E-13 5.44235E-13
 -1      1633 1.99997E+01-1.59531E-03 7.34480E-06-5.25209E-04 8.62005E-13 1.13974E-13
 -1      1634 1.99997E+01-1.00747E-03 8.79782E-06-4.88166E-04 7.12465E-13 2.52483E-14
 -1      1635 1.99996E+01-9.43166E-04 1.62556E-05-7.72667E-04 1.64467E-13 3.28059E-13
 -1      1636 1.99998E+01-2.87167E-03 1.32812E-06-6.37423E-04 4.99809E-13-3.05684E-13
 -1      1637 1.99998E+01-2.12710E-03 5.24006E-06-6.24656E-04 7.76126E-13-1.14352E-14
 -1      1638 1.99997E+01-1.88283E-03 1.18885E-05-1.11192E-03 3.67980E-13-1.09654E-13
 -1      1639 1.99998E+01-4.21500E-03-1.82257E-06-6.40226E-04 2.78653E-14-2.73730E-13
 -1      1640 1.99998E+01-3.44941E-03 1.46566E-06-6.48454E-04 4.14117E-13-1.99521E-13
 -1      1641 1.99998E+01-2.98531E-03 6.17939E-07-1.24124E-03 2.23758E-13-4.61012E-13
 -1      1642 1.99999E+01-5.41243E-03-2.66578E-06-5.54134E-04-3.67836E-13-4.67523E-13
 -1      1643 1.99998E+01-4.74865E-03-1.74566E-07-5.77529E-04 6.93383E-14-3.94888E-13
 -1      1644 1.99998E+01-4.08738E-03-9.34659E-06-1.17530E-03 5.36877E-14-5.00824E-13
 -1      1645 1.99999E+01-6.35180E-03-2.52416E-06-3.98700E-04-6.09140E-14 1.90486E-13
 -1      1646 1.99999E+01-5.85413E-03-9.86770E-07-4.33800E-04-2.64358E-13-1.79560E-13
 -1      1647 1.99999E+01-5.05212E-03-1.66229E-05-9.53920E-04 1.72491E-13-3.81475E-13
 -1      1648 1.99999E+01-6.89979E-03-2.00396E-06-1.98504E-04 4.66510E-13 3.60281E-13
 -1      1649 1.99999E+01-6.63731E-03-1.22550E-06-2.40171E-04-1.06415E-13 4.23928E-13
 -1      1650 1.99999E+01-5.76954E-03-2.15604E-05-6.17152E-04 2.38156E-13 4.33497E-13
 -1      1651 1.99999E+01-6.99687E-03-1.53748E-06 2.28594E-05 3.03760E-13-9.49309E-14
 -1      1652 1.99999E+01-6.99806E-03-1.54646E-06-2.10017E-05 3.18615E-13-5.02496E-14
 -1      1653 1.99999E+01-6.14825E-03-2.39998E-05-2.12108E-04 1.28125E-13 1.57760E-13
 -1      1654 1.99999E+01-6.63212E-03-1.19067E-06 2.42112E-04 3.38806E-13 1.68179E-14
 -1      1655 1.99999E+01-6.89715E-03-2.03526E-06 2.00426E-04 3.38913E-13 1.06680E-13
 -1      1656 1.99999E+01-6.14688E-03-2.40095E-05 2.15732E-04 2.35140E-13 7.80866E-15
 -1      1657 1.99999E+01-5.84482E-03-8.54317E-07 4.35820E-04 2.43274E-13-8.00846E-14
 -1      1658 1.99999E+01-6.34512E-03-2.66351E-06 4.00809E-04 3.53989E-13-7.64236E-15
 -1      1659 1.99999E+01-5.76535E-03-2.15385E-05 6.21062E-04 2.64779E-14 5.51538E-14
 -1      1660 1.99998E+01-4.74535E-03-3.37292E-07 5.78023E-04-2.67464E-13-9.43975E-14
 -1      1661 1.99999E+01-5.41079E-03-2.79144E-06 5.54805E-04 1.49270E-13-2.14910E-13
 -1      1662 1.99999E+01-5.05236E-03-1.67872E-05 9.55895E-04 9.26056E-14-3.25408E-13
 -1      1663 1.99998E+01-3.43320E-03 1.39778E-06 6.49636E-04-3.35396E-13-4.69265E-14
 -1      1664 1.99998E+01-4.20069E-03-1.90976E-06 6.41598E-04-3.11236E-13 5.95969E-14
 -1      1665 1.99998E+01-4.08551E-03-9.23216E-06 1.17726E-03 7.88672E-14-4.72277E-14
 -1      1666 1.99998E+01-2.11028E-03 5.35990E-06 6.26186E-04-2.08737E-13 1.47380E-13
 -1      1667 1.99998E+01-2.85519E-03 1.21382E-06 6.37795E-04-3.83204E-13 1.55752E-13
 -1      1668 1.99998E+01-2.97266E-03 6.45250E-07 1.24268E-03-5.68513E-14 3.69834E-14
 -1      1669 1.99997E+01-1.01015E-03 2.26073E-06 4.87376E-04-3.58642E-13-1.02406E-13
 -1      1670 1.99997E+01-1.58354E-03 7.17180E-06 5.25276E-04-3.09051E-13 3.01911E-14
 -1      1671 1.99997E+01-1.87068E-03 1.15338E-05 1.11027E-03-2.06500E-13 3.14625E-14
 -1      1672 1.99996E+01-4.05256E-04-1.07866E-05 3.56029E-04-3.43199E-13-4.52617E-14
 -1      1673 1.99997E+01-7.05128E-04 6.11008E-06 4.51737E-04-2.25395E-13-1.09005E-13
 -1      1674 1.99996E+01-1.04103E-03 1.52624E-05 9.16233E-04-3.00000E-13-1.06158E-14
 -1      1675 1.99993E+01-4.93888E-04-1.89336E-06 7.02359E-04-8.80410E-14 9.26247E-14
 -1      1676-5.06991E-01-1.38088E+01-1.52655E+00-6.37228E-01 4.75953E-13 4.76535E-13
 -1      1677-5.54941E-01-1.63518E+01-1.78495E+00 5.42078E-01-9.31477E-14 3.71592E-13
 -1      1678 2.21212E+00-7.22526E+00-9.88549E-01 1.42922E+00 1.12310E-12 8.99447E-13
 -1      1679 1.22889E+00-1.21768E+01-1.48453E+00 6.71385E-01 6.60805E-13 5.27953E-13
 -1      1680 7.32195E+00-1.22998E-01-4.72864E-01 4.86613E+00 1.69265E-12 1.46927E-12
 -1      1681 4.34942E+00-5.39336E+00-1.17062E+00 2.14979E+00 1.37645E-12 1.06171E-12
 -1      1682 1.76434E+01 4.95375E+00 2.30510E-01 9.75805E+00 1.66800E-12 1.68032E-12
 -1      1683 1.12701E+01 1.63918E+00-6.03818E-01 6.15554E+00 1.74161E-12 1.48814E-12
 -1      1684 3.13031E+01 6.30327E+00 8.75111E-01 1.23952E+01 1.16185E-12 1.63114E-12
 -1      1685 2.25606E+01 6.03439E+00 1.07352E-01 1.04816E+01 1.51434E-12 1.65290E-12
 -1      1686 4.53927E+01 4.89049E+00 1.42128E+00 9.50012E+00 7.19425E-13 9.73888E-13
 -1      1687 3.63822E+01 6.40027E+00 7.78608E-01 1.10979E+01 1.05160E-12 1.38711E-12
 -1      1688 5.43430E+01 3.60549E+00 1.82933E+00 3.78444E+00 3.51663E-13 4.25882E-13
 -1      1689 4.97569E+01 4.90426E+00 1.50378E+00 8.60144E+00 5.29132E-13 9.20153E-13
 -1      1690 5.29254E+01 4.08979E+00 1.59663E+00-4.41140E+00 4.27991E-13-4.64684E-13
 -1      1691 5.43695E+01 3.73132E+00 1.73522E+00 1.12802E+00 3.81584E-13 1.31284E-13
 -1      1692 4.39738E+01 5.78383E+00 1.14172E+00-1.00667E+01 8.26506E-13-1.24833E-12
 -1      1693 5.06083E+01 4.20052E+00 1.58430E+00-6.50543E+00 5.48117E-13-7.28750E-13
 -1      1694 3.11412E+01 6.66628E+00 5.58524E-01-1.16563E+01 1.23412E-12-1.67599E-12
 -1      1695 4.00748E+01 5.63800E+00 1.22820E+00-1.15765E+01 9.07885E-13-1.41820E-12
 -1      1696 1.80191E+01 4.85737E+00-1.43199E-01-9.05186E+00 1.69154E-12-1.68909E-12
 -1      1697 2.60690E+01 6.31995E+00 6.90075E-01-1.18937E+01 1.42375E-12-1.79212E-12
 -1      1698 8.48367E+00-2.26094E+00-8.48052E-01-4.22081E+00 1.72429E-12-1.23490E-12
 -1      1699 1.39827E+01 2.41523E+00-3.92402E-02-7.97122E+00 1.65712E-12-1.48115E-12
 -1      1700 1.96972E+00-9.13617E+00-1.49011E+00-6.53446E-01 1.69953E-12-8.83460E-13
 -1      1701 3.50335E+00-3.76977E+00-9.11736E-01-2.34395E+00 1.92690E-12-1.23790E-12
 -1      1702 2.02834E-01-1.43386E+01-1.62827E+00-4.77296E-01 8.57203E-13-5.55167E-13
 -1      1703 5.91169E-01-1.04636E+01-1.28558E+00-2.46610E-01 1.40221E-12-7.79848E-13
 -1      1704-7.89079E-01-1.67534E+01-1.88030E+00-8.69932E-01 8.50708E-14-3.51497E-13
 -1      1705-7.79606E-01-1.61689E+01-1.79730E+00 7.35467E-01 7.06518E-13-4.32987E-13
 -1      1706-2.42436E-01-1.27600E+01-1.59296E+00-9.58515E-01-6.87006E-13-5.36848E-13
 -1      1707-3.21067E-01-1.60368E+01-1.86866E+00-2.22473E-01-1.14020E-13-3.53939E-13
 -1      1708 2.40863E+00-6.01650E+00-1.13682E+00 1.12167E+00-1.35225E-12-9.95981E-13
 -1      1709 1.22236E+00-1.12640E+01-1.69363E+00-1.49226E-01-9.12825E-13-6.65371E-13
 -1      1710 9.12034E+00 1.04204E+00-4.47242E-01 5.69861E+00-1.67821E-12-1.54632E-12
 -1      1711 5.23902E+00-4.02916E+00-1.25406E+00 2.44138E+00-1.49614E-12-1.14109E-12
 -1      1712 2.07959E+01 5.42744E+00 3.44856E-01 1.06179E+01-1.55775E-12-1.83675E-12
 -1      1713 1.33977E+01 2.67566E+00-5.93106E-01 7.01747E+00-1.68354E-12-1.61937E-12
 -1      1714 3.64175E+01 5.72065E+00 1.10765E+00 1.21042E+01-1.06176E-12-1.70886E-12
 -1      1715 2.65711E+01 5.85275E+00 2.32108E-01 1.07650E+01-1.39422E-12-1.76303E-12
 -1      1716 5.00595E+01 4.42389E+00 1.69829E+00 8.13023E+00-6.24549E-13-1.11400E-12
 -1      1717 4.13557E+01 6.03262E+00 1.02549E+00 1.07922E+01-9.86961E-13-1.52722E-12
 -1      1718 5.65526E+01 3.60794E+00 2.00996E+00 1.23202E+00-3.64792E-13-5.41706E-13
 -1      1719 5.33860E+01 4.39530E+00 1.72653E+00 6.45608E+00-4.77146E-13-9.91207E-13
 -1      1720 5.39628E+01 4.23237E+00 1.81990E+00-6.37961E+00-4.33376E-13 3.62710E-13
 -1      1721 5.69237E+01 3.44679E+00 2.03409E+00-1.22036E+00-3.63709E-13-2.34618E-13
 -1      1722 4.29961E+01 5.80633E+00 1.16632E+00-1.06547E+01-9.31893E-13 1.22291E-12
 -1      1723 5.06243E+01 4.34511E+00 1.75464E+00-7.96104E+00-6.10102E-13 6.07070E-13
 -1      1724 2.97792E+01 6.45624E+00 4.81179E-01-1.16572E+01-1.49969E-12 1.83031E-12
 -1      1725 3.87146E+01 5.85068E+00 1.26407E+00-1.22323E+01-1.06792E-12 1.50857E-12
 -1      1726 1.72611E+01 3.72060E+00-3.12864E-01-8.25067E+00-2.02127E-12 1.87872E-12
 -1      1727 2.50012E+01 5.53466E+00 5.64621E-01-1.12170E+01-1.67943E-12 1.77192E-12
 -1      1728 7.70538E+00-1.42575E+00-1.00108E+00-3.91873E+00-2.20290E-12 1.69964E-12
 -1      1729 1.24908E+01 2.71952E+00-1.87818E-01-7.29401E+00-2.13873E-12 2.01483E-12
 -1      1730 2.67160E+00-8.55414E+00-1.48109E+00-6.95643E-01-2.09510E-12 1.08252E-12
 -1      1731 4.75543E+00-3.37266E+00-8.49988E-01-2.78557E+00-2.16827E-12 1.44662E-12
 -1      1732 9.59237E-02-1.46376E+01-1.84081E+00 6.24780E-01-1.32894E-12 7.90715E-13
 -1      1733 4.48940E-01-1.03720E+01-1.43599E+00 5.59082E-01-1.91558E-12 1.04881E-12
 -1      1734-6.68225E-01-1.70719E+01-1.87347E+00-1.17947E-01-3.29972E-13 4.06480E-13
 -1      1735-7.35190E-01-1.56677E+01-1.77899E+00 1.27389E+00-1.07536E-12 6.45650E-13
 -1      1736 2.45142E+01 1.03290E+00 2.87958E-01 7.48722E+00 9.42801E-13 8.58424E-13
 -1      1737 1.45174E+01-2.92081E+00-3.19838E-01 6.61747E+00 8.51985E-13 1.07714E-12
 -1      1738 1.99997E+01-1.05164E-04 7.58577E-06-1.12725E-04-2.29680E-13 5.44559E-14
 -1      1739 1.99995E+01-3.67990E-04 4.76891E-06-4.06700E-04 9.98271E-14 5.10917E-13
 -1      1740 1.21861E+00-9.23899E+00-9.69367E-01 3.20640E+00 1.82354E-13 7.91422E-13
 -1      1741 6.69130E+00-6.75923E+00-7.50891E-01 5.14576E+00 5.50449E-13 9.98493E-13
 -1      1742-1.34192E+00-1.13675E+01-1.29080E+00 4.97138E-01-1.95045E-13 7.82596E-13
 -1      1743 3.46217E+01 4.05085E+00 8.16929E-01 6.25757E+00 8.09408E-13 5.64881E-13
 -1      1744 4.23771E+01 6.24205E+00 1.13010E+00 3.84233E+00 7.07490E-13 3.52385E-13
 -1      1745 4.68293E+01 7.52825E+00 1.52599E+00 1.17473E+00 6.57419E-13 1.81521E-14
 -1      1746 4.47042E+01 7.38878E+00 1.33657E+00-2.17974E+00 7.89591E-13-3.98126E-13
 -1      1747 3.94057E+01 5.61788E+00 1.04262E+00-5.10141E+00 8.51208E-13-6.71796E-13
 -1      1748 3.09323E+01 3.02934E+00 6.11617E-01-7.13867E+00 9.66505E-13-9.29257E-13
 -1      1749 2.09195E+01-1.33669E+00-4.78317E-02-7.06810E+00 9.72777E-13-9.23261E-13
 -1      1750 1.11110E+01-4.86534E+00-4.42001E-01-6.18312E+00 9.49685E-13-8.70359E-13
 -1      1751 3.29409E+00-8.12017E+00-9.49033E-01-3.96738E+00 7.52065E-13-8.73357E-13
 -1      1752-4.77599E-01-1.01909E+01-1.14493E+00-1.90673E+00 3.90687E-13-8.09408E-13
 -1      1753-1.11025E+00-1.12865E+01-1.33544E+00 7.25624E-01 1.47937E-14-6.80844E-13
 -1      1754 1.90590E+00-9.52174E+00-1.15899E+00 2.78465E+00-3.65263E-13-8.08936E-13
 -1      1755 7.91470E+00-6.23985E+00-8.08480E-01 4.85899E+00-7.50400E-13-1.00137E-12
 -1      1756 1.68034E+01-2.21690E+00-2.51768E-01 6.67897E+00-8.75078E-13-1.07725E-12
 -1      1757 2.79263E+01 1.41620E+00 4.55655E-01 7.21364E+00-8.98948E-13-1.00764E-12
 -1      1758 3.81145E+01 4.46450E+00 1.00349E+00 5.26379E+00-8.24542E-13-7.33191E-13
 -1      1759 4.52502E+01 6.89570E+00 1.42271E+00 2.90580E+00-7.38742E-13-5.53335E-13
 -1      1760 4.87856E+01 7.52532E+00 1.71546E+00 1.59838E-01-7.15872E-13-1.95177E-13
 -1      1761 4.60030E+01 6.75829E+00 1.47735E+00-2.90305E+00-8.79019E-13 3.81639E-13
 -1      1762 3.94043E+01 4.95644E+00 1.08589E+00-5.59318E+00-1.06196E-12 7.27307E-13
 -1      1763 3.03130E+01 2.10956E+00 5.25379E-01-7.02360E+00-1.22535E-12 9.24483E-13
 -1      1764 2.02978E+01-1.27020E+00-4.47601E-02-6.85071E+00-1.30984E-12 1.12022E-12
 -1      1765 1.10712E+01-5.00130E+00-6.15512E-01-5.55357E+00-1.29008E-12 1.23135E-12
 -1      1766 4.18361E+00-8.45016E+00-9.92719E-01-3.70567E+00-1.08424E-12 9.69176E-13
 -1      1767-2.04469E-01-1.11071E+01-1.31140E+00-1.49935E+00-6.61637E-13 1.07836E-12
 -1      1768 2.50448E+01 1.96922E+00-2.57893E-02-2.14731E+00-1.60035E-13 1.44426E-12
 -1      1769 2.04324E+01 3.87937E+00-4.32093E-02-1.00999E+00-3.39393E-13 6.97151E-14
 -1      1770 2.11497E+01 3.71301E+00-3.00938E-02-1.31294E+00-3.54633E-13 2.05898E-13
 -1      1771 2.18974E+01 3.23557E+00-5.10290E-02-1.51797E+00-3.23565E-13 3.56999E-13
 -1      1772 2.25378E+01 2.83233E+00-1.23866E-01-1.85275E+00-3.10644E-13 5.66727E-13
 -1      1773 2.17884E+01 2.79484E+00-3.20185E-04-1.07257E+00-3.45247E-13 2.79995E-13
 -1      1774 1.81663E+01 4.54835E+00-2.28813E-02-4.07857E-01-2.78851E-13-2.52291E-13
 -1      1775 1.86442E+01 4.51587E+00-6.48665E-03-5.25020E-01-3.02477E-13-1.91243E-13
 -1      1776 1.74330E+01 4.70865E+00-1.55832E-02-3.13117E-01-2.41151E-13-3.45787E-13
 -1      1777 1.77633E+01 4.69740E+00-4.80345E-03-3.70420E-01-2.61796E-13-3.05389E-13
 -1      1778 1.80434E+01 4.33802E+00-3.42945E-03-3.13292E-01-2.84499E-13-2.58850E-13
 -1      1779 1.70441E+01 4.77212E+00-9.26182E-03-2.99314E-01-1.85575E-13-3.77646E-13
 -1      1780 1.71952E+01 4.77768E+00-6.27123E-03-3.24671E-01-2.17236E-13-3.63569E-13
 -1      1781 1.73532E+01 4.52831E+00-1.59942E-03-2.87566E-01-2.36367E-13-3.33890E-13
 -1      1782 1.70139E+01 4.74381E+00-4.38578E-03-2.97527E-01-1.38999E-13-4.03250E-13
 -1      1783 1.69846E+01 4.76180E+00-9.39636E-03-3.23750E-01-1.63384E-13-3.89260E-13
 -1      1784 1.70409E+01 4.57641E+00-1.42508E-03-3.22231E-01-1.92159E-13-3.65066E-13
 -1      1785 1.73070E+01 4.64082E+00-1.74082E-03-2.40614E-01-9.14191E-14-4.14889E-13
 -1      1786 1.71214E+01 4.66606E+00-1.28785E-02-2.96943E-01-1.14577E-13-4.11875E-13
 -1      1787 1.71081E+01 4.49351E+00-3.32675E-03-3.42241E-01-1.40244E-13-3.92176E-13
 -1      1788 1.78490E+01 4.49002E+00-2.02006E-03-8.01460E-02-3.39104E-14-4.18126E-13
 -1      1789 1.75485E+01 4.51772E+00-1.60328E-02-1.86512E-01-6.18568E-14-4.14864E-13
 -1      1790 1.75031E+01 4.31108E+00-6.58375E-03-2.80203E-01-8.68442E-14-4.00939E-13
 -1      1791 1.85411E+01 4.31944E+00-5.08504E-03 1.99707E-01 2.99153E-14-3.98504E-13
 -1      1792 1.81755E+01 4.34626E+00-1.90848E-02 3.78350E-02-3.75394E-15-4.10521E-13
 -1      1793 1.81332E+01 4.07256E+00-9.66923E-03-9.84187E-02-2.38282E-14-3.90958E-13
 -1      1794 1.93405E+01 4.12836E+00-1.11426E-02 6.07247E-01 1.14866E-13-3.56951E-13
 -1      1795 1.89269E+01 4.16155E+00-2.31785E-02 3.82193E-01 6.63714E-14-3.75157E-13
 -1      1796 1.89105E+01 3.80601E+00-1.20419E-02 2.10012E-01 5.32118E-14-3.66771E-13
 -1      1797 2.02120E+01 3.88518E+00-2.21730E-02 1.12384E+00 1.94577E-13-3.05138E-13
 -1      1798 1.97618E+01 3.94541E+00-3.00125E-02 8.38484E-01 1.50446E-13-3.36248E-13
 -1      1799 1.97827E+01 3.50770E+00-1.22292E-02 6.26642E-01 1.41031E-13-3.17496E-13
 -1      1800 2.11967E+01 3.48107E+00-4.38687E-02 1.71714E+00 2.67815E-13-1.72425E-13
 -1      1801 2.06778E+01 3.62940E+00-4.28643E-02 1.37658E+00 2.27575E-13-2.50588E-13
 -1      1802 2.07324E+01 3.12721E+00-8.09328E-03 1.10274E+00 2.24027E-13-2.47517E-13
 -1      1803 2.25024E+01 2.63777E+00-5.63812E-02 2.24499E+00 3.10571E-13 1.00031E-13
 -1      1804 2.17849E+01 3.05418E+00-5.22966E-02 1.93118E+00 2.85496E-13-6.50174E-14
 -1      1805 2.18185E+01 2.51539E+00 3.52748E-03 1.52688E+00 2.93298E-13-9.07885E-14
 -1      1806 2.35437E+01 1.16024E+00-1.23259E-01 1.85703E+00 2.83676E-13 4.48697E-13
 -1      1807 2.29804E+01 2.22126E+00-1.37153E-03 2.18945E+00 3.04866E-13 2.22586E-13
 -1      1808 2.26404E+01 1.60334E+00-2.04303E-02 1.54022E+00 3.17236E-13 1.18627E-13
 -1      1809 2.29278E+01 7.25561E-01-5.76157E-02 1.06317E+00 2.86354E-13 3.66993E-13
 -1      1810 2.40098E+01 2.41804E+00 8.09759E-02-2.22614E+00-2.26354E-13 8.89067E-13
 -1      1811 2.23514E+01 2.38759E-01-7.75190E-03 2.81098E-01 2.15349E-13 2.47923E-13
 -1      1812 2.27385E+01 3.83315E-01-1.25600E-02 6.23365E-01 2.36394E-13 3.17789E-13
 -1      1813 2.26874E+01 7.62710E-01-7.30247E-04 9.13837E-01 2.77958E-13 1.81355E-13
 -1      1814 2.36706E+01 1.73227E+00 7.67933E-02-1.41402E+00-2.58446E-13 7.29597E-13
 -1      1815 2.32857E+01 5.27163E-01 3.36898E-02 2.32646E-02-1.76765E-13 6.69684E-13
 -1      1816 2.31831E+01 3.84927E-01 1.32076E-02 3.28644E-01-1.59216E-13 6.23421E-13
 -1      1817 2.32005E+01 2.81035E-01 2.68212E-02 6.00405E-01-1.27450E-13 6.11070E-13
 -1      1818 2.33434E+01 1.73516E-01 8.37471E-03 7.40532E-01-1.13293E-13 5.73861E-13
 -1      1819 2.28359E+01 5.16538E-01-1.23992E-02 4.89485E-01-1.68214E-13 4.10240E-13
 -1      1820 2.34816E+01 8.25367E-02 1.63001E-02 8.65020E-01-7.38757E-14 5.78994E-13
 -1      1821 2.37151E+01-3.37212E-02-4.62583E-03 8.81601E-01-4.90397E-14 5.72095E-13
 -1      1822 2.29870E+01 1.88126E-01-1.23386E-02 9.49211E-01-1.00257E-13 3.75771E-13
 -1      1823 2.39563E+01-1.47990E-01 9.98343E-03 8.49773E-01-2.26412E-14 5.82216E-13
 -1      1824 2.41729E+01-2.96894E-01-1.90632E-02 7.23077E-01-1.61997E-14 5.81886E-13
 -1      1825 2.33586E+01-1.49653E-01-1.18538E-02 1.07373E+00-3.44577E-14 3.82205E-13
 -1      1826 2.44874E+01-4.37540E-01 7.28773E-03 4.99167E-01-1.89501E-14 5.88318E-13
 -1      1827 2.45788E+01-6.00340E-01-3.09090E-02 2.05325E-01-2.91503E-14 5.58612E-13
 -1      1828 2.38934E+01-5.65891E-01-1.07577E-02 8.21383E-01-2.97739E-14 3.60731E-13
 -1      1829 2.49046E+01-7.23812E-01 3.72456E-03-2.30118E-01-1.51754E-14 5.72452E-13
 -1      1830 2.47777E+01-8.13697E-01-3.21097E-02-6.61459E-01 3.06317E-14 5.72868E-13
 -1      1831 2.45091E+01-9.95649E-01-5.71517E-03 1.27924E-01-2.44579E-14 3.66528E-13
 -1      1832 2.49904E+01-8.11001E-01-7.04688E-03-1.22669E+00 1.40686E-14 6.04843E-13
 -1      1833 2.46163E+01-6.82736E-01-1.48843E-02-1.64417E+00-4.93078E-14 6.36720E-13
 -1      1834 2.50424E+01-1.19101E+00 4.66604E-03-9.59834E-01 9.80899E-15 4.35353E-13
 -1      1835 2.45624E+01-4.28436E-01-2.65560E-02-2.06622E+00-1.18818E-13 6.94734E-13
 -1      1836 2.40414E+01-1.12672E-02 1.25303E-02-2.19005E+00-1.28689E-13 6.84796E-13
 -1      1837 2.52337E+01-7.80049E-01 1.11129E-02-2.08609E+00-4.07411E-14 5.09468E-13
 -1      1838 2.37092E+01 4.65625E-01-4.36204E-02-2.07885E+00-1.66006E-13 6.21649E-13
 -1      1839 2.32688E+01 9.71322E-01 1.80475E-02-1.67622E+00-1.92839E-13 5.42748E-13
 -1      1840 2.49093E+01 3.72703E-01-8.31474E-03-2.51635E+00-2.35124E-13 5.19411E-13
 -1      1841 2.29748E+01 1.33818E+00-3.11586E-02-8.80975E-01-1.96440E-13 4.09393E-13
 -1      1842 2.28719E+01 1.50133E+00-9.02695E-03-8.14467E-02-2.52021E-13 2.99858E-13
 -1      1843 2.43162E+01 1.68486E+00-5.23302E-02-1.54436E+00-3.17406E-13 4.25581E-13
 -1      1844 2.29675E+01 1.40119E+00 2.16543E-03 9.37815E-01-2.76140E-13 1.42796E-13
 -1      1845 2.32803E+01 1.06003E+00-3.97156E-02 1.63065E+00-2.88325E-13 9.26707E-14
 -1      1846 2.41282E+01 2.10098E+00-6.78299E-02 5.18898E-01-3.69094E-13 1.44098E-13
 -1      1847 2.36677E+01 5.94376E-01 1.90375E-02 2.17795E+00-2.37532E-13-1.23165E-14
 -1      1848 2.42240E+01 7.68022E-02-3.91843E-02 2.36496E+00-1.56406E-13-5.13756E-14
 -1      1849 2.46031E+01 1.22660E+00-3.46430E-02 2.28772E+00-3.16094E-13-1.11485E-13
 -1      1850 2.44901E+01-3.43430E-01-8.93732E-04 2.22328E+00-1.41182E-13-8.44099E-14
 -1      1851 2.50227E+01-6.60027E-01-2.12098E-02 1.94167E+00-1.28449E-13-5.64548E-14
 -1      1852 2.52106E+01-1.54704E-01 1.01912E-03 2.66800E+00-1.91454E-13-1.43064E-13
 -1      1853 2.49736E+01-8.11018E-01-2.64556E-02 1.40256E+00-9.13835E-14-1.18749E-13
 -1      1854 2.52893E+01-8.40929E-01-3.49918E-03 9.40016E-01-2.37501E-14-1.13466E-13
 -1      1855 2.53813E+01-1.05671E+00 9.60643E-03 1.84262E+00-1.52119E-13-2.66372E-13
 -1      1856 2.50128E+01-7.82716E-01-3.56081E-02 3.81841E-01-3.90608E-14-9.52047E-14
 -1      1857 2.50630E+01-6.56233E-01 3.05626E-03-2.46391E-02-1.71894E-14-4.78372E-14
 -1      1858 2.50400E+01-1.20280E+00 3.21435E-03 6.16965E-01-9.05179E-15-2.55778E-13
 -1      1859 2.47087E+01-5.25400E-01-3.01610E-02-4.15001E-01-4.61454E-14-4.77539E-14
 -1      1860 2.45440E+01-3.73885E-01 2.58209E-03-6.72950E-01-3.35790E-14-1.17101E-13
 -1      1861 2.44277E+01-8.96407E-01-4.69134E-03-4.05022E-01-4.34583E-14-1.82338E-13
 -1      1862 2.41982E+01-2.54582E-01-1.86802E-02-8.73500E-01 1.62908E-14-1.00143E-13
 -1      1863 2.39043E+01-1.39529E-01 1.24835E-03-9.89193E-01 5.39300E-14-1.33100E-13
 -1      1864 2.37567E+01-4.88725E-01-7.13333E-03-1.02821E+00 1.83143E-14-1.34006E-13
 -1      1865 2.35971E+01-5.97445E-02-7.62229E-03-1.04743E+00 7.62407E-14-9.82886E-14
 -1      1866 2.32509E+01 8.13123E-03 6.49470E-04-1.06477E+00 1.10024E-13-3.21258E-14
 -1      1867 2.31256E+01-1.64631E-01-6.29755E-03-1.29386E+00 6.66966E-14-8.84956E-14
 -1      1868 2.29858E+01 5.13864E-02 1.65189E-04-1.03795E+00 1.12098E-13-1.39008E-14
 -1      1869 2.26405E+01 8.29721E-02 7.32355E-04-1.00069E+00 6.69534E-14 2.31946E-14
 -1      1870 2.25637E+01 3.43212E-02-4.96005E-03-1.31814E+00 1.17219E-13-8.30742E-14
 -1      1871 2.24141E+01 1.01336E-01 4.59662E-03-9.32486E-01 4.40440E-14 1.15600E-13
 -1      1872 2.20999E+01 1.10535E-01 1.08092E-03-8.71763E-01 4.95637E-14 1.50496E-13
 -1      1873 2.20742E+01 1.32285E-01-3.96373E-03-1.20854E+00 1.14233E-13-3.90755E-14
 -1      1874 2.19085E+01 1.14558E-01 6.51694E-03-7.89687E-01-2.50180E-14 1.96866E-13
 -1      1875 2.16387E+01 1.11971E-01 1.38482E-03-7.23955E-01-1.12692E-14 2.47329E-13
 -1      1876 2.16542E+01 1.65840E-01-3.34359E-03-1.04049E+00 1.88868E-14 8.53583E-14
 -1      1877 2.14791E+01 1.08838E-01 6.86407E-03-6.43135E-01-3.40416E-14 2.51974E-13
 -1      1878 2.12563E+01 1.01091E-01 1.53748E-03-5.81771E-01-5.86705E-14 1.82092E-13
 -1      1879 2.12996E+01 1.64351E-01-2.94048E-03-8.59398E-01-3.80587E-14 1.25800E-13
 -1      1880 2.11252E+01 9.50262E-02 6.37011E-03-5.09350E-01-7.07704E-14 1.62417E-13
 -1      1881 2.09466E+01 8.57749E-02 1.54316E-03-4.56233E-01-1.13147E-13 1.13068E-13
 -1      1882 2.10051E+01 1.46715E-01-2.62123E-03-6.89132E-01-7.08173E-14 5.46751E-14
 -1      1883 2.08406E+01 7.90163E-02 5.51239E-03-3.94753E-01-6.58659E-14 1.32982E-13
 -1      1884 2.07006E+01 7.00591E-02 1.44513E-03-3.50793E-01-4.88377E-14 2.90486E-14
 -1      1885 2.07649E+01 1.23613E-01-2.32018E-03-5.40181E-01-5.10967E-14 2.90020E-14
 -1      1886 2.06163E+01 6.36712E-02 4.56572E-03-3.00382E-01-1.00862E-13 7.36852E-14
 -1      1887 2.05087E+01 5.57651E-02 1.28858E-03-2.65059E-01-8.64931E-14 7.25431E-14
 -1      1888 2.05723E+01 1.00455E-01-2.01878E-03-4.15490E-01-3.99133E-14 1.55968E-13
 -1      1889 2.04427E+01 5.01753E-02 3.67002E-03-2.24724E-01-2.26154E-14 1.05060E-13
 -1      1890 2.03614E+01 4.35392E-02 1.10815E-03-1.96941E-01 6.28822E-14 1.73340E-13
 -1      1891 2.04204E+01 7.96331E-02-1.72099E-03-3.14163E-01-7.09649E-14 2.24291E-13
 -1      1892 2.03106E+01 3.88542E-02 2.88515E-03-1.65273E-01 1.16027E-13 1.65888E-13
 -1      1893 2.02502E+01 3.34532E-02 9.26634E-04-1.43792E-01 1.17381E-13 2.00015E-13
 -1      1894 2.03025E+01 6.19486E-02-1.43726E-03-2.33604E-01 2.85892E-14 1.16570E-13
 -1      1895 2.02117E+01 2.96317E-02 2.22759E-03-1.19325E-01-9.24890E-15 1.29235E-13
 -1      1896 2.01677E+01 2.53276E-02 7.57361E-04-1.02966E-01-1.00936E-13 4.68606E-14
 -1      1897 2.02125E+01 4.74319E-02-1.17710E-03-1.70677E-01 1.31987E-14 1.71705E-13
 -1      1898 2.01390E+01 2.22695E-02 1.69257E-03-8.43432E-02-9.79228E-14 1.17011E-13
 -1      1899 2.01076E+01 1.88945E-02 6.07031E-04-7.20675E-02 9.56635E-15 1.59386E-13
 -1      1900 2.01450E+01 3.57835E-02-9.46528E-04-1.22282E-01-1.06545E-14 3.74666E-14
 -1      1901 2.00866E+01 1.64842E-02 1.26625E-03-5.81029E-02 7.72773E-14 1.15783E-13
 -1      1902 2.00646E+01 1.38743E-02 4.78070E-04-4.90320E-02 7.12467E-14 2.57106E-13
 -1      1903 2.00952E+01 2.65939E-02-7.48025E-04-8.56149E-02-1.20111E-14 2.29311E-13
 -1      1904 2.00497E+01 1.20003E-02 9.32139E-04-3.87248E-02-6.14617E-14 2.45100E-13
 -1      1905 2.00348E+01 1.00086E-02 3.70326E-04-3.21350E-02-5.10197E-14 2.86327E-13
 -1      1906 2.00593E+01 1.94469E-02-5.81324E-04-5.82536E-02 1.11159E-14 1.38139E-13
 -1      1907 2.00244E+01 8.57064E-03 6.74085E-04-2.46598E-02-9.01894E-14 3.02585E-13
 -1      1908 2.00147E+01 7.07130E-03 2.82235E-04-1.99653E-02-3.57997E-14 1.79249E-13
 -1      1909 2.00339E+01 1.39622E-02-4.44311E-04-3.81689E-02-8.46431E-14 1.63420E-13
 -1      1910 2.00076E+01 5.98278E-03 4.77531E-04-1.46530E-02 7.71323E-15 2.33178E-14
 -1      1911 2.00017E+01 4.87057E-03 2.11559E-04-1.13864E-02 5.17254E-15 1.16335E-14
 -1      1912 2.00165E+01 9.80934E-03-3.33819E-04-2.36955E-02-1.26269E-13 9.84100E-14
 -1      1913 1.99971E+01 4.05855E-03 3.29931E-04-7.70256E-03-2.03380E-14-2.24964E-14
 -1      1914 1.99938E+01 3.24714E-03 1.55842E-04-5.49576E-03 9.36168E-15 8.45298E-14
 -1      1915 2.00050E+01 6.70959E-03-2.46252E-04-1.34890E-02-2.17018E-14 1.64327E-13
 -1      1916 1.99910E+01 2.65130E-03 2.20769E-04-3.01903E-03 3.23332E-14 1.25058E-13
 -1      1917 1.99895E+01 2.07082E-03 1.12659E-04-1.58559E-03-5.05358E-14 5.97786E-14
 -1      1918 1.99978E+01 4.43256E-03-1.78005E-04-6.47934E-03 2.29116E-14 1.99389E-13
 -1      1919 1.99880E+01 1.64190E-03 1.41403E-04 1.21023E-05 1.20941E-13 1.20418E-13
 -1      1920 1.99876E+01 1.23639E-03 7.97445E-05 8.92317E-04 1.92571E-13 3.13799E-13
 -1      1921 1.99936E+01 2.79057E-03-1.25699E-04-1.82609E-03 2.38780E-14 2.35905E-13
 -1      1922 1.99870E+01 9.34569E-04 8.48310E-05 1.86295E-03 9.19734E-14 2.33805E-13
 -1      1923 1.99873E+01 6.59578E-04 5.50659E-05 2.35676E-03 2.45106E-14 2.30226E-13
 -1      1924 1.99916E+01 1.63238E-03-8.62869E-05 1.12245E-03 1.37480E-13 2.60029E-13
 -1      1925 1.99873E+01 4.52936E-04 4.54494E-05 2.89091E-03 4.89417E-14 3.24480E-13
 -1      1926 1.99881E+01 2.73430E-04 3.68385E-05 3.12263E-03 5.30038E-14 5.25875E-13
 -1      1927 1.99909E+01 8.37219E-04-5.71085E-05 2.86436E-03 9.76096E-14 3.20742E-13
 -1      1928 1.99884E+01 1.36532E-04 1.88169E-05 3.36180E-03-9.84846E-14 4.95797E-13
 -1      1929 1.99894E+01 2.50068E-05 2.35145E-05 3.42203E-03-6.25763E-15 5.23290E-13
 -1      1930 1.99912E+01 3.09290E-04-3.59004E-05 3.77398E-03-7.06508E-15 4.96464E-13
 -1      1931 1.99899E+01-6.23589E-05 1.45271E-06 3.46867E-03-1.39252E-13 4.24513E-13
 -1      1932 1.99910E+01-1.27527E-04 1.37523E-05 3.42137E-03-1.56040E-13 3.24408E-13
 -1      1933 1.99920E+01-2.70468E-05-2.07797E-05 4.12684E-03-1.13106E-13 6.83872E-13
 -1      1934 1.99916E+01-1.81523E-04-9.33171E-06 3.34699E-03 9.29321E-14 2.57519E-13
 -1      1935 1.99927E+01-2.17565E-04 6.38892E-06 3.23492E-03 1.19039E-13 5.02571E-13
 -1      1936 1.99931E+01-2.31638E-04-1.02148E-05 4.11985E-03-8.71141E-14 6.88882E-13
 -1      1937 1.99933E+01-2.51380E-04-1.55553E-05 3.08625E-03 7.90779E-14 7.44746E-13
 -1      1938 1.99943E+01-2.72447E-04 4.26140E-07 2.93501E-03 3.15196E-13 9.13819E-13
 -1      1939 1.99943E+01-3.52453E-04-2.98838E-06 3.88735E-03 2.53136E-13 8.35492E-13
 -1      1940 1.99949E+01-2.97227E-04-1.86680E-05 2.73872E-03 2.38309E-13 7.35513E-13
 -1      1941 1.99958E+01-3.15078E-04-4.74968E-06 2.55953E-03 2.12823E-13 5.73709E-13
 -1      1942 1.99956E+01-4.29019E-04 1.81948E-06 3.51350E-03 1.60972E-13 6.93363E-13
 -1      1943 1.99964E+01-3.40080E-04-1.93666E-05 2.32670E-03 4.75185E-14 3.71761E-13
 -1      1944 1.99971E+01-3.65081E-04-9.16694E-06 2.11913E-03-1.22667E-13 2.21487E-13
 -1      1945 1.99967E+01-4.93701E-04 5.03968E-06 3.04223E-03-2.18238E-14 3.56103E-13
 -1      1946 1.99976E+01-3.99554E-04-1.79380E-05 1.84956E-03-5.83245E-14 1.18270E-13
 -1      1947 1.99982E+01-4.36368E-04-1.24018E-05 1.60307E-03 5.32562E-14 2.01271E-13
 -1      1948 1.99977E+01-5.75051E-04 6.18081E-06 2.48801E-03-1.80205E-13 2.51162E-13
 -1      1949 1.99986E+01-4.62502E-04-1.49635E-05 1.30871E-03 1.21451E-13 2.22102E-13
 -1      1950 1.99990E+01-5.01450E-04-1.58182E-05 1.02770E-03 7.41217E-14 2.42879E-13
 -1      1951 1.99991E+01-7.08871E-04 6.94883E-06 1.20629E-03-1.07136E-13 1.07244E-13
 -1      1952 1.99985E+01-6.62427E-04 1.05133E-05 1.86565E-03 1.04501E-13 2.12440E-13
 -1      1953 2.21070E+01 6.33061E-02 5.10094E-03-3.28171E-03 1.68577E-13 1.71283E-13
 -1      1954 2.22498E+01 1.34277E-01 1.44561E-02 1.19575E-01 1.80828E-13 2.27108E-13
 -1      1955 2.22789E+01 2.49505E-01-3.39373E-03 2.53386E-01 2.18998E-13 1.34677E-13
 -1      1956 2.20215E+01-4.27666E-02 1.30091E-03-4.22173E-02 1.28877E-13 8.15710E-14
 -1      1957 2.20667E+01 1.37622E-03 1.02515E-02-3.02271E-02 1.26503E-13 1.39581E-13
 -1      1958 2.20933E+01 2.76894E-02-1.89994E-03 1.07817E-02 1.61471E-13 9.03340E-14
 -1      1959 2.19576E+01-1.20889E-01-2.61378E-03 8.59790E-02 8.74223E-14 2.09084E-14
 -1      1960 2.20026E+01-9.09737E-02 3.02412E-03 2.11376E-02 1.08611E-13 6.71676E-14
 -1      1961 2.20293E+01-1.11141E-01-3.80497E-04 2.97606E-02 1.35771E-13 2.96547E-14
 -1      1962 2.18033E+01-1.69476E-01-3.64804E-03 3.32202E-01 2.12269E-14-2.55338E-14
 -1      1963 2.19112E+01-1.56684E-01-1.75270E-03 2.11521E-01 4.02508E-14 1.22583E-14
 -1      1964 2.19691E+01-2.06127E-01 2.46431E-03 2.32769E-01 5.20061E-14-5.87182E-15
 -1      1965 2.14865E+01-1.67752E-01-1.77133E-03 6.27995E-01 2.47120E-14-1.14951E-14
 -1      1966 2.16906E+01-1.81099E-01-3.78441E-03 4.83346E-01 6.26062E-15-4.96920E-14
 -1      1967 2.18190E+01-2.45001E-01 5.68902E-03 5.49833E-01 9.86190E-15-6.52438E-14
 -1      1968 2.09941E+01-9.42276E-02 1.71075E-03 8.66615E-01 5.04254E-14-8.60596E-15
 -1      1969 2.12909E+01-1.39926E-01-3.39277E-03 7.49202E-01 5.11587E-14 1.48831E-14
 -1      1970 2.15214E+01-1.97582E-01 7.49473E-03 8.78211E-01 5.38554E-14-4.47966E-14
 -1      1971 2.03943E+01 4.89419E-02 4.28050E-03 9.19441E-01 4.89686E-14-5.37209E-14
 -1      1972 2.07371E+01-2.14875E-02-8.00669E-04 8.90689E-01 6.04898E-14-3.12771E-15
 -1      1973 2.10780E+01-4.72964E-02 5.80314E-03 1.07552E+00 7.05863E-14 3.10212E-14
 -1      1974 1.98406E+01 2.15638E-01 3.70784E-03 6.95218E-01 9.44791E-14-6.32498E-14
 -1      1975 2.01442E+01 1.47700E-01 3.56631E-03 7.97050E-01 6.08463E-14-6.05974E-14
 -1      1976 2.05740E+01 1.75656E-01 8.07461E-05 9.99919E-01 7.84746E-14 4.61662E-14
 -1      1977 1.95264E+01 3.26506E-01 3.48653E-04 2.14716E-01 1.83700E-13-8.54381E-14
 -1      1978 1.96936E+01 2.96990E-01 8.46235E-03 4.34610E-01 1.55383E-13-7.43169E-14
 -1      1979 2.01693E+01 3.84585E-01-6.74006E-03 5.93060E-01 1.47889E-13-3.38922E-15
 -1      1980 1.95902E+01 3.19458E-01-2.59222E-03-3.67093E-01 8.35347E-14-1.37615E-13
 -1      1981 1.95545E+01 3.47565E-01 1.16638E-02-1.02927E-01 1.46149E-13-1.00999E-13
 -1      1982 2.00306E+01 4.75694E-01-9.65010E-03-4.94356E-02 1.45025E-13-3.55291E-14
 -1      1983 2.00284E+01 1.99036E-01-2.35264E-03-8.36244E-01 7.10950E-14-2.97318E-13
 -1      1984 1.97904E+01 2.70695E-01 1.10674E-02-6.24337E-01 4.03930E-14-2.13280E-13
 -1      1985 2.02303E+01 3.98559E-01-6.54804E-03-7.00323E-01 1.16945E-13-1.09128E-13
 -1      1986 2.06933E+01 3.12674E-02 6.92205E-04-1.04270E+00 4.10157E-14-2.53757E-13
 -1      1987 2.03230E+01 1.10378E-01 6.52852E-03-9.47237E-01 7.45168E-14-2.58640E-13
 -1      1988 2.06956E+01 1.93731E-01-8.92784E-04-1.12668E+00 7.22126E-14-1.38342E-13
 -1      1989 2.13782E+01-1.07783E-01 4.09067E-03-9.69366E-01-1.28182E-13-2.47716E-13
 -1      1990 2.09800E+01-5.33425E-02 1.84573E-04-9.95283E-01-5.52221E-14-2.81272E-13
 -1      1991 2.12577E+01-3.75048E-02 3.01250E-03-1.21834E+00-8.30217E-15-2.14593E-13
 -1      1992 2.19172E+01-1.78126E-01 5.71453E-03-7.07152E-01-6.31075E-14-2.51705E-13
 -1      1993 2.15836E+01-1.59543E-01-5.18775E-03-8.14193E-01-7.81762E-14-2.57007E-13
 -1      1994 2.17483E+01-2.04321E-01 3.57223E-03-1.01900E+00-1.01682E-13-2.46568E-13
 -1      1995 2.22325E+01-1.83132E-01 5.16177E-03-3.79076E-01 9.56310E-14-3.08984E-13
 -1      1996 2.20158E+01-1.92977E-01-8.04995E-03-5.14981E-01 2.07803E-14-2.67542E-13
 -1      1997 2.20686E+01-2.71278E-01 2.14794E-03-6.61190E-01 7.55802E-14-2.11945E-13
 -1      1998 2.23251E+01-1.48151E-01 3.41692E-03-8.01582E-02 1.24808E-13-2.02980E-13
 -1      1999 2.22348E+01-1.72291E-01-8.39091E-03-2.05011E-01 1.53775E-13-2.29224E-13
 -1      2000 2.21962E+01-2.55109E-01 5.64557E-04-2.79186E-01 1.40749E-13-2.45120E-13
 -1      2001 2.22401E+01-9.92717E-02 1.54000E-03 1.42020E-01-4.94713E-14-2.20139E-13
 -1      2002 2.22570E+01-1.25799E-01-7.02590E-03 4.83040E-02 2.57372E-14-2.21021E-13
 -1      2003 2.21583E+01-1.94019E-01-3.49577E-04 3.96443E-02 6.39063E-14-1.07061E-13
 -1      2004 2.20370E+01-5.34901E-02 1.34301E-04 2.78587E-01-8.18282E-14-2.50084E-13
 -1      2005 2.21292E+01-7.57280E-02-4.91925E-03 2.20054E-01-4.60435E-14-2.36016E-13
 -1      2006 2.20018E+01-1.22001E-01-6.34464E-04 2.60505E-01-2.93945E-14-1.78680E-13
 -1      2007 2.17705E+01-1.82978E-02-6.61319E-04 3.42267E-01-5.19495E-14-3.68706E-13
 -1      2008 2.19060E+01-3.39972E-02-2.78480E-03 3.13961E-01-1.01216E-13-3.58492E-13
 -1      2009 2.17746E+01-5.91926E-02-5.93304E-04 3.85119E-01-3.42530E-14-3.12687E-13
 -1      2010 2.14830E+01 5.10567E-03-9.62859E-04 3.53280E-01 8.00774E-14-4.52166E-13
 -1      2011 2.16358E+01-4.38327E-03-1.01435E-03 3.47034E-01 4.49353E-14-3.64048E-13
 -1      2012 2.15161E+01-1.32090E-02-4.72206E-04 4.32929E-01 5.17026E-14-3.55612E-13
 -1      2013 2.12036E+01 1.85352E-02-9.54601E-04 3.31167E-01-8.83698E-14-4.09150E-13
 -1      2014 2.13552E+01 1.38849E-02 2.56949E-04 3.38985E-01 7.72277E-16-4.13094E-13
 -1      2015 2.12553E+01 1.59640E-02-3.85386E-04 4.27746E-01-2.19906E-14-3.60307E-13
 -1      2016 2.09496E+01 2.46810E-02-7.93952E-04 2.91414E-01-1.46622E-13-3.76078E-13
 -1      2017 2.10888E+01 2.33457E-02 1.05013E-03 3.06895E-01-2.15876E-13-3.96143E-13
 -1      2018 2.10109E+01 3.16498E-02-3.53492E-04 3.90772E-01-1.39566E-13-2.37799E-13
 -1      2019 2.07296E+01 2.60536E-02-5.85205E-04 2.44864E-01-2.12481E-14-1.97450E-13
 -1      2020 2.08507E+01 2.67473E-02 1.45764E-03 2.63482E-01-8.25848E-14-3.34073E-13
 -1      2021 2.07936E+01 3.78566E-02-3.57928E-04 3.38119E-01-1.09005E-13-1.96827E-13
 -1      2022 2.05461E+01 2.46123E-02-3.85642E-04 1.98365E-01-5.66225E-14-8.30614E-14
 -1      2023 2.06471E+01 2.63888E-02 1.58897E-03 2.17226E-01 1.58964E-14-1.04380E-13
 -1      2024 2.06078E+01 3.80772E-02-3.74296E-04 2.80752E-01-4.70691E-14-1.37427E-13
 -1      2025 2.03977E+01 2.17333E-02-2.20391E-04 1.55779E-01 5.78188E-14 9.94533E-14
 -1      2026 2.04791E+01 2.39588E-02 1.54251E-03 1.73221E-01 9.41987E-15 7.61002E-15
 -1      2027 2.04541E+01 3.49320E-02-3.85356E-04 2.25408E-01-8.01984E-16 3.23642E-14
 -1      2028 2.02809E+01 1.83091E-02-9.58640E-05 1.18923E-01-1.33492E-13 2.20390E-14
 -1      2029 2.03447E+01 2.05928E-02 1.39500E-03 1.34135E-01-2.48447E-14 8.61408E-14
 -1      2030 2.03305E+01 3.02067E-02-3.83010E-04 1.75738E-01-1.25692E-14 1.36166E-13
 -1      2031 2.01913E+01 1.48764E-02-9.14102E-06 8.83184E-02 8.60298E-15 1.66744E-13
 -1      2032 2.02400E+01 1.69990E-02 1.20082E-03 1.01037E-01-6.60598E-14 7.49378E-14
 -1      2033 2.02335E+01 2.50254E-02-3.66090E-04 1.33318E-01-9.35753E-14 2.76632E-13
 -1      2034 2.01243E+01 1.17283E-02 4.64123E-05 6.37317E-02 6.94770E-14 2.09096E-13
 -1      2035 2.01605E+01 1.35836E-02 9.95422E-04 7.40162E-02 6.07911E-14 1.84138E-13
 -1      2036 2.01593E+01 2.00400E-02-3.37293E-04 9.84252E-02 3.64139E-14 3.99772E-13
 -1      2037 2.00756E+01 9.00020E-03 7.81561E-05 4.45323E-02-3.32807E-15-2.36839E-14
 -1      2038 2.01016E+01 1.05530E-02 8.00002E-04 5.26155E-02 2.96687E-14 7.68050E-14
 -1      2039 2.01038E+01 1.55865E-02-3.00750E-04 7.05961E-02 1.01094E-13 2.33965E-13
 -1      2040 2.00410E+01 6.73089E-03 9.27748E-05 2.99259E-02 2.00879E-13-2.55318E-13
 -1      2041 2.00593E+01 7.98714E-03 6.25754E-04 3.61174E-02 4.81056E-14-1.49362E-13
 -1      2042 2.00634E+01 1.18015E-02-2.60576E-04 4.89947E-02 1.63788E-13-5.46778E-14
 -1      2043 2.00175E+01 4.90330E-03 9.57875E-05 1.90941E-02 1.66919E-13-1.52924E-13
 -1      2044 2.00297E+01 5.89100E-03 4.77284E-04 2.37200E-02 2.05424E-13-2.09407E-13
 -1      2045 2.00348E+01 8.70253E-03-2.20123E-04 3.26479E-02 2.08108E-13-1.61658E-13
 -1      2046 2.00020E+01 3.47140E-03 9.14762E-05 1.12726E-02-2.34002E-13-5.45000E-15
 -1      2047 2.00099E+01 4.22822E-03 3.55120E-04 1.46418E-02 4.71473E-15 5.19466E-14
 -1      2048 2.00152E+01 6.24141E-03-1.81777E-04 2.05864E-02-3.21482E-14 2.58091E-13
 -1      2049 1.99926E+01 2.37735E-03 8.30092E-05 5.78985E-03 5.41516E-15-6.89965E-14
 -1      2050 1.99972E+01 2.94302E-03 2.57464E-04 8.17622E-03-1.38617E-13-6.93522E-14
 -1      2051 2.00023E+01 4.33832E-03-1.47015E-04 1.19222E-02-9.91430E-14 3.11962E-13
 -1      2052 1.99874E+01 1.56168E-03 7.26077E-05 2.07990E-03-1.24948E-14-1.59608E-13
 -1      2053 1.99898E+01 1.97381E-03 1.81366E-04 3.71632E-03 5.02699E-14-8.50652E-14
 -1      2054 1.99944E+01 2.90319E-03-1.16602E-04 5.88357E-03 1.03626E-13 2.43297E-13
 -1      2055 1.99851E+01 9.68911E-04 6.17431E-05-3.18755E-04-1.61966E-13-2.00537E-13
 -1      2056 1.99860E+01 1.26086E-03 1.23471E-04 7.58997E-04-1.54160E-13-2.95537E-13
 -1      2057 1.99901E+01 1.84795E-03-9.07734E-05 1.82601E-03-1.78193E-14 5.55413E-14
 -1      2058 1.99848E+01 5.50132E-04 5.13222E-05-1.77245E-03 1.25196E-13-1.95941E-13
 -1      2059 1.99846E+01 7.50271E-04 8.04543E-05-1.10050E-03 1.73344E-14-2.61642E-13
 -1      2060 1.99881E+01 1.09281E-03-6.93927E-05-7.73098E-04-4.38222E-14-2.18036E-13
 -1      2061 1.99856E+01 2.63795E-04 4.18400E-05-2.56475E-03-1.60023E-13-1.04404E-13
 -1      2062 1.99849E+01 3.95547E-04 4.92667E-05-2.17947E-03 9.79673E-15-1.56851E-13
 -1      2063 1.99877E+01 5.68832E-04-5.20884E-05-2.32628E-03-1.74155E-14-1.82004E-13
 -1      2064 1.99871E+01 7.55312E-05 3.34956E-05-2.90954E-03-1.78752E-13 3.54168E-14
 -1      2065 1.99861E+01 1.57786E-04 2.72363E-05-2.72047E-03-1.42422E-13 9.29679E-15
 -1      2066 1.99884E+01 2.18345E-04-3.83649E-05-3.15107E-03-2.09538E-13-5.85434E-14
 -1      2067 1.99890E+01-4.26370E-05 2.62730E-05-2.96340E-03 8.66229E-14-2.27188E-13
 -1      2068 1.99878E+01 5.11976E-06 1.20964E-05-2.90386E-03-9.29281E-14-1.78916E-13
 -1      2069 1.99896E+01-5.83021E-06-2.76807E-05-3.48539E-03-2.82528E-14-4.63921E-14
 -1      2070 1.99910E+01-1.13402E-04 1.99998E-05-2.83635E-03-5.76653E-14 8.91345E-14
 -1      2071 1.99898E+01-8.82972E-05 1.96729E-06-2.85920E-03 2.75421E-14-7.64327E-14
 -1      2072 1.99912E+01-1.41841E-04-1.95002E-05-3.50178E-03-6.48297E-14 2.42129E-14
 -1      2073 1.99930E+01-1.55505E-04 1.43869E-05-2.60057E-03 2.48173E-13 6.34775E-16
 -1      2074 1.99918E+01-1.43552E-04-4.67822E-06-2.67481E-03 1.12257E-13 1.11507E-13
 -1      2075 1.99928E+01-2.20604E-04-1.33189E-05-3.31956E-03 1.17941E-13 1.48469E-13
 -1      2076 1.99948E+01-1.84897E-04 9.30011E-06-2.29666E-03 6.63445E-14-1.61906E-13
 -1      2077 1.99938E+01-1.78473E-04-9.03697E-06-2.40519E-03 1.55887E-13-7.78563E-14
 -1      2078 1.99944E+01-2.67862E-04-8.65168E-06-3.01463E-03 2.31043E-13 3.27990E-14
 -1      2079 1.99964E+01-2.14999E-04 4.96579E-06-1.93934E-03-2.93700E-13 4.94902E-14
 -1      2080 1.99955E+01-2.07848E-04-1.16989E-05-2.07656E-03-1.24979E-13 2.80395E-14
 -1      2081 1.99959E+01-3.04386E-04-4.51095E-06-2.62636E-03-2.23063E-13 1.08808E-13
 -1      2082 1.99977E+01-2.58449E-04 1.59687E-06-1.52179E-03 1.10040E-14 4.89821E-14
 -1      2083 1.99970E+01-2.45057E-04-1.26604E-05-1.69295E-03-1.32704E-13-4.25135E-15
 -1      2084 1.99972E+01-3.49851E-04-6.30280E-07-2.16660E-03-1.81565E-13 1.03726E-13
 -1      2085 1.99987E+01-3.22383E-04-4.09419E-06-1.02513E-03-4.85981E-14 2.25217E-13
 -1      2086 1.99982E+01-2.97348E-04-1.09378E-05-1.24282E-03-3.24767E-14 2.21511E-13
 -1      2087 1.99982E+01-4.19767E-04 1.93267E-06-1.62853E-03-9.15765E-14 3.21027E-13
 -1      2088 1.99993E+01-3.74986E-04-1.02029E-05-5.99714E-04 1.10644E-13 4.04647E-13
 -1      2089 1.99990E+01-3.61014E-04-8.42402E-06-8.51707E-04 1.13112E-14 3.36712E-13
 -1      2090 1.99990E+01-5.00288E-04 4.32884E-06-1.14357E-03-3.78796E-14 4.34693E-13
 -1      2091 1.99994E+01-5.65743E-04 1.26130E-06-7.51087E-04 2.11667E-14 5.38779E-13
 -1      2092 1.99998E+01-3.07350E-03 5.58162E-06-1.67289E-03 1.70353E-13-3.63600E-13
 -1      2093 1.99997E+01-2.53931E-03-6.41512E-06-1.66191E-03 1.03711E-13-2.94477E-13
 -1      2094 1.99996E+01-2.09519E-03 1.53361E-06-1.58739E-03 6.76336E-15-3.92670E-13
 -1      2095 1.99995E+01-1.59899E-03-1.02575E-05-1.45240E-03 1.67786E-13-8.16227E-14
 -1      2096 1.99996E+01-2.19253E-03-4.18807E-07-2.05105E-03-1.00472E-13-2.78223E-13
 -1      2097 1.99995E+01-1.27436E-03-1.74082E-06-1.25169E-03 4.23868E-14 7.44724E-14
 -1      2098 1.99994E+01-8.67291E-04-1.02938E-05-1.01664E-03-6.95092E-14 4.01235E-13
 -1      2099 1.99992E+01-8.43387E-04-7.56577E-06-1.23395E-03-7.30094E-14 3.16300E-13
 -1      2100 1.99994E+01-1.44668E-03 1.93029E-06-1.73728E-03-6.11729E-14 4.66078E-14
 -1      2101 2.00000E+01-3.98035E-03 1.00719E-05-1.52665E-03 1.05089E-13-5.91254E-13
 -1      2102 1.99999E+01-3.48388E-03 1.37147E-06-1.61476E-03 1.32508E-13-2.95078E-13
 -1      2103 1.99999E+01-3.04092E-03-4.24016E-06-2.06175E-03 7.21616E-14-4.50258E-13
 -1      2104 2.00001E+01-4.74735E-03 1.41254E-05-1.18723E-03 4.68955E-13-2.04465E-13
 -1      2105 2.00001E+01-4.33692E-03 8.15621E-06-1.35558E-03 3.43339E-13-4.15183E-13
 -1      2106 2.00001E+01-3.80932E-03-8.81015E-06-1.80307E-03 2.73984E-13-3.50318E-13
 -1      2107 2.00002E+01-5.27184E-03 1.67743E-05-7.11386E-04 3.13991E-13 4.16784E-13
 -1      2108 2.00002E+01-5.00538E-03 1.34869E-05-9.32772E-04 4.45178E-13 6.93626E-14
 -1      2109 2.00003E+01-4.42588E-03-1.20160E-05-1.32510E-03 5.90922E-13-7.59976E-14
 -1      2110 2.00002E+01-5.49905E-03 1.77272E-05-1.58687E-04-1.88029E-14-1.63505E-13
 -1      2111 2.00002E+01-5.40726E-03 1.66479E-05-4.06661E-04 1.06357E-13 2.88667E-13
 -1      2112 2.00004E+01-4.82142E-03-1.40624E-05-6.98755E-04 2.91731E-13 1.40701E-13
 -1      2113 2.00002E+01-5.40572E-03 1.67297E-05 4.11006E-04 1.69238E-13 1.71586E-14
 -1      2114 2.00002E+01-5.49902E-03 1.76709E-05 1.62946E-04 4.71585E-14 1.54690E-14
 -1      2115 2.00004E+01-4.95760E-03-1.47696E-05 2.46727E-06-6.72357E-14 1.76743E-14
 -1      2116 2.00002E+01-5.00195E-03 1.36841E-05 9.37483E-04-8.52177E-14-1.26025E-13
 -1      2117 2.00002E+01-5.27021E-03 1.66273E-05 7.16044E-04-1.55923E-14-1.50585E-13
 -1      2118 2.00004E+01-4.82116E-03-1.40526E-05 7.04026E-04-1.83454E-14-2.38074E-13
 -1      2119 2.00001E+01-4.34464E-03 8.23611E-06 1.35456E-03-3.19716E-14-3.14412E-13
 -1      2120 2.00001E+01-4.74886E-03 1.40421E-05 1.18861E-03-1.47493E-13 2.68601E-14
 -1      2121 2.00003E+01-4.42945E-03-1.21964E-05 1.32673E-03-1.57739E-13-1.12439E-13
 -1      2122 1.99999E+01-3.48317E-03 1.17359E-06 1.61694E-03 1.85971E-13 2.00505E-13
 -1      2123 2.00000E+01-3.98850E-03 1.01429E-05 1.52731E-03 9.88685E-14-1.30721E-13
 -1      2124 2.00001E+01-3.81842E-03-9.01160E-06 1.80295E-03 1.06292E-14-7.96200E-14
 -1      2125 1.99997E+01-2.52870E-03-6.53873E-06 1.66364E-03 1.62742E-13-1.69770E-13
 -1      2126 1.99998E+01-3.06424E-03 5.72830E-06 1.67588E-03 2.06143E-13-4.65143E-14
 -1      2127 1.99999E+01-3.04185E-03-4.04827E-06 2.06462E-03 1.78003E-13 1.46974E-13
 -1      2128 1.99995E+01-1.57164E-03-5.87178E-06 1.46020E-03-1.27365E-13-2.42978E-13
 -1      2129 1.99996E+01-2.08441E-03 2.85224E-06 1.58768E-03-2.02934E-14-2.59364E-13
 -1      2130 1.99996E+01-2.18670E-03-7.79529E-08 2.05086E-03 4.41818E-14-3.81264E-13
 -1      2131 1.12075E+01-5.06847E+00-1.20776E-01 6.71666E+00 3.30846E-13 9.37223E-13
 -1      2132 7.79993E+00-6.18942E+00-2.54519E-01 5.89551E+00 1.22902E-13 7.45431E-13
 -1      2133 3.66662E-01-6.78395E+00-3.16538E-01 1.15238E+00-1.41054E-13 6.84452E-13
 -1      2134 1.52073E-01-7.55637E+00-4.49770E-01-4.26690E-01-3.28487E-13 8.79075E-13
 -1      2135 4.44109E+00-5.41605E+00-1.14716E-01 4.94464E+00 4.69624E-14 7.73048E-13
 -1      2136 2.14106E+00-6.43968E+00-2.91937E-01 3.11705E+00-1.39250E-13 7.69662E-13
 -1      2137 1.92089E+01-3.00161E+00 2.14626E-02 7.06607E+00 5.19362E-13 6.82510E-13
 -1      2138 1.46195E+01-4.89041E+00-2.86559E-01 6.38385E+00 3.78586E-13 7.49789E-13
 -1      2139 2.77534E+01-3.12526E-01 1.23935E-01 5.96101E+00 5.98632E-13 3.39728E-13
 -1      2140 2.28953E+01-2.12021E+00-1.66911E-01 5.87268E+00 6.04405E-13 4.20441E-13
 -1      2141 1.91806E+01 4.28499E+00-3.20086E-02-6.34847E-01-3.14136E-13-1.24588E-13
 -1      2142 1.97843E+01 4.21530E+00-1.39897E-02-8.40510E-01-3.44860E-13-2.37727E-14
 -1      2143 2.03116E+01 3.50642E+00-1.53872E-02-7.38904E-01-3.45148E-13 2.55022E-14
 -1      2144 1.90654E+01 4.00597E+00-4.27977E-03-4.56952E-01-3.19085E-13-1.37140E-13
 -1      2145 3.93137E+01 6.31639E+00 4.22043E-01 1.45869E+00 6.65579E-13 2.87548E-14
 -1      2146 3.57337E+01 5.17191E+00 1.04945E-01 1.76348E+00 6.44484E-13 3.83027E-14
 -1      2147 3.92546E+01 7.39445E+00 1.80641E-01-1.64589E-01 7.51399E-13-1.80547E-13
 -1      2148 3.95144E+01 6.98838E+00 2.63004E-01 9.54731E-01 7.41240E-13 1.82909E-14
 -1      2149 3.48964E+01 7.38875E+00 2.39884E-01-3.81438E-01 7.49845E-13-2.23349E-13
 -1      2150 3.78049E+01 6.50951E+00 1.52104E-01-1.26046E+00 8.35332E-13-3.54938E-13
 -1      2151 3.94070E+01 7.19501E+00 2.77133E-01-4.41841E-01 7.64111E-13-1.87045E-13
 -1      2152 3.44870E+01 3.55793E+00 1.25237E-01-3.27104E+00 7.58171E-13-4.78617E-13
 -1      2153 3.73996E+01 4.88264E+00 2.43571E-01-2.30995E+00 7.87370E-13-3.47888E-13
 -1      2154 2.79781E+01-4.74981E-02-4.75115E-02-5.11315E+00 7.63334E-13-5.92859E-13
 -1      2155 3.23467E+01 1.64055E+00 2.13885E-01-4.66658E+00 7.13041E-13-5.10925E-13
 -1      2156 2.05335E+01-3.60166E+00-9.41163E-02-6.20881E+00 5.69100E-13-5.32629E-13
 -1      2157 2.50683E+01-1.37695E+00 1.51588E-01-6.47476E+00 7.08877E-13-6.39155E-13
 -1      2158 2.76623E+01-2.38719E+00 6.54739E-02-4.14885E+00 4.50445E-13-2.63400E-13
 -1      2159 1.01863E+01-5.86149E+00-3.63322E-01-6.06112E+00 5.29576E-13-6.89802E-13
 -1      2160 1.51516E+01-4.41660E+00-1.10808E-01-7.07037E+00 4.83280E-13-5.83728E-13
 -1      2161 4.67041E+00-6.02200E+00-2.32639E-01-4.88468E+00 2.24654E-13-7.17759E-13
 -1      2162 7.18822E+00-5.63396E+00-2.38208E-01-5.88517E+00 4.82780E-13-7.17176E-13
 -1      2163 1.10205E+01-5.20702E+00-6.07635E-02-6.88357E+00 7.70495E-14-5.79731E-13
 -1      2164 5.75607E-01-6.93567E+00-4.10095E-01-1.23798E+00 8.24202E-14-7.87648E-13
 -1      2165 1.82103E+00-5.53800E+00-2.02407E-01-3.02850E+00 2.18631E-13-8.28171E-13
 -1      2166 1.11871E+00-6.49413E+00-3.23140E-01 1.95316E+00-7.57450E-14-6.87783E-13
 -1      2167 3.80006E-01-6.95951E+00-3.90601E-01 3.58161E-01 1.05901E-13-6.90448E-13
 -1      2168 1.86260E+00-3.99436E+00-1.34270E-01-4.58895E-01 8.34055E-15-8.17957E-13
 -1      2169 5.34683E+00-6.30717E+00-3.18559E-01 4.80415E+00-2.84994E-13-8.29198E-13
 -1      2170 2.85855E+00-7.23328E+00-4.51829E-01 3.52699E+00-9.47020E-14-7.25142E-13
 -1      2171 1.29649E+01-4.86766E+00-1.38423E-01 6.60986E+00-3.97793E-13-8.04981E-13
 -1      2172 9.03187E+00-6.44720E+00-4.06491E-01 5.52561E+00-2.38254E-13-7.98382E-13
 -1      2173 2.21078E+01-3.09480E+00 2.34031E-02 6.54484E+00-4.33875E-13-6.38489E-13
 -1      2174 1.72292E+01-4.87575E+00-3.01721E-01 6.02147E+00-3.52107E-13-6.52089E-13
 -1      2175 3.01323E+01-6.98880E-01 4.74948E-02 4.81156E+00-5.35100E-13-4.58689E-13
 -1      2176 2.51165E+01-2.27612E+00-1.83504E-01 5.22276E+00-5.08871E-13-5.93803E-13
 -1      2177 2.56356E+01-4.38823E+00 9.80103E-02 4.65019E+00-1.11799E-13-3.18134E-13
 -1      2178 3.63354E+01 3.10924E+00 1.41035E-01 1.70866E+00-5.94524E-13-2.34812E-13
 -1      2179 3.29442E+01 1.35128E+00 2.49306E-03 2.52196E+00-5.84532E-13-3.11084E-13
 -1      2180 4.01460E+01 6.50922E+00 3.24393E-01 5.58841E-01-7.02216E-13-1.54737E-13
 -1      2181 3.74933E+01 5.55195E+00 7.15663E-02 1.05000E+00-6.93445E-13-2.25930E-13
 -1      2182 4.14346E+01 7.17339E+00 3.86096E-01-3.35094E-01-8.24896E-13 7.49123E-14
 -1      2183 4.07413E+01 7.01520E+00 2.25688E-01 6.01816E-01-7.58282E-13-1.58790E-13
 -1      2184 3.61400E+01 7.54384E+00 3.16732E-01-4.03533E-01-7.68052E-13 8.39884E-14
 -1      2185 3.88417E+01 5.72571E+00 1.95779E-01-1.41543E+00-9.09939E-13 3.03424E-13
 -1      2186 4.16326E+01 6.55474E+00 4.72729E-01-7.52333E-01-8.44325E-13 1.32144E-13
 -1      2187 3.42684E+01 2.22073E+00 7.56937E-02-3.07241E+00-8.64607E-13 3.66596E-13
 -1      2188 3.73947E+01 3.67202E+00 2.49878E-01-2.04407E+00-8.51208E-13 2.17881E-13
 -1      2189 2.80362E+01-9.72694E-01-1.10481E-01-4.44458E+00-8.18678E-13 3.29514E-13
 -1      2190 3.26562E+01 8.50319E-01 2.39878E-01-4.37056E+00-8.18901E-13 3.54383E-13
 -1      2191 3.30217E+01 4.23627E-01 2.07600E-01-9.93120E-01-5.67742E-13-1.54932E-13
 -1      2192 1.99665E+01-4.30162E+00-2.55410E-01-5.71461E+00-6.63358E-13 5.47784E-13
 -1      2193 2.47712E+01-2.62401E+00 7.39830E-02-5.91057E+00-7.27585E-13 4.53249E-13
 -1      2194 1.27624E+01-6.00711E+00-3.10404E-01-5.90305E+00-6.13509E-13 6.94472E-13
 -1      2195 1.68994E+01-4.43393E+00-3.57062E-02-6.61196E+00-6.88671E-13 7.55340E-13
 -1      2196 2.13153E+01-5.62173E+00 9.28810E-03-5.77915E+00-1.86240E-13 1.55403E-13
 -1      2197 5.07064E+00-7.23002E+00-4.49751E-01-4.40492E+00-3.72535E-13 9.00363E-13
 -1      2198 8.20374E+00-5.84613E+00-2.05764E-01-5.74072E+00-5.98854E-13 7.59143E-13
 -1      2199 1.06097E+00-7.77725E+00-4.84483E-01-2.12690E+00-2.86215E-13 9.37028E-13
 -1      2200 2.75377E+00-7.03315E+00-3.38966E-01-3.43910E+00-4.38205E-13 1.07631E-12
 -1      2201 5.77040E+00-5.59311E+00-1.87313E-01-5.05695E+00-1.19349E-14 8.99392E-13
 -1      2202 3.38672E+01 2.44728E+00 4.83069E-02 2.86290E+00 5.36890E-13 3.86358E-14
 -1      2203 3.05082E+01 1.06867E+00 2.75755E-02 4.16253E+00 5.49116E-13 2.70339E-13
 -1      2204 2.31470E+01-4.06280E+00 4.65411E-02 5.74368E+00 2.13329E-13 2.30399E-13
 -1      2205 2.31762E+01 1.10963E+00-1.63409E-02-6.76331E-01-2.48194E-13 6.53783E-13
 -1      2206 2.96503E+01-1.01854E+00 1.77154E-01 3.08997E+00 3.48999E-13-8.50431E-14
 -1      2207 3.20809E+01 4.05533E+00-1.96782E-01-1.00468E+00 4.54026E-13-2.69645E-13
 -1      2208 3.38600E+01 3.47274E+00 1.18376E-01 1.02120E+00 4.98962E-13-6.60583E-14
 -1      2209 3.14284E+01 1.65782E+00 5.99821E-02-4.40642E-03 3.13694E-13-3.16941E-13
 -1      2210 2.27150E+01 1.36526E+00-2.49608E-02-5.31030E-01-2.65028E-13 4.23096E-13
 -1      2211 7.90533E+00-5.00298E+00-7.63218E-02 6.08227E+00-1.32894E-13 7.66026E-13
 -1      2212 2.63322E+00-4.29388E+00-1.01376E-01 2.63041E+00-1.50033E-13 8.03080E-13
 -1      2213 1.99994E+01-1.26292E-03-7.59302E-06 1.41571E-03-1.15629E-13-1.72571E-13
 -1      2214 1.54181E+01-5.48596E+00-6.77755E-02 7.01540E+00 1.47105E-14 6.20351E-13
 -1      2215 1.86990E+00-5.17969E+00-2.34185E-01-1.81352E+00-1.68768E-13 9.38583E-13
 -1      2216 1.31457E+01-5.91356E+00-7.26061E-02-6.58238E+00-1.11133E-13 6.19657E-13
 -1      2217 2.80274E+01-3.47754E+00 7.02530E-02-3.46991E+00-4.06924E-13-7.19425E-14
 -1      2218 3.71803E+01 7.71274E+00 3.56780E-01 3.41308E-01-9.20819E-13 5.96051E-14
 -1      2219 3.14881E+01-1.02045E+00 1.52204E-01 1.56553E+00-3.62974E-13-4.12448E-14
 -1      2220 1.80296E+01-5.68862E+00-1.22061E-02 6.55404E+00-2.07057E-14-4.99711E-13
 -1      2221 3.44116E+00-4.90364E+00-1.90796E-01 3.41631E+00 1.82077E-14-7.97695E-13
 -1      2222 4.74562E+00-4.39874E+00-7.75048E-02-4.54973E+00-1.99840E-15-8.09852E-13
 -1      2223 1.90844E+01-4.63114E+00-2.24434E-02-6.60780E+00 3.47666E-13-4.79006E-13
 -1      2224 2.24597E+01-4.96689E+00-1.07392E-01-5.72459E+00 1.21236E-13-2.17826E-13
 -1      2225 1.77577E+01-5.16021E+00 1.05547E-01-6.89314E+00 6.95000E-14-3.19430E-13
 -1      2226 3.27426E+01 1.71980E+00 2.09294E-01-1.81579E+00 6.23709E-13-2.24376E-13
 -1      2227 3.53202E+01 8.11857E+00 2.45981E-01 5.59218E-02 8.43214E-13-1.75790E-13
 -1      2228 3.50743E+01 5.87705E+00 2.28350E-01-1.91557E-01 7.79432E-13-2.26874E-13
 -1      2229 9.48066E+00-5.62877E+00-1.36294E-01 6.27807E+00-1.06026E-14-7.83457E-13
 -1      2230 3.45091E+01 4.04215E+00 1.75063E-01-8.47564E-01-5.69406E-13 8.88178E-15
 -1      2231 3.59535E+01 4.56475E+00 2.70468E-01 3.51015E-01-7.90201E-13-4.43534E-14
 -1      2232 2.21348E+01 3.37364E-01-7.14828E-04 2.17744E-01 1.96686E-13 4.30151E-14
 -1      2233 2.22977E+01 5.60895E-01 2.10232E-02 4.47816E-01 2.33718E-13 6.49745E-14
 -1      2234 1.71502E+01 4.30721E+00-9.62978E-03-2.23420E-01-2.25336E-13-3.25378E-13
 -1      2235 1.74197E+01 4.25215E+00-3.52268E-03-2.09688E-01-2.50903E-13-3.08217E-13
 -1      2236 1.77873E+01 4.08685E+00-1.53630E-02-1.46530E-01-2.62589E-13-2.73972E-13
 -1      2237 1.82546E+01 3.96552E+00-2.80863E-03-1.79183E-01-2.91081E-13-2.17090E-13
 -1      2238 1.76161E+01 3.90519E+00 6.10172E-03-6.58367E-02-2.41836E-13-2.63388E-13
 -1      2239 1.71452E+01 4.21944E+00 6.40989E-04-4.17903E-01-1.39854E-13-3.85166E-13
 -1      2240 1.69923E+01 4.27686E+00-1.02652E-02-4.21910E-01-1.68189E-13-3.69751E-13
 -1      2241 1.76836E+01 3.96729E+00 2.10177E-03-3.73461E-01-8.39755E-14-3.84115E-13
 -1      2242 1.73761E+01 4.06119E+00-1.27185E-02-4.34384E-01-1.15051E-13-3.85521E-13
 -1      2243 1.72914E+01 3.86183E+00 1.96985E-03-5.31667E-01-1.33993E-13-3.60044E-13
 -1      2244 1.84249E+01 3.65078E+00 2.13989E-04-1.83500E-01-1.34994E-14-3.73210E-13
 -1      2245 1.80310E+01 3.76440E+00-1.38935E-02-3.08251E-01-5.42825E-14-3.76990E-13
 -1      2246 1.79362E+01 3.52450E+00-2.16791E-03-4.80980E-01-7.53295E-14-3.52423E-13
 -1      2247 1.92868E+01 3.29521E+00-5.04321E-03 1.45019E-01 7.45218E-14-3.13321E-13
 -1      2248 1.88441E+01 3.42939E+00-1.47027E-02-4.05529E-02 2.30219E-14-3.39559E-13
 -1      2249 1.87696E+01 3.13065E+00-4.75313E-03-2.65887E-01-2.09208E-15-3.15556E-13
 -1      2250 2.01894E+01 2.89883E+00-1.38813E-02 5.59893E-01 1.66063E-13-2.74778E-13
 -1      2251 1.97332E+01 3.06781E+00-1.59561E-02 3.36810E-01 1.06328E-13-2.91532E-13
 -1      2252 1.96881E+01 2.71484E+00-4.16079E-03 7.48083E-02 9.02154E-14-2.69730E-13
 -1      2253 2.11159E+01 2.39627E+00-2.81249E-02 9.79142E-01 2.41257E-13-2.06779E-13
 -1      2254 2.06494E+01 2.64577E+00-1.78516E-02 7.54952E-01 1.92986E-13-2.52654E-13
 -1      2255 2.06165E+01 2.26807E+00 4.89070E-04 4.55428E-01 1.67119E-13-2.26817E-13
 -1      2256 2.20504E+01 1.34905E-02-3.69137E-03 6.68352E-03 1.69018E-13 1.48037E-14
 -1      2257 2.21318E+01 1.61842E-01 2.04484E-02 6.44222E-02 1.75636E-13 4.06290E-14
 -1      2258 2.20168E+01 3.71501E-01-5.44756E-03 1.94989E-01 2.03035E-13-2.89066E-14
 -1      2259 2.23751E+01 9.69017E-01 1.62403E-02 3.34868E-01-1.87429E-13 2.93254E-13
 -1      2260 2.23755E+01 7.10461E-01-1.39838E-03 6.85054E-01-1.55501E-13 2.79478E-13
 -1      2261 2.96065E+01-1.39015E+00-1.51905E-01 1.44537E+00 1.66543E-13-3.67650E-13
 -1      2262 2.77546E+01-2.92375E+00-1.97180E-02 2.83806E+00 1.32089E-13-2.92294E-13
 -1      2263 2.24639E+01 4.97738E-01 2.06799E-02 9.61193E-01-1.19488E-13 2.79173E-13
 -1      2264 2.25697E+01 2.67485E-01-1.63441E-03 1.13455E+00-8.34927E-14 2.63468E-13
 -1      2265 2.18647E+01 8.08783E-01-1.13102E-02 8.84091E-01-1.56082E-13 1.77372E-13
 -1      2266 2.27592E+01 3.32677E-02 1.96776E-02 1.27584E+00-4.94639E-14 2.81774E-13
 -1      2267 2.29583E+01-2.47350E-01-9.22307E-03 1.27362E+00-1.95768E-14 2.66932E-13
 -1      2268 2.20753E+01 2.13108E-01-1.72535E-02 1.35633E+00-6.67651E-14 1.66426E-13
 -1      2269 2.33132E+01-5.40705E-01 2.26568E-02 1.23508E+00-3.41220E-15 2.71356E-13
 -1      2270 2.35692E+01-8.90784E-01-2.03256E-02 1.02886E+00-2.29799E-14 2.67192E-13
 -1      2271 2.25477E+01-5.01791E-01-2.41433E-02 1.51134E+00-2.76851E-14 1.68956E-13
 -1      2272 2.41282E+01-1.22319E+00 2.55258E-02 7.41326E-01 3.46468E-15 2.85799E-13
 -1      2273 2.43835E+01-1.55769E+00-3.12301E-02 3.07985E-01 1.47868E-14 3.15520E-13
 -1      2274 2.33705E+01-1.37037E+00-3.19343E-02 1.24904E+00-5.46438E-16 1.96738E-13
 -1      2275 2.50968E+01-1.77782E+00 1.69418E-02-2.80887E-01 3.58203E-14 3.57566E-13
 -1      2276 2.52626E+01-1.84778E+00-3.31716E-02-8.75938E-01 4.99123E-14 3.76754E-13
 -1      2277 2.45705E+01-2.17249E+00-3.30318E-02 4.29981E-01 5.89867E-14 2.70265E-13
 -1      2278 2.58892E+01-1.64139E+00-2.00757E-02-1.65815E+00 6.05128E-14 4.06029E-13
 -1      2279 2.58901E+01-1.09804E+00-1.06230E-02-2.14391E+00-4.59745E-14 4.29264E-13
 -1      2280 2.59247E+01-2.29319E+00-3.48229E-02-9.72213E-01 8.10458E-14 3.10245E-13
 -1      2281 2.60737E+01-2.66374E-01-9.06994E-02-2.64326E+00-1.91364E-13 4.53405E-13
 -1      2282 2.58979E+01 8.96034E-01-9.19656E-03-2.59703E+00-2.94390E-13 4.53272E-13
 -1      2283 2.69307E+01-8.75054E-01-3.50765E-02-2.45363E+00-8.43769E-14 3.39735E-13
 -1      2284 2.56467E+01 2.07125E+00-1.22805E-01-2.15631E+00-3.83235E-13 4.15566E-13
 -1      2285 2.54771E+01 3.00982E+00-4.36373E-02-1.31495E+00-4.42174E-13 3.28085E-13
 -1      2286 2.71298E+01 1.84473E+00-6.81995E-02-2.59727E+00-3.61322E-13 3.80578E-13
 -1      2287 2.53363E+01 3.38758E+00-9.42534E-02 3.74219E-02-4.94493E-13 1.82167E-13
 -1      2288 2.54376E+01 3.15335E+00-1.00064E-01 1.13900E+00-5.03986E-13 3.61304E-14
 -1      2289 2.68572E+01 4.14233E+00-1.06376E-01-7.39521E-01-5.83644E-13 1.77885E-13
 -1      2290 2.56348E+01 2.30673E+00-4.17107E-02 2.23688E+00-4.26520E-13-6.80359E-14
 -1      2291 2.59199E+01 1.14800E+00-1.13577E-01 2.77322E+00-3.37660E-13-1.10013E-13
 -1      2292 2.69843E+01 3.50319E+00-8.33096E-02 1.84955E+00-5.58373E-13-6.87367E-14
 -1      2293 2.60129E+01 9.95164E-04-1.22549E-02 2.79274E+00-2.49054E-13-2.11779E-13
 -1      2294 2.61889E+01-9.71205E-01-5.83407E-02 2.58251E+00-2.14034E-13-2.78296E-13
 -1      2295 2.71704E+01 7.63489E-01-6.24287E-02 3.01329E+00-3.45585E-13-2.34132E-13
 -1      2296 2.57800E+01-1.60466E+00-3.24015E-02 1.86245E+00-1.77011E-13-2.52613E-13
 -1      2297 2.57387E+01-1.87867E+00-3.05675E-03 1.26166E+00-8.90260E-14-2.42684E-13
 -1      2298 2.66641E+01-1.72461E+00-3.68960E-02 2.07430E+00-1.96707E-13-3.75245E-13
 -1      2299 2.50235E+01-1.88237E+00-3.31871E-02 4.91531E-01-6.95624E-15-2.01610E-13
 -1      2300 2.48057E+01-1.68366E+00 2.25459E-02-9.02363E-02 3.90625E-14-1.68831E-13
 -1      2301 2.54568E+01-2.45212E+00-2.07014E-02 4.91188E-01-3.02844E-14-1.82211E-13
 -1      2302 2.41125E+01-1.40844E+00-2.69561E-02-6.04320E-01-2.78319E-14-1.66420E-13
 -1      2303 2.38192E+01-1.07548E+00 2.08956E-02-9.97665E-01-1.95460E-14-1.34078E-13
 -1      2304 2.40633E+01-2.02145E+00-3.02251E-02-7.71449E-01-2.37774E-14-1.11549E-13
 -1      2305 2.32989E+01-7.77744E-01-1.68278E-02-1.24927E+00 4.47290E-14-1.93471E-13
 -1      2306 2.29955E+01-4.92302E-01 1.36494E-02-1.44593E+00 7.26077E-14-1.10829E-13
 -1      2307 2.29351E+01-1.20984E+00-2.59219E-02-1.48638E+00 2.73050E-14-6.19630E-14
 -1      2308 2.26475E+01-2.72943E-01-7.03288E-03-1.51300E+00 3.59274E-14-8.06811E-14
 -1      2309 2.23632E+01-8.81901E-02 7.26328E-03-1.56479E+00 7.55935E-14-1.07584E-13
 -1      2310 2.21485E+01-5.01102E-01-1.66325E-02-1.76018E+00 7.26737E-14-1.24348E-13
 -1      2311 2.21366E+01 4.16489E-02-4.90400E-04-1.52652E+00 1.21045E-13-8.16506E-14
 -1      2312 2.18805E+01 1.39126E-01 3.09384E-03-1.49076E+00 1.20320E-13-1.00064E-13
 -1      2313 2.16269E+01-3.32673E-02-9.20583E-03-1.76121E+00 6.19812E-14-1.06057E-13
 -1      2314 2.17277E+01 2.01722E-01 3.30746E-03-1.40107E+00 1.01480E-13-1.26720E-13
 -1      2315 2.15022E+01 2.40613E-01 9.09881E-04-1.32175E+00 1.09474E-13-1.68290E-13
 -1      2316 2.12737E+01 2.20419E-01-4.65584E-03-1.61608E+00 8.45517E-14-1.66668E-13
 -1      2317 2.13915E+01 2.61320E-01 5.14358E-03-1.21348E+00 8.65216E-14-1.56956E-13
 -1      2318 2.11968E+01 2.66490E-01-5.21140E-05-1.11907E+00 1.18072E-14-1.28696E-13
 -1      2319 2.10187E+01 3.27297E-01-2.34494E-03-1.40615E+00 1.01284E-13-3.20235E-13
 -1      2320 2.11108E+01 2.64460E-01 5.70666E-03-1.01061E+00-2.55382E-14-3.08524E-14
 -1      2321 2.09459E+01 2.52805E-01-3.63265E-04-9.17294E-01-8.03643E-15 4.55037E-14
 -1      2322 2.08209E+01 3.47928E-01-1.37071E-03-1.17964E+00 5.21355E-14-1.48527E-13
 -1      2323 2.08758E+01 2.40185E-01 5.52746E-03-8.17967E-01-8.93913E-14 2.83380E-14
 -1      2324 2.07389E+01 2.21772E-01-3.78407E-04-7.33718E-01-9.51233E-14-1.72653E-14
 -1      2325 2.06596E+01 3.24316E-01-1.04732E-03-9.63077E-01-4.20558E-14-1.08703E-13
 -1      2326 2.06807E+01 2.05465E-01 4.96916E-03-6.47441E-01-1.61509E-14 1.19357E-14
 -1      2327 2.05692E+01 1.85720E-01-2.86506E-04-5.75320E-01 7.60138E-14 1.11710E-13
 -1      2328 2.05248E+01 2.81978E-01-9.77002E-04-7.69401E-01-7.35632E-14 4.28902E-14
 -1      2329 2.05207E+01 1.69293E-01 4.26137E-03-5.02962E-01 6.06261E-14 8.61246E-14
 -1      2330 2.04316E+01 1.50840E-01-1.76603E-04-4.43336E-01-3.92360E-14 1.21619E-13
 -1      2331 2.04118E+01 2.34960E-01-9.66908E-04-6.03435E-01 5.74177E-15 3.55206E-14
 -1      2332 2.03916E+01 1.35925E-01 3.53701E-03-3.84176E-01-1.56811E-13 1.28843E-13
 -1      2333 2.03215E+01 1.19828E-01-8.40614E-05-3.36093E-01-9.81164E-14 1.66897E-13
 -1      2334 2.03180E+01 1.90241E-01-9.41956E-04-4.65422E-01-4.88421E-14-8.02898E-14
 -1      2335 2.02891E+01 1.07016E-01 2.86527E-03-2.88678E-01-5.39941E-14 1.03188E-13
 -1      2336 2.02349E+01 9.35299E-02-1.79737E-05-2.50648E-01 4.43560E-14 3.03071E-14
 -1      2337 2.02413E+01 1.50801E-01-8.84011E-04-3.53242E-01-1.26267E-13-5.81084E-14
 -1      2338 2.02090E+01 8.28892E-02 2.27645E-03-2.13284E-01 4.45268E-14 1.18289E-13
 -1      2339 2.01678E+01 7.18859E-02 2.36488E-05-1.83696E-01-6.57245E-14 1.12946E-13
 -1      2340 2.01796E+01 1.17496E-01-7.98307E-04-2.63743E-01 7.76481E-15 3.56341E-14
 -1      2341 2.01475E+01 6.32498E-02 1.77867E-03-1.54702E-01 3.00254E-15 8.84655E-14
 -1      2342 2.01167E+01 5.44432E-02 4.63847E-05-1.32030E-01 6.38571E-15 1.83032E-13
 -1      2343 2.01308E+01 9.01557E-02-6.96684E-04-1.93496E-01-2.94181E-14 1.40148E-13
 -1      2344 2.01011E+01 4.75555E-02 1.36847E-03-1.09864E-01-7.75420E-14 2.08548E-13
 -1      2345 2.00785E+01 4.06164E-02 5.60295E-05-9.27490E-02 1.08897E-14 2.84511E-13
 -1      2346 2.00930E+01 6.81612E-02-5.90404E-04-1.39197E-01-7.97587E-15 1.63447E-13
 -1      2347 2.00667E+01 3.52040E-02 1.03703E-03-7.60589E-02-3.99601E-14 1.06678E-13
 -1      2348 2.00505E+01 2.98128E-02 5.73306E-05-6.33400E-02-9.05919E-14 1.15865E-13
 -1      2349 2.00642E+01 5.07526E-02-4.87868E-04-9.78513E-02-9.61507E-14 7.01587E-14
 -1      2350 2.00418E+01 2.56176E-02 7.73603E-04-5.09747E-02-1.06051E-13 8.91098E-15
 -1      2351 2.00304E+01 2.14857E-02 5.37722E-05-4.16828E-02-2.18311E-13-2.92388E-14
 -1      2352 2.00428E+01 3.71703E-02-3.94311E-04-6.68566E-02-2.34997E-13 3.38979E-14
 -1      2353 2.00242E+01 1.82780E-02 5.67334E-04-3.26841E-02-1.28152E-13 4.92867E-14
 -1      2354 2.00164E+01 1.51553E-02 4.77421E-05-2.60267E-02 8.80011E-15 9.31473E-14
 -1      2355 2.00271E+01 2.67178E-02-3.12381E-04-4.40070E-02-1.36911E-13 8.14849E-14
 -1      2356 2.00120E+01 1.27373E-02 4.08110E-04-1.96111E-02 7.66142E-15 1.96889E-13
 -1      2357 2.00069E+01 1.04125E-02 4.08183E-05-1.49501E-02 4.50789E-15 1.88853E-13
 -1      2358 2.00159E+01 1.87854E-02-2.42828E-04-2.74743E-02 9.17659E-14 3.00266E-13
 -1      2359 2.00039E+01 8.61783E-03 2.86944E-04-1.04873E-02-2.19773E-15 3.16188E-13
 -1      2360 2.00008E+01 6.91627E-03 3.39633E-05-7.31581E-03 1.48430E-14 3.07651E-13
 -1      2361 2.00082E+01 1.28543E-02-1.85270E-04-1.57692E-02 1.21298E-13 3.65487E-13
 -1      2362 1.99988E+01 5.60746E-03 1.96117E-04-4.30536E-03-4.43893E-14 2.86675E-13
 -1      2363 1.99971E+01 4.38633E-03 2.76900E-05-2.22640E-03 5.35714E-14 2.91884E-13
 -1      2364 2.00030E+01 8.49207E-03-1.38693E-04-7.69725E-03-7.23802E-15 2.92471E-13
 -1      2365 1.99959E+01 3.45120E-03 1.29154E-04-2.76768E-04 8.96702E-14 1.71750E-13
 -1      2366 1.99951E+01 2.59519E-03 2.22102E-05 1.01655E-03 5.65693E-14 1.84591E-13
 -1      2367 1.99997E+01 5.34414E-03-1.01748E-04-2.31350E-03 7.25840E-14 1.27467E-13
 -1      2368 1.99944E+01 1.94309E-03 8.07097E-05 2.20726E-03 1.43733E-13 9.98338E-14
 -1      2369 1.99942E+01 1.35991E-03 1.75444E-05 2.94843E-03 1.52661E-13 1.68614E-13
 -1      2370 1.99978E+01 3.12264E-03-7.29664E-05 1.11840E-03 5.16674E-14 1.10497E-13
 -1      2371 1.99939E+01 9.18205E-04 4.64357E-05 3.60906E-03 7.10180E-14 2.10476E-13
 -1      2372 1.99941E+01 5.34541E-04 1.35916E-05 3.97248E-03 8.96979E-14 3.24937E-13
 -1      2373 1.99968E+01 1.59619E-03-5.09222E-05 3.16334E-03 1.51540E-13 1.71144E-13
 -1      2374 1.99941E+01 2.45401E-04 2.28492E-05 4.27301E-03 1.55613E-15 4.28595E-13
 -1      2375 1.99945E+01 3.26024E-06 1.01731E-05 4.38587E-03-2.18987E-14 5.95840E-13
 -1      2376 1.99964E+01 5.80267E-04-3.43138E-05 4.24674E-03 7.04311E-14 3.99017E-13
 -1      2377 1.99946E+01-1.79317E-04 7.20560E-06 4.44921E-03-1.31893E-13 6.39656E-13
 -1      2378 1.99952E+01-3.25927E-04 7.06084E-06 4.40111E-03-4.02775E-14 6.13521E-13
 -1      2379 1.99965E+01-7.16568E-05-2.20145E-05 4.68185E-03-3.41723E-14 4.76901E-13
 -1      2380 1.99954E+01-4.38810E-04-2.60768E-06 4.31273E-03 4.55990E-14 6.34399E-13
 -1      2381 1.99960E+01-5.26800E-04 4.03153E-06 4.16328E-03 2.22422E-13 5.02516E-13
 -1      2382 1.99968E+01-4.76152E-04-1.30985E-05 4.69227E-03-4.67507E-14 4.11584E-13
 -1      2383 1.99962E+01-6.00079E-04-8.14652E-06 3.97892E-03 1.07731E-13 3.44574E-13
 -1      2384 1.99968E+01-6.59979E-04 7.01682E-07 3.76380E-03-1.02193E-14 2.31367E-13
 -1      2385 1.99972E+01-7.26826E-04-6.83604E-06 4.43041E-03 3.67450E-15 2.91914E-13
 -1      2386 1.99971E+01-7.18696E-04-1.07256E-05 3.51438E-03 1.30185E-14 1.89122E-13
 -1      2387 1.99976E+01-7.72702E-04-2.10814E-06 3.24975E-03-8.40959E-14 2.42386E-13
 -1      2388 1.99977E+01-9.01156E-04-2.93713E-06 3.99193E-03-1.06093E-13 1.39335E-13
 -1      2389 1.99979E+01-8.36585E-04-1.14171E-05 2.95286E-03-1.59217E-13 3.11858E-13
 -1      2390 1.99983E+01-9.03112E-04-6.51631E-06 2.64307E-03-1.05736E-13 3.49091E-13
 -1      2391 1.99983E+01-1.05077E-03 5.79250E-07 3.42772E-03-7.38135E-14 1.10420E-14
 -1      2392 2.20362E+01-3.84664E-01-1.08731E-02 3.12766E-01 4.30237E-14-3.15716E-14
 -1      2393 2.20995E+01-3.09426E-01 6.22202E-03 1.70098E-01 7.39287E-14-7.17026E-15
 -1      2394 2.19684E+01-4.40315E-01-8.91477E-03 6.92497E-01 1.97459E-14-7.37930E-14
 -1      2395 2.20835E+01-4.28619E-01 8.57649E-04 5.09240E-01 2.27522E-14-3.86157E-14
 -1      2396 2.22254E+01-5.51322E-01 6.01361E-04 4.27677E-01 6.07461E-14-3.05572E-14
 -1      2397 2.17776E+01-3.26342E-01-1.59859E-03 1.07143E+00 4.14469E-14-4.92965E-14
 -1      2398 2.19559E+01-4.09047E-01-4.28441E-03 9.14224E-01 4.97432E-16-8.36601E-14
 -1      2399 2.22684E+01-5.71184E-01 5.68073E-03 8.72890E-01 1.49932E-14-4.09902E-14
 -1      2400 2.14499E+01-1.63619E-02 9.02480E-03 1.27066E+00 3.76965E-14 3.13061E-14
 -1      2401 2.16698E+01-1.97625E-01-8.52900E-03 1.22315E+00 3.68438E-14-5.90500E-15
 -1      2402 2.21670E+01-3.42758E-01 9.23069E-03 1.28400E+00 4.95892E-15-4.03273E-14
 -1      2403 2.10515E+01 4.15043E-01 1.70593E-02 1.11605E+00 9.23003E-14 2.58105E-14
 -1      2404 2.12579E+01 1.90388E-01-9.19968E-03 1.24387E+00 6.98701E-14 4.79872E-14
 -1      2405 2.18908E+01 1.33443E-01 6.44068E-03 1.43963E+00 6.09542E-14 1.65947E-14
 -1      2406 2.07349E+01 7.77603E-01 1.66437E-02 5.54928E-01 2.06233E-13 9.34192E-15
 -1      2407 2.08577E+01 6.17776E-01-3.19282E-03 8.53409E-01 1.36990E-13 4.00587E-14
 -1      2408 2.15230E+01 7.08561E-01-3.69537E-03 1.14714E+00 1.30056E-13 4.91584E-14
 -1      2409 2.06675E+01 8.68094E-01 7.89981E-03-2.54051E-01 1.36192E-13-2.88117E-14
 -1      2410 2.06555E+01 8.66317E-01 8.15341E-03 1.17632E-01 2.11935E-13-1.48614E-14
 -1      2411 2.12563E+01 1.11414E+00-1.28003E-02 3.97779E-01 2.20011E-13-2.20360E-14
 -1      2412 2.09083E+01 6.30393E-01-2.74874E-03-9.96633E-01 1.09558E-13-9.65452E-14
 -1      2413 2.07597E+01 7.87532E-01 1.72964E-02-6.94665E-01 1.42697E-13-5.30294E-14
 -1      2414 2.12651E+01 1.12215E+00-1.21414E-02-5.52200E-01 1.67567E-13-2.95227E-14
 -1      2415 2.13490E+01 2.03931E-01-8.95572E-03-1.39878E+00 5.27690E-14-1.11328E-13
 -1      2416 2.11142E+01 4.29873E-01 1.71401E-02-1.26614E+00 8.56038E-14-1.02016E-13
 -1      2417 2.15512E+01 7.27007E-01-2.55046E-03-1.31102E+00 1.15675E-13-6.34174E-14
 -1      2418 2.17987E+01-1.98298E-01-8.82406E-03-1.37991E+00 3.29467E-15-2.06449E-13
 -1      2419 2.15516E+01-1.03342E-02 8.36818E-03-1.42682E+00 5.08902E-14-1.37652E-13
 -1      2420 2.19407E+01 1.44493E-01 7.08265E-03-1.61227E+00 5.73466E-14-1.19022E-13
 -1      2421 2.21057E+01-4.34612E-01-5.26508E-03-1.04955E+00-9.20852E-14-2.44402E-13
 -1      2422 2.19088E+01-3.40404E-01-2.66602E-03-1.21509E+00-7.49669E-14-1.90249E-13
 -1      2423 2.22327E+01-3.57308E-01 1.02910E-02-1.44576E+00 3.63750E-16-1.45861E-13
 -1      2424 2.22197E+01-4.88575E-01-1.85520E-03-5.89949E-01 9.74971E-14-2.12726E-13
 -1      2425 2.21055E+01-4.82711E-01-1.02989E-02-7.95931E-01-6.74374E-15-2.21547E-13
 -1      2426 2.23287E+01-6.24519E-01 7.68593E-03-9.91025E-01-4.15913E-14-2.12194E-13
 -1      2427 2.21663E+01-4.18557E-01 2.59545E-04-1.50942E-01 9.21216E-14-1.06380E-13
 -1      2428 2.21373E+01-4.66108E-01-1.28838E-02-3.38543E-01 1.20781E-13-1.14350E-13
 -1      2429 2.22431E+01-6.57977E-01 3.42397E-03-4.58519E-01 2.24616E-14-8.39573E-14
 -1      2430 2.19994E+01-2.95933E-01 1.13727E-03 1.87559E-01 4.10210E-14-3.92697E-14
 -1      2431 2.20405E+01-3.61832E-01-1.16473E-02 4.74453E-02 1.18631E-13 1.67965E-15
 -1      2432 2.20407E+01-5.42907E-01 2.44072E-04 7.13591E-03 3.34910E-14 2.18681E-14
 -1      2433 2.17706E+01-1.71638E-01 1.30159E-03 4.04920E-01-2.36738E-14-1.42273E-13
 -1      2434 2.18599E+01-2.33350E-01-8.59489E-03 3.17933E-01 4.98690E-15-5.44748E-14
 -1      2435 2.17849E+01-3.71600E-01-1.37877E-03 3.43083E-01 4.95355E-14 6.65708E-14
 -1      2436 2.15183E+01-7.09873E-02 1.18653E-03 5.14762E-01-7.42819E-15-2.18572E-13
 -1      2437 2.16347E+01-1.18608E-01-5.22807E-03 4.73448E-01 2.63483E-15-1.67061E-13
 -1      2438 2.15188E+01-2.06319E-01-1.91350E-03 5.43877E-01-1.10647E-14-4.44814E-14
 -1      2439 2.12677E+01-7.99171E-04 1.01843E-03 5.43946E-01 4.60429E-14-2.51819E-13
 -1      2440 2.13942E+01-3.26820E-02-2.35032E-03 5.36134E-01 3.56946E-15-2.49619E-13
 -1      2441 2.12658E+01-7.61214E-02-1.92277E-03 6.32671E-01 2.21536E-14-1.07492E-13
 -1      2442 2.10340E+01 4.18574E-02 8.76580E-04 5.20088E-01-9.66696E-14-1.94154E-13
 -1      2443 2.11584E+01 2.33910E-02-2.40297E-04 5.33788E-01-5.65585E-15-2.36199E-13
 -1      2444 2.10366E+01 1.27070E-02-1.76109E-03 6.41078E-01-1.36284E-14-1.48293E-13
 -1      2445 2.08253E+01 6.34418E-02 7.70225E-04 4.66034E-01-4.85813E-14-1.87780E-13
 -1      2446 2.09399E+01 5.48779E-02 1.11733E-03 4.91547E-01-9.36199E-14-1.60603E-13
 -1      2447 2.08353E+01 6.53599E-02-1.57948E-03 5.98605E-01-9.05022E-14-1.19477E-13
 -1      2448 2.06452E+01 7.06113E-02 6.87009E-04 3.98456E-01-1.32565E-13-1.20033E-13
 -1      2449 2.07459E+01 6.86218E-02 1.86218E-03 4.28835E-01-1.02500E-13-1.54436E-13
 -1      2450 2.06624E+01 9.08461E-02-1.41804E-03 5.28597E-01-9.00492E-14-1.09963E-13
 -1      2451 2.04940E+01 6.88598E-02 6.14193E-04 3.28388E-01-7.44635E-15-1.50124E-13
 -1      2452 2.05792E+01 7.08079E-02 2.16268E-03 3.59127E-01-6.18693E-14-1.34732E-13
 -1      2453 2.05166E+01 9.80219E-02-1.27530E-03 4.47661E-01-7.02496E-14-1.64833E-13
 -1      2454 2.03701E+01 6.22126E-02 5.44461E-04 2.62440E-01-5.55234E-14-1.29360E-14
 -1      2455 2.04401E+01 6.62170E-02 2.17105E-03 2.90915E-01-3.38130E-14-6.89251E-14
 -1      2456 2.03960E+01 9.40456E-02-1.14149E-03 3.66573E-01-1.00732E-13-1.07247E-13
 -1      2457 2.02709E+01 5.33833E-02 4.75515E-04 2.04061E-01-1.11145E-13 5.41810E-14
 -1      2458 2.03268E+01 5.82028E-02 2.00691E-03 2.28967E-01-1.25772E-14 3.35972E-14
 -1      2459 2.02979E+01 8.40969E-02-1.00983E-03 2.91645E-01-7.90940E-14-5.31035E-14
 -1      2460 2.01931E+01 4.40724E-02 4.07958E-04 1.54600E-01-9.65093E-14 2.16319E-13
 -1      2461 2.02367E+01 4.89467E-02 1.75594E-03 1.75492E-01-1.68884E-13 7.43310E-14
 -1      2462 2.02196E+01 7.16336E-02-8.78911E-04 2.26041E-01-1.45738E-13 3.47195E-15
 -1      2463 2.01335E+01 3.52614E-02 3.43514E-04 1.14107E-01 2.22152E-14 2.56551E-13
 -1      2464 2.01666E+01 3.97654E-02 1.47506E-03 1.31061E-01 2.25571E-14 2.30656E-13
 -1      2465 2.01581E+01 5.87999E-02-7.50922E-04 1.70845E-01-3.13182E-14 6.15868E-14
 -1      2466 2.00887E+01 2.74500E-02 2.83959E-04 8.18960E-02 1.48084E-13 4.60633E-14
 -1      2467 2.01133E+01 3.13798E-02 1.19930E-03 9.52708E-02 1.33207E-13 1.81784E-13
 -1      2468 2.01108E+01 4.68152E-02-6.29307E-04 1.25865E-01 1.14558E-13 1.42948E-13
 -1      2469 2.00558E+01 2.08320E-02 2.30555E-04 5.69240E-02 2.55444E-13-4.38961E-14
 -1      2470 2.00736E+01 2.41218E-02 9.48153E-04 6.72091E-02 1.67072E-13 6.16477E-14
 -1      2471 2.00750E+01 3.62826E-02-5.17363E-04 9.01978E-02 1.66430E-13 5.22497E-16
 -1      2472 2.00323E+01 1.54168E-02 1.83956E-04 3.80309E-02-2.62621E-14 2.81192E-13
 -1      2473 2.00448E+01 1.80826E-02 7.30694E-04 4.57475E-02 1.60028E-13 1.68818E-13
 -1      2474 2.00486E+01 2.74165E-02-4.17424E-04 6.26088E-02 8.74321E-14 2.50058E-13
 -1      2475 2.00160E+01 1.11115E-02 1.44266E-04 2.40825E-02-4.64618E-14 5.39346E-13
 -1      2476 2.00244E+01 1.32129E-02 5.49390E-04 2.97284E-02-9.59450E-14 3.67766E-13
 -1      2477 2.00294E+01 2.01992E-02-3.30669E-04 4.17691E-02-9.66845E-14 6.73414E-13
 -1      2478 2.00051E+01 7.77468E-03 1.11229E-04 1.40495E-02-4.54808E-14 4.15170E-13
 -1      2479 2.00105E+01 9.39047E-03 4.02775E-04 1.80694E-02 2.81102E-14 5.05139E-13
 -1      2480 2.00160E+01 1.44869E-02-2.57173E-04 2.64020E-02-2.75654E-14 5.44107E-13
 -1      2481 1.99982E+01 5.25013E-03 8.43176E-05 7.04226E-03 1.00031E-13 2.14646E-13
 -1      2482 2.00015E+01 6.46289E-03 2.87281E-04 9.81582E-03 5.81963E-14 2.60337E-13
 -1      2483 2.00068E+01 1.00781E-02-1.96279E-04 1.53588E-02 1.26556E-13 2.34853E-13
 -1      2484 1.99942E+01 3.38605E-03 6.28346E-05 2.31922E-03 1.69375E-14 1.42478E-13
 -1      2485 1.99959E+01 4.27398E-03 1.98461E-04 4.15986E-03 1.05408E-13 2.45064E-13
 -1      2486 2.00008E+01 6.75630E-03-1.46882E-04 7.65208E-03 1.10751E-13 1.93563E-13
 -1      2487 1.99922E+01 2.04492E-03 4.59996E-05-7.20260E-04 5.58073E-14-2.19558E-14
 -1      2488 1.99929E+01 2.67772E-03 1.31733E-04 4.39036E-04 8.62086E-15 1.04566E-13
 -1      2489 1.99972E+01 4.31421E-03-1.07603E-04 2.46117E-03 1.48046E-13 6.36809E-14
 -1      2490 1.99915E+01 1.10767E-03 3.30155E-05-2.55010E-03-9.92320E-14-3.45540E-14
 -1      2491 1.99915E+01 1.54499E-03 8.27928E-05-1.87533E-03 5.47260E-14-7.85488E-14
 -1      2492 1.99952E+01 2.56558E-03-7.69541E-05-8.76887E-04 4.69634E-14 1.75268E-13
 -1      2493 1.99917E+01 4.74299E-04 2.31085E-05-3.53503E-03-1.63117E-13-2.11487E-14
 -1      2494 1.99913E+01 7.65821E-04 4.78194E-05-3.19468E-03-2.38227E-13-3.34574E-14
 -1      2495 1.99944E+01 1.35004E-03-5.34708E-05-2.88422E-03-1.53080E-13 1.13699E-13
 -1      2496 1.99925E+01 6.26323E-05 1.55460E-05-3.94825E-03-1.21217E-13 8.15886E-14
 -1      2497 1.99918E+01 2.48950E-04 2.35552E-05-3.83106E-03-1.02639E-13 2.96705E-14
 -1      2498 1.99943E+01 5.33469E-04-3.57953E-05-3.96185E-03-1.63871E-13 2.43357E-14
 -1      2499 1.99935E+01-1.94124E-04 9.63751E-06-3.98769E-03-4.31234E-14 9.37029E-14
 -1      2500 1.99927E+01-8.01093E-05 7.30893E-06-4.01426E-03-6.25466E-14 4.42087E-14
 -1      2501 1.99946E+01 5.83751E-06-2.27264E-05-4.40941E-03-6.74689E-14 7.56403E-14
 -1      2502 1.99946E+01-3.50284E-04 4.77002E-06-3.78999E-03 2.51802E-13 1.19838E-13
 -1      2503 1.99939E+01-2.81820E-04-3.08515E-06-3.90690E-03 1.32616E-13 1.24710E-13
 -1      2504 1.99953E+01-3.22255E-04-1.32474E-05-4.44325E-03 7.71528E-14-6.46701E-14
 -1      2505 1.99958E+01-4.50700E-04 4.85110E-07-3.44201E-03 5.71945E-14 3.61181E-13
 -1      2506 1.99950E+01-4.05825E-04-9.39097E-06-3.61729E-03 2.38856E-13 3.49168E-13
 -1      2507 1.99960E+01-5.23349E-04-6.47684E-06-4.21214E-03 8.88338E-14 1.28116E-13
 -1      2508 1.99969E+01-5.32935E-04-2.54179E-06-2.98860E-03-2.53591E-13 3.50330E-13
 -1      2509 1.99962E+01-4.95860E-04-1.34660E-05-3.20983E-03-1.95953E-13 3.63269E-13
 -1      2510 1.99969E+01-6.54832E-04-6.38859E-07-3.81289E-03-1.00779E-13 5.98705E-13
 -1      2511 1.99978E+01-6.27903E-04-5.78026E-06-2.44677E-03-2.15753E-13 4.49404E-13
 -1      2512 1.99972E+01-5.82500E-04-1.54875E-05-2.71215E-03-2.67873E-13 4.39613E-13
 -1      2513 1.99976E+01-7.71132E-04 6.30940E-06-3.29691E-03-3.20100E-13 6.33980E-13
 -1      2514 1.99987E+01-7.48385E-04-1.02539E-05-1.82162E-03-1.16870E-13 6.13723E-13
 -1      2515 1.99982E+01-6.84441E-04-1.42989E-05-2.12799E-03-1.45510E-13 4.78072E-13
 -1      2516 1.99983E+01-9.06819E-04 9.72149E-06-2.67478E-03-2.67072E-13 6.93431E-13
 -1      2517 1.99990E+01-7.93693E-04-9.72121E-06-1.43144E-03-2.65154E-14 3.71137E-13
 -1      2518 2.00004E+01-3.65285E-03 1.40931E-05-1.97097E-03 4.80800E-13-2.12644E-13
 -1      2519 2.00003E+01-3.32642E-03-1.48691E-06-2.17474E-03 3.12166E-13-3.98185E-13
 -1      2520 2.00007E+01-4.13847E-03 1.45096E-05-1.36826E-03 6.05536E-13 3.99674E-14
 -1      2521 2.00006E+01-3.89937E-03 4.64242E-06-1.66901E-03 5.74095E-13-1.62404E-13
 -1      2522 2.00007E+01-3.48020E-03-8.34804E-06-2.05519E-03 5.14008E-13-4.94699E-14
 -1      2523 1.99997E+01-2.26588E-03 9.52714E-06-2.43932E-03-6.54717E-14-2.90628E-13
 -1      2524 1.99994E+01-1.85604E-03-1.31735E-05-2.36388E-03-1.05592E-13-2.15089E-13
 -1      2525 2.00001E+01-3.00365E-03 1.18943E-05-2.34637E-03-5.33643E-14-2.87060E-13
 -1      2526 1.99999E+01-2.63106E-03-8.16712E-06-2.41336E-03-1.11963E-13-2.64414E-13
 -1      2527 1.99998E+01-2.28183E-03 2.90144E-06-2.76114E-03-2.11529E-13-2.61617E-13
 -1      2528 2.00003E+01-2.93528E-03-7.05383E-06-2.56405E-03 1.58655E-13-1.11561E-13
 -1      2529 2.00008E+01-4.41946E-03 1.39118E-05-6.20008E-04 2.24838E-13-3.38339E-14
 -1      2530 2.00008E+01-4.29364E-03 8.99380E-06-9.79983E-04 4.54107E-13 2.20568E-15
 -1      2531 2.00010E+01-3.86588E-03-9.92006E-06-1.32401E-03 5.01740E-13-1.12545E-13
 -1      2532 2.00008E+01-4.47264E-03 1.21662E-05 1.92167E-04 1.59833E-13 5.07066E-14
 -1      2533 2.00008E+01-4.47283E-03 1.20543E-05-1.87759E-04 7.87447E-14 1.55263E-14
 -1      2534 2.00012E+01-4.06670E-03-1.07930E-05-4.55476E-04 2.93042E-13-2.00538E-13
 -1      2535 2.00008E+01-4.29425E-03 9.22957E-06 9.84969E-04-2.13672E-13-5.41657E-13
 -1      2536 2.00008E+01-4.42071E-03 1.37455E-05 6.24759E-04-3.22493E-14-1.89385E-13
 -1      2537 2.00012E+01-4.06805E-03-1.08264E-05 4.59618E-04 1.18475E-13-1.97345E-13
 -1      2538 2.00006E+01-3.90861E-03 4.81537E-06 1.66474E-03-6.50732E-14-2.50759E-14
 -1      2539 2.00007E+01-4.14344E-03 1.43569E-05 1.36796E-03-7.96497E-14-2.70764E-13
 -1      2540 2.00010E+01-3.87205E-03-1.01426E-05 1.32269E-03-7.74163E-14-2.57726E-13
 -1      2541 2.00003E+01-3.33753E-03-1.67900E-06 2.17538E-03 1.04657E-13 5.63071E-15
 -1      2542 2.00004E+01-3.66385E-03 1.40426E-05 1.96955E-03-5.55217E-14-9.77607E-14
 -1      2543 2.00007E+01-3.49260E-03-8.51689E-06 2.05123E-03 7.39217E-14-8.35214E-14
 -1      2544 1.99999E+01-2.63088E-03-8.01394E-06 2.41751E-03 7.00587E-14 3.74962E-14
 -1      2545 2.00001E+01-3.01096E-03 1.18499E-05 2.35035E-03 1.87371E-14 2.44384E-13
 -1      2546 2.00003E+01-2.94783E-03-8.15337E-06 2.56755E-03 4.66281E-14-7.10741E-14
 -1      2547 1.99994E+01-1.84884E-03-1.12260E-05 2.35283E-03-1.33841E-13-4.53064E-13
 -1      2548 1.99997E+01-2.25991E-03 8.70970E-06 2.44341E-03-2.24916E-15-3.64731E-13
 -1      2549 1.99998E+01-2.27944E-03 4.14430E-06 2.76413E-03-1.02835E-13-2.02940E-13
 -1      2550 5.03121E+00-2.28536E+00 1.14606E-01 3.25278E+00-1.37140E-13 7.70439E-13
 -1      2551 3.58040E+00-2.53791E+00 1.19313E-01 1.02595E+00-1.69753E-13 8.06244E-13
 -1      2552 1.85518E+01-5.32327E+00-1.25092E-02 6.85516E+00-1.74416E-13 3.25233E-13
 -1      2553 1.50560E+01-5.26733E+00 4.53038E-02 6.92850E+00-2.84051E-13 4.64080E-13
 -1      2554 2.20392E+01-2.20084E-01-8.43751E-03 5.86667E-02 1.18727E-13-1.22192E-14
 -1      2555 2.20856E+01-1.07302E-01 1.24772E-02-3.81855E-04 1.48096E-13 1.27615E-14
 -1      2556 2.21198E+01-3.57124E-01-3.50483E-03 1.09878E-01 1.04154E-13-2.27589E-14
 -1      2557 1.99991E+01-1.22514E-03-7.79526E-06 1.77513E-03 3.00195E-14-6.95008E-14
 -1      2558 3.28736E+00-2.72999E+00 8.58749E-02-8.46359E-01-8.92758E-14 7.84428E-13
 -1      2559 4.35874E+00-3.16784E+00 7.60862E-02-3.07877E+00-3.80251E-15 7.42351E-13
 -1      2560 5.49450E+00-1.29532E+00 1.57513E-01-5.63083E-02-1.11404E-14 7.52676E-13
 -1      2561 1.12579E+01-4.56545E+00 4.72544E-02 6.98913E+00-1.83409E-13 5.81507E-13
 -1      2562 7.84245E+00-3.59448E+00 1.00432E-01 5.72381E+00-2.26152E-13 6.86812E-13
 -1      2563 1.22388E+01-5.08066E+00 5.16258E-02-6.33444E+00 1.70752E-13 5.99604E-13
 -1      2564 1.65357E+01-5.46603E+00-6.75444E-04-6.62250E+00 7.66054E-14 3.04437E-13
 -1      2565 3.31634E+01 6.37900E+00-1.36596E-01 1.10393E+00-8.24230E-13 2.81997E-14
 -1      2566 3.29683E+01 7.03664E+00-1.64777E-01 4.24128E-01-8.32445E-13 8.28799E-14
 -1      2567 3.07739E+01-1.18883E+00-2.34933E-01-3.78751E-01-2.46830E-13 1.06304E-13
 -1      2568 2.92697E+01-3.14231E+00-8.58994E-03 1.29757E+00-1.41900E-13 6.63358E-14
 -1      2569 2.08713E+01-5.52656E+00-3.49841E-02 5.98795E+00 1.25483E-13-2.61863E-13
 -1      2570 1.70661E+01-5.41827E+00 7.04125E-02 6.40078E+00 1.43774E-13-3.91399E-13
 -1      2571 3.03134E+01-2.60896E-01-5.53806E-02-9.61236E-01 4.35867E-13-6.88893E-14
 -1      2572 3.17940E+01 1.77789E+00-1.25377E-01-8.91668E-02 5.58942E-13-5.76761E-14
 -1      2573 1.69402E+01 4.34698E+00-3.82782E-03-3.43480E-01-1.82328E-13-3.61763E-13
 -1      2574 1.69907E+01 4.35313E+00-6.67289E-03-3.18982E-01-2.08779E-13-3.48527E-13
 -1      2575 1.70585E+01 4.10055E+00 6.81390E-03-2.40704E-01-2.02302E-13-3.16312E-13
 -1      2576 1.69617E+01 4.07659E+00 5.49574E-03-4.29303E-01-1.79100E-13-3.49147E-13
 -1      2577 3.23045E+01 4.12073E+00-6.31026E-02 6.48528E-01 6.78513E-13-5.85920E-14
 -1      2578 3.22857E+01 5.88297E+00-1.71800E-01 9.27452E-01 7.21423E-13-6.68909E-14
 -1      2579 3.05831E+01 2.40665E+00-3.70607E-02 1.19248E+00 5.18169E-13 9.02056E-14
 -1      2580 3.19280E+01 7.01081E+00-1.74587E-01-6.99430E-01 7.43183E-13-3.31457E-13
 -1      2581 3.18719E+01 6.07543E+00-1.24125E-01-1.11001E+00 6.11566E-13-3.19078E-13
 -1      2582 1.24782E+01-4.84421E+00-1.47586E-02 6.78365E+00 1.18405E-13-6.11455E-13
 -1      2583 8.89157E+00-4.49889E+00 2.60524E-02 5.84585E+00 1.16018E-13-7.36300E-13
 -1      2584 3.16923E+01 7.26937E+00-1.47165E-01 5.26879E-01 7.49401E-13-1.10773E-13
 -1      2585 3.16470E+01 7.49159E+00-1.72690E-01-1.21046E-01 7.69385E-13-1.81181E-13
 -1      2586 2.62551E+01-3.74197E+00-2.58522E-02-3.69360E+00 2.35451E-13-9.00668E-14
 -1      2587 2.88774E+01-2.27807E+00-5.77131E-02-2.60510E+00 3.55216E-13-9.48130E-14
 -1      2588 1.12860E+01-4.14381E+00 1.23742E-01-6.70973E+00-1.37917E-13-4.94216E-13
 -1      2589 1.42874E+01-4.70987E+00 5.76097E-02-7.29528E+00-4.63518E-14-4.26478E-13
 -1      2590 4.84541E+00-2.63045E+00 1.12595E-01-3.61623E+00-1.35433E-13-7.93587E-13
 -1      2591 7.38591E+00-3.27236E+00 3.75171E-02-5.73723E+00-1.26399E-13-6.71962E-13
 -1      2592 3.24809E+00-2.40821E+00 8.57940E-02 6.68421E-01-3.03785E-14-7.36966E-13
 -1      2593 3.30845E+00-2.30302E+00 6.70592E-02-1.43907E+00-1.95816E-14-7.83651E-13
 -1      2594 3.20555E+01 4.25477E+00-1.99809E-01-1.62938E+00-6.05765E-13 1.71918E-13
 -1      2595 3.15140E+01 2.15064E+00-6.02063E-02-1.80318E+00-4.25132E-13 1.39277E-13
 -1      2596 6.23790E+00-3.63970E+00 4.22042E-02 4.86381E+00 4.77673E-14-7.62335E-13
 -1      2597 4.24208E+00-2.85907E+00 6.40204E-02 2.84396E+00 6.31162E-14-7.22589E-13
 -1      2598 2.70011E+01-4.52010E+00-1.05734E-01 3.37133E+00-4.37983E-14-6.67244E-14
 -1      2599 2.42631E+01-5.27962E+00 4.46207E-03 4.40735E+00 1.03834E-13-1.80189E-13
 -1      2600 2.31983E+01-5.44538E+00 5.27944E-02 4.68233E+00 2.27013E-13-1.38875E-13
 -1      2601 2.81856E+01-4.11604E+00 5.07395E-02 1.43762E+00 3.78447E-14 9.96009E-14
 -1      2602 3.24295E+01 2.89027E+00-1.11982E-01 1.43703E+00-6.41986E-13-1.90736E-13
 -1      2603 3.35170E+01 4.93096E+00-1.08207E-01 1.45560E+00-7.73159E-13-9.65894E-14
 -1      2604 3.09292E+01 5.08686E+00-5.76078E-02 1.79438E+00-7.18064E-13-5.09870E-14
 -1      2605 3.29481E+01 6.86994E+00-1.34742E-01-4.51531E-01-8.01414E-13 1.46771E-13
 -1      2606 3.22246E+01 6.06370E+00-1.96881E-01-1.13966E+00-7.32081E-13 1.55598E-13
 -1      2607 3.01969E+01 4.50145E+00-9.14984E-02-1.91394E+00-6.13148E-13 2.03115E-13
 -1      2608 3.05264E+01 6.42818E+00-6.69503E-02-5.99472E-02-7.78877E-13 1.39352E-13
 -1      2609 3.05598E+01-1.59312E+00-9.45607E-02-5.83909E-02-4.39784E-13-2.32481E-13
 -1      2610 3.16922E+01 2.28494E-02-1.70416E-01 7.18533E-01-4.91385E-13-2.48024E-13
 -1      2611 2.62848E+01-4.84665E+00-2.33865E-02-2.99505E+00-1.93637E-13-2.65676E-13
 -1      2612 2.92668E+01-3.33367E+00-6.50564E-02-1.71038E+00-3.55660E-13-3.49942E-13
 -1      2613 2.92992E+01-3.11082E+00-2.27735E-03 1.48739E-02-2.95063E-13-2.66065E-13
 -1      2614 2.05122E+01-5.75686E+00 4.29488E-02-5.56736E+00 7.21645E-15 6.85355E-14
 -1      2615 2.33357E+01-5.58567E+00-6.89254E-02-4.88047E+00-5.63161E-14-1.18169E-13
 -1      2616 6.22471E+00-3.98131E+00 3.89998E-02-4.62764E+00 1.55903E-13 8.02414E-13
 -1      2617 8.71504E+00-4.23884E+00 4.09519E-02-5.89932E+00 1.56319E-13 7.78239E-13
 -1      2618 1.23937E+01-3.99701E+00 1.40417E-01-6.04509E+00 2.92544E-13 5.73208E-13
 -1      2619 7.10872E+00-2.33136E+00 1.43179E-01-3.79673E+00 1.51962E-13 6.49925E-13
 -1      2620 2.20445E+01 2.07634E+00-6.53066E-03-6.80210E-01-3.08836E-13 2.65803E-13
 -1      2621 2.21959E+01 1.33416E+00-3.10026E-03-6.73864E-03-2.54187E-13 2.80884E-13
 -1      2622 2.16540E+01 1.54283E+00-5.34264E-03 1.98130E-01-2.34115E-13 1.60810E-13
 -1      2623 2.12738E+01 2.57443E+00-5.05115E-03-5.60503E-01-3.31753E-13 1.48291E-13
 -1      2624 2.23341E+01 7.55574E-01-8.26391E-03 6.76076E-01 2.67009E-13 6.17308E-14
 -1      2625 2.25726E+01 1.15313E+00-6.63196E-03 1.14135E+00 2.86722E-13 9.61974E-14
 -1      2626 2.22288E+01 1.59716E+00-1.90536E-02 1.27521E+00 2.97200E-13 8.25728E-15
 -1      2627 2.21095E+01 8.75499E-01-1.30452E-02 6.27492E-01 2.56256E-13-2.26116E-14
 -1      2628 2.53884E+01-4.22360E+00-5.39916E-02 4.55835E+00 6.75293E-14-2.67231E-13
 -1      2629 2.20025E+01-5.11952E+00 3.59637E-03 5.53303E+00-8.60700E-14-7.08322E-14
 -1      2630 3.00366E+01 6.09651E+00-9.53685E-02 1.02763E+00 7.05824E-13 3.13360E-14
 -1      2631 1.85849E+01 3.50424E+00 5.62793E-03 8.22276E-03-2.65637E-13-1.76133E-13
 -1      2632 1.87863E+01 3.69582E+00-2.20771E-02-1.81793E-01-2.88366E-13-1.63031E-13
 -1      2633 1.94029E+01 3.51750E+00-4.93777E-03-2.78554E-01-3.20346E-13-9.33403E-14
 -1      2634 2.20339E+01-5.03818E-02-5.01939E-03 1.31951E-02 1.74578E-13-1.50721E-14
 -1      2635 2.17552E+01 1.98916E+00-1.25694E-02 1.16329E+00 2.69878E-13-1.06398E-13
 -1      2636 2.67492E+01-4.06070E+00 5.18442E-02 2.89968E+00-8.12128E-14-4.59938E-13
 -1      2637 9.29537E+00-3.05521E+00 1.40894E-01 5.36764E+00 1.51851E-13-6.98025E-13
 -1      2638 3.05164E+01 4.53026E+00-8.68271E-02-1.39814E+00 4.68403E-13-4.03344E-13
 -1      2639 2.57036E+01-5.30297E+00 6.15219E-02-3.02786E+00-2.77833E-14-2.67453E-13
 -1      2640 5.49735E+00-1.60544E+00 1.55563E-01 1.96232E+00 2.50078E-14-7.24643E-13
 -1      2641 5.79894E+00-1.45471E+00 1.77257E-01-2.65857E+00-1.36655E-13-7.58338E-13
 -1      2642 1.99990E+01-1.06121E-03-4.40302E-06-1.92817E-03-7.41049E-14 4.48572E-13
 -1      2643 2.15179E+01-5.32347E+00 7.17539E-02 5.66774E+00-3.09086E-13-1.30666E-13
 -1      2644 1.99991E+01-1.36801E-03 1.66787E-06-2.14280E-03-1.15186E-13 1.20269E-13
 -1      2645 1.08280E+01-2.99410E+00 1.54758E-01-6.09732E+00-2.40558E-13-5.55528E-13
 -1      2646 9.99255E+00-2.37724E+00 1.06865E-01 5.36554E+00-2.85230E-13 6.28053E-13
 -1      2647 7.32353E+00-2.35623E+00 1.69683E-01 4.54763E+00-2.23793E-13 8.02108E-13
 -1      2648 7.47308E+00-1.09591E+00 1.55702E-01 3.21807E+00-1.37848E-13 7.15955E-13
 -1      2649 1.45673E+01-4.56484E+00 9.88506E-02 6.80121E+00-4.01817E-13 3.90035E-13
 -1      2650 2.48902E+01-4.62535E+00 3.22701E-03-4.50256E+00 9.01501E-14-9.99756E-14
 -1      2651 2.62915E+01-4.30265E+00-3.52906E-02-2.92022E+00 1.07275E-14-2.34535E-15
 -1      2652 2.30231E+01-4.96790E+00 7.08600E-02-5.07136E+00-5.98133E-14-7.64874E-14
 -1      2653 2.16812E+01 1.63453E+00 1.25436E-02 8.15839E-01 2.42801E-13-1.05104E-13
 -1      2654 2.05564E+01 2.88815E+00-1.68015E-02-4.04934E-01-3.26205E-13 3.69323E-14
 -1      2655 1.93560E+01-5.33474E+00 1.03528E-01-5.79978E+00 1.75804E-13 1.01280E-13
 -1      2656 3.09090E+01 1.26096E+00-2.70064E-02 2.24582E+00-5.06956E-13-2.21267E-13
 -1      2657 2.92260E+01-1.75930E+00-2.38082E-02-7.59605E-01 2.63952E-13 3.65541E-14
 -1      2658 3.01820E+01-1.56928E-02-2.95421E-02-1.76223E+00-2.32453E-13 2.18658E-13
 -1      2659 1.61130E+01-4.63741E+00 1.29034E-01 6.37628E+00 2.22211E-13-4.06702E-13
 -1      2660 1.74723E+01-4.92742E+00 3.88845E-02-6.65094E+00-1.58512E-13-3.02227E-13
 -1      2661 3.02966E+01-1.76736E-01-8.04543E-04 8.13006E-02 1.55737E-13-3.86163E-13
 -1      2662 2.88694E+01-1.67052E+00 2.78651E-03 1.58602E-01 4.07070E-14-4.66446E-13
 -1      2663 2.94334E+01 7.58509E-01-2.39857E-01-1.34905E+00 1.43219E-13-4.98407E-13
 -1      2664 2.96106E+01 6.87078E+00-1.01695E-01-5.61197E-01 6.41931E-13-2.37296E-13
 -1      2665 1.99988E+01-1.00221E-03-1.29075E-05 2.08284E-03-3.73699E-14 1.13334E-13
 -1      2666 1.99992E+01-1.49810E-03 5.15118E-06 2.29861E-03-6.21971E-14-2.12543E-13
 -1      2667 1.99992E+01-1.58739E-03-3.25683E-06 2.70897E-03-1.97073E-13-2.19420E-13
 -1      2668 1.99985E+01-9.54708E-04-1.47612E-05 2.40833E-03-9.35893E-14 2.38126E-13
 -1      2669 1.99990E+01-1.46326E-03-6.86927E-06-2.58394E-03-1.37903E-13 1.25674E-13
 -1      2670 1.99987E+01-1.19027E-03 4.82656E-06 2.86954E-03-1.16695E-13 1.70928E-13
 -1      2671 1.81925E+01 3.07735E+00 6.34565E-03-6.40028E-01-6.68248E-14-3.13822E-13
 -1      2672 1.77587E+01 3.24269E+00-1.30568E-02-7.09268E-01-1.02249E-13-3.25192E-13
 -1      2673 1.73797E+01 3.49612E+00 5.93378E-03-6.92527E-01-1.25544E-13-3.51132E-13
 -1      2674 1.70670E+01 3.61889E+00-1.35275E-02-6.73402E-01-1.57237E-13-3.36967E-13
 -1      2675 1.75876E+01 3.03315E+00 2.09241E-03-8.81068E-01-1.16445E-13-3.14027E-13
 -1      2676 2.00885E+01 2.14439E+00-3.99141E-03-3.25214E-02 9.76844E-14-2.22496E-13
 -1      2677 1.96168E+01 2.35843E+00-6.71566E-03-2.21453E-01 5.58988E-14-2.40434E-13
 -1      2678 2.09886E+01 1.66067E+00-5.31832E-03 3.25740E-01 1.79321E-13-1.96917E-13
 -1      2679 2.05418E+01 1.91532E+00-3.17842E-03 1.58339E-01 1.36028E-13-2.04201E-13
 -1      2680 2.04766E+01 1.57711E+00-1.22523E-03-1.43273E-01 1.09085E-13-1.70263E-13
 -1      2681 2.18356E+01 3.66414E-01-8.04777E-03 7.04528E-02 1.80956E-13-7.53993E-14
 -1      2682 2.18793E+01 6.69119E-01 1.41228E-02 2.51901E-01 1.90636E-13-7.56657E-14
 -1      2683 2.03116E+01 2.65017E+00-5.06918E-04-8.51603E-02-2.86546E-13 1.76014E-14
 -1      2684 2.16174E+01 1.28458E+00-3.95129E-03 5.40284E-01 2.17983E-13-1.20056E-13
 -1      2685 1.15890E+01-2.92380E+00 6.28635E-02 5.84337E+00 1.99174E-13-5.69017E-13
 -1      2686 9.16896E+00-1.87619E+00 1.33228E-01 4.62860E+00 1.38958E-13-6.16229E-13
 -1      2687 2.10175E+01 1.88462E+00 2.14661E-03 2.49442E-01-2.50751E-13 7.32257E-14
 -1      2688 2.11852E+01 1.47650E+00 1.20227E-02 6.07666E-01-1.91771E-13 9.61332E-14
 -1      2689 2.12292E+01 1.13160E+00-2.09475E-03 9.26836E-01-1.47115E-13 7.98478E-14
 -1      2690 1.97958E+01 2.50586E+00-1.26268E-02 3.14702E-01-2.33606E-13-5.79580E-14
 -1      2691 2.13733E+01 6.24142E-01 1.58186E-02 1.39188E+00-8.08837E-14 8.60195E-14
 -1      2692 2.15309E+01 2.53652E-01 2.34967E-03 1.57379E+00-5.22843E-14 7.84216E-14
 -1      2693 2.17549E+01-1.47693E-01 2.34246E-02 1.78043E+00-2.22178E-14 7.16698E-14
 -1      2694 2.20592E+01-6.28648E-01 6.80252E-04 1.80637E+00-1.97550E-14 5.80484E-14
 -1      2695 2.08694E+01 1.41483E-01-2.14886E-02 1.87477E+00-5.61261E-14-1.44495E-14
 -1      2696 2.25479E+01-1.14716E+00 3.68315E-02 1.85561E+00 1.81138E-14 8.52465E-14
 -1      2697 2.30339E+01-1.74206E+00-6.33720E-03 1.66236E+00 4.90224E-14 1.22407E-13
 -1      2698 2.14638E+01-9.77883E-01-3.60617E-02 2.21918E+00 1.98381E-14 9.63118E-15
 -1      2699 2.39147E+01-2.30080E+00 5.29906E-02 1.42491E+00 8.88077E-14 1.87951E-13
 -1      2700 2.45551E+01-2.81289E+00-1.40753E-02 9.44041E-01 9.45459E-14 1.91435E-13
 -1      2701 2.26714E+01-2.37061E+00-5.53039E-02 2.18642E+00 1.05763E-13 7.36139E-14
 -1      2702 2.58214E+01-3.10494E+00 4.26597E-02 2.77336E-01 1.33910E-13 2.31988E-13
 -1      2703 2.64822E+01-3.02847E+00-1.23448E-02-4.70241E-01 1.23051E-13 2.46112E-13
 -1      2704 2.46775E+01-3.56471E+00-6.79444E-02 1.43840E+00 1.44803E-13 1.68943E-13
 -1      2705 2.83057E+01 1.23389E+00-2.25226E-01-2.68528E+00-3.48180E-13 3.49040E-13
 -1      2706 2.82891E+01 3.33316E+00-9.84409E-02-2.30454E+00-4.83225E-13 3.25732E-13
 -1      2707 2.84213E+01 4.55762E+00-2.05230E-01-1.54629E+00-6.13065E-13 2.46456E-13
 -1      2708 2.83371E+01 5.44318E+00-1.55789E-01-2.70774E-01-7.35911E-13 1.25290E-13
 -1      2709 2.83651E+01 5.30782E+00-2.00825E-01 1.00806E+00-7.31637E-13 2.57433E-14
 -1      2710 2.83760E+01 4.26512E+00-1.75704E-01 2.08001E+00-6.44040E-13-8.73399E-14
 -1      2711 2.88089E+01 8.17564E-01-9.00421E-02 2.48244E+00-4.66877E-13-1.61288E-13
 -1      2712 2.86133E+01-1.14266E+00-8.46814E-02 2.32057E+00-3.01287E-13-2.60542E-13
 -1      2713 2.56984E+01-3.20836E+00-1.50579E-02-3.29674E-03-3.98414E-14-1.41140E-13
 -1      2714 2.50092E+01-3.02588E+00 5.50029E-02-6.96017E-01 4.71082E-14-8.49464E-14
 -1      2715 2.38573E+01-2.58438E+00-2.96202E-03-1.27241E+00 3.35634E-14-4.79243E-14
 -1      2716 2.32219E+01-2.03516E+00 4.60515E-02-1.67252E+00 4.58945E-14-1.44296E-14
 -1      2717 2.37490E+01-3.41500E+00-8.92399E-02-1.73039E+00 6.25966E-14-3.22225E-14
 -1      2718 2.24855E+01-1.52481E+00-1.53040E-03-1.84385E+00-1.96579E-14 1.98680E-14
 -1      2719 2.20168E+01-1.02307E+00 2.56385E-02-2.02437E+00 1.52998E-14 7.24561E-15
 -1      2720 2.19376E+01-2.09361E+00-6.02713E-02-2.31267E+00 3.05593E-14 2.64250E-14
 -1      2721 2.16173E+01-6.19928E-01 3.48311E-03-2.00663E+00 7.62467E-14-2.26193E-14
 -1      2722 2.12983E+01-2.81352E-01 1.21663E-02-2.03577E+00 5.94742E-14-5.47285E-14
 -1      2723 2.09677E+01-9.24179E-01-2.79733E-02-2.35903E+00 7.42874E-15 6.91357E-14
 -1      2724 2.11113E+01-2.89190E-02 5.03745E-03-1.93456E+00 6.88819E-14-3.30293E-14
 -1      2725 2.08962E+01 1.60798E-01 4.05954E-03-1.87822E+00 1.09723E-13 2.06489E-14
 -1      2726 2.04685E+01-1.42330E-01-1.36053E-02-2.18008E+00 7.35322E-14 1.18720E-13
 -1      2727 2.08226E+01 2.92412E-01 5.04921E-03-1.74820E+00 9.50730E-14-5.21829E-14
 -1      2728 2.06712E+01 3.78397E-01 2.89233E-05-1.64987E+00 3.96349E-14-5.33403E-14
 -1      2729 2.02523E+01 2.97763E-01-5.50154E-03-1.92221E+00 1.11425E-13 4.74561E-14
 -1      2730 2.06498E+01 4.30792E-01 4.78170E-03-1.51547E+00 3.95860E-14-1.35555E-13
 -1      2731 2.05353E+01 4.53889E-01-1.75337E-03-1.40208E+00 3.99122E-14-1.47615E-13
 -1      2732 2.01742E+01 5.00469E-01-1.37205E-03-1.64789E+00-3.39346E-14 1.35812E-14
 -1      2733 2.05335E+01 4.60585E-01 4.45452E-03-1.27465E+00 6.95656E-14-1.29987E-13
 -1      2734 2.04412E+01 4.49826E-01-2.32632E-03-1.16192E+00 3.56045E-14-1.65436E-13
 -1      2735 2.01529E+01 5.58646E-01 3.50128E-04-1.38292E+00 2.93243E-14-5.96413E-14
 -1      2736 2.04439E+01 4.33252E-01 4.09011E-03-1.04687E+00 3.11644E-14-1.72082E-13
 -1      2737 2.03667E+01 4.06858E-01-2.30629E-03-9.43222E-01-1.80631E-14-9.72564E-14
 -1      2738 2.01485E+01 5.37914E-01 8.24804E-04-1.13937E+00 5.48008E-14-1.90204E-13
 -1      2739 2.03680E+01 3.80525E-01 3.68072E-03-8.42797E-01-2.58380E-14-3.59273E-14
 -1      2740 2.03027E+01 3.48963E-01-2.03119E-03-7.52064E-01 7.86399E-16 1.02589E-13
 -1      2741 2.01444E+01 4.79832E-01 7.50883E-04-9.23011E-01 1.22514E-14 8.67252E-15
 -1      2742 2.03012E+01 3.20344E-01 3.23733E-03-6.66668E-01-1.21144E-13 1.24007E-13
 -1      2743 2.02463E+01 2.89133E-01-1.67806E-03-5.89893E-01-1.46736E-13 2.27120E-14
 -1      2744 2.01357E+01 4.08600E-01 4.99077E-04-7.35909E-01-7.15283E-14 1.46093E-13
 -1      2745 2.02423E+01 2.61994E-01 2.78295E-03-5.18822E-01-7.25368E-14-1.45974E-16
 -1      2746 2.01968E+01 2.33725E-01-1.33303E-03-4.55491E-01-1.02930E-13-9.41023E-15
 -1      2747 2.01224E+01 3.37222E-01 2.38484E-04-5.77755E-01-1.46725E-13 2.16974E-13
 -1      2748 2.01913E+01 2.09705E-01 2.34182E-03-3.97431E-01-1.44175E-13 3.98218E-14
 -1      2749 2.01541E+01 1.85341E-01-1.03142E-03-3.46244E-01-3.79481E-14 5.16484E-14
 -1      2750 2.01063E+01 2.71983E-01 3.29851E-05-4.46701E-01-3.46237E-14 1.76257E-13
 -1      2751 2.01481E+01 1.64936E-01 1.93263E-03-2.99600E-01 6.06299E-14 4.71900E-14
 -1      2752 2.01183E+01 1.44596E-01-7.82756E-04-2.58944E-01 2.41217E-14 7.18662E-14
 -1      2753 2.00892E+01 2.15366E-01-1.04577E-04-3.40022E-01-1.46374E-14 1.59095E-13
 -1      2754 2.01123E+01 1.27727E-01 1.56683E-03-2.22053E-01-6.79287E-15 1.12462E-13
 -1      2755 2.00888E+01 1.11126E-01-5.84742E-04-1.90268E-01 4.99391E-14 1.06616E-13
 -1      2756 2.00727E+01 1.67829E-01-1.83067E-04-2.54601E-01 6.17064E-14 1.59007E-13
 -1      2757 2.00833E+01 9.74590E-02 1.24944E-03-1.61531E-01 1.51724E-14 1.16351E-13
 -1      2758 2.00652E+01 8.41466E-02-4.30506E-04-1.37057E-01-1.09810E-14 1.89488E-13
 -1      2759 2.00577E+01 1.28842E-01-2.17216E-04-1.87265E-01 5.44045E-14 2.27462E-14
 -1      2760 2.00604E+01 7.32546E-02 9.80675E-04-1.15010E-01-2.22965E-14 2.04008E-13
 -1      2761 2.00467E+01 6.27418E-02-3.12290E-04-9.64524E-02-7.23572E-14 1.91863E-13
 -1      2762 2.00447E+01 9.74468E-02-2.21697E-04-1.34994E-01-3.48599E-14 2.12465E-13
 -1      2763 2.00426E+01 5.41879E-02 7.57757E-04-7.98008E-02-1.40294E-13 2.39114E-13
 -1      2764 2.00324E+01 4.60036E-02-2.22862E-04-6.59535E-02-2.58718E-13 2.21492E-13
 -1      2765 2.00338E+01 7.25591E-02-2.08139E-04-9.50430E-02-8.67686E-14 3.61831E-13
 -1      2766 2.00292E+01 3.93795E-02 5.76224E-04-5.35861E-02-3.16196E-13 3.04677E-13
 -1      2767 2.00217E+01 3.30966E-02-1.56091E-04-4.34320E-02-7.77939E-14 3.28139E-13
 -1      2768 2.00250E+01 5.31138E-02-1.85212E-04-6.49964E-02-1.91595E-13 5.23499E-13
 -1      2769 2.00191E+01 2.80386E-02 4.30869E-04-3.44147E-02-3.13273E-14 3.54825E-13
 -1      2770 2.00139E+01 2.32847E-02-1.06811E-04-2.71142E-02 8.39164E-15 3.41913E-13
 -1      2771 2.00180E+01 3.81340E-02-1.58556E-04-4.27865E-02-1.53909E-13 4.57556E-13
 -1      2772 2.00119E+01 1.94794E-02 3.16296E-04-2.06772E-02 7.45648E-14 2.35562E-13
 -1      2773 2.00082E+01 1.59383E-02-7.08293E-05-1.55488E-02 5.71890E-14 1.62430E-13
 -1      2774 2.00126E+01 2.67597E-02-1.31622E-04-2.66831E-02-3.35427E-14 2.88112E-13
 -1      2775 2.00067E+01 1.31219E-02 2.27359E-04-1.10680E-02-6.63378E-14 8.50384E-14
 -1      2776 2.00043E+01 1.05301E-02-4.49025E-05-7.56630E-03-1.64649E-14 2.51079E-14
 -1      2777 2.00085E+01 1.82559E-02-1.06524E-04-1.52647E-02-9.97248E-14-1.56176E-13
 -1      2778 2.00032E+01 8.48384E-03 1.59411E-04-4.54348E-03 8.38164E-14 7.45286E-14
 -1      2779 2.00017E+01 6.62494E-03-2.65472E-05-2.23876E-03-2.04111E-14-2.25681E-14
 -1      2780 2.00055E+01 1.20069E-02-8.43201E-05-7.38227E-03-3.15594E-14-1.29761E-13
 -1      2781 2.00009E+01 5.16972E-03 1.08369E-04-2.82209E-04-2.14433E-14-7.68741E-14
 -1      2782 2.00000E+01 3.86776E-03-1.38663E-05 1.15896E-03 7.60024E-14-2.28682E-14
 -1      2783 2.00033E+01 7.50410E-03-6.53737E-05-2.12186E-03 1.06356E-14-2.30218E-13
 -1      2784 1.99994E+01 2.85858E-03 7.07338E-05 2.35191E-03 2.23685E-13-1.46038E-14
 -1      2785 1.99990E+01 1.97208E-03-5.41848E-06 3.18391E-03 2.19982E-13 3.69694E-14
 -1      2786 2.00018E+01 4.33282E-03-4.96427E-05 1.23164E-03 1.53106E-13-1.07341E-13
 -1      2787 1.99986E+01 1.29256E-03 4.35803E-05 3.84287E-03 1.95659E-13 4.02307E-14
 -1      2788 1.99985E+01 7.08624E-04-1.21171E-07 4.25590E-03 6.90519E-14 7.05021E-14
 -1      2789 2.00007E+01 2.15819E-03-3.68711E-05 3.22793E-03 2.06908E-13-1.63671E-13
 -1      2790 1.99982E+01 2.65960E-04 2.45194E-05 4.55128E-03-1.52920E-13 1.45787E-13
 -1      2791 1.99983E+01-1.05126E-04 2.82673E-06 4.68397E-03-1.06711E-13 9.85367E-14
 -1      2792 2.00001E+01 7.12163E-04-2.67141E-05 4.28121E-03 2.92121E-14-3.52816E-13
 -1      2793 1.99981E+01-3.84910E-04 1.16344E-05 4.73873E-03-1.17830E-13 1.00131E-13
 -1      2794 1.99983E+01-6.14591E-04 3.99694E-06 4.68857E-03-1.93923E-14 1.00580E-13
 -1      2795 1.99997E+01-2.18761E-04-1.88155E-05 4.69626E-03-1.95003E-14-1.37242E-13
 -1      2796 1.99982E+01-7.90816E-04 3.43707E-06 4.58788E-03 4.61542E-14 1.84280E-13
 -1      2797 1.99984E+01-9.36118E-04 4.08904E-06 4.41964E-03-7.37561E-14 1.42207E-13
 -1      2798 1.99994E+01-8.04814E-04-1.28459E-05 4.69033E-03-2.40918E-14-5.22887E-14
 -1      2799 1.99984E+01-1.05665E-03-1.16046E-06 4.22014E-03-1.46023E-13 2.58979E-13
 -1      2800 1.99987E+01-1.16636E-03 2.03097E-06 3.97365E-03-1.30289E-13 1.48790E-13
 -1      2801 1.99993E+01-1.18091E-03-8.40604E-06 4.41087E-03-1.44776E-13-1.08476E-15
 -1      2802 1.99987E+01-1.27423E-03-3.84009E-06 3.70164E-03-1.56236E-13 6.93466E-14
 -1      2803 1.99989E+01-1.36410E-03 3.51411E-06 3.39017E-03-7.39401E-14-9.24364E-14
 -1      2804 1.99993E+01-1.46737E-03-7.76791E-06 3.95835E-03-1.59915E-13 1.25163E-13
 -1      2805 2.25590E+01-8.06786E-01-7.88589E-03 9.33971E-01 1.29134E-14 9.46021E-15
 -1      2806 2.25790E+01-8.42401E-01 3.96142E-03 6.96835E-01 3.62277E-14 4.99822E-14
 -1      2807 1.99994E+01-1.77766E-03-8.14758E-07-3.12822E-03-3.32601E-13-3.96561E-13
 -1      2808 1.99989E+01-1.34895E-03-8.41262E-06-2.92198E-03-2.75383E-13 3.47288E-14
 -1      2809 1.99986E+01-1.25826E-03-1.48138E-05-3.26667E-03-3.68198E-13 4.88910E-15
 -1      2810 2.23873E+01-8.02353E-01-1.20752E-02 4.27567E-01 3.79618E-14 3.12168E-14
 -1      2811 2.23671E+01-6.89458E-01 1.15119E-02 2.30084E-01 5.05535E-14 3.27371E-14
 -1      2812 2.26968E+01-1.01926E+00-1.22849E-03 4.76246E-01 4.60717E-14 8.64718E-14
 -1      2813 2.23719E+01 3.17440E-01 1.55819E-02 1.56000E+00 4.32774E-14 5.46173E-14
 -1      2814 2.25013E+01-1.05447E-01-1.98292E-02 1.56697E+00 1.40313E-14 2.53388E-14
 -1      2815 2.20323E+01 1.18712E+00 1.85105E-02 1.16496E+00 1.93146E-13 3.35756E-14
 -1      2816 2.21566E+01 7.54948E-01-2.52195E-02 1.43477E+00 1.02913E-13 4.35804E-14
 -1      2817 2.28601E+01 6.70950E-01 4.80817E-03 1.65870E+00 8.61620E-14 4.98993E-14
 -1      2818 2.17857E+01 1.70464E+00 7.57063E-03 2.32298E-01 2.39499E-13 2.21516E-14
 -1      2819 2.18357E+01 1.51403E+00-1.36710E-02 7.04875E-01 2.46998E-13 2.41153E-14
 -1      2820 2.25001E+01 1.67347E+00-1.29865E-02 1.06653E+00 2.05635E-13 1.37555E-14
 -1      2821 2.18387E+01 1.53196E+00-1.13327E-02-8.61128E-01 1.75234E-13-1.67041E-14
 -1      2822 2.17797E+01 1.71239E+00 7.76201E-03-3.83779E-01 2.12574E-13-1.34357E-14
 -1      2823 2.23171E+01 2.11892E+00-1.79811E-02-7.53587E-02 2.29095E-13-1.51481E-14
 -1      2824 2.21618E+01 7.82149E-01-2.38502E-02-1.60312E+00 1.24791E-13-9.35359E-14
 -1      2825 2.20291E+01 1.21167E+00 1.99106E-02-1.32679E+00 1.69013E-13-2.90597E-14
 -1      2826 2.24850E+01 1.70542E+00-8.05821E-03-1.22841E+00 1.86248E-13-4.69928E-14
 -1      2827 2.25133E+01-1.02710E-01-2.14727E-02-1.74289E+00 3.92025E-14-1.03710E-13
 -1      2828 2.23752E+01 3.36489E-01 1.56719E-02-1.73681E+00 7.22885E-14-9.93452E-14
 -1      2829 2.28341E+01 6.97904E-01 5.87686E-03-1.83134E+00 1.30602E-13-5.61886E-14
 -1      2830 2.26639E+01-7.19718E-01-9.76118E-03-1.37587E+00-2.23547E-14-1.49518E-13
 -1      2831 2.25827E+01-4.51657E-01 2.82364E-03-1.56857E+00 5.04086E-14-1.25583E-13
 -1      2832 2.30515E+01-3.44231E-01 1.36429E-02-1.74061E+00 7.59256E-14-1.45050E-13
 -1      2833 2.25605E+01-9.49949E-01 4.03157E-04-7.81457E-01-1.59520E-14-1.98313E-13
 -1      2834 2.25573E+01-8.79489E-01-7.89495E-03-1.05495E+00-4.03722E-14-1.34654E-13
 -1      2835 2.29591E+01-1.00046E+00 9.09916E-03-1.18804E+00-2.89911E-14-1.46433E-13
 -1      2836 2.22816E+01-8.81986E-01 6.03178E-03-1.96424E-01-6.57949E-14-3.92994E-14
 -1      2837 2.23433E+01-9.47068E-01-1.22852E-02-4.57173E-01-6.47019E-14-1.39763E-13
 -1      2838 2.26130E+01-1.18759E+00 1.12194E-03-5.09757E-01-8.42391E-14-7.39359E-14
 -1      2839 2.19318E+01-6.65352E-01 7.48975E-03 2.57218E-01-3.48252E-14 1.00642E-13
 -1      2840 2.20332E+01-7.88833E-01-1.15610E-02 5.63911E-02 1.00731E-14-2.35163E-15
 -1      2841 2.21550E+01-1.04546E+00-4.20172E-03 7.61127E-02-5.68335E-14-5.16403E-14
 -1      2842 2.15853E+01-4.17566E-01 6.62146E-03 5.49969E-01 2.39746E-14 1.45233E-13
 -1      2843 2.17038E+01-5.45097E-01-8.62144E-03 4.20515E-01-5.21284E-16 1.15758E-13
 -1      2844 2.17023E+01-7.56907E-01-6.07226E-03 4.87587E-01-5.93962E-14 1.10092E-13
 -1      2845 2.12778E+01-2.03219E-01 4.93914E-03 7.00850E-01 3.73887E-15 5.73822E-14
 -1      2846 2.13985E+01-3.07827E-01-5.35892E-03 6.34642E-01 3.48293E-14 6.26548E-14
 -1      2847 2.13142E+01-4.53475E-01-5.74847E-03 7.26307E-01 7.51526E-14 1.71023E-13
 -1      2848 2.10194E+01-4.53490E-02 3.27319E-03 7.45502E-01-2.53449E-15 5.66416E-14
 -1      2849 2.11338E+01-1.19386E-01-2.62062E-03 7.27094E-01 2.47397E-14 4.84225E-14
 -1      2850 2.10059E+01-2.01689E-01-4.57624E-03 8.27813E-01 4.04625E-14 9.81808E-14
 -1      2851 2.08074E+01 5.66878E-02 1.95109E-03 7.19549E-01 2.95439E-14-4.63006E-14
 -1      2852 2.09114E+01 1.07546E-02-6.22837E-04 7.33093E-01 3.49378E-14 2.91451E-14
 -1      2853 2.07697E+01-2.15433E-02-3.36074E-03 8.33516E-01 3.87469E-14 8.30134E-14
 -1      2854 2.06351E+01 1.13487E-01 1.02594E-03 6.52183E-01-5.38677E-14-1.06636E-13
 -1      2855 2.07271E+01 8.94291E-02 6.93879E-04 6.84426E-01-2.57733E-14-3.07984E-14
 -1      2856 2.05909E+01 9.17430E-02-2.39766E-03 7.79197E-01 2.70956E-14 1.97176E-14
 -1      2857 2.04956E+01 1.37773E-01 4.36238E-04 5.64888E-01-6.94107E-14-1.15976E-13
 -1      2858 2.05750E+01 1.28975E-01 1.46702E-03 6.05967E-01-4.59613E-14-1.75166E-14
 -1      2859 2.04550E+01 1.52414E-01-1.72288E-03 6.92116E-01-7.23685E-14-8.30393E-15
 -1      2860 2.03829E+01 1.40839E-01 9.21907E-05 4.72219E-01-1.05236E-13-1.50089E-13
 -1      2861 2.04501E+01 1.41717E-01 1.83935E-03 5.15440E-01-7.30589E-14-1.69248E-13
 -1      2862 2.03507E+01 1.75992E-01-1.27809E-03 5.91488E-01-8.77157E-14-4.66826E-14
 -1      2863 2.02924E+01 1.31399E-01-8.79235E-05 3.83244E-01-1.82909E-13-2.65979E-14
 -1      2864 2.03482E+01 1.37770E-01 1.93614E-03 4.24460E-01-1.29882E-13-8.97113E-14
 -1      2865 2.02697E+01 1.75765E-01-9.90949E-04 4.89925E-01-1.84182E-13-2.53405E-15
 -1      2866 2.02201E+01 1.15598E-01-1.66132E-04 3.03015E-01-3.42859E-14-7.03034E-14
 -1      2867 2.02656E+01 1.24578E-01 1.85800E-03 3.39953E-01-9.93499E-14-8.57009E-14
 -1      2868 2.02063E+01 1.61796E-01-8.00311E-04 3.95041E-01-1.10520E-13-9.96525E-14
 -1      2869 2.01631E+01 9.74700E-02-1.85346E-04 2.33826E-01-1.26002E-13-6.95466E-14
 -1      2870 2.01994E+01 1.07203E-01 1.67986E-03 2.65493E-01-6.42002E-14-3.25910E-15
 -1      2871 2.01565E+01 1.41097E-01-6.64383E-04 3.10880E-01-6.75473E-14-1.60864E-13
 -1      2872 2.01185E+01 7.94824E-02-1.73469E-04 1.76184E-01 2.61651E-14-6.26793E-14
 -1      2873 2.01469E+01 8.88618E-02 1.45465E-03 2.02412E-01-1.01869E-13-9.86083E-14
 -1      2874 2.01173E+01 1.18228E-01-5.59169E-04 2.39060E-01-6.84455E-14-8.66577E-14
 -1      2875 2.00841E+01 6.30067E-02-1.47517E-04 1.29517E-01 1.11954E-13 1.00289E-13
 -1      2876 2.01060E+01 7.14407E-02 1.21772E-03 1.50625E-01 1.16308E-13 7.61169E-14
 -1      2877 2.00867E+01 9.59463E-02-4.71465E-04 1.79647E-01-8.90003E-15-5.75779E-15
 -1      2878 2.00581E+01 4.86899E-02-1.17436E-04 9.26775E-02 1.00120E-13 2.03411E-13
 -1      2879 2.00746E+01 5.59226E-02 9.90899E-04 1.09239E-01 1.44991E-13 1.82752E-13
 -1      2880 2.00630E+01 7.57564E-02-3.95101E-04 1.31782E-01 1.03476E-13 2.12282E-13
 -1      2881 2.00387E+01 3.67229E-02-8.85833E-05 6.42673E-02-6.95272E-14 4.37942E-13
 -1      2882 2.00509E+01 4.27062E-02 7.86369E-04 7.69570E-02 2.67168E-15 2.83894E-13
 -1      2883 2.00447E+01 5.83388E-02-3.27519E-04 9.41283E-02-4.87106E-15 3.50560E-13
 -1      2884 2.00245E+01 2.70250E-02-6.36008E-05 4.28502E-02-9.00323E-14 4.36876E-13
 -1      2885 2.00333E+01 3.18317E-02 6.09693E-04 5.23493E-02-1.86014E-14 4.38717E-13
 -1      2886 2.00310E+01 4.38562E-02-2.68026E-04 6.51634E-02-9.19008E-14 1.93486E-13
 -1      2887 2.00143E+01 1.93712E-02-4.32883E-05 2.70772E-02 8.82327E-14 3.07595E-13
 -1      2888 2.00205E+01 2.31351E-02 4.62131E-04 3.40180E-02-2.92913E-14 3.89199E-13
 -1      2889 2.00207E+01 3.21683E-02-2.16185E-04 4.33691E-02 6.11555E-14 1.18040E-13
 -1      2890 2.00073E+01 1.34743E-02-2.75220E-05 1.57506E-02 1.93279E-13 4.87941E-14
 -1      2891 2.00115E+01 1.63524E-02 3.42243E-04 2.06891E-02 1.74216E-13 1.98094E-13
 -1      2892 2.00132E+01 2.29759E-02-1.71618E-04 2.73418E-02 1.77510E-13 1.35650E-13
 -1      2893 2.00026E+01 9.03619E-03-1.57579E-05 7.84833E-03 1.36667E-13 2.11790E-14
 -1      2894 2.00053E+01 1.11858E-02 2.47150E-04 1.12553E-02 1.49259E-13 7.42730E-14
 -1      2895 2.00078E+01 1.59160E-02-1.33995E-04 1.58465E-02 1.94848E-13 4.08647E-14
 -1      2896 1.99996E+01 5.77535E-03-7.32667E-06 2.52508E-03 9.79039E-14 1.09636E-13
 -1      2897 2.00012E+01 7.34181E-03 1.73402E-04 4.78699E-03 1.42491E-13 9.66378E-14
 -1      2898 2.00041E+01 1.06188E-02-1.02827E-04 7.83515E-03 1.06197E-13 1.26028E-13
 -1      2899 1.99979E+01 3.44067E-03-1.57220E-06-9.00051E-04 2.02333E-14 2.45391E-13
 -1      2900 1.99987E+01 4.55188E-03 1.17458E-04 5.25864E-04 1.80312E-14 2.04812E-13
 -1      2901 2.00015E+01 6.73891E-03-7.74583E-05 2.44410E-03-2.54852E-14 2.84113E-13
 -1      2902 1.99970E+01 1.81668E-03 2.08234E-06-2.96203E-03-1.45553E-13 1.64791E-13
 -1      2903 1.99973E+01 2.58130E-03 7.59723E-05-2.13111E-03-2.38118E-14 2.97297E-13
 -1      2904 1.99999E+01 3.97000E-03-5.71526E-05-1.02040E-03-4.16109E-14 3.98753E-13
 -1      2905 1.99966E+01 7.23523E-04 4.10555E-06-4.07093E-03-7.61875E-14 7.08009E-14
 -1      2906 1.99966E+01 1.23158E-03 4.59626E-05-3.65178E-03-6.95151E-14 1.85261E-13
 -1      2907 1.99990E+01 2.05046E-03-4.11629E-05-3.10211E-03-5.36114E-14 3.31686E-13
 -1      2908 1.99967E+01 1.37593E-05 4.85081E-06-4.53252E-03-4.75716E-14 1.07144E-13
 -1      2909 1.99965E+01 3.38666E-04 2.48907E-05-4.38992E-03-8.83890E-14 2.90550E-14
 -1      2910 1.99985E+01 7.62387E-04-2.87748E-05-4.21690E-03-2.37303E-14 1.69907E-13
 -1      2911 1.99970E+01-4.32336E-04 4.58939E-06-4.56711E-03 2.03188E-13-1.06996E-13
 -1      2912 1.99967E+01-2.31179E-04 1.06532E-05-4.60507E-03 1.26203E-13 2.28425E-14
 -1      2913 1.99983E+01-7.26236E-05-1.93327E-05-4.67421E-03 8.79121E-14-1.48146E-13
 -1      2914 1.99974E+01-7.12314E-04 3.08129E-06-4.32590E-03-5.67125E-14-4.74457E-14
 -1      2915 1.99971E+01-5.86880E-04 1.43539E-06-4.48009E-03 6.37030E-14-1.22815E-13
 -1      2916 1.99983E+01-5.99126E-04-1.21692E-05-4.69655E-03 1.05492E-13-2.13581E-13
 -1      2917 1.99979E+01-9.03381E-04-8.68843E-07-3.90170E-03-1.99120E-13 2.36159E-13
 -1      2918 1.99975E+01-8.19449E-04-5.47555E-06-4.13361E-03-1.11080E-13 1.83165E-13
 -1      2919 1.99985E+01-9.31328E-04-3.96019E-06-4.43849E-03-1.36103E-13-2.07059E-13
 -1      2920 1.99985E+01-1.10894E-03-5.96844E-06-3.45656E-03-3.63362E-13 4.31939E-14
 -1      2921 1.99981E+01-1.03310E-03-1.28790E-05-3.74700E-03-2.71603E-13 3.89171E-14
 -1      2922 1.99988E+01-1.19258E-03 1.14223E-05-4.07228E-03-1.92630E-13-2.70474E-13
 -1      2923 1.99992E+01-1.47264E-03 2.09788E-05-3.68250E-03-2.67487E-13-5.54370E-13
 -1      2924 2.29947E+01-5.24657E+00-6.84244E-02 4.67873E+00-2.85133E-13-3.82409E-13
 -1      2925 2.02993E+01-5.05069E+00 9.97743E-02 5.68423E+00-4.17166E-13-1.04743E-13
 -1      2926 2.00016E+01-3.73442E-03 8.01160E-06-2.61312E-04 4.42803E-13-8.46298E-14
 -1      2927 2.00016E+01-3.68814E-03 4.85371E-06-7.27983E-04 4.53203E-13-2.14777E-13
 -1      2928 1.99989E+01-1.44931E-03-8.65901E-06 3.18873E-03-1.25400E-13-1.29547E-13
 -1      2929 1.99991E+01-1.51791E-03-4.09320E-06 2.93978E-03-1.72022E-13-1.53158E-13
 -1      2930 1.99994E+01-1.65339E-03 1.43565E-05 3.46738E-03-9.54286E-14-1.52312E-13
 -1      2931 2.00012E+01-3.30448E-03 1.26759E-05-2.07408E-03 3.57008E-13-7.30828E-14
 -1      2932 2.00009E+01-3.09231E-03-3.17230E-06-2.40156E-03 3.65326E-13-8.42614E-14
 -1      2933 2.00016E+01-3.69053E-03 5.09259E-06 7.30491E-04 1.18719E-13-4.12640E-13
 -1      2934 2.00016E+01-3.73616E-03 7.75475E-06 2.63429E-04 3.07098E-13-3.26961E-13
 -1      2935 2.00021E+01-3.43044E-03-7.33413E-06 1.25652E-07 3.62250E-13-4.98151E-13
 -1      2936 2.00015E+01-3.60388E-03 1.05809E-05-1.22792E-03 3.91787E-13-1.49921E-13
 -1      2937 2.00014E+01-3.46915E-03 1.35594E-06-1.64753E-03 4.97674E-13-7.59804E-14
 -1      2938 2.00016E+01-3.12425E-03-6.56529E-06-2.01095E-03 2.64227E-13 7.03358E-14
 -1      2939 2.00019E+01-3.35163E-03-6.91714E-06-1.05547E-03 4.15660E-13-1.09628E-13
 -1      2940 2.00014E+01-3.48009E-03 1.50637E-06 1.63743E-03 8.15081E-14-2.57985E-13
 -1      2941 2.00015E+01-3.61104E-03 1.03550E-05 1.22344E-03 7.99882E-14-2.93000E-13
 -1      2942 2.00019E+01-3.35898E-03-7.27427E-06 1.04855E-03 2.67245E-13-4.35181E-13
 -1      2943 2.00009E+01-3.10760E-03-3.27876E-06 2.39764E-03 1.02164E-13-9.87492E-14
 -1      2944 2.00012E+01-3.31805E-03 1.26551E-05 2.06732E-03 1.38249E-13-8.05945E-14
 -1      2945 2.00016E+01-3.13898E-03-6.48740E-06 2.00083E-03 1.82581E-13-1.19619E-13
 -1      2946 2.00003E+01-2.60605E-03-1.45879E-05 2.91918E-03 4.20597E-14-1.38823E-13
 -1      2947 2.00007E+01-2.86958E-03 1.80445E-05 2.70523E-03 9.45666E-14-1.57233E-13
 -1      2948 2.00010E+01-2.77146E-03-5.17409E-06 2.76321E-03 1.65279E-14-2.38503E-13
 -1      2949 1.72523E+01-4.64594E+00 3.11516E-02 6.53037E+00-4.28102E-13 1.84637E-13
 -1      2950 1.39458E+01-3.64731E+00 1.17427E-01 6.39374E+00-3.61350E-13 3.86177E-13
 -1      2951 1.94806E+01-4.48422E+00 8.85777E-02 5.56818E+00-4.03233E-13-6.62144E-14
 -1      2952 6.96282E+00-4.22816E-01 1.31389E-01 6.40962E-01-1.29285E-14 6.58223E-13
 -1      2953 7.00841E+00-5.86027E-01 1.81658E-01-1.27898E+00 3.68351E-14 5.83283E-13
 -1      2954 2.79061E+01-2.81186E+00-3.50839E-02-8.63480E-01 1.16664E-13 1.32436E-13
 -1      2955 2.88269E+01-1.19963E+00-1.54806E-01 3.92781E-01 2.41598E-13 1.35461E-13
 -1      2956 2.43841E+01-4.70105E+00 1.13458E-01-2.79212E+00 1.24234E-13-1.78718E-13
 -1      2957 2.62033E+01-4.41823E+00-6.15978E-02-1.41168E+00-3.83027E-14-2.51763E-13
 -1      2958 2.21600E+01-5.42917E-01-1.18449E-02 6.41770E-02 6.81976E-14-3.26730E-15
 -1      2959 2.21316E+01-3.46442E-01 1.45223E-02-3.55860E-02 9.77567E-14 6.46564E-15
 -1      2960 2.23133E+01-7.56050E-01-6.85189E-03 4.49768E-02 4.93664E-14 5.15668E-14
 -1      2961 2.25730E+01-4.34210E-01 2.96848E-03 1.40218E+00 1.01591E-14 1.63771E-14
 -1      2962 2.26547E+01-6.75943E-01-7.25282E-03 1.22477E+00-5.08729E-15-6.57135E-16
 -1      2963 2.30015E+01-9.21433E-01 6.80658E-03 1.06000E+00 2.61960E-14 9.04414E-14
 -1      2964 2.30777E+01-3.30987E-01 1.26122E-02 1.56759E+00 8.19912E-15 7.36548E-14
 -1      2965 2.19633E+01-1.40830E-01-9.40130E-03-6.50122E-02 1.46500E-13-3.05514E-14
 -1      2966 2.19577E+01 1.05668E-01 1.60028E-02-3.70984E-02 1.57840E-13-3.99106E-14
 -1      2967 2.17239E+01 3.31238E-01-1.78618E-03-2.80354E-02 1.65544E-13-9.51400E-14
 -1      2968 2.19707E+01-2.76334E-01-6.21157E-03-1.30027E-01 1.07599E-13-1.31040E-14
 -1      2969 1.73405E+01-4.27196E+00 9.62889E-02-6.42896E+00-2.57155E-13-2.24917E-13
 -1      2970 2.04621E+01-4.98758E+00 5.94409E-02-6.08506E+00-1.52989E-13-1.54072E-13
 -1      2971 2.71450E+01-3.73088E+00-1.12211E-01 1.65773E+00-8.10151E-14-5.32657E-13
 -1      2972 2.55210E+01-4.61824E+00 4.09311E-02 3.03155E+00-1.70253E-13-4.48377E-13
 -1      2973 1.80549E+01-4.47792E+00 1.40605E-01-5.60683E+00 2.23085E-13 1.28141E-13
 -1      2974 2.11808E+01-5.19744E+00-4.42435E-02-4.83782E+00 1.97134E-13-9.67212E-14
 -1      2975 2.82558E+01 4.57533E+00-1.95343E-01-1.85494E+00 4.34486E-13-4.03851E-13
 -1      2976 2.89963E+01 2.87697E+00-8.37313E-02-1.97095E+00 2.68841E-13-4.22176E-13
 -1      2977 1.91393E+01 2.61161E+00 2.44844E-03-3.94959E-01 1.61427E-14-2.71844E-13
 -1      2978 1.86540E+01 2.80512E+00-1.04140E-02-5.42627E-01-3.72050E-14-2.93635E-13
 -1      2979 1.85174E+01 2.53742E+00-3.02404E-03-7.94299E-01-5.51430E-14-2.74039E-13
 -1      2980 1.95225E+01 2.04136E+00-4.05873E-03-5.11033E-01 1.59037E-14-2.17661E-13
 -1      2981 1.99994E+01-1.83906E-03-9.28088E-06 3.01768E-03-1.69412E-13-4.54441E-13
 -1      2982 2.84955E+01-1.00137E+00-4.83712E-02-1.91006E+00-1.37640E-13 2.91683E-13
 -1      2983 1.02543E+01-1.64196E+00 1.90007E-01-5.21722E+00-2.85771E-13-5.87030E-13
 -1      2984 1.33384E+01-2.83752E+00 6.17164E-02-6.28389E+00-2.90032E-13-4.09325E-13
 -1      2985 1.85153E+01-4.62020E+00-2.58972E-02 5.82651E+00 2.61943E-13-2.32529E-13
 -1      2986 1.50096E+01-3.73383E+00 1.53065E-01 6.07489E+00 2.64760E-13-4.19470E-13
 -1      2987 1.47541E+01-2.74406E+00 1.59273E-01 5.53345E+00 2.57502E-13-4.10422E-13
 -1      2988 1.72652E+01 3.69144E+00-1.10080E-02 5.04212E-02-2.18378E-13-2.69122E-13
 -1      2989 1.76881E+01 3.54542E+00-8.71193E-04 1.27655E-01-2.40195E-13-2.40123E-13
 -1      2990 6.32992E+00-3.92087E-01 1.54008E-01-1.31539E+00-1.19127E-13-6.88477E-13
 -1      2991 7.52352E+00-8.58266E-01 8.17451E-02-3.63220E+00-1.96468E-13-6.70464E-13
 -1      2992 2.90976E+01 1.03302E+00-5.43814E-02 1.48171E+00 3.83804E-13 2.06335E-13
 -1      2993 2.90067E+01 2.86372E+00-1.98760E-01 1.78952E+00 5.25247E-13 1.95732E-13
 -1      2994 7.75673E+00-7.17012E-01 1.52059E-01 3.04198E+00 3.37369E-14-6.30856E-13
 -1      2995 6.65682E+00-2.13183E-01 1.53799E-01 7.87331E-01-3.26267E-14-6.33854E-13
 -1      2996 2.74460E+01 6.27739E+00-1.87475E-01-2.81049E-01 5.86642E-13-1.41795E-13
 -1      2997 2.78850E+01 5.91749E+00-1.49983E-01-1.21751E+00 5.28994E-13-2.79360E-13
 -1      2998 2.87264E+01 4.93354E+00-1.05723E-01 1.68221E+00 6.20254E-13 9.31061E-14
 -1      2999 2.78595E+01 6.05020E+00-1.95144E-01 9.45727E-01 6.45511E-13-1.98730E-14
 -1      3000 2.75690E+01 3.36973E+00-1.05751E-01 1.90472E+00 4.64961E-13 1.85463E-13
 -1      3001 2.84523E+01-2.59262E+00-8.09886E-02 1.00401E+00-2.44367E-13-1.52059E-13
 -1      3002 2.73016E+01-2.24924E+00-4.70845E-02 1.68057E+00-1.57185E-13-2.72945E-13
 -1      3003 2.68052E+01-2.96999E+00 2.51219E-03 9.37029E-01-8.30013E-14-2.48114E-13
 -1      3004 2.74408E+01-3.98937E+00-2.67253E-02-3.53037E-01-1.16150E-13-2.56573E-13
 -1      3005 2.79834E+01-2.54905E+00-6.35809E-02-1.23569E+00 4.18849E-14 2.69659E-13
 -1      3006 2.74067E+01-3.60509E+00-9.98414E-02 2.06040E-01 8.27359E-14 2.04628E-13
 -1      3007 1.82032E+01 3.27929E+00-1.63392E-02 2.47028E-01-2.37035E-13-2.10767E-13
 -1      3008 1.88225E+01 3.04869E+00 2.09868E-03 2.61270E-01-2.56437E-13-1.53446E-13
 -1      3009 1.79217E+01 3.13084E+00 1.11496E-02 3.91255E-01-2.09339E-13-2.09666E-13
 -1      3010 1.69166E+01 3.43324E+00 8.03138E-03-7.22319E-01-1.53184E-13-3.28415E-13
 -1      3011 1.68620E+01 3.78950E+00 1.79055E-03-5.40369E-01-1.65541E-13-3.37021E-13
 -1      3012 1.67627E+01 3.83714E+00-1.08626E-02-4.52806E-01-1.83781E-13-3.32645E-13
 -1      3013 1.60946E+01-3.30740E+00 1.32867E-01-6.14927E+00-2.93821E-13-2.92003E-13
 -1      3014 1.85814E+01-3.65575E+00 3.35719E-02-5.57199E+00-3.17857E-13-1.50331E-13
 -1      3015 1.50902E+01-2.20761E+00 7.77088E-02-5.58616E+00-3.10009E-13-3.44030E-13
 -1      3016 2.63354E+01-4.55448E+00 6.35913E-02 1.82557E+00 1.88512E-13 1.13701E-13
 -1      3017 2.05822E+01 1.20155E+00-1.01204E-02 1.16486E+00-1.31943E-13 9.78249E-15
 -1      3018 1.99998E+01-2.15869E-03 1.46990E-05 2.99875E-03-1.04311E-13-2.30434E-13
 -1      3019 2.67931E+01 4.38351E+00-9.81955E-02-1.65949E+00 3.65069E-13-2.94598E-13
 -1      3020 2.88723E+01 2.77728E+00-2.17294E-01 2.75987E+00-5.42011E-13-1.30618E-13
 -1      3021 2.00010E+01-2.75751E-03-6.31709E-06-2.76391E-03 7.52974E-14 3.10935E-13
 -1      3022 2.00007E+01-2.85569E-03 1.73939E-05-2.70388E-03 2.49604E-13 1.21759E-13
 -1      3023 2.00004E+01-2.58716E-03-1.28798E-05-2.90851E-03-4.62767E-14 1.57754E-13
 -1      3024 8.99238E+00-3.42549E-01 1.61101E-01-1.98309E+00 5.90916E-14 5.20334E-13
 -1      3025 7.53393E+00-1.11921E+00 1.43399E-01-2.78143E+00 7.51690E-14 5.42011E-13
 -1      3026 9.18585E+00-1.99064E+00 9.67488E-02-4.52762E+00 1.64896E-13 6.17839E-13
 -1      3027 2.43712E+01-4.73360E+00 5.33134E-02 3.33379E+00-2.75419E-13-4.07153E-13
 -1      3028 1.99998E+01-2.09945E-03 1.15177E-05-3.09651E-03-3.56772E-13-3.73797E-13
 -1      3029 2.70751E+01-3.76275E+00-5.07680E-02-1.72340E+00 3.44239E-14 1.14214E-13
 -1      3030 2.71783E+01-2.95972E+00-2.16922E-02-4.51439E-01 2.00621E-15 2.45540E-13
 -1      3031 2.57302E+01-4.22339E+00 9.64338E-03-2.49452E+00-6.92710E-14 7.86593E-14
 -1      3032 2.67613E+01 5.71460E+00-1.49551E-01 3.57339E-01 5.66755E-13-8.12623E-14
 -1      3033 2.55029E+01 5.12162E+00-8.27669E-02-1.78824E-01 4.47892E-13-1.40134E-13
 -1      3034 2.58565E+01 4.97008E+00-7.38541E-02 9.61378E-01 4.85070E-13-2.79429E-14
 -1      3035 1.25978E+01-2.64300E+00 1.44741E-01 5.86653E+00-2.88450E-13 4.57634E-13
 -1      3036 1.15487E+01-1.51698E+00 1.09942E-01 4.84987E+00-2.32668E-13 5.76511E-13
 -1      3037 1.51709E+01-2.83807E+00 9.02468E-02 5.61412E+00-3.00586E-13 3.34496E-13
 -1      3038 2.00001E+01-2.17290E-03-3.87605E-06 3.22510E-03-9.83219E-15-3.06113E-13
 -1      3039 2.13645E+01 1.30017E+00-4.21437E-03 3.67456E-01 1.99923E-13-1.53858E-13
 -1      3040 2.12717E+01 9.95871E-01-4.83500E-03 7.22534E-02 1.73547E-13-1.42114E-13
 -1      3041 8.01139E+00-3.10161E-01 1.99824E-01 1.88397E+00-6.55656E-14 6.91558E-13
 -1      3042 9.06338E+00 1.75655E-01 1.21341E-01 8.14099E-01 1.37130E-14 5.51004E-13
 -1      3043 9.41268E+00-5.05010E-01 8.67146E-02 3.07303E+00-1.19335E-13 6.60569E-13
 -1      3044 2.25746E+01-4.88297E+00 2.93280E-02-4.77254E+00-1.97731E-13-6.30572E-14
 -1      3045 2.30049E+01-4.16597E+00 7.38827E-02-3.14311E+00 1.52281E-13-1.21771E-13
 -1      3046 2.81176E+01-3.80477E-01-7.15487E-02 1.21600E+00 2.24612E-13 2.79041E-13
 -1      3047 2.81952E+01 1.29869E+00-7.87515E-02-1.77449E+00 1.58096E-13-4.99822E-13
 -1      3048 1.50806E+01-3.97287E+00 9.24884E-03-6.01854E+00 2.84453E-13 3.35842E-13
 -1      3049 1.77674E+01-3.64067E+00 1.48103E-01-5.22408E+00 2.72463E-13 1.97474E-13
 -1      3050 1.21183E+01-2.95520E+00 1.37126E-01-5.48633E+00 2.81497E-13 5.78565E-13
 -1      3051 1.68014E+01 3.86859E+00-4.49017E-03-2.50420E-01-1.76440E-13-3.13917E-13
 -1      3052 1.69679E+01 3.82033E+00-5.47841E-03-1.42605E-01-2.08265E-13-2.82418E-13
 -1      3053 1.70450E+01 3.51397E+00 1.24663E-02 5.54648E-02-1.87684E-13-2.52489E-13
 -1      3054 1.66973E+01 3.61803E+00 1.12519E-02-3.65581E-01-1.69298E-13-3.18373E-13
 -1      3055 2.78768E+01-2.72353E+00-6.27213E-03 4.19249E-01-4.52763E-14-4.79408E-13
 -1      3056 2.67670E+01-3.40275E+00-1.06911E-03 7.69944E-01-1.14877E-13-4.67099E-13
 -1      3057 2.76523E+01-1.74876E+00-1.67721E-01-7.73712E-01 2.18714E-14-5.65097E-13
 -1      3058 1.00901E+01-6.49799E-01 1.56092E-01 3.51052E+00 9.99062E-14-5.67796E-13
 -1      3059 8.42144E+00 3.79165E-01 1.76026E-01-1.97390E-01-9.87509E-14-6.00714E-13
 -1      3060 2.15269E+01-4.78429E+00 1.45274E-01 4.85160E+00 2.59334E-13-1.43816E-13
 -1      3061 2.02440E+01-4.13569E+00 8.45759E-02 4.94239E+00 2.40793E-13-1.92939E-13
 -1      3062 1.03899E+01-6.46053E-01 1.69505E-01-4.09268E+00-2.38420E-13-5.70960E-13
 -1      3063 2.40627E+01-5.07205E+00-5.11350E-02 3.66714E+00 2.08306E-13-4.56059E-14
 -1      3064 2.08735E+01 1.04493E+00 1.38724E-03-2.40203E-01 1.02630E-13-1.21987E-13
 -1      3065 2.04350E+01 1.27167E+00 2.96062E-03-4.14757E-01 5.09994E-14-1.35185E-13
 -1      3066 1.94845E+01 2.34418E+00 4.74905E-03 5.96992E-01-2.06489E-13-8.67298E-14
 -1      3067 1.99742E+01 7.09199E-01 1.40326E-02 1.85220E+00-5.97122E-14-5.60580E-14
 -1      3068 2.01703E+01 2.12158E-01 1.58298E-02 2.10544E+00-3.48211E-14-6.05791E-14
 -1      3069 2.03101E+01-3.53290E-01 2.33894E-02 2.46524E+00 9.23036E-15-3.27305E-14
 -1      3070 2.07617E+01-1.02903E+00 2.52561E-02 2.62259E+00 6.37494E-14-1.99178E-14
 -1      3071 1.91979E+01 1.36069E-01-1.38662E-02 2.48307E+00 1.11434E-14-1.01730E-13
 -1      3072 2.12512E+01-1.78098E+00 5.66396E-02 2.91082E+00 1.20129E-13 2.27730E-14
 -1      3073 2.20686E+01-2.65678E+00 3.14639E-02 2.87248E+00 1.50654E-13 4.55200E-14
 -1      3074 1.96758E+01-1.34404E+00-3.04034E-02 3.26123E+00 1.09927E-13-8.54108E-14
 -1      3075 2.33234E+01-3.64375E+00 8.70250E-02 2.89973E+00 1.75996E-13 6.49155E-14
 -1      3076 2.45533E+01-4.29643E+00 3.06453E-02 2.45572E+00 1.82077E-13 8.25598E-14
 -1      3077 1.96273E+01 1.85137E+00 6.51971E-03 9.71974E-01-1.51496E-13-8.99177E-14
 -1      3078 1.97187E+01 1.25088E+00 6.50302E-03 1.47740E+00-9.94361E-14-8.77089E-14
 -1      3079 1.88828E+01 1.30989E+00-1.48653E-02 1.67201E+00-7.37904E-14-1.43760E-13
 -1      3080 1.85557E+01 2.34238E+00-1.67888E-02 8.96682E-01-1.72830E-13-1.63395E-13
 -1      3081 2.14152E+01-2.28164E+00 4.72632E-02-2.83458E+00 7.15981E-14 3.62158E-14
 -1      3082 2.06253E+01-1.54135E+00 4.71569E-02-2.88310E+00 1.87241E-14 3.11793E-14
 -1      3083 2.02632E+01-9.63862E-01 2.15206E-02-2.65226E+00 6.71715E-14 6.77177E-14
 -1      3084 1.98835E+01-4.68778E-01 1.20823E-02-2.56048E+00 7.02727E-14 1.24037E-13
 -1      3085 1.92255E+01-1.24380E+00-2.89889E-02-3.15819E+00 8.59954E-14 1.03011E-13
 -1      3086 1.98245E+01-8.98590E-02 1.67984E-02-2.31967E+00 1.73887E-14 1.30727E-13
 -1      3087 1.96380E+01 1.87485E-01 7.25396E-04-2.18896E+00 7.80168E-14 1.30611E-13
 -1      3088 1.89289E+01-1.64720E-01-1.03860E-02-2.58290E+00 6.50539E-14 1.83482E-13
 -1      3089 1.96960E+01 3.91086E-01 9.83413E-03-1.98754E+00 1.12078E-13 1.14214E-13
 -1      3090 1.96183E+01 5.24096E-01-3.17999E-03-1.84933E+00 4.09090E-14 4.11718E-14
 -1      3091 1.89726E+01 4.18159E-01-2.18073E-03-2.11522E+00 3.05310E-14 1.17671E-13
 -1      3092 1.97152E+01 6.12655E-01 6.03837E-03-1.68201E+00-2.15317E-15 7.79179E-14
 -1      3093 1.96871E+01 6.56222E-01-4.33609E-03-1.54834E+00-5.62033E-14 5.02290E-14
 -1      3094 1.91385E+01 6.94857E-01 1.71260E-03-1.74363E+00 3.62084E-14 2.58073E-14
 -1      3095 1.97864E+01 6.76031E-01 3.97315E-03-1.40741E+00-8.18393E-14 7.52559E-14
 -1      3096 1.97770E+01 6.69187E-01-4.35247E-03-1.28330E+00 2.23434E-14-7.80008E-15
 -1      3097 1.93321E+01 7.84042E-01 3.17604E-03-1.44123E+00-6.66089E-14 1.54468E-13
 -1      3098 1.98636E+01 6.51819E-01 2.92338E-03-1.16298E+00 1.09492E-13-7.35273E-15
 -1      3099 1.98586E+01 6.19671E-01-3.93742E-03-1.05111E+00 9.21267E-14 2.52716E-14
 -1      3100 1.95096E+01 7.67202E-01 3.33892E-03-1.18785E+00 7.01952E-14 2.02757E-13
 -1      3101 1.99280E+01 5.84904E-01 2.38662E-03-9.47994E-01 3.57418E-15 8.40184E-14
 -1      3102 1.99219E+01 5.42560E-01-3.37847E-03-8.49692E-01-1.34719E-14 1.43084E-13
 -1      3103 1.96553E+01 6.96565E-01 2.91895E-03-9.71460E-01 8.83479E-14 7.01573E-14
 -1      3104 1.99747E+01 5.01948E-01 2.07390E-03-7.61782E-01-2.91102E-14 1.20529E-13
 -1      3105 1.99663E+01 4.57921E-01-2.80319E-03-6.77373E-01-5.21969E-14 2.18476E-13
 -1      3106 1.97673E+01 6.03746E-01 2.31849E-03-7.85815E-01-1.21880E-14 1.05297E-13
 -1      3107 2.00051E+01 4.17747E-01 1.83972E-03-6.03239E-01-1.49648E-13 1.78813E-13
 -1      3108 1.99950E+01 3.76454E-01-2.27291E-03-5.32251E-01-1.58766E-13 1.75160E-13
 -1      3109 1.98495E+01 5.06849E-01 1.72871E-03-6.27480E-01-1.03672E-13 5.64177E-14
 -1      3110 2.00225E+01 3.39796E-01 1.62505E-03-4.70587E-01-4.18953E-14 1.46355E-13
 -1      3111 2.00118E+01 3.03218E-01-1.81122E-03-4.12005E-01-2.31704E-14 2.34606E-13
 -1      3112 1.99076E+01 4.15479E-01 1.22582E-03-4.94010E-01-1.36802E-13 1.34383E-13
 -1      3113 2.00309E+01 2.71313E-01 1.41305E-03-3.61480E-01-5.45664E-14 2.58301E-13
 -1      3114 2.00203E+01 2.40070E-01-1.42236E-03-3.13971E-01 4.00813E-15 2.44954E-13
 -1      3115 1.99473E+01 3.34106E-01 8.33285E-04-3.83123E-01 3.27869E-14 1.10808E-13
 -1      3116 2.00332E+01 2.13158E-01 1.20487E-03-2.73207E-01 1.23227E-14 2.28265E-13
 -1      3117 2.00234E+01 1.87149E-01-1.10236E-03-2.35303E-01 2.28712E-14 1.99805E-13
 -1      3118 1.99736E+01 2.64244E-01 5.41687E-04-2.92437E-01-2.49382E-14 1.74363E-13
 -1      3119 2.00319E+01 1.64960E-01 1.00722E-03-2.02925E-01 3.61932E-14 2.22609E-13
 -1      3120 2.00233E+01 1.43734E-01-8.43289E-04-1.73158E-01 1.12535E-13 2.82359E-13
 -1      3121 1.99904E+01 2.05813E-01 3.34717E-04-2.19447E-01 1.92151E-14 2.24223E-13
 -1      3122 2.00287E+01 1.25772E-01 8.25968E-04-1.47842E-01-1.85477E-14 2.34485E-13
 -1      3123 2.00214E+01 1.08737E-01-6.36615E-04-1.24828E-01-9.65323E-14 2.55221E-13
 -1      3124 2.00005E+01 1.57926E-01 1.92697E-04-1.61637E-01 6.15333E-14 2.64726E-13
 -1      3125 2.00246E+01 9.44258E-02 6.65061E-04-1.05347E-01-1.51783E-13 2.59315E-13
 -1      3126 2.00186E+01 8.09623E-02-4.73810E-04-8.78341E-02-1.17412E-13 2.61548E-13
 -1      3127 2.00062E+01 1.19347E-01 9.86647E-05-1.16581E-01-9.57749E-14 5.84614E-14
 -1      3128 2.00204E+01 6.97281E-02 5.25935E-04-7.30903E-02-1.19780E-13 3.08252E-13
 -1      3129 2.00156E+01 5.92408E-02-3.47428E-04-5.99833E-02-2.49454E-13 3.26641E-13
 -1      3130 2.00090E+01 8.87484E-02 3.87539E-05-8.20358E-02-1.64256E-13-6.94018E-15
 -1      3131 2.00165E+01 5.05478E-02 4.08596E-04-4.90188E-02-3.06308E-13 3.21593E-13
 -1      3132 2.00127E+01 4.24958E-02-2.50604E-04-3.93850E-02-1.51556E-13 3.32583E-13
 -1      3133 2.00099E+01 6.48337E-02 1.88724E-06-5.59951E-02-2.71703E-13-5.94664E-15
 -1      3134 2.00130E+01 3.58663E-02 3.11793E-04-3.13880E-02-1.93255E-13 1.97079E-13
 -1      3135 2.00101E+01 2.97765E-02-1.77136E-04-2.44499E-02-1.99453E-13-5.08844E-14
 -1      3136 2.00098E+01 4.64134E-02-1.89279E-05-3.67194E-02-2.43429E-13-3.56519E-14
 -1      3137 2.00100E+01 2.47990E-02 2.33451E-04-1.87457E-02-1.07632E-13-1.63730E-13
 -1      3138 2.00078E+01 2.02686E-02-1.22024E-04-1.38663E-02-1.20284E-13-9.99899E-14
 -1      3139 2.00090E+01 3.24366E-02-2.93232E-05-2.27383E-02-3.00806E-13-2.63947E-13
 -1      3140 2.00075E+01 1.65953E-02 1.71252E-04-9.90302E-03-7.44047E-14-2.03314E-13
 -1      3141 2.00060E+01 1.32863E-02-8.12852E-05-6.56914E-03-3.03829E-14-2.41471E-13
 -1      3142 2.00079E+01 2.20034E-02-3.31317E-05-1.28310E-02-1.52967E-13-2.53532E-13
 -1      3143 2.00055E+01 1.06275E-02 1.22770E-04-3.90388E-03-2.35775E-14-2.26262E-13
 -1      3144 2.00044E+01 8.26080E-03-5.17098E-05-1.70931E-03 6.76289E-14-2.08789E-13
 -1      3145 2.00067E+01 1.43549E-02-3.29198E-05-6.00291E-03-5.05228E-14-2.68991E-13
 -1      3146 2.00040E+01 6.37878E-03 8.56628E-05 6.99853E-06 1.54677E-13-1.15183E-13
 -1      3147 2.00032E+01 4.72665E-03-3.07102E-05 1.37839E-03 1.63834E-13-1.38134E-13
 -1      3148 2.00055E+01 8.86139E-03-3.04123E-05-1.45939E-03 1.11693E-13-1.97530E-13
 -1      3149 2.00028E+01 3.42839E-03 5.78101E-05 2.41574E-03 1.26170E-13-2.06105E-13
 -1      3150 2.00022E+01 2.30719E-03-1.62254E-05 3.20544E-03 6.54279E-14-3.45784E-13
 -1      3151 2.00044E+01 5.00712E-03-2.67510E-05 1.42269E-03 7.02137E-14-2.80855E-13
 -1      3152 2.00018E+01 1.43762E-03 3.73666E-05 3.76853E-03 3.46321E-14-2.76460E-13
 -1      3153 2.00015E+01 7.00463E-04-6.63803E-06 4.15708E-03 9.59890E-14-3.15642E-13
 -1      3154 2.00034E+01 2.37476E-03-2.26775E-05 3.12269E-03 8.09683E-14-2.68743E-13
 -1      3155 2.00011E+01 1.35723E-04 2.27840E-05 4.39752E-03 3.92500E-14-2.62919E-13
 -1      3156 2.00009E+01-3.34373E-04-6.96479E-07 4.51634E-03 7.62785E-14-1.43286E-13
 -1      3157 2.00026E+01 6.29532E-04-1.86810E-05 4.00161E-03 2.07426E-13-1.97344E-13
 -1      3158 2.00006E+01-6.93099E-04 1.27417E-05 4.54323E-03 2.74441E-14-1.78637E-13
 -1      3159 2.00005E+01-9.89040E-04 2.84010E-06 4.48444E-03-5.18336E-14-2.34778E-13
 -1      3160 2.00018E+01-4.95338E-04-1.49800E-05 4.32463E-03 6.04875E-14-4.97523E-13
 -1      3161 2.00002E+01-1.22324E-03 5.62879E-06 4.37362E-03-2.08358E-13-2.66517E-14
 -1      3162 2.00002E+01-1.41922E-03 3.42916E-06 4.19822E-03-2.76096E-13-8.02948E-14
 -1      3163 2.00012E+01-1.21134E-03-1.15322E-05 4.28023E-03-2.56640E-14-4.64219E-13
 -1      3164 2.00000E+01-1.57522E-03 4.64019E-06 3.99258E-03-3.18205E-13-6.54762E-14
 -1      3165 1.99999E+01-1.76168E-03-1.15859E-05 3.75446E-03-1.31124E-13-2.01532E-13
 -1      3166 2.00008E+01-1.69475E-03-5.25862E-06 3.99739E-03-2.21675E-13-2.15463E-13
 -1      3167 2.29392E+01-1.34213E+00-1.46935E-02 3.63337E-01 3.80225E-14 9.23922E-14
 -1      3168 2.27888E+01-1.21281E+00 1.78342E-02 1.07306E-01 3.28534E-14 1.06357E-13
 -1      3169 2.30569E+01 2.45612E+00-9.35861E-04 9.89398E-01 2.26427E-13 5.64746E-14
 -1      3170 2.31776E+01 1.84503E+00-4.80472E-02 1.46161E+00 2.06033E-13 6.13897E-14
 -1      3171 2.34457E+01 1.09400E+00 1.18622E-02 1.74007E+00 1.41540E-13 8.65509E-14
 -1      3172 2.35446E+01 3.13231E-01-4.50732E-02 1.82930E+00 4.70492E-14 1.03477E-13
 -1      3173 2.40447E+01 1.68538E+00-1.65115E-02 1.78294E+00 1.92490E-13 1.70249E-13
 -1      3174 2.31325E+01 1.87124E+00-5.26823E-02-1.59611E+00 1.43544E-13-8.51298E-14
 -1      3175 2.30422E+01 2.48231E+00 3.78583E-03-1.13866E+00 2.06748E-13-1.08755E-13
 -1      3176 2.35082E+01 3.46387E-01-4.00133E-02-2.01641E+00 1.23875E-13-8.82124E-14
 -1      3177 2.33897E+01 1.14437E+00 1.25874E-02-1.92024E+00 1.67448E-13-6.27384E-14
 -1      3178 2.39707E+01 1.84089E+00-1.15946E-02-1.96539E+00 1.38202E-13-1.80416E-13
 -1      3179 2.35716E+01-9.14647E-01-1.83822E-02-1.59593E+00 8.34879E-14-2.07611E-13
 -1      3180 2.35543E+01-3.60707E-01-1.42403E-03-1.81676E+00 1.32798E-13-1.09333E-13
 -1      3181 2.41962E+01-7.78765E-02 3.60529E-03-1.97959E+00 1.46664E-13-1.94154E-13
 -1      3182 2.32326E+01-1.48220E+00 2.19223E-03-8.27422E-01-8.31165E-14-1.54865E-13
 -1      3183 2.33397E+01-1.28099E+00-1.03604E-02-1.17076E+00-1.42747E-14-1.67288E-13
 -1      3184 2.39103E+01-1.35378E+00 4.08884E-03-1.26361E+00 1.76721E-14-2.75122E-13
 -1      3185 2.26473E+01-1.47386E+00 1.26683E-02-8.40773E-02-1.59798E-13-4.41652E-14
 -1      3186 2.28347E+01-1.53766E+00-1.39296E-02-4.05170E-01-1.42903E-13-3.04014E-14
 -1      3187 2.32371E+01-1.81854E+00-5.09967E-03-3.74989E-01-1.65136E-13-1.33229E-13
 -1      3188 2.20179E+01-1.16080E+00 1.42667E-02 4.57810E-01-5.03571E-14-4.23683E-14
 -1      3189 2.22300E+01-1.34650E+00-1.10560E-02 2.20162E-01-5.58843E-14-3.25254E-14
 -1      3190 2.24276E+01-1.67275E+00-1.17535E-02 3.41549E-01-1.13189E-13-4.98442E-14
 -1      3191 2.14693E+01-7.62996E-01 1.17501E-02 7.80332E-01-1.01286E-13 2.25735E-14
 -1      3192 2.16664E+01-9.69124E-01-6.75091E-03 6.34011E-01-7.43419E-14 2.78851E-14
 -1      3193 2.16934E+01-1.24677E+00-1.34701E-02 7.90893E-01-9.17525E-14-6.64151E-14
 -1      3194 2.10441E+01-4.03395E-01 8.25914E-03 9.27698E-01 6.34156E-14 7.28841E-14
 -1      3195 2.12088E+01-5.78736E-01-3.19613E-03 8.57193E-01-2.04359E-14 7.09665E-14
 -1      3196 2.11222E+01-7.74480E-01-1.15394E-02 1.01186E+00-8.49229E-14-1.21229E-13
 -1      3197 2.07364E+01-1.29476E-01 5.14118E-03 9.54395E-01 2.23385E-14 7.68052E-14
 -1      3198 2.08665E+01-2.57662E-01-8.67919E-04 9.38551E-01 9.56802E-14 1.45003E-13
 -1      3199 2.07188E+01-3.73221E-01-8.43944E-03 1.07436E+00 1.56233E-14 1.99150E-14
 -1      3200 2.05221E+01 5.45240E-02 2.79384E-03 9.05942E-01 5.02687E-15 1.11597E-13
 -1      3201 2.06224E+01-2.83755E-02 4.73409E-04 9.25685E-01-1.12664E-14 8.10838E-14
 -1      3202 2.04517E+01-7.98141E-02-5.63249E-03 1.03915E+00 3.50410E-14 1.90813E-13
 -1      3203 2.03750E+01 1.62989E-01 1.20111E-03 8.15591E-01-9.32681E-15 1.84979E-13
 -1      3204 2.04522E+01 1.16484E-01 1.19913E-03 8.55983E-01-6.05510E-16 1.98542E-13
 -1      3205 2.02830E+01 1.10523E-01-3.52432E-03 9.49277E-01-4.89041E-14 1.78345E-13
 -1      3206 2.02740E+01 2.15317E-01 2.07954E-04 7.06221E-01-9.82014E-14 2.11626E-13
 -1      3207 2.03339E+01 1.95053E-01 1.55993E-03 7.56445E-01-2.19029E-14 1.48759E-13
 -1      3208 2.01799E+01 2.18060E-01-2.09988E-03 8.33117E-01 9.47643E-15 3.16894E-13
 -1      3209 2.02037E+01 2.29602E-01-3.54409E-04 5.92857E-01-8.95055E-14 8.70932E-14
 -1      3210 2.02507E+01 2.26648E-01 1.69647E-03 6.45565E-01-7.60199E-14 1.53783E-13
 -1      3211 2.01185E+01 2.65755E-01-1.20338E-03 7.08834E-01-3.00932E-14 3.46720E-13
 -1      3212 2.01535E+01 2.20357E-01-6.28951E-04 4.84773E-01-1.51097E-13-4.14241E-14
 -1      3213 2.01908E+01 2.27782E-01 1.68933E-03 5.35331E-01-5.23398E-14 5.25445E-14
 -1      3214 2.00821E+01 2.73770E-01-6.75282E-04 5.87693E-01-7.25836E-16 2.00545E-13
 -1      3215 2.01168E+01 1.98169E-01-7.22738E-04 3.87176E-01-1.05141E-13-8.09980E-14
 -1      3216 2.01465E+01 2.11031E-01 1.59218E-03 4.32937E-01-1.75312E-13-1.17830E-13
 -1      3217 2.00604E+01 2.57795E-01-3.84137E-04 4.76233E-01-8.81180E-14-1.82227E-13
 -1      3218 2.00892E+01 1.70249E-01-7.09895E-04 3.02490E-01-9.11888E-14-1.40063E-13
 -1      3219 2.01130E+01 1.85245E-01 1.44135E-03 3.42203E-01-6.69030E-14-1.19602E-13
 -1      3220 2.00469E+01 2.29084E-01-2.30849E-04 3.77816E-01-9.19485E-14-1.69420E-13
 -1      3221 2.00681E+01 1.41204E-01-6.40653E-04 2.31293E-01-7.72555E-14-1.40280E-13
 -1      3222 2.00870E+01 1.56267E-01 1.26269E-03 2.64636E-01-1.05575E-13-9.96828E-14
 -1      3223 2.00379E+01 1.95202E-01-1.55804E-04 2.93680E-01-1.11660E-13-1.67779E-13
 -1      3224 2.00517E+01 1.13752E-01-5.46649E-04 1.73012E-01-9.56437E-14 3.59424E-14
 -1      3225 2.00667E+01 1.27697E-01 1.07609E-03 2.00242E-01-5.98424E-14-6.09362E-14
 -1      3226 2.00314E+01 1.60927E-01-1.21641E-04 2.23667E-01-1.37850E-13-1.50854E-13
 -1      3227 2.00390E+01 8.93193E-02-4.47286E-04 1.26419E-01 2.23330E-14 2.28426E-13
 -1      3228 2.00506E+01 1.01556E-01 8.95113E-04 1.48121E-01-3.02770E-14 1.48467E-13
 -1      3229 2.00262E+01 1.29030E-01-1.06089E-04 1.66771E-01-5.49010E-14-4.26097E-14
 -1      3230 2.00290E+01 6.84844E-02-3.53493E-04 8.99779E-02-7.75274E-14 3.37821E-13
 -1      3231 2.00380E+01 7.88089E-02 7.28287E-04 1.06889E-01 2.16162E-14 3.19738E-13
 -1      3232 2.00219E+01 1.00920E-01-9.76248E-05 1.21528E-01-5.36278E-14 1.03930E-13
 -1      3233 2.00213E+01 5.12989E-02-2.71192E-04 6.20706E-02 7.40927E-14 3.87108E-14
 -1      3234 2.00281E+01 5.97420E-02 5.80248E-04 7.49654E-02-2.01250E-14 3.55736E-13
 -1      3235 2.00181E+01 7.71132E-02-9.12013E-05 8.62828E-02-6.20070E-15 1.43299E-13
 -1      3236 2.00153E+01 3.75091E-02-2.02275E-04 4.11467E-02 9.83229E-14 1.23292E-13
 -1      3237 2.00204E+01 4.42341E-02 4.53122E-04 5.07661E-02 7.67251E-14 5.23758E-14
 -1      3238 2.00148E+01 5.75761E-02-8.46579E-05 5.93729E-02 8.53565E-14 2.10194E-13
 -1      3239 2.00107E+01 2.67098E-02-1.46548E-04 2.58060E-02 1.96260E-13 7.77001E-15
 -1      3240 2.00144E+01 3.19407E-02 3.46875E-04 3.28168E-02 2.06153E-13 1.14055E-13
 -1      3241 2.00119E+01 4.19622E-02-7.68529E-05 3.92453E-02 1.28925E-13 1.90227E-13
 -1      3242 2.00073E+01 1.84443E-02-1.02752E-04 1.48337E-02 2.40867E-13 9.68454E-14
 -1      3243 2.00099E+01 2.24214E-02 2.60052E-04 1.98124E-02 2.17834E-13 5.87332E-14
 -1      3244 2.00095E+01 2.97760E-02-6.81014E-05 2.45189E-02 1.78725E-13-6.56150E-14
 -1      3245 2.00048E+01 1.22611E-02-6.92411E-05 7.20773E-03-6.75100E-14 3.17419E-13
 -1      3246 2.00066E+01 1.52160E-02 1.90621E-04 1.06375E-02 7.02763E-14 2.20077E-13
 -1      3247 2.00074E+01 2.04779E-02-5.89686E-05 1.40057E-02 7.64381E-14 8.62428E-14
 -1      3248 2.00029E+01 7.74447E-03-4.42941E-05 2.09116E-03-6.17273E-14 3.48649E-13
 -1      3249 2.00042E+01 9.88715E-03 1.36249E-04 4.36557E-03-6.08621E-14 3.71341E-13
 -1      3250 2.00056E+01 1.35430E-02-4.99233E-05 6.71211E-03-1.58335E-13 3.15193E-13
 -1      3251 2.00016E+01 4.52914E-03-2.62668E-05-1.18489E-03-1.10240E-13 2.93033E-13
 -1      3252 2.00024E+01 6.04197E-03 9.45276E-05 2.47170E-04-7.39643E-14 3.01597E-13
 -1      3253 2.00042E+01 8.49242E-03-4.13410E-05 1.82814E-03-7.18603E-14 3.95435E-13
 -1      3254 2.00007E+01 2.30498E-03-1.36995E-05-3.14252E-03 2.29548E-14 6.86251E-14
 -1      3255 2.00012E+01 3.34161E-03 6.31855E-05-2.30983E-03-6.00229E-14 1.18778E-13
 -1      3256 2.00031E+01 4.90791E-03-3.34910E-05-1.29114E-03 1.71845E-14 1.21096E-13
 -1      3257 2.00001E+01 8.14665E-04-5.34897E-06-4.17960E-03 4.20090E-14-1.74819E-13
 -1      3258 2.00004E+01 1.50180E-03 4.01905E-05-3.76238E-03 7.42951E-14 6.09500E-14
 -1      3259 2.00021E+01 2.43566E-03-2.65480E-05-3.14774E-03 9.26704E-15-1.44494E-13
 -1      3260 1.99998E+01-1.51914E-04-1.79908E-07-4.59114E-03 2.41588E-13-2.35724E-13
 -1      3261 1.99999E+01 2.88776E-04 2.38305E-05-4.45425E-03 7.57011E-14-1.94858E-13
 -1      3262 2.00014E+01 7.82890E-04-2.05719E-05-4.12325E-03 1.12246E-13-3.19800E-13
 -1      3263 1.99995E+01-7.65224E-04 2.28745E-06-4.58841E-03-6.47360E-14-4.73820E-16
 -1      3264 1.99995E+01-4.87930E-04 1.25107E-05-4.63624E-03 2.14228E-13-7.06791E-14
 -1      3265 2.00009E+01-2.88870E-04-1.54191E-05-4.50004E-03 1.15534E-13-4.12188E-14
 -1      3266 1.99994E+01-1.16107E-03 8.35715E-07-4.31454E-03-1.35732E-13-1.57980E-13
 -1      3267 1.99994E+01-9.85288E-04 2.90431E-06-4.48207E-03-1.93413E-13-8.93727E-14
 -1      3268 2.00005E+01-9.68411E-04-8.19813E-06-4.48132E-03-1.12543E-13 2.03414E-13
 -1      3269 2.00024E+01-3.03047E-03-3.22745E-07 1.35708E-03 2.48372E-13-3.04371E-13
 -1      3270 2.00025E+01-3.09497E-03 5.41679E-06 8.48701E-04 2.66485E-13-4.26295E-13
 -1      3271 2.00012E+01-2.45280E-03-8.46390E-06 3.09230E-03 6.75793E-14-4.44298E-13
 -1      3272 2.00016E+01-2.65404E-03 1.08389E-05 2.77528E-03 1.09787E-13-2.06764E-13
 -1      3273 2.00026E+01-3.12306E-03 2.69879E-06 2.64168E-04 1.54154E-13-7.07024E-13
 -1      3274 2.00026E+01-3.12140E-03 2.52146E-06-2.77047E-04 3.10560E-13-4.88508E-13
 -1      3275 2.00030E+01-2.81516E-03-3.24481E-06 5.78139E-04 1.48628E-13-5.62209E-13
 -1      3276 2.68739E+01 2.21715E+00-1.55837E-02 2.18806E+00 3.55493E-13 2.54172E-13
 -1      3277 2.61453E+01 3.64956E+00-1.59389E-01 1.78308E+00 3.98570E-13 1.25462E-13
 -1      3278 2.73163E+01-1.38283E+00-2.70353E-02 1.00223E+00 8.51680E-14 3.05457E-13
 -1      3279 2.71482E+01 2.49615E-01-1.44611E-01 1.81640E+00 2.46296E-13 2.99677E-13
 -1      3280 2.07755E+01-4.47213E+00-4.17497E-02 4.77240E+00-3.21278E-13-3.41078E-13
 -1      3281 1.84131E+01-3.72040E+00 8.13461E-02 5.34840E+00-2.94209E-13-3.25226E-14
 -1      3282 2.55510E+01 4.36335E+00-1.31291E-01-1.33429E+00 3.60226E-13-1.59527E-13
 -1      3283 2.61831E+01 3.34859E+00-4.40207E-02-2.13225E+00 2.63706E-13-2.96929E-13
 -1      3284 2.23927E+01-1.01230E+00-1.18858E-02-1.16300E-01 1.04955E-14 7.66209E-14
 -1      3285 2.22250E+01-7.36090E-01 1.66630E-02-2.52724E-01 1.91855E-14 4.79602E-14
 -1      3286 2.25947E+01-1.30958E+00-1.34847E-02-2.46228E-01 1.18265E-14 1.00433E-13
 -1      3287 2.00019E+01-2.80691E-03-2.72972E-06 2.33674E-03 2.16162E-13-1.04445E-13
 -1      3288 2.00022E+01-2.94012E-03 8.60229E-06 1.89239E-03 2.55171E-13-1.97371E-13
 -1      3289 2.00027E+01-2.71398E-03-3.15796E-06 1.71218E-03 3.06497E-13-2.81638E-13
 -1      3290 2.00021E+01-2.49990E-03-3.01656E-06 2.69678E-03 2.13292E-13-2.72909E-13
 -1      3291 2.29040E+01 2.81735E+00-2.16279E-02-3.87768E-01 2.85912E-13-4.79538E-14
 -1      3292 2.29208E+01 2.80139E+00-2.09973E-02 2.57935E-01 2.76029E-13-2.61846E-15
 -1      3293 2.36552E+01 3.10293E+00-4.57358E-02 7.11914E-01 2.86007E-13 2.01783E-14
 -1      3294 2.36722E+01 3.19642E+00-2.25804E-02-8.54915E-01 2.61919E-13-1.24987E-13
 -1      3295 2.17519E+01-3.42776E+00 6.32738E-02-3.39466E+00 1.66801E-13-3.68412E-14
 -1      3296 2.60397E+01-3.81460E+00-2.38666E-02-3.58238E-01-8.67882E-15-9.87830E-14
 -1      3297 2.15382E+01 5.01981E-01 7.63637E-03-9.67629E-02 1.30348E-13-9.46026E-14
 -1      3298 2.11712E+01 8.24934E-01 1.80393E-03-1.42087E-01 1.18083E-13-1.01949E-13
 -1      3299 2.11419E+01 5.11674E-01-9.97525E-06-3.99489E-01 7.02302E-14-6.99221E-14
 -1      3300 2.16224E+01 1.35291E-01-9.97589E-03-2.28066E-01 1.06706E-13-6.23722E-14
 -1      3301 2.00001E+01-2.09976E-03-4.96784E-06-3.31218E-03-1.40912E-13-6.21488E-14
 -1      3302 1.02039E+01 3.81811E-01 1.25519E-01-2.91543E+00-2.10477E-13-5.47978E-13
 -1      3303 1.22454E+01-5.99557E-01 4.84552E-02-4.44173E+00-2.75703E-13-4.70429E-13
 -1      3304 1.19353E+01-9.01226E-01 8.96921E-02 4.31393E+00 1.45536E-13-4.86222E-13
 -1      3305 1.05299E+01 1.72255E-01 8.06932E-02 2.77931E+00 4.86000E-14-4.98240E-13
 -1      3306 9.69458E+00 8.83400E-01 7.36928E-02 5.65922E-01-6.26925E-14-5.28924E-13
 -1      3307 9.42944E+00 8.25391E-01 1.04573E-01-1.43889E+00-1.45215E-13-5.44648E-13
 -1      3308 1.14226E+01 9.65923E-01 1.16522E-01-2.00629E+00-1.80961E-13-4.96422E-13
 -1      3309 2.18723E+01-4.44499E+00 3.11723E-02-4.61002E+00-2.52021E-13-2.31083E-14
 -1      3310 2.41312E+01-4.66122E+00-5.51170E-03-3.68457E+00-1.78031E-13-3.78864E-15
 -1      3311 1.68166E+01-2.72407E+00 3.55625E-02 5.15529E+00 2.54227E-13-3.01537E-13
 -1      3312 1.41230E+01-1.74718E+00 1.15365E-01 4.91985E+00 2.12719E-13-4.22690E-13
 -1      3313 1.45242E+01-8.79753E-01 1.37508E-01 4.13376E+00 1.35461E-13-3.89556E-13
 -1      3314 2.49640E+01-4.33064E+00-6.23281E-02 2.12735E+00-2.17076E-13-4.02084E-13
 -1      3315 2.32369E+01-4.48583E+00 7.18294E-02 3.44795E+00-3.15623E-13-3.36222E-13
 -1      3316 2.11347E+01-3.36764E+00-4.21689E-02 3.82098E+00 1.93463E-13-5.40124E-14
 -1      3317 1.91905E+01-2.87207E+00 9.16859E-02 4.51948E+00 2.29733E-13-2.08760E-13
 -1      3318 1.77909E+01 2.57137E+00 1.26526E-02-1.12386E+00-1.07671E-13-2.76438E-13
 -1      3319 1.72826E+01 2.77044E+00-1.73887E-02-1.10721E+00-1.45921E-13-3.00957E-13
 -1      3320 2.67036E+01 1.71297E+00-1.54775E-01-2.25057E+00 2.04933E-13-3.44884E-13
 -1      3321 2.77672E+01 8.12543E-02-3.29377E-02-1.76962E+00 9.47714E-14-4.35665E-13
 -1      3322 2.69911E+01-9.66643E-01-1.97495E-02-1.39077E+00 7.74311E-14-3.69503E-13
 -1      3323 1.96238E+01-3.06683E+00-4.99549E-02-4.13777E+00 1.50591E-13-2.01089E-14
 -1      3324 1.68700E+01 3.07158E+00 9.63973E-03-9.57105E-01-1.49276E-13-3.16800E-13
 -1      3325 1.65561E+01 3.19297E+00-1.81694E-02-8.09267E-01-1.60492E-13-3.30224E-13
 -1      3326 1.70027E+01 2.59595E+00 5.88286E-03-1.24161E+00-1.37428E-13-2.93533E-13
 -1      3327 1.41363E+01-1.01428E+00 1.38903E-01-4.86654E+00-2.94924E-13-3.85990E-13
 -1      3328 1.60402E+01-1.66530E+00 2.67107E-02-4.87098E+00-3.10585E-13-2.76265E-13
 -1      3329 1.36030E+01-9.29823E-02 5.48208E-02-3.93639E+00-2.47295E-13-4.02983E-13
 -1      3330 2.58845E+01-3.15976E+00-1.04785E-01 1.05459E-01-6.77305E-14-3.02933E-13
 -1      3331 2.57048E+01-3.77003E+00 1.82445E-02 1.10431E+00-1.59088E-13-3.57877E-13
 -1      3332 2.45681E+01-3.75171E+00 5.62885E-03 1.46130E+00-1.59768E-13-1.95187E-13
 -1      3333 2.00016E+01-2.63314E-03 1.13304E-05-2.77758E-03 5.48857E-14 2.83859E-13
 -1      3334 2.00011E+01-2.43554E-03-1.02553E-05-3.09432E-03-6.01129E-14 6.11563E-13
 -1      3335 9.78689E+00 1.87462E-01 7.88436E-02-1.32192E+00 4.39128E-14 3.97390E-13
 -1      3336 1.04826E+01-2.43075E-01 1.12665E-01-2.83920E+00 8.14938E-14 4.95812E-13
 -1      3337 2.00007E+01-2.18938E-03 1.83886E-05-3.41499E-03-2.33122E-15 4.84601E-13
 -1      3338 1.99999E+01-1.78939E-03-1.17696E-05-3.61148E-03-1.17690E-13-2.29827E-13
 -1      3339 1.99997E+01-1.63203E-03-1.64464E-05-3.83786E-03-9.16578E-14-1.47293E-13
 -1      3340 2.00011E+01-2.11948E-03-5.24103E-06-3.45826E-03-8.31929E-15 4.60829E-13
 -1      3341 2.33232E+01-1.33775E+00 6.57118E-03 7.32516E-01 3.36944E-14 1.39280E-13
 -1      3342 2.33566E+01-1.60673E+00-5.74281E-03 3.23570E-01 2.69428E-14 1.31090E-13
 -1      3343 2.34098E+01-1.19236E+00-1.13485E-02 1.03587E+00 7.85938E-15 1.00399E-13
 -1      3344 2.19528E+01-4.74284E-01-8.38129E-03-2.87011E-01 5.95700E-14 1.20398E-14
 -1      3345 2.18178E+01-1.48031E-01 1.27501E-02-2.89815E-01 8.26961E-14-2.90045E-14
 -1      3346 2.15746E+01-3.85064E-02-7.74232E-03-3.90952E-01 5.42819E-14-9.89660E-15
 -1      3347 2.19719E+01-6.99664E-01-1.34226E-02-4.60109E-01 1.19638E-14 6.77401E-14
 -1      3348 2.42490E+01-4.32608E-02 1.01785E-02 1.83821E+00 6.65804E-14 1.29617E-13
 -1      3349 2.36171E+01-3.43963E-01 3.30670E-03 1.64604E+00 1.17883E-14 1.22253E-13
 -1      3350 2.36333E+01-8.66765E-01-1.58509E-02 1.44192E+00-1.27754E-14 1.14436E-13
 -1      3351 2.52426E+01 3.68727E+00-8.60105E-02 1.34104E+00 3.59816E-13 7.45237E-14
 -1      3352 1.99997E+01-1.46516E-03-4.74205E-06-3.99664E-03-1.45252E-13-1.42109E-13
 -1      3353 1.99995E+01-1.31500E-03-8.55665E-06-4.18505E-03-1.10195E-13-1.03300E-13
 -1      3354 2.00004E+01-1.38957E-03 6.50605E-06-4.23985E-03-1.03923E-13 2.49149E-13
 -1      3355 2.00005E+01-1.71326E-03 1.41490E-05-3.92067E-03-6.71240E-14 3.31311E-13
 -1      3356 2.00022E+01-2.92551E-03 8.24706E-06-1.90329E-03 2.21322E-13 8.90527E-14
 -1      3357 2.00019E+01-2.78792E-03-2.63943E-06-2.34459E-03 2.52112E-13 5.32120E-14
 -1      3358 2.00021E+01-2.47632E-03-4.53726E-06-2.69809E-03 5.80455E-14 2.17422E-13
 -1      3359 2.62613E+01 8.89094E-01-3.82533E-02 1.97308E+00 2.02796E-13 2.50203E-13
 -1      3360 2.00025E+01-3.08788E-03 5.70680E-06-8.57322E-04 4.05382E-13-1.35670E-13
 -1      3361 2.00024E+01-3.01765E-03 1.71580E-07-1.37271E-03 3.02565E-13-1.42396E-14
 -1      3362 2.00027E+01-2.69827E-03-3.54567E-06-1.72254E-03 1.57930E-13 9.12545E-14
 -1      3363 2.00030E+01-2.80944E-03-2.86696E-06-6.00579E-04 2.48528E-13-4.85930E-13
 -1      3364 2.50533E+01-4.13453E+00 1.20401E-02-2.37949E+00-1.62433E-13 1.04448E-13
 -1      3365 1.69939E+01-3.00796E+00 6.61428E-02 5.36994E+00-3.34337E-13 1.47195E-13
 -1      3366 1.55278E+01-2.03825E+00 4.94073E-02 4.89726E+00-3.12139E-13 2.66988E-13
 -1      3367 1.85871E+01-2.94716E+00 5.39440E-02 4.59395E+00-2.65038E-13-7.64319E-14
 -1      3368 1.12047E+01-6.70667E-01 1.55879E-01 3.88994E+00-2.04645E-13 5.97022E-13
 -1      3369 1.11920E+01-5.62574E-02 6.96532E-02 2.81558E+00-7.96446E-14 5.33018E-13
 -1      3370 1.31274E+01-1.07355E+00 5.62755E-02 4.28249E+00-2.40963E-13 4.23106E-13
 -1      3371 1.99999E+01-1.84302E-03-9.69425E-06 3.55459E-03-1.79530E-13-3.30124E-13
 -1      3372 2.00007E+01-2.19905E-03 1.52880E-05 3.44265E-03-2.22899E-14-4.61272E-13
 -1      3373 2.58669E+01 2.20417E+00-2.54443E-02-2.14229E+00 2.10137E-13-2.50779E-13
 -1      3374 1.03793E+01 4.62915E-01 5.07272E-02 8.93945E-01 1.17833E-14 5.15768E-13
 -1      3375 9.95628E+00 5.11532E-01 1.49095E-01-2.82824E-01 3.73959E-14 4.38094E-13
 -1      3376 1.12542E+01 5.55085E-01 9.19646E-02-1.02517E+00 5.43020E-14 4.19977E-13
 -1      3377 1.90385E+01-3.03631E+00 2.38600E-02-4.89003E+00-2.85549E-13-1.23773E-13
 -1      3378 2.05658E+01-3.89599E+00 6.61488E-02-4.92567E+00-2.77549E-13-5.68712E-14
 -1      3379 2.20581E+01-3.80971E+00 1.56509E-02-3.85405E+00-2.60236E-13-1.51129E-14
 -1      3380 2.63615E+01-2.95253E+00-1.71028E-02-2.91914E-01-3.00438E-14 2.99014E-13
 -1      3381 2.69801E+01-2.33399E+00-7.79645E-02 3.77975E-01 1.59343E-14 3.04833E-13
 -1      3382 2.64405E+01-1.57449E+00-2.80331E-02 1.06912E+00 2.98190E-14 2.46473E-13
 -1      3383 1.83283E+01 2.23428E+00-1.24629E-02-1.09214E+00-8.46045E-14-2.63721E-13
 -1      3384 1.80919E+01 1.99668E+00-2.93008E-03-1.35866E+00-1.05141E-13-2.54282E-13
 -1      3385 1.88916E+01 2.00388E+00 8.81468E-03-9.84976E-01-5.65131E-14-2.44060E-13
 -1      3386 2.21533E+01-4.03248E+00 3.93271E-02 3.55845E+00-3.12743E-13-2.99052E-13
 -1      3387 1.22631E+01-1.85554E+00 1.56192E-01-4.69065E+00 1.96593E-13 5.97689E-13
 -1      3388 1.08669E+01 9.27429E-01 1.43760E-01 1.55818E+00-1.71295E-14-5.03549E-13
 -1      3389 1.15058E+01 1.40409E+00 6.97800E-02 4.59317E-01-7.95119E-14-4.57225E-13
 -1      3390 1.21257E+01 6.32524E-01 9.41396E-04 2.47474E+00 4.11823E-14-4.05773E-13
 -1      3391 2.00011E+01-2.12409E-03-2.94897E-06 3.48508E-03-2.40945E-14-5.10742E-13
 -1      3392 1.99618E+01 1.47725E+00 1.95089E-03-6.38251E-01 1.55748E-14-1.69693E-13
 -1      3393 1.94396E+01 1.71483E+00-4.44106E-03-8.19401E-01-3.53905E-14-1.94904E-13
 -1      3394 1.92831E+01 1.40842E+00-7.18059E-03-1.13572E+00-5.35310E-14-2.03643E-13
 -1      3395 2.03736E+01 9.32150E-01 1.23749E-04-7.21504E-01 1.07309E-14-1.30579E-13
 -1      3396 1.72612E+01 2.93194E+00-1.27692E-02 5.77048E-01-1.70037E-13-2.21278E-13
 -1      3397 1.78510E+01 2.70411E+00 1.89766E-03 7.10854E-01-1.81413E-13-2.05236E-13
 -1      3398 1.79678E+01 2.22672E+00 8.80707E-03 1.10915E+00-1.34575E-13-1.86452E-13
 -1      3399 1.64760E+01 3.28162E+00-4.96290E-03 3.00969E-02-1.59675E-13-2.62643E-13
 -1      3400 1.67787E+01 3.16248E+00-6.37767E-03 2.52910E-01-1.77920E-13-2.39034E-13
 -1      3401 1.67021E+01 2.78962E+00 1.45003E-02 5.72943E-01-1.36649E-13-2.24797E-13
 -1      3402 1.79992E+01-3.87056E-01 1.40888E-02 3.19740E+00 7.81124E-14-1.88741E-13
 -1      3403 1.84293E+01-1.25087E+00 4.19888E-02 3.63215E+00 1.44489E-13-1.88389E-13
 -1      3404 2.46783E+01 2.69205E+00-2.14227E-02 1.79255E+00 2.50980E-13 1.60941E-13
 -1      3405 2.47664E+01 1.47506E+00-1.02178E-01 2.02041E+00 2.19724E-13 1.62891E-13
 -1      3406 1.81405E+01-1.06384E+00 4.26878E-02-3.37488E+00 1.00392E-13 2.13523E-13
 -1      3407 1.77620E+01-4.40982E-01 1.03338E-02-3.02522E+00 1.38054E-13 2.34870E-13
 -1      3408 1.27858E+01-3.89445E-01 1.02632E-01-3.19081E+00 1.16463E-13 5.06817E-13
 -1      3409 1.20141E+01-1.05603E+00 8.88922E-02-3.87846E+00 1.39402E-13 5.37792E-13
 -1      3410 1.46867E+01-2.08182E+00 9.45966E-02-4.81317E+00 2.38910E-13 4.79353E-13
 -1      3411 1.80616E+01-2.65058E-02 2.77011E-02-2.61405E+00 8.07435E-14 1.69766E-13
 -1      3412 1.79898E+01 2.99173E-01-8.82070E-03-2.35321E+00 6.79914E-15 1.33503E-13
 -1      3413 1.68021E+01 3.71959E-02 1.21545E-02-2.82249E+00 7.33719E-14 2.11484E-13
 -1      3414 1.82849E+01 5.49160E-01 1.45119E-02-2.07094E+00 1.15419E-14 1.64405E-13
 -1      3415 1.83269E+01 7.03826E-01-1.03026E-02-1.87178E+00 6.08604E-14 1.37166E-13
 -1      3416 1.73879E+01 6.57032E-01 1.72177E-02-2.09395E+00 5.26808E-15 1.55776E-13
 -1      3417 1.85965E+01 8.15062E-01 7.08928E-03-1.67629E+00-5.36886E-15 1.19485E-13
 -1      3418 1.86803E+01 8.68562E-01-8.73844E-03-1.52007E+00-2.42303E-14 7.00110E-14
 -1      3419 1.79272E+01 9.29159E-01 9.79424E-03-1.62649E+00 1.39845E-14 2.68509E-13
 -1      3420 1.89056E+01 8.97000E-01 3.19947E-03-1.37746E+00 7.25473E-14 3.09843E-14
 -1      3421 1.89949E+01 8.91886E-01-6.96972E-03-1.24936E+00 2.24888E-14 1.88936E-13
 -1      3422 1.84020E+01 1.01508E+00 8.20067E-03-1.31155E+00 1.59257E-14 5.44018E-14
 -1      3423 1.91765E+01 8.74030E-01 1.54744E-03-1.13749E+00-2.57164E-14 3.16732E-13
 -1      3424 1.92549E+01 8.37440E-01-5.54266E-03-1.02868E+00 1.28685E-13 2.21700E-13
 -1      3425 1.87912E+01 9.91642E-01 6.82311E-03-1.07743E+00 8.85383E-14 1.84773E-13
 -1      3426 1.93979E+01 7.96117E-01 9.06144E-04-9.36295E-01 1.72164E-13 1.14023E-13
 -1      3427 1.94601E+01 7.45165E-01-4.44295E-03-8.42359E-01 5.96130E-15 8.36395E-14
 -1      3428 1.91009E+01 9.08882E-01 5.51182E-03-8.89647E-01 9.10692E-14 1.96377E-13
 -1      3429 1.95707E+01 6.94395E-01 7.22286E-04-7.63989E-01-9.30993E-14 6.25498E-14
 -1      3430 1.96171E+01 6.39385E-01-3.57616E-03-6.82873E-01-7.13971E-14-1.57025E-14
 -1      3431 1.93420E+01 7.98718E-01 4.33496E-03-7.31575E-01-4.74378E-14 5.30809E-14
 -1      3432 1.97013E+01 5.87346E-01 7.05605E-04-6.15951E-01-3.72585E-14 6.77537E-14
 -1      3433 1.97344E+01 5.34147E-01-2.88116E-03-5.46568E-01-6.50854E-14 7.26144E-14
 -1      3434 1.95262E+01 6.80862E-01 3.33765E-03-5.95716E-01-8.22087E-15 6.19139E-14
 -1      3435 1.97976E+01 4.85288E-01 7.21953E-04-4.89723E-01-1.05025E-13 7.84454E-14
 -1      3436 1.98201E+01 4.36901E-01-2.31623E-03-4.31205E-01-7.81201E-14 1.27979E-13
 -1      3437 1.96647E+01 5.66824E-01 2.50922E-03-4.78780E-01-6.76870E-14 6.71787E-14
 -1      3438 1.98671E+01 3.93317E-01 7.21569E-04-3.83508E-01-7.84447E-15 2.16420E-13
 -1      3439 1.98817E+01 3.51014E-01-1.84947E-03-3.34957E-01 3.26546E-14 1.80331E-13
 -1      3440 1.97674E+01 4.62761E-01 1.85762E-03-3.79050E-01 2.20663E-14 2.53962E-13
 -1      3441 1.99161E+01 3.13463E-01 6.89428E-04-2.95555E-01-7.68796E-14 1.00586E-13
 -1      3442 1.99252E+01 2.77520E-01-1.46299E-03-2.55939E-01-8.15770E-14 1.46098E-13
 -1      3443 1.98425E+01 3.71380E-01 1.35449E-03-2.95287E-01-3.81711E-14 2.49399E-13
 -1      3444 1.99501E+01 2.45973E-01 6.32946E-04-2.23924E-01 5.44810E-14 1.54195E-13
 -1      3445 1.99554E+01 2.16095E-01-1.14423E-03-1.92137E-01 2.32791E-13 2.22013E-13
 -1      3446 1.98967E+01 2.93375E-01 9.70924E-04-2.26123E-01-4.16897E-15 1.90621E-13
 -1      3447 1.99730E+01 1.90124E-01 5.60657E-04-1.66567E-01 1.22070E-13 7.03506E-14
 -1      3448 1.99758E+01 1.65745E-01-8.83522E-04-1.41480E-01-2.23195E-14 1.78616E-14
 -1      3449 1.99350E+01 2.28257E-01 6.86219E-04-1.70020E-01 1.10393E-13 1.71507E-13
 -1      3450 1.99881E+01 1.44734E-01 4.82263E-04-1.21404E-01-1.03689E-13-4.00483E-14
 -1      3451 1.99892E+01 1.25166E-01-6.72830E-04-1.01930E-01-1.06311E-13-4.96783E-14
 -1      3452 1.99617E+01 1.74905E-01 4.74642E-04-1.25314E-01-1.10482E-13-4.19619E-14
 -1      3453 1.99977E+01 1.08434E-01 4.03806E-04-8.64410E-02-1.11177E-13-1.03147E-13
 -1      3454 1.99977E+01 9.29706E-02-5.05054E-04-7.15775E-02-1.55085E-13-1.11513E-13
 -1      3455 1.99799E+01 1.31933E-01 3.23913E-04-9.03136E-02-1.33474E-13-2.17219E-13
 -1      3456 2.00034E+01 7.98482E-02 3.29597E-04-5.98366E-02-1.89520E-13-7.96636E-14
 -1      3457 2.00029E+01 6.78087E-02-3.73866E-04-4.86882E-02-2.35493E-13-7.47289E-14
 -1      3458 1.99918E+01 9.78552E-02 2.13687E-04-6.33986E-02-1.44281E-13-2.08476E-13
 -1      3459 2.00064E+01 5.76657E-02 2.63152E-04-3.99555E-02-3.53721E-13-3.91932E-14
 -1      3460 2.00057E+01 4.84303E-02-2.72010E-04-3.17526E-02-3.55677E-13-1.57865E-13
 -1      3461 1.99994E+01 7.12410E-02 1.36368E-04-4.30726E-02-2.75422E-13-1.70411E-13
 -1      3462 2.00078E+01 4.07100E-02 2.05537E-04-2.53933E-02-2.54610E-13-1.32431E-13
 -1      3463 2.00069E+01 3.37384E-02-1.93686E-04-1.94850E-02-8.31875E-14-7.10012E-14
 -1      3464 2.00039E+01 5.07620E-02 8.23318E-05-2.80254E-02-2.69258E-13-6.24948E-14
 -1      3465 2.00081E+01 2.79586E-02 1.57265E-04-1.49624E-02-1.14294E-13-5.92729E-14
 -1      3466 2.00072E+01 2.27866E-02-1.34360E-04-1.08104E-02-2.51995E-13-1.33236E-13
 -1      3467 2.00063E+01 3.52551E-02 4.53409E-05-1.71257E-02-8.38169E-14-1.01390E-13
 -1      3468 2.00077E+01 1.85373E-02 1.17871E-04-7.68222E-03-2.15674E-13-5.31398E-14
 -1      3469 2.00068E+01 1.47735E-02-9.02044E-05-4.85050E-03 1.53329E-14-4.73871E-14
 -1      3470 2.00073E+01 2.37147E-02 2.07637E-05-9.42177E-03-1.43528E-13 9.54530E-14
 -1      3471 2.00069E+01 1.17124E-02 8.64119E-05-2.76079E-03 1.03850E-13-1.01686E-13
 -1      3472 2.00061E+01 9.03241E-03-5.79714E-05-9.02775E-04 7.10722E-14-1.13536E-13
 -1      3473 2.00074E+01 1.52877E-02 5.05916E-06-4.13395E-03-2.66257E-14 7.62604E-14
 -1      3474 2.00059E+01 6.87759E-03 6.18016E-05 4.29257E-04 9.58230E-14-5.32623E-14
 -1      3475 2.00053E+01 5.01644E-03-3.49656E-05 1.58370E-03 1.55258E-13-4.13432E-14
 -1      3476 2.00069E+01 9.26388E-03-4.41883E-06-6.37475E-04 1.07233E-13-4.45767E-14
 -1      3477 2.00049E+01 3.53919E-03 4.29679E-05 2.37523E-03 1.16522E-13-1.09870E-13
 -1      3478 2.00044E+01 2.28282E-03-1.89914E-05 3.03250E-03 1.55506E-13 6.87059E-15
 -1      3479 2.00061E+01 5.06086E-03-9.61758E-06 1.55827E-03 1.13229E-13 1.09404E-14
 -1      3480 2.00039E+01 1.29919E-03 2.88920E-05 3.44792E-03 1.36038E-13-1.66360E-13
 -1      3481 2.00035E+01 4.76155E-04-8.35160E-06 3.76221E-03 1.71686E-13-2.95574E-13
 -1      3482 2.00051E+01 2.20697E-03-1.19670E-05 2.83063E-03 6.89666E-14-1.60238E-13
 -1      3483 2.00030E+01-1.60936E-04 1.87167E-05 3.92271E-03-6.19408E-14-4.74638E-13
 -1      3484 2.00026E+01-6.86526E-04-1.25086E-06 4.00572E-03-1.29738E-13-6.25641E-13
 -1      3485 2.00042E+01 3.23301E-04-1.25069E-05 3.46357E-03-1.09545E-13-4.75552E-13
 -1      3486 2.00022E+01-1.09815E-03 1.05044E-05 3.99884E-03 7.16450E-14-7.99395E-13
 -1      3487 2.00019E+01-1.42873E-03 3.81599E-06 3.92541E-03-2.59541E-14-7.57463E-13
 -1      3488 2.00032E+01-8.89621E-04-1.11373E-05 3.66388E-03-9.29247E-14-7.47215E-13
 -1      3489 2.00016E+01-1.67332E-03 3.22271E-06 3.80761E-03-8.36813E-14-6.50695E-13
 -1      3490 2.00014E+01-1.91772E-03 9.10357E-07 3.63742E-03-8.28510E-14-5.50946E-13
 -1      3491 2.00020E+01-2.13420E-03-1.32741E-07 3.29446E-03 9.75441E-14-3.68574E-13
 -1      3492 2.00025E+01-1.64061E-03-9.06848E-06 3.56541E-03 1.40937E-13-6.64772E-13
 -1      3493 2.48751E+01-9.17083E-01-2.48884E-02-1.75534E+00 1.24228E-13-2.56647E-13
 -1      3494 2.48883E+01 4.62742E-02-2.74030E-02-1.97442E+00 1.28401E-13-2.45366E-13
 -1      3495 2.31848E+01-2.18579E+00 2.39808E-02 2.77216E-01-2.44832E-13-1.19475E-13
 -1      3496 2.35364E+01-2.24767E+00-2.16689E-02-1.14706E-01-1.92808E-13-1.90413E-13
 -1      3497 2.21611E+01-1.75497E+00 2.35712E-02 8.90057E-01-1.13159E-13-1.20809E-13
 -1      3498 2.25309E+01-2.02052E+00-1.09137E-02 6.30392E-01-1.59772E-13-1.23483E-13
 -1      3499 2.27390E+01-2.41782E+00-2.10024E-02 9.07241E-01-2.35111E-13-1.54095E-13
 -1      3500 2.13393E+01-1.17186E+00 1.73039E-02 1.17998E+00-9.48998E-14-7.12435E-14
 -1      3501 2.16535E+01-1.47388E+00-3.69057E-03 1.04618E+00-9.77348E-14-9.25874E-14
 -1      3502 2.16292E+01-1.80812E+00-2.37583E-02 1.34360E+00-1.46378E-13-1.72657E-13
 -1      3503 2.07599E+01-6.39618E-01 1.09203E-02 1.25564E+00-4.86197E-14-1.20795E-13
 -1      3504 2.09965E+01-8.97804E-01 6.55176E-04 1.21100E+00-4.58202E-14-1.00107E-13
 -1      3505 2.08405E+01-1.12498E+00-1.88739E-02 1.46592E+00-7.29271E-14-1.06137E-13
 -1      3506 2.03874E+01-2.31450E-01 6.12488E-03 1.20872E+00-8.97470E-15 2.97591E-14
 -1      3507 2.05515E+01-4.21293E-01 2.56353E-03 1.21922E+00-3.61527E-14-6.56653E-14
 -1      3508 2.03372E+01-5.50782E-01-1.27406E-02 1.41479E+00-7.40275E-14-4.17539E-14
 -1      3509 2.01656E+01 4.69044E-02 2.91715E-03 1.09975E+00 1.68663E-14 1.12908E-13
 -1      3510 2.02731E+01-7.79322E-02 2.93786E-03 1.14153E+00 6.52116E-14 7.69167E-14
 -1      3511 2.00457E+01-1.34129E-01-7.94379E-03 1.28280E+00-1.34821E-16-1.18444E-13
 -1      3512 2.00442E+01 2.15813E-01 9.25454E-04 9.63997E-01-9.37196E-14 7.26248E-14
 -1      3513 2.01121E+01 1.43362E-01 2.72760E-03 1.02146E+00-6.50338E-14 3.04782E-14
 -1      3514 1.98961E+01 1.37769E-01-4.56162E-03 1.12093E+00 3.10762E-14-4.34657E-14
 -1      3515 1.99854E+01 3.02388E-01-2.36681E-04 8.21691E-01 3.18359E-14 1.24484E-13
 -1      3516 2.00273E+01 2.68204E-01 2.36695E-03 8.84954E-01-3.09537E-14 1.28383E-13
 -1      3517 1.98346E+01 2.94764E-01-2.35400E-03 9.54856E-01-5.14613E-14-1.04866E-13
 -1      3518 1.99629E+01 3.31931E-01-8.59032E-04 6.84379E-01-5.34525E-14 1.36799E-13
 -1      3519 1.99886E+01 3.23591E-01 2.02175E-03 7.47229E-01 2.84260E-14 1.98785E-13
 -1      3520 1.98239E+01 3.68378E-01-1.02155E-03 7.97131E-01-1.07392E-14-5.16799E-14
 -1      3521 1.99598E+01 3.25108E-01-1.13561E-03 5.58456E-01 6.94290E-15 1.36182E-14
 -1      3522 1.99759E+01 3.32786E-01 1.72378E-03 6.17176E-01 4.90489E-15 9.73882E-14
 -1      3523 1.98396E+01 3.85878E-01-2.55412E-04 6.53784E-01-1.88346E-14-4.84334E-14
 -1      3524 1.99659E+01 2.97312E-01-1.20277E-03 4.47039E-01-1.08530E-13-1.74208E-13
 -1      3525 1.99763E+01 3.13873E-01 1.47513E-03 4.99608E-01-3.43262E-14-3.91748E-14
 -1      3526 1.98667E+01 3.68498E-01 1.26084E-04 5.27350E-01 2.29350E-14-3.90661E-14
 -1      3527 1.99752E+01 2.59255E-01-1.14634E-03 3.51251E-01-5.36305E-14-1.36866E-13
 -1      3528 1.99824E+01 2.79805E-01 1.26509E-03 3.96765E-01-1.49053E-13-1.67625E-13
 -1      3529 1.98965E+01 3.31757E-01 2.97123E-04 4.18401E-01-1.14358E-13-3.27874E-15
 -1      3530 1.99845E+01 2.18043E-01-1.02501E-03 2.70907E-01-1.22156E-13-1.23554E-13
 -1      3531 1.99900E+01 2.39399E-01 1.07806E-03 3.09239E-01-5.72130E-14-5.80091E-14
 -1      3532 1.99242E+01 2.86250E-01 3.42995E-04 3.26485E-01-9.42295E-14-3.67941E-14
 -1      3533 1.99925E+01 1.78046E-01-8.76367E-04 2.04974E-01-7.66441E-14-2.48939E-13
 -1      3534 1.99968E+01 1.98298E-01 9.10004E-04 2.36490E-01-1.09983E-13-2.22948E-13
 -1      3535 1.99477E+01 2.38912E-01 3.19475E-04 2.50424E-01-4.92083E-14-1.93689E-13
 -1      3536 1.99986E+01 1.41707E-01-7.23163E-04 1.51959E-01-1.24383E-13-1.46645E-13
 -1      3537 2.00022E+01 1.59826E-01 7.59367E-04 1.77310E-01-1.66703E-13-2.07390E-13
 -1      3538 1.99665E+01 1.93952E-01 2.69048E-04 1.88625E-01-1.82620E-13-3.42913E-13
 -1      3539 2.00028E+01 1.10175E-01-5.78860E-04 1.10147E-01-2.13643E-13-3.56789E-14
 -1      3540 2.00059E+01 1.25722E-01 6.25352E-04 1.30126E-01-1.10307E-13-5.08981E-14
 -1      3541 1.99808E+01 1.53638E-01 2.09491E-04 1.39306E-01-2.06979E-13-1.05930E-13
 -1      3542 2.00055E+01 8.37602E-02-4.51813E-04 7.77904E-02-2.03536E-14 1.21778E-13
 -1      3543 2.00081E+01 9.66689E-02 5.06944E-04 9.32271E-02-1.22823E-13 1.40965E-13
 -1      3544 1.99910E+01 1.18976E-01 1.54027E-04 1.00633E-01-1.94082E-13 2.40098E-14
 -1      3545 2.00069E+01 6.22561E-02-3.44357E-04 5.32198E-02 6.26459E-14 1.34228E-13
 -1      3546 2.00091E+01 7.26879E-02 4.04265E-04 6.49136E-02 9.69735E-14 1.56944E-13
 -1      3547 1.99980E+01 9.01270E-02 1.04826E-04 7.08378E-02 4.43494E-14 1.00033E-13
 -1      3548 2.00074E+01 4.51730E-02-2.56289E-04 3.49294E-02 1.37937E-13 1.44709E-13
 -1      3549 2.00093E+01 5.34059E-02 3.17340E-04 4.36054E-02 9.88714E-14 1.12981E-13
 -1      3550 2.00025E+01 6.67590E-02 6.62080E-05 4.82910E-02 5.76835E-14 5.60079E-14
 -1      3551 2.00072E+01 3.19061E-02-1.85834E-04 2.16078E-02 1.53989E-13 6.56344E-15
 -1      3552 2.00088E+01 3.82600E-02 2.44722E-04 2.79008E-02 2.20028E-13 5.84963E-14
 -1      3553 2.00052E+01 4.82698E-02 3.71985E-05 3.15593E-02 1.30615E-13 8.98670E-14
 -1      3554 2.00067E+01 2.18285E-02-1.30808E-04 1.21406E-02-4.65125E-14 3.36734E-13
 -1      3555 2.00080E+01 2.66251E-02 1.85225E-04 1.65897E-02 3.32813E-14 2.11915E-13
 -1      3556 2.00064E+01 3.39616E-02 1.62813E-05 1.94073E-02 7.92971E-15 2.38253E-13
 -1      3557 2.00059E+01 1.43432E-02-8.88807E-05 5.60419E-03-1.85423E-13 2.84318E-13
 -1      3558 2.00069E+01 1.78830E-02 1.37449E-04 8.65538E-03-1.26032E-13 3.28531E-13
 -1      3559 2.00068E+01 2.31287E-02 2.09536E-06 1.07940E-02-1.00121E-13 3.77480E-13
 -1      3560 2.00050E+01 8.91354E-03-5.77255E-05 1.25193E-03 1.90895E-14 1.00819E-13
 -1      3561 2.00058E+01 1.14633E-02 9.97700E-05 3.26496E-03-6.90001E-14 1.85012E-13
 -1      3562 2.00065E+01 1.51081E-02-6.81390E-06 4.86317E-03-2.27735E-14 5.07755E-16
 -1      3563 2.00041E+01 5.07531E-03-3.51854E-05-1.50684E-03 3.64128E-14 1.06996E-13
 -1      3564 2.00048E+01 6.86371E-03 7.05806E-05-2.48153E-04 5.66173E-14 1.85574E-13
 -1      3565 2.00059E+01 9.30852E-03-1.18019E-05 9.26329E-04-3.21210E-14-9.30256E-14
 -1      3566 2.00033E+01 2.43853E-03-1.93994E-05-3.12953E-03 7.91286E-14 2.03559E-14
 -1      3567 2.00038E+01 3.65636E-03 4.84071E-05-2.40624E-03 1.33375E-13 4.68979E-14
 -1      3568 2.00051E+01 5.22192E-03-1.40154E-05-1.55880E-03 1.27538E-13 2.02830E-13
 -1      3569 2.00025E+01 6.81884E-04-8.77862E-06-3.96206E-03-4.08101E-14-4.01475E-14
 -1      3570 2.00029E+01 1.48551E-03 3.19255E-05-3.60950E-03 1.39399E-14-8.76697E-14
 -1      3571 2.00043E+01 2.42275E-03-1.44333E-05-3.01084E-03 1.12352E-13 1.44776E-13
 -1      3572 2.00019E+01-4.55673E-04-2.04816E-06-4.25911E-03-1.20418E-13 4.16754E-13
 -1      3573 2.00021E+01 6.01852E-05 2.00428E-05-4.15681E-03-1.29963E-13 1.32852E-13
 -1      3574 2.00034E+01 5.61660E-04-1.35872E-05-3.74550E-03-2.35279E-13 1.99162E-13
 -1      3575 2.00013E+01-1.17983E-03 1.07594E-06-4.19871E-03-9.98051E-14 4.13018E-13
 -1      3576 2.00015E+01-8.59715E-04 9.28293E-06-4.26341E-03-1.67565E-14 5.33893E-13
 -1      3577 2.00026E+01-6.40145E-04-9.42720E-06-3.99500E-03-2.47778E-13 7.22777E-13
 -1      3578 2.42707E+01-3.91576E+00-8.33797E-04-2.36200E+00-1.78135E-13 1.19241E-13
 -1      3579 2.56335E+01-3.70340E+00-4.16664E-02-1.29274E+00-7.84130E-14 2.27953E-13
 -1      3580 2.57240E+01-2.97667E+00-2.45735E-03-3.27911E-01-5.24684E-14 2.56552E-13
 -1      3581 2.26798E+01-1.62620E+00-1.07574E-02-5.80816E-01-1.63602E-14 8.23867E-14
 -1      3582 2.23280E+01-1.25998E+00 2.24591E-02-7.40628E-01-2.72349E-14 6.08777E-14
 -1      3583 2.44533E+01 4.21001E+00-6.15425E-02-3.84002E-01 3.82201E-13-3.38393E-14
 -1      3584 2.50658E+01 4.43487E+00-1.05562E-01-9.53490E-01 3.69753E-13-1.47737E-13
 -1      3585 1.84185E+01-1.93609E+00 5.77694E-02 4.19366E+00 1.77743E-13-2.26305E-13
 -1      3586 1.76046E+01-2.30300E+00 6.38066E-02-4.35659E+00 2.21610E-13 1.92697E-13
 -1      3587 2.42856E+01 3.66320E+00-6.96342E-02 9.71375E-01 3.26128E-13 3.11660E-14
 -1      3588 1.63870E+01 3.32121E+00 3.16904E-03-5.41573E-01-1.51654E-13-3.55909E-13
 -1      3589 1.63647E+01 3.32927E+00-1.33882E-02-3.13207E-01-1.58673E-13-3.15390E-13
 -1      3590 1.61509E+01 3.05027E+00 1.82240E-02-1.56612E-01-1.51274E-13-2.94653E-13
 -1      3591 1.63003E+01 2.98389E+00 1.27082E-02-8.05740E-01-1.42839E-13-3.39575E-13
 -1      3592 2.00035E+01-2.48216E-03-2.15780E-06 8.86198E-04 1.06200E-13-3.05129E-13
 -1      3593 2.00036E+01-2.50142E-03 1.13314E-06 3.01491E-04 2.16172E-14-4.43945E-13
 -1      3594 2.42153E+01-2.06490E+00 1.09655E-02-7.00871E-01-5.65745E-14-2.13962E-13
 -1      3595 2.44355E+01-1.66105E+00-2.05897E-02-1.12823E+00 9.63301E-14-2.51059E-13
 -1      3596 2.51903E+01-1.73861E+00-4.77083E-02-1.18392E+00 7.43398E-14-1.91461E-13
 -1      3597 2.40471E+01-2.61050E+00-2.64915E-02 4.62997E-02-1.44467E-13-1.70686E-13
 -1      3598 2.28097E+01-3.81970E+00-3.02190E-02 2.66076E+00-2.66960E-13-3.07256E-13
 -1      3599 2.09916E+01-3.48162E+00 4.26583E-02 3.75210E+00-2.74527E-13-3.01749E-13
 -1      3600 2.44857E+01 3.50865E+00-7.41220E-02-1.33838E+00 2.67210E-13-1.20926E-13
 -1      3601 1.81204E+01 8.43175E-01 2.59320E-03 2.24147E+00-5.19289E-15-1.70349E-13
 -1      3602 1.82254E+01 2.85330E-01 3.26583E-02 2.62844E+00 3.60554E-14-1.87078E-13
 -1      3603 1.68116E+01 3.92957E-01 4.22199E-02 2.93570E+00 4.21017E-14-2.51753E-13
 -1      3604 1.18686E+01 1.43204E+00 4.05648E-02-1.21686E+00-1.49406E-13-4.58723E-13
 -1      3605 1.25099E+01 9.92948E-01 3.48483E-02-2.54533E+00-2.02258E-13-4.60090E-13
 -1      3606 1.63507E+01-1.04274E+00 1.31366E-02 4.14535E+00 1.27356E-13-3.08920E-13
 -1      3607 1.46293E+01-9.50895E-02 1.07865E-01 3.60090E+00 9.50282E-14-3.37862E-13
 -1      3608 2.59876E+01-1.42946E-01-7.66954E-02-2.01379E+00 1.73826E-13-3.01155E-13
 -1      3609 2.65050E+01-1.54233E+00 1.41397E-02-1.22348E+00 4.45824E-14-3.09239E-13
 -1      3610 2.53935E+01 1.54165E-01-2.04958E-02 1.88051E+00 1.30174E-13 2.27608E-13
 -1      3611 2.53387E+01-9.25125E-01-3.97219E-02 1.57236E+00 1.99268E-14 2.24286E-13
 -1      3612 1.35244E+01 7.26242E-01 8.17033E-02-3.09959E+00-2.39186E-13-4.31793E-13
 -1      3613 1.47577E+01 1.41458E-01 1.07976E-03-3.59652E+00-2.60613E-13-3.41661E-13
 -1      3614 1.37949E+01 1.21746E+00 2.09194E-02-2.38513E+00-2.02522E-13-4.15397E-13
 -1      3615 2.56066E+01-2.19039E+00-9.23415E-04-7.23859E-01 2.61427E-14-1.69677E-13
 -1      3616 2.18154E+01-3.31677E+00-2.07317E-02-3.40223E+00-2.05362E-13-2.70435E-14
 -1      3617 2.32640E+01-3.79131E+00 2.19561E-02-2.96781E+00-2.16910E-13 1.66585E-14
 -1      3618 2.40325E+01-3.39373E+00 2.48628E-02-1.84431E+00-1.52253E-13 1.13309E-13
 -1      3619 2.00041E+01-2.14048E-03 2.22995E-06-1.55935E-05-7.12750E-14-4.07652E-13
 -1      3620 2.00036E+01-2.49736E-03 4.74118E-07-3.31440E-04 1.95650E-14-6.67357E-13
 -1      3621 2.00035E+01-2.46669E-03 2.92794E-09-9.10387E-04 9.13232E-14-3.73080E-13
 -1      3622 1.59877E+01 2.59196E+00-1.78399E-02 6.16699E-01-1.13917E-13-2.53243E-13
 -1      3623 1.65255E+01 2.40214E+00-2.35064E-03 9.40763E-01-9.40012E-14-2.42675E-13
 -1      3624 2.00018E+01-2.12040E-03 7.12092E-06-3.31127E-03-5.59033E-14 6.12326E-13
 -1      3625 2.00012E+01-1.92507E-03-2.00075E-06-3.62100E-03-9.91273E-14 4.39766E-13
 -1      3626 2.00012E+01-1.75315E-03-8.11849E-06-3.80025E-03-1.47118E-13 4.34724E-13
 -1      3627 2.52214E+01 7.20083E-01-5.82311E-02-2.22430E+00 1.66662E-13-2.50565E-13
 -1      3628 2.00027E+01-2.37725E-03 3.76963E-06-2.42233E-03 9.63472E-14-1.58819E-13
 -1      3629 2.00023E+01-2.24845E-03-3.49020E-07-2.85873E-03-1.96907E-14 3.11561E-13
 -1      3630 2.00025E+01-2.03732E-03-3.52134E-06-3.03840E-03-9.55562E-14 3.65397E-13
 -1      3631 2.00031E+01-2.38177E-03-2.81511E-06 2.02987E-03 2.10354E-13-1.96203E-13
 -1      3632 2.00034E+01-2.44648E-03 3.72745E-06 1.49550E-03 2.19104E-13-2.83398E-13
 -1      3633 2.00039E+01-2.11950E-03 2.65427E-07 1.22507E-03 8.29878E-14-1.57214E-13
 -1      3634 2.19321E+01-9.01828E-01-5.32528E-04-7.48987E-01-1.74272E-14 2.56767E-14
 -1      3635 2.16975E+01-5.25152E-01 1.77027E-02-7.37480E-01-1.62951E-14 5.82683E-15
 -1      3636 2.18443E+01-1.21784E+00-3.59842E-02-1.07620E+00-4.87240E-14-1.64365E-15
 -1      3637 1.71130E+01 2.13941E+00 2.49937E-02-1.60169E+00-1.41082E-13-2.83261E-13
 -1      3638 1.65000E+01 2.35367E+00-2.38163E-02-1.44165E+00-1.48095E-13-3.21025E-13
 -1      3639 2.08437E+01-2.91267E+00 9.00606E-03 3.18922E+00-2.55166E-13-3.06117E-13
 -1      3640 1.98696E+01-3.07093E+00 1.49689E-02 4.06496E+00-2.73824E-13-2.89994E-13
 -1      3641 1.85771E+01-2.34610E+00 1.60337E-02 4.04869E+00-2.95342E-13-1.29043E-13
 -1      3642 2.51195E+01 1.93732E+00-3.67097E-02-2.03103E+00 1.87232E-13-2.22667E-13
 -1      3643 2.39987E+01-1.26340E+00-1.65279E-04 1.14071E+00 1.20286E-14 1.65108E-13
 -1      3644 2.33559E+01-1.87358E+00 4.11817E-02-2.69485E-01-3.06682E-14 1.31420E-13
 -1      3645 2.29158E+01-2.06198E+00-3.73997E-02-8.56457E-01-4.46509E-14 8.66616E-14
 -1      3646 2.36686E+01-2.01373E+00-1.41787E-02 6.66109E-02-2.30900E-14 1.71079E-13
 -1      3647 1.63443E+01 1.65965E+00 3.52824E-03 1.68501E+00-3.55215E-14-2.31110E-13
 -1      3648 1.70552E+01 1.81264E+00-2.40422E-03 1.59025E+00-6.00238E-14-2.10499E-13
 -1      3649 1.77716E+01 1.69107E+00-2.27801E-02-1.67980E+00-1.36841E-13-2.42376E-13
 -1      3650 1.74064E+01 1.50114E+00 6.20677E-04-1.95007E+00-1.40444E-13-2.59725E-13
 -1      3651 1.84910E+01 1.43534E+00 1.99535E-02-1.63526E+00-1.09024E-13-2.42760E-13
 -1      3652 2.00013E+01-1.55733E-03-5.96473E-07-3.93588E-03-1.76221E-13 4.51574E-13
 -1      3653 2.00012E+01-1.37423E-03-3.48075E-06-4.08660E-03-1.58147E-13 4.10679E-13
 -1      3654 2.00022E+01-1.31855E-03-1.26195E-07-3.89259E-03-1.11724E-13 7.74485E-13
 -1      3655 2.00021E+01-1.72843E-03 4.47000E-06-3.63176E-03-2.06895E-13 5.30754E-13
 -1      3656 1.48221E+01-1.30043E+00 8.50174E-02 4.43909E+00-2.54383E-13 3.33608E-13
 -1      3657 1.41106E+01-5.98405E-01 2.08514E-02 3.67446E+00-2.06665E-13 2.62658E-13
 -1      3658 1.64038E+01-1.52494E+00 3.31252E-02 4.15524E+00-3.09661E-13 1.33372E-13
 -1      3659 1.24989E+01 1.68317E-01 2.93799E-02 2.56281E+00-3.22654E-14 4.45699E-13
 -1      3660 1.13360E+01 5.05975E-01 1.26329E-01 1.82876E+00 9.45424E-16 5.59212E-13
 -1      3661 1.18056E+01 7.13779E-01 4.47134E-02 8.80961E-01 3.92603E-14 4.71380E-13
 -1      3662 2.00024E+01-2.20731E-03 5.72552E-07 2.91781E-03 2.16939E-13-1.32079E-13
 -1      3663 2.00028E+01-2.32948E-03 4.87290E-06 2.47904E-03 2.66429E-13-2.07378E-13
 -1      3664 2.00034E+01-2.06126E-03 1.45855E-06 2.27297E-03 1.65162E-13-1.96480E-13
 -1      3665 2.00027E+01-1.95721E-03 6.00415E-07 3.07041E-03 2.24908E-13-3.55460E-13
 -1      3666 1.77968E+01-2.04102E+00 8.42896E-02-4.77847E+00-2.92981E-13-1.92776E-13
 -1      3667 1.93569E+01-2.42303E+00 1.00743E-02-4.18463E+00-2.56380E-13-9.48564E-14
 -1      3668 1.65601E+01-1.09394E+00 1.02900E-02-4.29730E+00-2.62759E-13-2.44863E-13
 -1      3669 1.21799E+01 7.85312E-01 1.72192E-02-7.85936E-01 2.67572E-14 3.69940E-13
 -1      3670 1.24037E+01 5.87456E-01 7.20944E-02-1.81122E+00 5.49057E-14 3.85081E-13
 -1      3671 2.40305E+01-3.47148E+00-5.95844E-02 1.18157E+00-1.70202E-13-5.98681E-14
 -1      3672 2.36700E+01-3.68729E+00 3.64064E-02 1.97243E+00-2.50459E-13-1.35698E-13
 -1      3673 2.25049E+01-3.33358E+00-3.27011E-03 2.35891E+00-2.39149E-13-1.63607E-13
 -1      3674 1.39314E+01-7.08676E-02 2.45674E-02-2.88280E+00 1.55403E-13 3.82451E-13
 -1      3675 1.55432E+01-6.61479E-01 8.45601E-02-3.67552E+00 1.64188E-13 3.00752E-13
 -1      3676 2.12050E+01 2.96985E-01 8.34160E-03-5.37289E-01 3.84062E-14-5.43526E-14
 -1      3677 2.08653E+01 4.86284E-01-8.92593E-03-6.47255E-01 2.44855E-14-7.90726E-14
 -1      3678 2.04372E+01 7.06628E-01 8.26893E-03-8.65800E-01-2.36553E-14-1.29323E-13
 -1      3679 2.13695E+01-7.57054E-02-4.76994E-04-6.37484E-01 7.80929E-15-3.52269E-14
 -1      3680 1.42369E+01 5.85266E-01 4.13032E-02 2.65110E+00 4.01658E-14-3.39832E-13
 -1      3681 1.26040E+01 1.63051E+00-3.34906E-02 5.65378E-01-7.12913E-14-4.02352E-13
 -1      3682 1.21739E+01 1.69970E+00 8.04309E-02-3.85206E-01-1.14742E-13-4.45095E-13
 -1      3683 1.31535E+01 1.78836E+00 3.94640E-02-9.36344E-01-1.34831E-13-4.20341E-13
 -1      3684 1.79426E+01 1.44970E+00 7.94333E-03 1.77536E+00-5.04093E-14-1.89543E-13
 -1      3685 1.57450E+01-1.53134E+00 3.21688E-02-4.20871E+00 2.23266E-13 3.36828E-13
 -1      3686 2.42083E+01 4.06129E+00-5.91645E-02 1.86199E-01 3.64091E-13-4.08350E-14
 -1      3687 1.48752E+01 2.60682E-01 3.80934E-02-2.46503E+00 8.01963E-14 3.54940E-13
 -1      3688 1.24608E+01 9.56350E-01 7.49210E-02 2.19641E-02 3.76906E-14 4.39447E-13
 -1      3689 1.33533E+01 9.75243E-01 2.24389E-02-6.22333E-01 3.71875E-14 3.78909E-13
 -1      3690 1.29354E+01 8.66832E-01 1.28872E-02 8.72197E-01 4.32178E-14 4.87600E-13
 -1      3691 1.57088E+01 2.79539E+00 4.76084E-04 6.40551E-02-1.48794E-13-2.72990E-13
 -1      3692 1.54723E+01 2.45904E+00 8.77830E-04 4.92392E-01-1.10319E-13-2.75198E-13
 -1      3693 1.56395E+01 2.84675E+00 2.35354E-03-2.96063E-01-1.44858E-13-3.24055E-13
 -1      3694 1.52213E+01 6.05161E-01-4.78941E-03-2.03024E+00-3.06456E-14 2.84458E-13
 -1      3695 1.65342E+01 7.92250E-01-3.68211E-05-1.83813E+00 1.75381E-14 2.12483E-13
 -1      3696 1.68091E+01 9.30114E-01-2.34409E-02-1.57661E+00 3.31186E-14 2.07050E-13
 -1      3697 1.73143E+01 1.03084E+00 1.68652E-03-1.41046E+00 6.64483E-14 2.59208E-13
 -1      3698 1.75704E+01 1.07742E+00-1.47077E-02-1.24696E+00 1.43073E-14 2.88138E-13
 -1      3699 1.66330E+01 1.17292E+00 2.49127E-02-1.16028E+00 6.42414E-14 2.74320E-13
 -1      3700 1.79427E+01 1.10290E+00 2.10560E-06-1.13521E+00-5.69406E-14 2.79585E-13
 -1      3701 1.81565E+01 1.09421E+00-9.92425E-03-1.01992E+00 7.13705E-14 2.30396E-13
 -1      3702 1.74439E+01 1.21939E+00 1.51916E-02-9.27689E-01 4.97944E-14 2.99870E-13
 -1      3703 1.84382E+01 1.07352E+00-1.06453E-03-9.39590E-01 1.53993E-13 1.81235E-13
 -1      3704 1.86119E+01 1.03353E+00-7.03087E-03-8.49578E-01 8.16951E-14 1.99119E-13
 -1      3705 1.80652E+01 1.17870E+00 1.09761E-02-7.73309E-01 6.93541E-14 4.35560E-13
 -1      3706 1.88275E+01 9.87612E-01-1.23339E-03-7.85477E-01 1.42937E-14 1.93185E-13
 -1      3707 1.89645E+01 9.31462E-01-5.21263E-03-7.10066E-01 3.58918E-14 1.17732E-13
 -1      3708 1.85412E+01 1.08632E+00 8.12275E-03-6.56645E-01 4.07545E-14 1.68404E-13
 -1      3709 1.91301E+01 8.73856E-01-1.02080E-03-6.55210E-01-5.65484E-14-1.76947E-14
 -1      3710 1.92357E+01 8.11627E-01-3.99518E-03-5.89670E-01-6.43647E-14 4.03512E-15
 -1      3711 1.89078E+01 9.67002E-01 6.26739E-03-5.58293E-01-9.77815E-14 1.16474E-14
 -1      3712 1.93631E+01 7.50813E-01-7.00278E-04-5.41238E-01 3.04932E-14 3.14867E-14
 -1      3713 1.94429E+01 6.88858E-01-3.15913E-03-4.83856E-01 7.57608E-14 4.06785E-14
 -1      3714 1.91897E+01 8.36915E-01 4.77203E-03-4.70200E-01-1.59494E-14-4.75099E-14
 -1      3715 1.95403E+01 6.30221E-01-4.03376E-04-4.40997E-01 2.17220E-16 1.09482E-13
 -1      3716 1.95996E+01 5.72348E-01-2.54210E-03-3.91070E-01 7.57993E-15 1.89806E-13
 -1      3717 1.94057E+01 7.07855E-01 3.60494E-03-3.90213E-01 8.50590E-14 9.58833E-14
 -1      3718 1.96738E+01 5.18663E-01-1.56788E-04-3.53559E-01 2.28890E-14 2.22395E-13
 -1      3719 1.97171E+01 4.66755E-01-2.05394E-03-3.10813E-01 5.58571E-14 2.83327E-13
 -1      3720 1.95702E+01 5.87105E-01 2.74582E-03-3.18078E-01 4.71180E-14 1.98666E-13
 -1      3721 1.97731E+01 4.19408E-01 1.21464E-05-2.78678E-01-6.07438E-14 1.72229E-13
 -1      3722 1.98043E+01 3.74326E-01-1.64642E-03-2.42759E-01-1.23539E-13 1.53826E-13
 -1      3723 1.96944E+01 4.78269E-01 2.07364E-03-2.54480E-01-8.40725E-14 1.83245E-14
 -1      3724 1.98460E+01 3.33743E-01 1.18143E-04-2.15769E-01-6.29269E-14 1.99570E-13
 -1      3725 1.98681E+01 2.95515E-01-1.30874E-03-1.86146E-01 3.65660E-14 1.88635E-13
 -1      3726 1.97871E+01 3.83291E-01 1.56440E-03-1.99767E-01-1.35099E-14 1.31351E-13
 -1      3727 1.98989E+01 2.61470E-01 1.75267E-04-1.63966E-01 4.07631E-14 1.28993E-13
 -1      3728 1.99142E+01 2.29716E-01-1.02877E-03-1.40005E-01 2.23003E-14 6.20047E-14
 -1      3729 1.98555E+01 3.02335E-01 1.15701E-03-1.53738E-01-3.16060E-14 6.28159E-14
 -1      3730 1.99365E+01 2.01735E-01 1.97944E-04-1.22142E-01-7.85012E-14 4.53823E-14
 -1      3731 1.99468E+01 1.75836E-01-7.98072E-04-1.03098E-01-1.25805E-13 3.82882E-14
 -1      3732 1.99052E+01 2.34836E-01 8.55112E-04-1.15933E-01-3.68855E-14 2.19231E-14
 -1      3733 1.99628E+01 1.53194E-01 1.98595E-04-8.89900E-02-1.22807E-13-2.93723E-14
 -1      3734 1.99696E+01 1.32414E-01-6.11213E-04-7.41467E-02-1.39151E-13-6.85782E-14
 -1      3735 1.99408E+01 1.79550E-01 6.19669E-04-8.54895E-02-1.65842E-13 1.02074E-13
 -1      3736 1.99807E+01 1.14416E-01 1.82272E-04-6.32293E-02-1.28493E-13-6.01200E-14
 -1      3737 1.99850E+01 9.80150E-02-4.61936E-04-5.18599E-02-8.70261E-14-5.36086E-14
 -1      3738 1.99657E+01 1.35015E-01 4.34642E-04-6.15211E-02-1.19601E-13 2.58813E-14
 -1      3739 1.99926E+01 8.39126E-02 1.60332E-04-4.35710E-02-1.66458E-13-4.94868E-14
 -1      3740 1.99951E+01 7.11550E-02-3.43285E-04-3.50318E-02-3.18820E-13-3.42110E-14
 -1      3741 1.99827E+01 9.97666E-02 3.04919E-04-4.29996E-02-1.13211E-13-5.21598E-14
 -1      3742 2.00001E+01 6.02767E-02 1.34698E-04-2.88791E-02-2.66505E-13-9.70628E-17
 -1      3743 2.00015E+01 5.05141E-02-2.49714E-04-2.25958E-02-1.01587E-13 9.18456E-14
 -1      3744 1.99939E+01 7.22588E-02 2.07713E-04-2.89989E-02-1.78455E-13 1.71690E-13
 -1      3745 2.00046E+01 4.22599E-02 1.09958E-04-1.81310E-02-9.51225E-14 1.56153E-13
 -1      3746 2.00051E+01 3.49153E-02-1.77372E-04-1.36104E-02-1.62047E-13 7.21014E-14
 -1      3747 2.00010E+01 5.11467E-02 1.36636E-04-1.86465E-02-1.51149E-13 2.97496E-13
 -1      3748 2.00069E+01 2.87608E-02 8.76156E-05-1.04513E-02-1.32523E-13 4.62718E-14
 -1      3749 2.00069E+01 2.33352E-02-1.22532E-04-7.28176E-03-8.30955E-14 6.28498E-14
 -1      3750 2.00051E+01 3.52187E-02 8.58682E-05-1.11656E-02-1.33721E-13 2.04756E-13
 -1      3751 2.00078E+01 1.88327E-02 6.82074E-05-5.11297E-03-5.10149E-14 7.95541E-14
 -1      3752 2.00075E+01 1.49049E-02-8.17523E-05-2.95963E-03 1.44902E-14 9.51125E-14
 -1      3753 2.00072E+01 2.34180E-02 5.03427E-05-5.89962E-03-2.18884E-14 9.90457E-14
 -1      3754 2.00077E+01 1.16803E-02 5.18878E-05-1.52664E-03 8.26719E-14 2.71498E-15
 -1      3755 2.00073E+01 8.90066E-03-5.20569E-05-1.22462E-04 8.12260E-14-7.81561E-14
 -1      3756 2.00079E+01 1.48475E-02 2.60939E-05-2.30805E-03 8.30660E-14 1.05985E-13
 -1      3757 2.00071E+01 6.64641E-03 3.85550E-05 7.75733E-04-2.44807E-14-4.78740E-14
 -1      3758 2.00066E+01 4.72931E-03-3.09495E-05 1.63913E-03 3.97403E-14-1.41978E-13
 -1      3759 2.00078E+01 8.76015E-03 1.00813E-05 4.37857E-05-1.86105E-14 4.45134E-14
 -1      3760 2.00062E+01 3.19546E-03 2.79945E-05 2.15774E-03-4.18109E-14-1.87255E-13
 -1      3761 2.00057E+01 1.91037E-03-1.64446E-05 2.63955E-03-6.31545E-14-2.71663E-13
 -1      3762 2.00071E+01 4.54334E-03-6.20818E-08 1.49769E-03-1.03521E-13 2.61032E-14
 -1      3763 2.00052E+01 8.96575E-04 1.99030E-05 2.89610E-03-6.78161E-14-3.70618E-13
 -1      3764 2.00047E+01 5.90438E-05-6.29642E-06 3.11501E-03-1.81489E-13-4.77206E-13
 -1      3765 2.00061E+01 1.70113E-03-6.31778E-06 2.31728E-03-1.68145E-13-2.69189E-13
 -1      3766 2.00041E+01-6.00574E-04 1.28658E-05 3.19739E-03-1.29113E-13-4.44518E-13
 -1      3767 2.00037E+01-1.12829E-03 1.69765E-06 3.23591E-03-1.30405E-14-4.04494E-13
 -1      3768 2.00050E+01-1.60380E-04-9.37834E-06 2.70015E-03-1.50868E-13-2.51077E-13
 -1      3769 2.00033E+01-1.40988E-03 7.63962E-06 3.21153E-03 2.06208E-13-4.18067E-13
 -1      3770 2.00030E+01-1.72389E-03 2.81566E-06 3.11337E-03 3.24255E-13-3.12873E-13
 -1      3771 2.00034E+01-1.78569E-03-9.24911E-06 2.74570E-03 2.91337E-13-2.15253E-13
 -1      3772 2.00041E+01-1.21307E-03-1.26822E-05 2.79275E-03 8.89642E-14-3.13702E-14
 -1      3773 2.10316E+01-1.58685E+00 2.48882E-02 1.81743E+00-1.33823E-13-1.53259E-13
 -1      3774 2.14945E+01-2.00875E+00 4.15088E-03 1.74118E+00-1.64572E-13-1.62364E-13
 -1      3775 1.98977E+01-3.09107E-01 5.45117E-03 1.52824E+00-3.34157E-14-1.30369E-13
 -1      3776 2.00982E+01-5.60441E-01 8.21307E-03 1.59760E+00-5.69614E-14-9.75326E-14
 -1      3777 1.96979E+01 6.12037E-02 1.61731E-03 1.30926E+00 2.31911E-16-1.44290E-13
 -1      3778 1.98108E+01-1.03022E-01 6.67067E-03 1.39508E+00-3.80580E-14-1.81349E-13
 -1      3779 1.94819E+01-1.37988E-01-8.95532E-03 1.56572E+00 1.52896E-14-2.22071E-13
 -1      3780 1.96257E+01 2.86917E-01-3.61465E-04 1.09863E+00-2.17113E-14-5.24530E-14
 -1      3781 1.96812E+01 1.90962E-01 5.03294E-03 1.18639E+00 4.08573E-14-8.33871E-14
 -1      3782 1.93948E+01 2.02888E-01-4.64320E-03 1.29012E+00-4.90041E-14-1.81827E-13
 -1      3783 1.96261E+01 4.05165E-01-1.29338E-03 9.08162E-01-8.38667E-14-9.89501E-14
 -1      3784 1.96468E+01 3.58608E-01 3.66773E-03 9.91223E-01-5.06442E-14-5.99998E-14
 -1      3785 1.94053E+01 3.98550E-01-1.93865E-03 1.05113E+00-4.19624E-14-2.77713E-14
 -1      3786 1.96640E+01 4.48624E-01-1.70361E-03 7.40855E-01-9.01956E-14 2.47856E-14
 -1      3787 1.96651E+01 4.35769E-01 2.65404E-03 8.16377E-01-9.30253E-14-6.20839E-14
 -1      3788 1.94658E+01 4.90871E-01-3.71186E-04 8.49252E-01-1.08240E-13 1.72258E-14
 -1      3789 1.97177E+01 4.43400E-01-1.81040E-03 5.96827E-01 3.29160E-14 5.52561E-14
 -1      3790 1.97092E+01 4.51829E-01 1.93482E-03 6.63537E-01 3.41110E-14 1.19528E-13
 -1      3791 1.95473E+01 5.13406E-01 4.55134E-04 6.80439E-01-9.81096E-14 1.22987E-13
 -1      3792 1.97743E+01 4.09529E-01-1.74601E-03 4.74539E-01-3.18742E-14 6.64400E-14
 -1      3793 1.97621E+01 4.30097E-01 1.43165E-03 5.32320E-01 2.95758E-14 6.28300E-14
 -1      3794 1.96328E+01 4.91942E-01 7.81416E-04 5.40487E-01 5.18945E-14 2.54381E-13
 -1      3795 1.98271E+01 3.60741E-01-1.58524E-03 3.72078E-01-1.38409E-13 9.64941E-14
 -1      3796 1.98145E+01 3.87199E-01 1.10849E-03 4.21148E-01-7.45093E-14 8.02920E-14
 -1      3797 1.97128E+01 4.45755E-01 9.17150E-04 4.24838E-01-8.03448E-14 1.94303E-13
 -1      3798 1.98727E+01 3.06542E-01-1.37866E-03 2.87510E-01-7.55273E-15 2.20805E-14
 -1      3799 1.98615E+01 3.34622E-01 8.76004E-04 3.28419E-01-7.66058E-14 1.00833E-13
 -1      3800 1.97829E+01 3.87577E-01 9.09694E-04 3.30060E-01-7.11192E-14 1.39000E-13
 -1      3801 1.99101E+01 2.53004E-01-1.16336E-03 2.18686E-01 2.87731E-14-1.83305E-13
 -1      3802 1.99009E+01 2.80066E-01 7.02133E-04 2.52221E-01 2.86097E-14-3.42724E-14
 -1      3803 1.98413E+01 3.26321E-01 8.30695E-04 2.53164E-01 1.46420E-14 5.55686E-14
 -1      3804 1.99395E+01 2.03585E-01-9.56214E-04 1.63502E-01-2.02156E-13-1.11072E-13
 -1      3805 1.99324E+01 2.28157E-01 5.71223E-04 1.90508E-01-1.05409E-13-1.38918E-13
 -1      3806 1.98882E+01 2.67384E-01 6.91519E-04 1.91369E-01-4.09930E-14 6.06789E-14
 -1      3807 1.99617E+01 1.60130E-01-7.65201E-04 1.19920E-01-3.00443E-13-1.92433E-14
 -1      3808 1.99567E+01 1.81491E-01 4.67170E-04 1.41316E-01-2.94253E-13-1.21889E-13
 -1      3809 1.99245E+01 2.13964E-01 5.66718E-04 1.42336E-01-2.21802E-13 9.08691E-14
 -1      3810 1.99780E+01 1.23238E-01-6.02298E-04 8.60469E-02-1.97267E-13 2.88734E-14
 -1      3811 1.99746E+01 1.41202E-01 3.80844E-04 1.02700E-01-2.81106E-13 3.61236E-14
 -1      3812 1.99518E+01 1.67487E-01 4.39690E-04 1.03911E-01-3.27421E-13-4.64740E-14
 -1      3813 1.99895E+01 9.28497E-02-4.64129E-04 6.01381E-02-3.28257E-14 2.05065E-13
 -1      3814 1.99873E+01 1.07538E-01 3.06428E-04 7.28851E-02-7.40931E-14 1.24390E-13
 -1      3815 1.99717E+01 1.28370E-01 3.27032E-04 7.42441E-02-2.17653E-13 1.17517E-13
 -1      3816 1.99972E+01 6.84112E-02-3.50441E-04 4.06560E-02 1.11186E-13 2.02854E-13
 -1      3817 1.99960E+01 8.01478E-02 2.45582E-04 5.02344E-02 1.08984E-13 2.74709E-13
 -1      3818 1.99857E+01 9.63485E-02 2.37735E-04 5.16584E-02-4.50898E-14 4.43082E-13
 -1      3819 2.00021E+01 4.91927E-02-2.58502E-04 2.62888E-02 7.36335E-15 2.99637E-13
 -1      3820 2.00016E+01 5.83664E-02 1.94071E-04 3.33435E-02 6.22413E-14 1.60587E-13
 -1      3821 1.99951E+01 7.07203E-02 1.67435E-04 3.47519E-02 4.20729E-14 3.50943E-13
 -1      3822 2.00049E+01 3.44035E-02-1.85848E-04 1.59181E-02-1.15880E-13 4.18892E-13
 -1      3823 2.00049E+01 4.14212E-02 1.51070E-04 2.10006E-02-4.07230E-14 2.93427E-13
 -1      3824 2.00012E+01 5.06491E-02 1.12575E-04 2.23362E-02-2.73718E-14 3.75758E-13
 -1      3825 2.00063E+01 2.32641E-02-1.29815E-04 8.61289E-03 4.08132E-14 2.48968E-13
 -1      3826 2.00065E+01 2.85183E-02 1.15944E-04 1.21826E-02-4.00332E-14 3.99442E-13
 -1      3827 2.00048E+01 3.52628E-02 7.15617E-05 1.34064E-02-3.67765E-14 2.66022E-13
 -1      3828 2.00067E+01 1.50574E-02-8.75749E-05 3.61747E-03 6.18915E-14 4.61768E-14
 -1      3829 2.00071E+01 1.89040E-02 8.75559E-05 6.04816E-03 1.20938E-13 2.31009E-13
 -1      3830 2.00066E+01 2.37153E-02 4.19488E-05 7.13798E-03 1.44263E-13 9.67579E-14
 -1      3831 2.00064E+01 9.15266E-03-5.64718E-05 3.29864E-04-7.27050E-14 3.34548E-14
 -1      3832 2.00069E+01 1.19012E-02 6.48901E-05 1.91957E-03-1.01660E-13 2.35904E-14
 -1      3833 2.00072E+01 1.52378E-02 2.12987E-05 2.86733E-03 1.97401E-14 3.23723E-13
 -1      3834 2.00058E+01 5.01349E-03-3.41141E-05-1.72061E-03 1.08938E-13 7.87618E-14
 -1      3835 2.00063E+01 6.92541E-03 4.70456E-05-7.38940E-04 6.22475E-14 5.62021E-14
 -1      3836 2.00071E+01 9.15969E-03 7.48358E-06 6.93075E-05-3.95198E-14 2.81582E-13
 -1      3837 2.00050E+01 2.19343E-03-1.86309E-05-2.89544E-03 4.92678E-14 8.82077E-14
 -1      3838 2.00055E+01 3.48521E-03 3.32510E-05-2.34328E-03 1.50294E-13 9.55107E-14
 -1      3839 2.00065E+01 4.91433E-03-1.19160E-06-1.66491E-03 1.23426E-13 1.41030E-13
 -1      3840 2.00041E+01 3.28323E-04-8.12251E-06-3.46487E-03-4.58980E-13 4.30679E-13
 -1      3841 2.00046E+01 1.17504E-03 2.27048E-05-3.20920E-03-2.06250E-13 2.51314E-13
 -1      3842 2.00056E+01 2.03052E-03-6.59620E-06-2.64806E-03-2.35483E-13 4.05433E-13
 -1      3843 2.00032E+01-8.72316E-04-3.69455E-07-3.62175E-03-1.85742E-13 5.87165E-13
 -1      3844 2.00036E+01-3.40237E-04 1.32010E-05-3.57128E-03-3.61780E-13 4.57823E-13
 -1      3845 2.00046E+01 1.23761E-04-9.87491E-06-3.11474E-03-5.10055E-13 3.00424E-13
 -1      3846 2.49223E+01-2.92910E+00 6.23093E-03-5.34544E-01-3.17177E-14 1.98975E-13
 -1      3847 2.54906E+01-2.47086E+00-2.44129E-02 3.32887E-01-2.45810E-14 2.18593E-13
 -1      3848 2.45563E+01-1.69457E+00-1.43687E-02 8.96949E-01 2.54310E-15 1.96721E-13
 -1      3849 2.43184E+01-2.00837E+00 8.08166E-03 4.80834E-01-8.16448E-15 2.02323E-13
 -1      3850 2.38391E+01 3.67450E+00-1.80524E-02-5.58947E-01 3.26166E-13-7.20951E-14
 -1      3851 1.53256E+01 7.34824E-01-1.07497E-02 2.58563E+00 2.84627E-14-2.89067E-13
 -1      3852 1.35848E+01 1.66097E+00 9.76963E-02 1.50754E+00-2.42458E-14-3.69838E-13
 -1      3853 1.39281E+01 1.86929E+00 2.18732E-02 7.49906E-01-7.49886E-14-3.52838E-13
 -1      3854 1.56729E+01 1.30775E+00-3.32010E-02 2.01377E+00-1.13763E-14-2.57169E-13
 -1      3855 1.53538E+01 2.04465E+00 5.15057E-02 1.24162E+00-5.76015E-14-2.76761E-13
 -1      3856 2.00033E+01-2.48215E-03 1.85937E-06-1.42606E-03 4.15807E-14 1.46764E-13
 -1      3857 2.00031E+01-2.40338E-03 2.69694E-07-1.95877E-03 9.34914E-14-4.63082E-14
 -1      3858 2.00033E+01-2.16203E-03-1.76281E-06-2.12715E-03-5.74946E-14-2.98009E-15
 -1      3859 2.00039E+01-2.15394E-03 1.53435E-06-1.15580E-03-1.05757E-13-2.11454E-13
 -1      3860 1.60348E+01 2.15540E+00 3.71426E-03-1.56083E+00-1.44339E-13-3.27600E-13
 -1      3861 1.60608E+01 2.64719E+00 1.68327E-02-1.13294E+00-1.31540E-13-3.39517E-13
 -1      3862 1.57324E+01 2.71709E+00-1.65809E-02-8.53660E-01-1.46239E-13-3.50242E-13
 -1      3863 2.03051E+01-8.56489E-01 1.24286E-02 1.72432E+00-1.19332E-13-8.12759E-14
 -1      3864 2.06259E+01-1.20822E+00 7.07686E-03 1.74838E+00-1.20187E-13-1.13304E-13
 -1      3865 1.97405E+01-6.69420E-01-1.55909E-02 1.86269E+00-8.83118E-14-1.34504E-13
 -1      3866 1.49023E+01 9.83424E-01 3.54601E-02-1.38437E+00-2.62811E-15 3.17153E-13
 -1      3867 2.39083E+01 3.18930E+00-3.94615E-02-1.36113E+00 2.36471E-13-1.23944E-13
 -1      3868 2.42614E+01 3.01290E+00-1.13416E-01-1.69607E+00 1.89109E-13-1.69610E-13
 -1      3869 2.50792E+01-2.83632E+00 4.66140E-02-2.95057E-02-8.87380E-14-1.13798E-13
 -1      3870 1.98003E+01 7.98396E-01-8.78268E-04-1.29197E+00-5.27059E-14-1.64274E-13
 -1      3871 1.91656E+01 1.06860E+00-9.51788E-03-1.47360E+00-8.47286E-14-2.09070E-13
 -1      3872 1.89216E+01 7.75035E-01-7.80534E-03-1.83614E+00-1.11620E-13-1.88615E-13
 -1      3873 2.00044E+01-1.71085E-03-8.00737E-06 1.53253E-03 4.26821E-14 9.36110E-16
 -1      3874 2.00046E+01-1.72870E-03 1.29093E-06 9.35033E-04 1.60189E-15-1.04971E-13
 -1      3875 2.08229E+01-2.70497E+00 6.39853E-02-3.75572E+00-2.32831E-13-1.02633E-13
 -1      3876 2.18041E+01-2.88414E+00-3.59783E-02-2.93982E+00-1.93338E-13-4.78801E-14
 -1      3877 1.94299E+01-1.90137E+00 1.76128E-02-3.75894E+00-2.07905E-13-1.23873E-13
 -1      3878 2.00047E+01-1.72062E-03-2.74534E-06 2.84445E-04-3.61636E-14-4.32523E-13
 -1      3879 2.00047E+01-1.71305E-03-1.21434E-06-3.27800E-04-8.55699E-14-3.89867E-13
 -1      3880 2.00052E+01-1.23178E-03 1.02558E-05 6.08039E-04-1.00384E-14-2.02691E-13
 -1      3881 1.50755E+01-2.99285E-01 1.53438E-02 3.16743E+00-1.05296E-13 1.32616E-13
 -1      3882 1.37800E+01 1.42215E-02 7.46288E-02 3.04009E+00-4.62200E-14 3.41109E-13
 -1      3883 1.35509E+01 4.14852E-01 6.03298E-03 2.20573E+00 3.13707E-14 3.35482E-13
 -1      3884 1.60485E+01 1.67476E+00 2.59314E-02-2.06155E+00-1.58255E-13-3.18443E-13
 -1      3885 1.53476E+01 1.88610E+00-1.56116E-02-1.77914E+00-1.54032E-13-3.47790E-13
 -1      3886 1.60591E+01-2.06641E-01 6.63007E-02-3.78446E+00-2.49318E-13-2.88557E-13
 -1      3887 1.73673E+01-7.40786E-01-7.74137E-03-3.73598E+00-2.38749E-13-2.02997E-13
 -1      3888 1.56559E+01 4.59313E-01-1.54856E-03-3.18438E+00-2.20424E-13-3.12469E-13
 -1      3889 2.17364E+01-1.30306E+00 2.15045E-02-1.47039E+00-9.53591E-14-4.55313E-14
 -1      3890 2.13283E+01-8.53169E-01 3.02002E-02-1.48305E+00-8.38364E-14-7.57168E-14
 -1      3891 2.00027E+01-1.80549E-03 1.29618E-06-3.17909E-03-1.58861E-13 4.51805E-13
 -1      3892 2.00028E+01-1.60048E-03-3.60374E-06-3.32596E-03-1.22972E-13 4.01886E-13
 -1      3893 2.00032E+01-1.91441E-03 1.33668E-06-2.73765E-03-1.34687E-13 3.25438E-13
 -1      3894 1.89941E+01-1.91156E+00 1.29716E-02 3.44297E+00-2.58616E-13-1.91125E-13
 -1      3895 1.78054E+01-1.79663E+00 3.67542E-02 3.95855E+00-2.73058E-13-8.53016E-14
 -1      3896 1.68999E+01-1.15683E+00-1.79559E-03 3.60696E+00-1.74444E-13-4.59095E-15
 -1      3897 2.21746E+01-2.43398E+00 3.28790E-02 1.66618E+00-1.82639E-13-1.86895E-13
 -1      3898 2.27936E+01-2.78186E+00 1.62914E-03 1.37942E+00-2.59391E-13-1.49041E-13
 -1      3899 2.40825E+01-2.38459E+00-1.73791E-02-2.05971E-01-2.31152E-14 1.90230E-13
 -1      3900 2.25135E+01-3.14926E+00-4.95733E-02 1.97894E+00-2.27368E-13-6.80831E-14
 -1      3901 2.34601E+01-2.91790E+00 4.74867E-02 1.10573E+00-2.65948E-13-1.41704E-13
 -1      3902 2.41233E+01-2.95650E+00 7.55637E-03 5.75455E-01-1.43699E-13-9.40498E-14
 -1      3903 2.12824E+01-2.36142E+00-2.85343E-02 2.23402E+00-1.54449E-13-2.29604E-13
 -1      3904 1.75987E+01 6.43183E-01 2.90759E-02-2.61561E+00-1.72452E-13-2.34592E-13
 -1      3905 1.65989E+01 1.03122E+00-8.46868E-03-2.53477E+00-1.82517E-13-2.77583E-13
 -1      3906 2.02854E+01-1.43849E+00-2.76920E-02 2.13218E+00-1.53207E-13-1.75897E-13
 -1      3907 1.48439E+01 2.16755E+00-1.30386E-02 6.72527E-01-8.83330E-14-3.21812E-13
 -1      3908 2.19949E+01-3.01007E+00 4.58205E-02 2.54497E+00-1.89500E-13-2.33922E-13
 -1      3909 2.03743E+01 3.53222E-01 9.34944E-03-1.21151E+00-5.37566E-14-1.18915E-13
 -1      3910 2.09907E+01-2.68647E+00 9.51707E-03 2.86533E+00-2.32196E-13-2.61342E-13
 -1      3911 2.56881E+01-1.78768E+00-1.94810E-02 8.71355E-01 9.90527E-15 2.27061E-13
 -1      3912 1.38303E+01 2.04142E+00-7.33021E-03-7.51851E-01-1.19356E-13-3.68183E-13
 -1      3913 1.38648E+01 1.90296E+00 6.75784E-02-1.47495E+00-1.57945E-13-3.92776E-13
 -1      3914 2.12129E+01-2.83235E-01-1.62299E-02-9.38964E-01-2.34798E-14-4.96686E-14
 -1      3915 2.00030E+01-1.36281E-03 2.20492E-06-3.42520E-03 2.32626E-14 4.08103E-13
 -1      3916 2.00030E+01-1.12099E-03 1.91231E-06-3.54288E-03 3.41984E-14 5.31197E-13
 -1      3917 2.00039E+01-9.03530E-04-6.11606E-06-3.15715E-03-1.28911E-13 9.15567E-14
 -1      3918 2.00036E+01-1.42520E-03-3.12108E-06-2.98306E-03-1.63059E-13 5.94237E-14
 -1      3919 1.44572E+01 1.52413E+00 1.73128E-03-2.01960E+00-1.88708E-13-3.70292E-13
 -1      3920 2.17908E+01-1.93315E+00 3.02618E-02-2.08311E+00-1.43664E-13-2.82409E-14
 -1      3921 2.08088E+01-1.62466E+00-1.35595E-02-2.56406E+00-1.63928E-13-9.38889E-14
 -1      3922 2.42570E+01-2.94453E+00-2.80040E-03-9.50998E-01-5.48264E-14 1.72349E-13
 -1      3923 2.24464E+01-2.44688E+00 9.26988E-03-1.93387E+00-1.25955E-13 1.78451E-14
 -1      3924 1.53060E+01 2.53237E+00 8.57271E-03-6.43757E-01-1.33741E-13-3.31358E-13
 -1      3925 1.60174E+01 1.17745E+00-1.44665E-02-7.55453E-01 7.34655E-15 3.71109E-13
 -1      3926 1.65056E+01 1.22752E+00-1.77283E-02-6.37478E-01 6.87816E-14 3.17105E-13
 -1      3927 2.34988E+01-2.73984E+00 6.12701E-02-1.47667E+00-9.06306E-14 9.09646E-14
 -1      3928 1.70099E+01 1.24014E+00-6.95655E-03-6.18615E-01 1.11197E-13 2.38728E-13
 -1      3929 1.73721E+01 1.23104E+00-1.10696E-02-5.51614E-01 6.92298E-14 2.87992E-13
 -1      3930 1.66211E+01 1.30078E+00 1.69630E-02-2.20992E-01 4.08731E-14 2.79906E-13
 -1      3931 1.77369E+01 1.20851E+00-5.37956E-03-5.40214E-01 2.92431E-14 3.57686E-13
 -1      3932 1.80132E+01 1.17100E+00-7.25757E-03-4.92412E-01 3.78713E-14 3.01210E-13
 -1      3933 1.74434E+01 1.26272E+00 1.06715E-02-2.45286E-01 8.37383E-14 1.27452E-13
 -1      3934 1.82865E+01 1.12536E+00-4.15116E-03-4.80927E-01-6.67344E-14 2.64015E-13
 -1      3935 1.84984E+01 1.07088E+00-5.20957E-03-4.40500E-01-8.93245E-14 1.20848E-13
 -1      3936 1.80575E+01 1.18191E+00 7.59367E-03-2.59272E-01-7.15072E-14 1.03047E-13
 -1      3937 1.87083E+01 1.01161E+00-3.07362E-03-4.26075E-01-1.18158E-13 2.38312E-14
 -1      3938 1.88711E+01 9.48875E-01-3.82709E-03-3.89378E-01-2.21391E-13-7.92967E-14
 -1      3939 1.85257E+01 1.07291E+00 6.04097E-03-2.58907E-01-1.87751E-13 1.02106E-13
 -1      3940 1.90326E+01 8.85066E-01-2.27015E-03-3.71643E-01-1.33231E-13-8.04964E-14
 -1      3941 1.91576E+01 8.19731E-01-3.00997E-03-3.36657E-01 2.49087E-14-4.98687E-14
 -1      3942 1.88862E+01 9.47087E-01 4.56145E-03-2.46098E-01-1.66404E-13-1.85159E-13
 -1      3943 1.92827E+01 7.55828E-01-1.71852E-03-3.17480E-01 1.59063E-13 6.76053E-14
 -1      3944 1.93779E+01 6.92962E-01-2.45800E-03-2.84533E-01 2.43504E-13 1.19091E-13
 -1      3945 1.91650E+01 8.16753E-01 3.38845E-03-2.24048E-01 1.74564E-13-1.13125E-14
 -1      3946 1.94749E+01 6.32534E-01-1.20146E-03-2.64852E-01 3.83916E-14 1.48708E-13
 -1      3947 1.95470E+01 5.74302E-01-1.99442E-03-2.34775E-01-9.83742E-14 1.01044E-13
 -1      3948 1.93815E+01 6.89873E-01 2.59776E-03-1.95335E-01 1.75135E-13 4.78128E-14
 -1      3949 1.96215E+01 5.19460E-01-8.42509E-04-2.16072E-01-1.12466E-13-5.03975E-14
 -1      3950 1.96756E+01 4.67519E-01-1.60509E-03-1.89404E-01-8.07868E-14-3.37558E-14
 -1      3951 1.95484E+01 5.71286E-01 1.97430E-03-1.64980E-01-1.16164E-13-5.06399E-14
 -1      3952 1.97324E+01 4.19351E-01-5.47050E-04-1.72482E-01 4.76653E-15-6.07988E-14
 -1      3953 1.97725E+01 3.74411E-01-1.21454E-03-1.49480E-01-1.04035E-14-5.72690E-14
 -1      3954 1.96759E+01 4.64865E-01 1.57224E-03-1.35467E-01-8.92263E-14-1.27780E-13
 -1      3955 1.98150E+01 3.33111E-01-3.58456E-04-1.34748E-01-4.83045E-14-5.21664E-14
 -1      3956 1.98443E+01 2.94999E-01-9.70816E-04-1.15408E-01 2.02101E-14-8.19642E-14
 -1      3957 1.97723E+01 3.71647E-01 1.14409E-03-1.08116E-01-2.61124E-14-2.99835E-13
 -1      3958 1.98759E+01 2.60370E-01-2.15726E-04-1.03028E-01 1.67520E-14-1.07127E-13
 -1      3959 1.98968E+01 2.28812E-01-7.70664E-04-8.72112E-02-5.67787E-14-1.33248E-13
 -1      3960 1.98442E+01 2.92701E-01 9.37036E-04-8.42899E-02 8.11034E-15-2.78865E-13
 -1      3961 1.99199E+01 2.00403E-01-1.19070E-04-7.68944E-02-1.11529E-13-6.44661E-14
 -1      3962 1.99347E+01 1.74567E-01-6.10694E-04-6.42153E-02-1.92273E-13-1.14350E-14
 -1      3963 1.98968E+01 2.26916E-01 7.11641E-04-6.40114E-02-8.27065E-14-2.59854E-13
 -1      3964 1.99513E+01 1.51637E-01-7.54366E-05-5.60456E-02-2.26598E-13 6.44821E-15
 -1      3965 1.99615E+01 1.31004E-01-4.70558E-04-4.60645E-02-1.79952E-13-6.83041E-14
 -1      3966 1.99348E+01 1.72863E-01 4.86273E-04-4.74072E-02-1.20463E-13-1.19042E-13
 -1      3967 1.99731E+01 1.12766E-01-3.11920E-05-3.96803E-02-1.48339E-13-1.80341E-13
 -1      3968 1.99800E+01 9.64828E-02-3.52050E-04-3.20141E-02-1.36839E-13-1.60679E-13
 -1      3969 1.99618E+01 1.29480E-01 3.50402E-04-3.40117E-02-2.15507E-13-1.21170E-13
 -1      3970 1.99879E+01 8.22216E-02-1.01771E-05-2.71844E-02-1.05746E-13-9.33100E-14
 -1      3971 1.99923E+01 6.96019E-02-2.56891E-04-2.14197E-02-1.17530E-13-1.55592E-15
 -1      3972 1.99804E+01 9.51121E-02 2.47835E-04-2.36579E-02-7.05753E-14-3.88555E-13
 -1      3973 1.99975E+01 5.86396E-02 3.52623E-06-1.78424E-02-1.91262E-13-2.30198E-14
 -1      3974 2.00001E+01 4.90243E-02-1.82690E-04-1.36004E-02-1.22937E-13-7.93334E-14
 -1      3975 1.99928E+01 6.83986E-02 1.69477E-04-1.58199E-02-8.35668E-14-4.56867E-13
 -1      3976 2.00033E+01 4.07409E-02 1.11539E-05-1.10156E-02-5.55098E-14 5.98753E-14
 -1      3977 2.00048E+01 3.35437E-02-1.26191E-04-7.96707E-03-1.15608E-13 1.07261E-13
 -1      3978 2.00006E+01 4.79876E-02 1.11860E-04-1.00171E-02-6.63840E-14-4.08521E-13
 -1      3979 2.00066E+01 2.73977E-02 1.45409E-05-6.15255E-03-1.04500E-13 1.57018E-13
 -1      3980 2.00072E+01 2.21128E-02-8.40604E-05-4.02080E-03 6.61351E-14 6.94712E-14
 -1      3981 2.00052E+01 3.26661E-02 7.03249E-05-5.82982E-03-2.67490E-14-1.11491E-14
 -1      3982 2.00080E+01 1.76431E-02 1.52743E-05-2.79028E-03 1.48126E-13 1.47906E-13
 -1      3983 2.00081E+01 1.38441E-02-5.33345E-05-1.34866E-03 1.31865E-13 1.78556E-13
 -1      3984 2.00075E+01 2.13826E-02 4.10372E-05-2.89552E-03 9.20085E-14 2.31459E-14
 -1      3985 2.00083E+01 1.06653E-02 1.44871E-05-5.50542E-04-1.89930E-14 2.21930E-13
 -1      3986 2.00080E+01 7.99888E-03-3.15019E-05 3.82372E-04-1.35337E-14 2.63291E-13
 -1      3987 2.00084E+01 1.32459E-02 2.09731E-05-9.10286E-04 1.21199E-13 2.77300E-13
 -1      3988 2.00078E+01 5.79427E-03 1.29990E-05 8.68326E-04-9.19306E-14 1.92921E-13
 -1      3989 2.00074E+01 3.97059E-03-1.71761E-05 1.43475E-03-2.66435E-13 1.11899E-13
 -1      3990 2.00083E+01 7.51448E-03 7.75957E-06 3.72976E-04-6.96639E-14 4.51917E-13
 -1      3991 2.00069E+01 2.48767E-03 1.25810E-05 1.69775E-03-2.94828E-13 1.23857E-13
 -1      3992 2.00064E+01 1.27386E-03-9.59372E-06 2.00781E-03-2.76473E-13-3.62426E-14
 -1      3993 2.00076E+01 3.57776E-03-7.93693E-07 1.14769E-03-3.01889E-13 3.61879E-13
 -1      3994 2.00058E+01 2.98464E-04 1.23661E-05 2.12345E-03-2.15969E-13-7.68727E-14
 -1      3995 2.00052E+01-4.85165E-04-1.45828E-06 2.24738E-03-8.93123E-14-2.92855E-14
 -1      3996 2.00065E+01 9.58031E-04-4.81955E-06 1.57364E-03-2.27325E-13 1.27471E-13
 -1      3997 1.90910E+01 3.98765E-01-3.18075E-03 1.20270E+00-5.41278E-14-4.99475E-14
 -1      3998 1.91164E+01 2.89338E-01 7.43287E-03 1.33404E+00-3.36351E-14-8.65040E-14
 -1      3999 1.39410E+01 1.05504E+00 6.04740E-03-6.33073E-01-1.08611E-14 4.02945E-13
 -1      4000 1.53350E+01 1.15036E+00-7.68251E-03-7.00594E-01-2.66228E-14 3.57252E-13
 -1      4001 1.90571E+01 1.35888E-01-2.00397E-03 1.51445E+00-1.93619E-14-1.77694E-13
 -1      4002 1.91522E+01-5.43380E-02 1.14926E-02 1.66745E+00 1.34075E-14-1.76301E-13
 -1      4003 1.87332E+01 3.40018E-01-3.15303E-03 1.42246E+00-6.19179E-14-9.30706E-14
 -1      4004 1.93093E+01 5.83519E-01-3.02599E-03 7.51495E-01-1.58185E-13-7.35876E-14
 -1      4005 1.92777E+01 5.69912E-01 3.27211E-03 8.42057E-01-5.78107E-14-4.72387E-14
 -1      4006 1.94344E+01 5.74424E-01-2.78385E-03 5.90395E-01-1.17828E-13 4.02743E-14
 -1      4007 1.93955E+01 5.86216E-01 2.11537E-03 6.64800E-01-2.33792E-13-8.64710E-14
 -1      4008 1.92115E+01 6.59035E-01 1.82907E-03 6.54870E-01-1.58043E-13-1.10009E-13
 -1      4009 1.95507E+01 5.31798E-01-2.49387E-03 4.61395E-01-5.81890E-14 3.09250E-13
 -1      4010 1.95118E+01 5.57545E-01 1.28355E-03 5.22727E-01-3.10864E-14 2.29635E-13
 -1      4011 1.93681E+01 6.26486E-01 1.68061E-03 5.05681E-01-1.96500E-13 7.82088E-14
 -1      4012 1.96534E+01 4.70732E-01-2.13170E-03 3.57454E-01-1.13874E-13 2.80445E-13
 -1      4013 1.96179E+01 5.03824E-01 8.71107E-04 4.07667E-01-1.64886E-14 2.77107E-13
 -1      4014 1.95062E+01 5.68035E-01 1.75969E-03 3.89019E-01-4.24188E-14 2.94622E-13
 -1      4015 1.97401E+01 4.02562E-01-1.76799E-03 2.74298E-01-2.85409E-14 2.41629E-13
 -1      4016 1.97096E+01 4.37841E-01 6.00211E-04 3.15131E-01-1.35324E-13 2.18922E-13
 -1      4017 1.96237E+01 4.95219E-01 1.60166E-03 2.97458E-01-1.13474E-13 2.14688E-13
 -1      4018 1.98107E+01 3.34733E-01-1.42240E-03 2.08218E-01-2.18308E-14 1.66330E-13
 -1      4019 1.97858E+01 3.68868E-01 4.20012E-04 2.41069E-01-5.36522E-15 1.51825E-13
 -1      4020 1.97204E+01 4.18764E-01 1.38699E-03 2.25860E-01 1.36990E-14 3.37556E-13
 -1      4021 1.98664E+01 2.71668E-01-1.15402E-03 1.55834E-01-5.33296E-14 2.39146E-13
 -1      4022 1.98467E+01 3.03003E-01 3.04159E-04 1.82135E-01-3.39191E-14 2.07085E-13
 -1      4023 1.97978E+01 3.45172E-01 1.09636E-03 1.69915E-01-9.79378E-14 1.95193E-13
 -1      4024 1.99093E+01 2.15662E-01-9.02444E-04 1.14930E-01-2.63124E-13 2.59273E-13
 -1      4025 1.98943E+01 2.43076E-01 2.44654E-04 1.35670E-01-1.18142E-13 3.08673E-13
 -1      4026 1.98583E+01 2.78372E-01 9.56777E-04 1.26166E-01-1.05377E-13 2.48790E-13
 -1      4027 1.99413E+01 1.67635E-01-7.20181E-04 8.31659E-02-3.67566E-13 1.82086E-13
 -1      4028 1.99303E+01 1.90978E-01 1.95879E-04 9.93282E-02-4.21369E-13 1.11856E-13
 -1      4029 1.99042E+01 2.19689E-01 7.15865E-04 9.24197E-02-2.08782E-13 3.23429E-13
 -1      4030 1.99647E+01 1.27717E-01-5.62653E-04 5.89059E-02-2.28030E-13 1.99408E-13
 -1      4031 1.99569E+01 1.46955E-01 1.50148E-04 7.13373E-02-2.55380E-13 1.86443E-13
 -1      4032 1.99384E+01 1.69989E-01 5.43495E-04 6.64536E-02-3.46153E-13 1.59249E-13
 -1      4033 1.99812E+01 9.52881E-02-4.28576E-04 4.05739E-02-1.13366E-14 2.16897E-13
 -1      4034 1.99759E+01 1.10823E-01 1.23611E-04 4.99825E-02-1.67778E-13 1.64942E-13
 -1      4035 1.99632E+01 1.28989E-01 4.06860E-04 4.67886E-02-1.66258E-13 3.71568E-14
 -1      4036 1.99925E+01 6.95127E-02-3.18170E-04 2.69774E-02 1.66930E-14 2.45136E-13
 -1      4037 1.99890E+01 8.17856E-02 1.01403E-04 3.39740E-02 6.28198E-14 2.14707E-13
 -1      4038 1.99806E+01 9.58288E-02 2.98300E-04 3.20197E-02 1.55468E-14 2.43278E-14
 -1      4039 1.99998E+01 4.94630E-02-2.30759E-04 1.70753E-02 5.40727E-15 1.84215E-13
 -1      4040 1.99977E+01 5.89542E-02 8.24071E-05 2.21816E-02 6.31797E-14 2.11203E-13
 -1      4041 1.99924E+01 6.95977E-02 2.09296E-04 2.11497E-02 6.52135E-15 1.41189E-13
 -1      4042 2.00042E+01 3.41847E-02-1.63251E-04 1.00079E-02-5.92174E-14 2.27212E-13
 -1      4043 2.00031E+01 4.13761E-02 6.71766E-05 1.36557E-02-9.23676E-14 3.22978E-13
 -1      4044 2.00000E+01 4.92884E-02 1.41481E-04 1.32731E-02-4.14882E-14 3.27797E-13
 -1      4045 2.00065E+01 2.27825E-02-1.12129E-04 5.08747E-03 1.42403E-13 3.44436E-13
 -1      4046 2.00061E+01 2.81179E-02 5.42880E-05 7.62729E-03 6.82751E-14 3.00319E-13
 -1      4047 2.00046E+01 3.38770E-02 9.13492E-05 7.67710E-03 1.54484E-14 5.86617E-13
 -1      4048 2.00074E+01 1.44585E-02-7.41776E-05 1.76742E-03-4.47672E-14 4.58208E-13
 -1      4049 2.00075E+01 1.83291E-02 4.32791E-05 3.47986E-03 7.26494E-14 4.42163E-13
 -1      4050 2.00070E+01 2.24214E-02 5.52010E-05 3.79908E-03 7.81988E-14 5.19615E-13
 -1      4051 2.00074E+01 8.52533E-03-4.66953E-05-3.80853E-04 4.50408E-14 2.89254E-13
 -1      4052 2.00077E+01 1.12651E-02 3.39577E-05 7.25052E-04-4.56958E-15 3.16063E-13
 -1      4053 2.00079E+01 1.40918E-02 2.98892E-05 1.19576E-03 4.94051E-14 4.54387E-13
 -1      4054 2.00069E+01 4.40734E-03-2.68666E-05-1.68749E-03 3.22170E-14 3.84069E-13
 -1      4055 2.00073E+01 6.29377E-03 2.61365E-05-1.01759E-03 7.36081E-14 3.00164E-13
 -1      4056 2.00079E+01 8.17868E-03 1.28211E-05-4.77984E-04 2.35900E-14 4.53563E-13
 -1      4057 2.00060E+01 1.62703E-03-1.35657E-05-2.40649E-03-4.37734E-13 5.72643E-13
 -1      4058 2.00065E+01 2.89149E-03 1.96674E-05-2.04168E-03-1.39090E-13 5.00956E-13
 -1      4059 2.00072E+01 4.09484E-03 2.99038E-06-1.48552E-03-1.95304E-13 5.99560E-13
 -1      4060 2.00050E+01-1.82865E-04 3.31582E-06-2.72877E-03-2.67634E-13 5.35149E-15
 -1      4061 2.00055E+01 6.34844E-04 1.61956E-05-2.56449E-03-4.14784E-13 1.44375E-13
 -1      4062 2.00063E+01 1.34288E-03-6.88382E-06-2.02706E-03-1.27114E-13 4.41097E-13
 -1      4063 2.06728E+01-1.92332E-01 4.15663E-03-1.38469E+00-7.07446E-14-1.12322E-13
 -1      4064 1.43695E+01 2.35878E+00 4.99035E-02-1.23731E-01-1.20405E-13-3.46631E-13
 -1      4065 1.87544E+01 2.88163E-01-1.60025E-02-2.29773E+00-1.57412E-13-1.76065E-13
 -1      4066 1.81842E+01-2.81780E-01-4.32693E-03-3.02520E+00-1.76369E-13-1.94663E-13
 -1      4067 1.94823E+01-9.66276E-01 1.30005E-02 2.32764E+00-1.56463E-13-1.15345E-13
 -1      4068 1.98561E+01-1.42753E+00 1.19384E-02 2.47799E+00-1.51196E-13-1.62752E-13
 -1      4069 1.36799E+01 8.34461E-01 5.42802E-02 1.46970E+00 2.08943E-14 4.83481E-13
 -1      4070 1.39731E+01 9.96108E-01-3.51241E-03 7.24676E-01 5.42691E-14 4.48763E-13
 -1      4071 1.45783E+01 6.01121E-01 1.00370E-02 1.89548E+00 6.03304E-15 3.46742E-13
 -1      4072 1.89391E+01-9.83941E-01 4.62000E-02-3.33239E+00-1.83509E-13-1.46030E-13
 -1      4073 2.00038E+01-1.80797E-03 6.03847E-06 2.30076E-03 1.57396E-13-4.83185E-14
 -1      4074 1.91506E+01-3.05170E-01 1.00895E-03 1.89417E+00-3.11910E-14-1.43478E-13
 -1      4075 1.93618E+01-6.03792E-01 1.61982E-02 2.05912E+00-1.41134E-13-1.60155E-13
 -1      4076 1.87675E+01-6.30294E-01-5.66298E-03 2.37879E+00-1.12832E-13-1.82974E-13
 -1      4077 2.03637E+01-2.09706E+00 2.77243E-02 2.80029E+00-2.21004E-13-2.29852E-13
 -1      4078 1.96203E+01 4.39286E-04 2.36102E-02-2.10873E+00-1.17465E-13-1.51427E-13
 -1      4079 1.99621E+01-1.36881E+00-1.40733E-02-2.92879E+00-1.73294E-13-1.11701E-13
 -1      4080 1.91878E+01 5.34562E-01-3.28506E-03 9.52037E-01-4.12796E-14-7.67518E-15
 -1      4081 1.91749E+01 4.82482E-01 4.92995E-03 1.06154E+00-1.16868E-14 1.82783E-14
 -1      4082 1.88748E+01 5.48569E-01-3.01109E-04 1.09687E+00-4.34901E-14 4.04468E-15
 -1      4083 1.54446E+01 1.28349E+00 2.93348E-02-9.71373E-02 1.85104E-14 4.52171E-13
 -1      4084 1.92661E+01-1.69118E+00-7.46310E-03 3.06644E+00-2.00765E-13-1.64691E-13
 -1      4085 2.00045E+01-1.39326E-03 2.61086E-06 2.03179E-03 1.54426E-13 5.08280E-14
 -1      4086 2.00057E+01-6.58517E-04-4.78997E-06 8.95021E-04 2.69099E-14 9.23020E-14
 -1      4087 2.00058E+01-6.52830E-04-7.67493E-06 2.83972E-04-1.44174E-13-1.76258E-13
 -1      4088 1.63400E+01-5.87264E-01 4.34957E-02 3.32872E+00-1.51146E-13-5.84428E-15
 -1      4089 1.57248E+01-1.23423E-01-1.45696E-02 2.79997E+00-2.31603E-14 3.03533E-14
 -1      4090 1.75051E+01-8.78279E-01 6.57826E-03 3.15056E+00-1.46313E-13-1.33174E-13
 -1      4091 1.60174E+01 7.32172E-01 7.79686E-03-2.85201E+00-1.93941E-13-3.07041E-13
 -1      4092 2.00036E+01-1.90622E-03 5.87381E-07-2.26819E-03-2.16665E-13 8.06129E-14
 -1      4093 2.00038E+01-1.64997E-03 2.26682E-06-2.42008E-03-3.55002E-13 1.89539E-13
 -1      4094 2.00040E+01-1.92092E-03 8.06284E-07-1.81419E-03-1.89451E-13 1.25130E-13
 -1      4095 1.48608E+01 1.75727E+00 2.59440E-03-1.80915E+00-1.61476E-13-3.60532E-13
 -1      4096 1.50553E+01 1.20887E+00 5.46335E-02-2.61180E+00-2.00996E-13-3.54584E-13
 -1      4097 1.86651E+01-3.04358E-02-6.08692E-03 1.84491E+00 3.20067E-15-1.46258E-13
 -1      4098 2.02408E+01-2.96709E-01-1.96964E-02-1.81586E+00-9.94417E-14-1.43123E-13
 -1      4099 2.00047E+01-5.57440E-04-1.53073E-07-2.63348E-03-2.74330E-13-8.61798E-14
 -1      4100 2.00055E+01-1.88309E-04-2.23055E-05-2.14034E-03-2.91845E-13 5.66876E-15
 -1      4101 2.00045E+01-8.78744E-04-4.06462E-07-2.57328E-03-2.83492E-13 2.06052E-14
 -1      4102 2.01589E+01-7.90042E-01-1.34256E-02-2.31206E+00-1.14951E-13-1.24385E-13
 -1      4103 1.90430E+01 6.42213E-01 1.34563E-03 8.47460E-01-5.56688E-14-1.94710E-14
 -1      4104 1.47966E+01 2.37563E+00-7.55530E-03-5.98453E-01-1.38988E-13-3.41822E-13
 -1      4105 1.50400E+01 2.31388E+00 3.65528E-02-1.21264E+00-1.43051E-13-3.51393E-13
 -1      4106 2.00045E+01-1.81947E-03-5.41056E-06-8.30217E-04-1.43473E-13-2.47340E-13
 -1      4107 2.00043E+01-1.84522E-03-5.17466E-06-1.32637E-03-2.03582E-13-5.76081E-15
 -1      4108 2.00046E+01-1.57230E-03-8.11822E-08-1.49355E-03-2.72696E-13 1.21491E-14
 -1      4109 2.00051E+01-1.32660E-03 1.61201E-05-5.32727E-04-1.11717E-13-1.42800E-13
 -1      4110 1.41233E+01 1.16055E+00 3.67521E-02 1.03965E-01 1.84024E-14 4.21078E-13
 -1      4111 1.45928E+01 1.04659E+00-6.06322E-05 6.29183E-01 3.42990E-14 4.95610E-13
 -1      4112 1.52914E+01 1.07808E+00 2.23960E-02 9.31770E-01 8.87170E-15 3.87803E-13
 -1      4113 1.52420E+01 1.16002E+00-1.68563E-02 3.50983E-01-1.55930E-14 4.70326E-13
 -1      4114 1.59845E+01 1.21714E+00 1.45481E-05 1.84635E-01-5.94522E-14 4.17929E-13
 -1      4115 2.00055E+01-6.90473E-04-8.73667E-06 1.48924E-03 6.57812E-14 1.28961E-13
 -1      4116 2.00062E+01 3.30897E-05 1.27535E-05 1.12663E-03-7.63495E-14 4.74852E-14
 -1      4117 1.85848E+01-1.15336E+00 2.73247E-02 2.99415E+00-1.67955E-13-2.15053E-13
 -1      4118 1.78795E+01-7.45140E-01-1.65660E-02 2.82532E+00-1.48873E-13-1.60017E-13
 -1      4119 1.64637E+01 1.22914E+00-1.05551E-02 9.90786E-02-5.03712E-14 3.15401E-13
 -1      4120 1.69543E+01 1.23683E+00-3.55885E-03 5.62305E-02 1.31753E-14 1.67276E-13
 -1      4121 1.64301E+01 1.20824E+00 1.83980E-02 4.97912E-01-1.15175E-13 2.10596E-13
 -1      4122 1.81796E+01 3.08826E-01-8.54556E-03 1.64194E+00-1.09439E-15-9.92145E-14
 -1      4123 1.81866E+01 1.20535E-01 1.31262E-02 1.88454E+00-6.11872E-14-1.43374E-13
 -1      4124 1.79669E+01-9.84959E-02-1.36482E-02 2.16058E+00-6.47038E-14-2.18055E-13
 -1      4125 1.80803E+01-4.23055E-01 1.09842E-02 2.46531E+00-1.43000E-13-1.92547E-13
 -1      4126 1.71100E+01-9.21184E-02 2.41305E-02 2.54871E+00-1.25244E-13-1.72097E-13
 -1      4127 1.75090E+01 3.07035E-01 1.10665E-02 1.92513E+00-9.34896E-14-1.86544E-13
 -1      4128 1.73168E+01 1.22138E+00-7.68950E-03-1.06512E-02 6.31840E-14 3.42743E-14
 -1      4129 1.76778E+01 1.20148E+00-1.73153E-03-3.78519E-02 2.51583E-14-2.15040E-14
 -1      4130 1.72744E+01 1.20153E+00 8.81707E-03 2.84000E-01-5.98695E-14 1.21108E-13
 -1      4131 1.79543E+01 1.15924E+00-5.49658E-03-8.18235E-02-1.31325E-14-1.91038E-15
 -1      4132 1.82257E+01 1.12050E+00-9.64365E-04-9.92725E-02-9.52428E-14 7.19169E-14
 -1      4133 1.79027E+01 1.14778E+00 2.82603E-03 1.40050E-01 8.27084E-16 5.08412E-14
 -1      4134 1.84375E+01 1.06466E+00-4.25586E-03-1.20947E-01-2.23274E-13 9.03635E-14
 -1      4135 1.86462E+01 1.00764E+00-2.09925E-03-1.29153E-01-2.47636E-13 1.84251E-14
 -1      4136 1.83905E+01 1.07535E+00 6.22936E-03 3.68322E-02-1.68264E-13 6.13203E-14
 -1      4137 1.88164E+01 9.49813E-01-1.98869E-03-1.42028E-01-1.55837E-13 2.10794E-14
 -1      4138 1.89740E+01 8.87609E-01-1.53349E-03-1.42053E-01 2.11408E-14 1.16430E-13
 -1      4139 1.87755E+01 9.66621E-01 7.08172E-03-1.35270E-02-1.34645E-13 1.56119E-13
 -1      4140 1.91040E+01 8.25327E-01-2.84002E-03-1.42179E-01 1.32806E-13-2.10747E-15
 -1      4141 1.92295E+01 7.63002E-01-1.41410E-03-1.35768E-01 1.89359E-13 2.13962E-14
 -1      4142 1.90639E+01 8.53519E-01 6.31258E-03-4.35613E-02 8.69176E-14 1.33265E-13
 -1      4143 1.93320E+01 7.01084E-01-2.37794E-03-1.32951E-01 1.70585E-13-1.43784E-13
 -1      4144 1.94295E+01 6.41366E-01-1.18643E-03-1.23408E-01 2.09504E-14-1.63264E-13
 -1      4145 1.93021E+01 7.31403E-01 6.69359E-03-5.85904E-02 2.28190E-14-2.85355E-13
 -1      4146 1.95092E+01 5.84031E-01-1.74289E-03-1.17862E-01-1.34282E-13-2.28143E-13
 -1      4147 1.95835E+01 5.29295E-01-9.30330E-04-1.06795E-01-2.20813E-13-1.98878E-13
 -1      4148 1.94839E+01 6.12758E-01 5.36900E-03-6.20635E-02-1.39410E-13-4.03752E-13
 -1      4149 1.96448E+01 4.77306E-01-1.44479E-03-9.95214E-02-2.14614E-13-2.13887E-13
 -1      4150 1.97026E+01 4.29245E-01-3.22089E-04-8.78379E-02-1.37130E-13-3.18742E-13
 -1      4151 1.96227E+01 5.03083E-01 3.53335E-03-5.87617E-02-2.15945E-13-3.29829E-13
 -1      4152 1.97491E+01 3.83240E-01-8.72844E-04-8.24418E-02-4.57361E-14-3.73942E-13
 -1      4153 1.97913E+01 3.42504E-01-1.84977E-04-7.14326E-02 6.98632E-14-4.34383E-13
 -1      4154 1.97314E+01 4.00186E-01 9.71890E-04-4.94091E-02-1.19639E-13-4.30462E-13
 -1      4155 1.98270E+01 3.02727E-01-5.71985E-04-6.51588E-02 1.71315E-14-4.10448E-13
 -1      4156 1.98575E+01 2.67827E-01-4.04280E-04-5.59953E-02-4.42981E-14-3.31584E-13
 -1      4157 1.98119E+01 3.18267E-01 6.15172E-04-4.20698E-02 5.64877E-14-4.59065E-13
 -1      4158 1.98846E+01 2.35754E-01-2.40264E-04-5.04282E-02-6.89218E-14-3.47942E-13
 -1      4159 1.99063E+01 2.06473E-01-3.82052E-04-4.25853E-02-4.24465E-14-2.44469E-13
 -1      4160 1.98740E+01 2.49872E-01 1.23674E-03-3.28160E-02-1.82511E-14-4.06451E-13
 -1      4161 1.99256E+01 1.80061E-01-3.88265E-04-3.76078E-02-1.09028E-13-1.53772E-13
 -1      4162 1.99416E+01 1.56592E-01-2.66553E-04-3.10705E-02-2.01107E-13-2.75092E-13
 -1      4163 1.99176E+01 1.92937E-01 1.01920E-03-2.50534E-02-7.19525E-14-2.69877E-13
 -1      4164 1.99554E+01 1.35159E-01-3.15886E-04-2.73181E-02-1.91707E-13-2.85537E-13
 -1      4165 1.99667E+01 1.16447E-01-1.85736E-04-2.21373E-02-1.36494E-13-2.47611E-13
 -1      4166 1.99505E+01 1.45708E-01 1.02263E-03-1.87087E-02-2.47238E-13-3.84388E-13
 -1      4167 1.99762E+01 9.95642E-02-2.21007E-04-1.92415E-02-1.23836E-13-4.22027E-13
 -1      4168 1.99838E+01 8.49199E-02-1.25488E-04-1.52303E-02 2.30746E-15-5.34344E-13
 -1      4169 1.99728E+01 1.07795E-01 7.62840E-04-1.34814E-02-2.37979E-13-3.67571E-13
 -1      4170 1.99901E+01 7.18114E-02-1.55989E-04-1.30425E-02-4.83899E-14-5.48841E-13
 -1      4171 1.99950E+01 6.05573E-02-7.97059E-05-1.00002E-02-2.01431E-13-6.59419E-13
 -1      4172 1.99879E+01 7.80937E-02 5.37309E-04-9.30086E-03-1.14213E-13-6.13788E-13
 -1      4173 1.99990E+01 5.05451E-02-1.09094E-04-8.39972E-03-2.25316E-14-5.38841E-13
 -1      4174 2.00020E+01 4.20505E-02-4.59929E-05-6.14706E-03 8.38295E-14-2.72449E-13
 -1      4175 1.99977E+01 5.52365E-02 3.62970E-04-6.09229E-03 6.79530E-14-6.11081E-13
 -1      4176 2.00044E+01 3.45382E-02-7.48320E-05-5.01490E-03 3.63946E-14-1.16451E-13
 -1      4177 2.00061E+01 2.82475E-02-2.21957E-05-3.39006E-03 5.64667E-14 1.41474E-14
 -1      4178 2.00037E+01 3.79631E-02 2.33739E-04-3.71385E-03 2.25434E-13-2.97422E-13
 -1      4179 2.00073E+01 2.27186E-02-4.99179E-05-2.61896E-03 1.16278E-13 1.51104E-14
 -1      4180 2.00080E+01 1.81557E-02-6.21075E-06-1.48110E-03 1.78770E-13 6.31603E-14
 -1      4181 2.00070E+01 2.51575E-02 1.40874E-04-2.00804E-03 1.28334E-13-6.18316E-14
 -1      4182 2.00084E+01 1.41722E-02-3.20126E-05-9.80087E-04 2.42605E-13-5.08942E-14
 -1      4183 2.00086E+01 1.09381E-02 3.84135E-06-2.11149E-04 1.43152E-13 8.71627E-14
 -1      4184 2.00084E+01 1.58597E-02 7.62517E-05-8.27267E-04 2.28015E-13-2.27881E-13
 -1      4185 2.00085E+01 8.13515E-03-1.93378E-05 9.36179E-05-5.86666E-14 2.47424E-13
 -1      4186 2.00083E+01 5.90164E-03 9.59756E-06 5.89054E-04-1.66797E-13 2.51330E-13
 -1      4187 2.00087E+01 9.26274E-03 3.31922E-05-4.36170E-05 2.14867E-14-2.16190E-13
 -1      4188 2.00079E+01 3.97866E-03-1.05242E-05 7.58511E-04-2.87834E-13 3.97769E-13
 -1      4189 2.00074E+01 2.47456E-03 7.56438E-06 1.03899E-03-2.47748E-13 4.38606E-13
 -1      4190 2.00081E+01 4.70382E-03 7.95987E-06 4.51206E-04-1.95227E-13 1.11062E-13
 -1      4191 2.00071E+01 1.67876E-03 5.77283E-06 1.01783E-03-3.40630E-13 1.90712E-13
 -1      4192 2.00065E+01 5.85100E-04-3.42964E-06 1.16693E-03-3.20858E-13 1.19988E-13
 -1      4193 2.00067E+01 6.30295E-04-1.04687E-05 6.17457E-04-3.06978E-13 3.09180E-13
 -1      4194 2.00074E+01 2.09862E-03 9.79859E-07 6.31436E-04-3.56627E-13 4.45795E-13
 -1      4195 2.00049E+01-1.03586E-03 9.91090E-06 2.01251E-03 5.08313E-14 9.40266E-14
 -1      4196 1.86667E+01 7.01795E-01-5.82646E-03 9.23426E-01 5.42712E-15-5.72714E-15
 -1      4197 1.85958E+01 6.53143E-01 4.84205E-03 1.06188E+00-9.58146E-14 1.67012E-14
 -1      4198 1.84167E+01 5.75869E-01-6.48217E-03 1.22822E+00-1.61653E-13 4.53084E-14
 -1      4199 1.83706E+01 4.67526E-01 8.17134E-03 1.41485E+00-9.37455E-16-1.51371E-14
 -1      4200 1.78758E+01 5.61131E-01-6.22013E-03 1.44041E+00-8.56574E-14 2.92149E-15
 -1      4201 1.93055E+01 6.59990E-01-4.16212E-03 3.98931E-01-2.38078E-13 2.60802E-14
 -1      4202 1.92360E+01 6.92602E-01 4.25024E-04 4.60116E-01-3.31946E-13 7.02570E-15
 -1      4203 1.91219E+01 7.17401E-01-3.57575E-03 5.25587E-01-1.87888E-13 3.10787E-14
 -1      4204 1.90438E+01 7.36998E-01 2.40159E-03 6.05520E-01-8.82023E-14 5.62411E-14
 -1      4205 1.90867E+01 7.63699E-01 8.72373E-04 4.13326E-01-2.84631E-13 3.05943E-14
 -1      4206 1.95966E+01 5.00630E-01-2.60833E-03 2.25821E-01-2.78951E-14 1.20816E-13
 -1      4207 1.95458E+01 5.44180E-01 2.10601E-04 2.62480E-01-6.11302E-14 1.95240E-13
 -1      4208 1.97035E+01 4.18096E-01-1.67269E-03 1.68048E-01-1.93456E-14 2.23615E-13
 -1      4209 1.96608E+01 4.60234E-01 6.86990E-05 1.97028E-01 2.06512E-14 2.15688E-13
 -1      4210 1.95975E+01 5.16437E-01 4.49015E-03 1.65360E-01-2.79787E-14-6.36351E-14
 -1      4211 1.97868E+01 3.42312E-01-1.08530E-03 1.24675E-01-1.60674E-13 1.64955E-13
 -1      4212 1.97529E+01 3.79744E-01-9.27750E-05 1.47965E-01-6.84295E-14 1.88092E-13
 -1      4213 1.97040E+01 4.20065E-01 5.46963E-04 1.17787E-01-6.98015E-14 1.17872E-13
 -1      4214 1.98511E+01 2.72909E-01-9.81790E-04 9.15512E-02-1.90159E-13 1.72158E-13
 -1      4215 1.98250E+01 3.06385E-01-1.47584E-04 1.09114E-01-1.99430E-13 1.48680E-13
 -1      4216 1.97896E+01 3.42478E-01 1.39492E-03 8.72813E-02-1.81004E-13 1.30254E-13
 -1      4217 1.98996E+01 2.14277E-01-7.19008E-04 6.60255E-02-1.54537E-13 2.17170E-13
 -1      4218 1.98802E+01 2.42915E-01 2.29358E-05 8.00173E-02-8.60357E-14 2.38117E-13
 -1      4219 1.98539E+01 2.71256E-01 7.67729E-04 6.30257E-02-1.57424E-13 1.11651E-13
 -1      4220 1.99353E+01 1.64488E-01-7.24792E-04 4.71126E-02-2.42108E-13 3.40448E-14
 -1      4221 1.99214E+01 1.88281E-01-5.65385E-05 5.75964E-02-2.58457E-13 1.62387E-13
 -1      4222 1.99023E+01 2.10884E-01 3.23716E-04 4.56766E-02-1.62681E-13 9.76929E-14
 -1      4223 1.99614E+01 1.23997E-01-5.28096E-04 3.25808E-02-6.66269E-14 1.56514E-14
 -1      4224 1.99515E+01 1.43455E-01-2.66969E-05 4.04864E-02-1.75402E-13 6.04149E-14
 -1      4225 1.99385E+01 1.63751E-01 1.10579E-03 3.16261E-02-1.05207E-13-1.89603E-13
 -1      4226 1.99797E+01 9.14958E-02-3.87615E-04 2.19866E-02-3.96894E-14 1.26248E-13
 -1      4227 1.99728E+01 1.06979E-01-3.15628E-05 2.78848E-02-2.16895E-16 8.47719E-14
 -1      4228 1.99643E+01 1.22847E-01 9.13650E-04 2.18216E-02-1.24707E-13 4.87212E-14
 -1      4229 1.99920E+01 6.60181E-02-2.77232E-04 1.42685E-02 8.26338E-16 1.63115E-13
 -1      4230 1.99875E+01 7.80944E-02-1.37417E-05 1.86160E-02-3.03039E-14 1.53614E-13
 -1      4231 1.99820E+01 9.02462E-02 6.62268E-04 1.46332E-02-1.45079E-13 2.16503E-13
 -1      4232 2.00000E+01 4.64168E-02-1.93549E-04 8.73104E-03-1.58099E-13 3.78981E-13
 -1      4233 1.99972E+01 5.56540E-02-1.18305E-06 1.18855E-02-7.77945E-14 1.87652E-13
 -1      4234 1.99937E+01 6.47882E-02 4.58117E-04 9.41487E-03-1.26517E-13 2.25830E-13
 -1      4235 2.00047E+01 3.16298E-02-1.31111E-04 4.84060E-03 8.82718E-14 3.08699E-13
 -1      4236 2.00031E+01 3.85561E-02 6.98874E-06 7.08393E-03-3.28401E-14 2.65005E-13
 -1      4237 2.00012E+01 4.52881E-02 3.03452E-04 5.69582E-03-3.31666E-14-1.97146E-14
 -1      4238 2.00072E+01 2.07026E-02-8.53378E-05 2.17847E-03 1.04213E-13 3.07572E-13
 -1      4239 2.00065E+01 2.57880E-02 1.18234E-05 3.73459E-03 1.34445E-13 3.51341E-13
 -1      4240 2.00056E+01 3.06431E-02 1.90316E-04 3.10073E-03 5.76183E-14-1.18230E-13
 -1      4241 2.00081E+01 1.28058E-02-5.24529E-05 4.18551E-04 1.11299E-13 3.65070E-13
 -1      4242 2.00080E+01 1.64549E-02 1.41643E-05 1.46401E-03 1.12677E-13 3.52388E-13
 -1      4243 2.00078E+01 1.98703E-02 1.10077E-04 1.33658E-03 1.27985E-13 1.18196E-13
 -1      4244 2.00081E+01 7.23671E-03-2.92166E-05-6.90021E-04-4.43093E-14 2.89389E-13
 -1      4245 2.00083E+01 9.78989E-03 1.47186E-05-1.79632E-05 3.41549E-14 3.01188E-13
 -1      4246 2.00085E+01 1.21224E-02 5.51411E-05 1.77854E-04 1.19525E-13 1.03226E-14
 -1      4247 2.00074E+01 3.41736E-03-7.51218E-06-1.33318E-03-1.70207E-13 2.41106E-13
 -1      4248 2.00079E+01 5.14496E-03 1.27249E-05-9.33339E-04-1.57543E-13 1.95161E-13
 -1      4249 2.00083E+01 6.68571E-03 1.90625E-05-5.48331E-04-3.57003E-14-2.20411E-13
 -1      4250 2.00064E+01 8.57654E-04-8.22119E-06-1.64733E-03-1.01526E-13 2.64186E-14
 -1      4251 2.00070E+01 2.00215E-03 6.54718E-06-1.44802E-03-2.35863E-14 2.09795E-13
 -1      4252 2.00075E+01 2.91398E-03-5.74411E-06-9.63265E-04-1.01975E-14-3.35805E-13
 -1      4253 1.53305E+01 4.75020E-01 3.56670E-02 2.19238E+00-1.42269E-14 1.45872E-13
 -1      4254 1.51707E+01 7.52226E-01-2.26660E-02 1.54442E+00-2.11081E-14 2.95104E-13
 -1      4255 1.58410E+01 9.19471E-01 1.69760E-03 1.19712E+00-7.62120E-14 2.01476E-13
 -1      4256 1.63260E+01 1.50385E-01 8.73374E-03 2.36385E+00-6.89016E-14-9.22266E-15
 -1      4257 1.94651E+01 5.83675E-01-3.39557E-03 3.00437E-01-1.19790E-13 1.78855E-13
 -1      4258 1.94053E+01 6.25396E-01 5.95070E-04 3.47365E-01-1.41294E-13 9.10220E-14
 -1      4259 1.94627E+01 6.09859E-01 5.89733E-03 2.24011E-01-1.10055E-13-6.37049E-14
 -1      4260 1.89050E+01 7.37451E-01-5.29080E-03 6.97120E-01-8.40794E-14 7.73687E-14
 -1      4261 1.88263E+01 7.29951E-01 2.82392E-03 7.99689E-01-1.84379E-14 6.12774E-14
 -1      4262 1.85626E+01 8.25646E-01 4.28141E-03 7.58481E-01-2.16017E-14 3.80839E-14
 -1      4263 2.00064E+01 7.39221E-05 1.15863E-05-5.08081E-05-4.73482E-13-1.32384E-13
 -1      4264 2.00058E+01-6.59481E-04-9.15162E-06-3.51637E-04-3.72469E-13-2.98691E-13
 -1      4265 1.92932E+01 7.00638E-01 6.56983E-03 3.02917E-01-2.86309E-13-1.32279E-13
 -1      4266 1.82366E+01 7.50525E-01 5.63912E-04 1.04155E+00-8.84956E-14 1.66191E-14
 -1      4267 1.88465E+01 8.21578E-01 4.22355E-03 5.54111E-01-7.56718E-14 9.47580E-14
 -1      4268 2.00061E+01 2.12296E-04 1.51157E-05-1.45145E-03-3.57174E-13-6.89131E-15
 -1      4269 2.00067E+01 7.68352E-04-7.66728E-07-9.20077E-04-3.33828E-13 1.21300E-14
 -1      4270 2.00068E+01 7.20613E-04-7.17867E-06 1.51340E-04-2.71509E-13 5.33596E-14
 -1      4271 2.00067E+01 7.10824E-04-1.65682E-05-4.36989E-04-5.08805E-13-8.87461E-14
 -1      4272 2.00071E+01 1.53266E-03 2.07921E-05-6.97997E-04-1.78817E-13-1.66954E-13
 -1      4273 2.00072E+01 1.41408E-03 1.12585E-05 1.98880E-04-2.96109E-13 7.93156E-14
 -1      4274 2.00056E+01-7.81102E-04-1.28329E-05-8.32269E-04-3.97947E-13-7.11703E-14
 -1      4275 2.00041E+01-1.39302E-03 4.74446E-06-2.51461E-03-3.93127E-13 8.74594E-14
 -1      4276 2.00047E+01-1.08856E-03-9.41143E-07-2.03156E-03-3.47078E-13 1.06857E-13
 -1      4277 1.63527E+01 9.91504E-01-1.83695E-02 9.57769E-01-1.07351E-13 1.33250E-13
 -1      4278 1.68701E+01 1.04680E+00-5.17744E-05 7.92209E-01-1.37610E-13 1.30431E-13
 -1      4279 1.84766E+01 9.11783E-01-5.90047E-03 5.45069E-01-1.49049E-14 7.69985E-14
 -1      4280 1.83324E+01 9.17662E-01 3.04083E-03 6.53309E-01 1.16350E-14 3.06829E-15
 -1      4281 1.97950E+01 3.28856E-01-5.27849E-04 4.79785E-02-1.38934E-13 7.63534E-14
 -1      4282 1.97587E+01 3.68313E-01 2.61062E-04 5.95076E-02-1.17601E-13 1.50514E-13
 -1      4283 1.79359E+01 1.09121E+00-4.96821E-03 3.22398E-01 4.50028E-14 6.99983E-14
 -1      4284 1.82098E+01 1.06035E+00-1.77538E-03 2.55134E-01-3.41489E-14 5.38554E-14
 -1      4285 1.84209E+01 1.02242E+00-7.50001E-04 2.06727E-01-1.72711E-13 4.73688E-14
 -1      4286 1.86882E+01 9.54699E-01-5.11587E-03 1.35884E-01-1.63046E-13 9.80623E-14
 -1      4287 1.88507E+01 8.98678E-01-4.75784E-03 1.14005E-01 2.22357E-14 2.05985E-13
 -1      4288 1.90294E+01 8.17808E-01-4.03786E-03 1.68933E-01-1.80421E-13 8.83228E-14
 -1      4289 1.91561E+01 7.63116E-01-3.33978E-03 1.48052E-01-1.70845E-13-1.54847E-13
 -1      4290 1.92519E+01 7.12067E-01-5.78778E-03 1.08982E-01-1.23305E-13-1.54892E-13
 -1      4291 1.93577E+01 6.57730E-01-3.69458E-03 9.82431E-02-1.27594E-13-3.27001E-13
 -1      4292 1.94373E+01 6.06641E-01-4.78889E-03 6.91500E-02-7.91438E-14-2.95663E-13
 -1      4293 1.95209E+01 5.54393E-01-3.00241E-03 6.45120E-02-1.45547E-13-2.94956E-13
 -1      4294 1.95855E+01 5.06071E-01-3.31251E-03 4.35901E-02-7.56512E-14-1.89282E-13
 -1      4295 1.96526E+01 4.59689E-01-9.44674E-04 4.07554E-02-1.06653E-13-7.93868E-14
 -1      4296 1.97207E+01 3.99683E-01-1.13686E-03-1.83821E-02-1.98121E-13-8.93212E-14
 -1      4297 1.97714E+01 3.57595E-01 4.97228E-04-1.50783E-02-3.58335E-14-2.22279E-13
 -1      4298 1.98064E+01 3.17625E-01-4.49348E-04-1.22182E-02 3.23428E-14-2.63181E-13
 -1      4299 1.98559E+01 2.64383E-01-2.63987E-04-1.15662E-02-2.12423E-14-3.81577E-13
 -1      4300 1.98804E+01 2.31801E-01-9.54086E-04-7.84453E-03-4.33729E-14-3.84069E-13
 -1      4301 1.99055E+01 2.02081E-01-4.80202E-04 5.64322E-03-1.02953E-13-2.52950E-13
 -1      4302 1.99244E+01 1.75880E-01-6.20904E-04 7.19036E-03-1.12650E-13-2.23399E-13
 -1      4303 1.99398E+01 1.52694E-01-8.26663E-04 2.84748E-03-1.04361E-13-2.41733E-13
 -1      4304 1.99539E+01 1.32023E-01-6.19339E-04 4.71567E-03-1.90027E-13-1.43307E-13
 -1      4305 1.99650E+01 1.13640E-01-6.56644E-04 1.37015E-03-2.86505E-13-3.50591E-14
 -1      4306 1.99749E+01 9.73000E-02-4.68260E-04 3.01448E-03-2.54161E-13-1.22354E-13
 -1      4307 1.99826E+01 8.28689E-02-4.74278E-04 5.38433E-04-2.24730E-13-7.92626E-14
 -1      4308 1.99892E+01 7.01698E-02-3.28569E-04 1.88244E-03-1.32347E-13-1.23053E-13
 -1      4309 1.99942E+01 5.90373E-02-3.27409E-04 8.70599E-05-4.55112E-14-2.42392E-13
 -1      4310 1.99985E+01 4.93438E-02-2.19213E-04 1.13541E-03 1.39301E-13-1.69617E-13
 -1      4311 2.00016E+01 4.09151E-02-2.16957E-04-1.44396E-04 2.50946E-13-4.06913E-13
 -1      4312 2.00041E+01 3.36544E-02-1.38189E-04 6.44507E-04 1.48897E-13-3.00973E-13
 -1      4313 2.00058E+01 2.73975E-02-1.36616E-04-2.50403E-04 9.70192E-14-3.13048E-13
 -1      4314 2.00072E+01 2.20680E-02-8.02930E-05 3.24120E-04 1.06767E-13-2.27859E-13
 -1      4315 2.00080E+01 1.75211E-02-7.98174E-05-2.86635E-04 1.66115E-13-1.99982E-13
 -1      4316 2.00085E+01 1.36947E-02-4.04153E-05 1.17894E-04 1.78731E-13-2.26339E-13
 -1      4317 2.00086E+01 1.04670E-02-4.10253E-05-2.85714E-04 1.34005E-13-2.91964E-13
 -1      4318 2.00086E+01 7.78619E-03-1.44562E-05-1.12162E-05 1.16414E-14-2.87937E-13
 -1      4319 2.00083E+01 5.55273E-03-1.69167E-05-2.68247E-04-4.51976E-14-3.45714E-13
 -1      4320 2.00080E+01 3.73778E-03 1.74554E-06-1.02703E-04-1.38625E-13-2.56672E-13
 -1      4321 2.00075E+01 2.14226E-03-1.30342E-05 1.91610E-04-3.10332E-13 2.85766E-14
 -1      4322 1.90121E+01 8.22172E-01 4.24149E-03 3.06527E-01-2.08814E-13 2.32090E-14
 -1      4323 1.88910E+01 8.43413E-01-1.54700E-03 3.64926E-01-1.25266E-13 7.20817E-14
 -1      4324 1.72578E+01 1.08913E+00-1.22516E-02 5.65006E-01-1.35950E-13 9.72234E-14
 -1      4325 1.76413E+01 1.10295E+00 2.70441E-03 4.61929E-01-6.57543E-14 6.64681E-14
 -1      4326 1.79977E+01 1.01422E+00 3.60813E-03 5.86025E-01-2.08695E-14 2.70028E-14
 -1      4327 1.73282E+01 9.45665E-01 4.90900E-03 9.81037E-01-1.32241E-13 4.04892E-14
 -1      4328 1.75029E+01 7.75613E-01-4.21864E-03 1.22221E+00-1.39210E-13 5.03461E-14
 -1      4329 1.72828E+01 6.44322E-01-6.87796E-03 1.46306E+00-1.67306E-13-4.27930E-14
 -1      4330 1.80344E+01 8.94120E-01-7.34837E-03 8.16268E-01-5.18198E-14 4.79993E-15
 -1      4331 1.78846E+01 8.59738E-01 6.82182E-03 9.72500E-01-8.21670E-14 4.41262E-14
 -1      4332 2.00054E+01-6.31189E-04-2.16141E-06-1.63155E-03-3.72218E-13 1.20530E-15
 -1      4333 1.98745E+01 2.43683E-01 1.38374E-04 3.26591E-02-1.53639E-13-8.34206E-14
 -1      4334 1.98455E+01 2.75149E-01-4.17426E-04 4.09119E-02-6.90235E-14-3.33589E-14
 -1      4335 1.98960E+01 2.17231E-01 5.09220E-04 2.64321E-02-1.65996E-13-6.40985E-14
 -1      4336 2.00076E+01 2.92464E-03-7.53412E-07-5.85987E-04-8.10167E-14-4.08770E-13
 -1      4337 1.87531E+01 8.73472E-01-1.13775E-04 4.39037E-01-2.53140E-14 1.19068E-13
 -1      4338 1.70567E+01 5.21409E-01 3.17816E-04 1.70295E+00-1.44736E-13-8.38142E-14
 -1      4339 1.65145E+01 3.46421E-01-2.48981E-02 2.03383E+00-1.07614E-13-2.34524E-14
 -1      4340 1.85681E+01 9.62177E-01 4.78964E-03 3.34861E-01-8.59630E-14 6.61114E-14
 -1      4341 1.98226E+01 3.01661E-01 6.20164E-04 1.46288E-02-3.22412E-14-2.14658E-13
 -1      4342 1.97096E+01 4.13018E-01 7.36686E-04 7.49372E-02-8.93570E-14 7.97521E-14
 -1      4343 1.64548E+01 7.83418E-01 2.25164E-02 1.50428E+00-1.64855E-13 4.75826E-14
 -1      4344 2.00051E+01-9.78237E-04 1.60857E-05-1.56242E-03-3.11002E-13-2.11253E-14
 -3
    1PSTEP                         3           1           1          
  100CL  101 1.000000000        4344                     0    1           1
 -4  TOSTRAIN    6    1
 -5  EXX         1    4    1    1
 -5  EYY         1    4    2    2
 -5  EZZ         1    4    3    3
 -5  EXY         1    4    1    2
 -5  EYZ         1    4    2    3
 -5  EZX         1    4    3    1
 -1         1 3.19885E-04-9.92959E-05-8.08991E-05 1.65175E-07-4.50516E-20-4.22950E-18
 -1         2 3.66622E-05-1.11875E-04 2.02981E-05-8.57243E-07-1.24935E-18 5.05837E-20
 -1         3 9.52375E-05-2.85708E-05-2.85718E-05 3.43609E-10-2.94552E-18-3.25038E-18
 -1         4 9.52375E-05-2.85708E-05-2.85718E-05-3.12234E-10 8.62974E-19 1.89782E-18
 -1         5 1.48350E-04-2.18117E-05-4.48020E-05 3.85569E-05-1.31131E-19 1.20472E-17
 -1         6 1.49660E-04 2.80751E-10-4.68321E-05-5.26191E-05-4.02764E-19 1.63579E-17
 -1         7 9.90150E-05-9.83266E-07-4.19702E-05-2.55303E-05-6.64921E-20 6.67732E-18
 -1         8 9.14913E-05-8.40198E-08-3.87803E-05-1.41555E-05-2.08476E-19 2.69773E-18
 -1         9 8.62595E-05 1.85515E-08-3.67394E-05-8.48248E-06-2.10594E-19 1.02398E-19
 -1        10 8.19148E-05 5.41566E-08-3.50025E-05-5.01456E-06-1.67739E-19-1.48475E-18
 -1        11 7.82942E-05 8.61480E-08-3.35567E-05-3.00692E-06-1.46669E-19-2.53509E-18
 -1        12 7.55940E-05 1.07864E-07-3.24766E-05-2.05221E-06-1.15064E-19-3.12656E-18
 -1        13 7.39083E-05 1.19454E-07-3.17942E-05-1.72772E-06-8.29033E-20-3.49568E-18
 -1        14 7.33803E-05 1.16466E-07-3.15640E-05-1.63130E-06-5.80029E-20-3.71244E-18
 -1        15 7.39563E-05 1.00583E-07-3.17676E-05-1.35898E-06-3.03608E-20-3.85069E-18
 -1        16 7.54568E-05 7.66846E-08-3.23411E-05-5.84521E-07 2.93815E-21-3.87651E-18
 -1        17 7.76363E-05 4.96852E-08-3.31952E-05 9.06336E-07 2.72639E-21-3.84425E-18
 -1        18 8.02075E-05 3.11645E-08-3.42243E-05 3.17101E-06 1.01644E-20-3.67232E-18
 -1        19 8.31244E-05 2.12565E-08-3.54145E-05 6.36006E-06 8.15799E-20-3.35365E-18
 -1        20 8.63903E-05 2.73076E-08-3.67725E-05 1.05813E-05 1.09426E-19-2.63814E-18
 -1        21 9.04770E-05 4.57533E-08-3.84701E-05 1.63370E-05 1.45848E-19-9.83703E-19
 -1        22 9.79544E-05-3.71610E-07-4.11213E-05 2.56936E-05 5.96099E-20 2.71355E-18
 -1        23 1.23952E-04-4.18758E-05-3.87320E-05-3.23988E-06-3.12926E-19 1.46639E-17
 -1        24 1.08732E-04-3.25042E-05-3.37288E-05 6.22058E-07-5.47693E-20 1.31849E-17
 -1        25 1.09681E-04-3.30288E-05-3.30846E-05 5.30637E-07-4.23070E-20 1.15945E-17
 -1        26 1.13208E-04-3.40370E-05-3.39579E-05 3.90412E-07 5.15813E-20 1.03205E-17
 -1        27 1.17855E-04-3.53882E-05-3.53017E-05 3.57720E-07-1.01112E-19 9.62671E-18
 -1        28 1.22320E-04-3.66964E-05-3.65522E-05 2.92579E-07-1.22855E-19 9.16398E-18
 -1        29 1.24930E-04-3.74710E-05-3.71887E-05 1.07761E-07-4.66216E-20 9.10069E-18
 -1        30 1.23635E-04-3.70976E-05-3.66607E-05-2.71746E-07 1.52916E-19 9.13908E-18
 -1        31 1.16806E-04-3.50710E-05-3.46247E-05-8.12596E-07 9.13274E-20 8.54619E-18
 -1        32 1.04886E-04-3.14900E-05-3.13608E-05-1.24778E-06-2.00892E-19 7.19401E-18
 -1        33 9.18588E-05-2.75334E-05-2.80000E-05-1.14313E-06 1.96151E-19 6.35704E-18
 -1        34 8.42371E-05-2.51983E-05-2.61187E-05-3.21613E-07 3.32857E-21 6.70846E-18
 -1        35 8.66757E-05-2.59429E-05-2.67415E-05 7.38424E-07-2.66068E-19 4.97073E-18
 -1        36 9.79339E-05-2.93748E-05-2.96062E-05 1.30565E-06 2.34569E-19 3.86893E-18
 -1        37 1.12003E-04-3.36270E-05-3.33400E-05 1.15957E-06-1.01138E-19 3.50661E-18
 -1        38 1.22945E-04-3.68967E-05-3.64368E-05 6.38746E-07-1.76544E-19 2.44178E-18
 -1        39 1.28175E-04-3.84383E-05-3.80733E-05 1.52039E-07-3.56713E-19 1.67448E-18
 -1        40 1.28236E-04-3.84422E-05-3.82505E-05-1.32700E-07 4.07385E-19 1.18799E-18
 -1        41 1.25003E-04-3.74742E-05-3.74193E-05-2.36739E-07-4.32839E-20 1.78711E-18
 -1        42 1.20296E-04-3.60731E-05-3.60907E-05-2.36163E-07-1.31955E-19 2.64658E-18
 -1        43 1.15355E-04-3.46030E-05-3.46452E-05-1.93637E-07-3.18702E-19 2.82384E-18
 -1        44 1.10841E-04-3.32583E-05-3.33006E-05-1.43606E-07 3.65398E-19 3.95595E-18
 -1        45 1.07021E-04-3.21177E-05-3.21512E-05-1.00103E-07-1.40528E-19 4.25571E-18
 -1        46 1.03936E-04-3.11945E-05-3.12181E-05-6.66789E-08 2.27787E-19 2.11029E-18
 -1        47 1.01524E-04-3.04707E-05-3.04862E-05-4.26149E-08-2.30554E-19 2.72410E-18
 -1        48 9.96799E-05-2.99165E-05-2.99260E-05-2.59581E-08 1.64676E-19 3.69961E-18
 -1        49 9.82980E-05-2.95002E-05-2.95057E-05-1.47451E-08-3.06334E-20 3.37721E-18
 -1        50 9.72804E-05-2.91931E-05-2.91960E-05-7.38081E-09-2.85449E-19 6.18522E-19
 -1        51 9.65442E-05-2.89706E-05-2.89718E-05-2.67800E-09-3.89022E-20 2.66065E-18
 -1        52 9.60222E-05-2.88125E-05-2.88127E-05 2.10347E-10-5.23715E-20 2.89326E-18
 -1        53 9.56607E-05-2.87028E-05-2.87024E-05 1.87686E-09 1.34371E-19 1.55352E-18
 -1        54 9.54178E-05-2.86288E-05-2.86282E-05 2.73296E-09 3.77307E-19 1.26245E-18
 -1        55 9.52610E-05-2.85809E-05-2.85802E-05 3.06356E-09-7.36188E-19 6.03411E-19
 -1        56 9.51656E-05-2.85517E-05-2.85509E-05 3.06537E-09 7.13368E-19 1.06575E-18
 -1        57 9.51132E-05-2.85354E-05-2.85347E-05 2.87322E-09 4.67897E-20 2.55148E-18
 -1        58 9.50898E-05-2.85280E-05-2.85273E-05 2.57826E-09-3.93117E-19 6.52979E-19
 -1        59 9.50855E-05-2.85264E-05-2.85258E-05 2.24086E-09 3.18824E-19 7.09270E-19
 -1        60 9.50931E-05-2.85284E-05-2.85279E-05 1.89985E-09-2.04814E-19 2.01674E-18
 -1        61 9.51073E-05-2.85325E-05-2.85321E-05 1.57907E-09 6.99029E-19 1.62944E-18
 -1        62 9.51249E-05-2.85377E-05-2.85373E-05 1.29201E-09-8.88711E-19 1.29072E-18
 -1        63 9.51435E-05-2.85432E-05-2.85429E-05 1.04511E-09 1.23519E-19 9.60079E-19
 -1        64 9.51618E-05-2.85486E-05-2.85484E-05 8.40092E-10-4.26144E-19 1.01660E-18
 -1        65 9.51788E-05-2.85537E-05-2.85535E-05 6.75409E-10-5.93853E-19-1.01533E-19
 -1        66 9.51942E-05-2.85583E-05-2.85582E-05 5.46803E-10 2.52749E-19-2.73728E-18
 -1        67 9.52078E-05-2.85623E-05-2.85622E-05 4.46823E-10 6.91082E-19-1.10468E-18
 -1        68 9.52193E-05-2.85657E-05-2.85656E-05 3.62483E-10 1.25419E-19 4.26280E-18
 -1        69 9.52284E-05-2.85685E-05-2.85684E-05 2.65948E-10 1.12110E-19 3.18568E-18
 -1        70 9.52347E-05-2.85704E-05-2.85702E-05 7.68887E-11-1.25400E-19 2.59413E-18
 -1        71 9.52375E-05-2.85713E-05-2.85712E-05-2.01766E-10-7.70531E-20 2.78804E-18
 -1        72 1.10593E-04-3.31026E-05-3.68171E-05-2.36945E-06 2.36216E-19 1.04349E-17
 -1        73 1.04270E-04-3.10320E-05-3.23690E-05-4.75042E-07 1.54451E-19 7.05825E-18
 -1        74 1.03189E-04-3.09273E-05-3.11409E-05-2.27789E-07 1.05009E-19 4.52310E-18
 -1        75 1.03793E-04-3.11562E-05-3.11016E-05-1.90881E-07 3.20458E-20 2.92945E-18
 -1        76 1.04609E-04-3.13980E-05-3.12891E-05-1.62353E-07 6.80011E-20 1.68589E-18
 -1        77 1.04678E-04-3.14175E-05-3.12758E-05-1.12829E-07 6.35275E-21 6.46465E-19
 -1        78 1.03299E-04-3.10125E-05-3.08380E-05-2.23455E-08 2.95808E-20 4.80602E-19
 -1        79 1.00085E-04-3.00613E-05-2.98824E-05 1.13094E-07 6.81696E-20-4.17812E-19
 -1        80 9.51984E-05-2.86018E-05-2.84817E-05 2.66515E-07-1.59706E-19-8.74906E-19
 -1        81 8.95513E-05-2.68966E-05-2.69087E-05 3.75977E-07 1.31555E-19-9.10627E-19
 -1        82 8.47085E-05-2.54145E-05-2.55921E-05 3.70646E-07 1.99497E-19-2.11271E-18
 -1        83 8.23428E-05-2.46714E-05-2.49673E-05 2.23812E-07 2.35384E-19-3.88221E-18
 -1        84 8.34276E-05-2.49792E-05-2.52781E-05-1.21041E-08-1.57599E-19-4.59542E-18
 -1        85 8.76987E-05-2.62668E-05-2.64548E-05-2.33156E-07 5.07426E-20-4.60336E-18
 -1        86 9.38038E-05-2.81202E-05-2.81499E-05-3.54117E-07-2.85785E-20-5.70043E-18
 -1        87 1.00011E-04-3.00047E-05-2.99058E-05-3.55436E-07-2.99171E-19-4.95666E-18
 -1        88 1.04958E-04-3.15015E-05-3.13421E-05-2.74881E-07-1.14310E-19-3.38750E-18
 -1        89 1.08005E-04-3.24182E-05-3.22611E-05-1.66657E-07 2.52322E-19-4.03112E-18
 -1        90 1.09172E-04-3.27649E-05-3.26451E-05-7.00923E-08-1.54001E-19-5.81006E-18
 -1        91 1.08862E-04-3.26669E-05-3.25930E-05-1.87985E-09 2.91322E-19-6.81171E-18
 -1        92 1.07595E-04-3.22824E-05-3.22476E-05 3.74477E-08-3.52541E-19-5.75780E-18
 -1        93 1.05836E-04-3.17522E-05-3.17445E-05 5.45840E-08 2.16079E-19-4.75870E-18
 -1        94 1.03935E-04-3.11807E-05-3.11887E-05 5.74472E-08 1.79794E-19-6.61335E-18
 -1        95 1.02115E-04-3.06342E-05-3.06496E-05 5.24991E-08-3.66592E-19-5.39674E-18
 -1        96 1.00497E-04-3.01490E-05-3.01666E-05 4.41430E-08 1.66443E-19-2.62338E-18
 -1        97 9.91332E-05-2.97401E-05-2.97568E-05 3.50201E-08 2.11149E-19-3.19566E-18
 -1        98 9.80289E-05-2.94091E-05-2.94236E-05 2.65258E-08-7.35354E-20-4.08680E-18
 -1        99 9.71643E-05-2.91499E-05-2.91617E-05 1.92716E-08-3.80014E-19-4.96747E-18
 -1       100 9.65075E-05-2.89529E-05-2.89622E-05 1.34194E-08 1.26928E-20-2.05093E-18
 -1       101 9.60232E-05-2.88076E-05-2.88146E-05 8.89786E-09 2.04469E-19-2.48628E-18
 -1       102 9.56768E-05-2.87037E-05-2.87088E-05 5.53137E-09-2.51199E-19-3.53873E-18
 -1       103 9.54376E-05-2.86319E-05-2.86354E-05 3.11241E-09-2.85049E-21-2.29109E-18
 -1       104 9.52795E-05-2.85843E-05-2.85868E-05 1.43887E-09 1.60116E-19-2.61802E-18
 -1       105 9.51809E-05-2.85547E-05-2.85562E-05 3.31682E-10 6.20643E-19-5.76295E-18
 -1       106 9.51249E-05-2.85378E-05-2.85388E-05-3.58659E-10-8.03868E-19-6.38404E-18
 -1       107 9.50985E-05-2.85298E-05-2.85303E-05-7.51712E-10-6.99568E-20-6.15259E-18
 -1       108 9.50918E-05-2.85277E-05-2.85279E-05-9.40004E-10 8.31114E-19-7.12084E-18
 -1       109 9.50974E-05-2.85294E-05-2.85294E-05-9.93260E-10-9.80101E-20-6.42702E-18
 -1       110 9.51104E-05-2.85332E-05-2.85331E-05-9.62776E-10-1.74131E-19-7.76397E-18
 -1       111 9.51270E-05-2.85382E-05-2.85380E-05-8.85396E-10 7.85423E-19-7.78869E-18
 -1       112 9.51450E-05-2.85436E-05-2.85434E-05-7.86945E-10-1.00372E-18-4.09476E-18
 -1       113 9.51628E-05-2.85489E-05-2.85487E-05-6.85047E-10 8.07682E-19-1.96029E-18
 -1       114 9.51796E-05-2.85539E-05-2.85537E-05-5.91361E-10 1.64852E-19-5.33255E-18
 -1       115 9.51948E-05-2.85584E-05-2.85583E-05-5.12887E-10-5.58108E-19-7.02580E-18
 -1       116 9.52082E-05-2.85625E-05-2.85623E-05-4.52278E-10 6.62261E-19-7.00673E-18
 -1       117 9.52196E-05-2.85659E-05-2.85657E-05-4.07306E-10-6.43685E-19-5.88058E-18
 -1       118 9.52287E-05-2.85686E-05-2.85684E-05-3.62215E-10 1.28500E-19-3.35958E-18
 -1       119 9.52349E-05-2.85705E-05-2.85702E-05-2.46472E-10-1.09820E-19-5.44664E-18
 -1       120 9.52375E-05-2.85714E-05-2.85712E-05 9.78554E-11 1.41606E-18-5.55684E-18
 -1       121 9.52371E-05-2.85710E-05-2.85711E-05 2.04946E-10-3.58225E-18 1.08471E-18
 -1       122 9.52379E-05-2.85737E-05-2.85702E-05-1.48658E-10 7.08927E-18 1.83712E-19
 -1       123 9.52397E-05-2.85795E-05-2.85685E-05-3.27249E-10 8.86814E-18 1.41019E-18
 -1       124 9.52419E-05-2.85870E-05-2.85664E-05-3.73801E-10 4.72237E-18-3.03775E-19
 -1       125 9.52442E-05-2.85946E-05-2.85642E-05-3.42420E-10-5.30837E-19-1.06327E-18
 -1       126 9.52461E-05-2.86013E-05-2.85622E-05-2.72179E-10-6.04068E-18-2.16177E-18
 -1       127 9.52476E-05-2.86062E-05-2.85608E-05-1.72313E-10-2.80663E-18 1.52246E-18
 -1       128 9.52484E-05-2.86088E-05-2.85600E-05-5.85432E-11 4.25937E-18 9.32568E-19
 -1       129 9.52484E-05-2.86088E-05-2.85600E-05 5.96016E-11 2.69219E-18 2.16121E-19
 -1       130 9.52476E-05-2.86062E-05-2.85608E-05 1.73377E-10 4.69666E-18-1.74614E-19
 -1       131 9.52461E-05-2.86012E-05-2.85622E-05 2.76334E-10 1.69205E-18-2.15425E-20
 -1       132 9.52441E-05-2.85946E-05-2.85642E-05 3.44265E-10-4.71865E-18 6.23490E-19
 -1       133 9.52419E-05-2.85869E-05-2.85664E-05 3.73823E-10-4.28787E-18 2.02531E-19
 -1       134 9.52396E-05-2.85794E-05-2.85685E-05 3.53841E-10-1.27294E-18 1.45275E-19
 -1       135 9.52379E-05-2.85737E-05-2.85702E-05 2.07145E-10-1.75466E-18-1.41564E-18
 -1       136 9.52372E-05-2.85711E-05-2.85712E-05-4.06053E-10-3.59122E-18-2.05781E-19
 -1       137 2.44613E-05-8.44776E-05 1.51060E-05-2.27915E-05 6.36799E-18 1.61818E-18
 -1       138 8.21827E-06-3.06798E-05 2.05922E-06-1.40230E-05 1.26111E-17 6.82793E-18
 -1       139 1.23693E-05 1.63929E-05-1.56945E-05 2.58798E-05 1.68161E-17 1.29156E-17
 -1       140 6.12859E-05 2.74744E-05-3.64382E-05 8.10294E-05 1.46846E-17 1.63706E-17
 -1       141 1.50367E-04-5.09051E-06-5.58204E-05 1.12165E-04 8.99591E-18 1.62990E-17
 -1       142 2.53630E-04-6.07454E-05-7.21100E-05 9.19847E-05 3.28548E-18 1.02599E-17
 -1       143 3.06065E-04-9.36902E-05-7.86689E-05 2.38178E-05 4.13008E-19 3.41767E-18
 -1       144 2.89951E-04-8.30326E-05-7.67945E-05-5.69811E-05 1.17482E-18-5.16140E-18
 -1       145 2.11954E-04-3.68718E-05-6.59664E-05-1.07890E-04 5.64558E-18-1.30096E-17
 -1       146 1.13616E-04 1.13978E-05-4.88538E-05-1.05751E-04 1.09862E-17-1.66484E-17
 -1       147 3.87130E-05 2.73609E-05-2.86585E-05-6.10522E-05 1.55960E-17-1.50403E-17
 -1       148 5.36668E-06-5.25255E-06-5.83775E-06-8.57415E-07 1.76628E-17-1.08022E-17
 -1       149 1.56796E-05-5.86012E-05 8.99283E-06 2.26492E-05 1.52301E-17-5.34626E-18
 -1       150 3.23517E-05-1.02554E-04 1.85086E-05 1.53217E-05 7.80721E-18-1.46583E-18
 -1       151 3.50677E-05-1.08337E-04 1.94515E-05-1.23869E-05-3.59142E-19-1.93296E-19
 -1       152 1.91819E-05-7.17700E-05 1.21280E-05-2.73279E-05-7.95322E-18-2.68224E-18
 -1       153 5.05292E-06-1.84796E-05-1.58473E-06-1.08747E-05-1.35364E-17-7.52292E-18
 -1       154 1.91398E-05 2.14947E-05-2.03496E-05 3.67439E-05-1.58658E-17-1.37440E-17
 -1       155 8.08520E-05 2.15576E-05-4.13674E-05 9.10290E-05-1.33920E-17-1.70186E-17
 -1       156 1.84935E-04-2.14142E-05-6.18891E-05 1.14044E-04-7.94940E-18-1.64426E-17
 -1       157 2.84271E-04-7.67435E-05-7.65913E-05 7.63399E-05-2.24808E-18-1.04655E-17
 -1       158 2.85386E-04-7.81249E-05-7.65138E-05-7.42467E-05-1.07414E-18 3.84129E-18
 -1       159 1.98017E-04-2.91596E-05-6.37916E-05-1.12051E-04-5.97899E-18 1.30185E-17
 -1       160 1.03938E-04 1.38013E-05-4.66591E-05-1.00954E-04-1.26411E-17 1.75061E-17
 -1       161 3.39330E-05 2.53626E-05-2.66945E-05-5.44251E-05-1.83726E-17 1.80901E-17
 -1       162 6.29637E-06-8.70984E-07-8.07992E-06-4.47869E-06-1.95762E-17 1.27222E-17
 -1       163 1.14635E-05-5.03887E-05 7.45605E-06 2.54199E-05-1.90095E-17 7.49381E-18
 -1       164 2.90602E-05-9.57254E-05 1.72363E-05 2.34961E-05-1.12632E-17 2.78277E-18
 -1       165 1.04403E-04-1.52061E-05-3.83931E-05-1.66860E-05-1.75980E-18 4.13582E-18
 -1       166 9.51755E-05-9.73846E-06-3.67584E-05-1.08064E-05-2.07609E-18 1.46917E-18
 -1       167 8.81535E-05-6.22610E-06-3.52162E-05-6.80484E-06-2.03298E-18-2.79243E-19
 -1       168 8.25328E-05-3.82064E-06-3.38089E-05-4.22781E-06-1.76770E-18-1.51283E-18
 -1       169 7.82009E-05-2.12046E-06-3.26615E-05-2.78810E-06-1.52738E-18-2.26866E-18
 -1       170 7.52205E-05-1.05010E-06-3.18326E-05-2.12000E-06-1.29629E-18-2.76725E-18
 -1       171 7.38513E-05-6.68650E-07-3.14045E-05-1.86542E-06-9.46281E-19-2.97513E-18
 -1       172 7.40905E-05-9.42863E-07-3.13893E-05-1.61045E-06-6.80569E-19-3.17814E-18
 -1       173 7.57275E-05-1.74800E-06-3.17497E-05-9.88671E-07-4.10384E-19-3.20031E-18
 -1       174 7.84106E-05-2.90533E-06-3.24115E-05 2.57030E-07-8.81377E-20-3.24510E-18
 -1       175 8.17104E-05-4.23303E-06-3.32693E-05 2.21482E-06 2.68321E-19-3.08211E-18
 -1       176 8.55024E-05-5.72632E-06-3.42742E-05 4.99284E-06 7.68970E-19-2.86115E-18
 -1       177 8.97616E-05-7.51793E-06-3.53647E-05 8.60016E-06 1.22152E-18-2.41707E-18
 -1       178 9.50480E-05-1.01907E-05-3.65299E-05 1.31219E-05 1.63806E-18-1.35704E-18
 -1       179 1.03416E-04-1.58821E-05-3.77115E-05 1.83609E-05 1.88016E-18 7.22440E-19
 -1       180 1.14272E-04-2.89785E-05-3.77503E-05 1.61033E-05 1.52252E-18 3.73933E-18
 -1       181 1.15427E-04-3.11298E-05-3.61170E-05-7.72991E-06-1.26054E-18 6.59966E-18
 -1       182 1.11773E-04-3.27170E-05-3.39077E-05-2.43362E-07-1.04229E-18 5.72040E-18
 -1       183 1.11281E-04-3.29235E-05-3.35352E-05 2.82058E-06-7.65251E-19 5.17692E-18
 -1       184 1.13028E-04-3.37616E-05-3.39470E-05 4.17736E-06-5.62124E-19 4.72386E-18
 -1       185 1.15654E-04-3.49149E-05-3.46026E-05 4.21790E-06-2.09600E-19 4.70746E-18
 -1       186 1.18203E-04-3.61874E-05-3.51621E-05 2.67503E-06-8.58448E-20 4.90822E-18
 -1       187 1.19604E-04-3.71798E-05-3.53376E-05-7.48613E-07-2.08241E-19 4.81941E-18
 -1       188 1.18736E-04-3.72228E-05-3.49373E-05-5.69092E-06-3.77459E-20 4.77706E-18
 -1       189 1.14898E-04-3.55627E-05-3.39970E-05-1.03462E-05-7.26437E-19 4.94185E-18
 -1       190 1.08790E-04-3.21573E-05-3.28563E-05-1.15293E-05-6.62102E-19 4.70191E-18
 -1       191 1.03186E-04-2.85977E-05-3.20161E-05-6.80928E-06-3.64105E-19 3.18526E-18
 -1       192 1.01735E-04-2.75613E-05-3.18520E-05 2.22254E-06-1.23724E-18 2.17430E-18
 -1       193 1.05648E-04-2.99988E-05-3.24577E-05 1.00959E-05-1.15365E-18 1.53122E-18
 -1       194 1.12382E-04-3.39513E-05-3.36201E-05 1.24320E-05-6.78311E-19 2.01170E-19
 -1       195 1.18277E-04-3.69217E-05-3.48695E-05 9.43998E-06-6.99117E-19 7.02905E-20
 -1       196 1.21286E-04-3.79632E-05-3.57213E-05 4.23605E-06-3.00214E-19-1.51424E-19
 -1       197 1.21340E-04-3.75298E-05-3.59379E-05-4.09868E-07-3.08380E-19 1.25674E-19
 -1       198 1.19301E-04-3.63731E-05-3.55609E-05-3.36723E-06-1.56896E-19-7.73245E-19
 -1       199 1.16153E-04-3.50192E-05-3.47858E-05-4.69606E-06 3.96531E-19-8.17092E-19
 -1       200 1.12651E-04-3.37322E-05-3.38288E-05-4.90533E-06 5.59623E-19 3.12891E-19
 -1       201 1.09269E-04-3.26106E-05-3.28537E-05-4.50257E-06 4.10571E-20 1.29904E-18
 -1       202 1.06253E-04-3.16761E-05-3.19579E-05-3.84342E-06 2.06047E-19 1.15190E-18
 -1       203 1.03698E-04-3.09186E-05-3.11856E-05-3.13425E-06-4.06509E-19 1.91880E-18
 -1       204 1.01609E-04-3.03169E-05-3.05477E-05-2.47717E-06 6.37359E-20 1.45359E-18
 -1       205 9.99455E-05-2.98469E-05-3.00366E-05-1.91266E-06-3.94323E-19 9.00766E-19
 -1       206 9.86486E-05-2.94854E-05-2.96364E-05-1.44878E-06-4.20188E-19-2.13704E-19
 -1       207 9.76557E-05-2.92115E-05-2.93291E-05-1.07850E-06-6.67756E-19 7.36884E-20
 -1       208 9.69085E-05-2.90072E-05-2.90972E-05-7.89051E-07 8.64374E-19 6.39766E-19
 -1       209 9.63555E-05-2.88572E-05-2.89252E-05-5.66557E-07 2.64284E-19 7.91191E-19
 -1       210 9.59537E-05-2.87493E-05-2.87998E-05-3.98069E-07-5.86211E-19 4.09741E-19
 -1       211 9.56677E-05-2.86733E-05-2.87103E-05-2.72343E-07 4.05194E-21 8.54694E-19
 -1       212 9.54691E-05-2.86212E-05-2.86479E-05-1.79977E-07-1.73391E-19 1.21381E-18
 -1       213 9.53353E-05-2.85868E-05-2.86056E-05-1.13292E-07-9.31882E-20 1.24110E-18
 -1       214 9.52490E-05-2.85652E-05-2.85781E-05-6.61197E-08 4.90592E-19 4.19393E-19
 -1       215 9.51966E-05-2.85526E-05-2.85612E-05-3.35691E-08-3.62795E-19-1.03772E-19
 -1       216 9.51679E-05-2.85463E-05-2.85518E-05-1.18111E-08 4.55502E-19 4.14474E-19
 -1       217 9.51554E-05-2.85442E-05-2.85475E-05 2.11880E-09 2.52781E-19-8.86453E-19
 -1       218 9.51535E-05-2.85447E-05-2.85465E-05 1.04874E-08 3.58477E-19 1.25044E-18
 -1       219 9.51582E-05-2.85469E-05-2.85476E-05 1.50041E-08-2.69885E-19 8.37926E-19
 -1       220 9.51667E-05-2.85499E-05-2.85500E-05 1.69361E-08-6.95579E-19 1.58241E-18
 -1       221 9.51770E-05-2.85533E-05-2.85530E-05 1.72020E-08-2.16362E-19-1.15263E-19
 -1       222 9.51879E-05-2.85567E-05-2.85562E-05 1.64454E-08-2.66090E-19-3.38326E-19
 -1       223 9.51985E-05-2.85600E-05-2.85594E-05 1.50917E-08-5.25368E-19 1.99301E-18
 -1       224 9.52084E-05-2.85630E-05-2.85623E-05 1.33883E-08 2.25523E-18 3.46579E-18
 -1       225 9.52172E-05-2.85657E-05-2.85649E-05 1.14327E-08 2.11362E-18 3.34609E-18
 -1       226 9.52246E-05-2.85681E-05-2.85671E-05 9.18897E-09-6.63386E-19 9.54524E-19
 -1       227 9.52305E-05-2.85700E-05-2.85688E-05 6.51517E-09 2.32427E-19 1.40860E-18
 -1       228 9.52348E-05-2.85715E-05-2.85700E-05 3.32634E-09 3.41593E-19 1.82091E-18
 -1       229 1.09540E-04-3.17081E-05-3.35259E-05 4.93999E-06 1.53545E-18 3.18310E-18
 -1       230 1.06036E-04-3.13997E-05-3.19541E-05 9.54375E-07 1.13852E-18 2.19845E-18
 -1       231 1.04999E-04-3.14232E-05-3.14894E-05-2.83017E-07 8.17544E-19 1.42922E-18
 -1       232 1.04793E-04-3.15532E-05-3.13643E-05-3.36888E-07 6.46273E-19 7.66244E-19
 -1       233 1.04519E-04-3.16170E-05-3.12302E-05 3.79813E-07 4.18275E-19 2.56203E-19
 -1       234 1.03561E-04-3.14280E-05-3.09038E-05 1.63991E-06 1.16765E-19-6.27971E-20
 -1       235 1.01567E-04-3.08316E-05-3.03049E-05 3.11397E-06 3.31706E-19 1.98044E-19
 -1       236 9.85474E-05-2.97794E-05-2.94645E-05 4.27892E-06 2.63923E-19-1.36118E-19
 -1       237 9.49965E-05-2.84170E-05-2.85339E-05 4.50933E-06 2.04688E-19-8.87429E-19
 -1       238 9.18555E-05-2.71200E-05-2.77529E-05 3.37547E-06 6.67558E-19-7.66466E-19
 -1       239 9.02000E-05-2.63805E-05-2.73653E-05 1.00168E-06 1.08504E-18-1.11791E-18
 -1       240 9.07167E-05-2.65414E-05-2.75141E-05-1.84342E-06 2.34281E-19-1.73076E-18
 -1       241 9.33057E-05-2.75673E-05-2.81740E-05-4.12234E-06 2.28408E-19-2.41827E-18
 -1       242 9.71336E-05-2.90685E-05-2.91622E-05-5.11728E-06 1.24372E-19-2.25353E-18
 -1       243 1.01085E-04-3.05469E-05-3.02191E-05-4.75385E-06-5.60807E-19-1.46812E-18
 -1       244 1.04257E-04-3.16459E-05-3.11110E-05-3.47648E-06-3.80258E-19-1.50956E-18
 -1       245 1.06208E-04-3.22397E-05-3.16981E-05-1.88352E-06 7.78111E-19-1.91056E-18
 -1       246 1.06915E-04-3.23771E-05-3.19471E-05-4.36641E-07 6.12152E-19-2.29851E-18
 -1       247 1.06614E-04-3.21845E-05-3.19031E-05 6.34243E-07-8.38199E-20-2.23249E-18
 -1       248 1.05631E-04-3.17953E-05-3.16488E-05 1.28851E-06-8.60239E-19-1.89894E-18
 -1       249 1.04274E-04-3.13172E-05-3.12712E-05 1.59056E-06-1.69947E-19-2.25960E-18
 -1       250 1.02786E-04-3.08246E-05-3.08433E-05 1.64029E-06 4.55230E-19-2.61462E-18
 -1       251 1.01334E-04-3.03629E-05-3.04172E-05 1.53312E-06-6.94914E-19-2.98252E-18
 -1       252 1.00015E-04-2.99558E-05-3.00252E-05 1.34380E-06-9.32444E-19-2.41843E-18
 -1       253 9.88763E-05-2.96123E-05-2.96839E-05 1.12404E-06 4.14891E-19-7.78163E-19
 -1       254 9.79323E-05-2.93324E-05-2.93988E-05 9.06066E-07-1.18453E-19-4.18578E-19
 -1       255 9.71745E-05-2.91110E-05-2.91688E-05 7.07682E-07 3.05228E-19-8.24953E-20
 -1       256 9.65834E-05-2.89405E-05-2.89886E-05 5.37004E-07-1.03753E-18-1.04951E-18
 -1       257 9.61345E-05-2.88126E-05-2.88511E-05 3.96093E-07 4.35522E-19-1.83613E-19
 -1       258 9.58025E-05-2.87191E-05-2.87491E-05 2.83539E-07 1.49721E-19-3.46538E-20
 -1       259 9.55639E-05-2.86527E-05-2.86754E-05 1.96167E-07-5.35001E-19-4.98510E-19
 -1       260 9.53979E-05-2.86072E-05-2.86239E-05 1.30115E-07 1.18793E-18-1.35528E-18
 -1       261 9.52869E-05-2.85773E-05-2.85893E-05 8.14698E-08 1.60487E-18-2.27110E-18
 -1       262 9.52165E-05-2.85588E-05-2.85672E-05 4.66227E-08-1.41465E-18-2.44405E-18
 -1       263 9.51754E-05-2.85485E-05-2.85541E-05 2.24284E-08 1.57182E-19-2.34976E-18
 -1       264 9.51547E-05-2.85438E-05-2.85473E-05 6.25714E-09-1.78315E-19-2.63749E-18
 -1       265 9.51478E-05-2.85428E-05-2.85449E-05-4.02178E-09-6.82766E-19-9.04928E-19
 -1       266 9.51498E-05-2.85441E-05-2.85452E-05-1.00891E-08 8.74563E-19-1.28948E-18
 -1       267 9.51572E-05-2.85468E-05-2.85472E-05-1.32378E-08-3.30501E-19-9.28025E-19
 -1       268 9.51674E-05-2.85502E-05-2.85502E-05-1.44371E-08-1.58967E-18-2.77558E-19
 -1       269 9.51789E-05-2.85538E-05-2.85536E-05-1.43915E-08 8.63277E-19-1.48870E-18
 -1       270 9.51905E-05-2.85574E-05-2.85570E-05-1.35913E-08 3.52464E-19 1.85705E-19
 -1       271 9.52015E-05-2.85608E-05-2.85603E-05-1.23524E-08 1.16865E-18-2.78063E-20
 -1       272 9.52115E-05-2.85638E-05-2.85633E-05-1.08438E-08 9.04492E-19-1.84803E-18
 -1       273 9.52202E-05-2.85665E-05-2.85659E-05-9.11031E-09-1.40981E-18-4.32324E-19
 -1       274 9.52273E-05-2.85687E-05-2.85680E-05-7.08145E-09-1.46345E-19-4.00805E-19
 -1       275 9.52326E-05-2.85705E-05-2.85695E-05-4.59401E-09 2.12504E-19-4.25489E-19
 -1       276 9.52360E-05-2.85715E-05-2.85705E-05-1.69466E-09 7.02083E-19 4.25432E-19
 -1       277 9.52369E-05-2.85736E-05-2.85700E-05-3.41623E-09 7.19064E-19 4.68555E-18
 -1       278 9.52384E-05-2.85776E-05-2.85689E-05-6.08100E-09 2.04353E-18 1.08841E-19
 -1       279 9.52404E-05-2.85826E-05-2.85676E-05-7.54566E-09 1.15562E-18-2.23623E-18
 -1       280 9.52423E-05-2.85881E-05-2.85661E-05-7.69369E-09 9.79290E-19-2.32457E-18
 -1       281 9.52441E-05-2.85931E-05-2.85647E-05-6.76089E-09 1.12684E-18-4.01490E-18
 -1       282 9.52455E-05-2.85972E-05-2.85636E-05-4.97423E-09 1.78518E-18-8.28283E-20
 -1       283 9.52465E-05-2.85998E-05-2.85628E-05-2.62225E-09 1.05812E-18 3.66527E-18
 -1       284 9.52468E-05-2.86008E-05-2.85626E-05 1.09811E-11 7.48521E-19-1.00147E-18
 -1       285 9.52464E-05-2.85998E-05-2.85628E-05 2.64507E-09 1.00533E-18 2.64365E-19
 -1       286 9.52455E-05-2.85971E-05-2.85636E-05 4.99948E-09-2.12437E-19-2.68144E-19
 -1       287 9.52441E-05-2.85931E-05-2.85647E-05 6.76289E-09 7.91250E-19-2.62556E-18
 -1       288 9.52423E-05-2.85880E-05-2.85661E-05 7.70983E-09 6.49052E-19 2.21614E-19
 -1       289 9.52403E-05-2.85826E-05-2.85676E-05 7.54695E-09-3.20080E-19 6.59911E-19
 -1       290 9.52384E-05-2.85775E-05-2.85689E-05 6.01092E-09-2.29005E-18-2.87138E-19
 -1       291 9.52365E-05-2.85743E-05-2.85696E-05 5.32327E-09-1.44569E-18 9.28320E-20
 -1       292 1.21232E-05-4.42439E-05 1.09918E-05 1.05316E-05-1.03338E-19 4.33861E-18
 -1       293 3.03548E-05-4.01753E-05 2.41190E-06 2.93158E-05 1.97655E-18 4.82353E-18
 -1       294 5.55360E-05-3.61235E-05-9.82607E-06 3.67744E-05 4.47233E-18 6.53279E-18
 -1       295 9.26606E-05-3.15958E-05-2.64488E-05 4.52034E-05 5.83394E-18 5.65797E-18
 -1       296 1.35475E-04-3.08105E-05-4.37963E-05 4.60207E-05 5.16182E-18 4.59346E-18
 -1       297 1.72096E-04-3.22073E-05-5.82798E-05 2.67554E-05 4.66392E-18 1.78343E-18
 -1       298 2.05286E-04-3.52928E-05-6.95219E-05 1.85942E-05 3.92653E-18 1.72509E-18
 -1       299 2.03986E-04-3.18963E-05-7.07413E-05-4.08866E-06 4.22627E-18-1.33929E-18
 -1       300 1.88029E-04-3.10873E-05-6.49511E-05-2.18993E-05 5.26939E-18-3.33413E-18
 -1       301 1.60403E-04-3.19379E-05-5.33693E-05-3.90281E-05 5.25465E-18-4.83169E-18
 -1       302 1.19594E-04-3.07952E-05-3.75223E-05-4.66476E-05 6.40039E-18-6.18334E-18
 -1       303 8.45292E-05-4.05967E-05-1.93692E-05-4.35234E-05 4.95303E-18-4.63909E-18
 -1       304 3.84859E-05-3.79909E-05-2.42859E-06-2.98881E-05 6.17254E-18-5.44266E-18
 -1       305 1.89723E-05-3.92826E-05 6.58131E-06-2.13411E-05 2.86869E-18-5.07436E-18
 -1       306 1.08675E-05-4.85673E-05 1.26982E-05-2.59005E-06 1.34170E-18-4.23982E-18
 -1       307 1.58983E-05-4.56865E-05 9.58974E-06 1.19307E-05-1.04767E-18-4.16920E-18
 -1       308 3.35964E-05-4.16052E-05 7.03328E-07 2.42199E-05-3.39660E-18-5.48477E-18
 -1       309 6.33247E-05-3.57182E-05-1.34419E-05 3.71440E-05-5.11311E-18-6.36905E-18
 -1       310 1.04170E-04-3.27319E-05-3.07495E-05 4.55735E-05-5.59317E-18-6.40675E-18
 -1       311 1.52469E-04-3.62024E-05-4.85013E-05 3.96883E-05-4.99585E-18-5.10507E-18
 -1       312 1.87087E-04-3.42181E-05-6.31588E-05 2.37582E-05-4.84831E-18-3.48512E-18
 -1       313 2.11523E-04-3.58789E-05-7.18050E-05 1.04702E-05-4.19747E-18-2.57106E-18
 -1       314 2.15729E-04-3.78413E-05-7.22765E-05-9.76490E-06-4.64703E-18 9.46559E-19
 -1       315 1.90603E-04-3.49169E-05-6.40980E-05-2.43333E-05-6.13247E-18 3.21576E-18
 -1       316 1.59514E-04-3.42604E-05-5.18808E-05-4.21826E-05-6.94451E-18 5.73230E-18
 -1       317 1.19492E-04-3.54535E-05-3.57174E-05-4.34719E-05-7.63473E-18 5.43033E-18
 -1       318 7.70573E-05-3.51217E-05-1.90394E-05-3.98948E-05-8.00171E-18 7.76285E-18
 -1       319 4.58533E-05-4.04156E-05-4.43510E-06-3.07094E-05-7.46702E-18 5.88206E-18
 -1       320 2.25915E-05-4.59321E-05 6.90506E-06-1.62299E-05-5.08262E-18 6.76621E-18
 -1       321 1.21362E-05-4.97914E-05 1.25827E-05-3.94846E-06-2.72549E-18 5.48634E-18
 -1       322 9.55176E-05-1.48051E-05-3.46580E-05-5.60737E-06-2.23735E-18 8.29669E-19
 -1       323 1.04379E-04-2.16218E-05-3.55238E-05-7.79168E-06-2.03087E-18 2.48183E-18
 -1       324 8.20018E-05-6.39413E-06-3.24410E-05-2.21033E-06-1.91614E-18-1.26974E-18
 -1       325 7.74676E-05-3.88453E-06-3.15614E-05-1.73792E-06-1.65746E-18-1.94556E-18
 -1       326 7.48713E-05-2.58145E-06-3.10006E-05-1.85652E-06-1.36085E-18-2.18010E-18
 -1       327 7.43534E-05-2.51320E-06-3.08066E-05-2.12271E-06-1.05409E-18-2.33463E-18
 -1       328 7.57549E-05-3.53742E-06-3.09717E-05-2.06466E-06-7.16716E-19-2.48250E-18
 -1       329 7.86509E-05-5.35745E-06-3.14400E-05-1.33205E-06-3.71197E-19-2.47170E-18
 -1       330 8.24416E-05-7.60407E-06-3.21121E-05 1.84410E-07 7.19076E-20-2.40183E-18
 -1       331 8.68340E-05-1.01526E-05-3.29158E-05 2.47790E-06 5.88267E-19-2.10051E-18
 -1       332 9.16082E-05-1.30310E-05-3.37454E-05 5.32015E-06 1.16814E-18-1.86524E-18
 -1       333 9.70111E-05-1.67088E-05-3.45003E-05 8.32689E-06 1.65011E-18-1.22873E-18
 -1       334 1.03355E-04-2.21338E-05-3.49221E-05 1.03340E-05 1.96339E-18 9.89308E-20
 -1       335 1.07662E-04-2.74396E-05-3.44671E-05 8.55141E-06 1.95163E-18 1.33264E-18
 -1       336 1.06343E-04-3.01710E-05-3.26199E-05 2.88043E-06 1.54360E-18 8.86440E-19
 -1       337 1.07937E-04-2.92386E-05-3.36823E-05 9.43426E-07-1.25242E-18 2.59654E-18
 -1       338 1.08537E-04-3.10162E-05-3.32032E-05 4.88160E-06-8.12118E-19 2.36861E-18
 -1       339 1.10213E-04-3.28492E-05-3.31544E-05 6.69740E-06-3.72863E-19 2.32048E-18
 -1       340 1.12919E-04-3.52943E-05-3.32838E-05 6.38734E-06-3.42395E-20 2.23970E-18
 -1       341 1.16387E-04-3.83353E-05-3.34806E-05 3.51050E-06-2.06807E-19 2.17354E-18
 -1       342 1.19870E-04-4.11453E-05-3.37758E-05-2.20887E-06 2.39618E-20 2.41331E-18
 -1       343 1.21825E-04-4.17512E-05-3.43569E-05-9.77855E-06 1.28524E-19 2.84478E-18
 -1       344 1.20401E-04-3.78582E-05-3.54279E-05-1.56316E-05-8.92780E-19 3.44695E-18
 -1       345 1.15534E-04-2.97756E-05-3.68638E-05-1.44342E-05-1.79984E-18 3.15704E-18
 -1       346 1.11469E-04-2.34888E-05-3.78548E-05-3.78312E-06-2.16355E-18 1.88620E-18
 -1       347 1.12723E-04-2.52117E-05-3.76480E-05 9.99907E-06-2.37476E-18-8.62228E-20
 -1       348 1.18100E-04-3.32930E-05-3.64292E-05 1.71861E-05-1.42997E-18-8.24059E-19
 -1       349 1.22128E-04-4.02625E-05-3.51461E-05 1.50006E-05-1.11214E-18-1.33600E-18
 -1       350 1.22245E-04-4.23400E-05-3.42862E-05 7.63385E-06-4.08306E-19-1.71521E-18
 -1       351 1.19473E-04-4.06522E-05-3.38139E-05 1.98553E-07-1.95413E-20-1.37993E-18
 -1       352 1.15685E-04-3.76541E-05-3.34706E-05-4.94317E-06-1.60799E-19-1.05025E-18
 -1       353 1.11989E-04-3.48561E-05-3.30749E-05-7.56764E-06 2.65034E-19-5.15046E-19
 -1       354 1.08779E-04-3.27683E-05-3.25833E-05-8.31376E-06 7.00092E-19-5.59886E-19
 -1       355 1.06087E-04-3.13572E-05-3.20273E-05-7.93320E-06 8.06238E-19-5.35889E-19
 -1       356 1.03851E-04-3.04381E-05-3.14585E-05-6.99938E-06 5.84319E-19 1.27139E-19
 -1       357 1.02000E-04-2.98393E-05-3.09201E-05-5.87719E-06-2.82028E-19 6.13278E-19
 -1       358 1.00478E-04-2.94408E-05-3.04386E-05-4.76969E-06-3.91296E-19 7.01131E-19
 -1       359 9.92412E-05-2.91678E-05-3.00260E-05-3.77433E-06-5.87517E-19 1.16844E-19
 -1       360 9.82483E-05-2.89761E-05-2.96834E-05-2.92680E-06 1.65315E-19 5.82145E-19
 -1       361 9.74625E-05-2.88393E-05-2.94061E-05-2.22988E-06-8.20863E-19 1.27426E-18
 -1       362 9.68500E-05-2.87415E-05-2.91863E-05-1.67079E-06-1.37792E-19 1.50620E-18
 -1       363 9.63800E-05-2.86719E-05-2.90153E-05-1.23077E-06 7.77644E-19 9.15045E-19
 -1       364 9.60251E-05-2.86234E-05-2.88846E-05-8.90036E-07-4.13343E-19 3.10996E-19
 -1       365 9.57618E-05-2.85906E-05-2.87863E-05-6.30114E-07-3.26766E-19 9.97477E-19
 -1       366 9.55702E-05-2.85693E-05-2.87137E-05-4.34783E-07 5.76164E-19 1.33035E-18
 -1       367 9.54340E-05-2.85563E-05-2.86611E-05-2.90287E-07-2.50603E-19 1.06497E-18
 -1       368 9.53396E-05-2.85493E-05-2.86238E-05-1.85239E-07-1.18780E-18 8.57049E-19
 -1       369 9.52764E-05-2.85464E-05-2.85982E-05-1.10384E-07-2.46478E-19 4.49956E-19
 -1       370 9.52360E-05-2.85462E-05-2.85811E-05-5.83092E-08-3.12409E-19 8.76303E-19
 -1       371 9.52120E-05-2.85477E-05-2.85703E-05-2.31557E-08-1.13217E-19 1.27892E-18
 -1       372 9.51994E-05-2.85501E-05-2.85639E-05-3.54027E-10 1.10720E-18 1.87458E-18
 -1       373 9.51946E-05-2.85530E-05-2.85606E-05 1.36128E-08 5.35743E-19 1.47864E-18
 -1       374 9.51947E-05-2.85559E-05-2.85595E-05 2.14101E-08 5.55183E-19 2.63290E-18
 -1       375 9.51980E-05-2.85588E-05-2.85596E-05 2.50205E-08-2.56885E-19 3.80028E-18
 -1       376 9.52030E-05-2.85615E-05-2.85606E-05 2.58830E-08-1.46875E-18 4.56907E-18
 -1       377 9.52087E-05-2.85639E-05-2.85621E-05 2.50050E-08 8.10025E-19 4.49464E-18
 -1       378 9.52147E-05-2.85661E-05-2.85637E-05 2.30488E-08 1.72704E-18 5.49997E-18
 -1       379 9.52204E-05-2.85681E-05-2.85653E-05 2.03981E-08 4.78728E-19 3.15909E-18
 -1       380 9.52256E-05-2.85700E-05-2.85667E-05 1.72205E-08-1.08354E-18 2.07208E-18
 -1       381 9.52301E-05-2.85718E-05-2.85679E-05 1.35293E-08-2.74330E-19 1.37535E-18
 -1       382 9.52335E-05-2.85731E-05-2.85688E-05 9.58242E-09 4.59289E-19 1.12725E-18
 -1       383 1.05426E-04-3.11507E-05-3.18026E-05 3.85035E-07 1.13095E-18 6.80028E-19
 -1       384 1.05126E-04-3.17656E-05-3.14299E-05-1.60193E-07 9.15731E-19 3.01742E-19
 -1       385 1.05052E-04-3.22641E-05-3.11980E-05 6.19826E-07 6.19495E-19 3.78956E-20
 -1       386 1.04699E-04-3.24993E-05-3.09509E-05 2.34333E-06 1.06635E-19-1.67462E-19
 -1       387 1.03653E-04-3.22173E-05-3.06225E-05 4.50710E-06 5.99871E-20-5.06191E-19
 -1       388 1.01713E-04-3.12059E-05-3.02193E-05 6.33221E-06 4.62622E-19-3.24007E-20
 -1       389 9.90674E-05-2.95059E-05-2.98072E-05 6.85390E-06 4.04596E-19 3.59049E-19
 -1       390 9.64100E-05-2.75964E-05-2.94805E-05 5.33724E-06 5.66599E-19 1.51553E-19
 -1       391 9.47591E-05-2.63025E-05-2.93227E-05 1.85379E-06 1.31589E-18-6.38534E-20
 -1       392 9.49041E-05-2.63117E-05-2.93781E-05-2.48936E-06 7.21669E-19-2.80643E-19
 -1       393 9.68539E-05-2.76470E-05-2.96428E-05-6.07162E-06 5.21433E-19-9.75319E-19
 -1       394 9.98242E-05-2.96538E-05-3.00627E-05-7.71438E-06 3.68095E-19-7.84834E-19
 -1       395 1.02761E-04-3.14941E-05-3.05428E-05-7.24327E-06-6.29310E-19-1.42624E-18
 -1       396 1.04900E-04-3.26432E-05-3.09757E-05-5.32330E-06-2.80120E-19-1.54035E-18
 -1       397 1.05969E-04-3.30233E-05-3.12757E-05-2.87744E-06 8.60038E-19-1.67377E-18
 -1       398 1.06063E-04-3.28294E-05-3.13998E-05-6.25781E-07 9.45740E-19-7.80046E-19
 -1       399 1.05442E-04-3.23177E-05-3.13508E-05 1.06479E-06-1.35227E-19-8.95602E-19
 -1       400 1.04385E-04-3.16906E-05-3.11627E-05 2.11776E-06-1.75525E-19-1.37077E-18
 -1       401 1.03120E-04-3.10707E-05-3.08826E-05 2.62097E-06-2.32399E-19-2.23202E-18
 -1       402 1.01813E-04-3.05175E-05-3.05565E-05 2.72190E-06 5.88644E-19-2.26800E-18
 -1       403 1.00570E-04-3.00515E-05-3.02216E-05 2.56595E-06-5.86403E-19-1.57938E-18
 -1       404 9.94534E-05-2.96732E-05-2.99040E-05 2.27012E-06-9.26062E-19-1.65311E-18
 -1       405 9.84907E-05-2.93738E-05-2.96192E-05 1.91755E-06-6.34729E-19-1.10334E-18
 -1       406 9.76880E-05-2.91419E-05-2.93745E-05 1.56158E-06-1.57375E-20-4.89135E-19
 -1       407 9.70375E-05-2.89656E-05-2.91713E-05 1.23294E-06 1.85526E-19 8.37911E-19
 -1       408 9.65235E-05-2.88341E-05-2.90077E-05 9.46583E-07-7.03129E-19 1.01086E-18
 -1       409 9.61269E-05-2.87381E-05-2.88792E-05 7.07355E-07-7.46307E-20 2.31282E-18
 -1       410 9.58281E-05-2.86696E-05-2.87808E-05 5.14060E-07 5.10527E-19 2.41985E-18
 -1       411 9.56084E-05-2.86220E-05-2.87074E-05 3.62264E-07 5.29807E-19 6.31468E-19
 -1       412 9.54511E-05-2.85900E-05-2.86539E-05 2.46111E-07 1.60123E-18-1.24976E-18
 -1       413 9.53421E-05-2.85696E-05-2.86161E-05 1.59439E-07 3.61327E-19 8.53903E-20
 -1       414 9.52693E-05-2.85574E-05-2.85903E-05 9.64193E-08-5.54712E-19 2.51516E-18
 -1       415 9.52233E-05-2.85510E-05-2.85735E-05 5.18806E-08-1.18628E-19 1.75539E-18
 -1       416 9.51966E-05-2.85485E-05-2.85633E-05 2.14344E-08 6.62204E-19 1.08071E-18
 -1       417 9.51833E-05-2.85485E-05-2.85576E-05 1.47750E-09-8.84635E-19-4.53934E-19
 -1       418 9.51790E-05-2.85500E-05-2.85552E-05-1.08671E-08 4.54354E-19-1.51666E-18
 -1       419 9.51806E-05-2.85524E-05-2.85549E-05-1.78390E-08-1.14209E-18-6.91010E-19
 -1       420 9.51857E-05-2.85552E-05-2.85559E-05-2.11377E-08-7.61801E-19 1.36962E-21
 -1       421 9.51927E-05-2.85581E-05-2.85577E-05-2.20158E-08-1.67689E-19-4.71494E-19
 -1       422 9.52004E-05-2.85609E-05-2.85598E-05-2.13616E-08-4.88303E-19 1.11094E-18
 -1       423 9.52082E-05-2.85635E-05-2.85620E-05-1.97673E-08 2.01446E-18 7.60599E-19
 -1       424 9.52156E-05-2.85659E-05-2.85642E-05-1.75810E-08-4.60004E-20 4.65397E-21
 -1       425 9.52222E-05-2.85681E-05-2.85661E-05-1.49484E-08-1.89392E-18 1.22424E-18
 -1       426 9.52279E-05-2.85700E-05-2.85677E-05-1.18623E-08-4.33080E-19 8.55795E-19
 -1       427 9.52326E-05-2.85718E-05-2.85689E-05-8.24094E-09-4.83812E-19 2.84497E-18
 -1       428 9.52350E-05-2.85729E-05-2.85695E-05-5.92123E-09 1.90146E-20 3.08703E-18
 -1       429 9.52408E-05-2.85836E-05-2.85674E-05-1.30897E-08 1.73493E-19-2.23315E-18
 -1       430 9.52380E-05-2.85791E-05-2.85681E-05-1.20678E-08-7.62301E-19-1.58206E-18
 -1       431 9.52362E-05-2.85758E-05-2.85688E-05-9.41684E-09-5.59313E-19 1.75959E-18
 -1       432 9.52432E-05-2.85878E-05-2.85666E-05-1.22811E-08 6.88473E-19-2.96630E-18
 -1       433 9.52452E-05-2.85915E-05-2.85659E-05-9.91494E-09 3.48665E-18-1.37963E-18
 -1       434 9.52466E-05-2.85941E-05-2.85654E-05-6.40543E-09 3.21381E-18 9.59780E-19
 -1       435 9.52473E-05-2.85955E-05-2.85651E-05-2.20273E-09-1.33433E-19 7.69659E-20
 -1       436 9.52473E-05-2.85955E-05-2.85651E-05 2.23329E-09 4.20834E-19 4.90992E-19
 -1       437 9.52466E-05-2.85941E-05-2.85654E-05 6.43978E-09-1.03642E-18-2.49093E-18
 -1       438 9.52452E-05-2.85915E-05-2.85659E-05 9.90369E-09-1.12534E-18-4.17875E-19
 -1       439 9.52432E-05-2.85879E-05-2.85666E-05 1.22903E-08 8.72857E-19 1.27496E-18
 -1       440 9.52408E-05-2.85836E-05-2.85674E-05 1.31154E-08 1.50383E-18-1.17323E-18
 -1       441 9.52380E-05-2.85790E-05-2.85681E-05 1.21456E-08-5.27374E-20-2.60139E-18
 -1       442 6.36095E-05-4.27308E-05-8.99376E-06 4.47293E-05-4.89585E-19 4.46082E-18
 -1       443 1.17712E-05-2.24697E-05 4.40752E-06 1.87057E-06-1.39419E-18 5.17834E-18
 -1       444 2.75847E-05-2.47308E-05-9.58822E-07 2.97429E-05-1.15789E-18 5.28517E-18
 -1       445 9.86645E-05-5.19098E-05-2.01329E-05 4.20494E-05 5.12773E-19 2.68425E-18
 -1       446 1.31631E-04-5.22228E-05-3.40035E-05 2.83944E-05 1.96983E-18-2.28911E-19
 -1       447 8.80965E-05-9.98447E-06-3.35361E-05-3.56051E-06-2.17076E-18-4.44269E-19
 -1       448 1.53057E-04-1.97160E-05-5.73068E-05-2.66021E-06 3.85824E-18-1.24048E-18
 -1       449 1.53302E-04-1.11719E-05-6.10393E-05-1.67592E-06 5.26495E-18-1.32767E-18
 -1       450 1.54563E-04-1.41445E-05-6.02240E-05 2.28828E-06 5.08516E-18-1.14826E-18
 -1       451 1.57310E-04-3.10589E-05-5.39608E-05-4.40220E-06 4.52808E-18-1.21772E-18
 -1       452 1.45636E-04-4.68908E-05-4.22756E-05-1.78574E-05 3.30142E-18-1.41200E-18
 -1       453 1.22640E-04-5.42031E-05-2.93546E-05-3.29394E-05 2.00673E-18-1.55123E-18
 -1       454 7.49255E-05-4.53102E-05-1.28092E-05-4.52045E-05 9.15537E-19-2.91741E-18
 -1       455 4.38172E-05-3.31547E-05-4.49410E-06-4.03517E-05-3.57871E-20-3.97031E-18
 -1       456 1.55104E-05-2.02854E-05 2.04739E-06-1.49530E-05-1.30999E-19-5.43139E-18
 -1       457 1.41030E-05-2.06581E-05 2.74421E-06 9.36131E-06 1.23587E-19-4.64566E-18
 -1       458 3.47380E-05-3.30232E-05-1.06618E-06 3.31283E-05-6.75509E-20-5.08389E-18
 -1       459 7.26246E-05-4.62411E-05-1.13932E-05 4.35380E-05 1.51725E-19-4.05483E-18
 -1       460 1.13991E-04-5.79711E-05-2.40060E-05 3.64653E-05 6.92449E-20-2.12685E-18
 -1       461 1.40749E-04-5.72964E-05-3.59281E-05 2.08457E-05-1.39231E-18-9.10243E-19
 -1       462 1.55528E-04-4.15715E-05-4.90690E-05-3.37173E-06-2.62109E-18 2.53475E-19
 -1       463 1.56777E-04-1.96841E-05-5.89091E-05-6.01647E-06-4.35523E-18 5.92288E-19
 -1       464 1.60934E-04-1.39678E-05-6.28757E-05 3.36164E-07-5.42196E-18 5.00160E-19
 -1       465 1.64852E-04-2.12671E-05-6.12695E-05 3.80626E-06-5.57125E-18 1.75230E-19
 -1       466 1.59029E-04-3.90915E-05-5.14257E-05 4.45630E-07-4.08545E-18-1.03793E-18
 -1       467 1.50369E-04-5.22023E-05-4.20374E-05-1.24161E-05-3.14053E-18-1.25933E-18
 -1       468 1.23948E-04-5.99719E-05-2.75268E-05-3.01951E-05-1.29924E-18-1.47754E-19
 -1       469 9.39247E-05-5.37455E-05-1.71574E-05-4.12733E-05-8.94467E-19 2.11250E-18
 -1       470 4.86070E-05-3.83870E-05-4.55396E-06-3.87236E-05 2.06464E-20 4.82094E-18
 -1       471 2.30452E-05-2.89818E-05 2.20881E-06-2.41149E-05-3.74494E-19 5.87989E-18
 -1       472 1.49479E-04-4.31408E-05-4.56844E-05 8.83437E-06 2.00342E-18-1.44334E-18
 -1       473 1.42675E-04-3.16160E-05-4.80709E-05-9.30731E-06 1.82541E-18-2.46709E-18
 -1       474 1.07170E-04-5.56501E-05-2.19102E-05-3.89648E-05-2.66709E-19-1.20707E-18
 -1       475 1.04230E-04-2.85750E-05-3.24136E-05 2.38073E-06 1.35627E-18-1.96627E-19
 -1       476 7.62095E-05-5.33616E-06-3.03829E-05-8.67272E-07-1.42739E-18-1.82187E-18
 -1       477 8.03922E-05-7.92090E-06-3.10709E-05-9.37005E-09-1.62618E-18-1.44126E-18
 -1       478 7.53595E-05-5.25957E-06-3.00501E-05-3.13938E-06-1.01992E-18-2.19239E-18
 -1       479 7.82848E-05-7.39325E-06-3.03917E-05-3.34794E-06-6.64489E-19-2.24764E-18
 -1       480 8.24781E-05-1.02704E-05-3.09597E-05-2.51036E-06-2.70257E-19-2.12264E-18
 -1       481 8.73665E-05-1.35273E-05-3.16637E-05-7.05971E-07 2.96045E-19-1.78687E-18
 -1       482 9.24087E-05-1.69090E-05-3.23797E-05 1.65707E-06 7.92634E-19-1.52053E-18
 -1       483 9.75596E-05-2.06270E-05-3.29923E-05 4.00602E-06 1.29334E-18-1.27212E-18
 -1       484 1.04706E-04-3.08239E-05-3.16528E-05 2.58943E-07 1.13300E-18-1.70200E-19
 -1       485 1.02326E-04-2.58139E-05-3.27850E-05 3.49426E-06-1.13768E-18 1.08459E-18
 -1       486 1.40006E-04-5.45944E-05-3.67904E-05 8.45685E-06-9.77099E-20-3.11502E-18
 -1       487 1.03785E-04-2.88032E-05-3.21348E-05 7.28395E-06-6.34119E-19 9.89044E-19
 -1       488 1.06248E-04-3.22285E-05-3.17253E-05 9.31980E-06-2.17838E-19 1.07724E-18
 -1       489 1.10454E-04-3.69294E-05-3.15219E-05 9.16235E-06-1.15348E-19 1.04833E-18
 -1       490 1.16718E-04-4.27972E-05-3.16983E-05 5.96367E-06 2.32200E-19 1.45002E-18
 -1       491 1.24199E-04-4.79263E-05-3.27207E-05-1.07222E-06 4.96028E-19 1.77792E-18
 -1       492 1.29901E-04-4.78260E-05-3.52555E-05-1.11783E-05 4.27532E-19 1.99942E-18
 -1       493 1.28825E-04-3.73260E-05-3.95778E-05-1.80879E-05-1.49238E-18 2.41417E-18
 -1       494 1.23258E-04-2.18649E-05-4.38830E-05-1.26539E-05-3.00699E-18 2.03893E-18
 -1       495 1.20846E-04-1.63786E-05-4.52746E-05 4.23798E-06-4.05464E-18 2.49828E-19
 -1       496 1.25239E-04-2.72195E-05-4.25021E-05 1.83069E-05-2.90937E-18-8.87300E-19
 -1       497 1.30622E-04-4.29051E-05-3.77618E-05 1.76490E-05-1.43173E-18-2.24014E-18
 -1       498 1.28366E-04-4.91141E-05-3.40266E-05 7.96357E-06-7.73909E-19-1.67913E-18
 -1       499 1.21492E-04-4.67366E-05-3.20478E-05-1.55616E-06 1.85813E-19-8.53732E-19
 -1       500 1.14115E-04-4.11271E-05-3.12941E-05-7.63447E-06-1.67931E-19-3.57887E-19
 -1       501 1.08312E-04-3.58669E-05-3.10587E-05-1.04940E-05 5.70909E-19-6.99907E-19
 -1       502 1.04387E-04-3.21664E-05-3.09564E-05-1.11527E-05 2.70680E-19-8.09002E-19
 -1       503 1.01858E-04-2.99359E-05-3.08245E-05-1.05771E-05 6.89897E-19-6.37475E-19
 -1       504 1.00212E-04-2.87453E-05-3.06272E-05-9.39893E-06 5.23904E-19-1.53849E-18
 -1       505 9.90840E-05-2.81893E-05-3.03809E-05-8.00297E-06 4.40147E-19-1.65621E-18
 -1       506 9.82556E-05-2.79830E-05-3.01140E-05-6.60815E-06 9.18306E-20-6.75319E-19
 -1       507 9.76111E-05-2.79525E-05-2.98511E-05-5.32821E-06-7.36971E-19-4.89244E-19
 -1       508 9.70921E-05-2.80008E-05-2.96083E-05-4.21257E-06 1.06987E-19 8.09870E-19
 -1       509 9.66689E-05-2.80776E-05-2.93944E-05-3.27336E-06-2.10658E-20-4.16758E-19
 -1       510 9.63247E-05-2.81589E-05-2.92124E-05-2.50262E-06-1.08242E-18-3.29921E-19
 -1       511 9.60479E-05-2.82343E-05-2.90618E-05-1.88275E-06 1.17959E-20-1.96812E-19
 -1       512 9.58286E-05-2.83002E-05-2.89398E-05-1.39271E-06-3.30344E-19 6.11068E-19
 -1       513 9.56579E-05-2.83558E-05-2.88431E-05-1.01129E-06 1.98911E-19 1.05009E-18
 -1       514 9.55277E-05-2.84020E-05-2.87676E-05-7.18850E-07-1.77570E-19 1.20732E-18
 -1       515 9.54303E-05-2.84398E-05-2.87098E-05-4.98031E-07-8.96725E-19 4.10778E-19
 -1       516 9.53590E-05-2.84703E-05-2.86663E-05-3.33955E-07-1.77936E-18-7.80565E-20
 -1       517 9.53082E-05-2.84947E-05-2.86341E-05-2.14178E-07 2.80595E-19 1.22283E-18
 -1       518 9.52730E-05-2.85141E-05-2.86108E-05-1.28488E-07 6.56174E-19 1.93465E-18
 -1       519 9.52496E-05-2.85292E-05-2.85943E-05-6.86366E-08 3.84005E-19 2.35754E-18
 -1       520 9.52348E-05-2.85410E-05-2.85830E-05-2.80576E-08 3.71993E-19 1.60805E-18
 -1       521 9.52261E-05-2.85499E-05-2.85755E-05-1.59767E-09 3.85940E-20 6.59747E-19
 -1       522 9.52218E-05-2.85566E-05-2.85708E-05 1.47264E-08 1.08511E-18 4.98538E-19
 -1       523 9.52204E-05-2.85617E-05-2.85680E-05 2.39416E-08 9.45309E-19 1.69726E-18
 -1       524 9.52209E-05-2.85654E-05-2.85667E-05 2.83026E-08-1.67888E-19 2.86709E-18
 -1       525 9.52225E-05-2.85681E-05-2.85662E-05 2.94446E-08-6.30365E-19 2.62355E-18
 -1       526 9.52248E-05-2.85701E-05-2.85663E-05 2.85103E-08 3.34927E-19 2.35985E-18
 -1       527 9.52273E-05-2.85718E-05-2.85667E-05 2.62525E-08-6.31667E-19 1.41543E-18
 -1       528 9.52300E-05-2.85732E-05-2.85672E-05 2.30997E-08-5.61468E-19 3.66702E-19
 -1       529 9.52326E-05-2.85747E-05-2.85677E-05 1.92940E-08-4.29367E-19 5.90393E-19
 -1       530 1.06322E-04-3.39995E-05-3.10013E-05 1.42774E-06 4.53153E-19-1.55963E-19
 -1       531 1.06917E-04-3.47580E-05-3.09322E-05 3.94618E-06 2.43618E-19-1.44580E-19
 -1       532 1.06696E-04-3.43317E-05-3.10171E-05 6.84924E-06-5.93543E-20-4.63759E-19
 -1       533 1.05256E-04-3.23173E-05-3.12580E-05 8.89791E-06 7.38755E-20-9.59000E-20
 -1       534 1.02764E-04-2.90032E-05-3.16078E-05 8.63815E-06 4.75400E-19 2.52958E-19
 -1       535 1.00262E-04-2.57303E-05-3.19369E-05 5.25519E-06 1.27433E-18 1.67866E-19
 -1       536 9.92038E-05-2.43200E-05-3.20848E-05-4.68646E-07 1.24945E-18-9.88650E-20
 -1       537 1.00320E-04-2.56798E-05-3.19790E-05-6.23152E-06 9.17443E-19-1.94147E-19
 -1       538 1.02911E-04-2.89601E-05-3.16868E-05-9.69410E-06 4.96578E-19-6.24016E-19
 -1       539 1.05529E-04-3.23941E-05-3.13434E-05-9.96910E-06 2.57326E-19-7.66965E-19
 -1       540 1.07051E-04-3.45813E-05-3.10633E-05-7.76571E-06-4.42747E-19-9.61155E-19
 -1       541 1.07225E-04-3.51925E-05-3.08802E-05-4.47216E-06 3.54025E-20-1.43546E-18
 -1       542 1.06388E-04-3.46352E-05-3.07616E-05-1.25364E-06 2.11202E-19 1.11669E-22
 -1       543 1.05022E-04-3.35070E-05-3.06582E-05 1.26367E-06 2.68586E-19 5.65433E-19
 -1       544 1.03500E-04-3.22686E-05-3.05339E-05 2.90748E-06 8.66157E-20 1.80230E-19
 -1       545 1.02037E-04-3.11715E-05-3.03747E-05 3.76508E-06 7.18569E-20-3.41042E-19
 -1       546 1.00731E-04-3.03059E-05-3.01837E-05 4.02512E-06 4.96827E-20-7.12627E-19
 -1       547 9.96094E-05-2.96714E-05-2.99733E-05 3.88534E-06-3.62634E-19-7.34666E-19
 -1       548 9.86684E-05-2.92299E-05-2.97583E-05 3.51169E-06-3.78386E-19-6.88471E-19
 -1       549 9.78919E-05-2.89352E-05-2.95514E-05 3.02727E-06-7.63745E-19-1.01895E-18
 -1       550 9.72601E-05-2.87458E-05-2.93616E-05 2.51518E-06-3.51649E-19-1.04708E-18
 -1       551 9.67530E-05-2.86290E-05-2.91944E-05 2.02654E-06-8.95188E-19-3.57143E-19
 -1       552 9.63517E-05-2.85609E-05-2.90518E-05 1.58911E-06-3.97381E-19 1.38183E-19
 -1       553 9.60390E-05-2.85245E-05-2.89336E-05 1.21484E-06-1.04193E-18-1.08826E-19
 -1       554 9.57992E-05-2.85080E-05-2.88381E-05 9.05620E-07 4.43580E-19 6.27867E-19
 -1       555 9.56185E-05-2.85038E-05-2.87627E-05 6.57474E-07 1.04505E-18 3.02670E-19
 -1       556 9.54850E-05-2.85065E-05-2.87045E-05 4.63396E-07 1.00459E-18 3.74308E-19
 -1       557 9.53886E-05-2.85129E-05-2.86605E-05 3.15214E-07-1.28344E-19 3.56968E-18
 -1       558 9.53206E-05-2.85208E-05-2.86282E-05 2.04728E-07-9.25611E-19 3.95280E-18
 -1       559 9.52743E-05-2.85291E-05-2.86049E-05 1.24367E-07 4.16540E-19 2.95985E-18
 -1       560 9.52440E-05-2.85368E-05-2.85886E-05 6.74989E-08 8.73118E-19 8.94677E-19
 -1       561 9.52255E-05-2.85438E-05-2.85778E-05 2.85314E-08 8.72357E-19 8.91271E-19
 -1       562 9.52152E-05-2.85498E-05-2.85708E-05 2.89165E-09 5.89144E-19 6.99863E-19
 -1       563 9.52106E-05-2.85548E-05-2.85667E-05-1.30639E-08 8.57545E-20 9.30723E-19
 -1       564 9.52098E-05-2.85590E-05-2.85646E-05-2.21663E-08-1.15867E-18 2.42834E-19
 -1       565 9.52114E-05-2.85624E-05-2.85639E-05-2.65594E-08-9.23361E-19 6.84718E-20
 -1       566 9.52144E-05-2.85651E-05-2.85640E-05-2.78184E-08-1.75228E-19 6.80145E-19
 -1       567 9.52181E-05-2.85673E-05-2.85646E-05-2.70544E-08 1.17645E-18-1.91807E-19
 -1       568 9.52221E-05-2.85692E-05-2.85655E-05-2.50066E-08 2.47203E-19 2.67896E-18
 -1       569 9.52260E-05-2.85709E-05-2.85665E-05-2.21469E-08-1.59262E-18 3.56852E-18
 -1       570 9.52296E-05-2.85726E-05-2.85673E-05-1.86439E-08-2.25690E-18 4.26063E-18
 -1       571 9.52331E-05-2.85742E-05-2.85681E-05-1.44881E-08-1.02479E-18 4.03059E-18
 -1       572 9.52454E-05-2.85876E-05-2.85676E-05-1.46297E-08 3.02258E-18-1.05123E-18
 -1       573 9.52477E-05-2.85903E-05-2.85675E-05-1.06898E-08 3.72574E-18-2.76219E-19
 -1       574 9.52384E-05-2.85799E-05-2.85679E-05-1.72460E-08-8.30696E-19-1.75620E-18
 -1       575 9.52422E-05-2.85840E-05-2.85678E-05-1.68844E-08-1.28230E-18-8.00852E-19
 -1       576 9.52492E-05-2.85920E-05-2.85673E-05-5.62506E-09 2.29605E-18-1.38935E-18
 -1       577 9.52497E-05-2.85926E-05-2.85673E-05 1.17076E-11 1.71448E-18-1.43438E-19
 -1       578 9.52492E-05-2.85920E-05-2.85673E-05 5.65277E-09-7.53888E-19-2.36054E-18
 -1       579 9.52478E-05-2.85904E-05-2.85675E-05 1.06492E-08 2.00133E-19-5.59893E-19
 -1       580 9.52454E-05-2.85877E-05-2.85676E-05 1.46245E-08 5.03971E-19-6.05292E-19
 -1       581 9.52422E-05-2.85840E-05-2.85678E-05 1.69142E-08-3.65249E-19 4.02100E-19
 -1       582 9.52383E-05-2.85798E-05-2.85679E-05 1.71815E-08-1.21981E-18-3.03150E-18
 -1       583 2.83049E-05-1.29971E-05-5.87600E-06 1.13694E-05-5.86861E-19 4.70516E-18
 -1       584 9.41378E-05-5.14453E-05-1.80294E-05 4.20078E-05-2.77822E-18 1.31665E-18
 -1       585 1.05453E-04-3.25895E-05-3.12271E-05 5.80031E-08 8.84359E-19-1.29524E-19
 -1       586 2.76146E-05-1.46470E-05-4.89283E-06-1.27937E-05 3.43869E-19 3.91912E-18
 -1       587 5.73390E-05-3.28749E-05-1.00352E-05 4.08492E-05-1.92467E-18 3.26589E-18
 -1       588 8.12675E-05-4.54740E-05-1.49843E-05-4.03744E-05 1.76786E-18 1.86601E-18
 -1       589 1.35128E-04-1.27851E-05-5.31056E-05 7.27176E-06-4.92825E-18 2.73539E-19
 -1       590 1.44736E-04-5.58671E-05-3.83542E-05-3.43533E-06-2.11388E-19 1.27436E-18
 -1       591 1.03053E-04-5.42567E-05-2.06427E-05 3.68616E-05 1.59904E-18-1.21639E-18
 -1       592 1.43395E-04-4.21301E-05-4.37698E-05 4.16529E-06 2.35687E-18 4.59727E-19
 -1       593 7.45179E-05-4.45525E-06-3.00341E-05-2.12087E-06-1.17191E-18-2.10970E-18
 -1       594 1.38880E-04-2.17189E-05-5.07311E-05 1.01769E-05 4.05342E-18 6.32416E-19
 -1       595 1.32814E-04-1.23202E-05-5.22814E-05-8.61230E-06 3.78788E-18-2.46558E-18
 -1       596 6.20739E-05-3.58917E-05-1.08285E-05 4.02033E-05 1.34864E-18-3.80868E-18
 -1       597 1.28218E-04-7.22849E-06-5.25591E-05 1.96420E-06 4.34427E-18-4.28420E-19
 -1       598 1.37408E-04-5.67319E-05-3.47605E-05-1.32948E-05 9.01786E-19 1.71577E-19
 -1       599 7.41091E-05-3.99203E-05-1.41860E-05-4.35498E-05-1.59216E-18-2.28733E-18
 -1       600 3.72322E-05-1.94550E-05-7.05657E-06-3.02768E-05-1.49856E-18-4.42199E-18
 -1       601 2.25148E-05-1.16267E-05-4.07055E-06-2.08281E-06-3.20552E-19-4.57281E-18
 -1       602 1.38638E-04-2.93544E-05-4.73576E-05-1.60950E-05-2.85572E-18 1.69425E-18
 -1       603 3.46810E-05-1.94974E-05-5.95088E-06 2.61306E-05 5.78894E-19-4.41304E-18
 -1       604 1.32199E-04-6.27836E-05-2.97687E-05 1.98737E-05 1.07976E-18-1.38437E-20
 -1       605 1.43199E-04-2.72671E-05-5.01888E-05 1.56045E-05-3.88968E-18-1.04688E-18
 -1       606 1.35197E-04-1.40079E-05-5.26106E-05-7.23516E-06-4.67943E-18 1.22727E-18
 -1       607 1.45689E-04-4.96328E-05-4.15608E-05 1.00881E-05-2.45211E-18-1.37966E-18
 -1       608 1.39829E-04-6.21729E-05-3.33401E-05-8.67734E-06-1.00138E-18-2.50280E-18
 -1       609 1.17148E-04-6.02827E-05-2.42324E-05-2.91524E-05 8.42639E-19-9.34555E-19
 -1       610 4.70990E-05-2.77012E-05-7.82309E-06-3.37541E-05 1.72032E-18 4.48345E-18
 -1       611 9.96289E-05-2.13697E-05-3.35587E-05-1.08527E-06-1.85780E-18 9.05239E-19
 -1       612 1.04100E-04-2.62057E-05-3.33949E-05 5.62804E-06 1.71682E-18-6.59098E-20
 -1       613 1.24129E-04-5.97872E-05-2.75252E-05 2.74125E-05-1.19262E-18-2.71016E-18
 -1       614 8.65254E-05-1.18930E-05-3.20024E-05 3.16193E-08-1.72184E-18-7.21980E-19
 -1       615 4.59347E-05-1.91691E-05-1.09228E-05 2.68361E-05-1.39475E-18 4.48144E-18
 -1       616 1.25940E-04-5.90840E-05-2.85923E-05-2.33928E-05-6.69685E-19-7.48565E-20
 -1       617 1.38239E-04-4.40447E-05-4.07128E-05-7.32884E-06 3.04469E-19-3.51503E-18
 -1       618 9.52344E-05-2.85758E-05-2.85680E-05 1.62834E-08-1.05300E-18 3.63645E-19
 -1       619 8.17984E-05-1.24189E-05-2.97379E-05-5.48498E-06-5.31732E-19-1.79917E-18
 -1       620 7.70398E-05-8.96561E-06-2.91775E-05-5.27302E-06-9.14138E-19-2.03865E-18
 -1       621 9.27901E-05-2.00232E-05-3.11903E-05-2.04725E-06 3.68016E-19-1.15517E-18
 -1       622 9.76883E-05-2.34790E-05-3.18103E-05 2.03138E-07 9.50520E-19-1.01431E-18
 -1       623 1.02111E-04-2.77729E-05-3.18498E-05 6.57588E-07 1.12985E-18-7.51468E-19
 -1       624 5.76008E-05-2.52287E-05-1.34043E-05 3.18627E-05 1.25655E-18-3.34054E-18
 -1       625 9.50964E-05-2.07791E-05-3.18478E-05 4.08471E-06-1.18408E-18-1.86012E-21
 -1       626 9.78202E-05-2.65868E-05-3.05181E-05 1.01428E-05-4.71099E-19 1.26660E-20
 -1       627 1.01043E-04-3.16687E-05-2.97288E-05 1.30100E-05-1.53565E-19-9.45616E-20
 -1       628 1.07083E-04-3.89352E-05-2.91972E-05 1.42873E-05 4.37638E-19 2.02179E-19
 -1       629 1.17077E-04-4.82813E-05-2.94683E-05 1.23146E-05 8.19470E-19 7.93447E-19
 -1       630 1.29891E-04-5.60335E-05-3.16691E-05 4.90643E-06 1.10639E-18 1.25287E-18
 -1       631 1.25215E-04-5.46178E-05-3.02299E-05-7.80278E-06 3.87587E-19-6.02902E-19
 -1       632 1.12688E-04-4.55346E-05-2.88135E-05-1.33737E-05 5.29925E-19 1.55195E-19
 -1       633 1.03918E-04-3.71254E-05-2.86236E-05-1.48977E-05-1.44522E-19 3.14096E-19
 -1       634 9.90569E-05-3.15386E-05-2.89341E-05-1.42174E-05 2.71277E-19 5.07281E-19
 -1       635 9.66010E-05-2.83077E-05-2.92680E-05-1.27445E-05 8.23529E-19 7.35094E-19
 -1       636 9.55418E-05-2.67313E-05-2.94893E-05-1.10493E-05 1.90535E-19 1.95302E-19
 -1       637 9.51855E-05-2.61519E-05-2.95847E-05-9.35861E-06-2.78178E-19-1.28327E-19
 -1       638 9.51377E-05-2.61137E-05-2.95806E-05-7.77427E-06 4.71334E-19-9.94213E-19
 -1       639 9.51961E-05-2.63344E-05-2.95112E-05-6.34626E-06 2.25157E-19-4.79575E-19
 -1       640 9.52692E-05-2.66533E-05-2.94060E-05-5.09665E-06 5.47613E-20 3.45454E-19
 -1       641 9.53237E-05-2.69865E-05-2.92867E-05-4.02965E-06-9.15023E-19 1.40331E-18
 -1       642 9.53529E-05-2.72943E-05-2.91675E-05-3.13761E-06-4.53085E-19 9.91352E-19
 -1       643 9.53612E-05-2.75613E-05-2.90567E-05-2.40566E-06-4.70536E-19 1.36235E-18
 -1       644 9.53552E-05-2.77846E-05-2.89585E-05-1.81519E-06 3.76543E-19 9.56911E-19
 -1       645 9.53414E-05-2.79668E-05-2.88746E-05-1.34640E-06 2.47035E-19 6.17560E-19
 -1       646 9.53243E-05-2.81131E-05-2.88046E-05-9.79930E-07 3.04691E-19 9.78460E-19
 -1       647 9.53069E-05-2.82288E-05-2.87476E-05-6.97814E-07-5.04615E-19 1.97912E-18
 -1       648 9.52910E-05-2.83191E-05-2.87021E-05-4.84040E-07-5.40364E-19 2.65395E-18
 -1       649 9.52774E-05-2.83888E-05-2.86665E-05-3.24733E-07-1.62406E-18 3.35629E-18
 -1       650 9.52662E-05-2.84419E-05-2.86390E-05-2.08163E-07-5.52128E-19 2.70506E-18
 -1       651 9.52574E-05-2.84818E-05-2.86181E-05-1.24620E-07 8.17606E-21-1.19409E-19
 -1       652 9.52508E-05-2.85113E-05-2.86026E-05-6.61964E-08-7.11007E-19-8.64368E-19
 -1       653 9.52459E-05-2.85327E-05-2.85913E-05-2.65548E-08-5.40867E-20-9.28011E-19
 -1       654 9.52423E-05-2.85480E-05-2.85833E-05-6.97533E-10 4.86891E-19-1.05159E-18
 -1       655 9.52399E-05-2.85586E-05-2.85777E-05 1.52490E-08 1.48624E-18-6.83328E-19
 -1       656 9.52383E-05-2.85658E-05-2.85739E-05 2.42322E-08 9.25474E-19-1.89352E-18
 -1       657 9.52373E-05-2.85705E-05-2.85715E-05 2.84468E-08-4.21511E-19-1.77963E-18
 -1       658 9.52368E-05-2.85735E-05-2.85700E-05 2.94829E-08-6.06707E-20-3.31373E-19
 -1       659 9.52367E-05-2.85754E-05-2.85691E-05 2.84479E-08-5.01893E-19-1.02461E-19
 -1       660 9.52368E-05-2.85768E-05-2.85686E-05 2.60869E-08-1.32217E-18 6.77188E-19
 -1       661 9.52373E-05-2.85781E-05-2.85682E-05 2.27822E-08-5.08354E-19-2.75633E-20
 -1       662 1.10531E-04-3.78452E-05-3.11555E-05 4.67468E-06 2.46993E-19 6.13701E-19
 -1       663 9.52374E-05-2.85783E-05-2.85682E-05-2.15557E-08-2.31298E-18-3.57566E-18
 -1       664 1.08606E-04-3.66867E-05-3.08249E-05 1.32766E-06 2.44748E-19 5.56196E-19
 -1       665 1.09455E-04-3.25039E-05-3.29897E-05 1.07272E-05 7.43991E-20 5.36220E-19
 -1       666 1.06143E-04-2.64620E-05-3.41768E-05 9.32998E-06 1.02939E-18 6.72411E-20
 -1       667 1.03338E-04-2.18244E-05-3.49637E-05 3.49011E-06 1.44514E-18 1.74621E-19
 -1       668 1.03240E-04-2.17017E-05-3.49624E-05-4.44700E-06 1.38758E-18-2.83785E-19
 -1       669 1.05988E-04-2.62753E-05-3.41803E-05-1.03468E-05 1.05417E-18-2.52093E-19
 -1       670 1.09286E-04-3.23837E-05-3.29724E-05-1.18602E-05 4.81642E-19-4.81606E-19
 -1       671 1.10956E-04-3.68076E-05-3.17831E-05-9.41873E-06 2.45033E-19-1.00176E-18
 -1       672 1.10404E-04-3.83336E-05-3.08923E-05-5.24098E-06-3.28406E-19-6.97069E-19
 -1       673 1.08342E-04-3.75679E-05-3.03365E-05-1.14589E-06-7.14721E-19-3.98650E-19
 -1       674 1.05732E-04-3.56619E-05-3.00340E-05 1.97861E-06-2.07769E-19 3.54655E-19
 -1       675 1.03237E-04-3.35299E-05-2.98776E-05 3.95848E-06-1.24721E-19 1.02765E-18
 -1       676 1.01160E-04-3.16700E-05-2.97833E-05 4.95824E-06 5.74372E-19 9.05641E-19
 -1       677 9.95584E-05-3.02567E-05-2.97016E-05 5.23944E-06 2.66242E-20 4.13277E-19
 -1       678 9.83736E-05-2.92832E-05-2.96103E-05 5.04858E-06 3.80085E-19 4.50763E-19
 -1       679 9.75143E-05-2.86689E-05-2.95050E-05 4.58154E-06-1.08188E-19-2.04486E-19
 -1       680 9.68947E-05-2.83184E-05-2.93894E-05 3.98063E-06-4.92045E-19 2.29681E-19
 -1       681 9.64465E-05-2.81471E-05-2.92706E-05 3.34228E-06-7.47360E-19-3.26552E-19
 -1       682 9.61197E-05-2.80897E-05-2.91551E-05 2.72713E-06-1.35528E-18-2.44815E-19
 -1       683 9.58794E-05-2.80994E-05-2.90481E-05 2.16960E-06-3.20762E-19-8.41178E-19
 -1       684 9.57016E-05-2.81448E-05-2.89525E-05 1.68594E-06-5.14944E-19-4.19618E-19
 -1       685 9.55696E-05-2.82056E-05-2.88699E-05 1.28041E-06-2.21567E-19-7.83495E-19
 -1       686 9.54716E-05-2.82698E-05-2.88005E-05 9.49873E-07 2.06833E-19 8.35846E-19
 -1       687 9.53991E-05-2.83303E-05-2.87435E-05 6.87077E-07 6.24354E-19 1.95971E-18
 -1       688 9.53460E-05-2.83838E-05-2.86979E-05 4.82871E-07-7.90362E-19 2.55577E-18
 -1       689 9.53075E-05-2.84291E-05-2.86621E-05 3.27660E-07 2.54470E-20 3.67381E-19
 -1       690 9.52800E-05-2.84660E-05-2.86345E-05 2.12298E-07 8.13133E-19 1.07405E-18
 -1       691 9.52609E-05-2.84953E-05-2.86138E-05 1.28578E-07 1.24441E-18 2.83900E-19
 -1       692 9.52480E-05-2.85180E-05-2.85985E-05 6.94266E-08 1.12805E-18 2.99172E-19
 -1       693 9.52395E-05-2.85351E-05-2.85876E-05 2.89393E-08 1.82065E-19 1.52547E-18
 -1       694 9.52344E-05-2.85478E-05-2.85799E-05 2.31862E-09-2.00663E-19 1.96814E-18
 -1       695 9.52315E-05-2.85570E-05-2.85748E-05-1.42375E-08-6.30923E-19 2.26535E-18
 -1       696 9.52303E-05-2.85634E-05-2.85715E-05-2.36709E-08 2.49264E-19 1.80901E-18
 -1       697 9.52301E-05-2.85678E-05-2.85696E-05-2.82001E-08-4.10050E-19-2.83294E-20
 -1       698 9.52306E-05-2.85708E-05-2.85685E-05-2.94477E-08 1.80863E-18-1.22118E-18
 -1       699 9.52316E-05-2.85729E-05-2.85680E-05-2.85571E-08-6.45811E-19-1.62112E-18
 -1       700 9.52328E-05-2.85745E-05-2.85679E-05-2.63033E-08-1.00640E-18-1.14757E-18
 -1       701 9.52354E-05-2.85764E-05-2.85681E-05-2.41477E-08-1.46153E-18-2.88964E-18
 -1       702 1.12172E-04-5.54908E-05-2.41726E-05 2.95690E-05-2.37725E-18-2.19454E-18
 -1       703 9.52528E-05-2.85906E-05-2.85695E-05-3.33120E-09 3.16044E-18-1.16696E-18
 -1       704 9.52377E-05-2.85789E-05-2.85681E-05 2.02776E-08-1.13904E-18-2.12059E-18
 -1       705 9.52489E-05-2.85875E-05-2.85692E-05-1.51134E-08 1.37761E-18 2.27903E-19
 -1       706 9.52528E-05-2.85906E-05-2.85695E-05 3.33350E-09 1.68920E-18-4.02105E-18
 -1       707 9.52515E-05-2.85896E-05-2.85694E-05-9.68191E-09 2.26049E-18-5.62284E-20
 -1       708 9.52515E-05-2.85896E-05-2.85694E-05 9.59710E-09 1.29671E-18-1.95568E-18
 -1       709 9.52490E-05-2.85876E-05-2.85692E-05 1.50741E-08 8.68301E-19-2.21129E-19
 -1       710 9.52452E-05-2.85846E-05-2.85688E-05 1.90937E-08 4.27241E-19-2.09110E-18
 -1       711 8.48304E-05-4.22618E-05-1.79431E-05 3.81439E-05-2.31521E-18 1.37034E-18
 -1       712 3.95234E-05-1.14058E-05-1.15224E-05-3.04343E-06 1.64668E-19 3.06822E-18
 -1       713 1.36042E-04-5.03272E-05-3.69966E-05 1.83458E-06 4.74113E-19 1.60031E-18
 -1       714 1.06210E-04-3.42002E-05-3.08631E-05-6.22054E-07 4.21618E-19 1.17469E-19
 -1       715 1.11066E-04-3.66583E-05-3.18935E-05 8.43335E-06-3.02839E-20 4.18291E-19
 -1       716 1.03990E-04-3.11744E-05-3.12068E-05-8.56656E-07 8.34419E-19-3.84909E-19
 -1       717 1.02462E-04-5.07431E-05-2.19522E-05-3.55513E-05-1.73517E-18-5.31950E-19
 -1       718 1.31317E-04-5.79872E-05-3.14791E-05 1.14843E-05-1.13179E-18-3.17976E-18
 -1       719 1.02017E-04-4.93901E-05-2.22820E-05-3.01728E-05 1.40127E-18-3.90879E-19
 -1       720 1.25259E-04-2.40501E-05-4.37773E-05-1.45725E-05 1.65206E-18-2.58886E-18
 -1       721 8.73371E-05-1.62882E-05-3.04555E-05-4.23109E-06-1.82476E-19-1.55365E-18
 -1       722 6.28648E-05-2.58981E-05-1.53880E-05-3.43804E-05-1.95654E-18-2.88992E-18
 -1       723 8.93493E-05-4.30675E-05-1.95171E-05 3.51689E-05 1.79624E-18-1.75176E-18
 -1       724 7.78141E-05-8.76731E-06-2.95967E-05 1.60017E-06-1.28581E-18-1.47046E-18
 -1       725 3.81238E-05-1.07185E-05-1.12177E-05-1.46141E-05-1.07775E-18-3.88407E-18
 -1       726 1.31053E-04-3.22479E-05-4.27164E-05 1.31020E-05 2.38397E-18 1.92758E-18
 -1       727 4.12667E-05-1.06776E-05-1.25738E-05 1.14809E-05-6.20650E-20-3.54452E-18
 -1       728 1.16903E-04-1.11228E-05-4.58388E-05-5.50219E-06 2.84812E-18-1.21905E-18
 -1       729 1.21036E-04-1.40516E-05-4.63365E-05 9.65237E-06 3.35499E-18 3.00022E-19
 -1       730 1.34337E-04-5.54758E-05-3.39124E-05 3.57752E-06-4.40034E-19-9.22469E-19
 -1       731 8.38213E-05-1.27565E-05-3.04681E-05 3.19844E-06-1.36531E-18-1.11768E-18
 -1       732 7.42657E-05-6.79620E-06-2.89183E-05-3.54672E-06-1.03390E-18-2.10129E-18
 -1       733 8.62291E-05-3.77538E-05-2.05492E-05-3.38230E-05-2.02200E-18-1.38827E-18
 -1       734 9.52451E-05-2.85845E-05-2.85688E-05-1.90571E-08 1.88463E-20 3.35476E-18
 -1       735 4.67405E-05-1.79373E-05-1.18763E-05-2.20768E-05 6.49251E-19 3.51471E-18
 -1       736 1.31370E-04-5.56629E-05-3.25070E-05-7.69648E-06-3.47826E-19 1.37884E-18
 -1       737 1.11702E-04-1.30192E-05-4.25678E-05 2.67883E-06 2.68962E-18-2.83083E-19
 -1       738 6.82866E-05-2.86055E-05-1.66616E-05 3.19953E-05-1.64248E-18 2.64610E-18
 -1       739 4.62391E-05-1.30670E-05-1.38179E-05 1.21153E-05-1.97488E-19 3.80477E-18
 -1       740 7.58272E-05-3.56405E-05-1.68547E-05-3.39652E-05 1.96157E-18 2.76633E-18
 -1       741 7.44422E-05-6.65269E-06-2.90549E-05-9.19874E-07-1.07815E-18-1.72879E-18
 -1       742 1.32583E-04-5.08487E-05-3.51879E-05-2.62156E-06-2.74095E-19-2.76817E-18
 -1       743 1.13969E-04-5.37110E-05-2.56211E-05 2.48937E-05 1.33864E-18-3.12085E-19
 -1       744 9.81616E-05-2.62849E-05-3.08103E-05-3.11680E-06 3.20991E-19-5.59626E-19
 -1       745 9.00571E-05-2.37999E-05-2.84051E-05 1.29461E-05-2.03903E-19-6.88462E-19
 -1       746 9.28792E-05-2.98534E-05-2.69856E-05 1.78398E-05 3.35208E-19-6.27668E-19
 -1       747 9.97719E-05-3.93458E-05-2.57883E-05 2.24152E-05 1.06361E-18-4.47935E-19
 -1       748 8.64449E-05-1.78068E-05-2.94201E-05 7.89655E-06-7.59640E-19-1.01645E-18
 -1       749 9.63198E-05-3.67943E-05-2.54733E-05-2.12601E-05 3.85603E-19 3.49022E-19
 -1       750 9.12727E-05-2.97366E-05-2.63601E-05-1.76832E-05 8.20317E-19 1.04506E-18
 -1       751 8.97661E-05-2.59695E-05-2.73361E-05-1.44054E-05 3.54906E-20 9.40556E-19
 -1       752 8.97788E-05-2.42819E-05-2.80683E-05-1.18396E-05 3.66607E-19 3.31176E-19
 -1       753 9.04541E-05-2.38034E-05-2.85639E-05-9.78389E-06-2.21633E-21 4.44692E-19
 -1       754 9.13342E-05-2.39796E-05-2.88659E-05-8.08382E-06-4.25321E-19 1.45239E-18
 -1       755 9.21933E-05-2.44666E-05-2.90254E-05-6.64069E-06 1.14807E-18 8.28396E-19
 -1       756 9.29378E-05-2.50655E-05-2.90879E-05-5.40201E-06-1.20401E-19 8.29168E-19
 -1       757 9.35422E-05-2.56682E-05-2.90887E-05-4.34085E-06-2.46706E-19 3.74079E-19
 -1       758 9.40128E-05-2.62213E-05-2.90534E-05-3.44063E-06-1.03375E-18 6.62312E-19
 -1       759 9.43691E-05-2.67030E-05-2.89996E-05-2.68730E-06-2.24391E-19 7.86299E-19
 -1       760 9.46333E-05-2.71089E-05-2.89390E-05-2.06658E-06 2.06413E-20 9.44608E-19
 -1       761 9.48260E-05-2.74429E-05-2.88784E-05-1.56324E-06-2.40992E-19 1.07254E-18
 -1       762 9.49645E-05-2.77128E-05-2.88221E-05-1.16160E-06 1.00339E-18 1.92932E-18
 -1       763 9.50626E-05-2.79277E-05-2.87721E-05-8.46231E-07-4.12046E-19 8.40724E-19
 -1       764 9.51310E-05-2.80963E-05-2.87291E-05-6.02594E-07-8.47367E-19 1.93353E-19
 -1       765 9.51777E-05-2.82269E-05-2.86932E-05-4.17484E-07-1.18660E-18 1.92950E-19
 -1       766 9.52089E-05-2.83267E-05-2.86638E-05-2.79282E-07-1.74225E-18 4.58744E-19
 -1       767 9.52291E-05-2.84019E-05-2.86402E-05-1.78071E-07-2.13989E-18-1.30657E-18
 -1       768 9.52414E-05-2.84576E-05-2.86216E-05-1.05550E-07-7.11458E-19-9.35602E-19
 -1       769 9.52484E-05-2.84981E-05-2.86072E-05-5.48942E-08-1.20997E-18-1.94035E-18
 -1       770 9.52517E-05-2.85270E-05-2.85963E-05-2.06012E-08 4.47704E-19-1.36916E-18
 -1       771 9.52526E-05-2.85471E-05-2.85881E-05 1.68050E-09 6.53806E-19-1.03576E-18
 -1       772 9.52521E-05-2.85606E-05-2.85821E-05 1.53288E-08 5.41192E-19-2.07840E-18
 -1       773 9.52506E-05-2.85694E-05-2.85777E-05 2.29138E-08 9.99970E-19-9.30821E-19
 -1       774 9.52488E-05-2.85748E-05-2.85746E-05 2.63468E-08 9.82836E-19-1.84174E-18
 -1       775 9.52468E-05-2.85780E-05-2.85723E-05 2.70088E-08 3.16679E-19-3.52679E-18
 -1       776 9.52450E-05-2.85799E-05-2.85707E-05 2.58785E-08-1.20992E-18-2.07863E-18
 -1       777 9.52434E-05-2.85812E-05-2.85695E-05 2.35805E-08-1.29526E-18-2.23463E-18
 -1       778 1.11765E-04-4.02565E-05-3.06436E-05-1.61767E-07 1.33715E-19 6.69926E-19
 -1       779 1.09462E-04-2.12295E-05-3.79283E-05 9.00002E-06 1.49639E-18 7.05423E-19
 -1       780 1.14019E-04-3.08740E-05-3.57356E-05 1.24496E-05 8.31694E-19 8.77056E-19
 -1       781 1.09071E-04-2.07097E-05-3.80231E-05-1.01026E-05 1.00140E-18-1.05385E-18
 -1       782 1.13894E-04-3.06800E-05-3.57258E-05-1.35252E-05 8.79799E-19-1.13583E-18
 -1       783 1.16328E-04-3.89552E-05-3.31952E-05-1.05745E-05 8.89931E-19-1.50496E-18
 -1       784 1.15134E-04-4.22300E-05-3.12589E-05-5.02533E-06-6.13457E-19-1.34611E-18
 -1       785 1.11492E-04-4.14050E-05-3.00409E-05 2.22070E-07-1.26874E-18-2.61966E-19
 -1       786 1.07167E-04-3.85396E-05-2.94135E-05 3.83557E-06-3.66240E-19-3.87165E-19
 -1       787 1.03303E-04-3.52660E-05-2.91599E-05 5.82667E-06-6.46816E-19-3.90984E-19
 -1       788 1.00325E-04-3.24279E-05-2.90997E-05 6.61660E-06-1.87189E-19-5.70712E-19
 -1       789 9.82413E-05-3.03052E-05-2.91158E-05 6.63490E-06 4.04903E-19 9.52833E-19
 -1       790 9.68807E-05-2.88784E-05-2.91439E-05 6.20318E-06-2.03858E-19 1.04693E-18
 -1       791 9.60448E-05-2.80150E-05-2.91556E-05 5.53663E-06-2.79105E-19 1.91233E-18
 -1       792 9.55626E-05-2.75623E-05-2.91428E-05 4.77422E-06 1.09522E-19 2.13811E-18
 -1       793 9.53053E-05-2.73864E-05-2.91079E-05 4.00365E-06-2.24118E-19 1.67342E-18
 -1       794 9.51837E-05-2.73828E-05-2.90573E-05 3.27770E-06-1.43957E-19 1.56183E-19
 -1       795 9.51389E-05-2.74768E-05-2.89979E-05 2.62538E-06-9.47765E-19-1.34547E-18
 -1       796 9.51347E-05-2.76178E-05-2.89357E-05 2.05983E-06-2.54511E-19-9.18494E-19
 -1       797 9.51491E-05-2.77738E-05-2.88750E-05 1.58359E-06-9.74229E-19-1.13503E-18
 -1       798 9.51700E-05-2.79256E-05-2.88189E-05 1.19247E-06-5.35286E-19-7.29193E-19
 -1       799 9.51909E-05-2.80629E-05-2.87691E-05 8.78396E-07-2.01854E-19 3.07350E-19
 -1       800 9.52088E-05-2.81810E-05-2.87261E-05 6.31442E-07-5.68008E-19 9.78801E-19
 -1       801 9.52227E-05-2.82789E-05-2.86902E-05 4.41152E-07 5.38339E-19 1.21962E-18
 -1       802 9.52329E-05-2.83576E-05-2.86608E-05 2.97458E-07 4.30770E-19 1.13263E-18
 -1       803 9.52397E-05-2.84194E-05-2.86372E-05 1.91233E-07 1.21228E-18 3.09982E-19
 -1       804 9.52438E-05-2.84667E-05-2.86188E-05 1.14513E-07 1.06832E-18-6.54780E-20
 -1       805 9.52460E-05-2.85020E-05-2.86045E-05 6.05531E-08-5.54205E-19 1.62730E-18
 -1       806 9.52467E-05-2.85278E-05-2.85938E-05 2.37911E-08-8.54520E-19 2.62148E-18
 -1       807 9.52465E-05-2.85461E-05-2.85859E-05-2.49085E-10-9.84959E-20 1.72493E-18
 -1       808 9.52458E-05-2.85587E-05-2.85802E-05-1.50882E-08 7.96240E-20-5.11491E-19
 -1       809 9.52447E-05-2.85670E-05-2.85761E-05-2.34327E-08 3.84140E-19-1.58795E-18
 -1       810 9.52435E-05-2.85724E-05-2.85733E-05-2.73113E-08 7.34264E-19-1.48947E-18
 -1       811 9.52423E-05-2.85757E-05-2.85714E-05-2.82014E-08 2.86036E-19 1.42719E-18
 -1       812 9.52414E-05-2.85777E-05-2.85701E-05-2.71380E-08-1.01949E-18 6.16487E-19
 -1       813 9.52561E-05-2.85889E-05-2.85717E-05 7.21598E-09 1.62123E-18-2.16505E-18
 -1       814 9.52495E-05-2.85851E-05-2.85705E-05 1.93857E-08 8.26793E-19-1.83045E-18
 -1       815 9.52569E-05-2.85894E-05-2.85718E-05-8.43435E-11 7.01683E-19-4.60006E-18
 -1       816 1.18402E-04-2.45569E-05-4.04778E-05 1.31592E-05 1.77015E-18 1.16454E-18
 -1       817 1.27826E-04-4.16327E-05-3.71080E-05 1.01713E-05 4.92351E-19 1.76328E-18
 -1       818 1.00226E-04-4.62637E-05-2.30149E-05 2.87635E-05-1.61661E-18-1.70680E-18
 -1       819 1.14345E-04-1.93705E-05-4.09930E-05-1.11038E-05 1.50867E-18-1.06582E-18
 -1       820 1.07462E-04-3.66312E-05-3.03556E-05-2.69021E-06-3.62508E-20 5.30354E-19
 -1       821 9.52536E-05-2.85875E-05-2.85712E-05 1.39007E-08 1.69137E-18-1.17477E-18
 -1       822 1.07148E-04-1.67734E-05-3.88417E-05-3.13592E-07 2.05106E-18-3.13746E-19
 -1       823 1.01623E-04-2.91742E-05-3.10490E-05-1.87901E-06 4.92552E-19-2.94204E-19
 -1       824 5.69289E-05-1.52122E-05-1.76025E-05-2.09294E-05-1.46086E-18-3.00898E-18
 -1       825 5.88368E-05-1.79682E-05-1.72507E-05 2.19533E-05 6.01168E-19-2.58607E-18
 -1       826 4.90573E-05-8.86961E-06-1.69313E-05-3.61055E-06-7.51583E-19-3.02195E-18
 -1       827 1.18031E-04-5.42859E-05-2.72802E-05-2.16088E-05-1.57580E-18 1.67941E-19
 -1       828 8.00282E-05-3.15726E-05-2.05266E-05 2.91099E-05 1.17431E-18-2.06941E-18
 -1       829 1.20508E-04-5.42440E-05-2.83656E-05 1.44345E-05-1.61611E-18-1.79911E-18
 -1       830 7.99721E-05-1.39569E-05-2.82920E-05-8.53023E-06-8.07865E-19-1.62121E-18
 -1       831 1.25341E-04-3.45957E-05-3.90961E-05-1.41731E-05 1.13145E-18-1.82485E-18
 -1       832 7.45585E-05-9.97040E-06-2.76805E-05-6.59883E-06-8.80452E-19-1.97479E-18
 -1       833 7.26251E-05-2.43910E-05-2.05013E-05-2.67623E-05-1.71311E-18-1.97173E-18
 -1       834 1.24487E-04-5.22215E-05-3.10223E-05 3.28810E-06-6.65109E-19-8.11954E-19
 -1       835 9.52494E-05-2.85849E-05-2.85705E-05-1.93887E-08-2.65051E-19 3.54159E-18
 -1       836 5.32377E-05-1.47598E-05-1.62052E-05-1.33726E-05 4.84038E-19 2.71638E-18
 -1       837 9.52432E-05-2.85812E-05-2.85694E-05-2.32302E-08-1.21341E-19 1.78659E-18
 -1       838 1.15485E-04-4.17111E-05-3.16230E-05 4.40059E-06 1.17845E-19 1.01812E-18
 -1       839 1.04168E-04-3.28352E-05-3.05748E-05-2.86963E-06 1.74423E-19 1.24399E-19
 -1       840 1.16688E-04-3.89113E-05-3.33500E-05 9.68182E-06 1.61127E-20 1.03595E-18
 -1       841 9.52425E-05-2.85795E-05-2.85698E-05-2.53745E-08-5.62533E-19 1.57866E-18
 -1       842 9.52535E-05-2.85874E-05-2.85712E-05-1.39513E-08 1.24280E-18-4.69304E-19
 -1       843 9.52560E-05-2.85888E-05-2.85717E-05-7.32142E-09 1.62967E-18 5.23732E-20
 -1       844 8.54113E-05-3.53317E-05-2.13141E-05 2.84053E-05-2.14335E-18 3.01583E-19
 -1       845 6.06727E-05-1.95533E-05-1.73896E-05 2.16475E-05-9.79249E-19 2.68930E-18
 -1       846 5.21050E-05-1.23644E-05-1.67730E-05-4.15082E-07 2.36393E-19 2.66335E-18
 -1       847 1.03581E-04-4.53679E-05-2.48612E-05-2.61817E-05-1.60450E-18-3.28070E-19
 -1       848 1.28472E-04-4.87174E-05-3.43090E-05 3.47549E-06-1.11537E-19 1.72849E-18
 -1       849 8.66630E-05-1.86631E-05-2.91450E-05-8.06536E-06-4.92947E-19-1.55382E-18
 -1       850 5.62662E-05-1.08992E-05-1.92736E-05 8.74863E-06-1.47215E-19-2.58528E-18
 -1       851 9.30868E-05-2.29712E-05-3.00459E-05-5.89390E-06-1.68121E-19-9.93657E-19
 -1       852 7.82049E-05-1.23866E-05-2.82080E-05 5.59269E-06-8.15189E-19-1.33446E-18
 -1       853 7.29015E-05-8.97193E-06-2.73999E-05 1.31901E-06-9.39929E-19-1.51819E-18
 -1       854 7.88811E-05-2.48468E-05-2.30290E-05 2.22804E-05 5.72651E-19-1.68333E-18
 -1       855 7.90515E-05-2.50670E-05-2.30441E-05-2.02995E-05 9.83055E-19 1.74394E-18
 -1       856 7.01845E-05-2.63421E-05-1.84309E-05-2.54787E-05 1.09532E-18 2.68813E-18
 -1       857 8.06366E-05-2.22917E-05-2.49909E-05-1.48312E-05-2.26565E-21 9.53637E-19
 -1       858 8.27828E-05-2.12082E-05-2.63859E-05-1.12594E-05 2.67227E-19 1.26431E-18
 -1       859 8.50460E-05-2.11980E-05-2.73626E-05-8.95754E-06-4.49040E-19 1.24740E-18
 -1       860 8.70966E-05-2.17346E-05-2.80122E-05-7.31845E-06 9.07174E-19 3.33695E-19
 -1       861 8.88588E-05-2.25277E-05-2.84276E-05-6.04247E-06 1.70189E-19 1.64662E-18
 -1       862 9.03203E-05-2.34038E-05-2.86785E-05-4.98596E-06 4.64147E-19 5.15587E-19
 -1       863 9.15016E-05-2.42624E-05-2.88167E-05-4.08222E-06-5.38762E-19 2.29246E-19
 -1       864 9.24378E-05-2.50500E-05-2.88804E-05-3.30266E-06-1.56782E-20 4.74879E-19
 -1       865 9.31677E-05-2.57422E-05-2.88966E-05-2.63376E-06-2.99722E-19 8.03847E-19
 -1       866 9.37295E-05-2.63330E-05-2.88842E-05-2.06745E-06 2.72746E-19 2.01819E-18
 -1       867 9.41563E-05-2.68259E-05-2.88559E-05-1.59602E-06-7.71612E-19 1.19078E-18
 -1       868 9.44767E-05-2.72297E-05-2.88202E-05-1.21036E-06 9.72381E-19 1.42517E-18
 -1       869 9.47144E-05-2.75551E-05-2.87825E-05-9.00553E-07-4.07027E-20 7.32446E-20
 -1       870 9.48882E-05-2.78136E-05-2.87463E-05-6.55981E-07-8.33345E-19-7.71381E-19
 -1       871 9.50134E-05-2.80159E-05-2.87132E-05-4.66373E-07-9.53640E-19-1.34225E-18
 -1       872 9.51020E-05-2.81721E-05-2.86842E-05-3.21960E-07-8.43037E-19-1.08506E-18
 -1       873 9.51633E-05-2.82909E-05-2.86596E-05-2.14044E-07-2.54768E-18-8.89695E-19
 -1       874 9.52045E-05-2.83799E-05-2.86391E-05-1.35073E-07-4.02110E-19-9.19976E-20
 -1       875 9.52311E-05-2.84454E-05-2.86224E-05-7.86018E-08-1.13126E-18-2.45659E-19
 -1       876 9.52472E-05-2.84926E-05-2.86091E-05-3.92883E-08-7.08660E-19 6.71325E-19
 -1       877 9.52560E-05-2.85258E-05-2.85987E-05-1.28113E-08 3.40510E-19-1.69224E-20
 -1       878 9.52598E-05-2.85485E-05-2.85906E-05 4.25409E-09 7.30782E-19 2.37598E-19
 -1       879 9.52604E-05-2.85635E-05-2.85844E-05 1.45680E-08 6.69268E-19-4.52879E-19
 -1       880 9.52589E-05-2.85730E-05-2.85797E-05 2.01530E-08 2.81726E-19-1.99742E-18
 -1       881 9.52564E-05-2.85786E-05-2.85762E-05 2.25058E-08-1.54001E-18-4.14547E-18
 -1       882 9.52533E-05-2.85818E-05-2.85735E-05 2.27100E-08 4.29641E-19-5.01506E-18
 -1       883 9.52514E-05-2.85837E-05-2.85719E-05 2.13456E-08 8.01211E-19-3.66480E-18
 -1       884 1.23646E-04-4.06466E-05-3.56890E-05-1.14600E-05 8.16474E-19-1.52668E-18
 -1       885 1.15431E-04-4.60544E-05-2.97085E-05 3.52051E-06-1.81118E-18-1.10980E-18
 -1       886 1.08672E-04-4.18467E-05-2.86354E-05 7.47287E-06-1.05392E-18-1.07097E-18
 -1       887 1.03067E-04-3.70992E-05-2.82709E-05 8.99217E-06-7.16293E-19-7.70285E-19
 -1       888 9.90608E-05-3.31125E-05-2.82632E-05 9.06764E-06-3.89331E-19-5.37626E-19
 -1       889 9.64852E-05-3.02182E-05-2.83999E-05 8.41237E-06-3.48487E-19-5.34414E-19
 -1       890 9.49797E-05-2.83217E-05-2.85676E-05 7.45746E-06 5.18033E-19-2.72484E-19
 -1       891 9.42054E-05-2.72073E-05-2.87134E-05 6.41993E-06-3.47609E-19-5.02789E-19
 -1       892 9.38970E-05-2.66542E-05-2.88182E-05 5.40692E-06-2.08443E-19-6.81722E-19
 -1       893 9.38652E-05-2.64772E-05-2.88805E-05 4.46995E-06-2.08549E-20 6.14447E-20
 -1       894 9.39822E-05-2.65335E-05-2.89065E-05 3.63330E-06 1.72835E-19-6.05034E-19
 -1       895 9.41660E-05-2.67203E-05-2.89053E-05 2.90479E-06-3.13985E-19-1.60961E-19
 -1       896 9.43679E-05-2.69684E-05-2.88855E-05 2.28421E-06-8.55846E-19-1.12808E-19
 -1       897 9.45600E-05-2.72327E-05-2.88545E-05 1.76617E-06-3.78670E-19-3.45175E-19
 -1       898 9.47287E-05-2.74863E-05-2.88182E-05 1.34169E-06-3.52727E-19-2.14438E-18
 -1       899 9.48691E-05-2.77144E-05-2.87806E-05 1.00014E-06-1.55459E-18-1.63187E-18
 -1       900 9.49811E-05-2.79107E-05-2.87444E-05 7.30115E-07-1.51854E-18-3.01122E-19
 -1       901 9.50673E-05-2.80737E-05-2.87115E-05 5.20405E-07-4.33816E-19 5.80586E-19
 -1       902 9.51314E-05-2.82054E-05-2.86826E-05 3.60374E-07 5.79842E-19 6.35698E-19
 -1       903 9.51777E-05-2.83091E-05-2.86580E-05 2.40516E-07 6.03292E-19 3.08699E-19
 -1       904 9.52097E-05-2.83889E-05-2.86375E-05 1.52579E-07 7.90092E-19 7.58581E-19
 -1       905 9.52310E-05-2.84489E-05-2.86209E-05 8.95241E-08-5.74292E-19 2.78577E-18
 -1       906 9.52442E-05-2.84930E-05-2.86077E-05 4.54954E-08-4.47592E-19 1.64901E-18
 -1       907 9.52516E-05-2.85246E-05-2.85973E-05 1.57388E-08-1.43951E-19-9.16466E-19
 -1       908 9.52550E-05-2.85465E-05-2.85894E-05-3.52612E-09 2.35657E-19 3.34126E-19
 -1       909 9.52557E-05-2.85612E-05-2.85833E-05-1.52453E-08 1.08980E-18 1.01732E-18
 -1       910 9.52547E-05-2.85707E-05-2.85789E-05-2.16657E-08-1.30804E-19 4.68122E-19
 -1       911 9.52527E-05-2.85765E-05-2.85755E-05-2.44592E-08-2.28468E-18 3.14816E-18
 -1       912 9.52504E-05-2.85799E-05-2.85731E-05-2.48133E-08-6.03995E-19 5.36464E-18
 -1       913 1.24161E-04-5.25787E-05-3.06819E-05-7.88706E-06-6.09311E-19 1.30538E-18
 -1       914 1.08710E-04-3.96017E-05-2.96466E-05-6.57362E-06-3.64934E-19 1.87897E-19
 -1       915 1.09336E-04-1.68787E-05-3.98021E-05-6.50686E-06 1.91439E-18-4.96067E-19
 -1       916 7.20485E-05-8.28538E-06-2.73247E-05-3.16616E-06-9.15145E-19-2.16888E-18
 -1       917 9.52609E-05-2.85876E-05-2.85743E-05 3.79482E-09-1.16964E-19-1.66730E-18
 -1       918 1.21518E-04-4.69712E-05-3.19444E-05-3.40551E-06-9.16218E-20-9.87439E-19
 -1       919 1.08635E-04-4.69256E-05-2.63914E-05 1.80236E-05-1.38073E-18-1.94789E-18
 -1       920 7.95411E-05-1.95764E-05-2.56788E-05 1.46363E-05 4.02258E-20-1.38419E-18
 -1       921 5.97215E-05-1.12495E-05-2.06448E-05-1.09620E-05-1.07089E-18-2.70033E-18
 -1       922 6.82028E-05-1.65008E-05-2.20817E-05-1.79983E-05-1.45120E-18-2.31180E-18
 -1       923 1.14152E-04-4.84156E-05-2.81383E-05-1.52795E-05-1.08252E-18 1.45038E-19
 -1       924 9.52608E-05-2.85876E-05-2.85743E-05-3.97925E-09-5.88507E-19-3.30457E-18
 -1       925 7.22808E-05-1.18626E-05-2.58544E-05 6.22954E-06-4.69412E-19-1.56355E-18
 -1       926 9.52502E-05-2.85834E-05-2.85715E-05-2.15861E-08-1.02100E-18 3.48421E-18
 -1       927 9.52554E-05-2.85859E-05-2.85726E-05-1.60244E-08-1.59620E-19 3.33003E-19
 -1       928 9.52590E-05-2.85868E-05-2.85738E-05 1.12733E-08 6.43061E-19-6.06762E-19
 -1       929 1.03833E-04-3.44732E-05-2.97182E-05-6.57083E-06-2.71386E-19-1.89983E-19
 -1       930 7.63117E-05-1.46037E-05-2.64356E-05-1.13846E-05-9.33632E-19-1.88263E-18
 -1       931 9.79822E-05-4.00625E-05-2.47994E-05 2.15839E-05-1.81228E-18-1.62019E-18
 -1       932 1.15916E-04-4.49938E-05-3.03631E-05-3.60218E-06-2.31839E-19 9.46832E-19
 -1       933 8.50060E-05-2.06464E-05-2.75867E-05-1.23094E-05-8.74932E-19-1.37157E-18
 -1       934 9.52504E-05-2.85818E-05-2.85723E-05-2.33700E-08-9.95375E-19 3.71686E-18
 -1       935 7.55807E-05-2.63699E-05-2.09897E-05 2.33473E-05-1.34162E-18 8.32494E-19
 -1       936 5.86971E-05-1.47912E-05-1.86600E-05 1.05794E-05 2.17532E-19 3.01436E-18
 -1       937 9.52557E-05-2.85855E-05-2.85730E-05 1.67664E-08 1.62468E-18-1.50357E-18
 -1       938 8.84963E-05-3.32114E-05-2.36112E-05-2.57091E-05-1.51093E-18-9.23911E-19
 -1       939 6.22293E-05-1.50199E-05-2.01458E-05-9.06997E-06-2.76477E-20 2.25206E-18
 -1       940 1.15455E-04-4.91907E-05-2.84255E-05 1.05541E-05-1.51169E-18-1.95046E-19
 -1       941 9.93566E-05-2.87099E-05-3.02803E-05-4.90490E-06-4.66466E-20-4.47814E-19
 -1       942 6.03949E-05-9.53173E-06-2.17223E-05-1.12934E-06-6.45816E-19-2.39961E-18
 -1       943 6.26777E-05-1.41202E-05-2.07011E-05 8.20010E-07 3.29402E-19 2.59760E-18
 -1       944 6.85387E-05-9.13879E-06-2.54485E-05-4.04962E-07-8.31545E-19-1.93185E-18
 -1       945 7.51099E-05-1.78005E-05-2.45621E-05-8.15301E-06 1.22828E-19 1.76371E-18
 -1       946 7.94086E-05-1.86104E-05-2.60577E-05-6.32938E-06 6.65530E-19 1.62559E-18
 -1       947 8.28416E-05-1.96466E-05-2.70843E-05-5.19655E-06 4.81223E-20 2.55261E-18
 -1       948 8.55542E-05-2.07633E-05-2.77682E-05-4.39376E-06 6.37600E-19 1.93633E-18
 -1       949 8.77159E-05-2.18814E-05-2.82152E-05-3.74347E-06-7.92578E-20 6.52989E-19
 -1       950 8.94399E-05-2.29455E-05-2.84978E-05-3.17247E-06-9.58316E-19-3.94938E-19
 -1       951 9.08120E-05-2.39224E-05-2.86671E-05-2.65303E-06 4.57891E-19 1.26651E-19
 -1       952 9.18953E-05-2.47890E-05-2.87600E-05-2.18164E-06 6.44527E-19 1.17258E-18
 -1       953 9.27455E-05-2.55407E-05-2.88021E-05-1.76072E-06-1.76264E-19 9.37857E-19
 -1       954 9.34059E-05-2.61787E-05-2.88117E-05-1.39450E-06-5.43046E-19 2.03418E-19
 -1       955 9.39130E-05-2.67093E-05-2.88016E-05-1.08307E-06-1.20196E-19 1.02284E-18
 -1       956 9.42981E-05-2.71439E-05-2.87804E-05-8.24496E-07 9.04443E-20 5.20745E-20
 -1       957 9.45865E-05-2.74936E-05-2.87541E-05-6.14471E-07-7.61332E-19 4.79040E-19
 -1       958 9.47998E-05-2.77714E-05-2.87265E-05-4.47315E-07-1.13441E-18 5.09575E-19
 -1       959 9.49548E-05-2.79884E-05-2.86999E-05-3.17071E-07-5.90124E-19-3.12390E-19
 -1       960 9.50655E-05-2.81555E-05-2.86757E-05-2.17577E-07-1.16091E-18 3.89771E-19
 -1       961 9.51427E-05-2.82822E-05-2.86545E-05-1.43279E-07-1.01258E-18 1.68158E-18
 -1       962 9.51947E-05-2.83766E-05-2.86363E-05-8.90101E-08-8.96591E-19 1.81431E-18
 -1       963 9.52284E-05-2.84456E-05-2.86212E-05-5.03289E-08-8.60729E-19 1.12034E-18
 -1       964 9.52490E-05-2.84949E-05-2.86089E-05-2.35414E-08 4.26704E-19 6.53602E-19
 -1       965 9.52602E-05-2.85292E-05-2.85990E-05-5.64489E-09 3.72995E-19 3.17637E-19
 -1       966 9.52651E-05-2.85524E-05-2.85912E-05 5.74681E-09-1.74998E-19 2.81596E-19
 -1       967 9.52659E-05-2.85674E-05-2.85851E-05 1.24857E-08-1.26610E-18-7.97395E-19
 -1       968 9.52641E-05-2.85767E-05-2.85803E-05 1.59861E-08-1.21883E-18-2.08777E-18
 -1       969 9.52608E-05-2.85820E-05-2.85766E-05 1.72706E-08-4.66906E-19-8.18202E-19
 -1       970 9.52584E-05-2.85841E-05-2.85747E-05 1.72466E-08 1.81127E-18-5.73050E-19
 -1       971 1.01410E-04-3.83876E-05-2.70044E-05 1.38076E-05-9.58429E-19-1.22257E-18
 -1       972 9.37627E-05-2.96042E-05-2.74950E-05 1.06050E-05 4.72850E-20-1.07045E-18
 -1       973 9.23716E-05-2.73675E-05-2.78586E-05 8.79700E-06-1.35401E-19-1.25292E-18
 -1       974 9.18535E-05-2.61125E-05-2.81747E-05 7.19749E-06-1.26239E-19-4.44877E-19
 -1       975 9.18521E-05-2.55370E-05-2.84206E-05 5.83667E-06-4.29325E-19-1.45530E-19
 -1       976 9.21327E-05-2.54074E-05-2.85964E-05 4.69466E-06-1.20882E-18 1.35622E-19
 -1       977 9.25483E-05-2.55561E-05-2.87110E-05 3.74498E-06 3.57432E-19 1.30377E-18
 -1       978 9.30019E-05-2.58554E-05-2.87772E-05 2.95894E-06-8.75737E-21 1.40868E-18
 -1       979 9.34416E-05-2.62248E-05-2.88073E-05 2.31167E-06-8.10747E-19 1.19021E-18
 -1       980 9.38376E-05-2.66093E-05-2.88121E-05 1.78397E-06-1.17553E-20 6.32096E-19
 -1       981 9.41762E-05-2.69748E-05-2.88006E-05 1.35808E-06 2.99036E-19 3.20687E-19
 -1       982 9.44554E-05-2.73037E-05-2.87793E-05 1.01787E-06-7.01437E-19 8.52408E-19
 -1       983 9.46782E-05-2.75871E-05-2.87533E-05 7.49779E-07-2.33926E-18-1.60499E-19
 -1       984 9.48512E-05-2.78239E-05-2.87260E-05 5.41293E-07-1.70129E-18 3.31254E-19
 -1       985 9.49819E-05-2.80161E-05-2.86996E-05 3.81541E-07-1.06446E-18 1.70247E-18
 -1       986 9.50781E-05-2.81687E-05-2.86755E-05 2.60961E-07 5.59129E-19 2.58603E-18
 -1       987 9.51469E-05-2.82871E-05-2.86542E-05 1.71614E-07 1.11187E-19 2.26661E-18
 -1       988 9.51944E-05-2.83771E-05-2.86360E-05 1.06720E-07-5.18031E-19 2.02316E-18
 -1       989 9.52258E-05-2.84438E-05-2.86209E-05 6.06304E-08 2.51705E-19 8.48544E-19
 -1       990 9.52453E-05-2.84922E-05-2.86085E-05 2.87688E-08 1.13992E-18 1.39616E-18
 -1       991 9.52563E-05-2.85263E-05-2.85986E-05 7.48537E-09-6.49266E-19 1.76046E-18
 -1       992 9.52615E-05-2.85496E-05-2.85908E-05-6.08330E-09 4.82430E-19 8.44967E-19
 -1       993 9.52626E-05-2.85649E-05-2.85847E-05-1.41480E-08 4.63929E-19 1.36765E-18
 -1       994 9.52613E-05-2.85745E-05-2.85801E-05-1.83666E-08-3.46662E-18 2.63347E-18
 -1       995 9.52586E-05-2.85802E-05-2.85765E-05-1.99754E-08-1.81900E-18 9.46555E-19
 -1       996 1.21586E-04-4.71380E-05-3.19218E-05 1.18634E-06-7.27390E-20 1.30938E-18
 -1       997 6.71131E-05-1.26359E-05-2.32681E-05 9.60273E-06-2.03802E-19-1.97220E-18
 -1       998 9.52588E-05-2.85871E-05-2.85736E-05-1.03128E-08-6.81117E-19 5.91461E-19
 -1       999 7.02490E-05-1.06110E-05-2.55335E-05-7.54665E-06-8.48361E-19-2.15833E-18
 -1      1000 9.65219E-05-3.31596E-05-2.71527E-05 1.24694E-05-9.33822E-19-7.18784E-19
 -1      1001 9.32092E-05-2.60422E-05-2.87910E-05-1.02081E-05-5.35992E-19-9.98866E-19
 -1      1002 9.52643E-05-2.85848E-05-2.85769E-05 7.73462E-09 5.28304E-19 8.30565E-19
 -1      1003 1.02328E-04-4.06680E-05-2.63922E-05-2.02794E-05-1.32395E-18-6.71068E-19
 -1      1004 9.52652E-05-2.85850E-05-2.85772E-05-1.72356E-10-4.99102E-19-2.35740E-18
 -1      1005 6.94173E-05-1.98319E-05-2.11885E-05 1.61628E-05 1.54322E-19 1.25669E-18
 -1      1006 7.12351E-05-1.53242E-05-2.38729E-05-1.44678E-05-1.06149E-18-2.15165E-18
 -1      1007 7.97353E-05-2.35908E-05-2.40368E-05-2.06204E-05-1.32979E-18-1.59870E-18
 -1      1008 1.01179E-04-3.46839E-05-2.84689E-05-1.20348E-05-6.95058E-19-7.19576E-19
 -1      1009 9.52566E-05-2.85842E-05-2.85739E-05-1.78534E-08-1.15738E-18 1.75113E-18
 -1      1010 8.86958E-05-3.26198E-05-2.39705E-05 2.09026E-05-1.16267E-18-1.13537E-18
 -1      1011 1.08931E-04-4.50114E-05-2.73920E-05 1.36074E-05-1.12083E-18-1.05822E-18
 -1      1012 6.58282E-05-1.04685E-05-2.36812E-05-7.53633E-06-9.09737E-19-2.20358E-18
 -1      1013 9.52578E-05-2.85825E-05-2.85751E-05-1.90563E-08-4.51690E-19 4.09925E-19
 -1      1014 7.47504E-05-1.68591E-05-2.48091E-05-1.32569E-06 4.05381E-20 2.63427E-18
 -1      1015 7.93696E-05-1.82610E-05-2.61908E-05-1.46715E-06 6.82927E-19 9.61136E-19
 -1      1016 8.28440E-05-1.95584E-05-2.71236E-05-1.58578E-06 1.72806E-19 5.87201E-19
 -1      1017 8.55354E-05-2.07786E-05-2.77532E-05-1.62895E-06-1.01248E-18 9.57764E-19
 -1      1018 8.76719E-05-2.19409E-05-2.81708E-05-1.58574E-06-1.51981E-18-6.26288E-19
 -1      1019 8.93734E-05-2.30107E-05-2.84416E-05-1.46882E-06 1.01454E-19-5.56496E-19
 -1      1020 9.07296E-05-2.39756E-05-2.86097E-05-1.30542E-06 1.84309E-18 3.51989E-19
 -1      1021 9.18162E-05-2.48351E-05-2.87069E-05-1.11798E-06-2.45874E-19 1.33594E-19
 -1      1022 9.26752E-05-2.55806E-05-2.87554E-05-9.28851E-07-1.05753E-18-5.01091E-19
 -1      1023 9.33480E-05-2.62130E-05-2.87724E-05-7.50362E-07-2.75143E-19-1.48698E-18
 -1      1024 9.38681E-05-2.67394E-05-2.87694E-05-5.90979E-07 2.14345E-19-1.91268E-18
 -1      1025 9.42648E-05-2.71703E-05-2.87548E-05-4.55225E-07-2.99842E-19-1.83496E-18
 -1      1026 9.45642E-05-2.75179E-05-2.87342E-05-3.40255E-07-5.41582E-19-9.02618E-19
 -1      1027 9.47856E-05-2.77926E-05-2.87114E-05-2.47815E-07-1.34576E-18-7.38154E-19
 -1      1028 9.49480E-05-2.80078E-05-2.86887E-05-1.74849E-07-9.28677E-19-1.66669E-18
 -1      1029 9.50637E-05-2.81730E-05-2.86675E-05-1.19166E-07 7.05666E-20-2.34454E-18
 -1      1030 9.51440E-05-2.82975E-05-2.86486E-05-7.75074E-08-1.11061E-18-3.34657E-18
 -1      1031 9.51980E-05-2.83897E-05-2.86322E-05-4.70909E-08-6.76418E-20-9.26591E-19
 -1      1032 9.52327E-05-2.84566E-05-2.86183E-05-2.54864E-08 1.07840E-19 2.39881E-19
 -1      1033 9.52535E-05-2.85039E-05-2.86069E-05-1.06267E-08 1.20418E-18 1.06831E-18
 -1      1034 9.52645E-05-2.85365E-05-2.85977E-05-8.08788E-10 1.62837E-20 2.87623E-18
 -1      1035 9.52689E-05-2.85582E-05-2.85903E-05 5.33591E-09-1.49807E-18 2.15470E-18
 -1      1036 9.52690E-05-2.85719E-05-2.85845E-05 8.79728E-09-1.65252E-18 1.80234E-18
 -1      1037 9.52666E-05-2.85802E-05-2.85798E-05 1.05335E-08-7.30929E-19 3.14576E-19
 -1      1038 8.88103E-05-2.45702E-05-2.75326E-05 7.68490E-06-7.48828E-19 2.72819E-20
 -1      1039 6.80045E-05-1.51535E-05-2.26268E-05 1.98039E-07 9.71772E-21 2.91906E-18
 -1      1040 8.86731E-05-2.57164E-05-2.69822E-05 9.97322E-06 1.84648E-19-8.61104E-19
 -1      1041 9.01151E-05-2.41597E-05-2.82661E-05 4.58913E-06-5.65749E-19-3.84001E-19
 -1      1042 9.09209E-05-2.44633E-05-2.84820E-05 3.54226E-06-1.61896E-18-5.05087E-19
 -1      1043 9.16973E-05-2.49091E-05-2.86240E-05 2.73379E-06-6.27098E-19 1.42547E-18
 -1      1044 9.24081E-05-2.54195E-05-2.87098E-05 2.09654E-06-3.45668E-19 2.09480E-18
 -1      1045 9.30301E-05-2.59370E-05-2.87544E-05 1.59751E-06-2.07985E-19 1.75485E-18
 -1      1046 9.35552E-05-2.64238E-05-2.87708E-05 1.20762E-06-1.70398E-19 1.52487E-18
 -1      1047 9.39833E-05-2.68567E-05-2.87686E-05 9.01456E-07-6.47128E-19 1.46449E-18
 -1      1048 9.43266E-05-2.72323E-05-2.87547E-05 6.65765E-07-8.24484E-19 2.33032E-18
 -1      1049 9.45939E-05-2.75462E-05-2.87348E-05 4.82447E-07-2.31849E-18 1.45537E-18
 -1      1050 9.47982E-05-2.78028E-05-2.87124E-05 3.43539E-07-1.55150E-18 9.36569E-19
 -1      1051 9.49504E-05-2.80076E-05-2.86899E-05 2.38291E-07-2.30516E-19-7.74253E-20
 -1      1052 9.50615E-05-2.81680E-05-2.86687E-05 1.60215E-07 4.65601E-20 5.98243E-19
 -1      1053 9.51399E-05-2.82909E-05-2.86496E-05 1.03212E-07 2.89420E-19 9.65870E-19
 -1      1054 9.51934E-05-2.83830E-05-2.86331E-05 6.23166E-08-7.09243E-19 3.05883E-18
 -1      1055 9.52283E-05-2.84505E-05-2.86191E-05 3.36294E-08 7.83191E-19 3.65293E-18
 -1      1056 9.52497E-05-2.84989E-05-2.86075E-05 1.40677E-08 1.78864E-19 3.29489E-18
 -1      1057 9.52614E-05-2.85325E-05-2.85981E-05 1.21502E-09 3.65338E-19 2.60761E-18
 -1      1058 9.52665E-05-2.85550E-05-2.85906E-05-6.79018E-09-3.33173E-19 3.18765E-18
 -1      1059 9.52672E-05-2.85695E-05-2.85847E-05-1.13902E-08-1.17315E-18 4.35401E-18
 -1      1060 9.52653E-05-2.85785E-05-2.85801E-05-1.36776E-08-1.43634E-18 4.18883E-19
 -1      1061 9.34609E-05-3.03614E-05-2.70452E-05-1.61815E-05-8.78542E-19-8.49164E-19
 -1      1062 9.14207E-05-3.17314E-05-2.55654E-05 1.65825E-05-8.89137E-19-9.68775E-19
 -1      1063 6.81188E-05-1.64067E-05-2.21471E-05 7.75840E-06 2.26489E-19 2.91367E-18
 -1      1064 8.93235E-05-2.79343E-05-2.63082E-05 1.29479E-05-3.62345E-19-1.21677E-18
 -1      1065 8.93680E-05-2.41381E-05-2.79557E-05 5.93180E-06 2.12536E-20 2.79902E-20
 -1      1066 9.52684E-05-2.85804E-05-2.85806E-05 3.51425E-09-1.07206E-18 8.04307E-19
 -1      1067 8.09035E-05-2.59550E-05-2.35271E-05 1.80918E-05-6.55269E-19-6.30114E-19
 -1      1068 9.52608E-05-2.85853E-05-2.85752E-05-1.21690E-08-2.29849E-18 9.26554E-19
 -1      1069 9.52639E-05-2.85815E-05-2.85782E-05-1.28074E-08-1.83570E-18-1.18021E-19
 -1      1070 9.52637E-05-2.85856E-05-2.85763E-05-6.32437E-09-1.68435E-18-4.34269E-19
 -1      1071 7.39467E-05-1.71069E-05-2.43549E-05 3.87546E-06-4.74360E-19 1.92848E-18
 -1      1072 7.86412E-05-1.83557E-05-2.58337E-05 2.29551E-06-7.29698E-19 1.12659E-18
 -1      1073 8.36344E-05-2.31638E-05-2.59109E-05 1.03515E-05-6.58045E-19-7.36493E-19
 -1      1074 8.20627E-05-2.40450E-05-2.48584E-05 1.36540E-05-6.72186E-19-1.27625E-18
 -1      1075 8.21607E-05-1.95146E-05-2.68475E-05 1.20856E-06 9.91320E-20 2.17871E-19
 -1      1076 8.49180E-05-2.06550E-05-2.75385E-05 4.71341E-07-3.71140E-19 2.76648E-19
 -1      1077 8.70499E-05-2.16960E-05-2.80087E-05 2.90567E-08-1.70305E-18 4.49520E-19
 -1      1078 8.88101E-05-2.27275E-05-2.83187E-05-1.97652E-07 9.56102E-20 1.82503E-18
 -1      1079 9.02039E-05-2.36596E-05-2.85193E-05-3.28902E-07 5.16562E-19-5.75826E-19
 -1      1080 9.13739E-05-2.45364E-05-2.86450E-05-3.81949E-07-4.18180E-20-2.59074E-18
 -1      1081 9.23096E-05-2.53077E-05-2.87153E-05-3.77597E-07-1.36580E-18-2.40978E-18
 -1      1082 9.30708E-05-2.59854E-05-2.87494E-05-3.37877E-07-1.39513E-18-1.85108E-18
 -1      1083 9.36576E-05-2.65535E-05-2.87578E-05-2.86694E-07 2.10203E-19-3.06687E-18
 -1      1084 9.41000E-05-2.70166E-05-2.87503E-05-2.32334E-07 1.14166E-19-2.62220E-18
 -1      1085 9.44372E-05-2.73894E-05-2.87343E-05-1.76519E-07-1.06287E-19-2.53680E-18
 -1      1086 9.46881E-05-2.76881E-05-2.87143E-05-1.33412E-07-1.15192E-18-1.89254E-18
 -1      1087 9.48785E-05-2.79277E-05-2.86932E-05-9.79184E-08-1.57517E-18-1.87089E-18
 -1      1088 9.50156E-05-2.81127E-05-2.86727E-05-6.89085E-08-1.02901E-18-3.29425E-18
 -1      1089 9.51120E-05-2.82532E-05-2.86538E-05-4.62591E-08-6.70822E-19-4.13105E-18
 -1      1090 9.51779E-05-2.83579E-05-2.86371E-05-2.92187E-08 1.64671E-18-2.88079E-18
 -1      1091 9.52210E-05-2.84345E-05-2.86228E-05-1.68163E-08 8.64883E-19-1.20169E-18
 -1      1092 9.52476E-05-2.84891E-05-2.86108E-05-8.09098E-09 1.08492E-18-7.26404E-19
 -1      1093 9.52626E-05-2.85270E-05-2.86010E-05-2.18526E-09 1.29467E-18-1.95055E-18
 -1      1094 9.52695E-05-2.85524E-05-2.85930E-05 1.62120E-09-6.67183E-19-6.29598E-19
 -1      1095 9.52708E-05-2.85688E-05-2.85866E-05 3.93446E-09-1.99673E-18 2.13154E-18
 -1      1096 9.52699E-05-2.85754E-05-2.85834E-05 3.94619E-09-2.53757E-18 1.88783E-18
 -1      1097 8.64574E-05-2.24344E-05-2.74383E-05 5.45406E-06-1.80440E-19-1.90322E-19
 -1      1098 8.50113E-05-2.24856E-05-2.67989E-05 7.48551E-06-6.31824E-19 5.17884E-19
 -1      1099 9.02933E-05-2.38992E-05-2.84545E-05 2.18283E-06-2.39389E-18-6.44283E-19
 -1      1100 8.92046E-05-2.33100E-05-2.82372E-05 2.93390E-06-9.01196E-19 4.01019E-19
 -1      1101 9.21751E-05-2.52402E-05-2.86865E-05 1.18581E-06-3.59609E-19-4.44243E-19
 -1      1102 9.28965E-05-2.58537E-05-2.87333E-05 8.60094E-07-2.94849E-20 3.34997E-19
 -1      1103 9.35062E-05-2.64097E-05-2.87538E-05 6.26626E-07-7.20972E-19 9.90843E-19
 -1      1104 9.39641E-05-2.68759E-05-2.87521E-05 4.55617E-07-1.22249E-18 7.42695E-19
 -1      1105 9.43271E-05-2.72644E-05-2.87403E-05 3.29352E-07-7.61050E-19 6.92105E-19
 -1      1106 9.45955E-05-2.75774E-05-2.87221E-05 2.35417E-07-1.14731E-18-1.62523E-19
 -1      1107 9.48057E-05-2.78349E-05-2.87018E-05 1.61717E-07-5.03347E-19-5.73307E-19
 -1      1108 9.49612E-05-2.80384E-05-2.86812E-05 1.10141E-07-8.75865E-19 8.82467E-19
 -1      1109 9.50726E-05-2.81952E-05-2.86617E-05 7.23673E-08-7.89879E-19 1.62551E-18
 -1      1110 9.51502E-05-2.83139E-05-2.86441E-05 4.52141E-08-9.17533E-19 1.23108E-18
 -1      1111 9.52025E-05-2.84018E-05-2.86289E-05 2.60736E-08 4.80180E-19-1.10055E-18
 -1      1112 9.52359E-05-2.84655E-05-2.86159E-05 1.28930E-08 5.08833E-19-2.33500E-19
 -1      1113 9.52558E-05-2.85105E-05-2.86051E-05 4.08466E-09 9.55107E-19 4.90632E-19
 -1      1114 9.52661E-05-2.85413E-05-2.85964E-05-1.56566E-09 3.87192E-19-6.73844E-19
 -1      1115 9.52701E-05-2.85617E-05-2.85893E-05-5.07021E-09-3.75781E-19-2.55952E-18
 -1      1116 9.52694E-05-2.85743E-05-2.85836E-05-6.87128E-09-1.32869E-19-9.15207E-19
 -1      1117 7.46114E-05-1.96106E-05-2.35689E-05 1.11956E-05-5.58195E-19 7.69341E-19
 -1      1118 9.13086E-05-2.45788E-05-2.85986E-05 1.60455E-06-1.27762E-18-5.41565E-19
 -1      1119 8.78644E-05-2.27478E-05-2.79066E-05 3.97978E-06-1.57382E-19 7.22505E-19
 -1      1120 9.52682E-05-2.85803E-05-2.85805E-05-4.14125E-09-3.74845E-18-7.36871E-19
 -1      1121 9.52705E-05-2.85749E-05-2.85838E-05-1.58151E-09-1.79679E-18-1.18740E-18
 -1      1122 7.92766E-05-2.00072E-05-2.54067E-05 7.62884E-06-1.10400E-18 2.03406E-19
 -1      1123 8.55637E-05-2.12801E-05-2.75532E-05 2.67299E-06-4.05116E-20 1.71348E-19
 -1      1124 9.36233E-05-2.65422E-05-2.87501E-05 1.09602E-07-5.78850E-19 1.32284E-19
 -1      1125 8.82992E-05-2.25858E-05-2.81690E-05 1.56401E-06-2.89454E-19 8.48391E-19
 -1      1126 9.42583E-05-2.72020E-05-2.87393E-05 7.49914E-08-4.23711E-19-1.72628E-18
 -1      1127 8.27924E-05-2.04797E-05-2.67087E-05 4.59781E-06-6.54753E-19 2.06586E-19
 -1      1128 1.23351E-04 2.80751E-10-4.46100E-05-3.94728E-05-6.26804E-20 1.13746E-17
 -1      1129 9.58397E-05 8.83100E-11-3.99810E-05-1.90936E-05-1.07785E-19 5.01560E-18
 -1      1130 8.89779E-05 4.89397E-11-3.76945E-05-1.11582E-05-1.10114E-19 1.46890E-18
 -1      1131 8.41318E-05 3.08554E-11-3.58309E-05-6.65939E-06-8.75620E-20-6.30298E-19
 -1      1132 8.01330E-05 1.85825E-11-3.42501E-05-3.94480E-06-6.50098E-20-1.94841E-18
 -1      1133 7.69724E-05 9.86045E-12-3.29923E-05-2.48368E-06-5.10337E-20-2.76243E-18
 -1      1134 7.47807E-05 4.40998E-12-3.21125E-05-1.86668E-06-4.62162E-20-3.23196E-18
 -1      1135 7.36725E-05 2.47251E-12-3.16575E-05-1.67938E-06-3.38548E-20-3.54940E-18
 -1      1136 7.36912E-05 3.90791E-12-3.16451E-05-1.51550E-06-2.59271E-20-3.70317E-18
 -1      1137 7.47218E-05 8.07132E-12-3.20341E-05-1.00669E-06-7.72918E-21-3.79506E-18
 -1      1138 7.65540E-05 1.40310E-11-3.27473E-05 1.17557E-07 6.40569E-21-3.79757E-18
 -1      1139 7.89303E-05 2.08587E-11-3.36870E-05 1.99516E-06 1.21232E-20-3.69490E-18
 -1      1140 8.16792E-05 2.84094E-11-3.47905E-05 4.71921E-06 3.21873E-20-3.42112E-18
 -1      1141 8.47942E-05 3.73488E-11-3.60511E-05 8.41642E-06 5.75982E-20-2.90291E-18
 -1      1142 8.85417E-05 5.06777E-11-3.75442E-05 1.33676E-05 8.13152E-20-1.72310E-18
 -1      1143 9.42174E-05 8.02027E-11-3.95820E-05 2.07204E-05 1.19008E-19 8.98120E-19
 -1      1144 1.12440E-04 1.82094E-10-4.29726E-05 3.49158E-05 3.10014E-19 6.93244E-18
 -1      1145 1.37723E-04-2.80750E-05-4.31852E-05-2.48833E-05-5.35537E-19 1.56286E-17
 -1      1146 1.10623E-04-3.28494E-05-3.56171E-05-1.02325E-07-1.71895E-19 1.44981E-17
 -1      1147 1.08420E-04-3.25379E-05-3.33389E-05 5.76774E-07-4.11870E-20 1.24727E-17
 -1      1148 1.11109E-04-3.34430E-05-3.35018E-05 4.24169E-07-2.84815E-20 1.10883E-17
 -1      1149 1.15434E-04-3.47012E-05-3.46291E-05 3.67323E-07-3.55125E-20 1.00624E-17
 -1      1150 1.20225E-04-3.60805E-05-3.59434E-05 3.18133E-07-1.45145E-19 9.56062E-18
 -1      1151 1.24052E-04-3.71719E-05-3.69114E-05 1.91587E-07 7.59021E-21 9.14168E-18
 -1      1152 1.24996E-04-3.74046E-05-3.69929E-05-9.07086E-08 5.68439E-21 9.35270E-18
 -1      1153 1.21036E-04-3.61866E-05-3.57219E-05-5.49937E-07 5.39520E-20 9.14277E-18
 -1      1154 1.11334E-04-3.33010E-05-3.30413E-05-1.03967E-06-8.28504E-21 7.90599E-18
 -1      1155 9.80603E-05-2.94273E-05-2.96506E-05-1.21002E-06 8.12953E-20 6.73614E-18
 -1      1156 8.68739E-05-2.62205E-05-2.69451E-05-7.44073E-07 3.39872E-20 6.66287E-18
 -1      1157 8.40179E-05-2.54136E-05-2.62897E-05 2.12020E-07-7.00126E-20 6.02757E-18
 -1      1158 9.14284E-05-2.75302E-05-2.80884E-05 1.03723E-06-1.10908E-20 4.15067E-18
 -1      1159 1.05011E-04-3.14566E-05-3.14777E-05 1.24590E-06 5.19957E-20 3.76548E-18
 -1      1160 1.18163E-04-3.53221E-05-3.49552E-05 9.07948E-07-1.32554E-19 3.01046E-18
 -1      1161 1.26395E-04-3.77883E-05-3.73341E-05 4.03666E-07-2.20533E-19 2.17206E-18
 -1      1162 1.28850E-04-3.85584E-05-3.82203E-05 1.85177E-08 1.62127E-21 1.69952E-18
 -1      1163 1.26981E-04-3.80384E-05-3.78657E-05-1.77738E-07 5.26682E-20 1.09148E-18
 -1      1164 1.22779E-04-3.68116E-05-3.67645E-05-2.32911E-07-7.56473E-20 2.40166E-18
 -1      1165 1.17809E-04-3.53451E-05-3.53651E-05-2.14568E-07-1.63930E-19 2.82284E-18
 -1      1166 1.13010E-04-3.39202E-05-3.39648E-05-1.70412E-07 6.02642E-20 3.37146E-18
 -1      1167 1.08818E-04-3.26700E-05-3.27166E-05-1.24632E-07 2.45127E-19 4.41811E-18
 -1      1168 1.05367E-04-3.16366E-05-3.16760E-05-8.63601E-08-2.80595E-19 2.89182E-18
 -1      1169 1.02631E-04-3.08145E-05-3.08448E-05-5.73726E-08 9.24118E-20 2.69924E-18
 -1      1170 1.00519E-04-3.01781E-05-3.02002E-05-3.65884E-08-1.32839E-19 3.37850E-18
 -1      1171 9.89218E-05-2.96957E-05-2.97113E-05-2.21969E-08 1.47552E-19 4.30798E-18
 -1      1172 9.77364E-05-2.93367E-05-2.93474E-05-1.24904E-08-2.59972E-19 1.65789E-18
 -1      1173 9.68715E-05-2.90741E-05-2.90813E-05-6.10434E-09-2.71026E-21 1.33989E-18
 -1      1174 9.62522E-05-2.88856E-05-2.88904E-05-2.02561E-09 3.90640E-20 3.06471E-18
 -1      1175 9.58182E-05-2.87532E-05-2.87562E-05 4.72168E-10-1.34430E-19 2.42490E-18
 -1      1176 9.55221E-05-2.86625E-05-2.86643E-05 1.90108E-09 2.52559E-19 1.25663E-18
 -1      1177 9.53269E-05-2.86025E-05-2.86035E-05 2.61959E-09 3.77709E-20 8.48390E-19
 -1      1178 9.52044E-05-2.85646E-05-2.85651E-05 2.87776E-09 1.54344E-20 7.44234E-19
 -1      1179 9.51332E-05-2.85424E-05-2.85425E-05 2.84905E-09 3.25575E-19 2.48238E-18
 -1      1180 9.50973E-05-2.85309E-05-2.85308E-05 2.65268E-09 1.49093E-20 2.00166E-18
 -1      1181 9.50850E-05-2.85267E-05-2.85264E-05 2.36930E-09-4.46214E-20-2.28242E-19
 -1      1182 9.50876E-05-2.85271E-05-2.85268E-05 2.05230E-09 5.56370E-20 1.77210E-18
 -1      1183 9.50992E-05-2.85303E-05-2.85300E-05 1.73592E-09-9.64234E-21 1.90736E-18
 -1      1184 9.51157E-05-2.85350E-05-2.85347E-05 1.44102E-09-6.56487E-20 1.29839E-18
 -1      1185 9.51341E-05-2.85404E-05-2.85401E-05 1.17920E-09-1.29745E-19 1.18511E-18
 -1      1186 9.51527E-05-2.85459E-05-2.85457E-05 9.55733E-10-3.42162E-20 1.32414E-18
 -1      1187 9.51705E-05-2.85512E-05-2.85510E-05 7.71525E-10-5.36887E-19 3.46933E-19
 -1      1188 9.51868E-05-2.85560E-05-2.85559E-05 6.24231E-10-1.14105E-19-8.60027E-19
 -1      1189 9.52013E-05-2.85603E-05-2.85602E-05 5.08313E-10 1.58310E-19-2.27477E-18
 -1      1190 9.52139E-05-2.85641E-05-2.85640E-05 4.13798E-10 4.80745E-19 2.02106E-18
 -1      1191 9.52242E-05-2.85672E-05-2.85670E-05 3.21275E-10-5.58777E-20 4.25400E-18
 -1      1192 9.52321E-05-2.85695E-05-2.85693E-05 1.86813E-10 9.61620E-20 3.22233E-18
 -1      1193 9.52366E-05-2.85708E-05-2.85707E-05-7.67661E-11-1.57430E-19 2.36157E-18
 -1      1194 9.52377E-05-2.85713E-05-2.85715E-05-1.88779E-10 4.40211E-19 2.42501E-18
 -1      1195 1.37253E-04-3.93286E-05-4.10851E-05 1.20817E-05-1.24673E-19 1.21693E-17
 -1      1196 1.06655E-04-3.12052E-05-3.43896E-05 6.16792E-07 1.41587E-19 8.88315E-18
 -1      1197 1.03292E-04-3.08075E-05-3.16887E-05 1.24159E-09 9.47420E-20 5.83052E-18
 -1      1198 1.03301E-04-3.09741E-05-3.10988E-05-9.72152E-08 1.03480E-19 3.70116E-18
 -1      1199 1.04173E-04-3.12477E-05-3.11923E-05-1.35358E-07 4.73367E-20 2.43443E-18
 -1      1200 1.04746E-04-3.14037E-05-3.12926E-05-1.41073E-07 3.56515E-20 1.14736E-18
 -1      1201 1.04203E-04-3.12341E-05-3.10786E-05-1.09376E-07-1.42871E-20 6.30983E-19
 -1      1202 1.01975E-04-3.05780E-05-3.03902E-05-2.75481E-08 4.47670E-20 1.21893E-19
 -1      1203 9.79114E-05-2.93882E-05-2.92124E-05 1.02555E-07-6.10244E-20-7.81811E-19
 -1      1204 9.25242E-05-2.78047E-05-2.77144E-05 2.48223E-07 1.89834E-20-8.41263E-19
 -1      1205 8.70698E-05-2.61845E-05-2.62483E-05 3.46885E-07 7.94921E-20-1.59099E-18
 -1      1206 8.32444E-05-2.50235E-05-2.52539E-05 3.36922E-07 1.55553E-19-2.90733E-18
 -1      1207 8.24713E-05-2.47566E-05-2.50816E-05 2.04010E-07 7.20044E-20-4.43066E-18
 -1      1208 8.51621E-05-2.55306E-05-2.58247E-05 3.53692E-10-1.71719E-19-4.59415E-18
 -1      1209 9.04845E-05-2.71139E-05-2.72727E-05-1.87163E-07 8.06451E-20-5.28718E-18
 -1      1210 9.68181E-05-2.90205E-05-2.90157E-05-2.92284E-07 6.53278E-20-5.75654E-18
 -1      1211 1.02540E-04-3.07515E-05-3.06268E-05-3.01073E-07-2.03151E-19-4.28466E-18
 -1      1212 1.06615E-04-3.19856E-05-3.18132E-05-2.42283E-07 4.43700E-21-3.37971E-18
 -1      1213 1.08740E-04-3.26280E-05-3.24673E-05-1.57088E-07 1.32218E-19-4.96969E-18
 -1      1214 1.09149E-04-3.27506E-05-3.26318E-05-7.68061E-08 9.67173E-20-6.18443E-18
 -1      1215 1.08325E-04-3.25015E-05-3.24299E-05-1.64351E-08 1.00789E-19-6.68784E-18
 -1      1216 1.06775E-04-3.20349E-05-3.20023E-05 2.15246E-08-1.55021E-19-4.88410E-18
 -1      1217 1.04916E-04-3.14760E-05-3.14701E-05 4.09330E-08 2.46156E-19-5.74237E-18
 -1      1218 1.03034E-04-3.09110E-05-3.09206E-05 4.74401E-08-6.41909E-20-6.53033E-18
 -1      1219 1.01301E-04-3.03913E-05-3.04082E-05 4.61437E-08-1.30192E-19-3.99854E-18
 -1      1220 9.98031E-05-2.99420E-05-2.99611E-05 4.08173E-08 1.42758E-19-3.02821E-18
 -1      1221 9.85656E-05-2.95710E-05-2.95892E-05 3.39269E-08-3.12238E-20-3.68097E-18
 -1      1222 9.75803E-05-2.92755E-05-2.92915E-05 2.69224E-08 2.09916E-19-5.02614E-18
 -1      1223 9.68204E-05-2.90476E-05-2.90608E-05 2.05592E-08-2.44772E-19-3.67073E-18
 -1      1224 9.62516E-05-2.88769E-05-2.88874E-05 1.51569E-08 2.48706E-20-2.25812E-18
 -1      1225 9.58382E-05-2.87528E-05-2.87608E-05 1.07834E-08 1.43780E-19-3.54561E-18
 -1      1226 9.55475E-05-2.86654E-05-2.86714E-05 7.37295E-09-9.27689E-20-2.76635E-18
 -1      1227 9.53507E-05-2.86062E-05-2.86105E-05 4.79894E-09-4.86034E-20-2.73947E-18
 -1      1228 9.52240E-05-2.85681E-05-2.85710E-05 2.91572E-09 2.57171E-20-4.01941E-18
 -1      1229 9.51482E-05-2.85451E-05-2.85471E-05 1.58167E-09 3.43427E-19-6.67223E-18
 -1      1230 9.51082E-05-2.85330E-05-2.85343E-05 6.70619E-10-3.33690E-19-6.08074E-18
 -1      1231 9.50926E-05-2.85282E-05-2.85289E-05 7.62308E-11 3.98680E-19-6.97541E-18
 -1      1232 9.50927E-05-2.85282E-05-2.85285E-05-2.87734E-10 2.60359E-19-6.73231E-18
 -1      1233 9.51026E-05-2.85310E-05-2.85312E-05-4.89193E-10-2.63560E-19-7.18853E-18
 -1      1234 9.51178E-05-2.85355E-05-2.85355E-05-5.80375E-10 2.85222E-19-8.23332E-18
 -1      1235 9.51354E-05-2.85408E-05-2.85407E-05-6.00635E-10 2.27173E-19-6.41736E-18
 -1      1236 9.51535E-05-2.85462E-05-2.85460E-05-5.79116E-10-5.36291E-19-1.80424E-18
 -1      1237 9.51710E-05-2.85514E-05-2.85512E-05-5.37136E-10 4.48731E-19-4.08899E-18
 -1      1238 9.51871E-05-2.85562E-05-2.85560E-05-4.90070E-10-2.37968E-20-6.38859E-18
 -1      1239 9.52015E-05-2.85604E-05-2.85603E-05-4.48446E-10-2.07391E-19-6.93318E-18
 -1      1240 9.52139E-05-2.85642E-05-2.85640E-05-4.18225E-10 5.13909E-19-7.21713E-18
 -1      1241 9.52243E-05-2.85672E-05-2.85671E-05-3.97860E-10-4.62358E-19-3.89961E-18
 -1      1242 9.52320E-05-2.85696E-05-2.85693E-05-3.57655E-10 1.49353E-19-3.91957E-18
 -1      1243 9.52366E-05-2.85709E-05-2.85707E-05-1.92217E-10 5.58699E-19-6.35813E-18
 -1      1244 9.52376E-05-2.85713E-05-2.85715E-05 1.65219E-10-1.07323E-19-4.29533E-18
 -1      1245 9.52370E-05-2.85707E-05-2.85715E-05 1.51194E-10-4.23867E-18-5.29966E-19
 -1      1246 9.52374E-05-2.85718E-05-2.85707E-05 6.14021E-11 1.59282E-18 9.64265E-19
 -1      1247 9.52387E-05-2.85762E-05-2.85694E-05-2.41071E-10 8.83021E-18 3.85502E-19
 -1      1248 9.52407E-05-2.85831E-05-2.85675E-05-3.50518E-10 7.80673E-18-2.42190E-19
 -1      1249 9.52430E-05-2.85909E-05-2.85653E-05-3.57683E-10 1.98910E-18-1.24735E-19
 -1      1250 9.52452E-05-2.85982E-05-2.85632E-05-3.04300E-10-4.77097E-18-1.67576E-18
 -1      1251 9.52469E-05-2.86041E-05-2.85615E-05-2.22500E-10-4.42550E-18-3.93563E-19
 -1      1252 9.52481E-05-2.86079E-05-2.85603E-05-1.15505E-10 1.78834E-18 9.10182E-19
 -1      1253 9.52485E-05-2.86092E-05-2.85600E-05 5.41100E-13 2.78013E-18-6.04479E-19
 -1      1254 9.52481E-05-2.86079E-05-2.85604E-05 1.16794E-10 3.80367E-18 3.24103E-19
 -1      1255 9.52469E-05-2.86040E-05-2.85615E-05 2.23887E-10 5.41396E-18-4.73065E-19
 -1      1256 9.52452E-05-2.85981E-05-2.85632E-05 3.10435E-10-3.10311E-18 1.09508E-19
 -1      1257 9.52430E-05-2.85908E-05-2.85653E-05 3.59018E-10-5.10811E-18-2.18162E-20
 -1      1258 9.52407E-05-2.85830E-05-2.85675E-05 3.56306E-10-2.84792E-18 4.12779E-19
 -1      1259 9.52387E-05-2.85761E-05-2.85694E-05 2.88440E-10-8.44847E-19-5.29404E-19
 -1      1260 9.52375E-05-2.85719E-05-2.85707E-05-1.70273E-10-2.75747E-18-1.11212E-18
 -1      1261 9.52370E-05-2.85706E-05-2.85715E-05-1.66989E-10-1.94485E-18 7.10013E-19
 -1      1262 3.37687E-05-1.06399E-04 1.80236E-05-1.40294E-05 2.69695E-18 8.93937E-19
 -1      1263 1.62220E-05-6.14866E-05 8.79222E-06-2.24853E-05 9.78154E-18 4.31182E-18
 -1      1264 8.04443E-06-7.32065E-06-6.72473E-06 2.06581E-06 1.55041E-17 1.03228E-17
 -1      1265 3.38231E-05 2.52618E-05-2.60396E-05 5.33718E-05 1.65239E-17 1.54219E-17
 -1      1266 1.05617E-04 1.46258E-05-4.61587E-05 1.00766E-04 1.21913E-17 1.69762E-17
 -1      1267 2.06519E-04-3.22857E-05-6.42783E-05 1.07441E-04 6.25873E-18 1.41565E-17
 -1      1268 2.90725E-04-8.13296E-05-7.56186E-05 6.15637E-05 1.50317E-18 6.72332E-18
 -1      1269 3.09010E-04-9.22297E-05-7.80370E-05-1.75617E-05 6.09493E-19-6.36969E-19
 -1      1270 2.59218E-04-6.15736E-05-7.16585E-05-8.73468E-05 3.29496E-18-9.46983E-18
 -1      1271 1.65618E-04-1.08935E-05-5.75509E-05-1.12302E-04 8.54148E-18-1.56108E-17
 -1      1272 7.43369E-05 2.31765E-05-3.88670E-05-8.62642E-05 1.36499E-17-1.66798E-17
 -1      1273 1.85877E-05 1.37505E-05-1.71102E-05-2.90241E-05 1.72795E-17-1.34831E-17
 -1      1274 9.97483E-06-3.47788E-05 1.72723E-06 1.59399E-05 1.72083E-17-8.51353E-18
 -1      1275 2.49372E-05-8.57336E-05 1.40395E-05 2.20292E-05 1.20092E-17-3.52821E-18
 -1      1276 3.76022E-05-1.14432E-04 1.91961E-05 1.88300E-06 3.62700E-18-8.22840E-19
 -1      1277 2.91531E-05-9.63984E-05 1.60625E-05-2.26682E-05-4.10811E-18-1.39379E-18
 -1      1278 1.18301E-05-4.80856E-05 5.42454E-06-2.33010E-05-1.11554E-17-5.23043E-18
 -1      1279 9.56521E-06 2.49880E-06-1.08525E-05 1.00295E-05-1.50450E-17-1.10741E-17
 -1      1280 4.71113E-05 2.51794E-05-3.08131E-05 6.46568E-05-1.52805E-17-1.60987E-17
 -1      1281 1.33571E-04 3.21043E-06-5.17071E-05 1.07459E-04-1.10106E-17-1.74997E-17
 -1      1282 2.41928E-04-5.00520E-05-6.95847E-05 1.01156E-04-5.18172E-18-1.39659E-17
 -1      1283 3.13389E-04-9.20277E-05-7.90373E-05 4.04066E-05-1.02793E-18-7.58264E-18
 -1      1284 3.13906E-04-9.28333E-05-7.89510E-05-3.92887E-05-2.17237E-19-7.33107E-19
 -1      1285 2.47799E-04-5.41430E-05-7.03992E-05-9.78826E-05-3.50481E-18 8.81761E-18
 -1      1286 1.52768E-04-5.66562E-06-5.53134E-05-1.11385E-04-9.26400E-18 1.59141E-17
 -1      1287 6.68481E-05 2.29452E-05-3.66994E-05-7.93078E-05-1.62359E-17 1.88346E-17
 -1      1288 1.71843E-05 1.42513E-05-1.73201E-05-2.76111E-05-1.95207E-17 1.57963E-17
 -1      1289 7.38210E-06-2.67667E-05-1.69257E-07 1.40858E-05-1.97969E-17 1.04397E-17
 -1      1290 2.12997E-05-7.79576E-05 1.25376E-05 2.80942E-05-1.60606E-17 5.36130E-18
 -1      1291 3.57208E-05-1.11339E-04 1.89545E-05 1.28638E-05-5.86147E-18 1.36020E-18
 -1      1292 1.14041E-04-2.44230E-05-4.09361E-05-1.48492E-05-1.96512E-19 1.05049E-17
 -1      1293 9.81646E-05-8.28561E-06-3.86423E-05-1.47824E-05-1.01496E-18 3.39856E-18
 -1      1294 1.01689E-04-8.62704E-06-4.00996E-05-2.08727E-05-1.08801E-18 5.23435E-18
 -1      1295 9.05211E-05-4.80960E-06-3.68072E-05-9.61240E-06-1.21856E-18 5.98746E-19
 -1      1296 9.33953E-05-4.90283E-06-3.78050E-05-1.24647E-05-1.30655E-18 1.91387E-18
 -1      1297 9.98336E-05-1.23997E-05-3.75104E-05-1.29759E-05-1.84669E-18 3.00215E-18
 -1      1298 8.49040E-05-3.04207E-06-3.51453E-05-5.90676E-06-1.17039E-18-1.11626E-18
 -1      1299 8.73073E-05-3.07742E-06-3.60021E-05-7.65496E-06-1.26351E-18-2.82300E-19
 -1      1300 9.16231E-05-7.85011E-06-3.59654E-05-8.69468E-06-1.94452E-18 6.35778E-19
 -1      1301 8.03188E-05-1.81832E-06-3.37073E-05-3.60301E-06-1.01141E-18-2.26600E-18
 -1      1302 8.23051E-05-1.84855E-06-3.44235E-05-4.64723E-06-1.07573E-18-1.69568E-18
 -1      1303 8.53321E-05-4.99988E-06-3.44930E-05-5.45934E-06-1.79241E-18-8.62015E-19
 -1      1304 7.68332E-05-9.48088E-07-3.25873E-05-2.39564E-06-8.62544E-19-2.94337E-18
 -1      1305 7.83073E-05-9.70317E-07-3.31236E-05-2.93263E-06-9.36183E-19-2.60071E-18
 -1      1306 8.03651E-05-2.99138E-06-3.32161E-05-3.46397E-06-1.57523E-18-1.84607E-18
 -1      1307 7.45324E-05-4.04443E-07-3.18275E-05-1.88899E-06-7.06902E-19-3.37152E-18
 -1      1308 7.54391E-05-4.16178E-07-3.21663E-05-2.12249E-06-7.85544E-19-3.17324E-18
 -1      1309 7.67072E-05-1.62506E-06-3.22269E-05-2.42689E-06-1.34921E-18-2.51684E-18
 -1      1310 7.36157E-05-2.17609E-07-3.14961E-05-1.70738E-06-5.24873E-19-3.62993E-18
 -1      1311 7.38817E-05-2.15532E-07-3.16106E-05-1.83095E-06-5.87325E-19-3.48115E-18
 -1      1312 7.45333E-05-9.10052E-07-3.15984E-05-1.98449E-06-1.06053E-18-2.81769E-18
 -1      1313 7.40504E-05-3.71155E-07-3.15898E-05-1.44243E-06-3.63192E-19-3.79215E-18
 -1      1314 7.37097E-05-3.56816E-07-3.14888E-05-1.65007E-06-4.18449E-19-3.71194E-18
 -1      1315 7.39684E-05-8.60194E-07-3.13775E-05-1.74783E-06-7.63333E-19-3.06507E-18
 -1      1316 7.56377E-05-7.97857E-07-3.20578E-05-7.48364E-07-1.88597E-19-3.82250E-18
 -1      1317 7.47954E-05-7.75759E-07-3.17732E-05-1.19666E-06-2.64407E-19-3.79373E-18
 -1      1318 7.49066E-05-1.39764E-06-3.15516E-05-1.32359E-06-5.41056E-19-3.15906E-18
 -1      1319 7.80769E-05-1.40252E-06-3.28179E-05 6.10479E-07-1.78936E-20-3.81643E-18
 -1      1320 7.68741E-05-1.37730E-06-3.23942E-05-1.80839E-07-6.70480E-20-3.82811E-18
 -1      1321 7.70662E-05-2.37011E-06-3.20644E-05-3.98258E-07-2.23551E-19-3.19034E-18
 -1      1322 8.10154E-05-2.08446E-06-3.37647E-05 2.71204E-06 1.78142E-19-3.66662E-18
 -1      1323 7.96085E-05-2.06649E-06-3.32549E-05 1.55050E-06 1.27690E-19-3.74775E-18
 -1      1324 8.00609E-05-3.59806E-06-3.28259E-05 1.20251E-06 1.00446E-19-3.14387E-18
 -1      1325 8.43706E-05-2.83549E-06-3.48667E-05 5.68581E-06 5.02238E-19-3.39083E-18
 -1      1326 8.27792E-05-2.82479E-06-3.42782E-05 4.07430E-06 3.79259E-19-3.54700E-18
 -1      1327 8.36035E-05-4.98514E-06-3.37567E-05 3.56769E-06 4.81247E-19-2.93767E-18
 -1      1328 8.81334E-05-3.71239E-06-3.60971E-05 9.59149E-06 7.74400E-19-2.79907E-18
 -1      1329 8.63422E-05-3.71517E-06-3.54291E-05 7.47089E-06 6.51157E-19-3.16234E-18
 -1      1330 8.76256E-05-6.58922E-06-3.48017E-05 6.75537E-06 9.33721E-19-2.58417E-18
 -1      1331 9.28159E-05-5.00848E-06-3.75378E-05 1.47297E-05 1.04217E-18-1.44866E-18
 -1      1332 9.05508E-05-5.01215E-06-3.67119E-05 1.18258E-05 8.75409E-19-2.26727E-18
 -1      1333 9.23701E-05-8.72828E-06-3.59224E-05 1.07971E-05 1.35562E-18-1.85373E-18
 -1      1334 1.00537E-04-8.22458E-06-3.94557E-05 2.21261E-05 1.07711E-18 1.34890E-18
 -1      1335 9.66471E-05-7.73578E-06-3.82285E-05 1.73749E-05 9.95052E-19-4.10229E-19
 -1      1336 9.90073E-05-1.25376E-05-3.71042E-05 1.56508E-05 1.71519E-18-2.62845E-19
 -1      1337 1.30683E-04-2.67259E-05-4.13891E-05 2.71013E-05 6.16216E-19 7.42763E-18
 -1      1338 1.07556E-04-1.61987E-05-3.97703E-05 2.17504E-05 5.93347E-19 3.13074E-18
 -1      1339 1.09814E-04-2.17667E-05-3.77977E-05 1.82945E-05 1.78572E-18 2.35094E-18
 -1      1340 1.11193E-04-3.04885E-05-3.73245E-05 5.68905E-06 1.03079E-18 6.94885E-18
 -1      1341 1.16964E-04-3.39115E-05-3.70033E-05-5.29428E-06-7.37977E-19 1.05429E-17
 -1      1342 1.12307E-04-3.21956E-05-3.48587E-05-2.66802E-06-7.13996E-19 9.79173E-18
 -1      1343 1.10845E-04-3.24596E-05-3.38358E-05-1.50836E-07-4.86144E-19 9.27076E-18
 -1      1344 1.10856E-04-3.28423E-05-3.34684E-05 2.64744E-07-5.51551E-19 8.56242E-18
 -1      1345 1.12771E-04-3.21572E-05-3.49148E-05-3.41889E-06-1.22190E-18 6.28522E-18
 -1      1346 1.10777E-04-3.29297E-05-3.33529E-05 1.51688E-06-4.01990E-19 8.22273E-18
 -1      1347 1.12314E-04-3.35310E-05-3.37188E-05 1.65372E-06-3.84480E-19 7.64458E-18
 -1      1348 1.10908E-04-3.26277E-05-3.36848E-05 1.41075E-06-9.10984E-19 5.55939E-18
 -1      1349 1.13251E-04-3.38552E-05-3.39910E-05 2.20611E-06-2.15093E-19 7.34735E-18
 -1      1350 1.15401E-04-3.46081E-05-3.45943E-05 2.26230E-06-3.35984E-19 6.99946E-18
 -1      1351 1.11940E-04-3.33313E-05-3.37284E-05 3.55806E-06-6.76065E-19 5.04047E-18
 -1      1352 1.16765E-04-3.50778E-05-3.49825E-05 2.26178E-06-9.87124E-20 6.98532E-18
 -1      1353 1.18837E-04-3.58244E-05-3.55530E-05 2.19071E-06-1.82843E-19 6.81311E-18
 -1      1354 1.14288E-04-3.43404E-05-3.42708E-05 4.26400E-06-4.04805E-19 4.72664E-18
 -1      1355 1.20119E-04-3.63221E-05-3.58751E-05 1.52300E-06-1.06289E-19 6.92812E-18
 -1      1356 1.21299E-04-3.68118E-05-3.61693E-05 1.26094E-06-4.91809E-20 6.81045E-18
 -1      1357 1.17033E-04-3.55577E-05-3.48874E-05 3.53437E-06-2.03817E-19 4.95569E-18
 -1      1358 1.21945E-04-3.71654E-05-3.62589E-05-1.97652E-07-7.92108E-20 6.93677E-18
 -1      1359 1.21281E-04-3.70510E-05-3.60280E-05-6.89267E-07-7.60741E-20 6.84178E-18
 -1      1360 1.19163E-04-3.66808E-05-3.52637E-05 1.05961E-06-2.36772E-20 4.93096E-18
 -1      1361 1.20724E-04-3.70179E-05-3.57602E-05-2.77588E-06 1.24673E-20 6.87886E-18
 -1      1362 1.17501E-04-3.59675E-05-3.48563E-05-3.40935E-06-1.55325E-19 6.66176E-18
 -1      1363 1.19534E-04-3.71720E-05-3.51570E-05-3.17095E-06-1.43638E-19 4.92978E-18
 -1      1364 1.15425E-04-3.53059E-05-3.42320E-05-5.34966E-06-2.50239E-19 6.51839E-18
 -1      1365 1.09904E-04-3.33008E-05-3.27889E-05-5.80945E-06-5.74950E-19 5.96375E-18
 -1      1366 1.17143E-04-3.63319E-05-3.44852E-05-8.11414E-06-3.48448E-19 4.90075E-18
 -1      1367 1.06714E-04-3.20339E-05-3.20038E-05-6.26828E-06-4.67013E-19 5.82430E-18
 -1      1368 1.00752E-04-2.97171E-05-3.05275E-05-6.11089E-06-3.14540E-19 5.33821E-18
 -1      1369 1.11917E-04-3.37999E-05-3.34322E-05-1.12288E-05-7.75766E-19 4.96573E-18
 -1      1370 9.78803E-05-2.84317E-05-2.99198E-05-4.10690E-06 1.26526E-20 4.70024E-18
 -1      1371 9.44194E-05-2.70242E-05-2.90989E-05-3.18430E-06-9.98440E-20 4.76676E-18
 -1      1372 1.05670E-04-3.04000E-05-3.24229E-05-9.52274E-06-5.56262E-19 3.92094E-18
 -1      1373 9.36838E-05-2.66609E-05-2.89657E-05 5.95507E-07-6.49621E-19 4.51414E-18
 -1      1374 9.48064E-05-2.70982E-05-2.92425E-05 1.76661E-06-8.73741E-19 3.66442E-18
 -1      1375 1.01866E-04-2.81855E-05-3.19060E-05-2.40737E-06-7.52986E-19 2.75002E-18
 -1      1376 9.68028E-05-2.79882E-05-2.96662E-05 5.07055E-06-6.40238E-19 3.29242E-18
 -1      1377 1.01953E-04-3.00157E-05-3.09272E-05 5.72172E-06-3.91422E-19 2.78833E-18
 -1      1378 1.03173E-04-2.88655E-05-3.21312E-05 6.39891E-06-1.11761E-18 1.87369E-18
 -1      1379 1.05426E-04-3.14750E-05-3.17269E-05 6.73634E-06-2.43291E-19 2.11504E-18
 -1      1380 1.11911E-04-3.39140E-05-3.33776E-05 6.60852E-06-3.10567E-19 1.71863E-18
 -1      1381 1.08855E-04-3.19559E-05-3.30330E-05 1.16250E-05-1.01197E-18 8.81338E-19
 -1      1382 1.15020E-04-3.50528E-05-3.42087E-05 5.38589E-06-4.77091E-19 1.66474E-18
 -1      1383 1.20128E-04-3.68349E-05-3.55843E-05 4.79898E-06-4.82187E-19 1.03439E-18
 -1      1384 1.15540E-04-3.53714E-05-3.42580E-05 1.11587E-05-6.59620E-19 1.63901E-19
 -1      1385 1.21796E-04-3.72852E-05-3.61402E-05 2.61909E-06-2.55208E-19 1.09003E-18
 -1      1386 1.24292E-04-3.80450E-05-3.68675E-05 2.00689E-06-3.11827E-19 5.77253E-19
 -1      1387 1.20166E-04-3.73928E-05-3.53166E-05 6.86803E-06-4.52210E-19-1.09175E-19
 -1      1388 1.24432E-04-3.79268E-05-3.70238E-05 4.17359E-08-4.80810E-19 8.35360E-19
 -1      1389 1.24509E-04-3.78448E-05-3.70930E-05-3.76685E-07 1.67421E-21 6.62095E-19
 -1      1390 1.21680E-04-3.77309E-05-3.58499E-05 1.83989E-06-3.58427E-19 7.09043E-20
 -1      1391 1.23538E-04-3.74064E-05-3.68966E-05-1.63510E-06 1.64774E-19 1.85884E-20
 -1      1392 1.22033E-04-3.68333E-05-3.65040E-05-1.83943E-06-1.06885E-19 3.70048E-19
 -1      1393 1.20574E-04-3.69576E-05-3.57639E-05-1.97955E-06-2.63626E-19-4.63903E-19
 -1      1394 1.20454E-04-3.62694E-05-3.60820E-05-2.40908E-06 3.36026E-19 6.10578E-19
 -1      1395 1.18215E-04-3.55033E-05-3.54572E-05-2.46085E-06 9.63351E-20 8.53703E-19
 -1      1396 1.17854E-04-3.57093E-05-3.51809E-05-4.10165E-06 2.17244E-19-8.69393E-19
 -1      1397 1.16431E-04-3.49300E-05-3.49378E-05-2.55505E-06 2.45357E-19 1.45355E-18
 -1      1398 1.14051E-04-3.41557E-05-3.42554E-05-2.52288E-06 7.10995E-20 1.50772E-18
 -1      1399 1.14432E-04-3.43877E-05-3.43092E-05-4.84308E-06 4.27406E-19-2.40789E-19
 -1      1400 1.12319E-04-3.36305E-05-3.37309E-05-2.35688E-06-1.73713E-19 2.18366E-18
 -1      1401 1.10126E-04-3.29387E-05-3.30927E-05-2.28901E-06 3.04568E-19 2.70189E-18
 -1      1402 1.10929E-04-3.31798E-05-3.33395E-05-4.72523E-06 1.56083E-19 8.80626E-19
 -1      1403 1.08578E-04-3.24851E-05-3.26151E-05-2.01398E-06 4.57969E-19 2.46521E-18
 -1      1404 1.06709E-04-3.19076E-05-3.20665E-05-1.93783E-06 1.37438E-19 2.57183E-18
 -1      1405 1.07700E-04-3.21481E-05-3.24021E-05-4.18125E-06 2.96971E-19 1.19745E-18
 -1      1406 1.05399E-04-3.15307E-05-3.16584E-05-1.64140E-06-6.38648E-19 2.61142E-18
 -1      1407 1.03882E-04-3.10686E-05-3.12107E-05-1.57019E-06-3.25944E-19 1.72924E-18
 -1      1408 1.04904E-04-3.12995E-05-3.15673E-05-3.49008E-06-3.21135E-19 1.49936E-18
 -1      1409 1.02812E-04-3.07641E-05-3.08762E-05-1.29562E-06 3.42560E-19 1.60897E-18
 -1      1410 1.01620E-04-3.04048E-05-3.05232E-05-1.23447E-06 6.35754E-20 1.73585E-18
 -1      1411 1.02584E-04-3.06184E-05-3.08623E-05-2.80365E-06-8.40813E-20 2.02372E-18
 -1      1412 1.00770E-04-3.01642E-05-3.02570E-05-9.98806E-07-1.89914E-19 1.69662E-18
 -1      1413 9.98555E-05-2.98909E-05-2.99855E-05-9.48738E-07-4.13590E-23 2.08701E-18
 -1      1414 1.00715E-04-3.00817E-05-3.02881E-05-2.19161E-06-1.85189E-19 1.09560E-18
 -1      1415 9.91943E-05-2.97043E-05-2.97785E-05-7.55322E-07 3.25744E-20 1.88074E-18
 -1      1416 9.85065E-05-2.95002E-05-2.95739E-05-7.15534E-07-1.40068E-19 1.46867E-18
 -1      1417 9.92438E-05-2.96657E-05-2.98330E-05-1.67720E-06-2.66379E-19 6.73086E-19
 -1      1418 9.80015E-05-2.93579E-05-2.94159E-05-5.61349E-07-5.29837E-19 1.42604E-18
 -1      1419 9.74932E-05-2.92080E-05-2.92643E-05-5.30381E-07-5.73914E-19 7.66489E-19
 -1      1420 9.81084E-05-2.93479E-05-2.94799E-05-1.26037E-06-6.96438E-19-4.32522E-19
 -1      1421 9.71141E-05-2.91012E-05-2.91459E-05-4.10016E-07 4.62162E-19 5.19798E-19
 -1      1422 9.67452E-05-2.89932E-05-2.90356E-05-3.86301E-07 5.35538E-19 1.44156E-18
 -1      1423 9.72470E-05-2.91087E-05-2.92108E-05-9.30938E-07 3.17590E-19 3.47614E-19
 -1      1424 9.64653E-05-2.89144E-05-2.89482E-05-2.93899E-07-1.93215E-19 1.54955E-18
 -1      1425 9.62027E-05-2.88381E-05-2.88695E-05-2.75998E-07-7.66383E-21 1.83092E-18
 -1      1426 9.66044E-05-2.89317E-05-2.90094E-05-6.75431E-07 3.30395E-19 6.83732E-19
 -1      1427 9.59999E-05-2.87810E-05-2.88063E-05-2.06116E-07-1.19617E-19 1.37103E-18
 -1      1428 9.58172E-05-2.87284E-05-2.87514E-05-1.92794E-07-1.69969E-19 1.33608E-18
 -1      1429 9.61332E-05-2.88028E-05-2.88611E-05-4.80374E-07 1.61893E-19 2.06513E-19
 -1      1430 9.56733E-05-2.86880E-05-2.87066E-05-1.40716E-07-3.56573E-20 1.27498E-18
 -1      1431 9.55498E-05-2.86528E-05-2.86693E-05-1.30951E-07-3.37299E-20 1.24912E-18
 -1      1432 9.57944E-05-2.87109E-05-2.87540E-05-3.33648E-07-4.58620E-19 1.09409E-18
 -1      1433 9.54503E-05-2.86248E-05-2.86383E-05-9.27440E-08 1.31588E-19 1.02894E-18
 -1      1434 9.53699E-05-2.86023E-05-2.86140E-05-8.57086E-08-4.42466E-19 5.22646E-19
 -1      1435 9.55561E-05-2.86470E-05-2.86783E-05-2.24927E-07 3.81016E-20 9.42863E-19
 -1      1436 9.53032E-05-2.85836E-05-2.85932E-05-5.81650E-08-3.52958E-19 6.85595E-19
 -1      1437 9.52538E-05-2.85701E-05-2.85781E-05-5.31979E-08 5.98064E-19 6.70907E-19
 -1      1438 9.53932E-05-2.86038E-05-2.86261E-05-1.45671E-07-4.33002E-19 9.04109E-19
 -1      1439 9.52110E-05-2.85581E-05-2.85648E-05-3.37462E-08 6.24204E-19 8.46568E-19
 -1      1440 9.51832E-05-2.85509E-05-2.85562E-05-3.03257E-08 2.07474E-19 1.38357E-18
 -1      1441 9.52856E-05-2.85758E-05-2.85914E-05-8.89622E-08 3.98963E-19 8.04318E-19
 -1      1442 9.51575E-05-2.85437E-05-2.85482E-05-1.69302E-08-3.39261E-19 1.25589E-18
 -1      1443 9.51445E-05-2.85407E-05-2.85441E-05-1.46494E-08-4.49360E-19 4.54155E-19
 -1      1444 9.52181E-05-2.85587E-05-2.85694E-05-4.92781E-08-2.77248E-20 4.51651E-19
 -1      1445 9.51307E-05-2.85369E-05-2.85398E-05-5.71818E-09 9.79376E-20 1.63195E-19
 -1      1446 9.51275E-05-2.85366E-05-2.85386E-05-4.26281E-09 5.92748E-19 5.11777E-19
 -1      1447 9.51790E-05-2.85493E-05-2.85563E-05-2.22653E-08 1.64747E-20-8.97528E-20
 -1      1448 9.51217E-05-2.85351E-05-2.85369E-05 1.43508E-09 5.26672E-19 1.70965E-19
 -1      1449 9.51246E-05-2.85364E-05-2.85375E-05 2.30483E-09 1.77318E-19 4.39427E-19
 -1      1450 9.51595E-05-2.85452E-05-2.85495E-05-4.53257E-09 4.06080E-19 1.13433E-19
 -1      1451 9.51241E-05-2.85364E-05-2.85374E-05 5.70943E-09-1.04031E-19 1.63052E-18
 -1      1452 9.51305E-05-2.85387E-05-2.85392E-05 6.17429E-09 4.45047E-19 1.32476E-18
 -1      1453 9.51531E-05-2.85444E-05-2.85469E-05 6.53028E-09 3.35288E-19-5.15285E-20
 -1      1454 9.51333E-05-2.85396E-05-2.85400E-05 7.99364E-09 3.77939E-19 1.41904E-18
 -1      1455 9.51415E-05-2.85423E-05-2.85424E-05 8.18768E-09-7.12161E-19 7.01728E-19
 -1      1456 9.51550E-05-2.85458E-05-2.85470E-05 1.29069E-08 2.00799E-19 1.23256E-18
 -1      1457 9.51461E-05-2.85437E-05-2.85438E-05 8.94604E-09-6.71940E-19 1.30368E-18
 -1      1458 9.51549E-05-2.85465E-05-2.85463E-05 8.96673E-09-6.35729E-19 7.54040E-19
 -1      1459 9.51620E-05-2.85484E-05-2.85488E-05 1.60816E-08-2.55720E-19 1.31119E-18
 -1      1460 9.51604E-05-2.85481E-05-2.85481E-05 9.04358E-09-3.38358E-19 5.44926E-21
 -1      1461 9.51692E-05-2.85509E-05-2.85506E-05 8.95978E-09-3.22330E-19-2.73491E-19
 -1      1462 9.51716E-05-2.85516E-05-2.85515E-05 1.71442E-08-9.10180E-19 8.04393E-19
 -1      1463 9.51749E-05-2.85526E-05-2.85524E-05 8.62058E-09-4.04330E-19 3.81663E-19
 -1      1464 9.51831E-05-2.85552E-05-2.85548E-05 8.47870E-09-5.66530E-19-2.08421E-19
 -1      1465 9.51824E-05-2.85550E-05-2.85546E-05 1.68732E-08-8.24861E-20-2.78454E-19
 -1      1466 9.51887E-05-2.85568E-05-2.85565E-05 7.89830E-09-6.29699E-19 1.07816E-18
 -1      1467 9.51962E-05-2.85591E-05-2.85587E-05 7.72673E-09-1.59561E-19-3.78371E-19
 -1      1468 9.51933E-05-2.85584E-05-2.85578E-05 1.58013E-08-3.18339E-19 9.73521E-19
 -1      1469 9.52013E-05-2.85606E-05-2.85603E-05 7.00609E-09 1.05799E-18-2.05103E-19
 -1      1470 9.52079E-05-2.85626E-05-2.85622E-05 6.81796E-09 1.33902E-18 1.07009E-18
 -1      1471 9.52036E-05-2.85615E-05-2.85609E-05 1.42633E-08 8.14434E-19 2.07416E-18
 -1      1472 9.52124E-05-2.85640E-05-2.85636E-05 5.99561E-09 1.67390E-18 1.21696E-18
 -1      1473 9.52180E-05-2.85657E-05-2.85653E-05 5.79036E-09 1.11022E-18 3.66496E-18
 -1      1474 9.52130E-05-2.85644E-05-2.85636E-05 1.24309E-08 2.45470E-18 3.64096E-18
 -1      1475 9.52218E-05-2.85668E-05-2.85664E-05 4.84814E-09-4.10844E-19 2.14830E-18
 -1      1476 9.52263E-05-2.85682E-05-2.85677E-05 4.60944E-09-5.87987E-19 2.02360E-18
 -1      1477 9.52212E-05-2.85669E-05-2.85661E-05 1.03352E-08 3.69134E-19 2.02675E-18
 -1      1478 9.52293E-05-2.85691E-05-2.85686E-05 3.48751E-09-2.32772E-20 2.14804E-18
 -1      1479 9.52324E-05-2.85701E-05-2.85695E-05 3.18164E-09-2.91012E-19 1.89193E-18
 -1      1480 9.52278E-05-2.85690E-05-2.85680E-05 7.88224E-09-2.42187E-19 1.38606E-18
 -1      1481 9.52345E-05-2.85709E-05-2.85701E-05 1.81419E-09 2.20488E-19 2.12307E-18
 -1      1482 9.52359E-05-2.85712E-05-2.85706E-05 1.43771E-09-1.38078E-20 2.13291E-18
 -1      1483 9.52329E-05-2.85707E-05-2.85694E-05 4.95952E-09 5.52196E-19 1.91793E-18
 -1      1484 9.52372E-05-2.85713E-05-2.85711E-05-9.31110E-11-1.83207E-18 1.46452E-18
 -1      1485 9.52364E-05-2.85717E-05-2.85706E-05 1.36434E-09-1.40282E-18 6.07275E-19
 -1      1486 1.07456E-04-3.16994E-05-3.29668E-05 1.78432E-06 9.21863E-19 5.04861E-18
 -1      1487 1.11952E-04-3.22332E-05-3.49800E-05 3.15166E-06 7.73818E-19 6.55307E-18
 -1      1488 1.11475E-04-2.96496E-05-3.54111E-05 1.03843E-05 1.52297E-18 3.93309E-18
 -1      1489 1.04855E-04-3.13373E-05-3.15544E-05 2.25833E-07 6.60183E-19 3.33866E-18
 -1      1490 1.05676E-04-3.11547E-05-3.21386E-05 4.90140E-07 6.34811E-19 4.44512E-18
 -1      1491 1.07294E-04-3.14111E-05-3.27169E-05 2.84542E-06 1.32397E-18 2.73390E-18
 -1      1492 1.04475E-04-3.13588E-05-3.12932E-05-2.80141E-07 4.33793E-19 2.13376E-18
 -1      1493 1.04305E-04-3.11511E-05-3.13352E-05-1.85428E-07 4.68495E-19 2.87462E-18
 -1      1494 1.05326E-04-3.13933E-05-3.17180E-05 3.43012E-07 1.00958E-18 1.90627E-18
 -1      1495 1.04693E-04-3.14903E-05-3.13216E-05-2.29924E-07 4.00188E-19 1.22183E-18
 -1      1496 1.04383E-04-3.13440E-05-3.12560E-05-2.51146E-07 3.09759E-19 1.80953E-18
 -1      1497 1.04826E-04-3.14760E-05-3.14234E-05-3.13765E-07 6.53968E-19 1.13201E-18
 -1      1498 1.04530E-04-3.14893E-05-3.12496E-05 2.01993E-07 2.53159E-19 4.35497E-19
 -1      1499 1.04567E-04-3.15026E-05-3.12758E-05 8.03498E-08 2.41315E-19 8.89543E-19
 -1      1500 1.04680E-04-3.15794E-05-3.12984E-05-7.68074E-10 5.39041E-19 5.62059E-19
 -1      1501 1.03321E-04-3.11542E-05-3.08728E-05 9.07608E-07 1.29728E-19 2.60747E-19
 -1      1502 1.04048E-04-3.14211E-05-3.10957E-05 7.02181E-07 3.89635E-20 2.88312E-19
 -1      1503 1.04142E-04-3.15260E-05-3.10744E-05 9.75212E-07 2.44051E-19 1.10064E-19
 -1      1504 1.00708E-04-3.03543E-05-3.01035E-05 1.71226E-06 2.84626E-19-6.72068E-20
 -1      1505 1.02297E-04-3.09231E-05-3.05640E-05 1.46590E-06 2.29314E-19 2.56095E-19
 -1      1506 1.02715E-04-3.11439E-05-3.06166E-05 2.34269E-06 2.41524E-19 1.02931E-19
 -1      1507 9.67934E-05-2.91000E-05-2.89910E-05 2.33178E-06 9.40273E-20-5.15870E-19
 -1      1508 9.91465E-05-2.99250E-05-2.96507E-05 2.12375E-06 1.16503E-19-3.24361E-19
 -1      1509 1.00212E-04-3.03299E-05-2.98980E-05 3.67975E-06 2.50808E-19 6.54465E-20
 -1      1510 9.22788E-05-2.76089E-05-2.77436E-05 2.42885E-06 2.50175E-19-8.12119E-19
 -1      1511 9.49463E-05-2.85182E-05-2.84716E-05 2.35810E-06 3.80156E-20-8.29139E-19
 -1      1512 9.68722E-05-2.91269E-05-2.90087E-05 4.40865E-06 2.55027E-19-5.79397E-19
 -1      1513 8.83924E-05-2.62982E-05-2.66924E-05 1.78005E-06 4.84639E-19-1.33688E-18
 -1      1514 9.06298E-05-2.70181E-05-2.72890E-05 1.91595E-06 3.83438E-19-8.66118E-19
 -1      1515 9.34214E-05-2.77886E-05-2.81451E-05 3.98704E-06 4.40709E-19-9.44931E-19
 -1      1516 8.64618E-05-2.56392E-05-2.61767E-05 4.69317E-07 6.23959E-19-2.40804E-18
 -1      1517 8.74963E-05-2.59008E-05-2.64446E-05 7.95667E-07 5.82891E-19-1.66363E-18
 -1      1518 9.09058E-05-2.67479E-05-2.75519E-05 2.24393E-06 8.61552E-19-9.17244E-19
 -1      1519 8.72773E-05-2.59162E-05-2.63937E-05-1.07240E-06 6.54465E-20-3.19691E-18
 -1      1520 8.66806E-05-2.55971E-05-2.62272E-05-6.67353E-07 3.58176E-19-2.97197E-18
 -1      1521 9.02564E-05-2.64330E-05-2.74261E-05-3.80030E-07 8.07156E-19-1.40587E-18
 -1      1522 9.06520E-05-2.70550E-05-2.73007E-05-2.28070E-06 2.94079E-20-3.36021E-18
 -1      1523 8.85762E-05-2.62534E-05-2.67389E-05-1.94467E-06-1.03695E-19-3.35923E-18
 -1      1524 9.17973E-05-2.70130E-05-2.78284E-05-2.96888E-06 4.47935E-20-2.04552E-18
 -1      1525 9.55251E-05-2.86695E-05-2.86361E-05-2.77872E-06-1.15736E-19-3.67946E-18
 -1      1526 9.26179E-05-2.76469E-05-2.78432E-05-2.61129E-06 1.85348E-19-3.48946E-18
 -1      1527 9.50555E-05-2.82820E-05-2.86546E-05-4.62686E-06 3.37010E-19-2.64126E-18
 -1      1528 1.00517E-04-3.02797E-05-3.00420E-05-2.54453E-06-4.90996E-19-3.10776E-18
 -1      1529 9.75881E-05-2.93216E-05-2.92292E-05-2.55591E-06-1.55902E-19-3.41320E-18
 -1      1530 9.90240E-05-2.97893E-05-2.96816E-05-4.94960E-06-1.48643E-19-1.84899E-18
 -1      1531 1.04522E-04-3.15269E-05-3.12096E-05-1.83261E-06-2.09753E-19-2.51188E-18
 -1      1532 1.02203E-04-3.08254E-05-3.05505E-05-1.96498E-06-3.60879E-19-2.98894E-18
 -1      1533 1.02660E-04-3.10957E-05-3.06607E-05-4.12615E-06-5.65136E-19-1.47463E-18
 -1      1534 1.07005E-04-3.22609E-05-3.19679E-05-9.70324E-07 4.62761E-19-2.92531E-18
 -1      1535 1.05586E-04-3.18797E-05-3.15515E-05-1.14798E-06 2.43985E-19-2.56425E-18
 -1      1536 1.05272E-04-3.19531E-05-3.14041E-05-2.68564E-06 2.04512E-19-1.81019E-18
 -1      1537 1.07953E-04-3.25051E-05-3.22898E-05-2.02194E-07 1.50454E-19-4.16770E-18
 -1      1538 1.07423E-04-3.24103E-05-3.21224E-05-3.67916E-07 5.17716E-19-3.37885E-18
 -1      1539 1.06624E-04-3.23223E-05-3.18246E-05-1.16219E-06 9.09919E-19-2.20182E-18
 -1      1540 1.07671E-04-3.23743E-05-3.22460E-05 3.55935E-07 2.02017E-19-4.48223E-18
 -1      1541 1.07839E-04-3.24866E-05-3.22809E-05 2.30430E-07-3.46688E-20-4.14734E-18
 -1      1542 1.06829E-04-3.22936E-05-3.19283E-05 9.79936E-08 1.49174E-19-2.32512E-18
 -1      1543 1.06571E-04-3.20050E-05-3.19491E-05 6.89323E-07-6.04097E-19-3.89994E-18
 -1      1544 1.07193E-04-3.22400E-05-3.21197E-05 6.09623E-07-2.50695E-19-4.24699E-18
 -1      1545 1.06177E-04-3.19996E-05-3.17793E-05 9.60712E-07-3.64002E-19-1.96665E-18
 -1      1546 1.05035E-04-3.15165E-05-3.15104E-05 8.36911E-07 1.63720E-19-3.60607E-18
 -1      1547 1.05890E-04-3.18052E-05-3.17538E-05 7.96362E-07-2.11661E-19-3.79743E-18
 -1      1548 1.04992E-04-3.15626E-05-3.14630E-05 1.43879E-06-6.55537E-19-2.04553E-18
 -1      1549 1.03357E-04-3.09961E-05-3.10193E-05 8.53994E-07 2.95953E-19-4.31400E-18
 -1      1550 1.04279E-04-3.12908E-05-3.12865E-05 8.41856E-07 3.41953E-19-3.58036E-18
 -1      1551 1.03555E-04-3.10745E-05-3.10596E-05 1.61480E-06 2.00083E-19-2.51733E-18
 -1      1552 1.01730E-04-3.04997E-05-3.05368E-05 7.91654E-07-5.02572E-19-4.13451E-18
 -1      1553 1.02614E-04-3.07720E-05-3.07955E-05 7.97617E-07-8.03337E-20-4.57632E-18
 -1      1554 1.02072E-04-3.05952E-05-3.06318E-05 1.58640E-06 1.04278E-19-2.82341E-18
 -1      1555 1.00267E-04-3.00579E-05-3.00990E-05 6.89034E-07-5.35040E-19-2.26550E-18
 -1      1556 1.01053E-04-3.02938E-05-3.03307E-05 7.04982E-07-9.73833E-19-3.60966E-18
 -1      1557 1.00677E-04-3.01595E-05-3.02221E-05 1.43856E-06-1.09024E-18-2.94555E-18
 -1      1558 9.90183E-05-2.96837E-05-2.97230E-05 5.72694E-07 2.68081E-19-1.79060E-18
 -1      1559 9.96821E-05-2.98788E-05-2.99198E-05 5.92958E-07 3.01664E-19-1.67153E-18
 -1      1560 9.94421E-05-2.97833E-05-2.98549E-05 1.23442E-06-1.72938E-19-1.48250E-18
 -1      1561 9.79943E-05-2.93788E-05-2.94134E-05 4.58846E-07-1.93868E-19-1.97963E-18
 -1      1562 9.85327E-05-2.95342E-05-2.95737E-05 4.79826E-07-5.20297E-20-1.49999E-18
 -1      1563 9.83974E-05-2.94712E-05-2.95414E-05 1.01586E-06-1.36319E-21-3.77639E-19
 -1      1564 9.71821E-05-2.91381E-05-2.91670E-05 3.56228E-07-1.72440E-19-2.37455E-18
 -1      1565 9.76044E-05-2.92580E-05-2.92931E-05 3.75853E-07 2.31445E-19-2.32373E-18
 -1      1566 9.75448E-05-2.92205E-05-2.92836E-05 8.07863E-07 3.75689E-19-5.75567E-19
 -1      1567 9.65566E-05-2.89535E-05-2.89767E-05 2.68622E-07-6.60079E-19-1.47122E-18
 -1      1568 9.68780E-05-2.90433E-05-2.90730E-05 2.85865E-07-9.90995E-19-2.83488E-18
 -1      1569 9.68700E-05-2.90245E-05-2.90783E-05 6.23411E-07-6.01642E-19-5.80516E-19
 -1      1570 9.60881E-05-2.88158E-05-2.88338E-05 1.96780E-07 3.01586E-19-9.66169E-19
 -1      1571 9.63258E-05-2.88811E-05-2.89052E-05 2.11277E-07 3.41866E-19-9.22148E-19
 -1      1572 9.63503E-05-2.88754E-05-2.89194E-05 4.67610E-07-1.21706E-19-8.23229E-19
 -1      1573 9.57472E-05-2.87161E-05-2.87296E-05 1.39752E-07-3.12153E-20-1.81475E-18
 -1      1574 9.59176E-05-2.87620E-05-2.87810E-05 1.51530E-07 2.79626E-19-1.45441E-18
 -1      1575 9.59608E-05-2.87648E-05-2.87996E-05 3.40813E-07 3.58339E-19-4.79295E-19
 -1      1576 9.55067E-05-2.86460E-05-2.86559E-05 9.57510E-08-2.87039E-19-1.36483E-18
 -1      1577 9.56248E-05-2.86771E-05-2.86916E-05 1.05050E-07-4.36622E-19-1.91067E-18
 -1      1578 9.56765E-05-2.86850E-05-2.87118E-05 2.40748E-07-1.30109E-19-2.37252E-19
 -1      1579 9.53432E-05-2.85986E-05-2.86056E-05 6.26933E-08 6.33674E-19-1.71798E-18
 -1      1580 9.54217E-05-2.86187E-05-2.86295E-05 6.98501E-08 4.08493E-19-1.40652E-18
 -1      1581 9.54753E-05-2.86292E-05-2.86493E-05 1.63918E-07 1.41819E-19-5.61209E-19
 -1      1582 9.52373E-05-2.85681E-05-2.85729E-05 3.85111E-08 1.06775E-18-3.80807E-18
 -1      1583 9.52865E-05-2.85801E-05-2.85880E-05 4.38863E-08 9.43952E-19-2.60322E-18
 -1      1584 9.53378E-05-2.85917E-05-2.86063E-05 1.06448E-07 1.50985E-18-2.51679E-18
 -1      1585 9.51732E-05-2.85499E-05-2.85531E-05 2.13199E-08-1.08703E-18-4.49281E-18
 -1      1586 9.52014E-05-2.85563E-05-2.85618E-05 2.52590E-08-2.21277E-19-4.05220E-18
 -1      1587 9.52480E-05-2.85676E-05-2.85779E-05 6.45868E-08 6.02895E-20-2.07700E-18
 -1      1588 9.51387E-05-2.85403E-05-2.85422E-05 9.49372E-09 1.95580E-19-4.22732E-18
 -1      1589 9.51524E-05-2.85428E-05-2.85466E-05 1.23053E-08-3.14503E-19-4.19794E-18
 -1      1590 9.51931E-05-2.85533E-05-2.85604E-05 3.49615E-08-5.70334E-19-2.57054E-18
 -1      1591 9.51244E-05-2.85365E-05-2.85376E-05 1.68323E-09 6.44454E-19-4.81454E-18
 -1      1592 9.51284E-05-2.85365E-05-2.85390E-05 3.63079E-09 1.01427E-19-4.40507E-18
 -1      1593 9.51629E-05-2.85459E-05-2.85505E-05 1.46877E-08 1.52207E-20-2.43703E-18
 -1      1594 9.51234E-05-2.85366E-05-2.85371E-05-3.19782E-09-3.19814E-19-3.31532E-18
 -1      1595 9.51211E-05-2.85351E-05-2.85366E-05-1.89663E-09-2.24167E-19-3.61462E-18
 -1      1596 9.51496E-05-2.85431E-05-2.85459E-05 1.38582E-09-6.81232E-19-1.51538E-18
 -1      1597 9.51306E-05-2.85390E-05-2.85391E-05-6.00112E-09 2.27506E-19-4.34216E-18
 -1      1598 9.51247E-05-2.85366E-05-2.85375E-05-5.17148E-09 3.37182E-19-3.51993E-18
 -1      1599 9.51476E-05-2.85433E-05-2.85449E-05-6.85031E-09 4.02833E-19-1.29923E-18
 -1      1600 9.51424E-05-2.85427E-05-2.85426E-05-7.37807E-09 2.96181E-19-4.60408E-18
 -1      1601 9.51345E-05-2.85400E-05-2.85403E-05-6.88304E-09-2.45355E-21-4.64731E-18
 -1      1602 9.51527E-05-2.85454E-05-2.85461E-05-1.15089E-08 2.78478E-19-1.60627E-18
 -1      1603 9.51564E-05-2.85470E-05-2.85467E-05-7.81399E-09-1.28549E-18-2.50055E-18
 -1      1604 9.51478E-05-2.85442E-05-2.85442E-05-7.54898E-09-4.24979E-19-3.60100E-18
 -1      1605 9.51617E-05-2.85484E-05-2.85486E-05-1.37227E-08-8.20637E-19 6.69171E-20
 -1      1606 9.51709E-05-2.85514E-05-2.85511E-05-7.65915E-09 9.24310E-19-1.41787E-18
 -1      1607 9.51623E-05-2.85487E-05-2.85486E-05-7.54665E-09-4.38540E-19-1.96279E-18
 -1      1608 9.51727E-05-2.85520E-05-2.85518E-05-1.43305E-08-7.62909E-19-1.07546E-18
 -1      1609 9.51850E-05-2.85557E-05-2.85553E-05-7.15492E-09 3.99768E-19-2.59182E-18
 -1      1610 9.51769E-05-2.85531E-05-2.85530E-05-7.14004E-09 9.30072E-19-1.43449E-18
 -1      1611 9.51844E-05-2.85556E-05-2.85553E-05-1.39319E-08 1.08382E-18-8.77618E-19
 -1      1612 9.51981E-05-2.85596E-05-2.85593E-05-6.45394E-09 8.74373E-20-3.32863E-18
 -1      1613 9.51907E-05-2.85573E-05-2.85571E-05-6.50123E-09 6.93947E-19-2.26026E-18
 -1      1614 9.51958E-05-2.85591E-05-2.85586E-05-1.29319E-08 5.88264E-19 2.77541E-19
 -1      1615 9.52098E-05-2.85631E-05-2.85628E-05-5.63402E-09 6.34136E-19-4.58243E-18
 -1      1616 9.52033E-05-2.85611E-05-2.85609E-05-5.72566E-09 2.39214E-19-4.48041E-18
 -1      1617 9.52064E-05-2.85623E-05-2.85618E-05-1.15757E-08 1.06219E-18-1.03881E-18
 -1      1618 9.52198E-05-2.85661E-05-2.85658E-05-4.70822E-09-9.00234E-19-3.01215E-18
 -1      1619 9.52143E-05-2.85645E-05-2.85642E-05-4.84326E-09-1.91867E-19-3.72430E-18
 -1      1620 9.52158E-05-2.85651E-05-2.85646E-05-9.97264E-09-3.62257E-19-1.61007E-18
 -1      1621 9.52278E-05-2.85686E-05-2.85682E-05-3.62659E-09-2.00660E-19-2.00937E-18
 -1      1622 9.52235E-05-2.85673E-05-2.85669E-05-3.82468E-09-7.25165E-19-3.23214E-18
 -1      1623 9.52238E-05-2.85676E-05-2.85669E-05-8.11355E-09-9.42827E-19-5.33922E-19
 -1      1624 9.52336E-05-2.85704E-05-2.85698E-05-2.28144E-09 1.04591E-19-3.22013E-18
 -1      1625 9.52306E-05-2.85695E-05-2.85690E-05-2.59320E-09 2.60670E-19-2.38269E-18
 -1      1626 9.52301E-05-2.85696E-05-2.85687E-05-5.88850E-09 5.92496E-20-8.21174E-20
 -1      1627 9.52365E-05-2.85712E-05-2.85708E-05-7.31505E-10 3.99138E-19-2.77120E-18
 -1      1628 9.52353E-05-2.85710E-05-2.85704E-05-1.11923E-09 4.76172E-19-2.93079E-18
 -1      1629 9.52345E-05-2.85710E-05-2.85700E-05-3.18131E-09 9.51218E-19-1.67478E-20
 -1      1630 9.52372E-05-2.85713E-05-2.85711E-05 1.78104E-11-1.46638E-18-1.66669E-18
 -1      1631 9.52375E-05-2.85739E-05-2.85701E-05-1.87819E-09 3.77731E-18 2.89593E-18
 -1      1632 9.52371E-05-2.85724E-05-2.85706E-05-1.47053E-09-7.06269E-19 3.36908E-18
 -1      1633 9.52391E-05-2.85787E-05-2.85688E-05-3.25130E-09 5.33622E-18 7.05553E-19
 -1      1634 9.52382E-05-2.85758E-05-2.85695E-05-3.02198E-09 4.41050E-18 1.56299E-19
 -1      1635 9.52376E-05-2.85754E-05-2.85695E-05-4.78318E-09 1.01813E-18 2.03084E-18
 -1      1636 9.52412E-05-2.85848E-05-2.85670E-05-3.94595E-09 3.09405E-18-1.89233E-18
 -1      1637 9.52400E-05-2.85812E-05-2.85680E-05-3.86692E-09 4.80459E-18-7.07891E-20
 -1      1638 9.52394E-05-2.85800E-05-2.85683E-05-6.88334E-09 2.27797E-18-6.78811E-19
 -1      1639 9.52433E-05-2.85912E-05-2.85652E-05-3.96331E-09 1.72499E-19-1.69452E-18
 -1      1640 9.52421E-05-2.85876E-05-2.85662E-05-4.01424E-09 2.56358E-18-1.23513E-18
 -1      1641 9.52414E-05-2.85853E-05-2.85669E-05-7.68386E-09 1.38517E-18-2.85389E-18
 -1      1642 9.52451E-05-2.85970E-05-2.85635E-05-3.43035E-09-2.27708E-18-2.89419E-18
 -1      1643 9.52441E-05-2.85938E-05-2.85644E-05-3.57518E-09 4.29237E-19-2.44454E-18
 -1      1644 9.52432E-05-2.85907E-05-2.85654E-05-7.27565E-09 3.32352E-19-3.10034E-18
 -1      1645 9.52466E-05-2.86015E-05-2.85622E-05-2.46814E-09-3.77087E-19 1.17920E-18
 -1      1646 9.52458E-05-2.85991E-05-2.85629E-05-2.68543E-09-1.63650E-18-1.11156E-18
 -1      1647 9.52448E-05-2.85953E-05-2.85641E-05-5.90522E-09 1.06780E-18-2.36151E-18
 -1      1648 9.52474E-05-2.86041E-05-2.85614E-05-1.22883E-09 2.88792E-18 2.23031E-18
 -1      1649 9.52470E-05-2.86029E-05-2.85618E-05-1.48677E-09-6.58759E-19 2.62431E-18
 -1      1650 9.52460E-05-2.85988E-05-2.85632E-05-3.82046E-09 1.47430E-18 2.68356E-18
 -1      1651 9.52475E-05-2.86046E-05-2.85613E-05 1.41510E-10 1.88042E-18-5.87667E-19
 -1      1652 9.52475E-05-2.86046E-05-2.85613E-05-1.30011E-10 1.97238E-18-3.11069E-19
 -1      1653 9.52466E-05-2.86006E-05-2.85627E-05-1.31305E-09 7.93154E-19 9.76607E-19
 -1      1654 9.52470E-05-2.86028E-05-2.85618E-05 1.49879E-09 2.09737E-18 1.04111E-19
 -1      1655 9.52474E-05-2.86041E-05-2.85614E-05 1.24074E-09 2.09803E-18 6.60399E-19
 -1      1656 9.52466E-05-2.86006E-05-2.85627E-05 1.33548E-09 1.45563E-18 4.83393E-20
 -1      1657 9.52458E-05-2.85991E-05-2.85629E-05 2.69793E-09 1.50598E-18-4.95762E-19
 -1      1658 9.52465E-05-2.86015E-05-2.85622E-05 2.48120E-09 2.19136E-18-4.73099E-20
 -1      1659 9.52460E-05-2.85987E-05-2.85632E-05 3.84467E-09 1.63910E-19 3.41429E-19
 -1      1660 9.52441E-05-2.85938E-05-2.85644E-05 3.57824E-09-1.65573E-18-5.84365E-19
 -1      1661 9.52451E-05-2.85970E-05-2.85635E-05 3.43451E-09 9.24055E-19-1.33039E-18
 -1      1662 9.52448E-05-2.85953E-05-2.85641E-05 5.91745E-09 5.73273E-19-2.01443E-18
 -1      1663 9.52421E-05-2.85875E-05-2.85662E-05 4.02155E-09-2.07626E-18-2.90497E-19
 -1      1664 9.52433E-05-2.85912E-05-2.85652E-05 3.97180E-09-1.92670E-18 3.68933E-19
 -1      1665 9.52432E-05-2.85907E-05-2.85654E-05 7.28778E-09 4.88225E-19-2.92362E-19
 -1      1666 9.52400E-05-2.85811E-05-2.85680E-05 3.87639E-09-1.29218E-18 9.12354E-19
 -1      1667 9.52412E-05-2.85847E-05-2.85670E-05 3.94826E-09-2.37222E-18 9.64179E-19
 -1      1668 9.52413E-05-2.85853E-05-2.85669E-05 7.69281E-09-3.51936E-19 2.28945E-19
 -1      1669 9.52382E-05-2.85758E-05-2.85696E-05 3.01709E-09-2.22016E-18-6.33942E-19
 -1      1670 9.52391E-05-2.85786E-05-2.85688E-05 3.25171E-09-1.91318E-18 1.86897E-19
 -1      1671 9.52394E-05-2.85799E-05-2.85683E-05 6.87312E-09-1.27833E-18 1.94768E-19
 -1      1672 9.52370E-05-2.85728E-05-2.85704E-05 2.20399E-09-2.12457E-18-2.80192E-19
 -1      1673 9.52374E-05-2.85743E-05-2.85699E-05 2.79647E-09-1.39531E-18-6.74796E-19
 -1      1674 9.52375E-05-2.85758E-05-2.85693E-05 5.67192E-09-1.85714E-18-6.57170E-20
 -1      1675 9.52356E-05-2.85728E-05-2.85698E-05 4.34794E-09-5.45016E-19 5.73391E-19
 -1      1676 1.94934E-05-6.28510E-05 1.31818E-05-3.94474E-06 2.94683E-18 2.94979E-18
 -1      1677 2.32671E-05-7.45231E-05 1.56528E-05 3.35572E-06-5.76618E-19 2.30033E-18
 -1      1678 2.22679E-05-3.61540E-05 2.45425E-06 8.84756E-06 6.95160E-18 5.56839E-18
 -1      1679 2.53681E-05-5.76197E-05 8.57073E-06 4.15619E-06 4.09117E-18 3.26817E-18
 -1      1680 3.57176E-05-1.03701E-05-1.25359E-05 3.01237E-05 1.04812E-17 9.09502E-18
 -1      1681 3.00887E-05-3.02238E-05-4.08304E-06 1.33082E-05 8.52115E-18 6.57213E-18
 -1      1682 7.66103E-05-1.94494E-06-3.11840E-05 6.04070E-05 1.03262E-17 1.04016E-17
 -1      1683 5.21883E-05-7.43199E-06-2.13172E-05 3.81057E-05 1.07810E-17 9.21233E-18
 -1      1684 1.38807E-04-1.59533E-05-4.95562E-05 7.67324E-05 7.19216E-18 1.00958E-17
 -1      1685 9.86576E-05-3.64764E-06-4.03388E-05 6.48859E-05 9.37411E-18 1.02330E-17
 -1      1686 2.07139E-04-4.35891E-05-6.50652E-05 5.88102E-05 4.45381E-18 6.02918E-18
 -1      1687 1.62993E-04-2.26093E-05-5.74101E-05 6.87015E-05 6.50987E-18 8.58553E-18
 -1      1688 2.51012E-04-6.30772E-05-7.40725E-05 2.34275E-05 2.17730E-18 2.63639E-18
 -1      1689 2.27783E-04-4.98759E-05-7.09265E-05 5.32470E-05 3.27548E-18 5.69545E-18
 -1      1690 2.43902E-04-5.84134E-05-7.38473E-05-2.73087E-05 2.64952E-18-2.87610E-18
 -1      1691 2.51093E-04-6.23814E-05-7.47382E-05 6.98301E-06 2.36216E-18 8.12622E-19
 -1      1692 1.99505E-04-3.69087E-05-6.56456E-05-6.23174E-05 5.11640E-18-7.72663E-18
 -1      1693 2.32728E-04-5.45584E-05-7.07540E-05-4.02717E-05 3.39300E-18-4.51130E-18
 -1      1694 1.37970E-04-1.35411E-05-5.13510E-05-7.21578E-05 7.64024E-18-1.03736E-17
 -1      1695 1.81024E-04-3.21567E-05-5.94555E-05-7.16640E-05 5.61985E-18-8.77865E-18
 -1      1696 7.90706E-05-2.40666E-06-3.33625E-05-5.60353E-05 1.04710E-17-1.04549E-17
 -1      1697 1.14124E-04-8.13226E-06-4.29839E-05-7.36279E-05 8.81422E-18-1.10936E-17
 -1      1698 4.48398E-05-2.16744E-05-1.29280E-05-2.61288E-05 1.06726E-17-7.64405E-18
 -1      1699 6.31899E-05-8.41812E-06-2.36124E-05-4.93456E-05 1.02593E-17-9.17083E-18
 -1      1700 2.45600E-05-4.41907E-05 3.14200E-06-4.04514E-06 1.05201E-17-5.46887E-18
 -1      1701 2.33705E-05-2.16536E-05-3.96100E-06-1.45101E-05 1.19254E-17-7.66311E-18
 -1      1702 2.37756E-05-6.62426E-05 1.24402E-05-2.95469E-06 5.30624E-18-3.43641E-18
 -1      1703 1.95997E-05-4.88348E-05 7.98171E-06-1.52664E-06 8.68124E-18-4.82724E-18
 -1      1704 2.28621E-05-7.59649E-05 1.61069E-05-5.38530E-06 5.26643E-19-2.17560E-18
 -1      1705 2.19535E-05-7.33133E-05 1.56535E-05 4.55289E-06 4.37344E-18-2.68001E-18
 -1      1706 1.93498E-05-5.81401E-05 1.09894E-05-5.93366E-06-4.25211E-18-3.32355E-18
 -1      1707 2.40503E-05-7.32374E-05 1.44700E-05-1.37721E-06-7.05155E-19-2.19170E-18
 -1      1708 2.16887E-05-3.04669E-05-2.59326E-07 6.94367E-06-8.36953E-18-6.16555E-18
 -1      1709 2.43316E-05-5.29648E-05 6.28030E-06-9.23781E-07-5.65225E-18-4.11902E-18
 -1      1710 4.25805E-05-7.42806E-06-1.66474E-05 3.52771E-05-1.03880E-17-9.57317E-18
 -1      1711 3.24952E-05-2.48793E-05-7.70007E-06 1.51133E-05-9.26231E-18-7.06383E-18
 -1      1712 9.07818E-05-4.35605E-06-3.58197E-05 6.57300E-05-9.64262E-18-1.13706E-17
 -1      1713 6.08236E-05-5.55108E-06-2.57863E-05 4.34415E-05-1.04219E-17-1.00246E-17
 -1      1714 1.63662E-04-2.63662E-05-5.49229E-05 7.49305E-05-6.57298E-18-1.05786E-17
 -1      1715 1.17837E-04-1.04201E-05-4.52146E-05 6.66405E-05-8.63127E-18-1.09140E-17
 -1      1716 2.29633E-04-5.28736E-05-6.97464E-05 5.03300E-05-3.86644E-18-6.89654E-18
 -1      1717 1.86849E-04-3.18179E-05-6.28144E-05 6.68087E-05-6.10954E-18-9.45543E-18
 -1      1718 2.61273E-04-6.64801E-05-7.63724E-05 7.62679E-06-2.25798E-18-3.35340E-18
 -1      1719 2.45473E-04-5.78021E-05-7.43231E-05 3.99662E-05-2.95382E-18-6.13675E-18
 -1      1720 2.48319E-04-5.95353E-05-7.44697E-05-3.94928E-05-2.68298E-18 2.24421E-18
 -1      1721 2.63235E-04-6.78121E-05-7.65574E-05-7.55461E-06-2.25205E-18-1.45245E-18
 -1      1722 1.94782E-04-3.54399E-05-6.41638E-05-6.59580E-05-5.76872E-18 7.57078E-18
 -1      1723 2.32354E-04-5.41360E-05-7.01723E-05-4.92826E-05-3.77681E-18 3.75744E-18
 -1      1724 1.31895E-04-1.24851E-05-4.94735E-05-7.21633E-05-9.28348E-18 1.13308E-17
 -1      1725 1.74192E-04-2.92521E-05-5.76454E-05-7.57235E-05-6.61109E-18 9.33854E-18
 -1      1726 7.73277E-05-6.49468E-06-3.14637E-05-5.10756E-05-1.25132E-17 1.16298E-17
 -1      1727 1.10340E-04-1.01671E-05-4.09340E-05-6.94384E-05-1.03965E-17 1.09691E-17
 -1      1728 4.01592E-05-1.63669E-05-1.37380E-05-2.42588E-05-1.36355E-17 1.05210E-17
 -1      1729 5.58634E-05-4.62564E-06-2.26234E-05-4.51534E-05-1.32408E-17 1.24717E-17
 -1      1730 2.70579E-05-4.24347E-05 1.35083E-06-4.30636E-06-1.29698E-17 6.70088E-18
 -1      1731 2.86773E-05-2.16395E-05-6.02295E-06-1.72440E-05-1.34221E-17 8.95568E-18
 -1      1732 2.39974E-05-6.72102E-05 1.20081E-05 3.86769E-06-8.22638E-18 4.89484E-18
 -1      1733 1.90064E-05-4.79805E-05 7.33778E-06 3.46099E-06-1.18585E-17 6.49240E-18
 -1      1734 2.38828E-05-7.76636E-05 1.64217E-05-7.30146E-07-2.04262E-18 2.51632E-18
 -1      1735 2.14230E-05-7.10165E-05 1.49613E-05 7.88601E-06-6.65726E-18 3.99694E-18
 -1      1736 1.14847E-04-3.05131E-05-3.51246E-05 4.63495E-05 5.83648E-18 5.31344E-18
 -1      1737 7.37602E-05-3.41909E-05-1.80896E-05 4.09653E-05 5.27363E-18 6.66742E-18
 -1      1738 9.52368E-05-2.85715E-05-2.85708E-05-6.97821E-10-1.42183E-18 3.37108E-19
 -1      1739 9.52364E-05-2.85725E-05-2.85702E-05-2.51767E-09 6.17977E-19 3.16282E-18
 -1      1740 2.03863E-05-4.43513E-05 6.84166E-06 1.98491E-05 1.12909E-18 4.89860E-18
 -1      1741 4.25921E-05-4.06731E-05-3.47863E-06 3.18547E-05 3.40761E-18 6.18133E-18
 -1      1742 1.16932E-05-5.03698E-05 1.20096E-05 3.07752E-06-1.20739E-18 4.84503E-18
 -1      1743 1.57912E-04-3.13369E-05-5.13564E-05 3.87374E-05 5.01062E-18 3.49655E-18
 -1      1744 1.91264E-04-3.24291E-05-6.40745E-05 2.37858E-05 4.37958E-18 2.18153E-18
 -1      1745 2.10062E-04-3.32301E-05-7.03870E-05 7.27214E-06 4.06957E-18 1.12232E-19
 -1      1746 2.00412E-04-3.05879E-05-6.80539E-05-1.34936E-05 4.88907E-18-2.46444E-18
 -1      1747 1.78131E-04-3.10314E-05-5.93545E-05-3.15801E-05 5.26929E-18-4.15851E-18
 -1      1748 1.42095E-04-3.06374E-05-4.56042E-05-4.41918E-05 5.98365E-18-5.75305E-18
 -1      1749 1.01595E-04-3.61819E-05-2.82033E-05-4.37549E-05 6.02240E-18-5.71578E-18
 -1      1750 6.04916E-05-3.84097E-05-1.10272E-05-3.82764E-05 5.87841E-18-5.38776E-18
 -1      1751 2.86422E-05-4.20175E-05 2.37519E-06-2.45599E-05 4.65529E-18-5.40629E-18
 -1      1752 1.39198E-05-4.62102E-05 9.78866E-06-1.18036E-05 2.41828E-18-5.01062E-18
 -1      1753 1.27444E-05-5.02514E-05 1.13504E-05 4.49196E-06 9.23266E-20-4.21484E-18
 -1      1754 2.43339E-05-4.64086E-05 5.36075E-06 1.72383E-05-2.26158E-18-5.00766E-18
 -1      1755 4.77581E-05-3.98653E-05-6.24255E-06 3.00795E-05-4.64428E-18-6.19901E-18
 -1      1756 8.35427E-05-3.42018E-05-2.20367E-05 4.13460E-05-5.41678E-18-6.66954E-18
 -1      1757 1.30308E-04-3.38018E-05-3.97480E-05 4.46558E-05-5.56501E-18-6.23586E-18
 -1      1758 1.73686E-04-3.46233E-05-5.60485E-05 3.25853E-05-5.10419E-18-4.54010E-18
 -1      1759 2.03594E-04-3.38389E-05-6.77193E-05 1.79883E-05-4.57355E-18-3.42498E-18
 -1      1760 2.19111E-04-3.63095E-05-7.22754E-05 9.89476E-07-4.43125E-18-1.20824E-18
 -1      1761 2.07297E-04-3.56467E-05-6.83382E-05-1.79712E-05-5.44155E-18 2.36237E-18
 -1      1762 1.79007E-04-3.42410E-05-5.82016E-05-3.46245E-05-6.57398E-18 4.50283E-18
 -1      1763 1.40583E-04-3.40093E-05-4.38162E-05-4.34794E-05-7.58518E-18 5.72255E-18
 -1      1764 9.85347E-05-3.49815E-05-2.73954E-05-4.24091E-05-8.10949E-18 6.93424E-18
 -1      1765 6.07440E-05-3.87524E-05-1.16023E-05-3.43792E-05-7.98583E-18 7.62287E-18
 -1      1766 3.34118E-05-4.47973E-05 1.36784E-06-2.29399E-05-6.71189E-18 5.99959E-18
 -1      1767 1.67670E-05-5.07254E-05 9.91461E-06-9.28168E-06-4.09625E-18 6.67610E-18
 -1      1768 1.16485E-04-2.63642E-05-3.87143E-05-1.32928E-05-9.90737E-19 8.94043E-18
 -1      1769 9.18171E-05-1.06543E-05-3.49369E-05-6.25233E-06-2.10100E-18 4.31537E-19
 -1      1770 9.54515E-05-1.24898E-05-3.56614E-05-8.12772E-06-2.19535E-18 1.27465E-18
 -1      1771 9.97240E-05-1.58016E-05-3.61472E-05-9.39696E-06-2.00301E-18 2.21001E-18
 -1      1772 1.03454E-04-1.85326E-05-3.68329E-05-1.14694E-05-1.92303E-18 3.50830E-18
 -1      1773 9.97619E-05-1.78170E-05-3.51204E-05-6.63969E-06-2.13724E-18 1.73329E-18
 -1      1774 8.00411E-05-4.26035E-06-3.25584E-05-2.52483E-06-1.72620E-18-1.56181E-18
 -1      1775 8.23399E-05-5.12114E-06-3.31167E-05-3.25013E-06-1.87249E-18-1.18390E-18
 -1      1776 7.63099E-05-2.45985E-06-3.17051E-05-1.93835E-06-1.49285E-18-2.14059E-18
 -1      1777 7.78835E-05-3.00073E-06-3.21096E-05-2.29308E-06-1.62065E-18-1.89050E-18
 -1      1778 7.97288E-05-5.11416E-06-3.19898E-05-1.93943E-06-1.76118E-18-1.60241E-18
 -1      1779 7.43583E-05-1.61112E-06-3.12101E-05-1.85289E-06-1.14880E-18-2.33780E-18
 -1      1780 7.50655E-05-1.80470E-06-3.14197E-05-2.00987E-06-1.34479E-18-2.25067E-18
 -1      1781 7.61674E-05-3.22458E-06-3.12669E-05-1.78017E-06-1.46322E-18-2.06694E-18
 -1      1782 7.42480E-05-1.70974E-06-3.11033E-05-1.84183E-06-8.60471E-19-2.49631E-18
 -1      1783 7.40897E-05-1.57497E-06-3.11110E-05-2.00416E-06-1.01143E-18-2.40971E-18
 -1      1784 7.46115E-05-2.54970E-06-3.08887E-05-1.99476E-06-1.18956E-18-2.25993E-18
 -1      1785 7.57871E-05-2.62267E-06-3.13623E-05-1.48951E-06-5.65927E-19-2.56837E-18
 -1      1786 7.48831E-05-2.22141E-06-3.11863E-05-1.83822E-06-7.09286E-19-2.54970E-18
 -1      1787 7.50527E-05-3.03774E-06-3.08753E-05-2.11863E-06-8.68178E-19-2.42776E-18
 -1      1788 7.85839E-05-4.11467E-06-3.19225E-05-4.96142E-07-2.09925E-19-2.58839E-18
 -1      1789 7.71333E-05-3.53345E-06-3.15995E-05-1.15460E-06-3.82918E-19-2.56821E-18
 -1      1790 7.71989E-05-4.46609E-06-3.11945E-05-1.73459E-06-5.37606E-19-2.48200E-18
 -1      1791 8.21277E-05-5.91131E-06-3.26822E-05 1.23628E-06 1.85183E-19-2.46696E-18
 -1      1792 8.03685E-05-5.24133E-06-3.22649E-05 2.34217E-07-2.32405E-20-2.54132E-18
 -1      1793 8.05442E-05-6.49753E-06-3.17685E-05-6.09258E-07-1.47509E-19-2.42021E-18
 -1      1794 8.62158E-05-7.95451E-06-3.35800E-05 3.75915E-06 7.11071E-19-2.20971E-18
 -1      1795 8.42160E-05-7.18840E-06-3.30938E-05 2.36596E-06 4.10864E-19-2.32241E-18
 -1      1796 8.46301E-05-8.87397E-06-3.25095E-05 1.30008E-06 3.29406E-19-2.27050E-18
 -1      1797 9.07290E-05-1.03417E-05-3.45301E-05 6.95711E-06 1.20452E-18-1.88896E-18
 -1      1798 8.85104E-05-9.40060E-06-3.40104E-05 5.19061E-06 9.31319E-19-2.08154E-18
 -1      1799 8.92098E-05-1.15402E-05-3.33302E-05 3.87921E-06 8.73043E-19-1.96543E-18
 -1      1800 9.60262E-05-1.36418E-05-3.54628E-05 1.06299E-05 1.65789E-18-1.06739E-18
 -1      1801 9.33421E-05-1.21956E-05-3.49287E-05 8.52169E-06 1.40880E-18-1.55126E-18
 -1      1802 9.42698E-05-1.47147E-05-3.41237E-05 6.82650E-06 1.38683E-18-1.53223E-18
 -1      1803 1.03467E-04-1.95050E-05-3.61831E-05 1.38975E-05 1.92257E-18 6.19287E-19
 -1      1804 9.94492E-05-1.65029E-05-3.57334E-05 1.19549E-05 1.76735E-18-4.02552E-19
 -1      1805 1.00299E-04-1.91963E-05-3.47459E-05 9.45211E-06 1.81565E-18-5.62059E-19
 -1      1806 1.10631E-04-2.79328E-05-3.58783E-05 1.14959E-05 1.75611E-18 2.77753E-18
 -1      1807 1.06259E-04-2.22498E-05-3.60089E-05 1.35538E-05 1.88726E-18 1.37802E-18
 -1      1808 1.05550E-04-2.46794E-05-3.47313E-05 9.53472E-06 1.96383E-18 7.34325E-19
 -1      1809 1.08226E-04-2.92166E-05-3.40648E-05 6.58153E-06 1.77268E-18 2.27186E-18
 -1      1810 1.10763E-04-2.29010E-05-3.73685E-05-1.37809E-05-1.40123E-18 5.50381E-18
 -1      1811 1.06105E-04-3.07826E-05-3.23086E-05 1.74013E-06 1.33308E-18 1.53478E-18
 -1      1812 1.07749E-04-3.06404E-05-3.30910E-05 3.85893E-06 1.46333E-18 1.96726E-18
 -1      1813 1.06947E-04-2.87776E-05-3.35036E-05 5.65708E-06 1.72067E-18 1.12270E-18
 -1      1814 1.10133E-04-2.56759E-05-3.59241E-05-8.75346E-06-1.59989E-18 4.51654E-18
 -1      1815 1.10083E-04-3.08031E-05-3.38579E-05 1.44019E-07-1.09426E-18 4.14567E-18
 -1      1816 1.09827E-04-3.13047E-05-3.36058E-05 2.03447E-06-9.85629E-19 3.85927E-18
 -1      1817 1.10039E-04-3.18437E-05-3.34174E-05 3.71679E-06-7.88965E-19 3.78282E-18
 -1      1818 1.10899E-04-3.25335E-05-3.35558E-05 4.58425E-06-7.01337E-19 3.55248E-18
 -1      1819 1.08022E-04-3.01454E-05-3.34197E-05 3.03014E-06-1.04133E-18 2.53959E-18
 -1      1820 1.11676E-04-3.31754E-05-3.35854E-05 5.35488E-06-4.57326E-19 3.58426E-18
 -1      1821 1.12984E-04-3.40327E-05-3.38526E-05 5.45753E-06-3.03578E-19 3.54155E-18
 -1      1822 1.09211E-04-3.19251E-05-3.31661E-05 5.87607E-06-6.20640E-19 2.32620E-18
 -1      1823 1.14275E-04-3.49423E-05-3.39643E-05 5.26050E-06-1.40161E-19 3.60419E-18
 -1      1824 1.15560E-04-3.59193E-05-3.41994E-05 4.47619E-06-1.00281E-19 3.60215E-18
 -1      1825 1.11462E-04-3.40652E-05-3.32121E-05 6.64688E-06-2.13307E-19 2.36602E-18
 -1      1826 1.17221E-04-3.70759E-05-3.43223E-05 3.09008E-06-1.17307E-19 3.64197E-18
 -1      1827 1.17944E-04-3.79272E-05-3.44022E-05 1.27106E-06-1.80451E-19 3.45807E-18
 -1      1828 1.14602E-04-3.68128E-05-3.33762E-05 5.08475E-06-1.84309E-19 2.23310E-18
 -1      1829 1.19622E-04-3.90301E-05-3.45263E-05-1.42454E-06-9.39479E-20 3.54375E-18
 -1      1830 1.19197E-04-3.92256E-05-3.43872E-05-4.09475E-06 1.89603E-19 3.54633E-18
 -1      1831 1.18141E-04-3.97461E-05-3.36179E-05 7.91912E-07-1.51407E-19 2.26899E-18
 -1      1832 1.20171E-04-3.95524E-05-3.45756E-05-7.59376E-06 8.70723E-20 3.74427E-18
 -1      1833 1.18217E-04-3.83960E-05-3.42617E-05-1.01782E-05-3.05243E-19 3.94158E-18
 -1      1834 1.20944E-04-4.14530E-05-3.40512E-05-5.94183E-06 6.07217E-20 2.69504E-18
 -1      1835 1.17614E-04-3.70914E-05-3.46036E-05-1.27909E-05-7.35539E-19 4.30074E-18
 -1      1836 1.14481E-04-3.44164E-05-3.42690E-05-1.35575E-05-7.96648E-19 4.23924E-18
 -1      1837 1.21259E-04-3.97786E-05-3.48809E-05-1.29139E-05-2.52211E-19 3.15385E-18
 -1      1838 1.12298E-04-3.15907E-05-3.47431E-05-1.28691E-05-1.02766E-18 3.84832E-18
 -1      1839 1.09390E-04-2.86416E-05-3.45428E-05-1.03766E-05-1.19376E-18 3.35986E-18
 -1      1840 1.18095E-04-3.37981E-05-3.61568E-05-1.55774E-05-1.45551E-18 3.21540E-18
 -1      1841 1.07536E-04-2.64043E-05-3.48811E-05-5.45366E-06-1.21605E-18 2.53432E-18
 -1      1842 1.06782E-04-2.55120E-05-3.48618E-05-5.04194E-07-1.56008E-18 1.85628E-18
 -1      1843 1.13459E-04-2.66395E-05-3.73936E-05-9.56035E-06-1.96496E-18 2.63455E-18
 -1      1844 1.07364E-04-2.61415E-05-3.48021E-05 5.80552E-06-1.70947E-18 8.83978E-19
 -1      1845 1.09401E-04-2.81531E-05-3.49610E-05 1.00945E-05-1.78486E-18 5.73666E-19
 -1      1846 1.11992E-04-2.43673E-05-3.77933E-05 3.21223E-06-2.28477E-18 8.92034E-19
 -1      1847 1.11827E-04-3.10078E-05-3.45694E-05 1.34825E-05-1.47045E-18-7.62462E-20
 -1      1848 1.15298E-04-3.41839E-05-3.49020E-05 1.46402E-05-9.68218E-19-3.18021E-19
 -1      1849 1.15455E-04-2.92569E-05-3.70645E-05 1.41620E-05-1.95683E-18-6.90133E-19
 -1      1850 1.17111E-04-3.66199E-05-3.44995E-05 1.37632E-05-8.73979E-19-5.22553E-19
 -1      1851 1.20129E-04-3.88595E-05-3.49049E-05 1.20199E-05-7.95165E-19-3.49467E-19
 -1      1852 1.20270E-04-3.67533E-05-3.57893E-05 1.65162E-05-1.18521E-18-8.85628E-19
 -1      1853 1.20118E-04-3.95007E-05-3.46439E-05 8.68253E-06-5.65712E-19-7.35119E-19
 -1      1854 1.21631E-04-4.01269E-05-3.49428E-05 5.81914E-06-1.47013E-19-7.02404E-19
 -1      1855 1.22359E-04-4.13047E-05-3.47036E-05 1.14067E-05-9.41681E-19-1.64897E-18
 -1      1856 1.20278E-04-3.94089E-05-3.47840E-05 2.36378E-06-2.41801E-19-5.89360E-19
 -1      1857 1.20281E-04-3.89336E-05-3.48523E-05-1.52528E-07-1.06409E-19-2.96131E-19
 -1      1858 1.20952E-04-4.15036E-05-3.40378E-05 3.81931E-06-5.60365E-20-1.58339E-18
 -1      1859 1.18454E-04-3.77569E-05-3.46912E-05-2.56906E-06-2.85668E-19-2.95619E-19
 -1      1860 1.17406E-04-3.68469E-05-3.45164E-05-4.16588E-06-2.07861E-19-7.24915E-19
 -1      1861 1.17610E-04-3.91586E-05-3.36384E-05-2.50728E-06-2.69012E-19-1.12876E-18
 -1      1862 1.15620E-04-3.57545E-05-3.42941E-05-5.40738E-06 1.00856E-19-6.19932E-19
 -1      1863 1.14028E-04-3.48152E-05-3.39437E-05-6.12357E-06 3.33857E-19-8.23951E-19
 -1      1864 1.13835E-04-3.62551E-05-3.32739E-05-6.36511E-06 1.13383E-19-8.29560E-19
 -1      1865 1.12463E-04-3.39838E-05-3.36611E-05-6.48407E-06 4.71966E-19-6.08444E-19
 -1      1866 1.10706E-04-3.31778E-05-3.32241E-05-6.59142E-06 6.81100E-19-1.98871E-19
 -1      1867 1.10366E-04-3.38115E-05-3.28313E-05-8.00964E-06 4.12886E-19-5.47828E-19
 -1      1868 1.09382E-04-3.25924E-05-3.29095E-05-6.42541E-06 6.93938E-19-8.60466E-20
 -1      1869 1.07692E-04-3.19494E-05-3.24585E-05-6.19475E-06 4.14474E-19 1.43584E-19
 -1      1870 1.07404E-04-3.20633E-05-3.23065E-05-8.15993E-06 7.25641E-19-5.14268E-19
 -1      1871 1.06583E-04-3.15442E-05-3.21430E-05-5.77253E-06 2.72655E-19 7.15615E-19
 -1      1872 1.05078E-04-3.10464E-05-3.17240E-05-5.39663E-06 3.06824E-19 9.31644E-19
 -1      1873 1.04932E-04-3.08990E-05-3.17424E-05-7.48142E-06 7.07160E-19-2.41897E-19
 -1      1874 1.04153E-04-3.07617E-05-3.14305E-05-4.88854E-06-1.54870E-19 1.21869E-18
 -1      1875 1.02879E-04-3.03812E-05-3.10658E-05-4.48163E-06-6.97611E-20 1.53108E-18
 -1      1876 1.02883E-04-3.01401E-05-3.11874E-05-6.44114E-06 1.16919E-19 5.28408E-19
 -1      1877 1.02116E-04-3.01759E-05-3.08072E-05-3.98131E-06-2.10734E-19 1.55984E-18
 -1      1878 1.01074E-04-2.98870E-05-3.05033E-05-3.60144E-06-3.63192E-19 1.12724E-18
 -1      1879 1.01196E-04-2.96411E-05-3.06767E-05-5.32008E-06-2.35601E-19 7.78763E-19
 -1      1880 1.00451E-04-2.97354E-05-3.02842E-05-3.15312E-06-4.38100E-19 1.00544E-18
 -1      1881 9.96210E-05-2.95175E-05-3.00389E-05-2.82430E-06-7.00432E-19 6.99945E-19
 -1      1882 9.98186E-05-2.93049E-05-3.02294E-05-4.26606E-06-4.38391E-19 3.38465E-19
 -1      1883 9.91201E-05-2.94039E-05-2.98589E-05-2.44371E-06-4.07742E-19 8.23225E-19
 -1      1884 9.84723E-05-2.92408E-05-2.96655E-05-2.17158E-06-3.02328E-19 1.79825E-19
 -1      1885 9.87074E-05-2.90722E-05-2.98518E-05-3.34398E-06-3.16313E-19 1.79537E-19
 -1      1886 9.80753E-05-2.91552E-05-2.95211E-05-1.85950E-06-6.24383E-19 4.56146E-19
 -1      1887 9.75790E-05-2.90344E-05-2.93717E-05-1.64084E-06-5.35432E-19 4.49076E-19
 -1      1888 9.78228E-05-2.89078E-05-2.95421E-05-2.57208E-06-2.47083E-19 9.65516E-19
 -1      1889 9.72693E-05-2.89702E-05-2.92581E-05-1.39115E-06-1.39999E-19 6.50370E-19
 -1      1890 9.68953E-05-2.88820E-05-2.91447E-05-1.21916E-06 3.89271E-19 1.07305E-18
 -1      1891 9.71286E-05-2.87903E-05-2.92939E-05-1.94482E-06-4.39306E-19 1.38847E-18
 -1      1892 9.66575E-05-2.88342E-05-2.90569E-05-1.02312E-06 7.18262E-19 1.02693E-18
 -1      1893 9.63805E-05-2.87709E-05-2.89723E-05-8.90138E-07 7.26647E-19 1.23819E-18
 -1      1894 9.65922E-05-2.87065E-05-2.90989E-05-1.44612E-06 1.76981E-19 7.21624E-19
 -1      1895 9.62008E-05-2.87360E-05-2.89056E-05-7.38678E-07-5.72550E-20 8.00026E-19
 -1      1896 9.59994E-05-2.86915E-05-2.88436E-05-6.37408E-07-6.24841E-19 2.90089E-19
 -1      1897 9.61840E-05-2.86475E-05-2.89484E-05-1.05657E-06 8.17064E-20 1.06293E-18
 -1      1898 9.58660E-05-2.86664E-05-2.87938E-05-5.22125E-07-6.06188E-19 7.24355E-19
 -1      1899 9.57224E-05-2.86360E-05-2.87492E-05-4.46132E-07 5.92212E-20 9.86674E-19
 -1      1900 9.58788E-05-2.86068E-05-2.88342E-05-7.56984E-07-6.59569E-20 2.31936E-19
 -1      1901 9.56253E-05-2.86185E-05-2.87127E-05-3.59684E-07 4.78383E-19 7.16753E-19
 -1      1902 9.55254E-05-2.85984E-05-2.86813E-05-3.03532E-07 4.41050E-19 1.59161E-18
 -1      1903 9.56546E-05-2.85797E-05-2.87490E-05-5.29997E-07-7.43544E-20 1.41955E-18
 -1      1904 9.54563E-05-2.85866E-05-2.86551E-05-2.39725E-07-3.80477E-19 1.51728E-18
 -1      1905 9.53890E-05-2.85740E-05-2.86337E-05-1.98931E-07-3.15836E-19 1.77250E-18
 -1      1906 9.54933E-05-2.85626E-05-2.86866E-05-3.60617E-07 6.88127E-20 8.55146E-19
 -1      1907 9.53410E-05-2.85664E-05-2.86153E-05-1.52656E-07-5.58315E-19 1.87314E-18
 -1      1908 9.52974E-05-2.85591E-05-2.86011E-05-1.23595E-07-2.21617E-19 1.10964E-18
 -1      1909 9.53801E-05-2.85527E-05-2.86419E-05-2.36284E-07-5.23981E-19 1.01165E-18
 -1      1910 9.52653E-05-2.85545E-05-2.85886E-05-9.07089E-08 4.77485E-20 1.44348E-19
 -1      1911 9.52387E-05-2.85509E-05-2.85798E-05-7.04871E-08 3.20204E-20 7.20171E-20
 -1      1912 9.53030E-05-2.85478E-05-2.86106E-05-1.46686E-07-7.81664E-19 6.09205E-19
 -1      1913 9.52182E-05-2.85485E-05-2.85716E-05-4.76825E-08-1.25902E-19-1.39263E-19
 -1      1914 9.52036E-05-2.85473E-05-2.85664E-05-3.40214E-08 5.79531E-20 5.23280E-19
 -1      1915 9.52526E-05-2.85462E-05-2.85893E-05-8.35031E-08-1.34344E-19 1.01726E-18
 -1      1916 9.51913E-05-2.85463E-05-2.85613E-05-1.86892E-08 2.00158E-19 7.74167E-19
 -1      1917 9.51848E-05-2.85467E-05-2.85588E-05-9.81559E-09-3.12841E-19 3.70058E-19
 -1      1918 9.52214E-05-2.85469E-05-2.85754E-05-4.01102E-08 1.41834E-19 1.23431E-18
 -1      1919 9.51783E-05-2.85466E-05-2.85559E-05 7.49192E-11 7.48685E-19 7.45444E-19
 -1      1920 9.51772E-05-2.85479E-05-2.85551E-05 5.52387E-09 1.19211E-18 1.94257E-18
 -1      1921 9.52039E-05-2.85489E-05-2.85669E-05-1.13044E-08 1.47816E-19 1.46037E-18
 -1      1922 9.51746E-05-2.85485E-05-2.85538E-05 1.15325E-08 5.69359E-19 1.44736E-18
 -1      1923 9.51768E-05-2.85503E-05-2.85540E-05 1.45895E-08 1.51733E-19 1.42521E-18
 -1      1924 9.51958E-05-2.85515E-05-2.85621E-05 6.94852E-09 8.51065E-19 1.60971E-18
 -1      1925 9.51768E-05-2.85512E-05-2.85537E-05 1.78961E-08 3.02972E-19 2.00868E-18
 -1      1926 9.51810E-05-2.85532E-05-2.85546E-05 1.93306E-08 3.28119E-19 3.25542E-18
 -1      1927 9.51939E-05-2.85544E-05-2.85600E-05 1.77317E-08 6.04250E-19 1.98555E-18
 -1      1928 9.51825E-05-2.85542E-05-2.85549E-05 2.08111E-08-6.09667E-19 3.06922E-18
 -1      1929 9.51876E-05-2.85562E-05-2.85562E-05 2.11840E-08-3.87377E-20 3.23941E-18
 -1      1930 9.51959E-05-2.85574E-05-2.85595E-05 2.33627E-08-4.37362E-20 3.07335E-18
 -1      1931 9.51901E-05-2.85573E-05-2.85569E-05 2.14727E-08-8.62035E-19 2.62794E-18
 -1      1932 9.51955E-05-2.85592E-05-2.85583E-05 2.11799E-08-9.65959E-19 2.00824E-18
 -1      1933 9.52002E-05-2.85601E-05-2.85601E-05 2.55471E-08-7.00181E-19 4.23350E-18
 -1      1934 9.51983E-05-2.85603E-05-2.85592E-05 2.07194E-08 5.75294E-19 1.59416E-18
 -1      1935 9.52036E-05-2.85620E-05-2.85607E-05 2.00257E-08 7.36910E-19 3.11115E-18
 -1      1936 9.52057E-05-2.85627E-05-2.85613E-05 2.55038E-08-5.39278E-19 4.26451E-18
 -1      1937 9.52066E-05-2.85630E-05-2.85616E-05 1.91054E-08 4.89530E-19 4.61033E-18
 -1      1938 9.52115E-05-2.85646E-05-2.85629E-05 1.81691E-08 1.95121E-18 5.65698E-18
 -1      1939 9.52117E-05-2.85650E-05-2.85629E-05 2.40646E-08 1.56703E-18 5.17209E-18
 -1      1940 9.52143E-05-2.85656E-05-2.85638E-05 1.69540E-08 1.47525E-18 4.55318E-18
 -1      1941 9.52187E-05-2.85670E-05-2.85650E-05 1.58447E-08 1.31747E-18 3.55153E-18
 -1      1942 9.52176E-05-2.85671E-05-2.85645E-05 2.17503E-08 9.96496E-19 4.29225E-18
 -1      1943 9.52213E-05-2.85678E-05-2.85658E-05 1.44034E-08 2.94162E-19 2.30138E-18
 -1      1944 9.52250E-05-2.85691E-05-2.85669E-05 1.31184E-08-7.59366E-19 1.37111E-18
 -1      1945 9.52231E-05-2.85691E-05-2.85660E-05 1.88329E-08-1.35100E-19 2.20445E-18
 -1      1946 9.52273E-05-2.85699E-05-2.85675E-05 1.14496E-08-3.61057E-19 7.32145E-19
 -1      1947 9.52303E-05-2.85709E-05-2.85683E-05 9.92379E-09 3.29681E-19 1.24596E-18
 -1      1948 9.52280E-05-2.85709E-05-2.85673E-05 1.54020E-08-1.11556E-18 1.55481E-18
 -1      1949 9.52320E-05-2.85716E-05-2.85688E-05 8.10155E-09 7.51841E-19 1.37491E-18
 -1      1950 9.52341E-05-2.85724E-05-2.85694E-05 6.36195E-09 4.58849E-19 1.50354E-18
 -1      1951 9.52350E-05-2.85736E-05-2.85692E-05 7.46751E-09-6.63220E-19 6.63893E-19
 -1      1952 9.52320E-05-2.85725E-05-2.85683E-05 1.15493E-08 6.46908E-19 1.31510E-18
 -1      1953 1.05174E-04-3.12873E-05-3.16476E-05-2.03154E-08 1.04358E-18 1.06030E-18
 -1      1954 1.05739E-04-3.11666E-05-3.19084E-05 7.40229E-07 1.11943E-18 1.40592E-18
 -1      1955 1.05738E-04-3.06340E-05-3.21995E-05 1.56858E-06 1.35570E-18 8.33732E-19
 -1      1956 1.04924E-04-3.16648E-05-3.13920E-05-2.61345E-07 7.97808E-19 5.04957E-19
 -1      1957 1.05063E-04-3.15319E-05-3.14770E-05-1.87120E-07 7.83115E-19 8.64060E-19
 -1      1958 1.05170E-04-3.14273E-05-3.16105E-05 6.67441E-08 9.99582E-19 5.59201E-19
 -1      1959 1.04736E-04-3.19399E-05-3.12077E-05 5.32251E-07 5.41188E-19 1.29434E-19
 -1      1960 1.04900E-04-3.18698E-05-3.12879E-05 1.30852E-07 6.72349E-19 4.15797E-19
 -1      1961 1.05061E-04-3.19992E-05-3.13135E-05 1.84232E-07 8.40485E-19 1.83578E-19
 -1      1962 1.04072E-04-3.19494E-05-3.09228E-05 2.05649E-06 1.31396E-19-1.58066E-19
 -1      1963 1.04565E-04-3.20454E-05-3.10863E-05 1.30942E-06 2.49173E-19 7.58831E-20
 -1      1964 1.04906E-04-3.23695E-05-3.10783E-05 1.44095E-06 3.21942E-19-3.63480E-20
 -1      1965 1.02559E-04-3.14913E-05-3.04638E-05 3.88759E-06 1.52982E-19-7.11706E-20
 -1      1966 1.03553E-04-3.18435E-05-3.07458E-05 2.99214E-06 3.87518E-20-3.07612E-19
 -1      1967 1.04242E-04-3.23448E-05-3.07929E-05 3.40373E-06 6.10525E-20-4.03892E-19
 -1      1968 1.00104E-04-3.04427E-05-2.98488E-05 5.36476E-06 3.12155E-19-5.32837E-20
 -1      1969 1.01590E-04-3.10770E-05-3.02318E-05 4.63792E-06 3.16691E-19 9.21347E-20
 -1      1970 1.02754E-04-3.16964E-05-3.04269E-05 5.43655E-06 3.33390E-19-2.77311E-19
 -1      1971 9.70399E-05-2.89078E-05-2.91843E-05 5.69178E-06 3.03139E-19-3.32560E-19
 -1      1972 9.87799E-05-2.97256E-05-2.95975E-05 5.51379E-06 3.74461E-19-1.93560E-20
 -1      1973 1.00431E-04-3.03450E-05-3.00163E-05 6.65799E-06 4.36961E-19 1.92025E-19
 -1      1974 9.41658E-05-2.73222E-05-2.86342E-05 4.30373E-06 5.84870E-19-3.91541E-19
 -1      1975 9.57088E-05-2.80792E-05-2.89715E-05 4.93412E-06 3.76672E-19-3.75123E-19
 -1      1976 9.77204E-05-2.85551E-05-2.96420E-05 6.18997E-06 4.85797E-19 2.85794E-19
 -1      1977 9.25158E-05-2.63405E-05-2.83596E-05 1.32919E-06 1.13721E-18-5.28900E-19
 -1      1978 9.33427E-05-2.67316E-05-2.85177E-05 2.69044E-06 9.61892E-19-4.60045E-19
 -1      1979 9.55043E-05-2.69722E-05-2.93947E-05 3.67132E-06 9.15510E-19-2.09839E-20
 -1      1980 9.28339E-05-2.64610E-05-2.84547E-05-2.27248E-06 5.17120E-19-8.51903E-19
 -1      1981 9.26035E-05-2.62966E-05-2.83760E-05-6.37165E-07 9.04737E-19-6.25234E-19
 -1      1982 9.47178E-05-2.63361E-05-2.93406E-05-3.06030E-07 8.97776E-19-2.19942E-19
 -1      1983 9.50925E-05-2.76609E-05-2.89076E-05-5.17675E-06 4.40110E-19-1.84053E-18
 -1      1984 9.38377E-05-2.69989E-05-2.86061E-05-3.86495E-06 2.50067E-19-1.32030E-18
 -1      1985 9.57746E-05-2.69931E-05-2.95009E-05-4.33533E-06 7.23948E-19-6.75548E-19
 -1      1986 9.84938E-05-2.94139E-05-2.96032E-05-6.45478E-06 2.53906E-19-1.57088E-18
 -1      1987 9.66093E-05-2.85166E-05-2.91595E-05-5.86385E-06 4.61289E-19-1.60110E-18
 -1      1988 9.82751E-05-2.86414E-05-2.98462E-05-6.97466E-06 4.47035E-19-8.56403E-19
 -1      1989 1.01949E-04-3.10594E-05-3.03668E-05-6.00083E-06-7.93511E-19-1.53347E-18
 -1      1990 9.99808E-05-3.02257E-05-2.98944E-05-6.16127E-06-3.41854E-19-1.74120E-18
 -1      1991 1.01276E-04-3.05510E-05-3.03002E-05-7.54210E-06-5.13927E-20-1.32843E-18
 -1      1992 1.04614E-04-3.21666E-05-3.10286E-05-4.37761E-06-3.90667E-19-1.55818E-18
 -1      1993 1.03014E-04-3.15860E-05-3.06305E-05-5.04024E-06-4.83957E-19-1.59099E-18
 -1      1994 1.03850E-04-3.20470E-05-3.07601E-05-6.30807E-06-6.29458E-19-1.52637E-18
 -1      1995 1.06123E-04-3.26402E-05-3.14746E-05-2.34666E-06 5.91993E-19-1.91276E-18
 -1      1996 1.05124E-04-3.23586E-05-3.12138E-05-3.18798E-06 1.28643E-19-1.65622E-18
 -1      1997 1.05473E-04-3.28214E-05-3.11288E-05-4.09308E-06 4.67873E-19-1.31204E-18
 -1      1998 1.06517E-04-3.26033E-05-3.16650E-05-4.96218E-07 7.72623E-19-1.25655E-18
 -1      1999 1.06138E-04-3.25725E-05-3.15578E-05-1.26912E-06 9.51946E-19-1.41900E-18
 -1      2000 1.06060E-04-3.29245E-05-3.13418E-05-1.72830E-06 8.71306E-19-1.51741E-18
 -1      2001 1.06045E-04-3.22466E-05-3.16225E-05 8.79174E-07-3.06249E-19-1.36277E-18
 -1      2002 1.06175E-04-3.23847E-05-3.16494E-05 2.99025E-07 1.59335E-19-1.36823E-18
 -1      2003 1.05793E-04-3.25781E-05-3.13792E-05 2.45417E-07 3.95614E-19-6.62756E-19
 -1      2004 1.05014E-04-3.17364E-05-3.14044E-05 1.72459E-06-5.06557E-19-1.54814E-18
 -1      2005 1.05493E-04-3.19668E-05-3.15285E-05 1.36224E-06-2.85027E-19-1.46105E-18
 -1      2006 1.04946E-04-3.20113E-05-3.12599E-05 1.61265E-06-1.81966E-19-1.10611E-18
 -1      2007 1.03696E-04-3.11869E-05-3.10777E-05 2.11879E-06-3.21594E-19-2.28246E-18
 -1      2008 1.04367E-04-3.14523E-05-3.12591E-05 1.94357E-06-6.26579E-19-2.21924E-18
 -1      2009 1.03774E-04-3.13876E-05-3.10248E-05 2.38407E-06-2.12043E-19-1.93568E-18
 -1      2010 1.02294E-04-3.06643E-05-3.07019E-05 2.18697E-06 4.95717E-19-2.79912E-18
 -1      2011 1.03035E-04-3.09277E-05-3.09069E-05 2.14831E-06 2.78171E-19-2.25363E-18
 -1      2012 1.02477E-04-3.07996E-05-3.07207E-05 2.68004E-06 3.20064E-19-2.20140E-18
 -1      2013 1.00944E-04-3.02012E-05-3.03218E-05 2.05008E-06-5.47051E-19-2.53283E-18
 -1      2014 1.01671E-04-3.04417E-05-3.05261E-05 2.09848E-06 4.78110E-21-2.55725E-18
 -1      2015 1.01194E-04-3.02882E-05-3.03894E-05 2.64795E-06-1.36132E-19-2.23047E-18
 -1      2016 9.97259E-05-2.98093E-05-2.99670E-05 1.80399E-06-9.07657E-19-2.32810E-18
 -1      2017 1.00388E-04-3.00172E-05-3.01552E-05 1.89983E-06-1.33637E-18-2.45231E-18
 -1      2018 1.00007E-04-2.98644E-05-3.00625E-05 2.41906E-06-8.63978E-19-1.47209E-18
 -1      2019 9.86761E-05-2.94888E-05-2.96538E-05 1.51582E-06-1.31535E-19-1.22231E-18
 -1      2020 9.92487E-05-2.96614E-05-2.98180E-05 1.63108E-06-5.11239E-19-2.06807E-18
 -1      2021 9.89635E-05-2.95243E-05-2.97609E-05 2.09312E-06-6.74796E-19-1.21846E-18
 -1      2022 9.78039E-05-2.92338E-05-2.93886E-05 1.22798E-06-3.50519E-19-5.14189E-19
 -1      2023 9.82795E-05-2.93725E-05-2.95260E-05 1.34473E-06 9.84055E-20-6.46163E-19
 -1      2024 9.80786E-05-2.92579E-05-2.94959E-05 1.73799E-06-2.91380E-19-8.50742E-19
 -1      2025 9.71010E-05-2.90357E-05-2.91716E-05 9.64347E-07 3.57926E-19 6.15663E-19
 -1      2026 9.74833E-05-2.91440E-05-2.92828E-05 1.07232E-06 5.83138E-20 4.71098E-20
 -1      2027 9.73513E-05-2.90533E-05-2.92719E-05 1.39538E-06-4.96474E-21 2.00350E-19
 -1      2028 9.65497E-05-2.88854E-05-2.89993E-05 7.36188E-07-8.26382E-19 1.36432E-19
 -1      2029 9.68482E-05-2.89678E-05-2.90867E-05 8.30361E-07-1.53800E-19 5.33253E-19
 -1      2030 9.67693E-05-2.88992E-05-2.90885E-05 1.08790E-06-7.78096E-20 8.42934E-19
 -1      2031 9.61280E-05-2.87739E-05-2.88661E-05 5.46733E-07 5.32560E-20 1.03223E-18
 -1      2032 9.63549E-05-2.88350E-05-2.89328E-05 6.25469E-07-4.08941E-19 4.63900E-19
 -1      2033 9.63149E-05-2.87853E-05-2.89425E-05 8.25301E-07-5.79276E-19 1.71248E-18
 -1      2034 9.58134E-05-2.86933E-05-2.87656E-05 3.94530E-07 4.30095E-19 1.29440E-18
 -1      2035 9.59814E-05-2.87374E-05-2.88153E-05 4.58195E-07 3.76325E-19 1.13990E-18
 -1      2036 9.59685E-05-2.87031E-05-2.88292E-05 6.09299E-07 2.25419E-19 2.47478E-18
 -1      2037 9.55849E-05-2.86366E-05-2.86919E-05 2.75676E-07-2.06024E-20-1.46614E-19
 -1      2038 9.57058E-05-2.86675E-05-2.87279E-05 3.25715E-07 1.83663E-19 4.75460E-19
 -1      2039 9.57106E-05-2.86451E-05-2.87434E-05 4.37024E-07 6.25819E-19 1.44836E-18
 -1      2040 9.54238E-05-2.85981E-05-2.86392E-05 1.85256E-07 1.24354E-18-1.58054E-18
 -1      2041 9.55080E-05-2.86190E-05-2.86645E-05 2.23584E-07 2.97796E-19-9.24620E-19
 -1      2042 9.55234E-05-2.86054E-05-2.86801E-05 3.03301E-07 1.01393E-18-3.38481E-19
 -1      2043 9.53141E-05-2.85732E-05-2.86029E-05 1.18202E-07 1.03331E-18-9.46673E-19
 -1      2044 9.53705E-05-2.85865E-05-2.86200E-05 1.46838E-07 1.27167E-18-1.29633E-18
 -1      2045 9.53915E-05-2.85793E-05-2.86346E-05 2.02106E-07 1.28829E-18-1.00074E-18
 -1      2046 9.52428E-05-2.85580E-05-2.85789E-05 6.97830E-08-1.44858E-18-3.37382E-20
 -1      2047 9.52786E-05-2.85659E-05-2.85899E-05 9.06395E-08 2.91864E-20 3.21574E-19
 -1      2048 9.53017E-05-2.85631E-05-2.86029E-05 1.27440E-07-1.99013E-19 1.59771E-18
 -1      2049 9.51994E-05-2.85497E-05-2.85639E-05 3.58419E-08 3.35224E-20-4.27121E-19
 -1      2050 9.52204E-05-2.85538E-05-2.85705E-05 5.06147E-08-8.58103E-19-4.29323E-19
 -1      2051 9.52433E-05-2.85539E-05-2.85817E-05 7.38038E-08-6.13742E-19 1.93119E-18
 -1      2052 9.51758E-05-2.85461E-05-2.85553E-05 1.28756E-08-7.73488E-20-9.88047E-19
 -1      2053 9.51864E-05-2.85477E-05-2.85588E-05 2.30058E-08 3.11194E-19-5.26594E-19
 -1      2054 9.52077E-05-2.85495E-05-2.85682E-05 3.64221E-08 6.41495E-19 1.50612E-18
 -1      2055 9.51657E-05-2.85456E-05-2.85512E-05-1.97325E-09-1.00265E-18-1.24142E-18
 -1      2056 9.51694E-05-2.85456E-05-2.85526E-05 4.69855E-09-9.54323E-19-1.82951E-18
 -1      2057 9.51883E-05-2.85483E-05-2.85603E-05 1.13039E-08-1.10310E-19 3.43827E-19
 -1      2058 9.51646E-05-2.85471E-05-2.85502E-05-1.09723E-08 7.75025E-19-1.21297E-18
 -1      2059 9.51637E-05-2.85460E-05-2.85502E-05-6.81262E-09 1.07308E-19-1.61969E-18
 -1      2060 9.51799E-05-2.85491E-05-2.85563E-05-4.78584E-09-2.71280E-19-1.34975E-18
 -1      2061 9.51691E-05-2.85497E-05-2.85510E-05-1.58770E-08-9.90621E-19-6.46309E-19
 -1      2062 9.51655E-05-2.85480E-05-2.85502E-05-1.34920E-08 6.06464E-20-9.70980E-19
 -1      2063 9.51790E-05-2.85511E-05-2.85550E-05-1.44008E-08-1.07810E-19-1.12669E-18
 -1      2064 9.51767E-05-2.85528E-05-2.85530E-05-1.80114E-08-1.10656E-18 2.19247E-19
 -1      2065 9.51716E-05-2.85509E-05-2.85517E-05-1.68410E-08-8.81658E-19 5.75516E-20
 -1      2066 9.51826E-05-2.85538E-05-2.85553E-05-1.95066E-08-1.29714E-18-3.62412E-19
 -1      2067 9.51859E-05-2.85560E-05-2.85556E-05-1.83449E-08 5.36237E-19-1.40640E-18
 -1      2068 9.51802E-05-2.85541E-05-2.85540E-05-1.79763E-08-5.75269E-19-1.10758E-18
 -1      2069 9.51888E-05-2.85566E-05-2.85567E-05-2.15762E-08-1.74898E-19-2.87189E-19
 -1      2070 9.51956E-05-2.85592E-05-2.85584E-05-1.75584E-08-3.56976E-19 5.51785E-19
 -1      2071 9.51898E-05-2.85573E-05-2.85568E-05-1.76998E-08 1.70499E-19-4.73155E-19
 -1      2072 9.51963E-05-2.85595E-05-2.85587E-05-2.16777E-08-4.01327E-19 1.49889E-19
 -1      2073 9.52050E-05-2.85622E-05-2.85611E-05-1.60988E-08 1.53631E-18 3.92957E-21
 -1      2074 9.51994E-05-2.85604E-05-2.85596E-05-1.65584E-08 6.94926E-19 6.90279E-19
 -1      2075 9.52042E-05-2.85622E-05-2.85609E-05-2.05497E-08 7.30111E-19 9.19096E-19
 -1      2076 9.52136E-05-2.85649E-05-2.85637E-05-1.42174E-08 4.10704E-19-1.00227E-18
 -1      2077 9.52086E-05-2.85633E-05-2.85623E-05-1.48892E-08 9.65013E-19-4.81967E-19
 -1      2078 9.52119E-05-2.85647E-05-2.85631E-05-1.86620E-08 1.43027E-18 2.03041E-19
 -1      2079 9.52213E-05-2.85673E-05-2.85660E-05-1.20055E-08-1.81814E-18 3.06368E-19
 -1      2080 9.52169E-05-2.85659E-05-2.85647E-05-1.28549E-08-7.73678E-19 1.73578E-19
 -1      2081 9.52189E-05-2.85670E-05-2.85651E-05-1.62584E-08-1.38087E-18 6.73575E-19
 -1      2082 9.52276E-05-2.85694E-05-2.85678E-05-9.42060E-09 6.81200E-20 3.03223E-19
 -1      2083 9.52241E-05-2.85683E-05-2.85668E-05-1.04802E-08-8.21499E-19-2.63179E-20
 -1      2084 9.52251E-05-2.85691E-05-2.85669E-05-1.34123E-08-1.12397E-18 6.42115E-19
 -1      2085 9.52326E-05-2.85712E-05-2.85692E-05-6.34605E-09-3.00845E-19 1.39420E-18
 -1      2086 9.52299E-05-2.85702E-05-2.85685E-05-7.69362E-09-2.01046E-19 1.37126E-18
 -1      2087 9.52303E-05-2.85709E-05-2.85683E-05-1.00814E-08-5.66902E-19 1.98731E-18
 -1      2088 9.52355E-05-2.85722E-05-2.85700E-05-3.71252E-09 6.84936E-19 2.50496E-18
 -1      2089 9.52337E-05-2.85717E-05-2.85695E-05-5.27247E-09 7.00219E-20 2.08441E-18
 -1      2090 9.52338E-05-2.85723E-05-2.85692E-05-7.07927E-09-2.34493E-19 2.69096E-18
 -1      2091 9.52359E-05-2.85732E-05-2.85697E-05-4.64958E-09 1.31032E-19 3.33530E-18
 -1      2092 9.52417E-05-2.85858E-05-2.85668E-05-1.03560E-08 1.05457E-18-2.25085E-18
 -1      2093 9.52405E-05-2.85831E-05-2.85674E-05-1.02880E-08 6.42018E-19-1.82295E-18
 -1      2094 9.52393E-05-2.85809E-05-2.85679E-05-9.82667E-09 4.18684E-20-2.43082E-18
 -1      2095 9.52381E-05-2.85783E-05-2.85685E-05-8.99104E-09 1.03867E-18-5.05283E-19
 -1      2096 9.52394E-05-2.85813E-05-2.85678E-05-1.26970E-08-6.21972E-19-1.72233E-18
 -1      2097 9.52374E-05-2.85767E-05-2.85689E-05-7.74853E-09 2.62394E-19 4.61020E-19
 -1      2098 9.52364E-05-2.85747E-05-2.85694E-05-6.29347E-09-4.30295E-19 2.48384E-18
 -1      2099 9.52356E-05-2.85743E-05-2.85691E-05-7.63873E-09-4.51963E-19 1.95805E-18
 -1      2100 9.52372E-05-2.85774E-05-2.85685E-05-1.07546E-08-3.78690E-19 2.88525E-19
 -1      2101 9.52438E-05-2.85904E-05-2.85657E-05-9.45070E-09 6.50553E-19-3.66014E-18
 -1      2102 9.52427E-05-2.85879E-05-2.85663E-05-9.99612E-09 8.20288E-19-1.82667E-18
 -1      2103 9.52420E-05-2.85858E-05-2.85670E-05-1.27632E-08 4.46715E-19-2.78731E-18
 -1      2104 9.52454E-05-2.85942E-05-2.85648E-05-7.34953E-09 2.90305E-18-1.26574E-18
 -1      2105 9.52446E-05-2.85922E-05-2.85653E-05-8.39168E-09 2.12543E-18-2.57018E-18
 -1      2106 9.52442E-05-2.85898E-05-2.85662E-05-1.11619E-08 1.69609E-18-2.16863E-18
 -1      2107 9.52466E-05-2.85968E-05-2.85641E-05-4.40382E-09 1.94375E-18 2.58009E-18
 -1      2108 9.52460E-05-2.85955E-05-2.85645E-05-5.77430E-09 2.75586E-18 4.29387E-19
 -1      2109 9.52459E-05-2.85929E-05-2.85656E-05-8.20302E-09 3.65809E-18-4.70461E-19
 -1      2110 9.52471E-05-2.85980E-05-2.85638E-05-9.82345E-10-1.16399E-19-1.01218E-18
 -1      2111 9.52469E-05-2.85975E-05-2.85639E-05-2.51743E-09 6.58401E-19 1.78699E-18
 -1      2112 9.52470E-05-2.85950E-05-2.85652E-05-4.32563E-09 1.80595E-18 8.71007E-19
 -1      2113 9.52469E-05-2.85975E-05-2.85639E-05 2.54432E-09 1.04766E-18 1.06220E-19
 -1      2114 9.52471E-05-2.85980E-05-2.85638E-05 1.00872E-09 2.91933E-19 9.57607E-20
 -1      2115 9.52473E-05-2.85957E-05-2.85651E-05 1.52736E-11-4.16221E-19 1.09412E-19
 -1      2116 9.52460E-05-2.85955E-05-2.85645E-05 5.80347E-09-5.27538E-19-7.80158E-19
 -1      2117 9.52466E-05-2.85968E-05-2.85641E-05 4.43265E-09-9.65237E-20-9.32192E-19
 -1      2118 9.52470E-05-2.85950E-05-2.85652E-05 4.35826E-09-1.13567E-19-1.47379E-18
 -1      2119 9.52446E-05-2.85922E-05-2.85653E-05 8.38537E-09-1.97919E-19-1.94636E-18
 -1      2120 9.52455E-05-2.85942E-05-2.85648E-05 7.35808E-09-9.13050E-19 1.66277E-19
 -1      2121 9.52459E-05-2.85929E-05-2.85656E-05 8.21310E-09-9.76477E-19-6.96052E-19
 -1      2122 9.52427E-05-2.85879E-05-2.85663E-05 1.00097E-08 1.15125E-18 1.24122E-18
 -1      2123 9.52438E-05-2.85904E-05-2.85657E-05 9.45477E-09 6.12043E-19-8.09228E-19
 -1      2124 9.52442E-05-2.85898E-05-2.85662E-05 1.11611E-08 6.57997E-20-4.92885E-19
 -1      2125 9.52404E-05-2.85831E-05-2.85675E-05 1.02987E-08 1.00745E-18-1.05096E-18
 -1      2126 9.52417E-05-2.85858E-05-2.85668E-05 1.03745E-08 1.27612E-18-2.87946E-19
 -1      2127 9.52420E-05-2.85858E-05-2.85670E-05 1.27810E-08 1.10192E-18 9.09840E-19
 -1      2128 9.52380E-05-2.85782E-05-2.85685E-05 9.03933E-09-7.88450E-19-1.50415E-18
 -1      2129 9.52393E-05-2.85808E-05-2.85679E-05 9.82847E-09-1.25626E-19-1.60559E-18
 -1      2130 9.52394E-05-2.85813E-05-2.85678E-05 1.26958E-08 2.73506E-19-2.36021E-18
 -1      2131 6.07823E-05-3.99738E-05-9.34517E-06 4.15793E-05 2.04686E-18 5.80196E-18
 -1      2132 4.63482E-05-4.02526E-05-3.51273E-06 3.64960E-05 7.60636E-19 4.61442E-18
 -1      2133 1.18896E-05-3.23761E-05 7.66023E-06 7.13380E-06-8.73079E-19 4.23728E-18
 -1      2134 1.21615E-05-3.55574E-05 8.43581E-06-2.64141E-06-2.03330E-18 5.44176E-18
 -1      2135 2.90492E-05-3.19713E-05 8.46536E-07 3.06097E-05 2.90956E-19 4.78531E-18
 -1      2136 1.98121E-05-3.33067E-05 4.75071E-06 1.92960E-05-8.61856E-19 4.76456E-18
 -1      2137 9.57284E-05-4.17654E-05-2.30511E-05 4.37423E-05 3.21364E-18 4.22437E-18
 -1      2138 7.70123E-05-4.37633E-05-1.52633E-05 3.95191E-05 2.34332E-18 4.64174E-18
 -1      2139 1.32429E-04-4.13130E-05-3.86111E-05 3.69015E-05 3.70598E-18 2.10276E-18
 -1      2140 1.12292E-04-4.25653E-05-3.04734E-05 3.63547E-05 3.74219E-18 2.60209E-18
 -1      2141 8.52605E-05-6.95039E-06-3.36747E-05-3.93001E-06-1.94464E-18-7.71263E-19
 -1      2142 8.82091E-05-8.17046E-06-3.43518E-05-5.20316E-06-2.13487E-18-1.47172E-19
 -1      2143 9.17349E-05-1.22974E-05-3.40991E-05-4.57417E-06-2.13663E-18 1.57853E-19
 -1      2144 8.50710E-05-8.15416E-06-3.29795E-05-2.82875E-06-1.97530E-18-8.48959E-19
 -1      2145 1.77582E-04-2.66873E-05-6.31762E-05 9.02997E-06 4.11997E-18 1.78512E-19
 -1      2146 1.62622E-04-2.65699E-05-5.79369E-05 1.09168E-05 3.98953E-18 2.36746E-19
 -1      2147 1.76105E-04-2.11243E-05-6.57812E-05-1.01888E-06 4.65106E-18-1.11761E-18
 -1      2148 1.77805E-04-2.35468E-05-6.51801E-05 5.91024E-06 4.58838E-18 1.13291E-19
 -1      2149 1.55275E-04-1.50101E-05-5.92650E-05-2.36128E-06 4.64174E-18-1.38257E-18
 -1      2150 1.70507E-04-2.32266E-05-6.25820E-05-7.80285E-06 5.17156E-18-2.19720E-18
 -1      2151 1.76978E-04-2.24296E-05-6.52546E-05-2.73521E-06 4.73068E-18-1.15800E-18
 -1      2152 1.58962E-04-3.25036E-05-5.37536E-05-2.02493E-05 4.69352E-18-2.96334E-18
 -1      2153 1.70770E-04-3.05254E-05-5.92434E-05-1.42997E-05 4.87425E-18-2.15358E-18
 -1      2154 1.33365E-04-4.01270E-05-4.01270E-05-3.16528E-05 4.72517E-18-3.67062E-18
 -1      2155 1.51383E-04-3.87030E-05-4.75348E-05-2.88883E-05 4.41389E-18-3.16324E-18
 -1      2156 1.03058E-04-4.63498E-05-2.46365E-05-3.84355E-05 3.52281E-18-3.29750E-18
 -1      2157 1.21123E-04-4.25853E-05-3.31229E-05-4.00819E-05 4.38763E-18-3.95564E-18
 -1      2158 1.35042E-04-5.09786E-05-3.57955E-05-2.56834E-05 2.78864E-18-1.63096E-18
 -1      2159 5.73986E-05-4.19446E-05-7.90833E-06-3.75212E-05 3.27844E-18-4.27013E-18
 -1      2160 7.86183E-05-4.25183E-05-1.58634E-05-4.37689E-05 2.99214E-18-3.61302E-18
 -1      2161 3.11752E-05-3.50158E-05 8.23036E-07-3.02385E-05 1.39083E-18-4.44353E-18
 -1      2162 4.26184E-05-3.67570E-05-3.35470E-06-3.64320E-05 2.98833E-18-4.43951E-18
 -1      2163 6.00040E-05-4.04521E-05-8.59432E-06-4.26126E-05 4.76880E-19-3.58888E-18
 -1      2164 1.32349E-05-3.32635E-05 7.13297E-06-7.66369E-06 5.10284E-19-4.87637E-18
 -1      2165 1.68722E-05-2.86838E-05 4.34611E-06-1.87479E-05 1.35314E-18-5.12751E-18
 -1      2166 1.50661E-05-3.20610E-05 6.14042E-06 1.20910E-05-4.68833E-19-4.25803E-18
 -1      2167 1.23097E-05-3.31254E-05 7.53928E-06 2.21719E-06 6.55577E-19-4.27498E-18
 -1      2168 1.47676E-05-2.14898E-05 2.40600E-06-2.84078E-06 5.17484E-20-5.06314E-18
 -1      2169 3.49264E-05-3.72174E-05-1.45030E-07 2.97400E-05-1.76395E-18-5.13344E-18
 -1      2170 2.45909E-05-3.78824E-05 4.09804E-06 2.18338E-05-5.86994E-19-4.48906E-18
 -1      2171 6.88890E-05-4.15028E-05-1.22266E-05 4.09182E-05-2.46275E-18-4.98309E-18
 -1      2172 5.27999E-05-4.30229E-05-5.62806E-06 3.42062E-05-1.47384E-18-4.94244E-18
 -1      2173 1.09663E-04-4.63531E-05-2.70500E-05 4.05157E-05-2.68552E-18-3.95226E-18
 -1      2174 8.94400E-05-4.73999E-05-1.90845E-05 3.72758E-05-2.18026E-18-4.03738E-18
 -1      2175 1.44418E-04-4.64421E-05-4.18216E-05 2.97859E-05-3.31253E-18-2.83925E-18
 -1      2176 1.23116E-04-4.64573E-05-3.35030E-05 3.23314E-05-3.14969E-18-3.67570E-18
 -1      2177 1.28203E-04-5.76587E-05-2.98867E-05 2.87869E-05-6.91391E-19-1.96914E-18
 -1      2178 1.68383E-04-3.73033E-05-5.56779E-05 1.05774E-05-3.68025E-18-1.45393E-18
 -1      2179 1.54943E-04-4.06321E-05-4.89817E-05 1.56121E-05-3.61852E-18-1.92700E-18
 -1      2180 1.81409E-04-2.68186E-05-6.51056E-05 3.45949E-06-4.34697E-18-9.57783E-19
 -1      2181 1.70506E-04-2.72262E-05-6.11524E-05 6.49997E-06-4.29340E-18-1.39887E-18
 -1      2182 1.86508E-04-2.55848E-05-6.76014E-05-2.07439E-06-5.10676E-18 4.63645E-19
 -1      2183 1.83662E-04-2.51186E-05-6.71489E-05 3.72553E-06-4.69468E-18-9.82982E-19
 -1      2184 1.60866E-04-1.61580E-05-6.08972E-05-2.49806E-06-4.75440E-18 5.19655E-19
 -1      2185 1.76501E-04-2.85025E-05-6.27354E-05-8.76218E-06-5.63277E-18 1.87872E-18
 -1      2186 1.88211E-04-2.89375E-05-6.65880E-05-4.65730E-06-5.22789E-18 8.17810E-19
 -1      2187 1.59902E-04-3.84881E-05-5.17669E-05-1.90197E-05-5.35214E-18 2.26962E-18
 -1      2188 1.72467E-04-3.62921E-05-5.74768E-05-1.26538E-05-5.26918E-18 1.34848E-18
 -1      2189 1.35053E-04-4.45258E-05-3.91883E-05-2.75141E-05-5.06801E-18 2.03966E-18
 -1      2190 1.53948E-04-4.29452E-05-4.67241E-05-2.70559E-05-5.06907E-18 2.19339E-18
 -1      2191 1.56345E-04-4.54532E-05-4.67905E-05-6.14788E-06-3.51451E-18-9.59688E-19
 -1      2192 1.01589E-04-4.86426E-05-2.35946E-05-3.53762E-05-4.10642E-18 3.39152E-18
 -1      2193 1.21601E-04-4.79884E-05-3.12866E-05-3.65892E-05-4.50410E-18 2.80580E-18
 -1      2194 6.97986E-05-4.63939E-05-1.11286E-05-3.65427E-05-3.79810E-18 4.29912E-18
 -1      2195 8.68585E-05-4.52049E-05-1.79778E-05-4.09312E-05-4.26269E-18 4.67605E-18
 -1      2196 1.09519E-04-5.72338E-05-2.23751E-05-3.57757E-05-1.15324E-18 9.62018E-19
 -1      2197 3.51170E-05-4.10299E-05 9.43155E-07-2.72686E-05-2.30647E-18 5.57369E-18
 -1      2198 4.77110E-05-3.92644E-05-4.34785E-06-3.55378E-05-3.70746E-18 4.69955E-18
 -1      2199 1.68547E-05-3.78581E-05 7.28762E-06-1.31665E-05-1.77157E-18 5.80048E-18
 -1      2200 2.36448E-05-3.69409E-05 4.49927E-06-2.12897E-05-2.71305E-18 6.66318E-18
 -1      2201 3.57359E-05-3.46097E-05-1.14524E-06-3.13049E-05-7.32683E-20 5.56776E-18
 -1      2202 1.57707E-04-3.67970E-05-5.16478E-05 1.77227E-05 3.32365E-18 2.39287E-19
 -1      2203 1.43711E-04-3.85336E-05-4.49785E-05 2.57680E-05 3.39893E-18 1.67458E-18
 -1      2204 1.15961E-04-5.24802E-05-2.70415E-05 3.55561E-05 1.32074E-18 1.42640E-18
 -1      2205 1.08801E-04-2.78015E-05-3.47718E-05-4.18681E-06-1.53644E-18 4.04726E-18
 -1      2206 1.42394E-04-4.74608E-05-4.00589E-05 1.91284E-05 2.16046E-18-5.26854E-19
 -1      2207 1.47254E-04-2.62376E-05-5.25602E-05-6.21946E-06 2.81046E-18-1.66929E-18
 -1      2208 1.56108E-04-3.20037E-05-5.27688E-05 6.32171E-06 3.08871E-18-4.09117E-19
 -1      2209 1.47205E-04-3.70891E-05-4.69804E-05-2.72779E-08 1.94182E-18-1.96173E-18
 -1      2210 1.06252E-04-2.59131E-05-3.45192E-05-3.28733E-06-1.64066E-18 2.61916E-18
 -1      2211 4.49006E-05-3.50080E-05-4.50966E-06 3.76521E-05-8.22469E-19 4.74211E-18
 -1      2212 1.88181E-05-2.40640E-05 1.88964E-06 1.62835E-05-9.28772E-19 4.97124E-18
 -1      2213 9.52371E-05-2.85766E-05-2.85688E-05 8.76393E-09-7.15801E-19-1.06829E-18
 -1      2214 8.13536E-05-4.80527E-05-1.45116E-05 4.34287E-05 9.10560E-20 3.84034E-18
 -1      2215 1.66384E-05-2.70019E-05 3.61310E-06-1.12266E-05-1.04482E-18 5.81022E-18
 -1      2216 7.11503E-05-4.68357E-05-1.06774E-05-4.07481E-05-6.87791E-19 3.83589E-18
 -1      2217 1.38331E-04-5.66991E-05-3.47366E-05-2.14804E-05-2.51908E-18-4.45116E-19
 -1      2218 1.65521E-04-1.68971E-05-6.24340E-05 2.11286E-06-5.70011E-18 3.68989E-19
 -1      2219 1.51184E-04-5.00597E-05-4.28005E-05 9.69138E-06-2.24691E-18-2.55380E-19
 -1      2220 9.39994E-05-5.28279E-05-1.76881E-05 4.05726E-05-1.28325E-19-3.09336E-18
 -1      2221 2.36642E-05-2.79940E-05 1.18070E-06 2.11486E-05 1.12444E-19-4.93778E-18
 -1      2222 2.89928E-05-2.76151E-05-8.64618E-07-2.81650E-05-1.24937E-20-5.01359E-18
 -1      2223 9.75258E-05-4.92843E-05-2.07543E-05-4.09054E-05 2.15189E-18-2.96525E-18
 -1      2224 1.14200E-04-5.55837E-05-2.55011E-05-3.54379E-05 7.50259E-19-1.34858E-18
 -1      2225 9.17813E-05-5.00913E-05-1.74938E-05-4.26718E-05 4.30293E-19-1.97741E-18
 -1      2226 1.53161E-04-3.88846E-05-4.82353E-05-1.12406E-05 3.86099E-18-1.38913E-18
 -1      2227 1.56242E-04-1.21489E-05-6.08840E-05 3.46182E-07 5.22026E-18-1.08844E-18
 -1      2228 1.58298E-04-2.24464E-05-5.74145E-05-1.18583E-06 4.82512E-18-1.40417E-18
 -1      2229 5.33818E-05-4.01528E-05-6.15171E-06 3.88643E-05-6.47980E-20-4.84990E-18
 -1      2230 1.58304E-04-3.03004E-05-5.42395E-05-5.24683E-06-3.52493E-18 5.50571E-20
 -1      2231 1.64300E-04-3.00116E-05-5.65952E-05 2.17295E-06-4.89204E-18-2.74439E-19
 -1      2232 1.04923E-04-3.00137E-05-3.21065E-05 1.34794E-06 1.21760E-18 2.66289E-19
 -1      2233 1.05348E-04-2.92129E-05-3.25550E-05 2.77219E-06 1.44682E-18 4.02222E-19
 -1      2234 7.55284E-05-3.97606E-06-3.06994E-05-1.38308E-06-1.39494E-18-2.01425E-18
 -1      2235 7.68816E-05-4.63194E-06-3.09766E-05-1.29807E-06-1.55321E-18-1.90800E-18
 -1      2236 7.88849E-05-5.92725E-06-3.13219E-05-9.07092E-07-1.62555E-18-1.69602E-18
 -1      2237 8.12658E-05-7.19059E-06-3.17565E-05-1.10923E-06-1.80193E-18-1.34389E-18
 -1      2238 7.82988E-05-6.57848E-06-3.07157E-05-4.07561E-07-1.49708E-18-1.63049E-18
 -1      2239 7.56151E-05-4.40148E-06-3.05179E-05-2.58702E-06-8.65762E-19-2.38436E-18
 -1      2240 7.48204E-05-3.89400E-06-3.04333E-05-2.61183E-06-1.04117E-18-2.28893E-18
 -1      2241 7.85371E-05-6.37346E-06-3.09198E-05-2.31190E-06-5.19847E-19-2.37785E-18
 -1      2242 7.69598E-05-5.46582E-06-3.06853E-05-2.68905E-06-7.12221E-19-2.38656E-18
 -1      2243 7.68203E-05-6.31514E-06-3.02095E-05-3.29127E-06-8.29483E-19-2.22885E-18
 -1      2244 8.25219E-05-8.93692E-06-3.15357E-05-1.13595E-06-8.35684E-20-2.31035E-18
 -1      2245 8.05040E-05-7.81299E-06-3.12024E-05-1.90822E-06-3.36034E-19-2.33374E-18
 -1      2246 8.03787E-05-8.83674E-06-3.06685E-05-2.97749E-06-4.66326E-19-2.18166E-18
 -1      2247 8.71415E-05-1.18538E-05-3.22840E-05 8.97735E-07 4.61324E-19-1.93961E-18
 -1      2248 8.48558E-05-1.05687E-05-3.18893E-05-2.51042E-07 1.42516E-19-2.10204E-18
 -1      2249 8.49135E-05-1.18991E-05-3.13087E-05-1.64597E-06-1.29503E-20-1.95344E-18
 -1      2250 9.20187E-05-1.50183E-05-3.30493E-05 3.46601E-06 1.02801E-18-1.70099E-18
 -1      2251 8.96078E-05-1.35589E-05-3.26488E-05 2.08502E-06 6.58221E-19-1.80474E-18
 -1      2252 8.98804E-05-1.51921E-05-3.20240E-05 4.63099E-07 5.58478E-19-1.66975E-18
 -1      2253 9.71686E-05-1.87145E-05-3.37227E-05 6.06135E-06 1.49350E-18-1.28005E-18
 -1      2254 9.45763E-05-1.68747E-05-3.33638E-05 4.67351E-06 1.19467E-18-1.56403E-18
 -1      2255 9.49331E-05-1.86526E-05-3.26899E-05 2.81932E-06 1.03455E-18-1.40411E-18
 -1      2256 1.04988E-04-3.14311E-05-3.15374E-05 4.13742E-08 1.04631E-18 9.16417E-20
 -1      2257 1.05129E-04-3.08754E-05-3.17507E-05 3.98804E-07 1.08728E-18 2.51516E-19
 -1      2258 1.04319E-04-2.96758E-05-3.20093E-05 1.20708E-06 1.25688E-18-1.78942E-19
 -1      2259 1.05140E-04-2.73732E-05-3.32713E-05 2.07299E-06-1.16028E-18 1.81538E-18
 -1      2260 1.05537E-04-2.85799E-05-3.29866E-05 4.24081E-06-9.62626E-19 1.73010E-18
 -1      2261 1.43186E-04-4.86978E-05-4.10325E-05 8.94751E-06 1.03098E-18-2.27598E-18
 -1      2262 1.36370E-04-5.35439E-05-3.55666E-05 1.75689E-05 8.17599E-19-1.80926E-18
 -1      2263 1.06230E-04-2.97507E-05-3.27039E-05 5.95025E-06-7.39691E-19 1.72821E-18
 -1      2264 1.07095E-04-3.09664E-05-3.26323E-05 7.02342E-06-5.16859E-19 1.63100E-18
 -1      2265 1.02978E-04-2.73677E-05-3.24445E-05 5.47294E-06-9.66223E-19 1.09802E-18
 -1      2266 1.08301E-04-3.23828E-05-3.24669E-05 7.89804E-06-3.06207E-19 1.74432E-18
 -1      2267 1.09692E-04-3.39622E-05-3.24881E-05 7.88429E-06-1.21192E-19 1.65243E-18
 -1      2268 1.04841E-04-3.04967E-05-3.19228E-05 8.39634E-06-4.13310E-19 1.03025E-18
 -1      2269 1.11755E-04-3.59118E-05-3.24243E-05 7.64576E-06-2.11262E-20 1.67982E-18
 -1      2270 1.13536E-04-3.78830E-05-3.24945E-05 6.36911E-06-1.42255E-19 1.65405E-18
 -1      2271 1.08121E-04-3.45660E-05-3.16091E-05 9.35589E-06-1.71384E-19 1.04592E-18
 -1      2272 1.16607E-04-4.03300E-05-3.25999E-05 4.58916E-06 2.14455E-20 1.76924E-18
 -1      2273 1.18382E-04-4.22066E-05-3.27571E-05 1.90658E-06 9.15259E-20 1.95322E-18
 -1      2274 1.13291E-04-3.98664E-05-3.15808E-05 7.73218E-06-3.37986E-21 1.21790E-18
 -1      2275 1.22024E-04-4.43426E-05-3.32322E-05-1.73882E-06 2.21741E-19 2.21351E-18
 -1      2276 1.22985E-04-4.48410E-05-3.36077E-05-5.42247E-06 3.08988E-19 2.33230E-18
 -1      2277 1.20153E-04-4.53987E-05-3.21545E-05 2.66179E-06 3.65161E-19 1.67307E-18
 -1      2278 1.25655E-04-4.47720E-05-3.47353E-05-1.02647E-05 3.74597E-19 2.51352E-18
 -1      2279 1.24870E-04-4.21994E-05-3.54677E-05-1.32718E-05-2.84610E-19 2.65737E-18
 -1      2280 1.26777E-04-4.79054E-05-3.39251E-05-6.01846E-06 5.01712E-19 1.92055E-18
 -1      2281 1.24670E-04-3.83870E-05-3.72995E-05-1.63630E-05-1.18460E-18 2.80682E-18
 -1      2282 1.22057E-04-3.27171E-05-3.83209E-05-1.60769E-05-1.82244E-18 2.80597E-18
 -1      2283 1.29542E-04-4.25893E-05-3.73894E-05-1.51891E-05-5.22355E-19 2.10305E-18
 -1      2284 1.19344E-04-2.65996E-05-4.01819E-05-1.33486E-05-2.37249E-18 2.57254E-18
 -1      2285 1.17082E-04-2.20010E-05-4.09034E-05-8.14018E-06-2.73729E-18 2.03100E-18
 -1      2286 1.26652E-04-2.98750E-05-4.17169E-05-1.60784E-05-2.23686E-18 2.35597E-18
 -1      2287 1.15944E-04-1.99288E-05-4.14830E-05 2.31659E-07-3.06107E-18 1.12770E-18
 -1      2288 1.16770E-04-2.11805E-05-4.13207E-05 7.05094E-06-3.11989E-18 2.23656E-19
 -1      2289 1.22126E-04-1.84901E-05-4.47916E-05-4.57799E-06-3.61281E-18 1.10122E-18
 -1      2290 1.18835E-04-2.55771E-05-4.01151E-05 1.38474E-05-2.64041E-18-4.21181E-19
 -1      2291 1.21950E-04-3.13995E-05-3.92092E-05 1.71676E-05-2.09024E-18-6.81024E-19
 -1      2292 1.23611E-04-2.17482E-05-4.39503E-05 1.14496E-05-3.45674E-18-4.25502E-19
 -1      2293 1.23887E-04-3.71390E-05-3.72210E-05 1.72884E-05-1.54179E-18-1.31098E-18
 -1      2294 1.26180E-04-4.19541E-05-3.63030E-05 1.59870E-05-1.32494E-18-1.72280E-18
 -1      2295 1.28381E-04-3.50900E-05-4.02028E-05 1.86537E-05-2.13929E-18-1.44943E-18
 -1      2296 1.25101E-04-4.44235E-05-3.46905E-05 1.15295E-05-1.09577E-18-1.56379E-18
 -1      2297 1.25253E-04-4.57112E-05-3.41003E-05 7.81030E-06-5.51112E-19-1.50233E-18
 -1      2298 1.29488E-04-4.62513E-05-3.58035E-05 1.28409E-05-1.21769E-18-2.32296E-18
 -1      2299 1.21896E-04-4.46641E-05-3.32168E-05 3.04281E-06-4.30663E-20-1.24806E-18
 -1      2300 1.20495E-04-4.34864E-05-3.29241E-05-5.58606E-07 2.41811E-19-1.04514E-18
 -1      2301 1.24756E-04-4.80141E-05-3.29625E-05 3.04069E-06-1.87467E-19-1.12797E-18
 -1      2302 1.16872E-04-4.11147E-05-3.25627E-05-3.74103E-06-1.72279E-19-1.03022E-18
 -1      2303 1.14931E-04-3.91786E-05-3.23916E-05-6.17602E-06-1.21000E-19-8.30006E-19
 -1      2304 1.17518E-04-4.39589E-05-3.16323E-05-4.77564E-06-1.47198E-19-6.90537E-19
 -1      2305 1.12082E-04-3.69636E-05-3.22532E-05-7.73360E-06 2.76894E-19-1.19768E-18
 -1      2306 1.10186E-04-3.52145E-05-3.20824E-05-8.95097E-06 4.49477E-19-6.86085E-19
 -1      2307 1.10980E-04-3.84886E-05-3.11596E-05-9.20138E-06 1.69034E-19-3.83579E-19
 -1      2308 1.08245E-04-3.36432E-05-3.19971E-05-9.36621E-06 2.22406E-19-4.99455E-19
 -1      2309 1.06607E-04-3.23777E-05-3.17868E-05-9.68679E-06 4.67959E-19-6.65995E-19
 -1      2310 1.06208E-04-3.40031E-05-3.10040E-05-1.08963E-05 4.49889E-19-7.69774E-19
 -1      2311 1.05353E-04-3.14246E-05-3.16855E-05-9.44991E-06 7.49327E-19-5.05455E-19
 -1      2312 1.03990E-04-3.05998E-05-3.14419E-05-9.22849E-06 7.44839E-19-6.19446E-19
 -1      2313 1.03046E-04-3.10408E-05-3.08919E-05-1.09027E-05 3.83693E-19-6.56541E-19
 -1      2314 1.03172E-04-3.00836E-05-3.13119E-05-8.67331E-06 6.28208E-19-7.84457E-19
 -1      2315 1.02046E-04-2.95729E-05-3.10568E-05-8.18225E-06 6.77694E-19-1.04180E-18
 -1      2316 1.00995E-04-2.93347E-05-3.07280E-05-1.00043E-05 5.23415E-19-1.03175E-18
 -1      2317 1.01484E-04-2.93223E-05-3.09081E-05-7.51204E-06 5.35611E-19-9.71630E-19
 -1      2318 1.00556E-04-2.90120E-05-3.06620E-05-6.92759E-06 7.30938E-20-7.96692E-19
 -1      2319 9.96247E-05-2.84648E-05-3.05054E-05-8.70473E-06 6.26998E-19-1.98241E-18
 -1      2320 1.00142E-04-2.89071E-05-3.05089E-05-6.25618E-06-1.58095E-19-1.90991E-19
 -1      2321 9.93816E-05-2.87183E-05-3.02855E-05-5.67849E-06-4.97491E-20 2.81690E-19
 -1      2322 9.86522E-05-2.80854E-05-3.02477E-05-7.30255E-06 3.22743E-19-9.19455E-19
 -1      2323 9.90576E-05-2.86868E-05-3.01394E-05-5.06360E-06-5.53376E-19 1.75425E-19
 -1      2324 9.84405E-05-2.85704E-05-2.99457E-05-4.54206E-06-5.88858E-19-1.06881E-19
 -1      2325 9.79171E-05-2.79678E-05-2.99820E-05-5.96191E-06-2.60345E-19-6.72926E-19
 -1      2326 9.81788E-05-2.85725E-05-2.98137E-05-4.00797E-06-9.99813E-20 7.38872E-20
 -1      2327 9.76837E-05-2.84998E-05-2.96512E-05-3.56150E-06 4.70562E-19 6.91535E-19
 -1      2328 9.73355E-05-2.79769E-05-2.97286E-05-4.76296E-06-4.55391E-19 2.65511E-19
 -1      2329 9.74698E-05-2.85152E-05-2.95369E-05-3.11358E-06 3.75304E-19 5.33152E-19
 -1      2330 9.70779E-05-2.84694E-05-2.94043E-05-2.74446E-06-2.42891E-19 7.52880E-19
 -1      2331 9.68648E-05-2.80395E-05-2.95000E-05-3.73555E-06 3.55446E-20 2.19889E-19
 -1      2332 9.69036E-05-2.84886E-05-2.93082E-05-2.37823E-06-9.70735E-19 7.97598E-19
 -1      2333 9.65980E-05-2.84600E-05-2.92023E-05-2.08057E-06-6.07387E-19 1.03317E-18
 -1      2334 9.64820E-05-2.81185E-05-2.93020E-05-2.88119E-06-3.02355E-19-4.97032E-19
 -1      2335 9.64576E-05-2.84789E-05-2.91236E-05-1.78706E-06-3.34248E-19 6.38781E-19
 -1      2336 9.62229E-05-2.84615E-05-2.90406E-05-1.55163E-06 2.74585E-19 1.87615E-19
 -1      2337 9.61729E-05-2.81968E-05-2.91358E-05-2.18674E-06-7.81653E-19-3.59718E-19
 -1      2338 9.61116E-05-2.84785E-05-2.89775E-05-1.32033E-06 2.75642E-19 7.32266E-19
 -1      2339 9.59342E-05-2.84688E-05-2.89137E-05-1.13717E-06-4.06866E-19 6.99189E-19
 -1      2340 9.59265E-05-2.82673E-05-2.89996E-05-1.63269E-06 4.80679E-20 2.20592E-19
 -1      2341 9.58475E-05-2.84835E-05-2.88640E-05-9.57680E-07 1.85872E-20 5.47644E-19
 -1      2342 9.57158E-05-2.84789E-05-2.88157E-05-8.17327E-07 3.95308E-20 1.13306E-18
 -1      2343 9.57332E-05-2.83280E-05-2.88904E-05-1.19783E-06-1.82112E-19 8.67586E-19
 -1      2344 9.56496E-05-2.84913E-05-2.87773E-05-6.80110E-07-4.80022E-19 1.29101E-18
 -1      2345 9.55537E-05-2.84902E-05-2.87413E-05-5.74160E-07 6.74119E-20 1.76126E-18
 -1      2346 9.55845E-05-2.83789E-05-2.88045E-05-8.61693E-07-4.93743E-20 1.01181E-18
 -1      2347 9.55041E-05-2.85006E-05-2.87121E-05-4.70841E-07-2.47372E-19 6.60390E-19
 -1      2348 9.54358E-05-2.85017E-05-2.86859E-05-3.92105E-07-5.60807E-19 7.17260E-19
 -1      2349 9.54722E-05-2.84208E-05-2.87380E-05-6.05746E-07-5.95219E-19 4.34316E-19
 -1      2350 9.53995E-05-2.85103E-05-2.86641E-05-3.15557E-07-6.56509E-19 5.51631E-20
 -1      2351 9.53521E-05-2.85126E-05-2.86453E-05-2.58037E-07-1.35145E-18-1.81002E-19
 -1      2352 9.53892E-05-2.84550E-05-2.86875E-05-4.13874E-07-1.45474E-18 2.09844E-19
 -1      2353 9.53262E-05-2.85197E-05-2.86293E-05-2.02330E-07-7.93323E-19 3.05108E-19
 -1      2354 9.52944E-05-2.85227E-05-2.86163E-05-1.61118E-07 5.44769E-20 5.76626E-19
 -1      2355 9.53294E-05-2.84825E-05-2.86498E-05-2.72424E-07-8.47547E-19 5.04430E-19
 -1      2356 9.52764E-05-2.85285E-05-2.86048E-05-1.21402E-07 4.74279E-20 1.21884E-18
 -1      2357 9.52561E-05-2.85318E-05-2.85960E-05-9.25483E-08 2.79059E-20 1.16909E-18
 -1      2358 9.52873E-05-2.85043E-05-2.86221E-05-1.70079E-07 5.68075E-19 1.85879E-18
 -1      2359 9.52441E-05-2.85364E-05-2.85880E-05-6.49211E-08-1.36050E-20 1.95735E-18
 -1      2360 9.52320E-05-2.85397E-05-2.85823E-05-4.52884E-08 9.18851E-20 1.90451E-18
 -1      2361 9.52588E-05-2.85216E-05-2.86023E-05-9.76191E-08 7.50889E-19 2.26254E-18
 -1      2362 9.52243E-05-2.85434E-05-2.85769E-05-2.66522E-08-2.74791E-19 1.77465E-18
 -1      2363 9.52179E-05-2.85464E-05-2.85734E-05-1.37825E-08 3.31632E-19 1.80690E-18
 -1      2364 9.52403E-05-2.85350E-05-2.85885E-05-4.76496E-08-4.48068E-20 1.81054E-18
 -1      2365 9.52134E-05-2.85493E-05-2.85699E-05-1.71333E-09 5.55101E-19 1.06321E-18
 -1      2366 9.52109E-05-2.85521E-05-2.85680E-05 6.29296E-09 3.50191E-19 1.14270E-18
 -1      2367 9.52291E-05-2.85454E-05-2.85791E-05-1.43217E-08 4.49329E-19 7.89081E-19
 -1      2368 9.52086E-05-2.85543E-05-2.85659E-05 1.36640E-08 8.89777E-19 6.18019E-19
 -1      2369 9.52087E-05-2.85567E-05-2.85650E-05 1.82522E-08 9.45045E-19 1.04380E-18
 -1      2370 9.52230E-05-2.85532E-05-2.85730E-05 6.92344E-09 3.19846E-19 6.84032E-19
 -1      2371 9.52079E-05-2.85585E-05-2.85639E-05 2.23418E-08 4.39635E-19 1.30295E-18
 -1      2372 9.52094E-05-2.85605E-05-2.85638E-05 2.45915E-08 5.55272E-19 2.01151E-18
 -1      2373 9.52205E-05-2.85591E-05-2.85693E-05 1.95826E-08 9.38105E-19 1.05946E-18
 -1      2374 9.52096E-05-2.85619E-05-2.85632E-05 2.64520E-08 9.63320E-21 2.65321E-18
 -1      2375 9.52121E-05-2.85636E-05-2.85636E-05 2.71506E-08-1.35563E-19 3.68853E-18
 -1      2376 9.52202E-05-2.85635E-05-2.85673E-05 2.62893E-08 4.36002E-19 2.47010E-18
 -1      2377 9.52129E-05-2.85646E-05-2.85635E-05 2.75427E-08-8.16481E-19 3.95978E-18
 -1      2378 9.52157E-05-2.85661E-05-2.85641E-05 2.72450E-08-2.49337E-19 3.79799E-18
 -1      2379 9.52214E-05-2.85667E-05-2.85664E-05 2.89829E-08-2.11543E-19 2.95224E-18
 -1      2380 9.52168E-05-2.85669E-05-2.85642E-05 2.66979E-08 2.82279E-19 3.92723E-18
 -1      2381 9.52198E-05-2.85682E-05-2.85649E-05 2.57727E-08 1.37690E-18 3.11081E-18
 -1      2382 9.52235E-05-2.85691E-05-2.85662E-05 2.90474E-08-2.89409E-19 2.54790E-18
 -1      2383 9.52210E-05-2.85689E-05-2.85652E-05 2.46314E-08 6.66905E-19 2.13308E-18
 -1      2384 9.52238E-05-2.85700E-05-2.85659E-05 2.32997E-08-6.32625E-20 1.43227E-18
 -1      2385 9.52260E-05-2.85709E-05-2.85665E-05 2.74263E-08 2.27469E-20 1.80709E-18
 -1      2386 9.52252E-05-2.85706E-05-2.85663E-05 2.17557E-08 8.05907E-20 1.17075E-18
 -1      2387 9.52278E-05-2.85717E-05-2.85669E-05 2.01175E-08-5.20593E-19 1.50049E-18
 -1      2388 9.52287E-05-2.85725E-05-2.85669E-05 2.47120E-08-6.56763E-19 8.62548E-19
 -1      2389 9.52291E-05-2.85723E-05-2.85672E-05 1.82796E-08-9.85627E-19 1.93055E-18
 -1      2390 9.52313E-05-2.85733E-05-2.85678E-05 1.63619E-08-6.54554E-19 2.16104E-18
 -1      2391 9.52313E-05-2.85740E-05-2.85674E-05 2.12192E-08-4.56940E-19 6.83555E-20
 -1      2392 1.05499E-04-3.32964E-05-3.09825E-05 1.93617E-06 2.66336E-19-1.95443E-19
 -1      2393 1.05669E-04-3.30530E-05-3.10990E-05 1.05299E-06 4.57658E-19-4.43898E-20
 -1      2394 1.05253E-04-3.34674E-05-3.07969E-05 4.28689E-06 1.22234E-19-4.56814E-19
 -1      2395 1.05771E-04-3.35901E-05-3.09315E-05 3.15244E-06 1.40849E-19-2.39050E-19
 -1      2396 1.06622E-04-3.43768E-05-3.09602E-05 2.64752E-06 3.76047E-19-1.89164E-19
 -1      2397 1.04171E-04-3.26625E-05-3.06522E-05 6.63266E-06 2.56578E-19-3.05163E-19
 -1      2398 1.05142E-04-3.33072E-05-3.08016E-05 5.65948E-06 3.08042E-21-5.17896E-19
 -1      2399 1.06848E-04-3.45400E-05-3.09689E-05 5.40360E-06 9.28163E-20-2.53749E-19
 -1      2400 1.02153E-04-3.07335E-05-3.05763E-05 7.86599E-06 2.33360E-19 1.93795E-19
 -1      2401 1.03484E-04-3.18857E-05-3.07151E-05 7.57185E-06 2.28080E-19-3.65548E-20
 -1      2402 1.06033E-04-3.33124E-05-3.11335E-05 7.94859E-06 3.07000E-20-2.49646E-19
 -1      2403 9.96279E-05-2.81215E-05-3.05852E-05 6.90886E-06 5.71380E-19 1.59778E-19
 -1      2404 1.00969E-04-2.94487E-05-3.06843E-05 7.70012E-06 4.32527E-19 2.97060E-19
 -1      2405 1.04042E-04-3.06463E-05-3.14325E-05 8.91198E-06 3.77334E-19 1.02728E-19
 -1      2406 9.76028E-05-2.59421E-05-3.06528E-05 3.43527E-06 1.27668E-18 5.78299E-20
 -1      2407 9.84445E-05-2.68504E-05-3.06945E-05 5.28301E-06 8.48032E-19 2.47985E-19
 -1      2408 1.01483E-04-2.73677E-05-3.17769E-05 7.10137E-06 8.05103E-19 3.04314E-19
 -1      2409 9.71654E-05-2.54025E-05-3.07276E-05-1.57270E-06 8.43089E-19-1.78359E-19
 -1      2410 9.71102E-05-2.53942E-05-3.07066E-05 7.28200E-07 1.31199E-18-9.20023E-20
 -1      2411 9.96471E-05-2.50424E-05-3.20187E-05 2.46244E-06 1.36198E-18-1.36411E-19
 -1      2412 9.86667E-05-2.68632E-05-3.07827E-05-6.16964E-06 6.78215E-19-5.97658E-19
 -1      2413 9.77058E-05-2.59312E-05-3.06993E-05-4.30031E-06 8.83363E-19-3.28280E-19
 -1      2414 9.96764E-05-2.50177E-05-3.20395E-05-3.41838E-06 1.03731E-18-1.82760E-19
 -1      2415 1.01383E-04-2.95147E-05-3.08325E-05-8.65909E-06 3.26666E-19-6.89174E-19
 -1      2416 9.99052E-05-2.81406E-05-3.06956E-05-7.83800E-06 5.29925E-19-6.31533E-19
 -1      2417 1.01590E-04-2.73218E-05-3.18381E-05-8.11584E-06 7.16084E-19-3.92584E-19
 -1      2418 1.04099E-04-3.20726E-05-3.08997E-05-8.54231E-06 2.03983E-20-1.27801E-18
 -1      2419 1.02630E-04-3.08492E-05-3.07334E-05-8.83267E-06 3.15035E-19-8.52128E-19
 -1      2420 1.04263E-04-3.06660E-05-3.15166E-05-9.98070E-06 3.55002E-19-7.36801E-19
 -1      2421 1.05894E-04-3.36416E-05-3.09837E-05-6.49724E-06-5.70053E-19-1.51296E-18
 -1      2422 1.04818E-04-3.29155E-05-3.08248E-05-7.52196E-06-4.64085E-19-1.17773E-18
 -1      2423 1.06366E-04-3.34772E-05-3.12016E-05-8.94997E-06 2.25241E-21-9.02948E-19
 -1      2424 1.06509E-04-3.40663E-05-3.10533E-05-3.65206E-06 6.03554E-19-1.31687E-18
 -1      2425 1.05968E-04-3.38631E-05-3.09387E-05-4.92719E-06-4.17462E-20-1.37148E-18
 -1      2426 1.07208E-04-3.48831E-05-3.09694E-05-6.13492E-06-2.57472E-19-1.31358E-18
 -1      2427 1.06151E-04-3.36596E-05-3.10669E-05-9.34404E-07 5.70278E-19-6.58541E-19
 -1      2428 1.06100E-04-3.38259E-05-3.10203E-05-2.09574E-06 7.47692E-19-7.07879E-19
 -1      2429 1.06854E-04-3.49139E-05-3.08196E-05-2.83845E-06 1.39049E-19-5.19736E-19
 -1      2430 1.05180E-04-3.28385E-05-3.09995E-05 1.16108E-06 2.53943E-19-2.43098E-19
 -1      2431 1.05488E-04-3.31928E-05-3.10250E-05 2.93709E-07 7.34384E-19 1.03977E-20
 -1      2432 1.05731E-04-3.40723E-05-3.07099E-05 4.41747E-08 2.07321E-19 1.35374E-19
 -1      2433 1.03913E-04-3.19200E-05-3.08495E-05 2.50665E-06-1.46552E-19-8.80739E-19
 -1      2434 1.04441E-04-3.23274E-05-3.09360E-05 1.96816E-06 3.08720E-20-3.37225E-19
 -1      2435 1.04271E-04-3.28889E-05-3.05971E-05 2.12385E-06 3.06651E-19 4.12104E-19
 -1      2436 1.02568E-04-3.10802E-05-3.06334E-05 3.18662E-06-4.59846E-20-1.35306E-18
 -1      2437 1.03199E-04-3.14641E-05-3.07622E-05 2.93087E-06 1.63103E-20-1.03419E-18
 -1      2438 1.02768E-04-3.17209E-05-3.04555E-05 3.36686E-06-6.84955E-20-2.75361E-19
 -1      2439 1.01275E-04-3.03877E-05-3.03765E-05 3.36728E-06 2.85028E-19-1.55888E-18
 -1      2440 1.01927E-04-3.07154E-05-3.05276E-05 3.31892E-06 2.20969E-20-1.54526E-18
 -1      2441 1.01377E-04-3.07394E-05-3.02801E-05 3.91654E-06 1.37141E-19-6.65424E-19
 -1      2442 1.00101E-04-2.98505E-05-3.01042E-05 3.21959E-06-5.98432E-19-1.20190E-18
 -1      2443 1.00721E-04-3.01145E-05-3.02608E-05 3.30440E-06-3.50127E-20-1.46219E-18
 -1      2444 1.00159E-04-2.99893E-05-3.00789E-05 3.96858E-06-8.43664E-20-9.18006E-19
 -1      2445 9.90765E-05-2.94495E-05-2.98374E-05 2.88497E-06-3.00742E-19-1.16245E-18
 -1      2446 9.96340E-05-2.96545E-05-2.99873E-05 3.04291E-06-5.79552E-19-9.94209E-19
 -1      2447 9.91247E-05-2.94513E-05-2.98656E-05 3.70565E-06-5.60251E-19-7.39619E-19
 -1      2448 9.82086E-05-2.91579E-05-2.95907E-05 2.46663E-06-8.20638E-19-7.43060E-19
 -1      2449 9.86892E-05-2.93129E-05-2.97261E-05 2.65469E-06-6.34524E-19-9.56035E-19
 -1      2450 9.82645E-05-2.90830E-05-2.96542E-05 3.27227E-06-5.57447E-19-6.80722E-19
 -1      2451 9.74910E-05-2.89501E-05-2.93725E-05 2.03288E-06-4.60967E-20-9.29339E-19
 -1      2452 9.78919E-05-2.90648E-05-2.94897E-05 2.22317E-06-3.83001E-19-8.34054E-19
 -1      2453 9.75600E-05-2.88409E-05-2.94556E-05 2.77124E-06-4.34879E-19-1.02040E-18
 -1      2454 9.69108E-05-2.88047E-05-2.91864E-05 1.62463E-06-3.43716E-19-8.00797E-20
 -1      2455 9.72359E-05-2.88879E-05-2.92843E-05 1.80090E-06-2.09319E-19-4.26679E-19
 -1      2456 9.69911E-05-2.86877E-05-2.92769E-05 2.26926E-06-6.23579E-19-6.63911E-19
 -1      2457 9.64511E-05-2.87049E-05-2.90324E-05 1.26324E-06-6.88043E-19 3.35406E-19
 -1      2458 9.67082E-05-2.87640E-05-2.91119E-05 1.41741E-06-7.78588E-20 2.07983E-19
 -1      2459 9.65381E-05-2.85951E-05-2.91220E-05 1.80542E-06-4.89630E-19-3.28736E-19
 -1      2460 9.60943E-05-2.86381E-05-2.89084E-05 9.57050E-07-5.97439E-19 1.33912E-18
 -1      2461 9.62928E-05-2.86790E-05-2.89711E-05 1.08638E-06-1.04547E-18 4.60144E-19
 -1      2462 9.61826E-05-2.85427E-05-2.89916E-05 1.39930E-06-9.02186E-19 2.14930E-20
 -1      2463 9.58229E-05-2.85947E-05-2.88109E-05 7.06377E-07 1.37523E-19 1.58817E-18
 -1      2464 9.59726E-05-2.86222E-05-2.88592E-05 8.11328E-07 1.39639E-19 1.42787E-18
 -1      2465 9.59081E-05-2.85162E-05-2.88849E-05 1.05761E-06-1.93875E-19 3.81252E-19
 -1      2466 9.56208E-05-2.85678E-05-2.87360E-05 5.06975E-07 9.16713E-19 2.85154E-19
 -1      2467 9.57310E-05-2.85855E-05-2.87724E-05 5.89772E-07 8.24617E-19 1.12533E-18
 -1      2468 9.56996E-05-2.85059E-05-2.87996E-05 7.79162E-07 7.09167E-19 8.84915E-19
 -1      2469 9.54737E-05-2.85523E-05-2.86798E-05 3.52387E-07 1.58132E-18-2.71738E-19
 -1      2470 9.55527E-05-2.85631E-05-2.87065E-05 4.16056E-07 1.03425E-18 3.81629E-19
 -1      2471 9.55442E-05-2.85051E-05-2.87329E-05 5.58367E-07 1.03028E-18 3.23448E-21
 -1      2472 9.53696E-05-2.85444E-05-2.86387E-05 2.35429E-07-1.62575E-19 1.74071E-18
 -1      2473 9.54245E-05-2.85503E-05-2.86578E-05 2.83199E-07 9.90649E-19 1.04506E-18
 -1      2474 9.54307E-05-2.85096E-05-2.86819E-05 3.87578E-07 5.41246E-19 1.54798E-18
 -1      2475 9.52981E-05-2.85415E-05-2.86094E-05 1.49082E-07-2.87620E-19 3.33881E-18
 -1      2476 9.53348E-05-2.85442E-05-2.86226E-05 1.84033E-07-5.93945E-19 2.27665E-18
 -1      2477 9.53498E-05-2.85168E-05-2.86439E-05 2.58571E-07-5.98523E-19 4.16875E-18
 -1      2478 9.52511E-05-2.85418E-05-2.85893E-05 8.69728E-08-2.81548E-19 2.57010E-18
 -1      2479 9.52743E-05-2.85424E-05-2.85980E-05 1.11858E-07 1.74016E-19 3.12705E-18
 -1      2480 9.52938E-05-2.85249E-05-2.86162E-05 1.63441E-07-1.70643E-19 3.36828E-18
 -1      2481 9.52219E-05-2.85440E-05-2.85759E-05 4.35949E-08 6.19241E-19 1.32876E-18
 -1      2482 9.52355E-05-2.85432E-05-2.85814E-05 6.07646E-08 3.60263E-19 1.61161E-18
 -1      2483 9.52564E-05-2.85329E-05-2.85965E-05 9.50784E-08 7.83439E-19 1.45385E-18
 -1      2484 9.52054E-05-2.85471E-05-2.85676E-05 1.43571E-08 1.04851E-19 8.82004E-19
 -1      2485 9.52123E-05-2.85455E-05-2.85708E-05 2.57515E-08 6.52525E-19 1.51706E-18
 -1      2486 9.52327E-05-2.85403E-05-2.85830E-05 4.73700E-08 6.85603E-19 1.19825E-18
 -1      2487 9.51978E-05-2.85506E-05-2.85629E-05-4.45875E-09 3.45474E-19-1.35917E-19
 -1      2488 9.52001E-05-2.85487E-05-2.85644E-05 2.71784E-09 5.33672E-20 6.47310E-19
 -1      2489 9.52188E-05-2.85468E-05-2.85741E-05 1.52358E-08 9.16477E-19 3.94215E-19
 -1      2490 9.51960E-05-2.85541E-05-2.85607E-05-1.57864E-08-6.14293E-19-2.13906E-19
 -1      2491 9.51953E-05-2.85521E-05-2.85611E-05-1.16092E-08 3.38780E-19-4.86255E-19
 -1      2492 9.52118E-05-2.85523E-05-2.85686E-05-5.42835E-09 2.90726E-19 1.08499E-18
 -1      2493 9.51979E-05-2.85574E-05-2.85602E-05-2.18835E-08-1.00977E-18-1.30920E-19
 -1      2494 9.51955E-05-2.85554E-05-2.85599E-05-1.97766E-08-1.47474E-18-2.07117E-19
 -1      2495 9.52095E-05-2.85569E-05-2.85656E-05-1.78547E-08-9.47636E-19 7.03853E-19
 -1      2496 9.52021E-05-2.85604E-05-2.85607E-05-2.44416E-08-7.50392E-19 5.05072E-19
 -1      2497 9.51987E-05-2.85586E-05-2.85600E-05-2.37161E-08-6.35386E-19 1.83674E-19
 -1      2498 9.52101E-05-2.85607E-05-2.85642E-05-2.45258E-08-1.01444E-18 1.50650E-19
 -1      2499 9.52074E-05-2.85631E-05-2.85618E-05-2.46857E-08-2.66954E-19 5.80066E-19
 -1      2500 9.52036E-05-2.85614E-05-2.85609E-05-2.48502E-08-3.87193E-19 2.73673E-19
 -1      2501 9.52126E-05-2.85637E-05-2.85639E-05-2.72964E-08-4.17664E-19 4.68249E-19
 -1      2502 9.52131E-05-2.85655E-05-2.85633E-05-2.34618E-08 1.55877E-18 7.41853E-19
 -1      2503 9.52092E-05-2.85640E-05-2.85623E-05-2.41856E-08 8.20957E-19 7.72012E-19
 -1      2504 9.52161E-05-2.85662E-05-2.85643E-05-2.75058E-08 4.77613E-19-4.00339E-19
 -1      2505 9.52187E-05-2.85676E-05-2.85648E-05-2.13077E-08 3.54061E-19 2.23588E-18
 -1      2506 9.52151E-05-2.85663E-05-2.85638E-05-2.23927E-08 1.47863E-18 2.16151E-18
 -1      2507 9.52200E-05-2.85683E-05-2.85651E-05-2.60751E-08 5.49923E-19 7.93096E-19
 -1      2508 9.52240E-05-2.85695E-05-2.85662E-05-1.85009E-08-1.56985E-18 2.16871E-18
 -1      2509 9.52207E-05-2.85683E-05-2.85653E-05-1.98704E-08-1.21304E-18 2.24881E-18
 -1      2510 9.52240E-05-2.85700E-05-2.85660E-05-2.36036E-08-6.23870E-19 3.70627E-18
 -1      2511 9.52287E-05-2.85713E-05-2.85675E-05-1.51467E-08-1.33562E-18 2.78202E-18
 -1      2512 9.52258E-05-2.85702E-05-2.85667E-05-1.67895E-08-1.65826E-18 2.72142E-18
 -1      2513 9.52279E-05-2.85717E-05-2.85669E-05-2.04094E-08-1.98157E-18 3.92464E-18
 -1      2514 9.52328E-05-2.85731E-05-2.85685E-05-1.12767E-08-7.23479E-19 3.79924E-18
 -1      2515 9.52304E-05-2.85721E-05-2.85679E-05-1.31733E-08-9.00778E-19 2.95949E-18
 -1      2516 9.52315E-05-2.85734E-05-2.85677E-05-1.65582E-08-1.65330E-18 4.29267E-18
 -1      2517 9.52343E-05-2.85737E-05-2.85689E-05-8.86128E-09-1.64143E-19 2.29752E-18
 -1      2518 9.52454E-05-2.85895E-05-2.85668E-05-1.22013E-08 2.97638E-18-1.31637E-18
 -1      2519 9.52442E-05-2.85877E-05-2.85671E-05-1.34626E-08 1.93246E-18-2.46496E-18
 -1      2520 9.52472E-05-2.85921E-05-2.85664E-05-8.47020E-09 3.74856E-18 2.47417E-19
 -1      2521 9.52464E-05-2.85908E-05-2.85667E-05-1.03320E-08 3.55392E-18-1.00536E-18
 -1      2522 9.52465E-05-2.85890E-05-2.85675E-05-1.27226E-08 3.18195E-18-3.06242E-19
 -1      2523 9.52398E-05-2.85818E-05-2.85677E-05-1.51006E-08-4.05301E-19-1.79912E-18
 -1      2524 9.52380E-05-2.85794E-05-2.85680E-05-1.46335E-08-6.53665E-19-1.33150E-18
 -1      2525 9.52428E-05-2.85859E-05-2.85672E-05-1.45251E-08-3.30351E-19-1.77704E-18
 -1      2526 9.52413E-05-2.85838E-05-2.85675E-05-1.49398E-08-6.93102E-19-1.63685E-18
 -1      2527 9.52405E-05-2.85820E-05-2.85679E-05-1.70928E-08-1.30947E-18-1.61953E-18
 -1      2528 9.52437E-05-2.85858E-05-2.85677E-05-1.58727E-08 9.82151E-19-6.90616E-19
 -1      2529 9.52483E-05-2.85937E-05-2.85662E-05-3.83815E-09 1.39185E-18-2.09448E-19
 -1      2530 9.52479E-05-2.85930E-05-2.85663E-05-6.06656E-09 2.81114E-18 1.36542E-20
 -1      2531 9.52485E-05-2.85913E-05-2.85674E-05-8.19623E-09 3.10601E-18-6.96705E-19
 -1      2532 9.52485E-05-2.85940E-05-2.85662E-05 1.18961E-09 9.89441E-19 3.13898E-19
 -1      2533 9.52485E-05-2.85940E-05-2.85662E-05-1.16232E-09 4.87467E-19 9.61149E-20
 -1      2534 9.52494E-05-2.85924E-05-2.85673E-05-2.81962E-09 1.81407E-18-1.24143E-18
 -1      2535 9.52479E-05-2.85930E-05-2.85663E-05 6.09743E-09-1.32273E-18-3.35311E-18
 -1      2536 9.52483E-05-2.85937E-05-2.85662E-05 3.86756E-09-1.99638E-19-1.17238E-18
 -1      2537 9.52494E-05-2.85924E-05-2.85673E-05 2.84525E-09 7.33417E-19-1.22166E-18
 -1      2538 9.52464E-05-2.85909E-05-2.85666E-05 1.03055E-08-4.02834E-19-1.55232E-19
 -1      2539 9.52473E-05-2.85922E-05-2.85664E-05 8.46832E-09-4.93070E-19-1.67616E-18
 -1      2540 9.52485E-05-2.85913E-05-2.85674E-05 8.18811E-09-4.79244E-19-1.59544E-18
 -1      2541 9.52442E-05-2.85877E-05-2.85671E-05 1.34667E-08 6.47877E-19 3.48568E-20
 -1      2542 9.52454E-05-2.85895E-05-2.85668E-05 1.21924E-08-3.43706E-19-6.05185E-19
 -1      2543 9.52466E-05-2.85891E-05-2.85675E-05 1.26981E-08 4.57611E-19-5.17037E-19
 -1      2544 9.52413E-05-2.85838E-05-2.85675E-05 1.49655E-08 4.33697E-19 2.32119E-19
 -1      2545 9.52428E-05-2.85859E-05-2.85672E-05 1.45498E-08 1.15992E-19 1.51285E-18
 -1      2546 9.52438E-05-2.85859E-05-2.85677E-05 1.58944E-08 2.88650E-19-4.39982E-19
 -1      2547 9.52380E-05-2.85794E-05-2.85680E-05 1.45652E-08-8.28539E-19-2.80468E-18
 -1      2548 9.52397E-05-2.85817E-05-2.85677E-05 1.51259E-08-1.39234E-20-2.25786E-18
 -1      2549 9.52404E-05-2.85820E-05-2.85679E-05 1.71113E-08-6.36595E-19-1.25629E-18
 -1      2550 2.70592E-05-1.82338E-05-3.37690E-06 2.01363E-05-8.48939E-19 4.76922E-18
 -1      2551 2.05047E-05-1.73706E-05-9.21117E-07 6.35111E-06-1.05088E-18 4.99072E-18
 -1      2552 9.59647E-05-5.18337E-05-1.89575E-05 4.24367E-05-1.07933E-18 2.01345E-18
 -1      2553 7.91554E-05-4.66559E-05-1.37681E-05 4.28907E-05-1.75844E-18 2.87298E-18
 -1      2554 1.05275E-04-3.25205E-05-3.12103E-05 3.63175E-07 7.34976E-19-7.56415E-20
 -1      2555 1.05305E-04-3.20796E-05-3.13381E-05-2.36386E-09 9.16786E-19 7.89957E-20
 -1      2556 1.05848E-04-3.32953E-05-3.11063E-05 6.80197E-07 6.44767E-19-1.40890E-19
 -1      2557 9.52357E-05-2.85760E-05-2.85685E-05 1.09889E-08 1.85835E-19-4.30243E-19
 -1      2558 1.94314E-05-1.78188E-05-3.87325E-07-5.23936E-06-5.52689E-19 4.85646E-18
 -1      2559 2.51727E-05-2.14204E-05-1.33898E-06-1.90591E-05-2.36110E-20 4.59515E-18
 -1      2560 2.77897E-05-1.42425E-05-5.24877E-06-3.48575E-07-6.89604E-20 4.65974E-18
 -1      2561 6.00637E-05-3.78905E-05-9.33564E-06 4.32660E-05-1.13545E-18 3.59989E-18
 -1      2562 4.23365E-05-2.84635E-05-5.59029E-06 3.54331E-05-1.39972E-18 4.25168E-18
 -1      2563 6.54645E-05-4.17514E-05-9.98012E-06-3.92132E-05 1.05710E-18 3.71170E-18
 -1      2564 8.65510E-05-4.96502E-05-1.58170E-05-4.09964E-05 4.74762E-19 1.88465E-18
 -1      2565 1.49003E-04-1.68050E-05-5.71396E-05 6.83383E-06-5.10210E-18 1.74383E-19
 -1      2566 1.47175E-04-1.33544E-05-5.79346E-05 2.62556E-06-5.15335E-18 5.13097E-19
 -1      2567 1.48576E-04-4.92882E-05-4.33831E-05-2.34465E-06-1.52805E-18 6.58145E-19
 -1      2568 1.43881E-04-5.67650E-05-3.73658E-05 8.03259E-06-8.78585E-19 4.10811E-19
 -1      2569 1.07332E-04-5.60832E-05-2.20877E-05 3.70683E-05 7.76517E-19-1.62112E-18
 -1      2570 8.89069E-05-5.02820E-05-1.63045E-05 3.96239E-05 8.89596E-19-2.42302E-18
 -1      2571 1.44801E-04-4.44681E-05-4.31959E-05-5.95051E-06 2.69828E-18-4.26905E-19
 -1      2572 1.49039E-04-3.67747E-05-4.85568E-05-5.51985E-07 3.46013E-18-3.57236E-19
 -1      2573 7.44630E-05-3.49486E-06-3.04285E-05-2.12631E-06-1.12869E-18-2.23949E-18
 -1      2574 7.46987E-05-3.53363E-06-3.05229E-05-1.97465E-06-1.29244E-18-2.15755E-18
 -1      2575 7.53634E-05-4.85261E-06-3.01948E-05-1.49007E-06-1.25234E-18-1.95813E-18
 -1      2576 7.49383E-05-4.82651E-06-3.00285E-05-2.65759E-06-1.10872E-18-2.16139E-18
 -1      2577 1.48034E-04-2.64366E-05-5.23365E-05 4.01469E-06 4.20044E-18-3.62954E-19
 -1      2578 1.45583E-04-1.78629E-05-5.53448E-05 5.74137E-06 4.46556E-18-4.13987E-19
 -1      2579 1.42249E-04-3.21770E-05-4.73047E-05 7.38199E-06 3.20793E-18 5.58406E-19
 -1      2580 1.42272E-04-1.19772E-05-5.64582E-05-4.32981E-06 4.60066E-18-2.05183E-18
 -1      2581 1.43269E-04-1.64234E-05-5.48016E-05-6.87148E-06 3.78581E-18-1.97528E-18
 -1      2582 6.63612E-05-4.08726E-05-1.09759E-05 4.19941E-05 7.33531E-19-3.78539E-18
 -1      2583 4.87306E-05-3.41628E-05-6.15120E-06 3.61886E-05 7.18072E-19-4.55831E-18
 -1      2584 1.40741E-04-1.04484E-05-5.63603E-05 3.26163E-06 4.63941E-18-6.85673E-19
 -1      2585 1.40244E-04-9.28907E-06-5.67346E-05-7.49330E-07 4.76287E-18-1.12163E-18
 -1      2586 1.30407E-04-5.52892E-05-3.22847E-05-2.28651E-05 1.45753E-18-5.57771E-19
 -1      2587 1.40848E-04-5.20189E-05-3.82738E-05-1.61268E-05 2.19911E-18-5.87206E-19
 -1      2588 5.94860E-05-3.60321E-05-9.61394E-06-4.15364E-05-8.53809E-19-3.05969E-18
 -1      2589 7.46815E-05-4.29209E-05-1.34079E-05-4.51613E-05-2.87144E-19-2.63999E-18
 -1      2590 2.66703E-05-1.96088E-05-2.62806E-06-2.23862E-05-8.38351E-19-4.91258E-18
 -1      2591 3.97922E-05-2.61876E-05-5.69785E-06-3.55162E-05-7.82658E-19-4.15978E-18
 -1      2592 1.87848E-05-1.62304E-05-7.91280E-07 4.13784E-06-1.87935E-19-4.56212E-18
 -1      2593 1.89488E-05-1.57889E-05-1.11699E-06-8.90851E-06-1.21126E-19-4.85096E-18
 -1      2594 1.46853E-04-2.52473E-05-5.28233E-05-1.00866E-05-3.75003E-18 1.06430E-18
 -1      2595 1.47080E-04-3.46929E-05-4.83791E-05-1.11625E-05-2.63173E-18 8.62068E-19
 -1      2596 3.48436E-05-2.63035E-05-3.51075E-06 3.01093E-05 2.95826E-19-4.71967E-18
 -1      2597 2.41933E-05-1.97662E-05-1.67087E-06 1.76055E-05 3.90800E-19-4.47233E-18
 -1      2598 1.35185E-04-5.99462E-05-3.26192E-05 2.08701E-05-2.71262E-19-4.12929E-19
 -1      2599 1.23075E-04-5.98090E-05-2.70980E-05 2.72836E-05 6.43322E-19-1.11554E-18
 -1      2600 1.18172E-04-5.91462E-05-2.51099E-05 2.89858E-05 1.40565E-18-8.59686E-19
 -1      2601 1.40025E-04-5.99379E-05-3.41435E-05 8.89954E-06 2.34310E-19 6.16534E-19
 -1      2602 1.50457E-04-3.24046E-05-5.09900E-05 8.89593E-06-3.97386E-18-1.18055E-18
 -1      2603 1.52715E-04-2.42461E-05-5.54410E-05 9.01084E-06-4.78637E-18-5.98217E-19
 -1      2604 1.40097E-04-1.98791E-05-5.17258E-05 1.11080E-05-4.44481E-18-3.15520E-19
 -1      2605 1.47274E-04-1.41623E-05-5.75246E-05-2.79519E-06-4.96150E-18 9.08708E-19
 -1      2606 1.45069E-04-1.68792E-05-5.56351E-05-7.05503E-06-4.53205E-18 9.63288E-19
 -1      2607 1.37495E-04-2.15722E-05-5.00047E-05-1.18482E-05-3.79534E-18 1.25742E-18
 -1      2608 1.36276E-04-1.29031E-05-5.31110E-05-3.71102E-07-4.82174E-18 8.62677E-19
 -1      2609 1.47934E-04-5.11081E-05-4.18313E-05-3.61467E-07-2.72246E-18-1.43890E-18
 -1      2610 1.51126E-04-4.49223E-05-4.61187E-05 4.44806E-06-3.04185E-18-1.53525E-18
 -1      2611 1.32123E-04-6.05956E-05-3.07373E-05-1.85408E-05-1.19834E-18-1.64473E-18
 -1      2612 1.44221E-04-5.75915E-05-3.73572E-05-1.05881E-05-2.20176E-18-2.16629E-18
 -1      2613 1.43967E-04-5.66662E-05-3.74229E-05 9.20766E-08-1.82663E-18-1.64716E-18
 -1      2614 1.05840E-04-5.67781E-05-2.08746E-05-3.44646E-05 4.48927E-20 4.24311E-19
 -1      2615 1.19200E-04-5.98366E-05-2.56854E-05-3.02124E-05-3.48554E-19-7.31625E-19
 -1      2616 3.52733E-05-2.79068E-05-3.01914E-06-2.86473E-05 9.64982E-19 4.96742E-18
 -1      2617 4.74972E-05-3.26935E-05-6.19955E-06-3.65196E-05 9.67947E-19 4.81771E-18
 -1      2618 6.45272E-05-3.69393E-05-1.13267E-05-3.74220E-05 1.81096E-18 3.54843E-18
 -1      2619 3.69770E-05-2.14616E-05-6.14300E-06-2.35036E-05 9.40736E-19 4.02383E-18
 -1      2620 1.02017E-04-2.15955E-05-3.44895E-05-4.21082E-06-1.91183E-18 1.64544E-18
 -1      2621 1.03793E-04-2.53509E-05-3.36291E-05-4.17154E-08-1.57355E-18 1.73881E-18
 -1      2622 1.00918E-04-2.35799E-05-3.31638E-05 1.22652E-06-1.44928E-18 9.95490E-19
 -1      2623 9.76334E-05-1.81248E-05-3.40930E-05-3.46978E-06-2.05371E-18 9.17985E-19
 -1      2624 1.05285E-04-2.82961E-05-3.30246E-05 4.18523E-06 1.65291E-18 3.82144E-19
 -1      2625 1.05851E-04-2.67460E-05-3.39255E-05 7.06550E-06 1.77490E-18 5.95504E-19
 -1      2626 1.03597E-04-2.41227E-05-3.41278E-05 7.89416E-06 1.83981E-18 5.11264E-20
 -1      2627 1.04051E-04-2.73973E-05-3.28978E-05 3.88447E-06 1.58634E-18-1.39979E-19
 -1      2628 1.27008E-04-5.63044E-05-3.04925E-05 2.82184E-05 4.18011E-19-1.65447E-18
 -1      2629 1.12082E-04-5.58159E-05-2.41014E-05 3.42521E-05-5.32784E-19-4.38551E-19
 -1      2630 1.34458E-04-1.37421E-05-5.20728E-05 6.36152E-06 4.36942E-18 1.93971E-19
 -1      2631 8.34853E-05-9.87100E-06-3.15291E-05 5.09028E-08-1.64442E-18-1.09035E-18
 -1      2632 8.42103E-05-9.20689E-06-3.22224E-05-1.12539E-06-1.78512E-18-1.00925E-18
 -1      2633 8.73769E-05-1.09614E-05-3.27670E-05-1.72438E-06-1.98310E-18-5.77819E-19
 -1      2634 1.05002E-04-3.17097E-05-3.14289E-05 8.16839E-08 1.08072E-18-9.33010E-20
 -1      2635 1.00773E-04-2.15887E-05-3.39804E-05 7.20135E-06 1.67066E-18-6.58648E-19
 -1      2636 1.33104E-04-5.76240E-05-3.21653E-05 1.79504E-05-5.02926E-19-2.84720E-18
 -1      2637 4.84270E-05-2.80290E-05-8.24358E-06 3.32283E-05 9.39783E-19-4.32135E-18
 -1      2638 1.38969E-04-2.18982E-05-5.04802E-05-8.65517E-06 2.89961E-18-2.49716E-18
 -1      2639 1.29886E-04-6.20595E-05-2.88507E-05-1.87439E-05-1.71842E-19-1.65553E-18
 -1      2640 2.82491E-05-1.57205E-05-4.81910E-06 1.21477E-05 1.54795E-19-4.48589E-18
 -1      2641 2.94389E-05-1.54646E-05-5.36196E-06-1.64578E-05-8.45921E-19-4.69447E-18
 -1      2642 9.52347E-05-2.85750E-05-2.85685E-05-1.19363E-08-4.58745E-19 2.77687E-18
 -1      2643 1.09968E-04-5.61922E-05-2.27931E-05 3.50860E-05-1.91345E-18-8.08916E-19
 -1      2644 9.52358E-05-2.85767E-05-2.85682E-05-1.32650E-08-7.13053E-19 7.44521E-19
 -1      2645 5.56183E-05-2.99473E-05-1.04544E-05-3.77453E-05-1.48930E-18-3.43917E-18
 -1      2646 5.08270E-05-2.57479E-05-1.03701E-05 3.32152E-05-1.76575E-18 3.88809E-18
 -1      2647 3.79976E-05-2.19247E-05-6.28813E-06 2.81520E-05-1.38543E-18 4.96573E-18
 -1      2648 3.69292E-05-1.61169E-05-8.36880E-06 1.99214E-05-8.53227E-19 4.43210E-18
 -1      2649 7.57480E-05-4.26889E-05-1.38185E-05 4.21027E-05-2.48774E-18 2.41447E-18
 -1      2650 1.25128E-04-5.75875E-05-2.89344E-05-2.78730E-05 5.57983E-19-6.18969E-19
 -1      2651 1.31395E-04-5.79977E-05-3.15807E-05-1.80776E-05 6.64391E-20-1.45054E-20
 -1      2652 1.16629E-04-5.66480E-05-2.54557E-05-3.13942E-05-3.70577E-19-4.73491E-19
 -1      2653 1.00891E-04-2.32076E-05-3.32485E-05 5.05043E-06 1.50306E-18-6.50654E-19
 -1      2654 9.37859E-05-1.55892E-05-3.35723E-05-2.50673E-06-2.01937E-18 2.28633E-19
 -1      2655 9.96446E-05-5.32028E-05-1.95374E-05-3.59034E-05 1.08844E-18 6.27043E-19
 -1      2656 1.45423E-04-3.81126E-05-4.60857E-05 1.39027E-05-3.13815E-18-1.36965E-18
 -1      2657 1.41719E-04-5.00950E-05-3.93515E-05-4.70232E-06 1.63401E-18 2.26370E-19
 -1      2658 1.43788E-04-4.31497E-05-4.32354E-05-1.09091E-05-1.43906E-18 1.35398E-18
 -1      2659 8.31690E-05-4.52858E-05-1.57792E-05 3.94722E-05 1.37537E-18-2.51775E-18
 -1      2660 9.01849E-05-4.84799E-05-1.77360E-05-4.11725E-05-9.81076E-19-1.87094E-18
 -1      2661 1.44523E-04-4.41213E-05-4.30322E-05 5.03289E-07 9.64135E-19-2.39033E-18
 -1      2662 1.39856E-04-4.92009E-05-3.88423E-05 9.81825E-07 2.51992E-19-2.88764E-18
 -1      2663 1.39418E-04-3.80931E-05-4.42735E-05-8.35128E-06 8.86632E-19-3.08532E-18
 -1      2664 1.31333E-04-9.43763E-06-5.26006E-05-3.47407E-06 3.97407E-18-1.46902E-18
 -1      2665 9.52338E-05-2.85745E-05-2.85683E-05 1.28938E-08-2.31337E-19 7.01590E-19
 -1      2666 9.52363E-05-2.85774E-05-2.85681E-05 1.42295E-08-3.85030E-19-1.31574E-18
 -1      2667 9.52363E-05-2.85778E-05-2.85680E-05 1.67698E-08-1.21997E-18-1.35831E-18
 -1      2668 9.52321E-05-2.85737E-05-2.85679E-05 1.49087E-08-5.79362E-19 1.47411E-18
 -1      2669 9.52356E-05-2.85770E-05-2.85680E-05-1.59958E-08-8.53684E-19 7.77981E-19
 -1      2670 9.52335E-05-2.85752E-05-2.85678E-05 1.77638E-08-7.22395E-19 1.05813E-18
 -1      2671 8.22258E-05-1.13443E-05-3.03553E-05-3.96208E-06-4.13677E-19-1.94271E-18
 -1      2672 7.99513E-05-9.90947E-06-3.00641E-05-4.39071E-06-6.32966E-19-2.01309E-18
 -1      2673 7.77576E-05-8.18845E-06-2.97944E-05-4.28707E-06-7.77176E-19-2.17368E-18
 -1      2674 7.61207E-05-7.12921E-06-2.96156E-05-4.16868E-06-9.73374E-19-2.08599E-18
 -1      2675 7.94142E-05-1.06845E-05-2.94482E-05-5.45423E-06-7.20848E-19-1.94398E-18
 -1      2676 9.26018E-05-1.84808E-05-3.17803E-05-2.01323E-07 6.04714E-19-1.37736E-18
 -1      2677 9.00538E-05-1.67838E-05-3.14252E-05-1.37090E-06 3.46042E-19-1.48840E-18
 -1      2678 9.75810E-05-2.20682E-05-3.23814E-05 2.01648E-06 1.11008E-18-1.21901E-18
 -1      2679 9.50865E-05-2.02204E-05-3.20968E-05 9.80191E-07 8.42074E-19-1.26410E-18
 -1      2680 9.52566E-05-2.17405E-05-3.15112E-05-8.86931E-07 6.75287E-19-1.05401E-18
 -1      2681 1.03467E-04-2.94374E-05-3.17555E-05 4.36136E-07 1.12020E-18-4.66757E-19
 -1      2682 1.03211E-04-2.80901E-05-3.21448E-05 1.55939E-06 1.18013E-18-4.68408E-19
 -1      2683 9.29366E-05-1.63960E-05-3.28049E-05-5.27183E-07-1.77385E-18 1.08960E-19
 -1      2684 1.01110E-04-2.47593E-05-3.27359E-05 3.34462E-06 1.34942E-18-7.43199E-19
 -1      2685 5.92727E-05-3.05684E-05-1.20795E-05 3.61733E-05 1.23296E-18-3.52239E-18
 -1      2686 4.61517E-05-2.22231E-05-9.78383E-06 2.86532E-05 8.60268E-19-3.81482E-18
 -1      2687 9.73882E-05-2.10538E-05-3.27072E-05 1.54416E-06-1.55227E-18 4.53303E-19
 -1      2688 9.87552E-05-2.32507E-05-3.23165E-05 3.76174E-06-1.18715E-18 5.95113E-19
 -1      2689 9.94780E-05-2.49359E-05-3.19540E-05 5.73756E-06-9.10709E-19 4.94297E-19
 -1      2690 9.07038E-05-1.63290E-05-3.19196E-05 1.94815E-06-1.44613E-18-3.58791E-19
 -1      2691 1.00864E-04-2.75838E-05-3.13496E-05 8.61643E-06-5.00711E-19 5.32500E-19
 -1      2692 1.02162E-04-2.95539E-05-3.11096E-05 9.74250E-06-3.23666E-19 4.85467E-19
 -1      2693 1.03772E-04-3.18152E-05-3.07559E-05 1.10217E-05-1.37538E-19 4.43672E-19
 -1      2694 1.05941E-04-3.45076E-05-3.06118E-05 1.11823E-05-1.22297E-19 3.59344E-19
 -1      2695 9.92067E-05-2.91090E-05-3.01179E-05 1.16057E-05-3.47446E-19-8.94505E-20
 -1      2696 1.08957E-04-3.77265E-05-3.03971E-05 1.14871E-05 1.12138E-19 5.27716E-19
 -1      2697 1.12183E-04-4.11921E-05-3.04471E-05 1.02908E-05 3.03476E-19 7.57762E-19
 -1      2698 1.03657E-04-3.52677E-05-2.94374E-05 1.37378E-05 1.22806E-19 5.96232E-20
 -1      2699 1.17091E-04-4.51958E-05-3.06247E-05 8.82087E-06 5.49757E-19 1.16350E-18
 -1      2700 1.20968E-04-4.84534E-05-3.11274E-05 5.84406E-06 5.85287E-19 1.18509E-18
 -1      2701 1.11425E-04-4.35973E-05-2.92645E-05 1.35350E-05 6.54743E-19 4.55717E-19
 -1      2702 1.27334E-04-5.17341E-05-3.22490E-05 1.71684E-06 8.28971E-19 1.43613E-18
 -1      2703 1.30450E-04-5.22353E-05-3.35641E-05-2.91101E-06 7.61747E-19 1.52357E-18
 -1      2704 1.22701E-04-5.21314E-05-3.04847E-05 8.90436E-06 8.96386E-19 1.04584E-18
 -1      2705 1.33348E-04-3.42393E-05-4.32719E-05-1.66232E-05-2.15538E-18 2.16083E-18
 -1      2706 1.30089E-04-2.44002E-05-4.56434E-05-1.42662E-05-2.99130E-18 2.01641E-18
 -1      2707 1.29122E-04-1.86057E-05-4.80900E-05-9.57230E-06-3.79513E-18 1.52572E-18
 -1      2708 1.27385E-04-1.43391E-05-4.89994E-05-1.67622E-06-4.55534E-18 7.75617E-19
 -1      2709 1.27776E-04-1.49594E-05-4.90605E-05 6.24036E-06-4.52951E-18 1.59348E-19
 -1      2710 1.29282E-04-1.99760E-05-4.74669E-05 1.28763E-05-3.98698E-18-5.40725E-19
 -1      2711 1.36146E-04-3.71338E-05-4.27523E-05 1.53675E-05-2.89008E-18-9.98546E-19
 -1      2712 1.38007E-04-4.61963E-05-3.96470E-05 1.43654E-05-1.86511E-18-1.61286E-18
 -1      2713 1.26978E-04-5.19684E-05-3.22003E-05-2.04084E-08-2.46619E-19-8.73705E-19
 -1      2714 1.23336E-04-5.02150E-05-3.11428E-05-4.30868E-06 2.91618E-19-5.25860E-19
 -1      2715 1.17302E-04-4.63842E-05-3.04040E-05-7.87681E-06 2.07788E-19-2.96692E-19
 -1      2716 1.13422E-04-4.29311E-05-3.00474E-05-1.03537E-05 2.84112E-19-8.93256E-20
 -1      2717 1.18097E-04-5.00615E-05-2.94735E-05-1.07119E-05 3.87478E-19-1.99489E-19
 -1      2718 1.09254E-04-3.93809E-05-2.99511E-05-1.14143E-05-1.21695E-19 1.22989E-19
 -1      2719 1.06267E-04-3.63610E-05-2.98690E-05-1.25318E-05 9.47155E-20 4.48547E-20
 -1      2720 1.07542E-04-4.12229E-05-2.86356E-05-1.43165E-05 1.89176E-19 1.63583E-19
 -1      2721 1.03820E-04-3.38389E-05-2.99797E-05-1.24220E-05 4.72004E-19-1.40024E-19
 -1      2722 1.01805E-04-3.17833E-05-2.99663E-05-1.26024E-05 3.68174E-19-3.38796E-19
 -1      2723 1.01206E-04-3.43147E-05-2.87667E-05-1.46035E-05 4.59888E-20 4.27983E-19
 -1      2724 1.00564E-04-3.03039E-05-3.00937E-05-1.19758E-05 4.26411E-19-2.04467E-19
 -1      2725 9.92703E-05-2.90918E-05-3.00621E-05-1.16271E-05 6.79237E-19 1.27826E-19
 -1      2726 9.76916E-05-2.98990E-05-2.91021E-05-1.34958E-05 4.55198E-19 7.34933E-19
 -1      2727 9.87302E-05-2.83613E-05-3.01402E-05-1.08222E-05 5.88547E-19-3.23037E-19
 -1      2728 9.78939E-05-2.77285E-05-3.00708E-05-1.02135E-05 2.45359E-19-3.30202E-19
 -1      2729 9.60218E-05-2.75060E-05-2.93834E-05-1.18994E-05 6.89774E-19 2.93776E-19
 -1      2730 9.77100E-05-2.74551E-05-3.00923E-05-9.38146E-06 2.45057E-19-8.39148E-19
 -1      2731 9.71410E-05-2.71722E-05-2.99928E-05-8.67955E-06 2.47076E-19-9.13808E-19
 -1      2732 9.53545E-05-2.64351E-05-2.95417E-05-1.02012E-05-2.10071E-19 8.40740E-20
 -1      2733 9.71141E-05-2.71466E-05-2.99703E-05-7.89068E-06 4.30644E-19-8.04684E-19
 -1      2734 9.66995E-05-2.70563E-05-2.98553E-05-7.19283E-06 2.20409E-19-1.02413E-18
 -1      2735 9.51675E-05-2.61301E-05-2.95862E-05-8.56093E-06 1.81532E-19-3.69208E-19
 -1      2736 9.67270E-05-2.71483E-05-2.98050E-05-6.48060E-06 1.92922E-19-1.06527E-18
 -1      2737 9.64062E-05-2.71545E-05-2.96874E-05-5.83899E-06-1.11820E-19-6.02064E-19
 -1      2738 9.51756E-05-2.62233E-05-2.95481E-05-7.05327E-06 3.39243E-19-1.17746E-18
 -1      2739 9.64415E-05-2.72903E-05-2.96232E-05-5.21731E-06-1.59950E-19-2.22407E-19
 -1      2740 9.61839E-05-2.73392E-05-2.95120E-05-4.65563E-06 4.86837E-21 6.35078E-19
 -1      2741 9.52394E-05-2.64939E-05-2.94597E-05-5.71388E-06 7.58418E-20 5.36870E-20
 -1      2742 9.62100E-05-2.74808E-05-2.94439E-05-4.12699E-06-7.49938E-19 7.67661E-19
 -1      2743 9.60002E-05-2.75440E-05-2.93443E-05-3.65172E-06-9.08368E-19 1.40598E-19
 -1      2744 9.52999E-05-2.68203E-05-2.93466E-05-4.55563E-06-4.42794E-19 9.04385E-19
 -1      2745 9.60137E-05-2.76740E-05-2.92786E-05-3.21176E-06-4.49037E-19-9.03850E-22
 -1      2746 9.58430E-05-2.77376E-05-2.91927E-05-2.81971E-06-6.37187E-19-5.82539E-20
 -1      2747 9.53388E-05-2.71408E-05-2.92269E-05-3.57658E-06-9.08300E-19 1.34317E-18
 -1      2748 9.58461E-05-2.78495E-05-2.91331E-05-2.46029E-06-8.92509E-19 2.46516E-19
 -1      2749 9.57087E-05-2.79076E-05-2.90613E-05-2.14342E-06-2.34917E-19 3.19728E-19
 -1      2750 9.53555E-05-2.74281E-05-2.91116E-05-2.76529E-06-2.14337E-19 1.09112E-18
 -1      2751 9.57048E-05-2.80003E-05-2.90094E-05-1.85467E-06 3.75328E-19 2.92129E-19
 -1      2752 9.55958E-05-2.80507E-05-2.89507E-05-1.60298E-06 1.49325E-19 4.44886E-19
 -1      2753 9.53554E-05-2.76732E-05-2.90070E-05-2.10490E-06-9.06126E-20 9.84873E-19
 -1      2754 9.55881E-05-2.81258E-05-2.89068E-05-1.37461E-06-4.20512E-20 6.96194E-19
 -1      2755 9.55032E-05-2.81683E-05-2.88599E-05-1.17785E-06 3.09147E-19 6.60003E-19
 -1      2756 9.53449E-05-2.78759E-05-2.89159E-05-1.57610E-06 3.81992E-19 9.84326E-19
 -1      2757 9.54939E-05-2.82282E-05-2.88237E-05-9.99952E-07 9.39241E-20 7.20266E-19
 -1      2758 9.54290E-05-2.82633E-05-2.87869E-05-8.48450E-07-6.79778E-20 1.17302E-18
 -1      2759 9.53293E-05-2.80401E-05-2.88390E-05-1.15926E-06 3.36790E-19 1.40810E-19
 -1      2760 9.54197E-05-2.83103E-05-2.87577E-05-7.11964E-07-1.38026E-19 1.26291E-18
 -1      2761 9.53712E-05-2.83389E-05-2.87292E-05-5.97086E-07-4.47926E-19 1.18773E-18
 -1      2762 9.53122E-05-2.81710E-05-2.87756E-05-8.35677E-07-2.15799E-19 1.31526E-18
 -1      2763 9.53627E-05-2.83754E-05-2.87062E-05-4.94005E-07-8.68485E-19 1.48023E-18
 -1      2764 9.53271E-05-2.83984E-05-2.86845E-05-4.08283E-07-1.60159E-18 1.37114E-18
 -1      2765 9.52959E-05-2.82740E-05-2.87244E-05-5.88361E-07-5.37139E-19 2.23991E-18
 -1      2766 9.53199E-05-2.84264E-05-2.86666E-05-3.31724E-07-1.95740E-18 1.88610E-18
 -1      2767 9.52945E-05-2.84446E-05-2.86505E-05-2.68865E-07-4.81581E-19 2.03134E-18
 -1      2768 9.52816E-05-2.83540E-05-2.86839E-05-4.02359E-07-1.18607E-18 3.24071E-18
 -1      2769 9.52885E-05-2.84659E-05-2.86368E-05-2.13043E-07-1.93931E-19 2.19654E-18
 -1      2770 9.52709E-05-2.84802E-05-2.86250E-05-1.67850E-07 5.19483E-20 2.11660E-18
 -1      2771 9.52696E-05-2.84153E-05-2.86524E-05-2.64869E-07-9.52772E-19 2.83249E-18
 -1      2772 9.52663E-05-2.84961E-05-2.86147E-05-1.28002E-07 4.61592E-19 1.45824E-18
 -1      2773 9.52545E-05-2.85072E-05-2.86063E-05-9.62542E-08 3.54027E-19 1.00552E-18
 -1      2774 9.52600E-05-2.84618E-05-2.86283E-05-1.65181E-07-2.07645E-19 1.78355E-18
 -1      2775 9.52510E-05-2.85189E-05-2.85987E-05-6.85163E-08-4.10662E-19 5.26428E-19
 -1      2776 9.52436E-05-2.85274E-05-2.85928E-05-4.68390E-08-1.01926E-19 1.55430E-19
 -1      2777 9.52527E-05-2.84965E-05-2.86102E-05-9.44955E-08-6.17344E-19-9.66805E-19
 -1      2778 9.52409E-05-2.85358E-05-2.85873E-05-2.81263E-08 5.18864E-19 4.61367E-19
 -1      2779 9.52366E-05-2.85422E-05-2.85834E-05-1.38590E-08-1.26354E-19-1.39707E-19
 -1      2780 9.52472E-05-2.85220E-05-2.85968E-05-4.56998E-08-1.95368E-19-8.03280E-19
 -1      2781 9.52347E-05-2.85482E-05-2.85795E-05-1.74701E-09-1.32744E-19-4.75887E-19
 -1      2782 9.52325E-05-2.85530E-05-2.85770E-05 7.17453E-09 4.70491E-19-1.41565E-19
 -1      2783 9.52432E-05-2.85403E-05-2.85872E-05-1.31353E-08 6.58393E-20-1.42516E-18
 -1      2784 9.52312E-05-2.85571E-05-2.85744E-05 1.45594E-08 1.38472E-18-9.04043E-20
 -1      2785 9.52305E-05-2.85606E-05-2.85728E-05 1.97099E-08 1.36179E-18 2.28858E-19
 -1      2786 9.52405E-05-2.85533E-05-2.85804E-05 7.62445E-09 9.47800E-19-6.64489E-19
 -1      2787 9.52296E-05-2.85634E-05-2.85711E-05 2.37892E-08 1.21123E-18 2.49047E-19
 -1      2788 9.52298E-05-2.85659E-05-2.85703E-05 2.63461E-08 4.27464E-19 4.36441E-19
 -1      2789 9.52386E-05-2.85622E-05-2.85758E-05 1.99824E-08 1.28086E-18-1.01320E-18
 -1      2790 9.52293E-05-2.85677E-05-2.85692E-05 2.81746E-08-9.46648E-19 9.02490E-19
 -1      2791 9.52301E-05-2.85695E-05-2.85688E-05 2.89960E-08-6.60592E-19 6.09989E-19
 -1      2792 9.52375E-05-2.85681E-05-2.85727E-05 2.65028E-08 1.80837E-19-2.18410E-18
 -1      2793 9.52298E-05-2.85706E-05-2.85682E-05 2.93350E-08-7.29423E-19 6.19861E-19
 -1      2794 9.52309E-05-2.85719E-05-2.85681E-05 2.90245E-08-1.20047E-19 6.22636E-19
 -1      2795 9.52368E-05-2.85720E-05-2.85707E-05 2.90721E-08-1.20716E-19-8.49591E-19
 -1      2796 9.52308E-05-2.85727E-05-2.85678E-05 2.84011E-08 2.85717E-19 1.14078E-18
 -1      2797 9.52320E-05-2.85737E-05-2.85679E-05 2.73597E-08-4.56585E-19 8.80326E-19
 -1      2798 9.52366E-05-2.85744E-05-2.85695E-05 2.90354E-08-1.49140E-19-3.23692E-19
 -1      2799 9.52321E-05-2.85742E-05-2.85677E-05 2.61247E-08-9.03953E-19 1.60320E-18
 -1      2800 9.52334E-05-2.85751E-05-2.85679E-05 2.45988E-08-8.06551E-19 9.21082E-19
 -1      2801 9.52366E-05-2.85761E-05-2.85688E-05 2.73054E-08-8.96233E-19-6.71520E-21
 -1      2802 9.52337E-05-2.85756E-05-2.85678E-05 2.29149E-08-9.67176E-19 4.29289E-19
 -1      2803 9.52350E-05-2.85764E-05-2.85679E-05 2.09868E-08-4.57725E-19-5.72226E-19
 -1      2804 9.52370E-05-2.85775E-05-2.85684E-05 2.45041E-08-9.89951E-19 7.74818E-19
 -1      2805 1.08588E-04-3.60577E-05-3.11121E-05 5.78172E-06 7.99387E-20 5.85636E-20
 -1      2806 1.08717E-04-3.62729E-05-3.10335E-05 4.31374E-06 2.24267E-19 3.09412E-19
 -1      2807 9.52378E-05-2.85791E-05-2.85681E-05-1.93652E-08-2.05896E-18-2.45490E-18
 -1      2808 9.52349E-05-2.85763E-05-2.85680E-05-1.80885E-08-1.70475E-18 2.14988E-19
 -1      2809 9.52333E-05-2.85754E-05-2.85677E-05-2.02222E-08-2.27932E-18 3.02658E-20
 -1      2810 1.07770E-04-3.57853E-05-3.08932E-05 2.64684E-06 2.34999E-19 1.93245E-19
 -1      2811 1.07478E-04-3.52526E-05-3.09132E-05 1.42433E-06 3.12951E-19 2.02658E-19
 -1      2812 1.09538E-04-3.72758E-05-3.09737E-05 2.94819E-06 2.85206E-19 5.35302E-19
 -1      2813 1.06057E-04-3.04705E-05-3.23391E-05 9.65713E-06 2.67904E-19 3.38103E-19
 -1      2814 1.07328E-04-3.26185E-05-3.20885E-05 9.70031E-06 8.68606E-20 1.56862E-19
 -1      2815 1.03193E-04-2.58482E-05-3.30824E-05 7.21166E-06 1.19565E-18 2.07847E-19
 -1      2816 1.04465E-04-2.80212E-05-3.28508E-05 8.88188E-06 6.37080E-19 2.69778E-19
 -1      2817 1.07892E-04-2.94692E-05-3.35929E-05 1.02681E-05 5.33383E-19 3.08906E-19
 -1      2818 1.01296E-04-2.30160E-05-3.35217E-05 1.43803E-06 1.48261E-18 1.37128E-19
 -1      2819 1.01836E-04-2.39647E-05-3.34218E-05 4.36351E-06 1.52903E-18 1.49283E-19
 -1      2820 1.04771E-04-2.41555E-05-3.45955E-05 6.60233E-06 1.27297E-18 8.51549E-20
 -1      2821 1.01821E-04-2.38869E-05-3.34406E-05-5.33079E-06 1.08478E-18-1.03408E-19
 -1      2822 1.01255E-04-2.29707E-05-3.35231E-05-2.37578E-06 1.31593E-18-8.31714E-20
 -1      2823 1.03270E-04-2.17658E-05-3.49942E-05-4.66506E-07 1.41821E-18-9.37692E-20
 -1      2824 1.04449E-04-2.79012E-05-3.28907E-05-9.92410E-06 7.72521E-19-5.79030E-19
 -1      2825 1.03141E-04-2.57288E-05-3.31063E-05-8.21345E-06 1.04627E-18-1.79897E-19
 -1      2826 1.04646E-04-2.39888E-05-3.45960E-05-7.60443E-06 1.15297E-18-2.90906E-19
 -1      2827 1.07384E-04-3.26203E-05-3.21174E-05-1.07893E-05 2.42684E-19-6.42014E-19
 -1      2828 1.06046E-04-3.03846E-05-3.23707E-05-1.07517E-05 4.47498E-19-6.14991E-19
 -1      2829 1.07728E-04-2.93052E-05-3.35892E-05-1.13368E-05 8.08483E-19-3.47838E-19
 -1      2830 1.08965E-04-3.57902E-05-3.13953E-05-8.51729E-06-1.38384E-19-9.25590E-19
 -1      2831 1.08178E-04-3.44157E-05-3.16023E-05-9.71019E-06 3.12052E-19-7.77415E-19
 -1      2832 1.10241E-04-3.45893E-05-3.23739E-05-1.07752E-05 4.70009E-19-8.97933E-19
 -1      2833 1.08788E-04-3.67535E-05-3.08704E-05-4.83759E-06-9.87513E-20-1.22765E-18
 -1      2834 1.08684E-04-3.64015E-05-3.10059E-05-6.53065E-06-2.49924E-19-8.33574E-19
 -1      2835 1.10745E-04-3.75758E-05-3.13262E-05-7.35453E-06-1.79469E-19-9.06489E-19
 -1      2836 1.07354E-04-3.60394E-05-3.05422E-05-1.21596E-06-4.07300E-19-2.43283E-19
 -1      2837 1.07767E-04-3.64112E-05-3.06245E-05-2.83012E-06-4.00536E-19-8.65197E-19
 -1      2838 1.09376E-04-3.79610E-05-3.06023E-05-3.15564E-06-5.21481E-19-4.57698E-19
 -1      2839 1.05377E-04-3.45102E-05-3.03450E-05 1.59230E-06-2.15585E-19 6.23019E-19
 -1      2840 1.06063E-04-3.52158E-05-3.04041E-05 3.49088E-07 6.23562E-20-1.45592E-20
 -1      2841 1.07000E-04-3.66224E-05-3.01765E-05 4.71174E-07-3.51826E-19-3.19678E-19
 -1      2842 1.03374E-04-3.28340E-05-3.02080E-05 3.40457E-06 1.48414E-19 8.99062E-19
 -1      2843 1.04142E-04-3.35888E-05-3.02678E-05 2.60319E-06-3.22600E-21 7.16599E-19
 -1      2844 1.04434E-04-3.45989E-05-2.99509E-05 3.01840E-06-3.67692E-19 6.81525E-19
 -1      2845 1.01606E-04-3.13716E-05-3.00830E-05 4.33860E-06 2.31449E-20 3.55223E-19
 -1      2846 1.02345E-04-3.20274E-05-3.01550E-05 3.92873E-06 2.15610E-19 3.87863E-19
 -1      2847 1.02152E-04-3.26001E-05-2.98285E-05 4.49619E-06 4.65230E-19 1.05871E-18
 -1      2848 1.00152E-04-3.02483E-05-2.99473E-05 4.61501E-06-1.56894E-20 3.50638E-19
 -1      2849 1.00811E-04-3.07559E-05-3.00331E-05 4.50106E-06 1.53150E-19 2.99759E-19
 -1      2850 1.00323E-04-3.09623E-05-2.97421E-05 5.12455E-06 2.50482E-19 6.07786E-19
 -1      2851 9.89990E-05-2.94577E-05-2.97965E-05 4.45435E-06 1.82891E-19-2.86623E-19
 -1      2852 9.95638E-05-2.98214E-05-2.98918E-05 4.53820E-06 2.16281E-19 1.80422E-19
 -1      2853 9.89390E-05-2.97688E-05-2.96563E-05 5.15986E-06 2.39862E-19 5.13893E-19
 -1      2854 9.80988E-05-2.89398E-05-2.96359E-05 4.03733E-06-3.33466E-19-6.60130E-19
 -1      2855 9.85716E-05-2.91852E-05-2.97345E-05 4.23692E-06-1.59549E-19-1.90657E-19
 -1      2856 9.79241E-05-2.89752E-05-2.95580E-05 4.82360E-06 1.67734E-19 1.22061E-19
 -1      2857 9.74006E-05-2.86240E-05-2.94741E-05 3.49692E-06-4.29685E-19-7.17946E-19
 -1      2858 9.77899E-05-2.87808E-05-2.95701E-05 3.75123E-06-2.84522E-19-1.08436E-19
 -1      2859 9.71894E-05-2.84932E-05-2.94473E-05 4.28453E-06-4.47996E-19-5.14054E-20
 -1      2860 9.68602E-05-2.84479E-05-2.93192E-05 2.92326E-06-6.51459E-19-9.29122E-19
 -1      2861 9.71766E-05-2.85423E-05-2.94082E-05 3.19082E-06-4.52269E-19-1.04773E-18
 -1      2862 9.66584E-05-2.82325E-05-2.93299E-05 3.66159E-06-5.43002E-19-2.88988E-19
 -1      2863 9.64429E-05-2.83633E-05-2.91773E-05 2.37246E-06-1.13229E-18-1.64654E-19
 -1      2864 9.66965E-05-2.84155E-05-2.92564E-05 2.62761E-06-8.04033E-19-5.55355E-19
 -1      2865 9.62728E-05-2.81183E-05-2.92125E-05 3.03287E-06-1.14017E-18-1.56871E-20
 -1      2866 9.61215E-05-2.83352E-05-2.90519E-05 1.87581E-06-2.12246E-19-4.35211E-19
 -1      2867 9.63221E-05-2.83602E-05-2.91199E-05 2.10447E-06-6.15023E-19-5.30530E-19
 -1      2868 9.59906E-05-2.80946E-05-2.91011E-05 2.44549E-06-6.84174E-19-6.16897E-19
 -1      2869 9.58756E-05-2.83400E-05-2.89445E-05 1.44750E-06-7.80014E-19-4.30527E-19
 -1      2870 9.60318E-05-2.83481E-05-2.90014E-05 1.64353E-06-3.97430E-19-2.01755E-20
 -1      2871 9.57826E-05-2.81221E-05-2.89997E-05 1.92449E-06-4.18150E-19-9.95825E-19
 -1      2872 9.56890E-05-2.83619E-05-2.88551E-05 1.09066E-06 1.61974E-19-3.88015E-19
 -1      2873 9.58088E-05-2.83603E-05-2.89014E-05 1.25303E-06-6.30620E-19-6.10432E-19
 -1      2874 9.56286E-05-2.81752E-05-2.89106E-05 1.47990E-06-4.23711E-19-5.36452E-19
 -1      2875 9.55489E-05-2.83914E-05-2.87823E-05 8.01772E-07 6.93047E-19 6.20838E-19
 -1      2876 9.56392E-05-2.83844E-05-2.88192E-05 9.32442E-07 7.20001E-19 4.71200E-19
 -1      2877 9.55146E-05-2.82377E-05-2.88346E-05 1.11210E-06-5.50955E-20-3.56435E-20
 -1      2878 9.54453E-05-2.84224E-05-2.87245E-05 5.73718E-07 6.19793E-19 1.25921E-18
 -1      2879 9.55120E-05-2.84131E-05-2.87532E-05 6.76241E-07 8.97562E-19 1.13132E-18
 -1      2880 9.54302E-05-2.83001E-05-2.87715E-05 8.15794E-07 6.40567E-19 1.31413E-18
 -1      2881 9.53699E-05-2.84517E-05-2.86795E-05 3.97845E-07-4.30406E-19 2.71107E-18
 -1      2882 9.54181E-05-2.84418E-05-2.87013E-05 4.76400E-07 1.65390E-20 1.75744E-18
 -1      2883 9.53683E-05-2.83571E-05-2.87202E-05 5.82699E-07-3.01541E-20 2.17013E-18
 -1      2884 9.53161E-05-2.84776E-05-2.86453E-05 2.65263E-07-5.57343E-19 2.70447E-18
 -1      2885 9.53501E-05-2.84682E-05-2.86615E-05 3.24067E-07-1.15151E-19 2.71586E-18
 -1      2886 9.53232E-05-2.84064E-05-2.86796E-05 4.03392E-07-5.68910E-19 1.19777E-18
 -1      2887 9.52788E-05-2.84996E-05-2.86198E-05 1.67621E-07 5.46203E-19 1.90416E-18
 -1      2888 9.53020E-05-2.84912E-05-2.86316E-05 2.10587E-07-1.81327E-19 2.40932E-18
 -1      2889 9.52909E-05-2.84475E-05-2.86480E-05 2.68475E-07 3.78582E-19 7.30727E-19
 -1      2890 9.52537E-05-2.85177E-05-2.86013E-05 9.75035E-08 1.19649E-18 3.02058E-19
 -1      2891 9.52689E-05-2.85104E-05-2.86096E-05 1.28075E-07 1.07848E-18 1.22630E-18
 -1      2892 9.52682E-05-2.84806E-05-2.86239E-05 1.69259E-07 1.09887E-18 8.39736E-19
 -1      2893 9.52376E-05-2.85321E-05-2.85881E-05 4.85849E-08 8.46031E-19 1.31108E-19
 -1      2894 9.52470E-05-2.85261E-05-2.85938E-05 6.96755E-08 9.23986E-19 4.59786E-19
 -1      2895 9.52527E-05-2.85066E-05-2.86059E-05 9.80971E-08 1.20620E-18 2.52972E-19
 -1      2896 9.52280E-05-2.85434E-05-2.85792E-05 1.56314E-08 6.06072E-19 6.78702E-19
 -1      2897 9.52332E-05-2.85385E-05-2.85829E-05 2.96338E-08 8.82088E-19 5.98234E-19
 -1      2898 9.52424E-05-2.85265E-05-2.85929E-05 4.85033E-08 6.57411E-19 7.80171E-19
 -1      2899 9.52230E-05-2.85520E-05-2.85733E-05-5.57174E-09 1.25254E-19 1.51909E-18
 -1      2900 9.52253E-05-2.85481E-05-2.85755E-05 3.25535E-09 1.11622E-19 1.26788E-18
 -1      2901 9.52359E-05-2.85414E-05-2.85836E-05 1.51301E-08-1.57765E-19 1.75879E-18
 -1      2902 9.52210E-05-2.85584E-05-2.85697E-05-1.83364E-08-9.01044E-19 1.02013E-18
 -1      2903 9.52214E-05-2.85554E-05-2.85709E-05-1.31926E-08-1.47406E-19 1.84041E-18
 -1      2904 9.52322E-05-2.85524E-05-2.85773E-05-6.31677E-09-2.57591E-19 2.46847E-18
 -1      2905 9.52211E-05-2.85632E-05-2.85676E-05-2.52010E-08-4.71637E-19 4.38291E-19
 -1      2906 9.52203E-05-2.85608E-05-2.85682E-05-2.26062E-08-4.30331E-19 1.14685E-18
 -1      2907 9.52304E-05-2.85602E-05-2.85731E-05-1.92035E-08-3.31880E-19 2.05329E-18
 -1      2908 9.52224E-05-2.85667E-05-2.85667E-05-2.80584E-08-2.94491E-19 6.63272E-19
 -1      2909 9.52209E-05-2.85649E-05-2.85668E-05-2.71757E-08-5.47170E-19 1.79865E-19
 -1      2910 9.52298E-05-2.85656E-05-2.85705E-05-2.61046E-08-1.46902E-19 1.05181E-18
 -1      2911 9.52245E-05-2.85692E-05-2.85665E-05-2.82726E-08 1.25783E-18-6.62355E-19
 -1      2912 9.52226E-05-2.85678E-05-2.85663E-05-2.85076E-08 7.81258E-19 1.41406E-19
 -1      2913 9.52301E-05-2.85693E-05-2.85690E-05-2.89356E-08 5.44218E-19-9.17092E-19
 -1      2914 9.52269E-05-2.85712E-05-2.85667E-05-2.67794E-08-3.51077E-19-2.93711E-19
 -1      2915 9.52249E-05-2.85700E-05-2.85664E-05-2.77339E-08 3.94352E-19-7.60283E-19
 -1      2916 9.52310E-05-2.85719E-05-2.85682E-05-2.90739E-08 6.53046E-19-1.32217E-18
 -1      2917 9.52294E-05-2.85727E-05-2.85671E-05-2.41534E-08-1.23265E-18 1.46194E-18
 -1      2918 9.52275E-05-2.85718E-05-2.85667E-05-2.55890E-08-6.87637E-19 1.13388E-18
 -1      2919 9.52321E-05-2.85737E-05-2.85679E-05-2.74764E-08-8.42541E-19-1.28179E-18
 -1      2920 9.52323E-05-2.85745E-05-2.85677E-05-2.13977E-08-2.24938E-18 2.67391E-19
 -1      2921 9.52306E-05-2.85736E-05-2.85673E-05-2.31957E-08-1.68135E-18 2.40915E-19
 -1      2922 9.52342E-05-2.85755E-05-2.85680E-05-2.52093E-08-1.19247E-18-1.67437E-18
 -1      2923 9.52365E-05-2.85774E-05-2.85681E-05-2.27965E-08-1.65587E-18-3.43181E-18
 -1      2924 1.17091E-04-5.77355E-05-2.56803E-05 2.89636E-05-1.76500E-18-2.36727E-18
 -1      2925 1.03736E-04-5.31925E-05-2.13086E-05 3.51881E-05-2.58229E-18-6.48443E-19
 -1      2926 9.52513E-05-2.85916E-05-2.85684E-05-1.61765E-09 2.74116E-18-5.23899E-19
 -1      2927 9.52510E-05-2.85913E-05-2.85684E-05-4.50656E-09 2.80554E-18-1.32957E-18
 -1      2928 9.52351E-05-2.85768E-05-2.85679E-05 1.97397E-08-7.76284E-19-8.01960E-19
 -1      2929 9.52360E-05-2.85774E-05-2.85680E-05 1.81986E-08-1.06490E-18-9.48122E-19
 -1      2930 9.52375E-05-2.85785E-05-2.85681E-05 2.14647E-08-5.90749E-19-9.42881E-19
 -1      2931 9.52484E-05-2.85889E-05-2.85683E-05-1.28395E-08 2.21005E-18-4.52417E-19
 -1      2932 9.52470E-05-2.85875E-05-2.85684E-05-1.48668E-08 2.26154E-18-5.21618E-19
 -1      2933 9.52510E-05-2.85913E-05-2.85684E-05 4.52208E-09 7.34929E-19-2.55444E-18
 -1      2934 9.52513E-05-2.85916E-05-2.85684E-05 1.63075E-09 1.90109E-18-2.02404E-18
 -1      2935 9.52528E-05-2.85907E-05-2.85695E-05 7.77846E-13 2.24250E-18-3.08380E-18
 -1      2936 9.52504E-05-2.85908E-05-2.85684E-05-7.60139E-09 2.42535E-18-9.28084E-19
 -1      2937 9.52495E-05-2.85899E-05-2.85684E-05-1.01990E-08 3.08084E-18-4.70355E-19
 -1      2938 9.52502E-05-2.85886E-05-2.85693E-05-1.24487E-08 1.63569E-18 4.35412E-19
 -1      2939 9.52522E-05-2.85902E-05-2.85694E-05-6.53386E-09 2.57313E-18-6.78651E-19
 -1      2940 9.52496E-05-2.85900E-05-2.85684E-05 1.01365E-08 5.04574E-19-1.59705E-18
 -1      2941 9.52504E-05-2.85908E-05-2.85684E-05 7.57367E-09 4.95165E-19-1.81381E-18
 -1      2942 9.52522E-05-2.85902E-05-2.85694E-05 6.49102E-09 1.65437E-18-2.69398E-18
 -1      2943 9.52471E-05-2.85876E-05-2.85684E-05 1.48426E-08 6.32445E-19-6.11305E-19
 -1      2944 9.52485E-05-2.85889E-05-2.85683E-05 1.27977E-08 8.55829E-19-4.98919E-19
 -1      2945 9.52503E-05-2.85887E-05-2.85693E-05 1.23861E-08 1.13026E-18-7.40498E-19
 -1      2946 9.52435E-05-2.85843E-05-2.85683E-05 1.80711E-08 2.60369E-19-8.59381E-19
 -1      2947 9.52455E-05-2.85861E-05-2.85682E-05 1.67467E-08 5.85413E-19-9.73347E-19
 -1      2948 9.52471E-05-2.85861E-05-2.85690E-05 1.71056E-08 1.02316E-19-1.47644E-18
 -1      2949 8.87466E-05-4.68142E-05-1.78608E-05 4.04261E-05-2.65015E-18 1.14297E-18
 -1      2950 7.14514E-05-3.74585E-05-1.41530E-05 3.95803E-05-2.23701E-18 2.39064E-18
 -1      2951 9.90443E-05-4.93094E-05-2.10016E-05 3.44697E-05-2.49642E-18-4.09858E-19
 -1      2952 3.35726E-05-1.21480E-05-8.71720E-06 3.96786E-06-8.00330E-20 4.07486E-18
 -1      2953 3.39511E-05-1.30621E-05-8.30980E-06-7.91752E-06 2.28090E-19 3.61048E-18
 -1      2954 1.36953E-04-5.32055E-05-3.60160E-05-5.34535E-06 7.22195E-19 8.19716E-19
 -1      2955 1.39206E-04-4.66727E-05-4.02047E-05 2.43150E-06 1.49552E-18 8.38668E-19
 -1      2956 1.22668E-04-5.73825E-05-2.75783E-05-1.72846E-05 7.69000E-19-1.10625E-18
 -1      2957 1.31177E-04-5.83844E-05-3.14148E-05-8.73899E-06-2.37143E-19-1.55852E-18
 -1      2958 1.06316E-04-3.42255E-05-3.09379E-05 3.97286E-07 4.22175E-19-2.02239E-20
 -1      2959 1.05863E-04-3.32870E-05-3.10525E-05-2.20295E-07 6.05161E-19 4.00264E-20
 -1      2960 1.07344E-04-3.54667E-05-3.08288E-05 2.78428E-07 3.05601E-19 3.19223E-19
 -1      2961 1.08107E-04-3.43191E-05-3.16127E-05 8.68014E-06 6.28893E-20 1.01383E-19
 -1      2962 1.08856E-04-3.55723E-05-3.14328E-05 7.58192E-06-3.14924E-20-4.06890E-21
 -1      2963 1.10838E-04-3.72568E-05-3.15105E-05 6.56191E-06 1.62164E-19 5.59876E-19
 -1      2964 1.10348E-04-3.45622E-05-3.24352E-05 9.70413E-06 5.07608E-20 4.55958E-19
 -1      2965 1.04802E-04-3.20333E-05-3.12197E-05-4.02457E-07 9.06902E-19-1.89127E-19
 -1      2966 1.04387E-04-3.08878E-05-3.14429E-05-2.29657E-07 9.77103E-19-2.47062E-19
 -1      2967 1.02977E-04-2.94543E-05-3.15159E-05-1.73552E-07 1.02479E-18-5.88962E-19
 -1      2968 1.05026E-04-3.26937E-05-3.10215E-05-8.04932E-07 6.66089E-19-8.11193E-20
 -1      2969 8.85389E-05-4.52523E-05-1.82108E-05-3.97983E-05-1.59200E-18-1.39231E-18
 -1      2970 1.04479E-04-5.30668E-05-2.18234E-05-3.76694E-05-9.46983E-19-9.53799E-19
 -1      2971 1.34752E-04-5.63843E-05-3.39830E-05 1.02622E-05-5.01549E-19-3.29761E-18
 -1      2972 1.28068E-04-5.85086E-05-2.96662E-05 1.87667E-05-1.05403E-18-2.77562E-18
 -1      2973 9.21718E-05-4.73170E-05-1.87261E-05-3.47090E-05 1.38098E-18 7.93140E-19
 -1      2974 1.08349E-04-5.49448E-05-2.30440E-05-2.99484E-05 1.22026E-18-5.98746E-19
 -1      2975 1.28294E-04-1.82990E-05-4.78318E-05-1.14829E-05 2.68975E-18-2.49991E-18
 -1      2976 1.34087E-04-2.76038E-05-4.59319E-05-1.22011E-05 1.66431E-18-2.61341E-18
 -1      2977 8.74051E-05-1.49091E-05-3.10610E-05-2.44499E-06 9.99325E-20-1.68284E-18
 -1      2978 8.48362E-05-1.32760E-05-3.07055E-05-3.35912E-06-2.30316E-19-1.81775E-18
 -1      2979 8.45576E-05-1.43662E-05-3.00928E-05-4.91709E-06-3.41361E-19-1.69644E-18
 -1      2980 9.00538E-05-1.81627E-05-3.08248E-05-3.16354E-06 9.84510E-20-1.34742E-18
 -1      2981 9.52380E-05-2.85793E-05-2.85680E-05 1.86809E-08-1.04874E-18-2.81321E-18
 -1      2982 1.37193E-04-4.54073E-05-3.95077E-05-1.18242E-05-8.52115E-19 1.80566E-18
 -1      2983 5.09043E-05-2.27393E-05-1.13986E-05-3.22971E-05-1.76903E-18-3.63409E-18
 -1      2984 6.74816E-05-3.26550E-05-1.47074E-05-3.89003E-05-1.79550E-18-2.53390E-18
 -1      2985 9.48053E-05-4.84144E-05-1.99734E-05 3.60688E-05 1.62154E-18-1.43943E-18
 -1      2986 7.65895E-05-3.94411E-05-1.53793E-05 3.76064E-05 1.63890E-18-2.59658E-18
 -1      2987 7.39500E-05-3.43717E-05-1.63987E-05 3.42547E-05 1.59412E-18-2.54068E-18
 -1      2988 7.69576E-05-7.07060E-06-2.99905E-05 3.12131E-07-1.35187E-18-1.66599E-18
 -1      2989 7.91653E-05-8.38448E-06-3.03377E-05 7.90247E-07-1.48692E-18-1.48647E-18
 -1      2990 3.04826E-05-1.11298E-05-7.74925E-06-8.14288E-06-7.37448E-19-4.26206E-18
 -1      2991 3.69356E-05-1.49516E-05-9.13253E-06-2.24851E-05-1.21629E-18-4.15046E-18
 -1      2992 1.37162E-04-3.65712E-05-4.33027E-05 9.17250E-06 2.37593E-18 1.27722E-18
 -1      2993 1.34320E-04-2.75174E-05-4.64756E-05 1.10780E-05 3.25165E-18 1.21179E-18
 -1      2994 3.77439E-05-1.47126E-05-9.33265E-06 1.88313E-05 2.08847E-19-3.90525E-18
 -1      2995 3.17840E-05-1.07446E-05-8.47282E-06 4.87395E-06-2.01991E-19-3.92388E-18
 -1      2996 1.21996E-04-9.04849E-06-4.90691E-05-1.73983E-06 3.63165E-18-8.77791E-19
 -1      2997 1.24547E-04-1.14430E-05-4.90035E-05-7.53697E-06 3.27505E-18-1.72932E-18
 -1      2998 1.29896E-04-1.73937E-05-4.85891E-05 1.04137E-05 3.83981E-18 5.76300E-19
 -1      2999 1.24300E-04-1.07100E-05-4.93717E-05 5.85450E-06 3.99651E-18-1.22926E-19
 -1      3000 1.26618E-04-2.31869E-05-4.47018E-05 1.17911E-05 2.87822E-18 1.14805E-18
 -1      3001 1.39307E-04-5.28763E-05-3.73281E-05 6.21528E-06-1.51280E-18-9.41265E-19
 -1      3002 1.33288E-04-4.96457E-05-3.60133E-05 1.04035E-05-9.73042E-19-1.68967E-18
 -1      3003 1.31883E-04-5.24395E-05-3.40383E-05 5.80066E-06-5.13792E-19-1.53594E-18
 -1      3004 1.36408E-04-5.81599E-05-3.36292E-05-2.18547E-06-7.19045E-19-1.58845E-18
 -1      3005 1.36987E-04-5.20238E-05-3.66375E-05-7.64952E-06 2.59298E-19 1.66934E-18
 -1      3006 1.35801E-04-5.61768E-05-3.44777E-05 1.27548E-06 5.12170E-19 1.26674E-18
 -1      3007 8.20205E-05-1.03656E-05-3.07670E-05 1.52922E-06-1.46736E-18-1.30475E-18
 -1      3008 8.52726E-05-1.23747E-05-3.12345E-05 1.61738E-06-1.58747E-18-9.49902E-19
 -1      3009 8.08529E-05-1.07096E-05-3.00220E-05 2.42206E-06-1.29591E-18-1.29793E-18
 -1      3010 7.56391E-05-7.82926E-06-2.90329E-05-4.47150E-06-9.48282E-19-2.03304E-18
 -1      3011 7.48790E-05-6.04585E-06-2.94936E-05-3.34514E-06-1.02478E-18-2.08632E-18
 -1      3012 7.43564E-05-5.65915E-06-2.94801E-05-2.80309E-06-1.13769E-18-2.05924E-18
 -1      3013 8.11758E-05-3.89316E-05-1.76347E-05-3.80669E-05-1.81890E-18-1.80773E-18
 -1      3014 9.36575E-05-4.40012E-05-2.11625E-05-3.44932E-05-1.96766E-18-9.30625E-19
 -1      3015 7.49007E-05-3.21808E-05-1.80336E-05-3.45810E-05-1.91911E-18-2.12981E-18
 -1      3016 1.31822E-04-5.94008E-05-3.08127E-05 1.13011E-05 1.16711E-18 7.03831E-19
 -1      3017 9.63082E-05-2.36669E-05-3.11678E-05 7.21101E-06-8.16786E-19 6.05575E-20
 -1      3018 9.52402E-05-2.85814E-05-2.85680E-05 1.85637E-08-6.45733E-19-1.42650E-18
 -1      3019 1.21465E-04-1.72618E-05-4.50057E-05-1.02730E-05 2.25999E-18-1.82369E-18
 -1      3020 1.33830E-04-2.77105E-05-4.62484E-05 1.70849E-05-3.35520E-18-8.08493E-19
 -1      3021 9.52470E-05-2.85860E-05-2.85690E-05-1.71099E-08 4.66127E-19 1.92484E-18
 -1      3022 9.52454E-05-2.85860E-05-2.85682E-05-1.67383E-08 1.54517E-18 7.53745E-19
 -1      3023 9.52435E-05-2.85842E-05-2.85683E-05-1.80050E-08-2.86475E-19 9.76574E-19
 -1      3024 4.30801E-05-1.47076E-05-1.15897E-05-1.22763E-05 3.65839E-19 3.22116E-18
 -1      3025 3.72699E-05-1.62972E-05-8.48103E-06-1.72184E-05 4.65392E-19 3.35510E-18
 -1      3026 4.64477E-05-2.27401E-05-9.81816E-06-2.80281E-05 1.02067E-18 3.82478E-18
 -1      3027 1.22740E-04-5.74331E-05-2.77999E-05 2.06378E-05-1.70481E-18-2.52035E-18
 -1      3028 9.52401E-05-2.85812E-05-2.85681E-05-1.91689E-08-2.20859E-18-2.31398E-18
 -1      3029 1.34377E-04-5.65241E-05-3.35452E-05-1.06687E-05 2.13029E-19 7.06955E-19
 -1      3030 1.33680E-04-5.28891E-05-3.47013E-05-2.79463E-06 1.24143E-20 1.51989E-18
 -1      3031 1.28544E-04-5.68826E-05-3.06781E-05-1.54423E-05-4.28784E-19 4.86991E-19
 -1      3032 1.19485E-04-1.08044E-05-4.71062E-05 2.21210E-06 3.50862E-18-5.03018E-19
 -1      3033 1.14244E-04-1.19258E-05-4.41435E-05-1.10700E-06 2.77255E-18-8.67494E-19
 -1      3034 1.16131E-04-1.31652E-05-4.43896E-05 5.95139E-06 3.00284E-18-1.72987E-19
 -1      3035 6.35587E-05-3.07894E-05-1.35320E-05 3.63166E-05-1.78576E-18 2.83301E-18
 -1      3036 5.70039E-05-2.38789E-05-1.38075E-05 3.00230E-05-1.44033E-18 3.56887E-18
 -1      3037 7.61680E-05-3.53163E-05-1.71886E-05 3.47541E-05-1.86083E-18 2.07068E-18
 -1      3038 9.52415E-05-2.85818E-05-2.85684E-05 1.99649E-08-6.08660E-20-1.89499E-18
 -1      3039 9.98844E-05-2.43234E-05-3.23982E-05 2.27473E-06 1.23762E-18-9.52452E-19
 -1      3040 9.98782E-05-2.56390E-05-3.18339E-05 4.47283E-07 1.07434E-18-8.79753E-19
 -1      3041 3.83071E-05-1.32073E-05-1.00502E-05 1.16627E-05-4.05888E-19 4.28133E-18
 -1      3042 4.27347E-05-1.22846E-05-1.26208E-05 5.03966E-06 8.48886E-20 3.41100E-18
 -1      3043 4.54199E-05-1.59754E-05-1.23123E-05 1.90235E-05-7.38719E-19 4.08937E-18
 -1      3044 1.14432E-04-5.55436E-05-2.51342E-05-2.95443E-05-1.22407E-18-3.90350E-19
 -1      3045 1.15393E-04-5.28077E-05-2.65610E-05-1.94573E-05 9.42642E-19-7.53803E-19
 -1      3046 1.34539E-04-4.18775E-05-3.99651E-05 7.52762E-06 1.39040E-18 1.72731E-18
 -1      3047 1.32520E-04-3.39821E-05-4.25091E-05-1.09849E-05 9.78747E-19-3.09421E-18
 -1      3048 7.74748E-05-4.04754E-05-1.58242E-05-3.72577E-05 1.76077E-18 2.07904E-18
 -1      3049 8.95961E-05-4.29301E-05-1.94758E-05-3.23395E-05 1.68671E-18 1.22240E-18
 -1      3050 6.17320E-05-3.15802E-05-1.24372E-05-3.39630E-05 1.74256E-18 3.58178E-18
 -1      3051 7.44867E-05-5.57376E-06-2.95500E-05-1.55022E-06-1.09225E-18-1.94330E-18
 -1      3052 7.53500E-05-6.04004E-06-2.97236E-05-8.82794E-07-1.28926E-18-1.74831E-18
 -1      3053 7.61288E-05-7.63460E-06-2.93105E-05 3.43354E-07-1.16185E-18-1.56303E-18
 -1      3054 7.43261E-05-6.64059E-06-2.89683E-05-2.26312E-06-1.04803E-18-1.97088E-18
 -1      3055 1.36646E-04-5.27842E-05-3.59631E-05 2.59535E-06-2.80275E-19-2.96800E-18
 -1      3056 1.32325E-04-5.44407E-05-3.33826E-05 4.76632E-06-7.11144E-19-2.89161E-18
 -1      3057 1.34415E-04-4.75910E-05-3.78037E-05-4.78964E-06 1.35446E-19-3.49835E-18
 -1      3058 4.87536E-05-1.77318E-05-1.27429E-05 2.17318E-05 6.18440E-19-3.51466E-18
 -1      3059 3.93090E-05-1.04765E-05-1.17341E-05-1.22194E-06-6.11320E-19-3.71869E-18
 -1      3060 1.09136E-04-5.37427E-05-2.32263E-05 3.00337E-05 1.60534E-18-8.90248E-19
 -1      3061 1.02188E-04-4.87347E-05-2.26092E-05 3.05957E-05 1.49062E-18-1.19429E-18
 -1      3062 5.01565E-05-1.81613E-05-1.31126E-05-2.53356E-05-1.47590E-18-3.53446E-18
 -1      3063 1.21903E-04-5.84549E-05-2.73730E-05 2.27014E-05 1.28971E-18-2.82327E-19
 -1      3064 9.79030E-05-2.48455E-05-3.13055E-05-1.48697E-06 6.35331E-19-7.55158E-19
 -1      3065 9.54888E-05-2.31416E-05-3.09955E-05-2.56754E-06 3.15710E-19-8.36860E-19
 -1      3066 8.94279E-05-1.66791E-05-3.11613E-05 3.69567E-06-1.27827E-18-5.36900E-19
 -1      3067 9.40818E-05-2.51774E-05-2.94808E-05 1.14660E-05-3.69648E-19-3.47034E-19
 -1      3068 9.57231E-05-2.78270E-05-2.90423E-05 1.30337E-05-2.15557E-19-3.75017E-19
 -1      3069 9.71859E-05-3.07301E-05-2.83983E-05 1.52610E-05 5.71383E-20-2.02615E-19
 -1      3070 1.00299E-04-3.45958E-05-2.80693E-05 1.62351E-05 3.94645E-19-1.23297E-19
 -1      3071 9.12442E-05-2.67579E-05-2.76861E-05 1.53714E-05 6.89869E-20-6.29759E-19
 -1      3072 1.03660E-04-3.89206E-05-2.75449E-05 1.80194E-05 7.43656E-19 1.40971E-19
 -1      3073 1.08839E-04-4.42229E-05-2.75813E-05 1.77820E-05 9.32610E-19 2.81771E-19
 -1      3074 9.56576E-05-3.44650E-05-2.63330E-05 2.01885E-05 6.80492E-19-5.28747E-19
 -1      3075 1.16145E-04-5.07947E-05-2.76994E-05 1.79507E-05 1.08950E-18 4.01851E-19
 -1      3076 1.23014E-04-5.55790E-05-2.87924E-05 1.52020E-05 1.12714E-18 5.11072E-19
 -1      3077 9.08091E-05-1.92323E-05-3.06527E-05 6.01698E-06-9.37831E-19-5.56632E-19
 -1      3078 9.21022E-05-2.22222E-05-2.99255E-05 9.14582E-06-6.15556E-19-5.42960E-19
 -1      3079 8.80679E-05-2.07166E-05-2.89174E-05 1.03505E-05-4.56801E-19-8.89950E-19
 -1      3080 8.50380E-05-1.53299E-05-2.99343E-05 5.55089E-06-1.06990E-18-1.01149E-18
 -1      3081 1.05169E-04-4.15256E-05-2.71086E-05-1.75474E-05 4.43233E-19 2.24192E-19
 -1      3082 1.00350E-04-3.68718E-05-2.70382E-05-1.78477E-05 1.15910E-19 1.93016E-19
 -1      3083 9.78376E-05-3.35680E-05-2.74680E-05-1.64187E-05 4.15820E-19 4.19210E-19
 -1      3084 9.53359E-05-3.06546E-05-2.76778E-05-1.58506E-05 4.35022E-19 7.67845E-19
 -1      3085 9.33685E-05-3.33465E-05-2.58263E-05-1.95507E-05 5.32340E-19 6.37697E-19
 -1      3086 9.45067E-05-2.87726E-05-2.81123E-05-1.43598E-05 1.07644E-19 8.09260E-19
 -1      3087 9.32456E-05-2.71626E-05-2.83187E-05-1.35507E-05 4.82961E-19 8.08545E-19
 -1      3088 9.03878E-05-2.78108E-05-2.68554E-05-1.59893E-05 4.02715E-19 1.13584E-18
 -1      3089 9.32176E-05-2.62888E-05-2.86490E-05-1.23038E-05 6.93819E-19 7.07041E-19
 -1      3090 9.26764E-05-2.55259E-05-2.87900E-05-1.14483E-05 2.53247E-19 2.54873E-19
 -1      3091 8.97516E-05-2.51094E-05-2.77115E-05-1.30942E-05 1.89002E-19 7.28440E-19
 -1      3092 9.29979E-05-2.52558E-05-2.90110E-05-1.04124E-05-1.33286E-20 4.82349E-19
 -1      3093 9.28168E-05-2.49934E-05-2.90825E-05-9.58498E-06-3.47925E-19 3.10942E-19
 -1      3094 9.01407E-05-2.40343E-05-2.83252E-05-1.07939E-05 2.24148E-19 1.59759E-19
 -1      3095 9.32495E-05-2.50527E-05-2.92131E-05-8.71251E-06-5.06624E-19 4.65870E-19
 -1      3096 9.32266E-05-2.50601E-05-2.92296E-05-7.94425E-06 1.38316E-19-4.82863E-20
 -1      3097 9.09329E-05-2.38883E-05-2.87222E-05-8.92192E-06-4.12341E-19 9.56232E-19
 -1      3098 9.36532E-05-2.52768E-05-2.92938E-05-7.19941E-06 6.77809E-19-4.55174E-20
 -1      3099 9.36849E-05-2.54129E-05-2.92734E-05-6.50687E-06 5.70308E-19 1.56444E-19
 -1      3100 9.18019E-05-2.42222E-05-2.89509E-05-7.35334E-06 4.34541E-19 1.25516E-18
 -1      3101 9.40563E-05-2.56867E-05-2.92928E-05-5.86853E-06 2.21260E-20 5.20114E-19
 -1      3102 9.40957E-05-2.58714E-05-2.92510E-05-5.26000E-06-8.33974E-20 8.85758E-19
 -1      3103 9.25974E-05-2.47662E-05-2.90602E-05-6.01380E-06 5.46915E-19 4.34307E-19
 -1      3104 9.43977E-05-2.61481E-05-2.92425E-05-4.71579E-06-1.80206E-19 7.46130E-19
 -1      3105 9.44276E-05-2.63387E-05-2.91908E-05-4.19326E-06-3.23123E-19 1.35247E-18
 -1      3106 9.32643E-05-2.53674E-05-2.90905E-05-4.86457E-06-7.54491E-20 6.51841E-19
 -1      3107 9.46628E-05-2.65920E-05-2.91667E-05-3.73433E-06-9.26390E-19 1.10694E-18
 -1      3108 9.46797E-05-2.67684E-05-2.91129E-05-3.29489E-06-9.82835E-19 1.08432E-18
 -1      3109 9.37949E-05-2.59453E-05-2.90723E-05-3.88440E-06-6.41782E-19 3.49252E-19
 -1      3110 9.48577E-05-2.69879E-05-2.90813E-05-2.91316E-06-2.59352E-19 9.06006E-19
 -1      3111 9.48636E-05-2.71418E-05-2.90300E-05-2.55051E-06-1.43436E-19 1.45232E-18
 -1      3112 9.42027E-05-2.64627E-05-2.90271E-05-3.05815E-06-8.46868E-19 8.31894E-19
 -1      3113 9.49955E-05-2.73256E-05-2.89964E-05-2.23773E-06-3.37792E-19 1.59901E-18
 -1      3114 9.49938E-05-2.74552E-05-2.89502E-05-1.94363E-06 2.48122E-20 1.51638E-18
 -1      3115 9.45087E-05-2.69064E-05-2.89695E-05-2.37172E-06 2.02967E-19 6.85954E-19
 -1      3116 9.50899E-05-2.76055E-05-2.89176E-05-1.69128E-06 7.62833E-20 1.41307E-18
 -1      3117 9.50840E-05-2.77122E-05-2.88775E-05-1.45664E-06 1.41583E-19 1.23689E-18
 -1      3118 9.47342E-05-2.72762E-05-2.89086E-05-1.81033E-06-1.54380E-19 1.07939E-18
 -1      3119 9.51529E-05-2.78329E-05-2.88479E-05-1.25620E-06 2.24053E-19 1.37805E-18
 -1      3120 9.51450E-05-2.79191E-05-2.88141E-05-1.07193E-06 6.96645E-19 1.74794E-18
 -1      3121 9.48977E-05-2.75781E-05-2.88501E-05-1.35848E-06 1.18950E-19 1.38805E-18
 -1      3122 9.51938E-05-2.80147E-05-2.87881E-05-9.15213E-07-1.14819E-19 1.45157E-18
 -1      3123 9.51856E-05-2.80833E-05-2.87604E-05-7.72742E-07-5.97581E-19 1.57994E-18
 -1      3124 9.50146E-05-2.78204E-05-2.87968E-05-1.00061E-06 3.80921E-19 1.63878E-18
 -1      3125 9.52195E-05-2.81579E-05-2.87383E-05-6.52150E-07-9.39612E-19 1.60528E-18
 -1      3126 9.52119E-05-2.82118E-05-2.87160E-05-5.43735E-07-7.26839E-19 1.61911E-18
 -1      3127 9.50970E-05-2.80121E-05-2.87503E-05-7.21691E-07-5.92892E-19 3.61904E-19
 -1      3128 9.52350E-05-2.82693E-05-2.86977E-05-4.52464E-07-7.41497E-19 1.90823E-18
 -1      3129 9.52284E-05-2.83112E-05-2.86800E-05-3.71325E-07-1.54424E-18 2.02207E-18
 -1      3130 9.51540E-05-2.81617E-05-2.87109E-05-5.07841E-07-1.01682E-18-4.29630E-20
 -1      3131 9.52438E-05-2.83549E-05-2.86652E-05-3.03449E-07-1.89619E-18 1.99081E-18
 -1      3132 9.52383E-05-2.83869E-05-2.86515E-05-2.43812E-07-9.38206E-19 2.05885E-18
 -1      3133 9.51927E-05-2.82769E-05-2.86782E-05-3.46636E-07-1.68197E-18-3.68125E-20
 -1      3134 9.52482E-05-2.84196E-05-2.86397E-05-1.94307E-07-1.19634E-18 1.22001E-18
 -1      3135 9.52439E-05-2.84438E-05-2.86292E-05-1.51357E-07-1.23471E-18-3.14999E-19
 -1      3136 9.52183E-05-2.83643E-05-2.86518E-05-2.27311E-07-1.50694E-18-2.20702E-19
 -1      3137 9.52499E-05-2.84680E-05-2.86200E-05-1.16045E-07-6.66290E-19-1.01356E-18
 -1      3138 9.52466E-05-2.84859E-05-2.86122E-05-8.58388E-08-7.44615E-19-6.18985E-19
 -1      3139 9.52345E-05-2.84297E-05-2.86307E-05-1.40761E-07-1.86213E-18-1.63396E-18
 -1      3140 9.52500E-05-2.85034E-05-2.86051E-05-6.13044E-08-4.60600E-19-1.25861E-18
 -1      3141 9.52476E-05-2.85165E-05-2.85993E-05-4.06661E-08-1.88085E-19-1.49482E-18
 -1      3142 9.52442E-05-2.84779E-05-2.86143E-05-7.94301E-08-9.46938E-19-1.56948E-18
 -1      3143 9.52491E-05-2.85289E-05-2.85939E-05-2.41669E-08-1.45956E-19-1.40067E-18
 -1      3144 9.52474E-05-2.85383E-05-2.85898E-05-1.05814E-08 4.18655E-19-1.29250E-18
 -1      3145 9.52495E-05-2.85126E-05-2.86016E-05-3.71608E-08-3.12760E-19-1.66518E-18
 -1      3146 9.52478E-05-2.85469E-05-2.85858E-05 4.33243E-11 9.57523E-19-7.13039E-19
 -1      3147 9.52465E-05-2.85534E-05-2.85829E-05 8.53291E-09 1.01421E-18-8.55114E-19
 -1      3148 9.52517E-05-2.85370E-05-2.85921E-05-9.03430E-09 6.91431E-19-1.22280E-18
 -1      3149 9.52462E-05-2.85591E-05-2.85800E-05 1.49546E-08 7.81052E-19-1.27589E-18
 -1      3150 9.52454E-05-2.85636E-05-2.85780E-05 1.98432E-08 4.05030E-19-2.14056E-18
 -1      3151 9.52519E-05-2.85538E-05-2.85850E-05 8.80713E-09 4.34656E-19-1.73863E-18
 -1      3152 9.52446E-05-2.85672E-05-2.85759E-05 2.33290E-08 2.14389E-19-1.71142E-18
 -1      3153 9.52441E-05-2.85702E-05-2.85746E-05 2.57343E-08 5.94218E-19-1.95397E-18
 -1      3154 9.52510E-05-2.85650E-05-2.85798E-05 1.93309E-08 5.01233E-19-1.66365E-18
 -1      3155 9.52432E-05-2.85724E-05-2.85731E-05 2.72227E-08 2.42976E-19-1.62759E-18
 -1      3156 9.52429E-05-2.85743E-05-2.85723E-05 2.79583E-08 4.72200E-19-8.87006E-19
 -1      3157 9.52494E-05-2.85721E-05-2.85761E-05 2.47719E-08 1.28407E-18-1.22165E-18
 -1      3158 9.52419E-05-2.85756E-05-2.85712E-05 2.81248E-08 1.69892E-19-1.10585E-18
 -1      3159 9.52418E-05-2.85768E-05-2.85707E-05 2.77608E-08-3.20875E-19-1.45339E-18
 -1      3160 9.52476E-05-2.85764E-05-2.85734E-05 2.67715E-08 3.74446E-19-3.07991E-18
 -1      3161 9.52409E-05-2.85776E-05-2.85700E-05 2.70748E-08-1.28984E-18-1.64987E-19
 -1      3162 9.52410E-05-2.85784E-05-2.85696E-05 2.59890E-08-1.70917E-18-4.97063E-19
 -1      3163 9.52457E-05-2.85790E-05-2.85715E-05 2.64967E-08-1.58872E-19-2.87374E-18
 -1      3164 9.52401E-05-2.85789E-05-2.85691E-05 2.47160E-08-1.96984E-18-4.05329E-19
 -1      3165 9.52402E-05-2.85797E-05-2.85688E-05 2.32419E-08-8.11722E-19-1.24758E-18
 -1      3166 9.52442E-05-2.85806E-05-2.85701E-05 2.47457E-08-1.37227E-18-1.33382E-18
 -1      3167 1.11172E-04-3.91403E-05-3.09229E-05 2.24923E-06 2.35379E-19 5.71952E-19
 -1      3168 1.10225E-04-3.83562E-05-3.07379E-05 6.64277E-07 2.03379E-19 6.58401E-19
 -1      3169 1.06288E-04-2.12414E-05-3.64517E-05 6.12484E-06 1.40169E-18 3.49601E-19
 -1      3170 1.07802E-04-2.42564E-05-3.59754E-05 9.04807E-06 1.27545E-18 3.80036E-19
 -1      3171 1.10067E-04-2.83014E-05-3.50003E-05 1.07718E-05 8.76189E-19 5.35797E-19
 -1      3172 1.11734E-04-3.20791E-05-3.42972E-05 1.13242E-05 2.91267E-19 6.40567E-19
 -1      3173 1.12115E-04-2.63004E-05-3.68359E-05 1.10372E-05 1.19162E-18 1.05392E-18
 -1      3174 1.07557E-04-2.40605E-05-3.59704E-05-9.88070E-06 8.88610E-19-5.26982E-19
 -1      3175 1.06173E-04-2.11023E-05-3.64455E-05-7.04887E-06 1.27985E-18-6.73239E-19
 -1      3176 1.11506E-04-3.18765E-05-3.42685E-05-1.24826E-05 7.66853E-19-5.46085E-19
 -1      3177 1.09727E-04-2.79824E-05-3.49887E-05-1.18872E-05 1.03658E-18-3.88358E-19
 -1      3178 1.11533E-04-2.54611E-05-3.69289E-05-1.21667E-05 8.55556E-19-1.11684E-18
 -1      3179 1.13579E-04-3.80030E-05-3.24547E-05-9.87957E-06 5.16832E-19-1.28522E-18
 -1      3180 1.12681E-04-3.53646E-05-3.31405E-05-1.12466E-05 8.22072E-19-6.76826E-19
 -1      3181 1.15326E-04-3.49419E-05-3.44375E-05-1.22546E-05 9.07917E-19-1.20191E-18
 -1      3182 1.12746E-04-4.02507E-05-3.10616E-05-5.12214E-06-5.14533E-19-9.58689E-19
 -1      3183 1.12986E-04-3.94277E-05-3.15618E-05-7.24755E-06-8.83685E-20-1.03559E-18
 -1      3184 1.15787E-04-4.06100E-05-3.22041E-05-7.82232E-06 1.09400E-19-1.70314E-18
 -1      3185 1.09932E-04-3.93898E-05-3.01875E-05-5.20479E-07-9.89225E-19-2.73401E-19
 -1      3186 1.10953E-04-3.99233E-05-3.04906E-05-2.50820E-06-8.84636E-19-1.88198E-19
 -1      3187 1.13258E-04-4.18483E-05-3.06223E-05-2.32136E-06-1.02227E-18-8.24749E-19
 -1      3188 1.06485E-04-3.70021E-05-2.97279E-05 2.83407E-06-3.11735E-19-2.62280E-19
 -1      3189 1.07796E-04-3.81532E-05-2.98862E-05 1.36291E-06-3.45951E-19-2.01347E-19
 -1      3190 1.09205E-04-3.99882E-05-2.97058E-05 2.11435E-06-7.00695E-19-3.08560E-19
 -1      3191 1.03308E-04-3.43205E-05-2.95244E-05 4.83063E-06-6.27008E-19 1.39740E-19
 -1      3192 1.04568E-04-3.55573E-05-2.95997E-05 3.92483E-06-4.60212E-19 1.72621E-19
 -1      3193 1.05102E-04-3.69083E-05-2.92736E-05 4.89600E-06-5.67991E-19-4.11143E-19
 -1      3194 1.00774E-04-3.19957E-05-2.94473E-05 5.74289E-06 3.92572E-19 4.51188E-19
 -1      3195 1.01825E-04-3.30495E-05-2.94867E-05 5.30644E-06-1.26509E-19 4.39315E-19
 -1      3196 1.01705E-04-3.38461E-05-2.91232E-05 6.26393E-06-5.25715E-19-7.50468E-19
 -1      3197 9.89225E-05-3.02474E-05-2.94140E-05 5.90816E-06 1.38286E-19 4.75461E-19
 -1      3198 9.97336E-05-3.10350E-05-2.94453E-05 5.81008E-06 5.92306E-19 8.97639E-19
 -1      3199 9.92060E-05-3.13634E-05-2.91053E-05 6.65080E-06 9.67156E-20 1.23283E-19
 -1      3200 9.76423E-05-2.90616E-05-2.93818E-05 5.60821E-06 3.11187E-20 6.90837E-19
 -1      3201 9.82418E-05-2.95964E-05-2.94178E-05 5.73043E-06-6.97448E-20 5.01947E-19
 -1      3202 9.75112E-05-2.95888E-05-2.91295E-05 6.43284E-06 2.16920E-19 1.18122E-18
 -1      3203 9.67894E-05-2.83328E-05-2.93343E-05 5.04890E-06-5.77374E-20 1.14511E-18
 -1      3204 9.72234E-05-2.86645E-05-2.93782E-05 5.29894E-06-3.74832E-21 1.22907E-18
 -1      3205 9.64327E-05-2.84443E-05-2.91504E-05 5.87648E-06-3.02740E-19 1.10404E-18
 -1      3206 9.62351E-05-2.79379E-05-2.92695E-05 4.37185E-06-6.07913E-19 1.31006E-18
 -1      3207 9.65474E-05-2.81219E-05-2.93197E-05 4.68276E-06-1.35589E-19 9.20889E-19
 -1      3208 9.57865E-05-2.77871E-05-2.91500E-05 5.15739E-06 5.86636E-20 1.96173E-18
 -1      3209 9.58805E-05-2.77685E-05-2.91921E-05 3.67007E-06-5.54082E-19 5.39148E-19
 -1      3210 9.61058E-05-2.78528E-05-2.92453E-05 3.99636E-06-4.70599E-19 9.51990E-19
 -1      3211 9.54244E-05-2.74735E-05-2.91261E-05 4.38802E-06-1.86291E-19 2.14636E-18
 -1      3212 9.56551E-05-2.77405E-05-2.91085E-05 3.00098E-06-9.35364E-19-2.56435E-19
 -1      3213 9.58190E-05-2.77618E-05-2.91614E-05 3.31395E-06-3.24008E-19 3.25275E-19
 -1      3214 9.52391E-05-2.73841E-05-2.90831E-05 3.63810E-06-4.49325E-21 1.24147E-18
 -1      3215 9.55120E-05-2.77935E-05-2.90248E-05 2.39680E-06-6.50875E-19-5.01416E-19
 -1      3216 9.56322E-05-2.77781E-05-2.90747E-05 2.68009E-06-1.08526E-18-7.29426E-19
 -1      3217 9.51580E-05-2.74296E-05-2.90278E-05 2.94811E-06-5.45492E-19-1.12807E-18
 -1      3218 9.54206E-05-2.78871E-05-2.89454E-05 1.87256E-06-5.64502E-19-8.67059E-19
 -1      3219 9.55094E-05-2.78528E-05-2.89906E-05 2.11840E-06-4.14161E-19-7.40391E-19
 -1      3220 9.51345E-05-2.75472E-05-2.89668E-05 2.33886E-06-5.69205E-19-1.04879E-18
 -1      3221 9.53616E-05-2.79954E-05-2.88735E-05 1.43181E-06-4.78248E-19-8.68400E-19
 -1      3222 9.54273E-05-2.79534E-05-2.89129E-05 1.63822E-06-6.53560E-19-6.17084E-19
 -1      3223 9.51400E-05-2.76958E-05-2.89052E-05 1.81802E-06-6.91227E-19-1.03863E-18
 -1      3224 9.53227E-05-2.81029E-05-2.88104E-05 1.07103E-06-5.92080E-19 2.22501E-19
 -1      3225 9.53715E-05-2.80601E-05-2.88439E-05 1.23959E-06-3.70453E-19-3.77224E-19
 -1      3226 9.51578E-05-2.78498E-05-2.88467E-05 1.38460E-06-8.53355E-19-9.33858E-19
 -1      3227 9.52967E-05-2.82011E-05-2.87568E-05 7.82596E-07 1.38252E-19 1.41407E-18
 -1      3228 9.53327E-05-2.81614E-05-2.87846E-05 9.16941E-07-1.87429E-19 9.19083E-19
 -1      3229 9.51787E-05-2.79943E-05-2.87937E-05 1.03239E-06-3.39863E-19-2.63774E-19
 -1      3230 9.52789E-05-2.82862E-05-2.87124E-05 5.57006E-07-4.79932E-19 2.09127E-18
 -1      3231 9.53053E-05-2.82514E-05-2.87348E-05 6.61693E-07 1.33814E-19 1.97933E-18
 -1      3232 9.51982E-05-2.81220E-05-2.87473E-05 7.52316E-07-3.31982E-19 6.43379E-19
 -1      3233 9.52664E-05-2.83571E-05-2.86764E-05 3.84246E-07 4.58669E-19 2.39638E-19
 -1      3234 9.52855E-05-2.83279E-05-2.86941E-05 4.64072E-07-1.24583E-19 2.20218E-18
 -1      3235 9.52142E-05-2.82299E-05-2.87079E-05 5.34132E-07-3.83853E-20 8.87087E-19
 -1      3236 9.52575E-05-2.84143E-05-2.86478E-05 2.54718E-07 6.08665E-19 7.63236E-19
 -1      3237 9.52712E-05-2.83905E-05-2.86615E-05 3.14266E-07 4.74965E-19 3.24231E-19
 -1      3238 9.52264E-05-2.83183E-05-2.86752E-05 3.67547E-07 5.28397E-19 1.30120E-18
 -1      3239 9.52512E-05-2.84593E-05-2.86256E-05 1.59751E-07 1.21495E-18 4.81000E-20
 -1      3240 9.52607E-05-2.84404E-05-2.86360E-05 2.03151E-07 1.27619E-18 7.06054E-19
 -1      3241 9.52350E-05-2.83885E-05-2.86488E-05 2.42947E-07 7.98108E-19 1.17760E-18
 -1      3242 9.52466E-05-2.84939E-05-2.86087E-05 9.18275E-08 1.49108E-18 5.99519E-19
 -1      3243 9.52531E-05-2.84792E-05-2.86164E-05 1.22648E-07 1.34850E-18 3.63587E-19
 -1      3244 9.52407E-05-2.84430E-05-2.86278E-05 1.51783E-07 1.10639E-18-4.06188E-19
 -1      3245 9.52433E-05-2.85197E-05-2.85961E-05 4.46193E-08-4.17919E-19 1.96497E-18
 -1      3246 9.52475E-05-2.85087E-05-2.86017E-05 6.58511E-08 4.35044E-19 1.36238E-18
 -1      3247 9.52440E-05-2.84844E-05-2.86115E-05 8.67018E-08 4.73188E-19 5.33884E-19
 -1      3248 9.52410E-05-2.85387E-05-2.85869E-05 1.29453E-08-3.82121E-19 2.15830E-18
 -1      3249 9.52436E-05-2.85305E-05-2.85908E-05 2.70249E-08-3.76765E-19 2.29878E-18
 -1      3250 9.52456E-05-2.85149E-05-2.85991E-05 4.15511E-08-9.80171E-19 1.95119E-18
 -1      3251 9.52394E-05-2.85521E-05-2.85803E-05-7.33501E-09-6.82438E-19 1.81402E-18
 -1      3252 9.52408E-05-2.85462E-05-2.85831E-05 1.53010E-09-4.57874E-19 1.86703E-18
 -1      3253 9.52460E-05-2.85369E-05-2.85898E-05 1.13171E-08-4.44850E-19 2.44793E-18
 -1      3254 9.52383E-05-2.85615E-05-2.85758E-05-1.94537E-08 1.42101E-19 4.24822E-19
 -1      3255 9.52389E-05-2.85573E-05-2.85776E-05-1.42989E-08-3.71570E-19 7.35293E-19
 -1      3256 9.52457E-05-2.85524E-05-2.85830E-05-7.99275E-09 1.06380E-19 7.49640E-19
 -1      3257 9.52376E-05-2.85677E-05-2.85728E-05-2.58737E-08 2.60055E-19-1.08221E-18
 -1      3258 9.52377E-05-2.85649E-05-2.85739E-05-2.32909E-08 4.59922E-19 3.77309E-19
 -1      3259 9.52449E-05-2.85629E-05-2.85781E-05-1.94860E-08 5.73674E-20-8.94489E-19
 -1      3260 9.52372E-05-2.85718E-05-2.85709E-05-2.84213E-08 1.49554E-18-1.45924E-18
 -1      3261 9.52370E-05-2.85699E-05-2.85715E-05-2.75739E-08 4.68626E-19-1.20626E-18
 -1      3262 9.52438E-05-2.85697E-05-2.85747E-05-2.55249E-08 6.94853E-19-1.97971E-18
 -1      3263 9.52370E-05-2.85744E-05-2.85697E-05-2.84045E-08-4.00747E-19-2.93317E-21
 -1      3264 9.52366E-05-2.85731E-05-2.85700E-05-2.87006E-08 1.32617E-18-4.37537E-19
 -1      3265 9.52427E-05-2.85740E-05-2.85723E-05-2.78574E-08 7.15210E-19-2.55164E-19
 -1      3266 9.52371E-05-2.85762E-05-2.85690E-05-2.67091E-08-8.40248E-19-9.77974E-19
 -1      3267 9.52365E-05-2.85752E-05-2.85691E-05-2.77462E-08-1.19732E-18-5.53260E-19
 -1      3268 9.52417E-05-2.85767E-05-2.85708E-05-2.77415E-08-6.96696E-19 1.25923E-18
 -1      3269 9.52538E-05-2.85893E-05-2.85705E-05 8.40100E-09 1.53754E-18-1.88420E-18
 -1      3270 9.52545E-05-2.85898E-05-2.85706E-05 5.25386E-09 1.64967E-18-2.63897E-18
 -1      3271 9.52472E-05-2.85848E-05-2.85696E-05 1.91428E-08 4.18348E-19-2.75042E-18
 -1      3272 9.52494E-05-2.85863E-05-2.85698E-05 1.71803E-08 6.79637E-19-1.27997E-18
 -1      3273 9.52549E-05-2.85900E-05-2.85706E-05 1.63532E-09 9.54285E-19-4.37682E-18
 -1      3274 9.52548E-05-2.85900E-05-2.85706E-05-1.71506E-09 1.92252E-18-3.02410E-18
 -1      3275 9.52565E-05-2.85891E-05-2.85717E-05 3.57895E-09 9.20079E-19-3.48034E-18
 -1      3276 1.24826E-04-2.78111E-05-4.16329E-05 1.35451E-05 2.20070E-18 1.57342E-18
 -1      3277 1.19516E-04-1.97439E-05-4.33231E-05 1.10381E-05 2.46730E-18 7.76597E-19
 -1      3278 1.32091E-04-4.55695E-05-3.71765E-05 6.20427E-06 5.27252E-19 1.89084E-18
 -1      3279 1.29127E-04-3.73879E-05-3.98283E-05 1.12444E-05 1.52477E-18 1.85516E-18
 -1      3280 1.05379E-04-5.09155E-05-2.34894E-05 2.95434E-05-1.98883E-18-2.11149E-18
 -1      3281 9.28799E-05-4.41368E-05-2.06022E-05 3.31092E-05-1.82133E-18-2.01356E-19
 -1      3282 1.15626E-04-1.55361E-05-4.33600E-05-8.25989E-06 2.23003E-18-9.87548E-19
 -1      3283 1.19960E-04-2.13958E-05-4.23977E-05-1.31997E-05 1.63234E-18-1.83814E-18
 -1      3284 1.08095E-04-3.67931E-05-3.06000E-05-7.19951E-07 6.49717E-20 4.74320E-19
 -1      3285 1.06861E-04-3.52790E-05-3.06191E-05-1.56448E-06 1.18767E-19 2.96897E-19
 -1      3286 1.09484E-04-3.84949E-05-3.04715E-05-1.52427E-06 7.32121E-20 6.21730E-19
 -1      3287 9.52512E-05-2.85875E-05-2.85702E-05 1.44655E-08 1.33815E-18-6.46562E-19
 -1      3288 9.52527E-05-2.85886E-05-2.85703E-05 1.17148E-08 1.57963E-18-1.22182E-18
 -1      3289 9.52549E-05-2.85882E-05-2.85714E-05 1.05992E-08 1.89736E-18-1.74347E-18
 -1      3290 9.52516E-05-2.85863E-05-2.85709E-05 1.66943E-08 1.32038E-18-1.68944E-18
 -1      3291 1.05073E-04-1.92731E-05-3.68477E-05-2.40047E-06 1.76993E-18-2.96859E-19
 -1      3292 1.05175E-04-1.93741E-05-3.68460E-05 1.59674E-06 1.70877E-18-1.62069E-20
 -1      3293 1.08276E-04-1.89519E-05-3.84437E-05 4.40709E-06 1.77051E-18 1.24911E-19
 -1      3294 1.08191E-04-1.85642E-05-3.84913E-05-5.29233E-06 1.62138E-18-7.73718E-19
 -1      3295 1.08387E-04-4.74872E-05-2.58761E-05-2.10146E-05 1.03255E-18-2.28090E-19
 -1      3296 1.29482E-04-5.53302E-05-3.18638E-05-2.21766E-06-5.37138E-20-6.11518E-19
 -1      3297 1.01835E-04-2.83893E-05-3.14496E-05-5.99008E-07 8.06914E-19-5.85636E-19
 -1      3298 9.96342E-05-2.63189E-05-3.14145E-05-8.79588E-07 7.30990E-19-6.31115E-19
 -1      3299 9.99447E-05-2.77661E-05-3.09337E-05-2.47303E-06 4.34760E-19-4.32852E-19
 -1      3300 1.02785E-04-3.02307E-05-3.11300E-05-1.41184E-06 6.60563E-19-3.86115E-19
 -1      3301 9.52414E-05-2.85815E-05-2.85685E-05-2.05040E-08-8.72313E-19-3.84731E-19
 -1      3302 4.78654E-05-1.29382E-05-1.45248E-05-1.80479E-05-1.30294E-18-3.39226E-18
 -1      3303 5.90986E-05-2.04177E-05-1.64062E-05-2.74964E-05-1.70667E-18-2.91231E-18
 -1      3304 5.79939E-05-2.14701E-05-1.53358E-05 2.67053E-05 9.00925E-19-3.00983E-18
 -1      3305 4.97811E-05-1.43377E-05-1.49045E-05 1.72053E-05 3.00829E-19-3.08426E-18
 -1      3306 4.47974E-05-9.74800E-06-1.47605E-05 3.50333E-06-3.88111E-19-3.27442E-18
 -1      3307 4.35736E-05-9.68959E-06-1.41518E-05-8.90740E-06-8.98940E-19-3.37151E-18
 -1      3308 5.28472E-05-1.18849E-05-1.71431E-05-1.24199E-05-1.12023E-18-3.07309E-18
 -1      3309 1.10459E-04-5.24573E-05-2.47478E-05-2.85382E-05-1.56018E-18-1.43043E-19
 -1      3310 1.21577E-04-5.66616E-05-2.78405E-05-2.28093E-05-1.10210E-18-2.34522E-20
 -1      3311 8.39197E-05-3.70463E-05-1.99628E-05 3.19137E-05 1.57376E-18-1.86675E-18
 -1      3312 6.95835E-05-2.86604E-05-1.71304E-05 3.04562E-05 1.31692E-18-2.61670E-18
 -1      3313 7.02232E-05-2.51346E-05-1.88373E-05 2.55900E-05 8.38589E-19-2.41150E-18
 -1      3314 1.25152E-04-5.61959E-05-2.97730E-05 1.31693E-05-1.34380E-18-2.48911E-18
 -1      3315 1.16958E-04-5.46592E-05-2.64452E-05 2.13444E-05-1.95384E-18-2.08139E-18
 -1      3316 1.05512E-04-4.61685E-05-2.55823E-05 2.36537E-05 1.19764E-18-3.34366E-19
 -1      3317 9.53554E-05-4.12225E-05-2.28755E-05 2.79777E-05 1.42217E-18-1.29231E-18
 -1      3318 8.10272E-05-1.31891E-05-2.90287E-05-6.95724E-06-6.66536E-19-1.71129E-18
 -1      3319 7.83652E-05-1.14720E-05-2.87300E-05-6.85416E-06-9.03324E-19-1.86307E-18
 -1      3320 1.24934E-04-2.97699E-05-4.13322E-05-1.39321E-05 1.26848E-18-2.13503E-18
 -1      3321 1.32156E-04-3.92334E-05-3.99403E-05-1.09548E-05 5.86676E-19-2.69695E-18
 -1      3322 1.29938E-04-4.31336E-05-3.72718E-05-8.60956E-06 4.79315E-19-2.28741E-18
 -1      3323 9.78991E-05-4.25666E-05-2.38907E-05-2.56148E-05 9.32266E-19-1.24461E-19
 -1      3324 7.59316E-05-9.48721E-06-2.84421E-05-5.92493E-06-9.24090E-19-1.96114E-18
 -1      3325 7.43030E-05-8.42093E-06-2.82994E-05-5.00975E-06-9.93525E-19-2.04424E-18
 -1      3326 7.72482E-05-1.19363E-05-2.79700E-05-7.68616E-06-8.50744E-19-1.81711E-18
 -1      3327 6.85661E-05-2.52230E-05-1.80843E-05-3.01262E-05-1.82570E-18-2.38953E-18
 -1      3328 7.87230E-05-3.08828E-05-2.04084E-05-3.01537E-05-1.92265E-18-1.71024E-18
 -1      3329 6.48305E-05-1.99539E-05-1.90389E-05-2.43681E-05-1.53088E-18-2.49467E-18
 -1      3330 1.27923E-04-5.18747E-05-3.29629E-05 6.52844E-07-4.19301E-19-1.87528E-18
 -1      3331 1.27764E-04-5.46998E-05-3.12486E-05 6.83621E-06-9.84818E-19-2.21544E-18
 -1      3332 1.22342E-04-5.29706E-05-2.97109E-05 9.04614E-06-9.89030E-19-1.20829E-18
 -1      3333 9.52493E-05-2.85862E-05-2.85698E-05-1.71945E-08 3.39769E-19 1.75722E-18
 -1      3334 9.52471E-05-2.85847E-05-2.85696E-05-1.91553E-08-3.72127E-19 3.78586E-18
 -1      3335 4.62238E-05-1.32012E-05-1.38736E-05-8.18332E-06 2.71838E-19 2.46010E-18
 -1      3336 5.01033E-05-1.62936E-05-1.40914E-05-1.75760E-05 5.04514E-19 3.06922E-18
 -1      3337 9.52444E-05-2.85828E-05-2.85692E-05-2.11404E-08-1.44314E-20 2.99991E-18
 -1      3338 9.52401E-05-2.85798E-05-2.85688E-05-2.23568E-08-7.28559E-19-1.42274E-18
 -1      3339 9.52391E-05-2.85788E-05-2.85688E-05-2.37582E-08-5.67405E-19-9.11814E-19
 -1      3340 9.52463E-05-2.85831E-05-2.85700E-05-2.14082E-08-5.15004E-20 2.85275E-18
 -1      3341 1.12965E-04-3.96985E-05-3.13766E-05 4.53463E-06 2.08585E-19 8.62210E-19
 -1      3342 1.13525E-04-4.10094E-05-3.10985E-05 2.00305E-06 1.66790E-19 8.11520E-19
 -1      3343 1.13195E-04-3.91043E-05-3.17933E-05 6.41252E-06 4.86564E-20 6.21517E-19
 -1      3344 1.05227E-04-3.36076E-05-3.07235E-05-1.77674E-06 3.68767E-19 7.45335E-20
 -1      3345 1.04088E-04-3.18914E-05-3.08961E-05-1.79409E-06 5.11929E-19-1.79553E-19
 -1      3346 1.02802E-04-3.09932E-05-3.08028E-05-2.42018E-06 3.36031E-19-6.12639E-20
 -1      3347 1.05647E-04-3.47010E-05-3.04529E-05-2.84829E-06 7.40624E-20 4.19343E-19
 -1      3348 1.15519E-04-3.48620E-05-3.45312E-05 1.13794E-05 4.12168E-19 8.02372E-19
 -1      3349 1.12949E-04-3.53814E-05-3.32316E-05 1.01898E-05 7.29871E-20 7.56796E-19
 -1      3350 1.13800E-04-3.78667E-05-3.25991E-05 8.92616E-06-7.90801E-20 7.08416E-19
 -1      3351 1.15058E-04-1.83795E-05-4.17379E-05 8.30166E-06 2.22743E-18 4.61276E-19
 -1      3352 9.52388E-05-2.85780E-05-2.85689E-05-2.47411E-08-8.99181E-19-8.79725E-19
 -1      3353 9.52376E-05-2.85770E-05-2.85689E-05-2.59075E-08-6.82161E-19-6.39479E-19
 -1      3354 9.52420E-05-2.85786E-05-2.85700E-05-2.62467E-08-6.43333E-19 1.54235E-18
 -1      3355 9.52429E-05-2.85803E-05-2.85696E-05-2.42708E-08-4.15529E-19 2.05098E-18
 -1      3356 9.52526E-05-2.85885E-05-2.85703E-05-1.17823E-08 1.37009E-18 5.51278E-19
 -1      3357 9.52511E-05-2.85874E-05-2.85702E-05-1.45141E-08 1.56070E-18 3.29408E-19
 -1      3358 9.52515E-05-2.85862E-05-2.85709E-05-1.67025E-08 3.59329E-19 1.34594E-18
 -1      3359 1.23838E-04-3.32277E-05-3.89684E-05 1.22143E-05 1.25536E-18 1.54893E-18
 -1      3360 9.52545E-05-2.85897E-05-2.85706E-05-5.30723E-09 2.50951E-18-8.39864E-19
 -1      3361 9.52537E-05-2.85892E-05-2.85705E-05-8.49772E-09 1.87302E-18-8.81497E-20
 -1      3362 9.52548E-05-2.85881E-05-2.85714E-05-1.06634E-08 9.77660E-19 5.64909E-19
 -1      3363 9.52565E-05-2.85891E-05-2.85717E-05-3.71787E-09 1.53851E-18-3.00814E-18
 -1      3364 1.25191E-04-5.54959E-05-2.98266E-05-1.47302E-05-1.00551E-18 6.46551E-19
 -1      3365 8.51258E-05-3.86951E-05-1.96649E-05 3.32425E-05-2.06967E-18 9.11302E-19
 -1      3366 7.67833E-05-3.19592E-05-1.90356E-05 3.03164E-05-1.93227E-18 1.65277E-18
 -1      3367 9.26431E-05-4.06642E-05-2.20859E-05 2.84387E-05-1.64068E-18-4.73161E-19
 -1      3368 5.40913E-05-1.94231E-05-1.43064E-05 2.40806E-05-1.26684E-18 3.69582E-18
 -1      3369 5.32760E-05-1.63559E-05-1.55765E-05 1.74298E-05-4.93026E-19 3.29956E-18
 -1      3370 6.39648E-05-2.39460E-05-1.69518E-05 2.65107E-05-1.49166E-18 2.61924E-18
 -1      3371 9.52402E-05-2.85800E-05-2.85687E-05 2.20046E-08-1.11137E-18-2.04362E-18
 -1      3372 9.52445E-05-2.85829E-05-2.85692E-05 2.13116E-08-1.37985E-19-2.85549E-18
 -1      3373 1.20063E-04-2.64203E-05-4.02226E-05-1.32618E-05 1.30072E-18-1.55245E-18
 -1      3374 4.86915E-05-1.26957E-05-1.52473E-05 5.53394E-06 7.29590E-20 3.19294E-18
 -1      3375 4.64671E-05-1.20004E-05-1.42440E-05-1.75082E-06 2.31501E-19 2.71188E-18
 -1      3376 5.26671E-05-1.35656E-05-1.64325E-05-6.34627E-06 3.36146E-19 2.59986E-18
 -1      3377 9.49631E-05-4.16906E-05-2.27467E-05-3.02716E-05-1.76765E-18-7.66247E-19
 -1      3378 1.03404E-04-4.80265E-05-2.34990E-05-3.04923E-05-1.71810E-18-3.52061E-19
 -1      3379 1.10459E-04-4.96754E-05-2.59946E-05-2.38584E-05-1.61100E-18-9.35773E-20
 -1      3380 1.29773E-04-5.16945E-05-3.35228E-05-1.80709E-06-1.85983E-19 1.85098E-18
 -1      3381 1.31922E-04-4.95459E-05-3.55800E-05 2.33984E-06 9.86330E-20 1.88698E-18
 -1      3382 1.28197E-04-4.52297E-05-3.56564E-05 6.61838E-06 1.84613E-19 1.52577E-18
 -1      3383 8.41035E-05-1.55260E-05-2.94344E-05-6.76089E-06-5.23742E-19-1.63256E-18
 -1      3384 8.33037E-05-1.63334E-05-2.87119E-05-8.41078E-06-6.50871E-19-1.57413E-18
 -1      3385 8.70848E-05-1.74583E-05-2.98087E-05-6.09747E-06-3.49844E-19-1.51085E-18
 -1      3386 1.11197E-04-5.09061E-05-2.56997E-05 2.20285E-05-1.93595E-18-1.85129E-18
 -1      3387 6.08232E-05-2.65777E-05-1.41241E-05-2.90373E-05 1.21697E-18 3.70005E-18
 -1      3388 5.02168E-05-1.13132E-05-1.61645E-05 9.64590E-06-1.06038E-19-3.11729E-18
 -1      3389 5.26840E-05-9.85041E-06-1.81104E-05 2.84339E-06-4.92219E-19-2.83047E-18
 -1      3390 5.68366E-05-1.43118E-05-1.82216E-05 1.53198E-05 2.54930E-19-2.51193E-18
 -1      3391 9.52465E-05-2.85832E-05-2.85700E-05 2.15743E-08-1.49156E-19-3.16174E-18
 -1      3392 9.29431E-05-2.14851E-05-3.06179E-05-3.95107E-06 9.64153E-20-1.05048E-18
 -1      3393 9.01259E-05-1.95986E-05-3.02417E-05-5.07248E-06-2.19083E-19-1.20655E-18
 -1      3394 8.98227E-05-2.08303E-05-2.95936E-05-7.03066E-06-3.31380E-19-1.26065E-18
 -1      3395 9.56853E-05-2.46665E-05-3.04362E-05-4.46646E-06 6.64300E-20-8.08345E-19
 -1      3396 7.80261E-05-1.06790E-05-2.89082E-05 3.57220E-06-1.05261E-18-1.36982E-18
 -1      3397 8.11391E-05-1.26274E-05-2.93554E-05 4.40052E-06-1.12303E-18-1.27051E-18
 -1      3398 8.23672E-05-1.50774E-05-2.88073E-05 6.86618E-06-8.33075E-19-1.15423E-18
 -1      3399 7.37760E-05-7.90322E-06-2.82488E-05 1.86314E-07-9.88463E-19-1.62588E-18
 -1      3400 7.53901E-05-8.90110E-06-2.85178E-05 1.56563E-06-1.10141E-18-1.47974E-18
 -1      3401 7.55279E-05-1.05970E-05-2.77763E-05 3.54679E-06-8.45926E-19-1.39160E-18
 -1      3402 8.62431E-05-2.75763E-05-2.50931E-05 1.97934E-05 4.83560E-19-1.16839E-18
 -1      3403 8.94855E-05-3.23441E-05-2.43407E-05 2.24847E-05 8.94454E-19-1.16623E-18
 -1      3404 1.13701E-04-2.24049E-05-3.92026E-05 1.10967E-05 1.55375E-18 9.96296E-19
 -1      3405 1.15974E-04-2.82105E-05-3.79743E-05 1.25073E-05 1.36018E-18 1.00836E-18
 -1      3406 8.78420E-05-3.10419E-05-2.41919E-05-2.08921E-05 6.21457E-19 1.32179E-18
 -1      3407 8.51960E-05-2.74889E-05-2.46951E-05-1.87276E-05 8.54623E-19 1.45395E-18
 -1      3408 6.12946E-05-2.02666E-05-1.72204E-05-1.97526E-05 7.20961E-19 3.13741E-18
 -1      3409 5.85917E-05-2.23187E-05-1.52311E-05-2.40095E-05 8.62941E-19 3.32926E-18
 -1      3410 7.27756E-05-3.10296E-05-1.75565E-05-2.97958E-05 1.47903E-18 2.96742E-18
 -1      3411 8.60059E-05-2.59681E-05-2.56325E-05-1.61822E-05 4.99839E-19 1.05092E-18
 -1      3412 8.52508E-05-2.42624E-05-2.61691E-05-1.45675E-05 4.20903E-20 8.26446E-19
 -1      3413 7.99395E-05-2.38432E-05-2.39983E-05-1.74725E-05 4.54221E-19 1.30920E-18
 -1      3414 8.62658E-05-2.35270E-05-2.68367E-05-1.28201E-05 7.14503E-20 1.01774E-18
 -1      3415 8.62802E-05-2.28150E-05-2.72358E-05-1.15872E-05 3.76755E-19 8.49126E-19
 -1      3416 8.18362E-05-2.17357E-05-2.56965E-05-1.29625E-05 3.26149E-20 9.64329E-19
 -1      3417 8.73801E-05-2.26952E-05-2.76970E-05-1.03771E-05-3.32359E-20 7.39667E-19
 -1      3418 8.77254E-05-2.25376E-05-2.79685E-05-9.40994E-06-1.49997E-19 4.33402E-19
 -1      3419 8.40262E-05-2.11997E-05-2.68910E-05-1.00688E-05 8.65715E-20 1.66220E-18
 -1      3420 8.87407E-05-2.27411E-05-2.82742E-05-8.52716E-06 4.49102E-19 1.91809E-19
 -1      3421 8.91878E-05-2.28786E-05-2.84429E-05-7.73411E-06 1.39216E-19 1.16960E-18
 -1      3422 8.61667E-05-2.14666E-05-2.76996E-05-8.11912E-06 9.85875E-20 3.36773E-19
 -1      3423 9.00661E-05-2.32352E-05-2.86363E-05-7.04163E-06-1.59196E-19 1.96072E-18
 -1      3424 9.05014E-05-2.35112E-05-2.87297E-05-6.36804E-06 7.96621E-19 1.37243E-18
 -1      3425 8.80554E-05-2.21322E-05-2.82287E-05-6.66978E-06 5.48094E-19 1.14383E-18
 -1      3426 9.12321E-05-2.39215E-05-2.88442E-05-5.79611E-06 1.06578E-18 7.05857E-19
 -1      3427 9.16091E-05-2.42454E-05-2.88859E-05-5.21460E-06 3.69032E-20 5.17768E-19
 -1      3428 8.96506E-05-2.29669E-05-2.85592E-05-5.50734E-06 5.63762E-19 1.21567E-18
 -1      3429 9.22007E-05-2.46525E-05-2.89467E-05-4.72945E-06-5.76329E-19 3.87213E-19
 -1      3430 9.25067E-05-2.49747E-05-2.89549E-05-4.22731E-06-4.41982E-19-9.72055E-20
 -1      3431 9.09576E-05-2.38342E-05-2.87518E-05-4.52880E-06-2.93663E-19 3.28596E-19
 -1      3432 9.29758E-05-2.53489E-05-2.89805E-05-3.81303E-06-2.30648E-19 4.19428E-19
 -1      3433 9.32142E-05-2.56443E-05-2.89687E-05-3.38351E-06-4.02910E-19 4.49518E-19
 -1      3434 9.20046E-05-2.46572E-05-2.88514E-05-3.68776E-06-5.08907E-20 3.83277E-19
 -1      3435 9.35800E-05-2.59724E-05-2.89721E-05-3.03162E-06-6.50152E-19 4.85614E-19
 -1      3436 9.37606E-05-2.62306E-05-2.89496E-05-2.66937E-06-4.83600E-19 7.92254E-19
 -1      3437 9.28283E-05-2.53969E-05-2.88903E-05-2.96387E-06-4.19015E-19 4.15868E-19
 -1      3438 9.40421E-05-2.65096E-05-2.89400E-05-2.37410E-06-4.85610E-20 1.33974E-18
 -1      3439 9.41761E-05-2.67283E-05-2.89127E-05-2.07354E-06 2.02148E-19 1.11634E-18
 -1      3440 9.34670E-05-2.60382E-05-2.88914E-05-2.34650E-06 1.36601E-19 1.57215E-18
 -1      3441 9.43899E-05-2.69599E-05-2.88961E-05-1.82962E-06-4.75921E-19 6.22674E-19
 -1      3442 9.44876E-05-2.71410E-05-2.88680E-05-1.58438E-06-5.05001E-19 9.04416E-19
 -1      3443 9.39559E-05-2.65800E-05-2.88706E-05-1.82797E-06-2.36298E-19 1.54390E-18
 -1      3444 9.46481E-05-2.73297E-05-2.88485E-05-1.38620E-06 3.37263E-19 9.54538E-19
 -1      3445 9.47184E-05-2.74770E-05-2.88218E-05-1.18942E-06 1.44109E-18 1.37436E-18
 -1      3446 9.43255E-05-2.70282E-05-2.88383E-05-1.39981E-06-2.58080E-20 1.18003E-18
 -1      3447 9.48373E-05-2.76284E-05-2.88019E-05-1.03113E-06 7.55670E-19 4.35504E-19
 -1      3448 9.48872E-05-2.77463E-05-2.87778E-05-8.75831E-07-1.38169E-19 1.10572E-19
 -1      3449 9.46016E-05-2.73926E-05-2.88014E-05-1.05250E-06 6.83388E-19 1.06171E-18
 -1      3450 9.49741E-05-2.78660E-05-2.87589E-05-7.51549E-07-6.41882E-19-2.47918E-19
 -1      3451 9.50089E-05-2.79590E-05-2.87380E-05-6.30998E-07-6.58115E-19-3.07532E-19
 -1      3452 9.48052E-05-2.76845E-05-2.87643E-05-7.75753E-07-6.83936E-19-2.59764E-19
 -1      3453 9.50715E-05-2.80523E-05-2.87211E-05-5.35111E-07-6.88238E-19-6.38529E-19
 -1      3454 9.50953E-05-2.81248E-05-2.87034E-05-4.43099E-07-9.60051E-19-6.90321E-19
 -1      3455 9.49533E-05-2.79149E-05-2.87296E-05-5.59084E-07-8.26266E-19-1.34469E-18
 -1      3456 9.51395E-05-2.81965E-05-2.86887E-05-3.70417E-07-1.17322E-18-4.93156E-19
 -1      3457 9.51554E-05-2.82521E-05-2.86742E-05-3.01403E-07-1.45782E-18-4.62607E-19
 -1      3458 9.50592E-05-2.80941E-05-2.86986E-05-3.92467E-07-8.93167E-19-1.29057E-18
 -1      3459 9.51860E-05-2.83064E-05-2.86618E-05-2.47344E-07-2.18970E-18-2.42625E-19
 -1      3460 9.51963E-05-2.83485E-05-2.86500E-05-1.96564E-07-2.20181E-18-9.77261E-19
 -1      3461 9.51335E-05-2.82316E-05-2.86717E-05-2.66640E-07-1.70499E-18-1.05493E-18
 -1      3462 9.52168E-05-2.83890E-05-2.86398E-05-1.57197E-07-1.57616E-18-8.19808E-19
 -1      3463 9.52231E-05-2.84204E-05-2.86304E-05-1.20622E-07-5.14970E-19-4.39531E-19
 -1      3464 9.51843E-05-2.83355E-05-2.86492E-05-1.73490E-07-1.66683E-18-3.86872E-19
 -1      3465 9.52364E-05-2.84500E-05-2.86221E-05-9.26242E-08-7.07532E-19-3.66927E-19
 -1      3466 9.52399E-05-2.84730E-05-2.86149E-05-6.69217E-08-1.55997E-18-8.24796E-19
 -1      3467 9.52179E-05-2.84127E-05-2.86306E-05-1.06016E-07-5.18866E-19-6.27653E-19
 -1      3468 9.52479E-05-2.84943E-05-2.86083E-05-4.75566E-08-1.33513E-18-3.28961E-19
 -1      3469 9.52496E-05-2.85107E-05-2.86027E-05-3.00269E-08 9.49177E-20-2.93349E-19
 -1      3470 9.52390E-05-2.84690E-05-2.86157E-05-5.83252E-08-8.88505E-19 5.90900E-19
 -1      3471 9.52540E-05-2.85256E-05-2.85976E-05-1.70906E-08 6.42881E-19-6.29486E-19
 -1      3472 9.52545E-05-2.85371E-05-2.85934E-05-5.58861E-09 4.39971E-19-7.02845E-19
 -1      3473 9.52514E-05-2.85092E-05-2.86038E-05-2.55911E-08-1.64826E-19 4.72088E-19
 -1      3474 9.52564E-05-2.85472E-05-2.85894E-05 2.65731E-09 5.93190E-19-3.29719E-19
 -1      3475 9.52561E-05-2.85550E-05-2.85863E-05 9.80388E-09 9.61120E-19-2.55934E-19
 -1      3476 9.52577E-05-2.85371E-05-2.85945E-05-3.94627E-09 6.63825E-19-2.75951E-19
 -1      3477 9.52564E-05-2.85617E-05-2.85833E-05 1.47038E-08 7.21325E-19-6.80150E-19
 -1      3478 9.52557E-05-2.85668E-05-2.85810E-05 1.87726E-08 9.62659E-19 4.25322E-20
 -1      3479 9.52598E-05-2.85560E-05-2.85874E-05 9.64640E-09 7.00943E-19 6.77260E-20
 -1      3480 9.52549E-05-2.85709E-05-2.85788E-05 2.13443E-08 8.42139E-19-1.02985E-18
 -1      3481 9.52540E-05-2.85741E-05-2.85771E-05 2.32899E-08 1.06282E-18-1.82975E-18
 -1      3482 9.52594E-05-2.85682E-05-2.85820E-05 1.75229E-08 4.26936E-19-9.91951E-19
 -1      3483 9.52527E-05-2.85765E-05-2.85754E-05 2.42834E-08-3.83443E-19-2.93824E-18
 -1      3484 9.52517E-05-2.85785E-05-2.85742E-05 2.47973E-08-8.03139E-19-3.87301E-18
 -1      3485 9.52574E-05-2.85758E-05-2.85779E-05 2.14412E-08-6.78138E-19-2.94389E-18
 -1      3486 9.52502E-05-2.85798E-05-2.85730E-05 2.47547E-08 4.43517E-19-4.94864E-18
 -1      3487 9.52492E-05-2.85810E-05-2.85721E-05 2.43001E-08-1.60668E-19-4.68905E-18
 -1      3488 9.52547E-05-2.85802E-05-2.85748E-05 2.26812E-08-5.75248E-19-4.62562E-18
 -1      3489 9.52483E-05-2.85817E-05-2.85714E-05 2.35709E-08-5.18027E-19-4.02811E-18
 -1      3490 9.52475E-05-2.85826E-05-2.85707E-05 2.25174E-08-5.12887E-19-3.41062E-18
 -1      3491 9.52504E-05-2.85844E-05-2.85712E-05 2.03943E-08 6.03844E-19-2.28165E-18
 -1      3492 9.52523E-05-2.85828E-05-2.85727E-05 2.20716E-08 8.72469E-19-4.11526E-18
 -1      3493 1.19798E-04-3.98673E-05-3.43442E-05-1.08664E-05 7.69033E-19-1.58875E-18
 -1      3494 1.18489E-04-3.52953E-05-3.57514E-05-1.22226E-05 7.94848E-19-1.51894E-18
 -1      3495 1.13492E-04-4.35639E-05-2.98844E-05 1.71610E-06-1.51563E-18-7.39599E-19
 -1      3496 1.15320E-04-4.42956E-05-3.05156E-05-7.10084E-07-1.19357E-18-1.17874E-18
 -1      3497 1.08003E-04-4.00494E-05-2.90394E-05 5.50987E-06-7.00514E-19-7.47866E-19
 -1      3498 1.10192E-04-4.17930E-05-2.93526E-05 3.90243E-06-9.89063E-19-7.64412E-19
 -1      3499 1.11765E-04-4.39677E-05-2.91303E-05 5.61626E-06-1.45544E-18-9.53918E-19
 -1      3500 1.03265E-04-3.60898E-05-2.87283E-05 7.30461E-06-5.87474E-19-4.41033E-19
 -1      3501 1.05223E-04-3.79467E-05-2.88455E-05 6.47638E-06-6.05026E-19-5.73163E-19
 -1      3502 1.05613E-04-3.94749E-05-2.84289E-05 8.31754E-06-9.06142E-19-1.06883E-18
 -1      3503 9.97549E-05-3.27184E-05-2.86913E-05 7.77300E-06-3.00980E-19-7.47775E-19
 -1      3504 1.01265E-04-3.42712E-05-2.87093E-05 7.49666E-06-2.83650E-19-6.19714E-19
 -1      3505 1.00874E-04-3.51022E-05-2.82549E-05 9.07476E-06-4.51454E-19-6.57038E-19
 -1      3506 9.74048E-05-3.02358E-05-2.87651E-05 7.48257E-06-5.55570E-20 1.84223E-19
 -1      3507 9.84622E-05-3.13690E-05-2.87452E-05 7.54755E-06-2.23802E-19-4.06499E-19
 -1      3508 9.76487E-05-3.16577E-05-2.83269E-05 8.75822E-06-4.58267E-19-2.58477E-19
 -1      3509 9.59555E-05-2.85888E-05-2.88611E-05 6.80798E-06 1.04410E-19 6.98954E-19
 -1      3510 9.66458E-05-2.93369E-05-2.88363E-05 7.06661E-06 4.03691E-19 4.76150E-19
 -1      3511 9.56589E-05-2.92641E-05-2.84830E-05 7.94115E-06-8.34418E-22-7.33223E-19
 -1      3512 9.51392E-05-2.76083E-05-2.89385E-05 5.96760E-06-5.80169E-19 4.49582E-19
 -1      3513 9.55632E-05-2.80528E-05-2.89234E-05 6.32335E-06-4.02590E-19 1.88674E-19
 -1      3514 9.45529E-05-2.77604E-05-2.86415E-05 6.93906E-06 1.92376E-19-2.69073E-19
 -1      3515 9.47368E-05-2.71103E-05-2.89836E-05 5.08666E-06 1.97079E-19 7.70616E-19
 -1      3516 9.49814E-05-2.73366E-05-2.89822E-05 5.47829E-06-1.91618E-19 7.94751E-19
 -1      3517 9.40326E-05-2.69281E-05-2.87674E-05 5.91102E-06-3.18570E-19-6.49170E-19
 -1      3518 9.45884E-05-2.69365E-05-2.89967E-05 4.23663E-06-3.30896E-19 8.46851E-19
 -1      3519 9.47186E-05-2.70171E-05-2.90078E-05 4.62570E-06 1.75970E-19 1.23058E-18
 -1      3520 9.38746E-05-2.65642E-05-2.88509E-05 4.93462E-06-6.64805E-20-3.19923E-19
 -1      3521 9.45839E-05-2.69643E-05-2.89839E-05 3.45711E-06 4.29798E-20 8.43034E-20
 -1      3522 9.46454E-05-2.69548E-05-2.90042E-05 3.82061E-06 3.03635E-20 6.02879E-19
 -1      3523 9.39236E-05-2.65045E-05-2.88948E-05 4.04723E-06-1.16595E-19-2.99826E-19
 -1      3524 9.46526E-05-2.71052E-05-2.89531E-05 2.76738E-06-6.71851E-19-1.07843E-18
 -1      3525 9.46750E-05-2.70451E-05-2.89790E-05 3.09281E-06-2.12496E-19-2.42510E-19
 -1      3526 9.40769E-05-2.66265E-05-2.89069E-05 3.26455E-06 1.41979E-19-2.41838E-19
 -1      3527 9.47510E-05-2.72997E-05-2.89118E-05 2.17441E-06-3.31999E-19-8.47263E-19
 -1      3528 9.47529E-05-2.72157E-05-2.89400E-05 2.45616E-06-9.22712E-19-1.03768E-18
 -1      3529 9.42706E-05-2.68441E-05-2.88960E-05 2.59010E-06-7.07932E-19-2.02968E-20
 -1      3530 9.48543E-05-2.75095E-05-2.88657E-05 1.67704E-06-7.56204E-19-7.64856E-19
 -1      3531 9.48467E-05-2.74186E-05-2.88939E-05 1.91433E-06-3.54175E-19-3.59104E-19
 -1      3532 9.44675E-05-2.71005E-05-2.88704E-05 2.02109E-06-5.83326E-19-2.27773E-19
 -1      3533 9.49493E-05-2.77116E-05-2.88192E-05 1.26889E-06-4.74463E-19-1.54105E-18
 -1      3534 9.49384E-05-2.76239E-05-2.88459E-05 1.46399E-06-6.80848E-19-1.38015E-18
 -1      3535 9.46474E-05-2.73595E-05-2.88365E-05 1.55025E-06-3.04623E-19-1.19902E-18
 -1      3536 9.50300E-05-2.78936E-05-2.87753E-05 9.40696E-07-7.69988E-19-9.07802E-19
 -1      3537 9.50192E-05-2.78146E-05-2.87993E-05 1.09763E-06-1.03197E-18-1.28384E-18
 -1      3538 9.48012E-05-2.76004E-05-2.87994E-05 1.16768E-06-1.13050E-18-2.12280E-18
 -1      3539 9.50951E-05-2.80500E-05-2.87357E-05 6.81861E-07-1.32255E-18-2.20869E-19
 -1      3540 9.50858E-05-2.79821E-05-2.87565E-05 8.05544E-07-6.82853E-19-3.15083E-19
 -1      3541 9.49267E-05-2.78126E-05-2.87624E-05 8.62372E-07-1.28130E-18-6.55755E-19
 -1      3542 9.51453E-05-2.81798E-05-2.87011E-05 4.81560E-07-1.25998E-19 7.53866E-19
 -1      3543 9.51380E-05-2.81235E-05-2.87187E-05 5.77120E-07-7.60333E-19 8.72639E-19
 -1      3544 9.50252E-05-2.79923E-05-2.87278E-05 6.22964E-07-1.20146E-18 1.48632E-19
 -1      3545 9.51825E-05-2.82843E-05-2.86719E-05 3.29456E-07 3.87808E-19 8.30936E-19
 -1      3546 9.51772E-05-2.82389E-05-2.86864E-05 4.01846E-07 6.00312E-19 9.71561E-19
 -1      3547 9.50999E-05-2.81396E-05-2.86969E-05 4.38520E-07 2.74544E-19 6.19254E-19
 -1      3548 9.52090E-05-2.83665E-05-2.86477E-05 2.16229E-07 8.53896E-19 8.95819E-19
 -1      3549 9.52055E-05-2.83308E-05-2.86594E-05 2.69938E-07 6.12061E-19 6.99409E-19
 -1      3550 9.51547E-05-2.82573E-05-2.86701E-05 2.98945E-07 3.57089E-19 3.46715E-19
 -1      3551 9.52271E-05-2.84295E-05-2.86282E-05 1.33763E-07 9.53266E-19 4.06308E-20
 -1      3552 9.52250E-05-2.84021E-05-2.86375E-05 1.72719E-07 1.36208E-18 3.62120E-19
 -1      3553 9.51937E-05-2.83490E-05-2.86476E-05 1.95367E-07 8.08570E-19 5.56320E-19
 -1      3554 9.52388E-05-2.84768E-05-2.86127E-05 7.51561E-08-2.87935E-19 2.08454E-18
 -1      3555 9.52377E-05-2.84563E-05-2.86199E-05 1.02698E-07 2.06027E-19 1.31185E-18
 -1      3556 9.52202E-05-2.84189E-05-2.86291E-05 1.20141E-07 4.90887E-20 1.47490E-18
 -1      3557 9.52458E-05-2.85114E-05-2.86007E-05 3.46926E-08-1.14785E-18 1.76006E-18
 -1      3558 9.52453E-05-2.84964E-05-2.86062E-05 5.35809E-08-7.80199E-19 2.03376E-18
 -1      3559 9.52373E-05-2.84710E-05-2.86141E-05 6.68202E-08-6.19797E-19 2.33678E-18
 -1      3560 9.52493E-05-2.85361E-05-2.85916E-05 7.75006E-09 1.18173E-19 6.24118E-19
 -1      3561 9.52494E-05-2.85253E-05-2.85957E-05 2.02117E-08-4.27144E-19 1.14531E-18
 -1      3562 9.52476E-05-2.85088E-05-2.86024E-05 3.01054E-08-1.40979E-19 3.14324E-21
 -1      3563 9.52506E-05-2.85531E-05-2.85848E-05-9.32806E-09 2.25413E-19 6.62358E-19
 -1      3564 9.52510E-05-2.85457E-05-2.85877E-05-1.53618E-09 3.50488E-19 1.14879E-18
 -1      3565 9.52530E-05-2.85355E-05-2.85932E-05 5.73442E-09-1.98844E-19-5.75873E-19
 -1      3566 9.52504E-05-2.85645E-05-2.85797E-05-1.93733E-08 4.89844E-19 1.26013E-19
 -1      3567 9.52509E-05-2.85595E-05-2.85818E-05-1.48958E-08 8.25654E-19 2.90320E-19
 -1      3568 9.52551E-05-2.85539E-05-2.85863E-05-9.64974E-09 7.89524E-19 1.25561E-18
 -1      3569 9.52492E-05-2.85718E-05-2.85761E-05-2.45270E-08-2.52634E-19-2.48532E-19
 -1      3570 9.52498E-05-2.85686E-05-2.85776E-05-2.23445E-08 8.62947E-20-5.42717E-19
 -1      3571 9.52549E-05-2.85660E-05-2.85810E-05-1.86385E-08 6.95515E-19 8.96232E-19
 -1      3572 9.52476E-05-2.85763E-05-2.85735E-05-2.63659E-08-7.45443E-19 2.57991E-18
 -1      3573 9.52482E-05-2.85742E-05-2.85745E-05-2.57326E-08-8.04535E-19 8.22419E-19
 -1      3574 9.52535E-05-2.85736E-05-2.85771E-05-2.31864E-08-1.45649E-18 1.23291E-18
 -1      3575 9.52459E-05-2.85789E-05-2.85716E-05-2.59920E-08-6.17841E-19 2.55678E-18
 -1      3576 9.52464E-05-2.85777E-05-2.85723E-05-2.63925E-08-1.03731E-19 3.30505E-18
 -1      3577 9.52514E-05-2.85782E-05-2.85743E-05-2.47310E-08-1.53387E-18 4.47433E-18
 -1      3578 1.21170E-04-5.33177E-05-2.90824E-05-1.46219E-05-1.10273E-18 7.38156E-19
 -1      3579 1.27414E-04-5.41950E-05-3.15272E-05-8.00268E-06-4.85416E-19 1.41113E-18
 -1      3580 1.26751E-04-5.09197E-05-3.25079E-05-2.02992E-06-3.24797E-19 1.58821E-18
 -1      3581 1.10338E-04-4.01282E-05-3.01278E-05-3.59553E-06-1.01277E-19 5.10015E-19
 -1      3582 1.08092E-04-3.79291E-05-2.99902E-05-4.58484E-06-1.68598E-19 3.76862E-19
 -1      3583 1.10518E-04-1.47977E-05-4.12406E-05-2.37715E-06 2.36603E-18-2.09508E-19
 -1      3584 1.13176E-04-1.45390E-05-4.26465E-05-5.90256E-06 2.28900E-18-9.14544E-19
 -1      3585 9.03905E-05-3.56142E-05-2.32712E-05 2.59607E-05 1.10028E-18-1.40094E-18
 -1      3586 8.70305E-05-3.62073E-05-2.15557E-05-2.69693E-05 1.37190E-18 1.19283E-18
 -1      3587 1.10512E-04-1.71505E-05-4.02585E-05 6.01327E-06 2.01880E-18 1.92925E-19
 -1      3588 7.32843E-05-7.59928E-06-2.81395E-05-3.35260E-06-9.38811E-19-2.20325E-18
 -1      3589 7.31899E-05-7.50528E-06-2.81979E-05-1.93890E-06-9.82260E-19-1.95241E-18
 -1      3590 7.25254E-05-8.57362E-06-2.73435E-05-9.69502E-07-9.36456E-19-1.82405E-18
 -1      3591 7.33396E-05-9.09530E-06-2.74883E-05-4.98791E-06-8.84244E-19-2.10213E-18
 -1      3592 9.52585E-05-2.85883E-05-2.85729E-05 5.48599E-09 6.57428E-19-1.88889E-18
 -1      3593 9.52589E-05-2.85885E-05-2.85730E-05 1.86637E-09 1.33821E-19-2.74823E-18
 -1      3594 1.18245E-04-4.44418E-05-3.15912E-05-4.33873E-06-3.50222E-19-1.32452E-18
 -1      3595 1.18762E-04-4.27883E-05-3.26330E-05-6.98430E-06 5.96334E-19-1.55417E-18
 -1      3596 1.22506E-04-4.41970E-05-3.37295E-05-7.32900E-06 4.60204E-19-1.18524E-18
 -1      3597 1.18277E-04-4.67462E-05-3.07499E-05 2.86617E-07-8.94316E-19-1.05662E-18
 -1      3598 1.14118E-04-5.07312E-05-2.72725E-05 1.64714E-05-1.65260E-18-1.90207E-18
 -1      3599 1.04873E-04-4.66280E-05-2.48111E-05 2.32273E-05-1.69945E-18-1.86799E-18
 -1      3600 1.11692E-04-1.81659E-05-4.03450E-05-8.28521E-06 1.65410E-18-7.48592E-19
 -1      3601 8.50795E-05-2.18749E-05-2.70785E-05 1.38758E-05-3.21475E-20-1.05455E-18
 -1      3602 8.63335E-05-2.47243E-05-2.62884E-05 1.62713E-05 2.23193E-19-1.15810E-18
 -1      3603 7.94336E-05-2.22057E-05-2.43769E-05 1.81734E-05 2.60641E-19-1.55846E-18
 -1      3604 5.44135E-05-1.01939E-05-1.88078E-05-7.53294E-06-9.24894E-19-2.83973E-18
 -1      3605 5.81025E-05-1.31927E-05-1.91238E-05-1.57568E-05-1.25207E-18-2.84820E-18
 -1      3606 7.93314E-05-2.83424E-05-2.18060E-05 2.56617E-05 7.88389E-19-1.91226E-18
 -1      3607 6.96448E-05-2.15058E-05-2.02494E-05 2.22913E-05 5.88264E-19-2.09146E-18
 -1      3608 1.24064E-04-3.76963E-05-3.72861E-05-1.24663E-05 1.07605E-18-1.86432E-18
 -1      3609 1.28397E-04-4.52289E-05-3.55936E-05-7.57392E-06 2.75921E-19-1.91435E-18
 -1      3610 1.20730E-04-3.55130E-05-3.65943E-05 1.16413E-05 8.05846E-19 1.40899E-18
 -1      3611 1.22039E-04-4.05467E-05-3.50656E-05 9.73368E-06 1.23362E-19 1.38845E-18
 -1      3612 6.32476E-05-1.59790E-05-1.99690E-05-1.91879E-05-1.48069E-18-2.67302E-18
 -1      3613 7.00710E-05-2.04103E-05-2.12793E-05-2.22642E-05-1.61331E-18-2.11504E-18
 -1      3614 6.39210E-05-1.39395E-05-2.13467E-05-1.47651E-05-1.25371E-18-2.57154E-18
 -1      3615 1.25067E-04-4.70099E-05-3.34561E-05-4.48103E-06 1.61843E-19-1.05040E-18
 -1      3616 1.08651E-04-4.69294E-05-2.65254E-05-2.10614E-05-1.27129E-18-1.67421E-19
 -1      3617 1.16166E-04-5.13195E-05-2.77136E-05-1.83722E-05-1.34279E-18 1.03133E-19
 -1      3618 1.19253E-04-5.05283E-05-2.93655E-05-1.14171E-05-9.42523E-19 7.01449E-19
 -1      3619 9.52609E-05-2.85875E-05-2.85743E-05-9.65309E-11-4.41226E-19-2.52356E-18
 -1      3620 9.52589E-05-2.85885E-05-2.85730E-05-2.05177E-09 1.21117E-19-4.13126E-18
 -1      3621 9.52584E-05-2.85882E-05-2.85729E-05-5.63573E-09 5.65334E-19-2.30954E-18
 -1      3622 7.24548E-05-1.04715E-05-2.66274E-05 3.81766E-06-7.05201E-19-1.56770E-18
 -1      3623 7.52646E-05-1.21657E-05-2.70507E-05 5.82377E-06-5.81918E-19-1.50228E-18
 -1      3624 9.52498E-05-2.85842E-05-2.85710E-05-2.04983E-08-3.46068E-19 3.79059E-18
 -1      3625 9.52466E-05-2.85823E-05-2.85704E-05-2.24157E-08-6.13645E-19 2.72236E-18
 -1      3626 9.52463E-05-2.85815E-05-2.85707E-05-2.35253E-08-9.10730E-19 2.69115E-18
 -1      3627 1.19156E-04-3.25184E-05-3.73366E-05-1.37695E-05 1.03173E-18-1.55112E-18
 -1      3628 9.52545E-05-2.85866E-05-2.85719E-05-1.49954E-08 5.96435E-19-9.83166E-19
 -1      3629 9.52523E-05-2.85854E-05-2.85715E-05-1.76969E-08-1.21895E-19 1.92871E-18
 -1      3630 9.52528E-05-2.85847E-05-2.85721E-05-1.88091E-08-5.91538E-19 2.26198E-18
 -1      3631 9.52562E-05-2.85872E-05-2.85725E-05 1.25659E-08 1.30219E-18-1.21459E-18
 -1      3632 9.52576E-05-2.85879E-05-2.85727E-05 9.25783E-09 1.35636E-18-1.75437E-18
 -1      3633 9.52599E-05-2.85872E-05-2.85740E-05 7.58376E-09 5.13734E-19-9.73228E-19
 -1      3634 1.05727E-04-3.56252E-05-3.00457E-05-4.63659E-06-1.07882E-19 1.58952E-19
 -1      3635 1.04046E-04-3.35224E-05-3.01619E-05-4.56535E-06-1.00872E-19 3.60717E-20
 -1      3636 1.05812E-04-3.69540E-05-2.96377E-05-6.66222E-06-3.01620E-19-1.01677E-20
 -1      3637 7.83986E-05-1.42952E-05-2.73845E-05-9.91525E-06-8.73369E-19-1.75352E-18
 -1      3638 7.52431E-05-1.23295E-05-2.70472E-05-8.92447E-06-9.16778E-19-1.98730E-18
 -1      3639 1.03404E-04-4.36595E-05-2.55729E-05 1.97428E-05-1.57960E-18-1.89501E-18
 -1      3640 9.89826E-05-4.30299E-05-2.39267E-05 2.51640E-05-1.69510E-18-1.79521E-18
 -1      3641 9.17912E-05-3.77336E-05-2.31108E-05 2.50633E-05-1.82832E-18-7.98831E-19
 -1      3642 1.16902E-04-2.66073E-05-3.88275E-05-1.25730E-05 1.15911E-18-1.37843E-18
 -1      3643 1.16085E-04-4.02998E-05-3.24798E-05 7.06154E-06 7.44661E-20 1.02209E-18
 -1      3644 1.13836E-04-4.23462E-05-3.04929E-05-1.66824E-06-1.89845E-19 8.13549E-19
 -1      3645 1.12122E-04-4.25024E-05-2.99693E-05-5.30188E-06-2.76399E-19 5.36476E-19
 -1      3646 1.15605E-04-4.33813E-05-3.10031E-05 4.12353E-07-1.42937E-19 1.05907E-18
 -1      3647 7.54541E-05-1.54509E-05-2.57031E-05 1.04310E-05-2.19901E-19-1.43068E-18
 -1      3648 7.86294E-05-1.57296E-05-2.69656E-05 9.84443E-06-3.71574E-19-1.30309E-18
 -1      3649 8.22436E-05-1.73028E-05-2.79124E-05-1.03987E-05-8.47111E-19-1.50042E-18
 -1      3650 8.07424E-05-1.77189E-05-2.70079E-05-1.20718E-05-8.69416E-19-1.60782E-18
 -1      3651 8.59733E-05-1.96092E-05-2.83711E-05-1.01230E-05-6.74911E-19-1.50280E-18
 -1      3652 9.52464E-05-2.85807E-05-2.85710E-05-2.43650E-08-1.09089E-18 2.79546E-18
 -1      3653 9.52459E-05-2.85797E-05-2.85712E-05-2.52980E-08-9.79004E-19 2.54230E-18
 -1      3654 9.52504E-05-2.85808E-05-2.85727E-05-2.40970E-08-6.91625E-19 4.79443E-18
 -1      3655 9.52504E-05-2.85826E-05-2.85719E-05-2.24823E-08-1.28078E-18 3.28562E-18
 -1      3656 7.23179E-05-2.74885E-05-1.89119E-05 2.74801E-05-1.57475E-18 2.06509E-18
 -1      3657 6.80183E-05-2.30373E-05-1.92038E-05 2.27466E-05-1.27936E-18 1.62596E-18
 -1      3658 8.02446E-05-3.07430E-05-2.10978E-05 2.57229E-05-1.91696E-18 8.25645E-19
 -1      3659 5.92362E-05-1.70961E-05-1.79561E-05 1.58650E-05-1.99734E-19 2.75905E-18
 -1      3660 5.30777E-05-1.39654E-05-1.63156E-05 1.13209E-05 5.86306E-21 3.46188E-18
 -1      3661 5.51334E-05-1.35300E-05-1.76718E-05 5.45357E-06 2.43019E-19 2.91813E-18
 -1      3662 9.52526E-05-2.85853E-05-2.85717E-05 1.80626E-08 1.34296E-18-8.17633E-19
 -1      3663 9.52548E-05-2.85865E-05-2.85721E-05 1.53465E-08 1.64932E-18-1.28377E-18
 -1      3664 9.52574E-05-2.85862E-05-2.85734E-05 1.40708E-08 1.02243E-18-1.21631E-18
 -1      3665 9.52536E-05-2.85846E-05-2.85724E-05 1.90073E-08 1.39229E-18-2.20047E-18
 -1      3666 8.75419E-05-3.52635E-05-2.21068E-05-2.95810E-05-1.81366E-18-1.19340E-18
 -1      3667 9.56228E-05-3.92053E-05-2.41433E-05-2.59049E-05-1.58714E-18-5.87192E-19
 -1      3668 8.04059E-05-2.88813E-05-2.20456E-05-2.66024E-05-1.62654E-18-1.51582E-18
 -1      3669 5.68530E-05-1.36848E-05-1.84397E-05-4.86532E-06 1.65654E-19 2.29009E-18
 -1      3670 5.81229E-05-1.50251E-05-1.82154E-05-1.12123E-05 3.39898E-19 2.38392E-18
 -1      3671 1.19475E-04-5.07750E-05-2.96537E-05 7.31449E-06-1.05363E-18-3.70608E-19
 -1      3672 1.17930E-04-5.14249E-05-2.83734E-05 1.22103E-05-1.55045E-18-8.40036E-19
 -1      3673 1.11933E-04-4.80194E-05-2.74032E-05 1.46028E-05-1.48044E-18-1.01280E-18
 -1      3674 6.64063E-05-2.02746E-05-1.96838E-05-1.78459E-05 9.62031E-19 2.36756E-18
 -1      3675 7.48395E-05-2.54753E-05-2.08570E-05-2.27532E-05 1.01642E-18 1.86180E-18
 -1      3676 1.00540E-04-2.88905E-05-3.06774E-05-3.32607E-06 2.37752E-19-3.36468E-19
 -1      3677 9.86767E-05-2.74792E-05-3.05448E-05-4.00682E-06 1.51576E-19-4.89499E-19
 -1      3678 9.62989E-05-2.58430E-05-3.01661E-05-5.35972E-06-1.46437E-19-8.00571E-19
 -1      3679 1.01869E-04-3.08877E-05-3.04220E-05-3.94633E-06 4.83437E-20-2.18069E-19
 -1      3680 6.68995E-05-1.76104E-05-2.09778E-05 1.64116E-05 2.48670E-19-2.10366E-18
 -1      3681 5.77378E-05-1.01936E-05-2.04946E-05 3.49996E-06-4.41324E-19-2.49078E-18
 -1      3682 5.54279E-05-9.41239E-06-1.94364E-05-2.38461E-06-7.10323E-19-2.75540E-18
 -1      3683 6.00247E-05-1.03311E-05-2.11576E-05-5.79641E-06-8.34668E-19-2.60209E-18
 -1      3684 8.33586E-05-1.87403E-05-2.76655E-05 1.09903E-05-3.12059E-19-1.17336E-18
 -1      3685 7.71177E-05-2.98308E-05-2.01520E-05-2.60539E-05 1.38217E-18 2.08502E-18
 -1      3686 1.09560E-04-1.51592E-05-4.06668E-05 1.15266E-06 2.25388E-18-2.52803E-19
 -1      3687 7.04077E-05-2.00634E-05-2.14413E-05-1.52597E-05 4.96494E-19 2.19726E-18
 -1      3688 5.78639E-05-1.33541E-05-1.88106E-05 1.35968E-07 2.33313E-19 2.72041E-18
 -1      3689 6.21619E-05-1.44642E-05-2.03625E-05-3.85254E-06 2.30214E-19 2.34562E-18
 -1      3690 6.03405E-05-1.43698E-05-1.96561E-05 5.39932E-06 2.67540E-19 3.01843E-18
 -1      3691 7.08097E-05-9.13045E-06-2.64323E-05 3.96531E-07-9.21102E-19-1.68994E-18
 -1      3692 7.01636E-05-1.03949E-05-2.56121E-05 3.04814E-06-6.82928E-19-1.70360E-18
 -1      3693 7.04035E-05-8.78950E-06-2.63977E-05-1.83277E-06-8.96739E-19-2.00605E-18
 -1      3694 7.16247E-05-1.88562E-05-2.26320E-05-1.25682E-05-1.89696E-19 1.76094E-18
 -1      3695 7.76025E-05-1.98476E-05-2.47522E-05-1.13789E-05 1.08566E-19 1.31537E-18
 -1      3696 7.87479E-05-1.95503E-05-2.54533E-05-9.75999E-06 2.05020E-19 1.28174E-18
 -1      3697 8.09738E-05-1.98283E-05-2.61992E-05-8.73143E-06 4.11345E-19 1.60462E-18
 -1      3698 8.21506E-05-1.99490E-05-2.67098E-05-7.71928E-06 8.85704E-20 1.78371E-18
 -1      3699 7.74936E-05-1.82117E-05-2.53184E-05-7.18267E-06 3.97684E-19 1.69818E-18
 -1      3700 8.38659E-05-2.03805E-05-2.72080E-05-7.02751E-06-3.52488E-19 1.73077E-18
 -1      3701 8.49106E-05-2.07132E-05-2.75483E-05-6.31382E-06 4.41817E-19 1.42626E-18
 -1      3702 8.13026E-05-1.91350E-05-2.65895E-05-5.74284E-06 3.08252E-19 1.85634E-18
 -1      3703 8.62688E-05-2.12268E-05-2.78789E-05-5.81651E-06 9.53290E-19 1.12193E-18
 -1      3704 8.71616E-05-2.16568E-05-2.80984E-05-5.25929E-06 5.05731E-19 1.23264E-18
 -1      3705 8.43252E-05-2.02103E-05-2.74390E-05-4.78715E-06 4.29334E-19 2.69632E-18
 -1      3706 8.82455E-05-2.21917E-05-2.83131E-05-4.86248E-06 8.84852E-20 1.19591E-18
 -1      3707 8.89838E-05-2.26491E-05-2.84476E-05-4.39564E-06 2.22187E-19 7.28819E-19
 -1      3708 8.67279E-05-2.13261E-05-2.80006E-05-4.06495E-06 2.52291E-19 1.04250E-18
 -1      3709 8.98490E-05-2.31661E-05-2.85820E-05-4.05606E-06-3.50062E-19-1.09539E-19
 -1      3710 9.04450E-05-2.36090E-05-2.86581E-05-3.65034E-06-3.98448E-19 2.49792E-20
 -1      3711 8.86468E-05-2.24153E-05-2.83627E-05-3.45610E-06-6.05314E-19 7.21029E-20
 -1      3712 9.11335E-05-2.40852E-05-2.87374E-05-3.35052E-06 1.88768E-19 1.94917E-19
 -1      3713 9.16055E-05-2.44907E-05-2.87746E-05-2.99530E-06 4.68996E-19 2.51820E-19
 -1      3714 9.01771E-05-2.34354E-05-2.85867E-05-2.91076E-06-9.87342E-20-2.94109E-19
 -1      3715 9.21494E-05-2.49131E-05-2.88170E-05-2.72998E-06 1.34479E-21 6.77747E-19
 -1      3716 9.25173E-05-2.52703E-05-2.88291E-05-2.42091E-06 4.69234E-20 1.17499E-18
 -1      3717 9.13917E-05-2.43568E-05-2.87165E-05-2.41560E-06 5.26555E-19 5.93563E-19
 -1      3718 9.29439E-05-2.56353E-05-2.88471E-05-2.18870E-06 1.41694E-19 1.37673E-18
 -1      3719 9.32271E-05-2.59417E-05-2.88439E-05-1.92408E-06 3.45782E-19 1.75393E-18
 -1      3720 9.23486E-05-2.51656E-05-2.87830E-05-1.96905E-06 2.91683E-19 1.22984E-18
 -1      3721 9.35584E-05-2.62501E-05-2.88464E-05-1.72515E-06-3.76033E-19 1.06618E-18
 -1      3722 9.37736E-05-2.65069E-05-2.88344E-05-1.50280E-06-7.64767E-19 9.52258E-19
 -1      3723 9.30965E-05-2.58603E-05-2.88082E-05-1.57535E-06-5.20449E-19 1.13438E-19
 -1      3724 9.40279E-05-2.67624E-05-2.88277E-05-1.33571E-06-3.89547E-19 1.23543E-18
 -1      3725 9.41896E-05-2.69739E-05-2.88114E-05-1.15233E-06 2.26361E-19 1.16774E-18
 -1      3726 9.36747E-05-2.64444E-05-2.88074E-05-1.23665E-06-8.36327E-20 8.13127E-19
 -1      3727 9.43827E-05-2.71821E-05-2.87996E-05-1.01502E-06 2.52343E-19 7.98531E-19
 -1      3728 9.45026E-05-2.73534E-05-2.87819E-05-8.66698E-07 1.38049E-19 3.83839E-19
 -1      3729 9.41166E-05-2.69270E-05-2.87915E-05-9.51709E-07-1.95656E-19 3.88860E-19
 -1      3730 9.46471E-05-2.75203E-05-2.87679E-05-7.56117E-07-4.85960E-19 2.80938E-19
 -1      3731 9.47349E-05-2.76570E-05-2.87505E-05-6.38226E-07-7.78792E-19 2.37022E-19
 -1      3732 9.44502E-05-2.73190E-05-2.87675E-05-7.17679E-07-2.28339E-19 1.35715E-19
 -1      3733 9.48418E-05-2.77891E-05-2.87362E-05-5.50890E-07-7.60233E-19-1.81829E-19
 -1      3734 9.49050E-05-2.78966E-05-2.87201E-05-4.59003E-07-8.61414E-19-4.24531E-19
 -1      3735 9.46986E-05-2.76327E-05-2.87404E-05-5.29220E-07-1.02664E-18 6.31889E-19
 -1      3736 9.49826E-05-2.79993E-05-2.87065E-05-3.91419E-07-7.95436E-19-3.72172E-19
 -1      3737 9.50274E-05-2.80826E-05-2.86922E-05-3.21038E-07-5.38733E-19-3.31863E-19
 -1      3738 9.48811E-05-2.78801E-05-2.87132E-05-3.80845E-07-7.40390E-19 1.60218E-19
 -1      3739 9.50828E-05-2.81615E-05-2.86800E-05-2.69725E-07-1.03046E-18-3.06347E-19
 -1      3740 9.51138E-05-2.82252E-05-2.86678E-05-2.16864E-07-1.97365E-18-2.11783E-19
 -1      3741 9.50127E-05-2.80720E-05-2.86878E-05-2.66188E-07-7.00829E-19-3.22894E-19
 -1      3742 9.51524E-05-2.82848E-05-2.86571E-05-1.78775E-07-1.64979E-18-6.00895E-22
 -1      3743 9.51733E-05-2.83326E-05-2.86469E-05-1.39879E-07-6.28873E-19 5.68568E-19
 -1      3744 9.51057E-05-2.82190E-05-2.86650E-05-1.79517E-07-1.10472E-18 1.06284E-18
 -1      3745 9.51993E-05-2.83769E-05-2.86378E-05-1.12239E-07-5.88853E-19 9.66661E-19
 -1      3746 9.52128E-05-2.84122E-05-2.86294E-05-8.42546E-08-1.00315E-18 4.46342E-19
 -1      3747 9.51696E-05-2.83295E-05-2.86453E-05-1.15431E-07-9.35687E-19 1.84164E-18
 -1      3748 9.52296E-05-2.84444E-05-2.86219E-05-6.46982E-08-8.20381E-19 2.86444E-19
 -1      3749 9.52378E-05-2.84700E-05-2.86152E-05-4.50776E-08-5.14401E-19 3.89070E-19
 -1      3750 9.52121E-05-2.84112E-05-2.86287E-05-6.91205E-08-8.27799E-19 1.26754E-18
 -1      3751 9.52480E-05-2.84929E-05-2.86091E-05-3.16517E-08-3.15806E-19 4.92478E-19
 -1      3752 9.52525E-05-2.85110E-05-2.86038E-05-1.83215E-08 8.97010E-20 5.88792E-19
 -1      3753 9.52389E-05-2.84703E-05-2.86150E-05-3.65214E-08-1.35500E-19 6.13140E-19
 -1      3754 9.52581E-05-2.85269E-05-2.85989E-05-9.45061E-09 5.11778E-19 1.68070E-20
 -1      3755 9.52601E-05-2.85394E-05-2.85948E-05-7.58098E-10 5.02828E-19-4.83824E-19
 -1      3756 9.52546E-05-2.85121E-05-2.86039E-05-1.42879E-08 5.14218E-19 6.56100E-19
 -1      3757 9.52625E-05-2.85500E-05-2.85909E-05 4.80216E-09-1.51547E-19-2.96363E-19
 -1      3758 9.52629E-05-2.85583E-05-2.85878E-05 1.01470E-08 2.46012E-19-8.78913E-19
 -1      3759 9.52626E-05-2.85408E-05-2.85950E-05 2.71054E-10-1.15208E-19 2.75559E-19
 -1      3760 9.52632E-05-2.85652E-05-2.85848E-05 1.33574E-08-2.58829E-19-1.15920E-18
 -1      3761 9.52625E-05-2.85704E-05-2.85824E-05 1.63401E-08-3.90957E-19-1.68173E-18
 -1      3762 9.52654E-05-2.85599E-05-2.85881E-05 9.27140E-09-6.40847E-19 1.61591E-19
 -1      3763 9.52616E-05-2.85746E-05-2.85801E-05 1.79283E-08-4.19814E-19-2.29430E-18
 -1      3764 9.52603E-05-2.85778E-05-2.85782E-05 1.92834E-08-1.12350E-18-2.95413E-18
 -1      3765 9.52648E-05-2.85721E-05-2.85826E-05 1.43451E-08-1.04090E-18-1.66641E-18
 -1      3766 9.52587E-05-2.85802E-05-2.85764E-05 1.97934E-08-7.99272E-19-2.75178E-18
 -1      3767 9.52571E-05-2.85820E-05-2.85750E-05 2.00318E-08-8.07267E-20-2.50401E-18
 -1      3768 9.52622E-05-2.85794E-05-2.85784E-05 1.67152E-08-9.33944E-19-1.55429E-18
 -1      3769 9.52558E-05-2.85829E-05-2.85741E-05 1.98809E-08 1.27653E-18-2.58803E-18
 -1      3770 9.52549E-05-2.85839E-05-2.85733E-05 1.92732E-08 2.00729E-18-1.93684E-18
 -1      3771 9.52569E-05-2.85848E-05-2.85738E-05 1.69972E-08 1.80352E-18-1.33252E-18
 -1      3772 9.52595E-05-2.85831E-05-2.85756E-05 1.72885E-08 5.50731E-19-1.94197E-19
 -1      3773 1.02382E-04-3.76371E-05-2.76596E-05 1.12508E-05-8.28425E-19-9.48746E-19
 -1      3774 1.05218E-04-4.02778E-05-2.78170E-05 1.07788E-05-1.01878E-18-1.00511E-18
 -1      3775 9.51848E-05-2.99050E-05-2.79578E-05 9.46053E-06-2.06861E-19-8.07047E-19
 -1      3776 9.64948E-05-3.13923E-05-2.78720E-05 9.88991E-06-3.52617E-19-6.03773E-19
 -1      3777 9.37098E-05-2.78507E-05-2.82196E-05 8.10495E-06 1.43557E-21-8.93227E-19
 -1      3778 9.44746E-05-2.88012E-05-2.81221E-05 8.63624E-06-2.35597E-19-1.12263E-18
 -1      3779 9.29807E-05-2.84755E-05-2.76767E-05 9.69255E-06 9.46497E-20-1.37473E-18
 -1      3780 9.30461E-05-2.66699E-05-2.84483E-05 6.80107E-06-1.34403E-19-3.24709E-19
 -1      3781 9.34398E-05-2.72138E-05-2.83648E-05 7.34434E-06 2.52926E-19-5.16206E-19
 -1      3782 9.20731E-05-2.67341E-05-2.80188E-05 7.98643E-06-3.03359E-19-1.12560E-18
 -1      3783 9.28809E-05-2.61061E-05-2.86223E-05 5.62195E-06-5.19175E-19-6.12548E-19
 -1      3784 9.30384E-05-2.63644E-05-2.85616E-05 6.13614E-06-3.13512E-19-3.71428E-19
 -1      3785 9.18398E-05-2.58213E-05-2.83005E-05 6.50702E-06-2.59767E-19-1.71918E-19
 -1      3786 9.29998E-05-2.59527E-05-2.87405E-05 4.58625E-06-5.58354E-19 1.53435E-19
 -1      3787 9.30170E-05-2.60217E-05-2.87029E-05 5.05376E-06-5.75871E-19-3.84329E-19
 -1      3788 9.19935E-05-2.54702E-05-2.85113E-05 5.25727E-06-6.70055E-19 1.06636E-19
 -1      3789 9.32632E-05-2.60542E-05-2.88103E-05 3.69465E-06 2.03766E-19 3.42062E-19
 -1      3790 9.32051E-05-2.60072E-05-2.87922E-05 4.10761E-06 2.11164E-19 7.39938E-19
 -1      3791 9.23485E-05-2.54806E-05-2.86560E-05 4.21224E-06-6.07345E-19 7.61348E-19
 -1      3792 9.35809E-05-2.62964E-05-2.88424E-05 2.93762E-06-1.97316E-19 4.11295E-19
 -1      3793 9.34888E-05-2.61855E-05-2.88392E-05 3.29532E-06 1.83088E-19 3.88948E-19
 -1      3794 9.27856E-05-2.57054E-05-2.87459E-05 3.34587E-06 3.21251E-19 1.57474E-18
 -1      3795 9.39015E-05-2.66043E-05-2.88473E-05 2.30334E-06-8.56815E-19 5.97345E-19
 -1      3796 9.38001E-05-2.64642E-05-2.88543E-05 2.60710E-06-4.61248E-19 4.97046E-19
 -1      3797 9.32324E-05-2.60398E-05-2.87936E-05 2.62995E-06-4.97373E-19 1.20283E-18
 -1      3798 9.41958E-05-2.69278E-05-2.88340E-05 1.77982E-06-4.67550E-20 1.36689E-19
 -1      3799 9.40992E-05-2.67813E-05-2.88474E-05 2.03307E-06-4.74227E-19 6.24205E-19
 -1      3800 9.36494E-05-2.64170E-05-2.88106E-05 2.04323E-06-4.40262E-19 8.60474E-19
 -1      3801 9.44500E-05-2.72365E-05-2.88099E-05 1.35377E-06 1.78119E-19-1.13474E-18
 -1      3802 9.43650E-05-2.70972E-05-2.88266E-05 1.56137E-06 1.77108E-19-2.12163E-19
 -1      3803 9.40152E-05-2.67920E-05-2.88070E-05 1.56721E-06 9.06412E-20 3.43996E-19
 -1      3804 9.46604E-05-2.75141E-05-2.87803E-05 1.01215E-06-1.25144E-18-6.87586E-19
 -1      3805 9.45896E-05-2.73893E-05-2.87981E-05 1.17934E-06-6.52530E-19-8.59969E-19
 -1      3806 9.43225E-05-2.71394E-05-2.87903E-05 1.18467E-06-2.53766E-19 3.75631E-19
 -1      3807 9.48283E-05-2.77532E-05-2.87492E-05 7.42361E-07-1.85989E-18-1.19125E-19
 -1      3808 9.47718E-05-2.76459E-05-2.87666E-05 8.74814E-07-1.82157E-18-7.54550E-19
 -1      3809 9.45720E-05-2.74455E-05-2.87665E-05 8.81130E-07-1.37306E-18 5.62523E-19
 -1      3810 9.49583E-05-2.79523E-05-2.87190E-05 5.32671E-07-1.22118E-18 1.78740E-19
 -1      3811 9.49148E-05-2.78633E-05-2.87350E-05 6.35762E-07-1.74018E-18 2.23623E-19
 -1      3812 9.47685E-05-2.77056E-05-2.87397E-05 6.43260E-07-2.02689E-18-2.87696E-19
 -1      3813 9.50561E-05-2.81136E-05-2.86913E-05 3.72283E-07-2.03207E-19 1.26945E-18
 -1      3814 9.50237E-05-2.80417E-05-2.87055E-05 4.51194E-07-4.58672E-19 7.70033E-19
 -1      3815 9.49193E-05-2.79201E-05-2.87128E-05 4.59606E-07-1.34738E-18 7.27486E-19
 -1      3816 9.51275E-05-2.82412E-05-2.86668E-05 2.51680E-07 6.88297E-19 1.25576E-18
 -1      3817 9.51042E-05-2.81844E-05-2.86790E-05 3.10975E-07 6.74663E-19 1.70058E-18
 -1      3818 9.50319E-05-2.80925E-05-2.86875E-05 3.19790E-07-2.79127E-19 2.74289E-18
 -1      3819 9.51782E-05-2.83398E-05-2.86459E-05 1.62740E-07 4.55826E-20 1.85490E-18
 -1      3820 9.51619E-05-2.82960E-05-2.86561E-05 2.06412E-07 3.85303E-19 9.94108E-19
 -1      3821 9.51137E-05-2.82280E-05-2.86647E-05 2.15131E-07 2.60451E-19 2.17251E-18
 -1      3822 9.52127E-05-2.84144E-05-2.86285E-05 9.85406E-08-7.17355E-19 2.59314E-18
 -1      3823 9.52019E-05-2.83814E-05-2.86368E-05 1.30004E-07-2.52095E-19 1.81645E-18
 -1      3824 9.51714E-05-2.83321E-05-2.86450E-05 1.38272E-07-1.69445E-19 2.32612E-18
 -1      3825 9.52350E-05-2.84695E-05-2.86143E-05 5.33179E-08 2.52653E-19 1.54123E-18
 -1      3826 9.52284E-05-2.84451E-05-2.86210E-05 7.54162E-08-2.47824E-19 2.47274E-18
 -1      3827 9.52105E-05-2.84105E-05-2.86283E-05 8.29922E-08-2.27664E-19 1.64680E-18
 -1      3828 9.52486E-05-2.85092E-05-2.86029E-05 2.23939E-08 3.83138E-19 2.85856E-19
 -1      3829 9.52448E-05-2.84917E-05-2.86082E-05 3.74410E-08 7.48661E-19 1.43006E-18
 -1      3830 9.52357E-05-2.84680E-05-2.86146E-05 4.41875E-08 8.93057E-19 5.98978E-19
 -1      3831 9.52558E-05-2.85370E-05-2.85940E-05 2.04201E-09-4.50079E-19 2.07101E-19
 -1      3832 9.52541E-05-2.85248E-05-2.85980E-05 1.18831E-08-6.29321E-19 1.46036E-19
 -1      3833 9.52508E-05-2.85093E-05-2.86035E-05 1.77501E-08 1.22201E-19 2.00400E-18
 -1      3834 9.52587E-05-2.85558E-05-2.85871E-05-1.06514E-08 6.74379E-19 4.87573E-19
 -1      3835 9.52583E-05-2.85476E-05-2.85902E-05-4.57439E-09 3.85342E-19 3.47918E-19
 -1      3836 9.52588E-05-2.85380E-05-2.85946E-05 4.29046E-10-2.44647E-19 1.74313E-18
 -1      3837 9.52588E-05-2.85681E-05-2.85818E-05-1.79242E-08 3.04991E-19 5.46048E-19
 -1      3838 9.52593E-05-2.85627E-05-2.85841E-05-1.45060E-08 9.30394E-19 5.91256E-19
 -1      3839 9.52619E-05-2.85573E-05-2.85877E-05-1.03066E-08 7.64066E-19 8.73046E-19
 -1      3840 9.52571E-05-2.85757E-05-2.85778E-05-2.14492E-08-2.84131E-18 2.66611E-18
 -1      3841 9.52581E-05-2.85724E-05-2.85795E-05-1.98665E-08-1.27679E-18 1.55575E-18
 -1      3842 9.52618E-05-2.85697E-05-2.85823E-05-1.63928E-08-1.45775E-18 2.50982E-18
 -1      3843 9.52545E-05-2.85801E-05-2.85747E-05-2.24204E-08-1.14983E-18 3.63483E-18
 -1      3844 9.52558E-05-2.85782E-05-2.85760E-05-2.21079E-08-2.23959E-18 2.83414E-18
 -1      3845 9.52598E-05-2.85774E-05-2.85782E-05-1.92817E-08-3.15748E-18 1.85977E-18
 -1      3846 1.22853E-04-4.95603E-05-3.13892E-05-3.30908E-06-1.96346E-19 1.23178E-18
 -1      3847 1.24949E-04-4.81463E-05-3.30016E-05 2.06073E-06-1.52165E-19 1.35321E-18
 -1      3848 1.19376E-04-4.31293E-05-3.27281E-05 5.55254E-06 1.57363E-20 1.21779E-18
 -1      3849 1.18660E-04-4.43158E-05-3.18330E-05 2.97659E-06-5.05507E-20 1.25248E-18
 -1      3850 1.08296E-04-1.65324E-05-3.93911E-05-3.46015E-06 2.01919E-18-4.46307E-19
 -1      3851 7.19446E-05-1.83792E-05-2.29946E-05 1.60063E-05 1.76215E-19-1.78944E-18
 -1      3852 6.21773E-05-1.16371E-05-2.13145E-05 9.33239E-06-1.50077E-19-2.28949E-18
 -1      3853 6.36226E-05-1.10271E-05-2.24635E-05 4.64228E-06-4.64214E-19-2.18423E-18
 -1      3854 7.28122E-05-1.61151E-05-2.44162E-05 1.24662E-05-7.04228E-20-1.59200E-18
 -1      3855 7.01189E-05-1.22712E-05-2.46097E-05 7.68619E-06-3.56584E-19-1.71328E-18
 -1      3856 9.52574E-05-2.85880E-05-2.85726E-05-8.82799E-09 2.57404E-19 9.08539E-19
 -1      3857 9.52561E-05-2.85873E-05-2.85724E-05-1.21257E-08 5.78756E-19-2.86670E-19
 -1      3858 9.52570E-05-2.85865E-05-2.85731E-05-1.31681E-08-3.55919E-19-1.84482E-20
 -1      3859 9.52598E-05-2.85873E-05-2.85739E-05-7.15494E-09-6.54688E-19-1.30900E-18
 -1      3860 7.32719E-05-1.26484E-05-2.59684E-05-9.66225E-06-8.93537E-19-2.02800E-18
 -1      3861 7.26741E-05-1.03623E-05-2.66455E-05-7.01341E-06-8.14297E-19-2.10177E-18
 -1      3862 7.10585E-05-9.51269E-06-2.64354E-05-5.28456E-06-9.05290E-19-2.16816E-18
 -1      3863 9.78966E-05-3.31035E-05-2.77245E-05 1.06743E-05-7.38725E-19-5.03136E-19
 -1      3864 9.99343E-05-3.52291E-05-2.77058E-05 1.08233E-05-7.44013E-19-7.01404E-19
 -1      3865 9.49808E-05-3.13661E-05-2.73186E-05 1.15309E-05-5.46691E-19-8.32645E-19
 -1      3866 6.95080E-05-1.66567E-05-2.25251E-05-8.56993E-06-1.62624E-20 1.96333E-18
 -1      3867 1.09349E-04-1.89112E-05-3.88988E-05-8.42603E-06 1.46386E-18-7.67253E-19
 -1      3868 1.11388E-04-2.01500E-05-3.95034E-05-1.04995E-05 1.17063E-18-1.04997E-18
 -1      3869 1.23410E-04-4.94002E-05-3.15535E-05-1.82654E-07-5.49334E-19-7.04480E-19
 -1      3870 9.31476E-05-2.44829E-05-2.94308E-05-7.99789E-06-3.26272E-19-1.01694E-18
 -1      3871 8.97519E-05-2.22773E-05-2.89514E-05-9.12231E-06-5.24512E-19-1.29424E-18
 -1      3872 8.90067E-05-2.33290E-05-2.81752E-05-1.13666E-05-6.90980E-19-1.16761E-18
 -1      3873 9.52615E-05-2.85859E-05-2.85753E-05 9.48711E-09 2.64223E-19 5.79497E-21
 -1      3874 9.52626E-05-2.85863E-05-2.85756E-05 5.78830E-09 9.91649E-21-6.49819E-19
 -1      3875 1.02930E-04-4.27192E-05-2.55781E-05-2.32497E-05-1.44135E-18-6.35354E-19
 -1      3876 1.08000E-04-4.48312E-05-2.71998E-05-1.81989E-05-1.19685E-18-2.96402E-19
 -1      3877 9.52144E-05-3.68363E-05-2.49569E-05-2.32696E-05-1.28705E-18-7.66830E-19
 -1      3878 9.52630E-05-2.85864E-05-2.85757E-05 1.76085E-09-2.23870E-19-2.67752E-18
 -1      3879 9.52630E-05-2.85863E-05-2.85757E-05-2.02924E-09-5.29718E-19-2.41346E-18
 -1      3880 9.52647E-05-2.85848E-05-2.85771E-05 3.76405E-09-6.21424E-20-1.25475E-18
 -1      3881 7.21938E-05-2.29835E-05-2.10358E-05 1.96079E-05-6.51835E-19 8.20987E-19
 -1      3882 6.54919E-05-1.97245E-05-1.93506E-05 1.88196E-05-2.86118E-19 2.11168E-18
 -1      3883 6.39269E-05-1.73916E-05-1.99224E-05 1.36545E-05 1.94182E-19 2.07679E-18
 -1      3884 7.39919E-05-1.49885E-05-2.51955E-05-1.27620E-05-9.79686E-19-1.97132E-18
 -1      3885 7.04118E-05-1.29215E-05-2.46940E-05-1.10137E-05-9.53537E-19-2.15300E-18
 -1      3886 7.66724E-05-2.40203E-05-2.23307E-05-2.34276E-05-1.54341E-18-1.78631E-18
 -1      3887 8.37710E-05-2.83270E-05-2.37891E-05-2.31275E-05-1.47796E-18-1.25665E-18
 -1      3888 7.38980E-05-2.01762E-05-2.30291E-05-1.97128E-05-1.36453E-18-1.93433E-18
 -1      3889 1.05338E-04-3.72878E-05-2.90882E-05-9.10242E-06-5.90316E-19-2.81863E-19
 -1      3890 1.02739E-04-3.45749E-05-2.91064E-05-9.18076E-06-5.18988E-19-4.68720E-19
 -1      3891 9.52534E-05-2.85838E-05-2.85727E-05-1.96801E-08-9.83428E-19 2.79689E-18
 -1      3892 9.52535E-05-2.85830E-05-2.85731E-05-2.05893E-08-7.61257E-19 2.48786E-18
 -1      3893 9.52560E-05-2.85851E-05-2.85732E-05-1.69474E-08-8.33777E-19 2.01462E-18
 -1      3894 9.31603E-05-3.62556E-05-2.43418E-05 2.13136E-05-1.60096E-18-1.18315E-18
 -1      3895 8.73017E-05-3.40442E-05-2.26946E-05 2.45053E-05-1.69036E-18-5.28059E-19
 -1      3896 8.21308E-05-2.96488E-05-2.24986E-05 2.23288E-05-1.07987E-18-2.84153E-20
 -1      3897 1.09023E-04-4.33153E-05-2.80443E-05 1.03144E-05-1.13062E-18-1.15697E-18
 -1      3898 1.12512E-04-4.58115E-05-2.85804E-05 8.53927E-06-1.60575E-18-9.22631E-19
 -1      3899 1.18110E-04-4.57340E-05-3.10798E-05-1.27506E-06-1.43119E-19 1.17761E-18
 -1      3900 1.11777E-04-4.70878E-05-2.78992E-05 1.22506E-05-1.40751E-18-4.21468E-19
 -1      3901 1.15815E-04-4.74770E-05-2.91198E-05 6.84499E-06-1.64634E-18-8.77208E-19
 -1      3902 1.19086E-04-4.85513E-05-3.02023E-05 3.56234E-06-8.89563E-19-5.82203E-19
 -1      3903 1.04759E-04-4.16075E-05-2.71658E-05 1.38296E-05-9.56117E-19-1.42135E-18
 -1      3904 8.28428E-05-2.21197E-05-2.59213E-05-1.61919E-05-1.06756E-18-1.45223E-18
 -1      3905 7.75812E-05-1.87900E-05-2.52262E-05-1.56914E-05-1.12987E-18-1.71838E-18
 -1      3906 9.86916E-05-3.57895E-05-2.70560E-05 1.31992E-05-9.48426E-19-1.08888E-18
 -1      3907 6.76071E-05-1.08652E-05-2.43641E-05 4.16326E-06-5.46829E-19-1.99217E-18
 -1      3908 1.08972E-04-4.58205E-05-2.69030E-05 1.57546E-05-1.17310E-18-1.44809E-18
 -1      3909 9.65024E-05-2.74374E-05-2.95662E-05-7.49980E-06-3.32776E-19-7.36142E-19
 -1      3910 1.03780E-04-4.27929E-05-2.61035E-05 1.77378E-05-1.43741E-18-1.61783E-18
 -1      3911 1.24906E-04-4.51822E-05-3.42362E-05 5.39410E-06 6.13239E-20 1.40562E-18
 -1      3912 6.29528E-05-1.00261E-05-2.27088E-05-4.65432E-06-7.38868E-19-2.27923E-18
 -1      3913 6.32076E-05-1.08416E-05-2.22035E-05-9.13066E-06-9.77751E-19-2.43146E-18
 -1      3914 1.01442E-04-3.16297E-05-2.99769E-05-5.81263E-06-1.45348E-19-3.07473E-19
 -1      3915 9.52541E-05-2.85821E-05-2.85737E-05-2.12036E-08 1.44007E-19 2.52635E-18
 -1      3916 9.52541E-05-2.85811E-05-2.85741E-05-2.19321E-08 2.11704E-19 3.28836E-18
 -1      3917 9.52582E-05-2.85814E-05-2.85758E-05-1.95443E-08-7.98019E-19 5.66780E-19
 -1      3918 9.52572E-05-2.85833E-05-2.85745E-05-1.84666E-08-1.00941E-18 3.67861E-19
 -1      3919 6.66639E-05-1.33978E-05-2.28222E-05-1.25023E-05-1.16818E-18-2.29230E-18
 -1      3920 1.06484E-04-4.03784E-05-2.82240E-05-1.28954E-05-8.89325E-19-1.74833E-19
 -1      3921 1.01430E-04-3.74440E-05-2.74705E-05-1.58728E-05-1.01480E-18-5.81204E-19
 -1      3922 1.19720E-04-4.86705E-05-3.04598E-05-5.88713E-06-3.39404E-19 1.06692E-18
 -1      3923 1.10370E-04-4.37314E-05-2.85267E-05-1.19716E-05-7.79694E-19 1.10458E-19
 -1      3924 6.92558E-05-9.81904E-06-2.54426E-05-3.98516E-06-8.27923E-19-2.05126E-18
 -1      3925 7.46120E-05-1.72545E-05-2.46330E-05-4.67661E-06 4.54800E-20 2.29734E-18
 -1      3926 7.68699E-05-1.77088E-05-2.54175E-05-3.94629E-06 4.25790E-19 1.96303E-18
 -1      3927 1.15725E-04-4.67041E-05-2.93639E-05-9.14132E-06-5.61044E-19 5.63098E-19
 -1      3928 7.92380E-05-1.83845E-05-2.61047E-05-3.82952E-06 6.88366E-19 1.47784E-18
 -1      3929 8.09815E-05-1.89394E-05-2.66286E-05-3.41475E-06 4.28565E-19 1.78281E-18
 -1      3930 7.72657E-05-1.75745E-05-2.55219E-05-1.36805E-06 2.53025E-19 1.73275E-18
 -1      3931 8.27428E-05-1.95759E-05-2.70905E-05-3.34418E-06 1.81029E-19 2.21424E-18
 -1      3932 8.41146E-05-2.01466E-05-2.74405E-05-3.04826E-06 2.34442E-19 1.86464E-18
 -1      3933 8.12449E-05-1.89215E-05-2.66723E-05-1.51844E-06 5.18380E-19 7.88991E-19
 -1      3934 8.54769E-05-2.07588E-05-2.77510E-05-2.97717E-06-4.13118E-19 1.63438E-18
 -1      3935 8.65652E-05-2.13194E-05-2.79809E-05-2.72690E-06-5.52961E-19 7.48107E-19
 -1      3936 8.42889E-05-2.01792E-05-2.74487E-05-1.60502E-06-4.42665E-19 6.37912E-19
 -1      3937 8.76466E-05-2.19046E-05-2.81860E-05-2.63761E-06-7.31454E-19 1.47527E-19
 -1      3938 8.85122E-05-2.24348E-05-2.83325E-05-2.41044E-06-1.37052E-18-4.90885E-19
 -1      3939 8.66763E-05-2.13648E-05-2.79693E-05-1.60276E-06-1.16227E-18 6.32086E-19
 -1      3940 8.93701E-05-2.29715E-05-2.84646E-05-2.30064E-06-8.24761E-19-4.98311E-19
 -1      3941 9.00598E-05-2.34602E-05-2.85533E-05-2.08407E-06 1.54197E-19-3.08711E-19
 -1      3942 8.85747E-05-2.24769E-05-2.83115E-05-1.52347E-06-1.03012E-18-1.14622E-18
 -1      3943 9.07448E-05-2.39450E-05-2.86346E-05-1.96535E-06 9.84679E-19 4.18509E-19
 -1      3944 9.12892E-05-2.43794E-05-2.86844E-05-1.76140E-06 1.50741E-18 7.37227E-19
 -1      3945 9.00905E-05-2.34942E-05-2.85293E-05-1.38697E-06 1.08064E-18-7.00299E-20
 -1      3946 9.18359E-05-2.48076E-05-2.87307E-05-1.63956E-06 2.37662E-19 9.20576E-19
 -1      3947 9.22635E-05-2.51867E-05-2.87543E-05-1.45337E-06-6.08983E-19 6.25510E-19
 -1      3948 9.13034E-05-2.44064E-05-2.86610E-05-1.20922E-06 1.08417E-18 2.95984E-19
 -1      3949 9.26950E-05-2.55559E-05-2.87769E-05-1.33759E-06-6.96217E-19-3.11985E-19
 -1      3950 9.30278E-05-2.58794E-05-2.87835E-05-1.17250E-06-5.00109E-19-2.08965E-19
 -1      3951 9.22684E-05-2.52086E-05-2.87329E-05-1.02131E-06-7.19109E-19-3.13485E-19
 -1      3952 9.33653E-05-2.61914E-05-2.87908E-05-1.06774E-06 2.95071E-20-3.76374E-19
 -1      3953 9.36216E-05-2.64618E-05-2.87871E-05-9.25352E-07-6.44023E-20-3.54522E-19
 -1      3954 9.30285E-05-2.58971E-05-2.87651E-05-8.38604E-07-5.52354E-19-7.91018E-19
 -1      3955 9.38816E-05-2.67203E-05-2.87847E-05-8.34155E-07-2.99028E-19-3.22935E-19
 -1      3956 9.40766E-05-2.69429E-05-2.87751E-05-7.14428E-07 1.25110E-19-5.07398E-19
 -1      3957 9.36214E-05-2.64781E-05-2.87717E-05-6.69288E-07-1.61649E-19-1.85612E-18
 -1      3958 9.42753E-05-2.71539E-05-2.87671E-05-6.37793E-07 1.03703E-19-6.63166E-19
 -1      3959 9.44211E-05-2.73334E-05-2.87546E-05-5.39879E-07-3.51487E-19-8.24870E-19
 -1      3960 9.40767E-05-2.69564E-05-2.87625E-05-5.21795E-07 5.02069E-20-1.72631E-18
 -1      3961 9.45706E-05-2.75025E-05-2.87439E-05-4.76013E-07-6.90420E-19-3.99076E-19
 -1      3962 9.46788E-05-2.76461E-05-2.87305E-05-3.97524E-07-1.19026E-18-7.07881E-20
 -1      3963 9.44215E-05-2.73445E-05-2.87448E-05-3.96261E-07-5.11992E-19-1.60862E-18
 -1      3964 9.47895E-05-2.77796E-05-2.87188E-05-3.46949E-07-1.40275E-18 3.99175E-20
 -1      3965 9.48683E-05-2.78919E-05-2.87058E-05-2.85161E-07-1.11399E-18-4.22835E-19
 -1      3966 9.46800E-05-2.76558E-05-2.87229E-05-2.93473E-07-7.45725E-19-7.36928E-19
 -1      3967 9.49491E-05-2.79960E-05-2.86943E-05-2.45640E-07-9.18291E-19-1.11640E-18
 -1      3968 9.50055E-05-2.80829E-05-2.86823E-05-1.98183E-07-8.47096E-19-9.94678E-19
 -1      3969 9.48705E-05-2.79007E-05-2.87001E-05-2.10548E-07-1.33409E-18-7.50098E-19
 -1      3970 9.50630E-05-2.81626E-05-2.86716E-05-1.68284E-07-6.54620E-19-5.77634E-19
 -1      3971 9.51024E-05-2.82286E-05-2.86611E-05-1.32598E-07-7.27565E-19-9.63186E-21
 -1      3972 9.50085E-05-2.80908E-05-2.86781E-05-1.46454E-07-4.36895E-19-2.40534E-18
 -1      3973 9.51423E-05-2.82886E-05-2.86516E-05-1.10453E-07-1.18400E-18-1.42504E-19
 -1      3974 9.51689E-05-2.83379E-05-2.86425E-05-8.41927E-08-7.61040E-19-4.91112E-19
 -1      3975 9.51056E-05-2.82356E-05-2.86580E-05-9.79328E-08-5.17318E-19-2.82822E-18
 -1      3976 9.51957E-05-2.83822E-05-2.86343E-05-6.81921E-08-3.43632E-19 3.70657E-19
 -1      3977 9.52130E-05-2.84183E-05-2.86267E-05-4.93199E-08-7.15670E-19 6.63995E-19
 -1      3978 9.51721E-05-2.83439E-05-2.86403E-05-6.20105E-08-4.10949E-19-2.52894E-18
 -1      3979 9.52301E-05-2.84503E-05-2.86199E-05-3.80872E-08-6.46907E-19 9.72014E-19
 -1      3980 9.52408E-05-2.84763E-05-2.86137E-05-2.48907E-08 4.09408E-19 4.30060E-19
 -1      3981 9.52160E-05-2.84234E-05-2.86252E-05-3.60894E-08-1.65589E-19-6.90183E-20
 -1      3982 9.52510E-05-2.84989E-05-2.86080E-05-1.72732E-08 9.16971E-19 9.15609E-19
 -1      3983 9.52569E-05-2.85170E-05-2.86030E-05-8.34886E-09 8.16308E-19 1.10534E-18
 -1      3984 9.52434E-05-2.84805E-05-2.86126E-05-1.79247E-08 5.69576E-19 1.43284E-19
 -1      3985 9.52623E-05-2.85325E-05-2.85984E-05-3.40812E-09-1.17576E-19 1.37385E-18
 -1      3986 9.52649E-05-2.85448E-05-2.85945E-05 2.36706E-09-8.37802E-20 1.62990E-18
 -1      3987 9.52592E-05-2.85204E-05-2.86023E-05-5.63510E-09 7.50277E-19 1.71662E-18
 -1      3988 9.52670E-05-2.85550E-05-2.85908E-05 5.37535E-09-5.69094E-19 1.19427E-18
 -1      3989 9.52675E-05-2.85630E-05-2.85877E-05 8.88179E-09-1.64936E-18 6.92707E-19
 -1      3990 9.52668E-05-2.85475E-05-2.85939E-05 2.30890E-09-4.31253E-19 2.79758E-18
 -1      3991 9.52675E-05-2.85695E-05-2.85848E-05 1.05098E-08-1.82513E-18 7.66735E-19
 -1      3992 9.52666E-05-2.85744E-05-2.85824E-05 1.24293E-08-1.71150E-18-2.24359E-19
 -1      3993 9.52690E-05-2.85652E-05-2.85873E-05 7.10475E-09-1.86884E-18 2.24020E-18
 -1      3994 9.52654E-05-2.85783E-05-2.85801E-05 1.31452E-08-1.33695E-18-4.75879E-19
 -1      3995 9.52638E-05-2.85812E-05-2.85782E-05 1.39124E-08-5.52886E-19-1.81291E-19
 -1      3996 9.52677E-05-2.85761E-05-2.85821E-05 9.74157E-09-1.40725E-18 7.89108E-19
 -1      3997 9.03446E-05-2.53695E-05-2.78577E-05 7.44531E-06-3.35077E-19-3.09199E-19
 -1      3998 9.06064E-05-2.59419E-05-2.76871E-05 8.25834E-06-2.08218E-19-5.35501E-19
 -1      3999 6.48699E-05-1.49004E-05-2.13941E-05-3.91902E-06-6.72349E-20 2.49442E-18
 -1      4000 7.13913E-05-1.64182E-05-2.35871E-05-4.33701E-06-1.64814E-19 2.21155E-18
 -1      4001 9.05566E-05-2.65744E-05-2.74280E-05 9.37515E-06-1.19859E-19-1.10001E-18
 -1      4002 9.12620E-05-2.76354E-05-2.72279E-05 1.03223E-05 8.29981E-20-1.09139E-18
 -1      4003 8.87246E-05-2.51381E-05-2.72625E-05 8.80573E-06-3.83302E-19-5.76151E-19
 -1      4004 9.11196E-05-2.48017E-05-2.84327E-05 4.65211E-06-9.79238E-19-4.55542E-19
 -1      4005 9.09797E-05-2.48304E-05-2.83382E-05 5.21273E-06-3.57875E-19-2.92430E-19
 -1      4006 9.17283E-05-2.50241E-05-2.85973E-05 3.65483E-06-7.29414E-19 2.49317E-19
 -1      4007 9.15193E-05-2.49194E-05-2.85353E-05 4.11543E-06-1.44728E-18-5.35296E-19
 -1      4008 9.05394E-05-2.43094E-05-2.83778E-05 4.05396E-06-9.78364E-19-6.81005E-19
 -1      4009 9.23425E-05-2.53936E-05-2.87012E-05 2.85626E-06-3.60218E-19 1.91441E-18
 -1      4010 9.21152E-05-2.52209E-05-2.86644E-05 3.23593E-06-1.92440E-19 1.42155E-18
 -1      4011 9.13319E-05-2.46879E-05-2.85558E-05 3.13041E-06-1.21643E-18 4.84150E-19
 -1      4012 9.29182E-05-2.58317E-05-2.87589E-05 2.21281E-06-7.04937E-19 1.73609E-18
 -1      4013 9.26978E-05-2.56277E-05-2.87412E-05 2.52366E-06-1.02072E-19 1.71542E-18
 -1      4014 9.20727E-05-2.51636E-05-2.86691E-05 2.40821E-06-2.62593E-19 1.82385E-18
 -1      4015 9.34277E-05-2.62806E-05-2.87836E-05 1.69803E-06-1.76682E-19 1.49580E-18
 -1      4016 9.32290E-05-2.60725E-05-2.87792E-05 1.95081E-06-8.37721E-19 1.35523E-18
 -1      4017 9.27365E-05-2.56780E-05-2.87337E-05 1.84140E-06-7.02457E-19 1.32902E-18
 -1      4018 9.38605E-05-2.67050E-05-2.87860E-05 1.28897E-06-1.35143E-19 1.02966E-18
 -1      4019 9.36904E-05-2.65095E-05-2.87903E-05 1.49233E-06-3.32132E-20 9.39866E-19
 -1      4020 9.33067E-05-2.61799E-05-2.87637E-05 1.39818E-06 8.48030E-20 2.08964E-18
 -1      4021 9.42155E-05-2.70853E-05-2.87742E-05 9.64687E-07-3.30136E-19 1.48043E-18
 -1      4022 9.40748E-05-2.69100E-05-2.87839E-05 1.12751E-06-2.09976E-19 1.28196E-18
 -1      4023 9.37805E-05-2.66405E-05-2.87704E-05 1.05186E-06-6.06282E-19 1.20834E-18
 -1      4024 9.44992E-05-2.74136E-05-2.87542E-05 7.11468E-07-1.62886E-18 1.60503E-18
 -1      4025 9.43872E-05-2.72633E-05-2.87665E-05 8.39863E-07-7.31353E-19 1.91083E-18
 -1      4026 9.41642E-05-2.70448E-05-2.87621E-05 7.81029E-07-6.52331E-19 1.54013E-18
 -1      4027 9.47203E-05-2.76883E-05-2.87305E-05 5.14836E-07-2.27541E-18 1.12720E-18
 -1      4028 9.46332E-05-2.75627E-05-2.87438E-05 6.14889E-07-2.60848E-18 6.92444E-19
 -1      4029 9.44670E-05-2.73895E-05-2.87450E-05 5.72122E-07-1.29246E-18 2.00218E-18
 -1      4030 9.48883E-05-2.79120E-05-2.87061E-05 3.64655E-07-1.41161E-18 1.23443E-18
 -1      4031 9.48226E-05-2.78103E-05-2.87190E-05 4.41612E-07-1.58092E-18 1.15417E-18
 -1      4032 9.47012E-05-2.76747E-05-2.87237E-05 4.11379E-07-2.14285E-18 9.85827E-19
 -1      4033 9.50131E-05-2.80902E-05-2.86828E-05 2.51172E-07-7.01788E-20 1.34270E-18
 -1      4034 9.49647E-05-2.80094E-05-2.86947E-05 3.09416E-07-1.03863E-18 1.02107E-18
 -1      4035 9.48779E-05-2.79052E-05-2.87012E-05 2.89644E-07-1.02922E-18 2.30018E-19
 -1      4036 9.51034E-05-2.82292E-05-2.86615E-05 1.67003E-07 1.03337E-19 1.51751E-18
 -1      4037 9.50688E-05-2.81664E-05-2.86721E-05 2.10315E-07 3.88885E-19 1.32914E-18
 -1      4038 9.50086E-05-2.80879E-05-2.86792E-05 1.98217E-07 9.62422E-20 1.50600E-19
 -1      4039 9.51667E-05-2.83352E-05-2.86429E-05 1.05704E-07 3.34736E-20 1.14038E-18
 -1      4040 9.51427E-05-2.82875E-05-2.86519E-05 1.37315E-07 3.91113E-19 1.30745E-18
 -1      4041 9.51024E-05-2.82295E-05-2.86591E-05 1.30927E-07 4.03703E-20 8.74027E-19
 -1      4042 9.52093E-05-2.84144E-05-2.86270E-05 6.19539E-08-3.66584E-19 1.40655E-18
 -1      4043 9.51935E-05-2.83789E-05-2.86346E-05 8.45351E-08-5.71799E-19 1.99939E-18
 -1      4044 9.51677E-05-2.83370E-05-2.86412E-05 8.21665E-08-2.56832E-19 2.02922E-18
 -1      4045 9.52367E-05-2.84721E-05-2.86138E-05 3.14939E-08 8.81543E-19 2.13222E-18
 -1      4046 9.52268E-05-2.84463E-05-2.86200E-05 4.72165E-08 4.22656E-19 1.85912E-18
 -1      4047 9.52115E-05-2.84168E-05-2.86260E-05 4.75249E-08 9.56330E-20 3.63144E-18
 -1      4048 9.52530E-05-2.85131E-05-2.86031E-05 1.09412E-08-2.77130E-19 2.83652E-18
 -1      4049 9.52474E-05-2.84949E-05-2.86081E-05 2.15420E-08 4.49734E-19 2.73720E-18
 -1      4050 9.52393E-05-2.84747E-05-2.86132E-05 2.35181E-08 4.84088E-19 3.21667E-18
 -1      4051 9.52615E-05-2.85414E-05-2.85945E-05-2.35766E-09 2.78824E-19 1.79062E-18
 -1      4052 9.52588E-05-2.85289E-05-2.85984E-05 4.48842E-09-2.82879E-20 1.95658E-18
 -1      4053 9.52556E-05-2.85157E-05-2.86027E-05 7.40230E-09 3.05841E-19 2.81287E-18
 -1      4054 9.52646E-05-2.85602E-05-2.85877E-05-1.04464E-08 1.99438E-19 2.37757E-18
 -1      4055 9.52640E-05-2.85520E-05-2.85908E-05-6.29935E-09 4.55669E-19 1.85816E-18
 -1      4056 9.52639E-05-2.85438E-05-2.85943E-05-2.95895E-09 1.46034E-19 2.80777E-18
 -1      4057 9.52643E-05-2.85722E-05-2.85824E-05-1.48973E-08-2.70978E-18 3.54493E-18
 -1      4058 9.52650E-05-2.85670E-05-2.85848E-05-1.26390E-08-8.61035E-19 3.10116E-18
 -1      4059 9.52667E-05-2.85623E-05-2.85876E-05-9.19606E-09-1.20902E-18 3.71156E-18
 -1      4060 9.52620E-05-2.85794E-05-2.85783E-05-1.68924E-08-1.65678E-18 3.31282E-20
 -1      4061 9.52633E-05-2.85763E-05-2.85801E-05-1.58754E-08-2.56771E-18 8.93752E-19
 -1      4062 9.52660E-05-2.85740E-05-2.85823E-05-1.25485E-08-7.86897E-19 2.73060E-18
 -1      4063 9.87109E-05-3.04544E-05-2.92381E-05-8.57191E-06-4.37943E-19-6.95323E-19
 -1      4064 6.49851E-05-9.36682E-06-2.36599E-05-7.65954E-07-7.45365E-19-2.14581E-18
 -1      4065 8.89180E-05-2.53970E-05-2.72799E-05-1.42240E-05-9.74455E-19-1.08993E-18
 -1      4066 8.69999E-05-2.73130E-05-2.55954E-05-1.87274E-05-1.09181E-18-1.20505E-18
 -1      4067 9.41348E-05-3.24518E-05-2.63896E-05 1.44092E-05-9.68580E-19-7.14038E-19
 -1      4068 9.65749E-05-3.51806E-05-2.62696E-05 1.53399E-05-9.35978E-19-1.00752E-18
 -1      4069 6.38725E-05-1.56466E-05-2.04763E-05 9.09816E-06 1.29335E-19 2.99299E-18
 -1      4070 6.51206E-05-1.52132E-05-2.14013E-05 4.48609E-06 3.35945E-19 2.77804E-18
 -1      4071 6.85472E-05-1.79779E-05-2.16370E-05 1.17339E-05 3.73456E-20 2.14649E-18
 -1      4072 9.15256E-05-3.18072E-05-2.54302E-05-2.06291E-05-1.13600E-18-9.03996E-19
 -1      4073 9.52588E-05-2.85855E-05-2.85743E-05 1.42428E-08 9.74358E-19-2.99114E-19
 -1      4074 9.16277E-05-2.88126E-05-2.69172E-05 1.17258E-05-1.93086E-19-8.88201E-19
 -1      4075 9.30384E-05-3.05580E-05-2.67200E-05 1.27469E-05-8.73687E-19-9.91437E-19
 -1      4076 9.02773E-05-2.98040E-05-2.59372E-05 1.47258E-05-6.98483E-19-1.13270E-18
 -1      4077 9.99264E-05-3.91167E-05-2.59632E-05 1.73352E-05-1.36812E-18-1.42289E-18
 -1      4078 9.33958E-05-2.80607E-05-2.79172E-05-1.30540E-05-7.27164E-19-9.37407E-19
 -1      4079 9.70331E-05-3.50153E-05-2.66288E-05-1.81306E-05-1.07278E-18-6.91457E-19
 -1      4080 9.06117E-05-2.48610E-05-2.81905E-05 5.89356E-06-2.55541E-19-4.75127E-20
 -1      4081 9.06130E-05-2.51023E-05-2.80586E-05 6.57144E-06-7.23472E-20 1.13151E-19
 -1      4082 8.90970E-05-2.43514E-05-2.77492E-05 6.79014E-06-2.69224E-19 2.50384E-20
 -1      4083 7.16703E-05-1.59938E-05-2.37576E-05-6.01326E-07 1.14593E-19 2.79915E-18
 -1      4084 9.41699E-05-3.55655E-05-2.51426E-05 1.89827E-05-1.24283E-18-1.01950E-18
 -1      4085 9.52615E-05-2.85845E-05-2.85758E-05 1.25778E-08 9.55968E-19 3.14650E-19
 -1      4086 9.52663E-05-2.85827E-05-2.85787E-05 5.54061E-09 1.66585E-19 5.71393E-19
 -1      4087 9.52668E-05-2.85829E-05-2.85789E-05 1.75792E-09-8.92508E-19-1.09112E-18
 -1      4088 7.85864E-05-2.62015E-05-2.22968E-05 2.06063E-05-9.35667E-19-3.61776E-20
 -1      4089 7.50771E-05-2.30309E-05-2.23570E-05 1.73331E-05-1.43360E-19 1.87896E-19
 -1      4090 8.46030E-05-2.91990E-05-2.37213E-05 1.95034E-05-9.05743E-19-8.24411E-19
 -1      4091 7.52163E-05-1.94066E-05-2.38909E-05-1.76553E-05-1.20059E-18-1.90073E-18
 -1      4092 9.52580E-05-2.85857E-05-2.85739E-05-1.40412E-08-1.34126E-18 4.99032E-19
 -1      4093 9.52587E-05-2.85848E-05-2.85746E-05-1.49814E-08-2.19763E-18 1.17334E-18
 -1      4094 9.52598E-05-2.85863E-05-2.85744E-05-1.12307E-08-1.17279E-18 7.74616E-19
 -1      4095 6.82518E-05-1.28655E-05-2.37278E-05-1.11995E-05-9.99616E-19-2.23187E-18
 -1      4096 6.98870E-05-1.58291E-05-2.29744E-05-1.61683E-05-1.24426E-18-2.19505E-18
 -1      4097 8.89338E-05-2.68007E-05-2.66500E-05 1.14208E-05 1.98135E-20-9.05407E-19
 -1      4098 9.68367E-05-3.03002E-05-2.85853E-05-1.12410E-05-6.15594E-19-8.86000E-19
 -1      4099 9.52613E-05-2.85808E-05-2.85774E-05-1.63025E-08-1.69823E-18-5.33494E-19
 -1      4100 9.52646E-05-2.85802E-05-2.85791E-05-1.32497E-08-1.80666E-18 3.50923E-20
 -1      4101 9.52610E-05-2.85821E-05-2.85767E-05-1.59298E-08-1.75495E-18 1.27556E-19
 -1      4102 9.71426E-05-3.25414E-05-2.77338E-05-1.43128E-05-7.11600E-19-7.69999E-19
 -1      4103 8.97614E-05-2.41480E-05-2.81153E-05 5.24618E-06-3.44617E-19-1.20534E-19
 -1      4104 6.70771E-05-9.81470E-06-2.45678E-05-3.70471E-06-8.60403E-19-2.11605E-18
 -1      4105 6.82614E-05-1.05195E-05-2.46172E-05-7.50681E-06-8.85553E-19-2.17530E-18
 -1      4106 9.52622E-05-2.85865E-05-2.85753E-05-5.13944E-09-8.88164E-19-1.53115E-18
 -1      4107 9.52611E-05-2.85863E-05-2.85749E-05-8.21086E-09-1.26027E-18-3.56622E-20
 -1      4108 9.52623E-05-2.85855E-05-2.85758E-05-9.24576E-09-1.68812E-18 7.52090E-20
 -1      4109 9.52644E-05-2.85851E-05-2.85768E-05-3.29783E-09-6.91581E-19-8.83997E-19
 -1      4110 6.55435E-05-1.47022E-05-2.16591E-05 6.43595E-07 1.13916E-19 2.60668E-18
 -1      4111 6.79943E-05-1.58630E-05-2.23422E-05 3.89494E-06 2.12321E-19 3.06807E-18
 -1      4112 7.12443E-05-1.67432E-05-2.32784E-05 5.76810E-06 5.49190E-20 2.40069E-18
 -1      4113 7.09480E-05-1.62264E-05-2.35118E-05 2.17275E-06-9.65287E-20 2.91154E-18
 -1      4114 7.43778E-05-1.70391E-05-2.45737E-05 1.14298E-06-3.68036E-19 2.58718E-18
 -1      4115 9.52654E-05-2.85826E-05-2.85784E-05 9.21913E-09 4.07217E-19 7.98332E-19
 -1      4116 9.52674E-05-2.85801E-05-2.85802E-05 6.97440E-09-4.72640E-19 2.93956E-19
 -1      4117 9.01076E-05-3.20809E-05-2.47719E-05 1.85352E-05-1.03972E-18-1.33128E-18
 -1      4118 8.62287E-05-2.90668E-05-2.45566E-05 1.74901E-05-9.21592E-19-9.90579E-19
 -1      4119 7.66575E-05-1.76514E-05-2.53257E-05 6.13344E-07-3.11822E-19 1.95248E-18
 -1      4120 7.89729E-05-1.83256E-05-2.60042E-05 3.48093E-07 8.15625E-20 1.03552E-18
 -1      4121 7.64863E-05-1.77443E-05-2.51100E-05 3.08231E-06-7.12989E-19 1.30369E-18
 -1      4122 8.61405E-05-2.44880E-05-2.64527E-05 1.01644E-05-6.77378E-21-6.14183E-19
 -1      4123 8.64118E-05-2.54256E-05-2.60905E-05 1.16662E-05-3.78777E-19-8.87551E-19
 -1      4124 8.57169E-05-2.61165E-05-2.55913E-05 1.33750E-05-4.00546E-19-1.34986E-18
 -1      4125 8.66855E-05-2.78593E-05-2.51724E-05 1.52615E-05-8.85238E-19-1.19195E-18
 -1      4126 8.15731E-05-2.49159E-05-2.41963E-05 1.57777E-05-7.75321E-19-1.06536E-18
 -1      4127 8.29220E-05-2.35667E-05-2.53988E-05 1.19175E-05-5.78744E-19-1.15480E-18
 -1      4128 8.07272E-05-1.89112E-05-2.65198E-05-6.59363E-08 3.91139E-19 2.12174E-19
 -1      4129 8.24661E-05-1.95302E-05-2.69787E-05-2.34321E-07 1.55742E-19-1.33120E-19
 -1      4130 8.05301E-05-1.89688E-05-2.63522E-05 1.75809E-06-3.70620E-19 7.49718E-19
 -1      4131 8.38483E-05-2.01209E-05-2.73312E-05-5.06527E-07-8.12974E-20-1.18258E-20
 -1      4132 8.51899E-05-2.06997E-05-2.76421E-05-6.14544E-07-5.89598E-19 4.45200E-19
 -1      4133 8.36073E-05-2.01137E-05-2.72015E-05 8.66975E-07 5.11983E-21 3.14731E-19
 -1      4134 8.62826E-05-2.12633E-05-2.78804E-05-7.48717E-07-1.38217E-18 5.59393E-19
 -1      4135 8.73549E-05-2.18361E-05-2.80869E-05-7.99521E-07-1.53299E-18 1.14060E-19
 -1      4136 8.60285E-05-2.11603E-05-2.77786E-05 2.28009E-07-1.04163E-18 3.79602E-19
 -1      4137 8.82476E-05-2.23547E-05-2.82468E-05-8.79221E-07-9.64705E-19 1.30492E-19
 -1      4138 8.90866E-05-2.28768E-05-2.83810E-05-8.79373E-07 1.30872E-19 7.20761E-19
 -1      4139 8.80162E-05-2.22293E-05-2.81693E-05-8.37388E-08-8.33519E-19 9.66452E-19
 -1      4140 8.97962E-05-2.33572E-05-2.84839E-05-8.80157E-07 8.22135E-19-1.30464E-20
 -1      4141 9.04813E-05-2.38354E-05-2.85675E-05-8.40470E-07 1.17223E-18 1.32453E-19
 -1      4142 8.95521E-05-2.31788E-05-2.84234E-05-2.69665E-07 5.38062E-19 8.24974E-19
 -1      4143 9.10592E-05-2.42753E-05-2.86301E-05-8.23028E-07 1.05600E-18-8.90093E-19
 -1      4144 9.16069E-05-2.47006E-05-2.86783E-05-7.63956E-07 1.29693E-19-1.01068E-18
 -1      4145 9.08604E-05-2.41011E-05-2.85874E-05-3.62702E-07 1.41261E-19-1.76648E-18
 -1      4146 9.20690E-05-2.50867E-05-2.87129E-05-7.29622E-07-8.31271E-19-1.41231E-18
 -1      4147 9.25001E-05-2.54547E-05-2.87370E-05-6.61112E-07-1.36694E-18-1.23115E-18
 -1      4148 9.18973E-05-2.49239E-05-2.86839E-05-3.84203E-07-8.63013E-19-2.49942E-18
 -1      4149 9.28671E-05-2.57891E-05-2.87528E-05-6.16085E-07-1.32856E-18-1.32406E-18
 -1      4150 9.32090E-05-2.61020E-05-2.87613E-05-5.43758E-07-8.48902E-19-1.97316E-18
 -1      4151 9.27177E-05-2.56419E-05-2.87343E-05-3.63763E-07-1.33681E-18-2.04180E-18
 -1      4152 9.34973E-05-2.63869E-05-2.87647E-05-5.10354E-07-2.83128E-19-2.31488E-18
 -1      4153 9.37552E-05-2.66420E-05-2.87634E-05-4.42202E-07 4.32487E-19-2.68904E-18
 -1      4154 9.33862E-05-2.62835E-05-2.87549E-05-3.05866E-07-7.40624E-19-2.66476E-18
 -1      4155 9.39825E-05-2.68819E-05-2.87594E-05-4.03364E-07 1.06052E-19-2.54087E-18
 -1      4156 9.41775E-05-2.70919E-05-2.87524E-05-3.46637E-07-2.74226E-19-2.05267E-18
 -1      4157 9.38867E-05-2.67880E-05-2.87544E-05-2.60432E-07 3.49686E-19-2.84183E-18
 -1      4158 9.43519E-05-2.72835E-05-2.87445E-05-3.12174E-07-4.26659E-19-2.15393E-18
 -1      4159 9.44975E-05-2.74538E-05-2.87344E-05-2.63624E-07-2.62764E-19-1.51338E-18
 -1      4160 9.42795E-05-2.72034E-05-2.87425E-05-2.03146E-07-1.12983E-19-2.51612E-18
 -1      4161 9.46273E-05-2.76072E-05-2.87243E-05-2.32810E-07-6.74933E-19-9.51920E-19
 -1      4162 9.47369E-05-2.77420E-05-2.87130E-05-1.92341E-07-1.24495E-18-1.70295E-18
 -1      4163 9.45687E-05-2.75364E-05-2.87245E-05-1.55093E-07-4.45420E-19-1.67067E-18
 -1      4164 9.48332E-05-2.78637E-05-2.87023E-05-1.69112E-07-1.18676E-18-1.76761E-18
 -1      4165 9.49135E-05-2.79691E-05-2.86911E-05-1.37041E-07-8.44963E-19-1.53283E-18
 -1      4166 9.47926E-05-2.78083E-05-2.87039E-05-1.15816E-07-1.53052E-18-2.37954E-18
 -1      4167 9.49827E-05-2.80630E-05-2.86807E-05-1.19114E-07-7.66605E-19-2.61255E-18
 -1      4168 9.50397E-05-2.81437E-05-2.86702E-05-9.42826E-08 1.42843E-20-3.30784E-18
 -1      4169 9.49537E-05-2.80204E-05-2.86830E-05-8.34562E-08-1.47320E-18-2.27544E-18
 -1      4170 9.50885E-05-2.82151E-05-2.86606E-05-8.07390E-08-2.99556E-19-3.39759E-18
 -1      4171 9.51279E-05-2.82758E-05-2.86512E-05-6.19061E-08-1.24695E-18-4.08212E-18
 -1      4172 9.50683E-05-2.81831E-05-2.86632E-05-5.75768E-08-7.07036E-19-3.79964E-18
 -1      4173 9.51614E-05-2.83292E-05-2.86428E-05-5.19983E-08-1.39481E-19-3.33568E-18
 -1      4174 9.51878E-05-2.83740E-05-2.86346E-05-3.80532E-08 5.18944E-19-1.68659E-18
 -1      4175 9.51479E-05-2.83057E-05-2.86454E-05-3.77142E-08 4.20661E-19-3.78288E-18
 -1      4176 9.52098E-05-2.84131E-05-2.86274E-05-3.10446E-08 2.25300E-19-7.20885E-19
 -1      4177 9.52266E-05-2.84455E-05-2.86205E-05-2.09861E-08 3.49556E-19 8.75792E-20
 -1      4178 9.52012E-05-2.83963E-05-2.86299E-05-2.29905E-08 1.39554E-18-1.84118E-18
 -1      4179 9.52403E-05-2.84736E-05-2.86145E-05-1.62126E-08 7.19819E-19 9.35408E-20
 -1      4180 9.52503E-05-2.84964E-05-2.86088E-05-9.16873E-09 1.10667E-18 3.90993E-19
 -1      4181 9.52353E-05-2.84618E-05-2.86167E-05-1.24307E-08 7.94450E-19-3.82767E-19
 -1      4182 9.52581E-05-2.85160E-05-2.86039E-05-6.06721E-09 1.50184E-18-3.15059E-19
 -1      4183 9.52633E-05-2.85316E-05-2.85993E-05-1.30711E-09 8.86179E-19 5.39578E-19
 -1      4184 9.52555E-05-2.85081E-05-2.86058E-05-5.12118E-09 1.41152E-18-1.41069E-18
 -1      4185 9.52670E-05-2.85448E-05-2.85953E-05 5.79540E-10-3.63174E-19 1.53167E-18
 -1      4186 9.52690E-05-2.85551E-05-2.85916E-05 3.64652E-09-1.03255E-18 1.55585E-18
 -1      4187 9.52661E-05-2.85397E-05-2.85969E-05-2.70010E-10 1.33013E-19-1.33832E-18
 -1      4188 9.52699E-05-2.85637E-05-2.85884E-05 4.69554E-09-1.78183E-18 2.46238E-18
 -1      4189 9.52699E-05-2.85702E-05-2.85855E-05 6.43185E-09-1.53368E-18 2.71518E-18
 -1      4190 9.52701E-05-2.85607E-05-2.85897E-05 2.79318E-09-1.20855E-18 6.87529E-19
 -1      4191 9.52695E-05-2.85736E-05-2.85840E-05 6.30085E-09-2.10866E-18 1.18060E-18
 -1      4192 9.52683E-05-2.85780E-05-2.85816E-05 7.22387E-09-1.98627E-18 7.42784E-19
 -1      4193 9.52691E-05-2.85780E-05-2.85819E-05 3.82235E-09-1.90034E-18 1.91397E-18
 -1      4194 9.52702E-05-2.85720E-05-2.85849E-05 3.90889E-09-2.20769E-18 2.75969E-18
 -1      4195 9.52627E-05-2.85833E-05-2.85769E-05 1.24584E-08 3.14670E-19 5.82069E-19
 -1      4196 8.78948E-05-2.33165E-05-2.76970E-05 5.71645E-06 3.35970E-20-3.54542E-20
 -1      4197 8.76114E-05-2.34621E-05-2.74754E-05 6.57355E-06-5.93138E-19 1.03388E-19
 -1      4198 8.68853E-05-2.35581E-05-2.71631E-05 7.60329E-06-1.00071E-18 2.80480E-19
 -1      4199 8.67996E-05-2.40291E-05-2.68727E-05 8.75857E-06-5.80309E-21-9.37057E-20
 -1      4200 8.43301E-05-2.28559E-05-2.63681E-05 8.91685E-06-5.30260E-19 1.80855E-20
 -1      4201 9.09943E-05-2.44306E-05-2.85420E-05 2.46957E-06-1.47382E-18 1.61449E-19
 -1      4202 9.06101E-05-2.41826E-05-2.84675E-05 2.84834E-06-2.05490E-18 4.34924E-20
 -1      4203 9.00370E-05-2.38957E-05-2.83589E-05 3.25363E-06-1.16311E-18 1.92392E-19
 -1      4204 8.96284E-05-2.36993E-05-2.82468E-05 3.74846E-06-5.46014E-19 3.48159E-19
 -1      4205 8.97969E-05-2.36313E-05-2.83536E-05 2.55868E-06-1.76200E-18 1.89393E-19
 -1      4206 9.26056E-05-2.56074E-05-2.87227E-05 1.39794E-06-1.72684E-19 7.47911E-19
 -1      4207 9.22976E-05-2.53315E-05-2.86990E-05 1.62488E-06-3.78425E-19 1.20863E-18
 -1      4208 9.32312E-05-2.61545E-05-2.87531E-05 1.04029E-06-1.19759E-19 1.38428E-18
 -1      4209 9.29655E-05-2.58954E-05-2.87441E-05 1.21970E-06 1.27841E-19 1.33521E-18
 -1      4210 9.25771E-05-2.55436E-05-2.87128E-05 1.02366E-06-1.73201E-19-3.93932E-19
 -1      4211 9.37355E-05-2.66353E-05-2.87611E-05 7.71801E-07-9.94648E-19 1.02115E-18
 -1      4212 9.35189E-05-2.64099E-05-2.87613E-05 9.15974E-07-4.23611E-19 1.16438E-18
 -1      4213 9.32278E-05-2.61491E-05-2.87461E-05 7.29156E-07-4.32104E-19 7.29684E-19
 -1      4214 9.41408E-05-2.70578E-05-2.87533E-05 5.66746E-07-1.17718E-18 1.06574E-18
 -1      4215 9.39672E-05-2.68622E-05-2.87598E-05 6.75469E-07-1.23456E-18 9.20403E-19
 -1      4216 9.37452E-05-2.66421E-05-2.87535E-05 5.40313E-07-1.12050E-18 8.06337E-19
 -1      4217 9.44549E-05-2.74066E-05-2.87375E-05 4.08729E-07-9.56660E-19 1.34439E-18
 -1      4218 9.43204E-05-2.72435E-05-2.87471E-05 4.95345E-07-5.32602E-19 1.47406E-18
 -1      4219 9.41538E-05-2.70721E-05-2.87466E-05 3.90159E-07-9.74528E-19 6.91172E-19
 -1      4220 9.46960E-05-2.76947E-05-2.87174E-05 2.91650E-07-1.49876E-18 2.10753E-19
 -1      4221 9.45948E-05-2.75624E-05-2.87283E-05 3.56549E-07-1.59997E-18 1.00525E-18
 -1      4222 9.44711E-05-2.74281E-05-2.87316E-05 2.82760E-07-1.00707E-18 6.04765E-19
 -1      4223 9.48781E-05-2.79251E-05-2.86960E-05 2.01691E-07-4.12452E-19 9.68898E-20
 -1      4224 9.48020E-05-2.78189E-05-2.87071E-05 2.50630E-07-1.08582E-18 3.73997E-19
 -1      4225 9.47095E-05-2.77053E-05-2.87122E-05 1.95781E-07-6.51283E-19-1.17373E-18
 -1      4226 9.50114E-05-2.81062E-05-2.86750E-05 1.36107E-07-2.45696E-19 7.81538E-19
 -1      4227 9.49559E-05-2.80231E-05-2.86856E-05 1.72620E-07-1.34275E-21 5.24778E-19
 -1      4228 9.48914E-05-2.79368E-05-2.86916E-05 1.35086E-07-7.71995E-19 3.01608E-19
 -1      4229 9.51063E-05-2.82453E-05-2.86557E-05 8.83291E-08 5.11541E-21 1.00976E-18
 -1      4230 9.50671E-05-2.81817E-05-2.86652E-05 1.15242E-07-1.87596E-19 9.50942E-19
 -1      4231 9.50224E-05-2.81169E-05-2.86715E-05 9.05868E-08-8.98109E-19 1.34026E-18
 -1      4232 9.51718E-05-2.83501E-05-2.86386E-05 5.40493E-08-9.78709E-19 2.34607E-18
 -1      4233 9.51451E-05-2.83024E-05-2.86469E-05 7.35768E-08-4.81585E-19 1.16166E-18
 -1      4234 9.51151E-05-2.82546E-05-2.86529E-05 5.82825E-08-7.83197E-19 1.39799E-18
 -1      4235 9.52154E-05-2.84273E-05-2.86239E-05 2.99656E-08 5.46444E-19 1.91099E-18
 -1      4236 9.51979E-05-2.83923E-05-2.86310E-05 4.38529E-08-2.03296E-19 1.64051E-18
 -1      4237 9.51787E-05-2.83579E-05-2.86364E-05 3.52598E-08-2.05317E-19-1.22043E-19
 -1      4238 9.52428E-05-2.84830E-05-2.86117E-05 1.34858E-08 6.45125E-19 1.90402E-18
 -1      4239 9.52321E-05-2.84579E-05-2.86175E-05 2.31189E-08 8.32276E-19 2.17497E-18
 -1      4240 9.52205E-05-2.84337E-05-2.86222E-05 1.91950E-08 3.56685E-19-7.31901E-19
 -1      4241 9.52586E-05-2.85220E-05-2.86016E-05 2.59103E-09 6.88993E-19 2.25995E-18
 -1      4242 9.52527E-05-2.85045E-05-2.86063E-05 9.06294E-09 6.97525E-19 2.18145E-18
 -1      4243 9.52465E-05-2.84881E-05-2.86104E-05 8.27409E-09 7.92287E-19 7.31688E-19
 -1      4244 9.52663E-05-2.85485E-05-2.85935E-05-4.27156E-09-2.74296E-19 1.79146E-18
 -1      4245 9.52637E-05-2.85367E-05-2.85972E-05-1.11201E-10 2.11435E-19 1.86450E-18
 -1      4246 9.52612E-05-2.85259E-05-2.86006E-05 1.10100E-09 7.39915E-19 6.39016E-20
 -1      4247 9.52686E-05-2.85658E-05-2.85870E-05-8.25304E-09-1.05366E-18 1.49256E-18
 -1      4248 9.52682E-05-2.85582E-05-2.85900E-05-5.77781E-09-9.75267E-19 1.20814E-18
 -1      4249 9.52680E-05-2.85515E-05-2.85927E-05-3.39443E-09-2.21002E-19-1.36445E-18
 -1      4250 9.52674E-05-2.85765E-05-2.85819E-05-1.01977E-08-6.28492E-19 1.63543E-19
 -1      4251 9.52683E-05-2.85718E-05-2.85842E-05-8.96394E-09-1.46010E-19 1.29873E-18
 -1      4252 9.52696E-05-2.85683E-05-2.85863E-05-5.96307E-09-6.31271E-20-2.07879E-18
 -1      4253 7.22730E-05-1.96897E-05-2.24095E-05 1.35719E-05-8.80650E-20 9.03010E-19
 -1      4254 7.11994E-05-1.80581E-05-2.28550E-05 9.56071E-06-1.30671E-19 1.82683E-18
 -1      4255 7.41174E-05-1.82540E-05-2.39354E-05 7.41072E-06-4.71791E-19 1.24723E-18
 -1      4256 7.75155E-05-2.26192E-05-2.34961E-05 1.46334E-05-4.26532E-19-5.70920E-20
 -1      4257 9.18621E-05-2.50231E-05-2.86573E-05 1.85985E-06-7.41557E-19 1.10720E-18
 -1      4258 9.15117E-05-2.47446E-05-2.86124E-05 2.15035E-06-8.74677E-19 5.63469E-19
 -1      4259 9.17999E-05-2.49082E-05-2.86470E-05 1.38674E-06-6.81292E-19-3.94364E-19
 -1      4260 8.89777E-05-2.34879E-05-2.80858E-05 4.31551E-06-5.20492E-19 4.78949E-19
 -1      4261 8.86021E-05-2.34228E-05-2.79240E-05 4.95046E-06-1.14139E-19 3.79336E-19
 -1      4262 8.72077E-05-2.25925E-05-2.76771E-05 4.69536E-06-1.33725E-19 2.35757E-19
 -1      4263 9.52683E-05-2.85802E-05-2.85806E-05-3.14526E-10-2.93108E-18-8.19521E-19
 -1      4264 9.52668E-05-2.85829E-05-2.85788E-05-2.17680E-09-2.30576E-18-1.84904E-18
 -1      4265 9.08621E-05-2.42347E-05-2.85313E-05 1.87520E-06-1.77239E-18-8.18872E-19
 -1      4266 8.57682E-05-2.24792E-05-2.71218E-05 6.44772E-06-5.47829E-19 1.02880E-19
 -1      4267 8.85658E-05-2.30174E-05-2.80772E-05 3.43021E-06-4.68445E-19 5.86598E-19
 -1      4268 9.52669E-05-2.85792E-05-2.85804E-05-8.98517E-09-2.21108E-18-4.26605E-20
 -1      4269 9.52688E-05-2.85773E-05-2.85821E-05-5.69571E-09-2.06655E-18 7.50905E-20
 -1      4270 9.52694E-05-2.85777E-05-2.85822E-05 9.36869E-10-1.68077E-18 3.30322E-19
 -1      4271 9.52692E-05-2.85777E-05-2.85822E-05-2.70517E-09-3.14975E-18-5.49381E-19
 -1      4272 9.52699E-05-2.85744E-05-2.85837E-05-4.32093E-09-1.10696E-18-1.03352E-18
 -1      4273 9.52702E-05-2.85749E-05-2.85836E-05 1.23116E-09-1.83306E-18 4.91001E-19
 -1      4274 9.52660E-05-2.85832E-05-2.85784E-05-5.15214E-09-2.46348E-18-4.40578E-19
 -1      4275 9.52594E-05-2.85839E-05-2.85752E-05-1.55666E-08-2.43365E-18 5.41415E-19
 -1      4276 9.52622E-05-2.85834E-05-2.85767E-05-1.25763E-08-2.14858E-18 6.61498E-19
 -1      4277 7.64798E-05-1.86133E-05-2.48649E-05 5.92904E-06-6.64552E-19 8.24883E-19
 -1      4278 7.88386E-05-1.91153E-05-2.55959E-05 4.90415E-06-8.51869E-19 8.07433E-19
 -1      4279 8.66895E-05-2.20448E-05-2.77257E-05 3.37424E-06-9.22691E-20 4.76657E-19
 -1      4280 8.59818E-05-2.18237E-05-2.74856E-05 4.04429E-06 7.20268E-20 1.89950E-20
 -1      4281 9.37928E-05-2.67118E-05-2.87509E-05 2.97010E-07-8.60068E-19 4.72664E-19
 -1      4282 9.35626E-05-2.64732E-05-2.87516E-05 3.68381E-07-7.28009E-19 9.31752E-19
 -1      4283 8.38572E-05-2.04194E-05-2.72052E-05 1.99580E-06 2.78589E-19 4.33323E-19
 -1      4284 8.52009E-05-2.09621E-05-2.75372E-05 1.57940E-06-2.11398E-19 3.33391E-19
 -1      4285 8.62589E-05-2.14458E-05-2.77797E-05 1.27974E-06-1.06916E-18 2.93237E-19
 -1      4286 8.76349E-05-2.21439E-05-2.80857E-05 8.41187E-07-1.00933E-18 6.07052E-19
 -1      4287 8.84881E-05-2.26433E-05-2.82360E-05 7.05746E-07 1.37649E-19 1.27514E-18
 -1      4288 8.94535E-05-2.32847E-05-2.83723E-05 1.04578E-06-1.11689E-18 5.46760E-19
 -1      4289 9.01342E-05-2.37272E-05-2.84719E-05 9.16515E-07-1.05761E-18-9.58579E-19
 -1      4290 9.06666E-05-2.41036E-05-2.85475E-05 6.74648E-07-7.63315E-19-9.58858E-19
 -1      4291 9.12454E-05-2.45166E-05-2.86111E-05 6.08172E-07-7.89868E-19-2.02429E-18
 -1      4292 9.16986E-05-2.48719E-05-2.86569E-05 4.28072E-07-4.89938E-19-1.83030E-18
 -1      4293 9.21692E-05-2.52428E-05-2.86933E-05 3.99360E-07-9.01006E-19-1.82592E-18
 -1      4294 9.25459E-05-2.55646E-05-2.87180E-05 2.69843E-07-4.68317E-19-1.17175E-18
 -1      4295 9.29284E-05-2.58848E-05-2.87363E-05 2.52295E-07-6.60233E-19-4.91442E-19
 -1      4296 9.33386E-05-2.62675E-05-2.87488E-05-1.13794E-07-1.22646E-18-5.52940E-19
 -1      4297 9.36381E-05-2.65428E-05-2.87534E-05-9.33420E-08-2.21826E-19-1.37601E-18
 -1      4298 9.38629E-05-2.67817E-05-2.87507E-05-7.56365E-08 2.00218E-19-1.62921E-18
 -1      4299 9.41748E-05-2.71063E-05-2.87446E-05-7.16005E-08-1.31500E-19-2.36214E-18
 -1      4300 9.43389E-05-2.72954E-05-2.87363E-05-4.85614E-08-2.68499E-19-2.37757E-18
 -1      4301 9.45001E-05-2.74734E-05-2.87274E-05 3.49342E-08-6.37328E-19-1.56588E-18
 -1      4302 9.46276E-05-2.76250E-05-2.87176E-05 4.45118E-08-6.97354E-19-1.38295E-18
 -1      4303 9.47346E-05-2.77572E-05-2.87075E-05 1.76273E-08-6.46046E-19-1.49644E-18
 -1      4304 9.48310E-05-2.78760E-05-2.86972E-05 2.91922E-08-1.17636E-18-8.87138E-19
 -1      4305 9.49102E-05-2.79794E-05-2.86869E-05 8.48186E-09-1.77360E-18-2.17032E-19
 -1      4306 9.49803E-05-2.80716E-05-2.86768E-05 1.86611E-08-1.57338E-18-7.57431E-19
 -1      4307 9.50373E-05-2.81512E-05-2.86672E-05 3.33315E-09-1.39119E-18-4.90673E-19
 -1      4308 9.50869E-05-2.82214E-05-2.86578E-05 1.16532E-08-8.19294E-19-7.61759E-19
 -1      4309 9.51267E-05-2.82816E-05-2.86491E-05 5.38942E-10-2.81736E-19-1.50052E-18
 -1      4310 9.51607E-05-2.83340E-05-2.86408E-05 7.02874E-09 8.62340E-19-1.05001E-18
 -1      4311 9.51875E-05-2.83785E-05-2.86332E-05-8.93883E-10 1.55348E-18-2.51899E-18
 -1      4312 9.52098E-05-2.84169E-05-2.86261E-05 3.98981E-09 9.21744E-19-1.86317E-18
 -1      4313 9.52270E-05-2.84491E-05-2.86196E-05-1.55011E-09 6.00595E-19-1.93792E-18
 -1      4314 9.52409E-05-2.84765E-05-2.86136E-05 2.00646E-09 6.60938E-19-1.41056E-18
 -1      4315 9.52511E-05-2.84992E-05-2.86082E-05-1.77441E-09 1.02833E-18-1.23799E-18
 -1      4316 9.52589E-05-2.85183E-05-2.86033E-05 7.29817E-10 1.10643E-18-1.40114E-18
 -1      4317 9.52642E-05-2.85338E-05-2.85989E-05-1.76871E-09 8.29557E-19-1.80740E-18
 -1      4318 9.52679E-05-2.85466E-05-2.85949E-05-6.94336E-11 7.20660E-20-1.78247E-18
 -1      4319 9.52699E-05-2.85569E-05-2.85914E-05-1.66057E-09-2.79795E-19-2.14014E-18
 -1      4320 9.52707E-05-2.85650E-05-2.85881E-05-6.35781E-10-8.58152E-19-1.58892E-18
 -1      4321 9.52707E-05-2.85719E-05-2.85853E-05 1.18616E-09-1.92111E-18 1.76903E-19
 -1      4322 8.93531E-05-2.32511E-05-2.83144E-05 1.89755E-06-1.29266E-18 1.43675E-19
 -1      4323 8.87543E-05-2.29686E-05-2.81993E-05 2.25907E-06-7.75457E-19 4.46220E-19
 -1      4324 8.06415E-05-1.94501E-05-2.62682E-05 3.49766E-06-8.41595E-19 6.01859E-19
 -1      4325 8.24266E-05-1.99535E-05-2.67646E-05 2.85956E-06-4.07051E-19 4.11469E-19
 -1      4326 8.42492E-05-2.08865E-05-2.71427E-05 3.62778E-06-1.29192E-19 1.67161E-19
 -1      4327 8.11574E-05-2.02585E-05-2.60822E-05 6.07309E-06-8.18637E-19 2.50646E-19
 -1      4328 8.22450E-05-2.13047E-05-2.61322E-05 7.56607E-06-8.61778E-19 3.11667E-19
 -1      4329 8.13886E-05-2.16117E-05-2.56430E-05 9.05704E-06-1.03570E-18-2.64910E-19
 -1      4330 8.46114E-05-2.14953E-05-2.70758E-05 5.05309E-06-3.20789E-19 2.97144E-20
 -1      4331 8.39268E-05-2.14652E-05-2.67451E-05 6.02024E-06-5.08652E-19 2.73160E-19
 -1      4332 9.52647E-05-2.85821E-05-2.85782E-05-1.01000E-08-2.30421E-18 7.46141E-21
 -1      4333 9.42922E-05-2.72320E-05-2.87396E-05 2.02175E-07-9.51101E-19-5.16413E-19
 -1      4334 9.41099E-05-2.70399E-05-2.87458E-05 2.53264E-07-4.27288E-19-2.06508E-19
 -1      4335 9.44317E-05-2.73891E-05-2.87307E-05 1.63627E-07-1.02760E-18-3.96800E-19
 -1      4336 9.52703E-05-2.85684E-05-2.85865E-05-3.62754E-09-5.01532E-19-2.53048E-18
 -1      4337 8.80527E-05-2.26305E-05-2.80385E-05 2.71785E-06-1.56705E-19 7.37089E-19
 -1      4338 8.04771E-05-2.18843E-05-2.51101E-05 1.05421E-05-8.95981E-19-5.18849E-19
 -1      4339 7.81811E-05-2.19069E-05-2.42056E-05 1.25904E-05-6.66181E-19-1.45180E-19
 -1      4340 8.70379E-05-2.19508E-05-2.78775E-05 2.07295E-06-5.32151E-19 4.09261E-19
 -1      4341 9.39616E-05-2.68824E-05-2.87460E-05 9.05592E-08-1.99588E-19-1.32883E-18
 -1      4342 9.32640E-05-2.61908E-05-2.87430E-05 4.63897E-07-5.53163E-19 4.93703E-19
 -1      4343 7.72047E-05-1.98084E-05-2.45187E-05 9.31220E-06-1.02053E-18 2.94561E-19
 -1      4344 9.52640E-05-2.85835E-05-2.85773E-05-9.67211E-09-1.92525E-18-1.30776E-19
 -3
    1PSTEP                         4           1           1          
  100CL  101 1.000000000        4344                     0    1           1
 -4  ERROR       1    1
 -5  STR(%)      1    1    0    0
 -1         1 1.24173E+01
 -1         2 2.54424E+01
 -1         3 2.49453E-04
 -1         4 2.94731E-04
 -1         5 1.30001E+01
 -1         6 1.17532E+01
 -1         7 1.17532E+01
 -1         8 3.78898E+00
 -1         9 2.47617E+00
 -1        10 1.95834E+00
 -1        11 1.61089E+00
 -1        12 1.24860E+00
 -1        13 8.67522E-01
 -1        14 4.85913E-01
 -1        15 8.11159E-01
 -1        16 1.05677E+00
 -1        17 1.22933E+00
 -1        18 1.45630E+00
 -1        19 1.74089E+00
 -1        20 2.25544E+00
 -1        21 3.59034E+00
 -1        22 8.10904E+00
 -1        23 1.17532E+01
 -1        24 3.21999E+00
 -1        25 1.91875E+00
 -1        26 1.01495E+00
 -1        27 1.40071E+00
 -1        28 1.74585E+00
 -1        29 1.74585E+00
 -1        30 1.73164E+00
 -1        31 2.33530E+00
 -1        32 4.18988E+00
 -1        33 5.95436E+00
 -1        34 6.00999E+00
 -1        35 6.00999E+00
 -1        36 5.47392E+00
 -1        37 3.09333E+00
 -1        38 2.09659E+00
 -1        39 2.06619E+00
 -1        40 2.05702E+00
 -1        41 2.05702E+00
 -1        42 1.81242E+00
 -1        43 1.45445E+00
 -1        44 1.15472E+00
 -1        45 8.87688E-01
 -1        46 7.01947E-01
 -1        47 5.74171E-01
 -1        48 4.55163E-01
 -1        49 3.51794E-01
 -1        50 2.65976E-01
 -1        51 1.96974E-01
 -1        52 1.42838E-01
 -1        53 1.10058E-01
 -1        54 9.00196E-02
 -1        55 7.22708E-02
 -1        56 5.70271E-02
 -1        57 4.42493E-02
 -1        58 3.37543E-02
 -1        59 2.52868E-02
 -1        60 1.99897E-02
 -1        61 1.63885E-02
 -1        62 1.31674E-02
 -1        63 1.03684E-02
 -1        64 7.98490E-03
 -1        65 6.09419E-03
 -1        66 4.55365E-03
 -1        67 3.30077E-03
 -1        68 2.87157E-03
 -1        69 2.37268E-03
 -1        70 1.73306E-03
 -1        71 1.34310E-03
 -1        72 1.30001E+01
 -1        73 2.80382E+00
 -1        74 1.57173E+00
 -1        75 8.18544E-01
 -1        76 3.10109E-01
 -1        77 5.11612E-01
 -1        78 7.63785E-01
 -1        79 1.11949E+00
 -1        80 1.32494E+00
 -1        81 2.05291E+00
 -1        82 2.58521E+00
 -1        83 2.84166E+00
 -1        84 3.04453E+00
 -1        85 3.04453E+00
 -1        86 2.56803E+00
 -1        87 1.72154E+00
 -1        88 1.10865E+00
 -1        89 7.23373E-01
 -1        90 7.48928E-01
 -1        91 8.26283E-01
 -1        92 8.26283E-01
 -1        93 7.90386E-01
 -1        94 6.92655E-01
 -1        95 5.81476E-01
 -1        96 4.77033E-01
 -1        97 3.73737E-01
 -1        98 2.80612E-01
 -1        99 2.20073E-01
 -1       100 1.71847E-01
 -1       101 1.30131E-01
 -1       102 9.55847E-02
 -1       103 6.79700E-02
 -1       104 4.65640E-02
 -1       105 3.86571E-02
 -1       106 3.20186E-02
 -1       107 2.59020E-02
 -1       108 2.05085E-02
 -1       109 1.68276E-02
 -1       110 1.47978E-02
 -1       111 1.26247E-02
 -1       112 1.05003E-02
 -1       113 8.53089E-03
 -1       114 6.78740E-03
 -1       115 5.38721E-03
 -1       116 4.11494E-03
 -1       117 2.95685E-03
 -1       118 2.34519E-03
 -1       119 1.71105E-03
 -1       120 9.64836E-04
 -1       121 4.49972E-04
 -1       122 4.49972E-04
 -1       123 3.23777E-04
 -1       124 1.31455E-04
 -1       125 2.09437E-04
 -1       126 3.04565E-04
 -1       127 3.58540E-04
 -1       128 3.73686E-04
 -1       129 3.73686E-04
 -1       130 3.58780E-04
 -1       131 3.02276E-04
 -1       132 2.09952E-04
 -1       133 1.33697E-04
 -1       134 3.27808E-04
 -1       135 5.98456E-04
 -1       136 7.12749E-04
 -1       137 2.54424E+01
 -1       138 4.66179E+01
 -1       139 4.66179E+01
 -1       140 1.96182E+01
 -1       141 1.30137E+01
 -1       142 1.30137E+01
 -1       143 1.23939E+01
 -1       144 1.31909E+01
 -1       145 1.31909E+01
 -1       146 1.25069E+01
 -1       147 3.21072E+01
 -1       148 3.31306E+01
 -1       149 2.67648E+01
 -1       150 2.65283E+01
 -1       151 2.51271E+01
 -1       152 2.51271E+01
 -1       153 4.35152E+01
 -1       154 4.35152E+01
 -1       155 1.68292E+01
 -1       156 1.32447E+01
 -1       157 1.32447E+01
 -1       158 1.27482E+01
 -1       159 1.27482E+01
 -1       160 1.29744E+01
 -1       161 3.05096E+01
 -1       162 3.05096E+01
 -1       163 2.71422E+01
 -1       164 2.45104E+01
 -1       165 5.91915E+00
 -1       166 2.81207E+00
 -1       167 2.06165E+00
 -1       168 1.67359E+00
 -1       169 1.38670E+00
 -1       170 1.05021E+00
 -1       171 5.94594E-01
 -1       172 6.55144E-01
 -1       173 9.37228E-01
 -1       174 1.08875E+00
 -1       175 1.31048E+00
 -1       176 1.59646E+00
 -1       177 1.98027E+00
 -1       178 2.65333E+00
 -1       179 3.90407E+00
 -1       180 1.30001E+01
 -1       181 3.21999E+00
 -1       182 1.91875E+00
 -1       183 1.01495E+00
 -1       184 1.07761E+00
 -1       185 1.40071E+00
 -1       186 1.74585E+00
 -1       187 1.73164E+00
 -1       188 1.70772E+00
 -1       189 2.38048E+00
 -1       190 4.18988E+00
 -1       191 5.95436E+00
 -1       192 6.00999E+00
 -1       193 5.47392E+00
 -1       194 3.27467E+00
 -1       195 2.09659E+00
 -1       196 2.06619E+00
 -1       197 1.97984E+00
 -1       198 2.05702E+00
 -1       199 1.81242E+00
 -1       200 1.49300E+00
 -1       201 1.28322E+00
 -1       202 1.08548E+00
 -1       203 8.70495E-01
 -1       204 6.69791E-01
 -1       205 4.97856E-01
 -1       206 3.58587E-01
 -1       207 2.72412E-01
 -1       208 2.07955E-01
 -1       209 1.55771E-01
 -1       210 1.14477E-01
 -1       211 9.00196E-02
 -1       212 7.22708E-02
 -1       213 5.70271E-02
 -1       214 4.42493E-02
 -1       215 3.37543E-02
 -1       216 2.60134E-02
 -1       217 2.01122E-02
 -1       218 1.63885E-02
 -1       219 1.31674E-02
 -1       220 1.03684E-02
 -1       221 8.25990E-03
 -1       222 6.43198E-03
 -1       223 5.05117E-03
 -1       224 3.85343E-03
 -1       225 2.87157E-03
 -1       226 2.37268E-03
 -1       227 1.73306E-03
 -1       228 1.34310E-03
 -1       229 2.80382E+00
 -1       230 1.57173E+00
 -1       231 8.18544E-01
 -1       232 3.10109E-01
 -1       233 2.85182E-01
 -1       234 5.26036E-01
 -1       235 7.63785E-01
 -1       236 1.11949E+00
 -1       237 1.55458E+00
 -1       238 2.05291E+00
 -1       239 2.58521E+00
 -1       240 2.84166E+00
 -1       241 3.04453E+00
 -1       242 2.56803E+00
 -1       243 1.72154E+00
 -1       244 1.10865E+00
 -1       245 7.23373E-01
 -1       246 7.16172E-01
 -1       247 7.48928E-01
 -1       248 8.26283E-01
 -1       249 7.90386E-01
 -1       250 6.92655E-01
 -1       251 5.81476E-01
 -1       252 4.82843E-01
 -1       253 3.90521E-01
 -1       254 3.02916E-01
 -1       255 2.25841E-01
 -1       256 1.71847E-01
 -1       257 1.30131E-01
 -1       258 9.57327E-02
 -1       259 7.00603E-02
 -1       260 4.97089E-02
 -1       261 3.86571E-02
 -1       262 3.20186E-02
 -1       263 2.59020E-02
 -1       264 2.05085E-02
 -1       265 1.68276E-02
 -1       266 1.47978E-02
 -1       267 1.26247E-02
 -1       268 1.05003E-02
 -1       269 8.53089E-03
 -1       270 6.78740E-03
 -1       271 5.38721E-03
 -1       272 4.11494E-03
 -1       273 3.03074E-03
 -1       274 2.34519E-03
 -1       275 1.71105E-03
 -1       276 1.00063E-03
 -1       277 5.37940E-04
 -1       278 5.37940E-04
 -1       279 4.63654E-04
 -1       280 3.38170E-04
 -1       281 5.30117E-04
 -1       282 6.44970E-04
 -1       283 6.90283E-04
 -1       284 6.90447E-04
 -1       285 6.90447E-04
 -1       286 6.43479E-04
 -1       287 5.33114E-04
 -1       288 3.43830E-04
 -1       289 4.61971E-04
 -1       290 4.61971E-04
 -1       291 7.12749E-04
 -1       292 3.00007E+01
 -1       293 2.59736E+01
 -1       294 4.66179E+01
 -1       295 2.08406E+01
 -1       296 1.09877E+01
 -1       297 1.30137E+01
 -1       298 1.21078E+01
 -1       299 1.23939E+01
 -1       300 1.31909E+01
 -1       301 1.21359E+01
 -1       302 1.25069E+01
 -1       303 3.31306E+01
 -1       304 3.31306E+01
 -1       305 3.28841E+01
 -1       306 3.03344E+01
 -1       307 3.03344E+01
 -1       308 3.73413E+01
 -1       309 4.35152E+01
 -1       310 1.69355E+01
 -1       311 1.15464E+01
 -1       312 1.32447E+01
 -1       313 1.24173E+01
 -1       314 1.21269E+01
 -1       315 1.27482E+01
 -1       316 1.12254E+01
 -1       317 1.29744E+01
 -1       318 3.05096E+01
 -1       319 2.99090E+01
 -1       320 2.45104E+01
 -1       321 3.00007E+01
 -1       322 2.15220E+00
 -1       323 2.78668E+00
 -1       324 1.54367E+00
 -1       325 1.28861E+00
 -1       326 8.47971E-01
 -1       327 5.32039E-01
 -1       328 8.89508E-01
 -1       329 1.05347E+00
 -1       330 1.13428E+00
 -1       331 1.23268E+00
 -1       332 1.36762E+00
 -1       333 1.61786E+00
 -1       334 1.70474E+00
 -1       335 1.75880E+00
 -1       336 1.33817E+00
 -1       337 1.53264E+00
 -1       338 1.30848E+00
 -1       339 1.40825E+00
 -1       340 1.51098E+00
 -1       341 1.51850E+00
 -1       342 1.67489E+00
 -1       343 1.78233E+00
 -1       344 2.47389E+00
 -1       345 3.24070E+00
 -1       346 4.07861E+00
 -1       347 3.90644E+00
 -1       348 2.89147E+00
 -1       349 2.10403E+00
 -1       350 1.86335E+00
 -1       351 1.57010E+00
 -1       352 1.67502E+00
 -1       353 1.60406E+00
 -1       354 1.47423E+00
 -1       355 1.33472E+00
 -1       356 1.18063E+00
 -1       357 9.87021E-01
 -1       358 7.91170E-01
 -1       359 6.13584E-01
 -1       360 4.62903E-01
 -1       361 3.40634E-01
 -1       362 2.44597E-01
 -1       363 1.71082E-01
 -1       364 1.16041E-01
 -1       365 8.24212E-02
 -1       366 5.93521E-02
 -1       367 4.38224E-02
 -1       368 3.63291E-02
 -1       369 2.95050E-02
 -1       370 2.35098E-02
 -1       371 1.83859E-02
 -1       372 1.41722E-02
 -1       373 1.17108E-02
 -1       374 9.79905E-03
 -1       375 7.98566E-03
 -1       376 6.37705E-03
 -1       377 5.06479E-03
 -1       378 3.89120E-03
 -1       379 2.97896E-03
 -1       380 2.20220E-03
 -1       381 1.62867E-03
 -1       382 1.17904E-03
 -1       383 5.53170E-01
 -1       384 2.19374E-01
 -1       385 2.94224E-01
 -1       386 5.77783E-01
 -1       387 9.18311E-01
 -1       388 1.30868E+00
 -1       389 1.62750E+00
 -1       390 1.70028E+00
 -1       391 1.70028E+00
 -1       392 1.69087E+00
 -1       393 1.88500E+00
 -1       394 1.76173E+00
 -1       395 1.31876E+00
 -1       396 8.77169E-01
 -1       397 5.61416E-01
 -1       398 4.08192E-01
 -1       399 5.32264E-01
 -1       400 5.77199E-01
 -1       401 6.01166E-01
 -1       402 5.63608E-01
 -1       403 5.03629E-01
 -1       404 4.39748E-01
 -1       405 3.65152E-01
 -1       406 2.90687E-01
 -1       407 2.22784E-01
 -1       408 1.64965E-01
 -1       409 1.27126E-01
 -1       410 9.57327E-02
 -1       411 7.00603E-02
 -1       412 4.97089E-02
 -1       413 3.40174E-02
 -1       414 2.48104E-02
 -1       415 2.13855E-02
 -1       416 1.79237E-02
 -1       417 1.46538E-02
 -1       418 1.17020E-02
 -1       419 9.34553E-03
 -1       420 8.05800E-03
 -1       421 6.71860E-03
 -1       422 5.46671E-03
 -1       423 4.53406E-03
 -1       424 3.62869E-03
 -1       425 2.78088E-03
 -1       426 2.00860E-03
 -1       427 1.54291E-03
 -1       428 1.00063E-03
 -1       429 5.58892E-04
 -1       430 1.05182E-03
 -1       431 1.05182E-03
 -1       432 7.10095E-04
 -1       433 8.68558E-04
 -1       434 9.39396E-04
 -1       435 9.39396E-04
 -1       436 9.38239E-04
 -1       437 9.38239E-04
 -1       438 8.72293E-04
 -1       439 7.18786E-04
 -1       440 5.60927E-04
 -1       441 9.34455E-04
 -1       442 2.59736E+01
 -1       443 3.37555E+01
 -1       444 3.37555E+01
 -1       445 1.61146E+01
 -1       446 9.20691E+00
 -1       447 2.59124E+00
 -1       448 1.02102E+01
 -1       449 1.11473E+01
 -1       450 1.06269E+01
 -1       451 8.20176E+00
 -1       452 6.61894E+00
 -1       453 1.14068E+01
 -1       454 2.08330E+01
 -1       455 3.28841E+01
 -1       456 3.91354E+01
 -1       457 3.91354E+01
 -1       458 2.85512E+01
 -1       459 2.56535E+01
 -1       460 1.47109E+01
 -1       461 7.83928E+00
 -1       462 8.33699E+00
 -1       463 1.11049E+01
 -1       464 1.12224E+01
 -1       465 1.04694E+01
 -1       466 8.16685E+00
 -1       467 6.97043E+00
 -1       468 1.19614E+01
 -1       469 2.11139E+01
 -1       470 2.16679E+01
 -1       471 3.32713E+01
 -1       472 6.96568E+00
 -1       473 7.26047E+00
 -1       474 1.15972E+01
 -1       475 1.20050E+00
 -1       476 1.20896E+00
 -1       477 1.57240E+00
 -1       478 9.17208E-01
 -1       479 1.12741E+00
 -1       480 1.16728E+00
 -1       481 1.16728E+00
 -1       482 1.11580E+00
 -1       483 1.40148E+00
 -1       484 5.73890E-01
 -1       485 1.58093E+00
 -1       486 5.00525E+00
 -1       487 1.72613E+00
 -1       488 1.84110E+00
 -1       489 2.15680E+00
 -1       490 2.50058E+00
 -1       491 2.97183E+00
 -1       492 3.38815E+00
 -1       493 3.02576E+00
 -1       494 4.48683E+00
 -1       495 5.79379E+00
 -1       496 5.26809E+00
 -1       497 2.97239E+00
 -1       498 2.82538E+00
 -1       499 2.73633E+00
 -1       500 2.47759E+00
 -1       501 2.04148E+00
 -1       502 1.66359E+00
 -1       503 1.48299E+00
 -1       504 1.28344E+00
 -1       505 1.06790E+00
 -1       506 8.61988E-01
 -1       507 6.78849E-01
 -1       508 5.23476E-01
 -1       509 3.96006E-01
 -1       510 2.94064E-01
 -1       511 2.14218E-01
 -1       512 1.52807E-01
 -1       513 1.06374E-01
 -1       514 7.18588E-02
 -1       515 4.66596E-02
 -1       516 3.01763E-02
 -1       517 2.06672E-02
 -1       518 1.82306E-02
 -1       519 1.56162E-02
 -1       520 1.30186E-02
 -1       521 1.05892E-02
 -1       522 8.40692E-03
 -1       523 7.12513E-03
 -1       524 5.99188E-03
 -1       525 4.86539E-03
 -1       526 3.85551E-03
 -1       527 2.99246E-03
 -1       528 2.21981E-03
 -1       529 1.61759E-03
 -1       530 5.63648E-01
 -1       531 7.84982E-01
 -1       532 1.12348E+00
 -1       533 1.43180E+00
 -1       534 1.62750E+00
 -1       535 1.70028E+00
 -1       536 1.56635E+00
 -1       537 1.69087E+00
 -1       538 1.57981E+00
 -1       539 1.34876E+00
 -1       540 9.84255E-01
 -1       541 6.84225E-01
 -1       542 6.03303E-01
 -1       543 5.13843E-01
 -1       544 5.65810E-01
 -1       545 5.66597E-01
 -1       546 5.34050E-01
 -1       547 4.92805E-01
 -1       548 4.37743E-01
 -1       549 3.74943E-01
 -1       550 3.07897E-01
 -1       551 2.43809E-01
 -1       552 1.86722E-01
 -1       553 1.38403E-01
 -1       554 9.91214E-02
 -1       555 6.82640E-02
 -1       556 4.63584E-02
 -1       557 3.27849E-02
 -1       558 2.48104E-02
 -1       559 2.13855E-02
 -1       560 1.79237E-02
 -1       561 1.46538E-02
 -1       562 1.17020E-02
 -1       563 9.34553E-03
 -1       564 8.05800E-03
 -1       565 6.71860E-03
 -1       566 5.42009E-03
 -1       567 4.31193E-03
 -1       568 3.33709E-03
 -1       569 2.47819E-03
 -1       570 1.98592E-03
 -1       571 1.43121E-03
 -1       572 1.08396E-03
 -1       573 1.18097E-03
 -1       574 1.12455E-03
 -1       575 1.20161E-03
 -1       576 1.18097E-03
 -1       577 1.17181E-03
 -1       578 1.18371E-03
 -1       579 1.18371E-03
 -1       580 1.09058E-03
 -1       581 1.18750E-03
 -1       582 9.65594E-04
 -1       583 3.37555E+01
 -1       584 1.18810E+01
 -1       585 4.47077E-01
 -1       586 3.32713E+01
 -1       587 1.94892E+01
 -1       588 1.51554E+01
 -1       589 8.47122E+00
 -1       590 4.95388E+00
 -1       591 1.27445E+01
 -1       592 4.19552E+00
 -1       593 8.77472E-01
 -1       594 5.97025E+00
 -1       595 7.06532E+00
 -1       596 1.79051E+01
 -1       597 8.06615E+00
 -1       598 5.07672E+00
 -1       599 1.51741E+01
 -1       600 2.48467E+01
 -1       601 3.91354E+01
 -1       602 5.81272E+00
 -1       603 2.85512E+01
 -1       604 7.56445E+00
 -1       605 6.42866E+00
 -1       606 8.16244E+00
 -1       607 3.71290E+00
 -1       608 6.46212E+00
 -1       609 9.82046E+00
 -1       610 2.16679E+01
 -1       611 2.69590E+00
 -1       612 1.40148E+00
 -1       613 8.01437E+00
 -1       614 2.69590E+00
 -1       615 1.56640E+01
 -1       616 6.20053E+00
 -1       617 3.78174E+00
 -1       618 1.01804E-03
 -1       619 1.35398E+00
 -1       620 1.35398E+00
 -1       621 1.21129E+00
 -1       622 1.03821E+00
 -1       623 1.14274E+00
 -1       624 1.36450E+01
 -1       625 2.69590E+00
 -1       626 2.57001E+00
 -1       627 2.43389E+00
 -1       628 3.19284E+00
 -1       629 4.42482E+00
 -1       630 5.11510E+00
 -1       631 6.81581E+00
 -1       632 3.93790E+00
 -1       633 2.81916E+00
 -1       634 2.27486E+00
 -1       635 1.84204E+00
 -1       636 1.45374E+00
 -1       637 1.14722E+00
 -1       638 8.95926E-01
 -1       639 6.91481E-01
 -1       640 5.33936E-01
 -1       641 4.08531E-01
 -1       642 3.09062E-01
 -1       643 2.30715E-01
 -1       644 1.69595E-01
 -1       645 1.22459E-01
 -1       646 8.65750E-02
 -1       647 5.96466E-02
 -1       648 3.97572E-02
 -1       649 2.53283E-02
 -1       650 1.50785E-02
 -1       651 1.01415E-02
 -1       652 9.77207E-03
 -1       653 8.89299E-03
 -1       654 7.75805E-03
 -1       655 6.53455E-03
 -1       656 5.33779E-03
 -1       657 4.55787E-03
 -1       658 3.73709E-03
 -1       659 2.93752E-03
 -1       660 2.19772E-03
 -1       661 1.61759E-03
 -1       662 1.07484E+00
 -1       663 1.94953E-03
 -1       664 1.00066E+00
 -1       665 1.47960E+00
 -1       666 1.97006E+00
 -1       667 2.11607E+00
 -1       668 2.10124E+00
 -1       669 1.85148E+00
 -1       670 1.43032E+00
 -1       671 1.38540E+00
 -1       672 1.08954E+00
 -1       673 1.01426E+00
 -1       674 8.06202E-01
 -1       675 7.34569E-01
 -1       676 6.84566E-01
 -1       677 6.05083E-01
 -1       678 5.28978E-01
 -1       679 4.72145E-01
 -1       680 4.05778E-01
 -1       681 3.36550E-01
 -1       682 2.70740E-01
 -1       683 2.11871E-01
 -1       684 1.61499E-01
 -1       685 1.19891E-01
 -1       686 8.65311E-02
 -1       687 6.04887E-02
 -1       688 4.06679E-02
 -1       689 2.59603E-02
 -1       690 1.65213E-02
 -1       691 1.24965E-02
 -1       692 1.14952E-02
 -1       693 1.01307E-02
 -1       694 8.62294E-03
 -1       695 7.11521E-03
 -1       696 5.81878E-03
 -1       697 4.97108E-03
 -1       698 4.08675E-03
 -1       699 3.22135E-03
 -1       700 2.52136E-03
 -1       701 2.26742E-03
 -1       702 6.98462E+00
 -1       703 1.41533E-03
 -1       704 1.93107E-03
 -1       705 1.41987E-03
 -1       706 1.41212E-03
 -1       707 1.41987E-03
 -1       708 1.42209E-03
 -1       709 1.42209E-03
 -1       710 1.93107E-03
 -1       711 1.05541E+01
 -1       712 1.15245E+01
 -1       713 2.29307E+00
 -1       714 6.51535E-01
 -1       715 1.43357E+00
 -1       716 5.73890E-01
 -1       717 9.13466E+00
 -1       718 5.29892E+00
 -1       719 7.66964E+00
 -1       720 4.80979E+00
 -1       721 1.33423E+00
 -1       722 1.27774E+01
 -1       723 1.00267E+01
 -1       724 1.81505E+00
 -1       725 1.56283E+01
 -1       726 3.29124E+00
 -1       727 1.61694E+01
 -1       728 5.67266E+00
 -1       729 5.29013E+00
 -1       730 3.05813E+00
 -1       731 2.53448E+00
 -1       732 1.16106E+00
 -1       733 7.97225E+00
 -1       734 1.94953E-03
 -1       735 1.46063E+01
 -1       736 3.70196E+00
 -1       737 4.77300E+00
 -1       738 1.07841E+01
 -1       739 1.11459E+01
 -1       740 1.14311E+01
 -1       741 1.80004E+00
 -1       742 2.83167E+00
 -1       743 7.13298E+00
 -1       744 1.16897E+00
 -1       745 2.90874E+00
 -1       746 4.15556E+00
 -1       747 5.58988E+00
 -1       748 2.57001E+00
 -1       749 5.40745E+00
 -1       750 3.75248E+00
 -1       751 2.44730E+00
 -1       752 1.78278E+00
 -1       753 1.37057E+00
 -1       754 1.08357E+00
 -1       755 8.43548E-01
 -1       756 6.46739E-01
 -1       757 4.89061E-01
 -1       758 3.64736E-01
 -1       759 2.68041E-01
 -1       760 1.93742E-01
 -1       761 1.37343E-01
 -1       762 9.62876E-02
 -1       763 6.65817E-02
 -1       764 4.47691E-02
 -1       765 2.94047E-02
 -1       766 1.91239E-02
 -1       767 1.17351E-02
 -1       768 6.55901E-03
 -1       769 5.71309E-03
 -1       770 5.89551E-03
 -1       771 5.59192E-03
 -1       772 5.00967E-03
 -1       773 4.29056E-03
 -1       774 3.65038E-03
 -1       775 3.09593E-03
 -1       776 2.50159E-03
 -1       777 2.06665E-03
 -1       778 1.69214E+00
 -1       779 2.61941E+00
 -1       780 2.82786E+00
 -1       781 3.41849E+00
 -1       782 2.38570E+00
 -1       783 1.92321E+00
 -1       784 1.79806E+00
 -1       785 1.57606E+00
 -1       786 1.17330E+00
 -1       787 1.05424E+00
 -1       788 8.97252E-01
 -1       789 7.35810E-01
 -1       790 6.20822E-01
 -1       791 5.31620E-01
 -1       792 4.44707E-01
 -1       793 3.60745E-01
 -1       794 2.85312E-01
 -1       795 2.22794E-01
 -1       796 1.70758E-01
 -1       797 1.28388E-01
 -1       798 9.45693E-02
 -1       799 6.80773E-02
 -1       800 4.77109E-02
 -1       801 3.23438E-02
 -1       802 2.09833E-02
 -1       803 1.27724E-02
 -1       804 7.57074E-03
 -1       805 6.87622E-03
 -1       806 6.76615E-03
 -1       807 6.23428E-03
 -1       808 5.47224E-03
 -1       809 4.61164E-03
 -1       810 3.93405E-03
 -1       811 3.30401E-03
 -1       812 2.65865E-03
 -1       813 1.63907E-03
 -1       814 2.03817E-03
 -1       815 1.54832E-03
 -1       816 3.29124E+00
 -1       817 2.82786E+00
 -1       818 5.55307E+00
 -1       819 3.41849E+00
 -1       820 1.08313E+00
 -1       821 1.80070E-03
 -1       822 2.11607E+00
 -1       823 8.43705E-01
 -1       824 9.88443E+00
 -1       825 9.35390E+00
 -1       826 9.63284E+00
 -1       827 5.41269E+00
 -1       828 8.00647E+00
 -1       829 5.04197E+00
 -1       830 1.77687E+00
 -1       831 3.41849E+00
 -1       832 1.81282E+00
 -1       833 6.19662E+00
 -1       834 2.72164E+00
 -1       835 1.87834E-03
 -1       836 9.07153E+00
 -1       837 1.98237E-03
 -1       838 1.69691E+00
 -1       839 1.07803E+00
 -1       840 2.49585E+00
 -1       841 2.39385E-03
 -1       842 1.67833E-03
 -1       843 1.57279E-03
 -1       844 5.76822E+00
 -1       845 7.70521E+00
 -1       846 7.04205E+00
 -1       847 5.16163E+00
 -1       848 2.29307E+00
 -1       849 1.72201E+00
 -1       850 8.40784E+00
 -1       851 1.46488E+00
 -1       852 2.35481E+00
 -1       853 2.18282E+00
 -1       854 8.40784E+00
 -1       855 9.07153E+00
 -1       856 9.85450E+00
 -1       857 5.52401E+00
 -1       858 2.45454E+00
 -1       859 1.78278E+00
 -1       860 1.33104E+00
 -1       861 1.00157E+00
 -1       862 7.57356E-01
 -1       863 5.73078E-01
 -1       864 4.32047E-01
 -1       865 3.23442E-01
 -1       866 2.39714E-01
 -1       867 1.75282E-01
 -1       868 1.26082E-01
 -1       869 8.88626E-02
 -1       870 6.12939E-02
 -1       871 4.19850E-02
 -1       872 2.77576E-02
 -1       873 1.74696E-02
 -1       874 1.02669E-02
 -1       875 5.36595E-03
 -1       876 3.12838E-03
 -1       877 3.86034E-03
 -1       878 4.02173E-03
 -1       879 3.82458E-03
 -1       880 3.41836E-03
 -1       881 2.91071E-03
 -1       882 2.52596E-03
 -1       883 2.13788E-03
 -1       884 2.34574E+00
 -1       885 2.09325E+00
 -1       886 1.89937E+00
 -1       887 1.56408E+00
 -1       888 1.21169E+00
 -1       889 9.64108E-01
 -1       890 7.86624E-01
 -1       891 6.23711E-01
 -1       892 4.97259E-01
 -1       893 3.95895E-01
 -1       894 3.20356E-01
 -1       895 2.58538E-01
 -1       896 2.02834E-01
 -1       897 1.54862E-01
 -1       898 1.15122E-01
 -1       899 8.31679E-02
 -1       900 5.84730E-02
 -1       901 4.04733E-02
 -1       902 2.68816E-02
 -1       903 1.68808E-02
 -1       904 9.81527E-03
 -1       905 4.97187E-03
 -1       906 3.86132E-03
 -1       907 4.45241E-03
 -1       908 4.49493E-03
 -1       909 4.19538E-03
 -1       910 3.70105E-03
 -1       911 3.16546E-03
 -1       912 2.73731E-03
 -1       913 3.23703E+00
 -1       914 1.94162E+00
 -1       915 2.90188E+00
 -1       916 1.81282E+00
 -1       917 1.81739E-03
 -1       918 2.38388E+00
 -1       919 3.44180E+00
 -1       920 4.22512E+00
 -1       921 5.43101E+00
 -1       922 4.23578E+00
 -1       923 3.64649E+00
 -1       924 1.54914E-03
 -1       925 3.14466E+00
 -1       926 2.16326E-03
 -1       927 1.85465E-03
 -1       928 1.81739E-03
 -1       929 2.34882E+00
 -1       930 2.47938E+00
 -1       931 3.70975E+00
 -1       932 3.63730E+00
 -1       933 2.47938E+00
 -1       934 2.41551E-03
 -1       935 5.47987E+00
 -1       936 5.94925E+00
 -1       937 1.90358E-03
 -1       938 4.87229E+00
 -1       939 8.11686E+00
 -1       940 2.82719E+00
 -1       941 1.84146E+00
 -1       942 5.43101E+00
 -1       943 4.84506E+00
 -1       944 3.57904E+00
 -1       945 5.01126E+00
 -1       946 2.12807E+00
 -1       947 1.49284E+00
 -1       948 1.06954E+00
 -1       949 7.90275E-01
 -1       950 5.94996E-01
 -1       951 4.51417E-01
 -1       952 3.42586E-01
 -1       953 2.58832E-01
 -1       954 1.93556E-01
 -1       955 1.42838E-01
 -1       956 1.03684E-01
 -1       957 7.38416E-02
 -1       958 5.13884E-02
 -1       959 3.50796E-02
 -1       960 2.35862E-02
 -1       961 1.51486E-02
 -1       962 9.11563E-03
 -1       963 5.01603E-03
 -1       964 2.65192E-03
 -1       965 2.56841E-03
 -1       966 2.92605E-03
 -1       967 2.92371E-03
 -1       968 2.69718E-03
 -1       969 2.34831E-03
 -1       970 2.09617E-03
 -1       971 2.40601E+00
 -1       972 1.38282E+00
 -1       973 1.02690E+00
 -1       974 7.56254E-01
 -1       975 5.99940E-01
 -1       976 4.84467E-01
 -1       977 3.95895E-01
 -1       978 3.16235E-01
 -1       979 2.48018E-01
 -1       980 1.90580E-01
 -1       981 1.43482E-01
 -1       982 1.05817E-01
 -1       983 7.62445E-02
 -1       984 5.34212E-02
 -1       985 3.65656E-02
 -1       986 2.45935E-02
 -1       987 1.57630E-02
 -1       988 9.40915E-03
 -1       989 5.00452E-03
 -1       990 2.79237E-03
 -1       991 2.96924E-03
 -1       992 3.28405E-03
 -1       993 3.23153E-03
 -1       994 2.95197E-03
 -1       995 2.54397E-03
 -1       996 2.49585E+00
 -1       997 5.65867E+00
 -1       998 1.68748E-03
 -1       999 2.36814E+00
 -1      1000 1.78339E+00
 -1      1001 2.34882E+00
 -1      1002 1.92935E-03
 -1      1003 3.76864E+00
 -1      1004 1.84311E-03
 -1      1005 4.44734E+00
 -1      1006 2.83153E+00
 -1      1007 3.67027E+00
 -1      1008 2.34882E+00
 -1      1009 2.09805E-03
 -1      1010 3.79993E+00
 -1      1011 2.79295E+00
 -1      1012 3.57904E+00
 -1      1013 2.37368E-03
 -1      1014 2.55205E+00
 -1      1015 1.51520E+00
 -1      1016 1.05937E+00
 -1      1017 7.68862E-01
 -1      1018 5.71374E-01
 -1      1019 4.26076E-01
 -1      1020 3.23321E-01
 -1      1021 2.44890E-01
 -1      1022 1.85153E-01
 -1      1023 1.40088E-01
 -1      1024 1.03419E-01
 -1      1025 7.57341E-02
 -1      1026 5.43410E-02
 -1      1027 3.79789E-02
 -1      1028 2.58249E-02
 -1      1029 1.77504E-02
 -1      1030 1.18545E-02
 -1      1031 7.55935E-03
 -1      1032 4.48501E-03
 -1      1033 2.33384E-03
 -1      1034 1.78485E-03
 -1      1035 2.16433E-03
 -1      1036 2.23051E-03
 -1      1037 2.10403E-03
 -1      1038 9.71897E-01
 -1      1039 4.67953E+00
 -1      1040 1.31802E+00
 -1      1041 5.99940E-01
 -1      1042 4.71055E-01
 -1      1043 3.65690E-01
 -1      1044 2.83152E-01
 -1      1045 2.15499E-01
 -1      1046 1.62101E-01
 -1      1047 1.19463E-01
 -1      1048 8.73969E-02
 -1      1049 6.22460E-02
 -1      1050 4.34694E-02
 -1      1051 2.94297E-02
 -1      1052 1.97979E-02
 -1      1053 1.27432E-02
 -1      1054 8.06939E-03
 -1      1055 4.99246E-03
 -1      1056 2.79237E-03
 -1      1057 2.07363E-03
 -1      1058 2.45403E-03
 -1      1059 2.50108E-03
 -1      1060 2.33353E-03
 -1      1061 3.67027E+00
 -1      1062 2.78634E+00
 -1      1063 3.67981E+00
 -1      1064 2.17335E+00
 -1      1065 7.56254E-01
 -1      1066 1.73266E-03
 -1      1067 3.61873E+00
 -1      1068 1.82066E-03
 -1      1069 2.17694E-03
 -1      1070 1.87181E-03
 -1      1071 2.55205E+00
 -1      1072 1.55846E+00
 -1      1073 1.75221E+00
 -1      1074 2.39004E+00
 -1      1075 1.12892E+00
 -1      1076 9.19692E-01
 -1      1077 7.00531E-01
 -1      1078 5.07912E-01
 -1      1079 3.63864E-01
 -1      1080 2.70497E-01
 -1      1081 2.01802E-01
 -1      1082 1.50993E-01
 -1      1083 1.15265E-01
 -1      1084 1.22242E-01
 -1      1085 6.46578E-02
 -1      1086 4.59833E-02
 -1      1087 3.12964E-02
 -1      1088 2.19084E-02
 -1      1089 1.49523E-02
 -1      1090 9.81777E-03
 -1      1091 6.08919E-03
 -1      1092 3.43821E-03
 -1      1093 1.78595E-03
 -1      1094 1.37886E-03
 -1      1095 1.55961E-03
 -1      1096 1.76874E-03
 -1      1097 9.73443E-01
 -1      1098 1.59743E+00
 -1      1099 5.07912E-01
 -1      1100 5.30231E-01
 -1      1101 2.70497E-01
 -1      1102 1.93497E-01
 -1      1103 1.37948E-01
 -1      1104 1.16736E-01
 -1      1105 6.82555E-02
 -1      1106 6.45233E-02
 -1      1107 3.78480E-02
 -1      1108 2.57861E-02
 -1      1109 1.79576E-02
 -1      1110 1.21164E-02
 -1      1111 7.79974E-03
 -1      1112 4.67693E-03
 -1      1113 2.47282E-03
 -1      1114 1.54590E-03
 -1      1115 1.87288E-03
 -1      1116 1.95318E-03
 -1      1117 3.01828E+00
 -1      1118 3.63864E-01
 -1      1119 7.15225E-01
 -1      1120 1.87181E-03
 -1      1121 1.54506E-03
 -1      1122 1.98680E+00
 -1      1123 9.74985E-01
 -1      1124 1.42396E-01
 -1      1125 7.06721E-01
 -1      1126 1.22242E-01
 -1      1127 1.59743E+00
 -1      1128 1.17532E+01
 -1      1129 7.77110E+00
 -1      1130 3.13258E+00
 -1      1131 2.21726E+00
 -1      1132 1.78461E+00
 -1      1133 1.42974E+00
 -1      1134 1.05806E+00
 -1      1135 6.76718E-01
 -1      1136 6.48536E-01
 -1      1137 9.33962E-01
 -1      1138 1.14305E+00
 -1      1139 1.34281E+00
 -1      1140 1.59859E+00
 -1      1141 1.99816E+00
 -1      1142 2.92289E+00
 -1      1143 5.84969E+00
 -1      1144 1.05546E+01
 -1      1145 1.17532E+01
 -1      1146 7.48661E+00
 -1      1147 2.56937E+00
 -1      1148 1.46685E+00
 -1      1149 1.20783E+00
 -1      1150 1.57328E+00
 -1      1151 1.74585E+00
 -1      1152 1.73875E+00
 -1      1153 2.03347E+00
 -1      1154 3.26259E+00
 -1      1155 5.07212E+00
 -1      1156 5.98218E+00
 -1      1157 6.00999E+00
 -1      1158 5.74195E+00
 -1      1159 4.28362E+00
 -1      1160 2.59496E+00
 -1      1161 2.08139E+00
 -1      1162 2.06161E+00
 -1      1163 2.05702E+00
 -1      1164 1.93472E+00
 -1      1165 1.63343E+00
 -1      1166 1.30458E+00
 -1      1167 1.02120E+00
 -1      1168 7.94818E-01
 -1      1169 6.38059E-01
 -1      1170 5.14667E-01
 -1      1171 4.03478E-01
 -1      1172 3.08885E-01
 -1      1173 2.31475E-01
 -1      1174 1.69906E-01
 -1      1175 1.26448E-01
 -1      1176 1.00039E-01
 -1      1177 8.11452E-02
 -1      1178 6.46489E-02
 -1      1179 5.06382E-02
 -1      1180 3.90018E-02
 -1      1181 2.95205E-02
 -1      1182 2.26383E-02
 -1      1183 1.81891E-02
 -1      1184 1.47779E-02
 -1      1185 1.17679E-02
 -1      1186 9.17665E-03
 -1      1187 7.03954E-03
 -1      1188 5.32392E-03
 -1      1189 3.92721E-03
 -1      1190 3.08617E-03
 -1      1191 2.62213E-03
 -1      1192 2.05287E-03
 -1      1193 1.53808E-03
 -1      1194 8.18917E-04
 -1      1195 1.30001E+01
 -1      1196 7.90198E+00
 -1      1197 2.18778E+00
 -1      1198 1.19514E+00
 -1      1199 5.64327E-01
 -1      1200 4.10861E-01
 -1      1201 6.37698E-01
 -1      1202 9.41638E-01
 -1      1203 1.22222E+00
 -1      1204 1.68893E+00
 -1      1205 2.31906E+00
 -1      1206 2.71343E+00
 -1      1207 2.94309E+00
 -1      1208 3.04453E+00
 -1      1209 2.80628E+00
 -1      1210 2.14479E+00
 -1      1211 1.41510E+00
 -1      1212 9.16012E-01
 -1      1213 7.36151E-01
 -1      1214 7.87606E-01
 -1      1215 8.26283E-01
 -1      1216 8.08334E-01
 -1      1217 7.41521E-01
 -1      1218 6.37065E-01
 -1      1219 5.29255E-01
 -1      1220 4.25385E-01
 -1      1221 3.27175E-01
 -1      1222 2.50343E-01
 -1      1223 1.95960E-01
 -1      1224 1.50989E-01
 -1      1225 1.12858E-01
 -1      1226 8.17773E-02
 -1      1227 5.72670E-02
 -1      1228 4.26106E-02
 -1      1229 3.53378E-02
 -1      1230 2.89603E-02
 -1      1231 2.32052E-02
 -1      1232 1.86681E-02
 -1      1233 1.58127E-02
 -1      1234 1.37113E-02
 -1      1235 1.15625E-02
 -1      1236 9.51558E-03
 -1      1237 7.65914E-03
 -1      1238 6.08731E-03
 -1      1239 4.75107E-03
 -1      1240 3.53589E-03
 -1      1241 2.65102E-03
 -1      1242 2.02812E-03
 -1      1243 1.33794E-03
 -1      1244 6.07144E-04
 -1      1245 3.49713E-04
 -1      1246 4.49972E-04
 -1      1247 3.86875E-04
 -1      1248 2.27616E-04
 -1      1249 1.70446E-04
 -1      1250 2.57001E-04
 -1      1251 3.31552E-04
 -1      1252 3.66113E-04
 -1      1253 3.73686E-04
 -1      1254 3.66233E-04
 -1      1255 3.30528E-04
 -1      1256 2.56114E-04
 -1      1257 1.71824E-04
 -1      1258 2.30752E-04
 -1      1259 4.63132E-04
 -1      1260 6.55603E-04
 -1      1261 5.03740E-04
 -1      1262 2.54424E+01
 -1      1263 3.60302E+01
 -1      1264 4.66179E+01
 -1      1265 3.31181E+01
 -1      1266 1.63159E+01
 -1      1267 1.30137E+01
 -1      1268 1.27038E+01
 -1      1269 1.27924E+01
 -1      1270 1.31909E+01
 -1      1271 1.28489E+01
 -1      1272 2.23071E+01
 -1      1273 3.26189E+01
 -1      1274 2.99477E+01
 -1      1275 2.66466E+01
 -1      1276 2.58277E+01
 -1      1277 2.51271E+01
 -1      1278 3.43212E+01
 -1      1279 4.35152E+01
 -1      1280 3.01722E+01
 -1      1281 1.50370E+01
 -1      1282 1.32447E+01
 -1      1283 1.28310E+01
 -1      1284 1.25828E+01
 -1      1285 1.27482E+01
 -1      1286 1.28613E+01
 -1      1287 2.17420E+01
 -1      1288 3.05096E+01
 -1      1289 2.88259E+01
 -1      1290 2.58263E+01
 -1      1291 2.49764E+01
 -1      1292 1.17532E+01
 -1      1293 4.85407E+00
 -1      1294 8.83619E+00
 -1      1295 2.64412E+00
 -1      1296 3.30052E+00
 -1      1297 4.36561E+00
 -1      1298 2.00999E+00
 -1      1299 2.26891E+00
 -1      1300 2.43686E+00
 -1      1301 1.64224E+00
 -1      1302 1.81596E+00
 -1      1303 1.86762E+00
 -1      1304 1.31765E+00
 -1      1305 1.49879E+00
 -1      1306 1.53014E+00
 -1      1307 9.58865E-01
 -1      1308 1.14940E+00
 -1      1309 1.21845E+00
 -1      1310 5.40254E-01
 -1      1311 7.31058E-01
 -1      1312 8.22401E-01
 -1      1313 7.33151E-01
 -1      1314 5.70529E-01
 -1      1315 6.24869E-01
 -1      1316 9.96997E-01
 -1      1317 8.74193E-01
 -1      1318 7.96186E-01
 -1      1319 1.15904E+00
 -1      1320 1.07276E+00
 -1      1321 1.01299E+00
 -1      1322 1.38339E+00
 -1      1323 1.26990E+00
 -1      1324 1.19961E+00
 -1      1325 1.66868E+00
 -1      1326 1.52638E+00
 -1      1327 1.45347E+00
 -1      1328 2.11785E+00
 -1      1329 1.86058E+00
 -1      1330 1.78837E+00
 -1      1331 3.12183E+00
 -1      1332 2.45438E+00
 -1      1333 2.31680E+00
 -1      1334 6.00656E+00
 -1      1335 3.74721E+00
 -1      1336 3.27870E+00
 -1      1337 1.30001E+01
 -1      1338 1.05546E+01
 -1      1339 8.45210E+00
 -1      1340 1.30001E+01
 -1      1341 7.48661E+00
 -1      1342 3.21999E+00
 -1      1343 2.56937E+00
 -1      1344 1.91875E+00
 -1      1345 2.56937E+00
 -1      1346 1.46685E+00
 -1      1347 1.01495E+00
 -1      1348 1.46685E+00
 -1      1349 1.04628E+00
 -1      1350 1.23916E+00
 -1      1351 1.04628E+00
 -1      1352 1.40071E+00
 -1      1353 1.57328E+00
 -1      1354 1.23916E+00
 -1      1355 1.74585E+00
 -1      1356 1.74585E+00
 -1      1357 1.57328E+00
 -1      1358 1.73875E+00
 -1      1359 1.73164E+00
 -1      1360 1.73875E+00
 -1      1361 1.71968E+00
 -1      1362 2.02151E+00
 -1      1363 1.71968E+00
 -1      1364 2.35789E+00
 -1      1365 3.28518E+00
 -1      1366 2.04410E+00
 -1      1367 4.18988E+00
 -1      1368 5.07212E+00
 -1      1369 3.28518E+00
 -1      1370 5.95436E+00
 -1      1371 5.98218E+00
 -1      1372 5.07212E+00
 -1      1373 6.00999E+00
 -1      1374 6.00999E+00
 -1      1375 5.98218E+00
 -1      1376 5.74195E+00
 -1      1377 5.47392E+00
 -1      1378 5.74195E+00
 -1      1379 4.37429E+00
 -1      1380 3.18400E+00
 -1      1381 4.37429E+00
 -1      1382 2.59496E+00
 -1      1383 2.09659E+00
 -1      1384 2.68563E+00
 -1      1385 2.08139E+00
 -1      1386 2.06619E+00
 -1      1387 2.08139E+00
 -1      1388 2.02302E+00
 -1      1389 2.01843E+00
 -1      1390 2.02302E+00
 -1      1391 2.05702E+00
 -1      1392 2.05702E+00
 -1      1393 2.01843E+00
 -1      1394 1.93472E+00
 -1      1395 1.81242E+00
 -1      1396 1.93472E+00
 -1      1397 1.65271E+00
 -1      1398 1.47372E+00
 -1      1399 1.65271E+00
 -1      1400 1.36883E+00
 -1      1401 1.21897E+00
 -1      1402 1.38811E+00
 -1      1403 1.12010E+00
 -1      1404 9.86582E-01
 -1      1405 1.18435E+00
 -1      1406 8.79092E-01
 -1      1407 7.86221E-01
 -1      1408 9.77986E-01
 -1      1409 6.85869E-01
 -1      1410 6.21981E-01
 -1      1411 7.70143E-01
 -1      1412 5.36013E-01
 -1      1413 4.76509E-01
 -1      1414 5.83823E-01
 -1      1415 4.06875E-01
 -1      1416 3.55190E-01
 -1      1417 4.28221E-01
 -1      1418 3.12103E-01
 -1      1419 2.69194E-01
 -1      1420 3.15500E-01
 -1      1421 2.36966E-01
 -1      1422 2.02465E-01
 -1      1423 2.40184E-01
 -1      1424 1.76373E-01
 -1      1425 1.49305E-01
 -1      1426 1.81863E-01
 -1      1427 1.28658E-01
 -1      1428 1.12268E-01
 -1      1429 1.35124E-01
 -1      1430 1.00039E-01
 -1      1431 9.00196E-02
 -1      1432 1.02248E-01
 -1      1433 8.11452E-02
 -1      1434 7.22708E-02
 -1      1435 8.11452E-02
 -1      1436 6.46489E-02
 -1      1437 5.70271E-02
 -1      1438 6.46489E-02
 -1      1439 5.06382E-02
 -1      1440 4.42493E-02
 -1      1441 5.06382E-02
 -1      1442 3.90018E-02
 -1      1443 3.37543E-02
 -1      1444 3.90018E-02
 -1      1445 2.98839E-02
 -1      1446 2.56501E-02
 -1      1447 2.98839E-02
 -1      1448 2.26995E-02
 -1      1449 2.00510E-02
 -1      1450 2.30628E-02
 -1      1451 1.81891E-02
 -1      1452 1.63885E-02
 -1      1453 1.82503E-02
 -1      1454 1.47779E-02
 -1      1455 1.31674E-02
 -1      1456 1.47779E-02
 -1      1457 1.17679E-02
 -1      1458 1.03684E-02
 -1      1459 1.17679E-02
 -1      1460 9.31415E-03
 -1      1461 8.12240E-03
 -1      1462 9.31415E-03
 -1      1463 7.20844E-03
 -1      1464 6.26308E-03
 -1      1465 7.34594E-03
 -1      1466 5.57268E-03
 -1      1467 4.80241E-03
 -1      1468 5.74157E-03
 -1      1469 4.20354E-03
 -1      1470 3.57710E-03
 -1      1471 4.45230E-03
 -1      1472 3.08617E-03
 -1      1473 2.87157E-03
 -1      1474 3.36250E-03
 -1      1475 2.62213E-03
 -1      1476 2.37268E-03
 -1      1477 2.62213E-03
 -1      1478 2.05287E-03
 -1      1479 1.73306E-03
 -1      1480 2.05287E-03
 -1      1481 1.53808E-03
 -1      1482 1.34310E-03
 -1      1483 1.53808E-03
 -1      1484 1.02793E-03
 -1      1485 1.02793E-03
 -1      1486 2.80382E+00
 -1      1487 7.90198E+00
 -1      1488 7.90198E+00
 -1      1489 1.57173E+00
 -1      1490 2.18778E+00
 -1      1491 2.18778E+00
 -1      1492 8.18544E-01
 -1      1493 1.19514E+00
 -1      1494 1.19514E+00
 -1      1495 3.10109E-01
 -1      1496 5.64327E-01
 -1      1497 5.64327E-01
 -1      1498 3.98397E-01
 -1      1499 2.97646E-01
 -1      1500 2.97646E-01
 -1      1501 6.44910E-01
 -1      1502 5.18824E-01
 -1      1503 4.05609E-01
 -1      1504 9.41638E-01
 -1      1505 7.63785E-01
 -1      1506 6.44910E-01
 -1      1507 1.22222E+00
 -1      1508 1.11949E+00
 -1      1509 9.41638E-01
 -1      1510 1.80374E+00
 -1      1511 1.43976E+00
 -1      1512 1.33704E+00
 -1      1513 2.31906E+00
 -1      1514 2.05291E+00
 -1      1515 1.80374E+00
 -1      1516 2.71343E+00
 -1      1517 2.58521E+00
 -1      1518 2.31906E+00
 -1      1519 2.94309E+00
 -1      1520 2.84166E+00
 -1      1521 2.71343E+00
 -1      1522 3.04453E+00
 -1      1523 3.04453E+00
 -1      1524 2.94309E+00
 -1      1525 2.56803E+00
 -1      1526 2.80628E+00
 -1      1527 2.80628E+00
 -1      1528 1.72154E+00
 -1      1529 2.14479E+00
 -1      1530 2.14479E+00
 -1      1531 1.10865E+00
 -1      1532 1.41510E+00
 -1      1533 1.41510E+00
 -1      1534 7.23373E-01
 -1      1535 9.16012E-01
 -1      1536 9.16012E-01
 -1      1537 7.32550E-01
 -1      1538 7.19773E-01
 -1      1539 7.19773E-01
 -1      1540 7.87606E-01
 -1      1541 7.48928E-01
 -1      1542 7.32550E-01
 -1      1543 8.26283E-01
 -1      1544 8.26283E-01
 -1      1545 7.87606E-01
 -1      1546 7.90386E-01
 -1      1547 8.08334E-01
 -1      1548 8.08334E-01
 -1      1549 6.92655E-01
 -1      1550 7.41521E-01
 -1      1551 7.41521E-01
 -1      1552 5.81476E-01
 -1      1553 6.37065E-01
 -1      1554 6.37065E-01
 -1      1555 4.79938E-01
 -1      1556 5.32159E-01
 -1      1557 5.32159E-01
 -1      1558 3.82129E-01
 -1      1559 4.33777E-01
 -1      1560 4.36682E-01
 -1      1561 2.91764E-01
 -1      1562 3.38326E-01
 -1      1563 3.46718E-01
 -1      1564 2.22957E-01
 -1      1565 2.53227E-01
 -1      1566 2.64379E-01
 -1      1567 1.71847E-01
 -1      1568 1.95960E-01
 -1      1569 1.98844E-01
 -1      1570 1.30131E-01
 -1      1571 1.50989E-01
 -1      1572 1.50989E-01
 -1      1573 9.56587E-02
 -1      1574 1.12932E-01
 -1      1575 1.12932E-01
 -1      1576 6.90151E-02
 -1      1577 8.28225E-02
 -1      1578 8.28965E-02
 -1      1579 4.81365E-02
 -1      1580 5.88394E-02
 -1      1581 5.98846E-02
 -1      1582 3.86571E-02
 -1      1583 4.26106E-02
 -1      1584 4.41830E-02
 -1      1585 3.20186E-02
 -1      1586 3.53378E-02
 -1      1587 3.53378E-02
 -1      1588 2.59020E-02
 -1      1589 2.89603E-02
 -1      1590 2.89603E-02
 -1      1591 2.05085E-02
 -1      1592 2.32052E-02
 -1      1593 2.32052E-02
 -1      1594 1.68276E-02
 -1      1595 1.86681E-02
 -1      1596 1.86681E-02
 -1      1597 1.47978E-02
 -1      1598 1.58127E-02
 -1      1599 1.58127E-02
 -1      1600 1.26247E-02
 -1      1601 1.37113E-02
 -1      1602 1.37113E-02
 -1      1603 1.05003E-02
 -1      1604 1.15625E-02
 -1      1605 1.15625E-02
 -1      1606 8.53089E-03
 -1      1607 9.51558E-03
 -1      1608 9.51558E-03
 -1      1609 6.78740E-03
 -1      1610 7.65914E-03
 -1      1611 7.65914E-03
 -1      1612 5.38721E-03
 -1      1613 6.08731E-03
 -1      1614 6.08731E-03
 -1      1615 4.11494E-03
 -1      1616 4.75107E-03
 -1      1617 4.75107E-03
 -1      1618 2.99380E-03
 -1      1619 3.57284E-03
 -1      1620 3.57284E-03
 -1      1621 2.34519E-03
 -1      1622 2.65102E-03
 -1      1623 2.68796E-03
 -1      1624 1.71105E-03
 -1      1625 2.02812E-03
 -1      1626 2.02812E-03
 -1      1627 9.82732E-04
 -1      1628 1.35584E-03
 -1      1629 1.35584E-03
 -1      1630 7.07404E-04
 -1      1631 4.93956E-04
 -1      1632 4.93956E-04
 -1      1633 4.30859E-04
 -1      1634 4.93956E-04
 -1      1635 5.37940E-04
 -1      1636 2.97554E-04
 -1      1637 3.93716E-04
 -1      1638 5.00797E-04
 -1      1639 2.73804E-04
 -1      1640 2.34813E-04
 -1      1641 4.00912E-04
 -1      1642 4.17341E-04
 -1      1643 3.69777E-04
 -1      1644 4.34144E-04
 -1      1645 5.01755E-04
 -1      1646 4.74767E-04
 -1      1647 5.87543E-04
 -1      1648 5.31984E-04
 -1      1649 5.24412E-04
 -1      1650 6.67626E-04
 -1      1651 5.32066E-04
 -1      1652 5.32066E-04
 -1      1653 6.90365E-04
 -1      1654 5.24613E-04
 -1      1655 5.32066E-04
 -1      1656 6.90447E-04
 -1      1657 4.72877E-04
 -1      1658 5.01129E-04
 -1      1659 6.66963E-04
 -1      1660 3.71533E-04
 -1      1661 4.17695E-04
 -1      1662 5.88296E-04
 -1      1663 2.38763E-04
 -1      1664 2.76891E-04
 -1      1665 4.38472E-04
 -1      1666 3.94889E-04
 -1      1667 2.97834E-04
 -1      1668 4.02900E-04
 -1      1669 5.30214E-04
 -1      1670 3.94889E-04
 -1      1671 4.61971E-04
 -1      1672 7.12749E-04
 -1      1673 6.55603E-04
 -1      1674 5.87360E-04
 -1      1675 1.02793E-03
 -1      1676 2.77216E+01
 -1      1677 2.77216E+01
 -1      1678 3.62957E+01
 -1      1679 2.57080E+01
 -1      1680 4.66179E+01
 -1      1681 4.66179E+01
 -1      1682 2.02294E+01
 -1      1683 3.37293E+01
 -1      1684 1.20007E+01
 -1      1685 1.53030E+01
 -1      1686 1.30137E+01
 -1      1687 1.30137E+01
 -1      1688 1.22508E+01
 -1      1689 1.25607E+01
 -1      1690 1.27924E+01
 -1      1691 1.23939E+01
 -1      1692 1.31909E+01
 -1      1693 1.31909E+01
 -1      1694 1.23214E+01
 -1      1695 1.26634E+01
 -1      1696 2.23071E+01
 -1      1697 1.25069E+01
 -1      1698 3.31306E+01
 -1      1699 3.26189E+01
 -1      1700 2.99477E+01
 -1      1701 3.31306E+01
 -1      1702 2.97062E+01
 -1      1703 2.98245E+01
 -1      1704 2.77308E+01
 -1      1705 2.84313E+01
 -1      1706 2.77308E+01
 -1      1707 2.77308E+01
 -1      1708 4.04283E+01
 -1      1709 3.12342E+01
 -1      1710 4.35152E+01
 -1      1711 4.35152E+01
 -1      1712 1.68823E+01
 -1      1713 3.02253E+01
 -1      1714 1.23956E+01
 -1      1715 1.41878E+01
 -1      1716 1.32447E+01
 -1      1717 1.32447E+01
 -1      1718 1.24173E+01
 -1      1719 1.28310E+01
 -1      1720 1.24376E+01
 -1      1721 1.22721E+01
 -1      1722 1.27482E+01
 -1      1723 1.27482E+01
 -1      1724 1.20999E+01
 -1      1725 1.19868E+01
 -1      1726 2.17420E+01
 -1      1727 1.29744E+01
 -1      1728 3.05096E+01
 -1      1729 3.05096E+01
 -1      1730 2.85256E+01
 -1      1731 3.02093E+01
 -1      1732 2.45104E+01
 -1      1733 2.58263E+01
 -1      1734 2.77216E+01
 -1      1735 2.72556E+01
 -1      1736 1.59142E+01
 -1      1737 3.37293E+01
 -1      1738 7.25300E-04
 -1      1739 7.69284E-04
 -1      1740 2.79871E+01
 -1      1741 3.62957E+01
 -1      1742 3.00007E+01
 -1      1743 1.20007E+01
 -1      1744 1.25607E+01
 -1      1745 1.22508E+01
 -1      1746 1.27924E+01
 -1      1747 1.26634E+01
 -1      1748 1.23214E+01
 -1      1749 2.28188E+01
 -1      1750 3.31306E+01
 -1      1751 3.30074E+01
 -1      1752 3.16093E+01
 -1      1753 3.03344E+01
 -1      1754 3.38379E+01
 -1      1755 4.04283E+01
 -1      1756 3.02253E+01
 -1      1757 1.42409E+01
 -1      1758 1.23956E+01
 -1      1759 1.28310E+01
 -1      1760 1.22721E+01
 -1      1761 1.24376E+01
 -1      1762 1.19868E+01
 -1      1763 1.20999E+01
 -1      1764 2.17420E+01
 -1      1765 3.02093E+01
 -1      1766 2.72097E+01
 -1      1767 2.72556E+01
 -1      1768 8.83619E+00
 -1      1769 2.10692E+00
 -1      1770 2.48213E+00
 -1      1771 2.79938E+00
 -1      1772 4.35292E+00
 -1      1773 2.46944E+00
 -1      1774 1.46518E+00
 -1      1775 1.60863E+00
 -1      1776 1.16941E+00
 -1      1777 1.33765E+00
 -1      1778 1.41614E+00
 -1      1779 7.21282E-01
 -1      1780 9.49090E-01
 -1      1781 1.06829E+00
 -1      1782 5.93592E-01
 -1      1783 5.63317E-01
 -1      1784 6.90005E-01
 -1      1785 9.13368E-01
 -1      1786 7.72326E-01
 -1      1787 7.10774E-01
 -1      1788 1.07111E+00
 -1      1789 9.95349E-01
 -1      1790 9.71489E-01
 -1      1791 1.22238E+00
 -1      1792 1.11152E+00
 -1      1793 1.09388E+00
 -1      1794 1.41457E+00
 -1      1795 1.27158E+00
 -1      1796 1.18348E+00
 -1      1797 1.67394E+00
 -1      1798 1.48204E+00
 -1      1799 1.30015E+00
 -1      1800 2.13559E+00
 -1      1801 1.79906E+00
 -1      1802 1.49274E+00
 -1      1803 2.80441E+00
 -1      1804 2.17903E+00
 -1      1805 1.66130E+00
 -1      1806 7.37947E+00
 -1      1807 2.83144E+00
 -1      1808 1.73177E+00
 -1      1809 2.28131E+00
 -1      1810 4.56957E+00
 -1      1811 1.45495E+00
 -1      1812 2.07099E+00
 -1      1813 1.54849E+00
 -1      1814 3.00334E+00
 -1      1815 1.72569E+00
 -1      1816 1.27380E+00
 -1      1817 1.16172E+00
 -1      1818 1.19305E+00
 -1      1819 1.42056E+00
 -1      1820 1.24293E+00
 -1      1821 1.40448E+00
 -1      1822 1.35836E+00
 -1      1823 1.45584E+00
 -1      1824 1.62841E+00
 -1      1825 1.45961E+00
 -1      1826 1.63218E+00
 -1      1827 1.62507E+00
 -1      1828 1.51474E+00
 -1      1829 1.70326E+00
 -1      1830 1.69130E+00
 -1      1831 1.59670E+00
 -1      1832 1.74502E+00
 -1      1833 2.08140E+00
 -1      1834 1.72861E+00
 -1      1835 2.42718E+00
 -1      1836 3.33189E+00
 -1      1837 2.12811E+00
 -1      1838 3.71529E+00
 -1      1839 4.59753E+00
 -1      1840 2.85730E+00
 -1      1841 5.01649E+00
 -1      1842 5.04430E+00
 -1      1843 3.65966E+00
 -1      1844 4.95821E+00
 -1      1845 4.69018E+00
 -1      1846 3.99253E+00
 -1      1847 4.18269E+00
 -1      1848 3.08307E+00
 -1      1849 3.39896E+00
 -1      1850 2.68935E+00
 -1      1851 2.10031E+00
 -1      1852 2.49775E+00
 -1      1853 1.97997E+00
 -1      1854 1.96477E+00
 -1      1855 1.98369E+00
 -1      1856 1.81815E+00
 -1      1857 1.77497E+00
 -1      1858 1.71672E+00
 -1      1859 1.82743E+00
 -1      1860 1.86602E+00
 -1      1861 1.62256E+00
 -1      1862 1.83054E+00
 -1      1863 1.70824E+00
 -1      1864 1.63954E+00
 -1      1865 1.64332E+00
 -1      1866 1.48361E+00
 -1      1867 1.53914E+00
 -1      1868 1.41386E+00
 -1      1869 1.30897E+00
 -1      1870 1.40448E+00
 -1      1871 1.23192E+00
 -1      1872 1.13305E+00
 -1      1873 1.25767E+00
 -1      1874 1.03625E+00
 -1      1875 9.28758E-01
 -1      1876 1.08382E+00
 -1      1877 8.30833E-01
 -1      1878 7.30481E-01
 -1      1879 8.89096E-01
 -1      1880 6.41687E-01
 -1      1881 5.55720E-01
 -1      1882 7.02377E-01
 -1      1883 4.80379E-01
 -1      1884 4.10745E-01
 -1      1885 5.38244E-01
 -1      1886 3.49611E-01
 -1      1887 3.06523E-01
 -1      1888 4.01769E-01
 -1      1889 2.58505E-01
 -1      1890 2.26276E-01
 -1      1891 2.92616E-01
 -1      1892 1.89518E-01
 -1      1893 1.63426E-01
 -1      1894 2.07840E-01
 -1      1895 1.35906E-01
 -1      1896 1.15259E-01
 -1      1897 1.43561E-01
 -1      1898 9.84491E-02
 -1      1899 8.62204E-02
 -1      1900 9.92310E-02
 -1      1901 7.46859E-02
 -1      1902 6.58115E-02
 -1      1903 7.08867E-02
 -1      1904 5.80466E-02
 -1      1905 5.04248E-02
 -1      1906 5.15873E-02
 -1      1907 4.66781E-02
 -1      1908 4.02892E-02
 -1      1909 4.00758E-02
 -1      1910 3.68771E-02
 -1      1911 3.16296E-02
 -1      1912 3.29170E-02
 -1      1913 2.86320E-02
 -1      1914 2.47616E-02
 -1      1915 2.65074E-02
 -1      1916 2.21996E-02
 -1      1917 1.92490E-02
 -1      1918 2.09478E-02
 -1      1919 1.71422E-02
 -1      1920 1.52803E-02
 -1      1921 1.62790E-02
 -1      1922 1.40496E-02
 -1      1923 1.24391E-02
 -1      1924 1.29415E-02
 -1      1925 1.14832E-02
 -1      1926 1.00837E-02
 -1      1927 1.07549E-02
 -1      1928 9.17703E-03
 -1      1929 8.12278E-03
 -1      1930 8.89236E-03
 -1      1931 7.31848E-03
 -1      1932 6.40452E-03
 -1      1933 7.18136E-03
 -1      1934 5.74838E-03
 -1      1935 5.05798E-03
 -1      1936 5.72092E-03
 -1      1937 4.47119E-03
 -1      1938 3.87232E-03
 -1      1939 4.47799E-03
 -1      1940 3.41620E-03
 -1      1941 2.92526E-03
 -1      1942 3.43508E-03
 -1      1943 2.53689E-03
 -1      1944 2.28744E-03
 -1      1945 2.59058E-03
 -1      1946 2.00067E-03
 -1      1947 1.68086E-03
 -1      1948 1.91544E-03
 -1      1949 1.45605E-03
 -1      1950 1.26107E-03
 -1      1951 9.45895E-04
 -1      1952 1.40385E-03
 -1      1953 6.85857E-01
 -1      1954 1.06245E+00
 -1      1955 9.45670E-01
 -1      1956 2.64742E-01
 -1      1957 5.18959E-01
 -1      1958 3.86272E-01
 -1      1959 2.89703E-01
 -1      1960 3.02167E-01
 -1      1961 2.56799E-01
 -1      1962 5.51909E-01
 -1      1963 4.31482E-01
 -1      1964 4.36004E-01
 -1      1965 8.41048E-01
 -1      1966 7.22174E-01
 -1      1967 7.48047E-01
 -1      1968 1.21408E+00
 -1      1969 1.03623E+00
 -1      1970 1.11349E+00
 -1      1971 1.59104E+00
 -1      1972 1.37349E+00
 -1      1973 1.46809E+00
 -1      1974 1.87659E+00
 -1      1975 1.62743E+00
 -1      1976 1.66389E+00
 -1      1977 2.14274E+00
 -1      1978 1.87659E+00
 -1      1979 1.70028E+00
 -1      1980 2.26626E+00
 -1      1981 2.13804E+00
 -1      1982 1.69558E+00
 -1      1983 2.46476E+00
 -1      1984 2.36333E+00
 -1      1985 1.78793E+00
 -1      1986 2.16488E+00
 -1      1987 2.40313E+00
 -1      1988 1.82337E+00
 -1      1989 1.52015E+00
 -1      1990 1.94340E+00
 -1      1991 1.54025E+00
 -1      1992 9.92910E-01
 -1      1993 1.29936E+00
 -1      1994 1.09797E+00
 -1      1995 6.42394E-01
 -1      1996 8.35033E-01
 -1      1997 7.19292E-01
 -1      1998 5.62182E-01
 -1      1999 5.65783E-01
 -1      2000 4.84804E-01
 -1      2001 6.40596E-01
 -1      2002 6.24218E-01
 -1      2003 4.70228E-01
 -1      2004 7.01741E-01
 -1      2005 6.63064E-01
 -1      2006 5.54732E-01
 -1      2007 6.95776E-01
 -1      2008 7.13724E-01
 -1      2009 5.89182E-01
 -1      2010 6.28131E-01
 -1      2011 6.76997E-01
 -1      2012 5.82387E-01
 -1      2013 5.42553E-01
 -1      2014 5.98142E-01
 -1      2015 5.33619E-01
 -1      2016 4.61295E-01
 -1      2017 5.10612E-01
 -1      2018 4.71689E-01
 -1      2019 3.77837E-01
 -1      2020 4.23997E-01
 -1      2021 4.02450E-01
 -1      2022 2.96801E-01
 -1      2023 3.40604E-01
 -1      2024 3.27920E-01
 -1      2025 2.24313E-01
 -1      2026 2.62850E-01
 -1      2027 2.56735E-01
 -1      2028 1.68406E-01
 -1      2029 1.95403E-01
 -1      2030 1.93874E-01
 -1      2031 1.28628E-01
 -1      2032 1.49486E-01
 -1      2033 1.46045E-01
 -1      2034 9.57327E-02
 -1      2035 1.12932E-01
 -1      2036 1.11429E-01
 -1      2037 7.00603E-02
 -1      2038 8.28965E-02
 -1      2039 8.28965E-02
 -1      2040 4.97089E-02
 -1      2041 5.98846E-02
 -1      2042 5.98846E-02
 -1      2043 3.63372E-02
 -1      2044 4.18631E-02
 -1      2045 4.18631E-02
 -1      2046 2.84145E-02
 -1      2047 3.17338E-02
 -1      2048 2.94139E-02
 -1      2049 2.36437E-02
 -1      2050 2.67020E-02
 -1      2051 2.30980E-02
 -1      2052 1.92161E-02
 -1      2053 2.19129E-02
 -1      2054 1.96546E-02
 -1      2055 1.57407E-02
 -1      2056 1.75812E-02
 -1      2057 1.62888E-02
 -1      2058 1.32499E-02
 -1      2059 1.42648E-02
 -1      2060 1.31779E-02
 -1      2061 1.09851E-02
 -1      2062 1.20717E-02
 -1      2063 1.05238E-02
 -1      2064 9.27914E-03
 -1      2065 1.03414E-02
 -1      2066 8.70176E-03
 -1      2067 7.62474E-03
 -1      2068 8.60944E-03
 -1      2069 7.38830E-03
 -1      2070 6.12705E-03
 -1      2071 6.99880E-03
 -1      2072 6.09265E-03
 -1      2073 4.96063E-03
 -1      2074 5.66073E-03
 -1      2075 5.00038E-03
 -1      2076 3.87181E-03
 -1      2077 4.50795E-03
 -1      2078 4.08137E-03
 -1      2079 2.90581E-03
 -1      2080 3.44791E-03
 -1      2081 3.20479E-03
 -1      2082 2.17689E-03
 -1      2083 2.51967E-03
 -1      2084 2.39474E-03
 -1      2085 1.62698E-03
 -1      2086 1.94405E-03
 -1      2087 1.77576E-03
 -1      2088 1.00063E-03
 -1      2089 1.35584E-03
 -1      2090 1.27177E-03
 -1      2091 7.69284E-04
 -1      2092 4.48531E-04
 -1      2093 5.11273E-04
 -1      2094 7.57737E-04
 -1      2095 7.94881E-04
 -1      2096 8.05357E-04
 -1      2097 7.94881E-04
 -1      2098 7.94881E-04
 -1      2099 1.02622E-03
 -1      2100 1.05182E-03
 -1      2101 6.20106E-04
 -1      2102 5.24132E-04
 -1      2103 6.34494E-04
 -1      2104 7.56764E-04
 -1      2105 6.99337E-04
 -1      2106 7.89326E-04
 -1      2107 8.14840E-04
 -1      2108 7.92183E-04
 -1      2109 9.03977E-04
 -1      2110 8.14921E-04
 -1      2111 8.14840E-04
 -1      2112 9.39396E-04
 -1      2113 8.14343E-04
 -1      2114 8.14343E-04
 -1      2115 9.38817E-04
 -1      2116 7.90859E-04
 -1      2117 8.14343E-04
 -1      2118 9.38239E-04
 -1      2119 7.02704E-04
 -1      2120 7.57886E-04
 -1      2121 9.05266E-04
 -1      2122 5.31308E-04
 -1      2123 6.25950E-04
 -1      2124 7.95540E-04
 -1      2125 5.11449E-04
 -1      2126 4.52378E-04
 -1      2127 6.39856E-04
 -1      2128 6.98213E-04
 -1      2129 6.98213E-04
 -1      2130 7.47691E-04
 -1      2131 3.62957E+01
 -1      2132 2.59736E+01
 -1      2133 3.18781E+01
 -1      2134 3.18781E+01
 -1      2135 2.98645E+01
 -1      2136 3.18781E+01
 -1      2137 1.84776E+01
 -1      2138 3.13663E+01
 -1      2139 1.00973E+01
 -1      2140 1.50238E+01
 -1      2141 2.13241E+00
 -1      2142 2.32645E+00
 -1      2143 2.37172E+00
 -1      2144 2.06746E+00
 -1      2145 1.11590E+01
 -1      2146 1.16119E+01
 -1      2147 1.17706E+01
 -1      2148 1.16275E+01
 -1      2149 1.06787E+01
 -1      2150 1.19089E+01
 -1      2151 1.15104E+01
 -1      2152 1.01688E+01
 -1      2153 1.06963E+01
 -1      2154 9.56292E+00
 -1      2155 9.37741E+00
 -1      2156 2.22687E+01
 -1      2157 1.19568E+01
 -1      2158 9.01285E+00
 -1      2159 2.69818E+01
 -1      2160 2.69818E+01
 -1      2161 3.28841E+01
 -1      2162 3.30074E+01
 -1      2163 2.68586E+01
 -1      2164 3.47349E+01
 -1      2165 3.60098E+01
 -1      2166 3.47349E+01
 -1      2167 3.47349E+01
 -1      2168 3.91354E+01
 -1      2169 3.29463E+01
 -1      2170 2.94428E+01
 -1      2171 3.45844E+01
 -1      2172 3.14974E+01
 -1      2173 1.58232E+01
 -1      2174 2.91130E+01
 -1      2175 9.69282E+00
 -1      2176 1.23874E+01
 -1      2177 1.12751E+01
 -1      2178 1.07909E+01
 -1      2179 9.94168E+00
 -1      2180 1.17611E+01
 -1      2181 1.21748E+01
 -1      2182 1.16747E+01
 -1      2183 1.18199E+01
 -1      2184 1.11637E+01
 -1      2185 1.16088E+01
 -1      2186 1.12982E+01
 -1      2187 9.69611E+00
 -1      2188 1.04575E+01
 -1      2189 9.97242E+00
 -1      2190 9.09790E+00
 -1      2191 7.56864E+00
 -1      2192 2.12355E+01
 -1      2193 1.24679E+01
 -1      2194 2.55114E+01
 -1      2195 2.58117E+01
 -1      2196 1.65376E+01
 -1      2197 2.30892E+01
 -1      2198 2.57884E+01
 -1      2199 3.16360E+01
 -1      2200 2.88909E+01
 -1      2201 2.74696E+01
 -1      2202 9.98967E+00
 -1      2203 8.97671E+00
 -1      2204 1.26608E+01
 -1      2205 2.35272E+00
 -1      2206 8.08629E+00
 -1      2207 8.73532E+00
 -1      2208 1.01371E+01
 -1      2209 7.11308E+00
 -1      2210 2.15966E+00
 -1      2211 2.98645E+01
 -1      2212 3.37555E+01
 -1      2213 8.23602E-04
 -1      2214 2.10441E+01
 -1      2215 3.35134E+01
 -1      2216 2.13909E+01
 -1      2217 9.46589E+00
 -1      2218 1.08459E+01
 -1      2219 8.08813E+00
 -1      2220 2.01822E+01
 -1      2221 3.38433E+01
 -1      2222 3.60098E+01
 -1      2223 2.23639E+01
 -1      2224 1.15020E+01
 -1      2225 1.62151E+01
 -1      2226 7.41035E+00
 -1      2227 1.08871E+01
 -1      2228 9.41431E+00
 -1      2229 2.71024E+01
 -1      2230 9.72096E+00
 -1      2231 9.31813E+00
 -1      2232 8.76833E-01
 -1      2233 1.26933E+00
 -1      2234 1.02847E+00
 -1      2235 1.24879E+00
 -1      2236 1.43050E+00
 -1      2237 1.55803E+00
 -1      2238 1.39068E+00
 -1      2239 9.03358E-01
 -1      2240 7.24623E-01
 -1      2241 1.09044E+00
 -1      2242 1.00846E+00
 -1      2243 1.02231E+00
 -1      2244 1.15078E+00
 -1      2245 1.11038E+00
 -1      2246 1.14734E+00
 -1      2247 1.19998E+00
 -1      2248 1.15078E+00
 -1      2249 1.16728E+00
 -1      2250 1.24171E+00
 -1      2251 1.17424E+00
 -1      2252 1.14154E+00
 -1      2253 1.50967E+00
 -1      2254 1.38455E+00
 -1      2255 1.25864E+00
 -1      2256 3.96632E-01
 -1      2257 5.63530E-01
 -1      2258 8.87193E-01
 -1      2259 1.55678E+00
 -1      2260 1.44470E+00
 -1      2261 5.98546E+00
 -1      2262 7.10608E+00
 -1      2263 1.51730E+00
 -1      2264 1.56719E+00
 -1      2265 1.65353E+00
 -1      2266 1.62467E+00
 -1      2267 1.67604E+00
 -1      2268 1.78362E+00
 -1      2269 1.83389E+00
 -1      2270 1.83765E+00
 -1      2271 1.99895E+00
 -1      2272 2.00954E+00
 -1      2273 2.08773E+00
 -1      2274 2.32869E+00
 -1      2275 2.32336E+00
 -1      2276 2.37708E+00
 -1      2277 2.73620E+00
 -1      2278 2.58524E+00
 -1      2279 2.93102E+00
 -1      2280 3.17999E+00
 -1      2281 2.74982E+00
 -1      2282 3.13323E+00
 -1      2283 3.20695E+00
 -1      2284 3.86377E+00
 -1      2285 4.28272E+00
 -1      2286 3.75629E+00
 -1      2287 4.93620E+00
 -1      2288 4.85012E+00
 -1      2289 5.14031E+00
 -1      2290 4.58727E+00
 -1      2291 4.07978E+00
 -1      2292 5.53094E+00
 -1      2293 2.93193E+00
 -1      2294 2.53821E+00
 -1      2295 4.12024E+00
 -1      2296 2.46470E+00
 -1      2297 2.34437E+00
 -1      2298 2.89889E+00
 -1      2299 2.29984E+00
 -1      2300 2.15321E+00
 -1      2301 2.78086E+00
 -1      2302 2.02384E+00
 -1      2303 2.07631E+00
 -1      2304 2.60696E+00
 -1      2305 1.85825E+00
 -1      2306 1.82277E+00
 -1      2307 2.25953E+00
 -1      2308 1.63382E+00
 -1      2309 1.56891E+00
 -1      2310 1.85254E+00
 -1      2311 1.47861E+00
 -1      2312 1.40886E+00
 -1      2313 1.57329E+00
 -1      2314 1.30908E+00
 -1      2315 1.23203E+00
 -1      2316 1.38322E+00
 -1      2317 1.12427E+00
 -1      2318 1.02746E+00
 -1      2319 1.17567E+00
 -1      2320 9.24505E-01
 -1      2321 8.26579E-01
 -1      2322 9.64946E-01
 -1      2323 7.35010E-01
 -1      2324 6.46217E-01
 -1      2325 7.70418E-01
 -1      2326 5.68530E-01
 -1      2327 4.93190E-01
 -1      2328 6.01163E-01
 -1      2329 4.29455E-01
 -1      2330 3.68320E-01
 -1      2331 4.59741E-01
 -1      2332 3.17349E-01
 -1      2333 2.69331E-01
 -1      2334 3.45035E-01
 -1      2335 2.29408E-01
 -1      2336 1.92650E-01
 -1      2337 2.54141E-01
 -1      2338 1.61944E-01
 -1      2339 1.34424E-01
 -1      2340 1.83512E-01
 -1      2341 1.11207E-01
 -1      2342 9.43976E-02
 -1      2343 1.29590E-01
 -1      2344 7.71400E-02
 -1      2345 6.56054E-02
 -1      2346 8.91164E-02
 -1      2347 5.30059E-02
 -1      2348 4.52410E-02
 -1      2349 5.92592E-02
 -1      2350 3.69994E-02
 -1      2351 3.32527E-02
 -1      2352 3.84179E-02
 -1      2353 2.84982E-02
 -1      2354 2.50861E-02
 -1      2355 2.54217E-02
 -1      2356 2.38678E-02
 -1      2357 2.08702E-02
 -1      2358 1.94489E-02
 -1      2359 1.95630E-02
 -1      2360 1.70011E-02
 -1      2361 1.69234E-02
 -1      2362 1.57022E-02
 -1      2363 1.35954E-02
 -1      2364 1.43174E-02
 -1      2365 1.23807E-02
 -1      2366 1.11500E-02
 -1      2367 1.18039E-02
 -1      2368 1.00589E-02
 -1      2369 9.10299E-03
 -1      2370 9.49806E-03
 -1      2371 8.46209E-03
 -1      2372 7.55539E-03
 -1      2373 7.76602E-03
 -1      2374 6.98877E-03
 -1      2375 6.18447E-03
 -1      2376 6.55850E-03
 -1      2377 5.62122E-03
 -1      2378 4.96509E-03
 -1      2379 5.42864E-03
 -1      2380 4.46015E-03
 -1      2381 3.87336E-03
 -1      2382 4.36045E-03
 -1      2383 3.44183E-03
 -1      2384 2.98571E-03
 -1      2385 3.42399E-03
 -1      2386 2.59938E-03
 -1      2387 2.21101E-03
 -1      2388 2.60613E-03
 -1      2389 1.90990E-03
 -1      2390 1.62313E-03
 -1      2391 1.91870E-03
 -1      2392 5.70716E-01
 -1      2393 4.28936E-01
 -1      2394 8.51647E-01
 -1      2395 6.81383E-01
 -1      2396 6.74315E-01
 -1      2397 1.21608E+00
 -1      2398 1.02090E+00
 -1      2399 9.54232E-01
 -1      2400 1.52965E+00
 -1      2401 1.37024E+00
 -1      2402 1.27764E+00
 -1      2403 1.66389E+00
 -1      2404 1.62750E+00
 -1      2405 1.52965E+00
 -1      2406 1.70028E+00
 -1      2407 1.70028E+00
 -1      2408 1.66389E+00
 -1      2409 1.62861E+00
 -1      2410 1.63331E+00
 -1      2411 1.63331E+00
 -1      2412 1.78793E+00
 -1      2413 1.69087E+00
 -1      2414 1.62861E+00
 -1      2415 1.67077E+00
 -1      2416 1.73240E+00
 -1      2417 1.63534E+00
 -1      2418 1.33376E+00
 -1      2419 1.55524E+00
 -1      2420 1.46428E+00
 -1      2421 9.30712E-01
 -1      2422 1.15151E+00
 -1      2423 1.16651E+00
 -1      2424 6.22820E-01
 -1      2425 7.80697E-01
 -1      2426 8.34240E-01
 -1      2427 5.05748E-01
 -1      2428 5.82359E-01
 -1      2429 6.43764E-01
 -1      2430 5.23054E-01
 -1      2431 4.61018E-01
 -1      2432 5.58573E-01
 -1      2433 5.71505E-01
 -1      2434 5.49037E-01
 -1      2435 5.39827E-01
 -1      2436 5.83881E-01
 -1      2437 5.71898E-01
 -1      2438 5.66203E-01
 -1      2439 5.48829E-01
 -1      2440 5.67608E-01
 -1      2441 5.50323E-01
 -1      2442 4.98217E-01
 -1      2443 5.28206E-01
 -1      2444 5.13427E-01
 -1      2445 4.38745E-01
 -1      2446 4.70686E-01
 -1      2447 4.65274E-01
 -1      2448 3.70047E-01
 -1      2449 4.07345E-01
 -1      2450 4.06343E-01
 -1      2451 2.99292E-01
 -1      2452 3.36525E-01
 -1      2453 3.41420E-01
 -1      2454 2.33296E-01
 -1      2455 2.67248E-01
 -1      2456 2.75853E-01
 -1      2457 1.75843E-01
 -1      2458 2.04753E-01
 -1      2459 2.15265E-01
 -1      2460 1.32764E-01
 -1      2461 1.51684E-01
 -1      2462 1.62563E-01
 -1      2463 9.74270E-02
 -1      2464 1.13124E-01
 -1      2465 1.18762E-01
 -1      2466 6.91621E-02
 -1      2467 8.19983E-02
 -1      2468 8.36927E-02
 -1      2469 4.80336E-02
 -1      2470 5.82093E-02
 -1      2471 5.73112E-02
 -1      2472 3.34011E-02
 -1      2473 4.12469E-02
 -1      2474 3.95716E-02
 -1      2475 2.48104E-02
 -1      2476 2.94139E-02
 -1      2477 2.87977E-02
 -1      2478 2.13855E-02
 -1      2479 2.30980E-02
 -1      2480 2.30980E-02
 -1      2481 1.79237E-02
 -1      2482 1.96546E-02
 -1      2483 1.96546E-02
 -1      2484 1.46538E-02
 -1      2485 1.62888E-02
 -1      2486 1.62888E-02
 -1      2487 1.17020E-02
 -1      2488 1.31779E-02
 -1      2489 1.31779E-02
 -1      2490 9.34553E-03
 -1      2491 1.05238E-02
 -1      2492 1.05238E-02
 -1      2493 8.05800E-03
 -1      2494 8.70176E-03
 -1      2495 8.70176E-03
 -1      2496 6.71860E-03
 -1      2497 7.38830E-03
 -1      2498 7.38830E-03
 -1      2499 5.44340E-03
 -1      2500 6.06934E-03
 -1      2501 6.06934E-03
 -1      2502 4.42299E-03
 -1      2503 4.88932E-03
 -1      2504 4.86601E-03
 -1      2505 3.48289E-03
 -1      2506 3.93558E-03
 -1      2507 3.82451E-03
 -1      2508 2.62954E-03
 -1      2509 3.05344E-03
 -1      2510 2.90764E-03
 -1      2511 1.99726E-03
 -1      2512 2.38340E-03
 -1      2513 2.23205E-03
 -1      2514 1.48706E-03
 -1      2515 1.71991E-03
 -1      2516 1.70857E-03
 -1      2517 1.29737E-03
 -1      2518 9.76258E-04
 -1      2519 8.97026E-04
 -1      2520 1.06018E-03
 -1      2521 1.02477E-03
 -1      2522 1.13247E-03
 -1      2523 8.41720E-04
 -1      2524 1.08818E-03
 -1      2525 9.55853E-04
 -1      2526 8.80252E-04
 -1      2527 1.16308E-03
 -1      2528 1.14278E-03
 -1      2529 1.06018E-03
 -1      2530 1.06018E-03
 -1      2531 1.18097E-03
 -1      2532 1.05503E-03
 -1      2533 1.05561E-03
 -1      2534 1.17639E-03
 -1      2535 1.06097E-03
 -1      2536 1.06097E-03
 -1      2537 1.17776E-03
 -1      2538 1.02800E-03
 -1      2539 1.06097E-03
 -1      2540 1.18371E-03
 -1      2541 9.04685E-04
 -1      2542 9.81438E-04
 -1      2543 1.13715E-03
 -1      2544 8.74212E-04
 -1      2545 9.53142E-04
 -1      2546 1.13904E-03
 -1      2547 9.50024E-04
 -1      2548 7.63260E-04
 -1      2549 1.07655E-03
 -1      2550 3.37555E+01
 -1      2551 3.37555E+01
 -1      2552 1.39978E+01
 -1      2553 1.89273E+01
 -1      2554 3.70651E-01
 -1      2555 3.33226E-01
 -1      2556 5.05363E-01
 -1      2557 1.05675E-03
 -1      2558 3.35134E+01
 -1      2559 3.32713E+01
 -1      2560 3.35134E+01
 -1      2561 2.27314E+01
 -1      2562 2.66224E+01
 -1      2563 1.84117E+01
 -1      2564 1.81347E+01
 -1      2565 9.47031E+00
 -1      2566 9.84683E+00
 -1      2567 6.64544E+00
 -1      2568 6.39658E+00
 -1      2569 1.37277E+01
 -1      2570 1.91990E+01
 -1      2571 5.40723E+00
 -1      2572 6.19864E+00
 -1      2573 7.04756E-01
 -1      2574 8.62721E-01
 -1      2575 1.04322E+00
 -1      2576 8.97340E-01
 -1      2577 7.08600E+00
 -1      2578 8.29856E+00
 -1      2579 5.08289E+00
 -1      2580 9.10629E+00
 -1      2581 8.63775E+00
 -1      2582 2.17793E+01
 -1      2583 2.32282E+01
 -1      2584 9.34651E+00
 -1      2585 9.60671E+00
 -1      2586 8.24174E+00
 -1      2587 5.84783E+00
 -1      2588 2.40291E+01
 -1      2589 1.80036E+01
 -1      2590 3.19910E+01
 -1      2591 2.88654E+01
 -1      2592 3.91354E+01
 -1      2593 3.91354E+01
 -1      2594 8.45882E+00
 -1      2595 7.07485E+00
 -1      2596 2.85512E+01
 -1      2597 3.38433E+01
 -1      2598 7.70186E+00
 -1      2599 1.11377E+01
 -1      2600 1.01545E+01
 -1      2601 6.25917E+00
 -1      2602 7.29776E+00
 -1      2603 8.44903E+00
 -1      2604 7.44994E+00
 -1      2605 9.69244E+00
 -1      2606 9.63369E+00
 -1      2607 6.98758E+00
 -1      2608 8.31683E+00
 -1      2609 5.34166E+00
 -1      2610 5.93988E+00
 -1      2611 9.21173E+00
 -1      2612 6.71627E+00
 -1      2613 5.08751E+00
 -1      2614 1.54672E+01
 -1      2615 1.08909E+01
 -1      2616 2.74696E+01
 -1      2617 2.16679E+01
 -1      2618 1.84117E+01
 -1      2619 2.74696E+01
 -1      2620 2.74129E+00
 -1      2621 2.11427E+00
 -1      2622 2.13841E+00
 -1      2623 2.42405E+00
 -1      2624 1.36983E+00
 -1      2625 1.58014E+00
 -1      2626 1.55311E+00
 -1      2627 1.30099E+00
 -1      2628 8.61064E+00
 -1      2629 1.20645E+01
 -1      2630 7.01820E+00
 -1      2631 2.13415E+00
 -1      2632 2.11978E+00
 -1      2633 2.64357E+00
 -1      2634 5.10484E-01
 -1      2635 1.50967E+00
 -1      2636 6.50981E+00
 -1      2637 2.32282E+01
 -1      2638 7.16289E+00
 -1      2639 8.14129E+00
 -1      2640 3.38433E+01
 -1      2641 3.19910E+01
 -1      2642 1.24152E-03
 -1      2643 9.94767E+00
 -1      2644 1.24152E-03
 -1      2645 2.00104E+01
 -1      2646 1.75766E+01
 -1      2647 2.47098E+01
 -1      2648 2.47098E+01
 -1      2649 1.56851E+01
 -1      2650 8.80364E+00
 -1      2651 5.63863E+00
 -1      2652 8.89885E+00
 -1      2653 1.40148E+00
 -1      2654 2.64357E+00
 -1      2655 1.24879E+01
 -1      2656 5.07078E+00
 -1      2657 4.63612E+00
 -1      2658 5.38330E+00
 -1      2659 1.53248E+01
 -1      2660 1.33856E+01
 -1      2661 5.37371E+00
 -1      2662 4.39349E+00
 -1      2663 5.52111E+00
 -1      2664 7.56573E+00
 -1      2665 1.09854E-03
 -1      2666 9.76245E-04
 -1      2667 9.91815E-04
 -1      2668 1.32335E-03
 -1      2669 1.27788E-03
 -1      2670 1.31781E-03
 -1      2671 1.26063E+00
 -1      2672 1.24069E+00
 -1      2673 1.24069E+00
 -1      2674 1.13559E+00
 -1      2675 1.35398E+00
 -1      2676 1.16354E+00
 -1      2677 1.18928E+00
 -1      2678 1.21985E+00
 -1      2679 1.07701E+00
 -1      2680 1.12475E+00
 -1      2681 8.58317E-01
 -1      2682 1.17162E+00
 -1      2683 2.69590E+00
 -1      2684 1.30099E+00
 -1      2685 1.57750E+01
 -1      2686 2.10981E+01
 -1      2687 2.69590E+00
 -1      2688 2.13841E+00
 -1      2689 2.21101E+00
 -1      2690 2.69590E+00
 -1      2691 2.14807E+00
 -1      2692 2.20556E+00
 -1      2693 2.13750E+00
 -1      2694 2.29535E+00
 -1      2695 2.50195E+00
 -1      2696 2.67482E+00
 -1      2697 2.84671E+00
 -1      2698 2.81337E+00
 -1      2699 3.46270E+00
 -1      2700 3.69833E+00
 -1      2701 3.80883E+00
 -1      2702 4.04346E+00
 -1      2703 4.25162E+00
 -1      2704 4.76996E+00
 -1      2705 4.41924E+00
 -1      2706 5.14977E+00
 -1      2707 6.32464E+00
 -1      2708 6.97812E+00
 -1      2709 7.13251E+00
 -1      2710 6.86965E+00
 -1      2711 4.49049E+00
 -1      2712 3.34265E+00
 -1      2713 4.82060E+00
 -1      2714 4.77607E+00
 -1      2715 3.33712E+00
 -1      2716 3.20774E+00
 -1      2717 5.37686E+00
 -1      2718 2.64837E+00
 -1      2719 2.43032E+00
 -1      2720 3.37853E+00
 -1      2721 2.15817E+00
 -1      2722 1.96922E+00
 -1      2723 2.54701E+00
 -1      2724 1.75282E+00
 -1      2725 1.66252E+00
 -1      2726 2.05845E+00
 -1      2727 1.46836E+00
 -1      2728 1.36859E+00
 -1      2729 1.64789E+00
 -1      2730 1.21533E+00
 -1      2731 1.10756E+00
 -1      2732 1.30048E+00
 -1      2733 9.81915E-01
 -1      2734 8.78957E-01
 -1      2735 1.02157E+00
 -1      2736 7.76734E-01
 -1      2737 6.85165E-01
 -1      2738 7.93703E-01
 -1      2739 6.06393E-01
 -1      2740 5.28706E-01
 -1      2741 6.12708E-01
 -1      2742 4.66003E-01
 -1      2743 4.02268E-01
 -1      2744 4.71233E-01
 -1      2745 3.52534E-01
 -1      2746 3.01563E-01
 -1      2747 3.58796E-01
 -1      2748 2.62390E-01
 -1      2749 2.22467E-01
 -1      2750 2.69888E-01
 -1      2751 1.91906E-01
 -1      2752 1.61201E-01
 -1      2753 2.00155E-01
 -1      2754 1.37633E-01
 -1      2755 1.14416E-01
 -1      2756 1.46027E-01
 -1      2757 9.64745E-02
 -1      2758 7.92169E-02
 -1      2759 1.04517E-01
 -1      2760 6.57527E-02
 -1      2761 5.31531E-02
 -1      2762 7.31108E-02
 -1      2763 4.32084E-02
 -1      2764 3.49667E-02
 -1      2765 4.97019E-02
 -1      2766 2.77523E-02
 -1      2767 2.29978E-02
 -1      2768 3.25427E-02
 -1      2769 1.78729E-02
 -1      2770 1.66546E-02
 -1      2771 2.02034E-02
 -1      2772 1.41860E-02
 -1      2773 1.28788E-02
 -1      2774 1.26100E-02
 -1      2775 1.26942E-02
 -1      2776 1.13953E-02
 -1      2777 9.95676E-03
 -1      2778 1.09558E-02
 -1      2779 9.74110E-03
 -1      2780 9.33253E-03
 -1      2781 9.17362E-03
 -1      2782 8.08248E-03
 -1      2783 8.32552E-03
 -1      2784 7.47073E-03
 -1      2785 6.82984E-03
 -1      2786 7.14630E-03
 -1      2787 6.23146E-03
 -1      2788 5.66483E-03
 -1      2789 5.93617E-03
 -1      2790 5.27487E-03
 -1      2791 4.71163E-03
 -1      2792 4.94783E-03
 -1      2793 4.30124E-03
 -1      2794 3.79630E-03
 -1      2795 4.14748E-03
 -1      2796 3.39652E-03
 -1      2797 2.96499E-03
 -1      2798 3.33730E-03
 -1      2799 2.59509E-03
 -1      2800 2.20876E-03
 -1      2801 2.56762E-03
 -1      2802 1.91870E-03
 -1      2803 1.61759E-03
 -1      2804 1.90765E-03
 -1      2805 1.09916E+00
 -1      2806 9.29913E-01
 -1      2807 1.53704E-03
 -1      2808 1.69037E-03
 -1      2809 1.96773E-03
 -1      2810 8.92821E-01
 -1      2811 7.82154E-01
 -1      2812 1.03775E+00
 -1      2813 1.55355E+00
 -1      2814 1.45570E+00
 -1      2815 1.83517E+00
 -1      2816 1.79878E+00
 -1      2817 1.72483E+00
 -1      2818 1.84121E+00
 -1      2819 1.90818E+00
 -1      2820 2.04306E+00
 -1      2821 1.89606E+00
 -1      2822 1.83379E+00
 -1      2823 2.10866E+00
 -1      2824 1.71564E+00
 -1      2825 1.77117E+00
 -1      2826 1.97636E+00
 -1      2827 1.38954E+00
 -1      2828 1.50506E+00
 -1      2829 1.64090E+00
 -1      2830 1.18483E+00
 -1      2831 1.36708E+00
 -1      2832 1.40786E+00
 -1      2833 8.86884E-01
 -1      2834 1.03690E+00
 -1      2835 1.23747E+00
 -1      2836 8.08782E-01
 -1      2837 8.49243E-01
 -1      2838 1.05190E+00
 -1      2839 6.60022E-01
 -1      2840 7.04752E-01
 -1      2841 9.10231E-01
 -1      2842 6.50189E-01
 -1      2843 6.24206E-01
 -1      2844 7.70385E-01
 -1      2845 6.25581E-01
 -1      2846 6.25188E-01
 -1      2847 7.09568E-01
 -1      2848 5.69567E-01
 -1      2849 5.85840E-01
 -1      2850 6.44825E-01
 -1      2851 5.10892E-01
 -1      2852 5.31514E-01
 -1      2853 5.67031E-01
 -1      2854 4.54944E-01
 -1      2855 4.82475E-01
 -1      2856 5.00562E-01
 -1      2857 3.90360E-01
 -1      2858 4.21760E-01
 -1      2859 4.38961E-01
 -1      2860 3.22223E-01
 -1      2861 3.55746E-01
 -1      2862 3.71164E-01
 -1      2863 2.57274E-01
 -1      2864 2.89319E-01
 -1      2865 3.03645E-01
 -1      2866 1.99297E-01
 -1      2867 2.27840E-01
 -1      2868 2.41306E-01
 -1      2869 1.49951E-01
 -1      2870 1.74111E-01
 -1      2871 1.86685E-01
 -1      2872 1.09506E-01
 -1      2873 1.29147E-01
 -1      2874 1.40695E-01
 -1      2875 7.73975E-02
 -1      2876 9.28262E-02
 -1      2877 1.03211E-01
 -1      2878 5.34235E-02
 -1      2879 6.43763E-02
 -1      2880 7.35099E-02
 -1      2881 3.67264E-02
 -1      2882 4.35131E-02
 -1      2883 5.05783E-02
 -1      2884 2.53854E-02
 -1      2885 2.93726E-02
 -1      2886 3.33141E-02
 -1      2887 1.89534E-02
 -1      2888 2.06659E-02
 -1      2889 2.12408E-02
 -1      2890 1.52101E-02
 -1      2891 1.69410E-02
 -1      2892 1.45089E-02
 -1      2893 1.30745E-02
 -1      2894 1.47095E-02
 -1      2895 1.19958E-02
 -1      2896 1.09164E-02
 -1      2897 1.23923E-02
 -1      2898 1.08130E-02
 -1      2899 8.98423E-03
 -1      2900 1.01625E-02
 -1      2901 9.37683E-03
 -1      2902 7.58660E-03
 -1      2903 8.23037E-03
 -1      2904 7.86907E-03
 -1      2905 6.26869E-03
 -1      2906 6.93839E-03
 -1      2907 6.46699E-03
 -1      2908 5.19558E-03
 -1      2909 5.84484E-03
 -1      2910 5.39493E-03
 -1      2911 4.19934E-03
 -1      2912 4.75342E-03
 -1      2913 4.52891E-03
 -1      2914 3.27922E-03
 -1      2915 3.76664E-03
 -1      2916 3.65405E-03
 -1      2917 2.49977E-03
 -1      2918 2.92923E-03
 -1      2919 2.87135E-03
 -1      2920 2.12667E-03
 -1      2921 2.37280E-03
 -1      2922 2.39439E-03
 -1      2923 2.10848E-03
 -1      2924 7.49950E+00
 -1      2925 9.43280E+00
 -1      2926 1.29357E-03
 -1      2927 1.29815E-03
 -1      2928 1.77433E-03
 -1      2929 1.47455E-03
 -1      2930 1.77433E-03
 -1      2931 1.30042E-03
 -1      2932 1.25191E-03
 -1      2933 1.29791E-03
 -1      2934 1.29197E-03
 -1      2935 1.41372E-03
 -1      2936 1.30042E-03
 -1      2937 1.30042E-03
 -1      2938 1.41987E-03
 -1      2939 1.41760E-03
 -1      2940 1.30290E-03
 -1      2941 1.30290E-03
 -1      2942 1.41711E-03
 -1      2943 1.25634E-03
 -1      2944 1.30290E-03
 -1      2945 1.42209E-03
 -1      2946 1.55928E-03
 -1      2947 1.51082E-03
 -1      2948 1.67658E-03
 -1      2949 1.12175E+01
 -1      2950 1.50217E+01
 -1      2951 8.76935E+00
 -1      2952 2.26400E+01
 -1      2953 2.23979E+01
 -1      2954 3.68490E+00
 -1      2955 3.24430E+00
 -1      2956 8.31814E+00
 -1      2957 6.63896E+00
 -1      2958 6.07592E-01
 -1      2959 5.49306E-01
 -1      2960 8.26098E-01
 -1      2961 1.43269E+00
 -1      2962 1.27853E+00
 -1      2963 1.25421E+00
 -1      2964 1.45659E+00
 -1      2965 5.10484E-01
 -1      2966 5.73890E-01
 -1      2967 8.58317E-01
 -1      2968 6.12713E-01
 -1      2969 1.21544E+01
 -1      2970 1.03659E+01
 -1      2971 5.15208E+00
 -1      2972 6.65664E+00
 -1      2973 1.14125E+01
 -1      2974 8.74505E+00
 -1      2975 5.93755E+00
 -1      2976 6.03513E+00
 -1      2977 1.25076E+00
 -1      2978 1.25076E+00
 -1      2979 1.34410E+00
 -1      2980 1.27276E+00
 -1      2981 1.44833E-03
 -1      2982 3.98982E+00
 -1      2983 1.88120E+01
 -1      2984 1.39757E+01
 -1      2985 1.13856E+01
 -1      2986 1.39659E+01
 -1      2987 1.18359E+01
 -1      2988 1.51200E+00
 -1      2989 1.69372E+00
 -1      2990 2.73819E+01
 -1      2991 2.02375E+01
 -1      2992 3.74338E+00
 -1      2993 4.63074E+00
 -1      2994 2.23603E+01
 -1      2995 2.76524E+01
 -1      2996 6.86941E+00
 -1      2997 6.36899E+00
 -1      2998 5.63019E+00
 -1      2999 6.67814E+00
 -1      3000 4.29069E+00
 -1      3001 3.38551E+00
 -1      3002 3.01526E+00
 -1      3003 2.94175E+00
 -1      3004 4.76012E+00
 -1      3005 4.17102E+00
 -1      3006 5.03449E+00
 -1      3007 2.05344E+00
 -1      3008 2.61519E+00
 -1      3009 2.17477E+00
 -1      3010 1.25752E+00
 -1      3011 1.03913E+00
 -1      3012 1.01926E+00
 -1      3013 1.15732E+01
 -1      3014 8.55345E+00
 -1      3015 1.03748E+01
 -1      3016 6.33977E+00
 -1      3017 2.63296E+00
 -1      3018 1.55928E-03
 -1      3019 5.24123E+00
 -1      3020 5.84838E+00
 -1      3021 1.68470E-03
 -1      3022 1.51675E-03
 -1      3023 1.57557E-03
 -1      3024 1.30654E+01
 -1      3025 2.39388E+01
 -1      3026 1.81371E+01
 -1      3027 6.14177E+00
 -1      3028 1.57557E-03
 -1      3029 4.38934E+00
 -1      3030 2.99752E+00
 -1      3031 4.95125E+00
 -1      3032 6.41958E+00
 -1      3033 5.22283E+00
 -1      3034 5.03157E+00
 -1      3035 1.51367E+01
 -1      3036 1.32241E+01
 -1      3037 1.06691E+01
 -1      3038 1.93107E-03
 -1      3039 1.27211E+00
 -1      3040 1.09048E+00
 -1      3041 2.24507E+01
 -1      3042 1.13352E+01
 -1      3043 1.34050E+01
 -1      3044 7.66760E+00
 -1      3045 7.24272E+00
 -1      3046 2.79216E+00
 -1      3047 4.29577E+00
 -1      3048 1.32932E+01
 -1      3049 9.55035E+00
 -1      3050 1.65495E+01
 -1      3051 1.33875E+00
 -1      3052 1.50450E+00
 -1      3053 1.80754E+00
 -1      3054 1.48055E+00
 -1      3055 3.91846E+00
 -1      3056 4.06529E+00
 -1      3057 3.30671E+00
 -1      3058 1.49072E+01
 -1      3059 1.58989E+01
 -1      3060 9.93875E+00
 -1      3061 8.57985E+00
 -1      3062 1.42028E+01
 -1      3063 7.34872E+00
 -1      3064 1.10359E+00
 -1      3065 1.19013E+00
 -1      3066 2.61519E+00
 -1      3067 2.73938E+00
 -1      3068 2.67132E+00
 -1      3069 3.29472E+00
 -1      3070 3.67420E+00
 -1      3071 3.53215E+00
 -1      3072 4.39136E+00
 -1      3073 5.00735E+00
 -1      3074 4.87272E+00
 -1      3075 5.77890E+00
 -1      3076 6.12404E+00
 -1      3077 2.63296E+00
 -1      3078 2.57001E+00
 -1      3079 2.73938E+00
 -1      3080 2.55225E+00
 -1      3081 4.67268E+00
 -1      3082 4.11330E+00
 -1      3083 3.28582E+00
 -1      3084 3.01367E+00
 -1      3085 4.57996E+00
 -1      3086 2.36108E+00
 -1      3087 2.14467E+00
 -1      3088 3.09989E+00
 -1      3089 1.81241E+00
 -1      3090 1.61826E+00
 -1      3091 2.11504E+00
 -1      3092 1.41216E+00
 -1      3093 1.25890E+00
 -1      3094 1.57668E+00
 -1      3095 1.11539E+00
 -1      3096 9.89746E-01
 -1      3097 1.22707E+00
 -1      3098 8.69737E-01
 -1      3099 7.67514E-01
 -1      3100 9.63557E-01
 -1      3101 6.69110E-01
 -1      3102 5.90338E-01
 -1      3103 7.45143E-01
 -1      3104 5.11498E-01
 -1      3105 4.48796E-01
 -1      3106 5.67900E-01
 -1      3107 3.86633E-01
 -1      3108 3.36899E-01
 -1      3109 4.26899E-01
 -1      3110 2.88551E-01
 -1      3111 2.49378E-01
 -1      3112 3.16389E-01
 -1      3113 2.12229E-01
 -1      3114 1.81668E-01
 -1      3115 2.30891E-01
 -1      3116 1.53469E-01
 -1      3117 1.29901E-01
 -1      3118 1.65543E-01
 -1      3119 1.09373E-01
 -1      3120 9.14313E-02
 -1      3121 1.16815E-01
 -1      3122 7.65784E-02
 -1      3123 6.31142E-02
 -1      3124 8.14346E-02
 -1      3125 5.22079E-02
 -1      3126 4.22631E-02
 -1      3127 5.56754E-02
 -1      3128 3.45809E-02
 -1      3129 2.73665E-02
 -1      3130 3.70869E-02
 -1      3131 2.22261E-02
 -1      3132 1.71012E-02
 -1      3133 2.42643E-02
 -1      3134 1.34068E-02
 -1      3135 1.09383E-02
 -1      3136 1.54295E-02
 -1      3137 8.35023E-03
 -1      3138 8.16554E-03
 -1      3139 9.14703E-03
 -1      3140 7.74258E-03
 -1      3141 7.30304E-03
 -1      3142 6.13605E-03
 -1      3143 7.39425E-03
 -1      3144 6.82678E-03
 -1      3145 5.80430E-03
 -1      3146 6.67498E-03
 -1      3147 6.06323E-03
 -1      3148 5.74371E-03
 -1      3149 5.77211E-03
 -1      3150 5.17373E-03
 -1      3151 5.30080E-03
 -1      3152 4.81417E-03
 -1      3153 4.42421E-03
 -1      3154 4.65012E-03
 -1      3155 4.10413E-03
 -1      3156 3.69373E-03
 -1      3157 3.97047E-03
 -1      3158 3.41651E-03
 -1      3159 3.01673E-03
 -1      3160 3.37316E-03
 -1      3161 2.71955E-03
 -1      3162 2.34965E-03
 -1      3163 2.79876E-03
 -1      3164 2.13218E-03
 -1      3165 1.84212E-03
 -1      3166 2.28412E-03
 -1      3167 1.38349E+00
 -1      3168 1.34640E+00
 -1      3169 2.36774E+00
 -1      3170 2.29473E+00
 -1      3171 2.39896E+00
 -1      3172 2.15373E+00
 -1      3173 2.72363E+00
 -1      3174 2.63499E+00
 -1      3175 2.75987E+00
 -1      3176 1.90801E+00
 -1      3177 2.11859E+00
 -1      3178 2.90210E+00
 -1      3179 1.65430E+00
 -1      3180 1.67677E+00
 -1      3181 2.15446E+00
 -1      3182 1.44380E+00
 -1      3183 1.59173E+00
 -1      3184 1.86063E+00
 -1      3185 1.29516E+00
 -1      3186 1.33280E+00
 -1      3187 1.68706E+00
 -1      3188 9.89750E-01
 -1      3189 1.09378E+00
 -1      3190 1.37468E+00
 -1      3191 8.94402E-01
 -1      3192 9.30219E-01
 -1      3193 1.11377E+00
 -1      3194 7.90909E-01
 -1      3195 8.15911E-01
 -1      3196 9.75744E-01
 -1      3197 6.70446E-01
 -1      3198 7.10188E-01
 -1      3199 8.16531E-01
 -1      3200 5.74900E-01
 -1      3201 6.12953E-01
 -1      3202 6.78316E-01
 -1      3203 5.01883E-01
 -1      3204 5.30299E-01
 -1      3205 5.76221E-01
 -1      3206 4.25242E-01
 -1      3207 4.58426E-01
 -1      3208 4.88164E-01
 -1      3209 3.48647E-01
 -1      3210 3.83261E-01
 -1      3211 4.02726E-01
 -1      3212 2.78026E-01
 -1      3213 3.10931E-01
 -1      3214 3.23028E-01
 -1      3215 2.17333E-01
 -1      3216 2.46767E-01
 -1      3217 2.54053E-01
 -1      3218 1.66129E-01
 -1      3219 1.91314E-01
 -1      3220 1.96776E-01
 -1      3221 1.24140E-01
 -1      3222 1.44944E-01
 -1      3223 1.49573E-01
 -1      3224 9.05502E-02
 -1      3225 1.07230E-01
 -1      3226 1.11479E-01
 -1      3227 6.42830E-02
 -1      3228 7.73042E-02
 -1      3229 8.13233E-02
 -1      3230 4.41894E-02
 -1      3231 5.40998E-02
 -1      3232 5.78941E-02
 -1      3233 2.91521E-02
 -1      3234 3.65059E-02
 -1      3235 4.00274E-02
 -1      3236 1.87523E-02
 -1      3237 2.34718E-02
 -1      3238 2.66635E-02
 -1      3239 1.26344E-02
 -1      3240 1.46469E-02
 -1      3241 1.68779E-02
 -1      3242 9.53296E-03
 -1      3243 1.00336E-02
 -1      3244 1.01716E-02
 -1      3245 8.50347E-03
 -1      3246 9.18570E-03
 -1      3247 7.22348E-03
 -1      3248 7.69454E-03
 -1      3249 8.44843E-03
 -1      3250 6.82118E-03
 -1      3251 6.67474E-03
 -1      3252 7.42861E-03
 -1      3253 6.50021E-03
 -1      3254 5.64551E-03
 -1      3255 6.29372E-03
 -1      3256 5.85326E-03
 -1      3257 4.79136E-03
 -1      3258 5.21521E-03
 -1      3259 5.04194E-03
 -1      3260 4.01040E-03
 -1      3261 4.45257E-03
 -1      3262 4.27285E-03
 -1      3263 3.26268E-03
 -1      3264 3.69538E-03
 -1      3265 3.61903E-03
 -1      3266 2.59000E-03
 -1      3267 2.94000E-03
 -1      3268 2.98133E-03
 -1      3269 1.53058E-03
 -1      3270 1.52560E-03
 -1      3271 1.98462E-03
 -1      3272 1.73013E-03
 -1      3273 1.48022E-03
 -1      3274 1.48182E-03
 -1      3275 1.59370E-03
 -1      3276 3.29124E+00
 -1      3277 4.29069E+00
 -1      3278 2.56047E+00
 -1      3279 3.05955E+00
 -1      3280 6.26885E+00
 -1      3281 8.05358E+00
 -1      3282 4.54558E+00
 -1      3283 4.11414E+00
 -1      3284 1.04189E+00
 -1      3285 8.67332E-01
 -1      3286 1.38763E+00
 -1      3287 1.61140E-03
 -1      3288 1.61140E-03
 -1      3289 1.71989E-03
 -1      3290 1.91944E-03
 -1      3291 2.10866E+00
 -1      3292 2.11607E+00
 -1      3293 2.36774E+00
 -1      3294 2.76728E+00
 -1      3295 5.80377E+00
 -1      3296 4.93697E+00
 -1      3297 9.93225E-01
 -1      3298 9.40959E-01
 -1      3299 1.00634E+00
 -1      3300 7.08798E-01
 -1      3301 1.94953E-03
 -1      3302 1.27564E+01
 -1      3303 1.13309E+01
 -1      3304 1.14995E+01
 -1      3305 1.27617E+01
 -1      3306 1.29011E+01
 -1      3307 1.26306E+01
 -1      3308 9.75863E+00
 -1      3309 7.27367E+00
 -1      3310 5.80661E+00
 -1      3311 9.01659E+00
 -1      3312 1.08257E+01
 -1      3313 8.68018E+00
 -1      3314 5.17044E+00
 -1      3315 6.01329E+00
 -1      3316 6.36143E+00
 -1      3317 7.80830E+00
 -1      3318 1.56542E+00
 -1      3319 1.56542E+00
 -1      3320 4.11414E+00
 -1      3321 3.60012E+00
 -1      3322 3.12508E+00
 -1      3323 6.53854E+00
 -1      3324 1.58340E+00
 -1      3325 1.48694E+00
 -1      3326 1.79485E+00
 -1      3327 9.48700E+00
 -1      3328 7.08444E+00
 -1      3329 8.04053E+00
 -1      3330 2.77665E+00
 -1      3331 4.01028E+00
 -1      3332 3.88180E+00
 -1      3333 1.64910E-03
 -1      3334 1.91393E-03
 -1      3335 1.02980E+01
 -1      3336 1.18389E+01
 -1      3337 1.96595E-03
 -1      3338 1.96595E-03
 -1      3339 2.12489E-03
 -1      3340 1.93035E-03
 -1      3341 1.38588E+00
 -1      3342 1.69453E+00
 -1      3343 1.56524E+00
 -1      3344 8.64783E-01
 -1      3345 8.25960E-01
 -1      3346 9.60868E-01
 -1      3347 1.08058E+00
 -1      3348 2.66185E+00
 -1      3349 1.98772E+00
 -1      3350 1.96471E+00
 -1      3351 4.03212E+00
 -1      3352 2.33063E-03
 -1      3353 2.45760E-03
 -1      3354 2.52625E-03
 -1      3355 2.18811E-03
 -1      3356 1.54910E-03
 -1      3357 1.54910E-03
 -1      3358 1.77833E-03
 -1      3359 3.05955E+00
 -1      3360 1.49406E-03
 -1      3361 1.49633E-03
 -1      3362 1.62556E-03
 -1      3363 1.56055E-03
 -1      3364 4.55733E+00
 -1      3365 8.16115E+00
 -1      3366 8.27618E+00
 -1      3367 5.66065E+00
 -1      3368 1.16846E+01
 -1      3369 9.42553E+00
 -1      3370 9.24468E+00
 -1      3371 1.99886E-03
 -1      3372 1.99886E-03
 -1      3373 3.41849E+00
 -1      3374 9.09395E+00
 -1      3375 9.28330E+00
 -1      3376 8.05679E+00
 -1      3377 6.56694E+00
 -1      3378 7.14815E+00
 -1      3379 5.28716E+00
 -1      3380 2.99752E+00
 -1      3381 2.29307E+00
 -1      3382 2.56047E+00
 -1      3383 1.53799E+00
 -1      3384 1.74944E+00
 -1      3385 1.52812E+00
 -1      3386 5.29752E+00
 -1      3387 1.30187E+01
 -1      3388 1.22886E+01
 -1      3389 9.02034E+00
 -1      3390 8.88087E+00
 -1      3391 2.05241E-03
 -1      3392 1.33808E+00
 -1      3393 1.39955E+00
 -1      3394 1.59344E+00
 -1      3395 1.31692E+00
 -1      3396 2.08493E+00
 -1      3397 2.44465E+00
 -1      3398 2.46241E+00
 -1      3399 1.99143E+00
 -1      3400 1.99894E+00
 -1      3401 2.26882E+00
 -1      3402 6.28170E+00
 -1      3403 6.99886E+00
 -1      3404 2.95533E+00
 -1      3405 3.05955E+00
 -1      3406 7.23949E+00
 -1      3407 6.41200E+00
 -1      3408 9.46301E+00
 -1      3409 1.22304E+01
 -1      3410 1.06428E+01
 -1      3411 4.63824E+00
 -1      3412 3.98565E+00
 -1      3413 7.29777E+00
 -1      3414 2.45092E+00
 -1      3415 2.11866E+00
 -1      3416 3.98928E+00
 -1      3417 1.78278E+00
 -1      3418 1.57668E+00
 -1      3419 2.11866E+00
 -1      3420 1.35081E+00
 -1      3421 1.20730E+00
 -1      3422 1.55691E+00
 -1      3423 1.04257E+00
 -1      3424 9.22557E-01
 -1      3425 1.16630E+00
 -1      3426 8.00452E-01
 -1      3427 7.02047E-01
 -1      3428 8.79461E-01
 -1      3429 6.09909E-01
 -1      3430 5.31070E-01
 -1      3431 6.65217E-01
 -1      3432 4.60554E-01
 -1      3433 3.98392E-01
 -1      3434 5.02563E-01
 -1      3435 3.44089E-01
 -1      3436 2.95741E-01
 -1      3437 3.77744E-01
 -1      3438 2.53877E-01
 -1      3439 2.16728E-01
 -1      3440 2.81578E-01
 -1      3441 1.84512E-01
 -1      3442 1.56313E-01
 -1      3443 2.07498E-01
 -1      3444 1.31713E-01
 -1      3445 1.11185E-01
 -1      3446 1.50682E-01
 -1      3447 9.25751E-02
 -1      3448 7.77222E-02
 -1      3449 1.07472E-01
 -1      3450 6.39378E-02
 -1      3451 5.30315E-02
 -1      3452 7.50782E-02
 -1      3453 4.33770E-02
 -1      3454 3.56948E-02
 -1      3455 5.16394E-02
 -1      3456 2.85812E-02
 -1      3457 2.34408E-02
 -1      3458 3.48713E-02
 -1      3459 1.82968E-02
 -1      3460 1.46023E-02
 -1      3461 2.26136E-02
 -1      3462 1.10010E-02
 -1      3463 8.41293E-03
 -1      3464 1.38682E-02
 -1      3465 5.96248E-03
 -1      3466 5.53952E-03
 -1      3467 7.81641E-03
 -1      3468 4.42073E-03
 -1      3469 4.51194E-03
 -1      3470 4.24717E-03
 -1      3471 4.87793E-03
 -1      3472 4.72613E-03
 -1      3473 3.49436E-03
 -1      3474 4.80683E-03
 -1      3475 4.51570E-03
 -1      3476 3.94104E-03
 -1      3477 4.41713E-03
 -1      3478 4.05757E-03
 -1      3479 3.92316E-03
 -1      3480 3.85446E-03
 -1      3481 3.53437E-03
 -1      3482 3.62147E-03
 -1      3483 3.28055E-03
 -1      3484 3.00332E-03
 -1      3485 3.16453E-03
 -1      3486 2.81095E-03
 -1      3487 2.51377E-03
 -1      3488 2.71833E-03
 -1      3489 2.31973E-03
 -1      3490 2.10227E-03
 -1      3491 2.08803E-03
 -1      3492 2.33192E-03
 -1      3493 2.13447E+00
 -1      3494 2.36572E+00
 -1      3495 1.83465E+00
 -1      3496 1.94565E+00
 -1      3497 1.53633E+00
 -1      3498 1.73771E+00
 -1      3499 1.99631E+00
 -1      3500 1.30916E+00
 -1      3501 1.36869E+00
 -1      3502 1.73172E+00
 -1      3503 1.05447E+00
 -1      3504 1.13296E+00
 -1      3505 1.38789E+00
 -1      3506 8.49959E-01
 -1      3507 9.30680E-01
 -1      3508 1.08790E+00
 -1      3509 7.03723E-01
 -1      3510 7.61217E-01
 -1      3511 8.75366E-01
 -1      3512 5.77665E-01
 -1      3513 6.22266E-01
 -1      3514 7.05167E-01
 -1      3515 4.70983E-01
 -1      3516 5.14439E-01
 -1      3517 5.60485E-01
 -1      3518 3.78320E-01
 -1      3519 4.20301E-01
 -1      3520 4.46577E-01
 -1      3521 3.02834E-01
 -1      3522 3.40550E-01
 -1      3523 3.58126E-01
 -1      3524 2.40666E-01
 -1      3525 2.71925E-01
 -1      3526 2.89447E-01
 -1      3527 1.86796E-01
 -1      3528 2.12814E-01
 -1      3529 2.30686E-01
 -1      3530 1.41625E-01
 -1      3531 1.62810E-01
 -1      3532 1.78848E-01
 -1      3533 1.04845E-01
 -1      3534 1.21755E-01
 -1      3535 1.34992E-01
 -1      3536 7.56226E-02
 -1      3537 8.88686E-02
 -1      3538 9.91448E-02
 -1      3539 5.30920E-02
 -1      3540 6.32751E-02
 -1      3541 7.08205E-02
 -1      3542 3.64086E-02
 -1      3543 4.40921E-02
 -1      3544 4.94732E-02
 -1      3545 2.39325E-02
 -1      3546 2.96127E-02
 -1      3547 3.36775E-02
 -1      3548 1.48266E-02
 -1      3549 1.89320E-02
 -1      3550 2.18812E-02
 -1      3551 8.69300E-03
 -1      3552 1.12939E-02
 -1      3553 1.33480E-02
 -1      3554 5.92405E-03
 -1      3555 6.27131E-03
 -1      3556 7.39357E-03
 -1      3557 5.31373E-03
 -1      3558 5.36877E-03
 -1      3559 4.41660E-03
 -1      3560 5.34335E-03
 -1      3561 5.60928E-03
 -1      3562 4.15686E-03
 -1      3563 4.98359E-03
 -1      3564 5.36461E-03
 -1      3565 4.47367E-03
 -1      3566 4.40351E-03
 -1      3567 4.83381E-03
 -1      3568 4.34516E-03
 -1      3569 3.81755E-03
 -1      3570 4.15635E-03
 -1      3571 3.94822E-03
 -1      3572 3.23473E-03
 -1      3573 3.54976E-03
 -1      3574 3.43326E-03
 -1      3575 2.69798E-03
 -1      3576 3.02066E-03
 -1      3577 2.95139E-03
 -1      3578 4.32486E+00
 -1      3579 3.46949E+00
 -1      3580 2.76505E+00
 -1      3581 1.81688E+00
 -1      3582 1.51237E+00
 -1      3583 3.83744E+00
 -1      3584 4.28727E+00
 -1      3585 6.79818E+00
 -1      3586 8.41926E+00
 -1      3587 3.69621E+00
 -1      3588 1.48694E+00
 -1      3589 1.80643E+00
 -1      3590 1.99782E+00
 -1      3591 1.81282E+00
 -1      3592 1.72823E-03
 -1      3593 1.68285E-03
 -1      3594 2.09097E+00
 -1      3595 2.15355E+00
 -1      3596 2.36481E+00
 -1      3597 2.23856E+00
 -1      3598 4.24188E+00
 -1      3599 4.49744E+00
 -1      3600 3.16019E+00
 -1      3601 3.56693E+00
 -1      3602 4.19034E+00
 -1      3603 6.31648E+00
 -1      3604 7.53192E+00
 -1      3605 7.65772E+00
 -1      3606 8.20716E+00
 -1      3607 8.88087E+00
 -1      3608 2.88212E+00
 -1      3609 2.58870E+00
 -1      3610 2.82786E+00
 -1      3611 2.66185E+00
 -1      3612 7.06011E+00
 -1      3613 5.21620E+00
 -1      3614 4.83340E+00
 -1      3615 2.53369E+00
 -1      3616 4.40406E+00
 -1      3617 4.52959E+00
 -1      3618 3.44176E+00
 -1      3619 1.68327E-03
 -1      3620 1.54873E-03
 -1      3621 1.56097E-03
 -1      3622 2.66374E+00
 -1      3623 2.74973E+00
 -1      3624 2.02080E-03
 -1      3625 2.07282E-03
 -1      3626 2.27855E-03
 -1      3627 2.90210E+00
 -1      3628 1.76649E-03
 -1      3629 1.86649E-03
 -1      3630 2.00896E-03
 -1      3631 1.80905E-03
 -1      3632 1.72823E-03
 -1      3633 1.81739E-03
 -1      3634 1.71597E+00
 -1      3635 1.71342E+00
 -1      3636 2.14522E+00
 -1      3637 2.12813E+00
 -1      3638 2.14610E+00
 -1      3639 3.57578E+00
 -1      3640 4.63141E+00
 -1      3641 4.73898E+00
 -1      3642 3.41849E+00
 -1      3643 2.09638E+00
 -1      3644 2.66472E+00
 -1      3645 2.78946E+00
 -1      3646 2.66710E+00
 -1      3647 3.68489E+00
 -1      3648 3.28996E+00
 -1      3649 2.12813E+00
 -1      3650 2.47938E+00
 -1      3651 2.10069E+00
 -1      3652 2.40468E-03
 -1      3653 2.53708E-03
 -1      3654 2.57641E-03
 -1      3655 2.28939E-03
 -1      3656 8.13201E+00
 -1      3657 6.59254E+00
 -1      3658 5.62404E+00
 -1      3659 6.82723E+00
 -1      3660 8.54755E+00
 -1      3661 6.49565E+00
 -1      3662 1.97088E-03
 -1      3663 1.85214E-03
 -1      3664 1.86048E-03
 -1      3665 2.02073E-03
 -1      3666 6.42227E+00
 -1      3667 5.01696E+00
 -1      3668 5.53446E+00
 -1      3669 7.57945E+00
 -1      3670 8.59419E+00
 -1      3671 2.77441E+00
 -1      3672 3.93458E+00
 -1      3673 3.13450E+00
 -1      3674 9.07153E+00
 -1      3675 9.46301E+00
 -1      3676 1.34258E+00
 -1      3677 1.50521E+00
 -1      3678 1.65317E+00
 -1      3679 1.45974E+00
 -1      3680 8.40784E+00
 -1      3681 6.91942E+00
 -1      3682 7.53192E+00
 -1      3683 5.43101E+00
 -1      3684 3.39757E+00
 -1      3685 1.02513E+01
 -1      3686 3.44453E+00
 -1      3687 8.59419E+00
 -1      3688 5.94356E+00
 -1      3689 6.48096E+00
 -1      3690 5.39716E+00
 -1      3691 2.88093E+00
 -1      3692 3.36185E+00
 -1      3693 2.69593E+00
 -1      3694 6.82044E+00
 -1      3695 5.26763E+00
 -1      3696 3.73290E+00
 -1      3697 2.29131E+00
 -1      3698 1.95542E+00
 -1      3699 3.56967E+00
 -1      3700 1.63781E+00
 -1      3701 1.41194E+00
 -1      3702 1.81045E+00
 -1      3703 1.20029E+00
 -1      3704 1.03556E+00
 -1      3705 1.28119E+00
 -1      3706 8.95921E-01
 -1      3707 7.73815E-01
 -1      3708 9.29910E-01
 -1      3709 6.76176E-01
 -1      3710 5.84037E-01
 -1      3711 6.92636E-01
 -1      3712 5.12248E-01
 -1      3713 4.41732E-01
 -1      3714 5.23207E-01
 -1      3715 3.87317E-01
 -1      3716 3.33014E-01
 -1      3717 3.97002E-01
 -1      3718 2.91137E-01
 -1      3719 2.49273E-01
 -1      3720 3.00709E-01
 -1      3721 2.16635E-01
 -1      3722 1.84419E-01
 -1      3723 2.26194E-01
 -1      3724 1.59060E-01
 -1      3725 1.34460E-01
 -1      3726 1.68197E-01
 -1      3727 1.14883E-01
 -1      3728 9.62735E-02
 -1      3729 1.23261E-01
 -1      3730 8.13521E-02
 -1      3731 6.75677E-02
 -1      3732 8.87630E-02
 -1      3733 5.63411E-02
 -1      3734 4.66867E-02
 -1      3735 6.26150E-02
 -1      3736 3.85323E-02
 -1      3737 3.14186E-02
 -1      3738 4.32340E-02
 -1      3739 2.56719E-02
 -1      3740 2.05279E-02
 -1      3741 2.93329E-02
 -1      3742 1.63091E-02
 -1      3743 1.27077E-02
 -1      3744 1.93674E-02
 -1      3745 9.69124E-03
 -1      3746 7.24079E-03
 -1      3747 1.21321E-02
 -1      3748 5.19099E-03
 -1      3749 4.07220E-03
 -1      3750 7.06583E-03
 -1      3751 2.89015E-03
 -1      3752 3.25613E-03
 -1      3753 3.83397E-03
 -1      3754 3.21438E-03
 -1      3755 3.29507E-03
 -1      3756 2.61016E-03
 -1      3757 3.47389E-03
 -1      3758 3.37531E-03
 -1      3759 2.74723E-03
 -1      3760 3.37415E-03
 -1      3761 3.17103E-03
 -1      3762 2.92488E-03
 -1      3763 3.05777E-03
 -1      3764 2.80394E-03
 -1      3765 2.81044E-03
 -1      3766 2.62951E-03
 -1      3767 2.43714E-03
 -1      3768 2.52275E-03
 -1      3769 2.31106E-03
 -1      3770 2.11702E-03
 -1      3771 1.99987E-03
 -1      3772 2.22224E-03
 -1      3773 1.98504E+00
 -1      3774 2.15269E+00
 -1      3775 1.17346E+00
 -1      3776 1.29725E+00
 -1      3777 9.06761E-01
 -1      3778 9.95503E-01
 -1      3779 1.20486E+00
 -1      3780 6.89982E-01
 -1      3781 7.71439E-01
 -1      3782 8.91576E-01
 -1      3783 5.48599E-01
 -1      3784 6.11825E-01
 -1      3785 6.78097E-01
 -1      3786 4.40181E-01
 -1      3787 4.90863E-01
 -1      3788 5.42203E-01
 -1      3789 3.58126E-01
 -1      3790 3.95895E-01
 -1      3791 4.40181E-01
 -1      3792 2.87387E-01
 -1      3793 3.18295E-01
 -1      3794 3.56065E-01
 -1      3795 2.25426E-01
 -1      3796 2.53278E-01
 -1      3797 2.82126E-01
 -1      3798 1.72721E-01
 -1      3799 1.96707E-01
 -1      3800 2.19299E-01
 -1      3801 1.29302E-01
 -1      3802 1.49172E-01
 -1      3803 1.67031E-01
 -1      3804 9.44924E-02
 -1      3805 1.10469E-01
 -1      3806 1.24649E-01
 -1      3807 6.73587E-02
 -1      3808 7.97062E-02
 -1      3809 9.10307E-02
 -1      3810 4.69472E-02
 -1      3811 5.59471E-02
 -1      3812 6.48328E-02
 -1      3813 3.17236E-02
 -1      3814 3.85195E-02
 -1      3815 4.49934E-02
 -1      3816 2.07371E-02
 -1      3817 2.57375E-02
 -1      3818 3.05795E-02
 -1      3819 1.27892E-02
 -1      3820 1.63219E-02
 -1      3821 2.01782E-02
 -1      3822 7.19051E-03
 -1      3823 9.61221E-03
 -1      3824 1.25861E-02
 -1      3825 4.43292E-03
 -1      3826 4.98820E-03
 -1      3827 7.20683E-03
 -1      3828 3.62239E-03
 -1      3829 3.32684E-03
 -1      3830 3.89844E-03
 -1      3831 3.73209E-03
 -1      3832 3.71083E-03
 -1      3833 2.88080E-03
 -1      3834 3.73971E-03
 -1      3835 3.88949E-03
 -1      3836 3.12664E-03
 -1      3837 3.46629E-03
 -1      3838 3.71345E-03
 -1      3839 3.25779E-03
 -1      3840 3.05871E-03
 -1      3841 3.32651E-03
 -1      3842 3.09175E-03
 -1      3843 2.64064E-03
 -1      3844 2.85471E-03
 -1      3845 2.74797E-03
 -1      3846 2.86644E+00
 -1      3847 2.39446E+00
 -1      3848 2.49585E+00
 -1      3849 2.09638E+00
 -1      3850 2.50897E+00
 -1      3851 7.03325E+00
 -1      3852 7.03325E+00
 -1      3853 5.54484E+00
 -1      3854 4.94189E+00
 -1      3855 4.40166E+00
 -1      3856 1.63013E-03
 -1      3857 1.68291E-03
 -1      3858 1.77107E-03
 -1      3859 1.61831E-03
 -1      3860 2.42376E+00
 -1      3861 2.09048E+00
 -1      3862 2.09048E+00
 -1      3863 1.49754E+00
 -1      3864 1.67373E+00
 -1      3865 1.58310E+00
 -1      3866 6.56406E+00
 -1      3867 3.16019E+00
 -1      3868 3.41849E+00
 -1      3869 2.55276E+00
 -1      3870 1.90685E+00
 -1      3871 2.03541E+00
 -1      3872 2.41410E+00
 -1      3873 1.87337E-03
 -1      3874 1.87337E-03
 -1      3875 4.46514E+00
 -1      3876 3.70756E+00
 -1      3877 4.32047E+00
 -1      3878 1.83025E-03
 -1      3879 1.69613E-03
 -1      3880 1.88623E-03
 -1      3881 4.96360E+00
 -1      3882 6.07627E+00
 -1      3883 5.19830E+00
 -1      3884 2.65546E+00
 -1      3885 2.59984E+00
 -1      3886 4.93345E+00
 -1      3887 4.27128E+00
 -1      3888 3.95303E+00
 -1      3889 2.14522E+00
 -1      3890 2.34882E+00
 -1      3891 2.13066E-03
 -1      3892 2.25678E-03
 -1      3893 1.97635E-03
 -1      3894 3.75484E+00
 -1      3895 4.78407E+00
 -1      3896 4.63990E+00
 -1      3897 2.34616E+00
 -1      3898 2.44310E+00
 -1      3899 3.06657E+00
 -1      3900 2.81007E+00
 -1      3901 2.46022E+00
 -1      3902 2.60554E+00
 -1      3903 2.59948E+00
 -1      3904 3.07483E+00
 -1      3905 3.07483E+00
 -1      3906 2.09470E+00
 -1      3907 4.61885E+00
 -1      3908 3.11738E+00
 -1      3909 2.09514E+00
 -1      3910 3.25135E+00
 -1      3911 2.66185E+00
 -1      3912 4.50502E+00
 -1      3913 4.50502E+00
 -1      3914 2.09514E+00
 -1      3915 2.39459E-03
 -1      3916 2.55550E-03
 -1      3917 2.45882E-03
 -1      3918 2.23587E-03
 -1      3919 3.90741E+00
 -1      3920 2.85513E+00
 -1      3921 3.05873E+00
 -1      3922 3.43716E+00
 -1      3923 3.70297E+00
 -1      3924 2.97359E+00
 -1      3925 3.78165E+00
 -1      3926 2.34006E+00
 -1      3927 3.64189E+00
 -1      3928 1.82164E+00
 -1      3929 1.50402E+00
 -1      3930 2.03363E+00
 -1      3931 1.27610E+00
 -1      3932 1.06446E+00
 -1      3933 1.28729E+00
 -1      3934 9.19204E-01
 -1      3935 7.79568E-01
 -1      3936 9.14118E-01
 -1      3937 6.80825E-01
 -1      3938 5.83185E-01
 -1      3939 6.70118E-01
 -1      3940 5.10536E-01
 -1      3941 4.38746E-01
 -1      3942 4.98725E-01
 -1      3943 3.87369E-01
 -1      3944 3.32954E-01
 -1      3945 3.74698E-01
 -1      3946 2.93738E-01
 -1      3947 2.51861E-01
 -1      3948 2.84106E-01
 -1      3949 2.21992E-01
 -1      3950 1.89354E-01
 -1      3951 2.15022E-01
 -1      3952 1.66822E-01
 -1      3953 1.41463E-01
 -1      3954 1.62621E-01
 -1      3955 1.23129E-01
 -1      3956 1.03552E-01
 -1      3957 1.21754E-01
 -1      3958 8.97092E-02
 -1      3959 7.47879E-02
 -1      3960 8.95766E-02
 -1      3961 6.40913E-02
 -1      3962 5.28647E-02
 -1      3963 6.50376E-02
 -1      3964 4.46836E-02
 -1      3965 3.65293E-02
 -1      3966 4.61600E-02
 -1      3967 3.04523E-02
 -1      3968 2.47056E-02
 -1      3969 3.19019E-02
 -1      3970 2.06683E-02
 -1      3971 1.64495E-02
 -1      3972 2.17877E-02
 -1      3973 1.35016E-02
 -1      3974 1.04851E-02
 -1      3975 1.48025E-02
 -1      3976 8.33749E-03
 -1      3977 6.28769E-03
 -1      3978 9.70694E-03
 -1      3979 4.75052E-03
 -1      3980 3.56846E-03
 -1      3981 6.02218E-03
 -1      3982 2.49288E-03
 -1      3983 2.45113E-03
 -1      3984 3.40943E-03
 -1      3985 2.17663E-03
 -1      3986 2.35545E-03
 -1      3987 2.05935E-03
 -1      3988 2.54519E-03
 -1      3989 2.54402E-03
 -1      3990 1.97459E-03
 -1      3991 2.57711E-03
 -1      3992 2.46384E-03
 -1      3993 2.19742E-03
 -1      3994 2.40061E-03
 -1      3995 2.22617E-03
 -1      3996 2.16727E-03
 -1      3997 8.64075E-01
 -1      3998 9.99397E-01
 -1      3999 6.39820E+00
 -1      4000 4.84540E+00
 -1      4001 1.17246E+00
 -1      4002 1.35042E+00
 -1      4003 1.14496E+00
 -1      4004 5.42203E-01
 -1      4005 5.99940E-01
 -1      4006 4.33475E-01
 -1      4007 4.77761E-01
 -1      4008 5.35497E-01
 -1      4009 3.40962E-01
 -1      4010 3.80792E-01
 -1      4011 4.18372E-01
 -1      4012 2.65585E-01
 -1      4013 2.99693E-01
 -1      4014 3.24421E-01
 -1      4015 2.03039E-01
 -1      4016 2.31758E-01
 -1      4017 2.49326E-01
 -1      4018 1.52791E-01
 -1      4019 1.76340E-01
 -1      4020 1.88800E-01
 -1      4021 1.12640E-01
 -1      4022 1.31473E-01
 -1      4023 1.40782E-01
 -1      4024 8.18207E-02
 -1      4025 9.66069E-02
 -1      4026 1.03430E-01
 -1      4027 5.78336E-02
 -1      4028 6.92452E-02
 -1      4029 7.48215E-02
 -1      4030 4.00175E-02
 -1      4031 4.84453E-02
 -1      4032 5.28577E-02
 -1      4033 2.70116E-02
 -1      4034 3.29977E-02
 -1      4035 3.64495E-02
 -1      4036 1.77805E-02
 -1      4037 2.21957E-02
 -1      4038 2.46138E-02
 -1      4039 1.10762E-02
 -1      4040 1.42531E-02
 -1      4041 1.62706E-02
 -1      4042 6.53695E-03
 -1      4043 8.73927E-03
 -1      4044 1.04063E-02
 -1      4045 3.89241E-03
 -1      4046 4.99849E-03
 -1      4047 6.53092E-03
 -1      4048 2.88080E-03
 -1      4049 2.79237E-03
 -1      4050 3.89241E-03
 -1      4051 2.67884E-03
 -1      4052 2.52144E-03
 -1      4053 2.43300E-03
 -1      4054 2.84278E-03
 -1      4055 2.86904E-03
 -1      4056 2.26383E-03
 -1      4057 2.72653E-03
 -1      4058 2.86631E-03
 -1      4059 2.47756E-03
 -1      4060 2.43875E-03
 -1      4061 2.64275E-03
 -1      4062 2.41731E-03
 -1      4063 2.34882E+00
 -1      4064 4.50502E+00
 -1      4065 3.07483E+00
 -1      4066 3.67027E+00
 -1      4067 2.28486E+00
 -1      4068 2.59617E+00
 -1      4069 4.81453E+00
 -1      4070 4.26244E+00
 -1      4071 4.06357E+00
 -1      4072 4.27128E+00
 -1      4073 1.95678E-03
 -1      4074 1.77808E+00
 -1      4075 1.97837E+00
 -1      4076 2.47984E+00
 -1      4077 3.05788E+00
 -1      4078 3.00954E+00
 -1      4079 3.71946E+00
 -1      4080 6.78097E-01
 -1      4081 7.56254E-01
 -1      4082 8.64075E-01
 -1      4083 3.61579E+00
 -1      4084 3.24804E+00
 -1      4085 2.01276E-03
 -1      4086 1.83101E-03
 -1      4087 1.78789E-03
 -1      4088 4.54930E+00
 -1      4089 4.03304E+00
 -1      4090 3.70933E+00
 -1      4091 3.25090E+00
 -1      4092 1.83765E-03
 -1      4093 1.95936E-03
 -1      4094 1.75407E-03
 -1      4095 3.20529E+00
 -1      4096 3.53366E+00
 -1      4097 1.74569E+00
 -1      4098 2.34882E+00
 -1      4099 2.36045E-03
 -1      4100 2.25523E-03
 -1      4101 2.27531E-03
 -1      4102 3.00954E+00
 -1      4103 6.78097E-01
 -1      4104 3.57904E+00
 -1      4105 2.97359E+00
 -1      4106 1.71048E-03
 -1      4107 1.77964E-03
 -1      4108 1.84623E-03
 -1      4109 1.85746E-03
 -1      4110 4.76230E+00
 -1      4111 4.17967E+00
 -1      4112 3.11593E+00
 -1      4113 3.61579E+00
 -1      4114 2.55205E+00
 -1      4115 2.01669E-03
 -1      4116 1.91835E-03
 -1      4117 3.29313E+00
 -1      4118 3.20253E+00
 -1      4119 2.05525E+00
 -1      4120 1.53683E+00
 -1      4121 2.05525E+00
 -1      4122 1.53512E+00
 -1      4123 1.96278E+00
 -1      4124 2.28170E+00
 -1      4125 2.58819E+00
 -1      4126 3.00439E+00
 -1      4127 2.07113E+00
 -1      4128 1.32206E+00
 -1      4129 1.09415E+00
 -1      4130 1.34369E+00
 -1      4131 9.89532E-01
 -1      4132 8.44277E-01
 -1      4133 1.02431E+00
 -1      4134 7.34697E-01
 -1      4135 6.35953E-01
 -1      4136 8.10111E-01
 -1      4137 5.39643E-01
 -1      4138 4.66994E-01
 -1      4139 6.04221E-01
 -1      4140 3.94970E-01
 -1      4141 3.43593E-01
 -1      4142 4.35888E-01
 -1      4143 2.96909E-01
 -1      4144 2.57693E-01
 -1      4145 3.17181E-01
 -1      4146 2.23346E-01
 -1      4147 1.93478E-01
 -1      4148 2.36149E-01
 -1      4149 1.68073E-01
 -1      4150 1.45541E-01
 -1      4151 1.76398E-01
 -1      4152 1.27677E-01
 -1      4153 1.09342E-01
 -1      4154 1.33129E-01
 -1      4155 1.12830E-01
 -1      4156 9.89880E-02
 -1      4157 1.18754E-01
 -1      4158 7.01959E-02
 -1      4159 5.94994E-02
 -1      4160 9.34498E-02
 -1      4161 5.01622E-02
 -1      4162 4.19811E-02
 -1      4163 5.53206E-02
 -1      4164 3.46376E-02
 -1      4165 2.85607E-02
 -1      4166 3.86399E-02
 -1      4167 2.38667E-02
 -1      4168 1.98294E-02
 -1      4169 2.66024E-02
 -1      4170 1.63514E-02
 -1      4171 1.34034E-02
 -1      4172 1.84303E-02
 -1      4173 1.08362E-02
 -1      4174 8.68856E-03
 -1      4175 1.23850E-02
 -1      4176 6.82427E-03
 -1      4177 5.28710E-03
 -1      4178 7.95348E-03
 -1      4179 3.96161E-03
 -1      4180 2.88603E-03
 -1      4181 4.76370E-03
 -1      4182 2.05990E-03
 -1      4183 1.78540E-03
 -1      4184 2.61208E-03
 -1      4185 1.58186E-03
 -1      4186 1.77160E-03
 -1      4187 1.58241E-03
 -1      4188 1.86197E-03
 -1      4189 1.89506E-03
 -1      4190 1.46924E-03
 -1      4191 1.99962E-03
 -1      4192 1.93639E-03
 -1      4193 1.75070E-03
 -1      4194 1.66417E-03
 -1      4195 2.13883E-03
 -1      4196 8.64848E-01
 -1      4197 9.72670E-01
 -1      4198 1.28466E+00
 -1      4199 1.45773E+00
 -1      4200 1.67482E+00
 -1      4201 4.36801E-01
 -1      4202 4.89483E-01
 -1      4203 5.00643E-01
 -1      4204 5.65085E-01
 -1      4205 5.19071E-01
 -1      4206 2.42998E-01
 -1      4207 2.76824E-01
 -1      4208 1.77799E-01
 -1      4209 2.04498E-01
 -1      4210 2.31997E-01
 -1      4211 1.28705E-01
 -1      4212 1.50024E-01
 -1      4213 1.65722E-01
 -1      4214 1.02067E-01
 -1      4215 1.18100E-01
 -1      4216 1.27342E-01
 -1      4217 6.52508E-02
 -1      4218 7.78262E-02
 -1      4219 9.24960E-02
 -1      4220 5.39963E-02
 -1      4221 6.33846E-02
 -1      4222 6.63894E-02
 -1      4223 3.36388E-02
 -1      4224 4.06587E-02
 -1      4225 5.11857E-02
 -1      4226 2.27920E-02
 -1      4227 2.76079E-02
 -1      4228 3.18171E-02
 -1      4229 1.53504E-02
 -1      4230 1.88778E-02
 -1      4231 2.18719E-02
 -1      4232 1.00929E-02
 -1      4233 1.24298E-02
 -1      4234 1.50370E-02
 -1      4235 6.39610E-03
 -1      4236 7.93457E-03
 -1      4237 9.95809E-03
 -1      4238 3.73465E-03
 -1      4239 4.83469E-03
 -1      4240 6.23834E-03
 -1      4241 2.27322E-03
 -1      4242 2.63259E-03
 -1      4243 3.57487E-03
 -1      4244 1.99997E-03
 -1      4245 1.80977E-03
 -1      4246 2.00936E-03
 -1      4247 2.18698E-03
 -1      4248 2.16346E-03
 -1      4249 1.70939E-03
 -1      4250 2.14335E-03
 -1      4251 2.22713E-03
 -1      4252 1.91303E-03
 -1      4253 3.73281E+00
 -1      4254 3.34904E+00
 -1      4255 2.78516E+00
 -1      4256 3.31850E+00
 -1      4257 3.23508E-01
 -1      4258 3.64777E-01
 -1      4259 3.17181E-01
 -1      4260 6.57583E-01
 -1      4261 7.35740E-01
 -1      4262 8.44334E-01
 -1      4263 1.80223E-03
 -1      4264 1.85746E-03
 -1      4265 4.35888E-01
 -1      4266 1.28543E+00
 -1      4267 6.22728E-01
 -1      4268 2.10267E-03
 -1      4269 1.91249E-03
 -1      4270 1.63886E-03
 -1      4271 1.70843E-03
 -1      4272 1.74912E-03
 -1      4273 1.65690E-03
 -1      4274 1.87181E-03
 -1      4275 2.09717E-03
 -1      4276 1.99880E-03
 -1      4277 2.26942E+00
 -1      4278 1.77263E+00
 -1      4279 8.45105E-01
 -1      4280 9.74214E-01
 -1      4281 1.29566E-01
 -1      4282 1.40172E-01
 -1      4283 1.05195E+00
 -1      4284 9.47338E-01
 -1      4285 8.37758E-01
 -1      4286 7.03626E-01
 -1      4287 6.07317E-01
 -1      4288 5.07912E-01
 -1      4289 4.35888E-01
 -1      4290 3.63864E-01
 -1      4291 3.17181E-01
 -1      4292 2.70497E-01
 -1      4293 2.36149E-01
 -1      4294 1.97650E-01
 -1      4295 1.72245E-01
 -1      4296 1.46695E-01
 -1      4297 1.28831E-01
 -1      4298 1.32319E-01
 -1      4299 1.22242E-01
 -1      4300 9.34498E-02
 -1      4301 6.45906E-02
 -1      4302 5.52533E-02
 -1      4303 4.19157E-02
 -1      4304 3.45722E-02
 -1      4305 2.85413E-02
 -1      4306 2.38472E-02
 -1      4307 1.99330E-02
 -1      4308 1.64549E-02
 -1      4309 1.35344E-02
 -1      4310 1.09671E-02
 -1      4311 8.80876E-03
 -1      4312 6.94447E-03
 -1      4313 5.38306E-03
 -1      4314 4.05757E-03
 -1      4315 2.95551E-03
 -1      4316 2.12938E-03
 -1      4317 1.66592E-03
 -1      4318 1.46238E-03
 -1      4319 1.62587E-03
 -1      4320 1.71625E-03
 -1      4321 1.55233E-03
 -1      4322 6.07317E-01
 -1      4323 6.18476E-01
 -1      4324 1.57794E+00
 -1      4325 1.36318E+00
 -1      4326 1.28621E+00
 -1      4327 1.79211E+00
 -1      4328 1.79211E+00
 -1      4329 1.86950E+00
 -1      4330 1.28543E+00
 -1      4331 1.59743E+00
 -1      4332 2.10267E-03
 -1      4333 9.52487E-02
 -1      4334 1.19489E-01
 -1      4335 9.33826E-02
 -1      4336 1.70897E-03
 -1      4337 7.10974E-01
 -1      4338 2.18842E+00
 -1      4339 2.70416E+00
 -1      4340 8.40853E-01
 -1      4341 1.32319E-01
 -1      4342 1.67947E-01
 -1      4343 2.50254E+00
 -1      4344 2.02437E-03
 -3
 9999
