    1C
    1UUSER                                                              
    1UDATE              27.october.2022                                 
    1UTIME              00:42:24                                        
    1UHOST                                                              
    1UPGM               CalculiX                                        
    1UVERSION           Version 2.17                             
    1UCOMPILETIME       Thu Jul 23 21:43:50 CEST 2020                    
    1UDIR                                                               
    1UDBN                                                               
    1UMAT    1SOLIDMATERIAL                                             
    2C                          4352                                     1
 -1         1 8.39543E+01 3.42251E+01 0.00000E+00
 -1         2 9.40594E+01 2.79515E+01 0.00000E+00
 -1         3 1.50000E+02 0.00000E+00 0.00000E+00
 -1         4 1.50000E+02 5.00000E+01 0.00000E+00
 -1         5 0.00000E+00 0.00000E+00 0.00000E+00
 -1         6 0.00000E+00 5.00000E+01 0.00000E+00
 -1         7 0.00000E+00 4.70500E+01 0.00000E+00
 -1         8 0.00000E+00 4.41000E+01 0.00000E+00
 -1         9 0.00000E+00 4.11500E+01 0.00000E+00
 -1        10 0.00000E+00 3.82000E+01 0.00000E+00
 -1        11 0.00000E+00 3.52500E+01 0.00000E+00
 -1        12 0.00000E+00 3.23500E+01 0.00000E+00
 -1        13 0.00000E+00 2.94000E+01 0.00000E+00
 -1        14 0.00000E+00 2.64500E+01 0.00000E+00
 -1        15 0.00000E+00 2.35000E+01 0.00000E+00
 -1        16 0.00000E+00 2.05500E+01 0.00000E+00
 -1        17 0.00000E+00 1.76000E+01 0.00000E+00
 -1        18 0.00000E+00 1.47000E+01 0.00000E+00
 -1        19 0.00000E+00 1.17500E+01 0.00000E+00
 -1        20 0.00000E+00 8.80000E+00 0.00000E+00
 -1        21 0.00000E+00 5.85000E+00 0.00000E+00
 -1        22 0.00000E+00 2.90000E+00 0.00000E+00
 -1        23 3.15000E+00 5.00000E+01 0.00000E+00
 -1        24 6.15000E+00 5.00000E+01 0.00000E+00
 -1        25 9.15000E+00 5.00000E+01 0.00000E+00
 -1        26 1.21500E+01 5.00000E+01 0.00000E+00
 -1        27 1.51500E+01 5.00000E+01 0.00000E+00
 -1        28 1.81500E+01 5.00000E+01 0.00000E+00
 -1        29 2.11500E+01 5.00000E+01 0.00000E+00
 -1        30 2.41500E+01 5.00000E+01 0.00000E+00
 -1        31 2.71500E+01 5.00000E+01 0.00000E+00
 -1        32 3.01500E+01 5.00000E+01 0.00000E+00
 -1        33 3.31500E+01 5.00000E+01 0.00000E+00
 -1        34 3.61500E+01 5.00000E+01 0.00000E+00
 -1        35 3.91500E+01 5.00000E+01 0.00000E+00
 -1        36 4.21500E+01 5.00000E+01 0.00000E+00
 -1        37 4.51500E+01 5.00000E+01 0.00000E+00
 -1        38 4.81500E+01 5.00000E+01 0.00000E+00
 -1        39 5.11500E+01 5.00000E+01 0.00000E+00
 -1        40 5.41500E+01 5.00000E+01 0.00000E+00
 -1        41 5.71500E+01 5.00000E+01 0.00000E+00
 -1        42 6.01500E+01 5.00000E+01 0.00000E+00
 -1        43 6.31500E+01 5.00000E+01 0.00000E+00
 -1        44 6.61500E+01 5.00000E+01 0.00000E+00
 -1        45 6.91500E+01 5.00000E+01 0.00000E+00
 -1        46 7.21500E+01 5.00000E+01 0.00000E+00
 -1        47 7.51500E+01 5.00000E+01 0.00000E+00
 -1        48 7.81500E+01 5.00000E+01 0.00000E+00
 -1        49 8.11500E+01 5.00000E+01 0.00000E+00
 -1        50 8.41500E+01 5.00000E+01 0.00000E+00
 -1        51 8.71500E+01 5.00000E+01 0.00000E+00
 -1        52 9.01500E+01 5.00000E+01 0.00000E+00
 -1        53 9.31500E+01 5.00000E+01 0.00000E+00
 -1        54 9.61500E+01 5.00000E+01 0.00000E+00
 -1        55 9.91500E+01 5.00000E+01 0.00000E+00
 -1        56 1.02150E+02 5.00000E+01 0.00000E+00
 -1        57 1.05150E+02 5.00000E+01 0.00000E+00
 -1        58 1.08150E+02 5.00000E+01 0.00000E+00
 -1        59 1.11150E+02 5.00000E+01 0.00000E+00
 -1        60 1.14150E+02 5.00000E+01 0.00000E+00
 -1        61 1.17150E+02 5.00000E+01 0.00000E+00
 -1        62 1.20150E+02 5.00000E+01 0.00000E+00
 -1        63 1.23150E+02 5.00000E+01 0.00000E+00
 -1        64 1.26150E+02 5.00000E+01 0.00000E+00
 -1        65 1.29150E+02 5.00000E+01 0.00000E+00
 -1        66 1.32150E+02 5.00000E+01 0.00000E+00
 -1        67 1.35150E+02 5.00000E+01 0.00000E+00
 -1        68 1.38150E+02 5.00000E+01 0.00000E+00
 -1        69 1.41150E+02 5.00000E+01 0.00000E+00
 -1        70 1.44150E+02 5.00000E+01 0.00000E+00
 -1        71 1.47150E+02 5.00000E+01 0.00000E+00
 -1        72 3.15000E+00 0.00000E+00 0.00000E+00
 -1        73 6.15000E+00 0.00000E+00 0.00000E+00
 -1        74 9.15000E+00 0.00000E+00 0.00000E+00
 -1        75 1.21500E+01 0.00000E+00 0.00000E+00
 -1        76 1.51500E+01 0.00000E+00 0.00000E+00
 -1        77 1.81500E+01 0.00000E+00 0.00000E+00
 -1        78 2.11500E+01 0.00000E+00 0.00000E+00
 -1        79 2.41500E+01 0.00000E+00 0.00000E+00
 -1        80 2.71500E+01 0.00000E+00 0.00000E+00
 -1        81 3.01500E+01 0.00000E+00 0.00000E+00
 -1        82 3.31500E+01 0.00000E+00 0.00000E+00
 -1        83 3.61500E+01 0.00000E+00 0.00000E+00
 -1        84 3.91500E+01 0.00000E+00 0.00000E+00
 -1        85 4.21500E+01 0.00000E+00 0.00000E+00
 -1        86 4.51500E+01 0.00000E+00 0.00000E+00
 -1        87 4.81500E+01 0.00000E+00 0.00000E+00
 -1        88 5.11500E+01 0.00000E+00 0.00000E+00
 -1        89 5.41500E+01 0.00000E+00 0.00000E+00
 -1        90 5.71500E+01 0.00000E+00 0.00000E+00
 -1        91 6.01500E+01 0.00000E+00 0.00000E+00
 -1        92 6.31500E+01 0.00000E+00 0.00000E+00
 -1        93 6.61500E+01 0.00000E+00 0.00000E+00
 -1        94 6.91500E+01 0.00000E+00 0.00000E+00
 -1        95 7.21500E+01 0.00000E+00 0.00000E+00
 -1        96 7.51500E+01 0.00000E+00 0.00000E+00
 -1        97 7.81500E+01 0.00000E+00 0.00000E+00
 -1        98 8.11500E+01 0.00000E+00 0.00000E+00
 -1        99 8.41500E+01 0.00000E+00 0.00000E+00
 -1       100 8.71500E+01 0.00000E+00 0.00000E+00
 -1       101 9.01500E+01 0.00000E+00 0.00000E+00
 -1       102 9.31500E+01 0.00000E+00 0.00000E+00
 -1       103 9.61500E+01 0.00000E+00 0.00000E+00
 -1       104 9.91500E+01 0.00000E+00 0.00000E+00
 -1       105 1.02150E+02 0.00000E+00 0.00000E+00
 -1       106 1.05150E+02 0.00000E+00 0.00000E+00
 -1       107 1.08150E+02 0.00000E+00 0.00000E+00
 -1       108 1.11150E+02 0.00000E+00 0.00000E+00
 -1       109 1.14150E+02 0.00000E+00 0.00000E+00
 -1       110 1.17150E+02 0.00000E+00 0.00000E+00
 -1       111 1.20150E+02 0.00000E+00 0.00000E+00
 -1       112 1.23150E+02 0.00000E+00 0.00000E+00
 -1       113 1.26150E+02 0.00000E+00 0.00000E+00
 -1       114 1.29150E+02 0.00000E+00 0.00000E+00
 -1       115 1.32150E+02 0.00000E+00 0.00000E+00
 -1       116 1.35150E+02 0.00000E+00 0.00000E+00
 -1       117 1.38150E+02 0.00000E+00 0.00000E+00
 -1       118 1.41150E+02 0.00000E+00 0.00000E+00
 -1       119 1.44150E+02 0.00000E+00 0.00000E+00
 -1       120 1.47150E+02 0.00000E+00 0.00000E+00
 -1       121 1.50000E+02 2.95000E+00 0.00000E+00
 -1       122 1.50000E+02 5.90000E+00 0.00000E+00
 -1       123 1.50000E+02 8.85000E+00 0.00000E+00
 -1       124 1.50000E+02 1.18000E+01 0.00000E+00
 -1       125 1.50000E+02 1.47500E+01 0.00000E+00
 -1       126 1.50000E+02 1.76500E+01 0.00000E+00
 -1       127 1.50000E+02 2.06000E+01 0.00000E+00
 -1       128 1.50000E+02 2.35500E+01 0.00000E+00
 -1       129 1.50000E+02 2.65000E+01 0.00000E+00
 -1       130 1.50000E+02 2.94500E+01 0.00000E+00
 -1       131 1.50000E+02 3.24000E+01 0.00000E+00
 -1       132 1.50000E+02 3.53000E+01 0.00000E+00
 -1       133 1.50000E+02 3.82500E+01 0.00000E+00
 -1       134 1.50000E+02 4.12000E+01 0.00000E+00
 -1       135 1.50000E+02 4.41500E+01 0.00000E+00
 -1       136 1.50000E+02 4.71000E+01 0.00000E+00
 -1       137 9.39013E+01 2.64721E+01 0.00000E+00
 -1       138 9.34647E+01 2.51279E+01 0.00000E+00
 -1       139 9.27325E+01 2.38507E+01 0.00000E+00
 -1       140 9.17710E+01 2.27745E+01 0.00000E+00
 -1       141 9.06581E+01 2.19474E+01 0.00000E+00
 -1       142 8.93100E+01 2.13232E+01 0.00000E+00
 -1       143 8.78815E+01 2.09999E+01 0.00000E+00
 -1       144 8.63828E+01 2.09843E+01 0.00000E+00
 -1       145 8.48095E+01 2.13230E+01 0.00000E+00
 -1       146 8.34331E+01 2.19640E+01 0.00000E+00
 -1       147 8.22589E+01 2.28569E+01 0.00000E+00
 -1       148 8.12248E+01 2.40842E+01 0.00000E+00
 -1       149 8.05599E+01 2.53523E+01 0.00000E+00
 -1       150 8.01452E+01 2.68592E+01 0.00000E+00
 -1       151 8.00689E+01 2.83158E+01 0.00000E+00
 -1       152 8.02982E+01 2.97643E+01 0.00000E+00
 -1       153 8.08684E+01 3.12181E+01 0.00000E+00
 -1       154 8.16503E+01 3.23946E+01 0.00000E+00
 -1       155 8.27243E+01 3.34475E+01 0.00000E+00
 -1       156 8.52613E+01 3.47166E+01 0.00000E+00
 -1       157 8.66376E+01 3.49388E+01 0.00000E+00
 -1       158 8.80140E+01 3.48861E+01 0.00000E+00
 -1       159 8.93671E+01 3.45602E+01 0.00000E+00
 -1       160 9.07200E+01 3.39181E+01 0.00000E+00
 -1       161 9.18618E+01 3.30443E+01 0.00000E+00
 -1       162 9.27630E+01 3.20098E+01 0.00000E+00
 -1       163 9.34562E+01 3.07944E+01 0.00000E+00
 -1       164 9.39151E+01 2.93660E+01 0.00000E+00
 -1       165 2.59800E+00 4.55750E+01 0.00000E+00
 -1       166 2.59800E+00 4.26250E+01 0.00000E+00
 -1       167 2.59800E+00 3.96750E+01 0.00000E+00
 -1       168 2.59800E+00 3.67250E+01 0.00000E+00
 -1       169 2.59800E+00 3.38250E+01 0.00000E+00
 -1       170 2.59800E+00 3.08750E+01 0.00000E+00
 -1       171 2.59800E+00 2.79250E+01 0.00000E+00
 -1       172 2.59800E+00 2.49750E+01 0.00000E+00
 -1       173 2.59800E+00 2.20250E+01 0.00000E+00
 -1       174 2.59800E+00 1.90750E+01 0.00000E+00
 -1       175 2.59800E+00 1.61750E+01 0.00000E+00
 -1       176 2.59800E+00 1.32250E+01 0.00000E+00
 -1       177 2.59800E+00 1.02750E+01 0.00000E+00
 -1       178 2.59800E+00 7.32500E+00 0.00000E+00
 -1       179 2.59800E+00 4.37500E+00 0.00000E+00
 -1       180 2.87400E+00 2.18750E+00 0.00000E+00
 -1       181 4.65000E+00 4.74020E+01 0.00000E+00
 -1       182 7.65000E+00 4.74020E+01 0.00000E+00
 -1       183 1.06500E+01 4.74020E+01 0.00000E+00
 -1       184 1.36500E+01 4.74020E+01 0.00000E+00
 -1       185 1.66500E+01 4.74020E+01 0.00000E+00
 -1       186 1.96500E+01 4.74020E+01 0.00000E+00
 -1       187 2.26500E+01 4.74020E+01 0.00000E+00
 -1       188 2.56500E+01 4.74020E+01 0.00000E+00
 -1       189 2.86500E+01 4.74020E+01 0.00000E+00
 -1       190 3.16500E+01 4.74020E+01 0.00000E+00
 -1       191 3.46500E+01 4.74020E+01 0.00000E+00
 -1       192 3.76500E+01 4.74020E+01 0.00000E+00
 -1       193 4.06500E+01 4.74020E+01 0.00000E+00
 -1       194 4.36500E+01 4.74020E+01 0.00000E+00
 -1       195 4.66500E+01 4.74020E+01 0.00000E+00
 -1       196 4.96500E+01 4.74020E+01 0.00000E+00
 -1       197 5.26500E+01 4.74020E+01 0.00000E+00
 -1       198 5.56500E+01 4.74020E+01 0.00000E+00
 -1       199 5.86500E+01 4.74020E+01 0.00000E+00
 -1       200 6.16500E+01 4.74020E+01 0.00000E+00
 -1       201 6.46500E+01 4.74020E+01 0.00000E+00
 -1       202 6.76500E+01 4.74020E+01 0.00000E+00
 -1       203 7.06500E+01 4.74020E+01 0.00000E+00
 -1       204 7.36500E+01 4.74020E+01 0.00000E+00
 -1       205 7.66500E+01 4.74020E+01 0.00000E+00
 -1       206 7.96500E+01 4.74020E+01 0.00000E+00
 -1       207 8.26500E+01 4.74020E+01 0.00000E+00
 -1       208 8.56500E+01 4.74020E+01 0.00000E+00
 -1       209 8.86500E+01 4.74020E+01 0.00000E+00
 -1       210 9.16500E+01 4.74020E+01 0.00000E+00
 -1       211 9.46500E+01 4.74020E+01 0.00000E+00
 -1       212 9.76500E+01 4.74020E+01 0.00000E+00
 -1       213 1.00650E+02 4.74020E+01 0.00000E+00
 -1       214 1.03650E+02 4.74020E+01 0.00000E+00
 -1       215 1.06650E+02 4.74020E+01 0.00000E+00
 -1       216 1.09650E+02 4.74020E+01 0.00000E+00
 -1       217 1.12650E+02 4.74020E+01 0.00000E+00
 -1       218 1.15650E+02 4.74020E+01 0.00000E+00
 -1       219 1.18650E+02 4.74020E+01 0.00000E+00
 -1       220 1.21650E+02 4.74020E+01 0.00000E+00
 -1       221 1.24650E+02 4.74020E+01 0.00000E+00
 -1       222 1.27650E+02 4.74020E+01 0.00000E+00
 -1       223 1.30650E+02 4.74020E+01 0.00000E+00
 -1       224 1.33650E+02 4.74020E+01 0.00000E+00
 -1       225 1.36650E+02 4.74020E+01 0.00000E+00
 -1       226 1.39650E+02 4.74020E+01 0.00000E+00
 -1       227 1.42650E+02 4.74020E+01 0.00000E+00
 -1       228 1.45650E+02 4.74020E+01 0.00000E+00
 -1       229 5.87400E+00 2.18750E+00 0.00000E+00
 -1       230 8.87400E+00 2.18750E+00 0.00000E+00
 -1       231 1.18740E+01 2.18750E+00 0.00000E+00
 -1       232 1.48740E+01 2.18750E+00 0.00000E+00
 -1       233 1.78740E+01 2.18750E+00 0.00000E+00
 -1       234 2.08740E+01 2.18750E+00 0.00000E+00
 -1       235 2.38740E+01 2.18750E+00 0.00000E+00
 -1       236 2.68740E+01 2.18750E+00 0.00000E+00
 -1       237 2.98740E+01 2.18750E+00 0.00000E+00
 -1       238 3.28740E+01 2.18750E+00 0.00000E+00
 -1       239 3.58740E+01 2.18750E+00 0.00000E+00
 -1       240 3.88740E+01 2.18750E+00 0.00000E+00
 -1       241 4.18740E+01 2.18750E+00 0.00000E+00
 -1       242 4.48740E+01 2.18750E+00 0.00000E+00
 -1       243 4.78740E+01 2.18750E+00 0.00000E+00
 -1       244 5.08740E+01 2.18750E+00 0.00000E+00
 -1       245 5.38740E+01 2.18750E+00 0.00000E+00
 -1       246 5.68740E+01 2.18750E+00 0.00000E+00
 -1       247 5.98740E+01 2.18750E+00 0.00000E+00
 -1       248 6.28740E+01 2.18750E+00 0.00000E+00
 -1       249 6.58740E+01 2.18750E+00 0.00000E+00
 -1       250 6.88740E+01 2.18750E+00 0.00000E+00
 -1       251 7.18740E+01 2.18750E+00 0.00000E+00
 -1       252 7.48740E+01 2.18750E+00 0.00000E+00
 -1       253 7.78740E+01 2.18750E+00 0.00000E+00
 -1       254 8.08740E+01 2.18750E+00 0.00000E+00
 -1       255 8.38740E+01 2.18750E+00 0.00000E+00
 -1       256 8.68740E+01 2.18750E+00 0.00000E+00
 -1       257 8.98740E+01 2.18750E+00 0.00000E+00
 -1       258 9.28740E+01 2.18750E+00 0.00000E+00
 -1       259 9.58740E+01 2.18750E+00 0.00000E+00
 -1       260 9.88740E+01 2.18750E+00 0.00000E+00
 -1       261 1.01874E+02 2.18750E+00 0.00000E+00
 -1       262 1.04874E+02 2.18750E+00 0.00000E+00
 -1       263 1.07874E+02 2.18750E+00 0.00000E+00
 -1       264 1.10874E+02 2.18750E+00 0.00000E+00
 -1       265 1.13874E+02 2.18750E+00 0.00000E+00
 -1       266 1.16874E+02 2.18750E+00 0.00000E+00
 -1       267 1.19874E+02 2.18750E+00 0.00000E+00
 -1       268 1.22874E+02 2.18750E+00 0.00000E+00
 -1       269 1.25874E+02 2.18750E+00 0.00000E+00
 -1       270 1.28874E+02 2.18750E+00 0.00000E+00
 -1       271 1.31874E+02 2.18750E+00 0.00000E+00
 -1       272 1.34874E+02 2.18750E+00 0.00000E+00
 -1       273 1.37874E+02 2.18750E+00 0.00000E+00
 -1       274 1.40874E+02 2.18750E+00 0.00000E+00
 -1       275 1.43874E+02 2.18750E+00 0.00000E+00
 -1       276 1.46874E+02 2.18750E+00 0.00000E+00
 -1       277 1.47402E+02 4.42500E+00 0.00000E+00
 -1       278 1.47402E+02 7.37500E+00 0.00000E+00
 -1       279 1.47402E+02 1.03250E+01 0.00000E+00
 -1       280 1.47402E+02 1.32750E+01 0.00000E+00
 -1       281 1.47402E+02 1.61750E+01 0.00000E+00
 -1       282 1.47402E+02 1.91250E+01 0.00000E+00
 -1       283 1.47402E+02 2.20750E+01 0.00000E+00
 -1       284 1.47402E+02 2.50250E+01 0.00000E+00
 -1       285 1.47402E+02 2.79750E+01 0.00000E+00
 -1       286 1.47402E+02 3.09250E+01 0.00000E+00
 -1       287 1.47402E+02 3.38250E+01 0.00000E+00
 -1       288 1.47402E+02 3.67750E+01 0.00000E+00
 -1       289 1.47402E+02 3.97250E+01 0.00000E+00
 -1       290 1.47402E+02 4.26750E+01 0.00000E+00
 -1       291 1.46526E+02 4.50385E+01 0.00000E+00
 -1       292 9.53525E+01 2.70651E+01 0.00000E+00
 -1       293 9.48361E+01 2.54254E+01 0.00000E+00
 -1       294 9.42231E+01 2.38446E+01 0.00000E+00
 -1       295 9.31558E+01 2.25048E+01 0.00000E+00
 -1       296 9.19378E+01 2.13879E+01 0.00000E+00
 -1       297 9.05287E+01 2.04590E+01 0.00000E+00
 -1       298 8.88818E+01 1.98973E+01 0.00000E+00
 -1       299 8.71457E+01 1.96960E+01 0.00000E+00
 -1       300 8.53057E+01 1.98045E+01 0.00000E+00
 -1       301 8.36094E+01 2.05445E+01 0.00000E+00
 -1       302 8.21121E+01 2.14454E+01 0.00000E+00
 -1       303 8.06866E+01 2.25813E+01 0.00000E+00
 -1       304 7.98186E+01 2.41553E+01 0.00000E+00
 -1       305 7.89413E+01 2.57174E+01 0.00000E+00
 -1       306 7.88963E+01 2.75241E+01 0.00000E+00
 -1       307 7.89861E+01 2.92296E+01 0.00000E+00
 -1       308 7.92986E+01 3.09950E+01 0.00000E+00
 -1       309 8.02496E+01 3.24775E+01 0.00000E+00
 -1       310 8.11039E+01 3.40261E+01 0.00000E+00
 -1       311 8.26914E+01 3.48611E+01 0.00000E+00
 -1       312 8.41810E+01 3.56056E+01 0.00000E+00
 -1       313 8.57562E+01 3.60246E+01 0.00000E+00
 -1       314 8.73722E+01 3.61240E+01 0.00000E+00
 -1       315 8.89745E+01 3.59018E+01 0.00000E+00
 -1       316 9.05993E+01 3.54102E+01 0.00000E+00
 -1       317 9.20277E+01 3.44441E+01 0.00000E+00
 -1       318 9.32266E+01 3.33234E+01 0.00000E+00
 -1       319 9.41627E+01 3.20028E+01 0.00000E+00
 -1       320 9.49197E+01 3.04766E+01 0.00000E+00
 -1       321 9.52767E+01 2.87904E+01 0.00000E+00
 -1       322 5.19600E+00 4.11500E+01 0.00000E+00
 -1       323 5.19600E+00 4.41000E+01 0.00000E+00
 -1       324 5.19600E+00 3.52750E+01 0.00000E+00
 -1       325 5.19600E+00 3.23250E+01 0.00000E+00
 -1       326 5.19600E+00 2.93750E+01 0.00000E+00
 -1       327 5.19600E+00 2.64250E+01 0.00000E+00
 -1       328 5.19600E+00 2.34750E+01 0.00000E+00
 -1       329 5.19600E+00 2.05250E+01 0.00000E+00
 -1       330 5.19600E+00 1.76250E+01 0.00000E+00
 -1       331 5.19600E+00 1.46750E+01 0.00000E+00
 -1       332 5.19600E+00 1.17250E+01 0.00000E+00
 -1       333 5.19600E+00 8.77500E+00 0.00000E+00
 -1       334 5.19600E+00 5.82500E+00 0.00000E+00
 -1       335 5.53500E+00 4.00625E+00 0.00000E+00
 -1       336 8.53500E+00 4.00625E+00 0.00000E+00
 -1       337 9.15000E+00 4.48040E+01 0.00000E+00
 -1       338 1.21500E+01 4.48040E+01 0.00000E+00
 -1       339 1.51500E+01 4.48040E+01 0.00000E+00
 -1       340 1.81500E+01 4.48040E+01 0.00000E+00
 -1       341 2.11500E+01 4.48040E+01 0.00000E+00
 -1       342 2.41500E+01 4.48040E+01 0.00000E+00
 -1       343 2.71500E+01 4.48040E+01 0.00000E+00
 -1       344 3.01500E+01 4.48040E+01 0.00000E+00
 -1       345 3.31500E+01 4.48040E+01 0.00000E+00
 -1       346 3.61500E+01 4.48040E+01 0.00000E+00
 -1       347 3.91500E+01 4.48040E+01 0.00000E+00
 -1       348 4.21500E+01 4.48040E+01 0.00000E+00
 -1       349 4.51500E+01 4.48040E+01 0.00000E+00
 -1       350 4.81500E+01 4.48040E+01 0.00000E+00
 -1       351 5.11500E+01 4.48040E+01 0.00000E+00
 -1       352 5.41500E+01 4.48040E+01 0.00000E+00
 -1       353 5.71500E+01 4.48040E+01 0.00000E+00
 -1       354 6.01500E+01 4.48040E+01 0.00000E+00
 -1       355 6.31500E+01 4.48040E+01 0.00000E+00
 -1       356 6.61500E+01 4.48040E+01 0.00000E+00
 -1       357 6.91500E+01 4.48040E+01 0.00000E+00
 -1       358 7.21500E+01 4.48040E+01 0.00000E+00
 -1       359 7.51500E+01 4.48040E+01 0.00000E+00
 -1       360 7.81500E+01 4.48040E+01 0.00000E+00
 -1       361 8.11500E+01 4.48040E+01 0.00000E+00
 -1       362 8.41500E+01 4.48040E+01 0.00000E+00
 -1       363 8.71500E+01 4.48040E+01 0.00000E+00
 -1       364 9.01500E+01 4.48040E+01 0.00000E+00
 -1       365 9.31500E+01 4.48040E+01 0.00000E+00
 -1       366 9.61500E+01 4.48040E+01 0.00000E+00
 -1       367 9.91500E+01 4.48040E+01 0.00000E+00
 -1       368 1.02150E+02 4.48040E+01 0.00000E+00
 -1       369 1.05150E+02 4.48040E+01 0.00000E+00
 -1       370 1.08150E+02 4.48040E+01 0.00000E+00
 -1       371 1.11150E+02 4.48040E+01 0.00000E+00
 -1       372 1.14150E+02 4.48040E+01 0.00000E+00
 -1       373 1.17150E+02 4.48040E+01 0.00000E+00
 -1       374 1.20150E+02 4.48040E+01 0.00000E+00
 -1       375 1.23150E+02 4.48040E+01 0.00000E+00
 -1       376 1.26150E+02 4.48040E+01 0.00000E+00
 -1       377 1.29150E+02 4.48040E+01 0.00000E+00
 -1       378 1.32150E+02 4.48040E+01 0.00000E+00
 -1       379 1.35150E+02 4.48040E+01 0.00000E+00
 -1       380 1.38150E+02 4.48040E+01 0.00000E+00
 -1       381 1.41150E+02 4.48040E+01 0.00000E+00
 -1       382 1.43838E+02 4.49212E+01 0.00000E+00
 -1       383 1.15350E+01 4.00625E+00 0.00000E+00
 -1       384 1.45350E+01 4.00625E+00 0.00000E+00
 -1       385 1.75350E+01 4.00625E+00 0.00000E+00
 -1       386 2.05350E+01 4.00625E+00 0.00000E+00
 -1       387 2.35350E+01 4.00625E+00 0.00000E+00
 -1       388 2.65350E+01 4.00625E+00 0.00000E+00
 -1       389 2.95350E+01 4.00625E+00 0.00000E+00
 -1       390 3.25350E+01 4.00625E+00 0.00000E+00
 -1       391 3.55350E+01 4.00625E+00 0.00000E+00
 -1       392 3.85350E+01 4.00625E+00 0.00000E+00
 -1       393 4.15350E+01 4.00625E+00 0.00000E+00
 -1       394 4.45350E+01 4.00625E+00 0.00000E+00
 -1       395 4.75350E+01 4.00625E+00 0.00000E+00
 -1       396 5.05350E+01 4.00625E+00 0.00000E+00
 -1       397 5.35350E+01 4.00625E+00 0.00000E+00
 -1       398 5.65350E+01 4.00625E+00 0.00000E+00
 -1       399 5.95350E+01 4.00625E+00 0.00000E+00
 -1       400 6.25350E+01 4.00625E+00 0.00000E+00
 -1       401 6.55350E+01 4.00625E+00 0.00000E+00
 -1       402 6.85350E+01 4.00625E+00 0.00000E+00
 -1       403 7.15350E+01 4.00625E+00 0.00000E+00
 -1       404 7.45350E+01 4.00625E+00 0.00000E+00
 -1       405 7.75350E+01 4.00625E+00 0.00000E+00
 -1       406 8.05350E+01 4.00625E+00 0.00000E+00
 -1       407 8.35350E+01 4.00625E+00 0.00000E+00
 -1       408 8.65350E+01 4.00625E+00 0.00000E+00
 -1       409 8.95350E+01 4.00625E+00 0.00000E+00
 -1       410 9.25350E+01 4.00625E+00 0.00000E+00
 -1       411 9.55350E+01 4.00625E+00 0.00000E+00
 -1       412 9.85350E+01 4.00625E+00 0.00000E+00
 -1       413 1.01535E+02 4.00625E+00 0.00000E+00
 -1       414 1.04535E+02 4.00625E+00 0.00000E+00
 -1       415 1.07535E+02 4.00625E+00 0.00000E+00
 -1       416 1.10535E+02 4.00625E+00 0.00000E+00
 -1       417 1.13535E+02 4.00625E+00 0.00000E+00
 -1       418 1.16535E+02 4.00625E+00 0.00000E+00
 -1       419 1.19535E+02 4.00625E+00 0.00000E+00
 -1       420 1.22535E+02 4.00625E+00 0.00000E+00
 -1       421 1.25535E+02 4.00625E+00 0.00000E+00
 -1       422 1.28535E+02 4.00625E+00 0.00000E+00
 -1       423 1.31535E+02 4.00625E+00 0.00000E+00
 -1       424 1.34535E+02 4.00625E+00 0.00000E+00
 -1       425 1.37535E+02 4.00625E+00 0.00000E+00
 -1       426 1.40535E+02 4.00625E+00 0.00000E+00
 -1       427 1.43535E+02 4.00625E+00 0.00000E+00
 -1       428 1.45469E+02 4.21562E+00 0.00000E+00
 -1       429 1.44804E+02 1.18000E+01 0.00000E+00
 -1       430 1.44804E+02 8.85000E+00 0.00000E+00
 -1       431 1.45136E+02 6.53281E+00 0.00000E+00
 -1       432 1.44804E+02 1.47000E+01 0.00000E+00
 -1       433 1.44804E+02 1.76500E+01 0.00000E+00
 -1       434 1.44804E+02 2.06000E+01 0.00000E+00
 -1       435 1.44804E+02 2.35500E+01 0.00000E+00
 -1       436 1.44804E+02 2.65000E+01 0.00000E+00
 -1       437 1.44804E+02 2.94500E+01 0.00000E+00
 -1       438 1.44804E+02 3.23500E+01 0.00000E+00
 -1       439 1.44804E+02 3.53000E+01 0.00000E+00
 -1       440 1.44804E+02 3.82500E+01 0.00000E+00
 -1       441 1.44804E+02 4.12000E+01 0.00000E+00
 -1       442 9.59724E+01 2.40755E+01 0.00000E+00
 -1       443 9.66933E+01 2.79883E+01 0.00000E+00
 -1       444 9.64889E+01 2.57152E+01 0.00000E+00
 -1       445 9.47688E+01 2.23149E+01 0.00000E+00
 -1       446 9.35927E+01 2.08057E+01 0.00000E+00
 -1       447 5.19600E+00 3.82125E+01 0.00000E+00
 -1       448 9.01778E+01 1.87928E+01 0.00000E+00
 -1       449 8.81824E+01 1.83426E+01 0.00000E+00
 -1       450 8.61296E+01 1.81218E+01 0.00000E+00
 -1       451 8.38389E+01 1.87560E+01 0.00000E+00
 -1       452 8.20197E+01 1.95972E+01 0.00000E+00
 -1       453 8.05941E+01 2.07331E+01 0.00000E+00
 -1       454 7.88974E+01 2.26210E+01 0.00000E+00
 -1       455 7.80201E+01 2.41831E+01 0.00000E+00
 -1       456 7.73717E+01 2.65823E+01 0.00000E+00
 -1       457 7.75632E+01 2.84494E+01 0.00000E+00
 -1       458 7.76185E+01 3.03821E+01 0.00000E+00
 -1       459 7.84716E+01 3.25718E+01 0.00000E+00
 -1       460 7.93259E+01 3.41205E+01 0.00000E+00
 -1       461 8.12163E+01 3.57391E+01 0.00000E+00
 -1       462 8.27059E+01 3.64837E+01 0.00000E+00
 -1       463 8.46140E+01 3.71487E+01 0.00000E+00
 -1       464 8.64847E+01 3.73680E+01 0.00000E+00
 -1       465 8.83513E+01 3.72968E+01 0.00000E+00
 -1       466 9.01866E+01 3.69768E+01 0.00000E+00
 -1       467 9.20866E+01 3.60702E+01 0.00000E+00
 -1       468 9.36839E+01 3.50143E+01 0.00000E+00
 -1       469 9.48888E+01 3.35095E+01 0.00000E+00
 -1       470 9.57024E+01 3.18156E+01 0.00000E+00
 -1       471 9.66122E+01 2.99541E+01 0.00000E+00
 -1       472 9.19927E+01 1.97713E+01 0.00000E+00
 -1       473 7.94382E+01 3.58335E+01 0.00000E+00
 -1       474 1.00350E+01 6.60425E+00 0.00000E+00
 -1       475 7.79400E+00 3.08500E+01 0.00000E+00
 -1       476 7.79400E+00 3.38000E+01 0.00000E+00
 -1       477 7.79400E+00 2.49500E+01 0.00000E+00
 -1       478 7.79400E+00 2.20000E+01 0.00000E+00
 -1       479 7.79400E+00 1.91000E+01 0.00000E+00
 -1       480 7.79400E+00 1.61500E+01 0.00000E+00
 -1       481 7.79400E+00 1.32000E+01 0.00000E+00
 -1       482 7.79400E+00 1.02500E+01 0.00000E+00
 -1       483 1.30350E+01 6.60425E+00 0.00000E+00
 -1       484 1.06500E+01 4.22060E+01 0.00000E+00
 -1       485 9.18992E+01 1.77724E+01 0.00000E+00
 -1       486 1.36500E+01 4.22060E+01 0.00000E+00
 -1       487 1.66500E+01 4.22060E+01 0.00000E+00
 -1       488 1.96500E+01 4.22060E+01 0.00000E+00
 -1       489 2.26500E+01 4.22060E+01 0.00000E+00
 -1       490 2.56500E+01 4.22060E+01 0.00000E+00
 -1       491 2.86500E+01 4.22060E+01 0.00000E+00
 -1       492 3.16500E+01 4.22060E+01 0.00000E+00
 -1       493 3.46500E+01 4.22060E+01 0.00000E+00
 -1       494 3.76500E+01 4.22060E+01 0.00000E+00
 -1       495 4.06500E+01 4.22060E+01 0.00000E+00
 -1       496 4.36500E+01 4.22060E+01 0.00000E+00
 -1       497 4.66500E+01 4.22060E+01 0.00000E+00
 -1       498 4.96500E+01 4.22060E+01 0.00000E+00
 -1       499 5.26500E+01 4.22060E+01 0.00000E+00
 -1       500 5.56500E+01 4.22060E+01 0.00000E+00
 -1       501 5.86500E+01 4.22060E+01 0.00000E+00
 -1       502 6.16500E+01 4.22060E+01 0.00000E+00
 -1       503 6.46500E+01 4.22060E+01 0.00000E+00
 -1       504 6.76500E+01 4.22060E+01 0.00000E+00
 -1       505 7.06500E+01 4.22060E+01 0.00000E+00
 -1       506 7.36500E+01 4.22060E+01 0.00000E+00
 -1       507 7.66500E+01 4.22060E+01 0.00000E+00
 -1       508 7.96500E+01 4.22060E+01 0.00000E+00
 -1       509 8.26500E+01 4.22060E+01 0.00000E+00
 -1       510 8.56500E+01 4.22060E+01 0.00000E+00
 -1       511 8.86500E+01 4.22060E+01 0.00000E+00
 -1       512 9.16500E+01 4.22060E+01 0.00000E+00
 -1       513 9.46500E+01 4.22060E+01 0.00000E+00
 -1       514 9.76500E+01 4.22060E+01 0.00000E+00
 -1       515 1.00650E+02 4.22060E+01 0.00000E+00
 -1       516 1.03650E+02 4.22060E+01 0.00000E+00
 -1       517 1.06650E+02 4.22060E+01 0.00000E+00
 -1       518 1.09650E+02 4.22060E+01 0.00000E+00
 -1       519 1.12650E+02 4.22060E+01 0.00000E+00
 -1       520 1.15650E+02 4.22060E+01 0.00000E+00
 -1       521 1.18650E+02 4.22060E+01 0.00000E+00
 -1       522 1.21650E+02 4.22060E+01 0.00000E+00
 -1       523 1.24650E+02 4.22060E+01 0.00000E+00
 -1       524 1.27650E+02 4.22060E+01 0.00000E+00
 -1       525 1.30650E+02 4.22060E+01 0.00000E+00
 -1       526 1.33650E+02 4.22060E+01 0.00000E+00
 -1       527 1.36650E+02 4.22060E+01 0.00000E+00
 -1       528 1.39650E+02 4.22060E+01 0.00000E+00
 -1       529 9.80264E+01 2.43298E+01 0.00000E+00
 -1       530 1.90350E+01 6.60425E+00 0.00000E+00
 -1       531 2.20350E+01 6.60425E+00 0.00000E+00
 -1       532 2.50350E+01 6.60425E+00 0.00000E+00
 -1       533 2.80350E+01 6.60425E+00 0.00000E+00
 -1       534 3.10350E+01 6.60425E+00 0.00000E+00
 -1       535 3.40350E+01 6.60425E+00 0.00000E+00
 -1       536 3.70350E+01 6.60425E+00 0.00000E+00
 -1       537 4.00350E+01 6.60425E+00 0.00000E+00
 -1       538 4.30350E+01 6.60425E+00 0.00000E+00
 -1       539 4.60350E+01 6.60425E+00 0.00000E+00
 -1       540 4.90350E+01 6.60425E+00 0.00000E+00
 -1       541 5.20350E+01 6.60425E+00 0.00000E+00
 -1       542 5.50350E+01 6.60425E+00 0.00000E+00
 -1       543 5.80350E+01 6.60425E+00 0.00000E+00
 -1       544 6.10350E+01 6.60425E+00 0.00000E+00
 -1       545 6.40350E+01 6.60425E+00 0.00000E+00
 -1       546 6.70350E+01 6.60425E+00 0.00000E+00
 -1       547 7.00350E+01 6.60425E+00 0.00000E+00
 -1       548 7.30350E+01 6.60425E+00 0.00000E+00
 -1       549 7.60350E+01 6.60425E+00 0.00000E+00
 -1       550 7.90350E+01 6.60425E+00 0.00000E+00
 -1       551 8.20350E+01 6.60425E+00 0.00000E+00
 -1       552 8.50350E+01 6.60425E+00 0.00000E+00
 -1       553 8.80350E+01 6.60425E+00 0.00000E+00
 -1       554 9.10350E+01 6.60425E+00 0.00000E+00
 -1       555 9.40350E+01 6.60425E+00 0.00000E+00
 -1       556 9.70350E+01 6.60425E+00 0.00000E+00
 -1       557 1.00035E+02 6.60425E+00 0.00000E+00
 -1       558 1.03035E+02 6.60425E+00 0.00000E+00
 -1       559 1.06035E+02 6.60425E+00 0.00000E+00
 -1       560 1.09035E+02 6.60425E+00 0.00000E+00
 -1       561 1.12035E+02 6.60425E+00 0.00000E+00
 -1       562 1.15035E+02 6.60425E+00 0.00000E+00
 -1       563 1.18035E+02 6.60425E+00 0.00000E+00
 -1       564 1.21035E+02 6.60425E+00 0.00000E+00
 -1       565 1.24035E+02 6.60425E+00 0.00000E+00
 -1       566 1.27035E+02 6.60425E+00 0.00000E+00
 -1       567 1.30035E+02 6.60425E+00 0.00000E+00
 -1       568 1.33035E+02 6.60425E+00 0.00000E+00
 -1       569 1.36035E+02 6.60425E+00 0.00000E+00
 -1       570 1.39035E+02 6.60425E+00 0.00000E+00
 -1       571 1.42035E+02 6.60425E+00 0.00000E+00
 -1       572 1.42206E+02 1.61750E+01 0.00000E+00
 -1       573 1.42206E+02 1.91250E+01 0.00000E+00
 -1       574 1.42206E+02 1.03250E+01 0.00000E+00
 -1       575 1.42206E+02 1.32500E+01 0.00000E+00
 -1       576 1.42206E+02 2.20750E+01 0.00000E+00
 -1       577 1.42206E+02 2.50250E+01 0.00000E+00
 -1       578 1.42206E+02 2.79750E+01 0.00000E+00
 -1       579 1.42206E+02 3.08750E+01 0.00000E+00
 -1       580 1.42206E+02 3.38250E+01 0.00000E+00
 -1       581 1.42206E+02 3.67750E+01 0.00000E+00
 -1       582 1.42206E+02 3.97250E+01 0.00000E+00
 -1       583 9.80315E+01 2.90281E+01 0.00000E+00
 -1       584 1.60350E+01 6.60425E+00 0.00000E+00
 -1       585 9.66482E+01 2.23218E+01 0.00000E+00
 -1       586 9.75477E+01 3.15644E+01 0.00000E+00
 -1       587 7.92300E+00 4.16780E+01 0.00000E+00
 -1       588 9.54014E+01 2.06090E+01 0.00000E+00
 -1       589 7.65250E+01 3.20691E+01 0.00000E+00
 -1       590 8.22095E+01 1.76198E+01 0.00000E+00
 -1       591 7.79400E+00 2.79000E+01 0.00000E+00
 -1       592 8.73216E+01 1.66935E+01 0.00000E+00
 -1       593 7.57613E+01 2.76908E+01 0.00000E+00
 -1       594 8.95206E+01 1.70581E+01 0.00000E+00
 -1       595 8.45490E+01 1.68667E+01 0.00000E+00
 -1       596 8.01337E+01 1.86927E+01 0.00000E+00
 -1       597 7.84370E+01 2.05806E+01 0.00000E+00
 -1       598 7.71095E+01 2.26442E+01 0.00000E+00
 -1       599 8.53691E+01 3.87954E+01 0.00000E+00
 -1       600 7.60402E+01 2.49352E+01 0.00000E+00
 -1       601 7.58166E+01 2.96234E+01 0.00000E+00
 -1       602 7.73969E+01 3.41746E+01 0.00000E+00
 -1       603 8.11943E+01 3.76455E+01 0.00000E+00
 -1       604 8.31023E+01 3.83106E+01 0.00000E+00
 -1       605 8.74706E+01 3.87114E+01 0.00000E+00
 -1       606 8.95348E+01 3.86614E+01 0.00000E+00
 -1       607 9.17669E+01 3.78446E+01 0.00000E+00
 -1       608 9.36924E+01 3.67633E+01 0.00000E+00
 -1       609 9.54944E+01 3.52292E+01 0.00000E+00
 -1       610 9.67341E+01 3.32583E+01 0.00000E+00
 -1       611 9.82993E+01 2.66982E+01 0.00000E+00
 -1       612 7.61550E+00 6.21462E+00 0.00000E+00
 -1       613 9.36329E+01 1.89889E+01 0.00000E+00
 -1       614 7.79400E+00 3.67375E+01 0.00000E+00
 -1       615 9.89670E+01 3.06384E+01 0.00000E+00
 -1       616 1.41678E+02 4.22645E+01 0.00000E+00
 -1       617 8.57409E+01 1.54385E+01 0.00000E+00
 -1       618 7.75093E+01 3.58876E+01 0.00000E+00
 -1       619 1.03920E+01 2.05500E+01 0.00000E+00
 -1       620 1.03920E+01 2.35000E+01 0.00000E+00
 -1       621 1.03920E+01 1.46750E+01 0.00000E+00
 -1       622 1.03920E+01 1.17250E+01 0.00000E+00
 -1       623 1.15350E+01 9.20225E+00 0.00000E+00
 -1       624 9.74114E+01 2.04561E+01 0.00000E+00
 -1       625 9.86869E+01 3.31538E+01 0.00000E+00
 -1       626 1.45350E+01 9.20225E+00 0.00000E+00
 -1       627 9.56757E+01 1.85343E+01 0.00000E+00
 -1       628 1.51500E+01 3.96080E+01 0.00000E+00
 -1       629 1.81500E+01 3.96080E+01 0.00000E+00
 -1       630 2.11500E+01 3.96080E+01 0.00000E+00
 -1       631 2.41500E+01 3.96080E+01 0.00000E+00
 -1       632 2.71500E+01 3.96080E+01 0.00000E+00
 -1       633 3.01500E+01 3.96080E+01 0.00000E+00
 -1       634 3.31500E+01 3.96080E+01 0.00000E+00
 -1       635 3.61500E+01 3.96080E+01 0.00000E+00
 -1       636 3.91500E+01 3.96080E+01 0.00000E+00
 -1       637 4.21500E+01 3.96080E+01 0.00000E+00
 -1       638 4.51500E+01 3.96080E+01 0.00000E+00
 -1       639 4.81500E+01 3.96080E+01 0.00000E+00
 -1       640 5.11500E+01 3.96080E+01 0.00000E+00
 -1       641 5.41500E+01 3.96080E+01 0.00000E+00
 -1       642 5.71500E+01 3.96080E+01 0.00000E+00
 -1       643 6.01500E+01 3.96080E+01 0.00000E+00
 -1       644 6.31500E+01 3.96080E+01 0.00000E+00
 -1       645 6.61500E+01 3.96080E+01 0.00000E+00
 -1       646 6.91500E+01 3.96080E+01 0.00000E+00
 -1       647 7.21500E+01 3.96080E+01 0.00000E+00
 -1       648 7.51500E+01 3.96080E+01 0.00000E+00
 -1       649 7.81500E+01 3.96080E+01 0.00000E+00
 -1       650 9.31500E+01 3.98206E+01 0.00000E+00
 -1       651 9.61500E+01 3.98206E+01 0.00000E+00
 -1       652 9.91500E+01 3.98206E+01 0.00000E+00
 -1       653 1.02150E+02 3.98206E+01 0.00000E+00
 -1       654 1.05150E+02 3.98206E+01 0.00000E+00
 -1       655 1.08150E+02 3.98206E+01 0.00000E+00
 -1       656 1.11150E+02 3.98206E+01 0.00000E+00
 -1       657 1.14150E+02 3.98206E+01 0.00000E+00
 -1       658 1.17150E+02 3.98206E+01 0.00000E+00
 -1       659 1.20150E+02 3.98206E+01 0.00000E+00
 -1       660 1.23150E+02 3.98206E+01 0.00000E+00
 -1       661 1.26150E+02 3.98206E+01 0.00000E+00
 -1       662 1.29150E+02 3.98206E+01 0.00000E+00
 -1       663 1.32150E+02 3.98206E+01 0.00000E+00
 -1       664 1.35150E+02 3.98206E+01 0.00000E+00
 -1       665 1.38150E+02 3.98206E+01 0.00000E+00
 -1       666 9.13554E+01 4.01784E+01 0.00000E+00
 -1       667 2.05350E+01 9.20225E+00 0.00000E+00
 -1       668 2.95350E+01 9.20225E+00 0.00000E+00
 -1       669 3.25350E+01 9.20225E+00 0.00000E+00
 -1       670 3.55350E+01 9.20225E+00 0.00000E+00
 -1       671 3.85350E+01 9.20225E+00 0.00000E+00
 -1       672 4.15350E+01 9.20225E+00 0.00000E+00
 -1       673 4.45350E+01 9.20225E+00 0.00000E+00
 -1       674 4.75350E+01 9.20225E+00 0.00000E+00
 -1       675 5.05350E+01 9.20225E+00 0.00000E+00
 -1       676 5.35350E+01 9.20225E+00 0.00000E+00
 -1       677 5.65350E+01 9.20225E+00 0.00000E+00
 -1       678 5.95350E+01 9.20225E+00 0.00000E+00
 -1       679 6.25350E+01 9.20225E+00 0.00000E+00
 -1       680 6.55350E+01 9.20225E+00 0.00000E+00
 -1       681 6.85350E+01 9.20225E+00 0.00000E+00
 -1       682 7.15350E+01 9.20225E+00 0.00000E+00
 -1       683 7.45350E+01 9.20225E+00 0.00000E+00
 -1       684 7.75350E+01 9.20225E+00 0.00000E+00
 -1       685 8.05350E+01 9.20225E+00 0.00000E+00
 -1       686 8.35350E+01 9.20225E+00 0.00000E+00
 -1       687 8.65350E+01 9.20225E+00 0.00000E+00
 -1       688 8.95350E+01 9.20225E+00 0.00000E+00
 -1       689 9.25350E+01 9.20225E+00 0.00000E+00
 -1       690 9.55350E+01 9.20225E+00 0.00000E+00
 -1       691 9.85350E+01 9.20225E+00 0.00000E+00
 -1       692 1.01535E+02 9.20225E+00 0.00000E+00
 -1       693 1.04535E+02 9.20225E+00 0.00000E+00
 -1       694 1.07535E+02 9.20225E+00 0.00000E+00
 -1       695 1.10535E+02 9.20225E+00 0.00000E+00
 -1       696 1.13535E+02 9.20225E+00 0.00000E+00
 -1       697 1.16535E+02 9.20225E+00 0.00000E+00
 -1       698 1.19535E+02 9.20225E+00 0.00000E+00
 -1       699 1.22535E+02 9.20225E+00 0.00000E+00
 -1       700 1.25535E+02 9.20225E+00 0.00000E+00
 -1       701 1.28535E+02 9.20225E+00 0.00000E+00
 -1       702 1.31535E+02 9.20225E+00 0.00000E+00
 -1       703 1.34535E+02 9.20225E+00 0.00000E+00
 -1       704 1.37535E+02 9.20225E+00 0.00000E+00
 -1       705 1.39870E+02 9.76363E+00 0.00000E+00
 -1       706 1.39608E+02 2.35500E+01 0.00000E+00
 -1       707 1.40178E+02 3.97728E+01 0.00000E+00
 -1       708 1.39608E+02 1.76500E+01 0.00000E+00
 -1       709 1.39608E+02 2.65000E+01 0.00000E+00
 -1       710 1.39608E+02 2.06000E+01 0.00000E+00
 -1       711 9.87896E+01 2.24640E+01 0.00000E+00
 -1       712 1.39608E+02 2.94000E+01 0.00000E+00
 -1       713 1.39608E+02 3.23500E+01 0.00000E+00
 -1       714 1.39608E+02 3.53000E+01 0.00000E+00
 -1       715 1.39893E+02 3.75364E+01 0.00000E+00
 -1       716 1.75350E+01 9.20225E+00 0.00000E+00
 -1       717 9.78035E+00 3.93914E+01 0.00000E+00
 -1       718 7.52215E+01 3.38422E+01 0.00000E+00
 -1       719 7.45132E+01 3.13965E+01 0.00000E+00
 -1       720 8.28023E+01 1.54512E+01 0.00000E+00
 -1       721 7.89643E+01 3.80497E+01 0.00000E+00
 -1       722 2.65350E+01 9.20225E+00 0.00000E+00
 -1       723 2.35350E+01 9.20225E+00 0.00000E+00
 -1       724 1.24652E+01 3.94997E+01 0.00000E+00
 -1       725 7.40277E+01 2.61234E+01 0.00000E+00
 -1       726 9.12032E+01 1.57726E+01 0.00000E+00
 -1       727 1.03920E+01 1.76125E+01 0.00000E+00
 -1       728 1.03920E+01 3.23250E+01 0.00000E+00
 -1       729 7.60490E+01 2.05032E+01 0.00000E+00
 -1       730 7.77604E+01 1.82662E+01 0.00000E+00
 -1       731 9.97861E+01 2.80494E+01 0.00000E+00
 -1       732 7.49797E+01 2.27942E+01 0.00000E+00
 -1       733 7.37396E+01 2.87158E+01 0.00000E+00
 -1       734 8.02302E+01 1.63349E+01 0.00000E+00
 -1       735 1.00033E+02 2.52984E+01 0.00000E+00
 -1       736 8.15287E+01 3.97558E+01 0.00000E+00
 -1       737 9.75660E+01 3.51569E+01 0.00000E+00
 -1       738 8.37954E+01 4.02406E+01 0.00000E+00
 -1       739 9.57052E+01 3.73022E+01 0.00000E+00
 -1       740 9.37031E+01 1.70453E+01 0.00000E+00
 -1       741 8.87564E+01 1.48532E+01 0.00000E+00
 -1       742 1.03920E+01 3.52625E+01 0.00000E+00
 -1       743 1.03920E+01 2.64500E+01 0.00000E+00
 -1       744 1.39608E+02 1.47250E+01 0.00000E+00
 -1       745 7.29671E+01 2.39823E+01 0.00000E+00
 -1       746 9.36515E+01 3.89455E+01 0.00000E+00
 -1       747 1.39739E+02 1.22443E+01 0.00000E+00
 -1       748 7.53339E+01 3.55552E+01 0.00000E+00
 -1       749 1.00796E+02 2.34327E+01 0.00000E+00
 -1       750 8.39942E+01 1.40229E+01 0.00000E+00
 -1       751 1.03920E+01 2.93875E+01 0.00000E+00
 -1       752 1.00448E+02 3.20766E+01 0.00000E+00
 -1       753 1.29900E+01 1.32000E+01 0.00000E+00
 -1       754 1.37010E+02 2.79500E+01 0.00000E+00
 -1       755 9.07599E+01 1.32368E+01 0.00000E+00
 -1       756 1.96500E+01 3.70100E+01 0.00000E+00
 -1       757 2.26500E+01 3.70100E+01 0.00000E+00
 -1       758 2.56500E+01 3.70100E+01 0.00000E+00
 -1       759 2.86500E+01 3.70100E+01 0.00000E+00
 -1       760 3.16500E+01 3.70100E+01 0.00000E+00
 -1       761 3.46500E+01 3.70100E+01 0.00000E+00
 -1       762 3.76500E+01 3.70100E+01 0.00000E+00
 -1       763 4.06500E+01 3.70100E+01 0.00000E+00
 -1       764 4.36500E+01 3.70100E+01 0.00000E+00
 -1       765 4.66500E+01 3.70100E+01 0.00000E+00
 -1       766 4.96500E+01 3.70100E+01 0.00000E+00
 -1       767 5.26500E+01 3.70100E+01 0.00000E+00
 -1       768 5.56500E+01 3.70100E+01 0.00000E+00
 -1       769 5.86500E+01 3.70100E+01 0.00000E+00
 -1       770 6.16500E+01 3.70100E+01 0.00000E+00
 -1       771 6.46500E+01 3.70100E+01 0.00000E+00
 -1       772 6.76500E+01 3.70100E+01 0.00000E+00
 -1       773 7.06500E+01 3.70100E+01 0.00000E+00
 -1       774 7.18459E+01 2.71931E+01 0.00000E+00
 -1       775 1.00650E+02 3.72676E+01 0.00000E+00
 -1       776 1.03650E+02 3.72676E+01 0.00000E+00
 -1       777 1.06650E+02 3.72676E+01 0.00000E+00
 -1       778 1.09650E+02 3.72676E+01 0.00000E+00
 -1       779 1.12650E+02 3.72676E+01 0.00000E+00
 -1       780 1.15650E+02 3.72676E+01 0.00000E+00
 -1       781 1.18650E+02 3.72676E+01 0.00000E+00
 -1       782 1.21650E+02 3.72676E+01 0.00000E+00
 -1       783 1.24650E+02 3.72676E+01 0.00000E+00
 -1       784 1.27650E+02 3.72676E+01 0.00000E+00
 -1       785 1.30650E+02 3.72676E+01 0.00000E+00
 -1       786 1.33650E+02 3.72676E+01 0.00000E+00
 -1       787 1.36650E+02 3.72676E+01 0.00000E+00
 -1       788 2.20350E+01 1.18003E+01 0.00000E+00
 -1       789 3.10350E+01 1.18003E+01 0.00000E+00
 -1       790 4.00350E+01 1.18003E+01 0.00000E+00
 -1       791 4.30350E+01 1.18003E+01 0.00000E+00
 -1       792 4.60350E+01 1.18003E+01 0.00000E+00
 -1       793 4.90350E+01 1.18003E+01 0.00000E+00
 -1       794 5.20350E+01 1.18003E+01 0.00000E+00
 -1       795 5.50350E+01 1.18003E+01 0.00000E+00
 -1       796 5.80350E+01 1.18003E+01 0.00000E+00
 -1       797 6.10350E+01 1.18003E+01 0.00000E+00
 -1       798 6.40350E+01 1.18003E+01 0.00000E+00
 -1       799 6.70350E+01 1.18003E+01 0.00000E+00
 -1       800 7.00350E+01 1.18003E+01 0.00000E+00
 -1       801 7.30350E+01 1.18003E+01 0.00000E+00
 -1       802 7.60350E+01 1.18003E+01 0.00000E+00
 -1       803 7.90350E+01 1.18003E+01 0.00000E+00
 -1       804 8.20350E+01 1.18003E+01 0.00000E+00
 -1       805 8.80350E+01 1.14201E+01 0.00000E+00
 -1       806 9.70350E+01 1.18003E+01 0.00000E+00
 -1       807 1.00035E+02 1.18003E+01 0.00000E+00
 -1       808 1.03035E+02 1.18003E+01 0.00000E+00
 -1       809 1.06035E+02 1.18003E+01 0.00000E+00
 -1       810 1.09035E+02 1.18003E+01 0.00000E+00
 -1       811 1.12035E+02 1.18003E+01 0.00000E+00
 -1       812 1.15035E+02 1.18003E+01 0.00000E+00
 -1       813 1.18035E+02 1.18003E+01 0.00000E+00
 -1       814 1.21035E+02 1.18003E+01 0.00000E+00
 -1       815 1.24035E+02 1.18003E+01 0.00000E+00
 -1       816 1.27035E+02 1.18003E+01 0.00000E+00
 -1       817 1.30035E+02 1.18003E+01 0.00000E+00
 -1       818 1.33035E+02 1.18003E+01 0.00000E+00
 -1       819 1.36035E+02 1.18003E+01 0.00000E+00
 -1       820 1.37887E+02 1.20223E+01 0.00000E+00
 -1       821 1.29900E+01 2.20250E+01 0.00000E+00
 -1       822 1.37010E+02 3.09000E+01 0.00000E+00
 -1       823 1.37010E+02 2.50000E+01 0.00000E+00
 -1       824 1.37010E+02 3.38500E+01 0.00000E+00
 -1       825 8.66864E+01 1.47188E+01 0.00000E+00
 -1       826 7.28981E+01 3.31897E+01 0.00000E+00
 -1       827 2.80350E+01 1.18003E+01 0.00000E+00
 -1       828 3.70350E+01 1.18003E+01 0.00000E+00
 -1       829 3.40350E+01 1.18003E+01 0.00000E+00
 -1       830 9.81895E+01 1.80086E+01 0.00000E+00
 -1       831 1.66500E+01 3.70100E+01 0.00000E+00
 -1       832 2.50350E+01 1.18003E+01 0.00000E+00
 -1       833 7.21244E+01 3.05090E+01 0.00000E+00
 -1       834 7.51432E+01 1.80371E+01 0.00000E+00
 -1       835 9.83110E+01 3.76828E+01 0.00000E+00
 -1       836 7.35046E+01 2.07107E+01 0.00000E+00
 -1       837 8.07956E+01 1.37955E+01 0.00000E+00
 -1       838 9.97694E+01 3.50748E+01 0.00000E+00
 -1       839 1.01785E+02 2.68423E+01 0.00000E+00
 -1       840 9.32598E+01 1.45095E+01 0.00000E+00
 -1       841 7.74227E+01 1.52894E+01 0.00000E+00
 -1       842 1.37625E+01 1.12011E+01 0.00000E+00
 -1       843 9.99291E+01 2.02050E+01 0.00000E+00
 -1       844 9.60256E+01 1.60197E+01 0.00000E+00
 -1       845 1.01012E+02 2.98612E+01 0.00000E+00
 -1       846 8.78325E+01 1.30745E+01 0.00000E+00
 -1       847 8.59134E+01 1.35487E+01 0.00000E+00
 -1       848 1.29900E+01 2.49750E+01 0.00000E+00
 -1       849 1.29900E+01 1.61375E+01 0.00000E+00
 -1       850 1.29900E+01 3.37938E+01 0.00000E+00
 -1       851 1.37010E+02 1.61875E+01 0.00000E+00
 -1       852 1.01531E+02 3.39976E+01 0.00000E+00
 -1       853 1.37010E+02 2.20500E+01 0.00000E+00
 -1       854 1.02548E+02 2.49766E+01 0.00000E+00
 -1       855 8.50350E+01 1.15876E+01 0.00000E+00
 -1       856 9.40350E+01 1.18003E+01 0.00000E+00
 -1       857 1.37010E+02 1.91187E+01 0.00000E+00
 -1       858 1.29900E+01 1.90875E+01 0.00000E+00
 -1       859 1.67625E+01 1.12011E+01 0.00000E+00
 -1       860 1.93988E+01 1.15007E+01 0.00000E+00
 -1       861 1.39652E+01 3.69017E+01 0.00000E+00
 -1       862 1.29900E+01 3.08563E+01 0.00000E+00
 -1       863 1.34412E+02 3.23750E+01 0.00000E+00
 -1       864 7.12128E+01 2.20142E+01 0.00000E+00
 -1       865 2.35350E+01 1.43982E+01 0.00000E+00
 -1       866 2.41500E+01 3.44120E+01 0.00000E+00
 -1       867 2.71500E+01 3.44120E+01 0.00000E+00
 -1       868 3.01500E+01 3.44120E+01 0.00000E+00
 -1       869 3.31500E+01 3.44120E+01 0.00000E+00
 -1       870 3.61500E+01 3.44120E+01 0.00000E+00
 -1       871 3.91500E+01 3.44120E+01 0.00000E+00
 -1       872 4.21500E+01 3.44120E+01 0.00000E+00
 -1       873 4.51500E+01 3.44120E+01 0.00000E+00
 -1       874 4.81500E+01 3.44120E+01 0.00000E+00
 -1       875 5.11500E+01 3.44120E+01 0.00000E+00
 -1       876 5.41500E+01 3.44120E+01 0.00000E+00
 -1       877 5.71500E+01 3.44120E+01 0.00000E+00
 -1       878 6.01500E+01 3.44120E+01 0.00000E+00
 -1       879 6.31500E+01 3.44120E+01 0.00000E+00
 -1       880 6.61500E+01 3.44120E+01 0.00000E+00
 -1       881 6.91500E+01 3.44120E+01 0.00000E+00
 -1       882 6.96082E+01 2.90507E+01 0.00000E+00
 -1       883 9.56253E+01 1.34651E+01 0.00000E+00
 -1       884 1.05150E+02 3.47147E+01 0.00000E+00
 -1       885 1.08150E+02 3.47147E+01 0.00000E+00
 -1       886 1.11150E+02 3.47147E+01 0.00000E+00
 -1       887 1.14150E+02 3.47147E+01 0.00000E+00
 -1       888 1.17150E+02 3.47147E+01 0.00000E+00
 -1       889 1.20150E+02 3.47147E+01 0.00000E+00
 -1       890 1.23150E+02 3.47147E+01 0.00000E+00
 -1       891 1.26150E+02 3.47147E+01 0.00000E+00
 -1       892 1.29150E+02 3.47147E+01 0.00000E+00
 -1       893 1.32150E+02 3.47147E+01 0.00000E+00
 -1       894 1.37449E+02 1.41049E+01 0.00000E+00
 -1       895 4.15350E+01 1.43982E+01 0.00000E+00
 -1       896 5.05350E+01 1.43982E+01 0.00000E+00
 -1       897 5.35350E+01 1.43982E+01 0.00000E+00
 -1       898 5.65350E+01 1.43982E+01 0.00000E+00
 -1       899 5.95350E+01 1.43982E+01 0.00000E+00
 -1       900 6.25350E+01 1.43982E+01 0.00000E+00
 -1       901 6.55350E+01 1.43982E+01 0.00000E+00
 -1       902 6.85350E+01 1.43982E+01 0.00000E+00
 -1       903 7.15350E+01 1.43982E+01 0.00000E+00
 -1       904 9.86253E+01 1.34651E+01 0.00000E+00
 -1       905 1.07535E+02 1.43982E+01 0.00000E+00
 -1       906 1.10535E+02 1.43982E+01 0.00000E+00
 -1       907 1.13535E+02 1.43982E+01 0.00000E+00
 -1       908 1.16535E+02 1.43982E+01 0.00000E+00
 -1       909 1.19535E+02 1.43982E+01 0.00000E+00
 -1       910 1.22535E+02 1.43982E+01 0.00000E+00
 -1       911 1.25535E+02 1.43982E+01 0.00000E+00
 -1       912 1.28535E+02 1.43982E+01 0.00000E+00
 -1       913 1.31535E+02 1.43982E+01 0.00000E+00
 -1       914 1.34412E+02 2.94250E+01 0.00000E+00
 -1       915 1.34412E+02 2.64750E+01 0.00000E+00
 -1       916 1.02717E+02 3.14743E+01 0.00000E+00
 -1       917 2.95350E+01 1.43982E+01 0.00000E+00
 -1       918 3.85350E+01 1.43982E+01 0.00000E+00
 -1       919 1.00929E+02 1.76257E+01 0.00000E+00
 -1       920 1.29900E+01 2.79188E+01 0.00000E+00
 -1       921 7.00915E+01 2.52249E+01 0.00000E+00
 -1       922 1.81500E+01 3.44120E+01 0.00000E+00
 -1       923 2.65350E+01 1.43982E+01 0.00000E+00
 -1       924 7.05414E+01 3.24178E+01 0.00000E+00
 -1       925 1.02872E+02 2.11446E+01 0.00000E+00
 -1       926 1.04535E+02 1.43982E+01 0.00000E+00
 -1       927 4.45350E+01 1.43982E+01 0.00000E+00
 -1       928 1.03490E+02 2.84554E+01 0.00000E+00
 -1       929 1.02590E+02 3.56326E+01 0.00000E+00
 -1       930 7.32319E+01 3.48329E+01 0.00000E+00
 -1       931 7.21472E+01 1.80399E+01 0.00000E+00
 -1       932 7.42834E+01 1.50045E+01 0.00000E+00
 -1       933 2.11500E+01 3.44120E+01 0.00000E+00
 -1       934 4.75350E+01 1.43982E+01 0.00000E+00
 -1       935 1.59900E+01 1.32000E+01 0.00000E+00
 -1       936 1.01535E+02 1.43982E+01 0.00000E+00
 -1       937 6.98554E+01 1.93433E+01 0.00000E+00
 -1       938 2.05351E+01 1.43983E+01 0.00000E+00
 -1       939 1.34412E+02 2.35250E+01 0.00000E+00
 -1       940 3.25350E+01 1.43982E+01 0.00000E+00
 -1       941 3.55350E+01 1.43982E+01 0.00000E+00
 -1       942 1.34412E+02 1.76531E+01 0.00000E+00
 -1       943 1.34535E+02 1.43982E+01 0.00000E+00
 -1       944 9.98622E+01 1.62034E+01 0.00000E+00
 -1       945 1.55880E+01 2.35000E+01 0.00000E+00
 -1       946 1.56748E+01 3.39021E+01 0.00000E+00
 -1       947 1.55880E+01 2.05625E+01 0.00000E+00
 -1       948 1.56748E+01 3.09646E+01 0.00000E+00
 -1       949 1.04253E+02 2.65897E+01 0.00000E+00
 -1       950 7.08916E+01 3.44529E+01 0.00000E+00
 -1       951 2.20351E+01 1.69963E+01 0.00000E+00
 -1       952 6.79375E+01 3.13266E+01 0.00000E+00
 -1       953 2.86500E+01 3.18140E+01 0.00000E+00
 -1       954 3.16500E+01 3.18140E+01 0.00000E+00
 -1       955 3.46500E+01 3.18140E+01 0.00000E+00
 -1       956 3.76500E+01 3.18140E+01 0.00000E+00
 -1       957 4.06500E+01 3.18140E+01 0.00000E+00
 -1       958 4.36500E+01 3.18140E+01 0.00000E+00
 -1       959 4.66500E+01 3.18140E+01 0.00000E+00
 -1       960 4.96500E+01 3.18140E+01 0.00000E+00
 -1       961 5.26500E+01 3.18140E+01 0.00000E+00
 -1       962 5.56500E+01 3.18140E+01 0.00000E+00
 -1       963 5.86500E+01 3.18140E+01 0.00000E+00
 -1       964 6.16500E+01 3.18140E+01 0.00000E+00
 -1       965 6.46500E+01 3.18140E+01 0.00000E+00
 -1       966 1.82625E+01 1.37991E+01 0.00000E+00
 -1       967 1.31413E+02 3.17390E+01 0.00000E+00
 -1       968 1.09650E+02 3.21167E+01 0.00000E+00
 -1       969 1.12650E+02 3.21167E+01 0.00000E+00
 -1       970 1.15650E+02 3.21167E+01 0.00000E+00
 -1       971 1.18650E+02 3.21167E+01 0.00000E+00
 -1       972 1.21650E+02 3.21167E+01 0.00000E+00
 -1       973 1.24650E+02 3.21167E+01 0.00000E+00
 -1       974 1.27650E+02 3.21167E+01 0.00000E+00
 -1       975 5.80350E+01 1.69963E+01 0.00000E+00
 -1       976 1.34412E+02 2.05844E+01 0.00000E+00
 -1       977 5.50350E+01 1.69963E+01 0.00000E+00
 -1       978 5.20350E+01 1.69963E+01 0.00000E+00
 -1       979 6.10350E+01 1.69963E+01 0.00000E+00
 -1       980 6.40350E+01 1.69963E+01 0.00000E+00
 -1       981 6.70350E+01 1.69963E+01 0.00000E+00
 -1       982 4.30350E+01 1.69963E+01 0.00000E+00
 -1       983 1.03777E+02 3.31094E+01 0.00000E+00
 -1       984 1.55880E+01 1.76125E+01 0.00000E+00
 -1       985 1.12035E+02 1.69963E+01 0.00000E+00
 -1       986 1.09035E+02 1.69963E+01 0.00000E+00
 -1       987 1.18035E+02 1.69963E+01 0.00000E+00
 -1       988 1.21035E+02 1.69963E+01 0.00000E+00
 -1       989 1.24035E+02 1.69963E+01 0.00000E+00
 -1       990 1.27035E+02 1.69963E+01 0.00000E+00
 -1       991 1.30035E+02 1.69963E+01 0.00000E+00
 -1       992 1.05577E+02 3.05981E+01 0.00000E+00
 -1       993 1.02732E+02 1.60120E+01 0.00000E+00
 -1       994 1.31814E+02 2.79500E+01 0.00000E+00
 -1       995 1.04675E+02 1.95309E+01 0.00000E+00
 -1       996 6.72723E+01 2.68121E+01 0.00000E+00
 -1       997 2.50351E+01 1.69963E+01 0.00000E+00
 -1       998 1.05884E+02 1.65041E+01 0.00000E+00
 -1       999 4.00350E+01 1.69963E+01 0.00000E+00
 -1      1000 1.56748E+01 2.80271E+01 0.00000E+00
 -1      1001 6.84001E+01 2.28331E+01 0.00000E+00
 -1      1002 2.80351E+01 1.69963E+01 0.00000E+00
 -1      1003 1.05087E+02 2.32614E+01 0.00000E+00
 -1      1004 1.15035E+02 1.69963E+01 0.00000E+00
 -1      1005 1.06713E+02 3.26130E+01 0.00000E+00
 -1      1006 1.56314E+01 2.57635E+01 0.00000E+00
 -1      1007 1.81500E+01 3.14745E+01 0.00000E+00
 -1      1008 2.56500E+01 3.18140E+01 0.00000E+00
 -1      1009 2.26500E+01 3.18140E+01 0.00000E+00
 -1      1010 2.04000E+01 3.16443E+01 0.00000E+00
 -1      1011 6.91952E+01 1.68708E+01 0.00000E+00
 -1      1012 6.56017E+01 2.90881E+01 0.00000E+00
 -1      1013 4.60350E+01 1.69963E+01 0.00000E+00
 -1      1014 1.87365E+01 1.66109E+01 0.00000E+00
 -1      1015 1.31814E+02 2.50000E+01 0.00000E+00
 -1      1016 1.82072E+01 2.45819E+01 0.00000E+00
 -1      1017 3.70350E+01 1.69963E+01 0.00000E+00
 -1      1018 1.30035E+02 1.99275E+01 0.00000E+00
 -1      1019 3.10351E+01 1.69963E+01 0.00000E+00
 -1      1020 1.06340E+02 2.87324E+01 0.00000E+00
 -1      1021 1.82072E+01 2.16444E+01 0.00000E+00
 -1      1022 4.90350E+01 1.69963E+01 0.00000E+00
 -1      1023 1.11150E+02 2.95187E+01 0.00000E+00
 -1      1024 3.31500E+01 2.92160E+01 0.00000E+00
 -1      1025 3.61500E+01 2.92160E+01 0.00000E+00
 -1      1026 3.91500E+01 2.92160E+01 0.00000E+00
 -1      1027 4.21500E+01 2.92160E+01 0.00000E+00
 -1      1028 4.51500E+01 2.92160E+01 0.00000E+00
 -1      1029 4.81500E+01 2.92160E+01 0.00000E+00
 -1      1030 5.11500E+01 2.92160E+01 0.00000E+00
 -1      1031 5.41500E+01 2.92160E+01 0.00000E+00
 -1      1032 5.71500E+01 2.92160E+01 0.00000E+00
 -1      1033 6.01500E+01 2.92160E+01 0.00000E+00
 -1      1034 6.28758E+01 2.91520E+01 0.00000E+00
 -1      1035 1.25535E+02 1.95942E+01 0.00000E+00
 -1      1036 1.07463E+02 2.11109E+01 0.00000E+00
 -1      1037 1.28051E+02 2.83276E+01 0.00000E+00
 -1      1038 1.14150E+02 2.95187E+01 0.00000E+00
 -1      1039 1.17150E+02 2.95187E+01 0.00000E+00
 -1      1040 1.20150E+02 2.95187E+01 0.00000E+00
 -1      1041 1.23150E+02 2.95187E+01 0.00000E+00
 -1      1042 1.25600E+02 2.89232E+01 0.00000E+00
 -1      1043 6.25350E+01 1.95942E+01 0.00000E+00
 -1      1044 5.65350E+01 1.95942E+01 0.00000E+00
 -1      1045 5.35350E+01 1.95942E+01 0.00000E+00
 -1      1046 1.30924E+02 2.24638E+01 0.00000E+00
 -1      1047 6.67299E+01 2.00883E+01 0.00000E+00
 -1      1048 1.81500E+01 2.85370E+01 0.00000E+00
 -1      1049 5.95350E+01 1.95942E+01 0.00000E+00
 -1      1050 1.10535E+02 1.95942E+01 0.00000E+00
 -1      1051 1.81786E+01 2.65595E+01 0.00000E+00
 -1      1052 1.22535E+02 1.95942E+01 0.00000E+00
 -1      1053 1.19535E+02 1.95942E+01 0.00000E+00
 -1      1054 1.27785E+02 1.97609E+01 0.00000E+00
 -1      1055 2.00843E+01 1.93840E+01 0.00000E+00
 -1      1056 3.40350E+01 1.69963E+01 0.00000E+00
 -1      1057 2.35351E+01 1.95943E+01 0.00000E+00
 -1      1058 4.15350E+01 1.95942E+01 0.00000E+00
 -1      1059 2.65351E+01 1.95943E+01 0.00000E+00
 -1      1060 1.07173E+02 2.54041E+01 0.00000E+00
 -1      1061 3.01500E+01 2.92160E+01 0.00000E+00
 -1      1062 1.16535E+02 1.95942E+01 0.00000E+00
 -1      1063 6.55413E+01 2.41722E+01 0.00000E+00
 -1      1064 2.41500E+01 2.92160E+01 0.00000E+00
 -1      1065 1.13535E+02 1.95942E+01 0.00000E+00
 -1      1066 2.71500E+01 2.92160E+01 0.00000E+00
 -1      1067 1.08150E+02 2.95187E+01 0.00000E+00
 -1      1068 1.28051E+02 2.53776E+01 0.00000E+00
 -1      1069 5.05350E+01 1.95942E+01 0.00000E+00
 -1      1070 2.04000E+01 2.87068E+01 0.00000E+00
 -1      1071 3.85350E+01 1.95942E+01 0.00000E+00
 -1      1072 4.45350E+01 1.95942E+01 0.00000E+00
 -1      1073 2.95351E+01 1.95943E+01 0.00000E+00
 -1      1074 2.07906E+01 2.56083E+01 0.00000E+00
 -1      1075 2.07906E+01 2.26708E+01 0.00000E+00
 -1      1076 6.42085E+01 2.66621E+01 0.00000E+00
 -1      1077 2.22750E+01 2.89614E+01 0.00000E+00
 -1      1078 4.75350E+01 1.95942E+01 0.00000E+00
 -1      1079 2.86500E+01 2.66180E+01 0.00000E+00
 -1      1080 3.46500E+01 2.66180E+01 0.00000E+00
 -1      1081 3.76500E+01 2.66180E+01 0.00000E+00
 -1      1082 4.06500E+01 2.66180E+01 0.00000E+00
 -1      1083 4.36500E+01 2.66180E+01 0.00000E+00
 -1      1084 4.66500E+01 2.66180E+01 0.00000E+00
 -1      1085 4.96500E+01 2.66180E+01 0.00000E+00
 -1      1086 5.26500E+01 2.66180E+01 0.00000E+00
 -1      1087 5.56500E+01 2.66180E+01 0.00000E+00
 -1      1088 5.86500E+01 2.66180E+01 0.00000E+00
 -1      1089 1.12650E+02 2.69207E+01 0.00000E+00
 -1      1090 1.15650E+02 2.69207E+01 0.00000E+00
 -1      1091 1.18650E+02 2.69207E+01 0.00000E+00
 -1      1092 1.21650E+02 2.69207E+01 0.00000E+00
 -1      1093 5.80350E+01 2.21922E+01 0.00000E+00
 -1      1094 1.21035E+02 2.21922E+01 0.00000E+00
 -1      1095 3.16500E+01 2.66180E+01 0.00000E+00
 -1      1096 1.08984E+02 2.61904E+01 0.00000E+00
 -1      1097 1.24035E+02 2.21922E+01 0.00000E+00
 -1      1098 5.50350E+01 2.21922E+01 0.00000E+00
 -1      1099 1.12035E+02 2.21922E+01 0.00000E+00
 -1      1100 2.50351E+01 2.21923E+01 0.00000E+00
 -1      1101 1.09759E+02 2.28923E+01 0.00000E+00
 -1      1102 1.18035E+02 2.21922E+01 0.00000E+00
 -1      1103 1.15035E+02 2.21922E+01 0.00000E+00
 -1      1104 2.56500E+01 2.66180E+01 0.00000E+00
 -1      1105 6.18665E+01 2.33093E+01 0.00000E+00
 -1      1106 6.13758E+01 2.65540E+01 0.00000E+00
 -1      1107 1.25600E+02 2.59732E+01 0.00000E+00
 -1      1108 2.80351E+01 2.21923E+01 0.00000E+00
 -1      1109 1.23625E+02 2.64469E+01 0.00000E+00
 -1      1110 5.20350E+01 2.21922E+01 0.00000E+00
 -1      1111 1.28674E+02 2.22971E+01 0.00000E+00
 -1      1112 2.37750E+01 2.63634E+01 0.00000E+00
 -1      1113 4.00350E+01 2.21922E+01 0.00000E+00
 -1      1114 3.55350E+01 1.95943E+01 0.00000E+00
 -1      1115 3.25350E+01 1.95943E+01 0.00000E+00
 -1      1116 1.26285E+02 2.23589E+01 0.00000E+00
 -1      1117 4.30350E+01 2.21922E+01 0.00000E+00
 -1      1118 3.91500E+01 2.40200E+01 0.00000E+00
 -1      1119 4.81500E+01 2.40200E+01 0.00000E+00
 -1      1120 1.17150E+02 2.43227E+01 0.00000E+00
 -1      1121 3.01500E+01 2.40200E+01 0.00000E+00
 -1      1122 3.70350E+01 2.21923E+01 0.00000E+00
 -1      1123 3.31500E+01 2.40200E+01 0.00000E+00
 -1      1124 1.13535E+02 2.47903E+01 0.00000E+00
 -1      1125 2.33886E+01 2.41395E+01 0.00000E+00
 -1      1126 4.55925E+01 2.31061E+01 0.00000E+00
 -1      1127 3.61500E+01 2.40200E+01 0.00000E+00
 -1      1128 3.13425E+01 2.18071E+01 0.00000E+00
 -1      1129 3.41888E+01 2.19997E+01 0.00000E+00
 -1      1130 0.00000E+00 4.85250E+01 0.00000E+00
 -1      1131 0.00000E+00 4.55750E+01 0.00000E+00
 -1      1132 0.00000E+00 4.26250E+01 0.00000E+00
 -1      1133 0.00000E+00 3.96750E+01 0.00000E+00
 -1      1134 0.00000E+00 3.67250E+01 0.00000E+00
 -1      1135 0.00000E+00 3.38000E+01 0.00000E+00
 -1      1136 0.00000E+00 3.08750E+01 0.00000E+00
 -1      1137 0.00000E+00 2.79250E+01 0.00000E+00
 -1      1138 0.00000E+00 2.49750E+01 0.00000E+00
 -1      1139 0.00000E+00 2.20250E+01 0.00000E+00
 -1      1140 0.00000E+00 1.90750E+01 0.00000E+00
 -1      1141 0.00000E+00 1.61500E+01 0.00000E+00
 -1      1142 0.00000E+00 1.32250E+01 0.00000E+00
 -1      1143 0.00000E+00 1.02750E+01 0.00000E+00
 -1      1144 0.00000E+00 7.32500E+00 0.00000E+00
 -1      1145 0.00000E+00 4.37500E+00 0.00000E+00
 -1      1146 0.00000E+00 1.45000E+00 0.00000E+00
 -1      1147 1.57500E+00 5.00000E+01 0.00000E+00
 -1      1148 4.65000E+00 5.00000E+01 0.00000E+00
 -1      1149 7.65000E+00 5.00000E+01 0.00000E+00
 -1      1150 1.06500E+01 5.00000E+01 0.00000E+00
 -1      1151 1.36500E+01 5.00000E+01 0.00000E+00
 -1      1152 1.66500E+01 5.00000E+01 0.00000E+00
 -1      1153 1.96500E+01 5.00000E+01 0.00000E+00
 -1      1154 2.26500E+01 5.00000E+01 0.00000E+00
 -1      1155 2.56500E+01 5.00000E+01 0.00000E+00
 -1      1156 2.86500E+01 5.00000E+01 0.00000E+00
 -1      1157 3.16500E+01 5.00000E+01 0.00000E+00
 -1      1158 3.46500E+01 5.00000E+01 0.00000E+00
 -1      1159 3.76500E+01 5.00000E+01 0.00000E+00
 -1      1160 4.06500E+01 5.00000E+01 0.00000E+00
 -1      1161 4.36500E+01 5.00000E+01 0.00000E+00
 -1      1162 4.66500E+01 5.00000E+01 0.00000E+00
 -1      1163 4.96500E+01 5.00000E+01 0.00000E+00
 -1      1164 5.26500E+01 5.00000E+01 0.00000E+00
 -1      1165 5.56500E+01 5.00000E+01 0.00000E+00
 -1      1166 5.86500E+01 5.00000E+01 0.00000E+00
 -1      1167 6.16500E+01 5.00000E+01 0.00000E+00
 -1      1168 6.46500E+01 5.00000E+01 0.00000E+00
 -1      1169 6.76500E+01 5.00000E+01 0.00000E+00
 -1      1170 7.06500E+01 5.00000E+01 0.00000E+00
 -1      1171 7.36500E+01 5.00000E+01 0.00000E+00
 -1      1172 7.66500E+01 5.00000E+01 0.00000E+00
 -1      1173 7.96500E+01 5.00000E+01 0.00000E+00
 -1      1174 8.26500E+01 5.00000E+01 0.00000E+00
 -1      1175 8.56500E+01 5.00000E+01 0.00000E+00
 -1      1176 8.86500E+01 5.00000E+01 0.00000E+00
 -1      1177 9.16500E+01 5.00000E+01 0.00000E+00
 -1      1178 9.46500E+01 5.00000E+01 0.00000E+00
 -1      1179 9.76500E+01 5.00000E+01 0.00000E+00
 -1      1180 1.00650E+02 5.00000E+01 0.00000E+00
 -1      1181 1.03650E+02 5.00000E+01 0.00000E+00
 -1      1182 1.06650E+02 5.00000E+01 0.00000E+00
 -1      1183 1.09650E+02 5.00000E+01 0.00000E+00
 -1      1184 1.12650E+02 5.00000E+01 0.00000E+00
 -1      1185 1.15650E+02 5.00000E+01 0.00000E+00
 -1      1186 1.18650E+02 5.00000E+01 0.00000E+00
 -1      1187 1.21650E+02 5.00000E+01 0.00000E+00
 -1      1188 1.24650E+02 5.00000E+01 0.00000E+00
 -1      1189 1.27650E+02 5.00000E+01 0.00000E+00
 -1      1190 1.30650E+02 5.00000E+01 0.00000E+00
 -1      1191 1.33650E+02 5.00000E+01 0.00000E+00
 -1      1192 1.36650E+02 5.00000E+01 0.00000E+00
 -1      1193 1.39650E+02 5.00000E+01 0.00000E+00
 -1      1194 1.42650E+02 5.00000E+01 0.00000E+00
 -1      1195 1.45650E+02 5.00000E+01 0.00000E+00
 -1      1196 1.48575E+02 5.00000E+01 0.00000E+00
 -1      1197 1.57500E+00 0.00000E+00 0.00000E+00
 -1      1198 4.65000E+00 0.00000E+00 0.00000E+00
 -1      1199 7.65000E+00 0.00000E+00 0.00000E+00
 -1      1200 1.06500E+01 0.00000E+00 0.00000E+00
 -1      1201 1.36500E+01 0.00000E+00 0.00000E+00
 -1      1202 1.66500E+01 0.00000E+00 0.00000E+00
 -1      1203 1.96500E+01 0.00000E+00 0.00000E+00
 -1      1204 2.26500E+01 0.00000E+00 0.00000E+00
 -1      1205 2.56500E+01 0.00000E+00 0.00000E+00
 -1      1206 2.86500E+01 0.00000E+00 0.00000E+00
 -1      1207 3.16500E+01 0.00000E+00 0.00000E+00
 -1      1208 3.46500E+01 0.00000E+00 0.00000E+00
 -1      1209 3.76500E+01 0.00000E+00 0.00000E+00
 -1      1210 4.06500E+01 0.00000E+00 0.00000E+00
 -1      1211 4.36500E+01 0.00000E+00 0.00000E+00
 -1      1212 4.66500E+01 0.00000E+00 0.00000E+00
 -1      1213 4.96500E+01 0.00000E+00 0.00000E+00
 -1      1214 5.26500E+01 0.00000E+00 0.00000E+00
 -1      1215 5.56500E+01 0.00000E+00 0.00000E+00
 -1      1216 5.86500E+01 0.00000E+00 0.00000E+00
 -1      1217 6.16500E+01 0.00000E+00 0.00000E+00
 -1      1218 6.46500E+01 0.00000E+00 0.00000E+00
 -1      1219 6.76500E+01 0.00000E+00 0.00000E+00
 -1      1220 7.06500E+01 0.00000E+00 0.00000E+00
 -1      1221 7.36500E+01 0.00000E+00 0.00000E+00
 -1      1222 7.66500E+01 0.00000E+00 0.00000E+00
 -1      1223 7.96500E+01 0.00000E+00 0.00000E+00
 -1      1224 8.26500E+01 0.00000E+00 0.00000E+00
 -1      1225 8.56500E+01 0.00000E+00 0.00000E+00
 -1      1226 8.86500E+01 0.00000E+00 0.00000E+00
 -1      1227 9.16500E+01 0.00000E+00 0.00000E+00
 -1      1228 9.46500E+01 0.00000E+00 0.00000E+00
 -1      1229 9.76500E+01 0.00000E+00 0.00000E+00
 -1      1230 1.00650E+02 0.00000E+00 0.00000E+00
 -1      1231 1.03650E+02 0.00000E+00 0.00000E+00
 -1      1232 1.06650E+02 0.00000E+00 0.00000E+00
 -1      1233 1.09650E+02 0.00000E+00 0.00000E+00
 -1      1234 1.12650E+02 0.00000E+00 0.00000E+00
 -1      1235 1.15650E+02 0.00000E+00 0.00000E+00
 -1      1236 1.18650E+02 0.00000E+00 0.00000E+00
 -1      1237 1.21650E+02 0.00000E+00 0.00000E+00
 -1      1238 1.24650E+02 0.00000E+00 0.00000E+00
 -1      1239 1.27650E+02 0.00000E+00 0.00000E+00
 -1      1240 1.30650E+02 0.00000E+00 0.00000E+00
 -1      1241 1.33650E+02 0.00000E+00 0.00000E+00
 -1      1242 1.36650E+02 0.00000E+00 0.00000E+00
 -1      1243 1.39650E+02 0.00000E+00 0.00000E+00
 -1      1244 1.42650E+02 0.00000E+00 0.00000E+00
 -1      1245 1.45650E+02 0.00000E+00 0.00000E+00
 -1      1246 1.48575E+02 0.00000E+00 0.00000E+00
 -1      1247 1.50000E+02 1.47500E+00 0.00000E+00
 -1      1248 1.50000E+02 4.42500E+00 0.00000E+00
 -1      1249 1.50000E+02 7.37500E+00 0.00000E+00
 -1      1250 1.50000E+02 1.03250E+01 0.00000E+00
 -1      1251 1.50000E+02 1.32750E+01 0.00000E+00
 -1      1252 1.50000E+02 1.62000E+01 0.00000E+00
 -1      1253 1.50000E+02 1.91250E+01 0.00000E+00
 -1      1254 1.50000E+02 2.20750E+01 0.00000E+00
 -1      1255 1.50000E+02 2.50250E+01 0.00000E+00
 -1      1256 1.50000E+02 2.79750E+01 0.00000E+00
 -1      1257 1.50000E+02 3.09250E+01 0.00000E+00
 -1      1258 1.50000E+02 3.38500E+01 0.00000E+00
 -1      1259 1.50000E+02 3.67750E+01 0.00000E+00
 -1      1260 1.50000E+02 3.97250E+01 0.00000E+00
 -1      1261 1.50000E+02 4.26750E+01 0.00000E+00
 -1      1262 1.50000E+02 4.56250E+01 0.00000E+00
 -1      1263 1.50000E+02 4.85500E+01 0.00000E+00
 -1      1264 9.40198E+01 2.72076E+01 0.00000E+00
 -1      1265 9.37170E+01 2.57889E+01 0.00000E+00
 -1      1266 9.31322E+01 2.44700E+01 0.00000E+00
 -1      1267 9.22795E+01 2.32877E+01 0.00000E+00
 -1      1268 9.12351E+01 2.23333E+01 0.00000E+00
 -1      1269 9.00007E+01 2.15994E+01 0.00000E+00
 -1      1270 8.86042E+01 2.11241E+01 0.00000E+00
 -1      1271 8.71326E+01 2.09519E+01 0.00000E+00
 -1      1272 8.55864E+01 2.11082E+01 0.00000E+00
 -1      1273 8.41039E+01 2.16061E+01 0.00000E+00
 -1      1274 8.28224E+01 2.23795E+01 0.00000E+00
 -1      1275 8.17065E+01 2.34408E+01 0.00000E+00
 -1      1276 8.08598E+01 2.47012E+01 0.00000E+00
 -1      1277 8.03104E+01 2.60942E+01 0.00000E+00
 -1      1278 8.00690E+01 2.75855E+01 0.00000E+00
 -1      1279 8.01456E+01 2.90461E+01 0.00000E+00
 -1      1280 8.05426E+01 3.05071E+01 0.00000E+00
 -1      1281 8.12296E+01 3.18261E+01 0.00000E+00
 -1      1282 8.21590E+01 3.29500E+01 0.00000E+00
 -1      1283 8.33190E+01 3.38684E+01 0.00000E+00
 -1      1284 8.45955E+01 3.45035E+01 0.00000E+00
 -1      1285 8.59439E+01 3.48620E+01 0.00000E+00
 -1      1286 8.73271E+01 3.49464E+01 0.00000E+00
 -1      1287 8.86987E+01 3.47569E+01 0.00000E+00
 -1      1288 9.00607E+01 3.42754E+01 0.00000E+00
 -1      1289 9.13134E+01 3.35106E+01 0.00000E+00
 -1      1290 9.23378E+01 3.25492E+01 0.00000E+00
 -1      1291 9.31400E+01 3.14195E+01 0.00000E+00
 -1      1292 9.37240E+01 3.00925E+01 0.00000E+00
 -1      1293 9.40233E+01 2.86624E+01 0.00000E+00
 -1      1294 1.57500E+00 4.85250E+01 0.00000E+00
 -1      1295 1.29900E+00 4.48375E+01 0.00000E+00
 -1      1296 1.29900E+00 4.63125E+01 0.00000E+00
 -1      1297 1.29900E+00 4.18875E+01 0.00000E+00
 -1      1298 1.29900E+00 4.33625E+01 0.00000E+00
 -1      1299 2.59800E+00 4.41000E+01 0.00000E+00
 -1      1300 1.29900E+00 3.89375E+01 0.00000E+00
 -1      1301 1.29900E+00 4.04125E+01 0.00000E+00
 -1      1302 2.59800E+00 4.11500E+01 0.00000E+00
 -1      1303 1.29900E+00 3.59875E+01 0.00000E+00
 -1      1304 1.29900E+00 3.74625E+01 0.00000E+00
 -1      1305 2.59800E+00 3.82000E+01 0.00000E+00
 -1      1306 1.29900E+00 3.30875E+01 0.00000E+00
 -1      1307 1.29900E+00 3.45375E+01 0.00000E+00
 -1      1308 2.59800E+00 3.52750E+01 0.00000E+00
 -1      1309 1.29900E+00 3.01375E+01 0.00000E+00
 -1      1310 1.29900E+00 3.16125E+01 0.00000E+00
 -1      1311 2.59800E+00 3.23500E+01 0.00000E+00
 -1      1312 1.29900E+00 2.71875E+01 0.00000E+00
 -1      1313 1.29900E+00 2.86625E+01 0.00000E+00
 -1      1314 2.59800E+00 2.94000E+01 0.00000E+00
 -1      1315 1.29900E+00 2.42375E+01 0.00000E+00
 -1      1316 1.29900E+00 2.57125E+01 0.00000E+00
 -1      1317 2.59800E+00 2.64500E+01 0.00000E+00
 -1      1318 1.29900E+00 2.12875E+01 0.00000E+00
 -1      1319 1.29900E+00 2.27625E+01 0.00000E+00
 -1      1320 2.59800E+00 2.35000E+01 0.00000E+00
 -1      1321 1.29900E+00 1.83375E+01 0.00000E+00
 -1      1322 1.29900E+00 1.98125E+01 0.00000E+00
 -1      1323 2.59800E+00 2.05500E+01 0.00000E+00
 -1      1324 1.29900E+00 1.54375E+01 0.00000E+00
 -1      1325 1.29900E+00 1.68875E+01 0.00000E+00
 -1      1326 2.59800E+00 1.76250E+01 0.00000E+00
 -1      1327 1.29900E+00 1.24875E+01 0.00000E+00
 -1      1328 1.29900E+00 1.39625E+01 0.00000E+00
 -1      1329 2.59800E+00 1.47000E+01 0.00000E+00
 -1      1330 1.29900E+00 9.53750E+00 0.00000E+00
 -1      1331 1.29900E+00 1.10125E+01 0.00000E+00
 -1      1332 2.59800E+00 1.17500E+01 0.00000E+00
 -1      1333 1.29900E+00 6.58750E+00 0.00000E+00
 -1      1334 1.29900E+00 8.06250E+00 0.00000E+00
 -1      1335 2.59800E+00 8.80000E+00 0.00000E+00
 -1      1336 1.29900E+00 3.63750E+00 0.00000E+00
 -1      1337 1.29900E+00 5.11250E+00 0.00000E+00
 -1      1338 2.59800E+00 5.85000E+00 0.00000E+00
 -1      1339 1.43700E+00 1.09375E+00 0.00000E+00
 -1      1340 1.43700E+00 2.54375E+00 0.00000E+00
 -1      1341 2.73600E+00 3.28125E+00 0.00000E+00
 -1      1342 3.01200E+00 1.09375E+00 0.00000E+00
 -1      1343 3.90000E+00 4.87010E+01 0.00000E+00
 -1      1344 5.40000E+00 4.87010E+01 0.00000E+00
 -1      1345 6.90000E+00 4.87010E+01 0.00000E+00
 -1      1346 8.40000E+00 4.87010E+01 0.00000E+00
 -1      1347 6.15000E+00 4.74020E+01 0.00000E+00
 -1      1348 9.90000E+00 4.87010E+01 0.00000E+00
 -1      1349 1.14000E+01 4.87010E+01 0.00000E+00
 -1      1350 9.15000E+00 4.74020E+01 0.00000E+00
 -1      1351 1.29000E+01 4.87010E+01 0.00000E+00
 -1      1352 1.44000E+01 4.87010E+01 0.00000E+00
 -1      1353 1.21500E+01 4.74020E+01 0.00000E+00
 -1      1354 1.59000E+01 4.87010E+01 0.00000E+00
 -1      1355 1.74000E+01 4.87010E+01 0.00000E+00
 -1      1356 1.51500E+01 4.74020E+01 0.00000E+00
 -1      1357 1.89000E+01 4.87010E+01 0.00000E+00
 -1      1358 2.04000E+01 4.87010E+01 0.00000E+00
 -1      1359 1.81500E+01 4.74020E+01 0.00000E+00
 -1      1360 2.19000E+01 4.87010E+01 0.00000E+00
 -1      1361 2.34000E+01 4.87010E+01 0.00000E+00
 -1      1362 2.11500E+01 4.74020E+01 0.00000E+00
 -1      1363 2.49000E+01 4.87010E+01 0.00000E+00
 -1      1364 2.64000E+01 4.87010E+01 0.00000E+00
 -1      1365 2.41500E+01 4.74020E+01 0.00000E+00
 -1      1366 2.79000E+01 4.87010E+01 0.00000E+00
 -1      1367 2.94000E+01 4.87010E+01 0.00000E+00
 -1      1368 2.71500E+01 4.74020E+01 0.00000E+00
 -1      1369 3.09000E+01 4.87010E+01 0.00000E+00
 -1      1370 3.24000E+01 4.87010E+01 0.00000E+00
 -1      1371 3.01500E+01 4.74020E+01 0.00000E+00
 -1      1372 3.39000E+01 4.87010E+01 0.00000E+00
 -1      1373 3.54000E+01 4.87010E+01 0.00000E+00
 -1      1374 3.31500E+01 4.74020E+01 0.00000E+00
 -1      1375 3.69000E+01 4.87010E+01 0.00000E+00
 -1      1376 3.84000E+01 4.87010E+01 0.00000E+00
 -1      1377 3.61500E+01 4.74020E+01 0.00000E+00
 -1      1378 3.99000E+01 4.87010E+01 0.00000E+00
 -1      1379 4.14000E+01 4.87010E+01 0.00000E+00
 -1      1380 3.91500E+01 4.74020E+01 0.00000E+00
 -1      1381 4.29000E+01 4.87010E+01 0.00000E+00
 -1      1382 4.44000E+01 4.87010E+01 0.00000E+00
 -1      1383 4.21500E+01 4.74020E+01 0.00000E+00
 -1      1384 4.59000E+01 4.87010E+01 0.00000E+00
 -1      1385 4.74000E+01 4.87010E+01 0.00000E+00
 -1      1386 4.51500E+01 4.74020E+01 0.00000E+00
 -1      1387 4.89000E+01 4.87010E+01 0.00000E+00
 -1      1388 5.04000E+01 4.87010E+01 0.00000E+00
 -1      1389 4.81500E+01 4.74020E+01 0.00000E+00
 -1      1390 5.19000E+01 4.87010E+01 0.00000E+00
 -1      1391 5.34000E+01 4.87010E+01 0.00000E+00
 -1      1392 5.11500E+01 4.74020E+01 0.00000E+00
 -1      1393 5.49000E+01 4.87010E+01 0.00000E+00
 -1      1394 5.64000E+01 4.87010E+01 0.00000E+00
 -1      1395 5.41500E+01 4.74020E+01 0.00000E+00
 -1      1396 5.79000E+01 4.87010E+01 0.00000E+00
 -1      1397 5.94000E+01 4.87010E+01 0.00000E+00
 -1      1398 5.71500E+01 4.74020E+01 0.00000E+00
 -1      1399 6.09000E+01 4.87010E+01 0.00000E+00
 -1      1400 6.24000E+01 4.87010E+01 0.00000E+00
 -1      1401 6.01500E+01 4.74020E+01 0.00000E+00
 -1      1402 6.39000E+01 4.87010E+01 0.00000E+00
 -1      1403 6.54000E+01 4.87010E+01 0.00000E+00
 -1      1404 6.31500E+01 4.74020E+01 0.00000E+00
 -1      1405 6.69000E+01 4.87010E+01 0.00000E+00
 -1      1406 6.84000E+01 4.87010E+01 0.00000E+00
 -1      1407 6.61500E+01 4.74020E+01 0.00000E+00
 -1      1408 6.99000E+01 4.87010E+01 0.00000E+00
 -1      1409 7.14000E+01 4.87010E+01 0.00000E+00
 -1      1410 6.91500E+01 4.74020E+01 0.00000E+00
 -1      1411 7.29000E+01 4.87010E+01 0.00000E+00
 -1      1412 7.44000E+01 4.87010E+01 0.00000E+00
 -1      1413 7.21500E+01 4.74020E+01 0.00000E+00
 -1      1414 7.59000E+01 4.87010E+01 0.00000E+00
 -1      1415 7.74000E+01 4.87010E+01 0.00000E+00
 -1      1416 7.51500E+01 4.74020E+01 0.00000E+00
 -1      1417 7.89000E+01 4.87010E+01 0.00000E+00
 -1      1418 8.04000E+01 4.87010E+01 0.00000E+00
 -1      1419 7.81500E+01 4.74020E+01 0.00000E+00
 -1      1420 8.19000E+01 4.87010E+01 0.00000E+00
 -1      1421 8.34000E+01 4.87010E+01 0.00000E+00
 -1      1422 8.11500E+01 4.74020E+01 0.00000E+00
 -1      1423 8.49000E+01 4.87010E+01 0.00000E+00
 -1      1424 8.64000E+01 4.87010E+01 0.00000E+00
 -1      1425 8.41500E+01 4.74020E+01 0.00000E+00
 -1      1426 8.79000E+01 4.87010E+01 0.00000E+00
 -1      1427 8.94000E+01 4.87010E+01 0.00000E+00
 -1      1428 8.71500E+01 4.74020E+01 0.00000E+00
 -1      1429 9.09000E+01 4.87010E+01 0.00000E+00
 -1      1430 9.24000E+01 4.87010E+01 0.00000E+00
 -1      1431 9.01500E+01 4.74020E+01 0.00000E+00
 -1      1432 9.39000E+01 4.87010E+01 0.00000E+00
 -1      1433 9.54000E+01 4.87010E+01 0.00000E+00
 -1      1434 9.31500E+01 4.74020E+01 0.00000E+00
 -1      1435 9.69000E+01 4.87010E+01 0.00000E+00
 -1      1436 9.84000E+01 4.87010E+01 0.00000E+00
 -1      1437 9.61500E+01 4.74020E+01 0.00000E+00
 -1      1438 9.99000E+01 4.87010E+01 0.00000E+00
 -1      1439 1.01400E+02 4.87010E+01 0.00000E+00
 -1      1440 9.91500E+01 4.74020E+01 0.00000E+00
 -1      1441 1.02900E+02 4.87010E+01 0.00000E+00
 -1      1442 1.04400E+02 4.87010E+01 0.00000E+00
 -1      1443 1.02150E+02 4.74020E+01 0.00000E+00
 -1      1444 1.05900E+02 4.87010E+01 0.00000E+00
 -1      1445 1.07400E+02 4.87010E+01 0.00000E+00
 -1      1446 1.05150E+02 4.74020E+01 0.00000E+00
 -1      1447 1.08900E+02 4.87010E+01 0.00000E+00
 -1      1448 1.10400E+02 4.87010E+01 0.00000E+00
 -1      1449 1.08150E+02 4.74020E+01 0.00000E+00
 -1      1450 1.11900E+02 4.87010E+01 0.00000E+00
 -1      1451 1.13400E+02 4.87010E+01 0.00000E+00
 -1      1452 1.11150E+02 4.74020E+01 0.00000E+00
 -1      1453 1.14900E+02 4.87010E+01 0.00000E+00
 -1      1454 1.16400E+02 4.87010E+01 0.00000E+00
 -1      1455 1.14150E+02 4.74020E+01 0.00000E+00
 -1      1456 1.17900E+02 4.87010E+01 0.00000E+00
 -1      1457 1.19400E+02 4.87010E+01 0.00000E+00
 -1      1458 1.17150E+02 4.74020E+01 0.00000E+00
 -1      1459 1.20900E+02 4.87010E+01 0.00000E+00
 -1      1460 1.22400E+02 4.87010E+01 0.00000E+00
 -1      1461 1.20150E+02 4.74020E+01 0.00000E+00
 -1      1462 1.23900E+02 4.87010E+01 0.00000E+00
 -1      1463 1.25400E+02 4.87010E+01 0.00000E+00
 -1      1464 1.23150E+02 4.74020E+01 0.00000E+00
 -1      1465 1.26900E+02 4.87010E+01 0.00000E+00
 -1      1466 1.28400E+02 4.87010E+01 0.00000E+00
 -1      1467 1.26150E+02 4.74020E+01 0.00000E+00
 -1      1468 1.29900E+02 4.87010E+01 0.00000E+00
 -1      1469 1.31400E+02 4.87010E+01 0.00000E+00
 -1      1470 1.29150E+02 4.74020E+01 0.00000E+00
 -1      1471 1.32900E+02 4.87010E+01 0.00000E+00
 -1      1472 1.34400E+02 4.87010E+01 0.00000E+00
 -1      1473 1.32150E+02 4.74020E+01 0.00000E+00
 -1      1474 1.35900E+02 4.87010E+01 0.00000E+00
 -1      1475 1.37400E+02 4.87010E+01 0.00000E+00
 -1      1476 1.35150E+02 4.74020E+01 0.00000E+00
 -1      1477 1.38900E+02 4.87010E+01 0.00000E+00
 -1      1478 1.40400E+02 4.87010E+01 0.00000E+00
 -1      1479 1.38150E+02 4.74020E+01 0.00000E+00
 -1      1480 1.41900E+02 4.87010E+01 0.00000E+00
 -1      1481 1.43400E+02 4.87010E+01 0.00000E+00
 -1      1482 1.41150E+02 4.74020E+01 0.00000E+00
 -1      1483 1.44900E+02 4.87010E+01 0.00000E+00
 -1      1484 1.46400E+02 4.87010E+01 0.00000E+00
 -1      1485 1.44150E+02 4.74020E+01 0.00000E+00
 -1      1486 1.48575E+02 4.85500E+01 0.00000E+00
 -1      1487 1.47825E+02 4.72510E+01 0.00000E+00
 -1      1488 6.01200E+00 1.09375E+00 0.00000E+00
 -1      1489 4.51200E+00 1.09375E+00 0.00000E+00
 -1      1490 4.37400E+00 2.18750E+00 0.00000E+00
 -1      1491 9.01200E+00 1.09375E+00 0.00000E+00
 -1      1492 7.51200E+00 1.09375E+00 0.00000E+00
 -1      1493 7.37400E+00 2.18750E+00 0.00000E+00
 -1      1494 1.20120E+01 1.09375E+00 0.00000E+00
 -1      1495 1.05120E+01 1.09375E+00 0.00000E+00
 -1      1496 1.03740E+01 2.18750E+00 0.00000E+00
 -1      1497 1.50120E+01 1.09375E+00 0.00000E+00
 -1      1498 1.35120E+01 1.09375E+00 0.00000E+00
 -1      1499 1.33740E+01 2.18750E+00 0.00000E+00
 -1      1500 1.80120E+01 1.09375E+00 0.00000E+00
 -1      1501 1.65120E+01 1.09375E+00 0.00000E+00
 -1      1502 1.63740E+01 2.18750E+00 0.00000E+00
 -1      1503 2.10120E+01 1.09375E+00 0.00000E+00
 -1      1504 1.95120E+01 1.09375E+00 0.00000E+00
 -1      1505 1.93740E+01 2.18750E+00 0.00000E+00
 -1      1506 2.40120E+01 1.09375E+00 0.00000E+00
 -1      1507 2.25120E+01 1.09375E+00 0.00000E+00
 -1      1508 2.23740E+01 2.18750E+00 0.00000E+00
 -1      1509 2.70120E+01 1.09375E+00 0.00000E+00
 -1      1510 2.55120E+01 1.09375E+00 0.00000E+00
 -1      1511 2.53740E+01 2.18750E+00 0.00000E+00
 -1      1512 3.00120E+01 1.09375E+00 0.00000E+00
 -1      1513 2.85120E+01 1.09375E+00 0.00000E+00
 -1      1514 2.83740E+01 2.18750E+00 0.00000E+00
 -1      1515 3.30120E+01 1.09375E+00 0.00000E+00
 -1      1516 3.15120E+01 1.09375E+00 0.00000E+00
 -1      1517 3.13740E+01 2.18750E+00 0.00000E+00
 -1      1518 3.60120E+01 1.09375E+00 0.00000E+00
 -1      1519 3.45120E+01 1.09375E+00 0.00000E+00
 -1      1520 3.43740E+01 2.18750E+00 0.00000E+00
 -1      1521 3.90120E+01 1.09375E+00 0.00000E+00
 -1      1522 3.75120E+01 1.09375E+00 0.00000E+00
 -1      1523 3.73740E+01 2.18750E+00 0.00000E+00
 -1      1524 4.20120E+01 1.09375E+00 0.00000E+00
 -1      1525 4.05120E+01 1.09375E+00 0.00000E+00
 -1      1526 4.03740E+01 2.18750E+00 0.00000E+00
 -1      1527 4.50120E+01 1.09375E+00 0.00000E+00
 -1      1528 4.35120E+01 1.09375E+00 0.00000E+00
 -1      1529 4.33740E+01 2.18750E+00 0.00000E+00
 -1      1530 4.80120E+01 1.09375E+00 0.00000E+00
 -1      1531 4.65120E+01 1.09375E+00 0.00000E+00
 -1      1532 4.63740E+01 2.18750E+00 0.00000E+00
 -1      1533 5.10120E+01 1.09375E+00 0.00000E+00
 -1      1534 4.95120E+01 1.09375E+00 0.00000E+00
 -1      1535 4.93740E+01 2.18750E+00 0.00000E+00
 -1      1536 5.40120E+01 1.09375E+00 0.00000E+00
 -1      1537 5.25120E+01 1.09375E+00 0.00000E+00
 -1      1538 5.23740E+01 2.18750E+00 0.00000E+00
 -1      1539 5.70120E+01 1.09375E+00 0.00000E+00
 -1      1540 5.55120E+01 1.09375E+00 0.00000E+00
 -1      1541 5.53740E+01 2.18750E+00 0.00000E+00
 -1      1542 6.00120E+01 1.09375E+00 0.00000E+00
 -1      1543 5.85120E+01 1.09375E+00 0.00000E+00
 -1      1544 5.83740E+01 2.18750E+00 0.00000E+00
 -1      1545 6.30120E+01 1.09375E+00 0.00000E+00
 -1      1546 6.15120E+01 1.09375E+00 0.00000E+00
 -1      1547 6.13740E+01 2.18750E+00 0.00000E+00
 -1      1548 6.60120E+01 1.09375E+00 0.00000E+00
 -1      1549 6.45120E+01 1.09375E+00 0.00000E+00
 -1      1550 6.43740E+01 2.18750E+00 0.00000E+00
 -1      1551 6.90120E+01 1.09375E+00 0.00000E+00
 -1      1552 6.75120E+01 1.09375E+00 0.00000E+00
 -1      1553 6.73740E+01 2.18750E+00 0.00000E+00
 -1      1554 7.20120E+01 1.09375E+00 0.00000E+00
 -1      1555 7.05120E+01 1.09375E+00 0.00000E+00
 -1      1556 7.03740E+01 2.18750E+00 0.00000E+00
 -1      1557 7.50120E+01 1.09375E+00 0.00000E+00
 -1      1558 7.35120E+01 1.09375E+00 0.00000E+00
 -1      1559 7.33740E+01 2.18750E+00 0.00000E+00
 -1      1560 7.80120E+01 1.09375E+00 0.00000E+00
 -1      1561 7.65120E+01 1.09375E+00 0.00000E+00
 -1      1562 7.63740E+01 2.18750E+00 0.00000E+00
 -1      1563 8.10120E+01 1.09375E+00 0.00000E+00
 -1      1564 7.95120E+01 1.09375E+00 0.00000E+00
 -1      1565 7.93740E+01 2.18750E+00 0.00000E+00
 -1      1566 8.40120E+01 1.09375E+00 0.00000E+00
 -1      1567 8.25120E+01 1.09375E+00 0.00000E+00
 -1      1568 8.23740E+01 2.18750E+00 0.00000E+00
 -1      1569 8.70120E+01 1.09375E+00 0.00000E+00
 -1      1570 8.55120E+01 1.09375E+00 0.00000E+00
 -1      1571 8.53740E+01 2.18750E+00 0.00000E+00
 -1      1572 9.00120E+01 1.09375E+00 0.00000E+00
 -1      1573 8.85120E+01 1.09375E+00 0.00000E+00
 -1      1574 8.83740E+01 2.18750E+00 0.00000E+00
 -1      1575 9.30120E+01 1.09375E+00 0.00000E+00
 -1      1576 9.15120E+01 1.09375E+00 0.00000E+00
 -1      1577 9.13740E+01 2.18750E+00 0.00000E+00
 -1      1578 9.60120E+01 1.09375E+00 0.00000E+00
 -1      1579 9.45120E+01 1.09375E+00 0.00000E+00
 -1      1580 9.43740E+01 2.18750E+00 0.00000E+00
 -1      1581 9.90120E+01 1.09375E+00 0.00000E+00
 -1      1582 9.75120E+01 1.09375E+00 0.00000E+00
 -1      1583 9.73740E+01 2.18750E+00 0.00000E+00
 -1      1584 1.02012E+02 1.09375E+00 0.00000E+00
 -1      1585 1.00512E+02 1.09375E+00 0.00000E+00
 -1      1586 1.00374E+02 2.18750E+00 0.00000E+00
 -1      1587 1.05012E+02 1.09375E+00 0.00000E+00
 -1      1588 1.03512E+02 1.09375E+00 0.00000E+00
 -1      1589 1.03374E+02 2.18750E+00 0.00000E+00
 -1      1590 1.08012E+02 1.09375E+00 0.00000E+00
 -1      1591 1.06512E+02 1.09375E+00 0.00000E+00
 -1      1592 1.06374E+02 2.18750E+00 0.00000E+00
 -1      1593 1.11012E+02 1.09375E+00 0.00000E+00
 -1      1594 1.09512E+02 1.09375E+00 0.00000E+00
 -1      1595 1.09374E+02 2.18750E+00 0.00000E+00
 -1      1596 1.14012E+02 1.09375E+00 0.00000E+00
 -1      1597 1.12512E+02 1.09375E+00 0.00000E+00
 -1      1598 1.12374E+02 2.18750E+00 0.00000E+00
 -1      1599 1.17012E+02 1.09375E+00 0.00000E+00
 -1      1600 1.15512E+02 1.09375E+00 0.00000E+00
 -1      1601 1.15374E+02 2.18750E+00 0.00000E+00
 -1      1602 1.20012E+02 1.09375E+00 0.00000E+00
 -1      1603 1.18512E+02 1.09375E+00 0.00000E+00
 -1      1604 1.18374E+02 2.18750E+00 0.00000E+00
 -1      1605 1.23012E+02 1.09375E+00 0.00000E+00
 -1      1606 1.21512E+02 1.09375E+00 0.00000E+00
 -1      1607 1.21374E+02 2.18750E+00 0.00000E+00
 -1      1608 1.26012E+02 1.09375E+00 0.00000E+00
 -1      1609 1.24512E+02 1.09375E+00 0.00000E+00
 -1      1610 1.24374E+02 2.18750E+00 0.00000E+00
 -1      1611 1.29012E+02 1.09375E+00 0.00000E+00
 -1      1612 1.27512E+02 1.09375E+00 0.00000E+00
 -1      1613 1.27374E+02 2.18750E+00 0.00000E+00
 -1      1614 1.32012E+02 1.09375E+00 0.00000E+00
 -1      1615 1.30512E+02 1.09375E+00 0.00000E+00
 -1      1616 1.30374E+02 2.18750E+00 0.00000E+00
 -1      1617 1.35012E+02 1.09375E+00 0.00000E+00
 -1      1618 1.33512E+02 1.09375E+00 0.00000E+00
 -1      1619 1.33374E+02 2.18750E+00 0.00000E+00
 -1      1620 1.38012E+02 1.09375E+00 0.00000E+00
 -1      1621 1.36512E+02 1.09375E+00 0.00000E+00
 -1      1622 1.36374E+02 2.18750E+00 0.00000E+00
 -1      1623 1.41012E+02 1.09375E+00 0.00000E+00
 -1      1624 1.39512E+02 1.09375E+00 0.00000E+00
 -1      1625 1.39374E+02 2.18750E+00 0.00000E+00
 -1      1626 1.44012E+02 1.09375E+00 0.00000E+00
 -1      1627 1.42512E+02 1.09375E+00 0.00000E+00
 -1      1628 1.42374E+02 2.18750E+00 0.00000E+00
 -1      1629 1.47012E+02 1.09375E+00 0.00000E+00
 -1      1630 1.45512E+02 1.09375E+00 0.00000E+00
 -1      1631 1.45374E+02 2.18750E+00 0.00000E+00
 -1      1632 1.48575E+02 1.47500E+00 0.00000E+00
 -1      1633 1.48701E+02 5.16250E+00 0.00000E+00
 -1      1634 1.48701E+02 3.68750E+00 0.00000E+00
 -1      1635 1.48701E+02 8.11250E+00 0.00000E+00
 -1      1636 1.48701E+02 6.63750E+00 0.00000E+00
 -1      1637 1.47402E+02 5.90000E+00 0.00000E+00
 -1      1638 1.48701E+02 1.10625E+01 0.00000E+00
 -1      1639 1.48701E+02 9.58750E+00 0.00000E+00
 -1      1640 1.47402E+02 8.85000E+00 0.00000E+00
 -1      1641 1.48701E+02 1.40125E+01 0.00000E+00
 -1      1642 1.48701E+02 1.25375E+01 0.00000E+00
 -1      1643 1.47402E+02 1.18000E+01 0.00000E+00
 -1      1644 1.48701E+02 1.69125E+01 0.00000E+00
 -1      1645 1.48701E+02 1.54625E+01 0.00000E+00
 -1      1646 1.47402E+02 1.47250E+01 0.00000E+00
 -1      1647 1.48701E+02 1.98625E+01 0.00000E+00
 -1      1648 1.48701E+02 1.83875E+01 0.00000E+00
 -1      1649 1.47402E+02 1.76500E+01 0.00000E+00
 -1      1650 1.48701E+02 2.28125E+01 0.00000E+00
 -1      1651 1.48701E+02 2.13375E+01 0.00000E+00
 -1      1652 1.47402E+02 2.06000E+01 0.00000E+00
 -1      1653 1.48701E+02 2.57625E+01 0.00000E+00
 -1      1654 1.48701E+02 2.42875E+01 0.00000E+00
 -1      1655 1.47402E+02 2.35500E+01 0.00000E+00
 -1      1656 1.48701E+02 2.87125E+01 0.00000E+00
 -1      1657 1.48701E+02 2.72375E+01 0.00000E+00
 -1      1658 1.47402E+02 2.65000E+01 0.00000E+00
 -1      1659 1.48701E+02 3.16625E+01 0.00000E+00
 -1      1660 1.48701E+02 3.01875E+01 0.00000E+00
 -1      1661 1.47402E+02 2.94500E+01 0.00000E+00
 -1      1662 1.48701E+02 3.45625E+01 0.00000E+00
 -1      1663 1.48701E+02 3.31125E+01 0.00000E+00
 -1      1664 1.47402E+02 3.23750E+01 0.00000E+00
 -1      1665 1.48701E+02 3.75125E+01 0.00000E+00
 -1      1666 1.48701E+02 3.60375E+01 0.00000E+00
 -1      1667 1.47402E+02 3.53000E+01 0.00000E+00
 -1      1668 1.48701E+02 4.04625E+01 0.00000E+00
 -1      1669 1.48701E+02 3.89875E+01 0.00000E+00
 -1      1670 1.47402E+02 3.82500E+01 0.00000E+00
 -1      1671 1.48701E+02 4.34125E+01 0.00000E+00
 -1      1672 1.48701E+02 4.19375E+01 0.00000E+00
 -1      1673 1.47402E+02 4.12000E+01 0.00000E+00
 -1      1674 1.48263E+02 4.60692E+01 0.00000E+00
 -1      1675 1.48263E+02 4.45942E+01 0.00000E+00
 -1      1676 1.46964E+02 4.38568E+01 0.00000E+00
 -1      1677 1.46088E+02 4.62202E+01 0.00000E+00
 -1      1678 9.46269E+01 2.67686E+01 0.00000E+00
 -1      1679 9.47060E+01 2.75083E+01 0.00000E+00
 -1      1680 9.41504E+01 2.52766E+01 0.00000E+00
 -1      1681 9.43687E+01 2.59487E+01 0.00000E+00
 -1      1682 9.34778E+01 2.38476E+01 0.00000E+00
 -1      1683 9.38439E+01 2.44862E+01 0.00000E+00
 -1      1684 9.24634E+01 2.26397E+01 0.00000E+00
 -1      1685 9.29442E+01 2.31777E+01 0.00000E+00
 -1      1686 9.12979E+01 2.16676E+01 0.00000E+00
 -1      1687 9.18544E+01 2.20812E+01 0.00000E+00
 -1      1688 8.99194E+01 2.08911E+01 0.00000E+00
 -1      1689 9.05934E+01 2.12032E+01 0.00000E+00
 -1      1690 8.83816E+01 2.04486E+01 0.00000E+00
 -1      1691 8.90959E+01 2.06102E+01 0.00000E+00
 -1      1692 8.67643E+01 2.03401E+01 0.00000E+00
 -1      1693 8.75136E+01 2.03480E+01 0.00000E+00
 -1      1694 8.50576E+01 2.05637E+01 0.00000E+00
 -1      1695 8.58443E+01 2.03944E+01 0.00000E+00
 -1      1696 8.35212E+01 2.12543E+01 0.00000E+00
 -1      1697 8.42094E+01 2.09337E+01 0.00000E+00
 -1      1698 8.21855E+01 2.21512E+01 0.00000E+00
 -1      1699 8.27726E+01 2.17047E+01 0.00000E+00
 -1      1700 8.09557E+01 2.33327E+01 0.00000E+00
 -1      1701 8.14727E+01 2.27191E+01 0.00000E+00
 -1      1702 8.01892E+01 2.47538E+01 0.00000E+00
 -1      1703 8.05217E+01 2.41197E+01 0.00000E+00
 -1      1704 7.95432E+01 2.62883E+01 0.00000E+00
 -1      1705 7.97506E+01 2.55349E+01 0.00000E+00
 -1      1706 7.94826E+01 2.79200E+01 0.00000E+00
 -1      1707 7.95208E+01 2.71917E+01 0.00000E+00
 -1      1708 7.96422E+01 2.94969E+01 0.00000E+00
 -1      1709 7.95275E+01 2.87727E+01 0.00000E+00
 -1      1710 8.00835E+01 3.11066E+01 0.00000E+00
 -1      1711 7.97984E+01 3.03796E+01 0.00000E+00
 -1      1712 8.09500E+01 3.24361E+01 0.00000E+00
 -1      1713 8.05590E+01 3.18478E+01 0.00000E+00
 -1      1714 8.19141E+01 3.37368E+01 0.00000E+00
 -1      1715 8.13771E+01 3.32104E+01 0.00000E+00
 -1      1716 8.33228E+01 3.45431E+01 0.00000E+00
 -1      1717 8.27079E+01 3.41543E+01 0.00000E+00
 -1      1718 8.47212E+01 3.51611E+01 0.00000E+00
 -1      1719 8.40676E+01 3.49154E+01 0.00000E+00
 -1      1720 8.61969E+01 3.54817E+01 0.00000E+00
 -1      1721 8.55088E+01 3.53706E+01 0.00000E+00
 -1      1722 8.76931E+01 3.55050E+01 0.00000E+00
 -1      1723 8.70049E+01 3.55314E+01 0.00000E+00
 -1      1724 8.91708E+01 3.52310E+01 0.00000E+00
 -1      1725 8.84943E+01 3.53940E+01 0.00000E+00
 -1      1726 9.06596E+01 3.46641E+01 0.00000E+00
 -1      1727 8.99832E+01 3.49852E+01 0.00000E+00
 -1      1728 9.19448E+01 3.37442E+01 0.00000E+00
 -1      1729 9.13738E+01 3.41811E+01 0.00000E+00
 -1      1730 9.29948E+01 3.26666E+01 0.00000E+00
 -1      1731 9.25442E+01 3.31839E+01 0.00000E+00
 -1      1732 9.38094E+01 3.13986E+01 0.00000E+00
 -1      1733 9.34628E+01 3.20063E+01 0.00000E+00
 -1      1734 9.44174E+01 2.99213E+01 0.00000E+00
 -1      1735 9.41879E+01 3.06355E+01 0.00000E+00
 -1      1736 9.46681E+01 2.83709E+01 0.00000E+00
 -1      1737 9.45959E+01 2.90782E+01 0.00000E+00
 -1      1738 9.25468E+01 2.19463E+01 0.00000E+00
 -1      1739 9.36895E+01 2.31747E+01 0.00000E+00
 -1      1740 1.48437E+02 2.56875E+00 0.00000E+00
 -1      1741 1.47138E+02 3.30625E+00 0.00000E+00
 -1      1742 9.50943E+01 2.62453E+01 0.00000E+00
 -1      1743 9.45296E+01 2.46350E+01 0.00000E+00
 -1      1744 9.53146E+01 2.79278E+01 0.00000E+00
 -1      1745 9.12332E+01 2.09235E+01 0.00000E+00
 -1      1746 8.97053E+01 2.01782E+01 0.00000E+00
 -1      1747 8.80137E+01 1.97967E+01 0.00000E+00
 -1      1748 8.62257E+01 1.97503E+01 0.00000E+00
 -1      1749 8.44576E+01 2.01745E+01 0.00000E+00
 -1      1750 8.28608E+01 2.09949E+01 0.00000E+00
 -1      1751 8.13994E+01 2.20134E+01 0.00000E+00
 -1      1752 8.02526E+01 2.33683E+01 0.00000E+00
 -1      1753 7.93799E+01 2.49363E+01 0.00000E+00
 -1      1754 7.89188E+01 2.66208E+01 0.00000E+00
 -1      1755 7.89412E+01 2.83769E+01 0.00000E+00
 -1      1756 7.91424E+01 3.01123E+01 0.00000E+00
 -1      1757 7.97741E+01 3.17362E+01 0.00000E+00
 -1      1758 8.06768E+01 3.32518E+01 0.00000E+00
 -1      1759 8.18977E+01 3.44436E+01 0.00000E+00
 -1      1760 8.34362E+01 3.52334E+01 0.00000E+00
 -1      1761 8.49686E+01 3.58151E+01 0.00000E+00
 -1      1762 8.65642E+01 3.60743E+01 0.00000E+00
 -1      1763 8.81733E+01 3.60129E+01 0.00000E+00
 -1      1764 8.97869E+01 3.56560E+01 0.00000E+00
 -1      1765 9.13135E+01 3.49271E+01 0.00000E+00
 -1      1766 9.26272E+01 3.38837E+01 0.00000E+00
 -1      1767 9.36947E+01 3.26631E+01 0.00000E+00
 -1      1768 9.45412E+01 3.12397E+01 0.00000E+00
 -1      1769 9.50982E+01 2.96335E+01 0.00000E+00
 -1      1770 2.87400E+00 4.77875E+01 0.00000E+00
 -1      1771 3.89700E+00 4.04125E+01 0.00000E+00
 -1      1772 3.89700E+00 4.18875E+01 0.00000E+00
 -1      1773 3.89700E+00 4.33625E+01 0.00000E+00
 -1      1774 3.89700E+00 4.48375E+01 0.00000E+00
 -1      1775 5.19600E+00 4.26250E+01 0.00000E+00
 -1      1776 3.89700E+00 3.45500E+01 0.00000E+00
 -1      1777 3.89700E+00 3.60000E+01 0.00000E+00
 -1      1778 3.89700E+00 3.16000E+01 0.00000E+00
 -1      1779 3.89700E+00 3.30750E+01 0.00000E+00
 -1      1780 5.19600E+00 3.38000E+01 0.00000E+00
 -1      1781 3.89700E+00 2.86500E+01 0.00000E+00
 -1      1782 3.89700E+00 3.01250E+01 0.00000E+00
 -1      1783 5.19600E+00 3.08500E+01 0.00000E+00
 -1      1784 3.89700E+00 2.57000E+01 0.00000E+00
 -1      1785 3.89700E+00 2.71750E+01 0.00000E+00
 -1      1786 5.19600E+00 2.79000E+01 0.00000E+00
 -1      1787 3.89700E+00 2.27500E+01 0.00000E+00
 -1      1788 3.89700E+00 2.42250E+01 0.00000E+00
 -1      1789 5.19600E+00 2.49500E+01 0.00000E+00
 -1      1790 3.89700E+00 1.98000E+01 0.00000E+00
 -1      1791 3.89700E+00 2.12750E+01 0.00000E+00
 -1      1792 5.19600E+00 2.20000E+01 0.00000E+00
 -1      1793 3.89700E+00 1.69000E+01 0.00000E+00
 -1      1794 3.89700E+00 1.83500E+01 0.00000E+00
 -1      1795 5.19600E+00 1.90750E+01 0.00000E+00
 -1      1796 3.89700E+00 1.39500E+01 0.00000E+00
 -1      1797 3.89700E+00 1.54250E+01 0.00000E+00
 -1      1798 5.19600E+00 1.61500E+01 0.00000E+00
 -1      1799 3.89700E+00 1.10000E+01 0.00000E+00
 -1      1800 3.89700E+00 1.24750E+01 0.00000E+00
 -1      1801 5.19600E+00 1.32000E+01 0.00000E+00
 -1      1802 3.89700E+00 8.05000E+00 0.00000E+00
 -1      1803 3.89700E+00 9.52500E+00 0.00000E+00
 -1      1804 5.19600E+00 1.02500E+01 0.00000E+00
 -1      1805 3.89700E+00 5.10000E+00 0.00000E+00
 -1      1806 3.89700E+00 6.57500E+00 0.00000E+00
 -1      1807 5.19600E+00 7.30000E+00 0.00000E+00
 -1      1808 4.20450E+00 3.09687E+00 0.00000E+00
 -1      1809 4.06650E+00 4.19063E+00 0.00000E+00
 -1      1810 5.36550E+00 4.91563E+00 0.00000E+00
 -1      1811 5.70450E+00 3.09687E+00 0.00000E+00
 -1      1812 3.62400E+00 4.64885E+01 0.00000E+00
 -1      1813 8.70450E+00 3.09687E+00 0.00000E+00
 -1      1814 7.20450E+00 3.09687E+00 0.00000E+00
 -1      1815 7.03500E+00 4.00625E+00 0.00000E+00
 -1      1816 4.92300E+00 4.57510E+01 0.00000E+00
 -1      1817 8.40000E+00 4.61030E+01 0.00000E+00
 -1      1818 9.90000E+00 4.61030E+01 0.00000E+00
 -1      1819 1.14000E+01 4.61030E+01 0.00000E+00
 -1      1820 1.29000E+01 4.61030E+01 0.00000E+00
 -1      1821 1.06500E+01 4.48040E+01 0.00000E+00
 -1      1822 1.44000E+01 4.61030E+01 0.00000E+00
 -1      1823 1.59000E+01 4.61030E+01 0.00000E+00
 -1      1824 1.36500E+01 4.48040E+01 0.00000E+00
 -1      1825 1.74000E+01 4.61030E+01 0.00000E+00
 -1      1826 1.89000E+01 4.61030E+01 0.00000E+00
 -1      1827 1.66500E+01 4.48040E+01 0.00000E+00
 -1      1828 2.04000E+01 4.61030E+01 0.00000E+00
 -1      1829 2.19000E+01 4.61030E+01 0.00000E+00
 -1      1830 1.96500E+01 4.48040E+01 0.00000E+00
 -1      1831 2.34000E+01 4.61030E+01 0.00000E+00
 -1      1832 2.49000E+01 4.61030E+01 0.00000E+00
 -1      1833 2.26500E+01 4.48040E+01 0.00000E+00
 -1      1834 2.64000E+01 4.61030E+01 0.00000E+00
 -1      1835 2.79000E+01 4.61030E+01 0.00000E+00
 -1      1836 2.56500E+01 4.48040E+01 0.00000E+00
 -1      1837 2.94000E+01 4.61030E+01 0.00000E+00
 -1      1838 3.09000E+01 4.61030E+01 0.00000E+00
 -1      1839 2.86500E+01 4.48040E+01 0.00000E+00
 -1      1840 3.24000E+01 4.61030E+01 0.00000E+00
 -1      1841 3.39000E+01 4.61030E+01 0.00000E+00
 -1      1842 3.16500E+01 4.48040E+01 0.00000E+00
 -1      1843 3.54000E+01 4.61030E+01 0.00000E+00
 -1      1844 3.69000E+01 4.61030E+01 0.00000E+00
 -1      1845 3.46500E+01 4.48040E+01 0.00000E+00
 -1      1846 3.84000E+01 4.61030E+01 0.00000E+00
 -1      1847 3.99000E+01 4.61030E+01 0.00000E+00
 -1      1848 3.76500E+01 4.48040E+01 0.00000E+00
 -1      1849 4.14000E+01 4.61030E+01 0.00000E+00
 -1      1850 4.29000E+01 4.61030E+01 0.00000E+00
 -1      1851 4.06500E+01 4.48040E+01 0.00000E+00
 -1      1852 4.44000E+01 4.61030E+01 0.00000E+00
 -1      1853 4.59000E+01 4.61030E+01 0.00000E+00
 -1      1854 4.36500E+01 4.48040E+01 0.00000E+00
 -1      1855 4.74000E+01 4.61030E+01 0.00000E+00
 -1      1856 4.89000E+01 4.61030E+01 0.00000E+00
 -1      1857 4.66500E+01 4.48040E+01 0.00000E+00
 -1      1858 5.04000E+01 4.61030E+01 0.00000E+00
 -1      1859 5.19000E+01 4.61030E+01 0.00000E+00
 -1      1860 4.96500E+01 4.48040E+01 0.00000E+00
 -1      1861 5.34000E+01 4.61030E+01 0.00000E+00
 -1      1862 5.49000E+01 4.61030E+01 0.00000E+00
 -1      1863 5.26500E+01 4.48040E+01 0.00000E+00
 -1      1864 5.64000E+01 4.61030E+01 0.00000E+00
 -1      1865 5.79000E+01 4.61030E+01 0.00000E+00
 -1      1866 5.56500E+01 4.48040E+01 0.00000E+00
 -1      1867 5.94000E+01 4.61030E+01 0.00000E+00
 -1      1868 6.09000E+01 4.61030E+01 0.00000E+00
 -1      1869 5.86500E+01 4.48040E+01 0.00000E+00
 -1      1870 6.24000E+01 4.61030E+01 0.00000E+00
 -1      1871 6.39000E+01 4.61030E+01 0.00000E+00
 -1      1872 6.16500E+01 4.48040E+01 0.00000E+00
 -1      1873 6.54000E+01 4.61030E+01 0.00000E+00
 -1      1874 6.69000E+01 4.61030E+01 0.00000E+00
 -1      1875 6.46500E+01 4.48040E+01 0.00000E+00
 -1      1876 6.84000E+01 4.61030E+01 0.00000E+00
 -1      1877 6.99000E+01 4.61030E+01 0.00000E+00
 -1      1878 6.76500E+01 4.48040E+01 0.00000E+00
 -1      1879 7.14000E+01 4.61030E+01 0.00000E+00
 -1      1880 7.29000E+01 4.61030E+01 0.00000E+00
 -1      1881 7.06500E+01 4.48040E+01 0.00000E+00
 -1      1882 7.44000E+01 4.61030E+01 0.00000E+00
 -1      1883 7.59000E+01 4.61030E+01 0.00000E+00
 -1      1884 7.36500E+01 4.48040E+01 0.00000E+00
 -1      1885 7.74000E+01 4.61030E+01 0.00000E+00
 -1      1886 7.89000E+01 4.61030E+01 0.00000E+00
 -1      1887 7.66500E+01 4.48040E+01 0.00000E+00
 -1      1888 8.04000E+01 4.61030E+01 0.00000E+00
 -1      1889 8.19000E+01 4.61030E+01 0.00000E+00
 -1      1890 7.96500E+01 4.48040E+01 0.00000E+00
 -1      1891 8.34000E+01 4.61030E+01 0.00000E+00
 -1      1892 8.49000E+01 4.61030E+01 0.00000E+00
 -1      1893 8.26500E+01 4.48040E+01 0.00000E+00
 -1      1894 8.64000E+01 4.61030E+01 0.00000E+00
 -1      1895 8.79000E+01 4.61030E+01 0.00000E+00
 -1      1896 8.56500E+01 4.48040E+01 0.00000E+00
 -1      1897 8.94000E+01 4.61030E+01 0.00000E+00
 -1      1898 9.09000E+01 4.61030E+01 0.00000E+00
 -1      1899 8.86500E+01 4.48040E+01 0.00000E+00
 -1      1900 9.24000E+01 4.61030E+01 0.00000E+00
 -1      1901 9.39000E+01 4.61030E+01 0.00000E+00
 -1      1902 9.16500E+01 4.48040E+01 0.00000E+00
 -1      1903 9.54000E+01 4.61030E+01 0.00000E+00
 -1      1904 9.69000E+01 4.61030E+01 0.00000E+00
 -1      1905 9.46500E+01 4.48040E+01 0.00000E+00
 -1      1906 9.84000E+01 4.61030E+01 0.00000E+00
 -1      1907 9.99000E+01 4.61030E+01 0.00000E+00
 -1      1908 9.76500E+01 4.48040E+01 0.00000E+00
 -1      1909 1.01400E+02 4.61030E+01 0.00000E+00
 -1      1910 1.02900E+02 4.61030E+01 0.00000E+00
 -1      1911 1.00650E+02 4.48040E+01 0.00000E+00
 -1      1912 1.04400E+02 4.61030E+01 0.00000E+00
 -1      1913 1.05900E+02 4.61030E+01 0.00000E+00
 -1      1914 1.03650E+02 4.48040E+01 0.00000E+00
 -1      1915 1.07400E+02 4.61030E+01 0.00000E+00
 -1      1916 1.08900E+02 4.61030E+01 0.00000E+00
 -1      1917 1.06650E+02 4.48040E+01 0.00000E+00
 -1      1918 1.10400E+02 4.61030E+01 0.00000E+00
 -1      1919 1.11900E+02 4.61030E+01 0.00000E+00
 -1      1920 1.09650E+02 4.48040E+01 0.00000E+00
 -1      1921 1.13400E+02 4.61030E+01 0.00000E+00
 -1      1922 1.14900E+02 4.61030E+01 0.00000E+00
 -1      1923 1.12650E+02 4.48040E+01 0.00000E+00
 -1      1924 1.16400E+02 4.61030E+01 0.00000E+00
 -1      1925 1.17900E+02 4.61030E+01 0.00000E+00
 -1      1926 1.15650E+02 4.48040E+01 0.00000E+00
 -1      1927 1.19400E+02 4.61030E+01 0.00000E+00
 -1      1928 1.20900E+02 4.61030E+01 0.00000E+00
 -1      1929 1.18650E+02 4.48040E+01 0.00000E+00
 -1      1930 1.22400E+02 4.61030E+01 0.00000E+00
 -1      1931 1.23900E+02 4.61030E+01 0.00000E+00
 -1      1932 1.21650E+02 4.48040E+01 0.00000E+00
 -1      1933 1.25400E+02 4.61030E+01 0.00000E+00
 -1      1934 1.26900E+02 4.61030E+01 0.00000E+00
 -1      1935 1.24650E+02 4.48040E+01 0.00000E+00
 -1      1936 1.28400E+02 4.61030E+01 0.00000E+00
 -1      1937 1.29900E+02 4.61030E+01 0.00000E+00
 -1      1938 1.27650E+02 4.48040E+01 0.00000E+00
 -1      1939 1.31400E+02 4.61030E+01 0.00000E+00
 -1      1940 1.32900E+02 4.61030E+01 0.00000E+00
 -1      1941 1.30650E+02 4.48040E+01 0.00000E+00
 -1      1942 1.34400E+02 4.61030E+01 0.00000E+00
 -1      1943 1.35900E+02 4.61030E+01 0.00000E+00
 -1      1944 1.33650E+02 4.48040E+01 0.00000E+00
 -1      1945 1.37400E+02 4.61030E+01 0.00000E+00
 -1      1946 1.38900E+02 4.61030E+01 0.00000E+00
 -1      1947 1.36650E+02 4.48040E+01 0.00000E+00
 -1      1948 1.40400E+02 4.61030E+01 0.00000E+00
 -1      1949 1.41900E+02 4.61030E+01 0.00000E+00
 -1      1950 1.39650E+02 4.48040E+01 0.00000E+00
 -1      1951 1.43244E+02 4.61616E+01 0.00000E+00
 -1      1952 1.44744E+02 4.61616E+01 0.00000E+00
 -1      1953 1.45182E+02 4.49799E+01 0.00000E+00
 -1      1954 1.42494E+02 4.48626E+01 0.00000E+00
 -1      1955 1.17045E+01 3.09687E+00 0.00000E+00
 -1      1956 1.02045E+01 3.09687E+00 0.00000E+00
 -1      1957 1.00350E+01 4.00625E+00 0.00000E+00
 -1      1958 1.47045E+01 3.09687E+00 0.00000E+00
 -1      1959 1.32045E+01 3.09687E+00 0.00000E+00
 -1      1960 1.30350E+01 4.00625E+00 0.00000E+00
 -1      1961 1.77045E+01 3.09687E+00 0.00000E+00
 -1      1962 1.62045E+01 3.09687E+00 0.00000E+00
 -1      1963 1.60350E+01 4.00625E+00 0.00000E+00
 -1      1964 2.07045E+01 3.09687E+00 0.00000E+00
 -1      1965 1.92045E+01 3.09687E+00 0.00000E+00
 -1      1966 1.90350E+01 4.00625E+00 0.00000E+00
 -1      1967 2.37045E+01 3.09687E+00 0.00000E+00
 -1      1968 2.22045E+01 3.09687E+00 0.00000E+00
 -1      1969 2.20350E+01 4.00625E+00 0.00000E+00
 -1      1970 2.67045E+01 3.09687E+00 0.00000E+00
 -1      1971 2.52045E+01 3.09687E+00 0.00000E+00
 -1      1972 2.50350E+01 4.00625E+00 0.00000E+00
 -1      1973 2.97045E+01 3.09687E+00 0.00000E+00
 -1      1974 2.82045E+01 3.09687E+00 0.00000E+00
 -1      1975 2.80350E+01 4.00625E+00 0.00000E+00
 -1      1976 3.27045E+01 3.09687E+00 0.00000E+00
 -1      1977 3.12045E+01 3.09687E+00 0.00000E+00
 -1      1978 3.10350E+01 4.00625E+00 0.00000E+00
 -1      1979 3.57045E+01 3.09687E+00 0.00000E+00
 -1      1980 3.42045E+01 3.09687E+00 0.00000E+00
 -1      1981 3.40350E+01 4.00625E+00 0.00000E+00
 -1      1982 3.87045E+01 3.09687E+00 0.00000E+00
 -1      1983 3.72045E+01 3.09687E+00 0.00000E+00
 -1      1984 3.70350E+01 4.00625E+00 0.00000E+00
 -1      1985 4.17045E+01 3.09687E+00 0.00000E+00
 -1      1986 4.02045E+01 3.09687E+00 0.00000E+00
 -1      1987 4.00350E+01 4.00625E+00 0.00000E+00
 -1      1988 4.47045E+01 3.09687E+00 0.00000E+00
 -1      1989 4.32045E+01 3.09687E+00 0.00000E+00
 -1      1990 4.30350E+01 4.00625E+00 0.00000E+00
 -1      1991 4.77045E+01 3.09687E+00 0.00000E+00
 -1      1992 4.62045E+01 3.09687E+00 0.00000E+00
 -1      1993 4.60350E+01 4.00625E+00 0.00000E+00
 -1      1994 5.07045E+01 3.09687E+00 0.00000E+00
 -1      1995 4.92045E+01 3.09687E+00 0.00000E+00
 -1      1996 4.90350E+01 4.00625E+00 0.00000E+00
 -1      1997 5.37045E+01 3.09687E+00 0.00000E+00
 -1      1998 5.22045E+01 3.09687E+00 0.00000E+00
 -1      1999 5.20350E+01 4.00625E+00 0.00000E+00
 -1      2000 5.67045E+01 3.09687E+00 0.00000E+00
 -1      2001 5.52045E+01 3.09687E+00 0.00000E+00
 -1      2002 5.50350E+01 4.00625E+00 0.00000E+00
 -1      2003 5.97045E+01 3.09687E+00 0.00000E+00
 -1      2004 5.82045E+01 3.09687E+00 0.00000E+00
 -1      2005 5.80350E+01 4.00625E+00 0.00000E+00
 -1      2006 6.27045E+01 3.09687E+00 0.00000E+00
 -1      2007 6.12045E+01 3.09687E+00 0.00000E+00
 -1      2008 6.10350E+01 4.00625E+00 0.00000E+00
 -1      2009 6.57045E+01 3.09687E+00 0.00000E+00
 -1      2010 6.42045E+01 3.09687E+00 0.00000E+00
 -1      2011 6.40350E+01 4.00625E+00 0.00000E+00
 -1      2012 6.87045E+01 3.09687E+00 0.00000E+00
 -1      2013 6.72045E+01 3.09687E+00 0.00000E+00
 -1      2014 6.70350E+01 4.00625E+00 0.00000E+00
 -1      2015 7.17045E+01 3.09687E+00 0.00000E+00
 -1      2016 7.02045E+01 3.09687E+00 0.00000E+00
 -1      2017 7.00350E+01 4.00625E+00 0.00000E+00
 -1      2018 7.47045E+01 3.09687E+00 0.00000E+00
 -1      2019 7.32045E+01 3.09687E+00 0.00000E+00
 -1      2020 7.30350E+01 4.00625E+00 0.00000E+00
 -1      2021 7.77045E+01 3.09687E+00 0.00000E+00
 -1      2022 7.62045E+01 3.09687E+00 0.00000E+00
 -1      2023 7.60350E+01 4.00625E+00 0.00000E+00
 -1      2024 8.07045E+01 3.09687E+00 0.00000E+00
 -1      2025 7.92045E+01 3.09687E+00 0.00000E+00
 -1      2026 7.90350E+01 4.00625E+00 0.00000E+00
 -1      2027 8.37045E+01 3.09687E+00 0.00000E+00
 -1      2028 8.22045E+01 3.09687E+00 0.00000E+00
 -1      2029 8.20350E+01 4.00625E+00 0.00000E+00
 -1      2030 8.67045E+01 3.09687E+00 0.00000E+00
 -1      2031 8.52045E+01 3.09687E+00 0.00000E+00
 -1      2032 8.50350E+01 4.00625E+00 0.00000E+00
 -1      2033 8.97045E+01 3.09687E+00 0.00000E+00
 -1      2034 8.82045E+01 3.09687E+00 0.00000E+00
 -1      2035 8.80350E+01 4.00625E+00 0.00000E+00
 -1      2036 9.27045E+01 3.09687E+00 0.00000E+00
 -1      2037 9.12045E+01 3.09687E+00 0.00000E+00
 -1      2038 9.10350E+01 4.00625E+00 0.00000E+00
 -1      2039 9.57045E+01 3.09687E+00 0.00000E+00
 -1      2040 9.42045E+01 3.09687E+00 0.00000E+00
 -1      2041 9.40350E+01 4.00625E+00 0.00000E+00
 -1      2042 9.87045E+01 3.09687E+00 0.00000E+00
 -1      2043 9.72045E+01 3.09687E+00 0.00000E+00
 -1      2044 9.70350E+01 4.00625E+00 0.00000E+00
 -1      2045 1.01704E+02 3.09687E+00 0.00000E+00
 -1      2046 1.00204E+02 3.09687E+00 0.00000E+00
 -1      2047 1.00035E+02 4.00625E+00 0.00000E+00
 -1      2048 1.04704E+02 3.09687E+00 0.00000E+00
 -1      2049 1.03204E+02 3.09687E+00 0.00000E+00
 -1      2050 1.03035E+02 4.00625E+00 0.00000E+00
 -1      2051 1.07704E+02 3.09687E+00 0.00000E+00
 -1      2052 1.06204E+02 3.09687E+00 0.00000E+00
 -1      2053 1.06035E+02 4.00625E+00 0.00000E+00
 -1      2054 1.10704E+02 3.09687E+00 0.00000E+00
 -1      2055 1.09204E+02 3.09687E+00 0.00000E+00
 -1      2056 1.09035E+02 4.00625E+00 0.00000E+00
 -1      2057 1.13704E+02 3.09687E+00 0.00000E+00
 -1      2058 1.12204E+02 3.09687E+00 0.00000E+00
 -1      2059 1.12035E+02 4.00625E+00 0.00000E+00
 -1      2060 1.16704E+02 3.09687E+00 0.00000E+00
 -1      2061 1.15204E+02 3.09687E+00 0.00000E+00
 -1      2062 1.15035E+02 4.00625E+00 0.00000E+00
 -1      2063 1.19704E+02 3.09687E+00 0.00000E+00
 -1      2064 1.18204E+02 3.09687E+00 0.00000E+00
 -1      2065 1.18035E+02 4.00625E+00 0.00000E+00
 -1      2066 1.22704E+02 3.09687E+00 0.00000E+00
 -1      2067 1.21204E+02 3.09687E+00 0.00000E+00
 -1      2068 1.21035E+02 4.00625E+00 0.00000E+00
 -1      2069 1.25704E+02 3.09687E+00 0.00000E+00
 -1      2070 1.24204E+02 3.09687E+00 0.00000E+00
 -1      2071 1.24035E+02 4.00625E+00 0.00000E+00
 -1      2072 1.28704E+02 3.09687E+00 0.00000E+00
 -1      2073 1.27204E+02 3.09687E+00 0.00000E+00
 -1      2074 1.27035E+02 4.00625E+00 0.00000E+00
 -1      2075 1.31704E+02 3.09687E+00 0.00000E+00
 -1      2076 1.30204E+02 3.09687E+00 0.00000E+00
 -1      2077 1.30035E+02 4.00625E+00 0.00000E+00
 -1      2078 1.34704E+02 3.09687E+00 0.00000E+00
 -1      2079 1.33204E+02 3.09687E+00 0.00000E+00
 -1      2080 1.33035E+02 4.00625E+00 0.00000E+00
 -1      2081 1.37704E+02 3.09687E+00 0.00000E+00
 -1      2082 1.36204E+02 3.09687E+00 0.00000E+00
 -1      2083 1.36035E+02 4.00625E+00 0.00000E+00
 -1      2084 1.40704E+02 3.09687E+00 0.00000E+00
 -1      2085 1.39204E+02 3.09687E+00 0.00000E+00
 -1      2086 1.39035E+02 4.00625E+00 0.00000E+00
 -1      2087 1.43704E+02 3.09687E+00 0.00000E+00
 -1      2088 1.42204E+02 3.09687E+00 0.00000E+00
 -1      2089 1.42035E+02 4.00625E+00 0.00000E+00
 -1      2090 1.46171E+02 3.20156E+00 0.00000E+00
 -1      2091 1.44671E+02 3.20156E+00 0.00000E+00
 -1      2092 1.44502E+02 4.11094E+00 0.00000E+00
 -1      2093 1.46435E+02 4.32031E+00 0.00000E+00
 -1      2094 1.46103E+02 1.25375E+01 0.00000E+00
 -1      2095 1.46103E+02 1.10625E+01 0.00000E+00
 -1      2096 1.46103E+02 9.58750E+00 0.00000E+00
 -1      2097 1.46103E+02 8.11250E+00 0.00000E+00
 -1      2098 1.44804E+02 1.03250E+01 0.00000E+00
 -1      2099 1.46269E+02 6.95391E+00 0.00000E+00
 -1      2100 1.46269E+02 5.47891E+00 0.00000E+00
 -1      2101 1.45302E+02 5.37422E+00 0.00000E+00
 -1      2102 1.44970E+02 7.69141E+00 0.00000E+00
 -1      2103 1.46103E+02 1.54375E+01 0.00000E+00
 -1      2104 1.46103E+02 1.39875E+01 0.00000E+00
 -1      2105 1.44804E+02 1.32500E+01 0.00000E+00
 -1      2106 1.46103E+02 1.83875E+01 0.00000E+00
 -1      2107 1.46103E+02 1.69125E+01 0.00000E+00
 -1      2108 1.44804E+02 1.61750E+01 0.00000E+00
 -1      2109 1.46103E+02 2.13375E+01 0.00000E+00
 -1      2110 1.46103E+02 1.98625E+01 0.00000E+00
 -1      2111 1.44804E+02 1.91250E+01 0.00000E+00
 -1      2112 1.46103E+02 2.42875E+01 0.00000E+00
 -1      2113 1.46103E+02 2.28125E+01 0.00000E+00
 -1      2114 1.44804E+02 2.20750E+01 0.00000E+00
 -1      2115 1.46103E+02 2.72375E+01 0.00000E+00
 -1      2116 1.46103E+02 2.57625E+01 0.00000E+00
 -1      2117 1.44804E+02 2.50250E+01 0.00000E+00
 -1      2118 1.46103E+02 3.01875E+01 0.00000E+00
 -1      2119 1.46103E+02 2.87125E+01 0.00000E+00
 -1      2120 1.44804E+02 2.79750E+01 0.00000E+00
 -1      2121 1.46103E+02 3.30875E+01 0.00000E+00
 -1      2122 1.46103E+02 3.16375E+01 0.00000E+00
 -1      2123 1.44804E+02 3.09000E+01 0.00000E+00
 -1      2124 1.46103E+02 3.60375E+01 0.00000E+00
 -1      2125 1.46103E+02 3.45625E+01 0.00000E+00
 -1      2126 1.44804E+02 3.38250E+01 0.00000E+00
 -1      2127 1.46103E+02 3.89875E+01 0.00000E+00
 -1      2128 1.46103E+02 3.75125E+01 0.00000E+00
 -1      2129 1.44804E+02 3.67750E+01 0.00000E+00
 -1      2130 1.46103E+02 4.19375E+01 0.00000E+00
 -1      2131 1.46103E+02 4.04625E+01 0.00000E+00
 -1      2132 1.44804E+02 3.97250E+01 0.00000E+00
 -1      2133 9.50978E+01 2.39600E+01 0.00000E+00
 -1      2134 9.54043E+01 2.47504E+01 0.00000E+00
 -1      2135 9.60229E+01 2.75267E+01 0.00000E+00
 -1      2136 9.59850E+01 2.83894E+01 0.00000E+00
 -1      2137 9.56625E+01 2.55703E+01 0.00000E+00
 -1      2138 9.59207E+01 2.63902E+01 0.00000E+00
 -1      2139 9.62307E+01 2.48953E+01 0.00000E+00
 -1      2140 9.39623E+01 2.24099E+01 0.00000E+00
 -1      2141 9.44960E+01 2.30797E+01 0.00000E+00
 -1      2142 9.27652E+01 2.10968E+01 0.00000E+00
 -1      2143 9.33743E+01 2.16553E+01 0.00000E+00
 -1      2144 3.89700E+00 3.74688E+01 0.00000E+00
 -1      2145 3.89700E+00 3.89437E+01 0.00000E+00
 -1      2146 5.19600E+00 3.96813E+01 0.00000E+00
 -1      2147 5.19600E+00 3.67438E+01 0.00000E+00
 -1      2148 8.95298E+01 1.93451E+01 0.00000E+00
 -1      2149 9.03532E+01 1.96259E+01 0.00000E+00
 -1      2150 8.76640E+01 1.90193E+01 0.00000E+00
 -1      2151 8.85321E+01 1.91200E+01 0.00000E+00
 -1      2152 8.57177E+01 1.89632E+01 0.00000E+00
 -1      2153 8.66377E+01 1.89089E+01 0.00000E+00
 -1      2154 8.37241E+01 1.96503E+01 0.00000E+00
 -1      2155 8.45723E+01 1.92803E+01 0.00000E+00
 -1      2156 8.20659E+01 2.05213E+01 0.00000E+00
 -1      2157 8.28145E+01 2.00708E+01 0.00000E+00
 -1      2158 8.06403E+01 2.16572E+01 0.00000E+00
 -1      2159 8.13531E+01 2.10892E+01 0.00000E+00
 -1      2160 8.13069E+01 2.01651E+01 0.00000E+00
 -1      2161 7.93580E+01 2.33881E+01 0.00000E+00
 -1      2162 7.97920E+01 2.26012E+01 0.00000E+00
 -1      2163 7.84807E+01 2.49502E+01 0.00000E+00
 -1      2164 7.89193E+01 2.41692E+01 0.00000E+00
 -1      2165 7.84588E+01 2.34020E+01 0.00000E+00
 -1      2166 7.81340E+01 2.70532E+01 0.00000E+00
 -1      2167 7.81565E+01 2.61498E+01 0.00000E+00
 -1      2168 7.82746E+01 2.88395E+01 0.00000E+00
 -1      2169 7.82297E+01 2.79868E+01 0.00000E+00
 -1      2170 7.84586E+01 3.06885E+01 0.00000E+00
 -1      2171 7.83023E+01 2.98058E+01 0.00000E+00
 -1      2172 7.93606E+01 3.25247E+01 0.00000E+00
 -1      2173 7.88851E+01 3.17834E+01 0.00000E+00
 -1      2174 8.02149E+01 3.40733E+01 0.00000E+00
 -1      2175 7.97878E+01 3.32990E+01 0.00000E+00
 -1      2176 7.88987E+01 3.33462E+01 0.00000E+00
 -1      2177 8.19539E+01 3.53001E+01 0.00000E+00
 -1      2178 8.11601E+01 3.48826E+01 0.00000E+00
 -1      2179 8.34435E+01 3.60446E+01 0.00000E+00
 -1      2180 8.26987E+01 3.56724E+01 0.00000E+00
 -1      2181 8.19611E+01 3.61114E+01 0.00000E+00
 -1      2182 8.51851E+01 3.65867E+01 0.00000E+00
 -1      2183 8.43975E+01 3.63772E+01 0.00000E+00
 -1      2184 8.69284E+01 3.67460E+01 0.00000E+00
 -1      2185 8.61205E+01 3.66963E+01 0.00000E+00
 -1      2186 8.86629E+01 3.65993E+01 0.00000E+00
 -1      2187 8.78618E+01 3.67104E+01 0.00000E+00
 -1      2188 9.03929E+01 3.61935E+01 0.00000E+00
 -1      2189 8.95805E+01 3.64393E+01 0.00000E+00
 -1      2190 9.20571E+01 3.52571E+01 0.00000E+00
 -1      2191 9.13429E+01 3.57402E+01 0.00000E+00
 -1      2192 9.34553E+01 3.41688E+01 0.00000E+00
 -1      2193 9.28558E+01 3.47292E+01 0.00000E+00
 -1      2194 9.45258E+01 3.27561E+01 0.00000E+00
 -1      2195 9.40577E+01 3.34165E+01 0.00000E+00
 -1      2196 9.53110E+01 3.11461E+01 0.00000E+00
 -1      2197 9.49325E+01 3.19092E+01 0.00000E+00
 -1      2198 9.59445E+01 2.93722E+01 0.00000E+00
 -1      2199 9.57659E+01 3.02154E+01 0.00000E+00
 -1      2200 9.12607E+01 2.01152E+01 0.00000E+00
 -1      2201 9.19652E+01 2.05796E+01 0.00000E+00
 -1      2202 9.27927E+01 2.02885E+01 0.00000E+00
 -1      2203 6.42300E+00 4.57510E+01 0.00000E+00
 -1      2204 9.10853E+01 1.92820E+01 0.00000E+00
 -1      2205 7.17300E+00 4.44520E+01 0.00000E+00
 -1      2206 9.65911E+01 2.68518E+01 0.00000E+00
 -1      2207 9.53706E+01 2.31952E+01 0.00000E+00
 -1      2208 1.45665E+02 4.31193E+01 0.00000E+00
 -1      2209 9.66527E+01 2.89712E+01 0.00000E+00
 -1      2210 9.41808E+01 2.15603E+01 0.00000E+00
 -1      2211 9.61573E+01 3.08849E+01 0.00000E+00
 -1      2212 9.52956E+01 3.26626E+01 0.00000E+00
 -1      2213 9.42864E+01 3.42619E+01 0.00000E+00
 -1      2214 9.28852E+01 3.55422E+01 0.00000E+00
 -1      2215 9.11366E+01 3.65235E+01 0.00000E+00
 -1      2216 8.92689E+01 3.71368E+01 0.00000E+00
 -1      2217 8.74180E+01 3.73324E+01 0.00000E+00
 -1      2218 8.36599E+01 3.68162E+01 0.00000E+00
 -1      2219 8.02711E+01 3.49298E+01 0.00000E+00
 -1      2220 7.93820E+01 3.49770E+01 0.00000E+00
 -1      2221 8.03273E+01 3.57863E+01 0.00000E+00
 -1      2222 7.80450E+01 3.14769E+01 0.00000E+00
 -1      2223 7.75908E+01 2.94157E+01 0.00000E+00
 -1      2224 7.76959E+01 2.53827E+01 0.00000E+00
 -1      2225 7.97458E+01 2.16770E+01 0.00000E+00
 -1      2226 8.29293E+01 1.91766E+01 0.00000E+00
 -1      2227 8.49842E+01 1.84389E+01 0.00000E+00
 -1      2228 8.91801E+01 1.85677E+01 0.00000E+00
 -1      2229 8.71560E+01 1.82322E+01 0.00000E+00
 -1      2230 7.74675E+01 2.75158E+01 0.00000E+00
 -1      2231 8.55493E+01 3.72584E+01 0.00000E+00
 -1      2232 1.07850E+01 5.30525E+00 0.00000E+00
 -1      2233 9.28500E+00 5.30525E+00 0.00000E+00
 -1      2234 6.49500E+00 3.01125E+01 0.00000E+00
 -1      2235 6.49500E+00 3.15875E+01 0.00000E+00
 -1      2236 6.49500E+00 3.30625E+01 0.00000E+00
 -1      2237 6.49500E+00 3.45375E+01 0.00000E+00
 -1      2238 7.79400E+00 3.23250E+01 0.00000E+00
 -1      2239 6.49500E+00 2.42125E+01 0.00000E+00
 -1      2240 6.49500E+00 2.56875E+01 0.00000E+00
 -1      2241 6.49500E+00 2.12625E+01 0.00000E+00
 -1      2242 6.49500E+00 2.27375E+01 0.00000E+00
 -1      2243 7.79400E+00 2.34750E+01 0.00000E+00
 -1      2244 6.49500E+00 1.83625E+01 0.00000E+00
 -1      2245 6.49500E+00 1.98125E+01 0.00000E+00
 -1      2246 7.79400E+00 2.05500E+01 0.00000E+00
 -1      2247 6.49500E+00 1.54125E+01 0.00000E+00
 -1      2248 6.49500E+00 1.68875E+01 0.00000E+00
 -1      2249 7.79400E+00 1.76250E+01 0.00000E+00
 -1      2250 6.49500E+00 1.24625E+01 0.00000E+00
 -1      2251 6.49500E+00 1.39375E+01 0.00000E+00
 -1      2252 7.79400E+00 1.46750E+01 0.00000E+00
 -1      2253 6.49500E+00 9.51250E+00 0.00000E+00
 -1      2254 6.49500E+00 1.09875E+01 0.00000E+00
 -1      2255 7.79400E+00 1.17250E+01 0.00000E+00
 -1      2256 1.37850E+01 5.30525E+00 0.00000E+00
 -1      2257 1.22850E+01 5.30525E+00 0.00000E+00
 -1      2258 1.15350E+01 6.60425E+00 0.00000E+00
 -1      2259 9.90000E+00 4.35050E+01 0.00000E+00
 -1      2260 1.14000E+01 4.35050E+01 0.00000E+00
 -1      2261 9.10385E+01 1.82826E+01 0.00000E+00
 -1      2262 9.19459E+01 1.87718E+01 0.00000E+00
 -1      2263 1.29000E+01 4.35050E+01 0.00000E+00
 -1      2264 1.44000E+01 4.35050E+01 0.00000E+00
 -1      2265 1.21500E+01 4.22060E+01 0.00000E+00
 -1      2266 1.59000E+01 4.35050E+01 0.00000E+00
 -1      2267 1.74000E+01 4.35050E+01 0.00000E+00
 -1      2268 1.51500E+01 4.22060E+01 0.00000E+00
 -1      2269 1.89000E+01 4.35050E+01 0.00000E+00
 -1      2270 2.04000E+01 4.35050E+01 0.00000E+00
 -1      2271 1.81500E+01 4.22060E+01 0.00000E+00
 -1      2272 2.19000E+01 4.35050E+01 0.00000E+00
 -1      2273 2.34000E+01 4.35050E+01 0.00000E+00
 -1      2274 2.11500E+01 4.22060E+01 0.00000E+00
 -1      2275 2.49000E+01 4.35050E+01 0.00000E+00
 -1      2276 2.64000E+01 4.35050E+01 0.00000E+00
 -1      2277 2.41500E+01 4.22060E+01 0.00000E+00
 -1      2278 2.79000E+01 4.35050E+01 0.00000E+00
 -1      2279 2.94000E+01 4.35050E+01 0.00000E+00
 -1      2280 2.71500E+01 4.22060E+01 0.00000E+00
 -1      2281 3.09000E+01 4.35050E+01 0.00000E+00
 -1      2282 3.24000E+01 4.35050E+01 0.00000E+00
 -1      2283 3.01500E+01 4.22060E+01 0.00000E+00
 -1      2284 3.39000E+01 4.35050E+01 0.00000E+00
 -1      2285 3.54000E+01 4.35050E+01 0.00000E+00
 -1      2286 3.31500E+01 4.22060E+01 0.00000E+00
 -1      2287 3.69000E+01 4.35050E+01 0.00000E+00
 -1      2288 3.84000E+01 4.35050E+01 0.00000E+00
 -1      2289 3.61500E+01 4.22060E+01 0.00000E+00
 -1      2290 3.99000E+01 4.35050E+01 0.00000E+00
 -1      2291 4.14000E+01 4.35050E+01 0.00000E+00
 -1      2292 3.91500E+01 4.22060E+01 0.00000E+00
 -1      2293 4.29000E+01 4.35050E+01 0.00000E+00
 -1      2294 4.44000E+01 4.35050E+01 0.00000E+00
 -1      2295 4.21500E+01 4.22060E+01 0.00000E+00
 -1      2296 4.59000E+01 4.35050E+01 0.00000E+00
 -1      2297 4.74000E+01 4.35050E+01 0.00000E+00
 -1      2298 4.51500E+01 4.22060E+01 0.00000E+00
 -1      2299 4.89000E+01 4.35050E+01 0.00000E+00
 -1      2300 5.04000E+01 4.35050E+01 0.00000E+00
 -1      2301 4.81500E+01 4.22060E+01 0.00000E+00
 -1      2302 5.19000E+01 4.35050E+01 0.00000E+00
 -1      2303 5.34000E+01 4.35050E+01 0.00000E+00
 -1      2304 5.11500E+01 4.22060E+01 0.00000E+00
 -1      2305 5.49000E+01 4.35050E+01 0.00000E+00
 -1      2306 5.64000E+01 4.35050E+01 0.00000E+00
 -1      2307 5.41500E+01 4.22060E+01 0.00000E+00
 -1      2308 5.79000E+01 4.35050E+01 0.00000E+00
 -1      2309 5.94000E+01 4.35050E+01 0.00000E+00
 -1      2310 5.71500E+01 4.22060E+01 0.00000E+00
 -1      2311 6.09000E+01 4.35050E+01 0.00000E+00
 -1      2312 6.24000E+01 4.35050E+01 0.00000E+00
 -1      2313 6.01500E+01 4.22060E+01 0.00000E+00
 -1      2314 6.39000E+01 4.35050E+01 0.00000E+00
 -1      2315 6.54000E+01 4.35050E+01 0.00000E+00
 -1      2316 6.31500E+01 4.22060E+01 0.00000E+00
 -1      2317 6.69000E+01 4.35050E+01 0.00000E+00
 -1      2318 6.84000E+01 4.35050E+01 0.00000E+00
 -1      2319 6.61500E+01 4.22060E+01 0.00000E+00
 -1      2320 6.99000E+01 4.35050E+01 0.00000E+00
 -1      2321 7.14000E+01 4.35050E+01 0.00000E+00
 -1      2322 6.91500E+01 4.22060E+01 0.00000E+00
 -1      2323 7.29000E+01 4.35050E+01 0.00000E+00
 -1      2324 7.44000E+01 4.35050E+01 0.00000E+00
 -1      2325 7.21500E+01 4.22060E+01 0.00000E+00
 -1      2326 7.59000E+01 4.35050E+01 0.00000E+00
 -1      2327 7.74000E+01 4.35050E+01 0.00000E+00
 -1      2328 7.51500E+01 4.22060E+01 0.00000E+00
 -1      2329 7.89000E+01 4.35050E+01 0.00000E+00
 -1      2330 8.04000E+01 4.35050E+01 0.00000E+00
 -1      2331 7.81500E+01 4.22060E+01 0.00000E+00
 -1      2332 8.19000E+01 4.35050E+01 0.00000E+00
 -1      2333 8.34000E+01 4.35050E+01 0.00000E+00
 -1      2334 8.11500E+01 4.22060E+01 0.00000E+00
 -1      2335 8.49000E+01 4.35050E+01 0.00000E+00
 -1      2336 8.64000E+01 4.35050E+01 0.00000E+00
 -1      2337 8.41500E+01 4.22060E+01 0.00000E+00
 -1      2338 8.79000E+01 4.35050E+01 0.00000E+00
 -1      2339 8.94000E+01 4.35050E+01 0.00000E+00
 -1      2340 8.71500E+01 4.22060E+01 0.00000E+00
 -1      2341 9.09000E+01 4.35050E+01 0.00000E+00
 -1      2342 9.24000E+01 4.35050E+01 0.00000E+00
 -1      2343 9.01500E+01 4.22060E+01 0.00000E+00
 -1      2344 9.39000E+01 4.35050E+01 0.00000E+00
 -1      2345 9.54000E+01 4.35050E+01 0.00000E+00
 -1      2346 9.31500E+01 4.22060E+01 0.00000E+00
 -1      2347 9.69000E+01 4.35050E+01 0.00000E+00
 -1      2348 9.84000E+01 4.35050E+01 0.00000E+00
 -1      2349 9.61500E+01 4.22060E+01 0.00000E+00
 -1      2350 9.99000E+01 4.35050E+01 0.00000E+00
 -1      2351 1.01400E+02 4.35050E+01 0.00000E+00
 -1      2352 9.91500E+01 4.22060E+01 0.00000E+00
 -1      2353 1.02900E+02 4.35050E+01 0.00000E+00
 -1      2354 1.04400E+02 4.35050E+01 0.00000E+00
 -1      2355 1.02150E+02 4.22060E+01 0.00000E+00
 -1      2356 1.05900E+02 4.35050E+01 0.00000E+00
 -1      2357 1.07400E+02 4.35050E+01 0.00000E+00
 -1      2358 1.05150E+02 4.22060E+01 0.00000E+00
 -1      2359 1.08900E+02 4.35050E+01 0.00000E+00
 -1      2360 1.10400E+02 4.35050E+01 0.00000E+00
 -1      2361 1.08150E+02 4.22060E+01 0.00000E+00
 -1      2362 1.11900E+02 4.35050E+01 0.00000E+00
 -1      2363 1.13400E+02 4.35050E+01 0.00000E+00
 -1      2364 1.11150E+02 4.22060E+01 0.00000E+00
 -1      2365 1.14900E+02 4.35050E+01 0.00000E+00
 -1      2366 1.16400E+02 4.35050E+01 0.00000E+00
 -1      2367 1.14150E+02 4.22060E+01 0.00000E+00
 -1      2368 1.17900E+02 4.35050E+01 0.00000E+00
 -1      2369 1.19400E+02 4.35050E+01 0.00000E+00
 -1      2370 1.17150E+02 4.22060E+01 0.00000E+00
 -1      2371 1.20900E+02 4.35050E+01 0.00000E+00
 -1      2372 1.22400E+02 4.35050E+01 0.00000E+00
 -1      2373 1.20150E+02 4.22060E+01 0.00000E+00
 -1      2374 1.23900E+02 4.35050E+01 0.00000E+00
 -1      2375 1.25400E+02 4.35050E+01 0.00000E+00
 -1      2376 1.23150E+02 4.22060E+01 0.00000E+00
 -1      2377 1.26900E+02 4.35050E+01 0.00000E+00
 -1      2378 1.28400E+02 4.35050E+01 0.00000E+00
 -1      2379 1.26150E+02 4.22060E+01 0.00000E+00
 -1      2380 1.29900E+02 4.35050E+01 0.00000E+00
 -1      2381 1.31400E+02 4.35050E+01 0.00000E+00
 -1      2382 1.29150E+02 4.22060E+01 0.00000E+00
 -1      2383 1.32900E+02 4.35050E+01 0.00000E+00
 -1      2384 1.34400E+02 4.35050E+01 0.00000E+00
 -1      2385 1.32150E+02 4.22060E+01 0.00000E+00
 -1      2386 1.35900E+02 4.35050E+01 0.00000E+00
 -1      2387 1.37400E+02 4.35050E+01 0.00000E+00
 -1      2388 1.35150E+02 4.22060E+01 0.00000E+00
 -1      2389 1.38900E+02 4.35050E+01 0.00000E+00
 -1      2390 1.40400E+02 4.35050E+01 0.00000E+00
 -1      2391 1.38150E+02 4.22060E+01 0.00000E+00
 -1      2392 9.69994E+01 2.42026E+01 0.00000E+00
 -1      2393 9.72576E+01 2.50225E+01 0.00000E+00
 -1      2394 1.97850E+01 5.30525E+00 0.00000E+00
 -1      2395 1.82850E+01 5.30525E+00 0.00000E+00
 -1      2396 2.27850E+01 5.30525E+00 0.00000E+00
 -1      2397 2.12850E+01 5.30525E+00 0.00000E+00
 -1      2398 2.05350E+01 6.60425E+00 0.00000E+00
 -1      2399 2.57850E+01 5.30525E+00 0.00000E+00
 -1      2400 2.42850E+01 5.30525E+00 0.00000E+00
 -1      2401 2.35350E+01 6.60425E+00 0.00000E+00
 -1      2402 2.87850E+01 5.30525E+00 0.00000E+00
 -1      2403 2.72850E+01 5.30525E+00 0.00000E+00
 -1      2404 2.65350E+01 6.60425E+00 0.00000E+00
 -1      2405 3.17850E+01 5.30525E+00 0.00000E+00
 -1      2406 3.02850E+01 5.30525E+00 0.00000E+00
 -1      2407 2.95350E+01 6.60425E+00 0.00000E+00
 -1      2408 3.47850E+01 5.30525E+00 0.00000E+00
 -1      2409 3.32850E+01 5.30525E+00 0.00000E+00
 -1      2410 3.25350E+01 6.60425E+00 0.00000E+00
 -1      2411 3.77850E+01 5.30525E+00 0.00000E+00
 -1      2412 3.62850E+01 5.30525E+00 0.00000E+00
 -1      2413 3.55350E+01 6.60425E+00 0.00000E+00
 -1      2414 4.07850E+01 5.30525E+00 0.00000E+00
 -1      2415 3.92850E+01 5.30525E+00 0.00000E+00
 -1      2416 3.85350E+01 6.60425E+00 0.00000E+00
 -1      2417 4.37850E+01 5.30525E+00 0.00000E+00
 -1      2418 4.22850E+01 5.30525E+00 0.00000E+00
 -1      2419 4.15350E+01 6.60425E+00 0.00000E+00
 -1      2420 4.67850E+01 5.30525E+00 0.00000E+00
 -1      2421 4.52850E+01 5.30525E+00 0.00000E+00
 -1      2422 4.45350E+01 6.60425E+00 0.00000E+00
 -1      2423 4.97850E+01 5.30525E+00 0.00000E+00
 -1      2424 4.82850E+01 5.30525E+00 0.00000E+00
 -1      2425 4.75350E+01 6.60425E+00 0.00000E+00
 -1      2426 5.27850E+01 5.30525E+00 0.00000E+00
 -1      2427 5.12850E+01 5.30525E+00 0.00000E+00
 -1      2428 5.05350E+01 6.60425E+00 0.00000E+00
 -1      2429 5.57850E+01 5.30525E+00 0.00000E+00
 -1      2430 5.42850E+01 5.30525E+00 0.00000E+00
 -1      2431 5.35350E+01 6.60425E+00 0.00000E+00
 -1      2432 5.87850E+01 5.30525E+00 0.00000E+00
 -1      2433 5.72850E+01 5.30525E+00 0.00000E+00
 -1      2434 5.65350E+01 6.60425E+00 0.00000E+00
 -1      2435 6.17850E+01 5.30525E+00 0.00000E+00
 -1      2436 6.02850E+01 5.30525E+00 0.00000E+00
 -1      2437 5.95350E+01 6.60425E+00 0.00000E+00
 -1      2438 6.47850E+01 5.30525E+00 0.00000E+00
 -1      2439 6.32850E+01 5.30525E+00 0.00000E+00
 -1      2440 6.25350E+01 6.60425E+00 0.00000E+00
 -1      2441 6.77850E+01 5.30525E+00 0.00000E+00
 -1      2442 6.62850E+01 5.30525E+00 0.00000E+00
 -1      2443 6.55350E+01 6.60425E+00 0.00000E+00
 -1      2444 7.07850E+01 5.30525E+00 0.00000E+00
 -1      2445 6.92850E+01 5.30525E+00 0.00000E+00
 -1      2446 6.85350E+01 6.60425E+00 0.00000E+00
 -1      2447 7.37850E+01 5.30525E+00 0.00000E+00
 -1      2448 7.22850E+01 5.30525E+00 0.00000E+00
 -1      2449 7.15350E+01 6.60425E+00 0.00000E+00
 -1      2450 7.67850E+01 5.30525E+00 0.00000E+00
 -1      2451 7.52850E+01 5.30525E+00 0.00000E+00
 -1      2452 7.45350E+01 6.60425E+00 0.00000E+00
 -1      2453 7.97850E+01 5.30525E+00 0.00000E+00
 -1      2454 7.82850E+01 5.30525E+00 0.00000E+00
 -1      2455 7.75350E+01 6.60425E+00 0.00000E+00
 -1      2456 8.27850E+01 5.30525E+00 0.00000E+00
 -1      2457 8.12850E+01 5.30525E+00 0.00000E+00
 -1      2458 8.05350E+01 6.60425E+00 0.00000E+00
 -1      2459 8.57850E+01 5.30525E+00 0.00000E+00
 -1      2460 8.42850E+01 5.30525E+00 0.00000E+00
 -1      2461 8.35350E+01 6.60425E+00 0.00000E+00
 -1      2462 8.87850E+01 5.30525E+00 0.00000E+00
 -1      2463 8.72850E+01 5.30525E+00 0.00000E+00
 -1      2464 8.65350E+01 6.60425E+00 0.00000E+00
 -1      2465 9.17850E+01 5.30525E+00 0.00000E+00
 -1      2466 9.02850E+01 5.30525E+00 0.00000E+00
 -1      2467 8.95350E+01 6.60425E+00 0.00000E+00
 -1      2468 9.47850E+01 5.30525E+00 0.00000E+00
 -1      2469 9.32850E+01 5.30525E+00 0.00000E+00
 -1      2470 9.25350E+01 6.60425E+00 0.00000E+00
 -1      2471 9.77850E+01 5.30525E+00 0.00000E+00
 -1      2472 9.62850E+01 5.30525E+00 0.00000E+00
 -1      2473 9.55350E+01 6.60425E+00 0.00000E+00
 -1      2474 1.00785E+02 5.30525E+00 0.00000E+00
 -1      2475 9.92850E+01 5.30525E+00 0.00000E+00
 -1      2476 9.85350E+01 6.60425E+00 0.00000E+00
 -1      2477 1.03785E+02 5.30525E+00 0.00000E+00
 -1      2478 1.02285E+02 5.30525E+00 0.00000E+00
 -1      2479 1.01535E+02 6.60425E+00 0.00000E+00
 -1      2480 1.06785E+02 5.30525E+00 0.00000E+00
 -1      2481 1.05285E+02 5.30525E+00 0.00000E+00
 -1      2482 1.04535E+02 6.60425E+00 0.00000E+00
 -1      2483 1.09785E+02 5.30525E+00 0.00000E+00
 -1      2484 1.08285E+02 5.30525E+00 0.00000E+00
 -1      2485 1.07535E+02 6.60425E+00 0.00000E+00
 -1      2486 1.12785E+02 5.30525E+00 0.00000E+00
 -1      2487 1.11285E+02 5.30525E+00 0.00000E+00
 -1      2488 1.10535E+02 6.60425E+00 0.00000E+00
 -1      2489 1.15785E+02 5.30525E+00 0.00000E+00
 -1      2490 1.14285E+02 5.30525E+00 0.00000E+00
 -1      2491 1.13535E+02 6.60425E+00 0.00000E+00
 -1      2492 1.18785E+02 5.30525E+00 0.00000E+00
 -1      2493 1.17285E+02 5.30525E+00 0.00000E+00
 -1      2494 1.16535E+02 6.60425E+00 0.00000E+00
 -1      2495 1.21785E+02 5.30525E+00 0.00000E+00
 -1      2496 1.20285E+02 5.30525E+00 0.00000E+00
 -1      2497 1.19535E+02 6.60425E+00 0.00000E+00
 -1      2498 1.24785E+02 5.30525E+00 0.00000E+00
 -1      2499 1.23285E+02 5.30525E+00 0.00000E+00
 -1      2500 1.22535E+02 6.60425E+00 0.00000E+00
 -1      2501 1.27785E+02 5.30525E+00 0.00000E+00
 -1      2502 1.26285E+02 5.30525E+00 0.00000E+00
 -1      2503 1.25535E+02 6.60425E+00 0.00000E+00
 -1      2504 1.30785E+02 5.30525E+00 0.00000E+00
 -1      2505 1.29285E+02 5.30525E+00 0.00000E+00
 -1      2506 1.28535E+02 6.60425E+00 0.00000E+00
 -1      2507 1.33785E+02 5.30525E+00 0.00000E+00
 -1      2508 1.32285E+02 5.30525E+00 0.00000E+00
 -1      2509 1.31535E+02 6.60425E+00 0.00000E+00
 -1      2510 1.36785E+02 5.30525E+00 0.00000E+00
 -1      2511 1.35285E+02 5.30525E+00 0.00000E+00
 -1      2512 1.34535E+02 6.60425E+00 0.00000E+00
 -1      2513 1.39785E+02 5.30525E+00 0.00000E+00
 -1      2514 1.38285E+02 5.30525E+00 0.00000E+00
 -1      2515 1.37535E+02 6.60425E+00 0.00000E+00
 -1      2516 1.42785E+02 5.30525E+00 0.00000E+00
 -1      2517 1.41285E+02 5.30525E+00 0.00000E+00
 -1      2518 1.40535E+02 6.60425E+00 0.00000E+00
 -1      2519 1.44336E+02 5.26953E+00 0.00000E+00
 -1      2520 1.43505E+02 1.69125E+01 0.00000E+00
 -1      2521 1.43505E+02 1.54375E+01 0.00000E+00
 -1      2522 1.43505E+02 1.98625E+01 0.00000E+00
 -1      2523 1.43505E+02 1.83875E+01 0.00000E+00
 -1      2524 1.42206E+02 1.76500E+01 0.00000E+00
 -1      2525 1.43505E+02 1.10625E+01 0.00000E+00
 -1      2526 1.43505E+02 9.58750E+00 0.00000E+00
 -1      2527 1.43505E+02 1.39750E+01 0.00000E+00
 -1      2528 1.43505E+02 1.25250E+01 0.00000E+00
 -1      2529 1.42206E+02 1.17875E+01 0.00000E+00
 -1      2530 1.42206E+02 1.47125E+01 0.00000E+00
 -1      2531 1.43505E+02 2.28125E+01 0.00000E+00
 -1      2532 1.43505E+02 2.13375E+01 0.00000E+00
 -1      2533 1.42206E+02 2.06000E+01 0.00000E+00
 -1      2534 1.43505E+02 2.57625E+01 0.00000E+00
 -1      2535 1.43505E+02 2.42875E+01 0.00000E+00
 -1      2536 1.42206E+02 2.35500E+01 0.00000E+00
 -1      2537 1.43505E+02 2.87125E+01 0.00000E+00
 -1      2538 1.43505E+02 2.72375E+01 0.00000E+00
 -1      2539 1.42206E+02 2.65000E+01 0.00000E+00
 -1      2540 1.43505E+02 3.16125E+01 0.00000E+00
 -1      2541 1.43505E+02 3.01625E+01 0.00000E+00
 -1      2542 1.42206E+02 2.94250E+01 0.00000E+00
 -1      2543 1.43505E+02 3.45625E+01 0.00000E+00
 -1      2544 1.43505E+02 3.30875E+01 0.00000E+00
 -1      2545 1.42206E+02 3.23500E+01 0.00000E+00
 -1      2546 1.43505E+02 3.75125E+01 0.00000E+00
 -1      2547 1.43505E+02 3.60375E+01 0.00000E+00
 -1      2548 1.42206E+02 3.53000E+01 0.00000E+00
 -1      2549 1.43505E+02 4.04625E+01 0.00000E+00
 -1      2550 1.43505E+02 3.89875E+01 0.00000E+00
 -1      2551 1.42206E+02 3.82500E+01 0.00000E+00
 -1      2552 1.44321E+02 4.30606E+01 0.00000E+00
 -1      2553 9.73624E+01 2.85082E+01 0.00000E+00
 -1      2554 9.73218E+01 2.94911E+01 0.00000E+00
 -1      2555 1.67850E+01 5.30525E+00 0.00000E+00
 -1      2556 1.52850E+01 5.30525E+00 0.00000E+00
 -1      2557 1.75350E+01 6.60425E+00 0.00000E+00
 -1      2558 9.57085E+01 2.23184E+01 0.00000E+00
 -1      2559 9.63103E+01 2.31986E+01 0.00000E+00
 -1      2560 9.70799E+01 3.07592E+01 0.00000E+00
 -1      2561 9.66250E+01 3.16900E+01 0.00000E+00
 -1      2562 6.55950E+00 4.28890E+01 0.00000E+00
 -1      2563 8.53650E+00 4.32410E+01 0.00000E+00
 -1      2564 9.28650E+00 4.19420E+01 0.00000E+00
 -1      2565 6.55950E+00 4.14140E+01 0.00000E+00
 -1      2566 9.44971E+01 2.07074E+01 0.00000E+00
 -1      2567 9.50851E+01 2.14620E+01 0.00000E+00
 -1      2568 7.74983E+01 3.23205E+01 0.00000E+00
 -1      2569 7.70717E+01 3.12256E+01 0.00000E+00
 -1      2570 8.21146E+01 1.86085E+01 0.00000E+00
 -1      2571 8.30242E+01 1.81879E+01 0.00000E+00
 -1      2572 6.49500E+00 2.71625E+01 0.00000E+00
 -1      2573 6.49500E+00 2.86375E+01 0.00000E+00
 -1      2574 7.79400E+00 2.93750E+01 0.00000E+00
 -1      2575 7.79400E+00 2.64250E+01 0.00000E+00
 -1      2576 8.67256E+01 1.74077E+01 0.00000E+00
 -1      2577 8.77520E+01 1.75181E+01 0.00000E+00
 -1      2578 7.66622E+01 2.80701E+01 0.00000E+00
 -1      2579 7.65665E+01 2.71365E+01 0.00000E+00
 -1      2580 8.88515E+01 1.77004E+01 0.00000E+00
 -1      2581 8.98492E+01 1.79255E+01 0.00000E+00
 -1      2582 8.41939E+01 1.78114E+01 0.00000E+00
 -1      2583 8.53393E+01 1.74942E+01 0.00000E+00
 -1      2584 8.03639E+01 1.97129E+01 0.00000E+00
 -1      2585 8.10767E+01 1.91449E+01 0.00000E+00
 -1      2586 7.86672E+01 2.16008E+01 0.00000E+00
 -1      2587 7.95155E+01 2.06568E+01 0.00000E+00
 -1      2588 7.92853E+01 1.96366E+01 0.00000E+00
 -1      2589 7.75648E+01 2.34137E+01 0.00000E+00
 -1      2590 7.80035E+01 2.26326E+01 0.00000E+00
 -1      2591 8.59269E+01 3.80817E+01 0.00000E+00
 -1      2592 8.49915E+01 3.79721E+01 0.00000E+00
 -1      2593 7.67060E+01 2.57587E+01 0.00000E+00
 -1      2594 7.70302E+01 2.45591E+01 0.00000E+00
 -1      2595 7.67176E+01 3.00027E+01 0.00000E+00
 -1      2596 7.66899E+01 2.90364E+01 0.00000E+00
 -1      2597 7.57890E+01 2.86571E+01 0.00000E+00
 -1      2598 7.83614E+01 3.41476E+01 0.00000E+00
 -1      2599 7.79343E+01 3.33732E+01 0.00000E+00
 -1      2600 8.19501E+01 3.70646E+01 0.00000E+00
 -1      2601 8.12053E+01 3.66923E+01 0.00000E+00
 -1      2602 8.38581E+01 3.77297E+01 0.00000E+00
 -1      2603 8.29041E+01 3.73971E+01 0.00000E+00
 -1      2604 8.21483E+01 3.79781E+01 0.00000E+00
 -1      2605 8.79110E+01 3.80041E+01 0.00000E+00
 -1      2606 8.69776E+01 3.80397E+01 0.00000E+00
 -1      2607 8.98607E+01 3.78191E+01 0.00000E+00
 -1      2608 8.89430E+01 3.79791E+01 0.00000E+00
 -1      2609 9.19268E+01 3.69574E+01 0.00000E+00
 -1      2610 9.09768E+01 3.74107E+01 0.00000E+00
 -1      2611 9.36882E+01 3.58888E+01 0.00000E+00
 -1      2612 9.28895E+01 3.64168E+01 0.00000E+00
 -1      2613 9.51916E+01 3.43694E+01 0.00000E+00
 -1      2614 9.45891E+01 3.51217E+01 0.00000E+00
 -1      2615 9.62183E+01 3.25370E+01 0.00000E+00
 -1      2616 9.58115E+01 3.33839E+01 0.00000E+00
 -1      2617 9.71409E+01 3.24113E+01 0.00000E+00
 -1      2618 9.73941E+01 2.62067E+01 0.00000E+00
 -1      2619 9.74963E+01 2.73432E+01 0.00000E+00
 -1      2620 8.07525E+00 5.11044E+00 0.00000E+00
 -1      2621 6.57525E+00 5.11044E+00 0.00000E+00
 -1      2622 6.40575E+00 6.01981E+00 0.00000E+00
 -1      2623 8.82525E+00 6.40944E+00 0.00000E+00
 -1      2624 9.28128E+01 1.93801E+01 0.00000E+00
 -1      2625 9.36128E+01 1.98973E+01 0.00000E+00
 -1      2626 8.84211E+01 1.68758E+01 0.00000E+00
 -1      2627 7.79400E+00 3.52687E+01 0.00000E+00
 -1      2628 6.49500E+00 3.60062E+01 0.00000E+00
 -1      2629 6.49500E+00 3.74750E+01 0.00000E+00
 -1      2630 1.45350E+01 6.60425E+00 0.00000E+00
 -1      2631 6.40575E+00 7.49481E+00 0.00000E+00
 -1      2632 9.27661E+01 1.83806E+01 0.00000E+00
 -1      2633 9.45172E+01 1.97990E+01 0.00000E+00
 -1      2634 9.61142E+01 3.42437E+01 0.00000E+00
 -1      2635 9.45934E+01 3.59963E+01 0.00000E+00
 -1      2636 9.84993E+01 2.98332E+01 0.00000E+00
 -1      2637 9.77896E+01 3.02962E+01 0.00000E+00
 -1      2638 9.82573E+01 3.11014E+01 0.00000E+00
 -1      2639 9.73373E+01 2.33258E+01 0.00000E+00
 -1      2640 1.43586E+02 6.56853E+00 0.00000E+00
 -1      2641 1.43419E+02 7.72713E+00 0.00000E+00
 -1      2642 9.27297E+01 3.73039E+01 0.00000E+00
 -1      2643 1.42758E+02 4.35929E+01 0.00000E+00
 -1      2644 1.43241E+02 4.17323E+01 0.00000E+00
 -1      2645 1.41942E+02 4.09948E+01 0.00000E+00
 -1      2646 1.41414E+02 4.35342E+01 0.00000E+00
 -1      2647 9.06508E+01 3.82530E+01 0.00000E+00
 -1      2648 8.42357E+01 3.85530E+01 0.00000E+00
 -1      2649 9.81654E+01 2.78631E+01 0.00000E+00
 -1      2650 7.70475E+00 8.23231E+00 0.00000E+00
 -1      2651 9.60248E+01 2.14654E+01 0.00000E+00
 -1      2652 8.64199E+01 3.87534E+01 0.00000E+00
 -1      2653 7.61708E+01 3.08463E+01 0.00000E+00
 -1      2654 7.69610E+01 3.31219E+01 0.00000E+00
 -1      2655 7.59008E+01 2.63130E+01 0.00000E+00
 -1      2656 7.77732E+01 2.16124E+01 0.00000E+00
 -1      2657 8.33792E+01 1.72433E+01 0.00000E+00
 -1      2658 8.03163E+01 3.67395E+01 0.00000E+00
 -1      2659 8.11716E+01 1.81563E+01 0.00000E+00
 -1      2660 6.55950E+00 3.99453E+01 0.00000E+00
 -1      2661 9.07099E+01 1.74152E+01 0.00000E+00
 -1      2662 8.51449E+01 1.61526E+01 0.00000E+00
 -1      2663 8.59353E+01 1.67801E+01 0.00000E+00
 -1      2664 8.65312E+01 1.60660E+01 0.00000E+00
 -1      2665 7.65749E+01 2.37897E+01 0.00000E+00
 -1      2666 7.84176E+01 3.50040E+01 0.00000E+00
 -1      2667 7.74531E+01 3.50311E+01 0.00000E+00
 -1      2668 7.84738E+01 3.58605E+01 0.00000E+00
 -1      2669 9.81628E+01 2.55140E+01 0.00000E+00
 -1      2670 8.85027E+01 3.86864E+01 0.00000E+00
 -1      2671 1.42120E+02 8.46463E+00 0.00000E+00
 -1      2672 1.40664E+02 4.22352E+01 0.00000E+00
 -1      2673 9.09300E+00 1.98250E+01 0.00000E+00
 -1      2674 9.09300E+00 2.12750E+01 0.00000E+00
 -1      2675 9.09300E+00 2.27500E+01 0.00000E+00
 -1      2676 9.09300E+00 2.42250E+01 0.00000E+00
 -1      2677 1.03920E+01 2.20250E+01 0.00000E+00
 -1      2678 9.09300E+00 1.39375E+01 0.00000E+00
 -1      2679 9.09300E+00 1.54125E+01 0.00000E+00
 -1      2680 9.09300E+00 1.09875E+01 0.00000E+00
 -1      2681 9.09300E+00 1.24625E+01 0.00000E+00
 -1      2682 1.03920E+01 1.32000E+01 0.00000E+00
 -1      2683 1.22850E+01 7.90325E+00 0.00000E+00
 -1      2684 1.07850E+01 7.90325E+00 0.00000E+00
 -1      2685 9.64064E+01 2.05326E+01 0.00000E+00
 -1      2686 9.70298E+01 2.13889E+01 0.00000E+00
 -1      2687 8.91450E+00 8.42712E+00 0.00000E+00
 -1      2688 9.81173E+01 3.23591E+01 0.00000E+00
 -1      2689 9.77105E+01 3.32061E+01 0.00000E+00
 -1      2690 1.52850E+01 7.90325E+00 0.00000E+00
 -1      2691 1.37850E+01 7.90325E+00 0.00000E+00
 -1      2692 1.30350E+01 9.20225E+00 0.00000E+00
 -1      2693 9.46543E+01 1.87616E+01 0.00000E+00
 -1      2694 9.55386E+01 1.95717E+01 0.00000E+00
 -1      2695 1.44000E+01 4.09070E+01 0.00000E+00
 -1      2696 1.59000E+01 4.09070E+01 0.00000E+00
 -1      2697 1.74000E+01 4.09070E+01 0.00000E+00
 -1      2698 1.89000E+01 4.09070E+01 0.00000E+00
 -1      2699 1.66500E+01 3.96080E+01 0.00000E+00
 -1      2700 2.04000E+01 4.09070E+01 0.00000E+00
 -1      2701 2.19000E+01 4.09070E+01 0.00000E+00
 -1      2702 1.96500E+01 3.96080E+01 0.00000E+00
 -1      2703 2.34000E+01 4.09070E+01 0.00000E+00
 -1      2704 2.49000E+01 4.09070E+01 0.00000E+00
 -1      2705 2.26500E+01 3.96080E+01 0.00000E+00
 -1      2706 2.64000E+01 4.09070E+01 0.00000E+00
 -1      2707 2.79000E+01 4.09070E+01 0.00000E+00
 -1      2708 2.56500E+01 3.96080E+01 0.00000E+00
 -1      2709 2.94000E+01 4.09070E+01 0.00000E+00
 -1      2710 3.09000E+01 4.09070E+01 0.00000E+00
 -1      2711 2.86500E+01 3.96080E+01 0.00000E+00
 -1      2712 3.24000E+01 4.09070E+01 0.00000E+00
 -1      2713 3.39000E+01 4.09070E+01 0.00000E+00
 -1      2714 3.16500E+01 3.96080E+01 0.00000E+00
 -1      2715 3.54000E+01 4.09070E+01 0.00000E+00
 -1      2716 3.69000E+01 4.09070E+01 0.00000E+00
 -1      2717 3.46500E+01 3.96080E+01 0.00000E+00
 -1      2718 3.84000E+01 4.09070E+01 0.00000E+00
 -1      2719 3.99000E+01 4.09070E+01 0.00000E+00
 -1      2720 3.76500E+01 3.96080E+01 0.00000E+00
 -1      2721 4.14000E+01 4.09070E+01 0.00000E+00
 -1      2722 4.29000E+01 4.09070E+01 0.00000E+00
 -1      2723 4.06500E+01 3.96080E+01 0.00000E+00
 -1      2724 4.44000E+01 4.09070E+01 0.00000E+00
 -1      2725 4.59000E+01 4.09070E+01 0.00000E+00
 -1      2726 4.36500E+01 3.96080E+01 0.00000E+00
 -1      2727 4.74000E+01 4.09070E+01 0.00000E+00
 -1      2728 4.89000E+01 4.09070E+01 0.00000E+00
 -1      2729 4.66500E+01 3.96080E+01 0.00000E+00
 -1      2730 5.04000E+01 4.09070E+01 0.00000E+00
 -1      2731 5.19000E+01 4.09070E+01 0.00000E+00
 -1      2732 4.96500E+01 3.96080E+01 0.00000E+00
 -1      2733 5.34000E+01 4.09070E+01 0.00000E+00
 -1      2734 5.49000E+01 4.09070E+01 0.00000E+00
 -1      2735 5.26500E+01 3.96080E+01 0.00000E+00
 -1      2736 5.64000E+01 4.09070E+01 0.00000E+00
 -1      2737 5.79000E+01 4.09070E+01 0.00000E+00
 -1      2738 5.56500E+01 3.96080E+01 0.00000E+00
 -1      2739 5.94000E+01 4.09070E+01 0.00000E+00
 -1      2740 6.09000E+01 4.09070E+01 0.00000E+00
 -1      2741 5.86500E+01 3.96080E+01 0.00000E+00
 -1      2742 6.24000E+01 4.09070E+01 0.00000E+00
 -1      2743 6.39000E+01 4.09070E+01 0.00000E+00
 -1      2744 6.16500E+01 3.96080E+01 0.00000E+00
 -1      2745 6.54000E+01 4.09070E+01 0.00000E+00
 -1      2746 6.69000E+01 4.09070E+01 0.00000E+00
 -1      2747 6.46500E+01 3.96080E+01 0.00000E+00
 -1      2748 6.84000E+01 4.09070E+01 0.00000E+00
 -1      2749 6.99000E+01 4.09070E+01 0.00000E+00
 -1      2750 6.76500E+01 3.96080E+01 0.00000E+00
 -1      2751 7.14000E+01 4.09070E+01 0.00000E+00
 -1      2752 7.29000E+01 4.09070E+01 0.00000E+00
 -1      2753 7.06500E+01 3.96080E+01 0.00000E+00
 -1      2754 7.44000E+01 4.09070E+01 0.00000E+00
 -1      2755 7.59000E+01 4.09070E+01 0.00000E+00
 -1      2756 7.36500E+01 3.96080E+01 0.00000E+00
 -1      2757 7.74000E+01 4.09070E+01 0.00000E+00
 -1      2758 7.89000E+01 4.09070E+01 0.00000E+00
 -1      2759 7.66500E+01 3.96080E+01 0.00000E+00
 -1      2760 8.65603E+01 4.04587E+01 0.00000E+00
 -1      2761 8.80603E+01 4.04587E+01 0.00000E+00
 -1      2762 9.24000E+01 4.10133E+01 0.00000E+00
 -1      2763 9.39000E+01 4.10133E+01 0.00000E+00
 -1      2764 9.54000E+01 4.10133E+01 0.00000E+00
 -1      2765 9.69000E+01 4.10133E+01 0.00000E+00
 -1      2766 9.46500E+01 3.98206E+01 0.00000E+00
 -1      2767 9.84000E+01 4.10133E+01 0.00000E+00
 -1      2768 9.99000E+01 4.10133E+01 0.00000E+00
 -1      2769 9.76500E+01 3.98206E+01 0.00000E+00
 -1      2770 1.01400E+02 4.10133E+01 0.00000E+00
 -1      2771 1.02900E+02 4.10133E+01 0.00000E+00
 -1      2772 1.00650E+02 3.98206E+01 0.00000E+00
 -1      2773 1.04400E+02 4.10133E+01 0.00000E+00
 -1      2774 1.05900E+02 4.10133E+01 0.00000E+00
 -1      2775 1.03650E+02 3.98206E+01 0.00000E+00
 -1      2776 1.07400E+02 4.10133E+01 0.00000E+00
 -1      2777 1.08900E+02 4.10133E+01 0.00000E+00
 -1      2778 1.06650E+02 3.98206E+01 0.00000E+00
 -1      2779 1.10400E+02 4.10133E+01 0.00000E+00
 -1      2780 1.11900E+02 4.10133E+01 0.00000E+00
 -1      2781 1.09650E+02 3.98206E+01 0.00000E+00
 -1      2782 1.13400E+02 4.10133E+01 0.00000E+00
 -1      2783 1.14900E+02 4.10133E+01 0.00000E+00
 -1      2784 1.12650E+02 3.98206E+01 0.00000E+00
 -1      2785 1.16400E+02 4.10133E+01 0.00000E+00
 -1      2786 1.17900E+02 4.10133E+01 0.00000E+00
 -1      2787 1.15650E+02 3.98206E+01 0.00000E+00
 -1      2788 1.19400E+02 4.10133E+01 0.00000E+00
 -1      2789 1.20900E+02 4.10133E+01 0.00000E+00
 -1      2790 1.18650E+02 3.98206E+01 0.00000E+00
 -1      2791 1.22400E+02 4.10133E+01 0.00000E+00
 -1      2792 1.23900E+02 4.10133E+01 0.00000E+00
 -1      2793 1.21650E+02 3.98206E+01 0.00000E+00
 -1      2794 1.25400E+02 4.10133E+01 0.00000E+00
 -1      2795 1.26900E+02 4.10133E+01 0.00000E+00
 -1      2796 1.24650E+02 3.98206E+01 0.00000E+00
 -1      2797 1.28400E+02 4.10133E+01 0.00000E+00
 -1      2798 1.29900E+02 4.10133E+01 0.00000E+00
 -1      2799 1.27650E+02 3.98206E+01 0.00000E+00
 -1      2800 1.31400E+02 4.10133E+01 0.00000E+00
 -1      2801 1.32900E+02 4.10133E+01 0.00000E+00
 -1      2802 1.30650E+02 3.98206E+01 0.00000E+00
 -1      2803 1.34400E+02 4.10133E+01 0.00000E+00
 -1      2804 1.35900E+02 4.10133E+01 0.00000E+00
 -1      2805 1.33650E+02 3.98206E+01 0.00000E+00
 -1      2806 1.37400E+02 4.10133E+01 0.00000E+00
 -1      2807 1.38900E+02 4.10133E+01 0.00000E+00
 -1      2808 1.36650E+02 3.98206E+01 0.00000E+00
 -1      2809 9.15612E+01 3.90115E+01 0.00000E+00
 -1      2810 9.04451E+01 3.94199E+01 0.00000E+00
 -1      2811 2.12850E+01 7.90325E+00 0.00000E+00
 -1      2812 1.97850E+01 7.90325E+00 0.00000E+00
 -1      2813 3.02850E+01 7.90325E+00 0.00000E+00
 -1      2814 2.87850E+01 7.90325E+00 0.00000E+00
 -1      2815 3.32850E+01 7.90325E+00 0.00000E+00
 -1      2816 3.17850E+01 7.90325E+00 0.00000E+00
 -1      2817 3.10350E+01 9.20225E+00 0.00000E+00
 -1      2818 3.62850E+01 7.90325E+00 0.00000E+00
 -1      2819 3.47850E+01 7.90325E+00 0.00000E+00
 -1      2820 3.40350E+01 9.20225E+00 0.00000E+00
 -1      2821 3.92850E+01 7.90325E+00 0.00000E+00
 -1      2822 3.77850E+01 7.90325E+00 0.00000E+00
 -1      2823 3.70350E+01 9.20225E+00 0.00000E+00
 -1      2824 4.22850E+01 7.90325E+00 0.00000E+00
 -1      2825 4.07850E+01 7.90325E+00 0.00000E+00
 -1      2826 4.00350E+01 9.20225E+00 0.00000E+00
 -1      2827 4.52850E+01 7.90325E+00 0.00000E+00
 -1      2828 4.37850E+01 7.90325E+00 0.00000E+00
 -1      2829 4.30350E+01 9.20225E+00 0.00000E+00
 -1      2830 4.82850E+01 7.90325E+00 0.00000E+00
 -1      2831 4.67850E+01 7.90325E+00 0.00000E+00
 -1      2832 4.60350E+01 9.20225E+00 0.00000E+00
 -1      2833 5.12850E+01 7.90325E+00 0.00000E+00
 -1      2834 4.97850E+01 7.90325E+00 0.00000E+00
 -1      2835 4.90350E+01 9.20225E+00 0.00000E+00
 -1      2836 5.42850E+01 7.90325E+00 0.00000E+00
 -1      2837 5.27850E+01 7.90325E+00 0.00000E+00
 -1      2838 5.20350E+01 9.20225E+00 0.00000E+00
 -1      2839 5.72850E+01 7.90325E+00 0.00000E+00
 -1      2840 5.57850E+01 7.90325E+00 0.00000E+00
 -1      2841 5.50350E+01 9.20225E+00 0.00000E+00
 -1      2842 6.02850E+01 7.90325E+00 0.00000E+00
 -1      2843 5.87850E+01 7.90325E+00 0.00000E+00
 -1      2844 5.80350E+01 9.20225E+00 0.00000E+00
 -1      2845 6.32850E+01 7.90325E+00 0.00000E+00
 -1      2846 6.17850E+01 7.90325E+00 0.00000E+00
 -1      2847 6.10350E+01 9.20225E+00 0.00000E+00
 -1      2848 6.62850E+01 7.90325E+00 0.00000E+00
 -1      2849 6.47850E+01 7.90325E+00 0.00000E+00
 -1      2850 6.40350E+01 9.20225E+00 0.00000E+00
 -1      2851 6.92850E+01 7.90325E+00 0.00000E+00
 -1      2852 6.77850E+01 7.90325E+00 0.00000E+00
 -1      2853 6.70350E+01 9.20225E+00 0.00000E+00
 -1      2854 7.22850E+01 7.90325E+00 0.00000E+00
 -1      2855 7.07850E+01 7.90325E+00 0.00000E+00
 -1      2856 7.00350E+01 9.20225E+00 0.00000E+00
 -1      2857 7.52850E+01 7.90325E+00 0.00000E+00
 -1      2858 7.37850E+01 7.90325E+00 0.00000E+00
 -1      2859 7.30350E+01 9.20225E+00 0.00000E+00
 -1      2860 7.82850E+01 7.90325E+00 0.00000E+00
 -1      2861 7.67850E+01 7.90325E+00 0.00000E+00
 -1      2862 7.60350E+01 9.20225E+00 0.00000E+00
 -1      2863 8.12850E+01 7.90325E+00 0.00000E+00
 -1      2864 7.97850E+01 7.90325E+00 0.00000E+00
 -1      2865 7.90350E+01 9.20225E+00 0.00000E+00
 -1      2866 8.42850E+01 7.90325E+00 0.00000E+00
 -1      2867 8.27850E+01 7.90325E+00 0.00000E+00
 -1      2868 8.20350E+01 9.20225E+00 0.00000E+00
 -1      2869 8.72850E+01 7.90325E+00 0.00000E+00
 -1      2870 8.57850E+01 7.90325E+00 0.00000E+00
 -1      2871 8.50350E+01 9.20225E+00 0.00000E+00
 -1      2872 9.02850E+01 7.90325E+00 0.00000E+00
 -1      2873 8.87850E+01 7.90325E+00 0.00000E+00
 -1      2874 8.80350E+01 9.20225E+00 0.00000E+00
 -1      2875 9.32850E+01 7.90325E+00 0.00000E+00
 -1      2876 9.17850E+01 7.90325E+00 0.00000E+00
 -1      2877 9.10350E+01 9.20225E+00 0.00000E+00
 -1      2878 9.62850E+01 7.90325E+00 0.00000E+00
 -1      2879 9.47850E+01 7.90325E+00 0.00000E+00
 -1      2880 9.40350E+01 9.20225E+00 0.00000E+00
 -1      2881 9.92850E+01 7.90325E+00 0.00000E+00
 -1      2882 9.77850E+01 7.90325E+00 0.00000E+00
 -1      2883 9.70350E+01 9.20225E+00 0.00000E+00
 -1      2884 1.02285E+02 7.90325E+00 0.00000E+00
 -1      2885 1.00785E+02 7.90325E+00 0.00000E+00
 -1      2886 1.00035E+02 9.20225E+00 0.00000E+00
 -1      2887 1.05285E+02 7.90325E+00 0.00000E+00
 -1      2888 1.03785E+02 7.90325E+00 0.00000E+00
 -1      2889 1.03035E+02 9.20225E+00 0.00000E+00
 -1      2890 1.08285E+02 7.90325E+00 0.00000E+00
 -1      2891 1.06785E+02 7.90325E+00 0.00000E+00
 -1      2892 1.06035E+02 9.20225E+00 0.00000E+00
 -1      2893 1.11285E+02 7.90325E+00 0.00000E+00
 -1      2894 1.09785E+02 7.90325E+00 0.00000E+00
 -1      2895 1.09035E+02 9.20225E+00 0.00000E+00
 -1      2896 1.14285E+02 7.90325E+00 0.00000E+00
 -1      2897 1.12785E+02 7.90325E+00 0.00000E+00
 -1      2898 1.12035E+02 9.20225E+00 0.00000E+00
 -1      2899 1.17285E+02 7.90325E+00 0.00000E+00
 -1      2900 1.15785E+02 7.90325E+00 0.00000E+00
 -1      2901 1.15035E+02 9.20225E+00 0.00000E+00
 -1      2902 1.20285E+02 7.90325E+00 0.00000E+00
 -1      2903 1.18785E+02 7.90325E+00 0.00000E+00
 -1      2904 1.18035E+02 9.20225E+00 0.00000E+00
 -1      2905 1.23285E+02 7.90325E+00 0.00000E+00
 -1      2906 1.21785E+02 7.90325E+00 0.00000E+00
 -1      2907 1.21035E+02 9.20225E+00 0.00000E+00
 -1      2908 1.26285E+02 7.90325E+00 0.00000E+00
 -1      2909 1.24785E+02 7.90325E+00 0.00000E+00
 -1      2910 1.24035E+02 9.20225E+00 0.00000E+00
 -1      2911 1.29285E+02 7.90325E+00 0.00000E+00
 -1      2912 1.27785E+02 7.90325E+00 0.00000E+00
 -1      2913 1.27035E+02 9.20225E+00 0.00000E+00
 -1      2914 1.32285E+02 7.90325E+00 0.00000E+00
 -1      2915 1.30785E+02 7.90325E+00 0.00000E+00
 -1      2916 1.30035E+02 9.20225E+00 0.00000E+00
 -1      2917 1.35285E+02 7.90325E+00 0.00000E+00
 -1      2918 1.33785E+02 7.90325E+00 0.00000E+00
 -1      2919 1.33035E+02 9.20225E+00 0.00000E+00
 -1      2920 1.38285E+02 7.90325E+00 0.00000E+00
 -1      2921 1.36785E+02 7.90325E+00 0.00000E+00
 -1      2922 1.36035E+02 9.20225E+00 0.00000E+00
 -1      2923 1.40953E+02 8.18394E+00 0.00000E+00
 -1      2924 1.39453E+02 8.18394E+00 0.00000E+00
 -1      2925 1.38703E+02 9.48294E+00 0.00000E+00
 -1      2926 1.41038E+02 1.00443E+01 0.00000E+00
 -1      2927 1.40907E+02 2.42875E+01 0.00000E+00
 -1      2928 1.40907E+02 2.28125E+01 0.00000E+00
 -1      2929 1.39914E+02 4.09894E+01 0.00000E+00
 -1      2930 1.40928E+02 4.10187E+01 0.00000E+00
 -1      2931 1.41192E+02 3.97489E+01 0.00000E+00
 -1      2932 1.39164E+02 3.97967E+01 0.00000E+00
 -1      2933 1.40907E+02 1.83875E+01 0.00000E+00
 -1      2934 1.40907E+02 1.69125E+01 0.00000E+00
 -1      2935 1.40907E+02 2.72375E+01 0.00000E+00
 -1      2936 1.40907E+02 2.57625E+01 0.00000E+00
 -1      2937 1.39608E+02 2.50250E+01 0.00000E+00
 -1      2938 1.40907E+02 2.13375E+01 0.00000E+00
 -1      2939 1.40907E+02 1.98625E+01 0.00000E+00
 -1      2940 1.39608E+02 1.91250E+01 0.00000E+00
 -1      2941 1.39608E+02 2.20750E+01 0.00000E+00
 -1      2942 9.77189E+01 2.23929E+01 0.00000E+00
 -1      2943 9.84080E+01 2.33969E+01 0.00000E+00
 -1      2944 9.81005E+01 2.14600E+01 0.00000E+00
 -1      2945 1.40907E+02 3.01375E+01 0.00000E+00
 -1      2946 1.40907E+02 2.86875E+01 0.00000E+00
 -1      2947 1.39608E+02 2.79500E+01 0.00000E+00
 -1      2948 1.40907E+02 3.30875E+01 0.00000E+00
 -1      2949 1.40907E+02 3.16125E+01 0.00000E+00
 -1      2950 1.39608E+02 3.08750E+01 0.00000E+00
 -1      2951 1.40907E+02 3.60375E+01 0.00000E+00
 -1      2952 1.40907E+02 3.45625E+01 0.00000E+00
 -1      2953 1.39608E+02 3.38250E+01 0.00000E+00
 -1      2954 1.41049E+02 3.86307E+01 0.00000E+00
 -1      2955 1.41049E+02 3.71557E+01 0.00000E+00
 -1      2956 1.39751E+02 3.64182E+01 0.00000E+00
 -1      2957 1.40036E+02 3.86546E+01 0.00000E+00
 -1      2958 1.82850E+01 7.90325E+00 0.00000E+00
 -1      2959 1.67850E+01 7.90325E+00 0.00000E+00
 -1      2960 1.60350E+01 9.20225E+00 0.00000E+00
 -1      2961 1.90350E+01 9.20225E+00 0.00000E+00
 -1      2962 8.85168E+00 4.05347E+01 0.00000E+00
 -1      2963 1.02152E+01 4.07987E+01 0.00000E+00
 -1      2964 7.63092E+01 3.40084E+01 0.00000E+00
 -1      2965 7.58733E+01 3.29557E+01 0.00000E+00
 -1      2966 7.55191E+01 3.17328E+01 0.00000E+00
 -1      2967 7.51649E+01 3.05099E+01 0.00000E+00
 -1      2968 7.48674E+01 3.26194E+01 0.00000E+00
 -1      2969 8.25059E+01 1.65355E+01 0.00000E+00
 -1      2970 8.36756E+01 1.61589E+01 0.00000E+00
 -1      2971 8.00793E+01 3.78476E+01 0.00000E+00
 -1      2972 7.92013E+01 3.69416E+01 0.00000E+00
 -1      2973 2.72850E+01 7.90325E+00 0.00000E+00
 -1      2974 2.57850E+01 7.90325E+00 0.00000E+00
 -1      2975 2.80350E+01 9.20225E+00 0.00000E+00
 -1      2976 2.42850E+01 7.90325E+00 0.00000E+00
 -1      2977 2.27850E+01 7.90325E+00 0.00000E+00
 -1      2978 2.50350E+01 9.20225E+00 0.00000E+00
 -1      2979 1.15576E+01 4.08528E+01 0.00000E+00
 -1      2980 1.30576E+01 4.08528E+01 0.00000E+00
 -1      2981 1.38076E+01 3.95538E+01 0.00000E+00
 -1      2982 1.11228E+01 3.94455E+01 0.00000E+00
 -1      2983 7.48945E+01 2.69071E+01 0.00000E+00
 -1      2984 7.50340E+01 2.55293E+01 0.00000E+00
 -1      2985 9.03619E+01 1.64153E+01 0.00000E+00
 -1      2986 9.15512E+01 1.67725E+01 0.00000E+00
 -1      2987 9.09300E+00 1.68813E+01 0.00000E+00
 -1      2988 9.09300E+00 1.83563E+01 0.00000E+00
 -1      2989 1.03920E+01 1.90812E+01 0.00000E+00
 -1      2990 1.03920E+01 1.61437E+01 0.00000E+00
 -1      2991 9.09300E+00 3.15875E+01 0.00000E+00
 -1      2992 9.09300E+00 3.30625E+01 0.00000E+00
 -1      2993 7.65792E+01 2.15737E+01 0.00000E+00
 -1      2994 7.72430E+01 2.05419E+01 0.00000E+00
 -1      2995 7.48818E+00 3.88019E+01 0.00000E+00
 -1      2996 7.80987E+01 1.94234E+01 0.00000E+00
 -1      2997 7.89470E+01 1.84794E+01 0.00000E+00
 -1      2998 9.90427E+01 2.73738E+01 0.00000E+00
 -1      2999 9.89088E+01 2.85387E+01 0.00000E+00
 -1      3000 7.55100E+01 2.38647E+01 0.00000E+00
 -1      3001 7.60446E+01 2.27192E+01 0.00000E+00
 -1      3002 7.55143E+01 2.16487E+01 0.00000E+00
 -1      3003 7.47781E+01 2.91696E+01 0.00000E+00
 -1      3004 7.47504E+01 2.82033E+01 0.00000E+00
 -1      3005 8.01819E+01 1.75138E+01 0.00000E+00
 -1      3006 8.12198E+01 1.69774E+01 0.00000E+00
 -1      3007 9.90298E+01 2.48141E+01 0.00000E+00
 -1      3008 9.91662E+01 2.59983E+01 0.00000E+00
 -1      3009 8.23155E+01 3.90332E+01 0.00000E+00
 -1      3010 8.13615E+01 3.87007E+01 0.00000E+00
 -1      3011 9.71501E+01 3.42076E+01 0.00000E+00
 -1      3012 9.65302E+01 3.51931E+01 0.00000E+00
 -1      3013 8.45823E+01 3.95180E+01 0.00000E+00
 -1      3014 8.34489E+01 3.92756E+01 0.00000E+00
 -1      3015 8.26621E+01 3.99982E+01 0.00000E+00
 -1      3016 9.55998E+01 3.62657E+01 0.00000E+00
 -1      3017 9.46988E+01 3.70328E+01 0.00000E+00
 -1      3018 9.28011E+01 1.74088E+01 0.00000E+00
 -1      3019 9.36680E+01 1.80171E+01 0.00000E+00
 -1      3020 8.80390E+01 1.57734E+01 0.00000E+00
 -1      3021 8.91385E+01 1.59556E+01 0.00000E+00
 -1      3022 8.90924E+01 4.04337E+01 0.00000E+00
 -1      3023 9.09300E+00 3.45313E+01 0.00000E+00
 -1      3024 9.09300E+00 3.60000E+01 0.00000E+00
 -1      3025 1.03920E+01 3.37938E+01 0.00000E+00
 -1      3026 1.03920E+01 2.49750E+01 0.00000E+00
 -1      3027 9.09300E+00 2.57000E+01 0.00000E+00
 -1      3028 9.09300E+00 2.71750E+01 0.00000E+00
 -1      3029 9.65436E+01 1.94952E+01 0.00000E+00
 -1      3030 9.66450E+00 9.72612E+00 0.00000E+00
 -1      3031 9.88270E+01 3.18961E+01 0.00000E+00
 -1      3032 9.46894E+01 1.77898E+01 0.00000E+00
 -1      3033 9.93765E+01 2.93439E+01 0.00000E+00
 -1      3034 7.98393E+01 3.96819E+01 0.00000E+00
 -1      3035 8.05893E+01 4.09809E+01 0.00000E+00
 -1      3036 8.55096E+01 4.05007E+01 0.00000E+00
 -1      3037 8.20893E+01 4.09809E+01 0.00000E+00
 -1      3038 8.32227E+01 4.12233E+01 0.00000E+00
 -1      3039 8.47227E+01 4.12233E+01 0.00000E+00
 -1      3040 1.39608E+02 1.61875E+01 0.00000E+00
 -1      3041 1.40907E+02 1.54500E+01 0.00000E+00
 -1      3042 1.40907E+02 1.39875E+01 0.00000E+00
 -1      3043 7.34974E+01 2.50528E+01 0.00000E+00
 -1      3044 7.45037E+01 2.44588E+01 0.00000E+00
 -1      3045 7.39734E+01 2.33883E+01 0.00000E+00
 -1      3046 9.36720E+01 3.78544E+01 0.00000E+00
 -1      3047 9.27092E+01 3.83950E+01 0.00000E+00
 -1      3048 2.20350E+01 9.20225E+00 0.00000E+00
 -1      3049 1.40973E+02 1.27472E+01 0.00000E+00
 -1      3050 1.40973E+02 1.12847E+01 0.00000E+00
 -1      3051 1.39805E+02 1.10040E+01 0.00000E+00
 -1      3052 1.39674E+02 1.34847E+01 0.00000E+00
 -1      3053 8.02465E+01 3.89028E+01 0.00000E+00
 -1      3054 9.24531E+01 1.64089E+01 0.00000E+00
 -1      3055 7.63654E+01 3.48649E+01 0.00000E+00
 -1      3056 7.52777E+01 3.46987E+01 0.00000E+00
 -1      3057 7.64216E+01 3.57214E+01 0.00000E+00
 -1      3058 9.81265E+01 3.41554E+01 0.00000E+00
 -1      3059 9.46784E+01 3.81239E+01 0.00000E+00
 -1      3060 9.94114E+01 2.38812E+01 0.00000E+00
 -1      3061 1.00415E+02 2.43656E+01 0.00000E+00
 -1      3062 9.97930E+01 2.29483E+01 0.00000E+00
 -1      3063 7.89953E+01 1.73005E+01 0.00000E+00
 -1      3064 9.99096E+01 2.66739E+01 0.00000E+00
 -1      3065 8.33983E+01 1.47370E+01 0.00000E+00
 -1      3066 8.42716E+01 1.54448E+01 0.00000E+00
 -1      3067 8.48675E+01 1.47307E+01 0.00000E+00
 -1      3068 7.41264E+01 3.00561E+01 0.00000E+00
 -1      3069 8.15163E+01 1.58930E+01 0.00000E+00
 -1      3070 7.82368E+01 3.69686E+01 0.00000E+00
 -1      3071 8.78718E+00 3.80644E+01 0.00000E+00
 -1      3072 9.15027E+01 4.11922E+01 0.00000E+00
 -1      3073 9.22527E+01 3.99995E+01 0.00000E+00
 -1      3074 9.09300E+00 2.86437E+01 0.00000E+00
 -1      3075 9.09300E+00 3.01187E+01 0.00000E+00
 -1      3076 1.03920E+01 3.08563E+01 0.00000E+00
 -1      3077 1.03920E+01 2.79188E+01 0.00000E+00
 -1      3078 8.99798E+01 1.53129E+01 0.00000E+00
 -1      3079 7.38836E+01 2.74196E+01 0.00000E+00
 -1      3080 7.69047E+01 1.93847E+01 0.00000E+00
 -1      3081 9.66356E+01 3.62296E+01 0.00000E+00
 -1      3082 1.09635E+01 1.04636E+01 0.00000E+00
 -1      3083 9.00027E+01 4.11922E+01 0.00000E+00
 -1      3084 9.97076E+01 3.13575E+01 0.00000E+00
 -1      3085 9.95676E+01 3.26152E+01 0.00000E+00
 -1      3086 1.16910E+01 1.24625E+01 0.00000E+00
 -1      3087 1.16910E+01 1.39375E+01 0.00000E+00
 -1      3088 1.38309E+02 2.86750E+01 0.00000E+00
 -1      3089 1.38309E+02 2.72250E+01 0.00000E+00
 -1      3090 8.97582E+01 1.40450E+01 0.00000E+00
 -1      3091 9.09815E+01 1.45047E+01 0.00000E+00
 -1      3092 7.85571E+01 3.88289E+01 0.00000E+00
 -1      3093 1.89000E+01 3.83090E+01 0.00000E+00
 -1      3094 2.04000E+01 3.83090E+01 0.00000E+00
 -1      3095 2.19000E+01 3.83090E+01 0.00000E+00
 -1      3096 2.34000E+01 3.83090E+01 0.00000E+00
 -1      3097 2.11500E+01 3.70100E+01 0.00000E+00
 -1      3098 2.49000E+01 3.83090E+01 0.00000E+00
 -1      3099 2.64000E+01 3.83090E+01 0.00000E+00
 -1      3100 2.41500E+01 3.70100E+01 0.00000E+00
 -1      3101 2.79000E+01 3.83090E+01 0.00000E+00
 -1      3102 2.94000E+01 3.83090E+01 0.00000E+00
 -1      3103 2.71500E+01 3.70100E+01 0.00000E+00
 -1      3104 3.09000E+01 3.83090E+01 0.00000E+00
 -1      3105 3.24000E+01 3.83090E+01 0.00000E+00
 -1      3106 3.01500E+01 3.70100E+01 0.00000E+00
 -1      3107 3.39000E+01 3.83090E+01 0.00000E+00
 -1      3108 3.54000E+01 3.83090E+01 0.00000E+00
 -1      3109 3.31500E+01 3.70100E+01 0.00000E+00
 -1      3110 3.69000E+01 3.83090E+01 0.00000E+00
 -1      3111 3.84000E+01 3.83090E+01 0.00000E+00
 -1      3112 3.61500E+01 3.70100E+01 0.00000E+00
 -1      3113 3.99000E+01 3.83090E+01 0.00000E+00
 -1      3114 4.14000E+01 3.83090E+01 0.00000E+00
 -1      3115 3.91500E+01 3.70100E+01 0.00000E+00
 -1      3116 4.29000E+01 3.83090E+01 0.00000E+00
 -1      3117 4.44000E+01 3.83090E+01 0.00000E+00
 -1      3118 4.21500E+01 3.70100E+01 0.00000E+00
 -1      3119 4.59000E+01 3.83090E+01 0.00000E+00
 -1      3120 4.74000E+01 3.83090E+01 0.00000E+00
 -1      3121 4.51500E+01 3.70100E+01 0.00000E+00
 -1      3122 4.89000E+01 3.83090E+01 0.00000E+00
 -1      3123 5.04000E+01 3.83090E+01 0.00000E+00
 -1      3124 4.81500E+01 3.70100E+01 0.00000E+00
 -1      3125 5.19000E+01 3.83090E+01 0.00000E+00
 -1      3126 5.34000E+01 3.83090E+01 0.00000E+00
 -1      3127 5.11500E+01 3.70100E+01 0.00000E+00
 -1      3128 5.49000E+01 3.83090E+01 0.00000E+00
 -1      3129 5.64000E+01 3.83090E+01 0.00000E+00
 -1      3130 5.41500E+01 3.70100E+01 0.00000E+00
 -1      3131 5.79000E+01 3.83090E+01 0.00000E+00
 -1      3132 5.94000E+01 3.83090E+01 0.00000E+00
 -1      3133 5.71500E+01 3.70100E+01 0.00000E+00
 -1      3134 6.09000E+01 3.83090E+01 0.00000E+00
 -1      3135 6.24000E+01 3.83090E+01 0.00000E+00
 -1      3136 6.01500E+01 3.70100E+01 0.00000E+00
 -1      3137 6.39000E+01 3.83090E+01 0.00000E+00
 -1      3138 6.54000E+01 3.83090E+01 0.00000E+00
 -1      3139 6.31500E+01 3.70100E+01 0.00000E+00
 -1      3140 6.69000E+01 3.83090E+01 0.00000E+00
 -1      3141 6.84000E+01 3.83090E+01 0.00000E+00
 -1      3142 6.61500E+01 3.70100E+01 0.00000E+00
 -1      3143 6.99000E+01 3.83090E+01 0.00000E+00
 -1      3144 7.14000E+01 3.83090E+01 0.00000E+00
 -1      3145 6.91500E+01 3.70100E+01 0.00000E+00
 -1      3146 7.37420E+01 3.75816E+01 0.00000E+00
 -1      3147 7.52420E+01 3.75816E+01 0.00000E+00
 -1      3148 7.67420E+01 3.75816E+01 0.00000E+00
 -1      3149 7.27927E+01 2.79544E+01 0.00000E+00
 -1      3150 7.29368E+01 2.66582E+01 0.00000E+00
 -1      3151 9.99000E+01 3.85441E+01 0.00000E+00
 -1      3152 1.01400E+02 3.85441E+01 0.00000E+00
 -1      3153 1.02900E+02 3.85441E+01 0.00000E+00
 -1      3154 1.04400E+02 3.85441E+01 0.00000E+00
 -1      3155 1.02150E+02 3.72676E+01 0.00000E+00
 -1      3156 1.05900E+02 3.85441E+01 0.00000E+00
 -1      3157 1.07400E+02 3.85441E+01 0.00000E+00
 -1      3158 1.05150E+02 3.72676E+01 0.00000E+00
 -1      3159 1.08900E+02 3.85441E+01 0.00000E+00
 -1      3160 1.10400E+02 3.85441E+01 0.00000E+00
 -1      3161 1.08150E+02 3.72676E+01 0.00000E+00
 -1      3162 1.11900E+02 3.85441E+01 0.00000E+00
 -1      3163 1.13400E+02 3.85441E+01 0.00000E+00
 -1      3164 1.11150E+02 3.72676E+01 0.00000E+00
 -1      3165 1.14900E+02 3.85441E+01 0.00000E+00
 -1      3166 1.16400E+02 3.85441E+01 0.00000E+00
 -1      3167 1.14150E+02 3.72676E+01 0.00000E+00
 -1      3168 1.17900E+02 3.85441E+01 0.00000E+00
 -1      3169 1.19400E+02 3.85441E+01 0.00000E+00
 -1      3170 1.17150E+02 3.72676E+01 0.00000E+00
 -1      3171 1.20900E+02 3.85441E+01 0.00000E+00
 -1      3172 1.22400E+02 3.85441E+01 0.00000E+00
 -1      3173 1.20150E+02 3.72676E+01 0.00000E+00
 -1      3174 1.23900E+02 3.85441E+01 0.00000E+00
 -1      3175 1.25400E+02 3.85441E+01 0.00000E+00
 -1      3176 1.23150E+02 3.72676E+01 0.00000E+00
 -1      3177 1.26900E+02 3.85441E+01 0.00000E+00
 -1      3178 1.28400E+02 3.85441E+01 0.00000E+00
 -1      3179 1.26150E+02 3.72676E+01 0.00000E+00
 -1      3180 1.29900E+02 3.85441E+01 0.00000E+00
 -1      3181 1.31400E+02 3.85441E+01 0.00000E+00
 -1      3182 1.29150E+02 3.72676E+01 0.00000E+00
 -1      3183 1.32900E+02 3.85441E+01 0.00000E+00
 -1      3184 1.34400E+02 3.85441E+01 0.00000E+00
 -1      3185 1.32150E+02 3.72676E+01 0.00000E+00
 -1      3186 1.35900E+02 3.85441E+01 0.00000E+00
 -1      3187 1.37400E+02 3.85441E+01 0.00000E+00
 -1      3188 1.35150E+02 3.72676E+01 0.00000E+00
 -1      3189 9.24585E+01 3.88326E+01 0.00000E+00
 -1      3190 2.27850E+01 1.05013E+01 0.00000E+00
 -1      3191 2.12850E+01 1.05013E+01 0.00000E+00
 -1      3192 3.17850E+01 1.05013E+01 0.00000E+00
 -1      3193 3.02850E+01 1.05013E+01 0.00000E+00
 -1      3194 4.07850E+01 1.05013E+01 0.00000E+00
 -1      3195 3.92850E+01 1.05013E+01 0.00000E+00
 -1      3196 4.37850E+01 1.05013E+01 0.00000E+00
 -1      3197 4.22850E+01 1.05013E+01 0.00000E+00
 -1      3198 4.15350E+01 1.18003E+01 0.00000E+00
 -1      3199 4.67850E+01 1.05013E+01 0.00000E+00
 -1      3200 4.52850E+01 1.05013E+01 0.00000E+00
 -1      3201 4.45350E+01 1.18003E+01 0.00000E+00
 -1      3202 4.97850E+01 1.05013E+01 0.00000E+00
 -1      3203 4.82850E+01 1.05013E+01 0.00000E+00
 -1      3204 4.75350E+01 1.18003E+01 0.00000E+00
 -1      3205 5.27850E+01 1.05013E+01 0.00000E+00
 -1      3206 5.12850E+01 1.05013E+01 0.00000E+00
 -1      3207 5.05350E+01 1.18003E+01 0.00000E+00
 -1      3208 5.57850E+01 1.05013E+01 0.00000E+00
 -1      3209 5.42850E+01 1.05013E+01 0.00000E+00
 -1      3210 5.35350E+01 1.18003E+01 0.00000E+00
 -1      3211 5.87850E+01 1.05013E+01 0.00000E+00
 -1      3212 5.72850E+01 1.05013E+01 0.00000E+00
 -1      3213 5.65350E+01 1.18003E+01 0.00000E+00
 -1      3214 6.17850E+01 1.05013E+01 0.00000E+00
 -1      3215 6.02850E+01 1.05013E+01 0.00000E+00
 -1      3216 5.95350E+01 1.18003E+01 0.00000E+00
 -1      3217 6.47850E+01 1.05013E+01 0.00000E+00
 -1      3218 6.32850E+01 1.05013E+01 0.00000E+00
 -1      3219 6.25350E+01 1.18003E+01 0.00000E+00
 -1      3220 6.77850E+01 1.05013E+01 0.00000E+00
 -1      3221 6.62850E+01 1.05013E+01 0.00000E+00
 -1      3222 6.55350E+01 1.18003E+01 0.00000E+00
 -1      3223 7.07850E+01 1.05013E+01 0.00000E+00
 -1      3224 6.92850E+01 1.05013E+01 0.00000E+00
 -1      3225 6.85350E+01 1.18003E+01 0.00000E+00
 -1      3226 7.37850E+01 1.05013E+01 0.00000E+00
 -1      3227 7.22850E+01 1.05013E+01 0.00000E+00
 -1      3228 7.15350E+01 1.18003E+01 0.00000E+00
 -1      3229 7.67850E+01 1.05013E+01 0.00000E+00
 -1      3230 7.52850E+01 1.05013E+01 0.00000E+00
 -1      3231 7.45350E+01 1.18003E+01 0.00000E+00
 -1      3232 7.97850E+01 1.05013E+01 0.00000E+00
 -1      3233 7.82850E+01 1.05013E+01 0.00000E+00
 -1      3234 7.75350E+01 1.18003E+01 0.00000E+00
 -1      3235 8.27850E+01 1.05013E+01 0.00000E+00
 -1      3236 8.12850E+01 1.05013E+01 0.00000E+00
 -1      3237 8.05350E+01 1.18003E+01 0.00000E+00
 -1      3238 8.87850E+01 1.03112E+01 0.00000E+00
 -1      3239 8.72850E+01 1.03112E+01 0.00000E+00
 -1      3240 9.16475E+01 1.12195E+01 0.00000E+00
 -1      3241 9.01475E+01 1.12195E+01 0.00000E+00
 -1      3242 9.77850E+01 1.05013E+01 0.00000E+00
 -1      3243 9.62850E+01 1.05013E+01 0.00000E+00
 -1      3244 1.00785E+02 1.05013E+01 0.00000E+00
 -1      3245 9.92850E+01 1.05013E+01 0.00000E+00
 -1      3246 9.85350E+01 1.18003E+01 0.00000E+00
 -1      3247 1.03785E+02 1.05013E+01 0.00000E+00
 -1      3248 1.02285E+02 1.05013E+01 0.00000E+00
 -1      3249 1.01535E+02 1.18003E+01 0.00000E+00
 -1      3250 1.06785E+02 1.05013E+01 0.00000E+00
 -1      3251 1.05285E+02 1.05013E+01 0.00000E+00
 -1      3252 1.04535E+02 1.18003E+01 0.00000E+00
 -1      3253 1.09785E+02 1.05013E+01 0.00000E+00
 -1      3254 1.08285E+02 1.05013E+01 0.00000E+00
 -1      3255 1.07535E+02 1.18003E+01 0.00000E+00
 -1      3256 1.12785E+02 1.05013E+01 0.00000E+00
 -1      3257 1.11285E+02 1.05013E+01 0.00000E+00
 -1      3258 1.10535E+02 1.18003E+01 0.00000E+00
 -1      3259 1.15785E+02 1.05013E+01 0.00000E+00
 -1      3260 1.14285E+02 1.05013E+01 0.00000E+00
 -1      3261 1.13535E+02 1.18003E+01 0.00000E+00
 -1      3262 1.18785E+02 1.05013E+01 0.00000E+00
 -1      3263 1.17285E+02 1.05013E+01 0.00000E+00
 -1      3264 1.16535E+02 1.18003E+01 0.00000E+00
 -1      3265 1.21785E+02 1.05013E+01 0.00000E+00
 -1      3266 1.20285E+02 1.05013E+01 0.00000E+00
 -1      3267 1.19535E+02 1.18003E+01 0.00000E+00
 -1      3268 1.24785E+02 1.05013E+01 0.00000E+00
 -1      3269 1.23285E+02 1.05013E+01 0.00000E+00
 -1      3270 1.22535E+02 1.18003E+01 0.00000E+00
 -1      3271 1.27785E+02 1.05013E+01 0.00000E+00
 -1      3272 1.26285E+02 1.05013E+01 0.00000E+00
 -1      3273 1.25535E+02 1.18003E+01 0.00000E+00
 -1      3274 1.30785E+02 1.05013E+01 0.00000E+00
 -1      3275 1.29285E+02 1.05013E+01 0.00000E+00
 -1      3276 1.28535E+02 1.18003E+01 0.00000E+00
 -1      3277 1.33785E+02 1.05013E+01 0.00000E+00
 -1      3278 1.32285E+02 1.05013E+01 0.00000E+00
 -1      3279 1.31535E+02 1.18003E+01 0.00000E+00
 -1      3280 1.36785E+02 1.05013E+01 0.00000E+00
 -1      3281 1.35285E+02 1.05013E+01 0.00000E+00
 -1      3282 1.34535E+02 1.18003E+01 0.00000E+00
 -1      3283 1.38879E+02 1.08930E+01 0.00000E+00
 -1      3284 1.37711E+02 1.06123E+01 0.00000E+00
 -1      3285 1.36961E+02 1.19113E+01 0.00000E+00
 -1      3286 1.38813E+02 1.21333E+01 0.00000E+00
 -1      3287 1.39021E+02 3.86785E+01 0.00000E+00
 -1      3288 1.16910E+01 2.12875E+01 0.00000E+00
 -1      3289 1.16910E+01 2.27625E+01 0.00000E+00
 -1      3290 1.38309E+02 3.16250E+01 0.00000E+00
 -1      3291 1.38309E+02 3.01500E+01 0.00000E+00
 -1      3292 1.37010E+02 2.94250E+01 0.00000E+00
 -1      3293 1.38309E+02 2.57500E+01 0.00000E+00
 -1      3294 1.38309E+02 2.42750E+01 0.00000E+00
 -1      3295 1.37010E+02 2.64750E+01 0.00000E+00
 -1      3296 1.38309E+02 3.45750E+01 0.00000E+00
 -1      3297 1.38309E+02 3.31000E+01 0.00000E+00
 -1      3298 1.37010E+02 3.23750E+01 0.00000E+00
 -1      3299 8.70040E+01 1.57062E+01 0.00000E+00
 -1      3300 8.77214E+01 1.47860E+01 0.00000E+00
 -1      3301 7.40598E+01 3.35160E+01 0.00000E+00
 -1      3302 7.37056E+01 3.22931E+01 0.00000E+00
 -1      3303 2.87850E+01 1.05013E+01 0.00000E+00
 -1      3304 2.72850E+01 1.05013E+01 0.00000E+00
 -1      3305 2.95350E+01 1.18003E+01 0.00000E+00
 -1      3306 3.77850E+01 1.05013E+01 0.00000E+00
 -1      3307 3.62850E+01 1.05013E+01 0.00000E+00
 -1      3308 3.85350E+01 1.18003E+01 0.00000E+00
 -1      3309 3.47850E+01 1.05013E+01 0.00000E+00
 -1      3310 3.32850E+01 1.05013E+01 0.00000E+00
 -1      3311 3.25350E+01 1.18003E+01 0.00000E+00
 -1      3312 3.55350E+01 1.18003E+01 0.00000E+00
 -1      3313 9.69326E+01 1.82715E+01 0.00000E+00
 -1      3314 9.78005E+01 1.92324E+01 0.00000E+00
 -1      3315 1.59000E+01 3.83090E+01 0.00000E+00
 -1      3316 1.74000E+01 3.83090E+01 0.00000E+00
 -1      3317 1.81500E+01 3.70100E+01 0.00000E+00
 -1      3318 2.57850E+01 1.05013E+01 0.00000E+00
 -1      3319 2.42850E+01 1.05013E+01 0.00000E+00
 -1      3320 2.65350E+01 1.18003E+01 0.00000E+00
 -1      3321 7.33188E+01 3.09527E+01 0.00000E+00
 -1      3322 7.29320E+01 2.96124E+01 0.00000E+00
 -1      3323 7.25112E+01 3.18493E+01 0.00000E+00
 -1      3324 8.62136E+01 1.50786E+01 0.00000E+00
 -1      3325 7.55961E+01 1.92702E+01 0.00000E+00
 -1      3326 7.64518E+01 1.81517E+01 0.00000E+00
 -1      3327 9.79385E+01 3.64199E+01 0.00000E+00
 -1      3328 9.70081E+01 3.74925E+01 0.00000E+00
 -1      3329 1.00862E+01 3.73269E+01 0.00000E+00
 -1      3330 7.42422E+01 2.17524E+01 0.00000E+00
 -1      3331 7.47768E+01 2.06070E+01 0.00000E+00
 -1      3332 8.05129E+01 1.50652E+01 0.00000E+00
 -1      3333 8.17990E+01 1.46234E+01 0.00000E+00
 -1      3334 9.92282E+01 3.41143E+01 0.00000E+00
 -1      3335 9.86677E+01 3.51158E+01 0.00000E+00
 -1      3336 1.00909E+02 2.60704E+01 0.00000E+00
 -1      3337 1.00785E+02 2.74459E+01 0.00000E+00
 -1      3338 9.22315E+01 1.51410E+01 0.00000E+00
 -1      3339 9.34814E+01 1.57774E+01 0.00000E+00
 -1      3340 9.20099E+01 1.38731E+01 0.00000E+00
 -1      3341 7.75915E+01 1.67778E+01 0.00000E+00
 -1      3342 7.88264E+01 1.58122E+01 0.00000E+00
 -1      3343 1.26488E+01 1.02017E+01 0.00000E+00
 -1      3344 1.20772E+01 1.14631E+01 0.00000E+00
 -1      3345 1.33763E+01 1.22006E+01 0.00000E+00
 -1      3346 1.41488E+01 1.02017E+01 0.00000E+00
 -1      3347 9.86703E+01 2.03305E+01 0.00000E+00
 -1      3348 9.93594E+01 2.13345E+01 0.00000E+00
 -1      3349 9.48643E+01 1.65325E+01 0.00000E+00
 -1      3350 9.58507E+01 1.72770E+01 0.00000E+00
 -1      3351 1.00399E+02 2.89553E+01 0.00000E+00
 -1      3352 9.99894E+01 3.02498E+01 0.00000E+00
 -1      3353 8.72595E+01 1.38966E+01 0.00000E+00
 -1      3354 8.82945E+01 1.39638E+01 0.00000E+00
 -1      3355 8.58271E+01 1.44936E+01 0.00000E+00
 -1      3356 8.62999E+01 1.41337E+01 0.00000E+00
 -1      3357 8.68729E+01 1.33116E+01 0.00000E+00
 -1      3358 8.49538E+01 1.37858E+01 0.00000E+00
 -1      3359 1.16910E+01 2.42375E+01 0.00000E+00
 -1      3360 1.16910E+01 2.57125E+01 0.00000E+00
 -1      3361 1.29900E+01 2.35000E+01 0.00000E+00
 -1      3362 1.29900E+01 1.46687E+01 0.00000E+00
 -1      3363 1.16910E+01 1.54063E+01 0.00000E+00
 -1      3364 1.16910E+01 1.68750E+01 0.00000E+00
 -1      3365 7.91091E+01 1.45425E+01 0.00000E+00
 -1      3366 1.00363E+02 2.18188E+01 0.00000E+00
 -1      3367 1.16910E+01 3.30594E+01 0.00000E+00
 -1      3368 1.16910E+01 3.45281E+01 0.00000E+00
 -1      3369 2.35350E+01 1.18003E+01 0.00000E+00
 -1      3370 7.29920E+01 3.62826E+01 0.00000E+00
 -1      3371 7.19852E+01 2.88510E+01 0.00000E+00
 -1      3372 1.38309E+02 1.69188E+01 0.00000E+00
 -1      3373 1.38309E+02 1.54563E+01 0.00000E+00
 -1      3374 1.38271E+02 3.74020E+01 0.00000E+00
 -1      3375 7.24065E+01 2.55877E+01 0.00000E+00
 -1      3376 1.00990E+02 3.30371E+01 0.00000E+00
 -1      3377 1.00109E+02 3.35757E+01 0.00000E+00
 -1      3378 1.00650E+02 3.45362E+01 0.00000E+00
 -1      3379 1.37010E+02 2.35250E+01 0.00000E+00
 -1      3380 1.38309E+02 2.28000E+01 0.00000E+00
 -1      3381 1.38309E+02 2.13250E+01 0.00000E+00
 -1      3382 9.72305E+01 3.87517E+01 0.00000E+00
 -1      3383 9.87305E+01 3.87517E+01 0.00000E+00
 -1      3384 9.34007E+01 3.93831E+01 0.00000E+00
 -1      3385 9.71075E+01 1.70142E+01 0.00000E+00
 -1      3386 1.01672E+02 2.42046E+01 0.00000E+00
 -1      3387 1.01291E+02 2.51375E+01 0.00000E+00
 -1      3388 1.02166E+02 2.59095E+01 0.00000E+00
 -1      3389 9.90593E+01 1.91068E+01 0.00000E+00
 -1      3390 8.93975E+01 1.23284E+01 0.00000E+00
 -1      3391 8.57850E+01 1.03949E+01 0.00000E+00
 -1      3392 8.42850E+01 1.03949E+01 0.00000E+00
 -1      3393 8.35350E+01 1.16939E+01 0.00000E+00
 -1      3394 9.47850E+01 1.05013E+01 0.00000E+00
 -1      3395 9.32850E+01 1.05013E+01 0.00000E+00
 -1      3396 1.38309E+02 1.98594E+01 0.00000E+00
 -1      3397 1.38309E+02 1.83844E+01 0.00000E+00
 -1      3398 1.37010E+02 1.76531E+01 0.00000E+00
 -1      3399 1.37010E+02 2.05844E+01 0.00000E+00
 -1      3400 1.16910E+01 1.98188E+01 0.00000E+00
 -1      3401 1.29900E+01 2.05562E+01 0.00000E+00
 -1      3402 1.16910E+01 1.83500E+01 0.00000E+00
 -1      3403 1.71488E+01 1.02017E+01 0.00000E+00
 -1      3404 1.56488E+01 1.02017E+01 0.00000E+00
 -1      3405 1.52625E+01 1.12011E+01 0.00000E+00
 -1      3406 9.94805E+01 3.74752E+01 0.00000E+00
 -1      3407 7.62830E+01 1.66633E+01 0.00000E+00
 -1      3408 1.38129E+02 3.62838E+01 0.00000E+00
 -1      3409 1.99669E+01 1.03515E+01 0.00000E+00
 -1      3410 1.84669E+01 1.03515E+01 0.00000E+00
 -1      3411 1.80806E+01 1.13509E+01 0.00000E+00
 -1      3412 2.07169E+01 1.16505E+01 0.00000E+00
 -1      3413 1.01398E+02 2.83518E+01 0.00000E+00
 -1      3414 8.23949E+01 1.39092E+01 0.00000E+00
 -1      3415 1.45576E+01 3.82548E+01 0.00000E+00
 -1      3416 1.53076E+01 3.69558E+01 0.00000E+00
 -1      3417 1.32152E+01 3.82007E+01 0.00000E+00
 -1      3418 1.16910E+01 3.01219E+01 0.00000E+00
 -1      3419 1.16910E+01 3.15906E+01 0.00000E+00
 -1      3420 1.29900E+01 3.23250E+01 0.00000E+00
 -1      3421 7.32359E+01 2.23465E+01 0.00000E+00
 -1      3422 1.14286E+01 3.73811E+01 0.00000E+00
 -1      3423 9.90402E+01 3.63788E+01 0.00000E+00
 -1      3424 7.43239E+01 1.93739E+01 0.00000E+00
 -1      3425 9.59276E+01 3.85614E+01 0.00000E+00
 -1      3426 9.46427E+01 1.52646E+01 0.00000E+00
 -1      3427 1.36830E+02 3.55588E+01 0.00000E+00
 -1      3428 1.00730E+02 3.09689E+01 0.00000E+00
 -1      3429 8.65350E+01 1.15039E+01 0.00000E+00
 -1      3430 9.55350E+01 1.18003E+01 0.00000E+00
 -1      3431 1.35711E+02 3.31125E+01 0.00000E+00
 -1      3432 1.35711E+02 3.16375E+01 0.00000E+00
 -1      3433 7.20899E+01 2.29982E+01 0.00000E+00
 -1      3434 7.23587E+01 2.13624E+01 0.00000E+00
 -1      3435 2.42850E+01 1.30992E+01 0.00000E+00
 -1      3436 2.27850E+01 1.30992E+01 0.00000E+00
 -1      3437 7.78297E+01 3.77478E+01 0.00000E+00
 -1      3438 2.34000E+01 3.57110E+01 0.00000E+00
 -1      3439 2.49000E+01 3.57110E+01 0.00000E+00
 -1      3440 2.64000E+01 3.57110E+01 0.00000E+00
 -1      3441 2.79000E+01 3.57110E+01 0.00000E+00
 -1      3442 2.56500E+01 3.44120E+01 0.00000E+00
 -1      3443 2.94000E+01 3.57110E+01 0.00000E+00
 -1      3444 3.09000E+01 3.57110E+01 0.00000E+00
 -1      3445 2.86500E+01 3.44120E+01 0.00000E+00
 -1      3446 3.24000E+01 3.57110E+01 0.00000E+00
 -1      3447 3.39000E+01 3.57110E+01 0.00000E+00
 -1      3448 3.16500E+01 3.44120E+01 0.00000E+00
 -1      3449 3.54000E+01 3.57110E+01 0.00000E+00
 -1      3450 3.69000E+01 3.57110E+01 0.00000E+00
 -1      3451 3.46500E+01 3.44120E+01 0.00000E+00
 -1      3452 3.84000E+01 3.57110E+01 0.00000E+00
 -1      3453 3.99000E+01 3.57110E+01 0.00000E+00
 -1      3454 3.76500E+01 3.44120E+01 0.00000E+00
 -1      3455 4.14000E+01 3.57110E+01 0.00000E+00
 -1      3456 4.29000E+01 3.57110E+01 0.00000E+00
 -1      3457 4.06500E+01 3.44120E+01 0.00000E+00
 -1      3458 4.44000E+01 3.57110E+01 0.00000E+00
 -1      3459 4.59000E+01 3.57110E+01 0.00000E+00
 -1      3460 4.36500E+01 3.44120E+01 0.00000E+00
 -1      3461 4.74000E+01 3.57110E+01 0.00000E+00
 -1      3462 4.89000E+01 3.57110E+01 0.00000E+00
 -1      3463 4.66500E+01 3.44120E+01 0.00000E+00
 -1      3464 5.04000E+01 3.57110E+01 0.00000E+00
 -1      3465 5.19000E+01 3.57110E+01 0.00000E+00
 -1      3466 4.96500E+01 3.44120E+01 0.00000E+00
 -1      3467 5.34000E+01 3.57110E+01 0.00000E+00
 -1      3468 5.49000E+01 3.57110E+01 0.00000E+00
 -1      3469 5.26500E+01 3.44120E+01 0.00000E+00
 -1      3470 5.64000E+01 3.57110E+01 0.00000E+00
 -1      3471 5.79000E+01 3.57110E+01 0.00000E+00
 -1      3472 5.56500E+01 3.44120E+01 0.00000E+00
 -1      3473 5.94000E+01 3.57110E+01 0.00000E+00
 -1      3474 6.09000E+01 3.57110E+01 0.00000E+00
 -1      3475 5.86500E+01 3.44120E+01 0.00000E+00
 -1      3476 6.24000E+01 3.57110E+01 0.00000E+00
 -1      3477 6.39000E+01 3.57110E+01 0.00000E+00
 -1      3478 6.16500E+01 3.44120E+01 0.00000E+00
 -1      3479 6.54000E+01 3.57110E+01 0.00000E+00
 -1      3480 6.69000E+01 3.57110E+01 0.00000E+00
 -1      3481 6.46500E+01 3.44120E+01 0.00000E+00
 -1      3482 6.84000E+01 3.57110E+01 0.00000E+00
 -1      3483 6.99000E+01 3.57110E+01 0.00000E+00
 -1      3484 6.76500E+01 3.44120E+01 0.00000E+00
 -1      3485 7.08663E+01 2.97798E+01 0.00000E+00
 -1      3486 7.07270E+01 2.81219E+01 0.00000E+00
 -1      3487 9.44425E+01 1.39873E+01 0.00000E+00
 -1      3488 9.58254E+01 1.47424E+01 0.00000E+00
 -1      3489 1.04400E+02 3.59912E+01 0.00000E+00
 -1      3490 1.05900E+02 3.59912E+01 0.00000E+00
 -1      3491 1.07400E+02 3.59912E+01 0.00000E+00
 -1      3492 1.08900E+02 3.59912E+01 0.00000E+00
 -1      3493 1.06650E+02 3.47147E+01 0.00000E+00
 -1      3494 1.10400E+02 3.59912E+01 0.00000E+00
 -1      3495 1.11900E+02 3.59912E+01 0.00000E+00
 -1      3496 1.09650E+02 3.47147E+01 0.00000E+00
 -1      3497 1.13400E+02 3.59912E+01 0.00000E+00
 -1      3498 1.14900E+02 3.59912E+01 0.00000E+00
 -1      3499 1.12650E+02 3.47147E+01 0.00000E+00
 -1      3500 1.16400E+02 3.59912E+01 0.00000E+00
 -1      3501 1.17900E+02 3.59912E+01 0.00000E+00
 -1      3502 1.15650E+02 3.47147E+01 0.00000E+00
 -1      3503 1.19400E+02 3.59912E+01 0.00000E+00
 -1      3504 1.20900E+02 3.59912E+01 0.00000E+00
 -1      3505 1.18650E+02 3.47147E+01 0.00000E+00
 -1      3506 1.22400E+02 3.59912E+01 0.00000E+00
 -1      3507 1.23900E+02 3.59912E+01 0.00000E+00
 -1      3508 1.21650E+02 3.47147E+01 0.00000E+00
 -1      3509 1.25400E+02 3.59912E+01 0.00000E+00
 -1      3510 1.26900E+02 3.59912E+01 0.00000E+00
 -1      3511 1.24650E+02 3.47147E+01 0.00000E+00
 -1      3512 1.28400E+02 3.59912E+01 0.00000E+00
 -1      3513 1.29900E+02 3.59912E+01 0.00000E+00
 -1      3514 1.27650E+02 3.47147E+01 0.00000E+00
 -1      3515 1.31400E+02 3.59912E+01 0.00000E+00
 -1      3516 1.32900E+02 3.59912E+01 0.00000E+00
 -1      3517 1.30650E+02 3.47147E+01 0.00000E+00
 -1      3518 1.35330E+02 3.55588E+01 0.00000E+00
 -1      3519 1.38528E+02 1.44149E+01 0.00000E+00
 -1      3520 1.38594E+02 1.31746E+01 0.00000E+00
 -1      3521 1.37668E+02 1.30636E+01 0.00000E+00
 -1      3522 1.37229E+02 1.51462E+01 0.00000E+00
 -1      3523 4.22850E+01 1.30992E+01 0.00000E+00
 -1      3524 4.07850E+01 1.30992E+01 0.00000E+00
 -1      3525 5.12850E+01 1.30992E+01 0.00000E+00
 -1      3526 4.97850E+01 1.30992E+01 0.00000E+00
 -1      3527 5.42850E+01 1.30992E+01 0.00000E+00
 -1      3528 5.27850E+01 1.30992E+01 0.00000E+00
 -1      3529 5.20350E+01 1.43982E+01 0.00000E+00
 -1      3530 5.72850E+01 1.30992E+01 0.00000E+00
 -1      3531 5.57850E+01 1.30992E+01 0.00000E+00
 -1      3532 5.50350E+01 1.43982E+01 0.00000E+00
 -1      3533 6.02850E+01 1.30992E+01 0.00000E+00
 -1      3534 5.87850E+01 1.30992E+01 0.00000E+00
 -1      3535 5.80350E+01 1.43982E+01 0.00000E+00
 -1      3536 6.32850E+01 1.30992E+01 0.00000E+00
 -1      3537 6.17850E+01 1.30992E+01 0.00000E+00
 -1      3538 6.10350E+01 1.43982E+01 0.00000E+00
 -1      3539 6.62850E+01 1.30992E+01 0.00000E+00
 -1      3540 6.47850E+01 1.30992E+01 0.00000E+00
 -1      3541 6.40350E+01 1.43982E+01 0.00000E+00
 -1      3542 6.92850E+01 1.30992E+01 0.00000E+00
 -1      3543 6.77850E+01 1.30992E+01 0.00000E+00
 -1      3544 6.70350E+01 1.43982E+01 0.00000E+00
 -1      3545 7.22850E+01 1.30992E+01 0.00000E+00
 -1      3546 7.07850E+01 1.30992E+01 0.00000E+00
 -1      3547 7.00350E+01 1.43982E+01 0.00000E+00
 -1      3548 8.14153E+01 1.27979E+01 0.00000E+00
 -1      3549 7.99153E+01 1.27979E+01 0.00000E+00
 -1      3550 9.63301E+01 1.26327E+01 0.00000E+00
 -1      3551 9.48301E+01 1.26327E+01 0.00000E+00
 -1      3552 9.23975E+01 1.25185E+01 0.00000E+00
 -1      3553 8.45146E+01 1.28053E+01 0.00000E+00
 -1      3554 8.30146E+01 1.29116E+01 0.00000E+00
 -1      3555 9.93301E+01 1.26327E+01 0.00000E+00
 -1      3556 9.78301E+01 1.26327E+01 0.00000E+00
 -1      3557 9.71253E+01 1.34651E+01 0.00000E+00
 -1      3558 1.08285E+02 1.30992E+01 0.00000E+00
 -1      3559 1.06785E+02 1.30992E+01 0.00000E+00
 -1      3560 1.11285E+02 1.30992E+01 0.00000E+00
 -1      3561 1.09785E+02 1.30992E+01 0.00000E+00
 -1      3562 1.09035E+02 1.43982E+01 0.00000E+00
 -1      3563 1.14285E+02 1.30992E+01 0.00000E+00
 -1      3564 1.12785E+02 1.30992E+01 0.00000E+00
 -1      3565 1.12035E+02 1.43982E+01 0.00000E+00
 -1      3566 1.17285E+02 1.30992E+01 0.00000E+00
 -1      3567 1.15785E+02 1.30992E+01 0.00000E+00
 -1      3568 1.15035E+02 1.43982E+01 0.00000E+00
 -1      3569 1.20285E+02 1.30992E+01 0.00000E+00
 -1      3570 1.18785E+02 1.30992E+01 0.00000E+00
 -1      3571 1.18035E+02 1.43982E+01 0.00000E+00
 -1      3572 1.23285E+02 1.30992E+01 0.00000E+00
 -1      3573 1.21785E+02 1.30992E+01 0.00000E+00
 -1      3574 1.21035E+02 1.43982E+01 0.00000E+00
 -1      3575 1.26285E+02 1.30992E+01 0.00000E+00
 -1      3576 1.24785E+02 1.30992E+01 0.00000E+00
 -1      3577 1.24035E+02 1.43982E+01 0.00000E+00
 -1      3578 1.29285E+02 1.30992E+01 0.00000E+00
 -1      3579 1.27785E+02 1.30992E+01 0.00000E+00
 -1      3580 1.27035E+02 1.43982E+01 0.00000E+00
 -1      3581 1.32285E+02 1.30992E+01 0.00000E+00
 -1      3582 1.30785E+02 1.30992E+01 0.00000E+00
 -1      3583 1.30035E+02 1.43982E+01 0.00000E+00
 -1      3584 1.35711E+02 3.01625E+01 0.00000E+00
 -1      3585 1.35711E+02 2.86875E+01 0.00000E+00
 -1      3586 1.34412E+02 3.09000E+01 0.00000E+00
 -1      3587 1.35711E+02 2.72125E+01 0.00000E+00
 -1      3588 1.35711E+02 2.57375E+01 0.00000E+00
 -1      3589 1.34412E+02 2.79500E+01 0.00000E+00
 -1      3590 1.01864E+02 3.06678E+01 0.00000E+00
 -1      3591 1.01583E+02 3.17755E+01 0.00000E+00
 -1      3592 3.02850E+01 1.30992E+01 0.00000E+00
 -1      3593 2.87850E+01 1.30992E+01 0.00000E+00
 -1      3594 1.34776E+01 3.53477E+01 0.00000E+00
 -1      3595 1.21786E+01 3.60821E+01 0.00000E+00
 -1      3596 1.00210E+02 3.61712E+01 0.00000E+00
 -1      3597 9.49007E+01 3.93831E+01 0.00000E+00
 -1      3598 7.82288E+01 1.35448E+01 0.00000E+00
 -1      3599 9.36474E+01 1.31549E+01 0.00000E+00
 -1      3600 3.92850E+01 1.30992E+01 0.00000E+00
 -1      3601 3.77850E+01 1.30992E+01 0.00000E+00
 -1      3602 4.00350E+01 1.43982E+01 0.00000E+00
 -1      3603 9.95593E+01 1.78172E+01 0.00000E+00
 -1      3604 1.00429E+02 1.89153E+01 0.00000E+00
 -1      3605 1.16910E+01 2.71844E+01 0.00000E+00
 -1      3606 1.16910E+01 2.86531E+01 0.00000E+00
 -1      3607 1.29900E+01 2.93875E+01 0.00000E+00
 -1      3608 7.09687E+01 2.62090E+01 0.00000E+00
 -1      3609 7.15293E+01 2.46036E+01 0.00000E+00
 -1      3610 7.06521E+01 2.36195E+01 0.00000E+00
 -1      3611 8.92962E+01 1.31556E+01 0.00000E+00
 -1      3612 1.74000E+01 3.57110E+01 0.00000E+00
 -1      3613 1.89000E+01 3.57110E+01 0.00000E+00
 -1      3614 2.72850E+01 1.30992E+01 0.00000E+00
 -1      3615 2.57850E+01 1.30992E+01 0.00000E+00
 -1      3616 2.80350E+01 1.43982E+01 0.00000E+00
 -1      3617 7.17197E+01 3.28038E+01 0.00000E+00
 -1      3618 7.13329E+01 3.14634E+01 0.00000E+00
 -1      3619 1.01400E+02 2.06748E+01 0.00000E+00
 -1      3620 1.01834E+02 2.22887E+01 0.00000E+00
 -1      3621 1.05285E+02 1.30992E+01 0.00000E+00
 -1      3622 1.03785E+02 1.30992E+01 0.00000E+00
 -1      3623 1.06035E+02 1.43982E+01 0.00000E+00
 -1      3624 4.52850E+01 1.30992E+01 0.00000E+00
 -1      3625 4.37850E+01 1.30992E+01 0.00000E+00
 -1      3626 4.30350E+01 1.43982E+01 0.00000E+00
 -1      3627 1.02637E+02 2.76489E+01 0.00000E+00
 -1      3628 1.02251E+02 2.91583E+01 0.00000E+00
 -1      3629 1.03103E+02 2.99649E+01 0.00000E+00
 -1      3630 1.34031E+02 3.48213E+01 0.00000E+00
 -1      3631 8.54742E+01 1.25682E+01 0.00000E+00
 -1      3632 1.01180E+02 3.53537E+01 0.00000E+00
 -1      3633 1.01620E+02 3.64501E+01 0.00000E+00
 -1      3634 1.03120E+02 3.64501E+01 0.00000E+00
 -1      3635 1.02061E+02 3.48151E+01 0.00000E+00
 -1      3636 7.42829E+01 3.51941E+01 0.00000E+00
 -1      3637 7.42267E+01 3.43376E+01 0.00000E+00
 -1      3638 7.28259E+01 1.93753E+01 0.00000E+00
 -1      3639 7.36452E+01 1.80385E+01 0.00000E+00
 -1      3640 7.47133E+01 1.65208E+01 0.00000E+00
 -1      3641 7.58531E+01 1.51470E+01 0.00000E+00
 -1      3642 2.04000E+01 3.57110E+01 0.00000E+00
 -1      3643 2.19000E+01 3.57110E+01 0.00000E+00
 -1      3644 2.26500E+01 3.44120E+01 0.00000E+00
 -1      3645 4.82850E+01 1.30992E+01 0.00000E+00
 -1      3646 4.67850E+01 1.30992E+01 0.00000E+00
 -1      3647 4.60350E+01 1.43982E+01 0.00000E+00
 -1      3648 4.90350E+01 1.43982E+01 0.00000E+00
 -1      3649 1.48763E+01 1.22006E+01 0.00000E+00
 -1      3650 1.44900E+01 1.32000E+01 0.00000E+00
 -1      3651 1.63762E+01 1.22006E+01 0.00000E+00
 -1      3652 7.67288E+01 1.35448E+01 0.00000E+00
 -1      3653 1.02285E+02 1.30992E+01 0.00000E+00
 -1      3654 1.00785E+02 1.30992E+01 0.00000E+00
 -1      3655 1.03035E+02 1.43982E+01 0.00000E+00
 -1      3656 8.69742E+01 1.24844E+01 0.00000E+00
 -1      3657 7.30650E+01 3.40113E+01 0.00000E+00
 -1      3658 7.51592E+01 1.34024E+01 0.00000E+00
 -1      3659 1.44900E+01 1.46687E+01 0.00000E+00
 -1      3660 7.05341E+01 2.06787E+01 0.00000E+00
 -1      3661 7.16800E+01 2.00270E+01 0.00000E+00
 -1      3662 7.10013E+01 1.86916E+01 0.00000E+00
 -1      3663 2.20350E+01 1.43983E+01 0.00000E+00
 -1      3664 2.12850E+01 1.30993E+01 0.00000E+00
 -1      3665 7.00748E+01 3.07343E+01 0.00000E+00
 -1      3666 9.73254E+01 1.47424E+01 0.00000E+00
 -1      3667 1.29900E+01 1.76125E+01 0.00000E+00
 -1      3668 1.02124E+02 3.27359E+01 0.00000E+00
 -1      3669 1.35711E+02 2.42625E+01 0.00000E+00
 -1      3670 1.35711E+02 2.27875E+01 0.00000E+00
 -1      3671 1.34412E+02 2.50000E+01 0.00000E+00
 -1      3672 1.02710E+02 2.30606E+01 0.00000E+00
 -1      3673 3.32850E+01 1.30992E+01 0.00000E+00
 -1      3674 3.17850E+01 1.30992E+01 0.00000E+00
 -1      3675 3.10350E+01 1.43982E+01 0.00000E+00
 -1      3676 7.36592E+01 1.34024E+01 0.00000E+00
 -1      3677 7.29092E+01 1.47014E+01 0.00000E+00
 -1      3678 1.00080E+02 1.39317E+01 0.00000E+00
 -1      3679 3.70350E+01 1.43982E+01 0.00000E+00
 -1      3680 3.62850E+01 1.30992E+01 0.00000E+00
 -1      3681 3.47850E+01 1.30992E+01 0.00000E+00
 -1      3682 1.35711E+02 1.83859E+01 0.00000E+00
 -1      3683 1.35711E+02 1.69203E+01 0.00000E+00
 -1      3684 1.35285E+02 1.30992E+01 0.00000E+00
 -1      3685 1.33785E+02 1.30992E+01 0.00000E+00
 -1      3686 1.36742E+02 1.29526E+01 0.00000E+00
 -1      3687 1.35992E+02 1.42516E+01 0.00000E+00
 -1      3688 9.92437E+01 1.48343E+01 0.00000E+00
 -1      3689 9.79439E+01 1.61116E+01 0.00000E+00
 -1      3690 9.90258E+01 1.71060E+01 0.00000E+00
 -1      3691 1.00699E+02 1.53008E+01 0.00000E+00
 -1      3692 1.99669E+01 1.29495E+01 0.00000E+00
 -1      3693 1.01900E+02 1.93852E+01 0.00000E+00
 -1      3694 1.03870E+02 3.51736E+01 0.00000E+00
 -1      3695 1.42890E+01 2.27625E+01 0.00000E+00
 -1      3696 1.42890E+01 2.42375E+01 0.00000E+00
 -1      3697 1.43324E+01 3.38479E+01 0.00000E+00
 -1      3698 1.48200E+01 3.54019E+01 0.00000E+00
 -1      3699 1.61624E+01 3.54560E+01 0.00000E+00
 -1      3700 7.32153E+01 1.65222E+01 0.00000E+00
 -1      3701 1.29900E+01 2.64469E+01 0.00000E+00
 -1      3702 1.00396E+02 1.69146E+01 0.00000E+00
 -1      3703 1.42890E+01 1.98250E+01 0.00000E+00
 -1      3704 1.42890E+01 2.12938E+01 0.00000E+00
 -1      3705 1.55880E+01 2.20313E+01 0.00000E+00
 -1      3706 6.98498E+01 2.71378E+01 0.00000E+00
 -1      3707 1.69124E+01 3.41570E+01 0.00000E+00
 -1      3708 2.50350E+01 1.43982E+01 0.00000E+00
 -1      3709 1.43324E+01 3.09104E+01 0.00000E+00
 -1      3710 1.43324E+01 3.23792E+01 0.00000E+00
 -1      3711 1.56748E+01 3.24333E+01 0.00000E+00
 -1      3712 1.03019E+02 2.67160E+01 0.00000E+00
 -1      3713 1.03872E+02 2.75226E+01 0.00000E+00
 -1      3714 1.03401E+02 2.57831E+01 0.00000E+00
 -1      3715 1.96500E+01 3.44120E+01 0.00000E+00
 -1      3716 7.20617E+01 3.46429E+01 0.00000E+00
 -1      3717 7.18948E+01 3.38213E+01 0.00000E+00
 -1      3718 7.07165E+01 3.34353E+01 0.00000E+00
 -1      3719 1.33035E+02 1.43982E+01 0.00000E+00
 -1      3720 2.27850E+01 1.56973E+01 0.00000E+00
 -1      3721 2.12851E+01 1.56973E+01 0.00000E+00
 -1      3722 6.92394E+01 3.18722E+01 0.00000E+00
 -1      3723 6.87728E+01 3.01886E+01 0.00000E+00
 -1      3724 1.33281E+02 3.35448E+01 0.00000E+00
 -1      3725 7.00208E+01 3.44324E+01 0.00000E+00
 -1      3726 7.07708E+01 3.57314E+01 0.00000E+00
 -1      3727 2.79000E+01 3.31130E+01 0.00000E+00
 -1      3728 2.94000E+01 3.31130E+01 0.00000E+00
 -1      3729 3.09000E+01 3.31130E+01 0.00000E+00
 -1      3730 3.24000E+01 3.31130E+01 0.00000E+00
 -1      3731 3.01500E+01 3.18140E+01 0.00000E+00
 -1      3732 3.39000E+01 3.31130E+01 0.00000E+00
 -1      3733 3.54000E+01 3.31130E+01 0.00000E+00
 -1      3734 3.31500E+01 3.18140E+01 0.00000E+00
 -1      3735 3.69000E+01 3.31130E+01 0.00000E+00
 -1      3736 3.84000E+01 3.31130E+01 0.00000E+00
 -1      3737 3.61500E+01 3.18140E+01 0.00000E+00
 -1      3738 3.99000E+01 3.31130E+01 0.00000E+00
 -1      3739 4.14000E+01 3.31130E+01 0.00000E+00
 -1      3740 3.91500E+01 3.18140E+01 0.00000E+00
 -1      3741 4.29000E+01 3.31130E+01 0.00000E+00
 -1      3742 4.44000E+01 3.31130E+01 0.00000E+00
 -1      3743 4.21500E+01 3.18140E+01 0.00000E+00
 -1      3744 4.59000E+01 3.31130E+01 0.00000E+00
 -1      3745 4.74000E+01 3.31130E+01 0.00000E+00
 -1      3746 4.51500E+01 3.18140E+01 0.00000E+00
 -1      3747 4.89000E+01 3.31130E+01 0.00000E+00
 -1      3748 5.04000E+01 3.31130E+01 0.00000E+00
 -1      3749 4.81500E+01 3.18140E+01 0.00000E+00
 -1      3750 5.19000E+01 3.31130E+01 0.00000E+00
 -1      3751 5.34000E+01 3.31130E+01 0.00000E+00
 -1      3752 5.11500E+01 3.18140E+01 0.00000E+00
 -1      3753 5.49000E+01 3.31130E+01 0.00000E+00
 -1      3754 5.64000E+01 3.31130E+01 0.00000E+00
 -1      3755 5.41500E+01 3.18140E+01 0.00000E+00
 -1      3756 5.79000E+01 3.31130E+01 0.00000E+00
 -1      3757 5.94000E+01 3.31130E+01 0.00000E+00
 -1      3758 5.71500E+01 3.18140E+01 0.00000E+00
 -1      3759 6.09000E+01 3.31130E+01 0.00000E+00
 -1      3760 6.24000E+01 3.31130E+01 0.00000E+00
 -1      3761 6.01500E+01 3.18140E+01 0.00000E+00
 -1      3762 6.39000E+01 3.31130E+01 0.00000E+00
 -1      3763 6.54000E+01 3.31130E+01 0.00000E+00
 -1      3764 6.31500E+01 3.18140E+01 0.00000E+00
 -1      3765 1.88306E+01 1.26499E+01 0.00000E+00
 -1      3766 1.75125E+01 1.25001E+01 0.00000E+00
 -1      3767 1.71263E+01 1.34996E+01 0.00000E+00
 -1      3768 1.93988E+01 1.40987E+01 0.00000E+00
 -1      3769 1.31782E+02 3.32269E+01 0.00000E+00
 -1      3770 1.32913E+02 3.20570E+01 0.00000E+00
 -1      3771 6.98457E+01 3.34149E+01 0.00000E+00
 -1      3772 7.19409E+01 3.59215E+01 0.00000E+00
 -1      3773 1.08900E+02 3.34157E+01 0.00000E+00
 -1      3774 1.10400E+02 3.34157E+01 0.00000E+00
 -1      3775 1.11900E+02 3.34157E+01 0.00000E+00
 -1      3776 1.13400E+02 3.34157E+01 0.00000E+00
 -1      3777 1.11150E+02 3.21167E+01 0.00000E+00
 -1      3778 1.14900E+02 3.34157E+01 0.00000E+00
 -1      3779 1.16400E+02 3.34157E+01 0.00000E+00
 -1      3780 1.14150E+02 3.21167E+01 0.00000E+00
 -1      3781 1.17900E+02 3.34157E+01 0.00000E+00
 -1      3782 1.19400E+02 3.34157E+01 0.00000E+00
 -1      3783 1.17150E+02 3.21167E+01 0.00000E+00
 -1      3784 1.20900E+02 3.34157E+01 0.00000E+00
 -1      3785 1.22400E+02 3.34157E+01 0.00000E+00
 -1      3786 1.20150E+02 3.21167E+01 0.00000E+00
 -1      3787 1.23900E+02 3.34157E+01 0.00000E+00
 -1      3788 1.25400E+02 3.34157E+01 0.00000E+00
 -1      3789 1.23150E+02 3.21167E+01 0.00000E+00
 -1      3790 1.26900E+02 3.34157E+01 0.00000E+00
 -1      3791 1.28400E+02 3.34157E+01 0.00000E+00
 -1      3792 1.26150E+02 3.21167E+01 0.00000E+00
 -1      3793 1.30282E+02 3.32269E+01 0.00000E+00
 -1      3794 5.87850E+01 1.56973E+01 0.00000E+00
 -1      3795 5.72850E+01 1.56973E+01 0.00000E+00
 -1      3796 1.35773E+02 1.52929E+01 0.00000E+00
 -1      3797 1.35711E+02 2.13172E+01 0.00000E+00
 -1      3798 1.35711E+02 1.98516E+01 0.00000E+00
 -1      3799 1.34412E+02 1.91187E+01 0.00000E+00
 -1      3800 5.57850E+01 1.56973E+01 0.00000E+00
 -1      3801 5.42850E+01 1.56973E+01 0.00000E+00
 -1      3802 5.65350E+01 1.69963E+01 0.00000E+00
 -1      3803 5.27850E+01 1.56973E+01 0.00000E+00
 -1      3804 5.12850E+01 1.56973E+01 0.00000E+00
 -1      3805 5.35350E+01 1.69963E+01 0.00000E+00
 -1      3806 6.17850E+01 1.56973E+01 0.00000E+00
 -1      3807 6.02850E+01 1.56973E+01 0.00000E+00
 -1      3808 5.95350E+01 1.69963E+01 0.00000E+00
 -1      3809 6.47850E+01 1.56973E+01 0.00000E+00
 -1      3810 6.32850E+01 1.56973E+01 0.00000E+00
 -1      3811 6.25350E+01 1.69963E+01 0.00000E+00
 -1      3812 6.77850E+01 1.56973E+01 0.00000E+00
 -1      3813 6.62850E+01 1.56973E+01 0.00000E+00
 -1      3814 6.55350E+01 1.69963E+01 0.00000E+00
 -1      3815 4.37850E+01 1.56973E+01 0.00000E+00
 -1      3816 4.22850E+01 1.56973E+01 0.00000E+00
 -1      3817 1.02654E+02 3.35535E+01 0.00000E+00
 -1      3818 1.03184E+02 3.43710E+01 0.00000E+00
 -1      3819 1.03247E+02 3.22918E+01 0.00000E+00
 -1      3820 8.79338E+01 1.22473E+01 0.00000E+00
 -1      3821 1.42890E+01 1.68750E+01 0.00000E+00
 -1      3822 1.42890E+01 1.83500E+01 0.00000E+00
 -1      3823 1.55880E+01 1.90875E+01 0.00000E+00
 -1      3824 1.12785E+02 1.56973E+01 0.00000E+00
 -1      3825 1.11285E+02 1.56973E+01 0.00000E+00
 -1      3826 1.09785E+02 1.56973E+01 0.00000E+00
 -1      3827 1.08285E+02 1.56973E+01 0.00000E+00
 -1      3828 1.10535E+02 1.69963E+01 0.00000E+00
 -1      3829 1.18785E+02 1.56973E+01 0.00000E+00
 -1      3830 1.17285E+02 1.56973E+01 0.00000E+00
 -1      3831 1.21785E+02 1.56973E+01 0.00000E+00
 -1      3832 1.20285E+02 1.56973E+01 0.00000E+00
 -1      3833 1.19535E+02 1.69963E+01 0.00000E+00
 -1      3834 1.24785E+02 1.56973E+01 0.00000E+00
 -1      3835 1.23285E+02 1.56973E+01 0.00000E+00
 -1      3836 1.22535E+02 1.69963E+01 0.00000E+00
 -1      3837 1.27785E+02 1.56973E+01 0.00000E+00
 -1      3838 1.26285E+02 1.56973E+01 0.00000E+00
 -1      3839 1.25535E+02 1.69963E+01 0.00000E+00
 -1      3840 1.30785E+02 1.56973E+01 0.00000E+00
 -1      3841 1.29285E+02 1.56973E+01 0.00000E+00
 -1      3842 1.28535E+02 1.69963E+01 0.00000E+00
 -1      3843 1.32913E+02 3.05820E+01 0.00000E+00
 -1      3844 1.04533E+02 2.95268E+01 0.00000E+00
 -1      3845 1.04147E+02 3.10362E+01 0.00000E+00
 -1      3846 1.02134E+02 1.52051E+01 0.00000E+00
 -1      3847 1.01297E+02 1.61077E+01 0.00000E+00
 -1      3848 1.01831E+02 1.68189E+01 0.00000E+00
 -1      3849 1.03634E+02 1.52051E+01 0.00000E+00
 -1      3850 1.33113E+02 2.86875E+01 0.00000E+00
 -1      3851 1.33113E+02 2.72125E+01 0.00000E+00
 -1      3852 1.02802E+02 1.85783E+01 0.00000E+00
 -1      3853 1.03773E+02 2.03378E+01 0.00000E+00
 -1      3854 1.03703E+02 1.77714E+01 0.00000E+00
 -1      3855 1.34473E+02 1.60257E+01 0.00000E+00
 -1      3856 6.85438E+01 3.28693E+01 0.00000E+00
 -1      3857 1.32973E+02 1.60257E+01 0.00000E+00
 -1      3858 6.84402E+01 2.79314E+01 0.00000E+00
 -1      3859 6.86819E+01 2.60185E+01 0.00000E+00
 -1      3860 2.57850E+01 1.56973E+01 0.00000E+00
 -1      3861 2.42850E+01 1.56973E+01 0.00000E+00
 -1      3862 2.35351E+01 1.69963E+01 0.00000E+00
 -1      3863 1.06709E+02 1.54512E+01 0.00000E+00
 -1      3864 1.05209E+02 1.54512E+01 0.00000E+00
 -1      3865 1.04308E+02 1.62581E+01 0.00000E+00
 -1      3866 1.07459E+02 1.67502E+01 0.00000E+00
 -1      3867 1.04463E+02 3.39120E+01 0.00000E+00
 -1      3868 4.07850E+01 1.56973E+01 0.00000E+00
 -1      3869 3.92850E+01 1.56973E+01 0.00000E+00
 -1      3870 4.15350E+01 1.69963E+01 0.00000E+00
 -1      3871 1.43324E+01 2.79729E+01 0.00000E+00
 -1      3872 1.43324E+01 2.94417E+01 0.00000E+00
 -1      3873 1.56748E+01 2.94958E+01 0.00000E+00
 -1      3874 6.92458E+01 2.40290E+01 0.00000E+00
 -1      3875 6.98064E+01 2.24236E+01 0.00000E+00
 -1      3876 2.87850E+01 1.56973E+01 0.00000E+00
 -1      3877 2.72850E+01 1.56973E+01 0.00000E+00
 -1      3878 2.65351E+01 1.69963E+01 0.00000E+00
 -1      3879 1.03979E+02 2.22030E+01 0.00000E+00
 -1      3880 1.03817E+02 2.41190E+01 0.00000E+00
 -1      3881 7.18411E+01 1.62191E+01 0.00000E+00
 -1      3882 1.15785E+02 1.56973E+01 0.00000E+00
 -1      3883 1.14285E+02 1.56973E+01 0.00000E+00
 -1      3884 1.16535E+02 1.69963E+01 0.00000E+00
 -1      3885 1.05932E+02 3.36639E+01 0.00000E+00
 -1      3886 1.07432E+02 3.36639E+01 0.00000E+00
 -1      3887 1.08182E+02 3.23649E+01 0.00000E+00
 -1      3888 1.05245E+02 3.28612E+01 0.00000E+00
 -1      3889 1.43107E+01 2.53693E+01 0.00000E+00
 -1      3890 1.43107E+01 2.68411E+01 0.00000E+00
 -1      3891 1.56531E+01 2.68953E+01 0.00000E+00
 -1      3892 1.56097E+01 2.46318E+01 0.00000E+00
 -1      3893 1.57890E+01 1.54063E+01 0.00000E+00
 -1      3894 1.69124E+01 3.26883E+01 0.00000E+00
 -1      3895 1.81500E+01 3.29432E+01 0.00000E+00
 -1      3896 1.69124E+01 3.12195E+01 0.00000E+00
 -1      3897 2.49000E+01 3.31130E+01 0.00000E+00
 -1      3898 2.64000E+01 3.31130E+01 0.00000E+00
 -1      3899 2.71500E+01 3.18140E+01 0.00000E+00
 -1      3900 2.19000E+01 3.31130E+01 0.00000E+00
 -1      3901 2.34000E+01 3.31130E+01 0.00000E+00
 -1      3902 2.41500E+01 3.18140E+01 0.00000E+00
 -1      3903 1.92750E+01 3.30281E+01 0.00000E+00
 -1      3904 2.07750E+01 3.30281E+01 0.00000E+00
 -1      3905 2.15250E+01 3.17291E+01 0.00000E+00
 -1      3906 1.92750E+01 3.15594E+01 0.00000E+00
 -1      3907 1.32223E+02 1.73247E+01 0.00000E+00
 -1      3908 7.06712E+01 1.74553E+01 0.00000E+00
 -1      3909 7.03651E+01 1.56345E+01 0.00000E+00
 -1      3910 6.88651E+01 1.56345E+01 0.00000E+00
 -1      3911 6.95253E+01 1.81070E+01 0.00000E+00
 -1      3912 6.91277E+01 2.10882E+01 0.00000E+00
 -1      3913 6.67696E+01 3.02073E+01 0.00000E+00
 -1      3914 6.76049E+01 2.90694E+01 0.00000E+00
 -1      3915 6.64370E+01 2.79501E+01 0.00000E+00
 -1      3916 4.67850E+01 1.56973E+01 0.00000E+00
 -1      3917 4.52850E+01 1.56973E+01 0.00000E+00
 -1      3918 4.45350E+01 1.69963E+01 0.00000E+00
 -1      3919 6.62938E+01 3.15703E+01 0.00000E+00
 -1      3920 6.70438E+01 3.28693E+01 0.00000E+00
 -1      3921 1.96358E+01 1.55046E+01 0.00000E+00
 -1      3922 1.84995E+01 1.52050E+01 0.00000E+00
 -1      3923 1.33113E+02 2.57375E+01 0.00000E+00
 -1      3924 1.33113E+02 2.42625E+01 0.00000E+00
 -1      3925 1.31814E+02 2.64750E+01 0.00000E+00
 -1      3926 1.68976E+01 2.40410E+01 0.00000E+00
 -1      3927 1.69193E+01 2.51727E+01 0.00000E+00
 -1      3928 1.29532E+02 3.19279E+01 0.00000E+00
 -1      3929 1.04677E+02 3.18537E+01 0.00000E+00
 -1      3930 1.34412E+02 2.20547E+01 0.00000E+00
 -1      3931 3.40350E+01 1.43982E+01 0.00000E+00
 -1      3932 6.81151E+01 1.69335E+01 0.00000E+00
 -1      3933 2.03858E+01 1.68036E+01 0.00000E+00
 -1      3934 3.85350E+01 1.69963E+01 0.00000E+00
 -1      3935 3.77850E+01 1.56973E+01 0.00000E+00
 -1      3936 3.62850E+01 1.56973E+01 0.00000E+00
 -1      3937 1.32223E+02 1.87903E+01 0.00000E+00
 -1      3938 1.30035E+02 1.84619E+01 0.00000E+00
 -1      3939 1.32223E+02 2.02559E+01 0.00000E+00
 -1      3940 1.13535E+02 1.69963E+01 0.00000E+00
 -1      3941 1.31614E+02 2.98445E+01 0.00000E+00
 -1      3942 3.02850E+01 1.56973E+01 0.00000E+00
 -1      3943 2.95351E+01 1.69963E+01 0.00000E+00
 -1      3944 3.17850E+01 1.56973E+01 0.00000E+00
 -1      3945 1.04915E+02 2.85939E+01 0.00000E+00
 -1      3946 1.05958E+02 2.96652E+01 0.00000E+00
 -1      3947 1.05297E+02 2.76610E+01 0.00000E+00
 -1      3948 1.68976E+01 2.11035E+01 0.00000E+00
 -1      3949 1.68976E+01 2.25722E+01 0.00000E+00
 -1      3950 1.82072E+01 2.31132E+01 0.00000E+00
 -1      3951 1.04881E+02 2.13961E+01 0.00000E+00
 -1      3952 1.04670E+02 2.49255E+01 0.00000E+00
 -1      3953 6.78362E+01 2.48226E+01 0.00000E+00
 -1      3954 5.05350E+01 1.69963E+01 0.00000E+00
 -1      3955 4.97850E+01 1.56973E+01 0.00000E+00
 -1      3956 4.82850E+01 1.56973E+01 0.00000E+00
 -1      3957 6.51258E+01 3.04510E+01 0.00000E+00
 -1      3958 1.10400E+02 3.08177E+01 0.00000E+00
 -1      3959 1.11900E+02 3.08177E+01 0.00000E+00
 -1      3960 1.71622E+01 1.71117E+01 0.00000E+00
 -1      3961 1.69253E+01 1.57058E+01 0.00000E+00
 -1      3962 3.24000E+01 3.05150E+01 0.00000E+00
 -1      3963 3.39000E+01 3.05150E+01 0.00000E+00
 -1      3964 3.54000E+01 3.05150E+01 0.00000E+00
 -1      3965 3.69000E+01 3.05150E+01 0.00000E+00
 -1      3966 3.46500E+01 2.92160E+01 0.00000E+00
 -1      3967 3.84000E+01 3.05150E+01 0.00000E+00
 -1      3968 3.99000E+01 3.05150E+01 0.00000E+00
 -1      3969 3.76500E+01 2.92160E+01 0.00000E+00
 -1      3970 4.14000E+01 3.05150E+01 0.00000E+00
 -1      3971 4.29000E+01 3.05150E+01 0.00000E+00
 -1      3972 4.06500E+01 2.92160E+01 0.00000E+00
 -1      3973 4.44000E+01 3.05150E+01 0.00000E+00
 -1      3974 4.59000E+01 3.05150E+01 0.00000E+00
 -1      3975 4.36500E+01 2.92160E+01 0.00000E+00
 -1      3976 4.74000E+01 3.05150E+01 0.00000E+00
 -1      3977 4.89000E+01 3.05150E+01 0.00000E+00
 -1      3978 4.66500E+01 2.92160E+01 0.00000E+00
 -1      3979 5.04000E+01 3.05150E+01 0.00000E+00
 -1      3980 5.19000E+01 3.05150E+01 0.00000E+00
 -1      3981 4.96500E+01 2.92160E+01 0.00000E+00
 -1      3982 5.34000E+01 3.05150E+01 0.00000E+00
 -1      3983 5.49000E+01 3.05150E+01 0.00000E+00
 -1      3984 5.26500E+01 2.92160E+01 0.00000E+00
 -1      3985 5.64000E+01 3.05150E+01 0.00000E+00
 -1      3986 5.79000E+01 3.05150E+01 0.00000E+00
 -1      3987 5.56500E+01 2.92160E+01 0.00000E+00
 -1      3988 5.94000E+01 3.05150E+01 0.00000E+00
 -1      3989 6.09000E+01 3.05150E+01 0.00000E+00
 -1      3990 5.86500E+01 2.92160E+01 0.00000E+00
 -1      3991 6.22629E+01 3.04830E+01 0.00000E+00
 -1      3992 6.37629E+01 3.04830E+01 0.00000E+00
 -1      3993 6.42388E+01 2.91201E+01 0.00000E+00
 -1      3994 6.15129E+01 2.91840E+01 0.00000E+00
 -1      3995 1.26285E+02 1.82952E+01 0.00000E+00
 -1      3996 1.24785E+02 1.82952E+01 0.00000E+00
 -1      3997 1.06069E+02 2.03209E+01 0.00000E+00
 -1      3998 1.06275E+02 2.21861E+01 0.00000E+00
 -1      3999 1.27850E+02 3.02222E+01 0.00000E+00
 -1      4000 1.29732E+02 3.00333E+01 0.00000E+00
 -1      4001 1.29932E+02 2.81388E+01 0.00000E+00
 -1      4002 1.13400E+02 3.08177E+01 0.00000E+00
 -1      4003 1.14900E+02 3.08177E+01 0.00000E+00
 -1      4004 1.12650E+02 2.95187E+01 0.00000E+00
 -1      4005 1.16400E+02 3.08177E+01 0.00000E+00
 -1      4006 1.17900E+02 3.08177E+01 0.00000E+00
 -1      4007 1.15650E+02 2.95187E+01 0.00000E+00
 -1      4008 1.19400E+02 3.08177E+01 0.00000E+00
 -1      4009 1.20900E+02 3.08177E+01 0.00000E+00
 -1      4010 1.18650E+02 2.95187E+01 0.00000E+00
 -1      4011 1.22400E+02 3.08177E+01 0.00000E+00
 -1      4012 1.23900E+02 3.08177E+01 0.00000E+00
 -1      4013 1.21650E+02 2.95187E+01 0.00000E+00
 -1      4014 1.25125E+02 3.05199E+01 0.00000E+00
 -1      4015 1.26625E+02 3.05199E+01 0.00000E+00
 -1      4016 1.26826E+02 2.86254E+01 0.00000E+00
 -1      4017 1.24375E+02 2.92209E+01 0.00000E+00
 -1      4018 6.32850E+01 1.82952E+01 0.00000E+00
 -1      4019 6.17850E+01 1.82952E+01 0.00000E+00
 -1      4020 5.72850E+01 1.82952E+01 0.00000E+00
 -1      4021 5.57850E+01 1.82952E+01 0.00000E+00
 -1      4022 5.42850E+01 1.82952E+01 0.00000E+00
 -1      4023 5.27850E+01 1.82952E+01 0.00000E+00
 -1      4024 5.50350E+01 1.95942E+01 0.00000E+00
 -1      4025 1.32668E+02 2.29944E+01 0.00000E+00
 -1      4026 1.32668E+02 2.15241E+01 0.00000E+00
 -1      4027 1.30480E+02 2.11956E+01 0.00000E+00
 -1      4028 1.31369E+02 2.37319E+01 0.00000E+00
 -1      4029 6.75650E+01 2.14607E+01 0.00000E+00
 -1      4030 6.82926E+01 1.97158E+01 0.00000E+00
 -1      4031 6.68824E+01 1.85423E+01 0.00000E+00
 -1      4032 6.53824E+01 1.85423E+01 0.00000E+00
 -1      4033 1.69124E+01 2.82820E+01 0.00000E+00
 -1      4034 1.69124E+01 2.97508E+01 0.00000E+00
 -1      4035 1.81500E+01 3.00058E+01 0.00000E+00
 -1      4036 6.02850E+01 1.82952E+01 0.00000E+00
 -1      4037 5.87850E+01 1.82952E+01 0.00000E+00
 -1      4038 6.10350E+01 1.95942E+01 0.00000E+00
 -1      4039 1.11285E+02 1.82952E+01 0.00000E+00
 -1      4040 1.09785E+02 1.82952E+01 0.00000E+00
 -1      4041 1.69050E+01 2.61615E+01 0.00000E+00
 -1      4042 1.69267E+01 2.72933E+01 0.00000E+00
 -1      4043 1.81643E+01 2.75482E+01 0.00000E+00
 -1      4044 1.81929E+01 2.55707E+01 0.00000E+00
 -1      4045 1.23285E+02 1.82952E+01 0.00000E+00
 -1      4046 1.21785E+02 1.82952E+01 0.00000E+00
 -1      4047 1.24035E+02 1.95942E+01 0.00000E+00
 -1      4048 1.20285E+02 1.82952E+01 0.00000E+00
 -1      4049 1.18785E+02 1.82952E+01 0.00000E+00
 -1      4050 1.21035E+02 1.95942E+01 0.00000E+00
 -1      4051 1.28910E+02 1.83786E+01 0.00000E+00
 -1      4052 1.27410E+02 1.83786E+01 0.00000E+00
 -1      4053 1.26660E+02 1.96776E+01 0.00000E+00
 -1      4054 1.28910E+02 1.98442E+01 0.00000E+00
 -1      4055 2.10597E+01 1.81901E+01 0.00000E+00
 -1      4056 1.94104E+01 1.79974E+01 0.00000E+00
 -1      4057 3.47850E+01 1.56973E+01 0.00000E+00
 -1      4058 3.32850E+01 1.56973E+01 0.00000E+00
 -1      4059 3.25350E+01 1.69963E+01 0.00000E+00
 -1      4060 3.55350E+01 1.69963E+01 0.00000E+00
 -1      4061 1.05279E+02 1.80175E+01 0.00000E+00
 -1      4062 2.42851E+01 1.82953E+01 0.00000E+00
 -1      4063 2.27851E+01 1.82953E+01 0.00000E+00
 -1      4064 4.22850E+01 1.82952E+01 0.00000E+00
 -1      4065 4.07850E+01 1.82952E+01 0.00000E+00
 -1      4066 2.72851E+01 1.82953E+01 0.00000E+00
 -1      4067 2.57851E+01 1.82953E+01 0.00000E+00
 -1      4068 2.50351E+01 1.95943E+01 0.00000E+00
 -1      4069 1.06130E+02 2.43328E+01 0.00000E+00
 -1      4070 1.05713E+02 2.59969E+01 0.00000E+00
 -1      4071 1.06757E+02 2.70682E+01 0.00000E+00
 -1      4072 2.94000E+01 3.05150E+01 0.00000E+00
 -1      4073 3.09000E+01 3.05150E+01 0.00000E+00
 -1      4074 3.16500E+01 2.92160E+01 0.00000E+00
 -1      4075 1.17285E+02 1.82952E+01 0.00000E+00
 -1      4076 1.15785E+02 1.82952E+01 0.00000E+00
 -1      4077 1.18035E+02 1.95942E+01 0.00000E+00
 -1      4078 6.64068E+01 2.54921E+01 0.00000E+00
 -1      4079 6.69707E+01 2.35026E+01 0.00000E+00
 -1      4080 2.34000E+01 3.05150E+01 0.00000E+00
 -1      4081 2.49000E+01 3.05150E+01 0.00000E+00
 -1      4082 1.06145E+02 3.16056E+01 0.00000E+00
 -1      4083 1.78361E+01 1.84983E+01 0.00000E+00
 -1      4084 1.78361E+01 1.99733E+01 0.00000E+00
 -1      4085 1.14285E+02 1.82952E+01 0.00000E+00
 -1      4086 1.12785E+02 1.82952E+01 0.00000E+00
 -1      4087 1.15035E+02 1.95942E+01 0.00000E+00
 -1      4088 2.64000E+01 3.05150E+01 0.00000E+00
 -1      4089 2.79000E+01 3.05150E+01 0.00000E+00
 -1      4090 2.56500E+01 2.92160E+01 0.00000E+00
 -1      4091 6.79625E+01 1.84795E+01 0.00000E+00
 -1      4092 1.08999E+02 2.03526E+01 0.00000E+00
 -1      4093 1.08249E+02 1.90536E+01 0.00000E+00
 -1      4094 4.75350E+01 1.69963E+01 0.00000E+00
 -1      4095 1.08900E+02 3.08177E+01 0.00000E+00
 -1      4096 1.09650E+02 2.95187E+01 0.00000E+00
 -1      4097 2.86500E+01 2.92160E+01 0.00000E+00
 -1      4098 6.46324E+01 1.98413E+01 0.00000E+00
 -1      4099 6.61356E+01 2.21302E+01 0.00000E+00
 -1      4100 1.06855E+02 1.82636E+01 0.00000E+00
 -1      4101 1.07318E+02 2.32575E+01 0.00000E+00
 -1      4102 1.28051E+02 2.68526E+01 0.00000E+00
 -1      4103 1.29932E+02 2.66638E+01 0.00000E+00
 -1      4104 1.29932E+02 2.51888E+01 0.00000E+00
 -1      4105 5.80350E+01 1.95942E+01 0.00000E+00
 -1      4106 5.20350E+01 1.95942E+01 0.00000E+00
 -1      4107 5.12850E+01 1.82952E+01 0.00000E+00
 -1      4108 4.97850E+01 1.82952E+01 0.00000E+00
 -1      4109 1.92750E+01 2.86219E+01 0.00000E+00
 -1      4110 1.92750E+01 3.00906E+01 0.00000E+00
 -1      4111 2.04000E+01 3.01755E+01 0.00000E+00
 -1      4112 3.92850E+01 1.82952E+01 0.00000E+00
 -1      4113 3.77850E+01 1.82952E+01 0.00000E+00
 -1      4114 4.00350E+01 1.95942E+01 0.00000E+00
 -1      4115 1.07432E+02 3.10658E+01 0.00000E+00
 -1      4116 1.12035E+02 1.95942E+01 0.00000E+00
 -1      4117 2.18097E+01 1.94891E+01 0.00000E+00
 -1      4118 4.37850E+01 1.82952E+01 0.00000E+00
 -1      4119 4.30350E+01 1.95942E+01 0.00000E+00
 -1      4120 4.52850E+01 1.82952E+01 0.00000E+00
 -1      4121 2.87851E+01 1.82953E+01 0.00000E+00
 -1      4122 2.80351E+01 1.95943E+01 0.00000E+00
 -1      4123 3.02851E+01 1.82953E+01 0.00000E+00
 -1      4124 1.94989E+01 2.50951E+01 0.00000E+00
 -1      4125 1.94846E+01 2.60839E+01 0.00000E+00
 -1      4126 1.94989E+01 2.21576E+01 0.00000E+00
 -1      4127 1.94989E+01 2.36264E+01 0.00000E+00
 -1      4128 2.07906E+01 2.41395E+01 0.00000E+00
 -1      4129 6.49051E+01 2.78751E+01 0.00000E+00
 -1      4130 6.57404E+01 2.67371E+01 0.00000E+00
 -1      4131 6.48749E+01 2.54171E+01 0.00000E+00
 -1      4132 6.35422E+01 2.79071E+01 0.00000E+00
 -1      4133 1.07245E+02 2.91255E+01 0.00000E+00
 -1      4134 1.06863E+02 3.00584E+01 0.00000E+00
 -1      4135 2.13375E+01 3.03028E+01 0.00000E+00
 -1      4136 2.24625E+01 3.03877E+01 0.00000E+00
 -1      4137 2.32125E+01 2.90887E+01 0.00000E+00
 -1      4138 2.13375E+01 2.88341E+01 0.00000E+00
 -1      4139 4.82850E+01 1.82952E+01 0.00000E+00
 -1      4140 4.67850E+01 1.82952E+01 0.00000E+00
 -1      4141 4.60350E+01 1.95942E+01 0.00000E+00
 -1      4142 2.79000E+01 2.79170E+01 0.00000E+00
 -1      4143 2.94000E+01 2.79170E+01 0.00000E+00
 -1      4144 3.39000E+01 2.79170E+01 0.00000E+00
 -1      4145 3.54000E+01 2.79170E+01 0.00000E+00
 -1      4146 3.69000E+01 2.79170E+01 0.00000E+00
 -1      4147 3.84000E+01 2.79170E+01 0.00000E+00
 -1      4148 3.61500E+01 2.66180E+01 0.00000E+00
 -1      4149 3.99000E+01 2.79170E+01 0.00000E+00
 -1      4150 4.14000E+01 2.79170E+01 0.00000E+00
 -1      4151 3.91500E+01 2.66180E+01 0.00000E+00
 -1      4152 4.29000E+01 2.79170E+01 0.00000E+00
 -1      4153 4.44000E+01 2.79170E+01 0.00000E+00
 -1      4154 4.21500E+01 2.66180E+01 0.00000E+00
 -1      4155 4.59000E+01 2.79170E+01 0.00000E+00
 -1      4156 4.74000E+01 2.79170E+01 0.00000E+00
 -1      4157 4.51500E+01 2.66180E+01 0.00000E+00
 -1      4158 4.89000E+01 2.79170E+01 0.00000E+00
 -1      4159 5.04000E+01 2.79170E+01 0.00000E+00
 -1      4160 4.81500E+01 2.66180E+01 0.00000E+00
 -1      4161 5.19000E+01 2.79170E+01 0.00000E+00
 -1      4162 5.34000E+01 2.79170E+01 0.00000E+00
 -1      4163 5.11500E+01 2.66180E+01 0.00000E+00
 -1      4164 5.49000E+01 2.79170E+01 0.00000E+00
 -1      4165 5.64000E+01 2.79170E+01 0.00000E+00
 -1      4166 5.41500E+01 2.66180E+01 0.00000E+00
 -1      4167 5.79000E+01 2.79170E+01 0.00000E+00
 -1      4168 5.94000E+01 2.79170E+01 0.00000E+00
 -1      4169 5.71500E+01 2.66180E+01 0.00000E+00
 -1      4170 1.11900E+02 2.82197E+01 0.00000E+00
 -1      4171 1.13400E+02 2.82197E+01 0.00000E+00
 -1      4172 1.14900E+02 2.82197E+01 0.00000E+00
 -1      4173 1.16400E+02 2.82197E+01 0.00000E+00
 -1      4174 1.14150E+02 2.69207E+01 0.00000E+00
 -1      4175 1.17900E+02 2.82197E+01 0.00000E+00
 -1      4176 1.19400E+02 2.82197E+01 0.00000E+00
 -1      4177 1.17150E+02 2.69207E+01 0.00000E+00
 -1      4178 1.20900E+02 2.82197E+01 0.00000E+00
 -1      4179 1.22400E+02 2.82197E+01 0.00000E+00
 -1      4180 1.20150E+02 2.69207E+01 0.00000E+00
 -1      4181 6.40381E+01 2.18832E+01 0.00000E+00
 -1      4182 5.87850E+01 2.08932E+01 0.00000E+00
 -1      4183 5.72850E+01 2.08932E+01 0.00000E+00
 -1      4184 1.91458E+01 2.05142E+01 0.00000E+00
 -1      4185 1.92893E+01 2.76331E+01 0.00000E+00
 -1      4186 1.21785E+02 2.08932E+01 0.00000E+00
 -1      4187 1.20285E+02 2.08932E+01 0.00000E+00
 -1      4188 3.09000E+01 2.79170E+01 0.00000E+00
 -1      4189 3.24000E+01 2.79170E+01 0.00000E+00
 -1      4190 3.31500E+01 2.66180E+01 0.00000E+00
 -1      4191 1.08079E+02 2.57972E+01 0.00000E+00
 -1      4192 1.07662E+02 2.74614E+01 0.00000E+00
 -1      4193 1.08567E+02 2.78545E+01 0.00000E+00
 -1      4194 1.24785E+02 2.08932E+01 0.00000E+00
 -1      4195 1.23285E+02 2.08932E+01 0.00000E+00
 -1      4196 1.22535E+02 2.21922E+01 0.00000E+00
 -1      4197 5.57850E+01 2.08932E+01 0.00000E+00
 -1      4198 5.42850E+01 2.08932E+01 0.00000E+00
 -1      4199 5.65350E+01 2.21922E+01 0.00000E+00
 -1      4200 1.12785E+02 2.08932E+01 0.00000E+00
 -1      4201 1.11285E+02 2.08932E+01 0.00000E+00
 -1      4202 2.57851E+01 2.08933E+01 0.00000E+00
 -1      4203 2.42851E+01 2.08933E+01 0.00000E+00
 -1      4204 1.08611E+02 2.20016E+01 0.00000E+00
 -1      4205 1.08466E+02 2.41482E+01 0.00000E+00
 -1      4206 1.09371E+02 2.45414E+01 0.00000E+00
 -1      4207 1.10147E+02 2.12433E+01 0.00000E+00
 -1      4208 1.18785E+02 2.08932E+01 0.00000E+00
 -1      4209 1.17285E+02 2.08932E+01 0.00000E+00
 -1      4210 1.19535E+02 2.21922E+01 0.00000E+00
 -1      4211 1.10067E+02 2.78545E+01 0.00000E+00
 -1      4212 2.05953E+01 2.71575E+01 0.00000E+00
 -1      4213 1.15785E+02 2.08932E+01 0.00000E+00
 -1      4214 1.14285E+02 2.08932E+01 0.00000E+00
 -1      4215 1.13535E+02 2.21922E+01 0.00000E+00
 -1      4216 2.49000E+01 2.79170E+01 0.00000E+00
 -1      4217 2.64000E+01 2.79170E+01 0.00000E+00
 -1      4218 2.71500E+01 2.66180E+01 0.00000E+00
 -1      4219 6.37039E+01 2.37407E+01 0.00000E+00
 -1      4220 6.22008E+01 2.14518E+01 0.00000E+00
 -1      4221 2.04375E+01 2.10274E+01 0.00000E+00
 -1      4222 6.07008E+01 2.14518E+01 0.00000E+00
 -1      4223 6.00129E+01 2.65860E+01 0.00000E+00
 -1      4224 6.07629E+01 2.78850E+01 0.00000E+00
 -1      4225 6.21258E+01 2.78530E+01 0.00000E+00
 -1      4226 2.21629E+01 2.11325E+01 0.00000E+00
 -1      4227 1.10817E+02 2.65555E+01 0.00000E+00
 -1      4228 2.29129E+01 2.24315E+01 0.00000E+00
 -1      4229 1.26826E+02 2.71504E+01 0.00000E+00
 -1      4230 1.26826E+02 2.56754E+01 0.00000E+00
 -1      4231 1.25600E+02 2.74482E+01 0.00000E+00
 -1      4232 2.72851E+01 2.08933E+01 0.00000E+00
 -1      4233 2.65351E+01 2.21923E+01 0.00000E+00
 -1      4234 2.87851E+01 2.08933E+01 0.00000E+00
 -1      4235 1.23388E+02 2.79828E+01 0.00000E+00
 -1      4236 1.24613E+02 2.76850E+01 0.00000E+00
 -1      4237 1.24613E+02 2.62100E+01 0.00000E+00
 -1      4238 1.22638E+02 2.66838E+01 0.00000E+00
 -1      4239 5.27850E+01 2.08932E+01 0.00000E+00
 -1      4240 5.12850E+01 2.08932E+01 0.00000E+00
 -1      4241 5.35350E+01 2.21922E+01 0.00000E+00
 -1      4242 1.29799E+02 2.23804E+01 0.00000E+00
 -1      4243 1.29355E+02 2.11123E+01 0.00000E+00
 -1      4244 1.28230E+02 2.10290E+01 0.00000E+00
 -1      4245 1.29488E+02 2.39207E+01 0.00000E+00
 -1      4246 2.30250E+01 2.76624E+01 0.00000E+00
 -1      4247 2.39625E+01 2.77897E+01 0.00000E+00
 -1      4248 2.47125E+01 2.64907E+01 0.00000E+00
 -1      4249 5.99508E+01 2.27508E+01 0.00000E+00
 -1      4250 4.07850E+01 2.08932E+01 0.00000E+00
 -1      4251 3.92850E+01 2.08932E+01 0.00000E+00
 -1      4252 3.01500E+01 2.66180E+01 0.00000E+00
 -1      4253 4.90350E+01 1.95942E+01 0.00000E+00
 -1      4254 3.62850E+01 1.82953E+01 0.00000E+00
 -1      4255 3.47850E+01 1.82953E+01 0.00000E+00
 -1      4256 3.70350E+01 1.95943E+01 0.00000E+00
 -1      4257 3.17850E+01 1.82953E+01 0.00000E+00
 -1      4258 3.10350E+01 1.95943E+01 0.00000E+00
 -1      4259 3.32850E+01 1.82953E+01 0.00000E+00
 -1      4260 6.30375E+01 2.49857E+01 0.00000E+00
 -1      4261 1.25910E+02 2.09766E+01 0.00000E+00
 -1      4262 1.25160E+02 2.22756E+01 0.00000E+00
 -1      4263 1.27035E+02 2.10599E+01 0.00000E+00
 -1      4264 1.10897E+02 2.25423E+01 0.00000E+00
 -1      4265 1.16535E+02 2.21922E+01 0.00000E+00
 -1      4266 4.37850E+01 2.08932E+01 0.00000E+00
 -1      4267 4.22850E+01 2.08932E+01 0.00000E+00
 -1      4268 4.15350E+01 2.21922E+01 0.00000E+00
 -1      4269 3.84000E+01 2.53190E+01 0.00000E+00
 -1      4270 3.99000E+01 2.53190E+01 0.00000E+00
 -1      4271 4.18425E+01 2.44051E+01 0.00000E+00
 -1      4272 4.33425E+01 2.44051E+01 0.00000E+00
 -1      4273 4.74000E+01 2.53190E+01 0.00000E+00
 -1      4274 4.89000E+01 2.53190E+01 0.00000E+00
 -1      4275 5.08425E+01 2.44051E+01 0.00000E+00
 -1      4276 5.23425E+01 2.44051E+01 0.00000E+00
 -1      4277 5.38425E+01 2.44051E+01 0.00000E+00
 -1      4278 5.53425E+01 2.44051E+01 0.00000E+00
 -1      4279 5.68425E+01 2.44051E+01 0.00000E+00
 -1      4280 5.83425E+01 2.44051E+01 0.00000E+00
 -1      4281 1.16400E+02 2.56217E+01 0.00000E+00
 -1      4282 1.17900E+02 2.56217E+01 0.00000E+00
 -1      4283 1.19842E+02 2.45565E+01 0.00000E+00
 -1      4284 1.21342E+02 2.45565E+01 0.00000E+00
 -1      4285 2.94000E+01 2.53190E+01 0.00000E+00
 -1      4286 3.09000E+01 2.53190E+01 0.00000E+00
 -1      4287 3.85350E+01 2.21923E+01 0.00000E+00
 -1      4288 3.77850E+01 2.08933E+01 0.00000E+00
 -1      4289 3.62850E+01 2.08933E+01 0.00000E+00
 -1      4290 4.93425E+01 2.18071E+01 0.00000E+00
 -1      4291 4.78425E+01 2.18071E+01 0.00000E+00
 -1      4292 3.24000E+01 2.53190E+01 0.00000E+00
 -1      4293 3.39000E+01 2.53190E+01 0.00000E+00
 -1      4294 3.16500E+01 2.40200E+01 0.00000E+00
 -1      4295 1.14285E+02 2.34912E+01 0.00000E+00
 -1      4296 1.12785E+02 2.34912E+01 0.00000E+00
 -1      4297 2.20896E+01 2.34052E+01 0.00000E+00
 -1      4298 2.20896E+01 2.48739E+01 0.00000E+00
 -1      4299 2.68425E+01 2.44051E+01 0.00000E+00
 -1      4300 2.83425E+01 2.44051E+01 0.00000E+00
 -1      4301 6.27922E+01 2.66081E+01 0.00000E+00
 -1      4302 1.13092E+02 2.58555E+01 0.00000E+00
 -1      4303 1.14592E+02 2.58555E+01 0.00000E+00
 -1      4304 1.11205E+02 2.49065E+01 0.00000E+00
 -1      4305 4.65638E+01 2.13502E+01 0.00000E+00
 -1      4306 4.50638E+01 2.13502E+01 0.00000E+00
 -1      4307 4.43138E+01 2.26492E+01 0.00000E+00
 -1      4308 4.68713E+01 2.35631E+01 0.00000E+00
 -1      4309 1.22842E+02 2.45565E+01 0.00000E+00
 -1      4310 3.54000E+01 2.53190E+01 0.00000E+00
 -1      4311 3.69000E+01 2.53190E+01 0.00000E+00
 -1      4312 3.76500E+01 2.40200E+01 0.00000E+00
 -1      4313 3.46500E+01 2.40200E+01 0.00000E+00
 -1      4314 1.17592E+02 2.32575E+01 0.00000E+00
 -1      4315 1.16092E+02 2.32575E+01 0.00000E+00
 -1      4316 2.22828E+01 2.59858E+01 0.00000E+00
 -1      4317 2.20875E+01 2.75351E+01 0.00000E+00
 -1      4318 6.02583E+01 2.49636E+01 0.00000E+00
 -1      4319 2.35818E+01 2.52515E+01 0.00000E+00
 -1      4320 4.46213E+01 2.48621E+01 0.00000E+00
 -1      4321 5.00925E+01 2.31061E+01 0.00000E+00
 -1      4322 4.61213E+01 2.48621E+01 0.00000E+00
 -1      4323 3.95925E+01 2.31061E+01 0.00000E+00
 -1      4324 3.80925E+01 2.31061E+01 0.00000E+00
 -1      4325 2.90925E+01 2.31061E+01 0.00000E+00
 -1      4326 2.45193E+01 2.53788E+01 0.00000E+00
 -1      4327 3.04388E+01 2.07007E+01 0.00000E+00
 -1      4328 2.96888E+01 2.19997E+01 0.00000E+00
 -1      4329 3.07463E+01 2.29136E+01 0.00000E+00
 -1      4330 3.19388E+01 2.07007E+01 0.00000E+00
 -1      4331 1.18342E+02 2.45565E+01 0.00000E+00
 -1      4332 1.15342E+02 2.45565E+01 0.00000E+00
 -1      4333 2.42119E+01 2.31659E+01 0.00000E+00
 -1      4334 2.53425E+01 2.44051E+01 0.00000E+00
 -1      4335 1.27480E+02 2.23280E+01 0.00000E+00
 -1      4336 1.28363E+02 2.38374E+01 0.00000E+00
 -1      4337 3.40350E+01 1.95943E+01 0.00000E+00
 -1      4338 6.16212E+01 2.49317E+01 0.00000E+00
 -1      4339 1.12342E+02 2.45565E+01 0.00000E+00
 -1      4340 1.25943E+02 2.41660E+01 0.00000E+00
 -1      4341 1.27168E+02 2.38683E+01 0.00000E+00
 -1      4342 1.24818E+02 2.40827E+01 0.00000E+00
 -1      4343 1.23830E+02 2.43196E+01 0.00000E+00
 -1      4344 3.48619E+01 2.07970E+01 0.00000E+00
 -1      4345 3.33619E+01 2.07970E+01 0.00000E+00
 -1      4346 3.27656E+01 2.19034E+01 0.00000E+00
 -1      4347 3.56119E+01 2.20960E+01 0.00000E+00
 -1      4348 4.10925E+01 2.31061E+01 0.00000E+00
 -1      4349 3.22463E+01 2.29136E+01 0.00000E+00
 -1      4350 3.65925E+01 2.31061E+01 0.00000E+00
 -1      4351 3.51694E+01 2.30098E+01 0.00000E+00
 -1      4352 3.36694E+01 2.30098E+01 0.00000E+00
 -3
    3C                          2094                                     1
 -1       165    8    0    1
 -2         6         7        23      1130      1294      1147
 -1       166    8    0    1
 -2         7         8       165      1131      1295      1296
 -1       167    8    0    1
 -2         8         9       166      1132      1297      1298
 -1       168    8    0    1
 -2         8       166       165      1298      1299      1295
 -1       169    8    0    1
 -2         9        10       167      1133      1300      1301
 -1       170    8    0    1
 -2         9       167       166      1301      1302      1297
 -1       171    8    0    1
 -2        10        11       168      1134      1303      1304
 -1       172    8    0    1
 -2        10       168       167      1304      1305      1300
 -1       173    8    0    1
 -2        11        12       169      1135      1306      1307
 -1       174    8    0    1
 -2        11       169       168      1307      1308      1303
 -1       175    8    0    1
 -2        12        13       170      1136      1309      1310
 -1       176    8    0    1
 -2        12       170       169      1310      1311      1306
 -1       177    8    0    1
 -2        13        14       171      1137      1312      1313
 -1       178    8    0    1
 -2        13       171       170      1313      1314      1309
 -1       179    8    0    1
 -2        14        15       172      1138      1315      1316
 -1       180    8    0    1
 -2        14       172       171      1316      1317      1312
 -1       181    8    0    1
 -2        15        16       173      1139      1318      1319
 -1       182    8    0    1
 -2        15       173       172      1319      1320      1315
 -1       183    8    0    1
 -2        16        17       174      1140      1321      1322
 -1       184    8    0    1
 -2        16       174       173      1322      1323      1318
 -1       185    8    0    1
 -2        17        18       175      1141      1324      1325
 -1       186    8    0    1
 -2        17       175       174      1325      1326      1321
 -1       187    8    0    1
 -2        18        19       176      1142      1327      1328
 -1       188    8    0    1
 -2        18       176       175      1328      1329      1324
 -1       189    8    0    1
 -2        19        20       177      1143      1330      1331
 -1       190    8    0    1
 -2        19       177       176      1331      1332      1327
 -1       191    8    0    1
 -2        20        21       178      1144      1333      1334
 -1       192    8    0    1
 -2        20       178       177      1334      1335      1330
 -1       193    8    0    1
 -2        21        22       179      1145      1336      1337
 -1       194    8    0    1
 -2        21       179       178      1337      1338      1333
 -1       195    8    0    1
 -2        22         5       180      1146      1339      1340
 -1       196    8    0    1
 -2       179        22       180      1336      1340      1341
 -1       197    8    0    1
 -2         5        72       180      1197      1342      1339
 -1       198    8    0    1
 -2        24        23       181      1148      1343      1344
 -1       199    8    0    1
 -2        25        24       182      1149      1345      1346
 -1       200    8    0    1
 -2        24       181       182      1344      1347      1345
 -1       201    8    0    1
 -2        26        25       183      1150      1348      1349
 -1       202    8    0    1
 -2        25       182       183      1346      1350      1348
 -1       203    8    0    1
 -2        27        26       184      1151      1351      1352
 -1       204    8    0    1
 -2        26       183       184      1349      1353      1351
 -1       205    8    0    1
 -2        28        27       185      1152      1354      1355
 -1       206    8    0    1
 -2        27       184       185      1352      1356      1354
 -1       207    8    0    1
 -2        29        28       186      1153      1357      1358
 -1       208    8    0    1
 -2        28       185       186      1355      1359      1357
 -1       209    8    0    1
 -2        30        29       187      1154      1360      1361
 -1       210    8    0    1
 -2        29       186       187      1358      1362      1360
 -1       211    8    0    1
 -2        31        30       188      1155      1363      1364
 -1       212    8    0    1
 -2        30       187       188      1361      1365      1363
 -1       213    8    0    1
 -2        32        31       189      1156      1366      1367
 -1       214    8    0    1
 -2        31       188       189      1364      1368      1366
 -1       215    8    0    1
 -2        33        32       190      1157      1369      1370
 -1       216    8    0    1
 -2        32       189       190      1367      1371      1369
 -1       217    8    0    1
 -2        34        33       191      1158      1372      1373
 -1       218    8    0    1
 -2        33       190       191      1370      1374      1372
 -1       219    8    0    1
 -2        35        34       192      1159      1375      1376
 -1       220    8    0    1
 -2        34       191       192      1373      1377      1375
 -1       221    8    0    1
 -2        36        35       193      1160      1378      1379
 -1       222    8    0    1
 -2        35       192       193      1376      1380      1378
 -1       223    8    0    1
 -2        37        36       194      1161      1381      1382
 -1       224    8    0    1
 -2        36       193       194      1379      1383      1381
 -1       225    8    0    1
 -2        38        37       195      1162      1384      1385
 -1       226    8    0    1
 -2        37       194       195      1382      1386      1384
 -1       227    8    0    1
 -2        39        38       196      1163      1387      1388
 -1       228    8    0    1
 -2        38       195       196      1385      1389      1387
 -1       229    8    0    1
 -2        40        39       197      1164      1390      1391
 -1       230    8    0    1
 -2        39       196       197      1388      1392      1390
 -1       231    8    0    1
 -2        41        40       198      1165      1393      1394
 -1       232    8    0    1
 -2        40       197       198      1391      1395      1393
 -1       233    8    0    1
 -2        42        41       199      1166      1396      1397
 -1       234    8    0    1
 -2        41       198       199      1394      1398      1396
 -1       235    8    0    1
 -2        43        42       200      1167      1399      1400
 -1       236    8    0    1
 -2        42       199       200      1397      1401      1399
 -1       237    8    0    1
 -2        44        43       201      1168      1402      1403
 -1       238    8    0    1
 -2        43       200       201      1400      1404      1402
 -1       239    8    0    1
 -2        45        44       202      1169      1405      1406
 -1       240    8    0    1
 -2        44       201       202      1403      1407      1405
 -1       241    8    0    1
 -2        46        45       203      1170      1408      1409
 -1       242    8    0    1
 -2        45       202       203      1406      1410      1408
 -1       243    8    0    1
 -2        47        46       204      1171      1411      1412
 -1       244    8    0    1
 -2        46       203       204      1409      1413      1411
 -1       245    8    0    1
 -2        48        47       205      1172      1414      1415
 -1       246    8    0    1
 -2        47       204       205      1412      1416      1414
 -1       247    8    0    1
 -2        49        48       206      1173      1417      1418
 -1       248    8    0    1
 -2        48       205       206      1415      1419      1417
 -1       249    8    0    1
 -2        50        49       207      1174      1420      1421
 -1       250    8    0    1
 -2        49       206       207      1418      1422      1420
 -1       251    8    0    1
 -2        51        50       208      1175      1423      1424
 -1       252    8    0    1
 -2        50       207       208      1421      1425      1423
 -1       253    8    0    1
 -2        52        51       209      1176      1426      1427
 -1       254    8    0    1
 -2        51       208       209      1424      1428      1426
 -1       255    8    0    1
 -2        53        52       210      1177      1429      1430
 -1       256    8    0    1
 -2        52       209       210      1427      1431      1429
 -1       257    8    0    1
 -2        54        53       211      1178      1432      1433
 -1       258    8    0    1
 -2        53       210       211      1430      1434      1432
 -1       259    8    0    1
 -2        55        54       212      1179      1435      1436
 -1       260    8    0    1
 -2        54       211       212      1433      1437      1435
 -1       261    8    0    1
 -2        56        55       213      1180      1438      1439
 -1       262    8    0    1
 -2        55       212       213      1436      1440      1438
 -1       263    8    0    1
 -2        57        56       214      1181      1441      1442
 -1       264    8    0    1
 -2        56       213       214      1439      1443      1441
 -1       265    8    0    1
 -2        58        57       215      1182      1444      1445
 -1       266    8    0    1
 -2        57       214       215      1442      1446      1444
 -1       267    8    0    1
 -2        59        58       216      1183      1447      1448
 -1       268    8    0    1
 -2        58       215       216      1445      1449      1447
 -1       269    8    0    1
 -2        60        59       217      1184      1450      1451
 -1       270    8    0    1
 -2        59       216       217      1448      1452      1450
 -1       271    8    0    1
 -2        61        60       218      1185      1453      1454
 -1       272    8    0    1
 -2        60       217       218      1451      1455      1453
 -1       273    8    0    1
 -2        62        61       219      1186      1456      1457
 -1       274    8    0    1
 -2        61       218       219      1454      1458      1456
 -1       275    8    0    1
 -2        63        62       220      1187      1459      1460
 -1       276    8    0    1
 -2        62       219       220      1457      1461      1459
 -1       277    8    0    1
 -2        64        63       221      1188      1462      1463
 -1       278    8    0    1
 -2        63       220       221      1460      1464      1462
 -1       279    8    0    1
 -2        65        64       222      1189      1465      1466
 -1       280    8    0    1
 -2        64       221       222      1463      1467      1465
 -1       281    8    0    1
 -2        66        65       223      1190      1468      1469
 -1       282    8    0    1
 -2        65       222       223      1466      1470      1468
 -1       283    8    0    1
 -2        67        66       224      1191      1471      1472
 -1       284    8    0    1
 -2        66       223       224      1469      1473      1471
 -1       285    8    0    1
 -2        68        67       225      1192      1474      1475
 -1       286    8    0    1
 -2        67       224       225      1472      1476      1474
 -1       287    8    0    1
 -2        69        68       226      1193      1477      1478
 -1       288    8    0    1
 -2        68       225       226      1475      1479      1477
 -1       289    8    0    1
 -2        70        69       227      1194      1480      1481
 -1       290    8    0    1
 -2        69       226       227      1478      1482      1480
 -1       291    8    0    1
 -2        71        70       228      1195      1483      1484
 -1       292    8    0    1
 -2        70       227       228      1481      1485      1483
 -1       293    8    0    1
 -2         4        71       136      1196      1486      1263
 -1       294    8    0    1
 -2       136        71       228      1486      1484      1487
 -1       295    8    0    1
 -2        72        73       229      1198      1488      1489
 -1       296    8    0    1
 -2        72       229       180      1489      1490      1342
 -1       297    8    0    1
 -2        73        74       230      1199      1491      1492
 -1       298    8    0    1
 -2        73       230       229      1492      1493      1488
 -1       299    8    0    1
 -2        74        75       231      1200      1494      1495
 -1       300    8    0    1
 -2        74       231       230      1495      1496      1491
 -1       301    8    0    1
 -2        75        76       232      1201      1497      1498
 -1       302    8    0    1
 -2        75       232       231      1498      1499      1494
 -1       303    8    0    1
 -2        76        77       233      1202      1500      1501
 -1       304    8    0    1
 -2        76       233       232      1501      1502      1497
 -1       305    8    0    1
 -2        77        78       234      1203      1503      1504
 -1       306    8    0    1
 -2        77       234       233      1504      1505      1500
 -1       307    8    0    1
 -2        78        79       235      1204      1506      1507
 -1       308    8    0    1
 -2        78       235       234      1507      1508      1503
 -1       309    8    0    1
 -2        79        80       236      1205      1509      1510
 -1       310    8    0    1
 -2        79       236       235      1510      1511      1506
 -1       311    8    0    1
 -2        80        81       237      1206      1512      1513
 -1       312    8    0    1
 -2        80       237       236      1513      1514      1509
 -1       313    8    0    1
 -2        81        82       238      1207      1515      1516
 -1       314    8    0    1
 -2        81       238       237      1516      1517      1512
 -1       315    8    0    1
 -2        82        83       239      1208      1518      1519
 -1       316    8    0    1
 -2        82       239       238      1519      1520      1515
 -1       317    8    0    1
 -2        83        84       240      1209      1521      1522
 -1       318    8    0    1
 -2        83       240       239      1522      1523      1518
 -1       319    8    0    1
 -2        84        85       241      1210      1524      1525
 -1       320    8    0    1
 -2        84       241       240      1525      1526      1521
 -1       321    8    0    1
 -2        85        86       242      1211      1527      1528
 -1       322    8    0    1
 -2        85       242       241      1528      1529      1524
 -1       323    8    0    1
 -2        86        87       243      1212      1530      1531
 -1       324    8    0    1
 -2        86       243       242      1531      1532      1527
 -1       325    8    0    1
 -2        87        88       244      1213      1533      1534
 -1       326    8    0    1
 -2        87       244       243      1534      1535      1530
 -1       327    8    0    1
 -2        88        89       245      1214      1536      1537
 -1       328    8    0    1
 -2        88       245       244      1537      1538      1533
 -1       329    8    0    1
 -2        89        90       246      1215      1539      1540
 -1       330    8    0    1
 -2        89       246       245      1540      1541      1536
 -1       331    8    0    1
 -2        90        91       247      1216      1542      1543
 -1       332    8    0    1
 -2        90       247       246      1543      1544      1539
 -1       333    8    0    1
 -2        91        92       248      1217      1545      1546
 -1       334    8    0    1
 -2        91       248       247      1546      1547      1542
 -1       335    8    0    1
 -2        92        93       249      1218      1548      1549
 -1       336    8    0    1
 -2        92       249       248      1549      1550      1545
 -1       337    8    0    1
 -2        93        94       250      1219      1551      1552
 -1       338    8    0    1
 -2        93       250       249      1552      1553      1548
 -1       339    8    0    1
 -2        94        95       251      1220      1554      1555
 -1       340    8    0    1
 -2        94       251       250      1555      1556      1551
 -1       341    8    0    1
 -2        95        96       252      1221      1557      1558
 -1       342    8    0    1
 -2        95       252       251      1558      1559      1554
 -1       343    8    0    1
 -2        96        97       253      1222      1560      1561
 -1       344    8    0    1
 -2        96       253       252      1561      1562      1557
 -1       345    8    0    1
 -2        97        98       254      1223      1563      1564
 -1       346    8    0    1
 -2        97       254       253      1564      1565      1560
 -1       347    8    0    1
 -2        98        99       255      1224      1566      1567
 -1       348    8    0    1
 -2        98       255       254      1567      1568      1563
 -1       349    8    0    1
 -2        99       100       256      1225      1569      1570
 -1       350    8    0    1
 -2        99       256       255      1570      1571      1566
 -1       351    8    0    1
 -2       100       101       257      1226      1572      1573
 -1       352    8    0    1
 -2       100       257       256      1573      1574      1569
 -1       353    8    0    1
 -2       101       102       258      1227      1575      1576
 -1       354    8    0    1
 -2       101       258       257      1576      1577      1572
 -1       355    8    0    1
 -2       102       103       259      1228      1578      1579
 -1       356    8    0    1
 -2       102       259       258      1579      1580      1575
 -1       357    8    0    1
 -2       103       104       260      1229      1581      1582
 -1       358    8    0    1
 -2       103       260       259      1582      1583      1578
 -1       359    8    0    1
 -2       104       105       261      1230      1584      1585
 -1       360    8    0    1
 -2       104       261       260      1585      1586      1581
 -1       361    8    0    1
 -2       105       106       262      1231      1587      1588
 -1       362    8    0    1
 -2       105       262       261      1588      1589      1584
 -1       363    8    0    1
 -2       106       107       263      1232      1590      1591
 -1       364    8    0    1
 -2       106       263       262      1591      1592      1587
 -1       365    8    0    1
 -2       107       108       264      1233      1593      1594
 -1       366    8    0    1
 -2       107       264       263      1594      1595      1590
 -1       367    8    0    1
 -2       108       109       265      1234      1596      1597
 -1       368    8    0    1
 -2       108       265       264      1597      1598      1593
 -1       369    8    0    1
 -2       109       110       266      1235      1599      1600
 -1       370    8    0    1
 -2       109       266       265      1600      1601      1596
 -1       371    8    0    1
 -2       110       111       267      1236      1602      1603
 -1       372    8    0    1
 -2       110       267       266      1603      1604      1599
 -1       373    8    0    1
 -2       111       112       268      1237      1605      1606
 -1       374    8    0    1
 -2       111       268       267      1606      1607      1602
 -1       375    8    0    1
 -2       112       113       269      1238      1608      1609
 -1       376    8    0    1
 -2       112       269       268      1609      1610      1605
 -1       377    8    0    1
 -2       113       114       270      1239      1611      1612
 -1       378    8    0    1
 -2       113       270       269      1612      1613      1608
 -1       379    8    0    1
 -2       114       115       271      1240      1614      1615
 -1       380    8    0    1
 -2       114       271       270      1615      1616      1611
 -1       381    8    0    1
 -2       115       116       272      1241      1617      1618
 -1       382    8    0    1
 -2       115       272       271      1618      1619      1614
 -1       383    8    0    1
 -2       116       117       273      1242      1620      1621
 -1       384    8    0    1
 -2       116       273       272      1621      1622      1617
 -1       385    8    0    1
 -2       117       118       274      1243      1623      1624
 -1       386    8    0    1
 -2       117       274       273      1624      1625      1620
 -1       387    8    0    1
 -2       118       119       275      1244      1626      1627
 -1       388    8    0    1
 -2       118       275       274      1627      1628      1623
 -1       389    8    0    1
 -2       119       120       276      1245      1629      1630
 -1       390    8    0    1
 -2       119       276       275      1630      1631      1626
 -1       391    8    0    1
 -2       120         3       121      1246      1247      1632
 -1       392    8    0    1
 -2       121       122       277      1248      1633      1634
 -1       393    8    0    1
 -2       122       123       278      1249      1635      1636
 -1       394    8    0    1
 -2       122       278       277      1636      1637      1633
 -1       395    8    0    1
 -2       123       124       279      1250      1638      1639
 -1       396    8    0    1
 -2       123       279       278      1639      1640      1635
 -1       397    8    0    1
 -2       124       125       280      1251      1641      1642
 -1       398    8    0    1
 -2       124       280       279      1642      1643      1638
 -1       399    8    0    1
 -2       125       126       281      1252      1644      1645
 -1       400    8    0    1
 -2       125       281       280      1645      1646      1641
 -1       401    8    0    1
 -2       126       127       282      1253      1647      1648
 -1       402    8    0    1
 -2       126       282       281      1648      1649      1644
 -1       403    8    0    1
 -2       127       128       283      1254      1650      1651
 -1       404    8    0    1
 -2       127       283       282      1651      1652      1647
 -1       405    8    0    1
 -2       128       129       284      1255      1653      1654
 -1       406    8    0    1
 -2       128       284       283      1654      1655      1650
 -1       407    8    0    1
 -2       129       130       285      1256      1656      1657
 -1       408    8    0    1
 -2       129       285       284      1657      1658      1653
 -1       409    8    0    1
 -2       130       131       286      1257      1659      1660
 -1       410    8    0    1
 -2       130       286       285      1660      1661      1656
 -1       411    8    0    1
 -2       131       132       287      1258      1662      1663
 -1       412    8    0    1
 -2       131       287       286      1663      1664      1659
 -1       413    8    0    1
 -2       132       133       288      1259      1665      1666
 -1       414    8    0    1
 -2       132       288       287      1666      1667      1662
 -1       415    8    0    1
 -2       133       134       289      1260      1668      1669
 -1       416    8    0    1
 -2       133       289       288      1669      1670      1665
 -1       417    8    0    1
 -2       134       135       290      1261      1671      1672
 -1       418    8    0    1
 -2       134       290       289      1672      1673      1668
 -1       419    8    0    1
 -2       135       136       291      1262      1674      1675
 -1       420    8    0    1
 -2       290       135       291      1671      1675      1676
 -1       421    8    0    1
 -2       136       228       291      1487      1677      1674
 -1       422    8    0    1
 -2         2       137       292      1264      1678      1679
 -1       423    8    0    1
 -2       137       138       293      1265      1680      1681
 -1       424    8    0    1
 -2       138       139       294      1266      1682      1683
 -1       425    8    0    1
 -2       139       140       295      1267      1684      1685
 -1       426    8    0    1
 -2       140       141       296      1268      1686      1687
 -1       427    8    0    1
 -2       141       142       297      1269      1688      1689
 -1       428    8    0    1
 -2       142       143       298      1270      1690      1691
 -1       429    8    0    1
 -2       143       144       299      1271      1692      1693
 -1       430    8    0    1
 -2       144       145       300      1272      1694      1695
 -1       431    8    0    1
 -2       145       146       301      1273      1696      1697
 -1       432    8    0    1
 -2       146       147       302      1274      1698      1699
 -1       433    8    0    1
 -2       147       148       303      1275      1700      1701
 -1       434    8    0    1
 -2       148       149       304      1276      1702      1703
 -1       435    8    0    1
 -2       149       150       305      1277      1704      1705
 -1       436    8    0    1
 -2       150       151       306      1278      1706      1707
 -1       437    8    0    1
 -2       151       152       307      1279      1708      1709
 -1       438    8    0    1
 -2       152       153       308      1280      1710      1711
 -1       439    8    0    1
 -2       153       154       309      1281      1712      1713
 -1       440    8    0    1
 -2       154       155       310      1282      1714      1715
 -1       441    8    0    1
 -2       155         1       311      1283      1716      1717
 -1       442    8    0    1
 -2         1       156       312      1284      1718      1719
 -1       443    8    0    1
 -2       156       157       313      1285      1720      1721
 -1       444    8    0    1
 -2       157       158       314      1286      1722      1723
 -1       445    8    0    1
 -2       158       159       315      1287      1724      1725
 -1       446    8    0    1
 -2       159       160       316      1288      1726      1727
 -1       447    8    0    1
 -2       160       161       317      1289      1728      1729
 -1       448    8    0    1
 -2       161       162       318      1290      1730      1731
 -1       449    8    0    1
 -2       162       163       319      1291      1732      1733
 -1       450    8    0    1
 -2       163       164       320      1292      1734      1735
 -1       451    8    0    1
 -2       164         2       321      1293      1736      1737
 -1       452    8    0    1
 -2       295       140       296      1684      1687      1738
 -1       453    8    0    1
 -2       294       139       295      1682      1685      1739
 -1       454    8    0    1
 -2       120       121       276      1632      1740      1629
 -1       455    8    0    1
 -2       121       277       276      1634      1741      1740
 -1       456    8    0    1
 -2       292       137       293      1678      1681      1742
 -1       457    8    0    1
 -2       293       138       294      1680      1683      1743
 -1       458    8    0    1
 -2         2       292       321      1679      1744      1736
 -1       459    8    0    1
 -2       141       297       296      1689      1745      1686
 -1       460    8    0    1
 -2       142       298       297      1691      1746      1688
 -1       461    8    0    1
 -2       143       299       298      1693      1747      1690
 -1       462    8    0    1
 -2       144       300       299      1695      1748      1692
 -1       463    8    0    1
 -2       145       301       300      1697      1749      1694
 -1       464    8    0    1
 -2       146       302       301      1699      1750      1696
 -1       465    8    0    1
 -2       147       303       302      1701      1751      1698
 -1       466    8    0    1
 -2       148       304       303      1703      1752      1700
 -1       467    8    0    1
 -2       149       305       304      1705      1753      1702
 -1       468    8    0    1
 -2       150       306       305      1707      1754      1704
 -1       469    8    0    1
 -2       151       307       306      1709      1755      1706
 -1       470    8    0    1
 -2       152       308       307      1711      1756      1708
 -1       471    8    0    1
 -2       153       309       308      1713      1757      1710
 -1       472    8    0    1
 -2       154       310       309      1715      1758      1712
 -1       473    8    0    1
 -2       155       311       310      1717      1759      1714
 -1       474    8    0    1
 -2         1       312       311      1719      1760      1716
 -1       475    8    0    1
 -2       156       313       312      1721      1761      1718
 -1       476    8    0    1
 -2       157       314       313      1723      1762      1720
 -1       477    8    0    1
 -2       158       315       314      1725      1763      1722
 -1       478    8    0    1
 -2       159       316       315      1727      1764      1724
 -1       479    8    0    1
 -2       160       317       316      1729      1765      1726
 -1       480    8    0    1
 -2       161       318       317      1731      1766      1728
 -1       481    8    0    1
 -2       162       319       318      1733      1767      1730
 -1       482    8    0    1
 -2       163       320       319      1735      1768      1732
 -1       483    8    0    1
 -2       164       321       320      1737      1769      1734
 -1       484    8    0    1
 -2        23         7       165      1294      1296      1770
 -1       485    8    0    1
 -2       166       167       322      1302      1771      1772
 -1       486    8    0    1
 -2       165       166       323      1299      1773      1774
 -1       487    8    0    1
 -2       166       322       323      1772      1775      1773
 -1       488    8    0    1
 -2       168       169       324      1308      1776      1777
 -1       489    8    0    1
 -2       169       170       325      1311      1778      1779
 -1       490    8    0    1
 -2       169       325       324      1779      1780      1776
 -1       491    8    0    1
 -2       170       171       326      1314      1781      1782
 -1       492    8    0    1
 -2       170       326       325      1782      1783      1778
 -1       493    8    0    1
 -2       171       172       327      1317      1784      1785
 -1       494    8    0    1
 -2       171       327       326      1785      1786      1781
 -1       495    8    0    1
 -2       172       173       328      1320      1787      1788
 -1       496    8    0    1
 -2       172       328       327      1788      1789      1784
 -1       497    8    0    1
 -2       173       174       329      1323      1790      1791
 -1       498    8    0    1
 -2       173       329       328      1791      1792      1787
 -1       499    8    0    1
 -2       174       175       330      1326      1793      1794
 -1       500    8    0    1
 -2       174       330       329      1794      1795      1790
 -1       501    8    0    1
 -2       175       176       331      1329      1796      1797
 -1       502    8    0    1
 -2       175       331       330      1797      1798      1793
 -1       503    8    0    1
 -2       176       177       332      1332      1799      1800
 -1       504    8    0    1
 -2       176       332       331      1800      1801      1796
 -1       505    8    0    1
 -2       177       178       333      1335      1802      1803
 -1       506    8    0    1
 -2       177       333       332      1803      1804      1799
 -1       507    8    0    1
 -2       178       179       334      1338      1805      1806
 -1       508    8    0    1
 -2       178       334       333      1806      1807      1802
 -1       509    8    0    1
 -2       179       180       335      1341      1808      1809
 -1       510    8    0    1
 -2       334       179       335      1805      1809      1810
 -1       511    8    0    1
 -2       180       229       335      1490      1811      1808
 -1       512    8    0    1
 -2       181        23       165      1343      1770      1812
 -1       513    8    0    1
 -2       229       230       336      1493      1813      1814
 -1       514    8    0    1
 -2       229       336       335      1814      1815      1811
 -1       515    8    0    1
 -2       181       165       323      1812      1774      1816
 -1       516    8    0    1
 -2       183       182       337      1350      1817      1818
 -1       517    8    0    1
 -2       184       183       338      1353      1819      1820
 -1       518    8    0    1
 -2       183       337       338      1818      1821      1819
 -1       519    8    0    1
 -2       185       184       339      1356      1822      1823
 -1       520    8    0    1
 -2       184       338       339      1820      1824      1822
 -1       521    8    0    1
 -2       186       185       340      1359      1825      1826
 -1       522    8    0    1
 -2       185       339       340      1823      1827      1825
 -1       523    8    0    1
 -2       187       186       341      1362      1828      1829
 -1       524    8    0    1
 -2       186       340       341      1826      1830      1828
 -1       525    8    0    1
 -2       188       187       342      1365      1831      1832
 -1       526    8    0    1
 -2       187       341       342      1829      1833      1831
 -1       527    8    0    1
 -2       189       188       343      1368      1834      1835
 -1       528    8    0    1
 -2       188       342       343      1832      1836      1834
 -1       529    8    0    1
 -2       190       189       344      1371      1837      1838
 -1       530    8    0    1
 -2       189       343       344      1835      1839      1837
 -1       531    8    0    1
 -2       191       190       345      1374      1840      1841
 -1       532    8    0    1
 -2       190       344       345      1838      1842      1840
 -1       533    8    0    1
 -2       192       191       346      1377      1843      1844
 -1       534    8    0    1
 -2       191       345       346      1841      1845      1843
 -1       535    8    0    1
 -2       193       192       347      1380      1846      1847
 -1       536    8    0    1
 -2       192       346       347      1844      1848      1846
 -1       537    8    0    1
 -2       194       193       348      1383      1849      1850
 -1       538    8    0    1
 -2       193       347       348      1847      1851      1849
 -1       539    8    0    1
 -2       195       194       349      1386      1852      1853
 -1       540    8    0    1
 -2       194       348       349      1850      1854      1852
 -1       541    8    0    1
 -2       196       195       350      1389      1855      1856
 -1       542    8    0    1
 -2       195       349       350      1853      1857      1855
 -1       543    8    0    1
 -2       197       196       351      1392      1858      1859
 -1       544    8    0    1
 -2       196       350       351      1856      1860      1858
 -1       545    8    0    1
 -2       198       197       352      1395      1861      1862
 -1       546    8    0    1
 -2       197       351       352      1859      1863      1861
 -1       547    8    0    1
 -2       199       198       353      1398      1864      1865
 -1       548    8    0    1
 -2       198       352       353      1862      1866      1864
 -1       549    8    0    1
 -2       200       199       354      1401      1867      1868
 -1       550    8    0    1
 -2       199       353       354      1865      1869      1867
 -1       551    8    0    1
 -2       201       200       355      1404      1870      1871
 -1       552    8    0    1
 -2       200       354       355      1868      1872      1870
 -1       553    8    0    1
 -2       202       201       356      1407      1873      1874
 -1       554    8    0    1
 -2       201       355       356      1871      1875      1873
 -1       555    8    0    1
 -2       203       202       357      1410      1876      1877
 -1       556    8    0    1
 -2       202       356       357      1874      1878      1876
 -1       557    8    0    1
 -2       204       203       358      1413      1879      1880
 -1       558    8    0    1
 -2       203       357       358      1877      1881      1879
 -1       559    8    0    1
 -2       205       204       359      1416      1882      1883
 -1       560    8    0    1
 -2       204       358       359      1880      1884      1882
 -1       561    8    0    1
 -2       206       205       360      1419      1885      1886
 -1       562    8    0    1
 -2       205       359       360      1883      1887      1885
 -1       563    8    0    1
 -2       207       206       361      1422      1888      1889
 -1       564    8    0    1
 -2       206       360       361      1886      1890      1888
 -1       565    8    0    1
 -2       208       207       362      1425      1891      1892
 -1       566    8    0    1
 -2       207       361       362      1889      1893      1891
 -1       567    8    0    1
 -2       209       208       363      1428      1894      1895
 -1       568    8    0    1
 -2       208       362       363      1892      1896      1894
 -1       569    8    0    1
 -2       210       209       364      1431      1897      1898
 -1       570    8    0    1
 -2       209       363       364      1895      1899      1897
 -1       571    8    0    1
 -2       211       210       365      1434      1900      1901
 -1       572    8    0    1
 -2       210       364       365      1898      1902      1900
 -1       573    8    0    1
 -2       212       211       366      1437      1903      1904
 -1       574    8    0    1
 -2       211       365       366      1901      1905      1903
 -1       575    8    0    1
 -2       213       212       367      1440      1906      1907
 -1       576    8    0    1
 -2       212       366       367      1904      1908      1906
 -1       577    8    0    1
 -2       214       213       368      1443      1909      1910
 -1       578    8    0    1
 -2       213       367       368      1907      1911      1909
 -1       579    8    0    1
 -2       215       214       369      1446      1912      1913
 -1       580    8    0    1
 -2       214       368       369      1910      1914      1912
 -1       581    8    0    1
 -2       216       215       370      1449      1915      1916
 -1       582    8    0    1
 -2       215       369       370      1913      1917      1915
 -1       583    8    0    1
 -2       217       216       371      1452      1918      1919
 -1       584    8    0    1
 -2       216       370       371      1916      1920      1918
 -1       585    8    0    1
 -2       218       217       372      1455      1921      1922
 -1       586    8    0    1
 -2       217       371       372      1919      1923      1921
 -1       587    8    0    1
 -2       219       218       373      1458      1924      1925
 -1       588    8    0    1
 -2       218       372       373      1922      1926      1924
 -1       589    8    0    1
 -2       220       219       374      1461      1927      1928
 -1       590    8    0    1
 -2       219       373       374      1925      1929      1927
 -1       591    8    0    1
 -2       221       220       375      1464      1930      1931
 -1       592    8    0    1
 -2       220       374       375      1928      1932      1930
 -1       593    8    0    1
 -2       222       221       376      1467      1933      1934
 -1       594    8    0    1
 -2       221       375       376      1931      1935      1933
 -1       595    8    0    1
 -2       223       222       377      1470      1936      1937
 -1       596    8    0    1
 -2       222       376       377      1934      1938      1936
 -1       597    8    0    1
 -2       224       223       378      1473      1939      1940
 -1       598    8    0    1
 -2       223       377       378      1937      1941      1939
 -1       599    8    0    1
 -2       225       224       379      1476      1942      1943
 -1       600    8    0    1
 -2       224       378       379      1940      1944      1942
 -1       601    8    0    1
 -2       226       225       380      1479      1945      1946
 -1       602    8    0    1
 -2       225       379       380      1943      1947      1945
 -1       603    8    0    1
 -2       227       226       381      1482      1948      1949
 -1       604    8    0    1
 -2       226       380       381      1946      1950      1948
 -1       605    8    0    1
 -2       228       227       382      1485      1951      1952
 -1       606    8    0    1
 -2       291       228       382      1677      1952      1953
 -1       607    8    0    1
 -2       227       381       382      1949      1954      1951
 -1       608    8    0    1
 -2       230       231       383      1496      1955      1956
 -1       609    8    0    1
 -2       230       383       336      1956      1957      1813
 -1       610    8    0    1
 -2       231       232       384      1499      1958      1959
 -1       611    8    0    1
 -2       231       384       383      1959      1960      1955
 -1       612    8    0    1
 -2       232       233       385      1502      1961      1962
 -1       613    8    0    1
 -2       232       385       384      1962      1963      1958
 -1       614    8    0    1
 -2       233       234       386      1505      1964      1965
 -1       615    8    0    1
 -2       233       386       385      1965      1966      1961
 -1       616    8    0    1
 -2       234       235       387      1508      1967      1968
 -1       617    8    0    1
 -2       234       387       386      1968      1969      1964
 -1       618    8    0    1
 -2       235       236       388      1511      1970      1971
 -1       619    8    0    1
 -2       235       388       387      1971      1972      1967
 -1       620    8    0    1
 -2       236       237       389      1514      1973      1974
 -1       621    8    0    1
 -2       236       389       388      1974      1975      1970
 -1       622    8    0    1
 -2       237       238       390      1517      1976      1977
 -1       623    8    0    1
 -2       237       390       389      1977      1978      1973
 -1       624    8    0    1
 -2       238       239       391      1520      1979      1980
 -1       625    8    0    1
 -2       238       391       390      1980      1981      1976
 -1       626    8    0    1
 -2       239       240       392      1523      1982      1983
 -1       627    8    0    1
 -2       239       392       391      1983      1984      1979
 -1       628    8    0    1
 -2       240       241       393      1526      1985      1986
 -1       629    8    0    1
 -2       240       393       392      1986      1987      1982
 -1       630    8    0    1
 -2       241       242       394      1529      1988      1989
 -1       631    8    0    1
 -2       241       394       393      1989      1990      1985
 -1       632    8    0    1
 -2       242       243       395      1532      1991      1992
 -1       633    8    0    1
 -2       242       395       394      1992      1993      1988
 -1       634    8    0    1
 -2       243       244       396      1535      1994      1995
 -1       635    8    0    1
 -2       243       396       395      1995      1996      1991
 -1       636    8    0    1
 -2       244       245       397      1538      1997      1998
 -1       637    8    0    1
 -2       244       397       396      1998      1999      1994
 -1       638    8    0    1
 -2       245       246       398      1541      2000      2001
 -1       639    8    0    1
 -2       245       398       397      2001      2002      1997
 -1       640    8    0    1
 -2       246       247       399      1544      2003      2004
 -1       641    8    0    1
 -2       246       399       398      2004      2005      2000
 -1       642    8    0    1
 -2       247       248       400      1547      2006      2007
 -1       643    8    0    1
 -2       247       400       399      2007      2008      2003
 -1       644    8    0    1
 -2       248       249       401      1550      2009      2010
 -1       645    8    0    1
 -2       248       401       400      2010      2011      2006
 -1       646    8    0    1
 -2       249       250       402      1553      2012      2013
 -1       647    8    0    1
 -2       249       402       401      2013      2014      2009
 -1       648    8    0    1
 -2       250       251       403      1556      2015      2016
 -1       649    8    0    1
 -2       250       403       402      2016      2017      2012
 -1       650    8    0    1
 -2       251       252       404      1559      2018      2019
 -1       651    8    0    1
 -2       251       404       403      2019      2020      2015
 -1       652    8    0    1
 -2       252       253       405      1562      2021      2022
 -1       653    8    0    1
 -2       252       405       404      2022      2023      2018
 -1       654    8    0    1
 -2       253       254       406      1565      2024      2025
 -1       655    8    0    1
 -2       253       406       405      2025      2026      2021
 -1       656    8    0    1
 -2       254       255       407      1568      2027      2028
 -1       657    8    0    1
 -2       254       407       406      2028      2029      2024
 -1       658    8    0    1
 -2       255       256       408      1571      2030      2031
 -1       659    8    0    1
 -2       255       408       407      2031      2032      2027
 -1       660    8    0    1
 -2       256       257       409      1574      2033      2034
 -1       661    8    0    1
 -2       256       409       408      2034      2035      2030
 -1       662    8    0    1
 -2       257       258       410      1577      2036      2037
 -1       663    8    0    1
 -2       257       410       409      2037      2038      2033
 -1       664    8    0    1
 -2       258       259       411      1580      2039      2040
 -1       665    8    0    1
 -2       258       411       410      2040      2041      2036
 -1       666    8    0    1
 -2       259       260       412      1583      2042      2043
 -1       667    8    0    1
 -2       259       412       411      2043      2044      2039
 -1       668    8    0    1
 -2       260       261       413      1586      2045      2046
 -1       669    8    0    1
 -2       260       413       412      2046      2047      2042
 -1       670    8    0    1
 -2       261       262       414      1589      2048      2049
 -1       671    8    0    1
 -2       261       414       413      2049      2050      2045
 -1       672    8    0    1
 -2       262       263       415      1592      2051      2052
 -1       673    8    0    1
 -2       262       415       414      2052      2053      2048
 -1       674    8    0    1
 -2       263       264       416      1595      2054      2055
 -1       675    8    0    1
 -2       263       416       415      2055      2056      2051
 -1       676    8    0    1
 -2       264       265       417      1598      2057      2058
 -1       677    8    0    1
 -2       264       417       416      2058      2059      2054
 -1       678    8    0    1
 -2       265       266       418      1601      2060      2061
 -1       679    8    0    1
 -2       265       418       417      2061      2062      2057
 -1       680    8    0    1
 -2       266       267       419      1604      2063      2064
 -1       681    8    0    1
 -2       266       419       418      2064      2065      2060
 -1       682    8    0    1
 -2       267       268       420      1607      2066      2067
 -1       683    8    0    1
 -2       267       420       419      2067      2068      2063
 -1       684    8    0    1
 -2       268       269       421      1610      2069      2070
 -1       685    8    0    1
 -2       268       421       420      2070      2071      2066
 -1       686    8    0    1
 -2       269       270       422      1613      2072      2073
 -1       687    8    0    1
 -2       269       422       421      2073      2074      2069
 -1       688    8    0    1
 -2       270       271       423      1616      2075      2076
 -1       689    8    0    1
 -2       270       423       422      2076      2077      2072
 -1       690    8    0    1
 -2       271       272       424      1619      2078      2079
 -1       691    8    0    1
 -2       271       424       423      2079      2080      2075
 -1       692    8    0    1
 -2       272       273       425      1622      2081      2082
 -1       693    8    0    1
 -2       272       425       424      2082      2083      2078
 -1       694    8    0    1
 -2       273       274       426      1625      2084      2085
 -1       695    8    0    1
 -2       273       426       425      2085      2086      2081
 -1       696    8    0    1
 -2       274       275       427      1628      2087      2088
 -1       697    8    0    1
 -2       274       427       426      2088      2089      2084
 -1       698    8    0    1
 -2       275       276       428      1631      2090      2091
 -1       699    8    0    1
 -2       427       275       428      2087      2091      2092
 -1       700    8    0    1
 -2       276       277       428      1741      2093      2090
 -1       701    8    0    1
 -2       279       280       429      1643      2094      2095
 -1       702    8    0    1
 -2       278       279       430      1640      2096      2097
 -1       703    8    0    1
 -2       279       429       430      2095      2098      2096
 -1       704    8    0    1
 -2       277       278       431      1637      2099      2100
 -1       705    8    0    1
 -2       428       277       431      2093      2100      2101
 -1       706    8    0    1
 -2       278       430       431      2097      2102      2099
 -1       707    8    0    1
 -2       280       281       432      1646      2103      2104
 -1       708    8    0    1
 -2       280       432       429      2104      2105      2094
 -1       709    8    0    1
 -2       281       282       433      1649      2106      2107
 -1       710    8    0    1
 -2       281       433       432      2107      2108      2103
 -1       711    8    0    1
 -2       282       283       434      1652      2109      2110
 -1       712    8    0    1
 -2       282       434       433      2110      2111      2106
 -1       713    8    0    1
 -2       283       284       435      1655      2112      2113
 -1       714    8    0    1
 -2       283       435       434      2113      2114      2109
 -1       715    8    0    1
 -2       284       285       436      1658      2115      2116
 -1       716    8    0    1
 -2       284       436       435      2116      2117      2112
 -1       717    8    0    1
 -2       285       286       437      1661      2118      2119
 -1       718    8    0    1
 -2       285       437       436      2119      2120      2115
 -1       719    8    0    1
 -2       286       287       438      1664      2121      2122
 -1       720    8    0    1
 -2       286       438       437      2122      2123      2118
 -1       721    8    0    1
 -2       287       288       439      1667      2124      2125
 -1       722    8    0    1
 -2       287       439       438      2125      2126      2121
 -1       723    8    0    1
 -2       288       289       440      1670      2127      2128
 -1       724    8    0    1
 -2       288       440       439      2128      2129      2124
 -1       725    8    0    1
 -2       289       290       441      1673      2130      2131
 -1       726    8    0    1
 -2       289       441       440      2131      2132      2127
 -1       727    8    0    1
 -2       293       294       442      1743      2133      2134
 -1       728    8    0    1
 -2       321       292       443      1744      2135      2136
 -1       729    8    0    1
 -2       292       293       444      1742      2137      2138
 -1       730    8    0    1
 -2       293       442       444      2134      2139      2137
 -1       731    8    0    1
 -2       294       295       445      1739      2140      2141
 -1       732    8    0    1
 -2       295       296       446      1738      2142      2143
 -1       733    8    0    1
 -2       167       168       447      1305      2144      2145
 -1       734    8    0    1
 -2       322       167       447      1771      2145      2146
 -1       735    8    0    1
 -2       168       324       447      1777      2147      2144
 -1       736    8    0    1
 -2       297       298       448      1746      2148      2149
 -1       737    8    0    1
 -2       298       299       449      1747      2150      2151
 -1       738    8    0    1
 -2       299       300       450      1748      2152      2153
 -1       739    8    0    1
 -2       300       301       451      1749      2154      2155
 -1       740    8    0    1
 -2       301       302       452      1750      2156      2157
 -1       741    8    0    1
 -2       302       303       453      1751      2158      2159
 -1       742    8    0    1
 -2       302       453       452      2159      2160      2156
 -1       743    8    0    1
 -2       303       304       454      1752      2161      2162
 -1       744    8    0    1
 -2       304       305       455      1753      2163      2164
 -1       745    8    0    1
 -2       304       455       454      2164      2165      2161
 -1       746    8    0    1
 -2       305       306       456      1754      2166      2167
 -1       747    8    0    1
 -2       306       307       457      1755      2168      2169
 -1       748    8    0    1
 -2       307       308       458      1756      2170      2171
 -1       749    8    0    1
 -2       308       309       459      1757      2172      2173
 -1       750    8    0    1
 -2       309       310       460      1758      2174      2175
 -1       751    8    0    1
 -2       309       460       459      2175      2176      2172
 -1       752    8    0    1
 -2       310       311       461      1759      2177      2178
 -1       753    8    0    1
 -2       311       312       462      1760      2179      2180
 -1       754    8    0    1
 -2       311       462       461      2180      2181      2177
 -1       755    8    0    1
 -2       312       313       463      1761      2182      2183
 -1       756    8    0    1
 -2       313       314       464      1762      2184      2185
 -1       757    8    0    1
 -2       314       315       465      1763      2186      2187
 -1       758    8    0    1
 -2       315       316       466      1764      2188      2189
 -1       759    8    0    1
 -2       316       317       467      1765      2190      2191
 -1       760    8    0    1
 -2       317       318       468      1766      2192      2193
 -1       761    8    0    1
 -2       318       319       469      1767      2194      2195
 -1       762    8    0    1
 -2       319       320       470      1768      2196      2197
 -1       763    8    0    1
 -2       320       321       471      1769      2198      2199
 -1       764    8    0    1
 -2       296       297       472      1745      2200      2201
 -1       765    8    0    1
 -2       446       296       472      2142      2201      2202
 -1       766    8    0    1
 -2       181       323       182      1816      2203      1347
 -1       767    8    0    1
 -2       297       448       472      2149      2204      2200
 -1       768    8    0    1
 -2       337       182       323      1817      2203      2205
 -1       769    8    0    1
 -2       443       292       444      2135      2138      2206
 -1       770    8    0    1
 -2       294       445       442      2141      2207      2133
 -1       771    8    0    1
 -2       441       290       291      2130      1676      2208
 -1       772    8    0    1
 -2       321       443       471      2136      2209      2198
 -1       773    8    0    1
 -2       445       295       446      2140      2143      2210
 -1       774    8    0    1
 -2       470       320       471      2196      2199      2211
 -1       775    8    0    1
 -2       469       319       470      2194      2197      2212
 -1       776    8    0    1
 -2       468       318       469      2192      2195      2213
 -1       777    8    0    1
 -2       467       317       468      2190      2193      2214
 -1       778    8    0    1
 -2       466       316       467      2188      2191      2215
 -1       779    8    0    1
 -2       465       315       466      2186      2189      2216
 -1       780    8    0    1
 -2       464       314       465      2184      2187      2217
 -1       781    8    0    1
 -2       462       312       463      2179      2183      2218
 -1       782    8    0    1
 -2       460       310       473      2174      2219      2220
 -1       783    8    0    1
 -2       310       461       473      2178      2221      2219
 -1       784    8    0    1
 -2       458       308       459      2170      2173      2222
 -1       785    8    0    1
 -2       457       307       458      2168      2171      2223
 -1       786    8    0    1
 -2       455       305       456      2163      2167      2224
 -1       787    8    0    1
 -2       453       303       454      2158      2162      2225
 -1       788    8    0    1
 -2       451       301       452      2154      2157      2226
 -1       789    8    0    1
 -2       450       300       451      2152      2155      2227
 -1       790    8    0    1
 -2       448       298       449      2148      2151      2228
 -1       791    8    0    1
 -2       449       299       450      2150      2153      2229
 -1       792    8    0    1
 -2       456       306       457      2166      2169      2230
 -1       793    8    0    1
 -2       463       313       464      2182      2185      2231
 -1       794    8    0    1
 -2       336       383       474      1957      2232      2233
 -1       795    8    0    1
 -2       325       326       475      1783      2234      2235
 -1       796    8    0    1
 -2       324       325       476      1780      2236      2237
 -1       797    8    0    1
 -2       325       475       476      2235      2238      2236
 -1       798    8    0    1
 -2       327       328       477      1789      2239      2240
 -1       799    8    0    1
 -2       328       329       478      1792      2241      2242
 -1       800    8    0    1
 -2       328       478       477      2242      2243      2239
 -1       801    8    0    1
 -2       329       330       479      1795      2244      2245
 -1       802    8    0    1
 -2       329       479       478      2245      2246      2241
 -1       803    8    0    1
 -2       330       331       480      1798      2247      2248
 -1       804    8    0    1
 -2       330       480       479      2248      2249      2244
 -1       805    8    0    1
 -2       331       332       481      1801      2250      2251
 -1       806    8    0    1
 -2       331       481       480      2251      2252      2247
 -1       807    8    0    1
 -2       332       333       482      1804      2253      2254
 -1       808    8    0    1
 -2       332       482       481      2254      2255      2250
 -1       809    8    0    1
 -2       383       384       483      1960      2256      2257
 -1       810    8    0    1
 -2       383       483       474      2257      2258      2232
 -1       811    8    0    1
 -2       338       337       484      1821      2259      2260
 -1       812    8    0    1
 -2       472       448       485      2204      2261      2262
 -1       813    8    0    1
 -2       339       338       486      1824      2263      2264
 -1       814    8    0    1
 -2       338       484       486      2260      2265      2263
 -1       815    8    0    1
 -2       340       339       487      1827      2266      2267
 -1       816    8    0    1
 -2       339       486       487      2264      2268      2266
 -1       817    8    0    1
 -2       341       340       488      1830      2269      2270
 -1       818    8    0    1
 -2       340       487       488      2267      2271      2269
 -1       819    8    0    1
 -2       342       341       489      1833      2272      2273
 -1       820    8    0    1
 -2       341       488       489      2270      2274      2272
 -1       821    8    0    1
 -2       343       342       490      1836      2275      2276
 -1       822    8    0    1
 -2       342       489       490      2273      2277      2275
 -1       823    8    0    1
 -2       344       343       491      1839      2278      2279
 -1       824    8    0    1
 -2       343       490       491      2276      2280      2278
 -1       825    8    0    1
 -2       345       344       492      1842      2281      2282
 -1       826    8    0    1
 -2       344       491       492      2279      2283      2281
 -1       827    8    0    1
 -2       346       345       493      1845      2284      2285
 -1       828    8    0    1
 -2       345       492       493      2282      2286      2284
 -1       829    8    0    1
 -2       347       346       494      1848      2287      2288
 -1       830    8    0    1
 -2       346       493       494      2285      2289      2287
 -1       831    8    0    1
 -2       348       347       495      1851      2290      2291
 -1       832    8    0    1
 -2       347       494       495      2288      2292      2290
 -1       833    8    0    1
 -2       349       348       496      1854      2293      2294
 -1       834    8    0    1
 -2       348       495       496      2291      2295      2293
 -1       835    8    0    1
 -2       350       349       497      1857      2296      2297
 -1       836    8    0    1
 -2       349       496       497      2294      2298      2296
 -1       837    8    0    1
 -2       351       350       498      1860      2299      2300
 -1       838    8    0    1
 -2       350       497       498      2297      2301      2299
 -1       839    8    0    1
 -2       352       351       499      1863      2302      2303
 -1       840    8    0    1
 -2       351       498       499      2300      2304      2302
 -1       841    8    0    1
 -2       353       352       500      1866      2305      2306
 -1       842    8    0    1
 -2       352       499       500      2303      2307      2305
 -1       843    8    0    1
 -2       354       353       501      1869      2308      2309
 -1       844    8    0    1
 -2       353       500       501      2306      2310      2308
 -1       845    8    0    1
 -2       355       354       502      1872      2311      2312
 -1       846    8    0    1
 -2       354       501       502      2309      2313      2311
 -1       847    8    0    1
 -2       356       355       503      1875      2314      2315
 -1       848    8    0    1
 -2       355       502       503      2312      2316      2314
 -1       849    8    0    1
 -2       357       356       504      1878      2317      2318
 -1       850    8    0    1
 -2       356       503       504      2315      2319      2317
 -1       851    8    0    1
 -2       358       357       505      1881      2320      2321
 -1       852    8    0    1
 -2       357       504       505      2318      2322      2320
 -1       853    8    0    1
 -2       359       358       506      1884      2323      2324
 -1       854    8    0    1
 -2       358       505       506      2321      2325      2323
 -1       855    8    0    1
 -2       360       359       507      1887      2326      2327
 -1       856    8    0    1
 -2       359       506       507      2324      2328      2326
 -1       857    8    0    1
 -2       361       360       508      1890      2329      2330
 -1       858    8    0    1
 -2       360       507       508      2327      2331      2329
 -1       859    8    0    1
 -2       362       361       509      1893      2332      2333
 -1       860    8    0    1
 -2       361       508       509      2330      2334      2332
 -1       861    8    0    1
 -2       363       362       510      1896      2335      2336
 -1       862    8    0    1
 -2       362       509       510      2333      2337      2335
 -1       863    8    0    1
 -2       364       363       511      1899      2338      2339
 -1       864    8    0    1
 -2       363       510       511      2336      2340      2338
 -1       865    8    0    1
 -2       365       364       512      1902      2341      2342
 -1       866    8    0    1
 -2       364       511       512      2339      2343      2341
 -1       867    8    0    1
 -2       366       365       513      1905      2344      2345
 -1       868    8    0    1
 -2       365       512       513      2342      2346      2344
 -1       869    8    0    1
 -2       367       366       514      1908      2347      2348
 -1       870    8    0    1
 -2       366       513       514      2345      2349      2347
 -1       871    8    0    1
 -2       368       367       515      1911      2350      2351
 -1       872    8    0    1
 -2       367       514       515      2348      2352      2350
 -1       873    8    0    1
 -2       369       368       516      1914      2353      2354
 -1       874    8    0    1
 -2       368       515       516      2351      2355      2353
 -1       875    8    0    1
 -2       370       369       517      1917      2356      2357
 -1       876    8    0    1
 -2       369       516       517      2354      2358      2356
 -1       877    8    0    1
 -2       371       370       518      1920      2359      2360
 -1       878    8    0    1
 -2       370       517       518      2357      2361      2359
 -1       879    8    0    1
 -2       372       371       519      1923      2362      2363
 -1       880    8    0    1
 -2       371       518       519      2360      2364      2362
 -1       881    8    0    1
 -2       373       372       520      1926      2365      2366
 -1       882    8    0    1
 -2       372       519       520      2363      2367      2365
 -1       883    8    0    1
 -2       374       373       521      1929      2368      2369
 -1       884    8    0    1
 -2       373       520       521      2366      2370      2368
 -1       885    8    0    1
 -2       375       374       522      1932      2371      2372
 -1       886    8    0    1
 -2       374       521       522      2369      2373      2371
 -1       887    8    0    1
 -2       376       375       523      1935      2374      2375
 -1       888    8    0    1
 -2       375       522       523      2372      2376      2374
 -1       889    8    0    1
 -2       377       376       524      1938      2377      2378
 -1       890    8    0    1
 -2       376       523       524      2375      2379      2377
 -1       891    8    0    1
 -2       378       377       525      1941      2380      2381
 -1       892    8    0    1
 -2       377       524       525      2378      2382      2380
 -1       893    8    0    1
 -2       379       378       526      1944      2383      2384
 -1       894    8    0    1
 -2       378       525       526      2381      2385      2383
 -1       895    8    0    1
 -2       380       379       527      1947      2386      2387
 -1       896    8    0    1
 -2       379       526       527      2384      2388      2386
 -1       897    8    0    1
 -2       381       380       528      1950      2389      2390
 -1       898    8    0    1
 -2       380       527       528      2387      2391      2389
 -1       899    8    0    1
 -2       444       442       529      2139      2392      2393
 -1       900    8    0    1
 -2       385       386       530      1966      2394      2395
 -1       901    8    0    1
 -2       386       387       531      1969      2396      2397
 -1       902    8    0    1
 -2       386       531       530      2397      2398      2394
 -1       903    8    0    1
 -2       387       388       532      1972      2399      2400
 -1       904    8    0    1
 -2       387       532       531      2400      2401      2396
 -1       905    8    0    1
 -2       388       389       533      1975      2402      2403
 -1       906    8    0    1
 -2       388       533       532      2403      2404      2399
 -1       907    8    0    1
 -2       389       390       534      1978      2405      2406
 -1       908    8    0    1
 -2       389       534       533      2406      2407      2402
 -1       909    8    0    1
 -2       390       391       535      1981      2408      2409
 -1       910    8    0    1
 -2       390       535       534      2409      2410      2405
 -1       911    8    0    1
 -2       391       392       536      1984      2411      2412
 -1       912    8    0    1
 -2       391       536       535      2412      2413      2408
 -1       913    8    0    1
 -2       392       393       537      1987      2414      2415
 -1       914    8    0    1
 -2       392       537       536      2415      2416      2411
 -1       915    8    0    1
 -2       393       394       538      1990      2417      2418
 -1       916    8    0    1
 -2       393       538       537      2418      2419      2414
 -1       917    8    0    1
 -2       394       395       539      1993      2420      2421
 -1       918    8    0    1
 -2       394       539       538      2421      2422      2417
 -1       919    8    0    1
 -2       395       396       540      1996      2423      2424
 -1       920    8    0    1
 -2       395       540       539      2424      2425      2420
 -1       921    8    0    1
 -2       396       397       541      1999      2426      2427
 -1       922    8    0    1
 -2       396       541       540      2427      2428      2423
 -1       923    8    0    1
 -2       397       398       542      2002      2429      2430
 -1       924    8    0    1
 -2       397       542       541      2430      2431      2426
 -1       925    8    0    1
 -2       398       399       543      2005      2432      2433
 -1       926    8    0    1
 -2       398       543       542      2433      2434      2429
 -1       927    8    0    1
 -2       399       400       544      2008      2435      2436
 -1       928    8    0    1
 -2       399       544       543      2436      2437      2432
 -1       929    8    0    1
 -2       400       401       545      2011      2438      2439
 -1       930    8    0    1
 -2       400       545       544      2439      2440      2435
 -1       931    8    0    1
 -2       401       402       546      2014      2441      2442
 -1       932    8    0    1
 -2       401       546       545      2442      2443      2438
 -1       933    8    0    1
 -2       402       403       547      2017      2444      2445
 -1       934    8    0    1
 -2       402       547       546      2445      2446      2441
 -1       935    8    0    1
 -2       403       404       548      2020      2447      2448
 -1       936    8    0    1
 -2       403       548       547      2448      2449      2444
 -1       937    8    0    1
 -2       404       405       549      2023      2450      2451
 -1       938    8    0    1
 -2       404       549       548      2451      2452      2447
 -1       939    8    0    1
 -2       405       406       550      2026      2453      2454
 -1       940    8    0    1
 -2       405       550       549      2454      2455      2450
 -1       941    8    0    1
 -2       406       407       551      2029      2456      2457
 -1       942    8    0    1
 -2       406       551       550      2457      2458      2453
 -1       943    8    0    1
 -2       407       408       552      2032      2459      2460
 -1       944    8    0    1
 -2       407       552       551      2460      2461      2456
 -1       945    8    0    1
 -2       408       409       553      2035      2462      2463
 -1       946    8    0    1
 -2       408       553       552      2463      2464      2459
 -1       947    8    0    1
 -2       409       410       554      2038      2465      2466
 -1       948    8    0    1
 -2       409       554       553      2466      2467      2462
 -1       949    8    0    1
 -2       410       411       555      2041      2468      2469
 -1       950    8    0    1
 -2       410       555       554      2469      2470      2465
 -1       951    8    0    1
 -2       411       412       556      2044      2471      2472
 -1       952    8    0    1
 -2       411       556       555      2472      2473      2468
 -1       953    8    0    1
 -2       412       413       557      2047      2474      2475
 -1       954    8    0    1
 -2       412       557       556      2475      2476      2471
 -1       955    8    0    1
 -2       413       414       558      2050      2477      2478
 -1       956    8    0    1
 -2       413       558       557      2478      2479      2474
 -1       957    8    0    1
 -2       414       415       559      2053      2480      2481
 -1       958    8    0    1
 -2       414       559       558      2481      2482      2477
 -1       959    8    0    1
 -2       415       416       560      2056      2483      2484
 -1       960    8    0    1
 -2       415       560       559      2484      2485      2480
 -1       961    8    0    1
 -2       416       417       561      2059      2486      2487
 -1       962    8    0    1
 -2       416       561       560      2487      2488      2483
 -1       963    8    0    1
 -2       417       418       562      2062      2489      2490
 -1       964    8    0    1
 -2       417       562       561      2490      2491      2486
 -1       965    8    0    1
 -2       418       419       563      2065      2492      2493
 -1       966    8    0    1
 -2       418       563       562      2493      2494      2489
 -1       967    8    0    1
 -2       419       420       564      2068      2495      2496
 -1       968    8    0    1
 -2       419       564       563      2496      2497      2492
 -1       969    8    0    1
 -2       420       421       565      2071      2498      2499
 -1       970    8    0    1
 -2       420       565       564      2499      2500      2495
 -1       971    8    0    1
 -2       421       422       566      2074      2501      2502
 -1       972    8    0    1
 -2       421       566       565      2502      2503      2498
 -1       973    8    0    1
 -2       422       423       567      2077      2504      2505
 -1       974    8    0    1
 -2       422       567       566      2505      2506      2501
 -1       975    8    0    1
 -2       423       424       568      2080      2507      2508
 -1       976    8    0    1
 -2       423       568       567      2508      2509      2504
 -1       977    8    0    1
 -2       424       425       569      2083      2510      2511
 -1       978    8    0    1
 -2       424       569       568      2511      2512      2507
 -1       979    8    0    1
 -2       425       426       570      2086      2513      2514
 -1       980    8    0    1
 -2       425       570       569      2514      2515      2510
 -1       981    8    0    1
 -2       426       427       571      2089      2516      2517
 -1       982    8    0    1
 -2       426       571       570      2517      2518      2513
 -1       983    8    0    1
 -2       427       428       431      2092      2101      2519
 -1       984    8    0    1
 -2       432       433       572      2108      2520      2521
 -1       985    8    0    1
 -2       433       434       573      2111      2522      2523
 -1       986    8    0    1
 -2       433       573       572      2523      2524      2520
 -1       987    8    0    1
 -2       430       429       574      2098      2525      2526
 -1       988    8    0    1
 -2       429       432       575      2105      2527      2528
 -1       989    8    0    1
 -2       574       429       575      2525      2528      2529
 -1       990    8    0    1
 -2       432       572       575      2521      2530      2527
 -1       991    8    0    1
 -2       434       435       576      2114      2531      2532
 -1       992    8    0    1
 -2       434       576       573      2532      2533      2522
 -1       993    8    0    1
 -2       435       436       577      2117      2534      2535
 -1       994    8    0    1
 -2       435       577       576      2535      2536      2531
 -1       995    8    0    1
 -2       436       437       578      2120      2537      2538
 -1       996    8    0    1
 -2       436       578       577      2538      2539      2534
 -1       997    8    0    1
 -2       437       438       579      2123      2540      2541
 -1       998    8    0    1
 -2       437       579       578      2541      2542      2537
 -1       999    8    0    1
 -2       438       439       580      2126      2543      2544
 -1      1000    8    0    1
 -2       438       580       579      2544      2545      2540
 -1      1001    8    0    1
 -2       439       440       581      2129      2546      2547
 -1      1002    8    0    1
 -2       439       581       580      2547      2548      2543
 -1      1003    8    0    1
 -2       440       441       582      2132      2549      2550
 -1      1004    8    0    1
 -2       440       582       581      2550      2551      2546
 -1      1005    8    0    1
 -2       441       291       382      2208      1953      2552
 -1      1006    8    0    1
 -2       471       443       583      2209      2553      2554
 -1      1007    8    0    1
 -2       384       385       584      1963      2555      2556
 -1      1008    8    0    1
 -2       385       530       584      2395      2557      2555
 -1      1009    8    0    1
 -2       442       445       585      2207      2558      2559
 -1      1010    8    0    1
 -2       470       471       586      2211      2560      2561
 -1      1011    8    0    1
 -2       337       323       587      2205      2562      2563
 -1      1012    8    0    1
 -2       484       337       587      2259      2563      2564
 -1      1013    8    0    1
 -2       323       322       587      1775      2565      2562
 -1      1014    8    0    1
 -2       445       446       588      2210      2566      2567
 -1      1015    8    0    1
 -2       458       459       589      2222      2568      2569
 -1      1016    8    0    1
 -2       451       452       590      2226      2570      2571
 -1      1017    8    0    1
 -2       326       327       591      1786      2572      2573
 -1      1018    8    0    1
 -2       475       326       591      2234      2573      2574
 -1      1019    8    0    1
 -2       327       477       591      2240      2575      2572
 -1      1020    8    0    1
 -2       449       450       592      2229      2576      2577
 -1      1021    8    0    1
 -2       456       457       593      2230      2578      2579
 -1      1022    8    0    1
 -2       448       449       594      2228      2580      2581
 -1      1023    8    0    1
 -2       450       451       595      2227      2582      2583
 -1      1024    8    0    1
 -2       452       453       596      2160      2584      2585
 -1      1025    8    0    1
 -2       453       454       597      2225      2586      2587
 -1      1026    8    0    1
 -2       453       597       596      2587      2588      2584
 -1      1027    8    0    1
 -2       454       455       598      2165      2589      2590
 -1      1028    8    0    1
 -2       463       464       599      2231      2591      2592
 -1      1029    8    0    1
 -2       455       456       600      2224      2593      2594
 -1      1030    8    0    1
 -2       457       458       601      2223      2595      2596
 -1      1031    8    0    1
 -2       457       601       593      2596      2597      2578
 -1      1032    8    0    1
 -2       459       460       602      2176      2598      2599
 -1      1033    8    0    1
 -2       461       462       603      2181      2600      2601
 -1      1034    8    0    1
 -2       462       463       604      2218      2602      2603
 -1      1035    8    0    1
 -2       462       604       603      2603      2604      2600
 -1      1036    8    0    1
 -2       464       465       605      2217      2605      2606
 -1      1037    8    0    1
 -2       465       466       606      2216      2607      2608
 -1      1038    8    0    1
 -2       466       467       607      2215      2609      2610
 -1      1039    8    0    1
 -2       467       468       608      2214      2611      2612
 -1      1040    8    0    1
 -2       468       469       609      2213      2613      2614
 -1      1041    8    0    1
 -2       469       470       610      2212      2615      2616
 -1      1042    8    0    1
 -2       470       586       610      2561      2617      2615
 -1      1043    8    0    1
 -2       443       444       611      2206      2618      2619
 -1      1044    8    0    1
 -2       335       336       612      1815      2620      2621
 -1      1045    8    0    1
 -2       334       335       612      1810      2621      2622
 -1      1046    8    0    1
 -2       336       474       612      2233      2623      2620
 -1      1047    8    0    1
 -2       446       472       613      2202      2624      2625
 -1      1048    8    0    1
 -2       449       592       594      2577      2626      2580
 -1      1049    8    0    1
 -2       324       476       614      2237      2627      2628
 -1      1050    8    0    1
 -2       324       614       447      2628      2629      2147
 -1      1051    8    0    1
 -2       483       384       584      2256      2556      2630
 -1      1052    8    0    1
 -2       333       334       612      1807      2622      2631
 -1      1053    8    0    1
 -2       613       472       485      2624      2262      2632
 -1      1054    8    0    1
 -2       588       446       613      2566      2625      2633
 -1      1055    8    0    1
 -2       609       469       610      2613      2616      2634
 -1      1056    8    0    1
 -2       608       468       609      2611      2614      2635
 -1      1057    8    0    1
 -2       471       583       615      2554      2636      2637
 -1      1058    8    0    1
 -2       471       615       586      2637      2638      2560
 -1      1059    8    0    1
 -2       529       442       585      2392      2559      2639
 -1      1060    8    0    1
 -2       427       431       571      2519      2640      2516
 -1      1061    8    0    1
 -2       431       430       571      2102      2641      2640
 -1      1062    8    0    1
 -2       607       467       608      2609      2612      2642
 -1      1063    8    0    1
 -2       441       382       616      2552      2643      2644
 -1      1064    8    0    1
 -2       582       441       616      2549      2644      2645
 -1      1065    8    0    1
 -2       382       381       616      1954      2646      2643
 -1      1066    8    0    1
 -2       606       466       607      2607      2610      2647
 -1      1067    8    0    1
 -2       604       463       599      2602      2592      2648
 -1      1068    8    0    1
 -2       583       443       611      2553      2619      2649
 -1      1069    8    0    1
 -2       333       612       482      2631      2650      2253
 -1      1070    8    0    1
 -2       585       445       588      2558      2567      2651
 -1      1071    8    0    1
 -2       464       605       599      2606      2652      2591
 -1      1072    8    0    1
 -2       601       458       589      2595      2569      2653
 -1      1073    8    0    1
 -2       589       459       602      2568      2599      2654
 -1      1074    8    0    1
 -2       600       456       593      2593      2579      2655
 -1      1075    8    0    1
 -2       597       454       598      2586      2590      2656
 -1      1076    8    0    1
 -2       595       451       590      2582      2571      2657
 -1      1077    8    0    1
 -2       473       461       603      2221      2601      2658
 -1      1078    8    0    1
 -2       590       452       596      2570      2585      2659
 -1      1079    8    0    1
 -2       587       322       447      2565      2146      2660
 -1      1080    8    0    1
 -2       485       448       594      2261      2581      2661
 -1      1081    8    0    1
 -2       450       595       617      2583      2662      2663
 -1      1082    8    0    1
 -2       450       617       592      2663      2664      2576
 -1      1083    8    0    1
 -2       598       455       600      2589      2594      2665
 -1      1084    8    0    1
 -2       602       460       618      2598      2666      2667
 -1      1085    8    0    1
 -2       460       473       618      2220      2668      2666
 -1      1086    8    0    1
 -2       444       529       611      2393      2669      2618
 -1      1087    8    0    1
 -2       605       465       606      2605      2608      2670
 -1      1088    8    0    1
 -2       571       430       574      2641      2526      2671
 -1      1089    8    0    1
 -2       616       381       528      2646      2390      2672
 -1      1090    8    0    1
 -2       478       479       619      2246      2673      2674
 -1      1091    8    0    1
 -2       477       478       620      2243      2675      2676
 -1      1092    8    0    1
 -2       478       619       620      2674      2677      2675
 -1      1093    8    0    1
 -2       480       481       621      2252      2678      2679
 -1      1094    8    0    1
 -2       481       482       622      2255      2680      2681
 -1      1095    8    0    1
 -2       481       622       621      2681      2682      2678
 -1      1096    8    0    1
 -2       474       483       623      2258      2683      2684
 -1      1097    8    0    1
 -2       585       588       624      2651      2685      2686
 -1      1098    8    0    1
 -2       612       474       482      2623      2687      2650
 -1      1099    8    0    1
 -2       610       586       625      2617      2688      2689
 -1      1100    8    0    1
 -2       483       584       626      2630      2690      2691
 -1      1101    8    0    1
 -2       483       626       623      2691      2692      2683
 -1      1102    8    0    1
 -2       588       613       627      2633      2693      2694
 -1      1103    8    0    1
 -2       487       486       628      2268      2695      2696
 -1      1104    8    0    1
 -2       488       487       629      2271      2697      2698
 -1      1105    8    0    1
 -2       487       628       629      2696      2699      2697
 -1      1106    8    0    1
 -2       489       488       630      2274      2700      2701
 -1      1107    8    0    1
 -2       488       629       630      2698      2702      2700
 -1      1108    8    0    1
 -2       490       489       631      2277      2703      2704
 -1      1109    8    0    1
 -2       489       630       631      2701      2705      2703
 -1      1110    8    0    1
 -2       491       490       632      2280      2706      2707
 -1      1111    8    0    1
 -2       490       631       632      2704      2708      2706
 -1      1112    8    0    1
 -2       492       491       633      2283      2709      2710
 -1      1113    8    0    1
 -2       491       632       633      2707      2711      2709
 -1      1114    8    0    1
 -2       493       492       634      2286      2712      2713
 -1      1115    8    0    1
 -2       492       633       634      2710      2714      2712
 -1      1116    8    0    1
 -2       494       493       635      2289      2715      2716
 -1      1117    8    0    1
 -2       493       634       635      2713      2717      2715
 -1      1118    8    0    1
 -2       495       494       636      2292      2718      2719
 -1      1119    8    0    1
 -2       494       635       636      2716      2720      2718
 -1      1120    8    0    1
 -2       496       495       637      2295      2721      2722
 -1      1121    8    0    1
 -2       495       636       637      2719      2723      2721
 -1      1122    8    0    1
 -2       497       496       638      2298      2724      2725
 -1      1123    8    0    1
 -2       496       637       638      2722      2726      2724
 -1      1124    8    0    1
 -2       498       497       639      2301      2727      2728
 -1      1125    8    0    1
 -2       497       638       639      2725      2729      2727
 -1      1126    8    0    1
 -2       499       498       640      2304      2730      2731
 -1      1127    8    0    1
 -2       498       639       640      2728      2732      2730
 -1      1128    8    0    1
 -2       500       499       641      2307      2733      2734
 -1      1129    8    0    1
 -2       499       640       641      2731      2735      2733
 -1      1130    8    0    1
 -2       501       500       642      2310      2736      2737
 -1      1131    8    0    1
 -2       500       641       642      2734      2738      2736
 -1      1132    8    0    1
 -2       502       501       643      2313      2739      2740
 -1      1133    8    0    1
 -2       501       642       643      2737      2741      2739
 -1      1134    8    0    1
 -2       503       502       644      2316      2742      2743
 -1      1135    8    0    1
 -2       502       643       644      2740      2744      2742
 -1      1136    8    0    1
 -2       504       503       645      2319      2745      2746
 -1      1137    8    0    1
 -2       503       644       645      2743      2747      2745
 -1      1138    8    0    1
 -2       505       504       646      2322      2748      2749
 -1      1139    8    0    1
 -2       504       645       646      2746      2750      2748
 -1      1140    8    0    1
 -2       506       505       647      2325      2751      2752
 -1      1141    8    0    1
 -2       505       646       647      2749      2753      2751
 -1      1142    8    0    1
 -2       507       506       648      2328      2754      2755
 -1      1143    8    0    1
 -2       506       647       648      2752      2756      2754
 -1      1144    8    0    1
 -2       508       507       649      2331      2757      2758
 -1      1145    8    0    1
 -2       507       648       649      2755      2759      2757
 -1      1146    8    0    1
 -2       511       510       605      2340      2760      2761
 -1      1147    8    0    1
 -2       513       512       650      2346      2762      2763
 -1      1148    8    0    1
 -2       514       513       651      2349      2764      2765
 -1      1149    8    0    1
 -2       513       650       651      2763      2766      2764
 -1      1150    8    0    1
 -2       515       514       652      2352      2767      2768
 -1      1151    8    0    1
 -2       514       651       652      2765      2769      2767
 -1      1152    8    0    1
 -2       516       515       653      2355      2770      2771
 -1      1153    8    0    1
 -2       515       652       653      2768      2772      2770
 -1      1154    8    0    1
 -2       517       516       654      2358      2773      2774
 -1      1155    8    0    1
 -2       516       653       654      2771      2775      2773
 -1      1156    8    0    1
 -2       518       517       655      2361      2776      2777
 -1      1157    8    0    1
 -2       517       654       655      2774      2778      2776
 -1      1158    8    0    1
 -2       519       518       656      2364      2779      2780
 -1      1159    8    0    1
 -2       518       655       656      2777      2781      2779
 -1      1160    8    0    1
 -2       520       519       657      2367      2782      2783
 -1      1161    8    0    1
 -2       519       656       657      2780      2784      2782
 -1      1162    8    0    1
 -2       521       520       658      2370      2785      2786
 -1      1163    8    0    1
 -2       520       657       658      2783      2787      2785
 -1      1164    8    0    1
 -2       522       521       659      2373      2788      2789
 -1      1165    8    0    1
 -2       521       658       659      2786      2790      2788
 -1      1166    8    0    1
 -2       523       522       660      2376      2791      2792
 -1      1167    8    0    1
 -2       522       659       660      2789      2793      2791
 -1      1168    8    0    1
 -2       524       523       661      2379      2794      2795
 -1      1169    8    0    1
 -2       523       660       661      2792      2796      2794
 -1      1170    8    0    1
 -2       525       524       662      2382      2797      2798
 -1      1171    8    0    1
 -2       524       661       662      2795      2799      2797
 -1      1172    8    0    1
 -2       526       525       663      2385      2800      2801
 -1      1173    8    0    1
 -2       525       662       663      2798      2802      2800
 -1      1174    8    0    1
 -2       527       526       664      2388      2803      2804
 -1      1175    8    0    1
 -2       526       663       664      2801      2805      2803
 -1      1176    8    0    1
 -2       528       527       665      2391      2806      2807
 -1      1177    8    0    1
 -2       527       664       665      2804      2808      2806
 -1      1178    8    0    1
 -2       606       607       666      2647      2809      2810
 -1      1179    8    0    1
 -2       530       531       667      2398      2811      2812
 -1      1180    8    0    1
 -2       533       534       668      2407      2813      2814
 -1      1181    8    0    1
 -2       534       535       669      2410      2815      2816
 -1      1182    8    0    1
 -2       534       669       668      2816      2817      2813
 -1      1183    8    0    1
 -2       535       536       670      2413      2818      2819
 -1      1184    8    0    1
 -2       535       670       669      2819      2820      2815
 -1      1185    8    0    1
 -2       536       537       671      2416      2821      2822
 -1      1186    8    0    1
 -2       536       671       670      2822      2823      2818
 -1      1187    8    0    1
 -2       537       538       672      2419      2824      2825
 -1      1188    8    0    1
 -2       537       672       671      2825      2826      2821
 -1      1189    8    0    1
 -2       538       539       673      2422      2827      2828
 -1      1190    8    0    1
 -2       538       673       672      2828      2829      2824
 -1      1191    8    0    1
 -2       539       540       674      2425      2830      2831
 -1      1192    8    0    1
 -2       539       674       673      2831      2832      2827
 -1      1193    8    0    1
 -2       540       541       675      2428      2833      2834
 -1      1194    8    0    1
 -2       540       675       674      2834      2835      2830
 -1      1195    8    0    1
 -2       541       542       676      2431      2836      2837
 -1      1196    8    0    1
 -2       541       676       675      2837      2838      2833
 -1      1197    8    0    1
 -2       542       543       677      2434      2839      2840
 -1      1198    8    0    1
 -2       542       677       676      2840      2841      2836
 -1      1199    8    0    1
 -2       543       544       678      2437      2842      2843
 -1      1200    8    0    1
 -2       543       678       677      2843      2844      2839
 -1      1201    8    0    1
 -2       544       545       679      2440      2845      2846
 -1      1202    8    0    1
 -2       544       679       678      2846      2847      2842
 -1      1203    8    0    1
 -2       545       546       680      2443      2848      2849
 -1      1204    8    0    1
 -2       545       680       679      2849      2850      2845
 -1      1205    8    0    1
 -2       546       547       681      2446      2851      2852
 -1      1206    8    0    1
 -2       546       681       680      2852      2853      2848
 -1      1207    8    0    1
 -2       547       548       682      2449      2854      2855
 -1      1208    8    0    1
 -2       547       682       681      2855      2856      2851
 -1      1209    8    0    1
 -2       548       549       683      2452      2857      2858
 -1      1210    8    0    1
 -2       548       683       682      2858      2859      2854
 -1      1211    8    0    1
 -2       549       550       684      2455      2860      2861
 -1      1212    8    0    1
 -2       549       684       683      2861      2862      2857
 -1      1213    8    0    1
 -2       550       551       685      2458      2863      2864
 -1      1214    8    0    1
 -2       550       685       684      2864      2865      2860
 -1      1215    8    0    1
 -2       551       552       686      2461      2866      2867
 -1      1216    8    0    1
 -2       551       686       685      2867      2868      2863
 -1      1217    8    0    1
 -2       552       553       687      2464      2869      2870
 -1      1218    8    0    1
 -2       552       687       686      2870      2871      2866
 -1      1219    8    0    1
 -2       553       554       688      2467      2872      2873
 -1      1220    8    0    1
 -2       553       688       687      2873      2874      2869
 -1      1221    8    0    1
 -2       554       555       689      2470      2875      2876
 -1      1222    8    0    1
 -2       554       689       688      2876      2877      2872
 -1      1223    8    0    1
 -2       555       556       690      2473      2878      2879
 -1      1224    8    0    1
 -2       555       690       689      2879      2880      2875
 -1      1225    8    0    1
 -2       556       557       691      2476      2881      2882
 -1      1226    8    0    1
 -2       556       691       690      2882      2883      2878
 -1      1227    8    0    1
 -2       557       558       692      2479      2884      2885
 -1      1228    8    0    1
 -2       557       692       691      2885      2886      2881
 -1      1229    8    0    1
 -2       558       559       693      2482      2887      2888
 -1      1230    8    0    1
 -2       558       693       692      2888      2889      2884
 -1      1231    8    0    1
 -2       559       560       694      2485      2890      2891
 -1      1232    8    0    1
 -2       559       694       693      2891      2892      2887
 -1      1233    8    0    1
 -2       560       561       695      2488      2893      2894
 -1      1234    8    0    1
 -2       560       695       694      2894      2895      2890
 -1      1235    8    0    1
 -2       561       562       696      2491      2896      2897
 -1      1236    8    0    1
 -2       561       696       695      2897      2898      2893
 -1      1237    8    0    1
 -2       562       563       697      2494      2899      2900
 -1      1238    8    0    1
 -2       562       697       696      2900      2901      2896
 -1      1239    8    0    1
 -2       563       564       698      2497      2902      2903
 -1      1240    8    0    1
 -2       563       698       697      2903      2904      2899
 -1      1241    8    0    1
 -2       564       565       699      2500      2905      2906
 -1      1242    8    0    1
 -2       564       699       698      2906      2907      2902
 -1      1243    8    0    1
 -2       565       566       700      2503      2908      2909
 -1      1244    8    0    1
 -2       565       700       699      2909      2910      2905
 -1      1245    8    0    1
 -2       566       567       701      2506      2911      2912
 -1      1246    8    0    1
 -2       566       701       700      2912      2913      2908
 -1      1247    8    0    1
 -2       567       568       702      2509      2914      2915
 -1      1248    8    0    1
 -2       567       702       701      2915      2916      2911
 -1      1249    8    0    1
 -2       568       569       703      2512      2917      2918
 -1      1250    8    0    1
 -2       568       703       702      2918      2919      2914
 -1      1251    8    0    1
 -2       569       570       704      2515      2920      2921
 -1      1252    8    0    1
 -2       569       704       703      2921      2922      2917
 -1      1253    8    0    1
 -2       570       571       705      2518      2923      2924
 -1      1254    8    0    1
 -2       704       570       705      2920      2924      2925
 -1      1255    8    0    1
 -2       571       574       705      2671      2926      2923
 -1      1256    8    0    1
 -2       576       577       706      2536      2927      2928
 -1      1257    8    0    1
 -2       616       528       707      2672      2929      2930
 -1      1258    8    0    1
 -2       582       616       707      2645      2930      2931
 -1      1259    8    0    1
 -2       528       665       707      2807      2932      2929
 -1      1260    8    0    1
 -2       572       573       708      2524      2933      2934
 -1      1261    8    0    1
 -2       577       578       709      2539      2935      2936
 -1      1262    8    0    1
 -2       577       709       706      2936      2937      2927
 -1      1263    8    0    1
 -2       573       576       710      2533      2938      2939
 -1      1264    8    0    1
 -2       708       573       710      2933      2939      2940
 -1      1265    8    0    1
 -2       576       706       710      2928      2941      2938
 -1      1266    8    0    1
 -2       529       585       711      2639      2942      2943
 -1      1267    8    0    1
 -2       585       624       711      2686      2944      2942
 -1      1268    8    0    1
 -2       578       579       712      2542      2945      2946
 -1      1269    8    0    1
 -2       578       712       709      2946      2947      2935
 -1      1270    8    0    1
 -2       579       580       713      2545      2948      2949
 -1      1271    8    0    1
 -2       579       713       712      2949      2950      2945
 -1      1272    8    0    1
 -2       580       581       714      2548      2951      2952
 -1      1273    8    0    1
 -2       580       714       713      2952      2953      2948
 -1      1274    8    0    1
 -2       581       582       715      2551      2954      2955
 -1      1275    8    0    1
 -2       714       581       715      2951      2955      2956
 -1      1276    8    0    1
 -2       582       707       715      2931      2957      2954
 -1      1277    8    0    1
 -2       584       530       716      2557      2958      2959
 -1      1278    8    0    1
 -2       626       584       716      2690      2959      2960
 -1      1279    8    0    1
 -2       530       667       716      2812      2961      2958
 -1      1280    8    0    1
 -2       484       587       717      2564      2962      2963
 -1      1281    8    0    1
 -2       589       602       718      2654      2964      2965
 -1      1282    8    0    1
 -2       601       589       719      2653      2966      2967
 -1      1283    8    0    1
 -2       589       718       719      2965      2968      2966
 -1      1284    8    0    1
 -2       595       590       720      2657      2969      2970
 -1      1285    8    0    1
 -2       473       603       721      2658      2971      2972
 -1      1286    8    0    1
 -2       532       533       722      2404      2973      2974
 -1      1287    8    0    1
 -2       533       668       722      2814      2975      2973
 -1      1288    8    0    1
 -2       531       532       723      2401      2976      2977
 -1      1289    8    0    1
 -2       532       722       723      2974      2978      2976
 -1      1290    8    0    1
 -2       486       484       724      2265      2979      2980
 -1      1291    8    0    1
 -2       628       486       724      2695      2980      2981
 -1      1292    8    0    1
 -2       484       717       724      2963      2982      2979
 -1      1293    8    0    1
 -2       600       593       725      2655      2983      2984
 -1      1294    8    0    1
 -2       485       594       726      2661      2985      2986
 -1      1295    8    0    1
 -2       479       480       727      2249      2987      2988
 -1      1296    8    0    1
 -2       619       479       727      2673      2988      2989
 -1      1297    8    0    1
 -2       480       621       727      2679      2990      2987
 -1      1298    8    0    1
 -2       476       475       728      2238      2991      2992
 -1      1299    8    0    1
 -2       597       598       729      2656      2993      2994
 -1      1300    8    0    1
 -2       587       447       717      2660      2995      2962
 -1      1301    8    0    1
 -2       596       597       730      2588      2996      2997
 -1      1302    8    0    1
 -2       583       611       731      2649      2998      2999
 -1      1303    8    0    1
 -2       598       600       732      2665      3000      3001
 -1      1304    8    0    1
 -2       598       732       729      3001      3002      2993
 -1      1305    8    0    1
 -2       593       601       733      2597      3003      3004
 -1      1306    8    0    1
 -2       590       596       734      2659      3005      3006
 -1      1307    8    0    1
 -2       611       529       735      2669      3007      3008
 -1      1308    8    0    1
 -2       603       604       736      2604      3009      3010
 -1      1309    8    0    1
 -2       609       610       737      2634      3011      3012
 -1      1310    8    0    1
 -2       604       599       738      2648      3013      3014
 -1      1311    8    0    1
 -2       604       738       736      3014      3015      3009
 -1      1312    8    0    1
 -2       608       609       739      2635      3016      3017
 -1      1313    8    0    1
 -2       613       485       740      2632      3018      3019
 -1      1314    8    0    1
 -2       594       592       741      2626      3020      3021
 -1      1315    8    0    1
 -2       511       605       606      2761      2670      3022
 -1      1316    8    0    1
 -2       614       476       742      2627      3023      3024
 -1      1317    8    0    1
 -2       476       728       742      2992      3025      3023
 -1      1318    8    0    1
 -2       477       620       743      2676      3026      3027
 -1      1319    8    0    1
 -2       477       743       591      3027      3028      2575
 -1      1320    8    0    1
 -2       588       627       624      2694      3029      2685
 -1      1321    8    0    1
 -2       482       474       623      2687      2684      3030
 -1      1322    8    0    1
 -2       625       586       615      2688      2638      3031
 -1      1323    8    0    1
 -2       627       613       740      2693      3019      3032
 -1      1324    8    0    1
 -2       615       583       731      2636      2999      3033
 -1      1325    8    0    1
 -2       508       649       736      2758      3034      3035
 -1      1326    8    0    1
 -2       605       510       599      2760      3036      2652
 -1      1327    8    0    1
 -2       509       508       736      2334      3035      3037
 -1      1328    8    0    1
 -2       510       509       738      2337      3038      3039
 -1      1329    8    0    1
 -2       572       708       744      2934      3040      3041
 -1      1330    8    0    1
 -2       572       744       575      3041      3042      2530
 -1      1331    8    0    1
 -2       600       725       745      2984      3043      3044
 -1      1332    8    0    1
 -2       600       745       732      3044      3045      3000
 -1      1333    8    0    1
 -2       607       608       746      2642      3046      3047
 -1      1334    8    0    1
 -2       531       723       667      2977      3048      2811
 -1      1335    8    0    1
 -2       574       575       747      2529      3049      3050
 -1      1336    8    0    1
 -2       705       574       747      2926      3050      3051
 -1      1337    8    0    1
 -2       575       744       747      3042      3052      3049
 -1      1338    8    0    1
 -2       721       603       736      2971      3010      3053
 -1      1339    8    0    1
 -2       740       485       726      3018      2986      3054
 -1      1340    8    0    1
 -2       738       599       510      3013      3036      3039
 -1      1341    8    0    1
 -2       718       602       748      2964      3055      3056
 -1      1342    8    0    1
 -2       602       618       748      2667      3057      3055
 -1      1343    8    0    1
 -2       737       610       625      3011      2689      3058
 -1      1344    8    0    1
 -2       608       739       746      3017      3059      3046
 -1      1345    8    0    1
 -2       735       529       749      3007      3060      3061
 -1      1346    8    0    1
 -2       529       711       749      2943      3062      3060
 -1      1347    8    0    1
 -2       734       596       730      3005      2997      3063
 -1      1348    8    0    1
 -2       731       611       735      2998      3008      3064
 -1      1349    8    0    1
 -2       595       720       750      2970      3065      3066
 -1      1350    8    0    1
 -2       595       750       617      3066      3067      2662
 -1      1351    8    0    1
 -2       601       719       733      2967      3068      3003
 -1      1352    8    0    1
 -2       720       590       734      2969      3006      3069
 -1      1353    8    0    1
 -2       473       721       618      2972      3070      2668
 -1      1354    8    0    1
 -2       447       614       717      2629      3071      2995
 -1      1355    8    0    1
 -2       650       512       666      2762      3072      3073
 -1      1356    8    0    1
 -2       475       591       751      2574      3074      3075
 -1      1357    8    0    1
 -2       728       475       751      2991      3075      3076
 -1      1358    8    0    1
 -2       591       743       751      3028      3077      3074
 -1      1359    8    0    1
 -2       726       594       741      2985      3021      3078
 -1      1360    8    0    1
 -2       509       736       738      3037      3015      3038
 -1      1361    8    0    1
 -2       593       733       725      3004      3079      2983
 -1      1362    8    0    1
 -2       597       729       730      2994      3080      2996
 -1      1363    8    0    1
 -2       609       737       739      3012      3081      3016
 -1      1364    8    0    1
 -2       482       623       622      3030      3082      2680
 -1      1365    8    0    1
 -2       666       512       511      3072      2343      3083
 -1      1366    8    0    1
 -2       666       511       606      3083      3022      2810
 -1      1367    8    0    1
 -2       625       615       752      3031      3084      3085
 -1      1368    8    0    1
 -2       621       622       753      2682      3086      3087
 -1      1369    8    0    1
 -2       709       712       754      2947      3088      3089
 -1      1370    8    0    1
 -2       726       741       755      3078      3090      3091
 -1      1371    8    0    1
 -2       736       649       721      3034      3092      3053
 -1      1372    8    0    1
 -2       630       629       756      2702      3093      3094
 -1      1373    8    0    1
 -2       631       630       757      2705      3095      3096
 -1      1374    8    0    1
 -2       630       756       757      3094      3097      3095
 -1      1375    8    0    1
 -2       632       631       758      2708      3098      3099
 -1      1376    8    0    1
 -2       631       757       758      3096      3100      3098
 -1      1377    8    0    1
 -2       633       632       759      2711      3101      3102
 -1      1378    8    0    1
 -2       632       758       759      3099      3103      3101
 -1      1379    8    0    1
 -2       634       633       760      2714      3104      3105
 -1      1380    8    0    1
 -2       633       759       760      3102      3106      3104
 -1      1381    8    0    1
 -2       635       634       761      2717      3107      3108
 -1      1382    8    0    1
 -2       634       760       761      3105      3109      3107
 -1      1383    8    0    1
 -2       636       635       762      2720      3110      3111
 -1      1384    8    0    1
 -2       635       761       762      3108      3112      3110
 -1      1385    8    0    1
 -2       637       636       763      2723      3113      3114
 -1      1386    8    0    1
 -2       636       762       763      3111      3115      3113
 -1      1387    8    0    1
 -2       638       637       764      2726      3116      3117
 -1      1388    8    0    1
 -2       637       763       764      3114      3118      3116
 -1      1389    8    0    1
 -2       639       638       765      2729      3119      3120
 -1      1390    8    0    1
 -2       638       764       765      3117      3121      3119
 -1      1391    8    0    1
 -2       640       639       766      2732      3122      3123
 -1      1392    8    0    1
 -2       639       765       766      3120      3124      3122
 -1      1393    8    0    1
 -2       641       640       767      2735      3125      3126
 -1      1394    8    0    1
 -2       640       766       767      3123      3127      3125
 -1      1395    8    0    1
 -2       642       641       768      2738      3128      3129
 -1      1396    8    0    1
 -2       641       767       768      3126      3130      3128
 -1      1397    8    0    1
 -2       643       642       769      2741      3131      3132
 -1      1398    8    0    1
 -2       642       768       769      3129      3133      3131
 -1      1399    8    0    1
 -2       644       643       770      2744      3134      3135
 -1      1400    8    0    1
 -2       643       769       770      3132      3136      3134
 -1      1401    8    0    1
 -2       645       644       771      2747      3137      3138
 -1      1402    8    0    1
 -2       644       770       771      3135      3139      3137
 -1      1403    8    0    1
 -2       646       645       772      2750      3140      3141
 -1      1404    8    0    1
 -2       645       771       772      3138      3142      3140
 -1      1405    8    0    1
 -2       647       646       773      2753      3143      3144
 -1      1406    8    0    1
 -2       646       772       773      3141      3145      3143
 -1      1407    8    0    1
 -2       648       647       748      2756      3146      3147
 -1      1408    8    0    1
 -2       649       648       748      2759      3147      3148
 -1      1409    8    0    1
 -2       725       733       774      3079      3149      3150
 -1      1410    8    0    1
 -2       653       652       775      2772      3151      3152
 -1      1411    8    0    1
 -2       654       653       776      2775      3153      3154
 -1      1412    8    0    1
 -2       653       775       776      3152      3155      3153
 -1      1413    8    0    1
 -2       655       654       777      2778      3156      3157
 -1      1414    8    0    1
 -2       654       776       777      3154      3158      3156
 -1      1415    8    0    1
 -2       656       655       778      2781      3159      3160
 -1      1416    8    0    1
 -2       655       777       778      3157      3161      3159
 -1      1417    8    0    1
 -2       657       656       779      2784      3162      3163
 -1      1418    8    0    1
 -2       656       778       779      3160      3164      3162
 -1      1419    8    0    1
 -2       658       657       780      2787      3165      3166
 -1      1420    8    0    1
 -2       657       779       780      3163      3167      3165
 -1      1421    8    0    1
 -2       659       658       781      2790      3168      3169
 -1      1422    8    0    1
 -2       658       780       781      3166      3170      3168
 -1      1423    8    0    1
 -2       660       659       782      2793      3171      3172
 -1      1424    8    0    1
 -2       659       781       782      3169      3173      3171
 -1      1425    8    0    1
 -2       661       660       783      2796      3174      3175
 -1      1426    8    0    1
 -2       660       782       783      3172      3176      3174
 -1      1427    8    0    1
 -2       662       661       784      2799      3177      3178
 -1      1428    8    0    1
 -2       661       783       784      3175      3179      3177
 -1      1429    8    0    1
 -2       663       662       785      2802      3180      3181
 -1      1430    8    0    1
 -2       662       784       785      3178      3182      3180
 -1      1431    8    0    1
 -2       664       663       786      2805      3183      3184
 -1      1432    8    0    1
 -2       663       785       786      3181      3185      3183
 -1      1433    8    0    1
 -2       665       664       787      2808      3186      3187
 -1      1434    8    0    1
 -2       664       786       787      3184      3188      3186
 -1      1435    8    0    1
 -2       666       607       650      2809      3189      3073
 -1      1436    8    0    1
 -2       667       723       788      3048      3190      3191
 -1      1437    8    0    1
 -2       668       669       789      2817      3192      3193
 -1      1438    8    0    1
 -2       671       672       790      2826      3194      3195
 -1      1439    8    0    1
 -2       672       673       791      2829      3196      3197
 -1      1440    8    0    1
 -2       672       791       790      3197      3198      3194
 -1      1441    8    0    1
 -2       673       674       792      2832      3199      3200
 -1      1442    8    0    1
 -2       673       792       791      3200      3201      3196
 -1      1443    8    0    1
 -2       674       675       793      2835      3202      3203
 -1      1444    8    0    1
 -2       674       793       792      3203      3204      3199
 -1      1445    8    0    1
 -2       675       676       794      2838      3205      3206
 -1      1446    8    0    1
 -2       675       794       793      3206      3207      3202
 -1      1447    8    0    1
 -2       676       677       795      2841      3208      3209
 -1      1448    8    0    1
 -2       676       795       794      3209      3210      3205
 -1      1449    8    0    1
 -2       677       678       796      2844      3211      3212
 -1      1450    8    0    1
 -2       677       796       795      3212      3213      3208
 -1      1451    8    0    1
 -2       678       679       797      2847      3214      3215
 -1      1452    8    0    1
 -2       678       797       796      3215      3216      3211
 -1      1453    8    0    1
 -2       679       680       798      2850      3217      3218
 -1      1454    8    0    1
 -2       679       798       797      3218      3219      3214
 -1      1455    8    0    1
 -2       680       681       799      2853      3220      3221
 -1      1456    8    0    1
 -2       680       799       798      3221      3222      3217
 -1      1457    8    0    1
 -2       681       682       800      2856      3223      3224
 -1      1458    8    0    1
 -2       681       800       799      3224      3225      3220
 -1      1459    8    0    1
 -2       682       683       801      2859      3226      3227
 -1      1460    8    0    1
 -2       682       801       800      3227      3228      3223
 -1      1461    8    0    1
 -2       683       684       802      2862      3229      3230
 -1      1462    8    0    1
 -2       683       802       801      3230      3231      3226
 -1      1463    8    0    1
 -2       684       685       803      2865      3232      3233
 -1      1464    8    0    1
 -2       684       803       802      3233      3234      3229
 -1      1465    8    0    1
 -2       685       686       804      2868      3235      3236
 -1      1466    8    0    1
 -2       685       804       803      3236      3237      3232
 -1      1467    8    0    1
 -2       687       688       805      2874      3238      3239
 -1      1468    8    0    1
 -2       688       689       755      2877      3240      3241
 -1      1469    8    0    1
 -2       690       691       806      2883      3242      3243
 -1      1470    8    0    1
 -2       691       692       807      2886      3244      3245
 -1      1471    8    0    1
 -2       691       807       806      3245      3246      3242
 -1      1472    8    0    1
 -2       692       693       808      2889      3247      3248
 -1      1473    8    0    1
 -2       692       808       807      3248      3249      3244
 -1      1474    8    0    1
 -2       693       694       809      2892      3250      3251
 -1      1475    8    0    1
 -2       693       809       808      3251      3252      3247
 -1      1476    8    0    1
 -2       694       695       810      2895      3253      3254
 -1      1477    8    0    1
 -2       694       810       809      3254      3255      3250
 -1      1478    8    0    1
 -2       695       696       811      2898      3256      3257
 -1      1479    8    0    1
 -2       695       811       810      3257      3258      3253
 -1      1480    8    0    1
 -2       696       697       812      2901      3259      3260
 -1      1481    8    0    1
 -2       696       812       811      3260      3261      3256
 -1      1482    8    0    1
 -2       697       698       813      2904      3262      3263
 -1      1483    8    0    1
 -2       697       813       812      3263      3264      3259
 -1      1484    8    0    1
 -2       698       699       814      2907      3265      3266
 -1      1485    8    0    1
 -2       698       814       813      3266      3267      3262
 -1      1486    8    0    1
 -2       699       700       815      2910      3268      3269
 -1      1487    8    0    1
 -2       699       815       814      3269      3270      3265
 -1      1488    8    0    1
 -2       700       701       816      2913      3271      3272
 -1      1489    8    0    1
 -2       700       816       815      3272      3273      3268
 -1      1490    8    0    1
 -2       701       702       817      2916      3274      3275
 -1      1491    8    0    1
 -2       701       817       816      3275      3276      3271
 -1      1492    8    0    1
 -2       702       703       818      2919      3277      3278
 -1      1493    8    0    1
 -2       702       818       817      3278      3279      3274
 -1      1494    8    0    1
 -2       703       704       819      2922      3280      3281
 -1      1495    8    0    1
 -2       703       819       818      3281      3282      3277
 -1      1496    8    0    1
 -2       704       705       820      2925      3283      3284
 -1      1497    8    0    1
 -2       819       704       820      3280      3284      3285
 -1      1498    8    0    1
 -2       705       747       820      3051      3286      3283
 -1      1499    8    0    1
 -2       707       665       715      2932      3287      2957
 -1      1500    8    0    1
 -2       620       619       821      2677      3288      3289
 -1      1501    8    0    1
 -2       712       713       822      2950      3290      3291
 -1      1502    8    0    1
 -2       712       822       754      3291      3292      3088
 -1      1503    8    0    1
 -2       706       709       823      2937      3293      3294
 -1      1504    8    0    1
 -2       709       754       823      3089      3295      3293
 -1      1505    8    0    1
 -2       713       714       824      2953      3296      3297
 -1      1506    8    0    1
 -2       713       824       822      3297      3298      3290
 -1      1507    8    0    1
 -2       741       592       825      3020      3299      3300
 -1      1508    8    0    1
 -2       719       718       826      2968      3301      3302
 -1      1509    8    0    1
 -2       722       668       827      2975      3303      3304
 -1      1510    8    0    1
 -2       668       789       827      3193      3305      3303
 -1      1511    8    0    1
 -2       670       671       828      2823      3306      3307
 -1      1512    8    0    1
 -2       671       790       828      3195      3308      3306
 -1      1513    8    0    1
 -2       669       670       829      2820      3309      3310
 -1      1514    8    0    1
 -2       789       669       829      3192      3310      3311
 -1      1515    8    0    1
 -2       670       828       829      3307      3312      3309
 -1      1516    8    0    1
 -2       624       627       830      3029      3313      3314
 -1      1517    8    0    1
 -2       629       628       831      2699      3315      3316
 -1      1518    8    0    1
 -2       629       831       756      3316      3317      3093
 -1      1519    8    0    1
 -2       723       722       832      2978      3318      3319
 -1      1520    8    0    1
 -2       722       827       832      3304      3320      3318
 -1      1521    8    0    1
 -2       733       719       833      3068      3321      3322
 -1      1522    8    0    1
 -2       719       826       833      3302      3323      3321
 -1      1523    8    0    1
 -2       592       617       825      2664      3324      3299
 -1      1524    8    0    1
 -2       730       729       834      3080      3325      3326
 -1      1525    8    0    1
 -2       739       737       835      3081      3327      3328
 -1      1526    8    0    1
 -2       717       614       742      3071      3024      3329
 -1      1527    8    0    1
 -2       729       732       836      3002      3330      3331
 -1      1528    8    0    1
 -2       720       734       837      3069      3332      3333
 -1      1529    8    0    1
 -2       737       625       838      3058      3334      3335
 -1      1530    8    0    1
 -2       731       735       839      3064      3336      3337
 -1      1531    8    0    1
 -2       740       726       840      3054      3338      3339
 -1      1532    8    0    1
 -2       726       755       840      3091      3340      3338
 -1      1533    8    0    1
 -2       734       730       841      3063      3341      3342
 -1      1534    8    0    1
 -2       622       623       842      3082      3343      3344
 -1      1535    8    0    1
 -2       753       622       842      3086      3344      3345
 -1      1536    8    0    1
 -2       623       626       842      2692      3346      3343
 -1      1537    8    0    1
 -2       711       624       843      2944      3347      3348
 -1      1538    8    0    1
 -2       627       740       844      3032      3349      3350
 -1      1539    8    0    1
 -2       615       731       845      3033      3351      3352
 -1      1540    8    0    1
 -2       741       825       846      3300      3353      3354
 -1      1541    8    0    1
 -2       825       617       847      3324      3355      3356
 -1      1542    8    0    1
 -2       846       825       847      3353      3356      3357
 -1      1543    8    0    1
 -2       617       750       847      3067      3358      3355
 -1      1544    8    0    1
 -2       743       620       848      3026      3359      3360
 -1      1545    8    0    1
 -2       620       821       848      3289      3361      3359
 -1      1546    8    0    1
 -2       621       753       849      3087      3362      3363
 -1      1547    8    0    1
 -2       621       849       727      3363      3364      2990
 -1      1548    8    0    1
 -2       734       841       837      3342      3365      3332
 -1      1549    8    0    1
 -2       711       843       749      3348      3366      3062
 -1      1550    8    0    1
 -2       742       728       850      3025      3367      3368
 -1      1551    8    0    1
 -2       723       832       788      3319      3369      3190
 -1      1552    8    0    1
 -2       647       773       748      3144      3370      3146
 -1      1553    8    0    1
 -2       774       733       833      3149      3322      3371
 -1      1554    8    0    1
 -2       744       708       851      3040      3372      3373
 -1      1555    8    0    1
 -2       665       787       715      3187      3374      3287
 -1      1556    8    0    1
 -2       725       774       745      3150      3375      3043
 -1      1557    8    0    1
 -2       625       752       852      3085      3376      3377
 -1      1558    8    0    1
 -2       625       852       838      3377      3378      3334
 -1      1559    8    0    1
 -2       706       823       853      3294      3379      3380
 -1      1560    8    0    1
 -2       706       853       710      3380      3381      2941
 -1      1561    8    0    1
 -2       652       651       835      2769      3382      3383
 -1      1562    8    0    1
 -2       650       607       746      3189      3047      3384
 -1      1563    8    0    1
 -2       830       627       844      3313      3350      3385
 -1      1564    8    0    1
 -2       735       749       854      3061      3386      3387
 -1      1565    8    0    1
 -2       735       854       839      3387      3388      3336
 -1      1566    8    0    1
 -2       624       830       843      3314      3389      3347
 -1      1567    8    0    1
 -2       805       688       755      3238      3241      3390
 -1      1568    8    0    1
 -2       686       687       855      2871      3391      3392
 -1      1569    8    0    1
 -2       686       855       804      3392      3393      3235
 -1      1570    8    0    1
 -2       689       690       856      2880      3394      3395
 -1      1571    8    0    1
 -2       708       710       857      2940      3396      3397
 -1      1572    8    0    1
 -2       851       708       857      3372      3397      3398
 -1      1573    8    0    1
 -2       710       853       857      3381      3399      3396
 -1      1574    8    0    1
 -2       821       619       858      3288      3400      3401
 -1      1575    8    0    1
 -2       619       727       858      2989      3402      3400
 -1      1576    8    0    1
 -2       626       716       859      2960      3403      3404
 -1      1577    8    0    1
 -2       626       859       842      3404      3405      3346
 -1      1578    8    0    1
 -2       652       835       775      3383      3406      3151
 -1      1579    8    0    1
 -2       730       834       841      3326      3407      3341
 -1      1580    8    0    1
 -2       714       715       787      2956      3374      3408
 -1      1581    8    0    1
 -2       716       667       860      2961      3409      3410
 -1      1582    8    0    1
 -2       859       716       860      3403      3410      3411
 -1      1583    8    0    1
 -2       667       788       860      3191      3412      3409
 -1      1584    8    0    1
 -2       845       731       839      3351      3337      3413
 -1      1585    8    0    1
 -2       750       720       837      3065      3333      3414
 -1      1586    8    0    1
 -2       831       628       861      3315      3415      3416
 -1      1587    8    0    1
 -2       628       724       861      2981      3417      3415
 -1      1588    8    0    1
 -2       728       751       862      3076      3418      3419
 -1      1589    8    0    1
 -2       728       862       850      3419      3420      3367
 -1      1590    8    0    1
 -2       732       745       836      3045      3421      3330
 -1      1591    8    0    1
 -2       724       717       742      2982      3329      3422
 -1      1592    8    0    1
 -2       835       737       838      3327      3335      3423
 -1      1593    8    0    1
 -2       834       729       836      3325      3331      3424
 -1      1594    8    0    1
 -2       739       835       651      3328      3382      3425
 -1      1595    8    0    1
 -2       740       840       844      3339      3426      3349
 -1      1596    8    0    1
 -2       714       787       824      3408      3427      3296
 -1      1597    8    0    1
 -2       615       845       752      3352      3428      3084
 -1      1598    8    0    1
 -2       855       687       805      3391      3239      3429
 -1      1599    8    0    1
 -2       856       690       806      3394      3243      3430
 -1      1600    8    0    1
 -2       822       824       863      3298      3431      3432
 -1      1601    8    0    1
 -2       836       745       864      3421      3433      3434
 -1      1602    8    0    1
 -2       788       832       865      3369      3435      3436
 -1      1603    8    0    1
 -2       721       649       618      3092      3437      3070
 -1      1604    8    0    1
 -2       758       757       866      3100      3438      3439
 -1      1605    8    0    1
 -2       759       758       867      3103      3440      3441
 -1      1606    8    0    1
 -2       758       866       867      3439      3442      3440
 -1      1607    8    0    1
 -2       760       759       868      3106      3443      3444
 -1      1608    8    0    1
 -2       759       867       868      3441      3445      3443
 -1      1609    8    0    1
 -2       761       760       869      3109      3446      3447
 -1      1610    8    0    1
 -2       760       868       869      3444      3448      3446
 -1      1611    8    0    1
 -2       762       761       870      3112      3449      3450
 -1      1612    8    0    1
 -2       761       869       870      3447      3451      3449
 -1      1613    8    0    1
 -2       763       762       871      3115      3452      3453
 -1      1614    8    0    1
 -2       762       870       871      3450      3454      3452
 -1      1615    8    0    1
 -2       764       763       872      3118      3455      3456
 -1      1616    8    0    1
 -2       763       871       872      3453      3457      3455
 -1      1617    8    0    1
 -2       765       764       873      3121      3458      3459
 -1      1618    8    0    1
 -2       764       872       873      3456      3460      3458
 -1      1619    8    0    1
 -2       766       765       874      3124      3461      3462
 -1      1620    8    0    1
 -2       765       873       874      3459      3463      3461
 -1      1621    8    0    1
 -2       767       766       875      3127      3464      3465
 -1      1622    8    0    1
 -2       766       874       875      3462      3466      3464
 -1      1623    8    0    1
 -2       768       767       876      3130      3467      3468
 -1      1624    8    0    1
 -2       767       875       876      3465      3469      3467
 -1      1625    8    0    1
 -2       769       768       877      3133      3470      3471
 -1      1626    8    0    1
 -2       768       876       877      3468      3472      3470
 -1      1627    8    0    1
 -2       770       769       878      3136      3473      3474
 -1      1628    8    0    1
 -2       769       877       878      3471      3475      3473
 -1      1629    8    0    1
 -2       771       770       879      3139      3476      3477
 -1      1630    8    0    1
 -2       770       878       879      3474      3478      3476
 -1      1631    8    0    1
 -2       772       771       880      3142      3479      3480
 -1      1632    8    0    1
 -2       771       879       880      3477      3481      3479
 -1      1633    8    0    1
 -2       773       772       881      3145      3482      3483
 -1      1634    8    0    1
 -2       772       880       881      3480      3484      3482
 -1      1635    8    0    1
 -2       774       833       882      3371      3485      3486
 -1      1636    8    0    1
 -2       844       840       883      3426      3487      3488
 -1      1637    8    0    1
 -2       777       776       884      3158      3489      3490
 -1      1638    8    0    1
 -2       778       777       885      3161      3491      3492
 -1      1639    8    0    1
 -2       777       884       885      3490      3493      3491
 -1      1640    8    0    1
 -2       779       778       886      3164      3494      3495
 -1      1641    8    0    1
 -2       778       885       886      3492      3496      3494
 -1      1642    8    0    1
 -2       780       779       887      3167      3497      3498
 -1      1643    8    0    1
 -2       779       886       887      3495      3499      3497
 -1      1644    8    0    1
 -2       781       780       888      3170      3500      3501
 -1      1645    8    0    1
 -2       780       887       888      3498      3502      3500
 -1      1646    8    0    1
 -2       782       781       889      3173      3503      3504
 -1      1647    8    0    1
 -2       781       888       889      3501      3505      3503
 -1      1648    8    0    1
 -2       783       782       890      3176      3506      3507
 -1      1649    8    0    1
 -2       782       889       890      3504      3508      3506
 -1      1650    8    0    1
 -2       784       783       891      3179      3509      3510
 -1      1651    8    0    1
 -2       783       890       891      3507      3511      3509
 -1      1652    8    0    1
 -2       785       784       892      3182      3512      3513
 -1      1653    8    0    1
 -2       784       891       892      3510      3514      3512
 -1      1654    8    0    1
 -2       786       785       893      3185      3515      3516
 -1      1655    8    0    1
 -2       785       892       893      3513      3517      3515
 -1      1656    8    0    1
 -2       787       786       824      3188      3518      3427
 -1      1657    8    0    1
 -2       747       744       894      3052      3519      3520
 -1      1658    8    0    1
 -2       820       747       894      3286      3520      3521
 -1      1659    8    0    1
 -2       744       851       894      3373      3522      3519
 -1      1660    8    0    1
 -2       790       791       895      3198      3523      3524
 -1      1661    8    0    1
 -2       793       794       896      3207      3525      3526
 -1      1662    8    0    1
 -2       794       795       897      3210      3527      3528
 -1      1663    8    0    1
 -2       794       897       896      3528      3529      3525
 -1      1664    8    0    1
 -2       795       796       898      3213      3530      3531
 -1      1665    8    0    1
 -2       795       898       897      3531      3532      3527
 -1      1666    8    0    1
 -2       796       797       899      3216      3533      3534
 -1      1667    8    0    1
 -2       796       899       898      3534      3535      3530
 -1      1668    8    0    1
 -2       797       798       900      3219      3536      3537
 -1      1669    8    0    1
 -2       797       900       899      3537      3538      3533
 -1      1670    8    0    1
 -2       798       799       901      3222      3539      3540
 -1      1671    8    0    1
 -2       798       901       900      3540      3541      3536
 -1      1672    8    0    1
 -2       799       800       902      3225      3542      3543
 -1      1673    8    0    1
 -2       799       902       901      3543      3544      3539
 -1      1674    8    0    1
 -2       800       801       903      3228      3545      3546
 -1      1675    8    0    1
 -2       800       903       902      3546      3547      3542
 -1      1676    8    0    1
 -2       803       804       837      3237      3548      3549
 -1      1677    8    0    1
 -2       856       806       883      3430      3550      3551
 -1      1678    8    0    1
 -2       689       856       755      3395      3552      3240
 -1      1679    8    0    1
 -2       804       855       750      3393      3553      3554
 -1      1680    8    0    1
 -2       806       807       904      3246      3555      3556
 -1      1681    8    0    1
 -2       806       904       883      3556      3557      3550
 -1      1682    8    0    1
 -2       809       810       905      3255      3558      3559
 -1      1683    8    0    1
 -2       810       811       906      3258      3560      3561
 -1      1684    8    0    1
 -2       810       906       905      3561      3562      3558
 -1      1685    8    0    1
 -2       811       812       907      3261      3563      3564
 -1      1686    8    0    1
 -2       811       907       906      3564      3565      3560
 -1      1687    8    0    1
 -2       812       813       908      3264      3566      3567
 -1      1688    8    0    1
 -2       812       908       907      3567      3568      3563
 -1      1689    8    0    1
 -2       813       814       909      3267      3569      3570
 -1      1690    8    0    1
 -2       813       909       908      3570      3571      3566
 -1      1691    8    0    1
 -2       814       815       910      3270      3572      3573
 -1      1692    8    0    1
 -2       814       910       909      3573      3574      3569
 -1      1693    8    0    1
 -2       815       816       911      3273      3575      3576
 -1      1694    8    0    1
 -2       815       911       910      3576      3577      3572
 -1      1695    8    0    1
 -2       816       817       912      3276      3578      3579
 -1      1696    8    0    1
 -2       816       912       911      3579      3580      3575
 -1      1697    8    0    1
 -2       817       818       913      3279      3581      3582
 -1      1698    8    0    1
 -2       817       913       912      3582      3583      3578
 -1      1699    8    0    1
 -2       754       822       914      3292      3584      3585
 -1      1700    8    0    1
 -2       822       863       914      3432      3586      3584
 -1      1701    8    0    1
 -2       823       754       915      3295      3587      3588
 -1      1702    8    0    1
 -2       754       914       915      3585      3589      3587
 -1      1703    8    0    1
 -2       752       845       916      3428      3590      3591
 -1      1704    8    0    1
 -2       827       789       917      3305      3592      3593
 -1      1705    8    0    1
 -2       742       850       861      3368      3594      3595
 -1      1706    8    0    1
 -2       775       835       838      3406      3423      3596
 -1      1707    8    0    1
 -2       746       739       651      3059      3425      3597
 -1      1708    8    0    1
 -2       837       841       803      3365      3598      3549
 -1      1709    8    0    1
 -2       840       755       856      3340      3552      3599
 -1      1710    8    0    1
 -2       828       790       918      3308      3600      3601
 -1      1711    8    0    1
 -2       790       895       918      3524      3602      3600
 -1      1712    8    0    1
 -2       843       830       919      3389      3603      3604
 -1      1713    8    0    1
 -2       751       743       920      3077      3605      3606
 -1      1714    8    0    1
 -2       751       920       862      3606      3607      3418
 -1      1715    8    0    1
 -2       745       774       921      3375      3608      3609
 -1      1716    8    0    1
 -2       745       921       864      3609      3610      3433
 -1      1717    8    0    1
 -2       755       741       846      3090      3354      3611
 -1      1718    8    0    1
 -2       756       831       922      3317      3612      3613
 -1      1719    8    0    1
 -2       832       827       923      3320      3614      3615
 -1      1720    8    0    1
 -2       827       917       923      3593      3616      3614
 -1      1721    8    0    1
 -2       833       826       924      3323      3617      3618
 -1      1722    8    0    1
 -2       749       843       925      3366      3619      3620
 -1      1723    8    0    1
 -2       808       809       926      3252      3621      3622
 -1      1724    8    0    1
 -2       809       905       926      3559      3623      3621
 -1      1725    8    0    1
 -2       804       750       837      3554      3414      3548
 -1      1726    8    0    1
 -2       791       792       927      3201      3624      3625
 -1      1727    8    0    1
 -2       791       927       895      3625      3626      3523
 -1      1728    8    0    1
 -2       845       839       928      3413      3627      3628
 -1      1729    8    0    1
 -2       845       928       916      3628      3629      3590
 -1      1730    8    0    1
 -2       618       649       748      3437      3148      3057
 -1      1731    8    0    1
 -2       824       786       863      3518      3630      3431
 -1      1732    8    0    1
 -2       840       856       883      3599      3551      3487
 -1      1733    8    0    1
 -2       750       855       847      3553      3631      3358
 -1      1734    8    0    1
 -2       775       838       929      3596      3632      3633
 -1      1735    8    0    1
 -2       776       775       929      3155      3633      3634
 -1      1736    8    0    1
 -2       838       852       929      3378      3635      3632
 -1      1737    8    0    1
 -2       718       748       930      3056      3636      3637
 -1      1738    8    0    1
 -2       724       742       861      3422      3595      3417
 -1      1739    8    0    1
 -2       834       836       931      3424      3638      3639
 -1      1740    8    0    1
 -2       841       834       932      3407      3640      3641
 -1      1741    8    0    1
 -2       757       756       933      3097      3642      3643
 -1      1742    8    0    1
 -2       757       933       866      3643      3644      3438
 -1      1743    8    0    1
 -2       792       793       934      3204      3645      3646
 -1      1744    8    0    1
 -2       927       792       934      3624      3646      3647
 -1      1745    8    0    1
 -2       793       896       934      3526      3648      3645
 -1      1746    8    0    1
 -2       753       842       935      3345      3649      3650
 -1      1747    8    0    1
 -2       842       859       935      3405      3651      3649
 -1      1748    8    0    1
 -2       803       841       802      3598      3652      3234
 -1      1749    8    0    1
 -2       807       808       936      3249      3653      3654
 -1      1750    8    0    1
 -2       808       926       936      3622      3655      3653
 -1      1751    8    0    1
 -2       855       805       847      3429      3656      3631
 -1      1752    8    0    1
 -2       718       930       826      3637      3657      3301
 -1      1753    8    0    1
 -2       802       841       932      3652      3641      3658
 -1      1754    8    0    1
 -2       849       753       935      3362      3650      3659
 -1      1755    8    0    1
 -2       836       864       937      3434      3660      3661
 -1      1756    8    0    1
 -2       836       937       931      3661      3662      3638
 -1      1757    8    0    1
 -2       788       865       938      3436      3663      3664
 -1      1758    8    0    1
 -2       882       833       924      3485      3618      3665
 -1      1759    8    0    1
 -2       844       883       904      3488      3557      3666
 -1      1760    8    0    1
 -2       858       727       849      3402      3364      3667
 -1      1761    8    0    1
 -2       852       752       916      3376      3591      3668
 -1      1762    8    0    1
 -2       853       823       939      3379      3669      3670
 -1      1763    8    0    1
 -2       823       915       939      3588      3671      3669
 -1      1764    8    0    1
 -2       650       746       651      3384      3597      2766
 -1      1765    8    0    1
 -2       854       749       925      3386      3620      3672
 -1      1766    8    0    1
 -2       789       829       940      3311      3673      3674
 -1      1767    8    0    1
 -2       789       940       917      3674      3675      3592
 -1      1768    8    0    1
 -2       903       801       932      3545      3676      3677
 -1      1769    8    0    1
 -2       801       802       932      3231      3658      3676
 -1      1770    8    0    1
 -2       807       936       904      3654      3678      3555
 -1      1771    8    0    1
 -2       828       918       941      3601      3679      3680
 -1      1772    8    0    1
 -2       828       941       829      3680      3681      3312
 -1      1773    8    0    1
 -2       851       857       942      3398      3682      3683
 -1      1774    8    0    1
 -2       818       819       943      3282      3684      3685
 -1      1775    8    0    1
 -2       819       820       894      3285      3521      3686
 -1      1776    8    0    1
 -2       943       819       894      3684      3686      3687
 -1      1777    8    0    1
 -2       844       904       944      3666      3688      3689
 -1      1778    8    0    1
 -2       830       844       944      3385      3689      3690
 -1      1779    8    0    1
 -2       904       936       944      3678      3691      3688
 -1      1780    8    0    1
 -2       788       938       860      3664      3692      3412
 -1      1781    8    0    1
 -2       843       919       925      3604      3693      3619
 -1      1782    8    0    1
 -2       776       929       884      3634      3694      3489
 -1      1783    8    0    1
 -2       848       821       945      3361      3695      3696
 -1      1784    8    0    1
 -2       861       850       946      3594      3697      3698
 -1      1785    8    0    1
 -2       861       946       831      3698      3699      3416
 -1      1786    8    0    1
 -2       834       931       932      3639      3700      3640
 -1      1787    8    0    1
 -2       920       743       848      3605      3360      3701
 -1      1788    8    0    1
 -2       919       830       944      3603      3690      3702
 -1      1789    8    0    1
 -2       821       858       947      3401      3703      3704
 -1      1790    8    0    1
 -2       821       947       945      3704      3705      3695
 -1      1791    8    0    1
 -2       921       774       882      3608      3486      3706
 -1      1792    8    0    1
 -2       922       831       946      3612      3699      3707
 -1      1793    8    0    1
 -2       832       923       865      3615      3708      3435
 -1      1794    8    0    1
 -2       850       862       948      3420      3709      3710
 -1      1795    8    0    1
 -2       850       948       946      3710      3711      3697
 -1      1796    8    0    1
 -2       928       839       949      3627      3712      3713
 -1      1797    8    0    1
 -2       839       854       949      3388      3714      3712
 -1      1798    8    0    1
 -2       933       756       922      3642      3613      3715
 -1      1799    8    0    1
 -2       826       930       950      3657      3716      3717
 -1      1800    8    0    1
 -2       826       950       924      3717      3718      3617
 -1      1801    8    0    1
 -2       818       943       913      3685      3719      3581
 -1      1802    8    0    1
 -2       938       865       951      3663      3720      3721
 -1      1803    8    0    1
 -2       882       924       952      3665      3722      3723
 -1      1804    8    0    1
 -2       863       786       893      3630      3516      3724
 -1      1805    8    0    1
 -2       773       881       950      3483      3725      3726
 -1      1806    8    0    1
 -2       868       867       953      3445      3727      3728
 -1      1807    8    0    1
 -2       869       868       954      3448      3729      3730
 -1      1808    8    0    1
 -2       868       953       954      3728      3731      3729
 -1      1809    8    0    1
 -2       870       869       955      3451      3732      3733
 -1      1810    8    0    1
 -2       869       954       955      3730      3734      3732
 -1      1811    8    0    1
 -2       871       870       956      3454      3735      3736
 -1      1812    8    0    1
 -2       870       955       956      3733      3737      3735
 -1      1813    8    0    1
 -2       872       871       957      3457      3738      3739
 -1      1814    8    0    1
 -2       871       956       957      3736      3740      3738
 -1      1815    8    0    1
 -2       873       872       958      3460      3741      3742
 -1      1816    8    0    1
 -2       872       957       958      3739      3743      3741
 -1      1817    8    0    1
 -2       874       873       959      3463      3744      3745
 -1      1818    8    0    1
 -2       873       958       959      3742      3746      3744
 -1      1819    8    0    1
 -2       875       874       960      3466      3747      3748
 -1      1820    8    0    1
 -2       874       959       960      3745      3749      3747
 -1      1821    8    0    1
 -2       876       875       961      3469      3750      3751
 -1      1822    8    0    1
 -2       875       960       961      3748      3752      3750
 -1      1823    8    0    1
 -2       877       876       962      3472      3753      3754
 -1      1824    8    0    1
 -2       876       961       962      3751      3755      3753
 -1      1825    8    0    1
 -2       878       877       963      3475      3756      3757
 -1      1826    8    0    1
 -2       877       962       963      3754      3758      3756
 -1      1827    8    0    1
 -2       879       878       964      3478      3759      3760
 -1      1828    8    0    1
 -2       878       963       964      3757      3761      3759
 -1      1829    8    0    1
 -2       880       879       965      3481      3762      3763
 -1      1830    8    0    1
 -2       879       964       965      3760      3764      3762
 -1      1831    8    0    1
 -2       859       860       966      3411      3765      3766
 -1      1832    8    0    1
 -2       935       859       966      3651      3766      3767
 -1      1833    8    0    1
 -2       860       938       966      3692      3768      3765
 -1      1834    8    0    1
 -2       863       893       967      3724      3769      3770
 -1      1835    8    0    1
 -2       950       881       924      3725      3771      3718
 -1      1836    8    0    1
 -2       773       950       930      3726      3716      3772
 -1      1837    8    0    1
 -2       886       885       968      3496      3773      3774
 -1      1838    8    0    1
 -2       887       886       969      3499      3775      3776
 -1      1839    8    0    1
 -2       886       968       969      3774      3777      3775
 -1      1840    8    0    1
 -2       888       887       970      3502      3778      3779
 -1      1841    8    0    1
 -2       887       969       970      3776      3780      3778
 -1      1842    8    0    1
 -2       889       888       971      3505      3781      3782
 -1      1843    8    0    1
 -2       888       970       971      3779      3783      3781
 -1      1844    8    0    1
 -2       890       889       972      3508      3784      3785
 -1      1845    8    0    1
 -2       889       971       972      3782      3786      3784
 -1      1846    8    0    1
 -2       891       890       973      3511      3787      3788
 -1      1847    8    0    1
 -2       890       972       973      3785      3789      3787
 -1      1848    8    0    1
 -2       892       891       974      3514      3790      3791
 -1      1849    8    0    1
 -2       891       973       974      3788      3792      3790
 -1      1850    8    0    1
 -2       893       892       967      3517      3793      3769
 -1      1851    8    0    1
 -2       898       899       975      3535      3794      3795
 -1      1852    8    0    1
 -2       894       851       943      3522      3796      3687
 -1      1853    8    0    1
 -2       857       853       976      3399      3797      3798
 -1      1854    8    0    1
 -2       857       976       942      3798      3799      3682
 -1      1855    8    0    1
 -2       897       898       977      3532      3800      3801
 -1      1856    8    0    1
 -2       898       975       977      3795      3802      3800
 -1      1857    8    0    1
 -2       896       897       978      3529      3803      3804
 -1      1858    8    0    1
 -2       897       977       978      3801      3805      3803
 -1      1859    8    0    1
 -2       899       900       979      3538      3806      3807
 -1      1860    8    0    1
 -2       899       979       975      3807      3808      3794
 -1      1861    8    0    1
 -2       900       901       980      3541      3809      3810
 -1      1862    8    0    1
 -2       900       980       979      3810      3811      3806
 -1      1863    8    0    1
 -2       901       902       981      3544      3812      3813
 -1      1864    8    0    1
 -2       901       981       980      3813      3814      3809
 -1      1865    8    0    1
 -2       895       927       982      3626      3815      3816
 -1      1866    8    0    1
 -2       929       852       983      3635      3817      3818
 -1      1867    8    0    1
 -2       852       916       983      3668      3819      3817
 -1      1868    8    0    1
 -2       755       846       805      3611      3820      3390
 -1      1869    8    0    1
 -2       858       849       984      3667      3821      3822
 -1      1870    8    0    1
 -2       858       984       947      3822      3823      3703
 -1      1871    8    0    1
 -2       906       907       985      3565      3824      3825
 -1      1872    8    0    1
 -2       905       906       986      3562      3826      3827
 -1      1873    8    0    1
 -2       906       985       986      3825      3828      3826
 -1      1874    8    0    1
 -2       908       909       987      3571      3829      3830
 -1      1875    8    0    1
 -2       909       910       988      3574      3831      3832
 -1      1876    8    0    1
 -2       909       988       987      3832      3833      3829
 -1      1877    8    0    1
 -2       910       911       989      3577      3834      3835
 -1      1878    8    0    1
 -2       910       989       988      3835      3836      3831
 -1      1879    8    0    1
 -2       911       912       990      3580      3837      3838
 -1      1880    8    0    1
 -2       911       990       989      3838      3839      3834
 -1      1881    8    0    1
 -2       912       913       991      3583      3840      3841
 -1      1882    8    0    1
 -2       912       991       990      3841      3842      3837
 -1      1883    8    0    1
 -2       914       863       967      3586      3770      3843
 -1      1884    8    0    1
 -2       916       928       992      3629      3844      3845
 -1      1885    8    0    1
 -2       944       936       993      3691      3846      3847
 -1      1886    8    0    1
 -2       919       944       993      3702      3847      3848
 -1      1887    8    0    1
 -2       936       926       993      3655      3849      3846
 -1      1888    8    0    1
 -2       915       914       994      3589      3850      3851
 -1      1889    8    0    1
 -2       925       919       995      3693      3852      3853
 -1      1890    8    0    1
 -2       919       993       995      3848      3854      3852
 -1      1891    8    0    1
 -2       943       851       942      3796      3683      3855
 -1      1892    8    0    1
 -2       924       881       952      3771      3856      3722
 -1      1893    8    0    1
 -2       943       942       913      3855      3857      3719
 -1      1894    8    0    1
 -2       805       846       847      3820      3357      3656
 -1      1895    8    0    1
 -2       921       882       996      3706      3858      3859
 -1      1896    8    0    1
 -2       865       923       997      3708      3860      3861
 -1      1897    8    0    1
 -2       865       997       951      3861      3862      3720
 -1      1898    8    0    1
 -2       926       905       998      3623      3863      3864
 -1      1899    8    0    1
 -2       993       926       998      3849      3864      3865
 -1      1900    8    0    1
 -2       905       986       998      3827      3866      3863
 -1      1901    8    0    1
 -2       884       929       983      3694      3818      3867
 -1      1902    8    0    1
 -2       918       895       999      3602      3868      3869
 -1      1903    8    0    1
 -2       895       982       999      3816      3870      3868
 -1      1904    8    0    1
 -2       862       920      1000      3607      3871      3872
 -1      1905    8    0    1
 -2       862      1000       948      3872      3873      3709
 -1      1906    8    0    1
 -2       864       921      1001      3610      3874      3875
 -1      1907    8    0    1
 -2       923       917      1002      3616      3876      3877
 -1      1908    8    0    1
 -2       923      1002       997      3877      3878      3860
 -1      1909    8    0    1
 -2       854       925      1003      3672      3879      3880
 -1      1910    8    0    1
 -2       903       932       931      3677      3700      3881
 -1      1911    8    0    1
 -2       907       908      1004      3568      3882      3883
 -1      1912    8    0    1
 -2       908       987      1004      3830      3884      3882
 -1      1913    8    0    1
 -2       885       884      1005      3493      3885      3886
 -1      1914    8    0    1
 -2       968       885      1005      3773      3886      3887
 -1      1915    8    0    1
 -2       884       983      1005      3867      3888      3885
 -1      1916    8    0    1
 -2       920       848      1006      3701      3889      3890
 -1      1917    8    0    1
 -2      1000       920      1006      3871      3890      3891
 -1      1918    8    0    1
 -2       848       945      1006      3696      3892      3889
 -1      1919    8    0    1
 -2       849       935       984      3659      3893      3821
 -1      1920    8    0    1
 -2       922       946      1007      3707      3894      3895
 -1      1921    8    0    1
 -2       946       948      1007      3711      3896      3894
 -1      1922    8    0    1
 -2       867       866      1008      3442      3897      3898
 -1      1923    8    0    1
 -2       867      1008       953      3898      3899      3727
 -1      1924    8    0    1
 -2       866       933      1009      3644      3900      3901
 -1      1925    8    0    1
 -2       866      1009      1008      3901      3902      3897
 -1      1926    8    0    1
 -2       933       922      1010      3715      3903      3904
 -1      1927    8    0    1
 -2      1009       933      1010      3900      3904      3905
 -1      1928    8    0    1
 -2       922      1007      1010      3895      3906      3903
 -1      1929    8    0    1
 -2       913       942       991      3857      3907      3840
 -1      1930    8    0    1
 -2       903       931      1011      3881      3908      3909
 -1      1931    8    0    1
 -2       902       903      1011      3547      3909      3910
 -1      1932    8    0    1
 -2       931       937      1011      3662      3911      3908
 -1      1933    8    0    1
 -2       937       864      1001      3660      3875      3912
 -1      1934    8    0    1
 -2       882       952      1012      3723      3913      3914
 -1      1935    8    0    1
 -2       882      1012       996      3914      3915      3858
 -1      1936    8    0    1
 -2       927       934      1013      3647      3916      3917
 -1      1937    8    0    1
 -2       927      1013       982      3917      3918      3815
 -1      1938    8    0    1
 -2       880       965       952      3763      3919      3920
 -1      1939    8    0    1
 -2       966       938      1014      3768      3921      3922
 -1      1940    8    0    1
 -2       881       880       952      3484      3920      3856
 -1      1941    8    0    1
 -2       939       915      1015      3671      3923      3924
 -1      1942    8    0    1
 -2       915       994      1015      3851      3925      3923
 -1      1943    8    0    1
 -2      1006       945      1016      3892      3926      3927
 -1      1944    8    0    1
 -2       967       892       974      3793      3791      3928
 -1      1945    8    0    1
 -2       983       916       992      3819      3845      3929
 -1      1946    8    0    1
 -2       976       853       939      3797      3670      3930
 -1      1947    8    0    1
 -2       940       829       941      3673      3681      3931
 -1      1948    8    0    1
 -2       748       773       930      3370      3772      3636
 -1      1949    8    0    1
 -2       981       902      1011      3812      3910      3932
 -1      1950    8    0    1
 -2      1014       938       951      3921      3721      3933
 -1      1951    8    0    1
 -2       918       999      1017      3869      3934      3935
 -1      1952    8    0    1
 -2       918      1017       941      3935      3936      3679
 -1      1953    8    0    1
 -2       991       942      1018      3907      3937      3938
 -1      1954    8    0    1
 -2       942       976      1018      3799      3939      3937
 -1      1955    8    0    1
 -2       985       907      1004      3824      3883      3940
 -1      1956    8    0    1
 -2       914       967       994      3843      3941      3850
 -1      1957    8    0    1
 -2      1002       917      1019      3876      3942      3943
 -1      1958    8    0    1
 -2       917       940      1019      3675      3944      3942
 -1      1959    8    0    1
 -2       992       928      1020      3844      3945      3946
 -1      1960    8    0    1
 -2       928       949      1020      3713      3947      3945
 -1      1961    8    0    1
 -2       945       947      1021      3705      3948      3949
 -1      1962    8    0    1
 -2       945      1021      1016      3949      3950      3926
 -1      1963    8    0    1
 -2       925       995      1003      3853      3951      3879
 -1      1964    8    0    1
 -2       854      1003       949      3880      3952      3714
 -1      1965    8    0    1
 -2      1001       921       996      3874      3859      3953
 -1      1966    8    0    1
 -2       896       978      1022      3804      3954      3955
 -1      1967    8    0    1
 -2       896      1022       934      3955      3956      3648
 -1      1968    8    0    1
 -2       952       965      1012      3919      3957      3913
 -1      1969    8    0    1
 -2       969       968      1023      3777      3958      3959
 -1      1970    8    0    1
 -2       966      1014       984      3922      3960      3961
 -1      1971    8    0    1
 -2       935       966       984      3767      3961      3893
 -1      1972    8    0    1
 -2       955       954      1024      3734      3962      3963
 -1      1973    8    0    1
 -2       956       955      1025      3737      3964      3965
 -1      1974    8    0    1
 -2       955      1024      1025      3963      3966      3964
 -1      1975    8    0    1
 -2       957       956      1026      3740      3967      3968
 -1      1976    8    0    1
 -2       956      1025      1026      3965      3969      3967
 -1      1977    8    0    1
 -2       958       957      1027      3743      3970      3971
 -1      1978    8    0    1
 -2       957      1026      1027      3968      3972      3970
 -1      1979    8    0    1
 -2       959       958      1028      3746      3973      3974
 -1      1980    8    0    1
 -2       958      1027      1028      3971      3975      3973
 -1      1981    8    0    1
 -2       960       959      1029      3749      3976      3977
 -1      1982    8    0    1
 -2       959      1028      1029      3974      3978      3976
 -1      1983    8    0    1
 -2       961       960      1030      3752      3979      3980
 -1      1984    8    0    1
 -2       960      1029      1030      3977      3981      3979
 -1      1985    8    0    1
 -2       962       961      1031      3755      3982      3983
 -1      1986    8    0    1
 -2       961      1030      1031      3980      3984      3982
 -1      1987    8    0    1
 -2       963       962      1032      3758      3985      3986
 -1      1988    8    0    1
 -2       962      1031      1032      3983      3987      3985
 -1      1989    8    0    1
 -2       964       963      1033      3761      3988      3989
 -1      1990    8    0    1
 -2       963      1032      1033      3986      3990      3988
 -1      1991    8    0    1
 -2       965       964      1034      3764      3991      3992
 -1      1992    8    0    1
 -2      1012       965      1034      3957      3992      3993
 -1      1993    8    0    1
 -2       964      1033      1034      3989      3994      3991
 -1      1994    8    0    1
 -2       989       990      1035      3839      3995      3996
 -1      1995    8    0    1
 -2      1003       995      1036      3951      3997      3998
 -1      1996    8    0    1
 -2       967       974      1037      3928      3999      4000
 -1      1997    8    0    1
 -2       967      1037       994      4000      4001      3941
 -1      1998    8    0    1
 -2       970       969      1038      3780      4002      4003
 -1      1999    8    0    1
 -2       969      1023      1038      3959      4004      4002
 -1      2000    8    0    1
 -2       971       970      1039      3783      4005      4006
 -1      2001    8    0    1
 -2       970      1038      1039      4003      4007      4005
 -1      2002    8    0    1
 -2       972       971      1040      3786      4008      4009
 -1      2003    8    0    1
 -2       971      1039      1040      4006      4010      4008
 -1      2004    8    0    1
 -2       973       972      1041      3789      4011      4012
 -1      2005    8    0    1
 -2       972      1040      1041      4009      4013      4011
 -1      2006    8    0    1
 -2       974       973      1042      3792      4014      4015
 -1      2007    8    0    1
 -2      1037       974      1042      3999      4015      4016
 -1      2008    8    0    1
 -2       973      1041      1042      4012      4017      4014
 -1      2009    8    0    1
 -2       979       980      1043      3811      4018      4019
 -1      2010    8    0    1
 -2       977       975      1044      3802      4020      4021
 -1      2011    8    0    1
 -2       978       977      1045      3805      4022      4023
 -1      2012    8    0    1
 -2       977      1044      1045      4021      4024      4022
 -1      2013    8    0    1
 -2       976       939      1046      3930      4025      4026
 -1      2014    8    0    1
 -2      1018       976      1046      3939      4026      4027
 -1      2015    8    0    1
 -2       939      1015      1046      3924      4028      4025
 -1      2016    8    0    1
 -2       937      1001      1047      3912      4029      4030
 -1      2017    8    0    1
 -2       980       981      1047      3814      4031      4032
 -1      2018    8    0    1
 -2       948      1000      1048      3873      4033      4034
 -1      2019    8    0    1
 -2       948      1048      1007      4034      4035      3896
 -1      2020    8    0    1
 -2       975       979      1049      3808      4036      4037
 -1      2021    8    0    1
 -2       979      1043      1049      4019      4038      4036
 -1      2022    8    0    1
 -2       986       985      1050      3828      4039      4040
 -1      2023    8    0    1
 -2      1000      1006      1051      3891      4041      4042
 -1      2024    8    0    1
 -2      1048      1000      1051      4033      4042      4043
 -1      2025    8    0    1
 -2      1006      1016      1051      3927      4044      4041
 -1      2026    8    0    1
 -2       988       989      1052      3836      4045      4046
 -1      2027    8    0    1
 -2       989      1035      1052      3996      4047      4045
 -1      2028    8    0    1
 -2       987       988      1053      3833      4048      4049
 -1      2029    8    0    1
 -2       988      1052      1053      4046      4050      4048
 -1      2030    8    0    1
 -2       990       991      1054      3842      4051      4052
 -1      2031    8    0    1
 -2      1035       990      1054      3995      4052      4053
 -1      2032    8    0    1
 -2       991      1018      1054      3938      4054      4051
 -1      2033    8    0    1
 -2      1014       951      1055      3933      4055      4056
 -1      2034    8    0    1
 -2       940       941      1056      3931      4057      4058
 -1      2035    8    0    1
 -2      1019       940      1056      3944      4058      4059
 -1      2036    8    0    1
 -2       941      1017      1056      3936      4060      4057
 -1      2037    8    0    1
 -2       995       993       998      3854      3865      4061
 -1      2038    8    0    1
 -2       951       997      1057      3862      4062      4063
 -1      2039    8    0    1
 -2       999       982      1058      3870      4064      4065
 -1      2040    8    0    1
 -2       997      1002      1059      3878      4066      4067
 -1      2041    8    0    1
 -2       997      1059      1057      4067      4068      4062
 -1      2042    8    0    1
 -2       949      1003      1060      3952      4069      4070
 -1      2043    8    0    1
 -2       949      1060      1020      4070      4071      3947
 -1      2044    8    0    1
 -2       954       953      1061      3731      4072      4073
 -1      2045    8    0    1
 -2       954      1061      1024      4073      4074      3962
 -1      2046    8    0    1
 -2      1004       987      1062      3884      4075      4076
 -1      2047    8    0    1
 -2       987      1053      1062      4049      4077      4075
 -1      2048    8    0    1
 -2      1001       996      1063      3953      4078      4079
 -1      2049    8    0    1
 -2      1008      1009      1064      3902      4080      4081
 -1      2050    8    0    1
 -2       983       992      1005      3929      4082      3888
 -1      2051    8    0    1
 -2       984      1014      1055      3960      4056      4083
 -1      2052    8    0    1
 -2       947       984      1055      3823      4083      4084
 -1      2053    8    0    1
 -2       985      1004      1065      3940      4085      4086
 -1      2054    8    0    1
 -2      1004      1062      1065      4076      4087      4085
 -1      2055    8    0    1
 -2       953      1008      1066      3899      4088      4089
 -1      2056    8    0    1
 -2      1008      1064      1066      4081      4090      4088
 -1      2057    8    0    1
 -2      1011       937      1047      3911      4030      4091
 -1      2058    8    0    1
 -2       986      1050      1036      4040      4092      4093
 -1      2059    8    0    1
 -2      1013       934      1022      3916      3956      4094
 -1      2060    8    0    1
 -2      1023       968      1067      3958      4095      4096
 -1      2061    8    0    1
 -2       953      1066      1061      4089      4097      4072
 -1      2062    8    0    1
 -2      1043       980      1047      4018      4032      4098
 -1      2063    8    0    1
 -2      1001      1063      1047      4079      4099      4029
 -1      2064    8    0    1
 -2      1036       995       986      3997      4100      4093
 -1      2065    8    0    1
 -2      1003      1036      1060      3998      4101      4069
 -1      2066    8    0    1
 -2       994      1037      1068      4001      4102      4103
 -1      2067    8    0    1
 -2       994      1068      1015      4103      4104      3925
 -1      2068    8    0    1
 -2      1044       975      1049      4020      4037      4105
 -1      2069    8    0    1
 -2       978      1045      1069      4023      4106      4107
 -1      2070    8    0    1
 -2       978      1069      1022      4107      4108      3954
 -1      2071    8    0    1
 -2      1007      1048      1070      4035      4109      4110
 -1      2072    8    0    1
 -2      1007      1070      1010      4110      4111      3906
 -1      2073    8    0    1
 -2      1017       999      1071      3934      4112      4113
 -1      2074    8    0    1
 -2       999      1058      1071      4065      4114      4112
 -1      2075    8    0    1
 -2      1067       968      1005      4095      3887      4115
 -1      2076    8    0    1
 -2       986       995       998      4100      4061      3866
 -1      2077    8    0    1
 -2      1050       985      1065      4039      4086      4116
 -1      2078    8    0    1
 -2       951      1057      1055      4063      4117      4055
 -1      2079    8    0    1
 -2      1058       982      1072      4064      4118      4119
 -1      2080    8    0    1
 -2       982      1013      1072      3918      4120      4118
 -1      2081    8    0    1
 -2      1059      1002      1073      4066      4121      4122
 -1      2082    8    0    1
 -2      1002      1019      1073      3943      4123      4121
 -1      2083    8    0    1
 -2      1051      1016      1074      4044      4124      4125
 -1      2084    8    0    1
 -2      1016      1021      1075      3950      4126      4127
 -1      2085    8    0    1
 -2      1016      1075      1074      4127      4128      4124
 -1      2086    8    0    1
 -2       996      1012      1076      3915      4129      4130
 -1      2087    8    0    1
 -2      1063       996      1076      4078      4130      4131
 -1      2088    8    0    1
 -2      1012      1034      1076      3993      4132      4129
 -1      2089    8    0    1
 -2       992      1020      1067      3946      4133      4134
 -1      2090    8    0    1
 -2      1005       992      1067      4082      4134      4115
 -1      2091    8    0    1
 -2       981      1011      1047      3932      4091      4031
 -1      2092    8    0    1
 -2      1009      1010      1077      3905      4135      4136
 -1      2093    8    0    1
 -2      1064      1009      1077      4080      4136      4137
 -1      2094    8    0    1
 -2      1010      1070      1077      4111      4138      4135
 -1      2095    8    0    1
 -2      1013      1022      1078      4094      4139      4140
 -1      2096    8    0    1
 -2      1013      1078      1072      4140      4141      4120
 -1      2097    8    0    1
 -2      1061      1066      1079      4097      4142      4143
 -1      2098    8    0    1
 -2      1025      1024      1080      3966      4144      4145
 -1      2099    8    0    1
 -2      1026      1025      1081      3969      4146      4147
 -1      2100    8    0    1
 -2      1025      1080      1081      4145      4148      4146
 -1      2101    8    0    1
 -2      1027      1026      1082      3972      4149      4150
 -1      2102    8    0    1
 -2      1026      1081      1082      4147      4151      4149
 -1      2103    8    0    1
 -2      1028      1027      1083      3975      4152      4153
 -1      2104    8    0    1
 -2      1027      1082      1083      4150      4154      4152
 -1      2105    8    0    1
 -2      1029      1028      1084      3978      4155      4156
 -1      2106    8    0    1
 -2      1028      1083      1084      4153      4157      4155
 -1      2107    8    0    1
 -2      1030      1029      1085      3981      4158      4159
 -1      2108    8    0    1
 -2      1029      1084      1085      4156      4160      4158
 -1      2109    8    0    1
 -2      1031      1030      1086      3984      4161      4162
 -1      2110    8    0    1
 -2      1030      1085      1086      4159      4163      4161
 -1      2111    8    0    1
 -2      1032      1031      1087      3987      4164      4165
 -1      2112    8    0    1
 -2      1031      1086      1087      4162      4166      4164
 -1      2113    8    0    1
 -2      1033      1032      1088      3990      4167      4168
 -1      2114    8    0    1
 -2      1032      1087      1088      4165      4169      4167
 -1      2115    8    0    1
 -2      1038      1023      1089      4004      4170      4171
 -1      2116    8    0    1
 -2      1039      1038      1090      4007      4172      4173
 -1      2117    8    0    1
 -2      1038      1089      1090      4171      4174      4172
 -1      2118    8    0    1
 -2      1040      1039      1091      4010      4175      4176
 -1      2119    8    0    1
 -2      1039      1090      1091      4173      4177      4175
 -1      2120    8    0    1
 -2      1041      1040      1092      4013      4178      4179
 -1      2121    8    0    1
 -2      1040      1091      1092      4176      4180      4178
 -1      2122    8    0    1
 -2      1047      1063      1043      4099      4181      4098
 -1      2123    8    0    1
 -2      1044      1049      1093      4105      4182      4183
 -1      2124    8    0    1
 -2       947      1055      1021      4084      4184      3948
 -1      2125    8    0    1
 -2      1048      1051      1070      4043      4185      4109
 -1      2126    8    0    1
 -2      1053      1052      1094      4050      4186      4187
 -1      2127    8    0    1
 -2      1024      1061      1095      4074      4188      4189
 -1      2128    8    0    1
 -2      1024      1095      1080      4189      4190      4144
 -1      2129    8    0    1
 -2      1020      1060      1096      4071      4191      4192
 -1      2130    8    0    1
 -2      1020      1096      1067      4192      4193      4133
 -1      2131    8    0    1
 -2      1052      1035      1097      4047      4194      4195
 -1      2132    8    0    1
 -2      1052      1097      1094      4195      4196      4186
 -1      2133    8    0    1
 -2      1045      1044      1098      4024      4197      4198
 -1      2134    8    0    1
 -2      1044      1093      1098      4183      4199      4197
 -1      2135    8    0    1
 -2      1050      1065      1099      4116      4200      4201
 -1      2136    8    0    1
 -2      1057      1059      1100      4068      4202      4203
 -1      2137    8    0    1
 -2      1060      1036      1101      4101      4204      4205
 -1      2138    8    0    1
 -2      1096      1060      1101      4191      4205      4206
 -1      2139    8    0    1
 -2      1036      1050      1101      4092      4207      4204
 -1      2140    8    0    1
 -2      1062      1053      1102      4077      4208      4209
 -1      2141    8    0    1
 -2      1053      1094      1102      4187      4210      4208
 -1      2142    8    0    1
 -2      1023      1067      1096      4096      4193      4211
 -1      2143    8    0    1
 -2      1051      1074      1070      4125      4212      4185
 -1      2144    8    0    1
 -2      1065      1062      1103      4087      4213      4214
 -1      2145    8    0    1
 -2      1065      1103      1099      4214      4215      4200
 -1      2146    8    0    1
 -2      1066      1064      1104      4090      4216      4217
 -1      2147    8    0    1
 -2      1066      1104      1079      4217      4218      4142
 -1      2148    8    0    1
 -2      1043      1063      1105      4181      4219      4220
 -1      2149    8    0    1
 -2      1021      1055      1075      4184      4221      4126
 -1      2150    8    0    1
 -2      1043      1105      1049      4220      4222      4038
 -1      2151    8    0    1
 -2      1033      1088      1106      4168      4223      4224
 -1      2152    8    0    1
 -2      1033      1106      1034      4224      4225      3994
 -1      2153    8    0    1
 -2      1075      1055      1057      4221      4117      4226
 -1      2154    8    0    1
 -2      1089      1023      1096      4170      4211      4227
 -1      2155    8    0    1
 -2      1075      1057      1100      4226      4203      4228
 -1      2156    8    0    1
 -2      1068      1037      1107      4102      4229      4230
 -1      2157    8    0    1
 -2      1037      1042      1107      4016      4231      4229
 -1      2158    8    0    1
 -2      1100      1059      1108      4202      4232      4233
 -1      2159    8    0    1
 -2      1059      1073      1108      4122      4234      4232
 -1      2160    8    0    1
 -2      1042      1041      1109      4017      4235      4236
 -1      2161    8    0    1
 -2      1107      1042      1109      4231      4236      4237
 -1      2162    8    0    1
 -2      1041      1092      1109      4179      4238      4235
 -1      2163    8    0    1
 -2      1069      1045      1110      4106      4239      4240
 -1      2164    8    0    1
 -2      1045      1098      1110      4198      4241      4239
 -1      2165    8    0    1
 -2      1018      1046      1111      4027      4242      4243
 -1      2166    8    0    1
 -2      1018      1111      1054      4243      4244      4054
 -1      2167    8    0    1
 -2      1046      1015      1068      4028      4104      4245
 -1      2168    8    0    1
 -2      1064      1077      1112      4137      4246      4247
 -1      2169    8    0    1
 -2      1064      1112      1104      4247      4248      4216
 -1      2170    8    0    1
 -2      1093      1049      1105      4182      4222      4249
 -1      2171    8    0    1
 -2      1071      1058      1113      4114      4250      4251
 -1      2172    8    0    1
 -2      1095      1061      1079      4188      4143      4252
 -1      2173    8    0    1
 -2      1078      1022      1069      4139      4108      4253
 -1      2174    8    0    1
 -2      1056      1017      1114      4060      4254      4255
 -1      2175    8    0    1
 -2      1017      1071      1114      4113      4256      4254
 -1      2176    8    0    1
 -2      1073      1019      1115      4123      4257      4258
 -1      2177    8    0    1
 -2      1019      1056      1115      4059      4259      4257
 -1      2178    8    0    1
 -2      1063      1076      1105      4131      4260      4219
 -1      2179    8    0    1
 -2      1097      1035      1116      4194      4261      4262
 -1      2180    8    0    1
 -2      1035      1054      1116      4053      4263      4261
 -1      2181    8    0    1
 -2      1050      1099      1101      4201      4264      4207
 -1      2182    8    0    1
 -2      1103      1062      1102      4213      4209      4265
 -1      2183    8    0    1
 -2      1058      1072      1117      4119      4266      4267
 -1      2184    8    0    1
 -2      1058      1117      1113      4267      4268      4250
 -1      2185    8    0    1
 -2      1082      1081      1118      4151      4269      4270
 -1      2186    8    0    1
 -2      1083      1082      1117      4154      4271      4272
 -1      2187    8    0    1
 -2      1085      1084      1119      4160      4273      4274
 -1      2188    8    0    1
 -2      1086      1085      1110      4163      4275      4276
 -1      2189    8    0    1
 -2      1087      1086      1098      4166      4277      4278
 -1      2190    8    0    1
 -2      1088      1087      1093      4169      4279      4280
 -1      2191    8    0    1
 -2      1091      1090      1120      4177      4281      4282
 -1      2192    8    0    1
 -2      1092      1091      1094      4180      4283      4284
 -1      2193    8    0    1
 -2      1093      1087      1098      4279      4278      4199
 -1      2194    8    0    1
 -2      1095      1079      1121      4252      4285      4286
 -1      2195    8    0    1
 -2      1098      1086      1110      4277      4276      4241
 -1      2196    8    0    1
 -2      1071      1113      1122      4251      4287      4288
 -1      2197    8    0    1
 -2      1071      1122      1114      4288      4289      4256
 -1      2198    8    0    1
 -2      1078      1069      1119      4253      4290      4291
 -1      2199    8    0    1
 -2      1080      1095      1123      4190      4292      4293
 -1      2200    8    0    1
 -2      1095      1121      1123      4286      4294      4292
 -1      2201    8    0    1
 -2      1099      1103      1124      4215      4295      4296
 -1      2202    8    0    1
 -2      1074      1075      1125      4128      4297      4298
 -1      2203    8    0    1
 -2      1079      1104      1108      4218      4299      4300
 -1      2204    8    0    1
 -2      1076      1034      1106      4132      4225      4301
 -1      2205    8    0    1
 -2      1090      1089      1124      4174      4302      4303
 -1      2206    8    0    1
 -2      1096      1101      1089      4206      4304      4227
 -1      2207    8    0    1
 -2      1072      1078      1126      4141      4305      4306
 -1      2208    8    0    1
 -2      1117      1072      1126      4266      4306      4307
 -1      2209    8    0    1
 -2      1078      1119      1126      4291      4308      4305
 -1      2210    8    0    1
 -2      1094      1097      1092      4196      4309      4284
 -1      2211    8    0    1
 -2      1081      1080      1127      4148      4310      4311
 -1      2212    8    0    1
 -2      1118      1081      1127      4269      4311      4312
 -1      2213    8    0    1
 -2      1080      1123      1127      4293      4313      4310
 -1      2214    8    0    1
 -2      1103      1102      1120      4265      4314      4315
 -1      2215    8    0    1
 -2      1070      1074      1112      4212      4316      4317
 -1      2216    8    0    1
 -2      1093      1105      1088      4249      4318      4280
 -1      2217    8    0    1
 -2      1074      1125      1112      4298      4319      4316
 -1      2218    8    0    1
 -2      1083      1117      1126      4272      4307      4320
 -1      2219    8    0    1
 -2      1085      1119      1110      4274      4321      4275
 -1      2220    8    0    1
 -2      1084      1083      1126      4157      4320      4322
 -1      2221    8    0    1
 -2      1122      1113      1118      4287      4323      4324
 -1      2222    8    0    1
 -2      1121      1079      1108      4285      4300      4325
 -1      2223    8    0    1
 -2      1112      1125      1104      4319      4326      4248
 -1      2224    8    0    1
 -2      1108      1073      1128      4234      4327      4328
 -1      2225    8    0    1
 -2      1121      1108      1128      4325      4328      4329
 -1      2226    8    0    1
 -2      1073      1115      1128      4258      4330      4327
 -1      2227    8    0    1
 -2      1069      1110      1119      4240      4321      4290
 -1      2228    8    0    1
 -2      1094      1091      1102      4283      4331      4210
 -1      2229    8    0    1
 -2      1120      1090      1124      4281      4303      4332
 -1      2230    8    0    1
 -2      1075      1100      1125      4228      4333      4297
 -1      2231    8    0    1
 -2      1125      1100      1104      4333      4334      4326
 -1      2232    8    0    1
 -2      1104      1100      1108      4334      4233      4299
 -1      2233    8    0    1
 -2      1054      1111      1116      4244      4335      4263
 -1      2234    8    0    1
 -2      1103      1120      1124      4315      4332      4295
 -1      2235    8    0    1
 -2      1046      1068      1111      4245      4336      4242
 -1      2236    8    0    1
 -2      1115      1056      1114      4259      4255      4337
 -1      2237    8    0    1
 -2      1084      1126      1119      4322      4308      4273
 -1      2238    8    0    1
 -2      1105      1076      1106      4260      4301      4338
 -1      2239    8    0    1
 -2      1089      1101      1099      4304      4264      4339
 -1      2240    8    0    1
 -2      1068      1107      1116      4230      4340      4341
 -1      2241    8    0    1
 -2      1088      1105      1106      4318      4338      4223
 -1      2242    8    0    1
 -2      1097      1116      1107      4262      4340      4342
 -1      2243    8    0    1
 -2      1068      1116      1111      4341      4335      4336
 -1      2244    8    0    1
 -2      1097      1107      1109      4342      4237      4343
 -1      2245    8    0    1
 -2      1115      1114      1129      4337      4344      4345
 -1      2246    8    0    1
 -2      1128      1115      1129      4330      4345      4346
 -1      2247    8    0    1
 -2      1114      1122      1129      4289      4347      4344
 -1      2248    8    0    1
 -2      1112      1077      1070      4246      4138      4317
 -1      2249    8    0    1
 -2      1082      1118      1117      4270      4348      4271
 -1      2250    8    0    1
 -2      1123      1121      1128      4294      4329      4349
 -1      2251    8    0    1
 -2      1092      1097      1109      4309      4343      4238
 -1      2252    8    0    1
 -2      1122      1118      1127      4324      4312      4350
 -1      2253    8    0    1
 -2      1129      1122      1127      4347      4350      4351
 -1      2254    8    0    1
 -2      1118      1113      1117      4323      4268      4348
 -1      2255    8    0    1
 -2      1102      1091      1120      4331      4282      4314
 -1      2256    8    0    1
 -2      1089      1099      1124      4339      4296      4302
 -1      2257    8    0    1
 -2      1123      1128      1129      4349      4346      4352
 -1      2258    8    0    1
 -2      1127      1123      1129      4313      4352      4351
 -3
    1PSTEP                         1           1           1          
  100CL  101 1.000000000        4352                     0    1           1
 -4  DISP        4    1
 -5  D1          1    2    1    0
 -5  D2          1    2    2    0
 -5  D3          1    2    3    0
 -5  ALL         1    2    0    0    1ALL
 -1         1 7.78500E-03-9.82112E-04-1.65230E-14
 -1         2 1.09349E-02-2.73676E-04-2.10392E-14
 -1         3 1.48439E-02-1.73230E-04-5.32440E-14
 -1         4 1.55346E-02-1.56010E-03-5.41286E-14
 -1         5 0.00000E+00 0.00000E+00 0.00000E+00
 -1         6 0.00000E+00 0.00000E+00 0.00000E+00
 -1         7 0.00000E+00 0.00000E+00 0.00000E+00
 -1         8 0.00000E+00 0.00000E+00 0.00000E+00
 -1         9 0.00000E+00 0.00000E+00 0.00000E+00
 -1        10 0.00000E+00 0.00000E+00 0.00000E+00
 -1        11 0.00000E+00 0.00000E+00 0.00000E+00
 -1        12 0.00000E+00 0.00000E+00 0.00000E+00
 -1        13 0.00000E+00 0.00000E+00 0.00000E+00
 -1        14 0.00000E+00 0.00000E+00 0.00000E+00
 -1        15 0.00000E+00 0.00000E+00 0.00000E+00
 -1        16 0.00000E+00 0.00000E+00 0.00000E+00
 -1        17 0.00000E+00 0.00000E+00 0.00000E+00
 -1        18 0.00000E+00 0.00000E+00 0.00000E+00
 -1        19 0.00000E+00 0.00000E+00 0.00000E+00
 -1        20 0.00000E+00 0.00000E+00 0.00000E+00
 -1        21 0.00000E+00 0.00000E+00 0.00000E+00
 -1        22 0.00000E+00 0.00000E+00 0.00000E+00
 -1        23 4.10758E-04-2.60399E-04 2.14706E-17
 -1        24 7.02215E-04-4.00260E-04 2.38186E-18
 -1        25 9.71765E-04-4.97072E-04-5.74221E-17
 -1        26 1.23575E-03-5.65024E-04-1.58019E-16
 -1        27 1.49880E-03-6.13202E-04-3.01232E-16
 -1        28 1.76305E-03-6.46928E-04-4.87535E-16
 -1        29 2.02951E-03-6.69838E-04-7.20202E-16
 -1        30 2.29865E-03-6.84548E-04-9.99102E-16
 -1        31 2.57066E-03-6.92991E-04-1.32369E-15
 -1        32 2.84560E-03-6.96613E-04-1.69471E-15
 -1        33 3.12351E-03-6.96500E-04-2.11147E-15
 -1        34 3.40452E-03-6.93485E-04-2.56725E-15
 -1        35 3.68883E-03-6.88235E-04-3.06776E-15
 -1        36 3.97687E-03-6.81344E-04-3.61355E-15
 -1        37 4.26927E-03-6.73435E-04-4.20459E-15
 -1        38 4.56694E-03-6.65282E-04-4.84279E-15
 -1        39 4.87111E-03-6.57956E-04-5.52870E-15
 -1        40 5.18331E-03-6.53024E-04-6.25743E-15
 -1        41 5.50535E-03-6.52786E-04-7.02744E-15
 -1        42 5.83912E-03-6.60548E-04-7.84102E-15
 -1        43 6.18620E-03-6.80872E-04-8.70839E-15
 -1        44 6.54709E-03-7.19614E-04-9.62660E-15
 -1        45 6.91997E-03-7.83393E-04-1.05954E-14
 -1        46 7.29918E-03-8.77889E-04-1.16198E-14
 -1        47 7.67397E-03-1.00433E-03-1.26965E-14
 -1        48 8.02946E-03-1.15440E-03-1.38217E-14
 -1        49 8.35169E-03-1.30611E-03-1.49913E-14
 -1        50 8.63648E-03-1.42618E-03-1.62203E-14
 -1        51 8.89629E-03-1.48276E-03-1.75151E-14
 -1        52 9.15694E-03-1.46299E-03-1.88792E-14
 -1        53 9.44378E-03-1.38123E-03-2.03044E-14
 -1        54 9.76824E-03-1.26994E-03-2.17838E-14
 -1        55 1.01253E-02-1.16198E-03-2.33081E-14
 -1        56 1.05007E-02-1.07846E-03-2.48746E-14
 -1        57 1.08798E-02-1.02696E-03-2.64854E-14
 -1        58 1.12521E-02-1.00584E-03-2.81280E-14
 -1        59 1.16122E-02-1.00927E-03-2.98044E-14
 -1        60 1.19586E-02-1.03063E-03-3.15111E-14
 -1        61 1.22920E-02-1.06413E-03-3.32420E-14
 -1        62 1.26139E-02-1.10529E-03-3.49899E-14
 -1        63 1.29264E-02-1.15088E-03-3.67643E-14
 -1        64 1.32313E-02-1.19868E-03-3.85517E-14
 -1        65 1.35304E-02-1.24722E-03-4.03808E-14
 -1        66 1.38250E-02-1.29557E-03-4.22615E-14
 -1        67 1.41161E-02-1.34311E-03-4.41861E-14
 -1        68 1.44049E-02-1.38948E-03-4.61593E-14
 -1        69 1.46918E-02-1.43449E-03-4.81643E-14
 -1        70 1.49778E-02-1.47808E-03-5.01790E-14
 -1        71 1.52633E-02-1.52044E-03-5.21945E-14
 -1        72 4.13206E-04 2.61098E-04 2.20059E-17
 -1        73 7.02047E-04 4.02959E-04 3.50333E-18
 -1        74 9.72317E-04 4.98840E-04-5.44066E-17
 -1        75 1.23660E-03 5.66732E-04-1.55400E-16
 -1        76 1.49980E-03 6.14966E-04-3.00463E-16
 -1        77 1.76414E-03 6.48800E-04-4.87667E-16
 -1        78 2.03068E-03 6.71854E-04-7.18111E-16
 -1        79 2.29989E-03 6.86745E-04-9.92567E-16
 -1        80 2.57197E-03 6.95418E-04-1.31156E-15
 -1        81 2.84698E-03 6.99339E-04-1.67780E-15
 -1        82 3.12495E-03 6.99633E-04-2.09338E-15
 -1        83 3.40598E-03 6.97180E-04-2.55263E-15
 -1        84 3.69022E-03 6.92719E-04-3.05478E-15
 -1        85 3.97798E-03 6.86929E-04-3.60152E-15
 -1        86 4.26968E-03 6.80535E-04-4.19717E-15
 -1        87 4.56591E-03 6.74400E-04-4.84763E-15
 -1        88 4.86735E-03 6.69634E-04-5.54779E-15
 -1        89 5.17469E-03 6.67694E-04-6.29943E-15
 -1        90 5.48849E-03 6.70457E-04-7.09960E-15
 -1        91 5.80895E-03 6.80224E-04-7.94280E-15
 -1        92 6.13553E-03 6.99589E-04-8.82860E-15
 -1        93 6.46653E-03 7.31048E-04-9.75481E-15
 -1        94 6.79872E-03 7.76261E-04-1.07266E-14
 -1        95 7.12715E-03 8.34891E-04-1.17365E-14
 -1        96 7.44566E-03 9.03214E-04-1.27838E-14
 -1        97 7.74828E-03 9.73080E-04-1.38814E-14
 -1        98 8.03157E-03 1.03218E-03-1.50330E-14
 -1        99 8.29696E-03 1.06652E-03-1.62163E-14
 -1       100 8.55161E-03 1.06477E-03-1.74442E-14
 -1       101 8.80658E-03 1.02273E-03-1.87255E-14
 -1       102 9.07281E-03 9.45103E-04-2.00589E-14
 -1       103 9.35718E-03 8.43465E-04-2.14468E-14
 -1       104 9.66082E-03 7.31817E-04-2.28870E-14
 -1       105 9.98007E-03 6.22255E-04-2.43797E-14
 -1       106 1.03089E-02 5.22654E-04-2.59393E-14
 -1       107 1.06412E-02 4.36494E-04-2.75563E-14
 -1       108 1.09721E-02 3.63950E-04-2.92195E-14
 -1       109 1.12985E-02 3.03274E-04-3.09342E-14
 -1       110 1.16189E-02 2.51937E-04-3.26887E-14
 -1       111 1.19328E-02 2.07352E-04-3.44733E-14
 -1       112 1.22406E-02 1.67250E-04-3.62836E-14
 -1       113 1.25429E-02 1.29809E-04-3.81009E-14
 -1       114 1.28406E-02 9.36542E-05-3.99499E-14
 -1       115 1.31345E-02 5.77952E-05-4.18286E-14
 -1       116 1.34254E-02 2.15416E-05-4.37181E-14
 -1       117 1.37141E-02-1.55699E-05-4.56220E-14
 -1       118 1.40011E-02-5.38264E-05-4.75448E-14
 -1       119 1.42870E-02-9.33502E-05-4.94819E-14
 -1       120 1.45726E-02-1.34025E-04-5.14160E-14
 -1       121 1.48846E-02-2.57624E-04-5.33330E-14
 -1       122 1.49258E-02-3.42052E-04-5.34381E-14
 -1       123 1.49681E-02-4.26031E-04-5.35517E-14
 -1       124 1.50112E-02-5.09070E-04-5.36773E-14
 -1       125 1.50549E-02-5.90881E-04-5.38066E-14
 -1       126 1.50977E-02-6.70063E-04-5.39302E-14
 -1       127 1.51407E-02-7.49516E-04-5.40140E-14
 -1       128 1.51826E-02-8.28215E-04-5.40985E-14
 -1       129 1.52233E-02-9.06635E-04-5.41817E-14
 -1       130 1.52628E-02-9.85297E-04-5.42364E-14
 -1       131 1.53013E-02-1.06469E-03-5.42707E-14
 -1       132 1.53385E-02-1.14382E-03-5.42979E-14
 -1       133 1.53763E-02-1.22561E-03-5.42875E-14
 -1       134 1.54147E-02-1.30866E-03-5.42556E-14
 -1       135 1.54540E-02-1.39269E-03-5.42098E-14
 -1       136 1.54943E-02-1.47711E-03-5.41682E-14
 -1       137 1.08698E-02-1.02209E-04-2.09734E-14
 -1       138 1.07207E-02 5.70634E-05-2.07720E-14
 -1       139 1.04811E-02 2.10853E-04-2.04350E-14
 -1       140 1.01726E-02 3.44973E-04-1.99941E-14
 -1       141 9.81904E-03 4.52122E-04-1.94937E-14
 -1       142 9.39398E-03 5.37812E-04-1.88940E-14
 -1       143 8.94568E-03 5.87723E-04-1.82699E-14
 -1       144 8.47713E-03 6.00124E-04-1.76294E-14
 -1       145 7.98929E-03 5.68920E-04-1.69709E-14
 -1       146 7.56315E-03 5.00055E-04-1.64039E-14
 -1       147 7.20250E-03 4.00714E-04-1.59242E-14
 -1       148 6.88706E-03 2.63186E-04-1.55022E-14
 -1       149 6.68598E-03 1.19152E-04-1.52349E-14
 -1       150 6.56235E-03-5.07924E-05-1.50665E-14
 -1       151 6.54289E-03-2.20082E-04-1.50201E-14
 -1       152 6.61793E-03-3.92449E-04-1.50938E-14
 -1       153 6.79975E-03-5.70839E-04-1.52997E-14
 -1       154 7.04858E-03-7.23504E-04-1.55957E-14
 -1       155 7.39052E-03-8.67779E-04-1.60210E-14
 -1       156 8.20576E-03-1.06052E-03-1.70703E-14
 -1       157 8.64928E-03-1.10213E-03-1.76584E-14
 -1       158 9.09159E-03-1.10399E-03-1.82557E-14
 -1       159 9.52340E-03-1.06665E-03-1.88480E-14
 -1       160 9.94893E-03-9.86490E-04-1.94519E-14
 -1       161 1.03025E-02-8.77598E-04-1.99757E-14
 -1       162 1.05753E-02-7.51190E-04-2.04043E-14
 -1       163 1.07789E-02-6.05802E-04-2.07362E-14
 -1       164 1.09058E-02-4.38376E-04-2.09598E-14
 -1       165 2.40190E-04-1.25391E-04-2.24972E-18
 -1       166 2.25190E-04-9.45128E-05-9.82897E-18
 -1       167 2.19529E-04-7.26753E-05-1.43521E-17
 -1       168 2.16803E-04-5.50017E-05-1.72117E-17
 -1       169 2.15357E-04-3.98729E-05-1.87940E-17
 -1       170 2.14552E-04-2.58440E-05-1.97155E-17
 -1       171 2.14150E-04-1.26043E-05-2.00544E-17
 -1       172 2.14032E-04 2.74594E-07-2.01967E-17
 -1       173 2.14167E-04 1.31654E-05-1.98849E-17
 -1       174 2.14590E-04 2.64436E-05-1.91396E-17
 -1       175 2.15403E-04 4.03017E-05-1.78792E-17
 -1       176 2.16902E-04 5.58114E-05-1.61444E-17
 -1       177 2.19686E-04 7.37114E-05-1.34610E-17
 -1       178 2.25358E-04 9.59082E-05-8.97516E-18
 -1       179 2.39119E-04 1.27461E-04-1.57887E-18
 -1       180 2.97328E-04 1.85284E-04 6.44084E-18
 -1       181 4.68048E-04-2.63158E-04-8.19589E-18
 -1       182 7.65827E-04-3.81276E-04-5.81437E-17
 -1       183 1.04934E-03-4.63478E-04-1.46804E-16
 -1       184 1.32645E-03-5.21311E-04-2.76129E-16
 -1       185 1.60085E-03-5.61732E-04-4.47508E-16
 -1       186 1.87467E-03-5.89355E-04-6.62695E-16
 -1       187 2.14911E-03-6.07398E-04-9.23303E-16
 -1       188 2.42488E-03-6.18188E-04-1.22862E-15
 -1       189 2.70240E-03-6.23438E-04-1.57957E-15
 -1       190 2.98193E-03-6.24415E-04-1.97604E-15
 -1       191 3.26371E-03-6.22059E-04-2.41529E-15
 -1       192 3.54798E-03-6.17084E-04-2.89620E-15
 -1       193 3.83509E-03-6.10074E-04-3.42144E-15
 -1       194 4.12548E-03-6.01575E-04-3.99160E-15
 -1       195 4.41977E-03-5.92211E-04-4.60998E-15
 -1       196 4.71875E-03-5.82817E-04-5.27486E-15
 -1       197 5.02339E-03-5.74619E-04-5.98360E-15
 -1       198 5.33484E-03-5.69460E-04-6.73473E-15
 -1       199 5.65432E-03-5.70085E-04-7.52945E-15
 -1       200 5.98294E-03-5.80454E-04-8.37123E-15
 -1       201 6.32143E-03-6.05984E-04-9.26691E-15
 -1       202 6.66961E-03-6.53462E-04-1.02115E-14
 -1       203 7.02571E-03-7.30114E-04-1.12072E-14
 -1       204 7.38563E-03-8.41045E-04-1.22557E-14
 -1       205 7.74261E-03-9.84518E-04-1.33544E-14
 -1       206 8.08832E-03-1.14587E-03-1.45006E-14
 -1       207 8.41643E-03-1.29467E-03-1.56984E-14
 -1       208 8.72770E-03-1.39212E-03-1.69576E-14
 -1       209 9.03221E-03-1.41021E-03-1.82857E-14
 -1       210 9.34428E-03-1.34990E-03-1.96784E-14
 -1       211 9.67351E-03-1.24046E-03-2.11259E-14
 -1       212 1.00201E-02-1.12066E-03-2.26204E-14
 -1       213 1.03775E-02-1.02002E-03-2.41596E-14
 -1       214 1.07374E-02-9.52273E-04-2.57409E-14
 -1       215 1.10931E-02-9.18561E-04-2.73629E-14
 -1       216 1.14408E-02-9.13521E-04-2.90208E-14
 -1       217 1.17789E-02-9.29888E-04-3.07104E-14
 -1       218 1.21073E-02-9.60931E-04-3.24246E-14
 -1       219 1.24267E-02-1.00131E-03-3.41588E-14
 -1       220 1.27383E-02-1.04716E-03-3.59202E-14
 -1       221 1.30436E-02-1.09579E-03-3.77067E-14
 -1       222 1.33436E-02-1.14547E-03-3.95189E-14
 -1       223 1.36395E-02-1.19505E-03-4.13687E-14
 -1       224 1.39321E-02-1.24384E-03-4.32683E-14
 -1       225 1.42223E-02-1.29142E-03-4.52164E-14
 -1       226 1.45107E-02-1.33755E-03-4.72025E-14
 -1       227 1.47978E-02-1.38212E-03-4.92085E-14
 -1       228 1.50841E-02-1.42519E-03-5.12218E-14
 -1       229 6.03785E-04 3.30449E-04-1.86652E-17
 -1       230 8.92506E-04 4.31514E-04-8.14981E-17
 -1       231 1.17106E-03 5.02481E-04-1.85033E-16
 -1       232 1.44513E-03 5.52509E-04-3.31166E-16
 -1       233 1.71777E-03 5.87353E-04-5.19123E-16
 -1       234 1.99065E-03 6.10922E-04-7.50488E-16
 -1       235 2.26470E-03 6.26009E-04-1.02578E-15
 -1       236 2.54046E-03 6.34665E-04-1.34545E-15
 -1       237 2.81824E-03 6.38422E-04-1.71118E-15
 -1       238 3.09823E-03 6.38435E-04-2.12293E-15
 -1       239 3.38063E-03 6.35596E-04-2.58074E-15
 -1       240 3.66565E-03 6.30633E-04-3.08188E-15
 -1       241 3.95358E-03 6.24204E-04-3.62714E-15
 -1       242 4.24479E-03 6.17000E-04-4.22035E-15
 -1       243 4.53972E-03 6.09842E-04-4.86503E-15
 -1       244 4.83888E-03 6.03799E-04-5.56010E-15
 -1       245 5.14277E-03 6.00300E-04-6.30543E-15
 -1       246 5.45179E-03 6.01221E-04-7.09850E-15
 -1       247 5.76605E-03 6.08919E-04-7.93465E-15
 -1       248 6.08520E-03 6.26135E-04-8.81780E-15
 -1       249 6.40811E-03 6.55648E-04-9.74297E-15
 -1       250 6.73270E-03 6.99553E-04-1.07118E-14
 -1       251 7.05582E-03 7.58074E-04-1.17169E-14
 -1       252 7.37352E-03 8.28037E-04-1.27633E-14
 -1       253 7.68190E-03 9.01551E-04-1.38575E-14
 -1       254 7.97851E-03 9.65956E-04-1.50021E-14
 -1       255 8.26382E-03 1.00614E-03-1.61875E-14
 -1       256 8.54192E-03 1.00922E-03-1.74177E-14
 -1       257 8.81958E-03 9.69748E-04-1.86985E-14
 -1       258 9.10370E-03 8.92046E-04-2.00314E-14
 -1       259 9.39880E-03 7.88315E-04-2.14184E-14
 -1       260 9.70582E-03 6.73651E-04-2.28533E-14
 -1       261 1.00226E-02 5.61160E-04-2.43464E-14
 -1       262 1.03453E-02 4.59325E-04-2.58992E-14
 -1       263 1.06699E-02 3.71830E-04-2.75110E-14
 -1       264 1.09933E-02 2.98775E-04-2.91702E-14
 -1       265 1.13132E-02 2.38217E-04-3.08706E-14
 -1       266 1.16284E-02 1.87408E-04-3.26135E-14
 -1       267 1.19386E-02 1.43574E-04-3.43891E-14
 -1       268 1.22439E-02 1.04310E-04-3.61912E-14
 -1       269 1.25448E-02 6.77030E-05-3.80140E-14
 -1       270 1.28418E-02 3.23248E-05-3.98582E-14
 -1       271 1.31356E-02-2.84232E-06-4.17290E-14
 -1       272 1.34268E-02-3.84986E-05-4.36132E-14
 -1       273 1.37160E-02-7.51098E-05-4.55139E-14
 -1       274 1.40036E-02-1.12966E-04-4.74366E-14
 -1       275 1.42903E-02-1.52198E-04-4.93687E-14
 -1       276 1.45763E-02-1.92725E-04-5.13021E-14
 -1       277 1.46576E-02-2.63781E-04-5.17139E-14
 -1       278 1.46995E-02-3.47533E-04-5.18182E-14
 -1       279 1.47425E-02-4.30584E-04-5.19219E-14
 -1       280 1.47863E-02-5.12732E-04-5.20258E-14
 -1       281 1.48295E-02-5.92536E-04-5.21283E-14
 -1       282 1.48731E-02-6.72816E-04-5.22219E-14
 -1       283 1.49158E-02-7.52394E-04-5.23070E-14
 -1       284 1.49572E-02-8.31579E-04-5.23839E-14
 -1       285 1.49972E-02-9.10743E-04-5.24421E-14
 -1       286 1.50360E-02-9.90264E-04-5.24844E-14
 -1       287 1.50732E-02-1.06910E-03-5.25084E-14
 -1       288 1.51107E-02-1.15020E-03-5.25126E-14
 -1       289 1.51483E-02-1.23230E-03-5.24943E-14
 -1       290 1.51869E-02-1.31533E-03-5.24670E-14
 -1       291 1.51351E-02-1.37017E-03-5.18438E-14
 -1       292 1.09362E-02-2.43009E-04-2.16894E-14
 -1       293 1.07864E-02-1.35106E-04-2.14395E-14
 -1       294 1.05287E-02-1.20138E-05-2.11464E-14
 -1       295 1.01991E-02 1.54570E-04-2.06411E-14
 -1       296 9.83634E-03 3.25438E-04-2.00734E-14
 -1       297 9.45055E-03 4.88906E-04-1.94289E-14
 -1       298 9.06975E-03 6.17943E-04-1.86942E-14
 -1       299 8.69793E-03 6.75837E-04-1.79426E-14
 -1       300 8.31429E-03 6.48776E-04-1.71681E-14
 -1       301 7.90962E-03 5.35472E-04-1.64732E-14
 -1       302 7.52727E-03 3.84395E-04-1.58711E-14
 -1       303 7.16232E-03 2.07622E-04-1.53100E-14
 -1       304 6.83647E-03 6.81645E-05-1.49697E-14
 -1       305 6.61525E-03-6.11088E-05-1.46321E-14
 -1       306 6.51534E-03-1.49937E-04-1.46008E-14
 -1       307 6.55350E-03-2.43340E-04-1.46179E-14
 -1       308 6.73159E-03-3.48355E-04-1.47193E-14
 -1       309 7.01204E-03-5.06044E-04-1.50637E-14
 -1       310 7.38683E-03-6.61941E-04-1.53807E-14
 -1       311 7.75247E-03-8.72669E-04-1.60007E-14
 -1       312 8.13610E-03-1.03811E-03-1.66028E-14
 -1       313 8.50393E-03-1.14845E-03-1.72626E-14
 -1       314 8.86191E-03-1.18450E-03-1.79606E-14
 -1       315 9.21880E-03-1.14036E-03-1.86692E-14
 -1       316 9.58979E-03-1.02313E-03-1.94051E-14
 -1       317 9.97820E-03-8.61189E-04-2.00700E-14
 -1       318 1.03242E-02-6.97745E-04-2.06433E-14
 -1       319 1.06188E-02-5.52893E-04-2.10954E-14
 -1       320 1.08433E-02-4.25412E-04-2.14679E-14
 -1       321 1.09559E-02-3.28635E-04-2.16474E-14
 -1       322 4.55329E-04-1.64457E-04-5.00834E-17
 -1       323 4.73964E-04-2.12600E-04-3.72593E-17
 -1       324 4.40664E-04-9.37238E-05-6.45270E-17
 -1       325 4.37777E-04-6.46765E-05-6.79727E-17
 -1       326 4.36195E-04-3.77509E-05-6.98870E-17
 -1       327 4.35501E-04-1.19621E-05-7.06798E-17
 -1       328 4.35529E-04 1.34844E-05-7.05138E-17
 -1       329 4.36286E-04 3.93290E-05-6.91314E-17
 -1       330 4.37912E-04 6.59027E-05-6.64209E-17
 -1       331 4.40896E-04 9.51173E-05-6.24026E-17
 -1       332 4.46168E-04 1.27992E-04-5.68088E-17
 -1       333 4.55832E-04 1.66945E-04-4.82910E-17
 -1       334 4.75588E-04 2.16652E-04-3.54737E-17
 -1       335 5.31502E-04 2.69493E-04-2.94496E-17
 -1       336 8.23718E-04 3.72496E-04-9.47762E-17
 -1       337 8.62652E-04-3.56293E-04-1.28061E-16
 -1       338 1.14886E-03-4.24243E-04-2.44857E-16
 -1       339 1.43156E-03-4.72306E-04-4.02080E-16
 -1       340 1.71230E-03-5.05562E-04-6.01014E-16
 -1       341 1.99225E-03-5.27726E-04-8.44207E-16
 -1       342 2.27225E-03-5.41521E-04-1.13123E-15
 -1       343 2.55287E-03-5.48957E-04-1.46280E-15
 -1       344 2.83449E-03-5.51516E-04-1.83894E-15
 -1       345 3.11741E-03-5.50288E-04-2.26002E-15
 -1       346 3.40189E-03-5.46077E-04-2.72219E-15
 -1       347 3.68818E-03-5.39503E-04-3.22769E-15
 -1       348 3.97658E-03-5.31090E-04-3.77858E-15
 -1       349 4.26747E-03-5.21372E-04-4.37543E-15
 -1       350 4.56131E-03-5.11009E-04-5.01884E-15
 -1       351 4.85866E-03-5.00946E-04-5.70796E-15
 -1       352 5.16023E-03-4.92602E-04-6.43940E-15
 -1       353 5.46681E-03-4.88119E-04-7.21442E-15
 -1       354 5.77936E-03-4.90663E-04-8.03426E-15
 -1       355 6.09898E-03-5.04736E-04-8.90686E-15
 -1       356 6.42688E-03-5.36378E-04-9.82847E-15
 -1       357 6.76426E-03-5.92971E-04-1.07986E-14
 -1       358 7.11175E-03-6.82056E-04-1.18206E-14
 -1       359 7.46826E-03-8.08166E-04-1.28930E-14
 -1       360 7.82910E-03-9.67064E-04-1.40103E-14
 -1       361 8.18564E-03-1.13734E-03-1.51786E-14
 -1       362 8.52992E-03-1.27825E-03-1.64035E-14
 -1       363 8.86287E-03-1.34390E-03-1.76976E-14
 -1       364 9.19622E-03-1.31402E-03-1.90552E-14
 -1       365 9.54131E-03-1.21116E-03-2.04687E-14
 -1       366 9.89841E-03-1.08177E-03-2.19339E-14
 -1       367 1.02592E-02-9.65657E-04-2.34478E-14
 -1       368 1.06153E-02-8.82845E-04-2.50066E-14
 -1       369 1.09622E-02-8.36935E-04-2.66049E-14
 -1       370 1.12991E-02-8.23016E-04-2.82407E-14
 -1       371 1.16266E-02-8.33477E-04-2.99093E-14
 -1       372 1.19460E-02-8.60982E-04-3.16094E-14
 -1       373 1.22584E-02-8.99572E-04-3.33340E-14
 -1       374 1.25651E-02-9.44825E-04-3.50801E-14
 -1       375 1.28671E-02-9.93650E-04-3.68582E-14
 -1       376 1.31651E-02-1.04398E-03-3.86612E-14
 -1       377 1.34599E-02-1.09447E-03-4.04916E-14
 -1       378 1.37522E-02-1.14431E-03-4.23598E-14
 -1       379 1.40425E-02-1.19298E-03-4.42754E-14
 -1       380 1.43312E-02-1.24020E-03-4.62372E-14
 -1       381 1.46188E-02-1.28581E-03-4.82348E-14
 -1       382 1.48772E-02-1.32862E-03-5.00354E-14
 -1       383 1.10897E-03 4.46060E-04-1.99195E-16
 -1       384 1.38957E-03 4.98088E-04-3.44668E-16
 -1       385 1.66782E-03 5.34321E-04-5.32425E-16
 -1       386 1.94531E-03 5.58807E-04-7.62584E-16
 -1       387 2.22305E-03 5.74468E-04-1.03668E-15
 -1       388 2.50169E-03 5.83457E-04-1.35494E-15
 -1       389 2.78163E-03 5.87369E-04-1.71826E-15
 -1       390 3.06317E-03 5.87401E-04-2.12704E-15
 -1       391 3.34653E-03 5.84466E-04-2.58089E-15
 -1       392 3.63194E-03 5.79295E-04-3.07842E-15
 -1       393 3.91967E-03 5.72534E-04-3.62116E-15
 -1       394 4.21004E-03 5.64842E-04-4.21044E-15
 -1       395 4.50341E-03 5.57002E-04-4.85007E-15
 -1       396 4.80022E-03 5.50030E-04-5.53897E-15
 -1       397 5.10089E-03 5.45294E-04-6.27720E-15
 -1       398 5.40584E-03 5.44614E-04-7.06345E-15
 -1       399 5.71531E-03 5.50322E-04-7.89448E-15
 -1       400 6.02931E-03 5.65197E-04-8.77337E-15
 -1       401 6.34737E-03 5.92183E-04-9.69573E-15
 -1       402 6.66838E-03 6.33745E-04-1.06583E-14
 -1       403 6.99034E-03 6.90740E-04-1.16596E-14
 -1       404 7.31040E-03 7.60824E-04-1.27030E-14
 -1       405 7.62518E-03 8.36850E-04-1.37926E-14
 -1       406 7.93182E-03 9.06282E-04-1.49321E-14
 -1       407 8.22958E-03 9.53040E-04-1.61144E-14
 -1       408 8.52095E-03 9.62366E-04-1.73398E-14
 -1       409 8.81126E-03 9.26932E-04-1.86206E-14
 -1       410 9.10633E-03 8.50363E-04-1.99504E-14
 -1       411 9.40980E-03 7.45435E-04-2.13338E-14
 -1       412 9.72200E-03 6.28465E-04-2.27664E-14
 -1       413 1.00406E-02 5.13600E-04-2.42543E-14
 -1       414 1.03623E-02 4.09886E-04-2.58006E-14
 -1       415 1.06840E-02 3.21166E-04-2.74063E-14
 -1       416 1.10034E-02 2.47483E-04-2.90584E-14
 -1       417 1.13191E-02 1.86757E-04-3.07522E-14
 -1       418 1.16305E-02 1.36101E-04-3.24840E-14
 -1       419 1.19375E-02 9.26239E-05-3.42518E-14
 -1       420 1.22403E-02 5.38262E-05-3.60514E-14
 -1       421 1.25393E-02 1.77307E-05-3.78698E-14
 -1       422 1.28352E-02-1.71333E-05-3.97110E-14
 -1       423 1.31283E-02-5.18099E-05-4.15741E-14
 -1       424 1.34192E-02-8.70124E-05-4.34523E-14
 -1       425 1.37084E-02-1.23212E-04-4.53515E-14
 -1       426 1.39962E-02-1.60704E-04-4.72735E-14
 -1       427 1.42830E-02-1.99631E-04-4.92056E-14
 -1       428 1.44704E-02-2.31446E-04-5.04614E-14
 -1       429 1.45174E-02-4.36145E-04-5.02753E-14
 -1       430 1.44736E-02-3.53691E-04-5.01836E-14
 -1       431 1.44716E-02-2.92781E-04-5.03222E-14
 -1       432 1.45610E-02-5.16289E-04-5.03636E-14
 -1       433 1.46052E-02-5.96924E-04-5.04473E-14
 -1       434 1.46486E-02-6.76807E-04-5.05266E-14
 -1       435 1.46909E-02-7.56179E-04-5.05998E-14
 -1       436 1.47316E-02-8.35347E-04-5.06623E-14
 -1       437 1.47709E-02-9.14652E-04-5.07080E-14
 -1       438 1.48082E-02-9.93063E-04-5.07344E-14
 -1       439 1.48454E-02-1.07355E-03-5.07433E-14
 -1       440 1.48825E-02-1.15495E-03-5.07332E-14
 -1       441 1.49202E-02-1.23732E-03-5.07210E-14
 -1       442 1.06589E-02-1.54952E-04-2.19930E-14
 -1       443 1.09807E-02-2.97502E-04-2.23552E-14
 -1       444 1.08627E-02-2.32760E-04-2.22516E-14
 -1       445 1.03088E-02 2.17531E-06-2.14058E-14
 -1       446 9.94135E-03 1.79259E-04-2.08419E-14
 -1       447 4.45789E-04-1.26089E-04-5.86113E-17
 -1       448 9.19481E-03 5.67517E-04-1.92569E-14
 -1       449 8.85109E-03 6.85807E-04-1.83753E-14
 -1       450 8.52440E-03 7.08118E-04-1.74974E-14
 -1       451 8.13902E-03 6.05270E-04-1.65547E-14
 -1       452 7.78819E-03 4.45490E-04-1.58289E-14
 -1       453 7.45285E-03 2.78448E-04-1.52745E-14
 -1       454 7.00321E-03 6.65627E-05-1.46298E-14
 -1       455 6.74250E-03-4.05004E-05-1.42994E-14
 -1       456 6.52204E-03-1.30087E-04-1.40489E-14
 -1       457 6.50146E-03-1.77832E-04-1.41044E-14
 -1       458 6.61058E-03-2.33054E-04-1.41067E-14
 -1       459 6.90970E-03-3.55805E-04-1.43971E-14
 -1       460 7.21437E-03-4.92365E-04-1.46992E-14
 -1       461 7.69000E-03-7.53482E-04-1.54060E-14
 -1       462 8.00636E-03-9.36012E-04-1.59875E-14
 -1       463 8.37822E-03-1.11876E-03-1.67631E-14
 -1       464 8.70386E-03-1.20951E-03-1.75582E-14
 -1       465 9.02261E-03-1.20316E-03-1.83795E-14
 -1       466 9.34516E-03-1.10639E-03-1.92108E-14
 -1       467 9.73300E-03-9.20679E-04-2.00990E-14
 -1       468 1.00918E-02-7.29760E-04-2.08662E-14
 -1       469 1.04395E-02-5.60948E-04-2.14573E-14
 -1       470 1.07248E-02-4.38872E-04-2.18604E-14
 -1       471 1.09283E-02-3.48673E-04-2.23142E-14
 -1       472 9.57643E-03 3.78519E-04-2.00896E-14
 -1       473 7.46119E-03-6.00186E-04-1.47183E-14
 -1       474 9.30829E-04 3.44739E-04-1.70789E-16
 -1       475 6.66278E-04-7.47411E-05-1.47587E-16
 -1       476 6.70175E-04-1.15352E-04-1.42390E-16
 -1       477 6.63643E-04 1.10622E-06-1.50799E-16
 -1       478 6.64349E-04 3.85617E-05-1.49427E-16
 -1       479 6.66452E-04 7.64313E-05-1.45988E-16
 -1       480 6.70472E-04 1.17190E-04-1.40387E-16
 -1       481 6.77355E-04 1.61697E-04-1.31883E-16
 -1       482 6.89062E-04 2.11986E-04-1.19889E-16
 -1       483 1.21664E-03 4.04342E-04-3.02848E-16
 -1       484 9.76049E-04-3.27211E-04-2.08346E-16
 -1       485 9.37314E-03 4.67193E-04-2.00237E-14
 -1       486 1.26194E-03-3.81160E-04-3.52142E-16
 -1       487 1.54701E-03-4.19643E-04-5.35667E-16
 -1       488 1.83127E-03-4.46025E-04-7.62035E-16
 -1       489 2.11506E-03-4.63114E-04-1.03154E-15
 -1       490 2.39876E-03-4.73097E-04-1.34398E-15
 -1       491 2.68268E-03-4.77631E-04-1.70064E-15
 -1       492 2.96706E-03-4.77953E-04-2.10123E-15
 -1       493 3.25209E-03-4.74974E-04-2.54547E-15
 -1       494 3.53795E-03-4.69374E-04-3.03220E-15
 -1       495 3.82481E-03-4.61694E-04-3.56336E-15
 -1       496 4.11284E-03-4.52421E-04-4.14054E-15
 -1       497 4.40224E-03-4.42097E-04-4.76223E-15
 -1       498 4.69325E-03-4.31443E-04-5.43050E-15
 -1       499 4.98620E-03-4.21503E-04-6.14131E-15
 -1       500 5.28152E-03-4.13842E-04-6.89731E-15
 -1       501 5.57988E-03-4.10774E-04-7.69696E-15
 -1       502 5.88236E-03-4.15635E-04-8.54510E-15
 -1       503 6.19070E-03-4.33086E-04-9.44519E-15
 -1       504 6.50767E-03-4.69368E-04-1.03912E-14
 -1       505 6.83716E-03-5.32370E-04-1.13887E-14
 -1       506 7.18331E-03-6.30781E-04-1.24340E-14
 -1       507 7.54827E-03-7.71180E-04-1.35258E-14
 -1       508 7.92615E-03-9.49218E-04-1.46654E-14
 -1       509 8.30358E-03-1.13433E-03-1.58547E-14
 -1       510 8.66802E-03-1.26409E-03-1.71096E-14
 -1       511 9.02386E-03-1.28093E-03-1.84351E-14
 -1       512 9.38877E-03-1.18717E-03-1.98190E-14
 -1       513 9.76685E-03-1.04216E-03-2.12512E-14
 -1       514 1.01444E-02-9.07086E-04-2.27369E-14
 -1       515 1.05081E-02-8.10372E-04-2.42709E-14
 -1       516 1.08533E-02-7.55365E-04-2.58481E-14
 -1       517 1.11819E-02-7.35236E-04-2.74629E-14
 -1       518 1.14984E-02-7.41203E-04-2.91098E-14
 -1       519 1.18064E-02-7.65467E-04-3.07908E-14
 -1       520 1.21088E-02-8.01868E-04-3.25035E-14
 -1       521 1.24072E-02-8.45825E-04-3.42399E-14
 -1       522 1.27026E-02-8.94066E-04-3.60031E-14
 -1       523 1.29959E-02-9.44344E-04-3.77988E-14
 -1       524 1.32874E-02-9.95165E-04-3.96150E-14
 -1       525 1.35775E-02-1.04557E-03-4.14633E-14
 -1       526 1.38664E-02-1.09498E-03-4.33489E-14
 -1       527 1.41543E-02-1.14304E-03-4.52796E-14
 -1       528 1.44414E-02-1.18956E-03-4.72538E-14
 -1       529 1.07998E-02-2.30656E-04-2.30057E-14
 -1       530 1.78359E-03 4.76127E-04-6.89912E-16
 -1       531 2.06582E-03 4.95426E-04-9.46752E-16
 -1       532 2.34802E-03 5.07130E-04-1.24744E-15
 -1       533 2.63059E-03 5.13058E-04-1.59169E-15
 -1       534 2.91386E-03 5.14571E-04-1.98073E-15
 -1       535 3.19807E-03 5.12697E-04-2.41522E-15
 -1       536 3.48343E-03 5.08225E-04-2.89270E-15
 -1       537 3.77015E-03 5.01806E-04-3.41424E-15
 -1       538 4.05847E-03 4.94048E-04-3.98312E-15
 -1       539 4.34866E-03 4.85612E-04-4.59981E-15
 -1       540 4.64104E-03 4.77329E-04-5.26619E-15
 -1       541 4.93603E-03 4.70304E-04-5.97832E-15
 -1       542 5.23408E-03 4.66043E-04-6.73729E-15
 -1       543 5.53576E-03 4.66541E-04-7.54661E-15
 -1       544 5.84164E-03 4.74330E-04-8.40247E-15
 -1       545 6.15232E-03 4.92393E-04-9.30550E-15
 -1       546 6.46815E-03 5.23835E-04-1.02488E-14
 -1       547 6.78898E-03 5.71156E-04-1.12321E-14
 -1       548 7.11358E-03 6.34894E-04-1.22538E-14
 -1       549 7.43920E-03 7.11647E-04-1.33220E-14
 -1       550 7.76174E-03 7.91941E-04-1.44380E-14
 -1       551 8.07730E-03 8.59647E-04-1.55992E-14
 -1       552 8.38488E-03 8.95185E-04-1.68045E-14
 -1       553 8.68810E-03 8.83415E-04-1.80615E-14
 -1       554 8.99351E-03 8.21746E-04-1.93699E-14
 -1       555 9.30615E-03 7.21600E-04-2.07307E-14
 -1       556 9.62662E-03 6.02050E-04-2.21419E-14
 -1       557 9.95169E-03 4.81062E-04-2.36042E-14
 -1       558 1.02771E-02 3.70491E-04-2.51210E-14
 -1       559 1.05995E-02 2.75630E-04-2.66970E-14
 -1       560 1.09172E-02 1.97052E-04-2.83270E-14
 -1       561 1.12298E-02 1.32745E-04-3.00008E-14
 -1       562 1.15375E-02 7.96872E-05-3.17114E-14
 -1       563 1.18409E-02 3.47860E-05-3.34585E-14
 -1       564 1.21405E-02-4.67112E-06-3.52387E-14
 -1       565 1.24371E-02-4.08595E-05-3.70434E-14
 -1       566 1.27311E-02-7.54174E-05-3.88673E-14
 -1       567 1.30230E-02-1.09520E-04-4.07143E-14
 -1       568 1.33132E-02-1.43974E-04-4.25825E-14
 -1       569 1.36021E-02-1.79316E-04-4.44729E-14
 -1       570 1.38898E-02-2.15891E-04-4.63844E-14
 -1       571 1.41767E-02-2.53903E-04-4.83203E-14
 -1       572 1.43370E-02-5.22087E-04-4.86996E-14
 -1       573 1.43814E-02-6.01997E-04-4.87729E-14
 -1       574 1.42481E-02-3.60794E-04-4.85422E-14
 -1       575 1.42925E-02-4.41948E-04-4.86215E-14
 -1       576 1.44246E-02-6.81204E-04-4.88406E-14
 -1       577 1.44662E-02-7.60003E-04-4.89006E-14
 -1       578 1.45061E-02-8.38744E-04-4.89474E-14
 -1       579 1.45438E-02-9.16447E-04-4.89762E-14
 -1       580 1.45808E-02-9.96123E-04-4.89839E-14
 -1       581 1.46173E-02-1.07671E-03-4.89816E-14
 -1       582 1.46540E-02-1.15836E-03-4.89742E-14
 -1       583 1.10003E-02-3.23524E-04-2.30263E-14
 -1       584 1.50075E-03 4.46819E-04-4.75551E-16
 -1       585 1.04802E-02-1.09373E-04-2.23120E-14
 -1       586 1.08481E-02-3.84293E-04-2.27844E-14
 -1       587 7.12505E-04-2.50947E-04-1.15203E-16
 -1       588 1.01348E-02 4.93357E-05-2.16977E-14
 -1       589 6.72195E-03-2.55604E-04-1.36860E-14
 -1       590 7.96699E-03 5.39121E-04-1.58884E-14
 -1       591 6.64246E-04-3.63141E-05-1.50298E-16
 -1       592 8.69465E-03 7.24342E-04-1.79849E-14
 -1       593 6.46013E-03-1.48850E-04-1.34558E-14
 -1       594 9.00140E-03 6.47537E-04-1.89438E-14
 -1       595 8.31935E-03 6.83009E-04-1.68256E-14
 -1       596 7.60579E-03 3.54679E-04-1.50855E-14
 -1       597 7.20810E-03 1.52488E-04-1.44516E-14
 -1       598 6.85065E-03-1.56670E-06-1.39654E-14
 -1       599 8.57081E-03-1.19559E-03-1.70575E-14
 -1       600 6.57615E-03-9.67451E-05-1.35718E-14
 -1       601 6.50462E-03-1.79660E-04-1.34588E-14
 -1       602 7.02695E-03-3.78893E-04-1.39754E-14
 -1       603 7.89349E-03-8.50039E-04-1.53682E-14
 -1       604 8.21992E-03-1.04001E-03-1.61197E-14
 -1       605 8.87015E-03-1.23908E-03-1.79719E-14
 -1       606 9.16763E-03-1.18705E-03-1.88968E-14
 -1       607 9.53146E-03-1.02515E-03-1.99375E-14
 -1       608 9.89442E-03-8.27387E-04-2.08634E-14
 -1       609 1.02869E-02-6.21760E-04-2.17527E-14
 -1       610 1.06315E-02-4.66142E-04-2.23759E-14
 -1       611 1.09779E-02-2.88695E-04-2.31542E-14
 -1       612 7.03426E-04 2.90121E-04-9.00870E-17
 -1       613 9.72087E-03 2.71183E-04-2.08432E-14
 -1       614 6.76844E-04-1.59474E-04-1.34360E-16
 -1       615 1.09766E-02-3.55381E-04-2.35026E-14
 -1       616 1.46359E-02-1.22172E-03-4.86072E-14
 -1       617 8.48834E-03 7.33610E-04-1.72990E-14
 -1       618 7.23059E-03-4.79385E-04-1.39898E-14
 -1       619 9.00292E-04 7.36009E-05-2.55519E-16
 -1       620 8.98224E-04 2.50051E-05-2.59158E-16
 -1       621 9.12217E-04 1.77192E-04-2.38867E-16
 -1       622 9.24391E-04 2.35592E-04-2.24183E-16
 -1       623 1.04882E-03 3.12312E-04-2.57176E-16
 -1       624 1.03437E-02-4.58116E-05-2.26669E-14
 -1       625 1.07952E-02-4.29010E-04-2.33596E-14
 -1       626 1.33457E-03 3.58940E-04-4.15466E-16
 -1       627 9.95035E-03 1.51359E-04-2.18041E-14
 -1       628 1.38343E-03-3.34288E-04-4.68009E-16
 -1       629 1.66969E-03-3.63812E-04-6.77508E-16
 -1       630 1.95599E-03-3.83767E-04-9.29229E-16
 -1       631 2.24216E-03-3.96211E-04-1.22348E-15
 -1       632 2.52818E-03-4.02828E-04-1.56065E-15
 -1       633 2.81411E-03-4.04931E-04-1.94174E-15
 -1       634 3.10000E-03-4.03510E-04-2.36654E-15
 -1       635 3.38590E-03-3.99307E-04-2.83430E-15
 -1       636 3.67184E-03-3.92889E-04-3.34652E-15
 -1       637 3.95782E-03-3.84732E-04-3.90355E-15
 -1       638 4.24384E-03-3.75304E-04-4.50509E-15
 -1       639 4.52987E-03-3.65161E-04-5.15183E-15
 -1       640 4.81592E-03-3.55060E-04-5.84268E-15
 -1       641 5.10205E-03-3.46089E-04-6.57842E-15
 -1       642 5.38848E-03-3.39812E-04-7.35876E-15
 -1       643 5.67583E-03-3.38449E-04-8.18521E-15
 -1       644 5.96545E-03-3.45099E-04-9.06123E-15
 -1       645 6.25999E-03-3.64070E-04-9.98564E-15
 -1       646 6.56409E-03-4.01445E-04-1.09568E-14
 -1       647 6.88484E-03-4.66422E-04-1.19776E-14
 -1       648 7.23144E-03-5.69976E-04-1.30435E-14
 -1       649 7.61142E-03-7.29074E-04-1.41555E-14
 -1       650 9.63635E-03-1.01904E-03-2.05709E-14
 -1       651 1.00383E-02-8.53573E-04-2.20285E-14
 -1       652 1.04150E-02-7.39438E-04-2.35366E-14
 -1       653 1.07614E-02-6.77401E-04-2.50893E-14
 -1       654 1.10829E-02-6.54421E-04-2.66836E-14
 -1       655 1.13880E-02-6.58386E-04-2.83113E-14
 -1       656 1.16837E-02-6.80612E-04-2.99723E-14
 -1       657 1.19745E-02-7.15019E-04-3.16666E-14
 -1       658 1.22629E-02-7.57272E-04-3.33930E-14
 -1       659 1.25502E-02-8.04246E-04-3.51431E-14
 -1       660 1.28370E-02-8.53722E-04-3.69279E-14
 -1       661 1.31237E-02-9.04159E-04-3.87386E-14
 -1       662 1.34102E-02-9.54526E-04-4.05679E-14
 -1       663 1.36965E-02-1.00416E-03-4.24304E-14
 -1       664 1.39828E-02-1.05266E-03-4.43317E-14
 -1       665 1.42688E-02-1.09977E-03-4.62762E-14
 -1       666 9.38419E-03-1.13617E-03-1.97178E-14
 -1       667 1.90580E-03 4.14991E-04-8.54517E-16
 -1       668 2.76123E-03 4.40947E-04-1.83308E-15
 -1       669 3.04658E-03 4.40503E-04-2.24734E-15
 -1       670 3.33228E-03 4.37164E-04-2.70507E-15
 -1       671 3.61847E-03 4.31595E-04-3.20631E-15
 -1       672 3.90527E-03 4.24363E-04-3.75421E-15
 -1       673 4.19288E-03 4.16030E-04-4.34959E-15
 -1       674 4.48152E-03 4.07240E-04-4.99315E-15
 -1       675 4.77151E-03 3.98831E-04-5.68285E-15
 -1       676 5.06333E-03 3.91939E-04-6.41757E-15
 -1       677 5.35764E-03 3.88111E-04-7.20083E-15
 -1       678 5.65537E-03 3.89404E-04-8.03375E-15
 -1       679 5.95776E-03 3.98458E-04-8.91383E-15
 -1       680 6.26635E-03 4.18459E-04-9.83882E-15
 -1       681 6.58268E-03 4.52918E-04-1.08037E-14
 -1       682 6.90764E-03 5.04964E-04-1.18058E-14
 -1       683 7.24036E-03 5.75692E-04-1.28510E-14
 -1       684 7.57701E-03 6.61220E-04-1.39444E-14
 -1       685 7.91104E-03 7.48906E-04-1.50826E-14
 -1       686 8.23634E-03 8.15977E-04-1.62665E-14
 -1       687 8.55270E-03 8.36377E-04-1.74992E-14
 -1       688 8.86743E-03 7.95322E-04-1.87847E-14
 -1       689 9.18912E-03 7.00421E-04-2.01255E-14
 -1       690 9.52061E-03 5.75431E-04-2.15166E-14
 -1       691 9.85719E-03 4.45627E-04-2.29563E-14
 -1       692 1.01919E-02 3.27319E-04-2.44455E-14
 -1       693 1.05198E-02 2.27034E-04-2.59881E-14
 -1       694 1.08392E-02 1.44979E-04-2.75907E-14
 -1       695 1.11504E-02 7.84849E-05-2.92456E-14
 -1       696 1.14549E-02 2.40403E-05-3.09397E-14
 -1       697 1.17542E-02-2.17162E-05-3.26665E-14
 -1       698 1.20497E-02-6.16342E-05-3.44298E-14
 -1       699 1.23425E-02-9.79686E-05-3.62191E-14
 -1       700 1.26334E-02-1.32417E-04-3.80251E-14
 -1       701 1.29228E-02-1.66206E-04-3.98577E-14
 -1       702 1.32111E-02-2.00184E-04-4.17104E-14
 -1       703 1.34987E-02-2.34918E-04-4.35918E-14
 -1       704 1.37856E-02-2.70780E-04-4.55007E-14
 -1       705 1.40171E-02-3.15351E-04-4.70152E-14
 -1       706 1.42012E-02-6.85351E-04-4.71645E-14
 -1       707 1.44615E-02-1.12944E-03-4.76164E-14
 -1       708 1.41139E-02-5.28261E-04-4.70475E-14
 -1       709 1.42420E-02-7.63245E-04-4.72103E-14
 -1       710 1.41584E-02-6.07149E-04-4.71104E-14
 -1       711 1.06741E-02-1.82003E-04-2.33677E-14
 -1       712 1.42802E-02-8.39934E-04-4.72409E-14
 -1       713 1.43172E-02-9.18484E-04-4.72543E-14
 -1       714 1.43531E-02-9.97959E-04-4.72545E-14
 -1       715 1.44071E-02-1.06329E-03-4.74351E-14
 -1       716 1.62034E-03 3.92264E-04-6.14428E-16
 -1       717 8.72445E-04-2.46047E-04-1.94336E-16
 -1       718 6.79562E-03-2.91370E-04-1.31872E-14
 -1       719 6.55041E-03-2.01006E-04-1.29691E-14
 -1       720 8.11965E-03 6.40752E-04-1.60983E-14
 -1       721 7.61249E-03-6.96105E-04-1.44974E-14
 -1       722 2.47608E-03 4.37648E-04-1.46327E-15
 -1       723 2.19100E-03 4.29487E-04-1.13728E-15
 -1       724 1.12704E-03-2.95293E-04-3.15794E-16
 -1       725 6.42919E-03-1.15984E-04-1.28443E-14
 -1       726 9.17832E-03 5.79957E-04-1.96763E-14
 -1       727 9.04691E-04 1.23813E-04-2.49007E-16
 -1       728 9.04340E-04-1.21398E-04-2.51355E-16
 -1       729 6.95333E-03 7.90816E-05-1.35715E-14
 -1       730 7.32599E-03 2.55257E-04-1.41843E-14
 -1       731 1.10591E-02-3.19807E-04-2.39109E-14
 -1       732 6.67096E-03-3.48365E-05-1.31918E-14
 -1       733 6.40129E-03-1.48767E-04-1.27239E-14
 -1       734 7.75697E-03 4.77143E-04-1.50995E-14
 -1       735 1.09749E-02-2.80789E-04-2.40205E-14
 -1       736 8.07413E-03-9.73901E-04-1.54620E-14
 -1       737 1.05249E-02-5.38499E-04-2.27864E-14
 -1       738 8.39722E-03-1.14407E-03-1.63688E-14
 -1       739 1.01242E-02-7.34244E-04-2.18416E-14
 -1       740 9.57391E-03 3.62789E-04-2.08473E-14
 -1       741 8.84982E-03 7.11610E-04-1.85734E-14
 -1       742 9.11633E-04-1.74554E-04-2.41367E-16
 -1       743 8.98166E-04-2.29778E-05-2.59822E-16
 -1       744 1.40688E-02-4.49070E-04-4.69767E-14
 -1       745 6.45864E-03-6.80018E-05-1.24765E-14
 -1       746 9.74172E-03-9.46575E-04-2.08236E-14
 -1       747 1.40427E-02-3.82656E-04-4.69958E-14
 -1       748 6.95793E-03-3.70378E-04-1.31978E-14
 -1       749 1.09007E-02-2.44905E-04-2.43903E-14
 -1       750 8.28326E-03 7.17893E-04-1.65568E-14
 -1       751 9.00099E-04-7.13110E-05-2.57247E-16
 -1       752 1.09866E-02-3.93416E-04-2.42626E-14
 -1       753 1.16189E-03 2.41887E-04-3.60806E-16
 -1       754 1.40180E-02-7.64796E-04-4.55307E-14
 -1       755 9.05791E-03 6.65528E-04-1.94270E-14
 -1       756 1.79762E-03-3.04948E-04-8.26436E-16
 -1       757 2.08516E-03-3.19147E-04-1.10238E-15
 -1       758 2.37272E-03-3.27517E-04-1.42113E-15
 -1       759 2.66003E-03-3.31315E-04-1.78238E-15
 -1       760 2.94691E-03-3.31537E-04-2.18727E-15
 -1       761 3.23324E-03-3.28949E-04-2.63609E-15
 -1       762 3.51888E-03-3.24137E-04-3.12880E-15
 -1       763 3.80371E-03-3.17573E-04-3.66598E-15
 -1       764 4.08753E-03-3.09679E-04-4.24718E-15
 -1       765 4.37014E-03-3.00907E-04-4.87301E-15
 -1       766 4.65127E-03-2.91817E-04-5.54427E-15
 -1       767 4.93064E-03-2.83157E-04-6.25776E-15
 -1       768 5.20802E-03-2.75951E-04-7.01999E-15
 -1       769 5.48336E-03-2.71576E-04-7.82621E-15
 -1       770 5.75705E-03-2.71850E-04-8.68036E-15
 -1       771 6.03037E-03-2.79186E-04-9.58010E-15
 -1       772 6.30631E-03-2.96993E-04-1.05273E-14
 -1       773 6.59106E-03-3.30781E-04-1.15228E-14
 -1       774 6.30727E-03-1.17278E-04-1.20738E-14
 -1       775 1.07103E-02-5.85015E-04-2.43383E-14
 -1       776 1.10156E-02-5.65348E-04-2.59070E-14
 -1       777 1.13024E-02-5.72184E-04-2.75163E-14
 -1       778 1.15804E-02-5.95236E-04-2.91580E-14
 -1       779 1.18554E-02-6.28871E-04-3.08348E-14
 -1       780 1.21305E-02-6.69568E-04-3.25464E-14
 -1       781 1.24069E-02-7.14823E-04-3.42875E-14
 -1       782 1.26850E-02-7.62768E-04-3.60580E-14
 -1       783 1.29649E-02-8.12017E-04-3.78527E-14
 -1       784 1.32462E-02-8.61571E-04-3.96731E-14
 -1       785 1.35287E-02-9.10747E-04-4.15221E-14
 -1       786 1.38121E-02-9.59081E-04-4.33985E-14
 -1       787 1.40962E-02-1.00631E-03-4.53121E-14
 -1       788 2.03298E-03 3.51368E-04-1.02592E-15
 -1       789 2.89339E-03 3.67781E-04-2.07919E-15
 -1       790 3.75172E-03 3.55341E-04-3.52509E-15
 -1       791 4.03745E-03 3.47754E-04-4.09966E-15
 -1       792 4.32314E-03 3.39258E-04-4.72042E-15
 -1       793 4.60898E-03 3.30438E-04-5.38783E-15
 -1       794 4.89533E-03 3.22067E-04-6.09936E-15
 -1       795 5.18276E-03 3.15205E-04-6.85759E-15
 -1       796 5.47222E-03 3.11308E-04-7.66661E-15
 -1       797 5.76518E-03 3.12368E-04-8.52271E-15
 -1       798 6.06373E-03 3.21059E-04-9.42646E-15
 -1       799 6.37061E-03 3.40914E-04-1.03732E-14
 -1       800 6.68890E-03 3.76437E-04-1.13585E-14
 -1       801 7.02086E-03 4.32618E-04-1.23841E-14
 -1       802 7.36618E-03 5.12715E-04-1.34522E-14
 -1       803 7.71828E-03 6.12558E-04-1.45695E-14
 -1       804 8.06726E-03 7.14158E-04-1.57290E-14
 -1       805 8.72839E-03 7.80172E-04-1.81913E-14
 -1       806 9.76214E-03 4.07924E-04-2.23100E-14
 -1       807 1.01108E-02 2.78275E-04-2.37765E-14
 -1       808 1.04476E-02 1.72437E-04-2.52892E-14
 -1       809 1.07706E-02 8.85547E-05-2.68596E-14
 -1       810 1.10811E-02 2.20216E-05-2.84918E-14
 -1       811 1.13822E-02-3.19723E-05-3.01669E-14
 -1       812 1.16768E-02-7.73193E-05-3.18772E-14
 -1       813 1.19672E-02-1.16991E-04-3.36210E-14
 -1       814 1.22552E-02-1.53198E-04-3.53925E-14
 -1       815 1.25417E-02-1.87558E-04-3.71834E-14
 -1       816 1.28275E-02-2.21227E-04-3.90011E-14
 -1       817 1.31129E-02-2.55012E-04-4.08429E-14
 -1       818 1.33983E-02-2.89449E-04-4.27136E-14
 -1       819 1.36836E-02-3.24895E-04-4.46116E-14
 -1       820 1.38632E-02-3.53511E-04-4.58001E-14
 -1       821 1.13878E-03 5.85088E-05-3.94626E-16
 -1       822 1.40553E-02-8.41893E-04-4.55514E-14
 -1       823 1.39783E-02-6.88074E-04-4.54995E-14
 -1       824 1.40906E-02-9.19889E-04-4.55553E-14
 -1       825 8.60147E-03 7.47014E-04-1.76839E-14
 -1       826 6.56151E-03-2.31722E-04-1.23710E-14
 -1       827 2.60680E-03 3.66633E-04-1.68465E-15
 -1       828 3.46583E-03 3.61533E-04-2.99807E-15
 -1       829 3.17973E-03 3.65858E-04-2.51715E-15
 -1       830 1.02173E-02 5.37646E-05-2.30135E-14
 -1       831 1.51057E-03-2.83436E-04-5.92489E-16
 -1       832 2.31998E-03 3.61540E-04-1.33386E-15
 -1       833 6.37312E-03-1.64899E-04-1.21381E-14
 -1       834 7.02675E-03 1.86334E-04-1.32251E-14
 -1       835 1.04239E-02-6.52997E-04-2.31384E-14
 -1       836 6.69017E-03 3.87236E-05-1.26609E-14
 -1       837 7.89946E-03 6.06479E-04-1.52815E-14
 -1       838 1.07507E-02-4.97672E-04-2.39028E-14
 -1       839 1.11234E-02-3.18587E-04-2.49318E-14
 -1       840 9.39500E-03 4.97603E-04-2.05934E-14
 -1       841 7.43727E-03 3.99761E-04-1.40242E-14
 -1       842 1.24640E-03 2.98644E-04-3.89286E-16
 -1       843 1.05787E-02-1.12218E-04-2.39123E-14
 -1       844 9.81696E-03 2.66098E-04-2.19281E-14
 -1       845 1.10978E-02-3.52322E-04-2.45499E-14
 -1       846 8.72116E-03 7.57193E-04-1.81397E-14
 -1       847 8.50707E-03 7.59421E-04-1.73371E-14
 -1       848 1.13742E-03 1.19799E-06-3.97347E-16
 -1       849 1.15024E-03 1.77637E-04-3.76814E-16
 -1       850 1.14973E-03-1.74669E-04-3.79427E-16
 -1       851 1.38462E-02-4.56065E-04-4.53408E-14
 -1       852 1.09679E-02-4.51895E-04-2.48179E-14
 -1       853 1.39361E-02-6.11193E-04-4.54590E-14
 -1       854 1.10996E-02-2.94492E-04-2.53103E-14
 -1       855 8.40348E-03 7.83944E-04-1.69335E-14
 -1       856 9.40957E-03 5.53173E-04-2.08884E-14
 -1       857 1.38920E-02-5.34153E-04-4.54051E-14
 -1       858 1.14287E-03 1.16767E-04-3.88005E-16
 -1       859 1.53248E-03 3.32154E-04-5.81549E-16
 -1       860 1.78253E-03 3.45143E-04-7.87009E-16
 -1       861 1.25425E-03-2.54135E-04-4.18048E-16
 -1       862 1.14257E-03-1.14150E-04-3.90004E-16
 -1       863 1.38298E-02-8.41741E-04-4.38911E-14
 -1       864 6.42426E-03-7.31674E-06-1.18682E-14
 -1       865 2.16406E-03 2.85529E-04-1.20361E-15
 -1       866 2.21791E-03-2.52453E-04-1.28251E-15
 -1       867 2.50619E-03-2.57468E-04-1.62447E-15
 -1       868 2.79398E-03-2.59106E-04-2.00954E-15
 -1       869 3.08096E-03-2.58092E-04-2.43818E-15
 -1       870 3.36683E-03-2.54992E-04-2.91087E-15
 -1       871 3.65130E-03-2.50260E-04-3.42719E-15
 -1       872 3.93407E-03-2.44284E-04-3.98926E-15
 -1       873 4.21478E-03-2.37449E-04-4.59490E-15
 -1       874 4.49297E-03-2.30186E-04-5.24556E-15
 -1       875 4.76814E-03-2.23035E-04-5.93968E-15
 -1       876 5.03971E-03-2.16688E-04-6.67882E-15
 -1       877 5.30704E-03-2.12013E-04-7.46624E-15
 -1       878 5.56956E-03-2.10053E-04-8.29783E-15
 -1       879 5.82694E-03-2.12001E-04-9.17654E-15
 -1       880 6.07943E-03-2.19283E-04-1.00997E-14
 -1       881 6.32849E-03-2.34138E-04-1.10697E-14
 -1       882 6.19029E-03-1.30003E-04-1.12973E-14
 -1       883 9.65024E-03 4.07495E-04-2.16790E-14
 -1       884 1.12403E-02-4.89638E-04-2.67238E-14
 -1       885 1.14930E-02-5.15475E-04-2.83461E-14
 -1       886 1.17480E-02-5.49143E-04-3.00019E-14
 -1       887 1.20072E-02-5.88303E-04-3.16947E-14
 -1       888 1.22710E-02-6.31376E-04-3.34233E-14
 -1       889 1.25392E-02-6.77075E-04-3.51797E-14
 -1       890 1.28112E-02-7.24324E-04-3.69640E-14
 -1       891 1.30864E-02-7.72254E-04-3.87700E-14
 -1       892 1.33642E-02-8.20194E-04-4.06059E-14
 -1       893 1.36441E-02-8.67706E-04-4.24677E-14
 -1       894 1.38546E-02-4.05192E-04-4.55722E-14
 -1       895 3.88342E-03 2.80192E-04-3.84933E-15
 -1       896 4.73167E-03 2.55807E-04-5.78292E-15
 -1       897 5.01314E-03 2.47473E-04-6.51804E-15
 -1       898 5.29486E-03 2.40276E-04-7.30175E-15
 -1       899 5.57803E-03 2.35439E-04-8.13450E-15
 -1       900 5.86460E-03 2.34740E-04-9.01380E-15
 -1       901 6.15756E-03 2.40818E-04-9.94011E-15
 -1       902 6.46108E-03 2.57819E-04-1.09068E-14
 -1       903 6.78014E-03 2.92048E-04-1.19131E-14
 -1       904 1.00119E-02 2.62449E-04-2.31289E-14
 -1       905 1.10246E-02-3.81805E-05-2.77418E-14
 -1       906 1.13206E-02-8.92729E-05-2.93938E-14
 -1       907 1.16088E-02-1.32416E-04-3.10877E-14
 -1       908 1.18927E-02-1.70730E-04-3.28118E-14
 -1       909 1.21745E-02-2.06257E-04-3.45681E-14
 -1       910 1.24555E-02-2.40373E-04-3.63472E-14
 -1       911 1.27367E-02-2.74029E-04-3.81492E-14
 -1       912 1.30184E-02-3.07880E-04-3.99778E-14
 -1       913 1.33007E-02-3.42371E-04-4.18372E-14
 -1       914 1.37947E-02-7.65634E-04-4.38801E-14
 -1       915 1.37567E-02-6.90264E-04-4.38525E-14
 -1       916 1.11551E-02-3.94070E-04-2.54425E-14
 -1       917 2.73977E-03 2.94621E-04-1.91122E-15
 -1       918 3.59881E-03 2.86509E-04-3.29615E-15
 -1       919 1.04993E-02-1.97280E-05-2.43698E-14
 -1       920 1.13864E-03-5.59666E-05-3.95818E-16
 -1       921 6.23461E-03-7.54764E-05-1.14857E-14
 -1       922 1.64193E-03-2.28553E-04-7.25145E-16
 -1       923 2.45209E-03 2.92019E-04-1.53586E-15
 -1       924 6.34882E-03-1.93691E-04-1.15693E-14
 -1       925 1.09132E-02-1.99212E-04-2.54240E-14
 -1       926 1.07161E-02 2.55903E-05-2.61407E-14
 -1       927 4.16706E-03 2.72706E-04-4.44855E-15
 -1       928 1.12370E-02-3.52888E-04-2.58370E-14
 -1       929 1.09822E-02-5.07787E-04-2.53619E-14
 -1       930 6.70023E-03-2.91327E-04-1.24607E-14
 -1       931 6.70201E-03 1.41609E-04-1.21684E-14
 -1       932 7.06951E-03 3.17650E-04-1.28799E-14
 -1       933 1.92960E-03-2.43166E-04-9.82812E-16
 -1       934 4.44976E-03 2.64425E-04-5.09388E-15
 -1       935 1.44698E-03 2.74102E-04-5.45608E-16
 -1       936 1.03900E-02 1.09518E-04-2.45994E-14
 -1       937 6.42150E-03 8.08857E-05-1.13973E-14
 -1       938 1.87609E-03 2.74106E-04-9.13979E-16
 -1       939 1.37156E-02-6.14989E-04-4.38203E-14
 -1       940 3.02689E-03 2.94167E-04-2.32984E-15
 -1       941 3.31328E-03 2.91299E-04-2.79039E-15
 -1       942 1.36253E-02-4.62922E-04-4.37214E-14
 -1       943 1.35837E-02-3.77754E-04-4.37207E-14
 -1       944 1.02937E-02 8.19909E-05-2.38042E-14
 -1       945 1.38139E-03 3.37068E-05-5.62528E-16
 -1       946 1.40387E-03-1.99627E-04-5.45980E-16
 -1       947 1.38457E-03 9.86159E-05-5.56646E-16
 -1       948 1.39549E-03-1.31766E-04-5.59567E-16
 -1       949 1.12551E-02-3.33055E-04-2.62251E-14
 -1       950 6.47525E-03-2.49167E-04-1.16555E-14
 -1       951 2.00986E-03 2.10713E-04-1.07462E-15
 -1       952 6.12640E-03-1.60387E-04-1.07204E-14
 -1       953 2.64220E-03-1.86496E-04-1.83398E-15
 -1       954 2.92988E-03-1.86724E-04-2.24172E-15
 -1       955 3.21631E-03-1.85182E-04-2.69332E-15
 -1       956 3.50106E-03-1.82270E-04-3.18964E-15
 -1       957 3.78372E-03-1.78331E-04-3.73026E-15
 -1       958 4.06385E-03-1.73690E-04-4.31607E-15
 -1       959 4.34090E-03-1.68694E-04-4.94748E-15
 -1       960 4.61423E-03-1.63754E-04-5.62109E-15
 -1       961 4.88309E-03-1.59379E-04-6.33832E-15
 -1       962 5.14653E-03-1.56179E-04-7.10398E-15
 -1       963 5.40342E-03-1.54846E-04-7.91422E-15
 -1       964 5.65236E-03-1.56084E-04-8.77107E-15
 -1       965 5.89164E-03-1.60505E-04-9.67268E-15
 -1       966 1.66117E-03 2.76862E-04-7.17715E-16
 -1       967 1.35437E-02-7.80019E-04-4.20069E-14
 -1       968 1.16473E-02-4.76397E-04-2.91726E-14
 -1       969 1.18884E-02-5.13368E-04-3.08447E-14
 -1       970 1.21386E-02-5.53527E-04-3.25569E-14
 -1       971 1.23962E-02-5.96173E-04-3.42993E-14
 -1       972 1.26599E-02-6.40580E-04-3.60721E-14
 -1       973 1.29286E-02-6.86060E-04-3.78675E-14
 -1       974 1.32013E-02-7.32008E-04-3.96857E-14
 -1       975 5.40017E-03 1.67513E-04-7.74824E-15
 -1       976 1.36716E-02-5.39394E-04-4.37744E-14
 -1       977 5.12577E-03 1.75516E-04-6.94006E-15
 -1       978 4.85042E-03 1.83903E-04-6.18036E-15
 -1       979 5.67486E-03 1.60727E-04-8.60392E-15
 -1       980 5.95199E-03 1.56643E-04-9.50579E-15
 -1       981 6.23527E-03 1.57381E-04-1.04503E-14
 -1       982 4.01401E-03 2.06805E-04-4.17647E-15
 -1       983 1.11800E-02-4.38296E-04-2.59990E-14
 -1       984 1.39114E-03 1.65497E-04-5.45798E-16
 -1       985 1.15509E-02-1.86875E-04-3.02971E-14
 -1       986 1.12723E-02-1.47917E-04-2.86286E-14
 -1       987 1.20997E-02-2.56776E-04-3.37505E-14
 -1       988 1.23741E-02-2.90422E-04-3.55132E-14
 -1       989 1.26496E-02-3.24126E-04-3.73011E-14
 -1       990 1.29267E-02-3.58278E-04-3.91177E-14
 -1       991 1.32054E-02-3.93135E-04-4.09618E-14
 -1       992 1.13592E-02-4.04575E-04-2.69560E-14
 -1       993 1.06009E-02 4.27155E-06-2.52504E-14
 -1       994 1.35359E-02-6.90931E-04-4.22343E-14
 -1       995 1.09809E-02-1.68860E-04-2.63385E-14
 -1       996 6.03050E-03-8.49610E-05-1.05491E-14
 -1       997 2.29843E-03 2.17777E-04-1.38833E-15
 -1       998 1.09487E-02-8.25076E-05-2.69080E-14
 -1       999 3.73150E-03 2.12738E-04-3.59857E-15
 -1      1000 1.39073E-03-6.59415E-05-5.67360E-16
 -1      1001 6.17592E-03-1.59517E-05-1.09260E-14
 -1      1002 2.58690E-03 2.21339E-04-1.74358E-15
 -1      1003 1.11974E-02-2.78075E-04-2.66241E-14
 -1      1004 1.18258E-02-2.22585E-04-3.20058E-14
 -1      1005 1.14143E-02-4.53855E-04-2.75693E-14
 -1      1006 1.38515E-03-1.59576E-05-5.66469E-16
 -1      1007 1.63231E-03-1.55332E-04-7.42103E-16
 -1      1008 2.35371E-03-1.84005E-04-1.46834E-15
 -1      1009 2.06500E-03-1.78655E-04-1.14567E-15
 -1      1010 1.84829E-03-1.67956E-04-9.32234E-16
 -1      1011 6.45053E-03 1.68608E-04-1.11555E-14
 -1      1012 5.92158E-03-1.14589E-04-1.00004E-14
 -1      1013 4.29470E-03 1.99868E-04-4.80039E-15
 -1      1014 1.69460E-03 2.07659E-04-7.76800E-16
 -1      1015 1.34965E-02-6.17467E-04-4.22025E-14
 -1      1016 1.62960E-03 1.08959E-05-7.60141E-16
 -1      1017 3.44732E-03 2.17446E-04-3.06821E-15
 -1      1018 1.32554E-02-4.67957E-04-4.10186E-14
 -1      1019 2.87476E-03 2.22119E-04-2.14187E-15
 -1      1020 1.14146E-02-3.82279E-04-2.73562E-14
 -1      1021 1.63185E-03 8.14519E-05-7.55692E-16
 -1      1022 4.57348E-03 1.92144E-04-5.46818E-15
 -1      1023 1.17659E-02-4.46155E-04-2.99974E-14
 -1      1024 3.06773E-03-1.14641E-04-2.47774E-15
 -1      1025 3.35317E-03-1.13296E-04-2.95274E-15
 -1      1026 3.63642E-03-1.11263E-04-3.47139E-15
 -1      1027 3.91699E-03-1.08795E-04-4.03578E-15
 -1      1028 4.19431E-03-1.06166E-04-4.64780E-15
 -1      1029 4.46773E-03-1.03688E-04-5.30185E-15
 -1      1030 4.73647E-03-1.01758E-04-5.99861E-15
 -1      1031 4.99954E-03-1.00853E-04-6.73996E-15
 -1      1032 5.25570E-03-1.01516E-04-7.53040E-15
 -1      1033 5.50331E-03-1.04377E-04-8.36573E-15
 -1      1034 5.71838E-03-1.08126E-04-9.16375E-15
 -1      1035 1.28370E-02-4.05780E-04-3.82613E-14
 -1      1036 1.12963E-02-2.46762E-04-2.78613E-14
 -1      1037 1.31966E-02-6.46613E-04-3.99126E-14
 -1      1038 1.20036E-02-4.82342E-04-3.16837E-14
 -1      1039 1.22516E-02-5.21110E-04-3.34122E-14
 -1      1040 1.25078E-02-5.61934E-04-3.51715E-14
 -1      1041 1.27705E-02-6.04268E-04-3.69572E-14
 -1      1042 1.29825E-02-6.25698E-04-3.84278E-14
 -1      1043 5.76278E-03 8.82394E-05-9.07189E-15
 -1      1044 5.23443E-03 1.06844E-04-7.36310E-15
 -1      1045 4.96648E-03 1.15301E-04-6.57960E-15
 -1      1046 1.33776E-02-5.42604E-04-4.16130E-14
 -1      1047 6.11676E-03 6.22482E-05-1.03761E-14
 -1      1048 1.62649E-03-8.38859E-05-7.52186E-16
 -1      1049 5.49959E-03 9.77073E-05-8.19448E-15
 -1      1050 1.15032E-02-2.39538E-04-2.95147E-14
 -1      1051 1.62727E-03-3.64372E-05-7.57600E-16
 -1      1052 1.25651E-02-3.71051E-04-3.64586E-14
 -1      1053 1.22960E-02-3.37184E-04-3.46822E-14
 -1      1054 1.30456E-02-4.36552E-04-3.96333E-14
 -1      1055 1.81565E-03 1.42498E-04-9.07132E-16
 -1      1056 3.16166E-03 2.20679E-04-2.58291E-15
 -1      1057 2.14685E-03 1.44771E-04-1.24229E-15
 -1      1058 3.86434E-03 1.40785E-04-3.90535E-15
 -1      1059 2.43567E-03 1.48455E-04-1.57823E-15
 -1      1060 1.14196E-02-3.36517E-04-2.77786E-14
 -1      1061 2.78060E-03-1.15035E-04-2.04748E-15
 -1      1062 1.20298E-02-3.04128E-04-3.29279E-14
 -1      1063 5.93089E-03-2.90009E-05-1.00078E-14
 -1      1064 2.20346E-03-1.11721E-04-1.31512E-15
 -1      1065 1.17659E-02-2.71723E-04-3.12023E-14
 -1      1066 2.49230E-03-1.14175E-04-1.66050E-15
 -1      1067 1.15425E-02-4.13209E-04-2.83431E-14
 -1      1068 1.31582E-02-5.76141E-04-3.98855E-14
 -1      1069 4.69539E-03 1.22951E-04-5.84444E-15
 -1      1070 1.84204E-03-9.27946E-05-9.44205E-16
 -1      1071 3.58211E-03 1.44856E-04-3.35001E-15
 -1      1072 4.14417E-03 1.35737E-04-4.50802E-15
 -1      1073 2.72413E-03 1.49928E-04-1.95598E-15
 -1      1074 1.87684E-03-1.45102E-05-9.84960E-16
 -1      1075 1.87793E-03 6.01913E-05-9.82209E-16
 -1      1076 5.81141E-03-6.85153E-05-9.58565E-15
 -1      1077 2.02258E-03-1.02480E-04-1.12166E-15
 -1      1078 4.42129E-03 1.29793E-04-5.15424E-15
 -1      1079 2.63353E-03-4.33926E-05-1.85606E-15
 -1      1080 3.20767E-03-4.32544E-05-2.71797E-15
 -1      1081 3.49193E-03-4.27816E-05-3.21538E-15
 -1      1082 3.77363E-03-4.22327E-05-3.75716E-15
 -1      1083 4.05216E-03-4.18098E-05-4.34472E-15
 -1      1084 4.32703E-03-4.16937E-05-4.98002E-15
 -1      1085 4.59758E-03-4.21814E-05-5.65781E-15
 -1      1086 4.86276E-03-4.36930E-05-6.37724E-15
 -1      1087 5.12173E-03-4.66091E-05-7.14416E-15
 -1      1088 5.37295E-03-5.14452E-05-7.95965E-15
 -1      1089 1.18581E-02-4.16476E-04-3.08143E-14
 -1      1090 1.20999E-02-4.50802E-04-3.25202E-14
 -1      1091 1.23510E-02-4.87603E-04-3.42660E-14
 -1      1092 1.26092E-02-5.26368E-04-3.60418E-14
 -1      1093 5.34127E-03 4.22953E-05-7.78854E-15
 -1      1094 1.24813E-02-4.14366E-04-3.56142E-14
 -1      1095 2.92136E-03-4.35035E-05-2.26450E-15
 -1      1096 1.15675E-02-3.66197E-04-2.87735E-14
 -1      1097 1.27477E-02-4.50050E-04-3.74033E-14
 -1      1098 5.08175E-03 5.05610E-05-6.98189E-15
 -1      1099 1.17106E-02-3.16471E-04-3.04035E-14
 -1      1100 2.28679E-03 7.66313E-05-1.41680E-15
 -1      1101 1.15455E-02-3.10001E-04-2.91506E-14
 -1      1102 1.22194E-02-3.80043E-04-3.38467E-14
 -1      1103 1.19624E-02-3.47419E-04-3.21056E-14
 -1      1104 2.34482E-03-4.27539E-05-1.49007E-15
 -1      1105 5.65162E-03 4.94233E-06-8.88680E-15
 -1      1106 5.59323E-03-5.70297E-05-8.73801E-15
 -1      1107 1.29458E-02-5.57439E-04-3.84032E-14
 -1      1108 2.57560E-03 7.79734E-05-1.77369E-15
 -1      1109 1.27765E-02-5.42020E-04-3.72187E-14
 -1      1110 4.81724E-03 5.73673E-05-6.22279E-15
 -1      1111 1.31689E-02-5.09854E-04-4.02208E-14
 -1      1112 2.16410E-03-3.52402E-05-1.28245E-15
 -1      1113 3.71807E-03 7.39997E-05-3.63701E-15
 -1      1114 3.29776E-03 1.47851E-04-2.84150E-15
 -1      1115 3.01164E-03 1.49620E-04-2.37683E-15
 -1      1116 1.29529E-02-4.81503E-04-3.87638E-14
 -1      1117 3.99803E-03 7.11121E-05-4.21721E-15
 -1      1118 3.63304E-03 2.61907E-05-3.48011E-15
 -1      1119 4.46376E-03 2.01437E-05-5.31414E-15
 -1      1120 1.21843E-02-4.15870E-04-3.33588E-14
 -1      1121 2.77734E-03 2.79398E-05-2.05516E-15
 -1      1122 3.43540E-03 7.61518E-05-3.10442E-15
 -1      1123 3.06451E-03 2.77321E-05-2.48638E-15
 -1      1124 1.18936E-02-3.85535E-04-3.12864E-14
 -1      1125 2.12671E-03 2.37705E-05-1.24179E-15
 -1      1126 4.23238E-03 4.52116E-05-4.75008E-15
 -1      1127 3.34992E-03 2.71572E-05-2.96166E-15
 -1      1128 2.89363E-03 8.88174E-05-2.21522E-15
 -1      1129 3.16535E-03 8.27996E-05-2.64025E-15
 -1      1130 0.00000E+00 0.00000E+00 0.00000E+00
 -1      1131 0.00000E+00 0.00000E+00 0.00000E+00
 -1      1132 0.00000E+00 0.00000E+00 0.00000E+00
 -1      1133 0.00000E+00 0.00000E+00 0.00000E+00
 -1      1134 0.00000E+00 0.00000E+00 0.00000E+00
 -1      1135 0.00000E+00 0.00000E+00 0.00000E+00
 -1      1136 0.00000E+00 0.00000E+00 0.00000E+00
 -1      1137 0.00000E+00 0.00000E+00 0.00000E+00
 -1      1138 0.00000E+00 0.00000E+00 0.00000E+00
 -1      1139 0.00000E+00 0.00000E+00 0.00000E+00
 -1      1140 0.00000E+00 0.00000E+00 0.00000E+00
 -1      1141 0.00000E+00 0.00000E+00 0.00000E+00
 -1      1142 0.00000E+00 0.00000E+00 0.00000E+00
 -1      1143 0.00000E+00 0.00000E+00 0.00000E+00
 -1      1144 0.00000E+00 0.00000E+00 0.00000E+00
 -1      1145 0.00000E+00 0.00000E+00 0.00000E+00
 -1      1146 0.00000E+00 0.00000E+00 0.00000E+00
 -1      1147 2.11356E-04-1.48180E-04 9.94755E-18
 -1      1148 5.50749E-04-3.37048E-04 6.72205E-18
 -1      1149 8.32042E-04-4.58070E-04-3.21873E-17
 -1      1150 1.10110E-03-5.39080E-04-1.13082E-16
 -1      1151 1.36603E-03-5.95405E-04-2.35746E-16
 -1      1152 1.63040E-03-6.34876E-04-4.01033E-16
 -1      1153 1.89612E-03-6.62073E-04-6.10840E-16
 -1      1154 2.16412E-03-6.80037E-04-8.66494E-16
 -1      1155 2.43482E-03-6.90967E-04-1.16754E-15
 -1      1156 2.70837E-03-6.96499E-04-1.51539E-15
 -1      1157 2.98486E-03-6.97858E-04-1.90925E-15
 -1      1158 3.26438E-03-6.95968E-04-2.34513E-15
 -1      1159 3.54710E-03-6.91545E-04-2.82344E-15
 -1      1160 3.83336E-03-6.85181E-04-3.34712E-15
 -1      1161 4.12367E-03-6.77443E-04-3.91570E-15
 -1      1162 4.41881E-03-6.68977E-04-4.53034E-15
 -1      1163 4.71984E-03-6.60644E-04-5.19254E-15
 -1      1164 5.02813E-03-6.53689E-04-5.89985E-15
 -1      1165 5.34533E-03-6.49970E-04-6.64781E-15
 -1      1166 5.67325E-03-6.52233E-04-7.44043E-15
 -1      1167 6.01356E-03-6.64426E-04-8.28337E-15
 -1      1168 6.36729E-03-6.91936E-04-9.17533E-15
 -1      1169 6.73380E-03-7.41491E-04-1.01187E-14
 -1      1170 7.10950E-03-8.20167E-04-1.11161E-14
 -1      1171 7.48646E-03-9.32729E-04-1.21682E-14
 -1      1172 7.85204E-03-1.07676E-03-1.32685E-14
 -1      1173 8.19159E-03-1.23692E-03-1.44136E-14
 -1      1174 8.49535E-03-1.38300E-03-1.56111E-14
 -1      1175 8.76695E-03-1.47804E-03-1.68775E-14
 -1      1176 9.02600E-03-1.49622E-03-1.82059E-14
 -1      1177 9.29909E-03-1.43840E-03-1.95956E-14
 -1      1178 9.60503E-03-1.33163E-03-2.10498E-14
 -1      1179 9.94648E-03-1.21291E-03-2.25499E-14
 -1      1180 1.03131E-02-1.11164E-03-2.40945E-14
 -1      1181 1.06903E-02-1.04223E-03-2.56846E-14
 -1      1182 1.10656E-02-1.00649E-03-2.73130E-14
 -1      1183 1.14315E-02-9.99396E-04-2.89708E-14
 -1      1184 1.17845E-02-1.01382E-03-3.06599E-14
 -1      1185 1.21243E-02-1.04308E-03-3.23801E-14
 -1      1186 1.24520E-02-1.08188E-03-3.41200E-14
 -1      1187 1.27693E-02-1.12635E-03-3.58820E-14
 -1      1188 1.30781E-02-1.17383E-03-3.76639E-14
 -1      1189 1.33802E-02-1.22254E-03-3.94735E-14
 -1      1190 1.36772E-02-1.27135E-03-4.13328E-14
 -1      1191 1.39702E-02-1.31953E-03-4.32343E-14
 -1      1192 1.42602E-02-1.36664E-03-4.51761E-14
 -1      1193 1.45481E-02-1.41240E-03-4.71605E-14
 -1      1194 1.48347E-02-1.45669E-03-4.91715E-14
 -1      1195 1.51204E-02-1.49957E-03-5.11902E-14
 -1      1196 1.53988E-02-1.54043E-03-5.31668E-14
 -1      1197 2.28095E-04 1.60542E-04 1.12350E-17
 -1      1198 5.52927E-04 3.41671E-04 8.13152E-18
 -1      1199 8.32984E-04 4.60231E-04-3.03035E-17
 -1      1200 1.10202E-03 5.40762E-04-1.10101E-16
 -1      1201 1.36696E-03 5.97084E-04-2.33890E-16
 -1      1202 1.63141E-03 6.36655E-04-4.00125E-16
 -1      1203 1.89722E-03 6.63980E-04-6.09227E-16
 -1      1204 2.16530E-03 6.82105E-04-8.61304E-16
 -1      1205 2.43606E-03 6.93236E-04-1.15894E-15
 -1      1206 2.70969E-03 6.99027E-04-1.50151E-15
 -1      1207 2.98624E-03 7.00729E-04-1.89302E-15
 -1      1208 3.26580E-03 6.99310E-04-2.33037E-15
 -1      1209 3.54848E-03 6.95546E-04-2.80998E-15
 -1      1210 3.83452E-03 6.90111E-04-3.33484E-15
 -1      1211 4.12430E-03 6.83674E-04-3.90649E-15
 -1      1212 4.41831E-03 6.76993E-04-4.53062E-15
 -1      1213 4.71719E-03 6.71024E-04-5.20490E-15
 -1      1214 5.02159E-03 6.67028E-04-5.93015E-15
 -1      1215 5.33213E-03 6.66674E-04-6.70645E-15
 -1      1216 5.64918E-03 6.72099E-04-7.52874E-15
 -1      1217 5.97255E-03 6.85867E-04-8.39456E-15
 -1      1218 6.30114E-03 7.10742E-04-9.30006E-15
 -1      1219 6.63251E-03 7.49129E-04-1.02458E-14
 -1      1220 6.96265E-03 8.02082E-04-1.12369E-14
 -1      1221 7.28607E-03 8.67894E-04-1.22670E-14
 -1      1222 7.59671E-03 9.40646E-04-1.33402E-14
 -1      1223 7.88982E-03 1.00959E-03-1.44670E-14
 -1      1224 8.16428E-03 1.06045E-03-1.56321E-14
 -1      1225 8.42431E-03 1.07922E-03-1.68355E-14
 -1      1226 8.67909E-03 1.05721E-03-1.80913E-14
 -1      1227 8.93970E-03 9.94680E-04-1.93993E-14
 -1      1228 9.21512E-03 9.00779E-04-2.07593E-14
 -1      1229 9.50926E-03 7.89676E-04-2.21752E-14
 -1      1230 9.82078E-03 6.75509E-04-2.36417E-14
 -1      1231 1.01448E-02 5.68740E-04-2.51664E-14
 -1      1232 1.04751E-02 4.74972E-04-2.67511E-14
 -1      1233 1.08065E-02 3.95680E-04-2.83879E-14
 -1      1234 1.11350E-02 3.29673E-04-3.00799E-14
 -1      1235 1.14583E-02 2.74492E-04-3.18175E-14
 -1      1236 1.17754E-02 2.27369E-04-3.35871E-14
 -1      1237 1.20862E-02 1.85768E-04-3.53841E-14
 -1      1238 1.23913E-02 1.47601E-04-3.71963E-14
 -1      1239 1.26913E-02 1.11269E-04-3.90250E-14
 -1      1240 1.29872E-02 7.56044E-05-4.08894E-14
 -1      1241 1.32797E-02 3.97900E-05-4.27720E-14
 -1      1242 1.35695E-02 3.26733E-06-4.46695E-14
 -1      1243 1.38574E-02-3.43297E-05-4.65837E-14
 -1      1244 1.41439E-02-7.32090E-05-4.85183E-14
 -1      1245 1.44297E-02-1.13388E-04-5.04544E-14
 -1      1246 1.47081E-02-1.53473E-04-5.23329E-14
 -1      1247 1.48641E-02-2.15288E-04-5.32886E-14
 -1      1248 1.49049E-02-2.99723E-04-5.33820E-14
 -1      1249 1.49467E-02-3.83947E-04-5.34931E-14
 -1      1250 1.49894E-02-4.67459E-04-5.36134E-14
 -1      1251 1.50330E-02-5.49885E-04-5.37441E-14
 -1      1252 1.50764E-02-6.30384E-04-5.38718E-14
 -1      1253 1.51194E-02-7.09725E-04-5.39761E-14
 -1      1254 1.51620E-02-7.88829E-04-5.40553E-14
 -1      1255 1.52034E-02-8.67423E-04-5.41405E-14
 -1      1256 1.52434E-02-9.45998E-04-5.42092E-14
 -1      1257 1.52823E-02-1.02506E-03-5.42495E-14
 -1      1258 1.53200E-02-1.10434E-03-5.42820E-14
 -1      1259 1.53573E-02-1.18481E-03-5.42949E-14
 -1      1260 1.53953E-02-1.26723E-03-5.42715E-14
 -1      1261 1.54340E-02-1.35077E-03-5.42278E-14
 -1      1262 1.54739E-02-1.43501E-03-5.41879E-14
 -1      1263 1.55143E-02-1.51875E-03-5.41568E-14
 -1      1264 1.09529E-02-2.01025E-04-2.10226E-14
 -1      1265 1.08294E-02-5.56570E-05-2.08867E-14
 -1      1266 1.06106E-02 9.37014E-05-2.06194E-14
 -1      1267 1.03108E-02 2.45953E-04-2.02333E-14
 -1      1268 9.96252E-03 3.86826E-04-1.97673E-14
 -1      1269 9.57119E-03 5.09220E-04-1.92214E-14
 -1      1270 9.14648E-03 5.99062E-04-1.86062E-14
 -1      1271 8.71015E-03 6.39404E-04-1.79675E-14
 -1      1272 8.25448E-03 6.21761E-04-1.73119E-14
 -1      1273 7.81063E-03 5.49044E-04-1.66939E-14
 -1      1274 7.41430E-03 4.37877E-04-1.61671E-14
 -1      1275 7.05559E-03 2.98866E-04-1.57062E-14
 -1      1276 6.77213E-03 1.51493E-04-1.53554E-14
 -1      1277 6.58419E-03 5.21726E-06-1.51321E-14
 -1      1278 6.50019E-03-1.41919E-04-1.50265E-14
 -1      1279 6.53133E-03-2.87452E-04-1.50399E-14
 -1      1280 6.67803E-03-4.44367E-04-1.51824E-14
 -1      1281 6.92180E-03-6.06075E-04-1.54399E-14
 -1      1282 7.24100E-03-7.67155E-04-1.58069E-14
 -1      1283 7.62332E-03-9.21766E-04-1.62815E-14
 -1      1284 8.02935E-03-1.04487E-03-1.68175E-14
 -1      1285 8.44588E-03-1.12402E-03-1.73898E-14
 -1      1286 8.86612E-03-1.15073E-03-1.79829E-14
 -1      1287 9.28224E-03-1.12212E-03-1.85760E-14
 -1      1288 9.70068E-03-1.03995E-03-1.91742E-14
 -1      1289 1.00944E-02-9.17924E-04-1.97337E-14
 -1      1290 1.04250E-02-7.79907E-04-2.02067E-14
 -1      1291 1.06889E-02-6.37187E-04-2.05878E-14
 -1      1292 1.08800E-02-4.89470E-04-2.08634E-14
 -1      1293 1.09713E-02-3.44102E-04-2.10125E-14
 -1      1294 1.66469E-04-1.10253E-04 3.57787E-18
 -1      1295 1.12455E-04-5.69592E-05-5.42101E-18
 -1      1296 1.17500E-04-6.75546E-05-3.00866E-18
 -1      1297 1.08396E-04-4.34807E-05-9.39190E-18
 -1      1298 1.10232E-04-4.95942E-05-8.05020E-18
 -1      1299 2.26190E-04-1.07556E-04-1.90142E-17
 -1      1300 1.06862E-04-3.35973E-05-1.17636E-17
 -1      1301 1.07686E-04-3.83207E-05-1.10182E-17
 -1      1302 2.19079E-04-8.23962E-05-2.62919E-17
 -1      1303 1.06118E-04-2.53298E-05-1.35119E-17
 -1      1304 1.06532E-04-2.93638E-05-1.30240E-17
 -1      1305 2.15930E-04-6.32106E-05-3.12250E-17
 -1      1306 1.05737E-04-1.80680E-05-1.44334E-17
 -1      1307 1.05957E-04-2.16338E-05-1.42030E-17
 -1      1308 2.14332E-04-4.71163E-05-3.44776E-17
 -1      1309 1.05532E-04-1.12203E-05-1.50433E-17
 -1      1310 1.05649E-04-1.46006E-05-1.49620E-17
 -1      1311 2.13456E-04-3.26893E-05-3.63885E-17
 -1      1312 1.05440E-04-4.67974E-06-1.53550E-17
 -1      1313 1.05490E-04-7.92600E-06-1.52737E-17
 -1      1314 2.12984E-04-1.91449E-05-3.74727E-17
 -1      1315 1.05429E-04 1.74010E-06-1.54363E-17
 -1      1316 1.05428E-04-1.46532E-06-1.54634E-17
 -1      1317 2.12780E-04-6.14269E-06-3.80555E-17
 -1      1318 1.05497E-04 8.21013E-06-1.51653E-17
 -1      1319 1.05444E-04 4.95762E-06-1.52601E-17
 -1      1320 2.12787E-04 6.69479E-06-3.79200E-17
 -1      1321 1.05663E-04 1.49095E-05-1.46503E-17
 -1      1322 1.05542E-04 1.15146E-05-1.48807E-17
 -1      1323 2.13007E-04 1.97219E-05-3.71610E-17
 -1      1324 1.05978E-04 2.19263E-05-1.37965E-17
 -1      1325 1.05753E-04 1.83372E-05-1.41353E-17
 -1      1326 2.13494E-04 3.32044E-05-3.57109E-17
 -1      1327 1.06573E-04 2.97970E-05-1.26445E-17
 -1      1328 1.06149E-04 2.57195E-05-1.30646E-17
 -1      1329 2.14394E-04 4.77242E-05-3.35967E-17
 -1      1330 1.07723E-04 3.89024E-05-1.08014E-17
 -1      1331 1.06894E-04 3.41074E-05-1.15196E-17
 -1      1332 2.16037E-04 6.41394E-05-3.05745E-17
 -1      1333 1.10210E-04 5.03313E-05-7.68428E-18
 -1      1334 1.08400E-04 4.41492E-05-9.01243E-18
 -1      1335 2.19178E-04 8.36422E-05-2.56414E-17
 -1      1336 1.16817E-04 6.75879E-05-2.79182E-18
 -1      1337 1.12102E-04 5.77556E-05-5.08220E-18
 -1      1338 2.26176E-04 1.09370E-04-1.81875E-17
 -1      1339 1.57357E-04 1.09764E-04 4.70273E-18
 -1      1340 1.35495E-04 8.60347E-05 1.35525E-20
 -1      1341 2.55755E-04 1.51966E-04-9.47322E-18
 -1      1342 3.34602E-04 2.20504E-04 3.00866E-18
 -1      1343 4.20933E-04-2.61427E-04-2.16840E-18
 -1      1344 5.73799E-04-3.36292E-04-1.40675E-17
 -1      1345 7.20764E-04-3.96658E-04-3.67138E-17
 -1      1346 8.63714E-04-4.45671E-04-6.93347E-17
 -1      1347 6.11314E-04-3.30326E-04-3.87873E-17
 -1      1348 1.00353E-03-4.86406E-04-1.11741E-16
 -1      1349 1.14117E-03-5.19999E-04-1.64406E-16
 -1      1350 9.04200E-04-4.30453E-04-1.08285E-16
 -1      1351 1.27748E-03-5.48307E-04-2.27547E-16
 -1      1352 1.41295E-03-5.71804E-04-3.01503E-16
 -1      1353 1.18632E-03-4.99073E-04-2.17789E-16
 -1      1354 1.54804E-03-5.91544E-04-3.85597E-16
 -1      1355 1.68301E-03-6.07855E-04-4.80695E-16
 -1      1356 1.46302E-03-5.46755E-04-3.68710E-16
 -1      1357 1.81811E-03-6.21351E-04-5.87082E-16
 -1      1358 1.95345E-03-6.32318E-04-7.04786E-16
 -1      1359 1.73758E-03-5.79605E-04-5.61996E-16
 -1      1360 2.08918E-03-6.41144E-04-8.33589E-16
 -1      1361 2.22534E-03-6.48071E-04-9.74034E-16
 -1      1362 2.01194E-03-6.01525E-04-7.99911E-16
 -1      1363 2.36203E-03-6.53356E-04-1.12597E-15
 -1      1364 2.49925E-03-6.57199E-04-1.28870E-15
 -1      1365 2.28718E-03-6.15235E-04-1.08302E-15
 -1      1366 2.63706E-03-6.59775E-04-1.46362E-15
 -1      1367 2.77547E-03-6.61247E-04-1.65021E-15
 -1      1368 2.56390E-03-6.22705E-04-1.41124E-15
 -1      1369 2.91451E-03-6.61730E-04-1.84686E-15
 -1      1370 3.05420E-03-6.61360E-04-2.05469E-15
 -1      1371 2.84248E-03-6.25384E-04-1.78423E-15
 -1      1372 3.19457E-03-6.60210E-04-2.27331E-15
 -1      1373 3.33563E-03-6.58396E-04-2.50262E-15
 -1      1374 3.12319E-03-6.24343E-04-2.20123E-15
 -1      1375 3.47744E-03-6.55963E-04-2.74292E-15
 -1      1376 3.62003E-03-6.53017E-04-2.99401E-15
 -1      1377 3.40627E-03-6.20376E-04-2.66123E-15
 -1      1378 3.76345E-03-6.49587E-04-3.25669E-15
 -1      1379 3.90776E-03-6.45779E-04-3.53045E-15
 -1      1380 3.69203E-03-6.14097E-04-3.16556E-15
 -1      1381 4.05304E-03-6.41619E-04-3.81555E-15
 -1      1382 4.19938E-03-6.37230E-04-4.11181E-15
 -1      1383 3.98087E-03-6.06033E-04-3.71437E-15
 -1      1384 4.34688E-03-6.32646E-04-4.41990E-15
 -1      1385 4.49565E-03-6.28023E-04-4.73954E-15
 -1      1386 4.27332E-03-5.96724E-04-4.30844E-15
 -1      1387 4.64583E-03-6.23426E-04-5.07026E-15
 -1      1388 4.79755E-03-6.19063E-04-5.41372E-15
 -1      1389 4.57008E-03-5.86843E-04-4.94854E-15
 -1      1390 4.95099E-03-6.15055E-04-5.76794E-15
 -1      1391 5.10630E-03-6.11688E-04-6.13192E-15
 -1      1392 4.87203E-03-5.77356E-04-5.63496E-15
 -1      1393 5.26367E-03-6.09183E-04-6.50683E-15
 -1      1394 5.42328E-03-6.07925E-04-6.89305E-15
 -1      1395 5.18022E-03-5.69724E-04-6.36536E-15
 -1      1396 5.58530E-03-6.08288E-04-7.29004E-15
 -1      1397 5.74990E-03-6.10785E-04-7.69900E-15
 -1      1398 5.49577E-03-5.66171E-04-7.13862E-15
 -1      1399 5.91722E-03-6.16006E-04-8.12088E-15
 -1      1400 6.08733E-03-6.24602E-04-8.55648E-15
 -1      1401 5.81981E-03-5.70014E-04-7.95834E-15
 -1      1402 6.26027E-03-6.37434E-04-9.00206E-15
 -1      1403 6.43595E-03-6.55264E-04-9.45951E-15
 -1      1404 6.15320E-03-5.86006E-04-8.82749E-15
 -1      1405 6.61420E-03-6.79200E-04-9.93269E-15
 -1      1406 6.79462E-03-7.10006E-04-1.04186E-14
 -1      1407 6.49615E-03-6.20524E-04-9.74730E-15
 -1      1408 6.97674E-03-7.48826E-04-1.09175E-14
 -1      1409 7.15976E-03-7.96133E-04-1.14291E-14
 -1      1410 6.84774E-03-6.81223E-04-1.07183E-14
 -1      1411 7.34281E-03-8.52582E-04-1.19533E-14
 -1      1412 7.52464E-03-9.17812E-04-1.24913E-14
 -1      1413 7.20520E-03-7.75393E-04-1.17411E-14
 -1      1414 7.70408E-03-9.91104E-04-1.30398E-14
 -1      1415 7.87967E-03-1.07050E-03-1.36005E-14
 -1      1416 7.56346E-03-9.06176E-04-1.28131E-14
 -1      1417 8.05032E-03-1.15304E-03-1.41746E-14
 -1      1418 8.21501E-03-1.23486E-03-1.47593E-14
 -1      1419 7.91517E-03-1.06630E-03-1.39343E-14
 -1      1420 8.37337E-03-1.31095E-03-1.53592E-14
 -1      1421 8.52570E-03-1.37634E-03-1.59755E-14
 -1      1422 8.25273E-03-1.23218E-03-1.51073E-14
 -1      1423 8.67287E-03-1.42599E-03-1.66065E-14
 -1      1424 8.81690E-03-1.45637E-03-1.72556E-14
 -1      1425 8.57259E-03-1.36523E-03-1.63368E-14
 -1      1426 8.95969E-03-1.46537E-03-1.79201E-14
 -1      1427 9.10399E-03-1.45315E-03-1.85978E-14
 -1      1428 8.87994E-03-1.42692E-03-1.76317E-14
 -1      1429 9.25168E-03-1.42202E-03-1.92928E-14
 -1      1430 9.40468E-03-1.37568E-03-2.00033E-14
 -1      1431 9.18771E-03-1.40142E-03-1.89904E-14
 -1      1432 9.56380E-03-1.31924E-03-2.07281E-14
 -1      1433 9.72923E-03-1.25768E-03-2.14652E-14
 -1      1434 9.50857E-03-1.30642E-03-2.04082E-14
 -1      1435 9.90052E-03-1.19591E-03-2.22141E-14
 -1      1436 1.00766E-02-1.13771E-03-2.29732E-14
 -1      1437 9.84714E-03-1.18110E-03-2.18782E-14
 -1      1438 1.02564E-02-1.08588E-03-2.37453E-14
 -1      1439 1.04385E-02-1.04225E-03-2.45271E-14
 -1      1440 1.01995E-02-1.06342E-03-2.33960E-14
 -1      1441 1.06216E-02-1.00742E-03-2.53189E-14
 -1      1442 1.08045E-02-9.81703E-04-2.61226E-14
 -1      1443 1.05579E-02-9.75884E-04-2.49570E-14
 -1      1444 1.09865E-02-9.64379E-04-2.69348E-14
 -1      1445 1.11667E-02-9.54947E-04-2.77549E-14
 -1      1446 1.09151E-02-9.24921E-04-2.65583E-14
 -1      1447 1.13447E-02-9.52247E-04-2.85850E-14
 -1      1448 1.15201E-02-9.55509E-04-2.94207E-14
 -1      1449 1.12663E-02-9.06980E-04-2.81984E-14
 -1      1450 1.16928E-02-9.63636E-04-3.02638E-14
 -1      1451 1.18627E-02-9.75868E-04-3.11157E-14
 -1      1452 1.16089E-02-9.14644E-04-2.98700E-14
 -1      1453 1.20298E-02-9.91359E-04-3.19747E-14
 -1      1454 1.21943E-02-1.00947E-03-3.28376E-14
 -1      1455 1.19419E-02-9.40294E-04-3.15698E-14
 -1      1456 1.23562E-02-1.02961E-03-3.37073E-14
 -1      1457 1.25159E-02-1.05130E-03-3.45829E-14
 -1      1458 1.22658E-02-9.77634E-04-3.32974E-14
 -1      1459 1.26733E-02-1.07415E-03-3.54626E-14
 -1      1460 1.28288E-02-1.09781E-03-3.63498E-14
 -1      1461 1.25814E-02-1.02200E-03-3.50446E-14
 -1      1462 1.29826E-02-1.12204E-03-3.72423E-14
 -1      1463 1.31347E-02-1.14659E-03-3.81397E-14
 -1      1464 1.28900E-02-1.07016E-03-3.68194E-14
 -1      1465 1.32854E-02-1.17134E-03-3.90470E-14
 -1      1466 1.34349E-02-1.19610E-03-3.99640E-14
 -1      1467 1.31928E-02-1.11996E-03-3.86203E-14
 -1      1468 1.35833E-02-1.22080E-03-4.08913E-14
 -1      1469 1.37307E-02-1.24532E-03-4.18304E-14
 -1      1470 1.34909E-02-1.17003E-03-4.04534E-14
 -1      1471 1.38772E-02-1.26964E-03-4.27819E-14
 -1      1472 1.40230E-02-1.29366E-03-4.37425E-14
 -1      1473 1.37853E-02-1.21951E-03-4.23291E-14
 -1      1474 1.41682E-02-1.31738E-03-4.47144E-14
 -1      1475 1.43128E-02-1.34074E-03-4.56932E-14
 -1      1476 1.40769E-02-1.26788E-03-4.42504E-14
 -1      1477 1.44570E-02-1.36374E-03-4.66848E-14
 -1      1478 1.46008E-02-1.38634E-03-4.76843E-14
 -1      1479 1.43663E-02-1.31485E-03-4.62118E-14
 -1      1480 1.47443E-02-1.40857E-03-4.86880E-14
 -1      1481 1.48875E-02-1.43040E-03-4.96949E-14
 -1      1482 1.46541E-02-1.36024E-03-4.82054E-14
 -1      1483 1.50306E-02-1.45187E-03-5.07029E-14
 -1      1484 1.51736E-02-1.47301E-03-5.17142E-14
 -1      1485 1.49408E-02-1.40403E-03-5.02164E-14
 -1      1486 1.53786E-02-1.49900E-03-5.31875E-14
 -1      1487 1.52891E-02-1.45149E-03-5.26969E-14
 -1      1488 6.42125E-04 3.71398E-04-1.82959E-17
 -1      1489 4.92231E-04 3.03285E-04-2.72406E-18
 -1      1490 4.44304E-04 2.65552E-04-1.19804E-17
 -1      1491 9.27268E-04 4.70804E-04-7.97024E-17
 -1      1492 7.86623E-04 4.25617E-04-4.39915E-17
 -1      1493 7.43777E-04 3.89917E-04-5.55247E-17
 -1      1494 1.20175E-03 5.39442E-04-1.82607E-16
 -1      1495 1.06528E-03 5.08185E-04-1.25713E-16
 -1      1496 1.02947E-03 4.74700E-04-1.39103E-16
 -1      1497 1.47194E-03 5.87578E-04-3.28188E-16
 -1      1498 1.33706E-03 5.65688E-04-2.50112E-16
 -1      1499 1.30708E-03 5.33616E-04-2.64288E-16
 -1      1500 1.74121E-03 6.21070E-04-5.16134E-16
 -1      1501 1.60652E-03 6.05917E-04-4.16781E-16
 -1      1502 1.58109E-03 5.74686E-04-4.31675E-16
 -1      1503 2.01132E-03 6.43715E-04-7.47381E-16
 -1      1504 1.87607E-03 6.33580E-04-6.26222E-16
 -1      1505 1.85417E-03 6.02814E-04-6.41400E-16
 -1      1506 2.28316E-03 6.58180E-04-1.02191E-15
 -1      1507 2.14698E-03 6.51842E-04-8.79261E-16
 -1      1508 2.12781E-03 6.21307E-04-8.94806E-16
 -1      1509 2.55720E-03 6.66430E-04-1.34230E-15
 -1      1510 2.41989E-03 6.62983E-04-1.17620E-15
 -1      1511 2.40281E-03 6.32528E-04-1.19223E-15
 -1      1512 2.83366E-03 6.69935E-04-1.70819E-15
 -1      1513 2.69512E-03 6.68698E-04-1.51959E-15
 -1      1514 2.67964E-03 6.38224E-04-1.53489E-15
 -1      1515 3.11272E-03 6.69809E-04-2.12266E-15
 -1      1516 2.97286E-03 6.70263E-04-1.90958E-15
 -1      1517 2.95857E-03 6.39699E-04-1.92432E-15
 -1      1518 3.39452E-03 6.66917E-04-2.57922E-15
 -1      1519 3.25327E-03 6.68655E-04-2.34516E-15
 -1      1520 3.23981E-03 6.37942E-04-2.35851E-15
 -1      1521 3.67926E-03 6.61967E-04-3.08138E-15
 -1      1522 3.53651E-03 6.64648E-04-2.82504E-15
 -1      1523 3.52356E-03 6.33732E-04-2.83756E-15
 -1      1524 3.96725E-03 6.55607E-04-3.62812E-15
 -1      1525 3.82283E-03 6.58910E-04-3.34886E-15
 -1      1526 3.81009E-03 6.27729E-04-3.36112E-15
 -1      1527 4.25889E-03 6.48521E-04-4.22440E-15
 -1      1528 4.11259E-03 6.52093E-04-3.91968E-15
 -1      1529 4.09971E-03 6.20575E-04-3.93052E-15
 -1      1530 4.55466E-03 6.41530E-04-4.87095E-15
 -1      1531 4.40622E-03 6.44936E-04-4.54132E-15
 -1      1532 4.39284E-03 6.12991E-04-4.55045E-15
 -1      1533 4.85514E-03 6.35708E-04-5.56830E-15
 -1      1534 4.70428E-03 6.38375E-04-5.21355E-15
 -1      1535 4.68993E-03 6.05894E-04-5.21982E-15
 -1      1536 5.16086E-03 6.32496E-04-6.31632E-15
 -1      1537 5.00731E-03 6.33655E-04-5.93598E-15
 -1      1538 4.99149E-03 6.00509E-04-5.93991E-15
 -1      1539 5.47224E-03 6.33790E-04-7.11219E-15
 -1      1540 5.31582E-03 6.32436E-04-6.70854E-15
 -1      1541 5.29793E-03 5.98487E-04-6.70895E-15
 -1      1542 5.78933E-03 6.41984E-04-7.95380E-15
 -1      1543 5.63007E-03 6.36869E-04-7.52743E-15
 -1      1544 5.60950E-03 6.01983E-04-7.52465E-15
 -1      1545 6.11158E-03 6.59861E-04-8.83785E-15
 -1      1546 5.94986E-03 6.49567E-04-8.38992E-15
 -1      1547 5.92604E-03 6.13648E-04-8.38523E-15
 -1      1548 6.43754E-03 6.90246E-04-9.76285E-15
 -1      1549 6.27421E-03 6.73400E-04-9.29511E-15
 -1      1550 6.24681E-03 6.36436E-04-9.28873E-15
 -1      1551 6.76456E-03 7.35251E-04-1.07286E-14
 -1      1552 6.60112E-03 7.10952E-04-1.02409E-14
 -1      1553 6.57024E-03 6.73086E-04-1.02339E-14
 -1      1554 7.08880E-03 7.95045E-04-1.17385E-14
 -1      1555 6.92731E-03 7.63534E-04-1.12290E-14
 -1      1556 6.89377E-03 7.25142E-04-1.12198E-14
 -1      1557 7.40559E-03 8.66269E-04-1.27897E-14
 -1      1558 7.24845E-03 8.29735E-04-1.22586E-14
 -1      1559 7.21393E-03 7.91484E-04-1.22477E-14
 -1      1560 7.71053E-03 9.40714E-04-1.38866E-14
 -1      1561 7.55981E-03 9.03869E-04-1.33310E-14
 -1      1562 7.52691E-03 8.66682E-04-1.33197E-14
 -1      1563 8.00109E-03 1.00536E-03-1.50312E-14
 -1      1564 7.85768E-03 9.75187E-04-1.44527E-14
 -1      1565 7.82952E-03 9.40050E-04-1.44388E-14
 -1      1566 8.27829E-03 1.04485E-03-1.62143E-14
 -1      1567 8.14115E-03 1.02905E-03-1.56186E-14
 -1      1568 8.12072E-03 9.96659E-04-1.56023E-14
 -1      1569 8.54729E-03 1.04637E-03-1.74457E-14
 -1      1570 8.41334E-03 1.05073E-03-1.68235E-14
 -1      1571 8.40271E-03 1.02112E-03-1.68095E-14
 -1      1572 8.81614E-03 1.00478E-03-1.87253E-14
 -1      1573 8.68115E-03 1.03073E-03-1.80789E-14
 -1      1574 8.68088E-03 1.00317E-03-1.80644E-14
 -1      1575 9.09292E-03 9.24878E-04-2.00608E-14
 -1      1576 8.95306E-03 9.68859E-04-1.93866E-14
 -1      1577 8.96206E-03 9.42145E-04-1.93716E-14
 -1      1578 9.38294E-03 8.19293E-04-2.14462E-14
 -1      1579 9.23606E-03 8.74313E-04-2.07465E-14
 -1      1580 9.25193E-03 8.47240E-04-2.07307E-14
 -1      1581 9.68739E-03 7.03366E-04-2.28875E-14
 -1      1582 9.53343E-03 7.61737E-04-2.21601E-14
 -1      1583 9.55312E-03 7.33520E-04-2.21439E-14
 -1      1584 1.00038E-02 5.90258E-04-2.43808E-14
 -1      1585 9.84437E-03 6.45870E-04-2.36262E-14
 -1      1586 9.86495E-03 6.16252E-04-2.36082E-14
 -1      1587 1.03279E-02 4.88335E-04-2.59351E-14
 -1      1588 1.01653E-02 5.37631E-04-2.51506E-14
 -1      1589 1.01844E-02 5.06761E-04-2.51308E-14
 -1      1590 1.06550E-02 4.01080E-04-2.75427E-14
 -1      1591 1.04914E-02 4.42853E-04-2.67322E-14
 -1      1592 1.05078E-02 4.11087E-04-2.67105E-14
 -1      1593 1.09812E-02 3.28399E-04-2.92023E-14
 -1      1594 1.08184E-02 3.63039E-04-2.83669E-14
 -1      1595 1.08315E-02 3.30780E-04-2.83427E-14
 -1      1596 1.13038E-02 2.68206E-04-3.09140E-14
 -1      1597 1.11431E-02 2.96920E-04-3.00524E-14
 -1      1598 1.11529E-02 2.64516E-04-3.00243E-14
 -1      1599 1.16214E-02 2.17674E-04-3.26610E-14
 -1      1600 1.14633E-02 2.41914E-04-3.17828E-14
 -1      1601 1.14703E-02 2.09622E-04-3.17464E-14
 -1      1602 1.19335E-02 1.74005E-04-3.44411E-14
 -1      1603 1.17782E-02 1.95140E-04-3.35481E-14
 -1      1604 1.17829E-02 1.63125E-04-3.35075E-14
 -1      1605 1.22403E-02 1.34797E-04-3.62441E-14
 -1      1606 1.20876E-02 1.53970E-04-3.53393E-14
 -1      1607 1.20907E-02 1.22318E-04-3.52963E-14
 -1      1608 1.25421E-02 9.81609E-05-3.80625E-14
 -1      1609 1.23918E-02 1.16253E-04-3.71520E-14
 -1      1610 1.23938E-02 8.49934E-05-3.71063E-14
 -1      1611 1.28398E-02 6.26951E-05-3.99098E-14
 -1      1612 1.26914E-02 8.03504E-05-3.89820E-14
 -1      1613 1.26928E-02 4.94765E-05-3.89371E-14
 -1      1614 1.31339E-02 2.74044E-05-4.17788E-14
 -1      1615 1.29872E-02 4.50754E-05-4.08418E-14
 -1      1616 1.29882E-02 1.45578E-05-4.07934E-14
 -1      1617 1.34252E-02-8.39391E-06-4.36682E-14
 -1      1618 1.32799E-02 9.60042E-06-4.27224E-14
 -1      1619 1.32808E-02-2.06007E-05-4.26704E-14
 -1      1620 1.37144E-02-4.51555E-05-4.55735E-14
 -1      1621 1.35700E-02-2.66347E-05-4.46189E-14
 -1      1622 1.35711E-02-5.65629E-05-4.45653E-14
 -1      1623 1.40019E-02-8.31665E-05-4.74934E-14
 -1      1624 1.38583E-02-6.39956E-05-4.65308E-14
 -1      1625 1.38596E-02-9.36954E-05-4.64779E-14
 -1      1626 1.42884E-02-1.22556E-04-4.94302E-14
 -1      1627 1.41453E-02-1.02691E-04-4.84599E-14
 -1      1628 1.41468E-02-1.32208E-04-4.84052E-14
 -1      1629 1.45743E-02-1.63220E-04-5.13605E-14
 -1      1630 1.44314E-02-1.42752E-04-5.03974E-14
 -1      1631 1.44332E-02-1.72139E-04-5.03385E-14
 -1      1632 1.47284E-02-1.95617E-04-5.23752E-14
 -1      1633 1.47915E-02-3.02621E-04-5.25734E-14
 -1      1634 1.47709E-02-2.60562E-04-5.25243E-14
 -1      1635 1.48336E-02-3.86372E-04-5.26820E-14
 -1      1636 1.48124E-02-3.44575E-04-5.26263E-14
 -1      1637 1.46782E-02-3.05561E-04-5.17626E-14
 -1      1638 1.48768E-02-4.69356E-04-5.27956E-14
 -1      1639 1.48551E-02-4.27978E-04-5.27381E-14
 -1      1640 1.47207E-02-3.88960E-04-5.18663E-14
 -1      1641 1.49206E-02-5.51349E-04-5.29137E-14
 -1      1642 1.48986E-02-5.10484E-04-5.28569E-14
 -1      1643 1.47642E-02-4.71552E-04-5.19739E-14
 -1      1644 1.49637E-02-6.30925E-04-5.30276E-14
 -1      1645 1.49422E-02-5.91262E-04-5.29724E-14
 -1      1646 1.48079E-02-5.52524E-04-5.20821E-14
 -1      1647 1.50071E-02-7.10933E-04-5.31203E-14
 -1      1648 1.49855E-02-6.71035E-04-5.30777E-14
 -1      1649 1.48515E-02-6.32585E-04-5.21826E-14
 -1      1650 1.50495E-02-7.90247E-04-5.32004E-14
 -1      1651 1.50284E-02-7.50657E-04-5.31585E-14
 -1      1652 1.48947E-02-7.12543E-04-5.22676E-14
 -1      1653 1.50905E-02-8.69232E-04-5.32774E-14
 -1      1654 1.50702E-02-8.29756E-04-5.32415E-14
 -1      1655 1.49369E-02-7.91964E-04-5.23450E-14
 -1      1656 1.51302E-02-9.48305E-04-5.33347E-14
 -1      1657 1.51106E-02-9.08732E-04-5.33096E-14
 -1      1658 1.49776E-02-8.71181E-04-5.24153E-14
 -1      1659 1.51688E-02-1.02788E-03-5.33729E-14
 -1      1660 1.51496E-02-9.88006E-04-5.33546E-14
 -1      1661 1.50169E-02-9.50563E-04-5.24630E-14
 -1      1662 1.52058E-02-1.10691E-03-5.33957E-14
 -1      1663 1.51874E-02-1.06728E-03-5.33862E-14
 -1      1664 1.50548E-02-1.02978E-03-5.24932E-14
 -1      1665 1.52433E-02-1.18833E-03-5.33979E-14
 -1      1666 1.52246E-02-1.14748E-03-5.33999E-14
 -1      1667 1.50919E-02-1.10976E-03-5.25097E-14
 -1      1668 1.52813E-02-1.27081E-03-5.33736E-14
 -1      1669 1.52622E-02-1.22944E-03-5.33898E-14
 -1      1670 1.51293E-02-1.19136E-03-5.25038E-14
 -1      1671 1.53202E-02-1.35422E-03-5.33379E-14
 -1      1672 1.53006E-02-1.31242E-03-5.33569E-14
 -1      1673 1.51673E-02-1.27392E-03-5.24828E-14
 -1      1674 1.53145E-02-1.42383E-03-5.30084E-14
 -1      1675 1.52944E-02-1.38181E-03-5.30241E-14
 -1      1676 1.51607E-02-1.34291E-03-5.21553E-14
 -1      1677 1.51093E-02-1.39783E-03-5.15347E-14
 -1      1678 1.09421E-02-2.11912E-04-2.13273E-14
 -1      1679 1.09832E-02-2.55630E-04-2.13627E-14
 -1      1680 1.07692E-02-9.60076E-05-2.11021E-14
 -1      1681 1.08623E-02-1.49270E-04-2.12049E-14
 -1      1682 1.04881E-02 3.98510E-05-2.07915E-14
 -1      1683 1.06294E-02-2.90479E-05-2.09602E-14
 -1      1684 1.01453E-02 2.10507E-04-2.03246E-14
 -1      1685 1.03110E-02 1.31542E-04-2.05438E-14
 -1      1686 9.77747E-03 3.79883E-04-1.97974E-14
 -1      1687 9.94777E-03 3.02314E-04-2.00476E-14
 -1      1688 9.38304E-03 5.38143E-04-1.91820E-14
 -1      1689 9.56506E-03 4.66674E-04-1.94815E-14
 -1      1690 8.99755E-03 6.50543E-04-1.85023E-14
 -1      1691 9.17242E-03 6.06681E-04-1.88173E-14
 -1      1692 8.61546E-03 6.88238E-04-1.78046E-14
 -1      1693 8.79120E-03 6.81325E-04-1.81244E-14
 -1      1694 8.21342E-03 6.38099E-04-1.70855E-14
 -1      1695 8.40139E-03 6.73741E-04-1.74155E-14
 -1      1696 7.80402E-03 5.14048E-04-1.64526E-14
 -1      1697 7.98725E-03 5.77151E-04-1.67349E-14
 -1      1698 7.41987E-03 3.57954E-04-1.59114E-14
 -1      1699 7.59454E-03 4.32387E-04-1.61490E-14
 -1      1700 7.05065E-03 1.80299E-04-1.54138E-14
 -1      1701 7.22321E-03 2.59949E-04-1.56240E-14
 -1      1702 6.74958E-03 4.58795E-05-1.51028E-14
 -1      1703 6.87132E-03 1.06250E-04-1.52376E-14
 -1      1704 6.55006E-03-8.03739E-05-1.48483E-14
 -1      1705 6.63124E-03-3.03221E-05-1.49314E-14
 -1      1706 6.48071E-03-1.73942E-04-1.48087E-14
 -1      1707 6.49499E-03-1.29983E-04-1.48307E-14
 -1      1708 6.54946E-03-2.74845E-04-1.48555E-14
 -1      1709 6.50080E-03-2.26867E-04-1.48180E-14
 -1      1710 6.75949E-03-3.95448E-04-1.50121E-14
 -1      1711 6.64555E-03-3.32788E-04-1.49087E-14
 -1      1712 7.05333E-03-5.58552E-04-1.53351E-14
 -1      1713 6.90928E-03-4.85039E-04-1.51872E-14
 -1      1714 7.44117E-03-7.28316E-04-1.57112E-14
 -1      1715 7.26275E-03-6.37761E-04-1.54997E-14
 -1      1716 7.81813E-03-9.30679E-04-1.62824E-14
 -1      1717 7.63470E-03-8.45730E-04-1.60304E-14
 -1      1718 8.20415E-03-1.08362E-03-1.68634E-14
 -1      1719 8.02869E-03-1.01871E-03-1.65896E-14
 -1      1720 8.57822E-03-1.17716E-03-1.74875E-14
 -1      1721 8.40678E-03-1.14240E-03-1.71946E-14
 -1      1722 8.94326E-03-1.19356E-03-1.81314E-14
 -1      1723 8.77587E-03-1.19604E-03-1.78344E-14
 -1      1724 9.31057E-03-1.13140E-03-1.87806E-14
 -1      1725 9.14031E-03-1.16965E-03-1.84821E-14
 -1      1726 9.69785E-03-9.98107E-04-1.94484E-14
 -1      1727 9.51439E-03-1.06827E-03-1.91434E-14
 -1      1728 1.00853E-02-8.32772E-04-2.00334E-14
 -1      1729 9.91251E-03-9.11413E-04-1.97717E-14
 -1      1730 1.04233E-02-6.71099E-04-2.05280E-14
 -1      1731 1.02737E-02-7.43688E-04-2.03140E-14
 -1      1732 1.07067E-02-5.28448E-04-2.09197E-14
 -1      1733 1.05836E-02-5.91743E-04-2.07537E-14
 -1      1734 1.09115E-02-4.03273E-04-2.12117E-14
 -1      1735 1.08283E-02-4.56566E-04-2.11015E-14
 -1      1736 1.09938E-02-3.05334E-04-2.13395E-14
 -1      1737 1.09724E-02-3.47497E-04-2.13008E-14
 -1      1738 9.98689E-03 2.12421E-04-2.03654E-14
 -1      1739 1.03567E-02 2.81790E-05-2.08960E-14
 -1      1740 1.47303E-02-2.24963E-04-5.23213E-14
 -1      1741 1.46167E-02-2.28116E-04-5.15076E-14
 -1      1742 1.09039E-02-2.18008E-04-2.15605E-14
 -1      1743 1.06780E-02-1.15741E-04-2.12915E-14
 -1      1744 1.09982E-02-2.85408E-04-2.16645E-14
 -1      1745 9.60155E-03 4.04625E-04-1.97665E-14
 -1      1746 9.22545E-03 5.77982E-04-1.90806E-14
 -1      1747 8.86969E-03 6.89438E-04-1.83362E-14
 -1      1748 8.51695E-03 7.06027E-04-1.75697E-14
 -1      1749 8.14935E-03 6.17264E-04-1.68333E-14
 -1      1750 7.75867E-03 4.57430E-04-1.61835E-14
 -1      1751 7.37168E-03 2.66967E-04-1.55986E-14
 -1      1752 7.00180E-03 9.43059E-05-1.51440E-14
 -1      1753 6.69994E-03-3.96481E-05-1.48008E-14
 -1      1754 6.51770E-03-1.23698E-04-1.46156E-14
 -1      1755 6.48172E-03-1.89907E-04-1.46082E-14
 -1      1756 6.60170E-03-2.65353E-04-1.46697E-14
 -1      1757 6.85718E-03-3.80338E-04-1.48946E-14
 -1      1758 7.21528E-03-5.42407E-04-1.52295E-14
 -1      1759 7.60254E-03-7.46701E-04-1.57037E-14
 -1      1760 7.98557E-03-9.62998E-04-1.63236E-14
 -1      1761 8.35076E-03-1.12589E-03-1.69579E-14
 -1      1762 8.69109E-03-1.21250E-03-1.76351E-14
 -1      1763 9.02268E-03-1.20525E-03-1.83357E-14
 -1      1764 9.36907E-03-1.10596E-03-1.90543E-14
 -1      1765 9.74201E-03-9.37225E-04-1.97492E-14
 -1      1766 1.01221E-02-7.48534E-04-2.03606E-14
 -1      1767 1.04661E-02-5.80117E-04-2.08715E-14
 -1      1768 1.07542E-02-4.45176E-04-2.12821E-14
 -1      1769 1.09448E-02-3.50912E-04-2.15546E-14
 -1      1770 2.84869E-04-1.76069E-04-5.21772E-18
 -1      1771 3.32170E-04-1.16602E-04-4.30835E-17
 -1      1772 3.36244E-04-1.32845E-04-3.88144E-17
 -1      1773 3.42046E-04-1.51825E-04-3.37593E-17
 -1      1774 3.51497E-04-1.73810E-04-2.71186E-17
 -1      1775 4.58170E-04-1.87758E-04-5.60939E-17
 -1      1776 3.24756E-04-6.52246E-05-5.37629E-17
 -1      1777 3.25866E-04-7.65058E-05-5.19468E-17
 -1      1778 3.23323E-04-4.37619E-05-5.63514E-17
 -1      1779 3.23952E-04-5.42332E-05-5.52265E-17
 -1      1780 4.36782E-04-7.90410E-05-8.07866E-17
 -1      1781 3.22570E-04-2.36922E-05-5.77880E-17
 -1      1782 3.22889E-04-3.35791E-05-5.71781E-17
 -1      1783 4.34850E-04-5.11282E-05-8.39986E-17
 -1      1784 3.22287E-04-4.31875E-06-5.82352E-17
 -1      1785 3.22381E-04-1.39393E-05-5.80997E-17
 -1      1786 4.33860E-04-2.48208E-05-8.56249E-17
 -1      1787 3.22404E-04 1.49349E-05-5.78151E-17
 -1      1788 3.22295E-04 5.30462E-06-5.81946E-17
 -1      1789 4.33570E-04 7.59521E-07-8.59772E-17
 -1      1790 3.22947E-04 3.46262E-05-5.65005E-17
 -1      1791 3.22609E-04 2.47079E-05-5.72459E-17
 -1      1792 4.33913E-04 2.63677E-05-8.50963E-17
 -1      1793 3.24034E-04 5.50209E-05-5.39255E-17
 -1      1794 3.23395E-04 4.46777E-05-5.53214E-17
 -1      1795 4.34957E-04 5.25339E-05-8.27382E-17
 -1      1796 3.26023E-04 7.76469E-05-5.05645E-17
 -1      1797 3.24863E-04 6.60764E-05-5.24889E-17
 -1      1798 4.36952E-04 8.03454E-05-7.91061E-17
 -1      1799 3.29608E-04 1.03475E-04-4.55365E-17
 -1      1800 3.27516E-04 9.01284E-05-4.83961E-17
 -1      1801 4.40502E-04 1.11271E-04-7.39290E-17
 -1      1802 3.36498E-04 1.34925E-04-3.74998E-17
 -1      1803 3.32394E-04 1.18431E-04-4.19857E-17
 -1      1804 4.46824E-04 1.47016E-04-6.60415E-17
 -1      1805 3.52032E-04 1.77391E-04-2.57227E-17
 -1      1806 3.42639E-04 1.54564E-04-3.23770E-17
 -1      1807 4.59150E-04 1.91115E-04-5.43185E-17
 -1      1808 4.07233E-04 2.33392E-04-1.73879E-17
 -1      1809 3.77735E-04 2.02414E-04-2.27682E-17
 -1      1810 4.95462E-04 2.43595E-04-4.38289E-17
 -1      1811 5.57911E-04 3.02007E-04-3.49113E-17
 -1      1812 3.39656E-04-1.90706E-04-1.57345E-17
 -1      1813 8.52617E-04 4.06073E-04-9.96382E-17
 -1      1814 7.06367E-04 3.58631E-04-6.23687E-17
 -1      1815 6.72758E-04 3.28121E-04-6.81828E-17
 -1      1816 4.58528E-04-2.36375E-04-3.39491E-17
 -1      1817 8.06448E-04-3.73166E-04-1.02891E-16
 -1      1818 9.51593E-04-4.14008E-04-1.49579E-16
 -1      1819 1.09432E-03-4.48291E-04-2.06080E-16
 -1      1820 1.23590E-03-4.76712E-04-2.73070E-16
 -1      1821 1.00325E-03-3.96461E-04-1.93124E-16
 -1      1822 1.37623E-03-5.00642E-04-3.49926E-16
 -1      1823 1.51588E-03-5.20375E-04-4.37367E-16
 -1      1824 1.28882E-03-4.53472E-04-3.30085E-16
 -1      1825 1.65503E-03-5.36815E-04-5.35962E-16
 -1      1826 1.79389E-03-5.50195E-04-6.45141E-16
 -1      1827 1.57121E-03-4.93128E-04-5.08437E-16
 -1      1828 1.93269E-03-5.61107E-04-7.65000E-16
 -1      1829 2.07147E-03-5.69748E-04-8.96242E-16
 -1      1830 1.85194E-03-5.19969E-04-7.29438E-16
 -1      1831 2.21042E-03-5.76516E-04-1.03892E-15
 -1      1832 2.34955E-03-5.81576E-04-1.19250E-15
 -1      1833 2.13215E-03-5.37237E-04-9.94254E-16
 -1      1834 2.48899E-03-5.85202E-04-1.35769E-15
 -1      1835 2.62872E-03-5.87530E-04-1.53420E-15
 -1      1836 2.41261E-03-5.47282E-04-1.30364E-15
 -1      1837 2.76884E-03-5.88747E-04-1.72162E-15
 -1      1838 2.90935E-03-5.88965E-04-1.91949E-15
 -1      1839 2.69384E-03-5.51821E-04-1.65781E-15
 -1      1840 3.05032E-03-5.88311E-04-2.12891E-15
 -1      1841 3.19175E-03-5.86877E-04-2.34859E-15
 -1      1842 2.97620E-03-5.52111E-04-2.05586E-15
 -1      1843 3.33370E-03-5.84748E-04-2.57922E-15
 -1      1844 3.47618E-03-5.82003E-04-2.82096E-15
 -1      1845 3.25997E-03-5.49072E-04-2.49713E-15
 -1      1846 3.61926E-03-5.78701E-04-3.07388E-15
 -1      1847 3.76297E-03-5.74917E-04-3.33785E-15
 -1      1848 3.54542E-03-5.43387E-04-2.98165E-15
 -1      1849 3.90734E-03-5.70697E-04-3.61232E-15
 -1      1850 4.05248E-03-5.66123E-04-3.89870E-15
 -1      1851 3.83284E-03-5.35592E-04-3.51017E-15
 -1      1852 4.19839E-03-5.61245E-04-4.19661E-15
 -1      1853 4.34520E-03-5.56162E-04-4.50594E-15
 -1      1854 4.12256E-03-5.26179E-04-4.08396E-15
 -1      1855 4.49294E-03-5.50951E-04-4.82679E-15
 -1      1856 4.64177E-03-5.45743E-04-5.15873E-15
 -1      1857 4.41501E-03-5.15699E-04-4.70435E-15
 -1      1858 4.79168E-03-5.40666E-04-5.50298E-15
 -1      1859 4.94291E-03-5.35904E-04-5.85784E-15
 -1      1860 4.71069E-03-5.04901E-04-5.37050E-15
 -1      1861 5.09543E-03-5.31674E-04-6.22270E-15
 -1      1862 5.24950E-03-5.28234E-04-6.59886E-15
 -1      1863 5.01021E-03-4.94903E-04-6.07984E-15
 -1      1864 5.40510E-03-5.25941E-04-6.98675E-15
 -1      1865 5.56250E-03-5.25156E-04-7.38496E-15
 -1      1866 5.31430E-03-4.87421E-04-6.83369E-15
 -1      1867 5.72168E-03-5.26430E-04-7.79522E-15
 -1      1868 5.88286E-03-5.30268E-04-8.21850E-15
 -1      1869 5.62380E-03-4.85059E-04-7.63249E-15
 -1      1870 6.04610E-03-5.37456E-04-8.65365E-15
 -1      1871 6.21145E-03-5.48681E-04-9.10075E-15
 -1      1872 5.93968E-03-4.91650E-04-8.47808E-15
 -1      1873 6.37911E-03-5.64957E-04-9.56108E-15
 -1      1874 6.54881E-03-5.87162E-04-1.00341E-14
 -1      1875 6.26311E-03-5.12580E-04-9.37549E-15
 -1      1876 6.72100E-03-6.16405E-04-1.05198E-14
 -1      1877 6.89483E-03-6.53659E-04-1.10183E-14
 -1      1878 6.59536E-03-5.54904E-04-1.03213E-14
 -1      1879 7.07110E-03-6.99756E-04-1.15291E-14
 -1      1880 7.24816E-03-7.55393E-04-1.20527E-14
 -1      1881 6.93760E-03-6.26827E-04-1.13180E-14
 -1      1882 7.42707E-03-8.20467E-04-1.25881E-14
 -1      1883 7.60534E-03-8.94623E-04-1.31350E-14
 -1      1884 7.29007E-03-7.35632E-04-1.23636E-14
 -1      1885 7.78390E-03-9.75950E-04-1.36955E-14
 -1      1886 7.95996E-03-1.06173E-03-1.42676E-14
 -1      1887 7.65037E-03-8.83154E-04-1.34576E-14
 -1      1888 8.13372E-03-1.14779E-03-1.48547E-14
 -1      1889 8.30389E-03-1.22877E-03-1.54540E-14
 -1      1890 8.01125E-03-1.05745E-03-1.46020E-14
 -1      1891 8.46951E-03-1.29916E-03-1.60689E-14
 -1      1892 8.63262E-03-1.35262E-03-1.67000E-14
 -1      1893 8.36246E-03-1.22551E-03-1.58012E-14
 -1      1894 8.79144E-03-1.38512E-03-1.73454E-14
 -1      1895 8.95143E-03-1.39400E-03-1.80090E-14
 -1      1896 8.69854E-03-1.33787E-03-1.70604E-14
 -1      1897 9.11043E-03-1.37941E-03-1.86871E-14
 -1      1898 9.27389E-03-1.34432E-03-1.93795E-14
 -1      1899 9.02719E-03-1.35546E-03-1.83837E-14
 -1      1900 9.44003E-03-1.29290E-03-2.00881E-14
 -1      1901 9.61063E-03-1.23160E-03-2.08091E-14
 -1      1902 9.36404E-03-1.27960E-03-1.97687E-14
 -1      1903 9.78481E-03-1.16590E-03-2.15436E-14
 -1      1904 9.96112E-03-1.10105E-03-2.22890E-14
 -1      1905 9.71611E-03-1.15100E-03-2.12090E-14
 -1      1906 1.01398E-02-1.04108E-03-2.30453E-14
 -1      1907 1.03181E-02-9.88513E-04-2.38158E-14
 -1      1908 1.00772E-02-1.01882E-03-2.26973E-14
 -1      1909 1.04969E-02-9.45115E-04-2.45952E-14
 -1      1910 1.06738E-02-9.11165E-04-2.53838E-14
 -1      1911 1.04372E-02-9.14617E-04-2.42334E-14
 -1      1912 1.08499E-02-8.86695E-04-2.61831E-14
 -1      1913 1.10235E-02-8.70958E-04-2.69930E-14
 -1      1914 1.07891E-02-8.49222E-04-2.58099E-14
 -1      1915 1.11955E-02-8.63090E-04-2.78117E-14
 -1      1916 1.13650E-02-8.62112E-04-2.86397E-14
 -1      1917 1.11308E-02-8.20318E-04-2.74273E-14
 -1      1918 1.15325E-02-8.66914E-04-2.94746E-14
 -1      1919 1.16977E-02-8.76626E-04-3.03157E-14
 -1      1920 1.14626E-02-8.20410E-04-2.90789E-14
 -1      1921 1.18608E-02-8.90242E-04-3.11657E-14
 -1      1922 1.20219E-02-9.07087E-04-3.20221E-14
 -1      1923 1.17858E-02-8.41316E-04-3.07622E-14
 -1      1924 1.21810E-02-9.26387E-04-3.28834E-14
 -1      1925 1.23384E-02-9.47647E-04-3.37529E-14
 -1      1926 1.21015E-02-8.76060E-04-3.24729E-14
 -1      1927 1.24941E-02-9.70328E-04-3.46283E-14
 -1      1928 1.26483E-02-9.94078E-04-3.55080E-14
 -1      1929 1.24110E-02-9.19345E-04-3.42093E-14
 -1      1930 1.28010E-02-1.01855E-03-3.63959E-14
 -1      1931 1.29525E-02-1.04349E-03-3.72900E-14
 -1      1932 1.27154E-02-9.67417E-04-3.59730E-14
 -1      1933 1.31028E-02-1.06870E-03-3.81906E-14
 -1      1934 1.32521E-02-1.09400E-03-3.91006E-14
 -1      1935 1.30154E-02-1.01775E-03-3.77632E-14
 -1      1936 1.34004E-02-1.11927E-03-4.00172E-14
 -1      1937 1.35480E-02-1.14440E-03-4.09421E-14
 -1      1938 1.33120E-02-1.06869E-03-3.95813E-14
 -1      1939 1.36947E-02-1.16933E-03-4.18810E-14
 -1      1940 1.38409E-02-1.19397E-03-4.28291E-14
 -1      1941 1.36056E-02-1.11923E-03-4.14334E-14
 -1      1942 1.39864E-02-1.21830E-03-4.37879E-14
 -1      1943 1.41315E-02-1.24227E-03-4.47566E-14
 -1      1944 1.38970E-02-1.16873E-03-4.33271E-14
 -1      1945 1.42761E-02-1.26586E-03-4.57374E-14
 -1      1946 1.44203E-02-1.28904E-03-4.67259E-14
 -1      1947 1.41866E-02-1.21683E-03-4.52618E-14
 -1      1948 1.45642E-02-1.31182E-03-4.77232E-14
 -1      1949 1.47079E-02-1.33417E-03-4.87251E-14
 -1      1950 1.44748E-02-1.26334E-03-4.72400E-14
 -1      1951 1.48371E-02-1.35554E-03-4.96219E-14
 -1      1952 1.49804E-02-1.37712E-03-5.06303E-14
 -1      1953 1.50060E-02-1.34971E-03-5.09367E-14
 -1      1954 1.47478E-02-1.30755E-03-4.91353E-14
 -1      1955 1.13740E-03 4.78265E-04-2.04399E-16
 -1      1956 9.95758E-04 4.45431E-04-1.46882E-16
 -1      1957 9.63585E-04 4.16045E-04-1.53252E-16
 -1      1958 1.41631E-03 5.28696E-04-3.50387E-16
 -1      1959 1.27725E-03 5.05810E-04-2.72094E-16
 -1      1960 1.24788E-03 4.77755E-04-2.78708E-16
 -1      1961 1.69260E-03 5.63594E-04-5.38347E-16
 -1      1962 1.55460E-03 5.47845E-04-4.39075E-16
 -1      1963 1.52804E-03 5.20768E-04-4.45485E-16
 -1      1964 1.96824E-03 5.87061E-04-7.69445E-16
 -1      1965 1.83040E-03 5.76590E-04-6.48421E-16
 -1      1966 1.80631E-03 5.50164E-04-6.54302E-16
 -1      1967 2.24439E-03 6.01969E-04-1.04415E-15
 -1      1968 2.10620E-03 5.95463E-04-9.01379E-16
 -1      1969 2.08416E-03 5.69457E-04-9.06623E-16
 -1      1970 2.52175E-03 6.10408E-04-1.36311E-15
 -1      1971 2.38289E-03 6.06906E-04-1.19803E-15
 -1      1972 2.36248E-03 5.81156E-04-1.20271E-15
 -1      1973 2.80071E-03 6.13922E-04-1.72776E-15
 -1      1974 2.66101E-03 6.12711E-04-1.53951E-15
 -1      1975 2.64186E-03 5.87106E-04-1.54304E-15
 -1      1976 3.08155E-03 6.13671E-04-2.13855E-15
 -1      1977 2.94088E-03 6.14213E-04-1.92729E-15
 -1      1978 2.92267E-03 5.88670E-04-1.92908E-15
 -1      1979 3.36451E-03 6.10537E-04-2.59261E-15
 -1      1980 3.22276E-03 6.12420E-04-2.36006E-15
 -1      1981 3.20517E-03 5.86875E-04-2.36000E-15
 -1      1982 3.64983E-03 6.05231E-04-3.09316E-15
 -1      1983 3.50686E-03 6.08115E-04-2.83751E-15
 -1      1984 3.48960E-03 5.82512E-04-2.83603E-15
 -1      1985 3.93777E-03 5.98384E-04-3.63738E-15
 -1      1986 3.79345E-03 6.01959E-04-3.35951E-15
 -1      1987 3.77622E-03 5.76240E-04-3.35627E-15
 -1      1988 4.22868E-03 5.90654E-04-4.23015E-15
 -1      1989 4.08283E-03 5.94582E-04-3.92706E-15
 -1      1990 4.06532E-03 5.68680E-04-3.92249E-15
 -1      1991 4.52297E-03 5.82823E-04-4.87159E-15
 -1      1992 4.37537E-03 5.86690E-04-4.54496E-15
 -1      1993 4.35723E-03 5.60523E-04-4.53766E-15
 -1      1994 4.82107E-03 5.75925E-04-5.56394E-15
 -1      1995 4.67150E-03 5.79179E-04-5.21148E-15
 -1      1996 4.65236E-03 5.52638E-04-5.20189E-15
 -1      1997 5.12342E-03 5.71356E-04-6.30519E-15
 -1      1998 4.97168E-03 5.73248E-04-5.92884E-15
 -1      1999 4.95110E-03 5.46195E-04-5.91600E-15
 -1      2000 5.43037E-03 5.70989E-04-7.09385E-15
 -1      2001 5.27629E-03 5.70521E-04-6.69342E-15
 -1      2002 5.25388E-03 5.42785E-04-6.67724E-15
 -1      2003 5.74205E-03 5.77226E-04-7.92983E-15
 -1      2004 5.58561E-03 5.73135E-04-7.50619E-15
 -1      2005 5.56100E-03 5.44515E-04-7.48692E-15
 -1      2006 6.05823E-03 5.92934E-04-8.81016E-15
 -1      2007 5.89962E-03 5.83743E-04-8.36450E-15
 -1      2008 5.87258E-03 5.54026E-04-8.34307E-15
 -1      2009 6.37810E-03 6.21134E-04-9.73277E-15
 -1      2010 6.21781E-03 6.05346E-04-9.26582E-15
 -1      2011 6.18839E-03 5.74355E-04-9.24265E-15
 -1      2012 6.70009E-03 6.64310E-04-1.06954E-14
 -1      2013 6.53902E-03 6.40811E-04-1.02098E-14
 -1      2014 6.50771E-03 6.08487E-04-1.01837E-14
 -1      2015 7.02177E-03 7.23194E-04-1.17014E-14
 -1      2016 6.86125E-03 6.91923E-04-1.11942E-14
 -1      2017 6.82905E-03 6.58461E-04-1.11667E-14
 -1      2018 7.33994E-03 7.95100E-04-1.27488E-14
 -1      2019 7.18163E-03 7.57918E-04-1.22182E-14
 -1      2020 7.15009E-03 7.23912E-04-1.21898E-14
 -1      2021 7.65122E-03 8.72342E-04-1.38421E-14
 -1      2022 7.49674E-03 8.33758E-04-1.32890E-14
 -1      2023 7.46775E-03 8.00267E-04-1.32574E-14
 -1      2024 7.95315E-03 9.41854E-04-1.49806E-14
 -1      2025 7.80348E-03 9.08985E-04-1.44057E-14
 -1      2026 7.77878E-03 8.77363E-04-1.43716E-14
 -1      2027 8.24560E-03 9.87346E-04-1.61634E-14
 -1      2028 8.10039E-03 9.68473E-04-1.55668E-14
 -1      2029 8.08115E-03 9.39894E-04-1.55315E-14
 -1      2030 8.53165E-03 9.94397E-04-1.73944E-14
 -1      2031 8.38896E-03 9.96150E-04-1.67732E-14
 -1      2032 8.37554E-03 9.70995E-04-1.67352E-14
 -1      2033 8.81696E-03 9.56321E-04-1.86732E-14
 -1      2034 8.67379E-03 9.80833E-04-1.80273E-14
 -1      2035 8.66598E-03 9.58428E-04-1.79889E-14
 -1      2036 9.10750E-03 8.77324E-04-2.00052E-14
 -1      2037 8.96109E-03 9.21206E-04-1.93320E-14
 -1      2038 8.95838E-03 9.00150E-04-1.92926E-14
 -1      2039 9.40708E-03 7.70482E-04-2.13887E-14
 -1      2040 9.25595E-03 8.26405E-04-2.06902E-14
 -1      2041 9.25770E-03 8.05303E-04-2.06482E-14
 -1      2042 9.71631E-03 6.52165E-04-2.28269E-14
 -1      2043 9.56056E-03 7.11884E-04-2.21023E-14
 -1      2044 9.56582E-03 6.89869E-04-2.20581E-14
 -1      2045 1.00331E-02 5.36510E-04-2.43165E-14
 -1      2046 9.87402E-03 5.93442E-04-2.35635E-14
 -1      2047 9.88152E-03 5.70256E-04-2.35180E-14
 -1      2048 1.03543E-02 4.32492E-04-2.58669E-14
 -1      2049 1.01935E-02 4.82810E-04-2.50847E-14
 -1      2050 1.02018E-02 4.58592E-04-2.50358E-14
 -1      2051 1.06766E-02 3.43831E-04-2.74683E-14
 -1      2052 1.05156E-02 3.86244E-04-2.66612E-14
 -1      2053 1.05234E-02 3.61286E-04-2.66101E-14
 -1      2054 1.09972E-02 2.70430E-04-2.91221E-14
 -1      2055 1.08373E-02 3.05357E-04-2.82902E-14
 -1      2056 1.08437E-02 2.79954E-04-2.82358E-14
 -1      2057 1.13146E-02 2.10075E-04-3.08215E-14
 -1      2058 1.11565E-02 2.38802E-04-2.99669E-14
 -1      2059 1.11611E-02 2.13199E-04-2.99092E-14
 -1      2060 1.16278E-02 1.59779E-04-3.25586E-14
 -1      2061 1.14718E-02 1.83846E-04-3.16849E-14
 -1      2062 1.14744E-02 1.58226E-04-3.16230E-14
 -1      2063 1.19364E-02 1.16594E-04-3.43312E-14
 -1      2064 1.17826E-02 1.37448E-04-3.34409E-14
 -1      2065 1.17835E-02 1.11934E-04-3.33752E-14
 -1      2066 1.22405E-02 7.79999E-05-3.61265E-14
 -1      2067 1.20890E-02 9.68396E-05-3.52256E-14
 -1      2068 1.20884E-02 7.15107E-05-3.51561E-14
 -1      2069 1.25407E-02 4.20197E-05-3.79462E-14
 -1      2070 1.23911E-02 5.97678E-05-3.70336E-14
 -1      2071 1.23893E-02 3.46660E-05-3.69614E-14
 -1      2072 1.28373E-02 7.19593E-06-3.97895E-14
 -1      2073 1.26894E-02 2.45222E-05-3.88648E-14
 -1      2074 1.26868E-02-3.36386E-07-3.87901E-14
 -1      2075 1.31310E-02-2.74984E-05-4.16531E-14
 -1      2076 1.29845E-02-1.01281E-05-4.07202E-14
 -1      2077 1.29813E-02-3.47447E-05-4.06441E-14
 -1      2078 1.34222E-02-6.27620E-05-4.35362E-14
 -1      2079 1.32769E-02-4.50338E-05-4.25923E-14
 -1      2080 1.32734E-02-6.94198E-05-4.25142E-14
 -1      2081 1.37116E-02-9.90559E-05-4.54394E-14
 -1      2082 1.35671E-02-8.07646E-05-4.44843E-14
 -1      2083 1.35635E-02-1.04936E-04-4.44036E-14
 -1      2084 1.39995E-02-1.36669E-04-4.73586E-14
 -1      2085 1.38557E-02-1.17690E-04-4.63973E-14
 -1      2086 1.38521E-02-1.41665E-04-4.63154E-14
 -1      2087 1.42864E-02-1.75739E-04-4.92898E-14
 -1      2088 1.41431E-02-1.56023E-04-4.83228E-14
 -1      2089 1.41395E-02-1.79823E-04-4.82415E-14
 -1      2090 1.45232E-02-2.11910E-04-5.08832E-14
 -1      2091 1.43801E-02-1.91624E-04-4.99160E-14
 -1      2092 1.43766E-02-2.15299E-04-4.98350E-14
 -1      2093 1.45639E-02-2.47390E-04-5.10875E-14
 -1      2094 1.46518E-02-4.74067E-04-5.11508E-14
 -1      2095 1.46298E-02-4.33045E-04-5.11007E-14
 -1      2096 1.46079E-02-3.91785E-04-5.10491E-14
 -1      2097 1.45863E-02-3.50326E-04-5.09993E-14
 -1      2098 1.44953E-02-3.94870E-04-5.02297E-14
 -1      2099 1.45854E-02-3.19870E-04-5.10674E-14
 -1      2100 1.45644E-02-2.78075E-04-5.10174E-14
 -1      2101 1.44707E-02-2.61990E-04-5.03905E-14
 -1      2102 1.44723E-02-3.23132E-04-5.02506E-14
 -1      2103 1.46953E-02-5.54068E-04-5.12492E-14
 -1      2104 1.46735E-02-5.14178E-04-5.12002E-14
 -1      2105 1.45391E-02-4.76169E-04-5.03240E-14
 -1      2106 1.47393E-02-6.34599E-04-5.13399E-14
 -1      2107 1.47173E-02-5.94430E-04-5.12951E-14
 -1      2108 1.45832E-02-5.56568E-04-5.04134E-14
 -1      2109 1.47824E-02-7.14439E-04-5.14175E-14
 -1      2110 1.47610E-02-6.74585E-04-5.13810E-14
 -1      2111 1.46271E-02-6.36836E-04-5.04958E-14
 -1      2112 1.48242E-02-7.93847E-04-5.14928E-14
 -1      2113 1.48035E-02-7.54169E-04-5.14549E-14
 -1      2114 1.46701E-02-7.16477E-04-5.05704E-14
 -1      2115 1.48646E-02-8.73143E-04-5.15511E-14
 -1      2116 1.48446E-02-8.33479E-04-5.15237E-14
 -1      2117 1.47116E-02-7.95762E-04-5.06359E-14
 -1      2118 1.49035E-02-9.52668E-04-5.15938E-14
 -1      2119 1.48842E-02-9.12848E-04-5.15751E-14
 -1      2120 1.47516E-02-8.75014E-04-5.06889E-14
 -1      2121 1.49407E-02-1.03137E-03-5.16201E-14
 -1      2122 1.49222E-02-9.91932E-04-5.16091E-14
 -1      2123 1.47898E-02-9.53886E-04-5.07257E-14
 -1      2124 1.49779E-02-1.11220E-03-5.16261E-14
 -1      2125 1.49594E-02-1.07168E-03-5.16250E-14
 -1      2126 1.48269E-02-1.03334E-03-5.07425E-14
 -1      2127 1.50152E-02-1.19395E-03-5.16169E-14
 -1      2128 1.49965E-02-1.15296E-03-5.16225E-14
 -1      2129 1.48639E-02-1.11429E-03-5.07425E-14
 -1      2130 1.50533E-02-1.27662E-03-5.15948E-14
 -1      2131 1.50341E-02-1.23518E-03-5.16062E-14
 -1      2132 1.49011E-02-1.19618E-03-5.07304E-14
 -1      2133 1.05948E-02-1.37408E-04-2.15721E-14
 -1      2134 1.07340E-02-1.85889E-04-2.17193E-14
 -1      2135 1.09961E-02-2.84888E-04-2.20193E-14
 -1      2136 1.10060E-02-2.99902E-04-2.19993E-14
 -1      2137 1.08468E-02-2.26360E-04-2.18445E-14
 -1      2138 1.09325E-02-2.55599E-04-2.19722E-14
 -1      2139 1.07864E-02-2.27647E-04-2.21276E-14
 -1      2140 1.02280E-02 3.03733E-05-2.10283E-14
 -1      2141 1.04025E-02-5.21189E-05-2.12812E-14
 -1      2142 9.84551E-03 2.24023E-04-2.04665E-14
 -1      2143 1.00244E-02 1.27488E-04-2.07505E-14
 -1      2144 3.27290E-04-8.87952E-05-4.96294E-17
 -1      2145 3.29318E-04-1.01963E-04-4.64716E-17
 -1      2146 4.46336E-04-1.44791E-04-6.75187E-17
 -1      2147 4.40186E-04-1.09645E-04-7.54198E-17
 -1      2148 9.10577E-03 6.19656E-04-1.89949E-14
 -1      2149 9.26598E-03 5.40197E-04-1.93630E-14
 -1      2150 8.77753E-03 7.21652E-04-1.81764E-14
 -1      2151 8.92372E-03 6.86140E-04-1.85547E-14
 -1      2152 8.45545E-03 7.14101E-04-1.73488E-14
 -1      2153 8.60462E-03 7.33907E-04-1.77362E-14
 -1      2154 8.08417E-03 5.82101E-04-1.65291E-14
 -1      2155 8.25094E-03 6.54388E-04-1.68755E-14
 -1      2156 7.72003E-03 3.97585E-04-1.58640E-14
 -1      2157 7.89328E-03 4.90606E-04-1.61618E-14
 -1      2158 7.34950E-03 2.04701E-04-1.53026E-14
 -1      2159 7.53456E-03 3.02766E-04-1.55821E-14
 -1      2160 7.65702E-03 3.46951E-04-1.55621E-14
 -1      2161 6.93269E-03 1.81913E-05-1.48049E-14
 -1      2162 7.10238E-03 8.68461E-05-1.49744E-14
 -1      2163 6.66202E-03-8.65699E-05-1.44684E-14
 -1      2164 6.78660E-03-4.06170E-05-1.46366E-14
 -1      2165 6.86503E-03-2.81039E-05-1.44696E-14
 -1      2166 6.48388E-03-1.49148E-04-1.43256E-14
 -1      2167 6.53808E-03-1.30512E-04-1.43411E-14
 -1      2168 6.49018E-03-1.89057E-04-1.43627E-14
 -1      2169 6.46896E-03-1.71217E-04-1.43528E-14
 -1      2170 6.64952E-03-2.44794E-04-1.44153E-14
 -1      2171 6.55254E-03-2.15209E-04-1.43646E-14
 -1      2172 6.96930E-03-3.74580E-04-1.47355E-14
 -1      2173 6.81551E-03-3.08260E-04-1.45639E-14
 -1      2174 7.32756E-03-5.33486E-04-1.50472E-14
 -1      2175 7.14084E-03-4.49325E-04-1.48896E-14
 -1      2176 7.06538E-03-3.83031E-04-1.45547E-14
 -1      2177 7.76939E-03-7.94355E-04-1.57204E-14
 -1      2178 7.58586E-03-6.78211E-04-1.54075E-14
 -1      2179 8.11155E-03-9.97663E-04-1.63176E-14
 -1      2180 7.94071E-03-8.97457E-04-1.60169E-14
 -1      2181 7.88581E-03-8.37292E-04-1.57143E-14
 -1      2182 8.46129E-03-1.16797E-03-1.70382E-14
 -1      2183 8.30965E-03-1.09986E-03-1.67094E-14
 -1      2184 8.77354E-03-1.23973E-03-1.77823E-14
 -1      2185 8.63220E-03-1.21832E-03-1.74349E-14
 -1      2186 9.08216E-03-1.20585E-03-1.85449E-14
 -1      2187 8.93980E-03-1.23522E-03-1.81901E-14
 -1      2188 9.41026E-03-1.07582E-03-1.93267E-14
 -1      2189 9.25217E-03-1.15022E-03-1.89566E-14
 -1      2190 9.79624E-03-8.72073E-04-2.00960E-14
 -1      2191 9.61783E-03-9.70360E-04-1.97648E-14
 -1      2192 1.01640E-02-6.71696E-04-2.07608E-14
 -1      2193 9.99179E-03-7.63507E-04-2.04748E-14
 -1      2194 1.05140E-02-5.07079E-04-2.12833E-14
 -1      2195 1.03578E-02-5.78073E-04-2.10537E-14
 -1      2196 1.07994E-02-3.93056E-04-2.16663E-14
 -1      2197 1.06741E-02-4.41845E-04-2.14818E-14
 -1      2198 1.09763E-02-3.23050E-04-2.19809E-14
 -1      2199 1.09121E-02-3.46054E-04-2.18924E-14
 -1      2200 9.47133E-03 4.34445E-04-1.97738E-14
 -1      2201 9.64755E-03 3.36016E-04-2.00959E-14
 -1      2202 9.72393E-03 2.63415E-04-2.04748E-14
 -1      2203 6.07317E-04-2.97558E-04-5.93330E-17
 -1      2204 9.34596E-03 4.84027E-04-1.96865E-14
 -1      2205 6.63156E-04-2.91743E-04-8.68039E-17
 -1      2206 1.09718E-02-2.80005E-04-2.23057E-14
 -1      2207 1.04913E-02-1.20009E-04-2.17042E-14
 -1      2208 1.50271E-02-1.30380E-03-5.12858E-14
 -1      2209 1.10004E-02-3.11333E-04-2.23363E-14
 -1      2210 1.01038E-02 5.62934E-05-2.11307E-14
 -1      2211 1.08603E-02-3.56859E-04-2.20913E-14
 -1      2212 1.05882E-02-4.56509E-04-2.16643E-14
 -1      2213 1.02475E-02-6.08035E-04-2.11680E-14
 -1      2214 9.87835E-03-8.06822E-04-2.04889E-14
 -1      2215 9.50011E-03-1.02377E-03-1.96656E-14
 -1      2216 9.15850E-03-1.18740E-03-1.88100E-14
 -1      2217 8.85853E-03-1.25026E-03-1.79873E-14
 -1      2218 8.22780E-03-1.04740E-03-1.63953E-14
 -1      2219 7.47563E-03-5.89115E-04-1.50612E-14
 -1      2220 7.36624E-03-5.15503E-04-1.47191E-14
 -1      2221 7.60456E-03-6.50424E-04-1.50738E-14
 -1      2222 6.72986E-03-2.54864E-04-1.42566E-14
 -1      2223 6.51313E-03-1.88336E-04-1.41094E-14
 -1      2224 6.59058E-03-1.16954E-04-1.41787E-14
 -1      2225 7.24158E-03 1.35099E-04-1.49586E-14
 -1      2226 8.00154E-03 5.35488E-04-1.62040E-14
 -1      2227 8.35769E-03 6.93623E-04-1.70382E-14
 -1      2228 8.99809E-03 6.59845E-04-1.88307E-14
 -1      2229 8.68379E-03 7.39607E-04-1.79498E-14
 -1      2230 6.46653E-03-1.58287E-04-1.40803E-14
 -1      2231 8.55934E-03-1.20303E-03-1.71815E-14
 -1      2232 1.01592E-03 3.98318E-04-1.97528E-16
 -1      2233 8.71529E-04 3.62314E-04-1.42966E-16
 -1      2234 5.48201E-04-5.50557E-05-1.20008E-16
 -1      2235 5.49214E-04-7.17162E-05-1.18408E-16
 -1      2236 5.50603E-04-8.89910E-05-1.16362E-16
 -1      2237 5.52421E-04-1.06937E-04-1.13611E-16
 -1      2238 6.65725E-04-9.50320E-05-1.59378E-16
 -1      2239 5.46843E-04 8.82173E-06-1.21824E-16
 -1      2240 5.46825E-04-6.94206E-06-1.22054E-16
 -1      2241 5.47581E-04 4.06902E-05-1.20197E-16
 -1      2242 5.47092E-04 2.46856E-05-1.21282E-16
 -1      2243 6.61834E-04 1.98306E-05-1.64812E-16
 -1      2244 5.49367E-04 7.31902E-05-1.16741E-16
 -1      2245 5.48327E-04 5.67557E-05-1.18707E-16
 -1      2246 6.63137E-04 5.74941E-05-1.62142E-16
 -1      2247 5.52684E-04 1.08568E-04-1.11619E-16
 -1      2248 5.50803E-04 9.05364E-05-1.14519E-16
 -1      2249 6.65948E-04 9.67981E-05-1.57507E-16
 -1      2250 5.58439E-04 1.47840E-04-1.03853E-16
 -1      2251 5.55191E-04 1.27643E-04-1.08081E-16
 -1      2252 6.70946E-04 1.39442E-04-1.50162E-16
 -1      2253 5.68574E-04 1.93398E-04-9.25638E-17
 -1      2254 5.62842E-04 1.69699E-04-9.88521E-17
 -1      2255 6.79436E-04 1.86901E-04-1.39469E-16
 -1      2256 1.30128E-03 4.54292E-04-3.36414E-16
 -1      2257 1.15900E-03 4.28870E-04-2.61794E-16
 -1      2258 1.07132E-03 3.79656E-04-2.43824E-16
 -1      2259 9.14758E-04-3.45144E-04-1.78677E-16
 -1      2260 1.05881E-03-3.78061E-04-2.39067E-16
 -1      2261 9.25500E-03 5.26998E-04-1.96545E-14
 -1      2262 9.42582E-03 4.23141E-04-2.00713E-14
 -1      2263 1.20204E-03-4.05977E-04-3.09282E-16
 -1      2264 1.34484E-03-4.29295E-04-3.89500E-16
 -1      2265 1.11672E-03-3.58693E-04-2.87259E-16
 -1      2266 1.48703E-03-4.48865E-04-4.80207E-16
 -1      2267 1.62885E-03-4.64961E-04-5.81715E-16
 -1      2268 1.40308E-03-4.04351E-04-4.51286E-16
 -1      2269 1.77034E-03-4.78238E-04-6.93442E-16
 -1      2270 1.91163E-03-4.88903E-04-8.15821E-16
 -1      2271 1.68830E-03-4.36109E-04-6.56200E-16
 -1      2272 2.05281E-03-4.97433E-04-9.48975E-16
 -1      2273 2.19393E-03-5.03996E-04-1.09354E-15
 -1      2274 1.97270E-03-4.57217E-04-9.03425E-16
 -1      2275 2.33510E-03-5.08932E-04-1.24918E-15
 -1      2276 2.47634E-03-5.12376E-04-1.41609E-15
 -1      2277 2.25669E-03-4.70212E-04-1.19422E-15
 -1      2278 2.61772E-03-5.14569E-04-1.59397E-15
 -1      2279 2.75926E-03-5.15620E-04-1.78252E-15
 -1      2280 2.54068E-03-4.77018E-04-1.52916E-15
 -1      2281 2.90101E-03-5.15696E-04-1.98184E-15
 -1      2282 3.04300E-03-5.14885E-04-2.19264E-15
 -1      2283 2.82495E-03-4.79068E-04-1.90769E-15
 -1      2284 3.18526E-03-5.13301E-04-2.41384E-15
 -1      2285 3.32782E-03-5.11016E-04-2.64579E-15
 -1      2286 3.10976E-03-4.77415E-04-2.32991E-15
 -1      2287 3.47070E-03-5.08111E-04-2.88918E-15
 -1      2288 3.61394E-03-5.04646E-04-3.14318E-15
 -1      2289 3.39529E-03-4.72832E-04-2.79568E-15
 -1      2290 3.75755E-03-5.00682E-04-3.40773E-15
 -1      2291 3.90160E-03-4.96281E-04-3.68405E-15
 -1      2292 3.68172E-03-4.65904E-04-3.30510E-15
 -1      2293 4.04608E-03-4.91498E-04-3.97122E-15
 -1      2294 4.19108E-03-4.86403E-04-4.27071E-15
 -1      2295 3.96923E-03-4.57111E-04-3.85870E-15
 -1      2296 4.33658E-03-4.81068E-04-4.58196E-15
 -1      2297 4.48271E-03-4.75581E-04-4.90383E-15
 -1      2298 4.25800E-03-4.46932E-04-4.45813E-15
 -1      2299 4.62941E-03-4.70053E-04-5.23667E-15
 -1      2300 4.77686E-03-4.64607E-04-5.58100E-15
 -1      2301 4.54825E-03-4.35954E-04-5.10329E-15
 -1      2302 4.92499E-03-4.59420E-04-5.93664E-15
 -1      2303 5.07401E-03-4.54672E-04-6.30237E-15
 -1      2304 4.84023E-03-4.25010E-04-5.79224E-15
 -1      2305 5.22387E-03-4.50641E-04-6.67999E-15
 -1      2306 5.37478E-03-4.47595E-04-7.06886E-15
 -1      2307 5.13432E-03-4.15350E-04-6.52634E-15
 -1      2308 5.52673E-03-4.45951E-04-7.46893E-15
 -1      2309 5.67997E-03-4.46107E-04-7.88058E-15
 -1      2310 5.43101E-03-4.08858E-04-7.30476E-15
 -1      2311 5.83453E-03-4.48650E-04-8.30464E-15
 -1      2312 5.99069E-03-4.54178E-04-8.74077E-15
 -1      2313 5.73116E-03-4.08318E-04-8.12982E-15
 -1      2314 6.14864E-03-4.63442E-04-9.18902E-15
 -1      2315 6.30858E-03-4.77333E-04-9.64997E-15
 -1      2316 6.03616E-03-4.17725E-04-9.00351E-15
 -1      2317 6.47103E-03-4.96699E-04-1.01238E-14
 -1      2318 6.63596E-03-5.22793E-04-1.06097E-14
 -1      2319 6.34833E-03-4.42615E-04-9.92550E-15
 -1      2320 6.80434E-03-5.56394E-04-1.11087E-14
 -1      2321 6.97562E-03-5.99062E-04-1.16186E-14
 -1      2322 6.67129E-03-4.90318E-04-1.08983E-14
 -1      2323 7.15119E-03-6.51127E-04-1.21404E-14
 -1      2324 7.32959E-03-7.13903E-04-1.26745E-14
 -1      2325 7.00965E-03-5.69956E-04-1.19181E-14
 -1      2326 7.51246E-03-7.86729E-04-1.32225E-14
 -1      2327 7.69657E-03-8.69573E-04-1.37810E-14
 -1      2328 7.36750E-03-6.90303E-04-1.29870E-14
 -1      2329 7.88293E-03-9.59828E-04-1.43517E-14
 -1      2330 8.06748E-03-1.05282E-03-1.49365E-14
 -1      2331 7.74362E-03-8.56151E-04-1.41033E-14
 -1      2332 8.24962E-03-1.14401E-03-1.55342E-14
 -1      2333 8.42790E-03-1.22399E-03-1.61473E-14
 -1      2334 8.12549E-03-1.05121E-03-1.52690E-14
 -1      2335 8.60036E-03-1.28714E-03-1.67773E-14
 -1      2336 8.77122E-03-1.32415E-03-1.74224E-14
 -1      2337 8.49484E-03-1.22595E-03-1.64928E-14
 -1      2338 8.93726E-03-1.33292E-03-1.80815E-14
 -1      2339 9.10836E-03-1.31326E-03-1.87588E-14
 -1      2340 8.84562E-03-1.30813E-03-1.77818E-14
 -1      2341 9.28126E-03-1.26788E-03-1.94508E-14
 -1      2342 9.46007E-03-1.20686E-03-2.01560E-14
 -1      2343 9.19710E-03-1.26015E-03-1.91336E-14
 -1      2344 9.64275E-03-1.13559E-03-2.08740E-14
 -1      2345 9.82748E-03-1.06328E-03-2.16057E-14
 -1      2346 9.56761E-03-1.12300E-03-2.05415E-14
 -1      2347 1.00138E-02-9.94426E-04-2.23502E-14
 -1      2348 1.01976E-02-9.33267E-04-2.31052E-14
 -1      2349 9.94961E-03-9.69909E-04-2.20016E-14
 -1      2350 1.03800E-02-8.82174E-04-2.38708E-14
 -1      2351 1.05580E-02-8.41158E-04-2.46482E-14
 -1      2352 1.03247E-02-8.47996E-04-2.35100E-14
 -1      2353 1.07332E-02-8.10875E-04-2.54378E-14
 -1      2354 1.09041E-02-7.89851E-04-2.62357E-14
 -1      2355 1.06813E-02-7.71178E-04-2.50646E-14
 -1      2356 1.10721E-02-7.77750E-04-2.70434E-14
 -1      2357 1.12368E-02-7.72987E-04-2.78593E-14
 -1      2358 1.10187E-02-7.34874E-04-2.66604E-14
 -1      2359 1.13990E-02-7.74793E-04-2.86848E-14
 -1      2360 1.15587E-02-7.81931E-04-2.95172E-14
 -1      2361 1.13410E-02-7.29749E-04-2.82903E-14
 -1      2362 1.17165E-02-7.93551E-04-3.03579E-14
 -1      2363 1.18726E-02-8.08787E-04-3.12069E-14
 -1      2364 1.16528E-02-7.46833E-04-2.99542E-14
 -1      2365 1.20271E-02-8.26887E-04-3.20610E-14
 -1      2366 1.21803E-02-8.47273E-04-3.29221E-14
 -1      2367 1.19576E-02-7.78893E-04-3.16480E-14
 -1      2368 1.23323E-02-8.69361E-04-3.37924E-14
 -1      2369 1.24832E-02-8.92770E-04-3.46691E-14
 -1      2370 1.22577E-02-8.20482E-04-3.33741E-14
 -1      2371 1.26332E-02-9.17082E-04-3.55503E-14
 -1      2372 1.27824E-02-9.42047E-04-3.64390E-14
 -1      2373 1.25545E-02-8.67678E-04-3.51258E-14
 -1      2374 1.29308E-02-9.67387E-04-3.73338E-14
 -1      2375 1.30785E-02-9.92939E-04-3.82365E-14
 -1      2376 1.28488E-02-9.17762E-04-3.69041E-14
 -1      2377 1.32255E-02-1.01853E-03-3.91468E-14
 -1      2378 1.33720E-02-1.04405E-03-4.00642E-14
 -1      2379 1.31412E-02-9.68912E-04-3.87124E-14
 -1      2380 1.35180E-02-1.06940E-03-4.09874E-14
 -1      2381 1.36636E-02-1.09450E-03-4.19236E-14
 -1      2382 1.34320E-02-1.01996E-03-4.05457E-14
 -1      2383 1.38087E-02-1.11932E-03-4.28708E-14
 -1      2384 1.39535E-02-1.14379E-03-4.38250E-14
 -1      2385 1.37216E-02-1.07017E-03-4.24127E-14
 -1      2386 1.40979E-02-1.16789E-03-4.47918E-14
 -1      2387 1.42420E-02-1.19159E-03-4.57678E-14
 -1      2388 1.40100E-02-1.11911E-03-4.43224E-14
 -1      2389 1.43859E-02-1.21490E-03-4.67555E-14
 -1      2390 1.45296E-02-1.23777E-03-4.77512E-14
 -1      2391 1.42976E-02-1.16653E-03-4.62732E-14
 -1      2392 1.07412E-02-2.30169E-04-2.25069E-14
 -1      2393 1.08457E-02-2.57803E-04-2.26375E-14
 -1      2394 1.86454E-03 5.19776E-04-7.38938E-16
 -1      2395 1.72424E-03 5.07942E-04-6.22318E-16
 -1      2396 2.14493E-03 5.36828E-04-1.00462E-15
 -1      2397 2.00476E-03 5.29345E-04-8.66318E-16
 -1      2398 1.92430E-03 4.88691E-04-8.25295E-16
 -1      2399 2.42557E-03 5.46788E-04-1.31409E-15
 -1      2400 2.28519E-03 5.42593E-04-1.15385E-15
 -1      2401 2.20675E-03 5.03583E-04-1.10422E-15
 -1      2402 2.70695E-03 5.51367E-04-1.66779E-15
 -1      2403 2.56615E-03 5.49672E-04-1.48538E-15
 -1      2404 2.48929E-03 5.11893E-04-1.42685E-15
 -1      2405 2.98942E-03 5.51834E-04-2.06656E-15
 -1      2406 2.84803E-03 5.52053E-04-1.86082E-15
 -1      2407 2.77233E-03 5.15197E-04-1.79281E-15
 -1      2408 3.27324E-03 5.49145E-04-2.50941E-15
 -1      2409 3.13115E-03 5.50836E-04-2.28275E-15
 -1      2410 3.05615E-03 5.14664E-04-2.20390E-15
 -1      2411 3.55866E-03 5.44045E-04-2.99767E-15
 -1      2412 3.41574E-03 5.46855E-04-2.74805E-15
 -1      2413 3.34100E-03 5.11180E-04-2.65998E-15
 -1      2414 3.84591E-03 5.37161E-04-3.53072E-15
 -1      2415 3.70204E-03 5.40787E-04-3.25847E-15
 -1      2416 3.62710E-03 5.05439E-04-3.16010E-15
 -1      2417 4.13528E-03 5.29109E-04-4.11016E-15
 -1      2418 3.99031E-03 5.33239E-04-3.81425E-15
 -1      2419 3.91466E-03 4.98043E-04-3.70584E-15
 -1      2420 4.42707E-03 5.20594E-04-4.73880E-15
 -1      2421 4.28084E-03 5.24859E-04-4.41871E-15
 -1      2422 4.20393E-03 4.89598E-04-4.29879E-15
 -1      2423 4.72165E-03 5.12526E-04-5.41524E-15
 -1      2424 4.57397E-03 5.16438E-04-5.07049E-15
 -1      2425 4.49523E-03 4.80823E-04-4.93991E-15
 -1      2426 5.01943E-03 5.06142E-04-6.13990E-15
 -1      2427 4.87010E-03 5.09035E-04-5.77191E-15
 -1      2428 4.78889E-03 4.72663E-04-5.62874E-15
 -1      2429 5.32083E-03 5.03126E-04-6.91388E-15
 -1      2430 5.16964E-03 5.04097E-04-6.52165E-15
 -1      2431 5.08536E-03 4.66410E-04-6.36555E-15
 -1      2432 5.62624E-03 5.05698E-04-7.73435E-15
 -1      2433 5.47301E-03 5.03566E-04-7.31727E-15
 -1      2434 5.38512E-03 4.63821E-04-7.15083E-15
 -1      2435 5.93598E-03 5.16621E-04-8.60180E-15
 -1      2436 5.78059E-03 5.09939E-04-8.16236E-15
 -1      2437 5.68875E-03 4.67205E-04-7.98224E-15
 -1      2438 6.25015E-03 5.39029E-04-9.51236E-15
 -1      2439 6.09258E-03 5.26200E-04-9.05150E-15
 -1      2440 5.99687E-03 4.79420E-04-8.86059E-15
 -1      2441 6.56846E-03 5.75945E-04-1.04641E-14
 -1      2442 6.40893E-03 5.55515E-04-9.98396E-15
 -1      2443 6.31000E-03 5.03700E-04-9.78338E-15
 -1      2444 6.88992E-03 6.29295E-04-1.14584E-14
 -1      2445 6.72903E-03 6.00518E-04-1.09555E-14
 -1      2446 6.62839E-03 5.43149E-04-1.07467E-14
 -1      2447 7.21254E-03 6.98331E-04-1.24926E-14
 -1      2448 7.05141E-03 6.62044E-04-1.19698E-14
 -1      2449 6.95147E-03 5.99702E-04-1.17496E-14
 -1      2450 7.53321E-03 7.77628E-04-1.35723E-14
 -1      2451 7.37348E-03 7.37261E-04-1.30263E-14
 -1      2452 7.27731E-03 6.72364E-04-1.27958E-14
 -1      2453 7.84826E-03 8.55589E-04-1.46981E-14
 -1      2454 7.69167E-03 8.17749E-04-1.41296E-14
 -1      2455 7.60230E-03 7.54868E-04-1.38872E-14
 -1      2456 8.15519E-03 9.15168E-04-1.58680E-14
 -1      2457 8.00267E-03 8.88877E-04-1.52773E-14
 -1      2458 7.92188E-03 8.33903E-04-1.50242E-14
 -1      2459 8.45472E-03 9.38428E-04-1.70886E-14
 -1      2460 8.30539E-03 9.32305E-04-1.64728E-14
 -1      2461 8.23296E-03 8.90161E-04-1.62090E-14
 -1      2462 8.75150E-03 9.14002E-04-1.83554E-14
 -1      2463 8.60273E-03 9.32447E-04-1.77153E-14
 -1      2464 8.53682E-03 9.04391E-04-1.74414E-14
 -1      2465 9.05181E-03 8.42800E-04-1.96748E-14
 -1      2466 8.90061E-03 8.83617E-04-1.90091E-14
 -1      2467 8.83939E-03 8.66496E-04-1.87236E-14
 -1      2468 9.35984E-03 7.37754E-04-2.10451E-14
 -1      2469 9.20465E-03 7.93398E-04-2.03527E-14
 -1      2470 9.14750E-03 7.81539E-04-2.00584E-14
 -1      2471 9.67586E-03 6.17047E-04-2.24699E-14
 -1      2472 9.51703E-03 6.78221E-04-2.17506E-14
 -1      2473 9.46429E-03 6.66582E-04-2.14439E-14
 -1      2474 9.99702E-03 4.97140E-04-2.39454E-14
 -1      2475 9.83615E-03 5.56203E-04-2.32015E-14
 -1      2476 9.78792E-03 5.41863E-04-2.28827E-14
 -1      2477 1.03197E-02 3.88627E-04-2.54779E-14
 -1      2478 1.01585E-02 4.41067E-04-2.47043E-14
 -1      2479 1.01140E-02 4.23136E-04-2.43737E-14
 -1      2480 1.06409E-02 2.96072E-04-2.70645E-14
 -1      2481 1.04807E-02 3.40268E-04-2.62647E-14
 -1      2482 1.04384E-02 3.18961E-04-2.59176E-14
 -1      2483 1.09587E-02 2.19689E-04-2.87022E-14
 -1      2484 1.08004E-02 2.55953E-04-2.78773E-14
 -1      2485 1.07586E-02 2.31892E-04-2.75190E-14
 -1      2486 1.12725E-02 1.57277E-04-3.03867E-14
 -1      2487 1.11162E-02 1.86906E-04-2.95386E-14
 -1      2488 1.10737E-02 1.60775E-04-2.91689E-14
 -1      2489 1.15818E-02 1.05737E-04-3.21066E-14
 -1      2490 1.14277E-02 1.30332E-04-3.12415E-14
 -1      2491 1.13837E-02 1.02746E-04-3.08614E-14
 -1      2492 1.18870E-02 6.19573E-05-3.38641E-14
 -1      2493 1.17350E-02 8.30425E-05-3.29808E-14
 -1      2494 1.16891E-02 5.45198E-05-3.25885E-14
 -1      2495 1.21884E-02 2.32513E-05-3.56488E-14
 -1      2496 1.20382E-02 4.21055E-05-3.47537E-14
 -1      2497 1.19905E-02 1.30619E-05-3.43520E-14
 -1      2498 1.24865E-02-1.25043E-05-3.74591E-14
 -1      2499 1.23378E-02 5.10876E-06-3.65519E-14
 -1      2500 1.22885E-02-2.41348E-05-3.61420E-14
 -1      2501 1.27817E-02-4.68863E-05-3.92921E-14
 -1      2502 1.26344E-02-2.97906E-05-3.83717E-14
 -1      2503 1.25838E-02-5.89981E-05-3.79549E-14
 -1      2504 1.30745E-02-8.10097E-05-4.11474E-14
 -1      2505 1.29283E-02-6.39262E-05-4.02188E-14
 -1      2506 1.28767E-02-9.29316E-05-3.97916E-14
 -1      2507 1.33653E-02-1.15633E-04-4.30233E-14
 -1      2508 1.32201E-02-9.82213E-05-4.20841E-14
 -1      2509 1.31678E-02-1.26912E-04-4.16514E-14
 -1      2510 1.36545E-02-1.51254E-04-4.49191E-14
 -1      2511 1.35101E-02-1.33293E-04-4.39671E-14
 -1      2512 1.34574E-02-1.61595E-04-4.35322E-14
 -1      2513 1.39425E-02-1.88190E-04-4.68356E-14
 -1      2514 1.37986E-02-1.69540E-04-4.58748E-14
 -1      2515 1.37458E-02-1.97403E-04-4.54349E-14
 -1      2516 1.42295E-02-2.26615E-04-4.87644E-14
 -1      2517 1.40861E-02-2.07205E-04-4.77975E-14
 -1      2518 1.40331E-02-2.34604E-04-4.73556E-14
 -1      2519 1.43770E-02-2.46053E-04-4.97622E-14
 -1      2520 1.44712E-02-5.59262E-04-4.95792E-14
 -1      2521 1.44489E-02-5.18994E-04-4.95380E-14
 -1      2522 1.45151E-02-6.39209E-04-4.96529E-14
 -1      2523 1.44933E-02-5.99320E-04-4.96159E-14
 -1      2524 1.43593E-02-5.62078E-04-4.87449E-14
 -1      2525 1.43827E-02-3.98195E-04-4.94092E-14
 -1      2526 1.43606E-02-3.56995E-04-4.93626E-14
 -1      2527 1.44267E-02-4.78848E-04-4.94970E-14
 -1      2528 1.44048E-02-4.38817E-04-4.94528E-14
 -1      2529 1.42701E-02-4.01401E-04-4.85864E-14
 -1      2530 1.43147E-02-4.82055E-04-4.86694E-14
 -1      2531 1.45579E-02-7.18568E-04-4.97226E-14
 -1      2532 1.45367E-02-6.78938E-04-4.96902E-14
 -1      2533 1.44033E-02-6.41625E-04-4.88150E-14
 -1      2534 1.45990E-02-7.97633E-04-4.97829E-14
 -1      2535 1.45787E-02-7.58109E-04-4.97544E-14
 -1      2536 1.44458E-02-7.20613E-04-4.88794E-14
 -1      2537 1.46386E-02-8.76738E-04-4.98274E-14
 -1      2538 1.46190E-02-8.37152E-04-4.98055E-14
 -1      2539 1.44865E-02-7.99366E-04-4.89307E-14
 -1      2540 1.46760E-02-9.54868E-04-4.98544E-14
 -1      2541 1.46574E-02-9.15733E-04-4.98433E-14
 -1      2542 1.45252E-02-8.77571E-04-4.89667E-14
 -1      2543 1.47130E-02-1.03501E-03-4.98655E-14
 -1      2544 1.46946E-02-9.94836E-04-4.98637E-14
 -1      2545 1.45625E-02-9.56243E-04-4.89886E-14
 -1      2546 1.47497E-02-1.11605E-03-4.98651E-14
 -1      2547 1.47314E-02-1.07541E-03-4.98669E-14
 -1      2548 1.45991E-02-1.03637E-03-4.89955E-14
 -1      2549 1.47868E-02-1.19809E-03-4.98494E-14
 -1      2550 1.47682E-02-1.15695E-03-4.98556E-14
 -1      2551 1.46355E-02-1.11749E-03-4.89881E-14
 -1      2552 1.48983E-02-1.28300E-03-5.03783E-14
 -1      2553 1.10204E-02-3.08108E-04-2.26928E-14
 -1      2554 1.09940E-02-3.16705E-04-2.26751E-14
 -1      2555 1.58368E-03 4.93316E-04-5.16704E-16
 -1      2556 1.44274E-03 4.75688E-04-4.21335E-16
 -1      2557 1.64139E-03 4.65110E-04-5.89657E-16
 -1      2558 1.03859E-02-9.62283E-05-2.18652E-14
 -1      2559 1.05670E-02-1.68026E-04-2.21624E-14
 -1      2560 1.09088E-02-3.41635E-04-2.25551E-14
 -1      2561 1.07983E-02-3.71672E-04-2.23278E-14
 -1      2562 5.88247E-04-2.37446E-04-8.31448E-17
 -1      2563 7.80961E-04-3.03888E-04-1.34780E-16
 -1      2564 8.40543E-04-2.92557E-04-1.70288E-16
 -1      2565 5.78876E-04-2.09692E-04-9.14931E-17
 -1      2566 1.00134E-02 8.21242E-05-2.12759E-14
 -1      2567 1.01949E-02-9.27080E-06-2.15594E-14
 -1      2568 6.80571E-03-2.64053E-04-1.40471E-14
 -1      2569 6.65146E-03-2.16162E-04-1.39033E-14
 -1      2570 7.92471E-03 4.93183E-04-1.58733E-14
 -1      2571 8.08248E-03 5.81239E-04-1.62346E-14
 -1      2572 5.47036E-04-2.27896E-05-1.21756E-16
 -1      2573 5.47485E-04-3.87615E-05-1.21160E-16
 -1      2574 6.62999E-04-5.55194E-05-1.63430E-16
 -1      2575 6.61786E-04-1.76017E-05-1.65219E-16
 -1      2576 8.62044E-03 7.49041E-04-1.77561E-14
 -1      2577 8.75734E-03 7.36359E-04-1.81964E-14
 -1      2578 6.45242E-03-1.59141E-04-1.37830E-14
 -1      2579 6.46003E-03-1.52443E-04-1.37554E-14
 -1      2580 8.91440E-03 6.94393E-04-1.86773E-14
 -1      2581 9.06182E-03 6.28978E-04-1.91202E-14
 -1      2582 8.26696E-03 6.65541E-04-1.67049E-14
 -1      2583 8.43126E-03 7.24315E-04-1.71743E-14
 -1      2584 7.57329E-03 2.96661E-04-1.51923E-14
 -1      2585 7.73074E-03 3.86312E-04-1.54673E-14
 -1      2586 7.12954E-03 7.48053E-05-1.45512E-14
 -1      2587 7.35314E-03 1.81462E-04-1.48709E-14
 -1      2588 7.43074E-03 2.32709E-04-1.47792E-14
 -1      2589 6.79629E-03-5.57712E-05-1.41395E-14
 -1      2590 6.93100E-03-8.36356E-06-1.43032E-14
 -1      2591 8.64272E-03-1.23526E-03-1.73312E-14
 -1      2592 8.50521E-03-1.18556E-03-1.69355E-14
 -1      2593 6.52631E-03-1.32410E-04-1.38153E-14
 -1      2594 6.64065E-03-1.04867E-04-1.39391E-14
 -1      2595 6.53177E-03-1.81581E-04-1.37861E-14
 -1      2596 6.47597E-03-1.70593E-04-1.37850E-14
 -1      2597 6.44578E-03-1.58363E-04-1.34629E-14
 -1      2598 7.13079E-03-3.95626E-04-1.43452E-14
 -1      2599 6.97864E-03-3.30128E-04-1.41960E-14
 -1      2600 7.98672E-03-8.87983E-04-1.56962E-14
 -1      2601 7.83717E-03-7.90012E-04-1.54041E-14
 -1      2602 8.32489E-03-1.09738E-03-1.64635E-14
 -1      2603 8.15977E-03-9.96573E-04-1.60768E-14
 -1      2604 8.08620E-03-9.51521E-04-1.57602E-14
 -1      2605 8.92855E-03-1.25479E-03-1.81939E-14
 -1      2606 8.79576E-03-1.25929E-03-1.77838E-14
 -1      2607 9.21950E-03-1.16881E-03-1.90693E-14
 -1      2608 9.08104E-03-1.22341E-03-1.86535E-14
 -1      2609 9.58427E-03-9.72648E-04-2.00311E-14
 -1      2610 9.40784E-03-1.07601E-03-1.95863E-14
 -1      2611 9.95260E-03-7.56784E-04-2.08759E-14
 -1      2612 9.77840E-03-8.59190E-04-2.04918E-14
 -1      2613 1.03388E-02-5.54953E-04-2.16129E-14
 -1      2614 1.01660E-02-6.41118E-04-2.13142E-14
 -1      2615 1.06762E-02-4.14261E-04-2.21242E-14
 -1      2616 1.05318E-02-4.69350E-04-2.19222E-14
 -1      2617 1.07551E-02-3.91437E-04-2.25883E-14
 -1      2618 1.09487E-02-2.84029E-04-2.27074E-14
 -1      2619 1.10092E-02-2.96334E-04-2.27588E-14
 -1      2620 7.57326E-04 3.33367E-04-1.04517E-16
 -1      2621 6.11011E-04 2.84281E-04-6.79253E-17
 -1      2622 5.84407E-04 2.57558E-04-7.09746E-17
 -1      2623 8.13311E-04 3.21910E-04-1.38941E-16
 -1      2624 9.61320E-03 3.12222E-04-2.04775E-14
 -1      2625 9.78900E-03 2.05853E-04-2.08540E-14
 -1      2626 8.83531E-03 7.20187E-04-1.84779E-14
 -1      2627 6.70545E-04-1.37397E-04-1.52398E-16
 -1      2628 5.54819E-04-1.25816E-04-1.10074E-16
 -1      2629 5.57939E-04-1.45791E-04-1.05764E-16
 -1      2630 1.35732E-03 4.30018E-04-3.96235E-16
 -1      2631 5.72063E-04 2.27384E-04-8.03800E-17
 -1      2632 9.51390E-03 3.68613E-04-2.04438E-14
 -1      2633 9.90372E-03 1.38712E-04-2.12782E-14
 -1      2634 1.04568E-02-5.07466E-04-2.20713E-14
 -1      2635 1.00695E-02-6.99624E-04-2.13154E-14
 -1      2636 1.10132E-02-3.26416E-04-2.32725E-14
 -1      2637 1.09675E-02-3.29518E-04-2.29128E-14
 -1      2638 1.09331E-02-3.45715E-04-2.31526E-14
 -1      2639 1.06588E-02-2.05261E-04-2.26691E-14
 -1      2640 1.43240E-02-2.72982E-04-4.93196E-14
 -1      2641 1.43250E-02-3.03548E-04-4.92487E-14
 -1      2642 9.68114E-03-9.23644E-04-2.04107E-14
 -1      2643 1.47561E-02-1.27535E-03-4.93226E-14
 -1      2644 1.47779E-02-1.22989E-03-4.96639E-14
 -1      2645 1.46447E-02-1.19007E-03-4.87954E-14
 -1      2646 1.46269E-02-1.25382E-03-4.84254E-14
 -1      2647 9.32107E-03-1.12892E-03-1.94261E-14
 -1      2648 8.41765E-03-1.14741E-03-1.66071E-14
 -1      2649 1.10318E-02-3.06076E-04-2.30988E-14
 -1      2650 6.89394E-04 2.50523E-04-1.18476E-16
 -1      2651 1.03009E-02-6.34558E-05-2.20128E-14
 -1      2652 8.72460E-03-1.25593E-03-1.75313E-14
 -1      2653 6.57769E-03-1.91588E-04-1.35803E-14
 -1      2654 6.86288E-03-2.82692E-04-1.38410E-14
 -1      2655 6.47359E-03-1.38395E-04-1.35204E-14
 -1      2656 7.03162E-03 4.11176E-05-1.42190E-14
 -1      2657 8.17028E-03 6.32336E-04-1.63669E-14
 -1      2658 7.70871E-03-7.11086E-04-1.50553E-14
 -1      2659 7.81626E-03 4.45756E-04-1.54975E-14
 -1      2660 5.71768E-04-1.84830E-04-9.83913E-17
 -1      2661 9.16000E-03 5.79130E-04-1.94954E-14
 -1      2662 8.42154E-03 7.32858E-04-1.70753E-14
 -1      2663 8.51719E-03 7.46671E-04-1.74142E-14
 -1      2664 8.58993E-03 7.56560E-04-1.76548E-14
 -1      2665 6.68980E-03-8.23769E-05-1.37768E-14
 -1      2666 7.25112E-03-4.50638E-04-1.43544E-14
 -1      2667 7.14041E-03-4.02237E-04-1.39955E-14
 -1      2668 7.36116E-03-5.10657E-04-1.43643E-14
 -1      2669 1.09232E-02-2.80072E-04-2.30912E-14
 -1      2670 9.00790E-03-1.24836E-03-1.84459E-14
 -1      2671 1.42120E-02-3.07422E-04-4.84337E-14
 -1      2672 1.45385E-02-1.20584E-03-4.79351E-14
 -1      2673 7.80706E-04 7.68857E-05-2.11094E-16
 -1      2674 7.79463E-04 5.51436E-05-2.13398E-16
 -1      2675 7.78628E-04 3.33609E-05-2.14835E-16
 -1      2676 7.78212E-04 1.18308E-05-2.15770E-16
 -1      2677 8.97058E-04 4.93379E-05-2.71688E-16
 -1      2678 7.91871E-04 1.72313E-04-1.94750E-16
 -1      2679 7.87931E-04 1.46970E-04-2.00239E-16
 -1      2680 8.03527E-04 2.27405E-04-1.80655E-16
 -1      2681 7.97022E-04 1.99063E-04-1.88367E-16
 -1      2682 9.15162E-04 2.06719E-04-2.45084E-16
 -1      2683 1.12957E-03 3.60101E-04-2.92626E-16
 -1      2684 9.85978E-04 3.31472E-04-2.24864E-16
 -1      2685 1.02282E-02-2.76730E-05-2.21893E-14
 -1      2686 1.03992E-02-1.04918E-04-2.25020E-14
 -1      2687 8.02946E-04 2.77286E-04-1.58104E-16
 -1      2688 1.08278E-02-3.81384E-04-2.30808E-14
 -1      2689 1.07184E-02-4.15878E-04-2.28748E-14
 -1      2690 1.41583E-03 4.04888E-04-4.58238E-16
 -1      2691 1.27276E-03 3.84449E-04-3.70391E-16
 -1      2692 1.18962E-03 3.39449E-04-3.43801E-16
 -1      2693 9.81363E-03 1.93145E-04-2.13319E-14
 -1      2694 1.00147E-02 8.02699E-05-2.17600E-14
 -1      2695 1.32011E-03-3.60225E-04-4.21470E-16
 -1      2696 1.46337E-03-3.78582E-04-5.14996E-16
 -1      2697 1.60646E-03-3.93940E-04-6.18605E-16
 -1      2698 1.74946E-03-4.06521E-04-7.32731E-16
 -1      2699 1.52518E-03-3.52009E-04-5.80455E-16
 -1      2700 1.89231E-03-4.16777E-04-8.57617E-16
 -1      2701 2.03507E-03-4.24888E-04-9.92614E-16
 -1      2702 1.81195E-03-3.76297E-04-8.10875E-16
 -1      2703 2.17775E-03-4.31212E-04-1.13906E-15
 -1      2704 2.32038E-03-4.35892E-04-1.29652E-15
 -1      2705 2.09853E-03-3.92043E-04-1.08381E-15
 -1      2706 2.46299E-03-4.39197E-04-1.46408E-15
 -1      2707 2.60560E-03-4.41240E-04-1.64308E-15
 -1      2708 2.38487E-03-4.01165E-04-1.39939E-15
 -1      2709 2.74823E-03-4.42219E-04-1.83352E-15
 -1      2710 2.89091E-03-4.42219E-04-2.03407E-15
 -1      2711 2.67104E-03-4.05169E-04-1.75847E-15
 -1      2712 3.03365E-03-4.41385E-04-2.24569E-15
 -1      2713 3.17646E-03-4.39782E-04-2.46817E-15
 -1      2714 2.95709E-03-4.05199E-04-2.16155E-15
 -1      2715 3.31937E-03-4.37512E-04-2.70160E-15
 -1      2716 3.46239E-03-4.34629E-04-2.94664E-15
 -1      2717 3.24309E-03-4.02106E-04-2.60793E-15
 -1      2718 3.60552E-03-4.31211E-04-3.20170E-15
 -1      2719 3.74879E-03-4.27301E-04-3.46812E-15
 -1      2720 3.52910E-03-3.96527E-04-3.09795E-15
 -1      2721 3.89218E-03-4.22968E-04-3.74593E-15
 -1      2722 4.03575E-03-4.18256E-04-4.03457E-15
 -1      2723 3.81513E-03-3.88957E-04-3.63224E-15
 -1      2724 4.17946E-03-4.13241E-04-4.33468E-15
 -1      2725 4.32337E-03-4.07974E-04-4.64667E-15
 -1      2726 4.10117E-03-3.79841E-04-4.21164E-15
 -1      2727 4.46744E-03-4.02557E-04-4.96951E-15
 -1      2728 4.61175E-03-3.97060E-04-5.30319E-15
 -1      2729 4.38722E-03-3.69656E-04-4.83512E-15
 -1      2730 4.75623E-03-3.91631E-04-5.64814E-15
 -1      2731 4.90101E-03-3.86376E-04-6.00405E-15
 -1      2732 4.67324E-03-3.59021E-04-5.50418E-15
 -1      2733 5.04600E-03-3.81513E-04-6.37176E-15
 -1      2734 5.19139E-03-3.77205E-04-6.75024E-15
 -1      2735 4.95924E-03-3.48816E-04-6.21686E-15
 -1      2736 5.33709E-03-3.73761E-04-7.14046E-15
 -1      2737 5.48334E-03-3.71441E-04-7.54254E-15
 -1      2738 5.24533E-03-3.40318E-04-6.97605E-15
 -1      2739 5.63012E-03-3.70660E-04-7.95470E-15
 -1      2740 5.77775E-03-3.71833E-04-8.38014E-15
 -1      2741 5.53190E-03-3.35369E-04-7.78060E-15
 -1      2742 5.92634E-03-3.75475E-04-8.81729E-15
 -1      2743 6.07632E-03-3.82264E-04-9.26603E-15
 -1      2744 5.81989E-03-3.36567E-04-8.63068E-15
 -1      2745 6.22806E-03-3.92765E-04-9.72815E-15
 -1      2746 6.38212E-03-4.08119E-04-1.02021E-14
 -1      2747 6.11132E-03-3.47529E-04-9.53121E-15
 -1      2748 6.53928E-03-4.28855E-04-1.06880E-14
 -1      2749 6.70010E-03-4.56778E-04-1.11862E-14
 -1      2750 6.41003E-03-3.73376E-04-1.04785E-14
 -1      2751 6.86596E-03-4.92479E-04-1.16969E-14
 -1      2752 7.03693E-03-5.38321E-04-1.22180E-14
 -1      2753 6.72234E-03-4.21612E-04-1.14737E-14
 -1      2754 7.21573E-03-5.93764E-04-1.27514E-14
 -1      2755 7.39999E-03-6.62905E-04-1.32975E-14
 -1      2756 7.05821E-03-5.03125E-04-1.25179E-14
 -1      2757 7.59270E-03-7.45084E-04-1.38549E-14
 -1      2758 7.78816E-03-8.40115E-04-1.44237E-14
 -1      2759 7.42646E-03-6.32889E-04-1.36068E-14
 -1      2760 8.75991E-03-1.27856E-03-1.75604E-14
 -1      2761 8.94627E-03-1.28223E-03-1.82201E-14
 -1      2762 9.48947E-03-1.11618E-03-2.02060E-14
 -1      2763 9.68608E-03-1.03122E-03-2.09221E-14
 -1      2764 9.88526E-03-9.48219E-04-2.16535E-14
 -1      2765 1.00799E-02-8.75318E-04-2.23960E-14
 -1      2766 9.82413E-03-9.29196E-04-2.13048E-14
 -1      2767 1.02712E-02-8.15520E-04-2.31489E-14
 -1      2768 1.04546E-02-7.68060E-04-2.39133E-14
 -1      2769 1.02221E-02-7.81315E-04-2.27891E-14
 -1      2770 1.06324E-02-7.33665E-04-2.46902E-14
 -1      2771 1.08031E-02-7.09349E-04-2.54786E-14
 -1      2772 1.05887E-02-6.93657E-04-2.43186E-14
 -1      2773 1.09688E-02-6.95082E-04-2.62759E-14
 -1      2774 1.11295E-02-6.88289E-04-2.70809E-14
 -1      2775 1.09242E-02-6.53916E-04-2.58912E-14
 -1      2776 1.12866E-02-6.88526E-04-2.78958E-14
 -1      2777 1.14408E-02-6.94072E-04-2.87192E-14
 -1      2778 1.12374E-02-6.47156E-04-2.75014E-14
 -1      2779 1.15927E-02-7.04346E-04-2.95502E-14
 -1      2780 1.17429E-02-7.18267E-04-3.03892E-14
 -1      2781 1.15372E-02-6.62534E-04-2.91471E-14
 -1      2782 1.18917E-02-7.35245E-04-3.12361E-14
 -1      2783 1.20395E-02-7.54621E-04-3.20902E-14
 -1      2784 1.18298E-02-6.92672E-04-3.08239E-14
 -1      2785 1.21866E-02-7.75875E-04-3.29524E-14
 -1      2786 1.23331E-02-7.98597E-04-3.38231E-14
 -1      2787 1.21189E-02-7.32434E-04-3.25336E-14
 -1      2788 1.24790E-02-8.22377E-04-3.46984E-14
 -1      2789 1.26247E-02-8.46957E-04-3.55816E-14
 -1      2790 1.24064E-02-7.78163E-04-3.42713E-14
 -1      2791 1.27699E-02-8.72036E-04-3.64722E-14
 -1      2792 1.29150E-02-8.97452E-04-3.73695E-14
 -1      2793 1.26933E-02-8.27240E-04-3.60389E-14
 -1      2794 1.30597E-02-9.22999E-04-3.82738E-14
 -1      2795 1.32043E-02-9.48573E-04-3.91836E-14
 -1      2796 1.29800E-02-8.77835E-04-3.78354E-14
 -1      2797 1.33486E-02-9.74042E-04-4.01008E-14
 -1      2798 1.34928E-02-9.99342E-04-4.10246E-14
 -1      2799 1.32666E-02-9.28706E-04-3.96547E-14
 -1      2800 1.36368E-02-1.02439E-03-4.19574E-14
 -1      2801 1.37806E-02-1.04915E-03-4.29009E-14
 -1      2802 1.35530E-02-9.79046E-04-4.15051E-14
 -1      2803 1.39243E-02-1.07358E-03-4.38539E-14
 -1      2804 1.40679E-02-1.09765E-03-4.48172E-14
 -1      2805 1.38394E-02-1.02835E-03-4.33872E-14
 -1      2806 1.42113E-02-1.12133E-03-4.57934E-14
 -1      2807 1.43546E-02-1.14462E-03-4.67769E-14
 -1      2808 1.41256E-02-1.07633E-03-4.53131E-14
 -1      2809 9.42217E-03-1.09243E-03-1.98411E-14
 -1      2810 9.26022E-03-1.17791E-03-1.93172E-14
 -1      2811 1.98549E-03 4.56891E-04-9.13427E-16
 -1      2812 1.84334E-03 4.47663E-04-7.83688E-16
 -1      2813 2.83800E-03 4.78637E-04-1.91923E-15
 -1      2814 2.69578E-03 4.78080E-04-1.72455E-15
 -1      2815 3.12287E-03 4.77222E-04-2.34302E-15
 -1      2816 2.98036E-03 4.78325E-04-2.12563E-15
 -1      2817 2.90394E-03 4.41813E-04-2.04726E-15
 -1      2818 3.40845E-03 4.73058E-04-2.81094E-15
 -1      2819 3.26556E-03 4.75445E-04-2.57146E-15
 -1      2820 3.18956E-03 4.39620E-04-2.48282E-15
 -1      2821 3.69491E-03 4.66793E-04-3.32395E-15
 -1      2822 3.55155E-03 4.70155E-04-3.06191E-15
 -1      2823 3.47557E-03 4.34887E-04-2.96317E-15
 -1      2824 3.98246E-03 4.58998E-04-3.88223E-15
 -1      2825 3.83853E-03 4.63054E-04-3.59717E-15
 -1      2826 3.76211E-03 4.28206E-04-3.48789E-15
 -1      2827 4.27133E-03 4.50270E-04-4.48880E-15
 -1      2828 4.12671E-03 4.54713E-04-4.17898E-15
 -1      2829 4.04934E-03 4.20120E-04-4.05988E-15
 -1      2830 4.56178E-03 4.41332E-04-5.14194E-15
 -1      2831 4.41632E-03 4.45778E-04-4.80944E-15
 -1      2832 4.33745E-03 4.11206E-04-4.67850E-15
 -1      2833 4.85418E-03 4.33149E-04-5.84235E-15
 -1      2834 4.70770E-03 4.37078E-04-5.48646E-15
 -1      2835 4.62673E-03 4.02184E-04-5.34472E-15
 -1      2836 5.14902E-03 4.27046E-04-6.59204E-15
 -1      2837 5.00126E-03 4.29742E-04-6.21133E-15
 -1      2838 4.91755E-03 3.94019E-04-6.05755E-15
 -1      2839 5.44691E-03 4.24824E-04-7.38701E-15
 -1      2840 5.29754E-03 4.25320E-04-6.98362E-15
 -1      2841 5.21048E-03 3.88044E-04-6.81673E-15
 -1      2842 5.74868E-03 4.28844E-04-8.23155E-15
 -1      2843 5.59727E-03 4.25881E-04-7.80327E-15
 -1      2844 5.50631E-03 3.86068E-04-7.62484E-15
 -1      2845 6.05532E-03 4.42040E-04-9.12170E-15
 -1      2846 5.90136E-03 4.34079E-04-8.67139E-15
 -1      2847 5.80618E-03 3.90477E-04-8.48139E-15
 -1      2848 6.36790E-03 4.67763E-04-1.00544E-14
 -1      2849 6.21088E-03 4.53090E-04-9.58183E-15
 -1      2850 6.11153E-03 4.04274E-04-9.38227E-15
 -1      2851 6.68722E-03 5.09303E-04-1.10280E-14
 -1      2852 6.52681E-03 4.86331E-04-1.05364E-14
 -1      2853 6.42405E-03 4.30988E-04-1.03258E-14
 -1      2854 7.01316E-03 5.68810E-04-1.20427E-14
 -1      2855 6.84959E-03 5.36715E-04-1.15305E-14
 -1      2856 6.74518E-03 4.74275E-04-1.13105E-14
 -1      2857 7.34373E-03 6.45338E-04-1.30997E-14
 -1      2858 7.17828E-03 6.05198E-04-1.25653E-14
 -1      2859 7.07515E-03 5.36826E-04-1.23354E-14
 -1      2860 7.67440E-03 7.31895E-04-1.42036E-14
 -1      2861 7.50956E-03 6.88206E-04-1.36457E-14
 -1      2862 7.41161E-03 6.18020E-04-1.34047E-14
 -1      2863 7.99923E-03 8.12998E-04-1.53513E-14
 -1      2864 7.83789E-03 7.74575E-04-1.47722E-14
 -1      2865 7.74867E-03 7.09847E-04-1.45198E-14
 -1      2866 8.31429E-03 8.66190E-04-1.65505E-14
 -1      2867 8.15776E-03 8.44807E-04-1.59449E-14
 -1      2868 8.07860E-03 7.93881E-04-1.56822E-14
 -1      2869 8.62183E-03 8.70108E-04-1.77963E-14
 -1      2870 8.46812E-03 8.75333E-04-1.71676E-14
 -1      2871 8.39715E-03 8.42952E-04-1.68921E-14
 -1      2872 8.93012E-03 8.16528E-04-1.90928E-14
 -1      2873 8.77498E-03 8.50161E-04-1.84367E-14
 -1      2874 8.70889E-03 8.33594E-04-1.81518E-14
 -1      2875 9.24625E-03 7.16131E-04-2.04421E-14
 -1      2876 9.08660E-03 7.70705E-04-1.97617E-14
 -1      2877 9.02398E-03 7.61607E-04-1.94635E-14
 -1      2878 9.57214E-03 5.91229E-04-2.18443E-14
 -1      2879 9.40823E-03 6.55069E-04-2.11370E-14
 -1      2880 9.34994E-03 6.44942E-04-2.08296E-14
 -1      2881 9.90310E-03 4.63812E-04-2.32968E-14
 -1      2882 9.73753E-03 5.26692E-04-2.25633E-14
 -1      2883 9.68535E-03 5.11607E-04-2.22462E-14
 -1      2884 1.02332E-02 3.47957E-04-2.47991E-14
 -1      2885 1.00688E-02 4.03933E-04-2.40412E-14
 -1      2886 1.00228E-02 3.83801E-04-2.37099E-14
 -1      2887 1.05583E-02 2.49486E-04-2.63588E-14
 -1      2888 1.03967E-02 2.96477E-04-2.55738E-14
 -1      2889 1.03555E-02 2.72787E-04-2.52279E-14
 -1      2890 1.08767E-02 1.68747E-04-2.79711E-14
 -1      2891 1.07185E-02 2.07062E-04-2.71580E-14
 -1      2892 1.06799E-02 1.81250E-04-2.67991E-14
 -1      2893 1.11885E-02 1.03267E-04-2.96338E-14
 -1      2894 1.10335E-02 1.34330E-04-2.87970E-14
 -1      2895 1.09953E-02 1.07347E-04-2.84251E-14
 -1      2896 1.14945E-02 4.96725E-05-3.13333E-14
 -1      2897 1.13422E-02 7.52111E-05-3.04791E-14
 -1      2898 1.13031E-02 4.75595E-05-3.00975E-14
 -1      2899 1.17959E-02 4.63585E-06-3.30715E-14
 -1      2900 1.16457E-02 2.62774E-05-3.21987E-14
 -1      2901 1.16048E-02-1.77856E-06-3.18077E-14
 -1      2902 1.20936E-02-3.47014E-05-3.48371E-14
 -1      2903 1.19451E-02-1.55930E-05-3.39491E-14
 -1      2904 1.19020E-02-4.38910E-05-3.35498E-14
 -1      2905 1.23884E-02-7.06087E-05-3.66321E-14
 -1      2906 1.22413E-02-5.29700E-05-3.57331E-14
 -1      2907 1.21961E-02-8.13837E-05-3.53227E-14
 -1      2908 1.26810E-02-1.04787E-04-3.84508E-14
 -1      2909 1.25349E-02-8.78322E-05-3.75405E-14
 -1      2910 1.24878E-02-1.16252E-04-3.71224E-14
 -1      2911 1.29718E-02-1.38451E-04-4.02890E-14
 -1      2912 1.28266E-02-1.21627E-04-3.93660E-14
 -1      2913 1.27779E-02-1.49955E-04-3.89436E-14
 -1      2914 1.32613E-02-1.72435E-04-4.21540E-14
 -1      2915 1.31167E-02-1.55365E-04-4.12182E-14
 -1      2916 1.30667E-02-1.83520E-04-4.07860E-14
 -1      2917 1.35497E-02-2.07290E-04-4.40412E-14
 -1      2918 1.34056E-02-1.89728E-04-4.30954E-14
 -1      2919 1.33547E-02-2.17638E-04-4.26565E-14
 -1      2920 1.38372E-02-2.43367E-04-4.59509E-14
 -1      2921 1.36935E-02-2.25159E-04-4.49926E-14
 -1      2922 1.36419E-02-2.52760E-04-4.45519E-14
 -1      2923 1.40964E-02-2.84573E-04-4.76734E-14
 -1      2924 1.39531E-02-2.65708E-04-4.67097E-14
 -1      2925 1.39012E-02-2.92940E-04-4.62644E-14
 -1      2926 1.41325E-02-3.37878E-04-4.77832E-14
 -1      2927 1.43338E-02-7.22551E-04-4.80362E-14
 -1      2928 1.43129E-02-6.83324E-04-4.80086E-14
 -1      2929 1.44511E-02-1.15947E-03-4.74474E-14
 -1      2930 1.45483E-02-1.17560E-03-4.81203E-14
 -1      2931 1.45576E-02-1.14407E-03-4.83031E-14
 -1      2932 1.43649E-02-1.11472E-03-4.69592E-14
 -1      2933 1.42477E-02-5.64951E-04-4.79145E-14
 -1      2934 1.42253E-02-5.25117E-04-4.78802E-14
 -1      2935 1.43741E-02-8.00911E-04-4.80796E-14
 -1      2936 1.43542E-02-7.61721E-04-4.80608E-14
 -1      2937 1.42220E-02-7.24302E-04-4.71956E-14
 -1      2938 1.42916E-02-6.44019E-04-4.79789E-14
 -1      2939 1.42698E-02-6.04567E-04-4.79467E-14
 -1      2940 1.41364E-02-5.67806E-04-4.70853E-14
 -1      2941 1.41801E-02-6.46307E-04-4.71454E-14
 -1      2942 1.05799E-02-1.77102E-04-2.28492E-14
 -1      2943 1.07436E-02-2.29982E-04-2.32008E-14
 -1      2944 1.05139E-02-1.41860E-04-2.30293E-14
 -1      2945 1.44119E-02-8.78154E-04-4.81095E-14
 -1      2946 1.43932E-02-8.39477E-04-4.80963E-14
 -1      2947 1.42614E-02-8.01540E-04-4.72327E-14
 -1      2948 1.44489E-02-9.57321E-04-4.81247E-14
 -1      2949 1.44306E-02-9.17637E-04-4.81184E-14
 -1      2950 1.42989E-02-8.79106E-04-4.72554E-14
 -1      2951 1.44850E-02-1.03741E-03-4.81272E-14
 -1      2952 1.44670E-02-9.97231E-04-4.81277E-14
 -1      2953 1.43352E-02-9.58080E-04-4.72653E-14
 -1      2954 1.45302E-02-1.11088E-03-4.82126E-14
 -1      2955 1.45121E-02-1.07018E-03-4.82219E-14
 -1      2956 1.43800E-02-1.03053E-03-4.73599E-14
 -1      2957 1.44340E-02-1.09630E-03-4.75417E-14
 -1      2958 1.70105E-03 4.36108E-04-6.64548E-16
 -1      2959 1.55853E-03 4.22021E-04-5.56263E-16
 -1      2960 1.47611E-03 3.78984E-04-5.22098E-16
 -1      2961 1.76222E-03 4.06455E-04-7.41391E-16
 -1      2962 7.88837E-04-2.51595E-04-1.64894E-16
 -1      2963 9.19994E-04-2.87063E-04-2.14469E-16
 -1      2964 6.90726E-03-3.03437E-04-1.35889E-14
 -1      2965 6.75769E-03-2.47856E-04-1.34456E-14
 -1      2966 6.61975E-03-2.02532E-04-1.33336E-14
 -1      2967 6.50892E-03-1.74798E-04-1.32194E-14
 -1      2968 6.65411E-03-2.21621E-04-1.30868E-14
 -1      2969 8.07532E-03 6.01482E-04-1.60087E-14
 -1      2970 8.23535E-03 6.76264E-04-1.64731E-14
 -1      2971 7.77425E-03-7.60438E-04-1.49449E-14
 -1      2972 7.56992E-03-6.31211E-04-1.46217E-14
 -1      2973 2.55365E-03 4.76495E-04-1.54065E-15
 -1      2974 2.41160E-03 4.73782E-04-1.36738E-15
 -1      2975 2.61856E-03 4.40728E-04-1.65548E-15
 -1      2976 2.26957E-03 4.69722E-04-1.20506E-15
 -1      2977 2.12756E-03 4.64192E-04-1.05391E-15
 -1      2978 2.33327E-03 4.35396E-04-1.30756E-15
 -1      2979 1.04820E-03-3.14271E-04-2.72541E-16
 -1      2980 1.19149E-03-3.39450E-04-3.47121E-16
 -1      2981 1.25320E-03-3.17692E-04-4.00897E-16
 -1      2982 9.96862E-04-2.73447E-04-2.63976E-16
 -1      2983 6.42258E-03-1.38054E-04-1.31559E-14
 -1      2984 6.47950E-03-1.24611E-04-1.32140E-14
 -1      2985 9.07326E-03 6.29492E-04-1.93250E-14
 -1      2986 9.24329E-03 5.35470E-04-1.98637E-14
 -1      2987 7.84834E-04 1.22802E-04-2.04575E-16
 -1      2988 7.82484E-04 9.94651E-05-2.08004E-16
 -1      2989 9.00139E-04 9.87925E-05-2.66416E-16
 -1      2990 9.05803E-04 1.50672E-04-2.57742E-16
 -1      2991 7.82235E-04-9.74038E-05-2.10118E-16
 -1      2992 7.84512E-04-1.20656E-04-2.06839E-16
 -1      2993 6.91342E-03 1.22069E-05-1.37780E-14
 -1      2994 7.08826E-03 8.56223E-05-1.40183E-14
 -1      2995 6.52995E-04-1.87781E-04-1.29616E-16
 -1      2996 7.29457E-03 1.84301E-04-1.43309E-14
 -1      2997 7.48411E-03 2.86318E-04-1.46427E-14
 -1      2998 1.10452E-02-3.09973E-04-2.35422E-14
 -1      2999 1.10538E-02-3.15465E-04-2.34783E-14
 -1      3000 6.61466E-03-8.80098E-05-1.33895E-14
 -1      3001 6.75547E-03-4.75707E-05-1.35847E-14
 -1      3002 6.80582E-03-3.82014E-06-1.33907E-14
 -1      3003 6.43068E-03-1.54202E-04-1.30970E-14
 -1      3004 6.40929E-03-1.48410E-04-1.30953E-14
 -1      3005 7.71542E-03 4.12274E-04-1.51066E-14
 -1      3006 7.88535E-03 5.06475E-04-1.55054E-14
 -1      3007 1.09076E-02-2.76899E-04-2.35237E-14
 -1      3008 1.09941E-02-2.96049E-04-2.35975E-14
 -1      3009 8.17048E-03-1.01275E-03-1.58081E-14
 -1      3010 8.01757E-03-9.14854E-04-1.54317E-14
 -1      3011 1.05683E-02-4.73213E-04-2.25889E-14
 -1      3012 1.03984E-02-5.48129E-04-2.22737E-14
 -1      3013 8.49532E-03-1.19183E-03-1.67360E-14
 -1      3014 8.33815E-03-1.10920E-03-1.62683E-14
 -1      3015 8.25560E-03-1.07464E-03-1.59303E-14
 -1      3016 1.01795E-02-6.56293E-04-2.18069E-14
 -1      3017 9.98781E-03-7.60710E-04-2.13620E-14
 -1      3018 9.44919E-03 4.13887E-04-2.04470E-14
 -1      3019 9.61294E-03 3.11392E-04-2.08590E-14
 -1      3020 8.77079E-03 7.42065E-04-1.82952E-14
 -1      3021 8.90552E-03 7.01990E-04-1.87788E-14
 -1      3022 9.07169E-03-1.25823E-03-1.86837E-14
 -1      3023 7.87516E-04-1.44711E-04-2.02488E-16
 -1      3024 7.91310E-04-1.69795E-04-1.97122E-16
 -1      3025 9.05356E-04-1.48136E-04-2.60249E-16
 -1      3026 8.96045E-04 1.01337E-06-2.73680E-16
 -1      3027 7.78185E-04-9.65086E-06-2.15865E-16
 -1      3028 7.78546E-04-3.11645E-05-2.15499E-16
 -1      3029 1.01354E-02 2.98151E-05-2.22449E-14
 -1      3030 8.64858E-04 2.65471E-04-1.94560E-16
 -1      3031 1.09087E-02-3.68075E-04-2.34427E-14
 -1      3032 9.73924E-03 2.48433E-04-2.13351E-14
 -1      3033 1.10564E-02-3.26179E-04-2.37210E-14
 -1      3034 7.85683E-03-8.44932E-04-1.48152E-14
 -1      3035 8.01574E-03-9.62348E-04-1.50782E-14
 -1      3036 8.63405E-03-1.25188E-03-1.71089E-14
 -1      3037 8.21204E-03-1.06782E-03-1.56749E-14
 -1      3038 8.36323E-03-1.15118E-03-1.61331E-14
 -1      3039 8.55000E-03-1.23000E-03-1.67592E-14
 -1      3040 1.40914E-02-4.88791E-04-4.70180E-14
 -1      3041 1.42029E-02-4.85391E-04-4.78420E-14
 -1      3042 1.41804E-02-4.45403E-04-4.78028E-14
 -1      3043 6.42784E-03-1.04209E-04-1.26705E-14
 -1      3044 6.51308E-03-1.01021E-04-1.30284E-14
 -1      3045 6.54978E-03-7.06241E-05-1.28416E-14
 -1      3046 9.78174E-03-8.80824E-04-2.08577E-14
 -1      3047 9.61144E-03-9.83644E-04-2.03902E-14
 -1      3048 2.04789E-03 4.24533E-04-1.00309E-15
 -1      3049 1.41676E-02-4.12114E-04-4.78131E-14
 -1      3050 1.41451E-02-3.71616E-04-4.77725E-14
 -1      3051 1.40297E-02-3.49073E-04-4.70132E-14
 -1      3052 1.40557E-02-4.15953E-04-4.69913E-14
 -1      3053 7.86892E-03-8.34090E-04-1.49897E-14
 -1      3054 9.34981E-03 4.82497E-04-2.02710E-14
 -1      3055 7.00328E-03-3.48367E-04-1.35961E-14
 -1      3056 6.87673E-03-3.09497E-04-1.32026E-14
 -1      3057 7.09721E-03-3.99566E-04-1.36026E-14
 -1      3058 1.06672E-02-4.55113E-04-2.30810E-14
 -1      3059 9.91043E-03-8.30477E-04-2.13405E-14
 -1      3060 1.08542E-02-2.58446E-04-2.37074E-14
 -1      3061 1.09511E-02-2.76979E-04-2.42208E-14
 -1      3062 1.07996E-02-2.34315E-04-2.38903E-14
 -1      3063 7.56323E-03 3.58235E-04-1.46508E-14
 -1      3064 1.10517E-02-3.07977E-04-2.39815E-14
 -1      3065 8.21876E-03 6.95057E-04-1.63410E-14
 -1      3066 8.31933E-03 7.15210E-04-1.67056E-14
 -1      3067 8.39260E-03 7.44353E-04-1.69392E-14
 -1      3068 6.44142E-03-1.61007E-04-1.28549E-14
 -1      3069 7.96036E-03 5.68461E-04-1.56081E-14
 -1      3070 7.43906E-03-5.67520E-04-1.42560E-14
 -1      3071 7.70194E-04-2.01566E-04-1.76535E-16
 -1      3072 9.37045E-03-1.17235E-03-1.97814E-14
 -1      3073 9.49109E-03-1.08639E-03-2.01524E-14
 -1      3074 7.79317E-04-5.28211E-05-2.14320E-16
 -1      3075 7.80521E-04-7.48888E-05-2.12436E-16
 -1      3076 8.99875E-04-9.64366E-05-2.68232E-16
 -1      3077 8.96939E-04-4.71799E-05-2.72487E-16
 -1      3078 8.99616E-03 6.71374E-04-1.91357E-14
 -1      3079 6.38128E-03-1.35835E-04-1.27942E-14
 -1      3080 7.14876E-03 1.44718E-04-1.38873E-14
 -1      3081 1.03164E-02-6.09393E-04-2.23209E-14
 -1      3082 9.83040E-04 2.74415E-04-2.53636E-16
 -1      3083 9.18146E-03-1.24011E-03-1.90860E-14
 -1      3084 1.09930E-02-3.57949E-04-2.38912E-14
 -1      3085 1.09063E-02-3.88751E-04-2.38178E-14
 -1      3086 1.04057E-03 2.41822E-04-3.01368E-16
 -1      3087 1.03405E-03 2.10197E-04-3.10041E-16
 -1      3088 1.41490E-02-8.02215E-04-4.63910E-14
 -1      3089 1.41301E-02-7.64147E-04-4.63778E-14
 -1      3090 8.94712E-03 7.04591E-04-1.90148E-14
 -1      3091 9.09884E-03 6.36383E-04-1.95674E-14
 -1      3092 7.63083E-03-7.03623E-04-1.43407E-14
 -1      3093 1.73202E-03-3.36088E-04-7.63929E-16
 -1      3094 1.87571E-03-3.45412E-04-8.90509E-16
 -1      3095 2.01937E-03-3.52893E-04-1.02774E-15
 -1      3096 2.16302E-03-3.58677E-04-1.17586E-15
 -1      3097 1.94049E-03-3.13917E-04-9.72163E-16
 -1      3098 2.30661E-03-3.63025E-04-1.33438E-15
 -1      3099 2.45013E-03-3.66051E-04-1.50348E-15
 -1      3100 2.22837E-03-3.24873E-04-1.26918E-15
 -1      3101 2.59359E-03-3.67963E-04-1.68375E-15
 -1      3102 2.73697E-03-3.68847E-04-1.87511E-15
 -1      3103 2.51605E-03-3.30649E-04-1.60944E-15
 -1      3104 2.88027E-03-3.68862E-04-2.07699E-15
 -1      3105 3.02349E-03-3.68071E-04-2.28967E-15
 -1      3106 2.80334E-03-3.32381E-04-1.99263E-15
 -1      3107 3.16662E-03-3.66594E-04-2.51383E-15
 -1      3108 3.30967E-03-3.64477E-04-2.74882E-15
 -1      3109 3.09008E-03-3.30945E-04-2.41965E-15
 -1      3110 3.45261E-03-3.61814E-04-2.99379E-15
 -1      3111 3.59547E-03-3.58638E-04-3.25047E-15
 -1      3112 3.37618E-03-3.27005E-04-2.89001E-15
 -1      3113 3.73819E-03-3.55029E-04-3.51844E-15
 -1      3114 3.88081E-03-3.51012E-04-3.79746E-15
 -1      3115 3.66149E-03-3.21073E-04-3.40463E-15
 -1      3116 4.02327E-03-3.46670E-04-4.08755E-15
 -1      3117 4.16560E-03-3.42028E-04-4.38881E-15
 -1      3118 3.94587E-03-3.13575E-04-3.96359E-15
 -1      3119 4.30774E-03-3.37181E-04-4.70186E-15
 -1      3120 4.44971E-03-3.32163E-04-5.02563E-15
 -1      3121 4.22910E-03-3.04925E-04-4.56749E-15
 -1      3122 4.59144E-03-3.27101E-04-5.35974E-15
 -1      3123 4.73298E-03-3.22044E-04-5.70500E-15
 -1      3124 4.51094E-03-2.95600E-04-5.21588E-15
 -1      3125 4.87422E-03-3.17167E-04-6.06327E-15
 -1      3126 5.01527E-03-3.12546E-04-6.43187E-15
 -1      3127 4.79109E-03-2.86223E-04-5.90839E-15
 -1      3128 5.15600E-03-3.08419E-04-6.81032E-15
 -1      3129 5.29657E-03-3.04908E-04-7.20269E-15
 -1      3130 5.06927E-03-2.77645E-04-6.64628E-15
 -1      3131 5.43686E-03-3.02319E-04-7.60603E-15
 -1      3132 5.57715E-03-3.00854E-04-8.01963E-15
 -1      3133 5.34530E-03-2.71022E-04-7.42973E-15
 -1      3134 5.71736E-03-3.00876E-04-8.44591E-15
 -1      3135 5.85794E-03-3.02740E-04-8.88383E-15
 -1      3136 5.61930E-03-2.67891E-04-8.26016E-15
 -1      3137 5.99895E-03-3.06827E-04-9.33361E-15
 -1      3138 6.14113E-03-3.13792E-04-9.79588E-15
 -1      3139 5.89207E-03-2.70249E-04-9.13695E-15
 -1      3140 6.28474E-03-3.23937E-04-1.02708E-14
 -1      3141 6.43109E-03-3.38672E-04-1.07555E-14
 -1      3142 6.16572E-03-2.80735E-04-1.00612E-14
 -1      3143 6.58069E-03-3.58274E-04-1.12528E-14
 -1      3144 6.73553E-03-3.84968E-04-1.17631E-14
 -1      3145 6.44494E-03-3.03603E-04-1.10323E-14
 -1      3146 6.94413E-03-4.06705E-04-1.25969E-14
 -1      3147 7.11500E-03-4.57520E-04-1.31351E-14
 -1      3148 7.29648E-03-5.23443E-04-1.36849E-14
 -1      3149 6.33526E-03-1.32130E-04-1.24081E-14
 -1      3150 6.35115E-03-1.22446E-04-1.24672E-14
 -1      3151 1.05591E-02-6.46906E-04-2.39496E-14
 -1      3152 1.07289E-02-6.21548E-04-2.47243E-14
 -1      3153 1.08907E-02-6.08236E-04-2.55093E-14
 -1      3154 1.10461E-02-6.02052E-04-2.63044E-14
 -1      3155 1.08662E-02-5.60217E-04-2.51288E-14
 -1      3156 1.11965E-02-6.03060E-04-2.71072E-14
 -1      3157 1.13436E-02-6.08841E-04-2.79212E-14
 -1      3158 1.11624E-02-5.58469E-04-2.67164E-14
 -1      3159 1.14880E-02-6.19152E-04-2.87450E-14
 -1      3160 1.16309E-02-6.32687E-04-2.95758E-14
 -1      3161 1.14439E-02-5.76432E-04-2.83405E-14
 -1      3162 1.17727E-02-6.49099E-04-3.04117E-14
 -1      3163 1.19139E-02-6.67726E-04-3.12582E-14
 -1      3164 1.17194E-02-6.06807E-04-3.00009E-14
 -1      3165 1.20548E-02-6.88178E-04-3.21137E-14
 -1      3166 1.21956E-02-7.10083E-04-3.29760E-14
 -1      3167 1.19938E-02-6.45411E-04-3.16924E-14
 -1      3168 1.23365E-02-7.33081E-04-3.38465E-14
 -1      3169 1.24775E-02-7.56954E-04-3.47240E-14
 -1      3170 1.22691E-02-6.89465E-04-3.34190E-14
 -1      3171 1.26186E-02-7.81405E-04-3.56061E-14
 -1      3172 1.27600E-02-8.06300E-04-3.64972E-14
 -1      3173 1.25460E-02-7.36888E-04-3.51747E-14
 -1      3174 1.29016E-02-8.31413E-04-3.73958E-14
 -1      3175 1.30434E-02-8.56663E-04-3.82993E-14
 -1      3176 1.28248E-02-7.86113E-04-3.69546E-14
 -1      3177 1.31853E-02-8.81889E-04-3.92100E-14
 -1      3178 1.33274E-02-9.07041E-04-4.01286E-14
 -1      3179 1.31053E-02-8.35987E-04-3.87641E-14
 -1      3180 1.34696E-02-9.32015E-04-4.10522E-14
 -1      3181 1.36119E-02-9.56777E-04-4.19851E-14
 -1      3182 1.33872E-02-8.85700E-04-4.05996E-14
 -1      3183 1.37544E-02-9.81260E-04-4.29263E-14
 -1      3184 1.38969E-02-1.00545E-03-4.38752E-14
 -1      3185 1.36702E-02-9.34720E-04-4.24651E-14
 -1      3186 1.40395E-02-1.02932E-03-4.48351E-14
 -1      3187 1.41821E-02-1.05283E-03-4.58088E-14
 -1      3188 1.39540E-02-9.82698E-04-4.43608E-14
 -1      3189 9.55571E-03-1.02255E-03-2.02651E-14
 -1      3190 2.11143E-03 3.91606E-04-1.09443E-15
 -1      3191 1.96815E-03 3.84794E-04-9.52065E-16
 -1      3192 2.97013E-03 4.04776E-04-2.17572E-15
 -1      3193 2.82708E-03 4.05133E-04-1.96815E-15
 -1      3194 3.82872E-03 3.89780E-04-3.65405E-15
 -1      3195 3.68553E-03 3.93463E-04-3.37912E-15
 -1      3196 4.11533E-03 3.81518E-04-4.23794E-15
 -1      3197 3.97198E-03 3.85783E-04-3.94010E-15
 -1      3198 3.89476E-03 3.51605E-04-3.82074E-15
 -1      3199 4.40240E-03 3.72519E-04-4.86931E-15
 -1      3200 4.25879E-03 3.77077E-04-4.54769E-15
 -1      3201 4.18047E-03 3.43274E-04-4.41697E-15
 -1      3202 4.69018E-03 3.63480E-04-5.54664E-15
 -1      3203 4.54617E-03 3.67957E-04-5.20238E-15
 -1      3204 4.46618E-03 3.34275E-04-5.06039E-15
 -1      3205 4.97911E-03 3.55346E-04-6.27242E-15
 -1      3206 4.83446E-03 3.59232E-04-5.90363E-15
 -1      3207 4.75218E-03 3.25263E-04-5.75050E-15
 -1      3208 5.26984E-03 3.49422E-04-7.04296E-15
 -1      3209 5.12419E-03 3.52009E-04-6.65189E-15
 -1      3210 5.03890E-03 3.17138E-04-6.48651E-15
 -1      3211 5.56336E-03 3.47490E-04-7.86300E-15
 -1      3212 5.41617E-03 3.47815E-04-7.44665E-15
 -1      3213 5.32713E-03 3.11139E-04-7.26967E-15
 -1      3214 5.86115E-03 3.51924E-04-8.73166E-15
 -1      3215 5.71162E-03 3.48711E-04-8.29163E-15
 -1      3216 5.61808E-03 3.08980E-04-8.10257E-15
 -1      3217 6.16517E-03 3.65793E-04-9.64345E-15
 -1      3218 6.01227E-03 3.57411E-04-9.18262E-15
 -1      3219 5.91359E-03 3.12999E-04-8.98186E-15
 -1      3220 6.47780E-03 3.92869E-04-1.05972E-14
 -1      3221 6.32033E-03 3.77338E-04-1.01145E-14
 -1      3222 6.21621E-03 3.26338E-04-9.90469E-15
 -1      3223 6.80122E-03 4.37393E-04-1.15934E-14
 -1      3224 6.63820E-03 4.12587E-04-1.10902E-14
 -1      3225 6.52909E-03 3.53152E-04-1.08700E-14
 -1      3226 7.13615E-03 5.02907E-04-1.26301E-14
 -1      3227 6.96752E-03 4.67277E-04-1.21069E-14
 -1      3228 6.85529E-03 3.98584E-04-1.18766E-14
 -1      3229 7.47992E-03 5.89691E-04-1.37103E-14
 -1      3230 7.30765E-03 5.44000E-04-1.31643E-14
 -1      3231 7.19610E-03 4.67679E-04-1.29240E-14
 -1      3232 7.82501E-03 6.88657E-04-1.48361E-14
 -1      3233 7.65325E-03 6.38881E-04-1.42678E-14
 -1      3234 7.54834E-03 5.61948E-04-1.40154E-14
 -1      3235 8.16078E-03 7.77264E-04-1.60112E-14
 -1      3236 7.99449E-03 7.36746E-04-1.54174E-14
 -1      3237 7.90164E-03 6.70683E-04-1.51539E-14
 -1      3238 8.79676E-03 7.99181E-04-1.85039E-14
 -1      3239 8.63829E-03 8.21350E-04-1.78617E-14
 -1      3240 9.11749E-03 6.88008E-04-1.97925E-14
 -1      3241 8.95153E-03 7.43887E-04-1.91224E-14
 -1      3242 9.80482E-03 4.27194E-04-2.26471E-14
 -1      3243 9.63214E-03 4.96118E-04-2.19253E-14
 -1      3244 1.01476E-02 3.01750E-04-2.41248E-14
 -1      3245 9.97731E-03 3.61986E-04-2.33810E-14
 -1      3246 9.93250E-03 3.39391E-04-2.30507E-14
 -1      3247 1.04811E-02 1.97791E-04-2.56568E-14
 -1      3248 1.03160E-02 2.47115E-04-2.48833E-14
 -1      3249 1.02780E-02 2.19652E-04-2.45424E-14
 -1      3250 1.08029E-02 1.14480E-04-2.72418E-14
 -1      3251 1.06435E-02 1.53889E-04-2.64439E-14
 -1      3252 1.06095E-02 1.24747E-04-2.60857E-14
 -1      3253 1.11141E-02 4.78807E-05-2.88815E-14
 -1      3254 1.09598E-02 7.94345E-05-2.80546E-14
 -1      3255 1.09268E-02 5.03219E-05-2.76874E-14
 -1      3256 1.14171E-02-6.21871E-06-3.05614E-14
 -1      3257 1.12665E-02 1.95634E-05-2.97161E-14
 -1      3258 1.12326E-02-8.99985E-06-2.93363E-14
 -1      3259 1.17142E-02-5.15324E-05-3.22808E-14
 -1      3260 1.15663E-02-2.97506E-05-3.14165E-14
 -1      3261 1.15302E-02-5.77789E-05-3.10269E-14
 -1      3262 1.20073E-02-9.10234E-05-3.40269E-14
 -1      3263 1.18612E-02-7.18407E-05-3.31506E-14
 -1      3264 1.18225E-02-9.95140E-05-3.27498E-14
 -1      3265 1.22978E-02-1.26971E-04-3.58079E-14
 -1      3266 1.21528E-02-1.09322E-04-3.49151E-14
 -1      3267 1.21114E-02-1.36805E-04-3.45074E-14
 -1      3268 1.25866E-02-1.61064E-04-3.76100E-14
 -1      3269 1.24423E-02-1.44167E-04-3.67055E-14
 -1      3270 1.23985E-02-1.71563E-04-3.62897E-14
 -1      3271 1.28743E-02-1.94511E-04-3.94344E-14
 -1      3272 1.27305E-02-1.77813E-04-3.85205E-14
 -1      3273 1.26845E-02-2.05160E-04-3.80954E-14
 -1      3274 1.31613E-02-2.28149E-04-4.12842E-14
 -1      3275 1.30178E-02-2.11270E-04-4.03547E-14
 -1      3276 1.29701E-02-2.38564E-04-3.99265E-14
 -1      3277 1.34479E-02-2.62530E-04-4.31623E-14
 -1      3278 1.33046E-02-2.45223E-04-4.22195E-14
 -1      3279 1.32554E-02-2.72432E-04-4.17833E-14
 -1      3280 1.37341E-02-2.98013E-04-4.50620E-14
 -1      3281 1.35910E-02-2.80120E-04-4.41088E-14
 -1      3282 1.35408E-02-3.07186E-04-4.36656E-14
 -1      3283 1.39398E-02-3.34461E-04-4.64139E-14
 -1      3284 1.38241E-02-3.12316E-04-4.56565E-14
 -1      3285 1.37733E-02-3.39194E-04-4.52100E-14
 -1      3286 1.39529E-02-3.68015E-04-4.64026E-14
 -1      3287 1.43379E-02-1.08154E-03-4.68725E-14
 -1      3288 1.01712E-03 6.76655E-05-3.35222E-16
 -1      3289 1.01596E-03 4.08953E-05-3.37350E-16
 -1      3290 1.41861E-02-8.80065E-04-4.64100E-14
 -1      3291 1.41678E-02-8.41046E-04-4.64031E-14
 -1      3292 1.40370E-02-8.03209E-04-4.55575E-14
 -1      3293 1.41102E-02-7.25495E-04-4.63594E-14
 -1      3294 1.40898E-02-6.86827E-04-4.63398E-14
 -1      3295 1.39986E-02-7.26396E-04-4.55288E-14
 -1      3296 1.42216E-02-9.58843E-04-4.64146E-14
 -1      3297 1.42040E-02-9.19308E-04-4.64123E-14
 -1      3298 1.40732E-02-8.80669E-04-4.55702E-14
 -1      3299 8.64532E-03 7.58652E-04-1.78500E-14
 -1      3300 8.72220E-03 7.56204E-04-1.81421E-14
 -1      3301 6.66794E-03-2.39533E-04-1.27859E-14
 -1      3302 6.54945E-03-2.00092E-04-1.26773E-14
 -1      3303 2.68402E-03 4.04626E-04-1.77152E-15
 -1      3304 2.54093E-03 4.03179E-04-1.58616E-15
 -1      3305 2.74995E-03 3.68298E-04-1.88909E-15
 -1      3306 3.54239E-03 3.96752E-04-3.11558E-15
 -1      3307 3.39930E-03 3.99603E-04-2.86364E-15
 -1      3308 3.60892E-03 3.58753E-04-3.26961E-15
 -1      3309 3.25623E-03 4.01931E-04-2.62342E-15
 -1      3310 3.11318E-03 4.03690E-04-2.39437E-15
 -1      3311 3.03655E-03 3.67635E-04-2.30550E-15
 -1      3312 3.32286E-03 3.64257E-04-2.76512E-15
 -1      3313 1.00731E-02 8.36812E-05-2.24144E-14
 -1      3314 1.02631E-02-1.26086E-05-2.28526E-14
 -1      3315 1.44490E-03-3.10811E-04-5.42277E-16
 -1      3316 1.58842E-03-3.24615E-04-6.48041E-16
 -1      3317 1.65276E-03-2.96376E-04-7.17349E-16
 -1      3318 2.39781E-03 4.00616E-04-1.41141E-15
 -1      3319 2.25464E-03 3.96836E-04-1.24739E-15
 -1      3320 2.46307E-03 3.65489E-04-1.51651E-15
 -1      3321 6.44539E-03-1.69154E-04-1.25596E-14
 -1      3322 6.36982E-03-1.50174E-04-1.24406E-14
 -1      3323 6.44583E-03-1.82943E-04-1.22663E-14
 -1      3324 8.55056E-03 7.62462E-04-1.75054E-14
 -1      3325 7.00432E-03 1.16989E-04-1.34082E-14
 -1      3326 7.18348E-03 2.02620E-04-1.37113E-14
 -1      3327 1.04588E-02-5.77201E-04-2.29717E-14
 -1      3328 1.02656E-02-6.71936E-04-2.24959E-14
 -1      3329 8.88187E-04-2.10754E-04-2.31315E-16
 -1      3330 6.68302E-03-1.54249E-05-1.29345E-14
 -1      3331 6.81933E-03 3.73525E-05-1.31218E-14
 -1      3332 7.85193E-03 5.47677E-04-1.52046E-14
 -1      3333 8.02344E-03 6.28971E-04-1.57007E-14
 -1      3334 1.07715E-02-4.43102E-04-2.36408E-14
 -1      3335 1.06390E-02-4.93488E-04-2.33497E-14
 -1      3336 1.10707E-02-3.08704E-04-2.44874E-14
 -1      3337 1.11084E-02-3.20627E-04-2.44338E-14
 -1      3338 9.27136E-03 5.44771E-04-2.01461E-14
 -1      3339 9.45690E-03 4.35379E-04-2.07338E-14
 -1      3340 9.20959E-03 5.96649E-04-2.00187E-14
 -1      3341 7.40590E-03 3.21209E-04-1.41180E-14
 -1      3342 7.61023E-03 4.30388E-04-1.45693E-14
 -1      3343 1.14509E-03 3.08702E-04-3.32918E-16
 -1      3344 1.08257E-03 2.70013E-04-3.13700E-16
 -1      3345 1.20172E-03 2.71089E-04-3.88266E-16
 -1      3346 1.28827E-03 3.30164E-04-4.15453E-16
 -1      3347 1.04594E-02-1.01693E-04-2.32968E-14
 -1      3348 1.06219E-02-1.65978E-04-2.36530E-14
 -1      3349 9.67898E-03 3.06270E-04-2.13977E-14
 -1      3350 9.85832E-03 2.00859E-04-2.18783E-14
 -1      3351 1.11010E-02-3.31437E-04-2.42412E-14
 -1      3352 1.10557E-02-3.40824E-04-2.40343E-14
 -1      3353 8.66298E-03 7.71315E-04-1.79275E-14
 -1      3354 8.77838E-03 7.53171E-04-1.83742E-14
 -1      3355 8.50446E-03 7.64757E-04-1.73342E-14
 -1      3356 8.55642E-03 7.71976E-04-1.75266E-14
 -1      3357 8.61568E-03 7.79847E-04-1.77530E-14
 -1      3358 8.40329E-03 7.59357E-04-1.69595E-14
 -1      3359 1.01537E-03 1.43399E-05-3.38393E-16
 -1      3360 1.01534E-03-1.21159E-05-3.38596E-16
 -1      3361 1.13602E-03 2.98887E-05-4.09977E-16
 -1      3362 1.15353E-03 2.10212E-04-3.82628E-16
 -1      3363 1.02877E-03 1.79924E-04-3.17170E-16
 -1      3364 1.02464E-03 1.50747E-04-3.23241E-16
 -1      3365 7.68462E-03 5.04283E-04-1.46576E-14
 -1      3366 1.07519E-02-2.00401E-04-2.41638E-14
 -1      3367 1.02419E-03-1.48015E-04-3.25735E-16
 -1      3368 1.02820E-03-1.77107E-04-3.19677E-16
 -1      3369 2.17591E-03 3.58205E-04-1.18739E-15
 -1      3370 6.77682E-03-3.30718E-04-1.23598E-14
 -1      3371 6.30817E-03-1.36874E-04-1.21205E-14
 -1      3372 1.39801E-02-4.92040E-04-4.61980E-14
 -1      3373 1.39573E-02-4.52594E-04-4.61613E-14
 -1      3374 1.42515E-02-1.03495E-03-4.63831E-14
 -1      3375 6.35143E-03-1.03727E-04-1.22886E-14
 -1      3376 1.09837E-02-4.07147E-04-2.45481E-14
 -1      3377 1.08833E-02-4.20380E-04-2.40931E-14
 -1      3378 1.08680E-02-4.55900E-04-2.43668E-14
 -1      3379 1.39577E-02-6.49693E-04-4.54885E-14
 -1      3380 1.40688E-02-6.48112E-04-4.63150E-14
 -1      3381 1.40472E-02-6.09265E-04-4.62881E-14
 -1      3382 1.02202E-02-7.38061E-04-2.25935E-14
 -1      3383 1.04086E-02-6.85633E-04-2.33484E-14
 -1      3384 9.66754E-03-9.83697E-04-2.07076E-14
 -1      3385 1.00041E-02 1.48093E-04-2.24796E-14
 -1      3386 1.10164E-02-2.81858E-04-2.48609E-14
 -1      3387 1.10466E-02-2.97287E-04-2.46746E-14
 -1      3388 1.11277E-02-3.12742E-04-2.51341E-14
 -1      3389 1.03965E-02-4.85998E-05-2.34714E-14
 -1      3390 8.88286E-03 7.45736E-04-1.88191E-14
 -1      3391 8.48214E-03 8.23768E-04-1.72330E-14
 -1      3392 8.32244E-03 8.09867E-04-1.66146E-14
 -1      3393 8.24303E-03 7.66805E-04-1.63390E-14
 -1      3394 9.45954E-03 5.67081E-04-2.12172E-14
 -1      3395 9.28924E-03 6.36204E-04-2.05201E-14
 -1      3396 1.40253E-02-5.70507E-04-4.62584E-14
 -1      3397 1.40028E-02-5.31273E-04-4.62282E-14
 -1      3398 1.38693E-02-4.95318E-04-4.53789E-14
 -1      3399 1.39144E-02-5.72817E-04-4.54374E-14
 -1      3400 1.01892E-03 9.47277E-05-3.32064E-16
 -1      3401 1.13868E-03 8.77615E-05-4.05126E-16
 -1      3402 1.02137E-03 1.22314E-04-3.28039E-16
 -1      3403 1.57492E-03 3.63633E-04-6.10623E-16
 -1      3404 1.43154E-03 3.48375E-04-5.07976E-16
 -1      3405 1.38770E-03 3.18287E-04-4.92973E-16
 -1      3406 1.05670E-02-6.00674E-04-2.37466E-14
 -1      3407 7.24509E-03 2.81393E-04-1.36332E-14
 -1      3408 1.42248E-02-1.00228E-03-4.62918E-14
 -1      3409 1.84318E-03 3.81369E-04-8.33548E-16
 -1      3410 1.69983E-03 3.70843E-04-7.11155E-16
 -1      3411 1.65627E-03 3.40983E-04-6.92765E-16
 -1      3412 1.90686E-03 3.50217E-04-9.14999E-16
 -1      3413 1.11433E-02-3.33092E-04-2.47530E-14
 -1      3414 8.10349E-03 6.76342E-04-1.59246E-14
 -1      3415 1.31638E-03-2.94891E-04-4.56571E-16
 -1      3416 1.38059E-03-2.70892E-04-5.14481E-16
 -1      3417 1.18812E-03-2.76823E-04-3.78766E-16
 -1      3418 1.01867E-03-9.22484E-05-3.33690E-16
 -1      3419 1.02103E-03-1.19780E-04-3.30234E-16
 -1      3420 1.14382E-03-1.44641E-04-3.98417E-16
 -1      3421 6.56049E-03-3.44072E-05-1.25810E-14
 -1      3422 1.01457E-03-2.33013E-04-2.91867E-16
 -1      3423 1.05868E-02-5.52812E-04-2.35310E-14
 -1      3424 6.85774E-03 9.30873E-05-1.29526E-14
 -1      3425 1.00573E-02-7.84599E-04-2.19490E-14
 -1      3426 9.58722E-03 3.83391E-04-2.12670E-14
 -1      3427 1.40935E-02-9.62783E-04-4.54494E-14
 -1      3428 1.10652E-02-3.58704E-04-2.44157E-14
 -1      3429 8.56735E-03 8.05146E-04-1.75724E-14
 -1      3430 9.57871E-03 4.82027E-04-2.16054E-14
 -1      3431 1.39600E-02-8.80567E-04-4.47310E-14
 -1      3432 1.39427E-02-8.41893E-04-4.47282E-14
 -1      3433 6.43755E-03-4.92176E-05-1.21824E-14
 -1      3434 6.54689E-03-2.52807E-07-1.22723E-14
 -1      3435 2.24132E-03 3.24333E-04-1.28177E-15
 -1      3436 2.09737E-03 3.19674E-04-1.12700E-15
 -1      3437 7.45060E-03-5.89270E-04-1.40880E-14
 -1      3438 2.15042E-03-2.86870E-04-1.20487E-15
 -1      3439 2.29456E-03-2.90643E-04-1.36443E-15
 -1      3440 2.43864E-03-2.93322E-04-1.53501E-15
 -1      3441 2.58262E-03-2.94989E-04-1.71664E-15
 -1      3442 2.36149E-03-2.56058E-04-1.46119E-15
 -1      3443 2.72646E-03-2.95802E-04-1.90851E-15
 -1      3444 2.87014E-03-2.95820E-04-2.11148E-15
 -1      3445 2.64976E-03-2.59157E-04-1.82482E-15
 -1      3446 3.01362E-03-2.95169E-04-2.32529E-15
 -1      3447 3.15689E-03-2.93889E-04-2.55049E-15
 -1      3448 2.93734E-03-2.59257E-04-2.23155E-15
 -1      3449 3.29991E-03-2.92082E-04-2.78649E-15
 -1      3450 3.44268E-03-2.89774E-04-3.03276E-15
 -1      3451 3.22390E-03-2.56998E-04-2.68217E-15
 -1      3452 3.58513E-03-2.87053E-04-3.29039E-15
 -1      3453 3.72728E-03-2.83934E-04-3.55950E-15
 -1      3454 3.50917E-03-2.52881E-04-3.17658E-15
 -1      3455 3.86905E-03-2.80501E-04-3.83966E-15
 -1      3456 4.01045E-03-2.76763E-04-4.13088E-15
 -1      3457 3.79286E-03-2.47314E-04-3.71534E-15
 -1      3458 4.15139E-03-2.72815E-04-4.43336E-15
 -1      3459 4.29188E-03-2.68663E-04-4.74714E-15
 -1      3460 4.07462E-03-2.40666E-04-4.29946E-15
 -1      3461 4.43181E-03-2.64424E-04-5.07167E-15
 -1      3462 4.57119E-03-2.60107E-04-5.40696E-15
 -1      3463 4.35404E-03-2.33325E-04-4.92735E-15
 -1      3464 4.70990E-03-2.55862E-04-5.75393E-15
 -1      3465 4.84796E-03-2.51705E-04-6.11294E-15
 -1      3466 4.63064E-03-2.25757E-04-5.60053E-15
 -1      3467 4.98522E-03-2.47833E-04-6.48194E-15
 -1      3468 5.12174E-03-2.44269E-04-6.86186E-15
 -1      3469 4.90382E-03-2.18556E-04-6.31652E-15
 -1      3470 5.25734E-03-2.41261E-04-7.25456E-15
 -1      3471 5.39214E-03-2.38848E-04-7.65906E-15
 -1      3472 5.17297E-03-2.12472E-04-7.07957E-15
 -1      3473 5.52595E-03-2.37321E-04-8.07472E-15
 -1      3474 5.65903E-03-2.36749E-04-8.50244E-15
 -1      3475 5.43742E-03-2.08422E-04-7.88898E-15
 -1      3476 5.79115E-03-2.37445E-04-8.94015E-15
 -1      3477 5.92285E-03-2.39565E-04-9.38979E-15
 -1      3478 5.69667E-03-2.07444E-04-8.74360E-15
 -1      3479 6.05391E-03-2.43390E-04-9.85254E-15
 -1      3480 6.18533E-03-2.49307E-04-1.03269E-14
 -1      3481 5.95058E-03-2.10638E-04-9.64432E-15
 -1      3482 6.31685E-03-2.57510E-04-1.08125E-14
 -1      3483 6.45045E-03-2.69485E-04-1.13096E-14
 -1      3484 6.19995E-03-2.19248E-04-1.05923E-14
 -1      3485 6.26726E-03-1.41934E-04-1.17262E-14
 -1      3486 6.23443E-03-1.22687E-04-1.16958E-14
 -1      3487 9.51157E-03 4.52023E-04-2.11451E-14
 -1      3488 9.71488E-03 3.37161E-04-2.18176E-14
 -1      3489 1.11362E-02-5.14695E-04-2.63261E-14
 -1      3490 1.12716E-02-5.23138E-04-2.71277E-14
 -1      3491 1.14047E-02-5.35185E-04-2.79392E-14
 -1      3492 1.15374E-02-5.49618E-04-2.87620E-14
 -1      3493 1.13705E-02-4.95101E-04-2.75413E-14
 -1      3494 1.16696E-02-5.66216E-04-2.95910E-14
 -1      3495 1.18023E-02-5.84572E-04-3.04263E-14
 -1      3496 1.16230E-02-5.27269E-04-2.91796E-14
 -1      3497 1.19354E-02-6.04386E-04-3.12724E-14
 -1      3498 1.20692E-02-6.25466E-04-3.21279E-14
 -1      3499 1.18791E-02-5.65099E-04-3.08529E-14
 -1      3500 1.22037E-02-6.47498E-04-3.29901E-14
 -1      3501 1.23390E-02-6.70387E-04-3.38619E-14
 -1      3502 1.21400E-02-6.07204E-04-3.25618E-14
 -1      3503 1.24751E-02-6.93849E-04-3.47404E-14
 -1      3504 1.26119E-02-7.17827E-04-3.56238E-14
 -1      3505 1.24055E-02-6.52327E-04-3.43027E-14
 -1      3506 1.27495E-02-7.42083E-04-3.65154E-14
 -1      3507 1.28877E-02-7.66582E-04-3.74121E-14
 -1      3508 1.26753E-02-6.99370E-04-3.60736E-14
 -1      3509 1.30265E-02-7.91139E-04-3.83170E-14
 -1      3510 1.31659E-02-8.15735E-04-3.92280E-14
 -1      3511 1.29487E-02-7.47399E-04-3.78694E-14
 -1      3512 1.33058E-02-8.40231E-04-4.01443E-14
 -1      3513 1.34461E-02-8.64626E-04-4.10684E-14
 -1      3514 1.32251E-02-7.95672E-04-3.96894E-14
 -1      3515 1.35867E-02-8.88828E-04-4.20009E-14
 -1      3516 1.37278E-02-9.12827E-04-4.29413E-14
 -1      3517 1.35039E-02-8.43660E-04-4.15374E-14
 -1      3518 1.39520E-02-9.39566E-04-4.44847E-14
 -1      3519 1.39616E-02-4.27054E-04-4.62756E-14
 -1      3520 1.39484E-02-3.93955E-04-4.62874E-14
 -1      3521 1.38588E-02-3.79484E-04-4.56902E-14
 -1      3522 1.38503E-02-4.30787E-04-4.54610E-14
 -1      3523 3.96030E-03 3.13777E-04-3.98809E-15
 -1      3524 3.81781E-03 3.17545E-04-3.70122E-15
 -1      3525 4.81284E-03 2.87625E-04-5.95396E-15
 -1      3526 4.67087E-03 2.92063E-04-5.59685E-15
 -1      3527 5.09704E-03 2.79468E-04-6.70213E-15
 -1      3528 4.95484E-03 2.83387E-04-6.32242E-15
 -1      3529 4.87221E-03 2.50597E-04-6.15770E-15
 -1      3530 5.38242E-03 2.73243E-04-7.49792E-15
 -1      3531 5.23950E-03 2.76020E-04-7.09410E-15
 -1      3532 5.15357E-03 2.42335E-04-6.91829E-15
 -1      3533 5.67039E-03 2.70552E-04-8.34191E-15
 -1      3534 5.52595E-03 2.71311E-04-7.91374E-15
 -1      3535 5.43570E-03 2.35682E-04-7.72636E-15
 -1      3536 5.96314E-03 2.73655E-04-9.23225E-15
 -1      3537 5.81599E-03 2.71150E-04-8.78136E-15
 -1      3538 5.72022E-03 2.32079E-04-8.58090E-15
 -1      3539 6.26386E-03 2.85781E-04-1.01656E-14
 -1      3540 6.11229E-03 2.78245E-04-9.69403E-15
 -1      3541 6.00967E-03 2.33687E-04-9.48245E-15
 -1      3542 6.57654E-03 3.11554E-04-1.11418E-14
 -1      3543 6.41849E-03 2.96443E-04-1.06485E-14
 -1      3544 6.30788E-03 2.43818E-04-1.04276E-14
 -1      3545 6.90556E-03 3.57304E-04-1.21594E-14
 -1      3546 6.73896E-03 3.31210E-04-1.16453E-14
 -1      3547 6.61987E-03 2.67737E-04-1.14137E-14
 -1      3548 7.99739E-03 6.70473E-04-1.55176E-14
 -1      3549 7.81868E-03 6.11460E-04-1.49352E-14
 -1      3550 9.69792E-03 4.07121E-04-2.20064E-14
 -1      3551 9.51742E-03 4.84704E-04-2.12956E-14
 -1      3552 9.22649E-03 6.17264E-04-2.01656E-14
 -1      3553 8.35357E-03 7.66592E-04-1.67603E-14
 -1      3554 8.18304E-03 7.24963E-04-1.61533E-14
 -1      3555 1.00559E-02 2.67845E-04-2.34636E-14
 -1      3556 9.87854E-03 3.34224E-04-2.27288E-14
 -1      3557 9.82423E-03 3.30139E-04-2.24102E-14
 -1      3558 1.10509E-02-1.08688E-05-2.81324E-14
 -1      3559 1.08974E-02 1.98320E-05-2.73196E-14
 -1      3560 1.13501E-02-6.31231E-05-2.97909E-14
 -1      3561 1.12017E-02-3.81875E-05-2.89565E-14
 -1      3562 1.11741E-02-6.82648E-05-2.85774E-14
 -1      3563 1.16419E-02-1.07059E-04-3.14902E-14
 -1      3564 1.14967E-02-8.58716E-05-3.06357E-14
 -1      3565 1.14659E-02-1.14179E-04-3.02464E-14
 -1      3566 1.19292E-02-1.45721E-04-3.32215E-14
 -1      3567 1.17860E-02-1.26876E-04-3.23524E-14
 -1      3568 1.17516E-02-1.54009E-04-3.19532E-14
 -1      3569 1.22142E-02-1.81262E-04-3.49845E-14
 -1      3570 1.20719E-02-1.63769E-04-3.40996E-14
 -1      3571 1.20341E-02-1.90243E-04-3.36942E-14
 -1      3572 1.24980E-02-2.15193E-04-3.67722E-14
 -1      3573 1.23561E-02-1.98355E-04-3.58755E-14
 -1      3574 1.23153E-02-2.24538E-04-3.54621E-14
 -1      3575 1.27815E-02-2.48576E-04-3.85822E-14
 -1      3576 1.26398E-02-2.31905E-04-3.76729E-14
 -1      3577 1.25962E-02-2.58019E-04-3.72537E-14
 -1      3578 1.30652E-02-2.82148E-04-4.04187E-14
 -1      3579 1.29233E-02-2.65308E-04-3.94975E-14
 -1      3580 1.28775E-02-2.91461E-04-3.90689E-14
 -1      3581 1.33491E-02-3.16398E-04-4.22824E-14
 -1      3582 1.32071E-02-2.99173E-04-4.13464E-14
 -1      3583 1.31594E-02-3.25393E-04-4.09128E-14
 -1      3584 1.39248E-02-8.03512E-04-4.47241E-14
 -1      3585 1.39064E-02-7.65328E-04-4.47132E-14
 -1      3586 1.38126E-02-8.03412E-04-4.38956E-14
 -1      3587 1.38873E-02-7.27297E-04-4.47003E-14
 -1      3588 1.38676E-02-6.89315E-04-4.46842E-14
 -1      3589 1.37762E-02-7.27819E-04-4.38774E-14
 -1      3590 1.11380E-02-3.64350E-04-2.50033E-14
 -1      3591 1.10834E-02-3.80353E-04-2.48570E-14
 -1      3592 2.81635E-03 3.31786E-04-2.00762E-15
 -1      3593 2.67274E-03 3.31356E-04-1.80985E-15
 -1      3594 1.19922E-03-2.14184E-04-4.12444E-16
 -1      3595 1.07957E-03-2.15298E-04-3.36956E-16
 -1      3596 1.07250E-02-5.26361E-04-2.41314E-14
 -1      3597 9.87536E-03-8.90452E-04-2.14346E-14
 -1      3598 7.59908E-03 5.11682E-04-1.43078E-14
 -1      3599 9.38861E-03 5.29613E-04-2.07553E-14
 -1      3600 3.67519E-03 3.20974E-04-3.42476E-15
 -1      3601 3.53241E-03 3.24043E-04-3.16003E-15
 -1      3602 3.74122E-03 2.83507E-04-3.58051E-15
 -1      3603 1.03555E-02 1.93600E-06-2.36981E-14
 -1      3604 1.05310E-02-7.79747E-05-2.41547E-14
 -1      3605 1.01586E-03-3.86008E-05-3.37919E-16
 -1      3606 1.01695E-03-6.52320E-05-3.36265E-16
 -1      3607 1.13844E-03-8.51818E-05-4.06576E-16
 -1      3608 6.25790E-03-1.00564E-04-1.17912E-14
 -1      3609 6.33232E-03-8.10497E-05-1.19877E-14
 -1      3610 6.30993E-03-5.37481E-05-1.16898E-14
 -1      3611 8.88253E-03 7.35110E-04-1.87923E-14
 -1      3612 1.57444E-03-2.57519E-04-6.70945E-16
 -1      3613 1.71819E-03-2.67316E-04-7.88649E-16
 -1      3614 2.52902E-03 3.30036E-04-1.62305E-15
 -1      3615 2.38521E-03 3.27754E-04-1.44694E-15
 -1      3616 2.59559E-03 2.94347E-04-1.73085E-15
 -1      3617 6.44428E-03-1.99407E-04-1.19785E-14
 -1      3618 6.35171E-03-1.70143E-04-1.18660E-14
 -1      3619 1.07546E-02-1.72766E-04-2.46758E-14
 -1      3620 1.09072E-02-2.34099E-04-2.49229E-14
 -1      3621 1.07403E-02 5.41011E-05-2.65198E-14
 -1      3622 1.05794E-02 9.34761E-05-2.57341E-14
 -1      3623 1.08718E-02-1.24050E-05-2.69538E-14
 -1      3624 4.24484E-03 3.05489E-04-4.59714E-15
 -1      3625 4.10262E-03 3.09750E-04-4.28662E-15
 -1      3626 4.02535E-03 2.76379E-04-4.15645E-15
 -1      3627 1.11964E-02-3.36510E-04-2.53937E-14
 -1      3628 1.11829E-02-3.48013E-04-2.51996E-14
 -1      3629 1.12202E-02-3.66282E-04-2.56490E-14
 -1      3630 1.38216E-02-8.99757E-04-4.36580E-14
 -1      3631 8.45837E-03 7.85812E-04-1.71521E-14
 -1      3632 1.08684E-02-4.86212E-04-2.46384E-14
 -1      3633 1.08524E-02-5.29635E-04-2.48607E-14
 -1      3634 1.09993E-02-5.26638E-04-2.56460E-14
 -1      3635 1.09775E-02-4.67437E-04-2.51001E-14
 -1      3636 6.82374E-03-3.10028E-04-1.28369E-14
 -1      3637 6.74806E-03-2.72182E-04-1.28318E-14
 -1      3638 6.70308E-03 7.90833E-05-1.24249E-14
 -1      3639 6.86404E-03 1.48930E-04-1.27017E-14
 -1      3640 7.06235E-03 2.44841E-04-1.30642E-14
 -1      3641 7.25831E-03 3.47982E-04-1.34567E-14
 -1      3642 1.86216E-03-2.75366E-04-9.16923E-16
 -1      3643 2.00627E-03-2.81816E-04-1.05563E-15
 -1      3644 2.07289E-03-2.49142E-04-1.14055E-15
 -1      3645 4.52893E-03 2.96572E-04-5.25225E-15
 -1      3646 4.38692E-03 3.01082E-04-4.91909E-15
 -1      3647 4.30848E-03 2.68233E-04-4.77793E-15
 -1      3648 4.59068E-03 2.59467E-04-5.44503E-15
 -1      3649 1.34463E-03 2.88941E-04-4.77388E-16
 -1      3650 1.30234E-03 2.60330E-04-4.61192E-16
 -1      3651 1.48797E-03 3.04143E-04-5.76674E-16
 -1      3652 7.41569E-03 4.55411E-04-1.37515E-14
 -1      3653 1.04140E-02 1.37966E-04-2.49613E-14
 -1      3654 1.02441E-02 1.89600E-04-2.42029E-14
 -1      3655 1.05536E-02 5.98240E-05-2.53838E-14
 -1      3656 8.62156E-03 7.89677E-04-1.77795E-14
 -1      3657 6.62344E-03-2.45080E-04-1.24262E-14
 -1      3658 7.22972E-03 4.12305E-04-1.31779E-14
 -1      3659 1.29564E-03 2.25648E-04-4.71059E-16
 -1      3660 6.42251E-03 2.72742E-05-1.16441E-14
 -1      3661 6.55763E-03 4.85607E-05-1.20313E-14
 -1      3662 6.55702E-03 9.95538E-05-1.17914E-14
 -1      3663 2.01919E-03 2.81379E-04-1.06676E-15
 -1      3664 1.95342E-03 3.13554E-04-9.83046E-16
 -1      3665 6.24671E-03-1.53196E-04-1.14480E-14
 -1      3666 9.90283E-03 2.57917E-04-2.25379E-14
 -1      3667 1.14425E-03 1.47443E-04-3.96235E-16
 -1      3668 1.10797E-02-4.07379E-04-2.51387E-14
 -1      3669 1.38471E-02-6.51335E-04-4.46669E-14
 -1      3670 1.38258E-02-6.13254E-04-4.46444E-14
 -1      3671 1.37367E-02-6.52644E-04-4.38476E-14
 -1      3672 1.10205E-02-2.61348E-04-2.53845E-14
 -1      3673 3.10320E-03 3.30446E-04-2.43604E-15
 -1      3674 2.95984E-03 3.31466E-04-2.21645E-15
 -1      3675 2.88317E-03 2.95184E-04-2.12757E-15
 -1      3676 7.05420E-03 3.72690E-04-1.26442E-14
 -1      3677 6.92688E-03 2.96764E-04-1.24019E-14
 -1      3678 1.01982E-02 1.77875E-04-2.38714E-14
 -1      3679 3.45610E-03 2.89270E-04-3.05100E-15
 -1      3680 3.38949E-03 3.26672E-04-2.90753E-15
 -1      3681 3.24641E-03 3.28836E-04-2.66645E-15
 -1      3682 1.37588E-02-4.98462E-04-4.45645E-14
 -1      3683 1.37355E-02-4.59654E-04-4.45337E-14
 -1      3684 1.36333E-02-3.51631E-04-4.41743E-14
 -1      3685 1.34911E-02-3.33877E-04-4.32251E-14
 -1      3686 1.37691E-02-3.65152E-04-4.50949E-14
 -1      3687 1.37190E-02-3.91451E-04-4.46505E-14
 -1      3688 1.01422E-02 1.66684E-04-2.34776E-14
 -1      3689 1.00519E-02 1.57582E-04-2.28696E-14
 -1      3690 1.02454E-02 5.76875E-05-2.34196E-14
 -1      3691 1.03360E-02 8.95385E-05-2.42151E-14
 -1      3692 1.82774E-03 3.10903E-04-8.63432E-16
 -1      3693 1.07131E-02-1.28396E-04-2.49100E-14
 -1      3694 1.11192E-02-4.86356E-04-2.60511E-14
 -1      3695 1.25795E-03 4.73463E-05-4.88243E-16
 -1      3696 1.25721E-03 1.66146E-05-4.89666E-16
 -1      3697 1.27469E-03-1.88537E-04-4.72007E-16
 -1      3698 1.32680E-03-2.28747E-04-4.93854E-16
 -1      3699 1.45498E-03-2.41717E-04-5.83152E-16
 -1      3700 6.88952E-03 2.16335E-04-1.25348E-14
 -1      3701 1.13595E-03-2.74236E-05-4.10398E-16
 -1      3702 1.03925E-02 2.09542E-05-2.40984E-14
 -1      3703 1.26162E-03 1.09357E-04-4.81887E-16
 -1      3704 1.25942E-03 7.81720E-05-4.85817E-16
 -1      3705 1.38103E-03 6.62838E-05-5.73380E-16
 -1      3706 6.18550E-03-1.05198E-04-1.14066E-14
 -1      3707 1.52126E-03-2.15269E-04-6.45534E-16
 -1      3708 2.30750E-03 2.90061E-04-1.37753E-15
 -1      3709 1.26691E-03-1.23820E-04-4.84123E-16
 -1      3710 1.27030E-03-1.55838E-04-4.78784E-16
 -1      3711 1.39764E-03-1.66040E-04-5.66807E-16
 -1      3712 1.11985E-02-3.28369E-04-2.55852E-14
 -1      3713 1.12608E-02-3.43740E-04-2.60391E-14
 -1      3714 1.11921E-02-3.18630E-04-2.57755E-14
 -1      3715 1.78452E-03-2.37413E-04-8.61995E-16
 -1      3716 6.58102E-03-2.55173E-04-1.20665E-14
 -1      3717 6.51579E-03-2.28048E-04-1.20227E-14
 -1      3718 6.40234E-03-2.10147E-04-1.16269E-14
 -1      3719 1.34421E-02-3.60141E-04-4.27842E-14
 -1      3720 2.08585E-03 2.48619E-04-1.15211E-15
 -1      3721 1.94157E-03 2.43540E-04-1.00689E-15
 -1      3722 6.22799E-03-1.69606E-04-1.11541E-14
 -1      3723 6.14867E-03-1.40619E-04-1.10209E-14
 -1      3724 1.37373E-02-8.54663E-04-4.31835E-14
 -1      3725 6.39666E-03-2.32041E-04-1.13744E-14
 -1      3726 6.53009E-03-2.78498E-04-1.16034E-14
 -1      3727 2.57339E-03-2.22527E-04-1.74169E-15
 -1      3728 2.71749E-03-2.23190E-04-1.93460E-15
 -1      3729 2.86135E-03-2.23250E-04-2.13825E-15
 -1      3730 3.00496E-03-2.22741E-04-2.35288E-15
 -1      3731 2.78574E-03-1.87165E-04-2.04554E-15
 -1      3732 3.14824E-03-2.21762E-04-2.57849E-15
 -1      3733 3.29116E-03-2.20333E-04-2.81531E-15
 -1      3734 3.07297E-03-1.86353E-04-2.47508E-15
 -1      3735 3.43368E-03-2.18542E-04-3.06303E-15
 -1      3736 3.57576E-03-2.16394E-04-3.32111E-15
 -1      3737 3.35869E-03-1.83974E-04-2.94912E-15
 -1      3738 3.71734E-03-2.13977E-04-3.59135E-15
 -1      3739 3.85838E-03-2.11288E-04-3.87258E-15
 -1      3740 3.64248E-03-1.80391E-04-3.46720E-15
 -1      3741 3.99881E-03-2.08418E-04-4.16507E-15
 -1      3742 4.13859E-03-2.05359E-04-4.46896E-15
 -1      3743 3.92392E-03-1.75926E-04-4.03059E-15
 -1      3744 4.27763E-03-2.02220E-04-4.78262E-15
 -1      3745 4.41589E-03-1.98986E-04-5.10837E-15
 -1      3746 4.20249E-03-1.70906E-04-4.63831E-15
 -1      3747 4.55325E-03-1.95793E-04-5.44531E-15
 -1      3748 4.68968E-03-1.92623E-04-5.79289E-15
 -1      3749 4.47761E-03-1.65694E-04-5.29024E-15
 -1      3750 4.82500E-03-1.89649E-04-6.15306E-15
 -1      3751 4.95921E-03-1.86842E-04-6.52274E-15
 -1      3752 4.74856E-03-1.60740E-04-5.98715E-15
 -1      3753 5.09209E-03-1.84420E-04-6.90329E-15
 -1      3754 5.22364E-03-1.82334E-04-7.29718E-15
 -1      3755 5.01444E-03-1.56589E-04-6.72833E-15
 -1      3756 5.35361E-03-1.80851E-04-7.70224E-15
 -1      3757 5.48203E-03-1.79884E-04-8.11875E-15
 -1      3758 5.27420E-03-1.53874E-04-7.51528E-15
 -1      3759 5.60855E-03-1.79754E-04-8.54700E-15
 -1      3760 5.73333E-03-1.80291E-04-8.98484E-15
 -1      3761 5.52649E-03-1.53266E-04-8.34887E-15
 -1      3762 5.85584E-03-1.81873E-04-9.43643E-15
 -1      3763 5.97651E-03-1.84225E-04-9.89962E-15
 -1      3764 5.76965E-03-1.55331E-04-9.22886E-15
 -1      3765 1.72042E-03 3.11906E-04-7.65311E-16
 -1      3766 1.59497E-03 3.06216E-04-6.61418E-16
 -1      3767 1.55257E-03 2.77333E-04-6.41604E-16
 -1      3768 1.76741E-03 2.77087E-04-8.25810E-16
 -1      3769 1.35941E-02-8.23248E-04-4.22436E-14
 -1      3770 1.36865E-02-8.10621E-04-4.29506E-14
 -1      3771 6.33394E-03-2.04956E-04-1.13332E-14
 -1      3772 6.64986E-03-2.98932E-04-1.20002E-14
 -1      3773 1.15787E-02-4.90149E-04-2.87701E-14
 -1      3774 1.17007E-02-5.08332E-04-2.95970E-14
 -1      3775 1.18243E-02-5.27385E-04-3.04335E-14
 -1      3776 1.19500E-02-5.47477E-04-3.12797E-14
 -1      3777 1.17701E-02-4.91812E-04-3.00143E-14
 -1      3778 1.20772E-02-5.68251E-04-3.21337E-14
 -1      3779 1.22062E-02-5.89834E-04-3.29966E-14
 -1      3780 1.20148E-02-5.31187E-04-3.17045E-14
 -1      3781 1.23366E-02-6.11918E-04-3.38658E-14
 -1      3782 1.24685E-02-6.34572E-04-3.47439E-14
 -1      3783 1.22681E-02-5.73171E-04-3.34290E-14
 -1      3784 1.26017E-02-6.57537E-04-3.56294E-14
 -1      3785 1.27360E-02-6.80853E-04-3.65221E-14
 -1      3786 1.25284E-02-6.17152E-04-3.51850E-14
 -1      3787 1.28713E-02-7.04311E-04-3.74218E-14
 -1      3788 1.30077E-02-7.27924E-04-3.83256E-14
 -1      3789 1.27943E-02-6.62453E-04-3.69720E-14
 -1      3790 1.31448E-02-7.51548E-04-3.92344E-14
 -1      3791 1.32828E-02-7.75172E-04-4.01498E-14
 -1      3792 1.30649E-02-7.08448E-04-3.87788E-14
 -1      3793 1.34548E-02-7.99896E-04-4.13115E-14
 -1      3794 5.48702E-03 1.98604E-04-7.95447E-15
 -1      3795 5.34767E-03 2.02007E-04-7.53893E-15
 -1      3796 1.37151E-02-4.16901E-04-4.45377E-14
 -1      3797 1.38040E-02-5.75152E-04-4.46208E-14
 -1      3798 1.37817E-02-5.36936E-04-4.45945E-14
 -1      3799 1.36489E-02-5.01434E-04-4.37543E-14
 -1      3800 5.20861E-03 2.05856E-04-7.13545E-15
 -1      3801 5.06956E-03 2.09984E-04-6.74336E-15
 -1      3802 5.26222E-03 1.70038E-04-7.35185E-15
 -1      3803 4.93046E-03 2.14283E-04-6.36316E-15
 -1      3804 4.79115E-03 2.18671E-04-5.99408E-15
 -1      3805 4.98767E-03 1.78714E-04-6.56811E-15
 -1      3806 5.76740E-03 1.93768E-04-8.82074E-15
 -1      3807 5.62678E-03 1.95749E-04-8.38197E-15
 -1      3808 5.53636E-03 1.61973E-04-8.18306E-15
 -1      3809 6.05254E-03 1.93319E-04-9.73340E-15
 -1      3810 5.90910E-03 1.92745E-04-9.27155E-15
 -1      3811 5.81179E-03 1.55481E-04-9.06062E-15
 -1      3812 6.34693E-03 2.00798E-04-1.06875E-14
 -1      3813 6.19818E-03 1.95586E-04-1.02055E-14
 -1      3814 6.09154E-03 1.52347E-04-9.98328E-15
 -1      3815 4.09004E-03 2.39493E-04-4.32537E-15
 -1      3816 3.94874E-03 2.43107E-04-4.02594E-15
 -1      3817 1.10843E-02-4.31800E-04-2.54154E-14
 -1      3818 1.10927E-02-4.58904E-04-2.56927E-14
 -1      3819 1.11756E-02-4.06921E-04-2.57285E-14
 -1      3820 8.72279E-03 7.82682E-04-1.81835E-14
 -1      3821 1.26862E-03 1.73652E-04-4.70625E-16
 -1      3822 1.26468E-03 1.41187E-04-4.76886E-16
 -1      3823 1.38585E-03 1.32311E-04-5.65222E-16
 -1      3824 1.15794E-02-1.62161E-04-3.07009E-14
 -1      3825 1.14381E-02-1.42497E-04-2.98580E-14
 -1      3826 1.12954E-02-1.21641E-04-2.90222E-14
 -1      3827 1.11506E-02-9.89144E-05-2.82001E-14
 -1      3828 1.14134E-02-1.70927E-04-2.94696E-14
 -1      3829 1.21370E-02-2.33173E-04-3.41644E-14
 -1      3830 1.19981E-02-2.16104E-04-3.32873E-14
 -1      3831 1.24147E-02-2.66726E-04-3.59359E-14
 -1      3832 1.22757E-02-2.50011E-04-3.50460E-14
 -1      3833 1.22374E-02-2.74761E-04-3.46332E-14
 -1      3834 1.26930E-02-3.00123E-04-3.77339E-14
 -1      3835 1.25537E-02-2.83413E-04-3.68342E-14
 -1      3836 1.25121E-02-3.08056E-04-3.64124E-14
 -1      3837 1.29724E-02-3.33881E-04-3.95564E-14
 -1      3838 1.28325E-02-3.16937E-04-3.86410E-14
 -1      3839 1.27883E-02-3.41703E-04-3.82159E-14
 -1      3840 1.32529E-02-3.68348E-04-4.14094E-14
 -1      3841 1.31125E-02-3.51012E-04-4.04799E-14
 -1      3842 1.30661E-02-3.76004E-04-4.00462E-14
 -1      3843 1.36696E-02-7.72975E-04-4.29468E-14
 -1      3844 1.13086E-02-3.74836E-04-2.64034E-14
 -1      3845 1.12671E-02-3.92240E-04-2.62023E-14
 -1      3846 1.04931E-02 4.98491E-05-2.49406E-14
 -1      3847 1.04468E-02 3.26450E-05-2.45356E-14
 -1      3848 1.05459E-02-1.51828E-05-2.48230E-14
 -1      3849 1.06560E-02 9.90647E-06-2.57136E-14
 -1      3850 1.36652E-02-7.27943E-04-4.30630E-14
 -1      3851 1.36464E-02-6.90725E-04-4.30496E-14
 -1      3852 1.07508E-02-1.12174E-04-2.53568E-14
 -1      3853 1.09473E-02-1.91924E-04-2.58961E-14
 -1      3854 1.07954E-02-9.62281E-05-2.58083E-14
 -1      3855 1.36047E-02-4.20749E-04-4.37286E-14
 -1      3856 6.21314E-03-1.87542E-04-1.09096E-14
 -1      3857 1.34637E-02-4.02772E-04-4.27815E-14
 -1      3858 6.09908E-03-1.07135E-04-1.09331E-14
 -1      3859 6.12221E-03-8.24257E-05-1.10240E-14
 -1      3860 2.37447E-03 2.55410E-04-1.47496E-15
 -1      3861 2.23017E-03 2.52550E-04-1.30836E-15
 -1      3862 2.15331E-03 2.15329E-04-1.23950E-15
 -1      3863 1.09849E-02-6.41882E-05-2.73415E-14
 -1      3864 1.08328E-02-3.53196E-05-2.65440E-14
 -1      3865 1.07778E-02-4.84100E-05-2.60887E-14
 -1      3866 1.11136E-02-1.21219E-04-2.77770E-14
 -1      3867 1.12139E-02-4.55421E-04-2.63707E-14
 -1      3868 3.80709E-03 2.46427E-04-3.73758E-15
 -1      3869 3.66508E-03 2.49454E-04-3.46045E-15
 -1      3870 3.87282E-03 2.09815E-04-3.89502E-15
 -1      3871 1.26257E-03-6.13358E-05-4.90981E-16
 -1      3872 1.26433E-03-9.23682E-05-4.88176E-16
 -1      3873 1.39115E-03-9.90298E-05-5.77487E-16
 -1      3874 6.19827E-03-5.18599E-05-1.12173E-14
 -1      3875 6.29167E-03-2.03456E-05-1.14043E-14
 -1      3876 2.66278E-03 2.58452E-04-1.83980E-15
 -1      3877 2.51868E-03 2.57355E-04-1.65188E-15
 -1      3878 2.44212E-03 2.20445E-04-1.57357E-15
 -1      3879 1.10684E-02-2.49708E-04-2.60351E-14
 -1      3880 1.11526E-02-2.92899E-04-2.59763E-14
 -1      3881 6.75055E-03 2.10543E-04-1.20534E-14
 -1      3882 1.18591E-02-1.98702E-04-3.24178E-14
 -1      3883 1.17195E-02-1.80754E-04-3.15547E-14
 -1      3884 1.19637E-02-2.41368E-04-3.28815E-14
 -1      3885 1.13372E-02-4.63199E-04-2.71554E-14
 -1      3886 1.14571E-02-4.78882E-04-2.79668E-14
 -1      3887 1.15353E-02-4.60582E-04-2.83757E-14
 -1      3888 1.13040E-02-4.38283E-04-2.67887E-14
 -1      3889 1.25915E-03-6.91963E-06-4.91523E-16
 -1      3890 1.25965E-03-3.75822E-05-4.90669E-16
 -1      3891 1.38617E-03-4.10273E-05-5.80577E-16
 -1      3892 1.38150E-03 8.91811E-06-5.77907E-16
 -1      3893 1.41618E-03 2.19537E-04-5.60627E-16
 -1      3894 1.51621E-03-1.79457E-04-6.53869E-16
 -1      3895 1.63533E-03-1.92382E-04-7.47517E-16
 -1      3896 1.51219E-03-1.44221E-04-6.60645E-16
 -1      3897 2.28476E-03-2.18988E-04-1.38823E-15
 -1      3898 2.42913E-03-2.21143E-04-1.55972E-15
 -1      3899 2.49743E-03-1.85966E-04-1.65940E-15
 -1      3900 1.99597E-03-2.11878E-04-1.07692E-15
 -1      3901 2.14035E-03-2.15926E-04-1.22721E-15
 -1      3902 2.20855E-03-1.82206E-04-1.31561E-15
 -1      3903 1.74342E-03-1.99863E-04-8.39498E-16
 -1      3904 1.88749E-03-2.05881E-04-9.71391E-16
 -1      3905 1.95558E-03-1.74055E-04-1.04949E-15
 -1      3906 1.73897E-03-1.62433E-04-8.47534E-16
 -1      3907 1.34153E-02-4.27944E-04-4.23408E-14
 -1      3908 6.57711E-03 1.47279E-04-1.16678E-14
 -1      3909 6.61433E-03 2.20450E-04-1.15429E-14
 -1      3910 6.45816E-03 2.08559E-04-1.10413E-14
 -1      3911 6.43673E-03 1.17937E-04-1.12878E-14
 -1      3912 6.28638E-03 2.03277E-05-1.11744E-14
 -1      3913 6.01351E-03-1.34143E-04-1.03709E-14
 -1      3914 6.05328E-03-1.19675E-04-1.06510E-14
 -1      3915 5.96677E-03-9.87849E-05-1.02858E-14
 -1      3916 4.37153E-03 2.31597E-04-4.95898E-15
 -1      3917 4.23096E-03 2.35657E-04-4.63683E-15
 -1      3918 4.15440E-03 2.03195E-04-4.49570E-15
 -1      3919 6.00646E-03-1.56223E-04-1.02030E-14
 -1      3920 6.09829E-03-1.83210E-04-1.04228E-14
 -1      3921 1.78390E-03 2.41425E-04-8.57767E-16
 -1      3922 1.67614E-03 2.43084E-04-7.60907E-16
 -1      3923 1.36267E-02-6.53602E-04-4.30351E-14
 -1      3924 1.36061E-02-6.16413E-04-4.30171E-14
 -1      3925 1.35170E-02-6.54146E-04-4.22288E-14
 -1      3926 1.50370E-03 2.29922E-05-6.71094E-16
 -1      3927 1.50558E-03-3.13199E-06-6.73344E-16
 -1      3928 1.33723E-02-7.55764E-04-4.08471E-14
 -1      3929 1.12857E-02-4.12439E-04-2.64866E-14
 -1      3930 1.36941E-02-5.77347E-04-4.38071E-14
 -1      3931 3.17005E-03 2.93306E-04-2.56747E-15
 -1      3932 6.34116E-03 1.57294E-04-1.08100E-14
 -1      3933 1.85098E-03 2.10770E-04-9.32726E-16
 -1      3934 3.58945E-03 2.15303E-04-3.34155E-15
 -1      3935 3.52275E-03 2.52118E-04-3.19592E-15
 -1      3936 3.38010E-03 2.54416E-04-2.94239E-15
 -1      3937 1.34396E-02-4.65905E-04-4.23711E-14
 -1      3938 1.32309E-02-4.31053E-04-4.10038E-14
 -1      3939 1.34633E-02-5.03472E-04-4.23994E-14
 -1      3940 1.16897E-02-2.07173E-04-3.11575E-14
 -1      3941 1.35408E-02-7.35194E-04-4.21303E-14
 -1      3942 2.80670E-03 2.58831E-04-2.03899E-15
 -1      3943 2.73051E-03 2.22432E-04-1.95052E-15
 -1      3944 2.95042E-03 2.58537E-04-2.24866E-15
 -1      3945 1.13321E-02-3.65826E-04-2.66010E-14
 -1      3946 1.13984E-02-3.90462E-04-2.71641E-14
 -1      3947 1.13473E-02-3.57324E-04-2.67977E-14
 -1      3948 1.50644E-03 9.11644E-05-6.66025E-16
 -1      3949 1.50466E-03 5.69727E-05-6.69088E-16
 -1      3950 1.62897E-03 4.62527E-05-7.72453E-16
 -1      3951 1.10994E-02-2.34901E-04-2.64965E-14
 -1      3952 1.12412E-02-3.12444E-04-2.64360E-14
 -1      3953 6.08354E-03-5.68892E-05-1.07515E-14
 -1      3954 4.71176E-03 1.87380E-04-5.83129E-15
 -1      3955 4.65160E-03 2.23053E-04-5.63724E-15
 -1      3956 4.51172E-03 2.27391E-04-5.29264E-15
 -1      3957 5.89864E-03-1.34258E-04-9.85017E-15
 -1      3958 1.17147E-02-4.58563E-04-2.95928E-14
 -1      3959 1.18317E-02-4.77078E-04-3.04285E-14
 -1      3960 1.54107E-03 1.87460E-04-6.69508E-16
 -1      3961 1.52341E-03 2.20497E-04-6.43067E-16
 -1      3962 2.99819E-03-1.50807E-04-2.37291E-15
 -1      3963 3.14144E-03-1.50137E-04-2.59889E-15
 -1      3964 3.28425E-03-1.49190E-04-2.83583E-15
 -1      3965 3.42656E-03-1.47965E-04-3.08427E-15
 -1      3966 3.21035E-03-1.14159E-04-2.72350E-15
 -1      3967 3.56832E-03-1.46543E-04-3.34308E-15
 -1      3968 3.70947E-03-1.44911E-04-3.61365E-15
 -1      3969 3.49481E-03-1.12368E-04-3.21992E-15
 -1      3970 3.84993E-03-1.43156E-04-3.89584E-15
 -1      3971 3.98966E-03-1.41261E-04-4.18960E-15
 -1      3972 3.77678E-03-1.10006E-04-3.76123E-15
 -1      3973 4.12857E-03-1.39325E-04-4.49386E-15
 -1      3974 4.26659E-03-1.37323E-04-4.80895E-15
 -1      3975 4.05573E-03-1.07333E-04-4.34867E-15
 -1      3976 4.40362E-03-1.35375E-04-5.13467E-15
 -1      3977 4.53957E-03-1.33449E-04-5.47228E-15
 -1      3978 4.33105E-03-1.04633E-04-4.97996E-15
 -1      3979 4.67433E-03-1.31702E-04-5.82103E-15
 -1      3980 4.80779E-03-1.30083E-04-6.18161E-15
 -1      3981 4.60202E-03-1.02254E-04-5.65544E-15
 -1      3982 4.93979E-03-1.28792E-04-6.55357E-15
 -1      3983 5.07022E-03-1.27748E-04-6.93472E-15
 -1      3984 4.86770E-03-1.00638E-04-6.37603E-15
 -1      3985 5.19885E-03-1.27207E-04-7.32858E-15
 -1      3986 5.32556E-03-1.27034E-04-7.73479E-15
 -1      3987 5.12697E-03-1.00284E-04-7.14224E-15
 -1      3988 5.45004E-03-1.27561E-04-8.15100E-15
 -1      3989 5.57211E-03-1.28533E-04-8.57978E-15
 -1      3990 5.37834E-03-1.01767E-04-7.95413E-15
 -1      3991 5.68017E-03-1.29620E-04-8.97966E-15
 -1      3992 5.79658E-03-1.31837E-04-9.43059E-15
 -1      3993 5.81679E-03-1.09659E-04-9.58931E-15
 -1      3994 5.60872E-03-1.04871E-04-8.77148E-15
 -1      3995 1.28821E-02-3.82868E-04-3.86956E-14
 -1      3996 1.27446E-02-3.65678E-04-3.77884E-14
 -1      3997 1.11468E-02-2.16395E-04-2.71093E-14
 -1      3998 1.12486E-02-2.67540E-04-2.72521E-14
 -1      3999 1.32004E-02-6.88799E-04-3.98074E-14
 -1      4000 1.33701E-02-7.12106E-04-4.09635E-14
 -1      4001 1.33660E-02-6.68664E-04-4.10752E-14
 -1      4002 1.19516E-02-4.96012E-04-3.12759E-14
 -1      4003 1.20742E-02-5.15809E-04-3.21298E-14
 -1      4004 1.18867E-02-4.62700E-04-3.08444E-14
 -1      4005 1.21990E-02-5.36049E-04-3.29912E-14
 -1      4006 1.23260E-02-5.56941E-04-3.38612E-14
 -1      4007 1.21288E-02-5.00503E-04-3.25524E-14
 -1      4008 1.24548E-02-5.78179E-04-3.47400E-14
 -1      4009 1.25852E-02-5.99887E-04-3.56269E-14
 -1      4010 1.23804E-02-5.40578E-04-3.42939E-14
 -1      4011 1.27171E-02-6.21825E-04-3.65183E-14
 -1      4012 1.28504E-02-6.44048E-04-3.74178E-14
 -1      4013 1.26395E-02-5.82386E-04-3.60662E-14
 -1      4014 1.29572E-02-6.55371E-04-3.81552E-14
 -1      4015 1.30925E-02-6.77700E-04-3.90619E-14
 -1      4016 1.30898E-02-6.35945E-04-3.91739E-14
 -1      4017 1.28769E-02-6.14624E-04-3.76949E-14
 -1      4018 5.85335E-03 1.17783E-04-9.30030E-15
 -1      4019 5.71836E-03 1.21763E-04-8.85036E-15
 -1      4020 5.31464E-03 1.35070E-04-7.56854E-15
 -1      4021 5.17956E-03 1.39581E-04-7.16523E-15
 -1      4022 5.04408E-03 1.44016E-04-6.77392E-15
 -1      4023 4.90801E-03 1.48362E-04-6.39354E-15
 -1      4024 5.09981E-03 1.10233E-04-6.97897E-15
 -1      4025 1.35466E-02-5.78556E-04-4.27205E-14
 -1      4026 1.35244E-02-5.41333E-04-4.26978E-14
 -1      4027 1.33172E-02-5.05449E-04-4.13286E-14
 -1      4028 1.34378E-02-5.80012E-04-4.19190E-14
 -1      4029 6.14419E-03 1.73046E-05-1.06633E-14
 -1      4030 6.26329E-03 6.37520E-05-1.08918E-14
 -1      4031 6.17335E-03 1.03301E-04-1.04258E-14
 -1      4032 6.03668E-03 1.05613E-04-9.95043E-15
 -1      4033 1.50687E-03-7.51308E-05-6.69752E-16
 -1      4034 1.50909E-03-1.09490E-04-6.65903E-16
 -1      4035 1.62762E-03-1.19847E-04-7.60974E-16
 -1      4036 5.58388E-03 1.26086E-04-8.41153E-15
 -1      4037 5.44931E-03 1.30540E-04-7.98463E-15
 -1      4038 5.62964E-03 9.09614E-05-8.63998E-15
 -1      4039 1.15276E-02-2.16185E-04-2.99170E-14
 -1      4040 1.13923E-02-1.98934E-04-2.90832E-14
 -1      4041 1.50444E-03-2.59607E-05-6.71907E-16
 -1      4042 1.50721E-03-5.21844E-05-6.72612E-16
 -1      4043 1.62536E-03-6.03340E-05-7.68510E-16
 -1      4044 1.62693E-03-1.28135E-05-7.72955E-16
 -1      4045 1.26077E-02-3.48666E-04-3.68885E-14
 -1      4046 1.24713E-02-3.31853E-04-3.59912E-14
 -1      4047 1.27013E-02-3.88830E-04-3.73617E-14
 -1      4048 1.23355E-02-3.15176E-04-3.51031E-14
 -1      4049 1.22001E-02-2.98648E-04-3.42219E-14
 -1      4050 1.24310E-02-3.54765E-04-3.55730E-14
 -1      4051 1.31254E-02-4.15586E-04-4.03042E-14
 -1      4052 1.29870E-02-3.98005E-04-3.93848E-14
 -1      4053 1.29416E-02-4.21454E-04-3.89510E-14
 -1      4054 1.31507E-02-4.52429E-04-4.03333E-14
 -1      4055 1.91135E-03 1.76781E-04-1.00301E-15
 -1      4056 1.75348E-03 1.76113E-04-8.55042E-16
 -1      4057 3.23715E-03 2.56272E-04-2.69968E-15
 -1      4058 3.09391E-03 2.57675E-04-2.46844E-15
 -1      4059 3.01806E-03 2.21930E-04-2.37013E-15
 -1      4060 3.30446E-03 2.19432E-04-2.83359E-15
 -1      4061 1.09623E-02-1.31698E-04-2.66416E-14
 -1      4062 2.22155E-03 1.81531E-04-1.32836E-15
 -1      4063 2.07707E-03 1.78563E-04-1.17114E-15
 -1      4064 3.93854E-03 1.73733E-04-4.05437E-15
 -1      4065 3.79766E-03 1.76456E-04-3.76495E-15
 -1      4066 2.51045E-03 1.85200E-04-1.67348E-15
 -1      4067 2.36603E-03 1.83730E-04-1.49604E-15
 -1      4068 2.29050E-03 1.47289E-04-1.41884E-15
 -1      4069 1.13204E-02-3.12214E-04-2.72089E-14
 -1      4070 1.13424E-02-3.37100E-04-2.70056E-14
 -1      4071 1.14324E-02-3.61138E-04-2.75777E-14
 -1      4072 2.71061E-03-1.51068E-04-1.95361E-15
 -1      4073 2.85456E-03-1.51121E-04-2.15745E-15
 -1      4074 2.92391E-03-1.15129E-04-2.27082E-15
 -1      4075 1.20653E-02-2.82200E-04-3.33446E-14
 -1      4076 1.19307E-02-2.65812E-04-3.24745E-14
 -1      4077 1.21637E-02-3.21638E-04-3.38084E-14
 -1      4078 5.97330E-03-5.96110E-05-1.02895E-14
 -1      4079 6.04588E-03-2.63942E-05-1.04739E-14
 -1      4080 2.13299E-03-1.45858E-04-1.24308E-15
 -1      4081 2.27751E-03-1.48028E-04-1.40490E-15
 -1      4082 1.13940E-02-4.23822E-04-2.72698E-14
 -1      4083 1.60132E-03 1.56982E-04-7.28381E-16
 -1      4084 1.59787E-03 1.21106E-04-7.34669E-16
 -1      4085 1.17964E-02-2.49427E-04-3.16142E-14
 -1      4086 1.16620E-02-2.32906E-04-3.07616E-14
 -1      4087 1.18991E-02-2.89429E-04-3.20695E-14
 -1      4088 2.42201E-03-1.49578E-04-1.57704E-15
 -1      4089 2.56640E-03-1.50560E-04-1.75973E-15
 -1      4090 2.34716E-03-1.13434E-04-1.49537E-15
 -1      4091 6.27533E-03 1.04200E-04-1.07752E-14
 -1      4092 1.14001E-02-2.46383E-04-2.86939E-14
 -1      4093 1.12837E-02-2.03032E-04-2.82566E-14
 -1      4094 4.43406E-03 1.95644E-04-5.14076E-15
 -1      4095 1.16014E-02-4.41119E-04-2.87669E-14
 -1      4096 1.16573E-02-4.27707E-04-2.91722E-14
 -1      4097 2.63599E-03-1.14995E-04-1.86156E-15
 -1      4098 5.93849E-03 7.18953E-05-9.72543E-15
 -1      4099 6.01155E-03 8.70095E-06-1.02056E-14
 -1      4100 1.11227E-02-1.62490E-04-2.74856E-14
 -1      4101 1.13706E-02-2.99367E-04-2.78327E-14
 -1      4102 1.31785E-02-6.11251E-04-3.99049E-14
 -1      4103 1.33471E-02-6.32747E-04-4.10604E-14
 -1      4104 1.33271E-02-5.96795E-04-4.10445E-14
 -1      4105 5.36597E-03 1.00978E-04-7.78620E-15
 -1      4106 4.83059E-03 1.18594E-04-6.21957E-15
 -1      4107 4.77138E-03 1.52544E-04-6.02547E-15
 -1      4108 4.63411E-03 1.56590E-04-5.66851E-15
 -1      4109 1.73287E-03-8.87326E-05-8.58620E-16
 -1      4110 1.73546E-03-1.25427E-04-8.53918E-16
 -1      4111 1.84359E-03-1.30639E-04-9.52553E-16
 -1      4112 3.65628E-03 1.78880E-04-3.48781E-15
 -1      4113 3.51439E-03 1.81027E-04-3.22283E-15
 -1      4114 3.72325E-03 1.42926E-04-3.63614E-15
 -1      4115 1.14921E-02-4.28418E-04-2.79642E-14
 -1      4116 1.16365E-02-2.57958E-04-3.03657E-14
 -1      4117 1.98008E-03 1.44638E-04-1.08144E-15
 -1      4118 4.07885E-03 1.70774E-04-4.35470E-15
 -1      4119 4.00428E-03 1.38250E-04-4.21438E-15
 -1      4120 4.21860E-03 1.67550E-04-4.66638E-15
 -1      4121 2.65472E-03 1.86053E-04-1.86217E-15
 -1      4122 2.57941E-03 1.49740E-04-1.77526E-15
 -1      4123 2.79880E-03 1.86323E-04-2.06204E-15
 -1      4124 1.75176E-03-1.43781E-06-8.82676E-16
 -1      4125 1.75060E-03-2.59688E-05-8.81023E-16
 -1      4126 1.75345E-03 7.15595E-05-8.78827E-16
 -1      4127 1.75216E-03 3.50170E-05-8.81470E-16
 -1      4128 1.87582E-03 2.28832E-05-9.98252E-16
 -1      4129 5.85823E-03-9.13925E-05-9.80512E-15
 -1      4130 5.91753E-03-7.68243E-05-1.00734E-14
 -1      4131 5.86263E-03-5.04999E-05-9.80828E-15
 -1      4132 5.75785E-03-8.75175E-05-9.38671E-15
 -1      4133 1.14847E-02-3.95692E-04-2.78554E-14
 -1      4134 1.14583E-02-4.05614E-04-2.76531E-14
 -1      4135 1.93397E-03-1.36182E-04-1.03888E-15
 -1      4136 2.04242E-03-1.40773E-04-1.14803E-15
 -1      4137 2.11208E-03-1.07460E-04-1.22977E-15
 -1      4138 1.93119E-03-9.79654E-05-1.04448E-15
 -1      4139 4.49625E-03 1.60452E-04-5.32361E-15
 -1      4140 4.35773E-03 1.64121E-04-4.98961E-15
 -1      4141 4.28271E-03 1.32625E-04-4.83823E-15
 -1      4142 2.56197E-03-7.90308E-05-1.77053E-15
 -1      4143 2.70622E-03-7.93119E-05-1.96440E-15
 -1      4144 3.13705E-03-7.89155E-05-2.61108E-15
 -1      4145 3.27978E-03-7.84464E-05-2.84821E-15
 -1      4146 3.42197E-03-7.78804E-05-3.09721E-15
 -1      4147 3.56354E-03-7.71987E-05-3.35642E-15
 -1      4148 3.34974E-03-4.30510E-05-2.97454E-15
 -1      4149 3.70443E-03-7.64717E-05-3.62750E-15
 -1      4150 3.84458E-03-7.56745E-05-3.91009E-15
 -1      4151 3.63279E-03-4.24930E-05-3.49434E-15
 -1      4152 3.98390E-03-7.49035E-05-4.20390E-15
 -1      4153 4.12234E-03-7.41194E-05-4.50893E-15
 -1      4154 3.91295E-03-4.19547E-05-4.05886E-15
 -1      4155 4.25980E-03-7.34186E-05-4.82509E-15
 -1      4156 4.39620E-03-7.27811E-05-5.15194E-15
 -1      4157 4.18962E-03-4.16147E-05-4.66948E-15
 -1      4158 4.53142E-03-7.23251E-05-5.48972E-15
 -1      4159 4.66537E-03-7.20054E-05-5.83953E-15
 -1      4160 4.46223E-03-4.17318E-05-5.32486E-15
 -1      4161 4.79789E-03-7.20093E-05-6.19990E-15
 -1      4162 4.92888E-03-7.22444E-05-6.57191E-15
 -1      4163 4.72990E-03-4.26931E-05-6.02347E-15
 -1      4164 5.05814E-03-7.29366E-05-6.95539E-15
 -1      4165 5.18552E-03-7.39619E-05-7.35025E-15
 -1      4166 4.99170E-03-4.48386E-05-6.76732E-15
 -1      4167 5.31077E-03-7.56180E-05-7.75625E-15
 -1      4168 5.43368E-03-7.77530E-05-8.17358E-15
 -1      4169 5.24638E-03-4.87083E-05-7.55845E-15
 -1      4170 1.18185E-02-4.30872E-04-3.04128E-14
 -1      4171 1.19358E-02-4.48324E-04-3.12598E-14
 -1      4172 1.20562E-02-4.66256E-04-3.21140E-14
 -1      4173 1.21791E-02-4.84989E-04-3.29742E-14
 -1      4174 1.19805E-02-4.33152E-04-3.16711E-14
 -1      4175 1.23044E-02-5.04150E-04-3.38456E-14
 -1      4176 1.24317E-02-5.23909E-04-3.47264E-14
 -1      4177 1.22263E-02-4.68753E-04-3.33974E-14
 -1      4178 1.25608E-02-5.44007E-04-3.56124E-14
 -1      4179 1.26915E-02-5.64537E-04-3.65037E-14
 -1      4180 1.24806E-02-5.06616E-04-3.51573E-14
 -1      4181 5.84583E-03 2.49114E-05-9.55036E-15
 -1      4182 5.41656E-03 6.80492E-05-8.00297E-15
 -1      4183 5.28636E-03 7.29831E-05-7.58787E-15
 -1      4184 1.72209E-03 1.11754E-04-8.43780E-16
 -1      4185 1.73303E-03-6.41936E-05-8.62063E-16
 -1      4186 1.25241E-02-3.93732E-04-3.60414E-14
 -1      4187 1.23910E-02-3.76691E-04-3.51526E-14
 -1      4188 2.85020E-03-7.93733E-05-2.16915E-15
 -1      4189 2.99384E-03-7.92198E-05-2.38512E-15
 -1      4190 3.06432E-03-4.34574E-05-2.49938E-15
 -1      4191 1.14995E-02-3.52548E-04-2.82829E-14
 -1      4192 1.14996E-02-3.74753E-04-2.80720E-14
 -1      4193 1.15672E-02-3.89438E-04-2.85683E-14
 -1      4194 1.27930E-02-4.28702E-04-3.78362E-14
 -1      4195 1.26581E-02-4.11097E-04-3.69369E-14
 -1      4196 1.26149E-02-4.32422E-04-3.65100E-14
 -1      4197 5.15525E-03 7.75201E-05-7.18532E-15
 -1      4198 5.02297E-03 8.17380E-05-6.79432E-15
 -1      4199 5.21063E-03 4.59479E-05-7.39181E-15
 -1      4200 1.17402E-02-2.96578E-04-3.08133E-14
 -1      4201 1.16128E-02-2.81800E-04-2.99704E-14
 -1      4202 2.36018E-03 1.12625E-04-1.51024E-15
 -1      4203 2.21562E-03 1.11252E-04-1.34209E-15
 -1      4204 1.14279E-02-2.82931E-04-2.85141E-14
 -1      4205 1.14858E-02-3.26433E-04-2.84713E-14
 -1      4206 1.15643E-02-3.41363E-04-2.89729E-14
 -1      4207 1.15285E-02-2.79121E-04-2.93440E-14
 -1      4208 1.22589E-02-3.59937E-04-3.42710E-14
 -1      4209 1.21278E-02-3.43551E-04-3.33935E-14
 -1      4210 1.23510E-02-3.97585E-04-3.47322E-14
 -1      4211 1.16762E-02-4.05171E-04-2.93919E-14
 -1      4212 1.85782E-03-5.38965E-05-9.79102E-16
 -1      4213 1.19976E-02-3.27517E-04-3.25258E-14
 -1      4214 1.18684E-02-3.11896E-04-3.16662E-14
 -1      4215 1.18382E-02-3.33161E-04-3.12604E-14
 -1      4216 2.27298E-03-7.76442E-05-1.41478E-15
 -1      4217 2.41752E-03-7.84792E-05-1.58729E-15
 -1      4218 2.48856E-03-4.32201E-05-1.68051E-15
 -1      4219 5.79027E-03-1.32228E-05-9.45092E-15
 -1      4220 5.70048E-03 4.26066E-05-8.99418E-15
 -1      4221 1.84509E-03 1.01816E-04-9.59112E-16
 -1      4222 5.57382E-03 4.85932E-05-8.55337E-15
 -1      4223 5.48128E-03-5.39482E-05-8.35488E-15
 -1      4224 5.54291E-03-7.98864E-05-8.56349E-15
 -1      4225 5.64963E-03-8.23997E-05-8.96292E-15
 -1      4226 2.01081E-03 1.02112E-04-1.12311E-15
 -1      4227 1.17152E-02-3.90882E-04-2.97952E-14
 -1      4228 2.08123E-03 6.87731E-05-1.20260E-15
 -1      4229 1.30718E-02-6.01383E-04-3.91591E-14
 -1      4230 1.30522E-02-5.66806E-04-3.91443E-14
 -1      4231 1.29657E-02-5.91350E-04-3.84197E-14
 -1      4232 2.50467E-03 1.13577E-04-1.68879E-15
 -1      4233 2.43052E-03 7.76117E-05-1.60306E-15
 -1      4234 2.64902E-03 1.14107E-04-1.87762E-15
 -1      4235 1.27756E-02-5.72905E-04-3.70926E-14
 -1      4236 1.28805E-02-5.83140E-04-3.78280E-14
 -1      4237 1.28616E-02-5.49649E-04-3.78112E-14
 -1      4238 1.26935E-02-5.34053E-04-3.66329E-14
 -1      4239 4.88974E-03 8.56276E-05-6.41409E-15
 -1      4240 4.75543E-03 8.92338E-05-6.04597E-15
 -1      4241 4.94899E-03 5.37007E-05-6.60907E-15
 -1      4242 1.32734E-02-5.26285E-04-4.09257E-14
 -1      4243 1.32125E-02-4.89370E-04-4.06311E-14
 -1      4244 1.31082E-02-4.73473E-04-3.99373E-14
 -1      4245 1.32683E-02-5.59979E-04-4.07535E-14
 -1      4246 2.09201E-03-6.93989E-05-1.21481E-15
 -1      4247 2.18248E-03-7.35464E-05-1.31296E-15
 -1      4248 2.25361E-03-3.90879E-05-1.39709E-15
 -1      4249 5.49624E-03 2.28374E-05-8.34092E-15
 -1      4250 3.79050E-03 1.07480E-04-3.78477E-15
 -1      4251 3.64962E-03 1.09192E-04-3.50735E-15
 -1      4252 2.77707E-03-4.35660E-05-2.06822E-15
 -1      4253 4.55821E-03 1.26089E-04-5.50700E-15
 -1      4254 3.37205E-03 1.82837E-04-2.96853E-15
 -1      4255 3.22927E-03 1.84321E-04-2.72502E-15
 -1      4256 3.43991E-03 1.46564E-04-3.10434E-15
 -1      4257 2.94261E-03 1.86104E-04-2.27190E-15
 -1      4258 2.86760E-03 1.50203E-04-2.17425E-15
 -1      4259 3.08612E-03 1.85409E-04-2.49264E-15
 -1      4260 5.72607E-03-3.39655E-05-9.24777E-15
 -1      4261 1.28962E-02-4.44098E-04-3.85175E-14
 -1      4262 1.28507E-02-4.65921E-04-3.80862E-14
 -1      4263 1.29998E-02-4.59662E-04-3.92047E-14
 -1      4264 1.16302E-02-3.15121E-04-2.97844E-14
 -1      4265 1.20920E-02-3.64386E-04-3.29812E-14
 -1      4266 4.07020E-03 1.03411E-04-4.37527E-15
 -1      4267 3.93071E-03 1.05572E-04-4.07461E-15
 -1      4268 3.85808E-03 7.26027E-05-3.93454E-15
 -1      4269 3.56183E-03-8.09212E-06-3.36123E-15
 -1      4270 3.70268E-03-8.23644E-06-3.63235E-15
 -1      4271 3.88422E-03 1.49961E-05-3.99981E-15
 -1      4272 4.02333E-03 1.43028E-05-4.29740E-15
 -1      4273 4.39422E-03-1.04641E-05-5.15862E-15
 -1      4274 4.52941E-03-1.13722E-05-5.49711E-15
 -1      4275 4.70370E-03 7.92311E-06-5.95186E-15
 -1      4276 4.83623E-03 5.94563E-06-6.31678E-15
 -1      4277 4.96734E-03 3.48459E-06-6.69267E-15
 -1      4278 5.09686E-03 7.20601E-07-7.08073E-15
 -1      4279 5.22476E-03-2.67135E-06-7.47952E-15
 -1      4280 5.35080E-03-6.44814E-06-7.88908E-15
 -1      4281 1.21452E-02-4.33948E-04-3.29494E-14
 -1      4282 1.22708E-02-4.51680E-04-3.38224E-14
 -1      4283 1.24197E-02-4.52626E-04-3.49490E-14
 -1      4284 1.25498E-02-4.70931E-04-3.58357E-14
 -1      4285 2.70456E-03-7.77762E-06-1.96845E-15
 -1      4286 2.84856E-03-7.79978E-06-2.17309E-15
 -1      4287 3.57673E-03 7.51698E-05-3.37869E-15
 -1      4288 3.50813E-03 1.10655E-04-3.24113E-15
 -1      4289 3.36607E-03 1.11910E-04-2.98611E-15
 -1      4290 4.57654E-03 7.13842E-05-5.59168E-15
 -1      4291 4.44049E-03 7.40462E-05-5.24968E-15
 -1      4292 2.99219E-03-7.83785E-06-2.38870E-15
 -1      4293 3.13541E-03-7.86017E-06-2.61491E-15
 -1      4294 2.92064E-03 2.79247E-05-2.27829E-15
 -1      4295 1.19309E-02-3.68004E-04-3.17083E-14
 -1      4296 1.18079E-02-3.52880E-04-3.08584E-14
 -1      4297 2.00110E-03 4.25516E-05-1.12157E-15
 -1      4298 2.00054E-03 4.24845E-06-1.12300E-15
 -1      4299 2.45854E-03 1.72552E-05-1.64415E-15
 -1      4300 2.60296E-03 1.73635E-05-1.83047E-15
 -1      4301 5.69983E-03-6.25480E-05-9.16823E-15
 -1      4302 1.18800E-02-4.01669E-04-3.10623E-14
 -1      4303 1.20004E-02-4.18050E-04-3.19142E-14
 -1      4304 1.17136E-02-3.65086E-04-2.99910E-14
 -1      4305 4.32512E-03 8.74378E-05-4.96467E-15
 -1      4306 4.18722E-03 8.98504E-05-4.64278E-15
 -1      4307 4.11512E-03 5.79866E-05-4.49230E-15
 -1      4308 4.34792E-03 3.24798E-05-5.04040E-15
 -1      4309 1.26813E-02-4.89519E-04-3.67307E-14
 -1      4310 3.27813E-03-7.91748E-06-2.85274E-15
 -1      4311 3.42029E-03-7.97553E-06-3.10155E-15
 -1      4312 3.49146E-03 2.67496E-05-3.22892E-15
 -1      4313 3.20709E-03 2.75235E-05-2.73184E-15
 -1      4314 1.22040E-02-3.98874E-04-3.36127E-14
 -1      4315 1.20768E-02-3.82406E-04-3.27425E-14
 -1      4316 2.01931E-03-2.48028E-05-1.14218E-15
 -1      4317 2.00162E-03-6.51535E-05-1.12039E-15
 -1      4318 5.50571E-03-2.35264E-05-8.43008E-15
 -1      4319 2.14424E-03-5.68287E-06-1.27566E-15
 -1      4320 4.14093E-03 2.13038E-06-4.56010E-15
 -1      4321 4.63976E-03 3.91891E-05-5.77186E-15
 -1      4322 4.27824E-03 1.36115E-06-4.87838E-15
 -1      4323 3.67505E-03 5.01591E-05-3.57241E-15
 -1      4324 3.53392E-03 5.10270E-05-3.30371E-15
 -1      4325 2.67579E-03 5.31424E-05-1.92557E-15
 -1      4326 2.23459E-03-9.15773E-06-1.37654E-15
 -1      4327 2.80823E-03 1.19606E-04-2.09782E-15
 -1      4328 2.73423E-03 8.36853E-05-2.00137E-15
 -1      4329 2.83477E-03 5.84652E-05-2.14866E-15
 -1      4330 2.95202E-03 1.19396E-04-2.30946E-15
 -1      4331 1.22911E-02-4.34898E-04-3.40667E-14
 -1      4332 1.20395E-02-4.00856E-04-3.23278E-14
 -1      4333 2.20568E-03 5.01095E-05-1.34119E-15
 -1      4334 2.31400E-03 1.71005E-05-1.46844E-15
 -1      4335 1.30611E-02-4.95788E-04-3.94974E-14
 -1      4336 1.31646E-02-5.43342E-04-4.00611E-14
 -1      4337 3.15457E-03 1.49052E-04-2.61709E-15
 -1      4338 5.61529E-03-2.72925E-05-8.82648E-15
 -1      4339 1.17960E-02-3.69526E-04-3.06220E-14
 -1      4340 1.29511E-02-5.19950E-04-3.85883E-14
 -1      4341 1.30569E-02-5.28681E-04-3.93294E-14
 -1      4342 1.28491E-02-5.03712E-04-3.79074E-14
 -1      4343 1.27650E-02-4.96584E-04-3.73192E-14
 -1      4344 3.23098E-03 1.15492E-04-2.75408E-15
 -1      4345 3.08794E-03 1.16272E-04-2.52055E-15
 -1      4346 3.02926E-03 8.60067E-05-2.43623E-15
 -1      4347 3.30027E-03 7.96023E-05-2.88094E-15
 -1      4348 3.81547E-03 4.91466E-05-3.85273E-15
 -1      4349 2.97847E-03 5.83168E-05-2.36292E-15
 -1      4350 3.39216E-03 5.17376E-05-3.04668E-15
 -1      4351 3.25720E-03 5.49159E-05-2.81239E-15
 -1      4352 3.11435E-03 5.53659E-05-2.57654E-15
 -3
    1PSTEP                         2           1           1          
  100CL  101 1.000000000        4352                     0    1           1
 -4  STRESS      6    1
 -5  SXX         1    4    1    1
 -5  SYY         1    4    2    2
 -5  SZZ         1    4    3    3
 -5  SXY         1    4    1    2
 -5  SYZ         1    4    2    3
 -5  SZX         1    4    3    1
 -1         1 3.91436E+01 9.24770E+00 2.09084E+00 1.84393E+01-7.24948E-13-1.31029E-12
 -1         2-7.63097E-01-2.43251E+01-3.34116E+00-4.13861E-02 9.08246E-13 7.12173E-14
 -1         3 1.99983E+01-1.58158E-03 8.56395E-03-1.63646E-03-2.94301E-13-2.74505E-13
 -1         4 1.99984E+01-1.51984E-03 9.22588E-03 1.60810E-03 6.81856E-14 1.19518E-13
 -1         5 3.27200E+01 6.13345E+00 2.73806E+00 6.21782E+00-1.18239E-14 9.85878E-13
 -1         6 3.57012E+01 1.22458E+01 5.11807E+00-8.63715E+00-4.47004E-14 1.01813E-12
 -1         7 2.07941E+01 6.09261E+00-1.28771E-01-4.72282E+00-7.35523E-15 3.23044E-13
 -1         8 1.96592E+01 5.93112E+00 5.10621E-02-3.27394E+00-1.08108E-14 7.13622E-14
 -1         9 1.91342E+01 5.77094E+00 4.93155E-02-2.52577E+00-1.09669E-14-7.99369E-14
 -1        10 1.89003E+01 5.69349E+00 5.12864E-02-1.95017E+00-8.61203E-15-1.59385E-13
 -1        11 1.87846E+01 5.65432E+00 5.04368E-02-1.45456E+00-4.86243E-15-2.11485E-13
 -1        12 1.87248E+01 5.63383E+00 4.88478E-02-1.01362E+00-2.67191E-15-2.38221E-13
 -1        13 1.86937E+01 5.62313E+00 4.74593E-02-5.94217E-01-3.99323E-15-2.42611E-13
 -1        14 1.86807E+01 5.61863E+00 4.67019E-02-1.90740E-01-5.06593E-16-2.52734E-13
 -1        15 1.86811E+01 5.61877E+00 4.67400E-02 2.07875E-01 3.04680E-15-2.49291E-13
 -1        16 1.86950E+01 5.62356E+00 4.75936E-02 6.12152E-01 2.04491E-15-2.39929E-13
 -1        17 1.87273E+01 5.63452E+00 4.91702E-02 1.03350E+00 5.12329E-15-2.18596E-13
 -1        18 1.87882E+01 5.65538E+00 5.09909E-02 1.47755E+00 4.48339E-15-1.81909E-13
 -1        19 1.89057E+01 5.69505E+00 5.17508E-02 1.97898E+00 8.52964E-15-1.39945E-13
 -1        20 1.91394E+01 5.77347E+00 4.89981E-02 2.56296E+00 1.23183E-14-6.38396E-14
 -1        21 1.96546E+01 5.94567E+00 4.60142E-02 3.30786E+00 1.37251E-14 8.22554E-14
 -1        22 2.11767E+01 6.37417E+00 1.39380E-01 4.52044E+00 3.44169E-15 3.63364E-13
 -1        23 2.29896E+01-1.37728E+00-9.37581E-01-7.10885E-01-2.38698E-14 8.67931E-13
 -1        24 1.93293E+01-9.94738E-02-3.09649E-01 6.29878E-02-4.78263E-15 7.18722E-13
 -1        25 1.86415E+01-5.64058E-02-6.87722E-02 6.04678E-02-2.64047E-15 5.64227E-13
 -1        26 1.84403E+01-2.22649E-02-6.56346E-03 3.26630E-02 1.64820E-15 4.48778E-13
 -1        27 1.84547E+01-1.20931E-02 1.39388E-03 2.22482E-02-6.35126E-16 3.83504E-13
 -1        28 1.85754E+01-6.67958E-03 1.46318E-03 1.59014E-02-2.23459E-15 3.99478E-13
 -1        29 1.87471E+01-3.72331E-03 1.20764E-03 1.17199E-02-1.16573E-14 3.47858E-13
 -1        30 1.89413E+01-2.12814E-03 1.12395E-03 8.76385E-03 3.36669E-14 3.16893E-13
 -1        31 1.91441E+01-1.36889E-03 9.27405E-04 6.59512E-03-1.80790E-14 2.35325E-13
 -1        32 1.93503E+01-1.17100E-03 4.84117E-04 5.01032E-03-7.05840E-15 1.42559E-13
 -1        33 1.95616E+01-1.38201E-03-2.30438E-04 3.92113E-03 2.91472E-14 1.50185E-13
 -1        34 1.97843E+01-1.91183E-03-1.21569E-03 3.30519E-03-1.67283E-14 8.74116E-14
 -1        35 2.00289E+01-2.70114E-03-2.47718E-03 3.18965E-03 2.00576E-14-1.68442E-15
 -1        36 2.03097E+01-3.69868E-03-4.02748E-03 3.64975E-03 1.39482E-14 5.11837E-14
 -1        37 2.06443E+01-4.83711E-03-5.86952E-03 4.81398E-03-4.77299E-14 7.05469E-14
 -1        38 2.10533E+01-5.99907E-03-7.95698E-03 6.86825E-03-1.30251E-14-6.47351E-14
 -1        39 2.15588E+01-6.96527E-03-1.01122E-02 1.00456E-02 2.41956E-14-1.39731E-13
 -1        40 2.21820E+01-7.33878E-03-1.18671E-02 1.45711E-02 1.41321E-14-9.39960E-15
 -1        41 2.29362E+01-6.45155E-03-1.21905E-02 2.04987E-02 1.96615E-14-2.06894E-13
 -1        42 2.38161E+01-3.29922E-03-9.10950E-03 2.73264E-02 2.02296E-14-2.91113E-13
 -1        43 2.47774E+01 3.36372E-03 5.72190E-04 3.32326E-02-1.81328E-14-1.46388E-13
 -1        44 2.57073E+01 1.44687E-02 2.06876E-02 3.38850E-02-5.78592E-14-6.57668E-14
 -1        45 2.63927E+01 2.92680E-02 5.28312E-02 2.14397E-02 1.01830E-14-1.52037E-13
 -1        46 2.65139E+01 4.31587E-02 9.00504E-02-1.40626E-02 9.82070E-15-5.49881E-14
 -1        47 2.57175E+01 4.64333E-02 1.09576E-01-7.73219E-02 6.72084E-14 2.44655E-13
 -1        48 2.38371E+01 2.80763E-02 7.60271E-02-1.50766E-01 2.87272E-14 6.31592E-13
 -1        49 2.12180E+01-1.29523E-02-2.53643E-02-1.86098E-01 4.00263E-14 4.52423E-13
 -1        50 1.88472E+01-5.78272E-02-1.50068E-01-1.31571E-01-5.29576E-14 5.45813E-14
 -1        51 1.79179E+01-7.68694E-02-2.05631E-01 4.48683E-03 5.56725E-14 1.72498E-13
 -1        52 1.89576E+01-5.56248E-02-1.43863E-01 1.37586E-01-4.87444E-14 5.66908E-14
 -1        53 2.13787E+01-1.00879E-02-1.77189E-02 1.86250E-01-3.61795E-14-3.92221E-13
 -1        54 2.39753E+01 2.98116E-02 7.98903E-02 1.46701E-01 7.00861E-14-5.82152E-13
 -1        55 2.57932E+01 4.66802E-02 1.09207E-01 7.27693E-02-9.17400E-14-6.17787E-13
 -1        56 2.65273E+01 4.24079E-02 8.78057E-02 1.11128E-02 1.13413E-13-8.87483E-13
 -1        57 2.63639E+01 2.82240E-02 5.04416E-02-2.28322E-02 2.26186E-15-7.16229E-13
 -1        58 2.56589E+01 1.35246E-02 1.89371E-02-3.41913E-02 5.93440E-14-5.62874E-13
 -1        59 2.47276E+01 2.63484E-03-4.79941E-04-3.30163E-02 6.34887E-14-3.74463E-13
 -1        60 2.37770E+01-3.84996E-03-9.71850E-03-2.69356E-02-9.49414E-14-4.84274E-13
 -1        61 2.29159E+01-6.91384E-03-1.26140E-02-2.00766E-02 8.34555E-14-5.48937E-13
 -1        62 2.21868E+01-7.79854E-03-1.22831E-02-1.41438E-02-7.96463E-14-4.97017E-13
 -1        63 2.15951E+01-7.49080E-03-1.06369E-02-9.57827E-03 7.46465E-14-2.45596E-13
 -1        64 2.11283E+01-6.64189E-03-8.67304E-03-6.29094E-03-5.75139E-14 1.02911E-13
 -1        65 2.07677E+01-5.63698E-03-6.85243E-03-4.02754E-03-3.45776E-14-1.92868E-13
 -1        66 2.04940E+01-4.68691E-03-5.37314E-03-2.51547E-03 4.17468E-14 2.98005E-13
 -1        67 2.02905E+01-3.89723E-03-4.33253E-03-1.49837E-03-2.46008E-14 6.54912E-13
 -1        68 2.01442E+01-3.30441E-03-3.79513E-03-7.12572E-04 7.87659E-14 5.99371E-13
 -1        69 2.00470E+01-2.85730E-03-3.70250E-03 1.72849E-04 1.94675E-14 2.38618E-15
 -1        70 1.99951E+01-2.13449E-03-3.26246E-03 1.80781E-03 6.52046E-14 1.09887E-13
 -1        71 1.99879E+01 3.73900E-04 8.66311E-04 3.81431E-03 2.47724E-14 2.77841E-13
 -1        72 2.10046E+01-4.04360E-01-9.79656E-01-3.10792E-01 1.67089E-14 8.96824E-13
 -1        73 1.92941E+01-6.58931E-02-2.90975E-01-5.36130E-02-3.56356E-15 7.09736E-13
 -1        74 1.86514E+01-2.05968E-02-6.42849E-02-2.00938E-02 2.09658E-14 5.52091E-13
 -1        75 1.84501E+01-1.00386E-02-9.42083E-03-1.50996E-02 2.87552E-15 4.09969E-13
 -1        76 1.84649E+01-5.41247E-03 4.58464E-04-1.19180E-02-1.59900E-14 3.49937E-13
 -1        77 1.85851E+01-2.97438E-03 1.37088E-03-9.52259E-03-7.03100E-15 3.22739E-13
 -1        78 1.87564E+01-1.64918E-03 1.30338E-03-7.64845E-03-8.15353E-15 3.28130E-13
 -1        79 1.89503E+01-9.66196E-04 1.22484E-03-6.07924E-03 2.97926E-14 2.26769E-13
 -1        80 1.91526E+01-6.88040E-04 1.01350E-03-4.72437E-03-5.01350E-14 1.65434E-13
 -1        81 1.93580E+01-6.79401E-04 5.81000E-04-3.56314E-03 2.88663E-14 1.35715E-13
 -1        82 1.95671E+01-8.52847E-04-7.14514E-05-2.61181E-03-8.84269E-15 7.32990E-14
 -1        83 1.97847E+01-1.14044E-03-9.04651E-04-1.91008E-03 8.09272E-15 1.83507E-13
 -1        84 2.00187E+01-1.47606E-03-1.86194E-03-1.52007E-03 4.34521E-16 1.65357E-13
 -1        85 2.02785E+01-1.78083E-03-2.86097E-03-1.52919E-03 5.24842E-15 6.49170E-14
 -1        86 2.05743E+01-1.94918E-03-3.76941E-03-2.05162E-03-3.18471E-15-8.86010E-15
 -1        87 2.09148E+01-1.83577E-03-4.36831E-03-3.22174E-03 3.85716E-15 2.15106E-14
 -1        88 2.13049E+01-1.24787E-03-4.30550E-03-5.16818E-03 3.50540E-15-3.75880E-14
 -1        89 2.17412E+01 4.55070E-05-3.05019E-03-7.94913E-03 3.28795E-14-2.30632E-13
 -1        90 2.22065E+01 2.26583E-03 1.14065E-04-1.14207E-02-2.35807E-14-2.29816E-13
 -1        91 2.26631E+01 5.50652E-03 5.97394E-03-1.50123E-02-3.05114E-14-1.21518E-13
 -1        92 2.30452E+01 9.51325E-03 1.50019E-02-1.74202E-02-5.49821E-15 1.02847E-13
 -1        93 2.32563E+01 1.33937E-02 2.65633E-02-1.63635E-02 1.26524E-14 4.34178E-13
 -1        94 2.31773E+01 1.54352E-02 3.77978E-02-8.80267E-03 4.42180E-14 2.70482E-13
 -1        95 2.26968E+01 1.34192E-02 4.29184E-02 7.73237E-03-1.14315E-14 3.64717E-13
 -1        96 2.17690E+01 5.82738E-03 3.44884E-02 3.24019E-02 4.16831E-14 4.08999E-13
 -1        97 2.04855E+01-6.35517E-03 8.11034E-03 5.81372E-02 3.66517E-14 3.47514E-13
 -1        98 1.91176E+01-1.87529E-02-3.11197E-02 7.19997E-02-5.32283E-14 5.93831E-13
 -1        99 1.80664E+01-2.55286E-02-6.68316E-02 6.20750E-02-4.76932E-14 8.09020E-13
 -1       100 1.76993E+01-2.33026E-02-7.96696E-02 2.77983E-02 1.57209E-14 6.77179E-13
 -1       101 1.81551E+01-1.35820E-02-6.20985E-02-1.64577E-02-7.01399E-14 4.67348E-13
 -1       102 1.92624E+01-1.28268E-03-2.44622E-02-5.08900E-02 4.27615E-14 2.72473E-13
 -1       103 2.06402E+01 8.64245E-03 1.37106E-02-6.37773E-02-6.11353E-14 1.77379E-13
 -1       104 2.18952E+01 1.37169E-02 3.73378E-02-5.66032E-02 7.76690E-15 3.84932E-13
 -1       105 2.27760E+01 1.41287E-02 4.32204E-02-3.88457E-02 5.56526E-14 5.45357E-13
 -1       106 2.32103E+01 1.15307E-02 3.66023E-02-1.98810E-02-1.02660E-13 3.39553E-13
 -1       107 2.32553E+01 7.76819E-03 2.48310E-02-5.01531E-03 2.66521E-14-2.54728E-14
 -1       108 2.30261E+01 4.15251E-03 1.33202E-02 4.34983E-03 8.08677E-14-5.60568E-13
 -1       109 2.26406E+01 1.31767E-03 4.55595E-03 9.01105E-03-5.02993E-14-7.53003E-13
 -1       110 2.21930E+01-5.93330E-04-1.03707E-03 1.04511E-02-9.52126E-14-6.43964E-13
 -1       111 2.17467E+01-1.70018E-03-4.02445E-03 1.00326E-02 4.81090E-14-8.05779E-13
 -1       112 2.13386E+01-2.21289E-03-5.21903E-03 8.73740E-03-1.53708E-13-1.60544E-13
 -1       113 2.09859E+01-2.34013E-03-5.33909E-03 7.17727E-03 6.75410E-14 3.13282E-13
 -1       114 2.06932E+01-2.25316E-03-4.91568E-03 5.68974E-03-5.39194E-14-2.72833E-13
 -1       115 2.04582E+01-2.07869E-03-4.31611E-03 4.43084E-03 3.41512E-14-5.28589E-13
 -1       116 2.02756E+01-1.89875E-03-3.80065E-03 3.43344E-03 8.39313E-15-8.50623E-13
 -1       117 2.01398E+01-1.75725E-03-3.56542E-03 2.63154E-03 4.36086E-14-1.17821E-12
 -1       118 2.00472E+01-1.62879E-03-3.64759E-03 1.82935E-03 1.10683E-13-1.50226E-12
 -1       119 1.99969E+01-1.15414E-03-3.24436E-03 3.19837E-04-8.63510E-14-1.21800E-12
 -1       120 1.99895E+01 1.37720E-03 9.29899E-04-2.79298E-03 1.30521E-13-4.89411E-13
 -1       121 2.00000E+01-9.30849E-03 4.85795E-04-3.92293E-03-3.09353E-13 2.85397E-13
 -1       122 1.99982E+01 2.64127E-04-3.37360E-03-5.72191E-04-3.45959E-13-2.46644E-13
 -1       123 1.99985E+01 5.14815E-02-2.85820E-03 1.65959E-03-5.97814E-13 8.43748E-14
 -1       124 1.99992E+01 1.30876E-01-1.29045E-03 2.76980E-03-1.29560E-12-6.91156E-15
 -1       125 2.00001E+01 2.21933E-01 3.16785E-04 3.00205E-03-1.23981E-12 2.95467E-14
 -1       126 2.00010E+01 3.06912E-01 1.64534E-03 2.64284E-03-7.23204E-13 2.34232E-14
 -1       127 2.00017E+01 3.74311E-01 2.61716E-03 1.80415E-03-2.35230E-13 2.04672E-13
 -1       128 2.00021E+01 4.11790E-01 3.16431E-03 6.62794E-04-7.97707E-13 3.16827E-14
 -1       129 2.00021E+01 4.13205E-01 3.22382E-03-6.04297E-04-2.97684E-13-5.80391E-15
 -1       130 2.00018E+01 3.77911E-01 2.76751E-03-1.80293E-03-1.97766E-14 2.11246E-14
 -1       131 2.00011E+01 3.11081E-01 1.79758E-03-2.75370E-03-4.77664E-13-2.41625E-13
 -1       132 2.00003E+01 2.24848E-01 4.13248E-04-3.16086E-03-6.36657E-13 1.95992E-13
 -1       133 1.99993E+01 1.31320E-01-1.32286E-03-2.91375E-03 5.93465E-14 3.19101E-14
 -1       134 1.99982E+01 4.93111E-02-3.20019E-03-1.94930E-03 5.42491E-13 1.97021E-15
 -1       135 1.99985E+01-1.50908E-03-3.17296E-03 9.56315E-04 2.20540E-14-2.07934E-13
 -1       136 1.99986E+01-9.83382E-03 6.63919E-04 6.77730E-03-3.40330E-13 3.84631E-15
 -1       137-1.32401E+00-1.94734E+01-3.03112E+00-3.57699E+00 1.23088E-12 3.37213E-13
 -1       138-1.50716E+00-8.50214E+00-2.24438E+00-2.97950E+00 1.44923E-12 6.71685E-13
 -1       139 2.80197E+00 3.36792E+00-1.07281E+00 3.37197E+00 1.25921E-12 7.58948E-13
 -1       140 1.42392E+01 1.03912E+01 2.90431E-01 1.20802E+01 1.19404E-12 1.47155E-12
 -1       141 3.14198E+01 1.05449E+01 1.59835E+00 1.77717E+01 7.87759E-13 1.21658E-12
 -1       142 5.07190E+01 6.07879E+00 2.73527E+00 1.64359E+01 2.90573E-13 4.67959E-13
 -1       143 6.35182E+01 1.65098E+00 3.38352E+00 7.17547E+00-5.03209E-14-3.69427E-14
 -1       144 6.41347E+01 1.47491E+00 3.42581E+00-6.08621E+00 8.77770E-14-3.03882E-13
 -1       145 5.09226E+01 6.00493E+00 2.75731E+00-1.63469E+01 2.11844E-13-5.81202E-13
 -1       146 3.08647E+01 1.06835E+01 1.56392E+00-1.78023E+01 4.83502E-13-7.61058E-13
 -1       147 1.29755E+01 1.00056E+01 1.63852E-01-1.13619E+01 1.09990E-12-1.00581E-12
 -1       148 1.47679E+00 1.41903E+00-1.30141E+00-1.88063E+00 1.18267E-12-8.95228E-13
 -1       149-1.56996E+00-1.08371E+01-2.43355E+00 3.33490E+00 7.21867E-13-3.22742E-13
 -1       150-1.18384E+00-2.14606E+01-3.16560E+00 3.15135E+00 6.06792E-13-3.42356E-14
 -1       151-6.99858E-01-2.43539E+01-3.35982E+00-1.18429E+00 3.44766E-13-6.14127E-14
 -1       152-1.74696E+00-1.80087E+01-3.00871E+00-4.37846E+00-5.60552E-13-1.48617E-13
 -1       153-1.06496E+00-5.71051E+00-2.11263E+00-1.99561E+00-5.94524E-13-3.63043E-13
 -1       154 5.10898E+00 5.11799E+00-8.53843E-01 5.30999E+00-1.10950E-12-1.03789E-12
 -1       155 1.94291E+01 1.05821E+01 6.25753E-01 1.42376E+01-1.03773E-12-1.30751E-12
 -1       156 5.71933E+01 4.44166E+00 3.18602E+00 1.45569E+01-1.97953E-13-5.40235E-13
 -1       157 6.70454E+01 1.03561E+00 3.73319E+00 3.89079E+00 2.41890E-14 4.19387E-13
 -1       158 6.46120E+01 1.91406E+00 3.60016E+00-8.53364E+00-3.41900E-13 1.78588E-12
 -1       159 5.08151E+01 6.42551E+00 2.81336E+00-1.70149E+01-6.99857E-13 2.38282E-12
 -1       160 3.03034E+01 1.05707E+01 1.47869E+00-1.74966E+01-1.37368E-12 2.27773E-12
 -1       161 1.23917E+01 9.45704E+00-8.73343E-03-1.08408E+01-1.20859E-12 1.42131E-12
 -1       162 1.96950E+00 1.99586E+00-1.32373E+00-2.33220E+00-8.36942E-13 5.97133E-13
 -1       163-1.71957E+00-9.64741E+00-2.41503E+00 3.42835E+00-9.19709E-13 2.65205E-13
 -1       164-1.40824E+00-2.05470E+01-3.14337E+00 3.80235E+00 4.50473E-14-4.99011E-14
 -1       165 2.09941E+01 3.69116E+00-5.72959E-02-3.60768E+00-1.12112E-13 1.73399E-13
 -1       166 1.99835E+01 4.20569E+00-4.57117E-02-2.80655E+00-1.28053E-13 8.74995E-15
 -1       167 1.95085E+01 4.47827E+00-3.16491E-02-2.19217E+00-1.08568E-13-9.26863E-14
 -1       168 1.92764E+01 4.61705E+00-2.37580E-02-1.67163E+00-8.37004E-14-1.52628E-13
 -1       169 1.91497E+01 4.70180E+00-1.95202E-02-1.21607E+00-6.26856E-14-1.89011E-13
 -1       170 1.90788E+01 4.75427E+00-1.73802E-02-7.89805E-01-4.76888E-14-2.05080E-13
 -1       171 1.90432E+01 4.78321E+00-1.63541E-02-3.85583E-01-1.71904E-14-2.03525E-13
 -1       172 1.90327E+01 4.79214E+00-1.60589E-02 8.33749E-03 2.87602E-15-2.05801E-13
 -1       173 1.90447E+01 4.78196E+00-1.63928E-02 4.02569E-01 2.16977E-14-2.01240E-13
 -1       174 1.90823E+01 4.75131E+00-1.74497E-02 8.07773E-01 3.61601E-14-1.88410E-13
 -1       175 1.91540E+01 4.69719E+00-1.96214E-02 1.22861E+00 6.62928E-14-1.53947E-13
 -1       176 1.92850E+01 4.60791E+00-2.39413E-02 1.69511E+00 1.00528E-13-1.14355E-13
 -1       177 1.95252E+01 4.45988E+00-3.27784E-02 2.22363E+00 1.20218E-13-6.63636E-14
 -1       178 2.00056E+01 4.18220E+00-4.71233E-02 2.84409E+00 1.34630E-13 3.21236E-14
 -1       179 2.11154E+01 3.46109E+00-5.97141E-02 3.53395E+00 1.31572E-13 1.94691E-13
 -1       180 2.23893E+01 1.14293E+00-3.36127E-01 3.01270E+00 9.97553E-14 4.24050E-13
 -1       181 2.19439E+01 8.57835E-01 6.08126E-04-1.95738E+00-9.87127E-14 3.45803E-13
 -1       182 2.04222E+01 1.90170E-01-9.95106E-03-7.62988E-01-9.65721E-14 2.81159E-13
 -1       183 1.96495E+01 1.02065E-01 1.36142E-02-2.83875E-01-7.16562E-14 2.34906E-13
 -1       184 1.93143E+01 4.80232E-02 1.00837E-02-6.43546E-02-5.13099E-14 1.79311E-13
 -1       185 1.91921E+01 2.39063E-02 5.28196E-03 4.59903E-02-1.72103E-14 1.72550E-13
 -1       186 1.91907E+01 1.15809E-02 2.59636E-03 1.03329E-01-4.12003E-14 1.42789E-13
 -1       187 1.92579E+01 5.15678E-03 1.35450E-03 1.32698E-01-2.67654E-14 1.28523E-13
 -1       188 1.93649E+01 2.20700E-03 8.00526E-04 1.47608E-01-3.47548E-14 1.01472E-13
 -1       189 1.94965E+01 1.57775E-03 5.66807E-04 1.56384E-01-3.44051E-14 1.47368E-13
 -1       190 1.96459E+01 2.65978E-03 5.05702E-04 1.64748E-01-2.49523E-14 1.57743E-13
 -1       191 1.98123E+01 5.11613E-03 5.56064E-04 1.77001E-01-6.09387E-14-1.01741E-14
 -1       192 1.99995E+01 8.75952E-03 6.85860E-04 1.96636E-01-4.27362E-14-5.34298E-14
 -1       193 2.02143E+01 1.34757E-02 8.70495E-04 2.26651E-01-4.50958E-15-9.96281E-14
 -1       194 2.04667E+01 1.91451E-02 1.08163E-03 2.69641E-01-4.52058E-15-1.03059E-13
 -1       195 2.07682E+01 2.55277E-02 1.27683E-03 3.27640E-01-8.04161E-14-4.62131E-14
 -1       196 2.11315E+01 3.20641E-02 1.38742E-03 4.01558E-01-2.54578E-14-3.02304E-14
 -1       197 2.15686E+01 3.75335E-02 1.30615E-03 4.89964E-01 2.21465E-14-4.16444E-14
 -1       198 2.20872E+01 3.95000E-02 8.84283E-04 5.86811E-01 9.11716E-15-1.07295E-14
 -1       199 2.26858E+01 3.35422E-02-4.00936E-05 6.77662E-01-1.26914E-13-2.02839E-14
 -1       200 2.33459E+01 1.25252E-02-1.54736E-03 7.34288E-01 7.14799E-14-6.04742E-14
 -1       201 2.40208E+01-3.30591E-02-3.42990E-03 7.09050E-01 6.68012E-14 2.24439E-14
 -1       202 2.46237E+01-1.11139E-01-5.00353E-03 5.34401E-01-4.35784E-14 8.15077E-14
 -1       203 2.50221E+01-2.16207E-01-5.17104E-03 1.40509E-01 1.15311E-13 2.22479E-13
 -1       204 2.50522E+01-3.10561E-01-3.29159E-03-4.91768E-01 1.61910E-13 4.17345E-13
 -1       205 2.45746E+01-3.06519E-01-2.00372E-04-1.23748E+00 1.62100E-13 3.62330E-13
 -1       206 2.35972E+01-1.11643E-01-9.01971E-05-1.75272E+00-2.00584E-13 1.75230E-13
 -1       207 2.24153E+01 2.52503E-01-4.45195E-03-1.60111E+00-1.61787E-13 4.03271E-14
 -1       208 2.15932E+01 5.58958E-01-1.07959E-02-6.30896E-01 3.51212E-14-4.77045E-14
 -1       209 2.16209E+01 5.48046E-01-1.06734E-02 7.05603E-01-6.33434E-14-1.40706E-13
 -1       210 2.24816E+01 2.29667E-01-3.91271E-03 1.63445E+00-1.95990E-13-1.41383E-13
 -1       211 2.36656E+01-1.29741E-01-1.32450E-04 1.73664E+00-9.63877E-14-1.35014E-14
 -1       212 2.46177E+01-3.11299E-01-6.89230E-04 1.19436E+00-1.41431E-13-2.14224E-13
 -1       213 2.50638E+01-3.06093E-01-3.69828E-03 4.49550E-01-7.76549E-14-2.22574E-13
 -1       214 2.50093E+01-2.09484E-01-5.40980E-03-1.69315E-01 1.03464E-13-2.79644E-13
 -1       215 2.45971E+01-1.04985E-01-4.99539E-03-5.47540E-01 1.50813E-13-2.61200E-13
 -1       216 2.39910E+01-2.87201E-02-3.28980E-03-7.09367E-01 8.71114E-14-3.47907E-14
 -1       217 2.33217E+01 1.53836E-02-1.37680E-03-7.25619E-01-1.56623E-13-3.78529E-13
 -1       218 2.26738E+01 3.55870E-02 1.19174E-04-6.62674E-01-7.75831E-14-2.69405E-13
 -1       219 2.20928E+01 4.13149E-02 1.03291E-03-5.66714E-01 1.30924E-13-2.54722E-13
 -1       220 2.15972E+01 3.95470E-02 1.45654E-03-4.64761E-01-1.82419E-14-1.84868E-13
 -1       221 2.11886E+01 3.45841E-02 1.55372E-03-3.70360E-01 8.06144E-14-4.37617E-13
 -1       222 2.08605E+01 2.87950E-02 1.47081E-03-2.88888E-01 1.46454E-13-1.60012E-13
 -1       223 2.06023E+01 2.33822E-02 1.30917E-03-2.21230E-01 2.74918E-13 3.20074E-13
 -1       224 2.04033E+01 1.89282E-02 1.12474E-03-1.65961E-01 9.79107E-14 4.21893E-13
 -1       225 2.02535E+01 1.57177E-02 9.34833E-04-1.20529E-01-6.42936E-14 3.35973E-13
 -1       226 2.01448E+01 1.38585E-02 7.25463E-04-8.19030E-02-1.86804E-13 5.42365E-14
 -1       227 2.00708E+01 1.31994E-02 5.62662E-04-4.72831E-02-1.73090E-14 9.95905E-14
 -1       228 2.00242E+01 1.24722E-02 4.17220E-04-1.57021E-02 5.40143E-14 4.16343E-14
 -1       229 2.09353E+01 2.76969E-01-5.12771E-02 1.16386E+00 8.42972E-14 3.62009E-13
 -1       230 1.98429E+01 1.26979E-01 8.34015E-03 4.42045E-01 1.00766E-13 2.76947E-13
 -1       231 1.93398E+01 5.84375E-02 1.27759E-02 1.48054E-01 5.27499E-14 2.10229E-13
 -1       232 1.91356E+01 2.84135E-02 7.69039E-03 6.92909E-03 3.93611E-14 1.66440E-13
 -1       233 1.90948E+01 1.41895E-02 3.90992E-03-6.52549E-02 2.10010E-16 1.44493E-13
 -1       234 1.91449E+01 6.79886E-03 2.02311E-03-1.02302E-01 1.63131E-14 1.13470E-13
 -1       235 1.92459E+01 2.98465E-03 1.15453E-03-1.20716E-01 3.49258E-14 1.28396E-13
 -1       236 1.93758E+01 1.32241E-03 7.32267E-04-1.29778E-01 1.77411E-14 1.29394E-13
 -1       237 1.95237E+01 1.09328E-03 5.10431E-04-1.35320E-01 5.35837E-14 3.49867E-14
 -1       238 1.96853E+01 1.87380E-03 3.90684E-04-1.41293E-01 2.30594E-14 7.87451E-14
 -1       239 1.98610E+01 3.37106E-03 3.27031E-04-1.50453E-01-8.88951E-15 4.96045E-14
 -1       240 2.00544E+01 5.33575E-03 2.89169E-04-1.64652E-01 6.48130E-14 4.62705E-14
 -1       241 2.02708E+01 7.49587E-03 2.50596E-04-1.84885E-01 2.80861E-14-9.03633E-14
 -1       242 2.05160E+01 9.48832E-03 1.85094E-04-2.11116E-01-1.60028E-14-2.33472E-14
 -1       243 2.07949E+01 1.07795E-02 6.73041E-05-2.41900E-01-4.16032E-14 5.71847E-14
 -1       244 2.11093E+01 1.05761E-02-1.21763E-04-2.73751E-01 1.45475E-14 4.15786E-14
 -1       245 2.14552E+01 7.74669E-03-3.81968E-04-3.00293E-01 7.72664E-14 6.86117E-14
 -1       246 2.18192E+01 8.19955E-04-6.72230E-04-3.11335E-01 2.90155E-14-3.25227E-14
 -1       247 2.21744E+01-1.17997E-02-8.86473E-04-2.92315E-01-8.39127E-14-6.59644E-14
 -1       248 2.24774E+01-3.11549E-02-8.48439E-04-2.25118E-01-1.47206E-13 2.01269E-14
 -1       249 2.26672E+01-5.63017E-02-3.69407E-04-9.19549E-02-9.17641E-14 8.98825E-14
 -1       250 2.26718E+01-8.21015E-02 6.09454E-04 1.15581E-01 7.65620E-14 1.28408E-13
 -1       251 2.24260E+01-9.73419E-02 1.79086E-03 3.81745E-01-2.26464E-14-5.04577E-14
 -1       252 2.19030E+01-8.60710E-02 2.36245E-03 6.51160E-01-3.32191E-14 4.67204E-15
 -1       253 2.11549E+01-3.57736E-02 1.37690E-03 8.27041E-01-2.72881E-14 3.75075E-13
 -1       254 2.03372E+01 4.85019E-02-1.26015E-03 8.01968E-01-1.73933E-13 5.68943E-13
 -1       255 1.96854E+01 1.35026E-01-4.03336E-03 5.23543E-01-3.14236E-14 6.21341E-13
 -1       256 1.94253E+01 1.78446E-01-4.72363E-03 5.49769E-02 4.52806E-14 5.46720E-13
 -1       257 1.96560E+01 1.52970E-01-2.61911E-03-4.34122E-01 8.34662E-14 4.62168E-13
 -1       258 2.02905E+01 7.47092E-02 8.05799E-04-7.62585E-01 1.25244E-13 2.15596E-13
 -1       259 2.11079E+01-1.34143E-02 3.26391E-03-8.40974E-01-1.56692E-14 2.67694E-13
 -1       260 2.18687E+01-7.40033E-02 3.44976E-03-7.00579E-01-2.71948E-14 2.50799E-13
 -1       261 2.24106E+01-9.52974E-02 2.00604E-03-4.43321E-01 6.61129E-14 2.27073E-13
 -1       262 2.26765E+01-8.63844E-02 2.05659E-04-1.71844E-01 3.11938E-14 2.45598E-13
 -1       263 2.26901E+01-6.29233E-02-1.05633E-03 4.92331E-02 2.15849E-13 6.26007E-15
 -1       264 2.25158E+01-3.73781E-02-1.52346E-03 1.96705E-01 2.22525E-13-1.77333E-13
 -1       265 2.22265E+01-1.63317E-02-1.39910E-03 2.74873E-01-5.91625E-14-3.45044E-13
 -1       266 2.18846E+01-1.71941E-03-9.85688E-04 3.00139E-01-2.34856E-15-4.58084E-13
 -1       267 2.15356E+01 7.02322E-03-5.18639E-04 2.90739E-01-7.34206E-14-2.76720E-13
 -1       268 2.12084E+01 1.13548E-02-1.23560E-04 2.61892E-01-2.95697E-13-3.20068E-14
 -1       269 2.09187E+01 1.27760E-02 1.58227E-04 2.24465E-01-2.97043E-14-3.80528E-13
 -1       270 2.06727E+01 1.25093E-02 3.31983E-04 1.85317E-01 7.58620E-14-2.48116E-14
 -1       271 2.04708E+01 1.14558E-02 4.18127E-04 1.48170E-01 2.79921E-13-2.32284E-13
 -1       272 2.03104E+01 1.02542E-02 4.30835E-04 1.14473E-01 2.78453E-13-5.22103E-13
 -1       273 2.01878E+01 9.33105E-03 3.58591E-04 8.41061E-02 1.66798E-13-6.36879E-13
 -1       274 2.00995E+01 8.97858E-03 1.89163E-04 5.60338E-02 7.16040E-14-6.96417E-13
 -1       275 2.00422E+01 9.37114E-03 2.17057E-04 2.89183E-02-2.45297E-13-5.07365E-13
 -1       276 2.00110E+01 7.00841E-03 6.80318E-04 4.47717E-03-1.37980E-13-1.95973E-13
 -1       277 2.00118E+01 2.43471E-02 3.43622E-04 1.78250E-02-2.53870E-13 8.83434E-14
 -1       278 2.00105E+01 6.43680E-02 1.11304E-04 4.41316E-02-4.11713E-14-2.78862E-14
 -1       279 2.00058E+01 1.21016E-01 4.58273E-05 6.38912E-02-8.86094E-14-3.24326E-13
 -1       280 2.00007E+01 1.87168E-01-2.19683E-05 7.18804E-02-1.79476E-13 1.50289E-13
 -1       281 1.99959E+01 2.52324E-01-1.59828E-04 6.77809E-02-3.22056E-13 2.45954E-13
 -1       282 1.99919E+01 3.09051E-01-2.91527E-04 5.27442E-02-4.53203E-13 5.72760E-15
 -1       283 1.99893E+01 3.47609E-01-3.89808E-04 2.93633E-02-4.27284E-13-1.89423E-14
 -1       284 1.99882E+01 3.62181E-01-4.27629E-04 1.25272E-03-5.00402E-14 3.57957E-13
 -1       285 1.99889E+01 3.50380E-01-3.98319E-04-2.73568E-02-1.11580E-13 6.15974E-14
 -1       286 1.99913E+01 3.13705E-01-3.06476E-04-5.20247E-02-2.79330E-13-2.05357E-13
 -1       287 1.99953E+01 2.58591E-01-1.68846E-04-6.83804E-02-2.04117E-13-1.36864E-13
 -1       288 2.00005E+01 1.91455E-01-3.98837E-05-7.36796E-02-1.06323E-13 3.93144E-13
 -1       289 2.00061E+01 1.23523E-01 3.04934E-05-6.56446E-02 5.58407E-15 3.90854E-13
 -1       290 2.00112E+01 6.61824E-02 3.14522E-04-4.50844E-02 7.01593E-14-2.93091E-13
 -1       291 2.00209E+01 3.74031E-02 3.24213E-04-3.33956E-02 6.76500E-14-2.96506E-13
 -1       292-6.45664E-01-9.64481E+00-8.05709E-01 1.53551E+00 3.43253E-13 2.24126E-13
 -1       293 2.57110E+00-8.42183E+00-7.91599E-01 3.41194E+00 5.02015E-13 2.89990E-13
 -1       294 9.25967E+00-4.99598E+00-4.71915E-01 5.70207E+00 5.84505E-13 1.64473E-13
 -1       295 1.76808E+01-9.31779E-01-1.23086E-01 7.18789E+00 4.27464E-13 4.71151E-13
 -1       296 2.74847E+01 2.34636E+00 2.80449E-01 7.76357E+00 4.13752E-13 2.57017E-13
 -1       297 3.66590E+01 4.57982E+00 6.01846E-01 6.29928E+00 3.54636E-13 2.41418E-13
 -1       298 4.32438E+01 6.23029E+00 8.41239E-01 3.65897E+00 2.99427E-13 2.56323E-13
 -1       299 4.57935E+01 6.83795E+00 9.30549E-01 1.69086E-01 2.14107E-13 1.83600E-13
 -1       300 4.29221E+01 6.38374E+00 7.86454E-01-3.21078E+00 1.92082E-13 2.06501E-14
 -1       301 3.68206E+01 4.75010E+00 6.57120E-01-6.81887E+00 2.16435E-13-1.65201E-13
 -1       302 2.69763E+01 2.16721E+00 2.60952E-01-7.76806E+00 3.27238E-13-1.62537E-13
 -1       303 1.71504E+01-2.06263E+00-1.53286E-01-6.99657E+00 2.64205E-13-1.41415E-13
 -1       304 7.55101E+00-5.59339E+00-5.57744E-01-5.16732E+00 3.99486E-13-4.41550E-13
 -1       305 2.11846E+00-8.12923E+00-6.41703E-01-3.68120E+00 3.23880E-13-1.72792E-13
 -1       306-1.17371E+00-1.09600E+01-9.91669E-01-7.63948E-01 2.73059E-13-1.26871E-13
 -1       307-4.76652E-01-1.05696E+01-9.79119E-01 1.35233E+00 7.72576E-14-4.90705E-13
 -1       308 4.30599E+00-7.64671E+00-6.63281E-01 4.16897E+00-1.62231E-13-2.21996E-13
 -1       309 1.12652E+01-4.27303E+00-4.45181E-01 5.84544E+00-1.55875E-13-5.07316E-13
 -1       310 2.25577E+01-2.11194E+00-3.60712E-02 6.54526E+00-1.69559E-13-3.89050E-13
 -1       311 3.14624E+01 2.77874E+00 3.97309E-01 7.21753E+00-3.52385E-13-3.88911E-13
 -1       312 4.05470E+01 5.10523E+00 8.11587E-01 5.71977E+00-5.04308E-13-1.84824E-13
 -1       313 4.63185E+01 6.36323E+00 1.07088E+00 2.84310E+00-5.53960E-13 7.67442E-14
 -1       314 4.77371E+01 6.64890E+00 1.13345E+00-6.98710E-01-5.67296E-13 2.96419E-13
 -1       315 4.45546E+01 5.97942E+00 9.84011E-01-4.05561E+00-6.01283E-13 5.66686E-13
 -1       316 3.69599E+01 4.08907E+00 6.01069E-01-6.09330E+00-5.22912E-13 8.74301E-13
 -1       317 2.70334E+01 1.55337E+00 2.12437E-01-7.48432E+00-2.64178E-13 1.07364E-12
 -1       318 1.70160E+01-1.86434E+00-2.14132E-01-6.79878E+00-2.43028E-13 8.58341E-13
 -1       319 8.44713E+00-5.51656E+00-5.79382E-01-5.09165E+00-2.95264E-13 3.27571E-13
 -1       320 2.38705E+00-8.65737E+00-7.85574E-01-3.20748E+00 1.39666E-13 4.11587E-13
 -1       321-8.61586E-01-1.02637E+01-8.82131E-01-8.93696E-01 2.15730E-13 3.24796E-13
 -1       322 2.01438E+01 3.01592E+00-1.77848E-02-2.10579E+00-1.31626E-13-8.81066E-15
 -1       323 2.07424E+01 2.20938E+00-1.78111E-02-2.36018E+00-1.38700E-13 9.68930E-14
 -1       324 1.95931E+01 3.69831E+00-1.55845E-02-1.31328E+00-7.51191E-14-1.17159E-13
 -1       325 1.94740E+01 3.85721E+00-1.36659E-02-9.19324E-01-6.61694E-14-1.53544E-13
 -1       326 1.94066E+01 3.95035E+00-1.26733E-02-5.40794E-01-3.48928E-14-1.43468E-13
 -1       327 1.93767E+01 3.99286E+00-1.22570E-02-1.72107E-01-9.05901E-15-1.48684E-13
 -1       328 1.93779E+01 3.99127E+00-1.22759E-02 1.93394E-01 1.79402E-14-1.48138E-13
 -1       329 1.94105E+01 3.94526E+00-1.27250E-02 5.62381E-01 3.25543E-14-1.48534E-13
 -1       330 1.94795E+01 3.84995E+00-1.37401E-02 9.34828E-01 5.80884E-14-1.17802E-13
 -1       331 1.96034E+01 3.68497E+00-1.56327E-02 1.32805E+00 9.74748E-14-7.78366E-14
 -1       332 1.98138E+01 3.41341E+00-1.88109E-02 1.73339E+00 1.26218E-13-3.60996E-14
 -1       333 2.01768E+01 2.95623E+00-2.28991E-02 2.12260E+00 1.45899E-13 1.52968E-14
 -1       334 2.07361E+01 2.12911E+00-3.04168E-02 2.31878E+00 1.52224E-13 1.20600E-13
 -1       335 2.10752E+01 1.18740E+00-2.48709E-02 1.91968E+00 1.34911E-13 2.05893E-13
 -1       336 2.03741E+01 4.89899E-01 8.36770E-03 9.24534E-01 1.22586E-13 1.61600E-13
 -1       337 2.04465E+01 6.76498E-01 1.25878E-02-1.02156E+00-1.18665E-13 1.18155E-13
 -1       338 2.00287E+01 3.40141E-01 7.22257E-03-4.50980E-01-9.12707E-14 1.02846E-13
 -1       339 1.97812E+01 1.81467E-01 4.22798E-03-1.37007E-01-2.91451E-14 1.03126E-13
 -1       340 1.96556E+01 9.80738E-02 1.99947E-03 4.16147E-02-4.02337E-14 1.07015E-13
 -1       341 1.96146E+01 5.25278E-02 9.29873E-04 1.43791E-01-4.46756E-14 9.33180E-14
 -1       342 1.96302E+01 2.82685E-02 4.66899E-04 2.02636E-01-4.63210E-14 2.16187E-14
 -1       343 1.96836E+01 1.73951E-02 2.82763E-04 2.38416E-01-3.06152E-14-1.86408E-14
 -1       344 1.97637E+01 1.57696E-02 2.41660E-04 2.64559E-01-4.20141E-14-5.74912E-14
 -1       345 1.98650E+01 2.10732E-02 2.91616E-04 2.90644E-01-8.04089E-14-8.69270E-14
 -1       346 1.99858E+01 3.19460E-02 4.09585E-04 3.23968E-01-6.97467E-14-4.87625E-14
 -1       347 2.01277E+01 4.75319E-02 5.81726E-04 3.70386E-01-6.90098E-14-8.19596E-14
 -1       348 2.02942E+01 6.71385E-02 7.94973E-04 4.34705E-01 3.50462E-14 3.53464E-15
 -1       349 2.04907E+01 8.98497E-02 1.03023E-03 5.20683E-01 2.53705E-14 2.26833E-14
 -1       350 2.07234E+01 1.13949E-01 1.25314E-03 6.30550E-01-2.41471E-14 4.41580E-14
 -1       351 2.09989E+01 1.35983E-01 1.40082E-03 7.63816E-01-1.62279E-14 6.04710E-14
 -1       352 2.13235E+01 1.49275E-01 1.36513E-03 9.15012E-01-8.03264E-15 9.51061E-14
 -1       353 2.17023E+01 1.41785E-01 9.78024E-04 1.06987E+00-4.50654E-14 8.41030E-14
 -1       354 2.21392E+01 9.37447E-02 1.76266E-05 1.19959E+00-4.82244E-14 1.04711E-13
 -1       355 2.26360E+01-2.31095E-02-1.72286E-03 1.25370E+00 2.06792E-14 2.50221E-14
 -1       356 2.31908E+01-2.39491E-01-4.14192E-03 1.15430E+00 9.12806E-14 8.32614E-14
 -1       357 2.37904E+01-5.65388E-01-6.64605E-03 7.99883E-01 2.14550E-13 2.77568E-13
 -1       358 2.43857E+01-9.35991E-01-7.98138E-03 1.01947E-01 1.28956E-13 3.69716E-13
 -1       359 2.48606E+01-1.15600E+00-8.79719E-03-9.30651E-01 1.39986E-13 3.01604E-13
 -1       360 2.49958E+01-8.60646E-01-8.78032E-03-2.01959E+00 2.54358E-14 1.82194E-13
 -1       361 2.46437E+01 1.45284E-01-1.52885E-02-2.53045E+00-2.17144E-13 3.39704E-13
 -1       362 2.40009E+01 1.48070E+00-2.37052E-02-1.79689E+00-2.18913E-13 1.94822E-13
 -1       363 2.36747E+01 2.10478E+00-3.06948E-02 6.10499E-02-1.70922E-13-5.88441E-14
 -1       364 2.40384E+01 1.41025E+00-2.27992E-02 1.87865E+00 1.47972E-15-1.19234E-13
 -1       365 2.46768E+01 6.80996E-02-1.53249E-02 2.53077E+00-3.54755E-14 7.28467E-14
 -1       366 2.50012E+01-9.00039E-01-9.41229E-03 1.96183E+00-1.71368E-13 1.41781E-13
 -1       367 2.48377E+01-1.14864E+00-9.34414E-03 8.64092E-01-1.97346E-13 1.95343E-13
 -1       368 2.43554E+01-9.15661E-01-8.88215E-03-1.50341E-01-5.44456E-14-1.15923E-14
 -1       369 2.37590E+01-5.41390E-01-6.83346E-03-8.25701E-01 2.27822E-13 6.35246E-14
 -1       370 2.31647E+01-2.20634E-01-4.03610E-03-1.15896E+00 1.87708E-13 8.30188E-14
 -1       371 2.26178E+01-9.90259E-03-1.55831E-03-1.24283E+00-1.42846E-13 7.10826E-14
 -1       372 2.21312E+01 1.03175E-01 1.50456E-04-1.17736E+00-5.33479E-14 2.28111E-13
 -1       373 2.17069E+01 1.49581E-01 1.08947E-03-1.03857E+00 1.01161E-13 2.29790E-13
 -1       374 2.13434E+01 1.57187E-01 1.47331E-03-8.75132E-01 5.78822E-14 1.03786E-13
 -1       375 2.10374E+01 1.45300E-01 1.52129E-03-7.14436E-01-6.26224E-15 2.42015E-13
 -1       376 2.07845E+01 1.25623E-01 1.39935E-03-5.69708E-01 2.35824E-13 3.61206E-13
 -1       377 2.05789E+01 1.04642E-01 1.21321E-03-4.45655E-01 4.59909E-13 2.57587E-13
 -1       378 2.04147E+01 8.57155E-02 1.02048E-03-3.42208E-01 3.90287E-13 3.54993E-13
 -1       379 2.02857E+01 7.05078E-02 8.46513E-04-2.56796E-01-1.02603E-13 3.09137E-13
 -1       380 2.01862E+01 5.96500E-02 7.10500E-04-1.85729E-01-4.75349E-13 3.81072E-13
 -1       381 2.01113E+01 5.30070E-02 7.04784E-04-1.25182E-01-2.06229E-13 4.13107E-14
 -1       382 2.00604E+01 4.58471E-02 4.37353E-04-7.57991E-02-1.25049E-13-1.13447E-14
 -1       383 1.98763E+01 2.29959E-01 1.08304E-02 3.94056E-01 7.61799E-14 1.59683E-13
 -1       384 1.95937E+01 1.17957E-01 6.23323E-03 1.12033E-01 5.96383E-14 1.22266E-13
 -1       385 1.94682E+01 6.17648E-02 2.89866E-03-4.21596E-02-2.21990E-15 8.54319E-14
 -1       386 1.94421E+01 3.18261E-02 1.31426E-03-1.27007E-01 9.11310E-15 5.84457E-14
 -1       387 1.94781E+01 1.59019E-02 6.40253E-04-1.73540E-01 2.13704E-14 4.77472E-14
 -1       388 1.95531E+01 8.37875E-03 3.56497E-04-1.99614E-01 1.77058E-14 5.86905E-14
 -1       389 1.96539E+01 6.37305E-03 2.52221E-04-2.16425E-01 6.68876E-14 6.82281E-14
 -1       390 1.97738E+01 8.18479E-03 2.45028E-04-2.31479E-01-8.68909E-15 1.08427E-13
 -1       391 1.99105E+01 1.26523E-02 2.96955E-04-2.49947E-01 5.67757E-14 7.22470E-14
 -1       392 2.00649E+01 1.88112E-02 3.80889E-04-2.75277E-01 1.05784E-13-6.74649E-14
 -1       393 2.02397E+01 2.56520E-02 4.69465E-04-3.09354E-01 1.27884E-13-2.89294E-15
 -1       394 2.04385E+01 3.18886E-02 5.29792E-04-3.52312E-01-5.65856E-14 9.09891E-15
 -1       395 2.06645E+01 3.57060E-02 5.19723E-04-4.02004E-01-6.26298E-14 1.30584E-14
 -1       396 2.09194E+01 3.44960E-02 3.86633E-04-4.53129E-01-8.64949E-16-3.81317E-15
 -1       397 2.12013E+01 2.46488E-02 7.16165E-05-4.96058E-01 9.80318E-14-2.10653E-14
 -1       398 2.15030E+01 1.60447E-03-4.76331E-04-5.15581E-01 1.10945E-13-7.27844E-14
 -1       399 2.18095E+01-3.94122E-02-1.26756E-03-4.90204E-01-5.68876E-14-1.33532E-13
 -1       400 2.20953E+01-1.01295E-01-2.23107E-03-3.93305E-01-1.77400E-13-1.19622E-13
 -1       401 2.23233E+01-1.80779E-01-3.16656E-03-1.98410E-01-1.01256E-13-6.48941E-14
 -1       402 2.24452E+01-2.61999E-01-3.74254E-03 1.08480E-01 1.26391E-13-1.12602E-13
 -1       403 2.24079E+01-3.10853E-01-3.48655E-03 5.08203E-01 2.68318E-15-1.28233E-14
 -1       404 2.21704E+01-2.78418E-01-2.16113E-03 9.24887E-01-1.07297E-13 2.40610E-14
 -1       405 2.17350E+01-1.24568E-01-1.35127E-04 1.21834E+00-2.04847E-13 1.49436E-13
 -1       406 2.11838E+01 1.39306E-01 1.95485E-03 1.22235E+00-2.57978E-13 3.54159E-13
 -1       407 2.06879E+01 4.18356E-01 3.60364E-03 8.39747E-01-4.90922E-14 4.13526E-13
 -1       408 2.04475E+01 5.68892E-01 5.08539E-03 1.46580E-01-8.80112E-15 4.05001E-13
 -1       409 2.05739E+01 4.99869E-01 5.28832E-03-6.04572E-01 1.34201E-13 5.39080E-13
 -1       410 2.10088E+01 2.54851E-01 4.11895E-03-1.12525E+00 2.06271E-13 4.69106E-13
 -1       411 2.15684E+01-3.10819E-02 1.87072E-03-1.26379E+00 2.17251E-14 1.75664E-13
 -1       412 2.20587E+01-2.33730E-01-1.05056E-03-1.06048E+00 5.11034E-14 1.74216E-13
 -1       413 2.23661E+01-3.10079E-01-3.26310E-03-6.70626E-01 3.34043E-15 1.75760E-13
 -1       414 2.24665E+01-2.86246E-01-4.19979E-03-2.52818E-01 1.31951E-13 2.42811E-13
 -1       415 2.23922E+01-2.12012E-01-3.95737E-03 9.19131E-02 2.55097E-13 9.17462E-14
 -1       416 2.21960E+01-1.28426E-01-2.97629E-03 3.25591E-01 3.33163E-13 1.40268E-14
 -1       417 2.19298E+01-5.80350E-02-1.81141E-03 4.52542E-01-2.26365E-15-3.65637E-14
 -1       418 2.16355E+01-8.16602E-03-7.86542E-04 4.96355E-01 3.52394E-15-3.20115E-13
 -1       419 2.13426E+01 2.23678E-02-3.56515E-05 4.84340E-01-3.04370E-13-3.18210E-13
 -1       420 2.10699E+01 3.80291E-02 4.37951E-04 4.39929E-01-1.89374E-13-8.19992E-14
 -1       421 2.08278E+01 4.36609E-02 6.87904E-04 3.80316E-01-4.96895E-14-3.00904E-13
 -1       422 2.06207E+01 4.33206E-02 7.83761E-04 3.16700E-01 3.01246E-15-3.79679E-13
 -1       423 2.04487E+01 4.00438E-02 7.86309E-04 2.55454E-01 3.70765E-13-2.91878E-13
 -1       424 2.03099E+01 3.59771E-02 7.39033E-04 1.99399E-01 2.91960E-13-2.78981E-13
 -1       425 2.02013E+01 3.25306E-02 6.63788E-04 1.48913E-01 1.40221E-13 1.07353E-14
 -1       426 2.01193E+01 3.03717E-02 5.40704E-04 1.03071E-01 1.10000E-13 3.42762E-14
 -1       427 2.00602E+01 2.90318E-02 4.17494E-04 6.09107E-02-2.22406E-13 1.01160E-13
 -1       428 2.00328E+01 2.88404E-02 2.72263E-04 3.85210E-02-4.38454E-13 2.06871E-13
 -1       429 2.00116E+01 1.67075E-01 1.24004E-04 1.24929E-01 2.14731E-13-8.10657E-14
 -1       430 2.00298E+01 1.07554E-01 3.15760E-04 1.05058E-01-1.09415E-13-5.02136E-14
 -1       431 2.00356E+01 6.42179E-02 3.92871E-04 7.31168E-02-3.04034E-13 1.51853E-13
 -1       432 1.99927E+01 2.26334E-01-6.04687E-05 1.25737E-01 1.06592E-13-2.01529E-13
 -1       433 1.99754E+01 2.80591E-01-2.18320E-04 1.07557E-01 1.27703E-14 3.02447E-13
 -1       434 1.99622E+01 3.22130E-01-3.44207E-04 7.31925E-02-4.93243E-14-2.30892E-14
 -1       435 1.99547E+01 3.45621E-01-4.15774E-04 2.77270E-02-1.64329E-13 3.89404E-13
 -1       436 1.99538E+01 3.47826E-01-4.22486E-04-2.22951E-02-2.73779E-13 1.14653E-13
 -1       437 1.99600E+01 3.28160E-01-3.59690E-04-6.95660E-02-2.16166E-13-1.84502E-13
 -1       438 1.99726E+01 2.89738E-01-2.35769E-04-1.06300E-01-1.07370E-13-1.09737E-13
 -1       439 1.99905E+01 2.36028E-01-7.85235E-05-1.27607E-01 9.28342E-14 5.41448E-13
 -1       440 2.00113E+01 1.74263E-01 1.08380E-04-1.28645E-01 7.01469E-14 3.05833E-13
 -1       441 2.00317E+01 1.11577E-01 3.02364E-04-1.08707E-01-1.95476E-13 4.84049E-14
 -1       442 1.01339E+01-5.28401E+00-2.04967E-02 6.98124E+00 1.00961E-13-1.55466E-13
 -1       443 1.21904E+00-4.22109E+00-5.18551E-02 2.04236E-01 1.75177E-13 2.23654E-13
 -1       444 4.44159E+00-4.52196E+00-1.24638E-02 4.94935E+00 3.10862E-14 1.77691E-13
 -1       445 1.83878E+01-5.13244E+00-1.93898E-02 6.82740E+00 9.97813E-14-1.68421E-13
 -1       446 2.58827E+01-3.40866E+00-1.84246E-03 4.69497E+00-1.84408E-13-1.71460E-13
 -1       447 1.98085E+01 3.43449E+00-1.76467E-02-1.73290E+00-1.01197E-13-7.20162E-14
 -1       448 3.41706E+01 4.58655E+00 3.49748E-02 2.33157E-01 2.87007E-13-1.15366E-13
 -1       449 3.52903E+01 7.61775E+00 3.51099E-02-1.75397E-01 7.23588E-14 8.01095E-14
 -1       450 3.43389E+01 7.76550E+00-3.15280E-02 3.25119E-01 2.88644E-13 1.37043E-14
 -1       451 3.38411E+01 4.36627E+00-2.92739E-03-1.06228E-01 1.64410E-13-2.88380E-14
 -1       452 3.09920E+01-2.29377E-02-1.90099E-03-1.90134E+00 1.10562E-13 5.96467E-14
 -1       453 2.62838E+01-3.28696E+00 2.97387E-02-4.61900E+00 9.42024E-14 1.56319E-13
 -1       454 1.67588E+01-5.51042E+00-2.96399E-02-7.07334E+00-9.62563E-14 1.46022E-13
 -1       455 9.70108E+00-5.09756E+00 2.25339E-02-6.93691E+00 1.24067E-14-4.70249E-14
 -1       456 2.67216E+00-4.03037E+00-1.22864E-02-3.35498E+00 9.71306E-14-1.06901E-13
 -1       457 1.14750E+00-4.54291E+00-7.74716E-02 8.43083E-01 4.13176E-14-5.20195E-13
 -1       458 4.83588E+00-4.61926E+00-2.04439E-02 4.83885E+00 1.22916E-13-2.79082E-13
 -1       459 1.32320E+01-5.65922E+00 4.81663E-03 6.97828E+00 1.98036E-13-2.53030E-13
 -1       460 2.08348E+01-5.56187E+00 2.80916E-03 6.09691E+00 2.74183E-13-1.51691E-13
 -1       461 2.90756E+01-2.35135E+00 5.95837E-03 2.90232E+00-5.89667E-14 4.71845E-16
 -1       462 3.32217E+01 1.13641E+00 2.53525E-02 1.07564E+00-2.16303E-13 1.02168E-13
 -1       463 3.61444E+01 5.52103E+00 9.29028E-02-1.44791E-01-5.31117E-13 7.26780E-14
 -1       464 3.74932E+01 7.80571E+00 1.63696E-01-9.29876E-02-5.34517E-13 7.03083E-14
 -1       465 3.72668E+01 7.23665E+00 1.56004E-01 1.55422E-01-6.55948E-13 3.73937E-14
 -1       466 3.53615E+01 4.13601E+00 8.17490E-02-9.09075E-02-3.53009E-13 1.53294E-13
 -1       467 3.15605E+01-5.62080E-01 1.41907E-02-2.13179E+00-1.02085E-13 2.08111E-13
 -1       468 2.58201E+01-4.16881E+00-1.24789E-02-4.56069E+00 2.62457E-13 7.36675E-13
 -1       469 1.79380E+01-5.63144E+00-3.45060E-02-6.65192E+00 4.55608E-14 2.88922E-13
 -1       470 9.62468E+00-5.70074E+00-7.88429E-02-6.47972E+00 9.83380E-14 4.22377E-13
 -1       471 3.85726E+00-4.34082E+00 3.92620E-03-4.05707E+00 2.75072E-13 2.44166E-13
 -1       472 3.11729E+01 2.64540E-01 2.11718E-02 2.38316E+00 6.92163E-14-4.17999E-14
 -1       473 2.62301E+01-5.20366E+00-1.64831E-02 3.29017E+00 2.11664E-13-3.31540E-14
 -1       474 2.03675E+01 8.35178E-01 4.03330E-03 9.64941E-01 9.17330E-14 9.82790E-14
 -1       475 1.97459E+01 3.11991E+00-5.32062E-03-6.27715E-01-3.79490E-14-1.20989E-13
 -1       476 1.98411E+01 2.94279E+00-5.70613E-03-9.41796E-01-4.98647E-14-1.28324E-13
 -1       477 1.96788E+01 3.24564E+00-5.01010E-03 8.90005E-03-7.12145E-15-1.17126E-13
 -1       478 1.96970E+01 3.21183E+00-5.09102E-03 3.27227E-01 1.10493E-14-1.36112E-13
 -1       479 1.97500E+01 3.11280E+00-5.40456E-03 6.39930E-01 4.05954E-14-1.23124E-13
 -1       480 1.98469E+01 2.93165E+00-5.96381E-03 9.53619E-01 6.88818E-14-6.74606E-14
 -1       481 1.99995E+01 2.64253E+00-6.52452E-03 1.24843E+00 9.68508E-14-3.83905E-14
 -1       482 2.02360E+01 2.19286E+00-5.68769E-03 1.49398E+00 1.04097E-13 6.42477E-15
 -1       483 2.01104E+01 4.59381E-01 5.09250E-03 4.52829E-01 8.53365E-14 8.39494E-14
 -1       484 2.03428E+01 9.77988E-01 2.79466E-03-9.31128E-01-1.00209E-13 5.36600E-14
 -1       485 3.00413E+01 9.90113E-01-1.18862E-01-1.08262E+00 9.36334E-14-2.70367E-13
 -1       486 2.01752E+01 5.54342E-01 2.35833E-03-4.53355E-01-5.78516E-14 6.42456E-14
 -1       487 2.00343E+01 3.17596E-01 1.14425E-03-1.43599E-01-2.68991E-14 4.34402E-14
 -1       488 1.99430E+01 1.82225E-01 5.15401E-04 5.04168E-02-7.07462E-14 5.12356E-14
 -1       489 1.98973E+01 1.04701E-01 2.29921E-04 1.70824E-01-8.68190E-14-5.17946E-15
 -1       490 1.98878E+01 6.33492E-02 1.18747E-04 2.46782E-01-9.96773E-14-3.15103E-14
 -1       491 1.99057E+01 4.64009E-02 8.48162E-05 2.98712E-01-7.52704E-14-7.94393E-14
 -1       492 1.99446E+01 4.70913E-02 9.47541E-05 3.41366E-01-9.13982E-14-1.04579E-13
 -1       493 2.00006E+01 6.13479E-02 1.36050E-04 3.85796E-01-6.98771E-14-1.04096E-13
 -1       494 2.00717E+01 8.65906E-02 2.02840E-04 4.40593E-01-2.54295E-14 5.79717E-15
 -1       495 2.01574E+01 1.20963E-01 2.90778E-04 5.12595E-01 3.98108E-14 8.60822E-14
 -1       496 2.02583E+01 1.62637E-01 3.94554E-04 6.07195E-01 4.81583E-14-3.24404E-14
 -1       497 2.03760E+01 2.08937E-01 5.04992E-04 7.28221E-01-6.19867E-15-4.12847E-14
 -1       498 2.05125E+01 2.55031E-01 6.04272E-04 8.77314E-01 3.11021E-15 4.24427E-14
 -1       499 2.06714E+01 2.91902E-01 6.58738E-04 1.05260E+00-5.69261E-14 3.16401E-14
 -1       500 2.08593E+01 3.03312E-01 6.09435E-04 1.24640E+00-7.87354E-14-5.84954E-14
 -1       501 2.10892E+01 2.61870E-01 3.59261E-04 1.44148E+00-1.93197E-14 9.68651E-15
 -1       502 2.13862E+01 1.25482E-01-2.32241E-04 1.60554E+00-1.49947E-14 1.32004E-13
 -1       503 2.17950E+01-1.61290E-01-1.29960E-03 1.68328E+00 8.83560E-14 9.26139E-14
 -1       504 2.23829E+01-6.49892E-01-2.40921E-03 1.58726E+00 1.41493E-13 1.38769E-13
 -1       505 2.32284E+01-1.33505E+00-2.82420E-03 1.18575E+00 1.82279E-13 4.11020E-14
 -1       506 2.43437E+01-2.02850E+00-2.12737E-03 3.58956E-01 1.71292E-13 3.31135E-14
 -1       507 2.55540E+01-2.23873E+00-1.26240E-02-9.93618E-01 6.62363E-14 1.27502E-13
 -1       508 2.63599E+01-1.18422E+00-3.53857E-02-2.36693E+00-3.81804E-14 1.49446E-13
 -1       509 2.63624E+01 1.37384E+00-7.69661E-02-2.79169E+00-2.35707E-13 2.72268E-13
 -1       510 2.57662E+01 3.81266E+00-1.22366E-01-1.25265E+00-3.32005E-13 1.58216E-13
 -1       511 2.58298E+01 3.73690E+00-1.20977E-01 1.43147E+00-1.11283E-13 6.13188E-14
 -1       512 2.64189E+01 1.20874E+00-7.39880E-02 2.82640E+00-4.27228E-14 5.33427E-14
 -1       513 2.63285E+01-1.27422E+00-3.13930E-02 2.30077E+00-9.02720E-14-7.66201E-14
 -1       514 2.54763E+01-2.24654E+00-1.13837E-02 8.84580E-01-1.12734E-13-3.46684E-15
 -1       515 2.42665E+01-1.98982E+00-4.72510E-03-4.11196E-01-1.80359E-13 1.90292E-13
 -1       516 2.31701E+01-1.28409E+00-3.27048E-03-1.22017E+00 1.80624E-13 3.40955E-13
 -1       517 2.23465E+01-6.08238E-01-2.22862E-03-1.59160E+00 1.45597E-13 2.85574E-13
 -1       518 2.17745E+01-1.30964E-01-1.06221E-03-1.66948E+00 6.17551E-14 2.36515E-13
 -1       519 2.13783E+01 1.47093E-01-1.16044E-04-1.57846E+00-2.76923E-13 1.35584E-13
 -1       520 2.10917E+01 2.78842E-01 4.15462E-04-1.40390E+00-6.10246E-14-1.07911E-13
 -1       521 2.08716E+01 3.19310E-01 6.45408E-04-1.19899E+00 2.92578E-14-2.36561E-13
 -1       522 2.06940E+01 3.09687E-01 6.92680E-04-9.94511E-01 1.14587E-13-1.67474E-13
 -1       523 2.05469E+01 2.76600E-01 6.46017E-04-8.06585E-01 3.03123E-13 8.12338E-14
 -1       524 2.04239E+01 2.35744E-01 5.62760E-04-6.42155E-01 8.78317E-14 9.63179E-14
 -1       525 2.03215E+01 1.95778E-01 4.75390E-04-5.02646E-01 5.31112E-13-2.47594E-14
 -1       526 2.02370E+01 1.61128E-01 3.85365E-04-3.86379E-01 2.20340E-13 7.15771E-14
 -1       527 2.01679E+01 1.34011E-01 3.23910E-04-2.89931E-01-2.20471E-13-4.59557E-15
 -1       528 2.01118E+01 1.14541E-01 3.27197E-04-2.09514E-01-6.03065E-13 2.19006E-13
 -1       529 1.05711E+01-2.95880E+00 1.58206E-01 6.19043E+00 5.34919E-14 6.96457E-14
 -1       530 1.98247E+01 1.42927E-01 1.09017E-03-4.79492E-02 3.43156E-14 4.04849E-14
 -1       531 1.97808E+01 7.91968E-02 4.66313E-04-1.60994E-01 3.31897E-14 9.26800E-15
 -1       532 1.97814E+01 4.47974E-02 2.18052E-04-2.29190E-01 2.95514E-14-3.44935E-15
 -1       533 1.98139E+01 2.91490E-02 1.25846E-04-2.72686E-01-1.10287E-14 3.50514E-14
 -1       534 1.98700E+01 2.62163E-02 1.08407E-04-3.05230E-01 5.81897E-14 1.20586E-13
 -1       535 1.99446E+01 3.21251E-02 1.34644E-04-3.36397E-01 7.90410E-14 3.89403E-15
 -1       536 2.00357E+01 4.39741E-02 1.87378E-04-3.72814E-01 1.48947E-13-3.11739E-14
 -1       537 2.01431E+01 5.91260E-02 2.51453E-04-4.18703E-01 9.73686E-14-4.89567E-14
 -1       538 2.02682E+01 7.46310E-02 3.09401E-04-4.75946E-01-8.14679E-15-6.51590E-14
 -1       539 2.04132E+01 8.66538E-02 3.39044E-04-5.43735E-01-3.86970E-14-3.75883E-14
 -1       540 2.05808E+01 8.98816E-02 3.10744E-04-6.17792E-01-4.78074E-14 4.12893E-14
 -1       541 2.07737E+01 7.69912E-02 1.86908E-04-6.89211E-01 2.45574E-14-7.04022E-14
 -1       542 2.09942E+01 3.84358E-02-7.51589E-05-7.43007E-01 1.20921E-13 1.54466E-14
 -1       543 2.12441E+01-3.67907E-02-5.14101E-04-7.56730E-01 2.69357E-14 1.15319E-14
 -1       544 2.15224E+01-1.58233E-01-1.12828E-03-7.00024E-01-1.00021E-13 2.17102E-14
 -1       545 2.18235E+01-3.27265E-01-1.86053E-03-5.36883E-01-4.83663E-14-1.05744E-13
 -1       546 2.21303E+01-5.24949E-01-2.55321E-03-2.33666E-01-8.79859E-14-2.14951E-13
 -1       547 2.24053E+01-6.96142E-01-2.93989E-03 2.22191E-01 3.64368E-15 4.86400E-14
 -1       548 2.25847E+01-7.41310E-01-2.32662E-03 7.90299E-01-4.00793E-14 7.66814E-14
 -1       549 2.25877E+01-5.39310E-01-6.64292E-04 1.34006E+00-1.95201E-13 6.29755E-14
 -1       550 2.23675E+01-3.13443E-02 5.06271E-04 1.64360E+00-2.19420E-13 1.62198E-13
 -1       551 2.19872E+01 6.70759E-01 7.82017E-04 1.45703E+00-1.77200E-13-1.58391E-14
 -1       552 2.16552E+01 1.24156E+00 9.49676E-04 7.08988E-01 6.18303E-14-8.53849E-14
 -1       553 2.15957E+01 1.34253E+00 2.05029E-03-3.50765E-01-1.16860E-14-4.27466E-14
 -1       554 2.18512E+01 9.07214E-01 3.66207E-04-1.25195E+00 1.65405E-13-3.85213E-14
 -1       555 2.22450E+01 2.06110E-01 1.84751E-04-1.64428E+00 2.22812E-13 6.15599E-15
 -1       556 2.25372E+01-3.95591E-01-1.05212E-03-1.48906E+00 8.00463E-14-7.83114E-14
 -1       557 2.26123E+01-7.03763E-01-2.13887E-03-9.96879E-01-1.57549E-13 2.47029E-13
 -1       558 2.24873E+01-7.30972E-01-2.86319E-03-4.16840E-01 3.67882E-14 4.56072E-13
 -1       559 2.22392E+01-5.89514E-01-2.95187E-03 8.41420E-02 4.13161E-13 4.00173E-13
 -1       560 2.19411E+01-3.91053E-01-2.28977E-03 4.37788E-01 4.00919E-13 1.56759E-13
 -1       561 2.16396E+01-2.06311E-01-1.45151E-03 6.41991E-01 1.74456E-13 2.89366E-13
 -1       562 2.13581E+01-6.52829E-02-6.93713E-04 7.25453E-01 1.55764E-13 2.73037E-13
 -1       563 2.11059E+01 2.79048E-02-1.33292E-04 7.24467E-01-4.19390E-15 1.16357E-13
 -1       564 2.08856E+01 8.10581E-02 2.29248E-04 6.71547E-01-3.88488E-13-2.80659E-13
 -1       565 2.06964E+01 1.05271E-01 4.27232E-04 5.91596E-01-2.49738E-14-2.24476E-13
 -1       566 2.05365E+01 1.10840E-01 5.08288E-04 5.01716E-01 1.13189E-13-2.92656E-13
 -1       567 2.04035E+01 1.05905E-01 5.17724E-04 4.12480E-01 1.71291E-13-3.09782E-13
 -1       568 2.02945E+01 9.64277E-02 4.86839E-04 3.29490E-01 2.08423E-13 7.95119E-14
 -1       569 2.02066E+01 8.64360E-02 4.65533E-04 2.54870E-01 6.12774E-14 1.55694E-13
 -1       570 2.01367E+01 7.84911E-02 5.17100E-04 1.88701E-01 5.69664E-14 2.53498E-13
 -1       571 2.00810E+01 7.25214E-02 4.61111E-04 1.29451E-01-1.99271E-13 4.89180E-13
 -1       572 1.99637E+01 2.69448E-01-6.95116E-05 1.66733E-01 3.17506E-13 7.67862E-16
 -1       573 1.99317E+01 3.18517E-01-1.26755E-04 1.28680E-01 2.03656E-13 6.89778E-14
 -1       574 2.00401E+01 1.47772E-01 2.52790E-05 1.71421E-01 4.86474E-14 1.62893E-14
 -1       575 2.00016E+01 2.10667E-01-1.40897E-05 1.81493E-01 1.05604E-13-1.09327E-13
 -1       576 1.99098E+01 3.52126E-01-1.73196E-04 7.23871E-02 6.16282E-14-2.04492E-14
 -1       577 1.99007E+01 3.66336E-01-1.92166E-04 5.38606E-03-1.79606E-13 3.04294E-13
 -1       578 1.99061E+01 3.59122E-01-1.80219E-04-6.32168E-02-8.07140E-14 2.32250E-13
 -1       579 1.99254E+01 3.31466E-01-1.38672E-04-1.22805E-01 1.35941E-13-7.02916E-14
 -1       580 1.99573E+01 2.85103E-01-7.22532E-05-1.66428E-01 2.19384E-13 1.29172E-13
 -1       581 1.99979E+01 2.25083E-01-8.72988E-05-1.86141E-01-3.21719E-13 2.92338E-13
 -1       582 2.00408E+01 1.58445E-01 8.08215E-05-1.78249E-01-5.82351E-13 1.35703E-13
 -1       583 4.68045E+00-1.66619E+00 1.51477E-01-1.90543E+00 1.60608E-13 1.10800E-13
 -1       584 1.99298E+01 2.55721E-01 2.51136E-03 1.40654E-01 5.47734E-14 8.44896E-14
 -1       585 1.70746E+01-5.12473E+00 8.20297E-02 6.85630E+00 2.50425E-14-3.17107E-13
 -1       586 1.00398E+01-3.41724E+00 1.36344E-01-5.93811E+00 9.89417E-14 7.48471E-13
 -1       587 2.03950E+01 1.75856E+00-5.96682E-03-1.53067E+00-1.17722E-13 2.13879E-14
 -1       588 2.35071E+01-5.30738E+00 9.60885E-03 4.88661E+00-5.40887E-14-3.25344E-13
 -1       589 1.16808E+01-3.68778E+00 1.35758E-01 6.29960E+00 2.09298E-13-9.76025E-14
 -1       590 2.98610E+01 9.87835E-01-1.17710E-01 1.22752E+00 1.00579E-13-1.44454E-13
 -1       591 1.96944E+01 3.21623E+00-5.08434E-03-3.09518E-01-1.78644E-14-1.26884E-13
 -1       592 2.97703E+01 7.32225E+00-1.82958E-01-2.36033E-01 1.22818E-13-2.93752E-13
 -1       593 4.79984E+00-1.15596E+00 1.77786E-01-8.66023E-01-2.73627E-14-3.03507E-13
 -1       594 3.03443E+01 5.53690E+00-1.50172E-01-1.51994E+00 4.93772E-14-1.68886E-13
 -1       595 2.98189E+01 5.34316E+00-1.71390E-01 1.64738E+00 2.21323E-13 2.18853E-14
 -1       596 2.80710E+01-3.18113E+00-5.28052E-02-1.19574E+00 1.14553E-13-6.44901E-14
 -1       597 2.32215E+01-5.38399E+00 2.91179E-02-4.97375E+00-1.95684E-13 9.96460E-14
 -1       598 1.58695E+01-4.81872E+00 9.67496E-02-6.95272E+00-1.90889E-13 2.08250E-13
 -1       599 3.14695E+01 6.07144E+00-1.54900E-01-1.44928E+00-5.23262E-13 1.31929E-13
 -1       600 8.85885E+00-2.53931E+00 1.64488E-01-5.63358E+00 2.84495E-16 1.38077E-13
 -1       601 6.04936E+00-1.53676E+00 1.73858E-01 3.04657E+00 1.82899E-13-3.62751E-13
 -1       602 1.90404E+01-5.35336E+00 7.34708E-02 6.11372E+00 1.96031E-13-1.29882E-13
 -1       603 3.01540E+01-1.85484E+00-7.47600E-02-5.30731E-01-8.48627E-14 1.53703E-13
 -1       604 3.12970E+01 2.23076E+00-1.42591E-01-1.94467E+00-1.99965E-13 1.35461E-13
 -1       605 3.17158E+01 7.24345E+00-1.40982E-01 3.64583E-01-4.70485E-13 7.09745E-14
 -1       606 3.15008E+01 5.07164E+00-1.34736E-01 1.88811E+00-3.01689E-13-3.32796E-13
 -1       607 3.12556E+01 5.05233E-01-1.19912E-01 1.34657E+00 3.69149E-15-2.28192E-13
 -1       608 2.89229E+01-3.57593E+00-4.56441E-02-1.27987E+00 3.32286E-14-4.03289E-14
 -1       609 2.35004E+01-5.68294E+00 1.88426E-02-4.72581E+00 2.53762E-13 4.40221E-13
 -1       610 1.59464E+01-5.11931E+00 8.36768E-02-6.67497E+00 7.41074E-14 1.94296E-13
 -1       611 5.45294E+00-1.41936E+00 1.74880E-01 2.81344E+00 7.26988E-14 6.55170E-14
 -1       612 2.05754E+01 1.30648E+00-9.84602E-04 1.54326E+00 1.37782E-13 8.94734E-14
 -1       613 2.84764E+01-2.83823E+00-4.34103E-02 1.43977E+00-2.15376E-13-4.54359E-14
 -1       614 1.99813E+01 2.65785E+00-9.79764E-03-1.23073E+00-7.89282E-14-7.48937E-14
 -1       615 8.98350E+00-1.44837E+00 1.54778E-01-4.22451E+00-2.91885E-14 4.63907E-13
 -1       616 2.00801E+01 1.03803E-01 3.31657E-04-1.61032E-01-4.03606E-13 1.32717E-14
 -1       617 2.73020E+01 5.89969E+00-1.64951E-01 1.04050E+00 9.96495E-14-3.20959E-13
 -1       618 2.33851E+01-5.35711E+00-9.91469E-03 4.11177E+00 1.48229E-13-2.10718E-13
 -1       619 1.99704E+01 2.47523E+00-1.58443E-03 3.87154E-01 1.56345E-14-1.00643E-13
 -1       620 1.99384E+01 2.55233E+00-1.52561E-03 1.33400E-01-1.00273E-14-1.09862E-13
 -1       621 2.01300E+01 2.06270E+00-1.57246E-03 8.37565E-01 9.21841E-14-2.95739E-14
 -1       622 2.02452E+01 1.68734E+00-2.25335E-03 9.80442E-01 8.46425E-14-3.48669E-14
 -1       623 2.03221E+01 1.04557E+00 2.93244E-03 8.19178E-01 9.20845E-14 4.44715E-14
 -1       624 2.13629E+01-4.98866E+00 4.44167E-02 5.11315E+00 7.72021E-14-4.12676E-13
 -1       625 1.51690E+01-3.30518E+00 1.21510E-01-5.85501E+00 1.51858E-13 1.98917E-13
 -1       626 2.02123E+01 6.28049E-01 1.08476E-03 4.00603E-01 8.03350E-14 4.21895E-14
 -1       627 2.59877E+01-4.43195E+00-1.52228E-02 2.14407E+00-1.86115E-13-3.67484E-14
 -1       628 2.02490E+01 6.94160E-01 5.74193E-04-3.71732E-01-7.06716E-14-1.39374E-15
 -1       629 2.01814E+01 4.20543E-01 2.18699E-04-1.04989E-01-5.93217E-14-2.25051E-14
 -1       630 2.01220E+01 2.53602E-01 8.43169E-05 7.41575E-02-8.84324E-14-1.00034E-14
 -1       631 2.00794E+01 1.55564E-01 3.31076E-05 1.92988E-01-1.01728E-13-1.51874E-14
 -1       632 2.00539E+01 1.04657E-01 1.89900E-05 2.73959E-01-8.87685E-14 1.63374E-14
 -1       633 2.00432E+01 8.75752E-02 1.99958E-05 3.34744E-01-7.38847E-14-7.55096E-15
 -1       634 2.00440E+01 9.59537E-02 3.02814E-05 3.89059E-01-6.43436E-14 7.09902E-14
 -1       635 2.00537E+01 1.24359E-01 4.84527E-05 4.47603E-01-2.08740E-14 5.43687E-14
 -1       636 2.00695E+01 1.69027E-01 7.39093E-05 5.18802E-01-3.28324E-16 2.59381E-14
 -1       637 2.00893E+01 2.26871E-01 1.06074E-04 6.09304E-01-1.90968E-14 7.34202E-15
 -1       638 2.01108E+01 2.94419E-01 1.43968E-04 7.24209E-01 2.41095E-14 4.60308E-14
 -1       639 2.01322E+01 3.66416E-01 1.85689E-04 8.67021E-01 3.78560E-14 3.03971E-14
 -1       640 2.01529E+01 4.33765E-01 2.26061E-04 1.03934E+00-4.47229E-14 4.11343E-15
 -1       641 2.01755E+01 4.80452E-01 2.53551E-04 1.24028E+00-9.08776E-14 1.37405E-14
 -1       642 2.02098E+01 4.79161E-01 2.46231E-04 1.46552E+00 1.79241E-14 8.75239E-14
 -1       643 2.02803E+01 3.85817E-01 1.49070E-04 1.70553E+00 4.73716E-14 1.12721E-13
 -1       644 2.04379E+01 1.34900E-01-1.64013E-04 1.94173E+00 6.24031E-14 1.49961E-13
 -1       645 2.07770E+01-3.58054E-01-7.36426E-04 2.13601E+00 9.76489E-14 6.50321E-14
 -1       646 2.14406E+01-1.16516E+00-2.31744E-04 2.21172E+00 1.01815E-13-8.06863E-16
 -1       647 2.26997E+01-2.28369E+00 1.68862E-04 1.93595E+00 9.83739E-14 3.63425E-14
 -1       648 2.43697E+01-3.33254E+00-3.87424E-02 1.21249E+00 1.17606E-13 1.27589E-14
 -1       649 2.70662E+01-3.49042E+00-4.36969E-04-3.98459E-01 4.33776E-14-1.59438E-14
 -1       650 2.83905E+01-9.29849E-01-4.79777E-02 2.20779E+00-3.58637E-14-4.37386E-13
 -1       651 2.66062E+01-3.36845E+00-3.22369E-02 4.23316E-01 3.88181E-14-1.53794E-13
 -1       652 2.44598E+01-3.20926E+00 9.66563E-03-1.14044E+00 2.37832E-13 2.41900E-13
 -1       653 2.26763E+01-2.17317E+00 2.80681E-03-1.91928E+00 7.70895E-15 5.20519E-13
 -1       654 2.15190E+01-1.09872E+00 4.20598E-04-2.14342E+00-3.22108E-14 2.90887E-13
 -1       655 2.08643E+01-3.18942E-01-2.95217E-04-2.08165E+00-2.27059E-15 1.52495E-13
 -1       656 2.05252E+01 1.54253E-01-1.44626E-05-1.89320E+00-1.50782E-13 2.14451E-13
 -1       657 2.03599E+01 3.95348E-01 2.01099E-04-1.65739E+00-2.50259E-13 4.19640E-13
 -1       658 2.02794E+01 4.86433E-01 2.92964E-04-1.41291E+00-6.43001E-14 1.58333E-13
 -1       659 2.02352E+01 4.90664E-01 3.04309E-04-1.17942E+00 1.43493E-13 1.07245E-13
 -1       660 2.02043E+01 4.50454E-01 2.78301E-04-9.67040E-01 1.71648E-13 3.77273E-14
 -1       661 2.01770E+01 3.91910E-01 2.35186E-04-7.80322E-01 3.55342E-14-2.04328E-13
 -1       662 2.01503E+01 3.30154E-01 1.87230E-04-6.20314E-01 3.12312E-13 2.72473E-14
 -1       663 2.01241E+01 2.73442E-01 1.60324E-04-4.85448E-01 3.61547E-13-2.28466E-14
 -1       664 2.00984E+01 2.26342E-01 1.42518E-04-3.73476E-01-1.81373E-14-3.03203E-13
 -1       665 2.00740E+01 1.89604E-01 1.29526E-04-2.80224E-01-1.85954E-13-2.40215E-13
 -1       666 2.83887E+01 1.77914E+00-1.40041E-01 2.75540E+00-1.13271E-13-3.67029E-13
 -1       667 2.00464E+01 2.20937E-01 2.83890E-04-6.56115E-02 4.56047E-14 1.52244E-14
 -1       668 1.99879E+01 6.15455E-02 4.02127E-05-3.18033E-01-2.04526E-14-1.00801E-14
 -1       669 2.00066E+01 6.11212E-02 4.44057E-05-3.63590E-01 7.97298E-14-1.86912E-14
 -1       670 2.00389E+01 7.44929E-02 5.95004E-05-4.09509E-01 1.34009E-13 5.09639E-14
 -1       671 2.00835E+01 9.67311E-02 8.15229E-05-4.62650E-01 1.76291E-13 2.23510E-14
 -1       672 2.01402E+01 1.22975E-01 1.05727E-04-5.27271E-01 4.63400E-14 1.35324E-13
 -1       673 2.02103E+01 1.47508E-01 1.25479E-04-6.05001E-01-6.86702E-14 1.35575E-13
 -1       674 2.02966E+01 1.62810E-01 1.33206E-04-6.94409E-01-1.00804E-13 1.00901E-13
 -1       675 2.04041E+01 1.58644E-01 1.16459E-04-7.90175E-01 2.13032E-14 3.00411E-14
 -1       676 2.05404E+01 1.21338E-01 5.86978E-05-8.81909E-01 4.50676E-14 5.23638E-14
 -1       677 2.07170E+01 3.37948E-02-6.22530E-05-9.52535E-01 5.96052E-14 1.73425E-13
 -1       678 2.09500E+01-1.22406E-01-2.78350E-04-9.76458E-01 2.84196E-14 1.25592E-13
 -1       679 2.12581E+01-3.60770E-01-5.54098E-04-9.18123E-01 7.01370E-15 6.56939E-14
 -1       680 2.16577E+01-6.76698E-01-8.89214E-04-7.32413E-01-5.02013E-14 8.01022E-14
 -1       681 2.21475E+01-1.02343E+00-1.32824E-03-3.70737E-01-7.57198E-14-1.02854E-14
 -1       682 2.26824E+01-1.28153E+00-2.01810E-03 1.94730E-01-7.75426E-14 3.56449E-14
 -1       683 2.31497E+01-1.24857E+00-1.76426E-03 9.21839E-01-1.97403E-13 1.50923E-13
 -1       684 2.33810E+01-7.00106E-01-1.30358E-03 1.61505E+00-2.43088E-13 1.91097E-13
 -1       685 2.32458E+01 4.16889E-01-6.43896E-03 1.92080E+00-1.35838E-13 1.12365E-13
 -1       686 2.28699E+01 1.71160E+00-1.16290E-02 1.45312E+00 3.51112E-14-1.30598E-13
 -1       687 2.26174E+01 2.43919E+00-1.11608E-02 2.46730E-01-8.85715E-14 5.94156E-15
 -1       688 2.27242E+01 2.07955E+00-1.26377E-02-1.10391E+00 1.30503E-13-4.29986E-14
 -1       689 2.31298E+01 8.65680E-01-2.98170E-03-1.85464E+00 2.34314E-13-1.95794E-13
 -1       690 2.33737E+01-3.62411E-01-4.77719E-03-1.79140E+00 4.20573E-15-2.84659E-14
 -1       691 2.32671E+01-1.11951E+00-1.54961E-03-1.18571E+00-2.58801E-13 2.22658E-13
 -1       692 2.28653E+01-1.31067E+00-7.38013E-04-4.40273E-01-1.41723E-13 1.58242E-13
 -1       693 2.23378E+01-1.12655E+00-1.38709E-03 1.88808E-01 2.04199E-13 2.67160E-13
 -1       694 2.18260E+01-7.91455E-01-1.06528E-03 6.17234E-01 5.45248E-13 2.96467E-13
 -1       695 2.13951E+01-4.53787E-01-6.98463E-04 8.54631E-01 2.78444E-13 1.67990E-13
 -1       696 2.10591E+01-1.82853E-01-3.54434E-04 9.45525E-01 1.36361E-13 2.80675E-13
 -1       697 2.08058E+01 5.02531E-03-1.27203E-04 9.37429E-01 1.58578E-13 4.31204E-13
 -1       698 2.06161E+01 1.19154E-01 2.93991E-05 8.69259E-01 1.92943E-15 5.80090E-13
 -1       699 2.04729E+01 1.77382E-01 1.20629E-04 7.69660E-01-8.44662E-14 1.82577E-13
 -1       700 2.03629E+01 1.97697E-01 1.63350E-04 6.58161E-01 1.02158E-13-1.15464E-13
 -1       701 2.02770E+01 1.94949E-01 1.73444E-04 5.47108E-01 1.57473E-13-6.60758E-14
 -1       702 2.02089E+01 1.80283E-01 1.61099E-04 4.43575E-01-2.19301E-14-3.50034E-13
 -1       703 2.01542E+01 1.61774E-01 1.57909E-04 3.50667E-01 2.36197E-14-1.53508E-13
 -1       704 2.01097E+01 1.44467E-01 2.22154E-04 2.69038E-01-8.97290E-14 1.42068E-13
 -1       705 2.00704E+01 1.45855E-01 1.71181E-04 2.18766E-01 3.28379E-14 1.08613E-13
 -1       706 1.98359E+01 3.99751E-01-6.80451E-05 5.35096E-02 2.65670E-13-7.02603E-15
 -1       707 2.00568E+01 1.72520E-01 1.05787E-04-2.26400E-01-4.78238E-13 2.45181E-13
 -1       708 1.99079E+01 3.24404E-01-2.35243E-05 1.95956E-01 4.02614E-13-1.40360E-13
 -1       709 1.98322E+01 4.05558E-01-6.37777E-05-3.51597E-02 1.38154E-13 2.00310E-13
 -1       710 1.98624E+01 3.71526E-01-4.70805E-05 1.33928E-01 2.11056E-13-2.33647E-14
 -1       711 1.57467E+01-3.46504E+00 8.18872E-02 6.05831E+00 8.58237E-14-3.23973E-13
 -1       712 1.98519E+01 3.88113E-01-5.78246E-05-1.19149E-01 5.62114E-14 1.32872E-13
 -1       713 1.98946E+01 3.47845E-01-3.80005E-05-1.89863E-01 2.32164E-13 7.51489E-14
 -1       714 1.99546E+01 2.88913E-01 7.25556E-05-2.34287E-01 1.20689E-14-2.92625E-13
 -1       715 2.00085E+01 2.31115E-01 4.62908E-05-2.40974E-01-2.74237E-13-1.25309E-13
 -1       716 2.01168E+01 3.74923E-01 6.84171E-04 1.19260E-01 5.64773E-14 2.51836E-14
 -1       717 2.02854E+01 1.68717E+00 8.08330E-05-1.13036E+00-7.81769E-14-1.79154E-14
 -1       718 1.67985E+01-3.43553E+00 1.05862E-01 5.58994E+00 5.57679E-14-3.56753E-13
 -1       719 1.11282E+01-1.43199E+00 1.34166E-01 4.60729E+00 1.09999E-13-1.87142E-13
 -1       720 2.74243E+01 2.41361E+00-1.13704E-01 2.19743E+00 1.53946E-13-3.34385E-14
 -1       721 2.77676E+01-4.16346E+00 5.03316E-03 4.97547E-01 7.74207E-15-1.12382E-13
 -1       722 1.99855E+01 8.17715E-02 5.17416E-05-2.63031E-01-3.94260E-15 3.75669E-14
 -1       723 2.00037E+01 1.30176E-01 8.40176E-05-1.85033E-01 5.08974E-14 2.95986E-14
 -1       724 2.02975E+01 1.08945E+00-1.52626E-04-7.07750E-01-6.80584E-14 2.46539E-15
 -1       725 8.93395E+00-3.14379E-01 1.31255E-01-2.99066E+00-6.12774E-14-4.38469E-14
 -1       726 2.78592E+01 2.62461E+00-1.16373E-01-2.21406E+00 9.04138E-14-1.17493E-13
 -1       727 2.00342E+01 2.31664E+00-1.65857E-03 6.27685E-01 5.74784E-14-6.29597E-14
 -1       728 2.00290E+01 2.32739E+00-1.56722E-03-6.18941E-01-2.71029E-14-9.84665E-14
 -1       729 2.06415E+01-4.65850E+00 5.06142E-02-5.17368E+00-1.10596E-13 2.47146E-14
 -1       730 2.54047E+01-4.53524E+00-1.48135E-02-2.19665E+00-1.13515E-13-7.33320E-14
 -1       731 7.28664E+00-3.47564E-02 1.62163E-01 1.02826E-01-3.24118E-14 8.49390E-14
 -1       732 1.49501E+01-3.01849E+00 8.89534E-02-5.92527E+00-6.01949E-14 2.45848E-13
 -1       733 8.41830E+00 2.13847E-01 1.39521E-01 9.30383E-01 4.18342E-14-1.97974E-13
 -1       734 2.75055E+01-1.49868E+00-5.75041E-02 1.15465E+00 5.60975E-14 1.12001E-13
 -1       735 1.01103E+01-7.39335E-01 1.42315E-01 4.02009E+00 1.07667E-13 1.55931E-13
 -1       736 2.86980E+01-2.50869E-01-8.62108E-02-2.45663E+00-1.66575E-13-4.62547E-14
 -1       737 2.08383E+01-4.98086E+00 5.10734E-02-5.07848E+00 2.30319E-13 2.09283E-13
 -1       738 2.83910E+01 3.23193E+00-1.57524E-01-2.50344E+00-3.20646E-13 3.12007E-14
 -1       739 2.64769E+01-4.79928E+00-5.33059E-03-1.84373E+00 3.25009E-13 9.18536E-14
 -1       740 2.80135E+01-1.66513E+00-7.43891E-02-7.81453E-01-1.92577E-13-2.24543E-13
 -1       741 2.66016E+01 5.31233E+00-1.40928E-01-1.31004E+00 1.58235E-13-2.68030E-13
 -1       742 2.01288E+01 2.08012E+00-1.17308E-03-8.41909E-01-4.24728E-14-7.81401E-14
 -1       743 1.99375E+01 2.55407E+00-1.53039E-03-1.23912E-01-2.66976E-14-1.29634E-13
 -1       744 1.99662E+01 2.63665E-01-8.85918E-05 2.31850E-01 1.03661E-14 1.95519E-13
 -1       745 1.31423E+01-1.01180E+00 7.88859E-02-4.45521E+00-4.63796E-14 2.20346E-13
 -1       746 2.86852E+01-2.05088E+00-6.42787E-02 1.33961E+00-1.65076E-14-4.72265E-13
 -1       747 2.00202E+01 2.05368E-01-7.62033E-07 2.36079E-01-9.83855E-14-1.11835E-13
 -1       748 2.08243E+01-4.27657E+00 5.07484E-02 4.52331E+00 2.68500E-14-2.67278E-13
 -1       749 1.39658E+01-1.58887E+00 6.11431E-02 4.84563E+00-4.34219E-14-1.64811E-13
 -1       750 2.58358E+01 3.58936E+00-8.84590E-02 1.97765E+00 6.82787E-15-2.95913E-13
 -1       751 1.99675E+01 2.48105E+00-1.56510E-03-3.77215E-01-1.55751E-14-1.13196E-13
 -1       752 1.30485E+01-1.30002E+00 9.45794E-02-4.44688E+00 7.38888E-14 4.14672E-13
 -1       753 2.02741E+01 1.33048E+00 8.31752E-04 6.14967E-01 7.41346E-14-3.01507E-14
 -1       754 1.97538E+01 4.58389E-01-9.46557E-06-9.41623E-02 1.10266E-13 2.91686E-13
 -1       755 2.52129E+01 2.81217E+00-6.17952E-02-2.08722E+00 7.97418E-14-4.66635E-13
 -1       756 2.02719E+01 4.82516E-01-4.59595E-05-4.85067E-02-5.87534E-14 4.78195E-15
 -1       757 2.02314E+01 3.03840E-01-1.08587E-05 1.01737E-01-7.72557E-14 2.17279E-14
 -1       758 2.01884E+01 1.98998E-01-5.38282E-06 2.06779E-01-1.06829E-13-2.76381E-14
 -1       759 2.01471E+01 1.48305E-01-2.33309E-06 2.83317E-01-5.22536E-14-3.79209E-14
 -1       760 2.01084E+01 1.38347E-01 1.74183E-06 3.45408E-01-1.56002E-14-1.54217E-14
 -1       761 2.00708E+01 1.60008E-01 6.10548E-06 4.04535E-01-3.41350E-14 4.67997E-14
 -1       762 2.00318E+01 2.06895E-01 1.15018E-05 4.69853E-01-3.78383E-14 4.24611E-14
 -1       763 1.99879E+01 2.74170E-01 1.88262E-05 5.48578E-01 1.29177E-14 3.11456E-14
 -1       764 1.99347E+01 3.57414E-01 2.86162E-05 6.46353E-01 1.79102E-14 2.78464E-15
 -1       765 1.98674E+01 4.51275E-01 4.20522E-05 7.67537E-01-1.50001E-14-4.60460E-15
 -1       766 1.97812E+01 5.47736E-01 6.05087E-05 9.15491E-01-2.75041E-14-5.38773E-14
 -1       767 1.96725E+01 6.33640E-01 8.17075E-05 1.09314E+00-1.67797E-14-4.12010E-14
 -1       768 1.95415E+01 6.87055E-01 9.99882E-05 1.30400E+00 2.84677E-14 4.68072E-14
 -1       769 1.93976E+01 6.72265E-01 1.10505E-04 1.55384E+00-9.67382E-15 6.44633E-15
 -1       770 1.92688E+01 5.33119E-01 6.96209E-05 1.85294E+00 1.41024E-13 8.03073E-15
 -1       771 1.92182E+01 1.85819E-01-2.58443E-04 2.21597E+00 4.30853E-14 6.31463E-14
 -1       772 1.93747E+01-4.88357E-01-1.73283E-03 2.65351E+00 1.02156E-14 5.35481E-14
 -1       773 1.99969E+01-1.57382E+00 1.64279E-02 3.14536E+00 6.41822E-14-1.05355E-13
 -1       774 1.07718E+01 7.24340E-01 7.78455E-02-1.05642E+00 5.86722E-14-1.66714E-13
 -1       775 2.15125E+01-3.08742E+00 9.63611E-03-3.23162E+00 2.01720E-13 5.13868E-15
 -1       776 2.01382E+01-1.53850E+00 1.20087E-02-3.01326E+00 8.38138E-14 1.93028E-13
 -1       777 1.95326E+01-4.57205E-01 9.30081E-04-2.58471E+00-2.51713E-14 3.53343E-13
 -1       778 1.93543E+01 1.98341E-01 2.34136E-04-2.17248E+00-6.79984E-14 3.96431E-13
 -1       779 1.93806E+01 5.39578E-01 1.20513E-04-1.81882E+00-1.39477E-13 4.29786E-13
 -1       780 1.94866E+01 6.79426E-01 1.24991E-04-1.51892E+00-2.82405E-13 4.59588E-13
 -1       781 1.96100E+01 6.99244E-01 1.13219E-04-1.26173E+00-5.62761E-14 6.14809E-13
 -1       782 1.97226E+01 6.54085E-01 9.90299E-05-1.03948E+00 1.71178E-13 3.11877E-13
 -1       783 1.98142E+01 5.78875E-01 7.81653E-05-8.47470E-01-6.57884E-14 2.61517E-13
 -1       784 1.98840E+01 4.94550E-01 4.47607E-05-6.82733E-01 1.45656E-13 1.22246E-13
 -1       785 1.99347E+01 4.13577E-01 1.50512E-04-5.43872E-01 1.69654E-13-1.78563E-13
 -1       786 1.99650E+01 3.44666E-01 1.87656E-04-4.28265E-01 7.74278E-14-4.19330E-13
 -1       787 1.99898E+01 2.84377E-01 2.06319E-04-3.28458E-01-1.34130E-13-2.88822E-13
 -1       788 2.01851E+01 2.79150E-01-7.72910E-05-9.20159E-02 3.74109E-14-3.94338E-14
 -1       789 2.00868E+01 1.03086E-01 7.67535E-06-3.40229E-01 3.88654E-14-1.07642E-13
 -1       790 2.00577E+01 1.69501E-01 2.45894E-05-5.17472E-01-2.14022E-15 1.59351E-13
 -1       791 2.00608E+01 2.07894E-01 3.31202E-05-5.97552E-01-3.93120E-15 1.76007E-13
 -1       792 2.00722E+01 2.40679E-01 4.00142E-05-6.93061E-01-1.65477E-14 1.44173E-13
 -1       793 2.00967E+01 2.56062E-01 4.88118E-05-8.03091E-01 8.01919E-15 2.54452E-14
 -1       794 2.01428E+01 2.38296E-01 5.32118E-05-9.23376E-01 1.29170E-14 5.70731E-14
 -1       795 2.02254E+01 1.66673E-01 4.57936E-05-1.04533E+00-1.50470E-14 6.79228E-14
 -1       796 2.03675E+01 1.58122E-02 3.24065E-07-1.15395E+00-2.00412E-14 8.28939E-14
 -1       797 2.06026E+01-2.40939E-01-1.54428E-04-1.22474E+00-2.79494E-14 1.43683E-13
 -1       798 2.09740E+01-6.21872E-01-1.64127E-04-1.21901E+00-7.81737E-15 2.55538E-13
 -1       799 2.15267E+01-1.11739E+00-2.31812E-04-1.07704E+00-7.77221E-15 1.90361E-13
 -1       800 2.22855E+01-1.64724E+00-4.27389E-04-7.13944E-01-1.33055E-13 9.63115E-14
 -1       801 2.31914E+01-1.99314E+00-3.31584E-03-4.55710E-02-1.40951E-13 1.26830E-13
 -1       802 2.40777E+01-1.80064E+00-2.29269E-03 9.19584E-01-2.31113E-13 3.88205E-14
 -1       803 2.45201E+01-6.59876E-01-2.59075E-02 1.84403E+00-1.06611E-13-1.28179E-13
 -1       804 2.44212E+01 1.41463E+00-2.94904E-02 2.11220E+00 4.27106E-14-2.98065E-13
 -1       805 2.36644E+01 3.53272E+00-5.78738E-02-5.48289E-01 2.69160E-14-3.53341E-13
 -1       806 2.42630E+01-1.51526E+00-6.13892E-03-1.24087E+00-2.74276E-13-3.08939E-14
 -1       807 2.35065E+01-2.00826E+00 5.76632E-05-2.45976E-01-1.55957E-13-1.15615E-13
 -1       808 2.25886E+01-1.79273E+00-8.17950E-04 5.13595E-01-1.48450E-13-1.44927E-13
 -1       809 2.17732E+01-1.29761E+00-4.11077E-04 9.70089E-01 3.50562E-13 1.20207E-13
 -1       810 2.11477E+01-7.71497E-01-2.63866E-04 1.17484E+00 2.80504E-13 3.05457E-13
 -1       811 2.07180E+01-3.42284E-01-3.06634E-05 1.21412E+00 1.10720E-13 4.39955E-13
 -1       812 2.04408E+01-3.80572E-02-1.85647E-05 1.15693E+00 1.23932E-14 4.81432E-13
 -1       813 2.02708E+01 1.52937E-01 2.14791E-05 1.04842E+00-7.77247E-14 3.77098E-13
 -1       814 2.01705E+01 2.56265E-01 4.78394E-05 9.17231E-01 2.43458E-13 1.13040E-13
 -1       815 2.01128E+01 2.98424E-01 5.79880E-05 7.80903E-01 1.32296E-13 9.78979E-14
 -1       816 2.00800E+01 3.01701E-01 6.39077E-05 6.49851E-01 1.69520E-14 3.50802E-14
 -1       817 2.00610E+01 2.83031E-01 5.49758E-05 5.29802E-01 8.93990E-14 2.21879E-13
 -1       818 2.00489E+01 2.55001E-01 6.15226E-05 4.23857E-01 1.05386E-13-3.36586E-14
 -1       819 2.00399E+01 2.25510E-01 3.78984E-05 3.31702E-01-2.26492E-13-3.57391E-13
 -1       820 2.00285E+01 2.14615E-01-1.08837E-04 2.81540E-01-2.72628E-13-2.40702E-13
 -1       821 2.01445E+01 1.92769E+00-3.93602E-04 1.91921E-01 4.53444E-15-8.42297E-14
 -1       822 1.97995E+01 4.26457E-01-5.06373E-05-1.95406E-01 6.66634E-14 2.40032E-13
 -1       823 1.97430E+01 4.62832E-01-4.65916E-05 1.69887E-02 1.61603E-13 5.05552E-14
 -1       824 1.98750E+01 3.69597E-01 7.98138E-05-2.72335E-01 4.33234E-14-2.87724E-13
 -1       825 2.64237E+01 5.75766E+00-1.38401E-01 2.44137E-01 1.43288E-13-3.33641E-13
 -1       826 1.53105E+01-1.48638E+00 7.44959E-02 4.41377E+00 7.28714E-15-2.12530E-13
 -1       827 2.01107E+01 1.21599E-01 5.17220E-06-2.80491E-01 7.39294E-15-5.74053E-14
 -1       828 2.00612E+01 1.34417E-01 1.69342E-05-4.51024E-01 7.99716E-14 2.25136E-14
 -1       829 2.00706E+01 1.09958E-01 1.11868E-05-3.94087E-01 5.10404E-14-5.68183E-14
 -1       830 2.36538E+01-4.29724E+00 6.63062E-03 2.75806E+00 1.16381E-13-2.58440E-13
 -1       831 2.02987E+01 7.65702E-01-1.38808E-05-2.61095E-01-7.07209E-14-4.93469E-15
 -1       832 2.01435E+01 1.75551E-01 5.10022E-06-2.02979E-01 8.08100E-15-4.28527E-14
 -1       833 1.17872E+01 2.14708E-01 7.83043E-02 2.60307E+00 2.38351E-15-1.99483E-13
 -1       834 2.29878E+01-4.10349E+00 1.13290E-02-2.97469E+00-2.03081E-13 3.43518E-14
 -1       835 2.38838E+01-4.26859E+00 1.60950E-02-2.62159E+00 4.44320E-13 8.66447E-14
 -1       836 1.86191E+01-3.03693E+00 4.50733E-02-4.76132E+00-8.94788E-14 9.72772E-14
 -1       837 2.58432E+01 1.52164E-01-5.27393E-02 2.16099E+00 8.12943E-14-1.91451E-13
 -1       838 1.90008E+01-3.33228E+00 4.40197E-02-4.69667E+00 2.54317E-13-5.02653E-14
 -1       839 1.04809E+01 5.39148E-01 1.00356E-01 1.54197E+00-7.62979E-14 1.09333E-13
 -1       840 2.63706E+01 3.65900E-02-6.22237E-02-2.07086E+00-5.82260E-14-3.31837E-13
 -1       841 2.55366E+01-2.94520E+00-1.31330E-02 1.80243E-01-9.37564E-14-4.98551E-14
 -1       842 2.02856E+01 9.59327E-01-5.42132E-05 5.32387E-01 9.02512E-14-1.13112E-14
 -1       843 1.96879E+01-3.54800E+00 4.74033E-02 4.71822E+00 4.18918E-14-2.98645E-13
 -1       844 2.60128E+01-3.08459E+00-2.47116E-02-3.09376E-02-2.10209E-13-1.12309E-13
 -1       845 1.01346E+01 1.25775E-01 1.03645E-01-2.26230E+00-1.18273E-13 1.43323E-13
 -1       846 2.48449E+01 4.51305E+00-8.95682E-02-5.56331E-01 1.10596E-13-2.94807E-13
 -1       847 2.52368E+01 4.70748E+00-9.07777E-02 7.94355E-01 1.30049E-13-3.60711E-13
 -1       848 2.01310E+01 1.96778E+00-6.05685E-04 3.79405E-03-2.28515E-14-9.41249E-14
 -1       849 2.02312E+01 1.60875E+00 8.81901E-06 5.18651E-01 4.09271E-14-2.24571E-14
 -1       850 2.02233E+01 1.62068E+00-9.51533E-04-5.09901E-01-2.82218E-14-8.08145E-14
 -1       851 1.98993E+01 3.30860E-01 5.59648E-05 2.74751E-01 1.21796E-13 2.57572E-13
 -1       852 1.66501E+01-1.70302E+00 4.74058E-02-4.30771E+00 2.49358E-13 4.33924E-14
 -1       853 1.97672E+01 4.40264E-01-5.13687E-05 1.23993E-01 1.93652E-13 1.92544E-13
 -1       854 1.27433E+01-4.95366E-03 4.32246E-02 3.08824E+00-1.78099E-13 1.16702E-13
 -1       855 2.38796E+01 3.25914E+00-4.42033E-02 1.16151E+00-2.31828E-14-1.64221E-13
 -1       856 2.45441E+01-1.38861E-02-1.84628E-02-2.05330E+00 1.94549E-15-8.83395E-14
 -1       857 1.98216E+01 3.94608E-01-3.53580E-06 2.13184E-01 1.76158E-13-7.37290E-14
 -1       858 2.01774E+01 1.81124E+00-2.91822E-04 3.68375E-01 2.85073E-14-6.09558E-14
 -1       859 2.02425E+01 6.00214E-01-1.18516E-05 2.28922E-01 5.01815E-14-7.95039E-15
 -1       860 2.02125E+01 4.10101E-01 1.40480E-04 4.24259E-02 4.42943E-14-4.37341E-15
 -1       861 2.02971E+01 1.14884E+00 2.51619E-04-5.14865E-01-6.78537E-14-1.21347E-14
 -1       862 2.01749E+01 1.81814E+00-3.25836E-04-3.59980E-01-3.43958E-14-1.09162E-13
 -1       863 1.97547E+01 4.69309E-01-1.32513E-05-2.93513E-01-1.86668E-13 1.98270E-14
 -1       864 1.63132E+01-1.23341E+00 2.72004E-02-3.98253E+00 3.01673E-14 2.06286E-13
 -1       865 2.02676E+01 3.15739E-01 4.01084E-05-1.16185E-01 4.39411E-14 6.97417E-14
 -1       866 2.02924E+01 3.32204E-01-3.66676E-05 1.20473E-01-9.27099E-14-4.47545E-14
 -1       867 2.02421E+01 2.33087E-01-8.67244E-06 2.05098E-01-8.40730E-14 2.69777E-15
 -1       868 2.01821E+01 1.91790E-01-4.24763E-06 2.70312E-01-3.29447E-14 1.11489E-14
 -1       869 2.01141E+01 1.95453E-01-1.74270E-06 3.26662E-01-2.44754E-14-2.10006E-14
 -1       870 2.00373E+01 2.34666E-01-1.88407E-06 3.82844E-01-1.60925E-14-4.17716E-14
 -1       871 1.99486E+01 3.02353E-01-1.86801E-06 4.45759E-01-4.54835E-14-6.02495E-14
 -1       872 1.98432E+01 3.92745E-01-1.77878E-06 5.20713E-01-1.08258E-14-1.38045E-13
 -1       873 1.97146E+01 5.00166E-01-1.61444E-07 6.11826E-01-8.26679E-15-1.79295E-13
 -1       874 1.95552E+01 6.17533E-01 4.54621E-06 7.22405E-01 1.56246E-14-1.19389E-13
 -1       875 1.93563E+01 7.34822E-01 1.04509E-05 8.55766E-01 1.59303E-15-2.86141E-15
 -1       876 1.91090E+01 8.36627E-01 6.45240E-06 1.01699E+00 5.25708E-14-8.78339E-14
 -1       877 1.88059E+01 8.98934E-01-1.96787E-05 1.21571E+00 6.85286E-14-6.76705E-14
 -1       878 1.84443E+01 8.84832E-01 1.90048E-05 1.47124E+00 4.34490E-14-3.56598E-14
 -1       879 1.80315E+01 7.37458E-01 1.56802E-04 1.82130E+00-1.13820E-15-1.05291E-13
 -1       880 1.76083E+01 3.67408E-01 1.83208E-03 2.33107E+00 3.76908E-14-2.34850E-13
 -1       881 1.72603E+01-3.67325E-01 9.22867E-03 3.07362E+00 1.76137E-14-2.34372E-13
 -1       882 1.30141E+01 1.03342E+00 3.59546E-02 7.44820E-01 4.16201E-14-3.18359E-13
 -1       883 2.52012E+01-1.48422E+00-2.43435E-02-1.35413E+00-2.00571E-13-2.47191E-13
 -1       884 1.75399E+01-3.81069E-01 5.58744E-03-3.01695E+00 1.06724E-13 8.87456E-14
 -1       885 1.78153E+01 3.56185E-01 1.44044E-03-2.30865E+00 9.23069E-14 8.92454E-14
 -1       886 1.81854E+01 7.32266E-01 1.67791E-04-1.81803E+00-1.95579E-13 2.94772E-13
 -1       887 1.85546E+01 8.89053E-01 1.16420E-05-1.46745E+00-8.02404E-14 1.05468E-13
 -1       888 1.88842E+01 9.12335E-01 2.24303E-05-1.20279E+00-7.99453E-14 3.03118E-13
 -1       889 1.91604E+01 8.60307E-01 4.72128E-05-9.91532E-01-1.76725E-13 1.52500E-13
 -1       890 1.93829E+01 7.70749E-01 4.11636E-05-8.15718E-01-4.19668E-14-1.18767E-13
 -1       891 1.95577E+01 6.66874E-01 5.83976E-06-6.66091E-01-8.48313E-14 1.33706E-13
 -1       892 1.96912E+01 5.63629E-01-9.96891E-05-5.37498E-01 5.19361E-14 1.46452E-13
 -1       893 1.97906E+01 4.69585E-01-5.30614E-04-4.28636E-01-9.50523E-14 1.09754E-13
 -1       894 1.99669E+01 2.72798E-01 4.15255E-05 2.87709E-01-1.09201E-13 5.33687E-13
 -1       895 1.99667E+01 2.59772E-01 4.04549E-06-5.33421E-01 3.27258E-14-2.98457E-14
 -1       896 1.98196E+01 3.66525E-01 1.57205E-05-8.67526E-01 1.08078E-14 2.97145E-14
 -1       897 1.97977E+01 3.33909E-01 6.20607E-05-1.01916E+00-6.24534E-15 7.44112E-15
 -1       898 1.98176E+01 2.26292E-01 9.95715E-05-1.18811E+00-1.87924E-15 4.65185E-14
 -1       899 1.99137E+01 1.00052E-02 7.06639E-05-1.36652E+00-1.00336E-13 7.19525E-14
 -1       900 2.01381E+01-3.52202E-01-3.15491E-04-1.53620E+00-5.50461E-14 1.68674E-13
 -1       901 2.05680E+01-8.92327E-01 3.47673E-04-1.66087E+00 4.75342E-14 1.38009E-13
 -1       902 2.12850E+01-1.59099E+00 3.61086E-03-1.65832E+00 9.07785E-14-3.64100E-14
 -1       903 2.23786E+01-2.37811E+00-3.84697E-03-1.39139E+00-1.33330E-13-1.46376E-13
 -1       904 2.42266E+01-2.53043E+00-1.38078E-04-1.35104E-01-2.18939E-13-3.24384E-13
 -1       905 2.07730E+01-1.10081E+00 7.80504E-04 1.67203E+00 7.50254E-14 8.94091E-14
 -1       906 2.02567E+01-4.98277E-01 3.03406E-04 1.57266E+00 7.63033E-14 4.02366E-13
 -1       907 1.99697E+01-7.15299E-02 7.27768E-05 1.40564E+00 1.48618E-13 3.74597E-13
 -1       908 1.98330E+01 1.98587E-01 2.77262E-05 1.21903E+00-1.47936E-14 2.82478E-13
 -1       909 1.97871E+01 3.48184E-01 3.23679E-05 1.03570E+00 1.47984E-13 2.08285E-13
 -1       910 1.97915E+01 4.13167E-01 2.29208E-05 8.65777E-01 6.14251E-14 4.97033E-13
 -1       911 1.98203E+01 4.23205E-01 2.70624E-05 7.13298E-01-1.95802E-14 6.04462E-13
 -1       912 1.98584E+01 4.00561E-01 5.51790E-05 5.79573E-01-7.19529E-15 6.29695E-13
 -1       913 1.98955E+01 3.62022E-01-1.18454E-04 4.63975E-01-6.75556E-14 6.13282E-13
 -1       914 1.96703E+01 5.19906E-01-5.64788E-05-1.76175E-01-3.85746E-14-9.14890E-14
 -1       915 1.96338E+01 5.37913E-01-1.13239E-04-4.22216E-02 9.81909E-14 1.36307E-13
 -1       916 1.34162E+01 3.40891E-02 4.96279E-02-2.99325E+00 6.66836E-14 5.42986E-14
 -1       917 2.01728E+01 1.61894E-01-4.87428E-07-2.79223E-01 4.31204E-14-1.97706E-16
 -1       918 2.00197E+01 2.09835E-01 5.61105E-07-4.58128E-01 2.70261E-14-7.41136E-15
 -1       919 2.17770E+01-3.27171E+00 1.31174E-02 2.97585E+00 6.46786E-15-2.82885E-13
 -1       920 2.01421E+01 1.93144E+00-5.43796E-04-1.83380E-01-3.20658E-14-1.47050E-13
 -1       921 1.34007E+01 4.93271E-01 3.02136E-02-2.32769E+00 1.28400E-14 1.31915E-13
 -1       922 2.03365E+01 7.82288E-01 8.34716E-05-1.52897E-01-4.16610E-14-2.91857E-14
 -1       923 2.02219E+01 2.11779E-01-5.38080E-06-2.09288E-01 1.11263E-14 5.63349E-14
 -1       924 1.48863E+01-9.63823E-02 3.30860E-02 3.11539E+00 1.66646E-14-1.52144E-13
 -1       925 1.74183E+01-1.64130E+00 3.19110E-02 4.07736E+00-2.41513E-13-1.61170E-13
 -1       926 2.16231E+01-1.86513E+00 1.39098E-03 1.59057E+00-1.90185E-13-4.59344E-13
 -1       927 1.99132E+01 3.11214E-01 6.49214E-06-6.25060E-01-4.37294E-14 4.11072E-14
 -1       928 1.20482E+01 9.42623E-01 4.81429E-02-3.24053E-01-2.02347E-13 1.33858E-13
 -1       929 1.87323E+01-1.71256E+00 2.55196E-02-3.68711E+00 1.83895E-13 1.94150E-14
 -1       930 1.81385E+01-2.47415E+00 5.36977E-02 4.33492E+00 6.07784E-14-1.67194E-13
 -1       931 2.09176E+01-2.83180E+00 7.08316E-03-3.11948E+00-5.00351E-14 5.91194E-14
 -1       932 2.36559E+01-3.04968E+00 4.56567E-03-1.03305E+00-2.27625E-13-8.05775E-14
 -1       933 2.03275E+01 5.07844E-01 4.42782E-05 4.91154E-03-6.70785E-14-5.58678E-14
 -1       934 1.98620E+01 3.52128E-01 3.78155E-06-7.36026E-01-1.56839E-14 4.82358E-14
 -1       935 2.03045E+01 8.57206E-01-5.81954E-04 3.18571E-01 5.48990E-14 1.60936E-14
 -1       936 2.28414E+01-2.59311E+00-3.12946E-03 1.17843E+00-8.41945E-14-4.86314E-13
 -1       937 1.89585E+01-1.61214E+00 9.38195E-03-3.26536E+00 4.85473E-14 1.27130E-13
 -1       938 2.03026E+01 4.93997E-01-1.88035E-04 1.43911E-02 4.86959E-14 4.46058E-14
 -1       939 1.96458E+01 5.23686E-01-1.47499E-04 9.42901E-02 1.59640E-13 6.03201E-14
 -1       940 2.01226E+01 1.51925E-01 6.47230E-07-3.37831E-01 7.20292E-14-1.05716E-14
 -1       941 2.00716E+01 1.70964E-01-4.80641E-07-3.94889E-01 3.35324E-14-2.88862E-14
 -1       942 1.97967E+01 4.13321E-01-8.49824E-05 3.09770E-01 1.14974E-13 2.09986E-13
 -1       943 1.99308E+01 3.19032E-01 9.36032E-05 3.66246E-01-1.69157E-14 9.86732E-13
 -1       944 2.32517E+01-3.38692E+00 3.70719E-03 1.79687E+00 4.30840E-14-2.68719E-13
 -1       945 2.02732E+01 1.46256E+00 2.03940E-04 6.58318E-02-5.37529E-15-7.09358E-14
 -1       946 2.03107E+01 1.14225E+00 2.16714E-04-3.11241E-01-4.13656E-14-5.88736E-14
 -1       947 2.02865E+01 1.38869E+00 3.90466E-04 1.82561E-01-1.04111E-16-8.55957E-14
 -1       948 2.02952E+01 1.31636E+00 1.33475E-04-2.27964E-01-3.42204E-14-1.12177E-13
 -1       949 1.29461E+01 8.52025E-01 2.54817E-02 1.26567E+00-1.63512E-13 4.79573E-14
 -1       950 1.72408E+01-1.05964E+00 1.90666E-02 3.60457E+00 1.00578E-13-1.87360E-13
 -1       951 2.03471E+01 4.96855E-01 1.15978E-05-3.03097E-02 1.32843E-14-1.32758E-14
 -1       952 1.51444E+01 7.77282E-01 8.55398E-03 1.85790E+00 3.94163E-14-1.70420E-13
 -1       953 2.02534E+01 2.57909E-01-4.19392E-06 1.81251E-01-6.92653E-15-1.26888E-14
 -1       954 2.01719E+01 2.33131E-01-1.08412E-07 2.30234E-01-2.21782E-14 1.10993E-14
 -1       955 2.00743E+01 2.54784E-01-3.09715E-06 2.74541E-01-4.88811E-14-3.85497E-15
 -1       956 1.99593E+01 3.13423E-01-8.08318E-06 3.19839E-01-3.03254E-14 2.31900E-14
 -1       957 1.98230E+01 4.01355E-01-1.80540E-05 3.70350E-01-9.37863E-14-2.98426E-15
 -1       958 1.96591E+01 5.12181E-01-2.22476E-05 4.29002E-01-3.76158E-14-2.85674E-14
 -1       959 1.94589E+01 6.39022E-01-2.57390E-05 4.97945E-01 3.26604E-14-5.34230E-14
 -1       960 1.92115E+01 7.73433E-01-4.97756E-05 5.78666E-01-8.21802E-16-1.04188E-13
 -1       961 1.89031E+01 9.05046E-01-7.85184E-05 6.73762E-01-5.99712E-14-7.38915E-14
 -1       962 1.85163E+01 1.01841E+00-1.56213E-04 7.88802E-01-4.21036E-14-1.43931E-13
 -1       963 1.80280E+01 1.09295E+00-3.48077E-04 9.36250E-01 5.35644E-14-3.70550E-13
 -1       964 1.74061E+01 1.09786E+00-5.39500E-04 1.14409E+00 6.62284E-14-3.64075E-13
 -1       965 1.66129E+01 9.92379E-01 1.09102E-03 1.46050E+00 6.77326E-14-2.79030E-13
 -1       966 2.03080E+01 6.49570E-01-6.55269E-04 1.47016E-01 3.85752E-14 2.12777E-14
 -1       967 1.96070E+01 5.79638E-01-9.84807E-05-3.36759E-01 5.12651E-14 1.92141E-14
 -1       968 1.67677E+01 9.89647E-01 1.12729E-03-1.51395E+00-4.76569E-15-1.95782E-13
 -1       969 1.75171E+01 1.10784E+00 7.03124E-05-1.18052E+00-1.61098E-13 3.65265E-14
 -1       970 1.81012E+01 1.11261E+00-9.75548E-05-9.57358E-01-3.71346E-14 1.12548E-13
 -1       971 1.85593E+01 1.04906E+00-1.07031E-05-7.94063E-01-2.47758E-13-8.83402E-14
 -1       972 1.89190E+01 9.47620E-01-2.92893E-05-6.63571E-01-9.58940E-14-1.78554E-13
 -1       973 1.92000E+01 8.29584E-01-1.83817E-04-5.53087E-01-3.62866E-14 2.57676E-14
 -1       974 1.94185E+01 7.10487E-01-8.18387E-05-4.58808E-01-7.58955E-15-6.29599E-14
 -1       975 1.92903E+01 3.24002E-01 2.44441E-04-1.30287E+00-2.60437E-14 8.47717E-14
 -1       976 1.97043E+01 4.79990E-01-2.77372E-05 2.16463E-01 2.25749E-13-1.19136E-13
 -1       977 1.93620E+01 4.56722E-01 1.18845E-04-1.07064E+00-2.48168E-14 1.09183E-13
 -1       978 1.94690E+01 4.98442E-01 1.09560E-05-8.81094E-01 1.24339E-14 3.89022E-14
 -1       979 1.92944E+01 5.73860E-02-1.50199E-04-1.58482E+00-9.49192E-14 8.34882E-14
 -1       980 1.94520E+01-3.93722E-01-1.34707E-03-1.90859E+00-2.91715E-15 2.81677E-14
 -1       981 1.98332E+01-1.09626E+00-5.72700E-03-2.26399E+00 1.21390E-13 2.99775E-14
 -1       982 1.98216E+01 3.64186E-01 1.08484E-05-5.06328E-01-5.39279E-14 4.99417E-14
 -1       983 1.57005E+01-3.02972E-01 1.72841E-02-3.23927E+00 1.66675E-13 6.92805E-14
 -1       984 2.03076E+01 1.24112E+00-7.90692E-04 2.81053E-01 9.64764E-15-4.57885E-14
 -1       985 1.93137E+01-4.63525E-02-5.02172E-04 1.67878E+00 6.36917E-14-2.97145E-13
 -1       986 1.95664E+01-5.88186E-01-1.25958E-03 2.02218E+00 1.93698E-14-2.92540E-13
 -1       987 1.93103E+01 4.68017E-01-6.28141E-06 1.11603E+00-4.40678E-14-7.04256E-15
 -1       988 1.93994E+01 5.47460E-01-4.17856E-05 9.03760E-01 6.54280E-14-7.62321E-14
 -1       989 1.95047E+01 5.59412E-01-4.93460E-05 7.28367E-01-1.72166E-13 8.07562E-14
 -1       990 1.96101E+01 5.30144E-01-1.10661E-05 5.83742E-01-2.78569E-13 3.90521E-13
 -1       991 1.97059E+01 4.80647E-01 1.38983E-04 4.64463E-01 1.00595E-13 5.25592E-13
 -1       992 1.44288E+01 8.78150E-01 1.70244E-02-1.60057E+00 9.10079E-16-1.67574E-13
 -1       993 2.17391E+01-2.49555E+00 1.18848E-02 2.14829E+00 2.75569E-14-4.01540E-13
 -1       994 1.95142E+01 6.21625E-01 1.02158E-04-1.28854E-01-1.08297E-13 3.26418E-14
 -1       995 1.87343E+01-1.40994E+00 1.55962E-02 3.22586E+00-2.35966E-13 2.56538E-15
 -1       996 1.45345E+01 1.10576E+00 7.67111E-03-7.31901E-01-2.85958E-14-8.44906E-14
 -1       997 2.03086E+01 3.32401E-01 1.22280E-05-1.25629E-01 1.91469E-14-2.71732E-14
 -1       998 2.03015E+01-1.45077E+00-1.02606E-02 2.25853E+00-3.60169E-13-1.40520E-13
 -1       999 1.99255E+01 2.97679E-01-6.36851E-06-4.27473E-01 3.47086E-14 9.10619E-14
 -1      1000 2.02804E+01 1.42102E+00-7.36588E-06-1.19855E-01-2.78126E-14-1.34054E-13
 -1      1001 1.59731E+01-2.69338E-02 5.48320E-03-2.78385E+00 1.00893E-13 1.55558E-13
 -1      1002 2.02527E+01 2.39160E-01 5.14040E-06-1.97490E-01 4.80533E-14-8.91850E-15
 -1      1003 1.55235E+01-2.41736E-02 1.40465E-02 2.88256E+00-3.81144E-13-2.65712E-13
 -1      1004 1.92661E+01 2.85086E-01-8.10945E-05 1.37230E+00 1.22312E-13-1.67853E-13
 -1      1005 1.61528E+01 5.75455E-01 7.84977E-03-2.19437E+00-7.25717E-14-2.19444E-13
 -1      1006 2.02737E+01 1.46147E+00 1.56340E-04-2.91406E-02-4.14082E-15-1.15090E-13
 -1      1007 2.03528E+01 9.38964E-01-1.30307E-05-1.25638E-01-4.00294E-14-1.23137E-13
 -1      1008 2.03170E+01 3.41469E-01-3.96199E-05 1.20583E-01-5.18751E-14-4.66787E-14
 -1      1009 2.03576E+01 5.01218E-01 3.22548E-05 4.01635E-02-6.57318E-14-8.11398E-14
 -1      1010 2.03680E+01 6.88340E-01-7.36735E-05-3.55869E-02-5.83085E-14-1.07848E-13
 -1      1011 2.04651E+01-1.76518E+00 5.75604E-03-2.47525E+00 2.98754E-14 2.83487E-14
 -1      1012 1.54794E+01 1.21187E+00 2.87628E-03 4.99398E-01 1.33717E-13-2.46236E-13
 -1      1013 1.97085E+01 4.30389E-01-4.24339E-06-6.04719E-01-9.99578E-15 4.72521E-14
 -1      1014 2.03497E+01 7.77805E-01 1.91217E-03 1.20701E-01 2.28689E-14-1.73850E-14
 -1      1015 1.95021E+01 6.18141E-01 2.25674E-04 4.24209E-02-1.41849E-15-4.12830E-14
 -1      1016 2.03563E+01 1.07183E+00 2.53593E-04 1.04786E-02-1.54645E-14-6.67363E-14
 -1      1017 2.00205E+01 2.41655E-01-1.12223E-05-3.63116E-01 3.94417E-14 7.75775E-14
 -1      1018 1.95456E+01 5.75761E-01-3.84791E-05 3.49667E-01-9.88473E-14-1.73982E-13
 -1      1019 2.01845E+01 2.01705E-01 5.59596E-06-2.55250E-01 7.11238E-14-6.92082E-15
 -1      1020 1.42432E+01 1.17708E+00 1.47819E-02-3.65271E-01-3.91397E-14 5.07908E-14
 -1      1021 2.03556E+01 1.02861E+00-1.17396E-03 7.16413E-02 7.22099E-15-7.78504E-14
 -1      1022 1.95890E+01 4.81194E-01-4.48014E-05-7.28387E-01-1.76156E-14-1.48132E-14
 -1      1023 1.65221E+01 1.27195E+00 1.62548E-03-5.72885E-01-8.99909E-14-1.62861E-13
 -1      1024 2.01293E+01 2.70156E-01 5.08984E-06 1.60437E-01 9.63179E-15-6.27847E-14
 -1      1025 2.00045E+01 3.11274E-01-5.83781E-07 1.87268E-01-2.02053E-14 3.26608E-14
 -1      1026 1.98558E+01 3.88335E-01-2.21385E-05 2.14247E-01-1.67933E-14 4.68458E-14
 -1      1027 1.96789E+01 4.92436E-01-6.88488E-05 2.42383E-01-7.05501E-14 5.85956E-14
 -1      1028 1.94657E+01 6.17423E-01-5.17362E-05 2.72424E-01-1.16194E-13-9.29395E-15
 -1      1029 1.92055E+01 7.54949E-01-6.62670E-05 3.03299E-01 2.28636E-14-1.19890E-13
 -1      1030 1.88848E+01 8.95318E-01-1.50048E-04 3.33140E-01-2.13704E-14-1.68481E-13
 -1      1031 1.84832E+01 1.02940E+00-3.20307E-04 3.62914E-01-4.99224E-14-1.01201E-13
 -1      1032 1.79762E+01 1.14080E+00-3.96143E-04 3.92560E-01-3.27183E-14-5.49572E-14
 -1      1033 1.73162E+01 1.21986E+00-4.65899E-05 4.24563E-01 1.90031E-14-1.17533E-13
 -1      1034 1.65217E+01 1.24490E+00 1.50561E-03 4.53099E-01 5.54234E-14-2.73396E-13
 -1      1035 1.93263E+01 6.69752E-01-1.00237E-04 5.32387E-01-2.52676E-13-2.57895E-13
 -1      1036 1.74807E+01-1.44019E-01 7.08800E-03 2.51824E+00-1.58683E-13-7.10768E-14
 -1      1037 1.92709E+01 7.65651E-01 1.08143E-04-1.80726E-01 1.58804E-13 5.25500E-14
 -1      1038 1.73731E+01 1.24885E+00-4.23720E-04-4.85822E-01-5.68444E-14-9.90840E-14
 -1      1039 1.80049E+01 1.18154E+00-2.27043E-05-4.29001E-01-2.82756E-13-1.88887E-13
 -1      1040 1.84883E+01 1.07819E+00-8.20871E-05-3.83055E-01-1.52850E-13-2.16843E-14
 -1      1041 1.88599E+01 9.58281E-01-6.48692E-04-3.39448E-01-1.90295E-13-2.66292E-13
 -1      1042 1.90804E+01 8.62527E-01-2.64198E-04-2.50304E-01 7.25465E-14-2.31291E-13
 -1      1043 1.84524E+01 2.04243E-01 1.32102E-04-1.77059E+00-9.25182E-15 1.15668E-13
 -1      1044 1.88271E+01 6.20841E-01 4.85441E-05-1.05414E+00-1.75119E-15 1.92311E-13
 -1      1045 1.90529E+01 6.54646E-01 1.76545E-04-8.28892E-01-5.61275E-14 1.46522E-13
 -1      1046 1.94932E+01 6.13751E-01-1.89766E-05 1.99451E-01-7.76815E-14 2.48658E-14
 -1      1047 1.81022E+01-4.48244E-01 4.54850E-03-2.58124E+00 9.37903E-14 1.98340E-13
 -1      1048 2.03541E+01 1.04197E+00 7.10501E-04-7.57965E-02-2.07172E-14-1.25188E-13
 -1      1049 1.86126E+01 4.87564E-01 5.13532E-04-1.35920E+00-1.46559E-14 2.10472E-13
 -1      1050 1.84029E+01 8.18807E-02 1.48695E-04 1.91903E+00-1.31899E-14-5.30329E-14
 -1      1051 2.03561E+01 1.06834E+00 4.35170E-04-3.46816E-02-1.15665E-14-1.01022E-13
 -1      1052 1.91421E+01 7.10857E-01-2.56071E-04 6.81255E-01-1.37445E-14 2.26954E-13
 -1      1053 1.89383E+01 7.07689E-01-2.48737E-04 8.75351E-01 5.32630E-14 1.84837E-13
 -1      1054 1.94396E+01 6.27711E-01-1.96988E-05 4.33638E-01-2.08672E-13-4.35039E-13
 -1      1055 2.03800E+01 7.42624E-01 4.76904E-04 4.41261E-02 1.19644E-14-1.78089E-14
 -1      1056 2.01067E+01 2.06290E-01-4.55974E-07-3.07896E-01 3.58381E-14 3.87075E-14
 -1      1057 2.03651E+01 4.75690E-01-1.01734E-04-5.09273E-02 5.02975E-16-3.91669E-14
 -1      1058 1.97920E+01 3.93941E-01-8.14824E-05-3.56056E-01 4.06559E-14 1.14311E-13
 -1      1059 2.03177E+01 3.32583E-01-1.65299E-05-1.13544E-01-1.49578E-14 3.74666E-14
 -1      1060 1.51130E+01 9.01632E-01 5.94466E-03 1.44148E+00-3.70414E-13-1.97169E-13
 -1      1061 2.02323E+01 2.74329E-01 4.34796E-08 1.31019E-01-6.34713E-14-8.02225E-14
 -1      1062 1.87266E+01 6.32240E-01-2.30567E-05 1.12930E+00-6.13901E-14 6.65343E-14
 -1      1063 1.61268E+01 7.35812E-01-1.25168E-03-1.61110E+00 1.79045E-14 7.97871E-14
 -1      1064 2.03662E+01 4.70304E-01 1.57062E-04 5.01192E-02-1.55116E-14-1.09502E-13
 -1      1065 1.85247E+01 4.44742E-01-1.41392E-03 1.46486E+00-1.95885E-14 1.36810E-13
 -1      1066 2.03132E+01 3.34916E-01-6.58674E-05 9.53685E-02-1.28144E-14-6.09969E-14
 -1      1067 1.53563E+01 1.20916E+00 7.14541E-03-7.11015E-01-3.36403E-14-1.07750E-13
 -1      1068 1.92457E+01 7.59648E-01-1.78358E-04 4.91752E-02-1.65637E-14 8.60798E-14
 -1      1069 1.92611E+01 6.29197E-01-8.92157E-05-6.59876E-01-2.14687E-14 1.39866E-13
 -1      1070 2.03839E+01 7.72529E-01-4.87359E-04-2.46356E-02-5.59436E-14-1.11451E-13
 -1      1071 1.99300E+01 3.18883E-01-5.20015E-05-2.95980E-01-1.19522E-14 1.19047E-13
 -1      1072 1.96359E+01 4.78268E-01-4.77859E-05-4.33483E-01-3.51373E-14 5.23033E-14
 -1      1073 2.02464E+01 2.58831E-01-1.02513E-05-1.62574E-01 4.59620E-14 4.72075E-14
 -1      1074 2.03889E+01 7.72477E-01-4.16925E-04-3.34504E-03-1.91215E-14-8.01223E-14
 -1      1075 2.03907E+01 7.54850E-01 1.18718E-04 1.38118E-02 4.45602E-15-5.76651E-14
 -1      1076 1.60114E+01 1.16432E+00 1.59014E-03-5.00195E-01 6.74364E-14 1.77952E-14
 -1      1077 2.03818E+01 6.02869E-01-3.29355E-04 1.13484E-02-2.83496E-14-1.24203E-13
 -1      1078 1.94588E+01 5.62299E-01 2.18581E-04-5.31629E-01-1.71032E-14 9.84416E-14
 -1      1079 2.02861E+01 3.19839E-01 1.30450E-04 4.27630E-02-1.63490E-14-1.36020E-13
 -1      1080 2.00677E+01 3.00286E-01-1.85911E-06 6.15866E-02 4.68767E-14-9.40903E-14
 -1      1081 1.99223E+01 3.58831E-01-4.71616E-06 6.69408E-02-1.35851E-14-4.77761E-14
 -1      1082 1.97485E+01 4.51131E-01 3.02308E-04 6.98767E-02-5.01015E-14-3.39818E-14
 -1      1083 1.95410E+01 5.65390E-01-8.25425E-06 6.67344E-02-1.10276E-13 4.79372E-15
 -1      1084 1.92975E+01 6.90910E-01-2.11069E-04 5.64093E-02-7.66171E-14 8.22160E-14
 -1      1085 1.89964E+01 8.29758E-01 8.48044E-04 3.79433E-02-3.88101E-14 4.43956E-14
 -1      1086 1.86239E+01 9.60653E-01 3.11677E-04-1.92135E-03-1.22248E-14 2.61730E-14
 -1      1087 1.81644E+01 1.07426E+00 8.81754E-05-7.10724E-02-3.26665E-15-7.11899E-15
 -1      1088 1.75885E+01 1.15687E+00 6.34211E-04-1.69486E-01-2.34790E-14 6.03283E-14
 -1      1089 1.68305E+01 1.26055E+00 1.53492E-03 2.33247E-01-9.34800E-14-4.82943E-13
 -1      1090 1.76158E+01 1.19865E+00 4.20212E-04 1.02865E-01-1.75783E-13-3.90100E-13
 -1      1091 1.81522E+01 1.13370E+00 1.87718E-04 2.79208E-02 3.17567E-14-6.67915E-14
 -1      1092 1.85912E+01 1.02711E+00-4.33817E-04-2.08976E-02-1.85420E-13 3.35175E-13
 -1      1093 1.81942E+01 8.29215E-01-1.49871E-03-9.23476E-01-2.82188E-14 9.86314E-14
 -1      1094 1.87418E+01 8.77315E-01-3.66819E-05 5.59729E-01 1.13393E-14-1.26415E-13
 -1      1095 2.01891E+01 2.82740E-01 7.14967E-06 5.34743E-02-2.95894E-14-1.01669E-13
 -1      1096 1.56555E+01 1.12881E+00-4.96892E-03 7.75446E-01-1.50012E-13-3.86726E-13
 -1      1097 1.90132E+01 8.16826E-01-1.26306E-03 4.18822E-01-4.89849E-14-6.80335E-14
 -1      1098 1.85720E+01 8.37709E-01-2.90261E-04-6.87073E-01-9.07280E-14 1.52624E-13
 -1      1099 1.75838E+01 7.09310E-01 4.72204E-03 1.40335E+00-1.82596E-13 3.41594E-13
 -1      1100 2.03633E+01 4.38365E-01 5.13463E-04-4.32487E-02-4.99602E-14-5.09399E-14
 -1      1101 1.69060E+01 6.36785E-01 4.20948E-04 1.67693E+00-4.28089E-13 9.71970E-14
 -1      1102 1.84225E+01 8.95378E-01 1.76182E-03 7.50412E-01 1.04501E-13 5.89416E-15
 -1      1103 1.80436E+01 8.41337E-01-1.48194E-04 1.02014E+00 1.86633E-13 4.01925E-13
 -1      1104 2.03560E+01 4.20915E-01-2.62935E-04 2.69383E-02-3.45877E-16-5.98208E-14
 -1      1105 1.73307E+01 8.44889E-01-3.23589E-03-1.18912E+00 3.61854E-14 4.37168E-14
 -1      1106 1.69578E+01 1.17189E+00 5.40103E-03-3.17552E-01-2.07511E-14 7.44363E-14
 -1      1107 1.90301E+01 8.60805E-01-3.87948E-04 2.43192E-02 8.29625E-14 5.57109E-13
 -1      1108 2.03013E+01 3.22697E-01 1.95156E-05-7.45423E-02-2.79866E-14-1.58791E-14
 -1      1109 1.88431E+01 9.44381E-01 3.50712E-03 4.07387E-03-2.77332E-13 5.70320E-13
 -1      1110 1.88976E+01 7.88569E-01-2.74347E-04-5.16275E-01-5.26057E-14 6.68057E-14
 -1      1111 1.93671E+01 6.80101E-01 6.53491E-04 2.58701E-01-1.74467E-13-6.10073E-14
 -1      1112 2.03836E+01 5.26449E-01 7.18187E-04 1.49423E-02-2.34231E-14-4.51667E-14
 -1      1113 1.98175E+01 3.98751E-01 5.09100E-04-1.91054E-01 3.19108E-14-7.30319E-15
 -1      1114 2.00512E+01 2.64239E-01 2.85512E-06-2.47746E-01 1.67416E-14 7.17719E-14
 -1      1115 2.01568E+01 2.40572E-01 1.92061E-05-2.05206E-01 2.22679E-14 5.49683E-14
 -1      1116 1.91959E+01 7.56515E-01 3.93821E-04 3.21618E-01-1.98692E-13 3.59022E-14
 -1      1117 1.96341E+01 4.95548E-01 5.04576E-05-2.37583E-01 1.05033E-14 7.70444E-14
 -1      1118 1.98442E+01 3.91262E-01-5.32565E-04-8.08151E-02-4.20908E-15 8.71226E-15
 -1      1119 1.91782E+01 7.24746E-01-9.13674E-04-2.06148E-01-1.02301E-13 6.99327E-14
 -1      1120 1.80351E+01 1.04470E+00-4.46721E-03 5.07700E-01 3.26493E-13 7.50986E-14
 -1      1121 2.02422E+01 2.92784E-01-2.80272E-04-3.61219E-02-4.45135E-14-4.91004E-14
 -1      1122 1.99696E+01 3.22918E-01 3.67724E-05-1.56288E-01-1.69377E-14 5.80326E-14
 -1      1123 2.01339E+01 2.83457E-01-2.20597E-05-4.75164E-02 5.31128E-14-1.57918E-14
 -1      1124 1.72903E+01 1.07257E+00-4.91686E-03 6.98706E-01-8.45482E-14-5.33152E-13
 -1      1125 2.03866E+01 5.50443E-01-4.71157E-04-8.50748E-03-1.57959E-15-2.44888E-14
 -1      1126 1.94297E+01 6.05736E-01 4.83603E-04-2.26092E-01-1.61612E-14 8.63997E-14
 -1      1127 2.00020E+01 3.20157E-01 2.12326E-05-6.15713E-02 1.80725E-14-1.08068E-14
 -1      1128 2.02009E+01 2.67756E-01 4.42057E-05-1.17230E-01 4.04734E-14 7.80215E-14
 -1      1129 2.00952E+01 2.77530E-01 8.29977E-06-1.36613E-01 3.90488E-15 5.50950E-14
 -1      1130 2.79259E+01 9.07439E+00 2.32186E+00-6.69217E+00-1.22680E-14 6.61582E-13
 -1      1131 2.05284E+01 6.22136E+00 2.09381E-01-3.90265E+00-7.68829E-15 2.18943E-13
 -1      1132 1.94266E+01 5.85061E+00 7.54372E-02-2.88734E+00-5.71765E-15 1.82840E-15
 -1      1133 1.90272E+01 5.72636E+00 6.06657E-02-2.23433E+00-5.19723E-15-1.14289E-13
 -1      1134 1.88476E+01 5.67164E+00 5.78124E-02-1.70031E+00-2.80331E-15-1.80444E-13
 -1      1135 1.87589E+01 5.64438E+00 5.57275E-02-1.23269E+00-1.49967E-15-2.21536E-13
 -1      1136 1.87130E+01 5.63006E+00 5.38920E-02-8.03063E-01-1.67184E-15-2.37487E-13
 -1      1137 1.86907E+01 5.62301E+00 5.26162E-02-3.92073E-01-9.48460E-16-2.43449E-13
 -1      1138 1.86844E+01 5.62099E+00 5.22029E-02 8.54849E-03-1.46584E-16-2.45711E-13
 -1      1139 1.86917E+01 5.62333E+00 5.27305E-02 4.09562E-01 1.83902E-15-2.41923E-13
 -1      1140 1.87149E+01 5.63073E+00 5.41673E-02 8.21871E-01 1.61243E-15-2.22219E-13
 -1      1141 1.87624E+01 5.64565E+00 5.64413E-02 1.25409E+00 1.89085E-15-1.96176E-13
 -1      1142 1.88527E+01 5.67344E+00 5.87034E-02 1.72606E+00 3.50414E-15-1.55207E-13
 -1      1143 1.90324E+01 5.72792E+00 6.06570E-02 2.26749E+00 5.01682E-15-9.43152E-14
 -1      1144 1.94232E+01 5.84777E+00 6.93561E-02 2.92784E+00 7.16094E-15 1.23287E-14
 -1      1145 2.04346E+01 6.17630E+00 1.53004E-01 3.87709E+00 7.74381E-15 2.27002E-13
 -1      1146 2.51827E+01 7.98316E+00 1.42778E+00 5.84165E+00 1.42664E-14 6.50063E-13
 -1      1147 2.87681E+01 3.61140E+00 1.26900E+00-4.21278E+00-4.91274E-14 9.47742E-13
 -1      1148 2.01898E+01-1.77647E-01-6.15968E-01-1.10071E-01-1.76872E-14 8.33694E-13
 -1      1149 1.87962E+01-9.64248E-02-2.36287E-01 6.22917E-02 5.58581E-16 6.45648E-13
 -1      1150 1.84629E+01-4.82713E-02-5.97362E-02 4.02335E-02-4.60266E-15 5.08378E-13
 -1      1151 1.84096E+01-2.50008E-02-1.55403E-02 2.64705E-02-3.59088E-16 4.04739E-13
 -1      1152 1.84959E+01-1.36486E-02-5.54936E-03 1.87024E-02-7.63148E-15 4.07049E-13
 -1      1153 1.86515E+01-7.49634E-03-2.36887E-03 1.37249E-02 1.46259E-16 3.77953E-13
 -1      1154 1.88394E+01-4.11030E-03-7.72031E-04 1.02896E-02-5.10757E-15 3.35223E-13
 -1      1155 1.90403E+01-2.37808E-03-3.91530E-05 7.79410E-03 9.50845E-15 2.86619E-13
 -1      1156 1.92455E+01-1.72841E-03-6.30201E-05 5.95511E-03-6.65207E-15 1.78270E-13
 -1      1157 1.94537E+01-1.84939E-03-7.54281E-04 4.64524E-03 7.55041E-15 1.37549E-13
 -1      1158 1.96692E+01-2.56161E-03-2.03142E-03 3.81908E-03 7.03704E-15 1.68972E-13
 -1      1159 1.99005E+01-3.75587E-03-3.84207E-03 3.48481E-03-3.99377E-15 1.80012E-14
 -1      1160 2.01602E+01-5.35474E-03-6.15777E-03 3.69679E-03 1.40972E-14 2.33225E-14
 -1      1161 2.04643E+01-7.27820E-03-8.94728E-03 4.55747E-03-1.27243E-14 8.82202E-14
 -1      1162 2.08322E+01-9.39901E-03-1.21238E-02 6.22082E-03-2.45377E-14 2.10864E-14
 -1      1163 2.12855E+01-1.14741E-02-1.54453E-02 8.88667E-03-4.23099E-15-1.23502E-13
 -1      1164 2.18467E+01-1.30364E-02-1.83308E-02 1.27642E-02 3.21104E-14-4.58435E-14
 -1      1165 2.25348E+01-1.32358E-02-1.95503E-02 1.79589E-02 3.58762E-15-1.03296E-13
 -1      1166 2.33567E+01-1.06458E-02-1.67788E-02 2.41990E-02 3.10159E-14-2.10190E-13
 -1      1167 2.42918E+01-3.14232E-03-6.17605E-03 3.02754E-02 5.47593E-15-2.73420E-13
 -1      1168 2.52669E+01 1.18487E-02 1.73472E-02 3.31085E-02-2.36660E-14-2.90462E-14
 -1      1169 2.61226E+01 3.60474E-02 5.76451E-02 2.67060E-02-2.55395E-14-8.90815E-14
 -1      1170 2.65870E+01 6.69511E-02 1.10748E-01 2.40928E-03-1.78677E-15-9.79460E-14
 -1      1171 2.62981E+01 9.30125E-02 1.54957E-01-4.69430E-02 4.83068E-14 5.85920E-14
 -1      1172 2.49469E+01 8.99234E-02 1.46356E-01-1.15222E-01 7.87911E-15 4.66890E-13
 -1      1173 2.25787E+01 3.22950E-02 4.43082E-02-1.69911E-01 3.74436E-14 6.36019E-13
 -1      1174 1.98830E+01-7.19902E-02-1.31533E-01-1.60643E-01-1.75910E-14 2.35062E-13
 -1      1175 1.80714E+01-1.59674E-01-2.74294E-01-6.44201E-02 3.91302E-14 8.91995E-14
 -1      1176 1.81323E+01-1.56666E-01-2.69396E-01 7.20123E-02 2.53599E-14 1.51323E-13
 -1      1177 2.00309E+01-6.53366E-02-1.20617E-01 1.63734E-01-4.16603E-14-1.37557E-13
 -1      1178 2.27385E+01 3.74596E-02 5.31835E-02 1.67939E-01-2.23042E-14-5.14089E-13
 -1      1179 2.50573E+01 9.12829E-02 1.48918E-01 1.10886E-01 1.49013E-15-5.74485E-13
 -1      1180 2.63406E+01 9.17919E-02 1.52906E-01 4.32149E-02 4.33447E-14-7.60288E-13
 -1      1181 2.65754E+01 6.49459E-02 1.07229E-01-4.58849E-03 2.30874E-14-8.18443E-13
 -1      1182 2.60803E+01 3.41192E-02 5.44483E-02-2.75792E-02 3.35955E-14-5.65128E-13
 -1      1183 2.52150E+01 1.03969E-02 1.51137E-02-3.31740E-02 8.19256E-14-4.71893E-13
 -1      1184 2.42454E+01-4.18153E-03-7.58597E-03-2.99842E-02-3.22800E-14-4.30395E-13
 -1      1185 2.33256E+01-1.14470E-02-1.77327E-02-2.37913E-02 3.82420E-15-5.86683E-13
 -1      1186 2.25259E+01-1.39703E-02-2.03678E-02-1.75200E-02-6.23655E-15-4.64902E-13
 -1      1187 2.18659E+01-1.38405E-02-1.92379E-02-1.22913E-02-3.02117E-14-4.29653E-13
 -1      1188 2.13394E+01-1.24488E-02-1.65996E-02-8.32798E-03 5.07799E-14 1.54796E-13
 -1      1189 2.09293E+01-1.06209E-02-1.36490E-02-5.49097E-03-3.77478E-14-1.12095E-13
 -1      1190 2.06155E+01-8.80950E-03-1.09668E-02-3.53551E-03-1.54690E-14 7.05174E-14
 -1      1191 2.03797E+01-7.24781E-03-8.82783E-03-2.20631E-03-3.12801E-14 6.07907E-13
 -1      1192 2.02069E+01-6.04282E-03-7.37234E-03-1.24784E-03 3.88934E-14 6.73459E-13
 -1      1193 2.00865E+01-5.20912E-03-6.61521E-03-3.71154E-04 5.93518E-14 2.29582E-13
 -1      1194 2.00126E+01-4.55915E-03-6.12123E-03 8.24903E-04 1.64082E-14-8.07518E-14
 -1      1195 1.99849E+01-4.26694E-03-3.68262E-03 3.07237E-03 6.05644E-14 2.34960E-13
 -1      1196 1.99933E+01 2.40236E-03 5.48671E-03 2.26899E-03 5.40339E-14 2.53964E-13
 -1      1197 2.77496E+01 5.25079E-01 3.76209E-01 1.96483E+00-7.30666E-15 9.97147E-13
 -1      1198 2.00478E+01-6.62354E-02-5.73302E-01 1.29539E-01 4.04538E-15 8.07965E-13
 -1      1199 1.88713E+01-4.06881E-02-1.93181E-01 1.95893E-02-1.37911E-16 6.41450E-13
 -1      1200 1.84926E+01-2.16031E-02-5.06821E-02 1.73366E-03 1.55071E-14 4.80310E-13
 -1      1201 1.84236E+01-1.27270E-02-1.37004E-02-3.68055E-03-3.97425E-15 3.88356E-13
 -1      1202 1.85040E+01-7.90412E-03-5.17724E-03-4.99054E-03-1.25952E-14 3.32661E-13
 -1      1203 1.86572E+01-5.06902E-03-2.74826E-03-5.00841E-03 1.43332E-16 3.27148E-13
 -1      1204 1.88443E+01-3.41537E-03-1.56633E-03-4.53220E-03 5.38594E-15 3.03105E-13
 -1      1205 1.90449E+01-2.54850E-03-9.80052E-04-3.81907E-03-1.39639E-14 1.99223E-13
 -1      1206 1.92501E+01-2.24781E-03-9.50627E-04-2.99442E-03-9.21900E-15 1.84052E-13
 -1      1207 1.94577E+01-2.37115E-03-1.43251E-03-2.14611E-03 1.03507E-14 6.03545E-14
 -1      1208 1.96705E+01-2.81190E-03-2.34478E-03-1.35212E-03 7.01132E-15 1.31904E-13
 -1      1209 1.98952E+01-3.47083E-03-3.58888E-03-6.94883E-04-5.90088E-15 1.92108E-13
 -1      1210 2.01405E+01-4.23055E-03-5.03917E-03-2.73787E-04-1.50356E-14 1.10163E-13
 -1      1211 2.04165E+01-4.92711E-03-6.50953E-03-2.16944E-04 2.18682E-14 4.63891E-14
 -1      1212 2.07330E+01-5.31707E-03-7.70232E-03-6.89593E-04-5.66604E-16-2.38394E-14
 -1      1213 2.10972E+01-5.04327E-03-8.14210E-03-1.89243E-03 1.59649E-16 2.15938E-14
 -1      1214 2.15108E+01-3.61240E-03-7.10569E-03-4.03549E-03 3.29669E-14-1.10004E-13
 -1      1215 2.19648E+01-4.17910E-04-3.58709E-03-7.26171E-03 5.64029E-15-2.81402E-13
 -1      1216 2.24333E+01 5.12826E-03 3.60989E-03-1.14832E-02-1.59463E-14-1.82469E-13
 -1      1217 2.28659E+01 1.32630E-02 1.54812E-02-1.60994E-02 8.16263E-15-5.20070E-14
 -1      1218 2.31821E+01 2.32644E-02 3.19249E-02-1.96267E-02-1.52701E-14 3.32121E-13
 -1      1219 2.32720E+01 3.26950E-02 5.03040E-02-1.94570E-02 2.05018E-14 3.83435E-13
 -1      1220 2.30141E+01 3.70601E-02 6.40886E-02-1.22543E-02 3.88882E-15 2.38653E-13
 -1      1221 2.23187E+01 3.09587E-02 6.32748E-02 4.35123E-03 2.37657E-16 3.74548E-13
 -1      1222 2.11965E+01 1.15587E-02 3.88031E-02 2.88085E-02 2.99615E-14 3.90694E-13
 -1      1223 1.98247E+01-1.70425E-02-9.17375E-03 5.32746E-02 1.53343E-14 3.84179E-13
 -1      1224 1.85516E+01-4.30059E-02-6.51271E-02 6.53331E-02-4.97952E-14 7.13693E-13
 -1      1225 1.77881E+01-5.33191E-02-1.02927E-01 5.54423E-02-2.83489E-14 7.89827E-13
 -1      1226 1.78129E+01-4.36426E-02-1.02861E-01 2.51181E-02-2.08219E-14 5.97633E-13
 -1      1227 1.86155E+01-2.12622E-02-6.66870E-02-1.24744E-02-1.76261E-14 3.62266E-13
 -1      1228 1.99033E+01 1.69973E-03-1.52330E-02-4.13904E-02 2.62931E-14 2.35090E-13
 -1      1229 2.12653E+01 1.67167E-02 2.76032E-02-5.29234E-02-1.87712E-14 1.95927E-13
 -1      1230 2.23634E+01 2.21306E-02 4.93003E-02-4.83896E-02-1.39944E-14 4.70395E-13
 -1      1231 2.30327E+01 2.05525E-02 5.09759E-02-3.49154E-02-1.17658E-15 4.56173E-13
 -1      1232 2.32706E+01 1.55744E-02 4.06520E-02-1.96776E-02-4.03642E-14 2.01924E-13
 -1      1233 2.31702E+01 9.92236E-03 2.65141E-02-7.03224E-03 5.98978E-14-2.58490E-13
 -1      1234 2.28530E+01 5.05320E-03 1.37189E-02 1.53930E-03 4.18744E-14-7.55137E-13
 -1      1235 2.24278E+01 1.47149E-03 4.30918E-03 6.33633E-03-6.63681E-14-6.35521E-13
 -1      1236 2.19744E+01-8.54057E-04-1.61098E-03 8.34482E-03 1.40775E-14-7.40658E-13
 -1      1237 2.15430E+01-2.17423E-03-4.76940E-03 8.59411E-03-2.08883E-14-6.56055E-13
 -1      1238 2.11600E+01-2.78613E-03-6.05183E-03 7.89552E-03-1.06144E-13 2.93639E-13
 -1      1239 2.08360E+01-2.95797E-03-6.21818E-03 6.80160E-03 1.69391E-14-8.90668E-14
 -1      1240 2.05716E+01-2.90900E-03-5.84173E-03 5.65038E-03 5.59990E-15-4.03530E-13
 -1      1241 2.03626E+01-2.80935E-03-5.34266E-03 4.62193E-03 2.33147E-15-7.37942E-13
 -1      1242 2.02032E+01-2.77651E-03-5.03397E-03 3.77568E-03 4.05568E-15-1.05484E-12
 -1      1243 2.00885E+01-2.87796E-03-5.10308E-03 3.05071E-03 7.28994E-14-1.26717E-12
 -1      1244 2.00161E+01-2.91474E-03-5.19837E-03 2.09664E-03 4.00400E-14-1.48242E-12
 -1      1245 1.99870E+01-1.61374E-03-3.01170E-03 6.29698E-06 5.25757E-15-8.19077E-13
 -1      1246 1.99945E+01 1.91866E-03 5.16178E-03-1.94988E-03-1.28232E-14-3.55823E-13
 -1      1247 2.00016E+01-5.76974E-03 4.74512E-03-1.98764E-03-3.40049E-13 5.11775E-15
 -1      1248 1.99970E+01-1.18105E-02-3.63839E-03-2.31605E-03-3.16909E-13 1.95670E-14
 -1      1249 1.99967E+01 1.97545E-02-4.98346E-03 5.78436E-04-4.53576E-13-1.26105E-13
 -1      1250 1.99979E+01 8.75286E-02-3.17068E-03 2.19964E-03-9.52521E-13-8.37543E-14
 -1      1251 1.99996E+01 1.75908E-01-6.00588E-04 2.85292E-03-1.20170E-12 1.37665E-13
 -1      1252 2.00013E+01 2.66891E-01 1.80229E-03 2.77082E-03-1.32750E-12 6.00867E-14
 -1      1253 2.00027E+01 3.45535E-01 3.71560E-03 2.20183E-03-1.80663E-13 7.29151E-14
 -1      1254 2.00036E+01 3.99666E-01 5.01374E-03 1.21860E-03-5.37526E-13-1.02214E-14
 -1      1255 2.00040E+01 4.19786E-01 5.53194E-03 2.53762E-05-6.14846E-13-9.48180E-14
 -1      1256 2.00038E+01 4.02405E-01 5.19488E-03-1.19746E-03-1.51012E-13 2.17091E-14
 -1      1257 2.00029E+01 3.49780E-01 3.98825E-03-2.24907E-03-1.57689E-13-1.65541E-13
 -1      1258 2.00015E+01 2.70714E-01 2.03606E-03-2.92968E-03-7.34270E-13-9.90649E-14
 -1      1259 1.99997E+01 1.77713E-01-5.18275E-04-3.00925E-03-1.87529E-13-3.57055E-14
 -1      1260 1.99979E+01 8.66460E-02-3.33894E-03-2.33995E-03 3.10211E-13 7.98819E-14
 -1      1261 1.99967E+01 1.61470E-02-5.50077E-03-6.91240E-04 3.79800E-13-1.34929E-13
 -1      1262 1.99962E+01-1.16626E-02-3.12174E-03 4.33477E-03-1.69085E-13-1.02192E-14
 -1      1263 2.00019E+01-7.06246E-03 5.02280E-03 2.53971E-03-2.50064E-13 2.90646E-14
 -1      1264-1.17676E+00-2.35912E+01-3.67756E+00-2.08423E+00 1.04816E-12 1.33712E-13
 -1      1265-1.70189E+00-1.51784E+01-3.04385E+00-3.95589E+00 1.34048E-12 4.89164E-13
 -1      1266 1.04482E-01-2.79026E+00-1.85929E+00-3.36616E-01 1.48859E-12 7.91922E-13
 -1      1267 8.07277E+00 7.35812E+00-3.79851E-01 7.65982E+00 1.25189E-12 1.17018E-12
 -1      1268 2.29730E+01 1.12435E+01 1.21028E+00 1.54156E+01 1.06626E-12 1.47526E-12
 -1      1269 4.21386E+01 8.98774E+00 2.65509E+00 1.79289E+01 5.41900E-13 9.55236E-13
 -1      1270 5.91711E+01 4.20485E+00 3.72685E+00 1.24615E+01 9.32865E-14 1.15130E-13
 -1      1271 6.64341E+01 1.65830E+00 4.15586E+00 6.02313E-01 2.46539E-14-1.28758E-13
 -1      1272 5.96590E+01 4.04351E+00 3.75445E+00-1.18585E+01 1.36516E-13-5.00711E-13
 -1      1273 4.19786E+01 8.97572E+00 2.64352E+00-1.79989E+01 3.51275E-13-6.54143E-13
 -1      1274 2.19412E+01 1.11071E+01 1.07926E+00-1.50666E+01 7.98028E-13-8.53317E-13
 -1      1275 6.69174E+00 6.16740E+00-5.78642E-01-6.45358E+00 1.28741E-12-1.08957E-12
 -1      1276-5.77523E-01-5.22468E+00-2.15453E+00 1.43943E+00 9.99423E-13-5.87752E-13
 -1      1277-1.70442E+00-1.73476E+01-3.20188E+00 3.81504E+00 5.60996E-13-1.95344E-13
 -1      1278-8.84200E-01-2.47787E+01-3.75385E+00 1.15592E+00 6.39377E-13-4.35346E-14
 -1      1279-1.24408E+00-2.28587E+01-3.64062E+00-3.19384E+00-1.84630E-13-1.28828E-13
 -1      1280-1.84302E+00-1.27481E+01-2.90794E+00-3.86494E+00-5.76650E-13-1.56375E-13
 -1      1281 1.41699E+00-2.86981E-01-1.63879E+00 1.14545E+00-9.04610E-13-7.50511E-13
 -1      1282 1.18770E+01 8.45730E+00-4.50507E-02 9.80092E+00-1.14753E-12-1.21014E-12
 -1      1283 2.95674E+01 1.06374E+01 1.62745E+00 1.70431E+01-9.06608E-13-1.44618E-12
 -1      1284 4.95377E+01 7.37753E+00 3.16988E+00 1.72889E+01-4.75953E-13-9.41691E-13
 -1      1285 6.42832E+01 2.97164E+00 4.12690E+00 9.70524E+00-4.77188E-14-1.08358E-13
 -1      1286 6.81978E+01 1.64518E+00 4.37613E+00-2.44521E+00-1.12410E-13 1.19646E-12
 -1      1287 5.97006E+01 4.49050E+00 3.85055E+00-1.34436E+01-5.40901E-13 2.17282E-12
 -1      1288 4.15356E+01 9.17126E+00 2.60050E+00-1.80723E+01-1.09424E-12 2.29639E-12
 -1      1289 2.13265E+01 1.07756E+01 9.51448E-01-1.46030E+01-1.39777E-12 1.95066E-12
 -1      1290 6.68983E+00 6.09026E+00-6.93870E-01-6.41830E+00-9.51461E-13 8.97282E-13
 -1      1291-4.28056E-01-4.15147E+00-2.11030E+00 1.12872E+00-8.42659E-13 4.28324E-13
 -1      1292-1.87632E+00-1.63109E+01-3.18611E+00 4.26707E+00-5.06706E-13 2.52687E-13
 -1      1293-1.16349E+00-2.42955E+01-3.77565E+00 2.14174E+00 5.49338E-13 2.18228E-14
 -1      1294 2.22344E+01 1.83659E+00-7.25214E-01-2.78905E+00-1.58484E-14 5.85088E-13
 -1      1295 2.03435E+01 4.68705E+00-4.84598E-02-3.30554E+00-6.18811E-14 1.19585E-13
 -1      1296 2.08447E+01 4.80583E+00-1.13428E-01-4.15879E+00-7.49123E-14 2.34389E-13
 -1      1297 1.95263E+01 4.99180E+00-1.95397E-02-2.65296E+00-7.19563E-14-5.23435E-14
 -1      1298 1.98196E+01 5.08724E+00 2.89539E-04-3.04397E+00-7.61752E-14 2.28914E-14
 -1      1299 2.05127E+01 3.95045E+00-2.58693E-02-3.07261E+00-1.12427E-13 1.03501E-13
 -1      1300 1.91873E+01 5.08510E+00-3.43701E-03-2.06896E+00-6.36539E-14-1.46411E-13
 -1      1301 1.93320E+01 5.13914E+00 1.06607E-02-2.36190E+00-6.78693E-14-1.02189E-13
 -1      1302 1.97503E+01 4.36522E+00-2.44298E-02-2.48666E+00-1.13694E-13-3.86843E-14
 -1      1303 1.90187E+01 5.13348E+00 3.34561E-03-1.56250E+00-4.60786E-14-1.99982E-13
 -1      1304 1.90935E+01 5.16222E+00 1.26712E-02-1.81263E+00-5.13912E-14-1.72057E-13
 -1      1305 1.93966E+01 4.55640E+00-1.99442E-02-1.92907E+00-9.02689E-14-1.22034E-13
 -1      1306 1.89291E+01 5.16503E+00 6.54941E-03-1.11494E+00-3.19016E-14-2.29566E-13
 -1      1307 1.89697E+01 5.18081E+00 1.27886E-02-1.33628E+00-4.01545E-14-2.13125E-13
 -1      1308 1.92164E+01 4.66531E+00-1.60072E-02-1.44151E+00-7.31156E-14-1.65874E-13
 -1      1309 1.88804E+01 5.18601E+00 8.19630E-03-6.92228E-01-2.63071E-14-2.41043E-13
 -1      1310 1.89021E+01 5.19451E+00 1.20463E-02-9.02153E-01-2.90670E-14-2.39199E-13
 -1      1311 1.91170E+01 4.73258E+00-1.39100E-02-1.00169E+00-4.93217E-14-1.98452E-13
 -1      1312 1.88578E+01 5.19864E+00 9.29470E-03-2.88362E-01-5.25440E-15-2.47111E-13
 -1      1313 1.88671E+01 5.20232E+00 1.11137E-02-4.90035E-01-1.42846E-14-2.38093E-13
 -1      1314 1.90635E+01 4.77285E+00-1.27980E-02-5.87001E-01-3.37703E-14-1.98171E-13
 -1      1315 1.88543E+01 5.20379E+00 1.02416E-02 1.08032E-01 4.88151E-15-2.44409E-13
 -1      1316 1.88540E+01 5.20367E+00 1.01732E-02-9.11322E-02-2.78954E-15-2.46627E-13
 -1      1317 1.90403E+01 4.79161E+00-1.23371E-02-1.88413E-01-6.41197E-15-2.05731E-13
 -1      1318 1.88687E+01 5.20195E+00 1.12067E-02 5.07492E-01 1.59863E-14-2.37199E-13
 -1      1319 1.88587E+01 5.19801E+00 9.23335E-03 3.05415E-01 9.96439E-15-2.41425E-13
 -1      1320 1.90411E+01 4.79099E+00-1.23537E-02 2.05210E-01 8.70560E-15-2.00756E-13
 -1      1321 1.89052E+01 5.19333E+00 1.21735E-02 9.21040E-01 2.57086E-14-2.20166E-13
 -1      1322 1.88826E+01 5.18465E+00 8.14211E-03 7.10177E-01 1.95449E-14-2.30789E-13
 -1      1323 1.90659E+01 4.77081E+00-1.28449E-02 6.04437E-01 3.09325E-14-1.94528E-13
 -1      1324 1.89737E+01 5.17890E+00 1.30077E-02 1.35393E+00 3.96697E-14-1.84925E-13
 -1      1325 1.89323E+01 5.16271E+00 6.47413E-03 1.13116E+00 3.47218E-14-2.03559E-13
 -1      1326 1.91211E+01 4.72897E+00-1.38741E-02 1.01690E+00 4.81056E-14-1.68289E-13
 -1      1327 1.91012E+01 5.15851E+00 1.29478E-02 1.83866E+00 6.19435E-14-1.44960E-13
 -1      1328 1.90245E+01 5.12899E+00 3.20356E-03 1.58581E+00 5.33263E-14-1.66188E-13
 -1      1329 1.92229E+01 4.65867E+00-1.60334E-02 1.45960E+00 8.02683E-14-1.30743E-13
 -1      1330 1.93426E+01 5.13297E+00 1.02755E-02 2.39604E+00 7.64631E-14-7.90756E-14
 -1      1331 1.91964E+01 5.07701E+00-4.27262E-03 2.09867E+00 6.68215E-14-1.21268E-13
 -1      1332 1.94099E+01 4.54402E+00-1.98859E-02 1.95529E+00 1.05899E-13-9.11077E-14
 -1      1333 1.98447E+01 5.09650E+00 6.08995E-03 3.08224E+00 8.44325E-14 4.35069E-14
 -1      1334 1.95378E+01 4.98299E+00-2.03930E-02 2.69497E+00 7.60086E-14-2.86472E-14
 -1      1335 1.97713E+01 4.34583E+00-2.44813E-02 2.52537E+00 1.21157E-13-1.00475E-14
 -1      1336 2.10806E+01 4.90215E+00 8.20897E-03 4.05142E+00 7.66054E-14 2.61291E-13
 -1      1337 2.03179E+01 4.73059E+00-4.78119E-02 3.41463E+00 7.23033E-14 1.26947E-13
 -1      1338 2.05506E+01 3.91370E+00-2.23759E-02 3.17583E+00 1.26489E-13 1.15810E-13
 -1      1339 2.71637E+01 3.20133E+00 9.27402E-01 4.57811E+00 3.54161E-14 6.79068E-13
 -1      1340 2.19921E+01 3.51897E+00-1.81736E-01 3.88252E+00 3.75255E-14 3.88495E-13
 -1      1341 2.20867E+01 2.55975E+00-3.26539E-02 3.45409E+00 1.23786E-13 3.15553E-13
 -1      1342 2.13930E+01 3.59545E-01-7.62929E-01 1.18354E+00 6.73142E-14 6.55143E-13
 -1      1343 2.19674E+01 1.31464E-01-4.00648E-01-1.28489E+00-5.49283E-14 5.97911E-13
 -1      1344 2.06455E+01 3.06593E-01-1.64729E-01-8.05209E-01-5.57887E-14 5.24698E-13
 -1      1345 2.00489E+01 1.53479E-01-7.34435E-02-4.01703E-01-4.36248E-14 4.87861E-13
 -1      1346 1.95795E+01 9.12807E-02-1.48688E-02-3.29524E-01-4.89608E-14 4.19234E-13
 -1      1347 2.09456E+01 3.68929E-01-1.04256E-01-1.27267E+00-1.07289E-13 3.25216E-13
 -1      1348 1.92234E+01 6.46550E-02 3.09754E-03-1.34627E-01-3.76817E-14 3.89681E-13
 -1      1349 1.90699E+01 4.15450E-02 1.32883E-02-1.16729E-01-3.34420E-14 3.41560E-13
 -1      1350 1.98973E+01 1.34033E-01-3.51985E-02-5.02608E-01-8.54351E-14 2.58790E-13
 -1      1351 1.89116E+01 3.18789E-02 1.33163E-02-2.64784E-02-2.06194E-14 3.01665E-13
 -1      1352 1.88940E+01 1.98849E-02 1.11539E-02-1.68974E-02-2.36677E-14 2.68920E-13
 -1      1353 1.94234E+01 5.58834E-02-8.62903E-03-1.67426E-01-6.26547E-14 2.07792E-13
 -1      1354 1.88415E+01 1.65959E-02 8.87928E-03 2.79991E-02 2.40693E-17 2.75596E-13
 -1      1355 1.88874E+01 9.84831E-03 6.57236E-03 3.29517E-02-9.91221E-15 2.78401E-13
 -1      1356 1.92202E+01 2.52051E-02-3.67803E-03-6.17795E-03-2.93793E-14 1.82560E-13
 -1      1357 1.88932E+01 8.76364E-03 4.80309E-03 5.60502E-02-1.44171E-14 2.59501E-13
 -1      1358 1.89699E+01 4.65666E-03 3.82041E-03 5.84396E-02-1.89174E-14 2.37371E-13
 -1      1359 1.91727E+01 1.14535E-02-2.48583E-03 7.63537E-02-3.68902E-14 1.60276E-13
 -1      1360 1.90084E+01 4.53916E-03 2.60184E-03 7.01083E-02-1.65588E-14 2.36204E-13
 -1      1361 1.90994E+01 1.99146E-03 2.44308E-03 7.11146E-02 8.96310E-16 2.21657E-13
 -1      1362 1.92135E+01 4.68757E-03-1.71674E-03 1.18994E-01-2.76053E-14 1.37363E-13
 -1      1363 1.91567E+01 2.38390E-03 1.52207E-03 7.69139E-02 3.05436E-15 2.00793E-13
 -1      1364 1.92540E+01 8.58815E-04 1.73675E-03 7.72869E-02-3.27627E-14 1.65649E-13
 -1      1365 1.93049E+01 1.48223E-03-1.11464E-03 1.40697E-01-3.09054E-14 1.25078E-13
 -1      1366 1.93227E+01 1.57173E-03 9.67039E-04 8.06387E-02-3.25736E-14 1.83192E-13
 -1      1367 1.94232E+01 7.69300E-04 1.34547E-03 8.09078E-02-2.91745E-14 1.34801E-13
 -1      1368 1.94264E+01 4.34889E-04-7.64345E-04 1.52241E-01-4.17164E-14 1.22122E-13
 -1      1369 1.95002E+01 1.72292E-03 6.55502E-04 8.41644E-02-2.40801E-14 1.57415E-13
 -1      1370 1.96043E+01 1.45596E-03 1.12210E-03 8.47341E-02-5.03368E-15 1.32285E-13
 -1      1371 1.95676E+01 8.82281E-04-6.77599E-04 1.60590E-01-2.83568E-14 1.60018E-13
 -1      1372 1.96893E+01 2.62792E-03 4.63935E-04 8.96671E-02-7.66607E-15 6.11160E-14
 -1      1373 1.97999E+01 2.76586E-03 1.00124E-03 9.08696E-02-4.28165E-14 1.40053E-14
 -1      1374 1.97252E+01 2.48226E-03-8.21290E-04 1.70724E-01-3.25363E-14 7.37832E-14
 -1      1375 1.98951E+01 4.16975E-03 3.27636E-04 9.89214E-02-3.73173E-14-2.18315E-15
 -1      1376 2.00171E+01 4.60743E-03 9.42874E-04 1.01049E-01-1.79654E-14-3.54640E-14
 -1      1377 1.99010E+01 5.05500E-03-1.15867E-03 1.86527E-01-6.22921E-14-4.88280E-14
 -1      1378 2.01261E+01 6.28005E-03 1.99230E-04 1.13462E-01 1.88507E-14-3.41129E-14
 -1      1379 2.02665E+01 6.91328E-03 9.10282E-04 1.16785E-01-5.76427E-15-2.85856E-14
 -1      1380 2.01002E+01 8.50568E-03-1.66158E-03 2.11235E-01-8.19559E-15-7.30216E-14
 -1      1381 2.03944E+01 8.90114E-03 3.19109E-05 1.34643E-01-2.35977E-15-4.18944E-14
 -1      1382 2.05616E+01 9.59846E-03 8.59027E-04 1.39409E-01-3.63426E-14-5.33141E-14
 -1      1383 2.03316E+01 1.27641E-02-2.30809E-03 2.47649E-01-1.72939E-14-8.48640E-14
 -1      1384 2.07147E+01 1.19354E-02-2.28255E-04 1.63563E-01-5.52724E-14-7.18176E-15
 -1      1385 2.09184E+01 1.24973E-02 7.29717E-04 1.69974E-01-5.32244E-14-4.71012E-14
 -1      1386 2.06059E+01 1.77064E-02-3.07391E-03 2.98097E-01-2.83074E-14-9.84881E-14
 -1      1387 2.11033E+01 1.51619E-02-6.43349E-04 2.00809E-01-1.25477E-14-7.49635E-14
 -1      1388 2.13540E+01 1.52574E-02 4.46472E-04 2.08949E-01-6.52603E-15-8.86348E-14
 -1      1389 2.09358E+01 2.30240E-02-3.91736E-03 3.64090E-01-6.28083E-14-3.14373E-14
 -1      1390 2.15770E+01 1.80924E-02-1.27081E-03 2.45868E-01 3.71096E-14-1.09277E-13
 -1      1391 2.18842E+01 1.71648E-02-6.79684E-05 2.55544E-01 2.04099E-14-3.71049E-14
 -1      1392 2.13340E+01 2.79929E-02-4.75304E-03 4.45440E-01 3.96384E-15-3.32242E-14
 -1      1393 2.21497E+01 1.97346E-02-2.11884E-03 2.96002E-01 1.24531E-14-2.91954E-14
 -1      1394 2.25186E+01 1.68793E-02-8.37716E-04 3.06449E-01-7.64601E-15-9.46847E-14
 -1      1395 2.18110E+01 3.10856E-02-5.40410E-03 5.38541E-01 1.09569E-14-1.01212E-14
 -1      1396 2.28262E+01 1.82475E-02-3.04034E-03 3.44338E-01-2.96299E-14-1.29733E-13
 -1      1397 2.32521E+01 1.21104E-02-1.70845E-03 3.53709E-01-5.21267E-14-1.75080E-13
 -1      1398 2.23716E+01 2.93916E-02-5.52145E-03 6.33365E-01-6.46763E-14-7.22512E-16
 -1      1399 2.35924E+01 1.05667E-02-3.53995E-03 3.77063E-01 3.34457E-14-2.10890E-13
 -1      1400 2.40512E+01-5.71342E-04-2.13644E-03 3.81661E-01 8.23706E-15-1.67269E-13
 -1      1401 2.30076E+01 1.79590E-02-4.46696E-03 7.08863E-01-4.87762E-14-1.51489E-14
 -1      1402 2.44000E+01-7.63338E-03-2.53225E-03 3.70266E-01 3.04051E-14-3.73070E-14
 -1      1403 2.48348E+01-2.51790E-02-1.01818E-03 3.63742E-01 6.57222E-15-3.02952E-14
 -1      1404 2.36888E+01-1.03827E-02-1.20549E-03 7.27349E-01 8.16088E-14-2.41777E-14
 -1      1405 2.51462E+01-4.06643E-02 1.61881E-03 2.88980E-01-4.28407E-14-1.73785E-14
 -1      1406 2.54545E+01-6.36979E-02 3.06411E-03 2.62352E-01-2.96724E-15-3.96506E-14
 -1      1407 2.43505E+01-6.30906E-02 5.60020E-03 6.31055E-01-1.80325E-15 3.82194E-14
 -1      1408 2.56573E+01-8.82506E-02 1.01471E-02 9.49265E-02 5.91350E-14 1.57947E-14
 -1      1409 2.56929E+01-1.09987E-01 1.04805E-02 3.96953E-02 4.38295E-14 1.27979E-13
 -1      1410 2.48818E+01-1.40723E-01 1.68246E-02 3.49738E-01 5.12316E-14 1.38139E-13
 -1      1411 2.56982E+01-1.37455E-01 2.13896E-02-2.27736E-01 8.42729E-14 1.78274E-13
 -1      1412 2.53103E+01-1.41475E-01 1.81951E-02-3.11071E-01 1.24206E-13 3.08968E-13
 -1      1413 2.51267E+01-2.24051E-01 3.06479E-02-1.64753E-01 1.18077E-13 3.64281E-13
 -1      1414 2.50411E+01-1.52510E-01 2.78228E-02-6.23693E-01 1.46713E-13 2.85848E-13
 -1      1415 2.41745E+01-1.16629E-01 1.75434E-02-7.09972E-01 8.24722E-14 4.76397E-13
 -1      1416 2.49157E+01-2.57065E-01 4.02247E-02-8.65852E-01 1.88972E-13 3.73080E-13
 -1      1417 2.36342E+01-8.73628E-02 1.73170E-02-9.22442E-01-5.70082E-14 3.69066E-13
 -1      1418 2.24620E+01-5.01227E-03-4.09008E-04-9.57896E-01-8.17341E-14 2.92211E-13
 -1      1419 2.41563E+01-1.66555E-01 3.09399E-02-1.52049E+00-3.38748E-14 3.23377E-13
 -1      1420 2.18111E+01 6.58120E-02-1.31096E-02-8.89107E-01-6.69881E-14 2.11248E-13
 -1      1421 2.07699E+01 1.60116E-01-3.20254E-02-8.22241E-01-1.41526E-13 8.71456E-14
 -1      1422 2.29906E+01 7.05526E-02-6.65155E-03-1.72469E+00-1.95765E-13 8.14626E-14
 -1      1423 2.03178E+01 2.24239E-01-4.63509E-02-4.14029E-01 4.08701E-15 4.59077E-14
 -1      1424 1.99136E+01 2.65289E-01-5.44170E-02-2.58567E-01 1.91652E-14 4.30940E-14
 -1      1425 2.18828E+01 3.43436E-01-5.85616E-02-1.15670E+00-1.99285E-14 5.74592E-14
 -1      1426 1.99290E+01 2.62944E-01-5.39112E-02 3.00064E-01-2.88866E-14 2.69420E-14
 -1      1427 2.03812E+01 2.17169E-01-4.50033E-02 4.52305E-01-6.67348E-14-5.54487E-14
 -1      1428 2.14379E+01 4.59501E-01-8.38796E-02 3.88497E-02-3.84692E-14-8.48098E-14
 -1      1429 2.08544E+01 1.50815E-01-3.01377E-02 8.43453E-01-1.29834E-13-6.71685E-14
 -1      1430 2.19186E+01 5.53705E-02-1.08492E-02 9.03828E-01-1.01165E-13-2.35062E-13
 -1      1431 2.19352E+01 3.30290E-01-5.56679E-02 1.21230E+00-1.39059E-13-1.59317E-13
 -1      1432 2.25709E+01-1.41420E-02 1.19303E-03 9.51957E-01-6.65700E-14-2.13302E-13
 -1      1433 2.37347E+01-9.42297E-02 1.84580E-02 9.11527E-01 3.73963E-15-2.67980E-13
 -1      1434 2.30642E+01 5.34420E-02-3.74399E-03 1.73262E+00-1.49779E-13-9.16107E-14
 -1      1435 2.42612E+01-1.20454E-01 1.77917E-02 6.87572E-01 1.50747E-15-3.82555E-13
 -1      1436 2.51010E+01-1.53279E-01 2.75438E-02 6.00242E-01-1.04482E-13-4.16542E-13
 -1      1437 2.42156E+01-1.76500E-01 3.20420E-02 1.48915E+00-9.18137E-14-6.53644E-14
 -1      1438 2.53529E+01-1.40431E-01 1.76380E-02 2.87672E-01-9.23792E-14-4.47024E-13
 -1      1439 2.57128E+01-1.34763E-01 2.05615E-02 2.05808E-01 3.40197E-14-5.88229E-13
 -1      1440 2.49429E+01-2.57933E-01 3.95098E-02 8.22055E-01-1.38122E-13-2.70308E-13
 -1      1441 2.56943E+01-1.07207E-01 9.84871E-03-5.59614E-02 7.49695E-14-5.69601E-13
 -1      1442 2.56388E+01-8.50176E-02 9.40768E-03-1.09329E-01 1.50643E-14-5.35841E-13
 -1      1443 2.51244E+01-2.19316E-01 2.96037E-02 1.28989E-01 2.14950E-14-2.16089E-13
 -1      1444 2.54285E+01-6.08179E-02 2.64219E-03-2.70178E-01 8.20941E-14-4.42176E-13
 -1      1445 2.51104E+01-3.79287E-02 1.21917E-03-2.95185E-01 1.15268E-13-3.92866E-13
 -1      1446 2.48598E+01-1.35366E-01 1.58061E-02-3.70662E-01 1.14752E-13-2.75708E-13
 -1      1447 2.47973E+01-2.29707E-02-1.16389E-03-3.64529E-01 9.64268E-14-3.19397E-13
 -1      1448 2.43614E+01-5.76486E-03-2.63466E-03-3.69970E-01 1.03537E-13-2.13649E-13
 -1      1449 2.43203E+01-5.86566E-02 4.92085E-03-6.37572E-01 1.35720E-13-1.49469E-13
 -1      1450 2.40154E+01 9.44518E-04-2.11575E-03-3.77577E-01 8.18096E-15-3.95958E-13
 -1      1451 2.35616E+01 1.18065E-02-3.48020E-03-3.72295E-01-8.69472E-14-3.90740E-13
 -1      1452 2.36603E+01-7.38874E-03-1.62859E-03-7.23007E-01-1.93940E-14-2.84357E-13
 -1      1453 2.32274E+01 1.31966E-02-1.62508E-03-3.46289E-01-7.41653E-14-3.34510E-13
 -1      1454 2.28106E+01 1.91734E-02-2.91694E-03-3.36440E-01 7.31921E-14-4.42457E-13
 -1      1455 2.29883E+01 1.99515E-02-4.75134E-03-6.96939E-01-1.74383E-13-2.83905E-13
 -1      1456 2.25120E+01 1.78070E-02-7.48796E-04-2.96420E-01 9.20635E-14-4.27790E-13
 -1      1457 2.21555E+01 2.06043E-02-1.97655E-03-2.85544E-01-2.50149E-14-4.34229E-13
 -1      1458 2.23673E+01 3.09209E-02-5.75853E-03-6.15789E-01 8.72030E-14-3.44366E-13
 -1      1459 2.19017E+01 1.81471E-02 4.45938E-06-2.42965E-01-2.34955E-14-3.52438E-13
 -1      1460 2.16101E+01 1.90902E-02-1.12566E-03-2.32804E-01 2.52472E-14-3.41210E-13
 -1      1461 2.18270E+01 3.25828E-02-5.65428E-03-5.15903E-01 4.88069E-14-1.71711E-13
 -1      1462 2.14016E+01 1.64522E-02 4.94494E-04-1.93392E-01 1.31517E-13-3.67427E-13
 -1      1463 2.11702E+01 1.64186E-02-4.99395E-04-1.84636E-01 3.81123E-14-2.32514E-13
 -1      1464 2.13755E+01 2.97711E-02-5.05523E-03-4.17282E-01 3.02991E-14-2.99016E-13
 -1      1465 2.10032E+01 1.40275E-02 7.46759E-04-1.50654E-01-1.80786E-14-1.40516E-13
 -1      1466 2.08236E+01 1.35525E-02-8.94116E-05-1.43436E-01 3.91748E-14-2.22527E-13
 -1      1467 2.10090E+01 2.53177E-02-4.29737E-03-3.29178E-01 4.33236E-14-3.59959E-13
 -1      1468 2.06926E+01 1.15738E-02 8.29506E-04-1.15248E-01 1.19505E-13 7.67810E-14
 -1      1469 2.05558E+01 1.09704E-02 1.49825E-04-1.09432E-01 1.51607E-13 2.41613E-13
 -1      1470 2.07181E+01 2.07179E-02-3.55117E-03-2.54596E-01 2.44738E-13 1.09624E-13
 -1      1471 2.04550E+01 9.44951E-03 7.95781E-04-8.64296E-02 9.06443E-14 3.14547E-13
 -1      1472 2.03530E+01 8.89696E-03 2.50913E-04-8.17493E-02 3.21445E-14 4.80139E-13
 -1      1473 2.04917E+01 1.67081E-02-2.90108E-03-1.93195E-01 2.21148E-13 3.41615E-13
 -1      1474 2.02774E+01 7.83756E-03 6.60754E-04-6.28492E-02 6.61634E-15 4.34725E-13
 -1      1475 2.02039E+01 7.43007E-03 2.17035E-04-5.89764E-02 6.18844E-14 5.09752E-13
 -1      1476 2.03191E+01 1.36399E-02-2.39291E-03-1.42949E-01-4.51824E-14 3.71731E-13
 -1      1477 2.01493E+01 6.82030E-03 4.00834E-04-4.28916E-02-8.31810E-14 3.04568E-13
 -1      1478 2.01002E+01 6.56238E-03 5.22871E-05-3.94620E-02-1.00421E-13 7.86118E-14
 -1      1479 2.01914E+01 1.16949E-02-2.04442E-03-1.01045E-01-6.23024E-14 2.08638E-13
 -1      1480 2.00633E+01 6.32229E-03 2.70700E-05-2.50363E-02-4.39077E-14 8.51099E-15
 -1      1481 2.00364E+01 6.03201E-03-5.92834E-05-2.16823E-02 2.14703E-14 6.65918E-14
 -1      1482 2.01012E+01 1.08671E-02-1.78722E-03-6.45304E-02-1.53930E-13 7.58098E-14
 -1      1483 2.00138E+01 6.59781E-03 2.33290E-05-8.40093E-03 2.65652E-14 2.04376E-13
 -1      1484 2.00073E+01 4.74112E-03 7.89802E-04-4.99956E-03-3.41881E-15 1.86436E-13
 -1      1485 2.00425E+01 1.05856E-02-1.42754E-03-3.16601E-02 7.46512E-14 1.10313E-13
 -1      1486 1.99966E+01-1.00506E-03 2.05145E-03 3.57791E-03-1.89536E-13 1.24934E-13
 -1      1487 2.00078E+01 3.60960E-03-4.62331E-06-3.00455E-03-9.31597E-14-7.18443E-14
 -1      1488 2.02263E+01 7.54919E-02-1.52011E-01 4.83551E-01 4.75349E-14 5.31946E-13
 -1      1489 2.14958E+01 2.15993E-01-2.29215E-01 7.20432E-01 4.74482E-14 6.17131E-13
 -1      1490 2.16992E+01 8.81241E-01-8.53775E-02 2.06337E+00 9.74984E-14 4.23245E-13
 -1      1491 1.92994E+01 3.24597E-02-2.13216E-02 1.85600E-01 6.56246E-14 4.09939E-13
 -1      1492 1.97196E+01 1.13633E-01-6.26506E-02 2.37611E-01 4.42354E-14 4.81108E-13
 -1      1493 2.02759E+01 1.87699E-01-5.51527E-02 7.85252E-01 8.61672E-14 3.22402E-13
 -1      1494 1.89200E+01 1.52727E-02 5.65237E-03 5.26193E-02 3.07376E-14 3.10123E-13
 -1      1495 1.90577E+01 5.17839E-02 1.01119E-03 7.89991E-02 3.99316E-14 3.68851E-13
 -1      1496 1.95333E+01 7.20400E-02-1.21667E-02 2.97532E-01 7.94677E-14 2.46478E-13
 -1      1497 1.88139E+01 7.41183E-03 6.93893E-03-1.08163E-02 1.23577E-14 2.62089E-13
 -1      1498 1.88267E+01 2.61909E-02 1.11303E-02 3.75145E-03 1.74314E-14 2.87478E-13
 -1      1499 1.92021E+01 3.14571E-02-2.51174E-03 8.06687E-02 4.38156E-14 1.93453E-13
 -1      1500 1.88479E+01 3.66230E-03 4.71457E-03-4.26268E-02-1.31102E-15 2.32328E-13
 -1      1501 1.88005E+01 1.43742E-02 8.57757E-03-3.41941E-02-7.30926E-15 2.38729E-13
 -1      1502 1.90924E+01 1.39808E-02-1.71603E-03-2.67205E-02 1.88014E-14 1.56992E-13
 -1      1503 1.89554E+01 1.71787E-03 3.18561E-03-5.84227E-02 1.35409E-14 2.13720E-13
 -1      1504 1.88785E+01 8.15934E-03 5.44509E-03-5.34376E-02 4.94396E-15 2.11782E-13
 -1      1505 1.91048E+01 5.64145E-03-1.80061E-03-8.19791E-02 8.72002E-15 1.28734E-13
 -1      1506 1.91011E+01 7.46561E-04 2.34741E-03-6.57928E-02 4.09693E-14 1.73115E-13
 -1      1507 1.90103E+01 4.74328E-03 3.53314E-03-6.27945E-02 1.52179E-14 2.11125E-13
 -1      1508 1.91850E+01 1.48787E-03-1.64488E-03-1.10158E-01 2.44878E-14 1.24077E-13
 -1      1509 1.92663E+01 3.88310E-04 1.80914E-03-6.90687E-02-6.38769E-15 1.31830E-13
 -1      1510 1.91696E+01 2.95535E-03 2.45894E-03-6.71300E-02 2.28656E-14 1.72655E-13
 -1      1511 1.93033E+01-3.86476E-04-1.40624E-03-1.24177E-01 2.00609E-14 1.51097E-13
 -1      1512 1.94425E+01 4.55079E-04 1.37160E-03-7.10179E-02 3.53356E-14 9.74151E-14
 -1      1513 1.93431E+01 2.23679E-03 1.81270E-03-6.94921E-02-9.49872E-15 9.42159E-14
 -1      1514 1.94439E+01-8.53341E-04-1.24567E-03-1.31628E-01 2.46874E-14 7.58318E-14
 -1      1515 1.96279E+01 8.27902E-04 9.64617E-04-7.35402E-02 1.15917E-14 8.74370E-14
 -1      1516 1.95258E+01 2.27846E-03 1.38699E-03-7.19463E-02 3.12728E-14 9.23428E-14
 -1      1517 1.95993E+01-3.77862E-04-1.21674E-03-1.37434E-01 5.49275E-14 4.76712E-14
 -1      1518 1.98249E+01 1.41682E-03 5.68664E-04-7.79740E-02 5.07943E-15 1.03023E-13
 -1      1519 1.97180E+01 2.87962E-03 1.08870E-03-7.59410E-02-6.26533E-15 7.58981E-14
 -1      1520 1.97681E+01 7.47167E-04-1.32273E-03-1.44968E-01 9.70881E-15 7.87858E-14
 -1      1521 2.00391E+01 2.13689E-03 1.81211E-04-8.52220E-02 3.02943E-14 1.05142E-13
 -1      1522 1.99238E+01 3.88238E-03 8.70754E-04-8.24660E-02 1.22244E-14 1.07010E-13
 -1      1523 1.99522E+01 2.30186E-03-1.55018E-03-1.56556E-01 9.96534E-15 4.77316E-14
 -1      1524 2.02778E+01 2.88700E-03-1.90509E-04-9.57596E-02 9.32230E-15-2.53226E-15
 -1      1525 2.01496E+01 5.12691E-03 7.02002E-04-9.20877E-02 2.18202E-14 4.06597E-14
 -1      1526 2.01562E+01 4.07806E-03-1.87654E-03-1.73643E-01 7.46483E-14-1.07253E-14
 -1      1527 2.05489E+01 3.52595E-03-5.25404E-04-1.09536E-01-9.51019E-15-2.57307E-14
 -1      1528 2.04031E+01 6.40876E-03 5.57329E-04-1.04878E-01 5.29904E-15-1.06317E-14
 -1      1529 2.03860E+01 5.82599E-03-2.26443E-03-1.96742E-01 1.24358E-15-6.65327E-14
 -1      1530 2.08590E+01 3.84440E-03-7.77695E-04-1.25759E-01-1.09925E-14 2.33602E-14
 -1      1531 2.06917E+01 7.42994E-03 4.16310E-04-1.20236E-01-1.93310E-14 1.97602E-14
 -1      1532 2.06471E+01 7.19572E-03-2.64866E-03-2.25164E-01-3.96570E-14 4.59199E-14
 -1      1533 2.12111E+01 3.53503E-03-8.59443E-04-1.42549E-01 9.79186E-15-9.44730E-15
 -1      1534 2.10203E+01 7.74233E-03 2.67826E-04-1.36580E-01 9.39982E-15 3.55662E-14
 -1      1535 2.09432E+01 7.66996E-03-2.91741E-03-2.56519E-01-7.49596E-15 2.93472E-14
 -1      1536 2.16012E+01 2.17144E-03-6.17676E-04-1.56466E-01 6.38212E-14-6.82085E-14
 -1      1537 2.13890E+01 6.69258E-03 1.21769E-04-1.50930E-01 5.04482E-14-9.39960E-15
 -1      1538 2.12739E+01 6.49574E-03-2.88847E-03-2.85985E-01 3.53930E-14 6.56124E-14
 -1      1539 2.20133E+01-7.75340E-04 1.84167E-04-1.61995E-01-2.81408E-14-1.39186E-13
 -1      1540 2.17887E+01 3.40053E-03 2.86870E-05-1.58423E-01 1.80120E-14-1.36741E-13
 -1      1541 2.16310E+01 2.64652E-03-2.28824E-03-3.05417E-01 8.24059E-14 2.92843E-14
 -1      1542 2.24149E+01-5.82581E-03 1.85081E-03-1.51228E-01-4.93054E-14-8.99229E-14
 -1      1543 2.21965E+01-3.15496E-03 1.01384E-04-1.51962E-01-4.35448E-14-1.16236E-13
 -1      1544 2.19954E+01-5.10388E-03-7.54012E-04-3.02583E-01-3.47184E-14-4.46023E-14
 -1      1545 2.27510E+01-1.31966E-02 4.64370E-03-1.14309E-01-6.37743E-14 4.77248E-14
 -1      1546 2.25707E+01-1.38107E-02 5.16175E-04-1.22461E-01-7.90440E-14-2.98147E-14
 -1      1547 2.23328E+01-1.78458E-02 2.09246E-03-2.61222E-01-1.04413E-13-4.94275E-14
 -1      1548 2.29435E+01-2.22315E-02 8.49472E-03-4.15861E-02-1.12965E-14 2.57440E-13
 -1      1549 2.28471E+01-2.84836E-02 1.44666E-03-6.04901E-02-6.74460E-14 1.37754E-13
 -1      1550 2.25911E+01-3.57059E-02 6.43459E-03-1.63250E-01-1.51656E-13 6.59984E-14
 -1      1551 2.28986E+01-3.06281E-02 1.25279E-02 7.13347E-02 5.58850E-14 2.46059E-13
 -1      1552 2.29412E+01-4.49712E-02 2.87862E-03 3.96020E-02 2.87452E-14 2.72362E-13
 -1      1553 2.27026E+01-5.63832E-02 1.18638E-02 4.95655E-03 5.38198E-15 1.22621E-13
 -1      1554 2.25316E+01-3.39715E-02 1.46209E-02 2.15391E-01-6.92328E-15 1.68612E-13
 -1      1555 2.27629E+01-5.77432E-02 4.30865E-03 1.72572E-01 3.16127E-14 1.12429E-13
 -1      1556 2.25952E+01-7.33499E-02 1.69363E-02 2.40769E-01 3.86514E-14 5.84394E-14
 -1      1557 2.18104E+01-2.67203E-02 1.16361E-02 3.59641E-01 4.86070E-15 2.29757E-13
 -1      1558 2.22482E+01-5.81184E-02 4.50888E-03 3.14077E-01-2.21446E-14 1.95913E-13
 -1      1559 2.22169E+01-7.53585E-02 1.90258E-02 5.09906E-01-2.60382E-14-5.57878E-14
 -1      1560 2.08091E+01-5.68312E-03 1.23019E-03 4.50764E-01-3.49048E-15 3.69350E-13
 -1      1561 2.14074E+01-3.77884E-02 1.88265E-03 4.17847E-01 1.82285E-14 3.72535E-13
 -1      1562 2.15739E+01-4.99144E-02 1.52614E-02 7.36907E-01-3.36875E-14 2.19111E-13
 -1      1563 1.97387E+01 2.50804E-02-1.50665E-02 4.30751E-01-1.00901E-13 5.80050E-13
 -1      1564 2.03705E+01 4.03967E-03-4.19028E-03 4.27852E-01-6.29423E-14 4.89442E-13
 -1      1565 2.07676E+01 7.53035E-03 4.81897E-03 8.18482E-01-1.09322E-13 5.20752E-13
 -1      1566 1.89089E+01 5.26179E-02-3.02790E-02 2.73213E-01-3.67449E-14 7.26228E-13
 -1      1567 1.93912E+01 5.44915E-02-1.17438E-02 3.08990E-01-3.78126E-14 6.37289E-13
 -1      1568 1.99991E+01 8.26651E-02-9.00134E-03 6.71473E-01-8.46996E-14 5.53094E-13
 -1      1569 1.86063E+01 6.18758E-02-3.51987E-02 1.55143E-02 2.20466E-14 6.12485E-13
 -1      1570 1.87730E+01 9.03080E-02-1.64238E-02 8.08198E-02-3.62210E-14 6.61797E-13
 -1      1571 1.95125E+01 1.41881E-01-1.96394E-02 2.98345E-01-2.92145E-14 5.95691E-13
 -1      1572 1.89446E+01 4.73142E-02-2.58202E-02-2.48306E-01 1.21023E-14 4.87218E-13
 -1      1573 1.87338E+01 9.28071E-02-1.45076E-02-1.78189E-01 4.49328E-14 5.58616E-13
 -1      1574 1.94830E+01 1.50935E-01-2.21798E-02-1.84425E-01 3.28678E-14 5.32851E-13
 -1      1575 1.97987E+01 1.77583E-02-7.09652E-03-4.20562E-01 6.69408E-14 2.50633E-13
 -1      1576 1.92877E+01 6.23821E-02-6.36886E-03-3.71262E-01 2.42636E-14 3.20997E-13
 -1      1577 1.99203E+01 1.02811E-01-1.67923E-02-5.98000E-01 1.44515E-13 3.14533E-13
 -1      1578 2.08764E+01-1.13092E-02 1.11320E-02-4.55669E-01-6.03698E-14 2.37282E-13
 -1      1579 2.02380E+01 1.71334E-02 3.63447E-03-4.39414E-01 2.04682E-14 2.33404E-13
 -1      1580 2.06643E+01 2.41261E-02-7.79178E-03-8.04165E-01 7.53818E-14 2.49776E-13
 -1      1581 2.18693E+01-2.88476E-02 2.12681E-02-3.73886E-01-6.26539E-15 3.23575E-13
 -1      1582 2.12836E+01-2.15665E-02 1.06029E-02-3.86469E-01-6.54737E-14 2.49988E-13
 -1      1583 2.14749E+01-4.63458E-02 9.28928E-05-7.73310E-01-5.15542E-14 3.09254E-13
 -1      1584 2.25737E+01-3.29791E-02 2.22235E-02-2.32319E-01 3.55007E-14 3.76643E-13
 -1      1585 2.21585E+01-4.22427E-02 1.23829E-02-2.60549E-01 4.95957E-15 3.25559E-13
 -1      1586 2.21437E+01-8.40912E-02 4.64175E-03-5.73453E-01 1.77853E-14 1.85192E-13
 -1      1587 2.29237E+01-2.79636E-02 1.72778E-02-8.64537E-02-7.69567E-15 3.04687E-13
 -1      1588 2.27156E+01-4.53398E-02 1.00905E-02-1.17438E-01 7.40198E-14 3.88672E-13
 -1      1589 2.25578E+01-8.80319E-02 6.03142E-03-3.08152E-01 4.36188E-14 2.38044E-13
 -1      1590 2.29569E+01-1.92365E-02 1.04776E-02 3.00698E-02 1.51296E-13-2.52524E-14
 -1      1591 2.29321E+01-3.74712E-02 6.10021E-03 4.28234E-03 8.53722E-14 1.75692E-13
 -1      1592 2.27010E+01-7.07456E-02 5.44931E-03-6.14372E-02 1.44894E-13 1.77569E-13
 -1      1593 2.27604E+01-1.06285E-02 4.52850E-03 1.06213E-01 1.45624E-13-3.46937E-13
 -1      1594 2.28669E+01-2.55714E-02 2.36749E-03 8.84993E-02 1.28789E-13-1.69097E-13
 -1      1595 2.26194E+01-4.61957E-02 4.08063E-03 1.22918E-01 1.97259E-13-1.08995E-13
 -1      1596 2.24278E+01-3.92994E-03 4.33909E-04 1.45365E-01-6.85903E-14-5.33880E-13
 -1      1597 2.26107E+01-1.42013E-02-1.91230E-04 1.35344E-01 2.62329E-14-4.47802E-13
 -1      1598 2.23840E+01-2.35588E-02 2.66260E-03 2.35690E-01 1.25856E-13-2.13189E-13
 -1      1599 2.20368E+01 5.08072E-04-1.86092E-03 1.56876E-01-5.64531E-14-4.97756E-13
 -1      1600 2.22513E+01-5.39165E-03-1.51480E-03 1.52778E-01-3.03345E-14-5.81360E-13
 -1      1601 2.20642E+01-6.68798E-03 1.50880E-03 2.87375E-01-5.72027E-14-4.72995E-13
 -1      1602 2.16416E+01 3.02678E-03-2.83311E-03 1.50655E-01-3.81313E-14-5.08841E-13
 -1      1603 2.18572E+01 5.02677E-04-1.92510E-03 1.50501E-01-7.56193E-14-5.44852E-13
 -1      1604 2.17150E+01 4.03244E-03 6.86314E-04 2.95328E-01-1.95679E-14-4.59820E-13
 -1      1605 2.12755E+01 4.16848E-03-2.99074E-03 1.34752E-01-1.94035E-13-1.31317E-13
 -1      1606 2.14738E+01 3.92582E-03-1.80588E-03 1.36890E-01-9.04915E-14-3.60059E-13
 -1      1607 2.13740E+01 9.77626E-03 1.52119E-04 2.76262E-01-1.53983E-13-1.86979E-14
 -1      1608 2.09550E+01 4.43831E-03-2.72455E-03 1.14797E-01 3.35680E-14 6.75163E-14
 -1      1609 2.11272E+01 5.55644E-03-1.45231E-03 1.18040E-01-1.72905E-13-1.84494E-13
 -1      1610 2.10635E+01 1.20725E-02-1.67034E-04 2.43196E-01-2.39952E-13-3.66220E-13
 -1      1611 2.06858E+01 4.22940E-03-2.29078E-03 9.42656E-02 1.74018E-14-1.73365E-13
 -1      1612 2.08294E+01 6.03691E-03-1.04579E-03 9.78590E-02 1.06360E-13 1.17883E-14
 -1      1613 2.07943E+01 1.22648E-02-3.42050E-04 2.04978E-01 7.11417E-14-1.50149E-13
 -1      1614 2.04674E+01 3.82404E-03-1.84646E-03 7.49873E-02 1.74430E-13-3.10354E-13
 -1      1615 2.05830E+01 5.88579E-03-6.80427E-04 7.85193E-02 1.22516E-13-1.88282E-13
 -1      1616 2.05696E+01 1.13645E-02-4.35168E-04 1.66896E-01 1.87377E-13-9.87495E-14
 -1      1617 2.02957E+01 3.41844E-03-1.49388E-03 5.76106E-02 1.34280E-13-6.32120E-13
 -1      1618 2.03859E+01 5.49670E-03-4.01977E-04 6.09325E-02 1.24237E-13-5.23534E-13
 -1      1619 2.03881E+01 1.00806E-02-5.04481E-04 1.31542E-01 2.41819E-13-4.18102E-13
 -1      1620 2.01665E+01 3.13630E-03-1.31183E-03 4.19764E-02 9.14021E-14-8.87109E-13
 -1      1621 2.02336E+01 5.15633E-03-2.43345E-04 4.51377E-02 7.46948E-14-7.52058E-13
 -1      1622 2.02463E+01 8.89427E-03-6.10440E-04 9.95940E-02 2.49794E-13-5.70579E-13
 -1      1623 2.00760E+01 3.04799E-03-1.30622E-03 2.74393E-02 4.51515E-14-1.10276E-12
 -1      1624 2.01220E+01 5.05757E-03-2.31604E-04 3.06406E-02 5.52000E-14-9.77451E-13
 -1      1625 2.01406E+01 8.11123E-03-8.04993E-04 7.04792E-02 1.49517E-13-6.51499E-13
 -1      1626 2.00220E+01 3.12084E-03-1.09345E-03 1.31412E-02-2.09312E-13-8.71025E-13
 -1      1627 2.00475E+01 5.25859E-03-2.73779E-04 1.67775E-02-5.58715E-14-9.55345E-13
 -1      1628 2.00673E+01 7.98141E-03-9.83657E-04 4.30812E-02-5.56374E-14-5.74206E-13
 -1      1629 2.00018E+01 2.58125E-03 8.52430E-04 4.83391E-04-5.15925E-14-3.44692E-13
 -1      1630 2.00074E+01 4.66736E-03 1.00881E-04 3.89568E-03-9.32028E-14-6.41137E-13
 -1      1631 2.00229E+01 7.23176E-03-8.02390E-04 1.68846E-02-1.73609E-13-4.36795E-13
 -1      1632 1.99978E+01-8.16801E-04 1.87141E-03-2.61725E-03-9.01451E-14-9.23244E-14
 -1      1633 2.00051E+01 1.53206E-02-6.95758E-04 9.62967E-03-2.60606E-13-1.54895E-13
 -1      1634 2.00049E+01 7.67115E-03 6.10421E-04 6.39343E-03-2.19101E-13 1.82817E-13
 -1      1635 2.00041E+01 6.02239E-02-6.49970E-04 2.36407E-02-2.92035E-13 2.06539E-14
 -1      1636 2.00050E+01 3.53775E-02-4.91395E-04 2.09480E-02-1.72441E-13-1.07180E-13
 -1      1637 2.00101E+01 4.10292E-02-9.89395E-04 3.09379E-02-2.08218E-13-6.18907E-14
 -1      1638 2.00019E+01 1.26551E-01-3.48429E-04 3.34928E-02-6.61380E-13-2.39924E-13
 -1      1639 2.00032E+01 8.89823E-02-4.42173E-04 3.19386E-02-3.74328E-13-1.35998E-13
 -1      1640 2.00067E+01 8.99353E-02-1.06098E-03 5.45398E-02-6.66934E-14-2.86508E-13
 -1      1641 1.99995E+01 2.03554E-01-1.06354E-04 3.71129E-02-6.61636E-13 4.22422E-14
 -1      1642 2.00009E+01 1.60546E-01-2.22968E-04 3.69094E-02-6.98689E-13 1.18186E-13
 -1      1643 2.00028E+01 1.52996E-01-4.19248E-04 6.85157E-02-8.10170E-14 1.05264E-14
 -1      1644 1.99973E+01 2.77280E-01 9.40758E-06 3.44522E-02-5.59319E-13 2.70171E-13
 -1      1645 1.99986E+01 2.37131E-01-7.11905E-05 3.54429E-02-7.62784E-13 1.10825E-13
 -1      1646 1.99987E+01 2.20767E-01 2.98139E-04 7.04039E-02-3.43270E-13 5.23888E-14
 -1      1647 1.99956E+01 3.38460E-01 6.58601E-05 2.62040E-02-3.77879E-13 1.42904E-13
 -1      1648 1.99966E+01 3.06597E-01 2.01577E-05 2.82203E-02-5.26492E-13 7.62812E-15
 -1      1649 1.99953E+01 2.83689E-01 9.26749E-04 6.07665E-02-4.17679E-13 2.70434E-13
 -1      1650 1.99945E+01 3.76088E-01 8.50756E-05 1.37968E-02-5.58923E-13-4.97657E-14
 -1      1651 1.99951E+01 3.58381E-01 6.65394E-05 1.64905E-02-4.23625E-13 1.85074E-14
 -1      1652 1.99926E+01 3.32872E-01 1.40864E-03 4.13909E-02-4.64212E-13-1.73174E-14
 -1      1653 1.99943E+01 3.84250E-01 8.56277E-05-8.56752E-04-1.47911E-13 2.05448E-13
 -1      1654 1.99943E+01 3.83609E-01 9.44042E-05 2.11345E-03-4.23845E-13 2.38267E-13
 -1      1655 1.99911E+01 3.60326E-01 1.68405E-03 1.54428E-02-2.45527E-13 2.04898E-13
 -1      1656 1.99949E+01 3.61416E-01 6.62080E-05-1.55446E-02-1.66507E-13 1.17065E-13
 -1      1657 1.99944E+01 3.78131E-01 1.05048E-04-1.27455E-02-2.08882E-13 4.50004E-14
 -1      1658 1.99910E+01 3.61808E-01 1.71913E-03-1.31423E-02-1.49686E-14 1.42116E-13
 -1      1659 1.99963E+01 3.10845E-01 1.58661E-05-2.79612E-02-3.41932E-13-2.50422E-13
 -1      1660 1.99953E+01 3.42446E-01 9.46792E-05-2.57881E-02-1.87206E-13-6.72411E-14
 -1      1661 1.99922E+01 3.36845E-01 1.49657E-03-4.00050E-02-2.65938E-13-1.14620E-14
 -1      1662 1.99983E+01 2.41682E-01-6.91890E-05-3.58810E-02-3.98655E-13 4.14329E-14
 -1      1663 1.99970E+01 2.82345E-01 2.49805E-05-3.47425E-02-3.03833E-13-2.47201E-13
 -1      1664 1.99949E+01 2.89419E-01 1.05004E-03-6.06952E-02-2.19380E-13-2.49961E-13
 -1      1665 2.00008E+01 1.62935E-01-2.39140E-04-3.78813E-02-4.98911E-14 1.07156E-13
 -1      1666 1.99993E+01 2.07015E-01-1.22267E-04-3.80272E-02-3.58788E-13 3.31305E-13
 -1      1667 1.99985E+01 2.26307E-01 3.86665E-04-7.16723E-02-1.90001E-13 2.33287E-13
 -1      1668 2.00033E+01 8.93624E-02-5.44038E-04-3.28663E-02 1.87006E-13 1.79544E-13
 -1      1669 2.00020E+01 1.28044E-01-3.88982E-04-3.44493E-02-1.01494E-14 2.40487E-13
 -1      1670 2.00028E+01 1.56510E-01-3.94938E-04-7.03792E-02-2.03443E-14 2.99452E-13
 -1      1671 2.00059E+01 3.52997E-02-2.05499E-04-2.15143E-02 1.17441E-14-2.46404E-13
 -1      1672 2.00041E+01 6.01276E-02-7.54462E-04-2.44816E-02 2.51390E-13-8.66024E-14
 -1      1673 2.00068E+01 9.19178E-02-1.09367E-03-5.58734E-02 1.52150E-14 7.62383E-14
 -1      1674 2.00086E+01 1.37924E-02 8.18113E-04-1.14991E-02-1.39472E-13-1.27569E-13
 -1      1675 2.00085E+01 2.21400E-02-6.61628E-04-1.62618E-02 5.76162E-14-2.47861E-13
 -1      1676 2.00157E+01 5.04138E-02-3.57250E-04-3.93512E-02 1.50740E-13-3.66638E-13
 -1      1677 2.00237E+01 2.54864E-02 6.86953E-04-2.49285E-02-5.49691E-16-1.97735E-13
 -1      1678-4.70967E-01-1.39907E+01-1.57216E+00-6.56621E-01 7.13485E-13 2.75474E-13
 -1      1679-5.16057E-01-1.60653E+01-1.74656E+00 5.04267E-01 5.80203E-13 1.14353E-13
 -1      1680 1.12486E+00-8.20994E+00-1.22926E+00 3.14442E-01 9.46465E-13 4.23828E-13
 -1      1681 5.12542E-01-1.31091E+01-1.71237E+00-1.32844E-01 8.86069E-13 3.60684E-13
 -1      1682 6.55942E+00-8.23292E-01-5.66814E-01 4.35636E+00 9.39471E-13 4.24549E-13
 -1      1683 3.71644E+00-6.21784E+00-1.28969E+00 1.66704E+00 9.79883E-13 4.42812E-13
 -1      1684 1.59665E+01 4.83964E+00 1.66363E-01 9.26228E+00 8.08242E-13 9.33809E-13
 -1      1685 1.00620E+01 1.28697E+00-6.77201E-01 5.65969E+00 8.36664E-13 6.59695E-13
 -1      1686 2.88762E+01 6.57295E+00 8.48609E-01 1.24020E+01 6.36380E-13 6.77680E-13
 -1      1687 2.07214E+01 5.87594E+00 4.85052E-02 1.01564E+01 7.43405E-13 8.26228E-13
 -1      1688 4.26071E+01 5.43629E+00 1.41308E+00 1.12279E+01 3.66901E-13 3.67484E-13
 -1      1689 3.38778E+01 6.73317E+00 7.57766E-01 1.19653E+01 5.03930E-13 6.59472E-13
 -1      1690 5.21562E+01 3.85614E+00 1.73615E+00 5.65377E+00 1.16296E-13 1.07470E-13
 -1      1691 4.64519E+01 5.34205E+00 1.35559E+00 9.65331E+00 2.93945E-13 3.15303E-13
 -1      1692 5.39444E+01 3.66345E+00 1.71672E+00-2.43195E+00 1.53155E-13-6.21725E-14
 -1      1693 5.37236E+01 3.74256E+00 1.71662E+00 3.21160E+00 8.23230E-14 7.75768E-14
 -1      1694 4.64650E+01 5.33167E+00 1.33982E+00-9.32883E+00 2.00173E-13-3.43281E-13
 -1      1695 5.22571E+01 3.81264E+00 1.70573E+00-4.95525E+00 1.42858E-13-1.47771E-13
 -1      1696 3.36107E+01 6.92990E+00 7.62417E-01-1.23078E+01 3.61877E-13-4.92717E-13
 -1      1697 4.27770E+01 5.52434E+00 1.45677E+00-1.15496E+01 2.08833E-13-3.57936E-13
 -1      1698 1.97910E+01 5.72040E+00-3.24667E-04-9.87019E+00 6.69798E-13-5.57110E-13
 -1      1699 2.84078E+01 6.70390E+00 8.88623E-01-1.24469E+01 4.04787E-13-4.58300E-13
 -1      1700 9.27171E+00-2.54585E-01-7.76257E-01-4.90723E+00 6.89893E-13-5.50227E-13
 -1      1701 1.52302E+01 3.90018E+00 9.90211E-02-8.72640E+00 6.72351E-13-5.73541E-13
 -1      1702 2.73781E+00-7.49819E+00-1.38924E+00-1.06676E+00 5.82423E-13-3.94906E-13
 -1      1703 4.96119E+00-1.92984E+00-7.05652E-01-3.35666E+00 7.85372E-13-6.77236E-13
 -1      1704 4.33703E-01-1.38134E+01-1.64583E+00-2.79108E-01 4.35207E-13-1.34059E-13
 -1      1705 1.00172E+00-9.26284E+00-1.21121E+00-4.42568E-01 4.90052E-13-2.59834E-13
 -1      1706-7.30922E-01-1.69734E+01-1.90602E+00-6.60675E-01 3.31152E-13-1.51296E-13
 -1      1707-7.50529E-01-1.56115E+01-1.75664E+00 8.76982E-01 4.39537E-13-6.24500E-14
 -1      1708-5.58734E-01-1.38356E+01-1.67041E+00-1.22104E+00-2.26485E-13-2.97179E-13
 -1      1709-5.17580E-01-1.67007E+01-1.92480E+00-1.54732E-01 1.59872E-13-2.36144E-13
 -1      1710 2.35360E+00-6.58000E+00-1.09087E+00 1.18461E+00-3.45057E-13-2.54130E-13
 -1      1711 1.15762E+00-1.19685E+01-1.64677E+00 2.11386E-02-3.28182E-13-1.20976E-13
 -1      1712 8.36564E+00 5.59195E-01-5.09131E-01 5.28820E+00-6.13065E-13-7.39742E-13
 -1      1713 4.75160E+00-4.46825E+00-1.26157E+00 2.17159E+00-3.89466E-13-4.43701E-13
 -1      1714 2.08983E+01 4.11894E+00 3.05823E-01 9.81560E+00-6.41487E-13-7.41185E-13
 -1      1715 1.39871E+01 1.36293E+00-5.10500E-01 6.47858E+00-6.14953E-13-6.65024E-13
 -1      1716 3.46172E+01 6.32138E+00 1.16607E+00 1.25797E+01-5.66436E-13-8.28893E-13
 -1      1717 2.52759E+01 6.24849E+00 2.80196E-01 1.09727E+01-6.64024E-13-8.86846E-13
 -1      1718 4.77809E+01 4.84187E+00 1.72078E+00 1.01297E+01-3.86996E-13-3.84803E-13
 -1      1719 3.95991E+01 6.32218E+00 1.08059E+00 1.19110E+01-5.95857E-13-7.43183E-13
 -1      1720 5.55433E+01 3.53388E+00 2.01994E+00 3.66579E+00-2.90712E-13 2.14495E-13
 -1      1721 5.11306E+01 4.69978E+00 1.70606E+00 8.25613E+00-3.59990E-13-2.38143E-13
 -1      1722 5.52881E+01 3.77835E+00 1.93931E+00-4.15083E+00-4.21302E-13 1.03650E-12
 -1      1723 5.63731E+01 3.47485E+00 2.01495E+00 1.16280E+00-2.94154E-13 4.16514E-13
 -1      1724 4.71878E+01 5.40535E+00 1.47987E+00-1.01679E+01-6.12302E-13 1.47427E-12
 -1      1725 5.34184E+01 3.90684E+00 1.94703E+00-6.47364E+00-5.24414E-13 1.13054E-12
 -1      1726 3.35520E+01 6.48094E+00 7.10409E-01-1.17481E+01-8.80962E-13 1.55009E-12
 -1      1727 4.28563E+01 5.37495E+00 1.47264E+00-1.13568E+01-6.09901E-13 1.57208E-12
 -1      1728 1.95749E+01 5.09451E+00-1.10902E-01-9.44529E+00-7.40408E-13 1.29896E-12
 -1      1729 2.81293E+01 6.21550E+00 7.77971E-01-1.21082E+01-8.51985E-13 1.66511E-12
 -1      1730 9.33719E+00 1.53882E-01-8.34144E-01-4.95199E+00-6.18394E-13 7.39631E-13
 -1      1731 1.48147E+01 3.88033E+00-2.14264E-03-8.45545E+00-7.07878E-13 1.10656E-12
 -1      1732 3.17582E+00-6.97613E+00-1.40909E+00-1.09141E+00-5.60885E-13 2.43916E-13
 -1      1733 5.71279E+00-1.66024E+00-7.27091E-01-3.57838E+00-5.52225E-13 5.11036E-13
 -1      1734 4.16885E-01-1.36926E+01-1.73599E+00 3.19957E-01 7.63833E-14 2.26014E-13
 -1      1735 9.99881E-01-8.92239E+00-1.29474E+00-4.52761E-02-4.02900E-13 3.37994E-13
 -1      1736-6.03912E-01-1.64272E+01-1.79087E+00-2.06462E-01 5.44315E-13 2.25681E-13
 -1      1737-6.49657E-01-1.47928E+01-1.66785E+00 1.09784E+00 1.56097E-13 9.33698E-14
 -1      1738 2.28093E+01 9.31936E-01 2.09743E-01 7.55895E+00 3.58158E-13 4.23217E-13
 -1      1739 1.33092E+01-3.17232E+00-3.84041E-01 6.35653E+00 6.19838E-13 3.26794E-13
 -1      1740 2.00039E+01 6.10325E-04 3.85704E-04-3.08999E-04-2.45746E-13 8.61548E-14
 -1      1741 2.00109E+01 1.54504E-02 1.36913E-04 1.07414E-02-1.87750E-13 8.51385E-14
 -1      1742 4.89896E-01-9.94856E+00-1.16617E+00 2.36079E+00 4.18110E-13 3.03646E-13
 -1      1743 5.54896E+00-7.16349E+00-8.57144E-01 4.51510E+00 5.23026E-13 2.33012E-13
 -1      1744-1.25083E+00-1.08975E+01-1.23440E+00 3.23856E-01 2.91461E-13 2.94542E-13
 -1      1745 3.28172E+01 3.91565E+00 7.71264E-01 7.26268E+00 3.98181E-13 2.55129E-13
 -1      1746 4.10295E+01 6.03172E+00 1.19765E+00 5.13161E+00 3.67900E-13 2.60014E-13
 -1      1747 4.59257E+01 7.22998E+00 1.47000E+00 1.98326E+00 2.38032E-13 1.80217E-13
 -1      1748 4.57003E+01 7.37756E+00 1.44176E+00-1.59574E+00 2.07667E-13 1.05832E-13
 -1      1749 4.11953E+01 6.16886E+00 1.24186E+00-5.21148E+00 1.81494E-13-1.27232E-13
 -1      1750 3.25528E+01 3.93091E+00 7.75617E-01-7.48871E+00 2.97484E-13-1.78524E-13
 -1      1751 2.21242E+01 1.30779E-01 1.15012E-01-7.29833E+00 3.37730E-13-1.40554E-13
 -1      1752 1.22231E+01-3.94002E+00-4.29025E-01-6.18399E+00 3.76921E-13-3.90354E-13
 -1      1753 4.44997E+00-7.66926E+00-9.01394E-01-4.23915E+00 3.31846E-13-2.88172E-13
 -1      1754-3.01218E-02-1.02331E+01-1.14174E+00-2.18994E+00 3.01759E-13-1.14464E-13
 -1      1755-1.31226E+00-1.17541E+01-1.37747E+00 2.65978E-01 2.10526E-13-3.56160E-13
 -1      1756 1.43719E+00-9.74840E+00-1.12373E+00 2.70541E+00-6.61693E-14-3.09919E-13
 -1      1757 7.44245E+00-6.53503E+00-7.78853E-01 4.81426E+00-1.60316E-13-4.01235E-13
 -1      1758 1.70906E+01-2.88381E+00-1.27129E-01 6.56096E+00-2.03726E-13-4.96159E-13
 -1      1759 2.68287E+01 3.84696E-01 1.74653E-01 6.70340E+00-3.21854E-13-4.38649E-13
 -1      1760 3.68042E+01 4.43992E+00 9.59715E-01 6.69729E+00-4.42757E-13-2.94542E-13
 -1      1761 4.46004E+01 6.36107E+00 1.44011E+00 4.42314E+00-5.21500E-13-8.93730E-14
 -1      1762 4.83679E+01 7.16780E+00 1.65902E+00 1.11603E+00-5.95690E-13 2.13302E-13
 -1      1763 4.74444E+01 6.96736E+00 1.60173E+00-2.46625E+00-5.58331E-13 4.53193E-13
 -1      1764 4.17021E+01 5.64809E+00 1.23020E+00-5.20872E+00-5.51087E-13 7.61058E-13
 -1      1765 3.27134E+01 3.22923E+00 7.12380E-01-7.01303E+00-4.71123E-13 1.03739E-12
 -1      1766 2.21699E+01-5.97401E-03 8.90737E-02-7.20360E+00-1.70863E-13 9.71001E-13
 -1      1767 1.25590E+01-3.86622E+00-4.86438E-01-5.90604E+00-3.39062E-13 6.67133E-13
 -1      1768 5.03517E+00-7.71675E+00-9.46431E-01-4.00630E+00-9.94760E-14 2.84765E-13
 -1      1769 2.55586E-01-1.02930E+01-1.19619E+00-1.98457E+00 2.27152E-13 4.02678E-13
 -1      1770 2.28292E+01 1.98329E+00-2.37222E-02-2.72048E+00-6.67209E-14 4.94049E-13
 -1      1771 1.98231E+01 3.71500E+00-3.55078E-02-2.14848E+00-1.16833E-13-4.02005E-14
 -1      1772 2.00537E+01 3.56182E+00-4.01845E-02-2.44154E+00-1.34741E-13 1.00822E-14
 -1      1773 2.03539E+01 3.18076E+00-4.56248E-02-2.58208E+00-1.32115E-13 7.24698E-14
 -1      1774 2.05680E+01 2.80847E+00-1.42412E-01-2.85054E+00-1.24227E-13 1.45564E-13
 -1      1775 2.04166E+01 2.69361E+00-4.39806E-03-2.22219E+00-1.37149E-13 4.74551E-14
 -1      1776 1.93658E+01 4.19479E+00-2.02292E-02-1.26675E+00-7.32081E-14-1.40509E-13
 -1      1777 1.94370E+01 4.15350E+00-1.74544E-02-1.49083E+00-8.29094E-14-1.15597E-13
 -1      1778 1.92726E+01 4.30213E+00-1.68242E-02-8.56394E-01-5.72565E-14-1.64145E-13
 -1      1779 1.93140E+01 4.27761E+00-1.42882E-02-1.06671E+00-6.45269E-14-1.57986E-13
 -1      1780 1.95388E+01 3.79061E+00-9.12490E-03-1.11531E+00-7.35936E-14-1.38721E-13
 -1      1781 1.92227E+01 4.36415E+00-1.48225E-02-4.64647E-01-2.83605E-14-1.57921E-13
 -1      1782 1.92440E+01 4.35085E+00-1.32766E-02-6.64308E-01-3.93327E-14-1.60309E-13
 -1      1783 1.94441E+01 3.91337E+00-9.08164E-03-7.29416E-01-4.78984E-14-1.47026E-13
 -1      1784 1.92038E+01 4.39056E+00-1.36700E-02-8.30890E-02-3.63224E-15-1.61982E-13
 -1      1785 1.92101E+01 4.38646E+00-1.31979E-02-2.77763E-01-1.30672E-14-1.61088E-13
 -1      1786 1.93949E+01 3.97958E+00-9.02461E-03-3.56147E-01-2.18050E-14-1.43871E-13
 -1      1787 1.92116E+01 4.38511E+00-1.31519E-02 2.96945E-01 1.78799E-14-1.60221E-13
 -1      1788 1.92042E+01 4.38974E+00-1.37511E-02 1.02121E-01 1.37178E-14-1.61655E-13
 -1      1789 1.93804E+01 3.99960E+00-9.00731E-03 1.06326E-02 4.14704E-15-1.50198E-13
 -1      1790 1.92477E+01 4.34684E+00-1.32943E-02 6.84150E-01 3.31098E-14-1.53441E-13
 -1      1791 1.92252E+01 4.36103E+00-1.49307E-02 4.84015E-01 3.06351E-14-1.61666E-13
 -1      1792 1.93974E+01 3.97633E+00-9.05593E-03 3.77578E-01 2.33331E-14-1.48577E-13
 -1      1793 1.93190E+01 4.27162E+00-1.43618E-02 1.08072E+00 6.41421E-14-1.20971E-13
 -1      1794 1.92769E+01 4.29684E+00-1.69978E-02 8.73213E-01 4.42205E-14-1.36845E-13
 -1      1795 1.94489E+01 3.90724E+00-9.07938E-03 7.47972E-01 4.03431E-14-1.32000E-13
 -1      1796 1.94470E+01 4.14202E+00-1.73470E-02 1.51022E+00 1.01651E-13-7.75179E-14
 -1      1797 1.93725E+01 4.18557E+00-2.05254E-02 1.28089E+00 8.09435E-14-9.79650E-14
 -1      1798 1.95462E+01 3.78092E+00-9.15196E-03 1.13054E+00 7.53757E-14-9.90631E-14
 -1      1799 1.96704E+01 3.92296E+00-2.51368E-02 1.97538E+00 1.26653E-13-3.93886E-14
 -1      1800 1.95407E+01 4.00077E+00-2.69026E-02 1.71804E+00 1.11843E-13-6.01776E-14
 -1      1801 1.97156E+01 3.57098E+00-8.65127E-03 1.52986E+00 1.11326E-13-5.46542E-14
 -1      1802 2.00709E+01 3.52248E+00-4.51145E-02 2.46828E+00 1.43236E-13 3.46112E-14
 -1      1803 1.98353E+01 3.68390E+00-3.96697E-02 2.17908E+00 1.29617E-13-8.96158E-15
 -1      1804 2.00058E+01 3.22515E+00-5.25196E-03 1.92954E+00 1.35469E-13-9.93650E-15
 -1      1805 2.09052E+01 2.68047E+00-5.75631E-02 2.85463E+00 1.37889E-13 1.63577E-13
 -1      1806 2.04037E+01 3.09605E+00-5.03257E-02 2.61276E+00 1.40470E-13 8.63615E-14
 -1      1807 2.05101E+01 2.61020E+00 3.18639E-03 2.24048E+00 1.47914E-13 6.91253E-14
 -1      1808 2.17068E+01 1.21241E+00-1.21961E-01 2.32772E+00 1.21000E-13 3.22978E-13
 -1      1809 2.12551E+01 2.26169E+00 1.29569E-04 2.73777E+00 1.31634E-13 2.11942E-13
 -1      1810 2.09215E+01 1.68471E+00-2.28996E-02 2.13723E+00 1.45394E-13 1.61642E-13
 -1      1811 2.09291E+01 7.78472E-01-6.23832E-02 1.52244E+00 1.06186E-13 2.85931E-13
 -1      1812 2.17739E+01 2.45649E+00 9.08269E-02-3.04573E+00-9.55312E-14 2.74669E-13
 -1      1813 2.00807E+01 2.98399E-01-8.85457E-03 6.54913E-01 1.10842E-13 2.22633E-13
 -1      1814 2.06316E+01 4.40648E-01-1.24061E-02 1.03208E+00 9.36820E-14 2.50847E-13
 -1      1815 2.07264E+01 8.45215E-01 2.22854E-03 1.41253E+00 1.26871E-13 1.88471E-13
 -1      1816 2.14878E+01 1.74205E+00 7.93967E-02-2.33456E+00-1.14658E-13 2.23148E-13
 -1      1817 2.05035E+01 5.01098E-01 3.25786E-02-9.18868E-01-1.07726E-13 1.96253E-13
 -1      1818 2.00731E+01 3.52967E-01 7.71335E-03-6.26583E-01-9.61540E-14 1.71316E-13
 -1      1819 1.98806E+01 2.58943E-01 2.74879E-02-3.87000E-01-8.29380E-14 1.68715E-13
 -1      1820 1.96921E+01 1.80297E-01 1.06087E-02-2.47997E-01-7.47961E-14 1.40670E-13
 -1      1821 2.01896E+01 4.85815E-01-5.83828E-03-7.17399E-01-1.04173E-13 1.10723E-13
 -1      1822 1.95734E+01 1.35498E-01 1.67981E-02-1.12328E-01-4.34401E-14 1.54229E-13
 -1      1823 1.94993E+01 9.65820E-02 7.28341E-03-3.96579E-02-2.49670E-14 1.41860E-13
 -1      1824 1.98686E+01 2.47803E-01-5.86606E-03-2.86363E-01-6.37307E-14 1.04493E-13
 -1      1825 1.94391E+01 7.26636E-02 8.86898E-03 3.70641E-02-3.70392E-14 1.43198E-13
 -1      1826 1.94309E+01 5.20264E-02 4.55599E-03 7.61190E-02-4.50761E-14 1.31105E-13
 -1      1827 1.96939E+01 1.31065E-01-4.83487E-03-4.35240E-02-3.05964E-14 9.98444E-14
 -1      1828 1.94118E+01 3.87161E-02 4.48163E-03 1.19575E-01-4.89721E-14 1.29343E-13
 -1      1829 1.94412E+01 2.76935E-02 3.05652E-03 1.40573E-01-3.16034E-14 1.01454E-13
 -1      1830 1.96190E+01 6.96797E-02-3.75620E-03 9.50785E-02-4.75233E-14 1.04557E-13
 -1      1831 1.94496E+01 2.04072E-02 2.18317E-03 1.65278E-01-4.70973E-14 8.20877E-14
 -1      1832 1.95010E+01 1.50957E-02 2.31080E-03 1.76708E-01-3.63045E-14 7.08491E-14
 -1      1833 1.96118E+01 3.67129E-02-2.74242E-03 1.74539E-01-4.78243E-14 6.29920E-14
 -1      1834 1.95277E+01 1.16520E-02 9.84797E-04 1.91531E-01-2.86324E-14 4.55167E-14
 -1      1835 1.95927E+01 1.00998E-02 2.00574E-03 1.98637E-01-1.64734E-14 8.06404E-14
 -1      1836 1.96496E+01 2.03224E-02-1.97289E-03 2.21180E-01-4.12182E-14-8.13558E-15
 -1      1837 1.96324E+01 9.34421E-03 3.85606E-04 2.09453E-01-2.98138E-14 6.90206E-14
 -1      1838 1.97073E+01 1.04997E-02 2.00098E-03 2.15824E-01-3.38519E-14 6.60131E-14
 -1      1839 1.97183E+01 1.47107E-02-1.48435E-03 2.51675E-01-2.62066E-14-1.67088E-14
 -1      1840 1.97573E+01 1.17713E-02 1.40635E-04 2.26833E-01-5.56097E-14 2.07063E-14
 -1      1841 1.98415E+01 1.50433E-02 2.23515E-03 2.35142E-01-6.85272E-14-1.03561E-14
 -1      1842 1.98098E+01 1.67940E-02-1.23802E-03 2.77439E-01-7.41419E-14-1.12261E-13
 -1      1843 1.99010E+01 1.79422E-02 1.17869E-04 2.49554E-01-7.56630E-14-1.26289E-14
 -1      1844 1.99961E+01 2.29894E-02 2.67506E-03 2.61942E-01-5.27871E-14-5.82520E-14
 -1      1845 1.99209E+01 2.48311E-02-1.18023E-03 3.06867E-01-7.13281E-14-4.44526E-14
 -1      1846 2.00658E+01 2.72526E-02 2.34433E-04 2.82347E-01-4.61534E-14-5.89711E-14
 -1      1847 2.01753E+01 3.38540E-02 3.29284E-03 3.00611E-01-3.99818E-14-9.53406E-14
 -1      1848 2.00517E+01 3.77856E-02-1.26301E-03 3.46511E-01-5.44599E-14-9.88469E-14
 -1      1849 2.02571E+01 3.92606E-02 4.29294E-04 3.29156E-01-3.58177E-15-8.10511E-14
 -1      1850 2.03857E+01 4.71949E-02 4.04934E-03 3.54812E-01 1.48012E-14-2.79759E-14
 -1      1851 2.02049E+01 5.49409E-02-1.44639E-03 4.01693E-01-3.07245E-14-5.17801E-14
 -1      1852 2.04823E+01 5.34545E-02 6.49728E-04 3.93196E-01 2.49239E-14-3.00295E-14
 -1      1853 2.06358E+01 6.23375E-02 4.87277E-03 4.27385E-01-1.97342E-14-6.51462E-15
 -1      1854 2.03852E+01 7.55483E-02-1.69631E-03 4.76706E-01 5.15856E-14 9.04902E-16
 -1      1855 2.07502E+01 6.89224E-02 8.43580E-04 4.76644E-01-6.52406E-14 1.94537E-14
 -1      1856 2.09347E+01 7.79468E-02 5.62676E-03 5.19808E-01-2.41447E-14 1.83279E-14
 -1      1857 2.05985E+01 9.83557E-02-1.98381E-03 5.74576E-01-1.58515E-14 3.44828E-14
 -1      1858 2.10704E+01 8.38166E-02 9.56717E-04 5.79768E-01-1.05276E-14 9.55260E-15
 -1      1859 2.12915E+01 9.13256E-02 6.06477E-03 6.30972E-01 1.98368E-14 2.11893E-14
 -1      1860 2.08515E+01 1.20862E-01-2.28847E-03 6.96247E-01-2.58905E-14 1.33637E-14
 -1      1861 2.14518E+01 9.44850E-02 9.40004E-04 6.99203E-01-8.11872E-15 5.13696E-14
 -1      1862 2.17125E+01 9.73159E-02 5.77481E-03 7.54879E-01 5.76123E-15 3.78848E-14
 -1      1863 2.11508E+01 1.38115E-01-2.60830E-03 8.38870E-01-2.02160E-15 8.47239E-14
 -1      1864 2.19005E+01 9.41728E-02 7.73772E-04 8.24905E-01 2.16298E-15 3.42434E-15
 -1      1865 2.21990E+01 8.67918E-02 4.13826E-03 8.76825E-01-7.47048E-14 3.04865E-14
 -1      1866 2.15026E+01 1.40902E-01-2.97561E-03 9.92793E-01-2.55243E-14 9.02211E-14
 -1      1867 2.24176E+01 7.14285E-02 5.17404E-04 9.35409E-01-9.59998E-14 9.40196E-14
 -1      1868 2.27429E+01 4.51988E-02 3.65429E-04 9.67861E-01 1.13101E-14 7.78002E-14
 -1      1869 2.19115E+01 1.13481E-01-3.46840E-03 1.13680E+00-5.79614E-14 1.15989E-13
 -1      1870 2.29944E+01 9.10184E-03 3.68581E-04 9.91539E-01 5.46069E-14 2.12313E-14
 -1      1871 2.33209E+01-4.71346E-02-6.23979E-03 9.78505E-01 5.99039E-14 2.41773E-14
 -1      1872 2.23805E+01 3.19813E-02-4.17588E-03 1.23163E+00-2.82892E-14 5.44139E-14
 -1      1873 2.36062E+01-1.13282E-01 6.89848E-04 9.30755E-01 7.75712E-14 5.01214E-14
 -1      1874 2.38887E+01-2.08577E-01-1.56258E-02 8.35929E-01 6.52776E-15 1.13385E-13
 -1      1875 2.29098E+01-1.33043E-01-4.99430E-03 1.21334E+00 7.56472E-14 3.30959E-14
 -1      1876 2.42025E+01-3.07858E-01 1.57369E-03 6.69076E-01 6.25862E-14 2.07588E-13
 -1      1877 2.43755E+01-4.35385E-01-2.56521E-02 4.54906E-01 1.83992E-13 2.38256E-13
 -1      1878 2.34923E+01-4.02055E-01-5.17950E-03 9.91900E-01 1.36543E-13 2.19122E-13
 -1      1879 2.46915E+01-5.48022E-01 1.93664E-03 1.28053E-01 1.15505E-13 2.95041E-13
 -1      1880 2.46797E+01-6.64253E-01-3.15445E-02-2.15837E-01 1.40625E-13 3.91393E-13
 -1      1881 2.40987E+01-7.46577E-01-2.68320E-03 4.69072E-01 1.75855E-13 3.33827E-13
 -1      1882 2.49322E+01-7.29671E-01-2.11801E-03-6.95292E-01 1.75974E-13 3.69976E-13
 -1      1883 2.46850E+01-7.31711E-01-2.46609E-02-1.10695E+00 1.40089E-13 3.13647E-13
 -1      1884 2.46490E+01-1.03611E+00 3.88778E-03-3.98821E-01 1.47454E-13 3.35808E-13
 -1      1885 2.47486E+01-6.36270E-01-1.38265E-02-1.60240E+00 5.98488E-14 2.36271E-13
 -1      1886 2.42925E+01-4.12574E-01-3.18143E-03-1.89630E+00-1.27115E-13 1.89907E-13
 -1      1887 2.49736E+01-9.86599E-01 1.32258E-02-1.48401E+00 9.16038E-14 1.96305E-13
 -1      1888 2.40857E+01-9.57448E-02-2.98231E-02-2.11421E+00-2.36195E-13 2.46440E-13
 -1      1889 2.35690E+01 3.33454E-01 1.89908E-02-2.04859E+00-2.01594E-13 1.69115E-13
 -1      1890 2.48683E+01-3.30032E-01 1.13199E-02-2.32465E+00-1.12431E-13 2.58139E-13
 -1      1891 2.32031E+01 7.52708E-01-3.18022E-02-1.69882E+00-1.55667E-13 1.28146E-13
 -1      1892 2.28580E+01 1.11806E+00 1.59844E-02-1.17143E+00-9.20028E-14 1.75164E-14
 -1      1893 2.43346E+01 8.17892E-01-1.79373E-02-2.24317E+00-1.88530E-13 3.41125E-13
 -1      1894 2.26752E+01 1.31343E+00-1.07500E-02-3.21572E-01-5.78496E-14-8.41905E-14
 -1      1895 2.26851E+01 1.29997E+00-1.30910E-02 4.18212E-01-8.78186E-14-1.38532E-13
 -1      1896 2.38033E+01 1.76695E+00-5.15367E-02-9.08101E-01-2.04788E-13 4.67421E-15
 -1      1897 2.28899E+01 1.08359E+00 1.72911E-02 1.25070E+00-4.91412E-14-1.74042E-13
 -1      1898 2.32518E+01 7.04010E-01-3.20808E-02 1.75421E+00-1.02827E-13-1.33952E-13
 -1      1899 2.38232E+01 1.73870E+00-4.83014E-02 1.01605E+00-1.12601E-13-1.35059E-13
 -1      1900 2.36164E+01 2.81817E-01 1.80309E-02 2.06766E+00-1.40127E-13-4.83346E-14
 -1      1901 2.41362E+01-1.41168E-01-2.92655E-02 2.10603E+00-9.36941E-14 1.57478E-14
 -1      1902 2.43725E+01 7.47763E-01-1.55736E-02 2.28289E+00 3.10516E-15-2.88404E-14
 -1      1903 2.43272E+01-4.46324E-01-5.18597E-03 1.86070E+00-1.62246E-13 6.82510E-14
 -1      1904 2.47738E+01-6.53974E-01-1.32784E-02 1.55237E+00-1.65282E-13 3.68022E-15
 -1      1905 2.48888E+01-3.90276E-01 1.10512E-02 2.29335E+00-1.12734E-13 1.11284E-13
 -1      1906 2.46942E+01-7.34637E-01-2.60280E-02 1.05173E+00-2.22294E-13-4.16733E-14
 -1      1907 2.49274E+01-7.21925E-01-2.21947E-03 6.41806E-01-1.30269E-13-5.93812E-15
 -1      1908 2.49638E+01-1.00368E+00 1.21739E-02 1.41918E+00-1.81603E-13 1.73558E-13
 -1      1909 2.46710E+01-6.52272E-01-3.17433E-02 1.70535E-01-2.92405E-14-4.69958E-14
 -1      1910 2.46706E+01-5.33664E-01 1.49317E-03-1.66326E-01 8.40179E-14-1.05244E-13
 -1      1911 2.46215E+01-1.02216E+00 2.72841E-03 3.41799E-01-1.39364E-13 6.94102E-14
 -1      1912 2.43542E+01-4.19842E-01-2.54039E-02-4.82733E-01 1.90309E-13-1.32330E-13
 -1      1913 2.41741E+01-2.92963E-01 1.40909E-03-6.88190E-01 2.00184E-13-1.42447E-13
 -1      1914 2.40671E+01-7.24669E-01-3.54902E-03-5.06404E-01 8.62817E-14 8.92385E-15
 -1      1915 2.38633E+01-1.95203E-01-1.50346E-02-8.45246E-01 2.04077E-13-1.24190E-13
 -1      1916 2.35788E+01-1.02044E-01 7.48103E-04-9.33005E-01 1.68949E-13 6.81295E-14
 -1      1917 2.34630E+01-3.80643E-01-5.40644E-03-1.00671E+00 2.36026E-13 7.28020E-14
 -1      1918 2.32977E+01-3.76206E-02-5.70932E-03-9.73602E-01-5.01569E-14 3.21462E-14
 -1      1919 2.29737E+01 1.69120E-02 5.67587E-04-9.81551E-01-1.88331E-13-1.38783E-13
 -1      1920 2.28871E+01-1.17232E-01-5.07148E-03-1.21000E+00 2.93992E-14 7.28883E-14
 -1      1921 2.27274E+01 5.18349E-02 7.49375E-04-9.52711E-01-1.59514E-13-5.56777E-14
 -1      1922 2.24081E+01 7.71432E-02 7.96391E-04-9.16582E-01-8.35342E-14 7.58241E-14
 -1      1923 2.23668E+01 4.30467E-02-4.25303E-03-1.21496E+00-1.31758E-13 1.18137E-13
 -1      1924 2.21958E+01 9.19699E-02 4.39259E-03-8.53928E-01-1.62522E-14 1.01787E-14
 -1      1925 2.19062E+01 9.91448E-02 1.12467E-03-7.98965E-01 1.52336E-13 1.01212E-13
 -1      1926 2.19090E+01 1.21820E-01-3.58459E-03-1.11000E+00 2.85189E-15 2.41222E-13
 -1      1927 2.17257E+01 1.02267E-01 5.94983E-03-7.25120E-01 1.34170E-13 3.08180E-14
 -1      1928 2.14766E+01 9.97737E-02 1.37012E-03-6.66376E-01-6.35559E-16 3.14450E-14
 -1      1929 2.15140E+01 1.48451E-01-3.12894E-03-9.57244E-01 1.25783E-13 1.84162E-13
 -1      1930 2.13254E+01 9.69684E-02 6.20369E-03-5.93922E-01-2.54393E-14 2.84326E-14
 -1      1931 2.11190E+01 9.01965E-02 1.48190E-03-5.39134E-01 7.15719E-14 4.65505E-14
 -1      1932 2.11792E+01 1.46382E-01-2.79357E-03-7.94330E-01-2.05608E-15 6.58719E-14
 -1      1933 2.09944E+01 8.49541E-02 5.75769E-03-4.74063E-01 1.19772E-13-1.24896E-14
 -1      1934 2.08278E+01 7.69772E-02 1.48410E-03-4.26430E-01 2.15446E-13 1.71516E-13
 -1      1935 2.09003E+01 1.30957E-01-2.50050E-03-6.41260E-01 1.37014E-13 2.77800E-13
 -1      1936 2.07267E+01 7.12332E-02 5.00720E-03-3.70816E-01 3.68708E-13 1.21340E-13
 -1      1937 2.05952E+01 6.36676E-02 1.42444E-03-3.30981E-01 4.08201E-13 2.97399E-13
 -1      1938 2.06721E+01 1.11130E-01-2.21332E-03-5.06790E-01 2.97192E-13 3.04415E-13
 -1      1939 2.05145E+01 5.84332E-02 4.17921E-03-2.84729E-01 3.45913E-13 4.35810E-13
 -1      1940 2.04129E+01 5.20776E-02 1.34657E-03-2.51994E-01 2.43519E-13 5.10149E-13
 -1      1941 2.04884E+01 9.17179E-02-1.92768E-03-3.93108E-01 4.88979E-13 3.02783E-13
 -1      1942 2.03495E+01 4.78665E-02 3.38307E-03-2.13880E-01-7.09805E-14 4.82398E-13
 -1      1943 2.02730E+01 4.30824E-02 1.27193E-03-1.86881E-01-1.84246E-13 3.99351E-13
 -1      1944 2.03430E+01 7.51773E-02-1.64845E-03-2.98826E-01 1.10977E-13 2.68207E-13
 -1      1945 2.02240E+01 4.01114E-02 2.65473E-03-1.55177E-01-3.08005E-13 3.55091E-13
 -1      1946 2.01684E+01 3.69983E-02 1.20485E-03-1.32311E-01-2.62465E-13 1.24151E-13
 -1      1947 2.02299E+01 6.26168E-02-1.38256E-03-2.20747E-01-2.84146E-13 4.56026E-13
 -1      1948 2.01310E+01 3.51178E-02 1.94521E-03-1.05193E-01-1.66565E-13 9.88290E-15
 -1      1949 2.00931E+01 3.33117E-02 1.10378E-03-8.50192E-02-6.26203E-14 1.53553E-13
 -1      1950 2.01436E+01 5.43900E-02-1.06489E-03-1.55114E-01-3.31362E-13 1.33381E-13
 -1      1951 2.00677E+01 3.13983E-02 1.43609E-03-6.25132E-02-6.00891E-14 8.27299E-14
 -1      1952 2.00437E+01 2.94197E-02 1.07356E-03-4.50756E-02 2.29707E-14-8.48117E-15
 -1      1953 2.00391E+01 3.90456E-02-8.05289E-04-5.42404E-02-2.01902E-14-9.82448E-14
 -1      1954 2.00814E+01 4.74009E-02-1.25730E-03-9.99254E-02-1.72801E-13 5.09821E-14
 -1      1955 1.96017E+01 1.43086E-01 7.96237E-03 2.55854E-01 6.35741E-14 1.84023E-13
 -1      1956 1.98720E+01 2.04905E-01 1.65038E-02 4.29452E-01 8.95881E-14 2.08793E-13
 -1      1957 2.00873E+01 3.51527E-01-1.57865E-03 6.51155E-01 1.01603E-13 1.60615E-13
 -1      1958 1.93652E+01 7.37455E-02 7.07220E-03 5.02082E-02 5.64479E-14 1.37642E-13
 -1      1959 1.94773E+01 1.03315E-01 1.43051E-02 1.39880E-01 5.22507E-14 1.68600E-13
 -1      1960 1.96994E+01 1.67115E-01-2.02766E-03 2.49824E-01 6.71503E-14 1.51937E-13
 -1      1961 1.92840E+01 3.90077E-02 4.61674E-03-5.95629E-02-1.05558E-15 1.12892E-13
 -1      1962 1.93094E+01 5.44262E-02 8.50440E-03-1.04571E-02 1.98118E-14 1.18265E-13
 -1      1963 1.95066E+01 8.38617E-02-2.94726E-03 3.34846E-02 3.05775E-14 9.63583E-14
 -1      1964 1.92965E+01 2.04040E-02 3.13380E-03-1.18490E-01 1.41651E-14 8.02166E-14
 -1      1965 1.92739E+01 2.87682E-02 4.59534E-03-9.09944E-02 4.63930E-15 1.02471E-13
 -1      1966 1.94388E+01 4.22908E-02-3.01539E-03-8.50992E-02 2.02789E-15 7.16100E-14
 -1      1967 1.93650E+01 1.05000E-02 2.36869E-03-1.49753E-01 2.52916E-14 1.04005E-13
 -1      1968 1.93155E+01 1.49064E-02 2.48293E-03-1.34176E-01 1.49058E-14 9.50962E-14
 -1      1969 1.94490E+01 2.05952E-02-2.54422E-03-1.50316E-01 1.09742E-14 5.57241E-14
 -1      1970 1.94674E+01 5.88397E-03 1.96312E-03-1.66613E-01 1.94259E-14 9.63449E-14
 -1      1971 1.94024E+01 7.86967E-03 1.39672E-03-1.57333E-01 2.07375E-14 1.07181E-13
 -1      1972 1.95078E+01 9.71903E-03-2.00910E-03-1.86342E-01 1.59569E-14 4.90575E-14
 -1      1973 1.95917E+01 4.77966E-03 1.75075E-03-1.77425E-01 5.54882E-14 4.39251E-14
 -1      1974 1.95172E+01 5.20275E-03 8.57277E-04-1.70826E-01 2.93687E-14 8.43959E-14
 -1      1975 1.95977E+01 5.47719E-03-1.59271E-03-2.07593E-01 4.19061E-14 5.50695E-14
 -1      1976 1.97325E+01 6.12416E-03 1.66503E-03-1.87822E-01-9.85589E-15 7.02664E-14
 -1      1977 1.96507E+01 5.52781E-03 6.28260E-04-1.81407E-01 4.37812E-14 4.91920E-14
 -1      1978 1.97091E+01 5.63844E-03-1.32944E-03-2.23374E-01 4.53445E-14 9.09422E-14
 -1      1979 1.98889E+01 9.17603E-03 1.67197E-03-2.01704E-01 2.09127E-14 6.30793E-14
 -1      1980 1.97998E+01 7.95010E-03 5.88766E-04-1.93694E-01 3.39664E-14 7.05899E-14
 -1      1981 1.98377E+01 8.82841E-03-1.20242E-03-2.40005E-01 2.33574E-14 1.13782E-13
 -1      1982 2.00630E+01 1.33032E-02 1.73962E-03-2.21671E-01 8.35215E-14 1.10621E-15
 -1      1983 1.99650E+01 1.17788E-02 6.64263E-04-2.10834E-01 3.21179E-14-7.23594E-15
 -1      1984 1.99832E+01 1.40344E-02-1.18479E-03-2.61790E-01 6.78599E-14-1.12504E-15
 -1      1985 2.02588E+01 1.78255E-02 1.82534E-03-2.49110E-01 7.37845E-14-4.74809E-14
 -1      1986 2.01494E+01 1.63460E-02 7.95386E-04-2.34740E-01 1.29446E-13 9.60319E-15
 -1      1987 2.01474E+01 2.03182E-02-1.25089E-03-2.91407E-01 1.43060E-13-6.00289E-14
 -1      1988 2.04810E+01 2.18606E-02 1.86722E-03-2.84005E-01-2.73966E-14 1.72087E-14
 -1      1989 2.03574E+01 2.08483E-02 9.23716E-04-2.66026E-01-3.75151E-14-5.74106E-14
 -1      1990 2.03336E+01 2.65865E-02-1.37542E-03-3.29890E-01-1.36577E-15 2.13668E-14
 -1      1991 2.07336E+01 2.41536E-02 1.77689E-03-3.24468E-01-6.64513E-14 4.10673E-14
 -1      1992 2.05935E+01 2.41794E-02 9.83444E-04-3.03678E-01-4.18897E-14 3.19208E-14
 -1      1993 2.05456E+01 3.13583E-02-1.52945E-03-3.76275E-01-3.99852E-14 3.31900E-14
 -1      1994 2.10179E+01 2.29010E-02 1.43646E-03-3.65971E-01 1.73705E-14 1.82432E-14
 -1      1995 2.08608E+01 2.47483E-02 8.96986E-04-3.44434E-01-2.77099E-14 2.57434E-14
 -1      1996 2.07860E+01 3.25168E-02-1.67482E-03-4.26909E-01-4.12883E-14-2.54914E-14
 -1      1997 2.13307E+01 1.56222E-02 7.07533E-04-4.00327E-01 4.90287E-14 2.95139E-14
 -1      1998 2.11590E+01 2.03148E-02 5.76570E-04-3.81899E-01 3.32818E-14 2.62069E-14
 -1      1999 2.10550E+01 2.70830E-02-1.75597E-03-4.74420E-01 5.71296E-14-1.50498E-15
 -1      2000 2.16614E+01-7.73069E-04-5.33831E-04-4.14596E-01 6.41064E-14-3.67690E-14
 -1      2001 2.14823E+01 7.94457E-03-6.40653E-05-4.05509E-01 9.02848E-14-3.34129E-14
 -1      2002 2.13485E+01 1.11459E-02-1.68741E-03-5.06498E-01 1.10978E-13-9.00005E-14
 -1      2003 2.19888E+01-2.94165E-02-2.31931E-03-3.90489E-01-1.01693E-13-1.19909E-13
 -1      2004 2.18160E+01-1.56806E-02-1.08062E-03-3.99713E-01-1.55631E-14-1.10618E-13
 -1      2005 2.16558E+01-1.97485E-02-1.33781E-03-5.04880E-01 4.05491E-14-8.34506E-14
 -1      2006 2.22785E+01-7.19417E-02-4.46454E-03-3.05444E-01-1.73327E-13-7.30739E-14
 -1      2007 2.21337E+01-5.31906E-02-2.45491E-03-3.44225E-01-1.40128E-13-1.20787E-13
 -1      2008 2.19570E+01-6.92075E-02-5.19712E-04-4.45489E-01-1.16422E-13-1.46271E-13
 -1      2009 2.24822E+01-1.25453E-01-6.42960E-03-1.37399E-01-1.05259E-13-1.02596E-14
 -1      2010 2.23948E+01-1.04133E-01-4.04101E-03-2.16944E-01-1.45845E-13 9.47636E-15
 -1      2011 2.22209E+01-1.36888E-01 9.86593E-04-3.01498E-01-1.64287E-13-6.52282E-14
 -1      2012 2.25415E+01-1.78191E-01-7.29048E-03 1.24204E-01 1.20020E-13-4.42925E-14
 -1      2013 2.25449E+01-1.60987E-01-5.53151E-03-1.78606E-03 1.78130E-14-1.22554E-14
 -1      2014 2.24041E+01-2.13283E-01 3.32972E-03-5.19060E-02 2.04428E-14-6.26643E-14
 -1      2015 2.23998E+01-2.06253E-01-6.02143E-03 4.60404E-01-1.17163E-14-5.32612E-14
 -1      2016 2.25225E+01-2.04795E-01-6.41118E-03 2.96862E-01 5.74662E-14 4.30862E-15
 -1      2017 2.24541E+01-2.74077E-01 6.33406E-03 3.02026E-01 6.18602E-14-1.28832E-13
 -1      2018 2.20253E+01-1.77227E-01-2.42804E-03 8.03286E-01-7.59622E-14-5.11119E-14
 -1      2019 2.22767E+01-2.04848E-01-6.08319E-03 6.35291E-01-9.37844E-14-8.23040E-14
 -1      2020 2.23206E+01-2.79250E-01 9.14712E-03 7.14265E-01-4.97874E-14 1.35894E-14
 -1      2021 2.14441E+01-6.74945E-02 1.90271E-03 1.03245E+00-1.15227E-13 2.67036E-13
 -1      2022 2.17983E+01-1.29766E-01-4.09088E-03 9.18552E-01-1.32422E-13 6.11681E-14
 -1      2023 2.19801E+01-1.87029E-01 9.77307E-03 1.07700E+00-1.69063E-13 1.07025E-13
 -1      2024 2.07694E+01 1.09593E-01 4.02184E-03 1.01148E+00-2.46743E-13 4.67374E-13
 -1      2025 2.11562E+01 2.69084E-02-2.45173E-04 1.01681E+00-1.78410E-13 4.02983E-13
 -1      2026 2.14721E+01 1.43245E-02 6.14121E-03 1.23418E+00-2.37807E-13 2.61605E-13
 -1      2027 2.01980E+01 2.86760E-01 2.07521E-03 6.69836E-01-1.73568E-14 4.96853E-13
 -1      2028 2.05127E+01 2.20072E-01 5.02777E-03 8.25614E-01-1.14234E-13 4.39344E-13
 -1      2029 2.09262E+01 2.72138E-01-1.54137E-03 1.04801E+00-1.39709E-13 3.67439E-13
 -1      2030 1.99419E+01 3.71668E-01-2.01987E-03 8.26996E-02 9.84672E-14 4.31472E-13
 -1      2031 2.00809E+01 3.59510E-01 1.02681E-02 3.50394E-01 1.25143E-14 4.80061E-13
 -1      2032 2.05385E+01 4.74481E-01-8.52657E-03 5.03505E-01-3.03958E-14 4.15696E-13
 -1      2033 2.01128E+01 3.13793E-01-4.38689E-03-5.36355E-01 8.47065E-14 4.77304E-13
 -1      2034 2.00229E+01 3.66120E-01 1.25512E-02-2.56850E-01 6.50105E-14 5.64786E-13
 -1      2035 2.04755E+01 5.13375E-01-9.52841E-03-2.31911E-01 3.24376E-14 4.94592E-13
 -1      2036 2.06454E+01 1.49176E-01-2.57628E-03-9.54844E-01 1.95608E-13 2.81164E-13
 -1      2037 2.03561E+01 2.37251E-01 1.01878E-02-7.66416E-01 1.81756E-13 4.24674E-13
 -1      2038 2.07654E+01 3.65242E-01-4.90031E-03-8.77973E-01 1.86926E-13 4.75772E-13
 -1      2039 2.13383E+01-3.32136E-02 1.91796E-03-1.05625E+00 1.90467E-14 1.82274E-13
 -1      2040 2.09464E+01 4.68583E-02 4.27284E-03-1.00700E+00 5.98434E-14 2.14577E-13
 -1      2041 2.12788E+01 1.12444E-01 1.30988E-03-1.20897E+00 1.30936E-13 2.93569E-13
 -1      2042 2.19704E+01-1.57472E-01 5.43173E-03-8.78858E-01 1.63255E-14 2.13188E-13
 -1      2043 2.15913E+01-1.13892E-01-2.35062E-03-9.49561E-01 6.05375E-15 1.99431E-13
 -1      2044 2.18171E+01-1.24661E-01 4.03455E-03-1.17077E+00 1.94645E-14 1.32047E-13
 -1      2045 2.23990E+01-2.00615E-01 6.28430E-03-5.52079E-01 5.12802E-14 2.08211E-13
 -1      2046 2.21178E+01-1.95731E-01-7.04563E-03-6.86852E-01 5.94316E-15 1.77502E-13
 -1      2047 2.22230E+01-2.62920E-01 3.30205E-03-8.67127E-01 4.35398E-14 1.82791E-13
 -1      2048 2.25821E+01-1.81672E-01 4.92360E-03-2.06325E-01 4.06680E-14 2.70999E-13
 -1      2049 2.24345E+01-2.01686E-01-8.83828E-03-3.50248E-01 8.93816E-14 2.76243E-13
 -1      2050 2.24289E+01-2.91225E-01 1.34355E-03-4.58705E-01 3.51637E-14 2.41843E-13
 -1      2051 2.25491E+01-1.32688E-01 2.72472E-03 7.61804E-02 2.03895E-13 3.01521E-14
 -1      2052 2.25285E+01-1.61661E-01-8.23780E-03-4.24441E-02 1.18192E-13 1.66807E-13
 -1      2053 2.24410E+01-2.44853E-01-1.80957E-04-7.58312E-02 2.02465E-13 1.96631E-13
 -1      2054 2.23604E+01-7.91547E-02 7.98641E-04 2.65535E-01 2.63691E-13-7.35709E-14
 -1      2055 2.24373E+01-1.06298E-01-6.28250E-03 1.84976E-01 2.53768E-13 2.40450E-14
 -1      2056 2.23034E+01-1.68039E-01-8.03057E-04 2.13033E-01 2.98781E-13 6.20036E-14
 -1      2057 2.20796E+01-3.47065E-02-4.48156E-04 3.66625E-01-2.89237E-14-1.97044E-13
 -1      2058 2.22180E+01-5.52179E-02-3.93277E-03 3.22485E-01 1.25267E-13-1.00820E-13
 -1      2059 2.20693E+01-9.24777E-02-8.27214E-04 3.92211E-01 1.62747E-13-5.50866E-14
 -1      2060 2.17594E+01-3.52021E-03-1.03534E-03 3.99810E-01 3.78837E-15-3.57924E-13
 -1      2061 2.19275E+01-1.66898E-02-1.81352E-03 3.83950E-01-7.61904E-14-2.96092E-13
 -1      2062 2.17862E+01-3.32498E-02-6.40898E-04 4.76390E-01-4.16241E-14-1.60192E-13
 -1      2063 2.14372E+01 1.53970E-02-1.16305E-03 3.88037E-01-1.78928E-13-3.20562E-13
 -1      2064 2.16113E+01 8.33570E-03-1.97766E-04 3.91120E-01-1.17400E-13-3.63967E-13
 -1      2065 2.14901E+01 6.38972E-03-4.66347E-04 4.91328E-01-9.38562E-14-3.48900E-13
 -1      2066 2.11369E+01 2.49679E-02-1.03595E-03 3.50668E-01-2.81738E-13-1.54410E-14
 -1      2067 2.13014E+01 2.22469E-02 8.73142E-04 3.64732E-01-1.50257E-13-9.40812E-14
 -1      2068 2.12054E+01 2.91542E-02-3.70980E-04 4.62463E-01-2.85055E-13-2.47156E-13
 -1      2069 2.08710E+01 2.82833E-02-8.00955E-04 3.01692E-01-1.36383E-14-3.62762E-13
 -1      2070 2.10176E+01 2.82821E-02 1.47902E-03 3.20931E-01-1.75454E-13-2.48480E-13
 -1      2071 2.09467E+01 3.96272E-02-3.44230E-04 4.10064E-01-1.02078E-13-2.15381E-13
 -1      2072 2.06447E+01 2.79109E-02-5.40551E-04 2.50068E-01-2.65851E-14-1.12835E-13
 -1      2073 2.07696E+01 2.93748E-02 1.74162E-03 2.70729E-01-4.12723E-14-3.32528E-13
 -1      2074 2.07213E+01 4.22120E-02-3.54075E-04 3.48258E-01-6.43680E-14-3.63682E-13
 -1      2075 2.04582E+01 2.57683E-02-2.92264E-04 2.00769E-01 2.76934E-13-3.43726E-13
 -1      2076 2.05610E+01 2.78068E-02 1.77936E-03 2.20754E-01 1.89872E-13-2.01898E-13
 -1      2077 2.05314E+01 4.04176E-02-3.73465E-04 2.85771E-01 2.35648E-13-3.38934E-13
 -1      2078 2.03091E+01 2.32119E-02-7.16560E-05 1.55860E-01 3.04513E-13-4.63510E-13
 -1      2079 2.03909E+01 2.52280E-02 1.68609E-03 1.74304E-01 3.05834E-13-3.39835E-13
 -1      2080 2.03759E+01 3.67953E-02-3.91425E-04 2.27157E-01 3.28667E-13-2.71392E-13
 -1      2081 2.01940E+01 2.11284E-02 9.72087E-05 1.15413E-01 1.49358E-13-3.60953E-13
 -1      2082 2.02565E+01 2.27716E-02 1.52022E-03 1.32331E-01 2.30087E-13-2.69230E-13
 -1      2083 2.02523E+01 3.31055E-02-4.07717E-04 1.73984E-01 1.69980E-13-9.96743E-14
 -1      2084 2.01092E+01 1.99364E-02 1.71750E-04 7.84482E-02 7.07003E-14-2.71305E-13
 -1      2085 2.01544E+01 2.10569E-02 1.28873E-03 9.43311E-02 1.53290E-13-3.52008E-13
 -1      2086 2.01571E+01 3.03107E-02-4.54557E-04 1.25936E-01 1.58009E-13-4.23310E-14
 -1      2087 2.00518E+01 1.95018E-02 4.44443E-04 4.41196E-02-1.86633E-13-2.53655E-13
 -1      2088 2.00808E+01 2.00474E-02 9.51571E-04 5.92733E-02-1.06449E-14-2.80161E-13
 -1      2089 2.00869E+01 2.87815E-02-4.53633E-04 8.19728E-02-5.64171E-14 7.63148E-14
 -1      2090 2.00220E+01 1.79453E-02 7.39710E-04 2.07533E-02-3.36344E-13-3.47430E-14
 -1      2091 2.00387E+01 2.00914E-02 6.58128E-04 3.40701E-02-3.73822E-13-1.96255E-13
 -1      2092 2.00448E+01 2.85420E-02-3.61258E-04 4.96213E-02-3.01359E-13 1.59457E-13
 -1      2093 2.00222E+01 2.60864E-02 6.49493E-05 2.78825E-02-3.64487E-13 2.47322E-13
 -1      2094 2.00043E+01 1.76577E-01-4.00649E-04 9.82088E-02 9.78683E-14 1.33298E-14
 -1      2095 2.00107E+01 1.45059E-01 6.96932E-04 9.38690E-02 1.03687E-13-1.44220E-13
 -1      2096 2.00166E+01 1.14366E-01-5.49123E-05 8.48106E-02-6.86787E-14-2.97157E-13
 -1      2097 2.00218E+01 8.69391E-02 7.99676E-04 7.35643E-02-6.05499E-14-1.58800E-14
 -1      2098 2.00203E+01 1.36555E-01-1.37551E-04 1.16051E-01 4.27392E-14-1.10787E-13
 -1      2099 2.00227E+01 6.48278E-02 1.98936E-04 5.87881E-02-2.25914E-13 4.45348E-14
 -1      2100 2.00246E+01 4.40158E-02 6.58907E-04 4.42693E-02-3.20600E-13 5.87324E-14
 -1      2101 2.00350E+01 4.60561E-02 4.10767E-04 5.55535E-02-2.72454E-13 1.23050E-13
 -1      2102 2.00312E+01 8.49400E-02-4.00890E-04 8.88440E-02-2.64922E-13 1.64321E-13
 -1      2103 1.99922E+01 2.38024E-01-7.69001E-04 9.60964E-02-9.83120E-14-1.20975E-13
 -1      2104 1.99984E+01 2.06985E-01 2.75627E-04 9.86937E-02-9.16722E-14 3.24446E-14
 -1      2105 2.00023E+01 1.97217E-01 1.96206E-04 1.26251E-01 1.12486E-13-1.05720E-13
 -1      2106 1.99816E+01 2.92844E-01-1.08901E-03 7.91046E-02-1.99965E-13 1.74050E-13
 -1      2107 1.99868E+01 2.65859E-01-2.06905E-04 8.80685E-02-2.04168E-13 4.00747E-13
 -1      2108 1.99848E+01 2.55352E-01 5.78201E-04 1.17503E-01 1.04111E-13 7.03038E-14
 -1      2109 1.99740E+01 3.32485E-01-1.27911E-03 4.99855E-02-2.35168E-13 1.85805E-14
 -1      2110 1.99776E+01 3.14151E-01-6.67515E-04 6.38084E-02-2.14418E-13-3.85945E-14
 -1      2111 1.99702E+01 3.04496E-01 9.31704E-04 9.10277E-02-3.07842E-14 7.72493E-14
 -1      2112 1.99702E+01 3.51432E-01-1.29794E-03 1.31259E-02-1.60717E-13 3.04855E-13
 -1      2113 1.99717E+01 3.44545E-01-1.02467E-03 2.97187E-02-2.71643E-13 2.12565E-13
 -1      2114 1.99602E+01 3.37909E-01 1.18536E-03 5.08350E-02-4.45314E-14 1.37877E-13
 -1      2115 1.99709E+01 3.46901E-01-1.12769E-03-2.60695E-02-1.23163E-13 3.36250E-14
 -1      2116 1.99700E+01 3.52588E-01-1.23207E-03-9.17505E-03-1.34131E-13 1.24131E-13
 -1      2117 1.99562E+01 3.51147E-01 1.30085E-03 2.76077E-03-2.63938E-13 2.91412E-13
 -1      2118 1.99760E+01 3.19321E-01-7.84225E-04-6.17221E-02-2.77369E-13-1.62178E-13
 -1      2119 1.99728E+01 3.36854E-01-1.26085E-03-4.71312E-02-1.91644E-13-7.63191E-14
 -1      2120 1.99588E+01 3.42238E-01 1.25360E-03-4.62359E-02-2.66094E-13-3.86139E-14
 -1      2121 1.99851E+01 2.73381E-01-2.93195E-04-8.78127E-02-2.12147E-13-1.18906E-13
 -1      2122 1.99799E+01 2.99621E-01-1.13218E-03-7.80446E-02-2.16957E-13-6.12907E-14
 -1      2123 1.99679E+01 3.12394E-01 1.06915E-03-8.85456E-02-1.49324E-13-8.93032E-14
 -1      2124 1.99973E+01 2.13917E-01 2.57525E-04-1.00602E-01 5.92568E-14 5.10274E-13
 -1      2125 1.99906E+01 2.45811E-01-8.63261E-04-9.72215E-02-7.70221E-14 3.03484E-13
 -1      2126 1.99825E+01 2.65164E-01 7.14788E-04-1.17834E-01-2.58074E-14 1.30386E-13
 -1      2127 2.00109E+01 1.49856E-01 7.20353E-04-9.66234E-02 1.07136E-13 2.86100E-13
 -1      2128 2.00038E+01 1.82155E-01-5.15165E-04-1.00868E-01 5.01915E-14 3.80979E-13
 -1      2129 2.00012E+01 2.05984E-01 3.08665E-04-1.29149E-01 1.44998E-13 4.55147E-13
 -1      2130 2.00225E+01 8.78816E-02 2.01766E-04-7.57743E-02 5.15695E-15-7.21327E-14
 -1      2131 2.00172E+01 1.17756E-01-1.29216E-04-8.73630E-02-1.11353E-13 3.68035E-13
 -1      2132 2.00209E+01 1.42873E-01 3.48724E-06-1.19512E-01-1.54569E-13 1.07687E-13
 -1      2133 9.89698E+00-5.05683E+00-1.23534E-01 6.47340E+00 3.26850E-13-2.10908E-14
 -1      2134 6.38287E+00-6.59869E+00-3.85315E-01 5.21683E+00 2.69673E-13 5.72320E-14
 -1      2135 3.73436E-01-6.67052E+00-3.37601E-01 1.06054E+00 3.04368E-13 2.09222E-13
 -1      2136 3.11641E-01-6.98268E+00-3.76108E-01-5.52538E-01 1.49200E-13 3.04867E-13
 -1      2137 3.80198E+00-6.31490E+00-2.74694E-01 4.42993E+00 2.25153E-13 1.76525E-13
 -1      2138 1.90422E+00-6.74823E+00-3.37901E-01 3.12938E+00 1.76692E-13 1.85907E-13
 -1      2139 7.20179E+00-5.17378E+00-1.23111E-01 5.96995E+00 9.03166E-14 7.70495E-14
 -1      2140 1.81498E+01-3.04440E+00-1.06172E-03 7.01532E+00 2.69673E-13 1.15297E-13
 -1      2141 1.37406E+01-4.98655E+00-2.99071E-01 6.26272E+00 3.29403E-13 4.39371E-14
 -1      2142 2.65727E+01-6.06838E-01 1.49203E-01 6.13459E+00 1.28841E-13 1.62093E-14
 -1      2143 2.18752E+01-2.44056E+00-1.77313E-01 5.93383E+00 8.55982E-14 1.07525E-13
 -1      2144 1.95308E+01 4.02046E+00-2.49839E-02-1.69572E+00-9.05083E-14-9.59805E-14
 -1      2145 1.96516E+01 3.94560E+00-2.46145E-02-1.95207E+00-1.07115E-13-6.21621E-14
 -1      2146 1.99659E+01 3.23958E+00-1.87016E-02-1.92085E+00-1.14907E-13-4.41574E-14
 -1      2147 1.97032E+01 3.59445E+00-6.60993E-03-1.51491E+00-8.24104E-14-9.12673E-14
 -1      2148 3.81465E+01 5.36929E+00 3.12027E-01 2.08211E+00 2.79055E-13 3.99125E-14
 -1      2149 3.52292E+01 4.22545E+00 1.35646E-01 2.94610E+00 3.28571E-13 1.00586E-13
 -1      2150 3.99129E+01 7.09160E+00 2.88655E-01 2.51500E-01 1.63314E-13 1.64993E-13
 -1      2151 3.88522E+01 6.68457E+00 2.46243E-01 1.38704E+00 2.01172E-13 1.55986E-13
 -1      2152 3.81893E+01 6.85080E+00 1.69847E-01-1.03886E+00 2.29539E-13 9.54792E-14
 -1      2153 3.95204E+01 7.20824E+00 2.83982E-01-9.01822E-02 2.41696E-13 1.90476E-13
 -1      2154 3.51500E+01 4.15447E+00 1.38190E-01-3.05998E+00 1.49547E-13-7.87148E-14
 -1      2155 3.76840E+01 5.30707E+00 2.12726E-01-1.78679E+00 1.73417E-13 1.04916E-14
 -1      2156 2.89839E+01 6.28957E-01-5.87177E-02-4.65683E+00 2.03004E-13-3.33067E-15
 -1      2157 3.34369E+01 2.30496E+00 2.42513E-01-4.25936E+00 1.79454E-13-1.69864E-14
 -1      2158 2.17066E+01-2.71720E+00-1.48914E-01-5.80285E+00 1.37779E-13 4.53526E-14
 -1      2159 2.66150E+01-5.94208E-01 1.73962E-01-6.13614E+00 2.18492E-13 1.21569E-14
 -1      2160 2.89870E+01-1.52782E+00 1.35939E-01-3.26785E+00 1.61440E-13 1.08524E-13
 -1      2161 1.22442E+01-5.48844E+00-3.14037E-01-6.18256E+00 1.38889E-13-1.47451E-13
 -1      2162 1.69581E+01-3.76579E+00-2.86783E-02-7.09702E+00 9.14824E-14 2.97817E-14
 -1      2163 5.92330E+00-6.30783E+00-2.65557E-01-5.25202E+00 1.86740E-13-9.06497E-14
 -1      2164 8.96529E+00-5.38587E+00-1.66153E-01-6.24312E+00 1.74416E-13-1.90070E-13
 -1      2165 1.32152E+01-5.46646E+00-5.23653E-02-6.99254E+00-6.27831E-14-4.88776E-14
 -1      2166 8.43805E-01-7.18527E+00-4.32665E-01-1.88435E+00 1.76553E-13-8.30447E-14
 -1      2167 2.47498E+00-5.84626E+00-2.23509E-01-3.66965E+00 2.12219E-13-1.20848E-13
 -1      2168 4.67275E-01-7.27429E+00-4.09550E-01 1.32189E+00 6.58362E-14-5.63105E-13
 -1      2169 6.30362E-02-7.44311E+00-4.33307E-01-1.64224E-01 1.59865E-13-2.69063E-13
 -1      2170 4.71924E+00-5.94552E+00-2.22325E-01 4.68021E+00-4.09672E-14-2.05003E-13
 -1      2171 2.19878E+00-7.27284E+00-4.50607E-01 2.98047E+00 9.45910E-14-3.91465E-13
 -1      2172 1.25130E+01-5.09187E+00-1.46882E-01 6.50611E+00 2.48690E-14-3.64472E-13
 -1      2173 8.72463E+00-6.41627E+00-3.27849E-01 5.55847E+00 1.45439E-14-2.71005E-13
 -1      2174 2.12743E+01-4.00013E+00-1.25094E-01 6.18567E+00 5.80647E-14-2.83884E-13
 -1      2175 1.61740E+01-5.09713E+00-3.03584E-01 5.98625E+00 6.67244E-14-3.47111E-13
 -1      2176 1.71561E+01-5.64597E+00 2.64716E-02 6.58057E+00 2.38920E-13-2.48468E-13
 -1      2177 3.03915E+01 1.86414E-01 2.91506E-01 5.07515E+00-2.38864E-13-1.57208E-13
 -1      2178 2.59533E+01-2.14787E+00-1.12780E-02 4.84993E+00-1.01530E-13-2.00617E-13
 -1      2179 3.64307E+01 3.16565E+00 3.54276E-01 3.42922E+00-3.62481E-13-3.04201E-14
 -1      2180 3.22893E+01 1.54624E+00 3.68701E-02 3.95297E+00-2.54075E-13-1.50435E-13
 -1      2181 3.14545E+01-5.42070E-01 1.31602E-01 1.97106E+00-1.44919E-13-1.08802E-14
 -1      2182 4.06931E+01 5.89910E+00 4.53125E-01 1.54636E+00-5.39457E-13 7.76601E-14
 -1      2183 3.80700E+01 4.95821E+00 2.50013E-01 2.44676E+00-4.77590E-13-1.24345E-14
 -1      2184 4.21469E+01 7.06584E+00 4.82633E-01-1.01457E-01-5.62383E-13 1.29754E-13
 -1      2185 4.14688E+01 6.84520E+00 4.24586E-01 1.04309E+00-5.21194E-13 1.30784E-13
 -1      2186 4.05381E+01 6.31496E+00 3.71794E-01-1.62128E+00-5.86808E-13 2.85105E-13
 -1      2187 4.20111E+01 6.83821E+00 4.95790E-01-5.30601E-01-5.95080E-13 1.86212E-13
 -1      2188 3.59609E+01 3.77838E+00 1.56615E-01-2.81803E+00-4.09478E-13 4.72511E-13
 -1      2189 3.94886E+01 5.05869E+00 4.47412E-01-2.22021E+00-4.86167E-13 3.44891E-13
 -1      2190 2.92671E+01 1.62655E-01-3.34714E-02-4.64887E+00-1.64174E-13 6.72795E-13
 -1      2191 3.38673E+01 1.77937E+00 2.52495E-01-4.15030E+00-3.70745E-13 5.93192E-13
 -1      2192 2.14900E+01-3.23757E+00-2.20233E-01-5.67551E+00 1.04250E-13 7.18092E-13
 -1      2193 2.63671E+01-1.40452E+00 1.19547E-01-5.93132E+00 4.13003E-14 8.97393E-13
 -1      2194 1.32006E+01-5.54457E+00-3.58156E-01-5.92373E+00-9.17044E-14 4.02928E-13
 -1      2195 1.76088E+01-3.78369E+00-5.04011E-02-6.73245E+00-6.22835E-14 5.94857E-13
 -1      2196 5.92773E+00-6.91683E+00-4.19445E-01-4.78576E+00 1.37446E-13 3.22992E-13
 -1      2197 9.26196E+00-5.53907E+00-2.19525E-01-5.90741E+00-1.29674E-13 3.02203E-13
 -1      2198 1.50793E+00-6.94169E+00-3.61234E-01-2.34201E+00 2.54380E-13 2.45193E-13
 -1      2199 3.32714E+00-6.31274E+00-2.58595E-01-3.87365E+00 2.36700E-13 3.30957E-13
 -1      2200 3.34812E+01 2.43663E+00 2.40312E-01 4.37010E+00 1.90070E-13 1.49325E-13
 -1      2201 2.92491E+01 9.65953E-01-7.93803E-03 4.91545E+00 2.49883E-13 1.32561E-13
 -1      2202 2.88300E+01-1.45354E+00 1.40977E-01 3.52908E+00-2.43972E-14-1.27454E-13
 -1      2203 2.07169E+01 1.10848E+00-2.08167E-02-1.61326E+00-1.16469E-13 1.90303E-13
 -1      2204 3.32572E+01 2.67094E+00 2.35038E-01 1.35590E+00 1.88585E-13-4.17999E-14
 -1      2205 2.06145E+01 1.33262E+00-1.79100E-02-1.67364E+00-1.27787E-13 1.16717E-13
 -1      2206 2.50472E+00-4.70870E+00-1.55476E-01 2.62035E+00 1.50935E-13 1.82077E-13
 -1      2207 1.41710E+01-5.45386E+00-7.08939E-02 6.92375E+00 8.13238E-14-1.98040E-13
 -1      2208 2.00286E+01 7.28998E-02 4.47648E-04-7.11675E-02 5.61023E-14-1.67600E-13
 -1      2209 2.27220E+00-4.56626E+00-1.46634E-01-1.93871E+00 2.27332E-13 2.80054E-13
 -1      2210 2.23430E+01-4.27739E+00 3.53571E-02 5.85489E+00-3.71925E-15-1.47660E-13
 -1      2211 6.43889E+00-5.41690E+00-1.74067E-01-5.26369E+00 2.17493E-13 4.19803E-13
 -1      2212 1.37392E+01-5.80876E+00-1.02885E-01-6.65985E+00 4.15223E-14 4.34361E-13
 -1      2213 2.20682E+01-4.94773E+00 1.68849E-02-5.67450E+00 1.39444E-13 4.85195E-13
 -1      2214 2.89632E+01-2.28782E+00 1.13203E-01-3.32658E+00 7.48290E-14 5.35239E-13
 -1      2215 3.39980E+01 1.97420E+00 2.23640E-01-1.14576E+00-2.43264E-13 2.24820E-13
 -1      2216 3.68441E+01 6.05065E+00 3.59001E-01 4.19869E-02-5.37792E-13 8.62643E-14
 -1      2217 3.80645E+01 7.89043E+00 4.28294E-01 2.87749E-02-5.86475E-13 4.00791E-14
 -1      2218 3.52732E+01 3.59371E+00 2.75768E-01 4.99152E-01-3.74922E-13 1.07914E-13
 -1      2219 2.47169E+01-3.82860E+00 2.20537E-02 4.80992E+00 7.91589E-14-1.78302E-13
 -1      2220 2.39581E+01-5.07686E+00 1.81520E-01 4.83234E+00 1.81272E-13-4.44367E-14
 -1      2221 2.72611E+01-4.24259E+00-2.21329E-01 3.06816E+00 1.17947E-13 1.50990E-14
 -1      2222 8.85057E+00-5.42417E+00-8.49178E-02 5.99094E+00 1.59983E-13-2.16493E-13
 -1      2223 2.76329E+00-4.87819E+00-1.76743E-01 2.86526E+00 7.53009E-14-4.97546E-13
 -1      2224 5.95981E+00-4.87565E+00-7.95135E-02-5.23720E+00 7.57172E-14-9.65339E-14
 -1      2225 2.16578E+01-4.56318E+00 1.50363E-02-5.96044E+00-3.18634E-14 1.51795E-13
 -1      2226 3.29726E+01 2.46447E+00 2.34612E-01-1.01626E+00 1.10092E-13-2.90323E-14
 -1      2227 3.48584E+01 6.43727E+00 2.34561E-01 9.35837E-02 2.69784E-13-8.09353E-14
 -1      2228 3.53540E+01 6.46496E+00 2.87603E-01 3.09831E-02 1.69087E-13-5.31242E-14
 -1      2229 3.54564E+01 8.11104E+00 2.65420E-01 5.72007E-02 1.73805E-13 3.50206E-14
 -1      2230 1.69505E+00-4.59892E+00-1.77941E-01-1.29311E+00 7.78405E-14-2.50411E-13
 -1      2231 3.74413E+01 7.05714E+00 3.93482E-01-1.10330E-01-5.49449E-13 5.79536E-14
 -1      2232 2.01385E+01 5.09074E-01 3.88629E-03 6.71951E-01 7.99569E-14 1.34053E-13
 -1      2233 2.04043E+01 7.01804E-01 2.08181E-02 9.64661E-01 1.05029E-13 1.33510E-13
 -1      2234 1.95739E+01 3.52927E+00-1.11786E-02-5.86986E-01-3.84776E-14-1.30732E-13
 -1      2235 1.96088E+01 3.48229E+00-1.04815E-02-7.70575E-01-5.40586E-14-1.38616E-13
 -1      2236 1.96547E+01 3.39198E+00-1.28644E-02-9.34099E-01-5.57938E-14-1.39875E-13
 -1      2237 1.97144E+01 3.31013E+00-1.27301E-02-1.12353E+00-6.65286E-14-1.19582E-13
 -1      2238 1.97992E+01 3.04779E+00 4.24801E-04-7.84889E-01-3.88924E-14-1.27047E-13
 -1      2239 1.95272E+01 3.61401E+00-9.64777E-03 9.89163E-02 8.47297E-15-1.33215E-13
 -1      2240 1.95266E+01 3.61482E+00-9.65489E-03-7.93584E-02-1.22771E-14-1.32097E-13
 -1      2241 1.95528E+01 3.57369E+00-9.72279E-03 4.42422E-01 2.29855E-14-1.40030E-13
 -1      2242 1.95357E+01 3.59676E+00-1.01906E-02 2.62708E-01 1.29294E-14-1.42986E-13
 -1      2243 1.96923E+01 3.24031E+00-7.55125E-04 1.68042E-01 4.81004E-15-1.32014E-13
 -1      2244 1.96135E+01 3.47508E+00-1.05905E-02 7.84390E-01 4.93367E-14-1.19006E-13
 -1      2245 1.95779E+01 3.52300E+00-1.12769E-02 6.03800E-01 3.64362E-14-1.37376E-13
 -1      2246 1.97286E+01 3.17524E+00-3.74261E-04 4.83534E-01 2.68096E-14-1.33020E-13
 -1      2247 1.97220E+01 3.29838E+00-1.29045E-02 1.13646E+00 7.99684E-14-8.01850E-14
 -1      2248 1.96605E+01 3.38293E+00-1.29563E-02 9.47695E-01 6.41291E-14-9.56761E-14
 -1      2249 1.98045E+01 3.03876E+00 3.57068E-04 7.96984E-01 5.56294E-14-9.27322E-14
 -1      2250 1.98973E+01 3.00941E+00-1.81147E-02 1.48337E+00 1.12179E-13-3.24914E-14
 -1      2251 1.98000E+01 3.15199E+00-1.52472E-02 1.29298E+00 9.69023E-14-5.60038E-14
 -1      2252 1.99314E+01 2.80984E+00 1.97899E-03 1.10204E+00 7.75338E-14-5.39378E-14
 -1      2253 2.01692E+01 2.54685E+00-2.83585E-02 1.78848E+00 1.31624E-13 1.22680E-14
 -1      2254 2.00215E+01 2.78738E+00-1.71104E-02 1.61372E+00 1.16913E-13-1.44936E-14
 -1      2255 2.01221E+01 2.45540E+00 5.89264E-03 1.36812E+00 1.01131E-13-1.68181E-14
 -1      2256 1.98669E+01 2.72825E-01 4.96518E-03 2.75533E-01 6.94063E-14 1.12348E-13
 -1      2257 2.00244E+01 3.71479E-01 2.02049E-02 4.34623E-01 8.06568E-14 1.29521E-13
 -1      2258 2.02067E+01 6.38971E-01-2.37003E-03 6.95730E-01 9.49128E-14 9.05968E-14
 -1      2259 2.03954E+01 8.58767E-01 1.35690E-02-9.93013E-01-1.07036E-13 8.83059E-14
 -1      2260 2.01852E+01 6.31311E-01-4.48524E-03-6.83618E-01-9.74377E-14 7.78041E-14
 -1      2261 3.17660E+01 2.61953E+00-1.38721E-01-3.42986E-01 1.69226E-13-1.55487E-13
 -1      2262 3.06728E+01 6.22568E-01-5.55403E-02 4.89982E-01 3.81500E-14-1.28730E-13
 -1      2263 2.01222E+01 4.75524E-01 1.62108E-02-4.64224E-01-7.68404E-14 8.75884E-14
 -1      2264 1.99850E+01 3.51834E-01 3.59997E-04-2.90127E-01-4.45989E-14 8.37181E-14
 -1      2265 2.02457E+01 7.56147E-01-8.29166E-04-6.82382E-01-8.41876E-14 5.04408E-14
 -1      2266 1.99245E+01 2.68584E-01 1.08973E-02-1.48932E-01-3.19816E-14 8.28272E-14
 -1      2267 1.98511E+01 1.99356E-01 1.11159E-03-4.76088E-02-3.31965E-14 7.87248E-14
 -1      2268 2.00866E+01 4.27249E-01-3.80426E-03-2.92066E-01-4.37469E-14 6.00617E-14
 -1      2269 1.98111E+01 1.52180E-01 6.43460E-03 4.02135E-02-4.94708E-14 8.70145E-14
 -1      2270 1.97837E+01 1.12819E-01 1.25510E-03 9.95324E-02-5.06606E-14 7.90725E-14
 -1      2271 1.99734E+01 2.44057E-01-3.83762E-03-4.26425E-02-3.89372E-14 4.35665E-14
 -1      2272 1.97639E+01 8.59578E-02 3.61891E-03 1.53445E-01-6.65126E-14 4.49986E-14
 -1      2273 1.97676E+01 6.43315E-02 1.34246E-03 1.88513E-01-5.79404E-14 1.00980E-14
 -1      2274 1.99086E+01 1.39200E-01-3.21226E-03 1.13032E-01-8.68225E-14 3.05433E-14
 -1      2275 1.97642E+01 5.00271E-02 1.90130E-03 2.22139E-01-6.59401E-14-1.61119E-14
 -1      2276 1.97888E+01 3.98374E-02 1.46472E-03 2.43997E-01-7.17211E-14-3.38152E-14
 -1      2277 1.98840E+01 8.09366E-02-2.48694E-03 2.10190E-01-9.15821E-14-1.62116E-14
 -1      2278 1.97980E+01 3.39814E-02 8.42273E-04 2.66828E-01-5.57898E-14-6.16854E-14
 -1      2279 1.98375E+01 3.17573E-02 1.65392E-03 2.82853E-01-4.02677E-14-7.49863E-14
 -1      2280 1.98904E+01 5.25865E-02-1.89089E-03 2.73412E-01-9.27892E-14-6.16660E-14
 -1      2281 1.98564E+01 3.20179E-02 1.88805E-04 3.01734E-01-7.49035E-14-9.37004E-14
 -1      2282 1.99076E+01 3.57442E-02 1.93265E-03 3.17200E-01-9.24666E-14-8.82055E-14
 -1      2283 1.99202E+01 4.49569E-02-1.47122E-03 3.20173E-01-7.31183E-14-8.90344E-14
 -1      2284 1.99344E+01 4.07227E-02-2.08128E-04 3.37268E-01-7.04514E-14-7.76455E-14
 -1      2285 1.99962E+01 4.91817E-02 2.31240E-03 3.56173E-01-6.64885E-14-5.98128E-14
 -1      2286 1.99684E+01 5.26975E-02-1.20691E-03 3.63308E-01-8.41085E-14-1.21211E-13
 -1      2287 2.00300E+01 5.79911E-02-4.43674E-04 3.81438E-01-5.15423E-14-1.90065E-14
 -1      2288 2.01031E+01 7.03949E-02 2.79372E-03 4.06958E-01-3.85293E-14-3.02267E-14
 -1      2289 2.00323E+01 7.25434E-02-1.05990E-03 4.12600E-01-5.39111E-14-7.06318E-14
 -1      2290 2.01437E+01 8.23916E-02-5.81784E-04 4.40641E-01-1.85563E-14 2.43983E-14
 -1      2291 2.02297E+01 9.81058E-02 3.36364E-03 4.75340E-01 3.58475E-14 9.27549E-14
 -1      2292 2.01108E+01 1.02331E-01-9.91633E-04 4.75742E-01 1.52643E-14 5.70888E-14
 -1      2293 2.02774E+01 1.12643E-01-6.63782E-04 5.20014E-01 6.54102E-14 2.65323E-14
 -1      2294 2.03789E+01 1.30884E-01 3.98827E-03 5.65852E-01 5.50110E-14 2.97789E-14
 -1      2295 2.02040E+01 1.40266E-01-9.69118E-04 5.58845E-01 3.27803E-14 2.51323E-14
 -1      2296 2.04346E+01 1.46995E-01-7.08342E-04 6.23377E-01-8.41352E-15 1.23125E-14
 -1      2297 2.05545E+01 1.66401E-01 4.59923E-03 6.81470E-01-6.77063E-15 2.86165E-14
 -1      2298 2.03132E+01 1.84140E-01-9.70409E-04 6.66534E-01 1.74992E-14-4.42393E-14
 -1      2299 2.06194E+01 1.82312E-01-7.03249E-04 7.52681E-01-1.97893E-14 3.21139E-14
 -1      2300 2.07607E+01 2.00273E-01 5.07281E-03 8.22705E-01-1.71872E-14 7.32076E-14
 -1      2301 2.04401E+01 2.30235E-01-9.96999E-04 8.01585E-01-1.04267E-14-2.55253E-14
 -1      2302 2.08370E+01 2.12643E-01-5.85875E-04 9.06734E-01-4.76902E-14 6.15492E-14
 -1      2303 2.10024E+01 2.24255E-01 5.20162E-03 9.85817E-01-2.74963E-14 6.08353E-14
 -1      2304 2.05876E+01 2.71633E-01-1.10016E-03 9.63960E-01-1.47466E-14 3.54712E-14
 -1      2305 2.10940E+01 2.27020E-01-2.09492E-04 1.07888E+00-2.70632E-14 2.26966E-15
 -1      2306 2.12854E+01 2.23611E-01 4.66155E-03 1.15978E+00-5.04897E-14 2.71442E-14
 -1      2307 2.07605E+01 2.95653E-01-1.42636E-03 1.14900E+00-7.07804E-14-4.52336E-15
 -1      2308 2.13999E+01 2.06494E-01 6.99336E-04 1.25321E+00-5.22205E-14 3.35222E-14
 -1      2309 2.16179E+01 1.73939E-01 2.98159E-03 1.32164E+00-3.54092E-14 3.32092E-14
 -1      2310 2.09680E+01 2.80293E-01-2.28350E-03 1.34446E+00-4.68043E-14-3.21768E-14
 -1      2311 2.17700E+01 1.21156E-01 2.56759E-03 1.39880E+00-2.83247E-14 8.42010E-14
 -1      2312 2.20136E+01 3.91247E-02-4.60080E-04 1.43016E+00 3.88686E-15 5.45653E-14
 -1      2313 2.12280E+01 1.90386E-01-4.20321E-03 1.52587E+00-1.78732E-14 8.75788E-14
 -1      2314 2.22282E+01-6.98814E-02 5.90571E-03 1.46228E+00 5.84006E-14 5.54293E-14
 -1      2315 2.24938E+01-2.24478E-01-6.21514E-03 1.41909E+00 1.03781E-13 6.04196E-14
 -1      2316 2.15735E+01-2.35813E-02-7.87912E-03 1.64983E+00 3.39379E-14 9.28091E-14
 -1      2317 2.28074E+01-4.07708E-01 1.11846E-02 1.36053E+00 9.72588E-14 1.20279E-13
 -1      2318 2.30847E+01-6.47016E-01-1.45619E-02 1.19456E+00 1.81608E-13 1.58509E-13
 -1      2319 2.20589E+01-4.16069E-01-1.35920E-02 1.64541E+00 1.17537E-13 1.30755E-13
 -1      2320 2.35363E+01-8.98043E-01 1.73182E-02 9.79282E-01 2.07038E-13 9.25579E-14
 -1      2321 2.37993E+01-1.18252E+00-2.29435E-02 6.45101E-01 1.87474E-13 2.00169E-13
 -1      2322 2.27576E+01-1.01198E+00-2.04134E-02 1.40559E+00 1.45545E-13 6.89130E-14
 -1      2323 2.43874E+01-1.42763E+00 1.92761E-02 2.14106E-01 1.42929E-13 2.19827E-13
 -1      2324 2.45861E+01-1.63284E+00-2.99725E-02-2.86519E-01 1.37560E-13 2.10865E-13
 -1      2325 2.37224E+01-1.70651E+00-2.31330E-02 7.95227E-01 1.89952E-13 4.42335E-14
 -1      2326 2.52087E+01-1.68460E+00 1.80231E-03-9.58187E-01 8.21509E-14 2.64406E-13
 -1      2327 2.52600E+01-1.51346E+00-2.20879E-02-1.51393E+00 4.84628E-14 2.51306E-13
 -1      2328 2.49105E+01-2.17340E+00-2.00507E-02-2.89071E-01 1.26518E-13 6.68020E-14
 -1      2329 2.56310E+01-1.09464E+00-4.12007E-02-2.16088E+00 4.40967E-15 1.95413E-13
 -1      2330 2.55154E+01-3.65492E-01-3.66337E-03-2.45804E+00-9.70890E-14 2.59151E-13
 -1      2331 2.59666E+01-1.69068E+00-9.29896E-03-1.69253E+00-2.49974E-14 1.10217E-13
 -1      2332 2.54291E+01 5.71740E-01-9.06744E-02-2.61284E+00-2.05114E-13 2.85490E-13
 -1      2333 2.52027E+01 1.62140E+00-4.97533E-03-2.28308E+00-2.54290E-13 2.71044E-13
 -1      2334 2.64442E+01 9.19538E-02-2.34245E-02-2.66934E+00-7.84650E-14 2.02015E-13
 -1      2335 2.49204E+01 2.47648E+00-9.65606E-02-1.50108E+00-2.62873E-13 1.24534E-13
 -1      2336 2.47698E+01 2.98329E+00-6.42429E-02-5.97033E-01-2.32203E-13 8.00636E-14
 -1      2337 2.62506E+01 2.64565E+00-6.51669E-02-2.11922E+00-3.26822E-13 2.63924E-13
 -1      2338 2.48091E+01 2.95930E+00-4.92686E-02 7.24700E-01-1.55556E-13 1.10653E-13
 -1      2339 2.49379E+01 2.38511E+00-1.00719E-01 1.60325E+00-2.91017E-14 5.49075E-14
 -1      2340 2.59947E+01 3.90084E+00-4.92994E-02 1.12811E-01-2.06349E-13 1.25657E-13
 -1      2341 2.52293E+01 1.50258E+00-5.50978E-03 2.34540E+00 9.58955E-15 1.73212E-15
 -1      2342 2.54693E+01 4.52243E-01-8.52151E-02 2.62950E+00 7.75421E-15 8.58862E-14
 -1      2343 2.62629E+01 2.57094E+00-6.42971E-02 2.23499E+00-7.64389E-14 5.69163E-14
 -1      2344 2.55077E+01-4.68794E-01-8.54065E-03 2.42321E+00-7.52367E-14 3.13074E-15
 -1      2345 2.56225E+01-1.16344E+00-3.84868E-02 2.10219E+00-1.43953E-13 8.15320E-17
 -1      2346 2.64506E+01-4.46481E-02-2.27582E-02 2.63618E+00-3.30048E-14 1.11647E-14
 -1      2347 2.52302E+01-1.54680E+00-2.29886E-02 1.43412E+00-1.46406E-13 5.20525E-15
 -1      2348 2.51577E+01-1.68107E+00 1.14858E-03 8.76223E-01-1.42571E-13 1.27494E-13
 -1      2349 2.59219E+01-1.75970E+00-5.62331E-03 1.60541E+00-9.01562E-14-8.77284E-14
 -1      2350 2.45427E+01-1.60927E+00-2.96015E-02 2.29411E-01-2.29550E-13 2.30330E-13
 -1      2351 2.43369E+01-1.40219E+00 1.66240E-02-2.65091E-01-1.71787E-13 8.44021E-14
 -1      2352 2.48348E+01-2.14015E+00-1.60411E-02 2.10998E-01-1.82602E-13 1.43565E-13
 -1      2353 2.37588E+01-1.15007E+00-2.33359E-02-6.85274E-01 4.70336E-14 1.30160E-13
 -1      2354 2.34925E+01-8.63651E-01 1.60345E-02-1.00815E+00 2.07792E-13 1.87515E-13
 -1      2355 2.36668E+01-1.65963E+00-2.07371E-02-8.39753E-01-2.84625E-14 1.90896E-13
 -1      2356 2.30525E+01-6.13605E-01-1.39269E-02-1.20918E+00 1.86705E-13 2.01182E-13
 -1      2357 2.27765E+01-3.79221E-01 1.07581E-02-1.36534E+00 1.63413E-13 1.57425E-13
 -1      2358 2.27159E+01-9.61653E-01-1.79839E-02-1.42253E+00 1.92716E-13 3.40558E-13
 -1      2359 2.24710E+01-1.99670E-01-5.83863E-03-1.41484E+00 7.07292E-14 1.98726E-13
 -1      2360 2.22093E+01-4.90481E-02 5.93354E-03-1.45030E+00-1.94716E-14 1.67379E-13
 -1      2361 2.20331E+01-3.78580E-01-1.22098E-02-1.64032E+00 1.15406E-13 2.29688E-13
 -1      2362 2.20006E+01 5.66644E-02-2.92397E-04-1.41172E+00-2.10089E-13 1.82213E-13
 -1      2363 2.17626E+01 1.36359E-01 2.79658E-03-1.37451E+00-1.66532E-13 1.83795E-13
 -1      2364 2.15605E+01 3.03203E-03-7.16999E-03-1.62916E+00-1.33504E-13 2.12714E-13
 -1      2365 2.16150E+01 1.87109E-01 2.96673E-03-1.29233E+00-7.11607E-14 5.20394E-14
 -1      2366 2.14041E+01 2.18992E-01 1.06522E-03-1.21907E+00 5.29687E-15 4.45879E-14
 -1      2367 2.12256E+01 2.09818E-01-3.95854E-03-1.49348E+00-1.59733E-13-5.65021E-15
 -1      2368 2.12935E+01 2.35333E-01 4.54778E-03-1.12101E+00 9.81927E-14-1.04467E-13
 -1      2369 2.11108E+01 2.39355E-01 2.51609E-04-1.03547E+00 6.32874E-14-8.65732E-14
 -1      2370 2.09753E+01 2.96671E-01-2.27748E-03-1.30204E+00-3.35973E-14-1.32456E-13
 -1      2371 2.10235E+01 2.36822E-01 5.04119E-03-9.37356E-01 6.48765E-14-1.11106E-13
 -1      2372 2.08684E+01 2.26734E-01-5.27373E-05-8.53146E-01 2.77150E-14 5.22414E-14
 -1      2373 2.07776E+01 3.12339E-01-1.51757E-03-1.09640E+00 4.85789E-14-2.39550E-13
 -1      2374 2.07971E+01 2.15358E-01 4.89278E-03-7.63107E-01 9.64099E-14 1.62921E-13
 -1      2375 2.06681E+01 1.99570E-01-1.06010E-04-6.86962E-01 2.99705E-13 2.54841E-13
 -1      2376 2.06157E+01 2.91077E-01-1.21554E-03-8.99744E-01 1.79109E-13-5.08237E-14
 -1      2377 2.06090E+01 1.85234E-01 4.41038E-03-6.08409E-01 1.52998E-13 2.64476E-13
 -1      2378 2.05036E+01 1.68484E-01-4.71524E-05-5.42828E-01 2.09151E-13 1.38275E-13
 -1      2379 2.04809E+01 2.54195E-01-1.09609E-03-7.23404E-01 2.40986E-13 1.26816E-13
 -1      2380 2.04546E+01 1.54411E-01 3.78741E-03-4.76396E-01 5.11750E-13 1.64726E-13
 -1      2381 2.03701E+01 1.39196E-01 5.24538E-05-4.21445E-01 4.65652E-13 3.32415E-14
 -1      2382 2.03685E+01 2.13922E-01-1.01993E-03-5.71450E-01 3.08054E-13 9.63278E-14
 -1      2383 2.03297E+01 1.27033E-01 3.12960E-03-3.66237E-01 2.49754E-13 1.06091E-13
 -1      2384 2.02631E+01 1.14606E-01 1.61301E-04-3.20711E-01 1.09020E-13 1.20459E-13
 -1      2385 2.02754E+01 1.76785E-01-9.40286E-04-4.43659E-01 3.22713E-13-5.39102E-14
 -1      2386 2.02299E+01 1.05171E-01 2.49454E-03-2.74992E-01-6.21206E-14 1.86065E-13
 -1      2387 2.01786E+01 9.60035E-02 2.84994E-04-2.37076E-01-3.34761E-13 2.42671E-13
 -1      2388 2.01990E+01 1.46110E-01-8.32270E-04-3.37464E-01 1.00392E-13 7.14344E-14
 -1      2389 2.01512E+01 8.91936E-02 1.87544E-03-1.98811E-01-5.29033E-13 2.44133E-13
 -1      2390 2.01131E+01 8.34280E-02 6.12691E-04-1.66784E-01-3.86468E-13 1.09766E-13
 -1      2391 2.01367E+01 1.23256E-01-6.20756E-04-2.49115E-01-5.07771E-13 5.98844E-14
 -1      2392 1.02903E+01-4.09101E+00 6.74514E-02 6.67218E+00 3.70814E-14-6.12566E-14
 -1      2393 7.67755E+00-3.58227E+00 1.14450E-01 5.50882E+00 4.09672E-14 1.46577E-13
 -1      2394 1.96396E+01 8.32109E-02 2.54642E-03-9.14242E-02 2.02062E-14 3.83186E-14
 -1      2395 1.96596E+01 1.13045E-01 7.00887E-03-4.06893E-02 1.29365E-14 6.50944E-14
 -1      2396 1.96334E+01 4.56855E-02 1.97627E-03-1.70212E-01 2.89683E-14 2.78091E-15
 -1      2397 1.96197E+01 6.21742E-02 3.83424E-03-1.41277E-01 2.17059E-14 3.06928E-14
 -1      2398 1.97895E+01 1.06218E-01-3.43990E-03-1.06888E-01 3.33621E-14 1.86410E-14
 -1      2399 1.96700E+01 2.61376E-02 1.71359E-03-2.16707E-01 1.59827E-14 2.47253E-14
 -1      2400 1.96348E+01 3.43639E-02 2.02306E-03-1.99665E-01 2.52117E-14 7.20520E-15
 -1      2401 1.97717E+01 5.86458E-02-2.65682E-03-1.96489E-01 3.48939E-14-1.57209E-16
 -1      2402 1.97360E+01 1.82609E-02 1.64100E-03-2.46510E-01 3.32486E-14 6.01080E-14
 -1      2403 1.96867E+01 2.09960E-02 9.84837E-04-2.35096E-01 5.88472E-15 5.48541E-14
 -1      2404 1.97909E+01 3.45883E-02-1.98907E-03-2.51650E-01 1.13945E-14 7.43291E-15
 -1      2405 1.98238E+01 1.83905E-02 1.70337E-03-2.70176E-01 3.72877E-14 1.09553E-13
 -1      2406 1.97640E+01 1.73242E-02 4.02737E-04-2.60164E-01 7.76981E-14 1.01702E-13
 -1      2407 1.98369E+01 2.58703E-02-1.52733E-03-2.89202E-01 2.33626E-14 8.82776E-14
 -1      2408 1.99295E+01 2.40855E-02 1.86526E-03-2.95025E-01 5.75588E-14 2.00091E-14
 -1      2409 1.98608E+01 2.03828E-02 1.06420E-04-2.83492E-01 3.15205E-14 6.24051E-14
 -1      2410 1.99031E+01 2.76506E-02-1.25339E-03-3.20727E-01 7.41295E-14 7.09715E-14
 -1      2411 2.00525E+01 3.34269E-02 2.08697E-03-3.26042E-01 1.37545E-13-5.34809E-14
 -1      2412 1.99745E+01 2.80457E-02-3.21430E-06-3.11036E-01 1.05742E-13 1.03700E-15
 -1      2413 1.99863E+01 3.66192E-02-1.12526E-03-3.54296E-01 1.10219E-13-3.07176E-14
 -1      2414 2.01939E+01 4.45563E-02 2.31419E-03-3.66222E-01 1.09782E-13-4.65642E-14
 -1      2415 2.01056E+01 3.84736E-02 9.05016E-06-3.46669E-01 1.17405E-13-7.13937E-14
 -1      2416 2.00856E+01 5.00714E-02-1.10351E-03-3.95321E-01 1.28945E-13-3.19086E-14
 -1      2417 2.03560E+01 5.52722E-02 2.46929E-03-4.16504E-01-3.28371E-14-3.52455E-14
 -1      2418 2.02558E+01 4.96947E-02 9.87082E-05-3.92304E-01 5.16265E-14 9.55543E-15
 -1      2419 2.02017E+01 6.52707E-02-1.15610E-03-4.46861E-01 4.17290E-14-5.04410E-14
 -1      2420 2.05414E+01 6.26155E-02 2.44271E-03-4.75319E-01-2.28524E-14-1.10334E-14
 -1      2421 2.04279E+01 5.91998E-02 2.35365E-04-4.47623E-01-1.43451E-14-8.66680E-15
 -1      2422 2.03365E+01 7.88769E-02-1.25901E-03-5.09481E-01-3.27073E-14-5.82820E-14
 -1      2423 2.07520E+01 6.24436E-02 2.08621E-03-5.37757E-01-5.47054E-14 1.02642E-14
 -1      2424 2.06248E+01 6.35186E-02 3.99589E-04-5.09422E-01-6.03544E-14-1.85615E-16
 -1      2425 2.04926E+01 8.63688E-02-1.39601E-03-5.80679E-01-2.94994E-14-2.06130E-14
 -1      2426 2.09881E+01 4.90786E-02 1.21391E-03-5.94401E-01 7.47559E-14-3.64111E-14
 -1      2427 2.08486E+01 5.78116E-02 5.82102E-04-5.70594E-01 8.81803E-15-1.87510E-14
 -1      2428 2.06728E+01 8.14781E-02-1.56055E-03-6.53923E-01-1.50059E-14 6.38294E-15
 -1      2429 2.12472E+01 1.52905E-02-3.76946E-04-6.29981E-01 1.12980E-13-4.39534E-14
 -1      2430 2.10995E+01 3.56269E-02 7.81558E-04-6.18814E-01 1.39450E-13 1.43843E-14
 -1      2431 2.08798E+01 5.58139E-02-1.75246E-03-7.17338E-01 7.02572E-14-2.21866E-14
 -1      2432 2.15224E+01-4.68073E-02-2.84255E-03-6.22362E-01 1.06751E-15-3.59748E-14
 -1      2433 2.13745E+01-1.07781E-02 9.93032E-04-6.35226E-01 7.55645E-14-1.81962E-14
 -1      2434 2.11157E+01-8.55873E-04-1.96096E-03-7.52262E-01 6.68514E-14-2.06831E-14
 -1      2435 2.18007E+01-1.42981E-01-6.16723E-03-5.42979E-01-1.19383E-13-6.73398E-14
 -1      2436 2.16655E+01-8.87837E-02 1.18490E-03-5.93894E-01-5.98571E-14-8.93664E-15
 -1      2437 2.13809E+01-9.87611E-02-2.12168E-03-7.32283E-01-3.71086E-14 3.78892E-14
 -1      2438 2.20612E+01-2.70960E-01-9.95350E-03-3.60703E-01-1.02391E-13-1.58369E-13
 -1      2439 2.19569E+01-2.01302E-01 1.22245E-03-4.63577E-01-1.24182E-13-8.79388E-14
 -1      2440 2.16725E+01-2.43260E-01-2.03451E-03-6.24053E-01-7.57120E-14-3.38233E-14
 -1      2441 2.22723E+01-4.10671E-01-1.31349E-02-5.22075E-02 2.99582E-14-1.25718E-13
 -1      2442 2.22213E+01-3.38952E-01 7.71557E-04-2.14515E-01-5.46542E-14-1.89242E-13
 -1      2443 2.19797E+01-4.25338E-01-1.27671E-03-3.92239E-01-5.87477E-14-1.89998E-13
 -1      2444 2.23906E+01-5.13693E-01-1.37640E-02 3.78070E-01-1.76179E-14 5.12537E-14
 -1      2445 2.24159E+01-4.69058E-01-7.44884E-04 1.65957E-01 4.69525E-14-2.18419E-14
 -1      2446 2.22760E+01-6.07419E-01 7.98517E-04-1.25905E-02-4.11563E-14-1.13280E-13
 -1      2447 2.23664E+01-5.02679E-01-9.42366E-03 8.70149E-01-6.30442E-14 6.97114E-14
 -1      2448 2.24824E+01-5.27845E-01-3.66574E-03 6.47350E-01-3.80789E-14 4.78114E-14
 -1      2449 2.25110E+01-7.12000E-01 4.67412E-03 5.02752E-01-3.83367E-14 8.23912E-14
 -1      2450 2.21625E+01-2.99397E-01 4.69129E-04 1.28621E+00-2.01577E-13 1.31814E-13
 -1      2451 2.23619E+01-4.30807E-01-7.73422E-03 1.12648E+00-1.41641E-13 1.08536E-13
 -1      2452 2.26100E+01-6.28757E-01 9.77582E-03 1.07027E+00-1.15487E-13 6.50716E-14
 -1      2453 2.17945E+01 1.08060E-01 1.23304E-02 1.42897E+00-2.62765E-13 2.27673E-13
 -1      2454 2.20361E+01-1.21519E-01-1.12082E-02 1.42148E+00-2.30031E-13 1.73944E-13
 -1      2455 2.25022E+01-2.71344E-01 1.18390E-02 1.50968E+00-2.03986E-13 1.23312E-13
 -1      2456 2.13702E+01 5.96311E-01 1.86190E-02 1.13214E+00-1.01063E-13 2.21887E-13
 -1      2457 2.15819E+01 3.52545E-01-9.94829E-03 1.33178E+00-1.57715E-13 1.44751E-13
 -1      2458 2.21884E+01 3.26789E-01 5.42746E-03 1.57914E+00-1.96296E-13 6.93330E-14
 -1      2459 2.10833E+01 9.23854E-01 1.45891E-02 4.07630E-01-1.94168E-14 2.32126E-13
 -1      2460 2.11868E+01 7.95284E-01-9.18074E-04 7.74029E-01-1.45977E-15 2.24974E-13
 -1      2461 2.18080E+01 9.48499E-01-7.14066E-03 1.10802E+00-4.85952E-14-1.61503E-15
 -1      2462 2.10999E+01 8.93177E-01 2.66477E-03-4.89039E-01 4.77509E-14 2.79520E-13
 -1      2463 2.10527E+01 9.60292E-01 1.24198E-02-9.37014E-02-9.19724E-14 2.46420E-13
 -1      2464 2.15959E+01 1.27332E+00-1.53136E-02 1.83743E-01 8.54655E-15-7.36787E-14
 -1      2465 2.14231E+01 5.24887E-01-8.62174E-03-1.18611E+00 1.53906E-13 3.21271E-13
 -1      2466 2.12452E+01 7.43158E-01 1.89421E-02-9.18190E-01 1.99889E-13 2.60113E-13
 -1      2467 2.17031E+01 1.11123E+00-1.08818E-02-8.21130E-01 1.02473E-13-3.21835E-14
 -1      2468 2.18849E+01 3.48972E-02-1.13573E-02-1.44311E+00 1.42944E-13 1.01863E-13
 -1      2469 2.16440E+01 2.81141E-01 1.51955E-02-1.37963E+00 1.95180E-13 3.03238E-13
 -1      2470 2.20515E+01 5.60183E-01 1.22655E-03-1.47807E+00 1.86168E-13-1.41731E-14
 -1      2471 2.22726E+01-3.44089E-01-8.34405E-03-1.26421E+00 7.66598E-14-6.18039E-15
 -1      2472 2.20491E+01-1.77115E-01 3.94011E-03-1.37709E+00 7.65076E-14 2.80279E-14
 -1      2473 2.24124E+01-8.26972E-02 9.60810E-03-1.58888E+00 1.45259E-13-1.02054E-14
 -1      2474 2.24681E+01-5.11809E-01-3.66032E-03-8.27687E-01-7.01704E-14 2.09967E-13
 -1      2475 2.23170E+01-4.54966E-01-6.87422E-03-1.03277E+00-2.93992E-14 2.22895E-13
 -1      2476 2.25991E+01-5.37251E-01 1.00621E-02-1.25194E+00-4.30387E-14 1.29752E-14
 -1      2477 2.24629E+01-4.97893E-01-3.48643E-04-3.32918E-01 1.05169E-13 3.42962E-13
 -1      2478 2.24032E+01-5.24275E-01-1.26533E-02-5.48804E-01 1.55462E-14 3.54959E-13
 -1      2479 2.25675E+01-7.09220E-01 5.88195E-03-7.05564E-01-7.48592E-14 3.63094E-13
 -1      2480 2.23082E+01-3.84272E-01 1.12439E-03 8.76718E-02 2.84989E-13 2.47404E-13
 -1      2481 2.23318E+01-4.50350E-01-1.33042E-02-8.89578E-02 2.65770E-13 2.88702E-13
 -1      2482 2.23727E+01-6.56491E-01 1.33074E-03-1.60187E-01 2.43102E-13 4.41475E-13
 -1      2483 2.20659E+01-2.43897E-01 1.52868E-03 3.80523E-01 3.34527E-13 9.00997E-14
 -1      2484 2.21512E+01-3.15775E-01-1.07594E-02 2.61330E-01 3.42531E-13 1.56343E-13
 -1      2485 2.20936E+01-4.89159E-01-1.30306E-03 2.68075E-01 4.33730E-13 2.55688E-13
 -1      2486 2.17854E+01-1.19810E-01 1.40979E-03 5.46007E-01 6.71537E-14 1.39848E-13
 -1      2487 2.19086E+01-1.79577E-01-7.10683E-03 4.81540E-01 2.52979E-13 1.16287E-13
 -1      2488 2.17901E+01-2.99094E-01-2.27144E-03 5.45987E-01 2.79342E-13 1.76258E-13
 -1      2489 2.14995E+01-2.83294E-02 1.16784E-03 6.09750E-01 5.20414E-14-2.58056E-14
 -1      2490 2.16400E+01-7.04816E-02-3.67116E-03 5.87923E-01 3.85843E-14 1.63652E-13
 -1      2491 2.14965E+01-1.37020E-01-2.34505E-03 6.88187E-01 1.48664E-13 2.95585E-13
 -1      2492 2.12281E+01 3.01635E-02 9.57596E-04 6.03348E-01-2.03417E-13-1.29765E-13
 -1      2493 2.13707E+01 4.38531E-03-1.00691E-03 6.10286E-01 3.88896E-14-1.65846E-13
 -1      2494 2.12285E+01-2.03977E-02-2.11281E-03 7.27857E-01 1.23183E-13 2.47412E-13
 -1      2495 2.09820E+01 6.21145E-02 8.16113E-04 5.54735E-01-2.53931E-13-2.14408E-13
 -1      2496 2.11166E+01 4.89285E-02 7.92022E-04 5.78497E-01-3.73077E-13-2.22376E-13
 -1      2497 2.09915E+01 5.24928E-02-1.84284E-03 6.99653E-01-2.15095E-13-8.32973E-14
 -1      2498 2.07664E+01 7.54358E-02 7.29487E-04 4.84977E-01-2.82333E-14-2.10286E-13
 -1      2499 2.08871E+01 7.07894E-02 1.84434E-03 5.16737E-01-6.23335E-14-1.06973E-13
 -1      2500 2.07862E+01 9.10450E-02-1.61802E-03 6.32328E-01-2.43218E-13-3.03295E-13
 -1      2501 2.05827E+01 7.71244E-02 6.80669E-04 4.08245E-01 1.04798E-13-4.37305E-13
 -1      2502 2.06867E+01 7.76115E-02 2.33506E-03 4.42199E-01 3.75865E-14-2.78022E-13
 -1      2503 2.06115E+01 1.05926E-01-1.44164E-03 5.46836E-01 3.83245E-14-1.95724E-13
 -1      2504 2.04298E+01 7.25862E-02 6.61531E-04 3.33023E-01 3.35000E-13-2.55989E-13
 -1      2505 2.05167E+01 7.56386E-02 2.44440E-03 3.65826E-01 1.98962E-13-3.96282E-13
 -1      2506 2.04652E+01 1.06326E-01-1.29212E-03 4.56945E-01 1.56622E-13-3.83709E-13
 -1      2507 2.03055E+01 6.57088E-02 6.63135E-04 2.63517E-01 2.39926E-13-3.54188E-14
 -1      2508 2.03759E+01 6.95141E-02 2.31517E-03 2.93652E-01 3.04035E-13-4.30957E-14
 -1      2509 2.03445E+01 9.92758E-02-1.14844E-03 3.70683E-01 1.57314E-13-1.49149E-13
 -1      2510 2.02068E+01 5.91303E-02 7.04522E-04 2.00979E-01 4.30891E-14 5.94272E-14
 -1      2511 2.02621E+01 6.24828E-02 2.05764E-03 2.28177E-01 1.02016E-13 5.55490E-14
 -1      2512 2.02464E+01 8.97243E-02-1.00269E-03 2.91825E-01 1.40169E-13 2.29677E-13
 -1      2513 2.01300E+01 5.41185E-02 6.71182E-04 1.44704E-01 1.40832E-13 1.76053E-13
 -1      2514 2.01720E+01 5.66032E-02 1.72533E-03 1.69449E-01 1.69770E-13 2.52117E-13
 -1      2515 2.01676E+01 8.09319E-02-8.87125E-04 2.21481E-01 3.96568E-14 2.13418E-13
 -1      2516 2.00718E+01 5.06837E-02 6.30789E-04 9.41224E-02-2.91571E-13 2.30897E-13
 -1      2517 2.01026E+01 5.23607E-02 1.39492E-03 1.16690E-01-3.74063E-14 2.82531E-13
 -1      2518 2.01053E+01 7.35816E-02-9.98371E-04 1.58466E-01-6.61740E-14 3.35933E-13
 -1      2519 2.00495E+01 4.72432E-02 9.07849E-04 6.75160E-02-2.80267E-13 1.57060E-13
 -1      2520 1.99667E+01 2.73133E-01-1.26700E-03 1.36201E-01 1.75821E-13 8.11456E-14
 -1      2521 1.99805E+01 2.48041E-01 4.45157E-04 1.46196E-01 2.46545E-13-7.75857E-14
 -1      2522 1.99445E+01 3.18190E-01-1.34917E-03 9.98355E-02 5.12104E-14 5.37492E-14
 -1      2523 1.99551E+01 2.99052E-01 6.95791E-06 1.18439E-01 9.22140E-14 8.71683E-14
 -1      2524 1.99487E+01 2.96254E-01 7.97321E-04 1.48684E-01 2.54816E-13 2.57144E-14
 -1      2525 2.00229E+01 1.56674E-01-7.50019E-04 1.47528E-01 1.17305E-13-4.22950E-14
 -1      2526 2.00372E+01 1.28826E-01 1.04540E-03 1.38212E-01-6.10789E-14 3.14428E-14
 -1      2527 1.99942E+01 2.17114E-01-1.04192E-03 1.52899E-01 1.11749E-13-1.65395E-13
 -1      2528 2.00092E+01 1.89539E-01 8.17448E-04 1.52944E-01 1.32347E-13-2.69117E-14
 -1      2529 2.00214E+01 1.80062E-01 3.96599E-04 1.77351E-01 1.37818E-13-4.45082E-14
 -1      2530 1.99831E+01 2.41473E-01 4.64058E-04 1.75180E-01 2.32505E-13-8.08997E-14
 -1      2531 1.99305E+01 3.46737E-01-1.27000E-03 4.89244E-02-1.49826E-14 2.78204E-13
 -1      2532 1.99366E+01 3.35965E-01-4.57313E-04 7.34609E-02-1.04488E-14-8.48109E-15
 -1      2533 1.99221E+01 3.38396E-01 1.08433E-03 1.01211E-01 1.23670E-13 1.76370E-14
 -1      2534 1.99265E+01 3.55194E-01-1.02687E-03-9.48118E-03-2.21166E-13 2.44182E-13
 -1      2535 1.99273E+01 3.54260E-01-8.68948E-04 1.75102E-02-2.11814E-13 3.78526E-13
 -1      2536 1.99068E+01 3.62833E-01 1.26994E-03 3.91747E-02-7.81525E-14 1.58183E-13
 -1      2537 1.99334E+01 3.42231E-01-6.44410E-04-6.71713E-02-1.29614E-13-2.81692E-14
 -1      2538 1.99285E+01 3.51400E-01-1.17117E-03-4.16270E-02-1.94255E-13 1.13040E-13
 -1      2539 1.99050E+01 3.66486E-01 1.32294E-03-2.90644E-02-9.36512E-14 2.59006E-13
 -1      2540 1.99504E+01 3.09857E-01-1.39332E-04-1.14998E-01 6.99737E-14-8.04152E-14
 -1      2541 1.99404E+01 3.27583E-01-1.34590E-03-9.50233E-02 3.65712E-15-9.69713E-14
 -1      2542 1.99173E+01 3.48724E-01 1.25377E-03-9.35759E-02 2.68952E-14 9.32733E-14
 -1      2543 1.99762E+01 2.60531E-01 3.86128E-04-1.47057E-01 9.86665E-14 3.24857E-13
 -1      2544 1.99620E+01 2.85312E-01-1.35378E-03-1.35282E-01 5.79378E-14-1.34780E-14
 -1      2545 1.99426E+01 3.11079E-01 1.00965E-03-1.45592E-01 1.92798E-13 4.80575E-14
 -1      2546 2.00073E+01 2.00242E-01 7.82515E-04-1.57134E-01-1.31083E-13 3.51887E-13
 -1      2547 1.99909E+01 2.28993E-01-1.20055E-03-1.56001E-01-1.35340E-13 4.56105E-13
 -1      2548 1.99781E+01 2.57096E-01 6.20929E-04-1.77457E-01-4.55729E-14 1.81746E-13
 -1      2549 2.00381E+01 1.35884E-01 9.23185E-04-1.42559E-01-4.32824E-13 6.29310E-14
 -1      2550 2.00230E+01 1.65357E-01-8.07715E-04-1.52824E-01-3.21864E-13 2.22182E-13
 -1      2551 2.00200E+01 1.93181E-01 5.30248E-04-1.83484E-01-4.18011E-13 1.77598E-13
 -1      2552 2.00474E+01 7.93884E-02 9.36506E-04-9.37743E-02-9.92078E-14-6.99729E-14
 -1      2553 2.96277E+00-2.93392E+00 3.28360E-02-7.95178E-01 1.57457E-13 1.93678E-13
 -1      2554 4.24062E+00-2.96939E+00 6.81023E-02-2.97295E+00 2.55795E-13 2.10665E-13
 -1      2555 1.97086E+01 1.50576E-01 3.61588E-03 4.39406E-02 2.82240E-14 8.91607E-14
 -1      2556 1.97822E+01 2.03925E-01 1.24396E-02 1.33254E-01 5.52709E-14 1.02911E-13
 -1      2557 1.98588E+01 1.92384E-01-4.01819E-03 4.24168E-02 4.00918E-14 5.84498E-14
 -1      2558 1.76063E+01-5.22641E+00-2.49937E-03 6.91092E+00 1.05305E-13-2.40131E-13
 -1      2559 1.36540E+01-5.07836E+00 4.33783E-02 6.87466E+00 7.55507E-14-2.58654E-13
 -1      2560 6.98903E+00-3.75608E+00 8.54895E-02-5.04593E+00 1.72778E-13 4.83030E-13
 -1      2561 9.81600E+00-4.57638E+00 3.52645E-02-6.29215E+00 1.31062E-13 6.05099E-13
 -1      2562 2.05401E+01 1.95626E+00-1.36513E-02-1.89105E+00-1.28189E-13 5.41303E-14
 -1      2563 2.04024E+01 1.21133E+00-8.71849E-03-1.28395E+00-1.18358E-13 7.07114E-14
 -1      2564 2.03801E+01 1.38876E+00 9.02923E-03-1.23068E+00-1.09128E-13 4.25820E-14
 -1      2565 2.02926E+01 2.39945E+00 6.59701E-04-1.83052E+00-1.21898E-13 1.38049E-14
 -1      2566 2.44202E+01-4.46718E+00-6.86464E-02 4.87397E+00-1.23235E-13-2.12858E-13
 -1      2567 2.10970E+01-5.14490E+00 1.29653E-02 5.75605E+00 7.88258E-14-3.06699E-13
 -1      2568 1.22618E+01-4.76171E+00 1.76232E-02 6.68352E+00 1.96843E-13-2.08389E-13
 -1      2569 8.35369E+00-4.04769E+00 7.99807E-02 5.52268E+00 1.91597E-13-1.97703E-13
 -1      2570 3.04223E+01 5.21455E-01-7.39408E-02-2.04083E-01 7.55507E-14-1.11355E-13
 -1      2571 3.15370E+01 2.51203E+00-1.46289E-01 4.38370E-01 1.27509E-13-7.57172E-14
 -1      2572 1.95338E+01 3.59976E+00-1.01451E-02-2.43156E-01-1.38883E-14-1.39909E-13
 -1      2573 1.95496E+01 3.57854E+00-9.66932E-03-4.22779E-01-2.92953E-14-1.31057E-13
 -1      2574 1.97250E+01 3.18096E+00-4.23712E-04-4.68600E-01-2.56943E-14-1.15789E-13
 -1      2575 1.96910E+01 3.24242E+00-7.66038E-04-1.50291E-01-1.77236E-14-1.27797E-13
 -1      2576 3.18987E+01 7.51552E+00-1.49690E-01 1.15378E-01 2.37310E-13-1.38195E-13
 -1      2577 3.24946E+01 7.44625E+00-8.58726E-02-3.74818E-01 9.42579E-14-1.08122E-13
 -1      2578 3.11503E+00-2.75685E+00 8.00335E-02 9.18181E-02 4.98906E-15-3.87357E-13
 -1      2579 3.62829E+00-2.50097E+00 6.88597E-02-2.14742E+00 2.37727E-14-1.81410E-13
 -1      2580 3.25708E+01 6.45404E+00-1.32516E-01-7.04823E-01 6.50591E-14-3.71231E-14
 -1      2581 3.21862E+01 5.07358E+00-8.20393E-02-7.99198E-01 1.88710E-13-1.28564E-13
 -1      2582 3.18861E+01 4.92467E+00-8.33417E-02 9.24585E-01 1.98674E-13-2.83107E-15
 -1      2583 3.18496E+01 6.48432E+00-1.69565E-01 9.00550E-01 2.58182E-13-6.85563E-14
 -1      2584 2.72979E+01-3.19144E+00-1.78855E-04-2.70382E+00 1.21805E-13 8.81240E-14
 -1      2585 2.92082E+01-1.77454E+00-1.16346E-01-1.63465E+00 1.33012E-13 2.64233E-14
 -1      2586 2.01782E+01-5.30514E+00 4.12663E-02-5.94627E+00-1.71418E-13 1.80550E-13
 -1      2587 2.44171E+01-4.55208E+00-6.71268E-02-4.85365E+00-7.18592E-14 1.39500E-13
 -1      2588 2.59255E+01-4.36083E+00 3.41400E-02-3.15254E+00-3.33206E-14 2.41057E-14
 -1      2589 1.28898E+01-4.83976E+00 8.05321E-02-6.80857E+00-9.57290E-14 7.86593E-14
 -1      2590 1.61380E+01-5.21657E+00-1.88434E-02-7.10414E+00-1.19349E-13 2.19186E-13
 -1      2591 3.42563E+01 6.87587E+00-5.58685E-02-5.46642E-01-5.61329E-13 1.17878E-13
 -1      2592 3.36861E+01 5.77860E+00-8.77438E-02-9.18523E-01-5.36182E-13 8.26006E-14
 -1      2593 5.84609E+00-3.14780E+00 1.17744E-01-4.45210E+00 6.67244E-14-3.21965E-14
 -1      2594 9.05679E+00-3.86936E+00 4.96255E-02-6.34763E+00-2.94209E-15 7.39686E-14
 -1      2595 5.37879E+00-2.99105E+00 7.56733E-02 3.99711E+00 1.46411E-13-3.49720E-13
 -1      2596 3.68191E+00-2.90980E+00 6.70803E-02 1.88533E+00 1.00482E-13-4.70401E-13
 -1      2597 5.47034E+00-1.44546E+00 1.66721E-01 1.10461E+00 7.25635E-14-3.57381E-13
 -1      2598 1.96720E+01-5.55398E+00-3.17521E-02 6.10357E+00 2.52076E-13-1.20237E-13
 -1      2599 1.63131E+01-5.47026E+00 5.04639E-02 6.41723E+00 2.46636E-13-2.06214E-13
 -1      2600 3.14536E+01-5.32765E-01-8.85459E-02 3.48719E-01-1.12868E-13 1.20848E-13
 -1      2601 2.97753E+01-2.09520E+00-2.01521E-02 1.00706E+00-3.39173E-14 3.68594E-14
 -1      2602 3.34431E+01 3.74766E+00-1.01836E-01-9.45702E-01-3.64792E-13 1.07137E-13
 -1      2603 3.22512E+01 1.68695E+00-8.90621E-02-5.57040E-01-1.94844E-13 1.59150E-13
 -1      2604 3.08966E+01 2.43125E-01-4.11108E-02-1.31004E+00-1.27162E-13 1.59178E-13
 -1      2605 3.43914E+01 7.13169E+00-7.16455E-02 4.17772E-01-5.81479E-13 7.92422E-14
 -1      2606 3.44424E+01 7.40269E+00-8.26374E-02-3.21910E-02-5.19085E-13 8.80615E-14
 -1      2607 3.33644E+01 4.58514E+00-7.08527E-02 1.02621E+00-3.14082E-13-1.38833E-13
 -1      2608 3.41288E+01 6.02183E+00-6.70490E-02 8.08267E-01-4.93605E-13-1.40665E-13
 -1      2609 3.15112E+01 4.47267E-02-4.53764E-02-2.69886E-01 3.76227E-14-3.74700E-14
 -1      2610 3.30412E+01 2.17885E+00-1.08593E-01 5.00254E-01-1.26399E-13-1.70974E-14
 -1      2611 2.74380E+01-3.74988E+00-1.09894E-02-2.81384E+00 1.19543E-13 3.64431E-13
 -1      2612 2.99865E+01-2.21993E+00-8.74354E-02-1.81686E+00-4.77951E-14 4.38538E-15
 -1      2613 2.08880E+01-5.56455E+00 2.39129E-02-5.58243E+00 9.99756E-14 2.78041E-13
 -1      2614 2.43846E+01-5.04353E+00-7.27025E-02-4.73334E+00 2.44194E-13 5.82062E-13
 -1      2615 1.29268E+01-5.30303E+00 2.48208E-02-6.50730E+00 5.17364E-14 3.47541E-13
 -1      2616 1.67129E+01-5.45351E+00-2.63435E-02-6.72383E+00 4.21330E-14 1.64261E-13
 -1      2617 1.30404E+01-4.34192E+00 1.23532E-01-6.32383E+00 2.54519E-14 5.09232E-13
 -1      2618 4.83386E+00-2.95940E+00 5.74674E-02 3.92964E+00 6.41154E-14 1.28231E-13
 -1      2619 3.39641E+00-2.69270E+00 9.10039E-02 1.46695E+00 1.27062E-13 1.30229E-13
 -1      2620 2.04769E+01 8.76028E-01-7.19177E-03 1.22299E+00 1.30541E-13 1.27373E-13
 -1      2621 2.08259E+01 1.25734E+00-6.00476E-03 1.72408E+00 1.35031E-13 1.47528E-13
 -1      2622 2.06354E+01 1.71606E+00-1.57927E-02 1.91763E+00 1.45951E-13 1.00878E-13
 -1      2623 2.04411E+01 1.06018E+00-9.45348E-03 1.23575E+00 1.15982E-13 9.77108E-14
 -1      2624 2.95523E+01-1.43515E+00-8.69353E-02 1.98058E+00-6.40182E-14-1.16268E-13
 -1      2625 2.72391E+01-3.03258E+00-1.54533E-02 2.94516E+00-2.42834E-13-1.40554E-13
 -1      2626 3.03306E+01 6.63377E+00-6.93943E-02-8.79477E-01 7.48290E-14-2.51285E-13
 -1      2627 1.99232E+01 2.82129E+00 1.19604E-03-1.08929E+00-6.57444E-14-9.84005E-14
 -1      2628 1.97895E+01 3.16352E+00-1.62426E-02-1.28039E+00-7.18616E-14-9.66796E-14
 -1      2629 1.98901E+01 3.01865E+00-1.85318E-02-1.47041E+00-8.98002E-14-7.44960E-14
 -1      2630 1.99964E+01 3.47695E-01-3.67131E-03 2.90097E-01 7.23423E-14 8.81933E-14
 -1      2631 2.04164E+01 2.11697E+00-1.27250E-02 1.86991E+00 1.41467E-13 4.66537E-14
 -1      2632 2.95190E+01-8.81244E-01-1.09020E-02 1.74750E-01-6.41015E-14-1.20348E-13
 -1      2633 2.62192E+01-4.12756E+00 3.04683E-02 3.19597E+00-1.76720E-13-8.24063E-14
 -1      2634 1.98403E+01-5.46468E+00 8.24251E-02-5.82941E+00 1.62620E-13 2.67205E-13
 -1      2635 2.64292E+01-4.69853E+00 3.61319E-02-3.01407E+00 1.88655E-13 2.62679E-13
 -1      2636 6.80386E+00-1.53553E+00 1.33672E-01-3.13179E+00 7.33164E-14 1.86351E-13
 -1      2637 6.79560E+00-2.76530E+00 1.36054E-01-4.13626E+00 1.03667E-13 2.76001E-13
 -1      2638 9.35383E+00-2.53020E+00 6.62269E-02-5.06138E+00 3.04756E-14 6.48093E-13
 -1      2639 1.37111E+01-4.18458E+00 1.01036E-01 6.58773E+00-1.06581E-14-1.97037E-13
 -1      2640 2.00567E+01 6.86036E-02 1.60393E-04 1.00846E-01-2.54261E-13 3.68387E-13
 -1      2641 2.00533E+01 9.00506E-02 4.94192E-05 1.17636E-01-1.46176E-13 2.90384E-13
 -1      2642 3.03901E+01-1.47531E+00 1.41739E-03 8.22307E-02 3.55219E-14-1.71307E-13
 -1      2643 2.00725E+01 7.51056E-02 1.02465E-03-1.17943E-01-2.86779E-13-8.44351E-14
 -1      2644 2.00524E+01 1.06895E-01-7.33058E-04-1.34383E-01-2.96064E-13 1.24212E-14
 -1      2645 2.00610E+01 1.32228E-01 7.25776E-04-1.70654E-01-4.78745E-13 1.80954E-13
 -1      2646 2.00987E+01 8.00385E-02 1.73456E-03-1.43765E-01-3.56575E-13-5.19043E-14
 -1      2647 3.17889E+01 2.89087E+00-3.67247E-02 1.63981E+00-1.78496E-13-2.91683E-13
 -1      2648 3.17521E+01 4.31825E+00-4.29535E-02-1.74587E+00-3.79197E-13 1.21986E-13
 -1      2649 4.98906E+00-1.59122E+00 1.71189E-01 4.67731E-01 1.20001E-13 7.06102E-14
 -1      2650 2.04331E+01 1.81109E+00 1.25366E-02 1.55620E+00 1.24866E-13 5.29611E-14
 -1      2651 2.04311E+01-5.26854E+00 7.86725E-02 5.92638E+00 3.52773E-14-3.82319E-13
 -1      2652 3.19609E+01 6.93631E+00 7.06249E-03-5.31742E-01-4.81615E-13 1.21333E-13
 -1      2653 8.76173E+00-2.65907E+00 1.64758E-01 4.74929E+00 1.94511E-13-1.65562E-13
 -1      2654 1.54882E+01-4.59392E+00 1.35367E-01 6.30196E+00 2.19075E-13-1.90625E-13
 -1      2655 6.58012E+00-1.85071E+00 1.72078E-01-3.32137E+00 1.43913E-14-8.95950E-14
 -1      2656 1.96975E+01-5.16820E+00 9.52064E-02-6.05011E+00-2.11831E-13 1.92887E-13
 -1      2657 3.01703E+01 3.34518E+00-4.77078E-02 1.49803E+00 1.60427E-13-2.55351E-14
 -1      2658 2.85212E+01-3.53783E+00 1.29739E-02 1.49008E+00 7.58768E-14 2.08167E-14
 -1      2659 2.92197E+01-1.06782E+00-9.76815E-03 6.80123E-02 1.24567E-13-1.55431E-13
 -1      2660 2.01206E+01 2.61628E+00-9.91503E-03-1.67029E+00-1.08452E-13-2.81511E-14
 -1      2661 3.04897E+01 3.37805E+00-4.65985E-02-1.36290E+00 7.94920E-14-2.38226E-13
 -1      2662 2.85846E+01 5.71789E+00-1.30946E-01 1.28001E+00 1.66256E-13-2.03969E-13
 -1      2663 3.05203E+01 6.74336E+00-1.19761E-01 7.18973E-01 2.23960E-13-1.39048E-13
 -1      2664 2.85249E+01 6.61895E+00-1.70089E-01 4.64059E-01 1.35336E-13-3.00378E-13
 -1      2665 1.22682E+01-3.79672E+00 1.22895E-01-6.40592E+00-1.10745E-13 1.52309E-13
 -1      2666 2.23391E+01-5.45601E+00 5.09881E-02 5.11635E+00 2.19519E-13-1.40797E-13
 -1      2667 2.13556E+01-5.32914E+00 7.27932E-02 5.23361E+00 1.17822E-13-1.53155E-13
 -1      2668 2.42060E+01-5.41122E+00-1.87345E-01 3.67362E+00 1.80758E-13-1.21583E-13
 -1      2669 7.96739E+00-2.25340E+00 1.65994E-01 4.60713E+00 1.13493E-13 1.43108E-13
 -1      2670 3.19818E+01 6.38502E+00 9.75986E-03 1.19547E+00-4.03233E-13-7.24976E-14
 -1      2671 2.00621E+01 1.10480E-01 6.02866E-04 1.52085E-01-1.35682E-13 3.37472E-13
 -1      2672 2.00933E+01 1.07104E-01-1.05180E-03-1.84627E-01-4.57548E-13 9.46860E-14
 -1      2673 1.98565E+01 2.78581E+00-6.29109E-03 5.09758E-01 2.62461E-14-1.14732E-13
 -1      2674 1.98318E+01 2.83656E+00-5.80563E-03 3.60410E-01 1.10286E-14-1.18290E-13
 -1      2675 1.98150E+01 2.87525E+00-5.65084E-03 2.26988E-01 3.64398E-15-1.25076E-13
 -1      2676 1.98065E+01 2.89247E+00-5.51732E-03 7.42064E-02-6.45965E-15-1.10846E-13
 -1      2677 1.99599E+01 2.52846E+00 3.78500E-03 2.60514E-01 2.60745E-15-1.09186E-13
 -1      2678 2.00528E+01 2.33651E+00-1.06743E-02 1.03566E+00 9.57926E-14-3.89109E-14
 -1      2679 1.99894E+01 2.48741E+00-6.46356E-03 9.00277E-01 7.92690E-14-4.66020E-14
 -1      2680 2.02213E+01 1.91671E+00-1.19204E-02 1.21784E+00 9.22669E-14-1.77115E-14
 -1      2681 2.01315E+01 2.15625E+00-4.88520E-03 1.12415E+00 9.21177E-14-3.53832E-14
 -1      2682 2.01978E+01 1.90086E+00 6.54421E-03 9.14468E-01 9.22565E-14-2.89932E-14
 -1      2683 2.02140E+01 7.34632E-01-3.23686E-03 6.30896E-01 9.04268E-14 6.42549E-14
 -1      2684 2.03534E+01 9.57578E-01 9.17950E-03 8.96992E-01 9.03800E-14 7.19335E-14
 -1      2685 2.21611E+01-5.28553E+00-6.70065E-02 5.08330E+00 1.39749E-14-4.45290E-13
 -1      2686 1.93804E+01-4.93198E+00 1.06893E-01 5.89220E+00 2.12885E-14-4.46566E-13
 -1      2687 2.03365E+01 1.50467E+00-1.78975E-03 1.25960E+00 9.82695E-14 4.91994E-14
 -1      2688 1.27758E+01-3.28682E+00 1.79864E-01-5.84914E+00 1.06956E-13 4.88082E-13
 -1      2689 1.53522E+01-4.26772E+00 3.47194E-02-6.29975E+00 8.48210E-14 1.74541E-13
 -1      2690 2.00772E+01 4.27949E-01-1.09861E-03 2.69218E-01 6.84873E-14 7.56125E-14
 -1      2691 2.01740E+01 5.63175E-01 1.02455E-02 4.35343E-01 7.81968E-14 6.59957E-14
 -1      2692 2.02584E+01 8.33751E-01 8.63989E-04 6.01621E-01 8.96228E-14 4.66796E-14
 -1      2693 2.69460E+01-3.82646E+00-1.30674E-01 1.88497E+00-2.12622E-13-5.38736E-14
 -1      2694 2.49338E+01-4.70403E+00 6.34146E-02 3.41203E+00-1.46175E-13-1.27037E-13
 -1      2695 2.02220E+01 6.40906E-01 7.75657E-03-4.18890E-01-5.93342E-14 3.43470E-14
 -1      2696 2.01426E+01 4.93154E-01-2.80980E-03-2.55287E-01-5.03985E-14 1.19166E-14
 -1      2697 2.01183E+01 3.83391E-01 6.51032E-03-1.29900E-01-3.60595E-14-3.10803E-15
 -1      2698 2.00644E+01 2.93304E-01-1.32808E-03-2.55629E-02-6.41498E-14-1.01001E-14
 -1      2699 2.02070E+01 5.52582E-01-1.64934E-03-2.33427E-01-6.76050E-14-8.13499E-15
 -1      2700 2.00408E+01 2.27919E-01 4.38477E-03 5.80365E-02-8.26858E-14 1.15890E-14
 -1      2701 2.00122E+01 1.74393E-01-2.79823E-04 1.23985E-01-8.65616E-14-1.11101E-15
 -1      2702 2.01430E+01 3.33577E-01-2.20945E-03-1.22142E-02-6.96169E-14-2.28924E-14
 -1      2703 1.99944E+01 1.36578E-01 2.68581E-03 1.78842E-01-8.99540E-14-9.48739E-15
 -1      2704 1.99861E+01 1.07088E-01 4.25421E-04 2.21173E-01-9.70725E-14-1.34383E-14
 -1      2705 2.00932E+01 2.01731E-01-2.06791E-03 1.35629E-01-9.62252E-14-1.13558E-14
 -1      2706 1.99750E+01 8.77419E-02 1.43895E-03 2.58224E-01-1.00660E-13-4.34941E-15
 -1      2707 1.99822E+01 7.49169E-02 9.30795E-04 2.87479E-01-9.31506E-14-2.01397E-14
 -1      2708 2.00606E+01 1.27867E-01-1.72008E-03 2.34670E-01-9.86024E-14 5.16912E-15
 -1      2709 1.99771E+01 6.86914E-02 5.28187E-04 3.15256E-01-7.33214E-14-2.10113E-14
 -1      2710 1.99963E+01 6.80630E-02 1.33835E-03 3.39119E-01-7.17833E-14-4.15001E-14
 -1      2711 2.00438E+01 9.43780E-02-1.35827E-03 3.04888E-01-7.77132E-14-3.77614E-16
 -1      2712 1.99960E+01 7.16808E-02-1.46460E-04 3.64224E-01-6.58577E-14-3.50478E-14
 -1      2713 2.00247E+01 8.04491E-02 1.71012E-03 3.88469E-01-5.97747E-14-1.55148E-14
 -1      2714 2.00399E+01 9.04207E-02-1.04169E-03 3.61929E-01-6.96647E-14 2.57567E-14
 -1      2715 2.00280E+01 9.18164E-02-6.65028E-04 4.16055E-01-5.14078E-14-8.81131E-15
 -1      2716 2.00652E+01 1.08151E-01 2.08047E-03 4.45149E-01-2.25488E-14 2.49301E-14
 -1      2717 2.00461E+01 1.09118E-01-7.73945E-04 4.17961E-01-4.47534E-14 6.19901E-14
 -1      2718 2.00709E+01 1.25829E-01-1.08804E-03 4.79301E-01-7.88611E-15 4.51735E-14
 -1      2719 2.01161E+01 1.48395E-01 2.46460E-03 5.16768E-01 2.46254E-14 4.65961E-14
 -1      2720 2.00595E+01 1.45906E-01-5.37360E-04 4.82519E-01-6.95487E-15 4.92790E-14
 -1      2721 2.01231E+01 1.71194E-01-1.45680E-03 5.60742E-01 4.08937E-15-6.22398E-15
 -1      2722 2.01766E+01 1.98720E-01 2.86295E-03 6.09318E-01 2.10357E-15-4.34422E-14
 -1      2723 2.00780E+01 1.97395E-01-3.09722E-04 5.63125E-01-1.42000E-14 5.49469E-15
 -1      2724 2.01839E+01 2.25258E-01-1.78969E-03 6.65649E-01 2.93321E-14-2.95201E-14
 -1      2725 2.02462E+01 2.56006E-01 3.26341E-03 7.27232E-01 1.21417E-14-3.27336E-14
 -1      2726 2.00993E+01 2.60338E-01-7.56672E-05 6.65648E-01 8.41726E-15 4.06548E-14
 -1      2727 2.02531E+01 2.84112E-01-2.07318E-03 7.97697E-01 6.88802E-15-1.16761E-14
 -1      2728 2.03251E+01 3.15120E-01 3.64407E-03 8.73064E-01 1.36289E-14 1.60017E-14
 -1      2729 2.01215E+01 3.30392E-01 1.60519E-04 7.94401E-01 3.22348E-14 4.67487E-14
 -1      2730 2.03316E+01 3.40939E-01-2.24400E-03 9.58477E-01-1.60848E-14 2.61885E-14
 -1      2731 2.04149E+01 3.66868E-01 3.97694E-03 1.04669E+00-4.36351E-14-6.19223E-15
 -1      2732 2.01433E+01 4.00364E-01 3.48519E-04 9.51954E-01-4.36866E-15 3.76279E-15
 -1      2733 2.04227E+01 3.83505E-01-2.15605E-03 1.14651E+00-6.86625E-14-4.42490E-15
 -1      2734 2.05204E+01 3.94932E-01 4.23292E-03 1.24390E+00-1.03520E-13-2.84639E-14
 -1      2735 2.01652E+01 4.57610E-01 3.44860E-04 1.13870E+00-5.60945E-14-3.87324E-15
 -1      2736 2.05352E+01 3.90530E-01-1.52736E-03 1.35554E+00-4.47036E-14-8.62393E-15
 -1      2737 2.06535E+01 3.71669E-01 4.37469E-03 1.45414E+00-6.97955E-16 4.02919E-14
 -1      2738 2.01928E+01 4.80227E-01-1.60041E-04 1.35207E+00-4.25848E-14 6.77575E-14
 -1      2739 2.06890E+01 3.27139E-01 1.28992E-04 1.57171E+00 2.33781E-14 9.36973E-14
 -1      2740 2.08396E+01 2.53489E-01 4.29033E-03 1.65696E+00 1.64443E-14 1.10556E-13
 -1      2741 2.02416E+01 4.32016E-01-1.75709E-03 1.58523E+00 4.50760E-14 1.41470E-13
 -1      2742 2.09237E+01 1.40993E-01 3.58140E-03 1.76865E+00 8.45708E-15 1.82198E-13
 -1      2743 2.11275E+01-2.11565E-02 3.55866E-03 1.81616E+00 5.89076E-14 1.24581E-13
 -1      2744 2.03466E+01 2.57220E-01-5.45670E-03 1.82432E+00 4.62314E-14 1.23584E-13
 -1      2745 2.13104E+01-2.35593E-01 9.91040E-03 1.89838E+00 8.31834E-14 1.06490E-13
 -1      2746 2.15985E+01-5.21864E-01 1.68883E-03 1.86957E+00 1.42894E-13 9.05335E-14
 -1      2747 2.05764E+01-1.20771E-01-1.26582E-02 2.04172E+00 7.57039E-14 8.26612E-14
 -1      2748 2.19581E+01-8.62107E-01 2.14234E-02 1.87652E+00 1.16044E-13 8.38919E-14
 -1      2749 2.23609E+01-1.29183E+00-4.41050E-03 1.71760E+00 1.05724E-13 5.42745E-14
 -1      2750 2.10471E+01-7.84340E-01-2.42258E-02 2.17887E+00 1.06371E-13 6.79578E-15
 -1      2751 2.29997E+01-1.71549E+00 4.08151E-02 1.54836E+00 1.27998E-13 5.48129E-14
 -1      2752 2.35407E+01-2.18065E+00 3.12604E-03 1.20653E+00 1.42400E-13 4.26248E-14
 -1      2753 2.19106E+01-1.78863E+00-5.12170E-02 2.10604E+00 1.14684E-13 3.03924E-15
 -1      2754 2.44819E+01-2.61252E+00 3.90169E-02 7.51051E-01 1.43553E-13-1.40062E-14
 -1      2755 2.50116E+01-2.89828E+00-4.74904E-02 1.53517E-01 9.39674E-14 8.91388E-15
 -1      2756 2.34439E+01-2.79680E+00-4.26010E-02 1.55298E+00 9.56856E-14 5.20972E-14
 -1      2757 2.62748E+01-2.74088E+00 3.80946E-02-7.71757E-01 8.21791E-14-5.69683E-15
 -1      2758 2.65736E+01-2.18576E+00-3.09021E-02-1.42285E+00-3.00523E-14 1.25112E-13
 -1      2759 2.55542E+01-3.57690E+00-7.46286E-02 5.24624E-01 9.82582E-14-4.53110E-14
 -1      2760 2.82909E+01 5.48870E+00-1.94669E-01-4.04794E-01-3.66235E-13 5.29750E-14
 -1      2761 2.83077E+01 5.31893E+00-2.13549E-01 8.14072E-01-2.63706E-13-5.68092E-14
 -1      2762 2.74246E+01 3.07092E-01-5.58882E-02 2.52363E+00-8.26283E-14-1.35204E-13
 -1      2763 2.72826E+01-1.22097E+00-7.91425E-02 2.25604E+00-4.66363E-14-2.16709E-13
 -1      2764 2.65020E+01-2.23973E+00-2.76418E-02 1.36592E+00-5.47392E-14-8.13898E-14
 -1      2765 2.60697E+01-2.74447E+00 4.74838E-03 6.78394E-01-3.61885E-14-4.19838E-14
 -1      2766 2.74878E+01-2.27226E+00-4.23168E-02 1.33258E+00 4.56163E-14-3.15623E-13
 -1      2767 2.49656E+01-2.78504E+00-2.86553E-02-1.47951E-01 5.80699E-14 1.31705E-13
 -1      2768 2.44207E+01-2.51659E+00 4.00196E-02-7.31316E-01 4.50670E-14 2.39031E-13
 -1      2769 2.53975E+01-3.35776E+00-4.88610E-02-4.11735E-01 1.37953E-13 5.47119E-14
 -1      2770 2.34840E+01-2.13692E+00-1.53795E-02-1.18858E+00-5.70290E-14 3.27123E-13
 -1      2771 2.29792E+01-1.65574E+00 3.36286E-02-1.53699E+00 7.83139E-14 4.10913E-13
 -1      2772 2.34382E+01-2.75230E+00-3.86506E-02-1.56128E+00 8.66924E-14 4.21806E-13
 -1      2773 2.23604E+01-1.22655E+00-5.39515E-03-1.69708E+00 1.02805E-13 3.06388E-13
 -1      2774 2.19710E+01-8.08302E-01 2.00932E-02-1.84725E+00 4.20306E-14 2.74022E-13
 -1      2775 2.20004E+01-1.67133E+00-3.24963E-02-2.04841E+00-4.53609E-15 3.83291E-13
 -1      2776 2.16178E+01-4.81863E-01-6.61351E-05-1.84396E+00 6.71655E-14 1.54664E-13
 -1      2777 2.13403E+01-2.00270E-01 9.72063E-03-1.86453E+00 8.70600E-14 1.56924E-13
 -1      2778 2.11358E+01-7.28067E-01-2.09526E-02-2.11955E+00-2.41823E-14 1.63054E-13
 -1      2779 2.11581E+01 3.16357E-03 2.46002E-03-1.78393E+00-6.77904E-14 1.31279E-13
 -1      2780 2.09614E+01 1.62391E-01 3.65295E-03-1.73023E+00-2.46184E-13 8.01114E-14
 -1      2781 2.06670E+01-9.06074E-02-1.11122E-02-1.99037E+00-2.42908E-14 2.11980E-13
 -1      2782 2.08745E+01 2.68384E-01 3.52877E-03-1.61829E+00-2.68571E-13 2.02786E-13
 -1      2783 2.07292E+01 3.41395E-01 3.92719E-04-1.52785E+00-1.68556E-13 4.54817E-14
 -1      2784 2.04313E+01 2.71902E-01-4.86651E-03-1.77627E+00-2.01218E-13 3.78187E-13
 -1      2785 2.06893E+01 3.83101E-01 3.87556E-03-1.40810E+00-6.05540E-14-1.91842E-14
 -1      2786 2.05757E+01 4.03149E-01-1.15534E-03-1.30445E+00-1.31985E-14-3.28155E-14
 -1      2787 2.03163E+01 4.40332E-01-1.61585E-03-1.53516E+00-1.81218E-13 2.68334E-13
 -1      2788 2.05566E+01 4.07372E-01 3.88017E-03-1.18894E+00-1.36431E-14-1.69622E-15
 -1      2789 2.04637E+01 3.98439E-01-1.73899E-03-1.08601E+00 6.32509E-14-4.38793E-14
 -1      2790 2.02571E+01 4.88788E-01-1.85073E-04-1.29562E+00 4.14476E-14 1.70903E-13
 -1      2791 2.04521E+01 3.83464E-01 3.68138E-03-9.80791E-01 1.85602E-13-4.80981E-14
 -1      2792 2.03743E+01 3.60946E-01-1.81393E-03-8.86070E-01 2.39942E-13-1.83218E-14
 -1      2793 2.02203E+01 4.70885E-01 2.82467E-04-1.07238E+00 1.68842E-13 5.89468E-14
 -1      2794 2.03648E+01 3.38028E-01 3.35232E-03-7.93761E-01 2.04632E-13-1.00303E-13
 -1      2795 2.02993E+01 3.11066E-01-1.64608E-03-7.10579E-01 1.37233E-13-1.12399E-13
 -1      2796 2.01910E+01 4.21330E-01 3.08333E-04-8.72707E-01 8.44392E-14-6.90767E-14
 -1      2797 2.02898E+01 2.86669E-01 2.94457E-03-6.31739E-01 1.99209E-13 8.49717E-14
 -1      2798 2.02351E+01 2.60409E-01-1.37019E-03-5.60870E-01 3.71572E-13 4.43679E-14
 -1      2799 2.01635E+01 3.60958E-01 1.81254E-04-6.99329E-01 2.34873E-13-1.41494E-13
 -1      2800 2.02252E+01 2.38035E-01 2.49916E-03-4.94691E-01 4.02856E-13-7.78258E-14
 -1      2801 2.01800E+01 2.15076E-01-1.08409E-03-4.35364E-01 2.47389E-13-2.37503E-14
 -1      2802 2.01366E+01 3.01628E-01 4.45756E-05-5.51976E-01 2.76567E-13 1.99115E-14
 -1      2803 2.01699E+01 1.96552E-01 2.03721E-03-3.80560E-01 1.22755E-13-1.17054E-13
 -1      2804 2.01328E+01 1.78411E-01-7.89655E-04-3.31176E-01-1.13946E-13-2.03645E-13
 -1      2805 2.01106E+01 2.49525E-01-2.49693E-05-4.28730E-01 2.01678E-13-1.65690E-13
 -1      2806 2.01226E+01 1.63901E-01 1.52986E-03-2.85518E-01-2.79622E-13-1.39618E-13
 -1      2807 2.00934E+01 1.51251E-01-1.63969E-04-2.44686E-01-4.60342E-13 1.48292E-13
 -1      2808 2.00854E+01 2.07863E-01 2.86156E-06-3.26037E-01-1.14915E-13-3.77764E-13
 -1      2809 2.97974E+01 1.25142E+00-1.24133E-01 2.17646E+00-1.09079E-13-2.97762E-13
 -1      2810 2.97194E+01 3.33428E+00-1.88599E-01 2.32399E+00-2.24459E-13-3.74256E-13
 -1      2811 1.99175E+01 1.44683E-01 2.85650E-04-1.15303E-01 3.75078E-14 2.69637E-14
 -1      2812 1.99448E+01 1.92002E-01 4.89984E-03-5.22721E-02 4.47146E-14 4.41495E-14
 -1      2813 1.99313E+01 4.43471E-02 1.33921E-03-3.12692E-01 9.17400E-15 5.19912E-14
 -1      2814 1.99040E+01 4.74573E-02 7.30741E-04-2.93765E-01-2.08409E-14 2.44182E-14
 -1      2815 1.99779E+01 4.79610E-02 1.59086E-03-3.51000E-01 9.39944E-14 1.89549E-14
 -1      2816 1.99403E+01 4.43758E-02 1.11769E-04-3.33303E-01 6.17523E-14 5.67387E-14
 -1      2817 1.99930E+01 5.97871E-02-1.26780E-03-3.40977E-01 3.32446E-14-3.50805E-14
 -1      2818 2.00397E+01 6.11920E-02 1.83236E-03-3.92170E-01 1.28928E-13 1.97072E-14
 -1      2819 1.99931E+01 5.30651E-02-2.82028E-04-3.72145E-01 1.10293E-13 3.21126E-14
 -1      2820 2.00193E+01 6.65298E-02-1.04217E-03-3.86368E-01 1.00566E-13 1.36404E-14
 -1      2821 2.01157E+01 8.02659E-02 2.05326E-03-4.41709E-01 1.42182E-13 4.03838E-15
 -1      2822 2.00605E+01 6.95304E-02-5.09456E-04-4.17081E-01 1.54815E-13 1.52220E-14
 -1      2823 2.00582E+01 8.44809E-02-9.14073E-04-4.35666E-01 1.62170E-13 4.08295E-14
 -1      2824 2.02067E+01 1.01237E-01 2.22192E-03-5.02661E-01 2.64120E-14 1.34464E-14
 -1      2825 2.01424E+01 9.00018E-02-6.00654E-04-4.72382E-01 8.96456E-14 9.41415E-15
 -1      2826 2.01090E+01 1.08775E-01-8.70718E-04-4.94422E-01 1.10715E-13 5.49867E-14
 -1      2827 2.03143E+01 1.19237E-01 2.28376E-03-5.75405E-01-7.34969E-14 2.28982E-14
 -1      2828 2.02401E+01 1.10181E-01-5.58852E-04-5.39822E-01-3.94012E-14 8.62021E-15
 -1      2829 2.01725E+01 1.34140E-01-9.11136E-04-5.65591E-01-1.05356E-14 1.67114E-13
 -1      2830 2.04411E+01 1.27716E-01 2.15953E-03-6.57058E-01-6.78424E-14 6.02130E-14
 -1      2831 2.03561E+01 1.24485E-01-3.58159E-04-6.18279E-01-8.27065E-14 3.26598E-14
 -1      2832 2.02505E+01 1.53957E-01-1.05187E-03-6.49299E-01-7.51130E-14 1.15580E-13
 -1      2833 2.05910E+01 1.17714E-01 1.74189E-03-7.40493E-01 1.97747E-14-1.02414E-14
 -1      2834 2.04941E+01 1.25286E-01 5.62503E-05-7.02937E-01-9.74779E-15 4.77744E-14
 -1      2835 2.03469E+01 1.59330E-01-1.32984E-03-7.42215E-01-4.37327E-14 5.10277E-14
 -1      2836 2.07689E+01 7.74146E-02 8.92346E-04-8.13023E-01 5.89676E-14 2.13805E-14
 -1      2837 2.06596E+01 1.02283E-01 7.69349E-04-7.84100E-01 1.55859E-14-1.69845E-14
 -1      2838 2.04678E+01 1.38245E-01-1.81683E-03-8.36542E-01 2.97487E-14 2.68715E-14
 -1      2839 2.09813E+01-7.41382E-03-5.52851E-04-8.54905E-01 4.39644E-14 9.56235E-14
 -1      2840 2.08597E+01 4.23653E-02 1.88179E-03-8.45671E-01 1.01701E-13 5.95243E-14
 -1      2841 2.06227E+01 7.52201E-02-2.60535E-03-9.18631E-01 5.56875E-14 1.05859E-13
 -1      2842 2.12358E+01-1.50782E-01-2.74565E-03-8.38192E-01-4.97594E-14 7.70175E-14
 -1      2843 2.11031E+01-6.90778E-02 3.45788E-03-8.63569E-01 1.80771E-14 9.12620E-14
 -1      2844 2.08250E+01-4.76149E-02-3.77420E-03-9.67228E-01 2.84156E-14 1.47215E-13
 -1      2845 2.15386E+01-3.59771E-01-5.74904E-03-7.27113E-01-1.79426E-14-1.78256E-14
 -1      2846 2.13988E+01-2.43808E-01 5.45491E-03-8.04867E-01-6.17393E-14 9.67130E-15
 -1      2847 2.10922E+01-2.46321E-01-5.27440E-03-9.51815E-01 2.48470E-14 9.66187E-14
 -1      2848 2.18892E+01-6.21265E-01-9.35600E-03-4.82146E-01-8.68199E-14-1.17540E-14
 -1      2849 2.17512E+01-4.81262E-01 7.44631E-03-6.29306E-01-1.34952E-14-7.42678E-18
 -1      2850 2.14425E+01-5.25175E-01-6.71193E-03-8.32035E-01-2.01679E-14 3.88848E-14
 -1      2851 2.22683E+01-8.80770E-01-1.25752E-02-7.23985E-02-2.29766E-14 1.17635E-14
 -1      2852 2.21494E+01-7.51356E-01 8.28135E-03-2.96762E-01-9.60576E-14-6.01071E-14
 -1      2853 2.18857E+01-8.57873E-01-7.17061E-03-5.60645E-01-5.30026E-14 4.35762E-14
 -1      2854 2.26228E+01-1.02306E+00-1.29600E-02 4.95765E-01-4.72729E-14 3.19858E-14
 -1      2855 2.25491E+01-9.71797E-01 5.90677E-03 2.11165E-01-1.76308E-14 4.91826E-14
 -1      2856 2.24024E+01-1.15901E+00-5.04496E-03-9.78120E-02-7.80617E-14 7.63484E-15
 -1      2857 2.28602E+01-8.79456E-01-6.45071E-03 1.13575E+00-1.76644E-13 4.57925E-14
 -1      2858 2.28608E+01-9.98109E-01-1.04489E-03 8.51279E-01-6.96424E-14 9.28192E-14
 -1      2859 2.29178E+01-1.26818E+00 7.08778E-04 5.51960E-01-1.33133E-13 9.27469E-14
 -1      2860 2.28763E+01-3.11939E-01 6.86135E-03 1.63216E+00-2.12616E-13 1.16496E-13
 -1      2861 2.29591E+01-6.57681E-01-1.31699E-02 1.46254E+00-2.04030E-13 1.07978E-13
 -1      2862 2.32871E+01-9.63249E-01 1.08735E-02 1.27514E+00-2.22899E-13 1.91197E-13
 -1      2863 2.26356E+01 6.24517E-01 1.80827E-02 1.68167E+00-1.71258E-13 2.27682E-15
 -1      2864 2.27714E+01 1.15249E-01-2.68913E-02 1.75874E+00-1.14942E-13 1.33580E-13
 -1      2865 2.33533E+01-1.19566E-01 1.48237E-02 1.79929E+00-1.93519E-13 1.25314E-13
 -1      2866 2.22857E+01 1.53746E+00 1.61599E-02 1.06598E+00 7.34742E-14-1.84450E-13
 -1      2867 2.24004E+01 1.11018E+00-2.77183E-02 1.43932E+00-6.53188E-14-1.28601E-13
 -1      2868 2.30868E+01 1.07643E+00-1.35646E-04 1.73106E+00-3.45635E-14-4.56284E-14
 -1      2869 2.21114E+01 1.88489E+00-5.12285E-04-6.13054E-02-1.37737E-14-4.98581E-14
 -1      2870 2.21299E+01 1.80807E+00-1.01298E-02 4.82745E-01-2.85362E-15-1.00166E-13
 -1      2871 2.27440E+01 2.07516E+00-1.80902E-02 8.78399E-01-6.03554E-14-9.39986E-14
 -1      2872 2.22693E+01 1.41646E+00-2.71720E-02-1.16067E+00 1.45077E-13-1.29986E-13
 -1      2873 2.21916E+01 1.74637E+00 1.20864E-02-7.05692E-01 1.06302E-13-5.30366E-14
 -1      2874 2.26856E+01 2.25757E+00-1.79038E-02-4.40396E-01 1.87792E-14 7.44032E-14
 -1      2875 2.26519E+01 4.60487E-01-3.00983E-02-1.72792E+00 2.39416E-13-1.65623E-13
 -1      2876 2.25150E+01 9.78887E-01 1.99039E-02-1.54562E+00 1.98130E-13-1.60291E-13
 -1      2877 2.29460E+01 1.47377E+00-3.46636E-03-1.52915E+00 2.15332E-13-1.16272E-13
 -1      2878 2.29263E+01-4.32686E-01-1.96495E-02-1.62094E+00 5.69087E-15-4.45313E-14
 -1      2879 2.28176E+01-1.27240E-02 1.02262E-02-1.71707E+00 1.10689E-13-5.25648E-14
 -1      2880 2.32899E+01 2.76794E-01 8.54054E-03-1.86041E+00 1.19667E-13-1.54993E-13
 -1      2881 2.29268E+01-9.26012E-01-5.12560E-03-1.08299E+00-2.01374E-13 1.76812E-13
 -1      2882 2.28968E+01-7.31011E-01-2.99592E-03-1.34145E+00-7.03987E-14 1.30104E-13
 -1      2883 2.33525E+01-7.26986E-01 1.27471E-02-1.50349E+00-1.13284E-13 1.26511E-13
 -1      2884 2.26779E+01-1.00838E+00 4.66541E-03-4.29471E-01-4.53736E-14 2.69980E-13
 -1      2885 2.27279E+01-1.01147E+00-1.11239E-02-7.22769E-01-1.39296E-13 2.61451E-13
 -1      2886 2.30761E+01-1.21117E+00 6.13534E-03-8.11153E-01-2.26856E-13 1.75858E-13
 -1      2887 2.22978E+01-8.35486E-01 8.03666E-03 1.31564E-01 3.30599E-13 3.64697E-13
 -1      2888 2.24032E+01-9.47512E-01-1.29976E-02-1.16471E-01 1.09353E-13 3.74075E-13
 -1      2889 2.25926E+01-1.22431E+00-2.82459E-03-1.16495E-01 1.57571E-14 2.18464E-13
 -1      2890 2.18946E+01-5.68769E-01 8.00825E-03 5.21856E-01 4.92576E-13 2.61312E-13
 -1      2891 2.20266E+01-7.11459E-01-1.06810E-02 3.49362E-01 5.49543E-13 3.82827E-13
 -1      2892 2.20656E+01-9.66568E-01-6.69478E-03 4.12641E-01 3.89298E-13 2.61844E-13
 -1      2893 2.15269E+01-3.12095E-01 6.29119E-03 7.43530E-01 2.00823E-13 1.74485E-13
 -1      2894 2.16651E+01-4.39880E-01-7.06755E-03 6.45591E-01 3.44458E-13 1.93764E-13
 -1      2895 2.15940E+01-6.29800E-01-7.16084E-03 7.43635E-01 4.39257E-13 2.64091E-13
 -1      2896 2.12158E+01-1.11509E-01 4.29109E-03 8.31905E-01 1.65387E-13 2.38830E-13
 -1      2897 2.13484E+01-2.06900E-01-3.76337E-03 7.93567E-01 1.84380E-13 2.81333E-13
 -1      2898 2.12137E+01-3.23709E-01-5.89120E-03 9.05428E-01 2.01225E-13 1.45648E-13
 -1      2899 2.09609E+01 2.43496E-02 2.59677E-03 8.28377E-01 1.00037E-13 3.21835E-13
 -1      2900 2.10824E+01-3.77005E-02-1.27808E-03 8.31620E-01 1.91055E-13 3.42137E-13
 -1      2901 2.09226E+01-9.27756E-02-4.34951E-03 9.44866E-01 1.23329E-13 3.99770E-13
 -1      2902 2.07543E+01 1.04481E-01 1.38772E-03 7.68555E-01-1.58436E-13 8.38813E-14
 -1      2903 2.08625E+01 6.96890E-02 4.03786E-04 7.97385E-01 2.92900E-14 3.29418E-13
 -1      2904 2.07040E+01 5.93446E-02-3.05671E-03 9.05259E-01 8.05913E-14 5.38868E-13
 -1      2905 2.05870E+01 1.43308E-01 6.13807E-04 6.79257E-01-1.01287E-13-1.10501E-13
 -1      2906 2.06813E+01 1.28027E-01 1.42829E-03 7.21410E-01-2.90151E-13-7.00967E-14
 -1      2907 2.05394E+01 1.46232E-01-2.13306E-03 8.20345E-01-5.69178E-14 4.02208E-13
 -1      2908 2.04514E+01 1.54756E-01 1.68203E-04 5.78871E-01 9.24483E-14-1.40767E-13
 -1      2909 2.05321E+01 1.52001E-01 1.95698E-03 6.25883E-01 5.12615E-14-2.09633E-13
 -1      2910 2.04139E+01 1.85929E-01-1.53257E-03 7.14124E-01-1.05849E-14-3.76272E-14
 -1      2911 2.03415E+01 1.50081E-01-5.22974E-05 4.78927E-01 1.14922E-13-2.10163E-13
 -1      2912 2.04093E+01 1.54387E-01 2.13518E-03 5.25521E-01 1.17685E-13-2.12462E-13
 -1      2913 2.03166E+01 1.94973E-01-1.15659E-03 6.02444E-01 1.35936E-13-4.58361E-14
 -1      2914 2.02528E+01 1.37662E-01-1.24745E-04 3.85809E-01 1.60489E-13-2.21354E-13
 -1      2915 2.03087E+01 1.45022E-01 2.07673E-03 4.29140E-01 1.07745E-13-2.73056E-13
 -1      2916 2.02401E+01 1.86446E-01-9.15235E-04 4.94932E-01 8.61828E-14-1.53935E-13
 -1      2917 2.01814E+01 1.23398E-01-4.92988E-05 3.02149E-01 1.17675E-13 1.24852E-14
 -1      2918 2.02266E+01 1.31067E-01 1.87202E-03 3.41115E-01 1.51280E-13-1.16179E-14
 -1      2919 2.01791E+01 1.69990E-01-7.45050E-04 3.96640E-01-1.19644E-15-3.52453E-13
 -1      2920 2.01249E+01 1.11072E-01 4.74491E-04 2.28321E-01-1.05763E-13 1.65891E-13
 -1      2921 2.01601E+01 1.17025E-01 1.61257E-03 2.62543E-01-1.72768E-15 1.06722E-13
 -1      2922 2.01294E+01 1.52256E-01-6.36804E-04 3.09293E-01-3.77683E-14 1.86847E-14
 -1      2923 2.00785E+01 1.08996E-01 6.72555E-04 1.73799E-01-9.97951E-14 3.15171E-13
 -1      2924 2.01057E+01 1.13608E-01 1.40066E-03 2.05087E-01-3.52635E-14 1.08742E-13
 -1      2925 2.00860E+01 1.43263E-01-1.35155E-03 2.43277E-01-2.56440E-14 1.70680E-13
 -1      2926 2.00523E+01 1.44687E-01-1.29969E-03 1.94602E-01 3.75332E-15 6.47754E-14
 -1      2927 1.98670E+01 3.81099E-01-1.04911E-03 2.84512E-02 8.07347E-15 1.84187E-13
 -1      2928 1.98734E+01 3.74805E-01-3.44572E-04 6.35958E-02 1.71712E-13-6.93728E-14
 -1      2929 2.00863E+01 1.45437E-01 1.33351E-03-2.18596E-01-5.73922E-13 2.97024E-13
 -1      2930 2.00695E+01 1.37647E-01 1.42063E-04-1.93727E-01-4.33799E-13 2.38497E-13
 -1      2931 2.00473E+01 1.63619E-01-9.10358E-04-2.01922E-01-5.28913E-13 1.86052E-13
 -1      2932 2.00644E+01 1.81110E-01-3.82673E-05-2.53051E-01-3.34088E-13 5.13559E-14
 -1      2933 1.99166E+01 3.19246E-01-1.46760E-03 1.61251E-01 3.11419E-13-1.24548E-14
 -1      2934 1.99384E+01 2.97073E-01 5.77054E-04 1.81291E-01 3.05189E-13 2.26005E-14
 -1      2935 1.98691E+01 3.80852E-01-6.30601E-04-4.99773E-02 1.15388E-14 2.42124E-13
 -1      2936 1.98656E+01 3.84216E-01-8.24869E-04-1.39467E-02-2.30371E-14 2.68259E-13
 -1      2937 1.98356E+01 4.06126E-01 1.41487E-03 9.29600E-03 1.77775E-13 1.81676E-13
 -1      2938 1.98837E+01 3.59631E-01-1.34098E-03 1.02072E-01 1.82980E-13 1.02186E-14
 -1      2939 1.98988E+01 3.44564E-01 1.60357E-04 1.31613E-01 2.53769E-13 3.16945E-14
 -1      2940 1.98862E+01 3.50425E-01 1.00171E-03 1.65981E-01 3.49170E-13-1.44117E-13
 -1      2941 1.98505E+01 3.88729E-01 1.25430E-03 9.43383E-02 2.47404E-13-4.05681E-14
 -1      2942 1.62448E+01-4.34988E+00 3.89188E-02 6.51368E+00 3.97182E-14-3.03785E-13
 -1      2943 1.32079E+01-3.15791E+00 1.24920E-01 6.14586E+00 4.62408E-14-1.38042E-13
 -1      2944 1.86971E+01-4.26347E+00 1.16095E-01 5.64401E+00 6.22280E-14-4.20101E-13
 -1      2945 1.98899E+01 3.58952E-01-9.94245E-05-1.21490E-01 4.80126E-14-6.18613E-15
 -1      2946 1.98770E+01 3.71403E-01-1.23953E-03-9.00803E-02-4.12218E-14 2.68143E-13
 -1      2947 1.98437E+01 4.00277E-01 1.44158E-03-7.75505E-02 1.19326E-13 1.39711E-13
 -1      2948 1.99286E+01 3.16395E-01 4.89229E-04-1.78289E-01 2.46338E-13 5.55727E-14
 -1      2949 1.99068E+01 3.37203E-01-1.52681E-03-1.55098E-01 1.85545E-13-8.73913E-14
 -1      2950 1.98747E+01 3.71151E-01 1.29743E-03-1.55432E-01 1.57351E-13 7.31922E-14
 -1      2951 1.99792E+01 2.57176E-01 6.60058E-04-2.09824E-01-1.65558E-13 5.06038E-14
 -1      2952 1.99526E+01 2.84446E-01-1.52019E-03-1.99453E-01 1.56732E-13-9.78460E-15
 -1      2953 1.99259E+01 3.20501E-01 9.46777E-04-2.13836E-01 9.76997E-14-1.89648E-14
 -1      2954 2.00271E+01 1.94490E-01 2.79565E-04-2.09375E-01-4.26877E-13-6.49074E-14
 -1      2955 2.00005E+01 2.25966E-01-1.35458E-03-2.13024E-01-2.85727E-13 9.13846E-14
 -1      2956 1.99806E+01 2.61378E-01 2.03491E-04-2.38770E-01-1.20342E-13-1.37271E-13
 -1      2957 2.00331E+01 2.02298E-01 3.13099E-04-2.34001E-01-3.81731E-13-8.62106E-14
 -1      2958 1.99761E+01 2.49596E-01-2.26030E-04 3.35793E-02 4.36938E-14 5.23570E-14
 -1      2959 2.00353E+01 3.29583E-01 7.46502E-03 1.36335E-01 4.84406E-14 6.63723E-14
 -1      2960 2.01559E+01 4.96349E-01-1.40849E-03 2.56001E-01 6.78660E-14 3.34171E-14
 -1      2961 2.00725E+01 2.92984E-01-2.28905E-03 2.39926E-02 4.95904E-14 1.49279E-14
 -1      2962 2.03213E+01 1.71514E+00-9.80348E-03-1.32358E+00-9.22101E-14 3.39334E-15
 -1      2963 2.02894E+01 1.33512E+00-6.87266E-03-1.02495E+00-8.81398E-14 1.93373E-14
 -1      2964 1.77008E+01-4.49389E+00 2.17257E-02 5.85494E+00 1.14395E-13-2.45456E-13
 -1      2965 1.44607E+01-3.50894E+00 1.56451E-01 5.88057E+00 1.40263E-13-2.41085E-13
 -1      2966 1.12271E+01-2.62807E+00 6.74755E-02 5.46954E+00 1.43066E-13-9.30922E-14
 -1      2967 8.62243E+00-1.47356E+00 1.51730E-01 3.82852E+00 1.78912E-13-2.87381E-13
 -1      2968 1.40646E+01-2.47646E+00 1.53577E-01 5.19637E+00 6.64746E-14-2.53172E-13
 -1      2969 2.86744E+01 1.88333E+00-7.55842E-02 1.81553E+00 1.20792E-13-2.29122E-14
 -1      2970 2.84438E+01 3.77837E+00-1.93341E-01 1.86827E+00 1.97897E-13 6.01741E-14
 -1      2971 2.86279E+01-3.21696E+00-1.51379E-01 9.94578E-02-6.25268E-14 2.69784E-14
 -1      2972 2.71700E+01-4.42212E+00 9.24853E-02 1.73492E+00 1.37855E-13-1.19557E-13
 -1      2973 1.99024E+01 5.47372E-02 1.06560E-03-2.69057E-01-1.72306E-14 2.04791E-14
 -1      2974 1.98881E+01 6.73950E-02 1.67067E-03-2.43772E-01 1.52568E-14 1.57805E-14
 -1      2975 1.99813E+01 6.96854E-02-1.60631E-03-2.91182E-01-2.13907E-14 2.03647E-14
 -1      2976 1.98955E+01 8.51238E-02 7.32198E-04-2.08561E-01 4.62079E-14 2.69400E-14
 -1      2977 1.98990E+01 1.11583E-01 3.04970E-03-1.69600E-01 4.63704E-14 4.20349E-14
 -1      2978 1.99876E+01 1.03405E-01-2.06007E-03-2.25350E-01 2.94382E-14 3.07633E-14
 -1      2979 2.03217E+01 1.04477E+00 5.02452E-03-8.21509E-01-7.57647E-14 2.47065E-14
 -1      2980 2.02305E+01 8.10243E-01-4.94580E-03-5.78204E-01-6.08821E-14 3.40363E-14
 -1      2981 2.02693E+01 8.94604E-01 1.98231E-03-5.35129E-01-7.05279E-14 4.21028E-15
 -1      2982 2.02850E+01 1.39664E+00 1.82954E-03-9.07057E-01-7.71187E-14-9.40003E-15
 -1      2983 6.89206E+00-7.29250E-01 1.49054E-01-1.96970E+00-5.07580E-14-1.80467E-13
 -1      2984 8.75336E+00-1.40236E+00 1.15694E-01-4.23744E+00-2.35367E-14 7.20535E-14
 -1      2985 2.89100E+01 3.92617E+00-2.01523E-01-1.78926E+00 5.34572E-14-7.09988E-14
 -1      2986 2.90328E+01 1.98436E+00-6.14558E-02-1.73859E+00 1.58040E-13-2.02033E-13
 -1      2987 1.99340E+01 2.61321E+00-7.88331E-03 7.85434E-01 6.94924E-14-6.17349E-14
 -1      2988 1.98908E+01 2.70681E+00-6.25084E-03 6.37502E-01 4.58609E-14-9.12491E-14
 -1      2989 2.00087E+01 2.41278E+00 4.48290E-03 5.08048E-01 3.46785E-14-8.55279E-14
 -1      2990 2.00898E+01 2.21051E+00 5.79649E-03 7.34286E-01 7.35287E-14-4.32716E-14
 -1      2991 1.98864E+01 2.71573E+00-6.09654E-03-6.27076E-01-2.92434E-14-1.14972E-13
 -1      2992 1.99289E+01 2.62460E+00-7.51236E-03-7.75079E-01-4.06276E-14-1.20570E-13
 -1      2993 1.84730E+01-4.61224E+00 1.25156E-01-5.97154E+00-1.65729E-13 8.73294E-14
 -1      2994 2.15872E+01-5.17975E+00-7.20324E-02-5.15149E+00-1.33005E-13 7.24247E-14
 -1      2995 2.00901E+01 2.53238E+00-2.16855E-03-1.45001E+00-8.75324E-14-4.19578E-14
 -1      2996 2.45360E+01-4.76489E+00 9.10753E-02-3.44827E+00-1.20716E-13 1.62925E-14
 -1      2997 2.64077E+01-4.07702E+00-1.55358E-01-1.80859E+00-2.88138E-14-4.25493E-14
 -1      2998 6.19682E+00-7.98396E-01 8.64217E-02 1.42936E+00 2.35957E-14 3.70259E-14
 -1      2999 6.09658E+00-8.06469E-01 1.93786E-01-9.34630E-01 2.35714E-14 1.99007E-14
 -1      3000 1.20179E+01-2.72024E+00 1.34212E-01-5.83347E+00-4.16611E-14 2.01866E-13
 -1      3001 1.52235E+01-3.97223E+00 3.77693E-02-6.48976E+00-1.38889E-13 1.96107E-13
 -1      3002 1.79493E+01-3.87572E+00 1.15838E-01-5.62680E+00-9.85323E-14 8.41549E-14
 -1      3003 7.21383E+00-6.63463E-01 1.26024E-01 1.98607E+00 1.26919E-13-2.82663E-13
 -1      3004 6.65602E+00-4.60992E-01 1.35319E-01 2.21924E-02 2.47025E-15-2.49467E-13
 -1      3005 2.79256E+01-2.10402E+00 2.60912E-02 1.08999E-01 9.59233E-14-1.69587E-14
 -1      3006 2.84276E+01-4.82050E-01-1.84032E-01 1.08158E+00 8.23785E-14 3.37230E-14
 -1      3007 1.01385E+01-1.88256E+00 8.84297E-02 5.05464E+00 1.00808E-13 1.68199E-13
 -1      3008 7.98901E+00-1.02674E+00 2.05312E-01 3.42004E+00 1.22562E-13 6.29496E-14
 -1      3009 2.97847E+01 7.92170E-01-1.91413E-01-2.06986E+00-1.82548E-13 3.07532E-14
 -1      3010 2.94549E+01-8.43194E-01-3.52797E-02-1.61947E+00-1.85255E-13 3.14748E-14
 -1      3011 1.85673E+01-4.90793E+00 1.23283E-01-5.80378E+00 1.59192E-13 1.72383E-13
 -1      3012 2.18479E+01-5.49572E+00-7.63877E-02-4.99899E+00 2.16244E-13 2.85596E-13
 -1      3013 2.97136E+01 4.57660E+00-2.09196E-01-1.99520E+00-4.25493E-13 8.35998E-14
 -1      3014 2.98404E+01 2.84671E+00-1.34384E-01-2.32010E+00-2.75890E-13 6.24778E-14
 -1      3015 2.86920E+01 1.56698E+00-7.59979E-02-2.55928E+00-2.23432E-13-1.95399E-14
 -1      3016 2.51968E+01-5.04958E+00 8.76125E-02-3.15857E+00 2.73309E-13 3.02910E-13
 -1      3017 2.74005E+01-4.39570E+00-1.37816E-01-1.65545E+00 1.51879E-13 8.03940E-14
 -1      3018 2.87781E+01-5.33798E-01-1.95825E-01-8.19765E-01-2.04003E-14-2.74822E-13
 -1      3019 2.83485E+01-2.08202E+00 6.22280E-03 2.14254E-01-1.97835E-13-7.76601E-14
 -1      3020 2.80598E+01 6.27329E+00-1.90380E-01-7.05871E-01 1.14964E-13-2.81983E-13
 -1      3021 2.83998E+01 5.48282E+00-1.36932E-01-1.48790E+00 6.47260E-14-1.80828E-13
 -1      3022 2.82610E+01 4.45047E+00-1.93096E-01 1.77750E+00-2.06085E-13-2.17687E-13
 -1      3023 1.99827E+01 2.50407E+00-5.54925E-03-8.91806E-01-5.12896E-14-1.02194E-13
 -1      3024 2.00425E+01 2.37273E+00-6.71181E-03-1.02571E+00-6.58781E-14-7.12397E-14
 -1      3025 2.00832E+01 2.22473E+00 5.98196E-03-7.28031E-01-3.52696E-14-8.83740E-14
 -1      3026 1.99433E+01 2.56711E+00 3.55910E-03 4.70322E-03-1.82748E-14-1.08167E-13
 -1      3027 1.98059E+01 2.89336E+00-5.55440E-03-6.06725E-02-1.53789E-14-1.20798E-13
 -1      3028 1.98134E+01 2.87833E+00-5.58341E-03-2.13520E-01-2.34261E-14-1.37114E-13
 -1      3029 2.38573E+01-4.77082E+00 5.35753E-02 3.67219E+00-1.84158E-14-1.58776E-13
 -1      3030 2.02927E+01 1.59459E+00-1.28736E-03 1.15615E+00 9.38162E-14 2.27093E-14
 -1      3031 1.20420E+01-2.39330E+00 1.50883E-01-5.16509E+00 9.96980E-14 4.84959E-13
 -1      3032 2.71639E+01-3.10359E+00-1.50661E-02 6.83661E-01-2.37501E-13-1.11397E-13
 -1      3033 7.96338E+00-6.95754E-01 1.77508E-01-2.04793E+00-4.51583E-14 1.55320E-13
 -1      3034 2.76889E+01-2.00151E+00-8.38254E-02-1.45654E+00-5.76518E-14 7.49470E-14
 -1      3035 2.74391E+01-9.05949E-01-9.33095E-02-2.37399E+00-4.02386E-14 8.54386E-14
 -1      3036 2.81763E+01 4.82733E+00-2.30877E-01-1.45761E+00-4.11449E-13 9.59094E-14
 -1      3037 2.75146E+01 8.02988E-01-4.49530E-02-2.62258E+00-1.45745E-13 1.07227E-13
 -1      3038 2.72984E+01 2.10009E+00-1.82156E-01-2.58084E+00-2.42584E-13 1.68126E-13
 -1      3039 2.72188E+01 3.74274E+00-5.65245E-02-1.83826E+00-3.57811E-13 1.55532E-13
 -1      3040 1.99373E+01 2.95904E-01 5.94722E-04 2.15282E-01 2.00098E-13 5.18567E-14
 -1      3041 1.99614E+01 2.64764E-01-1.38411E-03 1.98427E-01 1.82631E-13 5.26241E-14
 -1      3042 1.99866E+01 2.37568E-01 6.82761E-04 2.06226E-01 6.03355E-15 3.13804E-15
 -1      3043 1.10498E+01-6.62609E-01 9.15790E-02-3.79376E+00-5.35821E-14 9.65339E-14
 -1      3044 1.13788E+01-1.74281E+00 1.48400E-01-4.95518E+00-4.34444E-14 1.62953E-13
 -1      3045 1.38471E+01-2.08453E+00 6.85539E-03-5.15907E+00-3.33483E-14 2.46844E-13
 -1      3046 2.89202E+01-2.63622E+00-1.12070E-02 2.05189E-01-1.79440E-14-1.62204E-13
 -1      3047 2.97291E+01-9.00348E-01-1.41503E-01 1.30325E+00-5.06817E-14-3.43447E-13
 -1      3048 2.00166E+01 1.71461E-01-2.51004E-03-1.27486E-01 5.05508E-14 1.88944E-14
 -1      3049 2.00077E+01 2.06374E-01-1.22044E-03 2.08021E-01-5.12038E-15-1.27247E-13
 -1      3050 2.00329E+01 1.76875E-01 7.00813E-04 2.03141E-01 2.20519E-14-1.02285E-13
 -1      3051 2.00474E+01 1.77398E-01 1.21280E-03 2.28264E-01 5.44336E-15-2.71888E-14
 -1      3052 1.99942E+01 2.36068E-01 7.18631E-04 2.34942E-01-9.38214E-14 3.30804E-14
 -1      3053 2.83105E+01-2.25256E+00-5.34967E-02-9.55385E-01-1.33581E-13-6.98469E-14
 -1      3054 2.81250E+01 5.13682E-01-6.40616E-02-1.57816E+00 3.85803E-15-2.33882E-13
 -1      3055 2.00542E+01-4.69429E+00 1.33136E-01 5.19803E+00 6.10761E-14-2.04402E-13
 -1      3056 1.87344E+01-3.70884E+00 1.10745E-01 5.09181E+00 1.60982E-14-3.15192E-13
 -1      3057 2.17567E+01-5.12254E+00-1.36714E-01 4.40293E+00 5.84255E-14-2.44835E-13
 -1      3058 1.80568E+01-4.15572E+00 1.15722E-01-5.52244E+00 1.41442E-13 1.75984E-13
 -1      3059 2.77996E+01-3.47962E+00-1.32309E-02-1.88677E-01 1.77677E-13-1.63633E-13
 -1      3060 1.25124E+01-2.20715E+00 1.43436E-01 5.41384E+00 5.53724E-14 2.76029E-14
 -1      3061 1.20304E+01-1.13720E+00 9.15607E-02 4.47062E+00-9.13158E-15 1.06998E-13
 -1      3062 1.46474E+01-2.62044E+00-1.00074E-02 5.44538E+00 2.76584E-14-2.36894E-13
 -1      3063 2.66802E+01-3.11025E+00-1.11872E-02-5.04103E-01-9.45251E-15 1.42594E-14
 -1      3064 8.67554E+00-3.74173E-01 1.81316E-01 2.16894E+00 1.02085E-13 8.38218E-14
 -1      3065 2.66994E+01 3.13981E+00-4.12162E-02 2.07210E+00 1.16823E-13-2.41911E-13
 -1      3066 2.77182E+01 4.35185E+00-1.35418E-01 1.79771E+00 1.38861E-13-1.39715E-13
 -1      3067 2.64799E+01 4.70373E+00-1.61120E-01 1.52000E+00 3.32234E-14-3.09940E-13
 -1      3068 9.72185E+00-5.51734E-01 1.78877E-01 2.78248E+00 1.24914E-13-2.11581E-13
 -1      3069 2.76006E+01 4.68801E-01-6.13598E-02 1.77821E+00 7.54119E-14 5.94524E-14
 -1      3070 2.59135E+01-4.56915E+00 1.32307E-01 2.22047E+00 1.16351E-13-1.64938E-13
 -1      3071 2.01510E+01 2.18167E+00 5.51047E-04-1.19747E+00-7.74992E-14-4.75466E-14
 -1      3072 2.73775E+01 1.36793E+00-1.54681E-01 2.73424E+00-1.00739E-13-1.54307E-13
 -1      3073 2.85204E+01 5.13154E-01-4.02002E-02 2.54341E+00-8.29059E-14-3.98306E-13
 -1      3074 1.98291E+01 2.84175E+00-5.77688E-03-3.46660E-01-1.35295E-14-1.13769E-13
 -1      3075 1.98532E+01 2.79244E+00-6.15732E-03-4.98668E-01-2.60425E-14-1.15088E-13
 -1      3076 2.00047E+01 2.42046E+00 4.37377E-03-4.98813E-01-1.98745E-14-1.09362E-13
 -1      3077 1.99581E+01 2.53195E+00 3.71935E-03-2.50850E-01-2.40061E-14-1.27100E-13
 -1      3078 2.73326E+01 4.03730E+00-1.08739E-01-1.77616E+00 1.01918E-13-1.48354E-13
 -1      3079 8.74169E+00-2.91583E-02 1.89053E-01-1.02393E+00-2.66861E-14-1.68449E-13
 -1      3080 2.32008E+01-4.65791E+00 5.84931E-02-3.76195E+00-9.75123E-14 1.37737E-15
 -1      3081 2.38476E+01-4.97509E+00 6.28900E-02-3.54136E+00 3.08253E-13 1.82472E-13
 -1      3082 2.02842E+01 1.37708E+00 2.22105E-03 9.07538E-01 9.22832E-14-3.48978E-15
 -1      3083 2.73335E+01 2.98966E+00-6.23646E-02 2.12130E+00-1.32075E-13-1.62429E-13
 -1      3084 1.11239E+01-1.36103E+00 1.38451E-01-4.33979E+00 3.34455E-14 5.40470E-13
 -1      3085 1.39377E+01-2.31388E+00 7.20468E-02-5.12618E+00 1.40700E-13 3.31402E-13
 -1      3086 2.02476E+01 1.49776E+00-6.12410E-03 7.89026E-01 7.54361E-14-3.82179E-14
 -1      3087 2.02110E+01 1.68861E+00-1.51019E-04 7.32552E-01 8.36963E-14-2.75031E-14
 -1      3088 1.98037E+01 4.22129E-01-2.58035E-04-1.07245E-01 6.39091E-14 2.05864E-13
 -1      3089 1.97915E+01 4.29956E-01-1.02461E-03-6.36462E-02 1.53346E-13 2.56632E-13
 -1      3090 2.58276E+01 3.98707E+00-1.36512E-01-1.66922E+00 1.09385E-13-4.00621E-13
 -1      3091 2.65308E+01 2.79302E+00-6.46167E-02-2.19195E+00 1.57652E-14-3.28793E-13
 -1      3092 2.72456E+01-3.91068E+00-7.88058E-02 6.33507E-02 6.75675E-15-4.28893E-14
 -1      3093 2.02328E+01 4.61477E-01 3.80391E-03-8.01747E-02-6.61583E-14 5.58801E-15
 -1      3094 2.01972E+01 3.61467E-01-1.90107E-03 1.35043E-02-7.50679E-14-1.72131E-14
 -1      3095 2.01821E+01 2.86176E-01 2.84220E-03 8.50822E-02-9.08293E-14 3.35001E-15
 -1      3096 2.01565E+01 2.25582E-01-7.97786E-04 1.48145E-01-1.03527E-13-6.32193E-15
 -1      3097 2.02472E+01 3.91296E-01-9.08064E-04 2.89649E-02-5.94217E-14 4.19958E-15
 -1      3098 2.01380E+01 1.82199E-01 1.78877E-03 1.97711E-01-1.04748E-13-2.24866E-14
 -1      3099 2.01226E+01 1.49752E-01 7.31948E-06 2.41193E-01-8.93131E-14-9.93643E-15
 -1      3100 2.02056E+01 2.49727E-01-9.94791E-04 1.55820E-01-9.72695E-14-1.75883E-15
 -1      3101 2.01034E+01 1.29243E-01 8.70358E-04 2.77092E-01-6.76505E-14-9.92254E-15
 -1      3102 2.00967E+01 1.17458E-01 5.93335E-04 3.09833E-01-6.84093E-14-2.07092E-14
 -1      3103 2.01640E+01 1.72269E-01-8.89493E-04 2.45944E-01-7.80269E-14-3.76730E-14
 -1      3104 2.00775E+01 1.13965E-01 9.97097E-05 3.39066E-01-4.60411E-14-7.65169E-15
 -1      3105 2.00779E+01 1.17904E-01 1.03248E-03 3.67988E-01-4.87395E-14 4.22228E-14
 -1      3106 2.01249E+01 1.42274E-01-6.80717E-04 3.14715E-01-3.22487E-14-2.66900E-14
 -1      3107 2.00581E+01 1.27561E-01-5.52061E-04 3.96241E-01-6.46730E-14 4.64099E-14
 -1      3108 2.00639E+01 1.43891E-01 1.37715E-03 4.26751E-01-2.38869E-14 4.78328E-14
 -1      3109 2.00877E+01 1.48479E-01-4.15329E-04 3.74890E-01-3.67645E-14-5.39954E-15
 -1      3110 2.00426E+01 1.64045E-01-1.12415E-03 4.58570E-01-2.94027E-14 4.35690E-14
 -1      3111 2.00522E+01 1.90398E-01 1.66140E-03 4.94903E-01-1.42722E-14 2.11627E-14
 -1      3112 2.00504E+01 1.83130E-01-1.07074E-04 4.36771E-01-3.11068E-14 6.07189E-14
 -1      3113 2.00277E+01 2.19049E-01-1.65341E-03 5.33902E-01 2.30863E-15 6.50204E-15
 -1      3114 2.00399E+01 2.53495E-01 1.90753E-03 5.79358E-01-2.38936E-15 3.14676E-14
 -1      3115 2.00101E+01 2.40630E-01 2.49274E-04 5.08528E-01-2.93959E-15 4.22247E-14
 -1      3116 2.00102E+01 2.88778E-01-2.16638E-03 6.28406E-01-5.57408E-15 3.65213E-14
 -1      3117 2.00238E+01 3.29252E-01 2.13243E-03 6.85475E-01 1.07148E-14 4.80282E-14
 -1      3118 1.99628E+01 3.16375E-01 6.62583E-04 5.96574E-01 1.16524E-14 2.18442E-14
 -1      3119 1.99865E+01 3.68806E-01-2.67268E-03 7.46828E-01 1.17365E-14 5.35616E-14
 -1      3120 2.00005E+01 4.12378E-01 2.36158E-03 8.17176E-01 1.68438E-14 3.33225E-14
 -1      3121 1.99041E+01 4.05495E-01 1.13336E-03 7.05901E-01 1.74407E-14-3.18073E-14
 -1      3122 1.99533E+01 4.52498E-01-3.15871E-03 8.92596E-01 1.78571E-14-6.85327E-15
 -1      3123 1.99674E+01 4.94358E-01 2.65010E-03 9.76969E-01-2.72767E-14-2.26098E-14
 -1      3124 1.98289E+01 5.01312E-01 1.64137E-03 8.40358E-01-4.04205E-14-9.63254E-15
 -1      3125 1.99088E+01 5.28762E-01-3.57376E-03 1.06792E+00-5.28679E-14-3.68314E-15
 -1      3126 1.99243E+01 5.60709E-01 3.11083E-03 1.16597E+00-7.20328E-14-1.56324E-15
 -1      3127 1.97331E+01 5.93189E-01 2.10562E-03 1.00305E+00-2.16149E-14-8.32083E-14
 -1      3128 1.98546E+01 5.78712E-01-3.79872E-03 1.27397E+00-2.99590E-14 5.03171E-14
 -1      3129 1.98768E+01 5.87008E-01 3.95858E-03 1.38399E+00 1.42428E-14 6.03733E-14
 -1      3130 1.96143E+01 6.63451E-01 2.33895E-03 1.19715E+00 2.06304E-14 1.68123E-14
 -1      3131 1.98013E+01 5.71064E-01-3.57793E-03 1.51114E+00-4.27651E-15 4.51536E-14
 -1      3132 1.98428E+01 5.33601E-01 5.52818E-03 1.62962E+00 1.87374E-14 3.84297E-14
 -1      3133 1.94766E+01 6.82966E-01 1.96103E-03 1.42718E+00-6.96001E-15 3.19015E-14
 -1      3134 1.97766E+01 4.56397E-01-2.38871E-03 1.77910E+00 1.02210E-13 3.51048E-14
 -1      3135 1.98636E+01 3.39565E-01 8.16326E-03 1.89951E+00 1.21014E-13 8.16759E-14
 -1      3136 1.93363E+01 6.05203E-01 2.36040E-04 1.70103E+00 6.71688E-14-3.30208E-14
 -1      3137 1.98406E+01 1.61928E-01 8.56153E-04 2.07455E+00 2.87569E-14 1.10857E-13
 -1      3138 2.00204E+01-8.06731E-02 1.18542E-02 2.18345E+00 3.75189E-14 7.11885E-14
 -1      3139 1.92351E+01 3.58881E-01-4.24046E-03 2.03114E+00 8.79117E-14 5.39751E-14
 -1      3140 2.01102E+01-4.09011E-01 8.36922E-03 2.38096E+00 3.75717E-14 8.22641E-14
 -1      3141 2.04529E+01-8.28092E-01 1.58938E-02 2.44535E+00 6.48391E-14 3.51570E-14
 -1      3142 1.92611E+01-1.57312E-01-1.38021E-02 2.43115E+00-2.26658E-15 3.28483E-14
 -1      3143 2.07987E+01-1.32819E+00 3.73273E-02 2.63665E+00 1.13813E-13-2.77608E-14
 -1      3144 2.14695E+01-1.97182E+00 3.04256E-02 2.55065E+00 1.12332E-13-5.71817E-14
 -1      3145 1.96063E+01-1.06887E+00-2.33306E-02 2.89638E+00 6.68719E-14-1.47757E-14
 -1      3146 2.19378E+01-3.23464E+00 2.53687E-02 3.11307E+00 5.82564E-14-1.14745E-13
 -1      3147 2.30918E+01-3.79613E+00 8.74008E-02 2.81288E+00 8.35269E-14-1.13038E-13
 -1      3148 2.43903E+01-4.19776E+00 4.06835E-02 2.25545E+00 5.02653E-14-1.95177E-13
 -1      3149 9.55366E+00 4.19591E-01 6.86510E-02-9.40696E-02 3.58758E-14-1.44482E-13
 -1      3150 9.87607E+00 2.06328E-01 1.02776E-01-2.01280E+00 1.31839E-16-7.47041E-14
 -1      3151 2.30806E+01-3.22408E+00 8.93428E-03-2.23075E+00 2.54248E-13 1.41114E-13
 -1      3152 2.22160E+01-2.54713E+00 5.24135E-02-2.52630E+00 1.34102E-13 2.73743E-13
 -1      3153 2.14689E+01-1.88562E+00 1.72893E-02-2.49012E+00-8.03524E-15 3.92798E-13
 -1      3154 2.09003E+01-1.27922E+00 2.87406E-02-2.54236E+00-4.16890E-14 3.68415E-13
 -1      3155 2.06872E+01-2.32959E+00-2.53439E-02-3.14479E+00 1.40844E-13 8.35373E-14
 -1      3156 2.05645E+01-7.82932E-01 1.44839E-02-2.38016E+00 3.51303E-15 3.56324E-13
 -1      3157 2.02310E+01-3.72816E-01 9.82107E-03-2.31986E+00-4.62649E-14 2.69154E-13
 -1      3158 1.97613E+01-1.02949E+00-2.52684E-02-2.80007E+00 1.88079E-14 2.61674E-13
 -1      3159 2.01301E+01-5.74827E-02 1.08482E-02-2.13437E+00-6.21675E-14 3.45114E-13
 -1      3160 1.99524E+01 1.79226E-01 1.74365E-03-2.02876E+00-7.22573E-14 3.67031E-13
 -1      3161 1.94092E+01-1.37946E-01-1.27758E-02-2.37572E+00-7.46362E-14 3.85082E-13
 -1      3162 1.99622E+01 3.50673E-01 7.34698E-03-1.85849E+00-1.58855E-13 4.16927E-13
 -1      3163 1.98731E+01 4.65632E-01-1.65866E-03-1.73808E+00-1.61446E-13 4.70552E-13
 -1      3164 1.93584E+01 3.67950E-01-4.22475E-03-1.99301E+00-9.83522E-14 4.14172E-13
 -1      3165 1.99266E+01 5.40719E-01 4.96514E-03-1.58858E+00-2.56548E-13 5.04440E-13
 -1      3166 1.98815E+01 5.79306E-01-2.91696E-03-1.46743E+00-1.85889E-13 3.75007E-13
 -1      3167 1.94356E+01 6.11496E-01-6.66428E-05-1.66699E+00-2.16082E-13 3.51122E-13
 -1      3168 1.99455E+01 5.95914E-01 3.58032E-03-1.33704E+00-9.02153E-14 3.79071E-13
 -1      3169 1.99197E+01 5.90747E-01-3.20530E-03-1.22245E+00 1.42283E-13 2.97341E-13
 -1      3170 1.95543E+01 6.92227E-01 1.65476E-03-1.38888E+00-1.55518E-13 5.36867E-13
 -1      3171 1.99790E+01 5.75406E-01 2.80813E-03-1.10911E+00 2.59698E-13 1.41390E-13
 -1      3172 1.99603E+01 5.48035E-01-3.03858E-03-1.00499E+00 1.56263E-13 1.56163E-13
 -1      3173 1.96729E+01 6.79451E-01 2.10033E-03-1.14940E+00 7.54905E-14 4.54634E-13
 -1      3174 2.00094E+01 5.17717E-01 2.35880E-03-9.07118E-01 4.11151E-14 1.80161E-13
 -1      3175 1.99929E+01 4.81400E-01-2.68738E-03-8.15303E-01-8.39378E-14 8.86920E-14
 -1      3176 1.97741E+01 6.18763E-01 1.95042E-03-9.42390E-01 7.32067E-14 3.37526E-13
 -1      3177 2.00309E+01 4.46248E-01 2.04268E-03-7.31660E-01 7.65946E-14 3.07388E-14
 -1      3178 2.00150E+01 4.08682E-01-2.30959E-03-6.52610E-01 3.16766E-13 4.34493E-14
 -1      3179 1.98535E+01 5.38431E-01 1.58104E-03-7.64111E-01-1.72954E-14 2.09265E-13
 -1      3180 2.00429E+01 3.74759E-01 1.78404E-03-5.82255E-01 2.95849E-13-5.35953E-14
 -1      3181 2.00276E+01 3.40710E-01-1.75321E-03-5.15340E-01 3.28597E-13-1.03246E-14
 -1      3182 1.99125E+01 4.55194E-01 1.22306E-03-6.12222E-01 1.67981E-13-1.43017E-13
 -1      3183 2.00464E+01 3.10023E-01 1.18658E-03-4.55854E-01 3.02314E-13-1.25972E-13
 -1      3184 2.00321E+01 2.81672E-01-1.57203E-03-4.00467E-01 3.70805E-14-2.67219E-13
 -1      3185 1.99524E+01 3.78742E-01 4.86416E-04-4.84952E-01 1.68561E-13-2.77244E-13
 -1      3186 2.00450E+01 2.57539E-01 1.20074E-03-3.50826E-01-1.49618E-13-2.31737E-13
 -1      3187 2.00322E+01 2.35326E-01-7.33754E-04-3.04519E-01-1.81853E-13-2.81297E-13
 -1      3188 1.99814E+01 3.15881E-01 1.73926E-03-3.76532E-01-1.79492E-14-3.67960E-13
 -1      3189 2.96141E+01-3.52475E-01-1.31687E-01 1.74547E+00-5.59205E-14-3.49248E-13
 -1      3190 2.00958E+01 2.00419E-01-5.91284E-04-1.39773E-01 3.88627E-14-3.05546E-15
 -1      3191 2.01214E+01 2.58001E-01 2.98075E-03-7.51933E-02 4.00983E-14-9.84821E-15
 -1      3192 2.00486E+01 8.26164E-02 1.08536E-03-3.52784E-01 6.48607E-14-6.24240E-14
 -1      3193 2.00396E+01 8.38544E-02 4.00420E-04-3.27879E-01 1.77351E-14-6.00690E-14
 -1      3194 2.01010E+01 1.48585E-01 1.86428E-03-5.23149E-01 3.11250E-15 1.89501E-13
 -1      3195 2.00709E+01 1.31805E-01-8.73688E-04-4.89727E-01 8.13097E-14 9.98766E-14
 -1      3196 2.01376E+01 1.80117E-01 2.02366E-03-6.02030E-01-4.61895E-14 2.11681E-13
 -1      3197 2.01005E+01 1.63884E-01-1.01026E-03-5.62171E-01 7.79458E-15 2.13811E-13
 -1      3198 2.00578E+01 1.88157E-01-4.85910E-04-5.56887E-01-5.93286E-15 1.68862E-13
 -1      3199 2.01866E+01 2.03886E-01 2.11615E-03-6.94477E-01-6.34155E-14 1.16495E-13
 -1      3200 2.01414E+01 1.92718E-01-9.75042E-04-6.48762E-01-3.72024E-14 1.66028E-13
 -1      3201 2.00650E+01 2.23762E-01-5.53888E-04-6.44660E-01-7.74073E-15 1.65923E-13
 -1      3202 2.02527E+01 2.08795E-01 2.11822E-03-7.97397E-01 2.08612E-14 2.70333E-14
 -1      3203 2.01973E+01 2.08768E-01-6.98894E-04-7.48285E-01-4.21105E-14 6.97952E-14
 -1      3204 2.00826E+01 2.47695E-01-8.03811E-04-7.47539E-01-6.61407E-15 8.17047E-14
 -1      3205 2.03443E+01 1.80002E-01 1.98392E-03-9.03530E-01 4.23679E-14 4.47743E-14
 -1      3206 2.02751E+01 1.99222E-01-7.79481E-05-8.55872E-01 1.52855E-14 6.49495E-14
 -1      3207 2.01168E+01 2.46119E-01-1.32586E-03-8.62959E-01-2.99795E-15 3.23404E-14
 -1      3208 2.04745E+01 9.83943E-02 1.62356E-03-1.00012E+00 1.33419E-14 1.28497E-13
 -1      3209 2.03864E+01 1.47176E-01 1.04584E-03-9.61887E-01 3.76438E-14 1.08444E-13
 -1      3210 2.01789E+01 2.00597E-01-2.30046E-03-9.84557E-01 1.85973E-14 6.36074E-14
 -1      3211 2.06629E+01-5.82040E-02 8.58830E-04-1.06699E+00-3.91394E-15 9.24940E-14
 -1      3212 2.05489E+01 3.17638E-02 2.86071E-03-1.05011E+00 3.26039E-14 1.49956E-13
 -1      3213 2.02872E+01 8.78803E-02-3.91942E-03-1.10064E+00-1.36865E-14 2.30445E-14
 -1      3214 2.09355E+01-3.10226E-01-5.87789E-04-1.07414E+00 4.37508E-15 1.44953E-13
 -1      3215 2.07873E+01-1.69145E-01 5.52361E-03-1.09532E+00 1.35334E-14 1.36043E-13
 -1      3216 2.04694E+01-1.18341E-01-6.41717E-03-1.19164E+00-3.95857E-14 1.40239E-13
 -1      3217 2.13214E+01-6.64931E-01-3.09856E-03-9.79543E-01-5.46128E-14 1.69894E-13
 -1      3218 2.11328E+01-4.71265E-01 9.20219E-03-1.06025E+00 6.00290E-15 1.93405E-13
 -1      3219 2.07637E+01-4.40951E-01-9.77224E-03-1.22618E+00-1.22905E-14 1.91724E-13
 -1      3220 2.18410E+01-1.09362E+00-7.32537E-03-7.28603E-01-4.86122E-14 6.70635E-14
 -1      3221 2.16146E+01-8.68044E-01 1.33065E-02-8.92987E-01-6.59921E-15 1.03708E-13
 -1      3222 2.12153E+01-8.83395E-01-1.31640E-02-1.15550E+00 1.05793E-14 2.08937E-13
 -1      3223 2.24821E+01-1.49017E+00-1.24782E-02-2.63705E-01-1.17533E-13 9.61965E-14
 -1      3224 2.22396E+01-1.29884E+00 1.58660E-02-5.28706E-01-1.08113E-13 3.88849E-14
 -1      3225 2.18617E+01-1.40112E+00-1.57210E-02-9.08029E-01-8.63402E-14 1.37321E-13
 -1      3226 2.31551E+01-1.64146E+00-1.77212E-02 4.28564E-01-2.42218E-13 1.96113E-13
 -1      3227 2.29497E+01-1.60461E+00 1.27351E-02 8.03527E-02-1.65341E-13 1.15071E-13
 -1      3228 2.26904E+01-1.84246E+00-1.63033E-02-3.93952E-01-1.29019E-13 1.20135E-13
 -1      3229 2.37002E+01-1.21724E+00-7.76321E-03 1.26166E+00-2.31986E-13 1.72301E-13
 -1      3230 2.36012E+01-1.51475E+00 4.11427E-03 9.12104E-01-2.23512E-13 1.26361E-13
 -1      3231 2.36016E+01-1.93909E+00-1.70729E-02 4.16093E-01-1.97423E-13 8.75263E-14
 -1      3232 2.38991E+01-3.43501E-02 4.93276E-03 1.88341E+00-1.69529E-13 6.86408E-14
 -1      3233 2.39150E+01-7.44043E-01-2.97296E-02 1.69491E+00-1.74528E-13 6.96379E-14
 -1      3234 2.43067E+01-1.19242E+00 3.36486E-03 1.39329E+00-1.64898E-13-6.20810E-14
 -1      3235 2.36599E+01 1.68615E+00 8.39692E-03 1.77837E+00 6.03510E-14-1.05419E-13
 -1      3236 2.37686E+01 8.01070E-01-5.64740E-02 1.98700E+00-4.51549E-14-5.21508E-14
 -1      3237 2.45413E+01 3.80899E-01-1.43721E-03 2.03239E+00-5.85434E-14-2.30352E-13
 -1      3238 2.31821E+01 2.78666E+00-3.35791E-02-8.15570E-01 5.33427E-14-1.16998E-13
 -1      3239 2.31387E+01 2.98519E+00-2.83324E-02-1.67346E-01-2.89005E-14-1.32081E-13
 -1      3240 2.40859E+01 1.66124E+00-5.04072E-02-1.92810E+00 1.77268E-13-2.52278E-13
 -1      3241 2.39029E+01 2.51399E+00-2.60467E-02-1.56196E+00 1.42192E-13-3.01673E-13
 -1      3242 2.37464E+01-1.33779E+00-1.15081E-02-1.20600E+00-2.74399E-13 6.31721E-14
 -1      3243 2.38181E+01-8.95585E-01-6.07413E-03-1.52748E+00-1.39556E-13-6.52776E-15
 -1      3244 2.31968E+01-1.63829E+00 9.71840E-03-3.53627E-01-1.71955E-13 8.87962E-17
 -1      3245 2.33850E+01-1.56899E+00-1.11347E-02-7.25404E-01-2.41778E-13 4.28947E-14
 -1      3246 2.38948E+01-1.76099E+00 8.53736E-03-7.39281E-01-2.05904E-13-8.22669E-14
 -1      3247 2.24865E+01-1.42513E+00 1.55632E-02 3.37361E-01 6.19231E-14 4.71644E-14
 -1      3248 2.27249E+01-1.57744E+00-1.27645E-02 3.87881E-02-1.27742E-13 6.53828E-16
 -1      3249 2.30180E+01-1.91109E+00-6.98482E-03 1.49155E-01-1.83069E-13-1.27421E-13
 -1      3250 2.18233E+01-1.01228E+00 1.46126E-02 7.80657E-01 4.09972E-13 1.62400E-13
 -1      3251 2.20579E+01-1.23688E+00-9.01451E-03 5.83497E-01 3.12685E-13 1.54707E-13
 -1      3252 2.21386E+01-1.56313E+00-1.46349E-02 7.54679E-01 1.11188E-13-4.44805E-14
 -1      3253 2.12905E+01-5.89277E-01 1.07508E-02 1.00516E+00 2.65485E-13 3.00009E-13
 -1      3254 2.14920E+01-8.00101E-01-4.58276E-03 9.00381E-01 3.60272E-13 2.67520E-13
 -1      3255 2.14215E+01-1.05128E+00-1.47253E-02 1.08202E+00 2.82842E-13 1.68436E-13
 -1      3256 2.09016E+01-2.47358E-01 6.90534E-03 1.07350E+00 1.13051E-13 3.66598E-13
 -1      3257 2.10619E+01-4.09610E-01-1.35477E-03 1.03751E+00 2.10570E-13 3.04074E-13
 -1      3258 2.09045E+01-5.67946E-01-1.09897E-02 1.19979E+00 2.45371E-13 3.98159E-13
 -1      3259 2.06314E+01-7.54731E-03 3.84873E-03 1.04332E+00 8.36257E-14 4.31612E-13
 -1      3260 2.07545E+01-1.16961E-01 3.81886E-04 1.05329E+00 4.62535E-14 4.16543E-13
 -1      3261 2.05608E+01-1.97139E-01-7.44345E-03 1.18850E+00 2.71917E-14 4.66631E-13
 -1      3262 2.04481E+01 1.40691E-01 1.76535E-03 9.56623E-01-8.89257E-14 4.64917E-13
 -1      3263 2.05418E+01 7.59619E-02 1.28420E-03 9.94279E-01 2.62610E-14 3.83093E-13
 -1      3264 2.03446E+01 5.33429E-02-4.68542E-03 1.10414E+00 2.14634E-15 4.60469E-13
 -1      3265 2.03241E+01 2.18657E-01 4.60478E-04 8.42235E-01 9.86332E-14 2.00718E-13
 -1      3266 2.03961E+01 1.86991E-01 1.72508E-03 8.94191E-01 7.03156E-14 4.12570E-13
 -1      3267 2.02142E+01 2.02301E-01-2.76903E-03 9.83360E-01 7.14199E-14 2.45157E-13
 -1      3268 2.02389E+01 2.48174E-01-2.84357E-04 7.18895E-01 1.13133E-13-2.14280E-14
 -1      3269 2.02951E+01 2.38636E-01 1.89282E-03 7.76036E-01 1.24276E-13 1.55840E-13
 -1      3270 2.01381E+01 2.76086E-01-1.56112E-03 8.49038E-01 2.02185E-13 6.55297E-14
 -1      3271 2.01788E+01 2.47471E-01-6.53611E-04 5.98151E-01 1.30398E-13 4.55830E-14
 -1      3272 2.02234E+01 2.51277E-01 1.89604E-03 6.54687E-01 7.52049E-14-3.28788E-14
 -1      3273 2.00945E+01 2.99363E-01-8.49387E-04 7.15020E-01 2.05888E-14-6.72622E-15
 -1      3274 2.01350E+01 2.30298E-01-7.98585E-04 4.86537E-01 3.45668E-15-8.67327E-14
 -1      3275 2.01708E+01 2.40964E-01 1.78151E-03 5.39135E-01 1.90082E-13 7.51282E-14
 -1      3276 2.00694E+01 2.91965E-01-4.44288E-04 5.89317E-01 8.86645E-14 1.84779E-13
 -1      3277 2.01014E+01 2.06993E-01-7.56960E-04 3.87119E-01 6.27120E-15-2.06284E-13
 -1      3278 2.01305E+01 2.19642E-01 1.58388E-03 4.34317E-01-8.04805E-14-2.75712E-13
 -1      3279 2.00544E+01 2.68746E-01-1.88077E-04 4.76232E-01 1.04040E-13 9.74335E-14
 -1      3280 2.00757E+01 1.84386E-01-1.20007E-04 3.00576E-01-1.24385E-13-1.85879E-13
 -1      3281 2.00984E+01 1.95351E-01 1.30984E-03 3.41540E-01-1.29318E-13-2.97236E-13
 -1      3282 2.00438E+01 2.40271E-01-7.12728E-05 3.77051E-01-5.57512E-14-2.42709E-13
 -1      3283 2.00515E+01 1.80220E-01 3.86576E-04 2.49978E-01-5.18749E-14-7.41028E-14
 -1      3284 2.00711E+01 1.81119E-01 1.07932E-03 2.76494E-01-1.28868E-13-5.60999E-14
 -1      3285 2.00330E+01 2.19827E-01-3.52825E-04 3.06289E-01-2.57397E-13-2.95480E-13
 -1      3286 2.00221E+01 2.08207E-01-1.23487E-03 2.58191E-01-1.78231E-13-1.16335E-13
 -1      3287 2.00404E+01 2.11124E-01 3.78525E-04-2.60446E-01-2.19929E-13-2.62869E-13
 -1      3288 2.00528E+01 2.19302E+00-4.33951E-03 2.85490E-01 7.36972E-15-8.94769E-14
 -1      3289 2.00391E+01 2.23280E+00-3.51985E-03 1.66190E-01-6.38327E-15-1.01989E-13
 -1      3290 1.98496E+01 3.87002E-01 4.42474E-04-1.93000E-01 1.56899E-13 2.14709E-13
 -1      3291 1.98226E+01 4.04727E-01-1.56792E-03-1.56001E-01 5.32068E-14 2.18291E-13
 -1      3292 1.97783E+01 4.45926E-01 1.57093E-03-1.45510E-01 1.84221E-14 1.39417E-13
 -1      3293 1.97868E+01 4.32492E-01-8.48132E-04-1.00178E-02 1.54264E-13 1.04628E-13
 -1      3294 1.97896E+01 4.29995E-01-4.41671E-04 3.59495E-02 2.33275E-13 3.60647E-14
 -1      3295 1.97500E+01 4.64176E-01 1.58847E-03-3.87187E-02 1.52227E-13 1.66037E-13
 -1      3296 1.99195E+01 3.30454E-01 1.44281E-03-2.53092E-01 4.22936E-14-4.14532E-13
 -1      3297 1.98818E+01 3.55237E-01-1.88200E-03-2.29919E-01 1.40665E-13 8.88188E-15
 -1      3298 1.98404E+01 4.00486E-01 1.47547E-03-2.35799E-01 6.22669E-14 6.28256E-14
 -1      3299 2.80576E+01 6.46649E+00-1.58901E-01 1.85469E-02 1.46078E-13-3.33313E-13
 -1      3300 2.65949E+01 5.58040E+00-1.19847E-01-4.96559E-01 1.64438E-13-3.25670E-13
 -1      3301 1.58751E+01-2.52532E+00 3.32908E-02 5.00114E+00 2.10318E-14-2.70686E-13
 -1      3302 1.33706E+01-1.43245E+00 1.26125E-01 4.50131E+00 3.79800E-14-1.83603E-13
 -1      3303 2.00512E+01 9.08839E-02 6.82362E-04-3.00192E-01-1.11865E-14-3.97876E-14
 -1      3304 2.00516E+01 1.05005E-01 1.17558E-03-2.69943E-01 6.08756E-15-1.13122E-14
 -1      3305 2.00950E+01 1.10943E-01-1.04562E-03-3.10836E-01 1.52951E-14-9.24066E-14
 -1      3306 2.00743E+01 1.17572E-01 1.65529E-03-4.57642E-01 1.44226E-13 2.46455E-14
 -1      3307 2.00507E+01 1.03735E-01-5.95879E-04-4.29738E-01 1.29704E-13 2.75050E-14
 -1      3308 2.00577E+01 1.51303E-01-5.33203E-04-4.83746E-01 4.53942E-14 8.34843E-14
 -1      3309 2.00567E+01 9.36171E-02 1.39959E-03-4.02633E-01 7.78073E-14-1.47858E-14
 -1      3310 2.00400E+01 8.57565E-02-1.78047E-04-3.78009E-01 5.68464E-14-3.50607E-14
 -1      3311 2.00758E+01 1.05434E-01-8.29551E-04-3.67197E-01 5.52788E-14-8.30246E-14
 -1      3312 2.00636E+01 1.21348E-01-6.53889E-04-4.22273E-01 5.95580E-14-3.51633E-14
 -1      3313 2.45907E+01-4.51893E+00-9.22573E-02 2.52818E+00-4.47559E-16-8.69686E-14
 -1      3314 2.26820E+01-4.51077E+00 7.85390E-02 3.82658E+00 1.26090E-13-1.93768E-13
 -1      3315 2.02778E+01 7.39408E-01 3.47518E-03-3.19579E-01-6.86904E-14 2.44257E-15
 -1      3316 2.02389E+01 5.83725E-01-3.12865E-03-1.82215E-01-6.49945E-14-7.72838E-15
 -1      3317 2.02822E+01 6.21225E-01-3.58647E-04-1.51389E-01-6.58255E-14 9.84537E-15
 -1      3318 2.00664E+01 1.26350E-01 1.36144E-04-2.34011E-01 1.86889E-16 1.41843E-14
 -1      3319 2.00785E+01 1.58504E-01 2.18615E-03-1.91452E-01 1.68789E-14-1.18328E-14
 -1      3320 2.01224E+01 1.46800E-01-1.27548E-03-2.42800E-01 1.21960E-14-4.47812E-14
 -1      3321 1.13505E+01-6.34313E-01 5.86445E-02 3.58336E+00 7.48221E-14-2.11386E-13
 -1      3322 1.00953E+01 1.77110E-01 8.74075E-02 1.78733E+00 2.89803E-14-1.75068E-13
 -1      3323 1.36199E+01-6.10979E-01 1.21518E-01 3.56358E+00 3.24601E-14-2.09673E-13
 -1      3324 2.69115E+01 5.82060E+00-1.49011E-01 5.93962E-01 1.26982E-13-3.29342E-13
 -1      3325 2.20086E+01-4.21396E+00 1.11964E-01-3.96764E+00-1.49783E-13 6.90021E-14
 -1      3326 2.38798E+01-4.48908E+00-1.18318E-01-2.68250E+00-1.55077E-13-9.09108E-14
 -1      3327 2.25790E+01-4.47827E+00 1.04304E-01-3.74567E+00 3.77219E-13 1.47909E-13
 -1      3328 2.48886E+01-4.69741E+00-9.45751E-02-2.31892E+00 3.72417E-13 1.09925E-13
 -1      3329 2.02044E+01 1.90368E+00 1.07448E-03-9.95454E-01-6.22235E-14-5.19574E-14
 -1      3330 1.70404E+01-2.92900E+00 1.50771E-01-5.29774E+00-6.49272E-14 1.62349E-13
 -1      3331 1.93054E+01-3.95166E+00-5.90276E-02-5.01406E+00-9.77551E-14 1.65562E-14
 -1      3332 2.67530E+01-4.20621E-01 2.56868E-02 1.74707E+00 6.26443E-14-5.38042E-14
 -1      3333 2.65085E+01 1.04645E+00-1.63820E-01 2.10890E+00 1.07851E-13-1.43316E-13
 -1      3334 1.71850E+01-3.27491E+00 9.76720E-02-5.20821E+00 2.03275E-13 1.06332E-13
 -1      3335 1.96901E+01-4.24061E+00-2.97711E-02-4.94455E+00 2.29788E-13 9.22248E-14
 -1      3336 1.01059E+01-1.64477E-01 5.78890E-02 2.72851E+00 3.69045E-14 1.16324E-13
 -1      3337 9.04391E+00 3.20322E-01 1.78924E-01 8.64875E-01-4.35116E-14 1.08302E-13
 -1      3338 2.69572E+01 1.19736E+00-1.47447E-01-2.07258E+00-4.82392E-14-2.85896E-13
 -1      3339 2.72782E+01-6.07765E-01-6.89630E-03-1.52773E+00-1.21257E-13-3.39749E-13
 -1      3340 2.58741E+01 1.43201E+00-5.67967E-02-2.08657E+00-3.37577E-14-3.54158E-13
 -1      3341 2.56568E+01-3.50449E+00 8.31190E-02-8.91674E-01-1.12778E-13-8.74405E-14
 -1      3342 2.62634E+01-2.47081E+00-1.42506E-01 5.39970E-01 2.85015E-15 3.26995E-14
 -1      3343 2.02961E+01 1.00171E+00-7.71981E-04 6.74275E-01 9.31950E-14 1.40068E-14
 -1      3344 2.02737E+01 1.32203E+00 2.90316E-03 7.55635E-01 8.25146E-14-2.33571E-14
 -1      3345 2.02783E+01 1.14825E+00 3.99757E-04 5.74275E-01 7.52770E-14-2.97456E-14
 -1      3346 2.02394E+01 7.92102E-01-3.49460E-03 4.64708E-01 9.15116E-14 9.39022E-15
 -1      3347 2.02703E+01-4.36944E+00-4.68712E-02 4.94409E+00 8.09353E-14-3.44676E-13
 -1      3348 1.79682E+01-3.41071E+00 1.38550E-01 5.35160E+00 8.62435E-14-3.51275E-13
 -1      3349 2.68057E+01-2.54935E+00-1.32979E-01-3.26199E-01-2.26572E-13-1.97349E-13
 -1      3350 2.61042E+01-3.54487E+00 4.33425E-02 9.31303E-01-1.98232E-13-1.25233E-13
 -1      3351 8.53436E+00-2.25197E-02 5.98156E-02-1.13771E+00-6.34007E-14 1.52961E-13
 -1      3352 9.51075E+00-6.56669E-01 1.14487E-01-3.20666E+00-1.10439E-13 2.50286E-13
 -1      3353 2.56050E+01 5.14229E+00-1.15421E-01-9.17610E-02 9.00946E-14-2.67441E-13
 -1      3354 2.57212E+01 4.92708E+00-1.02751E-01-9.56168E-01 1.27565E-13-3.25892E-13
 -1      3355 2.63161E+01 5.23440E+00-1.25410E-01 9.44515E-01 8.32251E-14-3.07969E-13
 -1      3356 2.57800E+01 5.20288E+00-1.30154E-01 5.27351E-01 9.18432E-14-3.07427E-13
 -1      3357 2.50848E+01 4.68589E+00-6.41032E-02 1.55849E-01 1.07983E-13-2.84354E-13
 -1      3358 2.56187E+01 4.19211E+00-7.52069E-02 1.36549E+00 7.11792E-14-3.19092E-13
 -1      3359 2.00324E+01 2.25280E+00-3.58396E-03 6.48485E-02-1.76803E-14-9.65951E-14
 -1      3360 2.00316E+01 2.25334E+00-3.75967E-03-5.69165E-02-2.95425E-14-1.08014E-13
 -1      3361 2.01433E+01 1.96322E+00 4.96846E-03 9.79007E-02-8.36031E-15-8.72825E-14
 -1      3362 2.02658E+01 1.48597E+00 7.65979E-03 5.71205E-01 6.41706E-14-1.11831E-14
 -1      3363 2.01664E+01 1.82224E+00-7.79497E-03 6.69104E-01 7.02109E-14-2.49279E-14
 -1      3364 2.01307E+01 1.95586E+00-3.09791E-03 5.76627E-01 5.08218E-14-4.60646E-14
 -1      3365 2.58416E+01-1.44250E+00-9.31041E-03 1.23095E+00 1.78954E-14-8.50847E-14
 -1      3366 1.68957E+01-2.61257E+00 8.16230E-02 4.94319E+00-2.02963E-14-3.50678E-13
 -1      3367 2.01292E+01 1.96529E+00-2.67617E-03-5.69946E-01-2.71813E-14-8.10347E-14
 -1      3368 2.01665E+01 1.83341E+00-6.68651E-03-6.68248E-01-3.09748E-14-8.02182E-14
 -1      3369 2.01585E+01 2.25142E-01-1.47972E-03-1.49607E-01 2.09992E-14-5.11161E-14
 -1      3370 2.00738E+01-2.80579E+00-2.20155E-02 3.79694E+00 6.57183E-14-1.88780E-13
 -1      3371 1.12557E+01 5.59157E-01 1.25454E-01 7.83269E-01 3.00055E-14-1.78489E-13
 -1      3372 1.98999E+01 3.25296E-01-1.55108E-03 2.34465E-01 2.36735E-13 2.90661E-14
 -1      3373 1.99356E+01 2.97545E-01 6.35465E-04 2.52835E-01 1.04410E-13 3.59826E-13
 -1      3374 2.00013E+01 2.57370E-01 6.66279E-04-2.83687E-01-1.95526E-13-1.61747E-13
 -1      3375 1.18415E+01-6.97716E-02 1.13873E-01-2.77236E+00 2.72352E-16 3.95725E-14
 -1      3376 1.48694E+01-1.50869E+00 5.90993E-02-4.41170E+00 1.69968E-13 2.34993E-13
 -1      3377 1.60143E+01-2.51317E+00 7.90317E-02-5.01630E+00 1.85935E-13 1.66950E-13
 -1      3378 1.78091E+01-2.47555E+00 6.02538E-02-4.42671E+00 2.25077E-13-3.32373E-14
 -1      3379 1.97565E+01 4.54808E-01 1.42786E-03 7.09676E-02 2.01314E-13 8.72849E-14
 -1      3380 1.97993E+01 4.17855E-01-1.30916E-03 8.76494E-02 2.30927E-13 1.19068E-13
 -1      3381 1.98165E+01 4.05368E-01 1.59125E-04 1.29285E-01 1.11463E-13 9.94785E-14
 -1      3382 2.53839E+01-3.87788E+00 4.79040E-03-1.11574E+00 2.12174E-13 1.88530E-14
 -1      3383 2.43326E+01-3.60642E+00 8.90597E-02-1.81438E+00 3.61976E-13 1.84831E-13
 -1      3384 2.85219E+01-1.43351E+00-2.24685E-02 1.73244E+00 1.91305E-14-5.34656E-13
 -1      3385 2.49182E+01-3.78353E+00-1.45211E-02 1.40130E+00-5.03313E-14-2.37491E-13
 -1      3386 1.30891E+01-8.54634E-01-2.89797E-02 3.94909E+00-7.38732E-14 3.24671E-14
 -1      3387 1.16893E+01-3.28458E-01 1.54678E-01 3.48103E+00-4.47697E-14 2.66308E-13
 -1      3388 1.15872E+01 2.56407E-01 5.85689E-02 2.32441E+00-1.30560E-13 2.35825E-13
 -1      3389 2.18037E+01-3.95334E+00 5.81590E-02 3.70737E+00 4.37150E-14-2.65740E-13
 -1      3390 2.44770E+01 3.30174E+00-4.72129E-02-1.30754E+00 7.79515E-14-4.54808E-13
 -1      3391 2.32615E+01 2.90812E+00-6.17032E-03 6.96507E-01-8.27775E-14-5.73656E-14
 -1      3392 2.33331E+01 2.39269E+00-5.42626E-02 1.29211E+00-1.89605E-14-4.71366E-14
 -1      3393 2.41871E+01 2.34137E+00-3.61187E-02 1.69075E+00 2.86750E-14-2.32718E-13
 -1      3394 2.39207E+01-2.64544E-01-3.82548E-02-1.88861E+00 2.76107E-14-1.76309E-14
 -1      3395 2.38144E+01 5.06370E-01-7.38572E-04-1.93358E+00 1.19040E-13-1.54700E-13
 -1      3396 1.98387E+01 3.80632E-01-1.58353E-03 1.72422E-01 1.75053E-13-9.71011E-14
 -1      3397 1.98676E+01 3.59737E-01 7.12675E-04 2.04575E-01 3.32274E-13-1.39728E-13
 -1      3398 1.98612E+01 3.64390E-01 7.86322E-04 2.45882E-01 1.12417E-13 9.34794E-15
 -1      3399 1.97956E+01 4.19958E-01 1.15218E-03 1.69579E-01 1.79391E-13 4.33711E-14
 -1      3400 2.00734E+01 2.13545E+00-3.21303E-03 3.81437E-01 2.33229E-14-8.19582E-14
 -1      3401 2.01673E+01 1.88528E+00 5.43370E-03 2.81324E-01 1.43729E-14-7.59046E-14
 -1      3402 2.00992E+01 2.05325E+00-5.35631E-03 4.92797E-01 4.44830E-14-6.35155E-14
 -1      3403 2.01759E+01 4.83249E-01-2.32213E-03 1.72136E-01 5.57382E-14-5.79240E-15
 -1      3404 2.02292E+01 6.19763E-01 2.72162E-03 3.15927E-01 6.60263E-14 5.86981E-15
 -1      3405 2.02639E+01 7.80673E-01 1.63833E-03 3.78493E-01 7.73522E-14-1.39579E-15
 -1      3406 2.24843E+01-3.78040E+00-6.55727E-02-2.97891E+00 3.37560E-13 2.30146E-14
 -1      3407 2.44317E+01-3.59588E+00 1.67034E-02-1.42210E+00-1.85338E-13-8.78360E-14
 -1      3408 1.99670E+01 2.84640E-01-1.41228E-03-2.80487E-01-3.32940E-14-4.08211E-13
 -1      3409 2.01294E+01 3.10355E-01-1.28710E-03-1.31708E-02 4.20449E-14-7.08701E-15
 -1      3410 2.01687E+01 4.00564E-01 3.28299E-03 8.39348E-02 5.09801E-14 1.25042E-14
 -1      3411 2.02224E+01 5.05277E-01-6.59866E-04 1.33715E-01 4.12949E-14 2.67549E-15
 -1      3412 2.01928E+01 3.42463E-01-1.72695E-03-2.71299E-02 4.49502E-14-4.10593E-14
 -1      3413 1.02075E+01 4.20696E-01 1.36264E-01-3.09018E-01-5.94052E-14 1.39694E-13
 -1      3414 2.58699E+01 1.83710E+00-7.86890E-02 2.12542E+00 1.99007E-14-2.33188E-13
 -1      3415 2.02653E+01 9.14826E-01-4.56934E-03-4.41484E-01-7.92800E-14-8.94484E-15
 -1      3416 2.02961E+01 9.59752E-01 1.56271E-03-3.83717E-01-7.41103E-14-6.59976E-15
 -1      3417 2.02946E+01 1.12231E+00-3.08443E-04-6.13693E-01-7.25079E-14-1.02452E-14
 -1      3418 2.00714E+01 2.14178E+00-3.00320E-03-3.73156E-01-1.72978E-14-1.12422E-13
 -1      3419 2.00962E+01 2.06201E+00-5.07734E-03-4.86542E-01-3.13719E-14-9.33841E-14
 -1      3420 2.02040E+01 1.73400E+00 4.18454E-03-4.35929E-01-3.66253E-14-8.59744E-14
 -1      3421 1.59236E+01-2.04421E+00 8.63387E-02-4.72044E+00-4.24799E-14 1.74451E-13
 -1      3422 2.02256E+01 1.58350E+00-1.99817E-03-7.93477E-01-5.79709E-14-4.72375E-14
 -1      3423 2.15703E+01-3.83961E+00 5.74366E-02-3.74829E+00 3.41546E-13-7.55073E-14
 -1      3424 2.08741E+01-3.60773E+00 5.01141E-02-3.93829E+00-1.68920E-13 1.16304E-13
 -1      3425 2.66922E+01-3.86522E+00 5.67112E-02-5.68810E-01 2.22389E-13-1.41290E-13
 -1      3426 2.63482E+01-1.52837E+00-2.20861E-02-1.12602E+00-1.51995E-13-2.18124E-13
 -1      3427 1.99269E+01 3.28382E-01-7.61188E-04-3.02572E-01 1.95120E-14-3.82546E-13
 -1      3428 1.17313E+01-5.82241E-01 1.53723E-01-3.40125E+00-3.77268E-14 2.64858E-13
 -1      3429 2.38014E+01 3.46897E+00-3.90397E-02 3.01690E-01 1.10710E-14-2.80796E-13
 -1      3430 2.44572E+01-7.79170E-01-5.78878E-04-1.66487E+00-1.44693E-13-7.59757E-14
 -1      3431 1.98204E+01 4.20820E-01 1.72940E-03-2.83973E-01-8.86849E-14-7.54227E-14
 -1      3432 1.97720E+01 4.43627E-01-2.79603E-03-2.42781E-01-6.92584E-14 1.38504E-13
 -1      3433 1.48709E+01-1.09383E+00 8.60847E-02-4.20689E+00-8.08381E-15 2.23474E-13
 -1      3434 1.72947E+01-2.15594E+00-5.59921E-03-4.36452E+00-3.29008E-14 1.69600E-13
 -1      3435 2.02060E+01 2.42072E-01-8.33368E-04-1.60111E-01 3.60687E-14 5.32091E-15
 -1      3436 2.02306E+01 3.03223E-01 2.16527E-03-1.02267E-01 4.37176E-14 1.40136E-14
 -1      3437 2.58104E+01-4.27129E+00 1.25165E-01 1.73558E+00 8.72306E-14-1.81966E-13
 -1      3438 2.02651E+01 3.22993E-01 1.60603E-03 1.09304E-01-8.44934E-14-4.60882E-15
 -1      3439 2.02406E+01 2.62418E-01-8.82448E-04 1.63953E-01-1.04627E-13-1.90227E-14
 -1      3440 2.02177E+01 2.19364E-01 9.82866E-04 2.04570E-01-9.92654E-14-4.27447E-15
 -1      3441 2.01952E+01 1.89095E-01-1.83395E-04 2.44634E-01-6.60248E-14-1.55853E-14
 -1      3442 2.02653E+01 2.81883E-01-1.63927E-04 1.63902E-01-8.04968E-14-1.44268E-14
 -1      3443 2.01661E+01 1.71730E-01 3.00324E-04 2.75885E-01-4.57322E-14-2.02348E-14
 -1      3444 2.01460E+01 1.64747E-01 3.31231E-04 3.08292E-01-2.36135E-14-1.69778E-14
 -1      3445 2.02104E+01 2.11824E-01-1.58853E-04 2.38297E-01-6.08110E-14 1.89556E-14
 -1      3446 2.01119E+01 1.67164E-01-3.34900E-04 3.35546E-01-2.05662E-14-3.15859E-14
 -1      3447 2.00933E+01 1.78382E-01 6.90481E-04 3.65948E-01-3.25922E-14-1.05546E-14
 -1      3448 2.01471E+01 1.93268E-01-8.77997E-06 2.98668E-01-2.23222E-14-1.82788E-15
 -1      3449 2.00537E+01 1.96394E-01-9.27695E-04 3.93641E-01-1.46044E-14 9.76739E-15
 -1      3450 2.00352E+01 2.22133E-01 9.27894E-04 4.26537E-01-2.26713E-14-3.97226E-15
 -1      3451 2.00757E+01 2.15081E-01 2.66391E-04 3.54605E-01-2.37957E-14-3.50494E-14
 -1      3452 1.99889E+01 2.52650E-01-1.49717E-03 4.58207E-01-6.50526E-14 1.73892E-14
 -1      3453 1.99685E+01 2.90083E-01 1.07287E-03 4.97107E-01-2.36220E-14-1.23472E-14
 -1      3454 1.99942E+01 2.69006E-01 6.50110E-04 4.13901E-01-3.57587E-14-4.22524E-14
 -1      3455 1.99132E+01 3.30573E-01-2.06972E-03 5.35529E-01-2.99324E-15-6.94638E-14
 -1      3456 1.98886E+01 3.77181E-01 1.15203E-03 5.83128E-01 1.14626E-14-7.62232E-14
 -1      3457 1.98987E+01 3.48644E-01 1.14852E-03 4.82645E-01-2.56797E-14-1.08894E-13
 -1      3458 1.98212E+01 4.25063E-01-2.67043E-03 6.30505E-01 1.76881E-14-9.45896E-14
 -1      3459 1.97899E+01 4.77953E-01 1.19635E-03 6.88831E-01-1.37588E-15-1.15812E-13
 -1      3460 1.97836E+01 4.48282E-01 1.76273E-03 5.65531E-01 4.77157E-16-1.66173E-13
 -1      3461 1.97066E+01 5.29839E-01-3.32527E-03 7.46990E-01-1.21224E-14-7.84792E-14
 -1      3462 1.96663E+01 5.84959E-01 1.27104E-03 8.17555E-01-3.53930E-14-7.09132E-14
 -1      3463 1.96419E+01 5.61564E-01 2.50125E-03 6.66263E-01 1.55024E-14-1.80475E-13
 -1      3464 1.95627E+01 6.35749E-01-4.07177E-03 8.88336E-01-1.32261E-14-5.25884E-14
 -1      3465 1.95116E+01 6.86823E-01 1.49885E-03 9.72480E-01 2.52923E-14-2.51162E-14
 -1      3466 1.94655E+01 6.79961E-01 3.36049E-03 7.88094E-01-8.32608E-15-5.01571E-14
 -1      3467 1.93833E+01 7.28319E-01-4.95786E-03 1.05852E+00 2.31258E-14-3.18705E-14
 -1      3468 1.93221E+01 7.65270E-01 2.11217E-03 1.15801E+00 3.01967E-14-1.73290E-14
 -1      3469 1.92454E+01 7.90714E-01 4.28257E-03 9.35133E-01 3.44983E-14-1.40149E-14
 -1      3470 1.91651E+01 7.84266E-01-6.04172E-03 1.26406E+00 3.80532E-14-7.02503E-15
 -1      3471 1.90993E+01 7.91123E-01 3.54910E-03 1.38211E+00 3.25984E-14-1.42803E-15
 -1      3472 1.89735E+01 8.74117E-01 5.18533E-03 1.11457E+00 5.84605E-14-9.56297E-14
 -1      3473 1.89120E+01 7.66873E-01-7.29471E-03 1.51727E+00 2.97294E-14 3.33999E-14
 -1      3474 1.88573E+01 7.18875E-01 6.60215E-03 1.66006E+00 9.80410E-14 1.56016E-14
 -1      3475 1.86440E+01 8.99476E-01 5.86727E-03 1.34060E+00 5.33992E-14-4.37910E-14
 -1      3476 1.86436E+01 6.19339E-01-8.43117E-03 1.84134E+00 7.26160E-14 3.98932E-15
 -1      3477 1.86340E+01 4.78325E-01 1.21290E-02 2.01884E+00 7.37278E-14-2.64626E-14
 -1      3478 1.82583E+01 8.19893E-01 6.06808E-03 1.64095E+00 2.59466E-14-5.10937E-14
 -1      3479 1.84140E+01 2.56972E-01-7.91827E-03 2.27240E+00 6.69479E-14-1.22289E-13
 -1      3480 1.85164E+01-3.39308E-02 2.15454E-02 2.49726E+00 1.14721E-14-9.47617E-14
 -1      3481 1.78371E+01 5.61959E-01 6.11666E-03 2.06684E+00 3.72009E-14-2.10056E-13
 -1      3482 1.83262E+01-4.41517E-01-6.29560E-03 2.85255E+00 1.61386E-14-8.05933E-14
 -1      3483 1.86227E+01-9.86625E-01 2.07393E-02 3.15799E+00 3.16327E-14-1.58649E-13
 -1      3484 1.74258E+01 1.85352E-03-8.37684E-04 2.68992E+00-2.32106E-15-2.09112E-13
 -1      3485 1.23197E+01 6.07616E-01 2.45185E-02 1.64715E+00 6.50868E-15-2.58425E-13
 -1      3486 1.18626E+01 8.53094E-01 3.26326E-02-1.18579E-01 6.64303E-14-2.95125E-13
 -1      3487 2.57079E+01-8.08349E-01-7.11960E-02-1.68234E+00-7.24421E-14-2.73608E-13
 -1      3488 2.56501E+01-2.16875E+00-3.87451E-03-7.51930E-01-2.02251E-13-1.52954E-13
 -1      3489 1.88457E+01-9.55963E-01 2.12918E-02-3.05749E+00 1.39274E-13 1.13408E-13
 -1      3490 1.85703E+01-4.18583E-01 5.37499E-03-2.79626E+00 1.32600E-14 2.16663E-13
 -1      3491 1.86959E+01-2.85300E-02 1.98484E-02-2.45675E+00 7.46268E-14 2.02031E-13
 -1      3492 1.85878E+01 2.63153E-01-5.72123E-03-2.24264E+00 2.04173E-14 2.70572E-13
 -1      3493 1.76724E+01-1.48372E-02-4.36495E-03-2.64729E+00 1.15046E-13 2.11534E-14
 -1      3494 1.87789E+01 4.80642E-01 1.16371E-02-1.99586E+00-1.62086E-13 3.31446E-13
 -1      3495 1.87774E+01 6.22770E-01-7.32380E-03-1.82197E+00-1.74634E-13 4.08044E-13
 -1      3496 1.80104E+01 5.49486E-01 2.30210E-03-2.05543E+00-9.26776E-14 2.23376E-13
 -1      3497 1.89690E+01 7.22941E-01 6.27172E-03-1.64124E+00-1.01608E-13 2.78301E-13
 -1      3498 1.90129E+01 7.73916E-01-6.56696E-03-1.49722E+00-2.07668E-13 2.71023E-13
 -1      3499 1.83869E+01 8.18376E-01 4.97354E-03-1.63836E+00-1.23705E-13 1.89396E-13
 -1      3500 1.91836E+01 8.00792E-01 3.46278E-03-1.35825E+00-1.77333E-13 3.70714E-13
 -1      3501 1.92394E+01 7.97868E-01-5.53138E-03-1.23601E+00-4.16223E-14 4.12509E-13
 -1      3502 1.87366E+01 9.07791E-01 5.34447E-03-1.33245E+00-8.08737E-14 1.53929E-13
 -1      3503 1.93825E+01 7.82820E-01 2.05395E-03-1.12417E+00-1.53726E-13 4.27535E-13
 -1      3504 1.94347E+01 7.50941E-01-4.57562E-03-1.01867E+00-7.92736E-14 2.73114E-13
 -1      3505 1.90373E+01 8.92321E-01 4.90256E-03-1.09552E+00-1.04659E-13 1.99931E-13
 -1      3506 1.95503E+01 7.14662E-01 1.41591E-03-9.25588E-01 5.38336E-14 1.72738E-13
 -1      3507 1.95930E+01 6.69664E-01-3.78296E-03-8.34096E-01-1.33213E-14 5.37479E-14
 -1      3508 1.92839E+01 8.20288E-01 4.15127E-03-9.02500E-01-1.74726E-13-1.04449E-14
 -1      3509 1.96841E+01 6.24961E-01 1.14581E-03-7.55260E-01-1.15145E-13 1.83835E-13
 -1      3510 1.97163E+01 5.76510E-01-3.12198E-03-6.76371E-01-6.68561E-14 2.18379E-13
 -1      3511 1.94798E+01 7.22448E-01 3.29223E-03-7.39871E-01-2.20317E-14-6.10065E-14
 -1      3512 1.97869E+01 5.30541E-01 8.86242E-04-6.09268E-01 9.31057E-14 9.55750E-14
 -1      3513 1.98101E+01 4.84610E-01-2.55624E-03-5.42771E-01 9.90424E-14-3.28064E-14
 -1      3514 1.96322E+01 6.17969E-01 2.61197E-03-6.00852E-01-8.51960E-14 1.55358E-13
 -1      3515 1.98648E+01 4.43333E-01 1.30466E-03-4.84565E-01 3.36147E-15 6.07623E-15
 -1      3516 1.98819E+01 4.07193E-01 5.44090E-04-4.30660E-01-4.09461E-14-1.61783E-13
 -1      3517 1.97470E+01 5.20267E-01 2.26732E-03-4.82130E-01 5.68047E-14 9.85023E-14
 -1      3518 1.99094E+01 3.56619E-01-1.73926E-03-3.48700E-01 3.86033E-14-3.92681E-13
 -1      3519 1.99641E+01 2.66276E-01-1.27883E-03 2.59118E-01-5.11413E-14 3.45517E-13
 -1      3520 1.99955E+01 2.38609E-01 1.56788E-04 2.61509E-01-1.34748E-13 1.77227E-13
 -1      3521 1.99981E+01 2.44332E-01 2.80280E-04 2.84814E-01-2.34124E-13 1.21219E-13
 -1      3522 1.99325E+01 3.02832E-01 1.55914E-04 2.82098E-01 6.07310E-14 5.11367E-13
 -1      3523 2.00152E+01 2.36216E-01 1.67836E-03-5.65926E-01 9.51218E-15 5.88372E-14
 -1      3524 2.00117E+01 2.12761E-01-1.24029E-03-5.25538E-01 8.82962E-15 4.99786E-14
 -1      3525 1.99838E+01 3.04807E-01 2.51086E-03-8.96144E-01 1.49178E-14 3.18457E-14
 -1      3526 1.99581E+01 3.09618E-01-1.18079E-03-8.35282E-01-2.08058E-16 3.44445E-14
 -1      3527 2.00154E+01 2.52190E-01 2.95075E-03-1.03347E+00-1.55242E-14 6.70040E-14
 -1      3528 1.99716E+01 2.85530E-01-5.30117E-04-9.70633E-01 1.14046E-14 5.27518E-14
 -1      3529 1.98065E+01 3.49621E-01-1.13110E-03-9.42516E-01 7.87285E-15 1.27817E-15
 -1      3530 2.00986E+01 1.21975E-01 3.44422E-03-1.17324E+00-8.07240E-15 7.19787E-14
 -1      3531 2.00256E+01 1.98116E-01 7.43302E-04-1.11490E+00-6.70025E-15 7.12316E-14
 -1      3532 1.98020E+01 2.78298E-01-2.52170E-03-1.10303E+00-1.13048E-14 2.89360E-14
 -1      3533 2.02674E+01-1.16583E-01 3.73031E-03-1.29953E+00-6.50423E-14 1.07595E-13
 -1      3534 2.01492E+01 1.84370E-02 2.92609E-03-1.25628E+00-4.99071E-14 8.93826E-14
 -1      3535 1.98537E+01 1.14078E-01-4.97523E-03-1.27712E+00-4.14083E-14 4.92703E-14
 -1      3536 2.05693E+01-4.92110E-01 3.37691E-03-1.38414E+00-2.02533E-14 2.26569E-13
 -1      3537 2.03861E+01-2.84285E-01 6.39093E-03-1.37324E+00-3.31052E-14 1.44236E-13
 -1      3538 2.00032E+01-1.78973E-01-9.07115E-03-1.45228E+00-8.19778E-14 1.17692E-13
 -1      3539 2.10648E+01-1.01732E+00 2.15948E-03-1.37720E+00 3.10082E-16 2.02278E-13
 -1      3540 2.07962E+01-7.33530E-01 1.21570E-02-1.42689E+00 1.02114E-14 2.00359E-13
 -1      3541 2.03132E+01-6.36659E-01-1.51912E-02-1.60206E+00-2.37466E-14 1.71570E-13
 -1      3542 2.18077E+01-1.64751E+00-1.19199E-03-1.19615E+00-3.22672E-14-4.59832E-15
 -1      3543 2.14415E+01-1.32018E+00 1.89141E-02-1.34681E+00 2.57956E-14 8.52871E-14
 -1      3544 2.08681E+01-1.26070E+00-1.87110E-02-1.66506E+00 9.83619E-14 6.73385E-14
 -1      3545 2.28342E+01-2.21486E+00-1.70299E-03-7.25040E-01-1.23428E-13-4.72972E-14
 -1      3546 2.23750E+01-1.95721E+00 2.47335E-02-1.03018E+00-1.54688E-13-5.25295E-14
 -1      3547 2.17365E+01-2.00947E+00-2.66025E-02-1.54794E+00-2.79124E-14-8.59928E-14
 -1      3548 2.51363E+01 9.60665E-01 3.36842E-03 2.12336E+00 4.24244E-14-2.47991E-13
 -1      3549 2.50982E+01-3.96365E-01-9.30950E-02 1.95831E+00 6.96318E-15-1.92648E-13
 -1      3550 2.47346E+01-1.53887E+00-1.96699E-02-1.28189E+00-2.34588E-13-1.10837E-13
 -1      3551 2.49114E+01-7.44746E-01-2.07187E-02-1.68511E+00-1.05922E-13-1.71234E-13
 -1      3552 2.48765E+01 1.29957E+00-4.20592E-02-2.12234E+00 5.85920E-14-1.92131E-13
 -1      3553 2.48594E+01 3.54092E+00-3.49813E-02 1.54804E+00-1.99146E-14-2.42065E-13
 -1      3554 2.50552E+01 2.34003E+00-1.06561E-01 2.01188E+00-1.08732E-14-3.15865E-13
 -1      3555 2.38757E+01-2.24644E+00 8.15969E-03-1.78490E-01-1.72019E-13-2.37564E-13
 -1      3556 2.42351E+01-2.01858E+00-1.13492E-02-6.75609E-01-2.71751E-13-1.56102E-13
 -1      3557 2.47445E+01-2.00646E+00 9.39063E-03-7.80248E-01-2.40581E-13-2.67117E-13
 -1      3558 2.09934E+01-9.08979E-01 1.52202E-02 1.40645E+00 2.22250E-13 1.48072E-13
 -1      3559 2.12900E+01-1.22046E+00-1.18514E-03 1.33132E+00 2.29442E-13 1.15205E-13
 -1      3560 2.05068E+01-4.04922E-01 8.50615E-03 1.38409E+00 9.90119E-14 4.00713E-13
 -1      3561 2.07171E+01-6.43261E-01 2.94522E-03 1.38104E+00 2.37263E-13 2.77569E-13
 -1      3562 2.04733E+01-8.18024E-01-1.59844E-02 1.62616E+00 8.82692E-14 2.34984E-13
 -1      3563 2.02160E+01-4.71409E-02 4.09669E-03 1.27627E+00 5.51449E-14 4.04799E-13
 -1      3564 2.03545E+01-2.09335E-01 3.77919E-03 1.31447E+00 1.05354E-13 3.85994E-13
 -1      3565 2.00860E+01-2.94779E-01-1.04949E-02 1.49033E+00 1.23899E-13 4.11905E-13
 -1      3566 2.00573E+01 1.78729E-01 1.45049E-03 1.13128E+00-2.13208E-14 3.30884E-13
 -1      3567 2.01438E+01 8.04083E-02 3.43116E-03 1.19063E+00 3.97367E-14 4.04764E-13
 -1      3568 1.98863E+01 5.84219E-02-6.12265E-03 1.31247E+00 7.23843E-14 3.56768E-13
 -1      3569 1.99810E+01 3.02539E-01-6.72512E-05 9.75509E-01 2.23660E-13 1.51340E-13
 -1      3570 2.00333E+01 2.51915E-01 2.91556E-03 1.04349E+00 5.77390E-14 2.82497E-13
 -1      3571 1.98029E+01 2.71029E-01-3.19940E-03 1.12693E+00 4.93698E-14 1.81895E-13
 -1      3572 1.99524E+01 3.54667E-01-8.79104E-04 8.23182E-01 4.48835E-14 3.95624E-13
 -1      3573 1.99837E+01 3.36625E-01 2.42049E-03 8.92243E-01 1.51024E-13 2.68504E-13
 -1      3574 1.97866E+01 3.79874E-01-1.42494E-03 9.50070E-01 1.04994E-13 3.25731E-13
 -1      3575 1.99495E+01 3.60599E-01-1.24707E-03 6.81791E-01-6.55872E-14 3.33551E-13
 -1      3576 1.99683E+01 3.62964E-01 2.02476E-03 7.47487E-01 4.11234E-14 3.67373E-13
 -1      3577 1.98055E+01 4.18192E-01-4.15885E-04 7.88783E-01 8.64176E-14 5.56406E-13
 -1      3578 1.99585E+01 3.39802E-01-1.33595E-03 5.55062E-01 1.55772E-14 4.22661E-13
 -1      3579 1.99704E+01 3.53429E-01 1.72612E-03 6.14888E-01 3.94955E-15 3.32256E-13
 -1      3580 1.98400E+01 4.12242E-01 9.51697E-05 6.45567E-01-8.67694E-14 6.05122E-13
 -1      3581 1.99712E+01 3.05961E-01-1.56271E-03 4.44972E-01 5.78165E-14 2.95904E-13
 -1      3582 1.99797E+01 3.24136E-01 1.28042E-03 4.97109E-01 3.40782E-15 3.47794E-13
 -1      3583 1.98787E+01 3.81549E-01 3.29009E-04 5.20905E-01 1.27079E-14 5.81820E-13
 -1      3584 1.97375E+01 4.72601E-01 2.63386E-04-1.86378E-01 6.31607E-14-6.35800E-15
 -1      3585 1.97102E+01 4.86272E-01-1.43884E-03-1.33991E-01 1.40385E-14 5.19322E-14
 -1      3586 1.97139E+01 4.97185E-01 1.17256E-03-2.35369E-01-5.93475E-14-1.85272E-14
 -1      3587 1.96940E+01 4.96664E-01-6.02091E-04-6.90116E-02 1.80968E-13 1.94993E-13
 -1      3588 1.96878E+01 4.98726E-01-7.86207E-04-1.17101E-02 1.83791E-13 4.19048E-14
 -1      3589 1.96547E+01 5.32107E-01 1.75004E-03-1.09626E-01-8.01363E-14 5.56179E-14
 -1      3590 1.18087E+01 4.09021E-02 5.26608E-02-2.63963E+00-2.69663E-14 1.54890E-13
 -1      3591 1.31871E+01-6.73649E-01 4.41223E-02-3.72903E+00 6.80567E-14 2.42327E-13
 -1      3592 2.01311E+01 1.32064E-01 4.62303E-04-3.10353E-01 2.77016E-14-5.24620E-14
 -1      3593 2.01440E+01 1.43997E-01 6.21530E-04-2.78626E-01 1.89727E-14-7.97805E-15
 -1      3594 2.02651E+01 1.39320E+00 2.27439E-03-5.18865E-01-4.27632E-14-4.90162E-14
 -1      3595 2.02274E+01 1.60227E+00 1.46997E-03-6.82933E-01-4.56862E-14-4.21618E-14
 -1      3596 2.04108E+01-3.15582E+00 7.08542E-02-3.93923E+00 1.96024E-13-1.98088E-14
 -1      3597 2.74796E+01-2.91606E+00-1.19676E-01 8.03913E-01 9.16255E-14-4.04433E-13
 -1      3598 2.51037E+01-1.66458E+00 1.29463E-03 1.09401E+00-6.53089E-14-8.07037E-14
 -1      3599 2.54325E+01 2.89789E-02-2.99795E-02-2.07731E+00-4.57967E-15-1.77039E-13
 -1      3600 2.00401E+01 1.91679E-01 1.44750E-03-4.88301E-01 1.83002E-14 6.19954E-14
 -1      3601 2.00403E+01 1.70857E-01-9.36804E-04-4.54444E-01 3.90255E-14 2.11557E-14
 -1      3602 1.99929E+01 2.34750E-01-1.75930E-05-4.95177E-01 2.91125E-14-4.29697E-14
 -1      3603 2.25489E+01-3.79328E+00-3.19332E-02 2.87210E+00 2.75578E-14-3.36332E-13
 -1      3604 2.09458E+01-3.29803E+00 1.02168E-01 3.73514E+00-2.63149E-14-2.54317E-13
 -1      3605 2.00387E+01 2.23569E+00-3.22689E-03-1.57782E-01-2.74793E-14-1.32468E-13
 -1      3606 2.00510E+01 2.19752E+00-4.25845E-03-2.77646E-01-2.97172E-14-1.29979E-13
 -1      3607 2.01629E+01 1.88894E+00 4.19587E-03-2.71676E-01-3.50822E-14-1.40875E-13
 -1      3608 1.20672E+01 5.50687E-01 2.07748E-02-1.70185E+00 4.23828E-14-5.48936E-14
 -1      3609 1.30829E+01-2.57503E-01 6.25882E-03-3.34649E+00-2.36373E-14 2.22725E-13
 -1      3610 1.49413E+01-3.31765E-01 8.19052E-02-3.22089E+00 2.00135E-14 2.05466E-13
 -1      3611 2.50646E+01 3.78064E+00-6.37123E-02-1.37297E+00 8.56815E-14-4.50161E-13
 -1      3612 2.03183E+01 7.77919E-01 7.41225E-04-2.09541E-01-5.40973E-14-2.14828E-14
 -1      3613 2.03032E+01 6.25785E-01-2.32817E-03-1.00946E-01-5.21455E-14-5.58695E-15
 -1      3614 2.01673E+01 1.64863E-01-9.73867E-05-2.45499E-01 9.85930E-15 5.20485E-16
 -1      3615 2.01859E+01 1.97697E-01 1.35022E-03-2.04436E-01 1.81154E-14-1.41531E-15
 -1      3616 2.01946E+01 1.85840E-01-5.46799E-04-2.44981E-01 2.50046E-14 2.31949E-14
 -1      3617 1.49989E+01-8.31068E-01 1.50756E-02 3.74540E+00 4.19682E-14-2.05919E-13
 -1      3618 1.33863E+01 2.98988E-02 4.79447E-02 2.86569E+00 1.40582E-14-1.72709E-13
 -1      3619 1.82396E+01-2.72678E+00-7.35620E-02 4.43878E+00-4.41522E-14-1.36380E-13
 -1      3620 1.59919E+01-1.47683E+00 1.50568E-01 4.40999E+00-1.98249E-13-2.49745E-13
 -1      3621 2.17450E+01-1.54057E+00 2.18254E-02 1.25849E+00 3.67870E-14-1.14245E-13
 -1      3622 2.21256E+01-1.86178E+00-7.07326E-03 1.05903E+00-2.01268E-13-2.74961E-13
 -1      3623 2.11376E+01-1.50876E+00-2.17469E-02 1.64553E+00-7.75378E-14-1.86029E-13
 -1      3624 1.99943E+01 2.78520E-01 1.91189E-03-6.59480E-01-3.86572E-14 7.92200E-14
 -1      3625 1.99862E+01 2.57347E-01-1.42254E-03-6.11531E-01-1.37762E-14 8.33881E-14
 -1      3626 1.99401E+01 2.85627E-01 5.04932E-05-5.78490E-01 3.27626E-15 2.91459E-14
 -1      3627 1.11697E+01 6.80227E-01 2.99180E-02 5.87685E-01-1.08385E-13 9.41469E-14
 -1      3628 1.10847E+01 5.89632E-01 8.38990E-02-1.23772E+00-1.49374E-13 1.57582E-13
 -1      3629 1.27085E+01 5.57025E-01 8.51002E-02-1.65932E+00-1.18783E-13 1.77240E-13
 -1      3630 1.98527E+01 4.11410E-01 7.60576E-05-3.65857E-01-7.39945E-14-1.69607E-13
 -1      3631 2.45038E+01 3.92742E+00-9.12859E-02 9.43406E-01 7.74242E-14-3.31965E-13
 -1      3632 1.88040E+01-2.53121E+00 9.01937E-03-4.18611E+00 1.86136E-13-6.07743E-14
 -1      3633 2.01553E+01-2.38570E+00 4.10700E-02-3.46314E+00 1.32712E-13 1.30434E-14
 -1      3634 1.94836E+01-1.59133E+00 4.01816E-02-3.31127E+00 1.99289E-13 8.36562E-14
 -1      3635 1.77149E+01-1.68061E+00 4.46092E-02-3.96454E+00 1.87794E-13-9.32223E-14
 -1      3636 1.92226E+01-3.30751E+00 3.11175E-02 4.43626E+00 6.40980E-14-2.02199E-13
 -1      3637 1.75897E+01-2.92305E+00 1.10352E-01 4.91162E+00 6.30121E-14-2.84529E-13
 -1      3638 1.98696E+01-2.87558E+00 4.99628E-02-3.86668E+00-4.95420E-14 7.83523E-14
 -1      3639 2.16983E+01-3.55847E+00-7.10154E-02-3.12135E+00-1.19573E-13 6.47815E-14
 -1      3640 2.35046E+01-3.45071E+00 7.88367E-02-1.92120E+00-2.19469E-13-3.07974E-14
 -1      3641 2.43948E+01-3.10320E+00-6.57551E-02-5.11731E-01-1.87827E-13-1.12176E-13
 -1      3642 2.03026E+01 5.01148E-01 1.92155E-03-2.39443E-02-5.93455E-14-2.12171E-14
 -1      3643 2.02791E+01 4.00599E-01-1.64500E-03 5.35309E-02-6.44357E-14-7.75088E-15
 -1      3644 2.03084E+01 4.18130E-01-9.51737E-05 6.43753E-02-8.39982E-14-5.67470E-14
 -1      3645 1.99813E+01 3.06658E-01 2.16922E-03-7.70048E-01-1.11551E-14 3.58777E-14
 -1      3646 1.99664E+01 2.94225E-01-1.43499E-03-7.14749E-01-1.82908E-14 8.54590E-14
 -1      3647 1.98878E+01 3.31860E-01-4.24776E-05-6.79700E-01-3.17289E-14 3.38502E-14
 -1      3648 1.98404E+01 3.59284E-01-4.05862E-04-8.00940E-01-7.37390E-15 7.85454E-14
 -1      3649 2.02932E+01 9.09403E-01-2.01310E-04 4.21640E-01 7.31879E-14-1.13717E-14
 -1      3650 2.02843E+01 1.08533E+00-2.27147E-03 4.62119E-01 6.14695E-14-6.88899E-15
 -1      3651 2.02701E+01 7.27962E-01-1.68085E-03 2.70919E-01 6.22512E-14 5.09605E-15
 -1      3652 2.48032E+01-2.30608E+00 8.73231E-03 5.94539E-01-1.49181E-13-9.19403E-16
 -1      3653 2.27550E+01-2.14308E+00 2.03211E-02 8.19048E-01-1.79719E-13-2.62289E-13
 -1      3654 2.31924E+01-2.33706E+00-1.45013E-02 4.63887E-01-1.30790E-13-2.64688E-13
 -1      3655 2.21665E+01-2.23488E+00-1.49565E-02 1.40301E+00-1.46088E-13-5.36773E-13
 -1      3656 2.44376E+01 4.19865E+00-5.45449E-02 8.93894E-02 9.36612E-14-4.05248E-13
 -1      3657 1.67430E+01-2.00598E+00 6.56111E-02 4.43834E+00 9.88619E-15-1.86962E-13
 -1      3658 2.38959E+01-2.46971E+00-1.63449E-02-5.78602E-02-2.24383E-13-2.31811E-14
 -1      3659 2.02793E+01 1.22618E+00 5.16595E-04 4.29744E-01 3.89526E-14 7.89641E-15
 -1      3660 1.76740E+01-1.43418E+00 1.06204E-02-3.62777E+00 5.86931E-14 1.51755E-13
 -1      3661 1.88173E+01-2.31031E+00 1.93617E-02-3.94724E+00-6.76542E-15 1.14361E-13
 -1      3662 1.99373E+01-2.16076E+00 3.29012E-02-3.13758E+00 8.84882E-15 9.46266E-14
 -1      3663 2.02819E+01 4.03873E-01-3.11784E-04-5.33061E-02 4.70029E-14 6.65184E-14
 -1      3664 2.02447E+01 3.82233E-01-1.22526E-03-3.82624E-02 4.71026E-14 4.48112E-15
 -1      3665 1.39113E+01 5.24368E-01 6.48459E-02 1.97425E+00 9.28944E-15-2.18464E-13
 -1      3666 2.50638E+01-2.82468E+00-1.03314E-02-5.75842E-02-1.75108E-13-1.51365E-13
 -1      3667 2.02105E+01 1.73004E+00 6.78519E-03 4.45272E-01 3.33349E-14-4.18405E-14
 -1      3668 1.50040E+01-8.20039E-01 6.80607E-02-3.71822E+00 2.07983E-13 7.54292E-14
 -1      3669 1.96926E+01 4.91473E-01-1.17925E-03 5.49594E-02 1.46802E-13 1.07435E-13
 -1      3670 1.97076E+01 4.81168E-01-1.18439E-04 1.09849E-01 1.85048E-13 1.04968E-13
 -1      3671 1.96407E+01 5.34664E-01 1.52631E-03 2.64487E-02 1.62274E-13 5.44512E-14
 -1      3672 1.51055E+01-8.24819E-01 4.61406E-02 3.69907E+00-2.64060E-13-2.08382E-13
 -1      3673 2.00980E+01 1.31590E-01 8.75466E-04-3.66563E-01 5.05781E-14-2.58066E-14
 -1      3674 2.01060E+01 1.28279E-01-7.42370E-06-3.38231E-01 3.57700E-14-4.72914E-14
 -1      3675 2.01456E+01 1.56130E-01-4.48587E-04-3.08787E-01 5.78718E-14-1.20313E-14
 -1      3676 2.34623E+01-2.43527E+00 2.88451E-02-4.87952E-01-1.26050E-13 2.28697E-14
 -1      3677 2.28894E+01-2.78623E+00-4.89904E-02-1.23609E+00-1.73647E-13-9.23350E-14
 -1      3678 2.35438E+01-2.57035E+00-1.05751E-03 5.32155E-01-1.30051E-13-3.99677E-13
 -1      3679 2.00448E+01 1.90126E-01-1.46267E-04-4.26116E-01 2.85354E-14-1.26838E-14
 -1      3680 2.00678E+01 1.54137E-01 1.19157E-03-4.23515E-01 4.19654E-14-1.16827E-14
 -1      3681 2.00716E+01 1.40069E-01-5.25791E-04-3.94058E-01 5.42139E-14-4.61791E-14
 -1      3682 1.98047E+01 4.00839E-01-2.05537E-03 2.60212E-01 1.55989E-13 5.11810E-14
 -1      3683 1.98521E+01 3.73587E-01 1.40949E-03 2.92086E-01 9.79179E-14 5.06027E-14
 -1      3684 1.99854E+01 2.70685E-01-7.76416E-04 3.49357E-01-5.87539E-14 3.81190E-13
 -1      3685 1.99906E+01 2.89034E-01 1.16351E-03 3.94734E-01 9.38198E-14 5.32531E-13
 -1      3686 2.00027E+01 2.50059E-01 3.97273E-04 3.09728E-01-1.65124E-13 2.08895E-13
 -1      3687 1.99507E+01 2.96092E-01 6.03262E-04 3.26237E-01 5.24007E-15 7.80171E-13
 -1      3688 2.37567E+01-3.00095E+00-1.82138E-02 8.33665E-01-7.27348E-14-3.00270E-13
 -1      3689 2.45507E+01-3.35357E+00-2.22718E-02 9.52839E-01-8.02425E-14-1.41778E-13
 -1      3690 2.35009E+01-3.73842E+00 4.97818E-02 2.23321E+00 5.58841E-14-3.10911E-13
 -1      3691 2.30803E+01-2.92652E+00 1.95388E-02 1.46957E+00 2.45177E-14-3.77766E-13
 -1      3692 2.02626E+01 4.60096E-01 2.58321E-03 3.18653E-02 5.39425E-14 1.10606E-14
 -1      3693 1.95949E+01-2.58128E+00 4.64867E-04 3.62127E+00-2.03691E-14-1.55476E-13
 -1      3694 1.80226E+01-1.08471E+00-2.14915E-02-3.36938E+00 1.84576E-13 1.26309E-13
 -1      3695 2.02044E+01 1.68722E+00-3.43445E-03 1.24302E-01 3.41853E-15-7.53918E-14
 -1      3696 2.01988E+01 1.70715E+00-3.18046E-03 3.78004E-02-1.42739E-14-8.02426E-14
 -1      3697 2.02688E+01 1.38536E+00 2.04158E-03-4.12380E-01-3.56452E-14-6.90443E-14
 -1      3698 2.03007E+01 1.14626E+00-1.23825E-03-4.13496E-01-5.69386E-14-3.83211E-14
 -1      3699 2.03040E+01 9.51863E-01-1.97826E-03-2.88311E-01-6.35486E-14-3.57557E-14
 -1      3700 2.24284E+01-3.00124E+00 3.11413E-02-2.13252E+00-1.71294E-13-7.19910E-16
 -1      3701 2.01417E+01 1.96438E+00 4.54391E-03-8.95979E-02-2.15389E-14-1.21671E-13
 -1      3702 2.24969E+01-3.37777E+00-1.96726E-02 2.38099E+00-9.94127E-15-3.27243E-13
 -1      3703 2.02254E+01 1.58995E+00-4.71246E-03 2.69949E-01 1.91635E-14-7.15549E-14
 -1      3704 2.02144E+01 1.65326E+00-1.87444E-03 1.89649E-01 3.67770E-15-8.55175E-14
 -1      3705 2.02844E+01 1.44515E+00 6.18093E-03 1.25745E-01-6.91664E-15-7.64236E-14
 -1      3706 1.31519E+01 8.52684E-01 7.08419E-02-7.90719E-01 3.18105E-14-1.53821E-13
 -1      3707 2.03259E+01 9.61439E-01 1.34839E-03-2.32807E-01-3.59645E-14-4.47602E-14
 -1      3708 2.02417E+01 2.62578E-01-5.27098E-04-1.64009E-01 3.02032E-14 6.45267E-14
 -1      3709 2.02370E+01 1.56367E+00 1.57935E-04-2.96321E-01-3.47004E-14-1.05996E-13
 -1      3710 2.02534E+01 1.46392E+00-3.21349E-03-3.62260E-01-2.97373E-14-8.94250E-14
 -1      3711 2.03028E+01 1.23797E+00 2.08015E-03-2.69230E-01-3.72049E-14-7.85632E-14
 -1      3712 1.19278E+01 7.09148E-01 1.06086E-01 1.35853E+00-8.26830E-14 1.19828E-13
 -1      3713 1.24801E+01 8.84624E-01 2.97272E-02 5.06260E-01-1.45719E-13 8.24896E-14
 -1      3714 1.26447E+01 3.70781E-01-3.35760E-02 2.12100E+00-1.49442E-13 1.06429E-13
 -1      3715 2.03319E+01 6.42539E-01 4.60560E-04-7.18713E-02-5.77363E-14-3.82601E-14
 -1      3716 1.75764E+01-1.76370E+00 6.76146E-03 3.97334E+00 5.86215E-14-1.18135E-13
 -1      3717 1.63760E+01-1.23416E+00 7.22716E-02 3.94443E+00 4.25948E-14-1.70482E-13
 -1      3718 1.61452E+01-5.89603E-01 4.83596E-02 3.37231E+00 6.01689E-14-1.95444E-13
 -1      3719 1.99149E+01 3.43138E-01 1.22757E-03 4.14582E-01-1.23012E-13 8.36421E-13
 -1      3720 2.03061E+01 4.02285E-01-1.74795E-03-7.27130E-02 2.75492E-14 2.46567E-14
 -1      3721 2.03291E+01 5.01890E-01 2.51786E-03-7.86388E-03 3.15686E-14 1.36983E-14
 -1      3722 1.49677E+01 3.58317E-01 1.67534E-02 2.46560E+00 1.09925E-14-1.36145E-13
 -1      3723 1.40740E+01 8.68618E-01 4.63763E-03 1.34588E+00 2.45168E-14-2.54413E-13
 -1      3724 1.97649E+01 4.66576E-01-2.88915E-03-3.61356E-01-1.32898E-13 4.62912E-14
 -1      3725 1.72294E+01-7.44400E-01-3.14850E-04 3.34050E+00 8.84093E-14-2.78227E-13
 -1      3726 1.86300E+01-1.35173E+00 9.22003E-03 3.41079E+00 6.39679E-14-1.45944E-13
 -1      3727 2.02488E+01 2.47419E-01 3.16230E-04 1.92472E-01-4.09061E-14-1.86245E-14
 -1      3728 2.02177E+01 2.23699E-01-2.93516E-04 2.25886E-01-2.17185E-14 5.08983E-15
 -1      3729 2.01774E+01 2.13204E-01-1.76490E-04 2.49890E-01-2.14980E-14 1.53570E-14
 -1      3730 2.01430E+01 2.14029E-01 7.21568E-05 2.78511E-01-2.13487E-14 1.14665E-14
 -1      3731 2.02125E+01 2.45516E-01 4.16878E-04 2.06080E-01-1.40699E-14 1.46593E-14
 -1      3732 2.00938E+01 2.24803E-01-6.78165E-04 3.00609E-01-3.51856E-14 2.14259E-16
 -1      3733 2.00556E+01 2.45081E-01 2.82035E-04 3.28591E-01-3.61403E-14-8.68558E-15
 -1      3734 2.01237E+01 2.44239E-01 5.81087E-04 2.52460E-01-3.33265E-14 5.45561E-15
 -1      3735 1.99970E+01 2.72788E-01-1.18942E-03 3.51788E-01-3.29338E-14-4.73970E-15
 -1      3736 1.99533E+01 3.08594E-01 3.54492E-04 3.82424E-01-2.10936E-14-6.17976E-15
 -1      3737 2.00186E+01 2.84824E-01 9.05671E-04 2.97045E-01-4.70657E-14 1.81780E-15
 -1      3738 1.98835E+01 3.49774E-01-1.71804E-03 4.09002E-01-4.76352E-14-4.64447E-14
 -1      3739 1.98318E+01 3.97901E-01 3.13676E-04 4.44747E-01-5.00823E-14-5.48358E-14
 -1      3740 1.98945E+01 3.58690E-01 1.37480E-03 3.44820E-01-5.51066E-14 1.93255E-14
 -1      3741 1.97476E+01 4.49583E-01-2.29185E-03 4.76387E-01-2.67701E-14-9.93059E-14
 -1      3742 1.96845E+01 5.06980E-01 1.84854E-04 5.19092E-01-3.08822E-14-1.12194E-13
 -1      3743 1.97464E+01 4.58838E-01 2.01324E-03 3.99290E-01-7.67811E-14-2.34516E-14
 -1      3744 1.95818E+01 5.65889E-01-2.94214E-03 5.57105E-01 1.29888E-14-9.22407E-14
 -1      3745 1.95035E+01 6.28900E-01-6.06222E-06 6.08171E-01 5.31446E-14-7.49714E-14
 -1      3746 1.95668E+01 5.78650E-01 2.84009E-03 4.63014E-01 1.27092E-15-5.18457E-14
 -1      3747 1.93767E+01 6.90808E-01-3.74833E-03 6.53620E-01 9.41204E-15-8.32021E-14
 -1      3748 1.92788E+01 7.54693E-01-1.79769E-04 7.14372E-01-2.56777E-14-5.00870E-14
 -1      3749 1.93463E+01 7.10493E-01 3.86956E-03 5.37830E-01 1.81026E-14-8.16840E-14
 -1      3750 1.91207E+01 8.13806E-01-4.83122E-03 7.68902E-01-3.64588E-14-5.01249E-14
 -1      3751 1.89992E+01 8.71682E-01-2.27598E-04 8.41578E-01 1.31128E-14-6.37741E-14
 -1      3752 1.90725E+01 8.45022E-01 5.13940E-03 6.25575E-01-3.20292E-14-1.14683E-13
 -1      3753 1.88009E+01 9.19059E-01-6.40278E-03 9.08424E-01 2.40666E-14-1.43458E-13
 -1      3754 1.86525E+01 9.60807E-01 9.93815E-05 9.97363E-01 2.46412E-14-1.30635E-13
 -1      3755 1.87302E+01 9.69416E-01 6.74951E-03 7.30367E-01-5.10993E-14-8.03135E-14
 -1      3756 1.84014E+01 9.83368E-01-8.84632E-03 1.08344E+00 5.15139E-14-2.47110E-13
 -1      3757 1.82259E+01 9.94231E-01 1.27071E-03 1.19781E+00 1.76869E-14-2.76419E-13
 -1      3758 1.82999E+01 1.06600E+00 8.90421E-03 8.60844E-01 1.09723E-14-2.43497E-13
 -1      3759 1.79052E+01 9.72305E-01-1.24491E-02 1.31728E+00 4.62147E-14-2.15267E-13
 -1      3760 1.77074E+01 9.30129E-01 4.00866E-03 1.47510E+00 2.18968E-14-2.53862E-13
 -1      3761 1.77555E+01 1.10935E+00 1.18500E-02 1.03698E+00 5.00676E-14-3.68438E-13
 -1      3762 1.72913E+01 8.34512E-01-1.79793E-02 1.65335E+00 1.33410E-14-2.05254E-13
 -1      3763 1.70948E+01 7.03477E-01 9.18243E-03 1.88722E+00 4.85534E-14-2.16206E-13
 -1      3764 1.70646E+01 1.06562E+00 1.85429E-02 1.29441E+00 6.76090E-14-3.49706E-13
 -1      3765 2.02589E+01 5.28983E-01-9.49558E-04 9.47626E-02 4.09957E-14 1.64595E-14
 -1      3766 2.02793E+01 6.34914E-01 2.90520E-03 1.91069E-01 4.26814E-14 9.60095E-15
 -1      3767 2.03006E+01 7.49421E-01-3.31142E-03 2.28054E-01 5.22285E-14 1.89114E-14
 -1      3768 2.02967E+01 5.70724E-01-2.64717E-03 7.56148E-02 4.59745E-14 2.44261E-14
 -1      3769 1.96943E+01 5.23112E-01-1.96511E-03-3.85292E-01-2.74319E-14 9.80182E-14
 -1      3770 1.96909E+01 5.24873E-01 2.56335E-03-3.12467E-01-7.15027E-14-5.50363E-14
 -1      3771 1.61020E+01-2.43922E-01 1.59178E-02 3.07916E+00 2.97375E-14-1.91149E-13
 -1      3772 1.90746E+01-1.96567E+00 3.68880E-02 3.67551E+00 5.04631E-14-1.42424E-13
 -1      3773 1.72946E+01 6.99272E-01 1.61030E-02-1.90793E+00-5.73776E-15-6.74459E-14
 -1      3774 1.74569E+01 8.32147E-01-1.52832E-02-1.68137E+00-7.67533E-14 7.20413E-14
 -1      3775 1.78432E+01 9.31825E-01 5.25005E-03-1.49329E+00-1.59804E-13 1.80375E-13
 -1      3776 1.80173E+01 9.79617E-01-1.15964E-02-1.33336E+00-1.39017E-13 1.61423E-13
 -1      3777 1.71892E+01 1.06503E+00 1.46055E-02-1.34168E+00-6.43227E-14-8.16799E-14
 -1      3778 1.83185E+01 1.00614E+00 1.62203E-03-1.20691E+00-2.16685E-14 1.06961E-13
 -1      3779 1.84779E+01 1.00045E+00-8.34298E-03-1.08720E+00-1.05557E-14 2.49005E-13
 -1      3780 1.78451E+01 1.12297E+00 1.14781E-02-1.06552E+00-1.40816E-13 3.74785E-14
 -1      3781 1.87135E+01 9.82806E-01 2.71819E-04-9.93847E-01-1.76469E-13 1.72822E-13
 -1      3782 1.88485E+01 9.46518E-01-6.09354E-03-8.98220E-01-1.16100E-13 8.33977E-14
 -1      3783 1.83569E+01 1.09088E+00 8.76180E-03-8.74010E-01-1.15190E-13 4.82595E-14
 -1      3784 1.90330E+01 9.04787E-01-1.65207E-04-8.23917E-01-1.01031E-13-4.60302E-14
 -1      3785 1.91421E+01 8.53095E-01-4.73657E-03-7.43734E-01-8.78532E-14-3.08041E-14
 -1      3786 1.87593E+01 1.00596E+00 6.75801E-03-7.27925E-01-1.84969E-13-2.25138E-13
 -1      3787 1.92872E+01 8.01277E-01 6.51796E-05-6.81919E-01 7.00026E-15 1.40752E-14
 -1      3788 1.93717E+01 7.43596E-01-3.97482E-03-6.12604E-01 3.43575E-14 1.12197E-13
 -1      3789 1.90757E+01 8.93701E-01 5.11949E-03-6.07562E-01-4.56234E-14-1.71447E-14
 -1      3790 1.94856E+01 6.89948E-01 3.77675E-04-5.59776E-01-2.71261E-14 4.53679E-14
 -1      3791 1.95481E+01 6.33261E-01-3.51817E-03-4.98701E-01-3.04920E-14 8.46084E-14
 -1      3792 1.93214E+01 7.74110E-01 3.93098E-03-5.05727E-01-4.24406E-14 3.58850E-14
 -1      3793 1.96454E+01 5.71629E-01-2.09144E-04-4.34484E-01 5.04781E-14 1.01868E-13
 -1      3794 1.96109E+01 1.72830E-01 6.13824E-03-1.33771E+00-6.89090E-14 1.03284E-13
 -1      3795 1.95568E+01 2.72837E-01-7.23211E-04-1.24433E+00-8.31725E-15 6.30806E-14
 -1      3796 1.99110E+01 3.23526E-01-1.19478E-03 3.19857E-01 4.19322E-14 5.87955E-13
 -1      3797 1.97320E+01 4.57879E-01-1.58892E-03 1.69408E-01 2.23814E-13 1.37708E-15
 -1      3798 1.97655E+01 4.37539E-01 7.49793E-04 2.14985E-01 2.27471E-13-9.46947E-14
 -1      3799 1.97540E+01 4.48498E-01 1.47995E-03 2.64870E-01 2.46272E-13 9.03232E-14
 -1      3800 1.95947E+01 3.46516E-01 4.41793E-03-1.13079E+00-4.53222E-14 4.48413E-14
 -1      3801 1.95797E+01 3.91970E-01-1.69872E-03-1.04505E+00-2.86621E-14 3.50320E-14
 -1      3802 1.93227E+01 3.89460E-01-1.80336E-03-1.18473E+00-1.76709E-14 7.66415E-14
 -1      3803 1.96361E+01 4.20212E-01 3.18056E-03-9.50732E-01 5.80846E-15-1.40389E-14
 -1      3804 1.96429E+01 4.28585E-01-2.13006E-03-8.75040E-01 3.90157E-15 2.97085E-14
 -1      3805 1.94161E+01 4.78090E-01-2.61580E-04-9.74337E-01-1.53872E-14 7.45600E-14
 -1      3806 1.97316E+01-1.42356E-01 7.62235E-03-1.56656E+00-1.04369E-13 8.24731E-14
 -1      3807 1.96129E+01 3.44524E-02 1.21517E-03-1.47175E+00-1.14123E-13 9.68373E-14
 -1      3808 1.92815E+01 1.87718E-01-4.67103E-03-1.44124E+00-6.66680E-14 1.03635E-13
 -1      3809 2.00315E+01-6.35301E-01 1.14110E-02-1.80092E+00 9.43299E-15 5.35184E-14
 -1      3810 1.98095E+01-3.60721E-01 5.94855E-03-1.71553E+00-6.06208E-14 9.02334E-14
 -1      3811 1.93424E+01-1.76841E-01-1.12807E-02-1.74502E+00-6.43042E-14 4.00234E-14
 -1      3812 2.06043E+01-1.34306E+00 1.29084E-02-1.96671E+00 1.26495E-13 1.52272E-14
 -1      3813 2.02419E+01-9.79868E-01 9.51755E-03-1.94345E+00 1.32275E-13 6.50628E-14
 -1      3814 1.95949E+01-7.63204E-01-2.37253E-02-2.08728E+00 6.78277E-14 1.95273E-14
 -1      3815 1.98681E+01 3.40159E-01 1.48592E-03-5.65700E-01-4.63513E-14 5.20783E-14
 -1      3816 1.98926E+01 3.09393E-01-1.63992E-03-5.20473E-01 8.30877E-15 3.90704E-14
 -1      3817 1.60680E+01-1.04186E+00 1.32715E-03-3.78812E+00 2.45359E-13 7.42462E-14
 -1      3818 1.72119E+01-1.01484E+00 2.90500E-02-3.52548E+00 2.00130E-13 8.56554E-14
 -1      3819 1.45631E+01-1.57057E-01 2.23554E-02-3.10238E+00 1.55012E-13-3.10099E-14
 -1      3820 2.42109E+01 3.93958E+00-1.08477E-01-5.66951E-01 8.38080E-14-3.61521E-13
 -1      3821 2.02583E+01 1.41690E+00-5.75874E-03 3.95778E-01 2.01628E-14-4.06503E-14
 -1      3822 2.02409E+01 1.52139E+00-1.95534E-03 3.29158E-01 1.28628E-14-5.13218E-14
 -1      3823 2.03041E+01 1.33008E+00 6.05008E-03 2.31544E-01 8.15572E-15-6.24780E-14
 -1      3824 1.96541E+01-5.71365E-02 2.17329E-03 1.53669E+00 1.43736E-13 1.16739E-13
 -1      3825 1.98032E+01-2.68319E-01 8.34877E-03 1.63190E+00 1.02962E-13 1.34517E-13
 -1      3826 1.99226E+01-5.28189E-01 8.06032E-03 1.78564E+00 5.68816E-15 1.13433E-13
 -1      3827 2.01704E+01-8.48844E-01 4.59712E-03 1.85937E+00 2.58060E-14-5.21833E-14
 -1      3828 1.94029E+01-3.20432E-01-9.01163E-03 1.85350E+00 6.04677E-14-2.82436E-13
 -1      3829 1.95494E+01 4.05096E-01-1.48464E-03 1.07570E+00-5.52834E-15 1.06008E-13
 -1      3830 1.95774E+01 3.38341E-01 4.65942E-03 1.16928E+00-9.74720E-14 6.82394E-14
 -1      3831 1.95942E+01 4.76849E-01-1.99237E-03 8.85420E-01 5.14588E-14 1.66592E-13
 -1      3832 1.95963E+01 4.51942E-01 3.27891E-03 9.70377E-01 1.14928E-13 6.23592E-14
 -1      3833 1.93547E+01 5.08032E-01-6.56770E-04 1.00817E+00 2.90474E-14 2.38644E-14
 -1      3834 1.96604E+01 4.87803E-01-2.11362E-03 7.21799E-01-4.86797E-14 3.18016E-13
 -1      3835 1.96495E+01 4.89624E-01 2.33209E-03 7.97149E-01 3.06174E-14 1.97367E-13
 -1      3836 1.94543E+01 5.54545E-01 3.75632E-04 8.14689E-01-2.70120E-14-8.38703E-14
 -1      3837 1.97318E+01 4.62340E-01-1.93884E-03 5.82190E-01-1.51706E-13 5.48860E-13
 -1      3838 1.97156E+01 4.79934E-01 1.84135E-03 6.48213E-01-1.67554E-13 5.60534E-13
 -1      3839 1.95603E+01 5.46210E-01 8.27115E-04 6.54850E-01-2.85656E-13 3.23277E-13
 -1      3840 1.97970E+01 4.18958E-01-1.88154E-03 4.63550E-01 9.19585E-15 6.87720E-13
 -1      3841 1.97822E+01 4.43630E-01 1.68813E-03 5.21474E-01 4.57836E-14 6.50783E-13
 -1      3842 1.96598E+01 5.05460E-01 2.77119E-04 5.23391E-01-6.39261E-14 4.24798E-13
 -1      3843 1.96336E+01 5.48865E-01-1.35419E-03-2.52771E-01 4.93276E-14-7.12197E-14
 -1      3844 1.32313E+01 8.81567E-01 1.48330E-02-1.03224E+00-1.03224E-13 4.59945E-14
 -1      3845 1.39167E+01 4.84818E-01 3.31239E-02-2.26576E+00-2.85362E-16-1.32616E-13
 -1      3846 2.22457E+01-2.56588E+00-1.70665E-02 1.67298E+00-5.36927E-14-5.00011E-13
 -1      3847 2.23889E+01-2.91435E+00-1.38757E-02 1.97504E+00 4.46756E-14-3.29407E-13
 -1      3848 2.18495E+01-2.77398E+00 6.73766E-02 2.51905E+00 6.81872E-14-2.86727E-13
 -1      3849 2.17365E+01-2.10360E+00 4.21574E-02 1.82446E+00-1.01600E-13-4.75338E-13
 -1      3850 1.95936E+01 5.68463E-01-2.99926E-04-1.51649E-01-1.22047E-13-3.31521E-14
 -1      3851 1.95729E+01 5.78158E-01-6.91036E-04-8.43436E-02-5.09532E-14 8.30369E-14
 -1      3852 2.00299E+01-2.40584E+00-3.77758E-02 3.17367E+00-4.38031E-14-1.15222E-13
 -1      3853 1.82649E+01-1.39685E+00 1.14902E-01 3.62360E+00-1.93091E-13-4.64303E-14
 -1      3854 2.02132E+01-2.06410E+00-1.35745E-02 2.76720E+00-5.49612E-14-1.40984E-13
 -1      3855 1.98597E+01 3.66755E-01-6.63595E-04 3.40535E-01-6.15708E-14 4.92373E-13
 -1      3856 1.61879E+01 2.39970E-01 3.14334E-02 2.49737E+00 2.56132E-14-1.42166E-13
 -1      3857 1.98416E+01 3.90192E-01 4.49287E-04 3.86899E-01-6.21576E-14 5.30461E-13
 -1      3858 1.37489E+01 1.04745E+00 1.84109E-03-5.01050E-02 7.20951E-15-2.17330E-13
 -1      3859 1.39376E+01 8.07622E-01 9.45927E-03-1.48987E+00-2.33750E-14-1.44971E-14
 -1      3860 2.02651E+01 2.69465E-01-8.16423E-04-1.67598E-01 1.01521E-14 4.07966E-14
 -1      3861 2.02904E+01 3.28092E-01 1.23239E-03-1.19619E-01 1.98800E-14 2.64384E-14
 -1      3862 2.03263E+01 4.15462E-01 4.52250E-04-7.88158E-02 1.46530E-14-2.46720E-14
 -1      3863 2.05927E+01-1.23403E+00 2.08323E-02 1.94799E+00-1.83477E-13-2.60313E-14
 -1      3864 2.09672E+01-1.70288E+00-1.28695E-02 1.95407E+00-2.28420E-13-2.55011E-13
 -1      3865 2.09587E+01-2.03832E+00-2.78466E-02 2.24004E+00-1.59058E-13-2.85029E-13
 -1      3866 1.99013E+01-9.97225E-01-9.55278E-03 2.11045E+00-1.84598E-13-2.26743E-13
 -1      3867 1.66567E+01-3.38927E-01 1.45568E-02-3.11671E+00 1.21265E-13 1.14386E-13
 -1      3868 1.99468E+01 2.80704E-01 1.20404E-03-4.80577E-01 3.32036E-14 3.73140E-15
 -1      3869 1.99716E+01 2.51871E-01-1.29454E-03-4.43127E-01 2.88847E-14 2.76834E-14
 -1      3870 1.98752E+01 3.31553E-01 6.09093E-04-4.66211E-01-1.23587E-14 5.73049E-14
 -1      3871 2.02121E+01 1.67077E+00-1.03507E-03-1.53500E-01-3.30454E-14-1.46348E-13
 -1      3872 2.02227E+01 1.61380E+00-3.35403E-03-2.34067E-01-3.48753E-14-1.43985E-13
 -1      3873 2.02898E+01 1.38035E+00 3.21251E-03-1.73283E-01-3.23551E-14-1.37990E-13
 -1      3874 1.47214E+01 2.07327E-01 8.20209E-03-2.56673E+00 6.54594E-14 1.54434E-13
 -1      3875 1.60566E+01-6.89203E-01-2.49149E-02-3.38124E+00 6.80612E-14 1.69965E-13
 -1      3876 2.02132E+01 1.99280E-01-1.66114E-04-2.38657E-01 4.80407E-14-1.47335E-14
 -1      3877 2.02390E+01 2.27975E-01 6.33256E-04-2.02383E-01 2.66892E-14 2.03200E-14
 -1      3878 2.02795E+01 2.85452E-01 1.67877E-04-1.62345E-01 3.40781E-14-7.87433E-15
 -1      3879 1.61961E+01-9.01228E-01-6.52531E-02 3.46732E+00-3.34613E-13-2.62202E-13
 -1      3880 1.43683E+01 9.44005E-02 1.10050E-01 2.98609E+00-3.16511E-13-1.92157E-13
 -1      3881 2.17779E+01-2.57920E+00 2.79243E-02-2.22525E+00-8.66724E-14-2.54833E-14
 -1      3882 1.95540E+01 2.40398E-01-3.07699E-04 1.29385E+00 7.31194E-14 9.95056E-14
 -1      3883 1.96284E+01 1.12635E-01 6.55744E-03 1.39268E+00 1.79977E-13 1.33533E-13
 -1      3884 1.92831E+01 3.75313E-01-2.61036E-03 1.24213E+00 4.46619E-14-1.62540E-13
 -1      3885 1.68868E+01 1.34112E-01 3.32289E-02-2.59253E+00 4.19044E-16-8.75040E-14
 -1      3886 1.69623E+01 4.32632E-01-1.62073E-02-2.25716E+00-1.37264E-14-1.07910E-13
 -1      3887 1.64833E+01 8.00533E-01 1.28903E-02-1.84326E+00-2.17812E-14-3.14601E-13
 -1      3888 1.59333E+01 1.64109E-01 1.50206E-02-2.69325E+00 1.08464E-15-4.19725E-14
 -1      3889 2.02013E+01 1.70780E+00-2.16175E-03-1.55045E-02-8.28505E-15-1.06738E-13
 -1      3890 2.02039E+01 1.68937E+00-3.30410E-03-1.01673E-01-1.59225E-14-1.29735E-13
 -1      3891 2.02819E+01 1.45333E+00 4.62292E-03-7.42594E-02-2.18142E-14-1.08355E-13
 -1      3892 2.02804E+01 1.47507E+00 5.68412E-03 1.81573E-02-5.67050E-15-8.73163E-14
 -1      3893 2.03153E+01 1.07513E+00 5.96260E-03 3.11493E-01 3.13822E-14 1.30310E-15
 -1      3894 2.03278E+01 1.03495E+00-2.33485E-03-2.14664E-01-2.79996E-14-8.78085E-14
 -1      3895 2.03439E+01 8.66730E-01 7.60593E-04-1.39228E-01-3.62431E-14-7.68430E-14
 -1      3896 2.03267E+01 1.12415E+00 5.19082E-04-1.79627E-01-3.68419E-14-1.10453E-13
 -1      3897 2.03063E+01 3.39844E-01 6.93736E-04 1.19566E-01-6.67568E-14-5.72041E-14
 -1      3898 2.02792E+01 2.84998E-01-8.22396E-04 1.62850E-01-6.28568E-14-4.42098E-14
 -1      3899 2.02849E+01 2.99613E-01 4.41216E-04 1.51630E-01-2.76709E-14-4.54090E-14
 -1      3900 2.03432E+01 5.06623E-01 2.47351E-04 2.12834E-02-6.67334E-14-7.04179E-14
 -1      3901 2.03244E+01 4.13129E-01-1.19290E-03 8.02212E-02-7.91306E-14-6.18073E-14
 -1      3902 2.03374E+01 4.19759E-01 4.27413E-04 8.16510E-02-6.84518E-14-4.86519E-14
 -1      3903 2.03515E+01 7.34398E-01-8.02966E-04-9.26269E-02-5.21044E-14-6.05459E-14
 -1      3904 2.03471E+01 5.97748E-01-7.66309E-04-1.55368E-02-6.82778E-14-7.40927E-14
 -1      3905 2.03627E+01 5.95577E-01 7.24097E-04 1.72872E-03-5.78087E-14-9.67161E-14
 -1      3906 2.03613E+01 8.13454E-01 6.93332E-04-8.26466E-02-5.03935E-14-1.14933E-13
 -1      3907 1.97507E+01 4.45957E-01-5.80545E-04 3.84411E-01 5.22902E-14 4.97560E-13
 -1      3908 2.06343E+01-2.31708E+00-1.79484E-02-2.78803E+00-2.38696E-14 2.75825E-14
 -1      3909 2.14857E+01-2.06742E+00 2.20020E-02-1.93200E+00-1.37130E-14-3.09770E-14
 -1      3910 2.09288E+01-1.65637E+00 2.16030E-02-2.03862E+00 8.12516E-14 1.08375E-14
 -1      3911 1.96917E+01-1.68708E+00 1.54531E-03-2.83810E+00-1.24833E-14 4.14295E-14
 -1      3912 1.75031E+01-8.14259E-01 3.25054E-02-3.08661E+00 7.80790E-14 1.42144E-13
 -1      3913 1.52808E+01 1.01089E+00 1.43341E-04 1.11927E+00 8.90590E-14-2.73172E-13
 -1      3914 1.44262E+01 1.11171E+00 3.44265E-02 5.96051E-01 7.97216E-14-2.75462E-13
 -1      3915 1.49985E+01 1.14149E+00-6.62488E-03-5.84826E-02 5.10867E-14-1.57562E-13
 -1      3916 1.97863E+01 3.94168E-01 1.85471E-03-6.70362E-01-1.05386E-14 1.71113E-14
 -1      3917 1.98090E+01 3.67571E-01-1.94596E-03-6.15697E-01-2.75140E-14 3.36406E-14
 -1      3918 1.97674E+01 3.98305E-01 8.14345E-04-5.54577E-01-2.94822E-14 5.07804E-14
 -1      3919 1.59772E+01 9.08266E-01 2.66846E-02 1.64165E+00 6.21714E-14-2.34311E-13
 -1      3920 1.63741E+01 5.30726E-01-1.23542E-02 2.14428E+00 4.14642E-14-1.65637E-13
 -1      3921 2.03258E+01 6.27530E-01-1.72167E-03 6.72108E-02 2.40026E-14 1.05216E-14
 -1      3922 2.03337E+01 7.18865E-01 2.58083E-03 1.37825E-01 2.26644E-14 6.80594E-15
 -1      3923 1.95660E+01 5.75174E-01-1.38142E-03 8.86332E-05 1.17089E-14 1.67028E-13
 -1      3924 1.95726E+01 5.68073E-01-1.26432E-03 6.79204E-02 9.13149E-14-4.88067E-14
 -1      3925 1.95065E+01 6.23458E-01 1.07909E-03-4.22061E-02-4.12097E-14 4.48219E-14
 -1      3926 2.03115E+01 1.25988E+00-2.44750E-03 3.46835E-02-2.39876E-15-7.31120E-14
 -1      3927 2.03111E+01 1.25877E+00-2.81036E-03-7.61939E-03-6.69708E-15-9.39128E-14
 -1      3928 1.95212E+01 6.46364E-01 2.18882E-03-3.97054E-01 6.23401E-14-8.95558E-14
 -1      3929 1.50559E+01 3.47947E-01 4.45013E-02-2.39909E+00 3.72289E-14-1.48154E-13
 -1      3930 1.96767E+01 5.05438E-01 1.68564E-03 1.56302E-01 1.38301E-13-3.93258E-14
 -1      3931 2.00956E+01 1.60919E-01-3.00741E-04-3.66252E-01 5.52103E-14-3.02542E-14
 -1      3932 2.00990E+01-1.43954E+00-1.40579E-02-2.37932E+00 7.74667E-14 5.65970E-14
 -1      3933 2.03480E+01 6.34732E-01 1.05828E-03 3.98623E-02 2.22193E-14-1.68257E-14
 -1      3934 1.99738E+01 2.70046E-01 4.25171E-04-3.94790E-01 5.18152E-14 1.02014E-13
 -1      3935 2.00208E+01 2.27210E-01 9.59371E-04-4.10839E-01 2.69440E-14 2.98160E-14
 -1      3936 2.00456E+01 2.05260E-01-8.87631E-04-3.79022E-01 2.33591E-14 2.69622E-14
 -1      3937 1.96769E+01 4.93006E-01-2.20605E-04 3.29578E-01 5.87042E-14 1.01286E-13
 -1      3938 1.96298E+01 5.29881E-01 1.92338E-03 4.08817E-01-2.43238E-15 1.02824E-13
 -1      3939 1.96238E+01 5.26050E-01-1.40292E-03 2.80938E-01 1.04736E-13-7.66874E-14
 -1      3940 1.92762E+01 1.14980E-01-6.20872E-03 1.52276E+00 6.63831E-14-2.18413E-13
 -1      3941 1.95581E+01 6.04451E-01 1.06082E-03-2.32676E-01-1.70888E-14 1.12032E-13
 -1      3942 2.01797E+01 1.82942E-01 8.92896E-05-2.66568E-01 5.19100E-14-1.62604E-14
 -1      3943 2.02176E+01 2.20083E-01 6.73217E-05-2.26771E-01 5.28380E-14-1.65393E-14
 -1      3944 2.01542E+01 1.76699E-01 3.16885E-04-2.96878E-01 8.50505E-14-2.66812E-14
 -1      3945 1.33017E+01 1.05100E+00 5.28286E-02-3.82593E-01-1.07932E-13 1.01795E-13
 -1      3946 1.43856E+01 1.00850E+00 2.46987E-02-9.64716E-01-3.29937E-14 1.22142E-14
 -1      3947 1.34931E+01 9.91562E-01-1.55866E-02 3.69341E-01-7.76024E-14 3.99524E-14
 -1      3948 2.03166E+01 1.19845E+00-3.84529E-03 1.26396E-01 8.55015E-16-8.14369E-14
 -1      3949 2.03137E+01 1.23876E+00-2.59664E-03 7.39987E-02 4.59946E-16-7.44813E-14
 -1      3950 2.03611E+01 1.06392E+00 4.09178E-03 4.21163E-02-2.96242E-15-6.57578E-14
 -1      3951 1.70928E+01-7.72936E-01-4.28983E-03 3.11942E+00-2.28545E-13-1.70485E-13
 -1      3952 1.42276E+01 4.34214E-01 2.93106E-02 2.16209E+00-3.31086E-13-1.20163E-13
 -1      3953 1.52179E+01 6.14602E-01 3.93743E-02-1.78309E+00 4.20673E-14 5.80274E-14
 -1      3954 1.95313E+01 4.90652E-01 4.31171E-04-8.03184E-01-3.19476E-15 1.41492E-14
 -1      3955 1.97058E+01 4.27266E-01 2.34272E-03-7.98123E-01 8.20654E-15 1.03938E-15
 -1      3956 1.97234E+01 4.13166E-01-2.16870E-03-7.33016E-01-1.07959E-14 1.05724E-14
 -1      3957 1.59802E+01 1.07249E+00-1.93224E-02 1.01050E+00 1.18845E-13-2.88542E-13
 -1      3958 1.66174E+01 1.12990E+00-3.61279E-03-1.02012E+00-4.65600E-14-1.49897E-13
 -1      3959 1.69918E+01 1.16091E+00-1.56173E-02-8.88340E-01-8.27034E-14-1.02364E-13
 -1      3960 2.03243E+01 9.90695E-01-4.78921E-03 1.98367E-01 2.16488E-14-3.75650E-14
 -1      3961 2.03196E+01 9.43217E-01 7.29043E-04 2.23533E-01 2.30755E-14-2.45518E-16
 -1      3962 2.01501E+01 2.51747E-01-4.82909E-04 1.95391E-01-1.43058E-14-5.29939E-14
 -1      3963 2.01011E+01 2.62083E-01-2.25414E-04 2.17205E-01-1.65721E-14-5.11127E-14
 -1      3964 2.00382E+01 2.82421E-01-8.60608E-04 2.31320E-01-3.74315E-14-3.54469E-15
 -1      3965 1.99808E+01 3.12198E-01-1.98549E-04 2.52994E-01-2.81751E-14 1.09835E-14
 -1      3966 2.00689E+01 2.91500E-01 1.03575E-03 1.73905E-01 6.69243E-15-5.18612E-15
 -1      3967 1.99055E+01 3.49562E-01-1.27362E-03 2.67876E-01-3.19201E-14 3.18783E-14
 -1      3968 1.98376E+01 3.94529E-01-3.47582E-04 2.91340E-01-6.58296E-14 2.90994E-14
 -1      3969 1.99336E+01 3.51103E-01 1.44312E-03 2.00646E-01-3.05889E-14 5.70269E-14
 -1      3970 1.97478E+01 4.45125E-01-1.74290E-03 3.07783E-01-9.25939E-14 2.06676E-14
 -1      3971 1.96660E+01 5.01918E-01-6.11938E-04 3.34208E-01-6.04062E-14 4.61600E-14
 -1      3972 1.97725E+01 4.42455E-01 1.99675E-03 2.28380E-01-3.45285E-14 5.57122E-14
 -1      3973 1.95578E+01 5.62382E-01-2.26092E-03 3.52757E-01-5.42873E-14 1.53467E-14
 -1      3974 1.94579E+01 6.27308E-01-9.82740E-04 3.82905E-01-3.29861E-14-3.04767E-14
 -1      3975 1.95797E+01 5.57894E-01 2.68804E-03 2.57286E-01-9.64359E-14 2.19086E-14
 -1      3976 1.93261E+01 6.93689E-01-2.90056E-03 4.03439E-01 1.06387E-14-1.05436E-13
 -1      3977 1.92024E+01 7.62330E-01-1.55735E-03 4.37734E-01 1.02135E-14-1.06544E-13
 -1      3978 1.93466E+01 6.90176E-01 3.78977E-03 2.87663E-01-4.04788E-14-7.29341E-14
 -1      3979 1.90397E+01 8.30220E-01-3.83506E-03 4.59821E-01 3.54336E-15-1.35546E-13
 -1      3980 1.88852E+01 8.98006E-01-2.21820E-03 4.99079E-01-3.88284E-14-1.21158E-13
 -1      3981 1.90604E+01 8.30710E-01 5.15677E-03 3.18496E-01 2.96882E-16-1.41727E-13
 -1      3982 1.86818E+01 9.61238E-01-5.19314E-03 5.23662E-01-5.97847E-14-1.11892E-13
 -1      3983 1.84880E+01 1.02093E+00-3.04220E-03 5.69919E-01-6.10444E-14-9.66055E-14
 -1      3984 1.87047E+01 9.70222E-01 6.86613E-03 3.47939E-01-4.08220E-14-1.65333E-13
 -1      3985 1.82299E+01 1.07107E+00-7.34728E-03 5.97985E-01-5.73881E-14-1.11783E-13
 -1      3986 1.79855E+01 1.11416E+00-3.98301E-03 6.56201E-01 2.50752E-14-1.92842E-13
 -1      3987 1.82584E+01 1.09592E+00 9.40453E-03 3.77880E-01-4.42898E-14-7.55434E-14
 -1      3988 1.76491E+01 1.14300E+00-1.06091E-02 6.91359E-01 5.71607E-14-2.24847E-13
 -1      3989 1.73348E+01 1.15718E+00-5.44052E-03 7.74928E-01 2.89577E-14-2.68385E-13
 -1      3990 1.76889E+01 1.19463E+00 1.35454E-02 4.07798E-01 1.36775E-14-5.79391E-14
 -1      3991 1.69229E+01 1.15077E+00-1.61444E-02 8.15209E-01 5.21395E-14-3.24531E-13
 -1      3992 1.65207E+01 1.11785E+00-7.00164E-03 9.43894E-01 7.02290E-14-3.19263E-13
 -1      3993 1.60720E+01 1.26401E+00 3.31080E-02 4.73028E-01 1.08806E-13-2.72077E-13
 -1      3994 1.69779E+01 1.25434E+00 2.10111E-02 4.37474E-01 9.25399E-15-2.15432E-13
 -1      3995 1.94648E+01 5.95720E-01-2.53485E-03 5.59435E-01-2.82049E-13 1.13785E-14
 -1      3996 1.94153E+01 6.18187E-01 1.65516E-03 6.29122E-01-3.23298E-13 3.85017E-14
 -1      3997 1.79721E+01-7.90815E-01-3.03523E-02 2.85553E+00-1.99469E-13-3.88916E-14
 -1      3998 1.66654E+01-6.97073E-03 7.35641E-02 2.68842E+00-2.30492E-13-1.08610E-13
 -1      3999 1.93404E+01 7.41759E-01 9.51225E-04-3.19958E-01 5.59216E-14 2.10358E-14
 -1      4000 1.94364E+01 6.70606E-01-2.40373E-03-2.65465E-01 6.50732E-14 8.71029E-14
 -1      4001 1.93996E+01 6.92692E-01 1.03043E-03-1.55810E-01 1.76689E-14 4.29286E-14
 -1      4002 1.74232E+01 1.17791E+00-3.78851E-03-8.21979E-01-1.43317E-13-7.42927E-14
 -1      4003 1.77143E+01 1.16674E+00-1.06658E-02-7.32075E-01-1.31926E-13-1.48625E-14
 -1      4004 1.70159E+01 1.27586E+00 2.10768E-02-5.27909E-01-5.42611E-14-1.60907E-13
 -1      4005 1.80375E+01 1.14523E+00-3.11782E-03-6.85345E-01-1.62117E-13 2.28512E-14
 -1      4006 1.82661E+01 1.10640E+00-7.10812E-03-6.19076E-01-2.66348E-13-1.29373E-13
 -1      4007 1.77292E+01 1.23000E+00 1.32518E-02-4.56616E-01-1.46575E-13-1.25623E-13
 -1      4008 1.85121E+01 1.06147E+00-2.64176E-03-5.82683E-01-2.15294E-13-7.00656E-14
 -1      4009 1.86918E+01 1.00704E+00-5.20495E-03-5.28618E-01-1.17158E-13-1.03731E-13
 -1      4010 1.82749E+01 1.14056E+00 9.59049E-03-4.05729E-01-2.31906E-13-1.44283E-13
 -1      4011 1.88824E+01 9.52149E-01-1.71283E-03-4.97030E-01-1.48330E-13-1.91240E-13
 -1      4012 1.90195E+01 8.88823E-01-5.07097E-03-4.48615E-01-1.30414E-13-2.02834E-13
 -1      4013 1.86957E+01 1.02459E+00 6.38633E-03-3.61597E-01-1.82611E-13-6.87216E-14
 -1      4014 1.91341E+01 8.47662E-01-3.63454E-04-3.99571E-01-6.31644E-14-1.16741E-13
 -1      4015 1.92414E+01 7.82240E-01-4.03755E-03-3.59131E-01 2.77265E-14-7.82760E-14
 -1      4016 1.91837E+01 8.17578E-01 3.07704E-03-2.14893E-01 1.48417E-13-6.05400E-14
 -1      4017 1.89825E+01 9.15980E-01 4.36243E-03-2.94011E-01-7.73373E-14-3.00585E-13
 -1      4018 1.89810E+01-7.61332E-02 1.64402E-02-1.83408E+00-6.10319E-15 7.02245E-14
 -1      4019 1.88676E+01 1.22743E-01-3.92136E-03-1.66714E+00-5.02830E-14 7.22492E-14
 -1      4020 1.90639E+01 4.80609E-01 5.82638E-03-1.17922E+00-1.20551E-14 1.05785E-13
 -1      4021 1.90914E+01 5.30094E-01-4.04959E-03-1.06392E+00 1.78783E-14 1.88184E-13
 -1      4022 1.92093E+01 5.62019E-01 3.87031E-03-9.49596E-01-2.05794E-14 1.15043E-13
 -1      4023 1.92563E+01 5.69749E-01-3.71139E-03-8.56982E-01-2.70978E-14 1.09671E-13
 -1      4024 1.89469E+01 6.41214E-01 2.13114E-03-9.38196E-01-9.61320E-15 1.63522E-13
 -1      4025 1.95693E+01 5.66927E-01-9.57607E-04 1.45310E-01 1.02438E-13 2.90563E-14
 -1      4026 1.95999E+01 5.43894E-01-1.10688E-03 2.07172E-01 1.01158E-13-6.41639E-15
 -1      4027 1.95198E+01 5.98096E-01 1.63374E-03 2.73902E-01-9.04183E-14-4.13924E-14
 -1      4028 1.94959E+01 6.19227E-01 8.54219E-04 1.20214E-01-3.97871E-14-8.55298E-14
 -1      4029 1.70877E+01-2.42583E-01 9.05940E-03-2.67214E+00 7.86585E-14 1.86712E-13
 -1      4030 1.84153E+01-1.05871E+00-2.48737E-02-2.93578E+00 5.51920E-14 1.83061E-13
 -1      4031 1.90048E+01-7.75342E-01 1.06314E-02-2.44284E+00 7.77971E-14 9.35031E-14
 -1      4032 1.88124E+01-4.24907E-01-3.63301E-03-2.20491E+00 8.65718E-14 9.96872E-14
 -1      4033 2.03184E+01 1.22528E+00-5.84668E-04-1.00489E-01-2.06421E-14-1.19928E-13
 -1      4034 2.03207E+01 1.17204E+00-2.84784E-03-1.48987E-01-2.44870E-14-1.34483E-13
 -1      4035 2.03540E+01 9.97262E-01 1.71589E-03-9.98908E-02-3.40261E-14-1.31200E-13
 -1      4036 1.89645E+01 2.83533E-01 9.17135E-03-1.47102E+00-2.98732E-14 1.40136E-13
 -1      4037 1.89505E+01 3.95418E-01-3.77001E-03-1.32902E+00-1.14385E-14 1.16227E-13
 -1      4038 1.85231E+01 3.44977E-01-1.41358E-03-1.56015E+00-1.29884E-14 1.63149E-13
 -1      4039 1.88524E+01 1.24913E-02-5.12643E-03 1.78666E+00 6.15350E-15-2.38291E-13
 -1      4040 1.89733E+01-2.47413E-01 1.94193E-03 1.98064E+00 3.64473E-14-1.76968E-13
 -1      4041 2.03119E+01 1.25812E+00-2.12873E-03-3.45711E-02-8.30321E-15-1.11497E-13
 -1      4042 2.03139E+01 1.23698E+00-2.94599E-03-7.54353E-02-1.60304E-14-9.96354E-14
 -1      4043 2.03579E+01 1.06286E+00 3.45555E-03-5.64643E-02-1.99792E-14-1.02270E-13
 -1      4044 2.03621E+01 1.08099E+00 5.06987E-03-1.20663E-02-2.08171E-14-9.40777E-14
 -1      4045 1.93190E+01 6.29357E-01-3.45918E-03 7.06921E-01-1.18362E-13 1.55867E-13
 -1      4046 1.92712E+01 6.33950E-01 2.46569E-03 7.92004E-01 5.35661E-14 1.11301E-13
 -1      4047 1.92414E+01 6.93458E-01 2.10335E-03 6.05059E-01-1.89610E-13 9.59268E-15
 -1      4048 1.91645E+01 6.20618E-01-3.93777E-03 8.91632E-01 6.76497E-14 1.39976E-13
 -1      4049 1.91265E+01 5.94692E-01 3.95031E-03 9.95758E-01 3.87800E-14 1.53923E-13
 -1      4050 1.90471E+01 7.12458E-01 1.83349E-03 7.76056E-01 8.30345E-14 2.30169E-13
 -1      4051 1.95734E+01 5.51705E-01-1.13362E-03 4.51368E-01-2.48320E-14-1.30820E-14
 -1      4052 1.95260E+01 5.81042E-01 1.42464E-03 5.08612E-01-2.38942E-13-1.02247E-14
 -1      4053 1.93866E+01 6.49841E-01 1.17714E-03 4.82042E-01-1.92863E-13-4.02130E-13
 -1      4054 1.94936E+01 6.00757E-01-5.81134E-05 3.91377E-01-1.74863E-13-3.55280E-13
 -1      4055 2.03569E+01 6.13605E-01-3.98759E-03 8.70165E-03 9.22426E-16-1.03465E-14
 -1      4056 2.03669E+01 7.73478E-01 5.09676E-03 8.00941E-02 2.11899E-14-1.05550E-14
 -1      4057 2.00899E+01 1.89404E-01 6.76506E-04-3.51689E-01 4.09151E-14 4.53176E-16
 -1      4058 2.01150E+01 1.79071E-01-4.19969E-04-3.22544E-01 8.56865E-14 9.80115E-15
 -1      4059 2.01450E+01 2.03800E-01 1.08001E-04-2.81629E-01 6.36618E-14 3.94286E-14
 -1      4060 2.00637E+01 2.24045E-01 2.44981E-04-3.35257E-01 2.83180E-14 1.79097E-14
 -1      4061 1.96170E+01-1.40011E+00 2.47424E-02 2.70085E+00-3.16924E-13-6.14400E-14
 -1      4062 2.03348E+01 4.01802E-01-1.58002E-03-8.78723E-02 2.38183E-14-4.56765E-14
 -1      4063 2.03583E+01 4.92067E-01 1.71116E-03-3.96896E-02 7.43039E-15-5.26749E-15
 -1      4064 1.98066E+01 3.80839E-01 8.48434E-04-4.30827E-01-9.63074E-15 6.28698E-14
 -1      4065 1.98568E+01 3.43298E-01-1.66308E-03-3.92572E-01 4.10153E-14 1.23528E-13
 -1      4066 2.02846E+01 2.84309E-01-6.82104E-04-1.55384E-01 1.61652E-14 1.12567E-14
 -1      4067 2.03141E+01 3.34976E-01 4.87927E-04-1.19027E-01 8.61861E-15 2.82485E-15
 -1      4068 2.03409E+01 4.06245E-01 9.16019E-04-8.31138E-02-5.07083E-15-7.54079E-15
 -1      4069 1.51262E+01 3.90254E-01-5.46086E-02 2.13159E+00-4.35887E-13-2.16382E-13
 -1      4070 1.41784E+01 9.42381E-01 6.55776E-02 1.35219E+00-2.89269E-13-1.82231E-13
 -1      4071 1.46464E+01 1.07554E+00 2.28991E-02 5.54495E-01-1.36342E-13-1.83951E-13
 -1      4072 2.02429E+01 2.66938E-01-1.73917E-04 1.55884E-01-2.76530E-14-3.24323E-14
 -1      4073 2.02016E+01 2.52885E-01-3.90688E-04 1.80449E-01-4.21529E-14-4.90136E-14
 -1      4074 2.01819E+01 2.72700E-01 8.32023E-04 1.45919E-01-3.57237E-14-1.00985E-13
 -1      4075 1.90152E+01 5.41685E-01-4.16779E-03 1.12427E+00-3.00098E-14 6.50272E-14
 -1      4076 1.90019E+01 4.68161E-01 6.22131E-03 1.25196E+00-6.81197E-15-2.93032E-14
 -1      4077 1.88387E+01 6.72235E-01 1.31171E-03 9.99108E-01-3.17809E-14 6.58746E-14
 -1      4078 1.53051E+01 8.96980E-01-9.02689E-03-1.19157E+00 1.30397E-14 1.57816E-14
 -1      4079 1.59822E+01 3.62550E-01-1.23102E-02-2.17319E+00 5.75222E-14 1.16998E-13
 -1      4080 2.03617E+01 4.86841E-01-2.56782E-05 4.49491E-02-4.41907E-14-1.09260E-13
 -1      4081 2.03409E+01 4.03509E-01-8.18515E-04 8.46967E-02-4.07774E-14-6.98507E-14
 -1      4082 1.52450E+01 6.82085E-01-1.25393E-02-1.91090E+00-4.84448E-14-1.25486E-13
 -1      4083 2.03404E+01 9.78681E-01-2.32893E-03 1.49117E-01 1.43655E-14-4.26702E-14
 -1      4084 2.03368E+01 1.04602E+00-1.80168E-03 1.14941E-01 1.14851E-14-5.70364E-14
 -1      4085 1.88962E+01 3.55251E-01-4.54901E-03 1.41905E+00 3.97776E-14-1.00399E-14
 -1      4086 1.89284E+01 2.10882E-01 7.60327E-03 1.57520E+00-1.73358E-14-1.43832E-13
 -1      4087 1.86302E+01 5.40671E-01 1.97232E-05 1.29259E+00-1.20832E-14 1.04351E-13
 -1      4088 2.03154E+01 3.39781E-01 2.57735E-05 1.07665E-01-3.42795E-14-5.21796E-14
 -1      4089 2.02826E+01 2.95040E-01-7.16905E-04 1.38129E-01-1.94761E-14-4.12700E-14
 -1      4090 2.03406E+01 4.01288E-01 7.13390E-04 7.34080E-02-1.47385E-14-8.55965E-14
 -1      4091 1.92521E+01-1.11164E+00 9.89230E-03-2.59209E+00 4.99444E-14 1.29765E-13
 -1      4092 1.80197E+01-2.12414E-02 2.01660E-02 2.18549E+00-8.04756E-14-8.67540E-14
 -1      4093 1.85519E+01-4.16541E-01-1.40381E-02 2.28535E+00-4.63364E-14-1.98100E-13
 -1      4094 1.96512E+01 4.57307E-01 8.06597E-04-6.65394E-01-7.60561E-15 1.54924E-14
 -1      4095 1.60126E+01 1.07591E+00-1.68275E-02-1.14749E+00 3.58557E-15-1.36289E-13
 -1      4096 1.60164E+01 1.26998E+00 2.88171E-02-6.42635E-01-4.43773E-14-1.03327E-13
 -1      4097 2.02734E+01 3.04840E-01 7.08449E-04 1.13456E-01-3.12591E-14-5.63571E-14
 -1      4098 1.82575E+01-1.17155E-01-9.95218E-03-2.14564E+00 6.28121E-14 1.52530E-13
 -1      4099 1.71193E+01 1.90931E-01 2.76400E-02-2.12983E+00 5.44690E-14 1.42546E-13
 -1      4100 1.92600E+01-9.74160E-01 2.18717E-02 2.53488E+00-1.74917E-13-1.45880E-13
 -1      4101 1.62521E+01 3.73660E-01 4.08409E-03 2.03726E+00-3.17976E-13-6.37903E-14
 -1      4102 1.92595E+01 7.62826E-01 8.08897E-04-6.34891E-02 1.52730E-13 1.08408E-13
 -1      4103 1.93790E+01 6.88214E-01-1.95604E-03-4.54525E-02-1.89544E-14 1.55666E-13
 -1      4104 1.93822E+01 6.87577E-01 9.67496E-04 4.53661E-02 6.21486E-15 2.18460E-14
 -1      4105 1.87268E+01 5.57464E-01 2.42260E-03-1.20226E+00-9.80420E-15 1.66189E-13
 -1      4106 1.91683E+01 6.43239E-01 2.72317E-03-7.41926E-01-5.56724E-14 1.63205E-13
 -1      4107 1.93684E+01 5.66381E-01 2.45630E-03-7.70419E-01 4.20979E-15 4.60981E-14
 -1      4108 1.94201E+01 5.47263E-01-4.51099E-03-6.97437E-01-3.18954E-14 5.35260E-14
 -1      4109 2.03681E+01 9.03787E-01-7.20569E-04-5.25992E-02-4.17726E-14-1.16532E-13
 -1      4110 2.03669E+01 8.55336E-01-1.17693E-03-7.31180E-02-5.39615E-14-1.31688E-13
 -1      4111 2.03769E+01 7.38528E-01 1.62780E-03-2.86479E-02-5.77487E-14-1.30556E-13
 -1      4112 1.99277E+01 3.09736E-01 6.75256E-04-3.61546E-01 2.27272E-14 1.51614E-13
 -1      4113 1.99739E+01 2.78600E-01-1.23364E-03-3.30065E-01 2.97440E-14 1.40396E-13
 -1      4114 1.98636E+01 3.57549E-01 1.00043E-03-3.25397E-01 1.93103E-14 1.40893E-13
 -1      4115 1.57045E+01 9.29027E-01 1.61239E-02-1.46318E+00-4.27406E-14-1.84422E-13
 -1      4116 1.84605E+01 2.66439E-01-1.21344E-03 1.68688E+00-5.75072E-14 4.91098E-14
 -1      4117 2.03695E+01 6.09469E-01-2.30794E-04-5.20456E-03 1.08531E-15-2.34651E-14
 -1      4118 1.97269E+01 4.17687E-01-2.03436E-03-4.70211E-01-5.07486E-14 5.73006E-14
 -1      4119 1.97189E+01 4.37659E-01 1.60554E-03-3.93914E-01-1.15907E-14 7.82707E-14
 -1      4120 1.96724E+01 4.56663E-01 1.14137E-03-5.17398E-01-2.19605E-14 6.94381E-14
 -1      4121 2.02500E+01 2.50238E-01-1.15214E-05-1.79623E-01 4.71675E-14 2.47213E-14
 -1      4122 2.02820E+01 2.96204E-01 6.04345E-04-1.38349E-01 1.17910E-14 4.47222E-14
 -1      4123 2.02154E+01 2.29691E-01-1.61938E-04-2.08928E-01 6.10530E-14 2.70251E-14
 -1      4124 2.03705E+01 9.16476E-01-1.99378E-03 1.33532E-03-2.33826E-14-7.63877E-14
 -1      4125 2.03711E+01 9.15897E-01-1.46436E-03-1.64106E-02-1.31975E-14-9.70172E-14
 -1      4126 2.03694E+01 8.94046E-01-1.06744E-03 3.84994E-02 8.65309E-15-7.66681E-14
 -1      4127 2.03705E+01 9.10799E-01-1.53841E-03 1.54473E-02-7.10548E-15-5.03967E-14
 -1      4128 2.03928E+01 7.76971E-01 3.66837E-03 5.12025E-03-1.48330E-14-4.09257E-14
 -1      4129 1.56934E+01 1.16646E+00-1.33998E-02-1.67528E-02 1.12175E-13-9.94516E-14
 -1      4130 1.53851E+01 1.15162E+00 2.97228E-02-6.12116E-01 4.04444E-14-5.45484E-14
 -1      4131 1.60453E+01 9.67578E-01 1.19330E-03-1.01344E+00 4.99453E-14 2.25692E-14
 -1      4132 1.62252E+01 1.18676E+00-1.27364E-02 1.87075E-03 7.00343E-14-8.71072E-14
 -1      4133 1.48001E+01 1.14386E+00-7.34959E-03-5.09845E-01-7.19355E-14-3.95469E-14
 -1      4134 1.49203E+01 1.04980E+00 1.81424E-02-1.14280E+00-1.63036E-14-1.80920E-13
 -1      4135 2.03741E+01 6.43114E-01-1.54709E-03-1.08306E-02-3.94320E-14-1.32812E-13
 -1      4136 2.03696E+01 5.54042E-01-2.30712E-04 2.60843E-02-3.87895E-14-1.28464E-13
 -1      4137 2.03730E+01 5.39531E-01 7.03094E-04 2.98627E-02-2.17267E-14-1.25061E-13
 -1      4138 2.03817E+01 6.83942E-01-1.34907E-03-6.33153E-03-4.32757E-14-1.15959E-13
 -1      4139 1.95257E+01 5.25561E-01 2.04808E-03-6.27252E-01-1.19669E-15 8.03827E-14
 -1      4140 1.95815E+01 4.91206E-01-2.74290E-03-5.68546E-01-7.31252E-15 1.05489E-13
 -1      4141 1.95561E+01 5.23901E-01 3.17049E-03-4.81431E-01-3.83924E-14 5.98544E-14
 -1      4142 2.02988E+01 3.26960E-01-5.02556E-04 6.85376E-02-1.01158E-14-8.74646E-14
 -1      4143 2.02586E+01 2.95843E-01-4.04019E-04 8.66949E-02-5.23532E-14-1.03664E-13
 -1      4144 2.00975E+01 2.85030E-01-5.85002E-04 1.11370E-01 2.42681E-14-3.89439E-14
 -1      4145 2.00348E+01 3.05071E-01-5.60844E-04 1.23860E-01 1.75934E-14-2.21922E-14
 -1      4146 1.99618E+01 3.34569E-01-8.27022E-04 1.27796E-01-1.38027E-14 2.65266E-14
 -1      4147 1.98869E+01 3.72738E-01-7.82173E-04 1.39521E-01-9.47442E-15 2.29338E-14
 -1      4148 1.99978E+01 3.30803E-01 1.31799E-03 6.44328E-02 3.04516E-14-8.65596E-14
 -1      4149 1.98004E+01 4.17955E-01-1.09805E-03 1.42457E-01-2.32951E-14-9.72401E-15
 -1      4150 1.97104E+01 4.69361E-01-1.43711E-03 1.53491E-01-6.14962E-14 1.00123E-15
 -1      4151 1.98416E+01 4.06344E-01 2.27581E-03 6.85574E-02-3.17237E-14-2.87577E-14
 -1      4152 1.96071E+01 5.27157E-01-1.63452E-03 1.56629E-01-1.09303E-13 1.14662E-14
 -1      4153 1.95007E+01 5.88913E-01-1.36523E-03 1.67783E-01-1.53169E-13-3.06797E-14
 -1      4154 1.96516E+01 5.12943E-01 3.32160E-03 6.86026E-02-7.43766E-14-4.86750E-15
 -1      4155 1.93766E+01 6.52652E-01-2.09559E-03 1.67559E-01-1.21941E-13 2.14266E-14
 -1      4156 1.92460E+01 7.19955E-01-2.23907E-03 1.77284E-01-3.20013E-14-1.89583E-14
 -1      4157 1.94308E+01 6.33186E-01 4.30874E-03 6.21167E-02-9.47206E-14 2.77902E-14
 -1      4158 1.90976E+01 7.87173E-01-2.36537E-03 1.71476E-01 7.16804E-15-5.99403E-14
 -1      4159 1.89311E+01 8.54466E-01-4.62531E-03 1.77217E-01-2.17151E-14-6.90892E-14
 -1      4160 1.91674E+01 7.62941E-01 5.97579E-03 4.78122E-02-6.76949E-14 3.78458E-14
 -1      4161 1.87508E+01 9.22450E-01-3.40461E-03 1.70285E-01-2.26127E-14-6.58500E-14
 -1      4162 1.85450E+01 9.84826E-01-5.83810E-03 1.72310E-01-2.68515E-14-1.61470E-14
 -1      4163 1.88357E+01 9.09140E-01 1.07839E-02 2.17256E-02-2.10585E-14 4.07416E-14
 -1      4164 1.83190E+01 1.04344E+00-5.04468E-03 1.54691E-01-2.78656E-14-1.49170E-14
 -1      4165 1.80586E+01 1.09456E+00-7.87092E-03 1.51358E-01-8.54763E-15 1.39730E-14
 -1      4166 1.84400E+01 1.03586E+00 1.65581E-02-3.09000E-02-1.15391E-14 1.49166E-14
 -1      4167 1.77694E+01 1.13482E+00-8.26935E-03 1.26379E-01-9.96409E-15 2.01350E-14
 -1      4168 1.74341E+01 1.16693E+00-1.10811E-02 1.16144E-01 4.59626E-15 2.15063E-14
 -1      4169 1.79291E+01 1.14316E+00 2.10575E-02-1.14942E-01-3.95051E-15 3.47417E-14
 -1      4170 1.66331E+01 1.23526E+00-2.08401E-02-1.56142E-01-1.34169E-13-2.50652E-13
 -1      4171 1.70879E+01 1.23229E+00-1.14849E-02-1.41836E-01-7.21836E-14-2.47138E-13
 -1      4172 1.74679E+01 1.21488E+00-8.24510E-03-1.79595E-01-9.71064E-14-2.56585E-13
 -1      4173 1.77878E+01 1.18422E+00-6.79927E-03-1.72812E-01-2.29018E-13-2.87804E-13
 -1      4174 1.72925E+01 1.23670E+00 1.69059E-02 1.62899E-01-1.28326E-13-3.77786E-13
 -1      4175 1.80717E+01 1.14505E+00-5.66313E-03-1.97040E-01-2.14528E-13-2.39155E-13
 -1      4176 1.83141E+01 1.09692E+00-5.14943E-03-1.90229E-01-1.15080E-13-1.23850E-13
 -1      4177 1.79283E+01 1.17636E+00 1.31180E-02 6.16025E-02-1.10294E-13-2.40998E-13
 -1      4178 1.85310E+01 1.04637E+00-4.80848E-03-1.99002E-01-2.03037E-13 1.49472E-14
 -1      4179 1.87177E+01 9.86511E-01-5.28587E-03-1.87861E-01-2.23343E-13 1.52455E-14
 -1      4180 1.84054E+01 1.09001E+00 9.80237E-03 2.54514E-03-7.96310E-14 9.53550E-14
 -1      4181 1.73306E+01 4.41498E-01-7.15496E-03-1.74721E+00 1.32349E-14 1.22405E-13
 -1      4182 1.84043E+01 6.64510E-01 1.41032E-03-1.13598E+00-3.00144E-14 1.89172E-13
 -1      4183 1.85015E+01 7.06322E-01-1.04869E-02-9.92279E-01-1.75025E-14 1.54361E-13
 -1      4184 2.03721E+01 8.89086E-01 1.71649E-03 6.14871E-02 1.89684E-14-5.05604E-14
 -1      4185 2.03696E+01 9.16343E-01-1.35491E-03-3.50873E-02-3.22658E-14-1.01584E-13
 -1      4186 1.89362E+01 7.83395E-01-6.16222E-03 6.20804E-01-7.53783E-15 4.27558E-14
 -1      4187 1.88445E+01 7.97402E-01 2.75408E-03 7.11783E-01 5.22788E-14-5.33560E-15
 -1      4188 2.02102E+01 2.78600E-01-4.41275E-04 9.23870E-02-6.21853E-14-8.62876E-14
 -1      4189 2.01583E+01 2.75732E-01-5.23162E-04 1.06643E-01-9.24133E-15-6.43551E-14
 -1      4190 2.01303E+01 2.92311E-01 1.06223E-03 5.76882E-02 1.05142E-14-1.00330E-13
 -1      4191 1.53518E+01 9.57386E-01-2.92294E-02 1.11766E+00-2.43581E-13-2.71485E-13
 -1      4192 1.49413E+01 1.17948E+00 1.07048E-02 2.46594E-01-9.72182E-14-2.08300E-13
 -1      4193 1.54685E+01 1.16909E+00-1.84602E-03 5.14735E-02-8.19648E-14-1.72078E-13
 -1      4194 1.91717E+01 7.34603E-01-3.76473E-03 4.74812E-01-6.29526E-14-1.29838E-13
 -1      4195 1.90835E+01 7.64827E-01 9.92959E-04 5.42921E-01 1.32413E-14 7.98011E-14
 -1      4196 1.89022E+01 8.55689E-01 7.35451E-03 4.86484E-01-1.64097E-14-1.00785E-13
 -1      4197 1.87060E+01 7.33876E-01 3.09738E-03-8.64414E-01-7.21947E-14 1.91034E-13
 -1      4198 1.88088E+01 7.31082E-01-7.21527E-03-7.60995E-01-7.08574E-14 1.40326E-13
 -1      4199 1.84239E+01 8.54466E-01 1.52694E-02-7.96909E-01-6.64499E-14 1.23270E-13
 -1      4200 1.80495E+01 5.59944E-01-8.57881E-03 1.43178E+00-9.08824E-14 2.67282E-13
 -1      4201 1.79648E+01 4.02011E-01-1.24441E-03 1.66993E+00-1.12773E-13 1.97907E-13
 -1      4202 2.03380E+01 3.82619E-01-1.53402E-03-7.92543E-02-3.60677E-14-4.72378E-15
 -1      4203 2.03646E+01 4.58837E-01 6.04664E-04-4.68945E-02-3.19686E-14-4.98250E-14
 -1      4204 1.71217E+01 2.06938E-01-2.40683E-02 2.09216E+00-3.23991E-13-8.09405E-14
 -1      4205 1.61164E+01 8.02846E-01 3.51839E-02 1.55825E+00-4.04700E-13-1.66739E-14
 -1      4206 1.62780E+01 8.69737E-01-6.91839E-03 1.26388E+00-2.86503E-13-1.89251E-13
 -1      4207 1.76362E+01 3.19166E-01-1.73771E-02 1.83765E+00-2.43991E-13 6.17358E-14
 -1      4208 1.86678E+01 7.88831E-01-7.83701E-03 8.16830E-01 3.76303E-14 2.41071E-14
 -1      4209 1.85756E+01 7.72463E-01 4.58454E-03 9.38346E-01 2.00824E-14-2.38919E-14
 -1      4210 1.86002E+01 8.92590E-01 6.40936E-03 6.52065E-01 6.26602E-14-1.63818E-13
 -1      4211 1.60558E+01 1.21449E+00-2.66935E-03 3.96633E-02-1.04613E-13-2.57978E-13
 -1      4212 2.03905E+01 7.83011E-01 3.08966E-03-1.40572E-02-3.55054E-14-8.89390E-14
 -1      4213 1.83751E+01 7.21110E-01-8.03007E-03 1.07957E+00 3.53775E-14 1.96029E-13
 -1      4214 1.82815E+01 6.52591E-01 3.76433E-03 1.24100E+00 4.83671E-14 2.51344E-13
 -1      4215 1.78539E+01 7.74334E-01 9.18666E-03 1.20522E+00 3.91020E-14 4.37298E-13
 -1      4216 2.03612E+01 4.45513E-01-7.22542E-05 3.91488E-02 3.83923E-15-7.48566E-14
 -1      4217 2.03342E+01 3.76634E-01-4.29510E-04 6.11490E-02 5.96018E-15-7.68406E-14
 -1      4218 2.03217E+01 3.69596E-01 6.27261E-04 3.50120E-02 6.94764E-16-1.16660E-13
 -1      4219 1.68187E+01 7.84665E-01 1.06300E-02-1.39539E+00 1.88972E-14 7.37575E-14
 -1      4220 1.79053E+01 5.31115E-01 8.59321E-03-1.49204E+00 3.50870E-14 1.04956E-13
 -1      4221 2.03858E+01 7.62378E-01 2.50648E-03 3.20940E-02 1.13343E-14-4.98697E-14
 -1      4222 1.79878E+01 6.38311E-01-7.52261E-03-1.29211E+00 2.06741E-15 1.56483E-13
 -1      4223 1.73235E+01 1.18721E+00 2.22064E-02-2.33800E-01-3.46473E-14 6.35585E-14
 -1      4224 1.70993E+01 1.19480E+00-6.90831E-03 6.72331E-02-4.74241E-15-3.92764E-14
 -1      4225 1.66992E+01 1.19540E+00-1.07274E-02 5.34911E-02 1.51425E-14-5.39200E-14
 -1      4226 2.03787E+01 6.08637E-01-1.66109E-03-1.48392E-02-1.04119E-15-5.66476E-14
 -1      4227 1.63421E+01 1.23645E+00 3.00554E-02 4.76469E-01-1.30638E-13-4.13879E-13
 -1      4228 2.03801E+01 5.85819E-01 1.51728E-04-1.55311E-02-1.90251E-14-6.42381E-14
 -1      4229 1.91470E+01 8.08059E-01-3.39312E-03-7.88999E-02 1.91979E-13 2.60089E-13
 -1      4230 1.91513E+01 8.15756E-01 4.71271E-03 3.55485E-02 5.92741E-14 2.61396E-13
 -1      4231 1.90561E+01 8.59432E-01-5.67389E-04-1.10030E-01 1.28150E-13 1.29743E-13
 -1      4232 2.03096E+01 3.28035E-01 2.39080E-05-9.37557E-02-1.93658E-14 9.57166E-15
 -1      4233 2.03322E+01 3.80656E-01 5.69359E-04-6.02069E-02-4.45580E-14-3.88894E-14
 -1      4234 2.02731E+01 2.90097E-01-1.81924E-04-1.18643E-01 1.74264E-14 1.74188E-14
 -1      4235 1.88423E+01 9.51570E-01-3.83726E-04-1.65017E-01-2.03476E-13 6.22347E-14
 -1      4236 1.89506E+01 8.98562E-01-3.62670E-03-1.25059E-01-6.95157E-14 1.36279E-13
 -1      4237 1.89479E+01 9.06185E-01 5.59437E-03 1.29862E-02-1.20404E-13 6.66773E-13
 -1      4238 1.87358E+01 9.89635E-01 7.36689E-03-7.65913E-03-2.48185E-13 4.81759E-13
 -1      4239 1.89804E+01 7.25329E-01 2.51761E-03-6.66623E-01-4.93540E-14 9.30135E-14
 -1      4240 1.90745E+01 6.98249E-01-5.68242E-03-5.87354E-01-3.50874E-14 1.06370E-13
 -1      4241 1.87640E+01 8.26935E-01 1.02846E-02-5.97701E-01-6.40620E-14 9.53515E-14
 -1      4242 1.94315E+01 6.45838E-01 2.89740E-04 2.29747E-01-1.73018E-13-3.44912E-14
 -1      4243 1.94504E+01 6.25818E-01-1.87367E-03 3.04289E-01-1.73730E-13-1.81595E-13
 -1      4244 1.94007E+01 6.56287E-01 6.71426E-04 3.44756E-01-1.65759E-13-2.79350E-13
 -1      4245 1.93691E+01 6.86182E-01-5.02699E-04 1.29780E-01-1.07881E-13 4.99026E-14
 -1      4246 2.03849E+01 5.69529E-01 2.00739E-03 1.56559E-02-3.37807E-14-7.23888E-14
 -1      4247 2.03736E+01 5.00575E-01-1.57736E-04 3.28753E-02-1.27171E-14-7.66952E-14
 -1      4248 2.03660E+01 4.72438E-01-9.11541E-04 1.90485E-02-7.91175E-15-4.14369E-14
 -1      4249 1.78356E+01 8.50500E-01 1.62925E-02-1.03864E+00-2.59395E-15 6.73636E-14
 -1      4250 1.98024E+01 3.97609E-01 1.60230E-04-2.73346E-01 4.28444E-14 6.28650E-14
 -1      4251 1.98709E+01 3.56881E-01-1.34805E-03-2.44500E-01 5.84109E-15 3.37328E-14
 -1      4252 2.02393E+01 3.00730E-01 1.00806E-03 4.83652E-02-3.73118E-14-1.17397E-13
 -1      4253 1.93672E+01 6.03223E-01 3.80444E-03-5.93237E-01-8.31475E-15 1.44900E-13
 -1      4254 2.00359E+01 2.53799E-01 4.44205E-04-3.05393E-01 2.27804E-14 8.12956E-14
 -1      4255 2.00784E+01 2.34517E-01-7.74388E-04-2.77930E-01 2.05870E-14 5.77875E-14
 -1      4256 1.99922E+01 2.92162E-01 7.42237E-04-2.71539E-01-1.47877E-14 9.35630E-14
 -1      4257 2.01706E+01 2.21342E-01-3.72452E-04-2.30038E-01 5.46416E-14 5.17767E-14
 -1      4258 2.02018E+01 2.49703E-01 4.75117E-04-1.83866E-01 2.98355E-14 5.80538E-14
 -1      4259 2.01318E+01 2.23601E-01 1.86650E-04-2.56613E-01 2.85182E-14 7.03226E-14
 -1      4260 1.66443E+01 9.92457E-01-1.21506E-02-8.76530E-01 3.50709E-14 5.33551E-14
 -1      4261 1.92610E+01 7.13988E-01 7.45949E-04 4.25284E-01-1.10102E-13-1.70454E-13
 -1      4262 1.91248E+01 7.93292E-01 6.48592E-03 3.67323E-01-1.48682E-13-3.54812E-14
 -1      4263 1.93153E+01 6.87688E-01-2.15795E-03 3.78692E-01-1.02819E-13-2.47912E-13
 -1      4264 1.72753E+01 7.07769E-01 2.02405E-02 1.53789E+00-3.43252E-13 3.01817E-13
 -1      4265 1.82555E+01 8.73289E-01 6.27184E-03 8.77714E-01 1.41665E-13 1.50491E-13
 -1      4266 1.96301E+01 4.86136E-01-1.31976E-03-3.36283E-01-2.11522E-14 8.28366E-14
 -1      4267 1.97105E+01 4.41005E-01-2.15296E-03-2.98586E-01 7.42675E-15 7.50561E-14
 -1      4268 1.97300E+01 4.45182E-01 5.01504E-04-2.12507E-01 1.02131E-14 1.40657E-14
 -1      4269 1.98812E+01 3.75643E-01-7.31010E-04-5.94736E-03-2.94728E-14-2.65794E-14
 -1      4270 1.97922E+01 4.19795E-01-1.58564E-03-5.23223E-03-3.11408E-14-4.71335E-15
 -1      4271 1.96833E+01 4.75420E-01-9.59082E-04-8.18274E-02-4.49646E-15 2.52192E-14
 -1      4272 1.95792E+01 5.30058E-01-1.82813E-03-8.96119E-02-3.26567E-15 6.66703E-14
 -1      4273 1.92309E+01 7.04644E-01-3.77998E-03-7.10472E-02-8.24462E-14 9.74946E-14
 -1      4274 1.90756E+01 7.70644E-01-5.29424E-03-8.22320E-02-8.86502E-14 7.15418E-14
 -1      4275 1.89229E+01 8.14658E-01-2.39627E-03-2.37008E-01-5.66192E-14 9.33902E-14
 -1      4276 1.87281E+01 8.64047E-01-9.34981E-03-2.70678E-01-4.90687E-14 5.07552E-14
 -1      4277 1.85559E+01 9.00024E-01-7.73566E-03-3.45310E-01-3.85157E-14 8.58828E-14
 -1      4278 1.83195E+01 9.41751E-01-1.37646E-02-3.93285E-01-2.62722E-14 5.71757E-14
 -1      4279 1.81221E+01 9.52397E-01-1.04054E-02-4.99881E-01-1.45501E-14 3.15156E-15
 -1      4280 1.78390E+01 9.80576E-01-1.42124E-02-5.71411E-01-2.31967E-14 6.06612E-14
 -1      4281 1.78161E+01 1.11119E+00-7.57407E-03 3.18574E-01 3.39228E-14-1.96809E-13
 -1      4282 1.80815E+01 1.09372E+00-2.24486E-03 2.63199E-01 2.08653E-13 2.28257E-15
 -1      4283 1.84201E+01 9.97569E-01-7.48793E-03 3.16208E-01 6.91527E-14 2.22630E-15
 -1      4284 1.86401E+01 9.56468E-01-2.82472E-03 2.71360E-01-6.56173E-14 1.84031E-13
 -1      4285 2.02638E+01 3.05619E-01-8.06165E-04 4.01411E-03-2.25895E-14-9.60061E-14
 -1      4286 2.02147E+01 2.87300E-01-6.77206E-04 8.35097E-03-3.39307E-14-7.06441E-14
 -1      4287 1.98957E+01 3.60855E-01 9.61940E-04-1.73367E-01 1.14117E-14 1.44466E-14
 -1      4288 1.99488E+01 3.21668E-01 7.41972E-05-2.25889E-01-1.32235E-14 7.71208E-14
 -1      4289 2.00089E+01 2.92637E-01-9.56660E-04-2.02515E-01-2.66668E-15 8.86929E-14
 -1      4290 1.92097E+01 6.84296E-01 8.94813E-04-4.33005E-01-5.64974E-14 9.63559E-14
 -1      4291 1.93092E+01 6.37359E-01-3.60838E-03-3.77927E-01-6.71666E-14 5.37771E-14
 -1      4292 2.01608E+01 2.83260E-01-3.82267E-04 3.34116E-03 1.63517E-14-9.55841E-14
 -1      4293 2.00994E+01 2.91162E-01-7.51074E-04 6.60809E-03 5.84576E-14-6.62268E-14
 -1      4294 2.01894E+01 2.88750E-01 8.23941E-04-4.14962E-02-3.56681E-15-3.29583E-14
 -1      4295 1.76510E+01 9.45421E-01-1.09094E-02 8.75327E-01 9.92700E-14 1.85034E-14
 -1      4296 1.74049E+01 8.85108E-01-5.27231E-03 1.05730E+00-1.11877E-13-1.36434E-13
 -1      4297 2.03876E+01 6.47501E-01-1.36229E-03-7.51528E-05 2.45738E-16-3.92957E-14
 -1      4298 2.03863E+01 6.55091E-01-2.38211E-03-2.89432E-03-1.12959E-14-5.15746E-14
 -1      4299 2.03296E+01 3.71765E-01-8.73070E-04-1.92902E-02-2.56086E-14-5.43815E-14
 -1      4300 2.02941E+01 3.25986E-01 1.30134E-04-1.53237E-02-2.04134E-14-6.13767E-14
 -1      4301 1.65354E+01 1.17393E+00 1.65202E-02-4.14147E-01 1.10811E-14 7.28194E-14
 -1      4302 1.70726E+01 1.16813E+00 4.50752E-03 4.84508E-01-8.99275E-14-5.49580E-13
 -1      4303 1.74517E+01 1.13856E+00-2.68991E-03 3.83815E-01-1.63071E-13-4.99490E-13
 -1      4304 1.67894E+01 9.75000E-01-4.14031E-03 9.21026E-01-2.11568E-13-2.64069E-13
 -1      4305 1.94333E+01 5.82485E-01-2.16854E-03-3.80155E-01-5.21213E-14 4.90242E-14
 -1      4306 1.95267E+01 5.38085E-01-2.52557E-03-3.33640E-01-2.48425E-14 5.31833E-14
 -1      4307 1.95439E+01 5.55745E-01 4.76934E-03-2.32351E-01 1.18870E-14 1.09400E-13
 -1      4308 1.93204E+01 6.71560E-01 5.67633E-03-2.16002E-01-6.72676E-14 8.76325E-14
 -1      4309 1.87853E+01 9.18002E-01-4.92583E-03 2.13065E-01-1.21488E-13 2.08945E-13
 -1      4310 2.00335E+01 3.10417E-01-4.38597E-04 4.78077E-04 5.20347E-14-5.03120E-14
 -1      4311 1.99601E+01 3.38622E-01-8.61270E-04 2.09200E-03 1.81945E-14-2.48501E-14
 -1      4312 1.99255E+01 3.56930E-01 8.60507E-04-7.10103E-02 1.45825E-15 1.51797E-14
 -1      4313 2.00696E+01 3.02390E-01 8.66172E-04-5.43932E-02 4.76037E-14-2.63539E-14
 -1      4314 1.82178E+01 9.60387E-01-5.55190E-03 6.31584E-01 2.45379E-13 1.46721E-13
 -1      4315 1.80350E+01 9.52738E-01-1.47390E-04 7.52045E-01 3.01987E-13 2.26744E-13
 -1      4316 2.03864E+01 6.41719E-01-1.22854E-03 3.62405E-03-1.81699E-14-7.87829E-14
 -1      4317 2.03825E+01 6.43623E-01-1.31920E-03-3.82056E-04-4.44819E-14-7.55043E-14
 -1      4318 1.74000E+01 1.01892E+00-8.61517E-03-6.57258E-01 7.40396E-15-5.77012E-16
 -1      4319 2.03883E+01 5.45692E-01 2.99259E-03 1.78245E-03-1.24644E-14-2.53646E-14
 -1      4320 1.94762E+01 5.82904E-01-2.93824E-03-7.74972E-02-3.25580E-14 5.77330E-14
 -1      4321 1.90508E+01 7.66211E-01 4.88383E-03-3.56004E-01-7.01288E-14 7.11580E-14
 -1      4322 1.93566E+01 6.46283E-01-2.00672E-03-8.79773E-02-2.51756E-14 1.02401E-13
 -1      4323 1.98326E+01 3.95320E-01 5.86800E-04-1.35740E-01 2.70278E-14 4.31390E-15
 -1      4324 1.99068E+01 3.54597E-01-1.14055E-03-1.19939E-01-5.82108E-16 9.80206E-15
 -1      4325 2.02713E+01 3.07688E-01-2.47111E-04-5.72793E-02-4.04102E-14-3.69189E-14
 -1      4326 2.03711E+01 4.88770E-01 2.55725E-04 4.44561E-03-9.94466E-15-2.17970E-14
 -1      4327 2.02230E+01 2.62439E-01-6.33082E-04-1.39800E-01 4.16900E-14 4.59284E-14
 -1      4328 2.02511E+01 2.93442E-01 4.96095E-04-9.60257E-02 8.44748E-15 4.00656E-14
 -1      4329 2.02221E+01 2.81118E-01 3.36058E-04-7.63079E-02-4.65814E-15 1.74511E-14
 -1      4330 2.01786E+01 2.54641E-01 1.98356E-05-1.61284E-01 3.10515E-14 6.39838E-14
 -1      4331 1.82447E+01 1.02260E+00-2.67839E-03 3.94423E-01 1.58740E-13 9.31340E-14
 -1      4332 1.77079E+01 1.07502E+00 7.61573E-03 5.97021E-01 1.10683E-13-2.31647E-13
 -1      4333 2.03747E+01 4.94691E-01 2.97517E-05-2.43170E-02-1.95881E-14-5.08319E-14
 -1      4334 2.03605E+01 4.37040E-01 7.27686E-04-7.51035E-03-3.03399E-14-3.18371E-14
 -1      4335 1.92904E+01 7.21479E-01 3.50087E-03 2.89216E-01-1.48072E-13 1.12979E-14
 -1      4336 1.92978E+01 7.20051E-01-1.39552E-03 1.57197E-01-1.44710E-13 1.75376E-14
 -1      4337 2.01047E+01 2.52521E-01 5.26325E-04-2.26323E-01 3.83903E-14 4.58961E-14
 -1      4338 1.70740E+01 1.00538E+00-1.38980E-02-7.58995E-01 9.46010E-15 5.59623E-14
 -1      4339 1.71181E+01 9.80480E-01-1.00436E-02 8.47865E-01-1.44378E-13-2.98193E-13
 -1      4340 1.90972E+01 8.06242E-01-4.05344E-03 1.77047E-01-1.81512E-13 2.83817E-13
 -1      4341 1.92075E+01 7.58118E-01-2.75181E-03 1.84603E-01-2.25243E-13-1.50146E-14
 -1      4342 1.90051E+01 8.41105E-01-3.20091E-03 2.19608E-01-9.29406E-14 2.52797E-13
 -1      4343 1.89026E+01 8.76597E-01-4.95903E-03 2.15949E-01-2.31642E-13 2.56254E-13
 -1      4344 2.00729E+01 2.71319E-01 6.59060E-05-1.92014E-01 5.52797E-15 4.33014E-14
 -1      4345 2.01252E+01 2.58333E-01-7.10995E-04-1.71071E-01 2.96302E-15 3.73066E-14
 -1      4346 2.01489E+01 2.73356E-01 6.75047E-04-1.26896E-01 2.66755E-14 7.18278E-14
 -1      4347 2.00339E+01 3.00806E-01 7.77146E-04-1.46258E-01-7.41201E-15 6.79166E-14
 -1      4348 1.97433E+01 4.45437E-01 1.47582E-03-1.55309E-01-4.69988E-16 2.25767E-14
 -1      4349 2.01666E+01 2.74265E-01-8.12674E-04-8.30083E-02 3.61415E-14 3.04121E-14
 -1      4350 1.99861E+01 3.22380E-01 3.77828E-04-1.08524E-01-2.44861E-14 1.16232E-14
 -1      4351 2.00477E+01 2.96975E-01-8.82145E-04-9.97998E-02 8.24754E-15 6.01465E-15
 -1      4352 2.01143E+01 2.81182E-01 1.00300E-04-9.19234E-02 3.00530E-14 4.56251E-14
 -3
    1PSTEP                         3           1           1          
  100CL  101 1.000000000        4352                     0    1           1
 -4  TOSTRAIN    6    1
 -5  EXX         1    4    1    1
 -5  EYY         1    4    2    2
 -5  EZZ         1    4    3    3
 -5  EXY         1    4    1    2
 -5  EYZ         1    4    2    3
 -5  EZX         1    4    3    1
 -1         1 1.70200E-04-1.48697E-05-5.91741E-05 1.14148E-04-4.48779E-18-8.10992E-18
 -1         2 3.58895E-05-1.09971E-04 1.99300E-05-2.56200E-07 5.62247E-18 4.41013E-19
 -1         3 9.52203E-05-2.85888E-05-2.85260E-05-1.01305E-08-1.82187E-18-1.69932E-18
 -1         4 9.52193E-05-2.85895E-05-2.85230E-05 9.95493E-09 4.22100E-19 7.39871E-19
 -1         5 1.43136E-04-2.14475E-05-4.24666E-05 3.84913E-05-7.24743E-20 6.10255E-18
 -1         6 1.45200E-04 2.57131E-10-4.41240E-05-5.34681E-05-2.76133E-19 6.30320E-18
 -1         7 9.04997E-05-5.09439E-07-3.90228E-05-2.92365E-05-4.52104E-20 1.99971E-18
 -1         8 8.50692E-05 8.59059E-08-3.63144E-05-2.02672E-05-6.68097E-20 4.41749E-19
 -1         9 8.28006E-05 7.56433E-08-3.53439E-05-1.56357E-05-6.79082E-20-4.94841E-19
 -1        10 8.17946E-05 3.81690E-08-3.48898E-05-1.20725E-05-5.33035E-20-9.86659E-19
 -1        11 8.13006E-05 1.81885E-08-3.46725E-05-9.00443E-06-3.00994E-20-1.30918E-18
 -1        12 8.10476E-05 8.26980E-09-3.45654E-05-6.27481E-06-1.65370E-20-1.47471E-18
 -1        13 8.09166E-05 3.77940E-09-3.45123E-05-3.67849E-06-2.47219E-20-1.50187E-18
 -1        14 8.08624E-05 1.94264E-09-3.44909E-05-1.18077E-06-3.13584E-21-1.56455E-18
 -1        15 8.08642E-05 1.93445E-09-3.44916E-05 1.28685E-06 1.88624E-20-1.54323E-18
 -1        16 8.09223E-05 3.69282E-09-3.45142E-05 3.78951E-06 1.26600E-20-1.48528E-18
 -1        17 8.10581E-05 7.51320E-09-3.45685E-05 6.39786E-06 3.17141E-20-1.35321E-18
 -1        18 8.13158E-05 1.72222E-08-3.46766E-05 9.14674E-06 2.77370E-20-1.12609E-18
 -1        19 8.18174E-05 3.72343E-08-3.48975E-05 1.22508E-05 5.27940E-20-8.66334E-19
 -1        20 8.28224E-05 8.06688E-08-3.53565E-05 1.58659E-05 7.62330E-20-3.95199E-19
 -1        21 8.50337E-05 1.69006E-07-3.63527E-05 2.04772E-05 8.49945E-20 5.09224E-19
 -1        22 9.15362E-05-9.82982E-08-3.86946E-05 2.79837E-05 2.13876E-20 2.24938E-18
 -1        23 1.12781E-04-3.80613E-05-3.53394E-05-4.40072E-06-1.47966E-19 5.37305E-18
 -1        24 9.26289E-05-2.76447E-05-2.89457E-05 3.89924E-07-2.96098E-20 4.44921E-18
 -1        25 8.89481E-05-2.68011E-05-2.68777E-05 3.74324E-07-1.63418E-20 3.49285E-18
 -1        26 8.78521E-05-2.64399E-05-2.63427E-05 2.02200E-07 1.02066E-20 2.77819E-18
 -1        27 8.78949E-05-2.64235E-05-2.63400E-05 1.37727E-07-3.93448E-21 2.37405E-18
 -1        28 8.84616E-05-2.65701E-05-2.65197E-05 9.84374E-08-1.38354E-20 2.47297E-18
 -1        29 8.92754E-05-2.68010E-05-2.67705E-05 7.25518E-08-7.21649E-20 2.15340E-18
 -1        30 9.01982E-05-2.70708E-05-2.70506E-05 5.42524E-08 2.08414E-19 1.96172E-18
 -1        31 9.11628E-05-2.73565E-05-2.73423E-05 4.08269E-08-1.11918E-19 1.45677E-18
 -1        32 9.21454E-05-2.76496E-05-2.76394E-05 3.10163E-08-4.36947E-20 8.82506E-19
 -1        33 9.31529E-05-2.79514E-05-2.79443E-05 2.42737E-08 1.80435E-19 9.29716E-19
 -1        34 9.42154E-05-2.82706E-05-2.82663E-05 2.04607E-08-1.03556E-19 5.41123E-19
 -1        35 9.53830E-05-2.86220E-05-2.86206E-05 1.97454E-08 1.24165E-19-1.04283E-20
 -1        36 9.67237E-05-2.90256E-05-2.90277E-05 2.25937E-08 8.63465E-20 3.16855E-19
 -1        37 9.83213E-05-2.95065E-05-2.95128E-05 2.98008E-08-2.95470E-19 4.36717E-19
 -1        38 1.00274E-04-3.00933E-05-3.01054E-05 4.25177E-08-8.06298E-20-4.00736E-19
 -1        39 1.02686E-04-3.08171E-05-3.08366E-05 6.21871E-08 1.49784E-19-8.64996E-19
 -1        40 1.05656E-04-3.17065E-05-3.17345E-05 9.02019E-08 8.74863E-20-5.81839E-20
 -1        41 1.09247E-04-3.27793E-05-3.28148E-05 1.26897E-07 1.21714E-19-1.28079E-18
 -1        42 1.13428E-04-3.40257E-05-3.40617E-05 1.69163E-07 1.25230E-19-1.80209E-18
 -1        43 1.17982E-04-3.53811E-05-3.53984E-05 2.05725E-07-1.12251E-19-9.06219E-19
 -1        44 1.22365E-04-3.66853E-05-3.66468E-05 2.09764E-07-3.58176E-19-4.07132E-19
 -1        45 1.25562E-04-3.76400E-05-3.74942E-05 1.32722E-07 6.30427E-20-9.41176E-19
 -1        46 1.26066E-04-3.78001E-05-3.75098E-05-8.70539E-08 6.08011E-20-3.40401E-19
 -1        47 1.22241E-04-3.66747E-05-3.62838E-05-4.78660E-07 4.16055E-19 1.51452E-18
 -1        48 1.13361E-04-3.40278E-05-3.37310E-05-9.33315E-07 1.77854E-19 3.90975E-18
 -1        49 1.01093E-04-3.03369E-05-3.04137E-05-1.15203E-06 2.47784E-19 2.80071E-18
 -1        50 9.00458E-05-2.69856E-05-2.75566E-05-8.14489E-07-3.27815E-19 3.37940E-19
 -1        51 8.57269E-05-2.56693E-05-2.64664E-05 2.77756E-08 3.44653E-19 1.06785E-18
 -1        52 9.05593E-05-2.71416E-05-2.76879E-05 8.51721E-07-3.01749E-19 3.50963E-19
 -1        53 1.01843E-04-3.05637E-05-3.06110E-05 1.15297E-06-2.23967E-19-2.42791E-18
 -1        54 1.14012E-04-3.42227E-05-3.39126E-05 9.08146E-07 4.33869E-19-3.60391E-18
 -1        55 1.22602E-04-3.67811E-05-3.63940E-05 4.50477E-07-5.67906E-19-3.82446E-18
 -1        56 1.26135E-04-3.78197E-05-3.75386E-05 6.87937E-08 7.02081E-19-5.49393E-18
 -1        57 1.25430E-04-3.76004E-05-3.74629E-05-1.41342E-07 1.40058E-20-4.43380E-18
 -1        58 1.22139E-04-3.66183E-05-3.65848E-05-2.11661E-07 3.67365E-19-3.48443E-18
 -1        59 1.17747E-04-3.53119E-05-3.53312E-05-2.04387E-07 3.93025E-19-2.31812E-18
 -1        60 1.13243E-04-3.39717E-05-3.40080E-05-1.66744E-07-5.87732E-19-2.99789E-18
 -1        61 1.09151E-04-3.27519E-05-3.27872E-05-1.24284E-07 5.16630E-19-3.39815E-18
 -1        62 1.05680E-04-3.17150E-05-3.17428E-05-8.75569E-08-4.93049E-19-3.07678E-18
 -1        63 1.02860E-04-3.08706E-05-3.08901E-05-5.92941E-08 4.62097E-19-1.52036E-18
 -1        64 1.00633E-04-3.02025E-05-3.02151E-05-3.89439E-08-3.56039E-19 6.37060E-19
 -1        65 9.89117E-05-2.96852E-05-2.96927E-05-2.49324E-08-2.14052E-19-1.19394E-18
 -1        66 9.76050E-05-2.92918E-05-2.92961E-05-1.55720E-08 2.58434E-19 1.84479E-18
 -1        67 9.66332E-05-2.89988E-05-2.90015E-05-9.27565E-09-1.52291E-19 4.05422E-18
 -1        68 9.59351E-05-2.87878E-05-2.87908E-05-4.41116E-09 4.87598E-19 3.71039E-18
 -1        69 9.54711E-05-2.86468E-05-2.86521E-05 1.07002E-09 1.20513E-19 1.47720E-20
 -1        70 9.52227E-05-2.85700E-05-2.85770E-05 1.11912E-08 4.03647E-19 6.80249E-19
 -1        71 9.51787E-05-2.85536E-05-2.85505E-05 2.36124E-08 1.53353E-19 1.71997E-18
 -1        72 1.01999E-04-3.05325E-05-3.40939E-05-1.92395E-06 1.03391E-19 5.55167E-18
 -1        73 9.23867E-05-2.74612E-05-2.88545E-05-3.31890E-07-2.20361E-20 4.39359E-18
 -1        74 8.89376E-05-2.66511E-05-2.69216E-05-1.24390E-07 1.29785E-19 3.41770E-18
 -1        75 8.78856E-05-2.63917E-05-2.63879E-05-9.34739E-08 1.78009E-20 2.53788E-18
 -1        76 8.79350E-05-2.64048E-05-2.63685E-05-7.37783E-08-9.89846E-20 2.16627E-18
 -1        77 8.85030E-05-2.65663E-05-2.65394E-05-5.89494E-08-4.35258E-20 1.99793E-18
 -1        78 8.93169E-05-2.68046E-05-2.67864E-05-4.73476E-08-5.04743E-20 2.03126E-18
 -1        79 9.02393E-05-2.70782E-05-2.70647E-05-3.76334E-08 1.84430E-19 1.40380E-18
 -1        80 9.12026E-05-2.73656E-05-2.73551E-05-2.92461E-08-3.10360E-19 1.02411E-18
 -1        81 9.21813E-05-2.76584E-05-2.76506E-05-2.20575E-08 1.78696E-19 8.40147E-19
 -1        82 9.31781E-05-2.79570E-05-2.79522E-05-1.61683E-08-5.47407E-20 4.53750E-19
 -1        83 9.42160E-05-2.82681E-05-2.82666E-05-1.18243E-08 5.00976E-20 1.13599E-18
 -1        84 9.53317E-05-2.86024E-05-2.86048E-05-9.40999E-09 2.68947E-21 1.02364E-18
 -1        85 9.65707E-05-2.89736E-05-2.89803E-05-9.46641E-09 3.24907E-20 4.01861E-19
 -1        86 9.79808E-05-2.93957E-05-2.94070E-05-1.27005E-08-1.97151E-20-5.48470E-20
 -1        87 9.96033E-05-2.98808E-05-2.98965E-05-1.99441E-08 2.38782E-20 1.33166E-19
 -1        88 1.01460E-04-3.04354E-05-3.04543E-05-3.19935E-08 2.17008E-20-2.32686E-19
 -1        89 1.03534E-04-3.10542E-05-3.10734E-05-4.92089E-08 2.03540E-19-1.42772E-18
 -1        90 1.05742E-04-3.17129E-05-3.17263E-05-7.06996E-08-1.45976E-19-1.42268E-18
 -1        91 1.07903E-04-3.23581E-05-3.23552E-05-9.29331E-08-1.88880E-19-7.52258E-19
 -1        92 1.09704E-04-3.28978E-05-3.28639E-05-1.07839E-07-3.40381E-20 6.36668E-19
 -1        93 1.10687E-04-3.31974E-05-3.31159E-05-1.01298E-07 7.83216E-20 2.68777E-18
 -1        94 1.10292E-04-3.30909E-05-3.29524E-05-5.44927E-08 2.73732E-19 1.67440E-18
 -1        95 1.08000E-04-3.24215E-05-3.22388E-05 4.78671E-08-7.07686E-20 2.25781E-18
 -1        96 1.03605E-04-3.11202E-05-3.09427E-05 2.00583E-07 2.58038E-19 2.53183E-18
 -1        97 9.75475E-05-2.93069E-05-2.92173E-05 3.59897E-07 2.26891E-19 2.15123E-18
 -1        98 9.11075E-05-2.73557E-05-2.74323E-05 4.45713E-07-3.29510E-19 3.67612E-18
 -1        99 8.61622E-05-2.58352E-05-2.60909E-05 3.84274E-07-2.95239E-19 5.00819E-18
 -1       100 8.44294E-05-2.52818E-05-2.56308E-05 1.72085E-07 9.73244E-20 4.19206E-18
 -1       101 8.65610E-05-2.59118E-05-2.62122E-05-1.01881E-07-4.34196E-19 2.89312E-18
 -1       102 9.17627E-05-2.74889E-05-2.76324E-05-3.15033E-07 2.64715E-19 1.68676E-18
 -1       103 9.82547E-05-2.94644E-05-2.94330E-05-3.94812E-07-3.78455E-19 1.09802E-18
 -1       104 1.04190E-04-3.12669E-05-3.11206E-05-3.50401E-07 4.80819E-20 2.38284E-18
 -1       105 1.08375E-04-3.25316E-05-3.23515E-05-2.40473E-07 3.44517E-19 3.37607E-18
 -1       106 1.10456E-04-3.31549E-05-3.29997E-05-1.23073E-07-6.35517E-19 2.10199E-18
 -1       107 1.10693E-04-3.32204E-05-3.31148E-05-3.10472E-08 1.64991E-19-1.57689E-19
 -1       108 1.09623E-04-3.28937E-05-3.28370E-05 2.69275E-08 5.00612E-19-3.47019E-18
 -1       109 1.07804E-04-3.23440E-05-3.23239E-05 5.57827E-08-3.11377E-19-4.66143E-18
 -1       110 1.05683E-04-3.17056E-05-3.17084E-05 6.46974E-08-5.89411E-19-3.98641E-18
 -1       111 1.03564E-04-3.10691E-05-3.10835E-05 6.21067E-08 2.97817E-19-4.98814E-18
 -1       112 1.01623E-04-3.04868E-05-3.05054E-05 5.40887E-08-9.51523E-19-9.93831E-19
 -1       113 9.99438E-05-2.99834E-05-3.00019E-05 4.44307E-08 4.18110E-19 1.93937E-18
 -1       114 9.85493E-05-2.95654E-05-2.95819E-05 3.52222E-08-3.33787E-19-1.68897E-18
 -1       115 9.74292E-05-2.92298E-05-2.92436E-05 2.74290E-08 2.11412E-19-3.27221E-18
 -1       116 9.65586E-05-2.89688E-05-2.89805E-05 2.12547E-08 5.19572E-20-5.26576E-18
 -1       117 9.59116E-05-2.87745E-05-2.87857E-05 1.62905E-08 2.69958E-19-7.29367E-18
 -1       118 9.54703E-05-2.86414E-05-2.86539E-05 1.13245E-08 6.85180E-19-9.29968E-18
 -1       119 9.52298E-05-2.85679E-05-2.85809E-05 1.97995E-09-5.34554E-19-7.53998E-18
 -1       120 9.51848E-05-2.85512E-05-2.85540E-05-1.72899E-08 8.07989E-19-3.02969E-18
 -1       121 9.52505E-05-2.86164E-05-2.85557E-05-2.42848E-08-1.91504E-18 1.76674E-18
 -1       122 9.52339E-05-2.85628E-05-2.85853E-05-3.54213E-09-2.14165E-18-1.52684E-18
 -1       123 9.51613E-05-2.83200E-05-2.86564E-05 1.02737E-08-3.70075E-18 5.22321E-19
 -1       124 9.50493E-05-2.79453E-05-2.87634E-05 1.71464E-08-8.02036E-18-4.27860E-20
 -1       125 9.49213E-05-2.75153E-05-2.88872E-05 1.85841E-08-7.67499E-18 1.82908E-19
 -1       126 9.48022E-05-2.71138E-05-2.90035E-05 1.63604E-08-4.47698E-18 1.45001E-19
 -1       127 9.47076E-05-2.67951E-05-2.90961E-05 1.11685E-08-1.45618E-18 1.26702E-18
 -1       128 9.46551E-05-2.66180E-05-2.91476E-05 4.10301E-09-4.93818E-18 1.96131E-19
 -1       129 9.46531E-05-2.66114E-05-2.91494E-05-3.74089E-09-1.84281E-18-3.59291E-20
 -1       130 9.47027E-05-2.67783E-05-2.91007E-05-1.11610E-08-1.22429E-19 1.30771E-19
 -1       131 9.47965E-05-2.70943E-05-2.90089E-05-1.70467E-08-2.95697E-18-1.49577E-18
 -1       132 9.49175E-05-2.75017E-05-2.88910E-05-1.95672E-08-3.94121E-18 1.21328E-18
 -1       133 9.50489E-05-2.79432E-05-2.87643E-05-1.80375E-08 3.67385E-19 1.97539E-19
 -1       134 9.51636E-05-2.83295E-05-2.86545E-05-1.20671E-08 3.35828E-18 1.21968E-20
 -1       135 9.52378E-05-2.85720E-05-2.85823E-05 5.92005E-09 1.36525E-19-1.28721E-18
 -1       136 9.52444E-05-2.86172E-05-2.85522E-05 4.19547E-08-2.10680E-18 2.38100E-20
 -1       137 2.58445E-05-8.65090E-05 1.52767E-05-2.21433E-05 7.62012E-18 2.08733E-18
 -1       138 8.17522E-06-3.51271E-05 3.61150E-06-1.84445E-05 8.97262E-18 4.15893E-18
 -1       139 1.00640E-05 1.35675E-05-1.39227E-05 2.08741E-05 7.79567E-18 4.69764E-18
 -1       140 5.25461E-05 2.87252E-05-3.38032E-05 7.47821E-05 7.39248E-18 9.10942E-18
 -1       141 1.32271E-04 3.04481E-06-5.23383E-05 1.10015E-04 4.87722E-18 7.53139E-18
 -1       142 2.28927E-04-4.74166E-05-6.81146E-05 1.01746E-04 1.79910E-18 2.89558E-18
 -1       143 2.95275E-04-8.77120E-05-7.69868E-05 4.44196E-05-3.11629E-19-2.29440E-19
 -1       144 2.98402E-04-8.94916E-05-7.74146E-05-3.76765E-05 5.43504E-19-1.88137E-18
 -1       145 2.29971E-04-4.80908E-05-6.81951E-05-1.01195E-04 1.31121E-18-3.60074E-18
 -1       146 1.29478E-04 4.54703E-06-5.19072E-05-1.10205E-04 2.99405E-18-4.71543E-18
 -1       147 4.72603E-05 2.88751E-05-3.20498E-05-7.03359E-05 6.81057E-18-6.22654E-18
 -1       148 6.86432E-06 6.50674E-06-1.03341E-05-1.16420E-05 7.32387E-18-5.54129E-18
 -1       149 1.14820E-05-4.58857E-05 6.13597E-06 2.06446E-05 4.46979E-18-1.99815E-18
 -1       150 2.95429E-05-9.59798E-05 1.72749E-05 1.95083E-05 3.75617E-18-2.11871E-19
 -1       151 3.62584E-05-1.10171E-04 1.97919E-05-7.33134E-06 2.13447E-18-3.80119E-19
 -1       152 2.17060E-05-7.89618E-05 1.38952E-05-2.71047E-05-3.47008E-18-9.20301E-19
 -1       153 6.10467E-06-2.26535E-05-3.80878E-07-1.23538E-05-3.68078E-18-2.24697E-18
 -1       154 1.82368E-05 1.82926E-05-1.86759E-05 3.28714E-05-6.86817E-18-6.42644E-18
 -1       155 7.65082E-05 2.17411E-05-3.98933E-05 8.81376E-05-6.42390E-18-8.09467E-18
 -1       156 2.61452E-04-6.51054E-05-7.28785E-05 9.01144E-05-1.22550E-18-3.34663E-18
 -1       157 3.12451E-04-9.61808E-05-7.94815E-05 2.40858E-05 1.49819E-19 2.59605E-18
 -1       158 2.99799E-04-8.83314E-05-7.78936E-05-5.28273E-05-2.11640E-18 1.10555E-17
 -1       159 2.28778E-04-4.60144E-05-6.83753E-05-1.05331E-04-4.33226E-18 1.47511E-17
 -1       160 1.27088E-04 4.93354E-06-5.13501E-05-1.08312E-04-8.50336E-18 1.40997E-17
 -1       161 4.55105E-05 2.73436E-05-3.12541E-05-6.71099E-05-7.48311E-18 8.79728E-18
 -1       162 8.41841E-06 8.58155E-06-1.19683E-05-1.44374E-05-5.18215E-18 3.69645E-18
 -1       163 9.04363E-06-4.00335E-05 4.73839E-06 2.12231E-05-5.69503E-18 1.64070E-18
 -1       164 2.71375E-05-9.13406E-05 1.63962E-05 2.35384E-05 2.79521E-19-3.08849E-19
 -1       165 9.47807E-05-1.23328E-05-3.55375E-05-2.23333E-05-6.94011E-19 1.07338E-18
 -1       166 8.92169E-05-8.45553E-06-3.47737E-05-1.73739E-05-7.92717E-19 5.41042E-20
 -1       167 8.65451E-05-6.49892E-06-3.44175E-05-1.35706E-05-6.72081E-19-5.73719E-19
 -1       168 8.52305E-05-5.51779E-06-3.42466E-05-1.03482E-05-5.18148E-19-9.44826E-19
 -1       169 8.45002E-05-4.93933E-06-3.41666E-05-7.52808E-06-3.88054E-19-1.17008E-18
 -1       170 8.40846E-05-4.59127E-06-3.41300E-05-4.88927E-06-2.95217E-19-1.26954E-18
 -1       171 8.38720E-05-4.40398E-06-3.41156E-05-2.38695E-06-1.06417E-19-1.25991E-18
 -1       172 8.38089E-05-4.34692E-06-3.41120E-05 5.16130E-08 1.78034E-20-1.27400E-18
 -1       173 8.38811E-05-4.41206E-06-3.41161E-05 2.49210E-06 1.34319E-19-1.24576E-18
 -1       174 8.41052E-05-4.61017E-06-3.41310E-05 5.00050E-06 2.23847E-19-1.16634E-18
 -1       175 8.45272E-05-4.96725E-06-3.41665E-05 7.60569E-06 4.10381E-19-9.52978E-19
 -1       176 8.52849E-05-5.57338E-06-3.42467E-05 1.04936E-05 6.22318E-19-7.07881E-19
 -1       177 8.66528E-05-6.60883E-06-3.44205E-05 1.37653E-05 7.44208E-19-4.10798E-19
 -1       178 8.93577E-05-8.59692E-06-3.47784E-05 1.76063E-05 8.33421E-19 1.98828E-19
 -1       179 9.56905E-05-1.35982E-05-3.53937E-05 2.18768E-05 8.14502E-19 1.20525E-18
 -1       180 1.05463E-04-2.60620E-05-3.52181E-05 1.86500E-05 6.17553E-19 2.62527E-18
 -1       181 1.03268E-04-2.72644E-05-3.25710E-05-1.21171E-05-6.11161E-19 2.14056E-18
 -1       182 9.69910E-05-2.82547E-05-2.94936E-05-4.72326E-06-5.97820E-19 1.74049E-18
 -1       183 9.34036E-05-2.76041E-05-2.81516E-05-1.75732E-06-4.43607E-19 1.45417E-18
 -1       184 9.18898E-05-2.73776E-05-2.76124E-05-3.98386E-07-3.17631E-19 1.11003E-18
 -1       185 9.13494E-05-2.73110E-05-2.74263E-05 2.84702E-07-1.06538E-19 1.06816E-18
 -1       186 9.13641E-05-2.73639E-05-2.74195E-05 6.39657E-07-2.55050E-19 8.83930E-19
 -1       187 9.16950E-05-2.74887E-05-2.75122E-05 8.21462E-07-1.65690E-19 7.95622E-19
 -1       188 9.22095E-05-2.76548E-05-2.76635E-05 9.13764E-07-2.15149E-19 6.28162E-19
 -1       189 9.28372E-05-2.78454E-05-2.78516E-05 9.68094E-07-2.12984E-19 9.12279E-19
 -1       190 9.35472E-05-2.80536E-05-2.80669E-05 1.01987E-06-1.54467E-19 9.76505E-19
 -1       191 9.43364E-05-2.82798E-05-2.83080E-05 1.09572E-06-3.77239E-19-6.29824E-20
 -1       192 9.52222E-05-2.85300E-05-2.85800E-05 1.21727E-06-2.64558E-19-3.30755E-19
 -1       193 9.62383E-05-2.88147E-05-2.88927E-05 1.40307E-06-2.79161E-20-6.16746E-19
 -1       194 9.74314E-05-2.91485E-05-2.92603E-05 1.66921E-06-2.79852E-20-6.37984E-19
 -1       195 9.88577E-05-2.95491E-05-2.96992E-05 2.02825E-06-4.97816E-19-2.86082E-19
 -1       196 1.00579E-04-3.00372E-05-3.02271E-05 2.48584E-06-1.57598E-19-1.87143E-19
 -1       197 1.02652E-04-3.06354E-05-3.08597E-05 3.03311E-06 1.37098E-19-2.57798E-19
 -1       198 1.05119E-04-3.13662E-05-3.16053E-05 3.63264E-06 5.64385E-20-6.64181E-20
 -1       199 1.07980E-04-3.22485E-05-3.24564E-05 4.19505E-06-7.85657E-19-1.25567E-19
 -1       200 1.11155E-04-3.32895E-05-3.33766E-05 4.54559E-06 4.42495E-19-3.74367E-19
 -1       201 1.14437E-04-3.44679E-05-3.42845E-05 4.38936E-06 4.13532E-19 1.38935E-19
 -1       202 1.17422E-04-3.56988E-05-3.50418E-05 3.30820E-06-2.69765E-19 5.04570E-19
 -1       203 1.19469E-04-3.67680E-05-3.54615E-05 8.69819E-07 7.13830E-19 1.37724E-18
 -1       204 1.19744E-04-3.72630E-05-3.53609E-05-3.04428E-06 1.00230E-18 2.58356E-18
 -1       205 1.17460E-04-3.65659E-05-3.46696E-05-7.66059E-06 1.00348E-18 2.24300E-18
 -1       206 1.12527E-04-3.42418E-05-3.35512E-05-1.08502E-05-1.24171E-18 1.08472E-18
 -1       207 1.06385E-04-3.08131E-05-3.24038E-05-9.91166E-06-1.00155E-18 2.49623E-19
 -1       208 1.02041E-04-2.81702E-05-3.16973E-05-3.90555E-06 2.17383E-19-2.95320E-19
 -1       209 1.02189E-04-2.82620E-05-3.17208E-05 4.36802E-06-3.92097E-19-8.71044E-19
 -1       210 1.06732E-04-3.10173E-05-3.24632E-05 1.01180E-05-1.21326E-18-8.75223E-19
 -1       211 1.12879E-04-3.44256E-05-3.36232E-05 1.07506E-05-5.96685E-19-8.36247E-20
 -1       212 1.17673E-04-3.66495E-05-3.47267E-05 7.39367E-06-8.75544E-19-1.32617E-18
 -1       213 1.19794E-04-3.72578E-05-3.53858E-05 2.78293E-06-4.80744E-19-1.37784E-18
 -1       214 1.19399E-04-3.67174E-05-3.54541E-05-1.04814E-06 6.40502E-19-1.73113E-18
 -1       215 1.17286E-04-3.56315E-05-3.50125E-05-3.38953E-06 9.33597E-19-1.61694E-18
 -1       216 1.14289E-04-3.44050E-05-3.42476E-05-4.39132E-06 5.39260E-19-2.15361E-19
 -1       217 1.11036E-04-3.32415E-05-3.33453E-05-4.49193E-06-9.69570E-19-2.34328E-18
 -1       218 1.07919E-04-3.22219E-05-3.24414E-05-4.10227E-06-4.80277E-19-1.66775E-18
 -1       219 1.05143E-04-3.13659E-05-3.16153E-05-3.50823E-06 8.10484E-19-1.57685E-18
 -1       220 1.02785E-04-3.06669E-05-3.09027E-05-2.87709E-06-1.12925E-19-1.14442E-18
 -1       221 1.00847E-04-3.01070E-05-3.03115E-05-2.29270E-06 4.99041E-19-2.70906E-18
 -1       222 9.92924E-05-2.96657E-05-2.98348E-05-1.78835E-06 9.06618E-19-9.90549E-19
 -1       223 9.80711E-05-2.93225E-05-2.94591E-05-1.36952E-06 1.70187E-18 1.98141E-18
 -1       224 9.71301E-05-2.90591E-05-2.91693E-05-1.02738E-06 6.06116E-19 2.61172E-18
 -1       225 9.64217E-05-2.88601E-05-2.89516E-05-7.46134E-07-3.98007E-19 2.07983E-18
 -1       226 9.59070E-05-2.87134E-05-2.87947E-05-5.07018E-07-1.15641E-18 3.35750E-19
 -1       227 9.55555E-05-2.86105E-05-2.86887E-05-2.92705E-07-1.07151E-19 6.16512E-19
 -1       228 9.53351E-05-2.85473E-05-2.86219E-05-9.72032E-08 3.34374E-19 2.57736E-19
 -1       229 9.93694E-05-2.85154E-05-3.05474E-05 7.20485E-06 5.21905E-19 2.24098E-18
 -1       230 9.42965E-05-2.77542E-05-2.84886E-05 2.73647E-06 6.23780E-19 1.71442E-18
 -1       231 9.19927E-05-2.73683E-05-2.76510E-05 9.16527E-07 3.26541E-19 1.30141E-18
 -1       232 9.10705E-05-2.72123E-05-2.73406E-05 4.28943E-08 2.43659E-19 1.03034E-18
 -1       233 9.09019E-05-2.72163E-05-2.72800E-05-4.03959E-07 1.29950E-21 8.94480E-19
 -1       234 9.11537E-05-2.73204E-05-2.73500E-05-6.33297E-07 1.00986E-19 7.02429E-19
 -1       235 9.16410E-05-2.74815E-05-2.74928E-05-7.47290E-07 2.16207E-19 7.94834E-19
 -1       236 9.22628E-05-2.76745E-05-2.76781E-05-8.03388E-07 1.09826E-19 8.01010E-19
 -1       237 9.29676E-05-2.78865E-05-2.78901E-05-8.37696E-07 3.31708E-19 2.16584E-19
 -1       238 9.37361E-05-2.81135E-05-2.81226E-05-8.74669E-07 1.42748E-19 4.87470E-19
 -1       239 9.45710E-05-2.83573E-05-2.83761E-05-9.31373E-07-5.50298E-20 3.07076E-19
 -1       240 9.54892E-05-2.86242E-05-2.86554E-05-1.01928E-06 4.01224E-19 2.86436E-19
 -1       241 9.65165E-05-2.89229E-05-2.89678E-05-1.14453E-06 1.73866E-19-5.59392E-19
 -1       242 9.76814E-05-2.92637E-05-2.93212E-05-1.30691E-06-9.90646E-20-1.44531E-19
 -1       243 9.90079E-05-2.96558E-05-2.97221E-05-1.49748E-06-2.57543E-19 3.54000E-19
 -1       244 1.00506E-04-3.01057E-05-3.01719E-05-1.69465E-06 9.00552E-20 2.57388E-19
 -1       245 1.02157E-04-3.06129E-05-3.06632E-05-1.85896E-06 4.78315E-19 4.24738E-19
 -1       246 1.03901E-04-3.11654E-05-3.11746E-05-1.92731E-06 1.79619E-19-2.01331E-19
 -1       247 1.05611E-04-3.17327E-05-3.16651E-05-1.80957E-06-5.19459E-19-4.08352E-19
 -1       248 1.07081E-04-3.22577E-05-3.20701E-05-1.39359E-06-9.11269E-19 1.24596E-19
 -1       249 1.08020E-04-3.26493E-05-3.23031E-05-5.69244E-07-5.68056E-19 5.56416E-19
 -1       250 1.08078E-04-3.27802E-05-3.22682E-05 7.15502E-07 4.73963E-19 7.94908E-19
 -1       251 1.06927E-04-3.25032E-05-3.18895E-05 2.36319E-06-1.40194E-19-3.12357E-19
 -1       252 1.04420E-04-3.17032E-05-3.11558E-05 4.03099E-06-2.05645E-19 2.89215E-20
 -1       253 1.00787E-04-3.03936E-05-3.01637E-05 5.11978E-06-1.68926E-19 2.32187E-18
 -1       254 9.67762E-05-2.88204E-05-2.91284E-05 4.96456E-06-1.07673E-18 3.52201E-18
 -1       255 9.35527E-05-2.74732E-05-2.83341E-05 3.24098E-06-1.94513E-19 3.84640E-18
 -1       256 9.22531E-05-2.68939E-05-2.80278E-05 3.40333E-07 2.80298E-19 3.38446E-18
 -1       257 9.33850E-05-2.73478E-05-2.83109E-05-2.68742E-06 5.16693E-19 2.86105E-18
 -1       258 9.65136E-05-2.86318E-05-2.90893E-05-4.72076E-06 7.75316E-19 1.33465E-18
 -1       259 1.00529E-04-3.02227E-05-3.01195E-05-5.20603E-06-9.69981E-20 1.65716E-18
 -1       260 1.04237E-04-3.15983E-05-3.11188E-05-4.33692E-06-1.68349E-19 1.55256E-18
 -1       261 1.06851E-04-3.24718E-05-3.18695E-05-2.74437E-06 4.09261E-19 1.40569E-18
 -1       262 1.08107E-04-3.28067E-05-3.22706E-05-1.06380E-06 1.93109E-19 1.52037E-18
 -1       263 1.08139E-04-3.27125E-05-3.23295E-05 3.04777E-07 1.33621E-18 3.87542E-20
 -1       264 1.07274E-04-3.23413E-05-3.21193E-05 1.21770E-06 1.37753E-18-1.09778E-18
 -1       265 1.05866E-04-3.18279E-05-3.17355E-05 1.70159E-06-3.66243E-19-2.13598E-18
 -1       266 1.04216E-04-3.12705E-05-3.12659E-05 1.85800E-06-1.45388E-20-2.83576E-18
 -1       267 1.02541E-04-3.07309E-05-3.07776E-05 1.79982E-06-4.54508E-19-1.71303E-18
 -1       268 1.00977E-04-3.02435E-05-3.03146E-05 1.62124E-06-1.83051E-18-1.98140E-19
 -1       269 9.95946E-05-2.98233E-05-2.99014E-05 1.38955E-06-1.83884E-19-2.35565E-18
 -1       270 9.84232E-05-2.94734E-05-2.95487E-05 1.14720E-06 4.69622E-19-1.53596E-19
 -1       271 9.74631E-05-2.91901E-05-2.92584E-05 9.17241E-07 1.73285E-18-1.43795E-18
 -1       272 9.67010E-05-2.89667E-05-2.90275E-05 7.08639E-07 1.72376E-18-3.23207E-18
 -1       273 9.61188E-05-2.87959E-05-2.88514E-05 5.20657E-07 1.03256E-18-3.94258E-18
 -1       274 9.56988E-05-2.86711E-05-2.87255E-05 3.46876E-07 4.43262E-19-4.31116E-18
 -1       275 9.54251E-05-2.85873E-05-2.86440E-05 1.79018E-07-1.51851E-18-3.14083E-18
 -1       276 9.52797E-05-2.85548E-05-2.85940E-05 2.77158E-08-8.54162E-19-1.21317E-18
 -1       277 9.52592E-05-2.84729E-05-2.86215E-05 1.10345E-07-1.57158E-18 5.46888E-19
 -1       278 9.51961E-05-2.82801E-05-2.86779E-05 2.73196E-07-2.54870E-19-1.72628E-19
 -1       279 9.50929E-05-2.80036E-05-2.87524E-05 3.95517E-07-5.48535E-19-2.00773E-18
 -1       280 9.49739E-05-2.76811E-05-2.88399E-05 4.44974E-07-1.11104E-18 9.30361E-19
 -1       281 9.48584E-05-2.73638E-05-2.89268E-05 4.19596E-07-1.99368E-18 1.52257E-18
 -1       282 9.47586E-05-2.70878E-05-2.90028E-05 3.26512E-07-2.80554E-18 3.54567E-20
 -1       283 9.46909E-05-2.69002E-05-2.90545E-05 1.81773E-07-2.64509E-18-1.17263E-19
 -1       284 9.46650E-05-2.68293E-05-2.90740E-05 7.75494E-09-3.09773E-19 2.21592E-18
 -1       285 9.46851E-05-2.68865E-05-2.90580E-05-1.69351E-07-6.90733E-19 3.81317E-19
 -1       286 9.47492E-05-2.70648E-05-2.90087E-05-3.22058E-07-1.72919E-18-1.27126E-18
 -1       287 9.48465E-05-2.73331E-05-2.89349E-05-4.23308E-07-1.26358E-18-8.47254E-19
 -1       288 9.49669E-05-2.76604E-05-2.88458E-05-4.56112E-07-6.58187E-19 2.43375E-18
 -1       289 9.50905E-05-2.79919E-05-2.87564E-05-4.06371E-07 3.45682E-20 2.41957E-18
 -1       290 9.51965E-05-2.82727E-05-2.86805E-05-2.79094E-07 4.34319E-19-1.81437E-18
 -1       291 9.52838E-05-2.84237E-05-2.86532E-05-2.06734E-07 4.18785E-19-1.83551E-18
 -1       292 1.18547E-05-4.38543E-05 1.08640E-05 9.50551E-06 2.12536E-18 1.38755E-18
 -1       293 2.54054E-05-4.26461E-05 4.58867E-06 2.11216E-05 3.10819E-18 1.79507E-18
 -1       294 5.19049E-05-3.63443E-05-8.33820E-06 3.52985E-05 3.61852E-18 1.01824E-18
 -1       295 8.57013E-05-2.95195E-05-2.45133E-05 4.44965E-05 2.64740E-18 2.91655E-18
 -1       296 1.27127E-04-2.84913E-05-4.12803E-05 4.80602E-05 2.56122E-18 1.59136E-18
 -1       297 1.67164E-04-3.14211E-05-5.60467E-05 3.89956E-05 2.19532E-18 1.49438E-18
 -1       298 1.95821E-04-3.33106E-05-6.66714E-05 2.26508E-05 1.85341E-18 1.58649E-18
 -1       299 2.06966E-04-3.41870E-05-7.07566E-05 1.04673E-06 1.32529E-18 1.13657E-18
 -1       300 1.94148E-04-3.20421E-05-6.66919E-05-1.98763E-05 1.18892E-18 1.28008E-19
 -1       301 1.67612E-04-3.09201E-05-5.62576E-05-4.22120E-05 1.33993E-18-1.02300E-18
 -1       302 1.24990E-04-2.85903E-05-4.03910E-05-4.80880E-05 2.02557E-18-1.00628E-18
 -1       303 8.48344E-05-3.41037E-05-2.22840E-05-4.33121E-05 1.63414E-18-8.75726E-19
 -1       304 4.47445E-05-3.66256E-05-5.45252E-06-3.19882E-05 2.47312E-18-2.73364E-18
 -1       305 2.26178E-05-4.08203E-05 5.53109E-06-2.27884E-05 2.00450E-18-1.06948E-18
 -1       306 1.14848E-05-4.90973E-05 1.26117E-05-4.72920E-06 1.69020E-18-7.85094E-19
 -1       307 1.42283E-05-4.82516E-05 1.11178E-05 8.37156E-06 4.78044E-19-3.03788E-18
 -1       308 3.23761E-05-4.16168E-05 1.61397E-06 2.58079E-05-1.00373E-18-1.37431E-18
 -1       309 6.03843E-05-3.58050E-05-1.21088E-05 3.61861E-05-9.65194E-19-3.14016E-18
 -1       310 1.10486E-04-4.22306E-05-2.93800E-05 4.05183E-05-1.04926E-18-2.40833E-18
 -1       311 1.45284E-04-3.22817E-05-4.70239E-05 4.46800E-05-2.18132E-18-2.40621E-18
 -1       312 1.84628E-04-3.47731E-05-6.13528E-05 3.54081E-05-3.12200E-18-1.14371E-18
 -1       313 2.09944E-04-3.73980E-05-7.01602E-05 1.76001E-05-3.42985E-18 4.74868E-19
 -1       314 2.16202E-04-3.81536E-05-7.22969E-05-4.32535E-06-3.51190E-18 1.83502E-18
 -1       315 2.02217E-04-3.65817E-05-6.75057E-05-2.51062E-05-3.72229E-18 3.50841E-18
 -1       316 1.69299E-04-3.41867E-05-5.57791E-05-3.77204E-05-3.23702E-18 5.41254E-18
 -1       317 1.26208E-04-3.15256E-05-3.98266E-05-4.63315E-05-1.63541E-18 6.64582E-18
 -1       318 8.39980E-05-3.28805E-05-2.26650E-05-4.20877E-05-1.50518E-18 5.31365E-18
 -1       319 4.89329E-05-3.75090E-05-6.94549E-06-3.15197E-05-1.82769E-18 2.02785E-18
 -1       320 2.48568E-05-4.35134E-05 5.21677E-06-1.98558E-05 8.64397E-19 2.54798E-18
 -1       321 1.18198E-05-4.63838E-05 1.16927E-05-5.53241E-06 1.33556E-18 2.01054E-18
 -1       322 9.16396E-05-1.43899E-05-3.31699E-05-1.30358E-05-8.14827E-19-5.45476E-20
 -1       323 9.56426E-05-1.90857E-05-3.28731E-05-1.46106E-05-8.58617E-19 5.99805E-19
 -1       324 8.80395E-05-1.03569E-05-3.33477E-05-8.12983E-06-4.65023E-19-7.25275E-19
 -1       325 8.72426E-05-9.43281E-06-3.33954E-05-5.69105E-06-4.09620E-19-9.50507E-19
 -1       326 8.67872E-05-8.89443E-06-3.34275E-05-3.34778E-06-2.16003E-19-8.88134E-19
 -1       327 8.65835E-05-8.64987E-06-3.34435E-05-1.06542E-06-5.60797E-20-9.20430E-19
 -1       328 8.65915E-05-8.65913E-06-3.34430E-05 1.19720E-06 1.11058E-19-9.17046E-19
 -1       329 8.68129E-05-8.92410E-06-3.34259E-05 3.48140E-06 2.01527E-19-9.19497E-19
 -1       330 8.72793E-05-9.47515E-06-3.33932E-05 5.78703E-06 3.59595E-19-7.29259E-19
 -1       331 8.81075E-05-1.04350E-05-3.33435E-05 8.22125E-06 6.03415E-19-4.81853E-19
 -1       332 8.95022E-05-1.20243E-05-3.32714E-05 1.07305E-05 7.81355E-19-2.23458E-19
 -1       333 9.18897E-05-1.47140E-05-3.31563E-05 1.31399E-05 9.03184E-19 9.46956E-20
 -1       334 9.57452E-05-1.94409E-05-3.28094E-05 1.43544E-05 9.42346E-19 7.46534E-19
 -1       335 9.86972E-05-2.44176E-05-3.19221E-05 1.18837E-05 8.35148E-19 1.27461E-18
 -1       336 9.63075E-05-2.67849E-05-2.97658E-05 5.72331E-06 7.58902E-19 1.00038E-18
 -1       337 9.63797E-05-2.60058E-05-3.01157E-05-6.32392E-06-7.34596E-19 7.31438E-19
 -1       338 9.48783E-05-2.70030E-05-2.90639E-05-2.79178E-06-5.65014E-19 6.36666E-19
 -1       339 9.39311E-05-2.74008E-05-2.84980E-05-8.48139E-07-1.80421E-19 6.38401E-19
 -1       340 9.34552E-05-2.76153E-05-2.82100E-05 2.57615E-07-2.49064E-19 6.62474E-19
 -1       341 9.33267E-05-2.77721E-05-2.80915E-05 8.90133E-07-2.76563E-19 5.77683E-19
 -1       342 9.34359E-05-2.79091E-05-2.80813E-05 1.25441E-06-2.86749E-19 1.33830E-19
 -1       343 9.37060E-05-2.80369E-05-2.81429E-05 1.47591E-06-1.89523E-19-1.15396E-19
 -1       344 9.40901E-05-2.81591E-05-2.82553E-05 1.63775E-06-2.60087E-19-3.55898E-19
 -1       345 9.45647E-05-2.82786E-05-2.84073E-05 1.79922E-06-4.97769E-19-5.38120E-19
 -1       346 9.51244E-05-2.83997E-05-2.85949E-05 2.00551E-06-4.31765E-19-3.01863E-19
 -1       347 9.57772E-05-2.85283E-05-2.88189E-05 2.29286E-06-4.27203E-19-5.07369E-19
 -1       348 9.65418E-05-2.86731E-05-2.90838E-05 2.69103E-06 2.16952E-19 2.18810E-20
 -1       349 9.74447E-05-2.88460E-05-2.93958E-05 3.22327E-06 1.57057E-19 1.40420E-19
 -1       350 9.85182E-05-2.90640E-05-2.97616E-05 3.90340E-06-1.49483E-19 2.73359E-19
 -1       351 9.97986E-05-2.93529E-05-3.01860E-05 4.72839E-06-1.00457E-19 3.74344E-19
 -1       352 1.01325E-04-2.97533E-05-3.06689E-05 5.66436E-06-4.97264E-20 5.88752E-19
 -1       353 1.03141E-04-3.03296E-05-3.12012E-05 6.62298E-06-2.78975E-19 5.20638E-19
 -1       354 1.05291E-04-3.11811E-05-3.17613E-05 7.42603E-06-2.98532E-19 6.48208E-19
 -1       355 1.07826E-04-3.24447E-05-3.23123E-05 7.76100E-06 1.28014E-19 1.54899E-19
 -1       356 1.10780E-04-3.42642E-05-3.28073E-05 7.14565E-06 5.65073E-19 5.15430E-19
 -1       357 1.14105E-04-3.66691E-05-3.32102E-05 4.95166E-06 1.32817E-18 1.71828E-18
 -1       358 1.17471E-04-3.92824E-05-3.35376E-05 6.31101E-07 7.98310E-19 2.28872E-18
 -1       359 1.20048E-04-4.10073E-05-3.39056E-05-5.76118E-06 8.66578E-19 1.86708E-18
 -1       360 1.20270E-04-3.97941E-05-3.45206E-05-1.25022E-05 1.57462E-19 1.12786E-18
 -1       361 1.17165E-04-3.44916E-05-3.54856E-05-1.56647E-05-1.34424E-18 2.10292E-18
 -1       362 1.12209E-04-2.72022E-05-3.65152E-05-1.11236E-05-1.35513E-18 1.20603E-18
 -1       363 1.09774E-04-2.37544E-05-3.69740E-05 3.77928E-07-1.05808E-18-3.64272E-19
 -1       364 1.12486E-04-2.75925E-05-3.64637E-05 1.16297E-05 9.15854E-21-7.38115E-19
 -1       365 1.17433E-04-3.49063E-05-3.54228E-05 1.56667E-05-2.19603E-19 4.50954E-19
 -1       366 1.20352E-04-3.99884E-05-3.44750E-05 1.21446E-05-1.06085E-18 8.77687E-19
 -1       367 1.19929E-04-4.09388E-05-3.38860E-05 5.34914E-06-1.22166E-18 1.20926E-18
 -1       368 1.17299E-04-3.91410E-05-3.35276E-05-9.30681E-07-3.37043E-19-7.17637E-20
 -1       369 1.13921E-04-3.65098E-05-3.32006E-05-5.11148E-06 1.41033E-18 3.93247E-19
 -1       370 1.10629E-04-3.41373E-05-3.27965E-05-7.17450E-06 1.16200E-18 5.13926E-19
 -1       371 1.07720E-04-3.23561E-05-3.23045E-05-7.69372E-06-8.84288E-19 4.40035E-19
 -1       372 1.05239E-04-3.11249E-05-3.17627E-05-7.28844E-06-3.30249E-19 1.41211E-18
 -1       373 1.03151E-04-3.02991E-05-3.12183E-05-6.42923E-06 6.26232E-19 1.42251E-18
 -1       374 1.01408E-04-2.97441E-05-3.07080E-05-5.41748E-06 3.58319E-19 6.42486E-19
 -1       375 9.99685E-05-2.93637E-05-3.02538E-05-4.42270E-06-3.87671E-20 1.49819E-18
 -1       376 9.87923E-05-2.90959E-05-2.98649E-05-3.52676E-06 1.45986E-18 2.23603E-18
 -1       377 9.78437E-05-2.89019E-05-2.95422E-05-2.75882E-06 2.84705E-18 1.59458E-18
 -1       378 9.70889E-05-2.87571E-05-2.92814E-05-2.11843E-06 2.41607E-18 2.19757E-18
 -1       379 9.64965E-05-2.86450E-05-2.90762E-05-1.58969E-06-6.35163E-19 1.91371E-18
 -1       380 9.60386E-05-2.85544E-05-2.89193E-05-1.14975E-06-2.94263E-18 2.35902E-18
 -1       381 9.56914E-05-2.84790E-05-2.88028E-05-7.74938E-07-1.27666E-18 2.55733E-19
 -1       382 9.54596E-05-2.84400E-05-2.87211E-05-4.69233E-07-7.74113E-19-7.02291E-20
 -1       383 9.43051E-05-2.73152E-05-2.86717E-05 2.43939E-06 4.71592E-19 9.88519E-19
 -1       384 9.31258E-05-2.74382E-05-2.81298E-05 6.93535E-07 3.69192E-19 7.56885E-19
 -1       385 9.26133E-05-2.75217E-05-2.78861E-05-2.60988E-07-1.37415E-20 5.28862E-19
 -1       386 9.25343E-05-2.76248E-05-2.78137E-05-7.86237E-07 5.64133E-20 3.61807E-19
 -1       387 9.27294E-05-2.77511E-05-2.78456E-05-1.07430E-06 1.32292E-19 2.95578E-19
 -1       388 9.30977E-05-2.78937E-05-2.79433E-05-1.23571E-06 1.09608E-19 3.63322E-19
 -1       389 9.35807E-05-2.80471E-05-2.80849E-05-1.33977E-06 4.14066E-19 4.22364E-19
 -1       390 9.41488E-05-2.82096E-05-2.82588E-05-1.43296E-06-5.37894E-20 6.71214E-19
 -1       391 9.47933E-05-2.83837E-05-2.84602E-05-1.54729E-06 3.51468E-19 4.47243E-19
 -1       392 9.55196E-05-2.85751E-05-2.86891E-05-1.70410E-06 6.54852E-19-4.17640E-19
 -1       393 9.63421E-05-2.87923E-05-2.89482E-05-1.91505E-06 7.91666E-19-1.79087E-20
 -1       394 9.72797E-05-2.90467E-05-2.92408E-05-2.18098E-06-3.50292E-19 5.63267E-20
 -1       395 9.83507E-05-2.93514E-05-2.95693E-05-2.48860E-06-3.87708E-19 8.08379E-20
 -1       396 9.95663E-05-2.97211E-05-2.99323E-05-2.80509E-06-5.35475E-21-2.36056E-20
 -1       397 1.00923E-04-3.01703E-05-3.03225E-05-3.07083E-06 6.06864E-19-1.30405E-19
 -1       398 1.02394E-04-3.07103E-05-3.07232E-05-3.19169E-06 6.86801E-19-4.50570E-19
 -1       399 1.03913E-04-3.13422E-05-3.11061E-05-3.03460E-06-3.52162E-19-8.26624E-19
 -1       400 1.05363E-04-3.20438E-05-3.14306E-05-2.43475E-06-1.09819E-18-7.40515E-19
 -1       401 1.06564E-04-3.27468E-05-3.16472E-05-1.22826E-06-6.26818E-19-4.01726E-19
 -1       402 1.07262E-04-3.33069E-05-3.17081E-05 6.71543E-07 7.82414E-19-6.97061E-19
 -1       403 1.07153E-04-3.34866E-05-3.15838E-05 3.14602E-06 1.66098E-20-7.93820E-20
 -1       404 1.05974E-04-3.29947E-05-3.12845E-05 5.72549E-06-6.64219E-19 1.48954E-19
 -1       405 1.03678E-04-3.16429E-05-3.08726E-05 7.54210E-06-1.26810E-18 9.25082E-19
 -1       406 1.00673E-04-2.96019E-05-3.04522E-05 7.56691E-06-1.59701E-18 2.19241E-18
 -1       407 9.79108E-05-2.75671E-05-3.01346E-05 5.19843E-06-3.03903E-19 2.55992E-18
 -1       408 9.65493E-05-2.65090E-05-2.99993E-05 9.07403E-07-5.44847E-20 2.50715E-18
 -1       409 9.72494E-05-2.70185E-05-3.00802E-05-3.74259E-06 8.30767E-19 3.33715E-18
 -1       410 9.96721E-05-2.88049E-05-3.03571E-05-6.96581E-06 1.27692E-18 2.90398E-18
 -1       411 1.02748E-04-3.09626E-05-3.07586E-05-7.82348E-06 1.34488E-19 1.08744E-18
 -1       412 1.05377E-04-3.26239E-05-3.11835E-05-6.56487E-06 3.16355E-19 1.07848E-18
 -1       413 1.06953E-04-3.34235E-05-3.15241E-05-4.15149E-06 2.06779E-20 1.08804E-18
 -1       414 1.07398E-04-3.34521E-05-3.17061E-05-1.56506E-06 8.16839E-19 1.50312E-18
 -1       415 1.06938E-04-3.29927E-05-3.17048E-05 5.68986E-07 1.57917E-18 5.67954E-19
 -1       416 1.05883E-04-3.23158E-05-3.15392E-05 2.01556E-06 2.06244E-18 8.68333E-20
 -1       417 1.04513E-04-3.16021E-05-3.12541E-05 2.80145E-06-1.40124E-20-2.26348E-19
 -1       418 1.03039E-04-3.09456E-05-3.08999E-05 3.07267E-06 2.18148E-20-1.98166E-18
 -1       419 1.01599E-04-3.03828E-05-3.05215E-05 2.99829E-06-1.88419E-18-1.96987E-18
 -1       420 1.00278E-04-2.99194E-05-3.01521E-05 2.72337E-06-1.17232E-18-5.07615E-19
 -1       421 9.91169E-05-2.95471E-05-2.98132E-05 2.35434E-06-3.07601E-19-1.86274E-18
 -1       422 9.81307E-05-2.92529E-05-2.95163E-05 1.96052E-06 1.86475E-20-2.35039E-18
 -1       423 9.73165E-05-2.90229E-05-2.92659E-05 1.58138E-06 2.29521E-18-1.80686E-18
 -1       424 9.66616E-05-2.88439E-05-2.90621E-05 1.23438E-06 1.80737E-18-1.72702E-18
 -1       425 9.61493E-05-2.87050E-05-2.89023E-05 9.21844E-07 8.68035E-19 6.64567E-20
 -1       426 9.57619E-05-2.85980E-05-2.87826E-05 6.38061E-07 6.80952E-19 2.12186E-19
 -1       427 9.54825E-05-2.85197E-05-2.86969E-05 3.77066E-07-1.37680E-18 6.26228E-19
 -1       428 9.53528E-05-2.84814E-05-2.86582E-05 2.38463E-07-2.71424E-18 1.28063E-18
 -1       429 9.50545E-05-2.77926E-05-2.88261E-05 7.73373E-07 1.32929E-18-5.01835E-19
 -1       430 9.52260E-05-2.81023E-05-2.87662E-05 6.50357E-07-6.77328E-19-3.10846E-19
 -1       431 9.53155E-05-2.83171E-05-2.87122E-05 4.52628E-07-1.88212E-18 9.40044E-19
 -1       432 9.48799E-05-2.74831E-05-2.88846E-05 7.78373E-07 6.59856E-19-1.24756E-18
 -1       433 9.47203E-05-2.71998E-05-2.89381E-05 6.65830E-07 7.90544E-20 1.87229E-18
 -1       434 9.45984E-05-2.69830E-05-2.89792E-05 4.53096E-07-3.05341E-19-1.42933E-19
 -1       435 9.45291E-05-2.68603E-05-2.90024E-05 1.71643E-07-1.01728E-18 2.41060E-18
 -1       436 9.45220E-05-2.68486E-05-2.90044E-05-1.38017E-07-1.69482E-18 7.09756E-19
 -1       437 9.45795E-05-2.69512E-05-2.89849E-05-4.30647E-07-1.33817E-18-1.14215E-18
 -1       438 9.46938E-05-2.71522E-05-2.89473E-05-6.58048E-07-6.64669E-19-6.79325E-19
 -1       439 9.48556E-05-2.74338E-05-2.88954E-05-7.89951E-07 5.74688E-19 3.35182E-18
 -1       440 9.50429E-05-2.77579E-05-2.88360E-05-7.96371E-07 4.34243E-19 1.89325E-18
 -1       441 9.52292E-05-2.80858E-05-2.87747E-05-6.72950E-07-1.21009E-18 2.99649E-19
 -1       442 5.58345E-05-3.96097E-05-7.02600E-06 4.32172E-05 6.24581E-19-9.62494E-19
 -1       443 1.19092E-05-2.17678E-05 4.04171E-06 1.26432E-06 1.08441E-18 1.38448E-18
 -1       444 2.76282E-05-2.78605E-05 5.54599E-08 3.06388E-05 1.92276E-19 1.10008E-18
 -1       445 9.49209E-05-5.06808E-05-1.90286E-05 4.22648E-05 6.18016E-19-1.04254E-18
 -1       446 1.28123E-04-5.32044E-05-3.21146E-05 2.90641E-05-1.14143E-18-1.06123E-18
 -1       447 8.94452E-05-1.19180E-05-3.32884E-05-1.07275E-05-6.26454E-19-4.45811E-19
 -1       448 1.56115E-04-2.70245E-05-5.52009E-05 1.44335E-06 1.77633E-18-7.14049E-19
 -1       449 1.57117E-04-1.41899E-05-6.11301E-05-1.08579E-06 4.47975E-19 4.96150E-19
 -1       450 1.52470E-04-1.20319E-05-6.02993E-05 2.01264E-06 1.78735E-18 8.49151E-20
 -1       451 1.54915E-04-2.75485E-05-5.45960E-05-6.57599E-07 1.01776E-18-1.78724E-19
 -1       452 1.47617E-04-4.43809E-05-4.42506E-05-1.17702E-05 6.84427E-19 3.69412E-19
 -1       453 1.29814E-04-5.32429E-05-3.27109E-05-2.85938E-05 5.83288E-19 9.67735E-19
 -1       454 8.77184E-05-5.01389E-05-1.62103E-05-4.37874E-05-5.96523E-19 9.03996E-19
 -1       455 5.34456E-05-3.81650E-05-6.46914E-06-4.29428E-05 7.67624E-20-2.91221E-19
 -1       456 1.84998E-05-2.29921E-05 1.88180E-06-2.07689E-05 6.01288E-19-6.62168E-19
 -1       457 1.20648E-05-2.31615E-05 4.48167E-06 5.21909E-06 2.55751E-19-3.22031E-18
 -1       458 2.96562E-05-2.88757E-05-4.06804E-07 2.99548E-05 7.60741E-19-1.72731E-18
 -1       459 7.10873E-05-4.58585E-05-1.07953E-05 4.31989E-05 1.22555E-18-1.56638E-18
 -1       460 1.07155E-04-5.62531E-05-2.18051E-05 3.77427E-05 1.69714E-18-9.39121E-19
 -1       461 1.41806E-04-5.27420E-05-3.81492E-05 1.79668E-05-3.65230E-19 2.64698E-21
 -1       462 1.56539E-04-4.20843E-05-4.89623E-05 6.65875E-06-1.33901E-18 6.32416E-19
 -1       463 1.64096E-04-2.54769E-05-5.90796E-05-8.96326E-07-3.28755E-18 4.49774E-19
 -1       464 1.67154E-04-1.66255E-05-6.39333E-05-5.75638E-07-3.30893E-18 4.35348E-19
 -1       465 1.66900E-04-1.90010E-05-6.28336E-05 9.62134E-07-4.06015E-18 2.31505E-19
 -1       466 1.62363E-04-3.09379E-05-5.60357E-05-5.62761E-07-2.18535E-18 9.48995E-19
 -1       467 1.51071E-04-4.77833E-05-4.42159E-05-1.31968E-05-6.31940E-19 1.28770E-18
 -1       468 1.28926E-04-5.67196E-05-3.09899E-05-2.82328E-05 1.62461E-18 4.56043E-18
 -1       469 9.35130E-05-5.23927E-05-1.77450E-05-4.11785E-05 2.82062E-19 1.78848E-18
 -1       470 5.40883E-05-4.07833E-05-5.98107E-06-4.01125E-05 6.09017E-19 2.61453E-18
 -1       471 2.45635E-05-2.61865E-05 7.09491E-07-2.51152E-05 1.70301E-18 1.51153E-18
 -1       472 1.48034E-04-4.33033E-05-4.48098E-05 1.47529E-05 4.28546E-19-2.58451E-19
 -1       473 1.32363E-04-6.22274E-05-3.01163E-05 2.03677E-05 1.31020E-18-2.05194E-19
 -1       474 9.57890E-05-2.51251E-05-3.02703E-05 5.97344E-06 5.67873E-19 6.08393E-19
 -1       475 8.95786E-05-1.33441E-05-3.26908E-05-3.88586E-06-2.34923E-19-7.48983E-19
 -1       476 9.02856E-05-1.43230E-05-3.25756E-05-5.83016E-06-3.08687E-19-7.94385E-19
 -1       477 8.90791E-05-1.26500E-05-3.27731E-05 5.50955E-08-4.40852E-20-7.25067E-19
 -1       478 8.92142E-05-1.28368E-05-3.27511E-05 2.02569E-06 6.84005E-20-8.42594E-19
 -1       479 8.96087E-05-1.33838E-05-3.26869E-05 3.96147E-06 2.51305E-19-7.62196E-19
 -1       480 9.03296E-05-1.43840E-05-3.25692E-05 5.90335E-06 4.26411E-19-4.17616E-19
 -1       481 9.14701E-05-1.59780E-05-3.23768E-05 7.72839E-06 5.99553E-19-2.37659E-19
 -1       482 9.32375E-05-1.84583E-05-3.20683E-05 9.24845E-06 6.44410E-19 3.97675E-20
 -1       483 9.51003E-05-2.65489E-05-2.93612E-05 2.80323E-06 5.28271E-19 5.19689E-19
 -1       484 9.54694E-05-2.44080E-05-3.04450E-05-5.76413E-06-6.20342E-19 3.32182E-19
 -1       485 1.41809E-04-3.80314E-05-4.48965E-05-6.70192E-06 5.79768E-19-1.67374E-18
 -1       486 9.52773E-05-2.61854E-05-2.96025E-05-2.80649E-06-3.58129E-19 3.97712E-19
 -1       487 9.49463E-05-2.71098E-05-2.90687E-05-8.88945E-07-1.66518E-19 2.68915E-19
 -1       488 9.47056E-05-2.76230E-05-2.87479E-05 3.12104E-07-4.37953E-19 3.17173E-19
 -1       489 9.45991E-05-2.79265E-05-2.85732E-05 1.05748E-06-5.37451E-19-3.20633E-20
 -1       490 9.46130E-05-2.81096E-05-2.85010E-05 1.52770E-06-6.17050E-19-1.95063E-19
 -1       491 9.47225E-05-2.82158E-05-2.85025E-05 1.84917E-06-4.65960E-19-4.91767E-19
 -1       492 9.49068E-05-2.82682E-05-2.85591E-05 2.11322E-06-5.65799E-19-6.47391E-19
 -1       493 9.51530E-05-2.82803E-05-2.86592E-05 2.38826E-06-4.32573E-19-6.44404E-19
 -1       494 9.54554E-05-2.82618E-05-2.87965E-05 2.72748E-06-1.57421E-19 3.58874E-20
 -1       495 9.58143E-05-2.82207E-05-2.89677E-05 3.17321E-06 2.46448E-19 5.32890E-19
 -1       496 9.62354E-05-2.81666E-05-2.91710E-05 3.75883E-06 2.98123E-19-2.00821E-19
 -1       497 9.67292E-05-2.81143E-05-2.94046E-05 4.50803E-06-3.83725E-20-2.55572E-19
 -1       498 9.73132E-05-2.80899E-05-2.96650E-05 5.43099E-06 1.92537E-20 2.62741E-19
 -1       499 9.80172E-05-2.81415E-05-2.99444E-05 6.51611E-06-3.52399E-19 1.95867E-19
 -1       500 9.88959E-05-2.83555E-05-3.02294E-05 7.71579E-06-4.87409E-19-3.62115E-19
 -1       501 1.00050E-04-2.88810E-05-3.04998E-05 8.92347E-06-1.19598E-19 5.99639E-20
 -1       502 1.01660E-04-2.99539E-05-3.07321E-05 9.93906E-06-9.28245E-20 8.17168E-19
 -1       503 1.04018E-04-3.19018E-05-3.09114E-05 1.04203E-05 5.46966E-19 5.73324E-19
 -1       504 1.07517E-04-3.50668E-05-3.10586E-05 9.82589E-06 8.75906E-19 8.59044E-19
 -1       505 1.12523E-04-3.95368E-05-3.12897E-05 7.34036E-06 1.12839E-18 2.54438E-19
 -1       506 1.18823E-04-4.44332E-05-3.18890E-05 2.22211E-06 1.06037E-18 2.04988E-19
 -1       507 1.24902E-04-4.71484E-05-3.33677E-05-6.15097E-06 4.10033E-19 7.89306E-19
 -1       508 1.27266E-04-4.32456E-05-3.61338E-05-1.46524E-05-2.36345E-19 9.25139E-19
 -1       509 1.23683E-04-3.10085E-05-3.99897E-05-1.72819E-05-1.45919E-18 1.68548E-18
 -1       510 1.17424E-04-1.84785E-05-4.28383E-05-7.75449E-06-2.05519E-18 9.79418E-19
 -1       511 1.17833E-04-1.89321E-05-4.28142E-05 8.86149E-06-6.88982E-19 3.79598E-19
 -1       512 1.24183E-04-3.18796E-05-3.98203E-05 1.74968E-05-2.64499E-19 3.30217E-19
 -1       513 1.27239E-04-4.36350E-05-3.59413E-05 1.42429E-05-5.58817E-19-4.74305E-19
 -1       514 1.24542E-04-4.70763E-05-3.32396E-05 5.47597E-06-6.97877E-19-2.14637E-20
 -1       515 1.18404E-04-4.41350E-05-3.18463E-05-2.54550E-06-1.11651E-18 1.17800E-18
 -1       516 1.12173E-04-3.92102E-05-3.12813E-05-7.55346E-06 1.11815E-18 2.11067E-18
 -1       517 1.07284E-04-3.48167E-05-3.10652E-05-9.85279E-06 9.01317E-19 1.76784E-18
 -1       518 1.03877E-04-3.17285E-05-3.09244E-05-1.03349E-05 3.82294E-19 1.46414E-18
 -1       519 1.01592E-04-2.98399E-05-3.07512E-05-9.77141E-06-1.71429E-18 8.39327E-19
 -1       520 1.00038E-04-2.88038E-05-3.05274E-05-8.69078E-06-3.77771E-19-6.68018E-19
 -1       521 9.89314E-05-2.82969E-05-3.02696E-05-7.42231E-06 1.81120E-19-1.46442E-18
 -1       522 9.80996E-05-2.80892E-05-3.00020E-05-6.15650E-06 7.09348E-19-1.03674E-18
 -1       523 9.74462E-05-2.80365E-05-2.97448E-05-4.99315E-06 1.87648E-18 5.02876E-19
 -1       524 9.69192E-05-2.80552E-05-2.95111E-05-3.97524E-06 5.43720E-19 5.96253E-19
 -1       525 9.64888E-05-2.80991E-05-2.93082E-05-3.11162E-06 3.28784E-18-1.53272E-19
 -1       526 9.61361E-05-2.81433E-05-2.91384E-05-2.39187E-06 1.36401E-18 4.43096E-19
 -1       527 9.58455E-05-2.81735E-05-2.90011E-05-1.79481E-06-1.36482E-18-2.84487E-20
 -1       528 9.56064E-05-2.81862E-05-2.88932E-05-1.29699E-06-3.73326E-18 1.35575E-18
 -1       529 5.43394E-05-2.94171E-05-1.01213E-05 3.83217E-05 3.31190E-19 4.31299E-19
 -1       530 9.41975E-05-2.76419E-05-2.85200E-05-2.96828E-07 2.12429E-19 2.50621E-19
 -1       531 9.40803E-05-2.78818E-05-2.83692E-05-9.96632E-07 2.05460E-19 5.73735E-20
 -1       532 9.41328E-05-2.80461E-05-2.83221E-05-1.41879E-06 1.82937E-19-2.13533E-20
 -1       533 9.43103E-05-2.81670E-05-2.83467E-05-1.68806E-06-6.82729E-20 2.16985E-19
 -1       534 9.45813E-05-2.82610E-05-2.84226E-05-1.88952E-06 3.60222E-19 7.46488E-19
 -1       535 9.49281E-05-2.83395E-05-2.85375E-05-2.08246E-06 4.89301E-19 2.41059E-20
 -1       536 9.53448E-05-2.84132E-05-2.86843E-05-2.30790E-06 9.22055E-19-1.92981E-19
 -1       537 9.58347E-05-2.84947E-05-2.88591E-05-2.59197E-06 6.02758E-19-3.03066E-19
 -1       538 9.64083E-05-2.85997E-05-2.90598E-05-2.94633E-06-5.04323E-20-4.03365E-19
 -1       539 9.70816E-05-2.87496E-05-2.92839E-05-3.36598E-06-2.39553E-19-2.32689E-19
 -1       540 9.78750E-05-2.89736E-05-2.95281E-05-3.82443E-06-2.95950E-19 2.55601E-19
 -1       541 9.88120E-05-2.93103E-05-2.97858E-05-4.26655E-06 1.52022E-19-4.35823E-19
 -1       542 9.99178E-05-2.98086E-05-3.00470E-05-4.59957E-06 7.48556E-19 9.56217E-20
 -1       543 1.01216E-04-3.05231E-05-3.02986E-05-4.68452E-06 1.66745E-19 7.13880E-20
 -1       544 1.02715E-04-3.14982E-05-3.05257E-05-4.33348E-06-6.19180E-19 1.34396E-19
 -1       545 1.04392E-04-3.27322E-05-3.07178E-05-3.32356E-06-2.99410E-19-6.54603E-19
 -1       546 1.06136E-04-3.41108E-05-3.08769E-05-1.44650E-06-5.44675E-19-1.33065E-18
 -1       547 1.07691E-04-3.53184E-05-3.10271E-05 1.37547E-06 2.25593E-20 3.01105E-19
 -1       548 1.08609E-04-3.57906E-05-3.12160E-05 4.89233E-06-2.48112E-19 4.74695E-19
 -1       549 1.08332E-04-3.48353E-05-3.15009E-05 8.29559E-06-1.20839E-18 3.89848E-19
 -1       550 1.06556E-04-3.21036E-05-3.19064E-05 1.01746E-05-1.35832E-18 1.00408E-18
 -1       551 1.03742E-04-2.82173E-05-3.23648E-05 9.01968E-06-1.09695E-18-9.80540E-20
 -1       552 1.01345E-04-2.50252E-05-3.27052E-05 4.38897E-06 3.82750E-19-5.28575E-19
 -1       553 1.00916E-04-2.44609E-05-3.27591E-05-2.17140E-06-7.23419E-20-2.64623E-19
 -1       554 1.02757E-04-2.68965E-05-3.25103E-05-7.75019E-06 1.02393E-18-2.38465E-19
 -1       555 1.05634E-04-3.07973E-05-3.20721E-05-1.01789E-05 1.37931E-18 3.81132E-20
 -1       556 1.07887E-04-3.40783E-05-3.16359E-05-9.21799E-06 4.95525E-19-4.84785E-19
 -1       557 1.08686E-04-3.56515E-05-3.13081E-05-6.17115E-06-9.75304E-19 1.52923E-18
 -1       558 1.08131E-04-3.56014E-05-3.10941E-05-2.58044E-06 2.27734E-19 2.82330E-18
 -1       559 1.06748E-04-3.45733E-05-3.09422E-05 5.20879E-07 2.55766E-18 2.47726E-18
 -1       560 1.05043E-04-3.32034E-05-3.07967E-05 2.71012E-06 2.48188E-18 9.70412E-19
 -1       561 1.03342E-04-3.18940E-05-3.06259E-05 3.97423E-06 1.07996E-18 1.79132E-18
 -1       562 1.01799E-04-3.08214E-05-3.04216E-05 4.49090E-06 9.64253E-19 1.69023E-18
 -1       563 1.00465E-04-3.00183E-05-3.01918E-05 4.48479E-06-2.59623E-20 7.20305E-19
 -1       564 9.93389E-05-2.94509E-05-2.99512E-05 4.15720E-06-2.40493E-18-1.73742E-18
 -1       565 9.84031E-05-2.90656E-05-2.97146E-05 3.66226E-06-1.54600E-19-1.38961E-18
 -1       566 9.76337E-05-2.88108E-05-2.94938E-05 3.10586E-06 7.00692E-19-1.81168E-18
 -1       567 9.70074E-05-2.86443E-05-2.92967E-05 2.55345E-06 1.06037E-18-1.91770E-18
 -1       568 9.65020E-05-2.85337E-05-2.91276E-05 2.03970E-06 1.29023E-18 4.92216E-19
 -1       569 9.60976E-05-2.84556E-05-2.89878E-05 1.57777E-06 3.79336E-19 9.63821E-19
 -1       570 9.57760E-05-2.83936E-05-2.88763E-05 1.16815E-06 3.52649E-19 1.56928E-18
 -1       571 9.55198E-05-2.83425E-05-2.87886E-05 8.01361E-07-1.23358E-18 3.02826E-18
 -1       572 9.46806E-05-2.72364E-05-2.89049E-05 1.03216E-06 1.96551E-18 4.75345E-21
 -1       573 9.44582E-05-2.69570E-05-2.89295E-05 7.96593E-07 1.26073E-18 4.27005E-19
 -1       574 9.52181E-05-2.79251E-05-2.88398E-05 1.06118E-06 3.01150E-19 1.00839E-19
 -1       575 9.49448E-05-2.75705E-05-2.88748E-05 1.12353E-06 6.53742E-19-6.76785E-19
 -1       576 9.43057E-05-2.67655E-05-2.89464E-05 4.48111E-07 3.81508E-19-1.26591E-19
 -1       577 9.42422E-05-2.66849E-05-2.89538E-05 3.33423E-08-1.11185E-18 1.88373E-18
 -1       578 9.42781E-05-2.67269E-05-2.89511E-05-3.91342E-07-4.99658E-19 1.43774E-18
 -1       579 9.44093E-05-2.68862E-05-2.89390E-05-7.60224E-07 8.41541E-19-4.35139E-19
 -1       580 9.46278E-05-2.71528E-05-2.89181E-05-1.03027E-06 1.35809E-18 7.99634E-19
 -1       581 9.49066E-05-2.74965E-05-2.88904E-05-1.15230E-06-1.99159E-18 1.80971E-18
 -1       582 9.52061E-05-2.78754E-05-2.88557E-05-1.10344E-06-3.60503E-18 8.40068E-19
 -1       583 2.44517E-05-1.48370E-05-3.58476E-06-1.17955E-05 9.94192E-19 6.86097E-19
 -1       584 9.45349E-05-2.72570E-05-2.88245E-05 8.70716E-07 3.39074E-19 5.23030E-19
 -1       585 8.85115E-05-4.89129E-05-1.66806E-05 4.24438E-05 1.55272E-19-1.96301E-18
 -1       586 5.24955E-05-3.08099E-05-8.81152E-06-3.67597E-05 6.12511E-19 4.63343E-18
 -1       587 9.46151E-05-2.07530E-05-3.16763E-05-9.47556E-06-7.28756E-19 1.32405E-19
 -1       588 1.19507E-04-5.88685E-05-2.59538E-05 3.02504E-05-3.34790E-19-2.01403E-18
 -1       589 6.06971E-05-3.44416E-05-1.07721E-05 3.89975E-05 1.29554E-18-6.04199E-19
 -1       590 1.40952E-04-3.77865E-05-4.46303E-05 7.59893E-06 6.22569E-19-8.94149E-19
 -1       591 8.91954E-05-1.28122E-05-3.27537E-05-1.91607E-06-1.10589E-19-7.85472E-19
 -1       592 1.31564E-04-7.39972E-06-5.38605E-05-1.46116E-06 7.60530E-19-1.81848E-18
 -1       593 2.42538E-05-1.26155E-05-4.35894E-06-5.36109E-06-1.69380E-19-1.87882E-18
 -1       594 1.36801E-04-1.67683E-05-5.19740E-05-9.40916E-06 3.05514E-19-1.04534E-18
 -1       595 1.34606E-04-1.69099E-05-5.10476E-05 1.01981E-05 1.36997E-18 1.35366E-19
 -1       596 1.38292E-04-5.51743E-05-3.58085E-05-7.40219E-06 7.09165E-19-3.99323E-19
 -1       597 1.18228E-04-5.88532E-05-2.53435E-05-3.07899E-05-1.21136E-18 6.16931E-19
 -1       598 8.23146E-05-4.57552E-05-1.53261E-05-4.30407E-05-1.18166E-18 1.28918E-18
 -1       599 1.41403E-04-1.58236E-05-5.43676E-05-8.97175E-06-3.23916E-18 8.16752E-19
 -1       600 4.55776E-05-2.49824E-05-8.24464E-06-3.48745E-05 1.74701E-21 8.54709E-19
 -1       601 3.07535E-05-1.62082E-05-5.61868E-06 1.88597E-05 1.13222E-18-2.24580E-18
 -1       602 9.82112E-05-5.27977E-05-1.92030E-05 3.78468E-05 1.21359E-18-8.04046E-19
 -1       603 1.46347E-04-5.18029E-05-4.07834E-05-3.28548E-06-5.25306E-19 9.51536E-19
 -1       604 1.46050E-04-3.38836E-05-4.85758E-05-1.20384E-05-1.23794E-18 8.38298E-19
 -1       605 1.40881E-04-1.06143E-05-5.63275E-05 2.25694E-06-2.91295E-18 4.39365E-19
 -1       606 1.42951E-04-2.06580E-05-5.28879E-05 1.16883E-05-1.86771E-18-2.06014E-18
 -1       607 1.48286E-04-4.20737E-05-4.59436E-05 8.33592E-06 2.27640E-20-1.41259E-18
 -1       608 1.42902E-04-5.82815E-05-3.64273E-05-7.92299E-06 2.05644E-19-2.49875E-19
 -1       609 1.19998E-04-6.06605E-05-2.53637E-05-2.92550E-05 1.57098E-18 2.72530E-18
 -1       610 8.31290E-05-4.72778E-05-1.50688E-05-4.13213E-05 4.58827E-19 1.20281E-18
 -1       611 2.77442E-05-1.47986E-05-4.92951E-06 1.74166E-05 4.50092E-19 4.05305E-19
 -1       612 9.61130E-05-2.31707E-05-3.12645E-05 9.55354E-06 8.52932E-19 5.53885E-19
 -1       613 1.39718E-04-5.41339E-05-3.68326E-05 8.91286E-06-1.33324E-18-2.81374E-19
 -1       614 9.13662E-05-1.58743E-05-3.23883E-05-7.61883E-06-4.88603E-19-4.63631E-19
 -1       615 4.46265E-05-1.99517E-05-1.00274E-05-2.61518E-05-1.80709E-19 2.87160E-18
 -1       616 9.54707E-05-2.81920E-05-2.88326E-05-9.96862E-07-2.49851E-18 8.21580E-20
 -1       617 1.21817E-04-1.06735E-05-4.82165E-05 6.44120E-06 6.16905E-19-1.98690E-18
 -1       618 1.19025E-04-5.89031E-05-2.58014E-05 2.54538E-05 9.17628E-19-1.30445E-18
 -1       619 9.15632E-05-1.67400E-05-3.20727E-05 2.39667E-06 9.67851E-20-6.23027E-19
 -1       620 9.13006E-05-1.63272E-05-3.21368E-05 8.25808E-07-6.20736E-20-6.80100E-19
 -1       621 9.29127E-05-1.89325E-05-3.17114E-05 5.18493E-06 5.70664E-19-1.83076E-19
 -1       622 9.39982E-05-2.08835E-05-3.13429E-05 6.06940E-06 5.23977E-19-2.15843E-19
 -1       623 9.52743E-05-2.40569E-05-3.05113E-05 5.07110E-06 5.70047E-19 2.75300E-19
 -1       624 1.08791E-04-5.43374E-05-2.31803E-05 3.16528E-05 4.77965E-19-2.55466E-18
 -1       625 7.67812E-05-3.75825E-05-1.63696E-05-3.62453E-05 9.40074E-19 1.23145E-18
 -1       626 9.53505E-05-2.58856E-05-2.97668E-05 2.47993E-06 4.97312E-19 2.61173E-19
 -1       627 1.30104E-04-5.82081E-05-3.08665E-05 1.32728E-05-1.15217E-18-2.27495E-19
 -1       628 9.54315E-05-2.56225E-05-2.99161E-05-2.30120E-06-4.37491E-19-8.62742E-21
 -1       629 9.55009E-05-2.68283E-05-2.94303E-05-6.49932E-07-3.67230E-19-1.39317E-19
 -1       630 9.54568E-05-2.75382E-05-2.91076E-05 4.59070E-07-5.47439E-19-6.19259E-20
 -1       631 9.53939E-05-2.79441E-05-2.89069E-05 1.19469E-06-6.29742E-19-9.40176E-20
 -1       632 9.53454E-05-2.81501E-05-2.87979E-05 1.69594E-06-5.49520E-19 1.01136E-19
 -1       633 9.53184E-05-2.82161E-05-2.87581E-05 2.07222E-06-4.57381E-19-4.67440E-20
 -1       634 9.53106E-05-2.81774E-05-2.87712E-05 2.40846E-06-3.98317E-19 4.39463E-19
 -1       635 9.53159E-05-2.80560E-05-2.88255E-05 2.77088E-06-1.29220E-19 3.36568E-19
 -1       636 9.53277E-05-2.78660E-05-2.89119E-05 3.21163E-06-2.03240E-21 1.60569E-19
 -1       637 9.53391E-05-2.76188E-05-2.90226E-05 3.77188E-06-1.18219E-19 4.54504E-20
 -1       638 9.53448E-05-2.73279E-05-2.91496E-05 4.48320E-06 1.49249E-19 2.84953E-19
 -1       639 9.53438E-05-2.70157E-05-2.92828E-05 5.36727E-06 2.34347E-19 1.88173E-19
 -1       640 9.53462E-05-2.67246E-05-2.94085E-05 6.43401E-06-2.76856E-19 2.54640E-20
 -1       641 9.53872E-05-2.65347E-05-2.95073E-05 7.67793E-06-5.62575E-19 8.50604E-20
 -1       642 9.55525E-05-2.65898E-05-2.95545E-05 9.07224E-06 1.10959E-19 5.41814E-19
 -1       643 9.60214E-05-2.71348E-05-2.95223E-05 1.05581E-05 2.93253E-19 6.97793E-19
 -1       644 9.71311E-05-2.85544E-05-2.93906E-05 1.20202E-05 3.86305E-19 9.28328E-19
 -1       645 9.94506E-05-3.13854E-05-2.91734E-05 1.32229E-05 6.04493E-19 4.02578E-19
 -1       646 1.03763E-04-3.61775E-05-2.89661E-05 1.36916E-05 6.30279E-19-4.99617E-21
 -1       647 1.11356E-04-4.33031E-05-2.91649E-05 1.19844E-05 6.08978E-19 2.24980E-19
 -1       648 1.20862E-04-5.06278E-05-3.02376E-05 7.50588E-06 7.28041E-19 7.89660E-20
 -1       649 1.33874E-04-5.52865E-05-3.36818E-05-2.46665E-06 2.68526E-19-9.87058E-20
 -1       650 1.36590E-04-4.49172E-05-3.94580E-05 1.36672E-05-2.22015E-19-2.70775E-18
 -1       651 1.31554E-04-5.40030E-05-3.33502E-05 2.62053E-06 2.40297E-19-9.52078E-19
 -1       652 1.21046E-04-5.02386E-05-3.03119E-05-7.05988E-06 1.47230E-18 1.49747E-18
 -1       653 1.11083E-04-4.27471E-05-2.92768E-05-1.18812E-05 4.77229E-20 3.22225E-18
 -1       654 1.04040E-04-3.59740E-05-2.91698E-05-1.32688E-05-1.99400E-19 1.80073E-18
 -1       655 9.98096E-05-3.13244E-05-2.93519E-05-1.28864E-05-1.40564E-20 9.44013E-19
 -1       656 9.75186E-05-2.85871E-05-2.95421E-05-1.17198E-05-9.33413E-19 1.32755E-18
 -1       657 9.63870E-05-2.72033E-05-2.96495E-05-1.02601E-05-1.54922E-18 2.59777E-18
 -1       658 9.58732E-05-2.66546E-05-2.96641E-05-8.74661E-06-3.98048E-19 9.80156E-19
 -1       659 9.56569E-05-2.65714E-05-2.96070E-05-7.30116E-06 8.88289E-19 6.63900E-19
 -1       660 9.55670E-05-2.67186E-05-2.95054E-05-5.98644E-06 1.06258E-18 2.33550E-19
 -1       661 9.55206E-05-2.69583E-05-2.93830E-05-4.83057E-06 2.19973E-19-1.26489E-18
 -1       662 9.54820E-05-2.72143E-05-2.92569E-05-3.84004E-06 1.93336E-18 1.68674E-19
 -1       663 9.54381E-05-2.74468E-05-2.91385E-05-3.00515E-06 2.23815E-18-1.41432E-19
 -1       664 9.53834E-05-2.76345E-05-2.90347E-05-2.31199E-06-1.12279E-19-1.87697E-18
 -1       665 9.53195E-05-2.77745E-05-2.89474E-05-1.73472E-06-1.15114E-18-1.48704E-18
 -1       666 1.32843E-04-3.18831E-05-4.37638E-05 1.70572E-05-7.01132E-19-2.27207E-18
 -1       667 9.51429E-05-2.75860E-05-2.89520E-05-4.06166E-07 2.82314E-19 9.42458E-20
 -1       668 9.50924E-05-2.82611E-05-2.86418E-05-1.96878E-06-1.26611E-19-6.24004E-20
 -1       669 9.51820E-05-2.82898E-05-2.86679E-05-2.25079E-06 4.93565E-19-1.15707E-19
 -1       670 9.53168E-05-2.82724E-05-2.87331E-05-2.53506E-06 8.29582E-19 3.15490E-19
 -1       671 9.54972E-05-2.82302E-05-2.88285E-05-2.86402E-06 1.09132E-18 1.38363E-19
 -1       672 9.57297E-05-2.81862E-05-2.89468E-05-3.26406E-06 2.86867E-19 8.37722E-19
 -1       673 9.60285E-05-2.81696E-05-2.90819E-05-3.74525E-06-4.25101E-19 8.39277E-19
 -1       674 9.64178E-05-2.82201E-05-2.92271E-05-4.29872E-06-6.24024E-19 6.24624E-19
 -1       675 9.69354E-05-2.83934E-05-2.93747E-05-4.89156E-06 1.31877E-19 1.85969E-19
 -1       676 9.76378E-05-2.87657E-05-2.95164E-05-5.45944E-06 2.78990E-19 3.24157E-19
 -1       677 9.86043E-05-2.94347E-05-2.96443E-05-5.89665E-06 3.68984E-19 1.07358E-18
 -1       678 9.99370E-05-3.05110E-05-2.97550E-05-6.04474E-06 1.75931E-19 7.77477E-19
 -1       679 1.01745E-04-3.20859E-05-2.98559E-05-5.68362E-06 4.34186E-20 4.06677E-19
 -1       680 1.04100E-04-3.41607E-05-2.99771E-05-4.53398E-06-3.10769E-19 4.95872E-19
 -1       681 1.06928E-04-3.65108E-05-3.01836E-05-2.29504E-06-4.68742E-19-6.36722E-20
 -1       682 1.09845E-04-3.85031E-05-3.05823E-05 1.20547E-06-4.80025E-19 2.20661E-19
 -1       683 1.12023E-04-3.90140E-05-3.12957E-05 5.70662E-06-1.22202E-18 9.34285E-19
 -1       684 1.12340E-04-3.67334E-05-3.24075E-05 9.99794E-06-1.50483E-18 1.18298E-18
 -1       685 1.10108E-04-3.12139E-05-3.38345E-05 1.18907E-05-8.40905E-19 6.95590E-19
 -1       686 1.06476E-04-2.45043E-05-3.51719E-05 8.99550E-06 2.17355E-19-8.08467E-19
 -1       687 1.04233E-04-2.06795E-05-3.58483E-05 1.52737E-06-5.48305E-19 3.67796E-20
 -1       688 1.05258E-04-2.25425E-05-3.54941E-05-6.83373E-06 8.07864E-19-2.66178E-19
 -1       689 1.08909E-04-2.89160E-05-3.42934E-05-1.14811E-05 1.45051E-18-1.21205E-18
 -1       690 1.11828E-04-3.51100E-05-3.28960E-05-1.10896E-05 2.60359E-20-1.76218E-19
 -1       691 1.12397E-04-3.85675E-05-3.16468E-05-7.34009E-06-1.60210E-18 1.37836E-18
 -1       692 1.10756E-04-3.89050E-05-3.07959E-05-2.72550E-06-8.77331E-19 9.79592E-19
 -1       693 1.07982E-04-3.72736E-05-3.03083E-05 1.16881E-06 1.26409E-18 1.65384E-18
 -1       694 1.05065E-04-3.49473E-05-3.00544E-05 3.82097E-06 3.37535E-18 1.83527E-18
 -1       695 1.02531E-04-3.27243E-05-2.99195E-05 5.29057E-06 1.72370E-18 1.03993E-18
 -1       696 1.00543E-04-3.09547E-05-2.98249E-05 5.85325E-06 8.44141E-19 1.73751E-18
 -1       697 9.90682E-05-2.96985E-05-2.97304E-05 5.80313E-06 9.81672E-19 2.66936E-18
 -1       698 9.80019E-05-2.88843E-05-2.96217E-05 5.38113E-06 1.19441E-20 3.59104E-18
 -1       699 9.72363E-05-2.84025E-05-2.94998E-05 4.76456E-06-5.22886E-19 1.13024E-18
 -1       700 9.66834E-05-2.81486E-05-2.93715E-05 4.07433E-06 6.32408E-19-7.14779E-19
 -1       701 9.62782E-05-2.80390E-05-2.92448E-05 3.38686E-06 9.74835E-19-4.09040E-19
 -1       702 9.59751E-05-2.80116E-05-2.91266E-05 2.74594E-06-1.35758E-19-2.16688E-18
 -1       703 9.57409E-05-2.80215E-05-2.90220E-05 2.17080E-06 1.46217E-19-9.50286E-19
 -1       704 9.55537E-05-2.80405E-05-2.89334E-05 1.66547E-06-5.55465E-19 8.79471E-19
 -1       705 9.53647E-05-2.79777E-05-2.88795E-05 1.35427E-06 2.03282E-19 6.72365E-19
 -1       706 9.38858E-05-2.64334E-05-2.89084E-05 3.31250E-07 1.64463E-18-4.34945E-20
 -1       707 9.52618E-05-2.78312E-05-2.88985E-05-1.40153E-06-2.96052E-18 1.51778E-18
 -1       708 9.43359E-05-2.68950E-05-2.89033E-05 1.21306E-06 2.49237E-18-8.68893E-19
 -1       709 9.38596E-05-2.64003E-05-2.89113E-05-2.17655E-07 8.55241E-19 1.24002E-18
 -1       710 9.40524E-05-2.66057E-05-2.89059E-05 8.29078E-07 1.30654E-18-1.44639E-19
 -1       711 7.98175E-05-3.91125E-05-1.71553E-05 3.75038E-05 5.31275E-19-2.00556E-18
 -1       712 9.39786E-05-2.65117E-05-2.89146E-05-7.37589E-07 3.47975E-19 8.22539E-19
 -1       713 9.42393E-05-2.67644E-05-2.89180E-05-1.17534E-06 1.43721E-18 4.65208E-19
 -1       714 9.46090E-05-2.71309E-05-2.89189E-05-1.45035E-06 7.47121E-20-1.81149E-18
 -1       715 9.49483E-05-2.74831E-05-2.89135E-05-1.49174E-06-1.69766E-18-7.75722E-19
 -1       716 9.52578E-05-2.69539E-05-2.92707E-05 7.38275E-07 3.49621E-19 1.55899E-19
 -1       717 9.41867E-05-2.09451E-05-3.13890E-05-6.99744E-06-4.83953E-19-1.10904E-19
 -1       718 8.47494E-05-4.05087E-05-1.85858E-05 3.46044E-05 3.45245E-19-2.20851E-18
 -1       719 5.48453E-05-2.29080E-05-1.32128E-05 2.85213E-05 6.80962E-19-1.15850E-18
 -1       720 1.27306E-04-2.75218E-05-4.31671E-05 1.36032E-05 9.52886E-19-2.06980E-19
 -1       721 1.38167E-04-5.95011E-05-3.36962E-05 3.08005E-06 4.79368E-20-6.95573E-19
 -1       722 9.50524E-05-2.81615E-05-2.86673E-05-1.62828E-06-2.44067E-20 2.32557E-19
 -1       723 9.50695E-05-2.79569E-05-2.87622E-05-1.14544E-06 3.15079E-19 1.83230E-19
 -1       724 9.50988E-05-2.38084E-05-3.05536E-05-4.38131E-06-4.21313E-19 1.52620E-20
 -1       725 4.28042E-05-1.44473E-05-1.16886E-05-1.85136E-05-3.79391E-19-2.71474E-19
 -1       726 1.29080E-04-2.71345E-05-4.41024E-05-1.37061E-05 5.59677E-19-7.27310E-19
 -1       727 9.20937E-05-1.75862E-05-3.19376E-05 3.88567E-06 3.55819E-19-3.89750E-19
 -1       728 9.20534E-05-1.75277E-05-3.19451E-05-3.83154E-06-1.67780E-19-6.09554E-19
 -1       729 1.04875E-04-5.17434E-05-2.25918E-05-3.20276E-05-6.84641E-19 1.52962E-19
 -1       730 1.27475E-04-5.78676E-05-2.98840E-05-1.35983E-05-7.02746E-19-4.53970E-19
 -1       731 3.45163E-05-1.08067E-05-9.58763E-06 6.36541E-07-2.00651E-19 5.25902E-19
 -1       732 7.53758E-05-3.58580E-05-1.66215E-05-3.66802E-05-3.72589E-19 1.52183E-18
 -1       733 3.95823E-05-1.12071E-05-1.16672E-05 5.75952E-06 2.58980E-19-1.22555E-18
 -1       734 1.33202E-04-4.63480E-05-3.74264E-05 7.14784E-06 3.47244E-19 6.93230E-19
 -1       735 4.89970E-05-1.81672E-05-1.27094E-05 2.48863E-05 6.66443E-19 9.65353E-19
 -1       736 1.37139E-04-4.20686E-05-4.10493E-05-1.52077E-05-1.03118E-18-2.86297E-19
 -1       737 1.06273E-04-5.35603E-05-2.24103E-05-3.14382E-05 1.42598E-18 1.29558E-18
 -1       738 1.30803E-04-2.49433E-05-4.59257E-05-1.54975E-05-1.98497E-18 1.93150E-19
 -1       739 1.32944E-04-6.06702E-05-3.09934E-05-1.14136E-05 2.01193E-18 5.68624E-19
 -1       740 1.35883E-04-4.78422E-05-3.79947E-05-4.83757E-06-1.19215E-18-1.39001E-18
 -1       741 1.19287E-04-1.25042E-05-4.62625E-05-8.10979E-06 9.79647E-19-1.65919E-18
 -1       742 9.28817E-05-1.88485E-05-3.17327E-05-5.21182E-06-2.62926E-19-4.83725E-19
 -1       743 9.12939E-05-1.63177E-05-3.21381E-05-7.67073E-07-1.65271E-19-8.02494E-19
 -1       744 9.47007E-05-2.72675E-05-2.89003E-05 1.43526E-06 6.41708E-20 1.21036E-18
 -1       745 6.39153E-05-2.37056E-05-1.69537E-05-2.75798E-05-2.87091E-19 1.36408E-18
 -1       746 1.39618E-04-5.06532E-05-3.83552E-05 8.29281E-06-1.02120E-19-2.92351E-18
 -1       747 9.50410E-05-2.76224E-05-2.88937E-05 1.46144E-06-6.09053E-19-6.92310E-19
 -1       748 1.05200E-04-5.01861E-05-2.33979E-05 2.80015E-05 1.66257E-19-1.65457E-18
 -1       749 6.86864E-05-2.76046E-05-1.73902E-05 2.99967E-05-2.68801E-19-1.02024E-18
 -1       750 1.18026E-04-1.96897E-05-4.24572E-05 1.22426E-05 4.22458E-20-1.83185E-18
 -1       751 9.15412E-05-1.67082E-05-3.20768E-05-2.33514E-06-9.64172E-20-7.00736E-19
 -1       752 6.38576E-05-2.49664E-05-1.63331E-05-2.75283E-05 4.57431E-19 2.56701E-18
 -1       753 9.46412E-05-2.26285E-05-3.08597E-05 3.80694E-06 4.58928E-19-1.86648E-19
 -1       754 9.34109E-05-2.60369E-05-2.88746E-05-5.82909E-07 6.82596E-19 1.80568E-18
 -1       755 1.16133E-04-2.25389E-05-4.03301E-05-1.29209E-05 4.93595E-19-2.88874E-18
 -1       756 9.58435E-05-2.66621E-05-2.96494E-05-3.00279E-07-3.63711E-19 2.96028E-20
 -1       757 9.59061E-05-2.74552E-05-2.93361E-05 6.29798E-07-4.78250E-19 1.34506E-19
 -1       758 9.58508E-05-2.78929E-05-2.91248E-05 1.28006E-06-6.61321E-19-1.71093E-19
 -1       759 9.57267E-05-2.80754E-05-2.89935E-05 1.75387E-06-3.23475E-19-2.34749E-19
 -1       760 9.55565E-05-2.80675E-05-2.89239E-05 2.13824E-06-9.65724E-20-9.54675E-20
 -1       761 9.53468E-05-2.79107E-05-2.89012E-05 2.50426E-06-2.11312E-19 2.89713E-19
 -1       762 9.50941E-05-2.76317E-05-2.89124E-05 2.90861E-06-2.34237E-19 2.62855E-19
 -1       763 9.47888E-05-2.72486E-05-2.89457E-05 3.39596E-06 7.99666E-20 1.92806E-19
 -1       764 9.44166E-05-2.67762E-05-2.89886E-05 4.00123E-06 1.10872E-19 1.72383E-20
 -1       765 9.39621E-05-2.62332E-05-2.90265E-05 4.75142E-06-9.28578E-20-2.85045E-20
 -1       766 9.34137E-05-2.56507E-05-2.90411E-05 5.66733E-06-1.70263E-19-3.33526E-19
 -1       767 9.27731E-05-2.50863E-05-2.90083E-05 6.76708E-06-1.03874E-19-2.55053E-19
 -1       768 9.20731E-05-2.46449E-05-2.88975E-05 8.07237E-06 1.76229E-19 2.89759E-19
 -1       769 9.14092E-05-2.45098E-05-2.86708E-05 9.61903E-06-5.98852E-20 3.99060E-20
 -1       770 9.09945E-05-2.49883E-05-2.82881E-05 1.14706E-05 8.73005E-19 4.97133E-20
 -1       771 9.12501E-05-2.65693E-05-2.77212E-05 1.37179E-05 2.66718E-19 3.90905E-19
 -1       772 9.29606E-05-3.00012E-05-2.69887E-05 1.64265E-05 6.32450E-20 3.31487E-19
 -1       773 9.74481E-05-3.60848E-05-2.62404E-05 1.94713E-05 3.97335E-19-6.52201E-19
 -1       774 5.01482E-05-1.20502E-05-1.60523E-05-6.53975E-06 3.63213E-19-1.03196E-18
 -1       775 1.06837E-04-4.54480E-05-2.62757E-05-2.00053E-05 1.24873E-18 3.18001E-20
 -1       776 9.80769E-05-3.61122E-05-2.65138E-05-1.86535E-05 5.18849E-19 1.19494E-18
 -1       777 9.36644E-05-3.00823E-05-2.72462E-05-1.60006E-05-1.55822E-19 2.18736E-18
 -1       778 9.18796E-05-2.67048E-05-2.79312E-05-1.34487E-05-4.20943E-19 2.45410E-18
 -1       779 9.15177E-05-2.51174E-05-2.84569E-05-1.12594E-05-8.63426E-19 2.66058E-18
 -1       780 9.18225E-05-2.46028E-05-2.88080E-05-9.40285E-06-1.74822E-18 2.84507E-18
 -1       781 9.23818E-05-2.46847E-05-2.90127E-05-7.81070E-06-3.48376E-19 3.80596E-18
 -1       782 9.29824E-05-2.50605E-05-2.91090E-05-6.43489E-06 1.05967E-18 1.93067E-18
 -1       783 9.35265E-05-2.55496E-05-2.91327E-05-5.24624E-06-4.07262E-19 1.61892E-18
 -1       784 9.39791E-05-2.60508E-05-2.91120E-05-4.22644E-06 9.01679E-19 7.56762E-19
 -1       785 9.43362E-05-2.65090E-05-2.90683E-05-3.36683E-06 1.05024E-18-1.10539E-18
 -1       786 9.45787E-05-2.68804E-05-2.90129E-05-2.65116E-06 4.79315E-19-2.59585E-18
 -1       787 9.47829E-05-2.72030E-05-2.89621E-05-2.03331E-06-8.30326E-19-1.78795E-18
 -1       788 9.57210E-05-2.75065E-05-2.92351E-05-5.69622E-07 2.31591E-19-2.44114E-19
 -1       789 9.55041E-05-2.82045E-05-2.88426E-05-2.10618E-06 2.40595E-19-6.66355E-19
 -1       790 9.52709E-05-2.78468E-05-2.88959E-05-3.20340E-06-1.32489E-20 9.86460E-19
 -1       791 9.52303E-05-2.76683E-05-2.89550E-05-3.69913E-06-2.43361E-20 1.08957E-18
 -1       792 9.52379E-05-2.75285E-05-2.90182E-05-4.29038E-06-1.02438E-19 8.92498E-19
 -1       793 9.53325E-05-2.74902E-05-2.90751E-05-4.97152E-06 4.96426E-20 1.57518E-19
 -1       794 9.55778E-05-2.76408E-05-2.91157E-05-5.71614E-06 7.99623E-20 3.53310E-19
 -1       795 9.60733E-05-2.80998E-05-2.91313E-05-6.47111E-06-9.31482E-20 4.20474E-19
 -1       796 9.69655E-05-2.90211E-05-2.91190E-05-7.14349E-06-1.24064E-19 5.13153E-19
 -1       797 9.84521E-05-3.05794E-05-2.90888E-05-7.58173E-06-1.73020E-19 8.89465E-19
 -1       798 1.00765E-04-3.29240E-05-2.90753E-05-7.54623E-06-4.83922E-20 1.58190E-18
 -1       799 1.04105E-04-3.60729E-05-2.91572E-05-6.66739E-06-4.81135E-20 1.17843E-18
 -1       800 1.08475E-04-3.96799E-05-2.94853E-05-4.41965E-06-8.23674E-19 5.96212E-19
 -1       801 1.13287E-04-4.26169E-05-3.02990E-05-2.82106E-07-8.72551E-19 7.85135E-19
 -1       802 1.17231E-04-4.29679E-05-3.18353E-05 5.69266E-06-1.43070E-18 2.40316E-19
 -1       803 1.17742E-04-3.81340E-05-3.42094E-05 1.14154E-05-6.59986E-19-7.93493E-19
 -1       804 1.14313E-04-2.81090E-05-3.70488E-05 1.30755E-05 2.64426E-19-1.84516E-18
 -1       805 1.07724E-04-1.69011E-05-3.91286E-05-3.39417E-06 1.66614E-19-2.18735E-18
 -1       806 1.17712E-04-4.18682E-05-3.25260E-05-7.68158E-06-1.69790E-18-1.91246E-19
 -1       807 1.14804E-04-4.31439E-05-3.07115E-05-1.52271E-06-9.65448E-19-7.15713E-19
 -1       808 1.10127E-04-4.08051E-05-2.97123E-05 3.17940E-06-9.18976E-19-8.97166E-19
 -1       809 1.05536E-04-3.72831E-05-2.92528E-05 6.00531E-06 2.17014E-18 7.44139E-19
 -1       810 1.01806E-04-3.38844E-05-2.91101E-05 7.27281E-06 1.73645E-18 1.89093E-18
 -1       811 9.91460E-05-3.12270E-05-2.91083E-05 7.51600E-06 6.85410E-19 2.72353E-18
 -1       812 9.73914E-05-2.93823E-05-2.91468E-05 7.16192E-06 7.67198E-20 2.98030E-18
 -1       813 9.63092E-05-2.82301E-05-2.91767E-05 6.49024E-06-4.81153E-19 2.33442E-18
 -1       814 9.56837E-05-2.75947E-05-2.91808E-05 5.67810E-06 1.50712E-18 6.99772E-19
 -1       815 9.53488E-05-2.73116E-05-2.91586E-05 4.83416E-06 8.18976E-19 6.06034E-19
 -1       816 9.51879E-05-2.72491E-05-2.91164E-05 4.02289E-06 1.04941E-19 2.17163E-19
 -1       817 9.51240E-05-2.73108E-05-2.90626E-05 3.27973E-06 5.53422E-19 1.37354E-18
 -1       818 9.51067E-05-2.74271E-05-2.90053E-05 2.62388E-06 6.52392E-19-2.08362E-19
 -1       819 9.51059E-05-2.75546E-05-2.89504E-05 2.05339E-06-1.40209E-18-2.21242E-18
 -1       820 9.50675E-05-2.75900E-05-2.89193E-05 1.74287E-06-1.68770E-18-1.49006E-18
 -1       821 9.31729E-05-1.95978E-05-3.15336E-05 1.18808E-06 2.80704E-20-5.21422E-19
 -1       822 9.36740E-05-2.62541E-05-2.88944E-05-1.20966E-06 4.12678E-19 1.48592E-18
 -1       823 9.33532E-05-2.60003E-05-2.88657E-05 1.05168E-07 1.00040E-18 3.12961E-19
 -1       824 9.41145E-05-2.66329E-05-2.89204E-05-1.68588E-06 2.68192E-19-1.78115E-18
 -1       825 1.17800E-04-1.01331E-05-4.66325E-05 1.51132E-06 8.86949E-19-2.06540E-18
 -1       826 7.49243E-05-2.90566E-05-1.93940E-05 2.73233E-05 4.50979E-20-1.31564E-18
 -1       827 9.55917E-05-2.81506E-05-2.89033E-05-1.73638E-06 4.57657E-20-3.55366E-19
 -1       828 9.53373E-05-2.80187E-05-2.88507E-05-2.79205E-06 4.95062E-19 1.39370E-19
 -1       829 9.54173E-05-2.81487E-05-2.88294E-05-2.43958E-06 3.15964E-19-3.51733E-19
 -1       830 1.18767E-04-5.42637E-05-2.76207E-05 1.70737E-05 7.20428E-19-1.59987E-18
 -1       831 9.55668E-05-2.53520E-05-3.00921E-05-1.61630E-06-4.37796E-19-3.05482E-20
 -1       832 9.56706E-05-2.79405E-05-2.90272E-05-1.25654E-06 5.00254E-20-2.65279E-19
 -1       833 5.57108E-05-1.59283E-05-1.67727E-05 1.61142E-05 1.47503E-20-1.23488E-18
 -1       834 1.15312E-04-5.23963E-05-2.69236E-05-1.84147E-05-1.25718E-18 2.12644E-19
 -1       835 1.19807E-04-5.44693E-05-2.79451E-05-1.62289E-05 2.75055E-18 5.36366E-19
 -1       836 9.29364E-05-4.11246E-05-2.20456E-05-2.94748E-05-5.53946E-19 6.02201E-19
 -1       837 1.22921E-04-3.61189E-05-3.73873E-05 1.33776E-05 5.03243E-19-1.18516E-18
 -1       838 9.51774E-05-4.30749E-05-2.21740E-05-2.90746E-05 1.57430E-18-3.11179E-19
 -1       839 4.89954E-05-1.25487E-05-1.52650E-05 9.54556E-06-4.72317E-19 6.76859E-19
 -1       840 1.25611E-04-3.74092E-05-3.80209E-05-1.28196E-05-3.60446E-19-2.05428E-18
 -1       841 1.25829E-04-5.04868E-05-3.23359E-05 1.11579E-06-5.80376E-19-3.08628E-19
 -1       842 9.52276E-05-2.44111E-05-3.03501E-05 3.29573E-06 5.58697E-19-7.00214E-20
 -1       843 9.87526E-05-4.50885E-05-2.28312E-05 2.92080E-05 2.59377E-19-1.84878E-18
 -1       844 1.28313E-04-5.18144E-05-3.28723E-05-1.91518E-07-1.30131E-18-6.95216E-19
 -1       845 4.79323E-05-1.40272E-05-1.41641E-05-1.40047E-05-7.32187E-19 8.87188E-19
 -1       846 1.11990E-04-1.38741E-05-4.23665E-05-3.44395E-06 6.84561E-19-1.82499E-18
 -1       847 1.13580E-04-1.35063E-05-4.32098E-05 4.91744E-06 8.05105E-19-2.23298E-18
 -1       848 9.30517E-05-1.93873E-05-3.15726E-05 2.34869E-08-1.41462E-19-5.82678E-19
 -1       849 9.40407E-05-2.12410E-05-3.11998E-05 3.21070E-06 2.53358E-19-1.39020E-19
 -1       850 9.39875E-05-2.11715E-05-3.12102E-05-3.15653E-06-1.74706E-19-5.00279E-19
 -1       851 9.42860E-05-2.68522E-05-2.89000E-05 1.70084E-06 7.53974E-19 1.59449E-18
 -1       852 8.16511E-05-3.19631E-05-2.11272E-05-2.66668E-05 1.54364E-18 2.68622E-19
 -1       853 9.35005E-05-2.61422E-05-2.88680E-05 7.67578E-07 1.19880E-18 1.19194E-18
 -1       854 6.06278E-05-1.82901E-05-1.79918E-05 1.91177E-05-1.10253E-18 7.22400E-19
 -1       855 1.09120E-04-1.85309E-05-3.89802E-05 7.19031E-06-1.43532E-19-1.01660E-18
 -1       856 1.16923E-04-3.51027E-05-3.51310E-05-1.27109E-05 1.20570E-20-5.46867E-19
 -1       857 9.38247E-05-2.64374E-05-2.88803E-05 1.31971E-06 1.09050E-18-4.56418E-19
 -1       858 9.34958E-05-2.01995E-05-3.14137E-05 2.28042E-06 1.76474E-19-3.77345E-19
 -1       859 9.55355E-05-2.60597E-05-2.97754E-05 1.41713E-06 3.10647E-19-4.92168E-20
 -1       860 9.56640E-05-2.69223E-05-2.94602E-05 2.62637E-07 2.74203E-19-2.70737E-20
 -1       861 9.50115E-05-2.35256E-05-3.06359E-05-3.18726E-06-4.20047E-19-7.51192E-20
 -1       862 9.34741E-05-2.01630E-05-3.14202E-05-2.22845E-06-2.12926E-19-6.75763E-19
 -1       863 9.33995E-05-2.59862E-05-2.88915E-05-1.81698E-06-1.15556E-18 1.22739E-19
 -1       864 7.94052E-05-2.92169E-05-2.14131E-05-2.46537E-05 1.86758E-19 1.27701E-18
 -1       865 9.60611E-05-2.74502E-05-2.94045E-05-7.19243E-07 2.72016E-19 4.31734E-19
 -1       866 9.61561E-05-2.74072E-05-2.94639E-05 7.45785E-07-5.73919E-19-2.77052E-19
 -1       867 9.60581E-05-2.78074E-05-2.92503E-05 1.26966E-06-5.20452E-19 1.67004E-20
 -1       868 9.58311E-05-2.79182E-05-2.91055E-05 1.67336E-06-2.03943E-19 6.90170E-20
 -1       869 9.55023E-05-2.78037E-05-2.90137E-05 2.02219E-06-1.51514E-19-1.30004E-19
 -1       870 9.50806E-05-2.75073E-05-2.89600E-05 2.36999E-06-9.96200E-20-2.58586E-19
 -1       871 9.45615E-05-2.70582E-05-2.89300E-05 2.75946E-06-2.81565E-19-3.72973E-19
 -1       872 9.39303E-05-2.64772E-05-2.89085E-05 3.22346E-06-6.70169E-20-8.54562E-19
 -1       873 9.31645E-05-2.57820E-05-2.88782E-05 3.78749E-06-5.11754E-20-1.10992E-18
 -1       874 9.22378E-05-2.49954E-05-2.88182E-05 4.47203E-06 9.67237E-20-7.39078E-19
 -1       875 9.11229E-05-2.41527E-05-2.87015E-05 5.29760E-06 9.86160E-21-1.77137E-20
 -1       876 8.97999E-05-2.33146E-05-2.84937E-05 6.29565E-06 3.25439E-19-5.43734E-19
 -1       877 8.82678E-05-2.25849E-05-2.81499E-05 7.52584E-06 4.24225E-19-4.18912E-19
 -1       878 8.65658E-05-2.21355E-05-2.76129E-05 9.10769E-06 2.68970E-19-2.20751E-19
 -1       879 8.48104E-05-2.22478E-05-2.68120E-05 1.12747E-05-7.04799E-21-6.51803E-19
 -1       880 8.33216E-05-2.34078E-05-2.56709E-05 1.44305E-05 2.33323E-19-1.45384E-18
 -1       881 8.27035E-05-2.64199E-05-2.40889E-05 1.90272E-05 1.09032E-19-1.45087E-18
 -1       882 6.04440E-05-1.37218E-05-1.98966E-05 4.61079E-06 2.57653E-19-1.97079E-18
 -1       883 1.22161E-04-4.30346E-05-3.39973E-05-8.38270E-06-1.24166E-18-1.53023E-18
 -1       884 8.40597E-05-2.68796E-05-2.44860E-05-1.86763E-05 6.60672E-19 5.49372E-19
 -1       885 8.43239E-05-2.37564E-05-2.59524E-05-1.42916E-05 5.71425E-19 5.52472E-19
 -1       886 8.55510E-05-2.24925E-05-2.70245E-05-1.12545E-05-1.21072E-18 1.82478E-18
 -1       887 8.70852E-05-2.22730E-05-2.77766E-05-9.08420E-06-4.96727E-19 6.52900E-19
 -1       888 8.86214E-05-2.26330E-05-2.82807E-05-7.44582E-06-4.94900E-19 1.87644E-18
 -1       889 9.00108E-05-2.32753E-05-2.86007E-05-6.13806E-06-1.09402E-18 9.44046E-19
 -1       890 9.11984E-05-2.40197E-05-2.87907E-05-5.04968E-06-2.59795E-19-7.35222E-19
 -1       891 9.21792E-05-2.47640E-05-2.88922E-05-4.12342E-06-5.25146E-19 8.27702E-19
 -1       892 9.29627E-05-2.54462E-05-2.89360E-05-3.32737E-06 3.21509E-19 9.06607E-19
 -1       893 9.35709E-05-2.60354E-05-2.89457E-05-2.65346E-06-5.88419E-19 6.79429E-19
 -1       894 9.46906E-05-2.72251E-05-2.89136E-05 1.78106E-06-6.76009E-19 3.30378E-18
 -1       895 9.47084E-05-2.72868E-05-2.88949E-05-3.30213E-06 2.02588E-19-1.84759E-19
 -1       896 9.38553E-05-2.65684E-05-2.88372E-05-5.37040E-06 6.69051E-20 1.83947E-19
 -1       897 9.37975E-05-2.66924E-05-2.87591E-05-6.30909E-06-3.86615E-20 4.60640E-20
 -1       898 9.40462E-05-2.72335E-05-2.86337E-05-7.35499E-06-1.16330E-20 2.87972E-19
 -1       899 9.48126E-05-2.84006E-05-2.84621E-05-8.45942E-06-6.21131E-19 4.45420E-19
 -1       900 9.63994E-05-3.04454E-05-2.82671E-05-9.50983E-06-3.40762E-19 1.04417E-18
 -1       901 9.92173E-05-3.36326E-05-2.81065E-05-1.02816E-05 2.94259E-19 8.54340E-19
 -1       902 1.03625E-04-3.79885E-05-2.81171E-05-1.02658E-05 5.61963E-19-2.25398E-19
 -1       903 1.09968E-04-4.32883E-05-2.85904E-05-8.61338E-06-8.25372E-19-9.06145E-19
 -1       904 1.18980E-04-4.66590E-05-3.09952E-05-8.36359E-07-1.35534E-18-2.00809E-18
 -1       905 1.00491E-04-3.49188E-05-2.80995E-05 1.03507E-05 4.64443E-19 5.53485E-19
 -1       906 9.71718E-05-3.13113E-05-2.82248E-05 9.73552E-06 4.72353E-19 2.49084E-18
 -1       907 9.51957E-05-2.88688E-05-2.84256E-05 8.70155E-06 9.20018E-19 2.31893E-18
 -1       908 9.41590E-05-2.73872E-05-2.86164E-05 7.54640E-06-9.15793E-20 1.74868E-18
 -1       909 9.37270E-05-2.66094E-05-2.87646E-05 6.41150E-06 9.16091E-19 1.28938E-18
 -1       910 9.36548E-05-2.63061E-05-2.88637E-05 5.35957E-06 3.80251E-19 3.07687E-18
 -1       911 9.37777E-05-2.62995E-05-2.89191E-05 4.41565E-06-1.21211E-19 3.74191E-18
 -1       912 9.39916E-05-2.64618E-05-2.89412E-05 3.58783E-06-4.45422E-20 3.89811E-18
 -1       913 9.42236E-05-2.66981E-05-2.89399E-05 2.87223E-06-4.18201E-19 3.79651E-18
 -1       914 9.29257E-05-2.56247E-05-2.88435E-05-1.09060E-06-2.38795E-19-5.66361E-19
 -1       915 9.27259E-05-2.54866E-05-2.88172E-05-2.61372E-07 6.07849E-19 8.43806E-19
 -1       916 6.37670E-05-1.90746E-05-1.89784E-05-1.85296E-05 4.12796E-19 3.36140E-19
 -1       917 9.58298E-05-2.80474E-05-2.90496E-05-1.72853E-06 2.66936E-19-1.22390E-21
 -1       918 9.50321E-05-2.76003E-05-2.88993E-05-2.83603E-06 1.67304E-19-4.58797E-20
 -1       919 1.08355E-04-4.67083E-05-2.63737E-05 1.84219E-05 4.00302E-20-1.75119E-18
 -1       920 9.31562E-05-1.95763E-05-3.15362E-05-1.13521E-06-1.98503E-19-9.10311E-19
 -1       921 6.30650E-05-1.68381E-05-1.97046E-05-1.44095E-05 7.94739E-20 8.16586E-19
 -1       922 9.57230E-05-2.53271E-05-3.01694E-05-9.46502E-07-2.57901E-19-1.80673E-19
 -1       923 9.59921E-05-2.78799E-05-2.91910E-05-1.29559E-06 6.88770E-20 3.48740E-19
 -1       924 7.09775E-05-2.17723E-05-2.09709E-05 1.92857E-05 1.03164E-19-9.41868E-19
 -1       925 8.52435E-05-3.27446E-05-2.23866E-05 2.52408E-05-1.49507E-18-9.97706E-19
 -1       926 1.05630E-04-3.97737E-05-2.82190E-05 9.84639E-06-1.17734E-18-2.84356E-18
 -1       927 9.43804E-05-2.69655E-05-2.88921E-05-3.86942E-06-2.70706E-19 2.54473E-19
 -1       928 5.59570E-05-1.27918E-05-1.83291E-05-2.00604E-06-1.25262E-18 8.28610E-19
 -1       929 9.16114E-05-3.49519E-05-2.41924E-05-2.28250E-05 1.13840E-18 1.20184E-19
 -1       930 8.98318E-05-3.77706E-05-2.21220E-05 2.68352E-05 3.76246E-19-1.03501E-18
 -1       931 1.03643E-04-4.33772E-05-2.58031E-05-1.93111E-05-3.09746E-19 3.65974E-19
 -1       932 1.16998E-04-4.83230E-05-2.94158E-05-6.39509E-06-1.40911E-18-4.98820E-19
 -1       933 9.60720E-05-2.66210E-05-2.97646E-05 3.04048E-08-4.15248E-19-3.45848E-19
 -1       934 9.40781E-05-2.66976E-05-2.88774E-05-4.55635E-06-9.70907E-20 2.98603E-19
 -1       935 9.54643E-05-2.49237E-05-3.02338E-05 1.97211E-06 3.39851E-19 9.96273E-20
 -1       936 1.12477E-04-4.49743E-05-2.89410E-05 7.29502E-06-5.21205E-19-3.01051E-18
 -1       937 9.25682E-05-3.47738E-05-2.47358E-05-2.02142E-05 3.00529E-19 7.86995E-19
 -1       938 9.59735E-05-2.66511E-05-2.97103E-05 8.90880E-08 3.01451E-19 2.76131E-19
 -1       939 9.28037E-05-2.55715E-05-2.88143E-05 5.83700E-07 9.88247E-19 3.73410E-19
 -1       940 9.56047E-05-2.80231E-05-2.89635E-05-2.09133E-06 4.45896E-19-6.54433E-20
 -1       941 9.53347E-05-2.78596E-05-2.89179E-05-2.44455E-06 2.07581E-19-1.78819E-19
 -1       942 9.36797E-05-2.63127E-05-2.88719E-05 1.91763E-06 7.11742E-19 1.29991E-18
 -1       943 9.44526E-05-2.69535E-05-2.89279E-05 2.26724E-06-1.04716E-19 6.10834E-18
 -1       944 1.15556E-04-4.93502E-05-2.83606E-05 1.11235E-05 2.66714E-19-1.66349E-18
 -1       945 9.44494E-05-2.19974E-05-3.10501E-05 4.07531E-07-3.32756E-20-4.39126E-19
 -1       946 9.50854E-05-2.35763E-05-3.06460E-05-1.92673E-06-2.56073E-19-3.64455E-19
 -1       947 9.46181E-05-2.23685E-05-3.09627E-05 1.13014E-06-6.44477E-22-5.29879E-19
 -1       948 9.47629E-05-2.27249E-05-3.08730E-05-1.41120E-06-2.11840E-19-6.94426E-19
 -1       949 6.03944E-05-1.44735E-05-1.95902E-05 7.83510E-06-1.01222E-18 2.96878E-19
 -1       950 8.35857E-05-2.97029E-05-2.30252E-05 2.23140E-05 6.22632E-19-1.15985E-18
 -1       951 9.61813E-05-2.67014E-05-2.97771E-05-1.87632E-07 8.22362E-20-8.21833E-20
 -1       952 7.09937E-05-1.79458E-05-2.27046E-05 1.15013E-05 2.44000E-19-1.05500E-18
 -1       953 9.60762E-05-2.77052E-05-2.93019E-05 1.12203E-06-4.28784E-20-7.85494E-20
 -1       954 9.57234E-05-2.77068E-05-2.91500E-05 1.42526E-06-1.37294E-19 6.87103E-20
 -1       955 9.52279E-05-2.74643E-05-2.90416E-05 1.69954E-06-3.02597E-19-2.38642E-20
 -1       956 9.45966E-05-2.70208E-05-2.89611E-05 1.97996E-06-1.87729E-19 1.43557E-19
 -1       957 9.38220E-05-2.64073E-05-2.88920E-05 2.29264E-06-5.80582E-19-1.84739E-20
 -1       958 9.28829E-05-2.56454E-05-2.88162E-05 2.65572E-06-2.32860E-19-1.76846E-19
 -1       959 9.17484E-05-2.47554E-05-2.87114E-05 3.08252E-06 2.02183E-19-3.30714E-19
 -1       960 9.03787E-05-2.37620E-05-2.85502E-05 3.58222E-06-5.08748E-21-6.44975E-19
 -1       961 8.87218E-05-2.26945E-05-2.82977E-05 4.17091E-06-3.71250E-19-4.57424E-19
 -1       962 8.67184E-05-2.16021E-05-2.79076E-05 4.88306E-06-2.60641E-19-8.91002E-19
 -1       963 8.42868E-05-2.05493E-05-2.73173E-05 5.79583E-06 3.31588E-19-2.29388E-18
 -1       964 8.13185E-05-1.96372E-05-2.64368E-05 7.08248E-06 4.09984E-19-2.25380E-18
 -1       965 7.76896E-05-1.90086E-05-2.51452E-05 9.04117E-06 4.19297E-19-1.72732E-18
 -1       966 9.57776E-05-2.59172E-05-2.99425E-05 9.10100E-07 2.38799E-19 1.31719E-19
 -1       967 9.25386E-05-2.52496E-05-2.88385E-05-2.08470E-06 3.17355E-19 1.18944E-19
 -1       968 7.84307E-05-1.92428E-05-2.53622E-05-9.37208E-06-2.95008E-20-1.21198E-18
 -1       969 8.18321E-05-1.97491E-05-2.66067E-05-7.30798E-06-9.97273E-19 2.26115E-19
 -1       970 8.46067E-05-2.05605E-05-2.74487E-05-5.92650E-06-2.29880E-19 6.96728E-19
 -1       971 8.68790E-05-2.15177E-05-2.80120E-05-4.91563E-06-1.53374E-18-5.46868E-19
 -1       972 8.87368E-05-2.25146E-05-2.83810E-05-4.10782E-06-5.93630E-19-1.10533E-18
 -1       973 9.02436E-05-2.34779E-05-2.86145E-05-3.42387E-06-2.24631E-19 1.59514E-19
 -1       974 9.14544E-05-2.43574E-05-2.87562E-05-2.84024E-06-4.69829E-20-3.89752E-19
 -1       975 9.13953E-05-2.60150E-05-2.80193E-05-8.06539E-06-1.61223E-19 5.24777E-19
 -1       976 9.31446E-05-2.58634E-05-2.88349E-05 1.34001E-06 1.39750E-18-7.37511E-19
 -1       977 9.15474E-05-2.54853E-05-2.83119E-05-6.62775E-06-1.53628E-19 6.75892E-19
 -1       978 9.19975E-05-2.54394E-05-2.85249E-05-5.45439E-06 7.69722E-20 2.40823E-19
 -1       979 9.17964E-05-2.72900E-05-2.76461E-05-9.81082E-06-5.87595E-19 5.16831E-19
 -1       980 9.31931E-05-2.96616E-05-2.72326E-05-1.18151E-05-1.80574E-20 1.74373E-19
 -1       981 9.60181E-05-3.35452E-05-2.67943E-05-1.40152E-05 7.51465E-19 1.85574E-19
 -1       982 9.38684E-05-2.65824E-05-2.88368E-05-3.13441E-06-3.33839E-19 3.09163E-19
 -1       983 7.51726E-05-2.38968E-05-2.19142E-05-2.00526E-05 1.03180E-18 4.28880E-19
 -1       984 9.49309E-05-2.30996E-05-3.07876E-05 1.73985E-06 5.97232E-20-2.83452E-19
 -1       985 9.20372E-05-2.78111E-05-2.75272E-05 1.03925E-05 3.94282E-19-1.83947E-18
 -1       986 9.40156E-05-3.07511E-05-2.71178E-05 1.25183E-05 1.19907E-19-1.81096E-18
 -1       987 9.12851E-05-2.53575E-05-2.82547E-05 6.90874E-06-2.72801E-19-4.35968E-20
 -1       988 9.15962E-05-2.51065E-05-2.84958E-05 5.59471E-06 4.05030E-19-4.71913E-19
 -1       989 9.20803E-05-2.51999E-05-2.86632E-05 4.50894E-06-1.06579E-18 4.99919E-19
 -1       990 9.26241E-05-2.54899E-05-2.87718E-05 3.61364E-06-1.72448E-18 2.41751E-18
 -1       991 9.31506E-05-2.58626E-05-2.88372E-05 2.87525E-06 6.22734E-19 3.25367E-18
 -1       992 6.74297E-05-1.64552E-05-2.17860E-05-9.90831E-06 5.62979E-21-1.03736E-18
 -1       993 1.07067E-04-4.29563E-05-2.74341E-05 1.32990E-05 1.70593E-19-2.48573E-18
 -1       994 9.20366E-05-2.49175E-05-2.87650E-05-7.97668E-07-6.70413E-19 2.02068E-19
 -1       995 9.12027E-05-3.34995E-05-2.46748E-05 1.99696E-05-1.46074E-18 1.58744E-20
 -1       996 6.76215E-05-1.55091E-05-2.23068E-05-4.53082E-06-1.77023E-19-5.23026E-19
 -1       997 9.62326E-05-2.74294E-05-2.94871E-05-7.77705E-07 1.18528E-19-1.68215E-19
 -1       998 9.87611E-05-3.58959E-05-2.69785E-05 1.39814E-05-2.22961E-18-8.69900E-19
 -1       999 9.44582E-05-2.70475E-05-2.88903E-05-2.64626E-06 2.14863E-19 5.63717E-19
 -1      1000 9.45434E-05-2.22053E-05-3.10021E-05-7.41960E-07-1.72173E-19-8.29857E-19
 -1      1001 7.60930E-05-2.29548E-05-2.27541E-05-1.72333E-05 6.24575E-19 9.62984E-19
 -1      1002 9.60999E-05-2.77936E-05-2.92741E-05-1.22256E-06 2.97473E-19-5.52098E-20
 -1      1003 7.39361E-05-2.23117E-05-2.20751E-05 1.78444E-05-2.35946E-18-1.64490E-18
 -1      1004 9.13362E-05-2.61653E-05-2.79307E-05 8.49516E-06 7.57168E-19-1.03909E-18
 -1      1005 7.60850E-05-2.03464E-05-2.38602E-05-1.35842E-05-4.49253E-19-1.35846E-18
 -1      1006 9.44533E-05-2.20033E-05-3.10495E-05-1.80394E-07-2.56336E-20-7.12460E-19
 -1      1007 9.55769E-05-2.46042E-05-3.04169E-05-7.77759E-07-2.47801E-19-7.62277E-19
 -1      1008 9.62600E-05-2.73982E-05-2.95123E-05 7.46463E-07-3.21132E-19-2.88963E-19
 -1      1009 9.62248E-05-2.66955E-05-2.97981E-05 2.48631E-07-4.06911E-19-5.02294E-19
 -1      1010 9.60074E-05-2.58193E-05-3.00809E-05-2.20300E-07-3.60958E-19-6.67630E-19
 -1      1011 9.99662E-05-3.76497E-05-2.66867E-05-1.53230E-05 1.84946E-19 1.75491E-19
 -1      1012 7.19763E-05-1.63468E-05-2.38310E-05 3.09151E-06 8.27770E-19-1.52432E-18
 -1      1013 9.32352E-05-2.61055E-05-2.87699E-05-3.74350E-06-6.18786E-20 2.92513E-19
 -1      1014 9.57893E-05-2.53699E-05-3.01730E-05 7.47199E-07 1.41569E-19-1.07622E-19
 -1      1015 9.19836E-05-2.49169E-05-2.87421E-05 2.62606E-07-8.78104E-21-2.55562E-19
 -1      1016 9.54034E-05-2.39769E-05-3.06104E-05 6.48674E-08-9.57329E-20-4.13129E-19
 -1      1017 9.49903E-05-2.74499E-05-2.89459E-05-2.24786E-06 2.44163E-19 4.80241E-19
 -1      1018 9.22520E-05-2.51806E-05-2.87450E-05 2.16460E-06-6.11912E-19-1.07703E-18
 -1      1019 9.58283E-05-2.78745E-05-2.91231E-05-1.58012E-06 4.40290E-19-4.28432E-20
 -1      1020 6.61223E-05-1.47635E-05-2.19586E-05-2.26120E-06-2.42294E-19 3.14425E-19
 -1      1021 9.54634E-05-2.41795E-05-3.05544E-05 4.43494E-07 4.47017E-20-4.81931E-19
 -1      1022 9.25934E-05-2.56928E-05-2.86719E-05-4.50906E-06-1.09049E-19-9.17006E-20
 -1      1023 7.68574E-05-1.75485E-05-2.54124E-05-3.54643E-06-5.57088E-19-1.00819E-18
 -1      1024 9.54677E-05-2.74697E-05-2.91420E-05 9.93184E-07 5.96254E-20-3.88668E-19
 -1      1025 9.48150E-05-2.70957E-05-2.90226E-05 1.15928E-06-1.25081E-19 2.02186E-19
 -1      1026 9.39967E-05-2.65162E-05-2.89203E-05 1.32629E-06-1.03959E-19 2.89998E-19
 -1      1027 9.30057E-05-2.57677E-05-2.88165E-05 1.50047E-06-4.36738E-19 3.62735E-19
 -1      1028 9.18118E-05-2.48679E-05-2.86904E-05 1.68644E-06-7.19298E-19-5.75339E-20
 -1      1029 9.03763E-05-2.38413E-05-2.85152E-05 1.87757E-06 1.41537E-19-7.42179E-19
 -1      1030 8.86490E-05-2.27147E-05-2.82581E-05 2.06230E-06-1.32294E-19-1.04298E-18
 -1      1031 8.65449E-05-2.15021E-05-2.78766E-05 2.24661E-06-3.09043E-19-6.26480E-19
 -1      1032 8.39718E-05-2.02474E-05-2.73119E-05 2.43014E-06-2.02542E-19-3.40211E-19
 -1      1033 8.07153E-05-1.89284E-05-2.64802E-05 2.62825E-06 1.17639E-19-7.27586E-19
 -1      1034 7.68943E-05-1.76765E-05-2.53737E-05 2.80490E-06 3.43098E-19-1.69245E-18
 -1      1035 9.10734E-05-2.44196E-05-2.85663E-05 3.29573E-06-1.56419E-18-1.59649E-18
 -1      1036 8.34369E-05-2.56683E-05-2.47329E-05 1.55891E-05-9.82326E-19-4.39996E-19
 -1      1037 9.06724E-05-2.38841E-05-2.86232E-05-1.11878E-06 9.83075E-19 3.25310E-19
 -1      1038 8.09454E-05-1.88712E-05-2.66047E-05-3.00747E-06-3.51895E-19-6.13378E-19
 -1      1039 8.40500E-05-2.00949E-05-2.74094E-05-2.65572E-06-1.75039E-18-1.16930E-18
 -1      1040 8.64992E-05-2.12774E-05-2.79525E-05-2.37129E-06-9.46216E-19-1.34236E-19
 -1      1041 8.84411E-05-2.23786E-05-2.83148E-05-2.10135E-06-1.17802E-18-1.64848E-18
 -1      1042 8.96270E-05-2.31500E-05-2.84911E-05-1.54950E-06 4.49097E-19-1.43180E-18
 -1      1043 8.75764E-05-2.53881E-05-2.66517E-05-1.09608E-05-5.72748E-20 7.16036E-19
 -1      1044 8.87659E-05-2.39395E-05-2.77825E-05-6.52563E-06-1.08406E-20 1.19050E-18
 -1      1045 8.97924E-05-2.41013E-05-2.81527E-05-5.13124E-06-3.47456E-19 9.07038E-19
 -1      1046 9.19479E-05-2.49248E-05-2.87243E-05 1.23470E-06-4.80885E-19 1.53931E-19
 -1      1047 8.68346E-05-2.80012E-05-2.51982E-05-1.59791E-05 5.80607E-19 1.22782E-18
 -1      1048 9.54346E-05-2.41165E-05-3.05624E-05-4.69216E-07-1.28249E-19-7.74976E-19
 -1      1049 8.79340E-05-2.42684E-05-2.72835E-05-8.41407E-06-9.07265E-20 1.30292E-18
 -1      1050 8.75156E-05-2.59002E-05-2.64061E-05 1.18797E-05-8.16510E-20-3.28293E-19
 -1      1051 9.54068E-05-2.39934E-05-3.06042E-05-2.14696E-07-7.16023E-20-6.25371E-19
 -1      1052 9.01377E-05-2.39605E-05-2.83626E-05 4.21729E-06-8.50852E-20 1.40495E-18
 -1      1053 8.91720E-05-2.36845E-05-2.80669E-05 5.41884E-06 3.29724E-19 1.14423E-18
 -1      1054 9.16729E-05-2.47817E-05-2.86677E-05 2.68442E-06-1.29178E-18-2.69310E-18
 -1      1055 9.59859E-05-2.55786E-05-3.01729E-05 2.73162E-07 7.40652E-20-1.10245E-19
 -1      1056 9.54516E-05-2.77416E-05-2.90186E-05-1.90602E-06 2.21855E-19 2.39618E-19
 -1      1057 9.62974E-05-2.68277E-05-2.97731E-05-3.15264E-07 3.11361E-21-2.42462E-19
 -1      1058 9.36849E-05-2.63982E-05-2.88374E-05-2.20416E-06 2.51680E-19 7.07640E-19
 -1      1059 9.62757E-05-2.74415E-05-2.95004E-05-7.02893E-07-9.25960E-20 2.31936E-19
 -1      1060 7.06703E-05-1.73051E-05-2.28498E-05 8.92346E-06-2.29304E-18-1.22057E-18
 -1      1061 9.59525E-05-2.75970E-05-2.92952E-05 8.11070E-07-3.92918E-19-4.96615E-19
 -1      1062 8.82711E-05-2.37416E-05-2.76556E-05 6.99089E-06-3.80034E-19 4.11879E-19
 -1      1063 7.57451E-05-1.95327E-05-2.40955E-05-9.97346E-06 1.10838E-19 4.93924E-19
 -1      1064 9.63097E-05-2.68552E-05-2.97657E-05 3.10262E-07-9.60240E-20-6.77869E-19
 -1      1065 8.75794E-05-2.43440E-05-2.71059E-05 9.06821E-06-1.21263E-19 8.46919E-19
 -1      1066 9.62513E-05-2.74240E-05-2.94977E-05 5.90376E-07-7.93273E-20-3.77600E-19
 -1      1067 7.13875E-05-1.61898E-05-2.36309E-05-4.40152E-06-2.08249E-19-6.67023E-19
 -1      1068 9.05614E-05-2.38763E-05-2.85800E-05 3.04418E-07-1.02538E-19 5.32875E-19
 -1      1069 9.08208E-05-2.45196E-05-2.84151E-05-4.08495E-06-1.32902E-19 8.65836E-19
 -1      1070 9.59634E-05-2.54405E-05-3.02258E-05-1.52506E-07-3.46318E-19-6.89936E-19
 -1      1071 9.44493E-05-2.69529E-05-2.89272E-05-1.83226E-06-7.39897E-20 7.36960E-19
 -1      1072 9.28212E-05-2.57738E-05-2.87348E-05-2.68347E-06-2.17516E-19 3.23782E-19
 -1      1073 9.60416E-05-2.76909E-05-2.92932E-05-1.00641E-06 2.84526E-19 2.92237E-19
 -1      1074 9.59871E-05-2.54479E-05-3.02325E-05-2.07074E-08-1.18371E-19-4.95995E-19
 -1      1075 9.60202E-05-2.55353E-05-3.02074E-05 8.55015E-08 2.75849E-20-3.56975E-19
 -1      1076 7.45793E-05-1.73314E-05-2.45292E-05-3.09645E-06 4.17463E-19 1.10161E-19
 -1      1077 9.61953E-05-2.62455E-05-2.99796E-05 7.02520E-08-1.75497E-19-7.68876E-19
 -1      1078 9.18574E-05-2.51210E-05-2.86006E-05-3.29104E-06-1.05877E-19 6.09400E-19
 -1      1079 9.61435E-05-2.74573E-05-2.94365E-05 2.64723E-07-1.01208E-19-8.42030E-19
 -1      1080 9.51314E-05-2.72382E-05-2.90971E-05 3.81250E-07 2.90189E-19-5.82464E-19
 -1      1081 9.43557E-05-2.67518E-05-2.89731E-05 4.14396E-07-8.40984E-20-2.95757E-19
 -1      1082 9.33954E-05-2.60643E-05-2.88551E-05 4.32570E-07-3.10152E-19-2.10364E-19
 -1      1083 9.22449E-05-2.52234E-05-2.87235E-05 4.13118E-07-6.82660E-19 2.96756E-20
 -1      1084 9.09061E-05-2.42775E-05-2.85559E-05 3.49200E-07-4.74296E-19 5.08956E-19
 -1      1085 8.92727E-05-2.31878E-05-2.83191E-05 2.34887E-07-2.40252E-19 2.74829E-19
 -1      1086 8.73125E-05-2.20315E-05-2.79765E-05-1.18941E-08-7.56779E-20 1.62023E-19
 -1      1087 8.49626E-05-2.08338E-05-2.74834E-05-4.39972E-07-2.02212E-20-4.40697E-20
 -1      1088 8.21012E-05-1.96184E-05-2.67761E-05-1.04920E-06-1.45346E-19 3.73461E-19
 -1      1089 7.83422E-05-1.80431E-05-2.58370E-05 1.44391E-06-5.78689E-19-2.98965E-18
 -1      1090 8.21716E-05-1.94581E-05-2.68757E-05 6.36786E-07-1.08818E-18-2.41491E-18
 -1      1091 8.48191E-05-2.05334E-05-2.75504E-05 1.72843E-07 1.96589E-19-4.13471E-19
 -1      1092 8.70630E-05-2.16673E-05-2.80283E-05-1.29366E-07-1.14784E-18 2.07489E-18
 -1      1093 8.54568E-05-2.20410E-05-2.71835E-05-5.71676E-06-1.74686E-19 6.10575E-19
 -1      1094 8.79934E-05-2.25963E-05-2.80275E-05 3.46499E-06 7.01955E-20-7.82569E-19
 -1      1095 9.57348E-05-2.74953E-05-2.92455E-05 3.31031E-07-1.83173E-19-6.29377E-19
 -1      1096 7.29446E-05-1.69826E-05-2.40013E-05 4.80038E-06-9.28644E-19-2.39402E-18
 -1      1097 8.93739E-05-2.32702E-05-2.83346E-05 2.59271E-06-3.03240E-19-4.21160E-19
 -1      1098 8.72419E-05-2.25420E-05-2.77296E-05-4.25331E-06-5.61649E-19 9.44817E-19
 -1      1099 8.27125E-05-2.17488E-05-2.61106E-05 8.68743E-06-1.13036E-18 2.11463E-18
 -1      1100 9.63414E-05-2.70038E-05-2.97143E-05-2.67730E-07-3.09277E-19-3.15342E-19
 -1      1101 7.95945E-05-2.11197E-05-2.50591E-05 1.03810E-05-2.65007E-18 6.01696E-19
 -1      1102 8.64444E-05-2.20566E-05-2.75885E-05 4.64541E-06 6.46910E-19 3.64880E-20
 -1      1103 8.47203E-05-2.17700E-05-2.69792E-05 6.31515E-06 1.15534E-18 2.48811E-18
 -1      1104 9.63325E-05-2.70753E-05-2.96826E-05 1.66761E-07-2.14112E-21-3.70319E-19
 -1      1105 8.13248E-05-2.07302E-05-2.59805E-05-7.36121E-06 2.24005E-19 2.70626E-19
 -1      1106 7.90698E-05-1.86528E-05-2.58739E-05-1.96580E-06-1.28460E-19 4.60797E-19
 -1      1107 8.93901E-05-2.30862E-05-2.84174E-05 1.50547E-07 5.13578E-19 3.44877E-18
 -1      1108 9.62117E-05-2.74652E-05-2.94627E-05-4.61453E-07-1.73251E-19-9.82994E-20
 -1      1109 8.83751E-05-2.24267E-05-2.82512E-05 2.52192E-08-1.71682E-18 3.53055E-18
 -1      1110 8.88626E-05-2.32411E-05-2.81244E-05-3.19599E-06-3.25653E-19 4.13559E-19
 -1      1111 9.12518E-05-2.44296E-05-2.86357E-05 1.60148E-06-1.08003E-18-3.77664E-19
 -1      1112 9.63114E-05-2.66135E-05-2.98680E-05 9.24997E-08-1.45000E-19-2.79604E-19
 -1      1113 9.37986E-05-2.64126E-05-2.88779E-05-1.18271E-06 1.97543E-19-4.52101E-20
 -1      1114 9.51046E-05-2.73864E-05-2.90221E-05-1.53367E-06 1.03638E-19 4.44302E-19
 -1      1115 9.56409E-05-2.76498E-05-2.91390E-05-1.27032E-06 1.37849E-19 3.40280E-19
 -1      1116 9.03279E-05-2.38209E-05-2.85016E-05 1.99097E-06-1.23000E-18 2.22252E-19
 -1      1117 9.27878E-05-2.56891E-05-2.87564E-05-1.47075E-06 6.50204E-20 4.76942E-19
 -1      1118 9.39380E-05-2.64849E-05-2.89103E-05-5.00284E-07-2.60560E-20 5.39332E-20
 -1      1119 9.02905E-05-2.39449E-05-2.84371E-05-1.27615E-06-6.33290E-19 4.32917E-19
 -1      1120 8.43954E-05-2.07833E-05-2.72781E-05 3.14291E-06 2.02115E-18 4.64896E-19
 -1      1121 9.59736E-05-2.75228E-05-2.93370E-05-2.23612E-07-2.75560E-19-3.03955E-19
 -1      1122 9.46321E-05-2.69904E-05-2.89892E-05-9.67495E-07-1.04853E-19 3.59250E-19
 -1      1123 9.54709E-05-2.74129E-05-2.91678E-05-2.94149E-07 3.28793E-19-9.77587E-20
 -1      1124 8.08097E-05-1.95860E-05-2.62561E-05 4.32532E-06-5.23392E-19-3.30046E-18
 -1      1125 9.62932E-05-2.65018E-05-2.99123E-05-5.26653E-08-9.77818E-21-1.51597E-19
 -1      1126 9.16564E-05-2.48730E-05-2.86198E-05-1.39962E-06-1.00045E-19 5.34855E-19
 -1      1127 9.47900E-05-2.70497E-05-2.90315E-05-3.81155E-07 1.11877E-19-6.68995E-20
 -1      1128 9.58122E-05-2.75835E-05-2.92407E-05-7.25708E-07 2.50550E-19 4.82990E-19
 -1      1129 9.52949E-05-2.73858E-05-2.91038E-05-8.45698E-07 2.41732E-20 3.41064E-19
 -1      1130 1.16700E-04 2.57131E-10-4.18012E-05-4.14277E-05-7.53859E-20 4.09562E-18
 -1      1131 8.85676E-05 7.18333E-11-3.72169E-05-2.41593E-05-4.72221E-20 1.35525E-18
 -1      1132 8.40417E-05 4.14477E-11-3.57510E-05-1.78740E-05-3.55754E-20 1.13026E-20
 -1      1133 8.23384E-05 3.20231E-11-3.50733E-05-1.38316E-05-3.21343E-20-7.07478E-19
 -1      1134 8.15657E-05 2.73488E-11-3.47522E-05-1.05257E-05-1.73377E-20-1.11703E-18
 -1      1135 8.11849E-05 2.45919E-11-3.45964E-05-7.63093E-06-9.27104E-21-1.37141E-18
 -1      1136 8.09895E-05 2.29173E-11-3.45191E-05-4.97134E-06-1.03497E-20-1.47016E-18
 -1      1137 8.08955E-05 2.20085E-11-3.44834E-05-2.42712E-06-5.87298E-21-1.50708E-18
 -1      1138 8.08689E-05 2.17316E-11-3.44734E-05 5.29192E-08-9.05763E-22-1.52107E-18
 -1      1139 8.08993E-05 2.20510E-11-3.44846E-05 2.53538E-06 1.13820E-20-1.49761E-18
 -1      1140 8.09974E-05 2.30160E-11-3.45216E-05 5.08777E-06 9.98242E-21-1.37563E-18
 -1      1141 8.11988E-05 2.47527E-11-3.45998E-05 7.76344E-06 1.17129E-20-1.21442E-18
 -1      1142 8.15861E-05 2.76441E-11-3.47578E-05 1.06851E-05 2.17052E-20-9.60813E-19
 -1      1143 8.23611E-05 3.25084E-11-3.50830E-05 1.40369E-05 3.10755E-20-5.83857E-19
 -1      1144 8.40383E-05 4.19125E-11-3.57711E-05 1.81247E-05 4.41516E-20 7.63256E-20
 -1      1145 8.82658E-05 6.66596E-11-3.72870E-05 2.40010E-05 4.78574E-20 1.40525E-18
 -1      1146 1.06473E-04 1.63651E-10-4.05808E-05 3.61626E-05 8.93620E-20 4.02415E-18
 -1      1147 1.30019E-04-2.57129E-05-4.02135E-05-2.60791E-05-3.04085E-19 5.86697E-18
 -1      1148 9.72758E-05-2.88086E-05-3.15220E-05-6.81390E-07-1.09505E-19 5.16087E-18
 -1      1149 8.99811E-05-2.69734E-05-2.78392E-05 3.85615E-07 3.45431E-21 3.99687E-18
 -1      1150 8.80728E-05-2.65201E-05-2.65911E-05 2.49064E-07-2.84881E-20 3.14712E-18
 -1      1151 8.77229E-05-2.63963E-05-2.63378E-05 1.63865E-07-2.22677E-21 2.50552E-18
 -1      1152 8.81030E-05-2.64797E-05-2.64296E-05 1.15777E-07-4.72436E-20 2.51984E-18
 -1      1153 8.88308E-05-2.66773E-05-2.66456E-05 8.49639E-08 9.04108E-22 2.33969E-18
 -1      1154 8.97186E-05-2.69319E-05-2.69113E-05 6.36974E-08-3.16190E-20 2.07520E-18
 -1      1155 9.06714E-05-2.72117E-05-2.71972E-05 4.82492E-08 5.88620E-20 1.77430E-18
 -1      1156 9.16476E-05-2.75016E-05-2.74913E-05 3.68650E-08-4.11797E-20 1.10358E-18
 -1      1157 9.26404E-05-2.77987E-05-2.77919E-05 2.87562E-08 4.67409E-20 8.51486E-19
 -1      1158 9.36694E-05-2.81081E-05-2.81049E-05 2.36419E-08 4.35622E-20 1.04602E-18
 -1      1159 9.47753E-05-2.84417E-05-2.84423E-05 2.15726E-08-2.47236E-20 1.11431E-19
 -1      1160 9.60175E-05-2.88170E-05-2.88220E-05 2.28849E-08 8.72688E-20 1.44383E-19
 -1      1161 9.74724E-05-2.92566E-05-2.92670E-05 2.82129E-08-7.87699E-20 5.46131E-19
 -1      1162 9.92315E-05-2.97877E-05-2.98045E-05 3.85098E-08-1.51898E-19 1.30522E-19
 -1      1163 1.01398E-04-3.04404E-05-3.04650E-05 5.50127E-08-2.61902E-20-7.64520E-19
 -1      1164 1.04077E-04-3.12455E-05-3.12783E-05 7.90165E-08 1.98783E-19-2.83783E-19
 -1      1165 1.07355E-04-3.22277E-05-3.22668E-05 1.11174E-07 2.22073E-20-6.39483E-19
 -1      1166 1.11261E-04-3.33934E-05-3.34314E-05 1.49804E-07 1.92000E-19-1.30117E-18
 -1      1167 1.15688E-04-3.47086E-05-3.47274E-05 1.87419E-07 3.38986E-20-1.69261E-18
 -1      1168 1.20277E-04-3.60639E-05-3.60298E-05 2.04957E-07-1.46504E-19-1.79809E-19
 -1      1169 1.24260E-04-3.72287E-05-3.70950E-05 1.65323E-07-1.58104E-19-5.51445E-19
 -1      1170 1.26351E-04-3.78208E-05-3.75496E-05 1.49146E-08-1.10644E-20-6.06330E-19
 -1      1171 1.24875E-04-3.73471E-05-3.69637E-05-2.90599E-07 2.99049E-19 3.62689E-19
 -1      1172 1.18457E-04-3.54193E-05-3.50700E-05-7.13281E-07 4.87838E-20 2.89018E-18
 -1      1173 1.07408E-04-3.21648E-05-3.20905E-05-1.05183E-06 2.31794E-19 3.93722E-18
 -1      1174 9.49719E-05-2.85593E-05-2.89279E-05-9.94457E-07-1.08897E-19 1.45510E-18
 -1      1175 8.66744E-05-2.61848E-05-2.68944E-05-3.98791E-07 2.42251E-19 5.52213E-19
 -1      1176 8.69529E-05-2.62645E-05-2.69623E-05 4.45791E-07 1.56966E-19 9.36766E-19
 -1      1177 9.56509E-05-2.87544E-05-2.90966E-05 1.01359E-06-2.57902E-19-8.51480E-19
 -1      1178 1.08149E-04-3.23811E-05-3.22838E-05 1.03962E-06-1.38075E-19-3.18241E-18
 -1      1179 1.18977E-04-3.55742E-05-3.52174E-05 6.86438E-07 9.21810E-21-3.55627E-18
 -1      1180 1.25082E-04-3.74107E-05-3.70324E-05 2.67521E-07 2.68344E-19-4.70664E-18
 -1      1181 1.26303E-04-3.78087E-05-3.75470E-05-2.84050E-08 1.42917E-19-5.06655E-18
 -1      1182 1.24065E-04-3.71729E-05-3.70470E-05-1.70728E-07 2.07970E-19-3.49838E-18
 -1      1183 1.20035E-04-3.59935E-05-3.59643E-05-2.05363E-07 5.07157E-19-2.92123E-18
 -1      1184 1.15471E-04-3.46454E-05-3.46664E-05-1.85616E-07-1.99829E-19-2.66440E-18
 -1      1185 1.11116E-04-3.33514E-05-3.33904E-05-1.47279E-07 2.36747E-20-3.63181E-18
 -1      1186 1.07315E-04-3.22172E-05-3.22568E-05-1.08457E-07-3.86053E-20-2.87795E-18
 -1      1187 1.04171E-04-3.12755E-05-3.13089E-05-7.60890E-08-1.87026E-19-2.65976E-18
 -1      1188 1.01658E-04-3.05205E-05-3.05462E-05-5.15541E-08 3.14352E-19 9.58259E-19
 -1      1189 9.96978E-05-2.99300E-05-2.99488E-05-3.39917E-08-2.33676E-19-6.93925E-19
 -1      1190 9.81972E-05-2.94770E-05-2.94903E-05-2.18865E-08-9.57602E-20 4.36540E-19
 -1      1191 9.70692E-05-2.91358E-05-2.91456E-05-1.36581E-08-1.93638E-19 3.76323E-18
 -1      1192 9.62425E-05-2.88853E-05-2.88935E-05-7.72472E-09 2.40767E-19 4.16903E-18
 -1      1193 9.56667E-05-2.87103E-05-2.87190E-05-2.29762E-09 3.67416E-19 1.42122E-18
 -1      1194 9.53134E-05-2.86024E-05-2.86121E-05 5.10654E-09 1.01574E-19-4.99893E-19
 -1      1195 9.51777E-05-2.85650E-05-2.85613E-05 1.90194E-08 3.74922E-19 1.45452E-18
 -1      1196 9.51948E-05-2.85582E-05-2.85391E-05 1.40461E-08 3.34495E-19 1.57215E-18
 -1      1197 1.30853E-04-3.76794E-05-3.86010E-05 1.21632E-05-4.52369E-20 6.17233E-18
 -1      1198 9.63795E-05-2.81362E-05-3.12751E-05 8.01910E-07 2.50404E-20 5.00152E-18
 -1      1199 9.01974E-05-2.68768E-05-2.78208E-05 1.21267E-07-8.53650E-22 3.97089E-18
 -1      1200 8.81633E-05-2.64485E-05-2.66285E-05 1.07322E-08 9.59960E-20 2.97330E-18
 -1      1201 8.77693E-05-2.63605E-05-2.63665E-05-2.27843E-08-2.46020E-20 2.40417E-18
 -1      1202 8.81332E-05-2.64646E-05-2.64477E-05-3.08938E-08-7.79709E-20 2.05930E-18
 -1      1203 8.88552E-05-2.66734E-05-2.66591E-05-3.10045E-08 8.87565E-22 2.02522E-18
 -1      1204 8.97417E-05-2.69344E-05-2.69230E-05-2.80565E-08 3.33418E-20 1.87634E-18
 -1      1205 9.06953E-05-2.72178E-05-2.72081E-05-2.36419E-08-8.64437E-20 1.23329E-18
 -1      1206 9.16717E-05-2.75095E-05-2.75015E-05-1.85369E-08-5.70702E-20 1.13937E-18
 -1      1207 9.26609E-05-2.78059E-05-2.78001E-05-1.32855E-08 6.40756E-20 3.73634E-19
 -1      1208 9.36766E-05-2.81108E-05-2.81079E-05-8.37029E-09 4.34030E-20 8.16546E-19
 -1      1209 9.47492E-05-2.84331E-05-2.84339E-05-4.30166E-09-3.65291E-20 1.18924E-18
 -1      1210 9.59204E-05-2.87851E-05-2.87901E-05-1.69487E-09-9.30777E-20 6.81964E-19
 -1      1211 9.72377E-05-2.91806E-05-2.91904E-05-1.34299E-09 1.35376E-19 2.87161E-19
 -1      1212 9.87469E-05-2.96328E-05-2.96476E-05-4.26891E-09-3.50807E-21-1.47576E-19
 -1      1213 1.00482E-04-3.01513E-05-3.01704E-05-1.17150E-08 9.88894E-22 1.33679E-19
 -1      1214 1.02448E-04-3.07368E-05-3.07584E-05-2.49816E-08 2.04080E-19-6.80975E-19
 -1      1215 1.04600E-04-3.13752E-05-3.13948E-05-4.49534E-08 3.49162E-20-1.74202E-18
 -1      1216 1.06813E-04-3.20283E-05-3.20377E-05-7.10867E-08-9.87155E-20-1.12954E-18
 -1      1217 1.08844E-04-3.26245E-05-3.26108E-05-9.96628E-08 5.05300E-20-3.21952E-19
 -1      1218 1.10312E-04-3.30521E-05-3.29985E-05-1.21499E-07-9.45302E-20 2.05598E-18
 -1      1219 1.10701E-04-3.31620E-05-3.30529E-05-1.20448E-07 1.26916E-19 2.37365E-18
 -1      1220 1.09447E-04-3.27924E-05-3.26251E-05-7.58599E-08 2.40776E-20 1.47741E-18
 -1      1221 1.06145E-04-3.18268E-05-3.16267E-05 2.69362E-08 1.46576E-21 2.31865E-18
 -1      1222 1.00864E-04-3.02810E-05-3.01124E-05 1.78338E-07 1.85474E-19 2.41854E-18
 -1      1223 9.44408E-05-2.83891E-05-2.83403E-05 3.29795E-07 9.49268E-20 2.37831E-18
 -1      1224 8.84954E-05-2.66140E-05-2.67510E-05 4.04443E-07-3.08254E-19 4.41812E-18
 -1      1225 8.49285E-05-2.55184E-05-2.58255E-05 3.43215E-07-1.75498E-19 4.88939E-18
 -1      1226 8.50326E-05-2.55079E-05-2.58745E-05 1.55493E-07-1.28888E-19 3.69965E-18
 -1      1227 8.87707E-05-2.65995E-05-2.68807E-05-7.72225E-08-1.09118E-19 2.24263E-18
 -1      1228 9.47969E-05-2.84034E-05-2.85082E-05-2.56226E-07 1.62768E-19 1.45531E-18
 -1      1229 1.01200E-04-3.03389E-05-3.02715E-05-3.27621E-07-1.16198E-19 1.21290E-18
 -1      1230 1.06390E-04-3.19128E-05-3.17446E-05-2.99555E-07-8.66323E-20 2.91199E-18
 -1      1231 1.09577E-04-3.28788E-05-3.26904E-05-2.16143E-07-7.28415E-21 2.82398E-18
 -1      1232 1.10732E-04-3.32276E-05-3.30724E-05-1.21814E-07-2.49876E-19 1.25001E-18
 -1      1233 1.10282E-04-3.30909E-05-3.29882E-05-4.35329E-08 3.70800E-19-1.60018E-18
 -1      1234 1.08797E-04-3.26426E-05-3.25890E-05 9.52903E-09 2.59222E-19-4.67467E-18
 -1      1235 1.06791E-04-3.20388E-05-3.20213E-05 3.92249E-08-4.10850E-19-3.93416E-18
 -1      1236 1.04644E-04-3.13938E-05-3.13985E-05 5.16584E-08 8.71467E-20-4.58502E-18
 -1      1237 1.02595E-04-3.07792E-05-3.07953E-05 5.32016E-08-1.29309E-19-4.06128E-18
 -1      1238 1.00775E-04-3.02332E-05-3.02534E-05 4.88770E-08-6.57082E-19 1.81777E-18
 -1      1239 9.92322E-05-2.97709E-05-2.97911E-05 4.21051E-08 1.04861E-19-5.51366E-19
 -1      1240 9.79727E-05-2.93936E-05-2.94117E-05 3.49786E-08 3.46657E-20-2.49804E-18
 -1      1241 9.69765E-05-2.90952E-05-2.91109E-05 2.86120E-08 1.44326E-20-4.56821E-18
 -1      1242 9.62171E-05-2.88678E-05-2.88818E-05 2.33733E-08 2.51058E-20-6.52998E-18
 -1      1243 9.56711E-05-2.87043E-05-2.87181E-05 1.88853E-08 4.51282E-19-7.84441E-18
 -1      1244 9.53264E-05-2.86009E-05-2.86150E-05 1.29792E-08 2.47866E-19-9.17688E-18
 -1      1245 9.51826E-05-2.85562E-05-2.85648E-05 3.89813E-11 3.25467E-20-5.07048E-18
 -1      1246 9.52017E-05-2.85618E-05-2.85417E-05-1.20707E-08-7.93818E-20-2.20272E-18
 -1      1247 9.52471E-05-2.86079E-05-2.85428E-05-1.23045E-08-2.10506E-18 3.16816E-20
 -1      1248 9.52458E-05-2.86182E-05-2.85676E-05-1.43375E-08-1.96182E-18 1.21130E-19
 -1      1249 9.52013E-05-2.84655E-05-2.86187E-05 3.58079E-09-2.80785E-18-7.80647E-19
 -1      1250 9.51077E-05-2.81471E-05-2.87086E-05 1.36168E-08-5.89656E-18-5.18480E-19
 -1      1251 9.49859E-05-2.77324E-05-2.88251E-05 1.76609E-08-7.43912E-18 8.52210E-19
 -1      1252 9.48603E-05-2.73049E-05-2.89459E-05 1.71527E-08-8.21785E-18 3.71965E-19
 -1      1253 9.47519E-05-2.69351E-05-2.90512E-05 1.36304E-08-1.11839E-18 4.51379E-19
 -1      1254 9.46772E-05-2.66806E-05-2.91237E-05 7.54372E-09-3.32754E-18-6.32758E-20
 -1      1255 9.46496E-05-2.65861E-05-2.91505E-05 1.57091E-10-3.80619E-18-5.86968E-19
 -1      1256 9.46737E-05-2.66680E-05-2.91269E-05-7.41283E-09-9.34841E-19 1.34389E-19
 -1      1257 9.47464E-05-2.69156E-05-2.90562E-05-1.39228E-08-9.76169E-19-1.02478E-18
 -1      1258 9.48557E-05-2.72874E-05-2.89506E-05-1.81361E-08-4.54548E-18-6.13259E-19
 -1      1259 9.49837E-05-2.77241E-05-2.88274E-05-1.86287E-08-1.16089E-18-2.21034E-19
 -1      1260 9.51090E-05-2.81510E-05-2.87081E-05-1.44854E-08 1.92036E-18 4.94507E-19
 -1      1261 9.52074E-05-2.84820E-05-2.86160E-05-4.27910E-09 2.35114E-18-8.35276E-19
 -1      1262 9.52412E-05-2.86171E-05-2.85642E-05 2.68343E-08-1.04672E-18-6.32619E-20
 -1      1263 9.52500E-05-2.86149E-05-2.85401E-05 1.57220E-08-1.54802E-18 1.79923E-19
 -1      1264 3.33518E-05-1.05404E-04 1.78707E-05-1.29024E-05 6.48954E-18 8.27736E-19
 -1      1265 1.79276E-05-6.54986E-05 9.62020E-06-2.44889E-05 8.30008E-18 3.02857E-18
 -1      1266 7.13974E-06-1.07801E-05-5.01694E-06-2.08382E-06 9.21741E-18 4.90263E-18
 -1      1267 2.84728E-05 2.40488E-05-2.38529E-05 4.74179E-05 7.75035E-18 7.24213E-18
 -1      1268 9.16042E-05 1.89929E-05-4.31175E-05 9.54298E-05 6.60008E-18 9.13271E-18
 -1      1269 1.84028E-04-2.11923E-05-6.03944E-05 1.10988E-04 3.35594E-18 5.91398E-18
 -1      1270 2.70436E-04-6.98312E-05-7.27902E-05 7.71429E-05 5.77676E-19 7.13202E-19
 -1      1271 3.08047E-04-9.29461E-05-7.74850E-05 3.72860E-06 1.52572E-19-7.97482E-19
 -1      1272 2.72950E-04-7.13358E-05-7.31252E-05-7.34101E-05 8.45021E-19-3.10014E-18
 -1      1273 1.83299E-04-2.10043E-05-6.02037E-05-1.11421E-04 2.17476E-18-4.05221E-18
 -1      1274 8.70726E-05 2.00048E-05-4.20725E-05-9.32695E-05 4.94159E-18-5.28379E-18
 -1      1275 2.38815E-05 2.06356E-05-2.11256E-05-3.99507E-05 7.97227E-18-6.74238E-18
 -1      1276 7.79163E-06-2.09765E-05-1.97082E-06 8.91078E-06 6.18673E-18-3.63970E-18
 -1      1277 2.12401E-05-7.55987E-05 1.19701E-05 2.36169E-05 3.47114E-18-1.20914E-18
 -1      1278 3.65503E-05-1.11368E-04 1.87858E-05 7.15571E-06 3.95818E-18-2.69356E-19
 -1      1279 3.19319E-05-1.01873E-04 1.70962E-05-1.97714E-05-1.14265E-18-7.97482E-19
 -1      1280 1.35894E-05-5.39180E-05 6.99704E-06-2.39258E-05-3.57109E-18-9.68159E-19
 -1      1281 9.49868E-06-1.04973E-06-9.41805E-06 7.09089E-06-5.60058E-18-4.64682E-18
 -1      1282 4.45398E-05 2.33700E-05-2.92636E-05 6.06724E-05-7.10322E-18-7.49116E-18
 -1      1283 1.23276E-04 6.09001E-06-4.96857E-05 1.05505E-04-5.61075E-18-8.95314E-18
 -1      1284 2.20826E-04-4.01655E-05-6.62129E-05 1.07026E-04-2.94683E-18-5.82928E-18
 -1      1285 2.95970E-04-8.35780E-05-7.64264E-05 6.00801E-05-2.95297E-19-6.71697E-19
 -1      1286 3.16150E-04-9.58429E-05-7.89370E-05-1.51370E-05-6.95996E-19 7.40656E-18
 -1      1287 2.72373E-04-6.94040E-05-7.33655E-05-8.32220E-05-3.34874E-18 1.34500E-17
 -1      1288 1.80972E-04-1.93789E-05-6.00550E-05-1.11876E-04-6.77499E-18 1.42166E-17
 -1      1289 8.48019E-05 1.94867E-05-4.13294E-05-9.03995E-05-8.65244E-18 1.20736E-17
 -1      1290 2.41472E-05 2.04356E-05-2.15614E-05-3.97323E-05-5.89196E-18 5.55315E-18
 -1      1291 6.90702E-06-1.61427E-05-3.50686E-06 6.98733E-06-5.21603E-18 2.65121E-18
 -1      1292 1.89180E-05-7.04389E-05 1.08098E-05 2.64152E-05-3.13572E-18 1.56405E-18
 -1      1293 3.45613E-05-1.08637E-04 1.83908E-05 1.32584E-05 3.40084E-18 1.35128E-19
 -1      1294 1.04290E-04-2.19817E-05-3.78405E-05-1.72655E-05-9.82558E-20 3.62191E-18
 -1      1295 9.02474E-05-6.67369E-06-3.59887E-05-2.04629E-05-3.82965E-19 7.40254E-19
 -1      1296 9.25570E-05-6.73117E-06-3.71837E-05-2.57449E-05-4.63751E-19 1.45097E-18
 -1      1297 8.58793E-05-4.09638E-06-3.51189E-05-1.64231E-05-4.45460E-19-3.24043E-19
 -1      1298 8.71111E-05-4.08915E-06-3.55798E-05-1.88436E-05-4.71586E-19 1.41719E-19
 -1      1299 9.20728E-05-1.04552E-05-3.50705E-05-1.90209E-05-6.95996E-19 6.40622E-19
 -1      1300 8.41084E-05-3.19073E-06-3.46912E-05-1.28079E-05-3.94029E-19-9.06338E-19
 -1      1301 8.47002E-05-3.16025E-06-3.49080E-05-1.46213E-05-4.20155E-19-6.32575E-19
 -1      1302 8.78479E-05-7.39304E-06-3.45671E-05-1.53936E-05-7.03831E-19-2.39419E-19
 -1      1303 8.32268E-05-2.72916E-06-3.44871E-05-9.67261E-06-2.85258E-19-1.23799E-18
 -1      1304 8.35288E-05-2.71254E-06-3.45907E-05-1.12211E-05-3.18140E-19-1.06513E-18
 -1      1305 8.58842E-05-5.98381E-06-3.43136E-05-1.19419E-05-5.58804E-19-7.55395E-19
 -1      1306 8.27507E-05-2.45555E-06-3.43890E-05-6.90201E-06-1.97481E-19-1.42112E-18
 -1      1307 8.29124E-05-2.44731E-06-3.44398E-05-8.27218E-06-2.48564E-19-1.31933E-18
 -1      1308 8.48648E-05-5.21339E-06-3.41929E-05-8.92365E-06-4.52620E-19-1.02682E-18
 -1      1309 8.24862E-05-2.28840E-06-3.43415E-05-4.28522E-06-1.62855E-19-1.49218E-18
 -1      1310 8.25723E-05-2.28453E-06-3.43664E-05-5.58475E-06-1.79935E-19-1.48076E-18
 -1      1311 8.42922E-05-4.75400E-06-3.41370E-05-6.20096E-06-3.05322E-19-1.22849E-18
 -1      1312 8.23591E-05-2.19752E-06-3.43221E-05-1.78510E-06-3.25268E-20-1.52973E-18
 -1      1313 8.23958E-05-2.19597E-06-3.43320E-05-3.03355E-06-8.84339E-20-1.47390E-18
 -1      1314 8.39785E-05-4.48744E-06-3.41129E-05-3.63381E-06-2.09054E-19-1.22677E-18
 -1      1315 8.23336E-05-2.16936E-06-3.43199E-05 6.68771E-07 3.02202E-20-1.51300E-18
 -1      1316 8.23324E-05-2.16940E-06-3.43196E-05-5.64152E-07-1.72682E-20-1.52672E-18
 -1      1317 8.38406E-05-4.36562E-06-3.41044E-05-1.16636E-06-3.96937E-20-1.27359E-18
 -1      1318 8.24036E-05-2.20011E-06-3.43333E-05 3.14162E-06 9.89606E-20-1.46838E-18
 -1      1319 8.23642E-05-2.20172E-06-3.43227E-05 1.89066E-06 6.16849E-20-1.49454E-18
 -1      1320 8.38451E-05-4.36965E-06-3.41046E-05 1.27035E-06 5.38919E-20-1.24280E-18
 -1      1321 8.25884E-05-2.29468E-06-3.43685E-05 5.70167E-06 1.59153E-19-1.36293E-18
 -1      1322 8.24989E-05-2.29798E-06-3.43430E-05 4.39633E-06 1.20992E-19-1.42871E-18
 -1      1323 8.39930E-05-4.50053E-06-3.41136E-05 3.74175E-06 1.91486E-19-1.20424E-18
 -1      1324 8.29339E-05-2.46244E-06-3.44418E-05 8.38149E-06 2.45573E-19-1.14478E-18
 -1      1325 8.27693E-05-2.47107E-06-3.43906E-05 7.00243E-06 2.14938E-19-1.26012E-18
 -1      1326 8.43170E-05-4.77712E-06-3.41376E-05 6.29511E-06 2.97797E-19-1.04177E-18
 -1      1327 8.35703E-05-2.74160E-06-3.45951E-05 1.13822E-05 3.83468E-19-8.97365E-19
 -1      1328 8.32612E-05-2.75869E-06-3.44897E-05 9.81692E-06 3.30105E-19-1.02877E-18
 -1      1329 8.49052E-05-5.25419E-06-3.41929E-05 9.03563E-06 4.96894E-19-8.09393E-19
 -1      1330 8.47604E-05-3.20431E-06-3.49162E-05 1.48327E-05 4.73333E-19-4.89506E-19
 -1      1331 8.41648E-05-3.24113E-06-3.46967E-05 1.29918E-05 4.13670E-19-7.50709E-19
 -1      1332 8.59651E-05-6.06187E-06-3.43146E-05 1.21042E-05 6.55570E-19-5.63992E-19
 -1      1333 8.72093E-05-4.08924E-06-3.56013E-05 1.90806E-05 5.22672E-19 2.69330E-19
 -1      1334 8.59477E-05-4.15347E-06-3.51268E-05 1.66832E-05 4.70527E-19-1.77348E-19
 -1      1335 8.79759E-05-7.51539E-06-3.45697E-05 1.56332E-05 7.49968E-19-6.21510E-20
 -1      1336 9.33690E-05-6.78331E-06-3.70791E-05 2.50802E-05 4.74127E-19 1.61762E-18
 -1      1337 9.00620E-05-6.43061E-06-3.60112E-05 2.11382E-05 4.47763E-19 7.85941E-19
 -1      1338 9.23011E-05-1.06894E-05-3.50556E-05 1.96599E-05 7.82976E-19 7.16908E-19
 -1      1339 1.23453E-04-2.48858E-05-3.89625E-05 2.83407E-05 2.19593E-19 4.20340E-18
 -1      1340 9.99570E-05-1.44007E-05-3.73099E-05 2.40346E-05 2.32299E-19 2.40494E-18
 -1      1341 1.01565E-04-1.93165E-05-3.53647E-05 2.13825E-05 7.66327E-19 1.95326E-18
 -1      1342 1.02447E-04-2.77593E-05-3.47080E-05 7.32666E-06 4.16714E-19 4.05581E-18
 -1      1343 1.04991E-04-3.01836E-05-3.34776E-05-7.95408E-06-3.40190E-19 3.70153E-18
 -1      1344 9.81092E-05-2.77983E-05-3.07160E-05-4.98463E-06-3.45378E-19 3.24805E-18
 -1      1345 9.53567E-05-2.78055E-05-2.92103E-05-2.48673E-06-2.70045E-19 3.02007E-18
 -1      1346 9.31266E-05-2.75148E-05-2.81719E-05-2.03991E-06-3.03026E-19 2.59526E-18
 -1      1347 9.93630E-05-2.80166E-05-3.09458E-05-7.87844E-06-6.64127E-19 2.01324E-18
 -1      1348 9.14434E-05-2.71586E-05-2.75397E-05-8.33403E-07-2.33272E-19 2.41235E-18
 -1      1349 9.07306E-05-2.70638E-05-2.72388E-05-7.22605E-07-2.07014E-19 2.11441E-18
 -1      1350 9.46077E-05-2.77361E-05-2.87838E-05-3.11138E-06-5.28866E-19 1.60204E-18
 -1      1351 8.99909E-05-2.68838E-05-2.69988E-05-1.63914E-07-1.27644E-19 1.86747E-18
 -1      1352 8.99269E-05-2.69126E-05-2.69667E-05-1.04603E-07-1.46517E-19 1.66474E-18
 -1      1353 9.24250E-05-2.74693E-05-2.78687E-05-1.03645E-06-3.87875E-19 1.28633E-18
 -1      1354 8.96849E-05-2.68500E-05-2.68978E-05 1.73328E-07 1.48893E-22 1.70607E-18
 -1      1355 8.99164E-05-2.69445E-05-2.69647E-05 2.03987E-07-6.13569E-20 1.72343E-18
 -1      1356 9.14940E-05-2.73321E-05-2.75109E-05-3.82445E-08-1.81861E-19 1.13013E-18
 -1      1357 8.99482E-05-2.69554E-05-2.69799E-05 3.46978E-07-8.92495E-20 1.60642E-18
 -1      1358 9.03205E-05-2.70831E-05-2.70882E-05 3.61769E-07-1.17108E-19 1.46942E-18
 -1      1359 9.12855E-05-2.73314E-05-2.74177E-05 4.72666E-07-2.28366E-19 9.92180E-19
 -1      1360 9.05059E-05-2.71369E-05-2.71489E-05 4.34004E-07-1.02507E-19 1.46222E-18
 -1      1361 9.09432E-05-2.72789E-05-2.72761E-05 4.40234E-07 5.54707E-21 1.37216E-18
 -1      1362 9.14884E-05-2.74230E-05-2.74627E-05 7.36627E-07-1.70889E-19 8.50343E-19
 -1      1363 9.12166E-05-2.73575E-05-2.73628E-05 4.76134E-07 1.89075E-20 1.24299E-18
 -1      1364 9.16820E-05-2.75041E-05-2.74987E-05 4.78443E-07-2.02817E-19 1.02544E-18
 -1      1365 9.19277E-05-2.75698E-05-2.75859E-05 8.70979E-07-1.91320E-19 7.74291E-19
 -1      1366 9.20090E-05-2.75977E-05-2.76014E-05 4.99192E-07-2.01646E-19 1.13404E-18
 -1      1367 9.24885E-05-2.77457E-05-2.77422E-05 5.00858E-07-1.80604E-19 8.34480E-19
 -1      1368 9.25071E-05-2.77488E-05-2.77562E-05 9.42445E-07-2.58245E-19 7.55995E-19
 -1      1369 9.28545E-05-2.78501E-05-2.78567E-05 5.21018E-07-1.49067E-19 9.74468E-19
 -1      1370 9.33502E-05-2.80008E-05-2.80029E-05 5.24544E-07-3.11609E-20 8.18909E-19
 -1      1371 9.31788E-05-2.79486E-05-2.79582E-05 9.94126E-07-1.75543E-19 9.90589E-19
 -1      1372 9.37544E-05-2.81158E-05-2.81292E-05 5.55082E-07-4.74574E-20 3.78338E-19
 -1      1373 9.42801E-05-2.82739E-05-2.82848E-05 5.62526E-07-2.65054E-19 8.67018E-20
 -1      1374 9.39274E-05-2.81659E-05-2.81864E-05 1.05686E-06-2.01416E-19 4.56753E-19
 -1      1375 9.47321E-05-2.84022E-05-2.84260E-05 6.12370E-07-2.31012E-19-1.35161E-20
 -1      1376 9.53118E-05-2.85753E-05-2.85980E-05 6.25542E-07-1.11215E-19-2.19540E-19
 -1      1377 9.47609E-05-2.84042E-05-2.84427E-05 1.15469E-06-3.85618E-19-3.02268E-19
 -1      1378 9.58295E-05-2.87220E-05-2.87596E-05 7.02387E-07 1.16696E-19-2.11174E-19
 -1      1379 9.64959E-05-2.89205E-05-2.89577E-05 7.22958E-07-3.56829E-20-1.76957E-19
 -1      1380 9.57055E-05-2.86717E-05-2.87347E-05 1.30765E-06-5.07335E-20-4.52038E-19
 -1      1381 9.71036E-05-2.90926E-05-2.91475E-05 8.33502E-07-1.46080E-20-2.59343E-19
 -1      1382 9.78974E-05-2.93292E-05-2.93833E-05 8.63009E-07-2.24977E-19-3.30043E-19
 -1      1383 9.68021E-05-2.89810E-05-2.90743E-05 1.53306E-06-1.07058E-19-5.25348E-19
 -1      1384 9.86245E-05-2.95352E-05-2.96105E-05 1.01253E-06-3.42163E-19-4.44659E-20
 -1      1385 9.95926E-05-2.98250E-05-2.98978E-05 1.05222E-06-3.29481E-19-2.91578E-19
 -1      1386 9.81026E-05-2.93484E-05-2.94770E-05 1.84536E-06-1.75238E-19-6.09689E-19
 -1      1387 1.00471E-04-3.00744E-05-3.01723E-05 1.24311E-06-7.76756E-20-4.64055E-19
 -1      1388 1.01663E-04-3.04338E-05-3.05254E-05 1.29349E-06-4.03978E-20-5.48685E-19
 -1      1389 9.96671E-05-2.97931E-05-2.99599E-05 2.25389E-06-3.88816E-19-1.94612E-19
 -1      1390 1.02724E-04-3.07364E-05-3.08562E-05 1.52204E-06 2.29728E-19-6.76488E-19
 -1      1391 1.04186E-04-3.11813E-05-3.12880E-05 1.58194E-06 1.26350E-19-2.29692E-19
 -1      1392 1.01557E-04-3.03370E-05-3.05397E-05 2.75748E-06 2.45408E-20-2.05674E-19
 -1      1393 1.05450E-04-3.15454E-05-3.16807E-05 1.83239E-06 7.70916E-20-1.80729E-19
 -1      1394 1.07208E-04-3.20878E-05-3.21975E-05 1.89706E-06-4.73313E-20-5.86147E-19
 -1      1395 1.03825E-04-3.10028E-05-3.12287E-05 3.33383E-06 6.78288E-20-6.26523E-20
 -1      1396 1.08674E-04-3.25176E-05-3.26493E-05 2.13162E-06-1.83423E-19-8.03093E-19
 -1      1397 1.10709E-04-3.31572E-05-3.32427E-05 2.18962E-06-3.22690E-19-1.08381E-18
 -1      1398 1.06497E-04-3.18115E-05-3.20277E-05 3.92083E-06-4.00375E-19-4.47174E-21
 -1      1399 1.12335E-04-3.36481E-05-3.37354E-05 2.33420E-06 2.07045E-19-1.30550E-18
 -1      1400 1.14534E-04-3.43586E-05-3.43683E-05 2.36266E-06 5.09907E-20-1.03546E-18
 -1      1401 1.09541E-04-3.27761E-05-3.29149E-05 4.38820E-06-3.01947E-19-9.37791E-20
 -1      1402 1.16205E-04-3.48899E-05-3.48583E-05 2.29212E-06 1.88225E-19-2.30949E-19
 -1      1403 1.18298E-04-3.55967E-05-3.54471E-05 2.25174E-06 4.06857E-20-1.87552E-19
 -1      1404 1.12821E-04-3.38889E-05-3.38321E-05 4.50264E-06 5.05199E-19-1.49667E-19
 -1      1405 1.19799E-04-3.61191E-05-3.58573E-05 1.78892E-06-2.65204E-19-1.07586E-19
 -1      1406 1.21299E-04-3.66713E-05-3.62580E-05 1.62408E-06-1.83700E-20-2.45441E-19
 -1      1407 1.16037E-04-3.50948E-05-3.46696E-05 3.90653E-06-1.11636E-20 2.36594E-19
 -1      1408 1.22289E-04-3.70881E-05-3.64789E-05 5.87640E-07 3.66077E-19 9.77727E-20
 -1      1409 1.22489E-04-3.72429E-05-3.64971E-05 2.45733E-07 2.71328E-19 7.92247E-19
 -1      1410 1.18662E-04-3.62395E-05-3.52642E-05 2.16504E-06 3.17134E-19 8.55133E-19
 -1      1411 1.22538E-04-3.73969E-05-3.64136E-05-1.40979E-06 5.21680E-19 1.10360E-18
 -1      1412 1.20701E-04-3.68572E-05-3.58688E-05-1.92567E-06 7.68894E-19 1.91263E-18
 -1      1413 1.19927E-04-3.70059E-05-3.54292E-05-1.01990E-06 7.30976E-19 2.25507E-18
 -1      1414 1.19422E-04-3.65391E-05-3.54227E-05-3.86096E-06 9.08218E-19 1.76956E-18
 -1      1415 1.15258E-04-3.51154E-05-3.42848E-05-4.39507E-06 5.10562E-19 2.94910E-18
 -1      1416 1.18956E-04-3.68754E-05-3.50350E-05-5.36004E-06 1.16985E-18 2.30954E-18
 -1      1417 1.12644E-04-3.42039E-05-3.35559E-05-5.71035E-06-3.52902E-19 2.28466E-18
 -1      1418 1.06970E-04-3.21119E-05-3.20834E-05-5.92983E-06-5.05973E-19 1.80905E-18
 -1      1419 1.15224E-04-3.53463E-05-3.41237E-05-9.41256E-06-2.09694E-19 2.00180E-18
 -1      1420 1.03787E-04-3.08266E-05-3.13152E-05-5.50400E-06-4.14702E-19 1.30782E-18
 -1      1421 9.87215E-05-2.88631E-05-3.00526E-05-5.09006E-06-8.76097E-19 5.39454E-19
 -1      1422 1.09388E-04-3.24982E-05-3.29761E-05-1.06766E-05-1.21188E-18 5.04302E-19
 -1      1423 9.64971E-05-2.78914E-05-2.95664E-05-2.56304E-06 2.52786E-20 2.84232E-19
 -1      1424 9.45256E-05-2.71070E-05-2.90862E-05-1.60066E-06 1.18664E-19 2.66796E-19
 -1      1425 1.03797E-04-2.95421E-05-3.20306E-05-7.16053E-06-1.23402E-19 3.55688E-19
 -1      1426 9.46015E-05-2.71409E-05-2.91024E-05 1.85754E-06-1.78803E-19 1.66760E-19
 -1      1427 9.68073E-05-2.80175E-05-2.96405E-05 2.79998E-06-4.13140E-19-3.43207E-19
 -1      1428 1.01549E-04-2.83177E-05-3.16814E-05 2.40498E-07-2.38175E-19-5.25025E-19
 -1      1429 9.91344E-05-2.90308E-05-3.01510E-05 5.22138E-06-8.03715E-19-4.15787E-19
 -1      1430 1.04311E-04-3.10332E-05-3.14431E-05 5.59513E-06-6.26262E-19-1.45510E-18
 -1      1431 1.04061E-04-2.96837E-05-3.20729E-05 7.50469E-06-8.60797E-19-9.86238E-19
 -1      1432 1.07499E-04-3.23131E-05-3.22182E-05 5.89307E-06-4.12108E-19-1.32052E-18
 -1      1433 1.13131E-04-3.43818E-05-3.36842E-05 5.64278E-06 2.31544E-20-1.65891E-18
 -1      1434 1.09758E-04-3.26890E-05-3.30430E-05 1.07257E-05-9.27210E-19-5.67115E-19
 -1      1435 1.15676E-04-3.52579E-05-3.44021E-05 4.25640E-06 9.31736E-21-2.36836E-18
 -1      1436 1.19708E-04-3.66278E-05-3.55084E-05 3.71578E-06-6.46802E-19-2.57869E-18
 -1      1437 1.15519E-04-3.54800E-05-3.41890E-05 9.21857E-06-5.68379E-19-4.04683E-19
 -1      1438 1.20904E-04-3.69124E-05-3.59339E-05 1.78082E-06-5.71880E-19-2.76736E-18
 -1      1439 1.22605E-04-3.74037E-05-3.64422E-05 1.27405E-06 2.10607E-19-3.64139E-18
 -1      1440 1.19088E-04-3.69174E-05-3.50761E-05 5.08891E-06-8.55067E-19-1.67335E-18
 -1      1441 1.22493E-04-3.72307E-05-3.65060E-05-3.46428E-07 4.64108E-19-3.52609E-18
 -1      1442 1.22197E-04-3.70451E-05-3.64606E-05-6.76798E-07 9.32597E-20-3.31711E-18
 -1      1443 1.19911E-04-3.69787E-05-3.54377E-05 7.98500E-07 1.33064E-19-1.33770E-18
 -1      1444 1.21171E-04-3.66197E-05-3.62269E-05-1.67253E-06 5.08193E-19-2.73727E-18
 -1      1445 1.19626E-04-3.60544E-05-3.58121E-05-1.82734E-06 7.13562E-19-2.43202E-18
 -1      1446 1.18551E-04-3.61812E-05-3.52454E-05-2.29457E-06 7.10369E-19-1.70676E-18
 -1      1447 1.18117E-04-3.55324E-05-3.53974E-05-2.25661E-06 5.96928E-19-1.97723E-18
 -1      1448 1.16019E-04-3.48257E-05-3.48064E-05-2.29029E-06 6.40943E-19-1.32259E-18
 -1      1449 1.15888E-04-3.50296E-05-3.46360E-05-3.94687E-06 8.40164E-19-9.25278E-19
 -1      1450 1.14361E-04-3.43002E-05-3.43192E-05-2.33738E-06 5.06437E-20-2.45115E-18
 -1      1451 1.12186E-04-3.35982E-05-3.36928E-05-2.30468E-06-5.38245E-19-2.41887E-18
 -1      1452 1.12681E-04-3.38333E-05-3.37976E-05-4.47576E-06-1.20060E-19-1.76029E-18
 -1      1453 1.10590E-04-3.31169E-05-3.32086E-05-2.14370E-06-4.59118E-19-2.07078E-18
 -1      1454 1.08599E-04-3.24911E-05-3.26279E-05-2.08272E-06 4.53094E-19-2.73901E-18
 -1      1455 1.09446E-04-3.27386E-05-3.28915E-05-4.31439E-06-1.07951E-18-1.75750E-18
 -1      1456 1.07176E-04-3.20742E-05-3.21890E-05-1.83498E-06 5.69918E-19-2.64821E-18
 -1      1457 1.05476E-04-3.15498E-05-3.16896E-05-1.76766E-06-1.54855E-19-2.68809E-18
 -1      1458 1.06475E-04-3.17978E-05-3.20249E-05-3.81203E-06 5.39828E-19-2.13179E-18
 -1      1459 1.04268E-04-3.12017E-05-3.13140E-05-1.50407E-06-1.45448E-19-2.18177E-18
 -1      1460 1.02880E-04-3.07790E-05-3.09042E-05-1.44117E-06 1.56292E-19-2.11226E-18
 -1      1461 1.03900E-04-3.10182E-05-3.12549E-05-3.19369E-06 3.02138E-19-1.06297E-18
 -1      1462 1.01888E-04-3.04960E-05-3.05948E-05-1.19719E-06 8.14154E-19-2.27455E-18
 -1      1463 1.00788E-04-3.01642E-05-3.02689E-05-1.14298E-06 2.35933E-19-1.43938E-18
 -1      1464 1.01753E-04-3.03875E-05-3.06031E-05-2.58317E-06 1.87568E-19-1.85105E-18
 -1      1465 9.99941E-05-2.99388E-05-3.00210E-05-9.32618E-07-1.11916E-19-8.69863E-19
 -1      1466 9.91406E-05-2.96833E-05-2.97677E-05-8.87936E-07 2.42510E-19-1.37754E-18
 -1      1467 1.00013E-04-2.98862E-05-3.00695E-05-2.03777E-06 2.68192E-19-2.22832E-18
 -1      1468 9.85184E-05-2.95069E-05-2.95734E-05-7.13442E-07 7.39789E-19 4.75316E-19
 -1      1469 9.78687E-05-2.93133E-05-2.93803E-05-6.77433E-07 9.38521E-19 1.49569E-18
 -1      1470 9.86330E-05-2.94935E-05-2.96438E-05-1.57607E-06 1.51505E-18 6.78624E-19
 -1      1471 9.73902E-05-2.91776E-05-2.92312E-05-5.35041E-07 5.61132E-19 1.94719E-18
 -1      1472 9.69060E-05-2.90337E-05-2.90872E-05-5.06067E-07 1.98991E-19 2.97229E-18
 -1      1473 9.75596E-05-2.91901E-05-2.93115E-05-1.19597E-06 1.36901E-18 2.11476E-18
 -1      1474 9.65468E-05-2.89313E-05-2.89757E-05-3.89067E-07 4.09570E-20 2.69115E-18
 -1      1475 9.61983E-05-2.88277E-05-2.88724E-05-3.65092E-07 3.83094E-19 3.15561E-18
 -1      1476 9.67416E-05-2.89589E-05-2.90582E-05-8.84920E-07-2.79698E-19 2.30119E-18
 -1      1477 9.59386E-05-2.87528E-05-2.87925E-05-2.65519E-07-5.14931E-19 1.88542E-18
 -1      1478 9.57060E-05-2.86835E-05-2.87238E-05-2.44289E-07-6.21651E-19 4.86644E-19
 -1      1479 9.61356E-05-2.87862E-05-2.88712E-05-6.25519E-07-3.85681E-19 1.29157E-18
 -1      1480 9.55303E-05-2.86317E-05-2.86707E-05-1.54986E-07-2.71810E-19 5.26873E-20
 -1      1481 9.54028E-05-2.85946E-05-2.86323E-05-1.34223E-07 1.32912E-19 4.12235E-19
 -1      1482 9.57072E-05-2.86618E-05-2.87401E-05-3.99474E-07-9.52901E-19 4.69298E-19
 -1      1483 9.52946E-05-2.85598E-05-2.86005E-05-5.20057E-08 1.64452E-19 1.26518E-18
 -1      1484 9.52649E-05-2.85604E-05-2.85848E-05-3.09497E-08-2.11642E-20 1.15413E-18
 -1      1485 9.54276E-05-2.85798E-05-2.86541E-05-1.95991E-07 4.62126E-19 6.82887E-19
 -1      1486 9.52206E-05-2.85743E-05-2.85554E-05 2.21490E-08-1.17332E-18 7.73401E-19
 -1      1487 9.52701E-05-2.85654E-05-2.85878E-05-1.85996E-08-5.76705E-19-4.44751E-19
 -1      1488 9.64248E-05-2.83180E-05-2.97264E-05 2.99341E-06 2.94238E-19 3.29297E-18
 -1      1489 1.02380E-04-2.93523E-05-3.21084E-05 4.45982E-06 2.93656E-19 3.82012E-18
 -1      1490 1.02192E-04-2.66804E-05-3.26643E-05 1.27732E-05 6.03617E-19 2.61998E-18
 -1      1491 9.18861E-05-2.73856E-05-2.77185E-05 1.14895E-06 4.06232E-19 2.53771E-18
 -1      1492 9.38303E-05-2.75403E-05-2.86316E-05 1.47092E-06 2.73843E-19 2.97830E-18
 -1      1493 9.63623E-05-2.79929E-05-2.94963E-05 4.86108E-06 5.33393E-19 1.99580E-18
 -1      1494 9.00653E-05-2.69639E-05-2.70235E-05 3.25738E-07 1.90278E-19 1.91983E-18
 -1      1495 9.06757E-05-2.69802E-05-2.72945E-05 4.89042E-07 2.47195E-19 2.28336E-18
 -1      1496 9.29304E-05-2.75443E-05-2.80656E-05 1.84187E-06 4.91954E-19 1.52584E-18
 -1      1497 8.95696E-05-2.68517E-05-2.68546E-05-6.69579E-08 7.65010E-20 1.62247E-18
 -1      1498 8.95975E-05-2.67864E-05-2.68797E-05 2.32233E-08 1.07909E-19 1.77962E-18
 -1      1499 9.13972E-05-2.72782E-05-2.74885E-05 4.99378E-07 2.71229E-19 1.19757E-18
 -1      1500 8.97400E-05-2.69149E-05-2.69084E-05-2.63880E-07-8.11464E-21 1.43821E-18
 -1      1501 8.94933E-05-2.68016E-05-2.68375E-05-2.11678E-07-4.52451E-20 1.47783E-18
 -1      1502 9.08987E-05-2.72058E-05-2.73030E-05-1.65413E-07 1.16388E-19 9.71858E-19
 -1      1503 9.02569E-05-2.70755E-05-2.70664E-05-3.61665E-07 8.38248E-20 1.32301E-18
 -1      1504 8.98782E-05-2.69382E-05-2.69550E-05-3.30804E-07 3.06057E-20 1.31102E-18
 -1      1505 9.09697E-05-2.72631E-05-2.73092E-05-5.07490E-07 5.39802E-20 7.96922E-19
 -1      1506 9.09530E-05-2.72870E-05-2.72771E-05-4.07289E-07 2.53619E-19 1.07166E-18
 -1      1507 9.05136E-05-2.71401E-05-2.71476E-05-3.88728E-07 9.42059E-20 1.30695E-18
 -1      1508 9.13575E-05-2.73977E-05-2.74171E-05-6.81932E-07 1.51592E-19 7.68093E-19
 -1      1509 9.17409E-05-2.75240E-05-2.75152E-05-4.27568E-07-3.95434E-20 8.16083E-19
 -1      1510 9.12761E-05-2.73746E-05-2.73777E-05-4.15567E-07 1.41549E-19 1.06883E-18
 -1      1511 9.19232E-05-2.75760E-05-2.75823E-05-7.68714E-07 1.24186E-19 9.35359E-19
 -1      1512 9.25808E-05-2.77748E-05-2.77692E-05-4.39634E-07 2.18744E-19 6.03051E-19
 -1      1513 9.21042E-05-2.76249E-05-2.76276E-05-4.30189E-07-5.88016E-20 5.83242E-19
 -1      1514 9.25928E-05-2.77792E-05-2.77816E-05-8.14843E-07 1.52827E-19 4.69434E-19
 -1      1515 9.34637E-05-2.80373E-05-2.80365E-05-4.55249E-07 7.17575E-20 5.41277E-19
 -1      1516 9.29746E-05-2.78851E-05-2.78906E-05-4.45382E-07 1.93594E-19 5.71655E-19
 -1      1517 9.33324E-05-2.79991E-05-2.80043E-05-8.50780E-07 3.40028E-19 2.95107E-19
 -1      1518 9.44016E-05-2.83154E-05-2.83206E-05-4.82696E-07 3.14440E-20 6.37763E-19
 -1      1519 9.38894E-05-2.81564E-05-2.81675E-05-4.70111E-07-3.87855E-20 4.69845E-19
 -1      1520 9.41345E-05-2.82346E-05-2.82475E-05-8.97421E-07 6.01025E-20 4.87723E-19
 -1      1521 9.54210E-05-2.86174E-05-2.86295E-05-5.27565E-07 1.87536E-19 6.50882E-19
 -1      1522 9.48683E-05-2.84453E-05-2.84639E-05-5.10504E-07 7.56754E-20 6.62438E-19
 -1      1523 9.50093E-05-2.84899E-05-2.85138E-05-9.69155E-07 6.16907E-20 2.95482E-19
 -1      1524 9.65573E-05-2.89543E-05-2.89734E-05-5.92798E-07 5.77091E-20-1.56800E-20
 -1      1525 9.59422E-05-2.87617E-05-2.87891E-05-5.70067E-07 1.35078E-19 2.51704E-19
 -1      1526 9.59789E-05-2.87725E-05-2.88094E-05-1.07493E-06 4.62109E-19-6.63937E-20
 -1      1527 9.78478E-05-2.93381E-05-2.93632E-05-6.78081E-07-5.88729E-20-1.59285E-19
 -1      1528 9.71479E-05-2.91176E-05-2.91539E-05-6.49247E-07 3.28035E-20-6.58138E-20
 -1      1529 9.70711E-05-2.90919E-05-2.91420E-05-1.21793E-06 7.69774E-21-4.11869E-19
 -1      1530 9.93244E-05-2.97792E-05-2.98078E-05-7.78511E-07-6.80493E-20 1.44611E-19
 -1      1531 9.85207E-05-2.95248E-05-2.95682E-05-7.44316E-07-1.19668E-19 1.22323E-19
 -1      1532 9.83130E-05-2.94578E-05-2.95187E-05-1.39387E-06-2.45495E-19 2.84266E-19
 -1      1533 1.01002E-04-3.02836E-05-3.03108E-05-8.82449E-07 6.06162E-20-5.84850E-20
 -1      1534 1.00085E-04-2.99926E-05-3.00389E-05-8.45494E-07 5.81897E-20 2.20172E-19
 -1      1535 9.97229E-05-2.98782E-05-2.99438E-05-1.58797E-06-4.64032E-20 1.81672E-19
 -1      1536 1.02860E-04-3.08476E-05-3.08648E-05-9.68601E-07 3.95084E-19-4.22239E-19
 -1      1537 1.01843E-04-3.05240E-05-3.05647E-05-9.34331E-07 3.12299E-19-5.81872E-20
 -1      1538 1.01299E-04-3.03562E-05-3.04143E-05-1.77038E-06 2.19099E-19 4.06174E-19
 -1      1539 1.04826E-04-3.14516E-05-3.14456E-05-1.00282E-06-1.74205E-19-8.61638E-19
 -1      1540 1.03751E-04-3.11105E-05-3.11314E-05-9.80714E-07 1.11503E-19-8.46497E-19
 -1      1541 1.03004E-04-3.08855E-05-3.09161E-05-1.89068E-06 5.10132E-19 1.81287E-19
 -1      1542 1.06743E-04-3.20517E-05-3.20041E-05-9.36173E-07-3.05225E-19-5.56659E-19
 -1      1543 1.05702E-04-3.17245E-05-3.17043E-05-9.40717E-07-2.69562E-19-7.19561E-19
 -1      1544 1.04748E-04-3.14452E-05-3.14183E-05-1.87313E-06-2.14923E-19-2.76113E-19
 -1      1545 1.08350E-04-3.25709E-05-3.24605E-05-7.07624E-07-3.94793E-19 2.95436E-19
 -1      1546 1.07499E-04-3.23104E-05-3.22217E-05-7.58092E-07-4.89320E-19-1.84574E-19
 -1      1547 1.06369E-04-3.19919E-05-3.18685E-05-1.61709E-06-6.46366E-19-3.05977E-19
 -1      1548 1.09274E-04-3.28944E-05-3.27041E-05-2.57438E-07-6.99265E-20 1.59367E-18
 -1      1549 1.08834E-04-3.27764E-05-3.25911E-05-3.74463E-07-4.17524E-19 8.52757E-19
 -1      1550 1.07618E-04-3.24522E-05-3.21913E-05-1.01060E-06-9.38830E-19 4.08561E-19
 -1      1551 1.09067E-04-3.28760E-05-3.26089E-05 4.41596E-07 3.45950E-19 1.52322E-18
 -1      1552 1.09304E-04-3.29915E-05-3.26952E-05 2.45155E-07 1.77940E-19 1.68605E-18
 -1      1553 1.08171E-04-3.27178E-05-3.22953E-05 3.06834E-08 3.33188E-20 7.59081E-19
 -1      1554 1.07321E-04-3.23706E-05-3.20698E-05 1.33337E-06-4.28612E-20 1.04377E-18
 -1      1555 1.08471E-04-3.27996E-05-3.24155E-05 1.06830E-06 1.95691E-19 6.95983E-19
 -1      1556 1.07677E-04-3.26523E-05-3.20934E-05 1.49047E-06 2.39260E-19 3.61772E-19
 -1      1557 1.03880E-04-3.13015E-05-3.10641E-05 2.22635E-06 3.00928E-20 1.42233E-18
 -1      1558 1.06020E-04-3.20663E-05-3.16786E-05 1.94428E-06-1.37087E-19 1.21279E-18
 -1      1559 1.05875E-04-3.21245E-05-3.15402E-05 3.15656E-06-1.61201E-19-3.45364E-19
 -1      1560 9.90975E-05-2.97561E-05-2.97134E-05 2.79044E-06-2.16076E-20 2.28646E-18
 -1      1561 1.01991E-04-3.07646E-05-3.05190E-05 2.58667E-06 1.12846E-19 2.30610E-18
 -1      1562 1.02783E-04-3.10794E-05-3.06759E-05 4.56181E-06-2.08542E-19 1.35639E-18
 -1      1563 9.39796E-05-2.80572E-05-2.83057E-05 2.66656E-06-6.24622E-19 3.59078E-18
 -1      1564 9.70027E-05-2.90755E-05-2.91265E-05 2.64861E-06-3.89640E-19 3.02984E-18
 -1      1565 9.88755E-05-2.96390E-05-2.96557E-05 5.06679E-06-6.76753E-19 3.22370E-18
 -1      1566 9.00106E-05-2.67189E-05-2.72321E-05 1.69132E-06-2.27455E-19 4.49568E-18
 -1      1567 9.22778E-05-2.74254E-05-2.78354E-05 1.91279E-06-2.34066E-19 3.94511E-18
 -1      1568 9.51285E-05-2.81636E-05-2.87311E-05 4.15674E-06-5.24340E-19 3.42391E-18
 -1      1569 8.85631E-05-2.62354E-05-2.68364E-05 9.60411E-08 1.36485E-19 3.79157E-18
 -1      1570 8.92897E-05-2.63651E-05-2.70258E-05 5.00313E-07-2.24226E-19 4.09683E-18
 -1      1571 9.27421E-05-2.71714E-05-2.81712E-05 1.84690E-06-1.80868E-19 3.68761E-18
 -1      1572 9.01818E-05-2.68016E-05-2.72543E-05-1.53713E-06 7.49095E-20 3.01613E-18
 -1      1573 8.90965E-05-2.62999E-05-2.69642E-05-1.10308E-06 2.78144E-19 3.45810E-18
 -1      1574 9.25922E-05-2.70824E-05-2.81541E-05-1.14168E-06 2.03473E-19 3.29860E-18
 -1      1575 9.42642E-05-2.81891E-05-2.83430E-05-2.60348E-06 4.14394E-19 1.55150E-18
 -1      1576 9.17661E-05-2.72477E-05-2.76733E-05-2.29829E-06 1.50203E-19 1.98711E-18
 -1      1577 9.47356E-05-2.79440E-05-2.86844E-05-3.70191E-06 8.94599E-19 1.94709E-18
 -1      1578 9.94116E-05-2.98931E-05-2.97542E-05-2.82081E-06-3.73718E-19 1.46886E-18
 -1      1579 9.63417E-05-2.88350E-05-2.89186E-05-2.72018E-06 1.26710E-19 1.44491E-18
 -1      1580 9.83783E-05-2.93945E-05-2.95921E-05-4.97817E-06 4.66647E-19 1.54627E-18
 -1      1581 1.04150E-04-3.14096E-05-3.10993E-05-2.31454E-06-3.87848E-20 2.00305E-18
 -1      1582 1.01366E-04-3.05231E-05-3.03239E-05-2.39242E-06-4.05312E-19 1.54758E-18
 -1      1583 1.02328E-04-3.08993E-05-3.06118E-05-4.78716E-06-3.19146E-19 1.91441E-18
 -1      1584 1.07509E-04-3.24369E-05-3.20952E-05-1.43816E-06 2.19759E-19 2.33164E-18
 -1      1585 1.05559E-04-3.18739E-05-3.15357E-05-1.61292E-06 3.06983E-20 2.01536E-18
 -1      1586 1.05560E-04-3.20409E-05-3.14916E-05-3.54995E-06 1.10101E-19 1.14645E-18
 -1      1587 1.09176E-04-3.29059E-05-3.26259E-05-5.35189E-07-4.76390E-20 1.88614E-18
 -1      1588 1.08220E-04-3.26812E-05-3.23381E-05-7.26995E-07 4.58225E-19 2.40610E-18
 -1      1589 1.07535E-04-3.26532E-05-3.20709E-05-1.90761E-06 2.70018E-19 1.47361E-18
 -1      1590 1.09331E-04-3.29021E-05-3.27182E-05 1.86146E-07 9.36597E-19-1.56324E-19
 -1      1591 1.09245E-04-3.29473E-05-3.26776E-05 2.65097E-08 5.28496E-19 1.08761E-18
 -1      1592 1.08193E-04-3.27746E-05-3.23029E-05-3.80326E-07 8.96962E-19 1.09924E-18
 -1      1593 1.08391E-04-3.25719E-05-3.24780E-05 6.57510E-07 9.01483E-19-2.14770E-18
 -1      1594 1.08923E-04-3.27921E-05-3.26192E-05 5.47853E-07 7.97263E-19-1.04679E-18
 -1      1595 1.07772E-04-3.25392E-05-3.22280E-05 7.60919E-07 1.22112E-18-6.74735E-19
 -1      1596 1.06804E-04-3.20590E-05-3.20320E-05 8.99877E-07-4.24606E-19-3.30498E-18
 -1      1597 1.07691E-04-3.23683E-05-3.22816E-05 8.37842E-07 1.62395E-19-2.77211E-18
 -1      1598 1.06620E-04-3.20932E-05-3.19308E-05 1.45904E-06 7.79111E-19-1.31973E-18
 -1      1599 1.04939E-04-3.14760E-05-3.14907E-05 9.71136E-07-3.49472E-19-3.08135E-18
 -1      1600 1.05969E-04-3.18111E-05-3.17871E-05 9.45771E-07-1.87786E-19-3.59889E-18
 -1      1601 1.05075E-04-3.15543E-05-3.15036E-05 1.77899E-06-3.54112E-19-2.92807E-18
 -1      1602 1.03055E-04-3.08982E-05-3.09344E-05 9.32624E-07-2.36051E-19-3.14997E-18
 -1      1603 1.04084E-04-3.12194E-05-3.12344E-05 9.31676E-07-4.68119E-19-3.37289E-18
 -1      1604 1.03398E-04-3.10032E-05-3.10239E-05 1.82822E-06-1.21134E-19-2.84650E-18
 -1      1605 1.01310E-04-3.03694E-05-3.04137E-05 8.34180E-07-1.20117E-18-8.12913E-19
 -1      1606 1.02253E-04-3.06555E-05-3.06910E-05 8.47415E-07-5.60186E-19-2.22893E-18
 -1      1607 1.01767E-04-3.04879E-05-3.05475E-05 1.71019E-06-9.53223E-19-1.15751E-19
 -1      1608 9.97831E-05-2.99106E-05-2.99550E-05 7.10647E-07 2.07801E-19 4.17964E-19
 -1      1609 1.00600E-04-3.01532E-05-3.01966E-05 7.30724E-07-1.07036E-18-1.14210E-18
 -1      1610 1.00285E-04-3.00330E-05-3.01088E-05 1.50550E-06-1.48542E-18-2.26707E-18
 -1      1611 9.85012E-05-2.95278E-05-2.95682E-05 5.83549E-07 1.07725E-19-1.07321E-18
 -1      1612 9.91805E-05-2.97260E-05-2.97699E-05 6.05794E-07 6.58416E-19 7.29772E-20
 -1      1613 9.90036E-05-2.96473E-05-2.97254E-05 1.26891E-06 4.40402E-19-9.29491E-19
 -1      1614 9.74608E-05-2.92182E-05-2.92533E-05 4.64207E-07 1.07981E-18-1.92124E-18
 -1      1615 9.80070E-05-2.93753E-05-2.94160E-05 4.86072E-07 7.58430E-19-1.16555E-18
 -1      1616 9.79350E-05-2.93304E-05-2.94035E-05 1.03317E-06 1.15995E-18-6.11307E-19
 -1      1617 9.66436E-05-2.89755E-05-2.90059E-05 3.56637E-07 8.31257E-19-3.91312E-18
 -1      1618 9.70683E-05-2.90959E-05-2.91324E-05 3.77201E-07 7.69088E-19-3.24092E-18
 -1      1619 9.70723E-05-2.90771E-05-2.91426E-05 8.14309E-07 1.49698E-18-2.58825E-18
 -1      1620 9.60283E-05-2.87925E-05-2.88200E-05 2.59854E-07 5.65823E-19-5.49163E-18
 -1      1621 9.63436E-05-2.88803E-05-2.89137E-05 2.79424E-07 4.62397E-19-4.65560E-18
 -1      1622 9.63991E-05-2.88801E-05-2.89389E-05 6.16535E-07 1.54635E-18-3.53216E-18
 -1      1623 9.55976E-05-2.86636E-05-2.86906E-05 1.69862E-07 2.79510E-19-6.82663E-18
 -1      1624 9.58122E-05-2.87213E-05-2.87541E-05 1.89680E-07 3.41715E-19-6.05088E-18
 -1      1625 9.58970E-05-2.87325E-05-2.87877E-05 4.36300E-07 9.25582E-19-4.03309E-18
 -1      1626 9.53398E-05-2.85864E-05-2.86125E-05 8.13504E-08-1.29574E-18-5.39206E-18
 -1      1627 9.54573E-05-2.86139E-05-2.86481E-05 1.03861E-07-3.45872E-19-5.91404E-18
 -1      1628 9.55488E-05-2.86282E-05-2.86837E-05 2.66693E-07-3.44421E-19-3.55461E-18
 -1      1629 9.52417E-05-2.85629E-05-2.85736E-05 2.99242E-09-3.19382E-19-2.13381E-18
 -1      1630 9.52666E-05-2.85599E-05-2.85882E-05 2.41161E-08-5.76970E-19-3.96894E-18
 -1      1631 9.53379E-05-2.85686E-05-2.86183E-05 1.04524E-07-1.07472E-18-2.70397E-18
 -1      1632 9.52261E-05-2.85748E-05-2.85582E-05-1.62020E-08-5.58041E-19-5.71531E-19
 -1      1633 9.52415E-05-2.85048E-05-2.86039E-05 5.96122E-08-1.61328E-18-9.58875E-19
 -1      1634 9.52496E-05-2.85428E-05-2.85865E-05 3.95784E-08-1.35634E-18 1.13173E-18
 -1      1635 9.51726E-05-2.82896E-05-2.86665E-05 1.46347E-07-1.80783E-18 1.27857E-19
 -1      1636 9.52119E-05-2.84094E-05-2.86314E-05 1.29678E-07-1.06749E-18-6.63494E-19
 -1      1637 9.52288E-05-2.83890E-05-2.86491E-05 1.91520E-07-1.28897E-18-3.83132E-19
 -1      1638 9.50669E-05-2.79710E-05-2.87566E-05 2.07336E-07-4.09426E-18-1.48524E-18
 -1      1639 9.51271E-05-2.81517E-05-2.87053E-05 1.97715E-07-2.31727E-18-8.41890E-19
 -1      1640 9.51431E-05-2.81512E-05-2.87146E-05 3.37627E-07-4.12864E-19-1.77362E-18
 -1      1641 9.49450E-05-2.76012E-05-2.88620E-05 2.29747E-07-4.09584E-18 2.61499E-19
 -1      1642 9.50133E-05-2.78079E-05-2.88031E-05 2.28487E-07-4.32521E-18 7.31625E-19
 -1      1643 9.50333E-05-2.78462E-05-2.87959E-05 4.24145E-07-5.01533E-19 6.51632E-20
 -1      1644 9.48292E-05-2.72472E-05-2.89637E-05 2.13275E-07-3.46245E-18 1.67248E-18
 -1      1645 9.48925E-05-2.74401E-05-2.89085E-05 2.19409E-07-4.72200E-18 6.86059E-19
 -1      1646 9.49162E-05-2.75188E-05-2.88836E-05 4.35833E-07-2.12500E-18 3.24312E-19
 -1      1647 9.47334E-05-2.69535E-05-2.90483E-05 1.62215E-07-2.33925E-18 8.84646E-19
 -1      1648 9.47837E-05-2.71066E-05-2.90044E-05 1.74697E-07-3.25923E-18 4.72221E-20
 -1      1649 9.48089E-05-2.72151E-05-2.89655E-05 3.76173E-07-2.58563E-18 1.67411E-18
 -1      1650 9.46746E-05-2.67728E-05-2.91005E-05 8.54086E-08-3.46000E-18-3.08073E-19
 -1      1651 9.47026E-05-2.68579E-05-2.90761E-05 1.02084E-07-2.62244E-18 1.14569E-19
 -1      1652 9.47254E-05-2.69778E-05-2.90297E-05 2.56229E-07-2.87370E-18-1.07203E-19
 -1      1653 9.46617E-05-2.67336E-05-2.91118E-05-5.30370E-09-9.15636E-19 1.27182E-18
 -1      1654 9.46629E-05-2.67367E-05-2.91109E-05 1.30833E-08-2.62380E-18 1.47499E-18
 -1      1655 9.46787E-05-2.68453E-05-2.90655E-05 9.55985E-08-1.51993E-18 1.26842E-18
 -1      1656 9.46972E-05-2.68431E-05-2.90801E-05-9.62286E-08-1.03076E-18 7.24689E-19
 -1      1657 9.46710E-05-2.67629E-05-2.91031E-05-7.89009E-08-1.29308E-18 2.78574E-19
 -1      1658 9.46758E-05-2.68381E-05-2.90672E-05-8.13570E-08-9.26626E-20 8.79767E-19
 -1      1659 9.47762E-05-2.70859E-05-2.90101E-05-1.73093E-07-2.11672E-18-1.55023E-18
 -1      1660 9.47265E-05-2.69342E-05-2.90535E-05-1.59640E-07-1.15890E-18-4.16255E-19
 -1      1661 9.47177E-05-2.69584E-05-2.90344E-05-2.47650E-07-1.64628E-18-7.09551E-20
 -1      1662 9.48848E-05-2.74180E-05-2.89146E-05-2.22120E-07-2.46787E-18 2.56489E-19
 -1      1663 9.48204E-05-2.72227E-05-2.89704E-05-2.15073E-07-1.88087E-18-1.53029E-18
 -1      1664 9.47986E-05-2.71874E-05-2.89725E-05-3.75732E-07-1.35807E-18-1.54738E-18
 -1      1665 9.50097E-05-2.77964E-05-2.88065E-05-2.34504E-07-3.08849E-19 6.63346E-19
 -1      1666 9.49393E-05-2.75845E-05-2.88668E-05-2.35407E-07-2.22107E-18 2.05094E-18
 -1      1667 9.49069E-05-2.74921E-05-2.88907E-05-4.43686E-07-1.17619E-18 1.44416E-18
 -1      1668 9.51269E-05-2.81498E-05-2.87064E-05-2.03458E-07 1.15766E-18 1.11146E-18
 -1      1669 9.50651E-05-2.79639E-05-2.87590E-05-2.13257E-07-6.28293E-20 1.48873E-18
 -1      1670 9.50286E-05-2.78296E-05-2.88009E-05-4.35681E-07-1.25941E-19 1.85375E-18
 -1      1671 9.52162E-05-2.84115E-05-2.86313E-05-1.33184E-07 7.27013E-20-1.52536E-18
 -1      1672 9.51728E-05-2.82899E-05-2.86668E-05-1.51553E-07 1.55622E-18-5.36110E-19
 -1      1673 9.51408E-05-2.81419E-05-2.87177E-05-3.45883E-07 9.41884E-20 4.71951E-19
 -1      1674 9.52581E-05-2.85192E-05-2.85995E-05-7.11847E-08-8.63397E-19-7.89716E-19
 -1      1675 9.52478E-05-2.84772E-05-2.86183E-05-1.00668E-07 3.56672E-19-1.53438E-18
 -1      1676 9.52413E-05-2.83533E-05-2.86676E-05-2.43602E-07 9.33149E-19-2.26966E-18
 -1      1677 9.53134E-05-2.84849E-05-2.86384E-05-1.54320E-07-3.40307E-21-1.22407E-18
 -1      1678 1.99899E-05-6.37036E-05 1.31730E-05-4.06480E-06 4.41728E-18 1.70529E-18
 -1      1679 2.29881E-05-7.32692E-05 1.53707E-05 3.12166E-06 3.59205E-18 7.07908E-19
 -1      1680 1.88411E-05-3.89458E-05 4.26794E-06 1.94655E-06 5.86062E-18 2.62400E-18
 -1      1681 2.36141E-05-6.07100E-05 9.84087E-06-8.22370E-07 5.48454E-18 2.23255E-18
 -1      1682 3.32212E-05-1.24813E-05-1.08936E-05 2.69679E-05 5.81742E-18 2.62750E-18
 -1      1683 2.84224E-05-3.30756E-05-2.56796E-06 1.03198E-05 6.06560E-18 2.74185E-18
 -1      1684 6.88794E-05-1.01309E-09-2.89308E-05 5.73379E-05 5.00173E-18 5.78015E-18
 -1      1685 4.70433E-05-7.27846E-06-1.94376E-05 3.50362E-05 5.17876E-18 4.08185E-18
 -1      1686 1.26903E-04-1.11642E-05-4.66006E-05 7.67740E-05 3.93955E-18 4.19620E-18
 -1      1687 9.02100E-05-1.69069E-06-3.77653E-05 6.28730E-05 4.60193E-18 5.11608E-18
 -1      1688 1.93106E-04-3.69988E-05-6.19044E-05 6.95062E-05 2.27132E-18 2.27344E-18
 -1      1689 1.50621E-04-1.74166E-05-5.44072E-05 7.40707E-05 3.12005E-18 4.08100E-18
 -1      1690 2.40374E-04-5.86265E-05-7.17502E-05 3.49995E-05 7.19660E-19 6.65344E-19
 -1      1691 2.11632E-04-4.28581E-05-6.75362E-05 5.97586E-05 1.81990E-18 1.95156E-18
 -1      1692 2.49192E-04-6.20709E-05-7.41221E-05-1.50549E-05 9.48253E-19-3.85188E-19
 -1      1693 2.48028E-04-6.13786E-05-7.39201E-05 1.98813E-05 5.09490E-19 4.79632E-19
 -1      1694 2.11731E-04-4.29038E-05-6.76152E-05-5.77499E-05 1.23894E-18-2.12605E-18
 -1      1695 2.40960E-04-5.89343E-05-7.19771E-05-3.06753E-05 8.84726E-19-9.15219E-19
 -1      1696 1.49062E-04-1.61049E-05-5.42845E-05-7.61912E-05 2.24040E-18-3.05271E-18
 -1      1697 1.93727E-04-3.68847E-05-6.20649E-05-7.14978E-05 1.29257E-18-2.21753E-18
 -1      1698 8.60712E-05-1.03236E-06-3.64463E-05-6.11012E-05 4.14623E-18-3.44997E-18
 -1      1699 1.24429E-04-9.92865E-06-4.59280E-05-7.70520E-05 2.50637E-18-2.84095E-18
 -1      1700 4.56236E-05-1.33487E-05-1.65781E-05-3.03781E-05 4.27074E-18-3.40677E-18
 -1      1701 6.68116E-05-3.32657E-06-2.68576E-05-5.40206E-05 4.16232E-18-3.54992E-18
 -1      1702 2.57335E-05-3.76322E-05 1.85098E-07-6.60373E-06 3.60582E-18-2.44496E-18
 -1      1703 2.73897E-05-1.52690E-05-7.69076E-06-2.07793E-05 4.86197E-18-4.19281E-18
 -1      1704 2.41499E-05-6.40465E-05 1.12766E-05-1.72781E-06 2.69399E-18-8.29775E-19
 -1      1705 1.97330E-05-4.38095E-05 6.03391E-06-2.73971E-06 3.03492E-18-1.60846E-18
 -1      1706 2.34900E-05-7.70586E-05 1.62156E-05-4.08989E-06 2.05003E-18-9.36395E-19
 -1      1707 2.12377E-05-7.07588E-05 1.50094E-05 5.42893E-06 2.72109E-18-3.86671E-19
 -1      1708 1.94908E-05-6.26993E-05 1.26090E-05-7.55883E-06-1.40184E-18-1.83997E-18
 -1      1709 2.41432E-05-7.60381E-05 1.54319E-05-9.57864E-07 9.89758E-19-1.46198E-18
 -1      1710 2.21660E-05-3.31372E-05 8.43077E-07 7.33329E-06-2.13537E-18-1.57315E-18
 -1      1711 2.49629E-05-5.62943E-05 7.60242E-06 1.30858E-07-2.03203E-18-7.49068E-19
 -1      1712 3.97649E-05-8.56075E-06-1.51742E-05 3.27365E-05-3.79471E-18-4.58075E-18
 -1      1713 3.08121E-05-2.62631E-05-6.41227E-06 1.34432E-05-2.41235E-18-2.74566E-18
 -1      1714 9.31945E-05-1.06776E-05-3.42826E-05 6.07633E-05-3.97174E-18-4.58753E-18
 -1      1715 6.53875E-05-1.27622E-05-2.43596E-05 4.01055E-05-3.80657E-18-4.11912E-18
 -1      1716 1.54147E-04-2.10171E-05-5.29310E-05 7.78742E-05-3.50714E-18-5.13302E-18
 -1      1717 1.11035E-04-6.75393E-06-4.37005E-05 6.79262E-05-4.11065E-18-5.49047E-18
 -1      1718 2.18153E-04-4.76601E-05-6.69811E-05 6.27075E-05-2.39573E-18-2.38186E-18
 -1      1719 1.77992E-04-2.80082E-05-6.04561E-05 7.37350E-05-3.68925E-18-4.59939E-18
 -1      1720 2.56558E-04-6.54052E-05-7.47772E-05 2.26930E-05-1.79952E-18 1.32815E-18
 -1      1721 2.34328E-04-5.31011E-05-7.16336E-05 5.11094E-05-2.22854E-18-1.47553E-18
 -1      1722 2.55108E-04-6.37613E-05-7.51458E-05-2.56956E-05-2.60823E-18 6.41649E-18
 -1      1723 2.60601E-04-6.68646E-05-7.59021E-05 7.19829E-06-1.82133E-18 2.57826E-18
 -1      1724 2.14868E-04-4.37855E-05-6.80862E-05-6.29442E-05-3.79037E-18 9.12593E-18
 -1      1725 2.46011E-04-6.04895E-05-7.26217E-05-4.00749E-05-3.24594E-18 6.99946E-18
 -1      1726 1.49498E-04-1.80847E-05-5.38071E-05-7.27265E-05-5.45320E-18 9.59434E-18
 -1      1727 1.94295E-04-3.77320E-05-6.18892E-05-7.03041E-05-3.77565E-18 9.73410E-18
 -1      1728 8.60943E-05-3.54610E-06-3.57701E-05-5.84708E-05-4.58330E-18 8.04088E-18
 -1      1729 1.23958E-04-1.16985E-05-4.53594E-05-7.49556E-05-5.27363E-18 1.03067E-17
 -1      1730 4.54346E-05-1.14144E-05-1.75308E-05-3.06552E-05-3.82689E-18 4.57821E-18
 -1      1731 6.50057E-05-2.68296E-06-2.67173E-05-5.23433E-05-4.38255E-18 6.84911E-18
 -1      1732 2.71018E-05-3.57436E-05-1.28094E-06-6.75636E-06-3.47284E-18 1.50941E-18
 -1      1733 3.06142E-05-1.50283E-05-9.25169E-06-2.21519E-05-3.41778E-18 3.16409E-18
 -1      1734 2.40259E-05-6.33182E-05 1.06986E-05 1.98068E-06 4.72644E-19 1.39925E-18
 -1      1735 1.93572E-05-4.20664E-05 5.15244E-06-2.80281E-07-2.49451E-18 2.09217E-18
 -1      1736 2.31501E-05-7.48038E-05 1.58023E-05-1.27810E-06 3.36955E-18 1.39739E-18
 -1      1737 2.04217E-05-6.71314E-05 1.41186E-05 6.79618E-06 9.66465E-19 5.78100E-19
 -1      1738 1.06985E-04-2.84466E-05-3.29173E-05 4.67935E-05 2.21711E-18 2.62072E-18
 -1      1739 6.84576E-05-3.35708E-05-1.63100E-05 3.93499E-05 3.83875E-18 2.02271E-18
 -1      1740 9.52553E-05-2.85747E-05-2.85760E-05-1.91285E-09-1.52128E-18 5.33340E-19
 -1      1741 9.52675E-05-2.85136E-05-2.86084E-05 6.64946E-08-1.16226E-18 5.27048E-19
 -1      1742 1.82110E-05-4.64080E-05 7.95921E-06 1.46144E-05 2.58896E-18 1.87957E-18
 -1      1743 3.78817E-05-4.08145E-05-1.77516E-06 2.79506E-05 3.23736E-18 1.44236E-18
 -1      1744 1.13749E-05-4.83424E-05 1.14766E-05 2.00482E-06 1.80429E-18 1.82281E-18
 -1      1745 1.49577E-04-2.93376E-05-4.88029E-05 4.49595E-05 2.46487E-18 1.57802E-18
 -1      1746 1.85051E-04-3.16021E-05-6.15273E-05 3.17671E-05 2.27757E-18 1.61021E-18
 -1      1747 2.06265E-04-3.32797E-05-6.89367E-05 1.22773E-05 1.47299E-18 1.11554E-18
 -1      1748 2.05021E-04-3.22145E-05-6.89599E-05-9.87839E-06 1.28580E-18 6.55180E-19
 -1      1749 1.85581E-04-3.12490E-05-6.17495E-05-3.22615E-05 1.12348E-18-7.87741E-19
 -1      1750 1.48290E-04-2.88934E-05-4.84262E-05-4.63587E-05 1.84208E-18-1.10538E-18
 -1      1751 1.05002E-04-3.11475E-05-3.12451E-05-4.51802E-05 2.08963E-18-8.69903E-19
 -1      1752 6.44469E-05-3.56107E-05-1.38760E-05-3.82818E-05 2.33273E-18-2.41658E-18
 -1      1753 3.34341E-05-4.15897E-05 3.06644E-07-2.62424E-05 2.05405E-18-1.78390E-18
 -1      1754 1.61064E-05-4.70551E-05 9.22491E-06-1.35568E-05 1.86771E-18-7.08120E-19
 -1      1755 1.25105E-05-5.21293E-05 1.21068E-05 1.64653E-06 1.30337E-18-2.20525E-18
 -1      1756 2.23754E-05-4.68688E-05 6.52204E-06 1.67478E-05-4.09964E-19-1.91874E-18
 -1      1757 4.58886E-05-4.06386E-05-5.00514E-06 2.98026E-05-9.92723E-19-2.48382E-18
 -1      1758 8.56850E-05-3.79659E-05-2.09008E-05 4.06155E-05-1.26123E-18-3.07134E-18
 -1      1759 1.26956E-04-3.67443E-05-3.80445E-05 4.14972E-05-1.99222E-18-2.71559E-18
 -1      1760 1.67544E-04-3.28060E-05-5.43501E-05 4.14594E-05-2.74079E-18-1.82197E-18
 -1      1761 2.01239E-04-3.54814E-05-6.59445E-05 2.73813E-05-3.22889E-18-5.53536E-19
 -1      1762 2.17714E-04-3.73347E-05-7.14367E-05 6.90879E-06-3.68840E-18 1.32031E-18
 -1      1763 2.13684E-04-3.68880E-05-7.01038E-05-1.52673E-05-3.45589E-18 2.80537E-18
 -1      1764 1.88755E-04-3.44361E-05-6.17850E-05-3.22445E-05-3.41153E-18 4.71289E-18
 -1      1765 1.50147E-04-3.23738E-05-4.79543E-05-4.34140E-05-2.91633E-18 6.42220E-18
 -1      1766 1.05452E-04-3.18270E-05-3.12386E-05-4.45937E-05-1.05794E-18 6.00970E-18
 -1      1767 6.60227E-05-3.56570E-05-1.47346E-05-3.65612E-05-2.09979E-18 4.12971E-18
 -1      1768 3.63530E-05-4.25875E-05-6.75988E-07-2.48009E-05-6.16640E-19 1.76286E-18
 -1      1769 1.76302E-05-4.76706E-05 8.64306E-06-1.22854E-05 1.40607E-18 2.49239E-18
 -1      1770 1.05911E-04-2.31350E-05-3.55593E-05-1.68411E-05-4.13101E-19 3.05842E-18
 -1      1771 8.91392E-05-1.05775E-05-3.37949E-05-1.33001E-05-7.23254E-19-2.48842E-19
 -1      1772 9.04629E-05-1.16297E-05-3.39278E-05-1.51143E-05-8.34116E-19 6.23363E-20
 -1      1773 9.24445E-05-1.38653E-05-3.38382E-05-1.59843E-05-8.17857E-19 4.48610E-19
 -1      1774 9.41344E-05-1.58058E-05-3.40732E-05-1.76462E-05-7.69079E-19 9.01084E-19
 -1      1775 9.33801E-05-1.63335E-05-3.30355E-05-1.37564E-05-8.49015E-19 2.93735E-19
 -1      1776 8.62543E-05-7.66130E-06-3.37543E-05-7.84177E-06-4.53192E-19-8.69810E-19
 -1      1777 8.66485E-05-7.96366E-06-3.37838E-05-9.22893E-06-5.13249E-19-7.15597E-19
 -1      1778 8.56524E-05-7.02189E-06-3.37583E-05-5.30149E-06-3.54445E-19-1.01612E-18
 -1      1779 8.58810E-05-7.20146E-06-3.37703E-05-6.60342E-06-3.99452E-19-9.78032E-19
 -1      1780 8.76396E-05-9.84894E-06-3.33711E-05-6.90432E-06-4.55579E-19-8.58733E-19
 -1      1781 8.53231E-05-6.65809E-06-3.37660E-05-2.87639E-06-1.75564E-19-9.77595E-19
 -1      1782 8.54415E-05-6.75410E-06-3.37701E-05-4.11239E-06-2.43488E-19-9.92392E-19
 -1      1783 8.70134E-05-9.12921E-06-3.34111E-05-4.51544E-06-2.96515E-19-9.10177E-19
 -1      1784 8.51940E-05-6.50704E-06-3.37713E-05-5.14360E-07-2.24853E-20-1.00274E-18
 -1      1785 8.52290E-05-6.53619E-06-3.37722E-05-1.71948E-06-8.08920E-20-9.97222E-19
 -1      1786 8.66844E-05-8.74371E-06-3.34351E-05-2.20472E-06-1.34984E-19-8.90629E-19
 -1      1787 8.52381E-05-6.54484E-06-3.37722E-05 1.83823E-06 1.10685E-19-9.91849E-19
 -1      1788 8.51974E-05-6.51145E-06-3.37712E-05 6.32179E-07 8.49194E-20-1.00072E-18
 -1      1789 8.65867E-05-8.62770E-06-3.34429E-05 6.58207E-08 2.56721E-20-9.29811E-19
 -1      1790 8.54650E-05-6.77848E-06-3.37698E-05 4.23522E-06 2.04965E-19-9.49881E-19
 -1      1791 8.53398E-05-6.67638E-06-3.37657E-05 2.99629E-06 1.89646E-19-1.00077E-18
 -1      1792 8.67009E-05-8.76269E-06-3.34341E-05 2.33739E-06 1.44443E-19-9.19752E-19
 -1      1793 8.59137E-05-7.23709E-06-3.37693E-05 6.69018E-06 3.97070E-19-7.48830E-19
 -1      1794 8.56807E-05-7.05298E-06-3.37577E-05 5.40560E-06 2.73745E-19-8.47139E-19
 -1      1795 8.70451E-05-9.16529E-06-3.34092E-05 4.63030E-06 2.49744E-19-8.17149E-19
 -1      1796 8.67123E-05-8.03271E-06-3.37812E-05 9.34897E-06 6.29269E-19-4.79884E-19
 -1      1797 8.63001E-05-7.71445E-06-3.37522E-05 7.92933E-06 5.01078E-19-6.06436E-19
 -1      1798 8.76890E-05-9.90571E-06-3.33681E-05 6.99858E-06 4.66611E-19-6.13252E-19
 -1      1799 8.81005E-05-9.38396E-06-3.38246E-05 1.22286E-05 7.84048E-19-2.43840E-19
 -1      1800 8.73742E-05-8.82563E-06-3.37588E-05 1.06355E-05 6.92367E-19-3.72536E-19
 -1      1801 8.87948E-05-1.11481E-05-3.33077E-05 9.47056E-06 6.89159E-19-3.38310E-19
 -1      1802 9.06081E-05-1.18346E-05-3.39197E-05 1.52798E-05 8.86698E-19 2.14246E-19
 -1      1803 8.92477E-05-1.07371E-05-3.37877E-05 1.34895E-05 8.02392E-19-5.55071E-20
 -1      1804 9.06659E-05-1.32144E-05-3.32121E-05 1.19448E-05 8.38619E-19-6.15158E-20
 -1      1805 9.58018E-05-1.70183E-05-3.39680E-05 1.76715E-05 8.53574E-19 1.01263E-18
 -1      1806 9.28095E-05-1.43332E-05-3.38107E-05 1.61742E-05 8.69589E-19 5.34557E-19
 -1      1807 9.39339E-05-1.68752E-05-3.30139E-05 1.38696E-05 9.15659E-19 4.27884E-19
 -1      1808 1.01808E-04-2.50621E-05-3.33225E-05 1.44097E-05 7.48989E-19 1.99932E-18
 -1      1809 9.79838E-05-1.95947E-05-3.35948E-05 1.69481E-05 8.14839E-19 1.31195E-18
 -1      1810 9.72523E-05-2.18328E-05-3.24037E-05 1.32305E-05 9.00065E-19 1.00061E-18
 -1      1811 9.86392E-05-2.61025E-05-3.13078E-05 9.42461E-06 6.57403E-19 1.77006E-18
 -1      1812 1.00046E-04-1.95378E-05-3.41824E-05-1.88545E-05-5.91414E-19 1.70010E-18
 -1      1813 9.52089E-05-2.72532E-05-2.91552E-05 4.05423E-06 6.86163E-19 1.37819E-18
 -1      1814 9.76339E-05-2.73576E-05-3.01623E-05 6.38905E-06 5.79979E-19 1.55286E-18
 -1      1815 9.74867E-05-2.55876E-05-3.08060E-05 8.74424E-06 7.85358E-19 1.16674E-18
 -1      1816 9.97206E-05-2.25148E-05-3.28074E-05-1.44520E-05-7.09814E-19 1.38140E-18
 -1      1817 9.68736E-05-2.69511E-05-2.98515E-05-5.68823E-06-6.66880E-19 1.21490E-18
 -1      1818 9.50711E-05-2.70061E-05-2.91434E-05-3.87885E-06-5.95252E-19 1.06054E-18
 -1      1819 9.42606E-05-2.72071E-05-2.86400E-05-2.39571E-06-5.13434E-19 1.04441E-18
 -1      1820 9.34993E-05-2.72882E-05-2.83387E-05-1.53522E-06-4.63036E-19 8.70816E-19
 -1      1821 9.54551E-05-2.65205E-05-2.95640E-05-4.44104E-06-6.44870E-19 6.85430E-19
 -1      1822 9.29890E-05-2.73408E-05-2.80756E-05-6.95361E-07-2.68913E-19 9.54758E-19
 -1      1823 9.27052E-05-2.74066E-05-2.79594E-05-2.45501E-07-1.54554E-19 8.78178E-19
 -1      1824 9.42668E-05-2.71953E-05-2.87657E-05-1.77272E-06-3.94525E-19 6.46865E-19
 -1      1825 9.24509E-05-2.74369E-05-2.78318E-05 2.29445E-07-2.29291E-19 8.86465E-19
 -1      1826 9.24473E-05-2.75172E-05-2.78111E-05 4.71213E-07-2.79043E-19 8.11599E-19
 -1      1827 9.36001E-05-2.75031E-05-2.83444E-05-2.69434E-07-1.89405E-19 6.18084E-19
 -1      1828 9.23756E-05-2.75532E-05-2.77652E-05 7.40225E-07-3.03160E-19 8.00692E-19
 -1      1829 9.25334E-05-2.76457E-05-2.77982E-05 8.70214E-07-1.95638E-19 6.28051E-19
 -1      1830 9.33298E-05-2.76900E-05-2.81446E-05 5.88581E-07-2.94193E-19 6.47259E-19
 -1      1831 9.25847E-05-2.76910E-05-2.78038E-05 1.02315E-06-2.91554E-19 5.08161E-19
 -1      1832 9.28368E-05-2.77899E-05-2.78691E-05 1.09391E-06-2.24742E-19 4.38590E-19
 -1      1833 9.33410E-05-2.78381E-05-2.80824E-05 1.08048E-06-2.96055E-19 3.89950E-19
 -1      1834 9.29709E-05-2.78426E-05-2.79086E-05 1.18567E-06-1.77249E-19 2.81770E-19
 -1      1835 9.32813E-05-2.79444E-05-2.79945E-05 1.22965E-06-1.01979E-19 4.99203E-19
 -1      1836 9.35434E-05-2.79713E-05-2.81093E-05 1.36921E-06-2.55161E-19-5.03633E-20
 -1      1837 9.34738E-05-2.80024E-05-2.80578E-05 1.29661E-06-1.84562E-19 4.27271E-19
 -1      1838 9.38266E-05-2.81062E-05-2.81588E-05 1.33605E-06-2.09560E-19 4.08653E-19
 -1      1839 9.38777E-05-2.80968E-05-2.81971E-05 1.55799E-06-1.62231E-19-1.03435E-19
 -1      1840 9.40654E-05-2.81689E-05-2.82409E-05 1.40420E-06-3.44250E-19 1.28182E-19
 -1      1841 9.44587E-05-2.82766E-05-2.83559E-05 1.45564E-06-4.24216E-19-6.41091E-20
 -1      1842 9.43102E-05-2.82180E-05-2.83296E-05 1.71748E-06-4.58974E-19-6.94950E-19
 -1      1843 9.47407E-05-2.83447E-05-2.84550E-05 1.54486E-06-4.68390E-19-7.81789E-20
 -1      1844 9.51829E-05-2.84602E-05-2.85860E-05 1.62154E-06-3.26777E-19-3.60608E-19
 -1      1845 9.48276E-05-2.83385E-05-2.84995E-05 1.89965E-06-4.41554E-19-2.75183E-19
 -1      1846 9.55123E-05-2.85360E-05-2.87033E-05 1.74786E-06-2.85711E-19-3.65059E-19
 -1      1847 9.60198E-05-2.86654E-05-2.88545E-05 1.86092E-06-2.47506E-19-5.90203E-19
 -1      1848 9.54319E-05-2.84635E-05-2.87052E-05 2.14507E-06-3.37133E-19-6.11910E-19
 -1      1849 9.64057E-05-2.87524E-05-2.89928E-05 2.03763E-06-2.21726E-20-5.01745E-19
 -1      1850 9.70017E-05-2.89035E-05-2.91706E-05 2.19645E-06 9.16260E-20-1.73184E-19
 -1      1851 9.61372E-05-2.86004E-05-2.89495E-05 2.48667E-06-1.90199E-19-3.20544E-19
 -1      1852 9.74573E-05-2.90068E-05-2.93337E-05 2.43407E-06 1.54291E-19-1.85897E-19
 -1      1853 9.81697E-05-2.91898E-05-2.95456E-05 2.64571E-06-1.22164E-19-4.03286E-20
 -1      1854 9.69667E-05-2.87595E-05-2.92377E-05 2.95103E-06 3.19340E-19 5.60187E-21
 -1      1855 9.87109E-05-2.93162E-05-2.97376E-05 2.95065E-06-4.03871E-19 1.20427E-19
 -1      1856 9.95699E-05-2.95436E-05-2.99913E-05 3.21786E-06-1.49467E-19 1.13459E-19
 -1      1857 9.79503E-05-2.89552E-05-2.95763E-05 3.55690E-06-9.81293E-20 2.13465E-19
 -1      1858 1.00214E-04-2.97028E-05-3.02158E-05 3.58904E-06-6.51686E-20 5.91351E-20
 -1      1859 1.01249E-04-2.99902E-05-3.05180E-05 3.90602E-06 1.22800E-19 1.31172E-19
 -1      1860 9.91233E-05-2.92090E-05-2.99714E-05 4.31010E-06-1.60275E-19 8.27277E-20
 -1      1861 1.02015E-04-3.01968E-05-3.07759E-05 4.32840E-06-5.02578E-20 3.18002E-19
 -1      1862 1.03245E-04-3.05627E-05-3.11293E-05 4.67306E-06 3.56631E-20 2.34526E-19
 -1      1863 1.00525E-04-2.95541E-05-3.04252E-05 5.19301E-06-1.25144E-20 5.24481E-19
 -1      1864 1.04153E-04-3.08391E-05-3.14173E-05 5.10656E-06 1.33904E-20 2.11990E-20
 -1      1865 1.05580E-04-3.13055E-05-3.18172E-05 5.42796E-06-4.62460E-19 1.88723E-19
 -1      1866 1.02196E-04-3.00427E-05-3.09334E-05 6.14586E-06-1.58010E-19 5.58512E-19
 -1      1867 1.06648E-04-3.16858E-05-3.21247E-05 5.79063E-06-5.94283E-19 5.82029E-19
 -1      1868 1.08234E-04-3.22751E-05-3.25526E-05 5.99152E-06 7.00155E-20 4.81616E-19
 -1      1869 1.04183E-04-3.07568E-05-3.14808E-05 7.03733E-06-3.58808E-19 7.18026E-19
 -1      1870 1.09483E-04-3.28063E-05-3.28604E-05 6.13810E-06 3.38043E-19 1.31432E-19
 -1      1871 1.11128E-04-3.35311E-05-3.32779E-05 6.05741E-06 3.70832E-19 1.49670E-19
 -1      1872 1.06534E-04-3.18140E-05-3.20378E-05 7.62440E-06-1.75124E-19 3.36844E-19
 -1      1873 1.12571E-04-3.42636E-05-3.35580E-05 5.76182E-06 4.80208E-19 3.10275E-19
 -1      1874 1.14076E-04-3.50977E-05-3.39032E-05 5.17480E-06 4.04127E-20 7.01909E-19
 -1      1875 1.09292E-04-3.33548E-05-3.25621E-05 7.51116E-06 4.68293E-19 2.04883E-19
 -1      1876 1.15688E-04-3.60433E-05-3.41277E-05 4.14190E-06 3.87438E-19 1.28507E-18
 -1      1877 1.16732E-04-3.68587E-05-3.43223E-05 2.81608E-06 1.13899E-18 1.47492E-18
 -1      1878 1.12450E-04-3.54676E-05-3.30107E-05 6.14033E-06 8.45263E-19 1.35647E-18
 -1      1879 1.18359E-04-3.78860E-05-3.44815E-05 7.92707E-07 7.15022E-19 1.82644E-18
 -1      1880 1.18516E-04-3.83747E-05-3.44579E-05-1.33614E-06 8.70525E-19 2.42291E-18
 -1      1881 1.15826E-04-3.79780E-05-3.33729E-05 2.90378E-06 1.08862E-18 2.06654E-18
 -1      1882 1.19770E-04-3.90890E-05-3.45851E-05-4.30419E-06 1.08935E-18 2.29033E-18
 -1      1883 1.18628E-04-3.87133E-05-3.43364E-05-6.85255E-06 8.67256E-19 1.94162E-18
 -1      1884 1.18851E-04-4.01523E-05-3.37142E-05-2.46889E-06 9.12804E-19 2.07881E-18
 -1      1885 1.18779E-04-3.83653E-05-3.45121E-05-9.91961E-06 3.70498E-19 1.46263E-18
 -1      1886 1.16272E-04-3.66636E-05-3.41293E-05-1.17390E-05-7.86904E-19 1.17560E-18
 -1      1887 1.20312E-04-4.03935E-05-3.42041E-05-9.18673E-06 5.67059E-19 1.21522E-18
 -1      1888 1.14873E-04-3.48215E-05-3.44134E-05-1.30879E-05-1.46216E-18 1.52559E-18
 -1      1889 1.11730E-04-3.21092E-05-3.40559E-05-1.26817E-05-1.24797E-18 1.04691E-18
 -1      1890 1.18876E-04-3.71139E-05-3.50008E-05-1.43907E-05-6.96016E-19 1.59800E-18
 -1      1891 1.09461E-04-2.95175E-05-3.43740E-05-1.05165E-05-9.63646E-19 7.93260E-19
 -1      1892 1.07228E-04-2.73531E-05-3.41755E-05-7.25170E-06-5.69497E-19 1.08424E-19
 -1      1893 1.14736E-04-3.08433E-05-3.60175E-05-1.38863E-05-1.16707E-18 2.11173E-18
 -1      1894 1.06116E-04-2.61233E-05-3.43206E-05-1.99068E-06-3.58163E-19-5.21190E-19
 -1      1895 1.06186E-04-2.61983E-05-3.43267E-05 2.58893E-06-5.43663E-19-8.57581E-19
 -1      1896 1.10899E-04-2.55171E-05-3.67744E-05-5.62158E-06-1.26769E-18 2.89397E-20
 -1      1897 1.07427E-04-2.75646E-05-3.41655E-05 7.74245E-06-3.04191E-19-1.07741E-18
 -1      1898 1.09763E-04-2.98186E-05-3.43754E-05 1.08594E-05-6.36572E-19-8.29219E-19
 -1      1899 1.11029E-04-2.56846E-05-3.67470E-05 6.28982E-06-6.97029E-19-8.36084E-19
 -1      1900 1.12031E-04-3.24214E-05-3.40544E-05 1.27998E-05-8.67428E-19-2.99228E-19
 -1      1901 1.15178E-04-3.51107E-05-3.44180E-05 1.30373E-05-5.80003E-19 9.74617E-20
 -1      1902 1.15013E-04-3.12348E-05-3.59602E-05 1.41322E-05 1.92303E-20-1.78535E-19
 -1      1903 1.16489E-04-3.68711E-05-3.41402E-05 1.15186E-05-1.00438E-18 4.22484E-19
 -1      1904 1.18923E-04-3.84863E-05-3.45201E-05 9.60992E-06-1.02319E-18 2.27772E-20
 -1      1905 1.19060E-04-3.74297E-05-3.49453E-05 1.41969E-05-6.97886E-19 6.88895E-19
 -1      1906 1.18678E-04-3.87386E-05-3.43519E-05 6.51072E-06-1.37611E-18-2.57974E-19
 -1      1907 1.19736E-04-3.90451E-05-3.45898E-05 3.97308E-06-8.06435E-19-3.67587E-20
 -1      1908 1.20292E-04-4.04594E-05-3.41708E-05 8.78538E-06-1.12420E-18 1.07440E-18
 -1      1909 1.18458E-04-3.83050E-05-3.44637E-05 1.05569E-06-1.81027E-19-2.90928E-19
 -1      1910 1.18239E-04-3.77871E-05-3.44742E-05-1.02964E-06 5.20118E-19-6.51514E-19
 -1      1911 1.18701E-04-4.00449E-05-3.37003E-05 2.11590E-06-8.62716E-19 4.29681E-19
 -1      1912 1.16608E-04-3.67547E-05-3.43129E-05-2.98835E-06 1.17810E-18-8.19180E-19
 -1      1913 1.15531E-04-3.59314E-05-3.41091E-05-4.26022E-06 1.23924E-18-8.81811E-19
 -1      1914 1.15646E-04-3.78273E-05-3.33632E-05-3.13488E-06 5.34134E-19 5.52449E-20
 -1      1915 1.13935E-04-3.49984E-05-3.38831E-05-5.23247E-06 1.26333E-18-7.68798E-19
 -1      1916 1.12425E-04-3.41709E-05-3.35346E-05-5.77575E-06 1.04587E-18 4.21753E-19
 -1      1917 1.12280E-04-3.53234E-05-3.30005E-05-6.23205E-06 1.46111E-18 4.50681E-19
 -1      1918 1.11003E-04-3.34534E-05-3.32558E-05-6.02706E-06-3.10495E-19 1.99006E-19
 -1      1919 1.09373E-04-3.27398E-05-3.28410E-05-6.07627E-06-1.16586E-18-8.59123E-19
 -1      1920 1.09161E-04-3.32469E-05-3.25526E-05-7.49046E-06 1.81993E-19 4.51212E-19
 -1      1921 1.08150E-04-3.22219E-05-3.25381E-05-5.89774E-06-9.87470E-19-3.44671E-19
 -1      1922 1.06594E-04-3.16453E-05-3.21180E-05-5.67408E-06-5.17117E-19 4.69387E-19
 -1      1923 1.06453E-04-3.17415E-05-3.20343E-05-7.52115E-06-8.15647E-19 7.31324E-19
 -1      1924 1.05556E-04-3.12766E-05-3.18187E-05-5.28622E-06-1.00607E-19 6.30097E-20
 -1      1925 1.04172E-04-3.08240E-05-3.14308E-05-4.94597E-06 9.43034E-19 6.26550E-19
 -1      1926 1.04160E-04-3.07134E-05-3.14897E-05-6.87146E-06 1.76537E-20 1.49328E-18
 -1      1927 1.03301E-04-3.05582E-05-3.11544E-05-4.48884E-06 8.30582E-19 1.90778E-19
 -1      1928 1.02125E-04-3.02077E-05-3.08168E-05-4.12518E-06-3.93407E-21 1.94659E-19
 -1      1929 1.02240E-04-3.00229E-05-3.09613E-05-5.92579E-06 7.78659E-19 1.14005E-18
 -1      1930 1.01402E-04-3.00120E-05-3.05739E-05-3.67666E-06-1.57477E-19 1.76010E-19
 -1      1931 1.00435E-04-2.97425E-05-3.02917E-05-3.33749E-06 4.43066E-19 2.88170E-19
 -1      1932 1.00648E-04-2.95549E-05-3.04784E-05-4.91728E-06-1.27311E-20 4.07779E-19
 -1      1933 9.98435E-05-2.95956E-05-3.00859E-05-2.93468E-06 7.41448E-19-7.73166E-20
 -1      1934 9.90678E-05-2.93895E-05-2.98569E-05-2.63980E-06 1.33371E-18 1.06176E-18
 -1      1935 9.93419E-05-2.92304E-05-3.00566E-05-3.96971E-06 8.48179E-19 1.71971E-18
 -1      1936 9.85895E-05-2.92775E-05-2.96875E-05-2.29553E-06 2.28248E-18 7.51152E-19
 -1      1937 9.79796E-05-2.91206E-05-2.95059E-05-2.04893E-06 2.52696E-18 1.84104E-18
 -1      1938 9.82829E-05-2.89992E-05-2.97009E-05-3.13727E-06 1.83976E-18 1.88447E-18
 -1      1939 9.75987E-05-2.90342E-05-2.93700E-05-1.76261E-06 2.14137E-18 2.69787E-18
 -1      1940 9.71282E-05-2.89153E-05-2.92293E-05-1.55996E-06 1.50750E-18 3.15806E-18
 -1      1941 9.74354E-05-2.88296E-05-2.94093E-05-2.43353E-06 3.02701E-18 1.87437E-18
 -1      1942 9.68293E-05-2.88476E-05-2.91230E-05-1.32402E-06-4.39402E-19 2.98627E-18
 -1      1943 9.64746E-05-2.87581E-05-2.90169E-05-1.15688E-06-1.14057E-18 2.47217E-18
 -1      1944 9.67662E-05-2.87010E-05-2.91766E-05-1.84987E-06 6.86998E-19 1.66033E-18
 -1      1945 9.62436E-05-2.87042E-05-2.89361E-05-9.60622E-07-1.90670E-18 2.19818E-18
 -1      1946 9.59852E-05-2.86375E-05-2.88591E-05-8.19065E-07-1.62479E-18 7.68553E-19
 -1      1947 9.62453E-05-2.85997E-05-2.89959E-05-1.36653E-06-1.75900E-18 2.82302E-18
 -1      1948 9.58089E-05-2.85941E-05-2.87995E-05-6.51196E-07-1.03112E-18 6.11800E-20
 -1      1949 9.56320E-05-2.85473E-05-2.87467E-05-5.26310E-07-3.87649E-19 9.50563E-19
 -1      1950 9.58459E-05-2.85161E-05-2.88594E-05-9.60230E-07-2.05129E-18 8.25692E-19
 -1      1951 9.55134E-05-2.85206E-05-2.87061E-05-3.86987E-07-3.71980E-19 5.12138E-19
 -1      1952 9.54027E-05-2.84953E-05-2.86708E-05-2.79039E-07 1.42199E-19-5.25022E-20
 -1      1953 9.53699E-05-2.84403E-05-2.86870E-05-3.35774E-07-1.24987E-19-6.08182E-19
 -1      1954 9.55596E-05-2.84601E-05-2.87613E-05-6.18586E-07-1.06972E-18 3.15604E-19
 -1      1955 9.31257E-05-2.73325E-05-2.81689E-05 1.58386E-06 3.93559E-19 1.13921E-18
 -1      1956 9.43123E-05-2.74364E-05-2.86027E-05 2.65851E-06 5.54595E-19 1.29252E-18
 -1      1957 9.51540E-05-2.70200E-05-2.92059E-05 4.03096E-06 6.28962E-19 9.94291E-19
 -1      1958 9.20999E-05-2.73235E-05-2.77363E-05 3.10813E-07 3.49437E-19 8.52056E-19
 -1      1959 9.25811E-05-2.73532E-05-2.79042E-05 8.65923E-07 3.23447E-19 1.04370E-18
 -1      1960 9.35709E-05-2.73433E-05-2.83904E-05 1.54653E-06 4.15701E-19 9.40557E-19
 -1      1961 9.17662E-05-2.73694E-05-2.75823E-05-3.68723E-07-6.53638E-21 6.98857E-19
 -1      1962 9.18598E-05-2.73379E-05-2.76222E-05-6.47346E-08 1.22644E-19 7.32114E-19
 -1      1963 9.27728E-05-2.74630E-05-2.80004E-05 2.07286E-07 1.89295E-19 5.96500E-19
 -1      1964 9.18545E-05-2.74738E-05-2.75807E-05-7.33511E-07 8.76894E-20 4.96578E-19
 -1      1965 9.17328E-05-2.74037E-05-2.75534E-05-5.63299E-07 2.87172E-20 6.34345E-19
 -1      1966 9.25095E-05-2.75640E-05-2.78445E-05-5.26805E-07 1.25533E-20 4.43299E-19
 -1      1967 9.21960E-05-2.76177E-05-2.76680E-05-9.27040E-07 1.56567E-19 6.43843E-19
 -1      1968 9.19535E-05-2.75261E-05-2.76030E-05-8.30616E-07 9.22761E-20 5.88691E-19
 -1      1969 9.25885E-05-2.76826E-05-2.78258E-05-9.30529E-07 6.79351E-20 3.44958E-19
 -1      1970 9.26909E-05-2.77854E-05-2.78097E-05-1.03141E-06 1.20256E-19 5.96420E-19
 -1      1971 9.23793E-05-2.76823E-05-2.77224E-05-9.73965E-07 1.28374E-19 6.63502E-19
 -1      1972 9.28833E-05-2.78192E-05-2.78918E-05-1.15355E-06 9.87803E-20 3.03689E-19
 -1      1973 9.32846E-05-2.79679E-05-2.79867E-05-1.09834E-06 3.43498E-19 2.71917E-19
 -1      1974 9.29303E-05-2.78581E-05-2.78850E-05-1.05749E-06 1.81806E-19 5.22451E-19
 -1      1975 9.33168E-05-2.79683E-05-2.80121E-05-1.28510E-06 2.59419E-19 3.40906E-19
 -1      1976 9.39531E-05-2.81625E-05-2.81901E-05-1.16270E-06-6.10128E-20 4.34983E-19
 -1      1977 9.35661E-05-2.80470E-05-2.80774E-05-1.12300E-06 2.71026E-19 3.04523E-19
 -1      1978 9.38465E-05-2.81270E-05-2.81702E-05-1.38279E-06 2.80704E-19 5.62976E-19
 -1      1979 9.46934E-05-2.83713E-05-2.84178E-05-1.24864E-06 1.29460E-19 3.90491E-19
 -1      1980 9.42726E-05-2.82484E-05-2.82940E-05-1.19906E-06 2.10269E-19 4.36985E-19
 -1      1981 9.44544E-05-2.82958E-05-2.83579E-05-1.48574E-06 1.44593E-19 7.04364E-19
 -1      1982 9.55165E-05-2.86005E-05-2.86721E-05-1.37225E-06 5.17038E-19 6.84823E-21
 -1      1983 9.50537E-05-2.84663E-05-2.85351E-05-1.30517E-06 1.98825E-19-4.47939E-20
 -1      1984 9.51395E-05-2.84788E-05-2.85731E-05-1.62061E-06 4.20085E-19-6.96452E-21
 -1      1985 9.64425E-05-2.88589E-05-2.89579E-05-1.54211E-06 4.56762E-19-2.93929E-19
 -1      1986 9.59252E-05-2.87082E-05-2.88045E-05-1.45315E-06 8.01335E-19 5.94486E-20
 -1      1987 9.59126E-05-2.86834E-05-2.88169E-05-1.80395E-06 8.85609E-19-3.71608E-19
 -1      1988 9.74949E-05-2.91572E-05-2.92810E-05-1.75813E-06-1.69598E-19 1.06530E-19
 -1      1989 9.69090E-05-2.89841E-05-2.91074E-05-1.64683E-06-2.32236E-19-3.55399E-19
 -1      1990 9.67909E-05-2.89195E-05-2.90926E-05-2.04217E-06-8.45503E-21 1.32271E-19
 -1      1991 9.86942E-05-2.95069E-05-2.96454E-05-2.00861E-06-4.11364E-19 2.54227E-19
 -1      1992 9.80284E-05-2.93056E-05-2.94492E-05-1.87991E-06-2.59317E-19 1.97605E-19
 -1      1993 9.77938E-05-2.91994E-05-2.94030E-05-2.32932E-06-2.47527E-19 2.05462E-19
 -1      1994 1.00050E-04-2.99185E-05-3.00514E-05-2.26554E-06 1.07531E-19 1.12932E-19
 -1      1995 9.93003E-05-2.96845E-05-2.98322E-05-2.13221E-06-1.71537E-19 1.59365E-19
 -1      1996 9.89370E-05-2.95371E-05-2.97488E-05-2.64277E-06-2.55593E-19-1.57804E-19
 -1      1997 1.01551E-04-3.03990E-05-3.04914E-05-2.47822E-06 3.03510E-19 1.82704E-19
 -1      1998 1.00727E-04-3.01312E-05-3.02534E-05-2.36413E-06 2.06028E-19 1.62233E-19
 -1      1999 1.00226E-04-2.99471E-05-3.01257E-05-2.93689E-06 3.53659E-19-9.31654E-21
 -1      2000 1.03151E-04-3.09478E-05-3.09463E-05-2.56655E-06 3.96849E-19-2.27615E-19
 -1      2001 1.02285E-04-3.06511E-05-3.07006E-05-2.51030E-06 5.58906E-19-2.06840E-19
 -1      2002 1.01646E-04-3.04424E-05-3.05219E-05-3.13546E-06 6.87006E-19-5.57145E-19
 -1      2003 1.04754E-04-3.15493E-05-3.13816E-05-2.41732E-06-6.29527E-19-7.42292E-19
 -1      2004 1.03910E-04-3.12388E-05-3.11485E-05-2.47441E-06-9.63434E-20-6.84773E-19
 -1      2005 1.03153E-04-3.10290E-05-3.09150E-05-3.12545E-06 2.51018E-19-5.16597E-19
 -1      2006 1.06197E-04-3.21626E-05-3.17449E-05-1.89084E-06-1.07297E-18-4.52362E-19
 -1      2007 1.05478E-04-3.18694E-05-3.15553E-05-2.13092E-06-8.67461E-19-7.47732E-19
 -1      2008 1.04657E-04-3.16959E-05-3.12707E-05-2.75779E-06-7.20704E-19-9.05491E-19
 -1      2009 1.07246E-04-3.27056E-05-3.19688E-05-8.50563E-07-6.51590E-19-6.35151E-20
 -1      2010 1.06796E-04-3.24826E-05-3.18630E-05-1.34299E-06-9.02841E-19 5.86636E-20
 -1      2011 1.06008E-04-3.23973E-05-3.15438E-05-1.86641E-06-1.01701E-18-4.03793E-19
 -1      2012 1.07605E-04-3.30402E-05-3.19823E-05 7.68882E-07 7.42987E-19-2.74191E-19
 -1      2013 1.07594E-04-3.29656E-05-3.20033E-05-1.10566E-08 1.10266E-19-7.58686E-20
 -1      2014 1.06986E-04-3.30262E-05-3.16853E-05-3.21323E-07 1.26545E-19-3.87921E-19
 -1      2015 1.06969E-04-3.29733E-05-3.17338E-05 2.85012E-06-7.25272E-20-3.29711E-19
 -1      2016 1.07552E-04-3.31410E-05-3.19129E-05 1.83772E-06 3.55747E-19 2.66749E-20
 -1      2017 1.07307E-04-3.33914E-05-3.16556E-05 1.86968E-06 3.82952E-19-7.97532E-19
 -1      2018 1.05139E-04-3.23052E-05-3.12232E-05 4.97272E-06-4.70242E-19-3.16413E-19
 -1      2019 1.06381E-04-3.27907E-05-3.15602E-05 3.93276E-06-5.80568E-19-5.09490E-19
 -1      2020 1.06674E-04-3.32294E-05-3.14441E-05 4.42164E-06-3.08204E-19 8.41276E-20
 -1      2021 1.02208E-04-3.09586E-05-3.05290E-05 6.39138E-06-7.13311E-19 1.65309E-18
 -1      2022 1.03993E-04-3.17526E-05-3.09746E-05 5.68627E-06-8.19762E-19 3.78650E-19
 -1      2023 1.04920E-04-3.23047E-05-3.10864E-05 6.66717E-06-1.04658E-18 6.62545E-19
 -1      2024 9.87394E-05-2.91544E-05-2.98079E-05 6.26151E-06-1.52746E-18 2.89327E-18
 -1      2025 1.00706E-04-3.00947E-05-3.02628E-05 6.29454E-06-1.10444E-18 2.49464E-18
 -1      2026 1.02219E-04-3.06150E-05-3.06657E-05 7.64017E-06-1.47214E-18 1.61947E-18
 -1      2027 9.57682E-05-2.74917E-05-2.92540E-05 4.14661E-06-1.07441E-19 3.07576E-18
 -1      2028 9.73579E-05-2.82631E-05-2.95943E-05 5.11095E-06-7.07167E-19 2.71974E-18
 -1      2029 9.92620E-05-2.85965E-05-3.02907E-05 6.48765E-06-8.64857E-19 2.27463E-18
 -1      2030 9.44332E-05-2.67156E-05-2.90289E-05 5.11950E-07 6.09553E-19 2.67102E-18
 -1      2031 9.50949E-05-2.69897E-05-2.91516E-05 2.16911E-06 7.74770E-20 2.97181E-18
 -1      2032 9.71368E-05-2.70691E-05-3.00592E-05 3.11694E-06-1.88160E-19 2.57336E-18
 -1      2033 9.53333E-05-2.72321E-05-2.92018E-05-3.32030E-06 5.24380E-19 2.95474E-18
 -1      2034 9.48061E-05-2.68786E-05-2.90674E-05-1.59003E-06 4.02433E-19 3.49629E-18
 -1      2035 9.67827E-05-2.67925E-05-3.00295E-05-1.43564E-06 2.00813E-19 3.06175E-18
 -1      2036 9.81018E-05-2.87793E-05-2.97187E-05-5.91094E-06 1.21091E-18 1.74053E-18
 -1      2037 9.65802E-05-2.79649E-05-2.93705E-05-4.74448E-06 1.12514E-18 2.62895E-18
 -1      2038 9.83683E-05-2.79187E-05-3.02100E-05-5.43507E-06 1.15717E-18 2.94526E-18
 -1      2039 1.01656E-04-3.06442E-05-3.04267E-05-6.53869E-06 1.17908E-19 1.12835E-18
 -1      2040 9.96717E-05-2.97064E-05-2.99700E-05-6.23379E-06 3.70461E-19 1.32835E-18
 -1      2041 1.01165E-04-2.98647E-05-3.05527E-05-7.48408E-06 8.10559E-19 1.81732E-18
 -1      2042 1.04838E-04-3.21439E-05-3.11354E-05-5.44055E-06 1.01065E-19 1.31973E-18
 -1      2043 1.02982E-04-3.13837E-05-3.06932E-05-5.87823E-06 3.74713E-20 1.23456E-18
 -1      2044 1.04063E-04-3.17666E-05-3.09699E-05-7.24760E-06 1.20495E-19 8.17440E-19
 -1      2045 1.06939E-04-3.29628E-05-3.16820E-05-3.41763E-06 3.17439E-19 1.28893E-18
 -1      2046 1.05613E-04-3.25188E-05-3.13508E-05-4.25194E-06 3.67930E-20 1.09882E-18
 -1      2047 1.06194E-04-3.30038E-05-3.13558E-05-5.36793E-06 2.69525E-19 1.13156E-18
 -1      2048 1.07787E-04-3.31323E-05-3.19772E-05-1.27725E-06 2.51761E-19 1.67761E-18
 -1      2049 1.07132E-04-3.29970E-05-3.18032E-05-2.16820E-06 5.53324E-19 1.71008E-18
 -1      2050 1.07218E-04-3.34299E-05-3.16188E-05-2.83960E-06 2.17687E-19 1.49713E-18
 -1      2051 1.07562E-04-3.28487E-05-3.20104E-05 4.71593E-07 1.26220E-18 1.86658E-19
 -1      2052 1.07521E-04-3.29416E-05-3.19919E-05-2.62749E-07 7.31664E-19 1.03261E-18
 -1      2053 1.07212E-04-3.32243E-05-3.17096E-05-4.69431E-07 1.25336E-18 1.21724E-18
 -1      2054 1.06590E-04-3.23215E-05-3.18265E-05 1.64379E-06 1.63237E-18-4.55439E-19
 -1      2055 1.07005E-04-3.25504E-05-3.19313E-05 1.14509E-06 1.57095E-18 1.48853E-19
 -1      2056 1.06448E-04-3.26610E-05-3.16258E-05 1.31878E-06 1.84960E-18 3.83828E-19
 -1      2057 1.05191E-04-3.17069E-05-3.14948E-05 2.26958E-06-1.79052E-19-1.21979E-18
 -1      2058 1.05885E-04-3.19974E-05-3.16799E-05 1.99633E-06 7.75457E-19-6.24128E-19
 -1      2059 1.05225E-04-3.19668E-05-3.13995E-05 2.42798E-06 1.00748E-18-3.41013E-19
 -1      2060 1.03623E-04-3.11001E-05-3.10847E-05 2.47501E-06 2.34518E-20-2.21572E-18
 -1      2061 1.04443E-04-3.14018E-05-3.13098E-05 2.37683E-06-4.71656E-19-1.83295E-18
 -1      2062 1.03792E-04-3.12806E-05-3.10787E-05 2.94908E-06-2.57673E-19-9.91664E-19
 -1      2063 1.02062E-04-3.05496E-05-3.06522E-05 2.40214E-06-1.10765E-18-1.98443E-18
 -1      2064 1.02899E-04-3.08333E-05-3.08861E-05 2.42122E-06-7.26763E-19-2.25313E-18
 -1      2065 1.02325E-04-3.06690E-05-3.07115E-05 3.04156E-06-5.81014E-19-2.15985E-18
 -1      2066 1.00618E-04-3.00752E-05-3.02361E-05 2.17080E-06-1.74409E-18-9.55873E-20
 -1      2067 1.01402E-04-3.03259E-05-3.04582E-05 2.25787E-06-9.30159E-19-5.82408E-19
 -1      2068 1.00937E-04-3.01540E-05-3.03368E-05 2.86287E-06-1.76463E-18-1.53001E-18
 -1      2069 9.93465E-05-2.96799E-05-2.98599E-05 1.86762E-06-8.44270E-20-2.24567E-18
 -1      2070 1.00041E-04-2.98925E-05-3.00585E-05 1.98672E-06-1.08615E-18-1.53821E-18
 -1      2071 9.96900E-05-2.97346E-05-2.99821E-05 2.53849E-06-6.31910E-19-1.33331E-18
 -1      2072 9.82689E-05-2.93587E-05-2.95349E-05 1.54804E-06-1.64574E-19-6.98501E-19
 -1      2073 9.88586E-05-2.95335E-05-2.97046E-05 1.67594E-06-2.55495E-19-2.05851E-18
 -1      2074 9.86130E-05-2.94003E-05-2.96638E-05 2.15588E-06-3.98469E-19-2.25136E-18
 -1      2075 9.73834E-05-2.91028E-05-2.92641E-05 1.24285E-06 1.71435E-18-2.12783E-18
 -1      2076 9.78672E-05-2.92430E-05-2.94041E-05 1.36657E-06 1.17540E-18-1.24984E-18
 -1      2077 9.77112E-05-2.91375E-05-2.93900E-05 1.76906E-06 1.45878E-18-2.09816E-18
 -1      2078 9.66768E-05-2.89023E-05-2.90465E-05 9.64850E-07 1.88508E-18-2.86934E-18
 -1      2079 9.70610E-05-2.90121E-05-2.91578E-05 1.07903E-06 1.89326E-18-2.10374E-18
 -1      2080 9.69761E-05-2.89327E-05-2.91629E-05 1.40621E-06 2.03460E-18-1.68005E-18
 -1      2081 9.61314E-05-2.87480E-05-2.88782E-05 7.14463E-07 9.24599E-19-2.23447E-18
 -1      2082 9.64251E-05-2.88317E-05-2.89632E-05 8.19190E-07 1.42435E-18-1.66666E-18
 -1      2083 9.63928E-05-2.87736E-05-2.89811E-05 1.07705E-06 1.05226E-18-6.17031E-19
 -1      2084 9.57296E-05-2.86328E-05-2.87552E-05 4.85632E-07 4.37668E-19-1.67951E-18
 -1      2085 9.59417E-05-2.86936E-05-2.88160E-05 5.83954E-07 9.48937E-19-2.17910E-18
 -1      2086 9.59437E-05-2.86509E-05-2.88414E-05 7.79604E-07 9.78152E-19-2.62049E-19
 -1      2087 9.54562E-05-2.85532E-05-2.86711E-05 2.73122E-07-1.15535E-18-1.57025E-18
 -1      2088 9.55929E-05-2.85928E-05-2.87110E-05 3.66930E-07-6.58969E-20-1.73433E-18
 -1      2089 9.56113E-05-2.85578E-05-2.87388E-05 5.07451E-07-3.49249E-19 4.72425E-19
 -1      2090 9.53164E-05-2.85185E-05-2.86250E-05 1.28473E-07-2.08213E-18-2.15076E-19
 -1      2091 9.53927E-05-2.85320E-05-2.86523E-05 2.10910E-07-2.31414E-18-1.21491E-18
 -1      2092 9.54110E-05-2.84990E-05-2.86779E-05 3.07179E-07-1.86556E-18 9.87118E-19
 -1      2093 9.53065E-05-2.84790E-05-2.86401E-05 1.72606E-07-2.25635E-18 1.53104E-18
 -1      2094 9.50067E-05-2.77361E-05-2.88317E-05 6.07959E-07 6.05851E-19 8.25179E-20
 -1      2095 9.50810E-05-2.78970E-05-2.87907E-05 5.81094E-07 6.41872E-19-8.92791E-19
 -1      2096 9.51536E-05-2.80504E-05-2.87587E-05 5.25018E-07-4.25153E-19-1.83954E-18
 -1      2097 9.52167E-05-2.81898E-05-2.87230E-05 4.55398E-07-3.74833E-19-9.83048E-20
 -1      2098 9.51399E-05-2.79500E-05-2.87962E-05 7.18410E-07 2.64576E-19-6.85826E-19
 -1      2099 9.52531E-05-2.82954E-05-2.86955E-05 3.63926E-07-1.39852E-18 2.75692E-19
 -1      2100 9.52916E-05-2.83980E-05-2.86664E-05 2.74048E-07-1.98467E-18 3.63581E-19
 -1      2101 9.53386E-05-2.84028E-05-2.86853E-05 3.43903E-07-1.68662E-18 7.61736E-19
 -1      2102 9.52657E-05-2.82109E-05-2.87392E-05 5.49986E-07-1.64000E-18 1.01723E-18
 -1      2103 9.48621E-05-2.74258E-05-2.89040E-05 5.94883E-07-6.08598E-19-7.48893E-19
 -1      2104 9.49343E-05-2.75839E-05-2.88635E-05 6.10961E-07-5.67495E-19 2.00848E-19
 -1      2105 9.49669E-05-2.76358E-05-2.88555E-05 7.81556E-07 6.96343E-19-6.54456E-19
 -1      2106 9.47338E-05-2.71491E-05-2.89687E-05 4.89695E-07-1.23788E-18 1.07745E-18
 -1      2107 9.47960E-05-2.72864E-05-2.89334E-05 5.45186E-07-1.26390E-18 2.48082E-18
 -1      2108 9.48002E-05-2.73346E-05-2.89118E-05 7.27400E-07 6.44500E-19 4.35214E-19
 -1      2109 9.46411E-05-2.69492E-05-2.90154E-05 3.09434E-07-1.45580E-18 1.15022E-19
 -1      2110 9.46834E-05-2.70425E-05-2.89913E-05 3.95004E-07-1.32735E-18-2.38919E-19
 -1      2111 9.46597E-05-2.70802E-05-2.89594E-05 5.63505E-07-1.90569E-19 4.78210E-19
 -1      2112 9.45962E-05-2.68536E-05-2.90371E-05 8.12553E-08-9.94914E-19 1.88720E-18
 -1      2113 9.46125E-05-2.68888E-05-2.90281E-05 1.83973E-07-1.68160E-18 1.31588E-18
 -1      2114 9.45643E-05-2.69072E-05-2.89917E-05 3.14693E-07-2.75670E-19 8.53528E-19
 -1      2115 9.46055E-05-2.68763E-05-2.90308E-05-1.61383E-07-7.62440E-19 2.08155E-19
 -1      2116 9.45932E-05-2.68478E-05-2.90381E-05-5.67979E-08-8.30333E-19 7.68428E-19
 -1      2117 9.45262E-05-2.68386E-05-2.90044E-05 1.70905E-08-1.63390E-18 1.80398E-18
 -1      2118 9.46688E-05-2.70155E-05-2.89971E-05-3.82089E-07-1.71704E-18-1.00396E-18
 -1      2119 9.46293E-05-2.69267E-05-2.90198E-05-2.91765E-07-1.18637E-18-4.72451E-19
 -1      2120 9.45513E-05-2.68847E-05-2.89955E-05-2.86222E-07-1.64725E-18-2.39038E-19
 -1      2121 9.47769E-05-2.72479E-05-2.89420E-05-5.43602E-07-1.31329E-18-7.36087E-19
 -1      2122 9.47160E-05-2.71143E-05-2.89761E-05-4.83133E-07-1.34307E-18-3.79418E-19
 -1      2123 9.46375E-05-2.70395E-05-2.89668E-05-5.48140E-07-9.24385E-19-5.52829E-19
 -1      2124 9.49194E-05-2.75493E-05-2.88720E-05-6.22775E-07 3.66828E-19 3.15884E-18
 -1      2125 9.48436E-05-2.73863E-05-2.89133E-05-6.01848E-07-4.76803E-19 1.87871E-18
 -1      2126 9.47748E-05-2.72847E-05-2.89218E-05-7.29449E-07-1.59760E-19 8.07150E-19
 -1      2127 9.50750E-05-2.78745E-05-2.87977E-05-5.98145E-07 6.63225E-19 1.77109E-18
 -1      2128 9.49966E-05-2.77087E-05-2.88395E-05-6.24422E-07 3.10710E-19 2.35844E-18
 -1      2129 9.49491E-05-2.75927E-05-2.88659E-05-7.99496E-07 8.97607E-19 2.81758E-18
 -1      2130 9.52193E-05-2.81853E-05-2.87281E-05-4.69079E-07 3.19241E-20-4.46536E-19
 -1      2131 9.51518E-05-2.80350E-05-2.87648E-05-5.40818E-07-6.89332E-19 2.27831E-18
 -1      2132 9.51337E-05-2.79210E-05-2.88054E-05-7.39834E-07-9.56855E-19 6.66636E-19
 -1      2133 5.45290E-05-3.80422E-05-7.50276E-06 4.00734E-05 2.02271E-18-1.30734E-19
 -1      2134 4.03718E-05-3.99903E-05-1.52653E-06 3.22947E-05 1.66950E-18 3.54272E-19
 -1      2135 1.17899E-05-3.18156E-05 7.38821E-06 6.56523E-06 1.88422E-18 1.29554E-18
 -1      2136 1.19966E-05-3.31587E-05 7.73906E-06-3.42047E-06 9.23689E-19 1.88761E-18
 -1      2137 2.75184E-05-3.51099E-05 2.28183E-06 2.74233E-05 1.39464E-18 1.09267E-18
 -1      2138 1.91908E-05-3.43720E-05 5.31095E-06 1.93723E-05 1.09394E-18 1.15027E-18
 -1      2139 4.18612E-05-3.47494E-05-3.48340E-06 3.69568E-05 5.58830E-19 4.77303E-19
 -1      2140 9.07782E-05-4.04239E-05-2.15842E-05 4.34282E-05 1.67035E-18 7.14049E-19
 -1      2141 7.29822E-05-4.29476E-05-1.39299E-05 3.87692E-05 2.04008E-18 2.72321E-19
 -1      2142 1.27190E-04-4.10638E-05-3.63836E-05 3.79760E-05 7.97058E-19 1.00797E-19
 -1      2143 1.07907E-04-4.26187E-05-2.86081E-05 3.67332E-05 5.30666E-19 6.65768E-19
 -1      2144 8.72958E-05-8.72037E-06-3.37636E-05-1.04973E-05-5.60292E-19-5.94180E-19
 -1      2145 8.79778E-05-9.25002E-06-3.38275E-05-1.20842E-05-6.63094E-19-3.84818E-19
 -1      2146 9.04744E-05-1.30694E-05-3.32397E-05-1.18910E-05-7.11329E-19-2.73367E-19
 -1      2147 8.86994E-05-1.10216E-05-3.33139E-05-9.37799E-06-5.10160E-19-5.64984E-19
 -1      2148 1.73534E-04-2.93726E-05-6.06795E-05 1.28893E-05 1.72752E-18 2.46910E-19
 -1      2149 1.61528E-04-3.04001E-05-5.57179E-05 1.82378E-05 2.03404E-18 6.23840E-19
 -1      2150 1.79518E-04-2.36613E-05-6.57748E-05 1.55691E-06 1.01093E-18 1.02147E-18
 -1      2151 1.75109E-04-2.40236E-05-6.38799E-05 8.58642E-06 1.24599E-18 9.65194E-19
 -1      2152 1.71824E-04-2.21759E-05-6.35342E-05-6.43105E-06 1.42090E-18 5.91229E-19
 -1      2153 1.77489E-04-2.25385E-05-6.54029E-05-5.58271E-07 1.49586E-18 1.17918E-18
 -1      2154 1.61249E-04-3.06285E-05-5.54912E-05-1.89427E-05 9.26231E-19-4.87467E-19
 -1      2155 1.71562E-04-2.88664E-05-6.04029E-05-1.10611E-05 1.07361E-18 6.47980E-20
 -1      2156 1.37204E-04-3.83266E-05-4.25836E-05-2.88280E-05 1.25700E-18-1.99053E-20
 -1      2157 1.55584E-04-3.71375E-05-4.99050E-05-2.63674E-05 1.11099E-18-1.05879E-19
 -1      2158 1.07459E-04-4.37357E-05-2.78368E-05-3.59224E-05 8.52539E-19 2.80791E-19
 -1      2159 1.27339E-04-4.10996E-05-3.63442E-05-3.79856E-05 1.35356E-18 7.53859E-20
 -1      2160 1.40022E-04-4.88796E-05-3.85801E-05-2.02295E-05 9.99287E-19 6.71697E-19
 -1      2161 6.65948E-05-4.31785E-05-1.11465E-05-3.82730E-05 8.59738E-19-9.13102E-19
 -1      2162 8.61736E-05-4.21173E-05-1.89827E-05-4.39339E-05 5.65818E-19 1.84653E-19
 -1      2163 3.75968E-05-3.81198E-05-7.15237E-07-3.25125E-05 1.15535E-18-5.61159E-19
 -1      2164 5.06233E-05-3.82172E-05-5.90466E-06-3.86479E-05 1.08039E-18-1.17666E-18
 -1      2165 7.08136E-05-4.48348E-05-1.13190E-05-4.32871E-05-3.88788E-19-3.02497E-19
 -1      2166 1.49009E-05-3.48029E-05 6.99893E-06-1.16651E-05 1.09278E-18-5.14149E-19
 -1      2167 2.04567E-05-3.10557E-05 3.75178E-06-2.27169E-05 1.31354E-18-7.48354E-19
 -1      2168 1.32020E-05-3.47219E-05 7.77407E-06 8.18311E-06 4.07423E-19-3.48639E-18
 -1      2169 1.15522E-05-3.49144E-05 8.47960E-06-1.01663E-06 9.89599E-19-1.66484E-18
 -1      2170 3.12838E-05-3.47362E-05 6.93149E-07 2.89727E-05-2.53686E-19-1.26907E-18
 -1      2171 2.15039E-05-3.71300E-05 5.10290E-06 1.84505E-05 5.84876E-19-2.42336E-18
 -1      2172 6.70696E-05-4.19129E-05-1.13011E-05 4.02759E-05 1.53313E-19-2.25618E-18
 -1      2173 5.11803E-05-4.25491E-05-4.85884E-06 3.44096E-05 9.02090E-20-1.67755E-18
 -1      2174 1.07200E-04-4.92615E-05-2.52731E-05 3.82922E-05 3.59142E-19-1.75738E-18
 -1      2175 8.47342E-05-4.69440E-05-1.72697E-05 3.70577E-05 4.13352E-19-2.14850E-18
 -1      2176 8.97236E-05-5.14321E-05-1.63170E-05 4.07369E-05 1.47850E-18-1.53816E-18
 -1      2177 1.44039E-04-4.29452E-05-4.22946E-05 3.14176E-05-1.47850E-18-9.72394E-19
 -1      2178 1.26672E-04-4.72880E-05-3.40615E-05 3.00234E-05-6.28287E-19-1.24217E-18
 -1      2179 1.68451E-04-3.74754E-05-5.48792E-05 2.12285E-05-2.24400E-18-1.88465E-19
 -1      2180 1.51497E-04-3.88172E-05-4.81609E-05 2.44708E-05-1.57294E-18-9.30466E-19
 -1      2181 1.50370E-04-4.77043E-05-4.35339E-05 1.22018E-05-8.97193E-19-6.73391E-20
 -1      2182 1.84702E-04-3.06894E-05-6.44026E-05 9.57272E-06-3.34006E-18 4.80691E-19
 -1      2183 1.73846E-04-3.11324E-05-6.02784E-05 1.51466E-05-2.95636E-18-7.70800E-20
 -1      2184 1.89916E-04-2.72525E-05-6.80057E-05-6.28065E-07-3.48131E-18 8.03265E-19
 -1      2185 1.87085E-04-2.72515E-05-6.69981E-05 6.45723E-06-3.22677E-18 8.09763E-19
 -1      2186 1.83486E-04-2.83714E-05-6.51624E-05-1.00365E-05-3.63292E-18 1.76437E-18
 -1      2187 1.89576E-04-2.81613E-05-6.74238E-05-3.28467E-06-3.68459E-18 1.15302E-18
 -1      2188 1.65621E-04-3.36042E-05-5.60246E-05-1.74449E-05-2.53496E-18 2.92396E-18
 -1      2189 1.80175E-04-3.29624E-05-6.15084E-05-1.37441E-05-3.00972E-18 2.13452E-18
 -1      2190 1.39183E-04-4.09878E-05-4.22019E-05-2.87787E-05-1.01644E-18 4.16486E-18
 -1      2191 1.58370E-04-4.02694E-05-4.97214E-05-2.56923E-05-2.29514E-18 3.67189E-18
 -1      2192 1.07273E-04-4.58023E-05-2.71236E-05-3.51341E-05 6.44592E-19 4.44523E-18
 -1      2193 1.27393E-04-4.45263E-05-3.50916E-05-3.67177E-05 2.54957E-19 5.55484E-18
 -1      2194 7.12925E-05-4.47491E-05-1.26427E-05-3.66707E-05-5.67936E-19 2.49419E-18
 -1      2195 8.93288E-05-4.31010E-05-1.99902E-05-4.16771E-05-3.87094E-19 3.68205E-18
 -1      2196 3.87077E-05-4.08063E-05-5.84350E-07-2.96261E-05 8.51268E-19 1.99942E-18
 -1      2197 5.23312E-05-3.92943E-05-6.36378E-06-3.65697E-05-8.02140E-19 1.87086E-18
 -1      2198 1.76134E-05-3.46938E-05 6.04235E-06-1.44982E-05 1.57506E-18 1.51831E-18
 -1      2199 2.52312E-05-3.44443E-05 3.03373E-06-2.39797E-05 1.46537E-18 2.04855E-18
 -1      2200 1.55610E-04-3.65706E-05-5.01669E-05 2.70530E-05 1.17669E-18 9.24960E-19
 -1      2201 1.37913E-04-3.71734E-05-4.32022E-05 3.04289E-05 1.54668E-18 8.19928E-19
 -1      2202 1.39161E-04-4.83088E-05-3.84380E-05 2.18467E-05-1.51090E-19-7.88588E-19
 -1      2203 9.70981E-05-2.42873E-05-3.12782E-05-9.98684E-06-7.20984E-19 1.17804E-18
 -1      2204 1.54216E-04-3.51273E-05-5.02067E-05 8.39370E-06 1.16742E-18-2.58345E-19
 -1      2205 9.62863E-05-2.30779E-05-3.14384E-05-1.03606E-05-7.91076E-19 7.22519E-19
 -1      2206 1.88760E-05-2.57784E-05 2.40819E-06 1.62212E-05 9.34383E-19 1.12698E-18
 -1      2207 7.53735E-05-4.61138E-05-1.27907E-05 4.28613E-05 5.03138E-19-1.22592E-18
 -1      2208 9.52696E-05-2.82658E-05-2.87143E-05-4.40561E-07 3.47300E-19-1.03752E-18
 -1      2209 1.75527E-05-2.47806E-05 2.57897E-06-1.20015E-05 1.40713E-18 1.73303E-18
 -1      2210 1.12455E-04-5.23376E-05-2.56396E-05 3.62446E-05-2.32934E-20-9.13949E-19
 -1      2211 3.86485E-05-3.47445E-05-2.28888E-06-3.25848E-05 1.34657E-18 2.59870E-18
 -1      2212 7.38700E-05-4.71412E-05-1.18191E-05-4.12277E-05 2.57498E-19 2.68884E-18
 -1      2213 1.12130E-04-5.51106E-05-2.43773E-05-3.51278E-05 8.61856E-19 3.00358E-18
 -1      2214 1.41027E-04-5.24322E-05-3.75687E-05-2.05931E-05 4.63327E-19 3.31317E-18
 -1      2215 1.58756E-04-3.94871E-05-5.03239E-05-7.09281E-06-1.50608E-18 1.39168E-18
 -1      2216 1.66292E-04-2.43347E-05-5.95687E-05 2.59919E-07-3.32926E-18 5.33631E-19
 -1      2217 1.69376E-04-1.74163E-05-6.36105E-05 1.78131E-07-3.63081E-18 2.48181E-19
 -1      2218 1.62440E-04-3.36713E-05-5.42109E-05 3.08999E-06-2.32087E-18 6.68309E-19
 -1      2219 1.23138E-04-5.35728E-05-2.97354E-05 2.97757E-05 4.90009E-19-1.10368E-18
 -1      2220 1.21080E-04-5.86608E-05-2.61089E-05 2.99145E-05 1.12190E-18-2.75180E-19
 -1      2221 1.36192E-04-5.88311E-05-3.39376E-05 1.89934E-05 7.30037E-19 9.33854E-20
 -1      2222 5.00157E-05-3.83517E-05-5.29922E-06 3.70868E-05 9.90182E-19-1.33958E-18
 -1      2223 2.03799E-05-2.69246E-05 2.17965E-06 1.77373E-05 4.65868E-19-3.08024E-18
 -1      2224 3.54588E-05-3.16178E-05-1.92743E-06-3.24208E-05 4.68833E-19-5.97158E-19
 -1      2225 1.09630E-04-5.26907E-05-2.43493E-05-3.68980E-05-1.97782E-19 9.39783E-19
 -1      2226 1.53156E-04-3.57033E-05-4.95072E-05-6.29114E-06 6.81650E-19-1.79571E-19
 -1      2227 1.56461E-04-1.94792E-05-5.78769E-05 5.79328E-07 1.67035E-18-5.00808E-19
 -1      2228 1.58706E-04-2.01310E-05-5.83718E-05 1.91800E-07 1.04672E-18-3.28649E-19
 -1      2229 1.56874E-04-1.24072E-05-6.09753E-05 3.54100E-07 1.07573E-18 2.16867E-19
 -1      2230 1.48957E-05-2.40669E-05 3.30104E-06-8.00497E-06 4.81856E-19-1.54965E-18
 -1      2231 1.67648E-04-2.04443E-05-6.16955E-05-6.82996E-07-3.40084E-18 3.58718E-19
 -1      2232 9.51649E-05-2.63507E-05-2.94781E-05 4.15970E-06 4.94965E-19 8.29847E-19
 -1      2233 9.61310E-05-2.58368E-05-3.00524E-05 5.97171E-06 6.50177E-19 8.26489E-19
 -1      2234 8.81831E-05-1.11407E-05-3.30577E-05-3.63372E-06-2.38195E-19-8.09307E-19
 -1      2235 8.84156E-05-1.14153E-05-3.30372E-05-4.77023E-06-3.34649E-19-8.58097E-19
 -1      2236 8.87667E-05-1.19076E-05-3.29851E-05-5.78252E-06-3.45391E-19-8.65886E-19
 -1      2237 8.91674E-05-1.23827E-05-3.29528E-05-6.95520E-06-4.11843E-19-7.40274E-19
 -1      2238 8.99275E-05-1.37720E-05-3.26366E-05-4.85883E-06-2.40762E-19-7.86483E-19
 -1      2239 8.78376E-05-1.06726E-05-3.31048E-05 6.12339E-07 5.24516E-20-8.24659E-19
 -1      2240 8.78334E-05-1.06679E-05-3.31051E-05-4.91267E-07-7.60007E-20-8.17744E-19
 -1      2241 8.80173E-05-1.09011E-05-3.30842E-05 2.73880E-06 1.42291E-19-8.66846E-19
 -1      2242 8.79034E-05-1.07662E-05-3.30949E-05 1.62629E-06 8.00393E-20-8.85149E-19
 -1      2243 8.91449E-05-1.27007E-05-3.27645E-05 1.04026E-06 2.97763E-20-8.17225E-19
 -1      2244 8.84485E-05-1.14562E-05-3.30341E-05 4.85575E-06 3.05418E-19-7.36707E-19
 -1      2245 8.82113E-05-1.11761E-05-3.30550E-05 3.73781E-06 2.25558E-19-8.50421E-19
 -1      2246 8.94103E-05-1.30630E-05-3.27216E-05 2.99331E-06 1.65964E-19-8.23462E-19
 -1      2247 8.92207E-05-1.24493E-05-3.29477E-05 7.03521E-06 4.95041E-19-4.96388E-19
 -1      2248 8.88074E-05-1.19588E-05-3.29809E-05 5.86668E-06 3.96988E-19-5.92288E-19
 -1      2249 8.99655E-05-1.38223E-05-3.26315E-05 4.93371E-06 3.44373E-19-5.74060E-19
 -1      2250 9.04757E-05-1.40683E-05-3.28101E-05 9.18279E-06 6.94440E-19-2.01124E-19
 -1      2251 8.98045E-05-1.32544E-05-3.28611E-05 8.00414E-06 5.99872E-19-3.46688E-19
 -1      2252 9.08947E-05-1.50961E-05-3.24781E-05 6.82215E-06 4.79971E-19-3.33896E-19
 -1      2253 9.24459E-05-1.66448E-05-3.25865E-05 1.10715E-05 8.14816E-19 7.59286E-20
 -1      2254 9.13832E-05-1.53045E-05-3.26657E-05 9.98971E-06 7.23753E-19-8.97259E-20
 -1      2255 9.23032E-05-1.70618E-05-3.22254E-05 8.46933E-06 6.26052E-19-1.04119E-19
 -1      2256 9.42075E-05-2.70892E-05-2.87474E-05 1.70568E-06 4.29661E-19 6.95488E-19
 -1      2257 9.47946E-05-2.68662E-05-2.90407E-05 2.69052E-06 4.99309E-19 8.01793E-19
 -1      2258 9.53132E-05-2.58207E-05-2.97909E-05 4.30690E-06 5.87550E-19 5.60842E-19
 -1      2259 9.58749E-05-2.50663E-05-3.02985E-05-6.14723E-06-6.62595E-19 5.46657E-19
 -1      2260 9.52245E-05-2.58233E-05-2.97592E-05-4.23192E-06-6.03187E-19 4.81647E-19
 -1      2261 1.47723E-04-3.27079E-05-4.97828E-05-2.12325E-06 1.04767E-18-9.62653E-19
 -1      2262 1.45251E-04-4.07743E-05-4.49722E-05 3.03322E-06 2.36269E-19-7.97058E-19
 -1      2263 9.51175E-05-2.65047E-05-2.93481E-05-2.87377E-06-4.75682E-19 5.42215E-19
 -1      2264 9.46636E-05-2.68751E-05-2.90509E-05-1.79602E-06-2.76086E-19 5.18256E-19
 -1      2265 9.53291E-05-2.53206E-05-3.00066E-05-4.22427E-06-5.21162E-19 3.12253E-19
 -1      2266 9.44795E-05-2.72002E-05-2.87954E-05-9.21961E-07-1.97982E-19 5.12739E-19
 -1      2267 9.42427E-05-2.74110E-05-2.86382E-05-2.94721E-07-2.05501E-19 4.87344E-19
 -1      2268 9.50457E-05-2.66552E-05-2.93236E-05-1.80803E-06-2.70814E-19 3.71813E-19
 -1      2269 9.41119E-05-2.75861E-05-2.84883E-05 2.48941E-07-3.06248E-19 5.38662E-19
 -1      2270 9.40451E-05-2.77270E-05-2.84176E-05 6.16153E-07-3.13614E-19 4.89497E-19
 -1      2271 9.47683E-05-2.73658E-05-2.89004E-05-2.63977E-07-2.41040E-19 2.69697E-19
 -1      2272 9.39857E-05-2.78300E-05-2.83397E-05 9.49899E-07-4.11744E-19 2.78563E-19
 -1      2273 9.40374E-05-2.79349E-05-2.83249E-05 1.16699E-06-3.58679E-19 6.25115E-20
 -1      2274 9.46086E-05-2.77734E-05-2.86550E-05 6.99725E-07-5.37473E-19 1.89077E-19
 -1      2275 9.40409E-05-2.79990E-05-2.82969E-05 1.37515E-06-4.08200E-19-9.97400E-20
 -1      2276 9.41735E-05-2.80821E-05-2.83197E-05 1.51045E-06-4.43988E-19-2.09332E-19
 -1      2277 9.45737E-05-2.80168E-05-2.85332E-05 1.30118E-06-5.66937E-19-1.00357E-19
 -1      2278 9.42266E-05-2.81223E-05-2.83274E-05 1.65179E-06-3.45365E-19-3.81862E-19
 -1      2279 9.44167E-05-2.81905E-05-2.83768E-05 1.75100E-06-2.49276E-19-4.64201E-19
 -1      2280 9.46436E-05-2.81617E-05-2.84989E-05 1.69255E-06-5.74409E-19-3.81742E-19
 -1      2281 9.45084E-05-2.82141E-05-2.84112E-05 1.86788E-06-4.63689E-19-5.80050E-19
 -1      2282 9.47443E-05-2.82720E-05-2.84813E-05 1.96362E-06-5.72413E-19-5.46034E-19
 -1      2283 9.47959E-05-2.82412E-05-2.85286E-05 1.98202E-06-4.52637E-19-5.51165E-19
 -1      2284 9.48679E-05-2.82835E-05-2.85369E-05 2.08785E-06-4.36128E-19-4.80663E-19
 -1      2285 9.51465E-05-2.83351E-05-2.86253E-05 2.20488E-06-4.11595E-19-3.70270E-19
 -1      2286 9.50143E-05-2.82737E-05-2.86074E-05 2.24905E-06-5.20671E-19-7.50356E-19
 -1      2287 9.52989E-05-2.83375E-05-2.86993E-05 2.36128E-06-3.19071E-19-1.17659E-19
 -1      2288 9.56243E-05-2.83874E-05-2.88059E-05 2.51926E-06-2.38515E-19-1.87118E-19
 -1      2289 9.52900E-05-2.82707E-05-2.87263E-05 2.55419E-06-3.33736E-19-4.37244E-19
 -1      2290 9.58054E-05-2.83835E-05-2.88972E-05 2.72778E-06-1.14872E-19 1.51037E-19
 -1      2291 9.61867E-05-2.84371E-05-2.90236E-05 2.94258E-06 2.21913E-19 5.74197E-19
 -1      2292 9.56210E-05-2.82410E-05-2.88806E-05 2.94507E-06 9.44937E-20 3.53407E-19
 -1      2293 9.63993E-05-2.84304E-05-2.91319E-05 3.21913E-06 4.04920E-19 1.64248E-19
 -1      2294 9.68496E-05-2.84951E-05-2.92807E-05 3.50290E-06 3.40545E-19 1.84346E-19
 -1      2295 9.60107E-05-2.81936E-05-2.90679E-05 3.45951E-06 2.02925E-19 1.55581E-19
 -1      2296 9.70988E-05-2.84913E-05-2.94057E-05 3.85900E-06-5.20838E-20 7.62204E-20
 -1      2297 9.76342E-05-2.85777E-05-2.95794E-05 4.21863E-06-4.19137E-20 1.77150E-19
 -1      2298 9.64677E-05-2.81406E-05-2.92865E-05 4.12616E-06 1.08328E-19-2.73862E-19
 -1      2299 9.79283E-05-2.85872E-05-2.97201E-05 4.65946E-06-1.22505E-19 1.98801E-19
 -1      2300 9.85673E-05-2.87118E-05-2.99202E-05 5.09293E-06-1.06397E-19 4.53190E-19
 -1      2301 9.70061E-05-2.81023E-05-2.95337E-05 4.96220E-06-6.45461E-20-1.58014E-19
 -1      2302 9.89210E-05-2.87538E-05-3.00737E-05 5.61311E-06-2.95225E-19 3.81019E-19
 -1      2303 9.96838E-05-2.89430E-05-3.02991E-05 6.10268E-06-1.70216E-19 3.76599E-19
 -1      2304 9.76495E-05-2.81157E-05-2.98041E-05 5.96737E-06-9.12877E-20 2.19583E-19
 -1      2305 1.00124E-04-2.90530E-05-3.04596E-05 6.67879E-06-1.67536E-19 1.40502E-20
 -1      2306 1.01033E-04-2.93495E-05-3.07049E-05 7.17962E-06-3.12555E-19 1.68036E-19
 -1      2307 9.84392E-05-2.82480E-05-3.00870E-05 7.11288E-06-4.38164E-19-2.80017E-20
 -1      2308 1.01608E-04-2.95890E-05-3.08630E-05 7.75794E-06-3.23270E-19 2.07519E-19
 -1      2309 1.02690E-04-3.00587E-05-3.11170E-05 8.18156E-06-2.19200E-19 2.05580E-19
 -1      2310 9.94506E-05-2.86163E-05-3.03656E-05 8.32287E-06-2.89741E-19-1.99190E-19
 -1      2311 1.03490E-04-3.05267E-05-3.12608E-05 8.65924E-06-1.75344E-19 5.21244E-19
 -1      2312 1.04771E-04-3.12610E-05-3.15061E-05 8.85339E-06 2.40619E-20 3.37784E-19
 -1      2313 1.00820E-04-2.94131E-05-3.06177E-05 9.44584E-06-1.10644E-19 5.42154E-19
 -1      2314 1.05940E-04-3.20958E-05-3.16266E-05 9.05220E-06 3.61525E-19 3.43135E-19
 -1      2315 1.07443E-04-3.31941E-05-3.18429E-05 8.78486E-06 6.42451E-19 3.74028E-19
 -1      2316 1.02776E-04-3.09203E-05-3.08231E-05 1.02132E-05 2.10091E-19 5.74532E-19
 -1      2317 1.09173E-04-3.45395E-05-3.19463E-05 8.42230E-06 6.02077E-19 7.44588E-19
 -1      2318 1.10872E-04-3.60384E-05-3.21232E-05 7.39489E-06 1.12424E-18 9.81246E-19
 -1      2319 1.05656E-04-3.34745E-05-3.09830E-05 1.01858E-05 7.27610E-19 8.09438E-19
 -1      2320 1.13336E-04-3.79244E-05-3.22579E-05 6.06223E-06 1.28166E-18 5.72975E-19
 -1      2321 1.15052E-04-3.95972E-05-3.24189E-05 3.99348E-06 1.16055E-18 1.23914E-18
 -1      2322 1.09844E-04-3.73006E-05-3.11623E-05 8.70127E-06 9.00993E-19 4.26604E-19
 -1      2323 1.18142E-04-4.16649E-05-3.27079E-05 1.32542E-06 8.84799E-19 1.36084E-18
 -1      2324 1.19452E-04-4.28556E-05-3.29330E-05-1.77369E-06 8.51573E-19 1.30536E-18
 -1      2325 1.15435E-04-4.19824E-05-3.15615E-05 4.92283E-06 1.17589E-18 2.73823E-19
 -1      2326 1.22446E-04-4.40370E-05-3.35973E-05-5.93163E-06 5.08555E-19 1.63679E-18
 -1      2327 1.22480E-04-4.32612E-05-3.40289E-05-9.37192E-06 3.00008E-19 1.55569E-18
 -1      2328 1.21755E-04-4.59073E-05-3.25770E-05-1.78949E-06 7.83206E-19 4.13541E-19
 -1      2329 1.23675E-04-4.17694E-05-3.52481E-05-1.33769E-05 2.72903E-20 1.20970E-18
 -1      2330 1.22029E-04-3.81858E-05-3.59459E-05-1.52165E-05-6.01036E-19 1.60427E-18
 -1      2331 1.26079E-04-4.51327E-05-3.47242E-05-1.04776E-05-1.54769E-19 6.82292E-19
 -1      2332 1.20404E-04-3.34752E-05-3.75759E-05-1.61747E-05-1.26976E-18 1.76732E-18
 -1      2333 1.17704E-04-2.82758E-05-3.83439E-05-1.41334E-05-1.57416E-18 1.67787E-18
 -1      2334 1.25827E-04-3.73061E-05-3.80203E-05-1.65245E-05-4.85720E-19 1.25062E-18
 -1      2335 1.15268E-04-2.36698E-05-3.95981E-05-9.29240E-06-1.62726E-18 7.70926E-19
 -1      2336 1.13781E-04-2.10875E-05-3.99532E-05-3.69592E-06-1.43741E-18 4.95632E-19
 -1      2337 1.21316E-04-2.48094E-05-4.15906E-05-1.31190E-05-2.02319E-18 1.63382E-18
 -1      2338 1.13982E-04-2.12793E-05-3.99038E-05 4.48624E-06-9.62918E-19 6.84998E-19
 -1      2339 1.15488E-04-2.41240E-05-3.95125E-05 9.92486E-06-1.80153E-19 3.39898E-19
 -1      2340 1.18282E-04-1.84894E-05-4.29427E-05 6.98355E-07-1.27743E-18 7.77894E-19
 -1      2341 1.18001E-04-2.88789E-05-3.82147E-05 1.45192E-05 5.93982E-20 1.07136E-20
 -1      2342 1.20758E-04-3.41095E-05-3.74366E-05 1.62779E-05 4.80426E-20 5.31672E-19
 -1      2343 1.21480E-04-2.51840E-05-4.14974E-05 1.38357E-05-4.73333E-19 3.52313E-19
 -1      2344 1.22147E-04-3.86597E-05-3.58105E-05 1.50008E-05-4.65775E-19 1.93891E-20
 -1      2345 1.23729E-04-4.20888E-05-3.51248E-05 1.30136E-05-8.91133E-19 5.09543E-22
 -1      2346 1.26051E-04-3.79666E-05-3.78311E-05 1.63192E-05-2.04294E-19 6.91126E-20
 -1      2347 1.22386E-04-4.33760E-05-3.39429E-05 8.87790E-06-9.06322E-19 3.22203E-20
 -1      2348 1.22199E-04-4.39463E-05-3.35326E-05 5.42424E-06-8.82585E-19 7.89249E-19
 -1      2349 1.25959E-04-4.54027E-05-3.45441E-05 9.93826E-06-5.58102E-19-5.43094E-19
 -1      2350 1.19211E-04-4.26819E-05-3.29031E-05 1.42016E-06-1.42101E-18 1.42585E-18
 -1      2351 1.17869E-04-4.14678E-05-3.26847E-05-1.64104E-06-1.06345E-18 5.22484E-19
 -1      2352 1.21341E-04-4.56465E-05-3.24973E-05 1.30618E-06-1.13040E-18 8.88738E-19
 -1      2353 1.14814E-04-3.93844E-05-3.24094E-05-4.24217E-06 2.91161E-19 8.05752E-19
 -1      2354 1.13080E-04-3.76963E-05-3.22506E-05-6.24091E-06 1.28633E-18 1.16081E-18
 -1      2355 1.15100E-04-4.16832E-05-3.15376E-05-5.19847E-06-1.76198E-19 1.18174E-18
 -1      2356 1.10670E-04-3.58341E-05-3.21218E-05-7.48542E-06 1.15579E-18 1.24541E-18
 -1      2357 1.08986E-04-3.43590E-05-3.19449E-05-8.45208E-06 1.01161E-18 9.74535E-19
 -1      2358 1.09570E-04-3.70049E-05-3.11631E-05-8.80614E-06 1.19300E-18 2.10821E-18
 -1      2359 1.07298E-04-3.30439E-05-3.18440E-05-8.75852E-06 4.37847E-19 1.23021E-18
 -1      2360 1.05820E-04-3.19697E-05-3.16293E-05-8.97807E-06-1.20539E-19 1.03616E-18
 -1      2361 1.05478E-04-3.32612E-05-3.09932E-05-1.01544E-05 7.14423E-19 1.42188E-18
 -1      2362 1.04684E-04-3.11592E-05-3.15118E-05-8.73924E-06-1.30055E-18 1.12799E-18
 -1      2363 1.03433E-04-3.04441E-05-3.12709E-05-8.50886E-06-1.03091E-18 1.13778E-18
 -1      2364 1.02675E-04-3.07760E-05-3.08391E-05-1.00853E-05-8.26454E-19 1.31680E-18
 -1      2365 1.02657E-04-2.99918E-05-3.11317E-05-8.00016E-06-4.40519E-19 3.22148E-19
 -1      2366 1.01610E-04-2.95360E-05-3.08851E-05-7.54663E-06 3.27890E-20 2.76020E-19
 -1      2367 1.00780E-04-2.93175E-05-3.06409E-05-9.24534E-06-9.88821E-19-3.49775E-20
 -1      2368 1.01055E-04-2.93052E-05-3.07339E-05-6.93960E-06 6.07860E-19-6.46701E-19
 -1      2369 1.00185E-04-2.90189E-05-3.04991E-05-6.41006E-06 3.91779E-19-5.35929E-19
 -1      2370 9.94616E-05-2.85487E-05-3.03993E-05-8.06022E-06-2.07983E-19-8.19968E-19
 -1      2371 9.97664E-05-2.89131E-05-3.03479E-05-5.80268E-06 4.01616E-19-6.87798E-19
 -1      2372 9.90497E-05-2.87323E-05-3.01362E-05-5.28138E-06 1.71570E-19 3.23400E-19
 -1      2373 9.84970E-05-2.81928E-05-3.01357E-05-6.78725E-06 3.00727E-19-1.48293E-18
 -1      2374 9.87192E-05-2.86916E-05-2.99945E-05-4.72400E-06 5.96824E-19 1.00856E-18
 -1      2375 9.81344E-05-2.85753E-05-2.98114E-05-4.25262E-06 1.85532E-18 1.57759E-18
 -1      2376 9.77559E-05-2.80632E-05-2.98726E-05-5.56984E-06 1.10877E-18-3.14623E-19
 -1      2377 9.78670E-05-2.85656E-05-2.96850E-05-3.76634E-06 9.47128E-19 1.63723E-18
 -1      2378 9.73955E-05-2.84885E-05-2.95317E-05-3.36036E-06 1.29475E-18 8.55988E-19
 -1      2379 9.71664E-05-2.80464E-05-2.96268E-05-4.47822E-06 1.49182E-18 7.85051E-19
 -1      2380 9.71767E-05-2.84909E-05-2.94234E-05-2.94912E-06 3.16797E-18 1.01973E-18
 -1      2381 9.68014E-05-2.84373E-05-2.92987E-05-2.60894E-06 2.88260E-18 2.05781E-19
 -1      2382 9.66885E-05-2.80777E-05-2.94083E-05-3.53754E-06 1.90700E-18 5.96315E-19
 -1      2383 9.66219E-05-2.84419E-05-2.92089E-05-2.26718E-06 1.54610E-18 6.56752E-19
 -1      2384 9.63272E-05-2.84018E-05-2.91103E-05-1.98535E-06 6.74885E-19 7.45697E-19
 -1      2385 9.62983E-05-2.81217E-05-2.92219E-05-2.74646E-06 1.99775E-18-3.33730E-19
 -1      2386 9.61791E-05-2.84026E-05-2.90383E-05-1.70233E-06-3.84556E-19 1.15183E-18
 -1      2387 9.59510E-05-2.83698E-05-2.89624E-05-1.46761E-06-2.07233E-18 1.50225E-18
 -1      2388 9.59783E-05-2.81588E-05-2.90684E-05-2.08906E-06 6.21473E-19 4.42213E-19
 -1      2389 9.58280E-05-2.83654E-05-2.89059E-05-1.23073E-06-3.27497E-18 1.51130E-18
 -1      2390 9.56566E-05-2.83366E-05-2.88493E-05-1.03247E-06-2.39242E-18 6.79506E-19
 -1      2391 9.57140E-05-2.81789E-05-2.89458E-05-1.54214E-06-3.14334E-18 3.70713E-19
 -1      2392 5.47491E-05-3.42777E-05-8.53486E-06 4.13040E-05 2.29546E-19-3.79259E-19
 -1      2393 4.15138E-05-2.81899E-05-5.30540E-06 3.41022E-05 2.53686E-19 9.07596E-19
 -1      2394 9.33992E-05-2.76639E-05-2.81633E-05-5.65959E-07 1.25085E-19 2.37209E-19
 -1      2395 9.34457E-05-2.75569E-05-2.82133E-05-2.51886E-07 8.00835E-20 4.02964E-19
 -1      2396 9.34243E-05-2.78330E-05-2.81036E-05-1.05370E-06 1.79327E-19 1.72150E-20
 -1      2397 9.33329E-05-2.77376E-05-2.80987E-05-8.74571E-07 1.34370E-19 1.90002E-19
 -1      2398 9.40889E-05-2.77600E-05-2.84388E-05-6.61689E-07 2.06527E-19 1.15397E-19
 -1      2399 9.36267E-05-2.79779E-05-2.81291E-05-1.34152E-06 9.89411E-20 1.53061E-19
 -1      2400 9.34473E-05-2.78890E-05-2.80892E-05-1.23602E-06 1.56072E-19 4.46036E-20
 -1      2401 9.40710E-05-2.79622E-05-2.83417E-05-1.21636E-06 2.16010E-19-9.72764E-22
 -1      2402 9.39526E-05-2.81097E-05-2.82126E-05-1.52601E-06 2.05825E-19 3.72097E-19
 -1      2403 9.37148E-05-2.80253E-05-2.81492E-05-1.45536E-06 3.64289E-20 3.39573E-19
 -1      2404 9.41960E-05-2.81052E-05-2.83316E-05-1.55783E-06 7.05371E-20 4.60132E-20
 -1      2405 9.43703E-05-2.82346E-05-2.83379E-05-1.67252E-06 2.30829E-19 6.78185E-19
 -1      2406 9.40891E-05-2.81524E-05-2.82572E-05-1.61054E-06 4.80988E-19 6.29586E-19
 -1      2407 9.44266E-05-2.82130E-05-2.83826E-05-1.79030E-06 1.44626E-19 5.46480E-19
 -1      2408 9.48655E-05-2.83588E-05-2.84963E-05-1.82635E-06 3.56317E-19 1.23866E-19
 -1      2409 9.45458E-05-2.82756E-05-2.84011E-05-1.75495E-06 1.95127E-19 3.86317E-19
 -1      2410 9.47390E-05-2.82996E-05-2.84785E-05-1.98546E-06 4.58897E-19 4.39347E-19
 -1      2411 9.54375E-05-2.84903E-05-2.86843E-05-2.01835E-06 8.51467E-19-3.31072E-19
 -1      2412 9.50768E-05-2.84015E-05-2.85751E-05-1.92546E-06 6.54593E-19 6.41949E-21
 -1      2413 9.51223E-05-2.83759E-05-2.86096E-05-2.19326E-06 6.82310E-19-1.90156E-19
 -1      2414 9.60945E-05-2.86396E-05-2.89011E-05-2.26709E-06 6.79605E-19-2.88255E-19
 -1      2415 9.56858E-05-2.85390E-05-2.87772E-05-2.14605E-06 7.26795E-19-4.41961E-19
 -1      2416 9.55758E-05-2.84537E-05-2.87705E-05-2.44722E-06 7.98230E-19-1.97529E-19
 -1      2417 9.68508E-05-2.88203E-05-2.91472E-05-2.57836E-06-2.03278E-19-2.18186E-19
 -1      2418 9.63849E-05-2.87003E-05-2.90073E-05-2.42855E-06 3.19593E-19 5.91526E-20
 -1      2419 9.61070E-05-2.85471E-05-2.89583E-05-2.76628E-06 2.58323E-19-3.12254E-19
 -1      2420 9.77231E-05-2.90501E-05-2.94226E-05-2.94245E-06-1.41467E-19-6.83020E-20
 -1      2421 9.71908E-05-2.89011E-05-2.92662E-05-2.77100E-06-8.88036E-20-5.36515E-20
 -1      2422 9.67297E-05-2.86748E-05-2.91709E-05-3.15393E-06-2.02474E-19-3.60793E-19
 -1      2423 9.87267E-05-2.93513E-05-2.97250E-05-3.32897E-06-3.38652E-19 6.35403E-20
 -1      2424 9.81222E-05-2.91622E-05-2.95529E-05-3.15357E-06-3.73622E-19-1.14906E-21
 -1      2425 9.74626E-05-2.88619E-05-2.94052E-05-3.59468E-06-1.82615E-19-1.27604E-19
 -1      2426 9.98715E-05-2.97510E-05-3.00473E-05-3.67962E-06 4.62774E-19-2.25403E-19
 -1      2427 9.91958E-05-2.95093E-05-2.98636E-05-3.53225E-06 5.45873E-20-1.16077E-19
 -1      2428 9.83280E-05-2.91424E-05-2.96565E-05-4.04810E-06-9.28934E-20 3.95136E-20
 -1      2429 1.01156E-04-3.02798E-05-3.03768E-05-3.89988E-06 6.99401E-19-2.72092E-19
 -1      2430 1.00422E-04-2.99736E-05-3.01893E-05-3.83076E-06 8.63259E-19 8.90452E-20
 -1      2431 9.93506E-05-2.95601E-05-2.99164E-05-4.44066E-06 4.34925E-19-1.37346E-19
 -1      2432 1.02558E-04-3.09651E-05-3.06929E-05-3.85272E-06 6.60752E-21-2.22700E-19
 -1      2433 1.01797E-04-3.05877E-05-3.05148E-05-3.93235E-06 4.67780E-19-1.12643E-19
 -1      2434 1.00555E-04-3.01666E-05-3.01734E-05-4.65686E-06 4.13842E-19-1.28038E-19
 -1      2435 1.04026E-04-3.18159E-05-3.09690E-05-3.36130E-06-7.39036E-19-4.16865E-19
 -1      2436 1.03294E-04-3.13752E-05-3.08182E-05-3.67648E-06-3.70545E-19-5.53218E-20
 -1      2437 1.01958E-04-3.10114E-05-3.04132E-05-4.53318E-06-2.29720E-19 2.34552E-19
 -1      2438 1.05455E-04-3.27921E-05-3.11763E-05-2.23292E-06-6.33849E-19-9.80379E-19
 -1      2439 1.04842E-04-3.23273E-05-3.10736E-05-2.86976E-06-7.68747E-19-5.44382E-19
 -1      2440 1.03553E-04-3.21163E-05-3.06229E-05-3.86319E-06-4.68692E-19-2.09382E-19
 -1      2441 1.06664E-04-3.37543E-05-3.12934E-05-3.23189E-07 1.85454E-19-7.78254E-19
 -1      2442 1.06299E-04-3.33599E-05-3.12569E-05-1.32795E-06-3.38338E-19-1.17150E-18
 -1      2443 1.05275E-04-3.34232E-05-3.07980E-05-2.42815E-06-3.63677E-19-1.17618E-18
 -1      2444 1.07375E-04-3.44131E-05-3.13183E-05 2.34043E-06-1.09065E-19 3.17285E-19
 -1      2445 1.07413E-04-3.42552E-05-3.13561E-05 1.02735E-06 2.90661E-19-1.35212E-19
 -1      2446 1.06943E-04-3.47165E-05-3.09513E-05-7.79411E-08-2.54773E-19-7.01256E-19
 -1      2447 1.07238E-04-3.43323E-05-3.12788E-05 5.38664E-06-3.90264E-19 4.31548E-19
 -1      2448 1.07818E-04-3.46260E-05-3.13810E-05 4.00741E-06-2.35727E-19 2.95976E-19
 -1      2449 1.08206E-04-3.55557E-05-3.11192E-05 3.11227E-06-2.37321E-19 5.10041E-19
 -1      2450 1.05963E-04-3.30871E-05-3.12308E-05 7.96227E-06-1.24786E-18 8.15987E-19
 -1      2451 1.07112E-04-3.39859E-05-3.13669E-05 6.97347E-06-8.76825E-19 6.71892E-19
 -1      2452 1.08551E-04-3.53081E-05-3.13552E-05 6.62548E-06-7.14917E-19 4.02824E-19
 -1      2453 1.03611E-04-3.06380E-05-3.12306E-05 8.84598E-06-1.62664E-18 1.40941E-18
 -1      2454 1.05123E-04-3.20428E-05-3.13599E-05 8.79962E-06-1.42400E-18 1.07680E-18
 -1      2455 1.07524E-04-3.34550E-05-3.17020E-05 9.34566E-06-1.26277E-18 7.63359E-19
 -1      2456 1.00884E-04-2.77158E-05-3.12920E-05 7.00846E-06-6.25630E-19 1.37359E-18
 -1      2457 1.02281E-04-2.91382E-05-3.13822E-05 8.24436E-06-9.76331E-19 8.96075E-19
 -1      2458 1.05185E-04-3.01494E-05-3.21387E-05 9.77565E-06-1.21517E-18 4.29203E-19
 -1      2459 9.90560E-05-2.57405E-05-3.13693E-05 2.52342E-06-1.20193E-19 1.43697E-18
 -1      2460 9.97546E-05-2.64784E-05-3.14073E-05 4.79161E-06-9.03943E-21 1.39269E-18
 -1      2461 1.02503E-04-2.66274E-05-3.25432E-05 6.85918E-06-3.00829E-19-9.99875E-21
 -1      2462 9.91959E-05-2.58933E-05-3.14060E-05-3.02738E-06 2.95608E-19 1.73037E-18
 -1      2463 9.88616E-05-2.55203E-05-3.13881E-05-5.80056E-07-5.69345E-19 1.52545E-18
 -1      2464 1.01041E-04-2.47660E-05-3.27433E-05 1.13746E-06 5.29065E-20-4.56107E-19
 -1      2465 1.01277E-04-2.80927E-05-3.13954E-05-7.34261E-06 9.52747E-19 1.98882E-18
 -1      2466 1.00079E-04-2.68385E-05-3.13217E-05-5.68403E-06 1.23740E-18 1.61022E-18
 -1      2467 1.01776E-04-2.56973E-05-3.26437E-05-5.08318E-06 6.34362E-19-1.99232E-19
 -1      2468 1.04180E-04-3.10817E-05-3.13680E-05-8.93353E-06 8.84892E-19 6.30583E-19
 -1      2469 1.02643E-04-2.96029E-05-3.12492E-05-8.54055E-06 1.20826E-18 1.87719E-18
 -1      2470 1.04205E-04-2.88363E-05-3.22965E-05-9.14995E-06 1.15246E-18-8.77379E-20
 -1      2471 1.06564E-04-3.34446E-05-3.13662E-05-7.82609E-06 4.74563E-19-3.82621E-20
 -1      2472 1.05243E-04-3.23478E-05-3.12270E-05-8.52482E-06 4.73619E-19 1.73509E-19
 -1      2473 1.06830E-04-3.24252E-05-3.18538E-05-9.83595E-06 8.99223E-19-6.31755E-20
 -1      2474 1.07727E-04-3.45293E-05-3.13836E-05-5.12378E-06-4.34389E-19 1.29980E-18
 -1      2475 1.06931E-04-3.40381E-05-3.12642E-05-6.39333E-06-1.81993E-19 1.37983E-18
 -1      2476 1.08368E-04-3.48571E-05-3.14689E-05-7.75010E-06-2.66431E-19 8.03225E-20
 -1      2477 1.07678E-04-3.44602E-05-3.13802E-05-2.06092E-06 6.51047E-19 2.12310E-18
 -1      2478 1.07449E-04-3.44830E-05-3.13158E-05-3.39736E-06 9.62408E-20 2.19737E-18
 -1      2479 1.08469E-04-3.56249E-05-3.11980E-05-4.36778E-06-4.63411E-19 2.24772E-18
 -1      2480 1.06777E-04-3.37003E-05-3.13145E-05 5.42730E-07 1.76421E-18 1.53155E-18
 -1      2481 1.07004E-04-3.40280E-05-3.13225E-05-5.50691E-07 1.64524E-18 1.78720E-18
 -1      2482 1.07473E-04-3.50891E-05-3.10168E-05-9.91634E-07 1.50491E-18 2.73294E-18
 -1      2483 1.05422E-04-3.26864E-05-3.11671E-05 2.35562E-06 2.07089E-18 5.57760E-19
 -1      2484 1.05949E-04-3.31329E-05-3.12447E-05 1.61775E-06 2.12042E-18 9.67838E-19
 -1      2485 1.05908E-04-3.38897E-05-3.08697E-05 1.65951E-06 2.68500E-18 1.58283E-18
 -1      2486 1.03909E-04-3.16945E-05-3.09441E-05 3.38004E-06 4.15717E-19 8.65727E-19
 -1      2487 1.04593E-04-3.21430E-05-3.10753E-05 2.98096E-06 1.56606E-18 7.19872E-19
 -1      2488 1.04193E-04-3.25498E-05-3.07123E-05 3.37992E-06 1.72926E-18 1.09112E-18
 -1      2489 1.02417E-04-3.08501E-05-3.06675E-05 3.77464E-06 3.22162E-19-1.59749E-19
 -1      2490 1.03154E-04-3.12447E-05-3.08311E-05 3.63952E-06 2.38857E-19 1.01308E-18
 -1      2491 1.02564E-04-3.13585E-05-3.05248E-05 4.26020E-06 9.20301E-19 1.82982E-18
 -1      2492 1.01042E-04-3.01836E-05-3.03644E-05 3.73501E-06-1.25925E-18-8.03307E-19
 -1      2493 1.01760E-04-3.05072E-05-3.05406E-05 3.77796E-06 2.40745E-19-1.02666E-18
 -1      2494 1.01120E-04-3.04205E-05-3.03073E-05 4.50578E-06 7.62559E-19 1.53160E-18
 -1      2495 9.98244E-05-2.96797E-05-3.00592E-05 3.43407E-06-1.57195E-18-1.32729E-18
 -1      2496 1.00484E-04-2.99347E-05-3.02326E-05 3.58117E-06-2.30953E-18-1.37661E-18
 -1      2497 9.98869E-05-2.97352E-05-3.00716E-05 4.33119E-06-1.33154E-18-5.15650E-19
 -1      2498 9.87789E-05-2.93081E-05-2.97706E-05 3.00224E-06-1.74778E-19-1.30177E-18
 -1      2499 9.93584E-05-2.95042E-05-2.99310E-05 3.19885E-06-3.85874E-19-6.62216E-19
 -1      2500 9.88543E-05-2.92588E-05-2.98324E-05 3.91441E-06-1.50563E-18-1.87754E-18
 -1      2501 9.79016E-05-2.90375E-05-2.95107E-05 2.52723E-06 6.48747E-19-2.70713E-18
 -1      2502 9.83939E-05-2.91862E-05-2.96522E-05 2.73742E-06 2.32678E-19-1.72109E-18
 -1      2503 9.80009E-05-2.89386E-05-2.96032E-05 3.38518E-06 2.37247E-19-1.21163E-18
 -1      2504 9.71802E-05-2.88408E-05-2.92860E-05 2.06157E-06 2.07381E-18-1.58470E-18
 -1      2505 9.75870E-05-2.89529E-05-2.94060E-05 2.26464E-06 1.23167E-18-2.45317E-18
 -1      2506 9.73032E-05-2.87278E-05-2.93940E-05 2.82871E-06 9.69568E-19-2.37534E-18
 -1      2507 9.65982E-05-2.86959E-05-2.90986E-05 1.63129E-06 1.48526E-18-2.19259E-19
 -1      2508 9.69257E-05-2.87808E-05-2.91968E-05 1.81785E-06 1.88212E-18-2.66783E-19
 -1      2509 9.67383E-05-2.85891E-05-2.92108E-05 2.29471E-06 9.73852E-19-9.23301E-19
 -1      2510 9.61373E-05-2.85863E-05-2.89479E-05 1.24416E-06 2.66742E-19 3.67883E-19
 -1      2511 9.63940E-05-2.86513E-05-2.90253E-05 1.41252E-06 6.31527E-19 3.43875E-19
 -1      2512 9.62847E-05-2.84948E-05-2.90564E-05 1.80654E-06 8.67712E-19 1.42181E-18
 -1      2513 9.57789E-05-2.85004E-05-2.88313E-05 8.95786E-07 8.71820E-19 1.08985E-18
 -1      2514 9.59737E-05-2.85500E-05-2.88897E-05 1.04897E-06 1.05096E-18 1.56073E-18
 -1      2515 9.59220E-05-2.84242E-05-2.89307E-05 1.37108E-06 2.45494E-19 1.32116E-18
 -1      2516 9.55065E-05-2.84335E-05-2.87433E-05 5.82662E-07-1.80497E-18 1.42936E-18
 -1      2517 9.56499E-05-2.84707E-05-2.87862E-05 7.22365E-07-2.31562E-19 1.74900E-18
 -1      2518 9.56358E-05-2.83700E-05-2.88317E-05 9.80977E-07-4.09649E-19 2.07959E-18
 -1      2519 9.54052E-05-2.84185E-05-2.87054E-05 4.17956E-07-1.73498E-18 9.72274E-19
 -1      2520 9.46912E-05-2.72214E-05-2.89201E-05 8.43151E-07 1.08842E-18 5.02330E-19
 -1      2521 9.47901E-05-2.73630E-05-2.88958E-05 9.05024E-07 1.52623E-18-4.80293E-19
 -1      2522 9.45214E-05-2.69751E-05-2.89532E-05 6.18029E-07 3.17017E-19 3.32734E-19
 -1      2523 9.45973E-05-2.70833E-05-2.89345E-05 7.33194E-07 5.70848E-19 5.39613E-19
 -1      2524 9.45694E-05-2.70885E-05-2.89176E-05 9.20424E-07 1.57743E-18 1.59184E-19
 -1      2525 9.51242E-05-2.78569E-05-2.88315E-05 9.13271E-07 7.26172E-19-2.61826E-19
 -1      2526 9.52297E-05-2.80126E-05-2.88036E-05 8.55597E-07-3.78108E-19 1.94646E-19
 -1      2527 9.49016E-05-2.75277E-05-2.88782E-05 9.46517E-07 6.91779E-19-1.02387E-18
 -1      2528 9.50099E-05-2.76831E-05-2.88514E-05 9.46796E-07 8.19291E-19-1.66596E-19
 -1      2529 9.50823E-05-2.77452E-05-2.88574E-05 1.09789E-06 8.53156E-19-2.75527E-19
 -1      2530 9.48118E-05-2.73980E-05-2.88900E-05 1.08445E-06 1.43932E-18-5.00808E-19
 -1      2531 9.44138E-05-2.68193E-05-2.89736E-05 3.02865E-07-9.27496E-20 1.72222E-18
 -1      2532 9.44571E-05-2.68804E-05-2.89630E-05 4.54758E-07-6.46832E-20-5.25016E-20
 -1      2533 9.43822E-05-2.68503E-05-2.89384E-05 6.26544E-07 7.65574E-19 1.09181E-19
 -1      2534 9.43823E-05-2.67736E-05-2.89788E-05-5.86930E-08-1.36912E-18 1.51160E-18
 -1      2535 9.43870E-05-2.67794E-05-2.89778E-05 1.08396E-07-1.31123E-18 2.34326E-18
 -1      2536 9.42744E-05-2.67124E-05-2.89506E-05 2.42510E-07-4.83801E-19 9.79227E-19
 -1      2537 9.44329E-05-2.68457E-05-2.89682E-05-4.15822E-07-8.02375E-19-1.74380E-19
 -1      2538 9.43974E-05-2.67943E-05-2.89769E-05-2.57691E-07-1.20253E-18 6.99772E-19
 -1      2539 9.42605E-05-2.66925E-05-2.89530E-05-1.79922E-07-5.79745E-19 1.60337E-18
 -1      2540 9.45593E-05-2.70248E-05-2.89438E-05-7.11891E-07 4.33170E-19-4.97809E-19
 -1      2541 9.44882E-05-2.69244E-05-2.89607E-05-5.88240E-07 2.26394E-20-6.00299E-19
 -1      2542 9.43445E-05-2.67945E-05-2.89455E-05-5.79279E-07 1.66494E-19 5.77406E-19
 -1      2543 9.47521E-05-2.72974E-05-2.89078E-05-9.10355E-07 6.10792E-19 2.01102E-18
 -1      2544 9.46516E-05-2.71566E-05-2.89312E-05-8.37462E-07 3.58662E-19-8.34348E-20
 -1      2545 9.45187E-05-2.70095E-05-2.89290E-05-9.01285E-07 1.19351E-18 2.97498E-19
 -1      2546 9.49857E-05-2.76295E-05-2.88642E-05-9.72732E-07-8.11467E-19 2.17835E-18
 -1      2547 9.48691E-05-2.74662E-05-2.88912E-05-9.65719E-07-8.37819E-19 2.82350E-18
 -1      2548 9.47654E-05-2.73167E-05-2.89044E-05-1.09854E-06-2.82118E-19 1.12510E-18
 -1      2549 9.52241E-05-2.79801E-05-2.88156E-05-8.82510E-07-2.67939E-18 3.89573E-19
 -1      2550 9.51125E-05-2.78157E-05-2.88443E-05-9.46052E-07-1.99249E-18 1.37541E-18
 -1      2551 9.50564E-05-2.76808E-05-2.88734E-05-1.13586E-06-2.58769E-18 1.09942E-18
 -1      2552 9.53491E-05-2.82625E-05-2.87481E-05-5.80507E-07-6.14143E-19-4.33166E-19
 -1      2553 1.82528E-05-1.82505E-05 1.15149E-07-4.92253E-06 9.74723E-19 1.19940E-18
 -1      2554 2.43381E-05-2.02953E-05-1.49175E-06-1.84040E-05 1.58353E-18 1.30401E-18
 -1      2555 9.36303E-05-2.74433E-05-2.83530E-05 2.72013E-07 1.74722E-19 5.51945E-19
 -1      2556 9.38919E-05-2.73070E-05-2.84924E-05 8.24904E-07 3.42157E-19 6.37063E-19
 -1      2557 9.42967E-05-2.74479E-05-2.86637E-05 2.62580E-07 2.48190E-19 3.61831E-19
 -1      2558 9.13096E-05-5.00360E-05-1.76975E-05 4.27819E-05 6.51792E-19-1.48660E-18
 -1      2559 7.22118E-05-4.37503E-05-1.20443E-05 4.25574E-05 4.67986E-19-1.60110E-18
 -1      2560 3.85248E-05-2.79926E-05-4.21140E-06-3.12367E-05 1.07001E-18 2.99003E-18
 -1      2561 5.32301E-05-3.58655E-05-7.31724E-06-3.89514E-05 8.11881E-19 3.74579E-18
 -1      2562 9.50350E-05-2.00080E-05-3.22027E-05-1.17065E-05-7.93564E-19 3.35081E-19
 -1      2563 9.54360E-05-2.33655E-05-3.09182E-05-7.94825E-06-7.32690E-19 4.37741E-19
 -1      2564 9.50511E-05-2.25142E-05-3.10553E-05-7.61847E-06-6.75548E-19 2.63604E-19
 -1      2565 9.32028E-05-1.75645E-05-3.24141E-05-1.13318E-05-7.54609E-19 8.54842E-20
 -1      2566 1.22767E-04-5.60603E-05-2.88313E-05 3.01722E-05-7.62965E-19-1.31788E-18
 -1      2567 1.07793E-04-5.46566E-05-2.27269E-05 3.56327E-05 4.88314E-19-1.89873E-18
 -1      2568 6.51667E-05-4.02168E-05-1.06305E-05 4.13742E-05 1.21867E-18-1.28982E-18
 -1      2569 4.54476E-05-3.13228E-05-5.77057E-06 3.41880E-05 1.18606E-18-1.22354E-18
 -1      2570 1.44229E-04-4.08717E-05-4.45575E-05-1.26337E-06 4.67456E-19-6.89061E-19
 -1      2571 1.46797E-04-3.28819E-05-4.93381E-05 2.71372E-06 7.89435E-19-4.68833E-19
 -1      2572 8.78901E-05-1.07492E-05-3.30963E-05-1.50525E-06-8.59749E-20-8.66111E-19
 -1      2573 8.79952E-05-1.08736E-05-3.30863E-05-2.61720E-06-1.81352E-19-8.11319E-19
 -1      2574 8.93850E-05-1.30305E-05-3.27248E-05-2.90086E-06-1.59060E-19-7.16792E-19
 -1      2575 8.91358E-05-1.26888E-05-3.27657E-05-9.30375E-07-1.09718E-19-7.91122E-19
 -1      2576 1.41376E-04-9.56757E-06-5.70188E-05 7.14244E-07 1.46918E-18-8.55477E-19
 -1      2577 1.44221E-04-1.08398E-05-5.74673E-05-2.32030E-06 5.83606E-19-6.69262E-19
 -1      2578 1.86575E-05-1.76922E-05-1.30568E-07 5.68398E-07 3.08373E-20-2.39753E-18
 -1      2579 2.07520E-05-1.71910E-05-1.28255E-06-1.32936E-05 1.47278E-19-1.12317E-18
 -1      2580 1.46068E-04-1.56069E-05-5.63808E-05-4.36319E-06 4.02764E-19-2.29652E-19
 -1      2581 1.46137E-04-2.17032E-05-5.36189E-05-4.94742E-06 1.16763E-18-7.95576E-19
 -1      2582 1.44923E-04-2.19818E-05-5.29837E-05 5.72362E-06 1.22947E-18-1.77877E-20
 -1      2583 1.42644E-04-1.43795E-05-5.55702E-05 5.57483E-06 1.59877E-18-4.24575E-19
 -1      2584 1.34550E-04-5.41941E-05-3.44387E-05-1.67380E-05 7.54124E-19 5.45489E-19
 -1      2585 1.41788E-04-5.00100E-05-3.97450E-05-1.01193E-05 8.23448E-19 1.63689E-19
 -1      2586 1.03606E-04-5.41475E-05-2.10507E-05-3.68102E-05-1.06091E-18 1.11755E-18
 -1      2587 1.22871E-04-5.64622E-05-2.86983E-05-3.00464E-05-4.44904E-19 8.63762E-19
 -1      2588 1.29636E-04-5.78510E-05-3.06441E-05-1.95157E-05-2.06253E-19 1.49184E-19
 -1      2589 6.81789E-05-4.15755E-05-1.11166E-05-4.21483E-05-5.92288E-19 4.86832E-19
 -1      2590 8.43267E-05-4.78681E-05-1.56918E-05-4.39780E-05-7.39036E-19 1.35679E-18
 -1      2591 1.53383E-04-1.61156E-05-5.90263E-05-3.38398E-06-3.47538E-18 7.29719E-19
 -1      2592 1.52280E-04-2.04806E-05-5.67960E-05-5.68609E-06-3.31889E-18 5.11396E-19
 -1      2593 3.21672E-05-2.35093E-05-3.29403E-06-2.75606E-05 4.13140E-19-1.99900E-19
 -1      2594 4.85843E-05-3.14347E-05-7.17430E-06-3.92948E-05-1.82112E-20 4.57821E-19
 -1      2595 2.97781E-05-2.20352E-05-3.05070E-06 2.47440E-05 9.06431E-19-2.16459E-18
 -1      2596 2.15939E-05-1.92119E-05-7.83585E-07 1.16711E-05 6.21881E-19-2.91168E-18
 -1      2597 2.78760E-05-1.49361E-05-4.95592E-06 6.83806E-06 4.49192E-19-2.21287E-18
 -1      2598 1.01656E-04-5.45050E-05-2.03198E-05 3.77840E-05 1.56023E-18-7.44330E-19
 -1      2599 8.54240E-05-4.94254E-05-1.52495E-05 3.97257E-05 1.52657E-18-1.27658E-18
 -1      2600 1.50666E-04-4.73442E-05-4.45942E-05 2.15874E-06-6.98643E-19 7.48565E-19
 -1      2601 1.44809E-04-5.24845E-05-3.96390E-05 6.23421E-06-2.09985E-19 2.27640E-19
 -1      2602 1.54045E-04-2.97844E-05-5.36146E-05-5.85435E-06-2.25798E-18 6.63227E-19
 -1      2603 1.51295E-04-3.79129E-05-4.89072E-05-3.44835E-06-1.20607E-18 9.85311E-19
 -1      2604 1.46838E-04-4.29215E-05-4.46810E-05-8.10978E-06-7.87105E-19 9.85311E-19
 -1      2605 1.53683E-04-1.50679E-05-5.96599E-05 2.58621E-06-3.59904E-18 4.90750E-19
 -1      2606 1.53554E-04-1.38345E-05-6.01722E-05-1.99278E-07-3.21407E-18 5.45119E-19
 -1      2607 1.52429E-04-2.57283E-05-5.45511E-05 6.35271E-06-1.94436E-18-8.59315E-19
 -1      2608 1.54011E-04-1.99842E-05-5.76773E-05 5.00356E-06-3.05525E-18-8.70962E-19
 -1      2609 1.50054E-04-4.47383E-05-4.52960E-05-1.67072E-06 2.32934E-19-2.32087E-19
 -1      2610 1.54382E-04-3.66711E-05-5.08315E-05 3.09681E-06-7.82658E-19-1.05456E-19
 -1      2611 1.36030E-04-5.70380E-05-3.38924E-05-1.74190E-05 7.39883E-19 2.25607E-18
 -1      2612 1.46089E-04-5.32840E-05-4.00829E-05-1.12472E-05-2.95826E-19 2.68933E-20
 -1      2613 1.07382E-04-5.63719E-05-2.17767E-05-3.45579E-05 6.18969E-19 1.72138E-18
 -1      2614 1.23426E-04-5.87481E-05-2.79763E-05-2.93016E-05 1.51111E-18 3.60338E-18
 -1      2615 6.90963E-05-4.37548E-05-1.07729E-05-4.02833E-05 3.20390E-19 2.15146E-18
 -1      2616 8.74134E-05-4.98070E-05-1.62102E-05-4.16237E-05 2.61310E-19 1.01686E-18
 -1      2617 6.81236E-05-3.94815E-05-1.18382E-05-3.91475E-05 1.57548E-19 3.15234E-18
 -1      2618 2.71640E-05-2.10800E-05-2.40415E-06 2.43264E-05 3.96835E-19 7.93670E-19
 -1      2619 1.98901E-05-1.78044E-05-5.71952E-07 9.08113E-06 7.86629E-19 8.06375E-19
 -1      2620 9.62678E-05-2.50708E-05-3.05384E-05 7.57089E-06 8.08136E-19 7.88498E-19
 -1      2621 9.73835E-05-2.37554E-05-3.15761E-05 1.06729E-05 8.35916E-19 9.13260E-19
 -1      2622 9.58346E-05-2.12848E-05-3.20058E-05 1.18711E-05 9.03500E-19 6.24435E-19
 -1      2623 9.58374E-05-2.41396E-05-3.07611E-05 7.64986E-06 7.17986E-19 6.04877E-19
 -1      2624 1.42900E-04-4.89274E-05-4.05813E-05 1.22607E-05-3.96173E-19-7.19766E-19
 -1      2625 1.34064E-04-5.33318E-05-3.46543E-05 1.82320E-05-1.50327E-18-8.70326E-19
 -1      2626 1.35054E-04-1.16409E-05-5.31366E-05-5.44438E-06 4.63115E-19-1.55568E-18
 -1      2627 9.08403E-05-1.50287E-05-3.24864E-05-6.74320E-06-4.06989E-19-6.09149E-19
 -1      2628 8.97398E-05-1.31832E-05-3.28674E-05-7.92622E-06-4.44858E-19-5.98495E-19
 -1      2629 9.04288E-05-1.40134E-05-3.28150E-05-9.10254E-06-5.55907E-19-4.61176E-19
 -1      2630 9.47295E-05-2.69054E-05-2.90805E-05 1.79584E-06 4.47832E-19 5.45961E-19
 -1      2631 9.42151E-05-1.90673E-05-3.22512E-05 1.15756E-05 8.75746E-19 2.88812E-19
 -1      2632 1.41841E-04-4.63508E-05-4.09630E-05 1.08178E-06-3.96703E-19-7.45389E-19
 -1      2633 1.30706E-04-5.71545E-05-3.14144E-05 1.97846E-05-1.09394E-18-5.10231E-19
 -1      2634 1.02167E-04-5.44834E-05-2.01441E-05-3.60868E-05 1.00670E-18 1.65422E-18
 -1      2635 1.32514E-04-6.01815E-05-3.08717E-05-1.86586E-05 1.16795E-18 1.62620E-18
 -1      2636 3.44020E-05-1.72228E-05-6.88965E-06-1.93873E-05 4.53904E-19 1.15366E-18
 -1      2637 3.61161E-05-2.30705E-05-5.10969E-06-2.56054E-05 6.41945E-19 1.70847E-18
 -1      2638 4.80620E-05-2.55058E-05-9.43267E-06-3.13323E-05 1.88782E-19 4.01218E-18
 -1      2639 7.11246E-05-3.96582E-05-1.31282E-05 4.07812E-05-6.56451E-20-1.21952E-18
 -1      2640 9.54096E-05-2.83259E-05-2.87496E-05 6.24284E-07-1.57399E-18 2.28049E-18
 -1      2641 9.53633E-05-2.82189E-05-2.87760E-05 7.28220E-07-9.04899E-19 1.79761E-18
 -1      2642 1.46820E-04-5.04418E-05-4.13001E-05 5.09047E-07 2.19951E-19-1.06070E-18
 -1      2643 9.54745E-05-2.83188E-05-2.87774E-05-7.30123E-07-1.77530E-18-5.22694E-19
 -1      2644 9.53357E-05-2.81361E-05-2.88024E-05-8.31895E-07-1.83278E-18 7.68934E-20
 -1      2645 9.53386E-05-2.80299E-05-2.88440E-05-1.05643E-06-2.96366E-18 1.12019E-18
 -1      2646 9.55912E-05-2.83337E-05-2.88185E-05-8.89973E-07-2.20737E-18-3.21312E-19
 -1      2647 1.47299E-04-3.15943E-05-4.97175E-05 1.01512E-05-1.10538E-18-1.80587E-18
 -1      2648 1.45093E-04-2.47357E-05-5.17336E-05-1.08078E-05-2.34776E-18 7.55342E-19
 -1      2649 2.57861E-05-1.49490E-05-4.03888E-06 2.89548E-06 7.42861E-19 4.37281E-19
 -1      2650 9.46954E-05-2.05838E-05-3.17177E-05 9.63363E-06 7.72984E-19 3.27835E-19
 -1      2651 1.04705E-04-5.43880E-05-2.12862E-05 3.66871E-05 2.18535E-19-2.36682E-18
 -1      2652 1.42276E-04-1.26385E-05-5.55339E-05-3.29174E-06-2.98177E-18 7.51212E-19
 -1      2653 4.52858E-05-2.54144E-05-7.93352E-06 2.94004E-05 1.20385E-18-1.02533E-18
 -1      2654 8.01227E-05-4.41952E-05-1.49187E-05 3.90121E-05 1.35631E-18-1.17992E-18
 -1      2655 3.37320E-05-1.84589E-05-5.93688E-06-2.05609E-05 8.89385E-20-5.54807E-19
 -1      2656 1.01045E-04-5.28858E-05-2.03027E-05-3.74531E-05-1.31121E-18 1.19404E-18
 -1      2657 1.38958E-04-2.71029E-05-4.81065E-05 9.27349E-06 9.92723E-19-1.58078E-19
 -1      2658 1.40851E-04-5.76099E-05-3.56287E-05 9.22430E-06 4.69733E-19 1.28749E-19
 -1      2659 1.40681E-04-4.68134E-05-4.02635E-05 4.21029E-07 7.71038E-19-9.61806E-19
 -1      2660 9.20891E-05-1.62711E-05-3.25285E-05-1.03399E-05-6.71368E-19-1.74270E-19
 -1      2661 1.40430E-04-2.74042E-05-4.86044E-05-8.43700E-06 4.91914E-19-1.47468E-18
 -1      2662 1.28136E-04-1.34200E-05-4.96271E-05 7.92388E-06 1.02915E-18-1.26271E-18
 -1      2663 1.35872E-04-1.13180E-05-5.38040E-05 4.45079E-06 1.38680E-18-8.60797E-19
 -1      2664 1.26620E-04-8.98810E-06-5.10154E-05 2.87275E-06 8.37927E-19-1.85950E-18
 -1      2665 6.36684E-05-3.57812E-05-1.15169E-05-3.96557E-05-6.85885E-19 9.42959E-19
 -1      2666 1.14098E-04-5.79668E-05-2.38759E-05 3.16727E-05 1.35906E-18-8.71703E-19
 -1      2667 1.09203E-04-5.59889E-05-2.25484E-05 3.23985E-05 7.29507E-19-9.48121E-19
 -1      2668 1.23265E-04-6.00801E-05-2.77419E-05 2.27415E-05 1.11882E-18-7.52695E-19
 -1      2669 4.09220E-05-2.23496E-05-7.37240E-06 2.85204E-05 7.02614E-19 8.85996E-19
 -1      2670 1.43159E-04-1.52973E-05-5.47632E-05 7.40054E-06-2.49621E-18-4.48716E-19
 -1      2671 9.53753E-05-2.81350E-05-2.88152E-05 9.41477E-07-8.39937E-19 2.08911E-18
 -1      2672 9.55307E-05-2.81931E-05-2.88627E-05-1.14293E-06-2.83244E-18 5.86151E-19
 -1      2673 9.05841E-05-1.50917E-05-3.23761E-05 3.15564E-06 1.62476E-19-7.10242E-19
 -1      2674 9.03932E-05-1.48154E-05-3.24110E-05 2.23111E-06 6.82725E-20-7.32268E-19
 -1      2675 9.02576E-05-1.46074E-05-3.24415E-05 1.40516E-06 2.25578E-20-7.74274E-19
 -1      2676 9.01924E-05-1.45134E-05-3.24533E-05 4.59373E-07-3.99882E-20-6.86189E-19
 -1      2677 9.14298E-05-1.64793E-05-3.21083E-05 1.61270E-06 1.61415E-20-6.75909E-19
 -1      2678 9.21669E-05-1.75054E-05-3.20356E-05 6.41122E-06 5.93002E-19-2.40878E-19
 -1      2679 9.16434E-05-1.67023E-05-3.21405E-05 5.57314E-06 4.90713E-19-2.88489E-19
 -1      2680 9.35709E-05-1.97434E-05-3.16825E-05 7.53901E-06 5.71176E-19-1.09644E-19
 -1      2681 9.27911E-05-1.84845E-05-3.18630E-05 6.95905E-06 5.70255E-19-2.19037E-19
 -1      2682 9.34553E-05-1.98117E-05-3.15384E-05 5.66099E-06 5.71112E-19-1.79483E-19
 -1      2683 9.52123E-05-2.53743E-05-2.99420E-05 3.90555E-06 5.59783E-19 3.97770E-19
 -1      2684 9.55401E-05-2.45296E-05-3.04006E-05 5.55281E-06 5.59498E-19 4.45303E-19
 -1      2685 1.13175E-04-5.67322E-05-2.44270E-05 3.14681E-05 8.66091E-20-2.75656E-18
 -1      2686 9.91804E-05-5.13246E-05-2.01315E-05 3.64755E-05 1.32137E-19-2.76445E-18
 -1      2687 9.46937E-05-2.18845E-05-3.12103E-05 7.79751E-06 6.08335E-19 3.04568E-19
 -1      2688 6.52755E-05-3.41596E-05-1.26991E-05-3.62090E-05 6.62168E-19 3.02147E-18
 -1      2689 7.91528E-05-4.23038E-05-1.56696E-05-3.89985E-05 5.25055E-19 1.08039E-18
 -1      2690 9.49959E-05-2.66423E-05-2.92983E-05 1.66659E-06 4.23969E-19 4.68077E-19
 -1      2691 9.52476E-05-2.61529E-05-2.95758E-05 2.69498E-06 4.84074E-19 4.08545E-19
 -1      2692 9.52764E-05-2.49716E-05-3.01276E-05 3.72432E-06 5.54808E-19 2.88969E-19
 -1      2693 1.33967E-04-5.65289E-05-3.36502E-05 1.16689E-05-1.31624E-18-3.33519E-19
 -1      2694 1.25362E-04-5.81105E-05-2.85978E-05 2.11221E-05-9.05002E-19-7.86311E-19
 -1      2695 9.53686E-05-2.58477E-05-2.97672E-05-2.59313E-06-3.67307E-19 2.12625E-19
 -1      2696 9.52168E-05-2.64228E-05-2.94931E-05-1.58035E-06-3.11989E-19 7.37704E-20
 -1      2697 9.52446E-05-2.69241E-05-2.92572E-05-8.04141E-07-2.23225E-19-1.92402E-20
 -1      2698 9.51279E-05-2.72649E-05-2.90888E-05-1.58247E-07-3.97117E-19-6.25244E-20
 -1      2699 9.54369E-05-2.62335E-05-2.96644E-05-1.44502E-06-4.18507E-19-5.03596E-20
 -1      2700 9.51006E-05-2.75507E-05-2.89344E-05 3.59273E-07-5.11865E-19 7.17413E-20
 -1      2701 9.50474E-05-2.77580E-05-2.88393E-05 7.67523E-07-5.35858E-19-6.87790E-21
 -1      2702 9.54458E-05-2.71841E-05-2.92628E-05-7.56120E-08-4.30962E-19-1.41715E-19
 -1      2703 9.50124E-05-2.79169E-05-2.87457E-05 1.10712E-06-5.56859E-19-5.87314E-20
 -1      2704 9.50183E-05-2.80422E-05-2.87025E-05 1.36917E-06-6.00925E-19-8.31897E-20
 -1      2705 9.53968E-05-2.77410E-05-2.90026E-05 8.39609E-07-5.95680E-19-7.02977E-20
 -1      2706 9.49917E-05-2.81200E-05-2.86542E-05 1.59853E-06-6.23136E-19-2.69249E-20
 -1      2707 9.50451E-05-2.81906E-05-2.86486E-05 1.77963E-06-5.76646E-19-1.24675E-19
 -1      2708 9.53467E-05-2.80467E-05-2.88489E-05 1.45272E-06-6.10396E-19 3.19994E-20
 -1      2709 9.50303E-05-2.82124E-05-2.86344E-05 1.95159E-06-4.53894E-19-1.30070E-19
 -1      2710 9.51211E-05-2.82439E-05-2.86569E-05 2.09931E-06-4.44373E-19-2.56905E-19
 -1      2711 9.53139E-05-2.81827E-05-2.87753E-05 1.88740E-06-4.81081E-19-2.33761E-21
 -1      2712 9.51167E-05-2.82241E-05-2.86688E-05 2.25472E-06-4.07691E-19-2.16962E-19
 -1      2713 9.52385E-05-2.82261E-05-2.87135E-05 2.40481E-06-3.70034E-19-9.60439E-20
 -1      2714 9.53006E-05-2.81964E-05-2.87626E-05 2.24051E-06-4.31258E-19 1.59446E-19
 -1      2715 9.52412E-05-2.81733E-05-2.87458E-05 2.57558E-06-3.18239E-19-5.45460E-20
 -1      2716 9.53910E-05-2.81525E-05-2.88091E-05 2.75569E-06-1.39588E-19 1.54329E-19
 -1      2717 9.53026E-05-2.81165E-05-2.87968E-05 2.58738E-06-2.77045E-19 3.83749E-19
 -1      2718 9.53974E-05-2.80719E-05-2.88576E-05 2.96710E-06-4.88188E-20 2.79646E-19
 -1      2719 9.55754E-05-2.80342E-05-2.89375E-05 3.19904E-06 1.52443E-19 2.88452E-19
 -1      2720 9.53140E-05-2.79609E-05-2.88675E-05 2.98702E-06-4.30539E-20 3.05060E-19
 -1      2721 9.55819E-05-2.79300E-05-2.89988E-05 3.47126E-06 2.53151E-20-3.85296E-20
 -1      2722 9.57909E-05-2.78815E-05-2.90939E-05 3.77197E-06 1.30221E-20-2.68928E-19
 -1      2723 9.53281E-05-2.77425E-05-2.89664E-05 3.48601E-06-8.79052E-20 3.40148E-20
 -1      2724 9.57947E-05-2.77590E-05-2.91645E-05 4.12069E-06 1.81580E-19-1.82744E-19
 -1      2725 9.60399E-05-2.77087E-05-2.92733E-05 4.50191E-06 7.51628E-20-2.02636E-19
 -1      2726 9.53393E-05-2.74735E-05-2.90856E-05 4.12068E-06 5.21067E-20 2.51673E-19
 -1      2727 9.60405E-05-2.75771E-05-2.93488E-05 4.93813E-06 4.26400E-20-7.22803E-20
 -1      2728 9.63308E-05-2.75405E-05-2.94687E-05 5.40468E-06 8.43697E-20 9.90587E-20
 -1      2729 9.53445E-05-2.71719E-05-2.92162E-05 4.91772E-06 1.99549E-19 2.89397E-19
 -1      2730 9.63332E-05-2.74184E-05-2.95429E-05 5.93343E-06-9.95724E-20 1.62120E-19
 -1      2731 9.66841E-05-2.74228E-05-2.96693E-05 6.47950E-06-2.70122E-19-3.83329E-20
 -1      2732 9.53478E-05-2.68701E-05-2.93464E-05 5.89305E-06-2.70439E-20 2.32933E-20
 -1      2733 9.67062E-05-2.73460E-05-2.97334E-05 7.09744E-06-4.25053E-19-2.73922E-20
 -1      2734 9.71460E-05-2.74403E-05-2.98589E-05 7.70032E-06-6.40839E-19-1.76205E-19
 -1      2735 9.53707E-05-2.66289E-05-2.94596E-05 7.04908E-06-3.47252E-19-2.39772E-20
 -1      2736 9.72311E-05-2.74742E-05-2.99012E-05 8.39144E-06-2.76736E-19-5.33867E-20
 -1      2737 9.78126E-05-2.77413E-05-3.00151E-05 9.00183E-06-4.32078E-21 2.49426E-19
 -1      2738 9.54705E-05-2.65599E-05-2.95337E-05 8.36994E-06-2.63619E-19 4.19451E-19
 -1      2739 9.80514E-05-2.79980E-05-3.00224E-05 9.72966E-06 1.44721E-19 5.80031E-19
 -1      2740 9.88680E-05-2.85699E-05-3.01126E-05 1.02574E-05 1.01798E-19 6.84393E-19
 -1      2741 9.57740E-05-2.68569E-05-2.95421E-05 9.81332E-06 2.79042E-19 8.75767E-19
 -1      2742 9.94299E-05-2.92247E-05-3.00753E-05 1.09488E-05 5.23538E-20 1.12789E-18
 -1      2743 1.00632E-04-3.02880E-05-3.01350E-05 1.12429E-05 3.64665E-19 7.71215E-19
 -1      2744 9.65291E-05-2.78340E-05-2.94601E-05 1.12934E-05 2.86194E-19 7.65041E-19
 -1      2745 1.01801E-04-3.15795E-05-3.00597E-05 1.17519E-05 5.14945E-19 6.59222E-19
 -1      2746 1.03593E-04-3.33425E-05-3.01014E-05 1.15735E-05 8.84582E-19 5.60443E-19
 -1      2747 9.81733E-05-2.99518E-05-2.92825E-05 1.26392E-05 4.68642E-19 5.11713E-19
 -1      2748 1.05763E-04-3.55046E-05-3.00351E-05 1.16165E-05 7.18364E-19 5.19329E-19
 -1      2749 1.08332E-04-3.80894E-05-3.01196E-05 1.06327E-05 6.54479E-19 3.35981E-19
 -1      2750 1.01379E-04-3.37676E-05-2.90621E-05 1.34883E-05 6.58485E-19 4.20671E-20
 -1      2751 1.11915E-04-4.10840E-05-3.02116E-05 9.58510E-06 7.92371E-19 3.39319E-19
 -1      2752 1.15209E-04-4.40180E-05-3.04994E-05 7.46902E-06 8.81523E-19 2.63864E-19
 -1      2753 1.06965E-04-3.97450E-05-2.89895E-05 1.30374E-05 7.09943E-19 1.88101E-20
 -1      2754 1.20257E-04-4.74704E-05-3.10562E-05 4.64936E-06 8.88659E-19-8.67018E-20
 -1      2755 1.23311E-04-4.94644E-05-3.18166E-05 9.50345E-07 5.81700E-19 5.51961E-20
 -1      2756 1.15694E-04-4.67485E-05-2.96987E-05 9.61366E-06 5.92341E-19 3.22521E-19
 -1      2757 1.28979E-04-5.06416E-05-3.34385E-05-4.77755E-06 5.08696E-19-3.52710E-20
 -1      2758 1.29708E-04-4.83266E-05-3.49870E-05-8.80809E-06-1.86069E-19 7.74506E-19
 -1      2759 1.26903E-04-5.34322E-05-3.17515E-05 3.24767E-06 6.08269E-19-2.80566E-19
 -1      2760 1.27156E-04-1.40008E-05-4.91835E-05-2.50587E-06-2.26730E-18 3.27901E-19
 -1      2761 1.27505E-04-1.48062E-05-4.90549E-05 5.03949E-06-1.63308E-18-3.51677E-19
 -1      2762 1.30234E-04-3.76358E-05-3.98828E-05 1.56225E-05-5.11502E-19-8.36974E-19
 -1      2763 1.31774E-04-4.46762E-05-3.76077E-05 1.39659E-05-2.88693E-19-1.34157E-18
 -1      2764 1.29439E-04-4.84858E-05-3.47919E-05 8.45568E-06-3.38866E-19-5.03865E-19
 -1      2765 1.28056E-04-5.03182E-05-3.32992E-05 4.19958E-06-2.24020E-19-2.59894E-19
 -1      2766 1.34201E-04-5.00281E-05-3.62237E-05 8.24928E-06 2.82380E-19-1.95395E-18
 -1      2767 1.22904E-04-4.88864E-05-3.18230E-05-9.15887E-07 3.59486E-19 8.15311E-19
 -1      2768 1.19827E-04-4.69277E-05-3.11010E-05-4.52719E-06 2.78982E-19 1.47971E-18
 -1      2769 1.25807E-04-5.22017E-05-3.17180E-05-2.54884E-06 8.54016E-19 3.38694E-19
 -1      2770 1.14903E-04-4.37025E-05-3.05691E-05-7.35785E-06-3.53027E-19 2.02504E-18
 -1      2771 1.11742E-04-4.07600E-05-3.03020E-05-9.51472E-06 4.84796E-19 2.54375E-18
 -1      2772 1.15598E-04-4.65341E-05-2.97353E-05-9.66505E-06 5.36673E-19 2.61117E-18
 -1      2773 1.08238E-04-3.77764E-05-3.02169E-05-1.05057E-05 6.36410E-19 1.89669E-18
 -1      2774 1.05750E-04-3.52650E-05-3.01368E-05-1.14353E-05 2.60190E-19 1.69633E-18
 -1      2775 1.07198E-04-3.93414E-05-2.91963E-05-1.26806E-05-2.80762E-20 2.37275E-18
 -1      2776 1.03630E-04-3.31771E-05-3.01945E-05-1.14150E-05 4.15784E-19 9.57440E-19
 -1      2777 1.01893E-04-3.14537E-05-3.01538E-05-1.15424E-05 5.38943E-19 9.71434E-19
 -1      2778 1.01717E-04-3.36310E-05-2.92537E-05-1.31210E-05-1.49698E-19 1.00938E-18
 -1      2779 1.00745E-04-3.02143E-05-3.02186E-05-1.10434E-05-4.19655E-19 8.12681E-19
 -1      2780 9.95791E-05-2.91768E-05-3.01595E-05-1.07109E-05-1.52400E-18 4.95928E-19
 -1      2781 9.85598E-05-2.99399E-05-2.94478E-05-1.23213E-05-1.50372E-19 1.31226E-18
 -1      2782 9.90137E-05-2.85477E-05-3.01872E-05-1.00180E-05-1.66258E-18 1.25534E-18
 -1      2783 9.82220E-05-2.79879E-05-3.00989E-05-9.45810E-06-1.04344E-18 2.81554E-19
 -1      2784 9.69102E-05-2.78858E-05-2.95991E-05-1.09959E-05-1.24563E-18 2.34116E-18
 -1      2785 9.79678E-05-2.77374E-05-3.00850E-05-8.71679E-06-3.74858E-19-1.18759E-19
 -1      2786 9.74054E-05-2.74725E-05-2.99753E-05-8.07519E-06-8.17047E-20-2.03144E-19
 -1      2787 9.61174E-05-2.69241E-05-2.96600E-05-9.50335E-06-1.12183E-18 1.66112E-18
 -1      2788 9.73010E-05-2.74322E-05-2.99300E-05-7.36008E-06-8.44572E-20-1.05005E-20
 -1      2789 9.68793E-05-2.73340E-05-2.98113E-05-6.72294E-06 3.91553E-19-2.71634E-19
 -1      2790 9.57643E-05-2.66109E-05-2.96378E-05-8.02047E-06 2.56580E-19 1.05797E-18
 -1      2791 9.68380E-05-2.73966E-05-2.97476E-05-6.07157E-06 1.14897E-18-2.97750E-19
 -1      2792 9.65075E-05-2.73848E-05-2.96305E-05-5.48520E-06 1.48535E-18-1.13421E-19
 -1      2793 9.56141E-05-2.66442E-05-2.95575E-05-6.63856E-06 1.04521E-18 3.64909E-19
 -1      2794 9.64875E-05-2.74877E-05-2.95595E-05-4.91376E-06 1.26677E-18-6.20924E-19
 -1      2795 9.62213E-05-2.75154E-05-2.94512E-05-4.39882E-06 8.49539E-19-6.95801E-19
 -1      2796 9.55452E-05-2.68384E-05-2.94447E-05-5.40247E-06 5.22719E-19-4.27618E-19
 -1      2797 9.62045E-05-2.76246E-05-2.93810E-05-3.91076E-06 1.23320E-18 5.26016E-19
 -1      2798 9.59873E-05-2.76652E-05-2.92858E-05-3.47206E-06 2.30021E-18 2.74658E-19
 -1      2799 9.55010E-05-2.70865E-05-2.93199E-05-4.32918E-06 1.45397E-18-8.75914E-19
 -1      2800 9.59669E-05-2.77632E-05-2.92213E-05-3.06237E-06 2.49387E-18-4.81779E-19
 -1      2801 9.57893E-05-2.78028E-05-2.91409E-05-2.69511E-06 1.53146E-18-1.47026E-19
 -1      2802 9.54577E-05-2.73303E-05-2.91973E-05-3.41699E-06 1.71208E-18 1.23262E-19
 -1      2803 9.57633E-05-2.78810E-05-2.90852E-05-2.35585E-06 7.59912E-19-7.24617E-19
 -1      2804 9.56166E-05-2.79104E-05-2.90197E-05-2.05014E-06-7.05383E-19-1.26066E-18
 -1      2805 9.54081E-05-2.75411E-05-2.90859E-05-2.65404E-06 1.24848E-18-1.02570E-18
 -1      2806 9.55854E-05-2.79682E-05-2.89734E-05-1.76749E-06-1.73099E-18-8.64303E-19
 -1      2807 9.54669E-05-2.79843E-05-2.89217E-05-1.51473E-06-2.84974E-18 9.17999E-19
 -1      2808 9.53480E-05-2.77037E-05-2.89904E-05-2.01832E-06-7.11382E-19-2.33854E-18
 -1      2809 1.40282E-04-3.64312E-05-4.49465E-05 1.34733E-05-6.75191E-19-1.84325E-18
 -1      2810 1.37027E-04-2.63093E-05-4.81176E-05 1.43866E-05-1.38935E-18-2.31685E-18
 -1      2811 9.46381E-05-2.77650E-05-2.86589E-05-7.13781E-07 2.32190E-19 1.66918E-19
 -1      2812 9.46939E-05-2.75853E-05-2.87435E-05-3.23589E-07 2.76805E-19 2.73306E-19
 -1      2813 9.48459E-05-2.82641E-05-2.85303E-05-1.93571E-06 5.67917E-20 3.21850E-19
 -1      2814 9.47119E-05-2.82093E-05-2.84986E-05-1.81855E-06-1.29015E-19 1.51160E-19
 -1      2815 9.50622E-05-2.83138E-05-2.86008E-05-2.17286E-06 5.81870E-19 1.17340E-19
 -1      2816 9.48901E-05-2.82750E-05-2.85490E-05-2.06330E-06 3.82276E-19 3.51240E-19
 -1      2817 9.51212E-05-2.82749E-05-2.86529E-05-2.11081E-06 2.05800E-19-2.17165E-19
 -1      2818 9.53370E-05-2.83393E-05-2.87068E-05-2.42772E-06 7.98125E-19 1.21997E-19
 -1      2819 9.51297E-05-2.83084E-05-2.86387E-05-2.30376E-06 6.82767E-19 1.98792E-19
 -1      2820 9.52364E-05-2.82807E-05-2.86990E-05-2.39180E-06 6.22551E-19 8.44407E-20
 -1      2821 9.56717E-05-2.83575E-05-2.88417E-05-2.73439E-06 8.80173E-19 2.49995E-20
 -1      2822 9.54277E-05-2.83261E-05-2.87596E-05-2.58193E-06 9.58376E-19 9.42310E-20
 -1      2823 9.53959E-05-2.82510E-05-2.87796E-05-2.69698E-06 1.00391E-18 2.52754E-19
 -1      2824 9.60747E-05-2.83879E-05-2.90008E-05-3.11171E-06 1.63503E-19 8.32392E-20
 -1      2825 9.57887E-05-2.83455E-05-2.89063E-05-2.92427E-06 5.54949E-19 5.82779E-20
 -1      2826 9.56032E-05-2.82080E-05-2.88867E-05-3.06071E-06 6.85377E-19 3.40394E-19
 -1      2827 9.65611E-05-2.84559E-05-2.91799E-05-3.56203E-06-4.54981E-19 1.41751E-19
 -1      2828 9.62249E-05-2.83890E-05-2.90745E-05-3.34175E-06-2.43912E-19 5.33633E-20
 -1      2829 9.58690E-05-2.81777E-05-2.90138E-05-3.50127E-06-6.52205E-20 1.03452E-18
 -1      2830 9.71531E-05-2.85965E-05-2.93738E-05-4.06750E-06-4.19976E-19 3.72747E-19
 -1      2831 9.67563E-05-2.84868E-05-2.92596E-05-3.82744E-06-5.11992E-19 2.02180E-19
 -1      2832 9.62124E-05-2.81946E-05-2.91542E-05-4.01947E-06-4.64985E-19 7.15498E-19
 -1      2833 9.78816E-05-2.88576E-05-2.95755E-05-4.58400E-06 1.22415E-19-6.33992E-20
 -1      2834 9.74120E-05-2.86808E-05-2.94560E-05-4.35152E-06-6.03434E-20 2.95746E-19
 -1      2835 9.66642E-05-2.83063E-05-2.93009E-05-4.59466E-06-2.70727E-19 3.15886E-19
 -1      2836 9.87875E-05-2.93025E-05-2.97762E-05-5.03300E-06 3.65038E-19 1.32355E-19
 -1      2837 9.82320E-05-2.90278E-05-2.96562E-05-4.85395E-06 9.64845E-20-1.05142E-19
 -1      2838 9.72709E-05-2.85788E-05-2.94459E-05-5.17860E-06 1.84159E-19 1.66348E-19
 -1      2839 9.99223E-05-3.00078E-05-2.99653E-05-5.29227E-06 2.72161E-19 5.91955E-19
 -1      2840 9.92688E-05-2.96006E-05-2.98512E-05-5.23511E-06 6.29576E-19 3.68484E-19
 -1      2841 9.80996E-05-2.90991E-05-2.95809E-05-5.68676E-06 3.44732E-19 6.55318E-19
 -1      2842 1.01342E-04-3.10509E-05-3.01345E-05-5.18881E-06-3.08034E-19 4.76774E-19
 -1      2843 1.00585E-04-3.04812E-05-3.00322E-05-5.34591E-06 1.11906E-19 5.64955E-19
 -1      2844 9.92401E-05-2.99714E-05-2.97000E-05-5.98760E-06 1.75906E-19 9.11328E-19
 -1      2845 1.03087E-04-3.24744E-05-3.02829E-05-4.50117E-06-1.11074E-19-1.10349E-19
 -1      2846 1.02240E-04-3.17386E-05-3.01955E-05-4.98251E-06-3.82196E-19 5.98695E-20
 -1      2847 1.00798E-04-3.12971E-05-2.98049E-05-5.89219E-06 1.53816E-19 5.98116E-19
 -1      2848 1.05135E-04-3.42153E-05-3.04273E-05-2.98471E-06-5.37457E-19-7.27625E-20
 -1      2849 1.04254E-04-3.33755E-05-3.03502E-05-3.89571E-06-8.35423E-20-4.50813E-23
 -1      2850 1.02867E-04-3.31233E-05-2.99138E-05-5.15069E-06-1.24848E-19 2.40716E-19
 -1      2851 1.07316E-04-3.59880E-05-3.06135E-05-4.48181E-07-1.42232E-19 7.28225E-20
 -1      2852 1.06535E-04-3.52317E-05-3.05292E-05-1.83710E-06-5.94643E-19-3.72091E-19
 -1      2853 1.05453E-04-3.53401E-05-3.00739E-05-3.47066E-06-3.28110E-19 2.69758E-19
 -1      2854 1.09208E-04-3.71715E-05-3.09185E-05 3.06902E-06-2.92642E-19 1.98008E-19
 -1      2855 1.08757E-04-3.68491E-05-3.07966E-05 1.30721E-06-1.09143E-19 3.04465E-19
 -1      2856 1.08341E-04-3.75153E-05-3.03717E-05-6.05503E-07-4.83240E-19 4.72630E-20
 -1      2857 1.10124E-04-3.68361E-05-3.14317E-05 7.03081E-06-1.09352E-18 2.83477E-19
 -1      2858 1.10288E-04-3.74096E-05-3.12373E-05 5.26983E-06-4.31122E-19 5.74595E-19
 -1      2859 1.10943E-04-3.87797E-05-3.09246E-05 3.41689E-06-8.24152E-19 5.74148E-19
 -1      2860 1.09370E-04-3.41756E-05-3.22021E-05 1.01038E-05-1.31619E-18 7.21164E-19
 -1      2861 1.10288E-04-3.59118E-05-3.19220E-05 9.05381E-06-1.26304E-18 6.68437E-19
 -1      2862 1.12252E-04-3.78698E-05-3.18395E-05 7.89373E-06-1.37985E-18 1.18360E-18
 -1      2863 1.06871E-04-2.93885E-05-3.31426E-05 1.04103E-05-1.06017E-18 1.40935E-20
 -1      2864 1.08309E-04-3.19434E-05-3.28233E-05 1.08874E-05-7.11550E-19 8.26926E-19
 -1      2865 1.11356E-04-3.39524E-05-3.31204E-05 1.11384E-05-1.19797E-18 7.75756E-19
 -1      2866 1.03903E-04-2.45386E-05-3.39562E-05 6.59890E-06 4.54830E-19-1.14184E-18
 -1      2867 1.05122E-04-2.66744E-05-3.37185E-05 8.91009E-06-4.04359E-19-7.96103E-19
 -1      2868 1.08400E-04-2.78551E-05-3.45196E-05 1.07161E-05-2.13955E-19-2.82462E-19
 -1      2869 1.02601E-04-2.26114E-05-3.42829E-05-3.79509E-07-8.52592E-20-3.08646E-19
 -1      2870 1.02812E-04-2.29897E-05-3.42453E-05 2.98842E-06-1.76884E-20-6.20083E-19
 -1      2871 1.05366E-04-2.25838E-05-3.55420E-05 5.43771E-06-3.73621E-19-5.81902E-19
 -1      2872 1.04060E-04-2.50295E-05-3.39662E-05-7.18510E-06 8.98087E-19-8.04671E-19
 -1      2873 1.03162E-04-2.34035E-05-3.41396E-05-4.36857E-06 6.58052E-19-3.28318E-19
 -1      2874 1.04827E-04-2.16320E-05-3.57183E-05-2.72626E-06 1.16255E-19 4.60597E-19
 -1      2875 1.07251E-04-3.01241E-05-3.31610E-05-1.06967E-05 1.48210E-18-1.02528E-18
 -1      2876 1.05788E-04-2.75314E-05-3.34680E-05-9.56811E-06 1.22651E-18-9.92274E-19
 -1      2877 1.07166E-04-2.57571E-05-3.49018E-05-9.46616E-06 1.33300E-18-7.19773E-19
 -1      2878 1.09819E-04-3.47842E-05-3.22273E-05-1.00344E-05 3.52300E-20-2.75670E-19
 -1      2879 1.08659E-04-3.26718E-05-3.25297E-05-1.06295E-05 6.85223E-19-3.25393E-19
 -1      2880 1.10497E-04-3.19655E-05-3.36261E-05-1.15168E-05 7.40793E-19-9.59480E-19
 -1      2881 1.10505E-04-3.71548E-05-3.14541E-05-6.70421E-06-1.24660E-18 1.09455E-18
 -1      2882 1.10081E-04-3.61864E-05-3.16796E-05-8.30422E-06-4.35801E-19 8.05405E-19
 -1      2883 1.12223E-04-3.68408E-05-3.22615E-05-9.30735E-06-7.01281E-19 7.83163E-19
 -1      2884 1.09424E-04-3.72054E-05-3.09342E-05-2.65863E-06-2.80885E-19 1.67131E-18
 -1      2885 1.09689E-04-3.72691E-05-3.10765E-05-4.47428E-06-8.62306E-19 1.61850E-18
 -1      2886 1.11608E-04-3.87421E-05-3.12064E-05-5.02143E-06-1.40435E-18 1.08864E-18
 -1      2887 1.07362E-04-3.58440E-05-3.06222E-05 8.14442E-07 2.04657E-18 2.25765E-18
 -1      2888 1.08054E-04-3.64979E-05-3.07129E-05-7.21010E-07 6.76950E-19 2.31570E-18
 -1      2889 1.09337E-04-3.81012E-05-3.05396E-05-7.21160E-07 9.75436E-20 1.35240E-18
 -1      2890 1.05061E-04-3.39978E-05-3.04273E-05 3.23054E-06 3.04928E-18 1.61765E-18
 -1      2891 1.05920E-04-3.48391E-05-3.05010E-05 2.16272E-06 3.40193E-18 2.36988E-18
 -1      2892 1.06465E-04-3.61154E-05-3.01733E-05 2.55444E-06 2.40994E-18 1.62094E-18
 -1      2893 1.02946E-04-3.22478E-05-3.02769E-05 4.60281E-06 1.24319E-18 1.08014E-18
 -1      2894 1.03805E-04-3.30347E-05-3.03554E-05 3.99652E-06 2.13236E-18 1.19949E-18
 -1      2895 1.03739E-04-3.38374E-05-2.99830E-05 4.60346E-06 2.71921E-18 1.63485E-18
 -1      2896 1.01181E-04-3.08454E-05-3.01285E-05 5.14989E-06 1.02383E-18 1.47847E-18
 -1      2897 1.01960E-04-3.14776E-05-3.02201E-05 4.91256E-06 1.14140E-18 1.74159E-18
 -1      2898 1.01489E-04-3.18384E-05-2.98709E-05 5.60503E-06 1.24568E-18 9.01629E-19
 -1      2899 9.97754E-05-2.98319E-05-2.99666E-05 5.12805E-06 6.19274E-19 1.99231E-18
 -1      2900 1.00448E-04-3.02955E-05-3.00700E-05 5.14812E-06 1.18272E-18 2.11799E-18
 -1      2901 9.97703E-05-3.03251E-05-2.97777E-05 5.84917E-06 7.63468E-19 2.47476E-18
 -1      2902 9.86788E-05-2.91535E-05-2.97917E-05 4.75772E-06-9.80792E-19 5.19265E-19
 -1      2903 9.92451E-05-2.94723E-05-2.99012E-05 4.93619E-06 1.81319E-19 2.03926E-18
 -1      2904 9.85099E-05-2.92901E-05-2.96764E-05 5.60399E-06 4.98898E-19 3.33585E-18
 -1      2905 9.78278E-05-2.87285E-05-2.96118E-05 4.20492E-06-6.27015E-19-6.84053E-19
 -1      2906 9.82974E-05-2.89371E-05-2.97208E-05 4.46587E-06-1.79617E-18-4.33932E-19
 -1      2907 9.76007E-05-2.86426E-05-2.95610E-05 5.07833E-06-3.52348E-19 2.48986E-18
 -1      2908 9.71663E-05-2.84796E-05-2.94366E-05 3.58349E-06 5.72299E-19-8.71413E-19
 -1      2909 9.75517E-05-2.86105E-05-2.95393E-05 3.87452E-06 3.17333E-19-1.29773E-18
 -1      2910 9.69456E-05-2.82751E-05-2.94356E-05 4.42077E-06-6.55255E-20-2.32930E-19
 -1      2911 9.66502E-05-2.83446E-05-2.92740E-05 2.96479E-06 7.11422E-19-1.30101E-18
 -1      2912 9.69636E-05-2.84240E-05-2.93665E-05 3.25322E-06 7.28529E-19-1.31524E-18
 -1      2913 9.64690E-05-2.80937E-05-2.93078E-05 3.72941E-06 8.41510E-19-2.83747E-19
 -1      2914 9.62453E-05-2.82768E-05-2.91298E-05 2.38834E-06 9.93502E-19-1.37029E-18
 -1      2915 9.64980E-05-2.83248E-05-2.92097E-05 2.65658E-06 6.66992E-19-1.69035E-18
 -1      2916 9.61165E-05-2.80253E-05-2.91852E-05 3.06387E-06 5.33512E-19-9.52932E-19
 -1      2917 9.59255E-05-2.82428E-05-2.90070E-05 1.87045E-06 7.28465E-19 7.72894E-20
 -1      2918 9.61274E-05-2.82737E-05-2.90735E-05 2.11166E-06 9.36494E-19-7.19203E-20
 -1      2919 9.58491E-05-2.80167E-05-2.90736E-05 2.45539E-06-7.40652E-21-2.18185E-18
 -1      2920 9.56735E-05-2.82216E-05-2.89063E-05 1.41342E-06-6.54726E-19 1.02695E-18
 -1      2921 9.58309E-05-2.82452E-05-2.89596E-05 1.62527E-06-1.06951E-20 6.60662E-19
 -1      2922 9.56376E-05-2.80303E-05-2.89768E-05 1.91467E-06-2.33804E-19 1.15667E-19
 -1      2923 9.54554E-05-2.81656E-05-2.88361E-05 1.07590E-06-6.17779E-19 1.95106E-18
 -1      2924 9.55770E-05-2.81834E-05-2.88780E-05 1.26958E-06-2.18298E-19 6.73167E-19
 -1      2925 9.54449E-05-2.80102E-05-2.89054E-05 1.50600E-06-1.58749E-19 1.05659E-18
 -1      2926 9.52824E-05-2.79553E-05-2.88590E-05 1.20468E-06 2.32349E-20 4.00991E-19
 -1      2927 9.40619E-05-2.65652E-05-2.89309E-05 1.76126E-07 4.99786E-20 1.14021E-18
 -1      2928 9.41002E-05-2.66053E-05-2.89276E-05 3.93688E-07 1.06298E-18-4.29451E-19
 -1      2929 9.54394E-05-2.80041E-05-2.88961E-05-1.35321E-06-3.55285E-18 1.83872E-18
 -1      2930 9.53724E-05-2.80155E-05-2.88667E-05-1.19926E-06-2.68542E-18 1.47641E-18
 -1      2931 9.52308E-05-2.78585E-05-2.88770E-05-1.24999E-06-3.27423E-18 1.15175E-18
 -1      2932 9.52861E-05-2.78009E-05-2.89223E-05-1.56651E-06-2.06816E-18 3.17917E-19
 -1      2933 9.43871E-05-2.69300E-05-2.89154E-05 9.98221E-07 1.92783E-18-7.71013E-20
 -1      2934 9.45195E-05-2.70696E-05-2.89051E-05 1.12228E-06 1.88926E-18 1.39908E-19
 -1      2935 9.40714E-05-2.65699E-05-2.89315E-05-3.09383E-07 7.14306E-20 1.49887E-18
 -1      2936 9.40506E-05-2.65487E-05-2.89323E-05-8.63364E-08-1.42611E-19 1.66065E-18
 -1      2937 9.38729E-05-2.64046E-05-2.89100E-05 5.75467E-08 1.10051E-18 1.12466E-18
 -1      2938 9.41725E-05-2.66908E-05-2.89254E-05 6.31877E-07 1.13273E-18 6.32579E-20
 -1      2939 9.42638E-05-2.67863E-05-2.89183E-05 8.14750E-07 1.57095E-18 1.96204E-19
 -1      2940 9.41942E-05-2.67416E-05-2.89047E-05 1.02750E-06 2.16153E-18-8.92154E-19
 -1      2941 9.39692E-05-2.65086E-05-2.89073E-05 5.83999E-07 1.53155E-18-2.51136E-19
 -1      2942 8.35148E-05-4.39762E-05-1.68074E-05 4.03228E-05 2.45851E-19-1.88073E-18
 -1      2943 6.72276E-05-3.40846E-05-1.37623E-05 3.80458E-05 2.86297E-19-8.54550E-19
 -1      2944 9.49587E-05-4.71782E-05-2.00667E-05 3.49391E-05 3.85400E-19-2.60066E-18
 -1      2945 9.42014E-05-2.67048E-05-2.89275E-05-7.52079E-07 2.97221E-19-3.82953E-20
 -1      2946 9.41234E-05-2.66253E-05-2.89321E-05-5.57640E-07-2.55183E-19 1.65994E-18
 -1      2947 9.39199E-05-2.64441E-05-2.89131E-05-4.80075E-07 7.38687E-19 8.64876E-19
 -1      2948 9.44453E-05-2.69635E-05-2.89191E-05-1.10370E-06 1.52495E-18 3.44021E-19
 -1      2949 9.43148E-05-2.68304E-05-2.89273E-05-9.60133E-07 1.14861E-18-5.40994E-19
 -1      2950 9.41092E-05-2.66269E-05-2.89164E-05-9.62196E-07 9.74076E-19 4.53095E-19
 -1      2951 9.47708E-05-2.73180E-05-2.89060E-05-1.29891E-06-1.02488E-18 3.13262E-19
 -1      2952 9.46083E-05-2.71471E-05-2.89173E-05-1.23471E-06 9.70243E-19-6.05714E-20
 -1      2953 9.44260E-05-2.69407E-05-2.89189E-05-1.32374E-06 6.04808E-19-1.17401E-19
 -1      2954 9.50887E-05-2.76843E-05-2.88866E-05-1.29613E-06-2.64257E-18-4.01807E-19
 -1      2955 9.49198E-05-2.74943E-05-2.89015E-05-1.31872E-06-1.76879E-18 5.65714E-19
 -1      2956 9.47721E-05-2.72994E-05-2.89162E-05-1.47810E-06-7.44976E-19-8.49772E-19
 -1      2957 9.51063E-05-2.76558E-05-2.89062E-05-1.44858E-06-2.36310E-18-5.33684E-19
 -1      2958 9.47681E-05-2.73484E-05-2.88950E-05 2.07872E-07 2.70485E-19 3.24116E-19
 -1      2959 9.49246E-05-2.70630E-05-2.90571E-05 8.43980E-07 2.99871E-19 4.10876E-19
 -1      2960 9.52736E-05-2.64286E-05-2.95100E-05 1.58477E-06 4.20123E-19 2.06868E-19
 -1      2961 9.51679E-05-2.72765E-05-2.91044E-05 1.48525E-07 3.06988E-19 9.24108E-20
 -1      2962 9.43319E-05-2.08491E-05-3.15273E-05-8.19357E-06-5.70824E-19 2.10021E-20
 -1      2963 9.47189E-05-2.26174E-05-3.09250E-05-6.34494E-06-5.45628E-19 1.19707E-19
 -1      2964 9.06786E-05-4.67174E-05-1.87636E-05 3.62449E-05 7.08014E-19-1.51947E-18
 -1      2965 7.36496E-05-3.75908E-05-1.49003E-05 3.64035E-05 8.68209E-19-1.49237E-18
 -1      2966 5.71205E-05-2.86497E-05-1.19631E-05 3.38590E-05 8.85467E-19-5.76406E-19
 -1      2967 4.29475E-05-1.95515E-05-9.49015E-06 2.37003E-05 1.10744E-18-1.77898E-18
 -1      2968 7.02927E-05-3.21044E-05-1.58232E-05 3.21680E-05 4.11446E-19-1.56722E-18
 -1      2969 1.33962E-04-3.18872E-05-4.40138E-05 1.12390E-05 7.47718E-19-1.41772E-19
 -1      2970 1.30325E-04-2.23656E-05-4.69524E-05 1.15655E-05 1.22481E-18 3.72642E-19
 -1      2971 1.41135E-04-5.59996E-05-3.70222E-05 6.15691E-07-3.87054E-19 1.67077E-19
 -1      2972 1.35566E-04-6.00041E-05-3.20566E-05 1.07400E-05 8.53492E-19-7.39989E-19
 -1      2973 9.46935E-05-2.81728E-05-2.85051E-05-1.66559E-06-1.06666E-19 1.26776E-19
 -1      2974 9.46065E-05-2.80930E-05-2.84999E-05-1.50906E-06 9.44468E-20 9.76887E-20
 -1      2975 9.50519E-05-2.82106E-05-2.86519E-05-1.80255E-06-1.32419E-19 1.26067E-19
 -1      2976 9.46179E-05-2.80179E-05-2.85403E-05-1.29109E-06 2.86049E-19 1.66771E-19
 -1      2977 9.45933E-05-2.79001E-05-2.85720E-05-1.04990E-06 2.87055E-19 2.60216E-19
 -1      2978 9.50341E-05-2.80583E-05-2.87112E-05-1.39502E-06 1.82236E-19 1.90439E-19
 -1      2979 9.52701E-05-2.40630E-05-3.04996E-05-5.08553E-06-4.69020E-19 1.52945E-19
 -1      2980 9.51851E-05-2.50353E-05-3.00817E-05-3.57936E-06-3.76888E-19 2.10701E-19
 -1      2981 9.52397E-05-2.46990E-05-3.02247E-05-3.31270E-06-4.36601E-19 2.60645E-20
 -1      2982 9.45974E-05-2.23305E-05-3.09650E-05-5.61512E-06-4.77402E-19-5.81913E-20
 -1      2983 3.36482E-05-1.35314E-05-8.09423E-06-1.21934E-05-3.14196E-19-1.11681E-18
 -1      2984 4.35208E-05-1.93480E-05-9.95051E-06-2.62318E-05-1.45743E-19 4.45963E-19
 -1      2985 1.32346E-04-2.23161E-05-4.78685E-05-1.10764E-05 3.30978E-19-4.39398E-19
 -1      2986 1.35505E-04-3.19383E-05-4.46029E-05-1.07627E-05 9.78323E-19-1.25064E-18
 -1      2987 9.12021E-05-1.60221E-05-3.22479E-05 4.86221E-06 4.30191E-19-3.82169E-19
 -1      2988 9.08604E-05-1.55170E-05-3.23121E-05 3.94644E-06 2.83901E-19-5.64875E-19
 -1      2989 9.18264E-05-1.71008E-05-3.20094E-05 3.14506E-06 2.14676E-19-5.29459E-19
 -1      2990 9.24997E-05-1.81818E-05-3.18300E-05 4.54558E-06 4.55178E-19-2.67871E-19
 -1      2991 9.08261E-05-1.54684E-05-3.23178E-05-3.88190E-06-1.81031E-19-7.11736E-19
 -1      2992 9.11608E-05-1.59610E-05-3.22551E-05-4.79811E-06-2.51504E-19-7.46383E-19
 -1      2993 9.43767E-05-4.85318E-05-1.92051E-05-3.69667E-05-1.02597E-18 5.40566E-19
 -1      2994 1.10299E-04-5.54015E-05-2.37823E-05-3.18902E-05-8.23422E-19 4.48292E-19
 -1      2995 9.20523E-05-1.66380E-05-3.23281E-05-8.97625E-06-5.41866E-19-2.59748E-19
 -1      2996 1.23515E-04-5.78715E-05-2.78108E-05-2.13465E-05-7.47348E-19 1.00797E-19
 -1      2997 1.31797E-04-5.69177E-05-3.26408E-05-1.11960E-05-1.78406E-19-2.63480E-19
 -1      2998 3.05258E-05-1.27779E-05-7.30051E-06 8.84841E-06 1.46060E-19 2.28911E-19
 -1      2999 2.99066E-05-1.28266E-05-6.63452E-06-5.78581E-06 1.45875E-19 1.23243E-19
 -1      3000 6.09225E-05-3.03137E-05-1.26433E-05-3.61119E-05-2.57922E-19 1.24959E-18
 -1      3001 7.81134E-05-4.07172E-05-1.58933E-05-4.01747E-05-8.59844E-19 1.21390E-18
 -1      3002 9.08440E-05-4.42631E-05-1.95535E-05-3.48326E-05-6.10075E-19 5.20899E-19
 -1      3003 3.51194E-05-1.36449E-05-8.75756E-06 1.22947E-05 7.85676E-19-1.74997E-18
 -1      3004 3.21606E-05-1.18971E-05-8.20566E-06 1.37381E-07 1.53260E-20-1.54414E-18
 -1      3005 1.35947E-04-4.99501E-05-3.67637E-05 6.74754E-07 5.93850E-19-1.05032E-19
 -1      3006 1.36321E-04-4.26434E-05-4.07985E-05 6.69549E-06 5.09967E-19 2.08688E-19
 -1      3007 5.08416E-05-2.35745E-05-1.13731E-05 3.12906E-05 6.24157E-19 1.04143E-18
 -1      3008 3.92164E-05-1.65954E-05-8.96843E-06 2.11717E-05 7.58730E-19 3.89635E-19
 -1      3009 1.40974E-04-3.85039E-05-4.45928E-05-1.28134E-05-1.13026E-18 1.90159E-19
 -1      3010 1.41516E-04-4.60432E-05-4.10418E-05-1.00253E-05-1.14672E-18 1.94818E-19
 -1      3011 9.52510E-05-5.00720E-05-1.89264E-05-3.59281E-05 9.85523E-19 1.06708E-18
 -1      3012 1.11998E-04-5.72722E-05-2.37240E-05-3.09461E-05 1.33863E-18 1.76803E-18
 -1      3013 1.35254E-04-2.03558E-05-4.99821E-05-1.23513E-05-2.63385E-18 5.17431E-19
 -1      3014 1.38222E-04-2.88814E-05-4.73357E-05-1.43625E-05-1.70804E-18 3.86671E-19
 -1      3015 1.34499E-04-3.34182E-05-4.35890E-05-1.58432E-05-1.38320E-18-1.20808E-19
 -1      3016 1.27073E-04-6.01662E-05-2.83645E-05-1.95531E-05 1.69184E-18 1.87533E-18
 -1      3017 1.36955E-04-5.98785E-05-3.35202E-05-1.02480E-05 9.40207E-19 4.97526E-19
 -1      3018 1.38081E-04-4.33738E-05-4.12816E-05-5.07474E-06-1.26208E-19-1.70127E-18
 -1      3019 1.37958E-04-5.04211E-05-3.74939E-05 1.32633E-06-1.22470E-18-4.80797E-19
 -1      3020 1.24928E-04-9.94060E-06-4.99538E-05-4.36968E-06 7.11719E-19-1.74558E-18
 -1      3021 1.27600E-04-1.42668E-05-4.90558E-05-9.21080E-06 4.00435E-19-1.11946E-18
 -1      3022 1.28494E-04-1.89043E-05-4.76502E-05 1.10036E-05-1.27521E-18-1.34752E-18
 -1      3023 9.15865E-05-1.66147E-05-3.21504E-05-5.52071E-06-3.17507E-19-6.32626E-19
 -1      3024 9.20605E-05-1.73238E-05-3.20537E-05-6.34962E-06-4.07817E-19-4.41008E-19
 -1      3025 9.24474E-05-1.81048E-05-3.18400E-05-4.50686E-06-2.18335E-19-5.47075E-19
 -1      3026 9.12956E-05-1.62712E-05-3.21407E-05 2.91152E-08-1.13129E-19-6.69608E-19
 -1      3027 9.01884E-05-1.45083E-05-3.24540E-05-3.75592E-07-9.52029E-20-7.47799E-19
 -1      3028 9.02458E-05-1.45906E-05-3.24434E-05-1.32179E-06-1.45019E-19-8.48800E-19
 -1      3029 1.20345E-04-5.68766E-05-2.70113E-05 2.27326E-05-1.13979E-19-9.82929E-19
 -1      3030 9.43557E-05-2.13944E-05-3.12737E-05 7.15711E-06 5.80768E-19 1.40584E-19
 -1      3031 6.05465E-05-2.88151E-05-1.30654E-05-3.19743E-05 6.17064E-19 3.00210E-18
 -1      3032 1.33807E-04-5.35630E-05-3.44436E-05 4.23219E-06-1.47024E-18-6.89697E-19
 -1      3033 3.86612E-05-1.49430E-05-9.53704E-06-1.26777E-05-2.79574E-19 9.61382E-19
 -1      3034 1.34831E-04-4.89668E-05-3.70954E-05-9.01670E-06-3.56919E-19 4.64068E-19
 -1      3035 1.32090E-04-4.33795E-05-3.83488E-05-1.46961E-05-2.49054E-19 5.28946E-19
 -1      3036 1.27607E-04-1.69348E-05-4.82475E-05-9.02327E-06-2.54745E-18 5.93717E-19
 -1      3037 1.29939E-04-3.54186E-05-4.06678E-05-1.62350E-05-9.02196E-19 6.63941E-19
 -1      3038 1.27253E-04-2.87371E-05-4.28653E-05-1.59766E-05-1.50190E-18 1.04077E-18
 -1      3039 1.24347E-04-2.09806E-05-4.44999E-05-1.13797E-05-2.21510E-18 9.62779E-19
 -1      3040 9.45158E-05-2.70736E-05-2.89017E-05 1.33270E-06 1.23870E-18 3.21018E-19
 -1      3041 9.46779E-05-2.72535E-05-2.89011E-05 1.22836E-06 1.13057E-18 3.25768E-19
 -1      3042 9.48338E-05-2.74220E-05-2.88884E-05 1.27664E-06 3.73506E-20 1.94260E-20
 -1      3043 5.34338E-05-1.90715E-05-1.44027E-05-2.34852E-05-3.31719E-19 5.97582E-19
 -1      3044 5.64625E-05-2.47665E-05-1.30590E-05-3.06749E-05-2.68880E-19 1.00871E-18
 -1      3045 6.89067E-05-2.97177E-05-1.67710E-05-3.19371E-05-2.06464E-19 1.52805E-18
 -1      3046 1.41497E-04-5.38519E-05-3.76019E-05 1.27022E-06-1.11067E-19-1.00405E-18
 -1      3047 1.43056E-04-4.65554E-05-4.18578E-05 8.06774E-06-3.13720E-19-2.12626E-18
 -1      3048 9.50757E-05-2.77750E-05-2.88520E-05-7.89198E-07 3.12934E-19 1.16966E-19
 -1      3049 9.49816E-05-2.75979E-05-2.88830E-05 1.28775E-06-3.16975E-20-7.87718E-19
 -1      3050 9.51409E-05-2.77771E-05-2.88677E-05 1.25754E-06 1.36512E-19-6.33193E-19
 -1      3051 9.52088E-05-2.77962E-05-2.88868E-05 1.41306E-06 3.36970E-20-1.68312E-19
 -1      3052 9.48724E-05-2.74401E-05-2.88970E-05 1.45441E-06-5.80799E-19 2.04783E-19
 -1      3053 1.38106E-04-5.10936E-05-3.74803E-05-5.91429E-06-8.26909E-19-4.32410E-19
 -1      3054 1.33286E-04-3.76410E-05-4.12175E-05-9.76957E-06 2.38228E-20-1.44779E-18
 -1      3055 1.02012E-04-5.11928E-05-2.13087E-05 3.21783E-05 3.77883E-19-1.26536E-18
 -1      3056 9.43514E-05-4.45827E-05-2.09377E-05 3.15207E-05 9.97381E-20-1.95119E-18
 -1      3057 1.11117E-04-5.52788E-05-2.44141E-05 2.72563E-05 3.61789E-19-1.51569E-18
 -1      3058 9.17560E-05-4.57498E-05-1.93076E-05-3.41865E-05 8.75726E-19 1.08944E-18
 -1      3059 1.37369E-04-5.62644E-05-3.48058E-05-1.16800E-06 1.09995E-18-1.01284E-18
 -1      3060 6.25309E-05-2.85900E-05-1.40387E-05 3.35143E-05 3.42837E-19 1.70677E-19
 -1      3061 5.87815E-05-2.27323E-05-1.51257E-05 2.76753E-05-5.65394E-20 6.62380E-19
 -1      3062 7.35073E-05-3.33889E-05-1.72290E-05 3.37095E-05 1.71312E-19-1.46643E-18
 -1      3063 1.31508E-04-5.29093E-05-3.37246E-05-3.12064E-06-5.85644E-20 8.82502E-20
 -1      3064 4.15876E-05-1.44344E-05-1.09957E-05 1.34268E-05 6.31913E-19 5.19125E-19
 -1      3065 1.22713E-04-2.31316E-05-4.28237E-05 1.28273E-05 7.23048E-19-1.49753E-18
 -1      3066 1.25968E-04-1.86809E-05-4.64592E-05 1.11287E-05 8.59633E-19-8.64927E-19
 -1      3067 1.19605E-04-1.51995E-05-4.53152E-05 9.40954E-06 2.05617E-19-1.91864E-18
 -1      3068 4.68272E-05-1.67712E-05-1.22484E-05 1.72249E-05 7.73262E-19-1.30972E-18
 -1      3069 1.30849E-04-3.71093E-05-4.03913E-05 1.10079E-05 4.66821E-19 3.68036E-19
 -1      3070 1.29736E-04-5.89662E-05-2.98619E-05 1.37458E-05 7.20243E-19-1.02099E-18
 -1      3071 9.28396E-05-1.83990E-05-3.19012E-05-7.41288E-06-4.79758E-19-2.94332E-19
 -1      3072 1.28636E-04-3.23758E-05-4.18015E-05 1.69262E-05-6.23628E-19-9.55162E-19
 -1      3073 1.35136E-04-3.82424E-05-4.16679E-05 1.57449E-05-5.13196E-19-2.46582E-18
 -1      3074 9.03727E-05-1.47868E-05-3.24144E-05-2.14599E-06-8.37542E-20-7.04283E-19
 -1      3075 9.05584E-05-1.50555E-05-3.23802E-05-3.08699E-06-1.61215E-19-7.12452E-19
 -1      3076 9.17963E-05-1.70583E-05-3.20151E-05-3.08789E-06-1.23032E-19-6.77003E-19
 -1      3077 9.14160E-05-1.64599E-05-3.21109E-05-1.55288E-06-1.48610E-19-7.86808E-19
 -1      3078 1.24543E-04-1.96660E-05-4.53319E-05-1.09953E-05 6.30934E-19-9.18290E-19
 -1      3079 4.13987E-05-1.28970E-05-1.15462E-05-6.33862E-06-1.65211E-19-1.04259E-18
 -1      3080 1.17051E-04-5.54081E-05-2.62113E-05-2.32882E-05-6.03617E-19 8.52327E-21
 -1      3081 1.20577E-04-5.78487E-05-2.66612E-05-2.19227E-05 1.90837E-18 1.12962E-18
 -1      3082 9.46209E-05-2.24231E-05-3.09341E-05 5.61809E-06 5.71277E-19-2.16033E-20
 -1      3083 1.25978E-04-2.47223E-05-4.36158E-05 1.31319E-05-8.17810E-19-1.00548E-18
 -1      3084 5.47176E-05-2.25702E-05-1.32877E-05-2.68654E-05 2.07100E-19 3.34578E-18
 -1      3085 6.95726E-05-3.10324E-05-1.62624E-05-3.17335E-05 8.71015E-19 2.05173E-18
 -1      3086 9.42864E-05-2.17842E-05-3.10940E-05 4.88444E-06 4.66985E-19-2.36588E-19
 -1      3087 9.38307E-05-2.08316E-05-3.12859E-05 4.53485E-06 5.18120E-19-1.70258E-19
 -1      3088 9.37007E-05-2.62805E-05-2.88953E-05-6.63897E-07 3.95628E-19 1.27440E-18
 -1      3089 9.36325E-05-2.62247E-05-2.88927E-05-3.94000E-07 9.49284E-19 1.58867E-18
 -1      3090 1.17488E-04-1.77155E-05-4.32425E-05-1.03333E-05 6.77097E-19-2.48003E-18
 -1      3091 1.22439E-04-2.45087E-05-4.21989E-05-1.35692E-05 9.77264E-20-2.03531E-18
 -1      3092 1.35440E-04-5.74320E-05-3.37109E-05 3.92171E-07 4.18487E-20-2.65492E-19
 -1      3093 9.56821E-05-2.67120E-05-2.95452E-05-4.96319E-07-4.09551E-19 3.45925E-20
 -1      3094 9.56637E-05-2.71292E-05-2.93786E-05 8.35983E-08-4.64706E-19-1.06557E-19
 -1      3095 9.56925E-05-2.74729E-05-2.92269E-05 5.26699E-07-5.62277E-19 2.07380E-20
 -1      3096 9.56620E-05-2.77196E-05-2.91210E-05 9.17090E-07-6.40882E-19-3.91361E-20
 -1      3097 9.58575E-05-2.70599E-05-2.94879E-05 1.79307E-07-3.67849E-19 2.59973E-20
 -1      3098 9.56324E-05-2.79035E-05-2.90203E-05 1.22392E-06-6.48438E-19-1.39203E-19
 -1      3099 9.56079E-05-2.80335E-05-2.89604E-05 1.49310E-06-5.52891E-19-6.15113E-20
 -1      3100 9.58617E-05-2.76745E-05-2.92266E-05 9.64598E-07-6.02144E-19-1.08882E-20
 -1      3101 9.55444E-05-2.81049E-05-2.88996E-05 1.71533E-06-4.18789E-19-6.14252E-20
 -1      3102 9.55301E-05-2.81512E-05-2.88746E-05 1.91801E-06-4.23486E-19-1.28200E-19
 -1      3103 9.57744E-05-2.79842E-05-2.90561E-05 1.52251E-06-4.83023E-19-2.33214E-19
 -1      3104 9.54441E-05-2.81396E-05-2.88444E-05 2.09898E-06-2.85016E-19-4.73676E-20
 -1      3105 9.54390E-05-2.81227E-05-2.88462E-05 2.27802E-06-3.01721E-19 2.61380E-19
 -1      3106 9.56306E-05-2.80714E-05-2.89563E-05 1.94823E-06-1.99635E-19-1.65224E-19
 -1      3107 9.53335E-05-2.80463E-05-2.88393E-05 2.45292E-06-4.00357E-19 2.87300E-19
 -1      3108 9.53348E-05-2.79795E-05-2.88617E-05 2.64179E-06-1.47871E-19 2.96108E-19
 -1      3109 9.54442E-05-2.79891E-05-2.89108E-05 2.32075E-06-2.27590E-19-3.34259E-20
 -1      3110 9.52082E-05-2.78495E-05-2.88720E-05 2.83877E-06-1.82017E-19 2.69713E-19
 -1      3111 9.52124E-05-2.77417E-05-2.89101E-05 3.06368E-06-8.83515E-20 1.31007E-19
 -1      3112 9.52168E-05-2.77713E-05-2.89056E-05 2.70382E-06-1.92566E-19 3.75879E-19
 -1      3113 9.50596E-05-2.75656E-05-2.89319E-05 3.30511E-06 1.42916E-20 4.02508E-20
 -1      3114 9.50634E-05-2.74241E-05-2.89815E-05 3.58650E-06-1.47914E-20 1.94799E-19
 -1      3115 9.49421E-05-2.74404E-05-2.89284E-05 3.14803E-06-1.81975E-20 2.61391E-19
 -1      3116 9.48773E-05-2.72078E-05-2.90089E-05 3.89014E-06-3.45062E-20 2.26084E-19
 -1      3117 9.48779E-05-2.70406E-05-2.90656E-05 4.24342E-06 6.63300E-20 2.97318E-19
 -1      3118 9.46081E-05-2.70127E-05-2.89671E-05 3.69307E-06 7.21336E-20 1.35226E-19
 -1      3119 9.46508E-05-2.67921E-05-2.90917E-05 4.62322E-06 7.26549E-20 3.31572E-19
 -1      3120 9.46478E-05-2.66118E-05-2.91500E-05 5.05871E-06 1.04271E-19 2.06282E-19
 -1      3121 9.42003E-05-2.65051E-05-2.90082E-05 4.36987E-06 1.07966E-19-1.96902E-19
 -1      3122 9.43740E-05-2.63455E-05-2.91662E-05 5.52559E-06 1.10544E-19-4.24252E-20
 -1      3123 9.43727E-05-2.61745E-05-2.92184E-05 6.04790E-06-1.68855E-19-1.39966E-19
 -1      3124 9.37050E-05-2.59422E-05-2.90354E-05 5.20221E-06-2.50222E-19-5.96300E-20
 -1      3125 9.40534E-05-2.59181E-05-2.92135E-05 6.61094E-06-3.27277E-19-2.28005E-20
 -1      3126 9.40720E-05-2.57976E-05-2.92494E-05 7.21791E-06-4.45917E-19-9.67688E-21
 -1      3127 9.31166E-05-2.53684E-05-2.90275E-05 6.20938E-06-1.33806E-19-5.15099E-19
 -1      3128 9.37246E-05-2.56026E-05-2.92086E-05 7.88647E-06-1.85460E-19 3.11487E-19
 -1      3129 9.38070E-05-2.56058E-05-2.92151E-05 8.56753E-06 8.81704E-20 3.73739E-19
 -1      3130 9.24505E-05-2.48646E-05-2.89571E-05 7.41092E-06 1.27712E-19 1.04076E-19
 -1      3131 9.34814E-05-2.55632E-05-2.91205E-05 9.35466E-06-2.64738E-20 2.79522E-19
 -1      3132 9.37194E-05-2.58138E-05-2.90828E-05 1.00881E-05 1.15993E-19 2.37898E-19
 -1      3133 9.17671E-05-2.45742E-05-2.87900E-05 8.83491E-06-4.30856E-20 1.97485E-19
 -1      3134 9.35256E-05-2.60755E-05-2.89156E-05 1.10135E-05 6.32728E-19 2.17316E-19
 -1      3135 9.40919E-05-2.67713E-05-2.88228E-05 1.17589E-05 7.49135E-19 5.05612E-19
 -1      3136 9.12125E-05-2.47417E-05-2.84867E-05 1.05302E-05 4.15807E-19-2.04414E-19
 -1      3137 9.42465E-05-2.75738E-05-2.85709E-05 1.28424E-05 1.78019E-19 6.86256E-19
 -1      3138 9.54336E-05-2.90017E-05-2.84289E-05 1.35166E-05 2.32260E-19 4.40690E-19
 -1      3139 9.10892E-05-2.57637E-05-2.80116E-05 1.25737E-05 5.44215E-19 3.34131E-19
 -1      3140 9.63353E-05-3.06885E-05-2.81047E-05 1.47393E-05 2.32585E-19 5.09250E-19
 -1      3141 9.85552E-05-3.31845E-05-2.79598E-05 1.51379E-05 4.01387E-19 2.17633E-19
 -1      3142 9.19642E-05-2.82453E-05-2.73569E-05 1.50500E-05-1.40294E-20 2.03345E-19
 -1      3143 1.00886E-04-3.60905E-05-2.76373E-05 1.63221E-05 7.04566E-19-1.71855E-19
 -1      3144 1.05009E-04-4.01038E-05-2.77090E-05 1.57897E-05 6.95401E-19-3.53994E-19
 -1      3145 9.49236E-05-3.30655E-05-2.65931E-05 1.79300E-05 4.13974E-19-9.14705E-20
 -1      3146 1.09050E-04-4.67790E-05-2.65980E-05 1.92714E-05 3.60618E-19-7.10303E-19
 -1      3147 1.15259E-04-5.11899E-05-2.71490E-05 1.74131E-05 5.17087E-19-6.99762E-19
 -1      3148 1.22083E-04-5.48907E-05-2.86527E-05 1.39623E-05 3.11232E-19-1.20829E-18
 -1      3149 4.47961E-05-1.17481E-05-1.39206E-05-5.82336E-07 2.22088E-19-8.94361E-19
 -1      3150 4.65873E-05-1.32730E-05-1.39140E-05-1.24602E-05 7.67624E-22-4.62480E-19
 -1      3151 1.14501E-04-4.83378E-05-2.83239E-05-1.38094E-05 1.57389E-18 8.73543E-19
 -1      3152 1.09354E-04-4.39412E-05-2.78488E-05-1.56390E-05 8.30155E-19 1.69459E-18
 -1      3153 1.04902E-04-3.96737E-05-2.78938E-05-1.54151E-05-4.97367E-20 2.43160E-18
 -1      3154 1.01312E-04-3.59902E-05-2.78933E-05-1.57384E-05-2.58072E-19 2.28066E-18
 -1      3155 1.01875E-04-4.06102E-05-2.63458E-05-1.94677E-05 8.71908E-19 5.17140E-19
 -1      3156 9.90240E-05-3.31268E-05-2.81904E-05-1.47343E-05 2.17499E-20 2.20582E-18
 -1      3157 9.68568E-05-3.06908E-05-2.83221E-05-1.43611E-05-2.86401E-19 1.66619E-18
 -1      3158 9.56084E-05-3.30967E-05-2.68801E-05-1.73338E-05 1.16434E-19 1.61989E-18
 -1      3159 9.59245E-05-2.90466E-05-2.86236E-05-1.32128E-05-3.84847E-19 2.13642E-18
 -1      3160 9.47530E-05-2.76525E-05-2.87512E-05-1.25590E-05-4.47307E-19 2.27210E-18
 -1      3161 9.26400E-05-2.83660E-05-2.75912E-05-1.47068E-05-4.62034E-19 2.38384E-18
 -1      3162 9.45468E-05-2.68581E-05-2.89834E-05-1.15049E-05-9.83388E-19 2.58098E-18
 -1      3163 9.39711E-05-2.61705E-05-2.90633E-05-1.07595E-05-9.99429E-19 2.91294E-18
 -1      3164 9.16635E-05-2.58967E-05-2.82007E-05-1.23377E-05-6.08847E-19 2.56392E-18
 -1      3165 9.41092E-05-2.58989E-05-2.92154E-05-9.83405E-06-1.58815E-18 3.12272E-18
 -1      3166 9.38506E-05-2.56394E-05-2.92437E-05-9.08409E-06-1.15074E-18 2.32147E-18
 -1      3167 9.16772E-05-2.48532E-05-2.86391E-05-1.03194E-05-1.33765E-18 2.17361E-18
 -1      3168 9.41223E-05-2.56610E-05-2.93279E-05-8.27689E-06-5.58475E-19 2.34663E-18
 -1      3169 9.40163E-05-2.56390E-05-2.93159E-05-7.56756E-06 8.80799E-19 1.84068E-18
 -1      3170 9.21244E-05-2.46408E-05-2.89157E-05-8.59781E-06-9.62727E-19 3.32346E-18
 -1      3171 9.43120E-05-2.58054E-05-2.93501E-05-6.86595E-06 1.60765E-18 8.75273E-19
 -1      3172 9.42706E-05-2.59007E-05-2.93121E-05-6.22137E-06 9.67341E-19 9.66725E-19
 -1      3173 9.27066E-05-2.48716E-05-2.90647E-05-7.11531E-06 4.67322E-19 2.81440E-18
 -1      3174 9.45398E-05-2.61229E-05-2.93132E-05-5.61549E-06 2.54522E-19 1.11528E-18
 -1      3175 9.45204E-05-2.62651E-05-2.92618E-05-5.04711E-06-5.19615E-19 5.49046E-19
 -1      3176 9.32756E-05-2.53050E-05-2.91234E-05-5.83384E-06 4.53184E-19 2.08944E-18
 -1      3177 9.47448E-05-2.64935E-05-2.92433E-05-4.52932E-06 4.74157E-19 1.90288E-19
 -1      3178 9.47289E-05-2.66434E-05-2.91876E-05-4.03997E-06 1.96093E-18 2.68971E-19
 -1      3179 9.37690E-05-2.58004E-05-2.91238E-05-4.73021E-06-1.07066E-19 1.29545E-18
 -1      3180 9.49047E-05-2.68508E-05-2.91596E-05-3.60443E-06 1.83145E-18-3.31781E-19
 -1      3181 9.48852E-05-2.69859E-05-2.91059E-05-3.19020E-06 2.03417E-18-6.39144E-20
 -1      3182 9.41692E-05-2.62805E-05-2.90908E-05-3.78995E-06 1.03988E-18-8.85340E-19
 -1      3183 9.50146E-05-2.71631E-05-2.90750E-05-2.82195E-06 1.87147E-18-7.79825E-19
 -1      3184 9.49910E-05-2.72738E-05-2.90272E-05-2.47908E-06 2.29546E-19-1.65421E-18
 -1      3185 9.44696E-05-2.67006E-05-2.90421E-05-3.00208E-06 1.04347E-18-1.71627E-18
 -1      3186 9.50829E-05-2.74111E-05-2.89980E-05-2.17178E-06-9.26208E-19-1.43456E-18
 -1      3187 9.50563E-05-2.74958E-05-2.89571E-05-1.88512E-06-1.12576E-18-1.74136E-18
 -1      3188 9.46959E-05-2.70432E-05-2.89879E-05-2.33091E-06-1.11114E-19-2.27785E-18
 -1      3189 1.41711E-04-4.37962E-05-4.24294E-05 1.08053E-05-3.46225E-19-2.16195E-18
 -1      3190 9.54088E-05-2.77530E-05-2.89974E-05-8.65259E-07 2.40578E-19-1.89149E-20
 -1      3191 9.54433E-05-2.75205E-05-2.90992E-05-4.65483E-07 2.48227E-19-6.09652E-20
 -1      3192 9.53501E-05-2.82490E-05-2.87538E-05-2.18390E-06 4.01519E-19-3.86435E-19
 -1      3193 9.53063E-05-2.82293E-05-2.87459E-05-2.02973E-06 1.09789E-19-3.71856E-19
 -1      3194 9.55041E-05-2.80108E-05-2.89191E-05-3.23854E-06 1.92679E-20 1.17310E-18
 -1      3195 9.53886E-05-2.80438E-05-2.88652E-05-3.03164E-06 5.03346E-19 6.18284E-19
 -1      3196 9.56332E-05-2.79132E-05-2.90157E-05-3.72685E-06-2.85935E-19 1.31041E-18
 -1      3197 9.54842E-05-2.79332E-05-2.89540E-05-3.48010E-06 4.82521E-20 1.32359E-18
 -1      3198 9.52452E-05-2.77573E-05-2.89251E-05-3.44739E-06-3.67272E-20 1.04533E-18
 -1      3199 9.58323E-05-2.78701E-05-2.91192E-05-4.29915E-06-3.92572E-19 7.21160E-19
 -1      3200 9.56375E-05-2.78543E-05-2.90534E-05-4.01614E-06-2.30301E-19 1.02779E-18
 -1      3201 9.52289E-05-2.75980E-05-2.89866E-05-3.99075E-06-4.79190E-20 1.02714E-18
 -1      3202 9.61402E-05-2.79412E-05-2.92206E-05-4.93627E-06 1.29140E-19 1.67349E-19
 -1      3203 9.58803E-05-2.78581E-05-2.91548E-05-4.63224E-06-2.60684E-19 4.32066E-19
 -1      3204 9.52785E-05-2.75087E-05-2.90471E-05-4.62762E-06-4.09442E-20 5.05791E-19
 -1      3205 9.66176E-05-2.82090E-05-2.93110E-05-5.59328E-06 2.62277E-19 2.77174E-19
 -1      3206 9.62638E-05-2.80157E-05-2.92495E-05-5.29826E-06 9.46244E-20 4.02068E-19
 -1      3207 9.54444E-05-2.75644E-05-2.90962E-05-5.34213E-06-1.85585E-20 2.00203E-19
 -1      3208 9.73547E-05-2.87831E-05-2.93821E-05-6.19124E-06 8.25926E-20 7.95458E-19
 -1      3209 9.68665E-05-2.84241E-05-2.93288E-05-5.95454E-06 2.33033E-19 6.71318E-19
 -1      3210 9.58065E-05-2.78684E-05-2.91245E-05-6.09488E-06 1.15126E-19 3.93760E-19
 -1      3211 9.84767E-05-2.97968E-05-2.94312E-05-6.60515E-06-2.42292E-20 5.72582E-19
 -1      3212 9.78023E-05-2.92083E-05-2.93873E-05-6.50070E-06 2.01834E-19 9.28299E-19
 -1      3213 9.64856E-05-2.85576E-05-2.91259E-05-6.81349E-06-8.47257E-20 1.42656E-19
 -1      3214 1.00137E-04-3.13843E-05-2.94675E-05-6.64944E-06 2.70838E-20 8.97325E-19
 -1      3215 9.92210E-05-3.05095E-05-2.94282E-05-6.78055E-06 8.37781E-20 8.42171E-19
 -1      3216 9.76516E-05-2.97964E-05-2.91035E-05-7.37679E-06-2.45055E-19 8.68146E-19
 -1      3217 1.02485E-04-3.36211E-05-2.95240E-05-6.06384E-06-3.38079E-19 1.05173E-18
 -1      3218 1.01292E-04-3.24470E-05-2.94726E-05-6.56343E-06 3.71613E-20 1.19727E-18
 -1      3219 9.95186E-05-3.17482E-05-2.90790E-05-7.59062E-06-7.60835E-20 1.18687E-18
 -1      3220 1.05577E-04-3.63986E-05-2.96739E-05-4.51040E-06-3.00932E-19 4.15155E-19
 -1      3221 1.04148E-04-3.50305E-05-2.95745E-05-5.52801E-06-4.08507E-20 6.42000E-19
 -1      3222 1.02306E-04-3.44954E-05-2.91082E-05-7.15308E-06 6.54920E-20 1.29342E-18
 -1      3223 1.09204E-04-3.91956E-05-3.00479E-05-1.63246E-06-7.27586E-19 5.95504E-19
 -1      3224 1.07736E-04-3.79785E-05-2.98398E-05-3.27294E-06-6.69271E-19 2.40715E-19
 -1      3225 1.06127E-04-3.78805E-05-2.93042E-05-5.62114E-06-5.34489E-19 8.50084E-19
 -1      3226 1.12633E-04-4.08699E-05-3.08182E-05 2.65302E-06-1.49945E-18 1.21403E-18
 -1      3227 1.11558E-04-4.04444E-05-3.04323E-05 4.97421E-07-1.02354E-18 7.12341E-19
 -1      3228 1.10705E-04-4.11652E-05-2.98604E-05-2.43875E-06-7.98686E-19 7.43692E-19
 -1      3229 1.14608E-04-3.96428E-05-3.21555E-05 7.81030E-06-1.43611E-18 1.06663E-18
 -1      3230 1.14545E-04-4.09350E-05-3.15325E-05 5.64636E-06-1.38364E-18 7.82232E-19
 -1      3231 1.15183E-04-4.29259E-05-3.10277E-05 2.57581E-06-1.22215E-18 5.41830E-19
 -1      3232 1.13847E-04-3.43121E-05-3.40689E-05 1.16592E-05-1.04947E-18 4.24921E-19
 -1      3233 1.14986E-04-3.76649E-05-3.32429E-05 1.04923E-05-1.08041E-18 4.31092E-19
 -1      3234 1.17445E-04-4.04069E-05-3.30044E-05 8.62516E-06-1.02080E-18-3.84308E-19
 -1      3235 1.10245E-04-2.57826E-05-3.61687E-05 1.10090E-05 3.73621E-19-6.52602E-19
 -1      3236 1.12120E-04-3.00598E-05-3.53685E-05 1.23005E-05-2.79521E-19-3.22835E-19
 -1      3237 1.16321E-04-3.32432E-05-3.56101E-05 1.25815E-05-3.62411E-19-1.42599E-18
 -1      3238 1.06458E-04-1.97995E-05-3.72581E-05-5.04877E-06 3.30184E-19-7.24253E-19
 -1      3239 1.05960E-04-1.87997E-05-3.74548E-05-1.03595E-06-1.78936E-19-8.17642E-19
 -1      3240 1.12393E-04-2.64257E-05-3.70216E-05-1.19359E-05 1.09737E-18-1.56173E-18
 -1      3241 1.10269E-04-2.21384E-05-3.78624E-05-9.66930E-06 8.80200E-19-1.86751E-18
 -1      3242 1.15006E-04-4.02774E-05-3.20671E-05-7.46571E-06-1.69866E-18 3.91066E-19
 -1      3243 1.14707E-04-3.82818E-05-3.27753E-05-9.45584E-06-8.63917E-19-4.04144E-20
 -1      3244 1.12787E-04-4.09535E-05-3.07516E-05-2.18912E-06-1.06448E-18 5.49248E-22
 -1      3245 1.13615E-04-4.08626E-05-3.12188E-05-4.49060E-06-1.49672E-18 2.65538E-19
 -1      3246 1.16288E-04-4.25333E-05-3.15791E-05-4.57650E-06-1.27464E-18-5.09268E-19
 -1      3247 1.09092E-04-3.89321E-05-3.00135E-05 2.08842E-06 3.83334E-19 2.91969E-19
 -1      3248 1.10486E-04-3.99575E-05-3.02714E-05 2.40117E-07-7.90781E-19 4.04781E-21
 -1      3249 1.12350E-04-4.19733E-05-3.01860E-05 9.23340E-07-1.13329E-18-7.88796E-19
 -1      3250 1.05346E-04-3.60174E-05-2.96605E-05 4.83264E-06 2.53792E-18 1.00533E-18
 -1      3251 1.06817E-04-3.73883E-05-2.97872E-05 3.61213E-06 1.93567E-18 9.57708E-19
 -1      3252 1.07676E-04-3.90492E-05-2.94633E-05 4.67182E-06 6.88309E-19-2.75354E-19
 -1      3253 1.02210E-04-3.32364E-05-2.95220E-05 6.22240E-06 1.64348E-18 1.85720E-18
 -1      3254 1.03492E-04-3.45063E-05-2.95816E-05 5.57379E-06 2.23025E-18 1.65607E-18
 -1      3255 1.03530E-04-3.55872E-05-2.91704E-05 6.69820E-06 1.75092E-18 1.04270E-18
 -1      3256 9.98750E-05-3.10472E-05-2.94732E-05 6.64549E-06 6.99841E-19 2.26942E-18
 -1      3257 1.00882E-04-3.20371E-05-2.95098E-05 6.42267E-06 1.30353E-18 1.88236E-18
 -1      3258 1.00372E-04-3.25524E-05-2.91046E-05 7.42727E-06 1.51896E-18 2.46479E-18
 -1      3259 9.82503E-05-2.95149E-05-2.94444E-05 6.45862E-06 5.17683E-19 2.67189E-18
 -1      3260 9.89973E-05-3.02067E-05-2.94803E-05 6.52039E-06 2.86331E-19 2.57860E-18
 -1      3261 9.82008E-05-3.03007E-05-2.91264E-05 7.35735E-06 1.68329E-19 2.88867E-18
 -1      3262 9.71686E-05-2.85442E-05-2.94042E-05 5.92195E-06-5.50492E-19 2.87806E-18
 -1      3263 9.77078E-05-2.89856E-05-2.94479E-05 6.15506E-06 1.62568E-19 2.37153E-18
 -1      3264 9.68094E-05-2.88030E-05-2.91622E-05 6.83513E-06 1.32870E-20 2.85052E-18
 -1      3265 9.64683E-05-2.79938E-05-2.93446E-05 5.21383E-06 6.10586E-19 1.24254E-18
 -1      3266 9.68546E-05-2.82493E-05-2.93962E-05 5.53547E-06 4.35287E-19 2.55400E-18
 -1      3267 9.59733E-05-2.79102E-05-2.91797E-05 6.08747E-06 4.42123E-19 1.51764E-18
 -1      3268 9.60216E-05-2.77305E-05-2.92686E-05 4.45030E-06 7.00347E-19-1.32649E-19
 -1      3269 9.62999E-05-2.78594E-05-2.93249E-05 4.80403E-06 7.69331E-19 9.64725E-19
 -1      3270 9.55037E-05-2.74518E-05-2.91706E-05 5.25595E-06 1.25162E-18 4.05660E-19
 -1      3271 9.57371E-05-2.76475E-05-2.91836E-05 3.70284E-06 8.07229E-19 2.82181E-19
 -1      3272 9.59404E-05-2.76968E-05-2.92406E-05 4.05282E-06 4.65555E-19-2.03536E-19
 -1      3273 9.52615E-05-2.72796E-05-2.91381E-05 4.42632E-06 1.27454E-19-4.16386E-20
 -1      3274 9.55530E-05-2.76664E-05-2.90970E-05 3.01190E-06 2.13985E-20-5.36917E-19
 -1      3275 9.57046E-05-2.76705E-05-2.91512E-05 3.33750E-06 1.17670E-18 4.65080E-19
 -1      3276 9.51521E-05-2.72796E-05-2.90898E-05 3.64815E-06 5.48875E-19 1.14387E-18
 -1      3277 9.54265E-05-2.77296E-05-2.90156E-05 2.39645E-06 3.88218E-20-1.27700E-18
 -1      3278 9.55436E-05-2.77142E-05-2.90641E-05 2.68863E-06-4.98213E-19-1.70679E-18
 -1      3279 9.51134E-05-2.73691E-05-2.90339E-05 2.94810E-06 6.44056E-19 6.03160E-19
 -1      3280 9.53356E-05-2.78014E-05-2.89436E-05 1.86071E-06-7.70003E-19-1.15068E-18
 -1      3281 9.54259E-05-2.77837E-05-2.89849E-05 2.11430E-06-8.00538E-19-1.84003E-18
 -1      3282 9.51037E-05-2.74898E-05-2.89776E-05 2.33413E-06-3.45126E-19-1.50248E-18
 -1      3283 9.52255E-05-2.77874E-05-2.89007E-05 1.54748E-06-3.21131E-19-4.58732E-19
 -1      3284 9.53163E-05-2.78120E-05-2.89266E-05 1.71163E-06-7.97754E-19-3.47285E-19
 -1      3285 9.50816E-05-2.75712E-05-2.89343E-05 1.89607E-06-1.59341E-18-1.82916E-18
 -1      3286 9.50475E-05-2.76097E-05-2.89063E-05 1.59832E-06-1.10333E-18-7.20169E-19
 -1      3287 9.51286E-05-2.76244E-05-2.89290E-05-1.61229E-06-1.36147E-18-1.62728E-18
 -1      3288 9.23628E-05-1.81977E-05-3.18004E-05 1.76732E-06 4.56223E-20-5.53904E-19
 -1      3289 9.22398E-05-1.79899E-05-3.18338E-05 1.02880E-06-3.95157E-20-6.31359E-19
 -1      3290 9.39683E-05-2.65143E-05-2.89073E-05-1.19476E-06 9.71280E-19 1.32915E-18
 -1      3291 9.38175E-05-2.63885E-05-2.89037E-05-9.65721E-07 3.29375E-19 1.35132E-18
 -1      3292 9.35429E-05-2.61335E-05-2.88842E-05-9.00774E-07 1.14042E-19 8.63058E-19
 -1      3293 9.36061E-05-2.62061E-05-2.88887E-05-6.20148E-08 9.54970E-19 6.47698E-19
 -1      3294 9.36226E-05-2.62226E-05-2.88872E-05 2.22545E-07 1.44408E-18 2.23257E-19
 -1      3295 9.33822E-05-2.60062E-05-2.88698E-05-2.39687E-07 9.42356E-19 1.02785E-18
 -1      3296 9.43808E-05-2.68849E-05-2.89217E-05-1.56676E-06 2.61817E-19-2.56615E-18
 -1      3297 9.41702E-05-2.67082E-05-2.89189E-05-1.42331E-06 8.70784E-19 5.49831E-20
 -1      3298 9.39036E-05-2.64384E-05-2.89085E-05-1.45971E-06 3.85462E-19 3.88920E-19
 -1      3299 1.24597E-04-9.06252E-06-5.00768E-05 1.14814E-07 9.04208E-19-2.06337E-18
 -1      3300 1.18842E-04-1.12482E-05-4.65354E-05-3.07394E-06 1.01803E-18-2.01602E-18
 -1      3301 7.91556E-05-3.47515E-05-1.89125E-05 3.09594E-05 1.30099E-19-1.67575E-18
 -1      3302 6.55356E-05-2.61022E-05-1.64539E-05 2.78653E-05 2.35078E-19-1.13672E-18
 -1      3303 9.53512E-05-2.82128E-05-2.87712E-05-1.85833E-06-6.92498E-20-2.46304E-19
 -1      3304 9.53321E-05-2.81468E-05-2.87896E-05-1.67107E-06 3.76848E-20-7.00282E-20
 -1      3305 9.55334E-05-2.81773E-05-2.88706E-05-1.92423E-06 9.46836E-20-5.72041E-19
 -1      3306 9.54217E-05-2.81201E-05-2.88377E-05-2.83302E-06 8.92828E-19 1.52567E-19
 -1      3307 9.53324E-05-2.81491E-05-2.87950E-05-2.66028E-06 8.02926E-19 1.70269E-19
 -1      3308 9.52974E-05-2.79326E-05-2.88725E-05-2.99462E-06 2.81012E-19 5.16808E-19
 -1      3309 9.53726E-05-2.82087E-05-2.87796E-05-2.49249E-06 4.81664E-19-9.15309E-20
 -1      3310 9.53062E-05-2.82199E-05-2.87519E-05-2.34005E-06 3.51906E-19-2.17042E-19
 -1      3311 9.54494E-05-2.81764E-05-2.88342E-05-2.27313E-06 3.42202E-19-5.13962E-19
 -1      3312 9.53686E-05-2.80835E-05-2.88388E-05-2.61407E-06 3.68692E-19-2.17678E-19
 -1      3313 1.23686E-04-5.65165E-05-2.91133E-05 1.56506E-05-2.80580E-21-5.38382E-19
 -1      3314 1.14341E-04-5.39949E-05-2.55849E-05 2.36884E-05 7.80594E-19-1.19951E-18
 -1      3315 9.54999E-05-2.54523E-05-3.00081E-05-1.97835E-06-4.25227E-19 1.51208E-20
 -1      3316 9.55461E-05-2.61285E-05-2.97614E-05-1.12800E-06-4.02347E-19-4.78424E-20
 -1      3317 9.56948E-05-2.60158E-05-2.98637E-05-9.37173E-07-4.07491E-19 6.09475E-20
 -1      3318 9.53734E-05-2.80648E-05-2.88461E-05-1.44864E-06 1.15702E-21 8.78075E-20
 -1      3319 9.53825E-05-2.79319E-05-2.88996E-05-1.18518E-06 1.04488E-19-7.32502E-20
 -1      3320 9.56131E-05-2.80454E-05-2.89621E-05-1.50305E-06 7.54989E-20-2.77217E-19
 -1      3321 5.48722E-05-1.93193E-05-1.50295E-05 2.21827E-05 4.63195E-19-1.30867E-18
 -1      3322 4.76948E-05-1.37033E-05-1.42586E-05 1.10644E-05 1.79386E-19-1.08378E-18
 -1      3323 6.55558E-05-2.25400E-05-1.80055E-05 2.20603E-05 2.00959E-19-1.29808E-18
 -1      3324 1.20048E-04-1.05150E-05-4.74697E-05 3.67691E-06 7.85941E-19-2.03881E-18
 -1      3325 1.10663E-04-5.16673E-05-2.48878E-05-2.45616E-05-9.27236E-19 4.27153E-19
 -1      3326 1.20296E-04-5.53216E-05-2.82645E-05-1.66059E-05-9.60032E-19-5.62797E-19
 -1      3327 1.13767E-04-5.37298E-05-2.53614E-05-2.31875E-05 2.33519E-18 9.15603E-19
 -1      3328 1.25363E-04-5.77887E-05-2.92949E-05-1.43552E-05 2.30544E-18 6.80485E-19
 -1      3329 9.34904E-05-1.97998E-05-3.15779E-05-6.16234E-06-3.85193E-19-3.21643E-19
 -1      3330 8.51139E-05-3.85065E-05-1.94412E-05-3.27956E-05-4.01970E-19 1.00493E-18
 -1      3331 9.76601E-05-4.63122E-05-2.22150E-05-3.10394E-05-6.05205E-19 1.02491E-19
 -1      3332 1.27959E-04-4.02582E-05-3.74954E-05 1.08152E-05 3.87835E-19-3.33149E-19
 -1      3333 1.24970E-04-3.26521E-05-4.01443E-05 1.30551E-05 6.67674E-19-8.87188E-19
 -1      3334 8.63721E-05-4.02843E-05-1.94064E-05-3.22413E-05 1.25837E-18 6.58198E-19
 -1      3335 9.98631E-05-4.82796E-05-2.22125E-05-3.06091E-05 1.42254E-18 5.70953E-19
 -1      3336 4.82756E-05-1.53029E-05-1.39264E-05 1.68908E-05 2.28487E-19 7.20190E-19
 -1      3337 4.23530E-05-1.16501E-05-1.25254E-05 5.35399E-06-2.69366E-19 6.70532E-19
 -1      3338 1.26868E-04-3.25980E-05-4.09230E-05-1.28302E-05-2.98632E-19-1.76977E-18
 -1      3339 1.30774E-04-4.18531E-05-3.81334E-05-9.45738E-06-7.50577E-19-2.10318E-18
 -1      3340 1.21246E-04-3.00628E-05-3.92793E-05-1.29169E-05-2.09005E-19-2.19249E-18
 -1      3341 1.27063E-04-5.34594E-05-3.12504E-05-5.51988E-06-6.98147E-19-5.41307E-19
 -1      3342 1.28797E-04-4.90813E-05-3.46680E-05 3.34267E-06 1.76752E-20 2.02428E-19
 -1      3343 9.52184E-05-2.42233E-05-3.04292E-05 4.17408E-06 5.76921E-19 8.67100E-20
 -1      3344 9.46486E-05-2.26712E-05-3.08372E-05 4.67774E-06 5.10804E-19-1.44591E-19
 -1      3345 9.49225E-05-2.35017E-05-3.06075E-05 3.55503E-06 4.66000E-19-1.84140E-19
 -1      3346 9.52516E-05-2.51365E-05-3.00617E-05 2.87676E-06 5.66500E-19 5.81301E-20
 -1      3347 1.02834E-04-4.96975E-05-2.29387E-05 3.06063E-05 5.01020E-19-2.13370E-18
 -1      3348 9.02375E-05-4.21083E-05-2.01367E-05 3.31290E-05 5.33948E-19-2.17457E-18
 -1      3349 1.31478E-04-5.02436E-05-3.52852E-05-2.01933E-06-1.40259E-18-1.22163E-18
 -1      3350 1.29308E-04-5.42340E-05-3.20213E-05 5.76521E-06-1.22714E-18-7.75247E-19
 -1      3351 4.05865E-05-1.23846E-05-1.18749E-05-7.04295E-06-3.92507E-19 9.46983E-19
 -1      3352 4.60638E-05-1.68773E-05-1.21035E-05-1.98507E-05-6.83661E-19 1.54944E-18
 -1      3353 1.14747E-04-1.19266E-05-4.44744E-05-5.68044E-07 5.57665E-19-1.65559E-18
 -1      3354 1.15590E-04-1.31355E-05-4.42726E-05-5.91914E-06 7.89435E-19-2.01737E-18
 -1      3355 1.18016E-04-1.24895E-05-4.56693E-05 5.84700E-06 5.15208E-19-1.90651E-18
 -1      3356 1.15515E-04-1.18671E-05-4.48811E-05 3.26456E-06 5.68571E-19-1.90314E-18
 -1      3357 1.12849E-04-1.34301E-05-4.28348E-05 9.64779E-07 6.68415E-19-1.76029E-18
 -1      3358 1.16113E-04-1.65284E-05-4.29451E-05 8.45304E-06 4.40510E-19-1.97533E-18
 -1      3359 9.21791E-05-1.78849E-05-3.18530E-05 4.01443E-07-1.09450E-19-5.97970E-19
 -1      3360 9.21751E-05-1.78811E-05-3.18536E-05-3.52340E-07-1.82882E-19-6.68658E-19
 -1      3361 9.31089E-05-1.94346E-05-3.15571E-05 6.06052E-07-5.17544E-20-5.40321E-19
 -1      3362 9.43702E-05-2.18861E-05-3.10375E-05 3.53603E-06 3.97246E-19-6.92290E-20
 -1      3363 9.34382E-05-2.01206E-05-3.14494E-05 4.14207E-06 4.34639E-19-1.54316E-19
 -1      3364 9.30709E-05-1.94401E-05-3.15670E-05 3.56960E-06 3.14611E-19-2.85162E-19
 -1      3365 1.25129E-04-4.37722E-05-3.49001E-05 7.62016E-06 1.10796E-19-5.26722E-19
 -1      3366 8.40713E-05-3.66941E-05-2.00158E-05 3.06007E-05-1.25573E-19-2.17084E-18
 -1      3367 9.30495E-05-1.93936E-05-3.15763E-05-3.52824E-06-1.68265E-19-5.01643E-19
 -1      3368 9.34211E-05-2.00691E-05-3.14602E-05-4.13677E-06-1.91748E-19-4.96587E-19
 -1      3369 9.56734E-05-2.77236E-05-2.91265E-05-9.26139E-07 1.29995E-19-3.16433E-19
 -1      3370 9.96291E-05-4.20063E-05-2.47734E-05 2.35049E-05 4.06854E-19-1.16859E-18
 -1      3371 5.26203E-05-1.35961E-05-1.62809E-05 4.84881E-06 1.85752E-19-1.10490E-18
 -1      3372 9.42990E-05-2.68772E-05-2.89005E-05 1.45145E-06 1.46550E-18 1.79933E-19
 -1      3373 9.45053E-05-2.70634E-05-2.89014E-05 1.56517E-06 6.46346E-19 2.22749E-18
 -1      3374 9.48756E-05-2.73487E-05-2.89378E-05-1.75616E-06-1.21040E-18-1.00129E-18
 -1      3375 5.63252E-05-1.74114E-05-1.62745E-05-1.71622E-05 1.72054E-21 2.44951E-19
 -1      3376 7.28774E-05-2.85107E-05-1.88053E-05-2.73105E-05 1.05219E-18 1.45473E-18
 -1      3377 7.97360E-05-3.49580E-05-1.89110E-05-3.10533E-05 1.15112E-18 1.03349E-18
 -1      3378 8.82558E-05-3.73160E-05-2.16182E-05-2.74034E-05 1.39328E-18-2.05750E-19
 -1      3379 9.34269E-05-2.60599E-05-2.88665E-05 4.39323E-07 1.24623E-18 5.40335E-19
 -1      3380 9.36874E-05-2.62931E-05-2.88879E-05 5.42592E-07 1.42955E-18 7.37090E-19
 -1      3381 9.37848E-05-2.63791E-05-2.88876E-05 8.00334E-07 6.90007E-19 6.15819E-19
 -1      3382 1.26409E-04-5.47356E-05-3.07001E-05-6.90699E-06 1.31351E-18 1.16679E-19
 -1      3383 1.20895E-04-5.20616E-05-2.91848E-05-1.12319E-05 2.24080E-18 1.14421E-18
 -1      3384 1.37898E-04-4.75397E-05-3.88046E-05 1.07246E-05 1.18426E-19-3.30994E-18
 -1      3385 1.24084E-04-5.35935E-05-3.02615E-05 8.67473E-06-3.11602E-19-1.47018E-18
 -1      3386 6.35912E-05-2.27270E-05-1.76158E-05 2.44468E-05-4.57332E-19 2.00959E-19
 -1      3387 5.59115E-05-1.84840E-05-1.54932E-05 2.15492E-05-2.77165E-19 1.64859E-18
 -1      3388 5.47270E-05-1.54158E-05-1.66405E-05 1.43892E-05-8.08228E-19 1.45986E-18
 -1      3389 1.09391E-04-5.00566E-05-2.52235E-05 2.29504E-05 2.70653E-19-1.64506E-18
 -1      3390 1.11908E-04-1.91771E-05-3.99087E-05-8.09430E-06 4.82544E-19-2.81549E-18
 -1      3391 1.06623E-04-1.93737E-05-3.74146E-05 4.31171E-06-5.12428E-19-3.55115E-19
 -1      3392 1.07769E-04-2.18617E-05-3.70095E-05 7.99877E-06-1.17393E-19-2.91800E-19
 -1      3393 1.11884E-04-2.33521E-05-3.80698E-05 1.04666E-05 1.77533E-19-1.44063E-18
 -1      3394 1.14341E-04-3.53775E-05-3.39766E-05-1.16914E-05 1.70935E-19-1.09153E-19
 -1      3395 1.12679E-04-3.16082E-05-3.47474E-05-1.19698E-05 7.36905E-19-9.57673E-19
 -1      3396 9.39286E-05-2.65262E-05-2.88923E-05 1.06737E-06 1.08366E-18-6.01102E-19
 -1      3397 9.40928E-05-2.66703E-05-2.88928E-05 1.26642E-06 2.05693E-18-8.64984E-19
 -1      3398 9.40556E-05-2.66391E-05-2.88900E-05 1.52213E-06 6.95912E-19 5.78683E-20
 -1      3399 9.36631E-05-2.62813E-05-2.88739E-05 1.04977E-06 1.11052E-18 2.68488E-19
 -1      3400 9.25416E-05-1.85029E-05-3.17422E-05 2.36128E-06 1.44380E-19-5.07361E-19
 -1      3401 9.33339E-05-1.98407E-05-3.14779E-05 1.74153E-06 8.89751E-20-4.69886E-19
 -1      3402 9.27850E-05-1.89282E-05-3.16719E-05 3.05065E-06 2.75371E-19-3.93191E-19
 -1      3403 9.53888E-05-2.65182E-05-2.95241E-05 1.06560E-06 3.45046E-19-3.58577E-20
 -1      3404 9.54401E-05-2.59514E-05-2.97712E-05 1.95574E-06 4.08734E-19 3.63371E-20
 -1      3405 9.53773E-05-2.52333E-05-3.00559E-05 2.34305E-06 4.78847E-19-8.64057E-21
 -1      3406 1.12562E-04-5.00287E-05-2.70322E-05-1.84409E-05 2.08964E-18 1.42460E-19
 -1      3407 1.21454E-04-5.20495E-05-2.96859E-05-8.80350E-06-1.14736E-18-5.43755E-19
 -1      3408 9.46765E-05-2.71669E-05-2.89377E-05-1.73635E-06-2.06106E-19-2.52702E-18
 -1      3409 9.54125E-05-2.72765E-05-2.92057E-05-8.15338E-08 2.60278E-19-4.38723E-20
 -1      3410 9.54647E-05-2.69097E-05-2.93691E-05 5.19597E-07 3.15591E-19 7.74067E-20
 -1      3411 9.55763E-05-2.64821E-05-2.96141E-05 8.27762E-07 2.55635E-19 1.65625E-20
 -1      3412 9.56693E-05-2.72136E-05-2.93443E-05-1.67947E-07 2.78263E-19-2.54177E-19
 -1      3413 4.78116E-05-1.27735E-05-1.45343E-05-1.91297E-06-3.67758E-19 8.64821E-19
 -1      3414 1.20678E-04-2.80965E-05-3.99562E-05 1.31574E-05 1.23137E-19-1.44356E-18
 -1      3415 9.52009E-05-2.45875E-05-3.02790E-05-2.73300E-06-4.90780E-19-5.53724E-20
 -1      3416 9.52750E-05-2.44265E-05-3.03581E-05-2.37539E-06-4.58778E-19-4.08559E-20
 -1      3417 9.50379E-05-2.36474E-05-3.05970E-05-3.79905E-06-4.48858E-19-6.34223E-20
 -1      3418 9.25227E-05-1.84702E-05-3.17474E-05-2.31001E-06-1.07081E-19-6.95944E-19
 -1      3419 9.27576E-05-1.88825E-05-3.16787E-05-3.01193E-06-1.94207E-19-5.78093E-19
 -1      3420 9.37266E-05-2.06117E-05-3.13201E-05-2.69861E-06-2.26728E-19-5.32223E-19
 -1      3421 7.86235E-05-3.26056E-05-1.94165E-05-2.92218E-05-2.63057E-19 1.07994E-18
 -1      3422 9.40532E-05-2.13504E-05-3.11654E-05-4.91200E-06-3.58868E-19-2.92423E-19
 -1      3423 1.08119E-04-4.91806E-05-2.50560E-05-2.32037E-05 2.11435E-18-4.67423E-19
 -1      3424 1.04483E-04-4.70714E-05-2.44276E-05-2.43799E-05-1.04569E-18 7.19980E-19
 -1      3425 1.32546E-04-5.66185E-05-3.23398E-05-3.52121E-06 1.37667E-18-8.74720E-19
 -1      3426 1.27683E-04-4.48867E-05-3.55621E-05-6.97062E-06-9.40934E-19-1.35028E-18
 -1      3427 9.44219E-05-2.69022E-05-2.89397E-05-1.87306E-06 1.20789E-19-2.36814E-18
 -1      3428 5.64753E-05-1.97511E-05-1.51951E-05-2.10553E-05-2.33516E-19 1.63964E-18
 -1      3429 1.08440E-04-1.74273E-05-3.91436E-05 1.86761E-06 6.85567E-20-1.73826E-18
 -1      3430 1.17577E-04-3.86483E-05-3.38285E-05-1.03063E-05-8.95717E-19-4.70328E-19
 -1      3431 9.37790E-05-2.63134E-05-2.89077E-05-1.75793E-06-5.49002E-19-4.66903E-19
 -1      3432 9.35224E-05-2.61291E-05-2.88927E-05-1.50293E-06-4.28743E-19 8.57404E-19
 -1      3433 7.22536E-05-2.65759E-05-1.92717E-05-2.60426E-05-5.00544E-20 1.38339E-18
 -1      3434 8.54438E-05-3.49651E-05-2.16535E-05-2.70184E-05-2.03685E-19 1.04990E-18
 -1      3435 9.58744E-05-2.77118E-05-2.92155E-05-9.91165E-07 2.23282E-19 3.29393E-20
 -1      3436 9.58998E-05-2.74600E-05-2.93237E-05-6.33082E-07 2.70633E-19 8.67511E-20
 -1      3437 1.28830E-04-5.73903E-05-3.01741E-05 1.07441E-05 5.40036E-19-1.12645E-18
 -1      3438 9.60367E-05-2.74144E-05-2.94039E-05 6.76643E-07-5.23054E-19-2.85308E-20
 -1      3439 9.60101E-05-2.76642E-05-2.92942E-05 1.01495E-06-6.47693E-19-1.17760E-19
 -1      3440 9.59599E-05-2.78392E-05-2.91911E-05 1.26638E-06-6.14500E-19-2.64611E-20
 -1      3441 9.58978E-05-2.79496E-05-2.91213E-05 1.51440E-06-4.08725E-19-9.64807E-20
 -1      3442 9.60989E-05-2.76079E-05-2.93539E-05 1.01463E-06-4.98314E-19-8.93089E-20
 -1      3443 9.57834E-05-2.79914E-05-2.90527E-05 1.70786E-06-2.83104E-19-1.25263E-19
 -1      3444 9.56977E-05-2.79960E-05-2.90138E-05 1.90847E-06-1.46179E-19-1.05101E-19
 -1      3445 9.59377E-05-2.78631E-05-2.91754E-05 1.47517E-06-3.76449E-19 1.17344E-19
 -1      3446 9.55324E-05-2.79347E-05-2.89716E-05 2.07719E-06-1.27315E-19-1.95532E-19
 -1      3447 9.54264E-05-2.78562E-05-2.89562E-05 2.26539E-06-2.01761E-19-6.53376E-20
 -1      3448 9.56625E-05-2.78612E-05-2.90577E-05 1.84890E-06-1.38185E-19-1.13154E-20
 -1      3449 9.52148E-05-2.77117E-05-2.89332E-05 2.43682E-06-9.04080E-20 6.04649E-20
 -1      3450 9.50869E-05-2.75652E-05-2.89346E-05 2.64047E-06-1.40346E-19-2.45902E-20
 -1      3451 9.52909E-05-2.76558E-05-2.89856E-05 2.19517E-06-1.47307E-19-2.16973E-19
 -1      3452 9.48266E-05-2.73504E-05-2.89237E-05 2.83652E-06-4.02706E-19 1.07647E-19
 -1      3453 9.46720E-05-2.71466E-05-2.89357E-05 3.07733E-06-1.46232E-19-7.64352E-20
 -1      3454 9.48253E-05-2.72831E-05-2.89443E-05 2.56224E-06-2.21364E-19-2.61562E-19
 -1      3455 9.43556E-05-2.68703E-05-2.89296E-05 3.31518E-06-1.85296E-20-4.30014E-19
 -1      3456 9.41671E-05-2.66178E-05-2.89456E-05 3.60984E-06 7.09590E-20-4.71858E-19
 -1      3457 9.42560E-05-2.67681E-05-2.89193E-05 2.98780E-06-1.58969E-19-6.74106E-19
 -1      3458 9.37834E-05-2.62881E-05-2.89360E-05 3.90313E-06 1.09498E-19-5.85554E-19
 -1      3459 9.35532E-05-2.59971E-05-2.89484E-05 4.26419E-06-8.51738E-21-7.16930E-19
 -1      3460 9.35647E-05-2.61301E-05-2.88943E-05 3.50090E-06 2.95376E-21-1.02869E-18
 -1      3461 9.30890E-05-2.56246E-05-2.89251E-05 4.62422E-06-7.50435E-20-4.85824E-19
 -1      3462 9.28115E-05-2.53110E-05-2.89243E-05 5.06105E-06-2.19099E-19-4.38986E-19
 -1      3463 9.27271E-05-2.53893E-05-2.88502E-05 4.12449E-06 9.59669E-20-1.11723E-18
 -1      3464 9.22535E-05-2.49136E-05-2.88744E-05 5.49922E-06-8.18756E-20-3.25547E-19
 -1      3465 9.19292E-05-2.46053E-05-2.88478E-05 6.02011E-06 1.56572E-19-1.55481E-19
 -1      3466 9.17165E-05-2.45747E-05-2.87632E-05 4.87867E-06-5.15419E-20-3.10497E-19
 -1      3467 9.12681E-05-2.42152E-05-2.87545E-05 6.55275E-06 1.43160E-19-1.97293E-19
 -1      3468 9.09137E-05-2.39618E-05-2.86862E-05 7.16862E-06 1.86932E-19-1.07275E-19
 -1      3469 9.05091E-05-2.37343E-05-2.86026E-05 5.78892E-06 2.13561E-19-8.67593E-20
 -1      3470 9.01507E-05-2.36355E-05-2.85279E-05 7.82510E-06 2.35567E-19-4.34882E-20
 -1      3471 8.98139E-05-2.35226E-05-2.83980E-05 8.55594E-06 2.01800E-19-8.83987E-21
 -1      3472 8.90938E-05-2.29499E-05-2.83290E-05 6.89974E-06 3.61899E-19-5.91993E-19
 -1      3473 8.89719E-05-2.33549E-05-2.81474E-05 9.39264E-06 1.84039E-19 2.06761E-19
 -1      3474 8.87601E-05-2.35252E-05-2.79345E-05 1.02766E-05 6.06920E-19 9.65799E-20
 -1      3475 8.74878E-05-2.23595E-05-2.78914E-05 8.29896E-06 3.30566E-19-2.71088E-19
 -1      3476 8.79066E-05-2.36725E-05-2.75587E-05 1.13988E-05 4.49527E-19 2.46951E-20
 -1      3477 8.80327E-05-2.43596E-05-2.72456E-05 1.24976E-05 4.56410E-19-1.63817E-19
 -1      3478 8.57643E-05-2.21877E-05-2.72256E-05 1.01582E-05 1.60622E-19-3.16295E-19
 -1      3479 8.73300E-05-2.50707E-05-2.67105E-05 1.40672E-05 4.14440E-19-7.57026E-19
 -1      3480 8.81909E-05-2.66443E-05-2.63009E-05 1.54592E-05 7.10209E-20-5.86622E-19
 -1      3481 8.41269E-05-2.28143E-05-2.62552E-05 1.27947E-05 2.30290E-19-1.30034E-18
 -1      3482 8.79076E-05-2.82738E-05-2.55796E-05 1.76586E-05 9.99069E-20-4.98912E-19
 -1      3483 9.00592E-05-3.13316E-05-2.50956E-05 1.95495E-05 1.95810E-19-9.82115E-19
 -1      3484 8.29786E-05-2.48840E-05-2.49007E-05 1.66519E-05-1.43698E-20-1.29451E-18
 -1      3485 5.77623E-05-1.47412E-05-1.83509E-05 1.01967E-05 4.03069E-20-1.59975E-18
 -1      3486 5.52232E-05-1.29308E-05-1.80099E-05-7.34061E-07 4.11233E-19-1.82689E-18
 -1      3487 1.23675E-04-4.04731E-05-3.59098E-05-1.04145E-05-4.48477E-19-1.69375E-18
 -1      3488 1.25247E-04-4.69649E-05-3.35633E-05-4.65481E-06-1.25205E-18-9.46864E-19
 -1      3489 9.10767E-05-3.15051E-05-2.54554E-05-1.89273E-05 8.62174E-19 7.02045E-19
 -1      3490 8.90205E-05-2.85300E-05-2.59055E-05-1.73102E-05 8.20844E-20 1.34125E-18
 -1      3491 8.90404E-05-2.68726E-05-2.65731E-05-1.52084E-05 4.61976E-19 1.25067E-18
 -1      3492 8.81457E-05-2.52927E-05-2.69572E-05-1.38830E-05 1.26393E-19 1.67497E-18
 -1      3493 8.41815E-05-2.53107E-05-2.52458E-05-1.63880E-05 7.12193E-19 1.30953E-19
 -1      3494 8.87200E-05-2.45548E-05-2.74582E-05-1.23553E-05-1.00339E-18 2.05181E-18
 -1      3495 8.85369E-05-2.38488E-05-2.77494E-05-1.12789E-05-1.08107E-18 2.52599E-18
 -1      3496 8.49753E-05-2.31158E-05-2.65031E-05-1.27241E-05-5.73721E-19 1.38280E-18
 -1      3497 8.92870E-05-2.36650E-05-2.81015E-05-1.01600E-05-6.29002E-19 1.72282E-18
 -1      3498 8.94414E-05-2.34666E-05-2.82981E-05-9.26851E-06-1.28557E-18 1.67776E-18
 -1      3499 8.63805E-05-2.23771E-05-2.74124E-05-1.01422E-05-7.65792E-19 1.17245E-18
 -1      3500 9.02015E-05-2.35968E-05-2.85326E-05-8.40824E-06-1.09777E-18 2.29490E-18
 -1      3501 9.04843E-05-2.36776E-05-2.86510E-05-7.65151E-06-2.57662E-19 2.55363E-18
 -1      3502 8.79174E-05-2.24514E-05-2.80380E-05-8.24853E-06-5.00647E-19 9.52892E-19
 -1      3503 9.11763E-05-2.39645E-05-2.87978E-05-6.95914E-06-9.51638E-19 2.64664E-18
 -1      3504 9.14799E-05-2.41814E-05-2.88584E-05-6.30604E-06-4.90741E-19 1.69070E-18
 -1      3505 8.93721E-05-2.29540E-05-2.84475E-05-6.78179E-06-6.47892E-19 1.23767E-18
 -1      3506 9.20736E-05-2.45279E-05-2.89432E-05-5.72983E-06 3.33255E-19 1.06933E-18
 -1      3507 9.23485E-05-2.47957E-05-2.89646E-05-5.16345E-06-8.24652E-20 3.32725E-19
 -1      3508 9.06505E-05-2.36483E-05-2.87005E-05-5.58691E-06-1.08163E-18-6.46584E-20
 -1      3509 9.28394E-05-2.51458E-05-2.90075E-05-4.67542E-06-7.12801E-19 1.13802E-18
 -1      3510 9.30678E-05-2.54163E-05-2.90045E-05-4.18706E-06-4.13871E-19 1.35187E-18
 -1      3511 9.17243E-05-2.43928E-05-2.88447E-05-4.58015E-06-1.36387E-19-3.77659E-19
 -1      3512 9.34643E-05-2.57419E-05-2.90207E-05-3.77166E-06 5.76369E-19 5.91655E-19
 -1      3513 9.36451E-05-2.59888E-05-2.90046E-05-3.36001E-06 6.13119E-19-2.03088E-19
 -1      3514 9.26001E-05-2.51070E-05-2.89164E-05-3.71956E-06-5.27404E-19 9.61739E-19
 -1      3515 9.39589E-05-2.62690E-05-2.90053E-05-2.99969E-06 2.08091E-20 3.76148E-20
 -1      3516 9.40931E-05-2.64644E-05-2.89818E-05-2.66599E-06-2.53476E-19-1.00152E-18
 -1      3517 9.32867E-05-2.57357E-05-2.89424E-05-2.98461E-06 3.51648E-19 6.09776E-19
 -1      3518 9.42999E-05-2.67414E-05-2.89598E-05-2.15862E-06 2.38973E-19-2.43088E-18
 -1      3519 9.46888E-05-2.72504E-05-2.89067E-05 1.60406E-06-3.16589E-19 2.13892E-18
 -1      3520 9.48754E-05-2.74289E-05-2.89051E-05 1.61886E-06-8.34157E-19 1.09712E-18
 -1      3521 9.48795E-05-2.74056E-05-2.89164E-05 1.76314E-06-1.44934E-18 7.50402E-19
 -1      3522 9.44838E-05-2.70332E-05-2.89069E-05 1.74632E-06 3.75954E-19 3.16561E-18
 -1      3523 9.49705E-05-2.74707E-05-2.89226E-05-3.50335E-06 5.88849E-20 3.64231E-19
 -1      3524 9.49915E-05-2.75732E-05-2.88980E-05-3.25333E-06 5.46596E-20 3.09391E-19
 -1      3525 9.47219E-05-2.71004E-05-2.89718E-05-5.54756E-06 9.23486E-20 1.97140E-19
 -1      3526 9.45977E-05-2.70355E-05-2.89594E-05-5.17079E-06-1.28797E-21 2.13228E-19
 -1      3527 9.49471E-05-2.73968E-05-2.89397E-05-6.39768E-06-9.61024E-20 4.14787E-19
 -1      3528 9.46958E-05-2.71705E-05-2.89413E-05-6.00868E-06 7.05999E-20 3.26558E-19
 -1      3529 9.38190E-05-2.66286E-05-2.87999E-05-5.83462E-06 4.87368E-20 7.91247E-21
 -1      3530 9.55285E-05-2.81364E-05-2.88702E-05-7.26290E-06-4.99716E-20 4.45583E-19
 -1      3531 9.50757E-05-2.76656E-05-2.88874E-05-6.90178E-06-4.14776E-20 4.40958E-19
 -1      3532 9.39015E-05-2.69598E-05-2.86982E-05-6.82828E-06-6.99821E-20 1.79127E-19
 -1      3533 9.66727E-05-2.95139E-05-2.87691E-05-8.04473E-06-4.02644E-19 6.66066E-19
 -1      3534 9.59180E-05-2.87009E-05-2.87969E-05-7.77695E-06-3.08949E-19 5.53321E-19
 -1      3535 9.43854E-05-2.78120E-05-2.85490E-05-7.90598E-06-2.56337E-19 3.05007E-19
 -1      3536 9.86472E-05-3.17329E-05-2.86656E-05-8.56849E-06-1.25377E-19 1.40257E-18
 -1      3537 9.74736E-05-3.04858E-05-2.86864E-05-8.50098E-06-2.04937E-19 8.92889E-19
 -1      3538 9.55221E-05-2.94153E-05-2.83636E-05-8.99033E-06-5.07483E-19 7.28567E-19
 -1      3539 1.01759E-04-3.49400E-05-2.86290E-05-8.52552E-06 1.92071E-21 1.25220E-18
 -1      3540 1.00060E-04-3.32192E-05-2.86030E-05-8.83313E-06 6.32165E-20 1.24032E-18
 -1      3541 9.76608E-05-3.20289E-05-2.81817E-05-9.91752E-06-1.47002E-19 1.06210E-18
 -1      3542 1.06202E-04-3.89975E-05-2.88060E-05-7.40471E-06-1.99753E-19-2.84720E-20
 -1      3543 1.03961E-04-3.69443E-05-2.86547E-05-8.33740E-06 1.59686E-19 5.27969E-19
 -1      3544 1.01199E-04-3.57881E-05-2.80996E-05-1.03075E-05 6.08906E-19 4.16856E-19
 -1      3545 1.11901E-04-4.31649E-05-2.94644E-05-4.48834E-06-7.64073E-19-2.92794E-19
 -1      3546 1.09308E-04-4.13197E-05-2.90505E-05-6.37733E-06-9.57593E-19-3.25187E-19
 -1      3547 1.06416E-04-4.05830E-05-2.83081E-05-9.58250E-06-1.72790E-19-5.32340E-19
 -1      3548 1.18320E-04-3.13393E-05-3.72654E-05 1.31446E-05 2.62633E-19-1.53518E-18
 -1      3549 1.20215E-04-3.76091E-05-3.57317E-05 1.21229E-05 4.31060E-20-1.19261E-18
 -1      3550 1.20010E-04-4.26350E-05-3.32304E-05-7.93549E-06-1.45222E-18-6.86130E-19
 -1      3551 1.19719E-04-3.91045E-05-3.46225E-05-1.04317E-05-6.55723E-19-1.06002E-18
 -1      3552 1.16663E-04-2.92893E-05-3.75946E-05-1.31383E-05 3.62742E-19-1.18945E-18
 -1      3553 1.13370E-04-1.86020E-05-4.07385E-05 9.58313E-06-1.23349E-19-1.49848E-18
 -1      3554 1.16120E-04-2.44979E-05-3.96435E-05 1.24545E-05-6.73656E-20-1.95538E-18
 -1      3555 1.16891E-04-4.48171E-05-3.08601E-05-1.10494E-06-1.06488E-18-1.47063E-18
 -1      3556 1.18305E-04-4.42177E-05-3.17920E-05-4.18234E-06-1.68227E-18-9.66336E-19
 -1      3557 1.20684E-04-4.49173E-05-3.24382E-05-4.83011E-06-1.48932E-18-1.65359E-18
 -1      3558 1.01246E-04-3.43409E-05-2.86196E-05 8.70657E-06 1.37583E-18 9.16639E-19
 -1      3559 1.03126E-04-3.62244E-05-2.86765E-05 8.24150E-06 1.42035E-18 7.13171E-19
 -1      3560 9.82176E-05-3.12357E-05-2.86764E-05 8.56819E-06 6.12930E-19 2.48060E-18
 -1      3561 9.95677E-05-3.26633E-05-2.86629E-05 8.54928E-06 1.46877E-18 1.71828E-18
 -1      3562 9.86834E-05-3.31201E-05-2.81551E-05 1.00667E-05 5.46426E-19 1.45466E-18
 -1      3563 9.63284E-05-2.91104E-05-2.87932E-05 7.90071E-06 3.41374E-19 2.50590E-18
 -1      3564 9.72196E-05-3.00800E-05-2.87607E-05 8.13721E-06 6.52192E-19 2.38949E-18
 -1      3565 9.60840E-05-3.00831E-05-2.83232E-05 9.22582E-06 7.66991E-19 2.54989E-18
 -1      3566 9.52537E-05-2.78043E-05-2.89018E-05 7.00317E-06-1.31986E-19 2.04833E-18
 -1      3567 9.58031E-05-2.83989E-05-2.88754E-05 7.37056E-06 2.45989E-19 2.50568E-18
 -1      3568 9.46222E-05-2.81221E-05-2.85217E-05 8.12483E-06 4.48093E-19 2.20856E-18
 -1      3569 9.47153E-05-2.71035E-05-2.89767E-05 6.03886E-06 1.38456E-18 9.36864E-19
 -1      3570 9.50326E-05-2.74236E-05-2.89650E-05 6.45969E-06 3.57432E-19 1.74879E-18
 -1      3571 9.39167E-05-2.69946E-05-2.86922E-05 6.97621E-06 3.05622E-19 1.12602E-18
 -1      3572 9.45062E-05-2.68133E-05-2.90143E-05 5.09589E-06 2.77850E-19 2.44910E-18
 -1      3573 9.46759E-05-2.69486E-05-2.90175E-05 5.52341E-06 9.34912E-19 1.66217E-18
 -1      3574 9.36811E-05-2.64556E-05-2.88160E-05 5.88138E-06 6.49963E-19 2.01643E-18
 -1      3575 9.44842E-05-2.67803E-05-2.90203E-05 4.22061E-06-4.06016E-19 2.06484E-18
 -1      3576 9.45657E-05-2.68006E-05-2.90350E-05 4.62730E-06 2.54573E-19 2.27421E-18
 -1      3577 9.37152E-05-2.63016E-05-2.88930E-05 4.88294E-06 5.34966E-19 3.44442E-18
 -1      3578 9.45570E-05-2.68921E-05-2.90040E-05 3.43610E-06 9.64305E-20 2.61648E-18
 -1      3579 9.45896E-05-2.68486E-05-2.90258E-05 3.80645E-06 2.44496E-20 2.05683E-18
 -1      3580 9.38872E-05-2.63799E-05-2.89313E-05 3.99637E-06-5.37143E-19 3.74599E-18
 -1      3581 9.46663E-05-2.70712E-05-2.89749E-05 2.75459E-06 3.57912E-19 1.83179E-18
 -1      3582 9.46767E-05-2.70008E-05-2.89994E-05 3.07734E-06 2.10960E-20 2.15301E-18
 -1      3583 9.41150E-05-2.65817E-05-2.89417E-05 3.22465E-06 7.86679E-20 3.60174E-18
 -1      3584 9.33128E-05-2.59464E-05-2.88704E-05-1.15377E-06 3.90995E-19-3.93591E-20
 -1      3585 9.31654E-05-2.58398E-05-2.88589E-05-8.29469E-07 8.69047E-20 3.21485E-19
 -1      3586 9.31640E-05-2.57969E-05-2.88675E-05-1.45705E-06-3.67389E-19-1.14692E-19
 -1      3587 9.30722E-05-2.57683E-05-2.88466E-05-4.27215E-07 1.12028E-18 1.20710E-18
 -1      3588 9.30401E-05-2.57494E-05-2.88416E-05-7.24908E-08 1.13776E-18 2.59411E-19
 -1      3589 9.28310E-05-2.55467E-05-2.88299E-05-6.78636E-07-4.96082E-19 3.44301E-19
 -1      3590 5.60983E-05-1.67500E-05-1.66773E-05-1.63406E-05-1.66918E-19 9.58841E-19
 -1      3591 6.36950E-05-2.21096E-05-1.76662E-05-2.30845E-05 4.21306E-19 1.50010E-18
 -1      3592 9.56729E-05-2.81304E-05-2.89451E-05-1.92123E-06 1.71486E-19-3.24764E-19
 -1      3593 9.57172E-05-2.80923E-05-2.89799E-05-1.72482E-06 1.17450E-19-4.93880E-20
 -1      3594 9.45069E-05-2.23191E-05-3.09296E-05-3.21202E-06-2.64725E-19-3.03433E-19
 -1      3595 9.40299E-05-2.12685E-05-3.11782E-05-4.22768E-06-2.82819E-19-2.61002E-19
 -1      3596 1.01601E-04-4.42872E-05-2.43126E-05-2.43857E-05 1.21345E-18-1.22634E-19
 -1      3597 1.35192E-04-5.29716E-05-3.56606E-05 4.97660E-06 5.67201E-19-2.50359E-18
 -1      3598 1.21918E-04-4.37909E-05-3.34783E-05 6.77247E-06-4.04299E-19-4.99610E-19
 -1      3599 1.21108E-04-3.61513E-05-3.65162E-05-1.28595E-05-2.83491E-20-1.09595E-18
 -1      3600 9.51533E-05-2.77181E-05-2.88957E-05-3.02281E-06 1.13287E-19 3.83781E-19
 -1      3601 9.51874E-05-2.78141E-05-2.88776E-05-2.81322E-06 2.41586E-19 1.30964E-19
 -1      3602 9.48692E-05-2.74435E-05-2.88968E-05-3.06538E-06 1.80220E-19-2.66003E-19
 -1      3603 1.12840E-04-5.02303E-05-2.69458E-05 1.77797E-05 1.70584E-19-2.08206E-18
 -1      3604 1.04307E-04-4.57734E-05-2.47246E-05 2.31223E-05-1.62908E-19-1.57435E-18
 -1      3605 9.22331E-05-1.79760E-05-3.18359E-05-9.76747E-07-1.70110E-19-8.20039E-19
 -1      3606 9.23479E-05-1.81739E-05-3.18039E-05-1.71876E-06-1.83964E-19-8.04629E-19
 -1      3607 9.33094E-05-1.98152E-05-3.14827E-05-1.68180E-06-2.17175E-19-8.72086E-19
 -1      3608 5.66464E-05-1.46462E-05-1.79266E-05-1.05353E-05 2.62370E-19-3.39819E-19
 -1      3609 6.26585E-05-1.99250E-05-1.82922E-05-2.07163E-05-1.46365E-19 1.37870E-18
 -1      3610 7.15059E-05-2.30415E-05-2.04807E-05-1.99388E-05 1.23865E-19 1.27193E-18
 -1      3611 1.14045E-04-1.77125E-05-4.15109E-05-8.49933E-06 5.30349E-19-2.78671E-18
 -1      3612 9.56414E-05-2.53228E-05-3.01339E-05-1.29716E-06-3.34888E-19-1.32989E-19
 -1      3613 9.57912E-05-2.60213E-05-2.99096E-05-6.24904E-07-3.22805E-19-3.45859E-20
 -1      3614 9.57994E-05-2.80252E-05-2.90464E-05-1.51975E-06 6.10336E-20 3.22202E-21
 -1      3615 9.58388E-05-2.78975E-05-2.91129E-05-1.26555E-06 1.12143E-19-8.76150E-21
 -1      3616 9.59003E-05-2.79638E-05-2.91176E-05-1.51655E-06 1.54790E-19 1.43587E-19
 -1      3617 7.25889E-05-2.54060E-05-2.01679E-05 2.31858E-05 2.59821E-19-1.27481E-18
 -1      3618 6.36332E-05-1.90494E-05-1.89377E-05 1.77400E-05 8.70326E-20-1.06919E-18
 -1      3619 9.08558E-05-3.89362E-05-2.25115E-05 2.74782E-05-2.73248E-19-8.44254E-19
 -1      3620 7.80466E-05-3.00932E-05-2.00188E-05 2.73000E-05-1.22724E-18-1.54602E-18
 -1      3621 1.05717E-04-3.84316E-05-2.87596E-05 7.79064E-06 2.27728E-19-7.07231E-19
 -1      3622 1.08030E-04-4.04636E-05-2.89820E-05 6.55589E-06-1.24594E-18-1.70214E-18
 -1      3623 1.02842E-04-3.73501E-05-2.81448E-05 1.01866E-05-4.79997E-19-1.15161E-18
 -1      3624 9.48103E-05-2.72397E-05-2.89521E-05-4.08250E-06-2.39307E-19 4.90410E-19
 -1      3625 9.48069E-05-2.73243E-05-2.89262E-05-3.78567E-06-8.52814E-20 5.16212E-19
 -1      3626 9.45450E-05-2.71259E-05-2.88937E-05-3.58113E-06 2.02815E-20 1.80427E-19
 -1      3627 5.21744E-05-1.27602E-05-1.67860E-05 3.63805E-06-6.70959E-19 5.82865E-19
 -1      3628 5.18222E-05-1.31474E-05-1.62781E-05-7.66207E-06-9.24695E-19 9.75570E-19
 -1      3629 5.95995E-05-1.56241E-05-1.85455E-05-1.02720E-05-7.35330E-19 1.09725E-18
 -1      3630 9.39490E-05-2.64021E-05-2.89484E-05-2.26483E-06-4.58061E-19-1.04995E-18
 -1      3631 1.11205E-04-1.61731E-05-4.10507E-05 5.84013E-06 4.79209E-19-2.05502E-18
 -1      3632 9.31460E-05-3.89291E-05-2.32039E-05-2.59140E-05 1.15223E-18-3.76241E-19
 -1      3633 9.93269E-05-4.02124E-05-2.51895E-05-2.14385E-05 8.21556E-19 8.07328E-20
 -1      3634 9.49950E-05-3.54689E-05-2.53691E-05-2.04983E-05 1.23369E-18 5.17875E-19
 -1      3635 8.66940E-05-3.33737E-05-2.26937E-05-2.45424E-05 1.16253E-18-5.77107E-19
 -1      3636 9.62168E-05-4.32554E-05-2.25877E-05 2.74626E-05 3.96835E-19-1.25170E-18
 -1      3637 8.77786E-05-3.92051E-05-2.04269E-05 3.04053E-05 3.90085E-19-1.76138E-18
 -1      3638 9.86535E-05-4.21497E-05-2.40392E-05-2.39366E-05-3.06705E-19 4.85019E-19
 -1      3639 1.08510E-04-4.78413E-05-2.62523E-05-1.93226E-05-7.40201E-19 4.01030E-19
 -1      3640 1.16744E-04-5.01225E-05-2.82730E-05-1.18931E-05-1.35861E-18-1.90649E-19
 -1      3641 1.20693E-04-4.95329E-05-3.07297E-05-3.16786E-06-1.16274E-18-6.94412E-19
 -1      3642 9.59605E-05-2.66201E-05-2.97105E-05-1.48227E-07-3.67377E-19-1.31344E-19
 -1      3643 9.59973E-05-2.70602E-05-2.95503E-05 3.31382E-07-3.98888E-19-4.79816E-20
 -1      3644 9.61096E-05-2.70208E-05-2.96098E-05 3.98514E-07-5.19989E-19-3.51291E-19
 -1      3645 9.47076E-05-2.70875E-05-2.89724E-05-4.76696E-06-6.90555E-20 2.22100E-19
 -1      3646 9.46600E-05-2.71203E-05-2.89506E-05-4.42463E-06-1.13229E-19 5.29031E-19
 -1      3647 9.42300E-05-2.68309E-05-2.88855E-05-4.20767E-06-1.96417E-19 2.09549E-19
 -1      3648 9.39654E-05-2.66320E-05-2.88586E-05-4.95820E-06-4.56482E-20 4.86233E-19
 -1      3649 9.53354E-05-2.46595E-05-3.02904E-05 2.61015E-06 4.53068E-19-7.03958E-20
 -1      3650 9.50446E-05-2.38061E-05-3.05389E-05 2.86073E-06 3.80525E-19-4.26459E-20
 -1      3651 9.54868E-05-2.54884E-05-3.00053E-05 1.67712E-06 3.85365E-19 3.15470E-20
 -1      3652 1.21392E-04-4.64270E-05-3.20972E-05 3.68048E-06-9.23494E-19-5.69100E-21
 -1      3653 1.11390E-04-4.27414E-05-2.93489E-05 5.07030E-06-1.11255E-18-1.62369E-18
 -1      3654 1.13800E-04-4.42402E-05-2.98625E-05 2.87168E-06-8.09657E-19-1.63854E-18
 -1      3655 1.08769E-04-4.22874E-05-2.85450E-05 8.68528E-06-9.04360E-19-3.32288E-18
 -1      3656 1.10449E-04-1.48393E-05-4.11686E-05 5.53363E-07 5.79794E-19-2.50868E-18
 -1      3657 8.25007E-05-3.35646E-05-2.07405E-05 2.74754E-05 6.11849E-20-1.15736E-18
 -1      3658 1.17341E-04-4.58742E-05-3.06867E-05-3.58182E-07-1.38904E-18-1.43513E-19
 -1      3659 9.48156E-05-2.31322E-05-3.07196E-05 2.66032E-06 2.41135E-19 4.88831E-20
 -1      3660 8.61958E-05-3.20933E-05-2.31492E-05-2.24576E-05 3.63336E-19 9.39452E-19
 -1      3661 9.28787E-05-3.79109E-05-2.34891E-05-2.44353E-05-4.18884E-20 7.07947E-19
 -1      3662 9.79794E-05-3.88182E-05-2.52384E-05-1.94231E-05 5.47693E-20 5.85776E-19
 -1      3663 9.60041E-05-2.70505E-05-2.95526E-05-3.29990E-07 2.90971E-19 4.11781E-19
 -1      3664 9.58590E-05-2.70991E-05-2.94729E-05-2.36862E-07 2.91588E-19 2.77403E-20
 -1      3665 6.54023E-05-1.74689E-05-2.03135E-05 1.22215E-05 5.75122E-20-1.35239E-18
 -1      3666 1.23402E-04-4.92416E-05-3.18194E-05-3.56474E-07-1.08401E-18-9.37030E-19
 -1      3667 9.37592E-05-2.06435E-05-3.13113E-05 2.75645E-06 2.06359E-19-2.59012E-19
 -1      3668 7.25220E-05-2.54365E-05-1.99388E-05-2.30176E-05 1.28752E-18 4.66927E-19
 -1      3669 9.30737E-05-2.57902E-05-2.88399E-05 3.40225E-07 9.08772E-19 6.65074E-19
 -1      3670 9.31586E-05-2.58623E-05-2.88417E-05 6.80016E-07 1.14553E-18 6.49799E-19
 -1      3671 9.27609E-05-2.55142E-05-2.88146E-05 1.63730E-07 1.00456E-18 3.37079E-19
 -1      3672 7.30436E-05-2.55730E-05-2.01813E-05 2.28990E-05-1.63469E-18-1.29003E-18
 -1      3673 9.55154E-05-2.80860E-05-2.88952E-05-2.26920E-06 3.13102E-19-1.59755E-19
 -1      3674 9.55595E-05-2.81120E-05-2.89061E-05-2.09381E-06 2.21433E-19-2.92756E-19
 -1      3675 9.57088E-05-2.80353E-05-2.90046E-05-1.91154E-06 3.58254E-19-7.44793E-20
 -1      3676 1.15163E-04-4.51553E-05-2.99012E-05-3.02066E-06-7.80309E-19 1.41577E-19
 -1      3677 1.13048E-04-4.58970E-05-2.89522E-05-7.65197E-06-1.07496E-18-5.71602E-19
 -1      3678 1.15787E-04-4.58722E-05-2.99671E-05 3.29429E-06-8.05080E-19-2.47419E-18
 -1      3679 9.51801E-05-2.77299E-05-2.89078E-05-2.63786E-06 1.76648E-19-7.85190E-20
 -1      3680 9.53390E-05-2.79360E-05-2.88828E-05-2.62176E-06 2.59786E-19-7.23216E-20
 -1      3681 9.53799E-05-2.80060E-05-2.88764E-05-2.43940E-06 3.35610E-19-2.85870E-19
 -1      3682 9.37386E-05-2.63808E-05-2.88749E-05 1.61084E-06 9.65648E-19 3.16834E-19
 -1      3683 9.39979E-05-2.65831E-05-2.88871E-05 1.80815E-06 6.06159E-19 3.13255E-19
 -1      3684 9.47831E-05-2.72605E-05-2.89410E-05 2.16268E-06-3.63715E-19 2.35975E-18
 -1      3685 9.47787E-05-2.71833E-05-2.89654E-05 2.44359E-06 5.80789E-19 3.29662E-18
 -1      3686 9.48932E-05-2.73851E-05-2.89306E-05 1.91736E-06-1.02220E-18 1.29316E-18
 -1      3687 9.45797E-05-2.70920E-05-2.89212E-05 2.01956E-06 3.24385E-20 4.82963E-18
 -1      3688 1.17440E-04-4.82023E-05-2.97378E-05 5.16078E-06-4.50267E-19-1.85881E-18
 -1      3689 1.21731E-04-5.10101E-05-3.03877E-05 5.89853E-06-4.96739E-19-8.77672E-19
 -1      3690 1.17178E-04-5.14458E-05-2.79950E-05 1.38246E-05 3.45957E-19-1.92468E-18
 -1      3691 1.14059E-04-4.69356E-05-2.86981E-05 9.09732E-06 1.51778E-19-2.33854E-18
 -1      3692 9.58274E-05-2.67593E-05-2.95915E-05 1.97261E-07 3.33930E-19 6.84700E-20
 -1      3693 9.69960E-05-4.02852E-05-2.43030E-05 2.24174E-05-1.26076E-19-9.62454E-19
 -1      3694 8.74023E-05-3.08812E-05-2.42993E-05-2.08581E-05 1.14261E-18 7.81904E-19
 -1      3695 9.38060E-05-2.08241E-05-3.12901E-05 7.69490E-07 2.11623E-20-4.66712E-19
 -1      3696 9.37506E-05-2.07216E-05-3.13094E-05 2.34002E-07-8.83620E-20-4.96740E-19
 -1      3697 9.45362E-05-2.23614E-05-3.09248E-05-2.55283E-06-2.20661E-19-4.27417E-19
 -1      3698 9.50344E-05-2.35409E-05-3.06445E-05-2.55974E-06-3.52477E-19-2.37226E-19
 -1      3699 9.53288E-05-2.44702E-05-3.03750E-05-1.78478E-06-3.93396E-19-2.21344E-19
 -1      3700 1.11045E-04-4.63767E-05-2.76048E-05-1.32013E-05-1.06039E-18-4.47008E-21
 -1      3701 9.31002E-05-1.94262E-05-3.15585E-05-5.54653E-07-1.33336E-19-7.53201E-19
 -1      3702 1.11982E-04-4.81950E-05-2.74068E-05 1.47394E-05-6.15455E-20-2.02580E-18
 -1      3703 9.40467E-05-2.13155E-05-3.11872E-05 1.67111E-06 1.18631E-19-4.42958E-19
 -1      3704 9.38997E-05-2.10023E-05-3.12484E-05 1.17402E-06 2.27669E-20-5.29394E-19
 -1      3705 9.45192E-05-2.21049E-05-3.10128E-05 7.78421E-07-4.28171E-20-4.73098E-19
 -1      3706 6.13088E-05-1.48292E-05-1.96692E-05-4.89493E-06 1.96921E-19-9.52250E-19
 -1      3707 9.54148E-05-2.44607E-05-3.04041E-05-1.44118E-06-2.22638E-19-2.77087E-19
 -1      3708 9.60145E-05-2.76655E-05-2.92943E-05-1.01529E-06 1.86973E-19 3.99451E-19
 -1      3709 9.41327E-05-2.14642E-05-3.11431E-05-1.83437E-06-2.14812E-19-6.56163E-19
 -1      3710 9.43583E-05-2.19579E-05-3.10401E-05-2.24256E-06-1.84088E-19-5.53584E-19
 -1      3711 9.49086E-05-2.31119E-05-3.07627E-05-1.66666E-06-2.30316E-19-4.86343E-19
 -1      3712 5.56342E-05-1.38143E-05-1.75476E-05 8.40993E-06-5.11849E-19 7.41816E-19
 -1      3713 5.81229E-05-1.36587E-05-1.89509E-05 3.13399E-06-9.02070E-19 5.10602E-19
 -1      3714 5.97313E-05-1.62503E-05-1.87535E-05 1.31300E-05-9.25109E-19 6.58806E-19
 -1      3715 9.59001E-05-2.59865E-05-2.99613E-05-4.44917E-07-3.57415E-19-2.36848E-19
 -1      3716 8.62072E-05-3.35174E-05-2.25574E-05 2.45968E-05 3.62897E-19-7.31307E-19
 -1      3717 7.96410E-05-2.93745E-05-2.12871E-05 2.44179E-05 2.63685E-19-1.05530E-18
 -1      3718 7.76552E-05-2.59413E-05-2.19920E-05 2.08762E-05 3.72483E-19-1.20991E-18
 -1      3719 9.43410E-05-2.68176E-05-2.89342E-05 2.56646E-06-7.61505E-19 5.17785E-18
 -1      3720 9.61234E-05-2.70905E-05-2.95917E-05-4.50128E-07 1.70543E-19 1.52637E-19
 -1      3721 9.60847E-05-2.66552E-05-2.97466E-05-4.86811E-08 1.95425E-19 8.47990E-20
 -1      3722 7.07389E-05-1.97001E-05-2.18145E-05 1.52632E-05 6.80439E-20-8.42811E-19
 -1      3723 6.57715E-05-1.59761E-05-2.13245E-05 8.33161E-06 1.51771E-19-1.57493E-18
 -1      3724 9.34564E-05-2.60097E-05-2.89159E-05-2.23697E-06-8.22702E-19 2.86565E-19
 -1      3725 8.31087E-05-2.81578E-05-2.35515E-05 2.06793E-05 5.47289E-19-1.72236E-18
 -1      3726 9.06323E-05-3.30643E-05-2.46394E-05 2.11144E-05 3.95988E-19-9.03453E-19
 -1      3727 9.60691E-05-2.77492E-05-2.92789E-05 1.19150E-06-2.53228E-19-1.15295E-19
 -1      3728 9.59555E-05-2.78167E-05-2.92034E-05 1.39834E-06-1.34448E-19 3.15084E-20
 -1      3729 9.57784E-05-2.78093E-05-2.91302E-05 1.54694E-06-1.33083E-19 9.50669E-20
 -1      3730 9.56133E-05-2.77567E-05-2.90812E-05 1.72411E-06-1.32158E-19 7.09828E-20
 -1      3731 9.58988E-05-2.77065E-05-2.92238E-05 1.27574E-06-8.70991E-20 9.07483E-20
 -1      3732 9.53647E-05-2.76340E-05-2.90298E-05 1.86091E-06-2.17816E-19 1.32623E-21
 -1      3733 9.51525E-05-2.74843E-05-2.89997E-05 2.03414E-06-2.23726E-19-5.37680E-20
 -1      3734 9.54775E-05-2.75860E-05-2.90943E-05 1.56285E-06-2.06307E-19 3.37729E-20
 -1      3735 9.48358E-05-2.72665E-05-2.89625E-05 2.17773E-06-2.03876E-19-2.93412E-20
 -1      3736 9.45745E-05-2.70358E-05-2.89439E-05 2.36739E-06-1.30579E-19-3.82557E-20
 -1      3737 9.49184E-05-2.72430E-05-2.90006E-05 1.83885E-06-2.91359E-19 1.12530E-20
 -1      3738 9.41859E-05-2.67369E-05-2.89128E-05 2.53192E-06-2.94884E-19-2.87515E-19
 -1      3739 9.38681E-05-2.64368E-05-2.88980E-05 2.75319E-06-3.10033E-19-3.39460E-19
 -1      3740 9.42212E-05-2.67146E-05-2.89266E-05 2.13460E-06-3.41136E-19 1.19634E-19
 -1      3741 9.33970E-05-2.60667E-05-2.88640E-05 2.94906E-06-1.65720E-19-6.14751E-19
 -1      3742 9.30112E-05-2.57068E-05-2.88441E-05 3.21343E-06-1.91176E-19-6.94532E-19
 -1      3743 9.33719E-05-2.60270E-05-2.88550E-05 2.47180E-06-4.75311E-19-1.45176E-19
 -1      3744 9.24423E-05-2.52750E-05-2.87964E-05 3.44875E-06 8.04068E-20-5.71014E-19
 -1      3745 9.19752E-05-2.48673E-05-2.87605E-05 3.76487E-06 3.28990E-19-4.64109E-19
 -1      3746 9.23448E-05-2.52012E-05-2.87658E-05 2.86628E-06 7.86742E-21-3.20949E-19
 -1      3747 9.12883E-05-2.43860E-05-2.86856E-05 4.04622E-06 5.82654E-20-5.15061E-19
 -1      3748 9.07261E-05-2.39472E-05-2.86202E-05 4.42230E-06-1.58958E-19-3.10062E-19
 -1      3749 9.11048E-05-2.42598E-05-2.86342E-05 3.32942E-06 1.12063E-19-5.05663E-19
 -1      3750 8.98955E-05-2.34332E-05-2.85009E-05 4.75987E-06-2.25697E-19-3.10297E-19
 -1      3751 8.92275E-05-2.29905E-05-2.83881E-05 5.20977E-06 8.11741E-20-3.94792E-19
 -1      3752 8.96068E-05-2.32298E-05-2.84291E-05 3.87261E-06-1.98276E-19-7.09944E-19
 -1      3753 8.82241E-05-2.24728E-05-2.82018E-05 5.62357E-06 1.48984E-19-8.88073E-19
 -1      3754 8.74488E-05-2.20713E-05-2.80186E-05 6.17415E-06 1.52541E-19-8.08689E-19
 -1      3755 8.77968E-05-2.21508E-05-2.81101E-05 4.52132E-06-3.16330E-19-4.97179E-19
 -1      3756 8.62336E-05-2.15924E-05-2.77347E-05 6.70702E-06 3.18895E-19-1.52973E-18
 -1      3757 8.53680E-05-2.13044E-05-2.74513E-05 7.41502E-06 1.09491E-19-1.71116E-18
 -1      3758 8.56070E-05-2.10793E-05-2.76232E-05 5.32903E-06 6.79235E-20-1.50736E-18
 -1      3759 8.38916E-05-2.09310E-05-2.70271E-05 8.15458E-06 2.86091E-19-1.33260E-18
 -1      3760 8.29864E-05-2.08728E-05-2.66059E-05 9.13158E-06 1.35551E-19-1.57152E-18
 -1      3761 8.29481E-05-2.00993E-05-2.68933E-05 6.41940E-06 3.09941E-19-2.28081E-18
 -1      3762 8.11732E-05-2.07024E-05-2.59797E-05 1.02351E-05 8.25841E-20-1.27062E-18
 -1      3763 8.03857E-05-2.10844E-05-2.53824E-05 1.16828E-05 3.00567E-19-1.33842E-18
 -1      3764 7.97111E-05-1.93301E-05-2.58120E-05 8.01303E-06 4.18529E-19-2.16484E-18
 -1      3765 9.57166E-05-2.64210E-05-2.97015E-05 5.86626E-07 2.53783E-19 1.01892E-19
 -1      3766 9.56571E-05-2.59512E-05-2.98637E-05 1.18281E-06 2.64218E-19 5.94342E-20
 -1      3767 9.56034E-05-2.54274E-05-3.00872E-05 1.41177E-06 3.23320E-19 1.17070E-19
 -1      3768 9.58394E-05-2.62738E-05-2.98232E-05 4.68092E-07 2.84604E-19 1.51209E-19
 -1      3769 9.30379E-05-2.56409E-05-2.88914E-05-2.38514E-06-1.69817E-19 6.06779E-19
 -1      3770 9.30126E-05-2.56341E-05-2.88674E-05-1.93432E-06-4.42635E-19-3.40701E-19
 -1      3771 7.70018E-05-2.41871E-05-2.25786E-05 1.90615E-05 1.84091E-19-1.18332E-18
 -1      3772 9.35866E-05-3.66624E-05-2.42656E-05 2.27531E-05 3.12396E-19-8.81682E-19
 -1      3773 8.13333E-05-2.13997E-05-2.56289E-05-1.18110E-05-3.55195E-20-4.17523E-19
 -1      3774 8.19613E-05-2.09540E-05-2.62000E-05-1.04085E-05-4.75142E-19 4.45969E-19
 -1      3775 8.36288E-05-2.10605E-05-2.67964E-05-9.24416E-06-9.89262E-19 1.11661E-18
 -1      3776 8.44136E-05-2.10575E-05-2.71936E-05-8.25412E-06-8.60580E-19 9.99285E-19
 -1      3777 8.03110E-05-1.95053E-05-2.60079E-05-8.30567E-06-3.98188E-19-5.05638E-19
 -1      3778 8.57913E-05-2.13805E-05-2.75989E-05-7.47133E-06-1.34138E-19 6.62143E-19
 -1      3779 8.65728E-05-2.16211E-05-2.78660E-05-6.73029E-06-6.53452E-20 1.54146E-18
 -1      3780 8.33562E-05-2.01620E-05-2.70427E-05-6.59607E-06-8.71721E-19 2.32011E-19
 -1      3781 8.77074E-05-2.20539E-05-2.81363E-05-6.15238E-06-1.09243E-18 1.06985E-18
 -1      3782 8.84114E-05-2.24105E-05-2.83076E-05-5.56041E-06-7.18714E-19 5.16272E-19
 -1      3783 8.58428E-05-2.10420E-05-2.77408E-05-5.41054E-06-7.13080E-19 2.98749E-19
 -1      3784 8.93411E-05-2.28813E-05-2.84834E-05-5.10044E-06-6.25432E-19-2.84949E-19
 -1      3785 8.99411E-05-2.32768E-05-2.85872E-05-4.60407E-06-5.43853E-19-1.90692E-19
 -1      3786 8.78830E-05-2.20183E-05-2.82038E-05-4.50620E-06-1.14505E-18-1.39371E-18
 -1      3787 9.06989E-05-2.37376E-05-2.86975E-05-4.22140E-06 4.33352E-20 8.71322E-20
 -1      3788 9.11894E-05-2.41272E-05-2.87550E-05-3.79231E-06 2.12689E-19 6.94550E-19
 -1      3789 8.95524E-05-2.30025E-05-2.85033E-05-3.76110E-06-2.82430E-19-1.06133E-19
 -1      3790 9.18024E-05-2.45516E-05-2.88204E-05-3.46528E-06-1.67923E-19 2.80849E-19
 -1      3791 9.21866E-05-2.49053E-05-2.88473E-05-3.08720E-06-1.88760E-19 5.23766E-19
 -1      3792 9.08954E-05-2.39214E-05-2.86892E-05-3.13069E-06-2.62728E-19 2.22145E-19
 -1      3793 9.27331E-05-2.53425E-05-2.88824E-05-2.68966E-06 3.12483E-19 6.30608E-19
 -1      3794 9.31293E-05-2.72013E-05-2.82332E-05-8.28108E-06-4.26580E-19 6.39376E-19
 -1      3795 9.27391E-05-2.66381E-05-2.83316E-05-7.70301E-06-5.14877E-20 3.90499E-19
 -1      3796 9.43537E-05-2.69019E-05-2.89121E-05 1.98007E-06 2.59580E-19 3.63972E-18
 -1      3797 9.33101E-05-2.60059E-05-2.88503E-05 1.04871E-06 1.38552E-18 8.52490E-21
 -1      3798 9.34954E-05-2.61540E-05-2.88579E-05 1.33086E-06 1.40815E-18-5.86205E-19
 -1      3799 9.34237E-05-2.60864E-05-2.88536E-05 1.63967E-06 1.52454E-18 5.59144E-19
 -1      3800 9.28069E-05-2.63487E-05-2.84665E-05-7.00011E-06-2.80566E-19 2.77589E-19
 -1      3801 9.26792E-05-2.61021E-05-2.85391E-05-6.46939E-06-1.77432E-19 2.16865E-19
 -1      3802 9.14591E-05-2.57467E-05-2.81688E-05-7.33403E-06-1.09391E-19 4.74448E-19
 -1      3803 9.29006E-05-2.60552E-05-2.86368E-05-5.88549E-06 3.59571E-20-8.69073E-20
 -1      3804 9.29285E-05-2.60174E-05-2.86837E-05-5.41691E-06 2.41526E-20 1.83909E-19
 -1      3805 9.17750E-05-2.54603E-05-2.84215E-05-6.03161E-06-9.52539E-20 4.61562E-19
 -1      3806 9.41525E-05-2.88768E-05-2.79483E-05-9.69778E-06-6.46094E-19 5.10548E-19
 -1      3807 9.33439E-05-2.78561E-05-2.80619E-05-9.11084E-06-7.06476E-19 5.99469E-19
 -1      3808 9.15551E-05-2.66444E-05-2.78354E-05-8.92194E-06-4.12707E-19 6.41548E-19
 -1      3809 9.62795E-05-3.16580E-05-2.76546E-05-1.11485E-05 5.83952E-20 3.31306E-19
 -1      3810 9.48376E-05-3.00255E-05-2.77556E-05-1.06200E-05-3.75270E-19 5.58587E-19
 -1      3811 9.23756E-05-2.84580E-05-2.74331E-05-1.08025E-05-3.98071E-19 2.47765E-19
 -1      3812 1.00016E-04-3.58487E-05-2.74546E-05-1.21749E-05 7.83069E-19 9.42622E-20
 -1      3813 9.77761E-05-3.35966E-05-2.74718E-05-1.20309E-05 8.18843E-19 4.02768E-19
 -1      3814 9.44333E-05-3.15931E-05-2.70154E-05-1.29212E-05 4.19882E-19 1.20884E-19
 -1      3815 9.41221E-05-2.67654E-05-2.88619E-05-3.50196E-06-2.86937E-19 3.22390E-19
 -1      3816 9.42871E-05-2.69424E-05-2.88678E-05-3.22197E-06 5.14352E-20 2.41864E-19
 -1      3817 7.80010E-05-2.79175E-05-2.14597E-05-2.34503E-05 1.51888E-18 4.59621E-19
 -1      3818 8.33695E-05-2.94624E-05-2.30003E-05-2.18244E-05 1.23888E-18 5.30243E-19
 -1      3819 6.95405E-05-2.15842E-05-2.04736E-05-1.92052E-05 9.59596E-19-1.91959E-19
 -1      3820 1.09817E-04-1.56721E-05-4.07315E-05-3.50970E-06 5.18755E-19-2.23799E-18
 -1      3821 9.44520E-05-2.21850E-05-3.09919E-05 2.45005E-06 1.24817E-19-2.51644E-19
 -1      3822 9.42145E-05-2.16680E-05-3.10983E-05 2.03764E-06 7.96265E-20-3.17706E-19
 -1      3823 9.47774E-05-2.26808E-05-3.08772E-05 1.43337E-06 5.04873E-20-3.86769E-19
 -1      3824 9.36695E-05-2.83525E-05-2.79853E-05 9.51283E-06 8.89794E-19 7.22671E-19
 -1      3825 9.46724E-05-2.95799E-05-2.78672E-05 1.01023E-05 6.37384E-19 8.32720E-19
 -1      3826 9.56125E-05-3.09875E-05-2.76679E-05 1.10540E-05 3.52135E-20 7.02204E-19
 -1      3827 9.72557E-05-3.28636E-05-2.75804E-05 1.15104E-05 1.59753E-19-3.23039E-19
 -1      3828 9.28654E-05-2.92314E-05-2.73036E-05 1.14740E-05 3.74325E-19-1.74841E-18
 -1      3829 9.25156E-05-2.59965E-05-2.85134E-05 6.65911E-06-3.42230E-20 6.56241E-19
 -1      3830 9.27358E-05-2.63633E-05-2.84289E-05 7.23841E-06-6.03398E-19 4.22435E-19
 -1      3831 9.26273E-05-2.57181E-05-2.86824E-05 5.48117E-06 3.18555E-19 1.03129E-18
 -1      3832 9.26652E-05-2.58472E-05-2.86247E-05 6.00710E-06 7.11459E-19 3.86033E-19
 -1      3833 9.14406E-05-2.52295E-05-2.83785E-05 6.24106E-06 1.79817E-19 1.47732E-19
 -1      3834 9.29271E-05-2.57604E-05-2.87932E-05 4.46828E-06-3.01351E-19 1.96867E-18
 -1      3835 9.28661E-05-2.57425E-05-2.87590E-05 4.93473E-06 1.89536E-19 1.22180E-18
 -1      3836 9.18469E-05-2.51517E-05-2.85823E-05 5.04331E-06-1.67217E-19-5.19197E-19
 -1      3837 9.33032E-05-2.59839E-05-2.88580E-05 3.60403E-06-9.39131E-19 3.39771E-18
 -1      3838 9.31956E-05-2.58824E-05-2.88420E-05 4.01275E-06-1.03724E-18 3.46997E-18
 -1      3839 9.23630E-05-2.53435E-05-2.87197E-05 4.05384E-06-1.76834E-18 2.00124E-18
 -1      3840 9.36754E-05-2.62837E-05-2.88888E-05 2.86960E-06 5.69267E-20 4.25731E-18
 -1      3841 9.35650E-05-2.61502E-05-2.88861E-05 3.22817E-06 2.83422E-19 4.02866E-18
 -1      3842 9.28954E-05-2.56788E-05-2.88061E-05 3.24004E-06-3.95733E-19 2.62970E-18
 -1      3843 9.27111E-05-2.54324E-05-2.88385E-05-1.56477E-06 3.05362E-19-4.40884E-19
 -1      3844 6.17257E-05-1.47251E-05-2.00906E-05-6.39005E-06-6.39000E-19 2.84735E-19
 -1      3845 6.55303E-05-1.76197E-05-2.04159E-05-1.40261E-05-1.77348E-21-8.20921E-19
 -1      3846 1.09622E-04-4.39737E-05-2.81954E-05 1.03566E-05-3.32381E-19-3.09530E-18
 -1      3847 1.10797E-04-4.58422E-05-2.78869E-05 1.22265E-05 2.76566E-19-2.03919E-18
 -1      3848 1.07912E-04-4.45193E-05-2.69299E-05 1.55941E-05 4.22110E-19-1.77498E-18
 -1      3849 1.06452E-04-4.11294E-05-2.78462E-05 1.12943E-05-6.28956E-19-2.94257E-18
 -1      3850 9.24910E-05-2.52834E-05-2.88043E-05-9.38777E-07-7.55526E-19-2.05227E-19
 -1      3851 9.23792E-05-2.52071E-05-2.87905E-05-5.22127E-07-3.15425E-19 5.14038E-19
 -1      3852 9.88712E-05-4.00165E-05-2.53571E-05 1.96465E-05-2.71160E-19-7.13255E-19
 -1      3853 8.88071E-05-3.29085E-05-2.35501E-05 2.24318E-05-1.19533E-18-2.87439E-19
 -1      3854 9.92213E-05-3.86856E-05-2.59919E-05 1.71303E-05-3.40236E-19-8.72763E-19
 -1      3855 9.40470E-05-2.66236E-05-2.88981E-05 2.10807E-06-3.81153E-19 3.04802E-18
 -1      3856 7.66976E-05-2.20278E-05-2.33187E-05 1.54599E-05 1.58557E-19-8.80074E-19
 -1      3857 9.39257E-05-2.64877E-05-2.89004E-05 2.39509E-06-3.84785E-19 3.28380E-18
 -1      3858 6.39721E-05-1.46561E-05-2.11289E-05-3.10174E-07 4.46297E-20-1.34537E-18
 -1      3859 6.52023E-05-1.60786E-05-2.10196E-05-9.22298E-06-1.44704E-19-8.97458E-20
 -1      3860 9.61166E-05-2.76658E-05-2.93389E-05-1.03751E-06 6.28463E-20 2.52550E-19
 -1      3861 9.61505E-05-2.74257E-05-2.94491E-05-7.40499E-07 1.23067E-19 1.63666E-19
 -1      3862 9.61978E-05-2.70598E-05-2.96289E-05-4.87907E-07 9.07089E-20-1.52732E-19
 -1      3863 9.97935E-05-3.53242E-05-2.75560E-05 1.20590E-05-1.13581E-18-1.61148E-19
 -1      3864 1.02295E-04-3.80437E-05-2.75817E-05 1.20966E-05-1.41403E-18-1.57864E-18
 -1      3865 1.02755E-04-3.96075E-05-2.71617E-05 1.38669E-05-9.84643E-19-1.76447E-18
 -1      3866 9.62063E-05-3.31654E-05-2.70513E-05 1.30647E-05-1.14275E-18-1.40365E-18
 -1      3867 7.97809E-05-2.54300E-05-2.32418E-05-1.92939E-05 7.50684E-19 7.08093E-19
 -1      3868 9.45820E-05-2.71604E-05-2.88907E-05-2.97500E-06 2.05546E-19 2.30991E-20
 -1      3869 9.47448E-05-2.73296E-05-2.88968E-05-2.74317E-06 1.78810E-19 1.71374E-19
 -1      3870 9.41691E-05-2.68151E-05-2.88638E-05-2.88607E-06-7.65062E-20 3.54745E-19
 -1      3871 9.38629E-05-2.09170E-05-3.12662E-05-9.50236E-07-2.04566E-19-9.05965E-19
 -1      3872 9.39977E-05-2.11999E-05-3.12109E-05-1.44899E-06-2.15895E-19-8.91337E-19
 -1      3873 9.46418E-05-2.24170E-05-3.09421E-05-1.07271E-06-2.00294E-19-8.54227E-19
 -1      3874 6.97940E-05-2.00550E-05-2.12877E-05-1.58893E-05 4.05224E-19 9.56035E-19
 -1      3875 7.74802E-05-2.61843E-05-2.20721E-05-2.09315E-05 4.21331E-19 1.05215E-18
 -1      3876 9.59688E-05-2.79268E-05-2.91614E-05-1.47740E-06 2.97395E-19-9.12070E-20
 -1      3877 9.60498E-05-2.78282E-05-2.92356E-05-1.25285E-06 1.65219E-19 1.25791E-19
 -1      3878 9.61609E-05-2.76116E-05-2.93777E-05-1.00499E-06 2.10960E-19-4.87458E-20
 -1      3879 7.85048E-05-2.73356E-05-2.21605E-05 2.14644E-05-2.07142E-18-1.62318E-18
 -1      3880 6.81284E-05-2.02338E-05-2.01370E-05 1.84853E-05-1.95933E-18-1.18958E-18
 -1      3881 1.07349E-04-4.34331E-05-2.72937E-05-1.37754E-05-5.36536E-19-1.57753E-19
 -1      3882 9.27711E-05-2.67890E-05-2.82791E-05 8.00956E-06 4.52644E-19 6.15987E-19
 -1      3883 9.32984E-05-2.75136E-05-2.81703E-05 8.62135E-06 1.11414E-18 8.26631E-19
 -1      3884 9.12921E-05-2.57564E-05-2.80959E-05 7.68936E-06 2.76478E-19-1.00620E-18
 -1      3885 8.01744E-05-2.35329E-05-2.41574E-05-1.60490E-05 2.59321E-21-5.41689E-19
 -1      3886 8.01782E-05-2.21486E-05-2.49271E-05-1.39729E-05-8.49746E-20-6.68011E-19
 -1      3887 7.73298E-05-1.97539E-05-2.46298E-05-1.14106E-05-1.34835E-19-1.94753E-18
 -1      3888 7.56171E-05-2.20019E-05-2.29248E-05-1.66725E-05 6.71671E-21-2.59841E-19
 -1      3889 9.37599E-05-2.07235E-05-3.13090E-05-9.59802E-08-5.12884E-20-6.60761E-19
 -1      3890 9.38006E-05-2.08134E-05-3.12919E-05-6.29406E-07-9.85677E-20-8.03122E-19
 -1      3891 9.44975E-05-2.20600E-05-3.10283E-05-4.59701E-07-1.35040E-19-6.70768E-19
 -1      3892 9.44578E-05-2.19559E-05-3.10521E-05 1.12403E-07-3.51032E-20-5.40529E-19
 -1      3893 9.51953E-05-2.39108E-05-3.05294E-05 1.92829E-06 1.94271E-19 8.06780E-21
 -1      3894 9.53240E-05-2.41081E-05-3.05293E-05-1.32887E-06-1.73331E-19-5.43576E-19
 -1      3895 9.56366E-05-2.49366E-05-3.02973E-05-8.61890E-07-2.24362E-19-4.75695E-19
 -1      3896 9.51871E-05-2.36858E-05-3.06416E-05-1.11198E-06-2.28069E-19-6.83759E-19
 -1      3897 9.62101E-05-2.73917E-05-2.94912E-05 7.40168E-07-4.13257E-19-3.54121E-19
 -1      3898 9.61618E-05-2.76120E-05-2.93814E-05 1.00812E-06-3.89113E-19-2.73680E-19
 -1      3899 9.61662E-05-2.75524E-05-2.94044E-05 9.38663E-07-1.71296E-19-2.81103E-19
 -1      3900 9.61481E-05-2.66495E-05-2.97842E-05 1.31754E-07-4.13112E-19-4.35920E-19
 -1      3901 9.61942E-05-2.70658E-05-2.96307E-05 4.96607E-07-4.89856E-19-3.82616E-19
 -1      3902 9.62444E-05-2.70551E-05-2.96510E-05 5.05458E-07-4.23749E-19-3.01178E-19
 -1      3903 9.58638E-05-2.55753E-05-3.01265E-05-5.73405E-07-3.22551E-19-3.74808E-19
 -1      3904 9.60380E-05-2.62197E-05-2.99248E-05-9.61803E-08-4.22672E-19-4.58669E-19
 -1      3905 9.61136E-05-2.62546E-05-2.99370E-05 1.07016E-08-3.57863E-19-5.98719E-19
 -1      3906 9.57954E-05-2.52149E-05-3.02463E-05-5.11622E-07-3.11960E-19-7.11490E-19
 -1      3907 9.34147E-05-2.60909E-05-2.88551E-05 2.37969E-06 3.23701E-19 3.08013E-18
 -1      3908 1.01594E-04-4.04857E-05-2.62530E-05-1.72592E-05-1.47766E-19 1.70747E-19
 -1      3909 1.05235E-04-4.05702E-05-2.76357E-05-1.19600E-05-8.48878E-20-1.91767E-19
 -1      3910 1.01996E-04-3.78166E-05-2.74291E-05-1.26200E-05 5.02988E-19 6.70794E-20
 -1      3911 9.61781E-05-3.61670E-05-2.57136E-05-1.75692E-05-7.72752E-20 2.56468E-19
 -1      3912 8.44648E-05-2.89283E-05-2.36864E-05-1.91076E-05 4.83345E-19 8.79938E-19
 -1      3913 7.13214E-05-1.70162E-05-2.32732E-05 6.92879E-06 5.51313E-19-1.69106E-18
 -1      3914 6.70591E-05-1.53643E-05-2.20331E-05 3.68984E-06 4.93516E-19-1.70523E-18
 -1      3915 6.98002E-05-1.59813E-05-2.30887E-05-3.62035E-07 3.16238E-19-9.75385E-19
 -1      3916 9.36545E-05-2.63917E-05-2.88203E-05-4.14986E-06-6.52390E-20 1.05927E-19
 -1      3917 9.38062E-05-2.65455E-05-2.88329E-05-3.81146E-06-1.70325E-19 2.08251E-19
 -1      3918 9.35605E-05-2.63437E-05-2.88043E-05-3.43309E-06-1.82508E-19 3.14355E-19
 -1      3919 7.47463E-05-1.85376E-05-2.39950E-05 1.01626E-05 3.84869E-19-1.45049E-18
 -1      3920 7.72311E-05-2.08466E-05-2.42085E-05 1.32741E-05 2.56681E-19-1.02537E-18
 -1      3921 9.58955E-05-2.60462E-05-2.99415E-05 4.16067E-07 1.48588E-19 6.51336E-20
 -1      3922 9.57964E-05-2.56286E-05-3.00628E-05 8.53202E-07 1.40303E-19 4.21318E-20
 -1      3923 9.23515E-05-2.52105E-05-2.87796E-05 5.48682E-10 7.24838E-20 1.03398E-18
 -1      3924 9.23929E-05-2.52539E-05-2.87783E-05 4.20460E-07 5.65283E-19-3.02137E-19
 -1      3925 9.19959E-05-2.48991E-05-2.87519E-05-2.61276E-07-2.55107E-19 2.77469E-19
 -1      3926 9.49251E-05-2.30135E-05-3.08279E-05 2.14707E-07-1.48496E-20-4.52598E-19
 -1      3927 9.49254E-05-2.30177E-05-3.08275E-05-4.71676E-08-4.14581E-20-5.81365E-19
 -1      3928 9.20317E-05-2.48127E-05-2.88004E-05-2.45795E-06 3.85915E-19-5.54393E-19
 -1      3929 7.11343E-05-1.99152E-05-2.17936E-05-1.48515E-05 2.30466E-19-9.17138E-19
 -1      3930 9.29739E-05-2.57051E-05-2.88235E-05 9.67582E-07 8.56146E-19-2.43446E-19
 -1      3931 9.54639E-05-2.79413E-05-2.89393E-05-2.26727E-06 3.41778E-19-1.87288E-19
 -1      3932 9.77860E-05-3.55477E-05-2.67233E-05-1.47291E-05 4.79556E-19 3.50362E-19
 -1      3933 9.59871E-05-2.60476E-05-2.99703E-05 2.46767E-07 1.37548E-19-1.04159E-19
 -1      3934 9.47269E-05-2.72487E-05-2.89177E-05-2.44394E-06 3.20760E-19 6.31514E-19
 -1      3935 9.50112E-05-2.75206E-05-2.89212E-05-2.54329E-06 1.66796E-19 1.84575E-19
 -1      3936 9.51635E-05-2.76579E-05-2.89341E-05-2.34633E-06 1.44604E-19 1.66909E-19
 -1      3937 9.29954E-05-2.57619E-05-2.88152E-05 2.04024E-06 3.63407E-19 6.27009E-19
 -1      3938 9.27156E-05-2.55221E-05-2.87904E-05 2.53077E-06-1.50575E-20 6.36532E-19
 -1      3939 9.26973E-05-2.55270E-05-2.87922E-05 1.73914E-06 6.48368E-19-4.74732E-19
 -1      3940 9.16362E-05-2.69811E-05-2.77313E-05 9.42662E-06 4.10944E-19-1.35208E-18
 -1      3941 9.22690E-05-2.50634E-05-2.87987E-05-1.44038E-06-1.05788E-19 6.93532E-19
 -1      3942 9.58323E-05-2.79571E-05-2.90891E-05-1.65018E-06 3.21348E-19-1.00659E-19
 -1      3943 9.59596E-05-2.78343E-05-2.91963E-05-1.40382E-06 3.27092E-19-1.02386E-19
 -1      3944 9.57193E-05-2.79507E-05-2.90426E-05-1.83782E-06 5.26503E-19-1.65169E-19
 -1      3945 6.17647E-05-1.40732E-05-2.02523E-05-2.36843E-06-6.68144E-19 6.30126E-19
 -1      3946 6.70269E-05-1.57838E-05-2.18740E-05-5.97205E-06-2.04245E-19 7.56043E-20
 -1      3947 6.28587E-05-1.45319E-05-2.07666E-05 2.28639E-06-4.80400E-19 2.47347E-19
 -1      3948 9.50391E-05-2.33113E-05-3.07541E-05 7.82451E-07 5.29292E-21-5.04134E-19
 -1      3949 9.49658E-05-2.31169E-05-3.08016E-05 4.58087E-07 2.84767E-21-4.61075E-19
 -1      3950 9.54321E-05-2.40269E-05-3.05877E-05 2.60720E-07-1.83388E-20-4.07072E-19
 -1      3951 8.25045E-05-2.80928E-05-2.33345E-05 1.93107E-05-1.41480E-18-1.05539E-18
 -1      3952 6.70884E-05-1.82993E-05-2.08059E-05 1.33844E-05-2.04957E-18-7.43874E-19
 -1      3953 7.15320E-05-1.88695E-05-2.24304E-05-1.10381E-05 2.60422E-19 3.59221E-19
 -1      3954 9.23047E-05-2.55660E-05-2.86007E-05-4.97209E-06-1.97770E-20 8.75905E-20
 -1      3955 9.32233E-05-2.61199E-05-2.87503E-05-4.94076E-06 5.08024E-20 6.43443E-21
 -1      3956 9.33339E-05-2.62057E-05-2.87769E-05-4.53772E-06-6.68316E-20 6.54482E-20
 -1      3957 7.45918E-05-1.76942E-05-2.44530E-05 6.25546E-06 7.35708E-19-1.78621E-18
 -1      3958 7.75217E-05-1.83535E-05-2.53705E-05-6.31500E-06-2.88231E-19-9.27927E-19
 -1      3959 7.92774E-05-1.87236E-05-2.60069E-05-5.49925E-06-5.11974E-19-6.33685E-19
 -1      3960 9.53739E-05-2.43103E-05-3.04728E-05 1.22799E-06 1.34016E-19-2.32545E-19
 -1      3961 9.54115E-05-2.45375E-05-3.03720E-05 1.38378E-06 1.42848E-19-1.51953E-21
 -1      3962 9.55940E-05-2.75864E-05-2.91478E-05 1.20957E-06-8.85598E-20-3.28058E-19
 -1      3963 9.53453E-05-2.74675E-05-2.90913E-05 1.34460E-06-1.02589E-19-3.16412E-19
 -1      3964 9.50179E-05-2.72800E-05-2.90336E-05 1.43198E-06-2.31719E-19-2.19433E-20
 -1      3965 9.47008E-05-2.70570E-05-2.89909E-05 1.56615E-06-1.74417E-19 6.79931E-20
 -1      3966 9.51481E-05-2.72832E-05-2.90813E-05 1.07655E-06 4.14295E-20-3.21045E-20
 -1      3967 9.42907E-05-2.67701E-05-2.89419E-05 1.65828E-06-1.97601E-19 1.97342E-19
 -1      3968 9.39015E-05-2.64602E-05-2.89047E-05 1.80354E-06-4.07516E-19 1.80139E-19
 -1      3969 9.44181E-05-2.68067E-05-2.89712E-05 1.24209E-06-1.89360E-19 3.53024E-19
 -1      3970 9.34036E-05-2.60890E-05-2.88553E-05 1.90532E-06-5.73200E-19 1.27942E-19
 -1      3971 9.29314E-05-2.57033E-05-2.88142E-05 2.06891E-06-3.73943E-19 2.85753E-19
 -1      3972 9.35199E-05-2.61424E-05-2.88690E-05 1.41378E-06-2.13748E-19 3.44885E-19
 -1      3973 9.23323E-05-2.52585E-05-2.87539E-05 2.18374E-06-3.36064E-19 9.50033E-20
 -1      3974 9.17620E-05-2.48084E-05-2.86979E-05 2.37037E-06-2.04199E-19-1.88665E-19
 -1      3975 9.24356E-05-2.53181E-05-2.87551E-05 1.59272E-06-5.96984E-19 1.35625E-19
 -1      3976 9.10424E-05-2.43013E-05-2.86136E-05 2.49748E-06 6.58583E-20-6.52701E-19
 -1      3977 9.03532E-05-2.37997E-05-2.85285E-05 2.70978E-06 6.32264E-20-6.59558E-19
 -1      3978 9.11351E-05-2.43568E-05-2.86059E-05 1.78077E-06-2.50583E-19-4.51496E-19
 -1      3979 8.94849E-05-2.32407E-05-2.84039E-05 2.84651E-06 2.19354E-20-8.39095E-19
 -1      3980 8.86498E-05-2.26995E-05-2.82723E-05 3.08954E-06-2.40366E-19-7.50025E-19
 -1      3981 8.95695E-05-2.32807E-05-2.83913E-05 1.97164E-06 1.83789E-21-8.77358E-19
 -1      3982 8.75950E-05-2.21035E-05-2.80862E-05 3.24172E-06-3.70096E-19-6.92665E-19
 -1      3983 8.65841E-05-2.15455E-05-2.78844E-05 3.52807E-06-3.77894E-19-5.98034E-19
 -1      3984 8.76741E-05-2.21107E-05-2.80743E-05 2.15391E-06-2.52708E-19-1.02349E-18
 -1      3985 8.52894E-05-2.09319E-05-2.76078E-05 3.70181E-06-3.55260E-19-6.91990E-19
 -1      3986 8.40594E-05-2.03824E-05-2.73042E-05 4.06220E-06 1.55228E-19-1.19378E-18
 -1      3987 8.53656E-05-2.08782E-05-2.76042E-05 2.33926E-06-2.74176E-19-4.67649E-19
 -1      3988 8.24255E-05-1.97550E-05-2.68964E-05 4.27984E-06 3.53850E-19-1.39191E-18
 -1      3989 8.09014E-05-1.92459E-05-2.64430E-05 4.79718E-06 1.79263E-19-1.66143E-18
 -1      3990 8.25067E-05-1.96004E-05-2.69119E-05 2.52446E-06 8.46698E-20-3.58671E-19
 -1      3991 7.89644E-05-1.86727E-05-2.58964E-05 5.04653E-06 3.22766E-19-2.00900E-18
 -1      3992 7.70829E-05-1.82679E-05-2.52312E-05 5.84315E-06 4.34751E-19-1.97639E-18
 -1      3993 7.46802E-05-1.69882E-05-2.46080E-05 2.92827E-06 6.73561E-19-1.68429E-18
 -1      3994 7.90253E-05-1.83111E-05-2.59460E-05 2.70817E-06 5.72880E-20-1.33362E-18
 -1      3995 9.18422E-05-2.49665E-05-2.86700E-05 3.46317E-06-1.74602E-18 7.04380E-20
 -1      3996 9.15681E-05-2.47947E-05-2.86113E-05 3.89456E-06-2.00137E-18 2.38344E-19
 -1      3997 8.67543E-05-2.93968E-05-2.46892E-05 1.76771E-05-1.23481E-18-2.40756E-19
 -1      3998 7.92641E-05-2.39460E-05-2.34475E-05 1.66426E-05-1.42686E-18-6.72339E-19
 -1      3999 9.10362E-05-2.40983E-05-2.86843E-05-1.98069E-06 3.46181E-19 1.30222E-19
 -1      4000 9.15997E-05-2.45695E-05-2.87357E-05-1.64336E-06 4.02834E-19 5.39208E-19
 -1      4001 9.13880E-05-2.44166E-05-2.86984E-05-9.64535E-07 1.09378E-19 2.65749E-19
 -1      4002 8.12902E-05-1.92757E-05-2.65910E-05-5.08844E-06-8.87199E-19-4.59910E-19
 -1      4003 8.27024E-05-1.97350E-05-2.70237E-05-4.53189E-06-8.16685E-19-9.20059E-20
 -1      4004 7.91753E-05-1.82630E-05-2.60307E-05-3.26801E-06-3.35901E-19-9.96094E-19
 -1      4005 8.42612E-05-2.03099E-05-2.74187E-05-4.24261E-06-1.00358E-18 1.41462E-19
 -1      4006 8.54111E-05-2.08157E-05-2.77089E-05-3.83237E-06-1.64882E-18-8.00879E-19
 -1      4007 8.26488E-05-1.94893E-05-2.70215E-05-2.82667E-06-9.07371E-19-7.77665E-19
 -1      4008 8.66400E-05-2.13874E-05-2.79748E-05-3.60709E-06-1.33277E-18-4.33739E-19
 -1      4009 8.75774E-05-2.18997E-05-2.81660E-05-3.27240E-06-7.25262E-19-6.42144E-19
 -1      4010 8.53802E-05-2.06894E-05-2.76907E-05-2.51166E-06-1.43561E-18-8.93182E-19
 -1      4011 8.85585E-05-2.24384E-05-2.83433E-05-3.07685E-06-9.18232E-19-1.18387E-18
 -1      4012 8.93065E-05-2.29310E-05-2.84646E-05-2.77714E-06-8.07327E-19-1.25564E-18
 -1      4013 8.75544E-05-2.18383E-05-2.81415E-05-2.23846E-06-1.13045E-18-4.25419E-19
 -1      4014 8.99043E-05-2.32974E-05-2.85471E-05-2.47353E-06-3.91018E-19-7.22685E-19
 -1      4015 9.05142E-05-2.37571E-05-2.86245E-05-2.22319E-06 1.71641E-19-4.84566E-19
 -1      4016 9.01788E-05-2.35165E-05-2.85587E-05-1.33029E-06 9.18769E-19-3.74771E-19
 -1      4017 8.90779E-05-2.27622E-05-2.84056E-05-1.82007E-06-4.78754E-19-1.86076E-18
 -1      4018 9.04709E-05-2.75017E-05-2.69286E-05-1.13538E-05-3.77806E-20 4.34723E-19
 -1      4019 8.96759E-05-2.63636E-05-2.71477E-05-1.03204E-05-3.11276E-19 4.47257E-19
 -1      4020 9.00858E-05-2.49539E-05-2.78930E-05-7.29996E-06-7.46269E-20 6.54858E-19
 -1      4021 9.01602E-05-2.47434E-05-2.80501E-05-6.58616E-06 1.10675E-19 1.16495E-18
 -1      4022 9.06642E-05-2.47710E-05-2.82262E-05-5.87845E-06-1.27396E-19 7.12172E-19
 -1      4023 9.08880E-05-2.47906E-05-2.83406E-05-5.30513E-06-1.67748E-19 6.78913E-19
 -1      4024 8.93044E-05-2.40167E-05-2.79729E-05-5.80788E-06-5.95102E-20 1.01228E-18
 -1      4025 9.23787E-05-2.52551E-05-2.87706E-05 8.99540E-07 6.34138E-19 1.79872E-19
 -1      4026 9.25577E-05-2.54084E-05-2.87822E-05 1.28249E-06 6.26215E-19-3.97205E-20
 -1      4027 9.20945E-05-2.50396E-05-2.87320E-05 1.69558E-06-5.59733E-19-2.56239E-19
 -1      4028 9.19519E-05-2.49038E-05-2.87319E-05 7.44181E-07-2.46301E-19-5.29470E-19
 -1      4029 8.17035E-05-2.55791E-05-2.40213E-05-1.65418E-05 4.86935E-19 1.15584E-18
 -1      4030 8.92400E-05-3.13135E-05-2.49136E-05-1.81738E-05 3.41665E-19 1.13324E-18
 -1      4031 9.15916E-05-3.08570E-05-2.59915E-05-1.51223E-05 4.81598E-19 5.78826E-19
 -1      4032 9.01951E-05-2.88931E-05-2.62852E-05-1.36494E-05 5.35920E-19 6.17113E-19
 -1      4033 9.50047E-05-2.31908E-05-3.07795E-05-6.22077E-07-1.27784E-19-7.42410E-19
 -1      4034 9.50952E-05-2.34444E-05-3.07175E-05-9.22298E-07-1.51586E-19-8.32515E-19
 -1      4035 9.54966E-05-2.43307E-05-3.04936E-05-6.18372E-07-2.10638E-19-8.12192E-19
 -1      4036 8.98891E-05-2.57551E-05-2.74536E-05-9.10632E-06-1.84929E-19 8.67511E-19
 -1      4037 8.96812E-05-2.51839E-05-2.76550E-05-8.22724E-06-7.08099E-20 7.19498E-19
 -1      4038 8.77144E-05-2.48168E-05-2.69611E-05-9.65808E-06-8.04044E-20 1.00997E-18
 -1      4039 8.97629E-05-2.68652E-05-2.69743E-05 1.10603E-05 3.80925E-20-1.47513E-18
 -1      4040 9.06996E-05-2.82856E-05-2.67420E-05 1.22611E-05 2.25625E-19-1.09552E-18
 -1      4041 9.49293E-05-2.30230E-05-3.08245E-05-2.14011E-07-5.14009E-20-6.90222E-19
 -1      4042 9.49701E-05-2.31253E-05-3.08010E-05-4.66981E-07-9.92358E-20-6.16790E-19
 -1      4043 9.54192E-05-2.40265E-05-3.05847E-05-3.49541E-07-1.23680E-19-6.33098E-19
 -1      4044 9.54109E-05-2.39484E-05-3.06089E-05-7.46963E-08-1.28868E-19-5.82386E-19
 -1      4045 9.11010E-05-2.45967E-05-2.85141E-05 4.37618E-06-7.32717E-19 9.64892E-19
 -1      4046 9.08583E-05-2.45150E-05-2.84241E-05 4.90288E-06 3.31600E-19 6.89005E-19
 -1      4047 9.06320E-05-2.41885E-05-2.84683E-05 3.74560E-06-1.17378E-18 5.93832E-20
 -1      4048 9.03786E-05-2.44169E-05-2.82832E-05 5.51962E-06 4.18784E-19 8.66516E-19
 -1      4049 9.02234E-05-2.44974E-05-2.81543E-05 6.16422E-06 2.40066E-19 9.52857E-19
 -1      4050 8.96802E-05-2.38202E-05-2.82193E-05 4.80416E-06 5.14023E-19 1.42486E-18
 -1      4051 9.24202E-05-2.53332E-05-2.87556E-05 2.79418E-06-1.53722E-19-8.09841E-20
 -1      4052 9.21487E-05-2.51294E-05-2.87175E-05 3.14855E-06-1.47917E-18-6.32957E-20
 -1      4053 9.13873E-05-2.46024E-05-2.86179E-05 2.98407E-06-1.19392E-18-2.48938E-18
 -1      4054 9.19684E-05-2.49871E-05-2.87065E-05 2.42281E-06-1.08248E-18-2.19935E-18
 -1      4055 9.60669E-05-2.61537E-05-2.99769E-05 5.38673E-08 5.71003E-21-6.40498E-20
 -1      4056 9.58728E-05-2.54196E-05-3.01762E-05 4.95820E-07 1.31175E-19-6.53400E-20
 -1      4057 9.53946E-05-2.77989E-05-2.89672E-05-2.17712E-06 2.53284E-19 2.80536E-21
 -1      4058 9.55304E-05-2.78824E-05-2.89935E-05-1.99670E-06 5.30440E-19 6.06738E-20
 -1      4059 9.56373E-05-2.78083E-05-2.90692E-05-1.74342E-06 3.94097E-19 2.44082E-19
 -1      4060 9.52208E-05-2.75958E-05-2.89813E-05-2.07540E-06 1.75302E-19 1.10869E-19
 -1      4061 9.53793E-05-3.47269E-05-2.59064E-05 1.67196E-05-1.96190E-18-3.80348E-19
 -1      4062 9.62607E-05-2.71341E-05-2.96312E-05-5.43971E-07 1.47447E-19-2.82759E-19
 -1      4063 9.62387E-05-2.67425E-05-2.97780E-05-2.45697E-07 4.59973E-20-3.26086E-20
 -1      4064 9.37721E-05-2.64829E-05-2.88352E-05-2.66703E-06-5.96188E-20 3.89194E-19
 -1      4065 9.40684E-05-2.67298E-05-2.88653E-05-2.43021E-06 2.53904E-19 7.64695E-19
 -1      4066 9.61884E-05-2.76232E-05-2.93875E-05-9.61898E-07 1.00070E-19 6.96845E-20
 -1      4067 9.62546E-05-2.74257E-05-2.94964E-05-7.36831E-07 5.33531E-20 1.74873E-20
 -1      4068 9.62797E-05-2.71252E-05-2.96344E-05-5.14514E-07-3.13910E-20-4.66810E-20
 -1      4069 7.15500E-05-1.96725E-05-2.24264E-05 1.31956E-05-2.69835E-18-1.33952E-18
 -1      4070 6.60762E-05-1.58610E-05-2.12888E-05 8.37068E-06-1.79072E-18-1.12807E-18
 -1      4071 6.81754E-05-1.58345E-05-2.23508E-05 3.43259E-06-8.44022E-19-1.13873E-18
 -1      4072 9.60138E-05-2.76471E-05-2.93006E-05 9.64997E-07-1.71185E-19-2.00772E-19
 -1      4073 9.58372E-05-2.76546E-05-2.92225E-05 1.11707E-06-2.60947E-19-3.03418E-19
 -1      4074 9.57137E-05-2.75340E-05-2.92169E-05 9.03306E-07-2.21147E-19-6.25147E-19
 -1      4075 8.97809E-05-2.45792E-05-2.79583E-05 6.95977E-06-1.85775E-19 4.02550E-19
 -1      4076 8.98075E-05-2.49251E-05-2.77847E-05 7.75024E-06-4.21696E-20-1.81401E-19
 -1      4077 8.87459E-05-2.37132E-05-2.78665E-05 6.18495E-06-1.96739E-19 4.07795E-19
 -1      4078 7.16127E-05-1.75801E-05-2.31887E-05-7.37637E-06 8.07229E-20 9.77000E-20
 -1      4079 7.56052E-05-2.10877E-05-2.34082E-05-1.34531E-05 3.56092E-19 7.24279E-19
 -1      4080 9.62652E-05-2.67699E-05-2.97838E-05 2.78256E-07-2.73561E-19-6.76370E-19
 -1      4081 9.62860E-05-2.71358E-05-2.96387E-05 5.24313E-07-2.52431E-19-4.32409E-19
 -1      4082 7.16388E-05-1.85127E-05-2.28127E-05-1.18294E-05-2.99903E-19-7.76835E-19
 -1      4083 9.54644E-05-2.43940E-05-3.04670E-05 9.23105E-07 8.89285E-20-2.64149E-19
 -1      4084 9.53502E-05-2.40689E-05-3.05555E-05 7.11536E-07 7.10980E-20-3.53083E-19
 -1      4085 8.94808E-05-2.52964E-05-2.75237E-05 8.78457E-06 2.46242E-19-6.21521E-20
 -1      4086 8.98232E-05-2.60473E-05-2.73057E-05 9.75124E-06-1.07317E-19-8.90392E-19
 -1      4087 8.79430E-05-2.40400E-05-2.73869E-05 8.00176E-06-7.48017E-20 6.45984E-19
 -1      4088 9.62548E-05-2.74041E-05-2.95073E-05 6.66495E-07-2.12206E-19-3.23017E-19
 -1      4089 9.61633E-05-2.75691E-05-2.94000E-05 8.55085E-07-1.20566E-19-2.55481E-19
 -1      4090 9.62859E-05-2.71482E-05-2.96279E-05 4.54431E-07-9.12382E-20-5.29883E-19
 -1      4091 9.32504E-05-3.28106E-05-2.58678E-05-1.60463E-05 3.09184E-19 8.03305E-19
 -1      4092 8.58096E-05-2.58724E-05-2.56160E-05 1.35292E-05-4.98181E-19-5.37045E-19
 -1      4093 8.89577E-05-2.84662E-05-2.59746E-05 1.41474E-05-2.86846E-19-1.22633E-18
 -1      4094 9.29229E-05-2.58967E-05-2.87227E-05-4.11911E-06-4.70822E-20 9.59052E-20
 -1      4095 7.47375E-05-1.77278E-05-2.44923E-05-7.10354E-06 2.21976E-20-8.43691E-19
 -1      4096 7.44130E-05-1.68742E-05-2.45575E-05-3.97822E-06-2.74719E-19-6.39639E-19
 -1      4097 9.61035E-05-2.75114E-05-2.93941E-05 7.02348E-07-1.93509E-19-3.48877E-19
 -1      4098 8.71221E-05-2.66258E-05-2.59622E-05-1.32825E-05 3.88835E-19 9.44237E-19
 -1      4099 8.12084E-05-2.35865E-05-2.45973E-05-1.31847E-05 3.37192E-19 8.82432E-19
 -1      4100 9.30749E-05-3.21844E-05-2.60185E-05 1.56921E-05-1.08282E-18-9.03073E-19
 -1      4101 7.68512E-05-2.14438E-05-2.37316E-05 1.26116E-05-1.96842E-18-3.94886E-19
 -1      4102 9.06210E-05-2.38822E-05-2.85995E-05-3.93028E-07 9.45474E-19 6.71095E-19
 -1      4103 9.13007E-05-2.44043E-05-2.86768E-05-2.81372E-07-1.17337E-19 9.63650E-19
 -1      4104 9.13127E-05-2.44161E-05-2.86665E-05 2.80838E-07 3.84728E-20 1.35237E-19
 -1      4105 8.83754E-05-2.41014E-05-2.75374E-05-7.44255E-06-6.06925E-20 1.02879E-18
 -1      4106 9.03547E-05-2.43241E-05-2.82892E-05-4.59287E-06-3.44639E-19 1.01032E-18
 -1      4107 9.14179E-05-2.49756E-05-2.84666E-05-4.76926E-06 2.60607E-20 2.85369E-19
 -1      4108 9.17011E-05-2.51305E-05-2.85462E-05-4.31746E-06-1.97448E-19 3.31351E-19
 -1      4109 9.57008E-05-2.47925E-05-3.03918E-05-3.25614E-07-2.58592E-19-7.21389E-19
 -1      4110 9.57650E-05-2.50209E-05-3.03231E-05-4.52635E-07-3.34047E-19-8.15212E-19
 -1      4111 9.59754E-05-2.55953E-05-3.01571E-05-1.77344E-07-3.57492E-19-8.08205E-19
 -1      4112 9.44504E-05-2.69942E-05-2.89074E-05-2.23814E-06 1.40692E-19 9.38562E-19
 -1      4113 9.47178E-05-2.72058E-05-2.89381E-05-2.04326E-06 1.84130E-19 8.69115E-19
 -1      4114 9.40764E-05-2.66754E-05-2.88826E-05-2.01436E-06 1.19540E-19 8.72197E-19
 -1      4115 7.34329E-05-1.80340E-05-2.36853E-05-9.05775E-06-2.64585E-19-1.14166E-18
 -1      4116 8.75282E-05-2.51016E-05-2.67585E-05 1.04426E-05-3.55999E-19 3.04014E-19
 -1      4117 9.61275E-05-2.61968E-05-2.99711E-05-3.22187E-08 6.71836E-21-1.45260E-19
 -1      4118 9.33437E-05-2.61893E-05-2.87876E-05-2.91083E-06-3.14158E-19 3.54717E-19
 -1      4119 9.32719E-05-2.60880E-05-2.87874E-05-2.43852E-06-7.17523E-20 4.84533E-19
 -1      4120 9.30242E-05-2.59305E-05-2.87504E-05-3.20294E-06-1.35946E-19 4.29855E-19
 -1      4121 9.60712E-05-2.77370E-05-2.92861E-05-1.11195E-06 2.91989E-19 1.53037E-19
 -1      4122 9.61570E-05-2.75647E-05-2.93946E-05-8.56449E-07 7.29917E-20 2.76852E-19
 -1      4123 9.59361E-05-2.77852E-05-2.92081E-05-1.29336E-06 3.77947E-19 1.67298E-19
 -1      4124 9.56960E-05-2.47337E-05-3.04195E-05 8.26626E-09-1.44749E-19-4.72876E-19
 -1      4125 9.56988E-05-2.47380E-05-3.04169E-05-1.01590E-07-8.16988E-20-6.00582E-19
 -1      4126 9.57215E-05-2.48403E-05-3.03815E-05 2.38329E-07 5.35666E-20-4.74611E-19
 -1      4127 9.57036E-05-2.47614E-05-3.04092E-05 9.56262E-08-4.39864E-20-3.11979E-19
 -1      4128 9.59933E-05-2.54379E-05-3.02250E-05 3.16968E-08-9.18237E-20-2.53349E-19
 -1      4129 7.30833E-05-1.68454E-05-2.41493E-05-1.03708E-07 6.94420E-19-6.15657E-19
 -1      4130 7.15747E-05-1.65373E-05-2.34823E-05-3.78929E-06 2.50364E-19-3.37676E-19
 -1      4131 7.50221E-05-1.83160E-05-2.42984E-05-6.27365E-06 3.09187E-19 1.39714E-19
 -1      4132 7.55855E-05-1.75094E-05-2.49348E-05 1.15809E-08 4.33549E-19-5.39237E-19
 -1      4133 6.88533E-05-1.56856E-05-2.28121E-05-3.15619E-06-4.45321E-19-2.44812E-19
 -1      4134 6.95232E-05-1.63415E-05-2.27280E-05-7.07449E-06-1.00929E-19-1.11997E-18
 -1      4135 9.61028E-05-2.60411E-05-3.00319E-05-6.70464E-08-2.44103E-19-8.22170E-19
 -1      4136 9.62069E-05-2.64608E-05-2.98920E-05 1.61474E-07-2.40126E-19-7.95251E-19
 -1      4137 9.62426E-05-2.65361E-05-2.98717E-05 1.84864E-07-1.34498E-19-7.74185E-19
 -1      4138 9.60807E-05-2.58580E-05-3.01002E-05-3.91952E-08-2.67897E-19-7.17839E-19
 -1      4139 9.22258E-05-2.53941E-05-2.86349E-05-3.88299E-06-7.40782E-21 4.97607E-19
 -1      4140 9.25474E-05-2.56306E-05-2.86884E-05-3.51957E-06-4.52680E-20 6.53027E-19
 -1      4141 9.23713E-05-2.54470E-05-2.86706E-05-2.98029E-06-2.37667E-19 3.70527E-19
 -1      4142 9.61945E-05-2.74406E-05-2.94677E-05 4.24280E-07-6.26214E-20-5.41447E-19
 -1      4143 9.60473E-05-2.75315E-05-2.93654E-05 5.36683E-07-3.24091E-19-6.41732E-19
 -1      4144 9.52961E-05-2.73526E-05-2.91207E-05 6.89435E-07 1.50231E-19-2.41081E-19
 -1      4145 9.49688E-05-2.71676E-05-2.90596E-05 7.66751E-07 1.08912E-19-1.37380E-19
 -1      4146 9.45792E-05-2.69224E-05-2.89987E-05 7.91116E-07-8.54457E-20 1.64212E-19
 -1      4147 9.41682E-05-2.66338E-05-2.89461E-05 8.63699E-07-5.86512E-20 1.41971E-19
 -1      4148 9.47530E-05-2.69949E-05-2.90345E-05 3.98870E-07 1.88510E-19-5.35845E-19
 -1      4149 9.36923E-05-2.62945E-05-2.88886E-05 8.81876E-07-1.44208E-19-6.01965E-20
 -1      4150 9.31905E-05-2.59206E-05-2.88350E-05 9.50181E-07-3.80690E-19 6.19806E-21
 -1      4151 9.39003E-05-2.64135E-05-2.89149E-05 4.24403E-07-1.96385E-19-1.78024E-19
 -1      4152 9.26162E-05-2.54975E-05-2.87709E-05 9.69611E-07-6.76639E-19 7.09816E-20
 -1      4153 9.20212E-05-2.50519E-05-2.87060E-05 1.03866E-06-9.48187E-19-1.89922E-19
 -1      4154 9.28416E-05-2.56359E-05-2.87907E-05 4.24683E-07-4.60426E-19-3.01321E-20
 -1      4155 9.13404E-05-2.45701E-05-2.86233E-05 1.03727E-06-7.54874E-19 1.32641E-19
 -1      4156 9.06225E-05-2.40628E-05-2.85335E-05 1.09747E-06-1.98103E-19-1.17361E-19
 -1      4157 9.16171E-05-2.47493E-05-2.86424E-05 3.84532E-07-5.86366E-19 1.72035E-19
 -1      4158 8.98197E-05-2.35304E-05-2.84181E-05 1.06152E-06 4.43735E-20-3.71059E-19
 -1      4159 8.89340E-05-2.29689E-05-2.82871E-05 1.09706E-06-1.34428E-19-4.27696E-19
 -1      4160 9.01750E-05-2.37575E-05-2.84435E-05 2.95980E-07-4.19063E-19 2.34283E-19
 -1      4161 8.79765E-05-2.23894E-05-2.81208E-05 1.05415E-06-1.39983E-19-4.07643E-19
 -1      4162 8.69108E-05-2.17948E-05-2.79275E-05 1.06668E-06-1.66224E-19-9.99569E-20
 -1      4163 8.83798E-05-2.25943E-05-2.81556E-05 1.34492E-07-1.30363E-19 2.52210E-19
 -1      4164 8.57498E-05-2.11940E-05-2.76846E-05 9.57609E-07-1.72501E-19-9.23435E-20
 -1      4165 8.44411E-05-2.05746E-05-2.73992E-05 9.36980E-07-5.29131E-20 8.65006E-20
 -1      4166 8.63059E-05-2.14338E-05-2.77437E-05-1.91286E-07-7.14304E-20 9.23415E-20
 -1      4167 8.30070E-05-1.99692E-05-2.70454E-05 7.82347E-07-6.16833E-20 1.24645E-19
 -1      4168 8.13681E-05-1.93331E-05-2.66256E-05 7.18989E-07 2.84525E-20 1.33135E-19
 -1      4169 8.37135E-05-2.01995E-05-2.71458E-05-7.11547E-07-2.44556E-20 2.15069E-19
 -1      4170 7.74704E-05-1.78496E-05-2.56255E-05-9.66596E-07-8.30573E-19-1.55165E-18
 -1      4171 7.96269E-05-1.85268E-05-2.62264E-05-8.78031E-07-4.46854E-19-1.52990E-18
 -1      4172 8.14569E-05-1.91573E-05-2.67290E-05-1.11178E-06-6.01135E-19-1.58839E-18
 -1      4173 8.30219E-05-1.97623E-05-2.71353E-05-1.06979E-06-1.41773E-18-1.78164E-18
 -1      4174 8.05543E-05-1.88387E-05-2.63897E-05 1.00842E-06-7.94399E-19-2.33868E-18
 -1      4175 8.44280E-05-2.03560E-05-2.74795E-05-1.21977E-06-1.32803E-18-1.48048E-18
 -1      4176 8.56503E-05-2.09322E-05-2.77545E-05-1.17761E-06-7.12402E-19-7.66692E-19
 -1      4177 8.36734E-05-2.00288E-05-2.72299E-05 3.81349E-07-6.82772E-19-1.49189E-18
 -1      4178 8.67549E-05-2.14833E-05-2.79906E-05-1.23192E-06-1.25690E-18 9.25300E-20
 -1      4179 8.77302E-05-2.20344E-05-2.81741E-05-1.16295E-06-1.38260E-18 9.43759E-20
 -1      4180 8.60737E-05-2.11169E-05-2.78039E-05 1.57556E-08-4.92953E-19 5.90291E-19
 -1      4181 8.19060E-05-2.26453E-05-2.54227E-05-1.08161E-05 8.19339E-20 7.57748E-19
 -1      4182 8.66883E-05-2.31296E-05-2.72345E-05-7.03227E-06-1.85803E-19 1.17107E-18
 -1      4183 8.71082E-05-2.30523E-05-2.74896E-05-6.14268E-06-1.08348E-19 9.55568E-19
 -1      4184 9.57374E-05-2.48717E-05-3.03649E-05 3.80634E-07 1.17423E-19-3.12993E-19
 -1      4185 9.56910E-05-2.47340E-05-3.04150E-05-2.17207E-07-1.99741E-19-6.28850E-19
 -1      4186 8.90622E-05-2.33125E-05-2.82002E-05 3.84307E-06-4.66627E-20 2.64680E-19
 -1      4187 8.85928E-05-2.31276E-05-2.80468E-05 4.40627E-06 3.23631E-19-3.30309E-20
 -1      4188 9.58417E-05-2.75444E-05-2.92718E-05 5.71920E-07-3.84957E-19-5.34162E-19
 -1      4189 9.55986E-05-2.74838E-05-2.91939E-05 6.60170E-07-5.72082E-20-3.98388E-19
 -1      4190 9.54393E-05-2.73671E-05-2.91700E-05 3.57117E-07 6.50883E-20-6.21093E-19
 -1      4191 7.17777E-05-1.73303E-05-2.34380E-05 6.91884E-06-1.50788E-18-1.68062E-18
 -1      4192 6.94489E-05-1.57435E-05-2.29788E-05 1.52653E-06-6.01827E-19-1.28948E-18
 -1      4193 7.19920E-05-1.65281E-05-2.37768E-05 3.18646E-07-5.07403E-19-1.06525E-18
 -1      4194 9.02499E-05-2.38847E-05-2.84555E-05 2.93931E-06-3.89707E-19-8.03757E-19
 -1      4195 8.97798E-05-2.36215E-05-2.83500E-05 3.36094E-06 8.19695E-20 4.94007E-19
 -1      4196 8.87775E-05-2.29389E-05-2.81905E-05 3.01157E-06-1.01586E-19-6.23904E-19
 -1      4197 8.80233E-05-2.32326E-05-2.77565E-05-5.35113E-06-4.46920E-19 1.18259E-18
 -1      4198 8.85316E-05-2.33781E-05-2.79485E-05-4.71092E-06-4.38641E-19 8.68688E-19
 -1      4199 8.64903E-05-2.22728E-05-2.74678E-05-4.93325E-06-4.11357E-19 7.63097E-19
 -1      4200 8.51624E-05-2.31064E-05-2.66258E-05 8.86337E-06-5.62605E-19 1.65460E-18
 -1      4201 8.49742E-05-2.37479E-05-2.62443E-05 1.03376E-05-6.98119E-19 1.22514E-18
 -1      4202 9.63030E-05-2.72300E-05-2.96081E-05-4.90622E-07-2.23276E-19-2.92426E-20
 -1      4203 9.63180E-05-2.69082E-05-2.97449E-05-2.90299E-07-1.97901E-19-3.08441E-19
 -1      4204 8.12705E-05-2.34397E-05-2.48698E-05 1.29515E-05-2.00565E-18-5.01066E-19
 -1      4205 7.55478E-05-1.92507E-05-2.40029E-05 9.64629E-06-2.50529E-18-1.03216E-19
 -1      4206 7.62815E-05-1.91027E-05-2.45296E-05 7.82399E-06-1.77358E-18-1.17155E-18
 -1      4207 8.35506E-05-2.36498E-05-2.57332E-05 1.13759E-05-1.51042E-18 3.82176E-19
 -1      4208 8.77788E-05-2.29008E-05-2.78326E-05 5.05657E-06 2.32950E-19 1.49234E-19
 -1      4209 8.73451E-05-2.28647E-05-2.76183E-05 5.80881E-06 1.24319E-19-1.47903E-19
 -1      4210 8.72879E-05-2.23304E-05-2.78163E-05 4.03659E-06 3.87896E-19-1.01411E-18
 -1      4211 7.47248E-05-1.71497E-05-2.46845E-05 2.45534E-07-6.47603E-19-1.59701E-18
 -1      4212 9.59744E-05-2.54050E-05-3.02331E-05-8.70209E-08-2.19796E-19-5.50575E-19
 -1      4213 8.64820E-05-2.28049E-05-2.73186E-05 6.68302E-06 2.19003E-19 1.21351E-18
 -1      4214 8.61172E-05-2.30143E-05-2.70308E-05 7.68239E-06 2.99415E-19 1.55594E-18
 -1      4215 8.38994E-05-2.18314E-05-2.65681E-05 7.46092E-06 2.42059E-19 2.70708E-18
 -1      4216 9.63217E-05-2.69658E-05-2.97242E-05 2.42350E-07 2.37668E-20-4.63398E-19
 -1      4217 9.62919E-05-2.72547E-05-2.95889E-05 3.78542E-07 3.68963E-20-4.75680E-19
 -1      4218 9.62413E-05-2.72720E-05-2.95561E-05 2.16741E-07 4.30103E-21-7.22183E-19
 -1      4219 7.89531E-05-2.03055E-05-2.50971E-05-8.63812E-06 1.16986E-19 4.56592E-19
 -1      4220 8.44922E-05-2.30621E-05-2.62968E-05-9.23643E-06 2.17206E-19 6.49727E-19
 -1      4221 9.59827E-05-2.54958E-05-3.01998E-05 1.98677E-07 7.01645E-20-3.08717E-19
 -1      4222 8.47548E-05-2.26465E-05-2.66445E-05-7.99879E-06 1.27969E-20 9.68704E-19
 -1      4223 8.07653E-05-1.91262E-05-2.63382E-05-1.44733E-06-2.14483E-19 3.93458E-19
 -1      4224 7.97280E-05-1.87281E-05-2.61673E-05 4.16205E-07-2.93573E-20-2.43138E-19
 -1      4225 7.78275E-05-1.81483E-05-2.56148E-05 3.31135E-07 9.37378E-20-3.33792E-19
 -1      4226 9.61742E-05-2.62117E-05-2.99898E-05-9.18616E-08-6.44529E-21-3.50676E-19
 -1      4227 7.60101E-05-1.75009E-05-2.49690E-05 2.94957E-06-8.08715E-19-2.56211E-18
 -1      4228 9.62110E-05-2.63250E-05-2.99506E-05-9.61446E-08-1.17774E-19-3.97664E-19
 -1      4229 9.00268E-05-2.35001E-05-2.85234E-05-4.88428E-07 1.18844E-18 1.61007E-18
 -1      4230 9.00247E-05-2.34812E-05-2.85020E-05 2.20062E-07 3.66934E-19 1.61817E-18
 -1      4231 8.95165E-05-2.31297E-05-2.84535E-05-6.81140E-07 7.93312E-19 8.03170E-19
 -1      4232 9.62436E-05-2.74516E-05-2.94822E-05-5.80393E-07-1.19884E-19 5.92532E-20
 -1      4233 9.62754E-05-2.72342E-05-2.95871E-05-3.72709E-07-2.75835E-19-2.40744E-19
 -1      4234 9.61244E-05-2.75799E-05-2.93769E-05-7.34459E-07 1.07878E-19 1.07831E-19
 -1      4235 8.83664E-05-2.23857E-05-2.82788E-05-1.02153E-06-1.25961E-18 3.85262E-19
 -1      4236 8.89626E-05-2.27883E-05-2.83733E-05-7.74173E-07-4.30335E-19 8.43631E-19
 -1      4237 8.89258E-05-2.27613E-05-2.83364E-05 8.03906E-08-7.45356E-19 4.12765E-18
 -1      4238 8.77936E-05-2.20634E-05-2.81441E-05-4.74136E-08-1.53639E-18 2.98232E-18
 -1      4239 8.93431E-05-2.36645E-05-2.81391E-05-4.12671E-06-3.05524E-19 5.75798E-19
 -1      4240 8.98414E-05-2.39161E-05-2.82738E-05-3.63600E-06-2.17208E-19 6.58478E-19
 -1      4241 8.81565E-05-2.28827E-05-2.79381E-05-3.70006E-06-3.96574E-19 5.90271E-19
 -1      4242 9.16080E-05-2.46843E-05-2.86806E-05 1.42224E-06-1.07107E-18-2.13517E-19
 -1      4243 9.17294E-05-2.48035E-05-2.86892E-05 1.88370E-06-1.07547E-18-1.12416E-18
 -1      4244 9.14456E-05-2.45910E-05-2.86496E-05 2.13420E-06-1.02613E-18-1.72931E-18
 -1      4245 9.12540E-05-2.44018E-05-2.86527E-05 8.03398E-07-6.67838E-19 3.08921E-19
 -1      4246 9.62544E-05-2.64121E-05-2.99253E-05 9.69174E-08-2.09119E-19-4.48121E-19
 -1      4247 9.63021E-05-2.67212E-05-2.98209E-05 2.03514E-07-7.87250E-20-4.74780E-19
 -1      4248 9.63072E-05-2.68432E-05-2.97735E-05 1.17919E-07-4.89774E-20-2.56514E-19
 -1      4249 8.36930E-05-2.14527E-05-2.66168E-05-6.42967E-06-1.60560E-20 4.17010E-19
 -1      4250 9.37290E-05-2.63960E-05-2.88564E-05-1.69214E-06 2.65227E-19 3.89164E-19
 -1      4251 9.41156E-05-2.66857E-05-2.89033E-05-1.51357E-06 3.61591E-20 2.08822E-19
 -1      4252 9.59464E-05-2.74826E-05-2.93381E-05 2.99404E-07-2.30978E-19-7.26745E-19
 -1      4253 9.13578E-05-2.48004E-05-2.85111E-05-3.67242E-06-5.14723E-20 8.97003E-19
 -1      4254 9.50457E-05-2.74147E-05-2.89831E-05-1.89053E-06 1.41021E-19 5.03258E-19
 -1      4255 9.52774E-05-2.75655E-05-2.90221E-05-1.72052E-06 1.27443E-19 3.57732E-19
 -1      4256 9.47825E-05-2.71701E-05-2.89741E-05-1.68095E-06-9.15428E-20 5.79199E-19
 -1      4257 9.57347E-05-2.77606E-05-2.91331E-05-1.42405E-06 3.38258E-19 3.20522E-19
 -1      4258 9.58417E-05-2.76714E-05-2.92142E-05-1.13822E-06 1.84696E-19 3.59380E-19
 -1      4259 9.55462E-05-2.76953E-05-2.90783E-05-1.58856E-06 1.76541E-19 4.35330E-19
 -1      4260 7.78579E-05-1.90342E-05-2.52532E-05-5.42614E-06 2.17110E-19 3.30293E-19
 -1      4261 9.06980E-05-2.41168E-05-2.85322E-05 2.63271E-06-6.81584E-19-1.05519E-18
 -1      4262 8.99282E-05-2.35529E-05-2.84236E-05 2.27390E-06-9.20410E-19-2.19646E-19
 -1      4263 9.09985E-05-2.43156E-05-2.85860E-05 2.34429E-06-6.36497E-19-1.53469E-18
 -1      4264 8.12232E-05-2.13376E-05-2.55937E-05 9.52025E-06-2.12489E-18 1.86840E-18
 -1      4265 8.56746E-05-2.19298E-05-2.72970E-05 5.43346E-06 8.76973E-19 9.31608E-19
 -1      4266 9.27843E-05-2.57262E-05-2.87438E-05-2.08175E-06-1.30942E-19 5.12798E-19
 -1      4267 9.32324E-05-2.60547E-05-2.87981E-05-1.84839E-06 4.59753E-20 4.64633E-19
 -1      4268 9.33155E-05-2.60664E-05-2.88192E-05-1.31552E-06 6.32239E-20 8.70732E-20
 -1      4269 9.41366E-05-2.66118E-05-2.89418E-05-3.68170E-08-1.82451E-19-1.64538E-19
 -1      4270 9.36510E-05-2.62732E-05-2.88818E-05-3.23900E-08-1.92776E-19-2.91776E-20
 -1      4271 9.30521E-05-2.58537E-05-2.88027E-05-5.06551E-07-2.78350E-20 1.56119E-19
 -1      4272 9.24796E-05-2.54436E-05-2.87362E-05-5.54741E-07-2.02157E-20 4.12721E-19
 -1      4273 9.05744E-05-2.41118E-05-2.84973E-05-4.39816E-07-5.10381E-19 6.03539E-19
 -1      4274 8.97427E-05-2.35735E-05-2.83770E-05-5.09055E-07-5.48786E-19 4.42878E-19
 -1      4275 8.89488E-05-2.31500E-05-2.82080E-05-1.46719E-06-3.50498E-19 5.78130E-19
 -1      4276 8.79603E-05-2.26265E-05-2.80333E-05-1.67563E-06-3.03759E-19 3.14199E-19
 -1      4277 8.70866E-05-2.22115E-05-2.78310E-05-2.13763E-06-2.38432E-19 5.31655E-19
 -1      4278 8.59098E-05-2.16665E-05-2.75816E-05-2.43462E-06-1.62637E-19 3.53944E-19
 -1      4279 8.49502E-05-2.13387E-05-2.72989E-05-3.09450E-06-9.00717E-20 1.95103E-20
 -1      4280 8.35670E-05-2.07945E-05-2.69528E-05-3.53731E-06-1.43597E-19 3.75518E-19
 -1      4281 8.32620E-05-2.01494E-05-2.70751E-05 1.97213E-06 2.09998E-19-1.21834E-18
 -1      4282 8.45432E-05-2.06193E-05-2.74039E-05 1.62933E-06 1.29166E-18 1.41299E-20
 -1      4283 8.63002E-05-2.15534E-05-2.77751E-05 1.95748E-06 4.28087E-19 1.37817E-20
 -1      4284 8.73998E-05-2.20700E-05-2.80085E-05 1.67985E-06-4.06203E-19 1.13924E-18
 -1      4285 9.60590E-05-2.74919E-05-2.93888E-05 2.48492E-08-1.39840E-19-5.94323E-19
 -1      4286 9.58511E-05-2.75091E-05-2.92918E-05 5.16965E-08-2.10047E-19-4.37321E-19
 -1      4287 9.42246E-05-2.67055E-05-2.89334E-05-1.07323E-06 7.06434E-20 8.94317E-20
 -1      4288 9.45346E-05-2.69666E-05-2.89575E-05-1.39836E-06-8.18599E-20 4.77415E-19
 -1      4289 9.48639E-05-2.71893E-05-2.90068E-05-1.25367E-06-1.65080E-20 5.49052E-19
 -1      4290 9.04961E-05-2.41852E-05-2.84158E-05-2.68051E-06-3.49746E-19 5.96489E-19
 -1      4291 9.10434E-05-2.45444E-05-2.85123E-05-2.33955E-06-4.15794E-19 3.32906E-19
 -1      4292 9.55995E-05-2.74517E-05-2.92076E-05 2.06834E-08 1.01225E-19-5.91711E-19
 -1      4293 9.52966E-05-2.73259E-05-2.91330E-05 4.09072E-08 3.61881E-19-4.09976E-19
 -1      4294 9.57263E-05-2.74682E-05-2.92506E-05-2.56881E-07-2.20803E-20-2.04027E-19
 -1      4295 8.27175E-05-2.06982E-05-2.66183E-05 5.41869E-06 6.14531E-19 1.14548E-19
 -1      4296 8.16237E-05-2.06418E-05-2.61537E-05 6.54521E-06-6.92569E-19-8.44589E-19
 -1      4297 9.61609E-05-2.60399E-05-3.00567E-05-4.65232E-10 1.52106E-21-2.43259E-19
 -1      4298 9.61449E-05-2.60003E-05-3.00704E-05-1.79172E-08-6.99270E-20-3.19271E-19
 -1      4299 9.62780E-05-2.72708E-05-2.95776E-05-1.19416E-07-1.58529E-19-3.36647E-19
 -1      4300 9.61728E-05-2.74395E-05-2.94567E-05-9.48608E-08-1.26369E-19-3.79951E-19
 -1      4301 7.70394E-05-1.80555E-05-2.52204E-05-2.56377E-06 6.85973E-20 4.50789E-19
 -1      4302 7.96231E-05-1.88334E-05-2.60368E-05 2.99934E-06-5.56694E-19-3.40216E-18
 -1      4303 8.14806E-05-1.95054E-05-2.65703E-05 2.37600E-06-1.00948E-18-3.09208E-18
 -1      4304 7.85624E-05-1.93360E-05-2.53974E-05 5.70159E-06-1.30971E-18-1.63471E-18
 -1      4305 9.17104E-05-2.49850E-05-2.86043E-05-2.35334E-06-3.22656E-19 3.03483E-19
 -1      4306 9.22192E-05-2.53294E-05-2.86760E-05-2.06539E-06-1.53786E-19 3.29230E-19
 -1      4307 9.22654E-05-2.52803E-05-2.86911E-05-1.43837E-06 7.35860E-20 6.77237E-19
 -1      4308 9.10345E-05-2.44108E-05-2.85329E-05-1.33715E-06-4.16418E-19 5.42487E-19
 -1      4309 8.81494E-05-2.24577E-05-2.81710E-05 1.31897E-06-7.52066E-19 1.29347E-18
 -1      4310 9.49547E-05-2.71405E-05-2.90648E-05 2.95953E-09 3.22120E-19-3.11456E-19
 -1      4311 9.45658E-05-2.69008E-05-2.90023E-05 1.29505E-08 1.12633E-19-1.53834E-19
 -1      4312 9.43724E-05-2.67666E-05-2.89709E-05-4.39587E-07 9.02713E-21 9.39698E-20
 -1      4313 9.51364E-05-2.72322E-05-2.90987E-05-3.36720E-07 2.94690E-19-1.63143E-19
 -1      4314 8.53876E-05-2.14443E-05-2.74239E-05 3.90980E-06 1.51901E-18 9.08273E-19
 -1      4315 8.45201E-05-2.12272E-05-2.71260E-05 4.65551E-06 1.86944E-18 1.40365E-18
 -1      4316 9.61631E-05-2.60659E-05-3.00460E-05 2.24346E-08-1.12480E-19-4.87704E-19
 -1      4317 9.61418E-05-2.60511E-05-3.00436E-05-2.36511E-09-2.75364E-19-4.67408E-19
 -1      4318 8.14141E-05-1.99929E-05-2.63538E-05-4.06874E-06 4.58324E-20-3.57425E-21
 -1      4319 9.63034E-05-2.65319E-05-2.98915E-05 1.10342E-08-7.71605E-20-1.57019E-19
 -1      4320 9.19152E-05-2.50432E-05-2.86698E-05-4.79745E-07-2.01549E-19 3.57395E-19
 -1      4321 8.96164E-05-2.35738E-05-2.82867E-05-2.20384E-06-4.34130E-19 4.40502E-19
 -1      4322 9.12541E-05-2.45719E-05-2.85852E-05-5.44622E-07-1.55849E-19 6.33909E-19
 -1      4323 9.38755E-05-2.64507E-05-2.88943E-05-8.40298E-07 1.67315E-19 2.67051E-20
 -1      4324 9.42892E-05-2.67480E-05-2.89502E-05-7.42482E-07-3.60341E-21 6.06796E-20
 -1      4325 9.60908E-05-2.74935E-05-2.93997E-05-3.54586E-07-2.50159E-19-2.28546E-19
 -1      4326 9.63066E-05-2.67745E-05-2.97986E-05 2.75204E-08-6.15620E-20-1.34934E-19
 -1      4327 9.59261E-05-2.76394E-05-2.92680E-05-8.65431E-07 2.58081E-19 2.84318E-19
 -1      4328 9.60140E-05-2.75335E-05-2.93470E-05-5.94445E-07 5.22938E-20 2.48025E-19
 -1      4329 9.58936E-05-2.75505E-05-2.92887E-05-4.72382E-07-2.88359E-20 1.08031E-19
 -1      4330 9.57246E-05-2.76140E-05-2.91902E-05-9.98424E-07 1.92223E-19 3.96090E-19
 -1      4331 8.54227E-05-2.11906E-05-2.75375E-05 2.44167E-06 9.82674E-19 5.76543E-19
 -1      4332 8.27766E-05-2.01887E-05-2.67964E-05 3.69584E-06 6.85183E-19-1.43401E-18
 -1      4333 9.63156E-05-2.67511E-05-2.98133E-05-1.50534E-07-1.21260E-19-3.14674E-19
 -1      4334 9.63292E-05-2.70063E-05-2.97073E-05-4.64926E-08-1.87819E-19-1.97087E-19
 -1      4335 9.08233E-05-2.41271E-05-2.85717E-05 1.79038E-06-9.16636E-19 6.99398E-20
 -1      4336 9.08678E-05-2.41375E-05-2.86036E-05 9.73124E-07-8.95822E-19 1.08567E-19
 -1      4337 9.53754E-05-2.75193E-05-2.90793E-05-1.40105E-06 2.37654E-19 2.84119E-19
 -1      4338 7.98885E-05-1.95841E-05-2.58939E-05-4.69854E-06 5.85627E-20 3.46432E-19
 -1      4339 8.01284E-05-1.97711E-05-2.59029E-05 5.24869E-06-8.93764E-19-1.84596E-18
 -1      4340 8.97928E-05-2.34366E-05-2.84527E-05 1.09601E-06-1.12365E-18 1.75696E-18
 -1      4341 9.03852E-05-2.38253E-05-2.85354E-05 1.14278E-06-1.39436E-18-9.29474E-20
 -1      4342 8.93035E-05-2.31403E-05-2.83670E-05 1.35948E-06-5.75346E-19 1.56493E-18
 -1      4343 8.87671E-05-2.28223E-05-2.82796E-05 1.33683E-06-1.43397E-18 1.58634E-18
 -1      4344 9.51973E-05-2.73836E-05-2.90628E-05-1.18866E-06 3.42208E-20 2.68056E-19
 -1      4345 9.54661E-05-2.75191E-05-2.91227E-05-1.05901E-06 1.83425E-20 2.30945E-19
 -1      4346 9.55557E-05-2.74834E-05-2.91715E-05-7.85548E-07 1.65134E-19 4.44648E-19
 -1      4347 9.49688E-05-2.71886E-05-2.90459E-05-9.05409E-07-4.58837E-20 4.20436E-19
 -1      4348 9.33772E-05-2.60857E-05-2.88340E-05-9.61435E-07-2.90919E-21 1.39761E-19
 -1      4349 9.56409E-05-2.75023E-05-2.92051E-05-5.13861E-07 2.23733E-19 1.88266E-19
 -1      4350 9.47110E-05-2.70170E-05-2.90104E-05-6.71812E-07-1.51581E-19 7.19529E-20
 -1      4351 9.50421E-05-2.72241E-05-2.90680E-05-6.17808E-07 5.10562E-20 3.72335E-20
 -1      4352 9.53808E-05-2.73960E-05-2.91360E-05-5.69049E-07 1.86042E-19 2.82441E-19
 -3
    1PSTEP                         4           1           1          
  100CL  101 1.000000000        4352                     0    1           1
 -4  ERROR       1    1
 -5  STR(%)      1    1    0    0
 -1         1 1.18792E+01
 -1         2 2.54955E+01
 -1         3 1.66477E-02
 -1         4 2.00233E-02
 -1         5 1.40459E+01
 -1         6 1.31502E+01
 -1         7 1.31502E+01
 -1         8 3.65093E+00
 -1         9 1.81194E+00
 -1        10 1.28226E+00
 -1        11 1.04038E+00
 -1        12 8.94668E-01
 -1        13 8.04089E-01
 -1        14 7.50714E-01
 -1        15 7.52562E-01
 -1        16 8.08249E-01
 -1        17 8.95543E-01
 -1        18 1.04660E+00
 -1        19 1.30082E+00
 -1        20 1.82276E+00
 -1        21 3.49277E+00
 -1        22 8.63821E+00
 -1        23 1.31502E+01
 -1        24 4.33399E+00
 -1        25 3.36019E+00
 -1        26 2.13311E+00
 -1        27 1.38725E+00
 -1        28 1.04987E+00
 -1        29 8.20251E-01
 -1        30 6.52032E-01
 -1        31 5.25745E-01
 -1        32 4.31569E-01
 -1        33 3.63282E-01
 -1        34 3.15834E-01
 -1        35 3.34199E-01
 -1        36 3.95425E-01
 -1        37 4.75212E-01
 -1        38 5.71580E-01
 -1        39 6.78092E-01
 -1        40 8.11938E-01
 -1        41 1.05230E+00
 -1        42 1.31907E+00
 -1        43 1.64093E+00
 -1        44 1.87424E+00
 -1        45 1.87424E+00
 -1        46 1.90031E+00
 -1        47 1.90031E+00
 -1        48 2.42055E+00
 -1        49 4.48156E+00
 -1        50 5.42262E+00
 -1        51 5.42382E+00
 -1        52 5.42382E+00
 -1        53 4.37177E+00
 -1        54 2.39467E+00
 -1        55 1.89873E+00
 -1        56 1.89873E+00
 -1        57 1.85928E+00
 -1        58 1.85904E+00
 -1        59 1.61434E+00
 -1        60 1.28819E+00
 -1        61 1.02750E+00
 -1        62 7.86766E-01
 -1        63 6.49401E-01
 -1        64 5.34326E-01
 -1        65 4.27481E-01
 -1        66 3.34384E-01
 -1        67 2.55984E-01
 -1        68 1.90266E-01
 -1        69 1.64945E-01
 -1        70 1.32683E-01
 -1        71 7.39384E-02
 -1        72 1.40459E+01
 -1        73 3.40879E+00
 -1        74 2.42982E+00
 -1        75 1.68519E+00
 -1        76 1.16730E+00
 -1        77 9.41270E-01
 -1        78 7.77574E-01
 -1        79 6.48097E-01
 -1        80 5.45819E-01
 -1        81 4.66995E-01
 -1        82 4.08960E-01
 -1        83 3.68898E-01
 -1        84 3.43272E-01
 -1        85 3.40497E-01
 -1        86 3.84001E-01
 -1        87 4.27010E-01
 -1        88 4.59316E-01
 -1        89 4.69342E-01
 -1        90 5.06584E-01
 -1        91 6.48392E-01
 -1        92 7.58573E-01
 -1        93 8.38998E-01
 -1        94 1.06679E+00
 -1        95 1.11441E+00
 -1        96 1.32269E+00
 -1        97 1.50452E+00
 -1        98 2.19483E+00
 -1        99 2.63148E+00
 -1       100 2.94157E+00
 -1       101 2.94157E+00
 -1       102 2.91230E+00
 -1       103 2.22314E+00
 -1       104 1.34421E+00
 -1       105 9.39618E-01
 -1       106 7.70776E-01
 -1       107 8.96657E-01
 -1       108 9.03616E-01
 -1       109 9.03616E-01
 -1       110 8.19629E-01
 -1       111 6.92377E-01
 -1       112 5.80607E-01
 -1       113 4.63555E-01
 -1       114 3.53386E-01
 -1       115 2.80255E-01
 -1       116 2.25032E-01
 -1       117 1.73709E-01
 -1       118 1.25253E-01
 -1       119 8.84727E-02
 -1       120 5.54697E-02
 -1       121 2.29635E-02
 -1       122 2.29635E-02
 -1       123 2.26454E-02
 -1       124 1.41038E-02
 -1       125 8.85002E-03
 -1       126 1.71919E-02
 -1       127 2.28032E-02
 -1       128 2.48643E-02
 -1       129 2.48643E-02
 -1       130 2.36084E-02
 -1       131 1.83263E-02
 -1       132 1.03063E-02
 -1       133 1.49285E-02
 -1       134 2.37557E-02
 -1       135 3.19790E-02
 -1       136 3.39931E-02
 -1       137 2.54955E+01
 -1       138 4.76882E+01
 -1       139 4.76882E+01
 -1       140 2.11922E+01
 -1       141 1.19640E+01
 -1       142 1.23784E+01
 -1       143 1.23784E+01
 -1       144 1.27096E+01
 -1       145 1.27096E+01
 -1       146 1.18416E+01
 -1       147 2.54127E+01
 -1       148 3.04444E+01
 -1       149 3.04444E+01
 -1       150 2.56801E+01
 -1       151 2.41405E+01
 -1       152 2.44319E+01
 -1       153 4.50778E+01
 -1       154 4.50778E+01
 -1       155 1.72827E+01
 -1       156 1.19837E+01
 -1       157 1.19837E+01
 -1       158 1.20793E+01
 -1       159 1.20793E+01
 -1       160 1.22470E+01
 -1       161 2.38506E+01
 -1       162 3.27167E+01
 -1       163 3.27167E+01
 -1       164 2.51604E+01
 -1       165 6.06262E+00
 -1       166 2.28627E+00
 -1       167 1.50082E+00
 -1       168 1.15229E+00
 -1       169 9.68784E-01
 -1       170 8.60386E-01
 -1       171 7.92317E-01
 -1       172 7.52562E-01
 -1       173 7.95614E-01
 -1       174 8.63004E-01
 -1       175 9.76152E-01
 -1       176 1.16680E+00
 -1       177 1.52074E+00
 -1       178 2.25294E+00
 -1       179 3.92195E+00
 -1       180 1.40459E+01
 -1       181 4.33399E+00
 -1       182 3.36019E+00
 -1       183 2.13311E+00
 -1       184 1.46613E+00
 -1       185 1.04987E+00
 -1       186 8.20251E-01
 -1       187 6.52032E-01
 -1       188 5.25745E-01
 -1       189 4.31569E-01
 -1       190 3.63282E-01
 -1       191 3.15834E-01
 -1       192 2.90933E-01
 -1       193 3.34199E-01
 -1       194 3.95425E-01
 -1       195 4.75212E-01
 -1       196 5.98941E-01
 -1       197 7.84182E-01
 -1       198 9.80850E-01
 -1       199 1.16285E+00
 -1       200 1.35610E+00
 -1       201 1.64093E+00
 -1       202 1.87424E+00
 -1       203 1.85116E+00
 -1       204 1.90031E+00
 -1       205 1.74046E+00
 -1       206 2.64199E+00
 -1       207 4.48156E+00
 -1       208 5.42262E+00
 -1       209 5.42382E+00
 -1       210 4.37177E+00
 -1       211 2.56108E+00
 -1       212 1.68697E+00
 -1       213 1.89873E+00
 -1       214 1.85928E+00
 -1       215 1.85904E+00
 -1       216 1.61434E+00
 -1       217 1.33587E+00
 -1       218 1.14958E+00
 -1       219 9.65973E-01
 -1       220 7.70584E-01
 -1       221 5.88993E-01
 -1       222 4.32919E-01
 -1       223 3.34384E-01
 -1       224 2.58673E-01
 -1       225 1.98478E-01
 -1       226 1.64945E-01
 -1       227 1.32683E-01
 -1       228 7.41307E-02
 -1       229 3.40879E+00
 -1       230 2.42982E+00
 -1       231 1.68519E+00
 -1       232 1.16730E+00
 -1       233 9.41270E-01
 -1       234 7.77574E-01
 -1       235 6.48097E-01
 -1       236 5.45819E-01
 -1       237 4.66995E-01
 -1       238 4.08960E-01
 -1       239 3.68898E-01
 -1       240 3.43272E-01
 -1       241 3.27413E-01
 -1       242 3.40497E-01
 -1       243 3.84001E-01
 -1       244 4.27010E-01
 -1       245 4.59316E-01
 -1       246 4.69342E-01
 -1       247 5.38296E-01
 -1       248 6.48392E-01
 -1       249 7.58573E-01
 -1       250 8.38998E-01
 -1       251 1.06679E+00
 -1       252 1.11441E+00
 -1       253 1.32269E+00
 -1       254 1.59523E+00
 -1       255 2.19483E+00
 -1       256 2.63148E+00
 -1       257 2.94157E+00
 -1       258 2.91230E+00
 -1       259 2.22314E+00
 -1       260 1.34421E+00
 -1       261 9.39618E-01
 -1       262 7.41919E-01
 -1       263 7.70776E-01
 -1       264 8.96657E-01
 -1       265 9.03616E-01
 -1       266 8.19629E-01
 -1       267 6.92377E-01
 -1       268 5.80607E-01
 -1       269 4.75834E-01
 -1       270 3.74043E-01
 -1       271 2.80865E-01
 -1       272 2.25032E-01
 -1       273 1.73709E-01
 -1       274 1.25253E-01
 -1       275 8.84727E-02
 -1       276 5.54697E-02
 -1       277 3.45292E-02
 -1       278 3.71974E-02
 -1       279 3.71974E-02
 -1       280 1.96885E-02
 -1       281 3.15348E-02
 -1       282 4.30570E-02
 -1       283 4.85403E-02
 -1       284 4.89118E-02
 -1       285 4.89118E-02
 -1       286 4.50513E-02
 -1       287 3.49779E-02
 -1       288 2.00952E-02
 -1       289 3.97538E-02
 -1       290 3.97538E-02
 -1       291 4.76703E-02
 -1       292 3.03155E+01
 -1       293 2.95717E+01
 -1       294 4.76882E+01
 -1       295 2.26008E+01
 -1       296 1.10348E+01
 -1       297 1.19640E+01
 -1       298 1.23784E+01
 -1       299 1.19011E+01
 -1       300 1.27096E+01
 -1       301 1.18161E+01
 -1       302 1.18416E+01
 -1       303 2.77431E+01
 -1       304 3.12058E+01
 -1       305 3.12058E+01
 -1       306 2.91524E+01
 -1       307 2.91524E+01
 -1       308 3.72836E+01
 -1       309 4.50778E+01
 -1       310 1.97619E+01
 -1       311 1.06093E+01
 -1       312 1.18792E+01
 -1       313 1.19837E+01
 -1       314 1.16589E+01
 -1       315 1.20793E+01
 -1       316 1.18745E+01
 -1       317 1.22470E+01
 -1       318 2.58401E+01
 -1       319 3.27167E+01
 -1       320 3.11363E+01
 -1       321 3.03155E+01
 -1       322 1.03653E+00
 -1       323 2.46627E+00
 -1       324 7.90288E-01
 -1       325 6.90526E-01
 -1       326 6.27783E-01
 -1       327 5.83964E-01
 -1       328 5.87010E-01
 -1       329 6.30335E-01
 -1       330 6.96662E-01
 -1       331 7.91455E-01
 -1       332 9.26371E-01
 -1       333 1.14856E+00
 -1       334 1.31664E+00
 -1       335 2.20214E+00
 -1       336 1.91452E+00
 -1       337 1.74358E+00
 -1       338 1.28268E+00
 -1       339 9.23002E-01
 -1       340 6.75921E-01
 -1       341 5.74446E-01
 -1       342 4.84123E-01
 -1       343 4.05698E-01
 -1       344 3.39228E-01
 -1       345 2.83612E-01
 -1       346 2.36599E-01
 -1       347 2.67270E-01
 -1       348 3.14480E-01
 -1       349 3.86781E-01
 -1       350 5.34020E-01
 -1       351 7.01879E-01
 -1       352 8.83259E-01
 -1       353 1.06085E+00
 -1       354 1.20316E+00
 -1       355 1.33724E+00
 -1       356 1.46492E+00
 -1       357 1.48527E+00
 -1       358 1.36938E+00
 -1       359 1.60300E+00
 -1       360 1.77162E+00
 -1       361 2.36664E+00
 -1       362 3.06706E+00
 -1       363 3.54732E+00
 -1       364 3.05323E+00
 -1       365 2.31105E+00
 -1       366 1.71731E+00
 -1       367 1.54406E+00
 -1       368 1.37979E+00
 -1       369 1.47950E+00
 -1       370 1.45645E+00
 -1       371 1.32048E+00
 -1       372 1.19732E+00
 -1       373 1.05317E+00
 -1       374 8.77080E-01
 -1       375 7.00060E-01
 -1       376 5.39261E-01
 -1       377 4.02079E-01
 -1       378 2.90066E-01
 -1       379 2.01789E-01
 -1       380 1.47504E-01
 -1       381 1.03153E-01
 -1       382 7.06614E-02
 -1       383 1.14290E+00
 -1       384 9.02367E-01
 -1       385 7.13751E-01
 -1       386 5.52425E-01
 -1       387 4.64534E-01
 -1       388 4.05442E-01
 -1       389 3.59909E-01
 -1       390 3.21665E-01
 -1       391 2.91520E-01
 -1       392 2.68779E-01
 -1       393 2.62570E-01
 -1       394 2.95215E-01
 -1       395 3.61727E-01
 -1       396 4.49864E-01
 -1       397 5.24998E-01
 -1       398 5.96672E-01
 -1       399 6.31360E-01
 -1       400 6.31360E-01
 -1       401 5.96321E-01
 -1       402 4.56631E-01
 -1       403 5.03617E-01
 -1       404 7.89737E-01
 -1       405 1.26928E+00
 -1       406 1.58484E+00
 -1       407 1.60227E+00
 -1       408 1.60227E+00
 -1       409 1.67358E+00
 -1       410 1.83336E+00
 -1       411 1.57522E+00
 -1       412 1.08545E+00
 -1       413 6.79019E-01
 -1       414 4.23454E-01
 -1       415 5.53557E-01
 -1       416 6.23942E-01
 -1       417 6.68465E-01
 -1       418 6.50403E-01
 -1       419 5.83488E-01
 -1       420 5.20639E-01
 -1       421 4.40074E-01
 -1       422 3.54982E-01
 -1       423 2.74167E-01
 -1       424 2.09836E-01
 -1       425 1.65354E-01
 -1       426 1.23865E-01
 -1       427 8.40713E-02
 -1       428 4.62513E-02
 -1       429 4.10946E-02
 -1       430 6.74197E-02
 -1       431 6.74197E-02
 -1       432 4.21987E-02
 -1       433 5.95981E-02
 -1       434 6.92162E-02
 -1       435 6.94119E-02
 -1       436 7.08167E-02
 -1       437 7.08167E-02
 -1       438 6.45400E-02
 -1       439 4.83936E-02
 -1       440 4.38169E-02
 -1       441 6.46974E-02
 -1       442 2.95717E+01
 -1       443 3.07022E+01
 -1       444 2.96978E+01
 -1       445 1.68854E+01
 -1       446 9.75624E+00
 -1       447 9.05566E-01
 -1       448 9.38319E+00
 -1       449 1.06378E+01
 -1       450 1.11744E+01
 -1       451 9.50749E+00
 -1       452 7.11201E+00
 -1       453 1.07717E+01
 -1       454 1.89729E+01
 -1       455 3.12058E+01
 -1       456 3.72007E+01
 -1       457 3.72007E+01
 -1       458 2.82607E+01
 -1       459 2.60594E+01
 -1       460 1.50235E+01
 -1       461 8.49068E+00
 -1       462 7.80731E+00
 -1       463 9.79411E+00
 -1       464 1.01562E+01
 -1       465 1.01191E+01
 -1       466 9.09817E+00
 -1       467 6.88110E+00
 -1       468 1.07283E+01
 -1       469 1.83446E+01
 -1       470 3.11363E+01
 -1       471 3.07022E+01
 -1       472 6.63816E+00
 -1       473 8.15742E+00
 -1       474 1.05919E+00
 -1       475 4.82338E-01
 -1       476 5.10415E-01
 -1       477 4.27625E-01
 -1       478 4.53355E-01
 -1       479 4.82837E-01
 -1       480 5.07091E-01
 -1       481 5.07091E-01
 -1       482 5.95169E-01
 -1       483 9.02367E-01
 -1       484 7.99411E-01
 -1       485 4.71329E+00
 -1       486 7.10878E-01
 -1       487 5.95474E-01
 -1       488 4.79249E-01
 -1       489 3.93095E-01
 -1       490 3.45220E-01
 -1       491 2.93503E-01
 -1       492 2.41323E-01
 -1       493 1.89353E-01
 -1       494 1.83475E-01
 -1       495 2.15650E-01
 -1       496 3.11107E-01
 -1       497 4.40944E-01
 -1       498 5.92259E-01
 -1       499 7.64785E-01
 -1       500 9.53676E-01
 -1       501 1.14650E+00
 -1       502 1.31975E+00
 -1       503 1.47539E+00
 -1       504 1.78644E+00
 -1       505 2.11334E+00
 -1       506 2.34371E+00
 -1       507 3.21677E+00
 -1       508 2.55767E+00
 -1       509 3.04182E+00
 -1       510 8.06303E+00
 -1       511 7.85555E+00
 -1       512 2.97272E+00
 -1       513 2.38800E+00
 -1       514 2.70846E+00
 -1       515 2.12833E+00
 -1       516 1.92549E+00
 -1       517 1.64017E+00
 -1       518 1.41734E+00
 -1       519 1.27416E+00
 -1       520 1.09514E+00
 -1       521 8.98450E-01
 -1       522 7.15483E-01
 -1       523 5.61948E-01
 -1       524 4.30907E-01
 -1       525 3.22413E-01
 -1       526 2.35030E-01
 -1       527 1.66392E-01
 -1       528 1.13654E-01
 -1       529 1.87063E+01
 -1       530 5.52425E-01
 -1       531 4.64534E-01
 -1       532 4.00402E-01
 -1       533 3.37818E-01
 -1       534 2.79256E-01
 -1       535 2.25014E-01
 -1       536 1.89402E-01
 -1       537 2.13527E-01
 -1       538 2.41078E-01
 -1       539 3.11410E-01
 -1       540 3.97304E-01
 -1       541 4.75755E-01
 -1       542 5.45229E-01
 -1       543 5.96672E-01
 -1       544 6.32499E-01
 -1       545 6.38756E-01
 -1       546 5.84497E-01
 -1       547 6.82216E-01
 -1       548 7.58357E-01
 -1       549 1.04656E+00
 -1       550 1.35904E+00
 -1       551 1.58484E+00
 -1       552 1.67946E+00
 -1       553 1.55929E+00
 -1       554 1.70961E+00
 -1       555 1.41658E+00
 -1       556 1.18839E+00
 -1       557 8.67248E-01
 -1       558 7.03110E-01
 -1       559 6.22947E-01
 -1       560 6.28437E-01
 -1       561 6.46165E-01
 -1       562 6.11953E-01
 -1       563 5.69684E-01
 -1       564 5.09207E-01
 -1       565 4.41271E-01
 -1       566 3.64535E-01
 -1       567 2.88619E-01
 -1       568 2.19431E-01
 -1       569 1.60124E-01
 -1       570 1.10648E-01
 -1       571 8.02613E-02
 -1       572 7.36165E-02
 -1       573 8.99513E-02
 -1       574 6.56875E-02
 -1       575 6.02704E-02
 -1       576 9.42835E-02
 -1       577 9.42835E-02
 -1       578 9.52486E-02
 -1       579 9.52486E-02
 -1       580 8.29760E-02
 -1       581 6.38554E-02
 -1       582 6.38554E-02
 -1       583 3.07022E+01
 -1       584 7.13751E-01
 -1       585 1.35137E+01
 -1       586 2.17150E+01
 -1       587 8.72877E-01
 -1       588 8.34501E+00
 -1       589 1.94389E+01
 -1       590 4.56354E+00
 -1       591 4.53349E-01
 -1       592 7.75870E+00
 -1       593 3.72007E+01
 -1       594 6.76817E+00
 -1       595 6.43373E+00
 -1       596 6.12952E+00
 -1       597 9.45566E+00
 -1       598 1.32482E+01
 -1       599 8.06303E+00
 -1       600 2.32831E+01
 -1       601 2.82607E+01
 -1       602 1.17125E+01
 -1       603 5.14040E+00
 -1       604 5.52385E+00
 -1       605 8.06303E+00
 -1       606 7.85555E+00
 -1       607 4.39010E+00
 -1       608 6.33624E+00
 -1       609 9.99765E+00
 -1       610 1.38295E+01
 -1       611 2.96978E+01
 -1       612 1.32697E+00
 -1       613 5.89953E+00
 -1       614 5.30825E-01
 -1       615 1.76516E+01
 -1       616 7.06614E-02
 -1       617 7.04633E+00
 -1       618 7.66651E+00
 -1       619 3.55894E-01
 -1       620 3.39880E-01
 -1       621 3.59886E-01
 -1       622 3.36735E-01
 -1       623 5.39433E-01
 -1       624 7.37265E+00
 -1       625 1.30854E+01
 -1       626 5.19647E-01
 -1       627 5.69721E+00
 -1       628 3.99579E-01
 -1       629 3.82171E-01
 -1       630 3.34271E-01
 -1       631 2.74476E-01
 -1       632 2.32345E-01
 -1       633 1.92066E-01
 -1       634 1.44600E-01
 -1       635 1.02045E-01
 -1       636 1.31743E-01
 -1       637 2.21896E-01
 -1       638 3.28720E-01
 -1       639 4.56297E-01
 -1       640 6.09654E-01
 -1       641 7.96950E-01
 -1       642 1.02322E+00
 -1       643 1.29106E+00
 -1       644 1.60973E+00
 -1       645 1.94231E+00
 -1       646 2.37047E+00
 -1       647 3.49633E+00
 -1       648 4.16647E+00
 -1       649 7.66651E+00
 -1       650 2.38800E+00
 -1       651 3.85181E+00
 -1       652 3.81776E+00
 -1       653 3.11095E+00
 -1       654 2.31274E+00
 -1       655 1.86904E+00
 -1       656 1.55233E+00
 -1       657 1.25576E+00
 -1       658 1.00231E+00
 -1       659 7.89462E-01
 -1       660 6.15347E-01
 -1       661 4.73263E-01
 -1       662 3.58113E-01
 -1       663 2.66148E-01
 -1       664 1.93246E-01
 -1       665 1.35141E-01
 -1       666 4.22608E+00
 -1       667 3.91570E-01
 -1       668 2.34249E-01
 -1       669 1.86370E-01
 -1       670 1.36028E-01
 -1       671 1.39380E-01
 -1       672 1.72798E-01
 -1       673 2.54490E-01
 -1       674 3.41206E-01
 -1       675 4.29520E-01
 -1       676 5.13025E-01
 -1       677 5.81776E-01
 -1       678 6.70321E-01
 -1       679 7.70460E-01
 -1       680 8.38173E-01
 -1       681 9.11481E-01
 -1       682 1.12677E+00
 -1       683 1.26703E+00
 -1       684 1.48628E+00
 -1       685 1.54307E+00
 -1       686 2.17062E+00
 -1       687 2.11010E+00
 -1       688 3.16864E+00
 -1       689 2.24422E+00
 -1       690 1.48825E+00
 -1       691 1.26067E+00
 -1       692 1.21197E+00
 -1       693 1.00006E+00
 -1       694 8.53633E-01
 -1       695 8.05731E-01
 -1       696 7.17423E-01
 -1       697 6.18325E-01
 -1       698 5.52015E-01
 -1       699 4.77810E-01
 -1       700 3.97589E-01
 -1       701 3.19505E-01
 -1       702 2.48377E-01
 -1       703 1.86755E-01
 -1       704 1.34363E-01
 -1       705 9.53388E-02
 -1       706 1.23922E-01
 -1       707 8.74315E-02
 -1       708 1.12662E-01
 -1       709 1.27061E-01
 -1       710 1.23922E-01
 -1       711 1.08376E+01
 -1       712 1.27061E-01
 -1       713 1.25189E-01
 -1       714 1.08259E-01
 -1       715 9.16903E-02
 -1       716 4.64830E-01
 -1       717 5.30825E-01
 -1       718 9.95760E+00
 -1       719 1.51264E+01
 -1       720 3.62095E+00
 -1       721 5.95363E+00
 -1       722 2.78245E-01
 -1       723 3.14701E-01
 -1       724 3.97942E-01
 -1       725 1.60625E+01
 -1       726 3.63528E+00
 -1       727 3.59886E-01
 -1       728 3.57172E-01
 -1       729 7.70152E+00
 -1       730 5.99096E+00
 -1       731 1.28705E+01
 -1       732 1.21745E+01
 -1       733 1.44211E+01
 -1       734 3.65568E+00
 -1       735 1.39084E+01
 -1       736 2.91170E+00
 -1       737 8.00187E+00
 -1       738 4.78639E+00
 -1       739 6.77401E+00
 -1       740 3.34532E+00
 -1       741 5.74112E+00
 -1       742 3.75348E-01
 -1       743 3.39609E-01
 -1       744 8.44780E-02
 -1       745 1.02625E+01
 -1       746 3.69171E+00
 -1       747 7.28491E-02
 -1       748 7.66651E+00
 -1       749 8.72997E+00
 -1       750 4.95311E+00
 -1       751 3.55266E-01
 -1       752 9.71619E+00
 -1       753 2.44515E-01
 -1       754 1.68364E-01
 -1       755 3.63528E+00
 -1       756 2.46390E-01
 -1       757 2.30578E-01
 -1       758 1.96257E-01
 -1       759 1.56001E-01
 -1       760 1.21481E-01
 -1       761 9.56706E-02
 -1       762 1.05451E-01
 -1       763 1.76921E-01
 -1       764 2.76679E-01
 -1       765 4.00554E-01
 -1       766 5.50676E-01
 -1       767 7.30848E-01
 -1       768 9.42556E-01
 -1       769 1.18683E+00
 -1       770 1.55265E+00
 -1       771 2.11031E+00
 -1       772 3.03841E+00
 -1       773 3.69845E+00
 -1       774 9.24019E+00
 -1       775 4.03173E+00
 -1       776 3.32347E+00
 -1       777 2.82393E+00
 -1       778 2.02154E+00
 -1       779 1.49084E+00
 -1       780 1.14325E+00
 -1       781 9.15297E-01
 -1       782 7.17866E-01
 -1       783 5.50718E-01
 -1       784 4.13647E-01
 -1       785 3.02936E-01
 -1       786 2.93070E-01
 -1       787 1.64516E-01
 -1       788 2.71041E-01
 -1       789 1.42927E-01
 -1       790 1.16792E-01
 -1       791 1.90222E-01
 -1       792 2.73564E-01
 -1       793 3.68436E-01
 -1       794 4.73237E-01
 -1       795 5.81898E-01
 -1       796 6.93202E-01
 -1       797 8.20679E-01
 -1       798 1.02181E+00
 -1       799 1.20845E+00
 -1       800 1.37576E+00
 -1       801 1.41428E+00
 -1       802 2.32301E+00
 -1       803 1.64151E+00
 -1       804 2.17062E+00
 -1       805 3.16864E+00
 -1       806 1.48825E+00
 -1       807 1.72825E+00
 -1       808 1.43297E+00
 -1       809 1.29486E+00
 -1       810 1.09009E+00
 -1       811 8.99259E-01
 -1       812 7.39979E-01
 -1       813 6.34673E-01
 -1       814 5.28874E-01
 -1       815 4.29237E-01
 -1       816 3.38293E-01
 -1       817 2.61883E-01
 -1       818 1.98028E-01
 -1       819 1.44478E-01
 -1       820 1.04561E-01
 -1       821 2.85146E-01
 -1       822 1.69206E-01
 -1       823 1.59305E-01
 -1       824 2.00857E-01
 -1       825 4.63077E+00
 -1       826 7.96431E+00
 -1       827 1.80680E-01
 -1       828 6.77411E-02
 -1       829 9.87687E-02
 -1       830 4.92078E+00
 -1       831 2.29717E-01
 -1       832 2.27930E-01
 -1       833 9.24019E+00
 -1       834 5.53077E+00
 -1       835 5.84156E+00
 -1       836 8.78367E+00
 -1       837 2.26258E+00
 -1       838 6.67460E+00
 -1       839 9.95551E+00
 -1       840 2.13514E+00
 -1       841 3.77605E+00
 -1       842 2.77715E-01
 -1       843 8.60419E+00
 -1       844 3.32447E+00
 -1       845 9.95551E+00
 -1       846 3.46457E+00
 -1       847 3.53067E+00
 -1       848 2.76621E-01
 -1       849 2.76978E-01
 -1       850 2.79636E-01
 -1       851 1.33741E-01
 -1       852 6.23275E+00
 -1       853 1.59305E-01
 -1       854 8.28995E+00
 -1       855 3.03563E+00
 -1       856 2.12052E+00
 -1       857 1.55247E-01
 -1       858 2.85146E-01
 -1       859 2.40270E-01
 -1       860 2.69233E-01
 -1       861 2.61603E-01
 -1       862 2.85195E-01
 -1       863 2.93070E-01
 -1       864 5.76205E+00
 -1       865 1.88404E-01
 -1       866 1.59922E-01
 -1       867 1.39575E-01
 -1       868 1.15078E-01
 -1       869 1.20119E-01
 -1       870 1.36325E-01
 -1       871 1.62770E-01
 -1       872 2.51575E-01
 -1       873 3.61312E-01
 -1       874 4.98099E-01
 -1       875 6.70550E-01
 -1       876 8.90940E-01
 -1       877 1.17671E+00
 -1       878 1.55265E+00
 -1       879 2.06514E+00
 -1       880 3.37548E+00
 -1       881 3.59933E+00
 -1       882 6.24097E+00
 -1       883 1.81358E+00
 -1       884 3.52385E+00
 -1       885 2.41528E+00
 -1       886 1.96851E+00
 -1       887 1.49084E+00
 -1       888 1.14325E+00
 -1       889 8.74263E-01
 -1       890 6.65733E-01
 -1       891 5.03652E-01
 -1       892 3.76761E-01
 -1       893 2.93070E-01
 -1       894 1.20463E-01
 -1       895 1.73198E-01
 -1       896 4.27174E-01
 -1       897 5.35821E-01
 -1       898 6.90425E-01
 -1       899 8.87747E-01
 -1       900 1.10691E+00
 -1       901 1.37054E+00
 -1       902 1.71884E+00
 -1       903 2.25223E+00
 -1       904 3.08645E+00
 -1       905 1.57475E+00
 -1       906 1.20423E+00
 -1       907 9.73101E-01
 -1       908 7.68377E-01
 -1       909 6.02355E-01
 -1       910 4.77660E-01
 -1       911 3.81040E-01
 -1       912 3.06303E-01
 -1       913 2.36941E-01
 -1       914 2.07405E-01
 -1       915 2.07405E-01
 -1       916 7.11450E+00
 -1       917 1.30967E-01
 -1       918 1.13369E-01
 -1       919 5.69122E+00
 -1       920 2.85195E-01
 -1       921 6.24097E+00
 -1       922 1.34836E-01
 -1       923 1.62667E-01
 -1       924 5.99424E+00
 -1       925 8.28995E+00
 -1       926 1.87830E+00
 -1       927 2.48507E-01
 -1       928 7.11450E+00
 -1       929 4.17571E+00
 -1       930 4.79842E+00
 -1       931 3.77621E+00
 -1       932 3.53645E+00
 -1       933 1.61545E-01
 -1       934 3.30081E-01
 -1       935 1.66026E-01
 -1       936 1.97173E+00
 -1       937 4.12008E+00
 -1       938 1.93132E-01
 -1       939 2.69615E-01
 -1       940 1.01363E-01
 -1       941 1.05438E-01
 -1       942 3.23223E-01
 -1       943 1.80235E-01
 -1       944 3.08645E+00
 -1       945 2.13798E-01
 -1       946 1.43660E-01
 -1       947 2.12558E-01
 -1       948 1.84187E-01
 -1       949 6.16348E+00
 -1       950 3.71606E+00
 -1       951 1.33271E-01
 -1       952 4.01894E+00
 -1       953 1.08303E-01
 -1       954 1.28079E-01
 -1       955 1.48849E-01
 -1       956 1.71777E-01
 -1       957 2.08303E-01
 -1       958 2.95131E-01
 -1       959 4.04125E-01
 -1       960 5.44477E-01
 -1       961 7.30011E-01
 -1       962 9.87141E-01
 -1       963 1.35972E+00
 -1       964 1.91695E+00
 -1       965 3.29413E+00
 -1       966 1.78266E-01
 -1       967 4.35505E-01
 -1       968 2.49359E+00
 -1       969 1.91074E+00
 -1       970 1.34775E+00
 -1       971 9.86635E-01
 -1       972 7.35574E-01
 -1       973 5.53513E-01
 -1       974 4.78403E-01
 -1       975 8.54760E-01
 -1       976 3.23223E-01
 -1       977 6.75646E-01
 -1       978 5.35821E-01
 -1       979 1.16561E+00
 -1       980 1.74182E+00
 -1       981 2.66717E+00
 -1       982 2.43386E-01
 -1       983 4.87134E+00
 -1       984 2.03616E-01
 -1       985 1.37725E+00
 -1       986 2.80958E+00
 -1       987 7.40803E-01
 -1       988 5.86080E-01
 -1       989 4.77660E-01
 -1       990 3.80362E-01
 -1       991 3.36581E-01
 -1       992 4.60606E+00
 -1       993 4.05290E+00
 -1       994 4.06257E-01
 -1       995 5.20912E+00
 -1       996 4.67938E+00
 -1       997 1.32587E-01
 -1       998 2.74770E+00
 -1       999 1.69673E-01
 -1      1000 2.06367E-01
 -1      1001 4.67938E+00
 -1      1002 1.16753E-01
 -1      1003 6.16348E+00
 -1      1004 9.45683E-01
 -1      1005 2.84797E+00
 -1      1006 2.13798E-01
 -1      1007 1.12428E-01
 -1      1008 1.14418E-01
 -1      1009 1.10421E-01
 -1      1010 8.53474E-02
 -1      1011 2.83605E+00
 -1      1012 4.12264E+00
 -1      1013 3.30081E-01
 -1      1014 1.43682E-01
 -1      1015 3.15857E-01
 -1      1016 1.45330E-01
 -1      1017 1.42935E-01
 -1      1018 3.36581E-01
 -1      1019 1.14576E-01
 -1      1020 4.46418E+00
 -1      1021 1.73954E-01
 -1      1022 4.27174E-01
 -1      1023 2.09862E+00
 -1      1024 1.49311E-01
 -1      1025 1.71777E-01
 -1      1026 2.07349E-01
 -1      1027 2.58360E-01
 -1      1028 3.24477E-01
 -1      1029 4.14183E-01
 -1      1030 5.33238E-01
 -1      1031 7.00053E-01
 -1      1032 9.39571E-01
 -1      1033 1.23386E+00
 -1      1034 1.73002E+00
 -1      1035 4.46684E-01
 -1      1036 4.59511E+00
 -1      1037 4.35505E-01
 -1      1038 1.31873E+00
 -1      1039 9.42284E-01
 -1      1040 6.90011E-01
 -1      1041 5.21471E-01
 -1      1042 4.78403E-01
 -1      1043 2.96041E+00
 -1      1044 8.54760E-01
 -1      1045 6.75646E-01
 -1      1046 3.16434E-01
 -1      1047 3.40243E+00
 -1      1048 1.35393E-01
 -1      1049 1.61452E+00
 -1      1050 2.21559E+00
 -1      1051 1.42217E-01
 -1      1052 5.78182E-01
 -1      1053 7.40803E-01
 -1      1054 3.52852E-01
 -1      1055 1.73954E-01
 -1      1056 1.28928E-01
 -1      1057 9.29601E-02
 -1      1058 2.16245E-01
 -1      1059 1.00218E-01
 -1      1060 4.59511E+00
 -1      1061 1.29900E-01
 -1      1062 9.45683E-01
 -1      1063 3.33205E+00
 -1      1064 8.36486E-02
 -1      1065 1.23678E+00
 -1      1066 1.09636E-01
 -1      1067 2.84797E+00
 -1      1068 3.40007E-01
 -1      1069 5.16011E-01
 -1      1070 7.75262E-02
 -1      1071 1.75884E-01
 -1      1072 3.03699E-01
 -1      1073 1.29377E-01
 -1      1074 7.81913E-02
 -1      1075 7.81913E-02
 -1      1076 2.40887E+00
 -1      1077 5.98082E-02
 -1      1078 4.26320E-01
 -1      1079 1.25789E-01
 -1      1080 1.71332E-01
 -1      1081 1.96466E-01
 -1      1082 2.45551E-01
 -1      1083 3.08489E-01
 -1      1084 3.73039E-01
 -1      1085 4.68485E-01
 -1      1086 6.08283E-01
 -1      1087 8.66367E-01
 -1      1088 1.28119E+00
 -1      1089 1.89841E+00
 -1      1090 1.09243E+00
 -1      1091 9.47187E-01
 -1      1092 6.94871E-01
 -1      1093 1.52605E+00
 -1      1094 9.47187E-01
 -1      1095 1.48450E-01
 -1      1096 3.24269E+00
 -1      1097 6.94871E-01
 -1      1098 8.66367E-01
 -1      1099 1.84056E+00
 -1      1100 9.01006E-02
 -1      1101 3.24269E+00
 -1      1102 9.47187E-01
 -1      1103 1.19086E+00
 -1      1104 1.00281E-01
 -1      1105 2.96041E+00
 -1      1106 1.81585E+00
 -1      1107 3.23787E-01
 -1      1108 1.29377E-01
 -1      1109 4.52309E-01
 -1      1110 6.03963E-01
 -1      1111 3.16434E-01
 -1      1112 6.61690E-02
 -1      1113 2.44927E-01
 -1      1114 1.50339E-01
 -1      1115 1.31415E-01
 -1      1116 3.68322E-01
 -1      1117 2.61360E-01
 -1      1118 2.44927E-01
 -1      1119 4.41543E-01
 -1      1120 1.03609E+00
 -1      1121 1.35451E-01
 -1      1122 1.86354E-01
 -1      1123 1.59330E-01
 -1      1124 1.19086E+00
 -1      1125 6.61690E-02
 -1      1126 3.36507E-01
 -1      1127 1.86354E-01
 -1      1128 1.35451E-01
 -1      1129 1.59330E-01
 -1      1130 1.31502E+01
 -1      1131 8.40057E+00
 -1      1132 2.73144E+00
 -1      1133 1.54710E+00
 -1      1134 1.16132E+00
 -1      1135 9.67522E-01
 -1      1136 8.49379E-01
 -1      1137 7.77401E-01
 -1      1138 7.51638E-01
 -1      1139 7.80405E-01
 -1      1140 8.51896E-01
 -1      1141 9.71071E-01
 -1      1142 1.17371E+00
 -1      1143 1.56179E+00
 -1      1144 2.65776E+00
 -1      1145 6.06549E+00
 -1      1146 1.13420E+01
 -1      1147 1.31502E+01
 -1      1148 8.74210E+00
 -1      1149 3.84709E+00
 -1      1150 2.74665E+00
 -1      1151 1.76018E+00
 -1      1152 1.21856E+00
 -1      1153 9.35061E-01
 -1      1154 7.36142E-01
 -1      1155 5.88888E-01
 -1      1156 4.78657E-01
 -1      1157 3.97426E-01
 -1      1158 3.39558E-01
 -1      1159 3.25017E-01
 -1      1160 3.64812E-01
 -1      1161 4.35318E-01
 -1      1162 5.23396E-01
 -1      1163 6.24836E-01
 -1      1164 7.45015E-01
 -1      1165 9.32118E-01
 -1      1166 1.18569E+00
 -1      1167 1.48000E+00
 -1      1168 1.75758E+00
 -1      1169 1.87424E+00
 -1      1170 1.88727E+00
 -1      1171 1.90031E+00
 -1      1172 2.16043E+00
 -1      1173 3.45106E+00
 -1      1174 4.95209E+00
 -1      1175 5.42322E+00
 -1      1176 5.42382E+00
 -1      1177 4.89780E+00
 -1      1178 3.38322E+00
 -1      1179 2.14670E+00
 -1      1180 1.89873E+00
 -1      1181 1.87900E+00
 -1      1182 1.85916E+00
 -1      1183 1.73669E+00
 -1      1184 1.45127E+00
 -1      1185 1.15785E+00
 -1      1186 9.07134E-01
 -1      1187 7.18083E-01
 -1      1188 5.91864E-01
 -1      1189 4.80903E-01
 -1      1190 3.80932E-01
 -1      1191 2.95184E-01
 -1      1192 2.23125E-01
 -1      1193 1.77606E-01
 -1      1194 1.48814E-01
 -1      1195 1.03311E-01
 -1      1196 4.69808E-02
 -1      1197 1.40459E+01
 -1      1198 8.72733E+00
 -1      1199 2.91931E+00
 -1      1200 2.05751E+00
 -1      1201 1.42624E+00
 -1      1202 1.05428E+00
 -1      1203 8.59422E-01
 -1      1204 7.12836E-01
 -1      1205 5.96958E-01
 -1      1206 5.06407E-01
 -1      1207 4.37977E-01
 -1      1208 3.88929E-01
 -1      1209 3.56085E-01
 -1      1210 3.41884E-01
 -1      1211 3.62249E-01
 -1      1212 4.05506E-01
 -1      1213 4.43163E-01
 -1      1214 4.64329E-01
 -1      1215 4.87963E-01
 -1      1216 5.77488E-01
 -1      1217 7.03483E-01
 -1      1218 7.98786E-01
 -1      1219 9.52892E-01
 -1      1220 1.09060E+00
 -1      1221 1.21855E+00
 -1      1222 1.41361E+00
 -1      1223 1.84967E+00
 -1      1224 2.41315E+00
 -1      1225 2.78653E+00
 -1      1226 2.94157E+00
 -1      1227 2.92694E+00
 -1      1228 2.56772E+00
 -1      1229 1.78368E+00
 -1      1230 1.14191E+00
 -1      1231 8.55197E-01
 -1      1232 8.33716E-01
 -1      1233 9.00136E-01
 -1      1234 9.03616E-01
 -1      1235 8.61623E-01
 -1      1236 7.56003E-01
 -1      1237 6.36492E-01
 -1      1238 5.22081E-01
 -1      1239 4.08471E-01
 -1      1240 3.16820E-01
 -1      1241 2.52643E-01
 -1      1242 1.99370E-01
 -1      1243 1.49481E-01
 -1      1244 1.06863E-01
 -1      1245 7.19712E-02
 -1      1246 3.60587E-02
 -1      1247 1.98056E-02
 -1      1248 2.29635E-02
 -1      1249 2.28045E-02
 -1      1250 1.83746E-02
 -1      1251 1.14769E-02
 -1      1252 1.30209E-02
 -1      1253 1.99975E-02
 -1      1254 2.38337E-02
 -1      1255 2.48643E-02
 -1      1256 2.42363E-02
 -1      1257 2.09674E-02
 -1      1258 1.43163E-02
 -1      1259 1.26174E-02
 -1      1260 1.93421E-02
 -1      1261 2.78674E-02
 -1      1262 3.29860E-02
 -1      1263 2.70082E-02
 -1      1264 2.54955E+01
 -1      1265 3.65919E+01
 -1      1266 4.76882E+01
 -1      1267 3.44402E+01
 -1      1268 1.65781E+01
 -1      1269 1.21712E+01
 -1      1270 1.23784E+01
 -1      1271 1.25440E+01
 -1      1272 1.27096E+01
 -1      1273 1.22756E+01
 -1      1274 1.86272E+01
 -1      1275 2.79286E+01
 -1      1276 3.04444E+01
 -1      1277 2.80623E+01
 -1      1278 2.49103E+01
 -1      1279 2.42862E+01
 -1      1280 3.47548E+01
 -1      1281 4.50778E+01
 -1      1282 3.11802E+01
 -1      1283 1.45809E+01
 -1      1284 1.19314E+01
 -1      1285 1.19837E+01
 -1      1286 1.20315E+01
 -1      1287 1.20793E+01
 -1      1288 1.21631E+01
 -1      1289 1.80488E+01
 -1      1290 2.82837E+01
 -1      1291 3.27167E+01
 -1      1292 2.89385E+01
 -1      1293 2.53280E+01
 -1      1294 1.31502E+01
 -1      1295 4.85677E+00
 -1      1296 9.60641E+00
 -1      1297 2.04911E+00
 -1      1298 2.96860E+00
 -1      1299 4.17444E+00
 -1      1300 1.39154E+00
 -1      1301 1.65638E+00
 -1      1302 1.89355E+00
 -1      1303 1.09633E+00
 -1      1304 1.21727E+00
 -1      1305 1.32656E+00
 -1      1306 9.31726E-01
 -1      1307 1.00458E+00
 -1      1308 1.06054E+00
 -1      1309 8.32237E-01
 -1      1310 8.77527E-01
 -1      1311 9.14585E-01
 -1      1312 7.71516E-01
 -1      1313 7.98203E-01
 -1      1314 8.26352E-01
 -1      1315 7.52562E-01
 -1      1316 7.51638E-01
 -1      1317 7.72440E-01
 -1      1318 8.01931E-01
 -1      1319 7.74088E-01
 -1      1320 7.74088E-01
 -1      1321 8.79274E-01
 -1      1322 8.35626E-01
 -1      1323 8.29309E-01
 -1      1324 1.01138E+00
 -1      1325 9.35848E-01
 -1      1326 9.19578E-01
 -1      1327 1.23381E+00
 -1      1328 1.10670E+00
 -1      1329 1.07148E+00
 -1      1330 1.67175E+00
 -1      1331 1.41078E+00
 -1      1332 1.34377E+00
 -1      1333 2.87286E+00
 -1      1334 2.03785E+00
 -1      1335 1.88684E+00
 -1      1336 6.28008E+00
 -1      1337 3.70736E+00
 -1      1338 3.08745E+00
 -1      1339 1.40459E+01
 -1      1340 1.13420E+01
 -1      1341 8.98391E+00
 -1      1342 1.40459E+01
 -1      1343 8.74210E+00
 -1      1344 4.33399E+00
 -1      1345 3.84709E+00
 -1      1346 3.36019E+00
 -1      1347 3.84709E+00
 -1      1348 2.74665E+00
 -1      1349 2.13311E+00
 -1      1350 2.74665E+00
 -1      1351 1.79962E+00
 -1      1352 1.42669E+00
 -1      1353 1.79962E+00
 -1      1354 1.21856E+00
 -1      1355 1.04987E+00
 -1      1356 1.25800E+00
 -1      1357 9.35061E-01
 -1      1358 8.20251E-01
 -1      1359 9.35061E-01
 -1      1360 7.36142E-01
 -1      1361 6.52032E-01
 -1      1362 7.36142E-01
 -1      1363 5.88888E-01
 -1      1364 5.25745E-01
 -1      1365 5.88888E-01
 -1      1366 4.78657E-01
 -1      1367 4.31569E-01
 -1      1368 4.78657E-01
 -1      1369 3.97426E-01
 -1      1370 3.63282E-01
 -1      1371 3.97426E-01
 -1      1372 3.39558E-01
 -1      1373 3.15834E-01
 -1      1374 3.39558E-01
 -1      1375 3.03383E-01
 -1      1376 3.12566E-01
 -1      1377 3.03383E-01
 -1      1378 3.34199E-01
 -1      1379 3.64812E-01
 -1      1380 3.12566E-01
 -1      1381 3.95425E-01
 -1      1382 4.35318E-01
 -1      1383 3.64812E-01
 -1      1384 4.75212E-01
 -1      1385 5.23396E-01
 -1      1386 4.35318E-01
 -1      1387 5.85260E-01
 -1      1388 6.38516E-01
 -1      1389 5.37076E-01
 -1      1390 7.31137E-01
 -1      1391 7.98060E-01
 -1      1392 6.91561E-01
 -1      1393 8.96394E-01
 -1      1394 1.01657E+00
 -1      1395 8.82516E-01
 -1      1396 1.10757E+00
 -1      1397 1.24096E+00
 -1      1398 1.07185E+00
 -1      1399 1.33759E+00
 -1      1400 1.49851E+00
 -1      1401 1.25947E+00
 -1      1402 1.64093E+00
 -1      1403 1.75758E+00
 -1      1404 1.49851E+00
 -1      1405 1.87424E+00
 -1      1406 1.87424E+00
 -1      1407 1.75758E+00
 -1      1408 1.86270E+00
 -1      1409 1.87573E+00
 -1      1410 1.86270E+00
 -1      1411 1.90031E+00
 -1      1412 1.90031E+00
 -1      1413 1.87573E+00
 -1      1414 1.82038E+00
 -1      1415 2.08051E+00
 -1      1416 1.82038E+00
 -1      1417 2.53127E+00
 -1      1418 3.56177E+00
 -1      1419 2.19122E+00
 -1      1420 4.48156E+00
 -1      1421 4.95209E+00
 -1      1422 3.56177E+00
 -1      1423 5.42262E+00
 -1      1424 5.42322E+00
 -1      1425 4.95209E+00
 -1      1426 5.42382E+00
 -1      1427 5.42382E+00
 -1      1428 5.42322E+00
 -1      1429 4.89780E+00
 -1      1430 4.37177E+00
 -1      1431 4.89780E+00
 -1      1432 3.46642E+00
 -1      1433 2.47787E+00
 -1      1434 3.46642E+00
 -1      1435 2.04082E+00
 -1      1436 1.79285E+00
 -1      1437 2.12402E+00
 -1      1438 1.89873E+00
 -1      1439 1.89873E+00
 -1      1440 1.79285E+00
 -1      1441 1.87900E+00
 -1      1442 1.85928E+00
 -1      1443 1.87900E+00
 -1      1444 1.85916E+00
 -1      1445 1.85904E+00
 -1      1446 1.85916E+00
 -1      1447 1.73669E+00
 -1      1448 1.61434E+00
 -1      1449 1.73669E+00
 -1      1450 1.47511E+00
 -1      1451 1.31203E+00
 -1      1452 1.47511E+00
 -1      1453 1.21889E+00
 -1      1454 1.08854E+00
 -1      1455 1.24272E+00
 -1      1456 9.96737E-01
 -1      1457 8.76369E-01
 -1      1458 1.05778E+00
 -1      1459 7.78675E-01
 -1      1460 7.09992E-01
 -1      1461 8.68278E-01
 -1      1462 6.19197E-01
 -1      1463 5.61659E-01
 -1      1464 6.79788E-01
 -1      1465 4.83622E-01
 -1      1466 4.30200E-01
 -1      1467 5.10956E-01
 -1      1468 3.80932E-01
 -1      1469 3.34384E-01
 -1      1470 3.83651E-01
 -1      1471 2.96528E-01
 -1      1472 2.57329E-01
 -1      1473 2.96528E-01
 -1      1474 2.27231E-01
 -1      1475 1.94372E-01
 -1      1476 2.28575E-01
 -1      1477 1.77606E-01
 -1      1478 1.64945E-01
 -1      1479 1.81712E-01
 -1      1480 1.48814E-01
 -1      1481 1.32683E-01
 -1      1482 1.48814E-01
 -1      1483 1.03407E-01
 -1      1484 7.40345E-02
 -1      1485 1.03407E-01
 -1      1486 5.39657E-02
 -1      1487 5.40619E-02
 -1      1488 3.40879E+00
 -1      1489 8.72733E+00
 -1      1490 8.72733E+00
 -1      1491 2.42982E+00
 -1      1492 2.91931E+00
 -1      1493 2.91931E+00
 -1      1494 1.68519E+00
 -1      1495 2.05751E+00
 -1      1496 2.05751E+00
 -1      1497 1.16730E+00
 -1      1498 1.42624E+00
 -1      1499 1.42624E+00
 -1      1500 9.41270E-01
 -1      1501 1.05428E+00
 -1      1502 1.05428E+00
 -1      1503 7.77574E-01
 -1      1504 8.59422E-01
 -1      1505 8.59422E-01
 -1      1506 6.48097E-01
 -1      1507 7.12836E-01
 -1      1508 7.12836E-01
 -1      1509 5.45819E-01
 -1      1510 5.96958E-01
 -1      1511 5.96958E-01
 -1      1512 4.66995E-01
 -1      1513 5.06407E-01
 -1      1514 5.06407E-01
 -1      1515 4.08960E-01
 -1      1516 4.37977E-01
 -1      1517 4.37977E-01
 -1      1518 3.68898E-01
 -1      1519 3.88929E-01
 -1      1520 3.88929E-01
 -1      1521 3.43272E-01
 -1      1522 3.56085E-01
 -1      1523 3.56085E-01
 -1      1524 3.33955E-01
 -1      1525 3.35342E-01
 -1      1526 3.35342E-01
 -1      1527 3.62249E-01
 -1      1528 3.40497E-01
 -1      1529 3.33955E-01
 -1      1530 4.05506E-01
 -1      1531 3.84001E-01
 -1      1532 3.62249E-01
 -1      1533 4.43163E-01
 -1      1534 4.27010E-01
 -1      1535 4.05506E-01
 -1      1536 4.64329E-01
 -1      1537 4.59316E-01
 -1      1538 4.43163E-01
 -1      1539 4.87963E-01
 -1      1540 4.69342E-01
 -1      1541 4.64329E-01
 -1      1542 5.93344E-01
 -1      1543 5.22440E-01
 -1      1544 5.03819E-01
 -1      1545 7.03483E-01
 -1      1546 6.48392E-01
 -1      1547 5.93344E-01
 -1      1548 7.98786E-01
 -1      1549 7.58573E-01
 -1      1550 7.03483E-01
 -1      1551 9.52892E-01
 -1      1552 8.38998E-01
 -1      1553 7.98786E-01
 -1      1554 1.09060E+00
 -1      1555 1.06679E+00
 -1      1556 9.52892E-01
 -1      1557 1.21855E+00
 -1      1558 1.11441E+00
 -1      1559 1.09060E+00
 -1      1560 1.41361E+00
 -1      1561 1.32269E+00
 -1      1562 1.21855E+00
 -1      1563 1.89503E+00
 -1      1564 1.54988E+00
 -1      1565 1.45896E+00
 -1      1566 2.41315E+00
 -1      1567 2.19483E+00
 -1      1568 1.89503E+00
 -1      1569 2.78653E+00
 -1      1570 2.63148E+00
 -1      1571 2.41315E+00
 -1      1572 2.94157E+00
 -1      1573 2.94157E+00
 -1      1574 2.78653E+00
 -1      1575 2.91230E+00
 -1      1576 2.92694E+00
 -1      1577 2.92694E+00
 -1      1578 2.22314E+00
 -1      1579 2.56772E+00
 -1      1580 2.56772E+00
 -1      1581 1.34421E+00
 -1      1582 1.78368E+00
 -1      1583 1.78368E+00
 -1      1584 9.39618E-01
 -1      1585 1.14191E+00
 -1      1586 1.14191E+00
 -1      1587 7.56348E-01
 -1      1588 8.40769E-01
 -1      1589 8.40769E-01
 -1      1590 8.33716E-01
 -1      1591 7.70776E-01
 -1      1592 7.56348E-01
 -1      1593 9.00136E-01
 -1      1594 8.96657E-01
 -1      1595 8.33716E-01
 -1      1596 9.03616E-01
 -1      1597 9.03616E-01
 -1      1598 9.00136E-01
 -1      1599 8.19629E-01
 -1      1600 8.61623E-01
 -1      1601 8.61623E-01
 -1      1602 6.92377E-01
 -1      1603 7.56003E-01
 -1      1604 7.56003E-01
 -1      1605 5.80607E-01
 -1      1606 6.36492E-01
 -1      1607 6.36492E-01
 -1      1608 4.69695E-01
 -1      1609 5.28221E-01
 -1      1610 5.28221E-01
 -1      1611 3.63715E-01
 -1      1612 4.18799E-01
 -1      1613 4.24939E-01
 -1      1614 2.80560E-01
 -1      1615 3.17126E-01
 -1      1616 3.27454E-01
 -1      1617 2.25032E-01
 -1      1618 2.52643E-01
 -1      1619 2.52949E-01
 -1      1620 1.73709E-01
 -1      1621 1.99370E-01
 -1      1622 1.99370E-01
 -1      1623 1.25253E-01
 -1      1624 1.49481E-01
 -1      1625 1.49481E-01
 -1      1626 8.84727E-02
 -1      1627 1.06863E-01
 -1      1628 1.06863E-01
 -1      1629 5.54697E-02
 -1      1630 7.19712E-02
 -1      1631 7.19712E-02
 -1      1632 3.92166E-02
 -1      1633 2.87464E-02
 -1      1634 2.87464E-02
 -1      1635 2.99214E-02
 -1      1636 3.00805E-02
 -1      1637 3.58633E-02
 -1      1638 2.56506E-02
 -1      1639 2.99214E-02
 -1      1640 3.71974E-02
 -1      1641 1.42693E-02
 -1      1642 1.68962E-02
 -1      1643 2.84430E-02
 -1      1644 2.43633E-02
 -1      1645 2.01924E-02
 -1      1646 2.56117E-02
 -1      1647 3.29301E-02
 -1      1648 3.01244E-02
 -1      1649 3.72959E-02
 -1      1650 3.67023E-02
 -1      1651 3.56717E-02
 -1      1652 4.57986E-02
 -1      1653 3.68880E-02
 -1      1654 3.68880E-02
 -1      1655 4.87260E-02
 -1      1656 3.62601E-02
 -1      1657 3.68880E-02
 -1      1658 4.89118E-02
 -1      1659 3.16888E-02
 -1      1660 3.43298E-02
 -1      1661 4.69815E-02
 -1      1662 2.26421E-02
 -1      1663 2.66521E-02
 -1      1664 4.00146E-02
 -1      1665 1.75118E-02
 -1      1666 1.52007E-02
 -1      1667 2.75365E-02
 -1      1668 3.17548E-02
 -1      1669 2.73411E-02
 -1      1670 2.99245E-02
 -1      1671 3.58664E-02
 -1      1672 3.17548E-02
 -1      1673 3.97538E-02
 -1      1674 4.08317E-02
 -1      1675 3.98247E-02
 -1      1676 4.37121E-02
 -1      1677 6.09005E-02
 -1      1678 2.79055E+01
 -1      1679 2.79055E+01
 -1      1680 3.86299E+01
 -1      1681 2.75336E+01
 -1      1682 4.76882E+01
 -1      1683 4.76882E+01
 -1      1684 2.18965E+01
 -1      1685 3.51445E+01
 -1      1686 1.14994E+01
 -1      1687 1.61135E+01
 -1      1688 1.21712E+01
 -1      1689 1.19640E+01
 -1      1690 1.23784E+01
 -1      1691 1.23784E+01
 -1      1692 1.23053E+01
 -1      1693 1.21398E+01
 -1      1694 1.27096E+01
 -1      1695 1.27096E+01
 -1      1696 1.18288E+01
 -1      1697 1.22628E+01
 -1      1698 1.86272E+01
 -1      1699 1.18416E+01
 -1      1700 2.90938E+01
 -1      1701 2.65779E+01
 -1      1702 3.08251E+01
 -1      1703 3.08251E+01
 -1      1704 2.84429E+01
 -1      1705 3.08251E+01
 -1      1706 2.66465E+01
 -1      1707 2.74163E+01
 -1      1708 2.67922E+01
 -1      1709 2.66465E+01
 -1      1710 4.11807E+01
 -1      1711 3.08577E+01
 -1      1712 4.50778E+01
 -1      1713 4.50778E+01
 -1      1714 1.85223E+01
 -1      1715 3.24198E+01
 -1      1716 1.12442E+01
 -1      1717 1.39460E+01
 -1      1718 1.19314E+01
 -1      1719 1.18792E+01
 -1      1720 1.19837E+01
 -1      1721 1.19837E+01
 -1      1722 1.18691E+01
 -1      1723 1.18213E+01
 -1      1724 1.20793E+01
 -1      1725 1.20793E+01
 -1      1726 1.20607E+01
 -1      1727 1.19769E+01
 -1      1728 1.80488E+01
 -1      1729 1.22470E+01
 -1      1730 2.92784E+01
 -1      1731 2.48454E+01
 -1      1732 3.27167E+01
 -1      1733 3.27167E+01
 -1      1734 2.81483E+01
 -1      1735 3.19265E+01
 -1      1736 2.79055E+01
 -1      1737 2.77380E+01
 -1      1738 1.68178E+01
 -1      1739 3.51445E+01
 -1      1740 3.92166E-02
 -1      1741 4.49995E-02
 -1      1742 2.99436E+01
 -1      1743 3.86299E+01
 -1      1744 3.03155E+01
 -1      1745 1.14994E+01
 -1      1746 1.21712E+01
 -1      1747 1.21398E+01
 -1      1748 1.23053E+01
 -1      1749 1.22628E+01
 -1      1750 1.18288E+01
 -1      1751 1.97924E+01
 -1      1752 2.94744E+01
 -1      1753 3.12058E+01
 -1      1754 3.01791E+01
 -1      1755 2.91524E+01
 -1      1756 3.32180E+01
 -1      1757 4.11807E+01
 -1      1758 3.24198E+01
 -1      1759 1.51856E+01
 -1      1760 1.12442E+01
 -1      1761 1.19314E+01
 -1      1762 1.18213E+01
 -1      1763 1.18691E+01
 -1      1764 1.19769E+01
 -1      1765 1.20607E+01
 -1      1766 1.90435E+01
 -1      1767 2.92784E+01
 -1      1768 3.19265E+01
 -1      1769 3.07259E+01
 -1      1770 9.60641E+00
 -1      1771 1.26868E+00
 -1      1772 1.66140E+00
 -1      1773 2.37627E+00
 -1      1774 4.26444E+00
 -1      1775 1.75140E+00
 -1      1776 8.79536E-01
 -1      1777 9.71289E-01
 -1      1778 7.75456E-01
 -1      1779 8.29655E-01
 -1      1780 7.40407E-01
 -1      1781 7.10050E-01
 -1      1782 7.44085E-01
 -1      1783 6.59155E-01
 -1      1784 6.68263E-01
 -1      1785 6.88141E-01
 -1      1786 6.05874E-01
 -1      1787 6.91312E-01
 -1      1788 6.69786E-01
 -1      1789 5.85487E-01
 -1      1790 7.46670E-01
 -1      1791 7.12974E-01
 -1      1792 6.08672E-01
 -1      1793 8.36407E-01
 -1      1794 7.79833E-01
 -1      1795 6.63498E-01
 -1      1796 9.79129E-01
 -1      1797 8.83804E-01
 -1      1798 7.44058E-01
 -1      1799 1.22356E+00
 -1      1800 1.04659E+00
 -1      1801 8.58913E-01
 -1      1802 1.70075E+00
 -1      1803 1.33465E+00
 -1      1804 1.03746E+00
 -1      1805 2.61930E+00
 -1      1806 1.78479E+00
 -1      1807 1.23260E+00
 -1      1808 8.12400E+00
 -1      1809 3.06205E+00
 -1      1810 1.75939E+00
 -1      1811 2.80547E+00
 -1      1812 5.19830E+00
 -1      1813 2.17217E+00
 -1      1814 2.66166E+00
 -1      1815 2.05833E+00
 -1      1816 3.40013E+00
 -1      1817 2.55188E+00
 -1      1818 1.93834E+00
 -1      1819 1.70789E+00
 -1      1820 1.37440E+00
 -1      1821 1.51313E+00
 -1      1822 1.19456E+00
 -1      1823 9.86436E-01
 -1      1824 1.10284E+00
 -1      1825 8.62896E-01
 -1      1826 7.48086E-01
 -1      1827 7.99462E-01
 -1      1828 6.97349E-01
 -1      1829 6.13239E-01
 -1      1830 6.25184E-01
 -1      1831 5.68078E-01
 -1      1832 5.04934E-01
 -1      1833 5.29285E-01
 -1      1834 4.65721E-01
 -1      1835 4.18633E-01
 -1      1836 4.44910E-01
 -1      1837 3.85399E-01
 -1      1838 3.51255E-01
 -1      1839 3.72463E-01
 -1      1840 3.23447E-01
 -1      1841 2.99723E-01
 -1      1842 3.11420E-01
 -1      1843 2.76217E-01
 -1      1844 2.63766E-01
 -1      1845 2.60106E-01
 -1      1846 2.79102E-01
 -1      1847 3.00735E-01
 -1      1848 2.51935E-01
 -1      1849 3.24340E-01
 -1      1850 3.54952E-01
 -1      1851 2.90875E-01
 -1      1852 3.91103E-01
 -1      1853 4.30996E-01
 -1      1854 3.50630E-01
 -1      1855 5.04616E-01
 -1      1856 5.66480E-01
 -1      1857 4.60400E-01
 -1      1858 6.50410E-01
 -1      1859 7.43030E-01
 -1      1860 6.17949E-01
 -1      1861 8.33720E-01
 -1      1862 9.32054E-01
 -1      1863 7.92569E-01
 -1      1864 1.02085E+00
 -1      1865 1.11185E+00
 -1      1866 9.72054E-01
 -1      1867 1.18300E+00
 -1      1868 1.27963E+00
 -1      1869 1.13200E+00
 -1      1870 1.34667E+00
 -1      1871 1.48909E+00
 -1      1872 1.27020E+00
 -1      1873 1.55292E+00
 -1      1874 1.66958E+00
 -1      1875 1.40108E+00
 -1      1876 1.67975E+00
 -1      1877 1.66821E+00
 -1      1878 1.47509E+00
 -1      1879 1.61027E+00
 -1      1880 1.63485E+00
 -1      1881 1.42733E+00
 -1      1882 1.75166E+00
 -1      1883 1.67173E+00
 -1      1884 1.48619E+00
 -1      1885 1.75604E+00
 -1      1886 2.20680E+00
 -1      1887 1.68731E+00
 -1      1888 2.50431E+00
 -1      1889 3.42410E+00
 -1      1890 2.06913E+00
 -1      1891 3.77431E+00
 -1      1892 4.24484E+00
 -1      1893 2.71685E+00
 -1      1894 4.48497E+00
 -1      1895 4.48557E+00
 -1      1896 3.30719E+00
 -1      1897 4.23853E+00
 -1      1898 3.71250E+00
 -1      1899 3.30028E+00
 -1      1900 3.34141E+00
 -1      1901 2.43606E+00
 -1      1902 2.68214E+00
 -1      1903 2.13919E+00
 -1      1904 1.70214E+00
 -1      1905 2.01418E+00
 -1      1906 1.61552E+00
 -1      1907 1.72140E+00
 -1      1908 1.63068E+00
 -1      1909 1.63926E+00
 -1      1910 1.61953E+00
 -1      1911 1.46193E+00
 -1      1912 1.66939E+00
 -1      1913 1.66927E+00
 -1      1914 1.42964E+00
 -1      1915 1.65775E+00
 -1      1916 1.53540E+00
 -1      1917 1.46797E+00
 -1      1918 1.46741E+00
 -1      1919 1.32817E+00
 -1      1920 1.38846E+00
 -1      1921 1.26659E+00
 -1      1922 1.17345E+00
 -1      1923 1.25890E+00
 -1      1924 1.10137E+00
 -1      1925 1.00957E+00
 -1      1926 1.12524E+00
 -1      1927 9.21526E-01
 -1      1928 8.23832E-01
 -1      1929 9.65125E-01
 -1      1930 7.35322E-01
 -1      1931 6.44526E-01
 -1      1932 7.88570E-01
 -1      1933 5.64127E-01
 -1      1934 4.86090E-01
 -1      1935 6.19660E-01
 -1      1936 4.17499E-01
 -1      1937 3.68232E-01
 -1      1938 4.70670E-01
 -1      1939 3.12225E-01
 -1      1940 2.74370E-01
 -1      1941 3.46073E-01
 -1      1942 2.30231E-01
 -1      1943 2.00133E-01
 -1      1944 2.45927E-01
 -1      1945 1.72991E-01
 -1      1946 1.56225E-01
 -1      1947 1.74647E-01
 -1      1948 1.34049E-01
 -1      1949 1.17918E-01
 -1      1950 1.25329E-01
 -1      1951 1.01672E-01
 -1      1952 7.23961E-02
 -1      1953 5.91659E-02
 -1      1954 8.69074E-02
 -1      1955 1.41404E+00
 -1      1956 1.78636E+00
 -1      1957 1.52871E+00
 -1      1958 1.03483E+00
 -1      1959 1.29378E+00
 -1      1960 1.02263E+00
 -1      1961 8.27511E-01
 -1      1962 9.40525E-01
 -1      1963 8.08059E-01
 -1      1964 6.64999E-01
 -1      1965 7.46847E-01
 -1      1966 6.33088E-01
 -1      1967 5.56316E-01
 -1      1968 6.21054E-01
 -1      1969 5.08479E-01
 -1      1970 4.75630E-01
 -1      1971 5.26770E-01
 -1      1972 4.34988E-01
 -1      1973 4.13452E-01
 -1      1974 4.52864E-01
 -1      1975 3.82676E-01
 -1      1976 3.65312E-01
 -1      1977 3.94330E-01
 -1      1978 3.40787E-01
 -1      1979 3.30209E-01
 -1      1980 3.50240E-01
 -1      1981 3.06593E-01
 -1      1982 3.06025E-01
 -1      1983 3.18838E-01
 -1      1984 2.80149E-01
 -1      1985 2.94991E-01
 -1      1986 3.02921E-01
 -1      1987 2.65674E-01
 -1      1988 3.17856E-01
 -1      1989 3.11314E-01
 -1      1990 2.78892E-01
 -1      1991 3.72864E-01
 -1      1992 3.51112E-01
 -1      1993 3.28471E-01
 -1      1994 4.38437E-01
 -1      1995 4.16933E-01
 -1      1996 4.05796E-01
 -1      1997 4.92157E-01
 -1      1998 4.76004E-01
 -1      1999 4.87431E-01
 -1      2000 5.33007E-01
 -1      2001 5.27994E-01
 -1      2002 5.60835E-01
 -1      2003 5.84828E-01
 -1      2004 5.50351E-01
 -1      2005 6.14016E-01
 -1      2006 6.39876E-01
 -1      2007 5.84828E-01
 -1      2008 6.31360E-01
 -1      2009 6.77447E-01
 -1      2010 6.22356E-01
 -1      2011 6.13841E-01
 -1      2012 6.47814E-01
 -1      2013 6.07602E-01
 -1      2014 5.26476E-01
 -1      2015 7.85201E-01
 -1      2016 6.71308E-01
 -1      2017 4.80124E-01
 -1      2018 9.52075E-01
 -1      2019 9.28261E-01
 -1      2020 6.46677E-01
 -1      2021 1.29598E+00
 -1      2022 1.19185E+00
 -1      2023 1.02951E+00
 -1      2024 1.59004E+00
 -1      2025 1.45377E+00
 -1      2026 1.42706E+00
 -1      2027 1.89855E+00
 -1      2028 1.59875E+00
 -1      2029 1.59356E+00
 -1      2030 2.11687E+00
 -1      2031 1.89855E+00
 -1      2032 1.60227E+00
 -1      2033 2.30757E+00
 -1      2034 2.15253E+00
 -1      2035 1.63792E+00
 -1      2036 2.37283E+00
 -1      2037 2.38747E+00
 -1      2038 1.75347E+00
 -1      2039 1.89918E+00
 -1      2040 2.24376E+00
 -1      2041 1.70429E+00
 -1      2042 1.21483E+00
 -1      2043 1.65430E+00
 -1      2044 1.33033E+00
 -1      2045 8.09319E-01
 -1      2046 1.01162E+00
 -1      2047 8.82234E-01
 -1      2048 5.82687E-01
 -1      2049 6.81536E-01
 -1      2050 5.51236E-01
 -1      2051 6.62166E-01
 -1      2052 6.47738E-01
 -1      2053 4.88505E-01
 -1      2054 7.60299E-01
 -1      2055 6.97359E-01
 -1      2056 5.88750E-01
 -1      2057 7.86041E-01
 -1      2058 7.82561E-01
 -1      2059 6.46204E-01
 -1      2060 7.35016E-01
 -1      2061 7.77010E-01
 -1      2062 6.59434E-01
 -1      2063 6.37933E-01
 -1      2064 7.01558E-01
 -1      2065 6.16946E-01
 -1      2066 5.50623E-01
 -1      2067 6.06508E-01
 -1      2068 5.52064E-01
 -1      2069 4.57954E-01
 -1      2070 5.10341E-01
 -1      2071 4.80356E-01
 -1      2072 3.64513E-01
 -1      2073 4.15408E-01
 -1      2074 3.97528E-01
 -1      2075 2.77516E-01
 -1      2076 3.24105E-01
 -1      2077 3.14574E-01
 -1      2078 2.17434E-01
 -1      2079 2.45350E-01
 -1      2080 2.42001E-01
 -1      2081 1.69532E-01
 -1      2082 1.95193E-01
 -1      2083 1.87595E-01
 -1      2084 1.24559E-01
 -1      2085 1.48787E-01
 -1      2086 1.44610E-01
 -1      2087 8.62720E-02
 -1      2088 1.04662E-01
 -1      2089 1.03968E-01
 -1      2090 5.08605E-02
 -1      2091 6.73620E-02
 -1      2092 6.51613E-02
 -1      2093 4.03903E-02
 -1      2094 3.03916E-02
 -1      2095 3.91460E-02
 -1      2096 5.23085E-02
 -1      2097 5.23085E-02
 -1      2098 5.42572E-02
 -1      2099 5.23085E-02
 -1      2100 5.09744E-02
 -1      2101 5.68355E-02
 -1      2102 6.74197E-02
 -1      2103 3.68667E-02
 -1      2104 3.09436E-02
 -1      2105 4.16467E-02
 -1      2106 5.13276E-02
 -1      2107 4.55665E-02
 -1      2108 5.08984E-02
 -1      2109 5.88782E-02
 -1      2110 5.61366E-02
 -1      2111 6.44072E-02
 -1      2112 5.91618E-02
 -1      2113 5.89761E-02
 -1      2114 6.93140E-02
 -1      2115 5.98642E-02
 -1      2116 5.98642E-02
 -1      2117 7.01143E-02
 -1      2118 5.79340E-02
 -1      2119 5.98642E-02
 -1      2120 7.08167E-02
 -1      2121 4.97589E-02
 -1      2122 5.47956E-02
 -1      2123 6.76784E-02
 -1      2124 3.42444E-02
 -1      2125 4.16857E-02
 -1      2126 5.64668E-02
 -1      2127 4.17854E-02
 -1      2128 3.19561E-02
 -1      2129 4.61053E-02
 -1      2130 5.22256E-02
 -1      2131 5.22256E-02
 -1      2132 5.42572E-02
 -1      2133 3.86299E+01
 -1      2134 2.95717E+01
 -1      2135 3.05089E+01
 -1      2136 3.05089E+01
 -1      2137 2.96347E+01
 -1      2138 3.00066E+01
 -1      2139 2.96347E+01
 -1      2140 1.97431E+01
 -1      2141 3.22868E+01
 -1      2142 1.03955E+01
 -1      2143 1.61785E+01
 -1      2144 1.02893E+00
 -1      2145 1.20320E+00
 -1      2146 9.71047E-01
 -1      2147 8.47927E-01
 -1      2148 1.08808E+01
 -1      2149 1.06736E+01
 -1      2150 1.12695E+01
 -1      2151 1.15081E+01
 -1      2152 1.19420E+01
 -1      2153 1.15377E+01
 -1      2154 1.06618E+01
 -1      2155 1.11085E+01
 -1      2156 9.47681E+00
 -1      2157 9.46404E+00
 -1      2158 1.92574E+01
 -1      2159 1.13066E+01
 -1      2160 8.94185E+00
 -1      2161 2.50893E+01
 -1      2162 2.33580E+01
 -1      2163 3.12058E+01
 -1      2164 3.12058E+01
 -1      2165 2.50893E+01
 -1      2166 3.31766E+01
 -1      2167 3.42032E+01
 -1      2168 3.31766E+01
 -1      2169 3.31766E+01
 -1      2170 3.27722E+01
 -1      2171 2.87066E+01
 -1      2172 3.55686E+01
 -1      2173 3.16715E+01
 -1      2174 1.73927E+01
 -1      2175 3.00507E+01
 -1      2176 2.05414E+01
 -1      2177 9.54998E+00
 -1      2178 1.41263E+01
 -1      2179 9.84325E+00
 -1      2180 9.20830E+00
 -1      2181 8.14899E+00
 -1      2182 1.08889E+01
 -1      2183 1.08366E+01
 -1      2184 1.09076E+01
 -1      2185 1.10699E+01
 -1      2186 1.10992E+01
 -1      2187 1.08890E+01
 -1      2188 1.04863E+01
 -1      2189 1.05887E+01
 -1      2190 9.56403E+00
 -1      2191 9.37779E+00
 -1      2192 1.82842E+01
 -1      2193 1.14876E+01
 -1      2194 2.55306E+01
 -1      2195 2.20923E+01
 -1      2196 3.11363E+01
 -1      2197 3.19265E+01
 -1      2198 3.05089E+01
 -1      2199 3.09193E+01
 -1      2200 9.30107E+00
 -1      2201 8.83649E+00
 -1      2202 8.19720E+00
 -1      2203 2.91323E+00
 -1      2204 8.01067E+00
 -1      2205 2.10492E+00
 -1      2206 3.02000E+01
 -1      2207 2.32285E+01
 -1      2208 5.61839E-02
 -1      2209 3.07022E+01
 -1      2210 1.33208E+01
 -1      2211 3.09193E+01
 -1      2212 2.47404E+01
 -1      2213 1.45364E+01
 -1      2214 8.80470E+00
 -1      2215 7.98964E+00
 -1      2216 9.60862E+00
 -1      2217 1.01377E+01
 -1      2218 8.80071E+00
 -1      2219 1.39596E+01
 -1      2220 1.15905E+01
 -1      2221 8.32405E+00
 -1      2222 2.71601E+01
 -1      2223 3.27307E+01
 -1      2224 3.42032E+01
 -1      2225 1.48723E+01
 -1      2226 8.30975E+00
 -1      2227 1.03409E+01
 -1      2228 1.00105E+01
 -1      2229 1.09061E+01
 -1      2230 3.72007E+01
 -1      2231 9.97517E+00
 -1      2232 1.10104E+00
 -1      2233 1.48685E+00
 -1      2234 5.55061E-01
 -1      2235 5.86432E-01
 -1      2236 6.00471E-01
 -1      2237 6.50352E-01
 -1      2238 4.96377E-01
 -1      2239 5.07318E-01
 -1      2240 5.05795E-01
 -1      2241 5.41845E-01
 -1      2242 5.20183E-01
 -1      2243 4.40490E-01
 -1      2244 5.89749E-01
 -1      2245 5.56586E-01
 -1      2246 4.68096E-01
 -1      2247 6.49273E-01
 -1      2248 6.01876E-01
 -1      2249 4.94964E-01
 -1      2250 7.16731E-01
 -1      2251 6.49273E-01
 -1      2252 5.07091E-01
 -1      2253 8.71864E-01
 -1      2254 7.60770E-01
 -1      2255 5.51130E-01
 -1      2256 9.02367E-01
 -1      2257 1.02263E+00
 -1      2258 9.80777E-01
 -1      2259 1.27149E+00
 -1      2260 1.04105E+00
 -1      2261 7.04824E+00
 -1      2262 5.67572E+00
 -1      2263 9.96779E-01
 -1      2264 8.16940E-01
 -1      2265 7.55144E-01
 -1      2266 7.59238E-01
 -1      2267 6.35698E-01
 -1      2268 6.53176E-01
 -1      2269 5.77585E-01
 -1      2270 5.26847E-01
 -1      2271 5.37362E-01
 -1      2272 4.83771E-01
 -1      2273 4.38609E-01
 -1      2274 4.36172E-01
 -1      2275 4.14672E-01
 -1      2276 3.75459E-01
 -1      2277 3.69158E-01
 -1      2278 3.49600E-01
 -1      2279 3.16366E-01
 -1      2280 3.19362E-01
 -1      2281 2.90275E-01
 -1      2282 2.62467E-01
 -1      2283 2.67413E-01
 -1      2284 2.36482E-01
 -1      2285 2.12976E-01
 -1      2286 2.15338E-01
 -1      2287 2.10037E-01
 -1      2288 2.25373E-01
 -1      2289 1.86414E-01
 -1      2290 2.41460E-01
 -1      2291 2.65065E-01
 -1      2292 1.99562E-01
 -1      2293 3.12793E-01
 -1      2294 3.48944E-01
 -1      2295 2.63378E-01
 -1      2296 4.13862E-01
 -1      2297 4.87482E-01
 -1      2298 3.76026E-01
 -1      2299 5.63139E-01
 -1      2300 6.47069E-01
 -1      2301 5.16602E-01
 -1      2302 7.33332E-01
 -1      2303 8.24022E-01
 -1      2304 6.78522E-01
 -1      2305 9.18468E-01
 -1      2306 1.00726E+00
 -1      2307 8.59231E-01
 -1      2308 1.10367E+00
 -1      2309 1.17483E+00
 -1      2310 1.05009E+00
 -1      2311 1.26145E+00
 -1      2312 1.32850E+00
 -1      2313 1.23312E+00
 -1      2314 1.40631E+00
 -1      2315 1.47015E+00
 -1      2316 1.39757E+00
 -1      2317 1.62568E+00
 -1      2318 1.63586E+00
 -1      2319 1.63091E+00
 -1      2320 1.79931E+00
 -1      2321 1.74136E+00
 -1      2322 1.94989E+00
 -1      2323 1.85655E+00
 -1      2324 1.97336E+00
 -1      2325 2.22853E+00
 -1      2326 2.40989E+00
 -1      2327 2.49419E+00
 -1      2328 2.78024E+00
 -1      2329 2.16464E+00
 -1      2330 2.46215E+00
 -1      2331 2.88722E+00
 -1      2332 2.70423E+00
 -1      2333 3.05444E+00
 -1      2334 2.79975E+00
 -1      2335 5.56504E+00
 -1      2336 5.80517E+00
 -1      2337 5.55243E+00
 -1      2338 5.70143E+00
 -1      2339 5.45439E+00
 -1      2340 7.95929E+00
 -1      2341 3.01298E+00
 -1      2342 2.64188E+00
 -1      2343 5.41413E+00
 -1      2344 2.34952E+00
 -1      2345 2.05265E+00
 -1      2346 2.68036E+00
 -1      2347 2.21288E+00
 -1      2348 2.12626E+00
 -1      2349 2.54823E+00
 -1      2350 1.83620E+00
 -1      2351 1.75406E+00
 -1      2352 2.41840E+00
 -1      2353 1.65264E+00
 -1      2354 1.70250E+00
 -1      2355 2.02691E+00
 -1      2356 1.55983E+00
 -1      2357 1.54831E+00
 -1      2358 1.78283E+00
 -1      2359 1.43690E+00
 -1      2360 1.36891E+00
 -1      2361 1.52875E+00
 -1      2362 1.29732E+00
 -1      2363 1.23574E+00
 -1      2364 1.34575E+00
 -1      2365 1.14623E+00
 -1      2366 1.07415E+00
 -1      2367 1.18465E+00
 -1      2368 9.75810E-01
 -1      2369 8.87765E-01
 -1      2370 9.96794E-01
 -1      2371 7.96281E-01
 -1      2372 7.07771E-01
 -1      2373 8.06966E-01
 -1      2374 6.31004E-01
 -1      2375 5.50605E-01
 -1      2376 6.38716E-01
 -1      2377 4.85084E-01
 -1      2378 4.16493E-01
 -1      2379 4.96428E-01
 -1      2380 3.62246E-01
 -1      2381 3.06240E-01
 -1      2382 3.76660E-01
 -1      2383 2.62548E-01
 -1      2384 2.18409E-01
 -1      2385 2.78722E-01
 -1      2386 1.84090E-01
 -1      2387 1.56948E-01
 -1      2388 2.00711E-01
 -1      2389 1.30579E-01
 -1      2390 1.08404E-01
 -1      2391 1.40023E-01
 -1      2392 2.41390E+01
 -1      2393 2.42020E+01
 -1      2394 5.52425E-01
 -1      2395 6.33088E-01
 -1      2396 4.64534E-01
 -1      2397 5.08479E-01
 -1      2398 5.08479E-01
 -1      2399 4.02922E-01
 -1      2400 4.32468E-01
 -1      2401 4.32468E-01
 -1      2402 3.48864E-01
 -1      2403 3.71630E-01
 -1      2404 3.69110E-01
 -1      2405 3.00461E-01
 -1      2406 3.19583E-01
 -1      2407 3.08537E-01
 -1      2408 2.58267E-01
 -1      2409 2.73340E-01
 -1      2410 2.52135E-01
 -1      2411 2.29090E-01
 -1      2412 2.40461E-01
 -1      2413 2.07208E-01
 -1      2414 2.38048E-01
 -1      2415 2.41153E-01
 -1      2416 2.01464E-01
 -1      2417 2.68146E-01
 -1      2418 2.51824E-01
 -1      2419 2.27302E-01
 -1      2420 3.36569E-01
 -1      2421 3.03313E-01
 -1      2422 2.76244E-01
 -1      2423 4.23584E-01
 -1      2424 3.79515E-01
 -1      2425 3.54357E-01
 -1      2426 5.00376E-01
 -1      2427 4.62809E-01
 -1      2428 4.36529E-01
 -1      2429 5.70951E-01
 -1      2430 5.35114E-01
 -1      2431 5.10492E-01
 -1      2432 6.14016E-01
 -1      2433 5.96672E-01
 -1      2434 5.70951E-01
 -1      2435 6.31930E-01
 -1      2436 6.31930E-01
 -1      2437 6.14585E-01
 -1      2438 6.17538E-01
 -1      2439 6.35058E-01
 -1      2440 6.35628E-01
 -1      2441 5.20564E-01
 -1      2442 5.90409E-01
 -1      2443 6.11627E-01
 -1      2444 5.92917E-01
 -1      2445 5.69423E-01
 -1      2446 6.33357E-01
 -1      2447 7.74047E-01
 -1      2448 6.30987E-01
 -1      2449 7.20287E-01
 -1      2450 1.15792E+00
 -1      2451 9.18146E-01
 -1      2452 9.02456E-01
 -1      2453 1.47194E+00
 -1      2454 1.31416E+00
 -1      2455 1.20280E+00
 -1      2456 1.59356E+00
 -1      2457 1.58484E+00
 -1      2458 1.47194E+00
 -1      2459 1.64086E+00
 -1      2460 1.64086E+00
 -1      2461 1.63215E+00
 -1      2462 1.61643E+00
 -1      2463 1.58078E+00
 -1      2464 1.61937E+00
 -1      2465 1.77148E+00
 -1      2466 1.69159E+00
 -1      2467 1.63445E+00
 -1      2468 1.49590E+00
 -1      2469 1.62497E+00
 -1      2470 1.56309E+00
 -1      2471 1.13692E+00
 -1      2472 1.38181E+00
 -1      2473 1.30249E+00
 -1      2474 7.73134E-01
 -1      2475 9.76348E-01
 -1      2476 1.02782E+00
 -1      2477 5.63282E-01
 -1      2478 6.91064E-01
 -1      2479 7.85179E-01
 -1      2480 5.88252E-01
 -1      2481 5.23200E-01
 -1      2482 6.63028E-01
 -1      2483 6.26189E-01
 -1      2484 5.90997E-01
 -1      2485 6.25692E-01
 -1      2486 6.57315E-01
 -1      2487 6.35054E-01
 -1      2488 6.37301E-01
 -1      2489 6.31178E-01
 -1      2490 6.40209E-01
 -1      2491 6.29059E-01
 -1      2492 5.76586E-01
 -1      2493 6.10044E-01
 -1      2494 5.90819E-01
 -1      2495 5.14923E-01
 -1      2496 5.46348E-01
 -1      2497 5.39445E-01
 -1      2498 4.40673E-01
 -1      2499 4.80955E-01
 -1      2500 4.75239E-01
 -1      2501 3.59758E-01
 -1      2502 4.02304E-01
 -1      2503 4.02903E-01
 -1      2504 2.81393E-01
 -1      2505 3.21800E-01
 -1      2506 3.26577E-01
 -1      2507 2.14633E-01
 -1      2508 2.46799E-01
 -1      2509 2.54025E-01
 -1      2510 1.62739E-01
 -1      2511 1.84980E-01
 -1      2512 1.89777E-01
 -1      2513 1.17257E-01
 -1      2514 1.38001E-01
 -1      2515 1.35386E-01
 -1      2516 8.21663E-02
 -1      2517 1.02063E-01
 -1      2518 9.54547E-02
 -1      2519 7.57455E-02
 -1      2520 6.66073E-02
 -1      2521 5.79076E-02
 -1      2522 7.95838E-02
 -1      2523 7.47747E-02
 -1      2524 8.17839E-02
 -1      2525 5.33911E-02
 -1      2526 6.65536E-02
 -1      2527 5.12346E-02
 -1      2528 5.06825E-02
 -1      2529 6.29789E-02
 -1      2530 6.69435E-02
 -1      2531 8.18477E-02
 -1      2532 8.17499E-02
 -1      2533 9.21174E-02
 -1      2534 8.25501E-02
 -1      2535 8.18477E-02
 -1      2536 9.42835E-02
 -1      2537 8.30327E-02
 -1      2538 8.30327E-02
 -1      2539 9.47661E-02
 -1      2540 7.98943E-02
 -1      2541 8.30327E-02
 -1      2542 9.52486E-02
 -1      2543 6.56848E-02
 -1      2544 7.37580E-02
 -1      2545 8.91123E-02
 -1      2546 5.38362E-02
 -1      2547 5.61245E-02
 -1      2548 7.34157E-02
 -1      2549 6.42764E-02
 -1      2550 5.38362E-02
 -1      2551 6.38554E-02
 -1      2552 6.76794E-02
 -1      2553 3.07022E+01
 -1      2554 3.07022E+01
 -1      2555 7.13751E-01
 -1      2556 8.08059E-01
 -1      2557 6.33088E-01
 -1      2558 1.51995E+01
 -1      2559 2.15427E+01
 -1      2560 2.62086E+01
 -1      2561 2.64257E+01
 -1      2562 1.66957E+00
 -1      2563 1.30823E+00
 -1      2564 8.36144E-01
 -1      2565 9.54702E-01
 -1      2566 9.05063E+00
 -1      2567 1.26152E+01
 -1      2568 2.27492E+01
 -1      2569 2.38498E+01
 -1      2570 5.83778E+00
 -1      2571 7.03552E+00
 -1      2572 5.18656E-01
 -1      2573 5.40566E-01
 -1      2574 4.67843E-01
 -1      2575 4.40487E-01
 -1      2576 9.46654E+00
 -1      2577 9.19827E+00
 -1      2578 3.72007E+01
 -1      2579 3.72007E+01
 -1      2580 8.70300E+00
 -1      2581 8.07568E+00
 -1      2582 7.97061E+00
 -1      2583 8.80405E+00
 -1      2584 8.45060E+00
 -1      2585 6.62076E+00
 -1      2586 1.42143E+01
 -1      2587 1.01137E+01
 -1      2588 7.79259E+00
 -1      2589 2.22270E+01
 -1      2590 1.61105E+01
 -1      2591 9.10963E+00
 -1      2592 8.92857E+00
 -1      2593 3.02419E+01
 -1      2594 2.72444E+01
 -1      2595 2.82607E+01
 -1      2596 3.27307E+01
 -1      2597 3.27307E+01
 -1      2598 1.33680E+01
 -1      2599 1.88859E+01
 -1      2600 6.47385E+00
 -1      2601 6.81554E+00
 -1      2602 7.65898E+00
 -1      2603 6.66558E+00
 -1      2604 5.33212E+00
 -1      2605 9.09105E+00
 -1      2606 9.10963E+00
 -1      2607 8.47686E+00
 -1      2608 8.98731E+00
 -1      2609 5.63560E+00
 -1      2610 6.74414E+00
 -1      2611 8.53227E+00
 -1      2612 6.60867E+00
 -1      2613 1.41711E+01
 -1      2614 1.03630E+01
 -1      2615 2.24829E+01
 -1      2616 1.60870E+01
 -1      2617 1.77723E+01
 -1      2618 2.96978E+01
 -1      2619 3.02000E+01
 -1      2620 1.62075E+00
 -1      2621 1.76456E+00
 -1      2622 1.32181E+00
 -1      2623 1.19308E+00
 -1      2624 6.26885E+00
 -1      2625 7.82789E+00
 -1      2626 7.26344E+00
 -1      2627 5.20620E-01
 -1      2628 6.60556E-01
 -1      2629 7.18195E-01
 -1      2630 8.08059E-01
 -1      2631 1.23776E+00
 -1      2632 5.30641E+00
 -1      2633 7.12227E+00
 -1      2634 1.19136E+01
 -1      2635 8.16694E+00
 -1      2636 2.41769E+01
 -1      2637 2.41769E+01
 -1      2638 1.96833E+01
 -1      2639 1.61100E+01
 -1      2640 7.38405E-02
 -1      2641 7.38405E-02
 -1      2642 5.36317E+00
 -1      2643 7.06614E-02
 -1      2644 6.76794E-02
 -1      2645 6.72584E-02
 -1      2646 8.69074E-02
 -1      2647 6.12283E+00
 -1      2648 6.79344E+00
 -1      2649 3.02000E+01
 -1      2650 9.61069E-01
 -1      2651 1.09294E+01
 -1      2652 8.06303E+00
 -1      2653 2.38498E+01
 -1      2654 1.55757E+01
 -1      2655 3.02419E+01
 -1      2656 1.13519E+01
 -1      2657 5.49864E+00
 -1      2658 6.64891E+00
 -1      2659 5.34653E+00
 -1      2660 8.89222E-01
 -1      2661 5.74073E+00
 -1      2662 6.74003E+00
 -1      2663 9.11035E+00
 -1      2664 7.40251E+00
 -1      2665 1.82657E+01
 -1      2666 1.13450E+01
 -1      2667 9.68950E+00
 -1      2668 7.91197E+00
 -1      2669 2.42020E+01
 -1      2670 7.95929E+00
 -1      2671 7.29744E-02
 -1      2672 9.21576E-02
 -1      2673 4.19365E-01
 -1      2674 4.04625E-01
 -1      2675 3.96618E-01
 -1      2676 3.83753E-01
 -1      2677 3.47887E-01
 -1      2678 4.33489E-01
 -1      2679 4.33489E-01
 -1      2680 4.65952E-01
 -1      2681 4.21913E-01
 -1      2682 3.48311E-01
 -1      2683 7.20900E-01
 -1      2684 7.99310E-01
 -1      2685 7.85883E+00
 -1      2686 1.04432E+01
 -1      2687 8.27178E-01
 -1      2688 1.74002E+01
 -1      2689 1.34575E+01
 -1      2690 6.16699E-01
 -1      2691 7.11007E-01
 -1      2692 5.29540E-01
 -1      2693 5.79837E+00
 -1      2694 7.02111E+00
 -1      2695 5.55229E-01
 -1      2696 4.97527E-01
 -1      2697 4.88823E-01
 -1      2698 4.30710E-01
 -1      2699 3.90875E-01
 -1      2700 4.06760E-01
 -1      2701 3.63683E-01
 -1      2702 3.58221E-01
 -1      2703 3.33786E-01
 -1      2704 3.09848E-01
 -1      2705 3.04374E-01
 -1      2706 2.88783E-01
 -1      2707 2.62924E-01
 -1      2708 2.53411E-01
 -1      2709 2.42785E-01
 -1      2710 2.16694E-01
 -1      2711 2.12206E-01
 -1      2712 1.92961E-01
 -1      2713 1.66977E-01
 -1      2714 1.68333E-01
 -1      2715 1.45699E-01
 -1      2716 1.42760E-01
 -1      2717 1.23323E-01
 -1      2718 1.57609E-01
 -1      2719 1.73696E-01
 -1      2720 1.16894E-01
 -1      2721 2.18773E-01
 -1      2722 2.66502E-01
 -1      2723 1.76819E-01
 -1      2724 3.19913E-01
 -1      2725 3.84832E-01
 -1      2726 2.75308E-01
 -1      2727 4.48621E-01
 -1      2728 5.24278E-01
 -1      2729 3.92508E-01
 -1      2730 6.00957E-01
 -1      2731 6.87220E-01
 -1      2732 5.32976E-01
 -1      2733 7.80867E-01
 -1      2734 8.75313E-01
 -1      2735 7.03302E-01
 -1      2736 9.88448E-01
 -1      2737 1.08486E+00
 -1      2738 9.10085E-01
 -1      2739 1.21878E+00
 -1      2740 1.30541E+00
 -1      2741 1.15714E+00
 -1      2742 1.46474E+00
 -1      2743 1.54256E+00
 -1      2744 1.45040E+00
 -1      2745 1.70885E+00
 -1      2746 1.86438E+00
 -1      2747 1.77602E+00
 -1      2748 2.07845E+00
 -1      2749 2.24190E+00
 -1      2750 2.15639E+00
 -1      2751 2.80484E+00
 -1      2752 2.92002E+00
 -1      2753 2.93340E+00
 -1      2754 3.25509E+00
 -1      2755 3.69162E+00
 -1      2756 3.83140E+00
 -1      2757 5.44164E+00
 -1      2758 5.11209E+00
 -1      2759 5.91649E+00
 -1      2760 8.06303E+00
 -1      2761 7.95929E+00
 -1      2762 2.68036E+00
 -1      2763 2.38800E+00
 -1      2764 3.11990E+00
 -1      2765 3.28013E+00
 -1      2766 3.11990E+00
 -1      2767 3.26311E+00
 -1      2768 2.97304E+00
 -1      2769 3.83478E+00
 -1      2770 2.61964E+00
 -1      2771 2.51822E+00
 -1      2772 3.46435E+00
 -1      2773 2.11912E+00
 -1      2774 1.97646E+00
 -1      2775 2.71185E+00
 -1      2776 1.75460E+00
 -1      2777 1.64319E+00
 -1      2778 2.09089E+00
 -1      2779 1.48484E+00
 -1      2780 1.41324E+00
 -1      2781 1.71068E+00
 -1      2782 1.26496E+00
 -1      2783 1.17545E+00
 -1      2784 1.40405E+00
 -1      2785 1.04872E+00
 -1      2786 9.50380E-01
 -1      2787 1.12904E+00
 -1      2788 8.43956E-01
 -1      2789 7.52472E-01
 -1      2790 8.95886E-01
 -1      2791 6.65415E-01
 -1      2792 5.88648E-01
 -1      2793 7.02404E-01
 -1      2794 5.17606E-01
 -1      2795 4.52085E-01
 -1      2796 5.44305E-01
 -1      2797 3.94510E-01
 -1      2798 3.40263E-01
 -1      2799 4.15688E-01
 -1      2800 2.94280E-01
 -1      2801 2.50589E-01
 -1      2802 3.12130E-01
 -1      2803 2.14138E-01
 -1      2804 1.79819E-01
 -1      2805 2.29697E-01
 -1      2806 1.50767E-01
 -1      2807 1.24398E-01
 -1      2808 1.64194E-01
 -1      2809 4.30809E+00
 -1      2810 6.04081E+00
 -1      2811 4.28052E-01
 -1      2812 4.71997E-01
 -1      2813 2.56753E-01
 -1      2814 2.86034E-01
 -1      2815 2.05692E-01
 -1      2816 2.32813E-01
 -1      2817 2.10310E-01
 -1      2818 1.62715E-01
 -1      2819 1.80521E-01
 -1      2820 1.61199E-01
 -1      2821 1.76453E-01
 -1      2822 1.64391E-01
 -1      2823 1.37704E-01
 -1      2824 2.06938E-01
 -1      2825 1.93163E-01
 -1      2826 1.56089E-01
 -1      2827 2.82950E-01
 -1      2828 2.47784E-01
 -1      2829 2.13644E-01
 -1      2830 3.69255E-01
 -1      2831 3.26308E-01
 -1      2832 2.97848E-01
 -1      2833 4.52637E-01
 -1      2834 4.13412E-01
 -1      2835 3.85363E-01
 -1      2836 5.29127E-01
 -1      2837 4.94390E-01
 -1      2838 4.71272E-01
 -1      2839 5.89224E-01
 -1      2840 5.63503E-01
 -1      2841 5.47400E-01
 -1      2842 6.51410E-01
 -1      2843 6.33496E-01
 -1      2844 6.26049E-01
 -1      2845 7.04608E-01
 -1      2846 7.01480E-01
 -1      2847 7.20391E-01
 -1      2848 7.11335E-01
 -1      2849 7.38464E-01
 -1      2850 8.04317E-01
 -1      2851 7.96848E-01
 -1      2852 7.47989E-01
 -1      2853 8.74827E-01
 -1      2854 9.42562E-01
 -1      2855 9.04491E-01
 -1      2856 1.01912E+00
 -1      2857 1.15679E+00
 -1      2858 1.01269E+00
 -1      2859 1.19690E+00
 -1      2860 1.42266E+00
 -1      2861 1.26642E+00
 -1      2862 1.37666E+00
 -1      2863 1.56396E+00
 -1      2864 1.45105E+00
 -1      2865 1.51467E+00
 -1      2866 1.92504E+00
 -1      2867 1.87773E+00
 -1      2868 1.85685E+00
 -1      2869 1.83469E+00
 -1      2870 1.89478E+00
 -1      2871 2.14036E+00
 -1      2872 2.43913E+00
 -1      2873 2.36396E+00
 -1      2874 2.63937E+00
 -1      2875 1.83040E+00
 -1      2876 1.97691E+00
 -1      2877 2.70643E+00
 -1      2878 1.33832E+00
 -1      2879 1.45241E+00
 -1      2880 1.86623E+00
 -1      2881 1.06396E+00
 -1      2882 1.22453E+00
 -1      2883 1.37446E+00
 -1      2884 9.57542E-01
 -1      2885 1.03961E+00
 -1      2886 1.23632E+00
 -1      2887 8.11504E-01
 -1      2888 8.51585E-01
 -1      2889 1.10602E+00
 -1      2890 7.41035E-01
 -1      2891 7.38290E-01
 -1      2892 9.26847E-01
 -1      2893 7.25948E-01
 -1      2894 7.17084E-01
 -1      2895 8.29682E-01
 -1      2896 6.64688E-01
 -1      2897 6.81794E-01
 -1      2898 7.61577E-01
 -1      2899 5.94005E-01
 -1      2900 6.15139E-01
 -1      2901 6.67874E-01
 -1      2902 5.30611E-01
 -1      2903 5.60849E-01
 -1      2904 5.85170E-01
 -1      2905 4.59540E-01
 -1      2906 4.93508E-01
 -1      2907 5.14912E-01
 -1      2908 3.81062E-01
 -1      2909 4.19430E-01
 -1      2910 4.37699E-01
 -1      2911 3.04062E-01
 -1      2912 3.42020E-01
 -1      2913 3.58547E-01
 -1      2914 2.33904E-01
 -1      2915 2.68498E-01
 -1      2916 2.83941E-01
 -1      2917 1.73439E-01
 -1      2918 2.03093E-01
 -1      2919 2.17566E-01
 -1      2920 1.22505E-01
 -1      2921 1.47243E-01
 -1      2922 1.60559E-01
 -1      2923 8.78001E-02
 -1      2924 1.02993E-01
 -1      2925 1.14851E-01
 -1      2926 8.05131E-02
 -1      2927 1.09103E-01
 -1      2928 1.09103E-01
 -1      2929 1.00543E-01
 -1      2930 7.90465E-02
 -1      2931 7.56435E-02
 -1      2932 1.11286E-01
 -1      2933 1.01307E-01
 -1      2934 9.31393E-02
 -1      2935 1.11155E-01
 -1      2936 1.10672E-01
 -1      2937 1.25491E-01
 -1      2938 1.09103E-01
 -1      2939 1.06937E-01
 -1      2940 1.18292E-01
 -1      2941 1.23922E-01
 -1      2942 1.21756E+01
 -1      2943 1.47719E+01
 -1      2944 9.10511E+00
 -1      2945 1.11155E-01
 -1      2946 1.11155E-01
 -1      2947 1.27061E-01
 -1      2948 1.04082E-01
 -1      2949 1.10219E-01
 -1      2950 1.26125E-01
 -1      2951 8.60570E-02
 -1      2952 9.56173E-02
 -1      2953 1.16724E-01
 -1      2954 7.77729E-02
 -1      2955 7.77729E-02
 -1      2956 9.99745E-02
 -1      2957 8.95609E-02
 -1      2958 5.08627E-01
 -1      2959 5.89290E-01
 -1      2960 4.92238E-01
 -1      2961 4.28200E-01
 -1      2962 7.01851E-01
 -1      2963 6.65118E-01
 -1      2964 1.08350E+01
 -1      2965 1.46983E+01
 -1      2966 1.72827E+01
 -1      2967 2.16936E+01
 -1      2968 1.25420E+01
 -1      2969 4.09225E+00
 -1      2970 5.02734E+00
 -1      2971 5.54701E+00
 -1      2972 7.05553E+00
 -1      2973 3.08031E-01
 -1      2974 3.39323E-01
 -1      2975 2.56247E-01
 -1      2976 3.57552E-01
 -1      2977 3.89618E-01
 -1      2978 2.96473E-01
 -1      2979 5.98676E-01
 -1      2980 5.54410E-01
 -1      2981 3.98761E-01
 -1      2982 4.64383E-01
 -1      2983 2.66316E+01
 -1      2984 1.96728E+01
 -1      2985 5.20173E+00
 -1      2986 4.17428E+00
 -1      2987 4.33489E-01
 -1      2988 4.21362E-01
 -1      2989 3.57890E-01
 -1      2990 3.59886E-01
 -1      2991 4.19755E-01
 -1      2992 4.33794E-01
 -1      2993 1.04748E+01
 -1      2994 8.57859E+00
 -1      2995 7.18195E-01
 -1      2996 7.72331E+00
 -1      2997 6.06024E+00
 -1      2998 2.12841E+01
 -1      2999 2.17864E+01
 -1      3000 1.77288E+01
 -1      3001 1.27113E+01
 -1      3002 9.93799E+00
 -1      3003 2.13409E+01
 -1      3004 2.58109E+01
 -1      3005 4.89260E+00
 -1      3006 4.10961E+00
 -1      3007 1.63073E+01
 -1      3008 2.18031E+01
 -1      3009 4.21778E+00
 -1      3010 4.02605E+00
 -1      3011 1.09157E+01
 -1      3012 8.99976E+00
 -1      3013 6.42471E+00
 -1      3014 5.15512E+00
 -1      3015 3.84905E+00
 -1      3016 8.38583E+00
 -1      3017 6.55513E+00
 -1      3018 4.02930E+00
 -1      3019 4.62243E+00
 -1      3020 6.74991E+00
 -1      3021 6.25464E+00
 -1      3022 7.85555E+00
 -1      3023 4.42881E-01
 -1      3024 4.53086E-01
 -1      3025 3.66260E-01
 -1      3026 3.39745E-01
 -1      3027 3.83617E-01
 -1      3028 3.96479E-01
 -1      3029 6.53493E+00
 -1      3030 5.67301E-01
 -1      3031 1.53685E+01
 -1      3032 4.52126E+00
 -1      3033 1.52611E+01
 -1      3034 5.28911E+00
 -1      3035 2.73469E+00
 -1      3036 8.06303E+00
 -1      3037 2.97676E+00
 -1      3038 3.91411E+00
 -1      3039 6.42471E+00
 -1      3040 9.85700E-02
 -1      3041 7.90473E-02
 -1      3042 7.23742E-02
 -1      3043 1.31625E+01
 -1      3044 1.67728E+01
 -1      3045 1.12185E+01
 -1      3046 5.01398E+00
 -1      3047 4.04091E+00
 -1      3048 3.53136E-01
 -1      3049 6.65598E-02
 -1      3050 6.92683E-02
 -1      3051 8.40939E-02
 -1      3052 7.86636E-02
 -1      3053 4.43267E+00
 -1      3054 3.49030E+00
 -1      3055 9.68950E+00
 -1      3056 8.81206E+00
 -1      3057 7.66651E+00
 -1      3058 1.05437E+01
 -1      3059 5.23286E+00
 -1      3060 1.37181E+01
 -1      3061 1.13192E+01
 -1      3062 9.78377E+00
 -1      3063 4.82332E+00
 -1      3064 1.33894E+01
 -1      3065 4.28703E+00
 -1      3066 5.69342E+00
 -1      3067 5.99972E+00
 -1      3068 1.47737E+01
 -1      3069 3.63831E+00
 -1      3070 6.81007E+00
 -1      3071 5.30825E-01
 -1      3072 3.59940E+00
 -1      3073 3.30704E+00
 -1      3074 4.04307E-01
 -1      3075 4.18802E-01
 -1      3076 3.56219E-01
 -1      3077 3.47437E-01
 -1      3078 4.68820E+00
 -1      3079 1.52418E+01
 -1      3080 6.84624E+00
 -1      3081 7.38794E+00
 -1      3082 4.38084E-01
 -1      3083 6.04081E+00
 -1      3084 1.36839E+01
 -1      3085 1.14008E+01
 -1      3086 2.90625E-01
 -1      3087 3.02201E-01
 -1      3088 1.47712E-01
 -1      3089 1.47712E-01
 -1      3090 4.68820E+00
 -1      3091 3.63528E+00
 -1      3092 6.81007E+00
 -1      3093 3.14280E-01
 -1      3094 2.90331E-01
 -1      3095 2.82425E-01
 -1      3096 2.52527E-01
 -1      3097 2.38484E-01
 -1      3098 2.35367E-01
 -1      3099 2.14301E-01
 -1      3100 2.13417E-01
 -1      3101 1.94173E-01
 -1      3102 1.74034E-01
 -1      3103 1.76129E-01
 -1      3104 1.56774E-01
 -1      3105 1.33041E-01
 -1      3106 1.38741E-01
 -1      3107 1.20135E-01
 -1      3108 9.88580E-02
 -1      3109 1.08576E-01
 -1      3110 1.03748E-01
 -1      3111 1.18597E-01
 -1      3112 1.00561E-01
 -1      3113 1.54332E-01
 -1      3114 1.99408E-01
 -1      3115 1.41186E-01
 -1      3116 2.49288E-01
 -1      3117 3.02699E-01
 -1      3118 2.26800E-01
 -1      3119 3.64637E-01
 -1      3120 4.28425E-01
 -1      3121 3.38616E-01
 -1      3122 5.03486E-01
 -1      3123 5.80165E-01
 -1      3124 4.75615E-01
 -1      3125 6.70251E-01
 -1      3126 7.63899E-01
 -1      3127 6.40762E-01
 -1      3128 8.69753E-01
 -1      3129 9.82888E-01
 -1      3130 8.36702E-01
 -1      3131 1.10502E+00
 -1      3132 1.23895E+00
 -1      3133 1.06469E+00
 -1      3134 1.42185E+00
 -1      3135 1.58119E+00
 -1      3136 1.36974E+00
 -1      3137 1.86002E+00
 -1      3138 2.02631E+00
 -1      3139 1.83148E+00
 -1      3140 2.49036E+00
 -1      3141 2.70444E+00
 -1      3142 2.57436E+00
 -1      3143 3.03446E+00
 -1      3144 3.59739E+00
 -1      3145 3.36843E+00
 -1      3146 5.58142E+00
 -1      3147 5.91649E+00
 -1      3148 7.66651E+00
 -1      3149 1.18306E+01
 -1      3150 1.26513E+01
 -1      3151 3.92474E+00
 -1      3152 3.57134E+00
 -1      3153 3.21721E+00
 -1      3154 2.81811E+00
 -1      3155 3.67760E+00
 -1      3156 2.56834E+00
 -1      3157 2.34648E+00
 -1      3158 3.07370E+00
 -1      3159 1.94529E+00
 -1      3160 1.78693E+00
 -1      3161 2.42273E+00
 -1      3162 1.52158E+00
 -1      3163 1.37330E+00
 -1      3164 1.75619E+00
 -1      3165 1.19951E+00
 -1      3166 1.07278E+00
 -1      3167 1.31704E+00
 -1      3168 9.58804E-01
 -1      3169 8.52380E-01
 -1      3170 1.02927E+00
 -1      3171 7.53664E-01
 -1      3172 6.66606E-01
 -1      3173 8.16582E-01
 -1      3174 5.83032E-01
 -1      3175 5.11990E-01
 -1      3176 6.34292E-01
 -1      3177 4.43455E-01
 -1      3178 3.85880E-01
 -1      3179 4.82182E-01
 -1      3180 3.30525E-01
 -1      3181 2.84542E-01
 -1      3182 3.58292E-01
 -1      3183 2.79609E-01
 -1      3184 2.43158E-01
 -1      3185 2.98003E-01
 -1      3186 1.78881E-01
 -1      3187 1.49829E-01
 -1      3188 2.28793E-01
 -1      3189 3.38905E+00
 -1      3190 2.92871E-01
 -1      3191 3.31305E-01
 -1      3192 1.64648E-01
 -1      3193 1.88588E-01
 -1      3194 1.44795E-01
 -1      3195 1.28086E-01
 -1      3196 2.22356E-01
 -1      3197 1.81510E-01
 -1      3198 1.53507E-01
 -1      3199 3.07385E-01
 -1      3200 2.64027E-01
 -1      3201 2.31893E-01
 -1      3202 3.98978E-01
 -1      3203 3.54821E-01
 -1      3204 3.21000E-01
 -1      3205 4.93131E-01
 -1      3206 4.51379E-01
 -1      3207 4.20837E-01
 -1      3208 5.81837E-01
 -1      3209 5.47461E-01
 -1      3210 5.27568E-01
 -1      3211 6.81762E-01
 -1      3212 6.37489E-01
 -1      3213 6.37550E-01
 -1      3214 7.95570E-01
 -1      3215 7.45500E-01
 -1      3216 7.56941E-01
 -1      3217 9.29993E-01
 -1      3218 8.96137E-01
 -1      3219 9.21246E-01
 -1      3220 1.05996E+00
 -1      3221 1.02331E+00
 -1      3222 1.11513E+00
 -1      3223 1.25126E+00
 -1      3224 1.14362E+00
 -1      3225 1.29210E+00
 -1      3226 1.34065E+00
 -1      3227 1.27052E+00
 -1      3228 1.39502E+00
 -1      3229 1.90465E+00
 -1      3230 1.79502E+00
 -1      3231 1.86864E+00
 -1      3232 1.59229E+00
 -1      3233 1.56390E+00
 -1      3234 1.98226E+00
 -1      3235 2.17062E+00
 -1      3236 1.85685E+00
 -1      3237 1.90607E+00
 -1      3238 3.16864E+00
 -1      3239 2.63937E+00
 -1      3240 2.93975E+00
 -1      3241 3.40196E+00
 -1      3242 1.37446E+00
 -1      3243 1.48825E+00
 -1      3244 1.47011E+00
 -1      3245 1.49446E+00
 -1      3246 1.60825E+00
 -1      3247 1.21652E+00
 -1      3248 1.32247E+00
 -1      3249 1.58061E+00
 -1      3250 1.07425E+00
 -1      3251 1.14746E+00
 -1      3252 1.36391E+00
 -1      3253 9.47911E-01
 -1      3254 9.71862E-01
 -1      3255 1.19248E+00
 -1      3256 8.08341E-01
 -1      3257 8.52495E-01
 -1      3258 9.94675E-01
 -1      3259 6.79152E-01
 -1      3260 7.28701E-01
 -1      3261 8.19619E-01
 -1      3262 5.93344E-01
 -1      3263 6.26499E-01
 -1      3264 6.87326E-01
 -1      3265 5.03342E-01
 -1      3266 5.40444E-01
 -1      3267 5.81773E-01
 -1      3268 4.13413E-01
 -1      3269 4.53523E-01
 -1      3270 4.79055E-01
 -1      3271 3.28899E-01
 -1      3272 3.67941E-01
 -1      3273 3.83765E-01
 -1      3274 2.55130E-01
 -1      3275 2.90694E-01
 -1      3276 3.00088E-01
 -1      3277 1.92392E-01
 -1      3278 2.23202E-01
 -1      3279 2.29956E-01
 -1      3280 1.39421E-01
 -1      3281 1.65617E-01
 -1      3282 1.71253E-01
 -1      3283 9.99501E-02
 -1      3284 1.19462E-01
 -1      3285 1.24520E-01
 -1      3286 8.87052E-02
 -1      3287 1.13416E-01
 -1      3288 3.20520E-01
 -1      3289 3.12513E-01
 -1      3290 1.47197E-01
 -1      3291 1.48133E-01
 -1      3292 1.68785E-01
 -1      3293 1.43183E-01
 -1      3294 1.41613E-01
 -1      3295 1.63834E-01
 -1      3296 1.54558E-01
 -1      3297 1.63023E-01
 -1      3298 1.85032E-01
 -1      3299 6.19474E+00
 -1      3300 5.18594E+00
 -1      3301 8.96096E+00
 -1      3302 1.15454E+01
 -1      3303 2.07465E-01
 -1      3304 2.29462E-01
 -1      3305 1.61803E-01
 -1      3306 1.03560E-01
 -1      3307 1.01884E-01
 -1      3308 9.22664E-02
 -1      3309 1.17398E-01
 -1      3310 1.42569E-01
 -1      3311 1.20848E-01
 -1      3312 8.32549E-02
 -1      3313 5.30900E+00
 -1      3314 6.14672E+00
 -1      3315 3.14648E-01
 -1      3316 3.05944E-01
 -1      3317 2.38054E-01
 -1      3318 2.53087E-01
 -1      3319 2.71315E-01
 -1      3320 2.04305E-01
 -1      3321 1.21833E+01
 -1      3322 1.18306E+01
 -1      3323 8.60225E+00
 -1      3324 5.83855E+00
 -1      3325 6.61614E+00
 -1      3326 5.76086E+00
 -1      3327 6.92172E+00
 -1      3328 6.30779E+00
 -1      3329 4.53086E-01
 -1      3330 1.04791E+01
 -1      3331 8.24260E+00
 -1      3332 2.95913E+00
 -1      3333 2.94176E+00
 -1      3334 9.88002E+00
 -1      3335 7.33824E+00
 -1      3336 1.19319E+01
 -1      3337 1.14130E+01
 -1      3338 2.88521E+00
 -1      3339 2.74023E+00
 -1      3340 2.88521E+00
 -1      3341 4.88351E+00
 -1      3342 3.71587E+00
 -1      3343 4.08574E-01
 -1      3344 3.07225E-01
 -1      3345 2.61115E-01
 -1      3346 3.98681E-01
 -1      3347 7.98842E+00
 -1      3348 9.72088E+00
 -1      3349 3.33490E+00
 -1      3350 4.51084E+00
 -1      3351 1.14130E+01
 -1      3352 1.38036E+01
 -1      3353 4.04767E+00
 -1      3354 4.60284E+00
 -1      3355 5.28850E+00
 -1      3356 4.08072E+00
 -1      3357 3.49762E+00
 -1      3358 4.24189E+00
 -1      3359 3.08251E-01
 -1      3360 3.08115E-01
 -1      3361 2.80884E-01
 -1      3362 2.60746E-01
 -1      3363 3.18432E-01
 -1      3364 3.18432E-01
 -1      3365 3.01932E+00
 -1      3366 8.66708E+00
 -1      3367 3.18404E-01
 -1      3368 3.27492E-01
 -1      3369 2.49485E-01
 -1      3370 5.68248E+00
 -1      3371 9.24019E+00
 -1      3372 1.23201E-01
 -1      3373 1.09109E-01
 -1      3374 1.28103E-01
 -1      3375 9.75135E+00
 -1      3376 7.97447E+00
 -1      3377 9.65910E+00
 -1      3378 6.45367E+00
 -1      3379 1.59305E-01
 -1      3380 1.41613E-01
 -1      3381 1.41613E-01
 -1      3382 4.84668E+00
 -1      3383 4.82966E+00
 -1      3384 3.03986E+00
 -1      3385 4.12263E+00
 -1      3386 8.50996E+00
 -1      3387 1.10992E+01
 -1      3388 9.12273E+00
 -1      3389 6.76249E+00
 -1      3390 3.40196E+00
 -1      3391 2.57286E+00
 -1      3392 2.60313E+00
 -1      3393 2.60313E+00
 -1      3394 1.80439E+00
 -1      3395 2.18237E+00
 -1      3396 1.39585E-01
 -1      3397 1.33955E-01
 -1      3398 1.44494E-01
 -1      3399 1.57276E-01
 -1      3400 3.20520E-01
 -1      3401 2.85146E-01
 -1      3402 3.22516E-01
 -1      3403 3.52550E-01
 -1      3404 3.79958E-01
 -1      3405 2.58992E-01
 -1      3406 4.93664E+00
 -1      3407 4.65341E+00
 -1      3408 1.36387E-01
 -1      3409 3.30401E-01
 -1      3410 3.67031E-01
 -1      3411 2.54751E-01
 -1      3412 2.70137E-01
 -1      3413 9.95551E+00
 -1      3414 3.60784E+00
 -1      3415 3.30591E-01
 -1      3416 2.45660E-01
 -1      3417 3.29772E-01
 -1      3418 3.20230E-01
 -1      3419 3.21183E-01
 -1      3420 2.82415E-01
 -1      3421 9.52310E+00
 -1      3422 3.86645E-01
 -1      3423 6.25808E+00
 -1      3424 7.15722E+00
 -1      3425 5.31291E+00
 -1      3426 2.72981E+00
 -1      3427 1.82686E-01
 -1      3428 9.83585E+00
 -1      3429 3.10214E+00
 -1      3430 1.80439E+00
 -1      3431 2.46964E-01
 -1      3432 2.31138E-01
 -1      3433 8.01229E+00
 -1      3434 7.27286E+00
 -1      3435 2.08167E-01
 -1      3436 2.29722E-01
 -1      3437 7.66651E+00
 -1      3438 1.95250E-01
 -1      3439 1.78090E-01
 -1      3440 1.67916E-01
 -1      3441 1.47788E-01
 -1      3442 1.49749E-01
 -1      3443 1.35540E-01
 -1      3444 1.18280E-01
 -1      3445 1.27327E-01
 -1      3446 1.20800E-01
 -1      3447 1.07895E-01
 -1      3448 1.17599E-01
 -1      3449 1.15998E-01
 -1      3450 1.20888E-01
 -1      3451 1.28222E-01
 -1      3452 1.34110E-01
 -1      3453 1.69845E-01
 -1      3454 1.49548E-01
 -1      3455 2.14248E-01
 -1      3456 2.64127E-01
 -1      3457 2.07172E-01
 -1      3458 3.18996E-01
 -1      3459 3.80933E-01
 -1      3460 3.06443E-01
 -1      3461 4.49326E-01
 -1      3462 5.24387E-01
 -1      3463 4.29706E-01
 -1      3464 6.10613E-01
 -1      3465 7.00699E-01
 -1      3466 5.84324E-01
 -1      3467 8.10894E-01
 -1      3468 9.16748E-01
 -1      3469 7.80745E-01
 -1      3470 1.05963E+00
 -1      3471 1.18177E+00
 -1      3472 1.03382E+00
 -1      3473 1.36974E+00
 -1      3474 1.55265E+00
 -1      3475 1.36468E+00
 -1      3476 1.80889E+00
 -1      3477 2.08773E+00
 -1      3478 1.80889E+00
 -1      3479 2.74289E+00
 -1      3480 3.20694E+00
 -1      3481 2.72031E+00
 -1      3482 3.31887E+00
 -1      3483 3.64889E+00
 -1      3484 3.48741E+00
 -1      3485 7.74058E+00
 -1      3486 7.74058E+00
 -1      3487 1.97436E+00
 -1      3488 2.56903E+00
 -1      3489 3.42366E+00
 -1      3490 3.17389E+00
 -1      3491 2.61960E+00
 -1      3492 2.21841E+00
 -1      3493 2.96957E+00
 -1      3494 1.99502E+00
 -1      3495 1.72967E+00
 -1      3496 2.19190E+00
 -1      3497 1.49084E+00
 -1      3498 1.31704E+00
 -1      3499 1.72967E+00
 -1      3500 1.14325E+00
 -1      3501 1.02927E+00
 -1      3502 1.31704E+00
 -1      3503 8.94780E-01
 -1      3504 7.96065E-01
 -1      3505 1.00876E+00
 -1      3506 6.91799E-01
 -1      3507 6.08225E-01
 -1      3508 7.69998E-01
 -1      3509 5.27185E-01
 -1      3510 4.58649E-01
 -1      3511 5.84692E-01
 -1      3512 3.95204E-01
 -1      3513 3.39849E-01
 -1      3514 4.40206E-01
 -1      3515 2.98003E-01
 -1      3516 2.93070E-01
 -1      3517 3.34916E-01
 -1      3518 2.46964E-01
 -1      3519 1.02471E-01
 -1      3520 9.66562E-02
 -1      3521 1.12512E-01
 -1      3522 1.27102E-01
 -1      3523 1.81710E-01
 -1      3524 1.44995E-01
 -1      3525 4.50206E-01
 -1      3526 3.97805E-01
 -1      3527 5.58860E-01
 -1      3528 5.04529E-01
 -1      3529 4.81498E-01
 -1      3530 6.91813E-01
 -1      3531 6.36161E-01
 -1      3532 6.13123E-01
 -1      3533 8.54213E-01
 -1      3534 7.90474E-01
 -1      3535 7.89086E-01
 -1      3536 1.06436E+00
 -1      3537 9.63796E-01
 -1      3538 9.97330E-01
 -1      3539 1.28949E+00
 -1      3540 1.19618E+00
 -1      3541 1.23873E+00
 -1      3542 1.54730E+00
 -1      3543 1.46364E+00
 -1      3544 1.54469E+00
 -1      3545 1.83326E+00
 -1      3546 1.81400E+00
 -1      3547 1.98554E+00
 -1      3548 2.21660E+00
 -1      3549 1.95204E+00
 -1      3550 1.65092E+00
 -1      3551 1.96705E+00
 -1      3552 2.87790E+00
 -1      3553 3.99437E+00
 -1      3554 3.56187E+00
 -1      3555 2.40735E+00
 -1      3556 2.28735E+00
 -1      3557 2.45001E+00
 -1      3558 1.33242E+00
 -1      3559 1.43480E+00
 -1      3560 1.05174E+00
 -1      3561 1.14716E+00
 -1      3562 1.38949E+00
 -1      3563 8.56540E-01
 -1      3564 9.36180E-01
 -1      3565 1.08867E+00
 -1      3566 7.01525E-01
 -1      3567 7.54178E-01
 -1      3568 8.70739E-01
 -1      3569 5.65614E-01
 -1      3570 6.18514E-01
 -1      3571 6.85366E-01
 -1      3572 4.53448E-01
 -1      3573 5.03267E-01
 -1      3574 5.40007E-01
 -1      3575 3.59667E-01
 -1      3576 4.05138E-01
 -1      3577 4.29350E-01
 -1      3578 2.84093E-01
 -1      3579 3.22298E-01
 -1      3580 3.43671E-01
 -1      3581 2.17485E-01
 -1      3582 2.49412E-01
 -1      3583 2.71622E-01
 -1      3584 1.88306E-01
 -1      3585 1.87885E-01
 -1      3586 2.50238E-01
 -1      3587 1.87885E-01
 -1      3588 1.83355E-01
 -1      3589 2.07405E-01
 -1      3590 8.53500E+00
 -1      3591 8.41534E+00
 -1      3592 1.36947E-01
 -1      3593 1.55824E-01
 -1      3594 2.70620E-01
 -1      3595 3.18475E-01
 -1      3596 5.35316E+00
 -1      3597 3.77176E+00
 -1      3598 2.70878E+00
 -1      3599 2.12783E+00
 -1      3600 1.15080E-01
 -1      3601 9.05549E-02
 -1      3602 1.43283E-01
 -1      3603 5.30600E+00
 -1      3604 7.14771E+00
 -1      3605 3.12402E-01
 -1      3606 3.20230E-01
 -1      3607 2.85195E-01
 -1      3608 7.74058E+00
 -1      3609 8.25174E+00
 -1      3610 6.00151E+00
 -1      3611 3.54993E+00
 -1      3612 1.82277E-01
 -1      3613 1.90613E-01
 -1      3614 1.71674E-01
 -1      3615 1.95298E-01
 -1      3616 1.46817E-01
 -1      3617 6.97927E+00
 -1      3618 7.61721E+00
 -1      3619 8.44707E+00
 -1      3620 8.50996E+00
 -1      3621 1.58658E+00
 -1      3622 1.65564E+00
 -1      3623 1.72652E+00
 -1      3624 2.61036E-01
 -1      3625 2.19365E-01
 -1      3626 2.10852E-01
 -1      3627 8.53500E+00
 -1      3628 8.53500E+00
 -1      3629 7.11450E+00
 -1      3630 2.93070E-01
 -1      3631 3.28315E+00
 -1      3632 5.42515E+00
 -1      3633 4.10372E+00
 -1      3634 3.74959E+00
 -1      3635 5.20423E+00
 -1      3636 6.23246E+00
 -1      3637 7.37801E+00
 -1      3638 6.27994E+00
 -1      3639 4.65349E+00
 -1      3640 4.53361E+00
 -1      3641 3.65625E+00
 -1      3642 2.03967E-01
 -1      3643 1.96061E-01
 -1      3644 1.60734E-01
 -1      3645 3.49259E-01
 -1      3646 3.01823E-01
 -1      3647 2.89294E-01
 -1      3648 3.78628E-01
 -1      3649 2.21871E-01
 -1      3650 2.05271E-01
 -1      3651 2.03148E-01
 -1      3652 3.04953E+00
 -1      3653 1.70235E+00
 -1      3654 1.84999E+00
 -1      3655 1.92502E+00
 -1      3656 3.34965E+00
 -1      3657 6.38136E+00
 -1      3658 2.92973E+00
 -1      3659 2.21502E-01
 -1      3660 4.94107E+00
 -1      3661 6.45188E+00
 -1      3662 3.94814E+00
 -1      3663 1.90768E-01
 -1      3664 2.32086E-01
 -1      3665 6.11760E+00
 -1      3666 3.20546E+00
 -1      3667 2.81062E-01
 -1      3668 6.67362E+00
 -1      3669 2.14460E-01
 -1      3670 2.14460E-01
 -1      3671 2.38510E-01
 -1      3672 8.28995E+00
 -1      3673 1.00066E-01
 -1      3674 1.22145E-01
 -1      3675 1.16165E-01
 -1      3676 2.47536E+00
 -1      3677 2.89434E+00
 -1      3678 2.52909E+00
 -1      3679 1.09403E-01
 -1      3680 8.65894E-02
 -1      3681 1.02103E-01
 -1      3682 2.39235E-01
 -1      3683 2.28482E-01
 -1      3684 1.62357E-01
 -1      3685 1.89132E-01
 -1      3686 1.32471E-01
 -1      3687 1.50349E-01
 -1      3688 3.08645E+00
 -1      3689 3.20546E+00
 -1      3690 4.00361E+00
 -1      3691 2.52909E+00
 -1      3692 2.31183E-01
 -1      3693 6.99059E+00
 -1      3694 3.84978E+00
 -1      3695 2.49472E-01
 -1      3696 2.45209E-01
 -1      3697 2.11648E-01
 -1      3698 2.02631E-01
 -1      3699 1.86689E-01
 -1      3700 3.65633E+00
 -1      3701 2.80908E-01
 -1      3702 4.38884E+00
 -1      3703 2.48852E-01
 -1      3704 2.48852E-01
 -1      3705 2.13178E-01
 -1      3706 6.24097E+00
 -1      3707 1.39248E-01
 -1      3708 1.75535E-01
 -1      3709 2.34691E-01
 -1      3710 2.31911E-01
 -1      3711 1.63923E-01
 -1      3712 8.05949E+00
 -1      3713 6.63899E+00
 -1      3714 7.22672E+00
 -1      3715 1.48190E-01
 -1      3716 4.25724E+00
 -1      3717 5.84018E+00
 -1      3718 4.85515E+00
 -1      3719 2.08588E-01
 -1      3720 1.60837E-01
 -1      3721 1.63201E-01
 -1      3722 5.00659E+00
 -1      3723 5.12995E+00
 -1      3724 2.93070E-01
 -1      3725 3.65770E+00
 -1      3726 3.70725E+00
 -1      3727 1.23939E-01
 -1      3728 1.11691E-01
 -1      3729 1.21579E-01
 -1      3730 1.24099E-01
 -1      3731 1.18191E-01
 -1      3732 1.34484E-01
 -1      3733 1.42587E-01
 -1      3734 1.38464E-01
 -1      3735 1.54051E-01
 -1      3736 1.67274E-01
 -1      3737 1.60313E-01
 -1      3738 1.85536E-01
 -1      3739 2.29939E-01
 -1      3740 1.90040E-01
 -1      3741 2.73353E-01
 -1      3742 3.28222E-01
 -1      3743 2.51717E-01
 -1      3744 3.82719E-01
 -1      3745 4.51112E-01
 -1      3746 3.49628E-01
 -1      3747 5.21288E-01
 -1      3748 6.07513E-01
 -1      3749 4.74301E-01
 -1      3750 7.00280E-01
 -1      3751 8.10476E-01
 -1      3752 6.37244E-01
 -1      3753 9.39040E-01
 -1      3754 1.08193E+00
 -1      3755 8.58576E-01
 -1      3756 1.26822E+00
 -1      3757 1.45618E+00
 -1      3758 1.17343E+00
 -1      3759 1.73480E+00
 -1      3760 1.99105E+00
 -1      3761 1.63834E+00
 -1      3762 2.67963E+00
 -1      3763 3.33480E+00
 -1      3764 2.60554E+00
 -1      3765 2.23750E-01
 -1      3766 2.09268E-01
 -1      3767 1.72146E-01
 -1      3768 1.85699E-01
 -1      3769 3.64288E-01
 -1      3770 3.64288E-01
 -1      3771 4.79679E+00
 -1      3772 4.24843E+00
 -1      3773 2.45444E+00
 -1      3774 2.23105E+00
 -1      3775 1.93962E+00
 -1      3776 1.70079E+00
 -1      3777 2.20217E+00
 -1      3778 1.41929E+00
 -1      3779 1.24550E+00
 -1      3780 1.62924E+00
 -1      3781 1.06494E+00
 -1      3782 9.30449E-01
 -1      3783 1.16719E+00
 -1      3784 8.04919E-01
 -1      3785 7.00653E-01
 -1      3786 8.61105E-01
 -1      3787 6.09623E-01
 -1      3788 5.28583E-01
 -1      3789 6.44544E-01
 -1      3790 4.91028E-01
 -1      3791 4.27582E-01
 -1      3792 5.15958E-01
 -1      3793 4.06133E-01
 -1      3794 8.71253E-01
 -1      3795 7.72592E-01
 -1      3796 1.56988E-01
 -1      3797 2.41264E-01
 -1      3798 2.39235E-01
 -1      3799 3.23223E-01
 -1      3800 6.83035E-01
 -1      3801 6.05734E-01
 -1      3802 7.65203E-01
 -1      3803 5.35821E-01
 -1      3804 4.81498E-01
 -1      3805 6.05734E-01
 -1      3806 1.13626E+00
 -1      3807 1.02668E+00
 -1      3808 1.01019E+00
 -1      3809 1.55618E+00
 -1      3810 1.42437E+00
 -1      3811 1.45372E+00
 -1      3812 2.19301E+00
 -1      3813 2.01886E+00
 -1      3814 2.20450E+00
 -1      3815 2.45947E-01
 -1      3816 2.08292E-01
 -1      3817 5.55205E+00
 -1      3818 4.52352E+00
 -1      3819 5.99292E+00
 -1      3820 3.31661E+00
 -1      3821 2.40297E-01
 -1      3822 2.44381E-01
 -1      3823 2.08087E-01
 -1      3824 1.17517E+00
 -1      3825 1.29074E+00
 -1      3826 2.00691E+00
 -1      3827 2.19216E+00
 -1      3828 2.09342E+00
 -1      3829 6.71579E-01
 -1      3830 7.54590E-01
 -1      3831 5.31870E-01
 -1      3832 5.94218E-01
 -1      3833 6.63442E-01
 -1      3834 4.29350E-01
 -1      3835 4.77660E-01
 -1      3836 5.31870E-01
 -1      3837 3.43332E-01
 -1      3838 3.80701E-01
 -1      3839 4.29011E-01
 -1      3840 2.86761E-01
 -1      3841 3.21442E-01
 -1      3842 3.58472E-01
 -1      3843 3.21455E-01
 -1      3844 5.86028E+00
 -1      3845 5.86028E+00
 -1      3846 3.01232E+00
 -1      3847 3.56968E+00
 -1      3848 4.87206E+00
 -1      3849 2.96560E+00
 -1      3850 3.06831E-01
 -1      3851 3.06831E-01
 -1      3852 5.45017E+00
 -1      3853 6.74954E+00
 -1      3854 4.63101E+00
 -1      3855 2.51729E-01
 -1      3856 3.80914E+00
 -1      3857 2.80082E-01
 -1      3858 5.46017E+00
 -1      3859 5.46017E+00
 -1      3860 1.47627E-01
 -1      3861 1.60495E-01
 -1      3862 1.32929E-01
 -1      3863 2.16123E+00
 -1      3864 2.31300E+00
 -1      3865 3.40030E+00
 -1      3866 2.77864E+00
 -1      3867 4.19760E+00
 -1      3868 1.71435E-01
 -1      3869 1.41521E-01
 -1      3870 2.06529E-01
 -1      3871 2.45781E-01
 -1      3872 2.45781E-01
 -1      3873 1.95277E-01
 -1      3874 5.46017E+00
 -1      3875 5.22072E+00
 -1      3876 1.23860E-01
 -1      3877 1.39710E-01
 -1      3878 1.24670E-01
 -1      3879 7.22672E+00
 -1      3880 7.22672E+00
 -1      3881 3.01422E+00
 -1      3882 8.57030E-01
 -1      3883 9.59392E-01
 -1      3884 8.43243E-01
 -1      3885 3.18591E+00
 -1      3886 2.63162E+00
 -1      3887 2.67078E+00
 -1      3888 3.85965E+00
 -1      3889 2.45209E-01
 -1      3890 2.49496E-01
 -1      3891 2.10083E-01
 -1      3892 2.13798E-01
 -1      3893 1.84821E-01
 -1      3894 1.28044E-01
 -1      3895 1.23632E-01
 -1      3896 1.48307E-01
 -1      3897 1.37170E-01
 -1      3898 1.26997E-01
 -1      3899 1.11361E-01
 -1      3900 1.35983E-01
 -1      3901 1.35172E-01
 -1      3902 1.12420E-01
 -1      3903 1.10092E-01
 -1      3904 1.23446E-01
 -1      3905 9.78841E-02
 -1      3906 9.88876E-02
 -1      3907 3.29902E-01
 -1      3908 3.30613E+00
 -1      3909 2.54414E+00
 -1      3910 2.27745E+00
 -1      3911 3.47807E+00
 -1      3912 4.39973E+00
 -1      3913 4.07079E+00
 -1      3914 5.18180E+00
 -1      3915 4.40101E+00
 -1      3916 3.30081E-01
 -1      3917 2.89294E-01
 -1      3918 2.86734E-01
 -1      3919 3.65653E+00
 -1      3920 3.69721E+00
 -1      3921 1.68407E-01
 -1      3922 1.60974E-01
 -1      3923 2.61631E-01
 -1      3924 2.92736E-01
 -1      3925 3.61057E-01
 -1      3926 1.79564E-01
 -1      3927 1.79564E-01
 -1      3928 4.56954E-01
 -1      3929 4.73870E+00
 -1      3930 2.96419E-01
 -1      3931 1.03400E-01
 -1      3932 2.75161E+00
 -1      3933 1.38476E-01
 -1      3934 1.56304E-01
 -1      3935 1.28152E-01
 -1      3936 1.24186E-01
 -1      3937 3.29902E-01
 -1      3938 3.36581E-01
 -1      3939 3.29902E-01
 -1      3940 1.16147E+00
 -1      3941 4.20881E-01
 -1      3942 1.22772E-01
 -1      3943 1.15664E-01
 -1      3944 1.07969E-01
 -1      3945 5.78934E+00
 -1      3946 4.53512E+00
 -1      3947 5.31383E+00
 -1      3948 1.93256E-01
 -1      3949 1.93876E-01
 -1      3950 1.59642E-01
 -1      3951 5.68630E+00
 -1      3952 6.16348E+00
 -1      3953 4.67938E+00
 -1      3954 4.81498E-01
 -1      3955 4.27174E-01
 -1      3956 3.78628E-01
 -1      3957 3.70838E+00
 -1      3958 2.29611E+00
 -1      3959 2.00468E+00
 -1      3960 1.73649E-01
 -1      3961 1.90941E-01
 -1      3962 1.38695E-01
 -1      3963 1.49080E-01
 -1      3964 1.60313E-01
 -1      3965 1.71777E-01
 -1      3966 1.60544E-01
 -1      3967 1.89563E-01
 -1      3968 2.07826E-01
 -1      3969 1.89563E-01
 -1      3970 2.33331E-01
 -1      3971 2.76746E-01
 -1      3972 2.32854E-01
 -1      3973 3.09804E-01
 -1      3974 3.64301E-01
 -1      3975 2.91418E-01
 -1      3976 4.09154E-01
 -1      3977 4.79330E-01
 -1      3978 3.69330E-01
 -1      3979 5.38857E-01
 -1      3980 6.31624E-01
 -1      3981 4.73710E-01
 -1      3982 7.15032E-01
 -1      3983 8.43597E-01
 -1      3984 6.16646E-01
 -1      3985 9.63356E-01
 -1      3986 1.14965E+00
 -1      3987 8.19812E-01
 -1      3988 1.29679E+00
 -1      3989 1.57541E+00
 -1      3990 1.08672E+00
 -1      3991 1.82349E+00
 -1      3992 2.51208E+00
 -1      3993 2.92633E+00
 -1      3994 1.48194E+00
 -1      3995 4.13523E-01
 -1      3996 4.62172E-01
 -1      3997 4.90212E+00
 -1      3998 5.37930E+00
 -1      3999 4.56954E-01
 -1      4000 4.35505E-01
 -1      4001 4.20881E-01
 -1      4002 1.61473E+00
 -1      4003 1.33324E+00
 -1      4004 1.70867E+00
 -1      4005 1.14502E+00
 -1      4006 9.64460E-01
 -1      4007 1.13051E+00
 -1      4008 8.38323E-01
 -1      4009 7.12793E-01
 -1      4010 8.16148E-01
 -1      4011 6.28523E-01
 -1      4012 5.37492E-01
 -1      4013 6.05741E-01
 -1      4014 5.15958E-01
 -1      4015 4.78403E-01
 -1      4016 4.56954E-01
 -1      4017 4.99937E-01
 -1      4018 2.35111E+00
 -1      4019 2.06301E+00
 -1      4020 8.54760E-01
 -1      4021 7.65203E-01
 -1      4022 6.75646E-01
 -1      4023 6.05734E-01
 -1      4024 7.65203E-01
 -1      4025 2.93024E-01
 -1      4026 3.19829E-01
 -1      4027 3.26508E-01
 -1      4028 3.16146E-01
 -1      4029 4.04090E+00
 -1      4030 3.76125E+00
 -1      4031 3.03480E+00
 -1      4032 2.57212E+00
 -1      4033 1.70880E-01
 -1      4034 1.59790E-01
 -1      4035 1.23910E-01
 -1      4036 1.39007E+00
 -1      4037 1.23464E+00
 -1      4038 2.28746E+00
 -1      4039 1.79642E+00
 -1      4040 2.51259E+00
 -1      4041 1.78007E-01
 -1      4042 1.74292E-01
 -1      4043 1.38805E-01
 -1      4044 1.43773E-01
 -1      4045 5.27921E-01
 -1      4046 5.82131E-01
 -1      4047 5.12433E-01
 -1      4048 6.63442E-01
 -1      4049 7.40803E-01
 -1      4050 6.59493E-01
 -1      4051 3.44717E-01
 -1      4052 3.66607E-01
 -1      4053 3.99768E-01
 -1      4054 3.44717E-01
 -1      4055 1.53613E-01
 -1      4056 1.58818E-01
 -1      4057 1.17183E-01
 -1      4058 1.15145E-01
 -1      4059 1.21752E-01
 -1      4060 1.35931E-01
 -1      4061 3.97841E+00
 -1      4062 1.12773E-01
 -1      4063 1.13115E-01
 -1      4064 2.29815E-01
 -1      4065 1.92959E-01
 -1      4066 1.08485E-01
 -1      4067 1.16402E-01
 -1      4068 9.65889E-02
 -1      4069 5.37930E+00
 -1      4070 5.37930E+00
 -1      4071 4.52965E+00
 -1      4072 1.19101E-01
 -1      4073 1.28989E-01
 -1      4074 1.39605E-01
 -1      4075 8.43243E-01
 -1      4076 9.45683E-01
 -1      4077 8.43243E-01
 -1      4078 4.00571E+00
 -1      4079 4.00571E+00
 -1      4080 9.70347E-02
 -1      4081 9.90334E-02
 -1      4082 3.72701E+00
 -1      4083 1.88785E-01
 -1      4084 1.93256E-01
 -1      4085 1.09123E+00
 -1      4086 1.30701E+00
 -1      4087 1.09123E+00
 -1      4088 1.12027E-01
 -1      4089 1.08970E-01
 -1      4090 9.66425E-02
 -1      4091 3.11924E+00
 -1      4092 3.40535E+00
 -1      4093 3.70235E+00
 -1      4094 3.78628E-01
 -1      4095 2.67078E+00
 -1      4096 2.47329E+00
 -1      4097 1.19768E-01
 -1      4098 3.18142E+00
 -1      4099 3.36724E+00
 -1      4100 4.00935E+00
 -1      4101 4.59511E+00
 -1      4102 3.87756E-01
 -1      4103 3.73132E-01
 -1      4104 3.27932E-01
 -1      4105 1.23464E+00
 -1      4106 5.95828E-01
 -1      4107 5.25916E-01
 -1      4108 4.71593E-01
 -1      4109 1.06460E-01
 -1      4110 9.49770E-02
 -1      4111 8.14368E-02
 -1      4112 1.72778E-01
 -1      4113 1.59409E-01
 -1      4114 1.96064E-01
 -1      4115 2.84797E+00
 -1      4116 1.72618E+00
 -1      4117 1.33457E-01
 -1      4118 2.73542E-01
 -1      4119 2.59972E-01
 -1      4120 3.16890E-01
 -1      4121 1.23065E-01
 -1      4122 1.14797E-01
 -1      4123 1.21977E-01
 -1      4124 1.11761E-01
 -1      4125 1.10204E-01
 -1      4126 1.26073E-01
 -1      4127 1.11761E-01
 -1      4128 7.81913E-02
 -1      4129 3.26576E+00
 -1      4130 3.54412E+00
 -1      4131 2.87046E+00
 -1      4132 2.06945E+00
 -1      4133 3.65607E+00
 -1      4134 3.72701E+00
 -1      4135 7.25778E-02
 -1      4136 8.51145E-02
 -1      4137 7.17284E-02
 -1      4138 6.86672E-02
 -1      4139 4.26747E-01
 -1      4140 3.78201E-01
 -1      4141 3.65009E-01
 -1      4142 1.17713E-01
 -1      4143 1.27844E-01
 -1      4144 1.60321E-01
 -1      4145 1.71554E-01
 -1      4146 1.84122E-01
 -1      4147 2.01907E-01
 -1      4148 1.83899E-01
 -1      4149 2.26450E-01
 -1      4150 2.51955E-01
 -1      4151 2.21008E-01
 -1      4152 2.83424E-01
 -1      4153 3.16483E-01
 -1      4154 2.77020E-01
 -1      4155 3.48758E-01
 -1      4156 3.93611E-01
 -1      4157 3.40764E-01
 -1      4158 4.41334E-01
 -1      4159 5.00861E-01
 -1      4160 4.20762E-01
 -1      4161 5.70761E-01
 -1      4162 6.54168E-01
 -1      4163 5.38384E-01
 -1      4164 7.83210E-01
 -1      4165 9.02969E-01
 -1      4166 7.37325E-01
 -1      4167 1.11038E+00
 -1      4168 1.25753E+00
 -1      4169 1.07378E+00
 -1      4170 1.99852E+00
 -1      4171 1.60857E+00
 -1      4172 1.20558E+00
 -1      4173 1.01736E+00
 -1      4174 1.49542E+00
 -1      4175 9.44735E-01
 -1      4176 8.18599E-01
 -1      4177 1.01981E+00
 -1      4178 6.92441E-01
 -1      4179 6.08171E-01
 -1      4180 8.21029E-01
 -1      4181 3.14623E+00
 -1      4182 1.57028E+00
 -1      4183 1.19040E+00
 -1      4184 1.73954E-01
 -1      4185 1.09872E-01
 -1      4186 7.62684E-01
 -1      4187 8.43995E-01
 -1      4188 1.39175E-01
 -1      4189 1.48880E-01
 -1      4190 1.59891E-01
 -1      4191 3.91890E+00
 -1      4192 3.85344E+00
 -1      4193 3.04533E+00
 -1      4194 5.70777E-01
 -1      4195 6.36526E-01
 -1      4196 8.21029E-01
 -1      4197 8.60563E-01
 -1      4198 7.71006E-01
 -1      4199 1.19621E+00
 -1      4200 1.53867E+00
 -1      4201 2.02807E+00
 -1      4202 9.51591E-02
 -1      4203 9.15304E-02
 -1      4204 3.91890E+00
 -1      4205 3.91890E+00
 -1      4206 3.24269E+00
 -1      4207 2.72914E+00
 -1      4208 8.43995E-01
 -1      4209 9.46435E-01
 -1      4210 9.47187E-01
 -1      4211 2.67065E+00
 -1      4212 7.78588E-02
 -1      4213 1.06827E+00
 -1      4214 1.21382E+00
 -1      4215 1.51571E+00
 -1      4216 9.19647E-02
 -1      4217 1.04959E-01
 -1      4218 1.13035E-01
 -1      4219 3.14623E+00
 -1      4220 2.96041E+00
 -1      4221 1.26073E-01
 -1      4222 2.28746E+00
 -1      4223 1.54852E+00
 -1      4224 1.52485E+00
 -1      4225 1.77294E+00
 -1      4226 8.55757E-02
 -1      4227 2.57055E+00
 -1      4228 8.41460E-02
 -1      4229 3.79646E-01
 -1      4230 3.31897E-01
 -1      4231 4.01095E-01
 -1      4232 1.14797E-01
 -1      4233 1.09739E-01
 -1      4234 1.29377E-01
 -1      4235 4.86890E-01
 -1      4236 4.65356E-01
 -1      4237 3.88048E-01
 -1      4238 5.73590E-01
 -1      4239 6.39804E-01
 -1      4240 5.59987E-01
 -1      4241 7.35165E-01
 -1      4242 3.16434E-01
 -1      4243 3.26508E-01
 -1      4244 3.34643E-01
 -1      4245 3.28221E-01
 -1      4246 6.29886E-02
 -1      4247 7.49088E-02
 -1      4248 8.32249E-02
 -1      4249 2.24323E+00
 -1      4250 2.30586E-01
 -1      4251 2.10405E-01
 -1      4252 1.37119E-01
 -1      4253 4.71165E-01
 -1      4254 1.46637E-01
 -1      4255 1.39634E-01
 -1      4256 1.63111E-01
 -1      4257 1.22995E-01
 -1      4258 1.30396E-01
 -1      4259 1.30171E-01
 -1      4260 2.68464E+00
 -1      4261 4.07503E-01
 -1      4262 5.31596E-01
 -1      4263 3.60587E-01
 -1      4264 2.54162E+00
 -1      4265 1.06902E+00
 -1      4266 2.82529E-01
 -1      4267 2.38802E-01
 -1      4268 2.53143E-01
 -1      4269 2.20696E-01
 -1      4270 2.45239E-01
 -1      4271 2.53455E-01
 -1      4272 2.84924E-01
 -1      4273 4.07291E-01
 -1      4274 4.55014E-01
 -1      4275 5.36224E-01
 -1      4276 6.06123E-01
 -1      4277 7.37325E-01
 -1      4278 8.66367E-01
 -1      4279 1.19621E+00
 -1      4280 1.40362E+00
 -1      4281 1.06426E+00
 -1      4282 9.91640E-01
 -1      4283 9.47187E-01
 -1      4284 8.21029E-01
 -1      4285 1.30620E-01
 -1      4286 1.41950E-01
 -1      4287 2.15640E-01
 -1      4288 1.81119E-01
 -1      4289 1.68347E-01
 -1      4290 4.78777E-01
 -1      4291 4.33931E-01
 -1      4292 1.53890E-01
 -1      4293 1.65331E-01
 -1      4294 1.47391E-01
 -1      4295 1.19086E+00
 -1      4296 1.51571E+00
 -1      4297 7.21802E-02
 -1      4298 7.21802E-02
 -1      4299 1.14829E-01
 -1      4300 1.27583E-01
 -1      4301 2.11236E+00
 -1      4302 1.54464E+00
 -1      4303 1.14165E+00
 -1      4304 2.57055E+00
 -1      4305 3.81413E-01
 -1      4306 3.20103E-01
 -1      4307 2.98933E-01
 -1      4308 3.89025E-01
 -1      4309 6.94871E-01
 -1      4310 1.78843E-01
 -1      4311 1.91410E-01
 -1      4312 2.15640E-01
 -1      4313 1.72842E-01
 -1      4314 9.91640E-01
 -1      4315 1.11348E+00
 -1      4316 7.21802E-02
 -1      4317 7.18476E-02
 -1      4318 2.12080E+00
 -1      4319 6.61690E-02
 -1      4320 3.22498E-01
 -1      4321 5.22753E-01
 -1      4322 3.54773E-01
 -1      4323 2.44927E-01
 -1      4324 2.15640E-01
 -1      4325 1.32414E-01
 -1      4326 8.32249E-02
 -1      4327 1.32414E-01
 -1      4328 1.32414E-01
 -1      4329 1.35451E-01
 -1      4330 1.33433E-01
 -1      4331 9.47187E-01
 -1      4332 1.11348E+00
 -1      4333 7.81348E-02
 -1      4334 9.51908E-02
 -1      4335 3.42378E-01
 -1      4336 3.28221E-01
 -1      4337 1.40877E-01
 -1      4338 2.38813E+00
 -1      4339 1.86948E+00
 -1      4340 3.46055E-01
 -1      4341 3.54165E-01
 -1      4342 5.09329E-01
 -1      4343 5.73590E-01
 -1      4344 1.54835E-01
 -1      4345 1.45373E-01
 -1      4346 1.47391E-01
 -1      4347 1.72842E-01
 -1      4348 2.53143E-01
 -1      4349 1.47391E-01
 -1      4350 1.86354E-01
 -1      4351 1.72842E-01
 -1      4352 1.59330E-01
 -3
 9999
