    1C
    1UUSER                                                              
    1UDATE              26.october.2022                                 
    1UTIME              23:59:32                                        
    1UHOST                                                              
    1UPGM               CalculiX                                        
    1UVERSION           Version 2.17                             
    1UCOMPILETIME       Thu Jul 23 21:43:50 CEST 2020                    
    1UDIR                                                               
    1UDBN                                                               
    1UMAT    1SOLIDMATERIAL                                             
    2C                          4397                                     1
 -1         1 3.79930E+01 2.86652E+01 0.00000E+00
 -1         2 4.49850E+01 2.16652E+01 0.00000E+00
 -1         3 1.50000E+02 0.00000E+00 0.00000E+00
 -1         4 1.50000E+02 5.00000E+01 0.00000E+00
 -1         5 0.00000E+00 0.00000E+00 0.00000E+00
 -1         6 0.00000E+00 5.00000E+01 0.00000E+00
 -1         7 0.00000E+00 4.70500E+01 0.00000E+00
 -1         8 0.00000E+00 4.41000E+01 0.00000E+00
 -1         9 0.00000E+00 4.11500E+01 0.00000E+00
 -1        10 0.00000E+00 3.82000E+01 0.00000E+00
 -1        11 0.00000E+00 3.52500E+01 0.00000E+00
 -1        12 0.00000E+00 3.23500E+01 0.00000E+00
 -1        13 0.00000E+00 2.94000E+01 0.00000E+00
 -1        14 0.00000E+00 2.64500E+01 0.00000E+00
 -1        15 0.00000E+00 2.35000E+01 0.00000E+00
 -1        16 0.00000E+00 2.05500E+01 0.00000E+00
 -1        17 0.00000E+00 1.76000E+01 0.00000E+00
 -1        18 0.00000E+00 1.47000E+01 0.00000E+00
 -1        19 0.00000E+00 1.17500E+01 0.00000E+00
 -1        20 0.00000E+00 8.80000E+00 0.00000E+00
 -1        21 0.00000E+00 5.85000E+00 0.00000E+00
 -1        22 0.00000E+00 2.90000E+00 0.00000E+00
 -1        23 3.15000E+00 5.00000E+01 0.00000E+00
 -1        24 6.15000E+00 5.00000E+01 0.00000E+00
 -1        25 9.15000E+00 5.00000E+01 0.00000E+00
 -1        26 1.21500E+01 5.00000E+01 0.00000E+00
 -1        27 1.51500E+01 5.00000E+01 0.00000E+00
 -1        28 1.81500E+01 5.00000E+01 0.00000E+00
 -1        29 2.11500E+01 5.00000E+01 0.00000E+00
 -1        30 2.41500E+01 5.00000E+01 0.00000E+00
 -1        31 2.71500E+01 5.00000E+01 0.00000E+00
 -1        32 3.01500E+01 5.00000E+01 0.00000E+00
 -1        33 3.31500E+01 5.00000E+01 0.00000E+00
 -1        34 3.61500E+01 5.00000E+01 0.00000E+00
 -1        35 3.91500E+01 5.00000E+01 0.00000E+00
 -1        36 4.21500E+01 5.00000E+01 0.00000E+00
 -1        37 4.51500E+01 5.00000E+01 0.00000E+00
 -1        38 4.81500E+01 5.00000E+01 0.00000E+00
 -1        39 5.11500E+01 5.00000E+01 0.00000E+00
 -1        40 5.41500E+01 5.00000E+01 0.00000E+00
 -1        41 5.71500E+01 5.00000E+01 0.00000E+00
 -1        42 6.01500E+01 5.00000E+01 0.00000E+00
 -1        43 6.31500E+01 5.00000E+01 0.00000E+00
 -1        44 6.61500E+01 5.00000E+01 0.00000E+00
 -1        45 6.91500E+01 5.00000E+01 0.00000E+00
 -1        46 7.21500E+01 5.00000E+01 0.00000E+00
 -1        47 7.51500E+01 5.00000E+01 0.00000E+00
 -1        48 7.81500E+01 5.00000E+01 0.00000E+00
 -1        49 8.11500E+01 5.00000E+01 0.00000E+00
 -1        50 8.41500E+01 5.00000E+01 0.00000E+00
 -1        51 8.71500E+01 5.00000E+01 0.00000E+00
 -1        52 9.01500E+01 5.00000E+01 0.00000E+00
 -1        53 9.31500E+01 5.00000E+01 0.00000E+00
 -1        54 9.61500E+01 5.00000E+01 0.00000E+00
 -1        55 9.91500E+01 5.00000E+01 0.00000E+00
 -1        56 1.02150E+02 5.00000E+01 0.00000E+00
 -1        57 1.05150E+02 5.00000E+01 0.00000E+00
 -1        58 1.08150E+02 5.00000E+01 0.00000E+00
 -1        59 1.11150E+02 5.00000E+01 0.00000E+00
 -1        60 1.14150E+02 5.00000E+01 0.00000E+00
 -1        61 1.17150E+02 5.00000E+01 0.00000E+00
 -1        62 1.20150E+02 5.00000E+01 0.00000E+00
 -1        63 1.23150E+02 5.00000E+01 0.00000E+00
 -1        64 1.26150E+02 5.00000E+01 0.00000E+00
 -1        65 1.29150E+02 5.00000E+01 0.00000E+00
 -1        66 1.32150E+02 5.00000E+01 0.00000E+00
 -1        67 1.35150E+02 5.00000E+01 0.00000E+00
 -1        68 1.38150E+02 5.00000E+01 0.00000E+00
 -1        69 1.41150E+02 5.00000E+01 0.00000E+00
 -1        70 1.44150E+02 5.00000E+01 0.00000E+00
 -1        71 1.47150E+02 5.00000E+01 0.00000E+00
 -1        72 3.15000E+00 0.00000E+00 0.00000E+00
 -1        73 6.15000E+00 0.00000E+00 0.00000E+00
 -1        74 9.15000E+00 0.00000E+00 0.00000E+00
 -1        75 1.21500E+01 0.00000E+00 0.00000E+00
 -1        76 1.51500E+01 0.00000E+00 0.00000E+00
 -1        77 1.81500E+01 0.00000E+00 0.00000E+00
 -1        78 2.11500E+01 0.00000E+00 0.00000E+00
 -1        79 2.41500E+01 0.00000E+00 0.00000E+00
 -1        80 2.71500E+01 0.00000E+00 0.00000E+00
 -1        81 3.01500E+01 0.00000E+00 0.00000E+00
 -1        82 3.31500E+01 0.00000E+00 0.00000E+00
 -1        83 3.61500E+01 0.00000E+00 0.00000E+00
 -1        84 3.91500E+01 0.00000E+00 0.00000E+00
 -1        85 4.20000E+01 0.00000E+00 0.00000E+00
 -1        86 4.50000E+01 0.00000E+00 0.00000E+00
 -1        87 4.80000E+01 0.00000E+00 0.00000E+00
 -1        88 5.10000E+01 0.00000E+00 0.00000E+00
 -1        89 5.40000E+01 0.00000E+00 0.00000E+00
 -1        90 5.70000E+01 0.00000E+00 0.00000E+00
 -1        91 6.00000E+01 0.00000E+00 0.00000E+00
 -1        92 6.30000E+01 0.00000E+00 0.00000E+00
 -1        93 6.60000E+01 0.00000E+00 0.00000E+00
 -1        94 6.90000E+01 0.00000E+00 0.00000E+00
 -1        95 7.20000E+01 0.00000E+00 0.00000E+00
 -1        96 7.50000E+01 0.00000E+00 0.00000E+00
 -1        97 7.80000E+01 0.00000E+00 0.00000E+00
 -1        98 8.10000E+01 0.00000E+00 0.00000E+00
 -1        99 8.40000E+01 0.00000E+00 0.00000E+00
 -1       100 8.70000E+01 0.00000E+00 0.00000E+00
 -1       101 9.00000E+01 0.00000E+00 0.00000E+00
 -1       102 9.30000E+01 0.00000E+00 0.00000E+00
 -1       103 9.60000E+01 0.00000E+00 0.00000E+00
 -1       104 9.90000E+01 0.00000E+00 0.00000E+00
 -1       105 1.02000E+02 0.00000E+00 0.00000E+00
 -1       106 1.05000E+02 0.00000E+00 0.00000E+00
 -1       107 1.08000E+02 0.00000E+00 0.00000E+00
 -1       108 1.11000E+02 0.00000E+00 0.00000E+00
 -1       109 1.14000E+02 0.00000E+00 0.00000E+00
 -1       110 1.17000E+02 0.00000E+00 0.00000E+00
 -1       111 1.20000E+02 0.00000E+00 0.00000E+00
 -1       112 1.23000E+02 0.00000E+00 0.00000E+00
 -1       113 1.26000E+02 0.00000E+00 0.00000E+00
 -1       114 1.29000E+02 0.00000E+00 0.00000E+00
 -1       115 1.32000E+02 0.00000E+00 0.00000E+00
 -1       116 1.35000E+02 0.00000E+00 0.00000E+00
 -1       117 1.38000E+02 0.00000E+00 0.00000E+00
 -1       118 1.41000E+02 0.00000E+00 0.00000E+00
 -1       119 1.44000E+02 0.00000E+00 0.00000E+00
 -1       120 1.47000E+02 0.00000E+00 0.00000E+00
 -1       121 1.50000E+02 2.95000E+00 0.00000E+00
 -1       122 1.50000E+02 5.90000E+00 0.00000E+00
 -1       123 1.50000E+02 8.85000E+00 0.00000E+00
 -1       124 1.50000E+02 1.18000E+01 0.00000E+00
 -1       125 1.50000E+02 1.47500E+01 0.00000E+00
 -1       126 1.50000E+02 1.76500E+01 0.00000E+00
 -1       127 1.50000E+02 2.06000E+01 0.00000E+00
 -1       128 1.50000E+02 2.35500E+01 0.00000E+00
 -1       129 1.50000E+02 2.65000E+01 0.00000E+00
 -1       130 1.50000E+02 2.94500E+01 0.00000E+00
 -1       131 1.50000E+02 3.24000E+01 0.00000E+00
 -1       132 1.50000E+02 3.53000E+01 0.00000E+00
 -1       133 1.50000E+02 3.82500E+01 0.00000E+00
 -1       134 1.50000E+02 4.12000E+01 0.00000E+00
 -1       135 1.50000E+02 4.41500E+01 0.00000E+00
 -1       136 1.50000E+02 4.71000E+01 0.00000E+00
 -1       137 4.48345E+01 2.02215E+01 0.00000E+00
 -1       138 4.43888E+01 1.88381E+01 0.00000E+00
 -1       139 4.36849E+01 1.76017E+01 0.00000E+00
 -1       140 4.27067E+01 1.64974E+01 0.00000E+00
 -1       141 4.15457E+01 1.56384E+01 0.00000E+00
 -1       142 4.01669E+01 1.50139E+01 0.00000E+00
 -1       143 3.87955E+01 1.47123E+01 0.00000E+00
 -1       144 3.72808E+01 1.47007E+01 0.00000E+00
 -1       145 3.58278E+01 1.50059E+01 0.00000E+00
 -1       146 3.44763E+01 1.56081E+01 0.00000E+00
 -1       147 3.32554E+01 1.65047E+01 0.00000E+00
 -1       148 3.21907E+01 1.77376E+01 0.00000E+00
 -1       149 3.14641E+01 1.91200E+01 0.00000E+00
 -1       150 3.10902E+01 2.04566E+01 0.00000E+00
 -1       151 3.09912E+01 2.19595E+01 0.00000E+00
 -1       152 3.12105E+01 2.34274E+01 0.00000E+00
 -1       153 3.17942E+01 2.49322E+01 0.00000E+00
 -1       154 3.26405E+01 2.61859E+01 0.00000E+00
 -1       155 3.37671E+01 2.72517E+01 0.00000E+00
 -1       156 3.49827E+01 2.79886E+01 0.00000E+00
 -1       157 3.65320E+01 2.85127E+01 0.00000E+00
 -1       158 3.95276E+01 2.84931E+01 0.00000E+00
 -1       159 4.10733E+01 2.79471E+01 0.00000E+00
 -1       160 4.23697E+01 2.71218E+01 0.00000E+00
 -1       161 4.34601E+01 2.60268E+01 0.00000E+00
 -1       162 4.42942E+01 2.46975E+01 0.00000E+00
 -1       163 4.48015E+01 2.32576E+01 0.00000E+00
 -1       164 2.59800E+00 4.55750E+01 0.00000E+00
 -1       165 2.59800E+00 4.26250E+01 0.00000E+00
 -1       166 2.59800E+00 3.96750E+01 0.00000E+00
 -1       167 2.59800E+00 3.67250E+01 0.00000E+00
 -1       168 2.59800E+00 3.38250E+01 0.00000E+00
 -1       169 2.59800E+00 3.08750E+01 0.00000E+00
 -1       170 2.59800E+00 2.79250E+01 0.00000E+00
 -1       171 2.59800E+00 2.49750E+01 0.00000E+00
 -1       172 2.59800E+00 2.20250E+01 0.00000E+00
 -1       173 2.59800E+00 1.90750E+01 0.00000E+00
 -1       174 2.59800E+00 1.61750E+01 0.00000E+00
 -1       175 2.59800E+00 1.32250E+01 0.00000E+00
 -1       176 2.59800E+00 1.02750E+01 0.00000E+00
 -1       177 2.59800E+00 7.32500E+00 0.00000E+00
 -1       178 2.59800E+00 4.37500E+00 0.00000E+00
 -1       179 2.87400E+00 2.18750E+00 0.00000E+00
 -1       180 4.65000E+00 4.74020E+01 0.00000E+00
 -1       181 7.65000E+00 4.74020E+01 0.00000E+00
 -1       182 1.06500E+01 4.74020E+01 0.00000E+00
 -1       183 1.36500E+01 4.74020E+01 0.00000E+00
 -1       184 1.66500E+01 4.74020E+01 0.00000E+00
 -1       185 1.96500E+01 4.74020E+01 0.00000E+00
 -1       186 2.26500E+01 4.74020E+01 0.00000E+00
 -1       187 2.56500E+01 4.74020E+01 0.00000E+00
 -1       188 2.86500E+01 4.74020E+01 0.00000E+00
 -1       189 3.16500E+01 4.74020E+01 0.00000E+00
 -1       190 3.46500E+01 4.74020E+01 0.00000E+00
 -1       191 3.76500E+01 4.74020E+01 0.00000E+00
 -1       192 4.06500E+01 4.74020E+01 0.00000E+00
 -1       193 4.36500E+01 4.74020E+01 0.00000E+00
 -1       194 4.66500E+01 4.74020E+01 0.00000E+00
 -1       195 4.96500E+01 4.74020E+01 0.00000E+00
 -1       196 5.26500E+01 4.74020E+01 0.00000E+00
 -1       197 5.56500E+01 4.74020E+01 0.00000E+00
 -1       198 5.86500E+01 4.74020E+01 0.00000E+00
 -1       199 6.16500E+01 4.74020E+01 0.00000E+00
 -1       200 6.46500E+01 4.74020E+01 0.00000E+00
 -1       201 6.76500E+01 4.74020E+01 0.00000E+00
 -1       202 7.06500E+01 4.74020E+01 0.00000E+00
 -1       203 7.36500E+01 4.74020E+01 0.00000E+00
 -1       204 7.66500E+01 4.74020E+01 0.00000E+00
 -1       205 7.96500E+01 4.74020E+01 0.00000E+00
 -1       206 8.26500E+01 4.74020E+01 0.00000E+00
 -1       207 8.56500E+01 4.74020E+01 0.00000E+00
 -1       208 8.86500E+01 4.74020E+01 0.00000E+00
 -1       209 9.16500E+01 4.74020E+01 0.00000E+00
 -1       210 9.46500E+01 4.74020E+01 0.00000E+00
 -1       211 9.76500E+01 4.74020E+01 0.00000E+00
 -1       212 1.00650E+02 4.74020E+01 0.00000E+00
 -1       213 1.03650E+02 4.74020E+01 0.00000E+00
 -1       214 1.06650E+02 4.74020E+01 0.00000E+00
 -1       215 1.09650E+02 4.74020E+01 0.00000E+00
 -1       216 1.12650E+02 4.74020E+01 0.00000E+00
 -1       217 1.15650E+02 4.74020E+01 0.00000E+00
 -1       218 1.18650E+02 4.74020E+01 0.00000E+00
 -1       219 1.21650E+02 4.74020E+01 0.00000E+00
 -1       220 1.24650E+02 4.74020E+01 0.00000E+00
 -1       221 1.27650E+02 4.74020E+01 0.00000E+00
 -1       222 1.30650E+02 4.74020E+01 0.00000E+00
 -1       223 1.33650E+02 4.74020E+01 0.00000E+00
 -1       224 1.36650E+02 4.74020E+01 0.00000E+00
 -1       225 1.39650E+02 4.74020E+01 0.00000E+00
 -1       226 1.42650E+02 4.74020E+01 0.00000E+00
 -1       227 1.45650E+02 4.74020E+01 0.00000E+00
 -1       228 5.87400E+00 2.18750E+00 0.00000E+00
 -1       229 8.87400E+00 2.18750E+00 0.00000E+00
 -1       230 1.18740E+01 2.18750E+00 0.00000E+00
 -1       231 1.48740E+01 2.18750E+00 0.00000E+00
 -1       232 1.78740E+01 2.18750E+00 0.00000E+00
 -1       233 2.08740E+01 2.18750E+00 0.00000E+00
 -1       234 2.38740E+01 2.18750E+00 0.00000E+00
 -1       235 2.68740E+01 2.18750E+00 0.00000E+00
 -1       236 2.98740E+01 2.18750E+00 0.00000E+00
 -1       237 3.28740E+01 2.18750E+00 0.00000E+00
 -1       238 3.58740E+01 2.18750E+00 0.00000E+00
 -1       239 3.88740E+01 2.18750E+00 0.00000E+00
 -1       240 4.17240E+01 2.18750E+00 0.00000E+00
 -1       241 4.47240E+01 2.18750E+00 0.00000E+00
 -1       242 4.77240E+01 2.18750E+00 0.00000E+00
 -1       243 5.07240E+01 2.18750E+00 0.00000E+00
 -1       244 5.37240E+01 2.18750E+00 0.00000E+00
 -1       245 5.67240E+01 2.18750E+00 0.00000E+00
 -1       246 5.97240E+01 2.18750E+00 0.00000E+00
 -1       247 6.27240E+01 2.18750E+00 0.00000E+00
 -1       248 6.57240E+01 2.18750E+00 0.00000E+00
 -1       249 6.87240E+01 2.18750E+00 0.00000E+00
 -1       250 7.17240E+01 2.18750E+00 0.00000E+00
 -1       251 7.47240E+01 2.18750E+00 0.00000E+00
 -1       252 7.77240E+01 2.18750E+00 0.00000E+00
 -1       253 8.07240E+01 2.18750E+00 0.00000E+00
 -1       254 8.37240E+01 2.18750E+00 0.00000E+00
 -1       255 8.67240E+01 2.18750E+00 0.00000E+00
 -1       256 8.97240E+01 2.18750E+00 0.00000E+00
 -1       257 9.27240E+01 2.18750E+00 0.00000E+00
 -1       258 9.57240E+01 2.18750E+00 0.00000E+00
 -1       259 9.87240E+01 2.18750E+00 0.00000E+00
 -1       260 1.01724E+02 2.18750E+00 0.00000E+00
 -1       261 1.04724E+02 2.18750E+00 0.00000E+00
 -1       262 1.07724E+02 2.18750E+00 0.00000E+00
 -1       263 1.10724E+02 2.18750E+00 0.00000E+00
 -1       264 1.13724E+02 2.18750E+00 0.00000E+00
 -1       265 1.16724E+02 2.18750E+00 0.00000E+00
 -1       266 1.19724E+02 2.18750E+00 0.00000E+00
 -1       267 1.22724E+02 2.18750E+00 0.00000E+00
 -1       268 1.25724E+02 2.18750E+00 0.00000E+00
 -1       269 1.28724E+02 2.18750E+00 0.00000E+00
 -1       270 1.31724E+02 2.18750E+00 0.00000E+00
 -1       271 1.34724E+02 2.18750E+00 0.00000E+00
 -1       272 1.37724E+02 2.18750E+00 0.00000E+00
 -1       273 1.40724E+02 2.18750E+00 0.00000E+00
 -1       274 1.43724E+02 2.18750E+00 0.00000E+00
 -1       275 1.46724E+02 2.18750E+00 0.00000E+00
 -1       276 1.47402E+02 4.42500E+00 0.00000E+00
 -1       277 1.47402E+02 7.37500E+00 0.00000E+00
 -1       278 1.47402E+02 1.03250E+01 0.00000E+00
 -1       279 1.47402E+02 1.32750E+01 0.00000E+00
 -1       280 1.47402E+02 1.61750E+01 0.00000E+00
 -1       281 1.47402E+02 1.91250E+01 0.00000E+00
 -1       282 1.47402E+02 2.20750E+01 0.00000E+00
 -1       283 1.47402E+02 2.50250E+01 0.00000E+00
 -1       284 1.47402E+02 2.79750E+01 0.00000E+00
 -1       285 1.47402E+02 3.09250E+01 0.00000E+00
 -1       286 1.47402E+02 3.38250E+01 0.00000E+00
 -1       287 1.47402E+02 3.67750E+01 0.00000E+00
 -1       288 1.47402E+02 3.97250E+01 0.00000E+00
 -1       289 1.47402E+02 4.26750E+01 0.00000E+00
 -1       290 1.46526E+02 4.50385E+01 0.00000E+00
 -1       291 4.61990E+01 2.08089E+01 0.00000E+00
 -1       292 4.60048E+01 1.90808E+01 0.00000E+00
 -1       293 4.51632E+01 1.75786E+01 0.00000E+00
 -1       294 4.41660E+01 1.61901E+01 0.00000E+00
 -1       295 4.28473E+01 1.50933E+01 0.00000E+00
 -1       296 4.14257E+01 1.40691E+01 0.00000E+00
 -1       297 3.97417E+01 1.36790E+01 0.00000E+00
 -1       298 3.80481E+01 1.34103E+01 0.00000E+00
 -1       299 3.62879E+01 1.35848E+01 0.00000E+00
 -1       300 3.46586E+01 1.41995E+01 0.00000E+00
 -1       301 3.31482E+01 1.50792E+01 0.00000E+00
 -1       302 3.16786E+01 1.62192E+01 0.00000E+00
 -1       303 3.07542E+01 1.78647E+01 0.00000E+00
 -1       304 3.01096E+01 1.94616E+01 0.00000E+00
 -1       305 2.98309E+01 2.11284E+01 0.00000E+00
 -1       306 2.99018E+01 2.28726E+01 0.00000E+00
 -1       307 3.01376E+01 2.47092E+01 0.00000E+00
 -1       308 3.11431E+01 2.62843E+01 0.00000E+00
 -1       309 3.22554E+01 2.77212E+01 0.00000E+00
 -1       310 3.37463E+01 2.86569E+01 0.00000E+00
 -1       311 3.52883E+01 2.96372E+01 0.00000E+00
 -1       312 3.71280E+01 2.98781E+01 0.00000E+00
 -1       313 3.88954E+01 2.97840E+01 0.00000E+00
 -1       314 4.07601E+01 2.95213E+01 0.00000E+00
 -1       315 4.23726E+01 2.85572E+01 0.00000E+00
 -1       316 4.37740E+01 2.74298E+01 0.00000E+00
 -1       317 4.50461E+01 2.60956E+01 0.00000E+00
 -1       318 4.56913E+01 2.43805E+01 0.00000E+00
 -1       319 4.62641E+01 2.26194E+01 0.00000E+00
 -1       320 5.19600E+00 4.11500E+01 0.00000E+00
 -1       321 5.19600E+00 4.41000E+01 0.00000E+00
 -1       322 5.19600E+00 3.52750E+01 0.00000E+00
 -1       323 5.19600E+00 3.23250E+01 0.00000E+00
 -1       324 5.19600E+00 2.93750E+01 0.00000E+00
 -1       325 5.19600E+00 2.64250E+01 0.00000E+00
 -1       326 5.19600E+00 2.34750E+01 0.00000E+00
 -1       327 5.19600E+00 2.05250E+01 0.00000E+00
 -1       328 5.19600E+00 1.76250E+01 0.00000E+00
 -1       329 5.19600E+00 1.46750E+01 0.00000E+00
 -1       330 5.19600E+00 1.17250E+01 0.00000E+00
 -1       331 5.19600E+00 8.77500E+00 0.00000E+00
 -1       332 5.19600E+00 5.82500E+00 0.00000E+00
 -1       333 5.53500E+00 4.00625E+00 0.00000E+00
 -1       334 8.53500E+00 4.00625E+00 0.00000E+00
 -1       335 9.15000E+00 4.48040E+01 0.00000E+00
 -1       336 1.21500E+01 4.48040E+01 0.00000E+00
 -1       337 1.51500E+01 4.48040E+01 0.00000E+00
 -1       338 1.81500E+01 4.48040E+01 0.00000E+00
 -1       339 2.11500E+01 4.48040E+01 0.00000E+00
 -1       340 2.41500E+01 4.48040E+01 0.00000E+00
 -1       341 2.71500E+01 4.48040E+01 0.00000E+00
 -1       342 3.01500E+01 4.48040E+01 0.00000E+00
 -1       343 3.31500E+01 4.48040E+01 0.00000E+00
 -1       344 3.61500E+01 4.48040E+01 0.00000E+00
 -1       345 3.91500E+01 4.48040E+01 0.00000E+00
 -1       346 4.21500E+01 4.48040E+01 0.00000E+00
 -1       347 4.51500E+01 4.48040E+01 0.00000E+00
 -1       348 4.81500E+01 4.48040E+01 0.00000E+00
 -1       349 5.11500E+01 4.48040E+01 0.00000E+00
 -1       350 5.41500E+01 4.48040E+01 0.00000E+00
 -1       351 5.71500E+01 4.48040E+01 0.00000E+00
 -1       352 6.01500E+01 4.48040E+01 0.00000E+00
 -1       353 6.31500E+01 4.48040E+01 0.00000E+00
 -1       354 6.61500E+01 4.48040E+01 0.00000E+00
 -1       355 6.91500E+01 4.48040E+01 0.00000E+00
 -1       356 7.21500E+01 4.48040E+01 0.00000E+00
 -1       357 7.51500E+01 4.48040E+01 0.00000E+00
 -1       358 7.81500E+01 4.48040E+01 0.00000E+00
 -1       359 8.11500E+01 4.48040E+01 0.00000E+00
 -1       360 8.41500E+01 4.48040E+01 0.00000E+00
 -1       361 8.71500E+01 4.48040E+01 0.00000E+00
 -1       362 9.01500E+01 4.48040E+01 0.00000E+00
 -1       363 9.31500E+01 4.48040E+01 0.00000E+00
 -1       364 9.61500E+01 4.48040E+01 0.00000E+00
 -1       365 9.91500E+01 4.48040E+01 0.00000E+00
 -1       366 1.02150E+02 4.48040E+01 0.00000E+00
 -1       367 1.05150E+02 4.48040E+01 0.00000E+00
 -1       368 1.08150E+02 4.48040E+01 0.00000E+00
 -1       369 1.11150E+02 4.48040E+01 0.00000E+00
 -1       370 1.14150E+02 4.48040E+01 0.00000E+00
 -1       371 1.17150E+02 4.48040E+01 0.00000E+00
 -1       372 1.20150E+02 4.48040E+01 0.00000E+00
 -1       373 1.23150E+02 4.48040E+01 0.00000E+00
 -1       374 1.26150E+02 4.48040E+01 0.00000E+00
 -1       375 1.29150E+02 4.48040E+01 0.00000E+00
 -1       376 1.32150E+02 4.48040E+01 0.00000E+00
 -1       377 1.35150E+02 4.48040E+01 0.00000E+00
 -1       378 1.38150E+02 4.48040E+01 0.00000E+00
 -1       379 1.41150E+02 4.48040E+01 0.00000E+00
 -1       380 1.43838E+02 4.49212E+01 0.00000E+00
 -1       381 1.15350E+01 4.00625E+00 0.00000E+00
 -1       382 1.45350E+01 4.00625E+00 0.00000E+00
 -1       383 1.75350E+01 4.00625E+00 0.00000E+00
 -1       384 2.05350E+01 4.00625E+00 0.00000E+00
 -1       385 2.35350E+01 4.00625E+00 0.00000E+00
 -1       386 2.65350E+01 4.00625E+00 0.00000E+00
 -1       387 2.95350E+01 4.00625E+00 0.00000E+00
 -1       388 3.25350E+01 4.00625E+00 0.00000E+00
 -1       389 3.55350E+01 4.00625E+00 0.00000E+00
 -1       390 3.85350E+01 4.00625E+00 0.00000E+00
 -1       391 4.13850E+01 4.00625E+00 0.00000E+00
 -1       392 4.43850E+01 4.00625E+00 0.00000E+00
 -1       393 4.73850E+01 4.00625E+00 0.00000E+00
 -1       394 5.03850E+01 4.00625E+00 0.00000E+00
 -1       395 5.33850E+01 4.00625E+00 0.00000E+00
 -1       396 5.63850E+01 4.00625E+00 0.00000E+00
 -1       397 5.93850E+01 4.00625E+00 0.00000E+00
 -1       398 6.23850E+01 4.00625E+00 0.00000E+00
 -1       399 6.53850E+01 4.00625E+00 0.00000E+00
 -1       400 6.83850E+01 4.00625E+00 0.00000E+00
 -1       401 7.13850E+01 4.00625E+00 0.00000E+00
 -1       402 7.43850E+01 4.00625E+00 0.00000E+00
 -1       403 7.73850E+01 4.00625E+00 0.00000E+00
 -1       404 8.03850E+01 4.00625E+00 0.00000E+00
 -1       405 8.33850E+01 4.00625E+00 0.00000E+00
 -1       406 8.63850E+01 4.00625E+00 0.00000E+00
 -1       407 8.93850E+01 4.00625E+00 0.00000E+00
 -1       408 9.23850E+01 4.00625E+00 0.00000E+00
 -1       409 9.53850E+01 4.00625E+00 0.00000E+00
 -1       410 9.83850E+01 4.00625E+00 0.00000E+00
 -1       411 1.01385E+02 4.00625E+00 0.00000E+00
 -1       412 1.04385E+02 4.00625E+00 0.00000E+00
 -1       413 1.07385E+02 4.00625E+00 0.00000E+00
 -1       414 1.10385E+02 4.00625E+00 0.00000E+00
 -1       415 1.13385E+02 4.00625E+00 0.00000E+00
 -1       416 1.16385E+02 4.00625E+00 0.00000E+00
 -1       417 1.19385E+02 4.00625E+00 0.00000E+00
 -1       418 1.22385E+02 4.00625E+00 0.00000E+00
 -1       419 1.25385E+02 4.00625E+00 0.00000E+00
 -1       420 1.28385E+02 4.00625E+00 0.00000E+00
 -1       421 1.31385E+02 4.00625E+00 0.00000E+00
 -1       422 1.34385E+02 4.00625E+00 0.00000E+00
 -1       423 1.37385E+02 4.00625E+00 0.00000E+00
 -1       424 1.40385E+02 4.00625E+00 0.00000E+00
 -1       425 1.43385E+02 4.00625E+00 0.00000E+00
 -1       426 1.45393E+02 4.21562E+00 0.00000E+00
 -1       427 1.44804E+02 1.18000E+01 0.00000E+00
 -1       428 1.44804E+02 8.85000E+00 0.00000E+00
 -1       429 1.45099E+02 6.53281E+00 0.00000E+00
 -1       430 1.44804E+02 1.47000E+01 0.00000E+00
 -1       431 1.44804E+02 1.76500E+01 0.00000E+00
 -1       432 1.44804E+02 2.06000E+01 0.00000E+00
 -1       433 1.44804E+02 2.35500E+01 0.00000E+00
 -1       434 1.44804E+02 2.65000E+01 0.00000E+00
 -1       435 1.44804E+02 2.94500E+01 0.00000E+00
 -1       436 1.44804E+02 3.23500E+01 0.00000E+00
 -1       437 1.44804E+02 3.53000E+01 0.00000E+00
 -1       438 1.44804E+02 3.82500E+01 0.00000E+00
 -1       439 1.44804E+02 4.12000E+01 0.00000E+00
 -1       440 4.69341E+01 1.75734E+01 0.00000E+00
 -1       441 4.75269E+01 2.16676E+01 0.00000E+00
 -1       442 4.73900E+01 1.98002E+01 0.00000E+00
 -1       443 4.59369E+01 1.61848E+01 0.00000E+00
 -1       444 4.43891E+01 1.45807E+01 0.00000E+00
 -1       445 5.19600E+00 3.82125E+01 0.00000E+00
 -1       446 4.08951E+01 1.25297E+01 0.00000E+00
 -1       447 3.90980E+01 1.22645E+01 0.00000E+00
 -1       448 3.70154E+01 1.19576E+01 0.00000E+00
 -1       449 3.50157E+01 1.26794E+01 0.00000E+00
 -1       450 3.32089E+01 1.34469E+01 0.00000E+00
 -1       451 3.14649E+01 1.44264E+01 0.00000E+00
 -1       452 2.99403E+01 1.63251E+01 0.00000E+00
 -1       453 2.92300E+01 1.81780E+01 0.00000E+00
 -1       454 2.86918E+01 2.00813E+01 0.00000E+00
 -1       455 2.84875E+01 2.20565E+01 0.00000E+00
 -1       456 2.84848E+01 2.39880E+01 0.00000E+00
 -1       457 2.95478E+01 2.61941E+01 0.00000E+00
 -1       458 3.05418E+01 2.78988E+01 0.00000E+00
 -1       459 3.22228E+01 2.94289E+01 0.00000E+00
 -1       460 3.37647E+01 3.04092E+01 0.00000E+00
 -1       461 3.59855E+01 3.14583E+01 0.00000E+00
 -1       462 3.80807E+01 3.11254E+01 0.00000E+00
 -1       463 4.00320E+01 3.11021E+01 0.00000E+00
 -1       464 4.23605E+01 3.03675E+01 0.00000E+00
 -1       465 4.39383E+01 2.90687E+01 0.00000E+00
 -1       466 4.53482E+01 2.76571E+01 0.00000E+00
 -1       467 4.67387E+01 2.57534E+01 0.00000E+00
 -1       468 4.73115E+01 2.39924E+01 0.00000E+00
 -1       469 4.29675E+01 1.35566E+01 0.00000E+00
 -1       470 4.24369E+01 1.20172E+01 0.00000E+00
 -1       471 4.70408E+01 2.73150E+01 0.00000E+00
 -1       472 2.78949E+01 2.54730E+01 0.00000E+00
 -1       473 1.00350E+01 6.60425E+00 0.00000E+00
 -1       474 7.79400E+00 3.08500E+01 0.00000E+00
 -1       475 7.79400E+00 3.38000E+01 0.00000E+00
 -1       476 7.79400E+00 2.49500E+01 0.00000E+00
 -1       477 7.79400E+00 2.20000E+01 0.00000E+00
 -1       478 7.79400E+00 1.91000E+01 0.00000E+00
 -1       479 7.79400E+00 1.61500E+01 0.00000E+00
 -1       480 7.79400E+00 1.32000E+01 0.00000E+00
 -1       481 7.79400E+00 1.02500E+01 0.00000E+00
 -1       482 1.30350E+01 6.60425E+00 0.00000E+00
 -1       483 1.06500E+01 4.22060E+01 0.00000E+00
 -1       484 1.36500E+01 4.22060E+01 0.00000E+00
 -1       485 1.66500E+01 4.22060E+01 0.00000E+00
 -1       486 1.96500E+01 4.22060E+01 0.00000E+00
 -1       487 2.26500E+01 4.22060E+01 0.00000E+00
 -1       488 2.56500E+01 4.22060E+01 0.00000E+00
 -1       489 2.86500E+01 4.22060E+01 0.00000E+00
 -1       490 3.16500E+01 4.22060E+01 0.00000E+00
 -1       491 3.46500E+01 4.22060E+01 0.00000E+00
 -1       492 3.76500E+01 4.22060E+01 0.00000E+00
 -1       493 4.06500E+01 4.22060E+01 0.00000E+00
 -1       494 4.36500E+01 4.22060E+01 0.00000E+00
 -1       495 4.66500E+01 4.22060E+01 0.00000E+00
 -1       496 4.96500E+01 4.22060E+01 0.00000E+00
 -1       497 5.26500E+01 4.22060E+01 0.00000E+00
 -1       498 5.56500E+01 4.22060E+01 0.00000E+00
 -1       499 5.86500E+01 4.22060E+01 0.00000E+00
 -1       500 6.16500E+01 4.22060E+01 0.00000E+00
 -1       501 6.46500E+01 4.22060E+01 0.00000E+00
 -1       502 6.76500E+01 4.22060E+01 0.00000E+00
 -1       503 7.06500E+01 4.22060E+01 0.00000E+00
 -1       504 7.36500E+01 4.22060E+01 0.00000E+00
 -1       505 7.66500E+01 4.22060E+01 0.00000E+00
 -1       506 7.96500E+01 4.22060E+01 0.00000E+00
 -1       507 8.26500E+01 4.22060E+01 0.00000E+00
 -1       508 8.56500E+01 4.22060E+01 0.00000E+00
 -1       509 8.86500E+01 4.22060E+01 0.00000E+00
 -1       510 9.16500E+01 4.22060E+01 0.00000E+00
 -1       511 9.46500E+01 4.22060E+01 0.00000E+00
 -1       512 9.76500E+01 4.22060E+01 0.00000E+00
 -1       513 1.00650E+02 4.22060E+01 0.00000E+00
 -1       514 1.03650E+02 4.22060E+01 0.00000E+00
 -1       515 1.06650E+02 4.22060E+01 0.00000E+00
 -1       516 1.09650E+02 4.22060E+01 0.00000E+00
 -1       517 1.12650E+02 4.22060E+01 0.00000E+00
 -1       518 1.15650E+02 4.22060E+01 0.00000E+00
 -1       519 1.18650E+02 4.22060E+01 0.00000E+00
 -1       520 1.21650E+02 4.22060E+01 0.00000E+00
 -1       521 1.24650E+02 4.22060E+01 0.00000E+00
 -1       522 1.27650E+02 4.22060E+01 0.00000E+00
 -1       523 1.30650E+02 4.22060E+01 0.00000E+00
 -1       524 1.33650E+02 4.22060E+01 0.00000E+00
 -1       525 1.36650E+02 4.22060E+01 0.00000E+00
 -1       526 1.39650E+02 4.22060E+01 0.00000E+00
 -1       527 1.90350E+01 6.60425E+00 0.00000E+00
 -1       528 2.20350E+01 6.60425E+00 0.00000E+00
 -1       529 2.50350E+01 6.60425E+00 0.00000E+00
 -1       530 2.80350E+01 6.60425E+00 0.00000E+00
 -1       531 3.10350E+01 6.60425E+00 0.00000E+00
 -1       532 3.40350E+01 6.60425E+00 0.00000E+00
 -1       533 3.70350E+01 6.60425E+00 0.00000E+00
 -1       534 3.98850E+01 6.60425E+00 0.00000E+00
 -1       535 4.28850E+01 6.60425E+00 0.00000E+00
 -1       536 4.58850E+01 6.60425E+00 0.00000E+00
 -1       537 4.88850E+01 6.60425E+00 0.00000E+00
 -1       538 5.18850E+01 6.60425E+00 0.00000E+00
 -1       539 5.48850E+01 6.60425E+00 0.00000E+00
 -1       540 5.78850E+01 6.60425E+00 0.00000E+00
 -1       541 6.08850E+01 6.60425E+00 0.00000E+00
 -1       542 6.38850E+01 6.60425E+00 0.00000E+00
 -1       543 6.68850E+01 6.60425E+00 0.00000E+00
 -1       544 6.98850E+01 6.60425E+00 0.00000E+00
 -1       545 7.28850E+01 6.60425E+00 0.00000E+00
 -1       546 7.58850E+01 6.60425E+00 0.00000E+00
 -1       547 7.88850E+01 6.60425E+00 0.00000E+00
 -1       548 8.18850E+01 6.60425E+00 0.00000E+00
 -1       549 8.48850E+01 6.60425E+00 0.00000E+00
 -1       550 8.78850E+01 6.60425E+00 0.00000E+00
 -1       551 9.08850E+01 6.60425E+00 0.00000E+00
 -1       552 9.38850E+01 6.60425E+00 0.00000E+00
 -1       553 9.68850E+01 6.60425E+00 0.00000E+00
 -1       554 9.98850E+01 6.60425E+00 0.00000E+00
 -1       555 1.02885E+02 6.60425E+00 0.00000E+00
 -1       556 1.05885E+02 6.60425E+00 0.00000E+00
 -1       557 1.08885E+02 6.60425E+00 0.00000E+00
 -1       558 1.11885E+02 6.60425E+00 0.00000E+00
 -1       559 1.14885E+02 6.60425E+00 0.00000E+00
 -1       560 1.17885E+02 6.60425E+00 0.00000E+00
 -1       561 1.20885E+02 6.60425E+00 0.00000E+00
 -1       562 1.23885E+02 6.60425E+00 0.00000E+00
 -1       563 1.26885E+02 6.60425E+00 0.00000E+00
 -1       564 1.29885E+02 6.60425E+00 0.00000E+00
 -1       565 1.32885E+02 6.60425E+00 0.00000E+00
 -1       566 1.35885E+02 6.60425E+00 0.00000E+00
 -1       567 1.38885E+02 6.60425E+00 0.00000E+00
 -1       568 1.41885E+02 6.60425E+00 0.00000E+00
 -1       569 1.42206E+02 1.61750E+01 0.00000E+00
 -1       570 1.42206E+02 1.91250E+01 0.00000E+00
 -1       571 1.42206E+02 1.03250E+01 0.00000E+00
 -1       572 1.42206E+02 1.32500E+01 0.00000E+00
 -1       573 1.42206E+02 2.20750E+01 0.00000E+00
 -1       574 1.42206E+02 2.50250E+01 0.00000E+00
 -1       575 1.42206E+02 2.79750E+01 0.00000E+00
 -1       576 1.42206E+02 3.08750E+01 0.00000E+00
 -1       577 1.42206E+02 3.38250E+01 0.00000E+00
 -1       578 1.42206E+02 3.67750E+01 0.00000E+00
 -1       579 1.42206E+02 3.97250E+01 0.00000E+00
 -1       580 4.89183E+01 2.06269E+01 0.00000E+00
 -1       581 4.87603E+01 1.83596E+01 0.00000E+00
 -1       582 4.91270E+01 2.29882E+01 0.00000E+00
 -1       583 1.60350E+01 6.60425E+00 0.00000E+00
 -1       584 4.78286E+01 1.58786E+01 0.00000E+00
 -1       585 4.63972E+01 1.41918E+01 0.00000E+00
 -1       586 4.45339E+01 1.28810E+01 0.00000E+00
 -1       587 3.02842E+01 2.98702E+01 0.00000E+00
 -1       588 7.79400E+00 2.79000E+01 0.00000E+00
 -1       589 3.82823E+01 1.05800E+01 0.00000E+00
 -1       590 3.72759E+01 3.28202E+01 0.00000E+00
 -1       591 4.00795E+01 1.08453E+01 0.00000E+00
 -1       592 3.54901E+01 1.08629E+01 0.00000E+00
 -1       593 3.34418E+01 1.14846E+01 0.00000E+00
 -1       594 3.14970E+01 1.24413E+01 0.00000E+00
 -1       595 2.94306E+01 1.43544E+01 0.00000E+00
 -1       596 2.80619E+01 1.66676E+01 0.00000E+00
 -1       597 2.75237E+01 1.85709E+01 0.00000E+00
 -1       598 2.72170E+01 2.09269E+01 0.00000E+00
 -1       599 2.69386E+01 2.30201E+01 0.00000E+00
 -1       600 2.86356E+01 2.78682E+01 0.00000E+00
 -1       601 3.21635E+01 3.12250E+01 0.00000E+00
 -1       602 3.41783E+01 3.24088E+01 0.00000E+00
 -1       603 3.92272E+01 3.27969E+01 0.00000E+00
 -1       604 4.16870E+01 3.22905E+01 0.00000E+00
 -1       605 4.42394E+01 3.10423E+01 0.00000E+00
 -1       606 4.58567E+01 2.95749E+01 0.00000E+00
 -1       607 4.89748E+01 2.55071E+01 0.00000E+00
 -1       608 7.92300E+00 4.16780E+01 0.00000E+00
 -1       609 7.61550E+00 6.21462E+00 0.00000E+00
 -1       610 3.67570E+01 9.48536E+00 0.00000E+00
 -1       611 7.79400E+00 3.67375E+01 0.00000E+00
 -1       612 4.16213E+01 1.03327E+01 0.00000E+00
 -1       613 3.54687E+01 3.37707E+01 0.00000E+00
 -1       614 2.63487E+01 2.45050E+01 0.00000E+00
 -1       615 1.41678E+02 4.22645E+01 0.00000E+00
 -1       616 1.03920E+01 2.05500E+01 0.00000E+00
 -1       617 1.03920E+01 2.35000E+01 0.00000E+00
 -1       618 1.03920E+01 1.46750E+01 0.00000E+00
 -1       619 1.03920E+01 1.17250E+01 0.00000E+00
 -1       620 1.15350E+01 9.20225E+00 0.00000E+00
 -1       621 4.65488E+01 1.19966E+01 0.00000E+00
 -1       622 1.45350E+01 9.20225E+00 0.00000E+00
 -1       623 1.51500E+01 3.96080E+01 0.00000E+00
 -1       624 1.81500E+01 3.96080E+01 0.00000E+00
 -1       625 2.11500E+01 3.96080E+01 0.00000E+00
 -1       626 2.41500E+01 3.96080E+01 0.00000E+00
 -1       627 2.71500E+01 3.96080E+01 0.00000E+00
 -1       628 3.01500E+01 3.96080E+01 0.00000E+00
 -1       629 3.31500E+01 3.96080E+01 0.00000E+00
 -1       630 3.61500E+01 3.96080E+01 0.00000E+00
 -1       631 3.91500E+01 3.96080E+01 0.00000E+00
 -1       632 4.21500E+01 3.96080E+01 0.00000E+00
 -1       633 4.51500E+01 3.96080E+01 0.00000E+00
 -1       634 4.81500E+01 3.96080E+01 0.00000E+00
 -1       635 5.11500E+01 3.96080E+01 0.00000E+00
 -1       636 5.41500E+01 3.96080E+01 0.00000E+00
 -1       637 5.71500E+01 3.96080E+01 0.00000E+00
 -1       638 6.01500E+01 3.96080E+01 0.00000E+00
 -1       639 6.31500E+01 3.96080E+01 0.00000E+00
 -1       640 6.61500E+01 3.96080E+01 0.00000E+00
 -1       641 6.91500E+01 3.96080E+01 0.00000E+00
 -1       642 7.21500E+01 3.96080E+01 0.00000E+00
 -1       643 7.51500E+01 3.96080E+01 0.00000E+00
 -1       644 7.81500E+01 3.96080E+01 0.00000E+00
 -1       645 8.11500E+01 3.96080E+01 0.00000E+00
 -1       646 8.41500E+01 3.96080E+01 0.00000E+00
 -1       647 8.71500E+01 3.96080E+01 0.00000E+00
 -1       648 9.01500E+01 3.96080E+01 0.00000E+00
 -1       649 9.31500E+01 3.96080E+01 0.00000E+00
 -1       650 9.61500E+01 3.96080E+01 0.00000E+00
 -1       651 9.91500E+01 3.96080E+01 0.00000E+00
 -1       652 1.02150E+02 3.96080E+01 0.00000E+00
 -1       653 1.05150E+02 3.96080E+01 0.00000E+00
 -1       654 1.08150E+02 3.96080E+01 0.00000E+00
 -1       655 1.11150E+02 3.96080E+01 0.00000E+00
 -1       656 1.14150E+02 3.96080E+01 0.00000E+00
 -1       657 1.17150E+02 3.96080E+01 0.00000E+00
 -1       658 1.20150E+02 3.96080E+01 0.00000E+00
 -1       659 1.23150E+02 3.96080E+01 0.00000E+00
 -1       660 1.26150E+02 3.96080E+01 0.00000E+00
 -1       661 1.29150E+02 3.96080E+01 0.00000E+00
 -1       662 1.32150E+02 3.96080E+01 0.00000E+00
 -1       663 1.35150E+02 3.96080E+01 0.00000E+00
 -1       664 1.38150E+02 3.96080E+01 0.00000E+00
 -1       665 2.35350E+01 9.20225E+00 0.00000E+00
 -1       666 4.38639E+01 3.35082E+01 0.00000E+00
 -1       667 2.05350E+01 9.20225E+00 0.00000E+00
 -1       668 2.95350E+01 9.20225E+00 0.00000E+00
 -1       669 4.13850E+01 8.65450E+00 0.00000E+00
 -1       670 4.43850E+01 8.82207E+00 0.00000E+00
 -1       671 4.73850E+01 8.82207E+00 0.00000E+00
 -1       672 5.03850E+01 8.82207E+00 0.00000E+00
 -1       673 5.33850E+01 8.82207E+00 0.00000E+00
 -1       674 5.63850E+01 8.82207E+00 0.00000E+00
 -1       675 5.93850E+01 8.82207E+00 0.00000E+00
 -1       676 6.23850E+01 8.82207E+00 0.00000E+00
 -1       677 6.53850E+01 8.82207E+00 0.00000E+00
 -1       678 6.83850E+01 8.82207E+00 0.00000E+00
 -1       679 7.13850E+01 8.82207E+00 0.00000E+00
 -1       680 7.43850E+01 8.82207E+00 0.00000E+00
 -1       681 7.73850E+01 8.82207E+00 0.00000E+00
 -1       682 8.03850E+01 8.82207E+00 0.00000E+00
 -1       683 8.33850E+01 8.82207E+00 0.00000E+00
 -1       684 8.63850E+01 8.82207E+00 0.00000E+00
 -1       685 8.93850E+01 8.82207E+00 0.00000E+00
 -1       686 9.23850E+01 8.82207E+00 0.00000E+00
 -1       687 9.53850E+01 8.82207E+00 0.00000E+00
 -1       688 9.83850E+01 8.82207E+00 0.00000E+00
 -1       689 1.01385E+02 8.82207E+00 0.00000E+00
 -1       690 1.04385E+02 8.82207E+00 0.00000E+00
 -1       691 1.07385E+02 8.82207E+00 0.00000E+00
 -1       692 1.10385E+02 8.82207E+00 0.00000E+00
 -1       693 1.13385E+02 8.82207E+00 0.00000E+00
 -1       694 1.16385E+02 8.82207E+00 0.00000E+00
 -1       695 1.19385E+02 8.82207E+00 0.00000E+00
 -1       696 1.22385E+02 8.82207E+00 0.00000E+00
 -1       697 1.25385E+02 8.82207E+00 0.00000E+00
 -1       698 1.28385E+02 8.82207E+00 0.00000E+00
 -1       699 1.31385E+02 8.82207E+00 0.00000E+00
 -1       700 1.34385E+02 8.82207E+00 0.00000E+00
 -1       701 1.37385E+02 8.82207E+00 0.00000E+00
 -1       702 1.39796E+02 9.57354E+00 0.00000E+00
 -1       703 1.39608E+02 2.35500E+01 0.00000E+00
 -1       704 1.40178E+02 3.96665E+01 0.00000E+00
 -1       705 1.39608E+02 1.76500E+01 0.00000E+00
 -1       706 1.39608E+02 2.65000E+01 0.00000E+00
 -1       707 1.39608E+02 2.06000E+01 0.00000E+00
 -1       708 1.39608E+02 2.94000E+01 0.00000E+00
 -1       709 1.39608E+02 3.23500E+01 0.00000E+00
 -1       710 1.39608E+02 3.53000E+01 0.00000E+00
 -1       711 2.81359E+01 2.99595E+01 0.00000E+00
 -1       712 4.94079E+01 2.79088E+01 0.00000E+00
 -1       713 5.07629E+01 2.43511E+01 0.00000E+00
 -1       714 2.72701E+01 1.46376E+01 0.00000E+00
 -1       715 3.94068E+01 9.18169E+00 0.00000E+00
 -1       716 4.63131E+01 3.17030E+01 0.00000E+00
 -1       717 1.75350E+01 9.20225E+00 0.00000E+00
 -1       718 5.05502E+01 1.93740E+01 0.00000E+00
 -1       719 2.65350E+01 9.20225E+00 0.00000E+00
 -1       720 1.21500E+01 3.96080E+01 0.00000E+00
 -1       721 1.03920E+01 1.76125E+01 0.00000E+00
 -1       722 5.00570E+01 1.64573E+01 0.00000E+00
 -1       723 4.78605E+01 2.98059E+01 0.00000E+00
 -1       724 1.03920E+01 3.23250E+01 0.00000E+00
 -1       725 3.23020E+01 3.32956E+01 0.00000E+00
 -1       726 4.41068E+01 1.09407E+01 0.00000E+00
 -1       727 2.52116E+01 2.17253E+01 0.00000E+00
 -1       728 2.63065E+01 2.72763E+01 0.00000E+00
 -1       729 2.91848E+01 1.20163E+01 0.00000E+00
 -1       730 2.61424E+01 1.71526E+01 0.00000E+00
 -1       731 2.99269E+01 3.23467E+01 0.00000E+00
 -1       732 2.55183E+01 1.93693E+01 0.00000E+00
 -1       733 5.07590E+01 2.17353E+01 0.00000E+00
 -1       734 3.82761E+01 3.48587E+01 0.00000E+00
 -1       735 4.08367E+01 3.43877E+01 0.00000E+00
 -1       736 4.85484E+01 1.38171E+01 0.00000E+00
 -1       737 1.03920E+01 3.52625E+01 0.00000E+00
 -1       738 1.03920E+01 2.64500E+01 0.00000E+00
 -1       739 1.39608E+02 1.47250E+01 0.00000E+00
 -1       740 1.39702E+02 1.21493E+01 0.00000E+00
 -1       741 3.35925E+01 3.46576E+01 0.00000E+00
 -1       742 2.58068E+01 2.93675E+01 0.00000E+00
 -1       743 1.05210E+01 3.87342E+01 0.00000E+00
 -1       744 2.70243E+01 1.22995E+01 0.00000E+00
 -1       745 1.38879E+02 3.74540E+01 0.00000E+00
 -1       746 2.46217E+01 2.32102E+01 0.00000E+00
 -1       747 5.11960E+01 2.67528E+01 0.00000E+00
 -1       748 1.03920E+01 2.93875E+01 0.00000E+00
 -1       749 4.89288E+01 1.13908E+01 0.00000E+00
 -1       750 1.29900E+01 1.32000E+01 0.00000E+00
 -1       751 3.48612E+01 9.01310E+00 0.00000E+00
 -1       752 1.66500E+01 3.70100E+01 0.00000E+00
 -1       753 1.96500E+01 3.70100E+01 0.00000E+00
 -1       754 2.26500E+01 3.70100E+01 0.00000E+00
 -1       755 2.56500E+01 3.70100E+01 0.00000E+00
 -1       756 2.86500E+01 3.70100E+01 0.00000E+00
 -1       757 3.16500E+01 3.70100E+01 0.00000E+00
 -1       758 3.76500E+01 3.70100E+01 0.00000E+00
 -1       759 4.36500E+01 3.70100E+01 0.00000E+00
 -1       760 4.66500E+01 3.70100E+01 0.00000E+00
 -1       761 4.96500E+01 3.70100E+01 0.00000E+00
 -1       762 5.26500E+01 3.70100E+01 0.00000E+00
 -1       763 5.56500E+01 3.70100E+01 0.00000E+00
 -1       764 5.86500E+01 3.70100E+01 0.00000E+00
 -1       765 6.16500E+01 3.70100E+01 0.00000E+00
 -1       766 6.46500E+01 3.70100E+01 0.00000E+00
 -1       767 6.76500E+01 3.70100E+01 0.00000E+00
 -1       768 7.06500E+01 3.70100E+01 0.00000E+00
 -1       769 7.36500E+01 3.70100E+01 0.00000E+00
 -1       770 7.66500E+01 3.70100E+01 0.00000E+00
 -1       771 7.96500E+01 3.70100E+01 0.00000E+00
 -1       772 8.26500E+01 3.70100E+01 0.00000E+00
 -1       773 8.56500E+01 3.70100E+01 0.00000E+00
 -1       774 8.86500E+01 3.70100E+01 0.00000E+00
 -1       775 9.16500E+01 3.70100E+01 0.00000E+00
 -1       776 9.46500E+01 3.70100E+01 0.00000E+00
 -1       777 9.76500E+01 3.70100E+01 0.00000E+00
 -1       778 1.00650E+02 3.70100E+01 0.00000E+00
 -1       779 1.03650E+02 3.70100E+01 0.00000E+00
 -1       780 1.06650E+02 3.70100E+01 0.00000E+00
 -1       781 1.09650E+02 3.70100E+01 0.00000E+00
 -1       782 1.12650E+02 3.70100E+01 0.00000E+00
 -1       783 1.15650E+02 3.70100E+01 0.00000E+00
 -1       784 1.18650E+02 3.70100E+01 0.00000E+00
 -1       785 1.21650E+02 3.70100E+01 0.00000E+00
 -1       786 1.24650E+02 3.70100E+01 0.00000E+00
 -1       787 1.27650E+02 3.70100E+01 0.00000E+00
 -1       788 1.30650E+02 3.70100E+01 0.00000E+00
 -1       789 1.33650E+02 3.70100E+01 0.00000E+00
 -1       790 1.36264E+02 3.72320E+01 0.00000E+00
 -1       791 3.99575E+01 3.68044E+01 0.00000E+00
 -1       792 2.72573E+01 3.24840E+01 0.00000E+00
 -1       793 5.48850E+01 1.14201E+01 0.00000E+00
 -1       794 5.78850E+01 1.14201E+01 0.00000E+00
 -1       795 6.08850E+01 1.14201E+01 0.00000E+00
 -1       796 6.38850E+01 1.14201E+01 0.00000E+00
 -1       797 6.68850E+01 1.14201E+01 0.00000E+00
 -1       798 6.98850E+01 1.14201E+01 0.00000E+00
 -1       799 7.28850E+01 1.14201E+01 0.00000E+00
 -1       800 7.58850E+01 1.14201E+01 0.00000E+00
 -1       801 7.88850E+01 1.14201E+01 0.00000E+00
 -1       802 8.18850E+01 1.14201E+01 0.00000E+00
 -1       803 8.48850E+01 1.14201E+01 0.00000E+00
 -1       804 8.78850E+01 1.14201E+01 0.00000E+00
 -1       805 9.08850E+01 1.14201E+01 0.00000E+00
 -1       806 9.38850E+01 1.14201E+01 0.00000E+00
 -1       807 9.68850E+01 1.14201E+01 0.00000E+00
 -1       808 9.98850E+01 1.14201E+01 0.00000E+00
 -1       809 1.02885E+02 1.14201E+01 0.00000E+00
 -1       810 1.05885E+02 1.14201E+01 0.00000E+00
 -1       811 1.08885E+02 1.14201E+01 0.00000E+00
 -1       812 1.11885E+02 1.14201E+01 0.00000E+00
 -1       813 1.14885E+02 1.14201E+01 0.00000E+00
 -1       814 1.17885E+02 1.14201E+01 0.00000E+00
 -1       815 1.20885E+02 1.14201E+01 0.00000E+00
 -1       816 1.23885E+02 1.14201E+01 0.00000E+00
 -1       817 1.26885E+02 1.14201E+01 0.00000E+00
 -1       818 1.29885E+02 1.14201E+01 0.00000E+00
 -1       819 1.32885E+02 1.14201E+01 0.00000E+00
 -1       820 1.35885E+02 1.14201E+01 0.00000E+00
 -1       821 1.37793E+02 1.17847E+01 0.00000E+00
 -1       822 1.29900E+01 2.20250E+01 0.00000E+00
 -1       823 1.37010E+02 3.38250E+01 0.00000E+00
 -1       824 1.37010E+02 2.50250E+01 0.00000E+00
 -1       825 2.37472E+01 2.03367E+01 0.00000E+00
 -1       826 2.45795E+01 2.59815E+01 0.00000E+00
 -1       827 1.37010E+02 3.08750E+01 0.00000E+00
 -1       828 5.26556E+01 1.75179E+01 0.00000E+00
 -1       829 2.20350E+01 1.18003E+01 0.00000E+00
 -1       830 2.49884E+01 1.51248E+01 0.00000E+00
 -1       831 4.63050E+01 3.42560E+01 0.00000E+00
 -1       832 2.40181E+01 1.77507E+01 0.00000E+00
 -1       833 1.37625E+01 1.12011E+01 0.00000E+00
 -1       834 5.10828E+01 1.41200E+01 0.00000E+00
 -1       835 5.23631E+01 2.04036E+01 0.00000E+00
 -1       836 5.28112E+01 2.30401E+01 0.00000E+00
 -1       837 3.01505E+01 3.52337E+01 0.00000E+00
 -1       838 1.37010E+02 2.79500E+01 0.00000E+00
 -1       839 1.27710E+01 3.74352E+01 0.00000E+00
 -1       840 1.29900E+01 2.49750E+01 0.00000E+00
 -1       841 1.29900E+01 1.61375E+01 0.00000E+00
 -1       842 4.61125E+01 1.01265E+01 0.00000E+00
 -1       843 1.29900E+01 1.90812E+01 0.00000E+00
 -1       844 1.37010E+02 1.61875E+01 0.00000E+00
 -1       845 3.46500E+01 3.70100E+01 0.00000E+00
 -1       846 1.37010E+02 1.91375E+01 0.00000E+00
 -1       847 2.31574E+01 2.18216E+01 0.00000E+00
 -1       848 1.29900E+01 3.37938E+01 0.00000E+00
 -1       849 1.37010E+02 2.20812E+01 0.00000E+00
 -1       850 1.67625E+01 1.12011E+01 0.00000E+00
 -1       851 4.88620E+01 3.29876E+01 0.00000E+00
 -1       852 1.93988E+01 1.15007E+01 0.00000E+00
 -1       853 5.32443E+01 2.54418E+01 0.00000E+00
 -1       854 2.40798E+01 2.80727E+01 0.00000E+00
 -1       855 1.36637E+02 3.55285E+01 0.00000E+00
 -1       856 5.18850E+01 1.14201E+01 0.00000E+00
 -1       857 5.02230E+01 3.01532E+01 0.00000E+00
 -1       858 1.29900E+01 3.08563E+01 0.00000E+00
 -1       859 5.20111E+01 2.89972E+01 0.00000E+00
 -1       860 5.44432E+01 2.14064E+01 0.00000E+00
 -1       861 1.81500E+01 3.44120E+01 0.00000E+00
 -1       862 2.11500E+01 3.44120E+01 0.00000E+00
 -1       863 2.41500E+01 3.44120E+01 0.00000E+00
 -1       864 5.40340E+01 1.48169E+01 0.00000E+00
 -1       865 5.11500E+01 3.44120E+01 0.00000E+00
 -1       866 5.41500E+01 3.44120E+01 0.00000E+00
 -1       867 5.71500E+01 3.44120E+01 0.00000E+00
 -1       868 6.01500E+01 3.44120E+01 0.00000E+00
 -1       869 6.31500E+01 3.44120E+01 0.00000E+00
 -1       870 6.61500E+01 3.44120E+01 0.00000E+00
 -1       871 6.91500E+01 3.44120E+01 0.00000E+00
 -1       872 7.21500E+01 3.44120E+01 0.00000E+00
 -1       873 7.51500E+01 3.44120E+01 0.00000E+00
 -1       874 7.81500E+01 3.44120E+01 0.00000E+00
 -1       875 8.11500E+01 3.44120E+01 0.00000E+00
 -1       876 8.41500E+01 3.44120E+01 0.00000E+00
 -1       877 8.71500E+01 3.44120E+01 0.00000E+00
 -1       878 9.01500E+01 3.44120E+01 0.00000E+00
 -1       879 9.31500E+01 3.44120E+01 0.00000E+00
 -1       880 9.61500E+01 3.44120E+01 0.00000E+00
 -1       881 9.91500E+01 3.44120E+01 0.00000E+00
 -1       882 1.02150E+02 3.44120E+01 0.00000E+00
 -1       883 1.05150E+02 3.44120E+01 0.00000E+00
 -1       884 1.08150E+02 3.44120E+01 0.00000E+00
 -1       885 1.11150E+02 3.44120E+01 0.00000E+00
 -1       886 1.14150E+02 3.44120E+01 0.00000E+00
 -1       887 1.17150E+02 3.44120E+01 0.00000E+00
 -1       888 1.20150E+02 3.44120E+01 0.00000E+00
 -1       889 1.23150E+02 3.44120E+01 0.00000E+00
 -1       890 1.26150E+02 3.44120E+01 0.00000E+00
 -1       891 1.29150E+02 3.44120E+01 0.00000E+00
 -1       892 1.32150E+02 3.44120E+01 0.00000E+00
 -1       893 5.93850E+01 1.40181E+01 0.00000E+00
 -1       894 1.34412E+02 3.23500E+01 0.00000E+00
 -1       895 6.53850E+01 1.40181E+01 0.00000E+00
 -1       896 6.83850E+01 1.40181E+01 0.00000E+00
 -1       897 7.13850E+01 1.40181E+01 0.00000E+00
 -1       898 7.43850E+01 1.40181E+01 0.00000E+00
 -1       899 7.73850E+01 1.40181E+01 0.00000E+00
 -1       900 8.03850E+01 1.40181E+01 0.00000E+00
 -1       901 8.33850E+01 1.40181E+01 0.00000E+00
 -1       902 8.63850E+01 1.40181E+01 0.00000E+00
 -1       903 8.93850E+01 1.40181E+01 0.00000E+00
 -1       904 9.23850E+01 1.40181E+01 0.00000E+00
 -1       905 9.53850E+01 1.40181E+01 0.00000E+00
 -1       906 9.83850E+01 1.40181E+01 0.00000E+00
 -1       907 1.01385E+02 1.40181E+01 0.00000E+00
 -1       908 1.04385E+02 1.40181E+01 0.00000E+00
 -1       909 1.07385E+02 1.40181E+01 0.00000E+00
 -1       910 1.10385E+02 1.40181E+01 0.00000E+00
 -1       911 1.13385E+02 1.40181E+01 0.00000E+00
 -1       912 1.16385E+02 1.40181E+01 0.00000E+00
 -1       913 1.19385E+02 1.40181E+01 0.00000E+00
 -1       914 1.22385E+02 1.40181E+01 0.00000E+00
 -1       915 1.25385E+02 1.40181E+01 0.00000E+00
 -1       916 1.28385E+02 1.40181E+01 0.00000E+00
 -1       917 1.31385E+02 1.40181E+01 0.00000E+00
 -1       918 1.34385E+02 1.40181E+01 0.00000E+00
 -1       919 5.47357E+01 1.85206E+01 0.00000E+00
 -1       920 1.37402E+02 1.39861E+01 0.00000E+00
 -1       921 2.46733E+01 3.17909E+01 0.00000E+00
 -1       922 2.27181E+01 2.45671E+01 0.00000E+00
 -1       923 2.27373E+01 1.57852E+01 0.00000E+00
 -1       924 6.23850E+01 1.40181E+01 0.00000E+00
 -1       925 1.29900E+01 2.79188E+01 0.00000E+00
 -1       926 2.20103E+01 1.88475E+01 0.00000E+00
 -1       927 1.59900E+01 1.32000E+01 0.00000E+00
 -1       928 1.55700E+01 3.26341E+01 0.00000E+00
 -1       929 2.64537E+01 3.47470E+01 0.00000E+00
 -1       930 1.34412E+02 1.76625E+01 0.00000E+00
 -1       931 5.48763E+01 2.38081E+01 0.00000E+00
 -1       932 1.55880E+01 2.05531E+01 0.00000E+00
 -1       933 1.34412E+02 2.94250E+01 0.00000E+00
 -1       934 1.34394E+02 3.49702E+01 0.00000E+00
 -1       935 5.63850E+01 1.40181E+01 0.00000E+00
 -1       936 2.14204E+01 2.03325E+01 0.00000E+00
 -1       937 1.34412E+02 2.35531E+01 0.00000E+00
 -1       938 1.55880E+01 2.35031E+01 0.00000E+00
 -1       939 2.29463E+01 3.04961E+01 0.00000E+00
 -1       940 2.22185E+01 2.66584E+01 0.00000E+00
 -1       941 2.01010E+01 1.54856E+01 0.00000E+00
 -1       942 5.40593E+01 2.76862E+01 0.00000E+00
 -1       943 5.30805E+01 3.17046E+01 0.00000E+00
 -1       944 1.34412E+02 2.64891E+01 0.00000E+00
 -1       945 1.34412E+02 2.06063E+01 0.00000E+00
 -1       946 6.98850E+01 1.66161E+01 0.00000E+00
 -1       947 1.55880E+01 1.76094E+01 0.00000E+00
 -1       948 1.31412E+02 1.76625E+01 0.00000E+00
 -1       949 6.08850E+01 1.66161E+01 0.00000E+00
 -1       950 5.60805E+01 3.17046E+01 0.00000E+00
 -1       951 5.90805E+01 3.17046E+01 0.00000E+00
 -1       952 6.20805E+01 3.17046E+01 0.00000E+00
 -1       953 6.50805E+01 3.17046E+01 0.00000E+00
 -1       954 6.80805E+01 3.17046E+01 0.00000E+00
 -1       955 7.10805E+01 3.17046E+01 0.00000E+00
 -1       956 7.40805E+01 3.17046E+01 0.00000E+00
 -1       957 7.70805E+01 3.17046E+01 0.00000E+00
 -1       958 8.00805E+01 3.17046E+01 0.00000E+00
 -1       959 8.30805E+01 3.17046E+01 0.00000E+00
 -1       960 8.60805E+01 3.17046E+01 0.00000E+00
 -1       961 8.90805E+01 3.17046E+01 0.00000E+00
 -1       962 9.20805E+01 3.17046E+01 0.00000E+00
 -1       963 9.50805E+01 3.17046E+01 0.00000E+00
 -1       964 9.80805E+01 3.17046E+01 0.00000E+00
 -1       965 1.01081E+02 3.17046E+01 0.00000E+00
 -1       966 1.04081E+02 3.17046E+01 0.00000E+00
 -1       967 1.07081E+02 3.17046E+01 0.00000E+00
 -1       968 1.10081E+02 3.17046E+01 0.00000E+00
 -1       969 1.13081E+02 3.17046E+01 0.00000E+00
 -1       970 1.16081E+02 3.17046E+01 0.00000E+00
 -1       971 1.19081E+02 3.17046E+01 0.00000E+00
 -1       972 1.22081E+02 3.17046E+01 0.00000E+00
 -1       973 1.25081E+02 3.17046E+01 0.00000E+00
 -1       974 1.28081E+02 3.17046E+01 0.00000E+00
 -1       975 1.31081E+02 3.17046E+01 0.00000E+00
 -1       976 7.28850E+01 1.66161E+01 0.00000E+00
 -1       977 2.20481E+01 3.24540E+01 0.00000E+00
 -1       978 6.68850E+01 1.66161E+01 0.00000E+00
 -1       979 7.58850E+01 1.66161E+01 0.00000E+00
 -1       980 7.88850E+01 1.66161E+01 0.00000E+00
 -1       981 8.18850E+01 1.66161E+01 0.00000E+00
 -1       982 8.48850E+01 1.66161E+01 0.00000E+00
 -1       983 8.78850E+01 1.66161E+01 0.00000E+00
 -1       984 9.08850E+01 1.66161E+01 0.00000E+00
 -1       985 9.38850E+01 1.66161E+01 0.00000E+00
 -1       986 9.68850E+01 1.66161E+01 0.00000E+00
 -1       987 9.98850E+01 1.66161E+01 0.00000E+00
 -1       988 1.02885E+02 1.66161E+01 0.00000E+00
 -1       989 1.05885E+02 1.66161E+01 0.00000E+00
 -1       990 1.08885E+02 1.66161E+01 0.00000E+00
 -1       991 1.11885E+02 1.66161E+01 0.00000E+00
 -1       992 1.14885E+02 1.66161E+01 0.00000E+00
 -1       993 1.17885E+02 1.66161E+01 0.00000E+00
 -1       994 1.20885E+02 1.66161E+01 0.00000E+00
 -1       995 1.23885E+02 1.66161E+01 0.00000E+00
 -1       996 1.26885E+02 1.66161E+01 0.00000E+00
 -1       997 1.29148E+02 1.71393E+01 0.00000E+00
 -1       998 5.67960E+01 2.01872E+01 0.00000E+00
 -1       999 1.55700E+01 2.96966E+01 0.00000E+00
 -1      1000 6.38850E+01 1.66161E+01 0.00000E+00
 -1      1001 1.55880E+01 2.64469E+01 0.00000E+00
 -1      1002 5.70604E+01 1.62693E+01 0.00000E+00
 -1      1003 1.90481E+01 3.24540E+01 0.00000E+00
 -1      1004 1.80455E+01 1.43428E+01 0.00000E+00
 -1      1005 2.09812E+01 2.30780E+01 0.00000E+00
 -1      1006 5.56913E+01 2.60525E+01 0.00000E+00
 -1      1007 1.81410E+01 1.90812E+01 0.00000E+00
 -1      1008 5.72290E+01 2.25889E+01 0.00000E+00
 -1      1009 1.31814E+02 2.50211E+01 0.00000E+00
 -1      1010 1.81410E+01 2.20313E+01 0.00000E+00
 -1      1011 2.10849E+01 2.90818E+01 0.00000E+00
 -1      1012 2.04815E+01 2.51693E+01 0.00000E+00
 -1      1013 1.31814E+02 2.20742E+01 0.00000E+00
 -1      1014 5.50699E+01 2.96954E+01 0.00000E+00
 -1      1015 2.00665E+01 3.07679E+01 0.00000E+00
 -1      1016 1.31814E+02 2.79570E+01 0.00000E+00
 -1      1017 5.80699E+01 2.96954E+01 0.00000E+00
 -1      1018 6.10699E+01 2.96954E+01 0.00000E+00
 -1      1019 6.40699E+01 2.96954E+01 0.00000E+00
 -1      1020 6.70699E+01 2.96954E+01 0.00000E+00
 -1      1021 7.00699E+01 2.96954E+01 0.00000E+00
 -1      1022 7.30699E+01 2.96954E+01 0.00000E+00
 -1      1023 7.60699E+01 2.96954E+01 0.00000E+00
 -1      1024 7.90699E+01 2.96954E+01 0.00000E+00
 -1      1025 8.20699E+01 2.96954E+01 0.00000E+00
 -1      1026 8.50699E+01 2.96954E+01 0.00000E+00
 -1      1027 8.80699E+01 2.96954E+01 0.00000E+00
 -1      1028 9.10699E+01 2.96954E+01 0.00000E+00
 -1      1029 9.40699E+01 2.96954E+01 0.00000E+00
 -1      1030 9.70699E+01 2.96954E+01 0.00000E+00
 -1      1031 1.00070E+02 2.96954E+01 0.00000E+00
 -1      1032 1.03070E+02 2.96954E+01 0.00000E+00
 -1      1033 1.06070E+02 2.96954E+01 0.00000E+00
 -1      1034 1.09070E+02 2.96954E+01 0.00000E+00
 -1      1035 1.12070E+02 2.96954E+01 0.00000E+00
 -1      1036 1.15070E+02 2.96954E+01 0.00000E+00
 -1      1037 1.18070E+02 2.96954E+01 0.00000E+00
 -1      1038 1.21070E+02 2.96954E+01 0.00000E+00
 -1      1039 1.24070E+02 2.96954E+01 0.00000E+00
 -1      1040 1.27070E+02 2.96954E+01 0.00000E+00
 -1      1041 7.73850E+01 1.92141E+01 0.00000E+00
 -1      1042 8.03850E+01 1.92141E+01 0.00000E+00
 -1      1043 8.33850E+01 1.92141E+01 0.00000E+00
 -1      1044 8.63850E+01 1.92141E+01 0.00000E+00
 -1      1045 8.93850E+01 1.92141E+01 0.00000E+00
 -1      1046 9.23850E+01 1.92141E+01 0.00000E+00
 -1      1047 9.53850E+01 1.92141E+01 0.00000E+00
 -1      1048 9.83850E+01 1.92141E+01 0.00000E+00
 -1      1049 1.01385E+02 1.92141E+01 0.00000E+00
 -1      1050 1.04385E+02 1.92141E+01 0.00000E+00
 -1      1051 1.07385E+02 1.92141E+01 0.00000E+00
 -1      1052 1.10385E+02 1.92141E+01 0.00000E+00
 -1      1053 1.13385E+02 1.92141E+01 0.00000E+00
 -1      1054 1.16385E+02 1.92141E+01 0.00000E+00
 -1      1055 1.19385E+02 1.92141E+01 0.00000E+00
 -1      1056 1.22385E+02 1.92141E+01 0.00000E+00
 -1      1057 1.25385E+02 1.92141E+01 0.00000E+00
 -1      1058 6.23850E+01 1.92141E+01 0.00000E+00
 -1      1059 7.13850E+01 1.92141E+01 0.00000E+00
 -1      1060 5.95905E+01 1.97006E+01 0.00000E+00
 -1      1061 6.83850E+01 1.92141E+01 0.00000E+00
 -1      1062 6.53850E+01 1.92141E+01 0.00000E+00
 -1      1063 7.43850E+01 1.92141E+01 0.00000E+00
 -1      1064 5.80441E+01 2.48333E+01 0.00000E+00
 -1      1065 1.29551E+02 2.15510E+01 0.00000E+00
 -1      1066 1.29581E+02 2.91066E+01 0.00000E+00
 -1      1067 1.86910E+01 2.83218E+01 0.00000E+00
 -1      1068 1.27468E+02 2.03825E+01 0.00000E+00
 -1      1069 1.29551E+02 2.44979E+01 0.00000E+00
 -1      1070 5.68806E+01 2.78740E+01 0.00000E+00
 -1      1071 1.29566E+02 2.68022E+01 0.00000E+00
 -1      1072 8.48850E+01 2.18121E+01 0.00000E+00
 -1      1073 5.98806E+01 2.78740E+01 0.00000E+00
 -1      1074 6.28806E+01 2.78740E+01 0.00000E+00
 -1      1075 6.58806E+01 2.78740E+01 0.00000E+00
 -1      1076 6.88806E+01 2.78740E+01 0.00000E+00
 -1      1077 7.18806E+01 2.78740E+01 0.00000E+00
 -1      1078 7.48806E+01 2.78740E+01 0.00000E+00
 -1      1079 7.78806E+01 2.78740E+01 0.00000E+00
 -1      1080 8.08806E+01 2.78740E+01 0.00000E+00
 -1      1081 8.38806E+01 2.78740E+01 0.00000E+00
 -1      1082 8.68806E+01 2.78740E+01 0.00000E+00
 -1      1083 8.98806E+01 2.78740E+01 0.00000E+00
 -1      1084 9.28806E+01 2.78740E+01 0.00000E+00
 -1      1085 9.58806E+01 2.78740E+01 0.00000E+00
 -1      1086 9.88806E+01 2.78740E+01 0.00000E+00
 -1      1087 1.01881E+02 2.78740E+01 0.00000E+00
 -1      1088 1.04881E+02 2.78740E+01 0.00000E+00
 -1      1089 1.07881E+02 2.78740E+01 0.00000E+00
 -1      1090 1.10881E+02 2.78740E+01 0.00000E+00
 -1      1091 1.13881E+02 2.78740E+01 0.00000E+00
 -1      1092 1.16881E+02 2.78740E+01 0.00000E+00
 -1      1093 1.19881E+02 2.78740E+01 0.00000E+00
 -1      1094 1.22881E+02 2.78740E+01 0.00000E+00
 -1      1095 1.25881E+02 2.78740E+01 0.00000E+00
 -1      1096 8.18850E+01 2.18121E+01 0.00000E+00
 -1      1097 7.88850E+01 2.18121E+01 0.00000E+00
 -1      1098 8.78850E+01 2.18121E+01 0.00000E+00
 -1      1099 9.08850E+01 2.18121E+01 0.00000E+00
 -1      1100 9.38850E+01 2.18121E+01 0.00000E+00
 -1      1101 9.68850E+01 2.18121E+01 0.00000E+00
 -1      1102 9.98850E+01 2.18121E+01 0.00000E+00
 -1      1103 1.02885E+02 2.18121E+01 0.00000E+00
 -1      1104 1.05885E+02 2.18121E+01 0.00000E+00
 -1      1105 1.08885E+02 2.18121E+01 0.00000E+00
 -1      1106 1.11885E+02 2.18121E+01 0.00000E+00
 -1      1107 1.14885E+02 2.18121E+01 0.00000E+00
 -1      1108 1.17885E+02 2.18121E+01 0.00000E+00
 -1      1109 1.20885E+02 2.18121E+01 0.00000E+00
 -1      1110 1.23885E+02 2.18121E+01 0.00000E+00
 -1      1111 6.38850E+01 2.18121E+01 0.00000E+00
 -1      1112 6.10905E+01 2.22986E+01 0.00000E+00
 -1      1113 6.68850E+01 2.18121E+01 0.00000E+00
 -1      1114 1.27723E+02 2.73381E+01 0.00000E+00
 -1      1115 6.98850E+01 2.18121E+01 0.00000E+00
 -1      1116 7.28850E+01 2.18121E+01 0.00000E+00
 -1      1117 1.25968E+02 2.29805E+01 0.00000E+00
 -1      1118 1.27708E+02 2.50337E+01 0.00000E+00
 -1      1119 7.58850E+01 2.18121E+01 0.00000E+00
 -1      1120 6.83850E+01 2.44101E+01 0.00000E+00
 -1      1121 8.63850E+01 2.44101E+01 0.00000E+00
 -1      1122 6.13806E+01 2.52760E+01 0.00000E+00
 -1      1123 6.43806E+01 2.52760E+01 0.00000E+00
 -1      1124 7.33806E+01 2.52760E+01 0.00000E+00
 -1      1125 7.63806E+01 2.52760E+01 0.00000E+00
 -1      1126 7.93806E+01 2.52760E+01 0.00000E+00
 -1      1127 8.23806E+01 2.52760E+01 0.00000E+00
 -1      1128 9.13806E+01 2.52760E+01 0.00000E+00
 -1      1129 9.43806E+01 2.52760E+01 0.00000E+00
 -1      1130 9.73806E+01 2.52760E+01 0.00000E+00
 -1      1131 1.00381E+02 2.52760E+01 0.00000E+00
 -1      1132 1.03381E+02 2.52760E+01 0.00000E+00
 -1      1133 1.06381E+02 2.52760E+01 0.00000E+00
 -1      1134 1.09381E+02 2.52760E+01 0.00000E+00
 -1      1135 1.12381E+02 2.52760E+01 0.00000E+00
 -1      1136 1.15381E+02 2.52760E+01 0.00000E+00
 -1      1137 1.18381E+02 2.52760E+01 0.00000E+00
 -1      1138 1.21381E+02 2.52760E+01 0.00000E+00
 -1      1139 1.25983E+02 2.52849E+01 0.00000E+00
 -1      1140 1.24381E+02 2.52760E+01 0.00000E+00
 -1      1141 0.00000E+00 4.85250E+01 0.00000E+00
 -1      1142 0.00000E+00 4.55750E+01 0.00000E+00
 -1      1143 0.00000E+00 4.26250E+01 0.00000E+00
 -1      1144 0.00000E+00 3.96750E+01 0.00000E+00
 -1      1145 0.00000E+00 3.67250E+01 0.00000E+00
 -1      1146 0.00000E+00 3.38000E+01 0.00000E+00
 -1      1147 0.00000E+00 3.08750E+01 0.00000E+00
 -1      1148 0.00000E+00 2.79250E+01 0.00000E+00
 -1      1149 0.00000E+00 2.49750E+01 0.00000E+00
 -1      1150 0.00000E+00 2.20250E+01 0.00000E+00
 -1      1151 0.00000E+00 1.90750E+01 0.00000E+00
 -1      1152 0.00000E+00 1.61500E+01 0.00000E+00
 -1      1153 0.00000E+00 1.32250E+01 0.00000E+00
 -1      1154 0.00000E+00 1.02750E+01 0.00000E+00
 -1      1155 0.00000E+00 7.32500E+00 0.00000E+00
 -1      1156 0.00000E+00 4.37500E+00 0.00000E+00
 -1      1157 0.00000E+00 1.45000E+00 0.00000E+00
 -1      1158 1.57500E+00 5.00000E+01 0.00000E+00
 -1      1159 4.65000E+00 5.00000E+01 0.00000E+00
 -1      1160 7.65000E+00 5.00000E+01 0.00000E+00
 -1      1161 1.06500E+01 5.00000E+01 0.00000E+00
 -1      1162 1.36500E+01 5.00000E+01 0.00000E+00
 -1      1163 1.66500E+01 5.00000E+01 0.00000E+00
 -1      1164 1.96500E+01 5.00000E+01 0.00000E+00
 -1      1165 2.26500E+01 5.00000E+01 0.00000E+00
 -1      1166 2.56500E+01 5.00000E+01 0.00000E+00
 -1      1167 2.86500E+01 5.00000E+01 0.00000E+00
 -1      1168 3.16500E+01 5.00000E+01 0.00000E+00
 -1      1169 3.46500E+01 5.00000E+01 0.00000E+00
 -1      1170 3.76500E+01 5.00000E+01 0.00000E+00
 -1      1171 4.06500E+01 5.00000E+01 0.00000E+00
 -1      1172 4.36500E+01 5.00000E+01 0.00000E+00
 -1      1173 4.66500E+01 5.00000E+01 0.00000E+00
 -1      1174 4.96500E+01 5.00000E+01 0.00000E+00
 -1      1175 5.26500E+01 5.00000E+01 0.00000E+00
 -1      1176 5.56500E+01 5.00000E+01 0.00000E+00
 -1      1177 5.86500E+01 5.00000E+01 0.00000E+00
 -1      1178 6.16500E+01 5.00000E+01 0.00000E+00
 -1      1179 6.46500E+01 5.00000E+01 0.00000E+00
 -1      1180 6.76500E+01 5.00000E+01 0.00000E+00
 -1      1181 7.06500E+01 5.00000E+01 0.00000E+00
 -1      1182 7.36500E+01 5.00000E+01 0.00000E+00
 -1      1183 7.66500E+01 5.00000E+01 0.00000E+00
 -1      1184 7.96500E+01 5.00000E+01 0.00000E+00
 -1      1185 8.26500E+01 5.00000E+01 0.00000E+00
 -1      1186 8.56500E+01 5.00000E+01 0.00000E+00
 -1      1187 8.86500E+01 5.00000E+01 0.00000E+00
 -1      1188 9.16500E+01 5.00000E+01 0.00000E+00
 -1      1189 9.46500E+01 5.00000E+01 0.00000E+00
 -1      1190 9.76500E+01 5.00000E+01 0.00000E+00
 -1      1191 1.00650E+02 5.00000E+01 0.00000E+00
 -1      1192 1.03650E+02 5.00000E+01 0.00000E+00
 -1      1193 1.06650E+02 5.00000E+01 0.00000E+00
 -1      1194 1.09650E+02 5.00000E+01 0.00000E+00
 -1      1195 1.12650E+02 5.00000E+01 0.00000E+00
 -1      1196 1.15650E+02 5.00000E+01 0.00000E+00
 -1      1197 1.18650E+02 5.00000E+01 0.00000E+00
 -1      1198 1.21650E+02 5.00000E+01 0.00000E+00
 -1      1199 1.24650E+02 5.00000E+01 0.00000E+00
 -1      1200 1.27650E+02 5.00000E+01 0.00000E+00
 -1      1201 1.30650E+02 5.00000E+01 0.00000E+00
 -1      1202 1.33650E+02 5.00000E+01 0.00000E+00
 -1      1203 1.36650E+02 5.00000E+01 0.00000E+00
 -1      1204 1.39650E+02 5.00000E+01 0.00000E+00
 -1      1205 1.42650E+02 5.00000E+01 0.00000E+00
 -1      1206 1.45650E+02 5.00000E+01 0.00000E+00
 -1      1207 1.48575E+02 5.00000E+01 0.00000E+00
 -1      1208 1.57500E+00 0.00000E+00 0.00000E+00
 -1      1209 4.65000E+00 0.00000E+00 0.00000E+00
 -1      1210 7.65000E+00 0.00000E+00 0.00000E+00
 -1      1211 1.06500E+01 0.00000E+00 0.00000E+00
 -1      1212 1.36500E+01 0.00000E+00 0.00000E+00
 -1      1213 1.66500E+01 0.00000E+00 0.00000E+00
 -1      1214 1.96500E+01 0.00000E+00 0.00000E+00
 -1      1215 2.26500E+01 0.00000E+00 0.00000E+00
 -1      1216 2.56500E+01 0.00000E+00 0.00000E+00
 -1      1217 2.86500E+01 0.00000E+00 0.00000E+00
 -1      1218 3.16500E+01 0.00000E+00 0.00000E+00
 -1      1219 3.46500E+01 0.00000E+00 0.00000E+00
 -1      1220 3.76500E+01 0.00000E+00 0.00000E+00
 -1      1221 4.05750E+01 0.00000E+00 0.00000E+00
 -1      1222 4.35000E+01 0.00000E+00 0.00000E+00
 -1      1223 4.65000E+01 0.00000E+00 0.00000E+00
 -1      1224 4.95000E+01 0.00000E+00 0.00000E+00
 -1      1225 5.25000E+01 0.00000E+00 0.00000E+00
 -1      1226 5.55000E+01 0.00000E+00 0.00000E+00
 -1      1227 5.85000E+01 0.00000E+00 0.00000E+00
 -1      1228 6.15000E+01 0.00000E+00 0.00000E+00
 -1      1229 6.45000E+01 0.00000E+00 0.00000E+00
 -1      1230 6.75000E+01 0.00000E+00 0.00000E+00
 -1      1231 7.05000E+01 0.00000E+00 0.00000E+00
 -1      1232 7.35000E+01 0.00000E+00 0.00000E+00
 -1      1233 7.65000E+01 0.00000E+00 0.00000E+00
 -1      1234 7.95000E+01 0.00000E+00 0.00000E+00
 -1      1235 8.25000E+01 0.00000E+00 0.00000E+00
 -1      1236 8.55000E+01 0.00000E+00 0.00000E+00
 -1      1237 8.85000E+01 0.00000E+00 0.00000E+00
 -1      1238 9.15000E+01 0.00000E+00 0.00000E+00
 -1      1239 9.45000E+01 0.00000E+00 0.00000E+00
 -1      1240 9.75000E+01 0.00000E+00 0.00000E+00
 -1      1241 1.00500E+02 0.00000E+00 0.00000E+00
 -1      1242 1.03500E+02 0.00000E+00 0.00000E+00
 -1      1243 1.06500E+02 0.00000E+00 0.00000E+00
 -1      1244 1.09500E+02 0.00000E+00 0.00000E+00
 -1      1245 1.12500E+02 0.00000E+00 0.00000E+00
 -1      1246 1.15500E+02 0.00000E+00 0.00000E+00
 -1      1247 1.18500E+02 0.00000E+00 0.00000E+00
 -1      1248 1.21500E+02 0.00000E+00 0.00000E+00
 -1      1249 1.24500E+02 0.00000E+00 0.00000E+00
 -1      1250 1.27500E+02 0.00000E+00 0.00000E+00
 -1      1251 1.30500E+02 0.00000E+00 0.00000E+00
 -1      1252 1.33500E+02 0.00000E+00 0.00000E+00
 -1      1253 1.36500E+02 0.00000E+00 0.00000E+00
 -1      1254 1.39500E+02 0.00000E+00 0.00000E+00
 -1      1255 1.42500E+02 0.00000E+00 0.00000E+00
 -1      1256 1.45500E+02 0.00000E+00 0.00000E+00
 -1      1257 1.48500E+02 0.00000E+00 0.00000E+00
 -1      1258 1.50000E+02 1.47500E+00 0.00000E+00
 -1      1259 1.50000E+02 4.42500E+00 0.00000E+00
 -1      1260 1.50000E+02 7.37500E+00 0.00000E+00
 -1      1261 1.50000E+02 1.03250E+01 0.00000E+00
 -1      1262 1.50000E+02 1.32750E+01 0.00000E+00
 -1      1263 1.50000E+02 1.62000E+01 0.00000E+00
 -1      1264 1.50000E+02 1.91250E+01 0.00000E+00
 -1      1265 1.50000E+02 2.20750E+01 0.00000E+00
 -1      1266 1.50000E+02 2.50250E+01 0.00000E+00
 -1      1267 1.50000E+02 2.79750E+01 0.00000E+00
 -1      1268 1.50000E+02 3.09250E+01 0.00000E+00
 -1      1269 1.50000E+02 3.38500E+01 0.00000E+00
 -1      1270 1.50000E+02 3.67750E+01 0.00000E+00
 -1      1271 1.50000E+02 3.97250E+01 0.00000E+00
 -1      1272 1.50000E+02 4.26750E+01 0.00000E+00
 -1      1273 1.50000E+02 4.56250E+01 0.00000E+00
 -1      1274 1.50000E+02 4.85500E+01 0.00000E+00
 -1      1275 4.49473E+01 2.09394E+01 0.00000E+00
 -1      1276 4.46476E+01 1.95182E+01 0.00000E+00
 -1      1277 4.40683E+01 1.82020E+01 0.00000E+00
 -1      1278 4.32249E+01 1.70237E+01 0.00000E+00
 -1      1279 4.21484E+01 1.60379E+01 0.00000E+00
 -1      1280 4.08732E+01 1.52888E+01 0.00000E+00
 -1      1281 3.94888E+01 1.48286E+01 0.00000E+00
 -1      1282 3.80385E+01 1.46654E+01 0.00000E+00
 -1      1283 3.65462E+01 1.48147E+01 0.00000E+00
 -1      1284 3.51361E+01 1.52712E+01 0.00000E+00
 -1      1285 3.38415E+01 1.60233E+01 0.00000E+00
 -1      1286 3.26871E+01 1.70901E+01 0.00000E+00
 -1      1287 3.17888E+01 1.84085E+01 0.00000E+00
 -1      1288 3.12439E+01 1.97790E+01 0.00000E+00
 -1      1289 3.10001E+01 2.12054E+01 0.00000E+00
 -1      1290 3.10618E+01 2.26993E+01 0.00000E+00
 -1      1291 3.14588E+01 2.41967E+01 0.00000E+00
 -1      1292 3.21834E+01 2.55820E+01 0.00000E+00
 -1      1293 3.31742E+01 2.67501E+01 0.00000E+00
 -1      1294 3.43561E+01 2.76511E+01 0.00000E+00
 -1      1295 3.57420E+01 2.82961E+01 0.00000E+00
 -1      1296 3.72585E+01 2.86274E+01 0.00000E+00
 -1      1297 3.87651E+01 2.86216E+01 0.00000E+00
 -1      1298 4.03165E+01 2.82655E+01 0.00000E+00
 -1      1299 4.17442E+01 2.75702E+01 0.00000E+00
 -1      1300 4.29452E+01 2.66045E+01 0.00000E+00
 -1      1301 4.39145E+01 2.53856E+01 0.00000E+00
 -1      1302 4.45872E+01 2.39914E+01 0.00000E+00
 -1      1303 4.49390E+01 2.24667E+01 0.00000E+00
 -1      1304 1.57500E+00 4.85250E+01 0.00000E+00
 -1      1305 1.29900E+00 4.48375E+01 0.00000E+00
 -1      1306 1.29900E+00 4.63125E+01 0.00000E+00
 -1      1307 1.29900E+00 4.18875E+01 0.00000E+00
 -1      1308 1.29900E+00 4.33625E+01 0.00000E+00
 -1      1309 2.59800E+00 4.41000E+01 0.00000E+00
 -1      1310 1.29900E+00 3.89375E+01 0.00000E+00
 -1      1311 1.29900E+00 4.04125E+01 0.00000E+00
 -1      1312 2.59800E+00 4.11500E+01 0.00000E+00
 -1      1313 1.29900E+00 3.59875E+01 0.00000E+00
 -1      1314 1.29900E+00 3.74625E+01 0.00000E+00
 -1      1315 2.59800E+00 3.82000E+01 0.00000E+00
 -1      1316 1.29900E+00 3.30875E+01 0.00000E+00
 -1      1317 1.29900E+00 3.45375E+01 0.00000E+00
 -1      1318 2.59800E+00 3.52750E+01 0.00000E+00
 -1      1319 1.29900E+00 3.01375E+01 0.00000E+00
 -1      1320 1.29900E+00 3.16125E+01 0.00000E+00
 -1      1321 2.59800E+00 3.23500E+01 0.00000E+00
 -1      1322 1.29900E+00 2.71875E+01 0.00000E+00
 -1      1323 1.29900E+00 2.86625E+01 0.00000E+00
 -1      1324 2.59800E+00 2.94000E+01 0.00000E+00
 -1      1325 1.29900E+00 2.42375E+01 0.00000E+00
 -1      1326 1.29900E+00 2.57125E+01 0.00000E+00
 -1      1327 2.59800E+00 2.64500E+01 0.00000E+00
 -1      1328 1.29900E+00 2.12875E+01 0.00000E+00
 -1      1329 1.29900E+00 2.27625E+01 0.00000E+00
 -1      1330 2.59800E+00 2.35000E+01 0.00000E+00
 -1      1331 1.29900E+00 1.83375E+01 0.00000E+00
 -1      1332 1.29900E+00 1.98125E+01 0.00000E+00
 -1      1333 2.59800E+00 2.05500E+01 0.00000E+00
 -1      1334 1.29900E+00 1.54375E+01 0.00000E+00
 -1      1335 1.29900E+00 1.68875E+01 0.00000E+00
 -1      1336 2.59800E+00 1.76250E+01 0.00000E+00
 -1      1337 1.29900E+00 1.24875E+01 0.00000E+00
 -1      1338 1.29900E+00 1.39625E+01 0.00000E+00
 -1      1339 2.59800E+00 1.47000E+01 0.00000E+00
 -1      1340 1.29900E+00 9.53750E+00 0.00000E+00
 -1      1341 1.29900E+00 1.10125E+01 0.00000E+00
 -1      1342 2.59800E+00 1.17500E+01 0.00000E+00
 -1      1343 1.29900E+00 6.58750E+00 0.00000E+00
 -1      1344 1.29900E+00 8.06250E+00 0.00000E+00
 -1      1345 2.59800E+00 8.80000E+00 0.00000E+00
 -1      1346 1.29900E+00 3.63750E+00 0.00000E+00
 -1      1347 1.29900E+00 5.11250E+00 0.00000E+00
 -1      1348 2.59800E+00 5.85000E+00 0.00000E+00
 -1      1349 1.43700E+00 1.09375E+00 0.00000E+00
 -1      1350 1.43700E+00 2.54375E+00 0.00000E+00
 -1      1351 2.73600E+00 3.28125E+00 0.00000E+00
 -1      1352 3.01200E+00 1.09375E+00 0.00000E+00
 -1      1353 3.90000E+00 4.87010E+01 0.00000E+00
 -1      1354 5.40000E+00 4.87010E+01 0.00000E+00
 -1      1355 6.90000E+00 4.87010E+01 0.00000E+00
 -1      1356 8.40000E+00 4.87010E+01 0.00000E+00
 -1      1357 6.15000E+00 4.74020E+01 0.00000E+00
 -1      1358 9.90000E+00 4.87010E+01 0.00000E+00
 -1      1359 1.14000E+01 4.87010E+01 0.00000E+00
 -1      1360 9.15000E+00 4.74020E+01 0.00000E+00
 -1      1361 1.29000E+01 4.87010E+01 0.00000E+00
 -1      1362 1.44000E+01 4.87010E+01 0.00000E+00
 -1      1363 1.21500E+01 4.74020E+01 0.00000E+00
 -1      1364 1.59000E+01 4.87010E+01 0.00000E+00
 -1      1365 1.74000E+01 4.87010E+01 0.00000E+00
 -1      1366 1.51500E+01 4.74020E+01 0.00000E+00
 -1      1367 1.89000E+01 4.87010E+01 0.00000E+00
 -1      1368 2.04000E+01 4.87010E+01 0.00000E+00
 -1      1369 1.81500E+01 4.74020E+01 0.00000E+00
 -1      1370 2.19000E+01 4.87010E+01 0.00000E+00
 -1      1371 2.34000E+01 4.87010E+01 0.00000E+00
 -1      1372 2.11500E+01 4.74020E+01 0.00000E+00
 -1      1373 2.49000E+01 4.87010E+01 0.00000E+00
 -1      1374 2.64000E+01 4.87010E+01 0.00000E+00
 -1      1375 2.41500E+01 4.74020E+01 0.00000E+00
 -1      1376 2.79000E+01 4.87010E+01 0.00000E+00
 -1      1377 2.94000E+01 4.87010E+01 0.00000E+00
 -1      1378 2.71500E+01 4.74020E+01 0.00000E+00
 -1      1379 3.09000E+01 4.87010E+01 0.00000E+00
 -1      1380 3.24000E+01 4.87010E+01 0.00000E+00
 -1      1381 3.01500E+01 4.74020E+01 0.00000E+00
 -1      1382 3.39000E+01 4.87010E+01 0.00000E+00
 -1      1383 3.54000E+01 4.87010E+01 0.00000E+00
 -1      1384 3.31500E+01 4.74020E+01 0.00000E+00
 -1      1385 3.69000E+01 4.87010E+01 0.00000E+00
 -1      1386 3.84000E+01 4.87010E+01 0.00000E+00
 -1      1387 3.61500E+01 4.74020E+01 0.00000E+00
 -1      1388 3.99000E+01 4.87010E+01 0.00000E+00
 -1      1389 4.14000E+01 4.87010E+01 0.00000E+00
 -1      1390 3.91500E+01 4.74020E+01 0.00000E+00
 -1      1391 4.29000E+01 4.87010E+01 0.00000E+00
 -1      1392 4.44000E+01 4.87010E+01 0.00000E+00
 -1      1393 4.21500E+01 4.74020E+01 0.00000E+00
 -1      1394 4.59000E+01 4.87010E+01 0.00000E+00
 -1      1395 4.74000E+01 4.87010E+01 0.00000E+00
 -1      1396 4.51500E+01 4.74020E+01 0.00000E+00
 -1      1397 4.89000E+01 4.87010E+01 0.00000E+00
 -1      1398 5.04000E+01 4.87010E+01 0.00000E+00
 -1      1399 4.81500E+01 4.74020E+01 0.00000E+00
 -1      1400 5.19000E+01 4.87010E+01 0.00000E+00
 -1      1401 5.34000E+01 4.87010E+01 0.00000E+00
 -1      1402 5.11500E+01 4.74020E+01 0.00000E+00
 -1      1403 5.49000E+01 4.87010E+01 0.00000E+00
 -1      1404 5.64000E+01 4.87010E+01 0.00000E+00
 -1      1405 5.41500E+01 4.74020E+01 0.00000E+00
 -1      1406 5.79000E+01 4.87010E+01 0.00000E+00
 -1      1407 5.94000E+01 4.87010E+01 0.00000E+00
 -1      1408 5.71500E+01 4.74020E+01 0.00000E+00
 -1      1409 6.09000E+01 4.87010E+01 0.00000E+00
 -1      1410 6.24000E+01 4.87010E+01 0.00000E+00
 -1      1411 6.01500E+01 4.74020E+01 0.00000E+00
 -1      1412 6.39000E+01 4.87010E+01 0.00000E+00
 -1      1413 6.54000E+01 4.87010E+01 0.00000E+00
 -1      1414 6.31500E+01 4.74020E+01 0.00000E+00
 -1      1415 6.69000E+01 4.87010E+01 0.00000E+00
 -1      1416 6.84000E+01 4.87010E+01 0.00000E+00
 -1      1417 6.61500E+01 4.74020E+01 0.00000E+00
 -1      1418 6.99000E+01 4.87010E+01 0.00000E+00
 -1      1419 7.14000E+01 4.87010E+01 0.00000E+00
 -1      1420 6.91500E+01 4.74020E+01 0.00000E+00
 -1      1421 7.29000E+01 4.87010E+01 0.00000E+00
 -1      1422 7.44000E+01 4.87010E+01 0.00000E+00
 -1      1423 7.21500E+01 4.74020E+01 0.00000E+00
 -1      1424 7.59000E+01 4.87010E+01 0.00000E+00
 -1      1425 7.74000E+01 4.87010E+01 0.00000E+00
 -1      1426 7.51500E+01 4.74020E+01 0.00000E+00
 -1      1427 7.89000E+01 4.87010E+01 0.00000E+00
 -1      1428 8.04000E+01 4.87010E+01 0.00000E+00
 -1      1429 7.81500E+01 4.74020E+01 0.00000E+00
 -1      1430 8.19000E+01 4.87010E+01 0.00000E+00
 -1      1431 8.34000E+01 4.87010E+01 0.00000E+00
 -1      1432 8.11500E+01 4.74020E+01 0.00000E+00
 -1      1433 8.49000E+01 4.87010E+01 0.00000E+00
 -1      1434 8.64000E+01 4.87010E+01 0.00000E+00
 -1      1435 8.41500E+01 4.74020E+01 0.00000E+00
 -1      1436 8.79000E+01 4.87010E+01 0.00000E+00
 -1      1437 8.94000E+01 4.87010E+01 0.00000E+00
 -1      1438 8.71500E+01 4.74020E+01 0.00000E+00
 -1      1439 9.09000E+01 4.87010E+01 0.00000E+00
 -1      1440 9.24000E+01 4.87010E+01 0.00000E+00
 -1      1441 9.01500E+01 4.74020E+01 0.00000E+00
 -1      1442 9.39000E+01 4.87010E+01 0.00000E+00
 -1      1443 9.54000E+01 4.87010E+01 0.00000E+00
 -1      1444 9.31500E+01 4.74020E+01 0.00000E+00
 -1      1445 9.69000E+01 4.87010E+01 0.00000E+00
 -1      1446 9.84000E+01 4.87010E+01 0.00000E+00
 -1      1447 9.61500E+01 4.74020E+01 0.00000E+00
 -1      1448 9.99000E+01 4.87010E+01 0.00000E+00
 -1      1449 1.01400E+02 4.87010E+01 0.00000E+00
 -1      1450 9.91500E+01 4.74020E+01 0.00000E+00
 -1      1451 1.02900E+02 4.87010E+01 0.00000E+00
 -1      1452 1.04400E+02 4.87010E+01 0.00000E+00
 -1      1453 1.02150E+02 4.74020E+01 0.00000E+00
 -1      1454 1.05900E+02 4.87010E+01 0.00000E+00
 -1      1455 1.07400E+02 4.87010E+01 0.00000E+00
 -1      1456 1.05150E+02 4.74020E+01 0.00000E+00
 -1      1457 1.08900E+02 4.87010E+01 0.00000E+00
 -1      1458 1.10400E+02 4.87010E+01 0.00000E+00
 -1      1459 1.08150E+02 4.74020E+01 0.00000E+00
 -1      1460 1.11900E+02 4.87010E+01 0.00000E+00
 -1      1461 1.13400E+02 4.87010E+01 0.00000E+00
 -1      1462 1.11150E+02 4.74020E+01 0.00000E+00
 -1      1463 1.14900E+02 4.87010E+01 0.00000E+00
 -1      1464 1.16400E+02 4.87010E+01 0.00000E+00
 -1      1465 1.14150E+02 4.74020E+01 0.00000E+00
 -1      1466 1.17900E+02 4.87010E+01 0.00000E+00
 -1      1467 1.19400E+02 4.87010E+01 0.00000E+00
 -1      1468 1.17150E+02 4.74020E+01 0.00000E+00
 -1      1469 1.20900E+02 4.87010E+01 0.00000E+00
 -1      1470 1.22400E+02 4.87010E+01 0.00000E+00
 -1      1471 1.20150E+02 4.74020E+01 0.00000E+00
 -1      1472 1.23900E+02 4.87010E+01 0.00000E+00
 -1      1473 1.25400E+02 4.87010E+01 0.00000E+00
 -1      1474 1.23150E+02 4.74020E+01 0.00000E+00
 -1      1475 1.26900E+02 4.87010E+01 0.00000E+00
 -1      1476 1.28400E+02 4.87010E+01 0.00000E+00
 -1      1477 1.26150E+02 4.74020E+01 0.00000E+00
 -1      1478 1.29900E+02 4.87010E+01 0.00000E+00
 -1      1479 1.31400E+02 4.87010E+01 0.00000E+00
 -1      1480 1.29150E+02 4.74020E+01 0.00000E+00
 -1      1481 1.32900E+02 4.87010E+01 0.00000E+00
 -1      1482 1.34400E+02 4.87010E+01 0.00000E+00
 -1      1483 1.32150E+02 4.74020E+01 0.00000E+00
 -1      1484 1.35900E+02 4.87010E+01 0.00000E+00
 -1      1485 1.37400E+02 4.87010E+01 0.00000E+00
 -1      1486 1.35150E+02 4.74020E+01 0.00000E+00
 -1      1487 1.38900E+02 4.87010E+01 0.00000E+00
 -1      1488 1.40400E+02 4.87010E+01 0.00000E+00
 -1      1489 1.38150E+02 4.74020E+01 0.00000E+00
 -1      1490 1.41900E+02 4.87010E+01 0.00000E+00
 -1      1491 1.43400E+02 4.87010E+01 0.00000E+00
 -1      1492 1.41150E+02 4.74020E+01 0.00000E+00
 -1      1493 1.44900E+02 4.87010E+01 0.00000E+00
 -1      1494 1.46400E+02 4.87010E+01 0.00000E+00
 -1      1495 1.44150E+02 4.74020E+01 0.00000E+00
 -1      1496 1.48575E+02 4.85500E+01 0.00000E+00
 -1      1497 1.47825E+02 4.72510E+01 0.00000E+00
 -1      1498 6.01200E+00 1.09375E+00 0.00000E+00
 -1      1499 4.51200E+00 1.09375E+00 0.00000E+00
 -1      1500 4.37400E+00 2.18750E+00 0.00000E+00
 -1      1501 9.01200E+00 1.09375E+00 0.00000E+00
 -1      1502 7.51200E+00 1.09375E+00 0.00000E+00
 -1      1503 7.37400E+00 2.18750E+00 0.00000E+00
 -1      1504 1.20120E+01 1.09375E+00 0.00000E+00
 -1      1505 1.05120E+01 1.09375E+00 0.00000E+00
 -1      1506 1.03740E+01 2.18750E+00 0.00000E+00
 -1      1507 1.50120E+01 1.09375E+00 0.00000E+00
 -1      1508 1.35120E+01 1.09375E+00 0.00000E+00
 -1      1509 1.33740E+01 2.18750E+00 0.00000E+00
 -1      1510 1.80120E+01 1.09375E+00 0.00000E+00
 -1      1511 1.65120E+01 1.09375E+00 0.00000E+00
 -1      1512 1.63740E+01 2.18750E+00 0.00000E+00
 -1      1513 2.10120E+01 1.09375E+00 0.00000E+00
 -1      1514 1.95120E+01 1.09375E+00 0.00000E+00
 -1      1515 1.93740E+01 2.18750E+00 0.00000E+00
 -1      1516 2.40120E+01 1.09375E+00 0.00000E+00
 -1      1517 2.25120E+01 1.09375E+00 0.00000E+00
 -1      1518 2.23740E+01 2.18750E+00 0.00000E+00
 -1      1519 2.70120E+01 1.09375E+00 0.00000E+00
 -1      1520 2.55120E+01 1.09375E+00 0.00000E+00
 -1      1521 2.53740E+01 2.18750E+00 0.00000E+00
 -1      1522 3.00120E+01 1.09375E+00 0.00000E+00
 -1      1523 2.85120E+01 1.09375E+00 0.00000E+00
 -1      1524 2.83740E+01 2.18750E+00 0.00000E+00
 -1      1525 3.30120E+01 1.09375E+00 0.00000E+00
 -1      1526 3.15120E+01 1.09375E+00 0.00000E+00
 -1      1527 3.13740E+01 2.18750E+00 0.00000E+00
 -1      1528 3.60120E+01 1.09375E+00 0.00000E+00
 -1      1529 3.45120E+01 1.09375E+00 0.00000E+00
 -1      1530 3.43740E+01 2.18750E+00 0.00000E+00
 -1      1531 3.90120E+01 1.09375E+00 0.00000E+00
 -1      1532 3.75120E+01 1.09375E+00 0.00000E+00
 -1      1533 3.73740E+01 2.18750E+00 0.00000E+00
 -1      1534 4.18620E+01 1.09375E+00 0.00000E+00
 -1      1535 4.04370E+01 1.09375E+00 0.00000E+00
 -1      1536 4.02990E+01 2.18750E+00 0.00000E+00
 -1      1537 4.48620E+01 1.09375E+00 0.00000E+00
 -1      1538 4.33620E+01 1.09375E+00 0.00000E+00
 -1      1539 4.32240E+01 2.18750E+00 0.00000E+00
 -1      1540 4.78620E+01 1.09375E+00 0.00000E+00
 -1      1541 4.63620E+01 1.09375E+00 0.00000E+00
 -1      1542 4.62240E+01 2.18750E+00 0.00000E+00
 -1      1543 5.08620E+01 1.09375E+00 0.00000E+00
 -1      1544 4.93620E+01 1.09375E+00 0.00000E+00
 -1      1545 4.92240E+01 2.18750E+00 0.00000E+00
 -1      1546 5.38620E+01 1.09375E+00 0.00000E+00
 -1      1547 5.23620E+01 1.09375E+00 0.00000E+00
 -1      1548 5.22240E+01 2.18750E+00 0.00000E+00
 -1      1549 5.68620E+01 1.09375E+00 0.00000E+00
 -1      1550 5.53620E+01 1.09375E+00 0.00000E+00
 -1      1551 5.52240E+01 2.18750E+00 0.00000E+00
 -1      1552 5.98620E+01 1.09375E+00 0.00000E+00
 -1      1553 5.83620E+01 1.09375E+00 0.00000E+00
 -1      1554 5.82240E+01 2.18750E+00 0.00000E+00
 -1      1555 6.28620E+01 1.09375E+00 0.00000E+00
 -1      1556 6.13620E+01 1.09375E+00 0.00000E+00
 -1      1557 6.12240E+01 2.18750E+00 0.00000E+00
 -1      1558 6.58620E+01 1.09375E+00 0.00000E+00
 -1      1559 6.43620E+01 1.09375E+00 0.00000E+00
 -1      1560 6.42240E+01 2.18750E+00 0.00000E+00
 -1      1561 6.88620E+01 1.09375E+00 0.00000E+00
 -1      1562 6.73620E+01 1.09375E+00 0.00000E+00
 -1      1563 6.72240E+01 2.18750E+00 0.00000E+00
 -1      1564 7.18620E+01 1.09375E+00 0.00000E+00
 -1      1565 7.03620E+01 1.09375E+00 0.00000E+00
 -1      1566 7.02240E+01 2.18750E+00 0.00000E+00
 -1      1567 7.48620E+01 1.09375E+00 0.00000E+00
 -1      1568 7.33620E+01 1.09375E+00 0.00000E+00
 -1      1569 7.32240E+01 2.18750E+00 0.00000E+00
 -1      1570 7.78620E+01 1.09375E+00 0.00000E+00
 -1      1571 7.63620E+01 1.09375E+00 0.00000E+00
 -1      1572 7.62240E+01 2.18750E+00 0.00000E+00
 -1      1573 8.08620E+01 1.09375E+00 0.00000E+00
 -1      1574 7.93620E+01 1.09375E+00 0.00000E+00
 -1      1575 7.92240E+01 2.18750E+00 0.00000E+00
 -1      1576 8.38620E+01 1.09375E+00 0.00000E+00
 -1      1577 8.23620E+01 1.09375E+00 0.00000E+00
 -1      1578 8.22240E+01 2.18750E+00 0.00000E+00
 -1      1579 8.68620E+01 1.09375E+00 0.00000E+00
 -1      1580 8.53620E+01 1.09375E+00 0.00000E+00
 -1      1581 8.52240E+01 2.18750E+00 0.00000E+00
 -1      1582 8.98620E+01 1.09375E+00 0.00000E+00
 -1      1583 8.83620E+01 1.09375E+00 0.00000E+00
 -1      1584 8.82240E+01 2.18750E+00 0.00000E+00
 -1      1585 9.28620E+01 1.09375E+00 0.00000E+00
 -1      1586 9.13620E+01 1.09375E+00 0.00000E+00
 -1      1587 9.12240E+01 2.18750E+00 0.00000E+00
 -1      1588 9.58620E+01 1.09375E+00 0.00000E+00
 -1      1589 9.43620E+01 1.09375E+00 0.00000E+00
 -1      1590 9.42240E+01 2.18750E+00 0.00000E+00
 -1      1591 9.88620E+01 1.09375E+00 0.00000E+00
 -1      1592 9.73620E+01 1.09375E+00 0.00000E+00
 -1      1593 9.72240E+01 2.18750E+00 0.00000E+00
 -1      1594 1.01862E+02 1.09375E+00 0.00000E+00
 -1      1595 1.00362E+02 1.09375E+00 0.00000E+00
 -1      1596 1.00224E+02 2.18750E+00 0.00000E+00
 -1      1597 1.04862E+02 1.09375E+00 0.00000E+00
 -1      1598 1.03362E+02 1.09375E+00 0.00000E+00
 -1      1599 1.03224E+02 2.18750E+00 0.00000E+00
 -1      1600 1.07862E+02 1.09375E+00 0.00000E+00
 -1      1601 1.06362E+02 1.09375E+00 0.00000E+00
 -1      1602 1.06224E+02 2.18750E+00 0.00000E+00
 -1      1603 1.10862E+02 1.09375E+00 0.00000E+00
 -1      1604 1.09362E+02 1.09375E+00 0.00000E+00
 -1      1605 1.09224E+02 2.18750E+00 0.00000E+00
 -1      1606 1.13862E+02 1.09375E+00 0.00000E+00
 -1      1607 1.12362E+02 1.09375E+00 0.00000E+00
 -1      1608 1.12224E+02 2.18750E+00 0.00000E+00
 -1      1609 1.16862E+02 1.09375E+00 0.00000E+00
 -1      1610 1.15362E+02 1.09375E+00 0.00000E+00
 -1      1611 1.15224E+02 2.18750E+00 0.00000E+00
 -1      1612 1.19862E+02 1.09375E+00 0.00000E+00
 -1      1613 1.18362E+02 1.09375E+00 0.00000E+00
 -1      1614 1.18224E+02 2.18750E+00 0.00000E+00
 -1      1615 1.22862E+02 1.09375E+00 0.00000E+00
 -1      1616 1.21362E+02 1.09375E+00 0.00000E+00
 -1      1617 1.21224E+02 2.18750E+00 0.00000E+00
 -1      1618 1.25862E+02 1.09375E+00 0.00000E+00
 -1      1619 1.24362E+02 1.09375E+00 0.00000E+00
 -1      1620 1.24224E+02 2.18750E+00 0.00000E+00
 -1      1621 1.28862E+02 1.09375E+00 0.00000E+00
 -1      1622 1.27362E+02 1.09375E+00 0.00000E+00
 -1      1623 1.27224E+02 2.18750E+00 0.00000E+00
 -1      1624 1.31862E+02 1.09375E+00 0.00000E+00
 -1      1625 1.30362E+02 1.09375E+00 0.00000E+00
 -1      1626 1.30224E+02 2.18750E+00 0.00000E+00
 -1      1627 1.34862E+02 1.09375E+00 0.00000E+00
 -1      1628 1.33362E+02 1.09375E+00 0.00000E+00
 -1      1629 1.33224E+02 2.18750E+00 0.00000E+00
 -1      1630 1.37862E+02 1.09375E+00 0.00000E+00
 -1      1631 1.36362E+02 1.09375E+00 0.00000E+00
 -1      1632 1.36224E+02 2.18750E+00 0.00000E+00
 -1      1633 1.40862E+02 1.09375E+00 0.00000E+00
 -1      1634 1.39362E+02 1.09375E+00 0.00000E+00
 -1      1635 1.39224E+02 2.18750E+00 0.00000E+00
 -1      1636 1.43862E+02 1.09375E+00 0.00000E+00
 -1      1637 1.42362E+02 1.09375E+00 0.00000E+00
 -1      1638 1.42224E+02 2.18750E+00 0.00000E+00
 -1      1639 1.46862E+02 1.09375E+00 0.00000E+00
 -1      1640 1.45362E+02 1.09375E+00 0.00000E+00
 -1      1641 1.45224E+02 2.18750E+00 0.00000E+00
 -1      1642 1.48500E+02 1.47500E+00 0.00000E+00
 -1      1643 1.48701E+02 5.16250E+00 0.00000E+00
 -1      1644 1.48701E+02 3.68750E+00 0.00000E+00
 -1      1645 1.48701E+02 8.11250E+00 0.00000E+00
 -1      1646 1.48701E+02 6.63750E+00 0.00000E+00
 -1      1647 1.47402E+02 5.90000E+00 0.00000E+00
 -1      1648 1.48701E+02 1.10625E+01 0.00000E+00
 -1      1649 1.48701E+02 9.58750E+00 0.00000E+00
 -1      1650 1.47402E+02 8.85000E+00 0.00000E+00
 -1      1651 1.48701E+02 1.40125E+01 0.00000E+00
 -1      1652 1.48701E+02 1.25375E+01 0.00000E+00
 -1      1653 1.47402E+02 1.18000E+01 0.00000E+00
 -1      1654 1.48701E+02 1.69125E+01 0.00000E+00
 -1      1655 1.48701E+02 1.54625E+01 0.00000E+00
 -1      1656 1.47402E+02 1.47250E+01 0.00000E+00
 -1      1657 1.48701E+02 1.98625E+01 0.00000E+00
 -1      1658 1.48701E+02 1.83875E+01 0.00000E+00
 -1      1659 1.47402E+02 1.76500E+01 0.00000E+00
 -1      1660 1.48701E+02 2.28125E+01 0.00000E+00
 -1      1661 1.48701E+02 2.13375E+01 0.00000E+00
 -1      1662 1.47402E+02 2.06000E+01 0.00000E+00
 -1      1663 1.48701E+02 2.57625E+01 0.00000E+00
 -1      1664 1.48701E+02 2.42875E+01 0.00000E+00
 -1      1665 1.47402E+02 2.35500E+01 0.00000E+00
 -1      1666 1.48701E+02 2.87125E+01 0.00000E+00
 -1      1667 1.48701E+02 2.72375E+01 0.00000E+00
 -1      1668 1.47402E+02 2.65000E+01 0.00000E+00
 -1      1669 1.48701E+02 3.16625E+01 0.00000E+00
 -1      1670 1.48701E+02 3.01875E+01 0.00000E+00
 -1      1671 1.47402E+02 2.94500E+01 0.00000E+00
 -1      1672 1.48701E+02 3.45625E+01 0.00000E+00
 -1      1673 1.48701E+02 3.31125E+01 0.00000E+00
 -1      1674 1.47402E+02 3.23750E+01 0.00000E+00
 -1      1675 1.48701E+02 3.75125E+01 0.00000E+00
 -1      1676 1.48701E+02 3.60375E+01 0.00000E+00
 -1      1677 1.47402E+02 3.53000E+01 0.00000E+00
 -1      1678 1.48701E+02 4.04625E+01 0.00000E+00
 -1      1679 1.48701E+02 3.89875E+01 0.00000E+00
 -1      1680 1.47402E+02 3.82500E+01 0.00000E+00
 -1      1681 1.48701E+02 4.34125E+01 0.00000E+00
 -1      1682 1.48701E+02 4.19375E+01 0.00000E+00
 -1      1683 1.47402E+02 4.12000E+01 0.00000E+00
 -1      1684 1.48263E+02 4.60692E+01 0.00000E+00
 -1      1685 1.48263E+02 4.45942E+01 0.00000E+00
 -1      1686 1.46964E+02 4.38568E+01 0.00000E+00
 -1      1687 1.46088E+02 4.62202E+01 0.00000E+00
 -1      1688 4.55168E+01 2.05152E+01 0.00000E+00
 -1      1689 4.55920E+01 2.12371E+01 0.00000E+00
 -1      1690 4.51968E+01 1.89595E+01 0.00000E+00
 -1      1691 4.54197E+01 1.96512E+01 0.00000E+00
 -1      1692 4.44241E+01 1.75902E+01 0.00000E+00
 -1      1693 4.47760E+01 1.82084E+01 0.00000E+00
 -1      1694 4.34364E+01 1.63437E+01 0.00000E+00
 -1      1695 4.39255E+01 1.68959E+01 0.00000E+00
 -1      1696 4.21965E+01 1.53659E+01 0.00000E+00
 -1      1697 4.27770E+01 1.57953E+01 0.00000E+00
 -1      1698 4.07963E+01 1.45415E+01 0.00000E+00
 -1      1699 4.14857E+01 1.48538E+01 0.00000E+00
 -1      1700 3.92686E+01 1.41956E+01 0.00000E+00
 -1      1701 3.99543E+01 1.43465E+01 0.00000E+00
 -1      1702 3.76645E+01 1.40555E+01 0.00000E+00
 -1      1703 3.84218E+01 1.40613E+01 0.00000E+00
 -1      1704 3.60579E+01 1.42953E+01 0.00000E+00
 -1      1705 3.67844E+01 1.41427E+01 0.00000E+00
 -1      1706 3.45674E+01 1.49038E+01 0.00000E+00
 -1      1707 3.52432E+01 1.46027E+01 0.00000E+00
 -1      1708 3.32018E+01 1.57919E+01 0.00000E+00
 -1      1709 3.38122E+01 1.53436E+01 0.00000E+00
 -1      1710 3.19347E+01 1.69784E+01 0.00000E+00
 -1      1711 3.24670E+01 1.63619E+01 0.00000E+00
 -1      1712 3.11092E+01 1.84924E+01 0.00000E+00
 -1      1713 3.14725E+01 1.78012E+01 0.00000E+00
 -1      1714 3.05999E+01 1.99591E+01 0.00000E+00
 -1      1715 3.07869E+01 1.92908E+01 0.00000E+00
 -1      1716 3.04111E+01 2.15440E+01 0.00000E+00
 -1      1717 3.04605E+01 2.07925E+01 0.00000E+00
 -1      1718 3.05561E+01 2.31500E+01 0.00000E+00
 -1      1719 3.04465E+01 2.24160E+01 0.00000E+00
 -1      1720 3.09659E+01 2.48207E+01 0.00000E+00
 -1      1721 3.06741E+01 2.40683E+01 0.00000E+00
 -1      1722 3.18918E+01 2.62351E+01 0.00000E+00
 -1      1723 3.14686E+01 2.56082E+01 0.00000E+00
 -1      1724 3.30113E+01 2.74864E+01 0.00000E+00
 -1      1725 3.24480E+01 2.69535E+01 0.00000E+00
 -1      1726 3.43645E+01 2.83228E+01 0.00000E+00
 -1      1727 3.37567E+01 2.79543E+01 0.00000E+00
 -1      1728 3.59101E+01 2.90750E+01 0.00000E+00
 -1      1729 3.51355E+01 2.88129E+01 0.00000E+00
 -1      1730 3.75605E+01 2.92717E+01 0.00000E+00
 -1      1731 3.68300E+01 2.91954E+01 0.00000E+00
 -1      1732 3.92115E+01 2.91385E+01 0.00000E+00
 -1      1733 3.84442E+01 2.92246E+01 0.00000E+00
 -1      1734 4.09167E+01 2.87342E+01 0.00000E+00
 -1      1735 4.01439E+01 2.90072E+01 0.00000E+00
 -1      1736 4.23711E+01 2.78395E+01 0.00000E+00
 -1      1737 4.17230E+01 2.82522E+01 0.00000E+00
 -1      1738 4.36171E+01 2.67283E+01 0.00000E+00
 -1      1739 4.30718E+01 2.72758E+01 0.00000E+00
 -1      1740 4.46701E+01 2.53965E+01 0.00000E+00
 -1      1741 4.42531E+01 2.60612E+01 0.00000E+00
 -1      1742 4.52464E+01 2.38191E+01 0.00000E+00
 -1      1743 4.49927E+01 2.45390E+01 0.00000E+00
 -1      1744 4.56246E+01 2.21423E+01 0.00000E+00
 -1      1745 4.55328E+01 2.29385E+01 0.00000E+00
 -1      1746 4.35066E+01 1.56417E+01 0.00000E+00
 -1      1747 4.46646E+01 1.68844E+01 0.00000E+00
 -1      1748 1.48362E+02 2.56875E+00 0.00000E+00
 -1      1749 1.47063E+02 3.30625E+00 0.00000E+00
 -1      1750 4.61019E+01 1.99449E+01 0.00000E+00
 -1      1751 4.55840E+01 1.83297E+01 0.00000E+00
 -1      1752 4.62316E+01 2.17142E+01 0.00000E+00
 -1      1753 4.21365E+01 1.45812E+01 0.00000E+00
 -1      1754 4.05837E+01 1.38741E+01 0.00000E+00
 -1      1755 3.88949E+01 1.35447E+01 0.00000E+00
 -1      1756 3.71680E+01 1.34976E+01 0.00000E+00
 -1      1757 3.54733E+01 1.38922E+01 0.00000E+00
 -1      1758 3.39034E+01 1.46394E+01 0.00000E+00
 -1      1759 3.24134E+01 1.56492E+01 0.00000E+00
 -1      1760 3.12164E+01 1.70420E+01 0.00000E+00
 -1      1761 3.04319E+01 1.86632E+01 0.00000E+00
 -1      1762 2.99702E+01 2.02950E+01 0.00000E+00
 -1      1763 2.98663E+01 2.20005E+01 0.00000E+00
 -1      1764 3.00197E+01 2.37909E+01 0.00000E+00
 -1      1765 3.06404E+01 2.54967E+01 0.00000E+00
 -1      1766 3.16992E+01 2.70027E+01 0.00000E+00
 -1      1767 3.30009E+01 2.81891E+01 0.00000E+00
 -1      1768 3.45173E+01 2.91471E+01 0.00000E+00
 -1      1769 3.62081E+01 2.97577E+01 0.00000E+00
 -1      1770 3.80117E+01 2.98311E+01 0.00000E+00
 -1      1771 3.98278E+01 2.96526E+01 0.00000E+00
 -1      1772 4.15663E+01 2.90392E+01 0.00000E+00
 -1      1773 4.30733E+01 2.79935E+01 0.00000E+00
 -1      1774 4.44100E+01 2.67627E+01 0.00000E+00
 -1      1775 4.53687E+01 2.52380E+01 0.00000E+00
 -1      1776 4.59777E+01 2.34999E+01 0.00000E+00
 -1      1777 2.87400E+00 4.77875E+01 0.00000E+00
 -1      1778 3.89700E+00 4.04125E+01 0.00000E+00
 -1      1779 3.89700E+00 4.18875E+01 0.00000E+00
 -1      1780 3.89700E+00 4.33625E+01 0.00000E+00
 -1      1781 3.89700E+00 4.48375E+01 0.00000E+00
 -1      1782 5.19600E+00 4.26250E+01 0.00000E+00
 -1      1783 3.89700E+00 3.45500E+01 0.00000E+00
 -1      1784 3.89700E+00 3.60000E+01 0.00000E+00
 -1      1785 3.89700E+00 3.16000E+01 0.00000E+00
 -1      1786 3.89700E+00 3.30750E+01 0.00000E+00
 -1      1787 5.19600E+00 3.38000E+01 0.00000E+00
 -1      1788 3.89700E+00 2.86500E+01 0.00000E+00
 -1      1789 3.89700E+00 3.01250E+01 0.00000E+00
 -1      1790 5.19600E+00 3.08500E+01 0.00000E+00
 -1      1791 3.89700E+00 2.57000E+01 0.00000E+00
 -1      1792 3.89700E+00 2.71750E+01 0.00000E+00
 -1      1793 5.19600E+00 2.79000E+01 0.00000E+00
 -1      1794 3.89700E+00 2.27500E+01 0.00000E+00
 -1      1795 3.89700E+00 2.42250E+01 0.00000E+00
 -1      1796 5.19600E+00 2.49500E+01 0.00000E+00
 -1      1797 3.89700E+00 1.98000E+01 0.00000E+00
 -1      1798 3.89700E+00 2.12750E+01 0.00000E+00
 -1      1799 5.19600E+00 2.20000E+01 0.00000E+00
 -1      1800 3.89700E+00 1.69000E+01 0.00000E+00
 -1      1801 3.89700E+00 1.83500E+01 0.00000E+00
 -1      1802 5.19600E+00 1.90750E+01 0.00000E+00
 -1      1803 3.89700E+00 1.39500E+01 0.00000E+00
 -1      1804 3.89700E+00 1.54250E+01 0.00000E+00
 -1      1805 5.19600E+00 1.61500E+01 0.00000E+00
 -1      1806 3.89700E+00 1.10000E+01 0.00000E+00
 -1      1807 3.89700E+00 1.24750E+01 0.00000E+00
 -1      1808 5.19600E+00 1.32000E+01 0.00000E+00
 -1      1809 3.89700E+00 8.05000E+00 0.00000E+00
 -1      1810 3.89700E+00 9.52500E+00 0.00000E+00
 -1      1811 5.19600E+00 1.02500E+01 0.00000E+00
 -1      1812 3.89700E+00 5.10000E+00 0.00000E+00
 -1      1813 3.89700E+00 6.57500E+00 0.00000E+00
 -1      1814 5.19600E+00 7.30000E+00 0.00000E+00
 -1      1815 4.20450E+00 3.09687E+00 0.00000E+00
 -1      1816 4.06650E+00 4.19063E+00 0.00000E+00
 -1      1817 5.36550E+00 4.91563E+00 0.00000E+00
 -1      1818 5.70450E+00 3.09687E+00 0.00000E+00
 -1      1819 3.62400E+00 4.64885E+01 0.00000E+00
 -1      1820 8.70450E+00 3.09687E+00 0.00000E+00
 -1      1821 7.20450E+00 3.09687E+00 0.00000E+00
 -1      1822 7.03500E+00 4.00625E+00 0.00000E+00
 -1      1823 4.92300E+00 4.57510E+01 0.00000E+00
 -1      1824 8.40000E+00 4.61030E+01 0.00000E+00
 -1      1825 9.90000E+00 4.61030E+01 0.00000E+00
 -1      1826 1.14000E+01 4.61030E+01 0.00000E+00
 -1      1827 1.29000E+01 4.61030E+01 0.00000E+00
 -1      1828 1.06500E+01 4.48040E+01 0.00000E+00
 -1      1829 1.44000E+01 4.61030E+01 0.00000E+00
 -1      1830 1.59000E+01 4.61030E+01 0.00000E+00
 -1      1831 1.36500E+01 4.48040E+01 0.00000E+00
 -1      1832 1.74000E+01 4.61030E+01 0.00000E+00
 -1      1833 1.89000E+01 4.61030E+01 0.00000E+00
 -1      1834 1.66500E+01 4.48040E+01 0.00000E+00
 -1      1835 2.04000E+01 4.61030E+01 0.00000E+00
 -1      1836 2.19000E+01 4.61030E+01 0.00000E+00
 -1      1837 1.96500E+01 4.48040E+01 0.00000E+00
 -1      1838 2.34000E+01 4.61030E+01 0.00000E+00
 -1      1839 2.49000E+01 4.61030E+01 0.00000E+00
 -1      1840 2.26500E+01 4.48040E+01 0.00000E+00
 -1      1841 2.64000E+01 4.61030E+01 0.00000E+00
 -1      1842 2.79000E+01 4.61030E+01 0.00000E+00
 -1      1843 2.56500E+01 4.48040E+01 0.00000E+00
 -1      1844 2.94000E+01 4.61030E+01 0.00000E+00
 -1      1845 3.09000E+01 4.61030E+01 0.00000E+00
 -1      1846 2.86500E+01 4.48040E+01 0.00000E+00
 -1      1847 3.24000E+01 4.61030E+01 0.00000E+00
 -1      1848 3.39000E+01 4.61030E+01 0.00000E+00
 -1      1849 3.16500E+01 4.48040E+01 0.00000E+00
 -1      1850 3.54000E+01 4.61030E+01 0.00000E+00
 -1      1851 3.69000E+01 4.61030E+01 0.00000E+00
 -1      1852 3.46500E+01 4.48040E+01 0.00000E+00
 -1      1853 3.84000E+01 4.61030E+01 0.00000E+00
 -1      1854 3.99000E+01 4.61030E+01 0.00000E+00
 -1      1855 3.76500E+01 4.48040E+01 0.00000E+00
 -1      1856 4.14000E+01 4.61030E+01 0.00000E+00
 -1      1857 4.29000E+01 4.61030E+01 0.00000E+00
 -1      1858 4.06500E+01 4.48040E+01 0.00000E+00
 -1      1859 4.44000E+01 4.61030E+01 0.00000E+00
 -1      1860 4.59000E+01 4.61030E+01 0.00000E+00
 -1      1861 4.36500E+01 4.48040E+01 0.00000E+00
 -1      1862 4.74000E+01 4.61030E+01 0.00000E+00
 -1      1863 4.89000E+01 4.61030E+01 0.00000E+00
 -1      1864 4.66500E+01 4.48040E+01 0.00000E+00
 -1      1865 5.04000E+01 4.61030E+01 0.00000E+00
 -1      1866 5.19000E+01 4.61030E+01 0.00000E+00
 -1      1867 4.96500E+01 4.48040E+01 0.00000E+00
 -1      1868 5.34000E+01 4.61030E+01 0.00000E+00
 -1      1869 5.49000E+01 4.61030E+01 0.00000E+00
 -1      1870 5.26500E+01 4.48040E+01 0.00000E+00
 -1      1871 5.64000E+01 4.61030E+01 0.00000E+00
 -1      1872 5.79000E+01 4.61030E+01 0.00000E+00
 -1      1873 5.56500E+01 4.48040E+01 0.00000E+00
 -1      1874 5.94000E+01 4.61030E+01 0.00000E+00
 -1      1875 6.09000E+01 4.61030E+01 0.00000E+00
 -1      1876 5.86500E+01 4.48040E+01 0.00000E+00
 -1      1877 6.24000E+01 4.61030E+01 0.00000E+00
 -1      1878 6.39000E+01 4.61030E+01 0.00000E+00
 -1      1879 6.16500E+01 4.48040E+01 0.00000E+00
 -1      1880 6.54000E+01 4.61030E+01 0.00000E+00
 -1      1881 6.69000E+01 4.61030E+01 0.00000E+00
 -1      1882 6.46500E+01 4.48040E+01 0.00000E+00
 -1      1883 6.84000E+01 4.61030E+01 0.00000E+00
 -1      1884 6.99000E+01 4.61030E+01 0.00000E+00
 -1      1885 6.76500E+01 4.48040E+01 0.00000E+00
 -1      1886 7.14000E+01 4.61030E+01 0.00000E+00
 -1      1887 7.29000E+01 4.61030E+01 0.00000E+00
 -1      1888 7.06500E+01 4.48040E+01 0.00000E+00
 -1      1889 7.44000E+01 4.61030E+01 0.00000E+00
 -1      1890 7.59000E+01 4.61030E+01 0.00000E+00
 -1      1891 7.36500E+01 4.48040E+01 0.00000E+00
 -1      1892 7.74000E+01 4.61030E+01 0.00000E+00
 -1      1893 7.89000E+01 4.61030E+01 0.00000E+00
 -1      1894 7.66500E+01 4.48040E+01 0.00000E+00
 -1      1895 8.04000E+01 4.61030E+01 0.00000E+00
 -1      1896 8.19000E+01 4.61030E+01 0.00000E+00
 -1      1897 7.96500E+01 4.48040E+01 0.00000E+00
 -1      1898 8.34000E+01 4.61030E+01 0.00000E+00
 -1      1899 8.49000E+01 4.61030E+01 0.00000E+00
 -1      1900 8.26500E+01 4.48040E+01 0.00000E+00
 -1      1901 8.64000E+01 4.61030E+01 0.00000E+00
 -1      1902 8.79000E+01 4.61030E+01 0.00000E+00
 -1      1903 8.56500E+01 4.48040E+01 0.00000E+00
 -1      1904 8.94000E+01 4.61030E+01 0.00000E+00
 -1      1905 9.09000E+01 4.61030E+01 0.00000E+00
 -1      1906 8.86500E+01 4.48040E+01 0.00000E+00
 -1      1907 9.24000E+01 4.61030E+01 0.00000E+00
 -1      1908 9.39000E+01 4.61030E+01 0.00000E+00
 -1      1909 9.16500E+01 4.48040E+01 0.00000E+00
 -1      1910 9.54000E+01 4.61030E+01 0.00000E+00
 -1      1911 9.69000E+01 4.61030E+01 0.00000E+00
 -1      1912 9.46500E+01 4.48040E+01 0.00000E+00
 -1      1913 9.84000E+01 4.61030E+01 0.00000E+00
 -1      1914 9.99000E+01 4.61030E+01 0.00000E+00
 -1      1915 9.76500E+01 4.48040E+01 0.00000E+00
 -1      1916 1.01400E+02 4.61030E+01 0.00000E+00
 -1      1917 1.02900E+02 4.61030E+01 0.00000E+00
 -1      1918 1.00650E+02 4.48040E+01 0.00000E+00
 -1      1919 1.04400E+02 4.61030E+01 0.00000E+00
 -1      1920 1.05900E+02 4.61030E+01 0.00000E+00
 -1      1921 1.03650E+02 4.48040E+01 0.00000E+00
 -1      1922 1.07400E+02 4.61030E+01 0.00000E+00
 -1      1923 1.08900E+02 4.61030E+01 0.00000E+00
 -1      1924 1.06650E+02 4.48040E+01 0.00000E+00
 -1      1925 1.10400E+02 4.61030E+01 0.00000E+00
 -1      1926 1.11900E+02 4.61030E+01 0.00000E+00
 -1      1927 1.09650E+02 4.48040E+01 0.00000E+00
 -1      1928 1.13400E+02 4.61030E+01 0.00000E+00
 -1      1929 1.14900E+02 4.61030E+01 0.00000E+00
 -1      1930 1.12650E+02 4.48040E+01 0.00000E+00
 -1      1931 1.16400E+02 4.61030E+01 0.00000E+00
 -1      1932 1.17900E+02 4.61030E+01 0.00000E+00
 -1      1933 1.15650E+02 4.48040E+01 0.00000E+00
 -1      1934 1.19400E+02 4.61030E+01 0.00000E+00
 -1      1935 1.20900E+02 4.61030E+01 0.00000E+00
 -1      1936 1.18650E+02 4.48040E+01 0.00000E+00
 -1      1937 1.22400E+02 4.61030E+01 0.00000E+00
 -1      1938 1.23900E+02 4.61030E+01 0.00000E+00
 -1      1939 1.21650E+02 4.48040E+01 0.00000E+00
 -1      1940 1.25400E+02 4.61030E+01 0.00000E+00
 -1      1941 1.26900E+02 4.61030E+01 0.00000E+00
 -1      1942 1.24650E+02 4.48040E+01 0.00000E+00
 -1      1943 1.28400E+02 4.61030E+01 0.00000E+00
 -1      1944 1.29900E+02 4.61030E+01 0.00000E+00
 -1      1945 1.27650E+02 4.48040E+01 0.00000E+00
 -1      1946 1.31400E+02 4.61030E+01 0.00000E+00
 -1      1947 1.32900E+02 4.61030E+01 0.00000E+00
 -1      1948 1.30650E+02 4.48040E+01 0.00000E+00
 -1      1949 1.34400E+02 4.61030E+01 0.00000E+00
 -1      1950 1.35900E+02 4.61030E+01 0.00000E+00
 -1      1951 1.33650E+02 4.48040E+01 0.00000E+00
 -1      1952 1.37400E+02 4.61030E+01 0.00000E+00
 -1      1953 1.38900E+02 4.61030E+01 0.00000E+00
 -1      1954 1.36650E+02 4.48040E+01 0.00000E+00
 -1      1955 1.40400E+02 4.61030E+01 0.00000E+00
 -1      1956 1.41900E+02 4.61030E+01 0.00000E+00
 -1      1957 1.39650E+02 4.48040E+01 0.00000E+00
 -1      1958 1.43244E+02 4.61616E+01 0.00000E+00
 -1      1959 1.44744E+02 4.61616E+01 0.00000E+00
 -1      1960 1.45182E+02 4.49799E+01 0.00000E+00
 -1      1961 1.42494E+02 4.48626E+01 0.00000E+00
 -1      1962 1.17045E+01 3.09687E+00 0.00000E+00
 -1      1963 1.02045E+01 3.09687E+00 0.00000E+00
 -1      1964 1.00350E+01 4.00625E+00 0.00000E+00
 -1      1965 1.47045E+01 3.09687E+00 0.00000E+00
 -1      1966 1.32045E+01 3.09687E+00 0.00000E+00
 -1      1967 1.30350E+01 4.00625E+00 0.00000E+00
 -1      1968 1.77045E+01 3.09687E+00 0.00000E+00
 -1      1969 1.62045E+01 3.09687E+00 0.00000E+00
 -1      1970 1.60350E+01 4.00625E+00 0.00000E+00
 -1      1971 2.07045E+01 3.09687E+00 0.00000E+00
 -1      1972 1.92045E+01 3.09687E+00 0.00000E+00
 -1      1973 1.90350E+01 4.00625E+00 0.00000E+00
 -1      1974 2.37045E+01 3.09687E+00 0.00000E+00
 -1      1975 2.22045E+01 3.09687E+00 0.00000E+00
 -1      1976 2.20350E+01 4.00625E+00 0.00000E+00
 -1      1977 2.67045E+01 3.09687E+00 0.00000E+00
 -1      1978 2.52045E+01 3.09687E+00 0.00000E+00
 -1      1979 2.50350E+01 4.00625E+00 0.00000E+00
 -1      1980 2.97045E+01 3.09687E+00 0.00000E+00
 -1      1981 2.82045E+01 3.09687E+00 0.00000E+00
 -1      1982 2.80350E+01 4.00625E+00 0.00000E+00
 -1      1983 3.27045E+01 3.09687E+00 0.00000E+00
 -1      1984 3.12045E+01 3.09687E+00 0.00000E+00
 -1      1985 3.10350E+01 4.00625E+00 0.00000E+00
 -1      1986 3.57045E+01 3.09687E+00 0.00000E+00
 -1      1987 3.42045E+01 3.09687E+00 0.00000E+00
 -1      1988 3.40350E+01 4.00625E+00 0.00000E+00
 -1      1989 3.87045E+01 3.09687E+00 0.00000E+00
 -1      1990 3.72045E+01 3.09687E+00 0.00000E+00
 -1      1991 3.70350E+01 4.00625E+00 0.00000E+00
 -1      1992 4.15545E+01 3.09687E+00 0.00000E+00
 -1      1993 4.01295E+01 3.09687E+00 0.00000E+00
 -1      1994 3.99600E+01 4.00625E+00 0.00000E+00
 -1      1995 4.45545E+01 3.09687E+00 0.00000E+00
 -1      1996 4.30545E+01 3.09687E+00 0.00000E+00
 -1      1997 4.28850E+01 4.00625E+00 0.00000E+00
 -1      1998 4.75545E+01 3.09687E+00 0.00000E+00
 -1      1999 4.60545E+01 3.09687E+00 0.00000E+00
 -1      2000 4.58850E+01 4.00625E+00 0.00000E+00
 -1      2001 5.05545E+01 3.09687E+00 0.00000E+00
 -1      2002 4.90545E+01 3.09687E+00 0.00000E+00
 -1      2003 4.88850E+01 4.00625E+00 0.00000E+00
 -1      2004 5.35545E+01 3.09687E+00 0.00000E+00
 -1      2005 5.20545E+01 3.09687E+00 0.00000E+00
 -1      2006 5.18850E+01 4.00625E+00 0.00000E+00
 -1      2007 5.65545E+01 3.09687E+00 0.00000E+00
 -1      2008 5.50545E+01 3.09687E+00 0.00000E+00
 -1      2009 5.48850E+01 4.00625E+00 0.00000E+00
 -1      2010 5.95545E+01 3.09687E+00 0.00000E+00
 -1      2011 5.80545E+01 3.09687E+00 0.00000E+00
 -1      2012 5.78850E+01 4.00625E+00 0.00000E+00
 -1      2013 6.25545E+01 3.09687E+00 0.00000E+00
 -1      2014 6.10545E+01 3.09687E+00 0.00000E+00
 -1      2015 6.08850E+01 4.00625E+00 0.00000E+00
 -1      2016 6.55545E+01 3.09687E+00 0.00000E+00
 -1      2017 6.40545E+01 3.09687E+00 0.00000E+00
 -1      2018 6.38850E+01 4.00625E+00 0.00000E+00
 -1      2019 6.85545E+01 3.09687E+00 0.00000E+00
 -1      2020 6.70545E+01 3.09687E+00 0.00000E+00
 -1      2021 6.68850E+01 4.00625E+00 0.00000E+00
 -1      2022 7.15545E+01 3.09687E+00 0.00000E+00
 -1      2023 7.00545E+01 3.09687E+00 0.00000E+00
 -1      2024 6.98850E+01 4.00625E+00 0.00000E+00
 -1      2025 7.45545E+01 3.09687E+00 0.00000E+00
 -1      2026 7.30545E+01 3.09687E+00 0.00000E+00
 -1      2027 7.28850E+01 4.00625E+00 0.00000E+00
 -1      2028 7.75545E+01 3.09687E+00 0.00000E+00
 -1      2029 7.60545E+01 3.09687E+00 0.00000E+00
 -1      2030 7.58850E+01 4.00625E+00 0.00000E+00
 -1      2031 8.05545E+01 3.09687E+00 0.00000E+00
 -1      2032 7.90545E+01 3.09687E+00 0.00000E+00
 -1      2033 7.88850E+01 4.00625E+00 0.00000E+00
 -1      2034 8.35545E+01 3.09687E+00 0.00000E+00
 -1      2035 8.20545E+01 3.09687E+00 0.00000E+00
 -1      2036 8.18850E+01 4.00625E+00 0.00000E+00
 -1      2037 8.65545E+01 3.09687E+00 0.00000E+00
 -1      2038 8.50545E+01 3.09687E+00 0.00000E+00
 -1      2039 8.48850E+01 4.00625E+00 0.00000E+00
 -1      2040 8.95545E+01 3.09687E+00 0.00000E+00
 -1      2041 8.80545E+01 3.09687E+00 0.00000E+00
 -1      2042 8.78850E+01 4.00625E+00 0.00000E+00
 -1      2043 9.25545E+01 3.09687E+00 0.00000E+00
 -1      2044 9.10545E+01 3.09687E+00 0.00000E+00
 -1      2045 9.08850E+01 4.00625E+00 0.00000E+00
 -1      2046 9.55545E+01 3.09687E+00 0.00000E+00
 -1      2047 9.40545E+01 3.09687E+00 0.00000E+00
 -1      2048 9.38850E+01 4.00625E+00 0.00000E+00
 -1      2049 9.85545E+01 3.09687E+00 0.00000E+00
 -1      2050 9.70545E+01 3.09687E+00 0.00000E+00
 -1      2051 9.68850E+01 4.00625E+00 0.00000E+00
 -1      2052 1.01554E+02 3.09687E+00 0.00000E+00
 -1      2053 1.00054E+02 3.09687E+00 0.00000E+00
 -1      2054 9.98850E+01 4.00625E+00 0.00000E+00
 -1      2055 1.04554E+02 3.09687E+00 0.00000E+00
 -1      2056 1.03054E+02 3.09687E+00 0.00000E+00
 -1      2057 1.02885E+02 4.00625E+00 0.00000E+00
 -1      2058 1.07554E+02 3.09687E+00 0.00000E+00
 -1      2059 1.06054E+02 3.09687E+00 0.00000E+00
 -1      2060 1.05885E+02 4.00625E+00 0.00000E+00
 -1      2061 1.10554E+02 3.09687E+00 0.00000E+00
 -1      2062 1.09054E+02 3.09687E+00 0.00000E+00
 -1      2063 1.08885E+02 4.00625E+00 0.00000E+00
 -1      2064 1.13554E+02 3.09687E+00 0.00000E+00
 -1      2065 1.12054E+02 3.09687E+00 0.00000E+00
 -1      2066 1.11885E+02 4.00625E+00 0.00000E+00
 -1      2067 1.16554E+02 3.09687E+00 0.00000E+00
 -1      2068 1.15054E+02 3.09687E+00 0.00000E+00
 -1      2069 1.14885E+02 4.00625E+00 0.00000E+00
 -1      2070 1.19554E+02 3.09687E+00 0.00000E+00
 -1      2071 1.18054E+02 3.09687E+00 0.00000E+00
 -1      2072 1.17885E+02 4.00625E+00 0.00000E+00
 -1      2073 1.22554E+02 3.09687E+00 0.00000E+00
 -1      2074 1.21054E+02 3.09687E+00 0.00000E+00
 -1      2075 1.20885E+02 4.00625E+00 0.00000E+00
 -1      2076 1.25554E+02 3.09687E+00 0.00000E+00
 -1      2077 1.24054E+02 3.09687E+00 0.00000E+00
 -1      2078 1.23885E+02 4.00625E+00 0.00000E+00
 -1      2079 1.28555E+02 3.09687E+00 0.00000E+00
 -1      2080 1.27054E+02 3.09687E+00 0.00000E+00
 -1      2081 1.26885E+02 4.00625E+00 0.00000E+00
 -1      2082 1.31555E+02 3.09687E+00 0.00000E+00
 -1      2083 1.30055E+02 3.09687E+00 0.00000E+00
 -1      2084 1.29885E+02 4.00625E+00 0.00000E+00
 -1      2085 1.34555E+02 3.09687E+00 0.00000E+00
 -1      2086 1.33055E+02 3.09687E+00 0.00000E+00
 -1      2087 1.32885E+02 4.00625E+00 0.00000E+00
 -1      2088 1.37555E+02 3.09687E+00 0.00000E+00
 -1      2089 1.36055E+02 3.09687E+00 0.00000E+00
 -1      2090 1.35885E+02 4.00625E+00 0.00000E+00
 -1      2091 1.40555E+02 3.09687E+00 0.00000E+00
 -1      2092 1.39055E+02 3.09687E+00 0.00000E+00
 -1      2093 1.38885E+02 4.00625E+00 0.00000E+00
 -1      2094 1.43555E+02 3.09687E+00 0.00000E+00
 -1      2095 1.42055E+02 3.09687E+00 0.00000E+00
 -1      2096 1.41885E+02 4.00625E+00 0.00000E+00
 -1      2097 1.46059E+02 3.20156E+00 0.00000E+00
 -1      2098 1.44559E+02 3.20156E+00 0.00000E+00
 -1      2099 1.44389E+02 4.11094E+00 0.00000E+00
 -1      2100 1.46398E+02 4.32031E+00 0.00000E+00
 -1      2101 1.46103E+02 1.25375E+01 0.00000E+00
 -1      2102 1.46103E+02 1.10625E+01 0.00000E+00
 -1      2103 1.46103E+02 9.58750E+00 0.00000E+00
 -1      2104 1.46103E+02 8.11250E+00 0.00000E+00
 -1      2105 1.44804E+02 1.03250E+01 0.00000E+00
 -1      2106 1.46250E+02 6.95391E+00 0.00000E+00
 -1      2107 1.46250E+02 5.47891E+00 0.00000E+00
 -1      2108 1.45246E+02 5.37422E+00 0.00000E+00
 -1      2109 1.44951E+02 7.69141E+00 0.00000E+00
 -1      2110 1.46103E+02 1.54375E+01 0.00000E+00
 -1      2111 1.46103E+02 1.39875E+01 0.00000E+00
 -1      2112 1.44804E+02 1.32500E+01 0.00000E+00
 -1      2113 1.46103E+02 1.83875E+01 0.00000E+00
 -1      2114 1.46103E+02 1.69125E+01 0.00000E+00
 -1      2115 1.44804E+02 1.61750E+01 0.00000E+00
 -1      2116 1.46103E+02 2.13375E+01 0.00000E+00
 -1      2117 1.46103E+02 1.98625E+01 0.00000E+00
 -1      2118 1.44804E+02 1.91250E+01 0.00000E+00
 -1      2119 1.46103E+02 2.42875E+01 0.00000E+00
 -1      2120 1.46103E+02 2.28125E+01 0.00000E+00
 -1      2121 1.44804E+02 2.20750E+01 0.00000E+00
 -1      2122 1.46103E+02 2.72375E+01 0.00000E+00
 -1      2123 1.46103E+02 2.57625E+01 0.00000E+00
 -1      2124 1.44804E+02 2.50250E+01 0.00000E+00
 -1      2125 1.46103E+02 3.01875E+01 0.00000E+00
 -1      2126 1.46103E+02 2.87125E+01 0.00000E+00
 -1      2127 1.44804E+02 2.79750E+01 0.00000E+00
 -1      2128 1.46103E+02 3.30875E+01 0.00000E+00
 -1      2129 1.46103E+02 3.16375E+01 0.00000E+00
 -1      2130 1.44804E+02 3.09000E+01 0.00000E+00
 -1      2131 1.46103E+02 3.60375E+01 0.00000E+00
 -1      2132 1.46103E+02 3.45625E+01 0.00000E+00
 -1      2133 1.44804E+02 3.38250E+01 0.00000E+00
 -1      2134 1.46103E+02 3.89875E+01 0.00000E+00
 -1      2135 1.46103E+02 3.75125E+01 0.00000E+00
 -1      2136 1.44804E+02 3.67750E+01 0.00000E+00
 -1      2137 1.46103E+02 4.19375E+01 0.00000E+00
 -1      2138 1.46103E+02 4.04625E+01 0.00000E+00
 -1      2139 1.44804E+02 3.97250E+01 0.00000E+00
 -1      2140 4.60487E+01 1.75760E+01 0.00000E+00
 -1      2141 4.64695E+01 1.83271E+01 0.00000E+00
 -1      2142 4.68629E+01 2.12383E+01 0.00000E+00
 -1      2143 4.68955E+01 2.21435E+01 0.00000E+00
 -1      2144 4.66974E+01 1.94405E+01 0.00000E+00
 -1      2145 4.67945E+01 2.03046E+01 0.00000E+00
 -1      2146 4.50515E+01 1.61875E+01 0.00000E+00
 -1      2147 4.55501E+01 1.68817E+01 0.00000E+00
 -1      2148 4.64355E+01 1.68791E+01 0.00000E+00
 -1      2149 4.36182E+01 1.48370E+01 0.00000E+00
 -1      2150 4.42776E+01 1.53854E+01 0.00000E+00
 -1      2151 3.89700E+00 3.74688E+01 0.00000E+00
 -1      2152 3.89700E+00 3.89437E+01 0.00000E+00
 -1      2153 5.19600E+00 3.96813E+01 0.00000E+00
 -1      2154 5.19600E+00 3.67438E+01 0.00000E+00
 -1      2155 4.03184E+01 1.31044E+01 0.00000E+00
 -1      2156 4.11604E+01 1.32994E+01 0.00000E+00
 -1      2157 3.85730E+01 1.28374E+01 0.00000E+00
 -1      2158 3.94198E+01 1.29718E+01 0.00000E+00
 -1      2159 3.66517E+01 1.27712E+01 0.00000E+00
 -1      2160 3.75317E+01 1.26840E+01 0.00000E+00
 -1      2161 3.48372E+01 1.34395E+01 0.00000E+00
 -1      2162 3.56518E+01 1.31321E+01 0.00000E+00
 -1      2163 3.31786E+01 1.42630E+01 0.00000E+00
 -1      2164 3.39338E+01 1.38232E+01 0.00000E+00
 -1      2165 3.15718E+01 1.53228E+01 0.00000E+00
 -1      2166 3.23065E+01 1.47528E+01 0.00000E+00
 -1      2167 3.03473E+01 1.70949E+01 0.00000E+00
 -1      2168 3.08095E+01 1.62721E+01 0.00000E+00
 -1      2169 2.96698E+01 1.88198E+01 0.00000E+00
 -1      2170 2.99921E+01 1.80214E+01 0.00000E+00
 -1      2171 2.92614E+01 2.06048E+01 0.00000E+00
 -1      2172 2.94007E+01 1.97714E+01 0.00000E+00
 -1      2173 2.91946E+01 2.24645E+01 0.00000E+00
 -1      2174 2.91592E+01 2.15925E+01 0.00000E+00
 -1      2175 2.93112E+01 2.43486E+01 0.00000E+00
 -1      2176 2.91933E+01 2.34303E+01 0.00000E+00
 -1      2177 3.03454E+01 2.62392E+01 0.00000E+00
 -1      2178 2.98427E+01 2.54517E+01 0.00000E+00
 -1      2179 3.13986E+01 2.78100E+01 0.00000E+00
 -1      2180 3.08424E+01 2.70915E+01 0.00000E+00
 -1      2181 3.29846E+01 2.90429E+01 0.00000E+00
 -1      2182 3.22391E+01 2.85750E+01 0.00000E+00
 -1      2183 3.45265E+01 3.00232E+01 0.00000E+00
 -1      2184 3.37555E+01 2.95331E+01 0.00000E+00
 -1      2185 3.29937E+01 2.99190E+01 0.00000E+00
 -1      2186 3.65567E+01 3.06682E+01 0.00000E+00
 -1      2187 3.56369E+01 3.05478E+01 0.00000E+00
 -1      2188 3.84881E+01 3.04547E+01 0.00000E+00
 -1      2189 3.76043E+01 3.05018E+01 0.00000E+00
 -1      2190 4.03961E+01 3.03117E+01 0.00000E+00
 -1      2191 3.94637E+01 3.04430E+01 0.00000E+00
 -1      2192 4.23665E+01 2.94624E+01 0.00000E+00
 -1      2193 4.15603E+01 2.99444E+01 0.00000E+00
 -1      2194 4.38561E+01 2.82493E+01 0.00000E+00
 -1      2195 4.31554E+01 2.88130E+01 0.00000E+00
 -1      2196 4.51971E+01 2.68763E+01 0.00000E+00
 -1      2197 4.45611E+01 2.75434E+01 0.00000E+00
 -1      2198 4.62150E+01 2.50669E+01 0.00000E+00
 -1      2199 4.58924E+01 2.59245E+01 0.00000E+00
 -1      2200 4.67878E+01 2.33059E+01 0.00000E+00
 -1      2201 4.65014E+01 2.41864E+01 0.00000E+00
 -1      2202 4.70251E+01 2.48729E+01 0.00000E+00
 -1      2203 4.21966E+01 1.38129E+01 0.00000E+00
 -1      2204 4.29074E+01 1.43249E+01 0.00000E+00
 -1      2205 4.36783E+01 1.40686E+01 0.00000E+00
 -1      2206 4.51630E+01 1.53828E+01 0.00000E+00
 -1      2207 6.42300E+00 4.57510E+01 0.00000E+00
 -1      2208 4.16660E+01 1.22734E+01 0.00000E+00
 -1      2209 4.19313E+01 1.30432E+01 0.00000E+00
 -1      2210 4.27022E+01 1.27869E+01 0.00000E+00
 -1      2211 7.17300E+00 4.44520E+01 0.00000E+00
 -1      2212 4.71621E+01 1.86868E+01 0.00000E+00
 -1      2213 4.74585E+01 2.07339E+01 0.00000E+00
 -1      2214 1.45665E+02 4.31193E+01 0.00000E+00
 -1      2215 4.74192E+01 2.28300E+01 0.00000E+00
 -1      2216 4.60434E+01 2.67053E+01 0.00000E+00
 -1      2217 4.61945E+01 2.74860E+01 0.00000E+00
 -1      2218 4.68898E+01 2.65342E+01 0.00000E+00
 -1      2219 4.46432E+01 2.83629E+01 0.00000E+00
 -1      2220 4.31494E+01 2.97181E+01 0.00000E+00
 -1      2221 4.11962E+01 3.07348E+01 0.00000E+00
 -1      2222 3.90563E+01 3.11137E+01 0.00000E+00
 -1      2223 3.48751E+01 3.09337E+01 0.00000E+00
 -1      2224 3.13823E+01 2.86638E+01 0.00000E+00
 -1      2225 3.00448E+01 2.70464E+01 0.00000E+00
 -1      2226 2.90163E+01 2.50911E+01 0.00000E+00
 -1      2227 2.81898E+01 2.47305E+01 0.00000E+00
 -1      2228 2.87214E+01 2.58336E+01 0.00000E+00
 -1      2229 2.84861E+01 2.30223E+01 0.00000E+00
 -1      2230 2.85896E+01 2.10689E+01 0.00000E+00
 -1      2231 2.89609E+01 1.91296E+01 0.00000E+00
 -1      2232 2.95851E+01 1.72515E+01 0.00000E+00
 -1      2233 3.07026E+01 1.53758E+01 0.00000E+00
 -1      2234 3.23369E+01 1.39367E+01 0.00000E+00
 -1      2235 3.41123E+01 1.30632E+01 0.00000E+00
 -1      2236 3.60155E+01 1.23185E+01 0.00000E+00
 -1      2237 3.99966E+01 1.23971E+01 0.00000E+00
 -1      2238 3.80567E+01 1.21110E+01 0.00000E+00
 -1      2239 3.70331E+01 3.12919E+01 0.00000E+00
 -1      2240 1.07850E+01 5.30525E+00 0.00000E+00
 -1      2241 9.28500E+00 5.30525E+00 0.00000E+00
 -1      2242 6.49500E+00 3.01125E+01 0.00000E+00
 -1      2243 6.49500E+00 3.15875E+01 0.00000E+00
 -1      2244 6.49500E+00 3.30625E+01 0.00000E+00
 -1      2245 6.49500E+00 3.45375E+01 0.00000E+00
 -1      2246 7.79400E+00 3.23250E+01 0.00000E+00
 -1      2247 6.49500E+00 2.42125E+01 0.00000E+00
 -1      2248 6.49500E+00 2.56875E+01 0.00000E+00
 -1      2249 6.49500E+00 2.12625E+01 0.00000E+00
 -1      2250 6.49500E+00 2.27375E+01 0.00000E+00
 -1      2251 7.79400E+00 2.34750E+01 0.00000E+00
 -1      2252 6.49500E+00 1.83625E+01 0.00000E+00
 -1      2253 6.49500E+00 1.98125E+01 0.00000E+00
 -1      2254 7.79400E+00 2.05500E+01 0.00000E+00
 -1      2255 6.49500E+00 1.54125E+01 0.00000E+00
 -1      2256 6.49500E+00 1.68875E+01 0.00000E+00
 -1      2257 7.79400E+00 1.76250E+01 0.00000E+00
 -1      2258 6.49500E+00 1.24625E+01 0.00000E+00
 -1      2259 6.49500E+00 1.39375E+01 0.00000E+00
 -1      2260 7.79400E+00 1.46750E+01 0.00000E+00
 -1      2261 6.49500E+00 9.51250E+00 0.00000E+00
 -1      2262 6.49500E+00 1.09875E+01 0.00000E+00
 -1      2263 7.79400E+00 1.17250E+01 0.00000E+00
 -1      2264 1.37850E+01 5.30525E+00 0.00000E+00
 -1      2265 1.22850E+01 5.30525E+00 0.00000E+00
 -1      2266 1.15350E+01 6.60425E+00 0.00000E+00
 -1      2267 9.90000E+00 4.35050E+01 0.00000E+00
 -1      2268 1.14000E+01 4.35050E+01 0.00000E+00
 -1      2269 1.29000E+01 4.35050E+01 0.00000E+00
 -1      2270 1.44000E+01 4.35050E+01 0.00000E+00
 -1      2271 1.21500E+01 4.22060E+01 0.00000E+00
 -1      2272 1.59000E+01 4.35050E+01 0.00000E+00
 -1      2273 1.74000E+01 4.35050E+01 0.00000E+00
 -1      2274 1.51500E+01 4.22060E+01 0.00000E+00
 -1      2275 1.89000E+01 4.35050E+01 0.00000E+00
 -1      2276 2.04000E+01 4.35050E+01 0.00000E+00
 -1      2277 1.81500E+01 4.22060E+01 0.00000E+00
 -1      2278 2.19000E+01 4.35050E+01 0.00000E+00
 -1      2279 2.34000E+01 4.35050E+01 0.00000E+00
 -1      2280 2.11500E+01 4.22060E+01 0.00000E+00
 -1      2281 2.49000E+01 4.35050E+01 0.00000E+00
 -1      2282 2.64000E+01 4.35050E+01 0.00000E+00
 -1      2283 2.41500E+01 4.22060E+01 0.00000E+00
 -1      2284 2.79000E+01 4.35050E+01 0.00000E+00
 -1      2285 2.94000E+01 4.35050E+01 0.00000E+00
 -1      2286 2.71500E+01 4.22060E+01 0.00000E+00
 -1      2287 3.09000E+01 4.35050E+01 0.00000E+00
 -1      2288 3.24000E+01 4.35050E+01 0.00000E+00
 -1      2289 3.01500E+01 4.22060E+01 0.00000E+00
 -1      2290 3.39000E+01 4.35050E+01 0.00000E+00
 -1      2291 3.54000E+01 4.35050E+01 0.00000E+00
 -1      2292 3.31500E+01 4.22060E+01 0.00000E+00
 -1      2293 3.69000E+01 4.35050E+01 0.00000E+00
 -1      2294 3.84000E+01 4.35050E+01 0.00000E+00
 -1      2295 3.61500E+01 4.22060E+01 0.00000E+00
 -1      2296 3.99000E+01 4.35050E+01 0.00000E+00
 -1      2297 4.14000E+01 4.35050E+01 0.00000E+00
 -1      2298 3.91500E+01 4.22060E+01 0.00000E+00
 -1      2299 4.29000E+01 4.35050E+01 0.00000E+00
 -1      2300 4.44000E+01 4.35050E+01 0.00000E+00
 -1      2301 4.21500E+01 4.22060E+01 0.00000E+00
 -1      2302 4.59000E+01 4.35050E+01 0.00000E+00
 -1      2303 4.74000E+01 4.35050E+01 0.00000E+00
 -1      2304 4.51500E+01 4.22060E+01 0.00000E+00
 -1      2305 4.89000E+01 4.35050E+01 0.00000E+00
 -1      2306 5.04000E+01 4.35050E+01 0.00000E+00
 -1      2307 4.81500E+01 4.22060E+01 0.00000E+00
 -1      2308 5.19000E+01 4.35050E+01 0.00000E+00
 -1      2309 5.34000E+01 4.35050E+01 0.00000E+00
 -1      2310 5.11500E+01 4.22060E+01 0.00000E+00
 -1      2311 5.49000E+01 4.35050E+01 0.00000E+00
 -1      2312 5.64000E+01 4.35050E+01 0.00000E+00
 -1      2313 5.41500E+01 4.22060E+01 0.00000E+00
 -1      2314 5.79000E+01 4.35050E+01 0.00000E+00
 -1      2315 5.94000E+01 4.35050E+01 0.00000E+00
 -1      2316 5.71500E+01 4.22060E+01 0.00000E+00
 -1      2317 6.09000E+01 4.35050E+01 0.00000E+00
 -1      2318 6.24000E+01 4.35050E+01 0.00000E+00
 -1      2319 6.01500E+01 4.22060E+01 0.00000E+00
 -1      2320 6.39000E+01 4.35050E+01 0.00000E+00
 -1      2321 6.54000E+01 4.35050E+01 0.00000E+00
 -1      2322 6.31500E+01 4.22060E+01 0.00000E+00
 -1      2323 6.69000E+01 4.35050E+01 0.00000E+00
 -1      2324 6.84000E+01 4.35050E+01 0.00000E+00
 -1      2325 6.61500E+01 4.22060E+01 0.00000E+00
 -1      2326 6.99000E+01 4.35050E+01 0.00000E+00
 -1      2327 7.14000E+01 4.35050E+01 0.00000E+00
 -1      2328 6.91500E+01 4.22060E+01 0.00000E+00
 -1      2329 7.29000E+01 4.35050E+01 0.00000E+00
 -1      2330 7.44000E+01 4.35050E+01 0.00000E+00
 -1      2331 7.21500E+01 4.22060E+01 0.00000E+00
 -1      2332 7.59000E+01 4.35050E+01 0.00000E+00
 -1      2333 7.74000E+01 4.35050E+01 0.00000E+00
 -1      2334 7.51500E+01 4.22060E+01 0.00000E+00
 -1      2335 7.89000E+01 4.35050E+01 0.00000E+00
 -1      2336 8.04000E+01 4.35050E+01 0.00000E+00
 -1      2337 7.81500E+01 4.22060E+01 0.00000E+00
 -1      2338 8.19000E+01 4.35050E+01 0.00000E+00
 -1      2339 8.34000E+01 4.35050E+01 0.00000E+00
 -1      2340 8.11500E+01 4.22060E+01 0.00000E+00
 -1      2341 8.49000E+01 4.35050E+01 0.00000E+00
 -1      2342 8.64000E+01 4.35050E+01 0.00000E+00
 -1      2343 8.41500E+01 4.22060E+01 0.00000E+00
 -1      2344 8.79000E+01 4.35050E+01 0.00000E+00
 -1      2345 8.94000E+01 4.35050E+01 0.00000E+00
 -1      2346 8.71500E+01 4.22060E+01 0.00000E+00
 -1      2347 9.09000E+01 4.35050E+01 0.00000E+00
 -1      2348 9.24000E+01 4.35050E+01 0.00000E+00
 -1      2349 9.01500E+01 4.22060E+01 0.00000E+00
 -1      2350 9.39000E+01 4.35050E+01 0.00000E+00
 -1      2351 9.54000E+01 4.35050E+01 0.00000E+00
 -1      2352 9.31500E+01 4.22060E+01 0.00000E+00
 -1      2353 9.69000E+01 4.35050E+01 0.00000E+00
 -1      2354 9.84000E+01 4.35050E+01 0.00000E+00
 -1      2355 9.61500E+01 4.22060E+01 0.00000E+00
 -1      2356 9.99000E+01 4.35050E+01 0.00000E+00
 -1      2357 1.01400E+02 4.35050E+01 0.00000E+00
 -1      2358 9.91500E+01 4.22060E+01 0.00000E+00
 -1      2359 1.02900E+02 4.35050E+01 0.00000E+00
 -1      2360 1.04400E+02 4.35050E+01 0.00000E+00
 -1      2361 1.02150E+02 4.22060E+01 0.00000E+00
 -1      2362 1.05900E+02 4.35050E+01 0.00000E+00
 -1      2363 1.07400E+02 4.35050E+01 0.00000E+00
 -1      2364 1.05150E+02 4.22060E+01 0.00000E+00
 -1      2365 1.08900E+02 4.35050E+01 0.00000E+00
 -1      2366 1.10400E+02 4.35050E+01 0.00000E+00
 -1      2367 1.08150E+02 4.22060E+01 0.00000E+00
 -1      2368 1.11900E+02 4.35050E+01 0.00000E+00
 -1      2369 1.13400E+02 4.35050E+01 0.00000E+00
 -1      2370 1.11150E+02 4.22060E+01 0.00000E+00
 -1      2371 1.14900E+02 4.35050E+01 0.00000E+00
 -1      2372 1.16400E+02 4.35050E+01 0.00000E+00
 -1      2373 1.14150E+02 4.22060E+01 0.00000E+00
 -1      2374 1.17900E+02 4.35050E+01 0.00000E+00
 -1      2375 1.19400E+02 4.35050E+01 0.00000E+00
 -1      2376 1.17150E+02 4.22060E+01 0.00000E+00
 -1      2377 1.20900E+02 4.35050E+01 0.00000E+00
 -1      2378 1.22400E+02 4.35050E+01 0.00000E+00
 -1      2379 1.20150E+02 4.22060E+01 0.00000E+00
 -1      2380 1.23900E+02 4.35050E+01 0.00000E+00
 -1      2381 1.25400E+02 4.35050E+01 0.00000E+00
 -1      2382 1.23150E+02 4.22060E+01 0.00000E+00
 -1      2383 1.26900E+02 4.35050E+01 0.00000E+00
 -1      2384 1.28400E+02 4.35050E+01 0.00000E+00
 -1      2385 1.26150E+02 4.22060E+01 0.00000E+00
 -1      2386 1.29900E+02 4.35050E+01 0.00000E+00
 -1      2387 1.31400E+02 4.35050E+01 0.00000E+00
 -1      2388 1.29150E+02 4.22060E+01 0.00000E+00
 -1      2389 1.32900E+02 4.35050E+01 0.00000E+00
 -1      2390 1.34400E+02 4.35050E+01 0.00000E+00
 -1      2391 1.32150E+02 4.22060E+01 0.00000E+00
 -1      2392 1.35900E+02 4.35050E+01 0.00000E+00
 -1      2393 1.37400E+02 4.35050E+01 0.00000E+00
 -1      2394 1.35150E+02 4.22060E+01 0.00000E+00
 -1      2395 1.38900E+02 4.35050E+01 0.00000E+00
 -1      2396 1.40400E+02 4.35050E+01 0.00000E+00
 -1      2397 1.38150E+02 4.22060E+01 0.00000E+00
 -1      2398 1.97850E+01 5.30525E+00 0.00000E+00
 -1      2399 1.82850E+01 5.30525E+00 0.00000E+00
 -1      2400 2.27850E+01 5.30525E+00 0.00000E+00
 -1      2401 2.12850E+01 5.30525E+00 0.00000E+00
 -1      2402 2.05350E+01 6.60425E+00 0.00000E+00
 -1      2403 2.57850E+01 5.30525E+00 0.00000E+00
 -1      2404 2.42850E+01 5.30525E+00 0.00000E+00
 -1      2405 2.35350E+01 6.60425E+00 0.00000E+00
 -1      2406 2.87850E+01 5.30525E+00 0.00000E+00
 -1      2407 2.72850E+01 5.30525E+00 0.00000E+00
 -1      2408 2.65350E+01 6.60425E+00 0.00000E+00
 -1      2409 3.17850E+01 5.30525E+00 0.00000E+00
 -1      2410 3.02850E+01 5.30525E+00 0.00000E+00
 -1      2411 2.95350E+01 6.60425E+00 0.00000E+00
 -1      2412 3.47850E+01 5.30525E+00 0.00000E+00
 -1      2413 3.32850E+01 5.30525E+00 0.00000E+00
 -1      2414 3.25350E+01 6.60425E+00 0.00000E+00
 -1      2415 3.77850E+01 5.30525E+00 0.00000E+00
 -1      2416 3.62850E+01 5.30525E+00 0.00000E+00
 -1      2417 3.55350E+01 6.60425E+00 0.00000E+00
 -1      2418 4.06350E+01 5.30525E+00 0.00000E+00
 -1      2419 3.92100E+01 5.30525E+00 0.00000E+00
 -1      2420 3.84600E+01 6.60425E+00 0.00000E+00
 -1      2421 4.36350E+01 5.30525E+00 0.00000E+00
 -1      2422 4.21350E+01 5.30525E+00 0.00000E+00
 -1      2423 4.13850E+01 6.60425E+00 0.00000E+00
 -1      2424 4.66350E+01 5.30525E+00 0.00000E+00
 -1      2425 4.51350E+01 5.30525E+00 0.00000E+00
 -1      2426 4.43850E+01 6.60425E+00 0.00000E+00
 -1      2427 4.96350E+01 5.30525E+00 0.00000E+00
 -1      2428 4.81350E+01 5.30525E+00 0.00000E+00
 -1      2429 4.73850E+01 6.60425E+00 0.00000E+00
 -1      2430 5.26350E+01 5.30525E+00 0.00000E+00
 -1      2431 5.11350E+01 5.30525E+00 0.00000E+00
 -1      2432 5.03850E+01 6.60425E+00 0.00000E+00
 -1      2433 5.56350E+01 5.30525E+00 0.00000E+00
 -1      2434 5.41350E+01 5.30525E+00 0.00000E+00
 -1      2435 5.33850E+01 6.60425E+00 0.00000E+00
 -1      2436 5.86350E+01 5.30525E+00 0.00000E+00
 -1      2437 5.71350E+01 5.30525E+00 0.00000E+00
 -1      2438 5.63850E+01 6.60425E+00 0.00000E+00
 -1      2439 6.16350E+01 5.30525E+00 0.00000E+00
 -1      2440 6.01350E+01 5.30525E+00 0.00000E+00
 -1      2441 5.93850E+01 6.60425E+00 0.00000E+00
 -1      2442 6.46350E+01 5.30525E+00 0.00000E+00
 -1      2443 6.31350E+01 5.30525E+00 0.00000E+00
 -1      2444 6.23850E+01 6.60425E+00 0.00000E+00
 -1      2445 6.76350E+01 5.30525E+00 0.00000E+00
 -1      2446 6.61350E+01 5.30525E+00 0.00000E+00
 -1      2447 6.53850E+01 6.60425E+00 0.00000E+00
 -1      2448 7.06350E+01 5.30525E+00 0.00000E+00
 -1      2449 6.91350E+01 5.30525E+00 0.00000E+00
 -1      2450 6.83850E+01 6.60425E+00 0.00000E+00
 -1      2451 7.36350E+01 5.30525E+00 0.00000E+00
 -1      2452 7.21350E+01 5.30525E+00 0.00000E+00
 -1      2453 7.13850E+01 6.60425E+00 0.00000E+00
 -1      2454 7.66350E+01 5.30525E+00 0.00000E+00
 -1      2455 7.51350E+01 5.30525E+00 0.00000E+00
 -1      2456 7.43850E+01 6.60425E+00 0.00000E+00
 -1      2457 7.96350E+01 5.30525E+00 0.00000E+00
 -1      2458 7.81350E+01 5.30525E+00 0.00000E+00
 -1      2459 7.73850E+01 6.60425E+00 0.00000E+00
 -1      2460 8.26350E+01 5.30525E+00 0.00000E+00
 -1      2461 8.11350E+01 5.30525E+00 0.00000E+00
 -1      2462 8.03850E+01 6.60425E+00 0.00000E+00
 -1      2463 8.56350E+01 5.30525E+00 0.00000E+00
 -1      2464 8.41350E+01 5.30525E+00 0.00000E+00
 -1      2465 8.33850E+01 6.60425E+00 0.00000E+00
 -1      2466 8.86350E+01 5.30525E+00 0.00000E+00
 -1      2467 8.71350E+01 5.30525E+00 0.00000E+00
 -1      2468 8.63850E+01 6.60425E+00 0.00000E+00
 -1      2469 9.16350E+01 5.30525E+00 0.00000E+00
 -1      2470 9.01350E+01 5.30525E+00 0.00000E+00
 -1      2471 8.93850E+01 6.60425E+00 0.00000E+00
 -1      2472 9.46350E+01 5.30525E+00 0.00000E+00
 -1      2473 9.31350E+01 5.30525E+00 0.00000E+00
 -1      2474 9.23850E+01 6.60425E+00 0.00000E+00
 -1      2475 9.76350E+01 5.30525E+00 0.00000E+00
 -1      2476 9.61350E+01 5.30525E+00 0.00000E+00
 -1      2477 9.53850E+01 6.60425E+00 0.00000E+00
 -1      2478 1.00635E+02 5.30525E+00 0.00000E+00
 -1      2479 9.91350E+01 5.30525E+00 0.00000E+00
 -1      2480 9.83850E+01 6.60425E+00 0.00000E+00
 -1      2481 1.03635E+02 5.30525E+00 0.00000E+00
 -1      2482 1.02135E+02 5.30525E+00 0.00000E+00
 -1      2483 1.01385E+02 6.60425E+00 0.00000E+00
 -1      2484 1.06635E+02 5.30525E+00 0.00000E+00
 -1      2485 1.05135E+02 5.30525E+00 0.00000E+00
 -1      2486 1.04385E+02 6.60425E+00 0.00000E+00
 -1      2487 1.09635E+02 5.30525E+00 0.00000E+00
 -1      2488 1.08135E+02 5.30525E+00 0.00000E+00
 -1      2489 1.07385E+02 6.60425E+00 0.00000E+00
 -1      2490 1.12635E+02 5.30525E+00 0.00000E+00
 -1      2491 1.11135E+02 5.30525E+00 0.00000E+00
 -1      2492 1.10385E+02 6.60425E+00 0.00000E+00
 -1      2493 1.15635E+02 5.30525E+00 0.00000E+00
 -1      2494 1.14135E+02 5.30525E+00 0.00000E+00
 -1      2495 1.13385E+02 6.60425E+00 0.00000E+00
 -1      2496 1.18635E+02 5.30525E+00 0.00000E+00
 -1      2497 1.17135E+02 5.30525E+00 0.00000E+00
 -1      2498 1.16385E+02 6.60425E+00 0.00000E+00
 -1      2499 1.21635E+02 5.30525E+00 0.00000E+00
 -1      2500 1.20135E+02 5.30525E+00 0.00000E+00
 -1      2501 1.19385E+02 6.60425E+00 0.00000E+00
 -1      2502 1.24635E+02 5.30525E+00 0.00000E+00
 -1      2503 1.23135E+02 5.30525E+00 0.00000E+00
 -1      2504 1.22385E+02 6.60425E+00 0.00000E+00
 -1      2505 1.27635E+02 5.30525E+00 0.00000E+00
 -1      2506 1.26135E+02 5.30525E+00 0.00000E+00
 -1      2507 1.25385E+02 6.60425E+00 0.00000E+00
 -1      2508 1.30635E+02 5.30525E+00 0.00000E+00
 -1      2509 1.29135E+02 5.30525E+00 0.00000E+00
 -1      2510 1.28385E+02 6.60425E+00 0.00000E+00
 -1      2511 1.33635E+02 5.30525E+00 0.00000E+00
 -1      2512 1.32135E+02 5.30525E+00 0.00000E+00
 -1      2513 1.31385E+02 6.60425E+00 0.00000E+00
 -1      2514 1.36635E+02 5.30525E+00 0.00000E+00
 -1      2515 1.35135E+02 5.30525E+00 0.00000E+00
 -1      2516 1.34385E+02 6.60425E+00 0.00000E+00
 -1      2517 1.39635E+02 5.30525E+00 0.00000E+00
 -1      2518 1.38135E+02 5.30525E+00 0.00000E+00
 -1      2519 1.37385E+02 6.60425E+00 0.00000E+00
 -1      2520 1.42635E+02 5.30525E+00 0.00000E+00
 -1      2521 1.41135E+02 5.30525E+00 0.00000E+00
 -1      2522 1.40385E+02 6.60425E+00 0.00000E+00
 -1      2523 1.44242E+02 5.26953E+00 0.00000E+00
 -1      2524 1.43505E+02 1.69125E+01 0.00000E+00
 -1      2525 1.43505E+02 1.54375E+01 0.00000E+00
 -1      2526 1.43505E+02 1.98625E+01 0.00000E+00
 -1      2527 1.43505E+02 1.83875E+01 0.00000E+00
 -1      2528 1.42206E+02 1.76500E+01 0.00000E+00
 -1      2529 1.43505E+02 1.10625E+01 0.00000E+00
 -1      2530 1.43505E+02 9.58750E+00 0.00000E+00
 -1      2531 1.43505E+02 1.39750E+01 0.00000E+00
 -1      2532 1.43505E+02 1.25250E+01 0.00000E+00
 -1      2533 1.42206E+02 1.17875E+01 0.00000E+00
 -1      2534 1.42206E+02 1.47125E+01 0.00000E+00
 -1      2535 1.43505E+02 2.28125E+01 0.00000E+00
 -1      2536 1.43505E+02 2.13375E+01 0.00000E+00
 -1      2537 1.42206E+02 2.06000E+01 0.00000E+00
 -1      2538 1.43505E+02 2.57625E+01 0.00000E+00
 -1      2539 1.43505E+02 2.42875E+01 0.00000E+00
 -1      2540 1.42206E+02 2.35500E+01 0.00000E+00
 -1      2541 1.43505E+02 2.87125E+01 0.00000E+00
 -1      2542 1.43505E+02 2.72375E+01 0.00000E+00
 -1      2543 1.42206E+02 2.65000E+01 0.00000E+00
 -1      2544 1.43505E+02 3.16125E+01 0.00000E+00
 -1      2545 1.43505E+02 3.01625E+01 0.00000E+00
 -1      2546 1.42206E+02 2.94250E+01 0.00000E+00
 -1      2547 1.43505E+02 3.45625E+01 0.00000E+00
 -1      2548 1.43505E+02 3.30875E+01 0.00000E+00
 -1      2549 1.42206E+02 3.23500E+01 0.00000E+00
 -1      2550 1.43505E+02 3.75125E+01 0.00000E+00
 -1      2551 1.43505E+02 3.60375E+01 0.00000E+00
 -1      2552 1.42206E+02 3.53000E+01 0.00000E+00
 -1      2553 1.43505E+02 4.04625E+01 0.00000E+00
 -1      2554 1.43505E+02 3.89875E+01 0.00000E+00
 -1      2555 1.42206E+02 3.82500E+01 0.00000E+00
 -1      2556 4.81541E+01 2.02135E+01 0.00000E+00
 -1      2557 4.82226E+01 2.11472E+01 0.00000E+00
 -1      2558 4.78472E+01 1.79665E+01 0.00000E+00
 -1      2559 4.80751E+01 1.90799E+01 0.00000E+00
 -1      2560 4.83270E+01 2.23279E+01 0.00000E+00
 -1      2561 4.82193E+01 2.34903E+01 0.00000E+00
 -1      2562 1.67850E+01 5.30525E+00 0.00000E+00
 -1      2563 1.52850E+01 5.30525E+00 0.00000E+00
 -1      2564 1.75350E+01 6.60425E+00 0.00000E+00
 -1      2565 1.44321E+02 4.30606E+01 0.00000E+00
 -1      2566 4.68828E+01 1.60317E+01 0.00000E+00
 -1      2567 4.73814E+01 1.67260E+01 0.00000E+00
 -1      2568 4.53931E+01 1.43863E+01 0.00000E+00
 -1      2569 4.61671E+01 1.51883E+01 0.00000E+00
 -1      2570 4.37507E+01 1.32188E+01 0.00000E+00
 -1      2571 4.44615E+01 1.37308E+01 0.00000E+00
 -1      2572 3.12535E+01 2.96495E+01 0.00000E+00
 -1      2573 3.04130E+01 2.88845E+01 0.00000E+00
 -1      2574 6.49500E+00 2.71625E+01 0.00000E+00
 -1      2575 6.49500E+00 2.86375E+01 0.00000E+00
 -1      2576 7.79400E+00 2.93750E+01 0.00000E+00
 -1      2577 7.79400E+00 2.64250E+01 0.00000E+00
 -1      2578 3.76489E+01 1.12688E+01 0.00000E+00
 -1      2579 3.86901E+01 1.14223E+01 0.00000E+00
 -1      2580 3.76783E+01 3.19728E+01 0.00000E+00
 -1      2581 3.66307E+01 3.21393E+01 0.00000E+00
 -1      2582 3.95887E+01 1.15549E+01 0.00000E+00
 -1      2583 4.04873E+01 1.16875E+01 0.00000E+00
 -1      2584 3.91809E+01 1.07126E+01 0.00000E+00
 -1      2585 3.52529E+01 1.17712E+01 0.00000E+00
 -1      2586 3.62527E+01 1.14102E+01 0.00000E+00
 -1      2587 3.33253E+01 1.24657E+01 0.00000E+00
 -1      2588 3.42287E+01 1.20820E+01 0.00000E+00
 -1      2589 3.14809E+01 1.34339E+01 0.00000E+00
 -1      2590 3.23530E+01 1.29441E+01 0.00000E+00
 -1      2591 2.96854E+01 1.53397E+01 0.00000E+00
 -1      2592 3.04477E+01 1.43904E+01 0.00000E+00
 -1      2593 2.86459E+01 1.74228E+01 0.00000E+00
 -1      2594 2.90011E+01 1.64963E+01 0.00000E+00
 -1      2595 2.81078E+01 1.93261E+01 0.00000E+00
 -1      2596 2.83768E+01 1.83744E+01 0.00000E+00
 -1      2597 2.77928E+01 1.76192E+01 0.00000E+00
 -1      2598 2.78522E+01 2.14917E+01 0.00000E+00
 -1      2599 2.79544E+01 2.05041E+01 0.00000E+00
 -1      2600 2.77117E+01 2.35040E+01 0.00000E+00
 -1      2601 2.77130E+01 2.25383E+01 0.00000E+00
 -1      2602 2.95887E+01 2.78835E+01 0.00000E+00
 -1      2603 2.90917E+01 2.70312E+01 0.00000E+00
 -1      2604 3.29641E+01 3.08171E+01 0.00000E+00
 -1      2605 3.21931E+01 3.03269E+01 0.00000E+00
 -1      2606 3.50819E+01 3.19335E+01 0.00000E+00
 -1      2607 3.39715E+01 3.14090E+01 0.00000E+00
 -1      2608 3.96296E+01 3.19495E+01 0.00000E+00
 -1      2609 3.86539E+01 3.19612E+01 0.00000E+00
 -1      2610 3.82515E+01 3.28086E+01 0.00000E+00
 -1      2611 4.20238E+01 3.13290E+01 0.00000E+00
 -1      2612 4.08595E+01 3.16963E+01 0.00000E+00
 -1      2613 4.40888E+01 3.00555E+01 0.00000E+00
 -1      2614 4.32999E+01 3.07049E+01 0.00000E+00
 -1      2615 4.56025E+01 2.86160E+01 0.00000E+00
 -1      2616 4.48975E+01 2.93218E+01 0.00000E+00
 -1      2617 4.81432E+01 2.47497E+01 0.00000E+00
 -1      2618 4.78568E+01 2.56302E+01 0.00000E+00
 -1      2619 6.55950E+00 4.28890E+01 0.00000E+00
 -1      2620 8.53650E+00 4.32410E+01 0.00000E+00
 -1      2621 9.28650E+00 4.19420E+01 0.00000E+00
 -1      2622 6.55950E+00 4.14140E+01 0.00000E+00
 -1      2623 8.07525E+00 5.11044E+00 0.00000E+00
 -1      2624 6.57525E+00 5.11044E+00 0.00000E+00
 -1      2625 6.40575E+00 6.01981E+00 0.00000E+00
 -1      2626 8.82525E+00 6.40944E+00 0.00000E+00
 -1      2627 3.61236E+01 1.01741E+01 0.00000E+00
 -1      2628 3.68862E+01 1.07215E+01 0.00000E+00
 -1      2629 3.75197E+01 1.00327E+01 0.00000E+00
 -1      2630 7.79400E+00 3.52687E+01 0.00000E+00
 -1      2631 6.49500E+00 3.60062E+01 0.00000E+00
 -1      2632 6.49500E+00 3.74750E+01 0.00000E+00
 -1      2633 1.45350E+01 6.60425E+00 0.00000E+00
 -1      2634 6.40575E+00 7.49481E+00 0.00000E+00
 -1      2635 4.64488E+01 2.84449E+01 0.00000E+00
 -1      2636 4.12582E+01 1.14312E+01 0.00000E+00
 -1      2637 4.20291E+01 1.11749E+01 0.00000E+00
 -1      2638 4.08504E+01 1.05890E+01 0.00000E+00
 -1      2639 4.34854E+01 1.24491E+01 0.00000E+00
 -1      2640 4.50481E+01 3.03086E+01 0.00000E+00
 -1      2641 4.04571E+01 3.25437E+01 0.00000E+00
 -1      2642 4.82944E+01 1.71191E+01 0.00000E+00
 -1      2643 3.57271E+01 3.26145E+01 0.00000E+00
 -1      2644 3.48235E+01 3.30897E+01 0.00000E+00
 -1      2645 3.63723E+01 3.32955E+01 0.00000E+00
 -1      2646 1.43492E+02 6.56853E+00 0.00000E+00
 -1      2647 1.43344E+02 7.72713E+00 0.00000E+00
 -1      2648 3.31709E+01 3.18169E+01 0.00000E+00
 -1      2649 4.90227E+01 2.18075E+01 0.00000E+00
 -1      2650 4.88393E+01 1.94932E+01 0.00000E+00
 -1      2651 2.94599E+01 2.88692E+01 0.00000E+00
 -1      2652 4.90509E+01 2.42476E+01 0.00000E+00
 -1      2653 7.70475E+00 8.23231E+00 0.00000E+00
 -1      2654 4.54655E+01 1.35364E+01 0.00000E+00
 -1      2655 4.80078E+01 2.64110E+01 0.00000E+00
 -1      2656 4.71129E+01 1.50352E+01 0.00000E+00
 -1      2657 6.55950E+00 3.99453E+01 0.00000E+00
 -1      2658 2.74168E+01 2.42465E+01 0.00000E+00
 -1      2659 2.66437E+01 2.37626E+01 0.00000E+00
 -1      2660 2.71218E+01 2.49890E+01 0.00000E+00
 -1      2661 2.73703E+01 1.97489E+01 0.00000E+00
 -1      2662 2.87462E+01 1.55110E+01 0.00000E+00
 -1      2663 3.04638E+01 1.33978E+01 0.00000E+00
 -1      2664 3.24694E+01 1.19629E+01 0.00000E+00
 -1      2665 2.82652E+01 2.66706E+01 0.00000E+00
 -1      2666 3.12238E+01 3.05476E+01 0.00000E+00
 -1      2667 3.44659E+01 1.11737E+01 0.00000E+00
 -1      2668 2.70778E+01 2.19735E+01 0.00000E+00
 -1      2669 1.42758E+02 4.35929E+01 0.00000E+00
 -1      2670 1.43241E+02 4.17323E+01 0.00000E+00
 -1      2671 1.41942E+02 4.09948E+01 0.00000E+00
 -1      2672 1.41414E+02 4.35342E+01 0.00000E+00
 -1      2673 4.29632E+01 3.16664E+01 0.00000E+00
 -1      2674 1.42046E+02 8.46463E+00 0.00000E+00
 -1      2675 1.40664E+02 4.22352E+01 0.00000E+00
 -1      2676 9.09300E+00 1.98250E+01 0.00000E+00
 -1      2677 9.09300E+00 2.12750E+01 0.00000E+00
 -1      2678 9.09300E+00 2.27500E+01 0.00000E+00
 -1      2679 9.09300E+00 2.42250E+01 0.00000E+00
 -1      2680 1.03920E+01 2.20250E+01 0.00000E+00
 -1      2681 9.09300E+00 1.39375E+01 0.00000E+00
 -1      2682 9.09300E+00 1.54125E+01 0.00000E+00
 -1      2683 9.09300E+00 1.09875E+01 0.00000E+00
 -1      2684 9.09300E+00 1.24625E+01 0.00000E+00
 -1      2685 1.03920E+01 1.32000E+01 0.00000E+00
 -1      2686 1.22850E+01 7.90325E+00 0.00000E+00
 -1      2687 1.07850E+01 7.90325E+00 0.00000E+00
 -1      2688 4.55413E+01 1.24388E+01 0.00000E+00
 -1      2689 4.64730E+01 1.30942E+01 0.00000E+00
 -1      2690 1.52850E+01 7.90325E+00 0.00000E+00
 -1      2691 1.37850E+01 7.90325E+00 0.00000E+00
 -1      2692 1.30350E+01 9.20225E+00 0.00000E+00
 -1      2693 8.91450E+00 8.42712E+00 0.00000E+00
 -1      2694 1.44000E+01 4.09070E+01 0.00000E+00
 -1      2695 1.59000E+01 4.09070E+01 0.00000E+00
 -1      2696 1.74000E+01 4.09070E+01 0.00000E+00
 -1      2697 1.89000E+01 4.09070E+01 0.00000E+00
 -1      2698 1.66500E+01 3.96080E+01 0.00000E+00
 -1      2699 2.04000E+01 4.09070E+01 0.00000E+00
 -1      2700 2.19000E+01 4.09070E+01 0.00000E+00
 -1      2701 1.96500E+01 3.96080E+01 0.00000E+00
 -1      2702 2.34000E+01 4.09070E+01 0.00000E+00
 -1      2703 2.49000E+01 4.09070E+01 0.00000E+00
 -1      2704 2.26500E+01 3.96080E+01 0.00000E+00
 -1      2705 2.64000E+01 4.09070E+01 0.00000E+00
 -1      2706 2.79000E+01 4.09070E+01 0.00000E+00
 -1      2707 2.56500E+01 3.96080E+01 0.00000E+00
 -1      2708 2.94000E+01 4.09070E+01 0.00000E+00
 -1      2709 3.09000E+01 4.09070E+01 0.00000E+00
 -1      2710 2.86500E+01 3.96080E+01 0.00000E+00
 -1      2711 3.24000E+01 4.09070E+01 0.00000E+00
 -1      2712 3.39000E+01 4.09070E+01 0.00000E+00
 -1      2713 3.16500E+01 3.96080E+01 0.00000E+00
 -1      2714 3.54000E+01 4.09070E+01 0.00000E+00
 -1      2715 3.69000E+01 4.09070E+01 0.00000E+00
 -1      2716 3.46500E+01 3.96080E+01 0.00000E+00
 -1      2717 3.84000E+01 4.09070E+01 0.00000E+00
 -1      2718 3.99000E+01 4.09070E+01 0.00000E+00
 -1      2719 3.76500E+01 3.96080E+01 0.00000E+00
 -1      2720 4.14000E+01 4.09070E+01 0.00000E+00
 -1      2721 4.29000E+01 4.09070E+01 0.00000E+00
 -1      2722 4.06500E+01 3.96080E+01 0.00000E+00
 -1      2723 4.44000E+01 4.09070E+01 0.00000E+00
 -1      2724 4.59000E+01 4.09070E+01 0.00000E+00
 -1      2725 4.36500E+01 3.96080E+01 0.00000E+00
 -1      2726 4.74000E+01 4.09070E+01 0.00000E+00
 -1      2727 4.89000E+01 4.09070E+01 0.00000E+00
 -1      2728 4.66500E+01 3.96080E+01 0.00000E+00
 -1      2729 5.04000E+01 4.09070E+01 0.00000E+00
 -1      2730 5.19000E+01 4.09070E+01 0.00000E+00
 -1      2731 4.96500E+01 3.96080E+01 0.00000E+00
 -1      2732 5.34000E+01 4.09070E+01 0.00000E+00
 -1      2733 5.49000E+01 4.09070E+01 0.00000E+00
 -1      2734 5.26500E+01 3.96080E+01 0.00000E+00
 -1      2735 5.64000E+01 4.09070E+01 0.00000E+00
 -1      2736 5.79000E+01 4.09070E+01 0.00000E+00
 -1      2737 5.56500E+01 3.96080E+01 0.00000E+00
 -1      2738 5.94000E+01 4.09070E+01 0.00000E+00
 -1      2739 6.09000E+01 4.09070E+01 0.00000E+00
 -1      2740 5.86500E+01 3.96080E+01 0.00000E+00
 -1      2741 6.24000E+01 4.09070E+01 0.00000E+00
 -1      2742 6.39000E+01 4.09070E+01 0.00000E+00
 -1      2743 6.16500E+01 3.96080E+01 0.00000E+00
 -1      2744 6.54000E+01 4.09070E+01 0.00000E+00
 -1      2745 6.69000E+01 4.09070E+01 0.00000E+00
 -1      2746 6.46500E+01 3.96080E+01 0.00000E+00
 -1      2747 6.84000E+01 4.09070E+01 0.00000E+00
 -1      2748 6.99000E+01 4.09070E+01 0.00000E+00
 -1      2749 6.76500E+01 3.96080E+01 0.00000E+00
 -1      2750 7.14000E+01 4.09070E+01 0.00000E+00
 -1      2751 7.29000E+01 4.09070E+01 0.00000E+00
 -1      2752 7.06500E+01 3.96080E+01 0.00000E+00
 -1      2753 7.44000E+01 4.09070E+01 0.00000E+00
 -1      2754 7.59000E+01 4.09070E+01 0.00000E+00
 -1      2755 7.36500E+01 3.96080E+01 0.00000E+00
 -1      2756 7.74000E+01 4.09070E+01 0.00000E+00
 -1      2757 7.89000E+01 4.09070E+01 0.00000E+00
 -1      2758 7.66500E+01 3.96080E+01 0.00000E+00
 -1      2759 8.04000E+01 4.09070E+01 0.00000E+00
 -1      2760 8.19000E+01 4.09070E+01 0.00000E+00
 -1      2761 7.96500E+01 3.96080E+01 0.00000E+00
 -1      2762 8.34000E+01 4.09070E+01 0.00000E+00
 -1      2763 8.49000E+01 4.09070E+01 0.00000E+00
 -1      2764 8.26500E+01 3.96080E+01 0.00000E+00
 -1      2765 8.64000E+01 4.09070E+01 0.00000E+00
 -1      2766 8.79000E+01 4.09070E+01 0.00000E+00
 -1      2767 8.56500E+01 3.96080E+01 0.00000E+00
 -1      2768 8.94000E+01 4.09070E+01 0.00000E+00
 -1      2769 9.09000E+01 4.09070E+01 0.00000E+00
 -1      2770 8.86500E+01 3.96080E+01 0.00000E+00
 -1      2771 9.24000E+01 4.09070E+01 0.00000E+00
 -1      2772 9.39000E+01 4.09070E+01 0.00000E+00
 -1      2773 9.16500E+01 3.96080E+01 0.00000E+00
 -1      2774 9.54000E+01 4.09070E+01 0.00000E+00
 -1      2775 9.69000E+01 4.09070E+01 0.00000E+00
 -1      2776 9.46500E+01 3.96080E+01 0.00000E+00
 -1      2777 9.84000E+01 4.09070E+01 0.00000E+00
 -1      2778 9.99000E+01 4.09070E+01 0.00000E+00
 -1      2779 9.76500E+01 3.96080E+01 0.00000E+00
 -1      2780 1.01400E+02 4.09070E+01 0.00000E+00
 -1      2781 1.02900E+02 4.09070E+01 0.00000E+00
 -1      2782 1.00650E+02 3.96080E+01 0.00000E+00
 -1      2783 1.04400E+02 4.09070E+01 0.00000E+00
 -1      2784 1.05900E+02 4.09070E+01 0.00000E+00
 -1      2785 1.03650E+02 3.96080E+01 0.00000E+00
 -1      2786 1.07400E+02 4.09070E+01 0.00000E+00
 -1      2787 1.08900E+02 4.09070E+01 0.00000E+00
 -1      2788 1.06650E+02 3.96080E+01 0.00000E+00
 -1      2789 1.10400E+02 4.09070E+01 0.00000E+00
 -1      2790 1.11900E+02 4.09070E+01 0.00000E+00
 -1      2791 1.09650E+02 3.96080E+01 0.00000E+00
 -1      2792 1.13400E+02 4.09070E+01 0.00000E+00
 -1      2793 1.14900E+02 4.09070E+01 0.00000E+00
 -1      2794 1.12650E+02 3.96080E+01 0.00000E+00
 -1      2795 1.16400E+02 4.09070E+01 0.00000E+00
 -1      2796 1.17900E+02 4.09070E+01 0.00000E+00
 -1      2797 1.15650E+02 3.96080E+01 0.00000E+00
 -1      2798 1.19400E+02 4.09070E+01 0.00000E+00
 -1      2799 1.20900E+02 4.09070E+01 0.00000E+00
 -1      2800 1.18650E+02 3.96080E+01 0.00000E+00
 -1      2801 1.22400E+02 4.09070E+01 0.00000E+00
 -1      2802 1.23900E+02 4.09070E+01 0.00000E+00
 -1      2803 1.21650E+02 3.96080E+01 0.00000E+00
 -1      2804 1.25400E+02 4.09070E+01 0.00000E+00
 -1      2805 1.26900E+02 4.09070E+01 0.00000E+00
 -1      2806 1.24650E+02 3.96080E+01 0.00000E+00
 -1      2807 1.28400E+02 4.09070E+01 0.00000E+00
 -1      2808 1.29900E+02 4.09070E+01 0.00000E+00
 -1      2809 1.27650E+02 3.96080E+01 0.00000E+00
 -1      2810 1.31400E+02 4.09070E+01 0.00000E+00
 -1      2811 1.32900E+02 4.09070E+01 0.00000E+00
 -1      2812 1.30650E+02 3.96080E+01 0.00000E+00
 -1      2813 1.34400E+02 4.09070E+01 0.00000E+00
 -1      2814 1.35900E+02 4.09070E+01 0.00000E+00
 -1      2815 1.33650E+02 3.96080E+01 0.00000E+00
 -1      2816 1.37400E+02 4.09070E+01 0.00000E+00
 -1      2817 1.38900E+02 4.09070E+01 0.00000E+00
 -1      2818 1.36650E+02 3.96080E+01 0.00000E+00
 -1      2819 2.42850E+01 7.90325E+00 0.00000E+00
 -1      2820 2.27850E+01 7.90325E+00 0.00000E+00
 -1      2821 4.40517E+01 3.22753E+01 0.00000E+00
 -1      2822 4.27755E+01 3.28994E+01 0.00000E+00
 -1      2823 2.12850E+01 7.90325E+00 0.00000E+00
 -1      2824 1.97850E+01 7.90325E+00 0.00000E+00
 -1      2825 2.20350E+01 9.20225E+00 0.00000E+00
 -1      2826 3.02850E+01 7.90325E+00 0.00000E+00
 -1      2827 2.87850E+01 7.90325E+00 0.00000E+00
 -1      2828 3.37384E+01 9.04441E+00 0.00000E+00
 -1      2829 3.22384E+01 9.04441E+00 0.00000E+00
 -1      2830 3.68960E+01 8.04480E+00 0.00000E+00
 -1      2831 3.53960E+01 8.04480E+00 0.00000E+00
 -1      2832 3.83210E+01 8.04480E+00 0.00000E+00
 -1      2833 4.21350E+01 7.62937E+00 0.00000E+00
 -1      2834 4.06350E+01 7.62937E+00 0.00000E+00
 -1      2835 4.51350E+01 7.71316E+00 0.00000E+00
 -1      2836 4.36350E+01 7.71316E+00 0.00000E+00
 -1      2837 4.81350E+01 7.71316E+00 0.00000E+00
 -1      2838 4.66350E+01 7.71316E+00 0.00000E+00
 -1      2839 4.58850E+01 8.82207E+00 0.00000E+00
 -1      2840 5.11350E+01 7.71316E+00 0.00000E+00
 -1      2841 4.96350E+01 7.71316E+00 0.00000E+00
 -1      2842 4.88850E+01 8.82207E+00 0.00000E+00
 -1      2843 5.41350E+01 7.71316E+00 0.00000E+00
 -1      2844 5.26350E+01 7.71316E+00 0.00000E+00
 -1      2845 5.18850E+01 8.82207E+00 0.00000E+00
 -1      2846 5.71350E+01 7.71316E+00 0.00000E+00
 -1      2847 5.56350E+01 7.71316E+00 0.00000E+00
 -1      2848 5.48850E+01 8.82207E+00 0.00000E+00
 -1      2849 6.01350E+01 7.71316E+00 0.00000E+00
 -1      2850 5.86350E+01 7.71316E+00 0.00000E+00
 -1      2851 5.78850E+01 8.82207E+00 0.00000E+00
 -1      2852 6.31350E+01 7.71316E+00 0.00000E+00
 -1      2853 6.16350E+01 7.71316E+00 0.00000E+00
 -1      2854 6.08850E+01 8.82207E+00 0.00000E+00
 -1      2855 6.61350E+01 7.71316E+00 0.00000E+00
 -1      2856 6.46350E+01 7.71316E+00 0.00000E+00
 -1      2857 6.38850E+01 8.82207E+00 0.00000E+00
 -1      2858 6.91350E+01 7.71316E+00 0.00000E+00
 -1      2859 6.76350E+01 7.71316E+00 0.00000E+00
 -1      2860 6.68850E+01 8.82207E+00 0.00000E+00
 -1      2861 7.21350E+01 7.71316E+00 0.00000E+00
 -1      2862 7.06350E+01 7.71316E+00 0.00000E+00
 -1      2863 6.98850E+01 8.82207E+00 0.00000E+00
 -1      2864 7.51350E+01 7.71316E+00 0.00000E+00
 -1      2865 7.36350E+01 7.71316E+00 0.00000E+00
 -1      2866 7.28850E+01 8.82207E+00 0.00000E+00
 -1      2867 7.81350E+01 7.71316E+00 0.00000E+00
 -1      2868 7.66350E+01 7.71316E+00 0.00000E+00
 -1      2869 7.58850E+01 8.82207E+00 0.00000E+00
 -1      2870 8.11350E+01 7.71316E+00 0.00000E+00
 -1      2871 7.96350E+01 7.71316E+00 0.00000E+00
 -1      2872 7.88850E+01 8.82207E+00 0.00000E+00
 -1      2873 8.41350E+01 7.71316E+00 0.00000E+00
 -1      2874 8.26350E+01 7.71316E+00 0.00000E+00
 -1      2875 8.18850E+01 8.82207E+00 0.00000E+00
 -1      2876 8.71350E+01 7.71316E+00 0.00000E+00
 -1      2877 8.56350E+01 7.71316E+00 0.00000E+00
 -1      2878 8.48850E+01 8.82207E+00 0.00000E+00
 -1      2879 9.01350E+01 7.71316E+00 0.00000E+00
 -1      2880 8.86350E+01 7.71316E+00 0.00000E+00
 -1      2881 8.78850E+01 8.82207E+00 0.00000E+00
 -1      2882 9.31350E+01 7.71316E+00 0.00000E+00
 -1      2883 9.16350E+01 7.71316E+00 0.00000E+00
 -1      2884 9.08850E+01 8.82207E+00 0.00000E+00
 -1      2885 9.61350E+01 7.71316E+00 0.00000E+00
 -1      2886 9.46350E+01 7.71316E+00 0.00000E+00
 -1      2887 9.38850E+01 8.82207E+00 0.00000E+00
 -1      2888 9.91350E+01 7.71316E+00 0.00000E+00
 -1      2889 9.76350E+01 7.71316E+00 0.00000E+00
 -1      2890 9.68850E+01 8.82207E+00 0.00000E+00
 -1      2891 1.02135E+02 7.71316E+00 0.00000E+00
 -1      2892 1.00635E+02 7.71316E+00 0.00000E+00
 -1      2893 9.98850E+01 8.82207E+00 0.00000E+00
 -1      2894 1.05135E+02 7.71316E+00 0.00000E+00
 -1      2895 1.03635E+02 7.71316E+00 0.00000E+00
 -1      2896 1.02885E+02 8.82207E+00 0.00000E+00
 -1      2897 1.08135E+02 7.71316E+00 0.00000E+00
 -1      2898 1.06635E+02 7.71316E+00 0.00000E+00
 -1      2899 1.05885E+02 8.82207E+00 0.00000E+00
 -1      2900 1.11135E+02 7.71316E+00 0.00000E+00
 -1      2901 1.09635E+02 7.71316E+00 0.00000E+00
 -1      2902 1.08885E+02 8.82207E+00 0.00000E+00
 -1      2903 1.14135E+02 7.71316E+00 0.00000E+00
 -1      2904 1.12635E+02 7.71316E+00 0.00000E+00
 -1      2905 1.11885E+02 8.82207E+00 0.00000E+00
 -1      2906 1.17135E+02 7.71316E+00 0.00000E+00
 -1      2907 1.15635E+02 7.71316E+00 0.00000E+00
 -1      2908 1.14885E+02 8.82207E+00 0.00000E+00
 -1      2909 1.20135E+02 7.71316E+00 0.00000E+00
 -1      2910 1.18635E+02 7.71316E+00 0.00000E+00
 -1      2911 1.17885E+02 8.82207E+00 0.00000E+00
 -1      2912 1.23135E+02 7.71316E+00 0.00000E+00
 -1      2913 1.21635E+02 7.71316E+00 0.00000E+00
 -1      2914 1.20885E+02 8.82207E+00 0.00000E+00
 -1      2915 1.26135E+02 7.71316E+00 0.00000E+00
 -1      2916 1.24635E+02 7.71316E+00 0.00000E+00
 -1      2917 1.23885E+02 8.82207E+00 0.00000E+00
 -1      2918 1.29135E+02 7.71316E+00 0.00000E+00
 -1      2919 1.27635E+02 7.71316E+00 0.00000E+00
 -1      2920 1.26885E+02 8.82207E+00 0.00000E+00
 -1      2921 1.32135E+02 7.71316E+00 0.00000E+00
 -1      2922 1.30635E+02 7.71316E+00 0.00000E+00
 -1      2923 1.29885E+02 8.82207E+00 0.00000E+00
 -1      2924 1.35135E+02 7.71316E+00 0.00000E+00
 -1      2925 1.33635E+02 7.71316E+00 0.00000E+00
 -1      2926 1.32885E+02 8.82207E+00 0.00000E+00
 -1      2927 1.38135E+02 7.71316E+00 0.00000E+00
 -1      2928 1.36635E+02 7.71316E+00 0.00000E+00
 -1      2929 1.35885E+02 8.82207E+00 0.00000E+00
 -1      2930 1.40840E+02 8.08889E+00 0.00000E+00
 -1      2931 1.39340E+02 8.08889E+00 0.00000E+00
 -1      2932 1.38590E+02 9.19780E+00 0.00000E+00
 -1      2933 1.41001E+02 9.94927E+00 0.00000E+00
 -1      2934 1.40907E+02 2.42875E+01 0.00000E+00
 -1      2935 1.40907E+02 2.28125E+01 0.00000E+00
 -1      2936 1.39914E+02 4.09362E+01 0.00000E+00
 -1      2937 1.40928E+02 4.09655E+01 0.00000E+00
 -1      2938 1.39164E+02 3.96372E+01 0.00000E+00
 -1      2939 1.40907E+02 1.83875E+01 0.00000E+00
 -1      2940 1.40907E+02 1.69125E+01 0.00000E+00
 -1      2941 1.40907E+02 2.72375E+01 0.00000E+00
 -1      2942 1.40907E+02 2.57625E+01 0.00000E+00
 -1      2943 1.39608E+02 2.50250E+01 0.00000E+00
 -1      2944 1.40907E+02 2.13375E+01 0.00000E+00
 -1      2945 1.40907E+02 1.98625E+01 0.00000E+00
 -1      2946 1.39608E+02 1.91250E+01 0.00000E+00
 -1      2947 1.39608E+02 2.20750E+01 0.00000E+00
 -1      2948 1.40907E+02 3.01375E+01 0.00000E+00
 -1      2949 1.40907E+02 2.86875E+01 0.00000E+00
 -1      2950 1.39608E+02 2.79500E+01 0.00000E+00
 -1      2951 1.40907E+02 3.30875E+01 0.00000E+00
 -1      2952 1.40907E+02 3.16125E+01 0.00000E+00
 -1      2953 1.39608E+02 3.08750E+01 0.00000E+00
 -1      2954 1.40907E+02 3.60375E+01 0.00000E+00
 -1      2955 1.40907E+02 3.45625E+01 0.00000E+00
 -1      2956 1.39608E+02 3.38250E+01 0.00000E+00
 -1      2957 2.92100E+01 2.99148E+01 0.00000E+00
 -1      2958 2.83857E+01 2.89138E+01 0.00000E+00
 -1      2959 7.85850E+00 3.92077E+01 0.00000E+00
 -1      2960 4.91914E+01 2.67079E+01 0.00000E+00
 -1      2961 4.82244E+01 2.76119E+01 0.00000E+00
 -1      2962 4.99450E+01 2.36696E+01 0.00000E+00
 -1      2963 4.98689E+01 2.49291E+01 0.00000E+00
 -1      2964 2.76660E+01 1.56526E+01 0.00000E+00
 -1      2965 2.83504E+01 1.44960E+01 0.00000E+00
 -1      2966 3.88446E+01 9.88086E+00 0.00000E+00
 -1      2967 3.97432E+01 1.00135E+01 0.00000E+00
 -1      2968 4.60849E+01 3.06389E+01 0.00000E+00
 -1      2969 4.52762E+01 3.13726E+01 0.00000E+00
 -1      2970 1.82850E+01 7.90325E+00 0.00000E+00
 -1      2971 1.67850E+01 7.90325E+00 0.00000E+00
 -1      2972 1.60350E+01 9.20225E+00 0.00000E+00
 -1      2973 1.90350E+01 9.20225E+00 0.00000E+00
 -1      2974 4.96552E+01 1.88668E+01 0.00000E+00
 -1      2975 4.97343E+01 2.00004E+01 0.00000E+00
 -1      2976 2.72850E+01 7.90325E+00 0.00000E+00
 -1      2977 2.57850E+01 7.90325E+00 0.00000E+00
 -1      2978 2.50350E+01 9.20225E+00 0.00000E+00
 -1      2979 2.80350E+01 9.20225E+00 0.00000E+00
 -1      2980 1.14000E+01 4.09070E+01 0.00000E+00
 -1      2981 1.29000E+01 4.09070E+01 0.00000E+00
 -1      2982 1.36500E+01 3.96080E+01 0.00000E+00
 -1      2983 9.09300E+00 1.68813E+01 0.00000E+00
 -1      2984 9.09300E+00 1.83563E+01 0.00000E+00
 -1      2985 1.03920E+01 1.90812E+01 0.00000E+00
 -1      2986 1.03920E+01 1.61437E+01 0.00000E+00
 -1      2987 4.89428E+01 1.61679E+01 0.00000E+00
 -1      2988 4.94086E+01 1.74084E+01 0.00000E+00
 -1      2989 4.74507E+01 2.85604E+01 0.00000E+00
 -1      2990 4.68586E+01 2.96904E+01 0.00000E+00
 -1      2991 4.70868E+01 3.07544E+01 0.00000E+00
 -1      2992 4.86342E+01 2.88573E+01 0.00000E+00
 -1      2993 9.09300E+00 3.15875E+01 0.00000E+00
 -1      2994 9.09300E+00 3.30625E+01 0.00000E+00
 -1      2995 3.32402E+01 3.28522E+01 0.00000E+00
 -1      2996 3.22327E+01 3.22603E+01 0.00000E+00
 -1      2997 4.32718E+01 1.14789E+01 0.00000E+00
 -1      2998 4.43203E+01 1.19109E+01 0.00000E+00
 -1      2999 2.60751E+01 2.23727E+01 0.00000E+00
 -1      3000 2.62143E+01 2.13261E+01 0.00000E+00
 -1      3001 2.74710E+01 2.75722E+01 0.00000E+00
 -1      3002 2.71007E+01 2.63746E+01 0.00000E+00
 -1      3003 2.93077E+01 1.31853E+01 0.00000E+00
 -1      3004 3.03409E+01 1.22288E+01 0.00000E+00
 -1      3005 2.68331E+01 1.78617E+01 0.00000E+00
 -1      3006 2.71021E+01 1.69101E+01 0.00000E+00
 -1      3007 1.41192E+02 3.96958E+01 0.00000E+00
 -1      3008 3.10452E+01 3.17858E+01 0.00000E+00
 -1      3009 3.01055E+01 3.11084E+01 0.00000E+00
 -1      3010 2.63676E+01 2.01481E+01 0.00000E+00
 -1      3011 2.65210E+01 1.89701E+01 0.00000E+00
 -1      3012 2.53649E+01 2.05473E+01 0.00000E+00
 -1      3013 4.98386E+01 2.11811E+01 0.00000E+00
 -1      3014 4.99430E+01 2.23617E+01 0.00000E+00
 -1      3015 5.06546E+01 2.05546E+01 0.00000E+00
 -1      3016 3.87516E+01 3.38278E+01 0.00000E+00
 -1      3017 3.77760E+01 3.38394E+01 0.00000E+00
 -1      3018 4.12619E+01 3.33391E+01 0.00000E+00
 -1      3019 4.00320E+01 3.35923E+01 0.00000E+00
 -1      3020 4.74728E+01 1.40044E+01 0.00000E+00
 -1      3021 4.81885E+01 1.48478E+01 0.00000E+00
 -1      3022 9.09300E+00 3.45313E+01 0.00000E+00
 -1      3023 9.09300E+00 3.60000E+01 0.00000E+00
 -1      3024 1.03920E+01 3.37938E+01 0.00000E+00
 -1      3025 1.03920E+01 2.49750E+01 0.00000E+00
 -1      3026 9.09300E+00 2.57000E+01 0.00000E+00
 -1      3027 9.09300E+00 2.71750E+01 0.00000E+00
 -1      3028 9.66450E+00 9.72612E+00 0.00000E+00
 -1      3029 4.75486E+01 1.29068E+01 0.00000E+00
 -1      3030 4.05141E+01 9.75719E+00 0.00000E+00
 -1      3031 5.03036E+01 1.79156E+01 0.00000E+00
 -1      3032 1.39608E+02 1.61875E+01 0.00000E+00
 -1      3033 1.40907E+02 1.54500E+01 0.00000E+00
 -1      3034 1.40907E+02 1.39875E+01 0.00000E+00
 -1      3035 4.23503E+01 3.39480E+01 0.00000E+00
 -1      3036 3.14884E+01 1.03434E+01 0.00000E+00
 -1      3037 4.28850E+01 8.73829E+00 0.00000E+00
 -1      3038 2.90314E+01 3.11531E+01 0.00000E+00
 -1      3039 1.40954E+02 1.26996E+01 0.00000E+00
 -1      3040 1.40954E+02 1.12371E+01 0.00000E+00
 -1      3041 1.39749E+02 1.08614E+01 0.00000E+00
 -1      3042 1.39655E+02 1.34371E+01 0.00000E+00
 -1      3043 5.07609E+01 2.30432E+01 0.00000E+00
 -1      3044 3.45306E+01 3.42141E+01 0.00000E+00
 -1      3045 3.38854E+01 3.35332E+01 0.00000E+00
 -1      3046 3.29473E+01 3.39766E+01 0.00000E+00
 -1      3047 2.69714E+01 2.96635E+01 0.00000E+00
 -1      3048 2.72212E+01 2.86179E+01 0.00000E+00
 -1      3049 2.60567E+01 2.83219E+01 0.00000E+00
 -1      3050 1.41192E+02 3.82207E+01 0.00000E+00
 -1      3051 4.53278E+01 1.14686E+01 0.00000E+00
 -1      3052 2.58303E+01 1.82609E+01 0.00000E+00
 -1      3053 9.15750E+00 3.77359E+01 0.00000E+00
 -1      3054 9.22200E+00 4.02061E+01 0.00000E+00
 -1      3055 1.05855E+01 4.04701E+01 0.00000E+00
 -1      3056 1.04565E+01 3.69984E+01 0.00000E+00
 -1      3057 2.82275E+01 1.33269E+01 0.00000E+00
 -1      3058 2.81046E+01 1.21579E+01 0.00000E+00
 -1      3059 2.71472E+01 1.34686E+01 0.00000E+00
 -1      3060 1.39529E+02 3.85602E+01 0.00000E+00
 -1      3061 1.40542E+02 3.71145E+01 0.00000E+00
 -1      3062 1.39243E+02 3.63770E+01 0.00000E+00
 -1      3063 1.38514E+02 3.85310E+01 0.00000E+00
 -1      3064 2.57801E+01 2.31152E+01 0.00000E+00
 -1      3065 2.49166E+01 2.24677E+01 0.00000E+00
 -1      3066 2.54852E+01 2.38576E+01 0.00000E+00
 -1      3067 3.80819E+01 9.33352E+00 0.00000E+00
 -1      3068 5.00854E+01 2.61299E+01 0.00000E+00
 -1      3069 5.03019E+01 2.73308E+01 0.00000E+00
 -1      3070 5.09795E+01 2.55519E+01 0.00000E+00
 -1      3071 2.63276E+01 2.58907E+01 0.00000E+00
 -1      3072 4.28640E+01 1.06367E+01 0.00000E+00
 -1      3073 2.67063E+01 1.58951E+01 0.00000E+00
 -1      3074 9.09300E+00 2.86437E+01 0.00000E+00
 -1      3075 9.09300E+00 3.01187E+01 0.00000E+00
 -1      3076 1.03920E+01 3.08563E+01 0.00000E+00
 -1      3077 1.03920E+01 2.79188E+01 0.00000E+00
 -1      3078 4.50885E+01 3.26056E+01 0.00000E+00
 -1      3079 1.09635E+01 1.04636E+01 0.00000E+00
 -1      3080 3.11145E+01 3.28211E+01 0.00000E+00
 -1      3081 4.93027E+01 1.51372E+01 0.00000E+00
 -1      3082 1.13355E+01 3.91711E+01 0.00000E+00
 -1      3083 3.95564E+01 3.46232E+01 0.00000E+00
 -1      3084 4.77388E+01 1.16937E+01 0.00000E+00
 -1      3085 4.87386E+01 1.26039E+01 0.00000E+00
 -1      3086 1.16910E+01 1.24625E+01 0.00000E+00
 -1      3087 1.16910E+01 1.39375E+01 0.00000E+00
 -1      3088 3.51756E+01 9.93799E+00 0.00000E+00
 -1      3089 3.58091E+01 9.24923E+00 0.00000E+00
 -1      3090 1.59000E+01 3.83090E+01 0.00000E+00
 -1      3091 1.74000E+01 3.83090E+01 0.00000E+00
 -1      3092 3.68724E+01 3.43147E+01 0.00000E+00
 -1      3093 1.89000E+01 3.83090E+01 0.00000E+00
 -1      3094 2.04000E+01 3.83090E+01 0.00000E+00
 -1      3095 1.81500E+01 3.70100E+01 0.00000E+00
 -1      3096 2.19000E+01 3.83090E+01 0.00000E+00
 -1      3097 2.34000E+01 3.83090E+01 0.00000E+00
 -1      3098 2.11500E+01 3.70100E+01 0.00000E+00
 -1      3099 2.49000E+01 3.83090E+01 0.00000E+00
 -1      3100 2.64000E+01 3.83090E+01 0.00000E+00
 -1      3101 2.41500E+01 3.70100E+01 0.00000E+00
 -1      3102 2.79000E+01 3.83090E+01 0.00000E+00
 -1      3103 2.94000E+01 3.83090E+01 0.00000E+00
 -1      3104 2.71500E+01 3.70100E+01 0.00000E+00
 -1      3105 3.09000E+01 3.83090E+01 0.00000E+00
 -1      3106 3.24000E+01 3.83090E+01 0.00000E+00
 -1      3107 3.01500E+01 3.70100E+01 0.00000E+00
 -1      3108 3.69000E+01 3.83090E+01 0.00000E+00
 -1      3109 3.84000E+01 3.83090E+01 0.00000E+00
 -1      3110 4.29000E+01 3.83090E+01 0.00000E+00
 -1      3111 4.44000E+01 3.83090E+01 0.00000E+00
 -1      3112 4.59000E+01 3.83090E+01 0.00000E+00
 -1      3113 4.74000E+01 3.83090E+01 0.00000E+00
 -1      3114 4.51500E+01 3.70100E+01 0.00000E+00
 -1      3115 4.89000E+01 3.83090E+01 0.00000E+00
 -1      3116 5.04000E+01 3.83090E+01 0.00000E+00
 -1      3117 4.81500E+01 3.70100E+01 0.00000E+00
 -1      3118 5.19000E+01 3.83090E+01 0.00000E+00
 -1      3119 5.34000E+01 3.83090E+01 0.00000E+00
 -1      3120 5.11500E+01 3.70100E+01 0.00000E+00
 -1      3121 5.49000E+01 3.83090E+01 0.00000E+00
 -1      3122 5.64000E+01 3.83090E+01 0.00000E+00
 -1      3123 5.41500E+01 3.70100E+01 0.00000E+00
 -1      3124 5.79000E+01 3.83090E+01 0.00000E+00
 -1      3125 5.94000E+01 3.83090E+01 0.00000E+00
 -1      3126 5.71500E+01 3.70100E+01 0.00000E+00
 -1      3127 6.09000E+01 3.83090E+01 0.00000E+00
 -1      3128 6.24000E+01 3.83090E+01 0.00000E+00
 -1      3129 6.01500E+01 3.70100E+01 0.00000E+00
 -1      3130 6.39000E+01 3.83090E+01 0.00000E+00
 -1      3131 6.54000E+01 3.83090E+01 0.00000E+00
 -1      3132 6.31500E+01 3.70100E+01 0.00000E+00
 -1      3133 6.69000E+01 3.83090E+01 0.00000E+00
 -1      3134 6.84000E+01 3.83090E+01 0.00000E+00
 -1      3135 6.61500E+01 3.70100E+01 0.00000E+00
 -1      3136 6.99000E+01 3.83090E+01 0.00000E+00
 -1      3137 7.14000E+01 3.83090E+01 0.00000E+00
 -1      3138 6.91500E+01 3.70100E+01 0.00000E+00
 -1      3139 7.29000E+01 3.83090E+01 0.00000E+00
 -1      3140 7.44000E+01 3.83090E+01 0.00000E+00
 -1      3141 7.21500E+01 3.70100E+01 0.00000E+00
 -1      3142 7.59000E+01 3.83090E+01 0.00000E+00
 -1      3143 7.74000E+01 3.83090E+01 0.00000E+00
 -1      3144 7.51500E+01 3.70100E+01 0.00000E+00
 -1      3145 7.89000E+01 3.83090E+01 0.00000E+00
 -1      3146 8.04000E+01 3.83090E+01 0.00000E+00
 -1      3147 7.81500E+01 3.70100E+01 0.00000E+00
 -1      3148 8.19000E+01 3.83090E+01 0.00000E+00
 -1      3149 8.34000E+01 3.83090E+01 0.00000E+00
 -1      3150 8.11500E+01 3.70100E+01 0.00000E+00
 -1      3151 8.49000E+01 3.83090E+01 0.00000E+00
 -1      3152 8.64000E+01 3.83090E+01 0.00000E+00
 -1      3153 8.41500E+01 3.70100E+01 0.00000E+00
 -1      3154 8.79000E+01 3.83090E+01 0.00000E+00
 -1      3155 8.94000E+01 3.83090E+01 0.00000E+00
 -1      3156 8.71500E+01 3.70100E+01 0.00000E+00
 -1      3157 9.09000E+01 3.83090E+01 0.00000E+00
 -1      3158 9.24000E+01 3.83090E+01 0.00000E+00
 -1      3159 9.01500E+01 3.70100E+01 0.00000E+00
 -1      3160 9.39000E+01 3.83090E+01 0.00000E+00
 -1      3161 9.54000E+01 3.83090E+01 0.00000E+00
 -1      3162 9.31500E+01 3.70100E+01 0.00000E+00
 -1      3163 9.69000E+01 3.83090E+01 0.00000E+00
 -1      3164 9.84000E+01 3.83090E+01 0.00000E+00
 -1      3165 9.61500E+01 3.70100E+01 0.00000E+00
 -1      3166 9.99000E+01 3.83090E+01 0.00000E+00
 -1      3167 1.01400E+02 3.83090E+01 0.00000E+00
 -1      3168 9.91500E+01 3.70100E+01 0.00000E+00
 -1      3169 1.02900E+02 3.83090E+01 0.00000E+00
 -1      3170 1.04400E+02 3.83090E+01 0.00000E+00
 -1      3171 1.02150E+02 3.70100E+01 0.00000E+00
 -1      3172 1.05900E+02 3.83090E+01 0.00000E+00
 -1      3173 1.07400E+02 3.83090E+01 0.00000E+00
 -1      3174 1.05150E+02 3.70100E+01 0.00000E+00
 -1      3175 1.08900E+02 3.83090E+01 0.00000E+00
 -1      3176 1.10400E+02 3.83090E+01 0.00000E+00
 -1      3177 1.08150E+02 3.70100E+01 0.00000E+00
 -1      3178 1.11900E+02 3.83090E+01 0.00000E+00
 -1      3179 1.13400E+02 3.83090E+01 0.00000E+00
 -1      3180 1.11150E+02 3.70100E+01 0.00000E+00
 -1      3181 1.14900E+02 3.83090E+01 0.00000E+00
 -1      3182 1.16400E+02 3.83090E+01 0.00000E+00
 -1      3183 1.14150E+02 3.70100E+01 0.00000E+00
 -1      3184 1.17900E+02 3.83090E+01 0.00000E+00
 -1      3185 1.19400E+02 3.83090E+01 0.00000E+00
 -1      3186 1.17150E+02 3.70100E+01 0.00000E+00
 -1      3187 1.20900E+02 3.83090E+01 0.00000E+00
 -1      3188 1.22400E+02 3.83090E+01 0.00000E+00
 -1      3189 1.20150E+02 3.70100E+01 0.00000E+00
 -1      3190 1.23900E+02 3.83090E+01 0.00000E+00
 -1      3191 1.25400E+02 3.83090E+01 0.00000E+00
 -1      3192 1.23150E+02 3.70100E+01 0.00000E+00
 -1      3193 1.26900E+02 3.83090E+01 0.00000E+00
 -1      3194 1.28400E+02 3.83090E+01 0.00000E+00
 -1      3195 1.26150E+02 3.70100E+01 0.00000E+00
 -1      3196 1.29900E+02 3.83090E+01 0.00000E+00
 -1      3197 1.31400E+02 3.83090E+01 0.00000E+00
 -1      3198 1.29150E+02 3.70100E+01 0.00000E+00
 -1      3199 1.32900E+02 3.83090E+01 0.00000E+00
 -1      3200 1.34400E+02 3.83090E+01 0.00000E+00
 -1      3201 1.32150E+02 3.70100E+01 0.00000E+00
 -1      3202 1.35707E+02 3.84200E+01 0.00000E+00
 -1      3203 1.37207E+02 3.84200E+01 0.00000E+00
 -1      3204 1.37572E+02 3.73430E+01 0.00000E+00
 -1      3205 1.34957E+02 3.71210E+01 0.00000E+00
 -1      3206 4.03971E+01 3.55961E+01 0.00000E+00
 -1      3207 3.91168E+01 3.58315E+01 0.00000E+00
 -1      3208 3.96459E+01 7.89297E+00 0.00000E+00
 -1      3209 2.85921E+01 3.24153E+01 0.00000E+00
 -1      3210 2.76966E+01 3.12217E+01 0.00000E+00
 -1      3211 5.56350E+01 1.01211E+01 0.00000E+00
 -1      3212 5.41350E+01 1.01211E+01 0.00000E+00
 -1      3213 5.86350E+01 1.01211E+01 0.00000E+00
 -1      3214 5.71350E+01 1.01211E+01 0.00000E+00
 -1      3215 5.63850E+01 1.14201E+01 0.00000E+00
 -1      3216 6.16350E+01 1.01211E+01 0.00000E+00
 -1      3217 6.01350E+01 1.01211E+01 0.00000E+00
 -1      3218 5.93850E+01 1.14201E+01 0.00000E+00
 -1      3219 6.46350E+01 1.01211E+01 0.00000E+00
 -1      3220 6.31350E+01 1.01211E+01 0.00000E+00
 -1      3221 6.23850E+01 1.14201E+01 0.00000E+00
 -1      3222 6.76350E+01 1.01211E+01 0.00000E+00
 -1      3223 6.61350E+01 1.01211E+01 0.00000E+00
 -1      3224 6.53850E+01 1.14201E+01 0.00000E+00
 -1      3225 7.06350E+01 1.01211E+01 0.00000E+00
 -1      3226 6.91350E+01 1.01211E+01 0.00000E+00
 -1      3227 6.83850E+01 1.14201E+01 0.00000E+00
 -1      3228 7.36350E+01 1.01211E+01 0.00000E+00
 -1      3229 7.21350E+01 1.01211E+01 0.00000E+00
 -1      3230 7.13850E+01 1.14201E+01 0.00000E+00
 -1      3231 7.66350E+01 1.01211E+01 0.00000E+00
 -1      3232 7.51350E+01 1.01211E+01 0.00000E+00
 -1      3233 7.43850E+01 1.14201E+01 0.00000E+00
 -1      3234 7.96350E+01 1.01211E+01 0.00000E+00
 -1      3235 7.81350E+01 1.01211E+01 0.00000E+00
 -1      3236 7.73850E+01 1.14201E+01 0.00000E+00
 -1      3237 8.26350E+01 1.01211E+01 0.00000E+00
 -1      3238 8.11350E+01 1.01211E+01 0.00000E+00
 -1      3239 8.03850E+01 1.14201E+01 0.00000E+00
 -1      3240 8.56350E+01 1.01211E+01 0.00000E+00
 -1      3241 8.41350E+01 1.01211E+01 0.00000E+00
 -1      3242 8.33850E+01 1.14201E+01 0.00000E+00
 -1      3243 8.86350E+01 1.01211E+01 0.00000E+00
 -1      3244 8.71350E+01 1.01211E+01 0.00000E+00
 -1      3245 8.63850E+01 1.14201E+01 0.00000E+00
 -1      3246 9.16350E+01 1.01211E+01 0.00000E+00
 -1      3247 9.01350E+01 1.01211E+01 0.00000E+00
 -1      3248 8.93850E+01 1.14201E+01 0.00000E+00
 -1      3249 9.46350E+01 1.01211E+01 0.00000E+00
 -1      3250 9.31350E+01 1.01211E+01 0.00000E+00
 -1      3251 9.23850E+01 1.14201E+01 0.00000E+00
 -1      3252 9.76350E+01 1.01211E+01 0.00000E+00
 -1      3253 9.61350E+01 1.01211E+01 0.00000E+00
 -1      3254 9.53850E+01 1.14201E+01 0.00000E+00
 -1      3255 1.00635E+02 1.01211E+01 0.00000E+00
 -1      3256 9.91350E+01 1.01211E+01 0.00000E+00
 -1      3257 9.83850E+01 1.14201E+01 0.00000E+00
 -1      3258 1.03635E+02 1.01211E+01 0.00000E+00
 -1      3259 1.02135E+02 1.01211E+01 0.00000E+00
 -1      3260 1.01385E+02 1.14201E+01 0.00000E+00
 -1      3261 1.06635E+02 1.01211E+01 0.00000E+00
 -1      3262 1.05135E+02 1.01211E+01 0.00000E+00
 -1      3263 1.04385E+02 1.14201E+01 0.00000E+00
 -1      3264 1.09635E+02 1.01211E+01 0.00000E+00
 -1      3265 1.08135E+02 1.01211E+01 0.00000E+00
 -1      3266 1.07385E+02 1.14201E+01 0.00000E+00
 -1      3267 1.12635E+02 1.01211E+01 0.00000E+00
 -1      3268 1.11135E+02 1.01211E+01 0.00000E+00
 -1      3269 1.10385E+02 1.14201E+01 0.00000E+00
 -1      3270 1.15635E+02 1.01211E+01 0.00000E+00
 -1      3271 1.14135E+02 1.01211E+01 0.00000E+00
 -1      3272 1.13385E+02 1.14201E+01 0.00000E+00
 -1      3273 1.18635E+02 1.01211E+01 0.00000E+00
 -1      3274 1.17135E+02 1.01211E+01 0.00000E+00
 -1      3275 1.16385E+02 1.14201E+01 0.00000E+00
 -1      3276 1.21635E+02 1.01211E+01 0.00000E+00
 -1      3277 1.20135E+02 1.01211E+01 0.00000E+00
 -1      3278 1.19385E+02 1.14201E+01 0.00000E+00
 -1      3279 1.24635E+02 1.01211E+01 0.00000E+00
 -1      3280 1.23135E+02 1.01211E+01 0.00000E+00
 -1      3281 1.22385E+02 1.14201E+01 0.00000E+00
 -1      3282 1.27635E+02 1.01211E+01 0.00000E+00
 -1      3283 1.26135E+02 1.01211E+01 0.00000E+00
 -1      3284 1.25385E+02 1.14201E+01 0.00000E+00
 -1      3285 1.30635E+02 1.01211E+01 0.00000E+00
 -1      3286 1.29135E+02 1.01211E+01 0.00000E+00
 -1      3287 1.28385E+02 1.14201E+01 0.00000E+00
 -1      3288 1.33635E+02 1.01211E+01 0.00000E+00
 -1      3289 1.32135E+02 1.01211E+01 0.00000E+00
 -1      3290 1.31385E+02 1.14201E+01 0.00000E+00
 -1      3291 1.36635E+02 1.01211E+01 0.00000E+00
 -1      3292 1.35135E+02 1.01211E+01 0.00000E+00
 -1      3293 1.34385E+02 1.14201E+01 0.00000E+00
 -1      3294 1.38794E+02 1.06791E+01 0.00000E+00
 -1      3295 1.37589E+02 1.03034E+01 0.00000E+00
 -1      3296 1.36839E+02 1.16024E+01 0.00000E+00
 -1      3297 1.38748E+02 1.19670E+01 0.00000E+00
 -1      3298 1.16910E+01 2.12875E+01 0.00000E+00
 -1      3299 1.16910E+01 2.27625E+01 0.00000E+00
 -1      3300 1.38309E+02 3.45625E+01 0.00000E+00
 -1      3301 1.38309E+02 3.30875E+01 0.00000E+00
 -1      3302 1.38309E+02 2.57625E+01 0.00000E+00
 -1      3303 1.38309E+02 2.42875E+01 0.00000E+00
 -1      3304 4.03959E+01 8.91809E+00 0.00000E+00
 -1      3305 4.15031E+01 9.49359E+00 0.00000E+00
 -1      3306 2.44794E+01 2.10310E+01 0.00000E+00
 -1      3307 2.46327E+01 1.98530E+01 0.00000E+00
 -1      3308 2.54430E+01 2.66289E+01 0.00000E+00
 -1      3309 2.54641E+01 2.52432E+01 0.00000E+00
 -1      3310 2.46006E+01 2.45958E+01 0.00000E+00
 -1      3311 1.38309E+02 3.16125E+01 0.00000E+00
 -1      3312 1.38309E+02 3.01375E+01 0.00000E+00
 -1      3313 1.37010E+02 3.23500E+01 0.00000E+00
 -1      3314 5.13563E+01 1.69876E+01 0.00000E+00
 -1      3315 5.16029E+01 1.84459E+01 0.00000E+00
 -1      3316 4.96569E+01 1.01064E+01 0.00000E+00
 -1      3317 4.81569E+01 1.01064E+01 0.00000E+00
 -1      3318 2.27850E+01 1.05013E+01 0.00000E+00
 -1      3319 2.12850E+01 1.05013E+01 0.00000E+00
 -1      3320 4.37570E+01 3.52591E+01 0.00000E+00
 -1      3321 4.22434E+01 3.56989E+01 0.00000E+00
 -1      3322 2.55654E+01 1.61387E+01 0.00000E+00
 -1      3323 2.61293E+01 1.48812E+01 0.00000E+00
 -1      3324 4.63090E+01 3.29795E+01 0.00000E+00
 -1      3325 4.50845E+01 3.38821E+01 0.00000E+00
 -1      3326 2.47682E+01 1.85600E+01 0.00000E+00
 -1      3327 2.50803E+01 1.74516E+01 0.00000E+00
 -1      3328 1.26488E+01 1.02017E+01 0.00000E+00
 -1      3329 1.20772E+01 1.14631E+01 0.00000E+00
 -1      3330 1.33763E+01 1.22006E+01 0.00000E+00
 -1      3331 1.41488E+01 1.02017E+01 0.00000E+00
 -1      3332 4.30031E+01 9.57738E+00 0.00000E+00
 -1      3333 4.42459E+01 9.88139E+00 0.00000E+00
 -1      3334 2.93599E+01 1.06093E+01 0.00000E+00
 -1      3335 3.05160E+01 1.08218E+01 0.00000E+00
 -1      3336 3.79630E+01 3.59343E+01 0.00000E+00
 -1      3337 3.65593E+01 3.53903E+01 0.00000E+00
 -1      3338 2.78599E+01 1.06093E+01 0.00000E+00
 -1      3339 3.41515E+01 1.02488E+01 0.00000E+00
 -1      3340 4.98156E+01 1.39685E+01 0.00000E+00
 -1      3341 5.05699E+01 1.52887E+01 0.00000E+00
 -1      3342 5.14566E+01 1.98888E+01 0.00000E+00
 -1      3343 5.15610E+01 2.10694E+01 0.00000E+00
 -1      3344 5.17851E+01 2.23877E+01 0.00000E+00
 -1      3345 5.17871E+01 2.36956E+01 0.00000E+00
 -1      3346 3.12263E+01 3.42647E+01 0.00000E+00
 -1      3347 3.00387E+01 3.37902E+01 0.00000E+00
 -1      3348 1.38309E+02 2.86750E+01 0.00000E+00
 -1      3349 1.38309E+02 2.72250E+01 0.00000E+00
 -1      3350 1.37010E+02 2.64875E+01 0.00000E+00
 -1      3351 1.37010E+02 2.94125E+01 0.00000E+00
 -1      3352 1.16460E+01 3.80848E+01 0.00000E+00
 -1      3353 1.24605E+01 3.85216E+01 0.00000E+00
 -1      3354 1.39605E+01 3.85216E+01 0.00000E+00
 -1      3355 1.15815E+01 3.63489E+01 0.00000E+00
 -1      3356 1.16910E+01 2.42375E+01 0.00000E+00
 -1      3357 1.16910E+01 2.57125E+01 0.00000E+00
 -1      3358 1.29900E+01 2.35000E+01 0.00000E+00
 -1      3359 1.29900E+01 1.46687E+01 0.00000E+00
 -1      3360 1.16910E+01 1.54063E+01 0.00000E+00
 -1      3361 1.16910E+01 1.68750E+01 0.00000E+00
 -1      3362 4.52488E+01 9.47431E+00 0.00000E+00
 -1      3363 4.51096E+01 1.05336E+01 0.00000E+00
 -1      3364 3.88038E+01 3.69072E+01 0.00000E+00
 -1      3365 3.95538E+01 3.82062E+01 0.00000E+00
 -1      3366 1.16910E+01 1.83469E+01 0.00000E+00
 -1      3367 1.16910E+01 1.98156E+01 0.00000E+00
 -1      3368 1.29900E+01 2.05531E+01 0.00000E+00
 -1      3369 1.29900E+01 1.76094E+01 0.00000E+00
 -1      3370 1.38309E+02 1.69188E+01 0.00000E+00
 -1      3371 1.38309E+02 1.54563E+01 0.00000E+00
 -1      3372 3.39000E+01 3.83090E+01 0.00000E+00
 -1      3373 3.54000E+01 3.83090E+01 0.00000E+00
 -1      3374 4.10538E+01 3.82062E+01 0.00000E+00
 -1      3375 3.31500E+01 3.70100E+01 0.00000E+00
 -1      3376 5.25871E+01 2.17218E+01 0.00000E+00
 -1      3377 2.87039E+01 3.38589E+01 0.00000E+00
 -1      3378 4.67488E+01 9.47431E+00 0.00000E+00
 -1      3379 1.38309E+02 1.83937E+01 0.00000E+00
 -1      3380 1.37010E+02 1.76625E+01 0.00000E+00
 -1      3381 1.38309E+02 1.98687E+01 0.00000E+00
 -1      3382 2.38895E+01 2.25159E+01 0.00000E+00
 -1      3383 2.41845E+01 2.17734E+01 0.00000E+00
 -1      3384 2.34523E+01 2.10792E+01 0.00000E+00
 -1      3385 1.16910E+01 3.30594E+01 0.00000E+00
 -1      3386 1.16910E+01 3.45281E+01 0.00000E+00
 -1      3387 5.25093E+01 1.89607E+01 0.00000E+00
 -1      3388 3.18715E+01 3.49456E+01 0.00000E+00
 -1      3389 1.38309E+02 2.28156E+01 0.00000E+00
 -1      3390 1.38309E+02 2.13406E+01 0.00000E+00
 -1      3391 1.37010E+02 2.06094E+01 0.00000E+00
 -1      3392 1.37010E+02 2.35531E+01 0.00000E+00
 -1      3393 2.65321E+01 3.09258E+01 0.00000E+00
 -1      3394 2.38827E+01 1.90437E+01 0.00000E+00
 -1      3395 2.52797E+01 1.07509E+01 0.00000E+00
 -1      3396 2.45297E+01 1.20499E+01 0.00000E+00
 -1      3397 1.56488E+01 1.02017E+01 0.00000E+00
 -1      3398 1.52625E+01 1.12011E+01 0.00000E+00
 -1      3399 1.71488E+01 1.02017E+01 0.00000E+00
 -1      3400 4.18038E+01 3.69072E+01 0.00000E+00
 -1      3401 4.75876E+01 3.23453E+01 0.00000E+00
 -1      3402 4.75835E+01 3.36218E+01 0.00000E+00
 -1      3403 2.45033E+01 1.64377E+01 0.00000E+00
 -1      3404 1.99669E+01 1.03515E+01 0.00000E+00
 -1      3405 1.84669E+01 1.03515E+01 0.00000E+00
 -1      3406 1.80806E+01 1.13509E+01 0.00000E+00
 -1      3407 2.07169E+01 1.16505E+01 0.00000E+00
 -1      3408 5.20036E+01 2.48964E+01 0.00000E+00
 -1      3409 5.22201E+01 2.60973E+01 0.00000E+00
 -1      3410 5.30277E+01 2.42409E+01 0.00000E+00
 -1      3411 2.51931E+01 2.76745E+01 0.00000E+00
 -1      3412 2.43296E+01 2.70271E+01 0.00000E+00
 -1      3413 2.49433E+01 2.87201E+01 0.00000E+00
 -1      3414 4.49775E+01 3.56330E+01 0.00000E+00
 -1      3415 1.37758E+02 3.64912E+01 0.00000E+00
 -1      3416 1.38123E+02 3.54142E+01 0.00000E+00
 -1      3417 1.36824E+02 3.46768E+01 0.00000E+00
 -1      3418 1.36451E+02 3.63802E+01 0.00000E+00
 -1      3419 5.18692E+01 1.58189E+01 0.00000E+00
 -1      3420 4.75207E+01 1.07586E+01 0.00000E+00
 -1      3421 5.26350E+01 1.01211E+01 0.00000E+00
 -1      3422 5.11350E+01 1.01211E+01 0.00000E+00
 -1      3423 1.47105E+01 3.72226E+01 0.00000E+00
 -1      3424 3.44481E+01 7.80867E+00 0.00000E+00
 -1      3425 2.67797E+01 1.07509E+01 0.00000E+00
 -1      3426 2.60064E+01 1.37122E+01 0.00000E+00
 -1      3427 4.63307E+01 1.10616E+01 0.00000E+00
 -1      3428 4.98154E+01 2.90310E+01 0.00000E+00
 -1      3429 4.90417E+01 2.99796E+01 0.00000E+00
 -1      3430 4.83612E+01 3.13967E+01 0.00000E+00
 -1      3431 3.61500E+01 3.70100E+01 0.00000E+00
 -1      3432 1.16910E+01 3.15906E+01 0.00000E+00
 -1      3433 1.29900E+01 3.23250E+01 0.00000E+00
 -1      3434 1.16910E+01 3.01219E+01 0.00000E+00
 -1      3435 5.33850E+01 1.14201E+01 0.00000E+00
 -1      3436 5.07095E+01 2.84530E+01 0.00000E+00
 -1      3437 5.11170E+01 2.95752E+01 0.00000E+00
 -1      3438 5.16035E+01 2.78750E+01 0.00000E+00
 -1      3439 5.00058E+01 1.27554E+01 0.00000E+00
 -1      3440 5.04069E+01 1.14054E+01 0.00000E+00
 -1      3441 3.26212E+01 3.58338E+01 0.00000E+00
 -1      3442 3.41212E+01 3.58338E+01 0.00000E+00
 -1      3443 5.34031E+01 2.09050E+01 0.00000E+00
 -1      3444 5.36272E+01 2.22232E+01 0.00000E+00
 -1      3445 1.74000E+01 3.57110E+01 0.00000E+00
 -1      3446 1.89000E+01 3.57110E+01 0.00000E+00
 -1      3447 2.04000E+01 3.57110E+01 0.00000E+00
 -1      3448 2.19000E+01 3.57110E+01 0.00000E+00
 -1      3449 1.96500E+01 3.44120E+01 0.00000E+00
 -1      3450 2.34000E+01 3.57110E+01 0.00000E+00
 -1      3451 2.49000E+01 3.57110E+01 0.00000E+00
 -1      3452 2.26500E+01 3.44120E+01 0.00000E+00
 -1      3453 2.94003E+01 3.61219E+01 0.00000E+00
 -1      3454 3.09003E+01 3.61219E+01 0.00000E+00
 -1      3455 5.25584E+01 1.44685E+01 0.00000E+00
 -1      3456 5.33448E+01 1.61674E+01 0.00000E+00
 -1      3457 5.04000E+01 3.57110E+01 0.00000E+00
 -1      3458 5.19000E+01 3.57110E+01 0.00000E+00
 -1      3459 5.34000E+01 3.57110E+01 0.00000E+00
 -1      3460 5.49000E+01 3.57110E+01 0.00000E+00
 -1      3461 5.26500E+01 3.44120E+01 0.00000E+00
 -1      3462 5.64000E+01 3.57110E+01 0.00000E+00
 -1      3463 5.79000E+01 3.57110E+01 0.00000E+00
 -1      3464 5.56500E+01 3.44120E+01 0.00000E+00
 -1      3465 5.94000E+01 3.57110E+01 0.00000E+00
 -1      3466 6.09000E+01 3.57110E+01 0.00000E+00
 -1      3467 5.86500E+01 3.44120E+01 0.00000E+00
 -1      3468 6.24000E+01 3.57110E+01 0.00000E+00
 -1      3469 6.39000E+01 3.57110E+01 0.00000E+00
 -1      3470 6.16500E+01 3.44120E+01 0.00000E+00
 -1      3471 6.54000E+01 3.57110E+01 0.00000E+00
 -1      3472 6.69000E+01 3.57110E+01 0.00000E+00
 -1      3473 6.46500E+01 3.44120E+01 0.00000E+00
 -1      3474 6.84000E+01 3.57110E+01 0.00000E+00
 -1      3475 6.99000E+01 3.57110E+01 0.00000E+00
 -1      3476 6.76500E+01 3.44120E+01 0.00000E+00
 -1      3477 7.14000E+01 3.57110E+01 0.00000E+00
 -1      3478 7.29000E+01 3.57110E+01 0.00000E+00
 -1      3479 7.06500E+01 3.44120E+01 0.00000E+00
 -1      3480 7.44000E+01 3.57110E+01 0.00000E+00
 -1      3481 7.59000E+01 3.57110E+01 0.00000E+00
 -1      3482 7.36500E+01 3.44120E+01 0.00000E+00
 -1      3483 7.74000E+01 3.57110E+01 0.00000E+00
 -1      3484 7.89000E+01 3.57110E+01 0.00000E+00
 -1      3485 7.66500E+01 3.44120E+01 0.00000E+00
 -1      3486 8.04000E+01 3.57110E+01 0.00000E+00
 -1      3487 8.19000E+01 3.57110E+01 0.00000E+00
 -1      3488 7.96500E+01 3.44120E+01 0.00000E+00
 -1      3489 8.34000E+01 3.57110E+01 0.00000E+00
 -1      3490 8.49000E+01 3.57110E+01 0.00000E+00
 -1      3491 8.26500E+01 3.44120E+01 0.00000E+00
 -1      3492 8.64000E+01 3.57110E+01 0.00000E+00
 -1      3493 8.79000E+01 3.57110E+01 0.00000E+00
 -1      3494 8.56500E+01 3.44120E+01 0.00000E+00
 -1      3495 8.94000E+01 3.57110E+01 0.00000E+00
 -1      3496 9.09000E+01 3.57110E+01 0.00000E+00
 -1      3497 8.86500E+01 3.44120E+01 0.00000E+00
 -1      3498 9.24000E+01 3.57110E+01 0.00000E+00
 -1      3499 9.39000E+01 3.57110E+01 0.00000E+00
 -1      3500 9.16500E+01 3.44120E+01 0.00000E+00
 -1      3501 9.54000E+01 3.57110E+01 0.00000E+00
 -1      3502 9.69000E+01 3.57110E+01 0.00000E+00
 -1      3503 9.46500E+01 3.44120E+01 0.00000E+00
 -1      3504 9.84000E+01 3.57110E+01 0.00000E+00
 -1      3505 9.99000E+01 3.57110E+01 0.00000E+00
 -1      3506 9.76500E+01 3.44120E+01 0.00000E+00
 -1      3507 1.01400E+02 3.57110E+01 0.00000E+00
 -1      3508 1.02900E+02 3.57110E+01 0.00000E+00
 -1      3509 1.00650E+02 3.44120E+01 0.00000E+00
 -1      3510 1.04400E+02 3.57110E+01 0.00000E+00
 -1      3511 1.05900E+02 3.57110E+01 0.00000E+00
 -1      3512 1.03650E+02 3.44120E+01 0.00000E+00
 -1      3513 1.07400E+02 3.57110E+01 0.00000E+00
 -1      3514 1.08900E+02 3.57110E+01 0.00000E+00
 -1      3515 1.06650E+02 3.44120E+01 0.00000E+00
 -1      3516 1.10400E+02 3.57110E+01 0.00000E+00
 -1      3517 1.11900E+02 3.57110E+01 0.00000E+00
 -1      3518 1.09650E+02 3.44120E+01 0.00000E+00
 -1      3519 1.13400E+02 3.57110E+01 0.00000E+00
 -1      3520 1.14900E+02 3.57110E+01 0.00000E+00
 -1      3521 1.12650E+02 3.44120E+01 0.00000E+00
 -1      3522 1.16400E+02 3.57110E+01 0.00000E+00
 -1      3523 1.17900E+02 3.57110E+01 0.00000E+00
 -1      3524 1.15650E+02 3.44120E+01 0.00000E+00
 -1      3525 1.19400E+02 3.57110E+01 0.00000E+00
 -1      3526 1.20900E+02 3.57110E+01 0.00000E+00
 -1      3527 1.18650E+02 3.44120E+01 0.00000E+00
 -1      3528 1.22400E+02 3.57110E+01 0.00000E+00
 -1      3529 1.23900E+02 3.57110E+01 0.00000E+00
 -1      3530 1.21650E+02 3.44120E+01 0.00000E+00
 -1      3531 1.25400E+02 3.57110E+01 0.00000E+00
 -1      3532 1.26900E+02 3.57110E+01 0.00000E+00
 -1      3533 1.24650E+02 3.44120E+01 0.00000E+00
 -1      3534 1.28400E+02 3.57110E+01 0.00000E+00
 -1      3535 1.29900E+02 3.57110E+01 0.00000E+00
 -1      3536 1.27650E+02 3.44120E+01 0.00000E+00
 -1      3537 1.31400E+02 3.57110E+01 0.00000E+00
 -1      3538 1.32900E+02 3.57110E+01 0.00000E+00
 -1      3539 1.30650E+02 3.44120E+01 0.00000E+00
 -1      3540 6.01350E+01 1.27191E+01 0.00000E+00
 -1      3541 5.86350E+01 1.27191E+01 0.00000E+00
 -1      3542 1.35711E+02 3.30875E+01 0.00000E+00
 -1      3543 1.35711E+02 3.16125E+01 0.00000E+00
 -1      3544 6.61350E+01 1.27191E+01 0.00000E+00
 -1      3545 6.46350E+01 1.27191E+01 0.00000E+00
 -1      3546 6.91350E+01 1.27191E+01 0.00000E+00
 -1      3547 6.76350E+01 1.27191E+01 0.00000E+00
 -1      3548 6.68850E+01 1.40181E+01 0.00000E+00
 -1      3549 7.21350E+01 1.27191E+01 0.00000E+00
 -1      3550 7.06350E+01 1.27191E+01 0.00000E+00
 -1      3551 6.98850E+01 1.40181E+01 0.00000E+00
 -1      3552 7.51350E+01 1.27191E+01 0.00000E+00
 -1      3553 7.36350E+01 1.27191E+01 0.00000E+00
 -1      3554 7.28850E+01 1.40181E+01 0.00000E+00
 -1      3555 7.81350E+01 1.27191E+01 0.00000E+00
 -1      3556 7.66350E+01 1.27191E+01 0.00000E+00
 -1      3557 7.58850E+01 1.40181E+01 0.00000E+00
 -1      3558 8.11350E+01 1.27191E+01 0.00000E+00
 -1      3559 7.96350E+01 1.27191E+01 0.00000E+00
 -1      3560 7.88850E+01 1.40181E+01 0.00000E+00
 -1      3561 8.41350E+01 1.27191E+01 0.00000E+00
 -1      3562 8.26350E+01 1.27191E+01 0.00000E+00
 -1      3563 8.18850E+01 1.40181E+01 0.00000E+00
 -1      3564 8.71350E+01 1.27191E+01 0.00000E+00
 -1      3565 8.56350E+01 1.27191E+01 0.00000E+00
 -1      3566 8.48850E+01 1.40181E+01 0.00000E+00
 -1      3567 9.01350E+01 1.27191E+01 0.00000E+00
 -1      3568 8.86350E+01 1.27191E+01 0.00000E+00
 -1      3569 8.78850E+01 1.40181E+01 0.00000E+00
 -1      3570 9.31350E+01 1.27191E+01 0.00000E+00
 -1      3571 9.16350E+01 1.27191E+01 0.00000E+00
 -1      3572 9.08850E+01 1.40181E+01 0.00000E+00
 -1      3573 9.61350E+01 1.27191E+01 0.00000E+00
 -1      3574 9.46350E+01 1.27191E+01 0.00000E+00
 -1      3575 9.38850E+01 1.40181E+01 0.00000E+00
 -1      3576 9.91350E+01 1.27191E+01 0.00000E+00
 -1      3577 9.76350E+01 1.27191E+01 0.00000E+00
 -1      3578 9.68850E+01 1.40181E+01 0.00000E+00
 -1      3579 1.02135E+02 1.27191E+01 0.00000E+00
 -1      3580 1.00635E+02 1.27191E+01 0.00000E+00
 -1      3581 9.98850E+01 1.40181E+01 0.00000E+00
 -1      3582 1.05135E+02 1.27191E+01 0.00000E+00
 -1      3583 1.03635E+02 1.27191E+01 0.00000E+00
 -1      3584 1.02885E+02 1.40181E+01 0.00000E+00
 -1      3585 1.08135E+02 1.27191E+01 0.00000E+00
 -1      3586 1.06635E+02 1.27191E+01 0.00000E+00
 -1      3587 1.05885E+02 1.40181E+01 0.00000E+00
 -1      3588 1.11135E+02 1.27191E+01 0.00000E+00
 -1      3589 1.09635E+02 1.27191E+01 0.00000E+00
 -1      3590 1.08885E+02 1.40181E+01 0.00000E+00
 -1      3591 1.14135E+02 1.27191E+01 0.00000E+00
 -1      3592 1.12635E+02 1.27191E+01 0.00000E+00
 -1      3593 1.11885E+02 1.40181E+01 0.00000E+00
 -1      3594 1.17135E+02 1.27191E+01 0.00000E+00
 -1      3595 1.15635E+02 1.27191E+01 0.00000E+00
 -1      3596 1.14885E+02 1.40181E+01 0.00000E+00
 -1      3597 1.20135E+02 1.27191E+01 0.00000E+00
 -1      3598 1.18635E+02 1.27191E+01 0.00000E+00
 -1      3599 1.17885E+02 1.40181E+01 0.00000E+00
 -1      3600 1.23135E+02 1.27191E+01 0.00000E+00
 -1      3601 1.21635E+02 1.27191E+01 0.00000E+00
 -1      3602 1.20885E+02 1.40181E+01 0.00000E+00
 -1      3603 1.26135E+02 1.27191E+01 0.00000E+00
 -1      3604 1.24635E+02 1.27191E+01 0.00000E+00
 -1      3605 1.23885E+02 1.40181E+01 0.00000E+00
 -1      3606 1.29135E+02 1.27191E+01 0.00000E+00
 -1      3607 1.27635E+02 1.27191E+01 0.00000E+00
 -1      3608 1.26885E+02 1.40181E+01 0.00000E+00
 -1      3609 1.32135E+02 1.27191E+01 0.00000E+00
 -1      3610 1.30635E+02 1.27191E+01 0.00000E+00
 -1      3611 1.29885E+02 1.40181E+01 0.00000E+00
 -1      3612 1.35135E+02 1.27191E+01 0.00000E+00
 -1      3613 1.33635E+02 1.27191E+01 0.00000E+00
 -1      3614 1.32885E+02 1.40181E+01 0.00000E+00
 -1      3615 5.36957E+01 1.80192E+01 0.00000E+00
 -1      3616 5.35494E+01 1.94621E+01 0.00000E+00
 -1      3617 5.45895E+01 1.99635E+01 0.00000E+00
 -1      3618 1.38505E+02 1.43555E+01 0.00000E+00
 -1      3619 1.38552E+02 1.30677E+01 0.00000E+00
 -1      3620 1.37598E+02 1.28854E+01 0.00000E+00
 -1      3621 1.37206E+02 1.50868E+01 0.00000E+00
 -1      3622 2.59653E+01 3.21375E+01 0.00000E+00
 -1      3623 2.52401E+01 3.05792E+01 0.00000E+00
 -1      3624 3.50593E+01 3.53903E+01 0.00000E+00
 -1      3625 2.35117E+01 1.34625E+01 0.00000E+00
 -1      3626 2.36488E+01 2.52743E+01 0.00000E+00
 -1      3627 2.36699E+01 2.38887E+01 0.00000E+00
 -1      3628 2.33777E+01 1.67679E+01 0.00000E+00
 -1      3629 2.38628E+01 1.54550E+01 0.00000E+00
 -1      3630 6.31350E+01 1.27191E+01 0.00000E+00
 -1      3631 6.16350E+01 1.27191E+01 0.00000E+00
 -1      3632 6.38850E+01 1.40181E+01 0.00000E+00
 -1      3633 1.28805E+01 3.56145E+01 0.00000E+00
 -1      3634 2.23861E+01 1.37927E+01 0.00000E+00
 -1      3635 1.16910E+01 2.71844E+01 0.00000E+00
 -1      3636 1.16910E+01 2.86531E+01 0.00000E+00
 -1      3637 1.29900E+01 2.93875E+01 0.00000E+00
 -1      3638 1.48200E+01 3.54019E+01 0.00000E+00
 -1      3639 4.64775E+01 3.56330E+01 0.00000E+00
 -1      3640 4.95425E+01 3.15704E+01 0.00000E+00
 -1      3641 5.06865E+01 3.22826E+01 0.00000E+00
 -1      3642 5.00060E+01 3.36998E+01 0.00000E+00
 -1      3643 2.28787E+01 1.95921E+01 0.00000E+00
 -1      3644 2.30142E+01 1.82991E+01 0.00000E+00
 -1      3645 4.79775E+01 3.56330E+01 0.00000E+00
 -1      3646 1.48763E+01 1.22006E+01 0.00000E+00
 -1      3647 1.44900E+01 1.32000E+01 0.00000E+00
 -1      3648 1.63762E+01 1.22006E+01 0.00000E+00
 -1      3649 5.44595E+01 1.31185E+01 0.00000E+00
 -1      3650 5.29595E+01 1.31185E+01 0.00000E+00
 -1      3651 5.14839E+01 1.27701E+01 0.00000E+00
 -1      3652 1.42800E+01 3.32139E+01 0.00000E+00
 -1      3653 1.61100E+01 3.48221E+01 0.00000E+00
 -1      3654 1.68600E+01 3.35231E+01 0.00000E+00
 -1      3655 1.42800E+01 3.17452E+01 0.00000E+00
 -1      3656 2.75518E+01 3.58785E+01 0.00000E+00
 -1      3657 2.83021E+01 3.49904E+01 0.00000E+00
 -1      3658 2.68555E+01 3.36155E+01 0.00000E+00
 -1      3659 2.60518E+01 3.58785E+01 0.00000E+00
 -1      3660 1.44900E+01 1.46687E+01 0.00000E+00
 -1      3661 1.35711E+02 1.84000E+01 0.00000E+00
 -1      3662 1.35711E+02 1.69250E+01 0.00000E+00
 -1      3663 5.46597E+01 2.26072E+01 0.00000E+00
 -1      3664 5.38437E+01 2.34241E+01 0.00000E+00
 -1      3665 5.40603E+01 2.46249E+01 0.00000E+00
 -1      3666 1.42890E+01 1.98172E+01 0.00000E+00
 -1      3667 1.42890E+01 2.12891E+01 0.00000E+00
 -1      3668 1.35711E+02 3.01500E+01 0.00000E+00
 -1      3669 1.35711E+02 2.86875E+01 0.00000E+00
 -1      3670 1.34412E+02 3.08875E+01 0.00000E+00
 -1      3671 2.53018E+01 3.45795E+01 0.00000E+00
 -1      3672 5.43848E+01 1.66688E+01 0.00000E+00
 -1      3673 2.55635E+01 3.32690E+01 0.00000E+00
 -1      3674 1.34398E+02 1.58403E+01 0.00000E+00
 -1      3675 1.35697E+02 1.51028E+01 0.00000E+00
 -1      3676 6.08850E+01 1.40181E+01 0.00000E+00
 -1      3677 1.34022E+02 3.59901E+01 0.00000E+00
 -1      3678 1.35329E+02 3.61011E+01 0.00000E+00
 -1      3679 1.35515E+02 3.52494E+01 0.00000E+00
 -1      3680 1.33272E+02 3.46911E+01 0.00000E+00
 -1      3681 5.71350E+01 1.27191E+01 0.00000E+00
 -1      3682 5.56350E+01 1.27191E+01 0.00000E+00
 -1      3683 1.36643E+02 1.27031E+01 0.00000E+00
 -1      3684 2.29378E+01 2.31944E+01 0.00000E+00
 -1      3685 1.35893E+02 1.40021E+01 0.00000E+00
 -1      3686 2.22889E+01 2.10771E+01 0.00000E+00
 -1      3687 2.25838E+01 2.03346E+01 0.00000E+00
 -1      3688 2.17153E+01 1.95900E+01 0.00000E+00
 -1      3689 1.35711E+02 2.42891E+01 0.00000E+00
 -1      3690 1.35711E+02 2.28172E+01 0.00000E+00
 -1      3691 1.55880E+01 2.20281E+01 0.00000E+00
 -1      3692 1.42890E+01 2.27641E+01 0.00000E+00
 -1      3693 1.42890E+01 2.42391E+01 0.00000E+00
 -1      3694 2.23738E+01 1.73164E+01 0.00000E+00
 -1      3695 2.38098E+01 3.11435E+01 0.00000E+00
 -1      3696 2.43766E+01 2.99318E+01 0.00000E+00
 -1      3697 2.35130E+01 2.92844E+01 0.00000E+00
 -1      3698 1.29900E+01 2.64469E+01 0.00000E+00
 -1      3699 2.33990E+01 2.63199E+01 0.00000E+00
 -1      3700 2.24683E+01 2.56128E+01 0.00000E+00
 -1      3701 2.31491E+01 2.73656E+01 0.00000E+00
 -1      3702 2.10680E+01 1.36429E+01 0.00000E+00
 -1      3703 1.97499E+01 1.34932E+01 0.00000E+00
 -1      3704 2.14192E+01 1.56354E+01 0.00000E+00
 -1      3705 5.78850E+01 1.40181E+01 0.00000E+00
 -1      3706 5.26277E+01 2.72195E+01 0.00000E+00
 -1      3707 5.30352E+01 2.83417E+01 0.00000E+00
 -1      3708 5.36518E+01 2.65640E+01 0.00000E+00
 -1      3709 4.92560E+01 3.49988E+01 0.00000E+00
 -1      3710 1.35702E+02 3.43976E+01 0.00000E+00
 -1      3711 5.16517E+01 3.09289E+01 0.00000E+00
 -1      3712 5.21153E+01 3.30583E+01 0.00000E+00
 -1      3713 5.36153E+01 3.30583E+01 0.00000E+00
 -1      3714 5.25458E+01 3.03509E+01 0.00000E+00
 -1      3715 1.34403E+02 3.36601E+01 0.00000E+00
 -1      3716 5.52095E+01 1.44175E+01 0.00000E+00
 -1      3717 1.35711E+02 2.72195E+01 0.00000E+00
 -1      3718 1.35711E+02 2.57570E+01 0.00000E+00
 -1      3719 1.34412E+02 2.50211E+01 0.00000E+00
 -1      3720 1.34412E+02 2.79570E+01 0.00000E+00
 -1      3721 1.35711E+02 1.98719E+01 0.00000E+00
 -1      3722 1.34412E+02 1.91344E+01 0.00000E+00
 -1      3723 1.35711E+02 2.13438E+01 0.00000E+00
 -1      3724 7.06350E+01 1.53171E+01 0.00000E+00
 -1      3725 6.91350E+01 1.53171E+01 0.00000E+00
 -1      3726 1.42890E+01 1.83453E+01 0.00000E+00
 -1      3727 1.55880E+01 1.90812E+01 0.00000E+00
 -1      3728 1.42890E+01 1.68734E+01 0.00000E+00
 -1      3729 1.32912E+02 1.76625E+01 0.00000E+00
 -1      3730 1.32898E+02 1.58403E+01 0.00000E+00
 -1      3731 1.31398E+02 1.58403E+01 0.00000E+00
 -1      3732 6.16350E+01 1.53171E+01 0.00000E+00
 -1      3733 6.01350E+01 1.53171E+01 0.00000E+00
 -1      3734 5.51153E+01 3.30583E+01 0.00000E+00
 -1      3735 5.66153E+01 3.30583E+01 0.00000E+00
 -1      3736 5.45805E+01 3.17046E+01 0.00000E+00
 -1      3737 5.81153E+01 3.30583E+01 0.00000E+00
 -1      3738 5.96153E+01 3.30583E+01 0.00000E+00
 -1      3739 5.75805E+01 3.17046E+01 0.00000E+00
 -1      3740 6.11153E+01 3.30583E+01 0.00000E+00
 -1      3741 6.26153E+01 3.30583E+01 0.00000E+00
 -1      3742 6.05805E+01 3.17046E+01 0.00000E+00
 -1      3743 6.41153E+01 3.30583E+01 0.00000E+00
 -1      3744 6.56153E+01 3.30583E+01 0.00000E+00
 -1      3745 6.35805E+01 3.17046E+01 0.00000E+00
 -1      3746 6.71153E+01 3.30583E+01 0.00000E+00
 -1      3747 6.86153E+01 3.30583E+01 0.00000E+00
 -1      3748 6.65805E+01 3.17046E+01 0.00000E+00
 -1      3749 7.01153E+01 3.30583E+01 0.00000E+00
 -1      3750 7.16153E+01 3.30583E+01 0.00000E+00
 -1      3751 6.95805E+01 3.17046E+01 0.00000E+00
 -1      3752 7.31153E+01 3.30583E+01 0.00000E+00
 -1      3753 7.46153E+01 3.30583E+01 0.00000E+00
 -1      3754 7.25805E+01 3.17046E+01 0.00000E+00
 -1      3755 7.61153E+01 3.30583E+01 0.00000E+00
 -1      3756 7.76153E+01 3.30583E+01 0.00000E+00
 -1      3757 7.55805E+01 3.17046E+01 0.00000E+00
 -1      3758 7.91153E+01 3.30583E+01 0.00000E+00
 -1      3759 8.06153E+01 3.30583E+01 0.00000E+00
 -1      3760 7.85805E+01 3.17046E+01 0.00000E+00
 -1      3761 8.21153E+01 3.30583E+01 0.00000E+00
 -1      3762 8.36153E+01 3.30583E+01 0.00000E+00
 -1      3763 8.15805E+01 3.17046E+01 0.00000E+00
 -1      3764 8.51153E+01 3.30583E+01 0.00000E+00
 -1      3765 8.66153E+01 3.30583E+01 0.00000E+00
 -1      3766 8.45805E+01 3.17046E+01 0.00000E+00
 -1      3767 8.81153E+01 3.30583E+01 0.00000E+00
 -1      3768 8.96153E+01 3.30583E+01 0.00000E+00
 -1      3769 8.75805E+01 3.17046E+01 0.00000E+00
 -1      3770 9.11153E+01 3.30583E+01 0.00000E+00
 -1      3771 9.26153E+01 3.30583E+01 0.00000E+00
 -1      3772 9.05805E+01 3.17046E+01 0.00000E+00
 -1      3773 9.41153E+01 3.30583E+01 0.00000E+00
 -1      3774 9.56153E+01 3.30583E+01 0.00000E+00
 -1      3775 9.35805E+01 3.17046E+01 0.00000E+00
 -1      3776 9.71153E+01 3.30583E+01 0.00000E+00
 -1      3777 9.86153E+01 3.30583E+01 0.00000E+00
 -1      3778 9.65805E+01 3.17046E+01 0.00000E+00
 -1      3779 1.00115E+02 3.30583E+01 0.00000E+00
 -1      3780 1.01615E+02 3.30583E+01 0.00000E+00
 -1      3781 9.95805E+01 3.17046E+01 0.00000E+00
 -1      3782 1.03115E+02 3.30583E+01 0.00000E+00
 -1      3783 1.04615E+02 3.30583E+01 0.00000E+00
 -1      3784 1.02581E+02 3.17046E+01 0.00000E+00
 -1      3785 1.06115E+02 3.30583E+01 0.00000E+00
 -1      3786 1.07615E+02 3.30583E+01 0.00000E+00
 -1      3787 1.05581E+02 3.17046E+01 0.00000E+00
 -1      3788 1.09115E+02 3.30583E+01 0.00000E+00
 -1      3789 1.10615E+02 3.30583E+01 0.00000E+00
 -1      3790 1.08581E+02 3.17046E+01 0.00000E+00
 -1      3791 1.12115E+02 3.30583E+01 0.00000E+00
 -1      3792 1.13615E+02 3.30583E+01 0.00000E+00
 -1      3793 1.11581E+02 3.17046E+01 0.00000E+00
 -1      3794 1.15115E+02 3.30583E+01 0.00000E+00
 -1      3795 1.16615E+02 3.30583E+01 0.00000E+00
 -1      3796 1.14581E+02 3.17046E+01 0.00000E+00
 -1      3797 1.18115E+02 3.30583E+01 0.00000E+00
 -1      3798 1.19615E+02 3.30583E+01 0.00000E+00
 -1      3799 1.17581E+02 3.17046E+01 0.00000E+00
 -1      3800 1.21115E+02 3.30583E+01 0.00000E+00
 -1      3801 1.22615E+02 3.30583E+01 0.00000E+00
 -1      3802 1.20581E+02 3.17046E+01 0.00000E+00
 -1      3803 1.24115E+02 3.30583E+01 0.00000E+00
 -1      3804 1.25615E+02 3.30583E+01 0.00000E+00
 -1      3805 1.23581E+02 3.17046E+01 0.00000E+00
 -1      3806 1.27115E+02 3.30583E+01 0.00000E+00
 -1      3807 1.28615E+02 3.30583E+01 0.00000E+00
 -1      3808 1.26581E+02 3.17046E+01 0.00000E+00
 -1      3809 1.30115E+02 3.30583E+01 0.00000E+00
 -1      3810 1.31615E+02 3.30583E+01 0.00000E+00
 -1      3811 1.29581E+02 3.17046E+01 0.00000E+00
 -1      3812 1.33281E+02 3.33810E+01 0.00000E+00
 -1      3813 2.44117E+01 3.31015E+01 0.00000E+00
 -1      3814 7.36350E+01 1.53171E+01 0.00000E+00
 -1      3815 7.21350E+01 1.53171E+01 0.00000E+00
 -1      3816 7.13850E+01 1.66161E+01 0.00000E+00
 -1      3817 2.30991E+01 3.34330E+01 0.00000E+00
 -1      3818 2.33607E+01 3.21225E+01 0.00000E+00
 -1      3819 2.24972E+01 3.14751E+01 0.00000E+00
 -1      3820 2.15991E+01 3.34330E+01 0.00000E+00
 -1      3821 6.76350E+01 1.53171E+01 0.00000E+00
 -1      3822 6.61350E+01 1.53171E+01 0.00000E+00
 -1      3823 6.83850E+01 1.66161E+01 0.00000E+00
 -1      3824 7.66350E+01 1.53171E+01 0.00000E+00
 -1      3825 7.51350E+01 1.53171E+01 0.00000E+00
 -1      3826 7.43850E+01 1.66161E+01 0.00000E+00
 -1      3827 7.96350E+01 1.53171E+01 0.00000E+00
 -1      3828 7.81350E+01 1.53171E+01 0.00000E+00
 -1      3829 7.73850E+01 1.66161E+01 0.00000E+00
 -1      3830 8.26350E+01 1.53171E+01 0.00000E+00
 -1      3831 8.11350E+01 1.53171E+01 0.00000E+00
 -1      3832 8.03850E+01 1.66161E+01 0.00000E+00
 -1      3833 8.56350E+01 1.53171E+01 0.00000E+00
 -1      3834 8.41350E+01 1.53171E+01 0.00000E+00
 -1      3835 8.33850E+01 1.66161E+01 0.00000E+00
 -1      3836 8.86350E+01 1.53171E+01 0.00000E+00
 -1      3837 8.71350E+01 1.53171E+01 0.00000E+00
 -1      3838 8.63850E+01 1.66161E+01 0.00000E+00
 -1      3839 9.16350E+01 1.53171E+01 0.00000E+00
 -1      3840 9.01350E+01 1.53171E+01 0.00000E+00
 -1      3841 8.93850E+01 1.66161E+01 0.00000E+00
 -1      3842 9.46350E+01 1.53171E+01 0.00000E+00
 -1      3843 9.31350E+01 1.53171E+01 0.00000E+00
 -1      3844 9.23850E+01 1.66161E+01 0.00000E+00
 -1      3845 9.76350E+01 1.53171E+01 0.00000E+00
 -1      3846 9.61350E+01 1.53171E+01 0.00000E+00
 -1      3847 9.53850E+01 1.66161E+01 0.00000E+00
 -1      3848 1.00635E+02 1.53171E+01 0.00000E+00
 -1      3849 9.91350E+01 1.53171E+01 0.00000E+00
 -1      3850 9.83850E+01 1.66161E+01 0.00000E+00
 -1      3851 1.03635E+02 1.53171E+01 0.00000E+00
 -1      3852 1.02135E+02 1.53171E+01 0.00000E+00
 -1      3853 1.01385E+02 1.66161E+01 0.00000E+00
 -1      3854 1.06635E+02 1.53171E+01 0.00000E+00
 -1      3855 1.05135E+02 1.53171E+01 0.00000E+00
 -1      3856 1.04385E+02 1.66161E+01 0.00000E+00
 -1      3857 1.09635E+02 1.53171E+01 0.00000E+00
 -1      3858 1.08135E+02 1.53171E+01 0.00000E+00
 -1      3859 1.07385E+02 1.66161E+01 0.00000E+00
 -1      3860 1.12635E+02 1.53171E+01 0.00000E+00
 -1      3861 1.11135E+02 1.53171E+01 0.00000E+00
 -1      3862 1.10385E+02 1.66161E+01 0.00000E+00
 -1      3863 1.15635E+02 1.53171E+01 0.00000E+00
 -1      3864 1.14135E+02 1.53171E+01 0.00000E+00
 -1      3865 1.13385E+02 1.66161E+01 0.00000E+00
 -1      3866 1.18635E+02 1.53171E+01 0.00000E+00
 -1      3867 1.17135E+02 1.53171E+01 0.00000E+00
 -1      3868 1.16385E+02 1.66161E+01 0.00000E+00
 -1      3869 1.21635E+02 1.53171E+01 0.00000E+00
 -1      3870 1.20135E+02 1.53171E+01 0.00000E+00
 -1      3871 1.19385E+02 1.66161E+01 0.00000E+00
 -1      3872 1.24635E+02 1.53171E+01 0.00000E+00
 -1      3873 1.23135E+02 1.53171E+01 0.00000E+00
 -1      3874 1.22385E+02 1.66161E+01 0.00000E+00
 -1      3875 1.27635E+02 1.53171E+01 0.00000E+00
 -1      3876 1.26135E+02 1.53171E+01 0.00000E+00
 -1      3877 1.25385E+02 1.66161E+01 0.00000E+00
 -1      3878 1.30267E+02 1.55787E+01 0.00000E+00
 -1      3879 1.28767E+02 1.55787E+01 0.00000E+00
 -1      3880 1.28017E+02 1.68777E+01 0.00000E+00
 -1      3881 1.30280E+02 1.74009E+01 0.00000E+00
 -1      3882 5.57659E+01 1.93539E+01 0.00000E+00
 -1      3883 5.56196E+01 2.07968E+01 0.00000E+00
 -1      3884 1.42800E+01 2.88077E+01 0.00000E+00
 -1      3885 1.42800E+01 3.02764E+01 0.00000E+00
 -1      3886 1.55700E+01 3.11654E+01 0.00000E+00
 -1      3887 6.46350E+01 1.53171E+01 0.00000E+00
 -1      3888 6.31350E+01 1.53171E+01 0.00000E+00
 -1      3889 6.53850E+01 1.66161E+01 0.00000E+00
 -1      3890 1.42890E+01 2.57109E+01 0.00000E+00
 -1      3891 1.42890E+01 2.71828E+01 0.00000E+00
 -1      3892 1.55880E+01 2.49750E+01 0.00000E+00
 -1      3893 5.67227E+01 1.51437E+01 0.00000E+00
 -1      3894 5.55472E+01 1.55431E+01 0.00000E+00
 -1      3895 5.58980E+01 1.73950E+01 0.00000E+00
 -1      3896 5.82227E+01 1.51437E+01 0.00000E+00
 -1      3897 1.34412E+02 2.20797E+01 0.00000E+00
 -1      3898 1.85991E+01 3.34330E+01 0.00000E+00
 -1      3899 2.00991E+01 3.34330E+01 0.00000E+00
 -1      3900 2.05481E+01 3.24540E+01 0.00000E+00
 -1      3901 1.87221E+01 1.29218E+01 0.00000E+00
 -1      3902 1.74040E+01 1.27720E+01 0.00000E+00
 -1      3903 1.70178E+01 1.37714E+01 0.00000E+00
 -1      3904 1.90733E+01 1.49142E+01 0.00000E+00
 -1      3905 1.57890E+01 1.54047E+01 0.00000E+00
 -1      3906 2.18496E+01 2.38226E+01 0.00000E+00
 -1      3907 2.20693E+01 2.24498E+01 0.00000E+00
 -1      3908 2.12008E+01 2.17052E+01 0.00000E+00
 -1      3909 2.10557E+01 1.71666E+01 0.00000E+00
 -1      3910 1.32746E+02 3.20273E+01 0.00000E+00
 -1      3911 5.52838E+01 2.49303E+01 0.00000E+00
 -1      3912 5.44678E+01 2.57471E+01 0.00000E+00
 -1      3913 5.48753E+01 2.68694E+01 0.00000E+00
 -1      3914 1.68645E+01 1.83453E+01 0.00000E+00
 -1      3915 1.68645E+01 1.98172E+01 0.00000E+00
 -1      3916 1.32912E+02 1.91344E+01 0.00000E+00
 -1      3917 5.58361E+01 2.19976E+01 0.00000E+00
 -1      3918 5.60526E+01 2.31985E+01 0.00000E+00
 -1      3919 5.70125E+01 2.13880E+01 0.00000E+00
 -1      3920 1.55790E+01 2.80718E+01 0.00000E+00
 -1      3921 6.23850E+01 1.66161E+01 0.00000E+00
 -1      3922 1.33113E+02 2.57551E+01 0.00000E+00
 -1      3923 1.33113E+02 2.42871E+01 0.00000E+00
 -1      3924 1.68168E+01 1.59761E+01 0.00000E+00
 -1      3925 5.69282E+01 1.82282E+01 0.00000E+00
 -1      3926 5.89727E+01 1.64427E+01 0.00000E+00
 -1      3927 1.68645E+01 2.12922E+01 0.00000E+00
 -1      3928 1.68645E+01 2.27672E+01 0.00000E+00
 -1      3929 1.81410E+01 2.05562E+01 0.00000E+00
 -1      3930 2.00756E+01 1.89644E+01 0.00000E+00
 -1      3931 1.91210E+01 1.72834E+01 0.00000E+00
 -1      3932 2.25824E+01 2.85773E+01 0.00000E+00
 -1      3933 2.16517E+01 2.78701E+01 0.00000E+00
 -1      3934 2.20156E+01 2.97889E+01 0.00000E+00
 -1      3935 1.32746E+02 3.05648E+01 0.00000E+00
 -1      3936 2.13500E+01 2.59138E+01 0.00000E+00
 -1      3937 2.15998E+01 2.48682E+01 0.00000E+00
 -1      3938 2.07313E+01 2.41236E+01 0.00000E+00
 -1      3939 1.33113E+02 2.28137E+01 0.00000E+00
 -1      3940 1.33113E+02 2.13402E+01 0.00000E+00
 -1      3941 1.31814E+02 2.35477E+01 0.00000E+00
 -1      3942 1.73091E+01 3.25441E+01 0.00000E+00
 -1      3943 5.35405E+01 2.93463E+01 0.00000E+00
 -1      3944 5.40752E+01 3.07000E+01 0.00000E+00
 -1      3945 5.55752E+01 3.07000E+01 0.00000E+00
 -1      3946 5.45646E+01 2.86908E+01 0.00000E+00
 -1      3947 2.00756E+01 2.04394E+01 0.00000E+00
 -1      3948 2.10573E+01 3.16110E+01 0.00000E+00
 -1      3949 2.15064E+01 3.06320E+01 0.00000E+00
 -1      3950 2.05757E+01 2.99249E+01 0.00000E+00
 -1      3951 1.95573E+01 3.16110E+01 0.00000E+00
 -1      3952 1.80932E+01 1.67120E+01 0.00000E+00
 -1      3953 1.31613E+02 1.98684E+01 0.00000E+00
 -1      3954 1.33113E+02 2.72230E+01 0.00000E+00
 -1      3955 1.31814E+02 2.64891E+01 0.00000E+00
 -1      3956 1.33113E+02 2.86910E+01 0.00000E+00
 -1      3957 5.70752E+01 3.07000E+01 0.00000E+00
 -1      3958 5.85752E+01 3.07000E+01 0.00000E+00
 -1      3959 5.65699E+01 2.96954E+01 0.00000E+00
 -1      3960 6.00752E+01 3.07000E+01 0.00000E+00
 -1      3961 6.15752E+01 3.07000E+01 0.00000E+00
 -1      3962 5.95699E+01 2.96954E+01 0.00000E+00
 -1      3963 6.30752E+01 3.07000E+01 0.00000E+00
 -1      3964 6.45752E+01 3.07000E+01 0.00000E+00
 -1      3965 6.25699E+01 2.96954E+01 0.00000E+00
 -1      3966 6.60752E+01 3.07000E+01 0.00000E+00
 -1      3967 6.75752E+01 3.07000E+01 0.00000E+00
 -1      3968 6.55699E+01 2.96954E+01 0.00000E+00
 -1      3969 6.90752E+01 3.07000E+01 0.00000E+00
 -1      3970 7.05752E+01 3.07000E+01 0.00000E+00
 -1      3971 6.85699E+01 2.96954E+01 0.00000E+00
 -1      3972 7.20752E+01 3.07000E+01 0.00000E+00
 -1      3973 7.35752E+01 3.07000E+01 0.00000E+00
 -1      3974 7.15699E+01 2.96954E+01 0.00000E+00
 -1      3975 7.50752E+01 3.07000E+01 0.00000E+00
 -1      3976 7.65752E+01 3.07000E+01 0.00000E+00
 -1      3977 7.45699E+01 2.96954E+01 0.00000E+00
 -1      3978 7.80752E+01 3.07000E+01 0.00000E+00
 -1      3979 7.95752E+01 3.07000E+01 0.00000E+00
 -1      3980 7.75699E+01 2.96954E+01 0.00000E+00
 -1      3981 8.10752E+01 3.07000E+01 0.00000E+00
 -1      3982 8.25752E+01 3.07000E+01 0.00000E+00
 -1      3983 8.05699E+01 2.96954E+01 0.00000E+00
 -1      3984 8.40752E+01 3.07000E+01 0.00000E+00
 -1      3985 8.55752E+01 3.07000E+01 0.00000E+00
 -1      3986 8.35699E+01 2.96954E+01 0.00000E+00
 -1      3987 8.70752E+01 3.07000E+01 0.00000E+00
 -1      3988 8.85752E+01 3.07000E+01 0.00000E+00
 -1      3989 8.65699E+01 2.96954E+01 0.00000E+00
 -1      3990 9.00752E+01 3.07000E+01 0.00000E+00
 -1      3991 9.15752E+01 3.07000E+01 0.00000E+00
 -1      3992 8.95699E+01 2.96954E+01 0.00000E+00
 -1      3993 9.30752E+01 3.07000E+01 0.00000E+00
 -1      3994 9.45752E+01 3.07000E+01 0.00000E+00
 -1      3995 9.25699E+01 2.96954E+01 0.00000E+00
 -1      3996 9.60752E+01 3.07000E+01 0.00000E+00
 -1      3997 9.75752E+01 3.07000E+01 0.00000E+00
 -1      3998 9.55699E+01 2.96954E+01 0.00000E+00
 -1      3999 9.90752E+01 3.07000E+01 0.00000E+00
 -1      4000 1.00575E+02 3.07000E+01 0.00000E+00
 -1      4001 9.85699E+01 2.96954E+01 0.00000E+00
 -1      4002 1.02075E+02 3.07000E+01 0.00000E+00
 -1      4003 1.03575E+02 3.07000E+01 0.00000E+00
 -1      4004 1.01570E+02 2.96954E+01 0.00000E+00
 -1      4005 1.05075E+02 3.07000E+01 0.00000E+00
 -1      4006 1.06575E+02 3.07000E+01 0.00000E+00
 -1      4007 1.04570E+02 2.96954E+01 0.00000E+00
 -1      4008 1.08075E+02 3.07000E+01 0.00000E+00
 -1      4009 1.09575E+02 3.07000E+01 0.00000E+00
 -1      4010 1.07570E+02 2.96954E+01 0.00000E+00
 -1      4011 1.11075E+02 3.07000E+01 0.00000E+00
 -1      4012 1.12575E+02 3.07000E+01 0.00000E+00
 -1      4013 1.10570E+02 2.96954E+01 0.00000E+00
 -1      4014 1.14075E+02 3.07000E+01 0.00000E+00
 -1      4015 1.15575E+02 3.07000E+01 0.00000E+00
 -1      4016 1.13570E+02 2.96954E+01 0.00000E+00
 -1      4017 1.17075E+02 3.07000E+01 0.00000E+00
 -1      4018 1.18575E+02 3.07000E+01 0.00000E+00
 -1      4019 1.16570E+02 2.96954E+01 0.00000E+00
 -1      4020 1.20075E+02 3.07000E+01 0.00000E+00
 -1      4021 1.21575E+02 3.07000E+01 0.00000E+00
 -1      4022 1.19570E+02 2.96954E+01 0.00000E+00
 -1      4023 1.23075E+02 3.07000E+01 0.00000E+00
 -1      4024 1.24575E+02 3.07000E+01 0.00000E+00
 -1      4025 1.22570E+02 2.96954E+01 0.00000E+00
 -1      4026 1.26075E+02 3.07000E+01 0.00000E+00
 -1      4027 1.27575E+02 3.07000E+01 0.00000E+00
 -1      4028 1.25570E+02 2.96954E+01 0.00000E+00
 -1      4029 7.81350E+01 1.79151E+01 0.00000E+00
 -1      4030 7.66350E+01 1.79151E+01 0.00000E+00
 -1      4031 8.11350E+01 1.79151E+01 0.00000E+00
 -1      4032 7.96350E+01 1.79151E+01 0.00000E+00
 -1      4033 7.88850E+01 1.92141E+01 0.00000E+00
 -1      4034 8.41350E+01 1.79151E+01 0.00000E+00
 -1      4035 8.26350E+01 1.79151E+01 0.00000E+00
 -1      4036 8.18850E+01 1.92141E+01 0.00000E+00
 -1      4037 8.71350E+01 1.79151E+01 0.00000E+00
 -1      4038 8.56350E+01 1.79151E+01 0.00000E+00
 -1      4039 8.48850E+01 1.92141E+01 0.00000E+00
 -1      4040 9.01350E+01 1.79151E+01 0.00000E+00
 -1      4041 8.86350E+01 1.79151E+01 0.00000E+00
 -1      4042 8.78850E+01 1.92141E+01 0.00000E+00
 -1      4043 9.31350E+01 1.79151E+01 0.00000E+00
 -1      4044 9.16350E+01 1.79151E+01 0.00000E+00
 -1      4045 9.08850E+01 1.92141E+01 0.00000E+00
 -1      4046 9.61350E+01 1.79151E+01 0.00000E+00
 -1      4047 9.46350E+01 1.79151E+01 0.00000E+00
 -1      4048 9.38850E+01 1.92141E+01 0.00000E+00
 -1      4049 9.91350E+01 1.79151E+01 0.00000E+00
 -1      4050 9.76350E+01 1.79151E+01 0.00000E+00
 -1      4051 9.68850E+01 1.92141E+01 0.00000E+00
 -1      4052 1.02135E+02 1.79151E+01 0.00000E+00
 -1      4053 1.00635E+02 1.79151E+01 0.00000E+00
 -1      4054 9.98850E+01 1.92141E+01 0.00000E+00
 -1      4055 1.05135E+02 1.79151E+01 0.00000E+00
 -1      4056 1.03635E+02 1.79151E+01 0.00000E+00
 -1      4057 1.02885E+02 1.92141E+01 0.00000E+00
 -1      4058 1.08135E+02 1.79151E+01 0.00000E+00
 -1      4059 1.06635E+02 1.79151E+01 0.00000E+00
 -1      4060 1.05885E+02 1.92141E+01 0.00000E+00
 -1      4061 1.11135E+02 1.79151E+01 0.00000E+00
 -1      4062 1.09635E+02 1.79151E+01 0.00000E+00
 -1      4063 1.08885E+02 1.92141E+01 0.00000E+00
 -1      4064 1.14135E+02 1.79151E+01 0.00000E+00
 -1      4065 1.12635E+02 1.79151E+01 0.00000E+00
 -1      4066 1.11885E+02 1.92141E+01 0.00000E+00
 -1      4067 1.17135E+02 1.79151E+01 0.00000E+00
 -1      4068 1.15635E+02 1.79151E+01 0.00000E+00
 -1      4069 1.14885E+02 1.92141E+01 0.00000E+00
 -1      4070 1.20135E+02 1.79151E+01 0.00000E+00
 -1      4071 1.18635E+02 1.79151E+01 0.00000E+00
 -1      4072 1.17885E+02 1.92141E+01 0.00000E+00
 -1      4073 1.23135E+02 1.79151E+01 0.00000E+00
 -1      4074 1.21635E+02 1.79151E+01 0.00000E+00
 -1      4075 1.20885E+02 1.92141E+01 0.00000E+00
 -1      4076 1.26135E+02 1.79151E+01 0.00000E+00
 -1      4077 1.24635E+02 1.79151E+01 0.00000E+00
 -1      4078 1.23885E+02 1.92141E+01 0.00000E+00
 -1      4079 6.31350E+01 1.79151E+01 0.00000E+00
 -1      4080 6.16350E+01 1.79151E+01 0.00000E+00
 -1      4081 1.73091E+01 3.10753E+01 0.00000E+00
 -1      4082 7.21350E+01 1.79151E+01 0.00000E+00
 -1      4083 7.06350E+01 1.79151E+01 0.00000E+00
 -1      4084 6.02377E+01 1.81583E+01 0.00000E+00
 -1      4085 5.83254E+01 1.79850E+01 0.00000E+00
 -1      4086 5.81932E+01 1.99439E+01 0.00000E+00
 -1      4087 6.09877E+01 1.94573E+01 0.00000E+00
 -1      4088 6.91350E+01 1.79151E+01 0.00000E+00
 -1      4089 6.76350E+01 1.79151E+01 0.00000E+00
 -1      4090 6.98850E+01 1.92141E+01 0.00000E+00
 -1      4091 6.61350E+01 1.79151E+01 0.00000E+00
 -1      4092 6.46350E+01 1.79151E+01 0.00000E+00
 -1      4093 6.68850E+01 1.92141E+01 0.00000E+00
 -1      4094 1.80347E+01 2.43362E+01 0.00000E+00
 -1      4095 1.80347E+01 2.58081E+01 0.00000E+00
 -1      4096 1.31447E+02 2.98308E+01 0.00000E+00
 -1      4097 7.51350E+01 1.79151E+01 0.00000E+00
 -1      4098 7.36350E+01 1.79151E+01 0.00000E+00
 -1      4099 7.28850E+01 1.92141E+01 0.00000E+00
 -1      4100 7.58850E+01 1.92141E+01 0.00000E+00
 -1      4101 5.84098E+01 2.11447E+01 0.00000E+00
 -1      4102 5.64602E+01 2.43207E+01 0.00000E+00
 -1      4103 5.68677E+01 2.54429E+01 0.00000E+00
 -1      4104 5.76366E+01 2.37111E+01 0.00000E+00
 -1      4105 1.30682E+02 2.18126E+01 0.00000E+00
 -1      4106 1.30481E+02 1.96068E+01 0.00000E+00
 -1      4107 1.29350E+02 1.93451E+01 0.00000E+00
 -1      4108 1.28831E+02 3.04056E+01 0.00000E+00
 -1      4109 1.30331E+02 3.04056E+01 0.00000E+00
 -1      4110 1.95863E+01 2.67455E+01 0.00000E+00
 -1      4111 1.71395E+01 2.73843E+01 0.00000E+00
 -1      4112 6.38850E+01 1.92141E+01 0.00000E+00
 -1      4113 1.28308E+02 1.87609E+01 0.00000E+00
 -1      4114 1.27176E+02 1.84993E+01 0.00000E+00
 -1      4115 1.26426E+02 1.97983E+01 0.00000E+00
 -1      4116 1.28509E+02 2.09668E+01 0.00000E+00
 -1      4117 1.30697E+02 2.85318E+01 0.00000E+00
 -1      4118 1.71305E+01 2.90092E+01 0.00000E+00
 -1      4119 1.88696E+01 3.03879E+01 0.00000E+00
 -1      4120 2.04548E+01 2.74901E+01 0.00000E+00
 -1      4121 1.93112E+01 2.36003E+01 0.00000E+00
 -1      4122 1.30682E+02 2.47595E+01 0.00000E+00
 -1      4123 1.30682E+02 2.32860E+01 0.00000E+00
 -1      4124 1.29551E+02 2.30244E+01 0.00000E+00
 -1      4125 5.54700E+01 2.77801E+01 0.00000E+00
 -1      4126 5.59753E+01 2.87847E+01 0.00000E+00
 -1      4127 5.74753E+01 2.87847E+01 0.00000E+00
 -1      4128 5.62860E+01 2.69632E+01 0.00000E+00
 -1      4129 1.28325E+02 2.94010E+01 0.00000E+00
 -1      4130 1.30690E+02 2.73796E+01 0.00000E+00
 -1      4131 1.30690E+02 2.59117E+01 0.00000E+00
 -1      4132 1.29558E+02 2.56501E+01 0.00000E+00
 -1      4133 1.29573E+02 2.79544E+01 0.00000E+00
 -1      4134 8.56350E+01 2.05131E+01 0.00000E+00
 -1      4135 8.41350E+01 2.05131E+01 0.00000E+00
 -1      4136 5.89753E+01 2.87847E+01 0.00000E+00
 -1      4137 6.04753E+01 2.87847E+01 0.00000E+00
 -1      4138 5.83806E+01 2.78740E+01 0.00000E+00
 -1      4139 6.19753E+01 2.87847E+01 0.00000E+00
 -1      4140 6.34753E+01 2.87847E+01 0.00000E+00
 -1      4141 6.13806E+01 2.78740E+01 0.00000E+00
 -1      4142 6.49753E+01 2.87847E+01 0.00000E+00
 -1      4143 6.64753E+01 2.87847E+01 0.00000E+00
 -1      4144 6.43806E+01 2.78740E+01 0.00000E+00
 -1      4145 6.79753E+01 2.87847E+01 0.00000E+00
 -1      4146 6.94753E+01 2.87847E+01 0.00000E+00
 -1      4147 6.73806E+01 2.78740E+01 0.00000E+00
 -1      4148 7.09753E+01 2.87847E+01 0.00000E+00
 -1      4149 7.24753E+01 2.87847E+01 0.00000E+00
 -1      4150 7.03806E+01 2.78740E+01 0.00000E+00
 -1      4151 7.39753E+01 2.87847E+01 0.00000E+00
 -1      4152 7.54753E+01 2.87847E+01 0.00000E+00
 -1      4153 7.33806E+01 2.78740E+01 0.00000E+00
 -1      4154 7.69753E+01 2.87847E+01 0.00000E+00
 -1      4155 7.84753E+01 2.87847E+01 0.00000E+00
 -1      4156 7.63806E+01 2.78740E+01 0.00000E+00
 -1      4157 7.99753E+01 2.87847E+01 0.00000E+00
 -1      4158 8.14753E+01 2.87847E+01 0.00000E+00
 -1      4159 7.93806E+01 2.78740E+01 0.00000E+00
 -1      4160 8.29753E+01 2.87847E+01 0.00000E+00
 -1      4161 8.44753E+01 2.87847E+01 0.00000E+00
 -1      4162 8.23806E+01 2.78740E+01 0.00000E+00
 -1      4163 8.59753E+01 2.87847E+01 0.00000E+00
 -1      4164 8.74753E+01 2.87847E+01 0.00000E+00
 -1      4165 8.53806E+01 2.78740E+01 0.00000E+00
 -1      4166 8.89753E+01 2.87847E+01 0.00000E+00
 -1      4167 9.04753E+01 2.87847E+01 0.00000E+00
 -1      4168 8.83806E+01 2.78740E+01 0.00000E+00
 -1      4169 9.19753E+01 2.87847E+01 0.00000E+00
 -1      4170 9.34753E+01 2.87847E+01 0.00000E+00
 -1      4171 9.13806E+01 2.78740E+01 0.00000E+00
 -1      4172 9.49753E+01 2.87847E+01 0.00000E+00
 -1      4173 9.64753E+01 2.87847E+01 0.00000E+00
 -1      4174 9.43806E+01 2.78740E+01 0.00000E+00
 -1      4175 9.79753E+01 2.87847E+01 0.00000E+00
 -1      4176 9.94753E+01 2.87847E+01 0.00000E+00
 -1      4177 9.73806E+01 2.78740E+01 0.00000E+00
 -1      4178 1.00975E+02 2.87847E+01 0.00000E+00
 -1      4179 1.02475E+02 2.87847E+01 0.00000E+00
 -1      4180 1.00381E+02 2.78740E+01 0.00000E+00
 -1      4181 1.03975E+02 2.87847E+01 0.00000E+00
 -1      4182 1.05475E+02 2.87847E+01 0.00000E+00
 -1      4183 1.03381E+02 2.78740E+01 0.00000E+00
 -1      4184 1.06975E+02 2.87847E+01 0.00000E+00
 -1      4185 1.08475E+02 2.87847E+01 0.00000E+00
 -1      4186 1.06381E+02 2.78740E+01 0.00000E+00
 -1      4187 1.09975E+02 2.87847E+01 0.00000E+00
 -1      4188 1.11475E+02 2.87847E+01 0.00000E+00
 -1      4189 1.09381E+02 2.78740E+01 0.00000E+00
 -1      4190 1.12975E+02 2.87847E+01 0.00000E+00
 -1      4191 1.14475E+02 2.87847E+01 0.00000E+00
 -1      4192 1.12381E+02 2.78740E+01 0.00000E+00
 -1      4193 1.15975E+02 2.87847E+01 0.00000E+00
 -1      4194 1.17475E+02 2.87847E+01 0.00000E+00
 -1      4195 1.15381E+02 2.78740E+01 0.00000E+00
 -1      4196 1.18975E+02 2.87847E+01 0.00000E+00
 -1      4197 1.20475E+02 2.87847E+01 0.00000E+00
 -1      4198 1.18381E+02 2.78740E+01 0.00000E+00
 -1      4199 1.21975E+02 2.87847E+01 0.00000E+00
 -1      4200 1.23475E+02 2.87847E+01 0.00000E+00
 -1      4201 1.21381E+02 2.78740E+01 0.00000E+00
 -1      4202 1.24975E+02 2.87847E+01 0.00000E+00
 -1      4203 1.26475E+02 2.87847E+01 0.00000E+00
 -1      4204 1.24381E+02 2.78740E+01 0.00000E+00
 -1      4205 8.26350E+01 2.05131E+01 0.00000E+00
 -1      4206 8.11350E+01 2.05131E+01 0.00000E+00
 -1      4207 8.33850E+01 2.18121E+01 0.00000E+00
 -1      4208 7.96350E+01 2.05131E+01 0.00000E+00
 -1      4209 7.81350E+01 2.05131E+01 0.00000E+00
 -1      4210 8.03850E+01 2.18121E+01 0.00000E+00
 -1      4211 8.86350E+01 2.05131E+01 0.00000E+00
 -1      4212 8.71350E+01 2.05131E+01 0.00000E+00
 -1      4213 8.63850E+01 2.18121E+01 0.00000E+00
 -1      4214 9.16350E+01 2.05131E+01 0.00000E+00
 -1      4215 9.01350E+01 2.05131E+01 0.00000E+00
 -1      4216 8.93850E+01 2.18121E+01 0.00000E+00
 -1      4217 9.46350E+01 2.05131E+01 0.00000E+00
 -1      4218 9.31350E+01 2.05131E+01 0.00000E+00
 -1      4219 9.23850E+01 2.18121E+01 0.00000E+00
 -1      4220 9.76350E+01 2.05131E+01 0.00000E+00
 -1      4221 9.61350E+01 2.05131E+01 0.00000E+00
 -1      4222 9.53850E+01 2.18121E+01 0.00000E+00
 -1      4223 1.00635E+02 2.05131E+01 0.00000E+00
 -1      4224 9.91350E+01 2.05131E+01 0.00000E+00
 -1      4225 9.83850E+01 2.18121E+01 0.00000E+00
 -1      4226 1.03635E+02 2.05131E+01 0.00000E+00
 -1      4227 1.02135E+02 2.05131E+01 0.00000E+00
 -1      4228 1.01385E+02 2.18121E+01 0.00000E+00
 -1      4229 1.06635E+02 2.05131E+01 0.00000E+00
 -1      4230 1.05135E+02 2.05131E+01 0.00000E+00
 -1      4231 1.04385E+02 2.18121E+01 0.00000E+00
 -1      4232 1.09635E+02 2.05131E+01 0.00000E+00
 -1      4233 1.08135E+02 2.05131E+01 0.00000E+00
 -1      4234 1.07385E+02 2.18121E+01 0.00000E+00
 -1      4235 1.12635E+02 2.05131E+01 0.00000E+00
 -1      4236 1.11135E+02 2.05131E+01 0.00000E+00
 -1      4237 1.10385E+02 2.18121E+01 0.00000E+00
 -1      4238 1.15635E+02 2.05131E+01 0.00000E+00
 -1      4239 1.14135E+02 2.05131E+01 0.00000E+00
 -1      4240 1.13385E+02 2.18121E+01 0.00000E+00
 -1      4241 1.18635E+02 2.05131E+01 0.00000E+00
 -1      4242 1.17135E+02 2.05131E+01 0.00000E+00
 -1      4243 1.16385E+02 2.18121E+01 0.00000E+00
 -1      4244 1.21635E+02 2.05131E+01 0.00000E+00
 -1      4245 1.20135E+02 2.05131E+01 0.00000E+00
 -1      4246 1.19385E+02 2.18121E+01 0.00000E+00
 -1      4247 1.24635E+02 2.05131E+01 0.00000E+00
 -1      4248 1.23135E+02 2.05131E+01 0.00000E+00
 -1      4249 1.22385E+02 2.18121E+01 0.00000E+00
 -1      4250 6.46350E+01 2.05131E+01 0.00000E+00
 -1      4251 6.31350E+01 2.05131E+01 0.00000E+00
 -1      4252 6.17377E+01 2.07563E+01 0.00000E+00
 -1      4253 6.03405E+01 2.09996E+01 0.00000E+00
 -1      4254 6.24877E+01 2.20553E+01 0.00000E+00
 -1      4255 1.95611E+01 2.25546E+01 0.00000E+00
 -1      4256 1.98880E+01 2.87018E+01 0.00000E+00
 -1      4257 6.76350E+01 2.05131E+01 0.00000E+00
 -1      4258 6.61350E+01 2.05131E+01 0.00000E+00
 -1      4259 6.53850E+01 2.18121E+01 0.00000E+00
 -1      4260 1.27396E+02 2.85168E+01 0.00000E+00
 -1      4261 1.28652E+02 2.82224E+01 0.00000E+00
 -1      4262 1.28644E+02 2.70702E+01 0.00000E+00
 -1      4263 1.26802E+02 2.76060E+01 0.00000E+00
 -1      4264 7.06350E+01 2.05131E+01 0.00000E+00
 -1      4265 6.91350E+01 2.05131E+01 0.00000E+00
 -1      4266 6.83850E+01 2.18121E+01 0.00000E+00
 -1      4267 5.91598E+01 2.24437E+01 0.00000E+00
 -1      4268 1.97807E+01 2.11819E+01 0.00000E+00
 -1      4269 7.36350E+01 2.05131E+01 0.00000E+00
 -1      4270 7.21350E+01 2.05131E+01 0.00000E+00
 -1      4271 7.13850E+01 2.18121E+01 0.00000E+00
 -1      4272 5.95673E+01 2.35660E+01 0.00000E+00
 -1      4273 1.25676E+02 2.10973E+01 0.00000E+00
 -1      4274 1.24926E+02 2.23963E+01 0.00000E+00
 -1      4275 1.26718E+02 2.16815E+01 0.00000E+00
 -1      4276 1.28637E+02 2.59180E+01 0.00000E+00
 -1      4277 1.28629E+02 2.47658E+01 0.00000E+00
 -1      4278 1.27716E+02 2.61859E+01 0.00000E+00
 -1      4279 1.93788E+01 2.95449E+01 0.00000E+00
 -1      4280 5.74624E+01 2.63536E+01 0.00000E+00
 -1      4281 7.66350E+01 2.05131E+01 0.00000E+00
 -1      4282 7.51350E+01 2.05131E+01 0.00000E+00
 -1      4283 7.73850E+01 2.18121E+01 0.00000E+00
 -1      4284 6.91350E+01 2.31111E+01 0.00000E+00
 -1      4285 6.76350E+01 2.31111E+01 0.00000E+00
 -1      4286 8.71350E+01 2.31111E+01 0.00000E+00
 -1      4287 8.56350E+01 2.31111E+01 0.00000E+00
 -1      4288 6.06306E+01 2.65750E+01 0.00000E+00
 -1      4289 6.21306E+01 2.65750E+01 0.00000E+00
 -1      4290 6.36306E+01 2.65750E+01 0.00000E+00
 -1      4291 6.51306E+01 2.65750E+01 0.00000E+00
 -1      4292 6.28806E+01 2.52760E+01 0.00000E+00
 -1      4293 6.71328E+01 2.61420E+01 0.00000E+00
 -1      4294 6.86328E+01 2.61420E+01 0.00000E+00
 -1      4295 7.01328E+01 2.61420E+01 0.00000E+00
 -1      4296 7.26306E+01 2.65750E+01 0.00000E+00
 -1      4297 7.41306E+01 2.65750E+01 0.00000E+00
 -1      4298 7.56306E+01 2.65750E+01 0.00000E+00
 -1      4299 7.71306E+01 2.65750E+01 0.00000E+00
 -1      4300 7.48806E+01 2.52760E+01 0.00000E+00
 -1      4301 7.86306E+01 2.65750E+01 0.00000E+00
 -1      4302 8.01306E+01 2.65750E+01 0.00000E+00
 -1      4303 7.78806E+01 2.52760E+01 0.00000E+00
 -1      4304 8.16306E+01 2.65750E+01 0.00000E+00
 -1      4305 8.31306E+01 2.65750E+01 0.00000E+00
 -1      4306 8.08806E+01 2.52760E+01 0.00000E+00
 -1      4307 8.51328E+01 2.61420E+01 0.00000E+00
 -1      4308 8.66328E+01 2.61420E+01 0.00000E+00
 -1      4309 8.81328E+01 2.61420E+01 0.00000E+00
 -1      4310 9.06306E+01 2.65750E+01 0.00000E+00
 -1      4311 9.21306E+01 2.65750E+01 0.00000E+00
 -1      4312 9.36306E+01 2.65750E+01 0.00000E+00
 -1      4313 9.51306E+01 2.65750E+01 0.00000E+00
 -1      4314 9.28806E+01 2.52760E+01 0.00000E+00
 -1      4315 9.66306E+01 2.65750E+01 0.00000E+00
 -1      4316 9.81306E+01 2.65750E+01 0.00000E+00
 -1      4317 9.58806E+01 2.52760E+01 0.00000E+00
 -1      4318 9.96306E+01 2.65750E+01 0.00000E+00
 -1      4319 1.01131E+02 2.65750E+01 0.00000E+00
 -1      4320 9.88806E+01 2.52760E+01 0.00000E+00
 -1      4321 1.02631E+02 2.65750E+01 0.00000E+00
 -1      4322 1.04131E+02 2.65750E+01 0.00000E+00
 -1      4323 1.01881E+02 2.52760E+01 0.00000E+00
 -1      4324 1.05631E+02 2.65750E+01 0.00000E+00
 -1      4325 1.07131E+02 2.65750E+01 0.00000E+00
 -1      4326 1.04881E+02 2.52760E+01 0.00000E+00
 -1      4327 1.08631E+02 2.65750E+01 0.00000E+00
 -1      4328 1.10131E+02 2.65750E+01 0.00000E+00
 -1      4329 1.07881E+02 2.52760E+01 0.00000E+00
 -1      4330 1.11631E+02 2.65750E+01 0.00000E+00
 -1      4331 1.13131E+02 2.65750E+01 0.00000E+00
 -1      4332 1.10881E+02 2.52760E+01 0.00000E+00
 -1      4333 1.14631E+02 2.65750E+01 0.00000E+00
 -1      4334 1.16131E+02 2.65750E+01 0.00000E+00
 -1      4335 1.13881E+02 2.52760E+01 0.00000E+00
 -1      4336 1.17631E+02 2.65750E+01 0.00000E+00
 -1      4337 1.19131E+02 2.65750E+01 0.00000E+00
 -1      4338 1.16881E+02 2.52760E+01 0.00000E+00
 -1      4339 1.20631E+02 2.65750E+01 0.00000E+00
 -1      4340 1.22131E+02 2.65750E+01 0.00000E+00
 -1      4341 1.19881E+02 2.52760E+01 0.00000E+00
 -1      4342 8.36328E+01 2.35440E+01 0.00000E+00
 -1      4343 8.21328E+01 2.35440E+01 0.00000E+00
 -1      4344 8.06328E+01 2.35440E+01 0.00000E+00
 -1      4345 7.91328E+01 2.35440E+01 0.00000E+00
 -1      4346 6.12356E+01 2.37873E+01 0.00000E+00
 -1      4347 5.97124E+01 2.50546E+01 0.00000E+00
 -1      4348 9.26328E+01 2.35440E+01 0.00000E+00
 -1      4349 9.11328E+01 2.35440E+01 0.00000E+00
 -1      4350 9.56328E+01 2.35440E+01 0.00000E+00
 -1      4351 9.41328E+01 2.35440E+01 0.00000E+00
 -1      4352 9.86328E+01 2.35440E+01 0.00000E+00
 -1      4353 9.71328E+01 2.35440E+01 0.00000E+00
 -1      4354 1.01633E+02 2.35440E+01 0.00000E+00
 -1      4355 1.00133E+02 2.35440E+01 0.00000E+00
 -1      4356 1.04633E+02 2.35440E+01 0.00000E+00
 -1      4357 1.03133E+02 2.35440E+01 0.00000E+00
 -1      4358 1.07633E+02 2.35440E+01 0.00000E+00
 -1      4359 1.06133E+02 2.35440E+01 0.00000E+00
 -1      4360 1.10633E+02 2.35440E+01 0.00000E+00
 -1      4361 1.09133E+02 2.35440E+01 0.00000E+00
 -1      4362 1.13633E+02 2.35440E+01 0.00000E+00
 -1      4363 1.12133E+02 2.35440E+01 0.00000E+00
 -1      4364 1.16633E+02 2.35440E+01 0.00000E+00
 -1      4365 1.15133E+02 2.35440E+01 0.00000E+00
 -1      4366 1.19633E+02 2.35440E+01 0.00000E+00
 -1      4367 1.18133E+02 2.35440E+01 0.00000E+00
 -1      4368 1.22633E+02 2.35440E+01 0.00000E+00
 -1      4369 1.21133E+02 2.35440E+01 0.00000E+00
 -1      4370 1.27759E+02 2.22658E+01 0.00000E+00
 -1      4371 1.27759E+02 2.37392E+01 0.00000E+00
 -1      4372 8.96328E+01 2.35440E+01 0.00000E+00
 -1      4373 6.56328E+01 2.35440E+01 0.00000E+00
 -1      4374 6.41328E+01 2.35440E+01 0.00000E+00
 -1      4375 5.89624E+01 2.63536E+01 0.00000E+00
 -1      4376 6.27356E+01 2.37873E+01 0.00000E+00
 -1      4377 1.26838E+02 2.40071E+01 0.00000E+00
 -1      4378 6.63828E+01 2.48430E+01 0.00000E+00
 -1      4379 7.08828E+01 2.48430E+01 0.00000E+00
 -1      4380 8.43828E+01 2.48430E+01 0.00000E+00
 -1      4381 8.88828E+01 2.48430E+01 0.00000E+00
 -1      4382 1.26845E+02 2.51593E+01 0.00000E+00
 -1      4383 1.25975E+02 2.41327E+01 0.00000E+00
 -1      4384 1.26853E+02 2.63115E+01 0.00000E+00
 -1      4385 1.23631E+02 2.65750E+01 0.00000E+00
 -1      4386 1.25131E+02 2.65750E+01 0.00000E+00
 -1      4387 7.76328E+01 2.35440E+01 0.00000E+00
 -1      4388 7.31328E+01 2.35440E+01 0.00000E+00
 -1      4389 7.16328E+01 2.35440E+01 0.00000E+00
 -1      4390 7.43850E+01 2.18121E+01 0.00000E+00
 -1      4391 1.22881E+02 2.52760E+01 0.00000E+00
 -1      4392 1.25174E+02 2.41283E+01 0.00000E+00
 -1      4393 1.24133E+02 2.35440E+01 0.00000E+00
 -1      4394 1.25932E+02 2.65794E+01 0.00000E+00
 -1      4395 7.61328E+01 2.35440E+01 0.00000E+00
 -1      4396 1.25182E+02 2.52804E+01 0.00000E+00
 -1      4397 7.46328E+01 2.35440E+01 0.00000E+00
 -3
    3C                          2117                                     1
 -1       164    8    0    1
 -2         6         7        23      1141      1304      1158
 -1       165    8    0    1
 -2         7         8       164      1142      1305      1306
 -1       166    8    0    1
 -2         8         9       165      1143      1307      1308
 -1       167    8    0    1
 -2         8       165       164      1308      1309      1305
 -1       168    8    0    1
 -2         9        10       166      1144      1310      1311
 -1       169    8    0    1
 -2         9       166       165      1311      1312      1307
 -1       170    8    0    1
 -2        10        11       167      1145      1313      1314
 -1       171    8    0    1
 -2        10       167       166      1314      1315      1310
 -1       172    8    0    1
 -2        11        12       168      1146      1316      1317
 -1       173    8    0    1
 -2        11       168       167      1317      1318      1313
 -1       174    8    0    1
 -2        12        13       169      1147      1319      1320
 -1       175    8    0    1
 -2        12       169       168      1320      1321      1316
 -1       176    8    0    1
 -2        13        14       170      1148      1322      1323
 -1       177    8    0    1
 -2        13       170       169      1323      1324      1319
 -1       178    8    0    1
 -2        14        15       171      1149      1325      1326
 -1       179    8    0    1
 -2        14       171       170      1326      1327      1322
 -1       180    8    0    1
 -2        15        16       172      1150      1328      1329
 -1       181    8    0    1
 -2        15       172       171      1329      1330      1325
 -1       182    8    0    1
 -2        16        17       173      1151      1331      1332
 -1       183    8    0    1
 -2        16       173       172      1332      1333      1328
 -1       184    8    0    1
 -2        17        18       174      1152      1334      1335
 -1       185    8    0    1
 -2        17       174       173      1335      1336      1331
 -1       186    8    0    1
 -2        18        19       175      1153      1337      1338
 -1       187    8    0    1
 -2        18       175       174      1338      1339      1334
 -1       188    8    0    1
 -2        19        20       176      1154      1340      1341
 -1       189    8    0    1
 -2        19       176       175      1341      1342      1337
 -1       190    8    0    1
 -2        20        21       177      1155      1343      1344
 -1       191    8    0    1
 -2        20       177       176      1344      1345      1340
 -1       192    8    0    1
 -2        21        22       178      1156      1346      1347
 -1       193    8    0    1
 -2        21       178       177      1347      1348      1343
 -1       194    8    0    1
 -2        22         5       179      1157      1349      1350
 -1       195    8    0    1
 -2       178        22       179      1346      1350      1351
 -1       196    8    0    1
 -2         5        72       179      1208      1352      1349
 -1       197    8    0    1
 -2        24        23       180      1159      1353      1354
 -1       198    8    0    1
 -2        25        24       181      1160      1355      1356
 -1       199    8    0    1
 -2        24       180       181      1354      1357      1355
 -1       200    8    0    1
 -2        26        25       182      1161      1358      1359
 -1       201    8    0    1
 -2        25       181       182      1356      1360      1358
 -1       202    8    0    1
 -2        27        26       183      1162      1361      1362
 -1       203    8    0    1
 -2        26       182       183      1359      1363      1361
 -1       204    8    0    1
 -2        28        27       184      1163      1364      1365
 -1       205    8    0    1
 -2        27       183       184      1362      1366      1364
 -1       206    8    0    1
 -2        29        28       185      1164      1367      1368
 -1       207    8    0    1
 -2        28       184       185      1365      1369      1367
 -1       208    8    0    1
 -2        30        29       186      1165      1370      1371
 -1       209    8    0    1
 -2        29       185       186      1368      1372      1370
 -1       210    8    0    1
 -2        31        30       187      1166      1373      1374
 -1       211    8    0    1
 -2        30       186       187      1371      1375      1373
 -1       212    8    0    1
 -2        32        31       188      1167      1376      1377
 -1       213    8    0    1
 -2        31       187       188      1374      1378      1376
 -1       214    8    0    1
 -2        33        32       189      1168      1379      1380
 -1       215    8    0    1
 -2        32       188       189      1377      1381      1379
 -1       216    8    0    1
 -2        34        33       190      1169      1382      1383
 -1       217    8    0    1
 -2        33       189       190      1380      1384      1382
 -1       218    8    0    1
 -2        35        34       191      1170      1385      1386
 -1       219    8    0    1
 -2        34       190       191      1383      1387      1385
 -1       220    8    0    1
 -2        36        35       192      1171      1388      1389
 -1       221    8    0    1
 -2        35       191       192      1386      1390      1388
 -1       222    8    0    1
 -2        37        36       193      1172      1391      1392
 -1       223    8    0    1
 -2        36       192       193      1389      1393      1391
 -1       224    8    0    1
 -2        38        37       194      1173      1394      1395
 -1       225    8    0    1
 -2        37       193       194      1392      1396      1394
 -1       226    8    0    1
 -2        39        38       195      1174      1397      1398
 -1       227    8    0    1
 -2        38       194       195      1395      1399      1397
 -1       228    8    0    1
 -2        40        39       196      1175      1400      1401
 -1       229    8    0    1
 -2        39       195       196      1398      1402      1400
 -1       230    8    0    1
 -2        41        40       197      1176      1403      1404
 -1       231    8    0    1
 -2        40       196       197      1401      1405      1403
 -1       232    8    0    1
 -2        42        41       198      1177      1406      1407
 -1       233    8    0    1
 -2        41       197       198      1404      1408      1406
 -1       234    8    0    1
 -2        43        42       199      1178      1409      1410
 -1       235    8    0    1
 -2        42       198       199      1407      1411      1409
 -1       236    8    0    1
 -2        44        43       200      1179      1412      1413
 -1       237    8    0    1
 -2        43       199       200      1410      1414      1412
 -1       238    8    0    1
 -2        45        44       201      1180      1415      1416
 -1       239    8    0    1
 -2        44       200       201      1413      1417      1415
 -1       240    8    0    1
 -2        46        45       202      1181      1418      1419
 -1       241    8    0    1
 -2        45       201       202      1416      1420      1418
 -1       242    8    0    1
 -2        47        46       203      1182      1421      1422
 -1       243    8    0    1
 -2        46       202       203      1419      1423      1421
 -1       244    8    0    1
 -2        48        47       204      1183      1424      1425
 -1       245    8    0    1
 -2        47       203       204      1422      1426      1424
 -1       246    8    0    1
 -2        49        48       205      1184      1427      1428
 -1       247    8    0    1
 -2        48       204       205      1425      1429      1427
 -1       248    8    0    1
 -2        50        49       206      1185      1430      1431
 -1       249    8    0    1
 -2        49       205       206      1428      1432      1430
 -1       250    8    0    1
 -2        51        50       207      1186      1433      1434
 -1       251    8    0    1
 -2        50       206       207      1431      1435      1433
 -1       252    8    0    1
 -2        52        51       208      1187      1436      1437
 -1       253    8    0    1
 -2        51       207       208      1434      1438      1436
 -1       254    8    0    1
 -2        53        52       209      1188      1439      1440
 -1       255    8    0    1
 -2        52       208       209      1437      1441      1439
 -1       256    8    0    1
 -2        54        53       210      1189      1442      1443
 -1       257    8    0    1
 -2        53       209       210      1440      1444      1442
 -1       258    8    0    1
 -2        55        54       211      1190      1445      1446
 -1       259    8    0    1
 -2        54       210       211      1443      1447      1445
 -1       260    8    0    1
 -2        56        55       212      1191      1448      1449
 -1       261    8    0    1
 -2        55       211       212      1446      1450      1448
 -1       262    8    0    1
 -2        57        56       213      1192      1451      1452
 -1       263    8    0    1
 -2        56       212       213      1449      1453      1451
 -1       264    8    0    1
 -2        58        57       214      1193      1454      1455
 -1       265    8    0    1
 -2        57       213       214      1452      1456      1454
 -1       266    8    0    1
 -2        59        58       215      1194      1457      1458
 -1       267    8    0    1
 -2        58       214       215      1455      1459      1457
 -1       268    8    0    1
 -2        60        59       216      1195      1460      1461
 -1       269    8    0    1
 -2        59       215       216      1458      1462      1460
 -1       270    8    0    1
 -2        61        60       217      1196      1463      1464
 -1       271    8    0    1
 -2        60       216       217      1461      1465      1463
 -1       272    8    0    1
 -2        62        61       218      1197      1466      1467
 -1       273    8    0    1
 -2        61       217       218      1464      1468      1466
 -1       274    8    0    1
 -2        63        62       219      1198      1469      1470
 -1       275    8    0    1
 -2        62       218       219      1467      1471      1469
 -1       276    8    0    1
 -2        64        63       220      1199      1472      1473
 -1       277    8    0    1
 -2        63       219       220      1470      1474      1472
 -1       278    8    0    1
 -2        65        64       221      1200      1475      1476
 -1       279    8    0    1
 -2        64       220       221      1473      1477      1475
 -1       280    8    0    1
 -2        66        65       222      1201      1478      1479
 -1       281    8    0    1
 -2        65       221       222      1476      1480      1478
 -1       282    8    0    1
 -2        67        66       223      1202      1481      1482
 -1       283    8    0    1
 -2        66       222       223      1479      1483      1481
 -1       284    8    0    1
 -2        68        67       224      1203      1484      1485
 -1       285    8    0    1
 -2        67       223       224      1482      1486      1484
 -1       286    8    0    1
 -2        69        68       225      1204      1487      1488
 -1       287    8    0    1
 -2        68       224       225      1485      1489      1487
 -1       288    8    0    1
 -2        70        69       226      1205      1490      1491
 -1       289    8    0    1
 -2        69       225       226      1488      1492      1490
 -1       290    8    0    1
 -2        71        70       227      1206      1493      1494
 -1       291    8    0    1
 -2        70       226       227      1491      1495      1493
 -1       292    8    0    1
 -2         4        71       136      1207      1496      1274
 -1       293    8    0    1
 -2       136        71       227      1496      1494      1497
 -1       294    8    0    1
 -2        72        73       228      1209      1498      1499
 -1       295    8    0    1
 -2        72       228       179      1499      1500      1352
 -1       296    8    0    1
 -2        73        74       229      1210      1501      1502
 -1       297    8    0    1
 -2        73       229       228      1502      1503      1498
 -1       298    8    0    1
 -2        74        75       230      1211      1504      1505
 -1       299    8    0    1
 -2        74       230       229      1505      1506      1501
 -1       300    8    0    1
 -2        75        76       231      1212      1507      1508
 -1       301    8    0    1
 -2        75       231       230      1508      1509      1504
 -1       302    8    0    1
 -2        76        77       232      1213      1510      1511
 -1       303    8    0    1
 -2        76       232       231      1511      1512      1507
 -1       304    8    0    1
 -2        77        78       233      1214      1513      1514
 -1       305    8    0    1
 -2        77       233       232      1514      1515      1510
 -1       306    8    0    1
 -2        78        79       234      1215      1516      1517
 -1       307    8    0    1
 -2        78       234       233      1517      1518      1513
 -1       308    8    0    1
 -2        79        80       235      1216      1519      1520
 -1       309    8    0    1
 -2        79       235       234      1520      1521      1516
 -1       310    8    0    1
 -2        80        81       236      1217      1522      1523
 -1       311    8    0    1
 -2        80       236       235      1523      1524      1519
 -1       312    8    0    1
 -2        81        82       237      1218      1525      1526
 -1       313    8    0    1
 -2        81       237       236      1526      1527      1522
 -1       314    8    0    1
 -2        82        83       238      1219      1528      1529
 -1       315    8    0    1
 -2        82       238       237      1529      1530      1525
 -1       316    8    0    1
 -2        83        84       239      1220      1531      1532
 -1       317    8    0    1
 -2        83       239       238      1532      1533      1528
 -1       318    8    0    1
 -2        84        85       240      1221      1534      1535
 -1       319    8    0    1
 -2        84       240       239      1535      1536      1531
 -1       320    8    0    1
 -2        85        86       241      1222      1537      1538
 -1       321    8    0    1
 -2        85       241       240      1538      1539      1534
 -1       322    8    0    1
 -2        86        87       242      1223      1540      1541
 -1       323    8    0    1
 -2        86       242       241      1541      1542      1537
 -1       324    8    0    1
 -2        87        88       243      1224      1543      1544
 -1       325    8    0    1
 -2        87       243       242      1544      1545      1540
 -1       326    8    0    1
 -2        88        89       244      1225      1546      1547
 -1       327    8    0    1
 -2        88       244       243      1547      1548      1543
 -1       328    8    0    1
 -2        89        90       245      1226      1549      1550
 -1       329    8    0    1
 -2        89       245       244      1550      1551      1546
 -1       330    8    0    1
 -2        90        91       246      1227      1552      1553
 -1       331    8    0    1
 -2        90       246       245      1553      1554      1549
 -1       332    8    0    1
 -2        91        92       247      1228      1555      1556
 -1       333    8    0    1
 -2        91       247       246      1556      1557      1552
 -1       334    8    0    1
 -2        92        93       248      1229      1558      1559
 -1       335    8    0    1
 -2        92       248       247      1559      1560      1555
 -1       336    8    0    1
 -2        93        94       249      1230      1561      1562
 -1       337    8    0    1
 -2        93       249       248      1562      1563      1558
 -1       338    8    0    1
 -2        94        95       250      1231      1564      1565
 -1       339    8    0    1
 -2        94       250       249      1565      1566      1561
 -1       340    8    0    1
 -2        95        96       251      1232      1567      1568
 -1       341    8    0    1
 -2        95       251       250      1568      1569      1564
 -1       342    8    0    1
 -2        96        97       252      1233      1570      1571
 -1       343    8    0    1
 -2        96       252       251      1571      1572      1567
 -1       344    8    0    1
 -2        97        98       253      1234      1573      1574
 -1       345    8    0    1
 -2        97       253       252      1574      1575      1570
 -1       346    8    0    1
 -2        98        99       254      1235      1576      1577
 -1       347    8    0    1
 -2        98       254       253      1577      1578      1573
 -1       348    8    0    1
 -2        99       100       255      1236      1579      1580
 -1       349    8    0    1
 -2        99       255       254      1580      1581      1576
 -1       350    8    0    1
 -2       100       101       256      1237      1582      1583
 -1       351    8    0    1
 -2       100       256       255      1583      1584      1579
 -1       352    8    0    1
 -2       101       102       257      1238      1585      1586
 -1       353    8    0    1
 -2       101       257       256      1586      1587      1582
 -1       354    8    0    1
 -2       102       103       258      1239      1588      1589
 -1       355    8    0    1
 -2       102       258       257      1589      1590      1585
 -1       356    8    0    1
 -2       103       104       259      1240      1591      1592
 -1       357    8    0    1
 -2       103       259       258      1592      1593      1588
 -1       358    8    0    1
 -2       104       105       260      1241      1594      1595
 -1       359    8    0    1
 -2       104       260       259      1595      1596      1591
 -1       360    8    0    1
 -2       105       106       261      1242      1597      1598
 -1       361    8    0    1
 -2       105       261       260      1598      1599      1594
 -1       362    8    0    1
 -2       106       107       262      1243      1600      1601
 -1       363    8    0    1
 -2       106       262       261      1601      1602      1597
 -1       364    8    0    1
 -2       107       108       263      1244      1603      1604
 -1       365    8    0    1
 -2       107       263       262      1604      1605      1600
 -1       366    8    0    1
 -2       108       109       264      1245      1606      1607
 -1       367    8    0    1
 -2       108       264       263      1607      1608      1603
 -1       368    8    0    1
 -2       109       110       265      1246      1609      1610
 -1       369    8    0    1
 -2       109       265       264      1610      1611      1606
 -1       370    8    0    1
 -2       110       111       266      1247      1612      1613
 -1       371    8    0    1
 -2       110       266       265      1613      1614      1609
 -1       372    8    0    1
 -2       111       112       267      1248      1615      1616
 -1       373    8    0    1
 -2       111       267       266      1616      1617      1612
 -1       374    8    0    1
 -2       112       113       268      1249      1618      1619
 -1       375    8    0    1
 -2       112       268       267      1619      1620      1615
 -1       376    8    0    1
 -2       113       114       269      1250      1621      1622
 -1       377    8    0    1
 -2       113       269       268      1622      1623      1618
 -1       378    8    0    1
 -2       114       115       270      1251      1624      1625
 -1       379    8    0    1
 -2       114       270       269      1625      1626      1621
 -1       380    8    0    1
 -2       115       116       271      1252      1627      1628
 -1       381    8    0    1
 -2       115       271       270      1628      1629      1624
 -1       382    8    0    1
 -2       116       117       272      1253      1630      1631
 -1       383    8    0    1
 -2       116       272       271      1631      1632      1627
 -1       384    8    0    1
 -2       117       118       273      1254      1633      1634
 -1       385    8    0    1
 -2       117       273       272      1634      1635      1630
 -1       386    8    0    1
 -2       118       119       274      1255      1636      1637
 -1       387    8    0    1
 -2       118       274       273      1637      1638      1633
 -1       388    8    0    1
 -2       119       120       275      1256      1639      1640
 -1       389    8    0    1
 -2       119       275       274      1640      1641      1636
 -1       390    8    0    1
 -2       120         3       121      1257      1258      1642
 -1       391    8    0    1
 -2       121       122       276      1259      1643      1644
 -1       392    8    0    1
 -2       122       123       277      1260      1645      1646
 -1       393    8    0    1
 -2       122       277       276      1646      1647      1643
 -1       394    8    0    1
 -2       123       124       278      1261      1648      1649
 -1       395    8    0    1
 -2       123       278       277      1649      1650      1645
 -1       396    8    0    1
 -2       124       125       279      1262      1651      1652
 -1       397    8    0    1
 -2       124       279       278      1652      1653      1648
 -1       398    8    0    1
 -2       125       126       280      1263      1654      1655
 -1       399    8    0    1
 -2       125       280       279      1655      1656      1651
 -1       400    8    0    1
 -2       126       127       281      1264      1657      1658
 -1       401    8    0    1
 -2       126       281       280      1658      1659      1654
 -1       402    8    0    1
 -2       127       128       282      1265      1660      1661
 -1       403    8    0    1
 -2       127       282       281      1661      1662      1657
 -1       404    8    0    1
 -2       128       129       283      1266      1663      1664
 -1       405    8    0    1
 -2       128       283       282      1664      1665      1660
 -1       406    8    0    1
 -2       129       130       284      1267      1666      1667
 -1       407    8    0    1
 -2       129       284       283      1667      1668      1663
 -1       408    8    0    1
 -2       130       131       285      1268      1669      1670
 -1       409    8    0    1
 -2       130       285       284      1670      1671      1666
 -1       410    8    0    1
 -2       131       132       286      1269      1672      1673
 -1       411    8    0    1
 -2       131       286       285      1673      1674      1669
 -1       412    8    0    1
 -2       132       133       287      1270      1675      1676
 -1       413    8    0    1
 -2       132       287       286      1676      1677      1672
 -1       414    8    0    1
 -2       133       134       288      1271      1678      1679
 -1       415    8    0    1
 -2       133       288       287      1679      1680      1675
 -1       416    8    0    1
 -2       134       135       289      1272      1681      1682
 -1       417    8    0    1
 -2       134       289       288      1682      1683      1678
 -1       418    8    0    1
 -2       135       136       290      1273      1684      1685
 -1       419    8    0    1
 -2       289       135       290      1681      1685      1686
 -1       420    8    0    1
 -2       136       227       290      1497      1687      1684
 -1       421    8    0    1
 -2         2       137       291      1275      1688      1689
 -1       422    8    0    1
 -2       137       138       292      1276      1690      1691
 -1       423    8    0    1
 -2       138       139       293      1277      1692      1693
 -1       424    8    0    1
 -2       139       140       294      1278      1694      1695
 -1       425    8    0    1
 -2       140       141       295      1279      1696      1697
 -1       426    8    0    1
 -2       141       142       296      1280      1698      1699
 -1       427    8    0    1
 -2       142       143       297      1281      1700      1701
 -1       428    8    0    1
 -2       143       144       298      1282      1702      1703
 -1       429    8    0    1
 -2       144       145       299      1283      1704      1705
 -1       430    8    0    1
 -2       145       146       300      1284      1706      1707
 -1       431    8    0    1
 -2       146       147       301      1285      1708      1709
 -1       432    8    0    1
 -2       147       148       302      1286      1710      1711
 -1       433    8    0    1
 -2       148       149       303      1287      1712      1713
 -1       434    8    0    1
 -2       149       150       304      1288      1714      1715
 -1       435    8    0    1
 -2       150       151       305      1289      1716      1717
 -1       436    8    0    1
 -2       151       152       306      1290      1718      1719
 -1       437    8    0    1
 -2       152       153       307      1291      1720      1721
 -1       438    8    0    1
 -2       153       154       308      1292      1722      1723
 -1       439    8    0    1
 -2       154       155       309      1293      1724      1725
 -1       440    8    0    1
 -2       155       156       310      1294      1726      1727
 -1       441    8    0    1
 -2       156       157       311      1295      1728      1729
 -1       442    8    0    1
 -2       157         1       312      1296      1730      1731
 -1       443    8    0    1
 -2         1       158       313      1297      1732      1733
 -1       444    8    0    1
 -2       158       159       314      1298      1734      1735
 -1       445    8    0    1
 -2       159       160       315      1299      1736      1737
 -1       446    8    0    1
 -2       160       161       316      1300      1738      1739
 -1       447    8    0    1
 -2       161       162       317      1301      1740      1741
 -1       448    8    0    1
 -2       162       163       318      1302      1742      1743
 -1       449    8    0    1
 -2       163         2       319      1303      1744      1745
 -1       450    8    0    1
 -2       294       140       295      1694      1697      1746
 -1       451    8    0    1
 -2       293       139       294      1692      1695      1747
 -1       452    8    0    1
 -2       120       121       275      1642      1748      1639
 -1       453    8    0    1
 -2       121       276       275      1644      1749      1748
 -1       454    8    0    1
 -2       291       137       292      1688      1691      1750
 -1       455    8    0    1
 -2       292       138       293      1690      1693      1751
 -1       456    8    0    1
 -2         2       291       319      1689      1752      1744
 -1       457    8    0    1
 -2       141       296       295      1699      1753      1696
 -1       458    8    0    1
 -2       142       297       296      1701      1754      1698
 -1       459    8    0    1
 -2       143       298       297      1703      1755      1700
 -1       460    8    0    1
 -2       144       299       298      1705      1756      1702
 -1       461    8    0    1
 -2       145       300       299      1707      1757      1704
 -1       462    8    0    1
 -2       146       301       300      1709      1758      1706
 -1       463    8    0    1
 -2       147       302       301      1711      1759      1708
 -1       464    8    0    1
 -2       148       303       302      1713      1760      1710
 -1       465    8    0    1
 -2       149       304       303      1715      1761      1712
 -1       466    8    0    1
 -2       150       305       304      1717      1762      1714
 -1       467    8    0    1
 -2       151       306       305      1719      1763      1716
 -1       468    8    0    1
 -2       152       307       306      1721      1764      1718
 -1       469    8    0    1
 -2       153       308       307      1723      1765      1720
 -1       470    8    0    1
 -2       154       309       308      1725      1766      1722
 -1       471    8    0    1
 -2       155       310       309      1727      1767      1724
 -1       472    8    0    1
 -2       156       311       310      1729      1768      1726
 -1       473    8    0    1
 -2       157       312       311      1731      1769      1728
 -1       474    8    0    1
 -2         1       313       312      1733      1770      1730
 -1       475    8    0    1
 -2       158       314       313      1735      1771      1732
 -1       476    8    0    1
 -2       159       315       314      1737      1772      1734
 -1       477    8    0    1
 -2       160       316       315      1739      1773      1736
 -1       478    8    0    1
 -2       161       317       316      1741      1774      1738
 -1       479    8    0    1
 -2       162       318       317      1743      1775      1740
 -1       480    8    0    1
 -2       163       319       318      1745      1776      1742
 -1       481    8    0    1
 -2        23         7       164      1304      1306      1777
 -1       482    8    0    1
 -2       165       166       320      1312      1778      1779
 -1       483    8    0    1
 -2       164       165       321      1309      1780      1781
 -1       484    8    0    1
 -2       165       320       321      1779      1782      1780
 -1       485    8    0    1
 -2       167       168       322      1318      1783      1784
 -1       486    8    0    1
 -2       168       169       323      1321      1785      1786
 -1       487    8    0    1
 -2       168       323       322      1786      1787      1783
 -1       488    8    0    1
 -2       169       170       324      1324      1788      1789
 -1       489    8    0    1
 -2       169       324       323      1789      1790      1785
 -1       490    8    0    1
 -2       170       171       325      1327      1791      1792
 -1       491    8    0    1
 -2       170       325       324      1792      1793      1788
 -1       492    8    0    1
 -2       171       172       326      1330      1794      1795
 -1       493    8    0    1
 -2       171       326       325      1795      1796      1791
 -1       494    8    0    1
 -2       172       173       327      1333      1797      1798
 -1       495    8    0    1
 -2       172       327       326      1798      1799      1794
 -1       496    8    0    1
 -2       173       174       328      1336      1800      1801
 -1       497    8    0    1
 -2       173       328       327      1801      1802      1797
 -1       498    8    0    1
 -2       174       175       329      1339      1803      1804
 -1       499    8    0    1
 -2       174       329       328      1804      1805      1800
 -1       500    8    0    1
 -2       175       176       330      1342      1806      1807
 -1       501    8    0    1
 -2       175       330       329      1807      1808      1803
 -1       502    8    0    1
 -2       176       177       331      1345      1809      1810
 -1       503    8    0    1
 -2       176       331       330      1810      1811      1806
 -1       504    8    0    1
 -2       177       178       332      1348      1812      1813
 -1       505    8    0    1
 -2       177       332       331      1813      1814      1809
 -1       506    8    0    1
 -2       178       179       333      1351      1815      1816
 -1       507    8    0    1
 -2       332       178       333      1812      1816      1817
 -1       508    8    0    1
 -2       179       228       333      1500      1818      1815
 -1       509    8    0    1
 -2       180        23       164      1353      1777      1819
 -1       510    8    0    1
 -2       228       229       334      1503      1820      1821
 -1       511    8    0    1
 -2       228       334       333      1821      1822      1818
 -1       512    8    0    1
 -2       180       164       321      1819      1781      1823
 -1       513    8    0    1
 -2       182       181       335      1360      1824      1825
 -1       514    8    0    1
 -2       183       182       336      1363      1826      1827
 -1       515    8    0    1
 -2       182       335       336      1825      1828      1826
 -1       516    8    0    1
 -2       184       183       337      1366      1829      1830
 -1       517    8    0    1
 -2       183       336       337      1827      1831      1829
 -1       518    8    0    1
 -2       185       184       338      1369      1832      1833
 -1       519    8    0    1
 -2       184       337       338      1830      1834      1832
 -1       520    8    0    1
 -2       186       185       339      1372      1835      1836
 -1       521    8    0    1
 -2       185       338       339      1833      1837      1835
 -1       522    8    0    1
 -2       187       186       340      1375      1838      1839
 -1       523    8    0    1
 -2       186       339       340      1836      1840      1838
 -1       524    8    0    1
 -2       188       187       341      1378      1841      1842
 -1       525    8    0    1
 -2       187       340       341      1839      1843      1841
 -1       526    8    0    1
 -2       189       188       342      1381      1844      1845
 -1       527    8    0    1
 -2       188       341       342      1842      1846      1844
 -1       528    8    0    1
 -2       190       189       343      1384      1847      1848
 -1       529    8    0    1
 -2       189       342       343      1845      1849      1847
 -1       530    8    0    1
 -2       191       190       344      1387      1850      1851
 -1       531    8    0    1
 -2       190       343       344      1848      1852      1850
 -1       532    8    0    1
 -2       192       191       345      1390      1853      1854
 -1       533    8    0    1
 -2       191       344       345      1851      1855      1853
 -1       534    8    0    1
 -2       193       192       346      1393      1856      1857
 -1       535    8    0    1
 -2       192       345       346      1854      1858      1856
 -1       536    8    0    1
 -2       194       193       347      1396      1859      1860
 -1       537    8    0    1
 -2       193       346       347      1857      1861      1859
 -1       538    8    0    1
 -2       195       194       348      1399      1862      1863
 -1       539    8    0    1
 -2       194       347       348      1860      1864      1862
 -1       540    8    0    1
 -2       196       195       349      1402      1865      1866
 -1       541    8    0    1
 -2       195       348       349      1863      1867      1865
 -1       542    8    0    1
 -2       197       196       350      1405      1868      1869
 -1       543    8    0    1
 -2       196       349       350      1866      1870      1868
 -1       544    8    0    1
 -2       198       197       351      1408      1871      1872
 -1       545    8    0    1
 -2       197       350       351      1869      1873      1871
 -1       546    8    0    1
 -2       199       198       352      1411      1874      1875
 -1       547    8    0    1
 -2       198       351       352      1872      1876      1874
 -1       548    8    0    1
 -2       200       199       353      1414      1877      1878
 -1       549    8    0    1
 -2       199       352       353      1875      1879      1877
 -1       550    8    0    1
 -2       201       200       354      1417      1880      1881
 -1       551    8    0    1
 -2       200       353       354      1878      1882      1880
 -1       552    8    0    1
 -2       202       201       355      1420      1883      1884
 -1       553    8    0    1
 -2       201       354       355      1881      1885      1883
 -1       554    8    0    1
 -2       203       202       356      1423      1886      1887
 -1       555    8    0    1
 -2       202       355       356      1884      1888      1886
 -1       556    8    0    1
 -2       204       203       357      1426      1889      1890
 -1       557    8    0    1
 -2       203       356       357      1887      1891      1889
 -1       558    8    0    1
 -2       205       204       358      1429      1892      1893
 -1       559    8    0    1
 -2       204       357       358      1890      1894      1892
 -1       560    8    0    1
 -2       206       205       359      1432      1895      1896
 -1       561    8    0    1
 -2       205       358       359      1893      1897      1895
 -1       562    8    0    1
 -2       207       206       360      1435      1898      1899
 -1       563    8    0    1
 -2       206       359       360      1896      1900      1898
 -1       564    8    0    1
 -2       208       207       361      1438      1901      1902
 -1       565    8    0    1
 -2       207       360       361      1899      1903      1901
 -1       566    8    0    1
 -2       209       208       362      1441      1904      1905
 -1       567    8    0    1
 -2       208       361       362      1902      1906      1904
 -1       568    8    0    1
 -2       210       209       363      1444      1907      1908
 -1       569    8    0    1
 -2       209       362       363      1905      1909      1907
 -1       570    8    0    1
 -2       211       210       364      1447      1910      1911
 -1       571    8    0    1
 -2       210       363       364      1908      1912      1910
 -1       572    8    0    1
 -2       212       211       365      1450      1913      1914
 -1       573    8    0    1
 -2       211       364       365      1911      1915      1913
 -1       574    8    0    1
 -2       213       212       366      1453      1916      1917
 -1       575    8    0    1
 -2       212       365       366      1914      1918      1916
 -1       576    8    0    1
 -2       214       213       367      1456      1919      1920
 -1       577    8    0    1
 -2       213       366       367      1917      1921      1919
 -1       578    8    0    1
 -2       215       214       368      1459      1922      1923
 -1       579    8    0    1
 -2       214       367       368      1920      1924      1922
 -1       580    8    0    1
 -2       216       215       369      1462      1925      1926
 -1       581    8    0    1
 -2       215       368       369      1923      1927      1925
 -1       582    8    0    1
 -2       217       216       370      1465      1928      1929
 -1       583    8    0    1
 -2       216       369       370      1926      1930      1928
 -1       584    8    0    1
 -2       218       217       371      1468      1931      1932
 -1       585    8    0    1
 -2       217       370       371      1929      1933      1931
 -1       586    8    0    1
 -2       219       218       372      1471      1934      1935
 -1       587    8    0    1
 -2       218       371       372      1932      1936      1934
 -1       588    8    0    1
 -2       220       219       373      1474      1937      1938
 -1       589    8    0    1
 -2       219       372       373      1935      1939      1937
 -1       590    8    0    1
 -2       221       220       374      1477      1940      1941
 -1       591    8    0    1
 -2       220       373       374      1938      1942      1940
 -1       592    8    0    1
 -2       222       221       375      1480      1943      1944
 -1       593    8    0    1
 -2       221       374       375      1941      1945      1943
 -1       594    8    0    1
 -2       223       222       376      1483      1946      1947
 -1       595    8    0    1
 -2       222       375       376      1944      1948      1946
 -1       596    8    0    1
 -2       224       223       377      1486      1949      1950
 -1       597    8    0    1
 -2       223       376       377      1947      1951      1949
 -1       598    8    0    1
 -2       225       224       378      1489      1952      1953
 -1       599    8    0    1
 -2       224       377       378      1950      1954      1952
 -1       600    8    0    1
 -2       226       225       379      1492      1955      1956
 -1       601    8    0    1
 -2       225       378       379      1953      1957      1955
 -1       602    8    0    1
 -2       227       226       380      1495      1958      1959
 -1       603    8    0    1
 -2       290       227       380      1687      1959      1960
 -1       604    8    0    1
 -2       226       379       380      1956      1961      1958
 -1       605    8    0    1
 -2       229       230       381      1506      1962      1963
 -1       606    8    0    1
 -2       229       381       334      1963      1964      1820
 -1       607    8    0    1
 -2       230       231       382      1509      1965      1966
 -1       608    8    0    1
 -2       230       382       381      1966      1967      1962
 -1       609    8    0    1
 -2       231       232       383      1512      1968      1969
 -1       610    8    0    1
 -2       231       383       382      1969      1970      1965
 -1       611    8    0    1
 -2       232       233       384      1515      1971      1972
 -1       612    8    0    1
 -2       232       384       383      1972      1973      1968
 -1       613    8    0    1
 -2       233       234       385      1518      1974      1975
 -1       614    8    0    1
 -2       233       385       384      1975      1976      1971
 -1       615    8    0    1
 -2       234       235       386      1521      1977      1978
 -1       616    8    0    1
 -2       234       386       385      1978      1979      1974
 -1       617    8    0    1
 -2       235       236       387      1524      1980      1981
 -1       618    8    0    1
 -2       235       387       386      1981      1982      1977
 -1       619    8    0    1
 -2       236       237       388      1527      1983      1984
 -1       620    8    0    1
 -2       236       388       387      1984      1985      1980
 -1       621    8    0    1
 -2       237       238       389      1530      1986      1987
 -1       622    8    0    1
 -2       237       389       388      1987      1988      1983
 -1       623    8    0    1
 -2       238       239       390      1533      1989      1990
 -1       624    8    0    1
 -2       238       390       389      1990      1991      1986
 -1       625    8    0    1
 -2       239       240       391      1536      1992      1993
 -1       626    8    0    1
 -2       239       391       390      1993      1994      1989
 -1       627    8    0    1
 -2       240       241       392      1539      1995      1996
 -1       628    8    0    1
 -2       240       392       391      1996      1997      1992
 -1       629    8    0    1
 -2       241       242       393      1542      1998      1999
 -1       630    8    0    1
 -2       241       393       392      1999      2000      1995
 -1       631    8    0    1
 -2       242       243       394      1545      2001      2002
 -1       632    8    0    1
 -2       242       394       393      2002      2003      1998
 -1       633    8    0    1
 -2       243       244       395      1548      2004      2005
 -1       634    8    0    1
 -2       243       395       394      2005      2006      2001
 -1       635    8    0    1
 -2       244       245       396      1551      2007      2008
 -1       636    8    0    1
 -2       244       396       395      2008      2009      2004
 -1       637    8    0    1
 -2       245       246       397      1554      2010      2011
 -1       638    8    0    1
 -2       245       397       396      2011      2012      2007
 -1       639    8    0    1
 -2       246       247       398      1557      2013      2014
 -1       640    8    0    1
 -2       246       398       397      2014      2015      2010
 -1       641    8    0    1
 -2       247       248       399      1560      2016      2017
 -1       642    8    0    1
 -2       247       399       398      2017      2018      2013
 -1       643    8    0    1
 -2       248       249       400      1563      2019      2020
 -1       644    8    0    1
 -2       248       400       399      2020      2021      2016
 -1       645    8    0    1
 -2       249       250       401      1566      2022      2023
 -1       646    8    0    1
 -2       249       401       400      2023      2024      2019
 -1       647    8    0    1
 -2       250       251       402      1569      2025      2026
 -1       648    8    0    1
 -2       250       402       401      2026      2027      2022
 -1       649    8    0    1
 -2       251       252       403      1572      2028      2029
 -1       650    8    0    1
 -2       251       403       402      2029      2030      2025
 -1       651    8    0    1
 -2       252       253       404      1575      2031      2032
 -1       652    8    0    1
 -2       252       404       403      2032      2033      2028
 -1       653    8    0    1
 -2       253       254       405      1578      2034      2035
 -1       654    8    0    1
 -2       253       405       404      2035      2036      2031
 -1       655    8    0    1
 -2       254       255       406      1581      2037      2038
 -1       656    8    0    1
 -2       254       406       405      2038      2039      2034
 -1       657    8    0    1
 -2       255       256       407      1584      2040      2041
 -1       658    8    0    1
 -2       255       407       406      2041      2042      2037
 -1       659    8    0    1
 -2       256       257       408      1587      2043      2044
 -1       660    8    0    1
 -2       256       408       407      2044      2045      2040
 -1       661    8    0    1
 -2       257       258       409      1590      2046      2047
 -1       662    8    0    1
 -2       257       409       408      2047      2048      2043
 -1       663    8    0    1
 -2       258       259       410      1593      2049      2050
 -1       664    8    0    1
 -2       258       410       409      2050      2051      2046
 -1       665    8    0    1
 -2       259       260       411      1596      2052      2053
 -1       666    8    0    1
 -2       259       411       410      2053      2054      2049
 -1       667    8    0    1
 -2       260       261       412      1599      2055      2056
 -1       668    8    0    1
 -2       260       412       411      2056      2057      2052
 -1       669    8    0    1
 -2       261       262       413      1602      2058      2059
 -1       670    8    0    1
 -2       261       413       412      2059      2060      2055
 -1       671    8    0    1
 -2       262       263       414      1605      2061      2062
 -1       672    8    0    1
 -2       262       414       413      2062      2063      2058
 -1       673    8    0    1
 -2       263       264       415      1608      2064      2065
 -1       674    8    0    1
 -2       263       415       414      2065      2066      2061
 -1       675    8    0    1
 -2       264       265       416      1611      2067      2068
 -1       676    8    0    1
 -2       264       416       415      2068      2069      2064
 -1       677    8    0    1
 -2       265       266       417      1614      2070      2071
 -1       678    8    0    1
 -2       265       417       416      2071      2072      2067
 -1       679    8    0    1
 -2       266       267       418      1617      2073      2074
 -1       680    8    0    1
 -2       266       418       417      2074      2075      2070
 -1       681    8    0    1
 -2       267       268       419      1620      2076      2077
 -1       682    8    0    1
 -2       267       419       418      2077      2078      2073
 -1       683    8    0    1
 -2       268       269       420      1623      2079      2080
 -1       684    8    0    1
 -2       268       420       419      2080      2081      2076
 -1       685    8    0    1
 -2       269       270       421      1626      2082      2083
 -1       686    8    0    1
 -2       269       421       420      2083      2084      2079
 -1       687    8    0    1
 -2       270       271       422      1629      2085      2086
 -1       688    8    0    1
 -2       270       422       421      2086      2087      2082
 -1       689    8    0    1
 -2       271       272       423      1632      2088      2089
 -1       690    8    0    1
 -2       271       423       422      2089      2090      2085
 -1       691    8    0    1
 -2       272       273       424      1635      2091      2092
 -1       692    8    0    1
 -2       272       424       423      2092      2093      2088
 -1       693    8    0    1
 -2       273       274       425      1638      2094      2095
 -1       694    8    0    1
 -2       273       425       424      2095      2096      2091
 -1       695    8    0    1
 -2       274       275       426      1641      2097      2098
 -1       696    8    0    1
 -2       425       274       426      2094      2098      2099
 -1       697    8    0    1
 -2       275       276       426      1749      2100      2097
 -1       698    8    0    1
 -2       278       279       427      1653      2101      2102
 -1       699    8    0    1
 -2       277       278       428      1650      2103      2104
 -1       700    8    0    1
 -2       278       427       428      2102      2105      2103
 -1       701    8    0    1
 -2       276       277       429      1647      2106      2107
 -1       702    8    0    1
 -2       426       276       429      2100      2107      2108
 -1       703    8    0    1
 -2       277       428       429      2104      2109      2106
 -1       704    8    0    1
 -2       279       280       430      1656      2110      2111
 -1       705    8    0    1
 -2       279       430       427      2111      2112      2101
 -1       706    8    0    1
 -2       280       281       431      1659      2113      2114
 -1       707    8    0    1
 -2       280       431       430      2114      2115      2110
 -1       708    8    0    1
 -2       281       282       432      1662      2116      2117
 -1       709    8    0    1
 -2       281       432       431      2117      2118      2113
 -1       710    8    0    1
 -2       282       283       433      1665      2119      2120
 -1       711    8    0    1
 -2       282       433       432      2120      2121      2116
 -1       712    8    0    1
 -2       283       284       434      1668      2122      2123
 -1       713    8    0    1
 -2       283       434       433      2123      2124      2119
 -1       714    8    0    1
 -2       284       285       435      1671      2125      2126
 -1       715    8    0    1
 -2       284       435       434      2126      2127      2122
 -1       716    8    0    1
 -2       285       286       436      1674      2128      2129
 -1       717    8    0    1
 -2       285       436       435      2129      2130      2125
 -1       718    8    0    1
 -2       286       287       437      1677      2131      2132
 -1       719    8    0    1
 -2       286       437       436      2132      2133      2128
 -1       720    8    0    1
 -2       287       288       438      1680      2134      2135
 -1       721    8    0    1
 -2       287       438       437      2135      2136      2131
 -1       722    8    0    1
 -2       288       289       439      1683      2137      2138
 -1       723    8    0    1
 -2       288       439       438      2138      2139      2134
 -1       724    8    0    1
 -2       292       293       440      1751      2140      2141
 -1       725    8    0    1
 -2       319       291       441      1752      2142      2143
 -1       726    8    0    1
 -2       291       292       442      1750      2144      2145
 -1       727    8    0    1
 -2       293       294       443      1747      2146      2147
 -1       728    8    0    1
 -2       293       443       440      2147      2148      2140
 -1       729    8    0    1
 -2       294       295       444      1746      2149      2150
 -1       730    8    0    1
 -2       166       167       445      1315      2151      2152
 -1       731    8    0    1
 -2       320       166       445      1778      2152      2153
 -1       732    8    0    1
 -2       167       322       445      1784      2154      2151
 -1       733    8    0    1
 -2       296       297       446      1754      2155      2156
 -1       734    8    0    1
 -2       297       298       447      1755      2157      2158
 -1       735    8    0    1
 -2       298       299       448      1756      2159      2160
 -1       736    8    0    1
 -2       299       300       449      1757      2161      2162
 -1       737    8    0    1
 -2       300       301       450      1758      2163      2164
 -1       738    8    0    1
 -2       301       302       451      1759      2165      2166
 -1       739    8    0    1
 -2       302       303       452      1760      2167      2168
 -1       740    8    0    1
 -2       303       304       453      1761      2169      2170
 -1       741    8    0    1
 -2       304       305       454      1762      2171      2172
 -1       742    8    0    1
 -2       305       306       455      1763      2173      2174
 -1       743    8    0    1
 -2       306       307       456      1764      2175      2176
 -1       744    8    0    1
 -2       307       308       457      1765      2177      2178
 -1       745    8    0    1
 -2       308       309       458      1766      2179      2180
 -1       746    8    0    1
 -2       309       310       459      1767      2181      2182
 -1       747    8    0    1
 -2       310       311       460      1768      2183      2184
 -1       748    8    0    1
 -2       310       460       459      2184      2185      2181
 -1       749    8    0    1
 -2       311       312       461      1769      2186      2187
 -1       750    8    0    1
 -2       312       313       462      1770      2188      2189
 -1       751    8    0    1
 -2       313       314       463      1771      2190      2191
 -1       752    8    0    1
 -2       314       315       464      1772      2192      2193
 -1       753    8    0    1
 -2       315       316       465      1773      2194      2195
 -1       754    8    0    1
 -2       316       317       466      1774      2196      2197
 -1       755    8    0    1
 -2       317       318       467      1775      2198      2199
 -1       756    8    0    1
 -2       318       319       468      1776      2200      2201
 -1       757    8    0    1
 -2       318       468       467      2201      2202      2198
 -1       758    8    0    1
 -2       295       296       469      1753      2203      2204
 -1       759    8    0    1
 -2       295       469       444      2204      2205      2149
 -1       760    8    0    1
 -2       443       294       444      2146      2150      2206
 -1       761    8    0    1
 -2       180       321       181      1823      2207      1357
 -1       762    8    0    1
 -2       296       446       470      2156      2208      2209
 -1       763    8    0    1
 -2       296       470       469      2209      2210      2203
 -1       764    8    0    1
 -2       335       181       321      1824      2207      2211
 -1       765    8    0    1
 -2       442       292       440      2144      2141      2212
 -1       766    8    0    1
 -2       441       291       442      2142      2145      2213
 -1       767    8    0    1
 -2       439       289       290      2137      1686      2214
 -1       768    8    0    1
 -2       319       441       468      2143      2215      2200
 -1       769    8    0    1
 -2       466       317       471      2196      2216      2217
 -1       770    8    0    1
 -2       317       467       471      2199      2218      2216
 -1       771    8    0    1
 -2       465       316       466      2194      2197      2219
 -1       772    8    0    1
 -2       464       315       465      2192      2195      2220
 -1       773    8    0    1
 -2       463       314       464      2190      2193      2221
 -1       774    8    0    1
 -2       462       313       463      2188      2191      2222
 -1       775    8    0    1
 -2       460       311       461      2183      2187      2223
 -1       776    8    0    1
 -2       458       309       459      2179      2182      2224
 -1       777    8    0    1
 -2       457       308       458      2177      2180      2225
 -1       778    8    0    1
 -2       456       307       472      2175      2226      2227
 -1       779    8    0    1
 -2       307       457       472      2178      2228      2226
 -1       780    8    0    1
 -2       455       306       456      2173      2176      2229
 -1       781    8    0    1
 -2       454       305       455      2171      2174      2230
 -1       782    8    0    1
 -2       453       304       454      2169      2172      2231
 -1       783    8    0    1
 -2       452       303       453      2167      2170      2232
 -1       784    8    0    1
 -2       451       302       452      2165      2168      2233
 -1       785    8    0    1
 -2       450       301       451      2163      2166      2234
 -1       786    8    0    1
 -2       449       300       450      2161      2164      2235
 -1       787    8    0    1
 -2       448       299       449      2159      2162      2236
 -1       788    8    0    1
 -2       446       297       447      2155      2158      2237
 -1       789    8    0    1
 -2       447       298       448      2157      2160      2238
 -1       790    8    0    1
 -2       461       312       462      2186      2189      2239
 -1       791    8    0    1
 -2       334       381       473      1964      2240      2241
 -1       792    8    0    1
 -2       323       324       474      1790      2242      2243
 -1       793    8    0    1
 -2       322       323       475      1787      2244      2245
 -1       794    8    0    1
 -2       323       474       475      2243      2246      2244
 -1       795    8    0    1
 -2       325       326       476      1796      2247      2248
 -1       796    8    0    1
 -2       326       327       477      1799      2249      2250
 -1       797    8    0    1
 -2       326       477       476      2250      2251      2247
 -1       798    8    0    1
 -2       327       328       478      1802      2252      2253
 -1       799    8    0    1
 -2       327       478       477      2253      2254      2249
 -1       800    8    0    1
 -2       328       329       479      1805      2255      2256
 -1       801    8    0    1
 -2       328       479       478      2256      2257      2252
 -1       802    8    0    1
 -2       329       330       480      1808      2258      2259
 -1       803    8    0    1
 -2       329       480       479      2259      2260      2255
 -1       804    8    0    1
 -2       330       331       481      1811      2261      2262
 -1       805    8    0    1
 -2       330       481       480      2262      2263      2258
 -1       806    8    0    1
 -2       381       382       482      1967      2264      2265
 -1       807    8    0    1
 -2       381       482       473      2265      2266      2240
 -1       808    8    0    1
 -2       336       335       483      1828      2267      2268
 -1       809    8    0    1
 -2       337       336       484      1831      2269      2270
 -1       810    8    0    1
 -2       336       483       484      2268      2271      2269
 -1       811    8    0    1
 -2       338       337       485      1834      2272      2273
 -1       812    8    0    1
 -2       337       484       485      2270      2274      2272
 -1       813    8    0    1
 -2       339       338       486      1837      2275      2276
 -1       814    8    0    1
 -2       338       485       486      2273      2277      2275
 -1       815    8    0    1
 -2       340       339       487      1840      2278      2279
 -1       816    8    0    1
 -2       339       486       487      2276      2280      2278
 -1       817    8    0    1
 -2       341       340       488      1843      2281      2282
 -1       818    8    0    1
 -2       340       487       488      2279      2283      2281
 -1       819    8    0    1
 -2       342       341       489      1846      2284      2285
 -1       820    8    0    1
 -2       341       488       489      2282      2286      2284
 -1       821    8    0    1
 -2       343       342       490      1849      2287      2288
 -1       822    8    0    1
 -2       342       489       490      2285      2289      2287
 -1       823    8    0    1
 -2       344       343       491      1852      2290      2291
 -1       824    8    0    1
 -2       343       490       491      2288      2292      2290
 -1       825    8    0    1
 -2       345       344       492      1855      2293      2294
 -1       826    8    0    1
 -2       344       491       492      2291      2295      2293
 -1       827    8    0    1
 -2       346       345       493      1858      2296      2297
 -1       828    8    0    1
 -2       345       492       493      2294      2298      2296
 -1       829    8    0    1
 -2       347       346       494      1861      2299      2300
 -1       830    8    0    1
 -2       346       493       494      2297      2301      2299
 -1       831    8    0    1
 -2       348       347       495      1864      2302      2303
 -1       832    8    0    1
 -2       347       494       495      2300      2304      2302
 -1       833    8    0    1
 -2       349       348       496      1867      2305      2306
 -1       834    8    0    1
 -2       348       495       496      2303      2307      2305
 -1       835    8    0    1
 -2       350       349       497      1870      2308      2309
 -1       836    8    0    1
 -2       349       496       497      2306      2310      2308
 -1       837    8    0    1
 -2       351       350       498      1873      2311      2312
 -1       838    8    0    1
 -2       350       497       498      2309      2313      2311
 -1       839    8    0    1
 -2       352       351       499      1876      2314      2315
 -1       840    8    0    1
 -2       351       498       499      2312      2316      2314
 -1       841    8    0    1
 -2       353       352       500      1879      2317      2318
 -1       842    8    0    1
 -2       352       499       500      2315      2319      2317
 -1       843    8    0    1
 -2       354       353       501      1882      2320      2321
 -1       844    8    0    1
 -2       353       500       501      2318      2322      2320
 -1       845    8    0    1
 -2       355       354       502      1885      2323      2324
 -1       846    8    0    1
 -2       354       501       502      2321      2325      2323
 -1       847    8    0    1
 -2       356       355       503      1888      2326      2327
 -1       848    8    0    1
 -2       355       502       503      2324      2328      2326
 -1       849    8    0    1
 -2       357       356       504      1891      2329      2330
 -1       850    8    0    1
 -2       356       503       504      2327      2331      2329
 -1       851    8    0    1
 -2       358       357       505      1894      2332      2333
 -1       852    8    0    1
 -2       357       504       505      2330      2334      2332
 -1       853    8    0    1
 -2       359       358       506      1897      2335      2336
 -1       854    8    0    1
 -2       358       505       506      2333      2337      2335
 -1       855    8    0    1
 -2       360       359       507      1900      2338      2339
 -1       856    8    0    1
 -2       359       506       507      2336      2340      2338
 -1       857    8    0    1
 -2       361       360       508      1903      2341      2342
 -1       858    8    0    1
 -2       360       507       508      2339      2343      2341
 -1       859    8    0    1
 -2       362       361       509      1906      2344      2345
 -1       860    8    0    1
 -2       361       508       509      2342      2346      2344
 -1       861    8    0    1
 -2       363       362       510      1909      2347      2348
 -1       862    8    0    1
 -2       362       509       510      2345      2349      2347
 -1       863    8    0    1
 -2       364       363       511      1912      2350      2351
 -1       864    8    0    1
 -2       363       510       511      2348      2352      2350
 -1       865    8    0    1
 -2       365       364       512      1915      2353      2354
 -1       866    8    0    1
 -2       364       511       512      2351      2355      2353
 -1       867    8    0    1
 -2       366       365       513      1918      2356      2357
 -1       868    8    0    1
 -2       365       512       513      2354      2358      2356
 -1       869    8    0    1
 -2       367       366       514      1921      2359      2360
 -1       870    8    0    1
 -2       366       513       514      2357      2361      2359
 -1       871    8    0    1
 -2       368       367       515      1924      2362      2363
 -1       872    8    0    1
 -2       367       514       515      2360      2364      2362
 -1       873    8    0    1
 -2       369       368       516      1927      2365      2366
 -1       874    8    0    1
 -2       368       515       516      2363      2367      2365
 -1       875    8    0    1
 -2       370       369       517      1930      2368      2369
 -1       876    8    0    1
 -2       369       516       517      2366      2370      2368
 -1       877    8    0    1
 -2       371       370       518      1933      2371      2372
 -1       878    8    0    1
 -2       370       517       518      2369      2373      2371
 -1       879    8    0    1
 -2       372       371       519      1936      2374      2375
 -1       880    8    0    1
 -2       371       518       519      2372      2376      2374
 -1       881    8    0    1
 -2       373       372       520      1939      2377      2378
 -1       882    8    0    1
 -2       372       519       520      2375      2379      2377
 -1       883    8    0    1
 -2       374       373       521      1942      2380      2381
 -1       884    8    0    1
 -2       373       520       521      2378      2382      2380
 -1       885    8    0    1
 -2       375       374       522      1945      2383      2384
 -1       886    8    0    1
 -2       374       521       522      2381      2385      2383
 -1       887    8    0    1
 -2       376       375       523      1948      2386      2387
 -1       888    8    0    1
 -2       375       522       523      2384      2388      2386
 -1       889    8    0    1
 -2       377       376       524      1951      2389      2390
 -1       890    8    0    1
 -2       376       523       524      2387      2391      2389
 -1       891    8    0    1
 -2       378       377       525      1954      2392      2393
 -1       892    8    0    1
 -2       377       524       525      2390      2394      2392
 -1       893    8    0    1
 -2       379       378       526      1957      2395      2396
 -1       894    8    0    1
 -2       378       525       526      2393      2397      2395
 -1       895    8    0    1
 -2       383       384       527      1973      2398      2399
 -1       896    8    0    1
 -2       384       385       528      1976      2400      2401
 -1       897    8    0    1
 -2       384       528       527      2401      2402      2398
 -1       898    8    0    1
 -2       385       386       529      1979      2403      2404
 -1       899    8    0    1
 -2       385       529       528      2404      2405      2400
 -1       900    8    0    1
 -2       386       387       530      1982      2406      2407
 -1       901    8    0    1
 -2       386       530       529      2407      2408      2403
 -1       902    8    0    1
 -2       387       388       531      1985      2409      2410
 -1       903    8    0    1
 -2       387       531       530      2410      2411      2406
 -1       904    8    0    1
 -2       388       389       532      1988      2412      2413
 -1       905    8    0    1
 -2       388       532       531      2413      2414      2409
 -1       906    8    0    1
 -2       389       390       533      1991      2415      2416
 -1       907    8    0    1
 -2       389       533       532      2416      2417      2412
 -1       908    8    0    1
 -2       390       391       534      1994      2418      2419
 -1       909    8    0    1
 -2       390       534       533      2419      2420      2415
 -1       910    8    0    1
 -2       391       392       535      1997      2421      2422
 -1       911    8    0    1
 -2       391       535       534      2422      2423      2418
 -1       912    8    0    1
 -2       392       393       536      2000      2424      2425
 -1       913    8    0    1
 -2       392       536       535      2425      2426      2421
 -1       914    8    0    1
 -2       393       394       537      2003      2427      2428
 -1       915    8    0    1
 -2       393       537       536      2428      2429      2424
 -1       916    8    0    1
 -2       394       395       538      2006      2430      2431
 -1       917    8    0    1
 -2       394       538       537      2431      2432      2427
 -1       918    8    0    1
 -2       395       396       539      2009      2433      2434
 -1       919    8    0    1
 -2       395       539       538      2434      2435      2430
 -1       920    8    0    1
 -2       396       397       540      2012      2436      2437
 -1       921    8    0    1
 -2       396       540       539      2437      2438      2433
 -1       922    8    0    1
 -2       397       398       541      2015      2439      2440
 -1       923    8    0    1
 -2       397       541       540      2440      2441      2436
 -1       924    8    0    1
 -2       398       399       542      2018      2442      2443
 -1       925    8    0    1
 -2       398       542       541      2443      2444      2439
 -1       926    8    0    1
 -2       399       400       543      2021      2445      2446
 -1       927    8    0    1
 -2       399       543       542      2446      2447      2442
 -1       928    8    0    1
 -2       400       401       544      2024      2448      2449
 -1       929    8    0    1
 -2       400       544       543      2449      2450      2445
 -1       930    8    0    1
 -2       401       402       545      2027      2451      2452
 -1       931    8    0    1
 -2       401       545       544      2452      2453      2448
 -1       932    8    0    1
 -2       402       403       546      2030      2454      2455
 -1       933    8    0    1
 -2       402       546       545      2455      2456      2451
 -1       934    8    0    1
 -2       403       404       547      2033      2457      2458
 -1       935    8    0    1
 -2       403       547       546      2458      2459      2454
 -1       936    8    0    1
 -2       404       405       548      2036      2460      2461
 -1       937    8    0    1
 -2       404       548       547      2461      2462      2457
 -1       938    8    0    1
 -2       405       406       549      2039      2463      2464
 -1       939    8    0    1
 -2       405       549       548      2464      2465      2460
 -1       940    8    0    1
 -2       406       407       550      2042      2466      2467
 -1       941    8    0    1
 -2       406       550       549      2467      2468      2463
 -1       942    8    0    1
 -2       407       408       551      2045      2469      2470
 -1       943    8    0    1
 -2       407       551       550      2470      2471      2466
 -1       944    8    0    1
 -2       408       409       552      2048      2472      2473
 -1       945    8    0    1
 -2       408       552       551      2473      2474      2469
 -1       946    8    0    1
 -2       409       410       553      2051      2475      2476
 -1       947    8    0    1
 -2       409       553       552      2476      2477      2472
 -1       948    8    0    1
 -2       410       411       554      2054      2478      2479
 -1       949    8    0    1
 -2       410       554       553      2479      2480      2475
 -1       950    8    0    1
 -2       411       412       555      2057      2481      2482
 -1       951    8    0    1
 -2       411       555       554      2482      2483      2478
 -1       952    8    0    1
 -2       412       413       556      2060      2484      2485
 -1       953    8    0    1
 -2       412       556       555      2485      2486      2481
 -1       954    8    0    1
 -2       413       414       557      2063      2487      2488
 -1       955    8    0    1
 -2       413       557       556      2488      2489      2484
 -1       956    8    0    1
 -2       414       415       558      2066      2490      2491
 -1       957    8    0    1
 -2       414       558       557      2491      2492      2487
 -1       958    8    0    1
 -2       415       416       559      2069      2493      2494
 -1       959    8    0    1
 -2       415       559       558      2494      2495      2490
 -1       960    8    0    1
 -2       416       417       560      2072      2496      2497
 -1       961    8    0    1
 -2       416       560       559      2497      2498      2493
 -1       962    8    0    1
 -2       417       418       561      2075      2499      2500
 -1       963    8    0    1
 -2       417       561       560      2500      2501      2496
 -1       964    8    0    1
 -2       418       419       562      2078      2502      2503
 -1       965    8    0    1
 -2       418       562       561      2503      2504      2499
 -1       966    8    0    1
 -2       419       420       563      2081      2505      2506
 -1       967    8    0    1
 -2       419       563       562      2506      2507      2502
 -1       968    8    0    1
 -2       420       421       564      2084      2508      2509
 -1       969    8    0    1
 -2       420       564       563      2509      2510      2505
 -1       970    8    0    1
 -2       421       422       565      2087      2511      2512
 -1       971    8    0    1
 -2       421       565       564      2512      2513      2508
 -1       972    8    0    1
 -2       422       423       566      2090      2514      2515
 -1       973    8    0    1
 -2       422       566       565      2515      2516      2511
 -1       974    8    0    1
 -2       423       424       567      2093      2517      2518
 -1       975    8    0    1
 -2       423       567       566      2518      2519      2514
 -1       976    8    0    1
 -2       424       425       568      2096      2520      2521
 -1       977    8    0    1
 -2       424       568       567      2521      2522      2517
 -1       978    8    0    1
 -2       425       426       429      2099      2108      2523
 -1       979    8    0    1
 -2       430       431       569      2115      2524      2525
 -1       980    8    0    1
 -2       431       432       570      2118      2526      2527
 -1       981    8    0    1
 -2       431       570       569      2527      2528      2524
 -1       982    8    0    1
 -2       428       427       571      2105      2529      2530
 -1       983    8    0    1
 -2       427       430       572      2112      2531      2532
 -1       984    8    0    1
 -2       571       427       572      2529      2532      2533
 -1       985    8    0    1
 -2       430       569       572      2525      2534      2531
 -1       986    8    0    1
 -2       432       433       573      2121      2535      2536
 -1       987    8    0    1
 -2       432       573       570      2536      2537      2526
 -1       988    8    0    1
 -2       433       434       574      2124      2538      2539
 -1       989    8    0    1
 -2       433       574       573      2539      2540      2535
 -1       990    8    0    1
 -2       434       435       575      2127      2541      2542
 -1       991    8    0    1
 -2       434       575       574      2542      2543      2538
 -1       992    8    0    1
 -2       435       436       576      2130      2544      2545
 -1       993    8    0    1
 -2       435       576       575      2545      2546      2541
 -1       994    8    0    1
 -2       436       437       577      2133      2547      2548
 -1       995    8    0    1
 -2       436       577       576      2548      2549      2544
 -1       996    8    0    1
 -2       437       438       578      2136      2550      2551
 -1       997    8    0    1
 -2       437       578       577      2551      2552      2547
 -1       998    8    0    1
 -2       438       439       579      2139      2553      2554
 -1       999    8    0    1
 -2       438       579       578      2554      2555      2550
 -1      1000    8    0    1
 -2       441       442       580      2213      2556      2557
 -1      1001    8    0    1
 -2       442       440       581      2212      2558      2559
 -1      1002    8    0    1
 -2       468       441       582      2215      2560      2561
 -1      1003    8    0    1
 -2       382       383       583      1970      2562      2563
 -1      1004    8    0    1
 -2       383       527       583      2399      2564      2562
 -1      1005    8    0    1
 -2       439       290       380      2214      1960      2565
 -1      1006    8    0    1
 -2       440       443       584      2148      2566      2567
 -1      1007    8    0    1
 -2       443       444       585      2206      2568      2569
 -1      1008    8    0    1
 -2       444       469       586      2205      2570      2571
 -1      1009    8    0    1
 -2       458       459       587      2224      2572      2573
 -1      1010    8    0    1
 -2       324       325       588      1793      2574      2575
 -1      1011    8    0    1
 -2       474       324       588      2242      2575      2576
 -1      1012    8    0    1
 -2       325       476       588      2248      2577      2574
 -1      1013    8    0    1
 -2       447       448       589      2238      2578      2579
 -1      1014    8    0    1
 -2       461       462       590      2239      2580      2581
 -1      1015    8    0    1
 -2       446       447       591      2237      2582      2583
 -1      1016    8    0    1
 -2       447       589       591      2579      2584      2582
 -1      1017    8    0    1
 -2       448       449       592      2236      2585      2586
 -1      1018    8    0    1
 -2       449       450       593      2235      2587      2588
 -1      1019    8    0    1
 -2       450       451       594      2234      2589      2590
 -1      1020    8    0    1
 -2       451       452       595      2233      2591      2592
 -1      1021    8    0    1
 -2       452       453       596      2232      2593      2594
 -1      1022    8    0    1
 -2       453       454       597      2231      2595      2596
 -1      1023    8    0    1
 -2       453       597       596      2596      2597      2593
 -1      1024    8    0    1
 -2       454       455       598      2230      2598      2599
 -1      1025    8    0    1
 -2       455       456       599      2229      2600      2601
 -1      1026    8    0    1
 -2       457       458       600      2225      2602      2603
 -1      1027    8    0    1
 -2       459       460       601      2185      2604      2605
 -1      1028    8    0    1
 -2       460       461       602      2223      2606      2607
 -1      1029    8    0    1
 -2       462       463       603      2222      2608      2609
 -1      1030    8    0    1
 -2       462       603       590      2609      2610      2580
 -1      1031    8    0    1
 -2       463       464       604      2221      2611      2612
 -1      1032    8    0    1
 -2       464       465       605      2220      2613      2614
 -1      1033    8    0    1
 -2       465       466       606      2219      2615      2616
 -1      1034    8    0    1
 -2       467       468       607      2202      2617      2618
 -1      1035    8    0    1
 -2       335       321       608      2211      2619      2620
 -1      1036    8    0    1
 -2       483       335       608      2267      2620      2621
 -1      1037    8    0    1
 -2       321       320       608      1782      2622      2619
 -1      1038    8    0    1
 -2       333       334       609      1822      2623      2624
 -1      1039    8    0    1
 -2       332       333       609      1817      2624      2625
 -1      1040    8    0    1
 -2       334       473       609      2241      2626      2623
 -1      1041    8    0    1
 -2       448       592       610      2586      2627      2628
 -1      1042    8    0    1
 -2       448       610       589      2628      2629      2578
 -1      1043    8    0    1
 -2       322       475       611      2245      2630      2631
 -1      1044    8    0    1
 -2       322       611       445      2631      2632      2154
 -1      1045    8    0    1
 -2       482       382       583      2264      2563      2633
 -1      1046    8    0    1
 -2       331       332       609      1814      2625      2634
 -1      1047    8    0    1
 -2       606       466       471      2615      2217      2635
 -1      1048    8    0    1
 -2       470       446       612      2208      2636      2637
 -1      1049    8    0    1
 -2       446       591       612      2583      2638      2636
 -1      1050    8    0    1
 -2       469       470       586      2210      2639      2570
 -1      1051    8    0    1
 -2       605       465       606      2613      2616      2640
 -1      1052    8    0    1
 -2       603       463       604      2608      2612      2641
 -1      1053    8    0    1
 -2       440       584       581      2567      2642      2558
 -1      1054    8    0    1
 -2       602       461       613      2606      2643      2644
 -1      1055    8    0    1
 -2       461       590       613      2581      2645      2643
 -1      1056    8    0    1
 -2       425       429       568      2523      2646      2520
 -1      1057    8    0    1
 -2       429       428       568      2109      2647      2646
 -1      1058    8    0    1
 -2       601       460       602      2604      2607      2648
 -1      1059    8    0    1
 -2       441       580       582      2557      2649      2560
 -1      1060    8    0    1
 -2       580       442       581      2556      2559      2650
 -1      1061    8    0    1
 -2       600       458       587      2602      2573      2651
 -1      1062    8    0    1
 -2       468       582       607      2561      2652      2617
 -1      1063    8    0    1
 -2       331       609       481      2634      2653      2261
 -1      1064    8    0    1
 -2       585       444       586      2568      2571      2654
 -1      1065    8    0    1
 -2       471       467       607      2218      2618      2655
 -1      1066    8    0    1
 -2       584       443       585      2566      2569      2656
 -1      1067    8    0    1
 -2       608       320       445      2622      2153      2657
 -1      1068    8    0    1
 -2       599       456       614      2600      2658      2659
 -1      1069    8    0    1
 -2       456       472       614      2227      2660      2658
 -1      1070    8    0    1
 -2       597       454       598      2595      2599      2661
 -1      1071    8    0    1
 -2       595       452       596      2591      2594      2662
 -1      1072    8    0    1
 -2       594       451       595      2589      2592      2663
 -1      1073    8    0    1
 -2       593       450       594      2587      2590      2664
 -1      1074    8    0    1
 -2       472       457       600      2228      2603      2665
 -1      1075    8    0    1
 -2       587       459       601      2572      2605      2666
 -1      1076    8    0    1
 -2       592       449       593      2585      2588      2667
 -1      1077    8    0    1
 -2       598       455       599      2598      2601      2668
 -1      1078    8    0    1
 -2       439       380       615      2565      2669      2670
 -1      1079    8    0    1
 -2       579       439       615      2553      2670      2671
 -1      1080    8    0    1
 -2       380       379       615      1961      2672      2669
 -1      1081    8    0    1
 -2       604       464       605      2611      2614      2673
 -1      1082    8    0    1
 -2       568       428       571      2647      2530      2674
 -1      1083    8    0    1
 -2       615       379       526      2672      2396      2675
 -1      1084    8    0    1
 -2       477       478       616      2254      2676      2677
 -1      1085    8    0    1
 -2       476       477       617      2251      2678      2679
 -1      1086    8    0    1
 -2       477       616       617      2677      2680      2678
 -1      1087    8    0    1
 -2       479       480       618      2260      2681      2682
 -1      1088    8    0    1
 -2       480       481       619      2263      2683      2684
 -1      1089    8    0    1
 -2       480       619       618      2684      2685      2681
 -1      1090    8    0    1
 -2       473       482       620      2266      2686      2687
 -1      1091    8    0    1
 -2       585       586       621      2654      2688      2689
 -1      1092    8    0    1
 -2       482       583       622      2633      2690      2691
 -1      1093    8    0    1
 -2       482       622       620      2691      2692      2686
 -1      1094    8    0    1
 -2       609       473       481      2626      2693      2653
 -1      1095    8    0    1
 -2       485       484       623      2274      2694      2695
 -1      1096    8    0    1
 -2       486       485       624      2277      2696      2697
 -1      1097    8    0    1
 -2       485       623       624      2695      2698      2696
 -1      1098    8    0    1
 -2       487       486       625      2280      2699      2700
 -1      1099    8    0    1
 -2       486       624       625      2697      2701      2699
 -1      1100    8    0    1
 -2       488       487       626      2283      2702      2703
 -1      1101    8    0    1
 -2       487       625       626      2700      2704      2702
 -1      1102    8    0    1
 -2       489       488       627      2286      2705      2706
 -1      1103    8    0    1
 -2       488       626       627      2703      2707      2705
 -1      1104    8    0    1
 -2       490       489       628      2289      2708      2709
 -1      1105    8    0    1
 -2       489       627       628      2706      2710      2708
 -1      1106    8    0    1
 -2       491       490       629      2292      2711      2712
 -1      1107    8    0    1
 -2       490       628       629      2709      2713      2711
 -1      1108    8    0    1
 -2       492       491       630      2295      2714      2715
 -1      1109    8    0    1
 -2       491       629       630      2712      2716      2714
 -1      1110    8    0    1
 -2       493       492       631      2298      2717      2718
 -1      1111    8    0    1
 -2       492       630       631      2715      2719      2717
 -1      1112    8    0    1
 -2       494       493       632      2301      2720      2721
 -1      1113    8    0    1
 -2       493       631       632      2718      2722      2720
 -1      1114    8    0    1
 -2       495       494       633      2304      2723      2724
 -1      1115    8    0    1
 -2       494       632       633      2721      2725      2723
 -1      1116    8    0    1
 -2       496       495       634      2307      2726      2727
 -1      1117    8    0    1
 -2       495       633       634      2724      2728      2726
 -1      1118    8    0    1
 -2       497       496       635      2310      2729      2730
 -1      1119    8    0    1
 -2       496       634       635      2727      2731      2729
 -1      1120    8    0    1
 -2       498       497       636      2313      2732      2733
 -1      1121    8    0    1
 -2       497       635       636      2730      2734      2732
 -1      1122    8    0    1
 -2       499       498       637      2316      2735      2736
 -1      1123    8    0    1
 -2       498       636       637      2733      2737      2735
 -1      1124    8    0    1
 -2       500       499       638      2319      2738      2739
 -1      1125    8    0    1
 -2       499       637       638      2736      2740      2738
 -1      1126    8    0    1
 -2       501       500       639      2322      2741      2742
 -1      1127    8    0    1
 -2       500       638       639      2739      2743      2741
 -1      1128    8    0    1
 -2       502       501       640      2325      2744      2745
 -1      1129    8    0    1
 -2       501       639       640      2742      2746      2744
 -1      1130    8    0    1
 -2       503       502       641      2328      2747      2748
 -1      1131    8    0    1
 -2       502       640       641      2745      2749      2747
 -1      1132    8    0    1
 -2       504       503       642      2331      2750      2751
 -1      1133    8    0    1
 -2       503       641       642      2748      2752      2750
 -1      1134    8    0    1
 -2       505       504       643      2334      2753      2754
 -1      1135    8    0    1
 -2       504       642       643      2751      2755      2753
 -1      1136    8    0    1
 -2       506       505       644      2337      2756      2757
 -1      1137    8    0    1
 -2       505       643       644      2754      2758      2756
 -1      1138    8    0    1
 -2       507       506       645      2340      2759      2760
 -1      1139    8    0    1
 -2       506       644       645      2757      2761      2759
 -1      1140    8    0    1
 -2       508       507       646      2343      2762      2763
 -1      1141    8    0    1
 -2       507       645       646      2760      2764      2762
 -1      1142    8    0    1
 -2       509       508       647      2346      2765      2766
 -1      1143    8    0    1
 -2       508       646       647      2763      2767      2765
 -1      1144    8    0    1
 -2       510       509       648      2349      2768      2769
 -1      1145    8    0    1
 -2       509       647       648      2766      2770      2768
 -1      1146    8    0    1
 -2       511       510       649      2352      2771      2772
 -1      1147    8    0    1
 -2       510       648       649      2769      2773      2771
 -1      1148    8    0    1
 -2       512       511       650      2355      2774      2775
 -1      1149    8    0    1
 -2       511       649       650      2772      2776      2774
 -1      1150    8    0    1
 -2       513       512       651      2358      2777      2778
 -1      1151    8    0    1
 -2       512       650       651      2775      2779      2777
 -1      1152    8    0    1
 -2       514       513       652      2361      2780      2781
 -1      1153    8    0    1
 -2       513       651       652      2778      2782      2780
 -1      1154    8    0    1
 -2       515       514       653      2364      2783      2784
 -1      1155    8    0    1
 -2       514       652       653      2781      2785      2783
 -1      1156    8    0    1
 -2       516       515       654      2367      2786      2787
 -1      1157    8    0    1
 -2       515       653       654      2784      2788      2786
 -1      1158    8    0    1
 -2       517       516       655      2370      2789      2790
 -1      1159    8    0    1
 -2       516       654       655      2787      2791      2789
 -1      1160    8    0    1
 -2       518       517       656      2373      2792      2793
 -1      1161    8    0    1
 -2       517       655       656      2790      2794      2792
 -1      1162    8    0    1
 -2       519       518       657      2376      2795      2796
 -1      1163    8    0    1
 -2       518       656       657      2793      2797      2795
 -1      1164    8    0    1
 -2       520       519       658      2379      2798      2799
 -1      1165    8    0    1
 -2       519       657       658      2796      2800      2798
 -1      1166    8    0    1
 -2       521       520       659      2382      2801      2802
 -1      1167    8    0    1
 -2       520       658       659      2799      2803      2801
 -1      1168    8    0    1
 -2       522       521       660      2385      2804      2805
 -1      1169    8    0    1
 -2       521       659       660      2802      2806      2804
 -1      1170    8    0    1
 -2       523       522       661      2388      2807      2808
 -1      1171    8    0    1
 -2       522       660       661      2805      2809      2807
 -1      1172    8    0    1
 -2       524       523       662      2391      2810      2811
 -1      1173    8    0    1
 -2       523       661       662      2808      2812      2810
 -1      1174    8    0    1
 -2       525       524       663      2394      2813      2814
 -1      1175    8    0    1
 -2       524       662       663      2811      2815      2813
 -1      1176    8    0    1
 -2       526       525       664      2397      2816      2817
 -1      1177    8    0    1
 -2       525       663       664      2814      2818      2816
 -1      1178    8    0    1
 -2       528       529       665      2405      2819      2820
 -1      1179    8    0    1
 -2       604       605       666      2673      2821      2822
 -1      1180    8    0    1
 -2       527       528       667      2402      2823      2824
 -1      1181    8    0    1
 -2       528       665       667      2820      2825      2823
 -1      1182    8    0    1
 -2       530       531       668      2411      2826      2827
 -1      1183    8    0    1
 -2       531       532       593      2414      2828      2829
 -1      1184    8    0    1
 -2       532       533       610      2417      2830      2831
 -1      1185    8    0    1
 -2       533       534       610      2420      2832      2830
 -1      1186    8    0    1
 -2       534       535       669      2423      2833      2834
 -1      1187    8    0    1
 -2       535       536       670      2426      2835      2836
 -1      1188    8    0    1
 -2       536       537       671      2429      2837      2838
 -1      1189    8    0    1
 -2       536       671       670      2838      2839      2835
 -1      1190    8    0    1
 -2       537       538       672      2432      2840      2841
 -1      1191    8    0    1
 -2       537       672       671      2841      2842      2837
 -1      1192    8    0    1
 -2       538       539       673      2435      2843      2844
 -1      1193    8    0    1
 -2       538       673       672      2844      2845      2840
 -1      1194    8    0    1
 -2       539       540       674      2438      2846      2847
 -1      1195    8    0    1
 -2       539       674       673      2847      2848      2843
 -1      1196    8    0    1
 -2       540       541       675      2441      2849      2850
 -1      1197    8    0    1
 -2       540       675       674      2850      2851      2846
 -1      1198    8    0    1
 -2       541       542       676      2444      2852      2853
 -1      1199    8    0    1
 -2       541       676       675      2853      2854      2849
 -1      1200    8    0    1
 -2       542       543       677      2447      2855      2856
 -1      1201    8    0    1
 -2       542       677       676      2856      2857      2852
 -1      1202    8    0    1
 -2       543       544       678      2450      2858      2859
 -1      1203    8    0    1
 -2       543       678       677      2859      2860      2855
 -1      1204    8    0    1
 -2       544       545       679      2453      2861      2862
 -1      1205    8    0    1
 -2       544       679       678      2862      2863      2858
 -1      1206    8    0    1
 -2       545       546       680      2456      2864      2865
 -1      1207    8    0    1
 -2       545       680       679      2865      2866      2861
 -1      1208    8    0    1
 -2       546       547       681      2459      2867      2868
 -1      1209    8    0    1
 -2       546       681       680      2868      2869      2864
 -1      1210    8    0    1
 -2       547       548       682      2462      2870      2871
 -1      1211    8    0    1
 -2       547       682       681      2871      2872      2867
 -1      1212    8    0    1
 -2       548       549       683      2465      2873      2874
 -1      1213    8    0    1
 -2       548       683       682      2874      2875      2870
 -1      1214    8    0    1
 -2       549       550       684      2468      2876      2877
 -1      1215    8    0    1
 -2       549       684       683      2877      2878      2873
 -1      1216    8    0    1
 -2       550       551       685      2471      2879      2880
 -1      1217    8    0    1
 -2       550       685       684      2880      2881      2876
 -1      1218    8    0    1
 -2       551       552       686      2474      2882      2883
 -1      1219    8    0    1
 -2       551       686       685      2883      2884      2879
 -1      1220    8    0    1
 -2       552       553       687      2477      2885      2886
 -1      1221    8    0    1
 -2       552       687       686      2886      2887      2882
 -1      1222    8    0    1
 -2       553       554       688      2480      2888      2889
 -1      1223    8    0    1
 -2       553       688       687      2889      2890      2885
 -1      1224    8    0    1
 -2       554       555       689      2483      2891      2892
 -1      1225    8    0    1
 -2       554       689       688      2892      2893      2888
 -1      1226    8    0    1
 -2       555       556       690      2486      2894      2895
 -1      1227    8    0    1
 -2       555       690       689      2895      2896      2891
 -1      1228    8    0    1
 -2       556       557       691      2489      2897      2898
 -1      1229    8    0    1
 -2       556       691       690      2898      2899      2894
 -1      1230    8    0    1
 -2       557       558       692      2492      2900      2901
 -1      1231    8    0    1
 -2       557       692       691      2901      2902      2897
 -1      1232    8    0    1
 -2       558       559       693      2495      2903      2904
 -1      1233    8    0    1
 -2       558       693       692      2904      2905      2900
 -1      1234    8    0    1
 -2       559       560       694      2498      2906      2907
 -1      1235    8    0    1
 -2       559       694       693      2907      2908      2903
 -1      1236    8    0    1
 -2       560       561       695      2501      2909      2910
 -1      1237    8    0    1
 -2       560       695       694      2910      2911      2906
 -1      1238    8    0    1
 -2       561       562       696      2504      2912      2913
 -1      1239    8    0    1
 -2       561       696       695      2913      2914      2909
 -1      1240    8    0    1
 -2       562       563       697      2507      2915      2916
 -1      1241    8    0    1
 -2       562       697       696      2916      2917      2912
 -1      1242    8    0    1
 -2       563       564       698      2510      2918      2919
 -1      1243    8    0    1
 -2       563       698       697      2919      2920      2915
 -1      1244    8    0    1
 -2       564       565       699      2513      2921      2922
 -1      1245    8    0    1
 -2       564       699       698      2922      2923      2918
 -1      1246    8    0    1
 -2       565       566       700      2516      2924      2925
 -1      1247    8    0    1
 -2       565       700       699      2925      2926      2921
 -1      1248    8    0    1
 -2       566       567       701      2519      2927      2928
 -1      1249    8    0    1
 -2       566       701       700      2928      2929      2924
 -1      1250    8    0    1
 -2       567       568       702      2522      2930      2931
 -1      1251    8    0    1
 -2       701       567       702      2927      2931      2932
 -1      1252    8    0    1
 -2       568       571       702      2674      2933      2930
 -1      1253    8    0    1
 -2       573       574       703      2540      2934      2935
 -1      1254    8    0    1
 -2       615       526       704      2675      2936      2937
 -1      1255    8    0    1
 -2       526       664       704      2817      2938      2936
 -1      1256    8    0    1
 -2       569       570       705      2528      2939      2940
 -1      1257    8    0    1
 -2       574       575       706      2543      2941      2942
 -1      1258    8    0    1
 -2       574       706       703      2942      2943      2934
 -1      1259    8    0    1
 -2       570       573       707      2537      2944      2945
 -1      1260    8    0    1
 -2       705       570       707      2939      2945      2946
 -1      1261    8    0    1
 -2       573       703       707      2935      2947      2944
 -1      1262    8    0    1
 -2       575       576       708      2546      2948      2949
 -1      1263    8    0    1
 -2       575       708       706      2949      2950      2941
 -1      1264    8    0    1
 -2       576       577       709      2549      2951      2952
 -1      1265    8    0    1
 -2       576       709       708      2952      2953      2948
 -1      1266    8    0    1
 -2       577       578       710      2552      2954      2955
 -1      1267    8    0    1
 -2       577       710       709      2955      2956      2951
 -1      1268    8    0    1
 -2       600       587       711      2651      2957      2958
 -1      1269    8    0    1
 -2       608       445       611      2657      2632      2959
 -1      1270    8    0    1
 -2       471       607       712      2655      2960      2961
 -1      1271    8    0    1
 -2       607       582       713      2652      2962      2963
 -1      1272    8    0    1
 -2       595       596       714      2662      2964      2965
 -1      1273    8    0    1
 -2       591       589       715      2584      2966      2967
 -1      1274    8    0    1
 -2       605       606       716      2640      2968      2969
 -1      1275    8    0    1
 -2       583       527       717      2564      2970      2971
 -1      1276    8    0    1
 -2       622       583       717      2690      2971      2972
 -1      1277    8    0    1
 -2       527       667       717      2824      2973      2970
 -1      1278    8    0    1
 -2       580       581       718      2650      2974      2975
 -1      1279    8    0    1
 -2       529       530       719      2408      2976      2977
 -1      1280    8    0    1
 -2       665       529       719      2819      2977      2978
 -1      1281    8    0    1
 -2       530       668       719      2827      2979      2976
 -1      1282    8    0    1
 -2       484       483       720      2271      2980      2981
 -1      1283    8    0    1
 -2       484       720       623      2981      2982      2694
 -1      1284    8    0    1
 -2       478       479       721      2257      2983      2984
 -1      1285    8    0    1
 -2       616       478       721      2676      2984      2985
 -1      1286    8    0    1
 -2       479       618       721      2682      2986      2983
 -1      1287    8    0    1
 -2       581       584       722      2642      2987      2988
 -1      1288    8    0    1
 -2       606       471       723      2635      2989      2990
 -1      1289    8    0    1
 -2       716       606       723      2968      2990      2991
 -1      1290    8    0    1
 -2       471       712       723      2961      2992      2989
 -1      1291    8    0    1
 -2       475       474       724      2246      2993      2994
 -1      1292    8    0    1
 -2       601       602       725      2648      2995      2996
 -1      1293    8    0    1
 -2       586       470       726      2639      2997      2998
 -1      1294    8    0    1
 -2       598       599       727      2668      2999      3000
 -1      1295    8    0    1
 -2       472       600       728      2665      3001      3002
 -1      1296    8    0    1
 -2       594       595       729      2663      3003      3004
 -1      1297    8    0    1
 -2       596       597       730      2597      3005      3006
 -1      1298    8    0    1
 -2       579       615       704      2671      2937      3007
 -1      1299    8    0    1
 -2       587       601       731      2666      3008      3009
 -1      1300    8    0    1
 -2       597       598       732      2661      3010      3011
 -1      1301    8    0    1
 -2       598       727       732      3000      3012      3010
 -1      1302    8    0    1
 -2       582       580       733      2649      3013      3014
 -1      1303    8    0    1
 -2       580       718       733      2975      3015      3013
 -1      1304    8    0    1
 -2       590       603       734      2610      3016      3017
 -1      1305    8    0    1
 -2       603       604       735      2641      3018      3019
 -1      1306    8    0    1
 -2       584       585       736      2656      3020      3021
 -1      1307    8    0    1
 -2       611       475       737      2630      3022      3023
 -1      1308    8    0    1
 -2       475       724       737      2994      3024      3022
 -1      1309    8    0    1
 -2       476       617       738      2679      3025      3026
 -1      1310    8    0    1
 -2       476       738       588      3026      3027      2577
 -1      1311    8    0    1
 -2       481       473       620      2693      2687      3028
 -1      1312    8    0    1
 -2       585       621       736      2689      3029      3020
 -1      1313    8    0    1
 -2       612       591       715      2638      2967      3030
 -1      1314    8    0    1
 -2       581       722       718      2988      3031      2974
 -1      1315    8    0    1
 -2       569       705       739      2940      3032      3033
 -1      1316    8    0    1
 -2       569       739       572      3033      3034      2534
 -1      1317    8    0    1
 -2       604       666       735      2822      3035      3018
 -1      1318    8    0    1
 -2       668       531       593      2826      2829      3036
 -1      1319    8    0    1
 -2       669       535       670      2833      2836      3037
 -1      1320    8    0    1
 -2       587       731       711      3009      3038      2957
 -1      1321    8    0    1
 -2       571       572       740      2533      3039      3040
 -1      1322    8    0    1
 -2       702       571       740      2933      3040      3041
 -1      1323    8    0    1
 -2       572       739       740      3034      3042      3039
 -1      1324    8    0    1
 -2       713       582       733      2962      3014      3043
 -1      1325    8    0    1
 -2       602       613       741      2644      3044      3045
 -1      1326    8    0    1
 -2       602       741       725      3045      3046      2995
 -1      1327    8    0    1
 -2       600       711       742      2958      3047      3048
 -1      1328    8    0    1
 -2       600       742       728      3048      3049      3001
 -1      1329    8    0    1
 -2       578       579       704      2555      3007      3050
 -1      1330    8    0    1
 -2       621       586       726      2688      2998      3051
 -1      1331    8    0    1
 -2       730       597       732      3005      3011      3052
 -1      1332    8    0    1
 -2       608       611       743      2959      3053      3054
 -1      1333    8    0    1
 -2       483       608       743      2621      3054      3055
 -1      1334    8    0    1
 -2       611       737       743      3023      3056      3053
 -1      1335    8    0    1
 -2       729       595       744      3003      3057      3058
 -1      1336    8    0    1
 -2       595       714       744      2965      3059      3057
 -1      1337    8    0    1
 -2       578       704       745      3050      3060      3061
 -1      1338    8    0    1
 -2       710       578       745      2954      3061      3062
 -1      1339    8    0    1
 -2       704       664       745      2938      3063      3060
 -1      1340    8    0    1
 -2       727       599       746      2999      3064      3065
 -1      1341    8    0    1
 -2       599       614       746      2659      3066      3064
 -1      1342    8    0    1
 -2       715       589       610      2966      2629      3067
 -1      1343    8    0    1
 -2       712       607       747      2960      3068      3069
 -1      1344    8    0    1
 -2       607       713       747      2963      3070      3068
 -1      1345    8    0    1
 -2       614       472       728      2660      3002      3071
 -1      1346    8    0    1
 -2       470       612       726      2637      3072      2997
 -1      1347    8    0    1
 -2       714       596       730      2964      3006      3073
 -1      1348    8    0    1
 -2       474       588       748      2576      3074      3075
 -1      1349    8    0    1
 -2       724       474       748      2993      3075      3076
 -1      1350    8    0    1
 -2       588       738       748      3027      3077      3074
 -1      1351    8    0    1
 -2       605       716       666      2969      3078      2821
 -1      1352    8    0    1
 -2       481       620       619      3028      3079      2683
 -1      1353    8    0    1
 -2       601       725       731      2996      3080      3008
 -1      1354    8    0    1
 -2       722       584       736      2987      3021      3081
 -1      1355    8    0    1
 -2       483       743       720      3055      3082      2980
 -1      1356    8    0    1
 -2       734       603       735      3016      3019      3083
 -1      1357    8    0    1
 -2       736       621       749      3029      3084      3085
 -1      1358    8    0    1
 -2       618       619       750      2685      3086      3087
 -1      1359    8    0    1
 -2       610       592       751      2627      3088      3089
 -1      1360    8    0    1
 -2       624       623       752      2698      3090      3091
 -1      1361    8    0    1
 -2       613       590       734      2645      3017      3092
 -1      1362    8    0    1
 -2       625       624       753      2701      3093      3094
 -1      1363    8    0    1
 -2       624       752       753      3091      3095      3093
 -1      1364    8    0    1
 -2       626       625       754      2704      3096      3097
 -1      1365    8    0    1
 -2       625       753       754      3094      3098      3096
 -1      1366    8    0    1
 -2       627       626       755      2707      3099      3100
 -1      1367    8    0    1
 -2       626       754       755      3097      3101      3099
 -1      1368    8    0    1
 -2       628       627       756      2710      3102      3103
 -1      1369    8    0    1
 -2       627       755       756      3100      3104      3102
 -1      1370    8    0    1
 -2       629       628       757      2713      3105      3106
 -1      1371    8    0    1
 -2       628       756       757      3103      3107      3105
 -1      1372    8    0    1
 -2       631       630       758      2719      3108      3109
 -1      1373    8    0    1
 -2       633       632       759      2725      3110      3111
 -1      1374    8    0    1
 -2       634       633       760      2728      3112      3113
 -1      1375    8    0    1
 -2       633       759       760      3111      3114      3112
 -1      1376    8    0    1
 -2       635       634       761      2731      3115      3116
 -1      1377    8    0    1
 -2       634       760       761      3113      3117      3115
 -1      1378    8    0    1
 -2       636       635       762      2734      3118      3119
 -1      1379    8    0    1
 -2       635       761       762      3116      3120      3118
 -1      1380    8    0    1
 -2       637       636       763      2737      3121      3122
 -1      1381    8    0    1
 -2       636       762       763      3119      3123      3121
 -1      1382    8    0    1
 -2       638       637       764      2740      3124      3125
 -1      1383    8    0    1
 -2       637       763       764      3122      3126      3124
 -1      1384    8    0    1
 -2       639       638       765      2743      3127      3128
 -1      1385    8    0    1
 -2       638       764       765      3125      3129      3127
 -1      1386    8    0    1
 -2       640       639       766      2746      3130      3131
 -1      1387    8    0    1
 -2       639       765       766      3128      3132      3130
 -1      1388    8    0    1
 -2       641       640       767      2749      3133      3134
 -1      1389    8    0    1
 -2       640       766       767      3131      3135      3133
 -1      1390    8    0    1
 -2       642       641       768      2752      3136      3137
 -1      1391    8    0    1
 -2       641       767       768      3134      3138      3136
 -1      1392    8    0    1
 -2       643       642       769      2755      3139      3140
 -1      1393    8    0    1
 -2       642       768       769      3137      3141      3139
 -1      1394    8    0    1
 -2       644       643       770      2758      3142      3143
 -1      1395    8    0    1
 -2       643       769       770      3140      3144      3142
 -1      1396    8    0    1
 -2       645       644       771      2761      3145      3146
 -1      1397    8    0    1
 -2       644       770       771      3143      3147      3145
 -1      1398    8    0    1
 -2       646       645       772      2764      3148      3149
 -1      1399    8    0    1
 -2       645       771       772      3146      3150      3148
 -1      1400    8    0    1
 -2       647       646       773      2767      3151      3152
 -1      1401    8    0    1
 -2       646       772       773      3149      3153      3151
 -1      1402    8    0    1
 -2       648       647       774      2770      3154      3155
 -1      1403    8    0    1
 -2       647       773       774      3152      3156      3154
 -1      1404    8    0    1
 -2       649       648       775      2773      3157      3158
 -1      1405    8    0    1
 -2       648       774       775      3155      3159      3157
 -1      1406    8    0    1
 -2       650       649       776      2776      3160      3161
 -1      1407    8    0    1
 -2       649       775       776      3158      3162      3160
 -1      1408    8    0    1
 -2       651       650       777      2779      3163      3164
 -1      1409    8    0    1
 -2       650       776       777      3161      3165      3163
 -1      1410    8    0    1
 -2       652       651       778      2782      3166      3167
 -1      1411    8    0    1
 -2       651       777       778      3164      3168      3166
 -1      1412    8    0    1
 -2       653       652       779      2785      3169      3170
 -1      1413    8    0    1
 -2       652       778       779      3167      3171      3169
 -1      1414    8    0    1
 -2       654       653       780      2788      3172      3173
 -1      1415    8    0    1
 -2       653       779       780      3170      3174      3172
 -1      1416    8    0    1
 -2       655       654       781      2791      3175      3176
 -1      1417    8    0    1
 -2       654       780       781      3173      3177      3175
 -1      1418    8    0    1
 -2       656       655       782      2794      3178      3179
 -1      1419    8    0    1
 -2       655       781       782      3176      3180      3178
 -1      1420    8    0    1
 -2       657       656       783      2797      3181      3182
 -1      1421    8    0    1
 -2       656       782       783      3179      3183      3181
 -1      1422    8    0    1
 -2       658       657       784      2800      3184      3185
 -1      1423    8    0    1
 -2       657       783       784      3182      3186      3184
 -1      1424    8    0    1
 -2       659       658       785      2803      3187      3188
 -1      1425    8    0    1
 -2       658       784       785      3185      3189      3187
 -1      1426    8    0    1
 -2       660       659       786      2806      3190      3191
 -1      1427    8    0    1
 -2       659       785       786      3188      3192      3190
 -1      1428    8    0    1
 -2       661       660       787      2809      3193      3194
 -1      1429    8    0    1
 -2       660       786       787      3191      3195      3193
 -1      1430    8    0    1
 -2       662       661       788      2812      3196      3197
 -1      1431    8    0    1
 -2       661       787       788      3194      3198      3196
 -1      1432    8    0    1
 -2       663       662       789      2815      3199      3200
 -1      1433    8    0    1
 -2       662       788       789      3197      3201      3199
 -1      1434    8    0    1
 -2       664       663       790      2818      3202      3203
 -1      1435    8    0    1
 -2       745       664       790      3063      3203      3204
 -1      1436    8    0    1
 -2       663       789       790      3200      3205      3202
 -1      1437    8    0    1
 -2       734       735       791      3083      3206      3207
 -1      1438    8    0    1
 -2       610       534       715      2832      3208      3067
 -1      1439    8    0    1
 -2       711       731       792      3038      3209      3210
 -1      1440    8    0    1
 -2       673       674       793      2848      3211      3212
 -1      1441    8    0    1
 -2       674       675       794      2851      3213      3214
 -1      1442    8    0    1
 -2       674       794       793      3214      3215      3211
 -1      1443    8    0    1
 -2       675       676       795      2854      3216      3217
 -1      1444    8    0    1
 -2       675       795       794      3217      3218      3213
 -1      1445    8    0    1
 -2       676       677       796      2857      3219      3220
 -1      1446    8    0    1
 -2       676       796       795      3220      3221      3216
 -1      1447    8    0    1
 -2       677       678       797      2860      3222      3223
 -1      1448    8    0    1
 -2       677       797       796      3223      3224      3219
 -1      1449    8    0    1
 -2       678       679       798      2863      3225      3226
 -1      1450    8    0    1
 -2       678       798       797      3226      3227      3222
 -1      1451    8    0    1
 -2       679       680       799      2866      3228      3229
 -1      1452    8    0    1
 -2       679       799       798      3229      3230      3225
 -1      1453    8    0    1
 -2       680       681       800      2869      3231      3232
 -1      1454    8    0    1
 -2       680       800       799      3232      3233      3228
 -1      1455    8    0    1
 -2       681       682       801      2872      3234      3235
 -1      1456    8    0    1
 -2       681       801       800      3235      3236      3231
 -1      1457    8    0    1
 -2       682       683       802      2875      3237      3238
 -1      1458    8    0    1
 -2       682       802       801      3238      3239      3234
 -1      1459    8    0    1
 -2       683       684       803      2878      3240      3241
 -1      1460    8    0    1
 -2       683       803       802      3241      3242      3237
 -1      1461    8    0    1
 -2       684       685       804      2881      3243      3244
 -1      1462    8    0    1
 -2       684       804       803      3244      3245      3240
 -1      1463    8    0    1
 -2       685       686       805      2884      3246      3247
 -1      1464    8    0    1
 -2       685       805       804      3247      3248      3243
 -1      1465    8    0    1
 -2       686       687       806      2887      3249      3250
 -1      1466    8    0    1
 -2       686       806       805      3250      3251      3246
 -1      1467    8    0    1
 -2       687       688       807      2890      3252      3253
 -1      1468    8    0    1
 -2       687       807       806      3253      3254      3249
 -1      1469    8    0    1
 -2       688       689       808      2893      3255      3256
 -1      1470    8    0    1
 -2       688       808       807      3256      3257      3252
 -1      1471    8    0    1
 -2       689       690       809      2896      3258      3259
 -1      1472    8    0    1
 -2       689       809       808      3259      3260      3255
 -1      1473    8    0    1
 -2       690       691       810      2899      3261      3262
 -1      1474    8    0    1
 -2       690       810       809      3262      3263      3258
 -1      1475    8    0    1
 -2       691       692       811      2902      3264      3265
 -1      1476    8    0    1
 -2       691       811       810      3265      3266      3261
 -1      1477    8    0    1
 -2       692       693       812      2905      3267      3268
 -1      1478    8    0    1
 -2       692       812       811      3268      3269      3264
 -1      1479    8    0    1
 -2       693       694       813      2908      3270      3271
 -1      1480    8    0    1
 -2       693       813       812      3271      3272      3267
 -1      1481    8    0    1
 -2       694       695       814      2911      3273      3274
 -1      1482    8    0    1
 -2       694       814       813      3274      3275      3270
 -1      1483    8    0    1
 -2       695       696       815      2914      3276      3277
 -1      1484    8    0    1
 -2       695       815       814      3277      3278      3273
 -1      1485    8    0    1
 -2       696       697       816      2917      3279      3280
 -1      1486    8    0    1
 -2       696       816       815      3280      3281      3276
 -1      1487    8    0    1
 -2       697       698       817      2920      3282      3283
 -1      1488    8    0    1
 -2       697       817       816      3283      3284      3279
 -1      1489    8    0    1
 -2       698       699       818      2923      3285      3286
 -1      1490    8    0    1
 -2       698       818       817      3286      3287      3282
 -1      1491    8    0    1
 -2       699       700       819      2926      3288      3289
 -1      1492    8    0    1
 -2       699       819       818      3289      3290      3285
 -1      1493    8    0    1
 -2       700       701       820      2929      3291      3292
 -1      1494    8    0    1
 -2       700       820       819      3292      3293      3288
 -1      1495    8    0    1
 -2       701       702       821      2932      3294      3295
 -1      1496    8    0    1
 -2       820       701       821      3291      3295      3296
 -1      1497    8    0    1
 -2       702       740       821      3041      3297      3294
 -1      1498    8    0    1
 -2       617       616       822      2680      3298      3299
 -1      1499    8    0    1
 -2       709       710       823      2956      3300      3301
 -1      1500    8    0    1
 -2       703       706       824      2943      3302      3303
 -1      1501    8    0    1
 -2       612       715       669      3030      3304      3305
 -1      1502    8    0    1
 -2       732       727       825      3012      3306      3307
 -1      1503    8    0    1
 -2       614       728       826      3071      3308      3309
 -1      1504    8    0    1
 -2       614       826       746      3309      3310      3066
 -1      1505    8    0    1
 -2       669       715       534      3304      3208      2834
 -1      1506    8    0    1
 -2       708       709       827      2953      3311      3312
 -1      1507    8    0    1
 -2       709       823       827      3301      3313      3311
 -1      1508    8    0    1
 -2       718       722       828      3031      3314      3315
 -1      1509    8    0    1
 -2       671       672       749      2842      3316      3317
 -1      1510    8    0    1
 -2       667       665       829      2825      3318      3319
 -1      1511    8    0    1
 -2       735       666       759      3035      3320      3321
 -1      1512    8    0    1
 -2       714       730       830      3073      3322      3323
 -1      1513    8    0    1
 -2       666       716       831      3078      3324      3325
 -1      1514    8    0    1
 -2       730       732       832      3052      3326      3327
 -1      1515    8    0    1
 -2       619       620       833      3079      3328      3329
 -1      1516    8    0    1
 -2       750       619       833      3086      3329      3330
 -1      1517    8    0    1
 -2       620       622       833      2692      3331      3328
 -1      1518    8    0    1
 -2       726       612       670      3072      3332      3333
 -1      1519    8    0    1
 -2       594       729       668      3004      3334      3335
 -1      1520    8    0    1
 -2       593       594       668      2664      3335      3036
 -1      1521    8    0    1
 -2       613       734       758      3092      3336      3337
 -1      1522    8    0    1
 -2       612       669       670      3305      3037      3332
 -1      1523    8    0    1
 -2       668       729       719      3334      3338      2979
 -1      1524    8    0    1
 -2       751       592       593      3088      2667      3339
 -1      1525    8    0    1
 -2       722       736       834      3081      3340      3341
 -1      1526    8    0    1
 -2       733       718       835      3015      3342      3343
 -1      1527    8    0    1
 -2       713       733       836      3043      3344      3345
 -1      1528    8    0    1
 -2       731       725       837      3080      3346      3347
 -1      1529    8    0    1
 -2       706       708       838      2950      3348      3349
 -1      1530    8    0    1
 -2       824       706       838      3302      3349      3350
 -1      1531    8    0    1
 -2       708       827       838      3312      3351      3348
 -1      1532    8    0    1
 -2       720       743       839      3082      3352      3353
 -1      1533    8    0    1
 -2       623       720       839      2982      3353      3354
 -1      1534    8    0    1
 -2       743       737       839      3056      3355      3352
 -1      1535    8    0    1
 -2       738       617       840      3025      3356      3357
 -1      1536    8    0    1
 -2       617       822       840      3299      3358      3356
 -1      1537    8    0    1
 -2       618       750       841      3087      3359      3360
 -1      1538    8    0    1
 -2       618       841       721      3360      3361      2986
 -1      1539    8    0    1
 -2       726       670       842      3333      3362      3363
 -1      1540    8    0    1
 -2       631       758       791      3109      3364      3365
 -1      1541    8    0    1
 -2       616       721       843      2985      3366      3367
 -1      1542    8    0    1
 -2       822       616       843      3298      3367      3368
 -1      1543    8    0    1
 -2       721       841       843      3361      3369      3366
 -1      1544    8    0    1
 -2       739       705       844      3032      3370      3371
 -1      1545    8    0    1
 -2       630       629       845      2716      3372      3373
 -1      1546    8    0    1
 -2       734       791       758      3207      3364      3336
 -1      1547    8    0    1
 -2       632       631       791      2722      3365      3374
 -1      1548    8    0    1
 -2       629       757       845      3106      3375      3372
 -1      1549    8    0    1
 -2       836       733       835      3344      3343      3376
 -1      1550    8    0    1
 -2       792       731       837      3209      3347      3377
 -1      1551    8    0    1
 -2       670       671       842      2839      3378      3362
 -1      1552    8    0    1
 -2       844       705       846      3370      3379      3380
 -1      1553    8    0    1
 -2       705       707       846      2946      3381      3379
 -1      1554    8    0    1
 -2       727       746       847      3065      3382      3383
 -1      1555    8    0    1
 -2       727       847       825      3383      3384      3306
 -1      1556    8    0    1
 -2       737       724       848      3024      3385      3386
 -1      1557    8    0    1
 -2       718       828       835      3315      3387      3342
 -1      1558    8    0    1
 -2       837       725       741      3346      3046      3388
 -1      1559    8    0    1
 -2       707       703       849      2947      3389      3390
 -1      1560    8    0    1
 -2       846       707       849      3381      3390      3391
 -1      1561    8    0    1
 -2       703       824       849      3303      3392      3389
 -1      1562    8    0    1
 -2       742       711       792      3047      3210      3393
 -1      1563    8    0    1
 -2       732       825       832      3307      3394      3326
 -1      1564    8    0    1
 -2       829       665       744      3318      3395      3396
 -1      1565    8    0    1
 -2       833       622       850      3331      3397      3398
 -1      1566    8    0    1
 -2       622       717       850      2972      3399      3397
 -1      1567    8    0    1
 -2       791       735       759      3206      3321      3400
 -1      1568    8    0    1
 -2       831       716       851      3324      3401      3402
 -1      1569    8    0    1
 -2       830       730       832      3322      3327      3403
 -1      1570    8    0    1
 -2       717       667       852      2973      3404      3405
 -1      1571    8    0    1
 -2       850       717       852      3399      3405      3406
 -1      1572    8    0    1
 -2       667       829       852      3319      3407      3404
 -1      1573    8    0    1
 -2       747       713       853      3070      3408      3409
 -1      1574    8    0    1
 -2       713       836       853      3345      3410      3408
 -1      1575    8    0    1
 -2       826       728       854      3308      3411      3412
 -1      1576    8    0    1
 -2       728       742       854      3049      3413      3411
 -1      1577    8    0    1
 -2       759       666       831      3320      3325      3414
 -1      1578    8    0    1
 -2       710       745       855      3062      3415      3416
 -1      1579    8    0    1
 -2       823       710       855      3300      3416      3417
 -1      1580    8    0    1
 -2       745       790       855      3204      3418      3415
 -1      1581    8    0    1
 -2       828       722       834      3314      3341      3419
 -1      1582    8    0    1
 -2       671       749       842      3317      3420      3378
 -1      1583    8    0    1
 -2       672       673       856      2845      3421      3422
 -1      1584    8    0    1
 -2       623       839       752      3354      3423      3090
 -1      1585    8    0    1
 -2       593       532       751      2828      3424      3339
 -1      1586    8    0    1
 -2       759       632       791      3110      3374      3400
 -1      1587    8    0    1
 -2       665       719       744      2978      3425      3395
 -1      1588    8    0    1
 -2       714       830       744      3323      3426      3059
 -1      1589    8    0    1
 -2       726       842       621      3363      3427      3051
 -1      1590    8    0    1
 -2       723       712       857      2992      3428      3429
 -1      1591    8    0    1
 -2       716       723       851      2991      3430      3401
 -1      1592    8    0    1
 -2       630       845       758      3373      3431      3108
 -1      1593    8    0    1
 -2       848       724       858      3385      3432      3433
 -1      1594    8    0    1
 -2       724       748       858      3076      3434      3432
 -1      1595    8    0    1
 -2       856       673       793      3421      3212      3435
 -1      1596    8    0    1
 -2       857       712       859      3428      3436      3437
 -1      1597    8    0    1
 -2       712       747       859      3069      3438      3436
 -1      1598    8    0    1
 -2       834       736       749      3340      3085      3439
 -1      1599    8    0    1
 -2       719       729       744      3338      3058      3425
 -1      1600    8    0    1
 -2       749       621       842      3084      3427      3420
 -1      1601    8    0    1
 -2       672       856       749      3422      3440      3316
 -1      1602    8    0    1
 -2       845       757       741      3375      3441      3442
 -1      1603    8    0    1
 -2       836       835       860      3376      3443      3444
 -1      1604    8    0    1
 -2       753       752       861      3095      3445      3446
 -1      1605    8    0    1
 -2       754       753       862      3098      3447      3448
 -1      1606    8    0    1
 -2       753       861       862      3446      3449      3447
 -1      1607    8    0    1
 -2       755       754       863      3101      3450      3451
 -1      1608    8    0    1
 -2       754       862       863      3448      3452      3450
 -1      1609    8    0    1
 -2       757       756       837      3107      3453      3454
 -1      1610    8    0    1
 -2       828       834       864      3419      3455      3456
 -1      1611    8    0    1
 -2       762       761       865      3120      3457      3458
 -1      1612    8    0    1
 -2       763       762       866      3123      3459      3460
 -1      1613    8    0    1
 -2       762       865       866      3458      3461      3459
 -1      1614    8    0    1
 -2       764       763       867      3126      3462      3463
 -1      1615    8    0    1
 -2       763       866       867      3460      3464      3462
 -1      1616    8    0    1
 -2       765       764       868      3129      3465      3466
 -1      1617    8    0    1
 -2       764       867       868      3463      3467      3465
 -1      1618    8    0    1
 -2       766       765       869      3132      3468      3469
 -1      1619    8    0    1
 -2       765       868       869      3466      3470      3468
 -1      1620    8    0    1
 -2       767       766       870      3135      3471      3472
 -1      1621    8    0    1
 -2       766       869       870      3469      3473      3471
 -1      1622    8    0    1
 -2       768       767       871      3138      3474      3475
 -1      1623    8    0    1
 -2       767       870       871      3472      3476      3474
 -1      1624    8    0    1
 -2       769       768       872      3141      3477      3478
 -1      1625    8    0    1
 -2       768       871       872      3475      3479      3477
 -1      1626    8    0    1
 -2       770       769       873      3144      3480      3481
 -1      1627    8    0    1
 -2       769       872       873      3478      3482      3480
 -1      1628    8    0    1
 -2       771       770       874      3147      3483      3484
 -1      1629    8    0    1
 -2       770       873       874      3481      3485      3483
 -1      1630    8    0    1
 -2       772       771       875      3150      3486      3487
 -1      1631    8    0    1
 -2       771       874       875      3484      3488      3486
 -1      1632    8    0    1
 -2       773       772       876      3153      3489      3490
 -1      1633    8    0    1
 -2       772       875       876      3487      3491      3489
 -1      1634    8    0    1
 -2       774       773       877      3156      3492      3493
 -1      1635    8    0    1
 -2       773       876       877      3490      3494      3492
 -1      1636    8    0    1
 -2       775       774       878      3159      3495      3496
 -1      1637    8    0    1
 -2       774       877       878      3493      3497      3495
 -1      1638    8    0    1
 -2       776       775       879      3162      3498      3499
 -1      1639    8    0    1
 -2       775       878       879      3496      3500      3498
 -1      1640    8    0    1
 -2       777       776       880      3165      3501      3502
 -1      1641    8    0    1
 -2       776       879       880      3499      3503      3501
 -1      1642    8    0    1
 -2       778       777       881      3168      3504      3505
 -1      1643    8    0    1
 -2       777       880       881      3502      3506      3504
 -1      1644    8    0    1
 -2       779       778       882      3171      3507      3508
 -1      1645    8    0    1
 -2       778       881       882      3505      3509      3507
 -1      1646    8    0    1
 -2       780       779       883      3174      3510      3511
 -1      1647    8    0    1
 -2       779       882       883      3508      3512      3510
 -1      1648    8    0    1
 -2       781       780       884      3177      3513      3514
 -1      1649    8    0    1
 -2       780       883       884      3511      3515      3513
 -1      1650    8    0    1
 -2       782       781       885      3180      3516      3517
 -1      1651    8    0    1
 -2       781       884       885      3514      3518      3516
 -1      1652    8    0    1
 -2       783       782       886      3183      3519      3520
 -1      1653    8    0    1
 -2       782       885       886      3517      3521      3519
 -1      1654    8    0    1
 -2       784       783       887      3186      3522      3523
 -1      1655    8    0    1
 -2       783       886       887      3520      3524      3522
 -1      1656    8    0    1
 -2       785       784       888      3189      3525      3526
 -1      1657    8    0    1
 -2       784       887       888      3523      3527      3525
 -1      1658    8    0    1
 -2       786       785       889      3192      3528      3529
 -1      1659    8    0    1
 -2       785       888       889      3526      3530      3528
 -1      1660    8    0    1
 -2       787       786       890      3195      3531      3532
 -1      1661    8    0    1
 -2       786       889       890      3529      3533      3531
 -1      1662    8    0    1
 -2       788       787       891      3198      3534      3535
 -1      1663    8    0    1
 -2       787       890       891      3532      3536      3534
 -1      1664    8    0    1
 -2       789       788       892      3201      3537      3538
 -1      1665    8    0    1
 -2       788       891       892      3535      3539      3537
 -1      1666    8    0    1
 -2       794       795       893      3218      3540      3541
 -1      1667    8    0    1
 -2       827       823       894      3313      3542      3543
 -1      1668    8    0    1
 -2       532       610       751      2831      3089      3424
 -1      1669    8    0    1
 -2       796       797       895      3224      3544      3545
 -1      1670    8    0    1
 -2       797       798       896      3227      3546      3547
 -1      1671    8    0    1
 -2       797       896       895      3547      3548      3544
 -1      1672    8    0    1
 -2       798       799       897      3230      3549      3550
 -1      1673    8    0    1
 -2       798       897       896      3550      3551      3546
 -1      1674    8    0    1
 -2       799       800       898      3233      3552      3553
 -1      1675    8    0    1
 -2       799       898       897      3553      3554      3549
 -1      1676    8    0    1
 -2       800       801       899      3236      3555      3556
 -1      1677    8    0    1
 -2       800       899       898      3556      3557      3552
 -1      1678    8    0    1
 -2       801       802       900      3239      3558      3559
 -1      1679    8    0    1
 -2       801       900       899      3559      3560      3555
 -1      1680    8    0    1
 -2       802       803       901      3242      3561      3562
 -1      1681    8    0    1
 -2       802       901       900      3562      3563      3558
 -1      1682    8    0    1
 -2       803       804       902      3245      3564      3565
 -1      1683    8    0    1
 -2       803       902       901      3565      3566      3561
 -1      1684    8    0    1
 -2       804       805       903      3248      3567      3568
 -1      1685    8    0    1
 -2       804       903       902      3568      3569      3564
 -1      1686    8    0    1
 -2       805       806       904      3251      3570      3571
 -1      1687    8    0    1
 -2       805       904       903      3571      3572      3567
 -1      1688    8    0    1
 -2       806       807       905      3254      3573      3574
 -1      1689    8    0    1
 -2       806       905       904      3574      3575      3570
 -1      1690    8    0    1
 -2       807       808       906      3257      3576      3577
 -1      1691    8    0    1
 -2       807       906       905      3577      3578      3573
 -1      1692    8    0    1
 -2       808       809       907      3260      3579      3580
 -1      1693    8    0    1
 -2       808       907       906      3580      3581      3576
 -1      1694    8    0    1
 -2       809       810       908      3263      3582      3583
 -1      1695    8    0    1
 -2       809       908       907      3583      3584      3579
 -1      1696    8    0    1
 -2       810       811       909      3266      3585      3586
 -1      1697    8    0    1
 -2       810       909       908      3586      3587      3582
 -1      1698    8    0    1
 -2       811       812       910      3269      3588      3589
 -1      1699    8    0    1
 -2       811       910       909      3589      3590      3585
 -1      1700    8    0    1
 -2       812       813       911      3272      3591      3592
 -1      1701    8    0    1
 -2       812       911       910      3592      3593      3588
 -1      1702    8    0    1
 -2       813       814       912      3275      3594      3595
 -1      1703    8    0    1
 -2       813       912       911      3595      3596      3591
 -1      1704    8    0    1
 -2       814       815       913      3278      3597      3598
 -1      1705    8    0    1
 -2       814       913       912      3598      3599      3594
 -1      1706    8    0    1
 -2       815       816       914      3281      3600      3601
 -1      1707    8    0    1
 -2       815       914       913      3601      3602      3597
 -1      1708    8    0    1
 -2       816       817       915      3284      3603      3604
 -1      1709    8    0    1
 -2       816       915       914      3604      3605      3600
 -1      1710    8    0    1
 -2       817       818       916      3287      3606      3607
 -1      1711    8    0    1
 -2       817       916       915      3607      3608      3603
 -1      1712    8    0    1
 -2       818       819       917      3290      3609      3610
 -1      1713    8    0    1
 -2       818       917       916      3610      3611      3606
 -1      1714    8    0    1
 -2       819       820       918      3293      3612      3613
 -1      1715    8    0    1
 -2       819       918       917      3613      3614      3609
 -1      1716    8    0    1
 -2       835       828       919      3387      3615      3616
 -1      1717    8    0    1
 -2       835       919       860      3616      3617      3443
 -1      1718    8    0    1
 -2       740       739       920      3042      3618      3619
 -1      1719    8    0    1
 -2       821       740       920      3297      3619      3620
 -1      1720    8    0    1
 -2       739       844       920      3371      3621      3618
 -1      1721    8    0    1
 -2       742       792       921      3393      3622      3623
 -1      1722    8    0    1
 -2       741       613       845      3044      3624      3442
 -1      1723    8    0    1
 -2       744       830       829      3426      3625      3396
 -1      1724    8    0    1
 -2       613       758       845      3337      3431      3624
 -1      1725    8    0    1
 -2       746       826       922      3310      3626      3627
 -1      1726    8    0    1
 -2       830       832       923      3403      3628      3629
 -1      1727    8    0    1
 -2       795       796       924      3221      3630      3631
 -1      1728    8    0    1
 -2       796       895       924      3545      3632      3630
 -1      1729    8    0    1
 -2       737       848       839      3386      3633      3355
 -1      1730    8    0    1
 -2       829       830       923      3625      3629      3634
 -1      1731    8    0    1
 -2       748       738       925      3077      3635      3636
 -1      1732    8    0    1
 -2       748       925       858      3636      3637      3434
 -1      1733    8    0    1
 -2       752       839       848      3423      3633      3638
 -1      1734    8    0    1
 -2       760       759       831      3114      3414      3639
 -1      1735    8    0    1
 -2       851       723       857      3430      3429      3640
 -1      1736    8    0    1
 -2       851       857       865      3640      3641      3642
 -1      1737    8    0    1
 -2       832       825       926      3394      3643      3644
 -1      1738    8    0    1
 -2       760       831       761      3639      3645      3117
 -1      1739    8    0    1
 -2       750       833       927      3330      3646      3647
 -1      1740    8    0    1
 -2       833       850       927      3398      3648      3646
 -1      1741    8    0    1
 -2       837       741       757      3388      3441      3454
 -1      1742    8    0    1
 -2       856       793       864      3435      3649      3650
 -1      1743    8    0    1
 -2       749       856       834      3440      3651      3439
 -1      1744    8    0    1
 -2       752       848       928      3638      3652      3653
 -1      1745    8    0    1
 -2       861       752       928      3445      3653      3654
 -1      1746    8    0    1
 -2       848       858       928      3433      3655      3652
 -1      1747    8    0    1
 -2       837       756       929      3453      3656      3657
 -1      1748    8    0    1
 -2       792       837       929      3377      3657      3658
 -1      1749    8    0    1
 -2       756       755       929      3104      3659      3656
 -1      1750    8    0    1
 -2       834       856       864      3651      3650      3455
 -1      1751    8    0    1
 -2       841       750       927      3359      3647      3660
 -1      1752    8    0    1
 -2       844       846       930      3380      3661      3662
 -1      1753    8    0    1
 -2       836       860       931      3444      3663      3664
 -1      1754    8    0    1
 -2       836       931       853      3664      3665      3410
 -1      1755    8    0    1
 -2       822       843       932      3368      3666      3667
 -1      1756    8    0    1
 -2       838       827       933      3351      3668      3669
 -1      1757    8    0    1
 -2       827       894       933      3543      3670      3668
 -1      1758    8    0    1
 -2       755       863       929      3451      3671      3659
 -1      1759    8    0    1
 -2       828       864       919      3456      3672      3615
 -1      1760    8    0    1
 -2       792       929       921      3658      3673      3622
 -1      1761    8    0    1
 -2       844       930       918      3662      3674      3675
 -1      1762    8    0    1
 -2       893       795       924      3540      3631      3676
 -1      1763    8    0    1
 -2       790       789       934      3205      3677      3678
 -1      1764    8    0    1
 -2       855       790       934      3418      3678      3679
 -1      1765    8    0    1
 -2       789       892       934      3538      3680      3677
 -1      1766    8    0    1
 -2       793       794       935      3215      3681      3682
 -1      1767    8    0    1
 -2       820       821       920      3296      3620      3683
 -1      1768    8    0    1
 -2       847       746       922      3382      3627      3684
 -1      1769    8    0    1
 -2       844       918       920      3675      3685      3621
 -1      1770    8    0    1
 -2       825       847       936      3384      3686      3687
 -1      1771    8    0    1
 -2       825       936       926      3687      3688      3643
 -1      1772    8    0    1
 -2       849       824       937      3392      3689      3690
 -1      1773    8    0    1
 -2       822       932       938      3667      3691      3692
 -1      1774    8    0    1
 -2       822       938       840      3692      3693      3358
 -1      1775    8    0    1
 -2       923       832       926      3628      3644      3694
 -1      1776    8    0    1
 -2       742       921       939      3623      3695      3696
 -1      1777    8    0    1
 -2       742       939       854      3696      3697      3413
 -1      1778    8    0    1
 -2       738       840       925      3357      3698      3635
 -1      1779    8    0    1
 -2       922       826       940      3626      3699      3700
 -1      1780    8    0    1
 -2       826       854       940      3412      3701      3699
 -1      1781    8    0    1
 -2       852       829       941      3407      3702      3703
 -1      1782    8    0    1
 -2       829       923       941      3634      3704      3702
 -1      1783    8    0    1
 -2       935       794       893      3681      3541      3705
 -1      1784    8    0    1
 -2       859       747       942      3438      3706      3707
 -1      1785    8    0    1
 -2       747       853       942      3409      3708      3706
 -1      1786    8    0    1
 -2       831       851       761      3402      3709      3645
 -1      1787    8    0    1
 -2       823       855       934      3417      3679      3710
 -1      1788    8    0    1
 -2       865       857       943      3641      3711      3712
 -1      1789    8    0    1
 -2       866       865       943      3461      3712      3713
 -1      1790    8    0    1
 -2       857       859       943      3437      3714      3711
 -1      1791    8    0    1
 -2       823       934       894      3710      3715      3542
 -1      1792    8    0    1
 -2       851       865       761      3642      3457      3709
 -1      1793    8    0    1
 -2       864       793       935      3649      3682      3716
 -1      1794    8    0    1
 -2       824       838       944      3350      3717      3718
 -1      1795    8    0    1
 -2       937       824       944      3689      3718      3719
 -1      1796    8    0    1
 -2       838       933       944      3669      3720      3717
 -1      1797    8    0    1
 -2       820       920       918      3683      3685      3612
 -1      1798    8    0    1
 -2       930       846       945      3661      3721      3722
 -1      1799    8    0    1
 -2       846       849       945      3391      3723      3721
 -1      1800    8    0    1
 -2       896       897       946      3551      3724      3725
 -1      1801    8    0    1
 -2       932       843       947      3666      3726      3727
 -1      1802    8    0    1
 -2       843       841       947      3369      3728      3726
 -1      1803    8    0    1
 -2       918       930       948      3674      3729      3730
 -1      1804    8    0    1
 -2       918       948       917      3730      3731      3614
 -1      1805    8    0    1
 -2       893       924       949      3676      3732      3733
 -1      1806    8    0    1
 -2       867       866       950      3464      3734      3735
 -1      1807    8    0    1
 -2       866       943       950      3713      3736      3734
 -1      1808    8    0    1
 -2       868       867       951      3467      3737      3738
 -1      1809    8    0    1
 -2       867       950       951      3735      3739      3737
 -1      1810    8    0    1
 -2       869       868       952      3470      3740      3741
 -1      1811    8    0    1
 -2       868       951       952      3738      3742      3740
 -1      1812    8    0    1
 -2       870       869       953      3473      3743      3744
 -1      1813    8    0    1
 -2       869       952       953      3741      3745      3743
 -1      1814    8    0    1
 -2       871       870       954      3476      3746      3747
 -1      1815    8    0    1
 -2       870       953       954      3744      3748      3746
 -1      1816    8    0    1
 -2       872       871       955      3479      3749      3750
 -1      1817    8    0    1
 -2       871       954       955      3747      3751      3749
 -1      1818    8    0    1
 -2       873       872       956      3482      3752      3753
 -1      1819    8    0    1
 -2       872       955       956      3750      3754      3752
 -1      1820    8    0    1
 -2       874       873       957      3485      3755      3756
 -1      1821    8    0    1
 -2       873       956       957      3753      3757      3755
 -1      1822    8    0    1
 -2       875       874       958      3488      3758      3759
 -1      1823    8    0    1
 -2       874       957       958      3756      3760      3758
 -1      1824    8    0    1
 -2       876       875       959      3491      3761      3762
 -1      1825    8    0    1
 -2       875       958       959      3759      3763      3761
 -1      1826    8    0    1
 -2       877       876       960      3494      3764      3765
 -1      1827    8    0    1
 -2       876       959       960      3762      3766      3764
 -1      1828    8    0    1
 -2       878       877       961      3497      3767      3768
 -1      1829    8    0    1
 -2       877       960       961      3765      3769      3767
 -1      1830    8    0    1
 -2       879       878       962      3500      3770      3771
 -1      1831    8    0    1
 -2       878       961       962      3768      3772      3770
 -1      1832    8    0    1
 -2       880       879       963      3503      3773      3774
 -1      1833    8    0    1
 -2       879       962       963      3771      3775      3773
 -1      1834    8    0    1
 -2       881       880       964      3506      3776      3777
 -1      1835    8    0    1
 -2       880       963       964      3774      3778      3776
 -1      1836    8    0    1
 -2       882       881       965      3509      3779      3780
 -1      1837    8    0    1
 -2       881       964       965      3777      3781      3779
 -1      1838    8    0    1
 -2       883       882       966      3512      3782      3783
 -1      1839    8    0    1
 -2       882       965       966      3780      3784      3782
 -1      1840    8    0    1
 -2       884       883       967      3515      3785      3786
 -1      1841    8    0    1
 -2       883       966       967      3783      3787      3785
 -1      1842    8    0    1
 -2       885       884       968      3518      3788      3789
 -1      1843    8    0    1
 -2       884       967       968      3786      3790      3788
 -1      1844    8    0    1
 -2       886       885       969      3521      3791      3792
 -1      1845    8    0    1
 -2       885       968       969      3789      3793      3791
 -1      1846    8    0    1
 -2       887       886       970      3524      3794      3795
 -1      1847    8    0    1
 -2       886       969       970      3792      3796      3794
 -1      1848    8    0    1
 -2       888       887       971      3527      3797      3798
 -1      1849    8    0    1
 -2       887       970       971      3795      3799      3797
 -1      1850    8    0    1
 -2       889       888       972      3530      3800      3801
 -1      1851    8    0    1
 -2       888       971       972      3798      3802      3800
 -1      1852    8    0    1
 -2       890       889       973      3533      3803      3804
 -1      1853    8    0    1
 -2       889       972       973      3801      3805      3803
 -1      1854    8    0    1
 -2       891       890       974      3536      3806      3807
 -1      1855    8    0    1
 -2       890       973       974      3804      3808      3806
 -1      1856    8    0    1
 -2       892       891       975      3539      3809      3810
 -1      1857    8    0    1
 -2       891       974       975      3807      3811      3809
 -1      1858    8    0    1
 -2       934       892       894      3680      3812      3715
 -1      1859    8    0    1
 -2       929       863       921      3671      3813      3673
 -1      1860    8    0    1
 -2       897       898       976      3554      3814      3815
 -1      1861    8    0    1
 -2       897       976       946      3815      3816      3724
 -1      1862    8    0    1
 -2       921       863       977      3813      3817      3818
 -1      1863    8    0    1
 -2       939       921       977      3695      3818      3819
 -1      1864    8    0    1
 -2       863       862       977      3452      3820      3817
 -1      1865    8    0    1
 -2       895       896       978      3548      3821      3822
 -1      1866    8    0    1
 -2       896       946       978      3725      3823      3821
 -1      1867    8    0    1
 -2       898       899       979      3557      3824      3825
 -1      1868    8    0    1
 -2       898       979       976      3825      3826      3814
 -1      1869    8    0    1
 -2       899       900       980      3560      3827      3828
 -1      1870    8    0    1
 -2       899       980       979      3828      3829      3824
 -1      1871    8    0    1
 -2       900       901       981      3563      3830      3831
 -1      1872    8    0    1
 -2       900       981       980      3831      3832      3827
 -1      1873    8    0    1
 -2       901       902       982      3566      3833      3834
 -1      1874    8    0    1
 -2       901       982       981      3834      3835      3830
 -1      1875    8    0    1
 -2       902       903       983      3569      3836      3837
 -1      1876    8    0    1
 -2       902       983       982      3837      3838      3833
 -1      1877    8    0    1
 -2       903       904       984      3572      3839      3840
 -1      1878    8    0    1
 -2       903       984       983      3840      3841      3836
 -1      1879    8    0    1
 -2       904       905       985      3575      3842      3843
 -1      1880    8    0    1
 -2       904       985       984      3843      3844      3839
 -1      1881    8    0    1
 -2       905       906       986      3578      3845      3846
 -1      1882    8    0    1
 -2       905       986       985      3846      3847      3842
 -1      1883    8    0    1
 -2       906       907       987      3581      3848      3849
 -1      1884    8    0    1
 -2       906       987       986      3849      3850      3845
 -1      1885    8    0    1
 -2       907       908       988      3584      3851      3852
 -1      1886    8    0    1
 -2       907       988       987      3852      3853      3848
 -1      1887    8    0    1
 -2       908       909       989      3587      3854      3855
 -1      1888    8    0    1
 -2       908       989       988      3855      3856      3851
 -1      1889    8    0    1
 -2       909       910       990      3590      3857      3858
 -1      1890    8    0    1
 -2       909       990       989      3858      3859      3854
 -1      1891    8    0    1
 -2       910       911       991      3593      3860      3861
 -1      1892    8    0    1
 -2       910       991       990      3861      3862      3857
 -1      1893    8    0    1
 -2       911       912       992      3596      3863      3864
 -1      1894    8    0    1
 -2       911       992       991      3864      3865      3860
 -1      1895    8    0    1
 -2       912       913       993      3599      3866      3867
 -1      1896    8    0    1
 -2       912       993       992      3867      3868      3863
 -1      1897    8    0    1
 -2       913       914       994      3602      3869      3870
 -1      1898    8    0    1
 -2       913       994       993      3870      3871      3866
 -1      1899    8    0    1
 -2       914       915       995      3605      3872      3873
 -1      1900    8    0    1
 -2       914       995       994      3873      3874      3869
 -1      1901    8    0    1
 -2       915       916       996      3608      3875      3876
 -1      1902    8    0    1
 -2       915       996       995      3876      3877      3872
 -1      1903    8    0    1
 -2       916       917       997      3611      3878      3879
 -1      1904    8    0    1
 -2       996       916       997      3875      3879      3880
 -1      1905    8    0    1
 -2       917       948       997      3731      3881      3878
 -1      1906    8    0    1
 -2       860       919       998      3617      3882      3883
 -1      1907    8    0    1
 -2       858       925       999      3637      3884      3885
 -1      1908    8    0    1
 -2       858       999       928      3885      3886      3655
 -1      1909    8    0    1
 -2       924       895      1000      3632      3887      3888
 -1      1910    8    0    1
 -2       895       978      1000      3822      3889      3887
 -1      1911    8    0    1
 -2       925       840      1001      3698      3890      3891
 -1      1912    8    0    1
 -2       840       938      1001      3693      3892      3890
 -1      1913    8    0    1
 -2       864       935      1002      3716      3893      3894
 -1      1914    8    0    1
 -2       919       864      1002      3672      3894      3895
 -1      1915    8    0    1
 -2       935       893      1002      3705      3896      3893
 -1      1916    8    0    1
 -2       849       937       945      3690      3897      3723
 -1      1917    8    0    1
 -2       862       861      1003      3449      3898      3899
 -1      1918    8    0    1
 -2       862      1003       977      3899      3900      3820
 -1      1919    8    0    1
 -2       850       852      1004      3406      3901      3902
 -1      1920    8    0    1
 -2       927       850      1004      3648      3902      3903
 -1      1921    8    0    1
 -2       852       941      1004      3703      3904      3901
 -1      1922    8    0    1
 -2       841       927       947      3660      3905      3728
 -1      1923    8    0    1
 -2       847       922      1005      3684      3906      3907
 -1      1924    8    0    1
 -2       847      1005       936      3907      3908      3686
 -1      1925    8    0    1
 -2       923       926       941      3694      3909      3704
 -1      1926    8    0    1
 -2       894       892       975      3812      3810      3910
 -1      1927    8    0    1
 -2       853       931      1006      3665      3911      3912
 -1      1928    8    0    1
 -2       853      1006       942      3912      3913      3708
 -1      1929    8    0    1
 -2       932       947      1007      3727      3914      3915
 -1      1930    8    0    1
 -2       948       930       945      3729      3722      3916
 -1      1931    8    0    1
 -2       931       860      1008      3663      3917      3918
 -1      1932    8    0    1
 -2       860       998      1008      3883      3919      3917
 -1      1933    8    0    1
 -2       925      1001       999      3891      3920      3884
 -1      1934    8    0    1
 -2       949       924      1000      3732      3888      3921
 -1      1935    8    0    1
 -2       937       944      1009      3719      3922      3923
 -1      1936    8    0    1
 -2       927      1004       947      3903      3924      3905
 -1      1937    8    0    1
 -2       998       919      1002      3882      3895      3925
 -1      1938    8    0    1
 -2       893       949      1002      3733      3926      3896
 -1      1939    8    0    1
 -2       938       932      1010      3691      3927      3928
 -1      1940    8    0    1
 -2       932      1007      1010      3915      3929      3927
 -1      1941    8    0    1
 -2       941       926      1007      3909      3930      3931
 -1      1942    8    0    1
 -2       940       854      1011      3701      3932      3933
 -1      1943    8    0    1
 -2       854       939      1011      3697      3934      3932
 -1      1944    8    0    1
 -2       894       975       933      3910      3935      3670
 -1      1945    8    0    1
 -2       922       940      1012      3700      3936      3937
 -1      1946    8    0    1
 -2       922      1012      1005      3937      3938      3906
 -1      1947    8    0    1
 -2       945       937      1013      3897      3939      3940
 -1      1948    8    0    1
 -2       937      1009      1013      3923      3941      3939
 -1      1949    8    0    1
 -2      1003       861       928      3898      3654      3942
 -1      1950    8    0    1
 -2       943       859      1014      3714      3943      3944
 -1      1951    8    0    1
 -2       950       943      1014      3736      3944      3945
 -1      1952    8    0    1
 -2       859       942      1014      3707      3946      3943
 -1      1953    8    0    1
 -2      1007       926      1010      3930      3947      3929
 -1      1954    8    0    1
 -2       939       977      1015      3819      3948      3949
 -1      1955    8    0    1
 -2      1011       939      1015      3934      3949      3950
 -1      1956    8    0    1
 -2       977      1003      1015      3900      3951      3948
 -1      1957    8    0    1
 -2      1007       947      1004      3914      3924      3952
 -1      1958    8    0    1
 -2       948       945      1013      3916      3940      3953
 -1      1959    8    0    1
 -2      1009       944      1016      3922      3954      3955
 -1      1960    8    0    1
 -2       944       933      1016      3720      3956      3954
 -1      1961    8    0    1
 -2       951       950      1017      3739      3957      3958
 -1      1962    8    0    1
 -2       950      1014      1017      3945      3959      3957
 -1      1963    8    0    1
 -2       952       951      1018      3742      3960      3961
 -1      1964    8    0    1
 -2       951      1017      1018      3958      3962      3960
 -1      1965    8    0    1
 -2       953       952      1019      3745      3963      3964
 -1      1966    8    0    1
 -2       952      1018      1019      3961      3965      3963
 -1      1967    8    0    1
 -2       954       953      1020      3748      3966      3967
 -1      1968    8    0    1
 -2       953      1019      1020      3964      3968      3966
 -1      1969    8    0    1
 -2       955       954      1021      3751      3969      3970
 -1      1970    8    0    1
 -2       954      1020      1021      3967      3971      3969
 -1      1971    8    0    1
 -2       956       955      1022      3754      3972      3973
 -1      1972    8    0    1
 -2       955      1021      1022      3970      3974      3972
 -1      1973    8    0    1
 -2       957       956      1023      3757      3975      3976
 -1      1974    8    0    1
 -2       956      1022      1023      3973      3977      3975
 -1      1975    8    0    1
 -2       958       957      1024      3760      3978      3979
 -1      1976    8    0    1
 -2       957      1023      1024      3976      3980      3978
 -1      1977    8    0    1
 -2       959       958      1025      3763      3981      3982
 -1      1978    8    0    1
 -2       958      1024      1025      3979      3983      3981
 -1      1979    8    0    1
 -2       960       959      1026      3766      3984      3985
 -1      1980    8    0    1
 -2       959      1025      1026      3982      3986      3984
 -1      1981    8    0    1
 -2       961       960      1027      3769      3987      3988
 -1      1982    8    0    1
 -2       960      1026      1027      3985      3989      3987
 -1      1983    8    0    1
 -2       962       961      1028      3772      3990      3991
 -1      1984    8    0    1
 -2       961      1027      1028      3988      3992      3990
 -1      1985    8    0    1
 -2       963       962      1029      3775      3993      3994
 -1      1986    8    0    1
 -2       962      1028      1029      3991      3995      3993
 -1      1987    8    0    1
 -2       964       963      1030      3778      3996      3997
 -1      1988    8    0    1
 -2       963      1029      1030      3994      3998      3996
 -1      1989    8    0    1
 -2       965       964      1031      3781      3999      4000
 -1      1990    8    0    1
 -2       964      1030      1031      3997      4001      3999
 -1      1991    8    0    1
 -2       966       965      1032      3784      4002      4003
 -1      1992    8    0    1
 -2       965      1031      1032      4000      4004      4002
 -1      1993    8    0    1
 -2       967       966      1033      3787      4005      4006
 -1      1994    8    0    1
 -2       966      1032      1033      4003      4007      4005
 -1      1995    8    0    1
 -2       968       967      1034      3790      4008      4009
 -1      1996    8    0    1
 -2       967      1033      1034      4006      4010      4008
 -1      1997    8    0    1
 -2       969       968      1035      3793      4011      4012
 -1      1998    8    0    1
 -2       968      1034      1035      4009      4013      4011
 -1      1999    8    0    1
 -2       970       969      1036      3796      4014      4015
 -1      2000    8    0    1
 -2       969      1035      1036      4012      4016      4014
 -1      2001    8    0    1
 -2       971       970      1037      3799      4017      4018
 -1      2002    8    0    1
 -2       970      1036      1037      4015      4019      4017
 -1      2003    8    0    1
 -2       972       971      1038      3802      4020      4021
 -1      2004    8    0    1
 -2       971      1037      1038      4018      4022      4020
 -1      2005    8    0    1
 -2       973       972      1039      3805      4023      4024
 -1      2006    8    0    1
 -2       972      1038      1039      4021      4025      4023
 -1      2007    8    0    1
 -2       974       973      1040      3808      4026      4027
 -1      2008    8    0    1
 -2       973      1039      1040      4024      4028      4026
 -1      2009    8    0    1
 -2       979       980      1041      3829      4029      4030
 -1      2010    8    0    1
 -2       980       981      1042      3832      4031      4032
 -1      2011    8    0    1
 -2       980      1042      1041      4032      4033      4029
 -1      2012    8    0    1
 -2       981       982      1043      3835      4034      4035
 -1      2013    8    0    1
 -2       981      1043      1042      4035      4036      4031
 -1      2014    8    0    1
 -2       982       983      1044      3838      4037      4038
 -1      2015    8    0    1
 -2       982      1044      1043      4038      4039      4034
 -1      2016    8    0    1
 -2       983       984      1045      3841      4040      4041
 -1      2017    8    0    1
 -2       983      1045      1044      4041      4042      4037
 -1      2018    8    0    1
 -2       984       985      1046      3844      4043      4044
 -1      2019    8    0    1
 -2       984      1046      1045      4044      4045      4040
 -1      2020    8    0    1
 -2       985       986      1047      3847      4046      4047
 -1      2021    8    0    1
 -2       985      1047      1046      4047      4048      4043
 -1      2022    8    0    1
 -2       986       987      1048      3850      4049      4050
 -1      2023    8    0    1
 -2       986      1048      1047      4050      4051      4046
 -1      2024    8    0    1
 -2       987       988      1049      3853      4052      4053
 -1      2025    8    0    1
 -2       987      1049      1048      4053      4054      4049
 -1      2026    8    0    1
 -2       988       989      1050      3856      4055      4056
 -1      2027    8    0    1
 -2       988      1050      1049      4056      4057      4052
 -1      2028    8    0    1
 -2       989       990      1051      3859      4058      4059
 -1      2029    8    0    1
 -2       989      1051      1050      4059      4060      4055
 -1      2030    8    0    1
 -2       990       991      1052      3862      4061      4062
 -1      2031    8    0    1
 -2       990      1052      1051      4062      4063      4058
 -1      2032    8    0    1
 -2       991       992      1053      3865      4064      4065
 -1      2033    8    0    1
 -2       991      1053      1052      4065      4066      4061
 -1      2034    8    0    1
 -2       992       993      1054      3868      4067      4068
 -1      2035    8    0    1
 -2       992      1054      1053      4068      4069      4064
 -1      2036    8    0    1
 -2       993       994      1055      3871      4070      4071
 -1      2037    8    0    1
 -2       993      1055      1054      4071      4072      4067
 -1      2038    8    0    1
 -2       994       995      1056      3874      4073      4074
 -1      2039    8    0    1
 -2       994      1056      1055      4074      4075      4070
 -1      2040    8    0    1
 -2       995       996      1057      3877      4076      4077
 -1      2041    8    0    1
 -2       995      1057      1056      4077      4078      4073
 -1      2042    8    0    1
 -2       949      1000      1058      3921      4079      4080
 -1      2043    8    0    1
 -2       928       999      1003      3886      4081      3942
 -1      2044    8    0    1
 -2       946       976      1059      3816      4082      4083
 -1      2045    8    0    1
 -2      1002       949      1060      3926      4084      4085
 -1      2046    8    0    1
 -2       998      1002      1060      3925      4085      4086
 -1      2047    8    0    1
 -2       949      1058      1060      4080      4087      4084
 -1      2048    8    0    1
 -2       978       946      1061      3823      4088      4089
 -1      2049    8    0    1
 -2       946      1059      1061      4083      4090      4088
 -1      2050    8    0    1
 -2      1000       978      1062      3889      4091      4092
 -1      2051    8    0    1
 -2       978      1061      1062      4089      4093      4091
 -1      2052    8    0    1
 -2      1001       938      1012      3892      4094      4095
 -1      2053    8    0    1
 -2       933       975      1016      3935      4096      3956
 -1      2054    8    0    1
 -2       976       979      1063      3826      4097      4098
 -1      2055    8    0    1
 -2      1059       976      1063      4082      4098      4099
 -1      2056    8    0    1
 -2       979      1041      1063      4030      4100      4097
 -1      2057    8    0    1
 -2      1008       998      1060      3919      4086      4101
 -1      2058    8    0    1
 -2      1006       931      1064      3911      4102      4103
 -1      2059    8    0    1
 -2       931      1008      1064      3918      4104      4102
 -1      2060    8    0    1
 -2       948      1013      1065      3953      4105      4106
 -1      2061    8    0    1
 -2       948      1065       997      4106      4107      3881
 -1      2062    8    0    1
 -2       975       974      1066      3811      4108      4109
 -1      2063    8    0    1
 -2      1001      1012      1067      4095      4110      4111
 -1      2064    8    0    1
 -2      1058      1000      1062      4079      4092      4112
 -1      2065    8    0    1
 -2       996       997      1068      3880      4113      4114
 -1      2066    8    0    1
 -2      1057       996      1068      4076      4114      4115
 -1      2067    8    0    1
 -2       997      1065      1068      4107      4116      4113
 -1      2068    8    0    1
 -2       975      1066      1016      4109      4117      4096
 -1      2069    8    0    1
 -2      1003       999      1067      4081      4118      4119
 -1      2070    8    0    1
 -2      1007      1004       941      3952      3904      3931
 -1      2071    8    0    1
 -2      1012       940      1067      3936      4120      4110
 -1      2072    8    0    1
 -2       938      1010      1012      3928      4121      4094
 -1      2073    8    0    1
 -2      1013      1009      1069      3941      4122      4123
 -1      2074    8    0    1
 -2      1013      1069      1065      4123      4124      4105
 -1      2075    8    0    1
 -2      1014       942      1070      3946      4125      4126
 -1      2076    8    0    1
 -2      1017      1014      1070      3959      4126      4127
 -1      2077    8    0    1
 -2       942      1006      1070      3913      4128      4125
 -1      2078    8    0    1
 -2       974      1040      1066      4027      4129      4108
 -1      2079    8    0    1
 -2       999      1001      1067      3920      4111      4118
 -1      2080    8    0    1
 -2      1009      1016      1071      3955      4130      4131
 -1      2081    8    0    1
 -2      1069      1009      1071      4122      4131      4132
 -1      2082    8    0    1
 -2      1016      1066      1071      4117      4133      4130
 -1      2083    8    0    1
 -2      1043      1044      1072      4039      4134      4135
 -1      2084    8    0    1
 -2      1018      1017      1073      3962      4136      4137
 -1      2085    8    0    1
 -2      1017      1070      1073      4127      4138      4136
 -1      2086    8    0    1
 -2      1019      1018      1074      3965      4139      4140
 -1      2087    8    0    1
 -2      1018      1073      1074      4137      4141      4139
 -1      2088    8    0    1
 -2      1020      1019      1075      3968      4142      4143
 -1      2089    8    0    1
 -2      1019      1074      1075      4140      4144      4142
 -1      2090    8    0    1
 -2      1021      1020      1076      3971      4145      4146
 -1      2091    8    0    1
 -2      1020      1075      1076      4143      4147      4145
 -1      2092    8    0    1
 -2      1022      1021      1077      3974      4148      4149
 -1      2093    8    0    1
 -2      1021      1076      1077      4146      4150      4148
 -1      2094    8    0    1
 -2      1023      1022      1078      3977      4151      4152
 -1      2095    8    0    1
 -2      1022      1077      1078      4149      4153      4151
 -1      2096    8    0    1
 -2      1024      1023      1079      3980      4154      4155
 -1      2097    8    0    1
 -2      1023      1078      1079      4152      4156      4154
 -1      2098    8    0    1
 -2      1025      1024      1080      3983      4157      4158
 -1      2099    8    0    1
 -2      1024      1079      1080      4155      4159      4157
 -1      2100    8    0    1
 -2      1026      1025      1081      3986      4160      4161
 -1      2101    8    0    1
 -2      1025      1080      1081      4158      4162      4160
 -1      2102    8    0    1
 -2      1027      1026      1082      3989      4163      4164
 -1      2103    8    0    1
 -2      1026      1081      1082      4161      4165      4163
 -1      2104    8    0    1
 -2      1028      1027      1083      3992      4166      4167
 -1      2105    8    0    1
 -2      1027      1082      1083      4164      4168      4166
 -1      2106    8    0    1
 -2      1029      1028      1084      3995      4169      4170
 -1      2107    8    0    1
 -2      1028      1083      1084      4167      4171      4169
 -1      2108    8    0    1
 -2      1030      1029      1085      3998      4172      4173
 -1      2109    8    0    1
 -2      1029      1084      1085      4170      4174      4172
 -1      2110    8    0    1
 -2      1031      1030      1086      4001      4175      4176
 -1      2111    8    0    1
 -2      1030      1085      1086      4173      4177      4175
 -1      2112    8    0    1
 -2      1032      1031      1087      4004      4178      4179
 -1      2113    8    0    1
 -2      1031      1086      1087      4176      4180      4178
 -1      2114    8    0    1
 -2      1033      1032      1088      4007      4181      4182
 -1      2115    8    0    1
 -2      1032      1087      1088      4179      4183      4181
 -1      2116    8    0    1
 -2      1034      1033      1089      4010      4184      4185
 -1      2117    8    0    1
 -2      1033      1088      1089      4182      4186      4184
 -1      2118    8    0    1
 -2      1035      1034      1090      4013      4187      4188
 -1      2119    8    0    1
 -2      1034      1089      1090      4185      4189      4187
 -1      2120    8    0    1
 -2      1036      1035      1091      4016      4190      4191
 -1      2121    8    0    1
 -2      1035      1090      1091      4188      4192      4190
 -1      2122    8    0    1
 -2      1037      1036      1092      4019      4193      4194
 -1      2123    8    0    1
 -2      1036      1091      1092      4191      4195      4193
 -1      2124    8    0    1
 -2      1038      1037      1093      4022      4196      4197
 -1      2125    8    0    1
 -2      1037      1092      1093      4194      4198      4196
 -1      2126    8    0    1
 -2      1039      1038      1094      4025      4199      4200
 -1      2127    8    0    1
 -2      1038      1093      1094      4197      4201      4199
 -1      2128    8    0    1
 -2      1040      1039      1095      4028      4202      4203
 -1      2129    8    0    1
 -2      1039      1094      1095      4200      4204      4202
 -1      2130    8    0    1
 -2      1042      1043      1096      4036      4205      4206
 -1      2131    8    0    1
 -2      1043      1072      1096      4135      4207      4205
 -1      2132    8    0    1
 -2      1041      1042      1097      4033      4208      4209
 -1      2133    8    0    1
 -2      1042      1096      1097      4206      4210      4208
 -1      2134    8    0    1
 -2      1044      1045      1098      4042      4211      4212
 -1      2135    8    0    1
 -2      1044      1098      1072      4212      4213      4134
 -1      2136    8    0    1
 -2      1045      1046      1099      4045      4214      4215
 -1      2137    8    0    1
 -2      1045      1099      1098      4215      4216      4211
 -1      2138    8    0    1
 -2      1046      1047      1100      4048      4217      4218
 -1      2139    8    0    1
 -2      1046      1100      1099      4218      4219      4214
 -1      2140    8    0    1
 -2      1047      1048      1101      4051      4220      4221
 -1      2141    8    0    1
 -2      1047      1101      1100      4221      4222      4217
 -1      2142    8    0    1
 -2      1048      1049      1102      4054      4223      4224
 -1      2143    8    0    1
 -2      1048      1102      1101      4224      4225      4220
 -1      2144    8    0    1
 -2      1049      1050      1103      4057      4226      4227
 -1      2145    8    0    1
 -2      1049      1103      1102      4227      4228      4223
 -1      2146    8    0    1
 -2      1050      1051      1104      4060      4229      4230
 -1      2147    8    0    1
 -2      1050      1104      1103      4230      4231      4226
 -1      2148    8    0    1
 -2      1051      1052      1105      4063      4232      4233
 -1      2149    8    0    1
 -2      1051      1105      1104      4233      4234      4229
 -1      2150    8    0    1
 -2      1052      1053      1106      4066      4235      4236
 -1      2151    8    0    1
 -2      1052      1106      1105      4236      4237      4232
 -1      2152    8    0    1
 -2      1053      1054      1107      4069      4238      4239
 -1      2153    8    0    1
 -2      1053      1107      1106      4239      4240      4235
 -1      2154    8    0    1
 -2      1054      1055      1108      4072      4241      4242
 -1      2155    8    0    1
 -2      1054      1108      1107      4242      4243      4238
 -1      2156    8    0    1
 -2      1055      1056      1109      4075      4244      4245
 -1      2157    8    0    1
 -2      1055      1109      1108      4245      4246      4241
 -1      2158    8    0    1
 -2      1056      1057      1110      4078      4247      4248
 -1      2159    8    0    1
 -2      1056      1110      1109      4248      4249      4244
 -1      2160    8    0    1
 -2      1058      1062      1111      4112      4250      4251
 -1      2161    8    0    1
 -2      1060      1058      1112      4087      4252      4253
 -1      2162    8    0    1
 -2      1058      1111      1112      4251      4254      4252
 -1      2163    8    0    1
 -2      1012      1010      1005      4121      4255      3938
 -1      2164    8    0    1
 -2       940      1011      1067      3933      4256      4120
 -1      2165    8    0    1
 -2      1062      1061      1113      4093      4257      4258
 -1      2166    8    0    1
 -2      1062      1113      1111      4258      4259      4250
 -1      2167    8    0    1
 -2      1066      1040      1114      4129      4260      4261
 -1      2168    8    0    1
 -2      1071      1066      1114      4133      4261      4262
 -1      2169    8    0    1
 -2      1040      1095      1114      4203      4263      4260
 -1      2170    8    0    1
 -2      1061      1059      1115      4090      4264      4265
 -1      2171    8    0    1
 -2      1061      1115      1113      4265      4266      4257
 -1      2172    8    0    1
 -2      1008      1060      1112      4101      4253      4267
 -1      2173    8    0    1
 -2      1005      1010       936      4255      4268      3908
 -1      2174    8    0    1
 -2      1059      1063      1116      4099      4269      4270
 -1      2175    8    0    1
 -2      1059      1116      1115      4270      4271      4264
 -1      2176    8    0    1
 -2      1064      1008      1112      4104      4267      4272
 -1      2177    8    0    1
 -2      1110      1057      1117      4247      4273      4274
 -1      2178    8    0    1
 -2      1057      1068      1117      4115      4275      4273
 -1      2179    8    0    1
 -2      1069      1071      1118      4132      4276      4277
 -1      2180    8    0    1
 -2      1071      1114      1118      4262      4278      4276
 -1      2181    8    0    1
 -2      1011      1015      1067      3950      4279      4256
 -1      2182    8    0    1
 -2      1006      1064      1070      4103      4280      4128
 -1      2183    8    0    1
 -2      1015      1003      1067      3951      4119      4279
 -1      2184    8    0    1
 -2      1063      1041      1119      4100      4281      4282
 -1      2185    8    0    1
 -2      1041      1097      1119      4209      4283      4281
 -1      2186    8    0    1
 -2      1113      1115      1120      4266      4284      4285
 -1      2187    8    0    1
 -2      1010       926       936      3947      3688      4268
 -1      2188    8    0    1
 -2      1072      1098      1121      4213      4286      4287
 -1      2189    8    0    1
 -2      1074      1073      1122      4141      4288      4289
 -1      2190    8    0    1
 -2      1075      1074      1123      4144      4290      4291
 -1      2191    8    0    1
 -2      1074      1122      1123      4289      4292      4290
 -1      2192    8    0    1
 -2      1076      1075      1120      4147      4293      4294
 -1      2193    8    0    1
 -2      1077      1076      1120      4150      4294      4295
 -1      2194    8    0    1
 -2      1078      1077      1124      4153      4296      4297
 -1      2195    8    0    1
 -2      1079      1078      1125      4156      4298      4299
 -1      2196    8    0    1
 -2      1078      1124      1125      4297      4300      4298
 -1      2197    8    0    1
 -2      1080      1079      1126      4159      4301      4302
 -1      2198    8    0    1
 -2      1079      1125      1126      4299      4303      4301
 -1      2199    8    0    1
 -2      1081      1080      1127      4162      4304      4305
 -1      2200    8    0    1
 -2      1080      1126      1127      4302      4306      4304
 -1      2201    8    0    1
 -2      1082      1081      1121      4165      4307      4308
 -1      2202    8    0    1
 -2      1083      1082      1121      4168      4308      4309
 -1      2203    8    0    1
 -2      1084      1083      1128      4171      4310      4311
 -1      2204    8    0    1
 -2      1085      1084      1129      4174      4312      4313
 -1      2205    8    0    1
 -2      1084      1128      1129      4311      4314      4312
 -1      2206    8    0    1
 -2      1086      1085      1130      4177      4315      4316
 -1      2207    8    0    1
 -2      1085      1129      1130      4313      4317      4315
 -1      2208    8    0    1
 -2      1087      1086      1131      4180      4318      4319
 -1      2209    8    0    1
 -2      1086      1130      1131      4316      4320      4318
 -1      2210    8    0    1
 -2      1088      1087      1132      4183      4321      4322
 -1      2211    8    0    1
 -2      1087      1131      1132      4319      4323      4321
 -1      2212    8    0    1
 -2      1089      1088      1133      4186      4324      4325
 -1      2213    8    0    1
 -2      1088      1132      1133      4322      4326      4324
 -1      2214    8    0    1
 -2      1090      1089      1134      4189      4327      4328
 -1      2215    8    0    1
 -2      1089      1133      1134      4325      4329      4327
 -1      2216    8    0    1
 -2      1091      1090      1135      4192      4330      4331
 -1      2217    8    0    1
 -2      1090      1134      1135      4328      4332      4330
 -1      2218    8    0    1
 -2      1092      1091      1136      4195      4333      4334
 -1      2219    8    0    1
 -2      1091      1135      1136      4331      4335      4333
 -1      2220    8    0    1
 -2      1093      1092      1137      4198      4336      4337
 -1      2221    8    0    1
 -2      1092      1136      1137      4334      4338      4336
 -1      2222    8    0    1
 -2      1094      1093      1138      4201      4339      4340
 -1      2223    8    0    1
 -2      1093      1137      1138      4337      4341      4339
 -1      2224    8    0    1
 -2      1096      1072      1127      4207      4342      4343
 -1      2225    8    0    1
 -2      1097      1096      1126      4210      4344      4345
 -1      2226    8    0    1
 -2      1064      1112      1122      4272      4346      4347
 -1      2227    8    0    1
 -2      1099      1100      1128      4219      4348      4349
 -1      2228    8    0    1
 -2      1100      1101      1129      4222      4350      4351
 -1      2229    8    0    1
 -2      1101      1102      1130      4225      4352      4353
 -1      2230    8    0    1
 -2      1102      1103      1131      4228      4354      4355
 -1      2231    8    0    1
 -2      1103      1104      1132      4231      4356      4357
 -1      2232    8    0    1
 -2      1104      1105      1133      4234      4358      4359
 -1      2233    8    0    1
 -2      1105      1106      1134      4237      4360      4361
 -1      2234    8    0    1
 -2      1106      1107      1135      4240      4362      4363
 -1      2235    8    0    1
 -2      1107      1108      1136      4243      4364      4365
 -1      2236    8    0    1
 -2      1108      1109      1137      4246      4366      4367
 -1      2237    8    0    1
 -2      1109      1110      1138      4249      4368      4369
 -1      2238    8    0    1
 -2      1068      1065      1117      4116      4370      4275
 -1      2239    8    0    1
 -2      1065      1069      1117      4124      4371      4370
 -1      2240    8    0    1
 -2      1098      1099      1128      4216      4349      4372
 -1      2241    8    0    1
 -2      1111      1113      1123      4259      4373      4374
 -1      2242    8    0    1
 -2      1070      1064      1073      4280      4375      4138
 -1      2243    8    0    1
 -2      1112      1111      1123      4254      4374      4376
 -1      2244    8    0    1
 -2      1073      1064      1122      4375      4347      4288
 -1      2245    8    0    1
 -2      1129      1101      1130      4350      4353      4317
 -1      2246    8    0    1
 -2      1117      1069      1118      4371      4277      4377
 -1      2247    8    0    1
 -2      1137      1109      1138      4366      4369      4341
 -1      2248    8    0    1
 -2      1135      1107      1136      4362      4365      4335
 -1      2249    8    0    1
 -2      1075      1123      1120      4291      4378      4293
 -1      2250    8    0    1
 -2      1077      1120      1124      4295      4379      4296
 -1      2251    8    0    1
 -2      1081      1127      1121      4305      4380      4307
 -1      2252    8    0    1
 -2      1083      1121      1128      4309      4381      4310
 -1      2253    8    0    1
 -2      1096      1127      1126      4343      4306      4344
 -1      2254    8    0    1
 -2      1117      1118      1139      4377      4382      4383
 -1      2255    8    0    1
 -2      1118      1114      1139      4278      4384      4382
 -1      2256    8    0    1
 -2      1127      1072      1121      4342      4287      4380
 -1      2257    8    0    1
 -2      1095      1094      1140      4204      4385      4386
 -1      2258    8    0    1
 -2      1097      1126      1125      4345      4303      4387
 -1      2259    8    0    1
 -2      1100      1129      1128      4351      4314      4348
 -1      2260    8    0    1
 -2      1115      1116      1124      4271      4388      4389
 -1      2261    8    0    1
 -2      1102      1131      1130      4355      4320      4352
 -1      2262    8    0    1
 -2      1103      1132      1131      4357      4323      4354
 -1      2263    8    0    1
 -2      1104      1133      1132      4359      4326      4356
 -1      2264    8    0    1
 -2      1105      1134      1133      4361      4329      4358
 -1      2265    8    0    1
 -2      1106      1135      1134      4363      4332      4360
 -1      2266    8    0    1
 -2      1108      1137      1136      4367      4338      4364
 -1      2267    8    0    1
 -2      1098      1128      1121      4372      4381      4286
 -1      2268    8    0    1
 -2      1116      1063      1119      4269      4282      4390
 -1      2269    8    0    1
 -2      1140      1094      1138      4385      4340      4391
 -1      2270    8    0    1
 -2      1115      1124      1120      4389      4379      4284
 -1      2271    8    0    1
 -2      1122      1112      1123      4346      4376      4292
 -1      2272    8    0    1
 -2      1113      1120      1123      4285      4378      4373
 -1      2273    8    0    1
 -2      1110      1117      1140      4274      4392      4393
 -1      2274    8    0    1
 -2      1114      1095      1139      4263      4394      4384
 -1      2275    8    0    1
 -2      1119      1097      1125      4283      4387      4395
 -1      2276    8    0    1
 -2      1110      1140      1138      4393      4391      4368
 -1      2277    8    0    1
 -2      1095      1140      1139      4386      4396      4394
 -1      2278    8    0    1
 -2      1119      1125      1124      4395      4300      4397
 -1      2279    8    0    1
 -2      1140      1117      1139      4392      4383      4396
 -1      2280    8    0    1
 -2      1119      1124      1116      4397      4388      4390
 -3
    1PSTEP                         1           1           1          
  100CL  101 1.000000000        4397                     0    1           1
 -4  DISP        4    1
 -5  D1          1    2    1    0
 -5  D2          1    2    2    0
 -5  D3          1    2    3    0
 -5  ALL         1    2    0    0    1ALL
 -1         1 4.01918E-03-5.75308E-04-2.06557E-14
 -1         2 6.29273E-03 3.10638E-04-2.84127E-14
 -1         3 1.56146E-02 2.48703E-03-2.60034E-13
 -1         4 1.48214E-02 1.05748E-03-2.72475E-13
 -1         5 0.00000E+00 0.00000E+00 0.00000E+00
 -1         6 0.00000E+00 0.00000E+00 0.00000E+00
 -1         7 0.00000E+00 0.00000E+00 0.00000E+00
 -1         8 0.00000E+00 0.00000E+00 0.00000E+00
 -1         9 0.00000E+00 0.00000E+00 0.00000E+00
 -1        10 0.00000E+00 0.00000E+00 0.00000E+00
 -1        11 0.00000E+00 0.00000E+00 0.00000E+00
 -1        12 0.00000E+00 0.00000E+00 0.00000E+00
 -1        13 0.00000E+00 0.00000E+00 0.00000E+00
 -1        14 0.00000E+00 0.00000E+00 0.00000E+00
 -1        15 0.00000E+00 0.00000E+00 0.00000E+00
 -1        16 0.00000E+00 0.00000E+00 0.00000E+00
 -1        17 0.00000E+00 0.00000E+00 0.00000E+00
 -1        18 0.00000E+00 0.00000E+00 0.00000E+00
 -1        19 0.00000E+00 0.00000E+00 0.00000E+00
 -1        20 0.00000E+00 0.00000E+00 0.00000E+00
 -1        21 0.00000E+00 0.00000E+00 0.00000E+00
 -1        22 0.00000E+00 0.00000E+00 0.00000E+00
 -1        23 4.29246E-04-2.51380E-04 5.81878E-17
 -1        24 7.49309E-04-3.79133E-04-2.00804E-16
 -1        25 1.05678E-03-4.70809E-04-7.65189E-16
 -1        26 1.36539E-03-5.44326E-04-1.62894E-15
 -1        27 1.67782E-03-6.11165E-04-2.78598E-15
 -1        28 1.99349E-03-6.78379E-04-4.23202E-15
 -1        29 2.30938E-03-7.50081E-04-5.96435E-15
 -1        30 2.62054E-03-8.26976E-04-7.98056E-15
 -1        31 2.92105E-03-9.05457E-04-1.02840E-14
 -1        32 3.20586E-03-9.77198E-04-1.28736E-14
 -1        33 3.47320E-03-1.03028E-03-1.57470E-14
 -1        34 3.72648E-03-1.05238E-03-1.88977E-14
 -1        35 3.97415E-03-1.03529E-03-2.23279E-14
 -1        36 4.22710E-03-9.78420E-04-2.60358E-14
 -1        37 4.49466E-03-8.89269E-04-3.00129E-14
 -1        38 4.78149E-03-7.80494E-04-3.42441E-14
 -1        39 5.08691E-03-6.65489E-04-3.87148E-14
 -1        40 5.40634E-03-5.54853E-04-4.34179E-14
 -1        41 5.73373E-03-4.54910E-04-4.83360E-14
 -1        42 6.06340E-03-3.68022E-04-5.34629E-14
 -1        43 6.39112E-03-2.93776E-04-5.87930E-14
 -1        44 6.71428E-03-2.30262E-04-6.43302E-14
 -1        45 7.03169E-03-1.75036E-04-7.00647E-14
 -1        46 7.34313E-03-1.25721E-04-7.59890E-14
 -1        47 7.64898E-03-8.02876E-05-8.20986E-14
 -1        48 7.94997E-03-3.71480E-05-8.83761E-14
 -1        49 8.24690E-03 4.86003E-06-9.48182E-14
 -1        50 8.54058E-03 4.65367E-05-1.01421E-13
 -1        51 8.83174E-03 8.83969E-05-1.08187E-13
 -1        52 9.12100E-03 1.30743E-04-1.15104E-13
 -1        53 9.40887E-03 1.73725E-04-1.22171E-13
 -1        54 9.69575E-03 2.17394E-04-1.29371E-13
 -1        55 9.98196E-03 2.61733E-04-1.36693E-13
 -1        56 1.02677E-02 3.06688E-04-1.44133E-13
 -1        57 1.05532E-02 3.52188E-04-1.51688E-13
 -1        58 1.08386E-02 3.98150E-04-1.59341E-13
 -1        59 1.11239E-02 4.44499E-04-1.67085E-13
 -1        60 1.14091E-02 4.91160E-04-1.74905E-13
 -1        61 1.16944E-02 5.38070E-04-1.82787E-13
 -1        62 1.19798E-02 5.85174E-04-1.90739E-13
 -1        63 1.22651E-02 6.32424E-04-1.98765E-13
 -1        64 1.25506E-02 6.79784E-04-2.06849E-13
 -1        65 1.28361E-02 7.27221E-04-2.14988E-13
 -1        66 1.31216E-02 7.74711E-04-2.23178E-13
 -1        67 1.34072E-02 8.22233E-04-2.31405E-13
 -1        68 1.36929E-02 8.69771E-04-2.39660E-13
 -1        69 1.39786E-02 9.17310E-04-2.47943E-13
 -1        70 1.42642E-02 9.64839E-04-2.56235E-13
 -1        71 1.45500E-02 1.01235E-03-2.64550E-13
 -1        72 4.33444E-04 2.46196E-04 1.42844E-16
 -1        73 7.59264E-04 3.69261E-04 3.92312E-17
 -1        74 1.08018E-03 4.55007E-04-3.10671E-16
 -1        75 1.40813E-03 5.26208E-04-9.10899E-16
 -1        76 1.74840E-03 5.95965E-04-1.76391E-15
 -1        77 2.10288E-03 6.75423E-04-2.87489E-15
 -1        78 2.46968E-03 7.74683E-04-4.24377E-15
 -1        79 2.84180E-03 9.01143E-04-5.87207E-15
 -1        80 3.20644E-03 1.05534E-03-7.76905E-15
 -1        81 3.54721E-03 1.22532E-03-9.94781E-15
 -1        82 3.85124E-03 1.38375E-03-1.24175E-14
 -1        83 4.11926E-03 1.49410E-03-1.51819E-14
 -1        84 4.37051E-03 1.52771E-03-1.82423E-14
 -1        85 4.62079E-03 1.48575E-03-2.14281E-14
 -1        86 4.91869E-03 1.38753E-03-2.50720E-14
 -1        87 5.25723E-03 1.27075E-03-2.90000E-14
 -1        88 5.62600E-03 1.16737E-03-3.31826E-14
 -1        89 6.00833E-03 1.09463E-03-3.76062E-14
 -1        90 6.38976E-03 1.05626E-03-4.22579E-14
 -1        91 6.76127E-03 1.04815E-03-4.71348E-14
 -1        92 7.11897E-03 1.06332E-03-5.22279E-14
 -1        93 7.46238E-03 1.09490E-03-5.75258E-14
 -1        94 7.79280E-03 1.13727E-03-6.30161E-14
 -1        95 8.11224E-03 1.18626E-03-6.86931E-14
 -1        96 8.42283E-03 1.23896E-03-7.45530E-14
 -1        97 8.72650E-03 1.29346E-03-8.05951E-14
 -1        98 9.02487E-03 1.34853E-03-8.68099E-14
 -1        99 9.31928E-03 1.40341E-03-9.31866E-14
 -1       100 9.61076E-03 1.45771E-03-9.97111E-14
 -1       101 9.90014E-03 1.51122E-03-1.06385E-13
 -1       102 1.01880E-02 1.56387E-03-1.13213E-13
 -1       103 1.04749E-02 1.61568E-03-1.20187E-13
 -1       104 1.07610E-02 1.66671E-03-1.27278E-13
 -1       105 1.10468E-02 1.71706E-03-1.34492E-13
 -1       106 1.13322E-02 1.76683E-03-1.41820E-13
 -1       107 1.16176E-02 1.81610E-03-1.49239E-13
 -1       108 1.19028E-02 1.86496E-03-1.56769E-13
 -1       109 1.21881E-02 1.91351E-03-1.64401E-13
 -1       110 1.24733E-02 1.96179E-03-1.72103E-13
 -1       111 1.27587E-02 2.00988E-03-1.79881E-13
 -1       112 1.30441E-02 2.05782E-03-1.87731E-13
 -1       113 1.33295E-02 2.10564E-03-1.95637E-13
 -1       114 1.36150E-02 2.15339E-03-2.03595E-13
 -1       115 1.39005E-02 2.20108E-03-2.11583E-13
 -1       116 1.41861E-02 2.24874E-03-2.19619E-13
 -1       117 1.44718E-02 2.29639E-03-2.27686E-13
 -1       118 1.47574E-02 2.34403E-03-2.35785E-13
 -1       119 1.50431E-02 2.39168E-03-2.43869E-13
 -1       120 1.53289E-02 2.43935E-03-2.51934E-13
 -1       121 1.55677E-02 2.40274E-03-2.60832E-13
 -1       122 1.55208E-02 2.31846E-03-2.61632E-13
 -1       123 1.54739E-02 2.23415E-03-2.62447E-13
 -1       124 1.54269E-02 2.14983E-03-2.63247E-13
 -1       125 1.53800E-02 2.06548E-03-2.64035E-13
 -1       126 1.53339E-02 1.98254E-03-2.64837E-13
 -1       127 1.52871E-02 1.89815E-03-2.65620E-13
 -1       128 1.52402E-02 1.81374E-03-2.66380E-13
 -1       129 1.51934E-02 1.72933E-03-2.67117E-13
 -1       130 1.51467E-02 1.64493E-03-2.67844E-13
 -1       131 1.50999E-02 1.56054E-03-2.68555E-13
 -1       132 1.50540E-02 1.47760E-03-2.69260E-13
 -1       133 1.50074E-02 1.39325E-03-2.69952E-13
 -1       134 1.49607E-02 1.30892E-03-2.70620E-13
 -1       135 1.49140E-02 1.22462E-03-2.71278E-13
 -1       136 1.48673E-02 1.14033E-03-2.71890E-13
 -1       137 6.26510E-03 4.81443E-04-2.80556E-14
 -1       138 6.14406E-03 6.44784E-04-2.73285E-14
 -1       139 5.93935E-03 7.95212E-04-2.63002E-14
 -1       140 5.64361E-03 9.32828E-04-2.49652E-14
 -1       141 5.28253E-03 1.04208E-03-2.34667E-14
 -1       142 4.84664E-03 1.12190E-03-2.17819E-14
 -1       143 4.40429E-03 1.15640E-03-2.02007E-14
 -1       144 3.91243E-03 1.14701E-03-1.85541E-14
 -1       145 3.43826E-03 1.09102E-03-1.70642E-14
 -1       146 2.99586E-03 9.94317E-04-1.57583E-14
 -1       147 2.59721E-03 8.61345E-04-1.46494E-14
 -1       148 2.25040E-03 6.92107E-04-1.37519E-14
 -1       149 2.01265E-03 5.13686E-04-1.31973E-14
 -1       150 1.88821E-03 3.49574E-04-1.29662E-14
 -1       151 1.85006E-03 1.71506E-04-1.29965E-14
 -1       152 1.91203E-03 1.22915E-06-1.33124E-14
 -1       153 2.08830E-03-1.69179E-04-1.39728E-14
 -1       154 2.34779E-03-3.11582E-04-1.48765E-14
 -1       155 2.69599E-03-4.31703E-04-1.60656E-14
 -1       156 3.07576E-03-5.12949E-04-1.73602E-14
 -1       157 3.55920E-03-5.67069E-04-1.90396E-14
 -1       158 4.50535E-03-5.42409E-04-2.23882E-14
 -1       159 4.99487E-03-4.62848E-04-2.41619E-14
 -1       160 5.41026E-03-3.52456E-04-2.56615E-14
 -1       161 5.76308E-03-2.12530E-04-2.69171E-14
 -1       162 6.03883E-03-4.96188E-05-2.78462E-14
 -1       163 6.21472E-03 1.23534E-04-2.83481E-14
 -1       164 2.57002E-04-1.08736E-04-6.79998E-17
 -1       165 2.37655E-04-7.27265E-05-1.06154E-16
 -1       166 2.26114E-04-4.77361E-05-1.25988E-16
 -1       167 2.16785E-04-2.90055E-05-1.35993E-16
 -1       168 2.08738E-04-1.51199E-05-1.40638E-16
 -1       169 2.01723E-04-4.91535E-06-1.42122E-16
 -1       170 1.96397E-04 1.91791E-06-1.41461E-16
 -1       171 1.93444E-04 6.23896E-06-1.39489E-16
 -1       172 1.93470E-04 9.32301E-06-1.35952E-16
 -1       173 1.96789E-04 1.28025E-05-1.30131E-16
 -1       174 2.03189E-04 1.83588E-05-1.21451E-16
 -1       175 2.12527E-04 2.79617E-05-1.08576E-16
 -1       176 2.24315E-04 4.33774E-05-8.90062E-17
 -1       177 2.38818E-04 6.69877E-05-5.86215E-17
 -1       178 2.59400E-04 1.03862E-04-9.35124E-18
 -1       179 3.21916E-04 1.65567E-04 4.44049E-17
 -1       180 5.03169E-04-2.39974E-04-1.83765E-16
 -1       181 8.29788E-04-3.47329E-04-6.47303E-16
 -1       182 1.14678E-03-4.27977E-04-1.39414E-15
 -1       183 1.46146E-03-4.96539E-04-2.42553E-15
 -1       184 1.77627E-03-5.62279E-04-3.73824E-15
 -1       185 2.09130E-03-6.31335E-04-5.33120E-15
 -1       186 2.40484E-03-7.06707E-04-7.20287E-15
 -1       187 2.71397E-03-7.87348E-04-9.35343E-15
 -1       188 3.01545E-03-8.67170E-04-1.17860E-14
 -1       189 3.30709E-03-9.35102E-04-1.45003E-14
 -1       190 3.58918E-03-9.77319E-04-1.74943E-14
 -1       191 3.86525E-03-9.81748E-04-2.07680E-14
 -1       192 4.14128E-03-9.43089E-04-2.43222E-14
 -1       193 4.42351E-03-8.65377E-04-2.81490E-14
 -1       194 4.71613E-03-7.60367E-04-3.22402E-14
 -1       195 5.02005E-03-6.42895E-04-3.65776E-14
 -1       196 5.33333E-03-5.26111E-04-4.11504E-14
 -1       197 5.65254E-03-4.18790E-04-4.59457E-14
 -1       198 5.97399E-03-3.25005E-04-5.09542E-14
 -1       199 6.29465E-03-2.45220E-04-5.61660E-14
 -1       200 6.61242E-03-1.77767E-04-6.15830E-14
 -1       201 6.92613E-03-1.20074E-04-6.71991E-14
 -1       202 7.23535E-03-6.94751E-05-7.30101E-14
 -1       203 7.54015E-03-2.36190E-05-7.90045E-14
 -1       204 7.84091E-03 1.93690E-05-8.51735E-14
 -1       205 8.13816E-03 6.08799E-05-9.15116E-14
 -1       206 8.43250E-03 1.01883E-04-9.80112E-14
 -1       207 8.72447E-03 1.43008E-04-1.04674E-13
 -1       208 9.01458E-03 1.84632E-04-1.11490E-13
 -1       209 9.30328E-03 2.26950E-04-1.18460E-13
 -1       210 9.59092E-03 2.70034E-04-1.25570E-13
 -1       211 9.87780E-03 3.13875E-04-1.32808E-13
 -1       212 1.01641E-02 3.58419E-04-1.40169E-13
 -1       213 1.04501E-02 4.03584E-04-1.47642E-13
 -1       214 1.07358E-02 4.49284E-04-1.55223E-13
 -1       215 1.10214E-02 4.95428E-04-1.62900E-13
 -1       216 1.13069E-02 5.41934E-04-1.70662E-13
 -1       217 1.15924E-02 5.88729E-04-1.78495E-13
 -1       218 1.18778E-02 6.35749E-04-1.86392E-13
 -1       219 1.21633E-02 6.82941E-04-1.94362E-13
 -1       220 1.24488E-02 7.30262E-04-2.02399E-13
 -1       221 1.27344E-02 7.77675E-04-2.10491E-13
 -1       222 1.30200E-02 8.25153E-04-2.18637E-13
 -1       223 1.33056E-02 8.72671E-04-2.26826E-13
 -1       224 1.35912E-02 9.20212E-04-2.35050E-13
 -1       225 1.38769E-02 9.67759E-04-2.43305E-13
 -1       226 1.41625E-02 1.01530E-03-2.51579E-13
 -1       227 1.44482E-02 1.06283E-03-2.59873E-13
 -1       228 6.61499E-04 2.89269E-04-1.06184E-16
 -1       229 9.91878E-04 3.76890E-04-4.87196E-16
 -1       230 1.32153E-03 4.47264E-04-1.11026E-15
 -1       231 1.65668E-03 5.14278E-04-1.97963E-15
 -1       232 2.00022E-03 5.89744E-04-3.10049E-15
 -1       233 2.35221E-03 6.84667E-04-4.47515E-15
 -1       234 2.70948E-03 8.07894E-04-6.10673E-15
 -1       235 3.06538E-03 9.61968E-04-8.00236E-15
 -1       236 3.41083E-03 1.13683E-03-1.01728E-14
 -1       237 3.73783E-03 1.30518E-03-1.26311E-14
 -1       238 4.04526E-03 1.42739E-03-1.53834E-14
 -1       239 4.34238E-03 1.46942E-03-1.84355E-14
 -1       240 4.62990E-03 1.42907E-03-2.16160E-14
 -1       241 4.95068E-03 1.32668E-03-2.52524E-14
 -1       242 5.29318E-03 1.20324E-03-2.91721E-14
 -1       243 5.65148E-03 1.09393E-03-3.33480E-14
 -1       244 6.01606E-03 1.01745E-03-3.77633E-14
 -1       245 6.37847E-03 9.77532E-04-4.24081E-14
 -1       246 6.73327E-03 9.69476E-04-4.72747E-14
 -1       247 7.07788E-03 9.85659E-04-5.23525E-14
 -1       248 7.41184E-03 1.01869E-03-5.76347E-14
 -1       249 7.73587E-03 1.06262E-03-6.31108E-14
 -1       250 8.05126E-03 1.11309E-03-6.87757E-14
 -1       251 8.35947E-03 1.16711E-03-7.46228E-14
 -1       252 8.66191E-03 1.22272E-03-8.06477E-14
 -1       253 8.95980E-03 1.27870E-03-8.68449E-14
 -1       254 9.25420E-03 1.33433E-03-9.32055E-14
 -1       255 9.54596E-03 1.38921E-03-9.97210E-14
 -1       256 9.83575E-03 1.44317E-03-1.06388E-13
 -1       257 1.01241E-02 1.49616E-03-1.13201E-13
 -1       258 1.04114E-02 1.54823E-03-1.20154E-13
 -1       259 1.06980E-02 1.59946E-03-1.27233E-13
 -1       260 1.09841E-02 1.64995E-03-1.34432E-13
 -1       261 1.12700E-02 1.69981E-03-1.41745E-13
 -1       262 1.15556E-02 1.74915E-03-1.49160E-13
 -1       263 1.18411E-02 1.79806E-03-1.56683E-13
 -1       264 1.21265E-02 1.84663E-03-1.64305E-13
 -1       265 1.24119E-02 1.89493E-03-1.72005E-13
 -1       266 1.26974E-02 1.94303E-03-1.79773E-13
 -1       267 1.29829E-02 1.99097E-03-1.87608E-13
 -1       268 1.32684E-02 2.03879E-03-1.95506E-13
 -1       269 1.35539E-02 2.08654E-03-2.03458E-13
 -1       270 1.38395E-02 2.13423E-03-2.11455E-13
 -1       271 1.41251E-02 2.18188E-03-2.19484E-13
 -1       272 1.44107E-02 2.22952E-03-2.27547E-13
 -1       273 1.46964E-02 2.27715E-03-2.35635E-13
 -1       274 1.49821E-02 2.32480E-03-2.43720E-13
 -1       275 1.52678E-02 2.37246E-03-2.51793E-13
 -1       276 1.52968E-02 2.31930E-03-2.54232E-13
 -1       277 1.52499E-02 2.23501E-03-2.55044E-13
 -1       278 1.52030E-02 2.15069E-03-2.55841E-13
 -1       279 1.51560E-02 2.06636E-03-2.56631E-13
 -1       280 1.51099E-02 1.98344E-03-2.57400E-13
 -1       281 1.50630E-02 1.89908E-03-2.58170E-13
 -1       282 1.50162E-02 1.81470E-03-2.58927E-13
 -1       283 1.49694E-02 1.73032E-03-2.59667E-13
 -1       284 1.49226E-02 1.64595E-03-2.60393E-13
 -1       285 1.48758E-02 1.56157E-03-2.61103E-13
 -1       286 1.48299E-02 1.47864E-03-2.61786E-13
 -1       287 1.47832E-02 1.39429E-03-2.62461E-13
 -1       288 1.47366E-02 1.30996E-03-2.63119E-13
 -1       289 1.46899E-02 1.22565E-03-2.63757E-13
 -1       290 1.45691E-02 1.14423E-03-2.61825E-13
 -1       291 6.31515E-03 3.69428E-04-3.00987E-14
 -1       292 6.20460E-03 4.59974E-04-2.96423E-14
 -1       293 5.98175E-03 5.89222E-04-2.83165E-14
 -1       294 5.67108E-03 7.43574E-04-2.68389E-14
 -1       295 5.31416E-03 9.20765E-04-2.50273E-14
 -1       296 4.91490E-03 1.08418E-03-2.31695E-14
 -1       297 4.54400E-03 1.19882E-03-2.11537E-14
 -1       298 4.16511E-03 1.23848E-03-1.92466E-14
 -1       299 3.77688E-03 1.18006E-03-1.74182E-14
 -1       300 3.37282E-03 1.03950E-03-1.58609E-14
 -1       301 2.96246E-03 8.50695E-04-1.45206E-14
 -1       302 2.56014E-03 6.32042E-04-1.33202E-14
 -1       303 2.18681E-03 4.61161E-04-1.26495E-14
 -1       304 1.94731E-03 3.28584E-04-1.22364E-14
 -1       305 1.83167E-03 2.27793E-04-1.21310E-14
 -1       306 1.85143E-03 1.33842E-04-1.23174E-14
 -1       307 2.01839E-03 3.75967E-05-1.26721E-14
 -1       308 2.30368E-03-1.09402E-04-1.36355E-14
 -1       309 2.66634E-03-2.68886E-04-1.47473E-14
 -1       310 3.03319E-03-4.37713E-04-1.62212E-14
 -1       311 3.44208E-03-5.77474E-04-1.78467E-14
 -1       312 3.82541E-03-6.49111E-04-1.98112E-14
 -1       313 4.20731E-03-6.31220E-04-2.17820E-14
 -1       314 4.60763E-03-5.28245E-04-2.39622E-14
 -1       315 5.04108E-03-3.57500E-04-2.58647E-14
 -1       316 5.44676E-03-1.68799E-04-2.75563E-14
 -1       317 5.81146E-03 2.39831E-05-2.91174E-14
 -1       318 6.11219E-03 1.57054E-04-2.97971E-14
 -1       319 6.28820E-03 2.77908E-04-3.04013E-14
 -1       320 4.76311E-04-1.23646E-04-4.27762E-16
 -1       321 5.06430E-04-1.78013E-04-3.67802E-16
 -1       322 4.33413E-04-4.92409E-05-4.79424E-16
 -1       323 4.15928E-04-2.41656E-05-4.87074E-16
 -1       324 4.01474E-04-5.78013E-06-4.87874E-16
 -1       325 3.91529E-04 7.14708E-06-4.83527E-16
 -1       326 3.87735E-04 1.65444E-05-4.74657E-16
 -1       327 3.91291E-04 2.51092E-05-4.60227E-16
 -1       328 4.02265E-04 3.58175E-05-4.39268E-16
 -1       329 4.20503E-04 5.22769E-05-4.09537E-16
 -1       330 4.44898E-04 7.74928E-05-3.67528E-16
 -1       331 4.74977E-04 1.14749E-04-3.07297E-16
 -1       332 5.13020E-04 1.68571E-04-2.20164E-16
 -1       333 5.80700E-04 2.24105E-04-1.77589E-16
 -1       334 9.06970E-04 3.11409E-04-5.76890E-16
 -1       335 9.30061E-04-3.11520E-04-1.13916E-15
 -1       336 1.24476E-03-3.82457E-04-2.05504E-15
 -1       337 1.55943E-03-4.46867E-04-3.24355E-15
 -1       338 1.87532E-03-5.12143E-04-4.70444E-15
 -1       339 2.19259E-03-5.83339E-04-6.43726E-15
 -1       340 2.51011E-03-6.62270E-04-8.44168E-15
 -1       341 2.82546E-03-7.46074E-04-1.07200E-14
 -1       342 3.13556E-03-8.26028E-04-1.32765E-14
 -1       343 3.43819E-03-8.88042E-04-1.61130E-14
 -1       344 3.73382E-03-9.16290E-04-1.92294E-14
 -1       345 4.02635E-03-8.99566E-04-2.26279E-14
 -1       346 4.32151E-03-8.36941E-04-2.63053E-14
 -1       347 4.62382E-03-7.38434E-04-3.02535E-14
 -1       348 4.93444E-03-6.20314E-04-3.44588E-14
 -1       349 5.25140E-03-4.98562E-04-3.89022E-14
 -1       350 5.57139E-03-3.84588E-04-4.35750E-14
 -1       351 5.89126E-03-2.84249E-04-4.84635E-14
 -1       352 6.20879E-03-1.98936E-04-5.35603E-14
 -1       353 6.52276E-03-1.27308E-04-5.88610E-14
 -1       354 6.83270E-03-6.67732E-05-6.43599E-14
 -1       355 7.13860E-03-1.44684E-05-7.00560E-14
 -1       356 7.44074E-03 3.22097E-05-7.59388E-14
 -1       357 7.73954E-03 7.53851E-05-8.19987E-14
 -1       358 8.03547E-03 1.16664E-04-8.82308E-14
 -1       359 8.32900E-03 1.57184E-04-9.46291E-14
 -1       360 8.62056E-03 1.97702E-04-1.01188E-13
 -1       361 8.91055E-03 2.38682E-04-1.07907E-13
 -1       362 9.19932E-03 2.80375E-04-1.14775E-13
 -1       363 9.48714E-03 3.22886E-04-1.21792E-13
 -1       364 9.77426E-03 3.66224E-04-1.28945E-13
 -1       365 1.00609E-02 4.10338E-04-1.36227E-13
 -1       366 1.03471E-02 4.55149E-04-1.43625E-13
 -1       367 1.06331E-02 5.00560E-04-1.51133E-13
 -1       368 1.09189E-02 5.46476E-04-1.58739E-13
 -1       369 1.12046E-02 5.92805E-04-1.66438E-13
 -1       370 1.14902E-02 6.39464E-04-1.74221E-13
 -1       371 1.17758E-02 6.86384E-04-1.82067E-13
 -1       372 1.20614E-02 7.33503E-04-1.89982E-13
 -1       373 1.23470E-02 7.80773E-04-1.97971E-13
 -1       374 1.26326E-02 8.28152E-04-2.06021E-13
 -1       375 1.29182E-02 8.75608E-04-2.14128E-13
 -1       376 1.32038E-02 9.23116E-04-2.22276E-13
 -1       377 1.34895E-02 9.70654E-04-2.30460E-13
 -1       378 1.37751E-02 1.01821E-03-2.38681E-13
 -1       379 1.40608E-02 1.06576E-03-2.46929E-13
 -1       380 1.43149E-02 1.10500E-03-2.54364E-13
 -1       381 1.23275E-03 3.81240E-04-1.21108E-15
 -1       382 1.56150E-03 4.46054E-04-2.08662E-15
 -1       383 1.89638E-03 5.17525E-04-3.20806E-15
 -1       384 2.23917E-03 6.06982E-04-4.57933E-15
 -1       385 2.58977E-03 7.24394E-04-6.20343E-15
 -1       386 2.94542E-03 8.74683E-04-8.08633E-15
 -1       387 3.29992E-03 1.05126E-03-1.02391E-14
 -1       388 3.64502E-03 1.22904E-03-1.26763E-14
 -1       389 3.97590E-03 1.36601E-03-1.54076E-14
 -1       390 4.29690E-03 1.42047E-03-1.84405E-14
 -1       391 4.60482E-03 1.38412E-03-2.16040E-14
 -1       392 4.94237E-03 1.27858E-03-2.52272E-14
 -1       393 5.29449E-03 1.14923E-03-2.91340E-14
 -1       394 5.65408E-03 1.03498E-03-3.32987E-14
 -1       395 6.01289E-03 9.55467E-04-3.77014E-14
 -1       396 6.36541E-03 9.14111E-04-4.23325E-14
 -1       397 6.70910E-03 9.05626E-04-4.71820E-14
 -1       398 7.04340E-03 9.21981E-04-5.22434E-14
 -1       399 7.36879E-03 9.55523E-04-5.75076E-14
 -1       400 7.68620E-03 1.00013E-03-6.29653E-14
 -1       401 7.99678E-03 1.05134E-03-6.86139E-14
 -1       402 8.30165E-03 1.10608E-03-7.44442E-14
 -1       403 8.60188E-03 1.16237E-03-8.04504E-14
 -1       404 8.89839E-03 1.21895E-03-8.66281E-14
 -1       405 9.19200E-03 1.27509E-03-9.29725E-14
 -1       406 9.48335E-03 1.33040E-03-9.94737E-14
 -1       407 9.77300E-03 1.38471E-03-1.06126E-13
 -1       408 1.00614E-02 1.43799E-03-1.12922E-13
 -1       409 1.03488E-02 1.49028E-03-1.19857E-13
 -1       410 1.06356E-02 1.54168E-03-1.26919E-13
 -1       411 1.09219E-02 1.59230E-03-1.34106E-13
 -1       412 1.12079E-02 1.64226E-03-1.41405E-13
 -1       413 1.14937E-02 1.69167E-03-1.48809E-13
 -1       414 1.17793E-02 1.74064E-03-1.56323E-13
 -1       415 1.20649E-02 1.78924E-03-1.63937E-13
 -1       416 1.23504E-02 1.83757E-03-1.71628E-13
 -1       417 1.26360E-02 1.88568E-03-1.79388E-13
 -1       418 1.29215E-02 1.93363E-03-1.87213E-13
 -1       419 1.32071E-02 1.98146E-03-1.95105E-13
 -1       420 1.34926E-02 2.02921E-03-2.03052E-13
 -1       421 1.37782E-02 2.07689E-03-2.11049E-13
 -1       422 1.40639E-02 2.12454E-03-2.19077E-13
 -1       423 1.43495E-02 2.17218E-03-2.27136E-13
 -1       424 1.46352E-02 2.21981E-03-2.35217E-13
 -1       425 1.49209E-02 2.26745E-03-2.43306E-13
 -1       426 1.51089E-02 2.29337E-03-2.48770E-13
 -1       427 1.49321E-02 2.06726E-03-2.49226E-13
 -1       428 1.49790E-02 2.15157E-03-2.48438E-13
 -1       429 1.50439E-02 2.22248E-03-2.48609E-13
 -1       430 1.48859E-02 1.98435E-03-2.49987E-13
 -1       431 1.48390E-02 1.90001E-03-2.50740E-13
 -1       432 1.47921E-02 1.81565E-03-2.51488E-13
 -1       433 1.47453E-02 1.73129E-03-2.52229E-13
 -1       434 1.46985E-02 1.64693E-03-2.52957E-13
 -1       435 1.46518E-02 1.56257E-03-2.53663E-13
 -1       436 1.46058E-02 1.47964E-03-2.54336E-13
 -1       437 1.45591E-02 1.39530E-03-2.54997E-13
 -1       438 1.45125E-02 1.31097E-03-2.55640E-13
 -1       439 1.44658E-02 1.22665E-03-2.56268E-13
 -1       440 6.08033E-03 4.79090E-04-3.08020E-14
 -1       441 6.33729E-03 3.36964E-04-3.21332E-14
 -1       442 6.29450E-03 3.88716E-04-3.17155E-14
 -1       443 5.82815E-03 5.92968E-04-2.92423E-14
 -1       444 5.42699E-03 7.94804E-04-2.69665E-14
 -1       445 4.53133E-04-8.18275E-05-4.61531E-16
 -1       446 4.66535E-03 1.17430E-03-2.23657E-14
 -1       447 4.35262E-03 1.26045E-03-2.02755E-14
 -1       448 4.00537E-03 1.25503E-03-1.80078E-14
 -1       449 3.62958E-03 1.12130E-03-1.60834E-14
 -1       450 3.25235E-03 9.22135E-04-1.44747E-14
 -1       451 2.86092E-03 6.91934E-04-1.30520E-14
 -1       452 2.38809E-03 4.53032E-04-1.19645E-14
 -1       453 2.06956E-03 3.23206E-04-1.15399E-14
 -1       454 1.86484E-03 2.35519E-04-1.12651E-14
 -1       455 1.80674E-03 1.78479E-04-1.12512E-14
 -1       456 1.89259E-03 1.26869E-04-1.13920E-14
 -1       457 2.18273E-03 1.07017E-05-1.23657E-14
 -1       458 2.51287E-03-1.29854E-04-1.33089E-14
 -1       459 2.93446E-03-3.36176E-04-1.48919E-14
 -1       460 3.27012E-03-4.99760E-04-1.64109E-14
 -1       461 3.68376E-03-6.56845E-04-1.87322E-14
 -1       462 4.01578E-03-6.82197E-04-2.09787E-14
 -1       463 4.33659E-03-6.17772E-04-2.32394E-14
 -1       464 4.76610E-03-4.22213E-04-2.60481E-14
 -1       465 5.16585E-03-2.15390E-04-2.79751E-14
 -1       466 5.56002E-03-1.39157E-05-2.97364E-14
 -1       467 5.96936E-03 1.75945E-04-3.14757E-14
 -1       468 6.20414E-03 2.66211E-04-3.20947E-14
 -1       469 5.09327E-03 9.71844E-04-2.50143E-14
 -1       470 4.87500E-03 1.08390E-03-2.41650E-14
 -1       471 5.77513E-03 1.20199E-04-3.20853E-14
 -1       472 1.99652E-03 8.93025E-05-1.10720E-14
 -1       473 1.00151E-03 2.72127E-04-1.05654E-15
 -1       474 6.19765E-04-2.49467E-05-1.03255E-15
 -1       475 6.46871E-04-5.85085E-05-1.02611E-15
 -1       476 5.85889E-04 1.86237E-05-1.01494E-15
 -1       477 5.84896E-04 3.36922E-05-9.91811E-16
 -1       478 5.96623E-04 4.92708E-05-9.58397E-16
 -1       479 6.21195E-04 7.04085E-05-9.11360E-16
 -1       480 6.56845E-04 1.01072E-04-8.47233E-16
 -1       481 7.01612E-04 1.44779E-04-7.60134E-16
 -1       482 1.31571E-03 3.33381E-04-1.86124E-15
 -1       483 1.03602E-03-2.73886E-04-1.68112E-15
 -1       484 1.34554E-03-3.34933E-04-2.75204E-15
 -1       485 1.65889E-03-3.94512E-04-4.08704E-15
 -1       486 1.97691E-03-4.58489E-04-5.68690E-15
 -1       487 2.29984E-03-5.31269E-04-7.55090E-15
 -1       488 2.62634E-03-6.13967E-04-9.68012E-15
 -1       489 2.95291E-03-7.02112E-04-1.20791E-14
 -1       490 3.27469E-03-7.83585E-04-1.47542E-14
 -1       491 3.58823E-03-8.39459E-04-1.77119E-14
 -1       492 3.89483E-03-8.50432E-04-2.09531E-14
 -1       493 4.20073E-03-8.07159E-04-2.44785E-14
 -1       494 4.51274E-03-7.16354E-04-2.82830E-14
 -1       495 4.83337E-03-5.96707E-04-3.23535E-14
 -1       496 5.15991E-03-4.68996E-04-3.66713E-14
 -1       497 5.48734E-03-3.48248E-04-4.12207E-14
 -1       498 5.81144E-03-2.42045E-04-4.59931E-14
 -1       499 6.12999E-03-1.52215E-04-5.09750E-14
 -1       500 6.44251E-03-7.73144E-05-5.61625E-14
 -1       501 6.74950E-03-1.45299E-05-6.15473E-14
 -1       502 7.05183E-03 3.92102E-05-6.71286E-14
 -1       503 7.35040E-03 8.66880E-05-7.29004E-14
 -1       504 7.64599E-03 1.30183E-04-7.88518E-14
 -1       505 7.93924E-03 1.71434E-04-8.49764E-14
 -1       506 8.23067E-03 2.11696E-04-9.12722E-14
 -1       507 8.52066E-03 2.51817E-04-9.77297E-14
 -1       508 8.80954E-03 2.92331E-04-1.04347E-13
 -1       509 9.09757E-03 3.33542E-04-1.11120E-13
 -1       510 9.38493E-03 3.75589E-04-1.18042E-13
 -1       511 9.67180E-03 4.18501E-04-1.25106E-13
 -1       512 9.95830E-03 4.62241E-04-1.32304E-13
 -1       513 1.02445E-02 5.06731E-04-1.39625E-13
 -1       514 1.05305E-02 5.51875E-04-1.47059E-13
 -1       515 1.08164E-02 5.97572E-04-1.54599E-13
 -1       516 1.11022E-02 6.43726E-04-1.62235E-13
 -1       517 1.13880E-02 6.90249E-04-1.69959E-13
 -1       518 1.16737E-02 7.37064E-04-1.77757E-13
 -1       519 1.19593E-02 7.84104E-04-1.85624E-13
 -1       520 1.22450E-02 8.31316E-04-1.93561E-13
 -1       521 1.25307E-02 8.78654E-04-2.01568E-13
 -1       522 1.28163E-02 9.26083E-04-2.09632E-13
 -1       523 1.31020E-02 9.73575E-04-2.17743E-13
 -1       524 1.33877E-02 1.02111E-03-2.25892E-13
 -1       525 1.36734E-02 1.06866E-03-2.34077E-13
 -1       526 1.39591E-02 1.11622E-03-2.42291E-13
 -1       527 1.96027E-03 4.67733E-04-4.18908E-15
 -1       528 2.29737E-03 5.62350E-04-5.71867E-15
 -1       529 2.64867E-03 6.89347E-04-7.49676E-15
 -1       530 3.01402E-03 8.53630E-04-9.53207E-15
 -1       531 3.38589E-03 1.04592E-03-1.18382E-14
 -1       532 3.75153E-03 1.22805E-03-1.44337E-14
 -1       533 4.10494E-03 1.34303E-03-1.73331E-14
 -1       534 4.43425E-03 1.34748E-03-2.03750E-14
 -1       535 4.79208E-03 1.25277E-03-2.38803E-14
 -1       536 5.16277E-03 1.11164E-03-2.76790E-14
 -1       537 5.53546E-03 9.79794E-04-3.17492E-14
 -1       538 5.89814E-03 8.85024E-04-3.60604E-14
 -1       539 6.24597E-03 8.32139E-04-4.05970E-14
 -1       540 6.57973E-03 8.15291E-04-4.53538E-14
 -1       541 6.90228E-03 8.25762E-04-5.03235E-14
 -1       542 7.21643E-03 8.55393E-04-5.54972E-14
 -1       543 7.52429E-03 8.97636E-04-6.08665E-14
 -1       544 7.82735E-03 9.47642E-04-6.64279E-14
 -1       545 8.12662E-03 1.00201E-03-7.21742E-14
 -1       546 8.42286E-03 1.05844E-03-7.80971E-14
 -1       547 8.71666E-03 1.11549E-03-8.41909E-14
 -1       548 9.00850E-03 1.17227E-03-9.04547E-14
 -1       549 9.29877E-03 1.22827E-03-9.68798E-14
 -1       550 9.58781E-03 1.28326E-03-1.03461E-13
 -1       551 9.87591E-03 1.33716E-03-1.10190E-13
 -1       552 1.01633E-02 1.39001E-03-1.17057E-13
 -1       553 1.04501E-02 1.44189E-03-1.24054E-13
 -1       554 1.07365E-02 1.49291E-03-1.31178E-13
 -1       555 1.10227E-02 1.54320E-03-1.38420E-13
 -1       556 1.13086E-02 1.59288E-03-1.45776E-13
 -1       557 1.15944E-02 1.64205E-03-1.53240E-13
 -1       558 1.18802E-02 1.69082E-03-1.60809E-13
 -1       559 1.21658E-02 1.73927E-03-1.68464E-13
 -1       560 1.24515E-02 1.78747E-03-1.76192E-13
 -1       561 1.27371E-02 1.83549E-03-1.83988E-13
 -1       562 1.30227E-02 1.88336E-03-1.91845E-13
 -1       563 1.33084E-02 1.93114E-03-1.99771E-13
 -1       564 1.35940E-02 1.97884E-03-2.07749E-13
 -1       565 1.38797E-02 2.02651E-03-2.15766E-13
 -1       566 1.41654E-02 2.07414E-03-2.23811E-13
 -1       567 1.44510E-02 2.12177E-03-2.31880E-13
 -1       568 1.47367E-02 2.16940E-03-2.39968E-13
 -1       569 1.46150E-02 1.90094E-03-2.43337E-13
 -1       570 1.45681E-02 1.81660E-03-2.44080E-13
 -1       571 1.47081E-02 2.06816E-03-2.41827E-13
 -1       572 1.46616E-02 1.98456E-03-2.42590E-13
 -1       573 1.45213E-02 1.73225E-03-2.44816E-13
 -1       574 1.44744E-02 1.64790E-03-2.45539E-13
 -1       575 1.44277E-02 1.56355E-03-2.46236E-13
 -1       576 1.43817E-02 1.48063E-03-2.46902E-13
 -1       577 1.43350E-02 1.39629E-03-2.47555E-13
 -1       578 1.42884E-02 1.31195E-03-2.48189E-13
 -1       579 1.42417E-02 1.22763E-03-2.48807E-13
 -1       580 6.36041E-03 3.65761E-04-3.40497E-14
 -1       581 6.25021E-03 4.16386E-04-3.35309E-14
 -1       582 6.32733E-03 3.28891E-04-3.46428E-14
 -1       583 1.63430E-03 3.95121E-04-2.90426E-15
 -1       584 5.96173E-03 5.28543E-04-3.18559E-14
 -1       585 5.63100E-03 6.79830E-04-2.96225E-14
 -1       586 5.25233E-03 8.79096E-04-2.69435E-14
 -1       587 2.72336E-03-2.22974E-04-1.32490E-14
 -1       588 5.98437E-04 1.35986E-07-1.02853E-15
 -1       589 4.21888E-03 1.29488E-03-1.91894E-14
 -1       590 3.89183E-03-7.02708E-04-2.02252E-14
 -1       591 4.47611E-03 1.25669E-03-2.12145E-14
 -1       592 3.81333E-03 1.20181E-03-1.63617E-14
 -1       593 3.48119E-03 1.02846E-03-1.45095E-14
 -1       594 3.11327E-03 8.06707E-04-1.29210E-14
 -1       595 2.61573E-03 5.25586E-04-1.14425E-14
 -1       596 2.18604E-03 3.29751E-04-1.06056E-14
 -1       597 1.94834E-03 2.44490E-04-1.03529E-14
 -1       598 1.79499E-03 1.89197E-04-1.02911E-14
 -1       599 1.79594E-03 1.54603E-04-1.02321E-14
 -1       600 2.31277E-03-3.24366E-05-1.17898E-14
 -1       601 3.10173E-03-4.18040E-04-1.49808E-14
 -1       602 3.45489E-03-5.91422E-04-1.69705E-14
 -1       603 4.15709E-03-6.78038E-04-2.24326E-14
 -1       604 4.51741E-03-5.39261E-04-2.53695E-14
 -1       605 4.97208E-03-2.87442E-04-2.85709E-14
 -1       606 5.34743E-03-7.95896E-05-3.06435E-14
 -1       607 6.13008E-03 2.65481E-04-3.47044E-14
 -1       608 7.50628E-04-1.99877E-04-9.51259E-16
 -1       609 7.58031E-04 2.26449E-04-5.57924E-16
 -1       610 4.02739E-03 1.28530E-03-1.74600E-14
 -1       611 6.77553E-04-1.01287E-04-1.00545E-15
 -1       612 4.68342E-03 1.19608E-03-2.29495E-14
 -1       613 3.66184E-03-6.77971E-04-1.83645E-14
 -1       614 1.84352E-03 1.25054E-04-9.91313E-15
 -1       615 1.41513E-02 1.14669E-03-2.47874E-13
 -1       616 7.87087E-04 5.82893E-05-1.67569E-15
 -1       617 7.80122E-04 3.73210E-05-1.72070E-15
 -1       618 8.57757E-04 1.15995E-04-1.52948E-15
 -1       619 9.15861E-04 1.62527E-04-1.41856E-15
 -1       620 1.08620E-03 2.35078E-04-1.60488E-15
 -1       621 5.46012E-03 8.04086E-04-2.95074E-14
 -1       622 1.38506E-03 2.88151E-04-2.57323E-15
 -1       623 1.44468E-03-2.83694E-04-3.48538E-15
 -1       624 1.75718E-03-3.37076E-04-4.95688E-15
 -1       625 2.07899E-03-3.98496E-04-6.68519E-15
 -1       626 2.41067E-03-4.72769E-04-8.67027E-15
 -1       627 2.75017E-03-5.61365E-04-1.09148E-14
 -1       628 3.09147E-03-6.58223E-04-1.34279E-14
 -1       629 3.42643E-03-7.45012E-04-1.62210E-14
 -1       630 3.75044E-03-7.93564E-04-1.92999E-14
 -1       631 4.06795E-03-7.79031E-04-2.26690E-14
 -1       632 4.38980E-03-6.99199E-04-2.63259E-14
 -1       633 4.72208E-03-5.75114E-04-3.02608E-14
 -1       634 5.06225E-03-4.37185E-04-3.44537E-14
 -1       635 5.40215E-03-3.07221E-04-3.88843E-14
 -1       636 5.73503E-03-1.95036E-04-4.35392E-14
 -1       637 6.05788E-03-1.02018E-04-4.84085E-14
 -1       638 6.37084E-03-2.55827E-05-5.34827E-14
 -1       639 6.67561E-03 3.79400E-05-5.87587E-14
 -1       640 6.97425E-03 9.20687E-05-6.42270E-14
 -1       641 7.26857E-03 1.39763E-04-6.98861E-14
 -1       642 7.55996E-03 1.83356E-04-7.57305E-14
 -1       643 7.84943E-03 2.24602E-04-8.17499E-14
 -1       644 8.13763E-03 2.64763E-04-8.79406E-14
 -1       645 8.42502E-03 3.04707E-04-9.42978E-14
 -1       646 8.71187E-03 3.44991E-04-1.00814E-13
 -1       647 8.99837E-03 3.85941E-04-1.07492E-13
 -1       648 9.28463E-03 4.27717E-04-1.14320E-13
 -1       649 9.57073E-03 4.70364E-04-1.21292E-13
 -1       650 9.85671E-03 5.13856E-04-1.28404E-13
 -1       651 1.01426E-02 5.58123E-04-1.35645E-13
 -1       652 1.04285E-02 6.03072E-04-1.43006E-13
 -1       653 1.07143E-02 6.48603E-04-1.50476E-13
 -1       654 1.10000E-02 6.94618E-04-1.58048E-13
 -1       655 1.12858E-02 7.41028E-04-1.65712E-13
 -1       656 1.15715E-02 7.87752E-04-1.73458E-13
 -1       657 1.18573E-02 8.34721E-04-1.81274E-13
 -1       658 1.21430E-02 8.81879E-04-1.89165E-13
 -1       659 1.24287E-02 9.29176E-04-1.97130E-13
 -1       660 1.27144E-02 9.76577E-04-2.05150E-13
 -1       661 1.30001E-02 1.02405E-03-2.13222E-13
 -1       662 1.32858E-02 1.07157E-03-2.21338E-13
 -1       663 1.35716E-02 1.11912E-03-2.29484E-13
 -1       664 1.38573E-02 1.16668E-03-2.37666E-13
 -1       665 2.33697E-03 5.10934E-04-6.89846E-15
 -1       666 4.75196E-03-4.27102E-04-2.82658E-14
 -1       667 2.00467E-03 4.15606E-04-5.21834E-15
 -1       668 3.07737E-03 8.26575E-04-1.10009E-14
 -1       669 4.62333E-03 1.25499E-03-2.24246E-14
 -1       670 5.01921E-03 1.09384E-03-2.61381E-14
 -1       671 5.41300E-03 9.37237E-04-3.01083E-14
 -1       672 5.78801E-03 8.25300E-04-3.43291E-14
 -1       673 6.13780E-03 7.62426E-04-3.87763E-14
 -1       674 6.46570E-03 7.39373E-04-4.34398E-14
 -1       675 6.77839E-03 7.45326E-04-4.83176E-14
 -1       676 7.08162E-03 7.71386E-04-5.33994E-14
 -1       677 7.37926E-03 8.10887E-04-5.86794E-14
 -1       678 7.67359E-03 8.58954E-04-6.41527E-14
 -1       679 7.96584E-03 9.12101E-04-6.98153E-14
 -1       680 8.25666E-03 9.67909E-04-7.56571E-14
 -1       681 8.54643E-03 1.02476E-03-8.16683E-14
 -1       682 8.83535E-03 1.08163E-03-8.78516E-14
 -1       683 9.12357E-03 1.13791E-03-9.41981E-14
 -1       684 9.41122E-03 1.19327E-03-1.00705E-13
 -1       685 9.69839E-03 1.24758E-03-1.07363E-13
 -1       686 9.98518E-03 1.30084E-03-1.14166E-13
 -1       687 1.02717E-02 1.35309E-03-1.21101E-13
 -1       688 1.05579E-02 1.40444E-03-1.28165E-13
 -1       689 1.08440E-02 1.45501E-03-1.35346E-13
 -1       690 1.11299E-02 1.50492E-03-1.42647E-13
 -1       691 1.14158E-02 1.55429E-03-1.50063E-13
 -1       692 1.17016E-02 1.60321E-03-1.57583E-13
 -1       693 1.19873E-02 1.65178E-03-1.65197E-13
 -1       694 1.22730E-02 1.70008E-03-1.72892E-13
 -1       695 1.25587E-02 1.74817E-03-1.80663E-13
 -1       696 1.28444E-02 1.79610E-03-1.88495E-13
 -1       697 1.31301E-02 1.84391E-03-1.96389E-13
 -1       698 1.34158E-02 1.89164E-03-2.04347E-13
 -1       699 1.37015E-02 1.93932E-03-2.12351E-13
 -1       700 1.39872E-02 1.98696E-03-2.20384E-13
 -1       701 1.42729E-02 2.03458E-03-2.28440E-13
 -1       702 1.44905E-02 2.05137E-03-2.35129E-13
 -1       703 1.42504E-02 1.64886E-03-2.38149E-13
 -1       704 1.40495E-02 1.19716E-03-2.43230E-13
 -1       705 1.43441E-02 1.81754E-03-2.36703E-13
 -1       706 1.42036E-02 1.56451E-03-2.38840E-13
 -1       707 1.42972E-02 1.73320E-03-2.37437E-13
 -1       708 1.41576E-02 1.48160E-03-2.39494E-13
 -1       709 1.41109E-02 1.39726E-03-2.40144E-13
 -1       710 1.40642E-02 1.31293E-03-2.40771E-13
 -1       711 2.46514E-03-1.28739E-04-1.15236E-14
 -1       712 5.91980E-03 1.83476E-04-3.55880E-14
 -1       713 6.31607E-03 3.22236E-04-3.72431E-14
 -1       714 2.34392E-03 3.94456E-04-9.88918E-15
 -1       715 4.37222E-03 1.30525E-03-2.02369E-14
 -1       716 5.19746E-03-1.70247E-04-3.14614E-14
 -1       717 1.68970E-03 3.45175E-04-3.77703E-15
 -1       718 6.38468E-03 3.95005E-04-3.63077E-14
 -1       719 2.69393E-03 6.44765E-04-8.82231E-15
 -1       720 1.14002E-03-2.32569E-04-2.27078E-15
 -1       721 8.13683E-04 8.26668E-05-1.61320E-15
 -1       722 6.19504E-03 4.71723E-04-3.51643E-14
 -1       723 5.56519E-03 2.68119E-05-3.35007E-14
 -1       724 8.55291E-04-5.64803E-05-1.76609E-15
 -1       725 3.23206E-03-5.15952E-04-1.52353E-14
 -1       726 5.05811E-03 1.01307E-03-2.61170E-14
 -1       727 1.72400E-03 1.59093E-04-8.98536E-15
 -1       728 2.04648E-03 4.05611E-05-1.00322E-14
 -1       729 2.83241E-03 6.48537E-04-1.10468E-14
 -1       730 1.99736E-03 2.54947E-04-9.30951E-15
 -1       731 2.86756E-03-3.41142E-04-1.30890E-14
 -1       732 1.80341E-03 1.92400E-04-9.04406E-15
 -1       733 6.41731E-03 3.62624E-04-3.69265E-14
 -1       734 4.00963E-03-7.19281E-04-2.14800E-14
 -1       735 4.32876E-03-6.35968E-04-2.44714E-14
 -1       736 5.84571E-03 6.16824E-04-3.25779E-14
 -1       737 8.97248E-04-1.07327E-04-1.74856E-15
 -1       738 7.91992E-04 1.39949E-05-1.75052E-15
 -1       739 1.43906E-02 1.90116E-03-2.35962E-13
 -1       740 1.44406E-02 1.97627E-03-2.35553E-13
 -1       741 3.43682E-03-6.25492E-04-1.65293E-14
 -1       742 2.16317E-03-4.36953E-05-9.76666E-15
 -1       743 9.63296E-04-1.83075E-04-1.73878E-15
 -1       744 2.53617E-03 5.07312E-04-9.50232E-15
 -1       745 1.39608E-02 1.23980E-03-2.39225E-13
 -1       746 1.71514E-03 1.37330E-04-8.67937E-15
 -1       747 6.16942E-03 2.64725E-04-3.81533E-14
 -1       748 8.18741E-04-1.63263E-05-1.76568E-15
 -1       749 5.72618E-03 7.38557E-04-3.27191E-14
 -1       750 1.11591E-03 1.71923E-04-2.28119E-15
 -1       751 3.79279E-03 1.20911E-03-1.55392E-14
 -1       752 1.53789E-03-2.26469E-04-4.25327E-15
 -1       753 1.84942E-03-2.72019E-04-5.84987E-15
 -1       754 2.17582E-03-3.29677E-04-7.69496E-15
 -1       755 2.51868E-03-4.06718E-04-9.79103E-15
 -1       756 2.87502E-03-5.06346E-04-1.21430E-14
 -1       757 3.23509E-03-6.20460E-04-1.47664E-14
 -1       758 3.92335E-03-7.50300E-04-2.08795E-14
 -1       759 4.60641E-03-5.62168E-04-2.81792E-14
 -1       760 4.96435E-03-4.06044E-04-3.22466E-14
 -1       761 5.32195E-03-2.60656E-04-3.65619E-14
 -1       762 5.66671E-03-1.40730E-04-4.11018E-14
 -1       763 5.99557E-03-4.56947E-05-4.58599E-14
 -1       764 6.30937E-03 2.99923E-05-5.08235E-14
 -1       765 6.61156E-03 9.20158E-05-5.59883E-14
 -1       766 6.90574E-03 1.44817E-04-6.13484E-14
 -1       767 7.19485E-03 1.91620E-04-6.68980E-14
 -1       768 7.48101E-03 2.34722E-04-7.26337E-14
 -1       769 7.76565E-03 2.75753E-04-7.85485E-14
 -1       770 8.04965E-03 3.15856E-04-8.46354E-14
 -1       771 8.33351E-03 3.55807E-04-9.08929E-14
 -1       772 8.61752E-03 3.96112E-04-9.73114E-14
 -1       773 8.90179E-03 4.37070E-04-1.03890E-13
 -1       774 9.18635E-03 4.78830E-04-1.10622E-13
 -1       775 9.47118E-03 5.21441E-04-1.17501E-13
 -1       776 9.75626E-03 5.64880E-04-1.24525E-13
 -1       777 1.00415E-02 6.09082E-04-1.31686E-13
 -1       778 1.03270E-02 6.53961E-04-1.38972E-13
 -1       779 1.06125E-02 6.99423E-04-1.46370E-13
 -1       780 1.08981E-02 7.45373E-04-1.53877E-13
 -1       781 1.11838E-02 7.91722E-04-1.61481E-13
 -1       782 1.14695E-02 8.38393E-04-1.69172E-13
 -1       783 1.17552E-02 8.85317E-04-1.76939E-13
 -1       784 1.20410E-02 9.32437E-04-1.84783E-13
 -1       785 1.23267E-02 9.79704E-04-1.92700E-13
 -1       786 1.26125E-02 1.02708E-03-2.00682E-13
 -1       787 1.28983E-02 1.07453E-03-2.08715E-13
 -1       788 1.31840E-02 1.12204E-03-2.16795E-13
 -1       789 1.34697E-02 1.16959E-03-2.24909E-13
 -1       790 1.37152E-02 1.20469E-03-2.32052E-13
 -1       791 4.18351E-03-7.10445E-04-2.35401E-14
 -1       792 2.53366E-03-2.37226E-04-1.09448E-14
 -1       793 6.38615E-03 6.47967E-04-4.16091E-14
 -1       794 6.68233E-03 6.54979E-04-4.63984E-14
 -1       795 6.96881E-03 6.80614E-04-5.13930E-14
 -1       796 7.25112E-03 7.18647E-04-5.65838E-14
 -1       797 7.53230E-03 7.64885E-04-6.19708E-14
 -1       798 7.81375E-03 8.16310E-04-6.75494E-14
 -1       799 8.09599E-03 8.70732E-04-7.33097E-14
 -1       800 8.37909E-03 9.26592E-04-7.92426E-14
 -1       801 8.66295E-03 9.82828E-04-8.53451E-14
 -1       802 8.94741E-03 1.03876E-03-9.16133E-14
 -1       803 9.23230E-03 1.09398E-03-9.80447E-14
 -1       804 9.51751E-03 1.14829E-03-1.04631E-13
 -1       805 9.80293E-03 1.20162E-03-1.11364E-13
 -1       806 1.00885E-02 1.25401E-03-1.18239E-13
 -1       807 1.03741E-02 1.30551E-03-1.25245E-13
 -1       808 1.06598E-02 1.35623E-03-1.32373E-13
 -1       809 1.09455E-02 1.40628E-03-1.39616E-13
 -1       810 1.12313E-02 1.45577E-03-1.46982E-13
 -1       811 1.15170E-02 1.50481E-03-1.54455E-13
 -1       812 1.18028E-02 1.55347E-03-1.62027E-13
 -1       813 1.20885E-02 1.60184E-03-1.69687E-13
 -1       814 1.23743E-02 1.64998E-03-1.77430E-13
 -1       815 1.26600E-02 1.69796E-03-1.85237E-13
 -1       816 1.29457E-02 1.74580E-03-1.93109E-13
 -1       817 1.32315E-02 1.79356E-03-2.01044E-13
 -1       818 1.35172E-02 1.84125E-03-2.09032E-13
 -1       819 1.38029E-02 1.88890E-03-2.17057E-13
 -1       820 1.40887E-02 1.93653E-03-2.25100E-13
 -1       821 1.42646E-02 1.95640E-03-2.30322E-13
 -1       822 9.75084E-04 6.31423E-05-2.58710E-15
 -1       823 1.38401E-02 1.31389E-03-2.33386E-13
 -1       824 1.39795E-02 1.56547E-03-2.31474E-13
 -1       825 1.68475E-03 1.61273E-04-7.96148E-15
 -1       826 1.82923E-03 8.50007E-05-8.78424E-15
 -1       827 1.38868E-02 1.39822E-03-2.32766E-13
 -1       828 6.43450E-03 4.47417E-04-3.92230E-14
 -1       829 2.02314E-03 3.58337E-04-6.29461E-15
 -1       830 2.07996E-03 3.00610E-04-8.39018E-15
 -1       831 5.03346E-03-3.02990E-04-3.16262E-14
 -1       832 1.81466E-03 2.05561E-04-7.96846E-15
 -1       833 1.24435E-03 2.24834E-04-2.43724E-15
 -1       834 6.13001E-03 5.58791E-04-3.63124E-14
 -1       835 6.48832E-03 3.93135E-04-3.91885E-14
 -1       836 6.47700E-03 3.62344E-04-4.02153E-14
 -1       837 3.01535E-03-4.90613E-04-1.33846E-14
 -1       838 1.39331E-02 1.48185E-03-2.32131E-13
 -1       839 1.16034E-03-1.85335E-04-2.55104E-15
 -1       840 9.80902E-04 3.60895E-05-2.64073E-15
 -1       841 1.04644E-03 1.24711E-04-2.41129E-15
 -1       842 5.29690E-03 9.33337E-04-2.86164E-14
 -1       843 9.97400E-04 9.01257E-05-2.51184E-15
 -1       844 1.41199E-02 1.81812E-03-2.29349E-13
 -1       845 3.58630E-03-7.17282E-04-1.76758E-14
 -1       846 1.40730E-02 1.73379E-03-2.30081E-13
 -1       847 1.63530E-03 1.40449E-04-7.67483E-15
 -1       848 1.11122E-03-1.01227E-04-2.68103E-15
 -1       849 1.40262E-02 1.64963E-03-2.30788E-13
 -1       850 1.53096E-03 2.72287E-04-3.61022E-15
 -1       851 5.42774E-03-1.00806E-04-3.51926E-14
 -1       852 1.77458E-03 3.10630E-04-4.85967E-15
 -1       853 6.39740E-03 3.22898E-04-4.11632E-14
 -1       854 1.91595E-03 2.15480E-05-8.53287E-15
 -1       855 1.37777E-02 1.25929E-03-2.32723E-13
 -1       856 6.07019E-03 6.70307E-04-3.70304E-14
 -1       857 5.79594E-03 1.00838E-04-3.69961E-14
 -1       858 1.05695E-03-4.33879E-05-2.68846E-15
 -1       859 6.06406E-03 1.96848E-04-3.96049E-14
 -1       860 6.59570E-03 3.98674E-04-4.25536E-14
 -1       861 1.61942E-03-1.61786E-04-5.05166E-15
 -1       862 1.92784E-03-1.97415E-04-6.76194E-15
 -1       863 2.25709E-03-2.50129E-04-8.71303E-15
 -1       864 6.43321E-03 5.29872E-04-4.09092E-14
 -1       865 5.61683E-03-7.72807E-05-3.86809E-14
 -1       866 5.95026E-03 1.85796E-05-4.33271E-14
 -1       867 6.26251E-03 9.08105E-05-4.81807E-14
 -1       868 6.55956E-03 1.48576E-04-5.32375E-14
 -1       869 6.84705E-03 1.97891E-04-5.84893E-14
 -1       870 7.12915E-03 2.42351E-04-6.39329E-14
 -1       871 7.40866E-03 2.84121E-04-6.95624E-14
 -1       872 7.68732E-03 3.24560E-04-7.53698E-14
 -1       873 7.96616E-03 3.64541E-04-8.13563E-14
 -1       874 8.24569E-03 4.04636E-04-8.75121E-14
 -1       875 8.52616E-03 4.45208E-04-9.38329E-14
 -1       876 8.80760E-03 4.86466E-04-1.00314E-13
 -1       877 9.08996E-03 5.28512E-04-1.06951E-13
 -1       878 9.37311E-03 5.71367E-04-1.13740E-13
 -1       879 9.65693E-03 6.15001E-04-1.20672E-13
 -1       880 9.94130E-03 6.59351E-04-1.27747E-13
 -1       881 1.02261E-02 7.04336E-04-1.34956E-13
 -1       882 1.05112E-02 7.49869E-04-1.42282E-13
 -1       883 1.07965E-02 7.95863E-04-1.49719E-13
 -1       884 1.10820E-02 8.42236E-04-1.57261E-13
 -1       885 1.13676E-02 8.88917E-04-1.64898E-13
 -1       886 1.16533E-02 9.35840E-04-1.72616E-13
 -1       887 1.19391E-02 9.82954E-04-1.80411E-13
 -1       888 1.22248E-02 1.03021E-03-1.88281E-13
 -1       889 1.25106E-02 1.07758E-03-1.96221E-13
 -1       890 1.27964E-02 1.12502E-03-2.04216E-13
 -1       891 1.30821E-02 1.17252E-03-2.12259E-13
 -1       892 1.33679E-02 1.22006E-03-2.20347E-13
 -1       893 6.87400E-03 5.95352E-04-4.93835E-14
 -1       894 1.36160E-02 1.31486E-03-2.26044E-13
 -1       895 7.40228E-03 6.77456E-04-5.97866E-14
 -1       896 7.67095E-03 7.26661E-04-6.52801E-14
 -1       897 7.94301E-03 7.78914E-04-7.09600E-14
 -1       898 8.21809E-03 8.32914E-04-7.68145E-14
 -1       899 8.49571E-03 8.87678E-04-8.28388E-14
 -1       900 8.77538E-03 9.42509E-04-8.90281E-14
 -1       901 9.05666E-03 9.96949E-04-9.53825E-14
 -1       902 9.33917E-03 1.05073E-03-1.01895E-13
 -1       903 9.62261E-03 1.10372E-03-1.08560E-13
 -1       904 9.90675E-03 1.15590E-03-1.15372E-13
 -1       905 1.01914E-02 1.20729E-03-1.22319E-13
 -1       906 1.04764E-02 1.25796E-03-1.29394E-13
 -1       907 1.07617E-02 1.30800E-03-1.36585E-13
 -1       908 1.10471E-02 1.35750E-03-1.43894E-13
 -1       909 1.13327E-02 1.40656E-03-1.51322E-13
 -1       910 1.16184E-02 1.45525E-03-1.58851E-13
 -1       911 1.19041E-02 1.50365E-03-1.66474E-13
 -1       912 1.21898E-02 1.55183E-03-1.74184E-13
 -1       913 1.24756E-02 1.59983E-03-1.81970E-13
 -1       914 1.27614E-02 1.64770E-03-1.89822E-13
 -1       915 1.30471E-02 1.69547E-03-1.97735E-13
 -1       916 1.33329E-02 1.74318E-03-2.05703E-13
 -1       917 1.36187E-02 1.79084E-03-2.13719E-13
 -1       918 1.39044E-02 1.83847E-03-2.21755E-13
 -1       919 6.59837E-03 4.45527E-04-4.26040E-14
 -1       920 1.41923E-02 1.88726E-03-2.29842E-13
 -1       921 2.19491E-03-1.39357E-04-9.03931E-15
 -1       922 1.65231E-03 1.02493E-04-7.52913E-15
 -1       923 1.84248E-03 2.38386E-04-7.04192E-15
 -1       924 7.13692E-03 6.32951E-04-5.44882E-14
 -1       925 1.01086E-03 2.01104E-06-2.67440E-15
 -1       926 1.63691E-03 1.65762E-04-6.81855E-15
 -1       927 1.38427E-03 2.11315E-04-3.42328E-15
 -1       928 1.32352E-03-9.12951E-05-3.78311E-15
 -1       929 2.54083E-03-3.26790E-04-1.03809E-14
 -1       930 1.38490E-02 1.73472E-03-2.22739E-13
 -1       931 6.56988E-03 3.67572E-04-4.35428E-14
 -1       932 1.17279E-03 9.46282E-05-3.60272E-15
 -1       933 1.36623E-02 1.39847E-03-2.25431E-13
 -1       934 1.35728E-02 1.23967E-03-2.26523E-13
 -1       935 6.61077E-03 5.67318E-04-4.44737E-14
 -1       936 1.56100E-03 1.42178E-04-6.55788E-15
 -1       937 1.37554E-02 1.56633E-03-2.24133E-13
 -1       938 1.16448E-03 6.49632E-05-3.68764E-15
 -1       939 1.94685E-03-6.31075E-05-7.85513E-15
 -1       940 1.69629E-03 5.83968E-05-7.29648E-15
 -1       941 1.64503E-03 2.10822E-04-5.53305E-15
 -1       942 6.32792E-03 2.73006E-04-4.26683E-14
 -1       943 5.98575E-03 1.07068E-04-4.14726E-14
 -1       944 1.37088E-02 1.48240E-03-2.24792E-13
 -1       945 1.38022E-02 1.65058E-03-2.23446E-13
 -1       946 7.79476E-03 6.93139E-04-6.86055E-14
 -1       947 1.22061E-03 1.28885E-04-3.48923E-15
 -1       948 1.35632E-02 1.68710E-03-2.14700E-13
 -1       949 7.03193E-03 5.54994E-04-5.23859E-14
 -1       950 6.28482E-03 1.68686E-04-4.62444E-14
 -1       951 6.56782E-03 2.17191E-04-5.12212E-14
 -1       952 6.84254E-03 2.59835E-04-5.63946E-14
 -1       953 7.11370E-03 3.00073E-04-6.17589E-14
 -1       954 7.38408E-03 3.39512E-04-6.73088E-14
 -1       955 7.65522E-03 3.78970E-04-7.30402E-14
 -1       956 7.92793E-03 4.18840E-04-7.89461E-14
 -1       957 8.20253E-03 4.59343E-04-8.50261E-14
 -1       958 8.47904E-03 5.00591E-04-9.12705E-14
 -1       959 8.75736E-03 5.42631E-04-9.76767E-14
 -1       960 9.03729E-03 5.85454E-04-1.04240E-13
 -1       961 9.31858E-03 6.29027E-04-1.10957E-13
 -1       962 9.60100E-03 6.73285E-04-1.17821E-13
 -1       963 9.88432E-03 7.18159E-04-1.24831E-13
 -1       964 1.01683E-02 7.63569E-04-1.31976E-13
 -1       965 1.04529E-02 8.09436E-04-1.39243E-13
 -1       966 1.07379E-02 8.55687E-04-1.46625E-13
 -1       967 1.10231E-02 9.02254E-04-1.54117E-13
 -1       968 1.13086E-02 9.49075E-04-1.61705E-13
 -1       969 1.15942E-02 9.96098E-04-1.69387E-13
 -1       970 1.18799E-02 1.04328E-03-1.77146E-13
 -1       971 1.21657E-02 1.09058E-03-1.84976E-13
 -1       972 1.24515E-02 1.13798E-03-1.92883E-13
 -1       973 1.27373E-02 1.18544E-03-2.00848E-13
 -1       974 1.30230E-02 1.23295E-03-2.08859E-13
 -1       975 1.33088E-02 1.28049E-03-2.16920E-13
 -1       976 8.06121E-03 7.44425E-04-7.43822E-14
 -1       977 1.94673E-03-1.31776E-04-7.31108E-15
 -1       978 7.53368E-03 6.43854E-04-6.30083E-14
 -1       979 8.33203E-03 7.96873E-04-8.03285E-14
 -1       980 8.60639E-03 8.49823E-04-8.64412E-14
 -1       981 8.88354E-03 9.02788E-04-9.27198E-14
 -1       982 9.16290E-03 9.55441E-04-9.91581E-14
 -1       983 9.44396E-03 1.00759E-03-1.05752E-13
 -1       984 9.72633E-03 1.05915E-03-1.12498E-13
 -1       985 1.00097E-02 1.11009E-03-1.19383E-13
 -1       986 1.02938E-02 1.16045E-03-1.26404E-13
 -1       987 1.05784E-02 1.21027E-03-1.33545E-13
 -1       988 1.08634E-02 1.25963E-03-1.40803E-13
 -1       989 1.11487E-02 1.30859E-03-1.48183E-13
 -1       990 1.14342E-02 1.35722E-03-1.55672E-13
 -1       991 1.17198E-02 1.40559E-03-1.63256E-13
 -1       992 1.20055E-02 1.45375E-03-1.70931E-13
 -1       993 1.22913E-02 1.50174E-03-1.78688E-13
 -1       994 1.25770E-02 1.54961E-03-1.86519E-13
 -1       995 1.28628E-02 1.59739E-03-1.94409E-13
 -1       996 1.31486E-02 1.64510E-03-2.02359E-13
 -1       997 1.33559E-02 1.66611E-03-2.08520E-13
 -1       998 6.74618E-03 4.40438E-04-4.61479E-14
 -1       999 1.25449E-03-2.57270E-05-3.77596E-15
 -1      1000 7.27903E-03 5.97507E-04-5.76004E-14
 -1      1001 1.19347E-03 2.91555E-05-3.74669E-15
 -1      1002 6.72259E-03 5.16126E-04-4.59612E-14
 -1      1003 1.64689E-03-1.06463E-04-5.54086E-15
 -1      1004 1.52234E-03 2.12099E-04-4.41869E-15
 -1      1005 1.52140E-03 1.07967E-04-6.43136E-15
 -1      1006 6.53685E-03 3.31684E-04-4.50999E-14
 -1      1007 1.37557E-03 1.30518E-04-4.73459E-15
 -1      1008 6.75088E-03 4.08250E-04-4.71857E-14
 -1      1009 1.34846E-02 1.48315E-03-2.17479E-13
 -1      1010 1.33990E-03 9.80910E-05-4.85700E-15
 -1      1011 1.70848E-03-8.96133E-06-6.67254E-15
 -1      1012 1.52518E-03 7.62522E-05-6.22064E-15
 -1      1013 1.35314E-02 1.56739E-03-2.16812E-13
 -1      1014 6.29780E-03 2.22433E-04-4.44530E-14
 -1      1015 1.68350E-03-5.83945E-05-6.10253E-15
 -1      1016 1.34380E-02 1.39923E-03-2.18116E-13
 -1      1017 6.56400E-03 2.63319E-04-4.93540E-14
 -1      1018 6.82526E-03 3.00642E-04-5.44550E-14
 -1      1019 7.08590E-03 3.37612E-04-5.97461E-14
 -1      1020 7.34808E-03 3.75308E-04-6.52273E-14
 -1      1021 7.61278E-03 4.14101E-04-7.08876E-14
 -1      1022 7.88043E-03 4.54006E-04-7.67229E-14
 -1      1023 8.15101E-03 4.94966E-04-8.27355E-14
 -1      1024 8.42436E-03 5.36896E-04-8.89122E-14
 -1      1025 8.70020E-03 5.79701E-04-9.52528E-14
 -1      1026 8.97819E-03 6.23287E-04-1.01751E-13
 -1      1027 9.25799E-03 6.67565E-04-1.08403E-13
 -1      1028 9.53927E-03 7.12445E-04-1.15207E-13
 -1      1029 9.82174E-03 7.57844E-04-1.22157E-13
 -1      1030 1.01051E-02 8.03685E-04-1.29246E-13
 -1      1031 1.03893E-02 8.49898E-04-1.36458E-13
 -1      1032 1.06739E-02 8.96418E-04-1.43790E-13
 -1      1033 1.09590E-02 9.43189E-04-1.51234E-13
 -1      1034 1.12443E-02 9.90162E-04-1.58784E-13
 -1      1035 1.15298E-02 1.03730E-03-1.66427E-13
 -1      1036 1.18154E-02 1.08456E-03-1.74156E-13
 -1      1037 1.21012E-02 1.13191E-03-1.81956E-13
 -1      1038 1.23869E-02 1.17934E-03-1.89827E-13
 -1      1039 1.26727E-02 1.22682E-03-1.97767E-13
 -1      1040 1.29586E-02 1.27434E-03-2.05754E-13
 -1      1041 8.43869E-03 7.61025E-04-8.38510E-14
 -1      1042 8.71172E-03 8.11851E-04-9.00552E-14
 -1      1043 8.98784E-03 8.62783E-04-9.64206E-14
 -1      1044 9.26638E-03 9.13571E-04-1.02942E-13
 -1      1045 9.54683E-03 9.64067E-04-1.09618E-13
 -1      1046 9.82873E-03 1.01420E-03-1.16444E-13
 -1      1047 1.01117E-02 1.06393E-03-1.23406E-13
 -1      1048 1.03956E-02 1.11329E-03-1.30497E-13
 -1      1049 1.06801E-02 1.16231E-03-1.37705E-13
 -1      1050 1.09650E-02 1.21102E-03-1.45034E-13
 -1      1051 1.12502E-02 1.25948E-03-1.52483E-13
 -1      1052 1.15357E-02 1.30772E-03-1.60030E-13
 -1      1053 1.18213E-02 1.35580E-03-1.67668E-13
 -1      1054 1.21070E-02 1.40374E-03-1.75395E-13
 -1      1055 1.23928E-02 1.45157E-03-1.83196E-13
 -1      1056 1.26785E-02 1.49933E-03-1.91067E-13
 -1      1057 1.29644E-02 1.54704E-03-1.98994E-13
 -1      1058 7.15539E-03 5.25624E-04-5.54081E-14
 -1      1059 7.90525E-03 6.61304E-04-7.19459E-14
 -1      1060 6.94152E-03 4.80833E-04-5.06976E-14
 -1      1061 7.64702E-03 6.13535E-04-6.62479E-14
 -1      1062 7.39641E-03 5.68084E-04-6.07319E-14
 -1      1063 8.16953E-03 7.10679E-04-7.78160E-14
 -1      1064 6.75191E-03 3.78106E-04-4.88078E-14
 -1      1065 1.33240E-02 1.54642E-03-2.10631E-13
 -1      1066 1.32071E-02 1.33096E-03-2.12359E-13
 -1      1067 1.47928E-03 7.06212E-06-5.30713E-15
 -1      1068 1.31442E-02 1.54674E-03-2.04802E-13
 -1      1069 1.32772E-02 1.46220E-03-2.11293E-13
 -1      1070 6.54605E-03 2.99425E-04-4.72167E-14
 -1      1071 1.32421E-02 1.39658E-03-2.11833E-13
 -1      1072 9.08899E-03 8.21803E-04-1.00134E-13
 -1      1073 6.79090E-03 3.32052E-04-5.22321E-14
 -1      1074 7.03952E-03 3.66079E-04-5.74401E-14
 -1      1075 7.29281E-03 4.02247E-04-6.28385E-14
 -1      1076 7.55069E-03 4.40366E-04-6.84207E-14
 -1      1077 7.81316E-03 4.80372E-04-7.41786E-14
 -1      1078 8.07971E-03 5.21809E-04-8.01124E-14
 -1      1079 8.34990E-03 5.64446E-04-8.62159E-14
 -1      1080 8.62327E-03 6.08059E-04-9.24803E-14
 -1      1081 8.89934E-03 6.52467E-04-9.89071E-14
 -1      1082 9.17763E-03 6.97484E-04-1.05488E-13
 -1      1083 9.45777E-03 7.43062E-04-1.12221E-13
 -1      1084 9.73938E-03 7.89038E-04-1.19105E-13
 -1      1085 1.00221E-02 8.35363E-04-1.26130E-13
 -1      1086 1.03058E-02 8.81969E-04-1.33284E-13
 -1      1087 1.05901E-02 9.28799E-04-1.40557E-13
 -1      1088 1.08749E-02 9.75809E-04-1.47947E-13
 -1      1089 1.11600E-02 1.02296E-03-1.55447E-13
 -1      1090 1.14455E-02 1.07023E-03-1.63048E-13
 -1      1091 1.17310E-02 1.11759E-03-1.70737E-13
 -1      1092 1.20167E-02 1.16501E-03-1.78505E-13
 -1      1093 1.23025E-02 1.21248E-03-1.86343E-13
 -1      1094 1.25883E-02 1.25999E-03-1.94247E-13
 -1      1095 1.28741E-02 1.30753E-03-2.02211E-13
 -1      1096 8.81276E-03 7.72855E-04-9.36802E-14
 -1      1097 8.53951E-03 7.24145E-04-8.73865E-14
 -1      1098 9.36763E-03 8.70819E-04-1.06740E-13
 -1      1099 9.64812E-03 9.19783E-04-1.13497E-13
 -1      1100 9.93007E-03 9.68579E-04-1.20401E-13
 -1      1101 1.02131E-02 1.01721E-03-1.27438E-13
 -1      1102 1.04970E-02 1.06567E-03-1.34599E-13
 -1      1103 1.07815E-02 1.11397E-03-1.41882E-13
 -1      1104 1.10664E-02 1.16211E-03-1.49283E-13
 -1      1105 1.13517E-02 1.21013E-03-1.56791E-13
 -1      1106 1.16372E-02 1.25804E-03-1.64396E-13
 -1      1107 1.19228E-02 1.30586E-03-1.72087E-13
 -1      1108 1.22086E-02 1.35362E-03-1.79865E-13
 -1      1109 1.24943E-02 1.40133E-03-1.87708E-13
 -1      1110 1.27801E-02 1.44900E-03-1.95616E-13
 -1      1111 7.25163E-03 4.98522E-04-5.84504E-14
 -1      1112 7.02968E-03 4.54936E-04-5.36298E-14
 -1      1113 7.49418E-03 5.39309E-04-6.38834E-14
 -1      1114 1.30581E-02 1.35205E-03-2.07015E-13
 -1      1115 7.74610E-03 5.83004E-04-6.95020E-14
 -1      1116 8.00515E-03 6.28810E-04-7.52957E-14
 -1      1117 1.29600E-02 1.44870E-03-2.01397E-13
 -1      1118 1.30932E-02 1.41766E-03-2.06483E-13
 -1      1119 8.27001E-03 6.75983E-04-8.12563E-14
 -1      1120 7.57902E-03 5.08123E-04-6.70487E-14
 -1      1121 9.18793E-03 7.79431E-04-1.03857E-13
 -1      1122 6.99093E-03 4.03900E-04-5.45174E-14
 -1      1123 7.23021E-03 4.38759E-04-5.98081E-14
 -1      1124 7.99458E-03 5.59915E-04-7.67849E-14
 -1      1125 8.26067E-03 6.03951E-04-8.27909E-14
 -1      1126 8.53090E-03 6.49094E-04-8.89619E-14
 -1      1127 8.80456E-03 6.95008E-04-9.52962E-14
 -1      1128 9.64032E-03 8.35413E-04-1.15231E-13
 -1      1129 9.92228E-03 8.82673E-04-1.22172E-13
 -1      1130 1.02053E-02 9.30047E-04-1.29245E-13
 -1      1131 1.04892E-02 9.77495E-04-1.36446E-13
 -1      1132 1.07737E-02 1.02499E-03-1.43766E-13
 -1      1133 1.10587E-02 1.07252E-03-1.51196E-13
 -1      1134 1.13439E-02 1.12007E-03-1.58738E-13
 -1      1135 1.16294E-02 1.16763E-03-1.66375E-13
 -1      1136 1.19150E-02 1.21520E-03-1.74095E-13
 -1      1137 1.22008E-02 1.26278E-03-1.81892E-13
 -1      1138 1.24865E-02 1.31037E-03-1.89754E-13
 -1      1139 1.29249E-02 1.38311E-03-2.01937E-13
 -1      1140 1.27724E-02 1.35795E-03-1.97681E-13
 -1      1141 0.00000E+00 0.00000E+00 0.00000E+00
 -1      1142 0.00000E+00 0.00000E+00 0.00000E+00
 -1      1143 0.00000E+00 0.00000E+00 0.00000E+00
 -1      1144 0.00000E+00 0.00000E+00 0.00000E+00
 -1      1145 0.00000E+00 0.00000E+00 0.00000E+00
 -1      1146 0.00000E+00 0.00000E+00 0.00000E+00
 -1      1147 0.00000E+00 0.00000E+00 0.00000E+00
 -1      1148 0.00000E+00 0.00000E+00 0.00000E+00
 -1      1149 0.00000E+00 0.00000E+00 0.00000E+00
 -1      1150 0.00000E+00 0.00000E+00 0.00000E+00
 -1      1151 0.00000E+00 0.00000E+00 0.00000E+00
 -1      1152 0.00000E+00 0.00000E+00 0.00000E+00
 -1      1153 0.00000E+00 0.00000E+00 0.00000E+00
 -1      1154 0.00000E+00 0.00000E+00 0.00000E+00
 -1      1155 0.00000E+00 0.00000E+00 0.00000E+00
 -1      1156 0.00000E+00 0.00000E+00 0.00000E+00
 -1      1157 0.00000E+00 0.00000E+00 0.00000E+00
 -1      1158 2.19353E-04-1.45197E-04 2.35543E-17
 -1      1159 5.83392E-04-3.20349E-04-1.13597E-16
 -1      1160 8.98467E-04-4.31109E-04-5.18696E-16
 -1      1161 1.20880E-03-5.11252E-04-1.23485E-15
 -1      1162 1.52052E-03-5.79012E-04-2.24685E-15
 -1      1163 1.83503E-03-6.44364E-04-3.54918E-15
 -1      1164 2.15093E-03-7.13242E-04-5.13912E-15
 -1      1165 2.46449E-03-7.88291E-04-7.01351E-15
 -1      1166 2.77041E-03-8.68182E-04-9.17322E-15
 -1      1167 3.06324E-03-9.46724E-04-1.16193E-14
 -1      1168 3.33950E-03-1.01304E-03-1.43507E-14
 -1      1169 3.59992E-03-1.05384E-03-1.73644E-14
 -1      1170 3.85041E-03-1.05768E-03-2.06551E-14
 -1      1171 4.10071E-03-1.01959E-03-2.42234E-14
 -1      1172 4.36103E-03-9.43377E-04-2.80636E-14
 -1      1173 4.63837E-03-8.40175E-04-3.21657E-14
 -1      1174 4.93462E-03-7.24211E-04-3.65142E-14
 -1      1175 5.24706E-03-6.08314E-04-4.11002E-14
 -1      1176 5.57036E-03-5.01232E-04-4.59093E-14
 -1      1177 5.89868E-03-4.07167E-04-5.09312E-14
 -1      1178 6.22715E-03-3.26751E-04-5.61602E-14
 -1      1179 6.55240E-03-2.58464E-04-6.15935E-14
 -1      1180 6.87257E-03-1.99855E-04-6.72279E-14
 -1      1181 7.18693E-03-1.48339E-04-7.30553E-14
 -1      1182 7.49557E-03-1.01621E-04-7.90706E-14
 -1      1183 7.79902E-03-5.78596E-05-8.52637E-14
 -1      1184 8.09803E-03-1.56796E-05-9.16232E-14
 -1      1185 8.39339E-03 2.58839E-05-9.81425E-14
 -1      1186 8.68587E-03 6.74667E-05-1.04829E-13
 -1      1187 8.97614E-03 1.09455E-04-1.11671E-13
 -1      1188 9.26476E-03 1.52057E-04-1.18659E-13
 -1      1189 9.55217E-03 1.95356E-04-1.25789E-13
 -1      1190 9.83876E-03 2.39357E-04-1.33048E-13
 -1      1191 1.01248E-02 2.84016E-04-1.40427E-13
 -1      1192 1.04104E-02 3.29263E-04-1.47924E-13
 -1      1193 1.06959E-02 3.75017E-04-1.55528E-13
 -1      1194 1.09812E-02 4.21197E-04-1.63228E-13
 -1      1195 1.12665E-02 4.67725E-04-1.71009E-13
 -1      1196 1.15518E-02 5.14531E-04-1.78856E-13
 -1      1197 1.18371E-02 5.61556E-04-1.86771E-13
 -1      1198 1.21224E-02 6.08749E-04-1.94762E-13
 -1      1199 1.24079E-02 6.56067E-04-2.02819E-13
 -1      1200 1.26933E-02 7.03476E-04-2.10932E-13
 -1      1201 1.29789E-02 7.50948E-04-2.19095E-13
 -1      1202 1.32644E-02 7.98461E-04-2.27301E-13
 -1      1203 1.35501E-02 8.45997E-04-2.35536E-13
 -1      1204 1.38357E-02 8.93540E-04-2.43805E-13
 -1      1205 1.41214E-02 9.41077E-04-2.52094E-13
 -1      1206 1.44071E-02 9.88600E-04-2.60395E-13
 -1      1207 1.46857E-02 1.03492E-03-2.68517E-13
 -1      1208 2.36925E-04 1.54920E-04 7.24518E-17
 -1      1209 5.91895E-04 3.14984E-04 6.32090E-17
 -1      1210 9.16412E-04 4.16937E-04-1.65002E-16
 -1      1211 1.24271E-03 4.92138E-04-6.43447E-16
 -1      1212 1.57785E-03 5.58902E-04-1.37255E-15
 -1      1213 1.92556E-03 6.30071E-04-2.35642E-15
 -1      1214 2.28615E-03 7.16898E-04-3.59816E-15
 -1      1215 2.65555E-03 8.29193E-04-5.09704E-15
 -1      1216 3.02420E-03 9.72332E-04-6.86147E-15
 -1      1217 3.37763E-03 1.14158E-03-8.89921E-15
 -1      1218 3.70072E-03 1.31639E-03-1.12238E-14
 -1      1219 3.98664E-03 1.46112E-03-1.38428E-14
 -1      1220 4.24514E-03 1.53801E-03-1.67561E-14
 -1      1221 4.49499E-03 1.52952E-03-1.98823E-14
 -1      1222 4.76839E-03 1.45040E-03-2.32904E-14
 -1      1223 5.08709E-03 1.33128E-03-2.70746E-14
 -1      1224 5.44140E-03 1.21251E-03-3.11285E-14
 -1      1225 5.81722E-03 1.12021E-03-3.54311E-14
 -1      1226 6.19894E-03 1.06405E-03-3.99668E-14
 -1      1227 6.57507E-03 1.04226E-03-4.47274E-14
 -1      1228 6.93936E-03 1.04798E-03-4.97109E-14
 -1      1229 7.28974E-03 1.07352E-03-5.49073E-14
 -1      1230 7.62661E-03 1.11229E-03-6.03019E-14
 -1      1231 7.95159E-03 1.15934E-03-6.58820E-14
 -1      1232 8.26672E-03 1.21117E-03-7.16481E-14
 -1      1233 8.57398E-03 1.26545E-03-7.76013E-14
 -1      1234 8.87512E-03 1.32067E-03-8.37301E-14
 -1      1235 9.17163E-03 1.37593E-03-9.00251E-14
 -1      1236 9.46467E-03 1.43069E-03-9.64764E-14
 -1      1237 9.75518E-03 1.48468E-03-1.03070E-13
 -1      1238 1.00439E-02 1.53779E-03-1.09817E-13
 -1      1239 1.03313E-02 1.59003E-03-1.16719E-13
 -1      1240 1.06179E-02 1.64144E-03-1.23749E-13
 -1      1241 1.09038E-02 1.69211E-03-1.30900E-13
 -1      1242 1.11895E-02 1.74214E-03-1.38173E-13
 -1      1243 1.14749E-02 1.79163E-03-1.45549E-13
 -1      1244 1.17602E-02 1.84067E-03-1.53018E-13
 -1      1245 1.20454E-02 1.88934E-03-1.60599E-13
 -1      1246 1.23307E-02 1.93774E-03-1.68262E-13
 -1      1247 1.26160E-02 1.98590E-03-1.76000E-13
 -1      1248 1.29014E-02 2.03390E-03-1.83815E-13
 -1      1249 1.31868E-02 2.08177E-03-1.91694E-13
 -1      1250 1.34723E-02 2.12954E-03-1.99625E-13
 -1      1251 1.37578E-02 2.17725E-03-2.07595E-13
 -1      1252 1.40433E-02 2.22492E-03-2.15605E-13
 -1      1253 1.43290E-02 2.27257E-03-2.23658E-13
 -1      1254 1.46146E-02 2.32021E-03-2.31734E-13
 -1      1255 1.49003E-02 2.36785E-03-2.39833E-13
 -1      1256 1.51860E-02 2.41551E-03-2.47910E-13
 -1      1257 1.54717E-02 2.46318E-03-2.55986E-13
 -1      1258 1.55911E-02 2.44488E-03-2.60439E-13
 -1      1259 1.55442E-02 2.36060E-03-2.61223E-13
 -1      1260 1.54973E-02 2.27630E-03-2.62037E-13
 -1      1261 1.54504E-02 2.19199E-03-2.62844E-13
 -1      1262 1.54035E-02 2.10765E-03-2.63633E-13
 -1      1263 1.53570E-02 2.02401E-03-2.64432E-13
 -1      1264 1.53105E-02 1.94034E-03-2.65234E-13
 -1      1265 1.52636E-02 1.85594E-03-2.66004E-13
 -1      1266 1.52168E-02 1.77154E-03-2.66747E-13
 -1      1267 1.51700E-02 1.68713E-03-2.67476E-13
 -1      1268 1.51233E-02 1.60274E-03-2.68191E-13
 -1      1269 1.50770E-02 1.51907E-03-2.68901E-13
 -1      1270 1.50307E-02 1.43542E-03-2.69606E-13
 -1      1271 1.49840E-02 1.35109E-03-2.70282E-13
 -1      1272 1.49373E-02 1.26677E-03-2.70945E-13
 -1      1273 1.48907E-02 1.18248E-03-2.71587E-13
 -1      1274 1.48444E-02 1.09891E-03-2.72191E-13
 -1      1275 6.33056E-03 3.83795E-04-2.82940E-14
 -1      1276 6.24141E-03 5.29986E-04-2.77592E-14
 -1      1277 6.05382E-03 6.78380E-04-2.68949E-14
 -1      1278 5.77791E-03 8.30030E-04-2.57341E-14
 -1      1279 5.43077E-03 9.75369E-04-2.43307E-14
 -1      1280 5.02907E-03 1.09833E-03-2.27461E-14
 -1      1281 4.60147E-03 1.17885E-03-2.11133E-14
 -1      1282 4.15761E-03 1.20094E-03-1.94927E-14
 -1      1283 3.69787E-03 1.15934E-03-1.79099E-14
 -1      1284 3.25269E-03 1.06002E-03-1.64894E-14
 -1      1285 2.82877E-03 9.16312E-04-1.52520E-14
 -1      1286 2.43452E-03 7.42056E-04-1.42160E-14
 -1      1287 2.11316E-03 5.61451E-04-1.34703E-14
 -1      1288 1.90988E-03 4.00873E-04-1.30717E-14
 -1      1289 1.81457E-03 2.52411E-04-1.29619E-14
 -1      1290 1.83067E-03 1.04499E-04-1.31417E-14
 -1      1291 1.96835E-03-4.76143E-05-1.36407E-14
 -1      1292 2.21608E-03-2.01453E-04-1.44517E-14
 -1      1293 2.54479E-03-3.47365E-04-1.55229E-14
 -1      1294 2.92172E-03-4.72880E-04-1.67956E-14
 -1      1295 3.34711E-03-5.67269E-04-1.83000E-14
 -1      1296 3.80085E-03-6.15224E-04-1.99668E-14
 -1      1297 4.24958E-03-6.02936E-04-2.16468E-14
 -1      1298 4.71897E-03-5.27985E-04-2.34002E-14
 -1      1299 5.16762E-03-4.05372E-04-2.50227E-14
 -1      1300 5.56596E-03-2.55342E-04-2.63842E-14
 -1      1301 5.90666E-03-9.10436E-05-2.74666E-14
 -1      1302 6.15961E-03 7.18364E-05-2.81694E-14
 -1      1303 6.30554E-03 2.31195E-04-2.84507E-14
 -1      1304 1.76693E-04-1.04700E-04-1.87160E-17
 -1      1305 1.20103E-04-4.69039E-05-6.52012E-17
 -1      1306 1.25864E-04-5.93654E-05-5.21230E-17
 -1      1307 1.13654E-04-3.03985E-05-8.64380E-17
 -1      1308 1.16724E-04-3.77184E-05-8.02039E-17
 -1      1309 2.41257E-04-8.66489E-05-1.89126E-16
 -1      1310 1.09199E-04-1.88366E-05-9.71445E-17
 -1      1311 1.11520E-04-2.41626E-05-9.41494E-17
 -1      1312 2.28713E-04-5.68692E-05-2.26083E-16
 -1      1313 1.05318E-04-1.02489E-05-1.03026E-16
 -1      1314 1.07322E-04-1.42610E-05-1.01617E-16
 -1      1315 2.19239E-04-3.53157E-05-2.46019E-16
 -1      1316 1.01905E-04-4.07899E-06-1.05791E-16
 -1      1317 1.03636E-04-6.96517E-06-1.05235E-16
 -1      1318 2.11032E-04-1.93069E-05-2.56644E-16
 -1      1319 9.89691E-05 1.30702E-07-1.06848E-16
 -1      1320 1.00401E-04-1.84489E-06-1.06821E-16
 -1      1321 2.03740E-04-7.63512E-06-2.61537E-16
 -1      1322 9.68652E-05 2.55878E-06-1.06347E-16
 -1      1323 9.78230E-05 1.37809E-06-1.06550E-16
 -1      1324 1.97677E-04 2.80776E-07-2.62377E-16
 -1      1325 9.59041E-05 3.71245E-06-1.04842E-16
 -1      1326 9.62356E-05 3.05074E-06-1.05317E-16
 -1      1327 1.93566E-04 5.02023E-06-2.60249E-16
 -1      1328 9.63247E-05 4.35046E-06-1.01996E-16
 -1      1329 9.59246E-05 3.81807E-06-1.02877E-16
 -1      1330 1.92077E-04 7.69278E-06-2.55438E-16
 -1      1331 9.82146E-05 5.41971E-06-9.77137E-17
 -1      1332 9.70595E-05 4.55261E-06-9.90690E-17
 -1      1333 1.93684E-04 9.85698E-06-2.47564E-16
 -1      1334 1.01419E-04 7.87266E-06-9.12085E-17
 -1      1335 9.96063E-05 6.23410E-06-9.32549E-17
 -1      1336 1.98442E-04 1.33257E-05-2.35746E-16
 -1      1337 1.05838E-04 1.27674E-05-8.21554E-17
 -1      1338 1.03408E-04 9.83467E-06-8.53945E-17
 -1      1339 2.06094E-04 1.99982E-05-2.19117E-16
 -1      1340 1.11207E-04 2.10855E-05-6.86571E-17
 -1      1341 1.08257E-04 1.63879E-05-7.38748E-17
 -1      1342 2.16257E-04 3.18466E-05-1.95793E-16
 -1      1343 1.17654E-04 3.42519E-05-4.84096E-17
 -1      1344 1.13981E-04 2.69900E-05-5.70968E-17
 -1      1345 2.28522E-04 5.09182E-05-1.62170E-16
 -1      1346 1.26973E-04 5.59703E-05-1.68051E-17
 -1      1347 1.21270E-04 4.37693E-05-3.20246E-17
 -1      1348 2.43805E-04 8.06324E-05-1.13706E-16
 -1      1349 1.68072E-04 1.02752E-04 3.15096E-17
 -1      1350 1.47370E-04 7.58098E-05 2.16840E-18
 -1      1351 2.79522E-04 1.28751E-04-5.58771E-17
 -1      1352 3.60094E-04 2.02435E-04 2.47876E-17
 -1      1353 4.49738E-04-2.44620E-04-1.37761E-16
 -1      1354 6.16822E-04-3.12201E-04-2.74967E-16
 -1      1355 7.79493E-04-3.66964E-04-4.93854E-16
 -1      1356 9.39574E-04-4.12479E-04-7.87551E-16
 -1      1357 6.61364E-04-2.99086E-04-4.58726E-16
 -1      1358 1.09790E-03-4.52393E-04-1.15276E-15
 -1      1359 1.25530E-03-4.88097E-04-1.59103E-15
 -1      1360 9.85438E-04-3.91834E-04-1.06325E-15
 -1      1361 1.41243E-03-5.21828E-04-2.10129E-15
 -1      1362 1.56957E-03-5.54265E-04-2.68409E-15
 -1      1363 1.30290E-03-4.64222E-04-1.95244E-15
 -1      1364 1.72690E-03-5.86806E-04-3.33758E-15
 -1      1365 1.88434E-03-6.19879E-04-4.06233E-15
 -1      1366 1.61828E-03-5.29471E-04-3.12445E-15
 -1      1367 2.04176E-03-6.54331E-04-4.85782E-15
 -1      1368 2.19880E-03-6.90322E-04-5.72394E-15
 -1      1369 1.93330E-03-5.95793E-04-4.57738E-15
 -1      1370 2.35508E-03-7.28168E-04-6.66009E-15
 -1      1371 2.51010E-03-7.67604E-04-7.66740E-15
 -1      1372 2.24748E-03-6.68063E-04-6.30932E-15
 -1      1373 2.66336E-03-8.08277E-04-8.74539E-15
 -1      1374 2.81435E-03-8.49368E-04-9.89381E-15
 -1      1375 2.55872E-03-7.47526E-04-8.32045E-15
 -1      1376 2.96264E-03-8.89743E-04-1.11136E-14
 -1      1377 3.10791E-03-9.28036E-04-1.24041E-14
 -1      1378 2.86404E-03-8.30657E-04-1.06121E-14
 -1      1379 3.25000E-03-9.62460E-04-1.37646E-14
 -1      1380 3.38901E-03-9.91363E-04-1.51966E-14
 -1      1381 3.16077E-03-9.08440E-04-1.31849E-14
 -1      1382 3.52523E-03-1.01281E-03-1.66980E-14
 -1      1383 3.65925E-03-1.02537E-03-1.82699E-14
 -1      1384 3.44788E-03-9.67407E-04-1.60383E-14
 -1      1385 3.79181E-03-1.02772E-03-1.99116E-14
 -1      1386 3.92389E-03-1.01923E-03-2.16223E-14
 -1      1387 3.72719E-03-9.93264E-04-1.91722E-14
 -1      1388 4.05643E-03-9.99803E-04-2.34030E-14
 -1      1389 4.19045E-03-9.69909E-04-2.52513E-14
 -1      1390 4.00344E-03-9.76295E-04-2.25866E-14
 -1      1391 4.32677E-03-9.30731E-04-2.71673E-14
 -1      1392 4.46608E-03-8.83665E-04-2.91503E-14
 -1      1393 4.28279E-03-9.15740E-04-2.62760E-14
 -1      1394 4.60878E-03-8.30674E-04-3.11972E-14
 -1      1395 4.75507E-03-7.73539E-04-3.33066E-14
 -1      1396 4.57045E-03-8.20334E-04-3.02328E-14
 -1      1397 4.90488E-03-7.14256E-04-3.54772E-14
 -1      1398 5.05795E-03-6.54433E-04-3.77076E-14
 -1      1399 4.86887E-03-7.04683E-04-3.44448E-14
 -1      1400 5.21386E-03-5.95534E-04-3.99960E-14
 -1      1401 5.37210E-03-5.38683E-04-4.23418E-14
 -1      1402 5.17748E-03-5.83885E-04-3.88978E-14
 -1      1403 5.53212E-03-4.84626E-04-4.47429E-14
 -1      1404 5.69335E-03-4.33946E-04-4.71966E-14
 -1      1405 5.49355E-03-4.69436E-04-4.35808E-14
 -1      1406 5.85526E-03-3.86779E-04-4.97039E-14
 -1      1407 6.01736E-03-3.43284E-04-5.22635E-14
 -1      1408 5.81358E-03-3.67760E-04-4.84818E-14
 -1      1409 6.17925E-03-3.03217E-04-5.48733E-14
 -1      1410 6.34059E-03-2.66469E-04-5.75351E-14
 -1      1411 6.13432E-03-2.80820E-04-5.35924E-14
 -1      1412 6.50111E-03-2.32630E-04-6.02477E-14
 -1      1413 6.66062E-03-2.01463E-04-6.30094E-14
 -1      1414 6.45327E-03-2.07636E-04-5.89063E-14
 -1      1415 6.81899E-03-1.72537E-04-6.58226E-14
 -1      1416 6.97613E-03-1.45576E-04-6.86841E-14
 -1      1417 6.76883E-03-1.45771E-04-6.44231E-14
 -1      1418 7.13202E-03-1.20209E-04-7.15922E-14
 -1      1419 7.28666E-03-9.61710E-05-7.45474E-14
 -1      1420 7.08020E-03-9.23913E-05-7.01354E-14
 -1      1421 7.44007E-03-7.31767E-05-7.75488E-14
 -1      1422 7.59232E-03-5.09998E-05-8.05958E-14
 -1      1423 7.38719E-03-4.48647E-05-7.60351E-14
 -1      1424 7.74346E-03-2.94382E-05-8.36862E-14
 -1      1425 7.89357E-03-8.31162E-06-8.68182E-14
 -1      1426 7.69000E-03-1.02456E-06-8.21156E-14
 -1      1427 8.04273E-03 1.25120E-05-8.99924E-14
 -1      1428 8.19103E-03 3.31683E-05-9.32066E-14
 -1      1429 7.98906E-03 4.07745E-05-8.83679E-14
 -1      1430 8.33856E-03 5.37359E-05-9.64620E-14
 -1      1431 8.48538E-03 7.43118E-05-9.97574E-14
 -1      1432 8.28492E-03 8.17025E-05-9.47867E-14
 -1      1433 8.63158E-03 9.49363E-05-1.03092E-13
 -1      1434 8.77723E-03 1.15675E-04-1.06470E-13
 -1      1435 8.57815E-03 1.22540E-04-1.01367E-13
 -1      1436 8.92240E-03 1.36543E-04-1.09886E-13
 -1      1437 9.06715E-03 1.57582E-04-1.13336E-13
 -1      1438 8.86926E-03 1.63768E-04-1.08106E-13
 -1      1439 9.21155E-03 1.78790E-04-1.16826E-13
 -1      1440 9.35562E-03 2.00192E-04-1.20350E-13
 -1      1441 9.15873E-03 2.05652E-04-1.14998E-13
 -1      1442 9.49944E-03 2.21775E-04-1.23910E-13
 -1      1443 9.64303E-03 2.43552E-04-1.27502E-13
 -1      1444 9.44695E-03 2.48309E-04-1.22036E-13
 -1      1445 9.78643E-03 2.65507E-04-1.31125E-13
 -1      1446 9.92968E-03 2.87643E-04-1.34780E-13
 -1      1447 9.73425E-03 2.91757E-04-1.29208E-13
 -1      1448 1.00728E-02 3.09943E-04-1.38464E-13
 -1      1449 1.02158E-02 3.32404E-04-1.42177E-13
 -1      1450 1.00209E-02 3.35953E-04-1.36505E-13
 -1      1451 1.03587E-02 3.55009E-04-1.45920E-13
 -1      1452 1.05016E-02 3.77752E-04-1.49690E-13
 -1      1453 1.03071E-02 3.80823E-04-1.43922E-13
 -1      1454 1.06444E-02 4.00619E-04-1.53484E-13
 -1      1455 1.07872E-02 4.23602E-04-1.57304E-13
 -1      1456 1.05929E-02 4.26276E-04-1.51449E-13
 -1      1457 1.09299E-02 4.46687E-04-1.61147E-13
 -1      1458 1.10726E-02 4.69867E-04-1.65014E-13
 -1      1459 1.08786E-02 4.72220E-04-1.59075E-13
 -1      1460 1.12153E-02 4.93130E-04-1.68898E-13
 -1      1461 1.13580E-02 5.16469E-04-1.72801E-13
 -1      1462 1.11641E-02 5.18568E-04-1.66793E-13
 -1      1463 1.15007E-02 5.39873E-04-1.76721E-13
 -1      1464 1.16434E-02 5.63337E-04-1.80655E-13
 -1      1465 1.14496E-02 5.65240E-04-1.74589E-13
 -1      1466 1.17861E-02 5.86852E-04-1.84610E-13
 -1      1467 1.19288E-02 6.10413E-04-1.88585E-13
 -1      1468 1.17351E-02 6.12166E-04-1.82455E-13
 -1      1469 1.20715E-02 6.34012E-04-1.92573E-13
 -1      1470 1.22143E-02 6.57646E-04-1.96579E-13
 -1      1471 1.20206E-02 6.59288E-04-1.90388E-13
 -1      1472 1.23570E-02 6.81308E-04-2.00602E-13
 -1      1473 1.24997E-02 7.04996E-04-2.04641E-13
 -1      1474 1.23061E-02 7.06559E-04-1.98392E-13
 -1      1475 1.26425E-02 7.28704E-04-2.08692E-13
 -1      1476 1.27853E-02 7.52429E-04-2.12755E-13
 -1      1477 1.25916E-02 7.53937E-04-2.06457E-13
 -1      1478 1.29280E-02 7.76169E-04-2.16831E-13
 -1      1479 1.30708E-02 7.99919E-04-2.20918E-13
 -1      1480 1.28772E-02 8.01392E-04-2.14575E-13
 -1      1481 1.32136E-02 8.23679E-04-2.25016E-13
 -1      1482 1.33564E-02 8.47445E-04-2.29123E-13
 -1      1483 1.31628E-02 8.48898E-04-2.22739E-13
 -1      1484 1.34992E-02 8.71216E-04-2.33239E-13
 -1      1485 1.36421E-02 8.94988E-04-2.37358E-13
 -1      1486 1.34484E-02 8.96434E-04-2.30944E-13
 -1      1487 1.37849E-02 9.18762E-04-2.41487E-13
 -1      1488 1.39277E-02 9.42535E-04-2.45626E-13
 -1      1489 1.37340E-02 9.43983E-04-2.39179E-13
 -1      1490 1.40706E-02 9.66305E-04-2.49769E-13
 -1      1491 1.42134E-02 9.90072E-04-2.53912E-13
 -1      1492 1.40197E-02 9.91531E-04-2.47444E-13
 -1      1493 1.43563E-02 1.01384E-03-2.58063E-13
 -1      1494 1.44991E-02 1.03759E-03-2.62219E-13
 -1      1495 1.43054E-02 1.03907E-03-2.55729E-13
 -1      1496 1.47086E-02 1.07635E-03-2.68226E-13
 -1      1497 1.46578E-02 1.10159E-03-2.65882E-13
 -1      1498 7.03432E-04 3.31427E-04-9.97602E-17
 -1      1499 5.34337E-04 2.73570E-04-6.93889E-18
 -1      1500 4.86185E-04 2.32846E-04-6.67597E-17
 -1      1501 1.03493E-03 4.17520E-04-4.69107E-16
 -1      1502 8.69740E-04 3.77589E-04-2.53825E-16
 -1      1503 8.23544E-04 3.37658E-04-3.29367E-16
 -1      1504 1.36677E-03 4.86124E-04-1.08313E-15
 -1      1505 1.20020E-03 4.52952E-04-7.44969E-16
 -1      1506 1.15569E-03 4.13608E-04-8.33697E-16
 -1      1507 1.70561E-03 5.52171E-04-1.94635E-15
 -1      1508 1.53497E-03 5.18746E-04-1.48309E-15
 -1      1509 1.48922E-03 4.78835E-04-1.58173E-15
 -1      1510 2.05427E-03 6.27702E-04-3.06374E-15
 -1      1511 1.87860E-03 5.88142E-04-2.47283E-15
 -1      1512 1.82884E-03 5.46757E-04-2.57785E-15
 -1      1513 2.41193E-03 7.23877E-04-4.43650E-15
 -1      1514 2.23212E-03 6.72762E-04-3.71804E-15
 -1      1515 2.17637E-03 6.29315E-04-3.82666E-15
 -1      1516 2.77380E-03 8.49641E-04-6.06825E-15
 -1      1517 2.59280E-03 7.82998E-04-5.21985E-15
 -1      1518 2.53054E-03 7.37407E-04-5.33070E-15
 -1      1519 3.13100E-03 1.00730E-03-7.96791E-15
 -1      1520 2.95373E-03 9.25152E-04-6.98415E-15
 -1      1521 2.88683E-03 8.78162E-04-7.09566E-15
 -1      1522 3.47227E-03 1.18579E-03-1.01442E-14
 -1      1523 3.30442E-03 1.09560E-03-9.02091E-15
 -1      1524 3.23767E-03 1.04908E-03-9.12935E-15
 -1      1525 3.78866E-03 1.35628E-03-1.26102E-14
 -1      1526 3.63392E-03 1.27448E-03-1.13407E-14
 -1      1527 3.57442E-03 1.23119E-03-1.14448E-14
 -1      1528 4.08026E-03 1.47774E-03-1.53703E-14
 -1      1529 3.93702E-03 1.42534E-03-1.39525E-14
 -1      1530 3.89198E-03 1.38762E-03-1.40509E-14
 -1      1531 4.35975E-03 1.51632E-03-1.84281E-14
 -1      1532 4.22018E-03 1.50803E-03-1.68616E-14
 -1      1533 4.19397E-03 1.47600E-03-1.69537E-14
 -1      1534 4.63259E-03 1.47107E-03-2.16088E-14
 -1      1535 4.49409E-03 1.50231E-03-1.99847E-14
 -1      1536 4.48608E-03 1.47334E-03-2.00733E-14
 -1      1537 4.94301E-03 1.36362E-03-2.52445E-14
 -1      1538 4.78421E-03 1.42239E-03-2.33903E-14
 -1      1539 4.79020E-03 1.39317E-03-2.34764E-14
 -1      1540 5.28153E-03 1.23642E-03-2.91606E-14
 -1      1541 5.10898E-03 1.29998E-03-2.71684E-14
 -1      1542 5.12238E-03 1.26823E-03-2.72517E-14
 -1      1543 5.64150E-03 1.12527E-03-3.33374E-14
 -1      1544 5.45954E-03 1.17745E-03-3.12180E-14
 -1      1545 5.47310E-03 1.14265E-03-3.12972E-14
 -1      1546 6.01149E-03 1.04856E-03-3.77537E-14
 -1      1547 5.82601E-03 1.08230E-03-3.55162E-14
 -1      1548 5.83431E-03 1.04514E-03-3.55919E-14
 -1      1549 6.38095E-03 1.00939E-03-4.23987E-14
 -1      1550 6.19687E-03 1.02459E-03-4.00479E-14
 -1      1551 6.19723E-03 9.86088E-04-4.01200E-14
 -1      1552 6.74284E-03 1.00237E-03-4.72665E-14
 -1      1553 6.56318E-03 1.00238E-03-4.48056E-14
 -1      1554 6.55523E-03 9.63416E-04-4.48734E-14
 -1      1555 7.09368E-03 1.01948E-03-5.23493E-14
 -1      1556 6.91977E-03 1.00841E-03-4.97826E-14
 -1      1557 6.90453E-03 9.69603E-04-4.98453E-14
 -1      1558 7.43263E-03 1.05316E-03-5.76402E-14
 -1      1559 7.26464E-03 1.03466E-03-5.49686E-14
 -1      1560 7.24364E-03 9.96354E-04-5.50247E-14
 -1      1561 7.76042E-03 1.09746E-03-6.31201E-14
 -1      1562 7.59785E-03 1.07428E-03-6.03568E-14
 -1      1563 7.57263E-03 1.03665E-03-6.04033E-14
 -1      1564 8.07850E-03 1.14806E-03-6.87874E-14
 -1      1565 7.92057E-03 1.12217E-03-6.59307E-14
 -1      1566 7.89245E-03 1.08525E-03-6.59720E-14
 -1      1567 8.38854E-03 1.20205E-03-7.46396E-14
 -1      1568 8.23441E-03 1.17477E-03-7.16911E-14
 -1      1569 8.20441E-03 1.13851E-03-7.17265E-14
 -1      1570 8.69216E-03 1.25755E-03-8.06754E-14
 -1      1571 8.54105E-03 1.22970E-03-7.76348E-14
 -1      1572 8.50991E-03 1.19403E-03-7.76631E-14
 -1      1573 8.99077E-03 1.31337E-03-8.68764E-14
 -1      1574 8.84200E-03 1.28547E-03-8.37548E-14
 -1      1575 8.81023E-03 1.25030E-03-8.37733E-14
 -1      1576 9.28556E-03 1.36881E-03-9.32441E-14
 -1      1577 9.13857E-03 1.34117E-03-9.00406E-14
 -1      1578 9.10652E-03 1.30641E-03-9.00520E-14
 -1      1579 9.57749E-03 1.42352E-03-9.97627E-14
 -1      1580 9.43183E-03 1.39627E-03-9.64841E-14
 -1      1581 9.39971E-03 1.36184E-03-9.64885E-14
 -1      1582 9.86731E-03 1.47731E-03-1.06428E-13
 -1      1583 9.72262E-03 1.45053E-03-1.03077E-13
 -1      1584 9.69057E-03 1.41637E-03-1.03076E-13
 -1      1585 1.01556E-02 1.53016E-03-1.13247E-13
 -1      1586 1.00116E-02 1.50385E-03-1.09818E-13
 -1      1587 9.97972E-03 1.46989E-03-1.09814E-13
 -1      1588 1.04428E-02 1.58211E-03-1.20206E-13
 -1      1589 1.02993E-02 1.55625E-03-1.16711E-13
 -1      1590 1.02676E-02 1.52244E-03-1.16696E-13
 -1      1591 1.07293E-02 1.63324E-03-1.27290E-13
 -1      1592 1.05862E-02 1.60777E-03-1.23734E-13
 -1      1593 1.05546E-02 1.57408E-03-1.23711E-13
 -1      1594 1.10153E-02 1.68364E-03-1.34494E-13
 -1      1595 1.08724E-02 1.65852E-03-1.30876E-13
 -1      1596 1.08410E-02 1.62492E-03-1.30849E-13
 -1      1597 1.13010E-02 1.73344E-03-1.41813E-13
 -1      1598 1.11582E-02 1.70861E-03-1.38140E-13
 -1      1599 1.11270E-02 1.67507E-03-1.38104E-13
 -1      1600 1.15865E-02 1.78273E-03-1.49234E-13
 -1      1601 1.14438E-02 1.75814E-03-1.45512E-13
 -1      1602 1.14127E-02 1.72464E-03-1.45471E-13
 -1      1603 1.18719E-02 1.83160E-03-1.56753E-13
 -1      1604 1.17292E-02 1.80721E-03-1.52979E-13
 -1      1605 1.16983E-02 1.77374E-03-1.52936E-13
 -1      1606 1.21573E-02 1.88014E-03-1.64377E-13
 -1      1607 1.20146E-02 1.85591E-03-1.60553E-13
 -1      1608 1.19838E-02 1.82246E-03-1.60506E-13
 -1      1609 1.24427E-02 1.92842E-03-1.72071E-13
 -1      1610 1.23000E-02 1.90431E-03-1.68215E-13
 -1      1611 1.22692E-02 1.87087E-03-1.68163E-13
 -1      1612 1.27280E-02 1.97650E-03-1.79845E-13
 -1      1613 1.25853E-02 1.95248E-03-1.75951E-13
 -1      1614 1.25547E-02 1.91905E-03-1.75896E-13
 -1      1615 1.30135E-02 2.02443E-03-1.87690E-13
 -1      1616 1.28708E-02 2.00048E-03-1.83757E-13
 -1      1617 1.28401E-02 1.96705E-03-1.83700E-13
 -1      1618 1.32989E-02 2.07224E-03-1.95587E-13
 -1      1619 1.31562E-02 2.04835E-03-1.91632E-13
 -1      1620 1.31256E-02 2.01492E-03-1.91567E-13
 -1      1621 1.35845E-02 2.11998E-03-2.03541E-13
 -1      1622 1.34417E-02 2.09612E-03-1.99558E-13
 -1      1623 1.34111E-02 2.06269E-03-1.99493E-13
 -1      1624 1.38700E-02 2.16767E-03-2.11527E-13
 -1      1625 1.37272E-02 2.14383E-03-2.07529E-13
 -1      1626 1.36967E-02 2.11040E-03-2.07462E-13
 -1      1627 1.41556E-02 2.21532E-03-2.19562E-13
 -1      1628 1.40128E-02 2.19149E-03-2.15540E-13
 -1      1629 1.39823E-02 2.15806E-03-2.15473E-13
 -1      1630 1.44413E-02 2.26296E-03-2.27624E-13
 -1      1631 1.42984E-02 2.23914E-03-2.23590E-13
 -1      1632 1.42679E-02 2.20570E-03-2.23521E-13
 -1      1633 1.47269E-02 2.31059E-03-2.35706E-13
 -1      1634 1.45841E-02 2.28677E-03-2.31663E-13
 -1      1635 1.45536E-02 2.25334E-03-2.31592E-13
 -1      1636 1.50126E-02 2.35824E-03-2.43796E-13
 -1      1637 1.48698E-02 2.33441E-03-2.39752E-13
 -1      1638 1.48393E-02 2.30097E-03-2.39678E-13
 -1      1639 1.52983E-02 2.40590E-03-2.51874E-13
 -1      1640 1.51555E-02 2.38207E-03-2.47836E-13
 -1      1641 1.51250E-02 2.34863E-03-2.47760E-13
 -1      1642 1.54483E-02 2.42104E-03-2.56389E-13
 -1      1643 1.54088E-02 2.31887E-03-2.57933E-13
 -1      1644 1.54322E-02 2.36102E-03-2.57529E-13
 -1      1645 1.53619E-02 2.23457E-03-2.58741E-13
 -1      1646 1.53853E-02 2.27673E-03-2.58335E-13
 -1      1647 1.52734E-02 2.27715E-03-2.54639E-13
 -1      1648 1.53150E-02 2.15025E-03-2.59538E-13
 -1      1649 1.53384E-02 2.19241E-03-2.59140E-13
 -1      1650 1.52264E-02 2.19285E-03-2.55437E-13
 -1      1651 1.52680E-02 2.06591E-03-2.60326E-13
 -1      1652 1.52915E-02 2.10809E-03-2.59934E-13
 -1      1653 1.51795E-02 2.10852E-03-2.56231E-13
 -1      1654 1.52219E-02 1.98298E-03-2.61110E-13
 -1      1655 1.52450E-02 2.02445E-03-2.60717E-13
 -1      1656 1.51330E-02 2.02490E-03-2.57010E-13
 -1      1657 1.51750E-02 1.89861E-03-2.61892E-13
 -1      1658 1.51985E-02 1.94080E-03-2.61505E-13
 -1      1659 1.50865E-02 1.94126E-03-2.57783E-13
 -1      1660 1.51282E-02 1.81422E-03-2.62651E-13
 -1      1661 1.51516E-02 1.85642E-03-2.62273E-13
 -1      1662 1.50396E-02 1.85689E-03-2.58548E-13
 -1      1663 1.50814E-02 1.72983E-03-2.63387E-13
 -1      1664 1.51048E-02 1.77203E-03-2.63024E-13
 -1      1665 1.49928E-02 1.77251E-03-2.59298E-13
 -1      1666 1.50346E-02 1.64544E-03-2.64112E-13
 -1      1667 1.50580E-02 1.68764E-03-2.63751E-13
 -1      1668 1.49460E-02 1.68814E-03-2.60031E-13
 -1      1669 1.49879E-02 1.56106E-03-2.64820E-13
 -1      1670 1.50112E-02 1.60325E-03-2.64467E-13
 -1      1671 1.48992E-02 1.60376E-03-2.60745E-13
 -1      1672 1.49420E-02 1.47813E-03-2.65511E-13
 -1      1673 1.49649E-02 1.51959E-03-2.65166E-13
 -1      1674 1.48529E-02 1.52011E-03-2.61439E-13
 -1      1675 1.48953E-02 1.39378E-03-2.66199E-13
 -1      1676 1.49186E-02 1.43595E-03-2.65859E-13
 -1      1677 1.48066E-02 1.43647E-03-2.62120E-13
 -1      1678 1.48486E-02 1.30945E-03-2.66861E-13
 -1      1679 1.48720E-02 1.35161E-03-2.66532E-13
 -1      1680 1.47599E-02 1.35213E-03-2.62788E-13
 -1      1681 1.48020E-02 1.22514E-03-2.67507E-13
 -1      1682 1.48253E-02 1.26729E-03-2.67186E-13
 -1      1683 1.47132E-02 1.26780E-03-2.63435E-13
 -1      1684 1.47182E-02 1.14229E-03-2.66855E-13
 -1      1685 1.47415E-02 1.18444E-03-2.66547E-13
 -1      1686 1.46295E-02 1.18494E-03-2.62792E-13
 -1      1687 1.45087E-02 1.10353E-03-2.60856E-13
 -1      1688 6.33211E-03 3.88517E-04-2.90908E-14
 -1      1689 6.35299E-03 3.44820E-04-2.92707E-14
 -1      1690 6.19038E-03 4.89770E-04-2.85097E-14
 -1      1691 6.27105E-03 4.39616E-04-2.88769E-14
 -1      1692 5.94626E-03 6.29750E-04-2.73520E-14
 -1      1693 6.07077E-03 5.65335E-04-2.78696E-14
 -1      1694 5.61520E-03 7.94125E-04-2.59708E-14
 -1      1695 5.77708E-03 7.14653E-04-2.66418E-14
 -1      1696 5.24690E-03 9.71916E-04-2.43382E-14
 -1      1697 5.42181E-03 8.91629E-04-2.50914E-14
 -1      1698 4.83844E-03 1.13058E-03-2.25824E-14
 -1      1699 5.02363E-03 1.05937E-03-2.34286E-14
 -1      1700 4.46263E-03 1.22790E-03-2.07968E-14
 -1      1701 4.63526E-03 1.19215E-03-2.15880E-14
 -1      1702 4.06838E-03 1.24595E-03-1.90228E-14
 -1      1703 4.25231E-03 1.25005E-03-1.98440E-14
 -1      1704 3.66796E-03 1.16822E-03-1.73590E-14
 -1      1705 3.85180E-03 1.21520E-03-1.80991E-14
 -1      1706 3.25429E-03 1.01564E-03-1.59116E-14
 -1      1707 3.44411E-03 1.09342E-03-1.65600E-14
 -1      1708 2.83702E-03 8.21379E-04-1.46659E-14
 -1      1709 3.02989E-03 9.14741E-04-1.52144E-14
 -1      1710 2.43131E-03 6.05621E-04-1.35965E-14
 -1      1711 2.62078E-03 7.01346E-04-1.40358E-14
 -1      1712 2.08402E-03 4.39863E-04-1.29616E-14
 -1      1713 2.22715E-03 5.15047E-04-1.32341E-14
 -1      1714 1.87728E-03 3.14515E-04-1.26271E-14
 -1      1715 1.95639E-03 3.66204E-04-1.27404E-14
 -1      1716 1.79132E-03 2.11034E-04-1.25842E-14
 -1      1717 1.81502E-03 2.57769E-04-1.25689E-14
 -1      1718 1.84440E-03 1.11215E-04-1.28393E-14
 -1      1719 1.80240E-03 1.57449E-04-1.26834E-14
 -1      1720 2.04754E-03-1.66148E-07-1.33597E-14
 -1      1721 1.93524E-03 5.84816E-05-1.30366E-14
 -1      1722 2.35226E-03-1.55236E-04-1.43129E-14
 -1      1723 2.20196E-03-8.48679E-05-1.38676E-14
 -1      1724 2.73075E-03-3.21713E-04-1.54830E-14
 -1      1725 2.55188E-03-2.40991E-04-1.48973E-14
 -1      1726 3.10171E-03-4.83176E-04-1.68899E-14
 -1      1727 2.92900E-03-4.14939E-04-1.62468E-14
 -1      1728 3.52501E-03-6.13245E-04-1.85545E-14
 -1      1729 3.33203E-03-5.57367E-04-1.77217E-14
 -1      1730 3.91219E-03-6.65241E-04-2.03540E-14
 -1      1731 3.73842E-03-6.51331E-04-1.95487E-14
 -1      1732 4.30961E-03-6.28224E-04-2.22032E-14
 -1      1733 4.12323E-03-6.55666E-04-2.13370E-14
 -1      1734 4.72928E-03-5.05050E-04-2.41692E-14
 -1      1735 4.52998E-03-5.73914E-04-2.32775E-14
 -1      1736 5.16286E-03-3.30945E-04-2.58468E-14
 -1      1737 4.97069E-03-4.15071E-04-2.50965E-14
 -1      1738 5.56808E-03-1.42413E-04-2.72948E-14
 -1      1739 5.38361E-03-2.29825E-04-2.66639E-14
 -1      1740 5.92369E-03 4.20847E-05-2.85238E-14
 -1      1741 5.76362E-03-3.53645E-05-2.80523E-14
 -1      1742 6.19584E-03 1.72968E-04-2.90960E-14
 -1      1743 6.08713E-03 1.12901E-04-2.88442E-14
 -1      1744 6.33902E-03 2.91496E-04-2.94205E-14
 -1      1745 6.28990E-03 2.42981E-04-2.93877E-14
 -1      1746 5.46339E-03 8.02362E-04-2.60060E-14
 -1      1747 5.82151E-03 6.20841E-04-2.76304E-14
 -1      1748 1.54177E-02 2.38760E-03-2.56313E-13
 -1      1749 1.52823E-02 2.34588E-03-2.53019E-13
 -1      1750 6.30524E-03 3.90306E-04-2.98903E-14
 -1      1751 6.11584E-03 4.79053E-04-2.90105E-14
 -1      1752 6.35597E-03 3.23988E-04-3.02631E-14
 -1      1753 5.07041E-03 1.00004E-03-2.41896E-14
 -1      1754 4.69630E-03 1.16989E-03-2.22616E-14
 -1      1755 4.33805E-03 1.26483E-03-2.03065E-14
 -1      1756 3.98376E-03 1.25614E-03-1.84362E-14
 -1      1757 3.61116E-03 1.13817E-03-1.67356E-14
 -1      1758 3.20885E-03 9.44653E-04-1.52694E-14
 -1      1759 2.78835E-03 7.11815E-04-1.39767E-14
 -1      1760 2.37323E-03 5.01427E-04-1.30273E-14
 -1      1761 2.03803E-03 3.53054E-04-1.24701E-14
 -1      1762 1.84098E-03 2.56379E-04-1.22042E-14
 -1      1763 1.78711E-03 1.86796E-04-1.22445E-14
 -1      1764 1.89232E-03 1.15237E-04-1.25260E-14
 -1      1765 2.14613E-03 1.05395E-05-1.31960E-14
 -1      1766 2.50150E-03-1.49993E-04-1.42539E-14
 -1      1767 2.88512E-03-3.36818E-04-1.55622E-14
 -1      1768 3.28165E-03-5.18782E-04-1.71300E-14
 -1      1769 3.65585E-03-6.50796E-04-1.89304E-14
 -1      1770 4.01371E-03-6.86876E-04-2.09023E-14
 -1      1771 4.38454E-03-6.16625E-04-2.29679E-14
 -1      1772 4.78146E-03-4.51916E-04-2.49974E-14
 -1      1773 5.20943E-03-2.43614E-04-2.67724E-14
 -1      1774 5.61756E-03-3.15354E-05-2.83776E-14
 -1      1775 5.97999E-03 1.33460E-04-2.94875E-14
 -1      1776 6.24390E-03 2.48375E-04-3.01160E-14
 -1      1777 3.05631E-04-1.62046E-04-1.20577E-16
 -1      1778 3.45008E-04-8.05553E-05-3.57421E-16
 -1      1779 3.53717E-04-9.90578E-05-3.38122E-16
 -1      1780 3.63849E-04-1.20872E-04-3.13877E-16
 -1      1781 3.76969E-04-1.46355E-04-2.78748E-16
 -1      1782 4.85560E-04-1.47721E-04-4.91482E-16
 -1      1783 3.16918E-04-2.77345E-05-3.94772E-16
 -1      1784 3.23219E-04-3.81552E-05-3.89500E-16
 -1      1785 3.05314E-04-1.08964E-05-4.00030E-16
 -1      1786 3.10875E-04-1.85780E-05-3.98065E-16
 -1      1787 4.22075E-04-3.38049E-05-5.84412E-16
 -1      1788 2.96033E-04 6.59509E-07-3.99827E-16
 -1      1789 3.00305E-04-4.50288E-06-4.00572E-16
 -1      1790 4.06155E-04-1.25367E-05-5.89305E-16
 -1      1791 2.90177E-04 8.06542E-06-3.95395E-16
 -1      1792 2.92589E-04 4.79640E-06-3.98133E-16
 -1      1793 3.93839E-04 2.35006E-06-5.87258E-16
 -1      1794 2.88833E-04 1.30658E-05-3.87033E-16
 -1      1795 2.88876E-04 1.07389E-05-3.91953E-16
 -1      1796 3.86796E-04 1.24421E-05-5.79465E-16
 -1      1797 2.92677E-04 1.80012E-05-3.73874E-16
 -1      1798 2.90087E-04 1.53876E-05-3.81300E-16
 -1      1799 3.86533E-04 2.01547E-05-5.65750E-16
 -1      1800 3.01557E-04 2.53813E-05-3.54765E-16
 -1      1801 2.96513E-04 2.12289E-05-3.65403E-16
 -1      1802 3.93748E-04 2.85233E-05-5.45042E-16
 -1      1803 3.15258E-04 3.81350E-05-3.28161E-16
 -1      1804 3.07879E-04 3.09640E-05-3.43014E-16
 -1      1805 4.08254E-04 4.09676E-05-5.16121E-16
 -1      1806 3.32931E-04 5.88562E-05-2.90431E-16
 -1      1807 3.23660E-04 4.73848E-05-3.11491E-16
 -1      1808 4.29382E-04 6.09845E-05-4.75802E-16
 -1      1809 3.54383E-04 9.06957E-05-2.36573E-16
 -1      1810 3.43159E-04 7.32578E-05-2.66565E-16
 -1      1811 4.56031E-04 9.18013E-05-4.19234E-16
 -1      1812 3.82432E-04 1.38935E-04-1.58876E-16
 -1      1813 3.67326E-04 1.12515E-04-2.02177E-16
 -1      1814 4.88551E-04 1.37392E-04-3.40155E-16
 -1      1815 4.46255E-04 1.98808E-04-1.02023E-16
 -1      1816 4.12739E-04 1.65197E-04-1.38493E-16
 -1      1817 5.40249E-04 1.94034E-04-2.68462E-16
 -1      1818 6.13820E-04 2.56143E-04-2.08343E-16
 -1      1819 3.66102E-04-1.69103E-04-2.06039E-16
 -1      1820 9.46752E-04 3.44312E-04-6.01814E-16
 -1      1821 7.80478E-04 3.03587E-04-3.75676E-16
 -1      1822 7.39982E-04 2.70621E-04-4.14111E-16
 -1      1823 4.94312E-04-2.05787E-04-3.63655E-16
 -1      1824 8.74517E-04-3.31172E-04-9.67312E-16
 -1      1825 1.03462E-03-3.70571E-04-1.34918E-15
 -1      1826 1.19327E-03-4.06458E-04-1.79968E-15
 -1      1827 1.35150E-03-4.39708E-04-2.32034E-15
 -1      1828 1.08510E-03-3.48963E-04-1.64468E-15
 -1      1829 1.50939E-03-4.72117E-04-2.91009E-15
 -1      1830 1.66711E-03-5.04186E-04-3.56945E-15
 -1      1831 1.40072E-03-4.15042E-04-2.69545E-15
 -1      1832 1.82502E-03-5.37129E-04-4.29780E-15
 -1      1833 1.98274E-03-5.71301E-04-5.09513E-15
 -1      1834 1.71647E-03-4.78662E-04-4.01931E-15
 -1      1835 2.14067E-03-6.07358E-04-5.96075E-15
 -1      1836 2.29806E-03-6.45377E-04-6.89555E-15
 -1      1837 2.03334E-03-5.46443E-04-5.61533E-15
 -1      1838 2.45528E-03-6.85362E-04-7.89977E-15
 -1      1839 2.61136E-03-7.26899E-04-8.97294E-15
 -1      1840 2.35107E-03-6.22201E-04-7.48326E-15
 -1      1841 2.76656E-03-7.69204E-04-1.01155E-14
 -1      1842 2.92001E-03-8.11198E-04-1.13282E-14
 -1      1843 2.66799E-03-7.05693E-04-9.62450E-15
 -1      1844 3.07178E-03-8.51302E-04-1.26106E-14
 -1      1845 3.22148E-03-8.87806E-04-1.39624E-14
 -1      1846 2.98129E-03-7.91081E-04-1.20417E-14
 -1      1847 3.36896E-03-9.18658E-04-1.53853E-14
 -1      1848 3.51475E-03-9.41952E-04-1.68772E-14
 -1      1849 3.28799E-03-8.66299E-04-1.47374E-14
 -1      1850 3.65851E-03-9.55850E-04-1.84397E-14
 -1      1851 3.80170E-03-9.59000E-04-2.00735E-14
 -1      1852 3.58690E-03-9.15073E-04-1.77135E-14
 -1      1853 3.94389E-03-9.50582E-04-2.17766E-14
 -1      1854 4.08702E-03-9.30489E-04-2.35488E-14
 -1      1855 3.88024E-03-9.22405E-04-2.09711E-14
 -1      1856 4.23066E-03-8.99336E-04-2.53899E-14
 -1      1857 4.37642E-03-8.58304E-04-2.72987E-14
 -1      1858 4.17327E-03-8.81476E-04-2.45080E-14
 -1      1859 4.52394E-03-8.09186E-04-2.92745E-14
 -1      1860 4.67395E-03-7.53923E-04-3.13147E-14
 -1      1861 4.47164E-03-7.97313E-04-2.83197E-14
 -1      1862 4.82622E-03-6.94737E-04-3.34170E-14
 -1      1863 4.98056E-03-6.33526E-04-3.55811E-14
 -1      1864 4.77829E-03-6.84421E-04-3.23941E-14
 -1      1865 5.13693E-03-5.72198E-04-3.78056E-14
 -1      1866 5.29451E-03-5.12114E-04-4.00867E-14
 -1      1867 5.09255E-03-5.60322E-04-3.67167E-14
 -1      1868 5.45343E-03-4.54489E-04-4.24236E-14
 -1      1869 5.61272E-03-4.00011E-04-4.48170E-14
 -1      1870 5.41144E-03-4.39507E-04-4.12725E-14
 -1      1871 5.77257E-03-3.49182E-04-4.72653E-14
 -1      1872 5.93211E-03-3.02176E-04-4.97647E-14
 -1      1873 5.73155E-03-3.30751E-04-4.60524E-14
 -1      1874 6.09156E-03-2.58963E-04-5.23152E-14
 -1      1875 6.25026E-03-2.19410E-04-5.49183E-14
 -1      1876 6.05022E-03-2.37413E-04-5.10451E-14
 -1      1877 6.40839E-03-1.83187E-04-5.75715E-14
 -1      1878 6.56555E-03-1.50027E-04-6.02753E-14
 -1      1879 6.36583E-03-1.59145E-04-5.62421E-14
 -1      1880 6.72186E-03-1.19489E-04-6.30304E-14
 -1      1881 6.87713E-03-9.12776E-05-6.58335E-14
 -1      1882 6.67761E-03-9.36406E-05-6.16430E-14
 -1      1883 7.03143E-03-6.49599E-05-6.86840E-14
 -1      1884 7.18471E-03-4.02663E-05-7.15820E-14
 -1      1885 6.98539E-03-3.79317E-05-6.72388E-14
 -1      1886 7.33700E-03-1.68317E-05-7.45273E-14
 -1      1887 7.48836E-03 5.56711E-06-7.75172E-14
 -1      1888 7.28933E-03 1.08625E-05-7.30260E-14
 -1      1889 7.63879E-03 2.72089E-05-8.05520E-14
 -1      1890 7.78840E-03 4.82673E-05-8.36303E-14
 -1      1891 7.58977E-03 5.51809E-05-7.89954E-14
 -1      1892 7.93719E-03 6.89386E-05-8.67515E-14
 -1      1893 8.08529E-03 8.93512E-05-8.99138E-14
 -1      1894 7.88713E-03 9.69165E-05-8.51413E-14
 -1      1895 8.23269E-03 1.09633E-04-9.31179E-14
 -1      1896 8.37951E-03 1.29874E-04-9.63626E-14
 -1      1897 8.18189E-03 1.37442E-04-9.14557E-14
 -1      1898 8.52576E-03 1.50150E-04-9.96470E-14
 -1      1899 8.67154E-03 1.70521E-04-1.02971E-13
 -1      1900 8.47447E-03 1.77691E-04-9.79330E-14
 -1      1901 8.81687E-03 1.91026E-04-1.06335E-13
 -1      1902 8.96182E-03 2.11703E-04-1.09738E-13
 -1      1903 8.76530E-03 2.18255E-04-1.04571E-13
 -1      1904 9.10643E-03 2.32564E-04-1.13179E-13
 -1      1905 9.25075E-03 2.53631E-04-1.16655E-13
 -1      1906 9.05472E-03 2.59473E-04-1.11364E-13
 -1      1907 9.39480E-03 2.74900E-04-1.20167E-13
 -1      1908 9.53863E-03 2.96383E-04-1.23715E-13
 -1      1909 9.34306E-03 3.01506E-04-1.18306E-13
 -1      1910 9.68227E-03 3.18064E-04-1.27296E-13
 -1      1911 9.82575E-03 3.39949E-04-1.30909E-13
 -1      1912 9.63057E-03 3.44396E-04-1.25390E-13
 -1      1913 9.96908E-03 3.62017E-04-1.34553E-13
 -1      1914 1.01123E-02 3.84270E-04-1.38226E-13
 -1      1915 9.91746E-03 3.88112E-04-1.32605E-13
 -1      1916 1.02554E-02 4.06685E-04-1.41929E-13
 -1      1917 1.03985E-02 4.29260E-04-1.45660E-13
 -1      1918 1.02039E-02 4.32579E-04-1.39943E-13
 -1      1919 1.05414E-02 4.51975E-04-1.49418E-13
 -1      1920 1.06844E-02 4.74823E-04-1.53202E-13
 -1      1921 1.04900E-02 4.77703E-04-1.47392E-13
 -1      1922 1.08272E-02 4.97789E-04-1.57009E-13
 -1      1923 1.09701E-02 5.20865E-04-1.60841E-13
 -1      1924 1.07759E-02 5.23384E-04-1.54950E-13
 -1      1925 1.11129E-02 5.44035E-04-1.64694E-13
 -1      1926 1.12557E-02 5.67295E-04-1.68569E-13
 -1      1927 1.10617E-02 5.69526E-04-1.62602E-13
 -1      1928 1.13985E-02 5.90630E-04-1.72462E-13
 -1      1929 1.15413E-02 6.14034E-04-1.76372E-13
 -1      1930 1.13474E-02 6.16040E-04-1.70340E-13
 -1      1931 1.16841E-02 6.37498E-04-1.80302E-13
 -1      1932 1.18268E-02 6.61016E-04-1.84248E-13
 -1      1933 1.16330E-02 6.62847E-04-1.78154E-13
 -1      1934 1.19696E-02 6.84579E-04-1.88211E-13
 -1      1935 1.21124E-02 7.08182E-04-1.92191E-13
 -1      1936 1.19186E-02 7.09882E-04-1.86037E-13
 -1      1937 1.22551E-02 7.31820E-04-1.96188E-13
 -1      1938 1.23979E-02 7.55487E-04-2.00202E-13
 -1      1939 1.22042E-02 7.57091E-04-1.93990E-13
 -1      1940 1.25407E-02 7.79178E-04-2.04229E-13
 -1      1941 1.26835E-02 8.02891E-04-2.08272E-13
 -1      1942 1.24898E-02 8.04427E-04-2.02007E-13
 -1      1943 1.28263E-02 8.26620E-04-2.12325E-13
 -1      1944 1.29691E-02 8.50364E-04-2.16391E-13
 -1      1945 1.27754E-02 8.51854E-04-2.10082E-13
 -1      1946 1.31119E-02 8.74119E-04-2.20472E-13
 -1      1947 1.32547E-02 8.97883E-04-2.24560E-13
 -1      1948 1.30610E-02 8.99345E-04-2.18208E-13
 -1      1949 1.33975E-02 9.21653E-04-2.28654E-13
 -1      1950 1.35403E-02 9.45427E-04-2.32761E-13
 -1      1951 1.33466E-02 9.46874E-04-2.26374E-13
 -1      1952 1.36832E-02 9.69204E-04-2.36876E-13
 -1      1953 1.38260E-02 9.92981E-04-2.40995E-13
 -1      1954 1.36323E-02 9.94425E-04-2.34573E-13
 -1      1955 1.39688E-02 1.01676E-03-2.45124E-13
 -1      1956 1.41117E-02 1.04053E-03-2.49260E-13
 -1      1957 1.39180E-02 1.04198E-03-2.42810E-13
 -1      1958 1.42387E-02 1.06015E-03-2.52979E-13
 -1      1959 1.43816E-02 1.08392E-03-2.57125E-13
 -1      1960 1.44420E-02 1.12462E-03-2.58096E-13
 -1      1961 1.41879E-02 1.08538E-03-2.50650E-13
 -1      1962 1.27733E-03 4.13066E-04-1.23240E-15
 -1      1963 1.11175E-03 3.80167E-04-8.86511E-16
 -1      1964 1.06813E-03 3.47170E-04-9.31818E-16
 -1      1965 1.61055E-03 4.77175E-04-2.10627E-15
 -1      1966 1.44322E-03 4.45007E-04-1.63839E-15
 -1      1967 1.39654E-03 4.11595E-04-1.68741E-15
 -1      1968 1.94989E-03 5.49049E-04-3.22850E-15
 -1      1969 1.77930E-03 5.11509E-04-2.63590E-15
 -1      1970 1.72868E-03 4.76674E-04-2.68640E-15
 -1      1971 2.29658E-03 6.40485E-04-4.60249E-15
 -1      1972 2.12242E-03 5.91764E-04-3.88398E-15
 -1      1973 2.06739E-03 5.54475E-04-3.93372E-15
 -1      1974 2.64935E-03 7.61641E-04-6.23187E-15
 -1      1975 2.47262E-03 6.97044E-04-5.38465E-15
 -1      1976 2.41392E-03 6.56591E-04-5.43192E-15
 -1      1977 3.00403E-03 9.16981E-04-8.12393E-15
 -1      1978 2.82717E-03 8.35356E-04-7.14455E-15
 -1      1979 2.76734E-03 7.91923E-04-7.18625E-15
 -1      1980 3.35364E-03 1.09824E-03-1.02883E-14
 -1      1981 3.18036E-03 1.00576E-03-9.17131E-15
 -1      1982 3.12362E-03 9.61234E-04-9.20530E-15
 -1      1983 3.69022E-03 1.27791E-03-1.27382E-14
 -1      1984 3.52404E-03 1.19077E-03-1.14769E-14
 -1      1985 3.47503E-03 1.14898E-03-1.15009E-14
 -1      1986 4.01057E-03 1.41249E-03-1.54814E-14
 -1      1987 3.85202E-03 1.35343E-03-1.40727E-14
 -1      1988 3.81350E-03 1.31833E-03-1.40857E-14
 -1      1989 4.32084E-03 1.46168E-03-1.85253E-14
 -1      1990 4.16542E-03 1.44878E-03-1.69651E-14
 -1      1991 4.13748E-03 1.42157E-03-1.69682E-14
 -1      1992 4.61969E-03 1.41985E-03-2.16957E-14
 -1      1993 4.46841E-03 1.45022E-03-2.00767E-14
 -1      1994 4.44913E-03 1.42743E-03-2.00704E-14
 -1      1995 4.94950E-03 1.30955E-03-2.53225E-14
 -1      1996 4.78206E-03 1.37045E-03-2.34729E-14
 -1      1997 4.77058E-03 1.34760E-03-2.34601E-14
 -1      1998 5.29635E-03 1.17667E-03-2.92268E-14
 -1      1999 5.12115E-03 1.24338E-03-2.72406E-14
 -1      2000 5.11641E-03 1.21781E-03-2.72223E-14
 -1      2001 5.65386E-03 1.06024E-03-3.33933E-14
 -1      2002 5.47455E-03 1.11508E-03-3.12783E-14
 -1      2003 5.47384E-03 1.08667E-03-3.12540E-14
 -1      2004 6.01377E-03 9.79942E-04-3.77996E-14
 -1      2005 5.83424E-03 1.01536E-03-3.55675E-14
 -1      2006 5.83386E-03 9.85086E-04-3.55364E-14
 -1      2007 6.36973E-03 9.38916E-04-4.24343E-14
 -1      2008 6.19274E-03 9.54894E-04-4.00892E-14
 -1      2009 6.18950E-03 9.23666E-04-4.00517E-14
 -1      2010 6.71805E-03 9.31371E-04-4.72902E-14
 -1      2011 6.54512E-03 9.31497E-04-4.48353E-14
 -1      2012 6.53716E-03 8.99880E-04-4.47910E-14
 -1      2013 7.05718E-03 9.48818E-04-5.23575E-14
 -1      2014 6.88886E-03 9.37462E-04-4.97979E-14
 -1      2015 6.87570E-03 9.05776E-04-4.97455E-14
 -1      2016 7.38694E-03 9.83333E-04-5.76287E-14
 -1      2017 7.22322E-03 9.64322E-04-5.49677E-14
 -1      2018 7.20525E-03 9.32760E-04-5.49065E-14
 -1      2019 7.70800E-03 1.02868E-03-6.30949E-14
 -1      2020 7.54849E-03 1.00492E-03-6.03381E-14
 -1      2021 7.52654E-03 9.73601E-04-6.02676E-14
 -1      2022 8.02144E-03 1.08037E-03-6.87480E-14
 -1      2023 7.86558E-03 1.05391E-03-6.58982E-14
 -1      2024 7.84056E-03 1.02290E-03-6.58197E-14
 -1      2025 8.32844E-03 1.13540E-03-7.45850E-14
 -1      2026 8.17565E-03 1.10758E-03-7.16442E-14
 -1      2027 8.14838E-03 1.07691E-03-7.15579E-14
 -1      2028 8.63020E-03 1.19182E-03-8.06012E-14
 -1      2029 8.47989E-03 1.16351E-03-7.75706E-14
 -1      2030 8.45105E-03 1.13317E-03-7.74751E-14
 -1      2031 8.92778E-03 1.24842E-03-8.67849E-14
 -1      2032 8.77944E-03 1.22014E-03-8.36715E-14
 -1      2033 8.74955E-03 1.19010E-03-8.35654E-14
 -1      2034 9.22209E-03 1.30452E-03-9.31370E-14
 -1      2035 9.07528E-03 1.27656E-03-8.99418E-14
 -1      2036 9.04472E-03 1.24679E-03-8.98268E-14
 -1      2037 9.51390E-03 1.35976E-03-9.96424E-14
 -1      2038 9.36825E-03 1.33226E-03-9.63702E-14
 -1      2039 9.33730E-03 1.30273E-03-9.62485E-14
 -1      2040 9.80381E-03 1.41398E-03-1.06297E-13
 -1      2041 9.65905E-03 1.38700E-03-1.02950E-13
 -1      2042 9.62789E-03 1.35766E-03-1.02821E-13
 -1      2043 1.00923E-02 1.46716E-03-1.13100E-13
 -1      2044 9.94821E-03 1.44070E-03-1.09681E-13
 -1      2045 9.91697E-03 1.41152E-03-1.09544E-13
 -1      2046 1.03798E-02 1.51937E-03-1.20042E-13
 -1      2047 1.02362E-02 1.49338E-03-1.16555E-13
 -1      2048 1.02049E-02 1.46433E-03-1.16409E-13
 -1      2049 1.06666E-02 1.57069E-03-1.27111E-13
 -1      2050 1.05233E-02 1.54513E-03-1.23560E-13
 -1      2051 1.04921E-02 1.51618E-03-1.23407E-13
 -1      2052 1.09529E-02 1.62124E-03-1.34301E-13
 -1      2053 1.08098E-02 1.59605E-03-1.30692E-13
 -1      2054 1.07787E-02 1.56718E-03-1.30530E-13
 -1      2055 1.12388E-02 1.67114E-03-1.41604E-13
 -1      2056 1.10959E-02 1.64626E-03-1.37938E-13
 -1      2057 1.10648E-02 1.61746E-03-1.37771E-13
 -1      2058 1.15246E-02 1.72050E-03-1.49018E-13
 -1      2059 1.13817E-02 1.69588E-03-1.45299E-13
 -1      2060 1.13507E-02 1.66712E-03-1.45124E-13
 -1      2061 1.18102E-02 1.76943E-03-1.56531E-13
 -1      2062 1.16674E-02 1.74501E-03-1.52761E-13
 -1      2063 1.16365E-02 1.71628E-03-1.52583E-13
 -1      2064 1.20957E-02 1.81800E-03-1.64142E-13
 -1      2065 1.19529E-02 1.79375E-03-1.60325E-13
 -1      2066 1.19221E-02 1.76505E-03-1.60142E-13
 -1      2067 1.23812E-02 1.86630E-03-1.71832E-13
 -1      2068 1.22384E-02 1.84218E-03-1.67979E-13
 -1      2069 1.22076E-02 1.81349E-03-1.67791E-13
 -1      2070 1.26667E-02 1.91440E-03-1.79599E-13
 -1      2071 1.25239E-02 1.89037E-03-1.75707E-13
 -1      2072 1.24932E-02 1.86169E-03-1.75516E-13
 -1      2073 1.29522E-02 1.96233E-03-1.87430E-13
 -1      2074 1.28094E-02 1.93838E-03-1.83506E-13
 -1      2075 1.27787E-02 1.90971E-03-1.83311E-13
 -1      2076 1.32377E-02 2.01015E-03-1.95322E-13
 -1      2077 1.30950E-02 1.98625E-03-1.91368E-13
 -1      2078 1.30643E-02 1.95759E-03-1.91169E-13
 -1      2079 1.35233E-02 2.05789E-03-2.03271E-13
 -1      2080 1.33805E-02 2.03403E-03-1.99291E-13
 -1      2081 1.33499E-02 2.00536E-03-1.99089E-13
 -1      2082 1.38089E-02 2.10557E-03-2.11259E-13
 -1      2083 1.36661E-02 2.08174E-03-2.07261E-13
 -1      2084 1.36354E-02 2.05307E-03-2.07057E-13
 -1      2085 1.40945E-02 2.15322E-03-2.19290E-13
 -1      2086 1.39517E-02 2.12940E-03-2.15269E-13
 -1      2087 1.39211E-02 2.10073E-03-2.15067E-13
 -1      2088 1.43801E-02 2.20085E-03-2.27349E-13
 -1      2089 1.42373E-02 2.17704E-03-2.23315E-13
 -1      2090 1.42067E-02 2.14837E-03-2.23109E-13
 -1      2091 1.46658E-02 2.24848E-03-2.35424E-13
 -1      2092 1.45230E-02 2.22467E-03-2.31384E-13
 -1      2093 1.44924E-02 2.19600E-03-2.31175E-13
 -1      2094 1.49515E-02 2.29612E-03-2.43508E-13
 -1      2095 1.48087E-02 2.27230E-03-2.39466E-13
 -1      2096 1.47781E-02 2.24363E-03-2.39258E-13
 -1      2097 1.51883E-02 2.33291E-03-2.50284E-13
 -1      2098 1.50455E-02 2.30908E-03-2.46243E-13
 -1      2099 1.50149E-02 2.28041E-03-2.46032E-13
 -1      2100 1.52028E-02 2.30633E-03-2.51502E-13
 -1      2101 1.50440E-02 2.06680E-03-2.52922E-13
 -1      2102 1.50675E-02 2.10897E-03-2.52529E-13
 -1      2103 1.50910E-02 2.15113E-03-2.52135E-13
 -1      2104 1.51144E-02 2.19328E-03-2.51739E-13
 -1      2105 1.49555E-02 2.10941E-03-2.48828E-13
 -1      2106 1.51469E-02 2.22874E-03-2.51820E-13
 -1      2107 1.51704E-02 2.27089E-03-2.51421E-13
 -1      2108 1.50764E-02 2.25792E-03-2.48686E-13
 -1      2109 1.50115E-02 2.18702E-03-2.48519E-13
 -1      2110 1.49979E-02 1.98389E-03-2.53687E-13
 -1      2111 1.50210E-02 2.02535E-03-2.53306E-13
 -1      2112 1.49090E-02 2.02580E-03-2.49602E-13
 -1      2113 1.49510E-02 1.89954E-03-2.54454E-13
 -1      2114 1.49745E-02 1.94172E-03-2.54073E-13
 -1      2115 1.48625E-02 1.94218E-03-2.50365E-13
 -1      2116 1.49042E-02 1.81518E-03-2.55210E-13
 -1      2117 1.49276E-02 1.85736E-03-2.54834E-13
 -1      2118 1.48156E-02 1.85783E-03-2.51123E-13
 -1      2119 1.48573E-02 1.73081E-03-2.55948E-13
 -1      2120 1.48807E-02 1.77299E-03-2.55579E-13
 -1      2121 1.47687E-02 1.77347E-03-2.51867E-13
 -1      2122 1.48105E-02 1.64644E-03-2.56671E-13
 -1      2123 1.48339E-02 1.68863E-03-2.56312E-13
 -1      2124 1.47219E-02 1.68911E-03-2.52597E-13
 -1      2125 1.47638E-02 1.56208E-03-2.57375E-13
 -1      2126 1.47872E-02 1.60426E-03-2.57025E-13
 -1      2127 1.46751E-02 1.60475E-03-2.53309E-13
 -1      2128 1.47179E-02 1.47915E-03-2.58053E-13
 -1      2129 1.47408E-02 1.52061E-03-2.57717E-13
 -1      2130 1.46288E-02 1.52111E-03-2.53997E-13
 -1      2131 1.46712E-02 1.39480E-03-2.58724E-13
 -1      2132 1.46945E-02 1.43697E-03-2.58390E-13
 -1      2133 1.45825E-02 1.43747E-03-2.54665E-13
 -1      2134 1.46245E-02 1.31047E-03-2.59375E-13
 -1      2135 1.46479E-02 1.35263E-03-2.59052E-13
 -1      2136 1.45358E-02 1.35313E-03-2.55319E-13
 -1      2137 1.45779E-02 1.22615E-03-2.60008E-13
 -1      2138 1.46012E-02 1.26831E-03-2.59694E-13
 -1      2139 1.44891E-02 1.26881E-03-2.55958E-13
 -1      2140 6.03100E-03 4.78390E-04-2.95970E-14
 -1      2141 6.15576E-03 4.29940E-04-3.02627E-14
 -1      2142 6.36523E-03 3.40295E-04-3.11357E-14
 -1      2143 6.35124E-03 3.23046E-04-3.12878E-14
 -1      2144 6.27761E-03 3.86253E-04-3.07034E-14
 -1      2145 6.33934E-03 3.63821E-04-3.09330E-14
 -1      2146 5.72791E-03 6.16474E-04-2.80936E-14
 -1      2147 5.89082E-03 5.41573E-04-2.88363E-14
 -1      2148 5.95986E-03 4.92393E-04-3.00673E-14
 -1      2149 5.32692E-03 8.28330E-04-2.60733E-14
 -1      2150 5.50648E-03 7.29298E-04-2.69827E-14
 -1      2151 3.29918E-04-5.04215E-05-3.82168E-16
 -1      2152 3.37132E-04-6.43824E-05-3.71339E-16
 -1      2153 4.60821E-04-9.95893E-05-5.41735E-16
 -1      2154 4.40297E-04-6.24399E-05-5.70060E-16
 -1      2155 4.57682E-03 1.21665E-03-2.18664E-14
 -1      2156 4.73487E-03 1.14465E-03-2.28735E-14
 -1      2157 4.26108E-03 1.29258E-03-1.98733E-14
 -1      2158 4.41121E-03 1.26673E-03-2.08281E-14
 -1      2159 3.92745E-03 1.25571E-03-1.78250E-14
 -1      2160 4.07931E-03 1.29084E-03-1.87349E-14
 -1      2161 3.55815E-03 1.09506E-03-1.60760E-14
 -1      2162 3.72841E-03 1.18106E-03-1.68496E-14
 -1      2163 3.16785E-03 8.71034E-04-1.45865E-14
 -1      2164 3.35630E-03 9.83823E-04-1.52503E-14
 -1      2165 2.75337E-03 6.22086E-04-1.32588E-14
 -1      2166 2.95638E-03 7.41797E-04-1.38506E-14
 -1      2167 2.29829E-03 4.07156E-04-1.23594E-14
 -1      2168 2.49309E-03 4.91238E-04-1.26875E-14
 -1      2169 1.98770E-03 2.89362E-04-1.19260E-14
 -1      2170 2.12002E-03 3.38868E-04-1.21292E-14
 -1      2171 1.81048E-03 2.21258E-04-1.17277E-14
 -1      2172 1.87506E-03 2.45586E-04-1.17796E-14
 -1      2173 1.79043E-03 1.77514E-04-1.18131E-14
 -1      2174 1.77882E-03 1.94811E-04-1.17213E-14
 -1      2175 1.93171E-03 1.26744E-04-1.20674E-14
 -1      2176 1.84190E-03 1.52910E-04-1.18945E-14
 -1      2177 2.25163E-03 4.18163E-06-1.30517E-14
 -1      2178 2.09406E-03 6.67305E-05-1.25741E-14
 -1      2179 2.62119E-03-1.57586E-04-1.40932E-14
 -1      2180 2.43599E-03-7.23666E-05-1.35458E-14
 -1      2181 3.03028E-03-3.72409E-04-1.56422E-14
 -1      2182 2.85204E-03-2.73823E-04-1.49096E-14
 -1      2183 3.39100E-03-5.52900E-04-1.72247E-14
 -1      2184 3.21451E-03-4.65742E-04-1.64208E-14
 -1      2185 3.14167E-03-4.14632E-04-1.57324E-14
 -1      2186 3.76600E-03-6.91274E-04-1.93802E-14
 -1      2187 3.61244E-03-6.43513E-04-1.83993E-14
 -1      2188 4.08972E-03-6.97726E-04-2.14925E-14
 -1      2189 3.93944E-03-7.06949E-04-2.05067E-14
 -1      2190 4.42267E-03-5.97480E-04-2.37053E-14
 -1      2191 4.25923E-03-6.62104E-04-2.26152E-14
 -1      2192 4.83951E-03-3.83485E-04-2.60482E-14
 -1      2193 4.65007E-03-4.87476E-04-2.50902E-14
 -1      2194 5.25602E-03-1.59161E-04-2.78360E-14
 -1      2195 5.05921E-03-2.68636E-04-2.69882E-14
 -1      2196 5.66503E-03 5.03005E-05-2.94803E-14
 -1      2197 5.47188E-03-4.76788E-05-2.86948E-14
 -1      2198 6.04887E-03 2.08761E-04-3.06742E-14
 -1      2199 5.88923E-03 1.52466E-04-3.03300E-14
 -1      2200 6.27930E-03 2.91189E-04-3.12728E-14
 -1      2201 6.17957E-03 2.56321E-04-3.09709E-14
 -1      2202 6.11177E-03 2.56609E-04-3.18213E-14
 -1      2203 4.96216E-03 1.02875E-03-2.41815E-14
 -1      2204 5.14421E-03 9.28145E-04-2.51173E-14
 -1      2205 5.22349E-03 8.65411E-04-2.60647E-14
 -1      2206 5.61226E-03 6.54705E-04-2.81596E-14
 -1      2207 6.55798E-04-2.60088E-04-5.88031E-16
 -1      2208 4.73994E-03 1.14195E-03-2.33536E-14
 -1      2209 4.83660E-03 1.08801E-03-2.37694E-14
 -1      2210 4.93598E-03 1.02739E-03-2.46817E-14
 -1      2211 7.12553E-04-2.47849E-04-7.83363E-16
 -1      2212 6.22257E-03 3.99883E-04-3.12953E-14
 -1      2213 6.36158E-03 3.51344E-04-3.19530E-14
 -1      2214 1.45175E-02 1.18544E-03-2.59048E-13
 -1      2215 6.32219E-03 3.17514E-04-3.21425E-14
 -1      2216 5.77005E-03 1.28201E-04-3.06448E-14
 -1      2217 5.65648E-03 9.58383E-05-3.09553E-14
 -1      2218 5.86841E-03 1.85552E-04-3.18303E-14
 -1      2219 5.33656E-03-8.40247E-05-2.89119E-14
 -1      2220 4.92422E-03-3.12779E-04-2.70819E-14
 -1      2221 4.51799E-03-5.45040E-04-2.47159E-14
 -1      2222 4.16471E-03-6.90084E-04-2.21983E-14
 -1      2223 3.51398E-03-6.05631E-04-1.76498E-14
 -1      2224 2.75004E-03-2.04853E-04-1.41648E-14
 -1      2225 2.35249E-03-1.78824E-05-1.28956E-14
 -1      2226 2.00332E-03 1.12216E-04-1.19189E-14
 -1      2227 1.92613E-03 1.36173E-04-1.12848E-14
 -1      2228 2.07900E-03 9.26280E-05-1.17658E-14
 -1      2229 1.80591E-03 1.68394E-04-1.13609E-14
 -1      2230 1.78583E-03 1.98075E-04-1.12922E-14
 -1      2231 1.92961E-03 2.46894E-04-1.14392E-14
 -1      2232 2.21724E-03 3.45146E-04-1.17988E-14
 -1      2233 2.63841E-03 5.33885E-04-1.25624E-14
 -1      2234 3.09074E-03 7.91553E-04-1.38288E-14
 -1      2235 3.47963E-03 1.03489E-03-1.53578E-14
 -1      2236 3.84596E-03 1.22667E-03-1.71316E-14
 -1      2237 4.48548E-03 1.25253E-03-2.14123E-14
 -1      2238 4.17354E-03 1.30525E-03-1.92294E-14
 -1      2239 3.85402E-03-7.11303E-04-1.99430E-14
 -1      2240 1.11378E-03 3.23843E-04-1.20838E-15
 -1      2241 9.52685E-04 2.90773E-04-8.77147E-16
 -1      2242 5.06402E-04-1.23158E-05-8.35134E-16
 -1      2243 5.16002E-04-2.39214E-05-8.34443E-16
 -1      2244 5.26718E-04-3.75737E-05-8.31515E-16
 -1      2245 5.38153E-04-5.32849E-05-8.25634E-16
 -1      2246 6.30162E-04-3.88149E-05-1.12706E-15
 -1      2247 4.83708E-04 1.84651E-05-8.17055E-16
 -1      2248 4.86389E-04 1.25600E-05-8.24495E-16
 -1      2249 4.85592E-04 2.91790E-05-7.95804E-16
 -1      2250 4.83383E-04 2.38565E-05-8.07582E-16
 -1      2251 5.80980E-04 2.62757E-05-1.09872E-15
 -1      2252 4.97444E-04 4.14750E-05-7.65365E-16
 -1      2253 4.90303E-04 3.48686E-05-7.82049E-16
 -1      2254 5.86255E-04 4.01436E-05-1.06839E-15
 -1      2255 5.19153E-04 5.98280E-05-7.22932E-16
 -1      2256 5.07204E-04 4.96856E-05-7.45890E-16
 -1      2257 6.04453E-04 5.71261E-05-1.02540E-15
 -1      2258 5.49222E-04 8.78920E-05-6.64602E-16
 -1      2259 5.33318E-04 7.24462E-05-6.96275E-16
 -1      2260 6.34789E-04 8.20002E-05-9.66498E-16
 -1      2261 5.86392E-04 1.29245E-04-5.84656E-16
 -1      2262 5.67082E-04 1.06716E-04-6.28078E-16
 -1      2263 6.75129E-04 1.18670E-04-8.86999E-16
 -1      2264 1.43698E-03 3.85594E-04-2.04853E-15
 -1      2265 1.27497E-03 3.55180E-04-1.59814E-15
 -1      2266 1.15657E-03 3.01270E-04-1.50035E-15
 -1      2267 9.80269E-04-2.93246E-04-1.48746E-15
 -1      2268 1.13681E-03-3.26993E-04-1.95060E-15
 -1      2269 1.29349E-03-3.58911E-04-2.48057E-15
 -1      2270 1.45059E-03-3.89727E-04-3.07805E-15
 -1      2271 1.18835E-03-3.04490E-04-2.26692E-15
 -1      2272 1.60824E-03-4.20623E-04-3.74234E-15
 -1      2273 1.76639E-03-4.52186E-04-4.47434E-15
 -1      2274 1.50051E-03-3.63786E-04-3.46821E-15
 -1      2275 1.92545E-03-4.85281E-04-5.27281E-15
 -1      2276 2.08502E-03-5.20352E-04-6.13855E-15
 -1      2277 1.81675E-03-4.24766E-04-4.93414E-15
 -1      2278 2.24553E-03-5.57786E-04-7.07117E-15
 -1      2279 2.40622E-03-5.97653E-04-8.07161E-15
 -1      2280 2.13792E-03-4.93079E-04-6.66479E-15
 -1      2281 2.56744E-03-6.39710E-04-9.13909E-15
 -1      2282 2.72812E-03-6.83284E-04-1.02749E-14
 -1      2283 2.46367E-03-5.71994E-04-8.66006E-15
 -1      2284 2.88836E-03-7.27368E-04-1.14796E-14
 -1      2285 3.04718E-03-7.70262E-04-1.27524E-14
 -1      2286 2.79153E-03-6.60265E-04-1.09241E-14
 -1      2287 3.20434E-03-8.10228E-04-1.40960E-14
 -1      2288 3.35954E-03-8.44629E-04-1.55095E-14
 -1      2289 3.11682E-03-7.49579E-04-1.34615E-14
 -1      2290 3.51232E-03-8.71421E-04-1.69922E-14
 -1      2291 3.66362E-03-8.87994E-04-1.85461E-14
 -1      2292 3.43452E-03-8.23361E-04-1.62776E-14
 -1      2293 3.81295E-03-8.92855E-04-2.01709E-14
 -1      2294 3.96236E-03-8.84696E-04-2.18661E-14
 -1      2295 3.74305E-03-8.60465E-04-1.93758E-14
 -1      2296 4.11136E-03-8.63409E-04-2.36314E-14
 -1      2297 4.26220E-03-8.29920E-04-2.54662E-14
 -1      2298 4.04681E-03-8.44601E-04-2.27588E-14
 -1      2299 4.41437E-03-7.85541E-04-2.73686E-14
 -1      2300 4.56907E-03-7.32796E-04-2.93391E-14
 -1      2301 4.35387E-03-7.74243E-04-2.64222E-14
 -1      2302 4.72581E-03-6.73849E-04-3.13746E-14
 -1      2303 4.88453E-03-6.11479E-04-3.34723E-14
 -1      2304 4.66985E-03-6.63737E-04-3.03574E-14
 -1      2305 5.04492E-03-5.47719E-04-3.56309E-14
 -1      2306 5.20604E-03-4.84638E-04-3.78499E-14
 -1      2307 4.99431E-03-5.34958E-04-3.45504E-14
 -1      2308 5.36786E-03-4.23648E-04-4.01265E-14
 -1      2309 5.52929E-03-3.65731E-04-4.24574E-14
 -1      2310 5.32251E-03-4.07083E-04-3.89820E-14
 -1      2311 5.69055E-03-3.11600E-04-4.48438E-14
 -1      2312 5.85072E-03-2.61462E-04-4.72861E-14
 -1      2313 5.64919E-03-2.91628E-04-4.36419E-14
 -1      2314 6.01016E-03-2.15469E-04-4.97793E-14
 -1      2315 6.16825E-03-1.73392E-04-5.23234E-14
 -1      2316 5.97098E-03-1.92912E-04-4.85173E-14
 -1      2317 6.32535E-03-1.35037E-04-5.49190E-14
 -1      2318 6.48112E-03-1.00016E-04-5.75650E-14
 -1      2319 6.28663E-03-1.10650E-04-5.36005E-14
 -1      2320 6.63583E-03-6.79706E-05-6.02609E-14
 -1      2321 6.78936E-03-3.85035E-05-6.30071E-14
 -1      2322 6.59629E-03-4.23261E-05-5.88863E-14
 -1      2323 6.94190E-03-1.12193E-05-6.58013E-14
 -1      2324 7.09342E-03 1.42259E-05-6.86423E-14
 -1      2325 6.90079E-03 1.52584E-05-6.43680E-14
 -1      2326 7.24405E-03 3.81932E-05-7.15319E-14
 -1      2327 7.39384E-03 6.09537E-05-7.44665E-14
 -1      2328 7.20108E-03 6.51808E-05-7.00436E-14
 -1      2329 7.54286E-03 8.28022E-05-7.74459E-14
 -1      2330 7.69119E-03 1.03941E-04-8.04700E-14
 -1      2331 7.49805E-03 1.10051E-04-7.59035E-14
 -1      2332 7.83886E-03 1.24590E-04-8.35375E-14
 -1      2333 7.98598E-03 1.44894E-04-8.66486E-14
 -1      2334 7.79240E-03 1.51912E-04-8.19407E-14
 -1      2335 8.13255E-03 1.65006E-04-8.98002E-14
 -1      2336 8.27867E-03 1.85025E-04-9.29930E-14
 -1      2337 8.08471E-03 1.92266E-04-8.81510E-14
 -1      2338 8.42434E-03 2.05047E-04-9.62274E-14
 -1      2339 8.56965E-03 2.25138E-04-9.95006E-14
 -1      2340 8.37541E-03 2.32156E-04-9.45270E-14
 -1      2341 8.71461E-03 2.45352E-04-1.02814E-13
 -1      2342 8.85928E-03 2.65729E-04-1.06166E-13
 -1      2343 8.66487E-03 2.72258E-04-1.01063E-13
 -1      2344 9.00367E-03 2.86294E-04-1.09557E-13
 -1      2345 9.14785E-03 3.07069E-04-1.12987E-13
 -1      2346 8.95334E-03 3.12975E-04-1.07759E-13
 -1      2347 9.29180E-03 3.28058E-04-1.16453E-13
 -1      2348 9.43558E-03 3.49271E-04-1.19953E-13
 -1      2349 9.24107E-03 3.54511E-04-1.14605E-13
 -1      2350 9.57920E-03 3.70699E-04-1.23489E-13
 -1      2351 9.72269E-03 3.92346E-04-1.27059E-13
 -1      2352 9.52822E-03 3.96937E-04-1.21595E-13
 -1      2353 9.86606E-03 4.14195E-04-1.30663E-13
 -1      2354 1.00093E-02 4.36243E-04-1.34297E-13
 -1      2355 9.81493E-03 4.40238E-04-1.28725E-13
 -1      2356 1.01525E-02 4.58473E-04-1.37960E-13
 -1      2357 1.02956E-02 4.80878E-04-1.41652E-13
 -1      2358 1.01013E-02 4.84345E-04-1.35982E-13
 -1      2359 1.04387E-02 5.03439E-04-1.45372E-13
 -1      2360 1.05817E-02 5.26150E-04-1.49121E-13
 -1      2361 1.03875E-02 5.29166E-04-1.43358E-13
 -1      2362 1.07246E-02 5.48992E-04-1.52895E-13
 -1      2363 1.08676E-02 5.71958E-04-1.56693E-13
 -1      2364 1.06734E-02 5.74599E-04-1.50845E-13
 -1      2365 1.10105E-02 5.95031E-04-1.60513E-13
 -1      2366 1.11533E-02 6.18204E-04-1.64357E-13
 -1      2367 1.09593E-02 6.20539E-04-1.58430E-13
 -1      2368 1.12962E-02 6.41463E-04-1.68222E-13
 -1      2369 1.14390E-02 6.64802E-04-1.72105E-13
 -1      2370 1.12451E-02 6.66894E-04-1.66108E-13
 -1      2371 1.15819E-02 6.88209E-04-1.76007E-13
 -1      2372 1.17247E-02 7.11677E-04-1.79928E-13
 -1      2373 1.15308E-02 7.13579E-04-1.73866E-13
 -1      2374 1.18675E-02 7.35197E-04-1.83868E-13
 -1      2375 1.20103E-02 7.58765E-04-1.87823E-13
 -1      2376 1.18165E-02 7.60521E-04-1.81699E-13
 -1      2377 1.21532E-02 7.82371E-04-1.91794E-13
 -1      2378 1.22960E-02 8.06013E-04-1.95783E-13
 -1      2379 1.21022E-02 8.07660E-04-1.89603E-13
 -1      2380 1.24388E-02 8.29683E-04-1.99789E-13
 -1      2381 1.25816E-02 8.53378E-04-2.03809E-13
 -1      2382 1.23878E-02 8.54946E-04-1.97574E-13
 -1      2383 1.27244E-02 8.77094E-04-2.07843E-13
 -1      2384 1.28673E-02 9.00827E-04-2.11889E-13
 -1      2385 1.26735E-02 9.02340E-04-2.05607E-13
 -1      2386 1.30101E-02 9.24574E-04-2.15948E-13
 -1      2387 1.31529E-02 9.48332E-04-2.20019E-13
 -1      2388 1.29592E-02 9.49809E-04-2.13692E-13
 -1      2389 1.32957E-02 9.72099E-04-2.24098E-13
 -1      2390 1.34386E-02 9.95872E-04-2.28182E-13
 -1      2391 1.32448E-02 9.97327E-04-2.21822E-13
 -1      2392 1.35814E-02 1.01965E-03-2.32278E-13
 -1      2393 1.37242E-02 1.04343E-03-2.36383E-13
 -1      2394 1.35305E-02 1.04487E-03-2.29987E-13
 -1      2395 1.38671E-02 1.06721E-03-2.40496E-13
 -1      2396 1.40099E-02 1.09099E-03-2.44616E-13
 -1      2397 1.38162E-02 1.09243E-03-2.38186E-13
 -1      2398 2.09944E-03 5.30420E-04-4.45908E-15
 -1      2399 1.93103E-03 4.87890E-04-3.76392E-15
 -1      2400 2.44431E-03 6.36816E-04-6.03575E-15
 -1      2401 2.27085E-03 5.79595E-04-5.21584E-15
 -1      2402 2.12751E-03 5.06055E-04-4.99516E-15
 -1      2403 2.79976E-03 7.78556E-04-7.86745E-15
 -1      2404 2.62125E-03 7.02888E-04-6.91908E-15
 -1      2405 2.47241E-03 6.15945E-04-6.64940E-15
 -1      2406 3.16269E-03 9.55451E-04-9.96398E-15
 -1      2407 2.98128E-03 8.63084E-04-8.88219E-15
 -1      2408 2.83285E-03 7.63725E-04-8.55694E-15
 -1      2409 3.52353E-03 1.14934E-03-1.23385E-14
 -1      2410 3.34446E-03 1.05274E-03-1.11157E-14
 -1      2411 3.20522E-03 9.49775E-04-1.07290E-14
 -1      2412 3.87183E-03 1.31604E-03-1.50048E-14
 -1      2413 3.69936E-03 1.23958E-03-1.36348E-14
 -1      2414 3.57692E-03 1.15113E-03-1.31807E-14
 -1      2415 4.20507E-03 1.40238E-03-1.79728E-14
 -1      2416 4.03856E-03 1.37278E-03-1.64505E-14
 -1      2417 3.93367E-03 1.31514E-03-1.59287E-14
 -1      2418 4.51997E-03 1.38123E-03-2.10766E-14
 -1      2419 4.36028E-03 1.40364E-03-1.94905E-14
 -1      2420 4.26816E-03 1.37852E-03-1.89041E-14
 -1      2421 4.86579E-03 1.27360E-03-2.46384E-14
 -1      2422 4.69020E-03 1.33495E-03-2.28202E-14
 -1      2423 4.60541E-03 1.32426E-03-2.21744E-14
 -1      2424 5.22691E-03 1.13175E-03-2.84839E-14
 -1      2425 5.04521E-03 1.20328E-03-2.65271E-14
 -1      2426 4.96950E-03 1.19030E-03-2.58253E-14
 -1      2427 5.59271E-03 1.00404E-03-3.25939E-14
 -1      2428 5.41052E-03 1.06416E-03-3.05071E-14
 -1      2429 5.34481E-03 1.04133E-03-2.97561E-14
 -1      2430 5.95270E-03 9.14257E-04-3.69472E-14
 -1      2431 5.77434E-03 9.53962E-04-3.47407E-14
 -1      2432 5.71585E-03 9.21938E-04-3.39427E-14
 -1      2433 6.30198E-03 8.66273E-04-4.15276E-14
 -1      2434 6.12908E-03 8.85400E-04-3.92098E-14
 -1      2435 6.07268E-03 8.46734E-04-3.83653E-14
 -1      2436 6.64010E-03 8.53908E-04-4.63296E-14
 -1      2437 6.47253E-03 8.56213E-04-4.39020E-14
 -1      2438 6.41367E-03 8.12974E-04-4.30111E-14
 -1      2439 6.96834E-03 8.68227E-04-5.13406E-14
 -1      2440 6.80541E-03 8.58267E-04-4.88081E-14
 -1      2441 6.74145E-03 8.11767E-04-4.78722E-14
 -1      2442 7.28830E-03 9.00939E-04-5.65581E-14
 -1      2443 7.12926E-03 8.82713E-04-5.39250E-14
 -1      2444 7.05935E-03 8.33886E-04-5.29422E-14
 -1      2445 7.60138E-03 9.45459E-04-6.19712E-14
 -1      2446 7.44559E-03 9.22039E-04-5.92403E-14
 -1      2447 7.37003E-03 8.71652E-04-5.82138E-14
 -1      2448 7.90874E-03 9.97011E-04-6.75721E-14
 -1      2449 7.75567E-03 9.70577E-04-6.47480E-14
 -1      2450 7.67531E-03 9.19255E-04-6.36771E-14
 -1      2451 8.21139E-03 1.05232E-03-7.33588E-14
 -1      2452 8.06057E-03 1.02435E-03-7.04435E-14
 -1      2453 7.97641E-03 9.72571E-04-6.93296E-14
 -1      2454 8.51015E-03 1.10926E-03-7.93230E-14
 -1      2455 8.36118E-03 1.08069E-03-7.63192E-14
 -1      2456 8.27418E-03 1.02880E-03-7.51639E-14
 -1      2457 8.80578E-03 1.16650E-03-8.54551E-14
 -1      2458 8.65830E-03 1.13791E-03-8.23674E-14
 -1      2459 8.56925E-03 1.08613E-03-8.11716E-14
 -1      2460 9.09890E-03 1.22326E-03-9.17597E-14
 -1      2461 8.95260E-03 1.19498E-03-8.85871E-14
 -1      2462 8.86214E-03 1.14345E-03-8.73497E-14
 -1      2463 9.39004E-03 1.27912E-03-9.82205E-14
 -1      2464 9.24467E-03 1.25132E-03-9.49704E-14
 -1      2465 9.15327E-03 1.20010E-03-9.36937E-14
 -1      2466 9.67965E-03 1.33390E-03-1.04833E-13
 -1      2467 9.53500E-03 1.30665E-03-1.01508E-13
 -1      2468 9.44299E-03 1.25576E-03-1.00194E-13
 -1      2469 9.96809E-03 1.38758E-03-1.11593E-13
 -1      2470 9.82399E-03 1.36088E-03-1.08195E-13
 -1      2471 9.73162E-03 1.31031E-03-1.06846E-13
 -1      2472 1.02556E-02 1.44020E-03-1.18491E-13
 -1      2473 1.01120E-02 1.41402E-03-1.15025E-13
 -1      2474 1.00194E-02 1.36374E-03-1.13643E-13
 -1      2475 1.05426E-02 1.49187E-03-1.25522E-13
 -1      2476 1.03992E-02 1.46615E-03-1.21991E-13
 -1      2477 1.03065E-02 1.41612E-03-1.20575E-13
 -1      2478 1.08290E-02 1.54270E-03-1.32674E-13
 -1      2479 1.06858E-02 1.51738E-03-1.29082E-13
 -1      2480 1.05932E-02 1.46758E-03-1.27637E-13
 -1      2481 1.11152E-02 1.59282E-03-1.39941E-13
 -1      2482 1.09721E-02 1.56784E-03-1.36294E-13
 -1      2483 1.08795E-02 1.51822E-03-1.34817E-13
 -1      2484 1.14011E-02 1.64236E-03-1.47324E-13
 -1      2485 1.12581E-02 1.61766E-03-1.43618E-13
 -1      2486 1.11656E-02 1.56819E-03-1.42116E-13
 -1      2487 1.16868E-02 1.69142E-03-1.54811E-13
 -1      2488 1.15440E-02 1.66695E-03-1.51055E-13
 -1      2489 1.14515E-02 1.61759E-03-1.49526E-13
 -1      2490 1.19725E-02 1.74010E-03-1.62393E-13
 -1      2491 1.18297E-02 1.71580E-03-1.58590E-13
 -1      2492 1.17373E-02 1.66654E-03-1.57038E-13
 -1      2493 1.22581E-02 1.78847E-03-1.70063E-13
 -1      2494 1.21153E-02 1.76432E-03-1.66219E-13
 -1      2495 1.20230E-02 1.71513E-03-1.64646E-13
 -1      2496 1.25437E-02 1.83662E-03-1.77808E-13
 -1      2497 1.24009E-02 1.81257E-03-1.73927E-13
 -1      2498 1.23086E-02 1.76344E-03-1.72337E-13
 -1      2499 1.28293E-02 1.88459E-03-1.85619E-13
 -1      2500 1.26865E-02 1.86063E-03-1.81705E-13
 -1      2501 1.25943E-02 1.81154E-03-1.80101E-13
 -1      2502 1.31149E-02 1.93244E-03-1.93493E-13
 -1      2503 1.29721E-02 1.90853E-03-1.89548E-13
 -1      2504 1.28799E-02 1.85947E-03-1.87929E-13
 -1      2505 1.34005E-02 1.98019E-03-2.01428E-13
 -1      2506 1.32577E-02 1.95633E-03-1.97453E-13
 -1      2507 1.31656E-02 1.90728E-03-1.95820E-13
 -1      2508 1.36861E-02 2.02788E-03-2.09406E-13
 -1      2509 1.35433E-02 2.00404E-03-2.05410E-13
 -1      2510 1.34512E-02 1.95501E-03-2.03767E-13
 -1      2511 1.39718E-02 2.07553E-03-2.17429E-13
 -1      2512 1.38290E-02 2.05171E-03-2.13413E-13
 -1      2513 1.37368E-02 2.00269E-03-2.11761E-13
 -1      2514 1.42575E-02 2.12316E-03-2.25479E-13
 -1      2515 1.41146E-02 2.09935E-03-2.21451E-13
 -1      2516 1.40225E-02 2.05033E-03-2.19792E-13
 -1      2517 1.45431E-02 2.17079E-03-2.33549E-13
 -1      2518 1.44003E-02 2.14698E-03-2.29512E-13
 -1      2519 1.43082E-02 2.09796E-03-2.27847E-13
 -1      2520 1.48288E-02 2.21842E-03-2.41630E-13
 -1      2521 1.46860E-02 2.19460E-03-2.37589E-13
 -1      2522 1.45939E-02 2.14558E-03-2.35921E-13
 -1      2523 1.49824E-02 2.24496E-03-2.45949E-13
 -1      2524 1.47270E-02 1.90047E-03-2.47042E-13
 -1      2525 1.47505E-02 1.94264E-03-2.46663E-13
 -1      2526 1.46801E-02 1.81613E-03-2.47788E-13
 -1      2527 1.47036E-02 1.85830E-03-2.47414E-13
 -1      2528 1.45916E-02 1.85877E-03-2.43718E-13
 -1      2529 1.48201E-02 2.06771E-03-2.45519E-13
 -1      2530 1.48435E-02 2.10986E-03-2.45129E-13
 -1      2531 1.47737E-02 1.98445E-03-2.46284E-13
 -1      2532 1.47968E-02 2.02590E-03-2.45906E-13
 -1      2533 1.46848E-02 2.02636E-03-2.42207E-13
 -1      2534 1.46383E-02 1.94275E-03-2.42969E-13
 -1      2535 1.46333E-02 1.73177E-03-2.48523E-13
 -1      2536 1.46567E-02 1.77395E-03-2.48158E-13
 -1      2537 1.45447E-02 1.77442E-03-2.44456E-13
 -1      2538 1.45865E-02 1.64742E-03-2.49244E-13
 -1      2539 1.46099E-02 1.68959E-03-2.48887E-13
 -1      2540 1.44978E-02 1.69007E-03-2.45183E-13
 -1      2541 1.45397E-02 1.56306E-03-2.49945E-13
 -1      2542 1.45631E-02 1.60524E-03-2.49598E-13
 -1      2543 1.44510E-02 1.60572E-03-2.45892E-13
 -1      2544 1.44938E-02 1.48014E-03-2.50614E-13
 -1      2545 1.45167E-02 1.52160E-03-2.50282E-13
 -1      2546 1.44047E-02 1.52209E-03-2.46571E-13
 -1      2547 1.44471E-02 1.39580E-03-2.51272E-13
 -1      2548 1.44704E-02 1.43797E-03-2.50945E-13
 -1      2549 1.43584E-02 1.43846E-03-2.47231E-13
 -1      2550 1.44004E-02 1.31146E-03-2.51913E-13
 -1      2551 1.44237E-02 1.35363E-03-2.51595E-13
 -1      2552 1.43117E-02 1.35412E-03-2.47877E-13
 -1      2553 1.43538E-02 1.22715E-03-2.52536E-13
 -1      2554 1.43771E-02 1.26930E-03-2.52225E-13
 -1      2555 1.42650E-02 1.26979E-03-2.48504E-13
 -1      2556 6.35729E-03 3.57754E-04-3.29118E-14
 -1      2557 6.37994E-03 3.49391E-04-3.31222E-14
 -1      2558 6.18288E-03 4.09247E-04-3.21991E-14
 -1      2559 6.29190E-03 3.78874E-04-3.26610E-14
 -1      2560 6.36284E-03 3.36643E-04-3.34169E-14
 -1      2561 6.29447E-03 3.22632E-04-3.33983E-14
 -1      2562 1.76451E-03 4.50544E-04-3.13089E-15
 -1      2563 1.60005E-03 4.17026E-04-2.55907E-15
 -1      2564 1.79592E-03 4.24806E-04-3.58806E-15
 -1      2565 1.43904E-02 1.16583E-03-2.55325E-13
 -1      2566 5.88680E-03 5.17752E-04-3.05964E-14
 -1      2567 6.01827E-03 4.67372E-04-3.13822E-14
 -1      2568 5.50335E-03 7.01540E-04-2.83537E-14
 -1      2569 5.70407E-03 6.00197E-04-2.95000E-14
 -1      2570 5.13645E-03 9.10493E-04-2.60570E-14
 -1      2571 5.29719E-03 8.15065E-04-2.70382E-14
 -1      2572 2.85880E-03-2.54995E-04-1.41405E-14
 -1      2573 2.65231E-03-1.46718E-04-1.33601E-14
 -1      2574 4.91286E-04 5.67660E-06-8.29875E-16
 -1      2575 4.98010E-04-2.49869E-06-8.33521E-16
 -1      2576 6.05567E-04-1.00206E-05-1.12814E-15
 -1      2577 5.88140E-04 1.08120E-05-1.11849E-15
 -1      2578 4.12413E-03 1.31133E-03-1.86974E-14
 -1      2579 4.26846E-03 1.31197E-03-1.98357E-14
 -1      2580 3.94976E-03-7.24753E-04-2.07067E-14
 -1      2581 3.80914E-03-7.11616E-04-1.95743E-14
 -1      2582 4.40122E-03 1.28853E-03-2.08492E-14
 -1      2583 4.53465E-03 1.24144E-03-2.18897E-14
 -1      2584 4.33600E-03 1.31066E-03-2.02855E-14
 -1      2585 3.76014E-03 1.18447E-03-1.63246E-14
 -1      2586 3.92001E-03 1.26012E-03-1.72750E-14
 -1      2587 3.41565E-03 9.77991E-04-1.45852E-14
 -1      2588 3.58491E-03 1.08726E-03-1.53801E-14
 -1      2589 3.02953E-03 7.31470E-04-1.30687E-14
 -1      2590 3.21863E-03 8.53007E-04-1.37704E-14
 -1      2591 2.52478E-03 4.53040E-04-1.17702E-14
 -1      2592 2.75973E-03 5.74522E-04-1.23014E-14
 -1      2593 2.12569E-03 2.89374E-04-1.11234E-14
 -1      2594 2.28675E-03 3.47300E-04-1.13294E-14
 -1      2595 1.88204E-03 2.17828E-04-1.08511E-14
 -1      2596 1.99154E-03 2.46366E-04-1.09860E-14
 -1      2597 2.04723E-03 2.55040E-04-1.05313E-14
 -1      2598 1.76687E-03 1.85628E-04-1.08089E-14
 -1      2599 1.79819E-03 1.94904E-04-1.08160E-14
 -1      2600 1.81518E-03 1.63758E-04-1.08523E-14
 -1      2601 1.77276E-03 1.73400E-04-1.07835E-14
 -1      2602 2.42549E-03-4.10911E-05-1.26070E-14
 -1      2603 2.25958E-03 2.70973E-05-1.21453E-14
 -1      2604 3.21987E-03-4.56882E-04-1.57807E-14
 -1      2605 3.06376E-03-3.66823E-04-1.50289E-14
 -1      2606 3.58840E-03-6.45592E-04-1.79379E-14
 -1      2607 3.40791E-03-5.56855E-04-1.67900E-14
 -1      2608 4.22044E-03-6.76939E-04-2.29368E-14
 -1      2609 4.08699E-03-7.13404E-04-2.18059E-14
 -1      2610 4.02190E-03-7.25164E-04-2.14109E-14
 -1      2611 4.59564E-03-4.91952E-04-2.58002E-14
 -1      2612 4.40581E-03-5.99288E-04-2.43906E-14
 -1      2613 5.02038E-03-2.36422E-04-2.83533E-14
 -1      2614 4.83595E-03-3.49571E-04-2.73801E-14
 -1      2615 5.41926E-03-1.43133E-05-3.02559E-14
 -1      2616 5.22586E-03-1.19382E-04-2.93661E-14
 -1      2617 6.17909E-03 2.93960E-04-3.34359E-14
 -1      2618 6.05931E-03 2.60801E-04-3.31223E-14
 -1      2619 6.25443E-04-1.91638E-04-7.16400E-16
 -1      2620 8.34040E-04-2.52873E-04-1.13567E-15
 -1      2621 8.89326E-04-2.36595E-04-1.37658E-15
 -1      2622 6.08107E-04-1.60417E-04-7.53981E-16
 -1      2623 8.27718E-04 2.66943E-04-6.41062E-16
 -1      2624 6.66254E-04 2.26037E-04-4.16307E-16
 -1      2625 6.31551E-04 1.97935E-04-4.38763E-16
 -1      2626 8.77200E-04 2.49064E-04-8.57645E-16
 -1      2627 3.93954E-03 1.27194E-03-1.70008E-14
 -1      2628 4.02825E-03 1.29843E-03-1.78389E-14
 -1      2629 4.12160E-03 1.32097E-03-1.84093E-14
 -1      2630 6.59137E-04-7.68417E-05-1.11276E-15
 -1      2631 5.50338E-04-7.12211E-05-8.16445E-16
 -1      2632 5.62965E-04-9.14457E-05-8.03245E-16
 -1      2633 1.47355E-03 3.60353E-04-2.42392E-15
 -1      2634 6.07467E-04 1.64929E-04-5.01281E-16
 -1      2635 5.54710E-03 5.31381E-05-3.14206E-14
 -1      2636 4.63964E-03 1.20089E-03-2.27595E-14
 -1      2637 4.74287E-03 1.15385E-03-2.36470E-14
 -1      2638 4.56201E-03 1.24836E-03-2.21675E-14
 -1      2639 5.03189E-03 9.78535E-04-2.56201E-14
 -1      2640 5.13114E-03-1.68329E-04-2.96702E-14
 -1      2641 4.31623E-03-6.40334E-04-2.39695E-14
 -1      2642 6.12815E-03 4.36782E-04-3.27394E-14
 -1      2643 3.69414E-03-6.89262E-04-1.86525E-14
 -1      2644 3.58327E-03-6.55754E-04-1.77539E-14
 -1      2645 3.78306E-03-7.17195E-04-1.93785E-14
 -1      2646 1.48903E-02 2.19593E-03-2.44281E-13
 -1      2647 1.48579E-02 2.16048E-03-2.44198E-13
 -1      2648 3.31156E-03-5.15141E-04-1.60475E-14
 -1      2649 6.38809E-03 3.48026E-04-3.43852E-14
 -1      2650 6.34187E-03 3.71648E-04-3.38310E-14
 -1      2651 2.52985E-03-9.65294E-05-1.25789E-14
 -1      2652 6.26266E-03 3.18921E-04-3.47173E-14
 -1      2653 7.24859E-04 1.80041E-04-7.40849E-16
 -1      2654 5.42059E-03 7.54525E-04-2.83407E-14
 -1      2655 5.97157E-03 2.33332E-04-3.34327E-14
 -1      2656 5.79326E-03 5.68793E-04-3.07910E-14
 -1      2657 5.92533E-04-1.32753E-04-7.82808E-16
 -1      2658 1.85359E-03 1.50892E-04-1.06971E-14
 -1      2659 1.79541E-03 1.54614E-04-1.01268E-14
 -1      2660 1.89963E-03 1.34607E-04-1.05411E-14
 -1      2661 1.82946E-03 1.97608E-04-1.03691E-14
 -1      2662 2.39823E-03 3.89675E-04-1.10807E-14
 -1      2663 2.88555E-03 6.43775E-04-1.22400E-14
 -1      2664 3.32660E-03 9.18719E-04-1.37839E-14
 -1      2665 2.14343E-03 6.44323E-05-1.14900E-14
 -1      2666 2.94100E-03-3.07752E-04-1.41816E-14
 -1      2667 3.67293E-03 1.13719E-03-1.55095E-14
 -1      2668 1.75384E-03 1.73801E-04-1.03093E-14
 -1      2669 1.42331E-02 1.12585E-03-2.51122E-13
 -1      2670 1.43085E-02 1.18667E-03-2.52074E-13
 -1      2671 1.41965E-02 1.18716E-03-2.48346E-13
 -1      2672 1.41060E-02 1.10622E-03-2.47409E-13
 -1      2673 4.71118E-03-4.23827E-04-2.70288E-14
 -1      2674 1.47224E-02 2.11878E-03-2.40893E-13
 -1      2675 1.40552E-02 1.13145E-03-2.45088E-13
 -1      2676 6.88930E-04 5.31289E-05-1.38122E-15
 -1      2677 6.81877E-04 4.43215E-05-1.40380E-15
 -1      2678 6.78792E-04 3.59158E-05-1.42303E-15
 -1      2679 6.79741E-04 2.73024E-05-1.43894E-15
 -1      2680 7.77388E-04 4.72927E-05-1.78815E-15
 -1      2681 7.55607E-04 1.06959E-04-1.24487E-15
 -1      2682 7.33860E-04 8.95545E-05-1.28692E-15
 -1      2683 8.07350E-04 1.52376E-04-1.14115E-15
 -1      2684 7.80375E-04 1.27762E-04-1.19701E-15
 -1      2685 8.82145E-04 1.34818E-04-1.55698E-15
 -1      2686 1.19667E-03 2.79588E-04-1.80860E-15
 -1      2687 1.04311E-03 2.51229E-04-1.39431E-15
 -1      2688 5.33285E-03 8.22075E-04-2.82913E-14
 -1      2689 5.51808E-03 7.21795E-04-2.96395E-14
 -1      2690 1.50636E-03 3.35674E-04-2.81398E-15
 -1      2691 1.35084E-03 3.07407E-04-2.28141E-15
 -1      2692 1.23309E-03 2.58561E-04-2.13324E-15
 -1      2693 8.41993E-04 2.01272E-04-9.87071E-16
 -1      2694 1.39415E-03-3.08887E-04-3.19699E-15
 -1      2695 1.55011E-03-3.36690E-04-3.86603E-15
 -1      2696 1.70775E-03-3.65359E-04-4.60001E-15
 -1      2697 1.86699E-03-3.95703E-04-5.39927E-15
 -1      2698 1.59892E-03-3.08200E-04-4.27131E-15
 -1      2699 2.02831E-03-4.28295E-04-6.26357E-15
 -1      2700 2.19125E-03-4.63819E-04-7.19326E-15
 -1      2701 1.91685E-03-3.64873E-04-5.86914E-15
 -1      2702 2.35631E-03-5.02476E-04-8.18837E-15
 -1      2703 2.52249E-03-5.44449E-04-9.24940E-15
 -1      2704 2.24489E-03-4.32702E-04-7.72436E-15
 -1      2705 2.69008E-03-5.89375E-04-1.03771E-14
 -1      2706 2.85750E-03-6.36203E-04-1.15716E-14
 -1      2707 2.58253E-03-5.15700E-04-9.83884E-15
 -1      2708 3.02461E-03-6.83794E-04-1.28355E-14
 -1      2709 3.18991E-03-7.29262E-04-1.41682E-14
 -1      2710 2.92541E-03-6.12472E-04-1.22181E-14
 -1      2711 3.35286E-03-7.70611E-04-1.55703E-14
 -1      2712 3.51316E-03-8.03496E-04-1.70430E-14
 -1      2713 3.26506E-03-7.10906E-04-1.48712E-14
 -1      2714 3.67006E-03-8.25736E-04-1.85878E-14
 -1      2715 3.82562E-03-8.33687E-04-2.02041E-14
 -1      2716 3.59332E-03-7.85613E-04-1.78068E-14
 -1      2717 3.97920E-03-8.26269E-04-2.18919E-14
 -1      2718 4.13417E-03-8.02933E-04-2.36511E-14
 -1      2719 3.90979E-03-8.06261E-04-2.10298E-14
 -1      2720 4.28993E-03-7.64434E-04-2.54805E-14
 -1      2721 4.44898E-03-7.14274E-04-2.73789E-14
 -1      2722 4.22473E-03-7.56400E-04-2.45419E-14
 -1      2723 4.61055E-03-6.54515E-04-2.93449E-14
 -1      2724 4.77491E-03-5.89558E-04-3.13770E-14
 -1      2725 4.54961E-03-6.47563E-04-2.83360E-14
 -1      2726 4.94142E-03-5.21685E-04-3.34721E-14
 -1      2727 5.10862E-03-4.54350E-04-3.56276E-14
 -1      2728 4.88688E-03-5.09364E-04-3.23969E-14
 -1      2729 5.27624E-03-3.89130E-04-3.78426E-14
 -1      2730 5.44273E-03-3.27428E-04-4.01151E-14
 -1      2731 5.22921E-03-3.70471E-04-3.67070E-14
 -1      2732 5.60823E-03-2.70052E-04-4.24428E-14
 -1      2733 5.77156E-03-2.17194E-04-4.48248E-14
 -1      2734 5.56759E-03-2.47018E-04-4.12476E-14
 -1      2735 5.93318E-03-1.69066E-04-4.72602E-14
 -1      2736 6.09245E-03-1.25198E-04-4.97485E-14
 -1      2737 5.89664E-03-1.43763E-04-4.60084E-14
 -1      2738 6.24988E-03-8.54886E-05-5.22872E-14
 -1      2739 6.40525E-03-4.93083E-05-5.48769E-14
 -1      2740 6.21502E-03-5.93044E-05-5.09787E-14
 -1      2741 6.55901E-03-1.63967E-05-5.75165E-14
 -1      2742 6.71115E-03 1.38188E-05-6.02050E-14
 -1      2743 6.52392E-03 1.00317E-05-5.61517E-14
 -1      2744 6.86200E-03 4.16552E-05-6.29425E-14
 -1      2745 7.01165E-03 6.75661E-05-6.57289E-14
 -1      2746 6.82547E-03 6.81160E-05-6.15228E-14
 -1      2747 7.16033E-03 9.18626E-05-6.85630E-14
 -1      2748 7.30815E-03 1.14879E-04-7.14421E-14
 -1      2749 7.12173E-03 1.18316E-04-6.70873E-14
 -1      2750 7.45524E-03 1.36886E-04-7.43675E-14
 -1      2751 7.60173E-03 1.58120E-04-7.73373E-14
 -1      2752 7.41440E-03 1.63333E-04-7.28373E-14
 -1      2753 7.74768E-03 1.78796E-04-8.03516E-14
 -1      2754 7.89320E-03 1.99075E-04-8.34088E-14
 -1      2755 7.70468E-03 2.05231E-04-7.87685E-14
 -1      2756 8.03833E-03 2.19116E-04-8.65082E-14
 -1      2757 8.18315E-03 2.39023E-04-8.96496E-14
 -1      2758 7.99342E-03 2.45520E-04-8.48725E-14
 -1      2759 8.32768E-03 2.58908E-04-9.28329E-14
 -1      2760 8.47199E-03 2.78834E-04-9.60566E-14
 -1      2761 8.28116E-03 2.85257E-04-9.11462E-14
 -1      2762 8.61607E-03 2.98870E-04-9.93202E-14
 -1      2763 8.76000E-03 3.19054E-04-1.02623E-13
 -1      2764 8.56825E-03 3.25138E-04-9.75830E-14
 -1      2765 8.90375E-03 3.39423E-04-1.05965E-13
 -1      2766 9.04739E-03 3.59996E-04-1.09346E-13
 -1      2767 8.85492E-03 3.65591E-04-1.04179E-13
 -1      2768 9.19090E-03 3.80788E-04-1.12765E-13
 -1      2769 9.33432E-03 4.01805E-04-1.16219E-13
 -1      2770 9.14132E-03 4.06844E-04-1.10931E-13
 -1      2771 9.47764E-03 4.23046E-04-1.19710E-13
 -1      2772 9.62090E-03 4.44511E-04-1.23235E-13
 -1      2773 9.42752E-03 4.48987E-04-1.17830E-13
 -1      2774 9.76409E-03 4.66189E-04-1.26793E-13
 -1      2775 9.90723E-03 4.88076E-04-1.30386E-13
 -1      2776 9.71358E-03 4.92018E-04-1.24870E-13
 -1      2777 1.00503E-02 5.10156E-04-1.34011E-13
 -1      2778 1.01934E-02 5.32421E-04-1.37665E-13
 -1      2779 9.99955E-03 5.35879E-04-1.32044E-13
 -1      2780 1.03364E-02 5.54855E-04-1.41348E-13
 -1      2781 1.04794E-02 5.77447E-04-1.45060E-13
 -1      2782 1.02854E-02 5.80482E-04-1.39343E-13
 -1      2783 1.06223E-02 6.00182E-04-1.48798E-13
 -1      2784 1.07652E-02 6.23051E-04-1.52562E-13
 -1      2785 1.05713E-02 6.25727E-04-1.46757E-13
 -1      2786 1.09082E-02 6.46037E-04-1.56352E-13
 -1      2787 1.10511E-02 6.69132E-04-1.60164E-13
 -1      2788 1.08571E-02 6.71510E-04-1.54277E-13
 -1      2789 1.11940E-02 6.92321E-04-1.63997E-13
 -1      2790 1.13368E-02 7.15598E-04-1.67853E-13
 -1      2791 1.11429E-02 7.17736E-04-1.61892E-13
 -1      2792 1.14797E-02 7.38950E-04-1.71730E-13
 -1      2793 1.16226E-02 7.62370E-04-1.75622E-13
 -1      2794 1.14286E-02 7.64316E-04-1.69595E-13
 -1      2795 1.17654E-02 7.85848E-04-1.79535E-13
 -1      2796 1.19083E-02 8.09379E-04-1.83469E-13
 -1      2797 1.17144E-02 8.11175E-04-1.77377E-13
 -1      2798 1.20511E-02 8.32954E-04-1.87416E-13
 -1      2799 1.21940E-02 8.56569E-04-1.91381E-13
 -1      2800 1.20001E-02 8.58250E-04-1.85232E-13
 -1      2801 1.23368E-02 8.80216E-04-1.95363E-13
 -1      2802 1.24797E-02 9.03892E-04-1.99362E-13
 -1      2803 1.22858E-02 9.05488E-04-1.93156E-13
 -1      2804 1.26225E-02 9.27591E-04-2.03375E-13
 -1      2805 1.27654E-02 9.51311E-04-2.07401E-13
 -1      2806 1.25716E-02 9.52847E-04-2.01146E-13
 -1      2807 1.29082E-02 9.75048E-04-2.11440E-13
 -1      2808 1.30511E-02 9.98798E-04-2.15491E-13
 -1      2809 1.28573E-02 1.00029E-03-2.09191E-13
 -1      2810 1.31939E-02 1.02256E-03-2.19551E-13
 -1      2811 1.33368E-02 1.04633E-03-2.23621E-13
 -1      2812 1.31430E-02 1.04779E-03-2.17285E-13
 -1      2813 1.34796E-02 1.07010E-03-2.27699E-13
 -1      2814 1.36225E-02 1.09388E-03-2.31786E-13
 -1      2815 1.34287E-02 1.09533E-03-2.25414E-13
 -1      2816 1.37653E-02 1.11766E-03-2.35880E-13
 -1      2817 1.39082E-02 1.14144E-03-2.39984E-13
 -1      2818 1.37144E-02 1.14289E-03-2.33577E-13
 -1      2819 2.49590E-03 5.92218E-04-7.27170E-15
 -1      2820 2.32093E-03 5.31360E-04-6.37630E-15
 -1      2821 4.82378E-03-3.59424E-04-2.85029E-14
 -1      2822 4.61367E-03-4.89269E-04-2.68862E-14
 -1      2823 2.15050E-03 4.80138E-04-5.54285E-15
 -1      2824 1.98488E-03 4.36308E-04-4.77025E-15
 -1      2825 2.16841E-03 4.52387E-04-6.10132E-15
 -1      2826 3.24996E-03 9.41429E-04-1.14984E-14
 -1      2827 3.05622E-03 8.38029E-04-1.03419E-14
 -1      2828 3.66101E-03 1.14783E-03-1.45874E-14
 -1      2829 3.46175E-03 1.03635E-03-1.32630E-14
 -1      2830 4.07296E-03 1.33378E-03-1.74959E-14
 -1      2831 3.89223E-03 1.27768E-03-1.60092E-14
 -1      2832 4.24311E-03 1.35277E-03-1.89817E-14
 -1      2833 4.69900E-03 1.26536E-03-2.32374E-14
 -1      2834 4.51558E-03 1.32351E-03-2.14785E-14
 -1      2835 5.08049E-03 1.10428E-03-2.69892E-14
 -1      2836 4.88804E-03 1.18548E-03-2.50844E-14
 -1      2837 5.46640E-03 9.54584E-04-3.10002E-14
 -1      2838 5.27493E-03 1.02512E-03-2.89620E-14
 -1      2839 5.20553E-03 1.01091E-03-2.81672E-14
 -1      2840 5.83821E-03 8.48614E-04-3.52595E-14
 -1      2841 5.65556E-03 8.95724E-04-3.30998E-14
 -1      2842 5.59684E-03 8.68513E-04-3.22580E-14
 -1      2843 6.18849E-03 7.90112E-04-3.97487E-14
 -1      2844 6.01636E-03 8.14134E-04-3.74768E-14
 -1      2845 5.96348E-03 7.79999E-04-3.65891E-14
 -1      2846 6.51985E-03 7.70570E-04-4.44593E-14
 -1      2847 6.35636E-03 7.76318E-04-4.20772E-14
 -1      2848 6.30347E-03 7.38927E-04-4.11443E-14
 -1      2849 6.83763E-03 7.79620E-04-4.93770E-14
 -1      2850 6.68017E-03 7.72185E-04-4.68919E-14
 -1      2851 6.62355E-03 7.32831E-04-4.59141E-14
 -1      2852 7.14641E-03 8.08508E-04-5.45043E-14
 -1      2853 6.99291E-03 7.92078E-04-5.19153E-14
 -1      2854 6.93091E-03 7.51075E-04-5.08921E-14
 -1      2855 7.44931E-03 8.50425E-04-5.98278E-14
 -1      2856 7.29842E-03 8.28184E-04-5.71418E-14
 -1      2857 7.23079E-03 7.85752E-04-5.60721E-14
 -1      2858 7.74822E-03 9.00398E-04-6.53425E-14
 -1      2859 7.59914E-03 8.74642E-04-6.25619E-14
 -1      2860 7.52638E-03 8.31063E-04-6.14482E-14
 -1      2861 8.04425E-03 9.54937E-04-7.10437E-14
 -1      2862 7.89651E-03 9.27257E-04-6.81701E-14
 -1      2863 7.81944E-03 8.82854E-04-6.70135E-14
 -1      2864 8.33808E-03 1.01168E-03-7.69241E-14
 -1      2865 8.19138E-03 9.83139E-04-7.39611E-14
 -1      2866 8.11086E-03 9.38224E-04-7.27629E-14
 -1      2867 8.63015E-03 1.06911E-03-8.29755E-14
 -1      2868 8.48429E-03 1.04038E-03-7.99300E-14
 -1      2869 8.40113E-03 9.95207E-04-7.86888E-14
 -1      2870 8.92080E-03 1.12629E-03-8.91981E-14
 -1      2871 8.77562E-03 1.09777E-03-8.60657E-14
 -1      2872 8.69049E-03 1.05253E-03-8.47858E-14
 -1      2873 9.21028E-03 1.18268E-03-9.55821E-14
 -1      2874 9.06565E-03 1.15460E-03-9.23706E-14
 -1      2875 8.97910E-03 1.10943E-03-9.10498E-14
 -1      2876 9.49882E-03 1.23803E-03-1.02122E-13
 -1      2877 9.35464E-03 1.21050E-03-9.88328E-14
 -1      2878 9.26708E-03 1.16546E-03-9.74742E-14
 -1      2879 9.78662E-03 1.29226E-03-1.08813E-13
 -1      2880 9.64279E-03 1.26529E-03-1.05451E-13
 -1      2881 9.55454E-03 1.22043E-03-1.04056E-13
 -1      2882 1.00738E-02 1.34539E-03-1.15646E-13
 -1      2883 9.93028E-03 1.31896E-03-1.12212E-13
 -1      2884 9.84157E-03 1.27429E-03-1.10783E-13
 -1      2885 1.03606E-02 1.39750E-03-1.22612E-13
 -1      2886 1.02173E-02 1.37157E-03-1.19113E-13
 -1      2887 1.01283E-02 1.32708E-03-1.17652E-13
 -1      2888 1.06470E-02 1.44872E-03-1.29703E-13
 -1      2889 1.05038E-02 1.42322E-03-1.26142E-13
 -1      2890 1.04147E-02 1.37890E-03-1.24650E-13
 -1      2891 1.09332E-02 1.49917E-03-1.36913E-13
 -1      2892 1.07901E-02 1.47403E-03-1.33294E-13
 -1      2893 1.07009E-02 1.42987E-03-1.31773E-13
 -1      2894 1.12192E-02 1.54896E-03-1.44242E-13
 -1      2895 1.10762E-02 1.52414E-03-1.40564E-13
 -1      2896 1.09869E-02 1.48010E-03-1.39014E-13
 -1      2897 1.15050E-02 1.59823E-03-1.51679E-13
 -1      2898 1.13621E-02 1.57366E-03-1.47946E-13
 -1      2899 1.12728E-02 1.52973E-03-1.46371E-13
 -1      2900 1.17908E-02 1.64707E-03-1.59219E-13
 -1      2901 1.16479E-02 1.62270E-03-1.55439E-13
 -1      2902 1.15586E-02 1.57885E-03-1.53837E-13
 -1      2903 1.20766E-02 1.69558E-03-1.66849E-13
 -1      2904 1.19337E-02 1.67136E-03-1.63022E-13
 -1      2905 1.18444E-02 1.62759E-03-1.61402E-13
 -1      2906 1.23622E-02 1.74382E-03-1.74561E-13
 -1      2907 1.22194E-02 1.71973E-03-1.70696E-13
 -1      2908 1.21302E-02 1.67600E-03-1.69055E-13
 -1      2909 1.26479E-02 1.79186E-03-1.82343E-13
 -1      2910 1.25051E-02 1.76786E-03-1.78444E-13
 -1      2911 1.24159E-02 1.72418E-03-1.76787E-13
 -1      2912 1.29336E-02 1.83976E-03-1.90187E-13
 -1      2913 1.27907E-02 1.81583E-03-1.86258E-13
 -1      2914 1.27016E-02 1.77218E-03-1.84587E-13
 -1      2915 1.32192E-02 1.88755E-03-1.98098E-13
 -1      2916 1.30764E-02 1.86366E-03-1.94137E-13
 -1      2917 1.29873E-02 1.82004E-03-1.92452E-13
 -1      2918 1.35049E-02 1.93526E-03-2.06059E-13
 -1      2919 1.33621E-02 1.91141E-03-2.02073E-13
 -1      2920 1.32730E-02 1.86780E-03-2.00378E-13
 -1      2921 1.37906E-02 1.98292E-03-2.14063E-13
 -1      2922 1.36478E-02 1.95910E-03-2.10055E-13
 -1      2923 1.35586E-02 1.91550E-03-2.08353E-13
 -1      2924 1.40763E-02 2.03056E-03-2.22103E-13
 -1      2925 1.39334E-02 2.00674E-03-2.18080E-13
 -1      2926 1.38443E-02 1.96315E-03-2.16368E-13
 -1      2927 1.43620E-02 2.07818E-03-2.30163E-13
 -1      2928 1.42191E-02 2.05437E-03-2.26130E-13
 -1      2929 1.41300E-02 2.01078E-03-2.24412E-13
 -1      2930 1.46136E-02 2.11038E-03-2.37545E-13
 -1      2931 1.44708E-02 2.08657E-03-2.33508E-13
 -1      2932 1.43817E-02 2.04298E-03-2.31784E-13
 -1      2933 1.45993E-02 2.05977E-03-2.38474E-13
 -1      2934 1.43624E-02 1.64838E-03-2.41841E-13
 -1      2935 1.43858E-02 1.69055E-03-2.41486E-13
 -1      2936 1.40043E-02 1.15668E-03-2.42772E-13
 -1      2937 1.41004E-02 1.17192E-03-2.45559E-13
 -1      2938 1.39534E-02 1.18192E-03-2.40455E-13
 -1      2939 1.44561E-02 1.81707E-03-2.40393E-13
 -1      2940 1.44796E-02 1.85924E-03-2.40023E-13
 -1      2941 1.43156E-02 1.56403E-03-2.42534E-13
 -1      2942 1.43390E-02 1.60620E-03-2.42192E-13
 -1      2943 1.42270E-02 1.60668E-03-2.38498E-13
 -1      2944 1.44092E-02 1.73273E-03-2.41124E-13
 -1      2945 1.44327E-02 1.77490E-03-2.40760E-13
 -1      2946 1.43207E-02 1.77537E-03-2.37071E-13
 -1      2947 1.42738E-02 1.69103E-03-2.37794E-13
 -1      2948 1.42697E-02 1.48111E-03-2.43194E-13
 -1      2949 1.42926E-02 1.52257E-03-2.42868E-13
 -1      2950 1.41806E-02 1.52305E-03-2.39172E-13
 -1      2951 1.42230E-02 1.39677E-03-2.43849E-13
 -1      2952 1.42463E-02 1.43894E-03-2.43525E-13
 -1      2953 1.41343E-02 1.43943E-03-2.39826E-13
 -1      2954 1.41763E-02 1.31244E-03-2.44482E-13
 -1      2955 1.41996E-02 1.35461E-03-2.44167E-13
 -1      2956 1.40876E-02 1.35509E-03-2.40467E-13
 -1      2957 2.60866E-03-1.49816E-04-1.24478E-14
 -1      2958 2.40693E-03-5.56394E-05-1.17332E-14
 -1      2959 7.08883E-04-1.44970E-04-1.07950E-15
 -1      2960 6.03013E-03 2.50160E-04-3.51993E-14
 -1      2961 5.84192E-03 1.85538E-04-3.38764E-14
 -1      2962 6.33935E-03 3.37847E-04-3.59807E-14
 -1      2963 6.24396E-03 3.16302E-04-3.60127E-14
 -1      2964 2.27188E-03 3.33262E-04-1.03101E-14
 -1      2965 2.48403E-03 4.27427E-04-1.07165E-14
 -1      2966 4.29321E-03 1.32751E-03-1.98074E-14
 -1      2967 4.40744E-03 1.30684E-03-2.08219E-14
 -1      2968 5.24081E-03-1.09062E-04-3.11256E-14
 -1      2969 5.06162E-03-2.15382E-04-3.00777E-14
 -1      2970 1.82267E-03 3.98860E-04-4.05788E-15
 -1      2971 1.66343E-03 3.65697E-04-3.40587E-15
 -1      2972 1.53489E-03 3.11367E-04-3.21852E-15
 -1      2973 1.84458E-03 3.72288E-04-4.54080E-15
 -1      2974 6.34000E-03 3.84007E-04-3.49551E-14
 -1      2975 6.39329E-03 3.69409E-04-3.52186E-14
 -1      2976 2.86354E-03 7.45076E-04-9.25261E-15
 -1      2977 2.67770E-03 6.62541E-04-8.22965E-15
 -1      2978 2.51544E-03 5.65148E-04-7.90294E-15
 -1      2979 2.89182E-03 7.24119E-04-9.95470E-15
 -1      2980 1.08636E-03-2.52948E-04-2.05517E-15
 -1      2981 1.23960E-03-2.81221E-04-2.59349E-15
 -1      2982 1.28976E-03-2.56810E-04-2.93031E-15
 -1      2983 7.15211E-04 7.51980E-05-1.32289E-15
 -1      2984 7.00160E-04 6.31986E-05-1.35437E-15
 -1      2985 7.94300E-04 6.82237E-05-1.73230E-15
 -1      2986 8.30251E-04 9.56926E-05-1.65677E-15
 -1      2987 6.08729E-03 4.67587E-04-3.35491E-14
 -1      2988 6.22980E-03 4.20051E-04-3.43960E-14
 -1      2989 5.64713E-03 1.02308E-04-3.28550E-14
 -1      2990 5.44093E-03 3.77605E-07-3.21236E-14
 -1      2991 5.36420E-03-5.38321E-05-3.25412E-14
 -1      2992 5.74213E-03 1.32067E-04-3.45963E-14
 -1      2993 7.32460E-04-3.73065E-05-1.47026E-15
 -1      2994 7.49128E-04-5.69975E-05-1.46628E-15
 -1      2995 3.36464E-03-5.60313E-04-1.61815E-14
 -1      2996 3.20187E-03-4.69223E-04-1.52004E-14
 -1      2997 4.93839E-03 1.04765E-03-2.52212E-14
 -1      2998 5.11887E-03 9.40795E-04-2.66143E-14
 -1      2999 1.73254E-03 1.64546E-04-9.65334E-15
 -1      3000 1.73586E-03 1.69875E-04-9.68210E-15
 -1      3001 2.17391E-03 3.76551E-05-1.09598E-14
 -1      3002 2.02161E-03 9.23185E-05-1.06146E-14
 -1      3003 2.75146E-03 5.67486E-04-1.13211E-14
 -1      3004 2.99098E-03 7.09913E-04-1.20406E-14
 -1      3005 1.96286E-03 2.25715E-04-9.88201E-15
 -1      3006 2.08064E-03 2.61208E-04-1.00044E-14
 -1      3007 1.41456E-02 1.21240E-03-2.46023E-13
 -1      3008 3.00855E-03-3.68098E-04-1.41057E-14
 -1      3009 2.82929E-03-2.69168E-04-1.32563E-14
 -1      3010 1.77588E-03 1.81090E-04-9.71245E-15
 -1      3011 1.85368E-03 1.95932E-04-9.74230E-15
 -1      3012 1.72877E-03 1.68014E-04-9.07234E-15
 -1      3013 6.41400E-03 3.58609E-04-3.55221E-14
 -1      3014 6.39840E-03 3.52703E-04-3.58227E-14
 -1      3015 6.43462E-03 3.71240E-04-3.66666E-14
 -1      3016 4.07247E-03-7.24152E-04-2.20526E-14
 -1      3017 3.95678E-03-7.36160E-04-2.09477E-14
 -1      3018 4.39475E-03-6.06679E-04-2.50115E-14
 -1      3019 4.23394E-03-6.79172E-04-2.35369E-14
 -1      3020 5.72792E-03 6.18054E-04-3.11501E-14
 -1      3021 5.89276E-03 5.45617E-04-3.22791E-14
 -1      3022 7.66913E-04-7.92607E-05-1.45813E-15
 -1      3023 7.85377E-04-1.04093E-04-1.44492E-15
 -1      3024 8.73104E-04-7.86663E-05-1.85077E-15
 -1      3025 7.80325E-04 2.68430E-05-1.82696E-15
 -1      3026 6.84533E-04 1.79079E-05-1.45137E-15
 -1      3027 6.92652E-04 7.12587E-06-1.46081E-15
 -1      3028 8.87842E-04 1.87044E-04-1.21956E-15
 -1      3029 5.64452E-03 6.85515E-04-3.10933E-14
 -1      3030 4.50702E-03 1.28215E-03-2.16617E-14
 -1      3031 6.31808E-03 4.09832E-04-3.57892E-14
 -1      3032 1.43674E-02 1.85935E-03-2.36338E-13
 -1      3033 1.45028E-02 1.90105E-03-2.39654E-13
 -1      3034 1.45261E-02 1.94286E-03-2.39277E-13
 -1      3035 4.51806E-03-5.52075E-04-2.64164E-14
 -1      3036 3.29467E-03 9.17216E-04-1.27829E-14
 -1      3037 4.80639E-03 1.18916E-03-2.43283E-14
 -1      3038 2.68629E-03-2.18974E-04-1.23709E-14
 -1      3039 1.45511E-02 1.98041E-03-2.39071E-13
 -1      3040 1.45743E-02 2.02221E-03-2.38688E-13
 -1      3041 1.44655E-02 2.01382E-03-2.35343E-13
 -1      3042 1.44156E-02 1.93872E-03-2.35763E-13
 -1      3043 6.40045E-03 3.51342E-04-3.71348E-14
 -1      3044 3.56228E-03-6.67528E-04-1.75244E-14
 -1      3045 3.47016E-03-6.18747E-04-1.68460E-14
 -1      3046 3.35689E-03-5.81484E-04-1.59626E-14
 -1      3047 2.31552E-03-6.23528E-05-1.07005E-14
 -1      3048 2.25088E-03-9.84500E-06-1.08338E-14
 -1      3049 2.10756E-03 1.85699E-05-9.97295E-15
 -1      3050 1.41689E-02 1.25455E-03-2.45721E-13
 -1      3051 5.23910E-03 8.97848E-04-2.78648E-14
 -1      3052 1.87388E-03 2.02044E-04-9.23485E-15
 -1      3053 8.14382E-04-1.37909E-04-1.44050E-15
 -1      3054 8.55579E-04-1.92659E-04-1.40857E-15
 -1      3055 9.96175E-04-2.25756E-04-1.80349E-15
 -1      3056 9.27028E-04-1.41608E-04-1.83770E-15
 -1      3057 2.59754E-03 4.91352E-04-1.05286E-14
 -1      3058 2.69201E-03 5.57921E-04-1.03303E-14
 -1      3059 2.45132E-03 4.30453E-04-9.76789E-15
 -1      3060 1.40051E-02 1.21848E-03-2.41237E-13
 -1      3061 1.41246E-02 1.27588E-03-2.43711E-13
 -1      3062 1.40125E-02 1.27636E-03-2.40007E-13
 -1      3063 1.39090E-02 1.20323E-03-2.38455E-13
 -1      3064 1.73876E-03 1.55723E-04-9.49934E-15
 -1      3065 1.69517E-03 1.52159E-04-8.89074E-15
 -1      3066 1.75530E-03 1.45655E-04-9.34541E-15
 -1      3067 4.20073E-03 1.33410E-03-1.89100E-14
 -1      3068 6.15236E-03 2.86729E-04-3.64665E-14
 -1      3069 6.05537E-03 2.46902E-04-3.69155E-14
 -1      3070 6.25833E-03 3.10841E-04-3.77506E-14
 -1      3071 1.92648E-03 1.07909E-04-1.00376E-14
 -1      3072 4.84594E-03 1.11649E-03-2.45927E-14
 -1      3073 2.15726E-03 2.93722E-04-9.66019E-15
 -1      3074 7.03732E-04-5.42542E-06-1.46725E-15
 -1      3075 7.17131E-04-2.01876E-05-1.47038E-15
 -1      3076 8.33161E-04-3.32829E-05-1.85927E-15
 -1      3077 8.00550E-04 1.28254E-06-1.85064E-15
 -1      3078 4.94830E-03-2.98048E-04-2.99182E-14
 -1      3079 9.95784E-04 1.93959E-04-1.59063E-15
 -1      3080 3.07119E-03-4.26939E-04-1.42218E-14
 -1      3081 6.03115E-03 5.12847E-04-3.39208E-14
 -1      3082 1.04857E-03-2.06022E-04-2.08331E-15
 -1      3083 4.15921E-03-7.07974E-04-2.30384E-14
 -1      3084 5.58311E-03 7.52396E-04-3.11661E-14
 -1      3085 5.77160E-03 6.60722E-04-3.27168E-14
 -1      3086 1.01458E-03 1.65101E-04-1.90147E-15
 -1      3087 9.80514E-04 1.39739E-04-1.96775E-15
 -1      3088 3.82052E-03 1.22413E-03-1.60453E-14
 -1      3089 3.91990E-03 1.27298E-03-1.65735E-14
 -1      3090 1.49106E-03-2.54050E-04-3.94808E-15
 -1      3091 1.64616E-03-2.77957E-04-4.68343E-15
 -1      3092 3.84702E-03-7.34240E-04-1.99799E-14
 -1      3093 1.80417E-03-3.03463E-04-5.48173E-15
 -1      3094 1.96513E-03-3.31722E-04-6.34310E-15
 -1      3095 1.69132E-03-2.45642E-04-5.10221E-15
 -1      3096 2.12968E-03-3.63148E-04-7.26836E-15
 -1      3097 2.29731E-03-3.98972E-04-8.25697E-15
 -1      3098 2.01142E-03-2.96041E-04-6.82145E-15
 -1      3099 2.46875E-03-4.39320E-04-9.30907E-15
 -1      3100 2.64232E-03-4.84782E-04-1.04267E-14
 -1      3101 2.34826E-03-3.62833E-04-8.79066E-15
 -1      3102 2.81856E-03-5.35102E-04-1.16111E-14
 -1      3103 2.99465E-03-5.88471E-04-1.28623E-14
 -1      3104 2.70147E-03-4.53167E-04-1.10147E-14
 -1      3105 3.17019E-03-6.43322E-04-1.41823E-14
 -1      3106 3.34287E-03-6.94570E-04-1.55721E-14
 -1      3107 3.06392E-03-5.66756E-04-1.35034E-14
 -1      3108 3.83671E-03-7.85229E-04-2.01751E-14
 -1      3109 3.99709E-03-7.79051E-04-2.18554E-14
 -1      3110 4.48605E-03-6.43424E-04-2.73296E-14
 -1      3111 4.65687E-03-5.73200E-04-2.92942E-14
 -1      3112 4.83124E-03-4.97251E-04-3.13246E-14
 -1      3113 5.00660E-03-4.22378E-04-3.34188E-14
 -1      3114 4.77585E-03-4.88459E-04-3.02554E-14
 -1      3115 5.18272E-03-3.50382E-04-3.55727E-14
 -1      3116 5.35667E-03-2.83149E-04-3.77867E-14
 -1      3117 5.13706E-03-3.29887E-04-3.44430E-14
 -1      3118 5.52878E-03-2.21749E-04-4.00577E-14
 -1      3119 5.69718E-03-1.66129E-04-4.23817E-14
 -1      3120 5.49196E-03-1.94715E-04-3.88693E-14
 -1      3121 5.86258E-03-1.16438E-04-4.47588E-14
 -1      3122 6.02421E-03-7.16735E-05-4.71909E-14
 -1      3123 5.83114E-03-8.69485E-05-4.35157E-14
 -1      3124 6.18282E-03-3.17266E-05-4.96744E-14
 -1      3125 6.33835E-03 4.49534E-06-5.22079E-14
 -1      3126 6.15344E-03-2.46169E-06-4.83741E-14
 -1      3127 6.49143E-03 3.71835E-05-5.47926E-14
 -1      3128 6.64227E-03 6.71938E-05-5.74260E-14
 -1      3129 6.46163E-03 6.53170E-05-5.34375E-14
 -1      3130 6.79134E-03 9.47544E-05-6.01080E-14
 -1      3131 6.93891E-03 1.20469E-04-6.28389E-14
 -1      3132 6.75965E-03 1.21750E-04-5.86990E-14
 -1      3133 7.08530E-03 1.44571E-04-6.56172E-14
 -1      3134 7.23075E-03 1.67464E-04-6.84422E-14
 -1      3135 7.05102E-03 1.70733E-04-6.41531E-14
 -1      3136 7.37545E-03 1.89362E-04-7.13141E-14
 -1      3137 7.51961E-03 2.10530E-04-7.42302E-14
 -1      3138 7.33838E-03 2.15022E-04-6.97958E-14
 -1      3139 7.66331E-03 2.31150E-04-7.71904E-14
 -1      3140 7.80672E-03 2.51389E-04-8.01950E-14
 -1      3141 7.62355E-03 2.56560E-04-7.56195E-14
 -1      3142 7.94988E-03 2.71393E-04-8.32436E-14
 -1      3143 8.09290E-03 2.91263E-04-8.63331E-14
 -1      3144 7.90770E-03 2.96714E-04-8.16193E-14
 -1      3145 8.23578E-03 3.11107E-04-8.94646E-14
 -1      3146 8.37860E-03 3.30984E-04-9.26389E-14
 -1      3147 8.19152E-03 3.36425E-04-8.77907E-14
 -1      3148 8.52136E-03 3.50968E-04-9.58527E-14
 -1      3149 8.66411E-03 3.71089E-04-9.91067E-14
 -1      3150 8.47539E-03 3.76318E-04-9.41281E-14
 -1      3151 8.80684E-03 3.91391E-04-1.02399E-13
 -1      3152 8.94958E-03 4.11888E-04-1.05731E-13
 -1      3153 8.75949E-03 4.16780E-04-1.00625E-13
 -1      3154 9.09231E-03 4.32603E-04-1.09102E-13
 -1      3155 9.23507E-03 4.53535E-04-1.12510E-13
 -1      3156 9.04389E-03 4.58021E-04-1.07280E-13
 -1      3157 9.37783E-03 4.74694E-04-1.15954E-13
 -1      3158 9.52061E-03 4.96073E-04-1.19435E-13
 -1      3159 9.32860E-03 5.00130E-04-1.14086E-13
 -1      3160 9.66340E-03 5.17668E-04-1.22951E-13
 -1      3161 9.80621E-03 5.39470E-04-1.26500E-13
 -1      3162 9.61357E-03 5.43107E-04-1.21037E-13
 -1      3163 9.94903E-03 5.61470E-04-1.30081E-13
 -1      3164 1.00919E-02 5.83656E-04-1.33697E-13
 -1      3165 9.89876E-03 5.86901E-04-1.28126E-13
 -1      3166 1.02347E-02 6.06016E-04-1.37343E-13
 -1      3167 1.03775E-02 6.28537E-04-1.41017E-13
 -1      3168 1.01841E-02 6.31431E-04-1.35348E-13
 -1      3169 1.05204E-02 6.51206E-04-1.44719E-13
 -1      3170 1.06633E-02 6.74012E-04-1.48450E-13
 -1      3171 1.04696E-02 6.76600E-04-1.42687E-13
 -1      3172 1.08061E-02 6.96940E-04-1.52205E-13
 -1      3173 1.09490E-02 7.19981E-04-1.55985E-13
 -1      3174 1.07552E-02 7.22311E-04-1.50137E-13
 -1      3175 1.10919E-02 7.43122E-04-1.59791E-13
 -1      3176 1.12347E-02 7.66354E-04-1.63616E-13
 -1      3177 1.10409E-02 7.68469E-04-1.57691E-13
 -1      3178 1.13776E-02 7.89665E-04-1.67463E-13
 -1      3179 1.15205E-02 8.13049E-04-1.71332E-13
 -1      3180 1.13266E-02 8.14990E-04-1.65337E-13
 -1      3181 1.16634E-02 8.36494E-04-1.75219E-13
 -1      3182 1.18062E-02 8.59995E-04-1.79127E-13
 -1      3183 1.16123E-02 8.61798E-04-1.73066E-13
 -1      3184 1.19491E-02 8.83544E-04-1.83050E-13
 -1      3185 1.20920E-02 9.07135E-04-1.86992E-13
 -1      3186 1.18981E-02 9.08830E-04-1.80871E-13
 -1      3187 1.22348E-02 9.30762E-04-1.90952E-13
 -1      3188 1.23777E-02 9.54420E-04-1.94927E-13
 -1      3189 1.21839E-02 9.56032E-04-1.88750E-13
 -1      3190 1.25206E-02 9.78104E-04-1.98919E-13
 -1      3191 1.26635E-02 1.00181E-03-2.02926E-13
 -1      3192 1.24696E-02 1.00336E-03-1.96696E-13
 -1      3193 1.28063E-02 1.02554E-03-2.06945E-13
 -1      3194 1.29492E-02 1.04928E-03-2.10976E-13
 -1      3195 1.27554E-02 1.05079E-03-2.04700E-13
 -1      3196 1.30921E-02 1.07303E-03-2.15019E-13
 -1      3197 1.32349E-02 1.09680E-03-2.19072E-13
 -1      3198 1.30411E-02 1.09827E-03-2.12756E-13
 -1      3199 1.33778E-02 1.12057E-03-2.23133E-13
 -1      3200 1.35206E-02 1.14434E-03-2.27201E-13
 -1      3201 1.33269E-02 1.14580E-03-2.20854E-13
 -1      3202 1.36434E-02 1.16190E-03-2.30778E-13
 -1      3203 1.37863E-02 1.18568E-03-2.34863E-13
 -1      3204 1.38380E-02 1.22224E-03-2.35644E-13
 -1      3205 1.35925E-02 1.18713E-03-2.28483E-13
 -1      3206 4.24215E-03-6.91099E-04-2.40962E-14
 -1      3207 4.09569E-03-7.34195E-04-2.25903E-14
 -1      3208 4.39814E-03 1.34562E-03-2.04045E-14
 -1      3209 2.71134E-03-2.75124E-04-1.20724E-14
 -1      3210 2.51979E-03-1.69397E-04-1.13172E-14
 -1      3211 6.42231E-03 6.86164E-04-4.25885E-14
 -1      3212 6.26308E-03 6.92995E-04-4.02507E-14
 -1      3213 6.72807E-03 6.93664E-04-4.74173E-14
 -1      3214 6.57695E-03 6.87183E-04-4.49773E-14
 -1      3215 6.53694E-03 6.41083E-04-4.40382E-14
 -1      3216 7.02336E-03 7.20585E-04-5.24529E-14
 -1      3217 6.87659E-03 7.05242E-04-4.99094E-14
 -1      3218 6.82763E-03 6.60131E-04-4.89278E-14
 -1      3219 7.31347E-03 7.60383E-04-5.76888E-14
 -1      3220 7.16879E-03 7.39217E-04-5.50469E-14
 -1      3221 7.11121E-03 6.94023E-04-5.40199E-14
 -1      3222 7.60130E-03 8.08459E-04-6.31173E-14
 -1      3223 7.45751E-03 7.83607E-04-6.03793E-14
 -1      3224 7.39231E-03 7.37696E-04-5.93102E-14
 -1      3225 7.88825E-03 8.61549E-04-6.87339E-14
 -1      3226 7.74479E-03 8.34528E-04-6.59022E-14
 -1      3227 7.67320E-03 7.87693E-04-6.47899E-14
 -1      3228 8.17492E-03 9.17332E-04-7.45309E-14
 -1      3229 8.03156E-03 8.89205E-04-7.16104E-14
 -1      3230 7.95478E-03 8.41505E-04-7.04574E-14
 -1      3231 8.46152E-03 9.74226E-04-8.05031E-14
 -1      3232 8.31819E-03 9.45707E-04-7.74951E-14
 -1      3233 8.23730E-03 8.97311E-04-7.63017E-14
 -1      3234 8.74808E-03 1.03120E-03-8.66436E-14
 -1      3235 8.60478E-03 1.00274E-03-8.35524E-14
 -1      3236 8.52072E-03 9.53848E-04-8.23189E-14
 -1      3237 9.03460E-03 1.08762E-03-9.29511E-14
 -1      3238 8.89133E-03 1.05950E-03-8.97771E-14
 -1      3239 8.80487E-03 1.01028E-03-8.85030E-14
 -1      3240 9.32103E-03 1.14315E-03-9.94159E-14
 -1      3241 9.17781E-03 1.11551E-03-9.61642E-14
 -1      3242 9.08956E-03 1.06610E-03-9.48527E-14
 -1      3243 9.60737E-03 1.19763E-03-1.06036E-13
 -1      3244 9.46420E-03 1.17053E-03-1.02707E-13
 -1      3245 9.37464E-03 1.12103E-03-1.01359E-13
 -1      3246 9.89360E-03 1.25105E-03-1.12802E-13
 -1      3247 9.75049E-03 1.22447E-03-1.09401E-13
 -1      3248 9.65999E-03 1.17496E-03-1.08017E-13
 -1      3249 1.01797E-02 1.30345E-03-1.19705E-13
 -1      3250 1.00367E-02 1.27737E-03-1.16236E-13
 -1      3251 9.94551E-03 1.22788E-03-1.14821E-13
 -1      3252 1.04658E-02 1.35493E-03-1.26737E-13
 -1      3253 1.03227E-02 1.32930E-03-1.23205E-13
 -1      3254 1.02311E-02 1.27985E-03-1.21758E-13
 -1      3255 1.07517E-02 1.40562E-03-1.33891E-13
 -1      3256 1.06087E-02 1.38037E-03-1.30299E-13
 -1      3257 1.05168E-02 1.33098E-03-1.28824E-13
 -1      3258 1.10376E-02 1.45562E-03-1.41166E-13
 -1      3259 1.08947E-02 1.43070E-03-1.37516E-13
 -1      3260 1.08026E-02 1.38137E-03-1.36013E-13
 -1      3261 1.13234E-02 1.50506E-03-1.48550E-13
 -1      3262 1.11805E-02 1.48040E-03-1.44844E-13
 -1      3263 1.10883E-02 1.43113E-03-1.43317E-13
 -1      3264 1.16092E-02 1.55404E-03-1.56046E-13
 -1      3265 1.14663E-02 1.52960E-03-1.52284E-13
 -1      3266 1.13741E-02 1.48038E-03-1.50734E-13
 -1      3267 1.18950E-02 1.60266E-03-1.63634E-13
 -1      3268 1.17521E-02 1.57839E-03-1.59830E-13
 -1      3269 1.16599E-02 1.52922E-03-1.58252E-13
 -1      3270 1.21808E-02 1.65099E-03-1.71311E-13
 -1      3271 1.20379E-02 1.62686E-03-1.67461E-13
 -1      3272 1.19456E-02 1.57772E-03-1.65868E-13
 -1      3273 1.24665E-02 1.69911E-03-1.79065E-13
 -1      3274 1.23236E-02 1.67507E-03-1.75179E-13
 -1      3275 1.22314E-02 1.62597E-03-1.73568E-13
 -1      3276 1.27522E-02 1.74705E-03-1.86883E-13
 -1      3277 1.26093E-02 1.72310E-03-1.82965E-13
 -1      3278 1.25171E-02 1.67401E-03-1.81341E-13
 -1      3279 1.30379E-02 1.79488E-03-1.94768E-13
 -1      3280 1.28951E-02 1.77098E-03-1.90817E-13
 -1      3281 1.28029E-02 1.72192E-03-1.89182E-13
 -1      3282 1.33236E-02 1.84262E-03-2.02709E-13
 -1      3283 1.31808E-02 1.81876E-03-1.98732E-13
 -1      3284 1.30886E-02 1.76971E-03-1.97083E-13
 -1      3285 1.36093E-02 1.89030E-03-2.10698E-13
 -1      3286 1.34665E-02 1.86646E-03-2.06700E-13
 -1      3287 1.33743E-02 1.81742E-03-2.05043E-13
 -1      3288 1.38951E-02 1.93794E-03-2.18723E-13
 -1      3289 1.37522E-02 1.91412E-03-2.14705E-13
 -1      3290 1.36601E-02 1.86509E-03-2.13045E-13
 -1      3291 1.41808E-02 1.98556E-03-2.26771E-13
 -1      3292 1.40379E-02 1.96175E-03-2.22744E-13
 -1      3293 1.39458E-02 1.91272E-03-2.21077E-13
 -1      3294 1.43775E-02 2.00389E-03-2.32724E-13
 -1      3295 1.42687E-02 1.99550E-03-2.29384E-13
 -1      3296 1.41766E-02 1.94647E-03-2.27709E-13
 -1      3297 1.43526E-02 1.96634E-03-2.32938E-13
 -1      3298 8.76900E-04 6.04653E-05-2.19255E-15
 -1      3299 8.73153E-04 4.92885E-05-2.22076E-15
 -1      3300 1.39522E-02 1.31341E-03-2.37081E-13
 -1      3301 1.39755E-02 1.35557E-03-2.36772E-13
 -1      3302 1.40915E-02 1.56499E-03-2.35155E-13
 -1      3303 1.41149E-02 1.60716E-03-2.34813E-13
 -1      3304 4.48928E-03 1.30485E-03-2.14052E-14
 -1      3305 4.63330E-03 1.24170E-03-2.27788E-14
 -1      3306 1.68358E-03 1.57954E-04-8.52615E-15
 -1      3307 1.72398E-03 1.67058E-04-8.55497E-15
 -1      3308 1.92257E-03 8.53968E-05-9.46366E-15
 -1      3309 1.82713E-03 1.21841E-04-9.40629E-15
 -1      3310 1.74574E-03 1.26070E-04-8.79743E-15
 -1      3311 1.39989E-02 1.39774E-03-2.36456E-13
 -1      3312 1.40222E-02 1.43991E-03-2.36135E-13
 -1      3313 1.38634E-02 1.35606E-03-2.33087E-13
 -1      3314 6.33097E-03 4.38248E-04-3.72274E-14
 -1      3315 6.41915E-03 4.07729E-04-3.78110E-14
 -1      3316 5.74542E-03 7.72804E-04-3.35918E-14
 -1      3317 5.55551E-03 8.28070E-04-3.14756E-14
 -1      3318 2.17859E-03 4.21945E-04-6.66885E-15
 -1      3319 2.01695E-03 3.79893E-04-5.82278E-15
 -1      3320 4.65331E-03-5.04488E-04-2.83134E-14
 -1      3321 4.45798E-03-6.07795E-04-2.63855E-14
 -1      3322 2.03609E-03 2.57535E-04-8.91005E-15
 -1      3323 2.20652E-03 3.22202E-04-9.18900E-15
 -1      3324 5.08879E-03-2.33124E-04-3.16218E-14
 -1      3325 4.87723E-03-3.62351E-04-3.00023E-14
 -1      3326 1.79554E-03 1.85632E-04-8.56020E-15
 -1      3327 1.89145E-03 2.10438E-04-8.68760E-15
 -1      3328 1.16504E-03 2.27363E-04-2.07542E-15
 -1      3329 1.07559E-03 1.90255E-04-1.96985E-15
 -1      3330 1.17550E-03 1.93698E-04-2.43676E-15
 -1      3331 1.31116E-03 2.51656E-04-2.58157E-15
 -1      3332 4.83592E-03 1.15150E-03-2.46071E-14
 -1      3333 5.01402E-03 1.05562E-03-2.62155E-14
 -1      3334 2.98079E-03 7.31554E-04-1.11074E-14
 -1      3335 3.12805E-03 8.07974E-04-1.20385E-14
 -1      3336 3.96516E-03-7.52563E-04-2.12736E-14
 -1      3337 3.81101E-03-7.41831E-04-1.96990E-14
 -1      3338 2.78107E-03 6.34055E-04-9.99073E-15
 -1      3339 3.66993E-03 1.14054E-03-1.51127E-14
 -1      3340 5.99067E-03 5.62657E-04-3.44858E-14
 -1      3341 6.16151E-03 4.95440E-04-3.57972E-14
 -1      3342 6.45607E-03 3.84433E-04-3.77889E-14
 -1      3343 6.47209E-03 3.75321E-04-3.81023E-14
 -1      3344 6.46368E-03 3.65052E-04-3.86101E-14
 -1      3345 6.41600E-03 3.52053E-04-3.87708E-14
 -1      3346 3.14036E-03-5.01669E-04-1.43865E-14
 -1      3347 2.96718E-03-4.16015E-04-1.33262E-14
 -1      3348 1.40454E-02 1.48172E-03-2.35811E-13
 -1      3349 1.40683E-02 1.52318E-03-2.35487E-13
 -1      3350 1.39563E-02 1.52366E-03-2.31806E-13
 -1      3351 1.39099E-02 1.44003E-03-2.32455E-13
 -1      3352 1.06000E-03-1.83767E-04-2.21410E-15
 -1      3353 1.14848E-03-2.07457E-04-2.49778E-15
 -1      3354 1.29864E-03-2.30600E-04-3.08695E-15
 -1      3355 1.02350E-03-1.41896E-04-2.22164E-15
 -1      3356 8.75413E-04 3.78451E-05-2.24430E-15
 -1      3357 8.83118E-04 2.50835E-05-2.26307E-15
 -1      3358 9.69965E-04 5.03764E-05-2.70084E-15
 -1      3359 1.07510E-03 1.43430E-04-2.42785E-15
 -1      3360 9.49958E-04 1.18344E-04-2.02537E-15
 -1      3361 9.23851E-04 1.00220E-04-2.07645E-15
 -1      3362 5.13986E-03 1.01344E-03-2.74439E-14
 -1      3363 5.15959E-03 9.66046E-04-2.74345E-14
 -1      3364 4.05041E-03-7.52518E-04-2.22741E-14
 -1      3365 4.12034E-03-7.57913E-04-2.31949E-14
 -1      3366 9.02466E-04 8.50495E-05-2.12078E-15
 -1      3367 8.86765E-04 7.20100E-05-2.15945E-15
 -1      3368 9.77943E-04 7.50892E-05-2.63456E-15
 -1      3369 1.01446E-03 1.03790E-04-2.54480E-15
 -1      3370 1.42320E-02 1.81783E-03-2.33022E-13
 -1      3371 1.42553E-02 1.85964E-03-2.32655E-13
 -1      3372 3.51161E-03-7.39698E-04-1.70336E-14
 -1      3373 3.67671E-03-7.70830E-04-1.85671E-14
 -1      3374 4.28334E-03-7.15103E-04-2.50038E-14
 -1      3375 3.42075E-03-6.82943E-04-1.62696E-14
 -1      3376 6.51004E-03 3.77597E-04-3.97574E-14
 -1      3377 2.79420E-03-3.58944E-04-1.22119E-14
 -1      3378 5.34194E-03 9.29378E-04-2.94351E-14
 -1      3379 1.42085E-02 1.77566E-03-2.33390E-13
 -1      3380 1.40964E-02 1.77596E-03-2.29713E-13
 -1      3381 1.41851E-02 1.73350E-03-2.33754E-13
 -1      3382 1.65429E-03 1.42762E-04-8.23262E-15
 -1      3383 1.66383E-03 1.50090E-04-8.37958E-15
 -1      3384 1.63936E-03 1.48344E-04-7.88145E-15
 -1      3385 9.77879E-04-7.49964E-05-2.29031E-15
 -1      3386 1.00245E-03-1.03704E-04-2.28048E-15
 -1      3387 6.48507E-03 4.08548E-04-3.92645E-14
 -1      3388 3.23897E-03-5.62459E-04-1.49979E-14
 -1      3389 1.41383E-02 1.64924E-03-2.34465E-13
 -1      3390 1.41617E-02 1.69142E-03-2.34111E-13
 -1      3391 1.40496E-02 1.69171E-03-2.30434E-13
 -1      3392 1.40028E-02 1.60755E-03-2.31133E-13
 -1      3393 2.35743E-03-1.22141E-04-1.04252E-14
 -1      3394 1.72368E-03 1.71411E-04-8.03027E-15
 -1      3395 2.44886E-03 4.97961E-04-8.23508E-15
 -1      3396 2.27323E-03 4.07304E-04-7.88781E-15
 -1      3397 1.45835E-03 2.76304E-04-3.14640E-15
 -1      3398 1.38451E-03 2.43921E-04-3.06883E-15
 -1      3399 1.60735E-03 3.02446E-04-3.76972E-15
 -1      3400 4.38539E-03-6.57036E-04-2.58872E-14
 -1      3401 5.29871E-03-1.21161E-04-3.33775E-14
 -1      3402 5.21844E-03-1.93501E-04-3.34582E-14
 -1      3403 1.92888E-03 2.31770E-04-8.24501E-15
 -1      3404 1.88684E-03 3.54149E-04-5.11398E-15
 -1      3405 1.73333E-03 3.22514E-04-4.37890E-15
 -1      3406 1.65022E-03 2.85097E-04-4.28498E-15
 -1      3407 1.89621E-03 3.25275E-04-5.62597E-15
 -1      3408 6.36370E-03 3.33977E-04-3.92380E-14
 -1      3409 6.29880E-03 3.09041E-04-3.97006E-14
 -1      3410 6.45549E-03 3.51310E-04-4.07446E-14
 -1      3411 1.97975E-03 4.96019E-05-9.33964E-15
 -1      3412 1.86488E-03 6.89753E-05-8.72893E-15
 -1      3413 2.03255E-03 7.69962E-06-9.21116E-15
 -1      3414 4.79513E-03-4.43981E-04-2.99588E-14
 -1      3415 1.38692E-02 1.24954E-03-2.35979E-13
 -1      3416 1.39210E-02 1.28611E-03-2.36750E-13
 -1      3417 1.38089E-02 1.28659E-03-2.33063E-13
 -1      3418 1.37465E-02 1.23199E-03-2.32396E-13
 -1      3419 6.30418E-03 4.77809E-04-3.78210E-14
 -1      3420 5.50245E-03 8.19006E-04-3.07085E-14
 -1      3421 6.09770E-03 7.07676E-04-3.79668E-14
 -1      3422 5.92532E-03 7.34362E-04-3.57377E-14
 -1      3423 1.34595E-03-2.04198E-04-3.43432E-15
 -1      3424 3.78413E-03 1.23326E-03-1.50765E-14
 -1      3425 2.63091E-03 5.67061E-04-9.24200E-15
 -1      3426 2.30088E-03 3.76779E-04-9.00738E-15
 -1      3427 5.35682E-03 8.60297E-04-2.91381E-14
 -1      3428 5.84920E-03 1.60337E-04-3.63497E-14
 -1      3429 5.67482E-03 8.54565E-05-3.52918E-14
 -1      3430 5.47110E-03-2.41653E-05-3.44163E-14
 -1      3431 3.76014E-03-7.58794E-04-1.93260E-14
 -1      3432 9.54130E-04-4.91778E-05-2.29435E-15
 -1      3433 1.08056E-03-6.85077E-05-2.77464E-15
 -1      3434 9.32147E-04-2.63817E-05-2.29337E-15
 -1      3435 6.23086E-03 6.44616E-04-3.93552E-14
 -1      3436 5.98893E-03 2.08785E-04-3.76349E-14
 -1      3437 5.93304E-03 1.66281E-04-3.83490E-14
 -1      3438 6.11831E-03 2.46375E-04-3.89345E-14
 -1      3439 5.93052E-03 6.23504E-04-3.45634E-14
 -1      3440 5.89839E-03 6.85114E-04-3.49117E-14
 -1      3441 3.34775E-03-6.27869E-04-1.57295E-14
 -1      3442 3.52808E-03-6.86771E-04-1.71876E-14
 -1      3443 6.55575E-03 3.93152E-04-4.09117E-14
 -1      3444 6.55284E-03 3.82052E-04-4.14335E-14
 -1      3445 1.57919E-03-1.92172E-04-4.73082E-15
 -1      3446 1.73305E-03-2.11138E-04-5.52668E-15
 -1      3447 1.89109E-03-2.32292E-04-6.38371E-15
 -1      3448 2.05365E-03-2.57530E-04-7.30255E-15
 -1      3449 1.77090E-03-1.74038E-04-5.95676E-15
 -1      3450 2.22173E-03-2.87089E-04-8.28229E-15
 -1      3451 2.39491E-03-3.23572E-04-9.32384E-15
 -1      3452 2.09130E-03-2.15802E-04-7.78566E-15
 -1      3453 2.95538E-03-4.98355E-04-1.28441E-14
 -1      3454 3.14065E-03-5.62282E-04-1.41512E-14
 -1      3455 6.29052E-03 5.25596E-04-3.86442E-14
 -1      3456 6.43851E-03 4.75600E-04-4.01257E-14
 -1      3457 5.45945E-03-1.64938E-04-3.76833E-14
 -1      3458 5.63448E-03-1.05628E-04-3.99533E-14
 -1      3459 5.80453E-03-5.48779E-05-4.22759E-14
 -1      3460 5.96868E-03-1.01909E-05-4.46503E-14
 -1      3461 5.78313E-03-2.00395E-05-4.10389E-14
 -1      3462 6.12828E-03 2.85819E-05-4.70791E-14
 -1      3463 6.28353E-03 6.34087E-05-4.95584E-14
 -1      3464 6.10774E-03 6.18206E-05-4.57877E-14
 -1      3465 6.43531E-03 9.44131E-05-5.20875E-14
 -1      3466 6.58420E-03 1.22921E-04-5.46670E-14
 -1      3467 6.41275E-03 1.24779E-04-5.07420E-14
 -1      3468 6.73076E-03 1.49049E-04-5.72948E-14
 -1      3469 6.87558E-03 1.73615E-04-5.99702E-14
 -1      3470 6.70483E-03 1.76837E-04-5.58952E-14
 -1      3471 7.01899E-03 1.96740E-04-6.26947E-14
 -1      3472 7.16144E-03 2.18907E-04-6.54660E-14
 -1      3473 6.98926E-03 2.22685E-04-6.12417E-14
 -1      3474 7.30313E-03 2.40242E-04-6.82830E-14
 -1      3475 7.44438E-03 2.61029E-04-7.11468E-14
 -1      3476 7.26970E-03 2.65062E-04-6.67766E-14
 -1      3477 7.58528E-03 2.81385E-04-7.40549E-14
 -1      3478 7.72606E-03 3.01475E-04-7.70063E-14
 -1      3479 7.54847E-03 3.05627E-04-7.24952E-14
 -1      3480 7.86675E-03 3.21402E-04-8.00025E-14
 -1      3481 8.00749E-03 3.41257E-04-8.30420E-14
 -1      3482 7.82697E-03 3.45438E-04-7.83919E-14
 -1      3483 8.14827E-03 3.61126E-04-8.61232E-14
 -1      3484 8.28920E-03 3.81054E-04-8.92459E-14
 -1      3485 8.10599E-03 3.85179E-04-8.44613E-14
 -1      3486 8.43024E-03 4.01105E-04-9.24098E-14
 -1      3487 8.57146E-03 4.21299E-04-9.56158E-14
 -1      3488 8.38587E-03 4.25292E-04-9.06985E-14
 -1      3489 8.71281E-03 4.41679E-04-9.88602E-14
 -1      3490 8.85434E-03 4.62247E-04-1.02142E-13
 -1      3491 8.66676E-03 4.66048E-04-9.70990E-14
 -1      3492 8.99601E-03 4.83030E-04-1.05465E-13
 -1      3493 9.13783E-03 5.04021E-04-1.08827E-13
 -1      3494 8.94863E-03 5.07588E-04-1.03657E-13
 -1      3495 9.27978E-03 5.25232E-04-1.12224E-13
 -1      3496 9.42187E-03 5.46651E-04-1.15658E-13
 -1      3497 9.23137E-03 5.49963E-04-1.10369E-13
 -1      3498 9.56406E-03 5.68282E-04-1.19129E-13
 -1      3499 9.70636E-03 5.90109E-04-1.22636E-13
 -1      3500 9.51486E-03 5.93159E-04-1.17228E-13
 -1      3501 9.84874E-03 6.12128E-04-1.26177E-13
 -1      3502 9.99121E-03 6.34325E-04-1.29751E-13
 -1      3503 9.79897E-03 6.37123E-04-1.24232E-13
 -1      3504 1.01337E-02 6.56692E-04-1.33356E-13
 -1      3505 1.02764E-02 6.79214E-04-1.36994E-13
 -1      3506 1.00836E-02 6.81776E-04-1.31372E-13
 -1      3507 1.04190E-02 7.01882E-04-1.40659E-13
 -1      3508 1.05617E-02 7.24681E-04-1.44352E-13
 -1      3509 1.03685E-02 7.27030E-04-1.38636E-13
 -1      3510 1.07044E-02 7.47601E-04-1.48074E-13
 -1      3511 1.08472E-02 7.70632E-04-1.51822E-13
 -1      3512 1.06537E-02 7.72795E-04-1.46015E-13
 -1      3513 1.09900E-02 7.93761E-04-1.55595E-13
 -1      3514 1.11328E-02 8.16980E-04-1.59393E-13
 -1      3515 1.09392E-02 8.18984E-04-1.53504E-13
 -1      3516 1.12757E-02 8.40278E-04-1.63214E-13
 -1      3517 1.14185E-02 8.63647E-04-1.67054E-13
 -1      3518 1.12248E-02 8.65518E-04-1.61091E-13
 -1      3519 1.15614E-02 8.87079E-04-1.70914E-13
 -1      3520 1.17042E-02 9.10567E-04-1.74796E-13
 -1      3521 1.15104E-02 9.12328E-04-1.68768E-13
 -1      3522 1.18471E-02 9.34102E-04-1.78698E-13
 -1      3523 1.19900E-02 9.57681E-04-1.82616E-13
 -1      3524 1.17961E-02 9.59355E-04-1.76525E-13
 -1      3525 1.21329E-02 9.81296E-04-1.86551E-13
 -1      3526 1.22758E-02 1.00494E-03-1.90506E-13
 -1      3527 1.20819E-02 1.00655E-03-1.84355E-13
 -1      3528 1.24186E-02 1.02862E-03-1.94475E-13
 -1      3529 1.25615E-02 1.05232E-03-1.98460E-13
 -1      3530 1.23677E-02 1.05387E-03-1.92257E-13
 -1      3531 1.27044E-02 1.07603E-03-2.02460E-13
 -1      3532 1.28473E-02 1.09977E-03-2.06473E-13
 -1      3533 1.26535E-02 1.10128E-03-2.00222E-13
 -1      3534 1.29902E-02 1.12352E-03-2.10498E-13
 -1      3535 1.31331E-02 1.14727E-03-2.14534E-13
 -1      3536 1.29392E-02 1.14876E-03-2.08239E-13
 -1      3537 1.32759E-02 1.17104E-03-2.18577E-13
 -1      3538 1.34188E-02 1.19482E-03-2.22630E-13
 -1      3539 1.32250E-02 1.19628E-03-2.16304E-13
 -1      3540 6.92133E-03 6.32029E-04-5.04436E-14
 -1      3541 6.78412E-03 6.16266E-04-4.79445E-14
 -1      3542 1.37280E-02 1.31437E-03-2.29716E-13
 -1      3543 1.37514E-02 1.35654E-03-2.29409E-13
 -1      3544 7.46699E-03 7.17494E-04-6.09355E-14
 -1      3545 7.33021E-03 6.93570E-04-5.82401E-14
 -1      3546 7.74187E-03 7.68610E-04-6.64670E-14
 -1      3547 7.60412E-03 7.42562E-04-6.36768E-14
 -1      3548 7.53729E-03 6.99158E-04-6.25638E-14
 -1      3549 8.01889E-03 8.22607E-04-7.21832E-14
 -1      3550 7.88008E-03 7.95323E-04-6.93033E-14
 -1      3551 7.80724E-03 7.50708E-04-6.81479E-14
 -1      3552 8.29793E-03 8.78075E-04-7.80761E-14
 -1      3553 8.15815E-03 8.50210E-04-7.51085E-14
 -1      3554 8.08054E-03 8.04461E-04-7.39134E-14
 -1      3555 8.57867E-03 9.34006E-04-8.41377E-14
 -1      3556 8.43809E-03 9.06018E-04-8.10863E-14
 -1      3557 8.35674E-03 8.59317E-04-7.98525E-14
 -1      3558 8.86078E-03 9.89725E-04-9.03657E-14
 -1      3559 8.71956E-03 9.61913E-04-8.72307E-14
 -1      3560 8.63532E-03 9.14466E-04-8.59584E-14
 -1      3561 9.14393E-03 1.04482E-03-9.67561E-14
 -1      3562 9.00223E-03 1.01736E-03-9.35403E-14
 -1      3563 8.91576E-03 9.69355E-04-9.22287E-14
 -1      3564 9.42787E-03 1.09906E-03-1.03302E-13
 -1      3565 9.28581E-03 1.07205E-03-1.00010E-13
 -1      3566 9.19766E-03 1.02364E-03-9.86610E-14
 -1      3567 9.71237E-03 1.15237E-03-1.10001E-13
 -1      3568 9.57005E-03 1.12583E-03-1.06633E-13
 -1      3569 9.48066E-03 1.07715E-03-1.05249E-13
 -1      3570 9.99729E-03 1.20476E-03-1.16842E-13
 -1      3571 9.85478E-03 1.17868E-03-1.13405E-13
 -1      3572 9.76447E-03 1.12981E-03-1.11987E-13
 -1      3573 1.02825E-02 1.25628E-03-1.23815E-13
 -1      3574 1.01399E-02 1.23062E-03-1.20312E-13
 -1      3575 1.00489E-02 1.18164E-03-1.18864E-13
 -1      3576 1.05679E-02 1.30703E-03-1.30914E-13
 -1      3577 1.04252E-02 1.28174E-03-1.27349E-13
 -1      3578 1.03337E-02 1.23269E-03-1.25873E-13
 -1      3579 1.08535E-02 1.35711E-03-1.38135E-13
 -1      3580 1.07107E-02 1.33215E-03-1.34509E-13
 -1      3581 1.06189E-02 1.28306E-03-1.33006E-13
 -1      3582 1.11391E-02 1.40663E-03-1.45469E-13
 -1      3583 1.09963E-02 1.38194E-03-1.41789E-13
 -1      3584 1.09043E-02 1.33283E-03-1.40256E-13
 -1      3585 1.14248E-02 1.45569E-03-1.52916E-13
 -1      3586 1.12819E-02 1.43121E-03-1.49180E-13
 -1      3587 1.11898E-02 1.38211E-03-1.47625E-13
 -1      3588 1.17105E-02 1.50437E-03-1.60463E-13
 -1      3589 1.15676E-02 1.48007E-03-1.56678E-13
 -1      3590 1.14755E-02 1.43097E-03-1.55101E-13
 -1      3591 1.19963E-02 1.55276E-03-1.68105E-13
 -1      3592 1.18534E-02 1.52860E-03-1.64274E-13
 -1      3593 1.17612E-02 1.47951E-03-1.62677E-13
 -1      3594 1.22820E-02 1.60092E-03-1.75827E-13
 -1      3595 1.21391E-02 1.57687E-03-1.71955E-13
 -1      3596 1.20469E-02 1.52779E-03-1.70342E-13
 -1      3597 1.25678E-02 1.64891E-03-1.83621E-13
 -1      3598 1.24249E-02 1.62494E-03-1.79715E-13
 -1      3599 1.23327E-02 1.57587E-03-1.78086E-13
 -1      3600 1.28535E-02 1.69677E-03-1.91481E-13
 -1      3601 1.27107E-02 1.67285E-03-1.87543E-13
 -1      3602 1.26185E-02 1.62379E-03-1.85901E-13
 -1      3603 1.31393E-02 1.74453E-03-1.99404E-13
 -1      3604 1.29964E-02 1.72066E-03-1.95435E-13
 -1      3605 1.29042E-02 1.67161E-03-1.93783E-13
 -1      3606 1.34251E-02 1.79223E-03-2.07376E-13
 -1      3607 1.32822E-02 1.76838E-03-2.03383E-13
 -1      3608 1.31900E-02 1.71934E-03-2.01722E-13
 -1      3609 1.37108E-02 1.83988E-03-2.15388E-13
 -1      3610 1.35679E-02 1.81606E-03-2.11378E-13
 -1      3611 1.34758E-02 1.76702E-03-2.09708E-13
 -1      3612 1.39965E-02 1.88750E-03-2.23426E-13
 -1      3613 1.38537E-02 1.86369E-03-2.19405E-13
 -1      3614 1.37615E-02 1.81466E-03-2.17730E-13
 -1      3615 6.52948E-03 4.36092E-04-4.09569E-14
 -1      3616 6.55353E-03 4.12191E-04-4.09407E-14
 -1      3617 6.61711E-03 4.16854E-04-4.26403E-14
 -1      3618 1.42914E-02 1.89421E-03-2.32903E-13
 -1      3619 1.43164E-02 1.93177E-03-2.32698E-13
 -1      3620 1.42284E-02 1.92183E-03-2.30084E-13
 -1      3621 1.41561E-02 1.85269E-03-2.29596E-13
 -1      3622 2.36630E-03-1.73134E-04-1.00462E-14
 -1      3623 2.18886E-03-7.91432E-05-9.48086E-15
 -1      3624 3.63597E-03-7.10269E-04-1.81201E-14
 -1      3625 2.06309E-03 3.17548E-04-7.38601E-15
 -1      3626 1.72256E-03 1.07249E-04-8.21171E-15
 -1      3627 1.67068E-03 1.27297E-04-8.16139E-15
 -1      3628 1.82158E-03 2.08945E-04-7.56613E-15
 -1      3629 1.95158E-03 2.52221E-04-7.76775E-15
 -1      3630 7.19391E-03 6.71156E-04-5.55917E-14
 -1      3631 7.05758E-03 6.50525E-04-5.29927E-14
 -1      3632 7.27092E-03 6.51219E-04-5.71684E-14
 -1      3633 1.13366E-03-1.39793E-04-2.70815E-15
 -1      3634 1.93265E-03 2.83681E-04-6.74446E-15
 -1      3635 8.95776E-04 1.05022E-05-2.27753E-15
 -1      3636 9.12306E-04-6.55361E-06-2.28776E-15
 -1      3637 1.02885E-03-1.70134E-05-2.77071E-15
 -1      3638 1.31577E-03-1.54798E-04-3.51080E-15
 -1      3639 4.98211E-03-3.55893E-04-3.20157E-14
 -1      3640 5.60142E-03 1.51756E-05-3.61558E-14
 -1      3641 5.68477E-03 2.00607E-05-3.79095E-14
 -1      3642 5.51476E-03-8.02451E-05-3.69878E-14
 -1      3643 1.64808E-03 1.57233E-04-7.44501E-15
 -1      3644 1.71005E-03 1.74610E-04-7.44833E-15
 -1      3645 5.16794E-03-2.74730E-04-3.41345E-14
 -1      3646 1.31355E-03 2.14448E-04-2.98583E-15
 -1      3647 1.24632E-03 1.87735E-04-2.89891E-15
 -1      3648 1.45277E-03 2.35642E-04-3.59332E-15
 -1      3649 6.40779E-03 5.77894E-04-4.13283E-14
 -1      3650 6.26220E-03 5.78059E-04-3.90194E-14
 -1      3651 6.09392E-03 6.00595E-04-3.67368E-14
 -1      3652 1.21545E-03-9.48134E-05-3.29528E-15
 -1      3653 1.42749E-03-1.51422E-04-4.10567E-15
 -1      3654 1.46624E-03-1.20273E-04-4.47754E-15
 -1      3655 1.18382E-03-6.22764E-05-3.29898E-15
 -1      3656 2.71939E-03-4.14727E-04-1.13246E-14
 -1      3657 2.78527E-03-4.00442E-04-1.19123E-14
 -1      3658 2.54993E-03-2.76043E-04-1.07459E-14
 -1      3659 2.53773E-03-3.64338E-04-1.01681E-14
 -1      3660 1.20257E-03 1.59893E-04-2.97920E-15
 -1      3661 1.39610E-02 1.73426E-03-2.26402E-13
 -1      3662 1.39844E-02 1.77643E-03-2.26040E-13
 -1      3663 6.60064E-03 3.85503E-04-4.31051E-14
 -1      3664 6.53320E-03 3.68963E-04-4.19208E-14
 -1      3665 6.49901E-03 3.52727E-04-4.24012E-14
 -1      3666 1.08062E-03 9.10724E-05-3.11284E-15
 -1      3667 1.06788E-03 7.74453E-05-3.15749E-15
 -1      3668 1.37745E-02 1.39835E-03-2.29100E-13
 -1      3669 1.37977E-02 1.44016E-03-2.28783E-13
 -1      3670 1.36391E-02 1.35666E-03-2.25743E-13
 -1      3671 2.40187E-03-2.80213E-04-9.60686E-15
 -1      3672 6.53476E-03 4.72770E-04-4.18222E-14
 -1      3673 2.37594E-03-2.21670E-04-9.77793E-15
 -1      3674 1.38767E-02 1.78660E-03-2.22246E-13
 -1      3675 1.40122E-02 1.82830E-03-2.25546E-13
 -1      3676 7.00774E-03 6.08575E-04-5.19657E-14
 -1      3677 1.35213E-02 1.20462E-03-2.25724E-13
 -1      3678 1.36440E-02 1.22218E-03-2.29292E-13
 -1      3679 1.36752E-02 1.24948E-03-2.29628E-13
 -1      3680 1.34703E-02 1.22986E-03-2.23436E-13
 -1      3681 6.64592E-03 6.03608E-04-4.54963E-14
 -1      3682 6.50489E-03 5.95429E-04-4.30983E-14
 -1      3683 1.41404E-02 1.91190E-03-2.27474E-13
 -1      3684 1.61866E-03 1.27058E-04-7.67115E-15
 -1      3685 1.40483E-02 1.86287E-03-2.25794E-13
 -1      3686 1.58263E-03 1.39375E-04-7.17314E-15
 -1      3687 1.61128E-03 1.47452E-04-7.30949E-15
 -1      3688 1.58400E-03 1.48777E-04-6.75593E-15
 -1      3689 1.38674E-02 1.56590E-03-2.27801E-13
 -1      3690 1.38908E-02 1.60798E-03-2.27461E-13
 -1      3691 1.15752E-03 7.95068E-05-3.72732E-15
 -1      3692 1.06382E-03 6.44439E-05-3.19581E-15
 -1      3693 1.06813E-03 5.05369E-05-3.22798E-15
 -1      3694 1.71949E-03 1.87389E-04-7.00177E-15
 -1      3695 2.06888E-03-8.82375E-05-8.51242E-15
 -1      3696 2.05731E-03-3.95762E-05-8.86402E-15
 -1      3697 1.93313E-03-9.06435E-06-8.26840E-15
 -1      3698 9.89124E-04 2.17148E-05-2.74592E-15
 -1      3699 1.75639E-03 8.34274E-05-8.09457E-15
 -1      3700 1.66148E-03 9.00910E-05-7.48412E-15
 -1      3701 1.79348E-03 5.43765E-05-7.97372E-15
 -1      3702 1.81975E-03 2.66606E-04-5.98761E-15
 -1      3703 1.70676E-03 2.50581E-04-5.27418E-15
 -1      3704 1.73820E-03 2.14393E-04-6.33474E-15
 -1      3705 6.74608E-03 5.73352E-04-4.69602E-14
 -1      3706 6.25079E-03 2.81652E-04-4.04433E-14
 -1      3707 6.20508E-03 2.49117E-04-4.11831E-14
 -1      3708 6.37044E-03 3.08560E-04-4.19712E-14
 -1      3709 5.35510E-03-1.79433E-04-3.59543E-14
 -1      3710 1.37065E-02 1.27678E-03-2.29961E-13
 -1      3711 5.88583E-03 1.16279E-04-3.92715E-14
 -1      3712 5.79810E-03 2.65570E-05-4.01329E-14
 -1      3713 5.96206E-03 6.88344E-05-4.24609E-14
 -1      3714 6.01971E-03 1.62631E-04-4.05980E-14
 -1      3715 1.35944E-02 1.27726E-03-2.26291E-13
 -1      3716 6.52448E-03 5.39138E-04-4.27367E-14
 -1      3717 1.38210E-02 1.48212E-03-2.28462E-13
 -1      3718 1.38441E-02 1.52393E-03-2.28135E-13
 -1      3719 1.37321E-02 1.52437E-03-2.24467E-13
 -1      3720 1.36855E-02 1.44044E-03-2.25117E-13
 -1      3721 1.39376E-02 1.69218E-03-2.26761E-13
 -1      3722 1.38256E-02 1.69265E-03-2.23091E-13
 -1      3723 1.39142E-02 1.65011E-03-2.27113E-13
 -1      3724 7.86930E-03 7.33794E-04-6.98326E-14
 -1      3725 7.73562E-03 7.07780E-04-6.69924E-14
 -1      3726 1.10183E-03 1.06180E-04-3.06204E-15
 -1      3727 1.18622E-03 1.08289E-04-3.62667E-15
 -1      3728 1.13061E-03 1.24206E-04-3.00344E-15
 -1      3729 1.37061E-02 1.71092E-03-2.18711E-13
 -1      3730 1.37338E-02 1.76279E-03-2.18227E-13
 -1      3731 1.35909E-02 1.73898E-03-2.14212E-13
 -1      3732 7.08653E-03 5.89305E-04-5.34915E-14
 -1      3733 6.96063E-03 5.68893E-04-5.09361E-14
 -1      3734 6.11916E-03 1.03649E-04-4.48424E-14
 -1      3735 6.27110E-03 1.34542E-04-4.72737E-14
 -1      3736 6.13795E-03 1.47044E-04-4.38925E-14
 -1      3737 6.41852E-03 1.61568E-04-4.97550E-14
 -1      3738 6.56292E-03 1.86593E-04-5.22877E-14
 -1      3739 6.42903E-03 1.98756E-04-4.87656E-14
 -1      3740 6.70466E-03 2.09674E-04-5.48687E-14
 -1      3741 6.84484E-03 2.31740E-04-5.74977E-14
 -1      3742 6.70742E-03 2.42222E-04-5.38389E-14
 -1      3743 6.98364E-03 2.52860E-04-6.01752E-14
 -1      3744 7.12178E-03 2.73468E-04-6.29000E-14
 -1      3745 6.97979E-03 2.82382E-04-5.91053E-14
 -1      3746 7.25933E-03 2.93650E-04-6.56705E-14
 -1      3747 7.39676E-03 3.13603E-04-6.84871E-14
 -1      3748 7.25004E-03 3.21423E-04-6.45616E-14
 -1      3749 7.53409E-03 3.33420E-04-7.13494E-14
 -1      3750 7.67159E-03 3.53180E-04-7.42563E-14
 -1      3751 7.52038E-03 3.60345E-04-7.02016E-14
 -1      3752 7.80926E-03 3.72970E-04-7.72070E-14
 -1      3753 7.94725E-03 3.92810E-04-8.02012E-14
 -1      3754 7.79199E-03 3.99653E-04-7.60194E-14
 -1      3755 8.08554E-03 4.12777E-04-8.32379E-14
 -1      3756 8.22421E-03 4.32866E-04-8.63165E-14
 -1      3757 8.06541E-03 4.39585E-04-8.20124E-14
 -1      3758 8.36322E-03 4.53141E-04-8.94369E-14
 -1      3759 8.50261E-03 4.73579E-04-9.25976E-14
 -1      3760 8.34081E-03 4.80280E-04-8.81735E-14
 -1      3761 8.64234E-03 4.94231E-04-9.57999E-14
 -1      3762 8.78243E-03 5.15068E-04-9.90405E-14
 -1      3763 8.61813E-03 5.21795E-04-9.44990E-14
 -1      3764 8.92282E-03 5.36125E-04-1.02321E-13
 -1      3765 9.06353E-03 5.57373E-04-1.05640E-13
 -1      3766 8.89719E-03 5.64136E-04-1.00984E-13
 -1      3767 9.20450E-03 5.78836E-04-1.08996E-13
 -1      3768 9.34573E-03 6.00484E-04-1.12390E-13
 -1      3769 9.17778E-03 6.07272E-04-1.07622E-13
 -1      3770 9.48718E-03 6.22330E-04-1.15821E-13
 -1      3771 9.62884E-03 6.44349E-04-1.19287E-13
 -1      3772 9.45962E-03 6.51149E-04-1.14413E-13
 -1      3773 9.77068E-03 6.66546E-04-1.22790E-13
 -1      3774 9.91268E-03 6.88899E-04-1.26328E-13
 -1      3775 9.74250E-03 6.95690E-04-1.21348E-13
 -1      3776 1.00548E-02 7.11406E-04-1.29899E-13
 -1      3777 1.01971E-02 7.34049E-04-1.33500E-13
 -1      3778 1.00262E-02 7.40818E-04-1.28425E-13
 -1      3779 1.03395E-02 7.56824E-04-1.37131E-13
 -1      3780 1.04819E-02 7.79715E-04-1.40793E-13
 -1      3781 1.03105E-02 7.86451E-04-1.35627E-13
 -1      3782 1.06245E-02 8.02715E-04-1.44485E-13
 -1      3783 1.07671E-02 8.25812E-04-1.48202E-13
 -1      3784 1.05953E-02 8.32510E-04-1.42950E-13
 -1      3785 1.09098E-02 8.48999E-04-1.51944E-13
 -1      3786 1.10525E-02 8.72264E-04-1.55713E-13
 -1      3787 1.08804E-02 8.78922E-04-1.50385E-13
 -1      3788 1.11953E-02 8.95602E-04-1.59509E-13
 -1      3789 1.13381E-02 9.19003E-04-1.63325E-13
 -1      3790 1.11658E-02 9.25620E-04-1.57923E-13
 -1      3791 1.14809E-02 9.42461E-04-1.67162E-13
 -1      3792 1.16237E-02 9.65969E-04-1.71021E-13
 -1      3793 1.14514E-02 9.72548E-04-1.65557E-13
 -1      3794 1.17666E-02 9.89521E-04-1.74900E-13
 -1      3795 1.19094E-02 1.01311E-03-1.78798E-13
 -1      3796 1.17370E-02 1.01966E-03-1.73275E-13
 -1      3797 1.20523E-02 1.03674E-03-1.82715E-13
 -1      3798 1.21952E-02 1.06039E-03-1.86648E-13
 -1      3799 1.20228E-02 1.06690E-03-1.81068E-13
 -1      3800 1.23381E-02 1.08407E-03-1.90596E-13
 -1      3801 1.24810E-02 1.10777E-03-1.94562E-13
 -1      3802 1.23085E-02 1.11426E-03-1.88935E-13
 -1      3803 1.26239E-02 1.13149E-03-1.98546E-13
 -1      3804 1.27668E-02 1.15522E-03-2.02541E-13
 -1      3805 1.25943E-02 1.16169E-03-1.96868E-13
 -1      3806 1.29097E-02 1.17897E-03-2.06549E-13
 -1      3807 1.30526E-02 1.20273E-03-2.10569E-13
 -1      3808 1.28801E-02 1.20918E-03-2.04856E-13
 -1      3809 1.31955E-02 1.22650E-03-2.14597E-13
 -1      3810 1.33384E-02 1.25027E-03-2.18637E-13
 -1      3811 1.31659E-02 1.25671E-03-2.12891E-13
 -1      3812 1.34919E-02 1.26745E-03-2.23199E-13
 -1      3813 2.23428E-03-1.87728E-04-8.95821E-15
 -1      3814 8.13975E-03 7.86933E-04-7.56459E-14
 -1      3815 8.00401E-03 7.60176E-04-7.27168E-14
 -1      3816 7.92824E-03 7.17378E-04-7.15203E-14
 -1      3817 2.10162E-03-1.80707E-04-8.07399E-15
 -1      3818 2.07115E-03-1.25965E-04-8.23168E-15
 -1      3819 1.94879E-03-8.97865E-05-7.65989E-15
 -1      3820 1.93948E-03-1.59547E-04-7.11524E-15
 -1      3821 7.60318E-03 6.82405E-04-6.41976E-14
 -1      3822 7.47192E-03 6.57652E-04-6.14507E-14
 -1      3823 7.66485E-03 6.66559E-04-6.58359E-14
 -1      3824 8.41377E-03 8.40942E-04-8.16294E-14
 -1      3825 8.27634E-03 8.13853E-04-7.86177E-14
 -1      3826 8.19664E-03 7.69659E-04-7.73808E-14
 -1      3827 8.69066E-03 8.95157E-04-8.77803E-14
 -1      3828 8.55188E-03 8.68041E-04-8.46845E-14
 -1      3829 8.46909E-03 8.22676E-04-8.34097E-14
 -1      3830 8.96983E-03 9.49117E-04-9.40952E-14
 -1      3831 8.82998E-03 9.22179E-04-9.09177E-14
 -1      3832 8.74477E-03 8.75874E-04-8.96052E-14
 -1      3833 9.25075E-03 1.00254E-03-1.00568E-13
 -1      3834 9.11009E-03 9.75899E-04-9.73117E-14
 -1      3835 9.02300E-03 9.28858E-04-9.59634E-14
 -1      3836 9.53301E-03 1.05527E-03-1.07198E-13
 -1      3837 9.39173E-03 1.02899E-03-1.03864E-13
 -1      3838 9.30321E-03 9.81383E-04-1.02478E-13
 -1      3839 9.81629E-03 1.10725E-03-1.13973E-13
 -1      3840 9.67453E-03 1.08135E-03-1.10567E-13
 -1      3841 9.58493E-03 1.03332E-03-1.09147E-13
 -1      3842 1.01003E-02 1.15850E-03-1.20887E-13
 -1      3843 9.95822E-03 1.13296E-03-1.17413E-13
 -1      3844 9.86781E-03 1.08463E-03-1.15962E-13
 -1      3845 1.03849E-02 1.20908E-03-1.27930E-13
 -1      3846 1.02425E-02 1.18387E-03-1.24393E-13
 -1      3847 1.01516E-02 1.13531E-03-1.22912E-13
 -1      3848 1.06699E-02 1.25906E-03-1.35097E-13
 -1      3849 1.05273E-02 1.23414E-03-1.31498E-13
 -1      3850 1.04359E-02 1.18541E-03-1.29991E-13
 -1      3851 1.09551E-02 1.30852E-03-1.42384E-13
 -1      3852 1.08125E-02 1.28385E-03-1.38725E-13
 -1      3853 1.07208E-02 1.23501E-03-1.37191E-13
 -1      3854 1.12406E-02 1.35755E-03-1.49782E-13
 -1      3855 1.10979E-02 1.33309E-03-1.46069E-13
 -1      3856 1.10060E-02 1.28417E-03-1.44511E-13
 -1      3857 1.15262E-02 1.40623E-03-1.57286E-13
 -1      3858 1.13834E-02 1.38193E-03-1.53520E-13
 -1      3859 1.12914E-02 1.33296E-03-1.51942E-13
 -1      3860 1.18119E-02 1.45462E-03-1.64891E-13
 -1      3861 1.16690E-02 1.43046E-03-1.61077E-13
 -1      3862 1.15769E-02 1.38145E-03-1.59477E-13
 -1      3863 1.20976E-02 1.50279E-03-1.72579E-13
 -1      3864 1.19548E-02 1.47873E-03-1.68724E-13
 -1      3865 1.18626E-02 1.42971E-03-1.67104E-13
 -1      3866 1.23834E-02 1.55079E-03-1.80349E-13
 -1      3867 1.22405E-02 1.52681E-03-1.76456E-13
 -1      3868 1.21484E-02 1.47778E-03-1.74821E-13
 -1      3869 1.26692E-02 1.59866E-03-1.88184E-13
 -1      3870 1.25263E-02 1.57474E-03-1.84257E-13
 -1      3871 1.24341E-02 1.52570E-03-1.82611E-13
 -1      3872 1.29550E-02 1.64644E-03-1.96087E-13
 -1      3873 1.28121E-02 1.62256E-03-1.92128E-13
 -1      3874 1.27199E-02 1.57352E-03-1.90470E-13
 -1      3875 1.32407E-02 1.69415E-03-2.04040E-13
 -1      3876 1.30979E-02 1.67030E-03-2.00056E-13
 -1      3877 1.30057E-02 1.62126E-03-1.98386E-13
 -1      3878 1.34873E-02 1.72848E-03-2.11120E-13
 -1      3879 1.33444E-02 1.70466E-03-2.07118E-13
 -1      3880 1.32522E-02 1.65562E-03-2.05439E-13
 -1      3881 1.34595E-02 1.67662E-03-2.11607E-13
 -1      3882 6.68476E-03 4.37923E-04-4.44209E-14
 -1      3883 6.67926E-03 4.16955E-04-4.43930E-14
 -1      3884 1.12518E-03-7.37537E-06-3.28733E-15
 -1      3885 1.15323E-03-3.29917E-05-3.29607E-15
 -1      3886 1.28504E-03-5.36896E-05-3.86542E-15
 -1      3887 7.34210E-03 6.33837E-04-5.87496E-14
 -1      3888 7.21353E-03 6.10934E-04-5.60957E-14
 -1      3889 7.40756E-03 6.18062E-04-6.03341E-14
 -1      3890 1.08030E-03 3.51201E-05-3.25417E-15
 -1      3891 1.09904E-03 1.67026E-05-3.27471E-15
 -1      3892 1.16907E-03 4.99140E-05-3.80089E-15
 -1      3893 6.67463E-03 5.32733E-04-4.52767E-14
 -1      3894 6.58922E-03 5.10769E-04-4.34656E-14
 -1      3895 6.66470E-03 4.73191E-04-4.43307E-14
 -1      3896 6.79909E-03 5.49083E-04-4.77191E-14
 -1      3897 1.37788E-02 1.60846E-03-2.23792E-13
 -1      3898 1.63291E-03-1.30345E-04-5.37627E-15
 -1      3899 1.78372E-03-1.43625E-04-6.21630E-15
 -1      3900 1.79323E-03-1.12022E-04-6.47506E-15
 -1      3901 1.64008E-03 2.51109E-04-4.71528E-15
 -1      3902 1.52506E-03 2.36035E-04-4.08466E-15
 -1      3903 1.45064E-03 2.07049E-04-3.97960E-15
 -1      3904 1.58023E-03 2.05299E-04-5.03348E-15
 -1      3905 1.28967E-03 1.61072E-04-3.54297E-15
 -1      3906 1.57089E-03 1.10872E-04-7.03901E-15
 -1      3907 1.56564E-03 1.25658E-04-7.10948E-15
 -1      3908 1.51924E-03 1.24574E-04-6.56734E-15
 -1      3909 1.63324E-03 1.78623E-04-6.23516E-15
 -1      3910 1.34624E-02 1.29767E-03-2.21480E-13
 -1      3911 6.56445E-03 3.55636E-04-4.43789E-14
 -1      3912 6.47278E-03 3.34273E-04-4.31707E-14
 -1      3913 6.44345E-03 3.11522E-04-4.39367E-14
 -1      3914 1.29355E-03 1.26650E-04-4.16416E-15
 -1      3915 1.26541E-03 1.09740E-04-4.22785E-15
 -1      3916 1.36827E-02 1.66885E-03-2.19067E-13
 -1      3917 6.68097E-03 4.03538E-04-4.49026E-14
 -1      3918 6.67016E-03 3.89744E-04-4.54059E-14
 -1      3919 6.76140E-03 4.23356E-04-4.67256E-14
 -1      3920 1.21644E-03 6.78829E-06-3.84688E-15
 -1      3921 7.15753E-03 5.72767E-04-5.50220E-14
 -1      3922 1.35967E-02 1.48278E-03-2.21135E-13
 -1      3923 1.36200E-02 1.52474E-03-2.20807E-13
 -1      3924 1.35560E-03 1.61113E-04-4.02327E-15
 -1      3925 6.75060E-03 4.70489E-04-4.61227E-14
 -1      3926 6.88098E-03 5.29600E-04-4.91884E-14
 -1      3927 1.24931E-03 9.57765E-05-4.28382E-15
 -1      3928 1.24539E-03 8.13499E-05-4.33277E-15
 -1      3929 1.34188E-03 1.11902E-04-4.87361E-15
 -1      3930 1.50001E-03 1.43404E-04-5.80244E-15
 -1      3931 1.48950E-03 1.60041E-04-5.20708E-15
 -1      3932 1.81052E-03 1.64737E-05-7.65151E-15
 -1      3933 1.69788E-03 3.37664E-05-7.05843E-15
 -1      3934 1.82066E-03-2.43445E-05-7.32711E-15
 -1      3935 1.34855E-02 1.33947E-03-2.21179E-13
 -1      3936 1.59749E-03 7.58639E-05-6.82032E-15
 -1      3937 1.58064E-03 9.50956E-05-6.93133E-15
 -1      3938 1.50979E-03 9.65966E-05-6.39887E-15
 -1      3939 1.36434E-02 1.56686E-03-2.20469E-13
 -1      3940 1.36668E-02 1.60898E-03-2.20126E-13
 -1      3941 1.35079E-02 1.52527E-03-2.17149E-13
 -1      3942 1.48133E-03-9.50115E-05-4.70354E-15
 -1      3943 6.18244E-03 2.20454E-04-4.20618E-14
 -1      3944 6.14736E-03 1.76881E-04-4.30149E-14
 -1      3945 6.29103E-03 2.02091E-04-4.54081E-14
 -1      3946 6.31495E-03 2.56286E-04-4.36183E-14
 -1      3947 1.46753E-03 1.26603E-04-5.87782E-15
 -1      3948 1.81011E-03-8.53141E-05-6.77091E-15
 -1      3949 1.81174E-03-5.21199E-05-7.02961E-15
 -1      3950 1.69411E-03-2.70683E-05-6.46297E-15
 -1      3951 1.66404E-03-7.75194E-05-5.89908E-15
 -1      3952 1.43147E-03 1.61001E-04-4.66172E-15
 -1      3953 1.35473E-02 1.62725E-03-2.15759E-13
 -1      3954 1.35734E-02 1.44081E-03-2.21457E-13
 -1      3955 1.34613E-02 1.44119E-03-2.17804E-13
 -1      3956 1.35501E-02 1.39885E-03-2.21773E-13
 -1      3957 6.43010E-03 2.24112E-04-4.78511E-14
 -1      3958 6.56689E-03 2.44690E-04-5.03447E-14
 -1      3959 6.43468E-03 2.49440E-04-4.69368E-14
 -1      3960 6.70147E-03 2.64197E-04-5.28871E-14
 -1      3961 6.83522E-03 2.83283E-04-5.54780E-14
 -1      3962 6.69751E-03 2.85828E-04-5.19365E-14
 -1      3963 6.96817E-03 3.02161E-04-5.81176E-14
 -1      3964 7.10107E-03 3.21002E-04-6.08044E-14
 -1      3965 6.95764E-03 3.21436E-04-5.71303E-14
 -1      3966 7.23393E-03 3.39940E-04-6.35375E-14
 -1      3967 7.36714E-03 3.58985E-04-6.63174E-14
 -1      3968 7.21840E-03 3.57908E-04-6.25144E-14
 -1      3969 7.50069E-03 3.78259E-04-6.91412E-14
 -1      3970 7.63481E-03 3.97711E-04-7.20106E-14
 -1      3971 7.48133E-03 3.95608E-04-6.80828E-14
 -1      3972 7.76947E-03 4.17420E-04-7.49255E-14
 -1      3973 7.90476E-03 4.37316E-04-7.78829E-14
 -1      3974 7.74713E-03 4.34653E-04-7.38313E-14
 -1      3975 8.04064E-03 4.57472E-04-8.08829E-14
 -1      3976 8.17715E-03 4.77829E-04-8.39263E-14
 -1      3977 8.01598E-03 4.74867E-04-7.97554E-14
 -1      3978 8.31425E-03 4.98444E-04-8.70116E-14
 -1      3979 8.45193E-03 5.19256E-04-9.01360E-14
 -1      3980 8.28776E-03 5.16164E-04-8.58501E-14
 -1      3981 8.59015E-03 5.40310E-04-9.33022E-14
 -1      3982 8.72889E-03 5.61553E-04-9.65090E-14
 -1      3983 8.56224E-03 5.58434E-04-9.21074E-14
 -1      3984 8.86811E-03 5.83017E-04-9.97537E-14
 -1      3985 9.00777E-03 6.04658E-04-1.03038E-13
 -1      3986 8.83908E-03 6.01564E-04-9.85260E-14
 -1      3987 9.14783E-03 6.26501E-04-1.06362E-13
 -1      3988 9.28826E-03 6.48508E-04-1.09722E-13
 -1      3989 9.11793E-03 6.45447E-04-1.05102E-13
 -1      3990 9.42902E-03 6.70691E-04-1.13120E-13
 -1      3991 9.57008E-03 6.93018E-04-1.16556E-13
 -1      3992 9.39846E-03 6.90002E-04-1.11830E-13
 -1      3993 9.71140E-03 7.15498E-04-1.20026E-13
 -1      3994 9.85296E-03 7.38108E-04-1.23533E-13
 -1      3995 9.68034E-03 7.35121E-04-1.18706E-13
 -1      3996 9.99472E-03 7.60848E-04-1.27073E-13
 -1      3997 1.01367E-02 7.83699E-04-1.30646E-13
 -1      3998 9.96329E-03 7.80731E-04-1.25724E-13
 -1      3999 1.02788E-02 8.06660E-04-1.34250E-13
 -1      4000 1.04210E-02 8.29714E-04-1.37881E-13
 -1      4001 1.02471E-02 8.26754E-04-1.32872E-13
 -1      4002 1.05634E-02 8.52859E-04-1.41545E-13
 -1      4003 1.07058E-02 8.76081E-04-1.45239E-13
 -1      4004 1.05315E-02 8.73120E-04-1.40143E-13
 -1      4005 1.08484E-02 8.99377E-04-1.48958E-13
 -1      4006 1.09910E-02 9.22737E-04-1.52701E-13
 -1      4007 1.08163E-02 9.19768E-04-1.47530E-13
 -1      4008 1.11337E-02 9.46156E-04-1.56472E-13
 -1      4009 1.12764E-02 9.69625E-04-1.60269E-13
 -1      4010 1.11015E-02 9.66643E-04-1.55023E-13
 -1      4011 1.14192E-02 9.93142E-04-1.64087E-13
 -1      4012 1.15620E-02 1.01670E-03-1.67928E-13
 -1      4013 1.13870E-02 1.01370E-03-1.62617E-13
 -1      4014 1.17048E-02 1.04029E-03-1.71787E-13
 -1      4015 1.18476E-02 1.06392E-03-1.75666E-13
 -1      4016 1.16726E-02 1.06090E-03-1.70300E-13
 -1      4017 1.19905E-02 1.08757E-03-1.79566E-13
 -1      4018 1.21334E-02 1.11124E-03-1.83485E-13
 -1      4019 1.19583E-02 1.10821E-03-1.78063E-13
 -1      4020 1.22763E-02 1.13494E-03-1.87419E-13
 -1      4021 1.24192E-02 1.15865E-03-1.91367E-13
 -1      4022 1.22440E-02 1.15561E-03-1.85900E-13
 -1      4023 1.25621E-02 1.18238E-03-1.95333E-13
 -1      4024 1.27050E-02 1.20613E-03-1.99316E-13
 -1      4025 1.25298E-02 1.20307E-03-1.93802E-13
 -1      4026 1.28479E-02 1.22988E-03-2.03310E-13
 -1      4027 1.29908E-02 1.25364E-03-2.07317E-13
 -1      4028 1.28156E-02 1.25057E-03-2.01764E-13
 -1      4029 8.52281E-03 8.04438E-04-8.51926E-14
 -1      4030 8.38659E-03 7.78405E-04-8.21347E-14
 -1      4031 8.79771E-03 8.56556E-04-9.14321E-14
 -1      4032 8.65987E-03 8.30481E-04-8.82916E-14
 -1      4033 8.57510E-03 7.86011E-04-8.69780E-14
 -1      4034 9.07533E-03 9.08530E-04-9.78327E-14
 -1      4035 8.93622E-03 8.82566E-04-9.46137E-14
 -1      4036 8.84960E-03 8.37042E-04-9.32621E-14
 -1      4037 9.35507E-03 9.60146E-04-1.04390E-13
 -1      4038 9.21496E-03 9.34384E-04-1.01091E-13
 -1      4039 9.12691E-03 8.88013E-04-9.97054E-14
 -1      4040 9.63644E-03 1.01129E-03-1.11099E-13
 -1      4041 9.49557E-03 9.85775E-04-1.07726E-13
 -1      4042 9.40640E-03 9.38735E-04-1.06304E-13
 -1      4043 9.91906E-03 1.06191E-03-1.17952E-13
 -1      4044 9.77761E-03 1.03666E-03-1.14508E-13
 -1      4045 9.68758E-03 9.89102E-04-1.13053E-13
 -1      4046 1.02026E-02 1.11203E-03-1.24938E-13
 -1      4047 1.00607E-02 1.08703E-03-1.21429E-13
 -1      4048 9.97006E-03 1.03907E-03-1.19944E-13
 -1      4049 1.04869E-02 1.16167E-03-1.32053E-13
 -1      4050 1.03447E-02 1.13690E-03-1.28482E-13
 -1      4051 1.02535E-02 1.08864E-03-1.26969E-13
 -1      4052 1.07716E-02 1.21089E-03-1.39289E-13
 -1      4053 1.06292E-02 1.18633E-03-1.35655E-13
 -1      4054 1.05377E-02 1.13783E-03-1.34120E-13
 -1      4055 1.10567E-02 1.25976E-03-1.46643E-13
 -1      4056 1.09141E-02 1.23537E-03-1.42952E-13
 -1      4057 1.08224E-02 1.18670E-03-1.41389E-13
 -1      4058 1.13421E-02 1.30832E-03-1.54103E-13
 -1      4059 1.11994E-02 1.28407E-03-1.50359E-13
 -1      4060 1.11075E-02 1.23529E-03-1.48775E-13
 -1      4061 1.16277E-02 1.35664E-03-1.61668E-13
 -1      4062 1.14849E-02 1.33251E-03-1.57873E-13
 -1      4063 1.13929E-02 1.28363E-03-1.56269E-13
 -1      4064 1.19133E-02 1.40477E-03-1.69324E-13
 -1      4065 1.17705E-02 1.38073E-03-1.65487E-13
 -1      4066 1.16784E-02 1.33179E-03-1.63862E-13
 -1      4067 1.21991E-02 1.45274E-03-1.77062E-13
 -1      4068 1.20562E-02 1.42877E-03-1.73181E-13
 -1      4069 1.19641E-02 1.37979E-03-1.71543E-13
 -1      4070 1.24849E-02 1.50060E-03-1.84871E-13
 -1      4071 1.23420E-02 1.47668E-03-1.80959E-13
 -1      4072 1.22498E-02 1.42768E-03-1.79303E-13
 -1      4073 1.27707E-02 1.54837E-03-1.92752E-13
 -1      4074 1.26278E-02 1.52449E-03-1.88802E-13
 -1      4075 1.25356E-02 1.47547E-03-1.87135E-13
 -1      4076 1.30565E-02 1.59607E-03-2.00687E-13
 -1      4077 1.29136E-02 1.57223E-03-1.96714E-13
 -1      4078 1.28214E-02 1.52320E-03-1.95033E-13
 -1      4079 7.22101E-03 5.58397E-04-5.65592E-14
 -1      4080 7.10142E-03 5.36936E-04-5.39480E-14
 -1      4081 1.43840E-03-5.54173E-05-4.69980E-15
 -1      4082 7.98423E-03 7.01287E-04-7.32103E-14
 -1      4083 7.85261E-03 6.76073E-04-7.03217E-14
 -1      4084 6.99381E-03 5.13567E-04-5.15998E-14
 -1      4085 6.84892E-03 4.91449E-04-4.83726E-14
 -1      4086 6.84822E-03 4.57569E-04-4.84573E-14
 -1      4087 7.05127E-03 5.00663E-04-5.30869E-14
 -1      4088 7.72253E-03 6.51360E-04-6.74769E-14
 -1      4089 7.59408E-03 6.27058E-04-6.46778E-14
 -1      4090 7.77668E-03 6.36236E-04-6.91219E-14
 -1      4091 7.46757E-03 6.03477E-04-6.19245E-14
 -1      4092 7.34306E-03 5.80456E-04-5.92171E-14
 -1      4093 7.52276E-03 5.89243E-04-6.35183E-14
 -1      4094 1.33582E-03 7.36200E-05-4.95261E-15
 -1      4095 1.35898E-03 5.41640E-05-4.99083E-15
 -1      4096 1.33734E-02 1.33986E-03-2.17527E-13
 -1      4097 8.25135E-03 7.52518E-04-7.91176E-14
 -1      4098 8.11717E-03 7.26750E-04-7.61431E-14
 -1      4099 8.03762E-03 6.85120E-04-7.49046E-14
 -1      4100 8.30413E-03 7.35224E-04-8.08578E-14
 -1      4101 6.85670E-03 4.42523E-04-4.89906E-14
 -1      4102 6.66475E-03 3.75732E-04-4.62030E-14
 -1      4103 6.65326E-03 3.59199E-04-4.69978E-14
 -1      4104 6.76096E-03 3.95600E-04-4.80545E-14
 -1      4105 1.34277E-02 1.55691E-03-2.13720E-13
 -1      4106 1.34436E-02 1.61676E-03-2.12670E-13
 -1      4107 1.33399E-02 1.60627E-03-2.09584E-13
 -1      4108 1.31150E-02 1.28195E-03-2.10618E-13
 -1      4109 1.32579E-02 1.30572E-03-2.14642E-13
 -1      4110 1.49624E-03 4.77247E-05-5.83665E-15
 -1      4111 1.32576E-03 2.39966E-05-4.57447E-15
 -1      4112 7.27771E-03 5.44829E-04-5.81001E-14
 -1      4113 1.32500E-02 1.60643E-03-2.06668E-13
 -1      4114 1.31464E-02 1.59593E-03-2.03592E-13
 -1      4115 1.30542E-02 1.54690E-03-2.01903E-13
 -1      4116 1.32341E-02 1.54659E-03-2.07718E-13
 -1      4117 1.33225E-02 1.36509E-03-2.15241E-13
 -1      4118 1.36485E-03-6.93166E-06-4.59292E-15
 -1      4119 1.55732E-03-3.97952E-05-5.50891E-15
 -1      4120 1.58722E-03 3.78975E-05-6.34343E-15
 -1      4121 1.41295E-03 9.17145E-05-5.59478E-15
 -1      4122 1.33809E-02 1.47268E-03-2.14388E-13
 -1      4123 1.34043E-02 1.51479E-03-2.14055E-13
 -1      4124 1.33006E-02 1.50431E-03-2.10968E-13
 -1      4125 6.44148E-03 2.93403E-04-4.49794E-14
 -1      4126 6.43007E-03 2.69658E-04-4.58902E-14
 -1      4127 6.55746E-03 2.86492E-04-4.83428E-14
 -1      4128 6.54648E-03 3.21445E-04-4.62162E-14
 -1      4129 1.30828E-02 1.30265E-03-2.09061E-13
 -1      4130 1.33401E-02 1.39791E-03-2.14974E-13
 -1      4131 1.33633E-02 1.43986E-03-2.14658E-13
 -1      4132 1.32597E-02 1.42939E-03-2.11567E-13
 -1      4133 1.32246E-02 1.36377E-03-2.12100E-13
 -1      4134 9.17780E-03 8.67273E-04-1.01581E-13
 -1      4135 9.03886E-03 8.42275E-04-9.83191E-14
 -1      4136 6.68371E-03 3.02978E-04-5.08436E-14
 -1      4137 6.81036E-03 3.19587E-04-5.33952E-14
 -1      4138 6.67211E-03 3.19700E-04-4.97574E-14
 -1      4139 6.93709E-03 3.36565E-04-5.59969E-14
 -1      4140 7.06464E-03 3.53978E-04-5.86454E-14
 -1      4141 6.91768E-03 3.51195E-04-5.48662E-14
 -1      4142 7.19282E-03 3.71895E-04-6.13387E-14
 -1      4143 7.32197E-03 3.90244E-04-6.40802E-14
 -1      4144 7.16783E-03 3.85357E-04-6.01676E-14
 -1      4145 7.45193E-03 4.09012E-04-6.68672E-14
 -1      4146 7.58289E-03 4.28273E-04-6.96990E-14
 -1      4147 7.42280E-03 4.21927E-04-6.56552E-14
 -1      4148 7.71477E-03 4.47978E-04-7.25763E-14
 -1      4149 7.84762E-03 4.67974E-04-7.54978E-14
 -1      4150 7.68258E-03 4.60797E-04-7.13254E-14
 -1      4151 7.98134E-03 4.88321E-04-7.84620E-14
 -1      4152 8.11593E-03 5.08966E-04-8.14684E-14
 -1      4153 7.94677E-03 5.01329E-04-7.71717E-14
 -1      4154 8.25132E-03 5.29917E-04-8.45172E-14
 -1      4155 8.38750E-03 5.51111E-04-8.76071E-14
 -1      4156 8.21493E-03 5.43253E-04-8.31895E-14
 -1      4157 8.52438E-03 5.72561E-04-9.07390E-14
 -1      4158 8.66195E-03 5.94216E-04-9.39101E-14
 -1      4159 8.48657E-03 5.86316E-04-8.93724E-14
 -1      4160 8.80012E-03 6.16088E-04-9.71201E-14
 -1      4161 8.93887E-03 6.38132E-04-1.00370E-13
 -1      4162 8.76120E-03 6.30284E-04-9.57194E-14
 -1      4163 9.07812E-03 6.60345E-04-1.03659E-13
 -1      4164 9.21784E-03 6.82719E-04-1.06988E-13
 -1      4165 9.03833E-03 6.74972E-04-1.02222E-13
 -1      4166 9.35798E-03 7.05252E-04-1.10354E-13
 -1      4167 9.49850E-03 7.27898E-04-1.13757E-13
 -1      4168 9.31753E-03 7.20267E-04-1.08880E-13
 -1      4169 9.63935E-03 7.50667E-04-1.17195E-13
 -1      4170 9.78051E-03 7.73546E-04-1.20669E-13
 -1      4171 9.59840E-03 7.66026E-04-1.15688E-13
 -1      4172 9.92192E-03 7.96529E-04-1.24179E-13
 -1      4173 1.00636E-02 8.19600E-04-1.27721E-13
 -1      4174 9.88059E-03 8.12174E-04-1.22638E-13
 -1      4175 1.02054E-02 8.42756E-04-1.31298E-13
 -1      4176 1.03474E-02 8.65986E-04-1.34904E-13
 -1      4177 1.01638E-02 8.58639E-04-1.29726E-13
 -1      4178 1.04896E-02 8.89285E-04-1.38540E-13
 -1      4179 1.06319E-02 9.12644E-04-1.42205E-13
 -1      4180 1.04478E-02 9.05357E-04-1.36940E-13
 -1      4181 1.07743E-02 9.36059E-04-1.45899E-13
 -1      4182 1.09169E-02 9.59522E-04-1.49619E-13
 -1      4183 1.07324E-02 9.52280E-04-1.44272E-13
 -1      4184 1.10594E-02 9.83030E-04-1.53367E-13
 -1      4185 1.12021E-02 1.00658E-03-1.57140E-13
 -1      4186 1.10174E-02 9.99365E-04-1.51713E-13
 -1      4187 1.13448E-02 1.03016E-03-1.60937E-13
 -1      4188 1.14876E-02 1.05377E-03-1.64759E-13
 -1      4189 1.13027E-02 1.04658E-03-1.59260E-13
 -1      4190 1.16304E-02 1.07741E-03-1.68602E-13
 -1      4191 1.17732E-02 1.10107E-03-1.72463E-13
 -1      4192 1.15882E-02 1.09389E-03-1.66903E-13
 -1      4193 1.19160E-02 1.12476E-03-1.76343E-13
 -1      4194 1.20589E-02 1.14846E-03-1.80246E-13
 -1      4195 1.18738E-02 1.14128E-03-1.74629E-13
 -1      4196 1.22018E-02 1.17218E-03-1.84167E-13
 -1      4197 1.23447E-02 1.19591E-03-1.88101E-13
 -1      4198 1.21596E-02 1.18873E-03-1.82430E-13
 -1      4199 1.24876E-02 1.21965E-03-1.92051E-13
 -1      4200 1.26305E-02 1.24341E-03-1.96017E-13
 -1      4201 1.24454E-02 1.23623E-03-1.90301E-13
 -1      4202 1.27734E-02 1.26717E-03-1.99998E-13
 -1      4203 1.29163E-02 1.29094E-03-2.03993E-13
 -1      4204 1.27312E-02 1.28376E-03-1.98234E-13
 -1      4205 8.90055E-03 8.17287E-04-9.50955E-14
 -1      4206 8.76293E-03 7.92280E-04-9.19103E-14
 -1      4207 8.95071E-03 7.97181E-04-9.69313E-14
 -1      4208 8.62610E-03 7.67335E-04-8.87660E-14
 -1      4209 8.49014E-03 7.42435E-04-8.56629E-14
 -1      4210 8.67602E-03 7.48264E-04-9.05576E-14
 -1      4211 9.45724E-03 9.17123E-04-1.08222E-13
 -1      4212 9.31727E-03 8.92216E-04-1.04883E-13
 -1      4213 9.22812E-03 8.46227E-04-1.03461E-13
 -1      4214 9.73838E-03 9.66742E-04-1.15011E-13
 -1      4215 9.59763E-03 9.41962E-04-1.11599E-13
 -1      4216 9.50768E-03 8.95250E-04-1.10142E-13
 -1      4217 1.00208E-02 1.01607E-03-1.21941E-13
 -1      4218 9.87946E-03 9.91439E-04-1.18460E-13
 -1      4219 9.78891E-03 9.44154E-04-1.16973E-13
 -1      4220 1.03043E-02 1.06512E-03-1.29002E-13
 -1      4221 1.01624E-02 1.04063E-03-1.25455E-13
 -1      4222 1.00714E-02 9.92894E-04-1.23941E-13
 -1      4223 1.05884E-02 1.11389E-03-1.36188E-13
 -1      4224 1.04463E-02 1.08954E-03-1.32580E-13
 -1      4225 1.03549E-02 1.04145E-03-1.31038E-13
 -1      4226 1.08732E-02 1.16243E-03-1.43494E-13
 -1      4227 1.07307E-02 1.13819E-03-1.39825E-13
 -1      4228 1.06391E-02 1.08983E-03-1.38260E-13
 -1      4229 1.11583E-02 1.21075E-03-1.50911E-13
 -1      4230 1.10157E-02 1.18661E-03-1.47189E-13
 -1      4231 1.09239E-02 1.13805E-03-1.45600E-13
 -1      4232 1.14436E-02 1.25889E-03-1.58436E-13
 -1      4233 1.13009E-02 1.23484E-03-1.54662E-13
 -1      4234 1.12090E-02 1.18614E-03-1.53051E-13
 -1      4235 1.17292E-02 1.30690E-03-1.66058E-13
 -1      4236 1.15864E-02 1.28291E-03-1.62234E-13
 -1      4237 1.14944E-02 1.23410E-03-1.60607E-13
 -1      4238 1.20149E-02 1.35479E-03-1.73763E-13
 -1      4239 1.18720E-02 1.33086E-03-1.69901E-13
 -1      4240 1.17800E-02 1.28197E-03-1.68253E-13
 -1      4241 1.23006E-02 1.40259E-03-1.81547E-13
 -1      4242 1.21577E-02 1.37870E-03-1.77646E-13
 -1      4243 1.20656E-02 1.32976E-03-1.75987E-13
 -1      4244 1.25864E-02 1.45033E-03-1.89399E-13
 -1      4245 1.24435E-02 1.42647E-03-1.85466E-13
 -1      4246 1.23514E-02 1.37749E-03-1.83793E-13
 -1      4247 1.28722E-02 1.49802E-03-1.97317E-13
 -1      4248 1.27293E-02 1.47418E-03-1.93350E-13
 -1      4249 1.26372E-02 1.42517E-03-1.91665E-13
 -1      4250 7.32844E-03 5.31661E-04-5.96450E-14
 -1      4251 7.20996E-03 5.10908E-04-5.69809E-14
 -1      4252 7.10047E-03 4.88497E-04-5.45781E-14
 -1      4253 6.99453E-03 4.66879E-04-5.22155E-14
 -1      4254 7.14323E-03 4.75679E-04-5.60731E-14
 -1      4255 1.42129E-03 1.04269E-04-5.69070E-15
 -1      4256 1.58662E-03 6.38559E-06-6.04748E-15
 -1      4257 7.57361E-03 5.75083E-04-6.51175E-14
 -1      4258 7.44974E-03 5.52918E-04-6.23582E-14
 -1      4259 7.37440E-03 5.18025E-04-6.11949E-14
 -1      4260 1.30083E-02 1.31319E-03-2.06397E-13
 -1      4261 1.31326E-02 1.34151E-03-2.09692E-13
 -1      4262 1.31501E-02 1.37431E-03-2.09427E-13
 -1      4263 1.29661E-02 1.32979E-03-2.04620E-13
 -1      4264 7.82766E-03 6.21005E-04-7.07707E-14
 -1      4265 7.69966E-03 5.97726E-04-6.79212E-14
 -1      4266 7.62101E-03 5.60433E-04-6.67191E-14
 -1      4267 6.89262E-03 4.30851E-04-5.04229E-14
 -1      4268 1.43901E-03 1.17600E-04-5.75236E-15
 -1      4269 8.08866E-03 6.68754E-04-7.66006E-14
 -1      4270 7.95739E-03 6.44656E-04-7.36640E-14
 -1      4271 7.87608E-03 6.05288E-04-7.24225E-14
 -1      4272 6.90003E-03 4.17152E-04-5.12577E-14
 -1      4273 1.29621E-02 1.49787E-03-2.00210E-13
 -1      4274 1.28700E-02 1.44886E-03-1.98511E-13
 -1      4275 1.30521E-02 1.49772E-03-2.03108E-13
 -1      4276 1.31676E-02 1.40712E-03-2.09159E-13
 -1      4277 1.31852E-02 1.43993E-03-2.08892E-13
 -1      4278 1.30756E-02 1.38485E-03-2.06758E-13
 -1      4279 1.57359E-03-1.66815E-05-5.77712E-15
 -1      4280 6.66157E-03 3.45586E-04-4.80759E-14
 -1      4281 8.35517E-03 7.17692E-04-8.26008E-14
 -1      4282 8.22129E-03 6.93076E-04-7.95797E-14
 -1      4283 8.40476E-03 6.99728E-04-8.43458E-14
 -1      4284 7.66547E-03 5.45154E-04-6.83236E-14
 -1      4285 7.53988E-03 5.23962E-04-6.55144E-14
 -1      4286 9.27795E-03 8.24859E-04-1.05341E-13
 -1      4287 9.13879E-03 8.00745E-04-1.02036E-13
 -1      4288 6.89895E-03 3.71441E-04-5.34296E-14
 -1      4289 7.01888E-03 3.87417E-04-5.60306E-14
 -1      4290 7.14053E-03 4.04439E-04-5.86788E-14
 -1      4291 7.26426E-03 4.22132E-04-6.13730E-14
 -1      4292 7.11280E-03 4.21992E-04-5.71930E-14
 -1      4293 7.44135E-03 4.56040E-04-6.49889E-14
 -1      4294 7.56846E-03 4.75508E-04-6.77898E-14
 -1      4295 7.69703E-03 4.95521E-04-7.06377E-14
 -1      4296 7.90595E-03 5.20411E-04-7.55295E-14
 -1      4297 8.03826E-03 5.41491E-04-7.84931E-14
 -1      4298 8.17164E-03 5.62955E-04-8.14994E-14
 -1      4299 8.30606E-03 5.84698E-04-8.45454E-14
 -1      4300 8.12782E-03 5.81820E-04-7.98117E-14
 -1      4301 8.44140E-03 6.06737E-04-8.76342E-14
 -1      4302 8.57760E-03 6.28980E-04-9.07649E-14
 -1      4303 8.39582E-03 6.26425E-04-8.59001E-14
 -1      4304 8.71458E-03 6.51444E-04-9.39335E-14
 -1      4305 8.85227E-03 6.74064E-04-9.71423E-14
 -1      4306 8.66766E-03 6.71974E-04-9.21518E-14
 -1      4307 9.04416E-03 7.15557E-04-1.01422E-13
 -1      4308 9.18322E-03 7.38649E-04-1.04722E-13
 -1      4309 9.32278E-03 7.61816E-04-1.08060E-13
 -1      4310 9.54918E-03 7.89114E-04-1.13771E-13
 -1      4311 9.68987E-03 8.12396E-04-1.17207E-13
 -1      4312 9.83088E-03 8.35748E-04-1.20679E-13
 -1      4313 9.97218E-03 8.59152E-04-1.24185E-13
 -1      4314 9.78112E-03 8.59022E-04-1.18724E-13
 -1      4315 1.01137E-02 8.82613E-04-1.27724E-13
 -1      4316 1.02555E-02 9.06112E-04-1.31298E-13
 -1      4317 1.00636E-02 9.06346E-04-1.25730E-13
 -1      4318 1.03975E-02 9.29654E-04-1.34901E-13
 -1      4319 1.05396E-02 9.53226E-04-1.38534E-13
 -1      4320 1.03471E-02 9.53762E-04-1.32866E-13
 -1      4321 1.06818E-02 9.76831E-04-1.42195E-13
 -1      4322 1.08242E-02 1.00046E-03-1.45885E-13
 -1      4323 1.06313E-02 1.00124E-03-1.40124E-13
 -1      4324 1.09667E-02 1.02411E-03-1.49604E-13
 -1      4325 1.11093E-02 1.04779E-03-1.53349E-13
 -1      4326 1.09161E-02 1.04875E-03-1.47498E-13
 -1      4327 1.12519E-02 1.07148E-03-1.57121E-13
 -1      4328 1.13946E-02 1.09518E-03-1.60916E-13
 -1      4329 1.12012E-02 1.09629E-03-1.54984E-13
 -1      4330 1.15374E-02 1.11890E-03-1.64735E-13
 -1      4331 1.16802E-02 1.14263E-03-1.68576E-13
 -1      4332 1.14866E-02 1.14385E-03-1.62571E-13
 -1      4333 1.18230E-02 1.16637E-03-1.72436E-13
 -1      4334 1.19658E-02 1.19012E-03-1.76315E-13
 -1      4335 1.17722E-02 1.19142E-03-1.70244E-13
 -1      4336 1.21087E-02 1.21388E-03-1.80213E-13
 -1      4337 1.22516E-02 1.23764E-03-1.84132E-13
 -1      4338 1.20579E-02 1.23899E-03-1.78000E-13
 -1      4339 1.23945E-02 1.26141E-03-1.88066E-13
 -1      4340 1.25374E-02 1.28519E-03-1.92014E-13
 -1      4341 1.23436E-02 1.28657E-03-1.85828E-13
 -1      4342 8.94727E-03 7.57810E-04-9.77544E-14
 -1      4343 8.80957E-03 7.33971E-04-9.45389E-14
 -1      4344 8.67263E-03 7.10276E-04-9.13630E-14
 -1      4345 8.53652E-03 6.86676E-04-8.82264E-14
 -1      4346 7.01871E-03 4.31033E-04-5.41341E-14
 -1      4347 6.87390E-03 3.92281E-04-5.16880E-14
 -1      4348 9.78521E-03 9.01638E-04-1.17854E-13
 -1      4349 9.64445E-03 8.77608E-04-1.14413E-13
 -1      4350 1.00677E-02 9.49659E-04-1.24839E-13
 -1      4351 9.92629E-03 9.25648E-04-1.21330E-13
 -1      4352 1.03511E-02 9.97637E-04-1.31957E-13
 -1      4353 1.02093E-02 9.73652E-04-1.28382E-13
 -1      4354 1.06353E-02 1.04556E-03-1.39198E-13
 -1      4355 1.04931E-02 1.02160E-03-1.35562E-13
 -1      4356 1.09200E-02 1.09342E-03-1.46552E-13
 -1      4357 1.07776E-02 1.06950E-03-1.42862E-13
 -1      4358 1.12051E-02 1.14123E-03-1.54021E-13
 -1      4359 1.10625E-02 1.11733E-03-1.50274E-13
 -1      4360 1.14905E-02 1.18898E-03-1.61593E-13
 -1      4361 1.13478E-02 1.16511E-03-1.57795E-13
 -1      4362 1.17761E-02 1.23670E-03-1.69254E-13
 -1      4363 1.16333E-02 1.21285E-03-1.65412E-13
 -1      4364 1.20617E-02 1.28438E-03-1.76997E-13
 -1      4365 1.19189E-02 1.26054E-03-1.73115E-13
 -1      4366 1.23475E-02 1.33203E-03-1.84814E-13
 -1      4367 1.22046E-02 1.30821E-03-1.80898E-13
 -1      4368 1.26333E-02 1.37967E-03-1.92698E-13
 -1      4369 1.24904E-02 1.35585E-03-1.88748E-13
 -1      4370 1.31420E-02 1.49756E-03-2.06012E-13
 -1      4371 1.31186E-02 1.45546E-03-2.06342E-13
 -1      4372 9.50406E-03 8.53600E-04-1.11005E-13
 -1      4373 7.36834E-03 4.88800E-04-6.18949E-14
 -1      4374 7.24782E-03 4.69395E-04-5.91901E-14
 -1      4375 6.77609E-03 3.59330E-04-5.05698E-14
 -1      4376 7.13370E-03 4.48005E-04-5.67464E-14
 -1      4377 1.30266E-02 1.43318E-03-2.03945E-13
 -1      4378 7.40584E-03 4.73043E-04-6.34401E-14
 -1      4379 7.78588E-03 5.33779E-04-7.19024E-14
 -1      4380 8.99592E-03 7.36924E-04-9.95858E-14
 -1      4381 9.41356E-03 8.07536E-04-1.09532E-13
 -1      4382 1.30090E-02 1.40038E-03-2.04216E-13
 -1      4383 1.29424E-02 1.41591E-03-2.01678E-13
 -1      4384 1.29915E-02 1.36758E-03-2.04484E-13
 -1      4385 1.26803E-02 1.30896E-03-1.95975E-13
 -1      4386 1.28232E-02 1.33275E-03-1.99954E-13
 -1      4387 8.40135E-03 6.63287E-04-8.51300E-14
 -1      4388 8.00245E-03 5.94449E-04-7.60929E-14
 -1      4389 7.87216E-03 5.72230E-04-7.31664E-14
 -1      4390 8.13778E-03 6.51914E-04-7.83002E-14
 -1      4391 1.26294E-02 1.33416E-03-1.93721E-13
 -1      4392 1.28661E-02 1.40332E-03-1.99547E-13
 -1      4393 1.27762E-02 1.40348E-03-1.96659E-13
 -1      4394 1.28994E-02 1.34532E-03-2.02087E-13
 -1      4395 8.26720E-03 6.40059E-04-8.20766E-14
 -1      4396 1.28486E-02 1.37053E-03-1.99816E-13
 -1      4397 8.13419E-03 6.17153E-04-7.90645E-14
 -3
    1PSTEP                         2           1           1          
  100CL  101 1.000000000        4397                     0    1           1
 -4  STRESS      6    1
 -5  SXX         1    4    1    1
 -5  SYY         1    4    2    2
 -5  SZZ         1    4    3    3
 -5  SXY         1    4    1    2
 -5  SYZ         1    4    2    3
 -5  SZX         1    4    3    1
 -1         1 6.63382E+01 7.88586E-01 3.52051E+00-2.22104E-02-1.70825E-13-1.91672E-13
 -1         2-7.68649E-01-2.46885E+01-3.37506E+00 6.44417E-02 9.60933E-13-3.56278E-14
 -1         3 1.99999E+01 6.30217E-05-1.17093E-04 6.55117E-05 7.70864E-13 6.22520E-13
 -1         4 1.99999E+01 5.49970E-05-1.24281E-04-5.54763E-05 2.30285E-13-3.18146E-14
 -1         5 3.37335E+01 6.36406E+00 2.59646E+00 6.13946E+00-9.06566E-14 6.20111E-12
 -1         6 3.65111E+01 1.24481E+01 4.98223E+00-8.58652E+00-3.78808E-13 5.33157E-12
 -1         7 2.22813E+01 6.49861E+00-3.57182E-02-4.33735E+00-5.38319E-14 7.21357E-13
 -1         8 2.08546E+01 6.27884E+00 9.61021E-02-2.59598E+00-5.95704E-14-6.23053E-13
 -1         9 1.99111E+01 6.00006E+00 7.31380E-02-1.67469E+00-5.13964E-14-1.32455E-12
 -1        10 1.91689E+01 5.77352E+00 5.89206E-02-1.01544E+00-3.07532E-14-1.64323E-12
 -1        11 1.85157E+01 5.57512E+00 4.30184E-02-5.23492E-01-1.91652E-14-1.78248E-12
 -1        12 1.79490E+01 5.40346E+00 2.55262E-02-1.75801E-01-5.16254E-15-1.84066E-12
 -1        13 1.74804E+01 5.26228E+00 7.80339E-03 5.32056E-02 1.57860E-15-1.84060E-12
 -1        14 1.71695E+01 5.16890E+00-6.76709E-03 1.78017E-01 1.19288E-14-1.82345E-12
 -1        15 1.70657E+01 5.13796E+00-1.48868E-02 2.34385E-01 2.03880E-14-1.78608E-12
 -1        16 1.72026E+01 5.17937E+00-1.40755E-02 2.73262E-01 2.96707E-14-1.71097E-12
 -1        17 1.75869E+01 5.29495E+00-3.59703E-03 3.55666E-01 3.61725E-14-1.58435E-12
 -1        18 1.81832E+01 5.47506E+00 1.49132E-02 5.39042E-01 4.93494E-14-1.38337E-12
 -1        19 1.89744E+01 5.71407E+00 3.96382E-02 8.89789E-01 6.52534E-14-1.05868E-12
 -1        20 1.99184E+01 6.00045E+00 6.77052E-02 1.46865E+00 8.09422E-14-5.04591E-13
 -1        21 2.10542E+01 6.34655E+00 1.04317E-01 2.37925E+00 8.51125E-14 4.66743E-13
 -1        22 2.28649E+01 6.82446E+00 2.20268E-01 3.95674E+00 9.47853E-15 2.31765E-12
 -1        23 2.46570E+01-1.47501E+00-9.89884E-01-5.84503E-01-2.67713E-13 4.03158E-12
 -1        24 2.17017E+01-9.65824E-02-2.96950E-01 9.04870E-02-6.84314E-14 2.87490E-12
 -1        25 2.15476E+01-4.96793E-02-5.50834E-02 7.47193E-02-2.78258E-14 1.80033E-12
 -1        26 2.17475E+01-1.29487E-02 7.20796E-03 4.36408E-02-1.49748E-14 1.05788E-12
 -1        27 2.20088E+01 1.52318E-03 2.12732E-02 2.86659E-02-1.68832E-14 4.91086E-13
 -1        28 2.21453E+01 1.18041E-02 3.10040E-02 1.30642E-02-1.56380E-14 1.28226E-13
 -1        29 2.20011E+01 1.80538E-02 3.94320E-02-6.98078E-03-3.88123E-15-1.78055E-13
 -1        30 2.14656E+01 1.84384E-02 4.04213E-02-3.13945E-02 8.31594E-15-4.57199E-13
 -1        31 2.05256E+01 1.10304E-02 2.70581E-02-5.48287E-02 8.21901E-15-6.95596E-13
 -1        32 1.93233E+01-3.74789E-03-2.51478E-03-6.70259E-02-4.85150E-14-1.01652E-12
 -1        33 1.81655E+01-2.13396E-02-3.99707E-02-5.77133E-02 3.53769E-14-1.23325E-12
 -1        34 1.74352E+01-3.40928E-02-6.82097E-02-2.50467E-02 1.71070E-14-1.30401E-12
 -1        35 1.74186E+01-3.55159E-02-7.15992E-02 1.94002E-02 3.14419E-15-1.34726E-12
 -1        36 1.81491E+01-2.47789E-02-4.82621E-02 5.64582E-02 1.99868E-14-1.38349E-12
 -1        37 1.93887E+01-7.33827E-03-1.14514E-02 7.20253E-02-4.75967E-14-1.41940E-12
 -1        38 2.07598E+01 9.07659E-03 2.08930E-02 6.50272E-02-2.46286E-14-1.57963E-12
 -1        39 2.19242E+01 1.91330E-02 3.80719E-02 4.47059E-02-3.13110E-14-1.72489E-12
 -1        40 2.26943E+01 2.17659E-02 3.97586E-02 2.20695E-02 3.21642E-14-1.73042E-12
 -1        41 2.30404E+01 1.89790E-02 3.18279E-02 4.15692E-03-3.39821E-15-1.69202E-12
 -1        42 2.30362E+01 1.36296E-02 2.06750E-02-6.86338E-03-3.12323E-14-1.81391E-12
 -1        43 2.27945E+01 7.99386E-03 1.05145E-02-1.18871E-02-2.00621E-14-1.64545E-12
 -1        44 2.24236E+01 3.31369E-03 3.06214E-03-1.28695E-02-2.97318E-15-1.65985E-12
 -1        45 2.20068E+01-7.92145E-06-1.57790E-03-1.16396E-02 3.33437E-14-1.42658E-12
 -1        46 2.15993E+01-2.05219E-03-3.99463E-03-9.49137E-03-4.06127E-14-1.49378E-12
 -1        47 2.12324E+01-3.09691E-03-4.90635E-03-7.19094E-03 3.43642E-14-1.56876E-12
 -1        48 2.09200E+01-3.44830E-03-4.91568E-03-5.12070E-03 1.09599E-15-1.50109E-12
 -1        49 2.06650E+01-3.36650E-03-4.45064E-03-3.42655E-03 2.14931E-14-1.50764E-12
 -1        50 2.04640E+01-3.04516E-03-3.78496E-03-2.12646E-03 1.27337E-14-1.70028E-12
 -1        51 2.03102E+01-2.61614E-03-3.07932E-03-1.17860E-03 2.79361E-14-1.53752E-12
 -1        52 2.01960E+01-2.16261E-03-2.41949E-03-5.19837E-04 4.12944E-14-1.18473E-12
 -1        53 2.01136E+01-1.73276E-03-1.84483E-03-8.53301E-05-6.65225E-14-1.32265E-12
 -1        54 2.00561E+01-1.35119E-03-1.36756E-03 1.82654E-04 1.90612E-14-1.58827E-12
 -1        55 2.00176E+01-1.02748E-03-9.85095E-04 3.31717E-04-3.27800E-14-1.74113E-12
 -1        56 1.99931E+01-7.62177E-04-6.87528E-04 3.99188E-04 5.28295E-14-2.03644E-12
 -1        57 1.99787E+01-5.50885E-04-4.62117E-04 4.13251E-04-3.66280E-14-2.30872E-12
 -1        58 1.99714E+01-3.86825E-04-2.95770E-04 3.94502E-04 3.50139E-14-2.20477E-12
 -1        59 1.99689E+01-2.62460E-04-1.76348E-04 3.57530E-04 4.29139E-14-1.87359E-12
 -1        60 1.99695E+01-1.70420E-04-9.32552E-05 3.12316E-04-2.15095E-14-1.26454E-12
 -1        61 1.99719E+01-1.04004E-04-3.76094E-05 2.65418E-04 6.88437E-15-1.41024E-12
 -1        62 1.99753E+01-5.73800E-05-2.17940E-06 2.20917E-04-9.05674E-14-1.90524E-12
 -1        63 1.99791E+01-2.56309E-05 1.88043E-05 1.81148E-04 2.97361E-14-2.20636E-12
 -1        64 1.99830E+01-4.68556E-06 2.99058E-05 1.47236E-04-7.38132E-14-1.80210E-12
 -1        65 1.99867E+01 8.79982E-06 3.47925E-05 1.19465E-04-2.94058E-14-1.22961E-12
 -1        66 1.99901E+01 1.75826E-05 3.66237E-05 9.74691E-05 3.89292E-15-9.90800E-13
 -1        67 1.99931E+01 2.39578E-05 3.85596E-05 8.01976E-05 1.18154E-13-4.68677E-13
 -1        68 1.99957E+01 2.97767E-05 4.42300E-05 6.54871E-05-7.41442E-14-2.93999E-13
 -1        69 1.99978E+01 3.57704E-05 5.66264E-05 4.86245E-05 6.17726E-14-2.13280E-13
 -1        70 1.99993E+01 3.52547E-05 6.67947E-05 1.55871E-05 1.39181E-14 2.53812E-13
 -1        71 1.99999E+01-6.75240E-06 1.88505E-05-3.34572E-05-6.65185E-14 3.22564E-13
 -1        72 2.30638E+01-4.23302E-01-1.02229E+00-3.94486E-01 6.66481E-14 5.79913E-12
 -1        73 2.24067E+01-6.64982E-02-2.80715E-01-7.50576E-02 4.86534E-14 4.57308E-12
 -1        74 2.26671E+01-2.10155E-02-6.25080E-02-3.64121E-02 3.24465E-14 3.65109E-12
 -1        75 2.33872E+01-7.27037E-03-1.16270E-02-3.73283E-02 8.42620E-15 3.07862E-12
 -1        76 2.43453E+01 4.71406E-03 7.79923E-03-4.49675E-02 2.27667E-14 2.65585E-12
 -1        77 2.53134E+01 1.82021E-02 3.40548E-02-5.27444E-02 9.35601E-15 2.42286E-12
 -1        78 2.59812E+01 3.08565E-02 7.32023E-02-5.00508E-02 1.62084E-14 2.36693E-12
 -1        79 2.59443E+01 3.51404E-02 1.11643E-01-2.10835E-02 1.07249E-14 2.23485E-12
 -1        80 2.48250E+01 2.11547E-02 1.15877E-01 4.59913E-02-1.76074E-14 2.03207E-12
 -1        81 2.25714E+01-1.13141E-02 4.86819E-02 1.35878E-01 3.15774E-14 1.71386E-12
 -1        82 1.98093E+01-4.64844E-02-8.34071E-02 1.90522E-01 1.56578E-14 1.32955E-12
 -1        83 1.77981E+01-5.63087E-02-2.03242E-01 1.45697E-01-1.65566E-14 1.13522E-12
 -1        84 1.77220E+01-3.64644E-02-2.07391E-01 1.18299E-03 1.22979E-14 1.12399E-12
 -1        85 1.95405E+01-6.10237E-03-1.05599E-01-1.20146E-01 2.72915E-15 9.02681E-13
 -1        86 2.24290E+01 2.15846E-02 3.02871E-02-1.75731E-01 2.22110E-14 3.94865E-13
 -1        87 2.50189E+01 3.23322E-02 1.10016E-01-1.42740E-01 2.77688E-14 6.12427E-14
 -1        88 2.65215E+01 2.94105E-02 1.15691E-01-7.61870E-02 4.19235E-14 6.50313E-14
 -1        89 2.68735E+01 1.97221E-02 8.01861E-02-1.94982E-02-4.91944E-14 3.94559E-14
 -1        90 2.64086E+01 9.55014E-03 3.91818E-02 1.34902E-02 1.21926E-14 1.41425E-13
 -1        91 2.55221E+01 1.93509E-03 9.55908E-03 2.67019E-02-7.99035E-15-1.17267E-14
 -1        92 2.45105E+01-2.61310E-03-6.64037E-03 2.83668E-02 2.77128E-14-3.24856E-13
 -1        93 2.35462E+01-4.74732E-03-1.31652E-02 2.48834E-02 1.99089E-14-3.91732E-13
 -1        94 2.27083E+01-5.34648E-03-1.42785E-02 1.98956E-02-7.34019E-14-1.80778E-13
 -1        95 2.20193E+01-5.11161E-03-1.29408E-02 1.50830E-02 7.22391E-14-2.72941E-13
 -1        96 2.14730E+01-4.49869E-03-1.07869E-02 1.10453E-02-4.73076E-14-6.13051E-13
 -1        97 2.10509E+01-3.76915E-03-8.58776E-03 7.88158E-03 4.40189E-14-4.66693E-13
 -1        98 2.07317E+01-3.05696E-03-6.64693E-03 5.49662E-03-1.85379E-14-3.41144E-13
 -1        99 2.04945E+01-2.42172E-03-5.04537E-03 3.74210E-03-8.76344E-14 1.70777E-14
 -1       100 2.03216E+01-1.88295E-03-3.77044E-03 2.47422E-03 3.89666E-14 6.12901E-13
 -1       101 2.01979E+01-1.44033E-03-2.77715E-03 1.57229E-03 5.94864E-15 3.61301E-13
 -1       102 2.01114E+01-1.08473E-03-2.01459E-03 9.41296E-04 7.47037E-14-1.70632E-13
 -1       103 2.00526E+01-8.03989E-04-1.43614E-03 5.08654E-04-1.14267E-13-1.95903E-13
 -1       104 2.00140E+01-5.85666E-04-1.00238E-03 2.19774E-04 6.59231E-14-2.63640E-13
 -1       105 1.99900E+01-4.18294E-04-6.81154E-04 3.38934E-05 6.04382E-14-1.01110E-12
 -1       106 1.99763E+01-2.91833E-04-4.46678E-04-7.92634E-05-1.53332E-13-6.49067E-13
 -1       107 1.99696E+01-1.97760E-04-2.78472E-04-1.42050E-04 5.91867E-14-2.83579E-13
 -1       108 1.99676E+01-1.28986E-04-1.60384E-04-1.70856E-04 1.19156E-15-5.53184E-13
 -1       109 1.99685E+01-7.97003E-05-7.97467E-05-1.77584E-04-8.09164E-14-2.68675E-13
 -1       110 1.99712E+01-4.51965E-05-2.66934E-05-1.70784E-04 6.96862E-14-5.33538E-13
 -1       111 1.99748E+01-2.16951E-05 6.42059E-06-1.56508E-04 6.92149E-15-9.78678E-13
 -1       112 1.99788E+01-6.17664E-06 2.54921E-05-1.38967E-04-7.16798E-14-1.02233E-12
 -1       113 1.99828E+01 3.77298E-06 3.50801E-05-1.21032E-04 2.79575E-14-6.39447E-13
 -1       114 1.99865E+01 1.01062E-05 3.87906E-05-1.04607E-04-6.69755E-14 1.18123E-13
 -1       115 1.99900E+01 1.44384E-05 3.97153E-05-9.08842E-05 7.73636E-14-1.59029E-13
 -1       116 1.99930E+01 1.80744E-05 4.09983E-05-8.03570E-05-1.00098E-13-3.37214E-13
 -1       117 1.99956E+01 2.20581E-05 4.63880E-05-7.25568E-05 1.07609E-13-3.46467E-13
 -1       118 1.99978E+01 2.65125E-05 5.90453E-05-6.50718E-05 1.25936E-14-4.94296E-13
 -1       119 1.99992E+01 2.74530E-05 7.09364E-05-4.66772E-05-8.37107E-14 9.48756E-13
 -1       120 1.99999E+01-2.35376E-05 1.58577E-05 9.94487E-06-3.69892E-13 1.30545E-12
 -1       121 1.99998E+01 3.08969E-05 1.17691E-05 3.31926E-05 1.32177E-12-9.52274E-14
 -1       122 1.99998E+01-5.67406E-04 6.32037E-05-2.76072E-05 1.20422E-13-1.20374E-13
 -1       123 1.99998E+01-1.92857E-03 3.67924E-05-5.84533E-05-3.91007E-14 1.63706E-13
 -1       124 1.99998E+01-3.64846E-03 4.73251E-06-6.59953E-05 5.97846E-14 1.24572E-13
 -1       125 1.99998E+01-5.39972E-03-2.00528E-05-5.99492E-05-1.08269E-12-3.30392E-13
 -1       126 1.99998E+01-6.90515E-03-3.71344E-05-4.73394E-05-1.75514E-12 5.77966E-14
 -1       127 1.99998E+01-8.02590E-03-4.75394E-05-2.97898E-05-3.63938E-13 1.99389E-13
 -1       128 1.99998E+01-8.61228E-03-5.25370E-05-9.97273E-06-2.45964E-13 1.38498E-14
 -1       129 1.99998E+01-8.60451E-03-5.24205E-05 1.04999E-05-2.00330E-13 1.02746E-13
 -1       130 1.99998E+01-8.00388E-03-4.72263E-05 3.01677E-05-1.47976E-13-1.27175E-13
 -1       131 1.99998E+01-6.87290E-03-3.63738E-05 4.80325E-05-1.08673E-12-2.41064E-13
 -1       132 1.99998E+01-5.36299E-03-1.96658E-05 6.00717E-05-1.74977E-12 3.02767E-13
 -1       133 1.99998E+01-3.61217E-03 5.02537E-06 6.56180E-05-1.10496E-12 5.23841E-15
 -1       134 1.99998E+01-1.89413E-03 3.97500E-05 6.26602E-05-1.24547E-12 1.13247E-13
 -1       135 1.99998E+01-5.72407E-04 5.47956E-05 3.84757E-05-1.32400E-12-7.10939E-14
 -1       136 1.99998E+01 1.43175E-05 9.99506E-06-6.81347E-05-4.54122E-13 2.22833E-13
 -1       137-1.49034E+00-2.06566E+01-3.15016E+00-3.92673E+00 3.59091E-12 1.02634E-12
 -1       138-1.73804E+00-1.01666E+01-2.46060E+00-3.42909E+00 5.74635E-12 2.65532E-12
 -1       139 1.95091E+00 1.70427E+00-1.36652E+00 2.27195E+00 6.12355E-12 4.46154E-12
 -1       140 1.34117E+01 9.62403E+00 6.13921E-02 1.13517E+01 4.97069E-12 5.28388E-12
 -1       141 3.20518E+01 1.03121E+01 1.57022E+00 1.77045E+01 2.67997E-12 4.42002E-12
 -1       142 5.27566E+01 5.97286E+00 2.90208E+00 1.66136E+01 9.20514E-13 2.67808E-12
 -1       143 6.61133E+01 1.64240E+00 3.69160E+00 7.22349E+00 7.82777E-14 1.27121E-14
 -1       144 6.67335E+01 1.52934E+00 3.74885E+00-6.43387E+00 4.98226E-13-3.50575E-12
 -1       145 5.37078E+01 5.85208E+00 3.01327E+00-1.65286E+01 2.15962E-12-6.38084E-12
 -1       146 3.31523E+01 1.05232E+01 1.69613E+00-1.82582E+01 4.43895E-12-7.55801E-12
 -1       147 1.35895E+01 9.85885E+00 8.48692E-02-1.15707E+01 6.10528E-12-6.65568E-12
 -1       148 1.26181E+00 9.21021E-01-1.49056E+00-1.55368E+00 6.31017E-12-4.35391E-12
 -1       149-1.98389E+00-1.23282E+01-2.67287E+00 4.15662E+00 4.57345E-12-1.88458E-12
 -1       150-1.17538E+00-2.19597E+01-3.26585E+00 3.47892E+00 1.71738E-12-3.42426E-13
 -1       151-6.86296E-01-2.44883E+01-3.38028E+00-9.11277E-01-1.81983E-12-1.61919E-13
 -1       152-1.62982E+00-1.75625E+01-2.91853E+00-4.11258E+00-5.00844E-12-1.39855E-12
 -1       153-6.64264E-01-4.53652E+00-1.90973E+00-1.27053E+00-6.83298E-12-3.65188E-12
 -1       154 6.36183E+00 6.74229E+00-5.73422E-01 6.70269E+00-6.66484E-12-5.60513E-12
 -1       155 2.18059E+01 1.13313E+01 9.00151E-01 1.54808E+01-5.06978E-12-6.67699E-12
 -1       156 4.12536E+01 8.80400E+00 2.21308E+00 1.83058E+01-2.95855E-12-6.01486E-12
 -1       157 5.96038E+01 3.43472E+00 3.20340E+00 1.22676E+01-8.15525E-13-3.42670E-12
 -1       158 5.88549E+01 3.62452E+00 3.16841E+00-1.29366E+01-7.79189E-13 3.13971E-12
 -1       159 3.97071E+01 9.19726E+00 2.13483E+00-1.84489E+01-2.73717E-12 5.43826E-12
 -1       160 1.91866E+01 1.12920E+01 7.23416E-01-1.45653E+01-4.59133E-12 5.81973E-12
 -1       161 4.77606E+00 5.54556E+00-7.70548E-01-5.40756E+00-5.22304E-12 4.22018E-12
 -1       162-1.24165E+00-6.53961E+00-2.07687E+00 2.35518E+00-4.33453E-12 2.17065E-12
 -1       163-1.42549E+00-1.89643E+01-3.01068E+00 3.77788E+00-2.22106E-12 6.14023E-13
 -1       164 2.25422E+01 3.68924E+00-5.26011E-02-3.00727E+00-8.09384E-13 5.15595E-14
 -1       165 2.11154E+01 4.23597E+00-4.40457E-02-2.07076E+00-6.87279E-13-7.71220E-13
 -1       166 2.01066E+01 4.49694E+00-3.17024E-02-1.35873E+00-5.21731E-13-1.21375E-12
 -1       167 1.92750E+01 4.62258E+00-2.33585E-02-8.01628E-01-3.38901E-13-1.43410E-12
 -1       168 1.85503E+01 4.70795E+00-1.77755E-02-3.80464E-01-1.80185E-13-1.52182E-12
 -1       169 1.79138E+01 4.78623E+00-1.44265E-02-7.50898E-02-4.16741E-14-1.55793E-12
 -1       170 1.74271E+01 4.86092E+00-1.23348E-02 1.17555E-01 9.21457E-14-1.55189E-12
 -1       171 1.71545E+01 4.92258E+00-1.13571E-02 2.21838E-01 2.10608E-13-1.52706E-12
 -1       172 1.71526E+01 4.95712E+00-1.15296E-02 2.79363E-01 3.17090E-13-1.47958E-12
 -1       173 1.74511E+01 4.95283E+00-1.29980E-02 3.45885E-01 4.24437E-13-1.38845E-12
 -1       174 1.80302E+01 4.90409E+00-1.60644E-02 4.79199E-01 5.41135E-13-1.24238E-12
 -1       175 1.88746E+01 4.80197E+00-2.13843E-02 7.40185E-01 6.78746E-13-9.81431E-13
 -1       176 1.99374E+01 4.62245E+00-3.03217E-02 1.17852E+00 7.94117E-13-5.94686E-13
 -1       177 2.12302E+01 4.28748E+00-4.19350E-02 1.83754E+00 8.65591E-13 6.57772E-14
 -1       178 2.29757E+01 3.47016E+00-4.99449E-02 2.69405E+00 7.70549E-13 1.21669E-12
 -1       179 2.45228E+01 1.05048E+00-3.31047E-01 2.39848E+00 5.47243E-13 2.68111E-12
 -1       180 2.37936E+01 8.08709E-01 2.92225E-04-1.51378E+00-7.32532E-13 1.10644E-12
 -1       181 2.25897E+01 1.53079E-01-9.56572E-03-3.71976E-01-6.10017E-13 7.73539E-13
 -1       182 2.21272E+01 6.47635E-02 1.21851E-02 2.31148E-02-4.41303E-13 4.83289E-13
 -1       183 2.20324E+01-6.28219E-03 7.31694E-03 1.29358E-01-3.43429E-13 2.33588E-13
 -1       184 2.20344E+01-5.83821E-02 1.84220E-03 6.90847E-02-2.33748E-13 7.16109E-14
 -1       185 2.19848E+01-1.00851E-01-8.30653E-04-1.16127E-01-1.85266E-13-5.98516E-14
 -1       186 2.17783E+01-1.23578E-01-1.26179E-03-3.86331E-01-1.40803E-13-1.22735E-13
 -1       187 2.13622E+01-1.08226E-01-2.94329E-04-6.68748E-01-1.45502E-13-1.83234E-13
 -1       188 2.07606E+01-4.10620E-02 1.23925E-03-8.52175E-01-1.58277E-13-1.83803E-13
 -1       189 2.00930E+01 6.86845E-02 2.47623E-03-8.19338E-01-1.82203E-13-2.75627E-13
 -1       190 1.95560E+01 1.78979E-01 3.07161E-03-5.15341E-01-1.64640E-13-6.23079E-13
 -1       191 1.93467E+01 2.32509E-01 3.11699E-03-8.41036E-03-4.80731E-14-7.96977E-13
 -1       192 1.95607E+01 1.98053E-01 2.98153E-03 5.21870E-01-8.05966E-14-8.43007E-13
 -1       193 2.01345E+01 9.59972E-02 2.45949E-03 8.82463E-01-8.55854E-14-9.21659E-13
 -1       194 2.08826E+01-1.90836E-02 1.20721E-03 9.74201E-01-1.47024E-13-9.60323E-13
 -1       195 2.15950E+01-9.92037E-02-5.33905E-04 8.25665E-01-7.92476E-14-1.01351E-12
 -1       196 2.21227E+01-1.28517E-01-2.16846E-03 5.43130E-01-1.54087E-14-1.09382E-12
 -1       197 2.24064E+01-1.17784E-01-3.05886E-03 2.38002E-01 1.37941E-14-1.14314E-12
 -1       198 2.24594E+01-8.70455E-02-3.12695E-03-1.63070E-02-1.13853E-13-1.07095E-12
 -1       199 2.23347E+01-5.28113E-02-2.56998E-03-1.90806E-01 3.31070E-14-1.04335E-12
 -1       200 2.20959E+01-2.41046E-02-1.72558E-03-2.87547E-01 6.99136E-14-9.59959E-13
 -1       201 2.18001E+01-3.81027E-03-8.77468E-04-3.23235E-01 5.09622E-14-8.39164E-13
 -1       202 2.14905E+01 8.59916E-03-1.87053E-04-3.17713E-01 4.32533E-14-8.02142E-13
 -1       203 2.11959E+01 1.49459E-02 2.92067E-04-2.88190E-01-4.05628E-14-6.67949E-13
 -1       204 2.09326E+01 1.71808E-02 5.73376E-04-2.47391E-01 4.61935E-15-7.37807E-13
 -1       205 2.07077E+01 1.69083E-02 6.99815E-04-2.03721E-01-4.60623E-14-7.54567E-13
 -1       206 2.05226E+01 1.52842E-02 7.19506E-04-1.62174E-01-4.02073E-14-7.70998E-13
 -1       207 2.03748E+01 1.30706E-02 6.73940E-04-1.25329E-01 1.68902E-13-7.98534E-13
 -1       208 2.02599E+01 1.07327E-02 5.94216E-04-9.41951E-02 1.15425E-13-7.30294E-13
 -1       209 2.01730E+01 8.53083E-03 5.01492E-04-6.88378E-02-1.14135E-13-8.23668E-13
 -1       210 2.01088E+01 6.59204E-03 4.08944E-04-4.88020E-02-1.62958E-13-7.78504E-13
 -1       211 2.00627E+01 4.96170E-03 3.23974E-04-3.33914E-02-1.50524E-13-9.02674E-13
 -1       212 2.00307E+01 3.63781E-03 2.50092E-04-2.18375E-02-1.27095E-13-9.76320E-13
 -1       213 2.00093E+01 2.59345E-03 1.88350E-04-1.33969E-02-6.36969E-14-9.77781E-13
 -1       214 1.99958E+01 1.79064E-03 1.38356E-04-7.40099E-03 1.07287E-13-9.05791E-13
 -1       215 1.99879E+01 1.18865E-03 9.89472E-05-3.27735E-03 1.45255E-13-9.82950E-13
 -1       216 1.99840E+01 7.48556E-04 6.86329E-05-5.52886E-04 2.77583E-13-1.02357E-12
 -1       217 1.99827E+01 4.35600E-04 4.58514E-05 1.15200E-03-9.48156E-14-9.61366E-13
 -1       218 1.99831E+01 2.20021E-04 2.91213E-05 2.13413E-03-2.57646E-13-9.01777E-13
 -1       219 1.99846E+01 7.71064E-05 1.71131E-05 2.61985E-03-1.47655E-13-8.91553E-13
 -1       220 1.99866E+01-1.32715E-05 8.67484E-06 2.77699E-03 7.81284E-14-1.03752E-12
 -1       221 1.99889E+01-6.73878E-05 2.83216E-06 2.72564E-03 3.84217E-13-8.54247E-13
 -1       222 1.99912E+01-9.85414E-05-1.21110E-06 2.54698E-03 3.05105E-13-3.09578E-13
 -1       223 1.99933E+01-1.18013E-04-4.02861E-06 2.28999E-03 4.54834E-13-6.65154E-14
 -1       224 1.99953E+01-1.36061E-04-5.86299E-06 1.97609E-03 2.74878E-13 1.73747E-13
 -1       225 1.99969E+01-1.62901E-04-6.42993E-06 1.60207E-03-4.74511E-14 2.01957E-13
 -1       226 1.99982E+01-2.08160E-04-6.22517E-06 1.14560E-03 1.43966E-13 6.28651E-14
 -1       227 1.99992E+01-2.66420E-04-4.12913E-06 5.92249E-04 3.78590E-14 1.98900E-13
 -1       228 2.35575E+01 2.60392E-01-4.47751E-02 5.74451E-01 5.98167E-13 2.33094E-12
 -1       229 2.30972E+01 1.32965E-01 9.74602E-03-1.45665E-01 4.51412E-13 1.89572E-12
 -1       230 2.32745E+01 6.77031E-02 1.11104E-02-4.63728E-01 2.89709E-13 1.55059E-12
 -1       231 2.37642E+01 1.83606E-02 5.05977E-03-6.00446E-01 2.05478E-13 1.35348E-12
 -1       232 2.43538E+01-4.37652E-02 2.24789E-03-5.68117E-01 1.04317E-13 1.25273E-12
 -1       233 2.48305E+01-1.28274E-01 3.85995E-03-3.19941E-01 3.47365E-14 1.19132E-12
 -1       234 2.49598E+01-2.18502E-01 8.23502E-03 1.79888E-01 7.67199E-14 1.20819E-12
 -1       235 2.45340E+01-2.58182E-01 1.08259E-02 8.65729E-01 9.15969E-14 1.18722E-12
 -1       236 2.35001E+01-1.60450E-01 4.46270E-03 1.47156E+00 2.03035E-13 1.06792E-12
 -1       237 2.21399E+01 9.45116E-02-1.28476E-02 1.56128E+00 2.00202E-13 9.34855E-13
 -1       238 2.10741E+01 3.87629E-01-3.03732E-02 8.55565E-01 1.77247E-13 6.10958E-13
 -1       239 2.09624E+01 4.59436E-01-3.09335E-02-3.93937E-01 1.02300E-13 3.35012E-13
 -1       240 2.18436E+01 2.71726E-01-1.46747E-02-1.39373E+00 2.56638E-13 6.56888E-14
 -1       241 2.33081E+01-2.79453E-02 4.64075E-03-1.71133E+00 2.63500E-13-6.30954E-14
 -1       242 2.46256E+01-2.20574E-01 1.21289E-02-1.31387E+00 1.64940E-13-3.10357E-13
 -1       243 2.53646E+01-2.50967E-01 8.29375E-03-6.12739E-01 5.34989E-15-4.21205E-13
 -1       244 2.54705E+01-1.85909E-01 1.36666E-03 2.10074E-02-3.93236E-14-2.38263E-13
 -1       245 2.51020E+01-1.00882E-01-2.83001E-03 4.30644E-01-2.03093E-14-2.84120E-13
 -1       246 2.44661E+01-3.44705E-02-3.72412E-03 6.20399E-01 1.31535E-13-3.33378E-13
 -1       247 2.37326E+01 5.58443E-03-2.83451E-03 6.56850E-01 5.12008E-14-4.14709E-13
 -1       248 2.30123E+01 2.48742E-02-1.48607E-03 6.07881E-01-5.33117E-14-2.22935E-13
 -1       249 2.23647E+01 3.12432E-02-3.67283E-04 5.21890E-01-4.08481E-14-1.46050E-13
 -1       250 2.18140E+01 3.07760E-02 3.39303E-04 4.27423E-01 7.82540E-14-2.23756E-13
 -1       251 2.13631E+01 2.72697E-02 6.93430E-04 3.38911E-01 6.55815E-14-2.36292E-13
 -1       252 2.10042E+01 2.28042E-02 8.12014E-04 2.62307E-01-1.24351E-13-2.25170E-13
 -1       253 2.07247E+01 1.83988E-02 7.96283E-04 1.99026E-01-7.93603E-14 3.41242E-14
 -1       254 2.05111E+01 1.44841E-02 7.15213E-04 1.48318E-01-2.34083E-13 3.14529E-14
 -1       255 2.03508E+01 1.11907E-02 6.09980E-04 1.08568E-01-2.45110E-13-3.50393E-14
 -1       256 2.02326E+01 8.50934E-03 5.02781E-04 7.79520E-02 9.79142E-14 1.64237E-13
 -1       257 2.01470E+01 6.37352E-03 4.04328E-04 5.47362E-02 2.37889E-13 1.75727E-13
 -1       258 2.00864E+01 4.69999E-03 3.18879E-04 3.73989E-02 1.52187E-15-4.48739E-14
 -1       259 2.00446E+01 3.40696E-03 2.47295E-04 2.46579E-02 2.41061E-13-7.82803E-14
 -1       260 2.00167E+01 2.42118E-03 1.88790E-04 1.54608E-02 3.15946E-13-5.01470E-14
 -1       261 1.99989E+01 1.67992E-03 1.41881E-04 8.95919E-03-1.80801E-13-3.91959E-13
 -1       262 1.99883E+01 1.13087E-03 1.04878E-04 4.47837E-03-9.63702E-14-5.12717E-13
 -1       263 1.99828E+01 7.31102E-04 7.61177E-05 1.48892E-03-3.64985E-14-1.77272E-13
 -1       264 1.99806E+01 4.45885E-04 5.40835E-05-4.19580E-04-8.12765E-14-3.05332E-13
 -1       265 1.99806E+01 2.47359E-04 3.74413E-05-1.56117E-03 2.29039E-13-2.92612E-13
 -1       266 1.99820E+01 1.13385E-04 2.50481E-05-2.17256E-03 2.61974E-13-4.14662E-13
 -1       267 1.99841E+01 2.64824E-05 1.59405E-05-2.42898E-03-6.52563E-14-3.59077E-13
 -1       268 1.99866E+01-2.71199E-05 9.31779E-06-2.45697E-03-2.99900E-13-3.72571E-13
 -1       269 1.99891E+01-5.83431E-05 4.52685E-06-2.34457E-03-2.95797E-13-1.79682E-13
 -1       270 1.99916E+01-7.61056E-05 1.08163E-06-2.14891E-03 1.52639E-13-1.39375E-13
 -1       271 1.99938E+01-8.82223E-05-1.23096E-06-1.90138E-03-1.31332E-13-2.05627E-16
 -1       272 1.99958E+01-1.01901E-04-2.02727E-06-1.61070E-03 3.62733E-14 1.43152E-13
 -1       273 1.99974E+01-1.24213E-04-3.77260E-07-1.26583E-03-3.11858E-13 4.11718E-13
 -1       274 1.99987E+01-1.66046E-04 1.75165E-07-8.38905E-04-2.81848E-13 2.66848E-13
 -1       275 1.99994E+01-1.91247E-04-4.81712E-06-3.30546E-04-7.16970E-14-8.73060E-14
 -1       276 1.99995E+01-6.50304E-04-4.74545E-06-6.09472E-04-2.24471E-13-3.62436E-13
 -1       277 1.99996E+01-1.52868E-03-1.77068E-06-1.07342E-03 1.24190E-13-5.07205E-14
 -1       278 1.99997E+01-2.64623E-03-7.97405E-07-1.32391E-03 1.25814E-13-7.30371E-14
 -1       279 1.99998E+01-3.84825E-03 8.29772E-07-1.34337E-03-1.87335E-13-5.36449E-13
 -1       280 1.99999E+01-4.95500E-03 3.24984E-06-1.17510E-03-1.76021E-13-4.81755E-13
 -1       281 2.00000E+01-5.86565E-03 5.31486E-06-8.60703E-04-1.42595E-13 6.09512E-13
 -1       282 2.00000E+01-6.45216E-03 6.70743E-06-4.50677E-04 6.81289E-15-8.66696E-15
 -1       283 2.00000E+01-6.65101E-03 7.17676E-06 6.06817E-06 7.81324E-15-2.96040E-14
 -1       284 2.00000E+01-6.44123E-03 6.69275E-06 4.61775E-04 3.74632E-14-2.15429E-14
 -1       285 1.99999E+01-5.84544E-03 5.29135E-06 8.69066E-04-1.82454E-13-5.19995E-13
 -1       286 1.99999E+01-4.94735E-03 3.10859E-06 1.17554E-03-1.73857E-13-3.97226E-13
 -1       287 1.99998E+01-3.82017E-03 8.15152E-07 1.34295E-03-2.21184E-13 2.67230E-13
 -1       288 1.99997E+01-2.62026E-03-1.08030E-06 1.31864E-03-4.46818E-13 9.61132E-14
 -1       289 1.99996E+01-1.51436E-03-4.57264E-06 1.05589E-03-3.73409E-13-3.14517E-14
 -1       290 1.99994E+01-8.34930E-04-5.81634E-06 9.40719E-04 3.28948E-14 4.53107E-13
 -1       291-8.74358E-01-1.04896E+01-8.88696E-01 8.64699E-01 9.88792E-13 1.43612E-12
 -1       292 2.85441E+00-8.17029E+00-6.29936E-01 3.70330E+00 1.31403E-12 1.78603E-12
 -1       293 8.85004E+00-5.82953E+00-5.30161E-01 5.25907E+00 1.98846E-12 1.78283E-12
 -1       294 1.77564E+01-2.22844E+00-2.05144E-01 6.71590E+00 2.05530E-12 1.52470E-12
 -1       295 2.79313E+01 1.64307E+00 2.37248E-01 7.41454E+00 2.13002E-12 1.41293E-12
 -1       296 3.76585E+01 3.92751E+00 5.58415E-01 5.13779E+00 1.65924E-12 7.47874E-13
 -1       297 4.54147E+01 6.06604E+00 1.00262E+00 3.63526E+00 1.43642E-12 1.16879E-13
 -1       298 4.74155E+01 6.93919E+00 1.05737E+00 2.32337E-02 1.69395E-12-9.84894E-13
 -1       299 4.51348E+01 6.31372E+00 9.56247E-01-3.32577E+00 1.92638E-12-1.85085E-12
 -1       300 3.86865E+01 4.62518E+00 7.32520E-01-6.53274E+00 2.21404E-12-2.75108E-12
 -1       301 2.83667E+01 1.90581E+00 2.65367E-01-7.59187E+00 2.45604E-12-3.05467E-12
 -1       302 1.78281E+01-2.49175E+00-1.99158E-01-6.85076E+00 2.11786E-12-2.65327E-12
 -1       303 7.23203E+00-6.11178E+00-6.64480E-01-4.82282E+00 1.94411E-12-2.45548E-12
 -1       304 1.37147E+00-9.47489E+00-9.24681E-01-2.54164E+00 1.00658E-12-1.93462E-12
 -1       305-1.19364E+00-1.11699E+01-1.04524E+00-4.25691E-01-1.22465E-13-1.66336E-12
 -1       306-4.06879E-01-1.04324E+01-9.65375E-01 1.74345E+00-1.29949E-12-1.79939E-12
 -1       307 5.01761E+00-7.10866E+00-5.40097E-01 4.96383E+00-1.73639E-12-2.07982E-12
 -1       308 1.23122E+01-3.65901E+00-3.49471E-01 6.39595E+00-2.67047E-12-2.40859E-12
 -1       309 2.26120E+01-1.88127E-01 3.36002E-02 7.32798E+00-2.55754E-12-2.53389E-12
 -1       310 3.23238E+01 3.60569E+00 4.53215E-01 7.59404E+00-2.54870E-12-2.60797E-12
 -1       311 3.99916E+01 5.55512E+00 6.19567E-01 4.32868E+00-2.12609E-12-1.62781E-12
 -1       312 4.56359E+01 6.76597E+00 9.13773E-01 1.82361E+00-1.72684E-12-1.11952E-12
 -1       313 4.65276E+01 6.53871E+00 1.03366E+00-2.14704E+00-1.54204E-12-6.58917E-14
 -1       314 4.00220E+01 5.46215E+00 6.87449E-01-4.95448E+00-1.64026E-12 6.58806E-13
 -1       315 3.12409E+01 3.40613E+00 4.40204E-01-7.77453E+00-1.78489E-12 1.76631E-12
 -1       316 2.03168E+01 9.78099E-02-1.58136E-02-7.54934E+00-1.80056E-12 2.12963E-12
 -1       317 1.14770E+01-4.61265E+00-3.59633E-01-6.30676E+00-1.16898E-12 1.85529E-12
 -1       318 3.14772E+00-8.22556E+00-7.89393E-01-3.68153E+00-7.90951E-13 1.54431E-12
 -1       319-6.03776E-01-9.88314E+00-8.27593E-01-1.66456E+00 2.17507E-13 1.45478E-12
 -1       320 2.11002E+01 2.94156E+00-2.04313E-02-1.30710E+00-6.95851E-13-6.81675E-13
 -1       321 2.22288E+01 2.12331E+00-1.87147E-02-1.67726E+00-8.25580E-13-1.91701E-13
 -1       322 1.92736E+01 3.73374E+00-1.40089E-02-4.05490E-01-3.03440E-13-1.13295E-12
 -1       323 1.84788E+01 4.01429E+00-1.05474E-02-6.12640E-02-1.29957E-13-1.20658E-12
 -1       324 1.78069E+01 4.25940E+00-7.84061E-03 1.66224E-01 4.43419E-14-1.22501E-12
 -1       325 1.73338E+01 4.45369E+00-6.02108E-03 2.75463E-01 1.99913E-13-1.22224E-12
 -1       326 1.71435E+01 4.56380E+00-5.29105E-03 2.93844E-01 3.32114E-13-1.20139E-12
 -1       327 1.72969E+01 4.55817E+00-5.86867E-03 2.76180E-01 4.55098E-13-1.13422E-12
 -1       328 1.77969E+01 4.42355E+00-7.93824E-03 2.90563E-01 5.86788E-13-1.03129E-12
 -1       329 1.86286E+01 4.15164E+00-1.15940E-02 3.97843E-01 7.24939E-13-8.26941E-13
 -1       330 1.97273E+01 3.73202E+00-1.68396E-02 6.33232E-01 8.45223E-13-5.49252E-13
 -1       331 2.10425E+01 3.11301E+00-2.12896E-02 9.84353E-01 9.36620E-13-1.24730E-13
 -1       332 2.24705E+01 2.14800E+00-2.84693E-02 1.28774E+00 9.14733E-13 6.24127E-13
 -1       333 2.32837E+01 1.16339E+00-2.04898E-02 1.04713E+00 8.01359E-13 1.30555E-12
 -1       334 2.29853E+01 5.12972E-01 9.23951E-03-2.55054E-04 6.35917E-13 1.06358E-12
 -1       335 2.22858E+01 5.65838E-01 1.10559E-02-4.47257E-01-6.39658E-13-3.44729E-14
 -1       336 2.20904E+01 1.77518E-01 4.95996E-03 2.02772E-03-4.86499E-13-5.93954E-14
 -1       337 2.20523E+01-7.14443E-02 9.69350E-04 1.14228E-01-3.58068E-13-8.75057E-14
 -1       338 2.20892E+01-2.67932E-01-1.99288E-03-1.76142E-02-2.58170E-13-1.01321E-13
 -1       339 2.21175E+01-4.07097E-01-3.21428E-03-3.39741E-01-1.63987E-13-6.28202E-14
 -1       340 2.20555E+01-4.37928E-01-2.75189E-03-7.70515E-01-1.11427E-13-2.49765E-14
 -1       341 2.18427E+01-2.96843E-01-8.83526E-04-1.16707E+00-1.09142E-13-2.93444E-14
 -1       342 2.14770E+01 3.42754E-02 1.66389E-03-1.33271E+00-2.75293E-13-5.88344E-14
 -1       343 2.10549E+01 4.63201E-01 3.63910E-03-1.09542E+00-3.64633E-13-1.75421E-13
 -1       344 2.07576E+01 7.90630E-01 4.68429E-03-4.38812E-01-2.61223E-13-3.03648E-13
 -1       345 2.07479E+01 8.27919E-01 4.54177E-03 4.24407E-01-2.12119E-13-5.46842E-13
 -1       346 2.10434E+01 5.53235E-01 3.72375E-03 1.15129E+00-1.12030E-13-6.62940E-13
 -1       347 2.15022E+01 1.24606E-01 1.83756E-03 1.48423E+00-2.06728E-13-7.52905E-13
 -1       348 2.19299E+01-2.47478E-01-5.80333E-04 1.38498E+00-1.37073E-13-7.83788E-13
 -1       349 2.21987E+01-4.45284E-01-2.87255E-03 9.96658E-01-1.27480E-13-7.46262E-13
 -1       350 2.22793E+01-4.69848E-01-3.88702E-03 5.10209E-01-2.12196E-14-7.59391E-13
 -1       351 2.22041E+01-3.85359E-01-3.83488E-03 6.89542E-02 3.93792E-14-7.33395E-13
 -1       352 2.20252E+01-2.60898E-01-3.04246E-03-2.57518E-01-2.25907E-14-6.67845E-13
 -1       353 2.17900E+01-1.42352E-01-1.98480E-03-4.57397E-01 6.06972E-14-6.37896E-13
 -1       354 2.15336E+01-5.03231E-02-1.00174E-03-5.49848E-01 1.35285E-13-6.78822E-13
 -1       355 2.12795E+01 1.14204E-02-2.46123E-04-5.64416E-01 1.19683E-13-5.87144E-13
 -1       356 2.10426E+01 4.72475E-02 2.54663E-04-5.29558E-01 2.69867E-14-5.19734E-13
 -1       357 2.08310E+01 6.39920E-02 5.36787E-04-4.67957E-01-3.27971E-14-4.95104E-13
 -1       358 2.06484E+01 6.81287E-02 6.57278E-04-3.95680E-01 6.06473E-14-4.05737E-13
 -1       359 2.04952E+01 6.47549E-02 6.71276E-04-3.23050E-01 1.45438E-14-3.43926E-13
 -1       360 2.03699E+01 5.74785E-02 6.22941E-04-2.56027E-01-3.14038E-14-3.69100E-13
 -1       361 2.02698E+01 4.86594E-02 5.43665E-04-1.97533E-01-2.37245E-14-5.16632E-13
 -1       362 2.01916E+01 3.97307E-02 4.53988E-04-1.48523E-01-2.84250E-14-5.85120E-13
 -1       363 2.01317E+01 3.14852E-02 3.66180E-04-1.08766E-01-6.67124E-14-5.27536E-13
 -1       364 2.00868E+01 2.42983E-02 2.86801E-04-7.73926E-02-1.25000E-13-4.06931E-13
 -1       365 2.00541E+01 1.82870E-02 2.18720E-04-5.32476E-02-1.40533E-13-2.51614E-13
 -1       366 2.00307E+01 1.34187E-02 1.62543E-04-3.51088E-02-8.79462E-14-2.84624E-13
 -1       367 2.00146E+01 9.58248E-03 1.17604E-04-2.18137E-02 7.33421E-14-2.44671E-13
 -1       368 2.00040E+01 6.63379E-03 8.26118E-05-1.23253E-02 1.52943E-13-2.58590E-13
 -1       369 1.99973E+01 4.42115E-03 5.60397E-05-5.75774E-03 1.13304E-13-2.01591E-13
 -1       370 1.99935E+01 2.80129E-03 3.63543E-05-1.37969E-03 1.52989E-14-3.70240E-13
 -1       371 1.99916E+01 1.64667E-03 2.21406E-05 1.39622E-03-2.02624E-14-3.65847E-13
 -1       372 1.99911E+01 8.48141E-04 1.21581E-05 3.02976E-03-1.72220E-13-1.41171E-13
 -1       373 1.99915E+01 3.14810E-04 5.35270E-06 3.87177E-03-1.36059E-13 1.57638E-14
 -1       374 1.99923E+01-2.77361E-05 8.45923E-07 4.18236E-03 2.17271E-13 9.69594E-14
 -1       375 1.99935E+01-2.40138E-04-2.08780E-06 4.14712E-03 6.07308E-13 9.42890E-16
 -1       376 1.99947E+01-3.72327E-04-4.03419E-06 3.89076E-03 8.05159E-13 1.62433E-13
 -1       377 1.99959E+01-4.66408E-04-5.41742E-06 3.48819E-03 4.96692E-13 2.57173E-14
 -1       378 1.99970E+01-5.58272E-04-6.42302E-06 2.97419E-03-9.91084E-15 7.31008E-14
 -1       379 1.99980E+01-6.78507E-04-8.60036E-06 2.35538E-03 3.08015E-16 3.88541E-13
 -1       380 1.99988E+01-7.65679E-04-8.05747E-06 1.67986E-03 1.38199E-13 3.39539E-13
 -1       381 2.29777E+01 2.57273E-01 9.64521E-03-5.86893E-01 4.64060E-13 8.96551E-13
 -1       382 2.32400E+01 8.44486E-02 3.44078E-03-8.75775E-01 2.91943E-13 7.54736E-13
 -1       383 2.36749E+01-1.17058E-01-2.06859E-03-8.98559E-01 1.53210E-13 6.86597E-13
 -1       384 2.41650E+01-3.78488E-01-5.28814E-03-6.03891E-01 3.50822E-14 6.87712E-13
 -1       385 2.45701E+01-6.55566E-01-6.42434E-03 5.98889E-02 3.21826E-14 7.04671E-13
 -1       386 2.47176E+01-7.93144E-01-7.18500E-03 1.02570E+00 1.30127E-13 7.74192E-13
 -1       387 2.44365E+01-5.40887E-01-9.81192E-03 1.96321E+00 2.09523E-13 8.25440E-13
 -1       388 2.37317E+01 2.15378E-01-1.31781E-02 2.23140E+00 3.09381E-13 7.69847E-13
 -1       389 2.29626E+01 1.14118E+00-1.65434E-02 1.36447E+00 4.55337E-13 5.18068E-13
 -1       390 2.27671E+01 1.44665E+00-1.53349E-02-4.24040E-01 2.86040E-13 7.42041E-14
 -1       391 2.33070E+01 8.93720E-01-1.22816E-02-1.92084E+00 4.17739E-13-3.04526E-13
 -1       392 2.42143E+01-4.39581E-02-6.15247E-03-2.43293E+00 3.17585E-13-4.59150E-13
 -1       393 2.48689E+01-6.77728E-01-5.64331E-03-1.85851E+00 2.54822E-13-4.38239E-13
 -1       394 2.50258E+01-7.99062E-01-8.24908E-03-8.27046E-01 2.72907E-14-4.26741E-13
 -1       395 2.47701E+01-6.06286E-01-9.79023E-03 1.07574E-01-1.77322E-13-3.70837E-13
 -1       396 2.42753E+01-3.37960E-01-7.98791E-03 7.16819E-01 9.36490E-15-2.70530E-13
 -1       397 2.36807E+01-1.21802E-01-4.76789E-03 1.00491E+00 1.95082E-13-2.26485E-13
 -1       398 2.30732E+01 1.24565E-02-1.87789E-03 1.06512E+00 1.65699E-14-8.97956E-14
 -1       399 2.25025E+01 7.96416E-02 1.41597E-04 9.94208E-01-8.26903E-14 2.90961E-14
 -1       400 2.19940E+01 1.03726E-01 1.25837E-03 8.63120E-01 6.31992E-15-1.29652E-13
 -1       401 2.15582E+01 1.04193E-01 1.70359E-03 7.15325E-01 2.41864E-15-1.54334E-13
 -1       402 2.11955E+01 9.36367E-02 1.74857E-03 5.73977E-01 5.41191E-14 3.50532E-14
 -1       403 2.09009E+01 7.91965E-02 1.59183E-03 4.49471E-01-1.13887E-13 1.58708E-13
 -1       404 2.06666E+01 6.45115E-02 1.35649E-03 3.45012E-01-8.37328E-14 6.90756E-15
 -1       405 2.04836E+01 5.12125E-02 1.10937E-03 2.60136E-01-1.67482E-13-9.87292E-14
 -1       406 2.03430E+01 3.98691E-02 8.82158E-04 1.92754E-01-1.89754E-13-6.43406E-14
 -1       407 2.02369E+01 3.05328E-02 6.86845E-04 1.40238E-01 3.06157E-14-1.52843E-13
 -1       408 2.01583E+01 2.30288E-02 5.25505E-04 9.99611E-02 6.04294E-14 2.45416E-14
 -1       409 2.01010E+01 1.71031E-02 3.95678E-04 6.95416E-02 1.90125E-13 3.40163E-13
 -1       410 2.00602E+01 1.24923E-02 2.93194E-04 4.69247E-02 3.67212E-15 1.77876E-13
 -1       411 2.00319E+01 8.95371E-03 2.13555E-04 3.03922E-02 3.93853E-13 2.63970E-13
 -1       412 2.00128E+01 6.27537E-03 1.52559E-04 1.85374E-02 1.11691E-13-7.90368E-14
 -1       413 2.00006E+01 4.27798E-03 1.06506E-04 1.02280E-02-1.62798E-13-3.42561E-13
 -1       414 1.99933E+01 2.81293E-03 7.22610E-05 4.56448E-03-2.73046E-13-1.72522E-13
 -1       415 1.99893E+01 1.75879E-03 4.72217E-05 8.42550E-04-1.48467E-14 6.66661E-14
 -1       416 1.99877E+01 1.01748E-03 2.92607E-05-1.48228E-03 1.22196E-13 7.57239E-14
 -1       417 1.99876E+01 5.10544E-04 1.66575E-05-2.82457E-03 2.69676E-13 6.98147E-14
 -1       418 1.99884E+01 1.75682E-04 8.03017E-06-3.49450E-03-9.08094E-14 3.26442E-13
 -1       419 1.99898E+01-3.64032E-05 2.27570E-06-3.71890E-03-5.90545E-14 3.22867E-14
 -1       420 1.99914E+01-1.64851E-04-1.48715E-06-3.65828E-03-2.36657E-13-5.18792E-13
 -1       421 1.99931E+01-2.41326E-04-3.96945E-06-3.42008E-03-1.58945E-13-4.00758E-13
 -1       422 1.99948E+01-2.92616E-04-5.69809E-06-3.06856E-03-2.65206E-13 1.68601E-13
 -1       423 1.99962E+01-3.42475E-04-6.82366E-06-2.63181E-03-4.69440E-14 3.39045E-13
 -1       424 1.99975E+01-4.09019E-04-6.94874E-06-2.10954E-03-2.79504E-13 2.34533E-13
 -1       425 1.99986E+01-5.03247E-04-6.17629E-06-1.48829E-03 1.05022E-13-1.76920E-15
 -1       426 1.99991E+01-6.02357E-04-5.15365E-06-1.06819E-03 1.46025E-13-2.94261E-13
 -1       427 1.99998E+01-2.82814E-03-8.78848E-07-2.28422E-03 1.74697E-13-5.65525E-13
 -1       428 1.99994E+01-1.90963E-03-5.23208E-06-2.11579E-03 2.68219E-13 1.09532E-13
 -1       429 1.99992E+01-1.22632E-03-7.28799E-06-1.66985E-03 4.46006E-13-5.85259E-14
 -1       430 2.00001E+01-3.68613E-03 2.26550E-06-2.13313E-03-2.61539E-14-8.61516E-13
 -1       431 2.00003E+01-4.42821E-03 4.59481E-06-1.71491E-03 1.76957E-13 2.19224E-13
 -1       432 2.00004E+01-4.96426E-03 6.26730E-06-1.10215E-03-1.14273E-13 1.69218E-13
 -1       433 2.00005E+01-5.24298E-03 7.12306E-06-3.73002E-04-4.48454E-13 3.03811E-15
 -1       434 2.00005E+01-5.23819E-03 7.11363E-06 3.93694E-04-4.29060E-13 1.69601E-14
 -1       435 2.00004E+01-4.95052E-03 6.24206E-06 1.11953E-03-2.08299E-13-2.55007E-13
 -1       436 2.00003E+01-4.41893E-03 4.54471E-06 1.71749E-03 2.05543E-13-4.21142E-13
 -1       437 2.00001E+01-3.67645E-03 2.24388E-06 2.13240E-03 2.84187E-13 1.56220E-13
 -1       438 1.99998E+01-2.80342E-03-7.27533E-07 2.28125E-03 6.49530E-14-1.32930E-13
 -1       439 1.99994E+01-1.88814E-03-5.20866E-06 2.11884E-03-5.88027E-14-7.22002E-14
 -1       440 1.08027E+01-5.47673E+00 1.20737E-02 6.72201E+00 1.32255E-14 8.38440E-13
 -1       441 9.75122E-01-4.64576E+00-9.00692E-02-3.85006E-01 3.80185E-13 1.45403E-12
 -1       442 3.10227E+00-4.88735E+00-7.28399E-02 3.68404E+00 2.99705E-13 1.67626E-12
 -1       443 1.75254E+01-5.94016E+00-4.40729E-02 6.61909E+00 2.45234E-13 4.02612E-13
 -1       444 2.63793E+01-3.90354E+00 5.36041E-03 4.44928E+00 7.95336E-13 5.44703E-14
 -1       445 2.01416E+01 3.40313E+00-2.05593E-02-8.42220E-01-4.99275E-13-9.87817E-13
 -1       446 3.54720E+01 4.54257E+00 3.86020E-02-3.27888E-01 1.53727E-12-4.23994E-13
 -1       447 3.74321E+01 7.41663E+00 1.38021E-01-3.24777E-01 1.85857E-12-4.72622E-13
 -1       448 3.60011E+01 7.56851E+00 3.71644E-02 3.46628E-01 1.92377E-12-3.39256E-13
 -1       449 3.61055E+01 4.56480E+00 1.15955E-01-2.59034E-01 1.64614E-12-5.16989E-13
 -1       450 3.26138E+01 7.74436E-02 4.86915E-02-1.88723E+00 1.15450E-12-6.63414E-13
 -1       451 2.69231E+01-4.00729E+00-8.34400E-04-4.33261E+00 4.98129E-13-7.90215E-13
 -1       452 1.69932E+01-5.74911E+00-5.24822E-02-6.89723E+00 1.25067E-13-1.48935E-12
 -1       453 8.15081E+00-5.62175E+00-1.07063E-01-6.24449E+00 7.72993E-14-2.01378E-12
 -1       454 2.29713E+00-5.01753E+00-1.39497E-01-3.17415E+00-7.28584E-14-2.03816E-12
 -1       455 1.11232E+00-4.47737E+00-9.55589E-02 1.18937E+00-1.60576E-13-2.08381E-12
 -1       456 4.93567E+00-4.14684E+00 2.47752E-02 5.16510E+00-3.95378E-14-1.85123E-12
 -1       457 1.30611E+01-5.30996E+00-3.40195E-02 7.20320E+00-4.89497E-13-1.39413E-12
 -1       458 2.15219E+01-4.84229E+00-1.71958E-02 6.35648E+00-7.30291E-13-9.68288E-13
 -1       459 2.91976E+01-1.71544E+00 2.64537E-02 3.45643E+00-1.21989E-12-6.02282E-13
 -1       460 3.29890E+01 2.09560E+00 1.64597E-03 1.07175E+00-1.61254E-12-4.49460E-13
 -1       461 3.39972E+01 6.64577E+00-5.24775E-02-5.95923E-01-1.87438E-12-6.22294E-13
 -1       462 3.67812E+01 8.17341E+00 1.07287E-01 2.95150E-02-1.89562E-12-7.47968E-13
 -1       463 3.53642E+01 6.59729E+00 5.78054E-02 1.73685E-01-1.64324E-12-7.49442E-13
 -1       464 3.26034E+01 1.71493E+00 4.41395E-03-1.12681E+00-9.41740E-13-6.40946E-13
 -1       465 2.79464E+01-2.18772E+00 1.65896E-02-4.20965E+00-3.82930E-13-2.91017E-14
 -1       466 2.03597E+01-4.66180E+00-2.31715E-02-6.44821E+00-5.36515E-14 7.06268E-13
 -1       467 1.09408E+01-5.33138E+00-2.27347E-02-7.14038E+00 3.43961E-13 1.31996E-12
 -1       468 4.54679E+00-4.85868E+00-4.24483E-02-5.16332E+00 3.36564E-13 1.63314E-12
 -1       469 3.16506E+01-5.71431E-01 1.03690E-03 2.10627E+00 1.17210E-12-1.15880E-13
 -1       470 3.21108E+01 8.37500E-01-7.13762E-02-1.32375E+00 1.09202E-12-8.32223E-13
 -1       471 1.78442E+01-5.62514E+00 5.97319E-02-7.00971E+00 6.91100E-13 6.13878E-13
 -1       472 1.08390E+01-3.91439E+00 9.40205E-02 6.88801E+00 4.72983E-13-1.39186E-12
 -1       473 2.22201E+01 9.41973E-01 4.08841E-03-3.30718E-01 6.35097E-13 2.50362E-13
 -1       474 1.83092E+01 3.42949E+00-3.63239E-03 3.44730E-01-1.05259E-14-1.09430E-12
 -1       475 1.91563E+01 3.03005E+00-4.96113E-03 9.00733E-02-1.77075E-13-1.03769E-12
 -1       476 1.71659E+01 4.02409E+00-1.96769E-03 4.17679E-01 2.74195E-13-1.11299E-12
 -1       477 1.70988E+01 4.10788E+00-1.93073E-03 2.76281E-01 3.88585E-13-1.08824E-12
 -1       478 1.74497E+01 3.99513E+00-2.57702E-03 1.18766E-01 4.97112E-13-1.00910E-12
 -1       479 1.82100E+01 3.67960E+00-3.79086E-03 2.56974E-02 6.23953E-13-8.43179E-13
 -1       480 1.92934E+01 3.18097E+00-5.28897E-03 4.95200E-02 7.17568E-13-6.23785E-13
 -1       481 2.05924E+01 2.50594E+00-5.27826E-03 1.80322E-01 7.87785E-13-3.32551E-13
 -1       482 2.22900E+01 4.94724E-01 4.20879E-03-9.45312E-01 4.48301E-13 2.33575E-13
 -1       483 2.17904E+01 7.57094E-01 2.07886E-03-2.30731E-01-5.19440E-13-3.40630E-13
 -1       484 2.18651E+01 1.77115E-01 4.28119E-04 1.18360E-01-3.91949E-13-2.56118E-13
 -1       485 2.20235E+01-2.71397E-01-8.46760E-04 1.76537E-01-2.74631E-13-1.64167E-13
 -1       486 2.22623E+01-6.38136E-01-1.69512E-03-3.65186E-02-1.69070E-13-9.15717E-14
 -1       487 2.25194E+01-8.60621E-01-1.91764E-03-4.78082E-01-1.06408E-13-5.84970E-14
 -1       488 2.26898E+01-8.10631E-01-1.08145E-03-1.04360E+00-1.26609E-13-6.14893E-14
 -1       489 2.26574E+01-3.65798E-01-2.76120E-04-1.52066E+00-2.08007E-13-9.95997E-14
 -1       490 2.23864E+01 4.43773E-01-2.44069E-04-1.60722E+00-4.02075E-13-1.26222E-13
 -1       491 2.20158E+01 1.30790E+00-2.10732E-03-1.07982E+00-4.22412E-13-1.47070E-13
 -1       492 2.18189E+01 1.74012E+00-2.46653E-03-2.96340E-02-4.11397E-13-3.05967E-13
 -1       493 2.19615E+01 1.45469E+00-2.82991E-03 1.07705E+00-3.38077E-13-5.00326E-13
 -1       494 2.23297E+01 6.40897E-01-1.72559E-03 1.73969E+00-2.38963E-13-7.65445E-13
 -1       495 2.26485E+01-2.31435E-01-5.51059E-04 1.76066E+00-1.96361E-13-7.90118E-13
 -1       496 2.27279E+01-7.92725E-01-1.41693E-03 1.31059E+00-1.16295E-13-7.44778E-13
 -1       497 2.25660E+01-9.65517E-01-1.73759E-03 6.81943E-01-8.56211E-14-6.48682E-13
 -1       498 2.22566E+01-8.58558E-01-1.97773E-03 9.61706E-02-1.37314E-16-7.06967E-13
 -1       499 2.19005E+01-6.23924E-01-1.71352E-03-3.41324E-01 2.97539E-14-6.84181E-13
 -1       500 2.15605E+01-3.74199E-01-1.18377E-03-6.13109E-01 3.23243E-14-5.76688E-13
 -1       501 2.12634E+01-1.66755E-01-6.55606E-04-7.44302E-01 7.37323E-14-6.47037E-13
 -1       502 2.10141E+01-1.89081E-02-2.41040E-04-7.72757E-01 1.68880E-13-5.48310E-13
 -1       503 2.08083E+01 7.33498E-02 3.87664E-05-7.34505E-01 6.81218E-14-6.35665E-13
 -1       504 2.06394E+01 1.22159E-01 2.02794E-04-6.58410E-01 6.82745E-14-5.74997E-13
 -1       505 2.05012E+01 1.40653E-01 2.80811E-04-5.65332E-01 3.68089E-14-5.38438E-13
 -1       506 2.03885E+01 1.39936E-01 3.01224E-04-4.69147E-01 4.89195E-14-5.21682E-13
 -1       507 2.02972E+01 1.28301E-01 2.87158E-04-3.78305E-01-1.21515E-13-4.42421E-13
 -1       508 2.02239E+01 1.11453E-01 2.54848E-04-2.97345E-01 1.35741E-15-2.66841E-13
 -1       509 2.01658E+01 9.30466E-02 2.15320E-04-2.28155E-01 2.35999E-14-2.55005E-13
 -1       510 2.01203E+01 7.52520E-02 1.75234E-04-1.70939E-01-1.18879E-14-2.09375E-13
 -1       511 2.00852E+01 5.92269E-02 1.38252E-04-1.24913E-01-5.49754E-14-1.39116E-13
 -1       512 2.00586E+01 4.54704E-02 1.06123E-04-8.87858E-02-1.01795E-13-2.01944E-13
 -1       513 2.00388E+01 3.40782E-02 7.93655E-05-6.10735E-02-1.41747E-13-7.28034E-14
 -1       514 2.00244E+01 2.49162E-02 5.77836E-05-4.02933E-02-7.56595E-15-7.13038E-14
 -1       515 2.00141E+01 1.77337E-02 4.08671E-05-2.50740E-02 1.13088E-13-7.52921E-14
 -1       516 2.00070E+01 1.22351E-02 2.79444E-05-1.42109E-02 7.33341E-14-1.24055E-13
 -1       517 2.00023E+01 8.12301E-03 1.83160E-05-6.68427E-03 8.28644E-14-2.06254E-13
 -1       518 1.99993E+01 5.12136E-03 1.13248E-05-1.65695E-03-2.41726E-13-2.02740E-13
 -1       519 1.99976E+01 2.98709E-03 6.38827E-06 1.54093E-03 8.53043E-15-1.79905E-13
 -1       520 1.99967E+01 1.51339E-03 3.00941E-06 3.43219E-03-7.58507E-15-1.24047E-13
 -1       521 1.99965E+01 5.28442E-04 7.73201E-07 4.41474E-03 2.22854E-13 4.32282E-13
 -1       522 1.99966E+01-1.08483E-04-6.65303E-07 4.78254E-03 2.02133E-13 2.65515E-13
 -1       523 1.99969E+01-5.12261E-04-1.59334E-06 4.74446E-03 6.30782E-13 1.27722E-13
 -1       524 1.99974E+01-7.77296E-04-2.24859E-06 4.44053E-03 3.51499E-13-1.00891E-13
 -1       525 1.99979E+01-9.80761E-04-2.62061E-06 3.95524E-03 3.81520E-13-2.16337E-13
 -1       526 1.99984E+01-1.18547E-03-3.29422E-06 3.33123E-03 2.48863E-13 5.53180E-14
 -1       527 2.30313E+01-4.68575E-01-3.38711E-03-1.26436E+00 8.22792E-14 2.37306E-13
 -1       528 2.37560E+01-1.11761E+00-4.39066E-03-8.42181E-01-2.18790E-14 2.82953E-13
 -1       529 2.46549E+01-1.68840E+00-5.09459E-03 7.57514E-02-3.50258E-14 3.82737E-13
 -1       530 2.55106E+01-1.74134E+00-1.67842E-02 1.40367E+00 1.94421E-14 6.18783E-13
 -1       531 2.58845E+01-6.79337E-01-1.49371E-02 2.62219E+00 2.62335E-13 8.03910E-13
 -1       532 2.52408E+01 1.54523E+00-1.30360E-01 2.65751E+00 6.26482E-13 7.03948E-13
 -1       533 2.51795E+01 3.10581E+00-6.66868E-02 7.23549E-01 8.38159E-13 2.05187E-13
 -1       534 2.51230E+01 2.89472E+00-8.70456E-02-1.67886E+00 7.73031E-13-4.44064E-13
 -1       535 2.57617E+01 7.48477E-01-5.01425E-02-2.92169E+00 5.42537E-13-8.11812E-13
 -1       536 2.58963E+01-1.16990E+00-2.36796E-02-2.42938E+00 2.39318E-13-8.15620E-13
 -1       537 2.53425E+01-1.86331E+00-8.97411E-03-1.07865E+00-3.21162E-15-6.19029E-13
 -1       538 2.44311E+01-1.60138E+00-7.27464E-03 1.91858E-01-1.01535E-13-4.54285E-13
 -1       539 2.35317E+01-1.00068E+00-5.72822E-03 1.02675E+00-1.07875E-13-4.91456E-13
 -1       540 2.27954E+01-4.47288E-01-3.35707E-03 1.43231E+00-9.83832E-14-2.64035E-13
 -1       541 2.22280E+01-6.93283E-02-1.50696E-03 1.53397E+00 2.44238E-15-3.48195E-14
 -1       542 2.17884E+01 1.41772E-01-7.59029E-05 1.45615E+00-6.28893E-14-1.22134E-13
 -1       543 2.14375E+01 2.35103E-01 7.72672E-04 1.28947E+00-4.13157E-15-1.37506E-13
 -1       544 2.11497E+01 2.57905E-01 1.12266E-03 1.09123E+00-3.29107E-14 1.79131E-14
 -1       545 2.09106E+01 2.43829E-01 1.18008E-03 8.94165E-01-8.43068E-14-3.98968E-14
 -1       546 2.07121E+01 2.13594E-01 1.08681E-03 7.14852E-01-1.10541E-13 1.30754E-13
 -1       547 2.05486E+01 1.78734E-01 9.32079E-04 5.60059E-01-3.04991E-15 6.40884E-14
 -1       548 2.04158E+01 1.45065E-01 7.65142E-04 4.31037E-01-1.02345E-13-6.92409E-15
 -1       549 2.03096E+01 1.15133E-01 6.09876E-04 3.26198E-01-1.17558E-13 2.60339E-14
 -1       550 2.02259E+01 8.97469E-02 4.75571E-04 2.42704E-01-1.24871E-13 9.25664E-14
 -1       551 2.01612E+01 6.88560E-02 3.64254E-04 1.77336E-01-2.68107E-14 7.71468E-14
 -1       552 2.01119E+01 5.20286E-02 2.74518E-04 1.26959E-01-9.61709E-14-1.31980E-13
 -1       553 2.00751E+01 3.87022E-02 2.03605E-04 8.87264E-02 9.74169E-14-2.73040E-14
 -1       554 2.00482E+01 2.83042E-02 1.48450E-04 6.01695E-02 1.70740E-13 1.57534E-13
 -1       555 2.00289E+01 2.03051E-02 1.06178E-04 3.92027E-02 4.59790E-13 2.25840E-13
 -1       556 2.00154E+01 1.42392E-02 7.42346E-05 2.41028E-02 7.75759E-14-2.67622E-14
 -1       557 2.00064E+01 9.70948E-03 5.04596E-05 1.34708E-02-2.62225E-13-1.66014E-13
 -1       558 2.00005E+01 6.38417E-03 3.30571E-05 6.18771E-03-2.24243E-13-1.45552E-13
 -1       559 1.99970E+01 3.99030E-03 2.05601E-05 1.37189E-03 7.61147E-14-2.91293E-13
 -1       560 1.99951E+01 2.30608E-03 1.17832E-05-1.66130E-03 1.75340E-13-2.85012E-13
 -1       561 1.99944E+01 1.15311E-03 5.77624E-06-3.43481E-03-2.94826E-14 6.45494E-14
 -1       562 1.99943E+01 3.88910E-04 1.78514E-06-4.34052E-03-1.56709E-13 1.95692E-13
 -1       563 1.99948E+01-9.99830E-05-7.71531E-07-4.66488E-03 5.24646E-14 3.25463E-13
 -1       564 1.99954E+01-4.04197E-04-2.34988E-06-4.60993E-03-4.36667E-13 3.65205E-13
 -1       565 1.99962E+01-5.97357E-04-3.37445E-06-4.31040E-03-3.76638E-13 1.64959E-13
 -1       566 1.99970E+01-7.40557E-04-4.41478E-06-3.84776E-03-1.81746E-13-2.27306E-13
 -1       567 1.99978E+01-8.86286E-04-6.61178E-06-3.26809E-03-2.77273E-13 3.09745E-14
 -1       568 1.99985E+01-1.05866E-03-6.72084E-06-2.57422E-03-9.59602E-15-1.16846E-13
 -1       569 2.00006E+01-3.41575E-03 1.64001E-06-2.52523E-03 2.86660E-13-2.28697E-13
 -1       570 2.00010E+01-3.90011E-03 2.43447E-06-1.83612E-03 6.55497E-15 2.30318E-13
 -1       571 1.99995E+01-2.05573E-03-1.06306E-06-2.99173E-03 1.49833E-13-1.12631E-13
 -1       572 2.00001E+01-2.78709E-03 6.97945E-07-2.93255E-03 1.41618E-13-8.79387E-13
 -1       573 2.00012E+01-4.20132E-03 3.06106E-06-9.57555E-04-3.01748E-13-3.88433E-13
 -1       574 2.00013E+01-4.30053E-03 3.23035E-06 1.47755E-05-1.16452E-13 1.00784E-13
 -1       575 2.00012E+01-4.19155E-03 3.03391E-06 9.84835E-04 2.92264E-14 4.53257E-14
 -1       576 2.00010E+01-3.88903E-03 2.40761E-06 1.84344E-03 3.85993E-14-6.03073E-14
 -1       577 2.00006E+01-3.40203E-03 1.66388E-06 2.52712E-03 2.40123E-13-2.10955E-13
 -1       578 2.00001E+01-2.76409E-03 8.76906E-07 2.93312E-03 1.32077E-13-2.40371E-13
 -1       579 1.99995E+01-2.02949E-03-1.91143E-06 2.97230E-03 4.65556E-14-1.42238E-14
 -1       580 4.55940E+00-1.81045E+00 1.63487E-01 1.82069E+00 6.10935E-14 1.43738E-12
 -1       581 9.21003E+00-3.04169E+00 1.40140E-01 5.54211E+00-4.49953E-13 8.34097E-13
 -1       582 5.37320E+00-1.62441E+00 1.79668E-01-3.07584E+00 3.38344E-13 1.43142E-12
 -1       583 2.25489E+01 6.43929E-02 2.55334E-04-1.26833E+00 2.51255E-13 2.17896E-13
 -1       584 1.75102E+01-5.20793E+00 1.04751E-01 6.41293E+00-5.25434E-13 5.79987E-14
 -1       585 2.41047E+01-5.78347E+00 2.32553E-02 4.35778E+00-1.87649E-13-4.03205E-13
 -1       586 2.91614E+01-3.64356E+00-4.80162E-02 1.13728E+00 4.67751E-13-7.76809E-13
 -1       587 2.63913E+01-4.57407E+00-8.05597E-03 3.37034E+00-1.52239E-13-8.92342E-15
 -1       588 1.76061E+01 3.77793E+00-2.57945E-03 4.55952E-01 1.37959E-13-1.11653E-12
 -1       589 3.11000E+01 7.05433E+00-1.63382E-01-4.40360E-01 1.72519E-12-2.60965E-13
 -1       590 3.02475E+01 7.39085E+00-1.62705E-01-4.67443E-01-1.75482E-12-7.19737E-13
 -1       591 3.15213E+01 5.52597E+00-1.69277E-01-1.81937E+00 1.56036E-12-6.20809E-13
 -1       592 3.15834E+01 4.97215E+00-1.21706E-01 1.92987E+00 1.44021E-12 1.77330E-13
 -1       593 3.11574E+01 9.85297E-01-9.31074E-02 1.91508E+00 8.47204E-13 4.45907E-13
 -1       594 2.97184E+01-3.31010E+00-5.50340E-02-5.42460E-01 1.80755E-13 2.24917E-13
 -1       595 2.38551E+01-5.77886E+00 2.43760E-02-4.77876E+00-4.58591E-13-4.32130E-13
 -1       596 1.49529E+01-4.72261E+00 8.45341E-02-6.80696E+00-6.05252E-13-1.30951E-12
 -1       597 8.47774E+00-3.01189E+00 1.41137E-01-5.55200E+00-4.04510E-13-1.81218E-12
 -1       598 4.04253E+00-1.69050E+00 1.45062E-01-1.32658E+00-9.16055E-14-1.99632E-12
 -1       599 5.45411E+00-1.41048E+00 1.80146E-01 3.05619E+00 2.74301E-13-1.79032E-12
 -1       600 1.94876E+01-5.30754E+00 7.05915E-02 6.60248E+00 3.71564E-13-6.27268E-13
 -1       601 2.97878E+01-1.21472E+00-7.61342E-02 1.66130E-01-8.01796E-13 1.11001E-13
 -1       602 3.02425E+01 3.19623E+00-1.43372E-01-1.67197E+00-1.30252E-12-1.13839E-13
 -1       603 3.02675E+01 6.98365E+00-1.73506E-01 9.91323E-01-1.63068E-12-1.00119E-12
 -1       604 3.05238E+01 3.41728E+00-1.25842E-01 1.70288E+00-1.01615E-12-1.27524E-12
 -1       605 2.91654E+01-2.14407E+00-8.92186E-02-5.16291E-01-1.52501E-13-1.03042E-12
 -1       606 2.55938E+01-4.93186E+00 5.13722E-03-3.86876E+00 3.91388E-13-5.74124E-13
 -1       607 1.12717E+01-3.17924E+00 1.61882E-01-6.42771E+00 6.44519E-13 1.13827E-12
 -1       608 2.15721E+01 1.62452E+00-6.74465E-03-7.57072E-01-6.51693E-13-5.11599E-13
 -1       609 2.23659E+01 1.37504E+00-1.24121E-03 3.83922E-01 7.93054E-13 3.95104E-13
 -1       610 2.85828E+01 5.62674E+00-1.61901E-01 1.01457E+00 1.47604E-12 2.20837E-13
 -1       611 2.00553E+01 2.60223E+00-6.56533E-03-2.59157E-01-3.59023E-13-9.14848E-13
 -1       612 3.00521E+01 2.70471E+00-1.35089E-01-2.70177E+00 1.10734E-12-8.22654E-13
 -1       613 2.81377E+01 5.12519E+00-1.47663E-01-1.73304E+00-1.35254E-12-2.38077E-13
 -1       614 9.29061E+00-1.60155E+00 1.47549E-01 5.10766E+00 5.55719E-13-1.46125E-12
 -1       615 1.99988E+01-1.33075E-03-4.31161E-06 2.82778E-03 6.93229E-14 3.02337E-13
 -1       616 1.69872E+01 3.57819E+00-8.11436E-04 8.05163E-02 4.15295E-13-9.53248E-13
 -1       617 1.68724E+01 3.58050E+00-5.10034E-04 4.51715E-01 3.29490E-13-1.02345E-12
 -1       618 1.86732E+01 2.80512E+00-1.65527E-03-4.60811E-01 5.59965E-13-6.71088E-13
 -1       619 1.99843E+01 2.14682E+00-9.84112E-04-5.10092E-01 5.95397E-13-4.51415E-13
 -1       620 2.11740E+01 1.27280E+00 2.04344E-03-7.36578E-01 5.25350E-13-1.86575E-13
 -1       621 2.68771E+01-4.71921E+00-1.61695E-02 1.29103E+00-1.43710E-13-8.36376E-13
 -1       622 2.12879E+01 6.50822E-01 1.25270E-03-1.33984E+00 3.09600E-13-1.53923E-13
 -1       623 2.16089E+01 2.86760E-02-1.03594E-03 4.01946E-01-2.45637E-13-3.55552E-13
 -1       624 2.20227E+01-6.22163E-01-9.22981E-04 4.12717E-01-1.53547E-13-2.43857E-13
 -1       625 2.25611E+01-1.16064E+00-1.28124E-03 1.29532E-01-8.11708E-14-1.59381E-13
 -1       626 2.31503E+01-1.43107E+00-1.91159E-03-4.45256E-01-9.76435E-14-1.00901E-13
 -1       627 2.36160E+01-1.17809E+00-2.01964E-03-1.19629E+00-1.50286E-13-6.89568E-14
 -1       628 2.37263E+01-1.82666E-01-5.20676E-03-1.80432E+00-3.05534E-13 1.56875E-14
 -1       629 2.34391E+01 1.34555E+00-1.30210E-02-1.76900E+00-4.30252E-13 2.44852E-14
 -1       630 2.30367E+01 2.65725E+00-2.04720E-02-8.04885E-01-6.25135E-13-1.67532E-13
 -1       631 2.29716E+01 2.79142E+00-2.01407E-02 6.95414E-01-6.37255E-13-5.12893E-13
 -1       632 2.33161E+01 1.68925E+00-1.40033E-02 1.82448E+00-4.59373E-13-7.38326E-13
 -1       633 2.36604E+01 8.78870E-02-8.67461E-03 2.04832E+00-3.06420E-13-8.62834E-13
 -1       634 2.36120E+01-1.08513E+00-4.85905E-03 1.50749E+00-1.45543E-13-8.88577E-13
 -1       635 2.31819E+01-1.55544E+00-8.04285E-04 6.92388E-01-1.25330E-14-7.76961E-13
 -1       636 2.25496E+01-1.47122E+00-8.26363E-04-4.17821E-02-2.08948E-14-5.81155E-13
 -1       637 2.19194E+01-1.11648E+00-7.71051E-04-5.54375E-01 7.33411E-14-3.85265E-13
 -1       638 2.13920E+01-7.04899E-01-5.44287E-04-8.47155E-01 1.23935E-14-4.28732E-13
 -1       639 2.09929E+01-3.48652E-01-2.94069E-04-9.71088E-01 2.94758E-14-4.22733E-13
 -1       640 2.07080E+01-8.56469E-02-1.08510E-04-9.80825E-01 1.35434E-13-4.49958E-13
 -1       641 2.05102E+01 8.56464E-02 4.95064E-06-9.20470E-01 8.27454E-14-6.23194E-13
 -1       642 2.03739E+01 1.82623E-01 6.69728E-05-8.22001E-01 1.03749E-13-4.14220E-13
 -1       643 2.02789E+01 2.25897E-01 9.58179E-05-7.07306E-01 4.19180E-14-4.07524E-13
 -1       644 2.02113E+01 2.33722E-01 1.03451E-04-5.90629E-01 2.85507E-14-2.98637E-13
 -1       645 2.01618E+01 2.20243E-01 9.93965E-05-4.80673E-01 1.79841E-13-2.60076E-13
 -1       646 2.01246E+01 1.95548E-01 8.83421E-05-3.82219E-01 1.53134E-13 7.88124E-14
 -1       647 2.00959E+01 1.66369E-01 7.46694E-05-2.97358E-01-5.50429E-14 8.04934E-14
 -1       648 2.00735E+01 1.36903E-01 6.08070E-05-2.26412E-01-1.41211E-13-1.18712E-13
 -1       649 2.00559E+01 1.09556E-01 4.80003E-05-1.68620E-01 3.87702E-14-9.70426E-14
 -1       650 2.00420E+01 8.55215E-02 3.69288E-05-1.22619E-01-1.13314E-13-1.91897E-13
 -1       651 2.00311E+01 6.52158E-02 2.77468E-05-8.67862E-02-4.87490E-14-7.56111E-15
 -1       652 2.00227E+01 4.85878E-02 2.02681E-05-5.94555E-02-1.82710E-13-1.03750E-13
 -1       653 2.00161E+01 3.53272E-02 1.43804E-05-3.90503E-02 5.56791E-14-7.00066E-15
 -1       654 2.00112E+01 2.50014E-02 9.86839E-06-2.41572E-02-6.52285E-15-1.27820E-13
 -1       655 2.00075E+01 1.71417E-02 6.49676E-06-1.35574E-02-8.32834E-14-2.24624E-13
 -1       656 2.00048E+01 1.12938E-02 4.04160E-06-6.23221E-03-1.38338E-13-5.38230E-13
 -1       657 2.00028E+01 7.04569E-03 2.30325E-06-1.35227E-03-3.74427E-15-1.71007E-13
 -1       658 2.00015E+01 4.03873E-03 1.11087E-06 1.74166E-03 7.98810E-14-5.04039E-14
 -1       659 2.00006E+01 1.97028E-03 3.23674E-07 3.56146E-03 2.36017E-13 2.33005E-14
 -1       660 2.00000E+01 5.90010E-04-1.76836E-07 4.49478E-03 1.70580E-13-9.65451E-14
 -1       661 1.99996E+01-3.06735E-04-5.03222E-07 4.82661E-03 3.43958E-13 1.98123E-13
 -1       662 1.99994E+01-8.86634E-04-6.99558E-07 4.75844E-03 3.31861E-13-8.74017E-14
 -1       663 1.99993E+01-1.28504E-03-5.26000E-07 4.42544E-03 1.25272E-13-2.18946E-13
 -1       664 1.99993E+01-1.61144E-03-1.33649E-06 3.90532E-03 4.51987E-13-2.48548E-13
 -1       665 2.34847E+01-2.16948E+00-6.14240E-03-1.46236E+00-1.63169E-13 4.42250E-14
 -1       666 2.79198E+01-1.36287E-01-9.63515E-02 1.88244E+00-3.86555E-13-1.37208E-12
 -1       667 2.22808E+01-1.00733E+00-2.84383E-03-1.82662E+00-3.59205E-14-9.87846E-14
 -1       668 2.68577E+01-2.70938E+00-3.74394E-02 1.23118E+00-6.59698E-14 6.16823E-13
 -1       669 2.76378E+01 2.67535E+00-1.14835E-01-2.79398E+00 9.23824E-13-7.88640E-13
 -1       670 2.75765E+01-1.00865E+00-6.38720E-02-2.64678E+00 3.86000E-13-1.00401E-12
 -1       671 2.63442E+01-2.85861E+00-2.06150E-02-9.61318E-01-7.85280E-14-8.58025E-13
 -1       672 2.46463E+01-2.76637E+00-1.76484E-03 5.71064E-01-1.70977E-13-7.13863E-13
 -1       673 2.31237E+01-1.85489E+00-1.85632E-03 1.48963E+00-1.97785E-13-5.22848E-13
 -1       674 2.20738E+01-9.27630E-01-5.84080E-04 1.86629E+00-2.08081E-13-2.99027E-13
 -1       675 2.14199E+01-2.52902E-01-8.86030E-04 1.91166E+00-1.67658E-13-2.02400E-13
 -1       676 2.10331E+01 1.47978E-01-3.21922E-04 1.78499E+00-1.68513E-14-2.73265E-14
 -1       677 2.07970E+01 3.45130E-01 2.30063E-04 1.57921E+00-5.61555E-14 7.62558E-14
 -1       678 2.06399E+01 4.13390E-01 4.50782E-04 1.34693E+00-1.10970E-13 2.36635E-13
 -1       679 2.05233E+01 4.09439E-01 5.11753E-04 1.11763E+00-1.89445E-14 3.25224E-13
 -1       680 2.04285E+01 3.70134E-01 4.88869E-04 9.06982E-01-7.22812E-14 1.81648E-13
 -1       681 2.03478E+01 3.17252E-01 4.28441E-04 7.22173E-01-2.64100E-14 7.04763E-14
 -1       682 2.02783E+01 2.62614E-01 3.56941E-04 5.65237E-01 3.05930E-15 1.88249E-13
 -1       683 2.02190E+01 2.12017E-01 2.88015E-04 4.35257E-01-1.10911E-13 8.11193E-14
 -1       684 2.01691E+01 1.67847E-01 2.26858E-04 3.29777E-01-1.53873E-13 1.12504E-13
 -1       685 2.01281E+01 1.30677E-01 1.75306E-04 2.45677E-01 1.78927E-14-3.36041E-14
 -1       686 2.00949E+01 1.00178E-01 1.33255E-04 1.79697E-01 1.14539E-13 1.23048E-14
 -1       687 2.00688E+01 7.56299E-02 9.97343E-05 1.28731E-01 8.83945E-14-2.09301E-13
 -1       688 2.00485E+01 5.61907E-02 7.34289E-05 8.99733E-02 5.34850E-14-1.87678E-13
 -1       689 2.00332E+01 4.10234E-02 5.31271E-05 6.09746E-02 1.48923E-13-1.94094E-13
 -1       690 2.00218E+01 2.93589E-02 3.76541E-05 3.96570E-02 2.68009E-13 1.59634E-13
 -1       691 2.00135E+01 2.05205E-02 2.60372E-05 2.42926E-02-3.41288E-14 2.39117E-13
 -1       692 2.00076E+01 1.39294E-02 1.74521E-05 1.34712E-02-1.44972E-13 1.86758E-14
 -1       693 2.00036E+01 9.10062E-03 1.12187E-05 6.05984E-03 1.21279E-13-5.54658E-13
 -1       694 2.00010E+01 5.63357E-03 6.78349E-06 1.16313E-03 3.82832E-14-5.99525E-13
 -1       695 1.99994E+01 3.20194E-03 3.69695E-06-1.91548E-03 7.02734E-14-4.24201E-13
 -1       696 1.99984E+01 1.54248E-03 1.59519E-06-3.70829E-03-2.47268E-13-4.21253E-13
 -1       697 1.99980E+01 4.44303E-04 2.07144E-07-4.61373E-03-2.16422E-13-2.81912E-13
 -1       698 1.99979E+01-2.61224E-04-6.09088E-07-4.92200E-03-2.44848E-13 6.10927E-14
 -1       699 1.99980E+01-7.08774E-04-9.76222E-07-4.83671E-03-2.62697E-13-1.03275E-13
 -1       700 1.99983E+01-1.00824E-03-1.37113E-06-4.49390E-03-2.18849E-13-1.09614E-14
 -1       701 1.99986E+01-1.25297E-03-1.84046E-06-3.97491E-03-2.04697E-13 1.17434E-13
 -1       702 1.99991E+01-1.62254E-03-1.72592E-06-3.53280E-03-1.48011E-13 1.98313E-14
 -1       703 2.00022E+01-3.51675E-03 1.06274E-06-5.51442E-04 1.20282E-13 1.79778E-13
 -1       704 1.99994E+01-1.81592E-03-2.18451E-06 3.46953E-03 3.85240E-13-2.99195E-13
 -1       705 2.00015E+01-3.07559E-03 4.67382E-07-2.58418E-03 1.17685E-14-3.83112E-13
 -1       706 2.00022E+01-3.51084E-03 1.06380E-06 5.89585E-04 3.31944E-13-1.34889E-13
 -1       707 2.00020E+01-3.37083E-03 9.48864E-07-1.64384E-03-1.70386E-13-1.65145E-13
 -1       708 2.00020E+01-3.35817E-03 8.05636E-07 1.65879E-03 1.98506E-13-1.81273E-13
 -1       709 2.00015E+01-3.05690E-03 5.44167E-07 2.59156E-03-4.93387E-15-2.87546E-13
 -1       710 2.00008E+01-2.61526E-03 6.41922E-07 3.26390E-03 3.43012E-13 5.03861E-14
 -1       711 2.35009E+01-4.88608E+00 6.44988E-03 4.10550E+00 4.22436E-13 2.33013E-14
 -1       712 1.78890E+01-4.16174E+00 8.14439E-02-6.02192E+00 8.80639E-13 1.69769E-13
 -1       713 1.00048E+01-9.72885E-01 1.41859E-01-4.24340E+00 4.01415E-13 1.11273E-12
 -1       714 2.03302E+01-4.60465E+00 5.66110E-02-5.31768E+00-7.09037E-13-5.68337E-13
 -1       715 2.83389E+01 5.02092E+00-1.95202E-01-1.56566E+00 1.33984E-12-3.57291E-13
 -1       716 2.67855E+01-3.96038E+00-2.99121E-02-1.18191E+00 3.64599E-13-9.56409E-13
 -1       717 2.16100E+01-7.24401E-02 1.26884E-04-1.72716E+00 1.58018E-13-1.59819E-13
 -1       718 8.98022E+00-8.19013E-01 1.43930E-01 3.33056E+00-3.09374E-13 7.86746E-13
 -1       719 2.51750E+01-3.01514E+00-6.15764E-03-4.55219E-01-2.59932E-13 3.14120E-13
 -1       720 2.13204E+01 7.62261E-01 1.34526E-03 1.29461E-01-3.48360E-13-4.80306E-13
 -1       721 1.76221E+01 3.30430E+00-1.07405E-03-2.58937E-01 4.98163E-13-8.41514E-13
 -1       722 1.50655E+01-3.01248E+00 1.07105E-01 5.63160E+00-6.80015E-13 1.17847E-13
 -1       723 2.31823E+01-5.15889E+00 1.40390E-02-4.27136E+00 8.03892E-13-4.98856E-13
 -1       724 1.89381E+01 2.43171E+00-1.57083E-03 6.29044E-01-4.22476E-14-9.29135E-13
 -1       725 2.82411E+01 9.36085E-02-9.44360E-02-1.61825E+00-6.15851E-13 2.66277E-13
 -1       726 2.93857E+01-1.81207E+00-9.71247E-02-1.65069E+00 5.57360E-13-1.01396E-12
 -1       727 7.60504E+00 3.50758E-01 1.70090E-01 3.57211E-01 1.53707E-13-1.60765E-12
 -1       728 1.63374E+01-3.25142E+00 1.17789E-01 6.20085E+00 7.35731E-13-7.74700E-13
 -1       729 2.65298E+01-4.50006E+00-2.03603E-02-1.49858E+00-4.11434E-13 2.60994E-13
 -1       730 1.35330E+01-2.52760E+00 1.17849E-01-5.67916E+00-6.04312E-13-1.31294E-12
 -1       731 2.71988E+01-3.23776E+00-3.69310E-02 4.26872E-01-1.69283E-14 2.95160E-13
 -1       732 9.02081E+00-4.89127E-01 1.58258E-01-3.41624E+00-2.82796E-13-1.65863E-12
 -1       733 7.39022E+00-7.11624E-02 1.60838E-01-4.55535E-01 8.97038E-14 1.23190E-12
 -1       734 2.65314E+01 5.91566E+00-1.78681E-01 3.60524E-01-1.40017E-12-6.38301E-13
 -1       735 2.73027E+01 4.37744E+00-1.32035E-01 2.05715E+00-1.05745E-12-1.12753E-12
 -1       736 2.21192E+01-5.02656E+00 5.12988E-02 4.41840E+00-6.24539E-13-4.46546E-13
 -1       737 1.99035E+01 1.94561E+00-1.58775E-03 3.32351E-01-1.95177E-13-8.36687E-13
 -1       738 1.72582E+01 3.33122E+00-6.32917E-04 7.17237E-01 2.15369E-13-1.01282E-12
 -1       739 2.00008E+01-2.63984E-03 9.34761E-07-3.26423E-03 8.02800E-14-6.03670E-13
 -1       740 2.00000E+01-2.17173E-03 3.43663E-08-3.56048E-03-7.51836E-14-6.22955E-13
 -1       741 2.70331E+01 2.22373E+00-9.70365E-02-2.24453E+00-8.24823E-13 1.55355E-13
 -1       742 2.04235E+01-3.79250E+00 3.84297E-02 4.85538E+00 6.55483E-13-3.41595E-13
 -1       743 2.09543E+01 1.35238E+00-8.26974E-04-2.93491E-02-3.86644E-13-6.37838E-13
 -1       744 2.40657E+01-4.36183E+00 5.13590E-02-2.92670E+00-5.80339E-13-1.73509E-14
 -1       745 2.00002E+01-2.11565E-03-9.49730E-08 3.68326E-03 3.53175E-13-2.72402E-13
 -1       746 9.29908E+00 3.20897E-01 1.24233E-01 2.56471E+00 3.91040E-13-1.40374E-12
 -1       747 1.49612E+01-2.24903E+00 8.01266E-02-5.31424E+00 6.53829E-13 5.02943E-13
 -1       748 1.80070E+01 2.91516E+00-1.13658E-03 7.79403E-01 8.88588E-14-9.80329E-13
 -1       749 2.47069E+01-4.28613E+00 9.49905E-03 1.92552E+00-4.13586E-13-6.67985E-13
 -1       750 1.92467E+01 1.84215E+00-1.85879E-03-1.09758E+00 4.31020E-13-5.60569E-13
 -1       751 2.81784E+01 3.03285E+00-1.98202E-01 2.16896E+00 1.00448E-12 5.57086E-13
 -1       752 2.13255E+01-2.45252E-01 8.66595E-04 8.90709E-01-8.46400E-14-4.46990E-13
 -1       753 2.20044E+01-1.09937E+00-3.39851E-04 8.99775E-01-1.78617E-14-3.03349E-13
 -1       754 2.29302E+01-1.83612E+00-1.02152E-03 5.74792E-01 5.69792E-15-1.34603E-13
 -1       755 2.39825E+01-2.12075E+00-6.73021E-04-1.80734E-01-3.67909E-14 6.49461E-14
 -1       756 2.48693E+01-1.55003E+00-1.49388E-02-1.23504E+00-1.23301E-13 2.00307E-13
 -1       757 2.51458E+01 3.71710E-01-2.96471E-02-2.05227E+00-3.80172E-13 2.38476E-13
 -1       758 2.44307E+01 4.43473E+00-7.95729E-02-1.64490E-01-1.00072E-12-2.95547E-13
 -1       759 2.50443E+01 9.20356E-01-4.33267E-02 2.37671E+00-4.57962E-13-9.61614E-13
 -1       760 2.48590E+01-1.22092E+00-1.13214E-02 1.64855E+00-2.22205E-13-9.23421E-13
 -1       761 2.40830E+01-2.25433E+00-5.26297E-04 5.06942E-01 2.14255E-14-7.68174E-13
 -1       762 2.29964E+01-2.21941E+00 1.05149E-03-4.35799E-01 1.83744E-13-5.52708E-13
 -1       763 2.19793E+01-1.70851E+00 6.53920E-05-9.97060E-01 1.55658E-13-3.87284E-13
 -1       764 2.12026E+01-1.09661E+00 4.59073E-05-1.24148E+00 8.47911E-14-4.47525E-13
 -1       765 2.06701E+01-5.64108E-01 6.57210E-05-1.28835E+00 7.84008E-14-3.08414E-13
 -1       766 2.03352E+01-1.67998E-01 1.01623E-04-1.22493E+00 7.50615E-14-2.82823E-13
 -1       767 2.01404E+01 9.44430E-02 1.03489E-04-1.10651E+00 6.66934E-14-2.86411E-13
 -1       768 2.00367E+01 2.48111E-01 8.95777E-05-9.65341E-01 2.33646E-13-1.67021E-13
 -1       769 1.99885E+01 3.22083E-01 7.45186E-05-8.19993E-01 5.99134E-14-8.24196E-14
 -1       770 1.99715E+01 3.42264E-01 6.02048E-05-6.81014E-01 1.30449E-13 2.89901E-14
 -1       771 1.99707E+01 3.28957E-01 5.09376E-05-5.54212E-01 6.98139E-14 6.94466E-14
 -1       772 1.99770E+01 2.96970E-01 4.04959E-05-4.42475E-01 2.13128E-13-4.29532E-14
 -1       773 1.99853E+01 2.56484E-01 3.12926E-05-3.46741E-01 4.96527E-14-1.83239E-13
 -1       774 1.99932E+01 2.14070E-01 2.37449E-05-2.66680E-01-6.20284E-14-5.68037E-14
 -1       775 1.99996E+01 1.73692E-01 1.76481E-05-2.01175E-01-7.57768E-14 1.09491E-13
 -1       776 2.00041E+01 1.37489E-01 1.32002E-05-1.48647E-01-2.19524E-13-3.47151E-14
 -1       777 2.00070E+01 1.06370E-01 9.97002E-06-1.07327E-01 3.50373E-14-5.56600E-14
 -1       778 2.00085E+01 8.04848E-02 7.22198E-06-7.54366E-02-3.84545E-14-1.37000E-13
 -1       779 2.00090E+01 5.95327E-02 5.06886E-06-5.12944E-02-2.66548E-14 1.84177E-13
 -1       780 2.00088E+01 4.29768E-02 3.44068E-06-3.33835E-02-9.94251E-14 6.93192E-14
 -1       781 2.00081E+01 3.01844E-02 2.23875E-06-2.03848E-02-1.15064E-13 8.31842E-14
 -1       782 2.00072E+01 2.05139E-02 1.37223E-06-1.11835E-02-1.18721E-13-8.62660E-14
 -1       783 2.00061E+01 1.33651E-02 7.63951E-07-4.86091E-03 9.98115E-14 3.01967E-13
 -1       784 2.00051E+01 8.20447E-03 3.49550E-07-6.77041E-04 4.84234E-14 3.39415E-13
 -1       785 2.00041E+01 4.57381E-03 7.59752E-08 1.95138E-03 3.27167E-13 2.75509E-13
 -1       786 2.00032E+01 2.08987E-03-9.25575E-08 3.47408E-03 2.15449E-13 2.41797E-13
 -1       787 2.00024E+01 4.37302E-04-1.84669E-07 4.22950E-03 2.73479E-13 1.64200E-13
 -1       788 2.00017E+01-6.40690E-04-2.08626E-07 4.46459E-03 1.97749E-13-1.89259E-13
 -1       789 2.00011E+01-1.35203E-03 2.82321E-07 4.35219E-03 1.72179E-13 6.36753E-17
 -1       790 2.00006E+01-1.77794E-03-9.21565E-07 4.08871E-03 2.57491E-13-1.84162E-14
 -1       791 2.47406E+01 3.94928E+00-6.91333E-02 1.39069E+00-8.96564E-13-6.63199E-13
 -1       792 2.48834E+01-3.96058E+00-1.64604E-03 1.82925E+00 2.84798E-13 7.66236E-14
 -1       793 2.08685E+01-1.47909E+00 3.04175E-03 2.66672E+00-3.20540E-13-2.84576E-13
 -1       794 2.01778E+01-4.51065E-01 1.01187E-03 2.41039E+00-3.23277E-13-1.71383E-13
 -1       795 1.98987E+01 1.67697E-01-3.78528E-04 2.10364E+00-2.32942E-13-1.28583E-13
 -1       796 1.98331E+01 4.85281E-01 1.34523E-04 1.79883E+00-1.15415E-13-4.24197E-15
 -1       797 1.98563E+01 6.10640E-01 1.69544E-04 1.51581E+00-1.53173E-13 7.81823E-14
 -1       798 1.99070E+01 6.23703E-01 1.74821E-04 1.25955E+00-1.17702E-13 8.71092E-14
 -1       799 1.99567E+01 5.77815E-01 1.60758E-04 1.03177E+00 1.19143E-13 1.63669E-13
 -1       800 1.99950E+01 5.05824E-01 1.35750E-04 8.32907E-01-7.34676E-14 1.87246E-13
 -1       801 2.00201E+01 4.26653E-01 1.09844E-04 6.62468E-01-2.42599E-14 1.28659E-13
 -1       802 2.00341E+01 3.50393E-01 8.83378E-05 5.19039E-01 1.04338E-13 1.74153E-13
 -1       803 2.00398E+01 2.81830E-01 6.96379E-05 4.00453E-01-3.49150E-15-3.03246E-14
 -1       804 2.00401E+01 2.22743E-01 5.39302E-05 3.04052E-01 1.36081E-13-3.03434E-13
 -1       805 2.00373E+01 1.73276E-01 4.10385E-05 2.26942E-01-6.83089E-14-3.17068E-13
 -1       806 2.00327E+01 1.32748E-01 3.07289E-05 1.66230E-01 1.57145E-13-1.86097E-15
 -1       807 2.00276E+01 1.00132E-01 2.26462E-05 1.19183E-01 4.56515E-14-3.33556E-14
 -1       808 2.00226E+01 7.42982E-02 1.65377E-05 8.33067E-02 1.02460E-13-7.37470E-14
 -1       809 2.00180E+01 5.41394E-02 1.18281E-05 5.64070E-02 1.95517E-13-9.55608E-15
 -1       810 2.00141E+01 3.86410E-02 8.26594E-06 3.66026E-02 6.68472E-14-4.52125E-14
 -1       811 2.00107E+01 2.69081E-02 5.61570E-06 2.23165E-02-1.92459E-14-1.50287E-13
 -1       812 2.00080E+01 1.81720E-02 3.67708E-06 1.22520E-02 2.46054E-13-1.82057E-13
 -1       813 2.00058E+01 1.17857E-02 2.28490E-06 5.36197E-03 5.20847E-14 5.26917E-14
 -1       814 2.00041E+01 7.21319E-03 1.30101E-06 8.15412E-04 7.06451E-14-2.35632E-13
 -1       815 2.00028E+01 4.01635E-03 5.97211E-07-2.03536E-03-1.46612E-13-7.91919E-14
 -1       816 2.00018E+01 1.84090E-03 5.30293E-08-3.68575E-03-3.16232E-13-1.54160E-13
 -1       817 2.00011E+01 4.01947E-04-3.17836E-07-4.50672E-03-3.09813E-13-2.05892E-13
 -1       818 2.00006E+01-5.29243E-04-2.43360E-07-4.76695E-03-2.53448E-13-3.35392E-13
 -1       819 2.00002E+01-1.13143E-03 2.13391E-08-4.65381E-03-5.25802E-13 1.35049E-13
 -1       820 1.99999E+01-1.55719E-03-2.00220E-08-4.29363E-03-1.13503E-13-3.57557E-14
 -1       821 2.00000E+01-1.85259E-03-4.73855E-07-3.95240E-03-3.10472E-14-3.28950E-13
 -1       822 1.64122E+01 3.12973E+00-2.96132E-04 2.81389E-01 3.42099E-13-9.37942E-13
 -1       823 2.00018E+01-2.33296E-03 1.14713E-06 3.29839E-03 1.43708E-13 5.69845E-15
 -1       824 2.00033E+01-2.81410E-03 5.57859E-07 2.53506E-05 2.22165E-13 1.45466E-13
 -1       825 1.01947E+01 8.26358E-01 1.00805E-01-1.47090E+00 8.91648E-16-1.40691E-12
 -1       826 1.35895E+01-1.17033E+00 9.94299E-02 5.01462E+00 6.98485E-13-1.02400E-12
 -1       827 2.00026E+01-2.60180E-03-1.12519E-08 2.37633E-03 1.50840E-13-3.50020E-13
 -1       828 1.36786E+01-6.86812E-01 6.22821E-02 3.85357E+00-4.35704E-13 8.48609E-14
 -1       829 2.11710E+01-1.60416E+00 1.98977E-02-2.84235E+00-2.22531E-13-2.86510E-13
 -1       830 1.80865E+01-2.72916E+00 6.13341E-02-4.87946E+00-6.17773E-13-7.40671E-13
 -1       831 2.62785E+01-2.29415E+00-3.19368E-02 8.80955E-01-2.78466E-14-1.10005E-12
 -1       832 1.31417E+01-5.00438E-01 8.17968E-02-4.06871E+00-3.57839E-13-1.25789E-12
 -1       833 2.02643E+01 1.21960E+00 4.84186E-04-1.27035E+00 3.53149E-13-3.96639E-13
 -1       834 1.95191E+01-3.25841E+00 3.99858E-02 4.44911E+00-5.90366E-13-2.29241E-13
 -1       835 1.01420E+01 4.05172E-01 9.47199E-02 1.34457E+00-1.95428E-13 9.50524E-13
 -1       836 1.07503E+01 4.36824E-01 9.18173E-02-1.88653E+00 1.28077E-13 9.40917E-13
 -1       837 2.61751E+01-1.47818E+00-3.96268E-02-1.42440E+00-1.58991E-13 2.66501E-13
 -1       838 2.00031E+01-2.75824E-03 2.58701E-07 1.25248E-03 2.60770E-13-2.15567E-14
 -1       839 2.08363E+01 8.60896E-01-1.91750E-04 4.47564E-01-2.27287E-13-5.96362E-13
 -1       840 1.66746E+01 2.93355E+00-1.97970E-04 8.72168E-01 2.73078E-13-9.24809E-13
 -1       841 1.78431E+01 2.50705E+00 1.14698E-03-8.55714E-01 4.03148E-13-7.24673E-13
 -1       842 2.74752E+01-3.17231E+00-2.66140E-02-8.81668E-01 7.02091E-14-1.05430E-12
 -1       843 1.68283E+01 2.97338E+00-3.60210E-04-3.70387E-01 3.74275E-13-8.59088E-13
 -1       844 2.00019E+01-2.36761E-03-2.74925E-07-3.28983E-03 1.18791E-13-2.11673E-13
 -1       845 2.48173E+01 2.92618E+00-5.30665E-02-1.79037E+00-7.39036E-13 9.53430E-14
 -1       846 2.00027E+01-2.62520E-03 5.91068E-07-2.35531E-03-7.10001E-15 1.26118E-14
 -1       847 1.04942E+01 1.16113E+00 8.00783E-02 4.64152E-01 2.00192E-13-1.32245E-12
 -1       848 1.97136E+01 1.33569E+00 1.51849E-03 9.41987E-01-3.51777E-14-7.53832E-13
 -1       849 2.00032E+01-2.77250E-03 1.72123E-07-1.21361E-03 2.00695E-13-1.76018E-14
 -1       850 2.04028E+01 4.23840E-01-1.78489E-03-1.87530E+00 1.85852E-13-4.12232E-13
 -1       851 2.47137E+01-3.87157E+00-4.50592E-03-1.35810E+00 4.32734E-13-7.53873E-13
 -1       852 2.05796E+01-4.52022E-01-3.09226E-03-2.38231E+00-1.59089E-14-3.59883E-13
 -1       853 1.35341E+01-4.78622E-01 5.46454E-02-3.69464E+00 3.74584E-13 6.12782E-13
 -1       854 1.73818E+01-2.05925E+00 4.73970E-02 4.83789E+00 6.57524E-13-6.88202E-13
 -1       855 2.00012E+01-2.05302E-03 3.94046E-07 3.74335E-03 1.92735E-14 6.52122E-14
 -1       856 2.23025E+01-2.90839E+00 1.59575E-02 2.66052E+00-3.40350E-13-3.90905E-13
 -1       857 2.13510E+01-4.10242E+00 3.02792E-02-4.14132E+00 6.98875E-13-4.08901E-13
 -1       858 1.85940E+01 1.88522E+00 8.20021E-05 1.19695E+00 7.19599E-14-8.67591E-13
 -1       859 1.86044E+01-2.81802E+00 3.85841E-02-4.51374E+00 6.43671E-13-2.31568E-14
 -1       860 1.20491E+01 9.16139E-01 4.48014E-02 3.72032E-02 1.39793E-14 8.94191E-13
 -1       861 2.08484E+01-5.33366E-01 4.19698E-03 1.56372E+00 7.75927E-14-5.16363E-13
 -1       862 2.17975E+01-1.65883E+00 2.78902E-03 1.71297E+00 1.39685E-13-3.67751E-13
 -1       863 2.31956E+01-2.67368E+00-6.63207E-03 1.42757E+00 1.83307E-13-2.09065E-13
 -1       864 1.76682E+01-1.22536E+00 2.47269E-02 3.71459E+00-4.01903E-13-7.46911E-14
 -1       865 2.34542E+01-3.13672E+00-1.11210E-02-1.23428E+00 3.64525E-13-4.36510E-13
 -1       866 2.18891E+01-2.36000E+00 3.84833E-03-1.78064E+00 2.11636E-13-3.46786E-13
 -1       867 2.08305E+01-1.49108E+00 1.50355E-03-1.86813E+00-5.53995E-15-4.02464E-13
 -1       868 2.01809E+01-7.57630E-01 4.42229E-04-1.73653E+00 1.65808E-13-3.72183E-13
 -1       869 1.98268E+01-2.24653E-01 1.69086E-04-1.52560E+00 1.31251E-13-3.35814E-13
 -1       870 1.96633E+01 1.25466E-01 6.66893E-05-1.30130E+00 1.03682E-13-2.89544E-13
 -1       871 1.96140E+01 3.32020E-01 1.52533E-05-1.08971E+00 2.44685E-13-1.64730E-13
 -1       872 1.96284E+01 4.34003E-01-2.19286E-06-8.99918E-01 2.49240E-13-7.66552E-14
 -1       873 1.96737E+01 4.65226E-01-1.11699E-05-7.33954E-01 1.61086E-13-6.53055E-14
 -1       874 1.97306E+01 4.51492E-01-1.42124E-06-5.91004E-01 1.83284E-13 3.45849E-14
 -1       875 1.97880E+01 4.11774E-01 7.16427E-07-4.69603E-01 1.40560E-13 9.68712E-14
 -1       876 1.98399E+01 3.59394E-01-6.26299E-07-3.67936E-01-2.97764E-15 5.47388E-14
 -1       877 1.98840E+01 3.03236E-01-6.40708E-07-2.83962E-01 2.77423E-15 1.32816E-13
 -1       878 1.99195E+01 2.48745E-01-9.15943E-07-2.15658E-01 5.90276E-14 8.40609E-14
 -1       879 1.99471E+01 1.99166E-01 6.23340E-07-1.60937E-01-2.46018E-13 9.15001E-14
 -1       880 1.99677E+01 1.55946E-01 2.60526E-06-1.17751E-01-8.25175E-14 7.19183E-15
 -1       881 1.99825E+01 1.19523E-01 3.00151E-06-8.42230E-02-9.20492E-14-8.54735E-14
 -1       882 1.99928E+01 8.96671E-02 2.92760E-06-5.86228E-02 1.29439E-13-2.60045E-13
 -1       883 1.99996E+01 6.57783E-02 2.69119E-06-3.94198E-02-6.34031E-14-2.59281E-13
 -1       884 2.00037E+01 4.70818E-02 2.37936E-06-2.52906E-02-4.16988E-14-1.53964E-13
 -1       885 2.00060E+01 3.27564E-02 2.04096E-06-1.51165E-02-2.53717E-13-1.52908E-13
 -1       886 2.00069E+01 2.20110E-02 1.70765E-06-7.97208E-03 3.01074E-13-3.86127E-14
 -1       887 2.00070E+01 1.41273E-02 1.39883E-06-3.10635E-03 9.24170E-14 2.22546E-13
 -1       888 2.00065E+01 8.47861E-03 1.12017E-06 7.81533E-05 2.55018E-13 4.62063E-13
 -1       889 2.00058E+01 4.53409E-03 8.65810E-07 2.04761E-03 2.71984E-13 4.14985E-13
 -1       890 2.00049E+01 1.85358E-03 6.45962E-07 3.15836E-03 1.20798E-13 3.20951E-13
 -1       891 2.00039E+01 7.55005E-05 3.64609E-07 3.67673E-03-7.72146E-14 9.14312E-14
 -1       892 2.00030E+01-1.09737E-03-1.66070E-06 3.79360E-03 2.69740E-13 8.85024E-14
 -1       893 1.84253E+01 2.77691E-01-8.57044E-04 2.31357E+00-2.97849E-13-1.86559E-13
 -1       894 2.00031E+01-1.82191E-03 2.00161E-06 3.05309E-03 3.34025E-13-3.10449E-13
 -1       895 1.89173E+01 8.23040E-01 3.37115E-05 1.52944E+00-1.72765E-13-1.62769E-13
 -1       896 1.91701E+01 8.46818E-01 3.58122E-05 1.25921E+00-1.54023E-13-1.23324E-13
 -1       897 1.93849E+01 7.95367E-01 4.40029E-05 1.03557E+00 6.94982E-15-2.44926E-13
 -1       898 1.95568E+01 7.07412E-01 2.98169E-05 8.45501E-01-8.14748E-14-1.40012E-13
 -1       899 1.96890E+01 6.06415E-01 1.46424E-05 6.82858E-01 7.26677E-14-1.13327E-13
 -1       900 1.97876E+01 5.05978E-01 1.18556E-05 5.44306E-01 1.65037E-14-1.29351E-13
 -1       901 1.98593E+01 4.13208E-01 9.76620E-06 4.27598E-01 1.01254E-13 5.43815E-14
 -1       902 1.99104E+01 3.31367E-01 8.72456E-06 3.30739E-01 2.30020E-13 9.29044E-14
 -1       903 1.99460E+01 2.61448E-01 6.62112E-06 2.51620E-01 5.60126E-14-8.49019E-14
 -1       904 1.99702E+01 2.03111E-01 4.06236E-06 1.88023E-01-9.45144E-15-2.18152E-13
 -1       905 1.99862E+01 1.55368E-01 2.12261E-06 1.37760E-01 1.23962E-13-1.55346E-13
 -1       906 1.99964E+01 1.16973E-01 1.65512E-06 9.86941E-02 1.55593E-13-9.16743E-14
 -1       907 2.00026E+01 8.65785E-02 1.19627E-06 6.88416E-02 1.37216E-13-6.29104E-14
 -1       908 2.00060E+01 6.28803E-02 8.26990E-07 4.64332E-02 1.37251E-14 1.35804E-13
 -1       909 2.00076E+01 4.46859E-02 5.56473E-07 2.99330E-02 2.52595E-13 1.72703E-13
 -1       910 2.00080E+01 3.09403E-02 3.63088E-07 1.80401E-02-1.80145E-14 1.80961E-13
 -1       911 2.00077E+01 2.07341E-02 2.25543E-07 9.67725E-03 7.48084E-14 3.05442E-13
 -1       912 2.00070E+01 1.32993E-02 1.24475E-07 3.97008E-03 9.75987E-14 3.36624E-13
 -1       913 2.00060E+01 7.99865E-03 2.54626E-08 2.22959E-04-3.27677E-14 4.73938E-13
 -1       914 2.00050E+01 4.31004E-03-1.81623E-07-2.10713E-03-9.73691E-14 3.81599E-13
 -1       915 2.00040E+01 1.81047E-03-1.83934E-07-3.43456E-03-2.50593E-13 3.28127E-14
 -1       916 2.00031E+01 1.67364E-04 9.19604E-07-4.06932E-03-1.87979E-13 1.28078E-13
 -1       917 2.00023E+01-9.21989E-04-1.14869E-06-4.25121E-03-4.20797E-13-4.12750E-14
 -1       918 2.00016E+01-1.64569E-03-3.34115E-07-4.10881E-03 8.36213E-14-5.40904E-13
 -1       919 1.37026E+01 4.36427E-01 2.38407E-02 2.36284E+00-2.81620E-13 2.11811E-13
 -1       920 2.00009E+01-2.15030E-03-2.36888E-07-3.74376E-03 1.21012E-13-8.82733E-13
 -1       921 2.22751E+01-3.22084E+00 6.94043E-03 2.96852E+00 4.10436E-13-2.36779E-13
 -1       922 1.26096E+01 5.86575E-01 6.91549E-02 3.12623E+00 4.64552E-13-1.03422E-12
 -1       923 1.66579E+01-8.63444E-01 3.54351E-02-3.93822E+00-3.55197E-13-8.29045E-13
 -1       924 1.86507E+01 6.61604E-01 1.90315E-04 1.87042E+00-2.24851E-13-3.13179E-13
 -1       925 1.74966E+01 2.46054E+00-7.17562E-04 1.20326E+00 1.74616E-13-9.03108E-13
 -1       926 1.30350E+01 9.77826E-01 3.24520E-02-2.27463E+00-5.19672E-14-1.15044E-12
 -1       927 1.91608E+01 1.08065E+00 5.18000E-03-1.79871E+00 2.13895E-13-5.68328E-13
 -1       928 1.95748E+01 6.45402E-01-3.97374E-03 1.56143E+00 7.35727E-14-7.34135E-13
 -1       929 2.46235E+01-2.94346E+00 6.49610E-03 5.29044E-01 1.02308E-13 1.44949E-14
 -1       930 2.00032E+01-1.85023E-03-5.66032E-07-3.04448E-03 4.01196E-13-2.24030E-13
 -1       931 1.31249E+01 5.90481E-01 3.83851E-02-1.95953E+00 1.82863E-13 6.90800E-13
 -1       932 1.57770E+01 2.64783E+00-3.43093E-04-2.05347E-01 2.84504E-13-9.26455E-13
 -1       933 2.00040E+01-1.93783E-03-1.19831E-07 1.94436E-03 1.50916E-13-1.82068E-13
 -1       934 2.00020E+01-1.66256E-03-1.04532E-06 3.84104E-03 3.78623E-13 7.31695E-14
 -1       935 1.84146E+01-5.05635E-01 1.00537E-02 2.92329E+00-3.03159E-13-1.42818E-13
 -1       936 1.26179E+01 1.47135E+00 3.59137E-02-9.81653E-01 9.63570E-14-1.19001E-12
 -1       937 2.00044E+01-1.99322E-03 6.02203E-07-6.24284E-04 3.65749E-13 1.58336E-14
 -1       938 1.57835E+01 2.59527E+00 9.72731E-04 8.11664E-01 2.93762E-13-8.88169E-13
 -1       939 2.00832E+01-2.15271E+00 1.83528E-02 3.58645E+00 4.62726E-13-4.35625E-13
 -1       940 1.53896E+01-2.63711E-01 3.69761E-02 3.87149E+00 5.26145E-13-8.85102E-13
 -1       941 1.72458E+01 3.10556E-01 1.77763E-02-2.93459E+00-1.29337E-13-7.14264E-13
 -1       942 1.65257E+01-1.25115E+00 2.36655E-02-3.90522E+00 5.22172E-13 1.50616E-13
 -1       943 2.09748E+01-2.80732E+00 8.64064E-03-3.06712E+00 3.57447E-13-4.34369E-13
 -1       944 2.00044E+01-1.98305E-03 5.62192E-07 6.84958E-04 1.57559E-13-7.27323E-14
 -1       945 2.00040E+01-1.96307E-03 2.00527E-07-1.89326E-03 2.74639E-13 6.46588E-14
 -1       946 1.87617E+01 9.99268E-01-1.47935E-05 8.94022E-01 3.22594E-14-2.99186E-13
 -1       947 1.67004E+01 2.22790E+00-2.83549E-03-1.12732E+00 2.32234E-13-7.94012E-13
 -1       948 2.00043E+01-8.87461E-04 8.32933E-07-3.08446E-03 8.73221E-14-1.16724E-13
 -1       949 1.72341E+01 8.96846E-01-1.57245E-03 1.69563E+00-2.01859E-13-1.54350E-13
 -1       950 1.97892E+01-1.61391E+00 2.45444E-03-2.71848E+00 1.46557E-13-2.13656E-13
 -1       951 1.92317E+01-7.13776E-01 1.39580E-04-2.24468E+00 1.37383E-13-1.12737E-13
 -1       952 1.90210E+01-1.06122E-01-3.24348E-04-1.80119E+00 1.57120E-13-1.49020E-13
 -1       953 1.90005E+01 2.73186E-01-3.28492E-04-1.43109E+00 9.50407E-14-9.47751E-14
 -1       954 1.90762E+01 4.89366E-01-1.95537E-04-1.13362E+00 3.62559E-13-6.94066E-15
 -1       955 1.91969E+01 5.88386E-01-1.67430E-04-8.96339E-01 2.44707E-13-4.20203E-14
 -1       956 1.93301E+01 6.11319E-01-1.12894E-04-7.07689E-01 2.15564E-13-7.29554E-14
 -1       957 1.94597E+01 5.85433E-01-5.38898E-05-5.56239E-01 2.15115E-13 5.77780E-15
 -1       958 1.95768E+01 5.31365E-01-3.91886E-05-4.34440E-01 8.60188E-14-1.04978E-13
 -1       959 1.96776E+01 4.63560E-01-3.80096E-05-3.36470E-01 5.96773E-14-1.87432E-13
 -1       960 1.97610E+01 3.92230E-01-2.22368E-05-2.57959E-01-4.56182E-14-1.33130E-13
 -1       961 1.98282E+01 3.22948E-01-3.31243E-05-1.95259E-01-1.41783E-13-2.87371E-13
 -1       962 1.98805E+01 2.60032E-01-1.76106E-05-1.45855E-01-4.56518E-15-3.75165E-13
 -1       963 1.99203E+01 2.04925E-01-1.14338E-05-1.07112E-01-4.12983E-14-6.20132E-14
 -1       964 1.99498E+01 1.58236E-01-8.66924E-06-7.71662E-02-1.00759E-13 2.00157E-13
 -1       965 1.99710E+01 1.19727E-01-6.57304E-06-5.43125E-02-1.45095E-13 9.13767E-14
 -1       966 1.99858E+01 8.87011E-02-4.84690E-06-3.71288E-02-5.47083E-14 1.00499E-13
 -1       967 1.99956E+01 6.42348E-02-3.48356E-06-2.44201E-02-8.14587E-14-9.91375E-14
 -1       968 2.00019E+01 4.53327E-02-2.43790E-06-1.51957E-02-8.25624E-14-6.04024E-14
 -1       969 2.00055E+01 3.10238E-02-1.65391E-06-8.64531E-03 1.11212E-14 1.81715E-13
 -1       970 2.00072E+01 2.04169E-02-1.07857E-06-4.11515E-03 3.91028E-13-2.34497E-14
 -1       971 2.00078E+01 1.27277E-02-6.68131E-07-1.08542E-03 3.37013E-13 2.23361E-13
 -1       972 2.00075E+01 7.28647E-03-4.18604E-07 8.50521E-04 1.16259E-13 1.65799E-13
 -1       973 2.00067E+01 3.53438E-03-3.95043E-07 2.00471E-03 3.65044E-14-1.81456E-13
 -1       974 2.00057E+01 1.01918E-03 2.12333E-08 2.61378E-03-2.24116E-14-1.60022E-13
 -1       975 2.00046E+01-6.56686E-04-6.00120E-07 2.85651E-03 6.49673E-14-5.35406E-14
 -1       976 1.90751E+01 8.99158E-01-3.77948E-06 7.40860E-01-8.79350E-14-1.77698E-13
 -1       977 2.12157E+01-1.97387E+00 7.42249E-03 2.58384E+00 2.85302E-13-4.31485E-13
 -1       978 1.83627E+01 1.05973E+00-1.09772E-04 1.08101E+00-1.79894E-13-2.83795E-13
 -1       979 1.93184E+01 7.81696E-01-4.70986E-05 6.09987E-01-3.77456E-14-1.32836E-13
 -1       980 1.95050E+01 6.62132E-01-2.63248E-05 4.96619E-01-1.38239E-14-5.74391E-14
 -1       981 1.96463E+01 5.48915E-01-1.77665E-05 3.98524E-01-6.55200E-14 9.19972E-14
 -1       982 1.97521E+01 4.46605E-01-8.87665E-06 3.14743E-01 1.70675E-13-3.06239E-14
 -1       983 1.98302E+01 3.57313E-01-3.03625E-07 2.44406E-01 2.42411E-13 6.14305E-14
 -1       984 1.98871E+01 2.81442E-01 1.04140E-07 1.86377E-01 2.05169E-13 8.25811E-14
 -1       985 1.99280E+01 2.18175E-01-6.52019E-06 1.39379E-01-3.14964E-14-1.89347E-14
 -1       986 1.99568E+01 1.66497E-01-3.82684E-06 1.02067E-01 5.92696E-14 3.67355E-14
 -1       987 1.99766E+01 1.24982E-01-2.48239E-06 7.29627E-02 2.38326E-13 1.09879E-13
 -1       988 1.99899E+01 9.21585E-02-1.62628E-06 5.06809E-02 8.33874E-14 5.96330E-14
 -1       989 1.99984E+01 6.66139E-02-1.01308E-06 3.39496E-02 1.47456E-13 6.86967E-15
 -1       990 2.00035E+01 4.70515E-02-5.73484E-07 2.16422E-02-4.29770E-14 1.54294E-13
 -1       991 2.00063E+01 3.23207E-02-2.70141E-07 1.27922E-02-7.47506E-14 7.10614E-14
 -1       992 2.00075E+01 2.14277E-02-7.04856E-08 6.59321E-03 1.13560E-13 1.95518E-13
 -1       993 2.00077E+01 1.35317E-02 4.81680E-08 2.38751E-03 3.17430E-14 1.80767E-13
 -1       994 2.00072E+01 7.93418E-03 5.48096E-08-3.49109E-04 2.09200E-14 2.25559E-13
 -1       995 2.00064E+01 4.06386E-03-3.94370E-08-2.02559E-03-1.45430E-13 3.74968E-13
 -1       996 2.00054E+01 1.47129E-03 7.01080E-07-2.95374E-03-2.24390E-13 5.18400E-13
 -1       997 2.00049E+01 1.48873E-04-1.29160E-06-3.12163E-03 1.23677E-13 1.54967E-13
 -1       998 1.41264E+01 1.05629E+00 1.46428E-02 8.35052E-01-1.05504E-13 3.28264E-13
 -1       999 1.81814E+01 1.30723E+00 2.19211E-03 1.81039E+00 1.84819E-13-7.83862E-13
 -1      1000 1.78596E+01 1.04648E+00 1.37560E-05 1.32860E+00-2.26507E-13-2.60329E-13
 -1      1001 1.66917E+01 2.07124E+00-1.50396E-03 1.56007E+00 2.69254E-13-8.40830E-13
 -1      1002 1.64948E+01 3.23982E-01 7.92460E-03 2.53393E+00-2.71484E-13-3.17472E-14
 -1      1003 2.01436E+01-6.37858E-01 3.97905E-03 2.23533E+00 1.83263E-13-6.11929E-13
 -1      1004 1.83330E+01 7.35744E-01 9.86991E-03-2.32926E+00 2.70609E-14-6.26985E-13
 -1      1005 1.29019E+01 1.57949E+00 3.87072E-02 1.44347E+00 3.12344E-13-1.03466E-12
 -1      1006 1.51914E+01-3.06228E-02 1.32720E-02-2.88559E+00 3.18059E-13 2.56851E-13
 -1      1007 1.51545E+01 1.98061E+00 1.43234E-03-1.16749E+00 1.26364E-13-9.52208E-13
 -1      1008 1.42364E+01 1.08025E+00 6.69005E-03-6.64706E-01 9.64314E-14 5.39495E-13
 -1      1009 2.00056E+01-9.02556E-04-1.37511E-06 4.33484E-05 2.50655E-13-2.18530E-13
 -1      1010 1.45206E+01 2.31176E+00 2.83791E-02 4.31670E-01 2.29933E-13-9.56995E-13
 -1      1011 1.80793E+01-7.15058E-01 7.84612E-03 3.45305E+00 4.28980E-13-6.33929E-13
 -1      1012 1.45037E+01 1.10708E+00 2.14069E-02 2.52169E+00 3.64842E-13-9.06318E-13
 -1      1013 2.00054E+01-9.38846E-04-3.76237E-06-1.26650E-03 1.85605E-13 3.88649E-13
 -1      1014 1.84932E+01-1.55032E+00 8.41758E-03-3.38836E+00 4.31067E-13-1.46790E-15
 -1      1015 1.93601E+01-7.40318E-01 1.76841E-02 2.80850E+00 3.02338E-13-5.89412E-13
 -1      1016 2.00054E+01-9.07443E-04-2.52665E-06 1.33389E-03 1.37724E-13-4.18575E-13
 -1      1017 1.81979E+01-5.69963E-01 4.17118E-04-2.59192E+00 7.02044E-14 5.57778E-14
 -1      1018 1.82276E+01 5.60134E-02-2.83765E-04-1.95493E+00 1.35141E-13-1.14709E-14
 -1      1019 1.83941E+01 4.29377E-01-2.23093E-04-1.47400E+00 1.97704E-13 3.16148E-14
 -1      1020 1.86099E+01 6.33706E-01-3.28938E-04-1.11912E+00 2.23676E-13 9.59438E-15
 -1      1021 1.88378E+01 7.19106E-01-1.88033E-04-8.50096E-01 2.43053E-13-3.23977E-13
 -1      1022 1.90513E+01 7.30298E-01-6.80001E-05-6.51431E-01 2.23322E-13-3.67004E-13
 -1      1023 1.92434E+01 6.92045E-01-4.93321E-06-4.98910E-01 2.62748E-13-2.87749E-13
 -1      1024 1.94097E+01 6.25614E-01-1.34660E-05-3.81646E-01 2.95258E-14-3.49539E-13
 -1      1025 1.95493E+01 5.45788E-01 1.87984E-05-2.90787E-01 3.21516E-14-3.53427E-13
 -1      1026 1.96636E+01 4.62206E-01-6.61952E-05-2.20730E-01 6.71024E-14-3.70109E-13
 -1      1027 1.97552E+01 3.81859E-01-4.29901E-05-1.65133E-01-1.74414E-13-3.43421E-13
 -1      1028 1.98267E+01 3.08725E-01-6.85156E-06-1.23134E-01 3.87301E-14-1.26704E-13
 -1      1029 1.98814E+01 2.44475E-01-6.86263E-06-9.02067E-02 1.25356E-13 1.68402E-13
 -1      1030 1.99223E+01 1.89838E-01-9.64173E-06-6.50851E-02-7.20582E-14 7.88473E-14
 -1      1031 1.99521E+01 1.44558E-01-8.75130E-06-4.60237E-02-1.28943E-13 2.35937E-13
 -1      1032 1.99732E+01 1.07884E-01-7.44321E-06-3.17357E-02-1.96523E-14 4.72349E-13
 -1      1033 1.99877E+01 7.87989E-02-6.09468E-06-2.11692E-02-2.21793E-13 4.38918E-13
 -1      1034 1.99973E+01 5.61869E-02-4.88266E-06-1.34793E-02-5.76203E-14 2.63318E-13
 -1      1035 2.00032E+01 3.89509E-02-3.84735E-06-7.98897E-03 1.24103E-14 1.08385E-13
 -1      1036 2.00064E+01 2.60754E-02-2.98548E-06-4.15922E-03 3.12555E-14 1.23082E-13
 -1      1037 2.00079E+01 1.66603E-02-2.27898E-06-1.56508E-03 5.05177E-13-6.63350E-14
 -1      1038 2.00082E+01 9.93246E-03-1.70286E-06 1.24800E-04 2.31550E-13 1.05093E-13
 -1      1039 2.00077E+01 5.24206E-03-1.40015E-06 1.16472E-03-1.86088E-13 5.86530E-14
 -1      1040 2.00068E+01 2.07307E-03 5.74960E-07 1.74485E-03-1.59548E-14-2.27942E-14
 -1      1041 1.92199E+01 7.99235E-01-7.12946E-05 3.67396E-01-1.15826E-13 1.23616E-14
 -1      1042 1.94261E+01 6.73172E-01-5.71080E-05 3.05379E-01-8.16370E-14-2.09526E-14
 -1      1043 1.95840E+01 5.56067E-01-2.50759E-05 2.48663E-01 8.08303E-14-1.26166E-13
 -1      1044 1.97036E+01 4.51523E-01 2.43786E-05 1.98615E-01 3.80142E-14 3.56526E-14
 -1      1045 1.97936E+01 3.60284E-01 3.75763E-06 1.55543E-01 2.41799E-13 2.44914E-13
 -1      1046 1.98599E+01 2.83130E-01-3.25997E-05 1.18900E-01 1.15192E-13 3.89249E-13
 -1      1047 1.99085E+01 2.18850E-01-1.80178E-05 8.91443E-02 1.64795E-13 5.90321E-14
 -1      1048 1.99432E+01 1.66452E-01-1.34444E-05 6.52426E-02 2.23536E-13-1.47181E-13
 -1      1049 1.99676E+01 1.24420E-01-1.00744E-05 4.64956E-02 5.89486E-14-3.16904E-13
 -1      1050 1.99842E+01 9.12657E-02-7.62232E-06 3.21068E-02-2.17593E-14 1.64624E-14
 -1      1051 1.99951E+01 6.55422E-02-5.66725E-06 2.12974E-02 6.74175E-14 1.53684E-13
 -1      1052 2.00019E+01 4.59177E-02-4.12485E-06 1.33580E-02 1.17013E-13 4.15095E-14
 -1      1053 2.00058E+01 3.12087E-02-2.92666E-06 7.66873E-03-6.56268E-14 8.30262E-14
 -1      1054 2.00077E+01 2.03918E-02-1.99586E-06 3.70603E-03 5.96369E-14 9.61478E-14
 -1      1055 2.00083E+01 1.26016E-02-1.25620E-06 1.04015E-03-2.07655E-13 3.18058E-13
 -1      1056 2.00080E+01 7.11883E-03-2.56896E-07-6.71014E-04-6.33532E-14 3.10505E-13
 -1      1057 2.00072E+01 3.39235E-03 2.77482E-06-1.68725E-03-8.24229E-14 2.50157E-13
 -1      1058 1.67987E+01 1.22931E+00 1.66749E-03 8.23113E-01-1.98732E-13 3.34760E-14
 -1      1059 1.86064E+01 1.05184E+00 2.31213E-05 5.05642E-01-1.35382E-13-5.02258E-14
 -1      1060 1.56709E+01 1.23002E+00 1.25210E-02 8.49990E-01-1.18119E-13 1.92983E-13
 -1      1061 1.81568E+01 1.15739E+00-4.72360E-05 5.84159E-01-1.43451E-13-1.60238E-13
 -1      1062 1.75715E+01 1.22422E+00-5.87344E-04 6.80594E-01-2.16979E-13-7.59185E-14
 -1      1063 1.89521E+01 9.28819E-01-1.54929E-04 4.33532E-01-2.22049E-14-7.92602E-14
 -1      1064 1.53521E+01 7.45552E-01 2.98559E-03-1.69127E+00 2.28758E-13 3.99859E-13
 -1      1065 2.00063E+01 2.85847E-04 1.18423E-06-1.40465E-03 1.86100E-13 3.68766E-13
 -1      1066 2.00061E+01 2.77797E-04 1.64016E-06 1.74950E-03 9.12421E-14-2.56785E-13
 -1      1067 1.73748E+01 5.45995E-01-7.30022E-03 2.69363E+00 3.38058E-13-7.49053E-13
 -1      1068 2.00068E+01 1.68143E-03-4.34254E-06-1.68979E-03 1.04852E-13 1.52286E-13
 -1      1069 2.00066E+01 3.97707E-04 1.34712E-06-1.79356E-04 8.48572E-15-2.75499E-13
 -1      1070 1.69120E+01-3.68885E-01 7.11414E-03-2.87325E+00 2.71984E-13 2.14404E-13
 -1      1071 2.00065E+01 3.89075E-04 5.15734E-07 7.94569E-04-1.14469E-13-2.54861E-13
 -1      1072 1.95836E+01 5.33439E-01 1.93601E-04 1.13144E-01 1.17773E-13-2.38972E-13
 -1      1073 1.73000E+01 2.46590E-01 8.58335E-04-2.05851E+00 5.69736E-14 2.28611E-13
 -1      1074 1.77189E+01 5.94104E-01-4.22721E-05-1.47464E+00 1.11146E-13 1.95071E-13
 -1      1075 1.81031E+01 7.83022E-01-4.93541E-04-1.06897E+00 2.01042E-13 1.62531E-13
 -1      1076 1.84720E+01 8.47870E-01 2.86769E-03-7.81708E-01 4.74883E-14-1.48065E-13
 -1      1077 1.87656E+01 8.47624E-01 3.08691E-05-5.79203E-01 2.26622E-13-3.47872E-13
 -1      1078 1.90236E+01 7.96328E-01 1.49392E-04-4.26253E-01 2.05702E-13-3.60420E-13
 -1      1079 1.92409E+01 7.18337E-01 9.34955E-05-3.15538E-01 6.74223E-15-6.35013E-13
 -1      1080 1.94203E+01 6.26782E-01 5.02076E-05-2.34020E-01 4.43360E-14-6.22493E-13
 -1      1081 1.95645E+01 5.32941E-01-5.73282E-05-1.72523E-01 6.15578E-14-6.25027E-13
 -1      1082 1.96831E+01 4.42116E-01 7.27242E-04-1.27831E-01 5.89296E-14-6.81210E-13
 -1      1083 1.97714E+01 3.58306E-01-6.85534E-05-9.48292E-02 1.59914E-13-2.50232E-13
 -1      1084 1.98410E+01 2.85410E-01 2.58985E-05-6.80102E-02 2.98000E-13-1.30944E-13
 -1      1085 1.98931E+01 2.22963E-01-9.60631E-07-4.87647E-02-1.35428E-13-1.20365E-13
 -1      1086 1.99316E+01 1.70903E-01-3.80968E-06-3.44169E-02 1.74048E-14-7.37923E-14
 -1      1087 1.99593E+01 1.28504E-01-4.75948E-06-2.38008E-02 4.67191E-14 2.04045E-13
 -1      1088 1.99786E+01 9.46729E-02-4.47847E-06-1.60099E-02-1.94355E-13 2.67948E-13
 -1      1089 1.99916E+01 6.81973E-02-3.88381E-06-1.03611E-02-1.98380E-13 2.84164E-13
 -1      1090 1.99999E+01 4.78709E-02-3.23723E-06-6.32788E-03-1.74292E-13 1.43298E-13
 -1      1091 2.00049E+01 3.25663E-02-2.62799E-06-3.50350E-03-4.26475E-14 1.17549E-13
 -1      1092 2.00075E+01 2.12759E-02-2.09111E-06-1.57429E-03 2.26026E-13-1.40856E-13
 -1      1093 2.00085E+01 1.31277E-02-1.60414E-06-2.99612E-04 3.03257E-13-2.67950E-13
 -1      1094 2.00084E+01 7.38647E-03-1.17136E-06 5.04502E-04 7.89913E-14-2.94081E-13
 -1      1095 2.00077E+01 3.46564E-03-1.06758E-07 9.68434E-04-2.45156E-13-1.10092E-13
 -1      1096 1.94281E+01 6.47383E-01 1.66401E-04 1.33085E-01-7.79333E-14-3.24400E-13
 -1      1097 1.92276E+01 7.70100E-01 7.58728E-05 1.48969E-01 1.48977E-14-3.43436E-13
 -1      1098 1.97019E+01 4.31304E-01-4.74812E-05 9.10185E-02 1.32815E-14-3.14143E-13
 -1      1099 1.97929E+01 3.44069E-01 4.61835E-04 7.31687E-02 1.28014E-13-3.78529E-13
 -1      1100 1.98578E+01 2.69409E-01-3.13582E-05 5.79328E-02 2.57293E-13-3.16592E-13
 -1      1101 1.99070E+01 2.07584E-01 1.86104E-05 4.37930E-02 3.14032E-13-3.19416E-13
 -1      1102 1.99423E+01 1.57142E-01 1.55339E-05 3.22070E-02 2.30850E-13-1.22051E-13
 -1      1103 1.99672E+01 1.16800E-01 1.12295E-05 2.29662E-02-1.90630E-13-1.09789E-13
 -1      1104 1.99842E+01 8.50928E-02 7.60321E-06 1.58009E-02-5.06162E-14-1.38266E-13
 -1      1105 1.99954E+01 6.05987E-02 4.83124E-06 1.03884E-02 8.85618E-14-1.75082E-13
 -1      1106 2.00023E+01 4.20085E-02 2.81125E-06 6.40571E-03-1.51160E-15 3.14701E-14
 -1      1107 2.00063E+01 2.81592E-02 1.40877E-06 3.55547E-03-1.92685E-14 9.11451E-14
 -1      1108 2.00082E+01 1.80465E-02 5.47732E-07 1.57899E-03-1.64282E-13 3.00035E-13
 -1      1109 2.00087E+01 1.08236E-02 3.82270E-07 2.60141E-04 1.09435E-14 1.60643E-13
 -1      1110 2.00083E+01 5.79014E-03-6.73309E-07-5.79053E-04-5.63703E-14-1.12607E-14
 -1      1111 1.69611E+01 1.26302E+00 2.59354E-03 2.96991E-02-5.91452E-14 2.83712E-13
 -1      1112 1.60289E+01 1.25291E+00-1.17022E-03-2.35487E-01-6.39441E-14 4.32730E-13
 -1      1113 1.76693E+01 1.22308E+00 5.33963E-04 1.01646E-01-1.04582E-13 1.52645E-13
 -1      1114 2.00071E+01 1.75606E-03-1.21872E-07 9.33425E-04-3.82693E-13-3.86609E-13
 -1      1115 1.82233E+01 1.13216E+00 1.60950E-04 1.32574E-01-1.03265E-13-9.00260E-15
 -1      1116 1.86531E+01 1.01793E+00 1.57793E-03 1.52832E-01-4.46705E-14-1.48933E-13
 -1      1117 2.00079E+01 3.40621E-03 3.26949E-06-5.82268E-04-1.24122E-13 4.57493E-14
 -1      1118 2.00073E+01 1.81424E-03-6.97724E-06 8.24074E-05-8.55945E-14-3.04950E-13
 -1      1119 1.89697E+01 8.97105E-01-2.31163E-04 1.58846E-01-7.22756E-14-2.44233E-13
 -1      1120 1.80124E+01 1.09389E+00-1.76646E-03-3.39711E-01-1.01150E-14-1.47908E-14
 -1      1121 1.96276E+01 4.85348E-01-4.16769E-04-2.73583E-03 9.43106E-14-4.06070E-13
 -1      1122 1.66596E+01 9.04010E-01 4.09657E-03-1.20069E+00 5.93990E-14 2.36542E-13
 -1      1123 1.73380E+01 1.03380E+00-2.44977E-03-8.11512E-01 5.88311E-14 7.12298E-14
 -1      1124 1.87297E+01 9.39000E-01-1.20568E-03-2.43661E-01 1.61918E-13-2.31151E-13
 -1      1125 1.90216E+01 8.39385E-01 7.10479E-05-1.57460E-01-3.02954E-14-4.56793E-13
 -1      1126 1.92553E+01 7.30300E-01-4.07332E-05-1.02652E-01 4.18090E-14-3.68789E-13
 -1      1127 1.94421E+01 6.19955E-01-1.02873E-04-6.55178E-02-4.38367E-15-5.38872E-13
 -1      1128 1.97905E+01 3.35671E-01-2.36376E-04-1.72798E-02 2.01043E-13-6.11156E-13
 -1      1129 1.98568E+01 2.64056E-01 2.56417E-05-9.69360E-03 1.75248E-13-5.63367E-13
 -1      1130 1.99058E+01 2.03728E-01 7.60072E-06-5.86557E-03 2.76703E-14-3.11272E-13
 -1      1131 1.99413E+01 1.54388E-01 6.60826E-06-3.44369E-03 8.85964E-14-2.02000E-13
 -1      1132 1.99665E+01 1.14783E-01 6.79414E-06-1.95455E-03-1.54412E-14-2.65710E-13
 -1      1133 1.99837E+01 8.35797E-02 6.75520E-06-1.05133E-03 1.57564E-14-1.77109E-13
 -1      1134 1.99951E+01 5.94428E-02 6.37547E-06-5.10673E-04-1.88066E-13-5.07993E-14
 -1      1135 2.00023E+01 4.11151E-02 5.76200E-06-1.92402E-04-1.29911E-13 1.39620E-13
 -1      1136 2.00063E+01 2.74652E-02 5.03067E-06-9.66843E-06-1.34470E-13 4.87446E-14
 -1      1137 2.00083E+01 1.75073E-02 4.27572E-06 9.10060E-05 8.98145E-14-1.02302E-13
 -1      1138 2.00088E+01 1.04039E-02 3.38068E-06 1.43385E-04 6.50277E-14-3.40295E-13
 -1      1139 2.00079E+01 3.56576E-03 4.26164E-06 1.49961E-04-1.91239E-13-5.54948E-13
 -1      1140 2.00084E+01 5.48471E-03 5.28566E-07 1.57668E-04-1.91435E-13-4.97389E-13
 -1      1141 2.91270E+01 9.43936E+00 2.33737E+00-6.50973E+00-1.08746E-13 2.96457E-12
 -1      1142 2.18582E+01 6.64161E+00 2.80483E-01-3.35423E+00-5.49005E-14 2.00409E-13
 -1      1143 2.04217E+01 6.16187E+00 1.17875E-01-2.11590E+00-3.60267E-14-9.40701E-13
 -1      1144 1.95524E+01 5.88951E+00 7.92810E-02-1.33586E+00-2.21767E-14-1.44838E-12
 -1      1145 1.88461E+01 5.67095E+00 5.70639E-02-7.62019E-01-1.37945E-14-1.68066E-12
 -1      1146 1.82319E+01 5.48042E+00 3.62110E-02-3.42758E-01-7.00828E-15-1.77877E-12
 -1      1147 1.77123E+01 5.31847E+00 1.59471E-02-5.49918E-02-2.58821E-15-1.81238E-12
 -1      1148 1.73215E+01 5.19576E+00-2.28602E-03 1.20528E-01 2.17881E-15-1.80086E-12
 -1      1149 1.71140E+01 5.12977E+00-1.47740E-02 2.08769E-01 6.38899E-15-1.77552E-12
 -1      1150 1.71310E+01 5.13375E+00-1.85053E-02 2.53276E-01 1.11786E-14-1.71784E-12
 -1      1151 1.73923E+01 5.21416E+00-1.17633E-02 3.10384E-01 1.45578E-14-1.62083E-12
 -1      1152 1.78858E+01 5.36742E+00 5.60409E-03 4.40457E-01 2.02754E-14-1.44947E-12
 -1      1153 1.85831E+01 5.58444E+00 3.16590E-02 7.04227E-01 2.67286E-14-1.19267E-12
 -1      1154 1.94596E+01 5.85776E+00 6.62625E-02 1.16574E+00 3.46112E-14-7.47661E-13
 -1      1155 2.05234E+01 6.19235E+00 1.17726E-01 1.90330E+00 4.28824E-14 1.11890E-14
 -1      1156 2.20136E+01 6.67849E+00 2.47969E-01 3.11479E+00 4.67681E-14 1.40352E-12
 -1      1157 2.66687E+01 8.44164E+00 1.47001E+00 5.48292E+00 8.15459E-14 4.12026E-12
 -1      1158 2.99521E+01 3.56144E+00 1.13823E+00-4.10221E+00-4.31488E-13 4.70413E-12
 -1      1159 2.21875E+01-1.87412E-01-6.32394E-01-4.45066E-02-1.51566E-13 3.68755E-12
 -1      1160 2.14579E+01-8.90062E-02-2.17585E-01 8.23658E-02-6.01567E-14 2.32381E-12
 -1      1161 2.15943E+01-3.59618E-02-3.91092E-02 5.28319E-02-3.11331E-14 1.42938E-12
 -1      1162 2.18761E+01-6.09170E-03 1.19411E-02 3.48420E-02-3.00958E-14 7.70002E-13
 -1      1163 2.21105E+01 1.44698E-02 3.51275E-02 1.99162E-02-2.57654E-14 3.02557E-13
 -1      1164 2.21333E+01 2.99299E-02 5.29157E-02 2.24167E-03-2.32310E-14-2.75452E-14
 -1      1165 2.18062E+01 3.77999E-02 6.20927E-02-1.98375E-02-6.92849E-15-3.21496E-13
 -1      1166 2.10575E+01 3.29786E-02 5.30796E-02-4.35439E-02 4.03193E-15-5.90875E-13
 -1      1167 1.99453E+01 1.18399E-02 1.92946E-02-6.11340E-02-1.44852E-14-8.42479E-13
 -1      1168 1.87010E+01-2.23477E-02-3.41596E-02-6.24257E-02-5.63286E-15-1.18756E-12
 -1      1169 1.76941E+01-5.64372E-02-8.69028E-02-4.13639E-02 1.54711E-14-1.26183E-12
 -1      1170 1.72906E+01-7.29273E-02-1.12348E-01-2.76820E-03 1.03762E-14-1.32887E-12
 -1      1171 1.76669E+01-6.21682E-02-9.61226E-02 3.80144E-02 6.84522E-15-1.39054E-12
 -1      1172 1.87101E+01-3.03910E-02-4.75488E-02 6.43855E-02 3.19493E-15-1.43088E-12
 -1      1173 2.00825E+01 5.69953E-03 8.01795E-03 6.87905E-02-4.45697E-14-1.52068E-12
 -1      1174 2.13990E+01 3.13580E-02 4.76413E-02 5.53229E-02-1.36046E-14-1.66366E-12
 -1      1175 2.23860E+01 4.13636E-02 6.27797E-02 3.40315E-02-4.59615E-15-1.78099E-12
 -1      1176 2.29397E+01 3.87087E-02 5.80080E-02 1.38305E-02 1.51450E-14-1.72218E-12
 -1      1177 2.30933E+01 2.93195E-02 4.29721E-02-7.05225E-04-4.67009E-14-1.79564E-12
 -1      1178 2.29497E+01 1.83592E-02 2.59838E-02-8.89815E-03 5.90153E-15-1.72570E-12
 -1      1179 2.26255E+01 8.81950E-03 1.17238E-02-1.21031E-02-2.30816E-14-1.67588E-12
 -1      1180 2.22186E+01 1.81744E-03 1.71516E-03-1.21576E-02 2.22007E-14-1.54902E-12
 -1      1181 2.17983E+01-2.65259E-03-4.31459E-03-1.05978E-02-2.44311E-14-1.40385E-12
 -1      1182 2.14067E+01-5.08137E-03-7.31779E-03-8.45136E-03 1.78731E-15-1.62518E-12
 -1      1183 2.10654E+01-6.06293E-03-8.30294E-03-6.30211E-03 1.31382E-14-1.50645E-12
 -1      1184 2.07817E+01-6.11906E-03-8.08537E-03-4.42704E-03-2.12379E-15-1.50223E-12
 -1      1185 2.05546E+01-5.64548E-03-7.24033E-03-2.91963E-03 1.57739E-14-1.61338E-12
 -1      1186 2.03786E+01-4.91549E-03-6.13806E-03-1.77663E-03-5.04073E-15-1.73836E-12
 -1      1187 2.02461E+01-4.10415E-03-4.99859E-03-9.51307E-04 3.77837E-14-1.33561E-12
 -1      1188 2.01491E+01-3.31506E-03-3.94096E-03-3.83135E-04-1.20327E-14-1.30334E-12
 -1      1189 2.00805E+01-2.60329E-03-3.02037E-03-1.26262E-05-9.57998E-15-1.47018E-12
 -1      1190 2.00335E+01-1.99260E-03-2.25378E-03 2.12143E-04 1.04479E-14-1.66773E-12
 -1      1191 2.00029E+01-1.48776E-03-1.63677E-03 3.33527E-04 2.26782E-14-1.87642E-12
 -1      1192 1.99841E+01-1.08276E-03-1.15411E-03 3.84515E-04-2.11138E-14-2.27123E-12
 -1      1193 1.99738E+01-7.66234E-04-7.86169E-04 3.89891E-04 3.00335E-14-2.21993E-12
 -1      1194 1.99693E+01-5.24799E-04-5.12663E-04 3.67684E-04 2.06574E-14-2.15830E-12
 -1      1195 1.99687E+01-3.45001E-04-3.14627E-04 3.30602E-04 3.20436E-14-1.55841E-12
 -1      1196 1.99704E+01-2.14412E-04-1.75373E-04 2.87288E-04-3.16642E-14-1.30747E-12
 -1      1197 1.99734E+01-1.22121E-04-8.07866E-05 2.43380E-04-2.23249E-14-1.65860E-12
 -1      1198 1.99771E+01-5.88759E-05-1.92615E-05 2.02337E-04-5.22413E-14-2.10405E-12
 -1      1199 1.99810E+01-1.70110E-05 1.85792E-05 1.66087E-04 1.90720E-14-2.06871E-12
 -1      1200 1.99849E+01 9.74966E-06 4.02853E-05 1.35481E-04-1.69476E-14-1.41556E-12
 -1      1201 1.99885E+01 2.65436E-05 5.20776E-05 1.10575E-04-3.65297E-14-1.10700E-12
 -1      1202 1.99917E+01 3.76338E-05 5.94512E-05 9.07247E-05 4.27858E-14-7.46206E-13
 -1      1203 1.99945E+01 4.66001E-05 6.77981E-05 7.43691E-05-1.26273E-14-2.45872E-13
 -1      1204 1.99969E+01 5.62641E-05 8.21373E-05 5.82402E-05-1.68958E-14-4.27061E-13
 -1      1205 1.99987E+01 6.67744E-05 1.01386E-04 3.47622E-05 4.13891E-14 1.89405E-13
 -1      1206 1.99997E+01 8.13322E-05 9.51831E-05-1.13225E-05-5.33538E-15 1.81530E-13
 -1      1207 1.99999E+01-3.00584E-05-5.87204E-05-3.24256E-05 7.62441E-14 2.14042E-13
 -1      1208 2.90537E+01 5.21404E-01 1.94890E-01 1.92238E+00-7.73548E-14 6.31056E-12
 -1      1209 2.26332E+01-7.83692E-02-5.88786E-01 9.70817E-02 3.14193E-14 5.26872E-12
 -1      1210 2.24148E+01-5.02663E-02-1.94529E-01 4.22325E-03 3.30066E-14 4.12581E-12
 -1      1211 2.29453E+01-2.73968E-02-5.78653E-02-1.29542E-02 2.29474E-14 3.38698E-12
 -1      1212 2.38185E+01-7.42624E-03-1.35733E-02-2.64514E-02 1.77727E-14 2.92377E-12
 -1      1213 2.48250E+01 1.86945E-02 2.30945E-02-4.09424E-02 1.70226E-14 2.54038E-12
 -1      1214 2.57071E+01 5.18042E-02 7.57698E-02-5.29921E-02 1.21170E-14 2.40787E-12
 -1      1215 2.61038E+01 8.23275E-02 1.37941E-01-5.12891E-02 8.03784E-15 2.36076E-12
 -1      1216 2.55932E+01 8.81729E-02 1.75616E-01-1.96721E-02-1.32897E-14 2.16238E-12
 -1      1217 2.39025E+01 4.49655E-02 1.36048E-01 4.84695E-02 9.40394E-15 1.90896E-12
 -1      1218 2.12723E+01-4.00980E-02-5.27345E-03 1.28968E-01 2.06792E-14 1.51643E-12
 -1      1219 1.86816E+01-1.17852E-01-1.90380E-01 1.64171E-01 1.07032E-14 1.18106E-12
 -1      1220 1.74811E+01-1.19087E-01-2.86759E-01 1.09773E-01-1.51094E-15 1.15562E-12
 -1      1221 1.83655E+01-6.90572E-02-2.26904E-01-8.47381E-03-1.82666E-14 1.07832E-12
 -1      1222 2.08391E+01 7.51955E-03-6.63312E-02-1.03507E-01 2.08006E-14 6.68271E-13
 -1      1223 2.37309E+01 4.75076E-02 7.97028E-02-1.40132E-01 4.42463E-14 2.06446E-13
 -1      1224 2.58603E+01 5.25940E-02 1.39251E-01-1.14894E-01 3.61178E-14 7.07351E-14
 -1      1225 2.68006E+01 3.96741E-02 1.24147E-01-6.52438E-02 2.71467E-14 3.10585E-14
 -1      1226 2.67207E+01 2.31756E-02 7.85766E-02-2.11767E-02-3.12567E-14 1.51403E-13
 -1      1227 2.60138E+01 9.84278E-03 3.53638E-02 6.49962E-03 2.37948E-14 9.65443E-14
 -1      1228 2.50395E+01 1.15682E-03 6.43840E-03 1.93650E-02-7.02395E-15-1.22881E-13
 -1      1229 2.40351E+01-3.62763E-03-8.76927E-03 2.27412E-02 6.42821E-14-4.50553E-13
 -1      1230 2.31247E+01-5.76601E-03-1.47406E-02 2.12794E-02-4.12566E-14-2.51365E-13
 -1      1231 2.23568E+01-6.32535E-03-1.56586E-02 1.79331E-02-9.30289E-15-1.73802E-13
 -1      1232 2.17376E+01-6.04180E-03-1.42678E-02 1.42506E-02 8.15689E-15-4.19482E-13
 -1      1233 2.12534E+01-5.36974E-03-1.20725E-02 1.09114E-02 6.49546E-15-5.89551E-13
 -1      1234 2.08835E+01-4.56747E-03-9.79736E-03 8.13876E-03 2.30578E-14-3.55425E-13
 -1      1235 2.06063E+01-3.77102E-03-7.74403E-03 5.94476E-03-2.84575E-14-1.81572E-13
 -1      1236 2.04024E+01-3.04507E-03-6.00726E-03 4.25912E-03-3.60039E-14 3.18928E-13
 -1      1237 2.02551E+01-2.41481E-03-4.58961E-03 2.98999E-03 3.97561E-14 4.84074E-13
 -1      1238 2.01509E+01-1.88463E-03-3.45770E-03 2.04958E-03 4.51694E-14 1.00270E-13
 -1      1239 2.00791E+01-1.44872E-03-2.56799E-03 1.36290E-03-1.90512E-14-2.27723E-13
 -1      1240 2.00310E+01-1.09685E-03-1.87762E-03 8.69204E-04-4.01312E-14-6.69442E-14
 -1      1241 2.00003E+01-8.17306E-04-1.34844E-03 5.20591E-04 9.62117E-14-7.01213E-13
 -1      1242 1.99818E+01-5.98548E-04-9.47924E-04 2.79834E-04-5.87651E-14-9.00972E-13
 -1      1243 1.99720E+01-4.29899E-04-6.48997E-04 1.18289E-04-4.77218E-14-4.28783E-13
 -1      1244 1.99679E+01-3.01893E-04-4.29441E-04 1.40961E-05 2.47636E-14-3.60021E-13
 -1      1245 1.99675E+01-2.06359E-04-2.71209E-04-4.93083E-05 2.41184E-14-4.90432E-13
 -1      1246 1.99695E+01-1.36376E-04-1.59775E-04-8.43703E-05-1.82741E-14-2.45380E-13
 -1      1247 1.99728E+01-8.61620E-05-8.35299E-05-1.00362E-04 9.18840E-15-7.60595E-13
 -1      1248 1.99766E+01-5.09241E-05-3.32451E-05-1.04127E-04 2.54568E-14-1.13852E-12
 -1      1249 1.99807E+01-2.66927E-05-1.58539E-06-1.00674E-04 8.88909E-16-7.20652E-13
 -1      1250 1.99846E+01-1.01331E-05 1.73569E-05-9.36470E-05-5.54054E-14-4.14003E-13
 -1      1251 1.99882E+01 1.66632E-06 2.85708E-05-8.56877E-05 3.86332E-14 1.69929E-13
 -1      1252 1.99915E+01 1.13992E-05 3.67529E-05-7.86553E-05-2.31471E-15-2.72441E-13
 -1      1253 1.99943E+01 2.15739E-05 4.69227E-05-7.36023E-05-3.65618E-14-3.46936E-13
 -1      1254 1.99967E+01 3.46419E-05 6.43408E-05-7.03234E-05 1.50609E-13-5.48437E-13
 -1      1255 1.99986E+01 5.01838E-05 8.85693E-05-6.42910E-05-7.27347E-14 1.13977E-13
 -1      1256 1.99997E+01 5.21404E-05 8.73794E-05-3.85341E-05-9.77425E-14 1.26119E-12
 -1      1257 1.99999E+01-2.89017E-05-5.73160E-05 2.56918E-05 3.96576E-16 1.02659E-12
 -1      1258 1.99998E+01 7.97298E-05-5.74090E-05 2.88415E-05 1.25071E-12 4.80346E-14
 -1      1259 1.99999E+01-1.12604E-04 8.55671E-05 9.48397E-06 8.21142E-13-1.64830E-14
 -1      1260 1.99998E+01-1.15351E-03 7.80165E-05-4.36187E-05-1.69510E-13-1.01535E-13
 -1      1261 1.99998E+01-2.75374E-03 3.07249E-05-6.22293E-05 2.05892E-14 9.33300E-14
 -1      1262 1.99998E+01-4.54471E-03-1.45786E-05-6.29255E-05-2.31677E-13-7.10800E-14
 -1      1263 1.99998E+01-6.21547E-03-4.89452E-05-5.31342E-05-1.86783E-12-1.10973E-13
 -1      1264 1.99997E+01-7.55882E-03-7.18160E-05-3.86312E-05-9.33922E-13 3.44046E-14
 -1      1265 1.99997E+01-8.43066E-03-8.53334E-05-1.99112E-05-3.98434E-13 2.99020E-14
 -1      1266 1.99997E+01-8.72577E-03-8.96025E-05 2.59781E-07-4.10854E-14 2.00790E-14
 -1      1267 1.99997E+01-8.41526E-03-8.49390E-05 2.03934E-05-2.62340E-13 1.14450E-13
 -1      1268 1.99997E+01-7.53074E-03-7.10059E-05 3.89455E-05-4.87866E-13-2.57820E-13
 -1      1269 1.99998E+01-6.17883E-03-4.77813E-05 5.40931E-05-1.51821E-12-8.40162E-14
 -1      1270 1.99998E+01-4.50683E-03-1.38304E-05 6.28779E-05-1.40756E-12 1.30620E-13
 -1      1271 1.99998E+01-2.71831E-03 3.20076E-05 6.28388E-05-1.15480E-12 4.11948E-14
 -1      1272 1.99999E+01-1.10444E-03 8.58422E-05 5.18506E-05-1.55408E-12 2.74396E-14
 -1      1273 1.99999E+01-1.35489E-04 8.03146E-05-2.73214E-05-6.74321E-13 1.59712E-14
 -1      1274 1.99998E+01 8.88733E-05-5.92317E-05-2.82303E-05-1.30110E-13 8.77299E-14
 -1      1275-1.17310E+00-2.46603E+01-3.82036E+00-2.25949E+00 2.30449E-12 4.68955E-13
 -1      1276-2.03603E+00-1.66198E+01-3.24830E+00-4.30165E+00 4.91573E-12 1.94950E-12
 -1      1277-5.36897E-01-4.73177E+00-2.22875E+00-1.26763E+00 6.15641E-12 3.73490E-12
 -1      1278 7.11423E+00 6.05602E+00-6.93756E-01 6.63724E+00 5.74851E-12 5.10658E-12
 -1      1279 2.28086E+01 1.07765E+01 1.07243E+00 1.50646E+01 3.93641E-12 5.10814E-12
 -1      1280 4.34578E+01 8.84071E+00 2.71682E+00 1.79552E+01 1.80544E-12 3.70348E-12
 -1      1281 6.16438E+01 4.10385E+00 4.00015E+00 1.26432E+01 4.80060E-13 1.46894E-12
 -1      1282 6.90555E+01 1.70030E+00 4.47367E+00 4.31528E-01 2.24286E-13-1.67891E-12
 -1      1283 6.24209E+01 4.02779E+00 4.08608E+00-1.21239E+01 1.27999E-12-5.16731E-12
 -1      1284 4.46159E+01 8.80105E+00 2.85591E+00-1.82994E+01 3.35176E-12-7.26064E-12
 -1      1285 2.33962E+01 1.09592E+01 1.10493E+00-1.54635E+01 5.45697E-12-7.42206E-12
 -1      1286 6.84243E+00 5.85308E+00-7.25068E-01-6.37672E+00 6.38178E-12-5.69744E-12
 -1      1287-8.44396E-01-6.19675E+00-2.32358E+00 2.04069E+00 5.67479E-12-3.23308E-12
 -1      1288-1.81148E+00-1.83981E+01-3.37755E+00 4.37384E+00 3.23253E-12-1.15205E-12
 -1      1289-9.02144E-01-2.49452E+01-3.77116E+00 1.46451E+00-3.25850E-14-2.56409E-13
 -1      1290-1.15677E+00-2.27317E+01-3.60707E+00-2.94749E+00-3.56071E-12-7.83110E-13
 -1      1291-1.58259E+00-1.19253E+01-2.75065E+00-3.38414E+00-6.15397E-12-2.64228E-12
 -1      1292 2.20690E+00 1.14666E+00-1.40273E+00 2.21199E+00-6.99463E-12-4.84424E-12
 -1      1293 1.37771E+01 9.75520E+00 2.78233E-01 1.12741E+01-6.00830E-12-6.37468E-12
 -1      1294 3.21565E+01 1.08954E+01 1.97535E+00 1.77178E+01-4.15501E-12-6.67266E-12
 -1      1295 5.20886E+01 6.70309E+00 3.31901E+00 1.61245E+01-1.85524E-12-4.92428E-12
 -1      1296 6.54374E+01 2.29109E+00 4.10069E+00 6.49610E+00-4.12819E-13-1.78391E-12
 -1      1297 6.51264E+01 2.16644E+00 4.02578E+00-6.86891E+00-3.72247E-13 1.52306E-12
 -1      1298 5.07831E+01 6.94274E+00 3.20380E+00-1.65340E+01-1.74483E-12 4.52216E-12
 -1      1299 2.99020E+01 1.10572E+01 1.79051E+00-1.72621E+01-3.84226E-12 5.94369E-12
 -1      1300 1.15467E+01 9.04152E+00 2.87232E-02-1.00579E+01-5.10347E-12 5.22804E-12
 -1      1301 1.19586E+00-5.52757E-01-1.58203E+00-1.03529E+00-4.85323E-12 3.23797E-12
 -1      1302-1.62509E+00-1.38346E+01-2.91226E+00 3.83261E+00-3.48055E-12 1.46350E-12
 -1      1303-1.15288E+00-2.35830E+01-3.66847E+00 2.23551E+00-6.64580E-13 3.17663E-13
 -1      1304 2.37774E+01 1.92921E+00-7.23514E-01-2.53650E+00-1.65590E-13 2.32636E-12
 -1      1305 2.16930E+01 4.83489E+00-3.71683E-02-2.68685E+00-4.01928E-13-3.35898E-13
 -1      1306 2.23521E+01 4.96816E+00-8.18307E-02-3.64329E+00-5.38181E-13 2.61402E-13
 -1      1307 2.04686E+01 5.10794E+00-1.46770E-02-1.86463E+00-3.74582E-13-1.16242E-12
 -1      1308 2.09889E+01 5.26468E+00 2.14490E-02-2.33136E+00-4.34777E-13-8.14779E-13
 -1      1309 2.18580E+01 3.98723E+00-1.69696E-02-2.41213E+00-6.93973E-13-2.92641E-13
 -1      1310 1.96093E+01 5.12774E+00-5.28290E-03-1.18609E+00-2.81122E-13-1.55272E-12
 -1      1311 2.00260E+01 5.26031E+00 2.36234E-02-1.51740E+00-3.33338E-13-1.38482E-12
 -1      1312 2.06184E+01 4.39974E+00-2.07781E-02-1.70093E+00-5.76771E-13-9.69363E-13
 -1      1313 1.88739E+01 5.09342E+00-4.13701E-03-6.61182E-01-1.79759E-13-1.73038E-12
 -1      1314 1.92373E+01 5.20759E+00 2.07069E-02-9.10171E-01-2.16535E-13-1.65494E-12
 -1      1315 1.96946E+01 4.56991E+00-1.96978E-02-1.07383E+00-4.10253E-13-1.31129E-12
 -1      1316 1.82323E+01 5.05357E+00-6.60827E-03-2.76426E-01-8.73676E-14-1.80715E-12
 -1      1317 1.85486E+01 5.15180E+00 1.66457E-02-4.55313E-01-1.19189E-13-1.77288E-12
 -1      1318 1.89132E+01 4.66491E+00-1.73890E-02-5.85370E-01-2.47045E-13-1.46274E-12
 -1      1319 1.76838E+01 5.02599E+00-1.04586E-02-8.33976E-03-1.40200E-14-1.82302E-12
 -1      1320 1.79471E+01 5.10681E+00 1.08298E-02-1.30030E-01-3.42365E-14-1.82439E-12
 -1      1321 1.82303E+01 4.74107E+00-1.53284E-02-2.22448E-01-1.03185E-13-1.53306E-12
 -1      1322 1.72905E+01 5.02143E+00-1.29212E-02 1.51343E-01 6.56541E-14-1.80892E-12
 -1      1323 1.74680E+01 5.07552E+00 3.59486E-03 7.96625E-02 3.97807E-14-1.81833E-12
 -1      1324 1.76672E+01 4.81395E+00-1.39344E-02 2.57948E-02 1.96319E-14-1.54238E-12
 -1      1325 1.71093E+01 5.04142E+00-1.25750E-02 2.32611E-01 1.32846E-13-1.77344E-12
 -1      1326 1.71723E+01 5.06033E+00-4.00499E-03 1.93717E-01 1.08108E-13-1.79720E-12
 -1      1327 1.72867E+01 4.88019E+00-1.29158E-02 1.72811E-01 1.42463E-13-1.53041E-12
 -1      1328 1.71844E+01 5.08297E+00-8.72824E-03 2.81540E-01 1.95174E-13-1.71237E-12
 -1      1329 1.71130E+01 5.06076E+00-1.06449E-02 2.50920E-01 1.71343E-13-1.75464E-12
 -1      1330 1.71493E+01 4.92789E+00-1.24396E-02 2.51470E-01 2.52615E-13-1.49215E-12
 -1      1331 1.75325E+01 5.14022E+00-1.84410E-03 3.56075E-01 2.58855E-13-1.60039E-12
 -1      1332 1.73222E+01 5.07585E+00-1.49996E-02 3.04511E-01 2.36419E-13-1.67201E-12
 -1      1333 1.72977E+01 4.94419E+00-1.27297E-02 3.10764E-01 3.53480E-13-1.42582E-12
 -1      1334 1.81261E+01 5.20617E+00 7.24228E-03 5.13975E-01 3.33886E-13-1.41696E-12
 -1      1335 1.77951E+01 5.10377E+00-1.65304E-02 4.13973E-01 3.00121E-13-1.52839E-12
 -1      1336 1.77386E+01 4.92072E+00-1.36667E-02 4.08329E-01 4.55298E-13-1.30462E-12
 -1      1337 1.89485E+01 5.27427E+00 1.73116E-02 8.18692E-01 4.18957E-13-1.12119E-12
 -1      1338 1.85050E+01 5.13676E+00-1.62029E-02 6.37730E-01 3.78655E-13-1.29510E-12
 -1      1339 1.84516E+01 4.85134E+00-1.55260E-02 6.02737E-01 5.79535E-13-1.09813E-12
 -1      1340 1.99551E+01 5.32852E+00 2.67539E-02 1.32533E+00 4.97352E-13-6.41813E-13
 -1      1341 1.94196E+01 5.16042E+00-1.61623E-02 1.03366E+00 4.49168E-13-9.30835E-13
 -1      1342 1.94094E+01 4.72204E+00-1.78086E-02 9.49894E-01 6.98941E-13-7.74179E-13
 -1      1343 2.11696E+01 5.33535E+00 3.75432E-02 2.10799E+00 5.43149E-13 1.76498E-13
 -1      1344 2.05176E+01 5.13003E+00-2.04358E-02 1.65189E+00 4.96381E-13-3.12320E-13
 -1      1345 2.05920E+01 4.49068E+00-1.81611E-02 1.49430E+00 7.92630E-13-2.44048E-13
 -1      1346 2.28702E+01 5.08622E+00 4.36309E-02 3.33790E+00 4.35429E-13 1.65801E-12
 -1      1347 2.19263E+01 4.89340E+00-3.21175E-02 2.54485E+00 4.37123E-13 7.63410E-13
 -1      1348 2.21053E+01 4.00018E+00-7.08688E-03 2.24757E+00 7.85306E-13 6.62831E-13
 -1      1349 2.87970E+01 3.23944E+00 8.70480E-01 4.23252E+00 1.92624E-13 4.29751E-12
 -1      1350 2.38588E+01 3.62202E+00-1.68029E-01 3.32196E+00 2.05641E-13 2.48768E-12
 -1      1351 2.40985E+01 2.56922E+00-8.25414E-03 2.70928E+00 6.91702E-13 1.99638E-12
 -1      1352 2.35198E+01 3.20280E-01-7.64921E-01 8.02727E-01 3.61232E-13 4.17871E-12
 -1      1353 2.37825E+01 1.01861E-01-4.04321E-01-1.01148E+00-4.67557E-13 2.52082E-12
 -1      1354 2.27598E+01 2.80956E-01-1.55110E-01-5.70053E-01-4.23453E-13 1.96855E-12
 -1      1355 2.23181E+01 1.39384E-01-6.97368E-02-1.91780E-01-3.29754E-13 1.76588E-12
 -1      1356 2.21020E+01 7.47277E-02-1.09206E-02-1.31460E-01-3.10349E-13 1.28277E-12
 -1      1357 2.29537E+01 3.26683E-01-1.02963E-01-8.50032E-01-7.18536E-13 9.55392E-13
 -1      1358 2.19069E+01 4.90355E-02 4.80065E-03 2.82830E-02-2.40107E-13 1.12098E-12
 -1      1359 2.19450E+01 2.18484E-02 1.40507E-02 3.73716E-02-2.19894E-13 7.69350E-13
 -1      1360 2.22301E+01 1.01930E-01-3.21397E-02-1.53020E-01-5.40328E-13 6.54865E-13
 -1      1361 2.19112E+01 9.06867E-03 1.38707E-02 7.96658E-02-1.82873E-13 6.32532E-13
 -1      1362 2.20071E+01-9.02833E-03 1.10508E-02 7.61641E-02-1.76579E-13 3.64528E-13
 -1      1363 2.20407E+01 1.72345E-02-3.74375E-03 8.50410E-02-4.00999E-13 3.63879E-13
 -1      1364 2.20183E+01-1.88537E-02 1.03953E-02 4.91955E-02-1.27081E-13 2.76754E-13
 -1      1365 2.20639E+01-3.21062E-02 7.29824E-03 3.35383E-02-1.17062E-13 1.03251E-13
 -1      1366 2.20302E+01-3.15174E-02 4.18839E-03 1.05498E-01-2.97345E-13 1.61461E-13
 -1      1367 2.20433E+01-4.16502E-02 8.69187E-03-4.52151E-02-1.04817E-13 2.43243E-14
 -1      1368 2.19609E+01-4.93059E-02 6.34192E-03-7.19144E-02-9.49648E-14-1.17649E-13
 -1      1369 2.20319E+01-6.87581E-02 9.62618E-03-1.84874E-02-2.19178E-13-1.83013E-16
 -1      1370 2.18543E+01-5.65536E-02 9.14520E-03-1.85664E-01-6.49949E-14-1.44964E-13
 -1      1371 2.15936E+01-5.49631E-02 6.61037E-03-2.18964E-01-7.01392E-14-2.74617E-13
 -1      1372 2.19199E+01-9.38961E-02 1.43792E-02-2.48756E-01-1.56278E-13-9.31784E-14
 -1      1373 2.13737E+01-5.56194E-02 9.26013E-03-3.37088E-01-7.06158E-14-3.12084E-13
 -1      1374 2.09325E+01-4.10878E-02 5.83049E-03-3.67151E-01-7.77412E-14-4.23977E-13
 -1      1375 2.16115E+01-9.50355E-02 1.61635E-02-5.29867E-01-1.50936E-13-1.53091E-13
 -1      1376 2.06121E+01-3.11845E-02 6.61767E-03-4.43128E-01-7.27864E-14-4.47954E-13
 -1      1377 2.00590E+01-3.96092E-03 2.26840E-03-4.55698E-01-1.16724E-13-5.94094E-13
 -1      1378 2.10878E+01-5.94243E-02 1.19282E-02-7.69298E-01-1.43511E-13-1.93694E-13
 -1      1379 1.97020E+01 1.58150E-02 4.34517E-04-4.40982E-01-1.26075E-13-6.40779E-13
 -1      1380 1.91768E+01 4.80501E-02-3.94777E-03-4.23703E-01-7.41338E-14-7.55146E-13
 -1      1381 2.04205E+01 1.36695E-02 2.95737E-04-8.49978E-01-1.83880E-13-2.23061E-13
 -1      1382 1.88887E+01 6.95252E-02-7.14647E-03-2.96119E-01-6.39818E-14-8.96228E-13
 -1      1383 1.85613E+01 9.29208E-02-1.00893E-02-2.48153E-01-7.53963E-14-9.73237E-13
 -1      1384 1.97774E+01 1.02502E-01-1.57050E-02-6.81607E-01-1.70656E-13-4.49456E-13
 -1      1385 1.84483E+01 1.03798E-01-1.20717E-02-3.65089E-02-2.68344E-14-1.03598E-12
 -1      1386 1.84435E+01 1.06236E-01-1.22651E-02 2.64992E-02-3.15078E-14-1.06294E-12
 -1      1387 1.93737E+01 1.67685E-01-2.82966E-02-2.68780E-01-1.11966E-13-7.35008E-13
 -1      1388 1.85573E+01 9.96656E-02-1.14023E-02 2.47846E-01-3.24749E-14-1.08320E-12
 -1      1389 1.88896E+01 7.96593E-02-8.71060E-03 3.01170E-01-1.83534E-14-1.07730E-12
 -1      1390 1.93728E+01 1.75309E-01-2.97946E-02 2.61269E-01-5.12212E-14-8.46275E-13
 -1      1391 1.91960E+01 6.01625E-02-6.08053E-03 4.52293E-01-3.50310E-14-1.12287E-12
 -1      1392 1.97616E+01 2.79018E-02-1.59181E-03 4.77162E-01-7.50164E-14-1.14347E-12
 -1      1393 1.97925E+01 1.21273E-01-1.91533E-02 7.15484E-01-7.87582E-14-8.89912E-13
 -1      1394 2.01609E+01 7.29310E-03 1.68433E-04 5.16600E-01-1.07107E-13-1.18288E-12
 -1      1395 2.07928E+01-2.30364E-02 4.87076E-03 5.10001E-01-8.00293E-14-1.24958E-12
 -1      1396 2.04946E+01 3.41899E-02-2.99793E-03 9.43358E-01-1.32146E-13-9.60398E-13
 -1      1397 2.11724E+01-3.50392E-02 4.05271E-03 4.48957E-01-6.13823E-14-1.29969E-12
 -1      1398 2.17172E+01-5.41726E-02 7.86643E-03 4.21286E-01-5.12802E-14-1.34272E-12
 -1      1399 2.12619E+01-4.56389E-02 1.03797E-02 9.10538E-01-1.17737E-13-1.00053E-12
 -1      1400 2.19981E+01-5.54202E-02 4.75385E-03 3.03641E-01-2.80800E-14-1.40786E-12
 -1      1401 2.23661E+01-6.18755E-02 7.30334E-03 2.69093E-01 2.55594E-14-1.40666E-12
 -1      1402 2.19035E+01-9.17253E-02 1.67305E-02 6.88626E-01-5.97491E-14-1.04218E-12
 -1      1403 2.25174E+01-5.57335E-02 3.38538E-03 1.41415E-01 9.10643E-15-1.41329E-12
 -1      1404 2.26899E+01-5.30428E-02 4.86961E-03 1.10630E-01 7.13405E-15-1.39602E-12
 -1      1405 2.23138E+01-1.00593E-01 1.67171E-02 3.89770E-01 3.14419E-15-1.14958E-12
 -1      1406 2.27194E+01-4.42437E-02 1.48408E-03 3.89566E-03-3.70758E-14-1.40100E-12
 -1      1407 2.27261E+01-3.71087E-02 2.21254E-03-1.82281E-02-6.34323E-14-1.43492E-12
 -1      1408 2.24751E+01-8.43315E-02 1.30478E-02 1.07471E-01-4.74499E-14-1.16175E-12
 -1      1409 2.26624E+01-2.90276E-02 1.92222E-05-9.16313E-02 2.13250E-14-1.38296E-12
 -1      1410 2.25537E+01-2.10280E-02 2.67726E-04-1.04603E-01 1.46324E-14-1.34879E-12
 -1      1411 2.24271E+01-5.79023E-02 8.33638E-03-1.07510E-01-5.08898E-14-1.01627E-12
 -1      1412 2.24307E+01-1.51546E-02-7.15817E-04-1.45402E-01 1.96206E-14-1.27739E-12
 -1      1413 2.22570E+01-8.22545E-03-7.74253E-04-1.50960E-01 2.96811E-14-1.24806E-12
 -1      1414 2.22327E+01-3.20592E-02 4.14572E-03-2.42601E-01 4.73983E-14-1.07738E-12
 -1      1415 2.21046E+01-4.71476E-03-8.55714E-04-1.66120E-01 3.21099E-14-1.23686E-12
 -1      1416 2.19059E+01 4.70073E-04-1.11413E-03-1.66588E-01 5.24654E-14-1.15692E-12
 -1      1417 2.19550E+01-1.18946E-02 1.06149E-03-3.07905E-01 5.42053E-14-8.81470E-13
 -1      1418 2.17469E+01 2.08469E-03-6.60995E-04-1.64436E-01 4.25602E-14-1.11827E-12
 -1      1419 2.15503E+01 5.55689E-03-1.04218E-03-1.61887E-01-2.34087E-15-1.11065E-12
 -1      1420 2.16450E+01 1.54569E-03-9.04999E-04-3.22099E-01 5.32532E-14-8.02105E-13
 -1      1421 2.13992E+01 5.88705E-03-3.51417E-04-1.49655E-01-4.02353E-14-1.05478E-12
 -1      1422 2.12206E+01 7.96899E-03-7.92744E-04-1.45628E-01-1.52721E-15-1.07305E-12
 -1      1423 2.13383E+01 9.22517E-03-1.97890E-03-3.03870E-01-5.16622E-15-7.41281E-13
 -1      1424 2.10860E+01 7.54671E-03-5.87981E-05-1.28662E-01 1.42498E-14-1.14223E-12
 -1      1425 2.09328E+01 8.61818E-03-5.10022E-04-1.24175E-01 1.41508E-14-1.12309E-12
 -1      1426 2.10569E+01 1.27165E-02-2.42843E-03-2.68212E-01-3.66633E-14-7.14044E-13
 -1      1427 2.08182E+01 7.82966E-03 1.60445E-04-1.06005E-01-2.54769E-14-1.15135E-12
 -1      1428 2.06923E+01 8.22468E-03-2.64298E-04-1.01661E-01-7.01511E-15-1.12877E-12
 -1      1429 2.08120E+01 1.35002E-02-2.48275E-03-2.25659E-01-2.97746E-14-7.60425E-13
 -1      1430 2.05982E+01 7.31861E-03 2.96568E-04-8.43776E-02-5.09944E-15-1.13687E-12
 -1      1431 2.04984E+01 7.29469E-03-7.93101E-05-8.04936E-02-2.50195E-14-1.17235E-12
 -1      1432 2.06072E+01 1.27198E-02-2.31118E-03-1.82865E-01-1.04481E-14-7.68322E-13
 -1      1433 2.04235E+01 6.41486E-03 3.61976E-04-6.51745E-02 1.05376E-13-1.21954E-12
 -1      1434 2.03467E+01 6.15532E-03 4.53504E-05-6.18788E-02 1.29324E-13-1.12415E-12
 -1      1435 2.04414E+01 1.11640E-02-2.02841E-03-1.43572E-01 1.65119E-14-8.38034E-13
 -1      1436 2.02887E+01 5.37427E-03 3.75888E-04-4.89445E-02 4.22663E-14-1.06814E-12
 -1      1437 2.02313E+01 5.00207E-03 1.20015E-04-4.62546E-02 5.85344E-14-9.07720E-13
 -1      1438 2.03111E+01 9.33236E-03-1.70719E-03-1.09545E-01 1.55944E-13-7.61100E-13
 -1      1439 2.01875E+01 4.34785E-03 3.56665E-04-3.57293E-02 1.65547E-15-9.94200E-13
 -1      1440 2.01458E+01 3.94101E-03 1.57372E-04-3.36020E-02-6.65710E-14-1.04132E-12
 -1      1441 2.02112E+01 7.51668E-03-1.39062E-03-8.12972E-02 2.26381E-15-8.00857E-13
 -1      1442 2.01136E+01 3.41600E-03 3.18931E-04-2.52938E-02-1.22137E-13-9.92764E-13
 -1      1443 2.00844E+01 3.02093E-03 1.69014E-04-2.36573E-02-8.61097E-14-1.09310E-12
 -1      1444 2.01366E+01 5.87008E-03-1.10202E-03-5.86171E-02-1.43980E-13-8.13828E-13
 -1      1445 2.00614E+01 2.61410E-03 2.73129E-04-1.72740E-02-6.38649E-14-1.21253E-12
 -1      1446 2.00415E+01 2.25587E-03 1.64263E-04-1.60474E-02-8.91375E-14-1.29849E-12
 -1      1447 2.00824E+01 4.45862E-03-8.51987E-04-4.09194E-02-1.63502E-13-8.21795E-13
 -1      1448 2.00256E+01 1.95037E-03 2.26097E-04-1.12675E-02-1.07297E-13-1.36273E-12
 -1      1449 2.00129E+01 1.64022E-03 1.50049E-04-1.03720E-02-2.39651E-14-1.49080E-12
 -1      1450 2.00442E+01 3.29673E-03-6.43295E-04-2.74656E-02-1.32845E-13-9.70568E-13
 -1      1451 2.00023E+01 1.41781E-03 1.81913E-04-6.88505E-03-5.21144E-14-1.52852E-12
 -1      1452 1.99947E+01 1.15839E-03 1.31224E-04-6.24958E-03-7.55814E-14-1.65038E-12
 -1      1453 2.00181E+01 2.37046E-03-4.74241E-04-1.74961E-02-1.07109E-13-9.97354E-13
 -1      1454 1.99881E+01 1.00176E-03 1.42702E-04-3.77674E-03 3.81378E-14-1.56989E-12
 -1      1455 1.99841E+01 7.90745E-04 1.10998E-04-3.34033E-03 8.88950E-14-1.57154E-12
 -1      1456 2.00012E+01 1.65215E-03-3.40774E-04-1.03029E-02 2.59212E-14-9.39353E-13
 -1      1457 1.99803E+01 6.84687E-04 1.09297E-04-1.64323E-03 8.28265E-14-1.60737E-12
 -1      1458 1.99787E+01 5.17109E-04 9.13614E-05-1.35551E-03 1.09094E-13-1.43365E-12
 -1      1459 1.99909E+01 1.10925E-03-2.37861E-04-5.26489E-03 1.31841E-13-1.00753E-12
 -1      1460 1.99769E+01 4.48871E-04 8.17251E-05-2.37396E-04 1.99301E-13-1.36898E-12
 -1      1461 1.99769E+01 3.18638E-04 7.34349E-05-5.79285E-05 1.54627E-13-1.14983E-12
 -1      1462 1.99853E+01 7.09282E-04-1.60306E-04-1.85892E-03 2.25605E-13-1.02264E-12
 -1      1463 1.99764E+01 2.77919E-04 5.95476E-05 6.38901E-04-6.90940E-14-1.07798E-12
 -1      1464 1.99774E+01 1.78741E-04 5.77440E-05 7.41737E-04-2.51089E-14-1.16769E-12
 -1      1465 1.99829E+01 4.22553E-04-1.03221E-04 3.41107E-04 5.71307E-14-1.01112E-12
 -1      1466 1.99777E+01 1.57450E-04 4.20946E-05 1.14046E-03-1.28106E-13-1.15007E-12
 -1      1467 1.99792E+01 8.33585E-05 4.44241E-05 1.19079E-03-2.09592E-13-1.44073E-12
 -1      1468 1.99826E+01 2.23266E-04-6.22532E-05 1.67307E-03-1.70304E-13-9.50533E-13
 -1      1469 1.99800E+01 7.52905E-05 2.86112E-05 1.38521E-03-1.15580E-13-1.42603E-12
 -1      1470 1.99818E+01 2.09006E-05 3.33678E-05 1.40100E-03-8.48312E-14-1.57931E-12
 -1      1471 1.99837E+01 8.97989E-05-3.36758E-05 2.39811E-03-1.72792E-13-9.10367E-13
 -1      1472 1.99829E+01 2.13764E-05 1.83516E-05 1.46059E-03 6.42911E-14-1.59129E-12
 -1      1473 1.99848E+01-1.80274E-05 2.43326E-05 1.45478E-03 4.25321E-14-1.48194E-12
 -1      1474 1.99855E+01 4.46308E-06-1.43820E-05 2.71291E-03-7.95054E-14-9.74005E-13
 -1      1475 1.99860E+01-1.25132E-05 1.06407E-05 1.42916E-03 1.03599E-13-1.27247E-12
 -1      1476 1.99877E+01-4.09995E-05 1.70301E-05 1.41065E-03 1.52630E-13-1.06412E-12
 -1      1477 1.99877E+01-4.70335E-05-1.82593E-06 2.76106E-03 2.37762E-13-9.84686E-13
 -1      1478 1.99889E+01-3.31227E-05 4.93716E-06 1.33329E-03 8.72286E-14-7.37408E-13
 -1      1479 1.99906E+01-5.41971E-05 1.12369E-05 1.30770E-03 1.43885E-13-6.31536E-13
 -1      1480 1.99900E+01-7.62770E-05 6.07051E-06 2.64287E-03 3.47787E-13-5.76370E-13
 -1      1481 1.99917E+01-4.61389E-05 9.49894E-07 1.19864E-03 1.95138E-13-5.80176E-13
 -1      1482 1.99932E+01-6.28440E-05 6.98109E-06 1.16879E-03 2.35464E-13-3.13816E-13
 -1      1483 1.99923E+01-9.29365E-05 1.10467E-05 2.42320E-03 4.00868E-13-2.52581E-13
 -1      1484 1.99942E+01-5.66329E-05-1.14099E-06 1.03660E-03 2.09112E-13-1.81760E-13
 -1      1485 1.99954E+01-7.16298E-05 4.76720E-06 1.00272E-03 7.53533E-14-4.51736E-14
 -1      1486 1.99943E+01-1.05608E-04 1.46597E-05 2.13711E-03 3.62571E-13 1.98783E-14
 -1      1487 1.99963E+01-6.94250E-05-4.17262E-07 8.45553E-04-7.52196E-14-8.93462E-14
 -1      1488 1.99973E+01-8.46582E-05 5.50018E-06 8.05091E-04 9.06263E-15-4.36769E-14
 -1      1489 1.99961E+01-1.22783E-04 1.83341E-05 1.79372E-03 5.49723E-14 1.68665E-13
 -1      1490 1.99980E+01-8.84441E-05 4.13647E-06 6.13459E-04 1.57096E-13-5.63970E-14
 -1      1491 1.99987E+01-1.03568E-04 7.29372E-06 5.60675E-04 9.28618E-14 1.66398E-13
 -1      1492 1.99976E+01-1.52715E-04 2.24020E-05 1.37939E-03 8.51910E-14 1.01317E-13
 -1      1493 1.99991E+01-1.21733E-04 7.05775E-06 3.23157E-04-6.53299E-15 1.96095E-13
 -1      1494 1.99995E+01-1.13213E-04-1.02221E-06 2.57517E-04-5.21691E-14 2.45159E-13
 -1      1495 1.99988E+01-2.00953E-04 2.46590E-05 8.75862E-04 1.01032E-13 1.76367E-13
 -1      1496 1.99998E+01-3.58363E-05-8.05147E-06-1.38831E-05-2.32991E-13 3.53511E-13
 -1      1497 1.99996E+01-1.83939E-04 1.02309E-05 2.45863E-04-2.12331E-13 2.16945E-13
 -1      1498 2.31047E+01 7.01344E-02-1.38177E-01 1.70959E-01 3.48346E-13 3.41511E-12
 -1      1499 2.39023E+01 2.24335E-01-2.25711E-01 3.92344E-01 2.95833E-13 3.94330E-12
 -1      1500 2.40012E+01 8.19409E-01-1.02228E-01 1.46909E+00 5.71751E-13 2.63800E-12
 -1      1501 2.29409E+01 3.50314E-02-1.62416E-02-1.22446E-01 2.52442E-13 2.74146E-12
 -1      1502 2.29227E+01 1.21612E-01-5.41239E-02-6.61729E-02 2.47670E-13 3.14209E-12
 -1      1503 2.31878E+01 1.71881E-01-6.07547E-02 2.02842E-01 5.19557E-13 2.15629E-12
 -1      1504 2.33598E+01 1.73397E-02 5.90766E-03-2.68267E-01 1.45125E-13 2.28458E-12
 -1      1505 2.30514E+01 6.17299E-02 4.30065E-03-2.32432E-01 1.58290E-13 2.55000E-12
 -1      1506 2.31091E+01 7.37147E-02-1.79727E-02-2.98927E-01 3.74074E-13 1.75244E-12
 -1      1507 2.40640E+01 4.01146E-04 8.75944E-03-3.28720E-01 1.21464E-13 1.99214E-12
 -1      1508 2.36268E+01 2.76338E-02 1.13209E-02-3.09311E-01 1.05022E-13 2.17509E-12
 -1      1509 2.34734E+01 2.92728E-02-7.00879E-03-5.28858E-01 2.37545E-13 1.47423E-12
 -1      1510 2.48206E+01-2.26911E-02 1.47700E-02-3.01514E-01 5.49105E-14 1.81385E-12
 -1      1511 2.43775E+01-8.47218E-03 9.39205E-03-3.05023E-01 5.97105E-14 1.90369E-12
 -1      1512 2.40436E+01-1.40612E-02 2.05513E-04-5.86866E-01 1.58651E-13 1.33055E-12
 -1      1513 2.53660E+01-5.30756E-02 2.78293E-02-1.57471E-01 3.85213E-14 1.75545E-12
 -1      1514 2.50681E+01-5.69972E-02 1.08110E-02-1.96063E-01 2.06935E-14 1.77749E-12
 -1      1515 2.46157E+01-7.24808E-02 1.31687E-02-4.54293E-01 5.94507E-14 1.23893E-12
 -1      1516 2.53880E+01-8.19642E-02 4.27930E-02 1.24042E-01 5.19983E-14 1.71185E-12
 -1      1517 2.54207E+01-1.13148E-01 1.65992E-02 4.06623E-02 4.20497E-14 1.75501E-12
 -1      1518 2.49652E+01-1.44037E-01 3.14319E-02-8.75730E-02 5.38215E-14 1.22251E-12
 -1      1519 2.46103E+01-8.65339E-02 4.55258E-02 5.04087E-01 4.19005E-14 1.60360E-12
 -1      1520 2.51369E+01-1.51027E-01 2.18627E-02 3.84869E-01 4.21174E-14 1.67929E-12
 -1      1521 2.48573E+01-2.00174E-01 4.66130E-02 5.03814E-01 8.06820E-14 1.22538E-12
 -1      1522 2.29974E+01-3.87966E-02 1.69844E-02 8.30520E-01 1.27118E-13 1.39944E-12
 -1      1523 2.40276E+01-1.25882E-01 1.63604E-02 7.21187E-01 9.79893E-14 1.52535E-12
 -1      1524 2.41345E+01-1.81090E-01 4.34354E-02 1.16094E+00 1.34196E-13 1.14504E-12
 -1      1525 2.10006E+01 5.79973E-02-4.32129E-02 8.61169E-01 1.12063E-13 1.15252E-12
 -1      1526 2.22417E+01-1.11648E-02-8.35622E-03 8.35912E-01 1.08686E-13 1.28583E-12
 -1      1527 2.28870E+01-3.02741E-02 1.19216E-02 1.53002E+00 1.88305E-13 9.92956E-13
 -1      1528 1.95228E+01 1.48719E-01-1.02392E-01 4.49220E-01 8.63719E-14 8.40300E-13
 -1      1529 2.04158E+01 1.49444E-01-4.46510E-02 5.54785E-01 1.06436E-13 9.68087E-13
 -1      1530 2.15815E+01 2.13361E-01-3.67182E-02 1.23772E+00 2.02990E-13 8.05824E-13
 -1      1531 1.94443E+01 1.53834E-01-1.02539E-01-2.50138E-01 6.85424E-14 6.94035E-13
 -1      1532 1.94653E+01 2.40484E-01-6.52787E-02-6.14158E-02 3.61308E-14 7.26724E-13
 -1      1533 2.09108E+01 3.99812E-01-6.55789E-02 2.48681E-01 1.25164E-13 4.39980E-13
 -1      1534 2.07576E+01 7.36459E-02-4.78103E-02-7.92511E-01 1.09177E-13 4.65530E-13
 -1      1535 1.99390E+01 1.93403E-01-4.69251E-02-6.43380E-01 1.10786E-13 5.74082E-13
 -1      1536 2.12816E+01 3.41406E-01-6.13551E-02-8.97956E-01 1.84901E-13 2.21996E-13
 -1      1537 2.28746E+01-2.98300E-02 2.34208E-02-9.51844E-01 1.37428E-13 1.59650E-13
 -1      1538 2.15653E+01 5.63225E-02-7.39895E-03-8.96542E-01 1.52917E-13 3.73090E-13
 -1      1539 2.24865E+01 1.14332E-01-2.85734E-02-1.56681E+00 2.63747E-13 5.35683E-15
 -1      1540 2.47869E+01-8.33580E-02 6.33211E-02-7.15717E-01 7.93532E-14-1.24845E-13
 -1      1541 2.36048E+01-6.57071E-02 2.80222E-02-7.58812E-01 9.76250E-14 3.05034E-14
 -1      1542 2.39322E+01-1.32961E-01-1.15537E-03-1.52228E+00 2.44877E-13-1.73354E-13
 -1      1543 2.58948E+01-8.32594E-02 6.14865E-02-3.23828E-01 1.25594E-14-1.90195E-13
 -1      1544 2.51980E+01-1.16260E-01 3.80630E-02-4.07526E-01 2.02772E-14-1.97391E-13
 -1      1545 2.50035E+01-2.40361E-01 1.27953E-02-9.64061E-01 9.25406E-14-3.70867E-13
 -1      1546 2.61311E+01-5.67856E-02 3.85899E-02 1.99283E-02-5.06635E-14-1.27204E-13
 -1      1547 2.59600E+01-1.05395E-01 2.84755E-02-5.63439E-02 7.31012E-15-9.82964E-14
 -1      1548 2.54483E+01-2.16398E-01 1.45072E-02-2.92624E-01 4.96478E-15-3.17480E-13
 -1      1549 2.57291E+01-2.79652E-02 1.53861E-02 2.35611E-01 1.22992E-14-7.76705E-14
 -1      1550 2.59407E+01-6.92756E-02 1.32654E-02 1.85731E-01-4.71671E-14-1.34656E-13
 -1      1551 2.53214E+01-1.37055E-01 1.06784E-02 2.28865E-01-5.50931E-14-2.47671E-13
 -1      1552 2.49816E+01-7.22689E-03 3.31980E-04 3.31114E-01 3.30148E-14-1.71165E-13
 -1      1553 2.53973E+01-3.37584E-02 1.73707E-03 3.06654E-01 5.06852E-14-9.80778E-14
 -1      1554 2.48132E+01-6.06287E-02 6.24218E-03 5.27007E-01 8.37767E-14-2.77667E-13
 -1      1555 2.41187E+01 4.46899E-03-6.72150E-03 3.45546E-01 4.19162E-14-3.53859E-13
 -1      1556 2.45999E+01-8.71004E-03-4.06098E-03 3.38565E-01 3.61134E-14-2.30906E-13
 -1      1557 2.41188E+01-8.93268E-03 2.97472E-03 6.38890E-01 1.04967E-13-3.58359E-13
 -1      1558 2.32821E+01 9.62676E-03-8.64126E-03 3.16348E-01-5.00468E-16-3.40941E-13
 -1      1559 2.37456E+01 5.60580E-03-5.65262E-03 3.19145E-01 4.60396E-15-3.32186E-13
 -1      1560 2.33829E+01 1.85816E-02 1.01749E-03 6.32088E-01 1.14457E-14-3.35950E-13
 -1      1561 2.25420E+01 1.09436E-02-8.07094E-03 2.69232E-01-6.58260E-14-1.95779E-13
 -1      1562 2.29482E+01 1.21845E-02-5.09489E-03 2.76462E-01-3.35652E-14-2.57717E-13
 -1      1563 2.26922E+01 2.95290E-02-1.06970E-05 5.64528E-01-5.74233E-14-1.54364E-13
 -1      1564 2.19230E+01 1.03408E-02-6.63218E-03 2.18877E-01 9.74941E-14-2.75990E-13
 -1      1565 2.22592E+01 1.41083E-02-3.83433E-03 2.27428E-01 1.03893E-14-2.16833E-13
 -1      1566 2.20888E+01 3.11592E-02-5.05800E-04 4.74425E-01 1.04474E-14-1.75324E-13
 -1      1567 2.14242E+01 8.95536E-03-5.10279E-03 1.72436E-01 9.10296E-15-4.26350E-13
 -1      1568 2.16923E+01 1.35974E-02-2.58782E-03 1.80721E-01 8.09483E-14-2.67524E-13
 -1      1569 2.15856E+01 2.83796E-02-7.19256E-04 3.83105E-01 9.93697E-14-2.11023E-13
 -1      1570 2.10331E+01 7.38211E-03-3.77884E-03 1.32680E-01-6.65459E-14-3.66338E-13
 -1      1571 2.12412E+01 1.20091E-02-1.60258E-03 1.40010E-01-1.12036E-13-4.74016E-13
 -1      1572 2.11796E+01 2.39933E-02-7.84871E-04 3.00688E-01-4.15735E-14-2.96460E-13
 -1      1573 2.07328E+01 5.89762E-03-2.72902E-03 1.00114E-01-5.45646E-14-1.33835E-13
 -1      1574 2.08910E+01 1.00886E-02-9.05262E-04 1.06278E-01-1.11725E-14-2.19663E-13
 -1      1575 2.08601E+01 1.94150E-02-7.71486E-04 2.30838E-01-1.15548E-13-6.81113E-14
 -1      1576 2.05067E+01 4.60888E-03-1.93270E-03 7.41966E-02-1.66596E-13 2.80386E-14
 -1      1577 2.06246E+01 8.20681E-03-4.44497E-04 7.92167E-02-1.15800E-13-1.62939E-13
 -1      1578 2.06137E+01 1.52657E-02-7.15740E-04 1.73891E-01-1.49335E-13 2.55945E-14
 -1      1579 2.03393E+01 3.53980E-03-1.34344E-03 5.40001E-02-1.10051E-13 2.46986E-13
 -1      1580 2.04257E+01 6.52495E-03-1.55863E-04 5.79979E-02-1.99369E-13-1.69831E-14
 -1      1581 2.04272E+01 1.17552E-02-6.38768E-04 1.28678E-01-2.77287E-13 3.73191E-14
 -1      1582 2.02177E+01 2.67739E-03-9.14183E-04 3.85274E-02 5.62910E-14 2.39367E-13
 -1      1583 2.02797E+01 5.09522E-03 1.53425E-05 4.16558E-02 1.07541E-13 3.58054E-13
 -1      1584 2.02885E+01 8.89928E-03-5.53612E-04 9.34876E-02-8.23842E-15 3.84547E-14
 -1      1585 2.01311E+01 1.99501E-03-6.05286E-04 2.68544E-02 1.67686E-13-3.39028E-14
 -1      1586 2.01747E+01 3.91695E-03 1.09583E-04 2.92656E-02 1.03683E-13 2.35343E-13
 -1      1587 2.01871E+01 6.63297E-03-4.68470E-04 6.65520E-02 1.22810E-13 1.72993E-13
 -1      1588 2.00710E+01 1.46317E-03-3.85683E-04 1.81817E-02-4.33965E-14-1.59125E-13
 -1      1589 2.01008E+01 2.96661E-03 1.54893E-04 2.00133E-02 7.29752E-14-3.43559E-14
 -1      1590 2.01145E+01 4.86620E-03-3.88345E-04 4.62498E-02 1.46407E-13 1.40780E-13
 -1      1591 2.00304E+01 1.05417E-03-2.31815E-04 1.18424E-02 1.43600E-13-1.64653E-13
 -1      1592 2.00501E+01 2.21285E-03 1.70023E-04 1.32133E-02 2.89005E-14-1.40120E-13
 -1      1593 2.00637E+01 3.50856E-03-3.16049E-04 3.11832E-02 4.65348E-14-1.49500E-13
 -1      1594 2.00042E+01 7.43776E-04-1.26038E-04 7.29370E-03 2.16594E-13-5.86893E-13
 -1      1595 2.00166E+01 1.62365E-03 1.67263E-04 8.30346E-03 2.61021E-13-2.72724E-13
 -1      1596 2.00292E+01 2.47907E-03-2.52876E-04 2.01877E-02 3.38387E-13-3.48665E-14
 -1      1597 1.99882E+01 5.11488E-04-5.51830E-05 4.10027E-03-1.38670E-13-5.16259E-13
 -1      1598 1.99955E+01 1.16943E-03 1.54565E-04 4.83083E-03-6.91934E-14-6.17436E-13
 -1      1599 2.00067E+01 1.70892E-03-1.99097E-04 1.23142E-02-4.08064E-15-2.00937E-13
 -1      1600 1.99794E+01 3.40340E-04-9.43656E-06 1.91808E-03-5.47992E-14-4.16400E-13
 -1      1601 1.99831E+01 8.24192E-04 1.37014E-04 2.43574E-03-1.08067E-13-6.06804E-13
 -1      1602 1.99928E+01 1.14126E-03-1.54329E-04 6.80186E-03-6.38002E-14-5.69386E-13
 -1      1603 1.99755E+01 2.16490E-04 1.84975E-05 4.78305E-04-4.79271E-14-3.55129E-13
 -1      1604 1.99768E+01 5.65742E-04 1.17790E-04 8.36058E-04 2.35828E-14-2.47630E-13
 -1      1605 1.99849E+01 7.29882E-04-1.17810E-04 3.04881E-03-1.17423E-13-2.94639E-13
 -1      1606 1.99748E+01 1.28776E-04 3.40228E-05-4.26497E-04-5.03097E-14-3.33453E-13
 -1      1607 1.99745E+01 3.75522E-04 9.88204E-05-1.86863E-04-7.18707E-15-4.04093E-13
 -1      1608 1.99812E+01 4.37745E-04-8.85875E-05 5.85027E-04-2.29032E-14-2.02821E-13
 -1      1609 1.99760E+01 6.82785E-05 4.11168E-05-9.54362E-04 1.65518E-13-4.06694E-13
 -1      1610 1.99749E+01 2.38230E-04 8.12029E-05-8.00294E-04 6.00646E-14-2.53904E-13
 -1      1611 1.99803E+01 2.35407E-04-6.56408E-05-9.52003E-04 4.46021E-14-3.01641E-13
 -1      1612 1.99785E+01 2.79234E-05 4.26821E-05-1.22387E-03 9.09722E-14-6.75444E-13
 -1      1613 1.99768E+01 1.41397E-04 6.54898E-05-1.13038E-03 1.52843E-13-5.12942E-13
 -1      1614 1.99811E+01 9.96774E-05-4.79654E-05-1.83801E-03 2.68463E-13-3.73970E-13
 -1      1615 1.99815E+01 2.13298E-06 4.08156E-05-1.32237E-03-6.47685E-14-7.57931E-13
 -1      1616 1.99796E+01 7.49400E-05 5.18808E-05-1.27059E-03 6.49500E-15-7.56650E-13
 -1      1617 1.99829E+01 1.24225E-05-3.46141E-05-2.27934E-03 1.05243E-13-4.59877E-13
 -1      1618 1.99847E+01-1.34903E-05 3.70213E-05-1.31253E-03-1.38606E-13-4.54825E-13
 -1      1619 1.99828E+01 3.07404E-05 4.03536E-05-1.28858E-03-1.60942E-13-6.38130E-13
 -1      1620 1.99852E+01-4.04631E-05-2.47131E-05-2.42729E-03-1.74344E-13-3.69425E-13
 -1      1621 1.99878E+01-2.24508E-05 3.23945E-05-1.23760E-03-2.10425E-13-9.47218E-14
 -1      1622 1.99860E+01 2.22355E-06 3.07575E-05-1.23163E-03-1.93620E-13-3.70129E-13
 -1      1623 1.99878E+01-6.99533E-05-1.74522E-05-2.38955E-03-3.28169E-13-2.43511E-13
 -1      1624 1.99908E+01-2.76453E-05 2.78301E-05-1.12516E-03 1.31273E-13-1.16625E-13
 -1      1625 1.99891E+01-1.60691E-05 2.29047E-05-1.13075E-03 7.02591E-14-5.86958E-14
 -1      1626 1.99903E+01-8.47077E-05-1.20374E-05-2.23911E-03-5.28362E-14-3.20158E-13
 -1      1627 1.99934E+01-3.16561E-05 2.43370E-05-9.89667E-04-8.67548E-14-9.29800E-14
 -1      1628 1.99919E+01-2.89584E-05 1.67173E-05-1.00349E-03-3.06785E-14-1.07122E-13
 -1      1629 1.99927E+01-9.18665E-05-7.56427E-06-2.02069E-03-1.02701E-14-3.13796E-14
 -1      1630 1.99957E+01-3.68181E-05 2.33912E-05-8.33842E-04 3.21687E-14-1.21652E-13
 -1      1631 1.99944E+01-4.09902E-05 1.25088E-05-8.55669E-04-5.56294E-14-1.10967E-13
 -1      1632 1.99948E+01-9.78005E-05-2.80940E-06-1.75486E-03-4.01389E-14 7.22728E-14
 -1      1633 1.99976E+01-4.54377E-05 2.62373E-05-6.49719E-04-1.63924E-13-5.00066E-14
 -1      1634 1.99965E+01-5.66477E-05 1.10932E-05-6.82645E-04-2.72176E-14 2.19925E-14
 -1      1635 1.99966E+01-1.08633E-04 3.78916E-06-1.44095E-03-5.67333E-14 2.99225E-13
 -1      1636 1.99989E+01-5.95075E-05 2.84558E-05-4.18812E-04-2.06933E-13 5.86082E-13
 -1      1637 1.99982E+01-8.03483E-05 1.20372E-05-4.71459E-04-2.10208E-13 4.31393E-14
 -1      1638 1.99981E+01-1.31645E-04 1.21737E-05-1.06080E-03-3.37301E-13 3.95192E-13
 -1      1639 1.99996E+01-7.44982E-05 2.59183E-06-1.45744E-04-9.62664E-14 6.53486E-13
 -1      1640 1.99993E+01-1.02860E-04 8.59263E-06-2.14403E-04-6.77887E-14 5.36341E-13
 -1      1641 1.99991E+01-1.62685E-04 1.73586E-05-5.92371E-04-1.75124E-13-5.82387E-14
 -1      1642 1.99998E+01-4.53643E-05-1.01552E-05-3.38733E-06 4.57430E-13 4.82209E-13
 -1      1643 1.99997E+01-6.57410E-04 1.47251E-05-3.35277E-04-1.68645E-14-2.21662E-13
 -1      1644 1.99997E+01-3.32239E-04-4.16535E-06-2.63751E-04 5.00769E-13-1.07703E-13
 -1      1645 1.99997E+01-1.75285E-03 7.83567E-06-5.73862E-04 4.26889E-14 2.77515E-14
 -1      1646 1.99997E+01-1.10908E-03 9.68457E-06-5.34210E-04 1.03195E-13-1.39326E-13
 -1      1647 1.99996E+01-1.03270E-03 1.74761E-05-8.47521E-04-7.59984E-14-3.31063E-13
 -1      1648 1.99998E+01-3.13966E-03 1.21131E-06-6.92274E-04-1.53821E-16-3.26537E-14
 -1      1649 1.99998E+01-2.32972E-03 5.58370E-06-6.79222E-04 1.29908E-13 9.28520E-14
 -1      1650 1.99997E+01-2.05283E-03 1.25749E-05-1.21111E-03 2.17623E-13 2.10854E-14
 -1      1651 1.99998E+01-4.59235E-03-2.19510E-06-6.91853E-04-5.66100E-13-4.89230E-13
 -1      1652 1.99998E+01-3.76377E-03 1.44413E-06-7.01482E-04-5.43767E-14-9.62613E-14
 -1      1653 1.99998E+01-3.24557E-03 3.70581E-07-1.34486E-03-6.74490E-14-2.54914E-13
 -1      1654 1.99999E+01-5.88157E-03-3.02868E-06-5.96100E-04-9.25784E-13-9.63437E-14
 -1      1655 1.99998E+01-5.16646E-03-3.02027E-07-6.21840E-04-6.24256E-13-4.11761E-13
 -1      1656 1.99999E+01-4.43325E-03-1.04073E-05-1.26754E-03-2.54709E-13-7.55814E-13
 -1      1657 1.99999E+01-6.88863E-03-2.81112E-06-4.26946E-04-2.47071E-13 4.39101E-13
 -1      1658 1.99999E+01-6.35481E-03-1.11808E-06-4.64975E-04-8.26509E-13 3.74583E-13
 -1      1659 1.99999E+01-5.46856E-03-1.80708E-05-1.02432E-03-1.90590E-13 1.65369E-13
 -1      1660 1.99999E+01-7.47274E-03-2.19892E-06-2.11000E-04-1.93375E-13 4.60032E-15
 -1      1661 1.99999E+01-7.19300E-03-1.33866E-06-2.55830E-04-2.04266E-13 1.46939E-13
 -1      1662 1.99999E+01-6.23517E-03-2.32184E-05-6.59437E-04-7.86523E-14 2.83111E-13
 -1      1663 1.99999E+01-7.57225E-03-1.66140E-06 2.66320E-05-9.63996E-14-3.54800E-14
 -1      1664 1.99999E+01-7.57592E-03-1.66578E-06-2.03684E-05-1.41278E-14 4.04782E-14
 -1      1665 1.99999E+01-6.63697E-03-2.56969E-05-2.23509E-04 7.07824E-14 5.19360E-14
 -1      1666 1.99999E+01-7.17692E-03-1.27788E-06 2.61437E-04-1.48775E-13 1.99225E-15
 -1      1667 1.99999E+01-7.46345E-03-2.19480E-06 2.16841E-04-6.09998E-14 1.11098E-13
 -1      1668 1.99999E+01-6.63133E-03-2.56321E-05 2.35248E-04 2.09789E-14-5.17101E-14
 -1      1669 1.99999E+01-6.32907E-03-9.30220E-07 4.68946E-04-5.85753E-13-3.75206E-13
 -1      1670 1.99999E+01-6.86791E-03-2.90504E-06 4.31426E-04-1.09513E-13-3.31632E-13
 -1      1671 1.99999E+01-6.21921E-03-2.29857E-05 6.69273E-04-1.01900E-13-2.27302E-13
 -1      1672 1.99998E+01-5.14596E-03-4.21938E-07 6.22195E-04-9.07173E-13-3.54386E-14
 -1      1673 1.99999E+01-5.86284E-03-3.11345E-06 5.97031E-04-5.88320E-13-3.37098E-13
 -1      1674 1.99999E+01-5.45298E-03-1.79530E-05 1.02846E-03-2.41078E-13-5.51704E-13
 -1      1675 1.99998E+01-3.73189E-03 1.41377E-06 7.00862E-04-6.62037E-13 3.78056E-14
 -1      1676 1.99998E+01-4.56050E-03-2.23152E-06 6.91764E-04-9.42569E-13 3.37082E-13
 -1      1677 1.99999E+01-4.41466E-03-1.00346E-05 1.26806E-03-1.90740E-13 1.44791E-13
 -1      1678 1.99998E+01-2.30241E-03 5.61419E-06 6.77972E-04-8.18576E-13 1.34481E-13
 -1      1679 1.99998E+01-3.10942E-03 1.07901E-06 6.89878E-04-8.24449E-13 1.30932E-13
 -1      1680 1.99998E+01-3.21782E-03 5.75467E-07 1.34196E-03-4.16785E-13 8.56203E-14
 -1      1681 1.99997E+01-1.10853E-03 2.35045E-06 5.30928E-04-8.86557E-13-5.73445E-14
 -1      1682 1.99997E+01-1.73359E-03 7.43330E-06 5.71095E-04-8.21028E-13 1.47411E-14
 -1      1683 1.99997E+01-2.03024E-03 1.20714E-05 1.20390E-03-4.61583E-13-2.93324E-14
 -1      1684 1.99996E+01-4.45043E-04-1.14756E-05 3.91470E-04-2.24893E-13 2.92516E-13
 -1      1685 1.99996E+01-7.75882E-04 6.30436E-06 4.95247E-04-5.36719E-13 2.52129E-13
 -1      1686 1.99996E+01-1.13044E-03 1.68775E-05 9.99092E-04-1.56561E-13 3.37344E-13
 -1      1687 1.99993E+01-5.34867E-04-1.53013E-06 7.70370E-04 1.04033E-13 1.76003E-13
 -1      1688-7.11039E-01-1.49196E+01-1.66732E+00-1.20779E+00 2.19502E-12 1.15097E-12
 -1      1689-6.57908E-01-1.66959E+01-1.81705E+00 1.75919E-01 1.00055E-12 6.48703E-13
 -1      1690 1.31239E+00-8.89940E+00-1.19698E+00 3.96836E-01 3.42271E-12 2.06364E-12
 -1      1691 6.70006E-01-1.33931E+01-1.61504E+00 1.07661E-02 2.44449E-12 1.46870E-12
 -1      1692 5.93738E+00-1.92956E+00-7.00481E-01 3.63016E+00 4.04787E-12 2.95508E-12
 -1      1693 3.39925E+00-7.28138E+00-1.36648E+00 1.19414E+00 3.77298E-12 2.24165E-12
 -1      1694 1.57266E+01 3.72380E+00 3.26960E-02 8.62633E+00 3.52329E-12 3.29392E-12
 -1      1695 9.80332E+00-1.48913E-01-8.22544E-01 4.94654E+00 3.91798E-12 2.97840E-12
 -1      1696 2.93504E+01 6.12632E+00 8.02513E-01 1.21823E+01 2.47191E-12 2.83862E-12
 -1      1697 2.05188E+01 5.23582E+00-6.58836E-02 9.66459E+00 3.41771E-12 3.24629E-12
 -1      1698 4.40666E+01 5.09282E+00 1.46369E+00 1.07168E+01 1.32480E-12 1.68743E-12
 -1      1699 3.48298E+01 6.28465E+00 7.39328E-01 1.14162E+01 2.02499E-12 2.44027E-12
 -1      1700 5.45147E+01 3.80366E+00 1.97329E+00 5.67879E+00 7.86232E-13 9.36473E-14
 -1      1701 4.84720E+01 5.25272E+00 1.51092E+00 9.76946E+00 1.12255E-12 1.27010E-12
 -1      1702 5.60248E+01 3.75525E+00 1.93475E+00-2.64752E+00 1.06548E-12-2.10368E-12
 -1      1703 5.58068E+01 3.80033E+00 1.92781E+00 3.14379E+00 8.74800E-13-5.85532E-13
 -1      1704 4.88820E+01 5.27194E+00 1.54935E+00-9.50566E+00 1.91995E-12-3.96649E-12
 -1      1705 5.45878E+01 3.80895E+00 1.93356E+00-5.19280E+00 1.27151E-12-2.73792E-12
 -1      1706 3.57359E+01 6.75586E+00 8.68468E-01-1.23325E+01 3.15531E-12-5.06928E-12
 -1      1707 4.50722E+01 5.35485E+00 1.60537E+00-1.14386E+01 2.28945E-12-4.54004E-12
 -1      1708 2.08460E+01 5.49261E+00-3.74567E-02-9.89814E+00 4.11737E-12-4.86100E-12
 -1      1709 3.02058E+01 6.46198E+00 9.33408E-01-1.25702E+01 3.53317E-12-5.20117E-12
 -1      1710 9.50122E+00-6.90620E-01-8.91633E-01-4.71981E+00 4.06364E-12-3.53650E-12
 -1      1711 1.58812E+01 3.63332E+00 4.73780E-02-8.75211E+00 4.10871E-12-4.44600E-12
 -1      1712 2.35359E+00-8.58841E+00-1.58910E+00-5.06772E-01 3.21276E-12-2.21567E-12
 -1      1713 4.73301E+00-2.52634E+00-8.59208E-01-3.02801E+00 4.11116E-12-3.23136E-12
 -1      1714 4.75107E-02-1.48596E+01-1.87616E+00 5.33290E-01 1.37679E-12-1.15775E-12
 -1      1715 3.47493E-01-1.06145E+01-1.49037E+00 5.91482E-01 2.71294E-12-1.80880E-12
 -1      1716-7.16576E-01-1.71255E+01-1.93212E+00-3.45358E-01-9.05234E-13-8.90343E-13
 -1      1717-7.78284E-01-1.60122E+01-1.85440E+00 1.20099E+00 7.38520E-13-9.49935E-13
 -1      1718-4.86399E-01-1.35438E+01-1.62442E+00-9.18035E-01-3.07998E-12-1.47501E-12
 -1      1719-5.01262E-01-1.66939E+01-1.93512E+00 1.49190E-01-1.58101E-12-9.95454E-13
 -1      1720 2.84601E+00-5.78950E+00-9.50255E-01 1.87183E+00-4.21041E-12-2.68538E-12
 -1      1721 1.50413E+00-1.13950E+01-1.53193E+00 5.52783E-01-3.31568E-12-1.80544E-12
 -1      1722 9.63924E+00 1.60403E+00-2.99524E-01 6.25270E+00-4.67693E-12-3.83960E-12
 -1      1723 5.61364E+00-3.59206E+00-1.08753E+00 2.91679E+00-4.61142E-12-3.04823E-12
 -1      1724 2.20449E+01 5.56266E+00 4.73937E-01 1.09021E+01-3.84992E-12-4.45577E-12
 -1      1725 1.45178E+01 3.02628E+00-3.98945E-01 7.44964E+00-4.42402E-12-4.05365E-12
 -1      1726 3.58177E+01 6.38776E+00 1.13855E+00 1.27040E+01-2.83962E-12-4.28990E-12
 -1      1727 2.68056E+01 6.87932E+00 3.80402E-01 1.16852E+01-3.65707E-12-4.61631E-12
 -1      1728 4.84543E+01 4.54535E+00 1.55654E+00 8.33929E+00-1.56067E-12-2.56706E-12
 -1      1729 4.03848E+01 6.21813E+00 1.00660E+00 1.10117E+01-2.40158E-12-3.64342E-12
 -1      1730 5.49160E+01 3.56146E+00 1.83499E+00 1.26964E+00-9.83602E-13-7.06074E-13
 -1      1731 5.17509E+01 4.37619E+00 1.56310E+00 6.50836E+00-1.21242E-12-2.11930E-12
 -1      1732 5.19960E+01 4.40691E+00 1.66905E+00-7.06359E+00-1.09560E-12 1.39888E-12
 -1      1733 5.54042E+01 3.40140E+00 1.89138E+00-1.46904E+00-8.69943E-13-7.96585E-14
 -1      1734 3.96923E+01 6.36070E+00 1.02016E+00-1.14194E+01-2.01042E-12 2.90934E-12
 -1      1735 4.82254E+01 4.63750E+00 1.62548E+00-8.97383E+00-1.29153E-12 1.89837E-12
 -1      1736 2.50456E+01 6.74114E+00 3.03369E-01-1.13757E+01-3.05800E-12 3.78164E-12
 -1      1737 3.45630E+01 6.50466E+00 1.12162E+00-1.28551E+01-2.36061E-12 3.54694E-12
 -1      1738 1.23802E+01 2.81529E+00-4.95460E-01-6.87121E+00-3.43792E-12 3.19444E-12
 -1      1739 1.95956E+01 5.86779E+00 4.08552E-01-1.06400E+01-3.22364E-12 3.84159E-12
 -1      1740 4.89294E+00-4.99718E+00-1.16003E+00-2.35796E+00-2.66753E-12 2.01666E-12
 -1      1741 8.51962E+00 4.21924E-01-3.95325E-01-5.53576E+00-3.15925E-12 2.85394E-12
 -1      1742 6.74150E-01-1.27493E+01-1.72538E+00 1.02435E-01-1.48259E-12 1.07822E-12
 -1      1743 1.51734E+00-7.16883E+00-1.16237E+00-6.98680E-01-2.53086E-12 1.77497E-12
 -1      1744-5.18500E-01-1.63606E+01-1.78028E+00-5.45166E-01 5.30104E-13 7.34218E-13
 -1      1745-4.71213E-01-1.39152E+01-1.57875E+00 6.76069E-01-9.08162E-13 1.01283E-12
 -1      1746 2.29499E+01-1.68739E-01 9.21002E-02 7.06778E+00 2.18359E-12 1.57596E-12
 -1      1747 1.31000E+01-4.26793E+00-4.85139E-01 5.97434E+00 2.13551E-12 1.76220E-12
 -1      1748 1.99997E+01-1.23866E-04 9.23624E-06-1.39947E-04 4.82736E-13 4.19696E-14
 -1      1749 1.99995E+01-4.08058E-04 4.59079E-06-4.65046E-04-1.37516E-13-2.02865E-13
 -1      1750 4.92253E-01-1.00685E+01-1.10030E+00 2.23385E+00 1.24711E-12 1.77447E-12
 -1      1751 5.43379E+00-7.72348E+00-8.81039E-01 4.32207E+00 1.71407E-12 1.86158E-12
 -1      1752-1.25883E+00-1.11010E+01-1.24033E+00-3.97377E-01 5.83193E-13 1.42064E-12
 -1      1753 3.36775E+01 3.25756E+00 7.50125E-01 6.66650E+00 1.92321E-12 1.19260E-12
 -1      1754 4.23467E+01 5.56190E+00 1.15995E+00 4.53567E+00 1.55025E-12 5.56333E-13
 -1      1755 4.78754E+01 7.15589E+00 1.61008E+00 1.88331E+00 1.55054E-12-4.27658E-13
 -1      1756 4.76153E+01 7.40861E+00 1.59416E+00-1.68799E+00 1.85535E-12-1.47882E-12
 -1      1757 4.31434E+01 6.06146E+00 1.34518E+00-5.10714E+00 2.08716E-12-2.41884E-12
 -1      1758 3.42007E+01 3.71241E+00 8.05560E-01-7.25586E+00 2.39864E-12-3.03191E-12
 -1      1759 2.31816E+01-2.51263E-01 8.95812E-02-7.13234E+00 2.33469E-12-2.98728E-12
 -1      1760 1.24317E+01-4.40203E+00-4.86221E-01-5.95803E+00 2.15761E-12-2.69734E-12
 -1      1761 3.88719E+00-8.39160E+00-1.05790E+00-3.55720E+00 1.52922E-12-2.28258E-12
 -1      1762-3.58016E-01-1.11336E+01-1.32241E+00-1.42469E+00 4.70624E-13-1.83459E-12
 -1      1763-1.28076E+00-1.17333E+01-1.37626E+00 6.27341E-01-7.42961E-13-1.80328E-12
 -1      1764 1.81268E+00-9.22949E+00-1.00140E+00 3.33107E+00-1.67827E-12-2.01886E-12
 -1      1765 8.27601E+00-6.01682E+00-6.91166E-01 5.47707E+00-2.30449E-12-2.31534E-12
 -1      1766 1.75405E+01-1.89603E+00-1.33126E-01 6.97025E+00-2.72748E-12-2.60270E-12
 -1      1767 2.77363E+01 2.01586E+00 4.27104E-01 7.46670E+00-2.62429E-12-2.71727E-12
 -1      1768 3.73569E+01 5.08713E+00 9.90015E-01 6.22968E+00-2.38527E-12-2.18314E-12
 -1      1769 4.38888E+01 6.94063E+00 1.28869E+00 3.18123E+00-1.94456E-12-1.46821E-12
 -1      1770 4.75529E+01 7.27755E+00 1.54772E+00-1.40205E-01-1.62831E-12-6.03677E-13
 -1      1771 4.43563E+01 6.70277E+00 1.35365E+00-3.68205E+00-1.62909E-12 4.19220E-13
 -1      1772 3.66822E+01 4.94820E+00 9.83635E-01-6.56929E+00-1.73438E-12 1.30096E-12
 -1      1773 2.61425E+01 2.05766E+00 4.03299E-01-7.80983E+00-1.84708E-12 2.11076E-12
 -1      1774 1.56363E+01-2.51617E+00-3.04258E-01-6.74358E+00-1.57707E-12 2.07490E-12
 -1      1775 6.98241E+00-6.57942E+00-7.04232E-01-5.05118E+00-1.11822E-12 1.79264E-12
 -1      1776 8.16216E-01-9.94752E+00-1.15333E+00-2.56127E+00-2.83662E-13 1.54449E-12
 -1      1777 2.44774E+01 1.97401E+00-2.67988E-02-2.34478E+00-5.54785E-13 1.88069E-12
 -1      1778 2.05957E+01 3.68296E+00-3.89488E-02-1.33867E+00-5.90836E-13-8.40269E-13
 -1      1779 2.11032E+01 3.54029E+00-3.79735E-02-1.67431E+00-7.05439E-13-6.33688E-13
 -1      1780 2.16541E+01 3.14434E+00-4.89377E-02-1.88214E+00-7.27382E-13-3.51850E-13
 -1      1781 2.21031E+01 2.76964E+00-1.34395E-01-2.21207E+00-8.09044E-13 3.05450E-14
 -1      1782 2.16448E+01 2.61652E+00-4.96570E-03-1.48158E+00-7.56547E-13-4.26496E-13
 -1      1783 1.88969E+01 4.21441E+00-2.26660E-02-3.96256E-01-2.41409E-13-1.20340E-12
 -1      1784 1.92879E+01 4.18131E+00-1.06888E-02-6.07378E-01-3.28313E-13-1.16594E-12
 -1      1785 1.81820E+01 4.39615E+00-1.86485E-02-7.00632E-02-8.22883E-14-1.25873E-12
 -1      1786 1.85305E+01 4.36921E+00-5.19359E-03-2.26270E-01-1.59864E-13-1.24207E-12
 -1      1787 1.88760E+01 3.87615E+00-1.07361E-02-2.28552E-01-2.15034E-13-1.17616E-12
 -1      1788 1.76051E+01 4.55787E+00-1.53324E-02 1.41111E-01 6.87653E-14-1.26562E-12
 -1      1789 1.78761E+01 4.53282E+00-2.74816E-03 3.96447E-02-1.06252E-15-1.26800E-12
 -1      1790 1.81415E+01 4.13438E+00-8.69769E-03 5.78985E-02-4.08857E-14-1.22084E-12
 -1      1791 1.72370E+01 4.68795E+00-1.20202E-02 2.49086E-01 2.09544E-13-1.25162E-12
 -1      1792 1.73930E+01 4.66640E+00-2.96118E-03 1.91508E-01 1.43413E-13-1.26522E-12
 -1      1793 1.75694E+01 4.35381E+00-5.76777E-03 2.25782E-01 1.15565E-13-1.23204E-12
 -1      1794 1.71480E+01 4.76299E+00-8.67228E-03 2.88589E-01 3.29298E-13-1.21691E-12
 -1      1795 1.71551E+01 4.74925E+00-5.64067E-03 2.54796E-01 2.75341E-13-1.24596E-12
 -1      1796 1.72389E+01 4.50793E+00-3.10269E-03 2.87665E-01 2.63710E-13-1.21812E-12
 -1      1797 1.73816E+01 4.76056E+00-6.07618E-03 3.14683E-01 4.43878E-13-1.14210E-12
 -1      1798 1.72224E+01 4.75945E+00-1.01953E-02 2.77231E-01 3.89950E-13-1.19248E-12
 -1      1799 1.72213E+01 4.56267E+00-1.85107E-03 2.85056E-01 3.87846E-13-1.17522E-12
 -1      1800 1.79278E+01 4.67037E+00-5.23075E-03 3.89546E-01 5.70015E-13-1.02212E-12
 -1      1801 1.76138E+01 4.68488E+00-1.60396E-02 3.20234E-01 5.03722E-13-1.09442E-12
 -1      1802 1.75497E+01 4.49477E+00-2.34904E-03 2.80534E-01 5.05452E-13-1.08624E-12
 -1      1803 1.87701E+01 4.48111E+00-7.58740E-03 5.73583E-01 7.11878E-13-8.02204E-13
 -1      1804 1.83110E+01 4.51924E+00-2.31704E-02 4.43099E-01 6.29490E-13-9.32251E-13
 -1      1805 1.82152E+01 4.29599E+00-4.38952E-03 3.38745E-01 6.41219E-13-9.30376E-13
 -1      1806 1.98497E+01 4.17051E+00-1.58326E-02 9.07314E-01 8.28572E-13-4.82205E-13
 -1      1807 1.92768E+01 4.25015E+00-3.23158E-02 6.94485E-01 7.58895E-13-6.67818E-13
 -1      1808 1.91830E+01 3.95986E+00-6.22716E-03 5.09146E-01 7.73099E-13-6.86251E-13
 -1      1809 2.11310E+01 3.65671E+00-3.56236E-02 1.39947E+00 9.12095E-13 4.60118E-14
 -1      1810 2.04579E+01 3.83326E+00-4.54139E-02 1.09358E+00 8.54462E-13-2.61884E-13
 -1      1811 2.03936E+01 3.46264E+00-4.43166E-03 8.03821E-01 8.73720E-13-3.26893E-13
 -1      1812 2.27103E+01 2.69794E+00-4.86656E-02 1.92205E+00 8.44229E-13 9.70689E-13
 -1      1813 2.18654E+01 3.14532E+00-5.34023E-02 1.59984E+00 8.67821E-13 4.21427E-13
 -1      1814 2.18025E+01 2.70236E+00 3.35526E-03 1.15126E+00 9.11973E-13 2.49325E-13
 -1      1815 2.38727E+01 1.17778E+00-1.17059E-01 1.59494E+00 6.88685E-13 2.05598E-12
 -1      1816 2.32532E+01 2.24222E+00-2.09730E-03 1.89164E+00 7.65981E-13 1.35252E-12
 -1      1817 2.29060E+01 1.69107E+00-1.33368E-02 1.18011E+00 8.64378E-13 9.67261E-13
 -1      1818 2.33600E+01 7.62872E-01-4.99366E-02 7.76603E-01 7.13291E-13 1.83950E-12
 -1      1819 2.34453E+01 2.42057E+00 8.40233E-02-2.51978E+00-7.32506E-13 7.08031E-13
 -1      1820 2.30268E+01 3.14728E-01-1.90752E-03-1.08912E-01 5.42677E-13 1.49889E-12
 -1      1821 2.32593E+01 4.46579E-01-8.36436E-03 2.85811E-01 5.94129E-13 1.70001E-12
 -1      1822 2.31090E+01 8.38885E-01-3.68953E-03 5.18306E-01 7.14449E-13 1.19884E-12
 -1      1823 2.31503E+01 1.68271E+00 7.71480E-02-1.76319E+00-7.65880E-13 4.50140E-13
 -1      1824 2.25094E+01 4.31039E-01 3.24317E-02-4.37212E-01-6.04398E-13 3.69405E-13
 -1      1825 2.22290E+01 2.72072E-01 4.96993E-03-1.89975E-01-5.24820E-13 2.10625E-13
 -1      1826 2.21476E+01 1.64159E-01 2.57824E-02-5.25939E-03-4.56185E-13 2.12734E-13
 -1      1827 2.20716E+01 6.07424E-02 3.42217E-03 7.01837E-02-4.05278E-13 7.78110E-14
 -1      1828 2.21420E+01 3.50367E-01-7.43861E-03-2.02033E-01-5.74664E-13-3.88465E-14
 -1      1829 2.20617E+01-1.10201E-02 1.44958E-02 1.13530E-01-3.43409E-13 7.60910E-14
 -1      1830 2.20399E+01-8.67599E-02-4.28999E-03 8.95720E-02-2.86543E-13-1.61208E-14
 -1      1831 2.20436E+01 4.34452E-02-5.68235E-03 7.00535E-02-4.29988E-13-6.09577E-14
 -1      1832 2.20672E+01-1.44409E-01 6.16569E-03 2.45212E-02-2.44945E-13-1.17501E-14
 -1      1833 2.20245E+01-2.04196E-01-1.01628E-02-7.38925E-02-2.12743E-13-7.82542E-14
 -1      1834 2.20617E+01-1.71996E-01-2.73488E-03 5.80985E-02-3.22645E-13-9.71870E-14
 -1      1835 2.20464E+01-2.45038E-01 9.19721E-04-2.23674E-01-1.68907E-13-5.25203E-14
 -1      1836 2.19319E+01-2.77958E-01-1.18760E-02-3.72683E-01-1.44697E-13-1.12443E-13
 -1      1837 2.21100E+01-3.33294E-01 1.12454E-03-1.71304E-01-2.21690E-13-8.68192E-14
 -1      1838 2.19050E+01-2.85867E-01-2.77064E-03-5.69935E-01-1.28095E-13-8.71129E-14
 -1      1839 2.16968E+01-2.70126E-01-8.09617E-03-7.28271E-01-1.15566E-13-1.11324E-13
 -1      1840 2.21045E+01-4.13077E-01 5.44926E-03-5.52631E-01-1.43527E-13-5.01230E-14
 -1      1841 2.15875E+01-2.25291E-01-5.38863E-03-9.07521E-01-1.23513E-13-9.13566E-14
 -1      1842 2.13018E+01-1.44062E-01 9.98043E-04-1.01236E+00-1.24264E-13-8.39398E-14
 -1      1843 2.19712E+01-3.55227E-01 8.65617E-03-9.74772E-01-1.13366E-13-1.74557E-14
 -1      1844 2.11075E+01-4.06912E-02-5.83624E-03-1.08469E+00-1.99252E-13-9.62537E-14
 -1      1845 2.08022E+01 9.47810E-02 1.18922E-02-1.06855E+00-2.16536E-13-1.55070E-13
 -1      1846 2.16742E+01-1.22069E-01 7.69318E-03-1.26633E+00-1.86040E-13-4.81104E-14
 -1      1847 2.05744E+01 2.28266E-01-2.27958E-03-9.58132E-01-2.65189E-13-2.44724E-13
 -1      1848 2.03360E+01 3.65549E-01 1.85189E-02-7.87763E-01-2.55331E-13-3.68416E-13
 -1      1849 2.12592E+01 2.47247E-01 4.14060E-04-1.23697E+00-3.39618E-13-1.50012E-13
 -1      1850 2.01738E+01 4.67370E-01 5.79160E-03-4.89594E-01-2.01852E-13-4.69355E-13
 -1      1851 2.00841E+01 5.34207E-01 1.66764E-02-2.02455E-01-1.32160E-13-5.57479E-13
 -1      1852 2.08734E+01 6.10158E-01-1.05219E-02-7.85416E-01-3.08707E-13-2.18694E-13
 -1      1853 2.00775E+01 5.45663E-01 1.45310E-02 1.87561E-01-1.20976E-13-6.56192E-13
 -1      1854 2.01748E+01 5.02441E-01 8.26031E-03 4.87924E-01-1.35301E-13-7.03499E-13
 -1      1855 2.07063E+01 7.84115E-01-1.66912E-02-9.25294E-03-2.32576E-13-4.39743E-13
 -1      1856 2.03337E+01 4.16885E-01 1.79891E-02 8.17570E-01-1.23048E-13-7.88305E-13
 -1      1857 2.05923E+01 2.89385E-01-6.68090E-04 1.02001E+00-6.96370E-14-8.12463E-13
 -1      1858 2.08589E+01 6.71244E-01-1.25721E-02 8.03258E-01-1.61341E-13-6.39885E-13
 -1      1859 2.08384E+01 1.55845E-01 1.29220E-02 1.17375E+00-1.55643E-13-8.60472E-13
 -1      1860 2.11817E+01 1.28671E-02-5.72531E-03 1.22228E+00-1.66602E-13-8.49338E-13
 -1      1861 2.12617E+01 3.34445E-01-1.81525E-03 1.34106E+00-1.46606E-13-7.28023E-13
 -1      1862 2.14086E+01-1.03246E-01 2.20817E-03 1.18099E+00-1.49372E-13-8.76396E-13
 -1      1863 2.17451E+01-2.01810E-01-6.52358E-03 1.09397E+00-7.47150E-14-8.93442E-13
 -1      1864 2.17299E+01-5.27217E-02 7.39234E-03 1.45352E+00-1.89075E-13-8.03330E-13
 -1      1865 2.18845E+01-2.64145E-01-8.13060E-03 9.20057E-01-9.89070E-14-8.61799E-13
 -1      1866 2.21431E+01-2.99107E-01-5.29834E-03 7.58738E-01-7.43147E-14-9.01848E-13
 -1      1867 2.20912E+01-3.32548E-01 1.02616E-02 1.19985E+00-1.18509E-13-7.64836E-13
 -1      1868 2.21812E+01-3.08003E-01-1.39213E-02 5.38366E-01-3.35409E-14-9.41057E-13
 -1      1869 2.23286E+01-2.93131E-01-3.58298E-03 3.65427E-01 2.16285E-14-9.48903E-13
 -1      1870 2.22675E+01-4.44072E-01 8.72174E-03 7.53761E-01-8.51086E-14-7.76511E-13
 -1      1871 2.22849E+01-2.68412E-01-1.47003E-02 1.64450E-01 2.54727E-14-9.46629E-13
 -1      1872 2.23218E+01-2.28662E-01-2.23936E-03 2.06126E-02-4.81095E-14-9.25166E-13
 -1      1873 2.22653E+01-4.17248E-01 5.59320E-03 2.84962E-01 2.06241E-14-7.54117E-13
 -1      1874 2.22256E+01-1.91488E-01-1.21355E-02-1.28490E-01-9.74520E-14-8.49137E-13
 -1      1875 2.21742E+01-1.47394E-01-1.27267E-03-2.27266E-01-1.28426E-14-8.80037E-13
 -1      1876 2.21310E+01-3.16338E-01 2.75510E-03-1.00410E-01-1.20693E-15-6.87850E-13
 -1      1877 2.20510E+01-1.11774E-01-8.22398E-03-3.18698E-01 4.06467E-14-8.25070E-13
 -1      1878 2.19406E+01-7.46379E-02-5.49283E-04-3.73579E-01 9.01937E-14-8.41992E-13
 -1      1879 2.19171E+01-1.97982E-01 7.85451E-04-3.63067E-01-7.66444E-15-6.80573E-13
 -1      1880 2.18085E+01-4.68509E-02-4.39605E-03-4.16004E-01 9.98980E-14-8.30224E-13
 -1      1881 2.16670E+01-2.04072E-02 1.40781E-05-4.36258E-01 8.73067E-14-7.68576E-13
 -1      1882 2.16656E+01-9.51603E-02-4.26561E-04-5.07903E-01 1.11909E-13-6.63073E-13
 -1      1883 2.15377E+01-1.62748E-03-1.35121E-03-4.43207E-01 5.45332E-14-6.71415E-13
 -1      1884 2.13868E+01 1.46660E-02 4.42797E-04-4.39909E-01 8.72972E-14-6.78470E-13
 -1      1885 2.14061E+01-2.00316E-02-1.12188E-03-5.59992E-01 1.22904E-13-6.33316E-13
 -1      1886 2.12674E+01 2.57185E-02 7.34259E-04-4.24411E-01 2.66790E-14-6.45876E-13
 -1      1887 2.11220E+01 3.40953E-02 7.39982E-04-4.07250E-01 1.59818E-14-6.37902E-13
 -1      1888 2.11577E+01 2.76250E-02-1.48715E-03-5.48658E-01 6.89268E-14-5.40867E-13
 -1      1889 2.10161E+01 3.94415E-02 1.96144E-03-3.79659E-01-4.23954E-14-6.22905E-13
 -1      1890 2.08849E+01 4.23669E-02 9.13207E-04-3.55874E-01-1.69690E-14-5.85307E-13
 -1      1891 2.09318E+01 5.32912E-02-1.63951E-03-4.99556E-01 1.21938E-14-5.52554E-13
 -1      1892 2.07940E+01 4.39234E-02 2.53416E-03-3.23492E-01 2.41033E-14-5.77531E-13
 -1      1893 2.06812E+01 4.34716E-02 9.80866E-04-2.97919E-01-1.26367E-14-5.80668E-13
 -1      1894 2.07339E+01 6.34919E-02-1.65104E-03-4.32037E-01 1.36156E-14-4.64186E-13
 -1      1895 2.06053E+01 4.27484E-02 2.66204E-03-2.65415E-01-1.59942E-15-5.48482E-13
 -1      1896 2.05119E+01 4.04449E-02 9.68159E-04-2.40967E-01 3.51477E-15-5.54997E-13
 -1      1897 2.05659E+01 6.38946E-02-1.56962E-03-3.59233E-01 3.59279E-14-3.40052E-13
 -1      1898 2.04500E+01 3.85128E-02 2.51895E-03-2.11018E-01-4.85032E-14-5.85562E-13
 -1      1899 2.03750E+01 3.53833E-02 9.01196E-04-1.89231E-01 4.37207E-14-5.77831E-13
 -1      1900 2.04270E+01 5.87538E-02-1.43010E-03-2.89219E-01-4.20990E-14-3.57772E-13
 -1      1901 2.03257E+01 3.29457E-02 2.23268E-03-1.63138E-01 8.48471E-14-6.86253E-13
 -1      1902 2.02672E+01 2.96289E-02 8.02758E-04-1.44638E-01 1.09756E-13-6.91390E-13
 -1      1903 2.03149E+01 5.09784E-02-1.25924E-03-2.26382E-01-2.05876E-14-4.26911E-13
 -1      1904 2.02286E+01 2.71163E-02 1.88931E-03-1.22814E-01 4.07104E-14-7.43203E-13
 -1      1905 2.01841E+01 2.39771E-02 6.90582E-04-1.07673E-01-8.20060E-14-7.36992E-13
 -1      1906 2.02264E+01 4.24115E-02-1.07721E-03-1.72618E-01-4.80422E-14-5.54978E-13
 -1      1907 2.01547E+01 2.16311E-02 1.54229E-03-9.00012E-02-1.28860E-13-7.01900E-13
 -1      1908 2.01217E+01 1.88528E-02 5.77168E-04-7.79767E-02-9.83888E-14-7.39213E-13
 -1      1909 2.01580E+01 3.41310E-02-8.98435E-04-1.28261E-01-1.76813E-14-5.27354E-13
 -1      1910 2.00997E+01 1.67916E-02 1.22175E-03-6.40584E-02-1.79043E-13-6.49842E-13
 -1      1911 2.00760E+01 1.44434E-02 4.70499E-04-5.47605E-02-1.86868E-13-6.09713E-13
 -1      1912 2.01063E+01 2.66996E-02-7.32408E-04-9.27410E-02-9.82502E-14-4.95067E-13
 -1      1913 2.00599E+01 1.27078E-02 9.42180E-04-4.40706E-02-1.32261E-13-5.78072E-13
 -1      1914 2.00433E+01 1.07914E-02 3.75066E-04-3.70596E-02-6.54578E-14-5.74223E-13
 -1      1915 2.00681E+01 2.03524E-02-5.84530E-04-6.50344E-02-1.42563E-13-3.13881E-13
 -1      1916 2.00319E+01 9.37747E-03 7.08197E-04-2.90463E-02-1.14623E-13-6.33352E-13
 -1      1917 2.00207E+01 7.85818E-03 2.92847E-04-2.38916E-02-4.31801E-14-5.80622E-13
 -1      1918 2.00406E+01 1.51272E-02-4.57137E-04-4.39446E-02-1.25998E-13-2.96507E-13
 -1      1919 2.00129E+01 6.73754E-03 5.18632E-04-1.80326E-02 6.65323E-14-6.38706E-13
 -1      1920 2.00057E+01 5.56377E-03 2.24133E-04-1.43434E-02 1.47541E-13-5.19655E-13
 -1      1921 2.00213E+01 1.09526E-02-3.50432E-04-2.82753E-02-3.42762E-15-3.21678E-13
 -1      1922 2.00005E+01 4.69732E-03 3.69232E-04-1.01740E-02 1.43579E-13-5.67549E-13
 -1      1923 1.99963E+01 3.81253E-03 1.68174E-04-7.61333E-03 1.67292E-13-5.65119E-13
 -1      1924 2.00083E+01 7.70340E-03-2.63213E-04-1.69251E-02 1.41187E-13-2.24005E-13
 -1      1925 1.99931E+01 3.15826E-03 2.54395E-04-4.73762E-03 8.47728E-14-5.43170E-13
 -1      1926 1.99909E+01 2.50773E-03 1.23641E-04-3.02539E-03 1.73205E-13-6.18284E-13
 -1      1927 1.99999E+01 5.23563E-03-1.93481E-04-8.93199E-03 1.25743E-13-2.13311E-13
 -1      1928 1.99890E+01 2.02535E-03 1.68224E-04-1.11720E-03 1.58463E-13-6.96652E-13
 -1      1929 1.99883E+01 1.55972E-03 8.89455E-05-2.73014E-05-1.39530E-15-6.39274E-13
 -1      1930 1.99948E+01 3.40645E-03-1.38871E-04-3.48756E-03 8.87865E-14-2.88453E-13
 -1      1931 1.99874E+01 1.21300E-03 1.05127E-04 1.17472E-03-9.25361E-14-6.39717E-13
 -1      1932 1.99875E+01 8.89703E-04 6.24414E-05 1.82003E-03-1.00198E-13-5.55832E-13
 -1      1933 1.99922E+01 2.08498E-03-9.69475E-05 6.69479E-05-6.10250E-14-3.85723E-13
 -1      1934 1.99873E+01 6.47398E-04 6.01225E-05 2.52004E-03-1.62213E-13-4.55755E-13
 -1      1935 1.99879E+01 4.30874E-04 4.25435E-05 2.85702E-03-1.47855E-13-4.27617E-13
 -1      1936 1.99911E+01 1.15703E-03-6.53911E-05 2.25430E-03-4.38168E-14-2.66879E-13
 -1      1937 1.99881E+01 2.66789E-04 2.89519E-05 3.21051E-03-1.67141E-13-4.06169E-13
 -1      1938 1.99891E+01 1.27935E-04 2.77836E-05 3.34080E-03-1.50318E-14-4.00492E-13
 -1      1939 1.99912E+01 5.26272E-04-4.21022E-05 3.47899E-03-1.90697E-13-1.13284E-13
 -1      1940 1.99895E+01 2.04845E-05 8.09297E-06 3.46275E-03 9.77764E-14-4.45197E-13
 -1      1941 1.99906E+01-6.42727E-05 1.68268E-05 3.45959E-03 3.24484E-13-3.48314E-13
 -1      1942 1.99918E+01 1.13233E-04-2.52527E-05 4.04576E-03 8.68805E-14 5.86176E-14
 -1      1943 1.99912E+01-1.32788E-04-5.28787E-06 3.43180E-03 5.85711E-13-3.73551E-13
 -1      1944 1.99923E+01-1.82612E-04 8.47408E-06 3.34522E-03 5.42076E-13-1.87117E-13
 -1      1945 1.99929E+01-1.46960E-04-1.33023E-05 4.17681E-03 4.30482E-13 5.35469E-14
 -1      1946 1.99929E+01-2.26874E-04-1.33873E-05 3.22237E-03 5.77937E-13-1.62286E-13
 -1      1947 1.99940E+01-2.57677E-04 1.69747E-06 3.08326E-03 7.20740E-13 1.90338E-13
 -1      1948 1.99941E+01-3.07415E-04-4.99464E-06 4.02677E-03 6.81498E-13-4.27710E-14
 -1      1949 1.99946E+01-2.90196E-04-1.77697E-05 2.89781E-03 4.84918E-13 9.92089E-14
 -1      1950 1.99956E+01-3.15617E-04-4.24059E-06 2.72094E-03 3.67957E-13 1.64595E-13
 -1      1951 1.99953E+01-4.12424E-04 6.63874E-07 3.69505E-03 6.61618E-13 1.91906E-13
 -1      1952 1.99961E+01-3.47279E-04-1.93282E-05 2.48724E-03 1.41894E-13 1.86366E-13
 -1      1953 1.99969E+01-3.78797E-04-9.29384E-06 2.27364E-03 1.85076E-15 1.61284E-13
 -1      1954 1.99965E+01-4.99732E-04 4.40329E-06 3.23617E-03 2.57936E-13-1.81966E-14
 -1      1955 1.99974E+01-4.19428E-04-1.84621E-05 1.99373E-03 3.58418E-15 3.29564E-13
 -1      1956 1.99981E+01-4.62733E-04-1.30335E-05 1.73366E-03 3.53623E-14 3.02390E-13
 -1      1957 1.99976E+01-5.99810E-04 6.14608E-06 2.66997E-03 7.81884E-15 2.27658E-13
 -1      1958 1.99985E+01-4.94055E-04-1.55843E-05 1.42146E-03 1.04826E-13 2.30427E-13
 -1      1959 1.99989E+01-5.39906E-04-1.69385E-05 1.11980E-03 1.25580E-13 2.87803E-13
 -1      1960 1.99991E+01-7.65369E-04 7.13296E-06 1.31333E-03 7.95859E-14 3.25899E-13
 -1      1961 1.99984E+01-7.05492E-04 1.06933E-05 2.01694E-03 7.90701E-14 3.70945E-13
 -1      1962 2.31265E+01 1.59460E-01 9.19410E-03-5.45092E-01 3.91664E-13 1.22442E-12
 -1      1963 2.30593E+01 2.27087E-01 1.75805E-02-3.46193E-01 4.41914E-13 1.39452E-12
 -1      1964 2.29282E+01 3.70166E-01-7.29698E-03-3.00250E-01 5.50783E-13 1.00005E-12
 -1      1965 2.34991E+01 4.42384E-02 2.76415E-03-7.48667E-01 2.51286E-13 1.05043E-12
 -1      1966 2.32742E+01 1.00211E-01 1.28030E-02-6.53991E-01 2.81163E-13 1.15801E-12
 -1      1967 2.30651E+01 1.58985E-01-7.75262E-03-7.36781E-01 3.80562E-13 8.40748E-13
 -1      1968 2.39984E+01-9.36416E-02-5.85270E-03-7.33862E-01 1.44089E-13 9.77704E-13
 -1      1969 2.37271E+01-2.77273E-02 4.44691E-03-7.41445E-01 1.70077E-13 1.03158E-12
 -1      1970 2.34335E+01-2.41699E-02-7.85496E-03-8.96609E-01 2.20046E-13 7.35673E-13
 -1      1971 2.44648E+01-2.70326E-01-1.22191E-02-4.49540E-01 3.72731E-14 9.39162E-13
 -1      1972 2.42527E+01-1.93144E-01-1.92285E-03-5.89318E-01 6.48396E-14 9.82834E-13
 -1      1973 2.39168E+01-2.48871E-01-5.51388E-03-7.67216E-01 1.01906E-13 6.96224E-13
 -1      1974 2.47201E+01-4.48574E-01-1.31490E-02 1.46705E-01 6.61589E-14 9.64003E-13
 -1      1975 2.46745E+01-3.85307E-01-6.04239E-03-1.49281E-01 1.96423E-14 9.62601E-13
 -1      1976 2.43874E+01-5.07790E-01 8.90038E-04-2.93496E-01 2.60868E-14 7.09061E-13
 -1      1977 2.45891E+01-5.15846E-01-6.30464E-03 9.82733E-01 1.33071E-13 9.73045E-13
 -1      1978 2.47938E+01-5.24690E-01-9.14408E-03 5.66150E-01 9.02039E-14 1.00245E-12
 -1      1979 2.46863E+01-7.02899E-01 9.56107E-03 5.24172E-01 8.29978E-14 7.49611E-13
 -1      1980 2.39636E+01-3.09356E-01 3.09652E-03 1.74763E+00 2.18557E-13 9.26866E-13
 -1      1981 2.44326E+01-4.54767E-01-1.22932E-02 1.36892E+00 1.40735E-13 9.87058E-13
 -1      1982 2.46321E+01-6.33988E-01 1.45104E-02 1.49725E+00 1.68873E-13 8.09974E-13
 -1      1983 2.29677E+01 2.06437E-01 2.28987E-03 1.90071E+00 2.43619E-13 8.34447E-13
 -1      1984 2.35773E+01-4.91195E-02-1.36880E-02 1.82656E+00 2.44236E-13 9.07469E-13
 -1      1985 2.41207E+01-1.34892E-01 5.33345E-03 2.14014E+00 2.67447E-13 8.31337E-13
 -1      1986 2.20544E+01 7.76241E-01-1.83634E-02 1.08217E+00 3.05977E-13 5.91133E-13
 -1      1987 2.25589E+01 5.57667E-01-1.00556E-02 1.47844E+00 3.37435E-13 7.24816E-13
 -1      1988 2.33555E+01 6.64589E-01-1.75292E-02 1.86346E+00 3.91038E-13 6.31472E-13
 -1      1989 2.18689E+01 9.15573E-01-3.77198E-02-4.47089E-01 1.68247E-13 2.18757E-13
 -1      1990 2.19622E+01 9.47738E-01-6.60019E-04 2.57730E-01 2.06758E-13 3.38688E-13
 -1      1991 2.28358E+01 1.27632E+00-3.03606E-02 4.90194E-01 3.59650E-13 3.01196E-13
 -1      1992 2.25574E+01 5.25621E-01-3.43910E-02-1.68170E+00 3.50067E-13-8.89636E-14
 -1      1993 2.21945E+01 7.58790E-01 2.66640E-03-1.12642E+00 2.75682E-13 7.20708E-14
 -1      1994 2.30131E+01 1.13089E+00-3.09081E-02-1.20522E+00 3.54348E-13-1.00803E-13
 -1      1995 2.37528E+01-7.11962E-02-7.40978E-03-2.08019E+00 2.41304E-13-2.41043E-13
 -1      1996 2.30713E+01 1.95962E-01-3.24936E-04-1.90539E+00 3.00541E-13-1.87485E-13
 -1      1997 2.37575E+01 4.33341E-01-6.47938E-03-2.23451E+00 3.75401E-13-4.11905E-13
 -1      1998 2.47663E+01-4.49225E-01 1.69463E-02-1.58373E+00 1.89501E-13-3.82156E-13
 -1      1999 2.41053E+01-3.25401E-01-1.05649E-02-1.78715E+00 2.60606E-13-2.31200E-13
 -1      2000 2.45520E+01-3.38361E-01 5.06006E-03-2.17351E+00 3.03378E-13-4.25040E-13
 -1      2001 2.52280E+01-5.06329E-01 2.22550E-02-7.11739E-01 1.56420E-14-4.31376E-13
 -1      2002 2.48228E+01-5.26723E-01-1.70393E-02-1.07078E+00 9.25822E-14-3.61666E-13
 -1      2003 2.49549E+01-7.23755E-01 1.07663E-04-1.33928E+00 1.29282E-13-4.45329E-13
 -1      2004 2.51486E+01-3.75875E-01 1.45659E-02 7.43559E-02-9.87682E-14-3.04920E-13
 -1      2005 2.50560E+01-4.60550E-01-1.74875E-02-2.51634E-01-8.88647E-14-3.76620E-13
 -1      2006 2.49017E+01-6.99436E-01-7.40506E-03-3.43796E-01-5.85539E-14-4.08238E-13
 -1      2007 2.47046E+01-2.05279E-01 5.23030E-03 5.82625E-01-6.12149E-14-2.91824E-13
 -1      2008 2.48603E+01-2.90256E-01-1.36673E-02 3.68535E-01-3.24983E-14-2.47666E-13
 -1      2009 2.45266E+01-4.74125E-01-9.22383E-03 4.27224E-01-6.24431E-14-3.07019E-13
 -1      2010 2.40778E+01-7.05609E-02-8.33660E-04 8.18797E-01 1.81738E-13-2.85144E-13
 -1      2011 2.43808E+01-1.29914E-01-8.19976E-03 7.15649E-01 8.36180E-14-2.56645E-13
 -1      2012 2.39826E+01-2.32892E-01-6.79360E-03 8.70568E-01 9.66891E-14-2.67670E-13
 -1      2013 2.34001E+01 1.20781E-02-3.41604E-03 8.64198E-01 1.34695E-14-2.60630E-13
 -1      2014 2.37621E+01-2.04991E-02-3.21680E-03 8.39931E-01 1.17402E-13-2.50921E-13
 -1      2015 2.33804E+01-5.73504E-02-3.70394E-03 1.03985E+00 1.28292E-13-1.63148E-13
 -1      2016 2.27513E+01 5.28756E-02-3.77377E-03 8.01928E-01-8.24317E-14-7.34634E-14
 -1      2017 2.31127E+01 3.94900E-02 4.00238E-04 8.23049E-01-4.95381E-14-1.93808E-13
 -1      2018 2.27888E+01 4.38049E-02-1.52757E-03 1.03132E+00-5.20559E-14-1.44186E-14
 -1      2019 2.21726E+01 6.70453E-02-3.15966E-03 6.91853E-01-1.36848E-15-1.03216E-13
 -1      2020 2.25005E+01 6.49654E-02 2.57504E-03 7.33854E-01-5.91298E-14-1.13557E-13
 -1      2021 2.22465E+01 8.96308E-02-4.19565E-04 9.28607E-01-4.79690E-14-3.01096E-14
 -1      2022 2.16799E+01 6.67331E-02-2.31269E-03 5.69876E-01 2.21416E-14-2.05291E-13
 -1      2023 2.19603E+01 7.03055E-02 3.58276E-03 6.17833E-01 1.24835E-14-1.48744E-13
 -1      2024 2.17723E+01 1.01951E-01-5.32628E-05 7.88409E-01 4.09020E-14-1.83076E-13
 -1      2025 2.12742E+01 5.97275E-02-1.54756E-03 4.54592E-01 5.45800E-14-9.36514E-14
 -1      2026 2.15046E+01 6.55406E-02 3.80652E-03 5.00622E-01 5.52449E-14-1.03113E-13
 -1      2027 2.13718E+01 9.69353E-02-5.69800E-05 6.43609E-01 1.74370E-14-6.21815E-14
 -1      2028 2.09486E+01 5.04189E-02-9.57012E-04 3.53990E-01-1.09708E-13-5.57170E-14
 -1      2029 2.11325E+01 5.66468E-02 3.58174E-03 3.94582E-01-5.90114E-14-8.91806E-14
 -1      2030 2.10427E+01 8.45126E-02-1.84942E-04 5.10711E-01-3.28891E-14 8.56591E-14
 -1      2031 2.06927E+01 4.10346E-02-5.38214E-04 2.70243E-01-9.12859E-14 5.33508E-14
 -1      2032 2.08362E+01 4.68119E-02 3.14476E-03 3.04317E-01-1.02950E-13-1.22211E-14
 -1      2033 2.07783E+01 7.00840E-02-3.14948E-04 3.96362E-01-1.18263E-13 1.19268E-13
 -1      2034 2.04953E+01 3.25659E-02-2.57813E-04 2.02657E-01-2.53045E-13-2.50572E-14
 -1      2035 2.06050E+01 3.75562E-02 2.64129E-03 2.30355E-01-1.31849E-13-3.94303E-14
 -1      2036 2.05700E+01 5.62712E-02-4.01831E-04 3.01855E-01-8.52797E-14-9.46130E-14
 -1      2037 2.03455E+01 2.53528E-02-7.92163E-05 1.49323E-01-2.61142E-13 4.71132E-15
 -1      2038 2.04280E+01 2.94881E-02 2.15096E-03 1.71327E-01-2.69944E-13 1.71720E-14
 -1      2039 2.04089E+01 4.41535E-02-4.39405E-04 2.25878E-01-2.10704E-13-3.39657E-14
 -1      2040 2.02338E+01 1.94189E-02 2.82618E-05 1.07985E-01 3.56294E-14 9.19712E-15
 -1      2041 2.02947E+01 2.27542E-02 1.71142E-03 1.25150E-01-4.38480E-14-9.69144E-14
 -1      2042 2.02862E+01 3.40223E-02-4.37134E-04 1.66060E-01-3.51792E-14-1.01539E-13
 -1      2043 2.01520E+01 1.46494E-02 8.78338E-05 7.64475E-02 2.00280E-13 6.46322E-14
 -1      2044 2.01962E+01 1.72873E-02 1.33614E-03 8.96274E-02 9.99282E-14 8.78361E-14
 -1      2045 2.01945E+01 2.58020E-02-4.08105E-04 1.19770E-01 2.46164E-14-5.26339E-14
 -1      2046 2.00933E+01 1.08822E-02 1.16145E-04 5.27519E-02 9.34108E-14 1.73259E-13
 -1      2047 2.01247E+01 1.29357E-02 1.02582E-03 6.27198E-02 2.20263E-13 2.97036E-13
 -1      2048 2.01271E+01 1.92693E-02-3.63977E-04 8.45061E-02 1.35687E-13 1.52353E-13
 -1      2049 2.00522E+01 7.95011E-03 1.24752E-04 3.52281E-02 1.57773E-13 9.75357E-14
 -1      2050 2.00739E+01 9.52596E-03 7.75064E-04 4.26510E-02-2.56817E-14 3.67463E-14
 -1      2051 2.00785E+01 1.41611E-02-3.13543E-04 5.80534E-02 5.54576E-14 2.51551E-13
 -1      2052 2.00242E+01 5.69916E-03 1.21508E-04 2.24918E-02 2.77535E-13 2.08330E-13
 -1      2053 2.00387E+01 6.89154E-03 5.76125E-04 2.79278E-02 3.41155E-13 1.67797E-13
 -1      2054 2.00444E+01 1.02231E-02-2.62739E-04 3.85287E-02 2.58161E-13 1.79514E-13
 -1      2055 2.00058E+01 3.99500E-03 1.11662E-04 1.34181E-02-9.85648E-14-2.66076E-13
 -1      2056 2.00151E+01 4.88393E-03 4.20790E-04 1.73244E-02 1.32852E-13 4.16850E-15
 -1      2057 2.00211E+01 7.22845E-03-2.15154E-04 2.43730E-02 2.44649E-13 1.48574E-13
 -1      2058 1.99945E+01 2.72387E-03 9.86510E-05 7.10627E-03-9.88795E-14-4.21378E-13
 -1      2059 2.00001E+01 3.37580E-03 3.01303E-04 9.85174E-03-1.23371E-13-3.97502E-13
 -1      2060 2.00058E+01 4.98346E-03-1.72687E-04 1.43192E-02 1.14057E-14-2.52840E-13
 -1      2061 1.99881E+01 1.79142E-03 8.46617E-05 2.84530E-03-1.92947E-13-1.53195E-13
 -1      2062 1.99910E+01 2.26060E-03 2.10758E-04 4.72301E-03-2.22216E-13-2.37680E-13
 -1      2063 1.99962E+01 3.32659E-03-1.36107E-04 7.35359E-03-2.80445E-13-2.66916E-13
 -1      2064 1.99850E+01 1.12048E-03 7.10230E-05 8.06948E-05-1.13343E-13-1.63157E-13
 -1      2065 1.99862E+01 1.45064E-03 1.43217E-04 1.32073E-03 4.89468E-15-9.99842E-14
 -1      2066 1.99908E+01 2.12547E-03-1.05462E-04 2.67612E-03-5.50410E-14-6.57856E-14
 -1      2067 1.99842E+01 6.48669E-04 5.84788E-05-1.61403E-03 1.70082E-13-5.15562E-14
 -1      2068 1.99843E+01 8.74650E-04 9.36936E-05-8.33542E-04-1.13820E-15-1.54809E-13
 -1      2069 1.99881E+01 1.27295E-03-8.03781E-05-3.36351E-04 2.25449E-14 4.70328E-14
 -1      2070 1.99849E+01 3.26042E-04 4.73759E-05-2.56212E-03 2.32108E-13-1.11547E-13
 -1      2071 1.99842E+01 4.75343E-04 5.80696E-05-2.10527E-03 2.49464E-13-1.61108E-13
 -1      2072 1.99874E+01 6.83167E-04-6.02561E-05-2.16227E-03 2.36542E-13 2.79289E-14
 -1      2073 1.99863E+01 1.12882E-04 3.77905E-05-3.00417E-03-8.20438E-14 6.72199E-14
 -1      2074 1.99853E+01 2.07018E-04 3.29870E-05-2.76912E-03 1.10924E-13-1.16318E-14
 -1      2075 1.99879E+01 2.87918E-04-4.44059E-05-3.16320E-03 1.01356E-13 2.62102E-13
 -1      2076 1.99882E+01-2.22976E-05 2.96128E-05-3.11510E-03-2.29203E-13-1.63592E-13
 -1      2077 1.99870E+01 3.34169E-05 1.57360E-05-3.02732E-03-1.12687E-13-4.28953E-14
 -1      2078 1.99890E+01 3.32888E-05-3.21244E-05-3.60705E-03-9.12893E-14 1.89739E-13
 -1      2079 1.99903E+01-1.04585E-04 2.25990E-05-3.01766E-03-2.63404E-13-3.51113E-13
 -1      2080 1.99890E+01-7.42451E-05 4.14587E-06-3.02451E-03-3.39636E-13-4.32363E-13
 -1      2081 1.99906E+01-1.23302E-04-2.27387E-05-3.68706E-03-1.82093E-13-2.92742E-13
 -1      2082 1.99924E+01-1.54424E-04 1.64126E-05-2.79279E-03-2.81143E-14-2.49940E-13
 -1      2083 1.99912E+01-1.39112E-04-3.50849E-06-2.85946E-03-1.60530E-13-3.19867E-13
 -1      2084 1.99923E+01-2.15852E-04-1.56402E-05-3.53695E-03-1.26298E-13-5.05960E-13
 -1      2085 1.99943E+01-1.89313E-04 1.07304E-05-2.48716E-03-2.08001E-13 7.33232E-14
 -1      2086 1.99932E+01-1.80470E-04-8.54323E-06-2.59385E-03-5.75976E-14 5.84594E-14
 -1      2087 1.99939E+01-2.72367E-04-1.02807E-05-3.24242E-03-2.26134E-13-1.48864E-13
 -1      2088 1.99960E+01-2.24719E-04 5.68765E-06-2.11798E-03-1.09542E-13 2.14639E-13
 -1      2089 1.99950E+01-2.15315E-04-1.17915E-05-2.25839E-03-1.65883E-13 5.32615E-14
 -1      2090 1.99955E+01-3.17077E-04-6.07250E-06-2.84972E-03-1.48930E-13 2.34352E-13
 -1      2091 1.99975E+01-2.73341E-04 1.89275E-06-1.67927E-03-3.66795E-13 3.73869E-13
 -1      2092 1.99967E+01-2.57622E-04-1.32226E-05-1.85817E-03-8.00174E-14 2.45694E-13
 -1      2093 1.99969E+01-3.69459E-04-1.89879E-06-2.37214E-03-1.26826E-13 3.85869E-13
 -1      2094 1.99986E+01-3.44637E-04-3.88506E-06-1.15102E-03-7.49447E-14 1.03219E-13
 -1      2095 1.99980E+01-3.16122E-04-1.16501E-05-1.38182E-03-1.75652E-13 1.38240E-13
 -1      2096 1.99981E+01-4.46792E-04 1.50629E-06-1.80428E-03-1.10805E-13 1.21345E-13
 -1      2097 1.99993E+01-4.09828E-04-1.09097E-05-6.83996E-04 1.22638E-14-3.26023E-13
 -1      2098 1.99989E+01-3.89696E-04-9.39123E-06-9.56076E-04 1.51297E-14-1.43857E-13
 -1      2099 1.99989E+01-5.39985E-04 4.11490E-06-1.27820E-03 1.96122E-13-1.49801E-13
 -1      2100 1.99993E+01-6.16223E-04 2.39769E-06-8.35002E-04-1.11709E-13-3.15409E-13
 -1      2101 1.99998E+01-3.32520E-03 6.03042E-06-1.80755E-03 8.25262E-15-5.58843E-13
 -1      2102 1.99997E+01-2.74827E-03-6.65484E-06-1.79876E-03 1.43250E-13-2.71763E-13
 -1      2103 1.99996E+01-2.27278E-03 1.69461E-06-1.72269E-03 1.59477E-13-5.82334E-14
 -1      2104 1.99995E+01-1.73561E-03-1.11730E-05-1.57975E-03 2.01927E-13 1.16248E-13
 -1      2105 1.99996E+01-2.36429E-03-1.05296E-06-2.22064E-03 1.69356E-13-2.14040E-13
 -1      2106 1.99994E+01-1.38570E-03-1.65412E-06-1.37124E-03 1.79787E-13-1.48951E-13
 -1      2107 1.99994E+01-9.43758E-04-1.11331E-05-1.11716E-03 8.39890E-14-2.28947E-13
 -1      2108 1.99992E+01-9.13423E-04-7.97688E-06-1.36407E-03 3.05868E-13-6.89438E-14
 -1      2109 1.99993E+01-1.56353E-03 2.14907E-06-1.89554E-03 4.19220E-13 2.12087E-14
 -1      2110 2.00000E+01-4.29784E-03 1.07796E-05-1.64200E-03-1.48448E-13-7.22451E-13
 -1      2111 1.99999E+01-3.76367E-03 1.83985E-06-1.74028E-03-9.79516E-14-6.39070E-13
 -1      2112 1.99999E+01-3.27227E-03-5.27157E-06-2.22224E-03-1.09363E-14-7.87902E-13
 -1      2113 2.00002E+01-5.11628E-03 1.50148E-05-1.27131E-03 4.02421E-15 3.42956E-13
 -1      2114 2.00001E+01-4.67625E-03 9.08728E-06-1.45449E-03 1.55629E-14-9.69116E-14
 -1      2115 2.00002E+01-4.09022E-03-9.49204E-06-1.93501E-03 1.26142E-13-3.16134E-13
 -1      2116 2.00002E+01-5.67307E-03 1.78401E-05-7.57412E-04-8.97741E-14-1.89702E-14
 -1      2117 2.00002E+01-5.38876E-03 1.46830E-05-9.96181E-04-9.34504E-14 4.23775E-13
 -1      2118 2.00004E+01-4.74338E-03-1.28990E-05-1.41578E-03 1.75508E-14 3.00189E-13
 -1      2119 2.00003E+01-5.91108E-03 1.88818E-05-1.63922E-04-2.10095E-13 2.36986E-14
 -1      2120 2.00003E+01-5.81454E-03 1.79661E-05-4.30025E-04-1.50715E-13-4.04526E-15
 -1      2121 2.00005E+01-5.15968E-03-1.49376E-05-7.41139E-04-2.81230E-13-1.02231E-13
 -1      2122 2.00003E+01-5.80688E-03 1.78644E-05 4.45819E-04-1.58963E-13-5.48478E-14
 -1      2123 2.00003E+01-5.90864E-03 1.89317E-05 1.80320E-04-1.99370E-13 2.16204E-14
 -1      2124 2.00005E+01-5.29957E-03-1.55966E-05 1.04438E-05-4.14745E-13 5.94070E-14
 -1      2125 2.00002E+01-5.37209E-03 1.46820E-05 1.00874E-03-2.03535E-13-4.28197E-13
 -1      2126 2.00002E+01-5.66100E-03 1.76964E-05 7.71766E-04-1.22418E-13-1.80545E-13
 -1      2127 2.00005E+01-5.15027E-03-1.48025E-05 7.60378E-04-3.07780E-13-1.11523E-13
 -1      2128 2.00001E+01-4.66746E-03 9.06298E-06 1.45545E-03 1.58748E-14-4.69472E-13
 -1      2129 2.00001E+01-5.10204E-03 1.48354E-05 1.27724E-03-5.38358E-14-3.77055E-13
 -1      2130 2.00003E+01-4.73085E-03-1.28347E-05 1.42563E-03-4.03956E-14-2.70689E-13
 -1      2131 1.99999E+01-3.74571E-03 1.55621E-06 1.73976E-03 5.47402E-14 2.95980E-13
 -1      2132 2.00000E+01-4.28915E-03 1.06856E-05 1.64177E-03 7.05619E-14 3.08943E-15
 -1      2133 2.00002E+01-4.08019E-03-9.29086E-06 1.93569E-03 2.91958E-13-1.68425E-13
 -1      2134 1.99997E+01-2.72203E-03-6.74177E-06 1.79406E-03-1.24788E-13-5.76507E-15
 -1      2135 1.99998E+01-3.29907E-03 6.00210E-06 1.80557E-03-4.81884E-14-1.94124E-14
 -1      2136 1.99999E+01-3.25433E-03-4.83051E-06 2.22070E-03 1.58009E-13-3.01568E-14
 -1      2137 1.99995E+01-1.69656E-03-6.42289E-06 1.58122E-03-2.09919E-13 1.27435E-14
 -1      2138 1.99996E+01-2.24939E-03 2.96265E-06 1.71517E-03-2.25083E-13 1.07385E-14
 -1      2139 1.99996E+01-2.34263E-03-4.79194E-07 2.21037E-03-6.22962E-14-1.15786E-13
 -1      2140 1.01449E+01-5.65468E+00-1.48148E-01 6.14494E+00 9.61231E-13 1.25535E-12
 -1      2141 6.85594E+00-6.58347E+00-2.85161E-01 5.16864E+00 6.30718E-13 1.31767E-12
 -1      2142 1.96407E-01-7.40328E+00-4.19180E-01 4.62155E-01 6.97956E-13 1.35236E-12
 -1      2143 2.72528E-01-7.03927E+00-3.77556E-01-1.22736E+00 2.85216E-13 1.35925E-12
 -1      2144 3.05324E+00-6.37217E+00-2.75439E-01 3.79652E+00 8.38496E-13 1.69620E-12
 -1      2145 1.17349E+00-7.49991E+00-4.47792E-01 2.08941E+00 5.99243E-13 1.60788E-12
 -1      2146 1.76938E+01-4.08132E+00-4.34436E-02 6.70459E+00 1.16862E-12 8.66862E-13
 -1      2147 1.31677E+01-5.82652E+00-3.29281E-01 5.92421E+00 1.02407E-12 1.04568E-12
 -1      2148 1.41456E+01-5.91648E+00-7.09084E-02 6.60425E+00 1.51268E-13 6.67050E-13
 -1      2149 2.70788E+01-1.16524E+00 1.45243E-01 5.88422E+00 1.48354E-12 7.04770E-13
 -1      2150 2.20311E+01-3.18568E+00-2.06190E-01 5.54693E+00 1.34526E-12 7.28306E-13
 -1      2151 1.96918E+01 3.99932E+00-2.99265E-02-8.26123E-01-4.13818E-13-1.09253E-12
 -1      2152 2.01294E+01 3.93975E+00-2.13548E-02-1.09814E+00-5.23245E-13-9.82808E-13
 -1      2153 2.06284E+01 3.19175E+00-1.42979E-02-1.07521E+00-5.76323E-13-8.40626E-13
 -1      2154 1.97128E+01 3.58069E+00-1.05497E-02-6.20827E-01-3.93707E-13-1.05788E-12
 -1      2155 4.02147E+01 5.40244E+00 5.23057E-01 1.90518E+00 1.51540E-12-1.14742E-13
 -1      2156 3.65856E+01 4.04869E+00 2.13567E-01 2.25891E+00 1.55387E-12 9.32587E-14
 -1      2157 4.18619E+01 7.03826E+00 4.12288E-01 9.89815E-02 1.75759E-12-6.87950E-13
 -1      2158 4.11288E+01 6.48680E+00 4.08321E-01 1.31266E+00 1.64224E-12-1.95066E-13
 -1      2159 4.02213E+01 6.72154E+00 3.22138E-01-1.06063E+00 1.88410E-12-1.02601E-12
 -1      2160 4.11771E+01 7.14127E+00 3.80142E-01-1.79814E-01 1.84253E-12-6.72490E-13
 -1      2161 3.72165E+01 4.25130E+00 2.49892E-01-3.07295E+00 1.86007E-12-1.59162E-12
 -1      2162 4.00305E+01 5.36052E+00 3.77677E-01-1.94699E+00 1.82160E-12-1.18355E-12
 -1      2163 3.04384E+01 6.45690E-01-1.11043E-02-4.60489E+00 1.73242E-12-1.77991E-12
 -1      2164 3.52563E+01 2.38350E+00 3.43212E-01-4.25916E+00 1.73087E-12-1.64402E-12
 -1      2165 2.24367E+01-3.35020E+00-1.82722E-01-5.54699E+00 1.19843E-12-1.69043E-12
 -1      2166 2.76169E+01-1.14153E+00 1.65322E-01-5.89229E+00 1.50430E-12-1.81033E-12
 -1      2167 1.21769E+01-5.89567E+00-3.94208E-01-5.88655E+00 9.43245E-13-1.98198E-12
 -1      2168 1.73516E+01-4.12569E+00-9.00569E-02-6.91472E+00 1.16529E-12-1.97720E-12
 -1      2169 4.66790E+00-7.31761E+00-5.14142E-01-4.29602E+00 5.03930E-13-1.96221E-12
 -1      2170 7.91212E+00-5.81847E+00-2.80277E-01-5.66804E+00 1.01619E-12-2.13336E-12
 -1      2171 5.91249E-01-7.76134E+00-5.16195E-01-1.63641E+00-9.96703E-14-1.79934E-12
 -1      2172 2.03422E+00-7.04315E+00-4.12479E-01-3.07311E+00 4.77174E-13-1.91991E-12
 -1      2173 4.85003E-01-7.19499E+00-4.24470E-01 1.69347E+00-6.95777E-13-1.87189E-12
 -1      2174 4.33372E-02-7.50989E+00-4.69856E-01 1.60090E-01-1.29369E-13-1.85474E-12
 -1      2175 4.98530E+00-5.65374E+00-2.30855E-01 5.13577E+00-8.17013E-13-1.87850E-12
 -1      2176 2.24511E+00-7.12609E+00-4.65314E-01 3.33016E+00-6.13898E-13-1.84575E-12
 -1      2177 1.28146E+01-4.51284E+00-1.18339E-01 6.92557E+00-1.62392E-12-1.84126E-12
 -1      2178 9.00484E+00-5.91474E+00-2.63513E-01 6.12362E+00-1.15918E-12-1.72011E-12
 -1      2179 2.19695E+01-2.50588E+00 3.93158E-02 6.85716E+00-1.68271E-12-1.66955E-12
 -1      2180 1.70008E+01-4.32411E+00-2.48483E-01 6.38080E+00-1.60805E-12-1.68104E-12
 -1      2181 3.05496E+01 8.80753E-01 2.20717E-01 5.45111E+00-1.92452E-12-1.50902E-12
 -1      2182 2.58250E+01-1.13232E+00-1.04438E-01 5.30258E+00-1.80389E-12-1.53949E-12
 -1      2183 3.58871E+01 3.75857E+00 1.63703E-01 2.78776E+00-1.90220E-12-1.04738E-12
 -1      2184 3.26954E+01 2.45024E+00 9.31469E-02 4.05687E+00-1.99842E-12-1.43130E-12
 -1      2185 3.14919E+01 4.16959E-01 1.93357E-01 2.26171E+00-1.43563E-12-5.52003E-13
 -1      2186 3.92924E+01 6.73517E+00 3.34632E-01 8.54508E-01-1.83648E-12-8.64087E-13
 -1      2187 3.67130E+01 5.82625E+00 9.34065E-02 1.46456E+00-1.91602E-12-1.06409E-12
 -1      2188 4.12331E+01 7.17815E+00 4.04922E-01-6.95945E-01-1.69786E-12-4.69014E-13
 -1      2189 4.07156E+01 7.24465E+00 3.04629E-01 7.04399E-01-1.77303E-12-9.13658E-13
 -1      2190 3.73594E+01 5.74212E+00 1.69374E-01-2.05106E+00-1.58590E-12-1.00198E-13
 -1      2191 4.04427E+01 6.55767E+00 4.42212E-01-1.25610E+00-1.62437E-12-4.07147E-13
 -1      2192 3.19766E+01 2.10683E+00 7.11397E-02-4.13173E+00-1.26074E-12 4.36207E-13
 -1      2193 3.57069E+01 3.54690E+00 2.18778E-01-3.11870E+00-1.34093E-12-3.78586E-14
 -1      2194 2.41311E+01-1.29430E+00-1.31631E-01-5.82836E+00-1.02401E-12 1.05138E-12
 -1      2195 2.92698E+01 5.66800E-01 1.81908E-01-5.92058E+00-1.11383E-12 8.10685E-13
 -1      2196 1.59700E+01-4.43394E+00-1.72677E-01-6.51996E+00-6.41265E-13 1.33304E-12
 -1      2197 2.04427E+01-2.27849E+00 6.93574E-02-7.07635E+00-9.76774E-13 1.32699E-12
 -1      2198 7.04502E+00-6.72769E+00-4.54125E-01-5.35582E+00-1.84075E-13 1.44140E-12
 -1      2199 1.12203E+01-5.09771E+00-1.82600E-01-6.68293E+00-3.49609E-13 1.53449E-12
 -1      2200 1.96754E+00-7.06948E+00-3.77251E-01-3.26794E+00 2.82913E-13 1.51823E-12
 -1      2201 4.12684E+00-6.47530E+00-3.10148E-01-4.66393E+00-2.37366E-13 1.53388E-12
 -1      2202 7.74253E+00-5.39280E+00-1.14490E-01-6.18429E+00 3.17135E-13 1.52511E-12
 -1      2203 3.41341E+01 1.69943E+00 1.94085E-01 3.57337E+00 1.45017E-12 3.75477E-13
 -1      2204 2.98766E+01 2.04129E-01 2.15993E-03 4.52897E+00 1.56342E-12 6.92002E-13
 -1      2205 2.93586E+01-2.10749E+00 1.26948E-01 3.25548E+00 1.03334E-12 1.01030E-14
 -1      2206 2.20578E+01-5.05437E+00-4.73906E-03 5.61372E+00 5.45008E-13 3.02591E-13
 -1      2207 2.25349E+01 1.03564E+00-2.19622E-02-1.06732E+00-7.15827E-13 2.76206E-13
 -1      2208 3.34955E+01 2.57770E+00-1.00620E-01-8.97403E-01 1.28356E-12-6.22280E-13
 -1      2209 3.45915E+01 2.18597E+00 1.62182E-01 1.46616E+00 1.39328E-12-1.32228E-13
 -1      2210 3.22343E+01 3.34814E-01 9.93564E-02 3.27212E-01 1.15347E-12-5.26246E-13
 -1      2211 2.22622E+01 1.23071E+00-2.14094E-02-1.03919E+00-7.52539E-13-7.51742E-14
 -1      2212 6.76208E+00-5.39541E+00-1.05314E-01 5.33297E+00 2.13385E-13 1.34509E-12
 -1      2213 1.85633E+00-5.04285E+00-1.90181E-01 1.66092E+00 3.39562E-13 1.57868E-12
 -1      2214 1.99994E+01-1.36136E-03-8.21943E-06 1.53510E-03-1.41396E-14 2.72906E-13
 -1      2215 2.42173E+00-5.07996E+00-1.84703E-01-2.81761E+00 3.43336E-13 1.60222E-12
 -1      2216 1.50884E+01-5.20679E+00-8.63305E-02-6.75129E+00-1.11577E-13 1.18681E-12
 -1      2217 1.87351E+01-5.53300E+00-1.75956E-01-6.72628E+00 3.59268E-13 6.34173E-13
 -1      2218 1.45701E+01-5.22990E+00 1.32279E-01-7.13975E+00 4.65183E-13 9.58636E-13
 -1      2219 2.44090E+01-3.45862E+00 7.00328E-02-5.40093E+00-2.48246E-13 4.25437E-13
 -1      2220 3.08244E+01-4.58322E-02 2.02547E-01-2.74289E+00-6.74315E-13-2.96374E-13
 -1      2221 3.45971E+01 4.42359E+00 2.35649E-01-4.54557E-01-1.31223E-12-6.21003E-13
 -1      2222 3.66638E+01 7.82813E+00 3.58414E-01 7.55558E-02-1.80100E-12-7.20562E-13
 -1      2223 3.42492E+01 4.64725E+00 1.91013E-01 2.54754E-01-1.75882E-12-5.90417E-13
 -1      2224 2.56327E+01-3.31581E+00 7.47769E-02 4.95207E+00-1.01219E-12-9.07163E-13
 -1      2225 1.74066E+01-5.18589E+00-1.19463E-02 6.89097E+00-6.48370E-13-1.27798E-12
 -1      2226 8.29572E+00-5.31261E+00-1.16630E-01 6.09401E+00-4.95326E-13-1.73780E-12
 -1      2227 8.03664E+00-3.82866E+00 1.36737E-01 6.12652E+00 1.44162E-13-1.61560E-12
 -1      2228 1.15894E+01-4.91931E+00-1.35194E-01 7.06552E+00 4.75175E-14-1.37332E-12
 -1      2229 2.80731E+00-4.59245E+00-1.45373E-01 3.23448E+00-1.58235E-13-2.02161E-12
 -1      2230 1.43738E+00-5.10484E+00-2.52418E-01-9.93092E-01-1.33650E-13-2.10471E-12
 -1      2231 5.00777E+00-5.61429E+00-2.30756E-01-4.71270E+00 1.38223E-14-2.08938E-12
 -1      2232 1.25543E+01-5.77205E+00-9.92561E-02-6.68731E+00 1.58762E-13-1.82546E-12
 -1      2233 2.22099E+01-5.01819E+00 1.21599E-02-5.75122E+00 3.39839E-13-1.23079E-12
 -1      2234 3.00159E+01-1.89052E+00 1.25326E-01-3.02956E+00 8.58674E-13-8.18512E-13
 -1      2235 3.49151E+01 2.59838E+00 3.04407E-01-1.09161E+00 1.40449E-12-6.68743E-13
 -1      2236 3.67953E+01 6.43993E+00 3.30485E-01 4.86156E-02 1.79384E-12-4.48336E-13
 -1      2237 3.70439E+01 6.30795E+00 3.23283E-01-3.30283E-01 1.72207E-12-3.69649E-13
 -1      2238 3.73791E+01 7.88223E+00 3.31639E-01-1.56854E-02 1.92946E-12-4.86465E-13
 -1      2239 3.58461E+01 7.79887E+00 2.39427E-01-2.52601E-01-1.89770E-12-7.20229E-13
 -1      2240 2.26163E+01 5.73848E-01 6.49098E-03-4.71561E-01 5.45545E-13 5.77412E-13
 -1      2241 2.26398E+01 7.71014E-01 2.05816E-02-1.43585E-01 6.28811E-13 6.53715E-13
 -1      2242 1.80414E+01 3.83719E+00-1.34903E-02 2.53204E-01 2.41727E-14-1.16204E-12
 -1      2243 1.84104E+01 3.72850E+00-1.67534E-04 1.38033E-01-7.59062E-14-1.15643E-12
 -1      2244 1.88034E+01 3.51486E+00-1.45899E-02 1.23680E-02-1.46041E-13-1.13091E-12
 -1      2245 1.92254E+01 3.38307E+00-4.87407E-03-1.59265E-01-2.46649E-13-1.09768E-12
 -1      2246 1.87320E+01 3.23103E+00-3.48713E-03 2.23236E-01-9.71894E-14-1.06995E-12
 -1      2247 1.71457E+01 4.28760E+00-9.24812E-03 3.52953E-01 3.09375E-13-1.16586E-12
 -1      2248 1.72619E+01 4.24247E+00-6.27870E-04 3.44963E-01 2.35138E-13-1.17826E-12
 -1      2249 1.71978E+01 4.32920E+00-6.07381E-03 2.74315E-01 4.31532E-13-1.11747E-12
 -1      2250 1.71239E+01 4.33398E+00-4.82755E-03 2.86223E-01 3.56541E-13-1.15639E-12
 -1      2251 1.71378E+01 4.07680E+00 5.54261E-03 3.50134E-01 3.26298E-13-1.10693E-12
 -1      2252 1.76319E+01 4.20816E+00-3.69537E-03 2.04027E-01 5.50581E-13-1.03007E-12
 -1      2253 1.73664E+01 4.26871E+00-1.01118E-02 2.00691E-01 4.70239E-13-1.07948E-12
 -1      2254 1.72821E+01 4.06490E+00 6.54747E-03 1.96294E-01 4.37600E-13-1.04875E-12
 -1      2255 1.84326E+01 3.91414E+00-4.00546E-03 2.11549E-01 6.82177E-13-8.42118E-13
 -1      2256 1.79879E+01 4.03886E+00-1.53729E-02 1.63182E-01 6.01194E-13-9.53314E-13
 -1      2257 1.78357E+01 3.85267E+00 5.20106E-03 6.72148E-02 5.54650E-13-9.31470E-13
 -1      2258 1.95205E+01 3.44807E+00-8.92236E-03 3.38792E-01 7.92266E-13-5.92601E-13
 -1      2259 1.89427E+01 3.64835E+00-1.98897E-02 2.30607E-01 7.16932E-13-7.31101E-13
 -1      2260 1.87581E+01 3.44840E+00 3.72719E-03 3.17300E-02 6.62847E-13-7.29472E-13
 -1      2261 2.08038E+01 2.79060E+00-1.97734E-02 5.68287E-01 8.77657E-13-2.43919E-13
 -1      2262 2.01398E+01 3.09665E+00-2.31282E-02 4.14654E-01 8.09403E-13-4.42266E-13
 -1      2263 1.99459E+01 2.87284E+00 4.16241E-03 1.10019E-01 7.44296E-13-4.67370E-13
 -1      2264 2.27771E+01 2.60649E-01 3.02827E-03-9.19154E-01 3.75327E-13 4.92690E-13
 -1      2265 2.26685E+01 4.12792E-01 2.11924E-02-7.53142E-01 4.55084E-13 5.70329E-13
 -1      2266 2.22101E+01 7.04484E-01-8.72906E-03-6.53733E-01 5.49249E-13 2.57091E-13
 -1      2267 2.20471E+01 7.01527E-01 1.62290E-02-3.57582E-01-5.60354E-13-1.99657E-13
 -1      2268 2.19390E+01 4.28710E-01-8.02759E-03-1.04577E-01-4.94302E-13-2.08457E-13
 -1      2269 2.20035E+01 2.18571E-01 1.91270E-02 4.55410E-02-4.28674E-13-1.56195E-13
 -1      2270 2.19598E+01 2.26870E-02-7.51998E-03 1.18864E-01-3.63810E-13-1.78183E-13
 -1      2271 2.18060E+01 4.50671E-01-6.02112E-03-3.99611E-02-4.69787E-13-2.84651E-13
 -1      2272 2.20591E+01-1.36673E-01 1.46351E-02 1.34776E-01-3.17192E-13-1.21441E-13
 -1      2273 2.20527E+01-2.97245E-01-1.06679E-02 7.88867E-02-2.65202E-13-1.38282E-13
 -1      2274 2.19193E+01-5.78030E-02-8.44003E-03 1.60048E-01-3.41914E-13-2.09328E-13
 -1      2275 2.21898E+01-4.25947E-01 9.99544E-03-3.34626E-02-2.03807E-13-8.36194E-14
 -1      2276 2.21819E+01-5.44875E-01-1.28510E-02-1.90924E-01-1.61849E-13-8.21977E-14
 -1      2277 2.21247E+01-4.62396E-01-6.84530E-03 8.16149E-02-2.28961E-13-1.18471E-13
 -1      2278 2.23231E+01-6.19928E-01 4.60507E-03-4.10152E-01-1.24524E-13-5.06183E-14
 -1      2279 2.22782E+01-6.57867E-01-1.12006E-02-6.28513E-01-1.00489E-13-4.86517E-14
 -1      2280 2.23834E+01-7.52743E-01-2.84793E-03-2.48184E-01-1.58514E-13-8.16169E-14
 -1      2281 2.23654E+01-6.32926E-01-2.72037E-03-9.01360E-01-1.17452E-13-1.33260E-14
 -1      2282 2.22620E+01-5.36895E-01-3.31157E-03-1.10888E+00-1.21907E-13-5.54314E-14
 -1      2283 2.26118E+01-8.32597E-01 3.77317E-03-7.58353E-01-1.11940E-13-4.83333E-14
 -1      2284 2.22311E+01-3.69812E-01-1.14854E-02-1.33102E+00-1.37658E-13-6.78403E-14
 -1      2285 2.20753E+01-1.17736E-01 9.56670E-03-1.42535E+00-2.39135E-13-8.30182E-14
 -1      2286 2.26947E+01-5.76921E-01 1.06408E-02-1.29264E+00-1.72497E-13-7.94342E-14
 -1      2287 2.19087E+01 1.77676E-01-1.69896E-02-1.45571E+00-3.48629E-13-1.06396E-13
 -1      2288 2.17425E+01 5.18451E-01 2.01782E-02-1.34158E+00-4.00315E-13-1.46090E-13
 -1      2289 2.25447E+01 5.21289E-02 1.05586E-02-1.59056E+00-3.07511E-13-1.25806E-13
 -1      2290 2.15223E+01 8.29471E-01-1.33985E-02-1.08159E+00-3.80155E-13-1.61821E-13
 -1      2291 2.14121E+01 1.09594E+00 1.90161E-02-7.43459E-01-3.50530E-13-2.04870E-13
 -1      2292 2.22078E+01 8.80510E-01 9.91774E-05-1.37673E+00-4.23346E-13-1.36869E-13
 -1      2293 2.12953E+01 1.25062E+00 1.13478E-03-2.42652E-01-3.50577E-13-3.08991E-13
 -1      2294 2.12950E+01 1.28079E+00 5.22015E-03 2.08160E-01-3.05921E-13-4.15958E-13
 -1      2295 2.19013E+01 1.51285E+00-1.42765E-02-5.72745E-01-4.21896E-13-2.32121E-13
 -1      2296 2.13779E+01 1.17848E+00 1.58561E-02 7.35414E-01-2.78806E-13-5.09208E-13
 -1      2297 2.14933E+01 9.54253E-01-1.08479E-02 1.11113E+00-2.05821E-13-5.29919E-13
 -1      2298 2.18725E+01 1.58524E+00-1.54229E-02 5.35475E-01-3.64875E-13-3.99313E-13
 -1      2299 2.17097E+01 6.62028E-01 2.00051E-02 1.43365E+00-1.87609E-13-6.85340E-13
 -1      2300 2.18923E+01 3.18186E-01-1.80196E-02 1.59753E+00-1.95741E-13-7.38483E-13
 -1      2301 2.21474E+01 1.04717E+00-4.78070E-03 1.44033E+00-2.82966E-13-6.31580E-13
 -1      2302 2.20855E+01 1.29955E-03 1.14998E-02 1.62000E+00-2.19141E-13-7.58880E-13
 -1      2303 2.22658E+01-2.86681E-01-1.42269E-02 1.55774E+00-1.49564E-13-7.37903E-13
 -1      2304 2.25126E+01 2.18814E-01 9.50524E-03 1.78016E+00-2.27698E-13-8.47839E-13
 -1      2305 2.23251E+01-4.95048E-01-1.67811E-03 1.35146E+00-1.36797E-13-7.35946E-13
 -1      2306 2.24487E+01-6.38251E-01-6.69745E-03 1.14409E+00-1.15018E-13-7.24775E-13
 -1      2307 2.27156E+01-4.98719E-01 1.21205E-02 1.55055E+00-1.45180E-13-7.74455E-13
 -1      2308 2.23707E+01-7.06818E-01-1.07992E-02 8.44956E-01-1.21049E-13-6.87103E-13
 -1      2309 2.24179E+01-7.14547E-01 7.07006E-05 5.92537E-01-4.43014E-14-6.65410E-13
 -1      2310 2.26646E+01-8.71290E-01 7.59739E-03 9.97774E-01-1.15639E-13-7.17593E-13
 -1      2311 2.22551E+01-6.80413E-01-1.37809E-02 3.08514E-01-3.73399E-15-7.26614E-13
 -1      2312 2.22321E+01-6.07434E-01 3.54163E-03 8.28784E-02 5.85482E-14-6.90379E-13
 -1      2313 2.24170E+01-9.10446E-01 1.62881E-03 3.83110E-01-4.54337E-14-6.72916E-13
 -1      2314 2.20416E+01-5.24783E-01-1.23499E-02-1.32011E-01 6.02166E-15-6.87478E-13
 -1      2315 2.19674E+01-4.25236E-01 4.43473E-03-2.97459E-01-1.66035E-15-6.17528E-13
 -1      2316 2.20765E+01-7.42776E-01-2.19882E-03-1.30515E-01 8.07904E-15-7.32561E-13
 -1      2317 2.17855E+01-3.35399E-01-8.95605E-03-4.32416E-01 1.78932E-14-6.20973E-13
 -1      2318 2.16803E+01-2.43160E-01 3.95330E-03-5.32911E-01 6.46117E-14-6.08844E-13
 -1      2319 2.17251E+01-5.01604E-01-3.56975E-03-4.84386E-01 1.73571E-14-6.18405E-13
 -1      2320 2.15225E+01-1.67747E-01-5.34621E-03-5.99151E-01 5.43031E-14-5.98010E-13
 -1      2321 2.14029E+01-9.71408E-02 3.00550E-03-6.44866E-01 9.72865E-14-6.56657E-13
 -1      2322 2.14059E+01-2.73071E-01-3.52106E-03-6.84166E-01 5.88287E-14-5.96455E-13
 -1      2323 2.12722E+01-4.30041E-02-2.34421E-03-6.60639E-01 1.29771E-13-5.99772E-13
 -1      2324 2.11505E+01 3.94564E-03 2.08251E-03-6.66640E-01 1.50786E-13-6.01447E-13
 -1      2325 2.11331E+01-9.52032E-02-2.96072E-03-7.62230E-01 1.23721E-13-6.31090E-13
 -1      2326 2.10442E+01 3.79796E-02-1.81401E-04-6.49616E-01 1.11660E-13-6.54095E-13
 -1      2327 2.09284E+01 6.49665E-02 1.36426E-03-6.30339E-01 6.61900E-14-5.81584E-13
 -1      2328 2.09061E+01 2.50699E-02-2.36186E-03-7.55867E-01 1.31307E-13-5.84119E-13
 -1      2329 2.08426E+01 8.32045E-02 1.19639E-03-5.94724E-01 6.02387E-14-5.62532E-13
 -1      2330 2.07377E+01 9.55482E-02 8.68332E-04-5.61709E-01 3.32119E-14-5.14923E-13
 -1      2331 2.07192E+01 9.57722E-02-1.88562E-03-6.97602E-01 6.05220E-14-6.37501E-13
 -1      2332 2.06685E+01 1.02736E-01 1.94922E-03-5.17747E-01-1.34705E-14-4.90569E-13
 -1      2333 2.05769E+01 1.05398E-01 5.50454E-04-4.79221E-01 5.94589E-14-4.56065E-13
 -1      2334 2.05660E+01 1.29562E-01-1.54420E-03-6.12269E-01 5.77068E-14-5.27155E-13
 -1      2335 2.05212E+01 1.05567E-01 2.25343E-03-4.33694E-01 6.28270E-14-4.18601E-13
 -1      2336 2.04436E+01 1.02447E-01 3.56112E-04-3.94986E-01 5.11455E-14-3.89516E-13
 -1      2337 2.04408E+01 1.38585E-01-1.30163E-03-5.17164E-01 3.44328E-14-5.20407E-13
 -1      2338 2.03990E+01 9.86118E-02 2.26303E-03-3.51995E-01-3.68644E-14-4.31277E-13
 -1      2339 2.03351E+01 9.24833E-02 2.40526E-04-3.16214E-01-6.04241E-14-3.75947E-13
 -1      2340 2.03391E+01 1.32559E-01-1.11828E-03-4.23381E-01-2.43035E-14-5.43881E-13
 -1      2341 2.02996E+01 8.67146E-02 2.09746E-03-2.77944E-01-5.62115E-15-3.75651E-13
 -1      2342 2.02482E+01 7.94055E-02 1.72011E-04-2.46636E-01-2.85757E-14-4.20686E-13
 -1      2343 2.02572E+01 1.18483E-01-9.67056E-04-3.37350E-01-7.24223E-14-2.83103E-13
 -1      2344 2.02203E+01 7.30289E-02 1.84239E-03-2.13985E-01-2.32614E-14-3.58254E-13
 -1      2345 2.01798E+01 6.56590E-02 1.30468E-04-1.87674E-01-3.24887E-15-3.45162E-13
 -1      2346 2.01919E+01 1.01031E-01-8.33061E-04-2.62235E-01 2.18807E-14-2.74949E-13
 -1      2347 2.01581E+01 5.94618E-02 1.55516E-03-1.60724E-01-2.53280E-14-3.59769E-13
 -1      2348 2.01269E+01 5.26570E-02 1.03862E-04-1.39311E-01-2.38214E-14-3.25721E-13
 -1      2349 2.01405E+01 8.31081E-02-7.09967E-04-1.99049E-01-1.88676E-14-2.11118E-13
 -1      2350 2.01102E+01 4.70603E-02 1.27148E-03-1.17678E-01-8.43057E-14-3.55425E-13
 -1      2351 2.00868E+01 4.11201E-02 8.53398E-05-1.00720E-01-6.32359E-14-2.67483E-13
 -1      2352 2.01006E+01 6.63688E-02-5.96461E-04-1.47475E-01-1.72115E-14-1.97358E-13
 -1      2353 2.00742E+01 3.63075E-02 1.01159E-03-8.37780E-02-6.82294E-14-3.63578E-13
 -1      2354 2.00569E+01 3.13273E-02 7.12440E-05-7.06768E-02-1.10584E-13-1.95920E-13
 -1      2355 2.00701E+01 5.16354E-02-4.93097E-04-1.06459E-01-1.06592E-13-1.87407E-13
 -1      2356 2.00476E+01 2.73373E-02 7.85158E-04-5.77131E-02-2.05802E-13-1.75809E-13
 -1      2357 2.00352E+01 2.32927E-02 5.97333E-05-4.78291E-02-1.30800E-13-1.88239E-13
 -1      2358 2.00473E+01 3.92013E-02-4.00781E-04-7.46039E-02-1.25189E-13-9.07781E-14
 -1      2359 2.00285E+01 2.00811E-02 5.95118E-04-3.81346E-02-1.22548E-14-1.61989E-13
 -1      2360 2.00198E+01 1.68839E-02 4.99244E-05-3.08553E-02 1.96232E-14-2.09987E-13
 -1      2361 2.00304E+01 2.90455E-02-3.20198E-04-5.04190E-02-8.64959E-14-8.27102E-14
 -1      2362 2.00151E+01 1.43645E-02 4.40347E-04-2.37769E-02 2.76288E-14-1.32278E-13
 -1      2363 2.00093E+01 1.18985E-02 4.14348E-05-1.85527E-02 1.35767E-13-1.89455E-13
 -1      2364 2.00183E+01 2.09755E-02-2.51414E-04-3.24743E-02 4.42598E-14-1.08799E-13
 -1      2365 2.00060E+01 9.96844E-03 3.17523E-04-1.35186E-02 9.80311E-14-1.79872E-13
 -1      2366 2.00023E+01 8.11088E-03 3.40893E-05-9.87779E-03 1.38240E-13-2.18395E-13
 -1      2367 2.00098E+01 1.47193E-02-1.93933E-04-1.94804E-02 1.28327E-13-2.69714E-14
 -1      2368 2.00002E+01 6.66653E-03 2.22320E-04-6.40535E-03 5.69429E-14-2.27204E-13
 -1      2369 1.99980E+01 5.30068E-03 2.77857E-05-3.95669E-03-1.50686E-14-2.17760E-13
 -1      2370 2.00041E+01 9.98187E-03-1.46853E-04-1.03249E-02 4.56866E-14-2.23345E-13
 -1      2371 1.99966E+01 4.24557E-03 1.50180E-04-1.65068E-03-1.44066E-13-2.92744E-13
 -1      2372 1.99956E+01 3.26698E-03 2.24274E-05-7.87649E-05-1.36793E-13-2.99420E-13
 -1      2373 2.00004E+01 6.47871E-03-1.09013E-04-4.07985E-03-6.11030E-14-1.43901E-13
 -1      2374 1.99948E+01 2.51606E-03 9.67599E-05 1.37618E-03 4.11311E-14-3.61503E-13
 -1      2375 1.99944E+01 1.83500E-03 1.78930E-05 2.31927E-03 1.36688E-14-1.09821E-13
 -1      2376 1.99981E+01 3.95244E-03-7.91408E-05 7.58805E-06-1.70050E-13-2.90424E-13
 -1      2377 1.99940E+01 1.31583E-03 5.81678E-05 3.16869E-03-1.17706E-13-1.67759E-13
 -1      2378 1.99941E+01 8.57288E-04 1.40244E-05 3.67293E-03-9.39773E-14-7.73162E-14
 -1      2379 1.99969E+01 2.18024E-03-5.59615E-05 2.53277E-03 1.28786E-14-9.76736E-14
 -1      2380 1.99940E+01 5.09643E-04 3.10682E-05 4.10319E-03 3.42973E-14 1.33625E-13
 -1      2381 1.99944E+01 2.12094E-04 1.06223E-05 4.31007E-03 2.46499E-13 2.68044E-13
 -1      2382 1.99965E+01 9.74740E-04-3.82753E-05 3.95514E-03 1.47903E-13 9.39272E-14
 -1      2383 1.99945E+01-1.34667E-05 1.27001E-05 4.45842E-03 2.51055E-13 2.24228E-13
 -1      2384 1.99950E+01-2.00119E-04 7.45169E-06 4.46951E-03 3.93665E-13 1.71500E-13
 -1      2385 1.99964E+01 1.81368E-04-2.50141E-05 4.61978E-03 2.22073E-13 3.79857E-13
 -1      2386 1.99952E+01-3.44087E-04 8.53595E-07 4.43304E-03 5.40071E-13 5.53248E-14
 -1      2387 1.99958E+01-4.60781E-04 4.26746E-06 4.31731E-03 7.25323E-13 1.32982E-13
 -1      2388 1.99967E+01-3.26235E-04-1.52777E-05 4.77736E-03 3.72697E-13 1.51194E-13
 -1      2389 1.99961E+01-5.56684E-04-6.17870E-06 4.16054E-03 5.61555E-13-1.27016E-14
 -1      2390 1.99967E+01-6.37296E-04 8.72155E-07 3.96039E-03 4.56255E-13-8.80097E-14
 -1      2391 1.99971E+01-6.51503E-04-8.35727E-06 4.60170E-03 5.03669E-13-1.95699E-14
 -1      2392 1.99969E+01-7.12995E-04-9.62410E-06 3.72151E-03 4.93711E-13-1.79084E-13
 -1      2393 1.99975E+01-7.84822E-04-2.49079E-06 3.45826E-03 2.34607E-13-1.20788E-13
 -1      2394 1.99977E+01-8.79651E-04-3.72037E-06 4.20461E-03 3.52324E-13-1.99616E-13
 -1      2395 1.99977E+01-8.64659E-04-1.09583E-05 3.15628E-03 4.98464E-14 5.08053E-14
 -1      2396 1.99982E+01-9.44793E-04-6.86922E-06 2.83487E-03 9.22537E-14 2.40864E-13
 -1      2397 1.99982E+01-1.07758E-03-8.73423E-07 3.64966E-03 3.37571E-13-9.37310E-14
 -1      2398 2.35901E+01-4.70969E-01-1.70799E-02-9.28560E-01 5.46889E-14 4.52275E-13
 -1      2399 2.33714E+01-2.47510E-01 1.32150E-02-1.06952E+00 1.15292E-13 4.55232E-13
 -1      2400 2.41463E+01-9.35285E-01-2.61760E-02-3.75873E-01 4.03930E-15 4.68501E-13
 -1      2401 2.39724E+01-6.96071E-01 1.34651E-02-7.08018E-01 7.64146E-15 4.71131E-13
 -1      2402 2.33525E+01-8.11155E-01-1.89598E-02-1.07563E+00 3.52045E-14 2.61748E-13
 -1      2403 2.46654E+01-1.26250E+00-2.96986E-02 5.72635E-01 5.91801E-14 5.63539E-13
 -1      2404 2.46125E+01-1.13033E+00 9.73583E-03 8.28202E-02-2.83454E-15 5.30143E-13
 -1      2405 2.41701E+01-1.41763E+00-1.44016E-02-4.06833E-01-2.70721E-14 3.42754E-13
 -1      2406 2.49623E+01-1.07616E+00-2.01219E-02 1.70380E+00 1.27205E-13 7.25249E-13
 -1      2407 2.50893E+01-1.26683E+00-9.88406E-03 1.21465E+00 6.84262E-14 6.90383E-13
 -1      2408 2.50699E+01-1.72393E+00-9.58702E-03 7.21821E-01-1.97542E-15 4.90335E-13
 -1      2409 2.48317E+01-1.38469E-02 1.13505E-02 2.38507E+00 3.33178E-13 7.73433E-13
 -1      2410 2.50917E+01-6.57582E-01-4.64092E-02 2.24091E+00 2.38142E-13 8.04750E-13
 -1      2411 2.56828E+01-1.18506E+00-2.58818E-02 2.05166E+00 1.55468E-13 7.30780E-13
 -1      2412 2.42914E+01 1.47200E+00-5.71563E-03 1.90440E+00 5.72022E-13 5.75434E-13
 -1      2413 2.45754E+01 6.75056E-01-8.75682E-02 2.32083E+00 4.79006E-13 6.88825E-13
 -1      2414 2.57218E+01 4.46664E-01-2.13260E-02 2.74318E+00 4.41879E-13 7.56596E-13
 -1      2415 2.39779E+01 2.33734E+00-2.24684E-02 1.32540E-01 5.91888E-13 1.26562E-13
 -1      2416 2.40640E+01 2.07283E+00-4.93116E-02 1.00949E+00 6.38170E-13 3.63116E-13
 -1      2417 2.54048E+01 2.36734E+00-3.68493E-02 1.67417E+00 7.34107E-13 4.57152E-13
 -1      2418 2.42421E+01 1.69816E+00-6.92522E-02-1.78923E+00 5.58775E-13-3.96513E-13
 -1      2419 2.39819E+01 2.17552E+00-4.08060E-02-1.06501E+00 5.51212E-13-2.00755E-13
 -1      2420 2.51462E+01 3.15310E+00-6.42553E-02-4.42707E-01 8.23390E-13-1.17326E-13
 -1      2421 2.49242E+01 1.90072E-01-6.20194E-02-2.63721E+00 4.02650E-13-6.36750E-13
 -1      2422 2.45582E+01 9.75893E-01 3.55596E-03-2.41856E+00 4.89220E-13-5.78483E-13
 -1      2423 2.55593E+01 1.81569E+00-4.47289E-02-2.36995E+00 6.62373E-13-6.52025E-13
 -1      2424 2.53263E+01-9.86298E-01-2.74097E-02-2.12067E+00 2.46663E-13-6.12208E-13
 -1      2425 2.50451E+01-4.96835E-01-5.97196E-03-2.44077E+00 3.09884E-13-6.24545E-13
 -1      2426 2.58962E+01-1.89579E-01-8.47947E-03-2.74516E+00 3.76876E-13-8.14022E-13
 -1      2427 2.51550E+01-1.30909E+00 5.41021E-04-9.57336E-01-3.16769E-14-5.06031E-13
 -1      2428 2.50701E+01-1.24573E+00-2.27793E-02-1.48048E+00 1.18489E-13-5.32271E-13
 -1      2429 2.56554E+01-1.50628E+00 4.87527E-03-1.76537E+00 1.41100E-13-7.63295E-13
 -1      2430 2.45946E+01-1.05198E+00 8.92714E-03 1.35082E-01-1.39245E-13-4.05965E-13
 -1      2431 2.46937E+01-1.22475E+00-2.88042E-02-3.25405E-01-1.90403E-14-4.11907E-13
 -1      2432 2.48785E+01-1.73732E+00-6.02792E-03-4.24844E-01-5.78287E-14-5.27667E-13
 -1      2433 2.39089E+01-6.21506E-01 8.20944E-03 8.59117E-01-3.39433E-14-3.95126E-13
 -1      2434 2.41280E+01-8.40190E-01-2.37488E-02 5.62789E-01-1.45181E-13-4.11499E-13
 -1      2435 2.39565E+01-1.31089E+00-1.38099E-02 6.31113E-01-9.41166E-14-4.50063E-13
 -1      2436 2.32474E+01-2.51848E-01 5.29977E-03 1.21114E+00 3.20208E-14-2.19890E-13
 -1      2437 2.35247E+01-4.23307E-01-1.43323E-02 1.07238E+00-5.34295E-16-2.84303E-13
 -1      2438 2.31406E+01-7.31179E-01-1.26663E-02 1.24552E+00-9.10513E-14-4.44778E-13
 -1      2439 2.26610E+01-9.96187E-03 2.82503E-03 1.29618E+00-4.47884E-16-2.96351E-14
 -1      2440 2.29526E+01-1.15805E-01-6.02189E-03 1.26914E+00 9.66738E-14-7.25010E-14
 -1      2441 2.24955E+01-2.63359E-01-8.94879E-03 1.49293E+00-6.92315E-14-9.40815E-14
 -1      2442 2.21558E+01 1.19241E-01 1.53360E-03 1.22400E+00-1.01639E-13-5.07283E-14
 -1      2443 2.24348E+01 6.60343E-02-2.42208E-04 1.26192E+00-7.71013E-14-5.63338E-14
 -1      2444 2.19972E+01 3.24976E-02-5.55312E-03 1.50030E+00-2.18711E-14-6.51182E-14
 -1      2445 2.17256E+01 1.72020E-01 1.01330E-03 1.07592E+00 1.89799E-14-9.37849E-14
 -1      2446 2.19773E+01 1.52766E-01 3.16905E-03 1.14419E+00-1.33684E-14-3.24850E-14
 -1      2447 2.16046E+01 1.85174E-01-3.32126E-03 1.37514E+00-3.97655E-14-1.17401E-13
 -1      2448 2.13629E+01 1.80540E-01 8.42218E-04 9.03028E-01-3.26037E-14-3.58462E-14
 -1      2449 2.15806E+01 1.80227E-01 4.77504E-03 9.80062E-01 8.35313E-15-6.88871E-14
 -1      2450 2.12862E+01 2.43335E-01-2.15840E-03 1.19096E+00-1.14264E-14-4.95828E-14
 -1      2451 2.10611E+01 1.66831E-01 7.99266E-04 7.33701E-01-5.04154E-15 2.54818E-14
 -1      2452 2.12434E+01 1.75629E-01 5.20977E-03 8.07747E-01-5.98900E-14-1.89113E-14
 -1      2453 2.10232E+01 2.47769E-01-1.63149E-03 9.92391E-01-7.51285E-14-1.71753E-14
 -1      2454 2.08134E+01 1.44054E-01 7.77032E-04 5.81638E-01-9.98980E-14 1.53813E-13
 -1      2455 2.09623E+01 1.56252E-01 4.97833E-03 6.47256E-01-1.48059E-14 8.44518E-14
 -1      2456 2.08047E+01 2.25762E-01-1.39983E-03 8.03769E-01-8.53881E-14 3.31157E-14
 -1      2457 2.06134E+01 1.19320E-01 7.38277E-04 4.51907E-01-4.80606E-14-3.60291E-14
 -1      2458 2.07324E+01 1.31906E-01 4.42234E-03 5.07299E-01-2.89356E-14 1.61900E-13
 -1      2459 2.06242E+01 1.93455E-01-1.27325E-03 6.36568E-01-6.42095E-14 1.33574E-13
 -1      2460 2.04545E+01 9.60839E-02 6.77623E-04 3.44917E-01-1.04741E-13-1.01690E-13
 -1      2461 2.05478E+01 1.07641E-01 3.75177E-03 3.90191E-01-4.35786E-14-6.82127E-14
 -1      2462 2.04766E+01 1.59493E-01-1.16584E-03 4.94663E-01-4.34945E-14-3.11441E-14
 -1      2463 2.03302E+01 7.57620E-02 6.01359E-04 2.58819E-01-1.29492E-13-1.00144E-13
 -1      2464 2.04021E+01 8.57461E-02 3.08336E-03 2.94965E-01-1.40829E-13-3.33674E-14
 -1      2465 2.03578E+01 1.28024E-01-1.04900E-03 3.77809E-01-1.55491E-13 3.20751E-14
 -1      2466 2.02345E+01 5.87152E-02 5.17956E-04 1.90863E-01-1.62815E-14-2.91320E-14
 -1      2467 2.02890E+01 6.70284E-02 2.47458E-03 2.19185E-01-8.99616E-14 1.50242E-14
 -1      2468 2.02636E+01 1.00696E-01-9.20586E-04 2.83748E-01-1.24740E-13 7.43149E-14
 -1      2469 2.01621E+01 4.48008E-02 4.34671E-04 1.38110E-01-5.61134E-14 2.03413E-14
 -1      2470 2.02027E+01 5.15527E-02 1.94827E-03 1.59944E-01 2.95542E-14 3.12729E-15
 -1      2471 2.01901E+01 7.78673E-02-7.87605E-04 2.09428E-01-2.01538E-14 1.31249E-13
 -1      2472 2.01083E+01 3.36663E-02 3.56567E-04 9.77878E-02 6.92671E-14 1.11153E-13
 -1      2473 2.01379E+01 3.90489E-02 1.50843E-03 1.14363E-01-4.74095E-14 5.48763E-14
 -1      2474 2.01337E+01 5.92857E-02-6.57987E-04 1.51660E-01-9.06134E-14-4.69521E-14
 -1      2475 2.00690E+01 2.48986E-02 2.86615E-04 6.74396E-02 1.47212E-14 1.20859E-13
 -1      2476 2.00902E+01 2.91233E-02 1.14963E-03 7.98278E-02 1.63936E-13 1.99053E-13
 -1      2477 2.00912E+01 4.44492E-02-5.37849E-04 1.07449E-01 3.58088E-14-1.06260E-13
 -1      2478 2.00410E+01 1.80937E-02 2.26126E-04 4.49659E-02 3.18258E-13 1.75148E-13
 -1      2479 2.00558E+01 2.13625E-02 8.62415E-04 5.40715E-02 1.03932E-13 1.54413E-13
 -1      2480 2.00599E+01 3.27897E-02-4.30981E-04 7.41352E-02 1.14654E-13 1.58574E-14
 -1      2481 2.00216E+01 1.28857E-02 1.75288E-04 2.86181E-02 3.02540E-13 8.06803E-14
 -1      2482 2.00316E+01 1.53795E-02 6.36203E-04 3.51872E-02 4.63992E-13 2.53596E-13
 -1      2483 2.00371E+01 2.37582E-02-3.38975E-04 4.94412E-02 3.46515E-13 2.91144E-13
 -1      2484 2.00086E+01 8.95739E-03 1.33572E-04 1.69674E-02-6.00070E-14-1.87279E-13
 -1      2485 2.00151E+01 1.08319E-02 4.60680E-04 2.16045E-02 1.27600E-13-9.28988E-14
 -1      2486 2.00211E+01 1.68608E-02-2.61859E-04 3.14638E-02 2.74417E-13 5.09614E-14
 -1      2487 2.00002E+01 6.04068E-03 1.00063E-04 8.86466E-03-2.72947E-13-2.01534E-13
 -1      2488 2.00042E+01 7.42711E-03 3.26465E-04 1.20526E-02-2.33985E-13-2.21690E-13
 -1      2489 2.00101E+01 1.16703E-02-1.98687E-04 1.86432E-02-1.13210E-13-1.03450E-13
 -1      2490 1.99952E+01 3.91314E-03 7.36629E-05 3.39886E-03-1.20596E-13-1.66443E-14
 -1      2491 1.99974E+01 4.91990E-03 2.25377E-04 5.51776E-03-2.05558E-13-1.88804E-13
 -1      2492 2.00029E+01 7.82650E-03-1.47978E-04 9.72185E-03-2.40772E-13-1.57199E-13
 -1      2493 1.99925E+01 2.39281E-03 5.32320E-05-1.42152E-04 6.23288E-14-9.45531E-14
 -1      2494 1.99935E+01 3.10839E-03 1.50468E-04 1.20290E-03 3.83357E-14-3.20965E-14
 -1      2495 1.99984E+01 5.03121E-03-1.08024E-04 3.70090E-03-5.91151E-14-1.74456E-13
 -1      2496 1.99915E+01 1.33252E-03 3.76664E-05-2.30688E-03 2.33699E-13-6.98812E-14
 -1      2497 1.99916E+01 1.82836E-03 9.59537E-05-1.50985E-03 1.60127E-13-4.47594E-14
 -1      2498 1.99958E+01 3.04071E-03-7.70928E-05-2.01538E-04 1.05465E-13-3.13818E-13
 -1      2499 1.99915E+01 6.14341E-04 2.59403E-05-3.51079E-03-7.06506E-14 1.98707E-13
 -1      2500 1.99911E+01 9.47606E-04 5.70964E-05-3.09203E-03 9.25992E-14 1.05893E-13
 -1      2501 1.99946E+01 1.65815E-03-5.35522E-05-2.58809E-03 6.11402E-14-1.20101E-13
 -1      2502 1.99921E+01 1.44292E-04 1.71199E-05-4.06219E-03-2.88837E-14 1.21383E-13
 -1      2503 1.99915E+01 3.60516E-04 3.00715E-05-3.89692E-03-9.93844E-14 1.77186E-13
 -1      2504 1.99942E+01 7.25839E-04-3.59364E-05-3.91518E-03-6.17707E-14 2.00667E-13
 -1      2505 1.99931E+01-1.52429E-04 1.03743E-05-4.18357E-03-8.29242E-14-3.57135E-14
 -1      2506 1.99923E+01-1.69608E-05 1.18421E-05-4.18299E-03 3.41670E-14 1.04330E-13
 -1      2507 1.99945E+01 1.18118E-04-2.29694E-05-4.52117E-03-4.62569E-14 1.97563E-13
 -1      2508 1.99943E+01-3.35861E-04 4.95429E-06-4.02877E-03-3.21326E-13-3.72292E-14
 -1      2509 1.99935E+01-2.51886E-04 3.08571E-08-4.13293E-03-2.98279E-13-5.27041E-14
 -1      2510 1.99951E+01-2.65122E-04-1.35555E-05-4.64962E-03-2.15071E-13 3.38923E-13
 -1      2511 1.99955E+01-4.55325E-04 2.27109E-07-3.69650E-03-3.00386E-13 1.23856E-13
 -1      2512 1.99947E+01-3.98621E-04-7.20772E-06-3.86888E-03-2.72118E-13-4.95683E-14
 -1      2513 1.99958E+01-5.04487E-04-6.86842E-06-4.46840E-03-3.86892E-13 2.94517E-13
 -1      2514 1.99966E+01-5.52502E-04-4.18154E-06-3.24077E-03-1.04897E-13-1.79894E-14
 -1      2515 1.99959E+01-5.02790E-04-1.13144E-05-3.46434E-03-2.76516E-13-1.84605E-14
 -1      2516 1.99966E+01-6.66123E-04-2.35854E-06-4.08501E-03-2.55747E-13-4.93736E-14
 -1      2517 1.99976E+01-6.61272E-04-7.37959E-06-2.67947E-03-2.74747E-13 1.26583E-13
 -1      2518 1.99970E+01-6.04673E-04-1.35673E-05-2.95348E-03-6.55770E-14 3.03172E-13
 -1      2519 1.99974E+01-8.02267E-04 1.60636E-06-3.56185E-03-2.61967E-13-1.06227E-13
 -1      2520 1.99985E+01-7.96441E-04-1.04610E-05-2.01684E-03 4.69580E-14 8.33466E-14
 -1      2521 1.99980E+01-7.22703E-04-1.29144E-05-2.33953E-03-1.74811E-13 8.58799E-14
 -1      2522 1.99982E+01-9.57700E-04 6.49571E-06-2.92257E-03-1.66208E-13-4.56585E-14
 -1      2523 1.99989E+01-8.54282E-04-9.98716E-06-1.58482E-03 3.32446E-13-1.52875E-14
 -1      2524 2.00005E+01-3.89853E-03 1.46589E-05-2.10755E-03 2.21378E-13-4.14433E-14
 -1      2525 2.00003E+01-3.54970E-03-6.23070E-07-2.32994E-03 1.74212E-13-6.19530E-13
 -1      2526 2.00008E+01-4.40753E-03 1.51229E-05-1.45588E-03-7.87316E-14 2.65839E-13
 -1      2527 2.00006E+01-4.15462E-03 5.09706E-06-1.78070E-03 6.98434E-14 1.51419E-13
 -1      2528 2.00008E+01-3.68445E-03-9.00702E-06-2.19154E-03 1.64518E-13-1.48826E-14
 -1      2529 1.99997E+01-2.42722E-03 1.11738E-05-2.62551E-03 1.51754E-13-3.06195E-13
 -1      2530 1.99994E+01-1.99498E-03-1.47290E-05-2.55275E-03 1.18665E-13 1.11128E-13
 -1      2531 2.00001E+01-3.21667E-03 1.30441E-05-2.52180E-03 6.59019E-14-9.47360E-13
 -1      2532 1.99999E+01-2.81336E-03-7.12515E-06-2.60489E-03 1.21173E-13-7.04761E-13
 -1      2533 1.99998E+01-2.43463E-03-6.07375E-06-2.97388E-03 1.17001E-13-5.52474E-13
 -1      2534 2.00004E+01-3.12064E-03-6.67359E-06-2.74263E-03 2.45380E-13-6.51762E-13
 -1      2535 2.00009E+01-4.69829E-03 1.45649E-05-6.52427E-04-4.26740E-13-2.29136E-13
 -1      2536 2.00008E+01-4.56641E-03 9.78858E-06-1.03869E-03-2.41037E-13-1.60859E-13
 -1      2537 2.00011E+01-4.08290E-03-1.04736E-05-1.40324E-03-1.81591E-13-1.88709E-14
 -1      2538 2.00009E+01-4.74831E-03 1.27837E-05 2.15576E-04-3.08817E-13 2.50858E-14
 -1      2539 2.00009E+01-4.75052E-03 1.29349E-05-1.90536E-04-3.79379E-13 1.52933E-13
 -1      2540 2.00013E+01-4.28608E-03-1.11911E-05-4.73439E-04-2.49119E-13-7.17788E-14
 -1      2541 2.00008E+01-4.55484E-03 9.76057E-06 1.06080E-03-1.34893E-13-1.64090E-13
 -1      2542 2.00009E+01-4.69106E-03 1.45587E-05 6.76432E-04-2.50470E-13 3.63014E-15
 -1      2543 2.00013E+01-4.28119E-03-1.11133E-05 5.02140E-04 6.81342E-14 3.06107E-14
 -1      2544 2.00006E+01-4.14451E-03 5.06396E-06 1.78536E-03 1.37986E-13-2.06067E-13
 -1      2545 2.00007E+01-4.39535E-03 1.50152E-05 1.46852E-03-5.39916E-14-1.57503E-13
 -1      2546 2.00011E+01-4.07169E-03-1.04402E-05 1.42044E-03 8.78910E-16-1.03849E-13
 -1      2547 2.00003E+01-3.53801E-03-7.47906E-07 2.32990E-03 2.73272E-13-1.00398E-13
 -1      2548 2.00005E+01-3.88722E-03 1.44884E-05 2.10971E-03 3.05821E-13-4.33665E-13
 -1      2549 2.00008E+01-3.67153E-03-8.69043E-06 2.19611E-03 1.77455E-13-1.49035E-13
 -1      2550 1.99999E+01-2.79156E-03-7.07733E-06 2.59998E-03 7.08211E-14-1.28748E-13
 -1      2551 2.00001E+01-3.20232E-03 1.26039E-05 2.52062E-03 1.80273E-13-7.10130E-14
 -1      2552 2.00004E+01-3.10108E-03-4.68261E-06 2.74444E-03 1.37675E-13-2.07456E-13
 -1      2553 1.99994E+01-1.96819E-03-1.16832E-05 2.52990E-03-4.33893E-14-1.09158E-13
 -1      2554 1.99997E+01-2.40549E-03 8.20813E-06 2.62177E-03 1.33603E-14-1.20884E-13
 -1      2555 1.99998E+01-2.40608E-03-3.40631E-07 2.96524E-03 1.04792E-13-1.56324E-13
 -1      2556 3.77953E+00-3.30469E+00 3.18553E-02 2.83157E+00 2.07806E-13 1.48143E-12
 -1      2557 2.79979E+00-3.11653E+00 4.91825E-02 6.38296E-01 1.88847E-13 1.42641E-12
 -1      2558 9.75135E+00-4.32647E+00 8.82334E-03 6.16802E+00-2.12136E-13 8.13738E-13
 -1      2559 6.33800E+00-3.80513E+00 8.89451E-02 4.57203E+00-9.93650E-14 1.26310E-12
 -1      2560 3.22979E+00-2.98411E+00 8.06367E-02-1.66991E+00 3.61725E-13 1.48898E-12
 -1      2561 4.82695E+00-3.20883E+00 4.68375E-02-4.18176E+00 3.14526E-13 1.51196E-12
 -1      2562 2.31135E+01-6.25380E-02-6.04401E-03-1.08553E+00 1.92108E-13 4.41935E-13
 -1      2563 2.29195E+01 1.12392E-01 1.57053E-02-1.06133E+00 2.67157E-13 4.84644E-13
 -1      2564 2.27516E+01-2.15755E-01-1.54074E-02-1.28244E+00 1.78265E-13 2.31975E-13
 -1      2565 1.99991E+01-1.31274E-03-7.91184E-06 1.92098E-03 7.96710E-14 1.87815E-13
 -1      2566 1.74588E+01-5.62645E+00 1.53991E-04 6.59457E+00-1.18350E-13 2.48503E-13
 -1      2567 1.43499E+01-5.20971E+00 1.03922E-01 6.48692E+00-2.72088E-13 4.05814E-13
 -1      2568 2.50429E+01-5.00735E+00-3.67978E-02 4.48385E+00 3.15054E-13-1.88904E-13
 -1      2569 2.09762E+01-5.74140E+00 9.05686E-03 5.46257E+00 1.93734E-14-1.09218E-14
 -1      2570 3.02769E+01-2.20592E+00-5.78324E-02 1.77308E+00 8.55538E-13-4.73399E-13
 -1      2571 2.78413E+01-3.69173E+00-1.53261E-02 2.67371E+00 5.97772E-13-3.69926E-13
 -1      2572 2.74692E+01-3.32457E+00-8.41664E-02 3.49873E+00-7.06574E-13-2.94625E-13
 -1      2573 2.41379E+01-4.58205E+00 2.76166E-02 4.75432E+00-4.12115E-13-4.83363E-13
 -1      2574 1.74547E+01 4.10836E+00-1.18980E-02 3.62929E-01 1.76010E-13-1.18194E-12
 -1      2575 1.77235E+01 4.02561E+00 1.17924E-03 3.07534E-01 8.59656E-14-1.18313E-12
 -1      2576 1.79574E+01 3.60502E+00-1.21935E-03 4.07573E-01 6.33457E-14-1.10766E-12
 -1      2577 1.73885E+01 3.90666E+00 2.42969E-03 4.43248E-01 2.03735E-13-1.11920E-12
 -1      2578 3.33813E+01 7.29361E+00-1.07643E-01-4.78346E-03 1.82837E-12-2.87437E-13
 -1      2579 3.42005E+01 7.18236E+00-3.45781E-02-5.41301E-01 1.78446E-12-4.02955E-13
 -1      2580 3.34286E+01 7.69952E+00-4.55386E-02-7.96809E-02-1.85163E-12-7.43780E-13
 -1      2581 3.19693E+01 7.04204E+00-1.50835E-01-5.06652E-01-1.81388E-12-6.63192E-13
 -1      2582 3.42855E+01 6.37531E+00-5.62601E-02-9.45534E-01 1.69176E-12-4.95437E-13
 -1      2583 3.34735E+01 5.00379E+00-1.02857E-01-1.19217E+00 1.55076E-12-4.85362E-13
 -1      2584 3.16230E+01 6.38547E+00-6.85568E-02-1.14087E+00 1.64990E-12-4.80546E-13
 -1      2585 3.38203E+01 4.80636E+00-6.10093E-03 1.05815E+00 1.53122E-12-1.26010E-13
 -1      2586 3.34930E+01 6.19282E+00-1.22620E-01 1.07186E+00 1.67966E-12-8.92619E-14
 -1      2587 3.19390E+01 5.00772E-01-7.94385E-02 4.04712E-02 9.62716E-13-6.86118E-14
 -1      2588 3.31925E+01 2.58324E+00-1.39811E-01 5.86401E-01 1.25461E-12-5.38458E-14
 -1      2589 2.84223E+01-3.47694E+00-7.87185E-03-2.28488E+00 3.43642E-13-2.57072E-13
 -1      2590 3.08660E+01-1.71007E+00-7.57080E-02-1.34333E+00 7.17912E-13-1.91624E-13
 -1      2591 2.06772E+01-5.58031E+00 6.23771E-02-5.73399E+00-2.02394E-13-9.40248E-13
 -1      2592 2.49809E+01-5.09158E+00-1.12630E-01-4.67928E+00 5.63438E-14-5.86170E-13
 -1      2593 1.17404E+01-5.03771E+00 2.77637E-02-6.45218E+00-3.07865E-13-1.66561E-12
 -1      2594 1.56744E+01-5.33211E+00-6.47277E-02-6.93917E+00-2.22933E-13-1.33768E-12
 -1      2595 5.42371E+00-3.87752E+00 1.87180E-02-4.32995E+00-2.50022E-13-1.92069E-12
 -1      2596 8.28502E+00-4.31621E+00 1.15095E-02-5.97249E+00-1.61982E-13-1.87367E-12
 -1      2597 1.17812E+01-3.90651E+00 1.28157E-01-6.22459E+00-4.87360E-13-1.62961E-12
 -1      2598 2.55092E+00-3.03550E+00 1.96468E-02 2.46024E-03-1.30453E-13-1.99962E-12
 -1      2599 3.18250E+00-3.30429E+00 1.65793E-02-2.33849E+00-6.76126E-14-1.99674E-12
 -1      2600 5.08768E+00-2.80929E+00 7.81301E-02 4.12921E+00 1.32783E-13-1.79662E-12
 -1      2601 3.41099E+00-2.87560E+00 7.18683E-02 2.06763E+00 8.23369E-14-1.94272E-12
 -1      2602 2.01805E+01-5.22029E+00-7.09991E-02 6.55978E+00-2.12996E-13-7.41941E-13
 -1      2603 1.65241E+01-5.22766E+00 7.52731E-02 6.79735E+00-1.48215E-14-1.03228E-12
 -1      2604 3.10384E+01 2.86220E-01-1.34550E-01 7.26702E-01-1.22816E-12-1.59567E-13
 -1      2605 2.95222E+01-1.40737E+00-2.61274E-02 1.63449E+00-9.73688E-13-1.95899E-13
 -1      2606 3.18649E+01 4.80993E+00-1.73955E-01-1.07065E+00-1.61046E-12-4.12559E-13
 -1      2607 3.17357E+01 2.70391E+00-5.51968E-02-4.71928E-01-1.42050E-12-2.78944E-13
 -1      2608 3.25870E+01 6.76848E+00-1.22853E-01 7.45016E-01-1.62209E-12-8.81906E-13
 -1      2609 3.32701E+01 7.47815E+00-1.01578E-01 3.29662E-01-1.77880E-12-8.26474E-13
 -1      2610 3.05367E+01 7.32965E+00-6.21439E-02 2.21435E-01-1.71840E-12-8.56875E-13
 -1      2611 3.16231E+01 2.67278E+00-4.21146E-02 4.64309E-01-9.65727E-13-9.71168E-13
 -1      2612 3.26188E+01 4.83943E+00-1.35512E-01 8.07235E-01-1.32830E-12-1.00536E-12
 -1      2613 2.86868E+01-2.15460E+00-2.13943E-02-2.19950E+00-2.29705E-13-6.32050E-13
 -1      2614 3.04812E+01-4.41254E-01-1.69531E-01-9.29056E-01-5.27259E-13-8.55621E-13
 -1      2615 2.32230E+01-4.81974E+00 1.24009E-02-5.03981E+00 2.29983E-13 6.32550E-14
 -1      2616 2.64283E+01-3.76062E+00-8.69585E-02-4.09222E+00 1.52933E-14-3.47389E-13
 -1      2617 8.15240E+00-3.80386E+00 1.21976E-01-5.75853E+00 5.19029E-13 1.35081E-12
 -1      2618 1.11160E+01-4.27250E+00 9.30782E-02-6.92274E+00 4.98657E-13 1.21039E-12
 -1      2619 2.18822E+01 1.85108E+00-1.09861E-02-1.16872E+00-7.21674E-13-3.74456E-13
 -1      2620 2.19135E+01 1.07839E+00-9.81758E-03-6.00583E-01-6.53882E-13-2.79614E-13
 -1      2621 2.16840E+01 1.19856E+00 3.80446E-03-4.84080E-01-5.82728E-13-3.98163E-13
 -1      2622 2.13493E+01 2.27708E+00-7.66352E-03-1.04508E+00-6.78265E-13-5.88250E-13
 -1      2623 2.26901E+01 9.25288E-01-9.90414E-04 1.80168E-01 7.21801E-13 7.20700E-13
 -1      2624 2.28349E+01 1.28577E+00-3.75857E-03 7.16895E-01 7.85535E-13 8.32294E-13
 -1      2625 2.23928E+01 1.76476E+00-1.53784E-02 8.26088E-01 8.54216E-13 5.17371E-13
 -1      2626 2.22610E+01 1.14762E+00-1.04147E-02 1.07520E-02 7.29404E-13 3.30272E-13
 -1      2627 3.01495E+01 5.30788E+00-1.28950E-01 1.42354E+00 1.45950E-12 2.21947E-13
 -1      2628 3.20195E+01 6.35062E+00-1.29606E-01 7.24462E-01 1.67738E-12-5.29854E-14
 -1      2629 2.98267E+01 6.33807E+00-1.74880E-01 2.94818E-01 1.59750E-12-3.55271E-14
 -1      2630 1.96064E+01 2.82236E+00-2.87711E-03-7.88282E-02-2.65211E-13-9.74465E-13
 -1      2631 1.96569E+01 3.15462E+00-1.55417E-02-3.31794E-01-3.18809E-13-1.03115E-12
 -1      2632 2.00990E+01 2.99499E+00-1.36945E-02-5.47601E-01-4.41961E-13-9.65877E-13
 -1      2633 2.23813E+01 2.64654E-01-1.14935E-02-1.11988E+00 3.60507E-13 2.24395E-13
 -1      2634 2.17263E+01 2.22757E+00-1.45273E-02 7.14403E-01 8.54571E-13 1.27407E-13
 -1      2635 2.19884E+01-5.24183E+00 9.75102E-02-5.60987E+00 5.13339E-13 5.93137E-14
 -1      2636 3.26397E+01 3.44805E+00-7.91902E-02-1.65549E+00 1.28111E-12-6.16285E-13
 -1      2637 3.11132E+01 2.01214E+00-4.83844E-02-1.95513E+00 1.05091E-12-7.98916E-13
 -1      2638 3.07440E+01 4.11405E+00-1.62394E-01-2.27240E+00 1.31622E-12-6.88075E-13
 -1      2639 3.08027E+01-1.45179E+00-4.38926E-02-1.38905E-01 8.22200E-13-7.91672E-13
 -1      2640 2.76031E+01-3.52172E+00 3.11343E-02-2.21945E+00 1.07081E-13-7.58615E-13
 -1      2641 3.06642E+01 5.37167E+00-6.50698E-02 1.38411E+00-1.31092E-12-1.12030E-12
 -1      2642 1.33709E+01-4.21861E+00 1.35813E-01 6.14522E+00-4.76896E-13 4.79450E-13
 -1      2643 3.09029E+01 5.68051E+00-1.28120E-01-1.19018E+00-1.60383E-12-4.39052E-13
 -1      2644 2.92950E+01 4.20038E+00-1.10176E-01-1.63024E+00-1.35228E-12-1.45939E-13
 -1      2645 2.91038E+01 6.26677E+00-1.82324E-01-1.14926E+00-1.54957E-12-5.08205E-13
 -1      2646 1.99989E+01-1.13765E-03-5.56947E-06-2.12086E-03 2.37504E-13-8.74459E-14
 -1      2647 1.99990E+01-1.46568E-03 2.13041E-06-2.34594E-03 2.20632E-13-1.06611E-13
 -1      2648 3.03436E+01 1.12766E+00-2.18199E-02-8.07013E-01-1.06840E-12-4.60743E-14
 -1      2649 4.83355E+00-1.76480E+00 1.63181E-01-6.48772E-01 1.90365E-13 1.42991E-12
 -1      2650 6.85286E+00-2.44755E+00 1.61889E-01 3.76889E+00-1.66187E-13 1.21725E-12
 -1      2651 2.30832E+01-5.08389E+00 4.11348E-02 5.07588E+00 7.40796E-14-3.72591E-13
 -1      2652 8.25214E+00-2.45059E+00 1.60381E-01-4.88221E+00 4.40425E-13 1.32583E-12
 -1      2653 2.15076E+01 1.99349E+00 1.06539E-02 3.03739E-01 7.81520E-13 1.53410E-14
 -1      2654 2.68107E+01-4.78698E+00 3.64223E-02 2.75071E+00 1.07386E-13-5.74985E-13
 -1      2655 1.42379E+01-4.59807E+00 5.75121E-02-6.68850E+00 6.94805E-13 9.39263E-13
 -1      2656 2.09418E+01-5.57152E+00 8.88248E-02 5.36960E+00-3.50414E-13-1.10297E-13
 -1      2657 2.08779E+01 2.52608E+00-1.24150E-02-8.33105E-01-5.66466E-13-7.54192E-13
 -1      2658 7.43603E+00-2.81796E+00 1.47742E-01 5.12954E+00 2.77944E-13-1.66789E-12
 -1      2659 7.37826E+00-1.49012E+00 1.62370E-01 4.14238E+00 3.71578E-13-1.61612E-12
 -1      2660 9.72447E+00-2.87042E+00 1.36029E-03 5.90072E+00 5.23748E-13-1.38439E-12
 -1      2661 6.09552E+00-2.41887E+00 1.27788E-01-3.51360E+00-2.41626E-13-1.95394E-12
 -1      2662 1.95563E+01-5.26814E+00 1.20165E-01-5.94720E+00-5.16087E-13-9.07279E-13
 -1      2663 2.70391E+01-4.67012E+00 1.24380E-03-2.73158E+00-1.21347E-13-1.62453E-13
 -1      2664 3.08132E+01-1.17886E+00 2.40328E-02 5.97357E-01 5.40490E-13 3.02064E-13
 -1      2665 1.52473E+01-4.58178E+00 1.38321E-01 6.92605E+00 3.54217E-13-1.06037E-12
 -1      2666 2.83264E+01-2.91312E+00 1.92234E-02 1.73363E+00-4.79408E-13 5.11813E-14
 -1      2667 3.16461E+01 3.22767E+00-1.68201E-02 2.00589E+00 1.17231E-12 2.15966E-13
 -1      2668 4.63470E+00-1.63896E+00 1.42379E-01 9.56462E-01 6.43929E-14-1.93334E-12
 -1      2669 1.99987E+01-1.06412E-03-1.37415E-05 2.24691E-03 1.61902E-13 3.13959E-13
 -1      2670 1.99991E+01-1.59539E-03 5.55984E-06 2.47692E-03 4.51455E-14 9.55393E-14
 -1      2671 1.99991E+01-1.67533E-03-3.46845E-06 2.90873E-03 2.37983E-14 2.09432E-13
 -1      2672 1.99984E+01-1.00557E-03-1.50767E-05 2.59129E-03 4.63212E-14 2.62299E-13
 -1      2673 3.02109E+01 6.70116E-01-2.79251E-02 6.71214E-01-5.72625E-13-1.12077E-12
 -1      2674 1.99990E+01-1.55851E-03-7.02452E-06-2.81304E-03 6.24319E-14-1.37775E-13
 -1      2675 1.99986E+01-1.24814E-03 3.99967E-06 3.07480E-03 1.32484E-13 2.03105E-13
 -1      2676 1.72223E+01 3.78024E+00-3.88409E-03 9.60840E-02 4.60867E-13-9.80666E-13
 -1      2677 1.70403E+01 3.83405E+00-6.36915E-03 1.83362E-01 3.97813E-13-1.01992E-12
 -1      2678 1.69750E+01 3.83322E+00-8.66801E-03 3.57863E-01 3.60836E-13-1.05646E-12
 -1      2679 1.70309E+01 3.80113E+00 3.67370E-05 4.35851E-01 2.99575E-13-1.06031E-12
 -1      2680 1.69404E+01 3.60049E+00 1.17602E-02 2.68025E-01 3.66760E-13-9.98948E-13
 -1      2681 1.89969E+01 2.99087E+00-6.78259E-04-2.06890E-01 6.47092E-13-6.53598E-13
 -1      2682 1.84220E+01 3.22521E+00-1.38638E-02-2.10022E-01 5.89950E-13-7.56869E-13
 -1      2683 2.02928E+01 2.32144E+00-9.39697E-04-1.69860E-01 6.88375E-13-3.93167E-13
 -1      2684 1.96244E+01 2.64857E+00-1.16080E-02-2.21416E-01 6.48531E-13-5.38828E-13
 -1      2685 1.93308E+01 2.48896E+00 3.21396E-03-4.92105E-01 5.70911E-13-5.59729E-13
 -1      2686 2.17392E+01 8.60507E-01 8.22897E-05-8.46249E-01 4.85120E-13 1.71056E-14
 -1      2687 2.17161E+01 1.13073E+00 1.22590E-02-5.24764E-01 5.72088E-13 3.33123E-14
 -1      2688 2.78058E+01-4.39038E+00-1.20374E-01 1.30768E+00 1.58304E-13-7.96405E-13
 -1      2689 2.56314E+01-5.07423E+00 5.10320E-02 2.71696E+00-1.45099E-13-6.40599E-13
 -1      2690 2.19298E+01 3.27700E-01-1.20068E-03-1.31037E+00 2.91894E-13 4.14727E-14
 -1      2691 2.18165E+01 6.04991E-01 1.60702E-02-1.13070E+00 3.77133E-13 4.78188E-14
 -1      2692 2.12064E+01 9.52684E-01-7.09746E-03-1.04728E+00 4.25996E-13-1.72881E-13
 -1      2693 2.14277E+01 1.70851E+00-1.63289E-03-6.13968E-02 7.13053E-13-5.00160E-14
 -1      2694 2.17615E+01 1.41997E-01 1.60184E-02 2.45032E-01-3.09858E-13-3.01760E-13
 -1      2695 2.18190E+01-1.48101E-01-8.77511E-03 2.92765E-01-2.47204E-13-2.71336E-13
 -1      2696 2.20492E+01-4.07465E-01 1.67501E-02 2.80982E-01-2.03842E-13-2.05991E-13
 -1      2697 2.21414E+01-6.59881E-01-1.17325E-02 1.90720E-01-1.55814E-13-1.89487E-13
 -1      2698 2.17841E+01-3.10879E-01-1.21818E-02 4.20822E-01-2.15815E-13-2.93720E-13
 -1      2699 2.24338E+01-8.63605E-01 1.50128E-02 3.47453E-02-1.14421E-13-1.40053E-13
 -1      2700 2.25350E+01-1.03570E+00-1.37196E-02-1.73588E-01-9.85818E-14-1.05445E-13
 -1      2701 2.22580E+01-9.06446E-01-1.20062E-02 2.85060E-01-1.18137E-13-2.04876E-13
 -1      2702 2.28451E+01-1.12486E+00 8.57975E-03-4.66803E-01-8.11013E-14-6.81933E-14
 -1      2703 2.29117E+01-1.12747E+00-1.16912E-02-7.46555E-01-9.53981E-14-8.34729E-14
 -1      2704 2.28334E+01-1.30769E+00-7.18559E-03-1.44783E-01-9.33306E-14-1.13647E-13
 -1      2705 2.31419E+01-1.00637E+00-4.31154E-03-1.11288E+00-1.39101E-13-5.68379E-14
 -1      2706 2.31325E+01-7.39098E-01-1.35694E-03-1.36380E+00-1.99553E-13-5.85749E-14
 -1      2707 2.33848E+01-1.30735E+00 2.34949E-03-8.15233E-01-1.37705E-13-7.99378E-14
 -1      2708 2.31583E+01-3.37296E-01-2.32250E-02-1.64041E+00-2.59323E-13-6.14816E-14
 -1      2709 2.30671E+01 2.06727E-01 1.33118E-02-1.70495E+00-3.57337E-13-6.06897E-14
 -1      2710 2.37063E+01-6.60741E-01 1.54521E-02-1.51946E+00-2.28215E-13-3.39177E-14
 -1      2711 2.28724E+01 7.99721E-01-3.59744E-02-1.66242E+00-4.01222E-13-7.28011E-14
 -1      2712 2.27508E+01 1.41403E+00 1.83305E-02-1.41457E+00-4.41028E-13-6.57961E-14
 -1      2713 2.36295E+01 6.04217E-01 9.50279E-03-1.83023E+00-3.66988E-13 5.20365E-14
 -1      2714 2.25021E+01 1.91018E+00-3.03005E-02-9.34273E-01-5.08972E-13-1.61214E-13
 -1      2715 2.24439E+01 2.22852E+00 3.32177E-03-4.05077E-01-5.21900E-13-2.46922E-13
 -1      2716 2.32648E+01 2.01760E+00-1.14529E-02-1.33567E+00-5.20087E-13-6.12036E-14
 -1      2717 2.24035E+01 2.27983E+00-4.70427E-03 3.22699E-01-5.14287E-13-3.99884E-13
 -1      2718 2.24594E+01 2.07059E+00-2.28231E-02 8.82800E-01-4.77830E-13-5.10441E-13
 -1      2719 2.30141E+01 2.74116E+00-2.52142E-02-6.41258E-02-6.44040E-13-3.44024E-13
 -1      2720 2.26613E+01 1.65225E+00 1.48688E-02 1.43548E+00-4.30734E-13-6.39289E-13
 -1      2721 2.27829E+01 1.07082E+00-3.76887E-02 1.75960E+00-3.42964E-13-7.32586E-13
 -1      2722 2.31659E+01 2.21750E+00-2.38888E-02 1.29065E+00-5.34548E-13-6.25244E-13
 -1      2723 2.30072E+01 4.52683E-01 1.44078E-02 1.89333E+00-2.90094E-13-8.22796E-13
 -1      2724 2.31148E+01-1.43650E-01-2.84634E-02 1.87934E+00-2.23449E-13-8.54545E-13
 -1      2725 2.35309E+01 9.17525E-01 4.89601E-03 1.99105E+00-3.96114E-13-8.13873E-13
 -1      2726 2.31290E+01-6.14243E-01 6.05878E-04 1.63828E+00-1.95219E-13-8.34370E-13
 -1      2727 2.31503E+01-9.66358E-01-1.12394E-02 1.39569E+00-1.12488E-13-8.04000E-13
 -1      2728 2.36755E+01-4.86340E-01 9.86157E-03 1.80024E+00-2.11864E-13-9.22170E-13
 -1      2729 2.29445E+01-1.16908E+00-9.61355E-03 1.00532E+00-7.46439E-14-7.54183E-13
 -1      2730 2.28733E+01-1.25102E+00 3.98096E-03 6.87202E-01-2.38139E-14-7.29690E-13
 -1      2731 2.34114E+01-1.31395E+00 7.33510E-03 1.10237E+00-9.57411E-14-8.59004E-13
 -1      2732 2.25496E+01-1.23619E+00-1.28377E-02 3.21268E-01-5.78292E-14-6.42930E-13
 -1      2733 2.24157E+01-1.14040E+00 1.03307E-02 3.41583E-02-2.36363E-14-6.42812E-13
 -1      2734 2.28533E+01-1.52008E+00-2.55765E-03 3.14668E-01 1.58167E-14-6.82363E-13
 -1      2735 2.20839E+01-1.01001E+00-1.08535E-02-2.29732E-01 1.39754E-14-5.60880E-13
 -1      2736 2.19256E+01-8.43964E-01 1.09257E-02-4.39596E-01 6.28620E-14-5.80113E-13
 -1      2737 2.22106E+01-1.30580E+00-8.68424E-03-3.09291E-01 2.10496E-14-4.82679E-13
 -1      2738 2.16453E+01-6.83684E-01-7.23680E-03-5.95376E-01 4.67931E-14-5.61044E-13
 -1      2739 2.14902E+01-5.17966E-01 8.90818E-03-7.23152E-01 1.92972E-14-5.25448E-13
 -1      2740 2.16307E+01-9.21556E-01-9.77401E-03-7.09650E-01 3.23539E-14-3.92151E-13
 -1      2741 2.12775E+01-3.75332E-01-3.93965E-03-7.93142E-01 2.51851E-14-4.99376E-13
 -1      2742 2.11386E+01-2.42234E-01 6.24987E-03-8.52609E-01 6.98119E-14-5.21790E-13
 -1      2743 2.11721E+01-5.35024E-01-8.26541E-03-9.15250E-01 2.30317E-14-4.69729E-13
 -1      2744 2.09872E+01-1.35063E-01-1.51923E-03-8.63409E-01 1.23380E-13-5.60580E-13
 -1      2745 2.08681E+01-4.22711E-02 3.88677E-03-8.73364E-01 1.84790E-13-5.61458E-13
 -1      2746 2.08359E+01-2.22806E-01-6.06703E-03-9.79836E-01 8.12603E-14-3.98545E-13
 -1      2747 2.07640E+01 2.85012E-02 8.31613E-05-8.47351E-01 1.34232E-13-5.92725E-13
 -1      2748 2.06638E+01 8.53043E-02 2.11215E-03-8.25267E-01 6.05342E-14-6.35418E-13
 -1      2749 2.05994E+01-3.69103E-03-4.11618E-03-9.52889E-01 9.20756E-14-5.61011E-13
 -1      2750 2.05931E+01 1.26014E-01 1.06443E-03-7.78985E-01 6.63918E-14-5.44619E-13
 -1      2751 2.05094E+01 1.55241E-01 9.17079E-04-7.38780E-01 8.98577E-14-5.01961E-13
 -1      2752 2.04358E+01 1.31753E-01-2.67999E-03-8.72342E-01 1.09929E-13-5.78762E-13
 -1      2753 2.04613E+01 1.74011E-01 1.60320E-03-6.83636E-01 5.19960E-14-4.82515E-13
 -1      2754 2.03917E+01 1.84186E-01 1.83284E-04-6.35387E-01 6.68492E-14-4.92156E-13
 -1      2755 2.03223E+01 2.02682E-01-1.72601E-03-7.65006E-01 5.57900E-14-3.85870E-13
 -1      2756 2.03584E+01 1.88390E-01 1.83566E-03-5.78810E-01 2.56589E-14-4.51795E-13
 -1      2757 2.03009E+01 1.86558E-01-2.23609E-04-5.29255E-01 3.55983E-14-4.49555E-13
 -1      2758 2.02423E+01 2.28696E-01-1.13578E-03-6.48844E-01 4.50973E-14-3.47359E-13
 -1      2759 2.02773E+01 1.81964E-01 1.86329E-03-4.75765E-01 9.14408E-14-4.80747E-13
 -1      2760 2.02301E+01 1.73350E-01-4.15359E-04-4.29036E-01 2.51910E-14-4.19934E-13
 -1      2761 2.01845E+01 2.26134E-01-7.84265E-04-5.35249E-01 8.12809E-14-3.01451E-13
 -1      2762 2.02129E+01 1.64085E-01 1.76080E-03-3.81107E-01-1.34629E-14-1.89260E-13
 -1      2763 2.01746E+01 1.52283E-01-4.75693E-04-3.39440E-01 5.10441E-14-9.83142E-14
 -1      2764 2.01415E+01 2.07204E-01-5.78176E-04-4.30904E-01 1.95358E-13-9.66706E-14
 -1      2765 2.01618E+01 1.41099E-01 1.58373E-03-2.98153E-01-1.80488E-14-6.31147E-14
 -1      2766 2.01311E+01 1.28418E-01-4.61496E-04-2.62487E-01 5.81672E-15-1.14920E-13
 -1      2767 2.01088E+01 1.80368E-01-4.54916E-04-3.39200E-01 4.26082E-14 1.00383E-13
 -1      2768 2.01213E+01 1.17030E-01 1.37204E-03-2.28015E-01-3.65739E-14-2.13271E-13
 -1      2769 2.00971E+01 1.04847E-01-4.09694E-04-1.98458E-01-4.83840E-14-1.54704E-13
 -1      2770 2.00835E+01 1.51123E-01-3.75338E-04-2.61308E-01-9.53005E-14-3.01436E-14
 -1      2771 2.00896E+01 9.42399E-02 1.15288E-03-1.70427E-01 2.96040E-14-1.97809E-13
 -1      2772 2.00707E+01 8.32911E-02-3.43188E-04-1.46589E-01 3.89304E-14-9.41980E-14
 -1      2773 2.00636E+01 1.22782E-01-3.18052E-04-1.96987E-01-5.43461E-14-1.23934E-13
 -1      2774 2.00649E+01 7.39531E-02 9.43821E-04-1.24323E-01-8.03895E-14-1.84247E-13
 -1      2775 2.00505E+01 6.45545E-02-2.75288E-04-1.05557E-01-1.11571E-13-1.76021E-13
 -1      2776 2.00480E+01 9.71512E-02-2.72248E-04-1.45156E-01-3.08047E-14-1.81480E-13
 -1      2777 2.00459E+01 5.66604E-02 7.54898E-04-8.82530E-02-1.06068E-13-1.22502E-13
 -1      2778 2.00351E+01 4.88684E-02-2.12981E-04-7.38110E-02-8.00048E-14-6.57961E-14
 -1      2779 2.00357E+01 7.50381E-02-2.32247E-04-1.04309E-01-7.44833E-14-8.49585E-14
 -1      2780 2.00316E+01 4.24041E-02 5.90733E-04-6.06474E-02-1.18278E-13-1.05607E-13
 -1      2781 2.00236E+01 3.61261E-02-1.59439E-04-4.97784E-02-6.97947E-14-1.25761E-13
 -1      2782 2.00262E+01 5.66243E-02-1.96244E-04-7.27967E-02-1.31325E-13-2.48448E-14
 -1      2783 2.00209E+01 3.09727E-02 4.52525E-04-3.99794E-02-2.55056E-14-6.26379E-14
 -1      2784 2.00152E+01 2.60397E-02-1.15460E-04-3.19855E-02 6.63623E-14-8.48909E-14
 -1      2785 2.00188E+01 4.17285E-02-1.63657E-04-4.89922E-02-5.21349E-14-8.57933E-14
 -1      2786 2.00132E+01 2.20292E-02 3.39230E-04-2.48578E-02 8.55926E-14-3.69989E-14
 -1      2787 2.00092E+01 1.82425E-02-8.06052E-05-1.91237E-02 5.06081E-14-1.19231E-13
 -1      2788 2.00132E+01 2.99786E-02-1.34433E-04-3.13987E-02 6.76975E-14-6.05258E-14
 -1      2789 2.00076E+01 1.51921E-02 2.48509E-04-1.40711E-02-6.31983E-14-2.05803E-13
 -1      2790 2.00049E+01 1.23511E-02-5.38297E-05-1.00740E-02 6.15354E-14-2.92188E-13
 -1      2791 2.00090E+01 2.09235E-02-1.08662E-04-1.86994E-02-8.02752E-14-1.95840E-13
 -1      2792 2.00038E+01 1.00837E-02 1.77422E-04-6.59980E-03 5.29918E-14-3.58900E-13
 -1      2793 2.00021E+01 8.00201E-03-3.38665E-05-3.90895E-03-1.78741E-13-3.35211E-13
 -1      2794 2.00058E+01 1.41018E-02-8.63669E-05-9.77570E-03-8.10816E-14-3.98593E-13
 -1      2795 2.00013E+01 6.35682E-03 1.22877E-04-1.60956E-03-1.51719E-13-2.61897E-13
 -1      2796 2.00002E+01 4.86990E-03-1.94526E-05 1.20877E-04-6.99682E-14-2.04818E-13
 -1      2797 2.00036E+01 9.08062E-03-6.74447E-05-3.70434E-03-8.46911E-14-3.56530E-13
 -1      2798 1.99997E+01 3.70699E-03 8.19144E-05 1.56527E-03-2.78232E-14-7.53113E-14
 -1      2799 1.99991E+01 2.67449E-03-9.44668E-06 2.60617E-03 1.16706E-14-1.00556E-13
 -1      2800 2.00020E+01 5.47504E-03-5.16788E-05 2.58101E-04 5.16660E-14-6.36470E-14
 -1      2801 1.99987E+01 1.87585E-03 5.18678E-05 3.44320E-03 1.50957E-13 1.50707E-15
 -1      2802 1.99985E+01 1.18092E-03-2.88244E-06 4.00148E-03 2.97677E-13 1.73199E-13
 -1      2803 2.00009E+01 2.95505E-03-3.87733E-05 2.69620E-03 1.13213E-13 7.53352E-14
 -1      2804 1.99983E+01 6.48902E-04 3.04386E-05 4.41814E-03 1.85811E-13 2.73309E-13
 -1      2805 1.99983E+01 1.95799E-04 1.01676E-06 4.64733E-03 1.76435E-13 8.13264E-14
 -1      2806 2.00002E+01 1.24473E-03-2.84005E-05 4.05875E-03 2.66162E-13-1.20584E-13
 -1      2807 1.99981E+01-1.49523E-04 1.57115E-05 4.78055E-03 1.84812E-13 2.21436E-13
 -1      2808 1.99983E+01-4.38799E-04 2.84757E-06 4.79042E-03 4.79686E-13 1.74118E-13
 -1      2809 1.99997E+01 1.17183E-04-2.02438E-05 4.68122E-03 2.27946E-13 4.40701E-15
 -1      2810 1.99982E+01-6.62720E-04 6.13585E-06 4.73649E-03 4.92703E-13 6.93740E-14
 -1      2811 1.99984E+01-8.51656E-04 3.15273E-06 4.60135E-03 3.43662E-13 2.35050E-14
 -1      2812 1.99995E+01-6.12732E-04-1.40245E-05 4.80615E-03 3.63808E-13 7.30635E-14
 -1      2813 1.99984E+01-1.00806E-03 2.88781E-07 4.42412E-03 2.42992E-13-4.55132E-14
 -1      2814 1.99986E+01-1.14783E-03 2.15410E-06 4.18969E-03 2.13025E-13-1.74686E-13
 -1      2815 1.99993E+01-1.09537E-03-9.52791E-06 4.60078E-03 2.25137E-13-1.73932E-13
 -1      2816 1.99986E+01-1.28092E-03-2.52181E-06 3.92781E-03 3.35955E-13-1.78082E-13
 -1      2817 1.99989E+01-1.40875E-03 7.38008E-08 3.61775E-03 3.80330E-13-1.57950E-13
 -1      2818 1.99993E+01-1.45349E-03-5.83492E-06 4.17288E-03 2.68583E-13-2.04604E-13
 -1      2819 2.40896E+01-1.97063E+00-1.68458E-02-7.15433E-01-9.03375E-14 2.31723E-13
 -1      2820 2.36810E+01-1.55042E+00 3.60676E-02-1.13061E+00-8.05970E-14 1.99160E-13
 -1      2821 2.87014E+01-8.90471E-01-8.15829E-03 8.08987E-01-2.75953E-13-1.18947E-12
 -1      2822 2.89462E+01 1.37927E+00-2.16365E-01 1.68311E+00-7.05810E-13-1.28840E-12
 -1      2823 2.30367E+01-1.11964E+00-1.34614E-02-1.35356E+00-3.93257E-14 9.65705E-14
 -1      2824 2.27073E+01-6.79795E-01 2.51232E-02-1.52589E+00 1.89954E-14 8.06889E-14
 -1      2825 2.27653E+01-1.64230E+00-4.77832E-02-1.68317E+00-8.62539E-14-2.81082E-14
 -1      2826 2.64866E+01-1.66908E+00-2.02848E-03 1.87698E+00 1.06333E-13 7.04608E-13
 -1      2827 2.62869E+01-2.23986E+00-1.94625E-02 1.28033E+00-2.95354E-14 5.92545E-13
 -1      2828 2.81365E+01 1.56163E+00-1.02086E-01 2.44958E+00 7.57547E-13 6.33292E-13
 -1      2829 2.81056E+01-1.77502E-01-1.17856E-01 2.37046E+00 4.66675E-13 7.12992E-13
 -1      2830 2.66815E+01 4.29636E+00-1.50562E-01 8.42530E-01 1.13082E-12 2.17817E-13
 -1      2831 2.67696E+01 3.46780E+00-1.41421E-01 1.94083E+00 1.00733E-12 4.95132E-13
 -1      2832 2.67567E+01 4.41575E+00-1.24507E-01-4.13801E-01 1.14786E-12-1.22430E-13
 -1      2833 2.66035E+01 1.50653E+00-1.44321E-01-2.82424E+00 7.23463E-13-7.81090E-13
 -1      2834 2.64031E+01 3.00547E+00-4.20953E-02-2.17576E+00 8.72247E-13-5.67671E-13
 -1      2835 2.66899E+01-1.21359E+00-7.94551E-02-2.49214E+00 2.71984E-13-8.97629E-13
 -1      2836 2.67033E+01 8.31543E-02-2.50464E-02-2.78783E+00 5.09211E-13-8.96137E-13
 -1      2837 2.58572E+01-2.35728E+00-2.32101E-03-1.02551E+00-5.20460E-14-7.10584E-13
 -1      2838 2.61299E+01-1.96783E+00-2.60109E-02-1.70644E+00 9.99045E-14-8.10758E-13
 -1      2839 2.69900E+01-1.99637E+00-3.31487E-02-1.81684E+00 1.52975E-13-9.21693E-13
 -1      2840 2.45765E+01-2.11115E+00 2.90137E-02 3.61469E-01-1.48802E-13-5.91901E-13
 -1      2841 2.49764E+01-2.34624E+00-2.73449E-02-2.37011E-01-4.91360E-14-6.19951E-13
 -1      2842 2.54310E+01-2.83735E+00-2.29194E-02-1.69193E-01-1.28068E-13-7.75830E-13
 -1      2843 2.33697E+01-1.36034E+00 2.68507E-02 1.23709E+00-1.33158E-13-4.82953E-13
 -1      2844 2.37690E+01-1.78095E+00-2.36469E-02 8.59758E-01-1.35565E-13-4.83503E-13
 -1      2845 2.37869E+01-2.35847E+00-3.58434E-02 1.06381E+00-1.84791E-13-6.22889E-13
 -1      2846 2.24631E+01-6.40127E-01 1.76366E-02 1.63381E+00-1.69312E-13-3.40622E-13
 -1      2847 2.28022E+01-1.00269E+00-1.28708E-02 1.45676E+00-1.54649E-13-4.32951E-13
 -1      2848 2.25263E+01-1.42013E+00-2.73505E-02 1.69438E+00-1.96675E-13-3.94340E-13
 -1      2849 2.18404E+01-1.33778E-01 8.91804E-03 1.71313E+00-7.98698E-14-2.26418E-13
 -1      2850 2.21107E+01-3.73683E-01-5.24185E-03 1.67574E+00-1.38466E-13-2.56464E-13
 -1      2851 2.17022E+01-6.05339E-01-1.76498E-02 1.89833E+00-2.16967E-13-2.22906E-13
 -1      2852 2.14184E+01 1.58853E-01 3.59387E-03 1.61452E+00 2.02736E-15-1.33826E-13
 -1      2853 2.16343E+01 2.69358E-02-4.81912E-04 1.65984E+00-8.67541E-15-1.10654E-13
 -1      2854 2.12041E+01-5.97637E-02-9.77794E-03 1.85286E+00-8.18693E-14-1.33374E-13
 -1      2855 2.11199E+01 2.95954E-01 7.81422E-04 1.43025E+00-4.27731E-14-1.06230E-13
 -1      2856 2.12966E+01 2.38332E-01 2.33182E-03 1.51685E+00-1.56320E-14-9.10680E-14
 -1      2857 2.09050E+01 2.43660E-01-4.47415E-03 1.68409E+00-1.27446E-14 3.38042E-14
 -1      2858 2.08951E+01 3.36923E-01-5.88831E-04 1.21604E+00-6.09944E-14 6.28605E-14
 -1      2859 2.10427E+01 3.23659E-01 3.73745E-03 1.31735E+00-5.84097E-14-1.63112E-14
 -1      2860 2.07142E+01 3.78089E-01-1.72685E-03 1.46358E+00-8.82905E-14 1.77775E-13
 -1      2861 2.07162E+01 3.25574E-01-1.11938E-03 1.00345E+00-5.07338E-14 7.39777E-14
 -1      2862 2.08406E+01 3.35729E-01 4.24219E-03 1.10400E+00 5.93731E-15 1.32149E-13
 -1      2863 2.05795E+01 4.10824E-01-5.52060E-04 1.23194E+00-7.06201E-14 2.21275E-13
 -1      2864 2.05693E+01 2.89776E-01-1.21588E-03 8.08877E-01-1.28783E-13 1.37196E-13
 -1      2865 2.06736E+01 3.10395E-01 4.21003E-03 9.00619E-01-1.12266E-13 5.13913E-14
 -1      2866 2.04743E+01 3.89254E-01-1.78579E-04 1.01152E+00-5.19880E-14 2.47547E-13
 -1      2867 2.04473E+01 2.45600E-01-1.11321E-03 6.39397E-01-1.16637E-14 9.84794E-14
 -1      2868 2.05338E+01 2.69355E-01 3.87825E-03 7.18926E-01-3.91547E-14 1.09862E-13
 -1      2869 2.03865E+01 3.43065E-01-1.50661E-04 8.13596E-01-3.45827E-14 1.17433E-13
 -1      2870 2.03464E+01 2.01513E-01-9.38139E-04 4.96697E-01-6.84444E-14 1.10301E-13
 -1      2871 2.04170E+01 2.24612E-01 3.40474E-03 5.63292E-01-5.57654E-15 1.25313E-13
 -1      2872 2.03112E+01 2.89208E-01-2.32614E-04 6.42688E-01-2.47918E-14 1.01633E-13
 -1      2873 2.02638E+01 1.61485E-01-7.53366E-04 3.79538E-01-1.12585E-13 1.94898E-14
 -1      2874 2.03205E+01 1.82198E-01 2.88909E-03 4.33900E-01-1.14131E-13 7.29303E-14
 -1      2875 2.02467E+01 2.36544E-01-3.18613E-04 4.99282E-01-5.27215E-14 1.41353E-13
 -1      2876 2.01972E+01 1.27003E-01-5.86580E-04 2.85275E-01-2.00278E-13 3.93231E-14
 -1      2877 2.02420E+01 1.44729E-01 2.38900E-03 3.28760E-01-8.94532E-14 4.44261E-14
 -1      2878 2.01920E+01 1.89169E-01-3.72077E-04 3.81651E-01-1.17137E-13 7.87959E-14
 -1      2879 2.01444E+01 9.82714E-02-4.46953E-04 2.10737E-01-1.33710E-14 1.03706E-13
 -1      2880 2.01792E+01 1.12985E-01 1.93464E-03 2.44924E-01-8.35961E-14 5.21545E-15
 -1      2881 2.01467E+01 1.48549E-01-3.88730E-04 2.86977E-01-1.07523E-13-1.15783E-14
 -1      2882 2.01033E+01 7.48835E-02-3.34962E-04 1.52725E-01-4.31052E-14-1.02059E-13
 -1      2883 2.01299E+01 8.68318E-02 1.53899E-03 1.79179E-01 1.67962E-14 1.13761E-14
 -1      2884 2.01098E+01 1.14789E-01-3.76040E-04 2.12055E-01 5.89860E-14 2.53708E-15
 -1      2885 2.00719E+01 5.61879E-02-2.47384E-04 1.08265E-01 5.50891E-14-1.44400E-13
 -1      2886 2.00918E+01 6.57222E-02 1.20459E-03 1.28421E-01 2.39281E-15-2.43081E-13
 -1      2887 2.00804E+01 8.73530E-02-3.43878E-04 1.53693E-01 1.30883E-13-1.10555E-13
 -1      2888 2.00483E+01 4.14744E-02-1.80075E-04 7.47212E-02 2.91773E-14-6.84061E-14
 -1      2889 2.00630E+01 4.89667E-02 9.28248E-04 8.98364E-02 2.72126E-14-1.62279E-13
 -1      2890 2.00574E+01 6.54484E-02-3.01500E-04 1.08930E-01 4.22419E-14-1.86099E-13
 -1      2891 2.00310E+01 3.00618E-02-1.29002E-04 4.98291E-02 3.22671E-13 8.85925E-14
 -1      2892 2.00416E+01 3.58647E-02 7.04184E-04 6.09734E-02 1.42828E-13 9.15039E-15
 -1      2893 2.00398E+01 4.82288E-02-2.55773E-04 7.51373E-02 5.53277E-14-2.09695E-13
 -1      2894 2.00186E+01 2.13361E-02-9.06880E-05 3.16915E-02 1.71778E-13 1.05278E-13
 -1      2895 2.00260E+01 2.57658E-02 5.25501E-04 3.97542E-02 3.98006E-13 1.28239E-13
 -1      2896 2.00266E+01 3.48880E-02-2.11160E-04 5.00516E-02 2.88133E-13-3.39258E-14
 -1      2897 2.00099E+01 1.47644E-02-6.22368E-05 1.87482E-02-1.54418E-13-2.97372E-14
 -1      2898 2.00150E+01 1.80945E-02 3.85172E-04 2.44551E-02 2.13263E-14 9.63188E-14
 -1      2899 2.00170E+01 2.47015E-02-1.70294E-04 3.17707E-02 8.86634E-14 2.11819E-13
 -1      2900 2.00041E+01 9.89547E-03-4.13451E-05 9.73752E-03-2.09774E-13-1.46905E-13
 -1      2901 2.00074E+01 1.23575E-02 2.76599E-04 1.36716E-02-1.95252E-13-1.12648E-13
 -1      2902 2.00101E+01 1.70414E-02-1.34474E-04 1.87267E-02-8.58608E-14 1.25577E-13
 -1      2903 2.00003E+01 6.35404E-03-2.62161E-05 3.65490E-03 1.25424E-13-4.60732E-13
 -1      2904 2.00023E+01 8.14041E-03 1.93869E-04 6.27760E-03-1.45622E-14-2.93267E-13
 -1      2905 2.00052E+01 1.13761E-02-1.04102E-04 9.64948E-03-6.48184E-14-2.13255E-13
 -1      2906 1.99981E+01 3.83232E-03-1.54684E-05-2.87425E-04 1.32740E-13-4.81521E-13
 -1      2907 1.99992E+01 5.10064E-03 1.31842E-04 1.38342E-03 1.34958E-13-4.75940E-13
 -1      2908 2.00020E+01 7.26408E-03-7.90211E-05 3.52629E-03 1.21188E-13-6.19977E-13
 -1      2909 1.99969E+01 2.08081E-03-8.05856E-06-2.69725E-03 8.13824E-15-1.98367E-13
 -1      2910 1.99974E+01 2.95886E-03 8.61637E-05-1.70260E-03 9.18440E-14-3.28355E-13
 -1      2911 2.00000E+01 4.34301E-03-5.87625E-05-4.37485E-04-4.62033E-15-5.03888E-13
 -1      2912 1.99964E+01 8.99099E-04-3.21379E-06-4.03508E-03-2.20375E-13-1.17997E-14
 -1      2913 1.99965E+01 1.48952E-03 5.32156E-05-3.50928E-03-8.93551E-14-1.44281E-13
 -1      2914 1.99988E+01 2.31937E-03-4.27194E-05-2.85504E-03-8.04808E-14-4.38361E-13
 -1      2915 1.99964E+01 1.26984E-04-3.70240E-07-4.64210E-03-6.88415E-14 1.10096E-13
 -1      2916 1.99962E+01 5.11927E-04 3.00668E-05-4.43294E-03-2.13830E-13-7.79387E-14
 -1      2917 1.99981E+01 9.57257E-04-3.02487E-05-4.19069E-03-2.21085E-13-3.86439E-13
 -1      2918 1.99967E+01-3.63476E-04 9.30103E-07-4.76337E-03-3.45137E-13 2.47421E-13
 -1      2919 1.99964E+01-1.18358E-04 1.44129E-05-4.76292E-03-8.36119E-14 2.02919E-13
 -1      2920 1.99979E+01 6.78774E-05-2.07195E-05-4.78787E-03-2.20779E-13-7.18856E-14
 -1      2921 1.99971E+01-6.75062E-04 9.80697E-07-4.56746E-03-3.45603E-13-6.29044E-14
 -1      2922 1.99968E+01-5.16824E-04 4.43283E-06-4.70298E-03-3.22298E-13 1.39390E-13
 -1      2923 1.99979E+01-4.99294E-04-1.34303E-05-4.89267E-03-2.89014E-13 6.90605E-14
 -1      2924 1.99977E+01-8.92337E-04-5.93174E-07-4.16235E-03-9.78185E-14-8.40555E-14
 -1      2925 1.99973E+01-7.77565E-04-1.47466E-06-4.38895E-03-3.02443E-13-8.20881E-15
 -1      2926 1.99981E+01-8.65889E-04-8.14314E-06-4.67424E-03-2.45942E-13-2.09913E-13
 -1      2927 1.99982E+01-1.07982E-03-5.52337E-06-3.60522E-03-2.90649E-13 4.05028E-14
 -1      2928 1.99978E+01-9.80347E-04-6.21812E-06-3.89962E-03-1.91645E-13-3.78124E-14
 -1      2929 1.99984E+01-1.12866E-03-2.65833E-06-4.24141E-03-1.93280E-13 8.13185E-14
 -1      2930 1.99988E+01-1.36009E-03-9.85900E-06-3.05268E-03-4.27014E-14-1.84097E-14
 -1      2931 1.99984E+01-1.24973E-03-1.14685E-05-3.41049E-03-1.70182E-13-6.32770E-14
 -1      2932 1.99989E+01-1.42248E-03 1.02452E-05-3.75079E-03-1.72444E-13 5.33931E-15
 -1      2933 1.99993E+01-1.81768E-03 1.46449E-05-3.25966E-03 3.48604E-14-3.86034E-14
 -1      2934 2.00018E+01-3.89540E-03 8.05971E-06-2.61504E-04-5.25281E-17 9.66370E-14
 -1      2935 2.00017E+01-3.84981E-03 5.21859E-06-7.59228E-04-8.50369E-14-1.05781E-13
 -1      2936 1.99989E+01-1.50196E-03-6.17170E-06 3.40108E-03 3.16763E-13-1.25602E-13
 -1      2937 1.99991E+01-1.58382E-03-2.17201E-06 3.15018E-03 1.76986E-13 7.86768E-14
 -1      2938 1.99994E+01-1.71783E-03-2.65709E-06 3.68803E-03 4.06103E-13-3.96872E-13
 -1      2939 2.00013E+01-3.46828E-03 1.26475E-05-2.20031E-03 1.84527E-14-1.08042E-13
 -1      2940 2.00010E+01-3.24711E-03-2.76459E-06-2.55382E-03 2.22323E-13-2.31005E-13
 -1      2941 2.00017E+01-3.84227E-03 5.09423E-06 7.91795E-04 2.21224E-13-1.48724E-14
 -1      2942 2.00018E+01-3.89229E-03 8.20368E-06 2.95305E-04 1.86506E-13-3.73726E-14
 -1      2943 2.00022E+01-3.53025E-03-7.06881E-06 1.92883E-05 2.37855E-13 9.12535E-14
 -1      2944 2.00016E+01-3.76928E-03 1.06687E-05-1.29210E-03-2.68587E-13-3.27799E-13
 -1      2945 2.00015E+01-3.63148E-03 1.39532E-06-1.74217E-03-1.08451E-13 8.79444E-14
 -1      2946 2.00017E+01-3.23838E-03-6.99357E-06-2.12330E-03-1.57265E-13-1.69606E-13
 -1      2947 2.00021E+01-3.45997E-03-7.10444E-06-1.10209E-03-5.55872E-14-1.01726E-13
 -1      2948 2.00015E+01-3.61982E-03 1.20740E-06 1.75304E-03 5.13724E-14-1.95313E-13
 -1      2949 2.00016E+01-3.75813E-03 1.05947E-05 1.31342E-03 1.18676E-13-3.71227E-14
 -1      2950 2.00021E+01-3.45005E-03-7.02696E-06 1.12869E-03 2.63994E-13-1.74504E-13
 -1      2951 2.00010E+01-3.23189E-03-3.06688E-06 2.55822E-03 8.35860E-14-2.09482E-13
 -1      2952 2.00013E+01-3.45389E-03 1.25230E-05 2.20767E-03-1.47026E-14-9.50635E-14
 -1      2953 2.00017E+01-3.22231E-03-6.72112E-06 2.13462E-03 3.05015E-14-2.00572E-13
 -1      2954 2.00004E+01-2.69867E-03-3.85459E-06 3.08953E-03 2.57921E-13-1.66026E-13
 -1      2955 2.00007E+01-2.99138E-03 1.19455E-05 2.88701E-03 2.57681E-13 1.26174E-15
 -1      2956 2.00011E+01-2.84851E-03-4.29681E-06 2.94524E-03 1.97365E-13-6.35178E-14
 -1      2957 2.46779E+01-4.90962E+00-9.34734E-02 3.85815E+00 1.15560E-13 5.76622E-15
 -1      2958 2.16284E+01-4.94920E+00 8.29952E-02 5.29906E+00 3.76379E-13-2.84947E-13
 -1      2959 2.08158E+01 2.15228E+00-3.41517E-03-5.26868E-01-5.03177E-13-7.20046E-13
 -1      2960 1.46076E+01-3.67329E+00 1.07264E-01-6.29899E+00 7.55160E-13 6.95888E-13
 -1      2961 1.77430E+01-4.87582E+00 5.55886E-02-6.54586E+00 7.83928E-13 4.37303E-13
 -1      2962 7.90509E+00-1.24018E+00 2.12747E-01-3.64687E+00 3.90230E-13 1.26066E-12
 -1      2963 1.03461E+01-2.13494E+00 6.27942E-02-5.29193E+00 5.22471E-13 1.11028E-12
 -1      2964 1.79418E+01-4.59863E+00 1.38139E-01-5.99698E+00-6.79748E-13-9.10258E-13
 -1      2965 2.17713E+01-5.25294E+00-3.09934E-02-5.03337E+00-5.96717E-13-4.78204E-13
 -1      2966 2.97147E+01 5.99093E+00-1.79094E-01-8.38802E-01 1.53622E-12-2.78149E-13
 -1      2967 2.99532E+01 5.24595E+00-1.82444E-01-1.75777E+00 1.47046E-12-5.22693E-13
 -1      2968 2.63086E+01-4.27327E+00 5.06739E-02-2.35994E+00 3.84859E-13-7.73936E-13
 -1      2969 2.76605E+01-3.27532E+00-1.74177E-01-9.70513E-01 9.64957E-14-9.45952E-13
 -1      2970 2.23373E+01-3.09944E-01-5.00198E-03-1.50571E+00 1.19483E-13 4.27995E-14
 -1      2971 2.21171E+01 3.71617E-02 1.91407E-02-1.48416E+00 2.01476E-13 5.86036E-14
 -1      2972 2.14086E+01 2.80310E-01-1.21436E-02-1.54244E+00 2.41963E-13-1.41330E-13
 -1      2973 2.18796E+01-5.55592E-01-2.19794E-02-1.78819E+00 6.49785E-14-1.38787E-13
 -1      2974 8.82150E+00-2.01161E+00 4.18572E-02 4.44444E+00-3.62349E-13 7.52842E-13
 -1      2975 6.89982E+00-1.25380E+00 1.78376E-01 2.53601E+00-1.38715E-13 1.18008E-12
 -1      2976 2.53779E+01-2.40855E+00-2.51817E-02 4.56656E-01-1.17136E-13 4.57620E-13
 -1      2977 2.49699E+01-2.28151E+00 2.91525E-02-1.73941E-01-1.54509E-13 3.62634E-13
 -1      2978 2.42376E+01-2.58045E+00-2.46852E-02-9.52621E-01-2.20631E-13 1.95962E-13
 -1      2979 2.60038E+01-2.91060E+00-4.12592E-02 3.74095E-01-1.69489E-13 4.41522E-13
 -1      2980 2.15614E+01 7.80852E-01 7.79996E-03-6.01071E-02-4.31314E-13-4.16409E-13
 -1      2981 2.15915E+01 4.41538E-01-7.98701E-03 1.29604E-01-3.71743E-13-3.72891E-13
 -1      2982 2.14416E+01 3.77427E-01-9.07021E-03 2.78528E-01-3.08955E-13-4.16735E-13
 -1      2983 1.79296E+01 3.48932E+00-4.50276E-04-1.17542E-01 5.70404E-13-8.44773E-13
 -1      2984 1.75201E+01 3.63489E+00-1.17081E-02-6.26678E-02 4.95852E-13-9.25924E-13
 -1      2985 1.73152E+01 3.46178E+00 1.09507E-02-9.40204E-02 4.49389E-13-8.99462E-13
 -1      2986 1.81543E+01 3.07018E+00 6.85158E-03-3.67831E-01 5.27076E-13-7.59780E-13
 -1      2987 1.59276E+01-4.26325E+00-2.09075E-02 6.07145E+00-6.09818E-13 8.96921E-14
 -1      2988 1.24092E+01-2.90259E+00 1.97833E-01 5.53817E+00-5.89861E-13 4.40592E-13
 -1      2989 2.07039E+01-5.19735E+00 7.38341E-02-5.61313E+00 7.63903E-13 5.72806E-15
 -1      2990 2.40407E+01-5.19992E+00-1.08260E-01-4.14920E+00 5.72278E-13-5.57721E-13
 -1      2991 2.52131E+01-4.56615E+00 5.83723E-02-2.74523E+00 5.69544E-13-6.88428E-13
 -1      2992 2.06529E+01-4.71073E+00 9.06404E-02-5.20839E+00 8.65044E-13-1.29823E-13
 -1      2993 1.86050E+01 2.92212E+00-1.05148E-02 4.84403E-01-2.21917E-14-1.01697E-12
 -1      2994 1.90613E+01 2.73537E+00 1.96611E-03 3.56576E-01-1.15013E-13-9.87448E-13
 -1      2995 2.90592E+01 1.57256E+00-1.68656E-01-1.59570E+00-9.60898E-13 9.62841E-14
 -1      2996 2.90718E+01-4.09909E-01-4.91480E-02-8.46192E-01-6.98899E-13 1.77136E-13
 -1      2997 3.05584E+01-6.37930E-01-1.60054E-01-1.30916E+00 8.25506E-13-8.90954E-13
 -1      2998 2.93648E+01-2.48445E+00-1.52326E-02-3.46625E-01 5.61017E-13-9.38555E-13
 -1      2999 6.42199E+00-5.29705E-01 1.44353E-01 1.67475E+00 2.24178E-13-1.68823E-12
 -1      3000 5.90310E+00-5.93206E-01 1.74542E-01-4.83497E-01 5.46230E-14-1.80228E-12
 -1      3001 1.75534E+01-4.35861E+00 9.08821E-03 6.39022E+00 5.98757E-13-6.74460E-13
 -1      3002 1.38946E+01-3.44822E+00 1.94104E-01 6.47350E+00 6.19893E-13-1.06325E-12
 -1      3003 2.54068E+01-5.03251E+00 3.80401E-02-3.04768E+00-4.04385E-13-6.05072E-14
 -1      3004 2.79250E+01-4.04433E+00-9.17230E-02-1.02162E+00-1.28314E-13 2.60680E-13
 -1      3005 1.11767E+01-2.70222E+00 1.59041E-01-5.52340E+00-5.31450E-13-1.53721E-12
 -1      3006 1.39420E+01-3.72134E+00-3.85634E-03-6.28056E+00-5.79370E-13-1.28626E-12
 -1      3007 1.99994E+01-1.92119E-03-3.67002E-06 3.22304E-03 2.66951E-13-5.90178E-14
 -1      3008 2.81972E+01-2.44608E+00-1.50394E-01 3.90424E-01-4.01040E-13 2.10915E-13
 -1      3009 2.70165E+01-3.69381E+00 6.31613E-02 1.74472E+00-6.28603E-14 1.71307E-13
 -1      3010 6.54868E+00-1.02195E+00 1.45908E-01-2.39564E+00-2.01297E-13-1.80966E-12
 -1      3011 8.61088E+00-1.75872E+00 1.09040E-01-4.49322E+00-3.30222E-13-1.71138E-12
 -1      3012 8.24683E+00-5.36889E-02 1.83421E-01-1.51814E+00-6.87159E-14-1.67036E-12
 -1      3013 5.96959E+00-9.19109E-01 1.49224E-01 6.87195E-01 8.42659E-14 1.31994E-12
 -1      3014 6.23404E+00-8.88598E-01 1.06848E-01-1.74593E+00 2.22683E-13 1.25658E-12
 -1      3015 8.19989E+00-3.84420E-01 2.01692E-01 1.44784E+00-9.97258E-14 1.11777E-12
 -1      3016 2.82908E+01 6.42637E+00-1.88676E-01 7.42771E-01-1.53638E-12-8.29135E-13
 -1      3017 2.83757E+01 6.59485E+00-1.77208E-01-1.90579E-01-1.57424E-12-6.72622E-13
 -1      3018 2.89077E+01 4.07798E+00-8.68588E-02 1.98822E+00-1.04916E-12-1.22115E-12
 -1      3019 2.86425E+01 5.57828E+00-2.05959E-01 1.45810E+00-1.32896E-12-1.05053E-12
 -1      3020 2.28480E+01-5.54136E+00-6.17482E-02 4.45971E+00-3.98792E-13-3.87117E-13
 -1      3021 2.00266E+01-4.98784E+00 1.40002E-01 5.29644E+00-6.00908E-13-2.31266E-13
 -1      3022 1.95196E+01 2.48171E+00-7.57283E-03 2.10437E-01-1.79570E-13-9.23801E-13
 -1      3023 1.99734E+01 2.26611E+00-6.34498E-03 3.98821E-02-2.83055E-13-8.78698E-13
 -1      3024 1.94163E+01 2.18859E+00-2.81526E-03 4.85670E-01-1.22244E-13-8.76714E-13
 -1      3025 1.70731E+01 3.47071E+00 8.88142E-03 5.92573E-01 2.71504E-13-1.01159E-12
 -1      3026 1.71910E+01 3.66459E+00-1.19771E-02 5.61137E-01 2.51944E-13-1.06064E-12
 -1      3027 1.74534E+01 3.56012E+00 4.59068E-03 5.83784E-01 1.74599E-13-1.06553E-12
 -1      3028 2.08706E+01 1.86524E+00-7.19622E-03-2.82416E-01 6.59645E-13-2.34281E-13
 -1      3029 2.46776E+01-4.90915E+00 6.20339E-02 2.83888E+00-3.74631E-13-5.91950E-13
 -1      3030 2.92845E+01 4.05377E+00-1.46660E-01-2.14339E+00 1.26874E-12-6.14092E-13
 -1      3031 1.20385E+01-1.87224E+00 1.69843E-01 4.62728E+00-4.91468E-13 4.36928E-13
 -1      3032 2.00012E+01-2.87285E-03-6.21197E-06-2.93917E-03 1.03347E-13-4.24568E-13
 -1      3033 2.00008E+01-3.00801E-03 1.35675E-05-2.88560E-03 2.13790E-13-4.19983E-13
 -1      3034 2.00004E+01-2.71776E-03-4.79514E-06-3.09336E-03 1.69321E-13-7.84417E-13
 -1      3035 2.77610E+01 2.11148E+00-9.60245E-02 2.05889E+00-7.32817E-13-1.23442E-12
 -1      3036 2.86427E+01-1.29117E+00-1.09782E-01 1.61887E+00 3.21014E-13 6.09263E-13
 -1      3037 2.77025E+01 7.83249E-01-7.54981E-02-2.80394E+00 6.69909E-13-9.40817E-13
 -1      3038 2.56257E+01-4.21711E+00-4.03382E-03 2.34919E+00 1.96967E-13 1.21465E-13
 -1      3039 2.00001E+01-2.46057E-03 1.34512E-05-3.23790E-03 4.47605E-14-7.05191E-13
 -1      3040 1.99997E+01-2.12227E-03-7.81408E-06-3.26642E-03 1.03516E-13-3.76775E-13
 -1      3041 1.99995E+01-1.90973E-03-1.22501E-05-3.55712E-03-1.66658E-13-2.39724E-13
 -1      3042 2.00004E+01-2.42006E-03-7.75080E-06-3.42439E-03 4.50609E-14-7.12012E-13
 -1      3043 8.65880E+00-4.96851E-01 1.83337E-01-2.43084E+00 2.08680E-13 1.16451E-12
 -1      3044 2.75664E+01 3.63537E+00-1.29551E-01-2.03534E+00-1.07257E-12-2.34951E-14
 -1      3045 2.86046E+01 2.62632E+00-1.30022E-01-1.95322E+00-1.04049E-12 3.48194E-14
 -1      3046 2.77075E+01 1.28105E+00-5.37605E-02-1.90307E+00-7.44016E-13 2.23203E-13
 -1      3047 2.17499E+01-4.45438E+00-4.52673E-02 4.51934E+00 5.68913E-13-1.52694E-13
 -1      3048 2.00633E+01-4.52230E+00 8.00612E-02 5.64191E+00 5.63077E-13-4.64708E-13
 -1      3049 1.83866E+01-3.46943E+00 7.99098E-02 5.51853E+00 6.58459E-13-5.52988E-13
 -1      3050 1.99998E+01-2.26796E-03 2.99287E-06 3.20143E-03 3.08448E-13-2.30636E-13
 -1      3051 2.82622E+01-3.27238E+00-1.54785E-02-2.18169E-01 2.08316E-13-9.48630E-13
 -1      3052 1.13094E+01-1.48969E+00 1.75700E-01-4.59114E+00-4.34291E-13-1.51815E-12
 -1      3053 2.05194E+01 1.97824E+00 4.47691E-04-1.54512E-01-3.58040E-13-7.67675E-13
 -1      3054 2.12439E+01 1.49406E+00-6.19770E-03-3.79769E-01-5.12025E-13-5.93522E-13
 -1      3055 2.13661E+01 1.05738E+00-3.75040E-03-1.38791E-01-4.61962E-13-4.99300E-13
 -1      3056 2.04408E+01 1.65509E+00 2.41096E-03 1.46010E-01-2.92075E-13-7.34304E-13
 -1      3057 2.40644E+01-5.10797E+00 3.74947E-02-3.73439E+00-5.47756E-13-1.94303E-13
 -1      3058 2.52152E+01-4.50368E+00-1.64189E-02-2.11371E+00-5.30530E-13 1.38282E-13
 -1      3059 2.24616E+01-4.39000E+00 1.30851E-01-4.11316E+00-6.40238E-13-2.77492E-13
 -1      3060 1.99998E+01-1.97206E-03 1.17975E-06 3.57091E-03 3.27286E-13-3.52600E-13
 -1      3061 2.00002E+01-2.43286E-03 1.10905E-06 3.31121E-03 3.03681E-13-2.50143E-13
 -1      3062 2.00005E+01-2.35308E-03-1.49510E-07 3.47593E-03 3.91872E-13-1.27786E-13
 -1      3063 1.99998E+01-1.85144E-03 2.99115E-07 3.78453E-03 3.94420E-13-2.71871E-13
 -1      3064 7.65217E+00-5.00406E-01 1.99520E-01 2.74942E+00 3.51393E-13-1.60466E-12
 -1      3065 8.43870E+00 3.19071E-01 1.35688E-01 1.51659E+00 2.42240E-13-1.50566E-12
 -1      3066 9.01016E+00-6.92651E-01 4.98735E-02 3.75155E+00 4.84612E-13-1.43194E-12
 -1      3067 2.86489E+01 5.58401E+00-1.01679E-01-2.39103E-01 1.42947E-12-5.85088E-14
 -1      3068 1.34263E+01-2.64382E+00 1.77076E-01-5.79998E+00 6.31648E-13 8.38954E-13
 -1      3069 1.62496E+01-3.20655E+00 4.78344E-02-5.62807E+00 7.87682E-13 3.31547E-13
 -1      3070 1.25028E+01-1.66476E+00 9.76726E-02-4.91610E+00 5.25371E-13 8.38052E-13
 -1      3071 1.29172E+01-2.45530E+00 1.62359E-01 5.83606E+00 6.19144E-13-1.14224E-12
 -1      3072 2.98289E+01 3.66830E-01-1.19057E-01-2.23102E+00 8.12517E-13-8.89649E-13
 -1      3073 1.70996E+01-3.64711E+00 1.33214E-01-5.63039E+00-6.62789E-13-9.90562E-13
 -1      3074 1.77828E+01 3.33492E+00-1.24377E-02 6.13167E-01 1.20196E-13-1.03851E-12
 -1      3075 1.81799E+01 3.18023E+00 5.27827E-03 5.57584E-01 3.43892E-14-1.03797E-12
 -1      3076 1.84703E+01 2.67213E+00-1.54665E-03 7.13157E-01 1.76338E-14-9.58511E-13
 -1      3077 1.76344E+01 3.12824E+00 3.05390E-03 7.59125E-01 1.53540E-13-1.00270E-12
 -1      3078 2.75820E+01-2.08578E+00-3.39172E-02 3.71416E-01 1.30070E-14-1.17882E-12
 -1      3079 2.05781E+01 1.70718E+00 4.69881E-04-6.23376E-01 5.65063E-13-3.11081E-13
 -1      3080 2.78592E+01-1.60520E+00-3.06630E-02-7.02365E-01-3.00111E-13 2.66676E-13
 -1      3081 1.87150E+01-4.08302E+00 1.18883E-01 5.14009E+00-6.52381E-13-1.39437E-13
 -1      3082 2.11394E+01 1.06743E+00 3.68235E-03 4.51291E-02-3.66505E-13-5.44947E-13
 -1      3083 2.70176E+01 5.25932E+00-1.26626E-01 1.20410E+00-1.23318E-12-8.78964E-13
 -1      3084 2.55354E+01-4.66923E+00-1.01331E-01 1.72618E+00-3.12660E-13-7.07663E-13
 -1      3085 2.36101E+01-4.48624E+00 1.07948E-01 3.04776E+00-5.09252E-13-5.94268E-13
 -1      3086 1.96326E+01 2.00481E+00 4.33509E-03-8.00159E-01 5.12715E-13-5.10346E-13
 -1      3087 1.89299E+01 2.31423E+00-1.22051E-02-7.77498E-01 4.87768E-13-6.03992E-13
 -1      3088 2.99314E+01 3.90036E+00-1.57470E-01 1.95265E+00 1.21636E-12 3.51455E-13
 -1      3089 2.84776E+01 4.32725E+00-1.42199E-01 1.65540E+00 1.23832E-12 3.91583E-13
 -1      3090 2.14874E+01-6.21179E-02 1.66644E-02 6.23507E-01-1.70204E-13-4.03039E-13
 -1      3091 2.16745E+01-4.55274E-01-7.74692E-03 6.49479E-01-1.17040E-13-3.65375E-13
 -1      3092 2.75132E+01 5.76488E+00-1.08279E-01-7.37311E-01-1.40013E-12-4.64250E-13
 -1      3093 2.20495E+01-8.13376E-01 2.15300E-02 6.36741E-01-8.16135E-14-2.47792E-13
 -1      3094 2.22885E+01-1.16456E+00-1.12866E-02 5.22077E-01-5.85983E-14-2.40865E-13
 -1      3095 2.16023E+01-6.87886E-01-1.98842E-02 9.02398E-01-5.32878E-14-3.63717E-13
 -1      3096 2.27795E+01-1.44684E+00 2.20996E-02 3.31482E-01-5.13678E-14-1.47356E-13
 -1      3097 2.30383E+01-1.66879E+00-1.70831E-02 6.97199E-02-6.20352E-14-1.33264E-13
 -1      3098 2.24062E+01-1.49454E+00-2.07623E-02 7.55329E-01-1.38529E-14-2.26749E-13
 -1      3099 2.35850E+01-1.74164E+00 1.52669E-02-3.25458E-01-7.34183E-14-2.62850E-14
 -1      3100 2.37823E+01-1.66450E+00-1.87358E-02-6.86014E-01-9.43681E-14-2.09949E-14
 -1      3101 2.34096E+01-2.01376E+00-1.61804E-02 2.16766E-01-2.21698E-14-3.34613E-14
 -1      3102 2.42261E+01-1.36990E+00-1.02796E-02-1.20989E+00-1.09037E-13 4.86703E-14
 -1      3103 2.42922E+01-7.92203E-01-5.28564E-03-1.54141E+00-2.18592E-13 1.03898E-13
 -1      3104 2.44036E+01-1.86124E+00-1.18025E-02-6.78817E-01-9.14026E-14 1.28809E-13
 -1      3105 2.43737E+01 5.66454E-03-5.15136E-02-1.89489E+00-3.23136E-13 1.28906E-13
 -1      3106 2.43001E+01 9.89929E-01 2.33140E-03-1.91728E+00-4.29191E-13 1.20918E-13
 -1      3107 2.50550E+01-5.45443E-01 5.92713E-03-1.68336E+00-2.46209E-13 2.46820E-13
 -1      3108 2.36879E+01 3.45462E+00-7.55619E-02-4.47173E-01-8.01807E-13-2.37734E-13
 -1      3109 2.37215E+01 3.58661E+00-3.47172E-02 2.77920E-01-8.17013E-13-3.88524E-13
 -1      3110 2.41915E+01 1.45666E+00 6.91648E-03 2.07658E+00-4.92474E-13-8.65448E-13
 -1      3111 2.43082E+01 3.85757E-01-5.41723E-02 2.14024E+00-3.77929E-13-8.69653E-13
 -1      3112 2.42464E+01-5.12212E-01-1.17106E-02 1.83684E+00-2.89406E-13-8.84999E-13
 -1      3113 2.42090E+01-1.20875E+00-2.35694E-02 1.55852E+00-1.66501E-13-9.05474E-13
 -1      3114 2.49990E+01-1.89827E-01-3.21042E-02 2.02136E+00-3.48326E-13-9.60242E-13
 -1      3115 2.38534E+01-1.65532E+00-8.34558E-03 9.92141E-01-5.79732E-14-8.55724E-13
 -1      3116 2.36268E+01-1.87602E+00 6.06785E-03 5.91592E-01 3.28087E-14-8.18804E-13
 -1      3117 2.45086E+01-1.81271E+00 5.96668E-03 1.06998E+00-9.12256E-14-8.54573E-13
 -1      3118 2.30845E+01-1.90978E+00-1.33265E-02 1.23950E-01 6.58544E-14-6.41135E-13
 -1      3119 2.27967E+01-1.80072E+00 1.94711E-02-2.23404E-01 9.09424E-14-5.55209E-13
 -1      3120 2.34708E+01-2.25141E+00-1.94164E-02 2.28812E-02 9.90731E-14-6.91321E-13
 -1      3121 2.22684E+01-1.61943E+00-1.02901E-02-5.26500E-01 6.33528E-14-4.71147E-13
 -1      3122 2.19796E+01-1.37323E+00 1.84839E-02-7.58995E-01 1.29078E-13-3.94663E-13
 -1      3123 2.24288E+01-1.99211E+00-1.93598E-02-7.36315E-01 1.76715E-13-4.63646E-13
 -1      3124 2.15697E+01-1.12739E+00-4.40279E-03-9.04717E-01 6.80878E-14-3.76895E-13
 -1      3125 2.13220E+01-8.72449E-01 1.37837E-02-1.03154E+00 3.54393E-14-4.01207E-13
 -1      3126 2.15393E+01-1.42407E+00-1.84014E-02-1.13037E+00 1.05345E-13-4.15311E-13
 -1      3127 2.10399E+01-6.47129E-01-7.83811E-04-1.07292E+00 3.87537E-14-3.28432E-13
 -1      3128 2.08489E+01-4.38284E-01 8.94377E-03-1.12117E+00 5.44617E-14-3.48679E-13
 -1      3129 2.08981E+01-8.45296E-01-1.42428E-02-1.27111E+00 6.81966E-14-3.97082E-13
 -1      3130 2.06713E+01-2.65114E-01 1.04183E-03-1.10145E+00 3.27595E-14-3.34073E-13
 -1      3131 2.05325E+01-1.16286E-01 5.15008E-03-1.09767E+00 1.05216E-13-3.37030E-13
 -1      3132 2.04775E+01-3.75395E-01-9.69597E-03-1.25975E+00 7.12802E-14-2.71748E-13
 -1      3133 2.04294E+01 1.29892E-03 1.77187E-03-1.04580E+00 7.41110E-14-3.42123E-13
 -1      3134 2.03315E+01 9.54876E-02 2.51135E-03-1.01056E+00 6.29198E-14-4.03443E-13
 -1      3135 2.02227E+01-4.21858E-02-6.03445E-03-1.16711E+00 6.93644E-14-3.00731E-13
 -1      3136 2.02771E+01 1.66060E-01 1.97659E-03-9.44197E-01 1.74081E-13-3.67111E-13
 -1      3137 2.02084E+01 2.17542E-01 8.19636E-04-8.92178E-01 1.87809E-13-2.61957E-13
 -1      3138 2.00802E+01 1.68384E-01-3.48119E-03-1.03635E+00 1.48711E-13-2.63863E-13
 -1      3139 2.01838E+01 2.52941E-01 1.96015E-03-8.21809E-01 6.83846E-14-2.08657E-13
 -1      3140 2.01350E+01 2.74162E-01-1.80540E-04-7.62998E-01 4.05021E-14-1.87487E-13
 -1      3141 2.00085E+01 2.83733E-01-1.83111E-03-8.92542E-01 1.63743E-13-1.77632E-13
 -1      3142 2.01272E+01 2.85509E-01 1.85288E-03-6.94737E-01 7.43256E-14-1.76474E-13
 -1      3143 2.00916E+01 2.87005E-01-7.14920E-04-6.35628E-01 8.33573E-14-8.01540E-14
 -1      3144 1.99783E+01 3.31639E-01-8.50925E-04-7.50073E-01 1.07799E-13-2.14866E-14
 -1      3145 2.00926E+01 2.83235E-01 1.70780E-03-5.72898E-01 3.51975E-14-1.25926E-13
 -1      3146 2.00659E+01 2.73010E-01-9.47665E-04-5.17477E-01 1.15131E-13-4.33227E-14
 -1      3147 1.99706E+01 3.35499E-01-3.03402E-04-6.17016E-01 9.41264E-14 4.17392E-14
 -1      3148 2.00708E+01 2.60702E-01 1.54044E-03-4.62013E-01 1.94569E-13-1.09534E-13
 -1      3149 2.00502E+01 2.44432E-01-9.97653E-04-4.12477E-01 2.00115E-13 1.44283E-14
 -1      3150 1.99739E+01 3.13031E-01-2.77012E-05-4.97675E-01 1.25323E-13 3.07518E-14
 -1      3151 2.00562E+01 2.28125E-01 1.36061E-03-3.64903E-01 1.14645E-13-4.09971E-14
 -1      3152 2.00400E+01 2.09590E-01-9.42959E-04-3.22203E-01-1.11571E-14-7.78493E-14
 -1      3153 1.99814E+01 2.76845E-01 8.83227E-05-3.93934E-01 1.48398E-13-1.26677E-13
 -1      3154 2.00457E+01 1.92217E-01 1.17781E-03-2.82426E-01-1.15080E-13-9.45335E-15
 -1      3155 2.00328E+01 1.73775E-01-8.34873E-04-2.46688E-01-1.52288E-13-4.81091E-14
 -1      3156 1.99895E+01 2.35381E-01 1.17451E-04-3.06070E-01-1.25322E-14-1.57893E-13
 -1      3157 2.00375E+01 1.57107E-01 9.99006E-04-2.14177E-01-1.61924E-13 1.66102E-15
 -1      3158 2.00273E+01 1.40108E-01-7.05704E-04-1.85013E-01-5.74662E-14 4.23247E-14
 -1      3159 1.99966E+01 1.93952E-01 1.07222E-04-2.33346E-01-6.86166E-14 9.39000E-14
 -1      3160 2.00309E+01 1.25106E-01 8.30903E-04-1.58986E-01-1.39891E-13-5.43706E-14
 -1      3161 2.00227E+01 1.10211E-01-5.75675E-04-1.35719E-01-1.70836E-13-1.21782E-13
 -1      3162 2.00019E+01 1.55619E-01 7.87854E-05-1.74403E-01-1.62109E-13 3.18896E-14
 -1      3163 2.00253E+01 9.72925E-02 6.78474E-04-1.15288E-01-6.28746E-14-1.22163E-13
 -1      3164 2.00188E+01 8.47212E-02-4.55702E-04-9.71161E-02 1.76666E-14-9.81629E-14
 -1      3165 2.00056E+01 1.21925E-01 4.87422E-05-1.27554E-01-8.32381E-14-3.21223E-14
 -1      3166 2.00205E+01 7.39675E-02 5.43707E-04-8.13859E-02-4.83733E-14-4.95865E-14
 -1      3167 2.00154E+01 6.36712E-02-3.51243E-04-6.74836E-02-1.53053E-13-8.79462E-14
 -1      3168 2.00077E+01 9.33973E-02 2.20872E-05-9.10225E-02-6.51046E-15-1.63854E-13
 -1      3169 2.00164E+01 5.49666E-02 4.27709E-04-5.56085E-02-1.69550E-13 3.58502E-14
 -1      3170 2.00125E+01 4.67476E-02-2.63818E-04-4.51929E-02 3.18644E-16 8.97066E-14
 -1      3171 2.00087E+01 6.99623E-02 1.29980E-06-6.30740E-02-3.70750E-14 4.21643E-14
 -1      3172 2.00129E+01 3.98723E-02 3.30259E-04-3.64113E-02-1.12586E-14 1.17823E-13
 -1      3173 2.00099E+01 3.34625E-02-1.92952E-04-2.87786E-02-5.19493E-14 1.47799E-15
 -1      3174 2.00088E+01 5.11998E-02-1.32301E-05-4.21072E-02-4.36179E-14 1.42983E-13
 -1      3175 2.00100E+01 2.81541E-02 2.50148E-04-2.24296E-02-1.00904E-13-3.65283E-14
 -1      3176 2.00078E+01 2.32652E-02-1.37069E-04-1.69711E-02-7.60368E-14-4.59258E-15
 -1      3177 2.00083E+01 3.65231E-02-2.22234E-05-2.67035E-02-1.08861E-13-1.30116E-14
 -1      3178 2.00076E+01 1.92564E-02 1.85608E-04-1.24973E-02-1.13877E-13-1.54959E-13
 -1      3179 2.00060E+01 1.56099E-02-9.41069E-05-8.70271E-03-1.49282E-13-3.42627E-13
 -1      3180 2.00075E+01 2.52933E-02-2.67952E-05-1.56461E-02-1.11548E-13 1.58594E-14
 -1      3181 2.00057E+01 1.26504E-02 1.34610E-04-5.64609E-03-6.56640E-14-1.72797E-13
 -1      3182 2.00045E+01 9.99330E-03-6.18983E-05-3.09866E-03 2.38614E-14 2.64501E-14
 -1      3183 2.00065E+01 1.68881E-02-2.80993E-05-7.91869E-03-3.75659E-15 1.13694E-13
 -1      3184 2.00041E+01 7.86029E-03 9.50812E-05-1.09126E-03 4.42204E-14 5.34961E-14
 -1      3185 2.00033E+01 5.97241E-03-3.83930E-05 5.41313E-04 1.02026E-13 4.14476E-14
 -1      3186 2.00055E+01 1.07394E-02-2.71644E-05-2.69298E-03 7.77989E-14 3.58989E-13
 -1      3187 2.00029E+01 4.47476E-03 6.50584E-05 1.78874E-03 2.02604E-13 5.19836E-14
 -1      3188 2.00023E+01 3.17008E-03-2.17662E-05 2.76531E-03 2.22538E-13 1.99017E-13
 -1      3189 2.00045E+01 6.35036E-03-2.48333E-05 6.91734E-04 1.79028E-13 2.32584E-13
 -1      3190 2.00019E+01 2.14782E-03 4.27763E-05 3.47512E-03 1.96898E-13 6.70223E-14
 -1      3191 2.00016E+01 1.27237E-03-1.04691E-05 3.99243E-03 2.11430E-13 7.59154E-14
 -1      3192 2.00035E+01 3.29972E-03-2.17581E-05 2.75099E-03 2.39126E-13 2.55777E-13
 -1      3193 2.00012E+01 5.93852E-04 2.67107E-05 4.33135E-03 1.97384E-13 1.96836E-14
 -1      3194 2.00010E+01 2.17964E-05-3.24769E-06 4.53470E-03 3.20979E-13 1.52233E-13
 -1      3195 2.00027E+01 1.23771E-03-1.84433E-05 3.87795E-03 2.68508E-13 2.20449E-13
 -1      3196 2.00007E+01-4.20304E-04 1.55573E-05 4.62392E-03 2.55248E-13-2.50658E-14
 -1      3197 2.00006E+01-7.90979E-04 1.06278E-06 4.61664E-03 2.34372E-13-1.53316E-13
 -1      3198 2.00020E+01-1.21911E-04-1.51947E-05 4.36461E-03 2.34630E-13-7.59212E-14
 -1      3199 2.00003E+01-1.08495E-03 8.00826E-06 4.54119E-03 2.20129E-13-5.29917E-14
 -1      3200 2.00002E+01-1.33485E-03 2.72900E-06 4.39181E-03 1.15622E-13-1.21357E-13
 -1      3201 2.00013E+01-1.01149E-03-1.24758E-05 4.42043E-03 1.83932E-13-5.99383E-14
 -1      3202 2.00000E+01-1.50927E-03 3.49618E-06 4.24688E-03 2.34648E-13-1.79842E-13
 -1      3203 2.00000E+01-1.70549E-03 1.66643E-06 3.99712E-03 4.22251E-13-1.18849E-13
 -1      3204 2.00004E+01-1.95667E-03-5.60027E-06 3.88840E-03 2.83979E-13-1.45763E-13
 -1      3205 2.00008E+01-1.57870E-03-1.13044E-05 4.22744E-03 2.21374E-13-1.47506E-14
 -1      3206 2.59844E+01 4.25953E+00-7.63057E-02 1.74539E+00-1.00289E-12-9.17676E-13
 -1      3207 2.55586E+01 4.93557E+00-1.33279E-01 8.38034E-01-1.15152E-12-6.47602E-13
 -1      3208 2.65452E+01 3.77201E+00-2.13473E-01-1.65391E+00 1.03216E-12-4.07716E-13
 -1      3209 2.57694E+01-3.80507E+00-1.34843E-01 1.21979E+00 1.21640E-13 1.74576E-13
 -1      3210 2.45032E+01-4.22881E+00 1.24946E-01 2.85633E+00 3.67978E-13 6.15549E-14
 -1      3211 2.15296E+01-1.16021E+00 2.45818E-02 2.23545E+00-2.59932E-13-2.84459E-13
 -1      3212 2.20596E+01-1.70444E+00 9.57085E-03 2.09532E+00-2.92417E-13-4.15331E-13
 -1      3213 2.08304E+01-3.30357E-01 1.14626E-02 2.14816E+00-2.72906E-13-1.51597E-13
 -1      3214 2.11609E+01-6.99860E-01 1.10714E-02 2.14994E+00-2.52054E-13-2.10066E-13
 -1      3215 2.04366E+01-9.76236E-01-2.48707E-02 2.53950E+00-2.98918E-13-1.92949E-13
 -1      3216 2.04801E+01 1.65792E-01 3.19635E-03 1.94011E+00-1.06748E-13-2.81993E-14
 -1      3217 2.06768E+01-4.69071E-02 7.15367E-03 2.01409E+00-1.87040E-13-8.87383E-14
 -1      3218 2.00014E+01-1.54146E-01-1.48538E-02 2.25883E+00-3.05537E-13-1.92723E-13
 -1      3219 2.03198E+01 4.16490E-01-3.97970E-04 1.68873E+00-8.67406E-14 1.21299E-13
 -1      3220 2.04411E+01 3.16252E-01 5.67472E-03 1.79456E+00-4.58454E-14 4.72855E-14
 -1      3221 1.98542E+01 3.24420E-01-5.40055E-03 1.95036E+00-1.50944E-13-9.63971E-14
 -1      3222 2.02485E+01 5.10111E-01-2.01271E-03 1.43266E+00-1.35605E-13 2.33645E-13
 -1      3223 2.03299E+01 4.79256E-01 4.47116E-03 1.54866E+00-1.16401E-13 1.45631E-13
 -1      3224 1.98441E+01 5.48857E-01-9.22911E-04 1.65634E+00-1.30167E-13 5.20153E-14
 -1      3225 2.02140E+01 5.13237E-01-2.52491E-03 1.19025E+00-9.66557E-14 2.61557E-13
 -1      3226 2.02749E+01 5.21006E-01 3.69566E-03 1.30393E+00-1.13171E-13 2.46006E-13
 -1      3227 1.98853E+01 6.19137E-01 9.22561E-04 1.38661E+00-1.32729E-13 5.13004E-14
 -1      3228 2.01911E+01 4.70148E-01-2.49436E-03 9.70892E-01 6.24693E-14 2.22270E-13
 -1      3229 2.02410E+01 4.96743E-01 3.20256E-03 1.07537E+00 3.14449E-14 3.25236E-13
 -1      3230 1.99363E+01 6.02676E-01 1.42904E-03 1.14455E+00-1.68906E-14 7.21347E-14
 -1      3231 2.01701E+01 4.07729E-01-2.22454E-03 7.78746E-01-7.28799E-14 1.05533E-13
 -1      3232 2.02128E+01 4.41423E-01 2.83943E-03 8.70734E-01-1.29444E-14 1.73256E-13
 -1      3233 1.99796E+01 5.43314E-01 1.33380E-03 9.31200E-01 4.55150E-14 2.00986E-13
 -1      3234 2.01482E+01 3.41109E-01-1.87371E-03 6.14737E-01 1.93716E-15 1.55398E-13
 -1      3235 2.01853E+01 3.75448E-01 2.51788E-03 6.93212E-01-3.95123E-14 1.28420E-13
 -1      3236 2.00102E+01 4.67249E-01 1.02741E-03 7.46568E-01-8.06309E-14 1.55040E-13
 -1      3237 2.01259E+01 2.78089E-01-1.52140E-03 4.77760E-01-1.33018E-14 1.51602E-13
 -1      3238 2.01578E+01 3.09848E-01 2.20597E-03 5.43071E-01 6.95211E-14 1.94460E-13
 -1      3239 2.00287E+01 3.89113E-01 6.96333E-04 5.89697E-01 4.44534E-14 1.19095E-13
 -1      3240 2.01041E+01 2.22169E-01-1.20474E-03 3.65518E-01-8.93745E-14 1.24558E-13
 -1      3241 2.01310E+01 2.49984E-01 1.89908E-03 4.18769E-01-7.44177E-14 9.54245E-14
 -1      3242 2.00377E+01 3.16385E-01 4.16983E-04 4.58782E-01 5.37227E-14 5.49560E-14
 -1      3243 2.00839E+01 1.74478E-01-9.36048E-04 2.75116E-01 6.38850E-14-1.70114E-13
 -1      3244 2.01062E+01 1.98000E-01 1.60348E-03 3.17763E-01-4.38754E-15-1.61257E-14
 -1      3245 2.00402E+01 2.52345E-01 2.08537E-04 3.51400E-01 7.11280E-14-1.82006E-13
 -1      3246 2.00660E+01 1.34896E-01-7.16317E-04 2.03465E-01 2.03814E-14-1.65528E-13
 -1      3247 2.00841E+01 1.54301E-01 1.32853E-03 2.37066E-01 2.18629E-14-1.85220E-13
 -1      3248 2.00385E+01 1.97934E-01 6.54792E-05 2.64762E-01 6.50518E-14-3.23262E-13
 -1      3249 2.00508E+01 1.02712E-01-5.40629E-04 1.47556E-01 1.46545E-13-1.25093E-13
 -1      3250 2.00651E+01 1.18415E-01 1.08118E-03 1.73617E-01 2.00391E-13 1.96612E-14
 -1      3251 2.00346E+01 1.52863E-01-2.41992E-05 1.95966E-01 5.28189E-15-2.25258E-13
 -1      3252 2.00381E+01 7.69875E-02-4.02361E-04 1.04608E-01 1.11292E-13-1.24771E-13
 -1      3253 2.00493E+01 8.94867E-02 8.64702E-04 1.24505E-01 8.51025E-14-9.74232E-14
 -1      3254 2.00297E+01 1.16259E-01-7.42919E-05 1.42194E-01 9.24855E-14 2.87815E-14
 -1      3255 2.00280E+01 5.67417E-02-2.94978E-04 7.21433E-02 9.58066E-14-1.48661E-13
 -1      3256 2.00365E+01 6.65411E-02 6.80031E-04 8.70898E-02 1.30322E-13-5.33942E-14
 -1      3257 2.00247E+01 8.70289E-02-9.76912E-05 1.00829E-01 8.83862E-14-8.06716E-14
 -1      3258 2.00200E+01 4.10400E-02-2.12689E-04 4.80188E-02 1.68369E-13 1.10633E-13
 -1      3259 2.00264E+01 4.86108E-02 5.26007E-04 5.90523E-02 1.45226E-13-8.67913E-14
 -1      3260 2.00199E+01 6.40428E-02-1.03856E-04 6.95254E-02 1.55759E-13-7.83364E-14
 -1      3261 2.00138E+01 2.90418E-02-1.50344E-04 3.04264E-02-3.21540E-14 9.80719E-14
 -1      3262 2.00185E+01 3.48037E-02 4.00005E-04 3.84148E-02 1.20312E-13 7.62753E-14
 -1      3263 2.00156E+01 4.62329E-02-9.97036E-05 4.62447E-02 1.49133E-13-1.39351E-14
 -1      3264 2.00092E+01 2.00157E-02-1.03681E-04 1.78695E-02-3.75057E-14-7.43633E-15
 -1      3265 2.00126E+01 2.43316E-02 2.98767E-04 2.35252E-02-1.79936E-14 7.01255E-14
 -1      3266 2.00120E+01 3.26394E-02-8.99883E-05 2.92588E-02-1.56322E-14-1.31504E-13
 -1      3267 2.00059E+01 1.33403E-02-6.92347E-05 9.13153E-03 1.71663E-13-3.32537E-13
 -1      3268 2.00082E+01 1.65168E-02 2.18805E-04 1.30293E-02 8.20747E-14-3.59824E-14
 -1      3269 2.00090E+01 2.24273E-02-7.78279E-05 1.71318E-02 1.09100E-13-1.58312E-13
 -1      3270 2.00034E+01 8.49648E-03-4.42284E-05 3.23980E-03 1.43289E-15-3.37195E-13
 -1      3271 2.00050E+01 1.07887E-02 1.56698E-04 5.83599E-03 1.36155E-13-3.61718E-13
 -1      3272 2.00066E+01 1.48871E-02-6.51587E-05 8.69331E-03 1.83944E-13-1.43861E-14
 -1      3273 2.00018E+01 5.05751E-03-2.64618E-05-5.70191E-04 4.50485E-14-4.00063E-13
 -1      3274 2.00028E+01 6.67446E-03 1.09275E-04 1.08061E-03-4.79540E-14-4.69442E-13
 -1      3275 2.00048E+01 9.42652E-03-5.31071E-05 3.00549E-03 5.44812E-14-1.06687E-13
 -1      3276 2.00007E+01 2.67644E-03-1.42179E-05-2.88898E-03-1.88077E-13-3.27256E-13
 -1      3277 2.00012E+01 3.78761E-03 7.37116E-05-1.91031E-03 8.94978E-14-3.16974E-13
 -1      3278 2.00033E+01 5.55804E-03-4.22736E-05-6.69595E-04-3.58378E-14-1.03893E-13
 -1      3279 1.99999E+01 1.07386E-03-6.13821E-06-4.16377E-03-2.45791E-13-3.44294E-13
 -1      3280 2.00002E+01 1.81544E-03 4.75738E-05-3.65193E-03-2.55605E-13-3.79030E-13
 -1      3281 2.00022E+01 2.88547E-03-3.29415E-05-2.90232E-03-2.37250E-13-1.20090E-13
 -1      3282 1.99995E+01 2.55531E-05-1.18068E-06-4.72543E-03-3.24786E-13-1.61172E-13
 -1      3283 1.99996E+01 5.06822E-04 2.88899E-05-4.53009E-03-2.99893E-13-2.40461E-13
 -1      3284 2.00014E+01 1.08966E-03-2.51365E-05-4.12480E-03-3.18125E-13-1.32558E-13
 -1      3285 1.99993E+01-6.47699E-04 1.72359E-06-4.80984E-03-2.54717E-13-1.51568E-13
 -1      3286 1.99993E+01-3.39855E-04 1.61882E-05-4.82520E-03-2.28515E-13-1.86142E-13
 -1      3287 2.00008E+01-8.68435E-05-1.88744E-05-4.65607E-03-2.76169E-13-3.39805E-13
 -1      3288 1.99992E+01-1.08924E-03 2.59303E-06-4.57961E-03-4.16010E-13 1.80986E-13
 -1      3289 1.99991E+01-8.84554E-04 8.08195E-06-4.73380E-03-3.76003E-13 6.23457E-14
 -1      3290 2.00003E+01-8.46632E-04-1.33188E-05-4.72268E-03-4.39155E-13-1.36255E-13
 -1      3291 1.99992E+01-1.41848E-03-3.57903E-07-4.13967E-03-1.44081E-13 9.52753E-14
 -1      3292 1.99991E+01-1.26032E-03 1.96612E-06-4.38708E-03-2.59285E-13 1.33075E-13
 -1      3293 2.00000E+01-1.35489E-03-8.93728E-06-4.48520E-03-3.14157E-13 5.23063E-14
 -1      3294 1.99995E+01-1.74490E-03-4.22060E-06-3.73886E-03-1.25834E-13-1.32180E-13
 -1      3295 1.99993E+01-1.55486E-03-7.10880E-06-3.97773E-03-4.44710E-14-5.34194E-14
 -1      3296 2.00000E+01-1.70241E-03-1.01156E-06-4.12066E-03-3.12209E-14-1.43650E-13
 -1      3297 2.00000E+01-1.99917E-03 1.15868E-05-3.74928E-03-9.67613E-14-5.28172E-13
 -1      3298 1.66941E+01 3.34190E+00-7.39593E-03 1.73049E-01 3.86432E-13-9.39030E-13
 -1      3299 1.66495E+01 3.34844E+00-2.34545E-03 3.71503E-01 3.28943E-13-9.82297E-13
 -1      3300 2.00013E+01-2.48709E-03-4.15406E-06 3.27940E-03 2.05839E-13 3.36380E-14
 -1      3301 2.00017E+01-2.68148E-03 9.80492E-06 2.94027E-03 1.40520E-13-1.74445E-13
 -1      3302 2.00028E+01-3.16014E-03 2.50481E-06 3.08420E-04 2.93798E-13 2.42080E-15
 -1      3303 2.00028E+01-3.16268E-03 2.77689E-06-2.64114E-04 2.05413E-13 2.98301E-13
 -1      3304 2.79363E+01 3.90129E+00-1.61899E-01-2.23174E+00 1.11863E-12-5.73167E-13
 -1      3305 2.88574E+01 2.73888E+00-1.07547E-01-2.75682E+00 1.05022E-12-8.53845E-13
 -1      3306 8.86916E+00 5.46254E-01 1.14219E-01-5.69503E-01 7.70356E-14-1.49236E-12
 -1      3307 9.53945E+00 1.48728E-01 1.05439E-01-2.41869E+00-1.24175E-13-1.52797E-12
 -1      3308 1.46999E+01-2.30986E+00 2.56774E-02 5.59585E+00 7.15816E-13-9.07704E-13
 -1      3309 1.16961E+01-1.26500E+00 2.09294E-01 5.08042E+00 6.46212E-13-1.24090E-12
 -1      3310 1.14343E+01-4.17310E-01 1.38543E-01 3.92819E+00 5.39818E-13-1.23293E-12
 -1      3311 2.00020E+01-2.83600E-03-4.61289E-06 2.48125E-03 5.38263E-14-3.10135E-13
 -1      3312 2.00023E+01-2.96847E-03 8.61549E-06 2.01212E-03 2.39191E-13-2.11136E-13
 -1      3313 2.00022E+01-2.46887E-03-2.28652E-06 2.85391E-03 1.44735E-13-1.03032E-13
 -1      3314 1.40039E+01-1.93183E+00-3.63366E-02 4.74173E+00-5.43718E-13 1.21639E-13
 -1      3315 1.15569E+01-6.69001E-01 1.54057E-01 3.57093E+00-3.63782E-13 3.89591E-13
 -1      3316 2.47637E+01-3.40468E+00 4.96552E-02 1.14259E+00-3.06254E-13-7.33413E-13
 -1      3317 2.56389E+01-3.56642E+00-1.66099E-03 4.46140E-01-1.90920E-13-8.27746E-13
 -1      3318 2.23168E+01-1.94821E+00-5.80710E-04-2.21036E+00-1.88943E-13-1.62238E-13
 -1      3319 2.17689E+01-1.20769E+00 4.22308E-02-2.27369E+00-1.25268E-13-1.93714E-13
 -1      3320 2.64794E+01 6.05659E-01-1.02304E-02 2.22977E+00-4.38399E-13-1.17681E-12
 -1      3321 2.59764E+01 2.43171E+00-1.39514E-01 2.17975E+00-7.18647E-13-1.00421E-12
 -1      3322 1.60077E+01-2.50223E+00 1.60414E-01-5.22978E+00-6.08298E-13-1.01873E-12
 -1      3323 1.89193E+01-3.86707E+00-6.11861E-02-5.17297E+00-6.31439E-13-6.61179E-13
 -1      3324 2.66352E+01-2.94478E+00 2.94549E-02-4.42555E-02 1.64278E-13-1.08095E-12
 -1      3325 2.69388E+01-1.35450E+00-1.28708E-01 1.31746E+00-2.07397E-13-1.28136E-12
 -1      3326 1.11865E+01-4.78998E-01 1.30970E-01-3.71983E+00-3.32269E-13-1.44559E-12
 -1      3327 1.31312E+01-1.57882E+00 1.92999E-02-4.87046E+00-4.61825E-13-1.28066E-12
 -1      3328 2.07297E+01 1.26277E+00 6.57989E-03-9.96386E-01 4.38198E-13-3.02954E-13
 -1      3329 2.01147E+01 1.68090E+00-1.89918E-03-8.91367E-01 4.82827E-13-4.08304E-13
 -1      3330 1.97664E+01 1.52297E+00 3.06115E-04-1.17939E+00 4.00304E-13-4.83302E-13
 -1      3331 2.07759E+01 9.19720E-01-2.64171E-03-1.30932E+00 3.23466E-13-2.97331E-13
 -1      3332 2.86257E+01 6.36359E-01-1.43857E-01-2.63549E+00 7.46195E-13-9.37403E-13
 -1      3333 2.84746E+01-1.26900E+00-4.29075E-02-2.22040E+00 4.41959E-13-1.01430E-12
 -1      3334 2.69004E+01-3.50481E+00 8.90823E-03-1.65570E-01-1.95656E-13 3.95158E-13
 -1      3335 2.81698E+01-3.03166E+00-4.74320E-02 5.97053E-01-9.37618E-15 4.65489E-13
 -1      3336 2.53840E+01 5.11132E+00-1.58992E-01 1.28546E-01-1.17993E-12-4.86857E-13
 -1      3337 2.61939E+01 4.97549E+00-1.00443E-01-9.53893E-01-1.19842E-12-2.83312E-13
 -1      3338 2.59585E+01-3.79589E+00 1.96727E-02-9.80340E-01-3.57147E-13 2.47573E-13
 -1      3339 3.00638E+01 2.37254E+00-3.03546E-02 2.24522E+00 9.62785E-13 4.70540E-13
 -1      3340 2.04794E+01-4.31574E+00-8.84724E-02 4.50073E+00-5.83325E-13-3.09787E-13
 -1      3341 1.75403E+01-3.03314E+00 1.46216E-01 4.95782E+00-6.20698E-13-7.27890E-14
 -1      3342 9.42756E+00-2.70171E-01 5.52389E-02 2.31450E+00-2.43375E-13 8.27532E-13
 -1      3343 8.73014E+00 1.27397E-01 9.59333E-02 4.40336E-01-5.79270E-14 1.10982E-12
 -1      3344 9.17815E+00 2.24377E-01 1.48663E-01-1.19691E+00 9.01514E-14 1.05776E-12
 -1      3345 1.02013E+01-3.14727E-01 5.37278E-02-3.01642E+00 2.46022E-13 9.85115E-13
 -1      3346 2.70453E+01-9.02164E-01-1.40612E-01-1.45645E+00-3.69864E-13 2.52846E-13
 -1      3347 2.68253E+01-2.07702E+00 5.31602E-02-6.33686E-01-9.28840E-14 2.80470E-13
 -1      3348 2.00025E+01-3.05971E-03-9.48373E-07 1.45420E-03 2.85905E-13-1.07215E-13
 -1      3349 2.00027E+01-3.12732E-03 5.68016E-06 9.17813E-04 2.90830E-13-1.71403E-13
 -1      3350 2.00032E+01-2.78424E-03-1.84402E-06 6.41125E-04 2.40885E-13-2.60854E-14
 -1      3351 2.00029E+01-2.67885E-03-2.39620E-06 1.82146E-03 2.11963E-13-1.90978E-13
 -1      3352 2.08814E+01 1.10471E+00-4.80678E-03 2.11612E-01-3.18791E-13-6.11198E-13
 -1      3353 2.10918E+01 8.28925E-01 8.85012E-03 2.82488E-01-2.95363E-13-5.35270E-13
 -1      3354 2.12297E+01 4.22489E-01-3.24900E-03 4.33354E-01-2.36131E-13-4.84113E-13
 -1      3355 2.03778E+01 1.40938E+00 2.65431E-03 3.82124E-01-1.94176E-13-7.09763E-13
 -1      3356 1.67499E+01 3.23699E+00-1.40255E-02 6.51772E-01 3.11077E-13-9.74615E-13
 -1      3357 1.69951E+01 3.13674E+00 6.55814E-03 7.93571E-01 2.40736E-13-9.65305E-13
 -1      3358 1.65589E+01 3.05564E+00 1.50807E-02 5.83951E-01 3.03562E-13-9.37961E-13
 -1      3359 1.85092E+01 2.17931E+00-5.89927E-03-9.91720E-01 4.13701E-13-6.43873E-13
 -1      3360 1.82909E+01 2.66386E+00 8.02665E-03-6.51690E-01 4.85713E-13-7.06251E-13
 -1      3361 1.77158E+01 2.88077E+00-1.38590E-02-5.49573E-01 4.45325E-13-7.80114E-13
 -1      3362 2.75905E+01-2.07765E+00-4.27179E-02-1.72805E+00 2.34158E-13-9.70238E-13
 -1      3363 2.82598E+01-2.59769E+00-1.13305E-01-1.17564E+00 3.09733E-13-1.02073E-12
 -1      3364 2.47029E+01 4.19881E+00-4.94166E-02 5.68425E-01-9.51003E-13-4.78385E-13
 -1      3365 2.38440E+01 3.39905E+00-2.68873E-02 1.03938E+00-7.66602E-13-5.95381E-13
 -1      3366 1.72415E+01 3.13735E+00 1.24741E-03-3.17087E-01 4.37646E-13-8.43170E-13
 -1      3367 1.68932E+01 3.25898E+00-1.09729E-02-1.35552E-01 3.94933E-13-8.97842E-13
 -1      3368 1.66371E+01 3.08078E+00 1.71301E-02-4.71566E-02 3.61704E-13-8.98236E-13
 -1      3369 1.73569E+01 2.75050E+00 1.08510E-02-6.29869E-01 3.83439E-13-7.87825E-13
 -1      3370 2.00017E+01-2.70362E-03 1.09821E-05-2.93206E-03 7.36359E-15-3.22876E-13
 -1      3371 2.00013E+01-2.51205E-03-4.78512E-06-3.27388E-03 3.11051E-14-1.87792E-13
 -1      3372 2.40645E+01 2.00415E+00-7.51718E-02-1.75104E+00-5.80098E-13 2.93381E-14
 -1      3373 2.39368E+01 2.92772E+00-5.73025E-03-1.30175E+00-6.94483E-13-5.19289E-14
 -1      3374 2.39698E+01 2.68602E+00-7.09283E-02 1.61245E+00-6.32078E-13-6.67871E-13
 -1      3375 2.50557E+01 1.64689E+00-2.91931E-02-1.99280E+00-5.69635E-13 1.69396E-13
 -1      3376 1.04283E+01 4.76700E-01 1.30325E-01-3.23891E-01-3.80928E-14 1.00313E-12
 -1      3377 2.56942E+01-2.80528E+00-2.87082E-02 1.53556E-01 6.18047E-14 1.51563E-13
 -1      3378 2.69201E+01-3.04772E+00-2.43743E-02-9.07876E-01-2.99743E-14-9.54271E-13
 -1      3379 2.00021E+01-2.85676E-03-4.20099E-06-2.46713E-03-9.39567E-14-1.55420E-13
 -1      3380 2.00023E+01-2.49511E-03-2.13738E-06-2.83804E-03 6.68685E-14-2.39836E-13
 -1      3381 2.00023E+01-2.98637E-03 8.92361E-06-1.99386E-03-1.11705E-13 1.51449E-14
 -1      3382 9.71277E+00 6.70755E-01 3.02161E-02 1.46262E+00 2.98490E-13-1.33835E-12
 -1      3383 9.24544E+00 7.51026E-01 1.54825E-01 3.73026E-01 1.79369E-13-1.44940E-12
 -1      3384 1.03663E+01 9.88679E-01 9.62858E-02-4.52899E-01 8.33233E-14-1.36287E-12
 -1      3385 1.93068E+01 1.88356E+00-5.14128E-03 7.83059E-01-3.18534E-14-8.33110E-13
 -1      3386 1.98115E+01 1.63894E+00-1.14003E-03 6.32231E-01-1.23093E-13-8.07771E-13
 -1      3387 1.20156E+01-7.50491E-02 1.35011E-01 2.67622E+00-3.09166E-13 4.91523E-13
 -1      3388 2.65821E+01 2.91124E-01-7.05930E-02-1.87203E+00-4.81004E-13 2.21163E-13
 -1      3389 2.00027E+01-3.13743E-03 5.49093E-06-8.79377E-04 1.33704E-13 2.16161E-14
 -1      3390 2.00026E+01-3.07273E-03-5.19987E-07-1.42769E-03 7.23087E-14-1.93833E-13
 -1      3391 2.00029E+01-2.69857E-03-2.70568E-06-1.79121E-03 9.92106E-14 2.76588E-14
 -1      3392 2.00032E+01-2.79162E-03-2.02768E-06-5.95973E-04 1.78920E-13 1.50350E-13
 -1      3393 2.27801E+01-3.93328E+00 2.93099E-02 3.42875E+00 4.53262E-13-1.24900E-13
 -1      3394 1.16440E+01 2.11412E-01 1.22652E-01-2.81140E+00-1.79308E-13-1.37258E-12
 -1      3395 2.37438E+01-3.12602E+00 4.42225E-02-2.07813E+00-3.68560E-13 2.00382E-14
 -1      3396 2.22023E+01-3.00431E+00-3.85455E-02-2.94552E+00-3.99309E-13-1.46813E-13
 -1      3397 2.08667E+01 5.68480E-01 1.14515E-02-1.59010E+00 2.30204E-13-2.96416E-13
 -1      3398 2.03113E+01 8.28949E-01-4.17576E-03-1.57531E+00 2.62414E-13-4.03747E-13
 -1      3399 2.10244E+01 1.57624E-01 4.55362E-04-1.80168E+00 1.74639E-13-2.93676E-13
 -1      3400 2.49428E+01 2.42687E+00-4.83211E-02 1.95888E+00-6.56596E-13-8.17686E-13
 -1      3401 2.54470E+01-4.08243E+00-1.20018E-01-1.38433E+00 3.78565E-13-8.63976E-13
 -1      3402 2.55964E+01-3.13016E+00 2.03865E-02-2.24014E-01 2.04170E-13-8.90853E-13
 -1      3403 1.56527E+01-1.53750E+00 1.26347E-01-4.55226E+00-4.78090E-13-1.03107E-12
 -1      3404 2.14828E+01-7.44393E-01 8.62953E-03-2.09782E+00-2.14841E-14-2.45649E-13
 -1      3405 2.11313E+01-2.19802E-01 1.56287E-02-2.02006E+00 7.30106E-14-2.72242E-13
 -1      3406 2.04567E+01-6.83765E-03-9.20426E-03-2.12785E+00 9.31729E-14-3.72117E-13
 -1      3407 2.07784E+01-1.04087E+00-1.79448E-02-2.59907E+00-1.08736E-13-3.41626E-13
 -1      3408 1.20213E+01-6.55625E-01 1.53934E-01-3.93192E+00 4.07008E-13 8.79588E-13
 -1      3409 1.40730E+01-1.38469E+00 2.74927E-02-4.47344E+00 5.41543E-13 5.60531E-13
 -1      3410 1.21418E+01-5.07952E-02 7.03909E-02-2.88087E+00 2.48482E-13 8.08645E-13
 -1      3411 1.69871E+01-2.62810E+00 1.18489E-01 5.48292E+00 6.74995E-13-7.57561E-13
 -1      3412 1.54297E+01-1.65541E+00 3.91779E-02 4.97256E+00 6.58404E-13-8.59902E-13
 -1      3413 1.87894E+01-2.91222E+00 3.19559E-02 4.80662E+00 6.62817E-13-5.37754E-13
 -1      3414 2.58124E+01-6.25282E-01-3.44255E-02 1.71073E+00-2.66700E-13-1.06040E-12
 -1      3415 2.00007E+01-2.09893E-03 1.97314E-06 3.71353E-03 1.97732E-13-1.57108E-13
 -1      3416 2.00010E+01-2.33746E-03 2.49275E-06 3.50855E-03 1.90209E-13 2.87414E-14
 -1      3417 2.00015E+01-2.18259E-03 4.68627E-07 3.52400E-03 4.46674E-14 1.14098E-13
 -1      3418 2.00009E+01-1.90251E-03 4.37608E-06 3.90822E-03 7.36898E-14-1.19648E-14
 -1      3419 1.66145E+01-1.92465E+00 1.06003E-01 4.27550E+00-5.29257E-13-2.62047E-14
 -1      3420 2.61584E+01-3.80354E+00 3.20936E-03 4.87738E-01-1.81546E-13-8.87575E-13
 -1      3421 2.28013E+01-2.28402E+00 4.79978E-02 1.99928E+00-2.90606E-13-4.76939E-13
 -1      3422 2.35304E+01-2.90050E+00-2.75510E-03 1.63207E+00-2.68721E-13-5.79997E-13
 -1      3423 2.10444E+01 3.03335E-01-6.92322E-03 6.84799E-01-1.71591E-13-5.35459E-13
 -1      3424 2.62759E+01 2.21035E+00-2.97305E-01 2.46973E+00 7.92671E-13 6.67875E-13
 -1      3425 2.46389E+01-3.62810E+00 1.01418E-02-1.65527E+00-3.56691E-13 1.25592E-13
 -1      3426 2.11489E+01-3.74694E+00 4.33456E-02-4.08886E+00-6.24771E-13-4.10197E-13
 -1      3427 2.72153E+01-3.77509E+00 2.16934E-02 1.06644E-01-2.57533E-14-1.01343E-12
 -1      3428 1.96304E+01-4.10102E+00 5.39135E-02-5.04049E+00 7.76865E-13-1.53350E-13
 -1      3429 2.19838E+01-4.71881E+00-5.28883E-02-4.27250E+00 7.53370E-13-4.29039E-13
 -1      3430 2.41601E+01-4.38300E+00 6.44574E-02-2.71617E+00 6.14411E-13-6.46552E-13
 -1      3431 2.46721E+01 3.80199E+00-4.42879E-02-1.04772E+00-8.84015E-13-9.79113E-14
 -1      3432 1.87911E+01 2.16896E+00 8.10609E-03 9.05792E-01 1.49347E-14-9.00997E-13
 -1      3433 1.91367E+01 1.60401E+00-6.42097E-03 1.07567E+00 1.36948E-14-8.09417E-13
 -1      3434 1.82715E+01 2.38827E+00-1.19029E-02 9.86184E-01 8.95890E-14-9.19459E-13
 -1      3435 2.14477E+01-2.24442E+00-3.71656E-02 2.68206E+00-3.37274E-13-3.10734E-13
 -1      3436 1.83073E+01-3.46361E+00 7.15225E-02-5.22948E+00 7.47027E-13 5.33046E-14
 -1      3437 1.99753E+01-3.40976E+00 7.10250E-02-4.30831E+00 6.66625E-13-2.22503E-13
 -1      3438 1.67604E+01-2.57520E+00 2.96207E-02-4.95275E+00 6.47586E-13 2.39718E-13
 -1      3439 2.22508E+01-3.80937E+00 6.17237E-02 3.24807E+00-5.05269E-13-4.27895E-13
 -1      3440 2.32470E+01-3.68594E+00-6.79007E-02 2.35574E+00-3.81643E-13-5.08751E-13
 -1      3441 2.60038E+01 1.12403E+00-1.06364E-01-2.10662E+00-5.81431E-13 1.94639E-13
 -1      3442 2.58818E+01 2.72992E+00-4.83414E-02-1.96066E+00-7.97785E-13 1.11270E-13
 -1      3443 1.10918E+01 6.48215E-01 5.70169E-02 6.66838E-01-8.42841E-14 9.35765E-13
 -1      3444 1.12802E+01 6.16170E-01 2.12963E-02-8.89813E-01 5.31372E-14 9.26606E-13
 -1      3445 2.11375E+01-3.56152E-01 2.16745E-02 1.20560E+00 2.75604E-15-4.75999E-13
 -1      3446 2.14549E+01-8.49394E-01-1.46548E-04 1.24670E+00 2.90646E-14-4.22911E-13
 -1      3447 2.19587E+01-1.32354E+00 2.77545E-02 1.27485E+00 6.88254E-14-3.48291E-13
 -1      3448 2.23965E+01-1.78987E+00-6.05824E-03 1.15667E+00 8.56082E-14-2.60712E-13
 -1      3449 2.12583E+01-1.12230E+00-1.83777E-02 1.65404E+00 9.33093E-14-4.43750E-13
 -1      3450 2.31236E+01-2.17928E+00 3.13812E-02 9.65638E-01 9.70526E-14-1.61470E-13
 -1      3451 2.36122E+01-2.46543E+00-2.58876E-02 6.33025E-01 7.52537E-14-6.84374E-14
 -1      3452 2.24007E+01-2.19528E+00-2.68725E-02 1.59799E+00 1.48517E-13-2.90420E-13
 -1      3453 2.55131E+01-1.53563E+00-2.58908E-02-1.29485E+00-1.35540E-13 2.50440E-13
 -1      3454 2.56346E+01-4.07026E-01-1.00681E-02-1.72050E+00-3.00097E-13 2.55088E-13
 -1      3455 1.83078E+01-2.33015E+00-6.56443E-02 4.12190E+00-4.91485E-13-1.46331E-13
 -1      3456 1.58351E+01-9.04290E-01 9.22455E-02 3.76687E+00-3.91126E-13-2.73531E-14
 -1      3457 2.39009E+01-2.66556E+00 2.89176E-02-3.49187E-01 1.53519E-13-5.76574E-13
 -1      3458 2.32715E+01-2.60439E+00 3.51368E-02-8.18390E-01 2.92377E-13-4.92533E-13
 -1      3459 2.24704E+01-2.32798E+00-3.48846E-03-1.12562E+00 2.22640E-13-4.08396E-13
 -1      3460 2.19855E+01-1.97465E+00 2.97433E-02-1.35677E+00 1.81546E-13-3.55400E-13
 -1      3461 2.25102E+01-2.79860E+00-4.50168E-02-1.55190E+00 3.17430E-13-3.64590E-13
 -1      3462 2.14315E+01-1.62175E+00 1.63399E-03-1.44463E+00 4.80952E-14-4.08486E-13
 -1      3463 2.10543E+01-1.25858E+00 1.83743E-02-1.53269E+00 4.08200E-14-4.47504E-13
 -1      3464 2.12710E+01-1.96387E+00-2.94986E-02-1.83883E+00 9.48379E-14-3.93998E-13
 -1      3465 2.07149E+01-9.35675E-01 5.19001E-03-1.49701E+00 1.24081E-13-4.55525E-13
 -1      3466 2.04498E+01-6.43263E-01 9.83144E-03-1.49945E+00 1.44670E-13-3.85319E-13
 -1      3467 2.04488E+01-1.14371E+00-1.94930E-02-1.80694E+00 5.99300E-14-3.78949E-13
 -1      3468 2.02655E+01-3.95975E-01 5.73668E-03-1.41168E+00 9.48148E-14-3.04333E-13
 -1      3469 2.00950E+01-1.88934E-01 4.49439E-03-1.36835E+00 9.94022E-14-3.20129E-13
 -1      3470 1.99716E+01-5.00392E-01-1.15304E-02-1.63153E+00 1.76643E-13-2.92980E-13
 -1      3471 2.00107E+01-2.00252E-02 4.96722E-03-1.26555E+00 8.62420E-14-2.96636E-13
 -1      3472 1.99090E+01 1.11960E-01 1.40151E-03-1.20065E+00 8.08480E-14-2.84826E-13
 -1      3473 1.97289E+01-5.32311E-02-6.06758E-03-1.41243E+00 1.14397E-13-3.50943E-13
 -1      3474 1.98844E+01 2.15376E-01 3.90529E-03-1.09921E+00 1.63551E-13-2.59322E-13
 -1      3475 1.98283E+01 2.89270E-01-3.16952E-04-1.02638E+00 2.37280E-13-1.93703E-13
 -1      3476 1.96320E+01 2.27991E-01-2.74127E-03-1.19409E+00 1.65294E-13-2.24737E-13
 -1      3477 1.98369E+01 3.43436E-01 2.98491E-03-9.32950E-01 2.10488E-13-8.06861E-14
 -1      3478 1.98090E+01 3.75917E-01-1.17886E-03-8.59959E-01 1.24179E-13-1.12107E-13
 -1      3479 1.96199E+01 3.83915E-01-7.28174E-04-9.93353E-01 2.92893E-13-7.29218E-14
 -1      3480 1.98337E+01 3.95968E-01 2.27316E-03-7.76939E-01 1.11827E-13-5.95534E-14
 -1      3481 1.98220E+01 4.01034E-01-1.55566E-03-7.08045E-01 1.85103E-13-4.50171E-14
 -1      3482 1.96525E+01 4.51115E-01 3.25397E-04-8.15624E-01 1.67070E-13-9.00031E-14
 -1      3483 1.98527E+01 3.99087E-01 1.77590E-03-6.35845E-01 1.45209E-13 4.67648E-14
 -1      3484 1.98495E+01 3.87345E-01-1.64181E-03-5.73396E-01 1.38591E-13 6.64857E-14
 -1      3485 1.97049E+01 4.60073E-01 8.55204E-04-6.61307E-01 1.77163E-13-3.51125E-14
 -1      3486 1.98804E+01 3.72446E-01 1.42017E-03-5.11736E-01 1.00070E-13 1.11373E-13
 -1      3487 1.98811E+01 3.51564E-01-1.57309E-03-4.56866E-01 1.77633E-13 7.28475E-14
 -1      3488 1.97623E+01 4.33276E-01 1.04901E-03-5.29274E-01 1.57179E-13 1.19233E-13
 -1      3489 1.99092E+01 3.30112E-01 1.15464E-03-4.05079E-01 1.08014E-13 3.45633E-14
 -1      3490 1.99113E+01 3.05349E-01-1.41876E-03-3.58103E-01 2.69265E-14-2.05018E-14
 -1      3491 1.98168E+01 3.87044E-01 1.05244E-03-4.17875E-01 6.79921E-14 5.84877E-14
 -1      3492 1.99352E+01 2.81615E-01 9.49674E-04-3.15294E-01 1.16309E-14-4.10342E-14
 -1      3493 1.99374E+01 2.56342E-01-1.22984E-03-2.75982E-01-6.14617E-16-3.67314E-15
 -1      3494 1.98644E+01 3.32516E-01 9.44986E-04-3.25184E-01 2.79493E-14 1.08315E-13
 -1      3495 1.99569E+01 2.32981E-01 7.85230E-04-2.41164E-01 5.00454E-14 7.44016E-15
 -1      3496 1.99586E+01 2.09227E-01-1.02866E-03-2.08960E-01 4.00355E-14 1.49440E-13
 -1      3497 1.99038E+01 2.76974E-01 8.11159E-04-2.49155E-01 2.90055E-14 8.41093E-14
 -1      3498 1.99738E+01 1.87798E-01 6.45366E-04-1.81101E-01-1.37131E-13 4.82268E-14
 -1      3499 1.99748E+01 1.66652E-01-8.37274E-04-1.55221E-01-1.91603E-13 4.42109E-14
 -1      3500 1.99349E+01 2.24700E-01 6.55180E-04-1.87757E-01-9.27965E-14 1.45644E-13
 -1      3501 1.99863E+01 1.47892E-01 5.29286E-04-1.33274E-01-1.52844E-13 1.11559E-14
 -1      3502 1.99868E+01 1.29780E-01-6.64570E-04-1.12867E-01-5.28190E-15 5.00082E-14
 -1      3503 1.99586E+01 1.78117E-01 5.15283E-04-1.38897E-01-1.71397E-13 9.32975E-14
 -1      3504 1.99951E+01 1.13932E-01 4.28895E-04-9.58676E-02-4.68432E-14-6.56722E-17
 -1      3505 1.99951E+01 9.88939E-02-5.15963E-04-8.00725E-02-6.17830E-14-1.04269E-13
 -1      3506 1.99760E+01 1.38138E-01 3.90864E-04-1.00626E-01-8.33822E-14-4.08854E-14
 -1      3507 2.00010E+01 8.58871E-02 3.43072E-04-6.71294E-02 6.15148E-14-1.63903E-13
 -1      3508 2.00006E+01 7.37234E-02-3.91818E-04-5.51325E-02 7.43682E-14-6.63583E-15
 -1      3509 1.99883E+01 1.04875E-01 2.86721E-04-7.11350E-02 1.80399E-14-1.84807E-13
 -1      3510 2.00046E+01 6.33112E-02 2.70578E-04-4.54558E-02-5.73879E-14 2.24863E-15
 -1      3511 2.00040E+01 5.36986E-02-2.90818E-04-3.65218E-02-1.09435E-13-1.20269E-13
 -1      3512 1.99966E+01 7.79088E-02 2.03055E-04-4.87957E-02 5.34062E-14-2.49823E-13
 -1      3513 2.00065E+01 4.55499E-02 2.10172E-04-2.94295E-02-8.56928E-14-8.43184E-14
 -1      3514 2.00058E+01 3.81173E-02-2.10598E-04-2.29171E-02-8.28730E-14-2.86722E-14
 -1      3515 2.00019E+01 5.65462E-02 1.38111E-04-3.21814E-02-4.46998E-14-2.47465E-13
 -1      3516 2.00072E+01 3.18764E-02 1.60579E-04-1.78337E-02-1.85481E-13-4.95861E-14
 -1      3517 2.00065E+01 2.62511E-02-1.48304E-04-1.31995E-02-1.52273E-13-9.03091E-14
 -1      3518 2.00050E+01 3.99850E-02 8.92571E-05-2.00720E-02-1.65742E-13-1.66564E-13
 -1      3519 2.00072E+01 2.15734E-02 1.20488E-04-9.64989E-03 9.47984E-14-3.34538E-14
 -1      3520 2.00065E+01 1.74082E-02-1.00993E-04-6.44464E-03 2.47900E-13 1.94311E-13
 -1      3521 2.00065E+01 2.74148E-02 5.36439E-05-1.14465E-02-1.49010E-14-6.49348E-14
 -1      3522 2.00067E+01 1.39800E-02 8.86000E-05-4.04453E-03 1.50625E-13 3.02446E-13
 -1      3523 2.00060E+01 1.09667E-02-6.58861E-05-1.90523E-03 9.39317E-14 3.40846E-13
 -1      3524 2.00070E+01 1.80773E-02 2.85546E-05-5.46800E-03 2.46982E-13 7.97415E-14
 -1      3525 2.00059E+01 8.51383E-03 6.36678E-05-3.49630E-04 8.82305E-14 4.41937E-13
 -1      3526 2.00053E+01 6.38826E-03-4.04983E-05 1.01074E-03 2.96198E-13 3.81375E-13
 -1      3527 2.00067E+01 1.12968E-02 1.15756E-05-1.46337E-03 1.74569E-13 3.58407E-13
 -1      3528 2.00050E+01 4.67831E-03 4.45387E-05 1.95908E-03 2.69884E-13 4.55868E-13
 -1      3529 2.00045E+01 3.21932E-03-2.26723E-05 2.76257E-03 1.87544E-13 3.92056E-13
 -1      3530 2.00061E+01 6.49218E-03 6.63898E-07 1.09816E-03 2.83988E-13 4.37752E-13
 -1      3531 2.00041E+01 2.05955E-03 3.02157E-05 3.28443E-03 2.06290E-13 4.11471E-13
 -1      3532 2.00036E+01 1.08533E-03-1.06364E-05 3.69882E-03 2.13706E-13 3.20537E-13
 -1      3533 2.00053E+01 3.17596E-03-5.86479E-06 2.62689E-03 1.92202E-13 4.02821E-13
 -1      3534 2.00032E+01 3.17550E-04 1.98182E-05 3.92870E-03 6.64146E-14 1.72965E-13
 -1      3535 2.00028E+01-3.19609E-04-2.77447E-06 4.07669E-03 7.86110E-14 5.08271E-14
 -1      3536 2.00043E+01 9.45705E-04-9.56560E-06 3.43369E-03 1.95314E-14 1.68246E-13
 -1      3537 2.00023E+01-8.24791E-04 1.23137E-05 4.11185E-03 2.77203E-13-7.35629E-14
 -1      3538 2.00020E+01-1.24050E-03 1.66775E-06 4.07788E-03 2.78427E-13 1.74568E-14
 -1      3539 2.00034E+01-5.25212E-04-1.13563E-05 3.74695E-03 7.76801E-14 6.70885E-14
 -1      3540 1.91714E+01 2.18788E-01-1.15181E-03 2.20832E+00-3.09897E-13-1.81605E-13
 -1      3541 1.93190E+01-7.50441E-02 1.50776E-02 2.37951E+00-3.29882E-13-1.83464E-13
 -1      3542 2.00024E+01-2.09879E-03-6.81009E-06 3.17359E-03 2.69970E-13-9.37672E-14
 -1      3543 2.00029E+01-2.20830E-03 7.47867E-06 2.71476E-03 2.79973E-13-3.62592E-13
 -1      3544 1.93814E+01 7.09115E-01-5.30616E-03 1.52569E+00-1.23717E-13-4.60458E-14
 -1      3545 1.93777E+01 6.60785E-01 6.09453E-03 1.66309E+00-1.22176E-13-1.32959E-13
 -1      3546 1.95323E+01 7.28619E-01-4.89192E-03 1.26249E+00-1.38620E-13-7.73779E-14
 -1      3547 1.95123E+01 7.33044E-01 3.67035E-03 1.38561E+00-1.57143E-13-3.59618E-14
 -1      3548 1.90571E+01 8.40769E-01 4.07737E-03 1.39202E+00-1.58133E-13-8.08878E-14
 -1      3549 1.96650E+01 6.80871E-01-4.25596E-03 1.03635E+00 5.43170E-14-7.04881E-14
 -1      3550 1.96441E+01 7.12696E-01 2.44223E-03 1.14574E+00-5.04468E-14-7.29891E-14
 -1      3551 1.92900E+01 8.26172E-01 4.04655E-03 1.14587E+00-6.40632E-14-1.85273E-13
 -1      3552 1.97710E+01 6.01637E-01-3.60567E-03 8.41360E-01-9.75374E-14 1.23134E-13
 -1      3553 1.97551E+01 6.45384E-01 1.86871E-03 9.37240E-01 1.89105E-14 4.36310E-14
 -1      3554 1.94812E+01 7.55480E-01 3.49716E-03 9.39355E-01-2.37693E-14-2.01174E-13
 -1      3555 1.98506E+01 5.12201E-01-2.99301E-03 6.74320E-01-2.59664E-14 2.87514E-14
 -1      3556 1.98409E+01 5.58786E-01 1.58816E-03 7.56951E-01-4.06087E-14 1.14204E-13
 -1      3557 1.96310E+01 6.60055E-01 2.80902E-03 7.63152E-01-1.63729E-14-8.74906E-14
 -1      3558 1.99078E+01 4.24442E-01-2.43946E-03 5.32907E-01 3.19765E-14 2.44433E-14
 -1      3559 1.99033E+01 4.68919E-01 1.42234E-03 6.02868E-01 9.17543E-15-2.81650E-14
 -1      3560 1.97443E+01 5.58507E-01 2.14819E-03 6.12648E-01 6.45459E-14-1.46544E-13
 -1      3561 1.99473E+01 3.44323E-01-1.96017E-03 4.14927E-01 7.76036E-14-2.13692E-15
 -1      3562 1.99467E+01 3.84300E-01 1.28863E-03 4.73109E-01 1.06752E-13 1.03910E-13
 -1      3563 1.98277E+01 4.61234E-01 1.58619E-03 4.85091E-01 2.22577E-14-5.25874E-14
 -1      3564 1.99736E+01 2.74367E-01-1.55324E-03 3.18041E-01 1.61629E-13-1.39092E-13
 -1      3565 1.99754E+01 3.08923E-01 1.15238E-03 3.65597E-01 1.40352E-13-1.47304E-14
 -1      3566 1.98878E+01 3.73420E-01 1.13952E-03 3.78385E-01 1.90146E-13 9.89917E-14
 -1      3567 1.99904E+01 2.15135E-01-1.21571E-03 2.39734E-01-4.22525E-14-1.21623E-13
 -1      3568 1.99935E+01 2.44188E-01 1.00832E-03 2.77967E-01 9.23265E-14-1.91434E-13
 -1      3569 1.99302E+01 2.97165E-01 7.96781E-04 2.90485E-01 1.48080E-13-5.35897E-14
 -1      3570 2.00006E+01 1.66111E-01-9.40685E-04 1.77441E-01 1.68159E-14-7.55316E-14
 -1      3571 2.00043E+01 1.90028E-01 8.62814E-04 2.07684E-01-8.47427E-14-2.06332E-13
 -1      3572 1.99593E+01 2.32762E-01 5.38523E-04 2.19218E-01 4.91566E-15-1.64305E-13
 -1      3573 2.00063E+01 1.26288E-01-7.18313E-04 1.28684E-01 3.77166E-14 5.74303E-15
 -1      3574 2.00101E+01 1.45625E-01 7.21983E-04 1.52224E-01 1.16963E-13-1.58446E-14
 -1      3575 1.99790E+01 1.79536E-01 3.54363E-04 1.62378E-01 4.91626E-14-2.16608E-13
 -1      3576 2.00091E+01 9.44775E-02-5.40459E-04 9.11408E-02 1.02603E-13-8.16381E-14
 -1      3577 2.00126E+01 1.09859E-01 5.91418E-04 1.09168E-01 7.60513E-14-3.97522E-14
 -1      3578 1.99917E+01 1.36338E-01 2.24101E-04 1.17801E-01 1.68834E-13-6.85278E-14
 -1      3579 2.00100E+01 6.94552E-02-4.00604E-04 6.27136E-02 1.85575E-13-2.64398E-14
 -1      3580 2.00131E+01 8.15058E-02 4.75196E-04 7.62877E-02 1.31974E-13-1.11395E-13
 -1      3581 1.99997E+01 1.01857E-01 1.34279E-04 8.34206E-02 1.55867E-13-1.64004E-13
 -1      3582 2.00098E+01 5.00663E-02-2.91918E-04 4.15717E-02 6.22192E-14 8.79652E-14
 -1      3583 2.00125E+01 5.93658E-02 3.74619E-04 5.16096E-02 1.48229E-13 4.19616E-14
 -1      3584 2.00044E+01 7.47562E-02 7.36683E-05 5.73594E-02 7.01853E-14 1.06749E-13
 -1      3585 2.00090E+01 3.52722E-02-2.08502E-04 2.61544E-02 9.79321E-14 3.42549E-14
 -1      3586 2.00112E+01 4.23374E-02 2.89846E-04 3.34302E-02 1.74900E-13 1.09847E-13
 -1      3587 2.00068E+01 5.37768E-02 3.38768E-05 3.79644E-02 1.13286E-13 1.48082E-13
 -1      3588 2.00079E+01 2.41664E-02-1.45357E-04 1.51597E-02 5.56181E-14-2.60136E-14
 -1      3589 2.00097E+01 2.94455E-02 2.20032E-04 2.03136E-02-3.40256E-14-1.37762E-15
 -1      3590 2.00077E+01 3.77882E-02 8.70904E-06 2.38177E-02 1.38746E-13 1.88654E-13
 -1      3591 2.00067E+01 1.59760E-02-9.82887E-05 7.52302E-03 4.61720E-15 2.40737E-13
 -1      3592 2.00081E+01 1.98490E-02 1.63726E-04 1.10747E-02 1.11024E-13 3.09804E-14
 -1      3593 2.00077E+01 2.58032E-02-6.35732E-06 1.37305E-02 4.20953E-14 1.94627E-13
 -1      3594 2.00055E+01 1.00539E-02-6.38298E-05 2.38999E-03 1.48812E-13 1.16011E-13
 -1      3595 2.00066E+01 1.28377E-02 1.19186E-04 4.75359E-03 7.37815E-14 2.24721E-13
 -1      3596 2.00072E+01 1.69799E-02-1.45832E-05 6.72822E-03 6.92472E-14 3.21469E-13
 -1      3597 2.00044E+01 5.86678E-03-3.91597E-05-9.12255E-04-1.35776E-13 2.02659E-13
 -1      3598 2.00052E+01 7.82161E-03 8.46060E-05 5.87499E-04 6.17390E-14 2.12667E-13
 -1      3599 2.00064E+01 1.06132E-02-1.83002E-05 2.02683E-03 2.33993E-14 5.33098E-13
 -1      3600 2.00034E+01 2.98027E-03-2.21068E-05-2.90387E-03-2.35195E-13 2.15872E-13
 -1      3601 2.00040E+01 4.31742E-03 5.82341E-05-2.01899E-03-1.44603E-13 1.77838E-13
 -1      3602 2.00054E+01 6.12180E-03-1.91874E-05-9.91845E-04-5.50556E-14 3.77415E-13
 -1      3603 2.00026E+01 1.04471E-03-1.02620E-05-3.97805E-03-2.82168E-13-2.13943E-14
 -1      3604 2.00030E+01 1.93358E-03 3.85337E-05-3.52109E-03-3.75565E-13 1.93252E-14
 -1      3605 2.00044E+01 3.03189E-03-1.84638E-05-2.80591E-03-1.93863E-13 1.60140E-13
 -1      3606 2.00019E+01-2.22513E-04-2.21822E-06-4.42799E-03-2.22613E-13-1.22826E-13
 -1      3607 2.00022E+01 3.55417E-04 2.39085E-05-4.26142E-03-1.65994E-13-6.35227E-14
 -1      3608 2.00035E+01 9.64115E-04-1.70029E-05-3.77443E-03-1.93266E-13 7.51796E-14
 -1      3609 2.00013E+01-1.04908E-03 2.01930E-06-4.45497E-03-5.58321E-13-7.43419E-14
 -1      3610 2.00015E+01-6.74225E-04 1.40745E-05-4.48448E-03-4.01693E-13-1.71758E-13
 -1      3611 2.00026E+01-4.08667E-04-1.92010E-05-4.18017E-03-3.12913E-13 6.18954E-14
 -1      3612 2.00008E+01-1.60647E-03 2.32681E-06-4.20279E-03-5.15367E-14-4.15534E-13
 -1      3613 2.00009E+01-1.34301E-03 1.05388E-05-4.35624E-03-2.69794E-13-3.43231E-13
 -1      3614 2.00019E+01-1.31523E-03-1.67212E-05-4.19929E-03-1.98724E-13-3.68877E-13
 -1      3615 1.35091E+01-2.46352E-01-5.06408E-02 3.08453E+00-3.54031E-13 1.23047E-13
 -1      3616 1.20445E+01 4.60973E-01 8.11629E-02 1.87281E+00-2.52912E-13 5.80799E-13
 -1      3617 1.29063E+01 7.38876E-01 7.52601E-02 1.23127E+00-1.51011E-13 5.57006E-13
 -1      3618 2.00009E+01-2.38284E-03 1.12248E-05-3.49607E-03 7.83280E-14-7.33242E-13
 -1      3619 2.00004E+01-2.16864E-03-1.23633E-06-3.64700E-03 1.76179E-14-7.72277E-13
 -1      3620 2.00005E+01-2.01156E-03-3.73557E-06-3.84552E-03-4.65911E-15-6.75577E-13
 -1      3621 2.00014E+01-2.27006E-03-3.08768E-06-3.53058E-03 1.79501E-13-4.04495E-13
 -1      3622 2.33542E+01-3.68882E+00-6.89955E-02 2.48673E+00 3.45406E-13-5.62553E-14
 -1      3623 2.15043E+01-3.39669E+00 7.47771E-02 3.85287E+00 5.33396E-13-2.59403E-13
 -1      3624 2.63120E+01 3.85448E+00-1.40307E-01-1.71751E+00-1.01588E-12-7.55090E-14
 -1      3625 1.98892E+01-2.08835E+00 9.16680E-02-3.72766E+00-4.39513E-13-4.59704E-13
 -1      3626 1.28919E+01-3.53929E-01 1.98862E-02 4.04406E+00 5.87540E-13-1.02617E-12
 -1      3627 1.11244E+01 5.47665E-01 1.62040E-01 2.88157E+00 4.38597E-13-1.20602E-12
 -1      3628 1.50167E+01-6.72220E-01 8.80281E-02-3.97836E+00-3.71137E-13-1.03977E-12
 -1      3629 1.71818E+01-1.79284E+00-5.97747E-03-4.41385E+00-4.77920E-13-7.72875E-13
 -1      3630 1.92405E+01 5.65119E-01-4.89585E-03 1.83605E+00-2.07374E-13-1.96230E-13
 -1      3631 1.92851E+01 4.24757E-01 1.00376E-02 1.98858E+00-2.35692E-13-2.36415E-13
 -1      3632 1.87948E+01 7.47798E-01 2.86162E-03 1.69603E+00-2.24630E-13-2.67546E-13
 -1      3633 2.02901E+01 1.09897E+00 3.30724E-03 6.86490E-01-1.28606E-13-6.76426E-13
 -1      3634 1.90655E+01-1.31639E+00 1.57484E-02-3.44735E+00-2.88042E-13-5.29252E-13
 -1      3635 1.73441E+01 2.87660E+00-1.60280E-02 9.52617E-01 2.01050E-13-9.53478E-13
 -1      3636 1.77867E+01 2.70046E+00 1.05281E-02 9.83946E-01 1.28511E-13-9.48490E-13
 -1      3637 1.80333E+01 2.16637E+00-4.38319E-03 1.21675E+00 1.21408E-13-8.86924E-13
 -1      3638 2.05241E+01 5.20553E-01 1.88629E-03 9.45222E-01-5.30108E-14-5.92814E-13
 -1      3639 2.55462E+01-1.69811E+00-1.91318E-02 1.26585E+00-1.30309E-13-9.88955E-13
 -1      3640 2.33477E+01-3.98299E+00 8.98993E-02-2.79941E+00 5.97578E-13-5.69277E-13
 -1      3641 2.26117E+01-3.60151E+00 2.35142E-02-2.61274E+00 5.29664E-13-4.66555E-13
 -1      3642 2.38916E+01-3.57965E+00-8.35903E-02-1.30316E+00 3.71501E-13-6.07007E-13
 -1      3643 1.17031E+01 9.13812E-01 8.67365E-02-1.88469E+00-2.27006E-14-1.26905E-12
 -1      3644 1.30051E+01 2.02068E-01 3.18527E-02-3.18108E+00-1.91437E-13-1.19503E-12
 -1      3645 2.50066E+01-2.38978E+00-5.21834E-02 6.11077E-01-1.84106E-14-8.67095E-13
 -1      3646 1.97372E+01 1.16358E+00 6.11976E-03-1.51073E+00 2.77600E-13-4.88426E-13
 -1      3647 1.92306E+01 1.48055E+00 1.31352E-02-1.43922E+00 3.30474E-13-5.60675E-13
 -1      3648 1.97781E+01 7.42573E-01-4.72367E-03-1.81883E+00 1.99712E-13-5.04300E-13
 -1      3649 1.94030E+01-1.38221E+00 2.81000E-02 3.19259E+00-3.88692E-13-1.92141E-13
 -1      3650 2.00599E+01-2.10638E+00 4.70468E-02 3.28768E+00-4.14242E-13-2.18119E-13
 -1      3651 2.11148E+01-2.99988E+00 8.97282E-02 3.46782E+00-4.60233E-13-3.67093E-13
 -1      3652 1.96626E+01 1.00854E+00 7.97144E-03 1.24451E+00 1.82463E-14-7.41856E-13
 -1      3653 2.04985E+01 1.60791E-01-3.06138E-03 1.23519E+00-6.26062E-15-5.77542E-13
 -1      3654 2.02003E+01 5.86879E-02-5.40734E-04 1.56858E+00 8.58775E-14-6.23092E-13
 -1      3655 1.90555E+01 1.27806E+00-4.70122E-03 1.36897E+00 7.86874E-14-7.96193E-13
 -1      3656 2.47197E+01-2.28421E+00-2.94030E-02-3.39389E-01-4.22076E-14 9.22808E-14
 -1      3657 2.53484E+01-2.34795E+00-5.01993E-02-3.99114E-01-2.67824E-14 1.57666E-13
 -1      3658 2.49031E+01-3.31062E+00 8.22899E-02 1.12321E+00 2.22768E-13 4.01103E-14
 -1      3659 2.43667E+01-2.42413E+00 4.76971E-02 1.29275E-01 3.43215E-14 4.46952E-14
 -1      3660 1.84078E+01 1.77416E+00-1.91149E-02-1.34909E+00 3.05858E-13-6.33325E-13
 -1      3661 2.00029E+01-2.23789E-03 8.34431E-06-2.69718E-03 2.77434E-13-2.00712E-13
 -1      3662 2.00025E+01-2.12128E-03-6.08384E-06-3.15747E-03 3.03935E-13-2.96672E-13
 -1      3663 1.25715E+01 7.76710E-01 5.68341E-02-1.02352E+00 9.59849E-14 7.82735E-13
 -1      3664 1.20802E+01 5.58685E-01 1.08762E-01-1.91605E+00 1.69333E-13 8.06882E-13
 -1      3665 1.31792E+01 1.02690E-02 4.90547E-03-2.79916E+00 2.47925E-13 6.51212E-13
 -1      3666 1.63226E+01 2.80593E+00 5.45962E-04-2.96546E-01 3.34535E-13-8.94319E-13
 -1      3667 1.60923E+01 2.87011E+00-9.19089E-03 5.06411E-02 3.13794E-13-9.24880E-13
 -1      3668 2.00033E+01-2.28329E-03-7.05166E-06 2.15010E-03 1.88275E-13-3.15154E-13
 -1      3669 2.00036E+01-2.34359E-03 3.89118E-06 1.59678E-03 2.26036E-13-1.08697E-13
 -1      3670 2.00036E+01-1.86774E-03 4.16903E-06 2.51520E-03 2.36635E-13-2.03834E-13
 -1      3671 2.38251E+01-2.89400E+00-4.52271E-02 1.01781E+00 1.35236E-13-9.03739E-14
 -1      3672 1.57221E+01-3.41941E-01 6.82728E-02 3.10954E+00-3.09726E-13 7.19216E-14
 -1      3673 2.35131E+01-3.18136E+00-1.16904E-02 1.80126E+00 2.63118E-13-1.10622E-13
 -1      3674 2.00024E+01-1.73946E-03 5.87921E-06-3.58274E-03 2.56248E-13-2.27013E-13
 -1      3675 2.00018E+01-1.99104E-03 4.34682E-06-3.68998E-03 2.16401E-13-3.58134E-13
 -1      3676 1.85388E+01 4.70106E-01-1.15322E-03 2.08532E+00-2.44663E-13-2.66065E-13
 -1      3677 2.00016E+01-1.48346E-03 9.34067E-06 4.08031E-03 2.91606E-13-2.19329E-14
 -1      3678 2.00013E+01-1.73204E-03 3.60859E-06 3.96780E-03 2.86177E-13 9.30548E-14
 -1      3679 2.00016E+01-1.87184E-03-7.21333E-06 3.78807E-03 2.14673E-13 1.23834E-13
 -1      3680 2.00025E+01-1.39340E-03-1.33631E-05 3.81589E-03 3.39834E-13 1.16877E-13
 -1      3681 1.93233E+01-4.76889E-01 8.19025E-03 2.64899E+00-3.04182E-13-1.35234E-13
 -1      3682 1.96813E+01-9.60610E-01 3.15651E-02 2.80239E+00-3.19990E-13-1.94367E-13
 -1      3683 2.00005E+01-1.83580E-03 2.92593E-06-4.01026E-03 2.53542E-14-5.25574E-13
 -1      3684 1.15193E+01 9.14127E-01 9.84802E-02 1.87531E+00 3.36377E-13-1.19126E-12
 -1      3685 2.00012E+01-1.89554E-03-1.04533E-05-3.92437E-03 1.75239E-13-6.96693E-13
 -1      3686 1.14618E+01 1.26261E+00 9.54553E-03-3.07683E-01 1.38252E-13-1.25549E-12
 -1      3687 1.14922E+01 1.11741E+00 6.01210E-02-1.26400E+00 5.31276E-14-1.26995E-12
 -1      3688 1.27137E+01 1.21397E+00-7.96139E-04-1.57879E+00 3.53658E-14-1.17684E-12
 -1      3689 2.00039E+01-2.40806E-03 8.28245E-07-3.02149E-04 2.93570E-13 7.25116E-14
 -1      3690 2.00038E+01-2.39103E-03-1.97822E-06-9.14218E-04 2.87286E-13 8.14970E-14
 -1      3691 1.58053E+01 2.64979E+00 2.35519E-02 3.11056E-01 2.97241E-13-9.05128E-13
 -1      3692 1.60800E+01 2.83316E+00-1.28620E-02 5.38308E-01 3.30307E-13-9.16048E-13
 -1      3693 1.62653E+01 2.76682E+00 1.05508E-02 8.46729E-01 2.84825E-13-9.09316E-13
 -1      3694 1.48767E+01 8.81041E-02 8.16346E-02-3.19327E+00-2.25564E-13-1.03149E-12
 -1      3695 2.12126E+01-2.67659E+00 3.35584E-02 3.25661E+00 4.39925E-13-3.49437E-13
 -1      3696 2.01657E+01-2.92319E+00 1.35488E-02 4.21406E+00 5.45071E-13-3.88710E-13
 -1      3697 1.87591E+01-2.11591E+00 1.97375E-02 4.21730E+00 5.57738E-13-5.39438E-13
 -1      3698 1.70913E+01 2.70499E+00 6.20733E-03 1.05605E+00 2.24294E-13-9.13921E-13
 -1      3699 1.46379E+01-6.57083E-01 1.15579E-01 4.39013E+00 6.10515E-13-9.57637E-13
 -1      3700 1.39224E+01 1.19993E-01 2.17008E-02 3.55039E+00 4.86267E-13-9.64145E-13
 -1      3701 1.62824E+01-1.16390E+00 2.92197E-02 4.34069E+00 6.13936E-13-7.93685E-13
 -1      3702 1.92236E+01-7.12542E-01 2.05026E-02-2.97374E+00-1.97943E-13-5.25645E-13
 -1      3703 1.89744E+01-1.32924E-01 3.63412E-04-2.69951E+00-8.09621E-14-5.32963E-13
 -1      3704 1.69738E+01-2.72866E-01 2.71388E-02-3.41681E+00-2.33830E-13-7.64031E-13
 -1      3705 1.83727E+01-1.40575E-01-1.99169E-02 2.62210E+00-2.84783E-13-1.60386E-13
 -1      3706 1.58643E+01-1.70673E+00 8.30088E-02-4.56728E+00 5.87509E-13 2.83443E-13
 -1      3707 1.75207E+01-2.01288E+00 3.88752E-02-4.19930E+00 5.84980E-13 1.06533E-13
 -1      3708 1.50020E+01-9.09892E-01 1.35409E-02-3.85753E+00 4.59943E-13 3.33740E-13
 -1      3709 2.43857E+01-2.93332E+00 1.40826E-02-3.38543E-01 1.83589E-13-7.24647E-13
 -1      3710 2.00019E+01-1.99260E-03 5.82351E-06 3.56656E-03 2.24379E-13-3.51275E-14
 -1      3711 2.10977E+01-3.50669E+00-1.85351E-02-3.58495E+00 5.16073E-13-4.35148E-13
 -1      3712 2.23593E+01-2.98333E+00 3.48916E-02-2.15389E+00 3.97959E-13-4.50799E-13
 -1      3713 2.15361E+01-2.53701E+00 4.23718E-02-2.37875E+00 2.83893E-13-4.18833E-13
 -1      3714 1.97707E+01-2.82031E+00 3.49675E-03-3.76671E+00 4.94535E-13-2.72471E-13
 -1      3715 2.00026E+01-1.73089E-03 1.94916E-06 3.45985E-03 3.24067E-13-1.11041E-13
 -1      3716 1.80517E+01-8.62464E-01 9.00198E-03 3.25691E+00-3.65961E-13-9.94764E-14
 -1      3717 2.00038E+01-2.37928E-03-2.24676E-06 9.63601E-04 2.06300E-13-4.22371E-14
 -1      3718 2.00039E+01-2.40229E-03 1.33043E-06 3.57972E-04 1.77625E-13-7.44937E-14
 -1      3719 2.00044E+01-1.96711E-03 4.84330E-06 3.10283E-05 2.76479E-13-9.05543E-14
 -1      3720 2.00042E+01-1.93405E-03 5.22424E-06 1.31982E-03 1.58335E-13-1.44790E-13
 -1      3721 2.00033E+01-2.31053E-03-6.76107E-06-2.11548E-03 1.50069E-13 3.11700E-15
 -1      3722 2.00036E+01-1.90337E-03 3.98835E-06-2.48332E-03 3.41502E-13-1.77436E-13
 -1      3723 2.00036E+01-2.36466E-03 3.61585E-06-1.55321E-03 2.24817E-13 7.45879E-14
 -1      3724 1.90632E+01 8.89627E-01-5.80852E-03 9.69580E-01 3.33066E-14-3.14892E-13
 -1      3725 1.89594E+01 9.25477E-01 9.37326E-04 1.07258E+00-3.15537E-14-2.20461E-13
 -1      3726 1.67389E+01 2.56955E+00-2.24000E-02-7.30876E-01 2.95344E-13-8.33433E-13
 -1      3727 1.62797E+01 2.45775E+00 1.73511E-02-6.81749E-01 2.57790E-13-8.73621E-13
 -1      3728 1.73378E+01 2.39591E+00 2.10761E-02-9.86464E-01 3.24192E-13-7.50647E-13
 -1      3729 2.00037E+01-1.39713E-03-1.16597E-05-3.07106E-03 2.04574E-13-7.61578E-14
 -1      3730 2.00029E+01-1.31342E-03 2.46398E-06-3.62386E-03 7.86205E-14-1.37439E-13
 -1      3731 2.00033E+01-8.57348E-04 1.48999E-05-3.65897E-03-1.48943E-13-2.43179E-15
 -1      3732 1.79325E+01 7.52773E-01-1.32315E-02 1.78998E+00-1.80865E-13-2.34516E-13
 -1      3733 1.78541E+01 6.06320E-01 1.56168E-02 1.99295E+00-2.04809E-13-2.04860E-13
 -1      3734 2.09038E+01-2.00225E+00 2.00297E-02-2.27692E+00 1.46913E-13-3.28853E-13
 -1      3735 2.03741E+01-1.53313E+00 1.96399E-02-2.27622E+00 7.42069E-14-3.17218E-13
 -1      3736 2.02662E+01-2.24360E+00-2.78812E-02-2.91386E+00 2.36734E-13-2.95979E-13
 -1      3737 2.00674E+01-1.09639E+00 1.66748E-02-2.07585E+00 5.68031E-14-2.42336E-13
 -1      3738 1.97368E+01-7.35763E-01 5.88699E-03-1.98521E+00 1.19414E-13-2.54380E-13
 -1      3739 1.94544E+01-1.17858E+00-1.90314E-02-2.48259E+00 1.36073E-13-1.47633E-13
 -1      3740 1.96191E+01-4.20221E-01 1.19782E-02-1.78146E+00 1.63414E-13-2.32934E-13
 -1      3741 1.94357E+01-1.72595E-01-2.59704E-04-1.66337E+00 1.53560E-13-2.31121E-13
 -1      3742 1.91024E+01-4.15098E-01-9.48348E-03-2.01957E+00 1.43001E-13-7.80066E-14
 -1      3743 1.94213E+01 3.54626E-02 8.10938E-03-1.48599E+00 1.18316E-13-2.44069E-13
 -1      3744 1.93342E+01 1.90865E-01-2.60785E-03-1.36840E+00 1.21924E-13-2.08770E-13
 -1      3745 1.90034E+01 8.33706E-02-3.68068E-03-1.61199E+00 1.09024E-13-1.56105E-13
 -1      3746 1.93717E+01 3.16011E-01 5.20379E-03-1.22200E+00 2.27563E-13-1.26380E-13
 -1      3747 1.93428E+01 4.02695E-01-3.35235E-03-1.11456E+00 2.61702E-13-6.40753E-14
 -1      3748 1.90390E+01 3.82956E-01-6.64592E-04-1.27895E+00 2.59931E-13-7.10096E-15
 -1      3749 1.94044E+01 4.66841E-01 3.27880E-03-9.95385E-01 2.75851E-13-1.03540E-13
 -1      3750 1.94084E+01 5.04571E-01-3.32517E-03-9.01127E-01 2.98751E-13-1.17411E-13
 -1      3751 1.91410E+01 5.42047E-01 1.06674E-03-1.01192E+00 2.65055E-13-2.36974E-14
 -1      3752 1.94768E+01 5.27302E-01 1.93675E-03-8.04998E-01 2.18818E-13-1.44924E-13
 -1      3753 1.94971E+01 5.32874E-01-3.03798E-03-7.23574E-01 1.65293E-13-6.58247E-14
 -1      3754 1.92692E+01 6.02791E-01 1.61714E-03-7.99815E-01 2.16492E-13-6.80851E-14
 -1      3755 1.95638E+01 5.28715E-01 1.15539E-03-6.45573E-01 1.95474E-13-3.27171E-14
 -1      3756 1.95905E+01 5.14113E-01-2.64789E-03-5.76037E-01 2.19195E-13-3.69838E-14
 -1      3757 1.94008E+01 6.01291E-01 1.89611E-03-6.30200E-01 1.99955E-13-1.79001E-14
 -1      3758 1.96509E+01 4.93925E-01 6.72697E-04-5.12819E-01 1.32893E-13-7.70676E-14
 -1      3759 1.96782E+01 4.68071E-01-2.26575E-03-4.54063E-01 1.32666E-13-5.25556E-14
 -1      3760 1.95238E+01 5.61004E-01 1.88251E-03-4.93974E-01 1.35018E-13-4.80949E-14
 -1      3761 1.97303E+01 4.39573E-01 3.80805E-04-4.02954E-01 1.01556E-13-9.13579E-14
 -1      3762 1.97552E+01 4.08687E-01-1.89895E-03-3.53893E-01 1.43027E-14-7.59850E-14
 -1      3763 1.96321E+01 4.99711E-01 1.71571E-03-3.84376E-01 9.18140E-14-1.37422E-13
 -1      3764 1.97984E+01 3.77245E-01 2.12122E-04-3.12810E-01 2.18509E-15-3.77225E-14
 -1      3765 1.98195E+01 3.45471E-01-1.57259E-03-2.72301E-01-2.80877E-14-1.40511E-14
 -1      3766 1.97235E+01 4.29726E-01 1.49480E-03-2.96409E-01 1.62947E-15-1.68746E-13
 -1      3767 1.98544E+01 3.14287E-01 1.27866E-04-2.39451E-01-5.54764E-14-9.92943E-14
 -1      3768 1.98715E+01 2.84068E-01-1.27423E-03-2.06528E-01-4.40085E-14-1.62358E-13
 -1      3769 1.97980E+01 3.59162E-01 1.27135E-03-2.25924E-01-1.18051E-13-2.18980E-13
 -1      3770 1.98987E+01 2.55306E-01 7.16300E-05-1.80635E-01-1.10796E-14-1.46588E-13
 -1      3771 1.99119E+01 2.28188E-01-1.01250E-03-1.54212E-01-1.41624E-13-1.71949E-13
 -1      3772 1.98570E+01 2.92660E-01 1.01800E-03-1.70070E-01-8.51464E-14-3.07858E-13
 -1      3773 1.99327E+01 2.02802E-01 5.60938E-05-1.33932E-01-1.67671E-13-2.84201E-14
 -1      3774 1.99426E+01 1.79328E-01-7.91479E-04-1.13047E-01-5.15980E-14-6.25196E-14
 -1      3775 1.99025E+01 2.33416E-01 8.23251E-04-1.26086E-01-2.89717E-14-2.32811E-13
 -1      3776 1.99581E+01 1.57702E-01 4.52440E-05-9.74004E-02-7.60297E-14 3.86805E-14
 -1      3777 1.99651E+01 1.38021E-01-6.08911E-04-8.11479E-02-7.18104E-14 3.92835E-14
 -1      3778 1.99367E+01 1.82281E-01 6.39184E-04-9.18390E-02-4.34695E-14 7.78655E-14
 -1      3779 1.99763E+01 1.20118E-01 4.00731E-05-6.92375E-02-9.93361E-14-2.06449E-14
 -1      3780 1.99811E+01 1.04039E-01-4.60169E-04-5.67932E-02-3.37070E-14-1.02851E-13
 -1      3781 1.99616E+01 1.39500E-01 4.85488E-04-6.55110E-02-1.27178E-13 2.11610E-13
 -1      3782 1.99890E+01 8.95789E-02 3.68084E-05-4.78670E-02 2.38734E-14-1.51937E-13
 -1      3783 1.99921E+01 7.67423E-02-3.40961E-04-3.85013E-02-8.52189E-15-1.25402E-13
 -1      3784 1.99792E+01 1.04587E-01 3.59974E-04-4.55493E-02-1.22070E-13 3.75317E-14
 -1      3785 1.99974E+01 6.53196E-02 3.40480E-05-3.19264E-02-1.66735E-14-2.34092E-13
 -1      3786 1.99993E+01 5.52882E-02-2.47172E-04-2.50080E-02-4.70831E-15-2.24779E-13
 -1      3787 1.99913E+01 7.67289E-02 2.60172E-04-3.06477E-02-6.49282E-14 7.40456E-14
 -1      3788 2.00027E+01 4.64527E-02 3.11240E-05-2.02592E-02-9.60084E-14-2.01412E-13
 -1      3789 2.00037E+01 3.87740E-02-1.74740E-04-1.52540E-02-2.08555E-13-1.26966E-13
 -1      3790 1.99991E+01 5.49597E-02 1.82683E-04-1.97157E-02-6.79362E-14-1.66488E-13
 -1      3791 2.00057E+01 3.20801E-02 2.78741E-05-1.19023E-02-1.23895E-13-3.74433E-14
 -1      3792 2.00060E+01 2.63235E-02-1.19861E-04-8.36728E-03 1.24021E-13-2.24299E-14
 -1      3793 2.00039E+01 3.82914E-02 1.23896E-04-1.18547E-02-7.01381E-14 9.98623E-14
 -1      3794 2.00071E+01 2.13589E-02 2.43882E-05-6.06697E-03 3.97353E-13-5.41744E-14
 -1      3795 2.00070E+01 1.71364E-02-7.91260E-05-3.64193E-03 2.26401E-13 1.14946E-13
 -1      3796 2.00065E+01 2.57884E-02 8.03474E-05-6.33442E-03 2.34785E-13 5.65484E-14
 -1      3797 2.00074E+01 1.35365E-02 2.08480E-05-2.11903E-03 1.25575E-13 2.08662E-13
 -1      3798 2.00071E+01 1.05107E-02-4.95900E-05-5.16412E-04 3.02874E-13 3.53521E-13
 -1      3799 2.00076E+01 1.66089E-02 4.89051E-05-2.56926E-03 3.09628E-13 1.06063E-13
 -1      3800 2.00070E+01 7.96327E-03 1.74318E-05 4.42791E-04 1.92941E-13 3.00656E-13
 -1      3801 2.00066E+01 5.84919E-03-2.87823E-05 1.44801E-03 2.39966E-13 1.77361E-13
 -1      3802 2.00076E+01 1.00226E-02 2.68303E-05-9.71366E-05 2.24960E-13 2.38394E-13
 -1      3803 2.00063E+01 4.09328E-03 1.43072E-05 2.00712E-03 2.15053E-13 3.35720E-14
 -1      3804 2.00058E+01 2.65497E-03-1.46883E-05 2.58756E-03 6.12919E-14-1.25519E-14
 -1      3805 2.00071E+01 5.41230E-03 1.17808E-05 1.44042E-03 9.58323E-14-2.65915E-14
 -1      3806 2.00053E+01 1.47825E-03 1.23040E-05 2.86948E-03-2.78414E-14-7.12831E-14
 -1      3807 2.00048E+01 5.20817E-04-5.77903E-06 3.15694E-03-1.35170E-14-2.06823E-13
 -1      3808 2.00062E+01 2.26541E-03 9.55227E-07 2.31656E-03-7.40727E-14-1.42924E-13
 -1      3809 2.00043E+01-2.52746E-04 1.10002E-05 3.24801E-03 3.03322E-15-2.19481E-14
 -1      3810 2.00038E+01-8.83993E-04 1.02933E-06 3.33987E-03 4.84551E-14-3.81483E-14
 -1      3811 2.00051E+01 1.67184E-04-7.14799E-06 2.74054E-03 1.39671E-13-8.91930E-14
 -1      3812 2.00031E+01-1.44885E-03 7.87325E-06 3.40659E-03 2.72487E-13-1.40539E-13
 -1      3813 2.28532E+01-2.85688E+00 4.68345E-02 2.16093E+00 2.95974E-13-2.25554E-13
 -1      3814 1.93080E+01 7.97404E-01-4.56428E-03 7.96864E-01-5.82306E-14-2.39943E-13
 -1      3815 1.92245E+01 8.48546E-01 3.75670E-04 8.84977E-01-2.74464E-14-2.60676E-13
 -1      3816 1.89365E+01 9.56203E-01 6.11390E-03 8.16448E-01-2.20499E-14-2.57204E-13
 -1      3817 2.22594E+01-2.34970E+00 1.31697E-02 2.02020E+00 2.37766E-13-3.25329E-13
 -1      3818 2.16464E+01-2.62950E+00-2.56362E-02 2.79673E+00 3.26846E-13-3.59868E-13
 -1      3819 2.06539E+01-2.02759E+00 1.99973E-02 3.04914E+00 3.67368E-13-4.32415E-13
 -1      3820 2.15625E+01-1.76953E+00 3.12344E-02 2.12391E+00 2.09073E-13-3.82021E-13
 -1      3821 1.87538E+01 9.42414E-01-7.65582E-03 1.17625E+00-1.73145E-13-2.13407E-13
 -1      3822 1.86334E+01 9.47035E-01 2.53838E-03 1.30053E+00-1.81267E-13-2.13798E-13
 -1      3823 1.85856E+01 1.03840E+00 7.63424E-03 9.85872E-01-8.16538E-14-2.83438E-13
 -1      3824 1.94975E+01 6.89339E-01-3.66724E-03 6.49268E-01 4.09856E-15-1.85171E-13
 -1      3825 1.94334E+01 7.45626E-01 2.37689E-04 7.25287E-01-5.79734E-14-1.96240E-13
 -1      3826 1.92106E+01 8.45733E-01 4.73708E-03 6.74652E-01-4.63801E-14-1.18189E-13
 -1      3827 1.96414E+01 5.80126E-01-2.94750E-03 5.22624E-01-1.59803E-15-8.85118E-14
 -1      3828 1.95940E+01 6.35394E-01 2.78025E-04 5.87979E-01 6.64554E-14-1.53591E-13
 -1      3829 1.94222E+01 7.25949E-01 3.65145E-03 5.52671E-01-2.61487E-14-1.37848E-13
 -1      3830 1.97491E+01 4.77732E-01-2.37517E-03 4.14693E-01-1.31012E-14 2.63689E-14
 -1      3831 1.97149E+01 5.28706E-01 3.68759E-04 4.70211E-01-6.03483E-14-4.45817E-14
 -1      3832 1.95834E+01 6.08543E-01 2.79102E-03 4.46973E-01-6.94172E-14 6.74428E-14
 -1      3833 1.98284E+01 3.86170E-01-1.90276E-03 3.23965E-01 1.85015E-13 3.85971E-14
 -1      3834 1.98044E+01 4.31264E-01 4.38863E-04 3.70385E-01 1.04291E-13 3.33833E-14
 -1      3835 1.97049E+01 4.99993E-01 2.10773E-03 3.56056E-01 4.77965E-14 2.55737E-14
 -1      3836 1.98860E+01 3.07023E-01-1.50950E-03 2.48925E-01 1.68740E-13-1.33826E-14
 -1      3837 1.98696E+01 3.45705E-01 4.69398E-04 2.87094E-01 2.48803E-13 7.86296E-14
 -1      3838 1.97953E+01 4.03580E-01 1.57419E-03 2.79036E-01 2.32352E-13-8.91287E-14
 -1      3839 1.99271E+01 2.40313E-01-1.19107E-03 1.87863E-01 6.65800E-14-1.68418E-13
 -1      3840 1.99162E+01 2.72741E-01 4.62233E-04 2.18736E-01 1.51063E-13-6.27503E-15
 -1      3841 1.98617E+01 3.20553E-01 1.16630E-03 2.14911E-01 2.48803E-13 1.69120E-13
 -1      3842 1.99559E+01 1.85171E-01-9.30537E-04 1.39055E-01 8.58488E-14-1.81248E-13
 -1      3843 1.99490E+01 2.11841E-01 4.30723E-04 1.63580E-01 4.83040E-14-1.44267E-13
 -1      3844 1.99097E+01 2.50631E-01 8.39711E-04 1.62437E-01 6.62754E-14 2.45685E-14
 -1      3845 1.99757E+01 1.40448E-01-7.14076E-04 1.00727E-01 9.93750E-14-4.99664E-14
 -1      3846 1.99715E+01 1.61986E-01 3.83240E-04 1.19884E-01 1.16076E-13-5.99754E-14
 -1      3847 1.99439E+01 1.92910E-01 5.99585E-04 1.20349E-01 1.99483E-14-3.67002E-17
 -1      3848 1.99890E+01 1.04761E-01-5.40380E-04 7.11451E-02 2.17455E-13-3.74263E-14
 -1      3849 1.99866E+01 1.21878E-01 3.30426E-04 8.58542E-02 2.34610E-13-7.61318E-15
 -1      3850 1.99677E+01 1.46127E-01 4.21843E-04 8.71999E-02 1.25513E-13 3.82782E-14
 -1      3851 1.99975E+01 7.67259E-02-4.02497E-04 4.87237E-02 1.78567E-14 2.17358E-14
 -1      3852 1.99964E+01 9.01196E-02 2.76455E-04 5.98169E-02 8.78580E-14-6.56385E-14
 -1      3853 1.99839E+01 1.08825E-01 2.90725E-04 6.15628E-02 1.84373E-13 1.01827E-13
 -1      3854 2.00027E+01 5.50424E-02-2.94411E-04 3.20522E-02 1.75969E-13 1.87007E-15
 -1      3855 2.00024E+01 6.53592E-02 2.25335E-04 4.02603E-02 8.76880E-14-7.55953E-15
 -1      3856 1.99945E+01 7.95468E-02 1.95019E-04 4.21069E-02 9.25219E-14 1.82083E-14
 -1      3857 2.00056E+01 3.85389E-02-2.10885E-04 1.99120E-02-4.96770E-14 1.45929E-13
 -1      3858 2.00057E+01 4.63571E-02 1.79450E-04 2.58594E-02 1.15075E-13 1.25378E-13
 -1      3859 2.00012E+01 5.69272E-02 1.26206E-04 2.76316E-02 7.58783E-14 1.12744E-13
 -1      3860 2.00069E+01 2.61902E-02-1.47331E-04 1.12772E-02 5.09704E-14 2.42411E-13
 -1      3861 2.00073E+01 3.20126E-02 1.39830E-04 1.54846E-02-1.63655E-14 1.79289E-13
 -1      3862 2.00050E+01 3.97356E-02 7.75738E-05 1.70902E-02-6.05189E-14 9.35907E-14
 -1      3863 2.00072E+01 1.71198E-02-9.97894E-05 5.30461E-03 8.03135E-14 2.20549E-13
 -1      3864 2.00077E+01 2.13740E-02 1.06652E-04 8.19690E-03 1.03432E-13 2.71272E-13
 -1      3865 2.00070E+01 2.68941E-02 4.39246E-05 9.59635E-03-2.79945E-14 1.55364E-13
 -1      3866 2.00068E+01 1.05932E-02-6.49237E-05 1.31524E-03-1.30596E-14 2.73184E-13
 -1      3867 2.00074E+01 1.36361E-02 7.95777E-05 3.23218E-03 3.86667E-14 1.74729E-13
 -1      3868 2.00076E+01 1.74809E-02 2.12689E-05 4.41868E-03 7.50109E-14 2.32006E-13
 -1      3869 2.00061E+01 6.00404E-03-3.99860E-05-1.22626E-03-1.16274E-13 3.00965E-13
 -1      3870 2.00067E+01 8.12914E-03 5.79563E-05-1.83090E-05-2.63785E-14 3.07943E-13
 -1      3871 2.00074E+01 1.07231E-02 6.55056E-06 9.66966E-04 7.56072E-14 2.34856E-13
 -1      3872 2.00052E+01 2.85973E-03-2.19234E-05-2.73334E-03-1.10335E-13 2.29802E-13
 -1      3873 2.00058E+01 4.30446E-03 4.09457E-05-2.03024E-03-1.05347E-13 2.94738E-13
 -1      3874 2.00068E+01 5.98367E-03-2.50611E-06-1.22488E-03-1.09422E-13 1.73959E-13
 -1      3875 2.00043E+01 7.73247E-04-3.20542E-06-3.50951E-03-2.68621E-13 3.79737E-13
 -1      3876 2.00048E+01 1.71144E-03 2.71322E-05-3.17005E-03-2.00302E-13 3.24163E-13
 -1      3877 2.00058E+01 2.74367E-03-8.57981E-06-2.51860E-03-1.61571E-13 5.46994E-13
 -1      3878 2.00036E+01-4.21655E-04 5.33413E-06-3.68692E-03-1.56515E-13 1.73816E-13
 -1      3879 2.00040E+01 2.12212E-04 1.89388E-05-3.57494E-03-9.81078E-14 2.71464E-13
 -1      3880 2.00051E+01 7.86846E-04-1.81132E-05-3.06225E-03-5.57158E-14 2.97983E-13
 -1      3881 2.00046E+01-4.03198E-04-1.99874E-05-3.12327E-03 6.45296E-14-8.24246E-14
 -1      3882 1.37560E+01 6.88012E-01-4.11176E-02 1.59025E+00-1.96836E-13 2.56756E-13
 -1      3883 1.31603E+01 9.83915E-01 3.83140E-02 4.30359E-01-5.96456E-14 6.19671E-13
 -1      3884 1.77896E+01 1.86244E+00-1.83927E-02 1.50280E+00 1.80703E-13-8.40414E-13
 -1      3885 1.84429E+01 1.62128E+00 2.08225E-02 1.48429E+00 1.16967E-13-8.30698E-13
 -1      3886 1.88468E+01 9.61847E-01-1.28788E-02 1.68725E+00 1.28116E-13-7.51402E-13
 -1      3887 1.83739E+01 9.18084E-01-1.01535E-02 1.43678E+00-2.24100E-13-2.28994E-13
 -1      3888 1.82514E+01 8.65897E-01 6.52950E-03 1.59447E+00-2.10473E-13-2.39842E-13
 -1      3889 1.81416E+01 1.06426E+00 9.56724E-03 1.20149E+00-1.84548E-13-3.12412E-13
 -1      3890 1.66173E+01 2.46285E+00-2.68742E-02 1.21195E+00 2.79493E-13-8.77717E-13
 -1      3891 1.71420E+01 2.29181E+00 2.10749E-02 1.37555E+00 2.19540E-13-8.72432E-13
 -1      3892 1.62585E+01 2.33801E+00 8.68093E-03 1.22081E+00 2.79992E-13-8.68353E-13
 -1      3893 1.74388E+01-1.11248E-01 3.31993E-03 2.74819E+00-3.10142E-13-9.47094E-14
 -1      3894 1.69255E+01-4.54685E-01-2.34173E-02 3.08161E+00-3.36781E-13-3.20265E-14
 -1      3895 1.52630E+01 4.26666E-01 6.51622E-02 2.46251E+00-2.56874E-13 9.96312E-14
 -1      3896 1.74924E+01 2.91641E-01-4.26627E-03 2.39940E+00-2.96550E-13-1.26684E-13
 -1      3897 2.00042E+01-1.95255E-03 4.64449E-06-1.26477E-03 2.72627E-13 9.73726E-14
 -1      3898 2.05023E+01-5.67740E-01 6.88460E-03 1.86597E+00 1.29860E-13-5.57043E-13
 -1      3899 2.09755E+01-1.16922E+00 1.82960E-03 1.97192E+00 1.61403E-13-4.91975E-13
 -1      3900 2.05984E+01-1.32206E+00-1.95623E-02 2.41479E+00 2.28074E-13-5.19782E-13
 -1      3901 1.94480E+01 1.29773E-01-2.18159E-03-2.35246E+00-4.79174E-15-4.92554E-13
 -1      3902 1.94132E+01 5.61742E-01 1.77851E-03-2.08792E+00 1.08135E-13-5.20352E-13
 -1      3903 1.88424E+01 9.36269E-01 3.69156E-02-2.04469E+00 1.25108E-13-6.05543E-13
 -1      3904 1.78828E+01 5.78575E-01 5.24628E-02-2.61057E+00-3.24786E-14-6.67209E-13
 -1      3905 1.78443E+01 1.63616E+00-1.68041E-02-1.52025E+00 2.19462E-13-6.68454E-13
 -1      3906 1.26138E+01 1.03274E+00 1.63412E-03 2.25097E+00 3.89693E-13-1.03122E-12
 -1      3907 1.17979E+01 1.41985E+00 9.42634E-02 9.88268E-01 2.69174E-13-1.17643E-12
 -1      3908 1.28131E+01 1.57077E+00 8.11099E-02 2.68253E-01 2.00459E-13-1.13387E-12
 -1      3909 1.50918E+01 6.01328E-01-1.31944E-02-2.71155E+00-1.15326E-13-9.12749E-13
 -1      3910 2.00038E+01-1.27188E-03-1.04879E-05 2.95127E-03 1.22862E-13-2.47746E-13
 -1      3911 1.41427E+01 2.61169E-01 1.62302E-02-2.48019E+00 2.53441E-13 5.08562E-13
 -1      3912 1.44872E+01-2.09911E-01 7.30507E-02-3.26845E+00 3.28451E-13 4.30702E-13
 -1      3913 1.58212E+01-6.34002E-01 1.98567E-02-3.37373E+00 4.09148E-13 1.73252E-13
 -1      3914 1.60670E+01 2.14501E+00 4.33074E-02-1.14259E+00 1.89270E-13-8.75601E-13
 -1      3915 1.54132E+01 2.27169E+00-3.15168E-02-6.73222E-01 1.98510E-13-9.52678E-13
 -1      3916 2.00042E+01-1.41755E-03 2.48132E-06-2.48789E-03 2.37655E-13-7.79463E-14
 -1      3917 1.31955E+01 1.02059E+00 3.30971E-02-3.37327E-01 8.94280E-14 7.27781E-13
 -1      3918 1.36265E+01 7.98119E-01-7.61702E-03-1.30571E+00 1.59862E-13 6.33949E-13
 -1      3919 1.41597E+01 1.06696E+00 8.86945E-03 4.18320E-02-7.92508E-15 4.69847E-13
 -1      3920 1.73973E+01 1.67789E+00-8.51747E-03 1.72136E+00 2.15535E-13-8.16587E-13
 -1      3921 1.75889E+01 9.88325E-01 1.29053E-02 1.50570E+00-2.27957E-13-2.03870E-13
 -1      3922 2.00050E+01-1.46327E-03-4.67158E-06 3.54566E-04 2.26893E-13-8.19905E-14
 -1      3923 2.00050E+01-1.46315E-03-1.81874E-06-2.81152E-04 2.61187E-13-1.09594E-13
 -1      3924 1.73471E+01 1.45420E+00-3.72902E-02-1.75152E+00 1.22175E-13-7.09119E-13
 -1      3925 1.52527E+01 6.99703E-01 1.23843E-02 1.78344E+00-1.55414E-13 1.58927E-13
 -1      3926 1.69175E+01 6.49455E-01 2.06102E-02 2.07799E+00-2.18462E-13-1.04404E-13
 -1      3927 1.51766E+01 2.45527E+00 1.20430E-02 1.11838E-01 2.50951E-13-9.36747E-13
 -1      3928 1.51483E+01 2.38103E+00-1.26792E-02 5.86885E-01 2.52311E-13-9.08654E-13
 -1      3929 1.47550E+01 2.13987E+00-5.22048E-03-3.63397E-01 1.65108E-13-9.76300E-13
 -1      3930 1.42773E+01 1.53434E+00 5.77929E-02-1.65000E+00 3.68386E-14-1.02857E-12
 -1      3931 1.60431E+01 1.20173E+00-1.23082E-03-2.02585E+00-7.71952E-17-8.31133E-13
 -1      3932 1.77922E+01-1.35169E+00 4.48553E-02 4.12586E+00 5.37766E-13-6.50925E-13
 -1      3933 1.67664E+01-5.19108E-01 1.26932E-02 3.70611E+00 4.62188E-13-7.48276E-13
 -1      3934 1.90687E+01-1.43168E+00 1.97769E-02 3.51416E+00 4.66264E-13-5.45525E-13
 -1      3935 2.00043E+01-1.30432E-03 2.01409E-06 2.40657E-03 6.53788E-14-6.52668E-14
 -1      3936 1.48489E+01 3.85901E-01 1.99257E-03 3.20554E+00 4.60543E-13-8.97914E-13
 -1      3937 1.37233E+01 8.84228E-01 9.70815E-02 2.79737E+00 4.10760E-13-9.70224E-13
 -1      3938 1.35703E+01 1.30953E+00-6.63299E-03 2.00781E+00 3.28472E-13-9.68718E-13
 -1      3939 2.00049E+01-1.48708E-03-3.32382E-06-9.54132E-04 2.32314E-13 1.05772E-13
 -1      3940 2.00047E+01-1.46697E-03-8.22869E-06-1.57097E-03 2.54860E-13 1.58368E-13
 -1      3941 2.00055E+01-8.83681E-04 1.11584E-05-6.05390E-04 9.18224E-14 2.44959E-14
 -1      3942 1.98595E+01 3.60598E-02 1.13270E-02 1.89473E+00 1.26337E-13-6.89086E-13
 -1      3943 1.85318E+01-2.18943E+00 1.54431E-02-3.93150E+00 5.37180E-13-1.45023E-14
 -1      3944 1.97397E+01-2.15798E+00 2.90665E-02-3.26048E+00 3.70145E-13-2.04488E-13
 -1      3945 1.91492E+01-1.57690E+00 5.95356E-03-3.03103E+00 2.84127E-13-8.46868E-14
 -1      3946 1.74730E+01-1.42792E+00-6.57511E-03-3.64171E+00 4.97491E-13 1.11747E-13
 -1      3947 1.37227E+01 1.69066E+00 2.80017E-02-7.24743E-01 9.76007E-14-1.07052E-12
 -1      3948 2.02969E+01-1.36053E+00 1.97069E-02 2.71776E+00 3.09405E-13-5.09514E-13
 -1      3949 1.96611E+01-1.45913E+00 1.66159E-03 3.20212E+00 3.75157E-13-5.26829E-13
 -1      3950 1.86985E+01-7.20109E-01 9.62699E-03 3.10347E+00 3.67428E-13-6.17173E-13
 -1      3951 1.98219E+01-6.55412E-01 3.63333E-02 2.51011E+00 2.40800E-13-5.90950E-13
 -1      3952 1.66113E+01 1.33163E+00-2.05343E-02-1.83057E+00 7.86420E-14-7.76277E-13
 -1      3953 2.00049E+01-8.57797E-04 1.11742E-05-2.16958E-03 2.30495E-13 1.17935E-13
 -1      3954 2.00049E+01-1.46344E-03-7.85608E-07 1.01691E-03 1.04520E-13-1.56451E-13
 -1      3955 2.00055E+01-8.70538E-04 8.63560E-06 6.91016E-04 2.57396E-13-2.37797E-13
 -1      3956 2.00047E+01-1.44892E-03-8.01484E-06 1.63061E-03 7.00900E-14-2.83397E-13
 -1      3957 1.90062E+01-1.06360E+00 1.94584E-02-2.66577E+00 1.11939E-13-5.94196E-14
 -1      3958 1.87136E+01-6.51355E-01-5.26421E-03-2.41146E+00 1.27770E-13-6.13163E-14
 -1      3959 1.83143E+01-1.06168E+00-4.99958E-03-2.98767E+00 2.50517E-13 2.64220E-14
 -1      3960 1.87378E+01-3.04114E-01 1.32524E-02-2.10249E+00 1.52753E-13-6.80992E-14
 -1      3961 1.86153E+01-3.99899E-02-8.51365E-03-1.87680E+00 1.45973E-13-9.12169E-14
 -1      3962 1.82082E+01-2.54010E-01-2.27264E-03-2.26702E+00 1.02133E-13 1.88561E-14
 -1      3963 1.87122E+01 1.80096E-01 8.84970E-03-1.63721E+00 1.61298E-13-8.62664E-14
 -1      3964 1.86872E+01 3.36872E-01-8.05820E-03-1.45374E+00 1.43172E-13-6.63089E-14
 -1      3965 1.83158E+01 2.47504E-01 9.86501E-04-1.70890E+00 1.65462E-13 1.62752E-14
 -1      3966 1.88079E+01 4.65608E-01 5.61565E-03-1.27337E+00 1.82152E-13 9.34655E-15
 -1      3967 1.88336E+01 5.49885E-01-6.74355E-03-1.12832E+00 3.55150E-13 1.04467E-14
 -1      3968 1.85104E+01 5.35492E-01 2.05886E-03-1.29199E+00 2.25184E-13 2.24398E-14
 -1      3969 1.89578E+01 6.13615E-01 3.78657E-03-9.89531E-01 3.00646E-13-1.82777E-13
 -1      3970 1.90097E+01 6.44704E-01-5.22676E-03-8.75684E-01 2.29688E-13-1.56316E-13
 -1      3971 1.87316E+01 6.82762E-01 2.77297E-03-9.80901E-01 2.14788E-13-1.44011E-13
 -1      3972 1.91239E+01 6.64601E-01 2.09391E-03-7.71892E-01 1.93643E-13-1.86048E-13
 -1      3973 1.91845E+01 6.63955E-01-3.99435E-03-6.81765E-01 2.22560E-13-2.21126E-13
 -1      3974 1.89520E+01 7.27846E-01 2.16775E-03-7.48919E-01 2.09072E-13-3.53457E-13
 -1      3975 1.92862E+01 6.55199E-01 1.31091E-03-6.01305E-01 2.52176E-13-1.76848E-13
 -1      3976 1.93466E+01 6.33511E-01-3.08909E-03-5.29564E-01 2.29700E-13-1.43062E-13
 -1      3977 1.91540E+01 7.14357E-01 2.23464E-03-5.73407E-01 2.59649E-13-3.39568E-13
 -1      3978 1.94339E+01 6.07731E-01 7.46094E-04-4.67168E-01 1.29368E-13-1.34738E-13
 -1      3979 1.94892E+01 5.74514E-01-2.41297E-03-4.09772E-01 6.25598E-14-2.12218E-13
 -1      3980 1.93323E+01 6.61495E-01 1.98546E-03-4.39037E-01 1.46494E-13-3.12718E-13
 -1      3981 1.95623E+01 5.39891E-01 3.91633E-04-3.61126E-01 6.26687E-14-2.17905E-13
 -1      3982 1.96103E+01 5.01558E-01-1.90088E-03-3.15068E-01 7.79121E-14-2.50672E-13
 -1      3983 1.94844E+01 5.87861E-01 1.73310E-03-3.35359E-01 4.18600E-14-3.92649E-13
 -1      3984 1.96699E+01 4.63657E-01 1.52247E-04-2.77245E-01 7.19529E-14-2.54194E-13
 -1      3985 1.97097E+01 4.24971E-01-1.50283E-03-2.40488E-01 2.51356E-14-2.44007E-13
 -1      3986 1.96106E+01 5.05710E-01 1.47699E-03-2.54941E-01 6.35210E-14-3.46159E-13
 -1      3987 1.97574E+01 3.87706E-01 6.44861E-05-2.10518E-01-9.84052E-14-1.89566E-13
 -1      3988 1.97897E+01 3.50634E-01-1.17250E-03-1.81187E-01-1.61557E-13-2.31721E-13
 -1      3989 1.97125E+01 4.23709E-01 1.16774E-03-1.92399E-01-4.36247E-14-3.66876E-13
 -1      3990 1.98269E+01 3.16043E-01-4.08279E-05-1.58378E-01-1.01450E-13-2.53149E-13
 -1      3991 1.98520E+01 2.83063E-01-8.89797E-04-1.35206E-01 2.98061E-14-2.19915E-13
 -1      3992 1.97936E+01 3.46289E-01 9.65159E-04-1.43834E-01-8.96123E-14-2.64993E-13
 -1      3993 1.98805E+01 2.52456E-01-3.31815E-05-1.17376E-01 1.08007E-13-1.14225E-13
 -1      3994 1.98997E+01 2.23702E-01-6.84884E-04-9.92161E-02 2.53179E-14 2.40529E-14
 -1      3995 1.98561E+01 2.77558E-01 8.13188E-04-1.06346E-01 1.43087E-13 7.73746E-14
 -1      3996 1.99209E+01 1.97495E-01-4.84942E-05-8.56123E-02-2.13843E-14 5.41829E-14
 -1      3997 1.99351E+01 1.73294E-01-5.20146E-04-7.15407E-02-5.00487E-14 1.53587E-13
 -1      3998 1.99034E+01 2.17845E-01 6.22749E-04-7.74434E-02-9.78152E-15 9.87115E-14
 -1      3999 1.99507E+01 1.51473E-01-4.57481E-05-6.12355E-02-1.37341E-13 2.34882E-13
 -1      4000 1.99609E+01 1.31593E-01-3.90897E-04-5.04707E-02-1.19626E-13 2.09431E-13
 -1      4001 1.99383E+01 1.67718E-01 4.78747E-04-5.54018E-02-7.20677E-14 1.18141E-13
 -1      4002 1.99719E+01 1.13860E-01-3.86027E-05-4.27665E-02-7.12629E-14 2.43574E-13
 -1      4003 1.99790E+01 9.78907E-02-2.89256E-04-3.46471E-02-2.32600E-14 3.30984E-13
 -1      4004 1.99635E+01 1.26605E-01 3.61527E-04-3.87694E-02-8.77688E-14 3.32092E-13
 -1      4005 1.99866E+01 8.37921E-02-2.98103E-05-2.89704E-02-1.14731E-13 3.61078E-13
 -1      4006 1.99913E+01 7.12271E-02-2.10405E-04-2.29424E-02-1.87263E-13 2.57424E-13
 -1      4007 1.99811E+01 9.36203E-02 2.67615E-04-2.63737E-02-1.03489E-13 4.50998E-13
 -1      4008 1.99964E+01 6.02455E-02-2.14117E-05-1.88309E-02-9.38919E-14 1.08100E-13
 -1      4009 1.99993E+01 5.05545E-02-1.50004E-04-1.44353E-02 2.21583E-14 1.14360E-13
 -1      4010 1.99929E+01 6.76901E-02 1.93699E-04-1.72690E-02-1.94482E-13 3.55378E-13
 -1      4011 2.00025E+01 4.21715E-02-1.42749E-05-1.15176E-02-3.49739E-14 1.25373E-13
 -1      4012 2.00041E+01 3.48450E-02-1.04378E-04-8.37848E-03-3.04278E-14 2.55024E-13
 -1      4013 2.00005E+01 4.77043E-02 1.36606E-04-1.06962E-02-4.79280E-15 1.24234E-13
 -1      4014 2.00059E+01 2.85754E-02-8.64231E-06-6.35909E-03 8.12933E-15 2.69949E-13
 -1      4015 2.00067E+01 2.31500E-02-7.04641E-05-4.17270E-03 2.00187E-13 2.48198E-14
 -1      4016 2.00050E+01 3.26028E-02 9.33768E-05-6.04878E-03-1.64232E-14 1.13560E-13
 -1      4017 2.00076E+01 1.85613E-02-4.44235E-06-2.81887E-03 4.06346E-13-3.14456E-14
 -1      4018 2.00078E+01 1.46312E-02-4.57250E-05-1.34309E-03 4.71450E-13 1.07875E-13
 -1      4019 2.00073E+01 2.14242E-02 6.13302E-05-2.84587E-03 2.97067E-13-5.03800E-14
 -1      4020 2.00080E+01 1.13499E-02-1.43928E-06-4.73725E-04 2.75032E-13 1.96659E-13
 -1      4021 2.00078E+01 8.56997E-03-2.81552E-05 4.81480E-04 1.39363E-13 1.75538E-13
 -1      4022 2.00081E+01 1.33293E-02 3.81213E-05-7.10232E-04 3.60995E-13 5.32945E-14
 -1      4023 2.00076E+01 6.28210E-03 6.69101E-07 1.00499E-03-8.84879E-15 7.36514E-14
 -1      4024 2.00072E+01 4.36430E-03-1.62836E-05 1.58600E-03-3.48352E-14-6.17583E-14
 -1      4025 2.00080E+01 7.60381E-03 2.15385E-05 6.50537E-04 1.50180E-14 3.69921E-14
 -1      4026 2.00068E+01 2.81607E-03 3.73750E-06 1.86693E-03-3.05342E-14-1.26790E-13
 -1      4027 2.00063E+01 1.52650E-03-8.17852E-06 2.18387E-03-3.19237E-14-9.73086E-15
 -1      4028 2.00073E+01 3.65010E-03 8.05994E-06 1.45710E-03-1.00517E-13 2.08963E-14
 -1      4029 1.93561E+01 7.27049E-01-3.14290E-03 4.34944E-01-4.89779E-14-2.91143E-14
 -1      4030 1.92634E+01 7.89473E-01-1.17395E-03 4.85670E-01-4.31121E-14-3.56346E-14
 -1      4031 1.95313E+01 6.07998E-01-2.52258E-03 3.54201E-01-8.92534E-14 7.78187E-14
 -1      4032 1.94613E+01 6.67187E-01-7.65248E-04 3.98767E-01-8.41274E-14 3.88174E-14
 -1      4033 1.93341E+01 7.40487E-01 3.89235E-03 3.36161E-01-1.07982E-13 1.03691E-14
 -1      4034 1.96643E+01 4.98749E-01-2.02718E-03 2.83447E-01 1.45343E-13-2.63767E-15
 -1      4035 1.96121E+01 5.52501E-01-4.52547E-04 3.22021E-01 6.07510E-14 7.21220E-14
 -1      4036 1.95133E+01 6.17910E-01 2.98463E-03 2.76741E-01 1.24642E-14-9.06930E-14
 -1      4037 1.97641E+01 4.02122E-01-1.62279E-03 2.22795E-01 1.28488E-13 6.33566E-14
 -1      4038 1.97258E+01 4.49273E-01-2.16539E-04 2.55567E-01 1.76989E-13 7.61168E-14
 -1      4039 1.96502E+01 5.06301E-01 2.36039E-03 2.23439E-01 8.72931E-14-9.69583E-14
 -1      4040 1.98381E+01 3.19061E-01-1.29441E-03 1.71915E-01 2.72868E-13 2.25253E-13
 -1      4041 1.98105E+01 3.59295E-01-5.49910E-05 1.99158E-01 2.40081E-13 2.22297E-13
 -1      4042 1.97533E+01 4.07716E-01 1.79592E-03 1.76695E-01 7.53020E-14 1.18309E-13
 -1      4043 1.98923E+01 2.49108E-01-1.04573E-03 1.29899E-01-6.80610E-15 2.07190E-13
 -1      4044 1.98726E+01 2.82902E-01 3.10899E-05 1.52134E-01 1.93310E-13 2.16784E-13
 -1      4045 1.98300E+01 3.23007E-01 1.25264E-03 1.36945E-01 2.12026E-13 3.19819E-13
 -1      4046 1.99314E+01 1.91420E-01-8.17341E-04 9.61505E-02 1.32513E-13 5.34476E-14
 -1      4047 1.99177E+01 2.19128E-01 8.25889E-05 1.13931E-01 5.56929E-14 5.24850E-14
 -1      4048 1.98867E+01 2.51931E-01 9.39760E-04 1.03751E-01 1.36025E-13 2.53247E-13
 -1      4049 1.99590E+01 1.44708E-01-6.29504E-04 6.94992E-02 1.63564E-13-2.47664E-14
 -1      4050 1.99497E+01 1.67060E-01 1.10637E-04 8.34514E-02 1.39697E-13-3.52570E-14
 -1      4051 1.99276E+01 1.93349E-01 6.94300E-04 7.69485E-02 1.81992E-13-8.50737E-14
 -1      4052 1.99781E+01 1.07494E-01-4.77208E-04 4.88716E-02 1.03873E-13 4.20355E-16
 -1      4053 1.99719E+01 1.25230E-01 1.17397E-04 5.96140E-02 1.23934E-13-9.64750E-14
 -1      4054 1.99566E+01 1.45928E-01 5.01073E-04 5.56586E-02 1.49977E-13-2.80853E-13
 -1      4055 1.99908E+01 7.83238E-02-3.55414E-04 3.32259E-02 8.62108E-14 1.18077E-13
 -1      4056 1.99870E+01 9.21705E-02 1.11840E-04 4.13380E-02 1.05959E-13 1.23822E-13
 -1      4057 1.99767E+01 1.08180E-01 3.54006E-04 3.91272E-02 2.26959E-14-1.57168E-13
 -1      4058 1.99990E+01 5.58289E-02-2.59519E-04 2.16039E-02 2.26243E-15 2.39873E-13
 -1      4059 1.99967E+01 6.64624E-02 1.00115E-04 2.76059E-02 1.25736E-13 1.84765E-13
 -1      4060 1.99902E+01 7.86284E-02 2.44216E-04 2.65616E-02-4.47108E-15 5.32934E-14
 -1      4061 2.00039E+01 3.87707E-02-1.85250E-04 1.31627E-02 2.41466E-14-3.66616E-14
 -1      4062 2.00028E+01 4.67984E-02 8.57572E-05 1.75058E-02 4.76731E-14 4.75854E-14
 -1      4063 1.99989E+01 5.58730E-02 1.63492E-04 1.72168E-02 9.87580E-14 7.83554E-14
 -1      4064 2.00065E+01 2.60641E-02-1.28714E-04 7.18512E-03-3.01475E-15 1.65447E-13
 -1      4065 2.00061E+01 3.20149E-02 7.09883E-05 1.02494E-02-1.08035E-13-3.22398E-14
 -1      4066 2.00041E+01 3.86488E-02 1.05113E-04 1.04277E-02 2.47573E-14 1.91917E-14
 -1      4067 2.00076E+01 1.67809E-02-8.64621E-05 3.07759E-03 1.32584E-14 1.29933E-13
 -1      4068 2.00077E+01 2.11050E-02 5.71162E-05 5.17496E-03 1.03036E-13 8.03795E-14
 -1      4069 2.00069E+01 2.58463E-02 6.37312E-05 5.62258E-03 7.45290E-15 1.43444E-13
 -1      4070 2.00077E+01 1.01424E-02-5.56328E-05 3.60501E-04-6.74458E-15 2.89696E-13
 -1      4071 2.00080E+01 1.32159E-02 4.48338E-05 1.74114E-03-2.23529E-14 2.73323E-13
 -1      4072 2.00080E+01 1.65164E-02 3.51295E-05 2.32517E-03-6.50895E-14 2.25682E-13
 -1      4073 2.00072E+01 5.50804E-03-3.29854E-05-1.34340E-03-1.30029E-13 3.53636E-13
 -1      4074 2.00077E+01 7.63841E-03 3.43812E-05-4.83584E-04 3.67936E-14 3.27731E-13
 -1      4075 2.00081E+01 9.86290E-03 1.60421E-05 1.49410E-04-1.34704E-13 3.30214E-13
 -1      4076 2.00063E+01 2.38495E-03-8.67874E-06-2.31386E-03-1.08314E-13 3.70394E-13
 -1      4077 2.00068E+01 3.79105E-03 2.47330E-05-1.83766E-03-1.37638E-13 3.89406E-13
 -1      4078 2.00075E+01 5.23565E-03 4.56772E-06-1.20643E-03-9.01649E-14 2.64828E-13
 -1      4079 1.72969E+01 1.11701E+00-1.51478E-02 1.08496E+00-2.17782E-13-1.03033E-13
 -1      4080 1.69699E+01 1.06873E+00-6.86867E-03 1.24617E+00-2.03259E-13-2.80930E-14
 -1      4081 1.90980E+01 3.31163E-01-5.71505E-03 2.05594E+00 2.01021E-13-6.98414E-13
 -1      4082 1.88296E+01 9.69732E-01-5.10323E-03 6.28383E-01-1.37347E-13-1.32587E-13
 -1      4083 1.86737E+01 1.02426E+00-1.83121E-03 6.94308E-01-7.18380E-14-1.43953E-13
 -1      4084 1.63813E+01 1.02212E+00-2.35562E-02 1.29208E+00-1.84551E-13 4.47212E-14
 -1      4085 1.59431E+01 7.76259E-01-1.22824E-02 1.67091E+00-1.52280E-13 7.23154E-14
 -1      4086 1.50008E+01 1.22751E+00 6.19773E-02 8.51285E-01-9.39496E-14 2.65886E-13
 -1      4087 1.63460E+01 1.25574E+00 4.07414E-02 8.27444E-01-1.63874E-13 1.10892E-13
 -1      4088 1.84445E+01 1.06913E+00-7.09138E-03 7.45940E-01-7.28236E-14-2.12931E-13
 -1      4089 1.82464E+01 1.10759E+00-2.10393E-03 8.25615E-01-1.37666E-13-1.91134E-13
 -1      4090 1.84085E+01 1.11431E+00 9.02581E-03 5.44019E-01-1.49307E-13-1.02816E-13
 -1      4091 1.79463E+01 1.12813E+00-1.04258E-02 8.90466E-01-2.02793E-13-1.57971E-13
 -1      4092 1.76961E+01 1.13724E+00-2.43237E-03 9.95706E-01-2.15664E-13-1.29120E-13
 -1      4093 1.79014E+01 1.20436E+00 1.21569E-02 6.31610E-01-1.82476E-13-1.76094E-13
 -1      4094 1.51157E+01 1.89123E+00 2.60234E-03 1.57696E+00 3.19956E-13-8.88879E-13
 -1      4095 1.57531E+01 1.60509E+00 2.43985E-02 2.00814E+00 3.10200E-13-8.59326E-13
 -1      4096 2.00050E+01-7.35276E-04 7.88818E-06 2.09933E-03 1.23040E-13-2.49294E-13
 -1      4097 1.91270E+01 8.50693E-01-3.99817E-03 5.25733E-01-1.33666E-14-8.55581E-14
 -1      4098 1.90058E+01 9.12720E-01-1.56218E-03 5.83173E-01-7.00671E-14-1.10657E-13
 -1      4099 1.87985E+01 9.97838E-01 6.55521E-03 4.69543E-01-8.90547E-14-8.84521E-14
 -1      4100 1.91009E+01 8.69511E-01 5.02005E-03 4.00359E-01-6.10516E-14-4.17192E-14
 -1      4101 1.49174E+01 1.14616E+00-2.06754E-03 1.65521E-01-3.95474E-14 3.79416E-13
 -1      4102 1.43687E+01 6.85023E-01 4.24801E-02-1.78983E+00 2.56866E-13 5.58061E-13
 -1      4103 1.52141E+01 3.40019E-01-1.10395E-02-2.28031E+00 3.02055E-13 3.14740E-13
 -1      4104 1.47787E+01 9.00532E-01-2.37577E-03-1.22206E+00 1.78874E-13 4.55570E-13
 -1      4105 2.00058E+01-3.46134E-04-1.45152E-05-1.36331E-03 1.98834E-13 4.04799E-13
 -1      4106 2.00053E+01-3.05965E-04 1.85279E-06-2.24107E-03 1.67383E-13 5.41260E-14
 -1      4107 2.00056E+01 2.89925E-04 1.37125E-05-2.24687E-03 2.28045E-13 2.42323E-13
 -1      4108 2.00059E+01 6.80091E-04 8.21660E-06 2.16625E-03 1.20124E-13-9.96510E-14
 -1      4109 2.00053E+01-2.11764E-04-4.85887E-06 2.30031E-03 1.75441E-13-1.10951E-13
 -1      4110 1.59859E+01 7.93329E-01-2.42497E-03 2.68549E+00 3.50700E-13-8.22291E-13
 -1      4111 1.69377E+01 1.33320E+00-2.12886E-02 2.08323E+00 3.09467E-13-7.94408E-13
 -1      4112 1.72418E+01 1.24477E+00 1.81851E-02 7.48646E-01-1.99897E-13 9.02490E-16
 -1      4113 2.00059E+01 9.05924E-04 5.91005E-07-2.38008E-03 1.87934E-13 9.94442E-14
 -1      4114 2.00062E+01 1.64955E-03 1.28285E-05-2.29449E-03-6.90247E-15 2.41229E-13
 -1      4115 2.00070E+01 2.54454E-03-7.60038E-06-1.71649E-03 1.70077E-15 1.93072E-13
 -1      4116 2.00065E+01 9.32221E-04-1.81036E-05-1.55265E-03 1.47404E-13 2.88032E-13
 -1      4117 2.00057E+01-3.21804E-04-4.53406E-06 1.55685E-03 1.41726E-13-4.17160E-13
 -1      4118 1.78510E+01 9.77701E-01 3.15622E-02 2.23238E+00 2.60333E-13-7.75604E-13
 -1      4119 1.87846E+01-1.08084E-01-9.04115E-03 2.52687E+00 2.62878E-13-6.68958E-13
 -1      4120 1.65563E+01 1.86877E-01 5.32806E-02 3.23878E+00 4.19229E-13-8.04692E-13
 -1      4121 1.44205E+01 1.72055E+00 2.44183E-02 1.38932E+00 3.00144E-13-9.42914E-13
 -1      4122 2.00061E+01-2.66296E-04-9.28729E-06-7.08022E-05 1.39262E-13-3.18029E-13
 -1      4123 2.00060E+01-2.94848E-04-5.08442E-06-6.99526E-04 1.17103E-13 1.65908E-13
 -1      4124 2.00065E+01 3.89440E-04 2.05695E-05-7.82805E-04 9.38678E-14 9.32451E-14
 -1      4125 1.67334E+01-8.03113E-01 1.87559E-02-3.37358E+00 3.97065E-13 1.89833E-13
 -1      4126 1.77097E+01-9.28323E-01 2.54345E-02-3.13440E+00 3.62989E-13 1.19199E-13
 -1      4127 1.75356E+01-4.92270E-01-1.31630E-02-2.72335E+00 1.73033E-13 1.56365E-13
 -1      4128 1.60352E+01-2.26490E-01-2.86516E-03-2.87321E+00 3.10247E-13 1.89782E-13
 -1      4129 2.00064E+01 1.17238E-03-2.57708E-06 1.75860E-03 4.92634E-14-8.01168E-14
 -1      4130 2.00059E+01-2.80806E-04-6.84227E-06 1.05236E-03 5.36902E-14-4.04993E-13
 -1      4131 2.00060E+01-2.80475E-04-5.68844E-06 4.29520E-04 1.70979E-13-2.49348E-13
 -1      4132 2.00065E+01 4.59992E-04 2.07414E-05 3.07361E-04 3.16131E-15-2.94849E-13
 -1      4133 2.00063E+01 3.79878E-04 1.24582E-05 1.26814E-03-9.63431E-14-3.49645E-13
 -1      4134 1.96408E+01 4.89980E-01-1.51394E-03 1.56935E-01 1.57479E-14-1.69698E-13
 -1      4135 1.95804E+01 5.42791E-01-1.20534E-03 1.77985E-01 4.63616E-14-2.12993E-13
 -1      4136 1.77679E+01-1.37079E-01 1.68510E-02-2.31550E+00 7.02375E-14 1.83291E-13
 -1      4137 1.77478E+01 1.24958E-01-1.38191E-02-2.00408E+00 1.06448E-13 1.58453E-13
 -1      4138 1.71146E+01-6.00475E-02 3.69600E-03-2.45739E+00 1.51068E-13 2.29912E-13
 -1      4139 1.79849E+01 3.43888E-01 1.06637E-02-1.70752E+00 1.20131E-13 5.09990E-14
 -1      4140 1.80429E+01 4.90221E-01-1.15589E-02-1.47684E+00 1.71155E-13 9.90532E-14
 -1      4141 1.75288E+01 4.32893E-01 7.89917E-03-1.75739E+00 8.60062E-14 1.87120E-13
 -1      4142 1.82601E+01 6.13492E-01 6.15943E-03-1.26737E+00 1.91341E-13 9.75681E-14
 -1      4143 1.83445E+01 6.86031E-01-1.14455E-02-1.10069E+00 2.10162E-13 6.81808E-14
 -1      4144 1.79357E+01 6.94166E-01 6.64031E-03-1.26621E+00 1.63339E-13 2.37197E-13
 -1      4145 1.85420E+01 7.53949E-01 5.96925E-03-9.43476E-01 1.08513E-13-7.25675E-14
 -1      4146 1.86422E+01 7.72525E-01-5.97875E-03-8.16821E-01 1.50364E-13-2.20412E-13
 -1      4147 1.82999E+01 8.31858E-01 8.52451E-03-9.19664E-01 1.23588E-13 2.72023E-14
 -1      4148 1.88029E+01 7.85975E-01 1.99655E-03-7.10272E-01 1.96050E-13-3.63672E-13
 -1      4149 1.89026E+01 7.79708E-01-4.28960E-03-6.16360E-01 2.35677E-13-3.81773E-13
 -1      4150 1.86225E+01 8.43373E-01 2.47182E-04-6.83955E-01 1.05462E-13-2.56586E-13
 -1      4151 1.90388E+01 7.66127E-01 1.57415E-03-5.35801E-01 2.27968E-13-2.98493E-13
 -1      4152 1.91290E+01 7.37491E-01-3.35866E-03-4.64780E-01 2.09700E-13-3.17731E-13
 -1      4153 1.89064E+01 8.27537E-01 4.75613E-03-5.00300E-01 2.55020E-13-3.51416E-13
 -1      4154 1.92426E+01 7.06904E-01 8.94591E-04-4.04920E-01 1.38841E-13-4.71372E-13
 -1      4155 1.93218E+01 6.67046E-01-2.53503E-03-3.50546E-01 1.51217E-14-5.23420E-13
 -1      4156 1.91409E+01 7.61231E-01 3.19184E-03-3.69588E-01 8.60721E-14-5.36723E-13
 -1      4157 1.94149E+01 6.27129E-01 4.32814E-04-3.05925E-01 3.19113E-14-5.15397E-13
 -1      4158 1.94820E+01 5.82662E-01-1.92062E-03-2.64087E-01 5.17031E-14-5.00730E-13
 -1      4159 1.93376E+01 6.75620E-01 2.59432E-03-2.73859E-01 3.24500E-14-6.84795E-13
 -1      4160 1.95573E+01 5.39143E-01 1.39379E-04-2.30530E-01 6.19362E-14-4.54592E-13
 -1      4161 1.96117E+01 4.93782E-01-1.91691E-03-1.98748E-01 6.35244E-14-5.14546E-13
 -1      4162 1.94992E+01 5.82275E-01 2.41244E-03-2.02639E-01 8.36331E-14-5.66756E-13
 -1      4163 1.96722E+01 4.53170E-01 3.33332E-04-1.72918E-01 5.66026E-14-5.53451E-13
 -1      4164 1.97164E+01 4.10288E-01-1.00265E-03-1.47059E-01-5.75422E-14-5.57682E-13
 -1      4165 1.96274E+01 4.89998E-01 1.91513E-03-1.49436E-01 4.74844E-14-6.83462E-13
 -1      4166 1.97631E+01 3.69628E-01-1.72296E-04-1.28546E-01-5.76526E-14-3.48026E-13
 -1      4167 1.97978E+01 3.31878E-01-8.93310E-04-1.09389E-01 7.86744E-14-1.50179E-13
 -1      4168 1.97291E+01 3.99404E-01 5.54441E-04-1.11857E-01 1.00889E-13-4.41391E-13
 -1      4169 1.98335E+01 2.97171E-01-1.79879E-05-9.47430E-02 1.87378E-13-6.23775E-14
 -1      4170 1.98602E+01 2.63775E-01-6.54728E-04-7.97442E-02 2.15050E-13 5.12132E-14
 -1      4171 1.98094E+01 3.23837E-01 1.43458E-03-8.09175E-02 2.06217E-13-1.43656E-13
 -1      4172 1.98870E+01 2.33663E-01-8.79830E-05-6.89310E-02-2.26019E-14 6.92352E-14
 -1      4173 1.99069E+01 2.05572E-01-4.86866E-04-5.74052E-02-1.21408E-13 3.71316E-14
 -1      4174 1.98692E+01 2.55124E-01 8.68376E-04-5.82522E-02 8.22678E-14-2.02716E-13
 -1      4175 1.99267E+01 1.80310E-01-8.70236E-05-4.93322E-02-1.26078E-14-1.87962E-14
 -1      4176 1.99413E+01 1.57128E-01-3.63757E-04-4.05744E-02 3.64215E-15 7.91051E-14
 -1      4177 1.99140E+01 1.97625E-01 6.55597E-04-4.14687E-02-6.28833E-14-1.18228E-13
 -1      4178 1.99555E+01 1.36476E-01-7.62599E-05-3.46084E-02-5.49857E-14 2.79488E-13
 -1      4179 1.99658E+01 1.17760E-01-2.68360E-04-2.80228E-02 3.84330E-14 3.75067E-13
 -1      4180 1.99466E+01 1.50213E-01 4.91381E-04-2.90220E-02 2.79419E-14 7.88778E-14
 -1      4181 1.99757E+01 1.01237E-01-6.17009E-05-2.36580E-02-1.20160E-13 4.33742E-13
 -1      4182 1.99829E+01 8.64267E-02-1.95212E-04-1.87676E-02-1.97705E-13 3.70687E-13
 -1      4183 1.99698E+01 1.11957E-01 3.62018E-04-1.98425E-02-6.61876E-14 2.22162E-13
 -1      4184 1.99895E+01 7.34707E-02-4.73971E-05-1.56181E-02-2.29518E-13 3.72844E-13
 -1      4185 1.99942E+01 6.19756E-02-1.39605E-04-1.20406E-02-1.52473E-13 3.48492E-13
 -1      4186 1.99857E+01 8.16956E-02 2.61100E-04-1.31403E-02-1.83171E-13 2.46584E-13
 -1      4187 1.99985E+01 5.20135E-02-3.48096E-05-9.80704E-03-1.45410E-13 1.95208E-13
 -1      4188 2.00014E+01 4.32625E-02-9.77885E-05-7.23631E-03-2.47697E-14 1.08815E-13
 -1      4189 1.99961E+01 5.82125E-02 1.83555E-04-8.31211E-03-2.12952E-13 1.92481E-13
 -1      4190 2.00040E+01 3.57528E-02-2.44272E-05-5.68644E-03 8.27679E-15 9.13276E-14
 -1      4191 2.00056E+01 2.92220E-02-6.67516E-05-3.87870E-03-6.79250E-15 1.56550E-13
 -1      4192 2.00027E+01 4.03363E-02 1.25062E-04-4.89272E-03-7.86895E-14 1.16637E-13
 -1      4193 2.00069E+01 2.36768E-02-1.62593E-05-2.83300E-03 1.52131E-13-9.27677E-15
 -1      4194 2.00077E+01 1.89046E-02-4.40794E-05-1.59572E-03 4.01515E-13-1.40378E-13
 -1      4195 2.00063E+01 2.69948E-02 8.18421E-05-2.52281E-03 5.53641E-14 3.57972E-14
 -1      4196 2.00082E+01 1.48998E-02-1.00671E-05-9.16413E-04 3.58161E-13-1.55767E-13
 -1      4197 2.00083E+01 1.14912E-02-2.78138E-05-9.91816E-05 3.15589E-13-3.39675E-14
 -1      4198 2.00081E+01 1.72444E-02 5.06384E-05-9.25828E-04 2.89731E-13-2.97223E-13
 -1      4199 2.00083E+01 8.66833E-03-5.36421E-06 3.18663E-04 1.60808E-13-9.35854E-14
 -1      4200 2.00081E+01 6.29092E-03-1.67056E-05 8.32309E-04-9.79449E-14-6.00168E-14
 -1      4201 2.00085E+01 1.02782E-02 2.87210E-05 1.09521E-04 1.77983E-13-2.36303E-13
 -1      4202 2.00077E+01 4.35843E-03 3.10671E-07 1.06709E-03-2.43156E-13 9.54282E-14
 -1      4203 2.00072E+01 2.75207E-03-7.57554E-06 1.35704E-03-8.79464E-14 1.18654E-13
 -1      4204 2.00081E+01 5.41585E-03 1.12345E-05 7.42274E-04-1.11268E-13-2.30832E-13
 -1      4205 1.95023E+01 5.99050E-01-1.96909E-03 1.92184E-01 5.87935E-15-2.46483E-13
 -1      4206 1.94235E+01 6.57926E-01-1.38058E-03 2.15823E-01-1.59648E-14-2.37624E-13
 -1      4207 1.95151E+01 5.95292E-01 3.97392E-03 1.23508E-01 1.14519E-14-2.17628E-13
 -1      4208 1.93222E+01 7.18070E-01-2.56141E-03 2.29124E-01-1.32744E-14-2.10352E-13
 -1      4209 1.92190E+01 7.81170E-01-2.02442E-03 2.53817E-01-7.21240E-14-1.48713E-13
 -1      4210 1.93420E+01 7.14297E-01 5.32812E-03 1.41836E-01-1.62164E-14-3.76526E-13
 -1      4211 1.97452E+01 3.93793E-01-1.36743E-03 1.25219E-01 1.22962E-13-6.14637E-14
 -1      4212 1.97004E+01 4.40617E-01-7.16654E-04 1.43912E-01 9.28480E-15-1.48227E-13
 -1      4213 1.96506E+01 4.85470E-01 3.05687E-03 1.02243E-01 6.17948E-14-2.81602E-13
 -1      4214 1.98237E+01 3.12485E-01-9.51797E-04 9.69565E-02 1.19892E-13 3.46286E-14
 -1      4215 1.97908E+01 3.52256E-01-3.25667E-04 1.13834E-01 2.17813E-13-1.89682E-14
 -1      4216 1.97506E+01 3.87968E-01 1.09797E-03 8.16529E-02 1.01241E-13-3.79215E-13
 -1      4217 1.98817E+01 2.42839E-01-8.93450E-04 7.38621E-02 2.16890E-13-7.86719E-14
 -1      4218 1.98580E+01 2.76063E-01-2.65636E-04 8.75619E-02 2.23582E-13 5.71556E-14
 -1      4219 1.98284E+01 3.07271E-01 1.20199E-03 6.57340E-02 1.66332E-13-3.93577E-13
 -1      4220 1.99239E+01 1.85941E-01-7.00537E-04 5.47119E-02 2.89354E-13-2.24755E-13
 -1      4221 1.99072E+01 2.13284E-01-8.00360E-05 6.58031E-02 2.49932E-13-7.50000E-14
 -1      4222 1.98854E+01 2.39600E-01 1.16645E-03 5.06673E-02 2.95590E-13-2.67173E-13
 -1      4223 1.99541E+01 1.39936E-01-5.39497E-04 3.94622E-02 1.84318E-13-1.97215E-13
 -1      4224 1.99425E+01 1.61950E-01-1.82402E-05 4.82581E-02 2.84462E-13-1.26163E-13
 -1      4225 1.99268E+01 1.83113E-01 8.68174E-04 3.78186E-02 2.44855E-13-2.55849E-13
 -1      4226 1.99751E+01 1.03385E-01-4.07790E-04 2.75954E-02-1.74082E-13-7.56613E-14
 -1      4227 1.99672E+01 1.20803E-01 1.84562E-05 3.44177E-02-8.35864E-14-2.09788E-13
 -1      4228 1.99563E+01 1.37474E-01 6.14667E-04 2.74037E-02 3.88389E-14-5.34709E-14
 -1      4229 1.99892E+01 7.48304E-02-3.02243E-04 1.85739E-02 9.36068E-15 1.27298E-14
 -1      4230 1.99841E+01 8.83801E-02 3.70039E-05 2.37519E-02-8.29522E-14-2.16697E-14
 -1      4231 1.99767E+01 1.01269E-01 4.23021E-04 1.92135E-02-1.39279E-13-1.19936E-13
 -1      4232 1.99983E+01 5.29000E-02-2.19168E-04 1.18763E-02 8.79133E-14 1.04302E-14
 -1      4233 1.99952E+01 6.32604E-02 4.42913E-05 1.57199E-02 1.56934E-13 3.30930E-14
 -1      4234 1.99905E+01 7.30413E-02 2.81983E-04 1.29445E-02 5.80617E-14-1.70673E-13
 -1      4235 2.00038E+01 3.63515E-02-1.54977E-04 7.02741E-03-2.74306E-14 1.38337E-13
 -1      4236 2.00021E+01 4.41323E-02 4.48368E-05 9.81349E-03 4.92064E-14 1.69779E-13
 -1      4237 1.99993E+01 5.14114E-02 1.80152E-04 8.26931E-03 4.71498E-16-1.25659E-13
 -1      4238 2.00068E+01 2.40960E-02-1.06299E-04 3.61405E-03 6.23385E-14 1.26631E-13
 -1      4239 2.00061E+01 2.98284E-02 4.16110E-05 5.58045E-03 3.75810E-14 1.55849E-13
 -1      4240 2.00045E+01 3.51331E-02 1.08156E-04 4.87505E-03 1.67400E-14 1.00959E-13
 -1      4241 2.00081E+01 1.52029E-02-7.00352E-05 1.29011E-03-2.61517E-13 3.55596E-13
 -1      4242 2.00080E+01 1.93386E-02 3.65617E-05 2.63456E-03-5.66669E-14 3.08139E-13
 -1      4243 2.00073E+01 2.31145E-02 5.85847E-05 2.48224E-03-9.64226E-14 2.02713E-13
 -1      4244 2.00083E+01 8.89338E-03-4.28459E-05-2.25496E-04-1.14611E-14 2.01939E-13
 -1      4245 2.00085E+01 1.18084E-02 3.10120E-05 6.56289E-04-1.40004E-13 2.75474E-13
 -1      4246 2.00085E+01 1.44239E-02 2.57302E-05 8.52530E-04-1.09788E-13 2.76741E-13
 -1      4247 2.00077E+01 4.55386E-03-1.60240E-05-1.13221E-03-1.09101E-13 9.34157E-14
 -1      4248 2.00082E+01 6.51797E-03 2.39056E-05-6.11922E-04-1.21812E-13-3.24802E-15
 -1      4249 2.00085E+01 8.28128E-03 4.97223E-06-2.13173E-04-2.07454E-14 7.86028E-15
 -1      4250 1.72311E+01 1.24049E+00-9.37459E-03 3.71518E-01-1.58409E-13 9.86117E-14
 -1      4251 1.68313E+01 1.23460E+00-1.22675E-02 4.20645E-01-1.49528E-13 1.52891E-13
 -1      4252 1.63693E+01 1.22111E+00-1.20308E-02 3.16422E-01-1.36718E-13 2.33677E-13
 -1      4253 1.57993E+01 1.19975E+00-1.99117E-02 2.78528E-01-7.63456E-14 2.91478E-13
 -1      4254 1.65430E+01 1.26061E+00 1.27249E-02-1.11390E-01-5.49200E-14 3.68473E-13
 -1      4255 1.37334E+01 1.96965E+00 4.00772E-02 8.70350E-01 2.74039E-13-9.95906E-13
 -1      4256 1.76603E+01-9.16459E-02-1.74512E-02 3.05710E+00 3.89737E-13-6.98706E-13
 -1      4257 1.78986E+01 1.17808E+00-7.20821E-03 3.49618E-01-1.37060E-13-3.52884E-14
 -1      4258 1.75964E+01 1.20950E+00-9.57412E-03 3.75388E-01-1.49653E-13-5.44774E-15
 -1      4259 1.73564E+01 1.26704E+00 1.81648E-02 7.00306E-02-7.37364E-14 2.50778E-13
 -1      4260 2.00070E+01 1.96132E-03 9.77550E-06 1.32744E-03-1.37358E-13-1.14517E-13
 -1      4261 2.00066E+01 9.90434E-04-5.50333E-06 1.33392E-03-1.53279E-13-2.73270E-13
 -1      4262 2.00068E+01 1.04671E-03-1.05576E-05 8.78910E-04-3.13593E-13-2.62613E-13
 -1      4263 2.00074E+01 2.60983E-03-6.55210E-06 9.72299E-04-2.90963E-13-1.44785E-13
 -1      4264 1.84008E+01 1.08476E+00-5.41763E-03 3.28271E-01-1.34868E-13-6.24272E-14
 -1      4265 1.81743E+01 1.13706E+00-5.14166E-03 3.52472E-01-1.44339E-13-7.17054E-14
 -1      4266 1.79904E+01 1.18909E+00 1.44273E-02 1.19045E-01-1.01898E-13 4.32395E-14
 -1      4267 1.52656E+01 1.20821E+00 4.10386E-02-4.21944E-01 1.91253E-16 4.45131E-13
 -1      4268 1.36591E+01 1.97447E+00 7.38351E-02-1.57203E-01 1.68627E-13-1.07218E-12
 -1      4269 1.87898E+01 9.72226E-01-3.26890E-03 2.98759E-01-4.28112E-14-1.13329E-13
 -1      4270 1.86151E+01 1.03220E+00-3.27034E-03 3.25149E-01-7.13833E-14-4.56081E-14
 -1      4271 1.84544E+01 1.07682E+00 4.74919E-03 1.39665E-01-8.05231E-14-8.25995E-14
 -1      4272 1.56493E+01 1.00825E+00-6.66280E-03-9.00347E-01 4.05509E-14 4.12317E-13
 -1      4273 2.00075E+01 3.50240E-03 1.36506E-05-1.10888E-03-1.02017E-13 1.39368E-13
 -1      4274 2.00080E+01 4.62239E-03-9.39742E-06-6.24425E-04-9.30253E-14 1.07136E-13
 -1      4275 2.00074E+01 2.56028E-03 5.29568E-06-1.11718E-03-3.62505E-14 1.24376E-13
 -1      4276 2.00069E+01 1.07609E-03-8.80780E-06 4.21551E-04-1.11541E-13-2.30284E-13
 -1      4277 2.00069E+01 1.06062E-03-1.61206E-05-5.14590E-05-5.11486E-14-2.88396E-13
 -1      4278 2.00072E+01 1.83257E-03 1.19010E-05 4.94833E-04-2.78796E-13-4.16446E-13
 -1      4279 1.82911E+01-1.37471E-01-1.83608E-02 2.79056E+00 3.23222E-13-6.70919E-13
 -1      4280 1.60848E+01 2.02992E-01 1.23503E-02-2.32041E+00 2.50575E-13 2.67302E-13
 -1      4281 1.90892E+01 8.44122E-01-3.14307E-03 2.66012E-01-8.39176E-14-1.32584E-13
 -1      4282 1.89540E+01 9.07455E-01-3.29204E-03 2.90954E-01-1.13603E-15-1.37409E-13
 -1      4283 1.91174E+01 8.41409E-01 6.86591E-03 1.55214E-01-4.86428E-14-3.13134E-13
 -1      4284 1.81060E+01 1.11324E+00-3.60037E-03-9.37246E-02-4.07503E-14 4.01246E-14
 -1      4285 1.78089E+01 1.14176E+00-1.34979E-02-1.23613E-01-3.77575E-14 1.03581E-13
 -1      4286 1.96619E+01 4.57787E-01-1.18107E-03 4.56808E-02 4.91690E-14-3.46174E-13
 -1      4287 1.96000E+01 5.07077E-01-2.22277E-03 5.46079E-02 1.71379E-13-3.27281E-13
 -1      4288 1.69520E+01 6.02299E-01 6.97796E-03-1.62469E+00 5.37781E-14 2.10677E-13
 -1      4289 1.71511E+01 7.25145E-01-1.55565E-02-1.34754E+00 9.18967E-14 2.28408E-13
 -1      4290 1.75237E+01 8.20195E-01 2.70559E-03-1.14083E+00 8.18427E-14 1.69656E-13
 -1      4291 1.77012E+01 8.84026E-01-1.42488E-02-9.47356E-01 1.43112E-13 4.55760E-14
 -1      4292 1.70299E+01 9.60266E-01 3.79121E-03-1.01442E+00 6.46989E-14 1.59963E-13
 -1      4293 1.80352E+01 9.57916E-01 2.27519E-03-6.96041E-01 6.66746E-14 3.07913E-17
 -1      4294 1.82215E+01 9.61174E-01-4.77670E-03-5.73916E-01 7.65599E-15-1.14591E-13
 -1      4295 1.83984E+01 9.65384E-01-1.96248E-03-4.76211E-01 1.04255E-13-1.38874E-13
 -1      4296 1.87449E+01 8.94674E-01-6.37221E-04-4.06112E-01 2.14178E-13-2.51047E-13
 -1      4297 1.88676E+01 8.56726E-01-5.56068E-03-3.38947E-01 1.82664E-13-3.17734E-13
 -1      4298 1.90177E+01 8.18788E-01-4.68901E-04-2.90384E-01 7.48776E-14-4.94318E-13
 -1      4299 1.91255E+01 7.72300E-01-3.44608E-03-2.41384E-01-4.11280E-14-4.90141E-13
 -1      4300 1.88954E+01 8.97457E-01 7.25567E-03-1.96124E-01 2.33560E-14-4.33315E-13
 -1      4301 1.92443E+01 7.24555E-01-6.29091E-04-2.07895E-01 1.44058E-14-4.90510E-13
 -1      4302 1.93334E+01 6.73774E-01-2.59572E-03-1.71978E-01 2.91768E-14-4.60208E-13
 -1      4303 1.91539E+01 7.91121E-01 5.53880E-03-1.28549E-01 1.69754E-15-4.34268E-13
 -1      4304 1.94273E+01 6.23816E-01-6.93755E-04-1.49108E-01 8.21961E-15-5.45171E-13
 -1      4305 1.94984E+01 5.73174E-01-2.40576E-03-1.21361E-01 2.16874E-14-5.96811E-13
 -1      4306 1.93598E+01 6.79831E-01 4.04267E-03-8.35501E-02 3.73761E-14-3.95029E-13
 -1      4307 1.95920E+01 5.11477E-01-3.82389E-04-8.37859E-02 3.33648E-14-5.28384E-13
 -1      4308 1.96505E+01 4.63579E-01-8.35847E-04-6.70274E-02 6.66730E-14-4.95192E-13
 -1      4309 1.96997E+01 4.21117E-01-4.76678E-04-5.36761E-02 1.71431E-13-3.67188E-13
 -1      4310 1.97795E+01 3.47174E-01-4.90739E-04-5.49163E-02 1.86318E-13-4.56253E-13
 -1      4311 1.98138E+01 3.08939E-01-1.06749E-03-4.32291E-02 2.42588E-13-3.79885E-13
 -1      4312 1.98472E+01 2.74587E-01-4.45952E-04-3.86971E-02 2.57302E-13-3.62236E-13
 -1      4313 1.98738E+01 2.42603E-01-5.86708E-04-3.02396E-02 5.02352E-14-3.56488E-13
 -1      4314 1.98274E+01 3.01395E-01 1.38800E-03-1.27325E-02 1.79841E-13-5.53950E-13
 -1      4315 1.98982E+01 2.13189E-01-3.69515E-04-2.71705E-02-7.01283E-14-2.36604E-13
 -1      4316 1.99179E+01 1.86676E-01-4.24676E-04-2.08685E-02-1.07033E-14-1.98036E-13
 -1      4317 1.98841E+01 2.34761E-01 1.04878E-03-7.78081E-03 1.09343E-13-4.34671E-13
 -1      4318 1.99356E+01 1.62525E-01-2.90460E-04-1.88450E-02 5.54137E-15-1.69448E-13
 -1      4319 1.99497E+01 1.40999E-01-3.03851E-04-1.41469E-02 6.45442E-14-8.78062E-14
 -1      4320 1.99256E+01 1.79655E-01 7.60714E-04-4.67666E-03 3.25314E-14-2.80036E-13
 -1      4321 1.99622E+01 1.21556E-01-2.22879E-04-1.28338E-02-4.16067E-15-1.13429E-13
 -1      4322 1.99721E+01 1.04420E-01-2.13250E-04-9.35223E-03-8.95353E-14-5.07409E-14
 -1      4323 1.99553E+01 1.34968E-01 5.41816E-04-2.74037E-03 5.61583E-14-2.23830E-13
 -1      4324 1.99807E+01 8.90674E-02-1.66327E-04-8.51506E-03-1.28346E-13 1.00541E-13
 -1      4325 1.99874E+01 7.56807E-02-1.46129E-04-5.95989E-03-1.16385E-13 1.21395E-13
 -1      4326 1.99761E+01 9.94121E-02 3.77140E-04-1.55173E-03 1.58706E-14-2.00475E-13
 -1      4327 1.99930E+01 6.37838E-02-1.20570E-04-5.43865E-03-2.17835E-13 1.51861E-13
 -1      4328 1.99974E+01 5.35199E-02-9.71196E-05-3.58703E-03-1.86057E-13 9.00574E-14
 -1      4329 1.99901E+01 7.16367E-02 2.54857E-04-8.30106E-04-1.18178E-13-8.61678E-14
 -1      4330 2.00009E+01 4.44739E-02-8.46507E-05-3.27383E-03-1.21605E-13 1.78718E-13
 -1      4331 2.00035E+01 3.67535E-02-6.19220E-05-1.95353E-03-5.05181E-14 1.77875E-13
 -1      4332 1.99991E+01 5.03339E-02 1.65583E-04-3.96893E-04-1.50630E-13 3.52106E-14
 -1      4333 2.00055E+01 3.00090E-02-5.72285E-05-1.77596E-03-9.10823E-14 7.83850E-14
 -1      4334 2.00069E+01 2.43178E-02-3.71411E-05-8.53645E-04 4.02023E-14 6.20992E-14
 -1      4335 2.00045E+01 3.42999E-02 1.01749E-04-1.40666E-04-1.34356E-13 8.94474E-14
 -1      4336 2.00078E+01 1.93930E-02-3.68534E-05-7.63089E-04 1.46115E-13-1.24232E-13
 -1      4337 2.00084E+01 1.52881E-02-2.00602E-05-1.35868E-04 2.61927E-13-2.38020E-13
 -1      4338 2.00074E+01 2.24688E-02 5.72686E-05 7.44260E-06-2.07174E-14 5.09152E-14
 -1      4339 2.00086E+01 1.17722E-02-2.21135E-05-9.95496E-05 1.80097E-13-3.56689E-13
 -1      4340 2.00086E+01 8.88106E-03-8.63497E-06 3.11231E-04 9.29593E-14-3.58003E-13
 -1      4341 2.00086E+01 1.39240E-02 2.73428E-05 9.01134E-05 1.17233E-13-2.33470E-13
 -1      4342 1.95075E+01 5.76638E-01-1.36589E-03 2.73898E-02 7.93183E-14-4.14653E-13
 -1      4343 1.94260E+01 6.31892E-01-2.39310E-03 3.17050E-02-5.35013E-14-4.11178E-13
 -1      4344 1.93316E+01 6.87149E-01-3.01877E-03 1.86159E-02-2.44866E-14-3.43486E-13
 -1      4345 1.92290E+01 7.47910E-01-3.27485E-03 2.04610E-02 4.56561E-14-3.64087E-13
 -1      4346 1.63064E+01 1.06925E+00-6.96167E-03-7.36919E-01-1.35751E-14 3.03396E-13
 -1      4347 1.60653E+01 8.41702E-01 1.77173E-02-1.42799E+00 1.04057E-13 3.47632E-13
 -1      4348 1.98217E+01 3.02442E-01-8.24914E-04 2.30423E-02 1.99193E-13-4.48224E-13
 -1      4349 1.97881E+01 3.40693E-01-4.43603E-04 2.76144E-02 1.56487E-13-5.31296E-13
 -1      4350 1.98798E+01 2.34764E-01-8.92810E-04 1.84422E-02 2.10216E-13-4.52724E-13
 -1      4351 1.98550E+01 2.67200E-01-4.25507E-04 2.37992E-02 1.83146E-13-4.66177E-13
 -1      4352 1.99226E+01 1.79571E-01-6.90835E-04 1.42777E-02 8.99263E-14-2.41126E-13
 -1      4353 1.99046E+01 2.06146E-01-2.88299E-04 1.88179E-02 1.60429E-13-3.49115E-13
 -1      4354 1.99532E+01 1.34896E-01-5.14029E-04 1.06187E-02-2.14132E-14-9.62000E-14
 -1      4355 1.99406E+01 1.56251E-01-1.73358E-04 1.43251E-02 1.24210E-13-1.67661E-13
 -1      4356 1.99747E+01 9.93866E-02-3.73604E-04 7.57473E-03-6.06162E-14-1.87093E-13
 -1      4357 1.99660E+01 1.16241E-01-9.28173E-05 1.05026E-02-8.43000E-14-1.83979E-13
 -1      4358 1.99891E+01 7.16632E-02-2.65179E-04 5.15379E-03 3.68556E-14-3.11067E-13
 -1      4359 1.99835E+01 8.47314E-02-4.00798E-05 7.40212E-03 6.20933E-14-3.06694E-13
 -1      4360 1.99985E+01 5.04035E-02-1.83074E-04 3.30108E-03-9.20807E-14-1.81774E-13
 -1      4361 1.99950E+01 6.03561E-02-7.17152E-06 4.98182E-03-5.68065E-14-2.57906E-13
 -1      4362 2.00041E+01 3.43989E-02-1.22079E-04 1.93289E-03-1.45403E-13 6.74826E-14
 -1      4363 2.00021E+01 4.18383E-02 1.20837E-05 3.15548E-03-7.61635E-14-4.72521E-14
 -1      4364 2.00072E+01 2.25839E-02-7.76996E-05 9.58205E-04-1.25951E-13 1.11695E-13
 -1      4365 2.00062E+01 2.80345E-02 2.21693E-05 1.82159E-03-1.45909E-13 7.59396E-15
 -1      4366 2.00085E+01 1.40444E-02-4.62116E-05 2.90864E-04-2.78716E-15-4.66509E-15
 -1      4367 2.00082E+01 1.79515E-02 2.62775E-05 8.80025E-04-5.05272E-14 4.33728E-15
 -1      4368 2.00086E+01 8.01648E-03-2.47354E-05-1.46193E-04 4.00630E-14-1.24615E-13
 -1      4369 2.00088E+01 1.07476E-02 2.63826E-05 2.41702E-04 4.00305E-14-1.28949E-13
 -1      4370 2.00071E+01 1.74838E-03-5.99901E-06-9.72891E-04 2.44979E-14 2.10907E-13
 -1      4371 2.00072E+01 1.80244E-03-1.16458E-05-4.13087E-04-9.40529E-14-1.40241E-13
 -1      4372 1.97447E+01 3.83086E-01-6.41395E-04 3.27480E-02 1.20129E-13-4.81162E-13
 -1      4373 1.74755E+01 1.14352E+00-5.99089E-04-3.31324E-01-4.10175E-14 1.44152E-13
 -1      4374 1.71239E+01 1.14111E+00-5.48303E-03-4.04481E-01 7.96889E-15 2.39205E-13
 -1      4375 1.63166E+01 4.56283E-01-1.38689E-02-1.92995E+00 1.22078E-13 2.76882E-13
 -1      4376 1.66908E+01 1.14638E+00-2.81245E-03-5.64424E-01-1.06027E-14 3.26730E-13
 -1      4377 2.00076E+01 2.63801E-03 1.00821E-05-2.70666E-04-8.90971E-14-1.46204E-13
 -1      4378 1.77150E+01 1.08269E+00 1.19962E-02-5.56033E-01 5.84963E-14-3.95443E-14
 -1      4379 1.84180E+01 1.01892E+00 6.68103E-03-2.94174E-01 1.02494E-13-5.51781E-14
 -1      4380 1.95445E+01 5.55492E-01 2.75937E-03-3.12869E-02 1.52886E-14-4.83289E-13
 -1      4381 1.97187E+01 4.09631E-01 1.63179E-03-1.20754E-02 1.53083E-13-5.97815E-13
 -1      4382 2.00076E+01 2.67903E-03-5.97281E-06 1.31910E-04-1.16486E-13-3.70470E-13
 -1      4383 2.00079E+01 3.52983E-03 1.19739E-05-2.12374E-04-1.20051E-13-1.50192E-13
 -1      4384 2.00075E+01 2.63696E-03-1.37726E-06 5.30258E-04-3.19156E-13-5.59762E-13
 -1      4385 2.00084E+01 6.43403E-03-1.00194E-05 3.16062E-04 2.86455E-15-4.94544E-13
 -1      4386 2.00080E+01 4.46847E-03-2.89113E-06 5.48757E-04-1.68792E-13-5.58751E-13
 -1      4387 1.91109E+01 8.03003E-01-3.86272E-03-3.03182E-04 1.37340E-14-3.53238E-13
 -1      4388 1.86725E+01 9.76711E-01-3.51642E-03-4.85113E-02 7.28531E-14-2.22086E-13
 -1      4389 1.84715E+01 1.03292E+00-3.62064E-03-7.16709E-02 8.90580E-14-8.19273E-14
 -1      4390 1.88285E+01 9.64475E-01 6.77690E-03 1.58537E-01-5.38021E-14-2.18935E-13
 -1      4391 2.00086E+01 7.89430E-03 9.09185E-06 1.36461E-04-8.69975E-14-3.40282E-13
 -1      4392 2.00081E+01 4.43116E-03-1.12879E-05-1.85284E-04-2.22991E-13-1.31613E-13
 -1      4393 2.00084E+01 5.73211E-03 1.83849E-05-1.88614E-04-1.32351E-13-1.29208E-13
 -1      4394 2.00078E+01 3.55611E-03 7.28673E-06 5.38087E-04-2.54268E-13-5.44615E-13
 -1      4395 1.89796E+01 8.64563E-01-4.46758E-03-3.40865E-03-5.24242E-14-3.05383E-13
 -1      4396 2.00081E+01 4.51112E-03-2.43287E-06 1.61036E-04-1.67493E-13-5.19665E-13
 -1      4397 1.88335E+01 9.20928E-01-3.01208E-03-3.43722E-02 5.52233E-15-2.57930E-13
 -3
    1PSTEP                         3           1           1          
  100CL  101 1.000000000        4397                     0    1           1
 -4  TOSTRAIN    6    1
 -5  EXX         1    4    1    1
 -5  EYY         1    4    2    2
 -5  EZZ         1    4    3    3
 -5  EXY         1    4    1    2
 -5  EYZ         1    4    2    3
 -5  EZX         1    4    3    1
 -1         1 3.09740E-04-9.60429E-05-7.91310E-05-1.37493E-07-1.05749E-18-1.18650E-18
 -1         2 3.64306E-05-1.11645E-04 2.02956E-05 3.98925E-07 5.94869E-18-2.20440E-19
 -1         3 9.52375E-05-2.85708E-05-2.85719E-05 4.05549E-10 4.77201E-18 3.85370E-18
 -1         4 9.52375E-05-2.85708E-05-2.85719E-05-3.43425E-10 1.42558E-18-1.96947E-19
 -1         5 1.47835E-04-2.15949E-05-4.49182E-05 3.80062E-05-5.60948E-19 3.83880E-17
 -1         6 1.48962E-04 2.74557E-10-4.62167E-05-5.31547E-05-2.34522E-18 3.30046E-17
 -1         7 9.68685E-05-8.33548E-07-4.12842E-05-2.68503E-05-3.32990E-19 4.46566E-18
 -1         8 9.02006E-05-3.03508E-08-3.83044E-05-1.60703E-05-3.68671E-19-3.85704E-18
 -1         9 8.61389E-05 2.27801E-08-3.66677E-05-1.03671E-05-3.18273E-19-8.19960E-18
 -1        10 8.29483E-05 2.46756E-08-3.53514E-05-6.28607E-06-1.90397E-19-1.01724E-17
 -1        11 8.01441E-05 3.57343E-08-3.42106E-05-3.24067E-06-1.18611E-19-1.10344E-17
 -1        12 7.77159E-05 5.28222E-08-3.32391E-05-1.08829E-06-3.20284E-20-1.13945E-17
 -1        13 7.57112E-05 7.53581E-08-3.24523E-05 3.29368E-07 9.82029E-21-1.13942E-17
 -1        14 7.43850E-05 9.56507E-08-3.19442E-05 1.10201E-06 7.38507E-20-1.12880E-17
 -1        15 7.39468E-05 1.08095E-07-3.17905E-05 1.45096E-06 1.26213E-19-1.10567E-17
 -1        16 7.45379E-05 1.08713E-07-3.20412E-05 1.69162E-06 1.83687E-19-1.05917E-17
 -1        17 7.61879E-05 9.51143E-08-3.27054E-05 2.20174E-06 2.23987E-19-9.80788E-18
 -1        18 7.87439E-05 7.43872E-08-3.37265E-05 3.33692E-06 3.05408E-19-8.56370E-18
 -1        19 8.21346E-05 4.69785E-08-3.50805E-05 5.50822E-06 4.03849E-19-6.55375E-18
 -1        20 8.61807E-05 2.20308E-08-3.67045E-05 9.09164E-06 5.01285E-19-3.12365E-18
 -1        21 9.10425E-05-4.77736E-09-3.86472E-05 1.47287E-05 5.26907E-19 2.88940E-18
 -1        22 9.88164E-05-4.81325E-07-4.13644E-05 2.44941E-05 5.86570E-20 1.43474E-17
 -1        23 1.20935E-04-4.08340E-05-3.78308E-05-3.61835E-06-1.65735E-18 2.49572E-17
 -1        24 1.03904E-04-3.10381E-05-3.22785E-05 5.60158E-07-4.23612E-19 1.77970E-17
 -1        25 1.02757E-04-3.09402E-05-3.09737E-05 4.62548E-07-1.72267E-19 1.11449E-17
 -1        26 1.03568E-04-3.11398E-05-3.10150E-05 2.70157E-07-9.27013E-20 6.54873E-18
 -1        27 1.04771E-04-3.14643E-05-3.13420E-05 1.77456E-07-1.04515E-19 3.04006E-18
 -1        28 1.05393E-04-3.16243E-05-3.15054E-05 8.08738E-08-9.68058E-20 7.93779E-19
 -1        29 1.04685E-04-3.14005E-05-3.12682E-05-4.32143E-08-2.40279E-20-1.10225E-18
 -1        30 1.02133E-04-3.06351E-05-3.04990E-05-1.94347E-07 5.14771E-20-2.83031E-18
 -1        31 9.76867E-05-2.93085E-05-2.92092E-05-3.39416E-07 5.08803E-20-4.30610E-18
 -1        32 9.20247E-05-2.76190E-05-2.76114E-05-4.14922E-07-3.00329E-19-6.29274E-18
 -1        33 8.65898E-05-2.59952E-05-2.61105E-05-3.57273E-07 2.18992E-19-7.63439E-18
 -1        34 8.31709E-05-2.49723E-05-2.51835E-05-1.55051E-07 1.05887E-19-8.07244E-18
 -1        35 8.30986E-05-2.49505E-05-2.51739E-05 1.20096E-07 1.94586E-20-8.34019E-18
 -1        36 8.65284E-05-2.59763E-05-2.61216E-05 3.49503E-07 1.23730E-19-8.56452E-18
 -1        37 9.23542E-05-2.77168E-05-2.77423E-05 4.45871E-07-2.94647E-19-8.78670E-18
 -1        38 9.88134E-05-2.96435E-05-2.95703E-05 4.02550E-07-1.52462E-19-9.77860E-18
 -1        39 1.04319E-04-3.12835E-05-3.11663E-05 2.76751E-07-1.93831E-19-1.06780E-17
 -1        40 1.07980E-04-3.23735E-05-3.22622E-05 1.36621E-07 1.99114E-19-1.07122E-17
 -1        41 1.09644E-04-3.28700E-05-3.27904E-05 2.57333E-08-2.10352E-20-1.04744E-17
 -1        42 1.09647E-04-3.28735E-05-3.28299E-05-4.24876E-08-1.93347E-19-1.12290E-17
 -1        43 1.08519E-04-3.25406E-05-3.25250E-05-7.35867E-08-1.24195E-19-1.01861E-17
 -1        44 1.06770E-04-3.20223E-05-3.20238E-05-7.96683E-08-1.84044E-20-1.02753E-17
 -1        45 1.04796E-04-3.14360E-05-3.14457E-05-7.20547E-08 2.06413E-19-8.83124E-18
 -1        46 1.02862E-04-3.08602E-05-3.08722E-05-5.87561E-08-2.51412E-19-9.24719E-18
 -1        47 1.01118E-04-3.03397E-05-3.03509E-05-4.45154E-08 2.12732E-19-9.71134E-18
 -1        48 9.96309E-05-2.98951E-05-2.99042E-05-3.16996E-08 6.78495E-21-9.29246E-18
 -1        49 9.84160E-05-2.95311E-05-2.95378E-05-2.12120E-08 1.33052E-19-9.33302E-18
 -1        50 9.74573E-05-2.92434E-05-2.92479E-05-1.31638E-08 7.88275E-20-1.05255E-17
 -1        51 9.67235E-05-2.90227E-05-2.90255E-05-7.29609E-09 1.72938E-19-9.51801E-18
 -1        52 9.61779E-05-2.88583E-05-2.88598E-05-3.21804E-09 2.55632E-19-7.33404E-18
 -1        53 9.57842E-05-2.87393E-05-2.87400E-05-5.28234E-10-4.11806E-19-8.18783E-18
 -1        54 9.55092E-05-2.86561E-05-2.86562E-05 1.13071E-09 1.17998E-19-9.83214E-18
 -1        55 9.53247E-05-2.86000E-05-2.85998E-05 2.05349E-09-2.02924E-19-1.07784E-17
 -1        56 9.52073E-05-2.85642E-05-2.85637E-05 2.47117E-09 3.27040E-19-1.26065E-17
 -1        57 9.51382E-05-2.85430E-05-2.85424E-05 2.55822E-09-2.26745E-19-1.42921E-17
 -1        58 9.51030E-05-2.85320E-05-2.85315E-05 2.44216E-09 2.16752E-19-1.36486E-17
 -1        59 9.50907E-05-2.85280E-05-2.85275E-05 2.21328E-09 2.65658E-19-1.15984E-17
 -1        60 9.50931E-05-2.85285E-05-2.85280E-05 1.93338E-09-1.33154E-19-7.82813E-18
 -1        61 9.51044E-05-2.85317E-05-2.85313E-05 1.64306E-09 4.26176E-20-8.73007E-18
 -1        62 9.51205E-05-2.85364E-05-2.85361E-05 1.36758E-09-5.60655E-19-1.17944E-17
 -1        63 9.51386E-05-2.85417E-05-2.85415E-05 1.12139E-09 1.84081E-19-1.36584E-17
 -1        64 9.51571E-05-2.85472E-05-2.85470E-05 9.11460E-10-4.56939E-19-1.11559E-17
 -1        65 9.51747E-05-2.85524E-05-2.85523E-05 7.39547E-10-1.82036E-19-7.61190E-18
 -1        66 9.51909E-05-2.85573E-05-2.85571E-05 6.03380E-10 2.40990E-20-6.13353E-18
 -1        67 9.52053E-05-2.85615E-05-2.85615E-05 4.96461E-10 7.31428E-19-2.90133E-18
 -1        68 9.52176E-05-2.85652E-05-2.85651E-05 4.05396E-10-4.58988E-19-1.82000E-18
 -1        69 9.52275E-05-2.85682E-05-2.85681E-05 3.01009E-10 3.82402E-19-1.32030E-18
 -1        70 9.52344E-05-2.85703E-05-2.85701E-05 9.64918E-11 8.61595E-20 1.57121E-18
 -1        71 9.52375E-05-2.85713E-05-2.85712E-05-2.07116E-10-4.11781E-19 1.99683E-18
 -1        72 1.11893E-04-3.35035E-05-3.72116E-05-2.44205E-06 4.12611E-19 3.58994E-17
 -1        73 1.07195E-04-3.19252E-05-3.32514E-05-4.64643E-07 3.01196E-19 2.83095E-17
 -1        74 1.08058E-04-3.23924E-05-3.26493E-05-2.25408E-07 2.00866E-19 2.26020E-17
 -1        75 1.11395E-04-3.34283E-05-3.34552E-05-2.31080E-07 5.21628E-20 1.90581E-17
 -1        76 1.15912E-04-3.47677E-05-3.47486E-05-2.78370E-07 1.40937E-19 1.64410E-17
 -1        77 1.20465E-04-3.61240E-05-3.60258E-05-3.26513E-07 5.79167E-20 1.49987E-17
 -1        78 1.23571E-04-3.70736E-05-3.68115E-05-3.09838E-07 1.00335E-19 1.46524E-17
 -1        79 1.23335E-04-3.70554E-05-3.65819E-05-1.30517E-07 6.63961E-20 1.38347E-17
 -1        80 1.18018E-04-3.55291E-05-3.49427E-05 2.84708E-07-1.08991E-19 1.25796E-17
 -1        81 1.07430E-04-3.23683E-05-3.19969E-05 8.41151E-07 1.95477E-19 1.06095E-17
 -1        82 9.45156E-05-2.84012E-05-2.86298E-05 1.17942E-06 9.69323E-20 8.23046E-18
 -1        83 8.51238E-05-2.54037E-05-2.63133E-05 9.01933E-07-1.02508E-19 7.02749E-18
 -1        84 8.47391E-05-2.51946E-05-2.62527E-05 7.32326E-09 7.61502E-20 6.95802E-18
 -1        85 9.32096E-05-2.77932E-05-2.84091E-05-7.43760E-07 1.68943E-20 5.58788E-18
 -1        86 1.06731E-04-3.19820E-05-3.19281E-05-1.08786E-06 1.37490E-19 2.44422E-18
 -1        87 1.18934E-04-3.57445E-05-3.52636E-05-8.83627E-07 1.71898E-19 3.79259E-19
 -1        88 1.26086E-04-3.79131E-05-3.73790E-05-4.71634E-07 2.59521E-19 4.02552E-19
 -1        89 1.27826E-04-3.84114E-05-3.80371E-05-1.20703E-07-3.04530E-19 2.44258E-19
 -1        90 1.25686E-04-3.77371E-05-3.75536E-05 8.35109E-08 7.54794E-20 8.75481E-19
 -1        91 1.21517E-04-3.64646E-05-3.64174E-05 1.65297E-07-4.94631E-20-7.26198E-20
 -1        92 1.16730E-04-3.50179E-05-3.50428E-05 1.75604E-07 1.71556E-19-2.01100E-18
 -1        93 1.12151E-04-3.36413E-05-3.36934E-05 1.54040E-07 1.23246E-19-2.42503E-18
 -1        94 1.08163E-04-3.24455E-05-3.25008E-05 1.23163E-07-4.54392E-19-1.11910E-18
 -1        95 1.04880E-04-3.14620E-05-3.15105E-05 9.33710E-08 4.47195E-19-1.68962E-18
 -1        96 1.02274E-04-3.06817E-05-3.07206E-05 6.83756E-08-2.92857E-19-3.79508E-18
 -1        97 1.00260E-04-3.00784E-05-3.01083E-05 4.87908E-08 2.72497E-19-2.88904E-18
 -1        98 9.87360E-05-2.96217E-05-2.96439E-05 3.40267E-08-1.14758E-19-2.11185E-18
 -1        99 9.76037E-05-2.92822E-05-2.92985E-05 2.31654E-08-5.42499E-19 1.05719E-19
 -1       100 9.67777E-05-2.90345E-05-2.90461E-05 1.53166E-08 2.41221E-19 3.79415E-18
 -1       101 9.61866E-05-2.88571E-05-2.88653E-05 9.73324E-09 3.68244E-20 2.23662E-18
 -1       102 9.57731E-05-2.87329E-05-2.87387E-05 5.82707E-09 4.62451E-19-1.05629E-18
 -1       103 9.54918E-05-2.86484E-05-2.86523E-05 3.14881E-09-7.07368E-19-1.21273E-18
 -1       104 9.53072E-05-2.85928E-05-2.85954E-05 1.36051E-09 4.08095E-19-1.63206E-18
 -1       105 9.51923E-05-2.85582E-05-2.85599E-05 2.09816E-10 3.74141E-19-6.25916E-18
 -1       106 9.51264E-05-2.85383E-05-2.85393E-05-4.90678E-10-9.49197E-19-4.01804E-18
 -1       107 9.50941E-05-2.85286E-05-2.85291E-05-8.79360E-10 3.66394E-19-1.75549E-18
 -1       108 9.50842E-05-2.85255E-05-2.85257E-05-1.05768E-09 7.37635E-21-3.42447E-18
 -1       109 9.50885E-05-2.85267E-05-2.85267E-05-1.09933E-09-5.00911E-19-1.66323E-18
 -1       110 9.51011E-05-2.85305E-05-2.85304E-05-1.05723E-09 4.31391E-19-3.30286E-18
 -1       111 9.51182E-05-2.85356E-05-2.85354E-05-9.68858E-10 4.28473E-20-6.05848E-18
 -1       112 9.51370E-05-2.85412E-05-2.85410E-05-8.60272E-10-4.43732E-19-6.32870E-18
 -1       113 9.51559E-05-2.85468E-05-2.85466E-05-7.49243E-10 1.73070E-19-3.95848E-18
 -1       114 9.51738E-05-2.85522E-05-2.85520E-05-6.47569E-10-4.14610E-19 7.31239E-19
 -1       115 9.51903E-05-2.85571E-05-2.85569E-05-5.62616E-10 4.78918E-19-9.84462E-19
 -1       116 9.52048E-05-2.85614E-05-2.85613E-05-4.97448E-10-6.19655E-19-2.08752E-18
 -1       117 9.52173E-05-2.85652E-05-2.85650E-05-4.49161E-10 6.66152E-19-2.14480E-18
 -1       118 9.52273E-05-2.85682E-05-2.85680E-05-4.02825E-10 7.79603E-20-3.05992E-18
 -1       119 9.52343E-05-2.85703E-05-2.85700E-05-2.88954E-10-5.18209E-19 5.87325E-18
 -1       120 9.52375E-05-2.85714E-05-2.85711E-05 6.15635E-11-2.28981E-18 8.08138E-18
 -1       121 9.52371E-05-2.85710E-05-2.85711E-05 2.05478E-10 8.18238E-18-5.89503E-19
 -1       122 9.52380E-05-2.85740E-05-2.85701E-05-1.70902E-10 7.45471E-19-7.45173E-19
 -1       123 9.52399E-05-2.85804E-05-2.85682E-05-3.61854E-10-2.42052E-19 1.01342E-18
 -1       124 9.52424E-05-2.85885E-05-2.85659E-05-4.08542E-10 3.70095E-19 7.71160E-19
 -1       125 9.52448E-05-2.85968E-05-2.85635E-05-3.71114E-10-6.70237E-18-2.04528E-18
 -1       126 9.52469E-05-2.86039E-05-2.85614E-05-2.93053E-10-1.08652E-17 3.57789E-19
 -1       127 9.52485E-05-2.86092E-05-2.85599E-05-1.84413E-10-2.25295E-18 1.23432E-18
 -1       128 9.52494E-05-2.86120E-05-2.85590E-05-6.17359E-11-1.52264E-18 8.57366E-20
 -1       129 9.52493E-05-2.86120E-05-2.85590E-05 6.49994E-11-1.24014E-18 6.36049E-19
 -1       130 9.52485E-05-2.86091E-05-2.85599E-05 1.86752E-10-9.16039E-19-7.87276E-19
 -1       131 9.52469E-05-2.86038E-05-2.85615E-05 2.97344E-10-6.72735E-18-1.49230E-18
 -1       132 9.52448E-05-2.85966E-05-2.85636E-05 3.71873E-10-1.08319E-17 1.87427E-18
 -1       133 9.52423E-05-2.85884E-05-2.85660E-05 4.06207E-10-6.84020E-18 3.24282E-20
 -1       134 9.52399E-05-2.85803E-05-2.85683E-05 3.87897E-10-7.71007E-18 7.01050E-19
 -1       135 9.52380E-05-2.85740E-05-2.85701E-05 2.38183E-10-8.19620E-18-4.40105E-19
 -1       136 9.52372E-05-2.85711E-05-2.85712E-05-4.21786E-10-2.81123E-18 1.37944E-18
 -1       137 2.69128E-05-9.17355E-05 1.66377E-05-2.43083E-05 2.22304E-17 6.35349E-18
 -1       138 9.76255E-06-4.24145E-05 5.28953E-06-2.12277E-05 3.55741E-17 1.64375E-17
 -1       139 8.80755E-06 7.28073E-06-1.17289E-05 1.40644E-05 3.79085E-17 2.76171E-17
 -1       140 5.00288E-05 2.65815E-05-3.26158E-05 7.02722E-05 3.07719E-17 3.27090E-17
 -1       141 1.35653E-04 1.07384E-06-5.30426E-05 1.09599E-04 1.65898E-17 2.73655E-17
 -1       142 2.38544E-04-5.10702E-05-7.00799E-05 1.02846E-04 5.69799E-18 1.65764E-17
 -1       143 3.07205E-04-9.19004E-05-7.92149E-05 4.47168E-05 4.84490E-19 7.91976E-20
 -1       144 3.10239E-04-9.34066E-05-7.96667E-05-3.98287E-05 3.08432E-18-2.17023E-17
 -1       145 2.43087E-04-5.31631E-05-7.07367E-05-1.02320E-04 1.33691E-17-3.94997E-17
 -1       146 1.40412E-04 3.27170E-07-5.43169E-05-1.13027E-04 2.74797E-17-4.67880E-17
 -1       147 5.05064E-05 2.74121E-05-3.30934E-05-7.16279E-05 3.77942E-17-4.12026E-17
 -1       148 6.82226E-06 4.71259E-06-1.02162E-05-9.61804E-06 3.90630E-17-2.69539E-17
 -1       149 1.19831E-05-5.20534E-05 7.71796E-06 2.57315E-05 2.83129E-17-1.16669E-17
 -1       150 3.04394E-05-9.82253E-05 1.74984E-05 2.15362E-05 1.06309E-17-2.11978E-18
 -1       151 3.65443E-05-1.10802E-04 1.98672E-05-5.64124E-06-1.12659E-17-1.00223E-18
 -1       152 2.14975E-05-7.71331E-05 1.35198E-05-2.54588E-05-3.10044E-17-8.65768E-18
 -1       153 6.04578E-06-1.79254E-05-1.66428E-06-7.86519E-06-4.23000E-17-2.26067E-17
 -1       154 2.14818E-05 2.38370E-05-2.14507E-05 4.14929E-05-4.12577E-17-3.46991E-17
 -1       155 8.63642E-05 2.15213E-05-4.30524E-05 9.58334E-05-3.13851E-17-4.13339E-17
 -1       156 1.80707E-04-2.01715E-05-6.09724E-05 1.13322E-04-1.83158E-17-3.72347E-17
 -1       157 2.74345E-04-7.33688E-05-7.48008E-05 7.59425E-05-5.04861E-18-2.12135E-17
 -1       158 2.70557E-04-7.13450E-05-7.41686E-05-8.00837E-05-4.82353E-18 1.94354E-17
 -1       159 1.72893E-04-1.59777E-05-5.96975E-05-1.14208E-04-1.69440E-17 3.36674E-17
 -1       160 7.41998E-05 2.53285E-05-4.00959E-05-9.01659E-05-2.84218E-17 3.60277E-17
 -1       161 1.59217E-05 2.06852E-05-1.84144E-05-3.34754E-05-3.23334E-17 2.61242E-17
 -1       162 6.39664E-06-2.64003E-05 1.22624E-06 1.45797E-05-2.68319E-17 1.34369E-17
 -1       163 2.46048E-05-8.39689E-05 1.47918E-05 2.33869E-05-1.37482E-17 3.80095E-18
 -1       164 1.02149E-04-1.45601E-05-3.77240E-05-1.86165E-05-5.01050E-18 3.19173E-19
 -1       165 9.45612E-05-9.93067E-06-3.64260E-05-1.28190E-05-4.25459E-18-4.77424E-18
 -1       166 8.93668E-05-7.26441E-06-3.52989E-05-8.41120E-06-3.22976E-18-7.51369E-18
 -1       167 8.52152E-05-5.48999E-06-3.42506E-05-4.96246E-06-2.09793E-18-8.87777E-18
 -1       168 8.16345E-05-4.05623E-06-3.33107E-05-2.35525E-06-1.11544E-18-9.42081E-18
 -1       169 7.84869E-05-2.77896E-06-3.24973E-05-4.64841E-07-2.57988E-19-9.64436E-18
 -1       170 7.60598E-05-1.73106E-06-3.18988E-05 7.27723E-07 5.70427E-19-9.60696E-18
 -1       171 7.46720E-05-1.04933E-06-3.15928E-05 1.37328E-06 1.30377E-18-9.45325E-18
 -1       172 7.46139E-05-8.81929E-07-3.16402E-05 1.72939E-06 1.96294E-18-9.15928E-18
 -1       173 7.60437E-05-1.32670E-06-3.20676E-05 2.14119E-06 2.62746E-18-8.59516E-18
 -1       174 7.88754E-05-2.38174E-06-3.28398E-05 2.96647E-06 3.34990E-18-7.69095E-18
 -1       175 8.30499E-05-4.06672E-06-3.39256E-05 4.58210E-06 4.20180E-18-6.07554E-18
 -1       176 8.83798E-05-6.42701E-06-3.52299E-05 7.29563E-06 4.91591E-18-3.68138E-18
 -1       177 9.50310E-05-9.85234E-06-3.66535E-05 1.13753E-05 5.35841E-18 4.07171E-19
 -1       178 1.04522E-04-1.62265E-05-3.80177E-05 1.66774E-05 4.77008E-18 7.53198E-18
 -1       179 1.15748E-04-2.95574E-05-3.81097E-05 1.48477E-05 3.38773E-18 1.65972E-17
 -1       180 1.12147E-04-3.01403E-05-3.51448E-05-9.37100E-06-4.53470E-18 6.84937E-18
 -1       181 1.07365E-04-3.15283E-05-3.25352E-05-2.30271E-06-3.77630E-18 4.78856E-18
 -1       182 1.05258E-04-3.13193E-05-3.16448E-05 1.43092E-07-2.73188E-18 2.99178E-18
 -1       183 1.04915E-04-3.15153E-05-3.14311E-05 8.00788E-07-2.12599E-18 1.44602E-18
 -1       184 1.05007E-04-3.17584E-05-3.13856E-05 4.27667E-07-1.44701E-18 4.43306E-19
 -1       185 1.04835E-04-3.18859E-05-3.12668E-05-7.18883E-07-1.14688E-18-3.70510E-19
 -1       186 1.03885E-04-3.16985E-05-3.09413E-05-2.39157E-06-8.71638E-19-7.59790E-19
 -1       187 1.01880E-04-3.10324E-05-3.03642E-05-4.13987E-06-9.00730E-19-1.13432E-18
 -1       188 9.89167E-05-2.98553E-05-2.95934E-05-5.27537E-06-9.79817E-19-1.13784E-18
 -1       189 9.55795E-05-2.83808E-05-2.87907E-05-5.07209E-06-1.12792E-18-1.70627E-18
 -1       190 9.28636E-05-2.70892E-05-2.81782E-05-3.19021E-06-1.01921E-18-3.85716E-18
 -1       191 9.17905E-05-2.65354E-05-2.79555E-05-5.20641E-08-2.97590E-19-4.93367E-18
 -1       192 9.28591E-05-2.70050E-05-2.82126E-05 3.23062E-06-4.98932E-19-5.21862E-18
 -1       193 9.57381E-05-2.83100E-05-2.88891E-05 5.46287E-06-5.29816E-19-5.70549E-18
 -1       194 9.94665E-05-2.99249E-05-2.97993E-05 6.03077E-06-9.10151E-19-5.94484E-18
 -1       195 1.02976E-04-3.13216E-05-3.07108E-05 5.11126E-06-4.90579E-19-6.27410E-18
 -1       196 1.05533E-04-3.22128E-05-3.14306E-05 3.36224E-06-9.53855E-20-6.77125E-18
 -1       197 1.06870E-04-3.25657E-05-3.18555E-05 1.47335E-06 8.53965E-20-7.07657E-18
 -1       198 1.07078E-04-3.24949E-05-3.19754E-05-1.00948E-07-7.04794E-19-6.62971E-18
 -1       199 1.06435E-04-3.21545E-05-3.18435E-05-1.18118E-06 2.04945E-19-6.45885E-18
 -1       200 1.05255E-04-3.16778E-05-3.15393E-05-1.78005E-06 4.32799E-19-5.94260E-18
 -1       201 1.03817E-04-3.11599E-05-3.11417E-05-2.00098E-06 3.15480E-19-5.19482E-18
 -1       202 1.02324E-04-3.06596E-05-3.07140E-05-1.96679E-06 2.67759E-19-4.96564E-18
 -1       203 1.00911E-04-3.02091E-05-3.02998E-05-1.78403E-06-2.51102E-19-4.13492E-18
 -1       204 9.96535E-05-2.98227E-05-2.99255E-05-1.53147E-06 2.85965E-20-4.56738E-18
 -1       205 9.85830E-05-2.95029E-05-2.96033E-05-1.26113E-06-2.85148E-19-4.67113E-18
 -1       206 9.77039E-05-2.92463E-05-2.93364E-05-1.00393E-06-2.48904E-19-4.77285E-18
 -1       207 9.70032E-05-2.90456E-05-2.91223E-05-7.75843E-07 1.04559E-18-4.94331E-18
 -1       208 9.64597E-05-2.88925E-05-2.89553E-05-5.83113E-07 7.14535E-19-4.52087E-18
 -1       209 9.60488E-05-2.87786E-05-2.88283E-05-4.26139E-07-7.06551E-19-5.09889E-18
 -1       210 9.57461E-05-2.86960E-05-2.87343E-05-3.02107E-07-1.00879E-18-4.81931E-18
 -1       211 9.55292E-05-2.86379E-05-2.86666E-05-2.06708E-07-9.31812E-19-5.58798E-18
 -1       212 9.53788E-05-2.85983E-05-2.86193E-05-1.35185E-07-7.86780E-19-6.04389E-18
 -1       213 9.52786E-05-2.85727E-05-2.85876E-05-8.29330E-08-3.94314E-19-6.05293E-18
 -1       214 9.52154E-05-2.85571E-05-2.85674E-05-4.58157E-08 6.64158E-19-5.60728E-18
 -1       215 9.51788E-05-2.85487E-05-2.85554E-05-2.02883E-08 8.99197E-19-6.08493E-18
 -1       216 9.51607E-05-2.85451E-05-2.85493E-05-3.42263E-09 1.71837E-18-6.33641E-18
 -1       217 9.51551E-05-2.85447E-05-2.85471E-05 7.13141E-09-5.86954E-19-5.95131E-18
 -1       218 9.51574E-05-2.85463E-05-2.85475E-05 1.32113E-08-1.59495E-18-5.58243E-18
 -1       219 9.51646E-05-2.85491E-05-2.85495E-05 1.62181E-08-9.14055E-19-5.51914E-18
 -1       220 9.51744E-05-2.85524E-05-2.85523E-05 1.71909E-08 4.83652E-19-6.42272E-18
 -1       221 9.51852E-05-2.85559E-05-2.85554E-05 1.68730E-08 2.37849E-18-5.28820E-18
 -1       222 9.51961E-05-2.85593E-05-2.85587E-05 1.57670E-08 1.88874E-18-1.91644E-18
 -1       223 9.52064E-05-2.85624E-05-2.85617E-05 1.41761E-08 2.81564E-18-4.11762E-19
 -1       224 9.52157E-05-2.85653E-05-2.85645E-05 1.22329E-08 1.70162E-18 1.07557E-18
 -1       225 9.52236E-05-2.85678E-05-2.85668E-05 9.91759E-09-2.93745E-19 1.25021E-18
 -1       226 9.52300E-05-2.85699E-05-2.85686E-05 7.09179E-09 8.91219E-19 3.89165E-19
 -1       227 9.52346E-05-2.85715E-05-2.85699E-05 3.66631E-09 2.34365E-19 1.23129E-18
 -1       228 1.11871E-04-3.23497E-05-3.42388E-05 3.55613E-06 3.70294E-18 1.44296E-17
 -1       229 1.09783E-04-3.23767E-05-3.31395E-05-9.01737E-07 2.79449E-18 1.17354E-17
 -1       230 1.10718E-04-3.29428E-05-3.32931E-05-2.87070E-06 1.79345E-18 9.59886E-18
 -1       231 1.13129E-04-3.38686E-05-3.39510E-05-3.71705E-06 1.27201E-18 8.37866E-18
 -1       232 1.16030E-04-3.50028E-05-3.47180E-05-3.51692E-06 6.45777E-19 7.75498E-18
 -1       233 1.18418E-04-3.60885E-05-3.52706E-05-1.98058E-06 2.15031E-19 7.37481E-18
 -1       234 1.19156E-04-3.67090E-05-3.53054E-05 1.11359E-06 4.74934E-19 7.47928E-18
 -1       235 1.17182E-04-3.62934E-05-3.46282E-05 5.35928E-06 5.67016E-19 7.34945E-18
 -1       236 1.12128E-04-3.43420E-05-3.33212E-05 9.10965E-06 1.25688E-18 6.61092E-18
 -1       237 1.05311E-04-3.11600E-05-3.18246E-05 9.66506E-06 1.23934E-18 5.78723E-18
 -1       238 9.98423E-05-2.82166E-05-3.08042E-05 5.29635E-06 1.09727E-18 3.78211E-18
 -1       239 9.92086E-05-2.77143E-05-3.07499E-05-2.43866E-06 6.33323E-19 2.07389E-18
 -1       240 1.03650E-04-2.98902E-05-3.16631E-05-8.62787E-06 1.58870E-18 4.06655E-19
 -1       241 1.11024E-04-3.34370E-05-3.32352E-05-1.05939E-05 1.63119E-18-3.90654E-19
 -1       242 1.17563E-04-3.62471E-05-3.48066E-05-8.13349E-06 1.02107E-18-1.92128E-18
 -1       243 1.21130E-04-3.74420E-05-3.58371E-05-3.79315E-06 3.31071E-20-2.60750E-18
 -1       244 1.21552E-04-3.72736E-05-3.61143E-05 1.30046E-07-2.43436E-19-1.47497E-18
 -1       245 1.19682E-04-3.63364E-05-3.57294E-05 2.66589E-06-1.25726E-19-1.75884E-18
 -1       246 1.16560E-04-3.51104E-05-3.49201E-05 3.84057E-06 8.14270E-19-2.06377E-18
 -1       247 1.13008E-04-3.38731E-05-3.39252E-05 4.06622E-06 3.16958E-19-2.56724E-18
 -1       248 1.09549E-04-3.27541E-05-3.29173E-05 3.76307E-06-3.30024E-19-1.38007E-18
 -1       249 1.06454E-04-3.18003E-05-3.19960E-05 3.23075E-06-2.52869E-19-9.04120E-19
 -1       250 1.03832E-04-3.10168E-05-3.12052E-05 2.64595E-06 4.84430E-19-1.38516E-18
 -1       251 1.01689E-04-3.03899E-05-3.05544E-05 2.09802E-06 4.05979E-19-1.46276E-18
 -1       252 9.99862E-05-2.98985E-05-3.00347E-05 1.62381E-06-7.69794E-19-1.39391E-18
 -1       253 9.86615E-05-2.95202E-05-2.96292E-05 1.23206E-06-4.91279E-19 2.11244E-19
 -1       254 9.76504E-05-2.92337E-05-2.93189E-05 9.18159E-07-1.44909E-18 1.94708E-19
 -1       255 9.68918E-05-2.90202E-05-2.90857E-05 6.72090E-07-1.51735E-18-2.16910E-19
 -1       256 9.63328E-05-2.88639E-05-2.89135E-05 4.82560E-07 6.06135E-19 1.01670E-18
 -1       257 9.59286E-05-2.87517E-05-2.87887E-05 3.38843E-07 1.47265E-18 1.08783E-18
 -1       258 9.56425E-05-2.86730E-05-2.87001E-05 2.31517E-07 9.42128E-21-2.77791E-19
 -1       259 9.54454E-05-2.86193E-05-2.86389E-05 1.52644E-07 1.49228E-18-4.84592E-19
 -1       260 9.53140E-05-2.85841E-05-2.85979E-05 9.57100E-08 1.95585E-18-3.10434E-19
 -1       261 9.52304E-05-2.85621E-05-2.85716E-05 5.54617E-08-1.11924E-18-2.42641E-18
 -1       262 9.51809E-05-2.85496E-05-2.85559E-05 2.77232E-08-5.96578E-19-3.17396E-18
 -1       263 9.51550E-05-2.85435E-05-2.85475E-05 9.21714E-09-2.25943E-19-1.09740E-18
 -1       264 9.51451E-05-2.85417E-05-2.85441E-05-2.59740E-09-5.03140E-19-1.89015E-18
 -1       265 9.51455E-05-2.85426E-05-2.85439E-05-9.66439E-09 1.41786E-18-1.81141E-18
 -1       266 9.51522E-05-2.85452E-05-2.85458E-05-1.34492E-08 1.62175E-18-2.56695E-18
 -1       267 9.51624E-05-2.85486E-05-2.85487E-05-1.50365E-08-4.03967E-19-2.22286E-18
 -1       268 9.51742E-05-2.85524E-05-2.85522E-05-1.52098E-08-1.85653E-18-2.30639E-18
 -1       269 9.51864E-05-2.85562E-05-2.85558E-05-1.45140E-08-1.83113E-18-1.11232E-18
 -1       270 9.51981E-05-2.85598E-05-2.85593E-05-1.33028E-08 9.44909E-19-8.62801E-19
 -1       271 9.52088E-05-2.85630E-05-2.85625E-05-1.17704E-08-8.13008E-19-1.27296E-21
 -1       272 9.52183E-05-2.85659E-05-2.85653E-05-9.97097E-09 2.24549E-19 8.86178E-19
 -1       273 9.52261E-05-2.85684E-05-2.85676E-05-7.83611E-09-1.93055E-18 2.54873E-18
 -1       274 9.52319E-05-2.85703E-05-2.85693E-05-5.19322E-09-1.74477E-18 1.65191E-18
 -1       275 9.52357E-05-2.85715E-05-2.85704E-05-2.04624E-09-4.43839E-19-5.40465E-19
 -1       276 9.52369E-05-2.85739E-05-2.85699E-05-3.77292E-09-1.38958E-18-2.24365E-18
 -1       277 9.52386E-05-2.85782E-05-2.85687E-05-6.64498E-09 7.68795E-19-3.13984E-19
 -1       278 9.52407E-05-2.85837E-05-2.85673E-05-8.19566E-09 7.78851E-19-4.52134E-19
 -1       279 9.52428E-05-2.85895E-05-2.85657E-05-8.31612E-09-1.15969E-18-3.32088E-18
 -1       280 9.52447E-05-2.85949E-05-2.85642E-05-7.27441E-09-1.08965E-18-2.98229E-18
 -1       281 9.52462E-05-2.85993E-05-2.85630E-05-5.32816E-09-8.82730E-19 3.77317E-18
 -1       282 9.52472E-05-2.86021E-05-2.85621E-05-2.78991E-09 4.21750E-20-5.36526E-20
 -1       283 9.52475E-05-2.86031E-05-2.85619E-05 3.75648E-11 4.83677E-20-1.83263E-19
 -1       284 9.52472E-05-2.86021E-05-2.85622E-05 2.85861E-09 2.31915E-19-1.33361E-19
 -1       285 9.52462E-05-2.85992E-05-2.85630E-05 5.37993E-09-1.12948E-18-3.21902E-18
 -1       286 9.52447E-05-2.85948E-05-2.85642E-05 7.27714E-09-1.07626E-18-2.45902E-18
 -1       287 9.52428E-05-2.85894E-05-2.85657E-05 8.31348E-09-1.36923E-18 1.65428E-18
 -1       288 9.52406E-05-2.85835E-05-2.85673E-05 8.16304E-09-2.76601E-18 5.94986E-19
 -1       289 9.52385E-05-2.85781E-05-2.85688E-05 6.53647E-09-2.31158E-18-1.94701E-19
 -1       290 9.52365E-05-2.85746E-05-2.85694E-05 5.82350E-09 2.03635E-19 2.80495E-18
 -1       291 1.20911E-05-4.74317E-05 1.20023E-05 5.35290E-06 6.12124E-18 8.88972E-18
 -1       292 2.61642E-05-4.20839E-05 4.59441E-06 2.29252E-05 8.13490E-18 1.10562E-17
 -1       293 5.12283E-05-3.96452E-05-6.83959E-06 3.25562E-05 1.23089E-17 1.10365E-17
 -1       294 8.80308E-05-3.56849E-05-2.31597E-05 4.15746E-05 1.27239E-17 9.43891E-18
 -1       295 1.30320E-04-3.24167E-05-4.11194E-05 4.58995E-05 1.31863E-17 8.74773E-18
 -1       296 1.72918E-04-3.58931E-05-5.67494E-05 3.18054E-05 1.02715E-17 4.62946E-18
 -1       297 2.06162E-04-3.74245E-05-6.87695E-05 2.25040E-05 8.89226E-18 7.23366E-19
 -1       298 2.14364E-04-3.62032E-05-7.26145E-05 1.43828E-07 1.04866E-17-6.09705E-18
 -1       299 2.04542E-04-3.57790E-05-6.89443E-05-2.05881E-05 1.19250E-17-1.14579E-17
 -1       300 1.76568E-04-3.42883E-05-5.83857E-05-4.04408E-05 1.37058E-17-1.70302E-17
 -1       301 1.31978E-04-3.18277E-05-4.19828E-05-4.69973E-05 1.52043E-17-1.89106E-17
 -1       302 8.87400E-05-3.70497E-05-2.28575E-05-4.24095E-05 1.31106E-17-1.64248E-17
 -1       303 4.41186E-05-3.84859E-05-4.76455E-06-2.98556E-05 1.20349E-17-1.52007E-17
 -1       304 2.13873E-05-4.57568E-05 7.17307E-06-1.57340E-05 6.23056E-18-1.19763E-17
 -1       305 1.17661E-05-4.99914E-05 1.26848E-05-2.63523E-06-7.58147E-19-1.02971E-17
 -1       306 1.43450E-05-4.77178E-05 1.08877E-05 1.07928E-05-8.04438E-18-1.11393E-17
 -1       307 3.48202E-05-4.02472E-05 4.15335E-07 3.07285E-05-1.07488E-17-1.28751E-17
 -1       308 6.43559E-05-3.45135E-05-1.40258E-05 3.95939E-05-1.65309E-17-1.49101E-17
 -1       309 1.07897E-04-3.32466E-05-3.18740E-05 4.53637E-05-1.58323E-17-1.56862E-17
 -1       310 1.48125E-04-2.96544E-05-4.91697E-05 4.70107E-05-1.57774E-17-1.61444E-17
 -1       311 1.81615E-04-3.15629E-05-6.21164E-05 2.67966E-05-1.31615E-17-1.00769E-17
 -1       312 2.06343E-04-3.42807E-05-7.05086E-05 1.12890E-05-1.06900E-17-6.93026E-18
 -1       313 2.10742E-04-3.68079E-05-7.08868E-05-1.32912E-05-9.54564E-18-4.07846E-19
 -1       314 1.81796E-04-3.21460E-05-6.17038E-05-3.06706E-05-1.01539E-17 4.07889E-18
 -1       315 1.43271E-04-2.90390E-05-4.73995E-05-4.81281E-05-1.10494E-17 1.09346E-17
 -1       316 9.66294E-05-2.85356E-05-2.92390E-05-4.67340E-05-1.11467E-17 1.31834E-17
 -1       317 6.17556E-05-3.78469E-05-1.15187E-05-3.90418E-05-7.23641E-18 1.14852E-17
 -1       318 2.78677E-05-4.25384E-05 3.49504E-06-2.27904E-05-4.89691E-18 9.55993E-18
 -1       319 1.24259E-05-4.50177E-05 1.10404E-05-1.03044E-05 1.34636E-18 9.00555E-18
 -1       320 9.63040E-05-1.61065E-05-3.44426E-05-8.09156E-06-4.30765E-18-4.21992E-18
 -1       321 1.02845E-04-2.16177E-05-3.48779E-05-1.03831E-05-5.11074E-18-1.18669E-18
 -1       322 8.64652E-05-9.73398E-06-3.29343E-05-2.51018E-06-1.87844E-18-7.01349E-18
 -1       323 8.22748E-05-7.26761E-06-3.21833E-05-3.79253E-07-8.04496E-19-7.46932E-18
 -1       324 7.87213E-05-5.14443E-06-3.15607E-05 1.02901E-06 2.74499E-19-7.58338E-18
 -1       325 7.61883E-05-3.54599E-06-3.11537E-05 1.70525E-06 1.23756E-18-7.56628E-18
 -1       326 7.51236E-05-2.75081E-06-3.10356E-05 1.81904E-06 2.05595E-18-7.43721E-18
 -1       327 7.58631E-05-2.99597E-06-3.12495E-05 1.70969E-06 2.81727E-18-7.02136E-18
 -1       328 7.84391E-05-4.34825E-06-3.17813E-05 1.79872E-06 3.63250E-18-6.38415E-18
 -1       329 8.27930E-05-6.82595E-06-3.25983E-05 2.46284E-06 4.48772E-18-5.11915E-18
 -1       330 8.86321E-05-1.03863E-05-3.35935E-05 3.92000E-06 5.23234E-18-3.40013E-18
 -1       331 9.57855E-05-1.52064E-05-3.46092E-05 6.09361E-06 5.79812E-18-7.72150E-19
 -1       332 1.03974E-04-2.18315E-05-3.53049E-05 7.97170E-06 5.66263E-18 3.86364E-18
 -1       333 1.09242E-04-2.76932E-05-3.50220E-05 6.48225E-06 4.96082E-18 8.08199E-18
 -1       334 1.08708E-04-3.04066E-05-3.35249E-05-1.57891E-09 3.93661E-18 6.58410E-18
 -1       335 1.05299E-04-2.91582E-05-3.25926E-05-2.76873E-06-3.95977E-18-2.13406E-19
 -1       336 1.04932E-04-3.07194E-05-3.17877E-05 1.25526E-08-3.01166E-18-3.67693E-19
 -1       337 1.05111E-04-3.18448E-05-3.13965E-05 7.07126E-07-2.21661E-18-5.41702E-19
 -1       338 1.05572E-04-3.28290E-05-3.11827E-05-1.09040E-07-1.59820E-18-6.27226E-19
 -1       339 1.05908E-04-3.35304E-05-3.10302E-05-2.10316E-06-1.01515E-18-3.88887E-19
 -1       340 1.05656E-04-3.35893E-05-3.08953E-05-4.76986E-06-6.89786E-19-1.54617E-19
 -1       341 1.04438E-04-3.26161E-05-3.07839E-05-7.22470E-06-6.75636E-19-1.81656E-19
 -1       342 1.02220E-04-3.05206E-05-3.07225E-05-8.25008E-06-1.70419E-18-3.64214E-19
 -1       343 9.95947E-05-2.78780E-05-3.07229E-05-6.78115E-06-2.25725E-18-1.08594E-18
 -1       344 9.77095E-05-2.58955E-05-3.07609E-05-2.71645E-06-1.61710E-18-1.87973E-18
 -1       345 9.76101E-05-2.57038E-05-3.08009E-05 2.62728E-06-1.31312E-18-3.38521E-18
 -1       346 9.94112E-05-2.74329E-05-3.08347E-05 7.12705E-06-6.93520E-19-4.10392E-18
 -1       347 1.02211E-04-3.01268E-05-3.08867E-05 9.18808E-06-1.27975E-18-4.66085E-18
 -1       348 1.04782E-04-3.25060E-05-3.09776E-05 8.57367E-06-8.48547E-19-4.85202E-18
 -1       349 1.06348E-04-3.38287E-05-3.10900E-05 6.16979E-06-7.89163E-19-4.61972E-18
 -1       350 1.06769E-04-3.40594E-05-3.11749E-05 3.15843E-06-1.31361E-19-4.70099E-18
 -1       351 1.06290E-04-3.35497E-05-3.11879E-05 4.26859E-07 2.43778E-19-4.54006E-18
 -1       352 1.05259E-04-3.27027E-05-3.11064E-05-1.59416E-06-1.39845E-19-4.13428E-18
 -1       353 1.03968E-04-3.18036E-05-3.09347E-05-2.83151E-06 3.75745E-19-3.94888E-18
 -1       354 1.02614E-04-3.10004E-05-3.06951E-05-3.40382E-06 8.37475E-19-4.20223E-18
 -1       355 1.01315E-04-3.03446E-05-3.04168E-05-3.49400E-06 7.40897E-19-3.63470E-18
 -1       356 1.00135E-04-2.98362E-05-3.01271E-05-3.27822E-06 1.67060E-19-3.21740E-18
 -1       357 9.91030E-05-2.94546E-05-2.98474E-05-2.89688E-06-2.03030E-19-3.06493E-18
 -1       358 9.82273E-05-2.91742E-05-2.95919E-05-2.44945E-06 3.75436E-19-2.51170E-18
 -1       359 9.75027E-05-2.89715E-05-2.93682E-05-1.99983E-06 9.00322E-20-2.12906E-18
 -1       360 9.69167E-05-2.88271E-05-2.91791E-05-1.58493E-06-1.94404E-19-2.28491E-18
 -1       361 9.64527E-05-2.87260E-05-2.90238E-05-1.22283E-06-1.46866E-19-3.19820E-18
 -1       362 9.60929E-05-2.86565E-05-2.88997E-05-9.19426E-07-1.75965E-19-3.62217E-18
 -1       363 9.58196E-05-2.86101E-05-2.88028E-05-6.73311E-07-4.12982E-19-3.26570E-18
 -1       364 9.56165E-05-2.85802E-05-2.87288E-05-4.79097E-07-7.73807E-19-2.51909E-18
 -1       365 9.54691E-05-2.85619E-05-2.86737E-05-3.29628E-07-8.69966E-19-1.55761E-18
 -1       366 9.53650E-05-2.85517E-05-2.86337E-05-2.17340E-07-5.44429E-19-1.76196E-18
 -1       367 9.52939E-05-2.85469E-05-2.86055E-05-1.35037E-07 4.54023E-19-1.51463E-18
 -1       368 9.52474E-05-2.85456E-05-2.85862E-05-7.62992E-08 9.46791E-19-1.60079E-18
 -1       369 9.52188E-05-2.85466E-05-2.85736E-05-3.56431E-08 7.01406E-19-1.24794E-18
 -1       370 9.52029E-05-2.85488E-05-2.85659E-05-8.54094E-09 9.47073E-20-2.29196E-18
 -1       371 9.51959E-05-2.85517E-05-2.85617E-05 8.64326E-09-1.25434E-19-2.26477E-18
 -1       372 9.51946E-05-2.85547E-05-2.85599E-05 1.87556E-08-1.06612E-18-8.73917E-19
 -1       373 9.51971E-05-2.85578E-05-2.85597E-05 2.39681E-08-8.42272E-19 9.75857E-20
 -1       374 9.52017E-05-2.85606E-05-2.85604E-05 2.58908E-08 1.34501E-18 6.00225E-19
 -1       375 9.52074E-05-2.85632E-05-2.85618E-05 2.56726E-08 3.75953E-18 5.83694E-21
 -1       376 9.52134E-05-2.85656E-05-2.85633E-05 2.40856E-08 4.98431E-18 1.00554E-18
 -1       377 9.52193E-05-2.85678E-05-2.85649E-05 2.15936E-08 3.07476E-18 1.59202E-19
 -1       378 9.52248E-05-2.85698E-05-2.85664E-05 1.84116E-08-6.13528E-20 4.52529E-19
 -1       379 9.52296E-05-2.85718E-05-2.85677E-05 1.45809E-08 1.90676E-21 2.40525E-18
 -1       380 9.52333E-05-2.85733E-05-2.85686E-05 1.03992E-08 8.55516E-19 2.10191E-18
 -1       381 1.09037E-04-3.16140E-05-3.31470E-05-3.63315E-06 2.87275E-18 5.55008E-18
 -1       382 1.10541E-04-3.28028E-05-3.33043E-05-5.42146E-06 1.80726E-18 4.67218E-18
 -1       383 1.12908E-04-3.43758E-05-3.36639E-05-5.56251E-06 9.48441E-19 4.25036E-18
 -1       384 1.15620E-04-3.63162E-05-3.40060E-05-3.73837E-06 2.17173E-19 4.25727E-18
 -1       385 1.17946E-04-3.82126E-05-3.41942E-05 3.70741E-07 1.99221E-19 4.36225E-18
 -1       386 1.18846E-04-3.90775E-05-3.42120E-05 6.34958E-06 8.05551E-19 4.79261E-18
 -1       387 1.17151E-04-3.74710E-05-3.41834E-05 1.21532E-05 1.29704E-18 5.10988E-18
 -1       388 1.12719E-04-3.28580E-05-3.42729E-05 1.38134E-05 1.91522E-18 4.76573E-18
 -1       389 1.07739E-04-2.73459E-05-3.45128E-05 8.44672E-06 2.81875E-18 3.20709E-18
 -1       390 1.06370E-04-2.56138E-05-3.46642E-05-2.62501E-06 1.77070E-18 4.59357E-19
 -1       391 1.09727E-04-2.90224E-05-3.46310E-05-1.18909E-05 2.58600E-18-1.88517E-18
 -1       392 1.15378E-04-3.47924E-05-3.45584E-05-1.50610E-05 1.96601E-18-2.84234E-18
 -1       393 1.19400E-04-3.87462E-05-3.45857E-05-1.15051E-05 1.57747E-18-2.71290E-18
 -1       394 1.20324E-04-3.95445E-05-3.46490E-05-5.11981E-06 1.68947E-19-2.64173E-18
 -1       395 1.18833E-04-3.82589E-05-3.45664E-05 6.65936E-07-1.09771E-18-2.29565E-18
 -1       396 1.16091E-04-3.62770E-05-3.42343E-05 4.43745E-06 5.79655E-20-1.67471E-18
 -1       397 1.12946E-04-3.44027E-05-3.36782E-05 6.22087E-06 1.20765E-18-1.40204E-18
 -1       398 1.09857E-04-3.28997E-05-3.29884E-05 6.59357E-06 1.02575E-19-5.55878E-19
 -1       399 1.07041E-04-3.17673E-05-3.22595E-05 6.15462E-06-5.11892E-19 1.80118E-19
 -1       400 1.04584E-04-3.09279E-05-3.15622E-05 5.34313E-06 3.91227E-20-8.02607E-19
 -1       401 1.02507E-04-3.03037E-05-3.09381E-05 4.42820E-06 1.49720E-20-9.55399E-19
 -1       402 1.00795E-04-2.98359E-05-3.04047E-05 3.55319E-06 3.35022E-19 2.16996E-19
 -1       403 9.94128E-05-2.94836E-05-2.99640E-05 2.78244E-06-7.05016E-19 9.82475E-19
 -1       404 9.83183E-05-2.92185E-05-2.96094E-05 2.13579E-06-5.18346E-19 4.27612E-20
 -1       405 9.74660E-05-2.90200E-05-2.93301E-05 1.61037E-06-1.03679E-18-6.11181E-19
 -1       406 9.68134E-05-2.88729E-05-2.91142E-05 1.19324E-06-1.17467E-18-3.98299E-19
 -1       407 9.63218E-05-2.87655E-05-2.89503E-05 8.68139E-07 1.89527E-19-9.46171E-19
 -1       408 9.59580E-05-2.86886E-05-2.88279E-05 6.18807E-07 3.74086E-19 1.51924E-19
 -1       409 9.56939E-05-2.86348E-05-2.87382E-05 4.30496E-07 1.17696E-18 2.10577E-18
 -1       410 9.55064E-05-2.85983E-05-2.86738E-05 2.90486E-07 2.27318E-20 1.10113E-18
 -1       411 9.53767E-05-2.85746E-05-2.86287E-05 1.88142E-07 2.43814E-18 1.63410E-18
 -1       412 9.52900E-05-2.85601E-05-2.85980E-05 1.14756E-07 6.91419E-19-4.89276E-19
 -1       413 9.52347E-05-2.85521E-05-2.85779E-05 6.33159E-08-1.00779E-18-2.12061E-18
 -1       414 9.52019E-05-2.85485E-05-2.85655E-05 2.82563E-08-1.69028E-18-1.06799E-18
 -1       415 9.51847E-05-2.85479E-05-2.85585E-05 5.21579E-09-9.19079E-20 4.12695E-19
 -1       416 9.51781E-05-2.85491E-05-2.85552E-05-9.17601E-09 7.56453E-19 4.68767E-19
 -1       417 9.51783E-05-2.85513E-05-2.85544E-05-1.74854E-08 1.66942E-18 4.32186E-19
 -1       418 9.51828E-05-2.85541E-05-2.85551E-05-2.16326E-08-5.62153E-19 2.02083E-18
 -1       419 9.51897E-05-2.85571E-05-2.85568E-05-2.30218E-08-3.65576E-19 1.99870E-19
 -1       420 9.51976E-05-2.85600E-05-2.85590E-05-2.26465E-08-1.46502E-18-3.21157E-18
 -1       421 9.52058E-05-2.85628E-05-2.85613E-05-2.11719E-08-9.83945E-19-2.48088E-18
 -1       422 9.52136E-05-2.85653E-05-2.85636E-05-1.89959E-08-1.64175E-18 1.04372E-18
 -1       423 9.52207E-05-2.85677E-05-2.85656E-05-1.62922E-08-2.90606E-19 2.09885E-18
 -1       424 9.52269E-05-2.85698E-05-2.85673E-05-1.30590E-08-1.73026E-18 1.45187E-18
 -1       425 9.52320E-05-2.85718E-05-2.85687E-05-9.21320E-09 6.50138E-19-1.09522E-20
 -1       426 9.52347E-05-2.85730E-05-2.85693E-05-6.61260E-09 9.03966E-19-1.82161E-18
 -1       427 9.52411E-05-2.85846E-05-2.85671E-05-1.41404E-08 1.08146E-18-3.50087E-18
 -1       428 9.52381E-05-2.85797E-05-2.85679E-05-1.30978E-08 1.66040E-18 6.78054E-19
 -1       429 9.52361E-05-2.85761E-05-2.85686E-05-1.03372E-08 2.76099E-18-3.62303E-19
 -1       430 9.52437E-05-2.85891E-05-2.85663E-05-1.32051E-08-1.61905E-19-5.33319E-18
 -1       431 9.52458E-05-2.85930E-05-2.85655E-05-1.06161E-08 1.09545E-18 1.35710E-18
 -1       432 9.52473E-05-2.85957E-05-2.85649E-05-6.82282E-09-7.07402E-19 1.04754E-18
 -1       433 9.52481E-05-2.85972E-05-2.85646E-05-2.30906E-09-2.77614E-18 1.88074E-20
 -1       434 9.52480E-05-2.85971E-05-2.85647E-05 2.43715E-09-2.65609E-18 1.04991E-19
 -1       435 9.52473E-05-2.85956E-05-2.85650E-05 6.93041E-09-1.28947E-18-1.57862E-18
 -1       436 9.52458E-05-2.85929E-05-2.85655E-05 1.06321E-08 1.27241E-18-2.60707E-18
 -1       437 9.52437E-05-2.85890E-05-2.85663E-05 1.32006E-08 1.75925E-18 9.67075E-19
 -1       438 9.52410E-05-2.85845E-05-2.85671E-05 1.41220E-08 4.02090E-19-8.22900E-19
 -1       439 9.52381E-05-2.85796E-05-2.85679E-05 1.31167E-08-3.64017E-19-4.46954E-19
 -1       440 5.92479E-05-4.15293E-05-7.55100E-06 4.16124E-05 8.18446E-20 5.19067E-18
 -1       441 1.14089E-05-2.33870E-05 4.81487E-06-2.38337E-06 2.35348E-18 9.00100E-18
 -1       442 2.18587E-05-2.76008E-05 2.20326E-06 2.28059E-05 1.85548E-18 1.03771E-17
 -1       443 9.20030E-05-5.32597E-05-1.67602E-05 4.09753E-05 1.51799E-18 2.49234E-18
 -1       444 1.31185E-04-5.62807E-05-3.20828E-05 2.75432E-05 4.92348E-18 3.37437E-19
 -1       445 9.10800E-05-1.25389E-05-3.37332E-05-5.21374E-06-3.09075E-18-6.11507E-18
 -1       446 1.62370E-04-2.90981E-05-5.69798E-05-2.02978E-06 9.51642E-18-2.62453E-18
 -1       447 1.67456E-04-1.83543E-05-6.34124E-05-2.01052E-06 1.15055E-17-2.92576E-18
 -1       448 1.60568E-04-1.54427E-05-6.20653E-05 2.14580E-06 1.19093E-17-2.10006E-18
 -1       449 1.65244E-04-3.00078E-05-5.75483E-05-1.60355E-06 1.01905E-17-3.20062E-18
 -1       450 1.55124E-04-4.62920E-05-4.64699E-05-1.16828E-05 7.14696E-18-4.10716E-18
 -1       451 1.33931E-04-5.75428E-05-3.27409E-05-2.68209E-05 3.08394E-18-4.89214E-18
 -1       452 8.92082E-05-5.15778E-05-1.63130E-05-4.26971E-05 7.74506E-19-9.21977E-18
 -1       453 4.69974E-05-3.82613E-05-4.12276E-06-3.86564E-05 4.78256E-19-1.24662E-17
 -1       454 1.83059E-05-2.69753E-05 3.22202E-06-1.96495E-05-4.51045E-19-1.26175E-17
 -1       455 1.18295E-05-2.27733E-05 4.35217E-06 7.36277E-06-9.94073E-19-1.29000E-17
 -1       456 2.93919E-05-2.68332E-05-1.00893E-06 3.19744E-05-2.44898E-19-1.14599E-17
 -1       457 6.98302E-05-4.38957E-05-1.12351E-05 4.45913E-05-3.03037E-18-8.63037E-18
 -1       458 1.09428E-04-5.37796E-05-2.39100E-05 3.93496E-05-4.52061E-18-5.99392E-18
 -1       459 1.41449E-04-4.99174E-05-3.91342E-05 2.13969E-05-7.55172E-18-3.72822E-18
 -1       460 1.54094E-04-3.71505E-05-5.01130E-05 6.63466E-06-9.98252E-18-2.78208E-18
 -1       461 1.52473E-04-1.68460E-05-5.83114E-05-3.68904E-06-1.16033E-17-3.85241E-18
 -1       462 1.63319E-04-1.37769E-05-6.37100E-05 1.82712E-07-1.17349E-17-4.63028E-18
 -1       463 1.58894E-04-1.91872E-05-5.96697E-05 1.07519E-06-1.01720E-17-4.63931E-18
 -1       464 1.52798E-04-3.84162E-05-4.90051E-05-6.97550E-06-5.82981E-18-3.96814E-18
 -1       465 1.36180E-04-5.03648E-05-3.67191E-05-2.60597E-05-2.37016E-18-1.80312E-19
 -1       466 1.03644E-04-5.12512E-05-2.25359E-05-3.99175E-05-3.32143E-19 4.37228E-18
 -1       467 5.97480E-05-4.09848E-05-8.12178E-06-4.42023E-05 2.12944E-18 8.17127E-18
 -1       468 2.86530E-05-2.95713E-05 2.43408E-07-3.19634E-05 2.08338E-18 1.01102E-17
 -1       469 1.51532E-04-4.79377E-05-4.43938E-05 1.30388E-05 7.25582E-18-7.17437E-19
 -1       470 1.51814E-04-4.17826E-05-4.74089E-05-8.19463E-06 6.76017E-18-5.15197E-18
 -1       471 9.29230E-05-5.23634E-05-1.71714E-05-4.33934E-05 4.27826E-18 3.80019E-18
 -1       472 5.70722E-05-3.42586E-05-9.44465E-06 4.26401E-05 2.92809E-18-8.61634E-18
 -1       473 1.04458E-04-2.72632E-05-3.30692E-05-2.04730E-06 3.93155E-18 1.54986E-18
 -1       474 8.22925E-05-9.81991E-06-3.10725E-05 2.13404E-06-6.51597E-20-6.77421E-18
 -1       475 8.68989E-05-1.29302E-05-3.17184E-05 5.57597E-07-1.09618E-18-6.42380E-18
 -1       476 7.59967E-05-5.35762E-06-3.02808E-05 2.58563E-06 1.69740E-18-6.88994E-18
 -1       477 7.55570E-05-4.86271E-06-3.03044E-05 1.71031E-06 2.40552E-18-6.73671E-18
 -1       478 7.73901E-05-5.90004E-06-3.06477E-05 7.35216E-07 3.07736E-18-6.24680E-18
 -1       479 8.14631E-05-8.48695E-06-3.12889E-05 1.59079E-07 3.86257E-18-5.21968E-18
 -1       480 8.73365E-05-1.24069E-05-3.21314E-05 3.06553E-07 4.44209E-18-3.86152E-18
 -1       481 9.44866E-05-1.74771E-05-3.30227E-05 1.11628E-06 4.87676E-18-2.05865E-18
 -1       482 1.05430E-04-2.94930E-05-3.25295E-05-5.85193E-06 2.77520E-18 1.44593E-18
 -1       483 1.02679E-04-2.75268E-05-3.22007E-05-1.42833E-06-3.21558E-18-2.10866E-18
 -1       484 1.03866E-04-3.03930E-05-3.14868E-05 7.32706E-07-2.42635E-18-1.58550E-18
 -1       485 1.05263E-04-3.27532E-05-3.10784E-05 1.09285E-06-1.70009E-18-1.01627E-18
 -1       486 1.06925E-04-3.48396E-05-3.08998E-05-2.26067E-07-1.04662E-18-5.66873E-19
 -1       487 1.08467E-04-3.62660E-05-3.09502E-05-2.95956E-06-6.58717E-19-3.62125E-19
 -1       488 1.09206E-04-3.62727E-05-3.12612E-05-6.46038E-06-7.83770E-19-3.80648E-19
 -1       489 1.08415E-04-3.41092E-05-3.18464E-05-9.41360E-06-1.28766E-18-6.16572E-19
 -1       490 1.05968E-04-2.98670E-05-3.26157E-05-9.94944E-06-2.48904E-18-7.81373E-19
 -1       491 1.02972E-04-2.52200E-05-3.33295E-05-6.68459E-06-2.61493E-18-9.10436E-19
 -1       492 1.01417E-04-2.28800E-05-3.36675E-05-1.83449E-07-2.54675E-18-1.89408E-18
 -1       493 1.02504E-04-2.44424E-05-3.34652E-05 6.66748E-06-2.09286E-18-3.09726E-18
 -1       494 1.05419E-04-2.88452E-05-3.28233E-05 1.07695E-05-1.47929E-18-4.73847E-18
 -1       495 1.08182E-04-3.34564E-05-3.20271E-05 1.08993E-05-1.21557E-18-4.89121E-18
 -1       496 1.09363E-04-3.62413E-05-3.13427E-05 8.11317E-06-7.19923E-19-4.61053E-18
 -1       497 1.08839E-04-3.68324E-05-3.08661E-05 4.22155E-06-5.30036E-19-4.01565E-18
 -1       498 1.07213E-04-3.58807E-05-3.05781E-05 5.95342E-07-8.48481E-22-4.37646E-18
 -1       499 1.05182E-04-3.42550E-05-3.04032E-05-2.11296E-06 1.84191E-19-4.23541E-18
 -1       500 1.03205E-04-3.25809E-05-3.02718E-05-3.79544E-06 2.00103E-19-3.56997E-18
 -1       501 1.01493E-04-3.11694E-05-3.01412E-05-4.60758E-06 4.56438E-19-4.00547E-18
 -1       502 1.00094E-04-3.01098E-05-2.99943E-05-4.78373E-06 1.04545E-18-3.39430E-18
 -1       503 9.89823E-05-2.93769E-05-2.98308E-05-4.54694E-06 4.21706E-19-3.93507E-18
 -1       504 9.81082E-05-2.89035E-05-2.96584E-05-4.07587E-06 4.22652E-19-3.55951E-18
 -1       505 9.74234E-05-2.86180E-05-2.94870E-05-3.49967E-06 2.27865E-19-3.33319E-18
 -1       506 9.68877E-05-2.84605E-05-2.93249E-05-2.90424E-06 3.02835E-19-3.22946E-18
 -1       507 9.64696E-05-2.83855E-05-2.91779E-05-2.34189E-06-7.52238E-19-2.73879E-18
 -1       508 9.61449E-05-2.83610E-05-2.90493E-05-1.84071E-06 8.40286E-21-1.65188E-18
 -1       509 9.58944E-05-2.83655E-05-2.89402E-05-1.41239E-06 1.46095E-19-1.57860E-18
 -1       510 9.57033E-05-2.83852E-05-2.88500E-05-1.05819E-06-7.35916E-20-1.29613E-18
 -1       511 9.55592E-05-2.84114E-05-2.87771E-05-7.73270E-07-3.40324E-19-8.61192E-19
 -1       512 9.54522E-05-2.84388E-05-2.87196E-05-5.49626E-07-6.30157E-19-1.25013E-18
 -1       513 9.53741E-05-2.84647E-05-2.86752E-05-3.78074E-07-8.77480E-19-4.50688E-19
 -1       514 9.53185E-05-2.84877E-05-2.86416E-05-2.49435E-07-4.68368E-20-4.41405E-19
 -1       515 9.52798E-05-2.85072E-05-2.86167E-05-1.55220E-07 7.00066E-19-4.66094E-19
 -1       516 9.52538E-05-2.85232E-05-2.85987E-05-8.79721E-08 4.53973E-19-7.67960E-19
 -1       517 9.52372E-05-2.85360E-05-2.85862E-05-4.13788E-08 5.12970E-19-1.27681E-18
 -1       518 9.52273E-05-2.85460E-05-2.85777E-05-1.02573E-08-1.49640E-18-1.25505E-18
 -1       519 9.52222E-05-2.85537E-05-2.85722E-05 9.53907E-09 5.28074E-20-1.11370E-18
 -1       520 9.52203E-05-2.85595E-05-2.85689E-05 2.12469E-08-4.69552E-20-7.67910E-19
 -1       521 9.52204E-05-2.85638E-05-2.85671E-05 2.73293E-08 1.37957E-18 2.67603E-18
 -1       522 9.52219E-05-2.85671E-05-2.85664E-05 2.96062E-08 1.25130E-18 1.64367E-18
 -1       523 9.52242E-05-2.85695E-05-2.85663E-05 2.93705E-08 3.90484E-18 7.90659E-19
 -1       524 9.52268E-05-2.85714E-05-2.85666E-05 2.74890E-08 2.17594E-18-6.24561E-19
 -1       525 9.52296E-05-2.85731E-05-2.85671E-05 2.44848E-08 2.36179E-18-1.33923E-18
 -1       526 9.52324E-05-2.85748E-05-2.85675E-05 2.06219E-08 1.54058E-18 3.42444E-19
 -1       527 1.10347E-04-3.51283E-05-3.22486E-05-7.82700E-06 5.09345E-19 1.46904E-18
 -1       528 1.14727E-04-3.92528E-05-3.23615E-05-5.21350E-06-1.35447E-19 1.75161E-18
 -1       529 1.19824E-04-4.32541E-05-3.28336E-05 4.68937E-07-2.16829E-19 2.36932E-18
 -1       530 1.23991E-04-4.47119E-05-3.40361E-05 8.68936E-06 1.20358E-19 3.83057E-18
 -1       531 1.24251E-04-4.01914E-05-3.60784E-05 1.62326E-05 1.62397E-18 4.97654E-18
 -1       532 1.18173E-04-2.85139E-05-3.88865E-05 1.64512E-05 3.87825E-18 4.35778E-18
 -1       533 1.15561E-04-2.10859E-05-4.07252E-05 4.47912E-06 5.18855E-18 1.27018E-18
 -1       534 1.15622E-04-2.19813E-05-4.04398E-05-1.03929E-05 4.78542E-18-2.74898E-18
 -1       535 1.21677E-04-3.31666E-05-3.81104E-05-1.80867E-05 3.35854E-18-5.02549E-18
 -1       536 1.25021E-04-4.25318E-05-3.54361E-05-1.50390E-05 1.48148E-18-5.04906E-18
 -1       537 1.23353E-04-4.50636E-05-3.35844E-05-6.67737E-06-1.98838E-20-3.83208E-18
 -1       538 1.18637E-04-4.25168E-05-3.26485E-05 1.18769E-06-6.28553E-19-2.81223E-18
 -1       539 1.13493E-04-3.83736E-05-3.22144E-05 6.35610E-06-6.67798E-19-3.04235E-18
 -1       540 1.09193E-04-3.46900E-05-3.19419E-05 8.86666E-06-6.09042E-19-1.63450E-18
 -1       541 1.05949E-04-3.20822E-05-3.16624E-05 9.49598E-06 1.51184E-20-2.15550E-19
 -1       542 1.03552E-04-3.04511E-05-3.13292E-05 9.01427E-06-3.89315E-19-7.56064E-19
 -1       543 1.01746E-04-2.95065E-05-3.09571E-05 7.98242E-06-2.55764E-20-8.51229E-19
 -1       544 1.00343E-04-2.89873E-05-3.05769E-05 6.75523E-06-2.03733E-19 1.10890E-19
 -1       545 9.92242E-05-2.87129E-05-3.02150E-05 5.53531E-06-5.21899E-19-2.46980E-19
 -1       546 9.83221E-05-2.85731E-05-2.98886E-05 4.42527E-06-6.84299E-19 8.09428E-19
 -1       547 9.75938E-05-2.85054E-05-2.96060E-05 3.46703E-06-1.88804E-20 3.96738E-19
 -1       548 9.70098E-05-2.84758E-05-2.93690E-05 2.66832E-06-6.33564E-19-4.28636E-20
 -1       549 9.65468E-05-2.84663E-05-2.91752E-05 2.01932E-06-7.27740E-19 1.61162E-19
 -1       550 9.61850E-05-2.84675E-05-2.90201E-05 1.50245E-06-7.73008E-19 5.73030E-19
 -1       551 9.59067E-05-2.84743E-05-2.88983E-05 1.09780E-06-1.65971E-19 4.77575E-19
 -1       552 9.56962E-05-2.84839E-05-2.88043E-05 7.85934E-07-5.95344E-19-8.17021E-19
 -1       553 9.55401E-05-2.84947E-05-2.87330E-05 5.49258E-07 6.03057E-19-1.69024E-19
 -1       554 9.54268E-05-2.85057E-05-2.86800E-05 3.72478E-07 1.05696E-18 9.75212E-19
 -1       555 9.53464E-05-2.85161E-05-2.86412E-05 2.42683E-07 2.84632E-18 1.39806E-18
 -1       556 9.52911E-05-2.85258E-05-2.86135E-05 1.49208E-07 4.80232E-19-1.65671E-19
 -1       557 9.52545E-05-2.85344E-05-2.85941E-05 8.33905E-08-1.62330E-18-1.02770E-18
 -1       558 9.52314E-05-2.85418E-05-2.85811E-05 3.83049E-08-1.38817E-18-9.01037E-19
 -1       559 9.52182E-05-2.85482E-05-2.85728E-05 8.49266E-09 4.71187E-19-1.80324E-18
 -1       560 9.52116E-05-2.85535E-05-2.85677E-05-1.02842E-08 1.08544E-18-1.76436E-18
 -1       561 9.52097E-05-2.85579E-05-2.85650E-05-2.12631E-08-1.82511E-19 3.99592E-19
 -1       562 9.52106E-05-2.85615E-05-2.85639E-05-2.68699E-08-9.70103E-19 1.21143E-18
 -1       563 9.52133E-05-2.85644E-05-2.85638E-05-2.88778E-08 3.24781E-19 2.01477E-18
 -1       564 9.52169E-05-2.85668E-05-2.85643E-05-2.85376E-08-2.70318E-18 2.26079E-18
 -1       565 9.52210E-05-2.85689E-05-2.85652E-05-2.66835E-08-2.33157E-18 1.02118E-18
 -1       566 9.52251E-05-2.85707E-05-2.85662E-05-2.38195E-08-1.12509E-18-1.40713E-18
 -1       567 9.52290E-05-2.85725E-05-2.85671E-05-2.02310E-08-1.71645E-18 1.91747E-19
 -1       568 9.52327E-05-2.85744E-05-2.85679E-05-1.59357E-08-5.94040E-20-7.23333E-19
 -1       569 9.52460E-05-2.85886E-05-2.85674E-05-1.56323E-08 1.77456E-18-1.41574E-18
 -1       570 9.52485E-05-2.85914E-05-2.85673E-05-1.13665E-08 4.05784E-20 1.42578E-18
 -1       571 9.52385E-05-2.85805E-05-2.85677E-05-1.85202E-08 9.27538E-19-6.97240E-19
 -1       572 9.52426E-05-2.85849E-05-2.85676E-05-1.81539E-08 8.76685E-19-5.44382E-18
 -1       573 9.52500E-05-2.85932E-05-2.85672E-05-5.92772E-09-1.86796E-18-2.40459E-18
 -1       574 9.52505E-05-2.85938E-05-2.85671E-05 9.14675E-11-7.20892E-19 6.23904E-19
 -1       575 9.52499E-05-2.85931E-05-2.85672E-05 6.09660E-09 1.80925E-19 2.80588E-19
 -1       576 9.52484E-05-2.85914E-05-2.85673E-05 1.14118E-08 2.38948E-19-3.73331E-19
 -1       577 9.52459E-05-2.85885E-05-2.85675E-05 1.56441E-08 1.48647E-18-1.30591E-18
 -1       578 9.52426E-05-2.85847E-05-2.85676E-05 1.81574E-08 8.17623E-19-1.48801E-18
 -1       579 9.52384E-05-2.85803E-05-2.85678E-05 1.84000E-08 2.88201E-19-8.80521E-20
 -1       580 2.40642E-05-1.53682E-05-3.14856E-06 1.12709E-05 3.78187E-19 8.89819E-18
 -1       581 4.80024E-05-2.78416E-05-8.14459E-06 3.43083E-05-2.78520E-18 5.16346E-18
 -1       582 2.76506E-05-1.56679E-05-4.49986E-06-1.90409E-05 2.09450E-18 8.86092E-18
 -1       583 1.07283E-04-3.19064E-05-3.23035E-05-7.85155E-06 1.55539E-18 1.34888E-18
 -1       584 9.06719E-05-4.99638E-05-1.70758E-05 3.96991E-05-3.25255E-18 3.59076E-19
 -1       585 1.23013E-04-6.20089E-05-2.60625E-05 2.69767E-05-1.16160E-18-2.49618E-18
 -1       586 1.44138E-04-5.89409E-05-3.66828E-05 7.04028E-06 2.89557E-18-4.80876E-18
 -1       587 1.32219E-04-5.94717E-05-3.12059E-05 2.08640E-05-9.42457E-19-5.53748E-20
 -1       588 7.84450E-05-7.15770E-06-3.05608E-05 2.82256E-06 8.54030E-19-6.91184E-18
 -1       589 1.38251E-04-1.06031E-05-5.52842E-05-2.72604E-06 1.06797E-17-1.61551E-18
 -1       590 1.33710E-04-7.78370E-06-5.45438E-05-2.89369E-06-1.08631E-17-4.45553E-18
 -1       591 1.42449E-04-1.84745E-05-5.37308E-05-1.12628E-05 9.65914E-18-3.84320E-18
 -1       592 1.43468E-04-2.12683E-05-5.28017E-05 1.19468E-05 8.91566E-18 1.09770E-18
 -1       593 1.47094E-04-3.96857E-05-4.63615E-05 1.18552E-05 5.24462E-18 2.76064E-18
 -1       594 1.46323E-04-5.81386E-05-3.79882E-05-3.35808E-06 1.11898E-18 1.39252E-18
 -1       595 1.21816E-04-6.16318E-05-2.57071E-05-2.95828E-05-2.83910E-18-2.67512E-18
 -1       596 7.78302E-05-4.39707E-05-1.42122E-05-4.21383E-05-3.74680E-18-8.10648E-18
 -1       597 4.44713E-05-2.66550E-05-7.13627E-06-3.43695E-05-2.50409E-18-1.12183E-17
 -1       598 2.14579E-05-1.40323E-05-2.66927E-06-8.21217E-06-5.67089E-19-1.23585E-17
 -1       599 2.77296E-05-1.47655E-05-4.91877E-06 1.89193E-05 1.69804E-18-1.10828E-17
 -1       600 1.00280E-04-5.32143E-05-1.99211E-05 4.08725E-05 2.30012E-18-3.88309E-18
 -1       601 1.43691E-04-4.82297E-05-4.11813E-05 1.02842E-06-4.96347E-18 6.87103E-19
 -1       602 1.39650E-04-2.77786E-05-4.84523E-05-1.03503E-05-8.06338E-18-7.04890E-19
 -1       603 1.34402E-04-9.73595E-06-5.40421E-05 6.13676E-06-1.00947E-17-6.19782E-18
 -1       604 1.40649E-04-2.71528E-05-4.90865E-05 1.05417E-05-6.29049E-18-7.89408E-18
 -1       605 1.42073E-04-5.17472E-05-3.90267E-05-3.19609E-06-9.44076E-19-6.37890E-18
 -1       606 1.28913E-04-6.00550E-05-2.94926E-05-2.39495E-05 2.42294E-18-3.55394E-18
 -1       607 5.79853E-05-3.14729E-05-1.07898E-05-3.97906E-05 3.98995E-18 7.04626E-18
 -1       608 1.00413E-04-2.30719E-05-3.31702E-05-4.68663E-06-4.03429E-18-3.16704E-18
 -1       609 1.04542E-04-2.54017E-05-3.39216E-05 2.37666E-06 4.90939E-18 2.44588E-18
 -1       610 1.28302E-04-1.38072E-05-4.96417E-05 6.28064E-06 9.13742E-18 1.36708E-18
 -1       611 9.17935E-05-1.62495E-05-3.23992E-05-1.60431E-06-2.22252E-18-5.66334E-18
 -1       612 1.39434E-04-2.98590E-05-4.74387E-05-1.67252E-05 6.85493E-18-5.09255E-18
 -1       613 1.26878E-04-1.55800E-05-4.82215E-05-1.07283E-05-8.37271E-18-1.47386E-18
 -1       614 4.63181E-05-2.11095E-05-1.02818E-05 3.16189E-05 3.44025E-18-9.04589E-18
 -1       615 9.52342E-05-2.85760E-05-2.85678E-05 1.75053E-08 4.29142E-19 1.87161E-18
 -1       616 7.57810E-05-7.22728E-06-2.93830E-05 4.98434E-07 2.57087E-18-5.90106E-18
 -1       617 7.52303E-05-7.05264E-06-2.92208E-05 2.79633E-06 2.03970E-18-6.33562E-18
 -1       618 8.49150E-05-1.33159E-05-3.06912E-05-2.85264E-06 3.46645E-18-4.15436E-18
 -1       619 9.20980E-05-1.83247E-05-3.16206E-05-3.15771E-06 3.68579E-18-2.79448E-18
 -1       620 9.90073E-05-2.41905E-05-3.20571E-05-4.55977E-06 3.25217E-18-1.15498E-18
 -1       621 1.34751E-04-6.08452E-05-3.17311E-05 7.99209E-06-8.89649E-19-5.17756E-18
 -1       622 1.00439E-04-2.73139E-05-3.13350E-05-8.29424E-06 1.91657E-18-9.52856E-19
 -1       623 1.02860E-04-3.07319E-05-3.09158E-05 2.48824E-06-1.52061E-18-2.20103E-18
 -1       624 1.05760E-04-3.44224E-05-3.05766E-05 2.55491E-06-9.50531E-19-1.50959E-18
 -1       625 1.09094E-04-3.77551E-05-3.05782E-05 8.01863E-07-5.02486E-19-9.86647E-19
 -1       626 1.12287E-04-3.98838E-05-3.10366E-05-2.75635E-06-6.04461E-19-6.24625E-19
 -1       627 1.14143E-04-3.93442E-05-3.20638E-05-7.40562E-06-9.30342E-19-4.26877E-19
 -1       628 1.13251E-04-3.47571E-05-3.36585E-05-1.11696E-05-1.89141E-18 9.71151E-20
 -1       629 1.09711E-04-2.70584E-05-3.54686E-05-1.09509E-05-2.66346E-18 1.51583E-19
 -1       630 1.05932E-04-2.02268E-05-3.68032E-05-4.98262E-06-3.86988E-18-1.03710E-18
 -1       631 1.05430E-04-1.94953E-05-3.69002E-05 4.30494E-06-3.94491E-18-3.17505E-18
 -1       632 1.08636E-04-2.52447E-05-3.57887E-05 1.12944E-05-2.84374E-18-4.57059E-18
 -1       633 1.12556E-04-3.33697E-05-3.39675E-05 1.26801E-05-1.89688E-18-5.34135E-18
 -1       634 1.13995E-04-3.88917E-05-3.22043E-05 9.33208E-06-9.00978E-19-5.50072E-18
 -1       635 1.12613E-04-4.05227E-05-3.08988E-05 4.28621E-06-7.75858E-20-4.80976E-18
 -1       636 1.09482E-04-3.92183E-05-3.01158E-05-2.58651E-07-1.29349E-19-3.59762E-18
 -1       637 1.05974E-04-3.66290E-05-2.97222E-05-3.43184E-06 4.54015E-19-2.38498E-18
 -1       638 1.02874E-04-3.39158E-05-2.95555E-05-5.24430E-06 7.67211E-20-2.65405E-18
 -1       639 1.00465E-04-3.16497E-05-2.94932E-05-6.01150E-06 1.82469E-19-2.61692E-18
 -1       640 9.87318E-05-2.99905E-05-2.94610E-05-6.07178E-06 8.38403E-19-2.78545E-18
 -1       641 9.75452E-05-2.88924E-05-2.94226E-05-5.69815E-06 5.12233E-19-3.85787E-18
 -1       642 9.67575E-05-2.82360E-05-2.93661E-05-5.08858E-06 6.42258E-19-2.56422E-18
 -1       643 9.62435E-05-2.78944E-05-2.92922E-05-4.37856E-06 2.59492E-19-2.52277E-18
 -1       644 9.59104E-05-2.77605E-05-2.92067E-05-3.65627E-06 1.76743E-19-1.84871E-18
 -1       645 9.56939E-05-2.77540E-05-2.91168E-05-2.97559E-06 1.11330E-18-1.60999E-18
 -1       646 9.55518E-05-2.78183E-05-2.90283E-05-2.36612E-06 9.47970E-19 4.87886E-19
 -1       647 9.54570E-05-2.79163E-05-2.89457E-05-1.84079E-06-3.40742E-19 4.98293E-19
 -1       648 9.53925E-05-2.80246E-05-2.88717E-05-1.40160E-06-8.74161E-19-7.34881E-19
 -1       649 9.53477E-05-2.81297E-05-2.88076E-05-1.04384E-06 2.40006E-19-6.00740E-19
 -1       650 9.53160E-05-2.82243E-05-2.87535E-05-7.59070E-07-7.01468E-19-1.18794E-18
 -1       651 9.52932E-05-2.83054E-05-2.87089E-05-5.37248E-07-3.01780E-19-4.68069E-20
 -1       652 9.52766E-05-2.83725E-05-2.86731E-05-3.68058E-07-1.13106E-18-6.42262E-19
 -1       653 9.52645E-05-2.84263E-05-2.86449E-05-2.41740E-07 3.44680E-19-4.33374E-20
 -1       654 9.52557E-05-2.84684E-05-2.86231E-05-1.49545E-07-4.03795E-20-7.91265E-19
 -1       655 9.52493E-05-2.85005E-05-2.86066E-05-8.39267E-08-5.15564E-19-1.39053E-18
 -1       656 9.52447E-05-2.85245E-05-2.85944E-05-3.85804E-08-8.56378E-19-3.33190E-18
 -1       657 9.52415E-05-2.85419E-05-2.85855E-05-8.37122E-09-2.31788E-20-1.05861E-18
 -1       658 9.52394E-05-2.85543E-05-2.85793E-05 1.07817E-08 4.94502E-19-3.12024E-19
 -1       659 9.52379E-05-2.85628E-05-2.85750E-05 2.20472E-08 1.46106E-18 1.44241E-19
 -1       660 9.52371E-05-2.85686E-05-2.85722E-05 2.78248E-08 1.05597E-18-5.97660E-19
 -1       661 9.52367E-05-2.85723E-05-2.85704E-05 2.98790E-08 2.12926E-18 1.22647E-18
 -1       662 9.52366E-05-2.85748E-05-2.85693E-05 2.94570E-08 2.05438E-18-5.41058E-19
 -1       663 9.52368E-05-2.85766E-05-2.85686E-05 2.73956E-08 7.75492E-19-1.35538E-18
 -1       664 9.52373E-05-2.85782E-05-2.85682E-05 2.41758E-08 2.79801E-18-1.53863E-18
 -1       665 1.14940E-04-4.38716E-05-3.04795E-05-9.05273E-06-1.01008E-18 2.73774E-19
 -1       666 1.33284E-04-4.03968E-05-4.01496E-05 1.16532E-05-2.39299E-18-8.49389E-18
 -1       667 1.07542E-04-3.66224E-05-3.04042E-05-1.13077E-05-2.22370E-19-6.11523E-19
 -1       668 1.31818E-04-5.12164E-05-3.46758E-05 7.62157E-06-4.08363E-19 3.81840E-18
 -1       669 1.27951E-04-2.65787E-05-4.38513E-05-1.72961E-05 5.71901E-18-4.88203E-18
 -1       670 1.32849E-04-4.41069E-05-3.82583E-05-1.63849E-05 2.38956E-18-6.21524E-18
 -1       671 1.29562E-04-5.12176E-05-3.36491E-05-5.95102E-06-4.86128E-19-5.31158E-18
 -1       672 1.21318E-04-4.83797E-05-3.12655E-05 3.53516E-06-1.05842E-18-4.41916E-18
 -1       673 1.12766E-04-4.18641E-05-3.03929E-05 9.22155E-06-1.22438E-18-3.23667E-18
 -1       674 1.06439E-04-3.59505E-05-3.02116E-05 1.15532E-05-1.28811E-18-1.85112E-18
 -1       675 1.02362E-04-3.18029E-05-3.02428E-05 1.18341E-05-1.03788E-18-1.25295E-18
 -1       676 9.99465E-05-2.93421E-05-3.02601E-05 1.10500E-05-1.04318E-19-1.69165E-19
 -1       677 9.85400E-05-2.80669E-05-3.02020E-05 9.77609E-06-3.47630E-19 4.72060E-19
 -1       678 9.76942E-05-2.75178E-05-3.00740E-05 8.33816E-06-6.86956E-19 1.46488E-18
 -1       679 9.71441E-05-2.73699E-05-2.99014E-05 6.91865E-06-1.17276E-19 2.01329E-18
 -1       680 9.67490E-05-2.74217E-05-2.97100E-05 5.61465E-06-4.47456E-19 1.12449E-18
 -1       681 9.64405E-05-2.75582E-05-2.95195E-05 4.47060E-06-1.63491E-19 4.36282E-19
 -1       682 9.61879E-05-2.77190E-05-2.93425E-05 3.49909E-06 1.89387E-20 1.16535E-18
 -1       683 9.59776E-05-2.78751E-05-2.91858E-05 2.69445E-06-6.86592E-19 5.02167E-19
 -1       684 9.58033E-05-2.80141E-05-2.90517E-05 2.04148E-06-9.52550E-19 6.96454E-19
 -1       685 9.56610E-05-2.81323E-05-2.89402E-05 1.52086E-06 1.10764E-19-2.08025E-19
 -1       686 9.55469E-05-2.82302E-05-2.88495E-05 1.11241E-06 7.09050E-19 7.61723E-20
 -1       687 9.54575E-05-2.83097E-05-2.87773E-05 7.96909E-07 5.47204E-19-1.29567E-18
 -1       688 9.53888E-05-2.83733E-05-2.87207E-05 5.56977E-07 3.31097E-19-1.16182E-18
 -1       689 9.53374E-05-2.84235E-05-2.86772E-05 3.77462E-07 9.21902E-19-1.20153E-18
 -1       690 9.52997E-05-2.84628E-05-2.86443E-05 2.45496E-07 1.65911E-18 9.88207E-19
 -1       691 9.52729E-05-2.84930E-05-2.86199E-05 1.50383E-07-2.11273E-19 1.48025E-18
 -1       692 9.52545E-05-2.85160E-05-2.86021E-05 8.33930E-08-8.97446E-19 1.15612E-19
 -1       693 9.52423E-05-2.85333E-05-2.85896E-05 3.75133E-08 7.50773E-19-3.43360E-18
 -1       694 9.52348E-05-2.85460E-05-2.85809E-05 7.20030E-09 2.36991E-19-3.71135E-18
 -1       695 9.52305E-05-2.85553E-05-2.85751E-05-1.18578E-08 4.35026E-19-2.62601E-18
 -1       696 9.52285E-05-2.85619E-05-2.85714E-05-2.29561E-08-1.53071E-18-2.60775E-18
 -1       697 9.52280E-05-2.85665E-05-2.85692E-05-2.85612E-08-1.33976E-18-1.74517E-18
 -1       698 9.52286E-05-2.85697E-05-2.85681E-05-3.04696E-08-1.51573E-18 3.78193E-19
 -1       699 9.52297E-05-2.85720E-05-2.85676E-05-2.99415E-08-1.62622E-18-6.39323E-19
 -1       700 9.52313E-05-2.85738E-05-2.85675E-05-2.78194E-08-1.35478E-18-6.78565E-20
 -1       701 9.52331E-05-2.85754E-05-2.85676E-05-2.46066E-08-1.26717E-18 7.26974E-19
 -1       702 9.52362E-05-2.85779E-05-2.85678E-05-2.18697E-08-9.16262E-19 1.22765E-19
 -1       703 9.52537E-05-2.85914E-05-2.85696E-05-3.41369E-09 7.44602E-19 1.11291E-18
 -1       704 9.52378E-05-2.85792E-05-2.85680E-05 2.14780E-08 2.38482E-18-1.85216E-18
 -1       705 9.52497E-05-2.85882E-05-2.85692E-05-1.59973E-08 7.28524E-20-2.37164E-18
 -1       706 9.52537E-05-2.85913E-05-2.85696E-05 3.64981E-09 2.05489E-18-8.35027E-19
 -1       707 9.52524E-05-2.85903E-05-2.85694E-05-1.01762E-08-1.05477E-18-1.02233E-18
 -1       708 9.52523E-05-2.85902E-05-2.85695E-05 1.02687E-08 1.22884E-18-1.12217E-18
 -1       709 9.52496E-05-2.85881E-05-2.85692E-05 1.60430E-08-3.05430E-20-1.78005E-18
 -1       710 9.52455E-05-2.85850E-05-2.85688E-05 2.02051E-08 2.12341E-18 3.11914E-19
 -1       711 1.18880E-04-5.68490E-05-2.65619E-05 2.54150E-05 2.61508E-18 1.44246E-19
 -1       712 9.10145E-05-4.54898E-05-1.92225E-05-3.72785E-05 5.45153E-18 1.05096E-18
 -1       713 4.88290E-05-1.91280E-05-1.22272E-05-2.62686E-05 2.48488E-18 6.88818E-18
 -1       714 1.03308E-04-5.10510E-05-2.21955E-05-3.29189E-05-4.38925E-18-3.51828E-18
 -1       715 1.28053E-04-1.62961E-05-4.85864E-05-9.69219E-06 8.29415E-18-2.21185E-18
 -1       716 1.33251E-04-5.70812E-05-3.27498E-05-7.31658E-06 2.25708E-18-5.92064E-18
 -1       717 1.03008E-04-3.12166E-05-3.07674E-05-1.06919E-05 9.78207E-19-9.89350E-19
 -1       718 4.37273E-05-1.69346E-05-1.09735E-05 2.06178E-05-1.91517E-18 4.87049E-18
 -1       719 1.24197E-04-5.03132E-05-3.16862E-05-2.81802E-06-1.60910E-18 1.94455E-18
 -1       720 1.00435E-04-2.68298E-05-3.15403E-05 8.01423E-07-2.15651E-18-2.97333E-18
 -1       721 7.91956E-05-9.43806E-06-2.98999E-05-1.60294E-06 3.08386E-18-5.20937E-18
 -1       722 7.58908E-05-3.60202E-05-1.67085E-05 3.48623E-05-4.20965E-18 7.29428E-19
 -1       723 1.17742E-04-5.77038E-05-2.56809E-05-2.64418E-05 4.97650E-18-3.08813E-18
 -1       724 8.67099E-05-1.54727E-05-3.05358E-05 3.89408E-06-2.61532E-19-5.75179E-18
 -1       725 1.34483E-04-3.97638E-05-4.09279E-05-1.00177E-05-3.81239E-18 1.64838E-18
 -1       726 1.42659E-04-5.04697E-05-3.98534E-05-1.02186E-05 3.45036E-18-6.27683E-18
 -1       727 3.54704E-05-9.43705E-06-1.05555E-05 2.21131E-06 9.51519E-19-9.95205E-18
 -1       728 8.22738E-05-3.89904E-05-1.81334E-05 3.83862E-05 4.55444E-18-4.79577E-18
 -1       729 1.32790E-04-5.92994E-05-3.15680E-05-9.27694E-06-2.54700E-18 1.61567E-18
 -1       730 6.78853E-05-3.15374E-05-1.51608E-05-3.51567E-05-3.74103E-18-8.12770E-18
 -1       731 1.34196E-04-5.42205E-05-3.44059E-05 2.64254E-06-1.04824E-19 1.82722E-18
 -1       732 4.34289E-05-1.54421E-05-1.14345E-05-2.11482E-05-1.75067E-18-1.02678E-17
 -1       733 3.50634E-05-1.11261E-05-9.68991E-06-2.81998E-06 5.55306E-19 7.62626E-18
 -1       734 1.18144E-04-9.47692E-06-4.72038E-05 2.23181E-06-8.66769E-18-3.95141E-18
 -1       735 1.23948E-04-1.79703E-05-4.58861E-05 1.27348E-05-6.54608E-18-6.97998E-18
 -1       736 1.12437E-04-5.56082E-05-2.41738E-05 2.73520E-05-3.86626E-18-2.76432E-18
 -1       737 9.20014E-05-1.91665E-05-3.12206E-05 2.05741E-06-1.20824E-18-5.17949E-18
 -1       738 7.74238E-05-8.79066E-06-2.94165E-05 4.44004E-06 1.33324E-18-6.26986E-18
 -1       739 9.52457E-05-2.85851E-05-2.85688E-05-2.02071E-08 4.96971E-19-3.73701E-18
 -1       740 9.52412E-05-2.85818E-05-2.85683E-05-2.20411E-08-4.65422E-19-3.85639E-18
 -1       741 1.25691E-04-2.78909E-05-4.22576E-05-1.38947E-05-5.10591E-18 9.61674E-19
 -1       742 1.02618E-04-4.72909E-05-2.35756E-05 3.00571E-05 4.05774E-18-2.11463E-18
 -1       743 9.78516E-05-2.34936E-05-3.18706E-05-1.81685E-07-2.39351E-18-3.94852E-18
 -1       744 1.20756E-04-5.52236E-05-2.79039E-05-1.81177E-05-3.59257E-18-1.07420E-19
 -1       745 9.52420E-05-2.85818E-05-2.85687E-05 2.28011E-08 2.18632E-18-1.68630E-18
 -1       746 4.36454E-05-1.19338E-05-1.31512E-05 1.58768E-05 2.42072E-18-8.68984E-18
 -1       747 7.43425E-05-3.21974E-05-1.77788E-05-3.28977E-05 4.04751E-18 3.11339E-18
 -1       748 8.15847E-05-1.18409E-05-2.98942E-05 4.82487E-06 5.50079E-19-6.06870E-18
 -1       749 1.23761E-04-5.57192E-05-2.91272E-05 1.19199E-05-2.56033E-18-4.13514E-18
 -1       750 8.90221E-05-1.87205E-05-3.01358E-05-6.79454E-06 2.66822E-18-3.47019E-18
 -1       751 1.30134E-04-2.55296E-05-4.55314E-05 1.34269E-05 6.21841E-18 3.44858E-18
 -1       752 1.01899E-04-3.16341E-05-3.01105E-05 5.51391E-06-5.23963E-19-2.76708E-18
 -1       753 1.06354E-04-3.66695E-05-2.98659E-05 5.57004E-06-1.10575E-19-1.87787E-18
 -1       754 1.11816E-04-4.14994E-05-3.01393E-05 3.55824E-06 3.52718E-20-8.33255E-19
 -1       755 1.17233E-04-4.43586E-05-3.12343E-05-1.11883E-06-2.27756E-19 4.02049E-19
 -1       756 1.20661E-04-4.28874E-05-3.33844E-05-7.64549E-06-7.63285E-19 1.24000E-18
 -1       757 1.19253E-04-3.41102E-05-3.65948E-05-1.27045E-05-2.35345E-18 1.47628E-18
 -1       758 1.10115E-04-1.36695E-05-4.16152E-05-1.01827E-06-6.19489E-18-1.82959E-18
 -1       759 1.18006E-04-3.13330E-05-3.72986E-05 1.47129E-05-2.83500E-18-5.95285E-18
 -1       760 1.20136E-04-4.13106E-05-3.38226E-05 1.02053E-05-1.37554E-18-5.71641E-18
 -1       761 1.17902E-04-4.51384E-05-3.11863E-05 3.13821E-06 1.32633E-19-4.75536E-18
 -1       762 1.12676E-04-4.34221E-05-2.96764E-05-2.69780E-06 1.13746E-18-3.42152E-18
 -1       763 1.07104E-04-3.95349E-05-2.89580E-05-6.17227E-06 9.63596E-19-2.39747E-18
 -1       764 1.02531E-04-3.55114E-05-2.87226E-05-7.68534E-06 5.24899E-19-2.77039E-18
 -1       765 9.92348E-05-3.22150E-05-2.87225E-05-7.97550E-06 4.85338E-19-1.90923E-18
 -1       766 9.70742E-05-2.98504E-05-2.88098E-05-7.58288E-06 4.64666E-19-1.75081E-18
 -1       767 9.57715E-05-2.83224E-05-2.89064E-05-6.84981E-06 4.12863E-19-1.77302E-18
 -1       768 9.50584E-05-2.74426E-05-2.89779E-05-5.97592E-06 1.44638E-18-1.03394E-18
 -1       769 9.47231E-05-2.70214E-05-2.90148E-05-5.07615E-06 3.70892E-19-5.10217E-19
 -1       770 9.46135E-05-2.69010E-05-2.90194E-05-4.21580E-06 8.07540E-19 1.79462E-19
 -1       771 9.46286E-05-2.69632E-05-2.89993E-05-3.43084E-06 4.32181E-19 4.29907E-19
 -1       772 9.47041E-05-2.71244E-05-2.89626E-05-2.73913E-06 1.31936E-18-2.65901E-19
 -1       773 9.48017E-05-2.73291E-05-2.89167E-05-2.14649E-06 3.07374E-19-1.13434E-18
 -1       774 9.48999E-05-2.75424E-05-2.88674E-05-1.65087E-06-3.83985E-19-3.51642E-19
 -1       775 9.49879E-05-2.77437E-05-2.88189E-05-1.24537E-06-4.69094E-19 6.77799E-19
 -1       776 9.50614E-05-2.79226E-05-2.87737E-05-9.20195E-07-1.35896E-18-2.14903E-19
 -1       777 9.51196E-05-2.80750E-05-2.87334E-05-6.64403E-07 2.16897E-19-3.44562E-19
 -1       778 9.51638E-05-2.82004E-05-2.86986E-05-4.66988E-07-2.38052E-19-8.48094E-19
 -1       779 9.51961E-05-2.83009E-05-2.86694E-05-3.17537E-07-1.65006E-19 1.14014E-18
 -1       780 9.52186E-05-2.83794E-05-2.86454E-05-2.06660E-07-6.15489E-19 4.29119E-19
 -1       781 9.52336E-05-2.84393E-05-2.86261E-05-1.26192E-07-7.12299E-19 5.14950E-19
 -1       782 9.52430E-05-2.84840E-05-2.86110E-05-6.92313E-08-7.34938E-19-5.34027E-19
 -1       783 9.52482E-05-2.85165E-05-2.85993E-05-3.00913E-08 6.17881E-19 1.86932E-18
 -1       784 9.52505E-05-2.85396E-05-2.85904E-05-4.19120E-09 2.99764E-19 2.10114E-18
 -1       785 9.52510E-05-2.85555E-05-2.85838E-05 1.20800E-08 2.02532E-18 1.70553E-18
 -1       786 9.52502E-05-2.85660E-05-2.85789E-05 2.15062E-08 1.33373E-18 1.49684E-18
 -1       787 9.52487E-05-2.85727E-05-2.85754E-05 2.61826E-08 1.69296E-18 1.01648E-18
 -1       788 9.52470E-05-2.85769E-05-2.85729E-05 2.76379E-08 1.22416E-18-1.17160E-18
 -1       789 9.52452E-05-2.85794E-05-2.85711E-05 2.69421E-08 1.06587E-18 3.94179E-22
 -1       790 9.52433E-05-2.85807E-05-2.85697E-05 2.53110E-08 1.59399E-18-1.14005E-19
 -1       791 1.12269E-04-1.64388E-05-4.13147E-05 8.60902E-06-5.55014E-18-4.10552E-18
 -1       792 1.24153E-04-5.44052E-05-2.98976E-05 1.13240E-05 1.76303E-18 4.74365E-19
 -1       793 1.01482E-04-3.68598E-05-2.76847E-05 1.65082E-05-1.98430E-18-1.76167E-18
 -1       794 9.67278E-05-3.09748E-05-2.81763E-05 1.49214E-05-2.00124E-18-1.06094E-18
 -1       795 9.45168E-05-2.76277E-05-2.86681E-05 1.30225E-05-1.44202E-18-7.95991E-19
 -1       796 9.37498E-05-2.60223E-05-2.90256E-05 1.11356E-05-7.14473E-19-2.62601E-20
 -1       797 9.36811E-05-2.54585E-05-2.92376E-05 9.38360E-06-9.48212E-19 4.83986E-19
 -1       798 9.39041E-05-2.54689E-05-2.93288E-05 7.79722E-06-7.28628E-19 5.39247E-19
 -1       799 9.42063E-05-2.57583E-05-2.93343E-05 6.38718E-06 7.37549E-19 1.01319E-18
 -1       800 9.44913E-05-2.61557E-05-2.92862E-05 5.15609E-06-4.54800E-19 1.15914E-18
 -1       801 9.47241E-05-2.65686E-05-2.92091E-05 4.10099E-06-1.50180E-19 7.96459E-19
 -1       802 9.48996E-05-2.69517E-05-2.91202E-05 3.21310E-06 6.45902E-19 1.07809E-18
 -1       803 9.50250E-05-2.72864E-05-2.90306E-05 2.47900E-06-2.16140E-20-1.87724E-19
 -1       804 9.51110E-05-2.75682E-05-2.89467E-05 1.88223E-06 8.42406E-19-1.87840E-18
 -1       805 9.51679E-05-2.77996E-05-2.88720E-05 1.40488E-06-4.22865E-19-1.96280E-18
 -1       806 9.52043E-05-2.79861E-05-2.88077E-05 1.02904E-06 9.72805E-19-1.15203E-20
 -1       807 9.52267E-05-2.81341E-05-2.87539E-05 7.37798E-07 2.82604E-19-2.06487E-19
 -1       808 9.52397E-05-2.82500E-05-2.87098E-05 5.15708E-07 6.34276E-19-4.56529E-19
 -1       809 9.52467E-05-2.83394E-05-2.86745E-05 3.49186E-07 1.21034E-18-5.91567E-20
 -1       810 9.52498E-05-2.84075E-05-2.86467E-05 2.26587E-07 4.13816E-19-2.79887E-19
 -1       811 9.52507E-05-2.84586E-05-2.86251E-05 1.38150E-07-1.19141E-19-9.30345E-19
 -1       812 9.52501E-05-2.84963E-05-2.86088E-05 7.58460E-08 1.52319E-18-1.12702E-18
 -1       813 9.52489E-05-2.85236E-05-2.85965E-05 3.31931E-08 3.22429E-19 3.26187E-19
 -1       814 9.52473E-05-2.85429E-05-2.85876E-05 5.04779E-09 4.37327E-19-1.45867E-18
 -1       815 9.52457E-05-2.85563E-05-2.85812E-05-1.25999E-08-9.07601E-19-4.90236E-19
 -1       816 9.52441E-05-2.85653E-05-2.85767E-05-2.28165E-08-1.95763E-18-9.54325E-19
 -1       817 9.52427E-05-2.85711E-05-2.85736E-05-2.78987E-08-1.91789E-18-1.27457E-18
 -1       818 9.52415E-05-2.85747E-05-2.85715E-05-2.95097E-08-1.56896E-18-2.07624E-18
 -1       819 9.52406E-05-2.85771E-05-2.85701E-05-2.88093E-08-3.25497E-18 8.36018E-19
 -1       820 9.52400E-05-2.85788E-05-2.85691E-05-2.65796E-08-7.02639E-19-2.21345E-19
 -1       821 9.52406E-05-2.85802E-05-2.85688E-05-2.44672E-08-1.92197E-19-2.03636E-18
 -1       822 7.36825E-05-8.54204E-06-2.79184E-05 1.74193E-06 2.11776E-18-5.80631E-18
 -1       823 9.52501E-05-2.85851E-05-2.85707E-05 2.04186E-08 8.89624E-19 3.52761E-20
 -1       824 9.52579E-05-2.85896E-05-2.85721E-05 1.56932E-10 1.37531E-18 9.00504E-19
 -1       825 4.72217E-05-1.07728E-05-1.52644E-05-9.10556E-06 5.50571E-21-8.70933E-18
 -1       826 6.62418E-05-2.51287E-05-1.72682E-05 3.10429E-05 4.32390E-18-6.33909E-18
 -1       827 9.52544E-05-2.85876E-05-2.85715E-05 1.47106E-08 9.33773E-19-2.16679E-18
 -1       828 6.60283E-05-2.29004E-05-1.82631E-05 2.38554E-05-2.69722E-18 5.25346E-19
 -1       829 1.03077E-04-3.79115E-05-2.78579E-05-1.75955E-05-1.37758E-18-1.77364E-18
 -1       830 8.99372E-05-3.89214E-05-2.16469E-05-3.02062E-05-3.82429E-18-4.58508E-18
 -1       831 1.28459E-04-4.84196E-05-3.44154E-05 5.45353E-06-1.72404E-19-6.80981E-18
 -1       832 6.31778E-05-2.12738E-05-1.76695E-05-2.51872E-05-2.21518E-18-7.78699E-18
 -1       833 9.47537E-05-2.31420E-05-3.06890E-05-7.86406E-06 2.18616E-18-2.45538E-18
 -1       834 9.75461E-05-4.34579E-05-2.30392E-05 2.75421E-05-3.65466E-18-1.41911E-18
 -1       835 4.75811E-05-1.26945E-05-1.46163E-05 8.32353E-06-1.20979E-18 5.88407E-18
 -1       836 5.04367E-05-1.34086E-05-1.55444E-05-1.16785E-05 7.92856E-19 5.82473E-18
 -1       837 1.26811E-04-4.43753E-05-3.54700E-05-8.81772E-06-9.84226E-19 1.64980E-18
 -1       838 9.52570E-05-2.85890E-05-2.85720E-05 7.75342E-09 1.61429E-18-1.33446E-19
 -1       839 9.79907E-05-2.56663E-05-3.09969E-05 2.77063E-06-1.40701E-18-3.69177E-18
 -1       840 7.52124E-05-9.85128E-06-2.80126E-05 5.39913E-06 1.69048E-18-5.72501E-18
 -1       841 8.13841E-05-1.35535E-05-2.90662E-05-5.29728E-06 2.49568E-18-4.48607E-18
 -1       842 1.35404E-04-5.43186E-05-3.48452E-05-5.45795E-06 4.34634E-19-6.52663E-18
 -1       843 7.58875E-05-9.88091E-06-2.82898E-05-2.29287E-06 2.31694E-18-5.31817E-18
 -1       844 9.52503E-05-2.85853E-05-2.85707E-05-2.03656E-08 7.35373E-19-1.31035E-18
 -1       845 1.14073E-04-2.14433E-05-3.98862E-05-1.10833E-05-4.57496E-18 5.90233E-19
 -1       846 9.52546E-05-2.85877E-05-2.85715E-05-1.45805E-08-4.39524E-20 7.80731E-20
 -1       847 4.81991E-05-9.57688E-06-1.62691E-05 2.87332E-06 1.23928E-18-8.18655E-18
 -1       848 9.19640E-05-2.18040E-05-3.00632E-05 5.83135E-06-2.17767E-19-4.66658E-18
 -1       849 9.52571E-05-2.85891E-05-2.85720E-05-7.51279E-09 1.24240E-18-1.08963E-19
 -1       850 9.65534E-05-2.71261E-05-2.97609E-05-1.16090E-05 1.15051E-18-2.55191E-18
 -1       851 1.23222E-04-5.37350E-05-2.97960E-05-8.40729E-06 2.67883E-18-4.66683E-18
 -1       852 9.86484E-05-3.15475E-05-2.87685E-05-1.47476E-05-9.84858E-20-2.22784E-18
 -1       853 6.50539E-05-2.16917E-05-1.83905E-05-2.28716E-05 2.31885E-18 3.79340E-18
 -1       854 8.56444E-05-3.47048E-05-2.16636E-05 2.99489E-05 4.07040E-18-4.26029E-18
 -1       855 9.52470E-05-2.85830E-05-2.85703E-05 2.31731E-08 1.19312E-19 4.03694E-19
 -1       856 1.10335E-04-4.57331E-05-2.76299E-05 1.64699E-05-2.10692E-18-2.41990E-18
 -1       857 1.07489E-04-5.00800E-05-2.44966E-05-2.56368E-05 4.32638E-18-2.53131E-18
 -1       858 8.58496E-05-1.75858E-05-2.92556E-05 7.40969E-06 4.45466E-19-5.37080E-18
 -1       859 9.25632E-05-4.00520E-05-2.23683E-05-2.79422E-05 3.98464E-18-1.43380E-19
 -1       860 5.60039E-05-1.29145E-05-1.83084E-05 2.30305E-07 8.65264E-20 5.53547E-18
 -1       861 1.00034E-04-3.23293E-05-2.90015E-05 9.68019E-06 4.80336E-19-3.19653E-18
 -1       862 1.06163E-04-3.90424E-05-2.87562E-05 1.06041E-05 8.64719E-19-2.27656E-18
 -1       863 1.14284E-04-4.58589E-05-2.93486E-05 8.83731E-06 1.13475E-18-1.29421E-18
 -1       864 8.58497E-05-3.11107E-05-2.33721E-05 2.29951E-05-2.48797E-18-4.62367E-19
 -1       865 1.16184E-04-4.84269E-05-2.90780E-05-7.64078E-06 2.25658E-18-2.70222E-18
 -1       866 1.07600E-04-4.25137E-05-2.78804E-05-1.10230E-05 1.31013E-18-2.14677E-18
 -1       867 1.01321E-04-3.68604E-05-2.76206E-05-1.15646E-05-3.42937E-20-2.49144E-18
 -1       868 9.71810E-05-3.24382E-05-2.77454E-05-1.07500E-05 1.02643E-18-2.30399E-18
 -1       869 9.47342E-05-2.93941E-05-2.80023E-05-9.44421E-06 8.12505E-19-2.07885E-18
 -1       870 9.34556E-05-2.74931E-05-2.82694E-05-8.05568E-06 6.41839E-19-1.79241E-18
 -1       871 9.29258E-05-2.64390E-05-2.84943E-05-6.74580E-06 1.51472E-18-1.01975E-18
 -1       872 9.28484E-05-2.59738E-05-2.86605E-05-5.57092E-06 1.54291E-18-4.74532E-19
 -1       873 9.30197E-05-2.58899E-05-2.87700E-05-4.54353E-06 9.97201E-19-4.04272E-19
 -1       874 9.33104E-05-2.60367E-05-2.88316E-05-3.65860E-06 1.13461E-18 2.14097E-19
 -1       875 9.36403E-05-2.63077E-05-2.88568E-05-2.90707E-06 8.70133E-19 5.99679E-19
 -1       876 9.39625E-05-2.66314E-05-2.88562E-05-2.27770E-06-1.84330E-20 3.38859E-19
 -1       877 9.42523E-05-2.69617E-05-2.88389E-05-1.75786E-06 1.71738E-20 8.22193E-19
 -1       878 9.44996E-05-2.72720E-05-2.88118E-05-1.33502E-06 3.65409E-19 5.20377E-19
 -1       879 9.47016E-05-2.75474E-05-2.87804E-05-9.96279E-07-1.52297E-18 5.66429E-19
 -1       880 9.48615E-05-2.77827E-05-2.87480E-05-7.28936E-07-5.10822E-19 4.45209E-20
 -1       881 9.49842E-05-2.79773E-05-2.87172E-05-5.21380E-07-5.69828E-19-5.29122E-19
 -1       882 9.50758E-05-2.81342E-05-2.86892E-05-3.62903E-07 8.01291E-19-1.60980E-18
 -1       883 9.51420E-05-2.82576E-05-2.86648E-05-2.44027E-07-3.92496E-19-1.60507E-18
 -1       884 9.51885E-05-2.83525E-05-2.86440E-05-1.56561E-07-2.58135E-19-9.53109E-19
 -1       885 9.52197E-05-2.84240E-05-2.86267E-05-9.35786E-08-1.57063E-18-9.46574E-19
 -1       886 9.52396E-05-2.84765E-05-2.86127E-05-4.93510E-08 1.86379E-18-2.39031E-19
 -1       887 9.52512E-05-2.85142E-05-2.86016E-05-1.92298E-08 5.72105E-19 1.37766E-18
 -1       888 9.52571E-05-2.85404E-05-2.85929E-05 4.83806E-10 1.57868E-18 2.86039E-18
 -1       889 9.52591E-05-2.85581E-05-2.85861E-05 1.26757E-08 1.68371E-18 2.56895E-18
 -1       890 9.52586E-05-2.85695E-05-2.85810E-05 1.95518E-08 7.47799E-19 1.98684E-18
 -1       891 9.52565E-05-2.85766E-05-2.85771E-05 2.27607E-08-4.77995E-19 5.66003E-19
 -1       892 9.52537E-05-2.85809E-05-2.85741E-05 2.34842E-08 1.66982E-18 5.47872E-19
 -1       893 8.73442E-05-2.49983E-05-2.67227E-05 1.43221E-05-1.84382E-18-1.15489E-18
 -1       894 9.52556E-05-2.85846E-05-2.85733E-05 1.89001E-08 2.06777E-18-1.92183E-18
 -1       895 8.89066E-05-2.31055E-05-2.82003E-05 9.46796E-06-1.06950E-18-1.00762E-18
 -1       896 9.00765E-05-2.33535E-05-2.85954E-05 7.79510E-06-9.53473E-19-7.63437E-19
 -1       897 9.11727E-05-2.39053E-05-2.88287E-05 6.41065E-06 4.30226E-20-1.51621E-18
 -1       898 9.21170E-05-2.45697E-05-2.89487E-05 5.23406E-06-5.04368E-19-8.66743E-19
 -1       899 9.28908E-05-2.52395E-05-2.89934E-05 4.22722E-06 4.49848E-19-7.01550E-19
 -1       900 9.35037E-05-2.58586E-05-2.89907E-05 3.36951E-06 1.02166E-19-8.00746E-19
 -1       901 9.39779E-05-2.64028E-05-2.89607E-05 2.64704E-06 6.26809E-19 3.36648E-19
 -1       902 9.43381E-05-2.68655E-05-2.89168E-05 2.04743E-06 1.42393E-18 5.75123E-19
 -1       903 9.46074E-05-2.72493E-05-2.88677E-05 1.55765E-06 3.46745E-19-5.25583E-19
 -1       904 9.48059E-05-2.75616E-05-2.88190E-05 1.16395E-06-5.85089E-20-1.35046E-18
 -1       905 9.49504E-05-2.78119E-05-2.87737E-05 8.52798E-07 7.67383E-19-9.61665E-19
 -1       906 9.50539E-05-2.80093E-05-2.87334E-05 6.10964E-07 9.63197E-19-5.67507E-19
 -1       907 9.51268E-05-2.81629E-05-2.86988E-05 4.26163E-07 8.49430E-19-3.89446E-19
 -1       908 9.51769E-05-2.82806E-05-2.86698E-05 2.87443E-07 8.49647E-20 8.40693E-19
 -1       909 9.52104E-05-2.83695E-05-2.86461E-05 1.85299E-07 1.56368E-18 1.06911E-18
 -1       910 9.52320E-05-2.84355E-05-2.86271E-05 1.11677E-07-1.11518E-19 1.12023E-18
 -1       911 9.52451E-05-2.84837E-05-2.86120E-05 5.99068E-08 4.63099E-19 1.89083E-18
 -1       912 9.52522E-05-2.85180E-05-2.86004E-05 2.45767E-08 6.04183E-19 2.08387E-18
 -1       913 9.52553E-05-2.85419E-05-2.85915E-05 1.38022E-09-2.02848E-19 2.93390E-18
 -1       914 9.52558E-05-2.85581E-05-2.85848E-05-1.30442E-08-6.02761E-19 2.36228E-18
 -1       915 9.52547E-05-2.85686E-05-2.85798E-05-2.12615E-08-1.55129E-18 2.03126E-19
 -1       916 9.52527E-05-2.85751E-05-2.85761E-05-2.51910E-08-1.16368E-18 7.92861E-19
 -1       917 9.52503E-05-2.85791E-05-2.85734E-05-2.63170E-08-2.60493E-18-2.55512E-19
 -1       918 9.52480E-05-2.85815E-05-2.85713E-05-2.54355E-08 5.17656E-19-3.34846E-18
 -1       919 6.45931E-05-1.75310E-05-2.00851E-05 1.46271E-05-1.74337E-18 1.31122E-18
 -1       920 9.52457E-05-2.85830E-05-2.85697E-05-2.31757E-08 7.49120E-19-5.46454E-18
 -1       921 1.10663E-04-4.71689E-05-2.71874E-05 1.83766E-05 2.54079E-18-1.46577E-18
 -1       922 5.91088E-05-1.53193E-05-1.85223E-05 1.93528E-05 2.87579E-18-6.40234E-18
 -1       923 8.05061E-05-2.79592E-05-2.23948E-05-2.43795E-05-2.19885E-18-5.13216E-18
 -1       924 8.78672E-05-2.34936E-05-2.75880E-05 1.15788E-05-1.39194E-18-1.93873E-18
 -1       925 7.98032E-05-1.32773E-05-2.85136E-05 7.44877E-06 1.08095E-18-5.59067E-18
 -1       926 6.06283E-05-1.40115E-05-1.98638E-05-1.40811E-05-3.21704E-19-7.12168E-18
 -1       927 8.96909E-05-2.22341E-05-2.88917E-05-1.11349E-05 1.32411E-18-3.51822E-18
 -1       928 9.22972E-05-2.48850E-05-2.89050E-05 9.66598E-06 4.55451E-19-4.54464E-18
 -1       929 1.21451E-04-4.92022E-05-3.09406E-05 3.27503E-06 6.33337E-19 8.97326E-20
 -1       930 9.52558E-05-2.85847E-05-2.85733E-05-1.88468E-08 2.48359E-18-1.38685E-18
 -1       931 6.16014E-05-1.59929E-05-1.94107E-05-1.21304E-05 1.13201E-18 4.27635E-18
 -1       932 7.13465E-05-9.92938E-06-2.63228E-05-1.27120E-06 1.76121E-18-5.73519E-18
 -1       933 9.52598E-05-2.85863E-05-2.85743E-05 1.20365E-08 9.34242E-19-1.12709E-18
 -1       934 9.52501E-05-2.85822E-05-2.85720E-05 2.37779E-08 2.34385E-18 4.52954E-19
 -1       935 8.83967E-05-2.87288E-05-2.55364E-05 1.80965E-05-1.87670E-18-8.84109E-19
 -1       936 5.79319E-05-1.10704E-05-1.99564E-05-6.07690E-06 5.96500E-19-7.36675E-18
 -1       937 9.52619E-05-2.85872E-05-2.85749E-05-3.86461E-09 2.26416E-18 9.80174E-20
 -1       938 7.14508E-05-1.01909E-05-2.62508E-05 5.02459E-06 1.81853E-18-5.49819E-18
 -1       939 9.86833E-05-3.89675E-05-2.55276E-05 2.22018E-05 2.86450E-18-2.69673E-18
 -1       940 7.36076E-05-2.32937E-05-2.14323E-05 2.39663E-05 3.25709E-18-5.47919E-18
 -1       941 8.16539E-05-2.31834E-05-2.49959E-05-1.81665E-05-8.00654E-19-4.42163E-18
 -1       942 8.04475E-05-2.95999E-05-2.17081E-05-2.41752E-05 3.23248E-18 9.32381E-19
 -1       943 1.03878E-04-4.33446E-05-2.59124E-05-1.89870E-05 2.21277E-18-2.68895E-18
 -1       944 9.52618E-05-2.85871E-05-2.85749E-05 4.24022E-09 9.75367E-19-4.50248E-19
 -1       945 9.52600E-05-2.85865E-05-2.85744E-05-1.17202E-08 1.70014E-18 4.00269E-19
 -1       946 8.79140E-05-2.20440E-05-2.82300E-05 5.53442E-06 1.99701E-19-1.85210E-18
 -1       947 7.63470E-05-1.32446E-05-2.70539E-05-6.97864E-06 1.43764E-18-4.91532E-18
 -1       948 9.52599E-05-2.85818E-05-2.85763E-05-1.90943E-08 5.40565E-19-7.22579E-19
 -1       949 8.07883E-05-2.03472E-05-2.59089E-05 1.04967E-05-1.24961E-18-9.55501E-19
 -1       950 9.65365E-05-3.59591E-05-2.59530E-05-1.68287E-05 9.07258E-19-1.32263E-18
 -1       951 9.25992E-05-3.08730E-05-2.64536E-05-1.38956E-05 8.50466E-19-6.97892E-19
 -1       952 9.07282E-05-2.76777E-05-2.70228E-05-1.11502E-05 9.72649E-19-9.22507E-19
 -1       953 9.00886E-05-2.58422E-05-2.75354E-05-8.85913E-06 5.88347E-19-5.86703E-19
 -1       954 9.01400E-05-2.49211E-05-2.79517E-05-7.01766E-06 2.24441E-18-4.29664E-20
 -1       955 9.05733E-05-2.46220E-05-2.82654E-05-5.54876E-06 1.51485E-18-2.60126E-19
 -1       956 9.11748E-05-2.47032E-05-2.84882E-05-4.38093E-06 1.33444E-18-4.51629E-19
 -1       957 9.18289E-05-2.50117E-05-2.86361E-05-3.44338E-06 1.33167E-18 3.57675E-20
 -1       958 9.24639E-05-2.54365E-05-2.87262E-05-2.68939E-06 5.32497E-19-6.49863E-19
 -1       959 9.30408E-05-2.59034E-05-2.87733E-05-2.08291E-06 3.69431E-19-1.16029E-18
 -1       960 9.35398E-05-2.63622E-05-2.87905E-05-1.59689E-06-2.82398E-19-8.24136E-19
 -1       961 9.39586E-05-2.67881E-05-2.87875E-05-1.20875E-06-8.77701E-19-1.77897E-18
 -1       962 9.42977E-05-2.71625E-05-2.87723E-05-9.02913E-07-2.82607E-20-2.32245E-18
 -1       963 9.45661E-05-2.74818E-05-2.87504E-05-6.63072E-07-2.55656E-19-3.83891E-19
 -1       964 9.47731E-05-2.77462E-05-2.87258E-05-4.77695E-07-6.23746E-19 1.23907E-18
 -1       965 9.49291E-05-2.79599E-05-2.87011E-05-3.36220E-07-8.98207E-19 5.65665E-19
 -1       966 9.50437E-05-2.81287E-05-2.86779E-05-2.29845E-07-3.38670E-19 6.22139E-19
 -1       967 9.51256E-05-2.82593E-05-2.86570E-05-1.51172E-07-5.04268E-19-6.13708E-19
 -1       968 9.51822E-05-2.83582E-05-2.86389E-05-9.40685E-08-5.11101E-19-3.73919E-19
 -1       969 9.52198E-05-2.84315E-05-2.86236E-05-5.35186E-08 6.88453E-20 1.12490E-18
 -1       970 9.52434E-05-2.84845E-05-2.86109E-05-2.54747E-08 2.42065E-18-1.45165E-19
 -1       971 9.52569E-05-2.85219E-05-2.86007E-05-6.71925E-09 2.08627E-18 1.38271E-18
 -1       972 9.52633E-05-2.85474E-05-2.85925E-05 5.26513E-09 7.19700E-19 1.02638E-18
 -1       973 9.52651E-05-2.85642E-05-2.85861E-05 1.24101E-08 2.25980E-19-1.12330E-18
 -1       974 9.52638E-05-2.85747E-05-2.85810E-05 1.61805E-08-1.38738E-19-9.90613E-19
 -1       975 9.52610E-05-2.85811E-05-2.85771E-05 1.76831E-08 4.02178E-19-3.31442E-19
 -1       976 8.95492E-05-2.29684E-05-2.85346E-05 4.58628E-06-5.44359E-19-1.10004E-18
 -1       977 1.03836E-04-3.97181E-05-2.74529E-05 1.59952E-05 1.76616E-18-2.67111E-18
 -1       978 8.59279E-05-2.11860E-05-2.77469E-05 6.69199E-06-1.11363E-18-1.75683E-18
 -1       979 9.08759E-05-2.38753E-05-2.87147E-05 3.77611E-06-2.33663E-19-8.22319E-19
 -1       980 9.19350E-05-2.47112E-05-2.88103E-05 3.07431E-06-8.55764E-20-3.55575E-19
 -1       981 9.27696E-05-2.54522E-05-2.88504E-05 2.46706E-06-4.05600E-19 5.69506E-19
 -1       982 9.34195E-05-2.60905E-05-2.88553E-05 1.94841E-06 1.05656E-18-1.89576E-19
 -1       983 9.39192E-05-2.66274E-05-2.88394E-05 1.51299E-06 1.50064E-18 3.80284E-19
 -1       984 9.42987E-05-2.70700E-05-2.88123E-05 1.15376E-06 1.27009E-18 5.11216E-19
 -1       985 9.45837E-05-2.74297E-05-2.87803E-05 8.62822E-07-1.94978E-19-1.17215E-19
 -1       986 9.47946E-05-2.77169E-05-2.87476E-05 6.31843E-07 3.66907E-19 2.27410E-19
 -1       987 9.49483E-05-2.79429E-05-2.87166E-05 4.51674E-07 1.47535E-18 6.80201E-19
 -1       988 9.50583E-05-2.81181E-05-2.86886E-05 3.13739E-07 5.16208E-19 3.69157E-19
 -1       989 9.51352E-05-2.82519E-05-2.86643E-05 2.10164E-07 9.12820E-19 4.25265E-20
 -1       990 9.51876E-05-2.83524E-05-2.86437E-05 1.33975E-07-2.66048E-19 9.55154E-19
 -1       991 9.52220E-05-2.84265E-05-2.86266E-05 7.91900E-08-4.62742E-19 4.39904E-19
 -1       992 9.52433E-05-2.84801E-05-2.86128E-05 4.08151E-08 7.02990E-19 1.21035E-18
 -1       993 9.52554E-05-2.85180E-05-2.86018E-05 1.47798E-08 1.96504E-19 1.11904E-18
 -1       994 9.52612E-05-2.85440E-05-2.85931E-05-2.16115E-09 1.29505E-19 1.39632E-18
 -1       995 9.52628E-05-2.85612E-05-2.85864E-05-1.25394E-08-9.00284E-19 2.32123E-18
 -1       996 9.52617E-05-2.85721E-05-2.85812E-05-1.82850E-08-1.38908E-18 3.20914E-18
 -1       997 9.52612E-05-2.85777E-05-2.85786E-05-1.93244E-08 7.65622E-19 9.59319E-19
 -1       998 6.57389E-05-1.51716E-05-2.16199E-05 5.16937E-06-6.53115E-19 2.03210E-18
 -1       999 8.47074E-05-1.97517E-05-2.78304E-05 1.12072E-05 1.14412E-18-4.85248E-18
 -1      1000 8.35508E-05-2.05305E-05-2.70087E-05 8.22468E-06-1.40218E-18-1.61156E-18
 -1      1001 7.65274E-05-1.39800E-05-2.68113E-05 9.65755E-06 1.66680E-18-5.20514E-18
 -1      1002 7.80727E-05-2.20326E-05-2.39891E-05 1.56862E-05-1.68062E-18-1.96527E-19
 -1      1003 9.68274E-05-3.18197E-05-2.78464E-05 1.38378E-05 1.13449E-18-3.78813E-18
 -1      1004 8.62350E-05-2.27006E-05-2.71941E-05-1.44192E-05 1.67514E-19-3.88134E-18
 -1      1005 5.91258E-05-1.09652E-05-2.05033E-05 8.93578E-06 1.93356E-18-6.40504E-18
 -1      1006 7.23647E-05-2.18668E-05-2.15950E-05-1.78632E-05 1.96893E-18 1.59002E-18
 -1      1007 6.93329E-05-1.22199E-05-2.44719E-05-7.22734E-06 7.82255E-19-5.89462E-18
 -1      1008 6.62397E-05-1.52033E-05-2.18491E-05-4.11485E-06 5.96956E-19 3.33973E-18
 -1      1009 9.52661E-05-2.85837E-05-2.85782E-05 2.68347E-10 1.55167E-18-1.35281E-18
 -1      1010 6.58028E-05-9.77594E-06-2.39111E-05 2.67224E-06 1.42340E-18-5.92426E-18
 -1      1011 8.71023E-05-2.92438E-05-2.47687E-05 2.13760E-05 2.65559E-18-3.92433E-18
 -1      1012 6.74529E-05-1.54783E-05-2.21991E-05 1.56105E-05 2.25854E-18-5.61053E-18
 -1      1013 9.52651E-05-2.85836E-05-2.85778E-05-7.84021E-09 1.14899E-18 2.40592E-18
 -1      1014 9.02656E-05-3.38134E-05-2.41640E-05-2.09756E-05 2.66850E-18-9.08699E-21
 -1      1015 9.32235E-05-3.12079E-05-2.65155E-05 1.73859E-05 1.87161E-18-3.64874E-18
 -1      1016 9.52649E-05-2.85834E-05-2.85778E-05 8.25742E-09 8.52579E-19-2.59118E-18
 -1      1017 8.74701E-05-2.87116E-05-2.51807E-05-1.60452E-05 4.34598E-19 3.45291E-19
 -1      1018 8.67185E-05-2.57723E-05-2.61208E-05-1.21019E-05 8.36587E-19-7.10101E-20
 -1      1019 8.69779E-05-2.42323E-05-2.68917E-05-9.12474E-06 1.22388E-18 1.95711E-19
 -1      1020 8.77138E-05-2.35675E-05-2.74924E-05-6.92789E-06 1.38466E-18 5.93943E-20
 -1      1021 8.86766E-05-2.34865E-05-2.79393E-05-5.26250E-06 1.50461E-18-2.00557E-18
 -1      1022 8.96773E-05-2.37384E-05-2.82598E-05-4.03267E-06 1.38247E-18-2.27193E-18
 -1      1023 9.06468E-05-2.41952E-05-2.84793E-05-3.08849E-06 1.62653E-18-1.78130E-18
 -1      1024 9.15334E-05-2.47490E-05-2.86219E-05-2.36257E-06 1.82779E-19-2.16382E-18
 -1      1025 9.23124E-05-2.53287E-05-2.87072E-05-1.80011E-06 1.99034E-19-2.18788E-18
 -1      1026 9.29761E-05-2.58898E-05-2.87515E-05-1.36642E-06 4.15396E-19-2.29115E-18
 -1      1027 9.35270E-05-2.64033E-05-2.87674E-05-1.02225E-06-1.07971E-18-2.12594E-18
 -1      1028 9.39718E-05-2.68537E-05-2.87649E-05-7.62259E-07 2.39758E-19-7.84356E-19
 -1      1029 9.43240E-05-2.72378E-05-2.87513E-05-5.58422E-07 7.76012E-19 1.04249E-18
 -1      1030 9.45967E-05-2.75564E-05-2.87316E-05-4.02908E-07-4.46074E-19 4.88102E-19
 -1      1031 9.48034E-05-2.78146E-05-2.87095E-05-2.84908E-07-7.98219E-19 1.46056E-18
 -1      1032 9.49565E-05-2.80194E-05-2.86873E-05-1.96459E-07-1.21657E-19 2.92407E-18
 -1      1033 9.50671E-05-2.81787E-05-2.86665E-05-1.31047E-07-1.37301E-18 2.71711E-18
 -1      1034 9.51448E-05-2.83000E-05-2.86478E-05-8.34434E-08-3.56697E-19 1.63007E-18
 -1      1035 9.51975E-05-2.83905E-05-2.86316E-05-4.94555E-08 7.68256E-20 6.70953E-19
 -1      1036 9.52316E-05-2.84565E-05-2.86179E-05-2.57475E-08 1.93486E-19 7.61935E-19
 -1      1037 9.52521E-05-2.85034E-05-2.86066E-05-9.68858E-09 3.12729E-18-4.10645E-19
 -1      1038 9.52631E-05-2.85359E-05-2.85974E-05 7.72569E-10 1.43340E-18 6.50579E-19
 -1      1039 9.52675E-05-2.85575E-05-2.85900E-05 7.21017E-09-1.15197E-18 3.63090E-19
 -1      1040 9.52677E-05-2.85713E-05-2.85841E-05 1.08014E-08-9.87679E-20-1.41107E-19
 -1      1041 9.03819E-05-2.36511E-05-2.85992E-05 2.27436E-06-7.17018E-19 7.65241E-20
 -1      1042 9.15436E-05-2.45459E-05-2.87135E-05 1.89044E-06-5.05372E-19-1.29706E-19
 -1      1043 9.24628E-05-2.53292E-05-2.87716E-05 1.53934E-06 5.00378E-19-7.81030E-19
 -1      1044 9.31816E-05-2.59979E-05-2.87929E-05 1.22952E-06 2.35326E-19 2.20707E-19
 -1      1045 9.37403E-05-2.65609E-05-2.87912E-05 9.62886E-07 1.49685E-18 1.51613E-18
 -1      1046 9.41667E-05-2.70231E-05-2.87760E-05 7.36050E-07 7.13093E-19 2.40963E-18
 -1      1047 9.44898E-05-2.73985E-05-2.87534E-05 5.51846E-07 1.02016E-18 3.65437E-19
 -1      1048 9.47301E-05-2.76977E-05-2.87282E-05 4.03883E-07 1.38380E-18-9.11119E-19
 -1      1049 9.49061E-05-2.79327E-05-2.87029E-05 2.87830E-07 3.64920E-19-1.96179E-18
 -1      1050 9.50326E-05-2.81143E-05-2.86793E-05 1.98756E-07-1.34700E-19 1.01910E-19
 -1      1051 9.51213E-05-2.82524E-05-2.86581E-05 1.31841E-07 4.17347E-19 9.51377E-19
 -1      1052 9.51817E-05-2.83555E-05-2.86398E-05 8.26925E-08 7.24366E-19 2.56963E-19
 -1      1053 9.52213E-05-2.84311E-05-2.86244E-05 4.74731E-08-4.06261E-19 5.13972E-19
 -1      1054 9.52457E-05-2.84854E-05-2.86116E-05 2.29421E-08 3.69181E-19 5.95200E-19
 -1      1055 9.52595E-05-2.85232E-05-2.86013E-05 6.43900E-09-1.28548E-18 1.96893E-18
 -1      1056 9.52659E-05-2.85489E-05-2.85930E-05-4.15390E-09-3.92186E-19 1.92217E-18
 -1      1057 9.52674E-05-2.85655E-05-2.85865E-05-1.04449E-08-5.10237E-19 1.54859E-18
 -1      1058 7.82350E-05-1.81466E-05-2.57463E-05 5.09546E-06-1.23024E-18 2.07235E-19
 -1      1059 8.70994E-05-2.15719E-05-2.80831E-05 3.13017E-06-8.38077E-19-3.10922E-19
 -1      1060 7.28483E-05-1.65477E-05-2.40845E-05 5.26184E-06-7.31210E-19 1.19466E-18
 -1      1061 8.48075E-05-2.04268E-05-2.75919E-05 3.61623E-06-8.88032E-19-9.91951E-19
 -1      1062 8.19259E-05-1.92717E-05-2.68539E-05 4.21320E-06-1.34320E-18-4.69973E-19
 -1      1063 8.89217E-05-2.26513E-05-2.84021E-05 2.68377E-06-1.37459E-19-4.90658E-19
 -1      1064 7.20360E-05-1.83856E-05-2.29825E-05-1.04698E-05 1.41612E-18 2.47531E-18
 -1      1065 9.52676E-05-2.85791E-05-2.85808E-05-8.69543E-09 1.15205E-18 2.28283E-18
 -1      1066 9.52665E-05-2.85788E-05-2.85805E-05 1.08303E-08 5.64832E-19-1.58962E-18
 -1      1067 8.19674E-05-2.22107E-05-2.56359E-05 1.66748E-05 2.09274E-18-4.63700E-18
 -1      1068 9.52682E-05-2.85732E-05-2.85836E-05-1.04606E-08 6.49083E-19 9.42721E-19
 -1      1069 9.52689E-05-2.85789E-05-2.85814E-05-1.11030E-09 5.25306E-20-1.70547E-18
 -1      1070 8.10502E-05-2.59268E-05-2.35992E-05-1.77868E-05 1.68371E-18 1.32726E-18
 -1      1071 9.52683E-05-2.85788E-05-2.85812E-05 4.91876E-09-7.08618E-19-1.57771E-18
 -1      1072 9.24930E-05-2.54367E-05-2.87377E-05 7.00418E-07 7.29070E-19-1.47935E-18
 -1      1073 8.20275E-05-2.35413E-05-2.50625E-05-1.27432E-05 3.52694E-19 1.41521E-18
 -1      1074 8.35268E-05-2.24835E-05-2.61616E-05-9.12873E-06 6.88048E-19 1.20758E-18
 -1      1075 8.50872E-05-2.21321E-05-2.69825E-05-6.61744E-06 1.24455E-18 1.00614E-18
 -1      1076 8.67466E-05-2.23552E-05-2.75862E-05-4.83914E-06 2.93977E-19-9.16590E-19
 -1      1077 8.81492E-05-2.27718E-05-2.80188E-05-3.58554E-06 1.40290E-18-2.15349E-18
 -1      1078 8.94506E-05-2.33847E-05-2.83134E-05-2.63871E-06 1.27340E-18-2.23117E-18
 -1      1079 9.05971E-05-2.40665E-05-2.85128E-05-1.95333E-06 4.17376E-20-3.93103E-18
 -1      1080 9.15820E-05-2.47586E-05-2.86384E-05-1.44870E-06 2.74461E-19-3.85353E-18
 -1      1081 9.24029E-05-2.54113E-05-2.87109E-05-1.06800E-06 3.81072E-19-3.86922E-18
 -1      1082 9.30967E-05-2.60145E-05-2.87469E-05-7.91337E-07 3.64802E-19-4.21702E-18
 -1      1083 9.36377E-05-2.65385E-05-2.87570E-05-5.87038E-07 9.89946E-19-1.54905E-18
 -1      1084 9.40730E-05-2.69852E-05-2.87518E-05-4.21015E-07 1.84476E-18-8.10603E-19
 -1      1085 9.44106E-05-2.73570E-05-2.87373E-05-3.01877E-07-8.38364E-19-7.45118E-19
 -1      1086 9.46683E-05-2.76599E-05-2.87179E-05-2.13057E-07 1.07744E-19-4.56809E-19
 -1      1087 9.48606E-05-2.79013E-05-2.86968E-05-1.47338E-07 2.89214E-19 1.26313E-18
 -1      1088 9.50008E-05-2.80900E-05-2.86761E-05-9.91091E-08-1.20315E-18 1.65872E-18
 -1      1089 9.51006E-05-2.82346E-05-2.86568E-05-6.41403E-08-1.22807E-18 1.75911E-18
 -1      1090 9.51693E-05-2.83434E-05-2.86397E-05-3.91726E-08-1.07895E-18 8.87081E-19
 -1      1091 9.52149E-05-2.84233E-05-2.86250E-05-2.16883E-08-2.64008E-19 7.27685E-19
 -1      1092 9.52434E-05-2.84808E-05-2.86125E-05-9.74560E-09 1.39921E-18-8.71967E-19
 -1      1093 9.52598E-05-2.85210E-05-2.86023E-05-1.85474E-09 1.87731E-18-1.65874E-18
 -1      1094 9.52676E-05-2.85483E-05-2.85940E-05 3.12311E-09 4.88994E-19-1.82050E-18
 -1      1095 9.52697E-05-2.85659E-05-2.85874E-05 5.99507E-09-1.51763E-18-6.81521E-19
 -1      1096 9.15898E-05-2.46719E-05-2.86785E-05 8.23859E-07-4.82445E-19-2.00819E-18
 -1      1097 9.04598E-05-2.38010E-05-2.85678E-05 9.22188E-07 9.22232E-20-2.12603E-18
 -1      1098 9.32025E-05-2.60917E-05-2.87620E-05 5.63448E-07 8.22191E-20-1.94469E-18
 -1      1099 9.37596E-05-2.66378E-05-2.87649E-05 4.52949E-07 7.92466E-19-2.34328E-18
 -1      1100 9.41761E-05-2.70853E-05-2.87533E-05 3.58632E-07 1.59277E-18-1.95985E-18
 -1      1101 9.44986E-05-2.74501E-05-2.87350E-05 2.71099E-07 1.94401E-18-1.97734E-18
 -1      1102 9.47391E-05-2.77408E-05-2.87135E-05 1.99376E-07 1.42907E-18-7.55556E-19
 -1      1103 9.49151E-05-2.79684E-05-2.86914E-05 1.42172E-07-1.18009E-18-6.79646E-19
 -1      1104 9.50414E-05-2.81437E-05-2.86704E-05 9.78148E-08-3.13339E-19-8.55932E-19
 -1      1105 9.51296E-05-2.82763E-05-2.86514E-05 6.43093E-08 5.48240E-19-1.08384E-18
 -1      1106 9.51892E-05-2.83747E-05-2.86348E-05 3.96544E-08-9.35751E-21 1.94815E-19
 -1      1107 9.52278E-05-2.84463E-05-2.86206E-05 2.20100E-08-1.19281E-19 5.64232E-19
 -1      1108 9.52512E-05-2.84972E-05-2.86089E-05 9.77468E-09-1.01698E-18 1.85736E-18
 -1      1109 9.52639E-05-2.85323E-05-2.85993E-05 1.61040E-09 6.77458E-20 9.94455E-19
 -1      1110 9.52693E-05-2.85557E-05-2.85916E-05-3.58461E-09-3.48959E-19-6.97090E-20
 -1      1111 7.89590E-05-1.82194E-05-2.60221E-05 1.83851E-07-3.66140E-19 1.75631E-18
 -1      1112 7.45401E-05-1.69306E-05-2.46939E-05-1.45778E-06-3.95845E-19 2.67881E-18
 -1      1113 8.23917E-05-1.94185E-05-2.69866E-05 6.29234E-07-6.47412E-19 9.44945E-19
 -1      1114 9.52695E-05-2.85733E-05-2.85841E-05 5.77834E-09-2.36905E-18-2.39329E-18
 -1      1115 8.51602E-05-2.06423E-05-2.76500E-05 8.20694E-07-6.39263E-19-5.57299E-20
 -1      1116 8.73678E-05-2.18022E-05-2.80939E-05 9.46103E-07-2.76531E-19-9.21967E-19
 -1      1117 9.52707E-05-2.85665E-05-2.85875E-05-3.60451E-09-7.68373E-19 2.83210E-19
 -1      1118 9.52703E-05-2.85732E-05-2.85845E-05 5.10141E-10-5.29870E-19-1.88779E-18
 -1      1119 8.90505E-05-2.28273E-05-2.83822E-05 9.83330E-07-4.47421E-19-1.51192E-18
 -1      1120 8.42133E-05-2.05205E-05-2.73032E-05-2.10297E-06-6.26170E-20-9.15618E-20
 -1      1121 9.27720E-05-2.57277E-05-2.87348E-05-1.69361E-08 5.83828E-19-2.51376E-18
 -1      1122 7.80343E-05-1.95005E-05-2.50714E-05-7.43284E-06 3.67707E-19 1.46431E-18
 -1      1123 8.10884E-05-1.98421E-05-2.62570E-05-5.02364E-06 3.64192E-19 4.40947E-19
 -1      1124 8.78495E-05-2.22836E-05-2.81039E-05-1.50838E-06 1.00235E-18-1.43093E-18
 -1      1125 8.93798E-05-2.31768E-05-2.83725E-05-9.74752E-07-1.87543E-19-2.82777E-18
 -1      1126 9.06486E-05-2.40299E-05-2.85510E-05-6.35464E-07 2.58818E-19-2.28298E-18
 -1      1127 9.16959E-05-2.48221E-05-2.86606E-05-4.05587E-07-2.71372E-20-3.33588E-18
 -1      1128 9.37613E-05-2.66734E-05-2.87528E-05-1.06970E-07 1.24455E-18-3.78335E-18
 -1      1129 9.41789E-05-2.71095E-05-2.87439E-05-6.00080E-08 1.08487E-18-3.48751E-18
 -1      1130 9.44984E-05-2.74667E-05-2.87278E-05-3.63107E-08 1.71292E-19-1.92692E-18
 -1      1131 9.47381E-05-2.77524E-05-2.87081E-05-2.13181E-08 5.48454E-19-1.25047E-18
 -1      1132 9.49144E-05-2.79769E-05-2.86875E-05-1.20996E-08-9.55883E-20-1.64487E-18
 -1      1133 9.50412E-05-2.81502E-05-2.86676E-05-6.50823E-09 9.75394E-20-1.09639E-18
 -1      1134 9.51300E-05-2.82814E-05-2.86494E-05-3.16131E-09-1.16422E-18-3.14472E-19
 -1      1135 9.51901E-05-2.83789E-05-2.86334E-05-1.19106E-09-8.04213E-19 8.64314E-19
 -1      1136 9.52290E-05-2.84497E-05-2.86197E-05-5.98522E-11-8.32435E-19 3.01753E-19
 -1      1137 9.52525E-05-2.84999E-05-2.86082E-05 5.63370E-10 5.55995E-19-6.33296E-19
 -1      1138 9.52651E-05-2.85345E-05-2.85988E-05 8.87621E-10 4.02552E-19-2.10659E-18
 -1      1139 9.52706E-05-2.85657E-05-2.85878E-05 9.28328E-10-1.18386E-18-3.43539E-18
 -1      1140 9.52702E-05-2.85573E-05-2.85912E-05 9.76042E-10-1.18507E-18-3.07907E-18
 -1      1141 1.21876E-04 2.74557E-10-4.39645E-05-4.02983E-05-6.73391E-19 1.83518E-17
 -1      1142 9.41977E-05 8.44844E-11-3.93783E-05-2.07643E-05-3.40084E-19 1.24064E-18
 -1      1143 8.82749E-05 4.96261E-11-3.74152E-05-1.30984E-05-2.22770E-19-5.82338E-18
 -1      1144 8.45799E-05 3.61088E-11-3.59681E-05-8.26963E-06-1.37325E-19-8.96620E-18
 -1      1145 8.15603E-05 2.72007E-11-3.47526E-05-4.71726E-06-8.55503E-20-1.04041E-17
 -1      1146 7.89374E-05 1.99048E-11-3.37022E-05-2.12183E-06-4.35693E-20-1.10114E-17
 -1      1147 7.67236E-05 1.33939E-11-3.28252E-05-3.40425E-07-1.59877E-20-1.12195E-17
 -1      1148 7.50640E-05 8.00464E-12-3.21784E-05 7.46125E-07 1.35525E-20-1.11481E-17
 -1      1149 7.41881E-05 4.48619E-12-3.18472E-05 1.29238E-06 3.95856E-20-1.09913E-17
 -1      1150 7.42687E-05 3.60947E-12-3.18949E-05 1.56790E-06 6.92052E-20-1.06342E-17
 -1      1151 7.53884E-05 5.87862E-12-3.23509E-05 1.92143E-06 9.01561E-20-1.00337E-17
 -1      1152 7.74947E-05 1.13004E-11-3.31922E-05 2.72664E-06 1.25520E-19-8.97293E-18
 -1      1153 8.04682E-05 1.98829E-11-3.43744E-05 4.35950E-06 1.65489E-19-7.38320E-18
 -1      1154 8.42017E-05 3.18478E-11-3.58521E-05 7.21650E-06 2.14405E-19-4.62837E-18
 -1      1155 8.87161E-05 4.92332E-11-3.76048E-05 1.17823E-05 2.65545E-19 6.92979E-20
 -1      1156 9.49318E-05 8.27184E-11-3.98079E-05 1.92820E-05 2.89474E-19 8.68844E-18
 -1      1157 1.12834E-04 1.85809E-10-4.31575E-05 3.39419E-05 5.05255E-19 2.55064E-17
 -1      1158 1.35915E-04-2.74556E-05-4.24564E-05-2.53946E-05-2.67133E-18 2.91206E-17
 -1      1159 1.06826E-04-3.16854E-05-3.44401E-05-2.75517E-07-9.38407E-19 2.28276E-17
 -1      1160 1.02618E-04-3.07671E-05-3.15631E-05 5.09883E-07-3.72377E-19 1.43855E-17
 -1      1161 1.02937E-04-3.09644E-05-3.09839E-05 3.27055E-07-1.92726E-19 8.84853E-18
 -1      1162 1.04163E-04-3.12976E-05-3.11860E-05 2.15688E-07-1.86307E-19 4.76670E-18
 -1      1163 1.05217E-04-3.15677E-05-3.14399E-05 1.23291E-07-1.59499E-19 1.87298E-18
 -1      1164 1.05278E-04-3.15521E-05-3.14098E-05 1.38770E-08-1.43809E-19-1.70522E-19
 -1      1165 1.03696E-04-3.10605E-05-3.09101E-05-1.22804E-07-4.28943E-20-1.99022E-18
 -1      1166 1.00151E-04-3.00010E-05-2.98765E-05-2.69558E-07 2.49593E-20-3.65775E-18
 -1      1167 9.49333E-05-2.84645E-05-2.84184E-05-3.78448E-07-8.96697E-20-5.21539E-18
 -1      1168 8.91333E-05-2.67734E-05-2.68465E-05-3.86444E-07-3.48690E-20-7.35150E-18
 -1      1169 8.44625E-05-2.54219E-05-2.56105E-05-2.56062E-07 9.57610E-20-7.81134E-18
 -1      1170 8.26007E-05-2.48876E-05-2.51316E-05-1.71365E-08 6.42422E-20-8.22636E-18
 -1      1171 8.43543E-05-2.53972E-05-2.56074E-05 2.35327E-07 4.23649E-20-8.60813E-18
 -1      1172 8.92071E-05-2.68055E-05-2.69117E-05 3.98577E-07 1.97779E-20-8.85774E-18
 -1      1173 9.56115E-05-2.86737E-05-2.86593E-05 4.25846E-07-2.75908E-19-9.41382E-18
 -1      1174 1.01787E-04-3.04887E-05-3.03879E-05 3.42475E-07-8.42169E-20-1.02989E-17
 -1      1175 1.06451E-04-3.18727E-05-3.17401E-05 2.10671E-07-2.84517E-20-1.10251E-17
 -1      1176 1.09099E-04-3.26696E-05-3.25501E-05 8.56175E-08 9.37593E-20-1.06612E-17
 -1      1177 1.09865E-04-3.29121E-05-3.28276E-05-4.36568E-09-2.89103E-19-1.11158E-17
 -1      1178 1.09221E-04-3.27350E-05-3.26878E-05-5.50838E-08 3.65300E-20-1.06829E-17
 -1      1179 1.07711E-04-3.22969E-05-3.22789E-05-7.49237E-08-1.42886E-19-1.03745E-17
 -1      1180 1.05798E-04-3.17347E-05-3.17353E-05-7.52615E-08 1.37433E-19-9.58917E-18
 -1      1181 1.03811E-04-3.11469E-05-3.11572E-05-6.56055E-08-1.51241E-19-8.69049E-18
 -1      1182 1.01955E-04-3.05948E-05-3.06086E-05-5.23179E-08 1.10644E-20-1.00606E-17
 -1      1183 1.00332E-04-3.01104E-05-3.01243E-05-3.90130E-08 8.13329E-20-9.32563E-18
 -1      1184 9.89808E-05-2.97057E-05-2.97179E-05-2.74055E-08-1.31472E-20-9.29952E-18
 -1      1185 9.78976E-05-2.93803E-05-2.93902E-05-1.80739E-08 9.76478E-20-9.98756E-18
 -1      1186 9.70567E-05-2.91269E-05-2.91345E-05-1.09982E-08-3.12041E-20-1.07613E-17
 -1      1187 9.64228E-05-2.89353E-05-2.89409E-05-5.88905E-09 2.33899E-19-8.26805E-18
 -1      1188 9.59587E-05-2.87947E-05-2.87985E-05-2.37179E-09-7.44880E-20-8.06832E-18
 -1      1189 9.56293E-05-2.86945E-05-2.86970E-05-7.81622E-11-5.93047E-20-9.10112E-18
 -1      1190 9.54038E-05-2.86256E-05-2.86272E-05 1.31326E-09 6.46773E-20-1.03241E-17
 -1      1191 9.52563E-05-2.85803E-05-2.85812E-05 2.06469E-09 1.40389E-19-1.16159E-17
 -1      1192 9.51658E-05-2.85523E-05-2.85527E-05 2.38033E-09-1.30705E-19-1.40600E-17
 -1      1193 9.51158E-05-2.85366E-05-2.85367E-05 2.41361E-09 1.85922E-19-1.37424E-17
 -1      1194 9.50936E-05-2.85294E-05-2.85293E-05 2.27614E-09 1.27879E-19-1.33609E-17
 -1      1195 9.50898E-05-2.85279E-05-2.85277E-05 2.04658E-09 1.98365E-19-9.64730E-18
 -1      1196 9.50975E-05-2.85299E-05-2.85296E-05 1.77845E-09-1.96016E-19-8.09388E-18
 -1      1197 9.51118E-05-2.85339E-05-2.85337E-05 1.50663E-09-1.38202E-19-1.02676E-17
 -1      1198 9.51293E-05-2.85390E-05-2.85388E-05 1.25256E-09-3.23398E-19-1.30251E-17
 -1      1199 9.51478E-05-2.85445E-05-2.85442E-05 1.02816E-09 1.18065E-19-1.28063E-17
 -1      1200 9.51660E-05-2.85498E-05-2.85496E-05 8.38689E-10-1.04914E-19-8.76299E-18
 -1      1201 9.51830E-05-2.85549E-05-2.85547E-05 6.84511E-10-2.26136E-19-6.85284E-18
 -1      1202 9.51984E-05-2.85595E-05-2.85593E-05 5.61629E-10 2.64865E-19-4.61937E-18
 -1      1203 9.52118E-05-2.85635E-05-2.85633E-05 4.60380E-10-7.81689E-20-1.52207E-18
 -1      1204 9.52230E-05-2.85668E-05-2.85666E-05 3.60535E-10-1.04593E-19-2.64371E-18
 -1      1205 9.52315E-05-2.85693E-05-2.85691E-05 2.15195E-10 2.56218E-19 1.17251E-18
 -1      1206 9.52365E-05-2.85708E-05-2.85707E-05-7.00914E-11-3.30286E-20 1.12376E-18
 -1      1207 9.52377E-05-2.85713E-05-2.85715E-05-2.00730E-10 4.71987E-19 1.32502E-18
 -1      1208 1.37328E-04-3.93008E-05-4.13221E-05 1.19004E-05-4.78785E-19 3.90652E-17
 -1      1209 1.08730E-04-3.18652E-05-3.50250E-05 6.00982E-07 1.94473E-19 3.26157E-17
 -1      1210 1.07087E-04-3.19827E-05-3.28757E-05 2.61439E-08 2.04340E-19 2.55407E-17
 -1      1211 1.09385E-04-3.28268E-05-3.30154E-05-8.01928E-08 1.42060E-19 2.09671E-17
 -1      1212 1.13451E-04-3.40424E-05-3.40804E-05-1.63746E-07 1.10020E-19 1.80995E-17
 -1      1213 1.18154E-04-3.54082E-05-3.53810E-05-2.53453E-07 1.05380E-19 1.57261E-17
 -1      1214 1.22232E-04-3.65859E-05-3.64376E-05-3.28046E-07 7.50087E-20 1.49059E-17
 -1      1215 1.23989E-04-3.70961E-05-3.67518E-05-3.17504E-07 4.97566E-20 1.46142E-17
 -1      1216 1.21496E-04-3.63928E-05-3.58515E-05-1.21780E-07-8.22681E-20 1.33862E-17
 -1      1217 1.13563E-04-3.41266E-05-3.35628E-05 3.00049E-07 5.82070E-20 1.18173E-17
 -1      1218 1.01361E-04-3.05723E-05-3.03568E-05 7.98370E-07 1.28014E-19 9.38735E-18
 -1      1219 8.94004E-05-2.69772E-05-2.74262E-05 1.01630E-06 6.62605E-20 7.31138E-18
 -1      1220 8.38229E-05-2.51304E-05-2.61683E-05 6.79547E-07-9.37030E-21 7.15388E-18
 -1      1221 8.78776E-05-2.62411E-05-2.72183E-05-5.24569E-08-1.13052E-19 6.67525E-18
 -1      1222 9.93176E-05-2.96395E-05-3.00967E-05-6.40760E-07 1.28766E-19 4.13680E-18
 -1      1223 1.12823E-04-3.37889E-05-3.35896E-05-8.67483E-07 2.73896E-19 1.27775E-18
 -1      1224 1.22870E-04-3.68917E-05-3.63553E-05-7.11247E-07 2.23584E-19 4.38022E-19
 -1      1225 1.27388E-04-3.82750E-05-3.77521E-05-4.03890E-07 1.68063E-19 1.92303E-19
 -1      1226 1.27096E-04-3.81743E-05-3.78313E-05-1.31094E-07-1.93491E-19 9.37242E-19
 -1      1227 1.23811E-04-3.71662E-05-3.70082E-05 4.02358E-08 1.47304E-19 5.97635E-19
 -1      1228 1.19225E-04-3.57744E-05-3.57417E-05 1.19878E-07-4.34816E-20-7.60689E-19
 -1      1229 1.14470E-04-3.43405E-05-3.43724E-05 1.40779E-07 3.97937E-19-2.78912E-18
 -1      1230 1.10147E-04-3.30417E-05-3.30973E-05 1.31730E-07-2.55397E-19-1.55608E-18
 -1      1231 1.06492E-04-3.19461E-05-3.20038E-05 1.11014E-07-5.75883E-20-1.07592E-18
 -1      1232 1.03541E-04-3.10621E-05-3.11130E-05 8.82178E-08 5.04961E-20-2.59679E-18
 -1      1233 1.01231E-04-3.03703E-05-3.04118E-05 6.75468E-08 4.02101E-20-3.64960E-18
 -1      1234 9.94656E-05-2.98413E-05-2.98737E-05 5.03828E-08 1.42738E-19-2.20025E-18
 -1      1235 9.81418E-05-2.94445E-05-2.94691E-05 3.68009E-08-1.76166E-19-1.12402E-18
 -1      1236 9.71672E-05-2.91522E-05-2.91705E-05 2.63660E-08-2.22881E-19 1.97431E-18
 -1      1237 9.64629E-05-2.89408E-05-2.89543E-05 1.85095E-08 2.46109E-19 2.99665E-18
 -1      1238 9.59645E-05-2.87911E-05-2.88008E-05 1.26878E-08 2.79620E-19 6.20720E-19
 -1      1239 9.56203E-05-2.86876E-05-2.86945E-05 8.43698E-09-1.17936E-19-1.40971E-18
 -1      1240 9.53901E-05-2.86183E-05-2.86231E-05 5.38079E-09-2.48431E-19-4.14416E-19
 -1      1241 9.52425E-05-2.85738E-05-2.85771E-05 3.22271E-09 5.95597E-19-4.34085E-18
 -1      1242 9.51539E-05-2.85470E-05-2.85492E-05 1.73230E-09-3.63784E-19-5.57745E-18
 -1      1243 9.51062E-05-2.85325E-05-2.85339E-05 7.32268E-10-2.95421E-19-2.65437E-18
 -1      1244 9.50862E-05-2.85264E-05-2.85272E-05 8.72618E-11 1.53299E-19-2.22870E-18
 -1      1245 9.50842E-05-2.85257E-05-2.85261E-05-3.05242E-10 1.49304E-19-3.03601E-18
 -1      1246 9.50933E-05-2.85283E-05-2.85284E-05-5.22292E-10-1.13125E-19-1.51902E-18
 -1      1247 9.51087E-05-2.85328E-05-2.85328E-05-6.21287E-10 5.68806E-20-4.70845E-18
 -1      1248 9.51269E-05-2.85382E-05-2.85381E-05-6.44594E-10 1.57589E-19-7.04801E-18
 -1      1249 9.51460E-05-2.85439E-05-2.85438E-05-6.23221E-10 5.50277E-21-4.46118E-18
 -1      1250 9.51646E-05-2.85495E-05-2.85493E-05-5.79720E-10-3.42986E-19-2.56288E-18
 -1      1251 9.51819E-05-2.85546E-05-2.85545E-05-5.30448E-10 2.39158E-19 1.05194E-18
 -1      1252 9.51975E-05-2.85593E-05-2.85591E-05-4.86914E-10-1.43292E-20-1.68654E-18
 -1      1253 9.52111E-05-2.85633E-05-2.85632E-05-4.55633E-10-2.26335E-19-2.14770E-18
 -1      1254 9.52224E-05-2.85667E-05-2.85665E-05-4.35335E-10 9.32339E-19-3.39508E-18
 -1      1255 9.52311E-05-2.85693E-05-2.85690E-05-3.97992E-10-4.50262E-19 7.05571E-19
 -1      1256 9.52364E-05-2.85709E-05-2.85706E-05-2.38545E-10-6.05073E-19 7.80738E-18
 -1      1257 9.52376E-05-2.85713E-05-2.85715E-05 1.59045E-10 2.45500E-21 6.35506E-18
 -1      1258 9.52370E-05-2.85706E-05-2.85715E-05 1.78543E-10 7.74249E-18 2.97357E-19
 -1      1259 9.52375E-05-2.85719E-05-2.85707E-05 5.87103E-11 5.08326E-18-1.02038E-19
 -1      1260 9.52389E-05-2.85768E-05-2.85692E-05-2.70021E-10-1.04935E-18-6.28550E-19
 -1      1261 9.52411E-05-2.85843E-05-2.85671E-05-3.85229E-10 1.27457E-19 5.77757E-19
 -1      1262 9.52436E-05-2.85927E-05-2.85647E-05-3.89539E-10-1.43419E-18-4.40019E-19
 -1      1263 9.52459E-05-2.86006E-05-2.85624E-05-3.28926E-10-1.15627E-17-6.86975E-19
 -1      1264 9.52478E-05-2.86070E-05-2.85606E-05-2.39146E-10-5.78142E-18 2.12981E-19
 -1      1265 9.52490E-05-2.86111E-05-2.85594E-05-1.23260E-10-2.46650E-18 1.85108E-19
 -1      1266 9.52494E-05-2.86125E-05-2.85590E-05 1.60817E-12-2.54338E-19 1.24299E-19
 -1      1267 9.52490E-05-2.86110E-05-2.85594E-05 1.26245E-10-1.62401E-18 7.08498E-19
 -1      1268 9.52478E-05-2.86068E-05-2.85606E-05 2.41091E-10-3.02012E-18-1.59603E-18
 -1      1269 9.52459E-05-2.86004E-05-2.85625E-05 3.34862E-10-9.39841E-18-5.20101E-19
 -1      1270 9.52435E-05-2.85926E-05-2.85648E-05 3.89244E-10-8.71349E-18 8.08600E-19
 -1      1271 9.52411E-05-2.85842E-05-2.85671E-05 3.89002E-10-7.14876E-18 2.55016E-19
 -1      1272 9.52388E-05-2.85766E-05-2.85692E-05 3.20980E-10-9.62050E-18 1.69864E-19
 -1      1273 9.52376E-05-2.85720E-05-2.85707E-05-1.69133E-10-4.17437E-18 9.88692E-20
 -1      1274 9.52369E-05-2.85706E-05-2.85715E-05-1.74759E-10-8.05445E-19 5.43090E-19
 -1      1275 3.51005E-05-1.10297E-04 1.87127E-05-1.39873E-05 1.42664E-17 2.90321E-18
 -1      1276 1.86877E-05-7.15931E-05 1.11831E-05-2.66292E-05 3.04305E-17 1.20681E-17
 -1      1277 7.38695E-06-1.85813E-05-3.08641E-06-7.84722E-06 3.81131E-17 2.31189E-17
 -1      1278 2.62169E-05 1.96661E-05-2.21183E-05 4.10877E-05 3.55855E-17 3.16104E-17
 -1      1279 9.16853E-05 1.72010E-05-4.28719E-05 9.32568E-05 2.43674E-17 3.16197E-17
 -1      1280 1.90431E-04-2.38651E-05-6.17749E-05 1.11151E-04 1.11753E-17 2.29258E-17
 -1      1281 2.81965E-04-7.42349E-05-7.48768E-05 7.82675E-05 2.97171E-18 9.09205E-18
 -1      1282 3.20016E-04-9.69451E-05-7.97766E-05 2.67136E-06 1.38839E-18-1.03935E-17
 -1      1283 2.85651E-04-7.58300E-05-7.54692E-05-7.50530E-05 7.92357E-18-3.19882E-17
 -1      1284 1.95804E-04-2.59071E-05-6.27103E-05-1.13282E-04 2.07502E-17-4.49436E-17
 -1      1285 9.41760E-05 1.71852E-05-4.38176E-05-9.57267E-05 3.37814E-17-4.59448E-17
 -1      1286 2.52573E-05 1.91327E-05-2.15892E-05-3.94749E-05 3.95073E-17-3.52721E-17
 -1      1287 8.15097E-06-2.49826E-05-1.00591E-06 1.26329E-05 3.51315E-17-2.00145E-17
 -1      1288 2.24820E-05-8.01972E-05 1.27873E-05 2.70761E-05 2.00095E-17-7.13223E-18
 -1      1289 3.67275E-05-1.12111E-04 1.89669E-05 9.06599E-06-2.02229E-19-1.58715E-18
 -1      1290 3.21184E-05-1.01441E-04 1.69498E-05-1.82464E-05-2.20423E-17-4.84783E-18
 -1      1291 1.34295E-05-5.05967E-05 6.19864E-06-2.09494E-05-3.80962E-17-1.63566E-17
 -1      1292 1.08748E-05 4.31148E-06-1.14705E-05 1.36933E-05-4.32986E-17-2.99884E-17
 -1      1293 5.12718E-05 2.63743E-05-3.22927E-05 6.97920E-05-3.71932E-17-3.94616E-17
 -1      1294 1.34739E-04 3.12322E-06-5.20963E-05 1.09681E-04-2.57227E-17-4.13064E-17
 -1      1295 2.33724E-04-4.72342E-05-6.81833E-05 9.98186E-05-1.14853E-17-3.04830E-17
 -1      1296 3.02475E-04-8.84301E-05-7.72278E-05 4.02140E-05-2.55563E-18-1.10432E-17
 -1      1297 3.01280E-04-8.84725E-05-7.69623E-05-4.25218E-05-2.30433E-18 9.42832E-18
 -1      1298 2.27329E-04-4.40634E-05-6.72092E-05-1.02353E-04-1.08018E-17 2.79944E-17
 -1      1299 1.24036E-04 7.37845E-06-4.99868E-05-1.06861E-04-2.37838E-17 3.67968E-17
 -1      1300 4.20270E-05 2.65185E-05-2.92750E-05-6.22634E-05-3.15926E-17 3.23634E-17
 -1      1301 8.74427E-06-2.08051E-06-8.45219E-06-6.40893E-06-3.00426E-17 2.00442E-17
 -1      1302 1.61856E-05-5.93973E-05 8.21743E-06 2.37257E-05-2.15460E-17 9.05944E-18
 -1      1303 3.34408E-05-1.05412E-04 1.78681E-05 1.38389E-05-4.11362E-18 1.96649E-18
 -1      1304 1.11503E-04-2.37474E-05-4.01690E-05-1.57021E-05-1.02512E-18 1.44013E-17
 -1      1305 9.64459E-05-7.91355E-06-3.80739E-05-1.66329E-05-2.48827E-18-2.07936E-18
 -1      1306 9.94582E-05-8.15681E-06-3.94186E-05-2.25537E-05-3.33159E-18 1.61831E-18
 -1      1307 9.01935E-05-4.89638E-06-3.66078E-05-1.15429E-05-2.31896E-18-7.19597E-18
 -1      1308 9.23956E-05-4.94490E-06-3.74030E-05-1.44322E-05-2.69124E-18-5.04387E-18
 -1      1309 9.84140E-05-1.22147E-05-3.70026E-05-1.49322E-05-4.29602E-18-1.81154E-18
 -1      1310 8.60598E-05-3.58794E-06-3.53638E-05-7.34245E-06-1.74023E-18-9.61205E-18
 -1      1311 8.78134E-05-3.59322E-06-3.60108E-05-9.39341E-06-2.06353E-18-8.57277E-18
 -1      1312 9.19270E-05-8.47397E-06-3.58391E-05-1.05296E-05-3.57048E-18-6.00091E-18
 -1      1313 8.26052E-05-2.70239E-06-3.42587E-05-4.09303E-06-1.11274E-18-1.07118E-17
 -1      1314 8.41370E-05-2.71332E-06-3.48226E-05-5.63439E-06-1.34048E-18-1.02449E-17
 -1      1315 8.72836E-05-6.34555E-06-3.47574E-05-6.64750E-06-2.53967E-18-8.11751E-18
 -1      1316 7.96107E-05-1.97215E-06-3.32970E-05-1.71121E-06-5.40910E-19-1.11871E-17
 -1      1317 8.09430E-05-1.98936E-06-3.37784E-05-2.81860E-06-7.37766E-19-1.09750E-17
 -1      1318 8.34233E-05-4.78010E-06-3.37658E-05-3.62372E-06-1.52933E-18-9.05505E-18
 -1      1319 7.70435E-05-1.31434E-06-3.24924E-05-5.16271E-08-8.67679E-20-1.12854E-17
 -1      1320 7.81513E-05-1.33599E-06-3.28825E-05-8.04948E-07-2.11996E-19-1.12939E-17
 -1      1321 8.00598E-05-3.44485E-06-3.28892E-05-1.37706E-06-6.38775E-19-9.49038E-18
 -1      1322 7.51809E-05-7.70726E-07-3.19358E-05 9.36886E-07 4.06417E-19-1.11981E-17
 -1      1323 7.59249E-05-7.90226E-07-3.21879E-05 4.93149E-07 2.46248E-19-1.12563E-17
 -1      1324 7.72723E-05-2.29534E-06-3.21823E-05 1.59682E-07 1.21536E-19-9.54805E-18
 -1      1325 7.42887E-05-4.17111E-07-3.17037E-05 1.43997E-06 8.22383E-19-1.09784E-17
 -1      1326 7.45494E-05-4.29281E-07-3.17800E-05 1.19920E-06 6.69262E-19-1.11255E-17
 -1      1327 7.53645E-05-1.43787E-06-3.17285E-05 1.06978E-06 8.81913E-19-9.47394E-18
 -1      1328 7.45814E-05-3.32003E-07-3.18520E-05 1.74286E-06 1.20821E-18-1.06004E-17
 -1      1329 7.42758E-05-3.33041E-07-3.17274E-05 1.55332E-06 1.06069E-18-1.08620E-17
 -1      1330 7.46410E-05-1.01501E-06-3.15980E-05 1.55672E-06 1.56380E-18-9.23710E-18
 -1      1331 7.61476E-05-5.66579E-07-3.23984E-05 2.20428E-06 1.60251E-18-9.90718E-18
 -1      1332 7.52568E-05-5.53838E-07-3.20686E-05 1.88507E-06 1.46351E-18-1.03505E-17
 -1      1333 7.53249E-05-1.14900E-06-3.18347E-05 1.92378E-06 2.18820E-18-8.82649E-18
 -1      1334 7.88672E-05-1.11357E-06-3.32974E-05 3.18175E-06 2.06692E-18-8.77165E-18
 -1      1335 7.74713E-05-1.09434E-06-3.27914E-05 2.56269E-06 1.85797E-18-9.46148E-18
 -1      1336 7.74592E-05-1.88925E-06-3.24355E-05 2.52775E-06 2.81852E-18-8.07619E-18
 -1      1337 8.26716E-05-1.97849E-06-3.45215E-05 5.06809E-06 2.59356E-18-6.94076E-18
 -1      1338 8.08041E-05-1.95184E-06-3.38511E-05 3.94785E-06 2.34411E-18-8.01731E-18
 -1      1339 8.09565E-05-3.23561E-06-3.33639E-05 3.73123E-06 3.58759E-18-6.79796E-18
 -1      1340 8.73740E-05-3.17163E-06-3.59921E-05 8.20440E-06 3.07886E-18-3.97306E-18
 -1      1341 8.51254E-05-3.14579E-06-3.51913E-05 6.39885E-06 2.78044E-18-5.76231E-18
 -1      1342 8.57055E-05-5.21638E-06-3.45583E-05 5.88030E-06 4.32674E-18-4.79257E-18
 -1      1343 9.31319E-05-4.88946E-06-3.76854E-05 1.30495E-05 3.36240E-18 1.09267E-18
 -1      1344 9.04034E-05-4.85291E-06-3.67368E-05 1.02260E-05 3.07282E-18-1.93335E-18
 -1      1345 9.16679E-05-8.00701E-06-3.59189E-05 9.25044E-06 4.90673E-18-1.51079E-18
 -1      1346 1.01578E-04-8.51403E-06-3.97300E-05 2.06632E-05 2.69547E-18 1.02639E-17
 -1      1347 9.74664E-05-7.97553E-06-3.84668E-05 1.57538E-05 2.70595E-18 4.72591E-18
 -1      1348 9.95588E-05-1.25204E-05-3.73272E-05 1.39135E-05 4.86144E-18 4.10324E-18
 -1      1349 1.31257E-04-2.69562E-05-4.16212E-05 2.62013E-05 1.19262E-18 2.66034E-17
 -1      1350 1.08679E-04-1.65962E-05-4.00584E-05 2.05645E-05 1.27330E-18 1.54000E-17
 -1      1351 1.11096E-04-2.21803E-05-3.81361E-05 1.67717E-05 4.28202E-18 1.23584E-17
 -1      1352 1.12634E-04-3.09818E-05-3.76997E-05 4.96927E-06 2.23627E-18 2.58682E-17
 -1      1353 1.13682E-04-3.29124E-05-3.60459E-05-6.26156E-06-2.89452E-18 1.56050E-17
 -1      1354 1.08200E-04-3.09545E-05-3.36539E-05-3.52890E-06-2.62136E-18 1.21862E-17
 -1      1355 1.06177E-04-3.11196E-05-3.24142E-05-1.18721E-06-2.04130E-18 1.09317E-17
 -1      1356 1.05156E-04-3.12028E-05-3.17330E-05-8.13798E-07-1.92123E-18 7.94093E-18
 -1      1357 1.08984E-04-3.10883E-05-3.37480E-05-5.26210E-06-4.44814E-18 5.91430E-18
 -1      1358 1.04241E-04-3.10689E-05-3.13427E-05 1.75085E-07-1.48637E-18 6.93937E-18
 -1      1359 1.04448E-04-3.12660E-05-3.13142E-05 2.31348E-07-1.36124E-18 4.76263E-18
 -1      1360 1.05758E-04-3.12260E-05-3.20560E-05-9.47266E-07-3.34488E-18 4.05390E-18
 -1      1361 1.04306E-04-3.12783E-05-3.12486E-05 4.93169E-07-1.13207E-18 3.91567E-18
 -1      1362 1.04793E-04-3.14975E-05-3.13732E-05 4.71492E-07-1.09310E-18 2.25659E-18
 -1      1363 1.04936E-04-3.13993E-05-3.15291E-05 5.26444E-07-2.48238E-18 2.25257E-18
 -1      1364 1.04861E-04-3.15593E-05-3.13783E-05 3.04543E-07-7.86692E-19 1.71326E-18
 -1      1365 1.05102E-04-3.16832E-05-3.14393E-05 2.07618E-07-7.24666E-19 6.39179E-19
 -1      1366 1.04945E-04-3.16278E-05-3.14067E-05 6.53081E-07-1.84071E-18 9.99525E-19
 -1      1367 1.05015E-04-3.17011E-05-3.13895E-05-2.79903E-07-6.48867E-19 1.50573E-19
 -1      1368 1.04637E-04-3.16165E-05-3.12721E-05-4.45185E-07-5.87877E-19-7.28303E-19
 -1      1369 1.04998E-04-3.18154E-05-3.13301E-05-1.14446E-07-1.35681E-18-1.13820E-21
 -1      1370 1.04136E-04-3.15028E-05-3.10961E-05-1.14935E-06-4.02351E-19-8.97385E-19
 -1      1371 1.02896E-04-3.11192E-05-3.07380E-05-1.35549E-06-4.34200E-19-1.70005E-18
 -1      1372 1.04494E-04-3.17818E-05-3.11115E-05-1.53992E-06-9.67437E-19-5.76817E-19
 -1      1373 1.01846E-04-3.08119E-05-3.04103E-05-2.08674E-06-4.37148E-19-1.93198E-18
 -1      1374 9.97289E-05-3.01075E-05-2.98171E-05-2.27284E-06-4.81260E-19-2.62464E-18
 -1      1375 1.03024E-04-3.13492E-05-3.06608E-05-3.28013E-06-9.34370E-19-9.47717E-19
 -1      1376 9.81880E-05-2.96038E-05-2.93698E-05-2.74317E-06-4.50582E-19-2.77308E-18
 -1      1377 9.55213E-05-2.86778E-05-2.86392E-05-2.82099E-06-7.22580E-19-3.67782E-18
 -1      1378 1.00486E-04-3.04254E-05-2.99837E-05-4.76232E-06-8.88412E-19-1.19906E-18
 -1      1379 9.37960E-05-2.80711E-05-2.81663E-05-2.72989E-06-7.80461E-19-3.96668E-18
 -1      1380 9.12553E-05-2.71610E-05-2.74829E-05-2.62292E-06-4.58933E-19-4.67472E-18
 -1      1381 9.72205E-05-2.91075E-05-2.91902E-05-5.26177E-06-1.13830E-18-1.38086E-18
 -1      1382 8.98571E-05-2.66426E-05-2.71172E-05-1.83312E-06-3.96094E-19-5.54807E-18
 -1      1383 8.82688E-05-2.60592E-05-2.66969E-05-1.53619E-06-4.66748E-19-6.02479E-18
 -1      1384 9.40539E-05-2.77428E-05-2.84746E-05-4.21947E-06-1.05645E-18-2.78234E-18
 -1      1385 8.77182E-05-2.58433E-05-2.65605E-05-2.26007E-07-1.66124E-19-6.41318E-18
 -1      1386 8.76922E-05-2.58245E-05-2.65581E-05 1.64043E-07-1.95029E-19-6.58010E-18
 -1      1387 9.20567E-05-2.68378E-05-2.80510E-05-1.66387E-06-6.93111E-19-4.55004E-18
 -1      1388 8.82422E-05-2.60196E-05-2.67072E-05 1.53429E-06-2.01051E-19-6.70554E-18
 -1      1389 8.98491E-05-2.65934E-05-2.71404E-05 1.86438E-06-1.13608E-19-6.66906E-18
 -1      1390 9.20434E-05-2.67980E-05-2.80677E-05 1.61738E-06-3.17081E-19-5.23885E-18
 -1      1391 9.13325E-05-2.71277E-05-2.75378E-05 2.79991E-06-2.16857E-19-6.95104E-18
 -1      1392 9.40654E-05-2.80958E-05-2.82783E-05 2.95386E-06-4.64386E-19-7.07852E-18
 -1      1393 9.41043E-05-2.76702E-05-2.85395E-05 4.42918E-06-4.87540E-19-5.50898E-18
 -1      1394 9.59937E-05-2.87668E-05-2.88109E-05 3.19800E-06-6.63042E-19-7.32260E-18
 -1      1395 9.90390E-05-2.98206E-05-2.96478E-05 3.15715E-06-4.95420E-19-7.73542E-18
 -1      1396 9.75486E-05-2.91108E-05-2.93411E-05 5.83984E-06-8.18052E-19-5.94530E-18
 -1      1397 1.00865E-04-3.04190E-05-3.01770E-05 2.77926E-06-3.79980E-19-8.04567E-18
 -1      1398 1.03481E-04-3.12937E-05-3.09097E-05 2.60796E-06-3.17452E-19-8.31215E-18
 -1      1399 1.01298E-04-3.06063E-05-3.02595E-05 5.63666E-06-7.28842E-19-6.19380E-18
 -1      1400 1.04825E-04-3.16965E-05-3.13240E-05 1.87968E-06-1.73827E-19-8.71533E-18
 -1      1401 1.06583E-04-3.22567E-05-3.18285E-05 1.66581E-06 1.58223E-19-8.70786E-18
 -1      1402 1.04409E-04-3.17513E-05-3.10799E-05 4.26292E-06-3.69875E-19-6.45159E-18
 -1      1403 1.07301E-04-3.24380E-05-3.20720E-05 8.75428E-07 5.63806E-20-8.74894E-18
 -1      1404 1.08116E-04-3.26737E-05-3.23152E-05 6.84853E-07 4.41714E-20-8.64203E-18
 -1      1405 1.06376E-04-3.23798E-05-3.16536E-05 2.41286E-06 1.94685E-20-7.11643E-18
 -1      1406 1.08249E-04-3.26691E-05-3.23860E-05 2.41160E-08-2.29513E-19-8.67285E-18
 -1      1407 1.08269E-04-3.26457E-05-3.24023E-05-1.12840E-07-3.92673E-19-8.88285E-18
 -1      1408 1.07126E-04-3.25276E-05-3.19247E-05 6.65297E-07-2.93722E-19-7.19180E-18
 -1      1409 1.07957E-04-3.25131E-05-3.23332E-05-5.67241E-07 1.32006E-19-8.56118E-18
 -1      1410 1.07428E-04-3.23201E-05-3.21883E-05-6.47542E-07 9.05763E-20-8.34965E-18
 -1      1411 1.06866E-04-3.23263E-05-3.19163E-05-6.65537E-07-3.15030E-19-6.29122E-18
 -1      1412 1.06835E-04-3.21149E-05-3.20256E-05-9.00108E-07 1.21461E-19-7.90761E-18
 -1      1413 1.05999E-04-3.18338E-05-3.17877E-05-9.34512E-07 1.83743E-19-7.72608E-18
 -1      1414 1.05910E-04-3.19196E-05-3.16955E-05-1.50182E-06 2.93414E-19-6.66948E-18
 -1      1415 1.05268E-04-3.15993E-05-3.15754E-05-1.02836E-06 1.98776E-19-7.65675E-18
 -1      1416 1.04315E-04-3.12904E-05-3.13002E-05-1.03126E-06 3.24786E-19-7.16186E-18
 -1      1417 1.04563E-04-3.14225E-05-3.13423E-05-1.90608E-06 3.35558E-19-5.45672E-18
 -1      1418 1.03554E-04-3.10561E-05-3.10731E-05-1.01794E-06 2.63468E-19-6.92264E-18
 -1      1419 1.02614E-04-3.07581E-05-3.07990E-05-1.00216E-06-1.44908E-20-6.87544E-18
 -1      1420 1.03070E-04-3.09127E-05-3.09279E-05-1.99395E-06 3.29662E-19-4.96541E-18
 -1      1421 1.01893E-04-3.05418E-05-3.05804E-05-9.26433E-07-2.49076E-19-6.52962E-18
 -1      1422 1.01040E-04-3.02761E-05-3.03303E-05-9.01504E-07-9.45302E-21-6.64270E-18
 -1      1423 1.01601E-04-3.04365E-05-3.05059E-05-1.88110E-06-3.19817E-20-4.58889E-18
 -1      1424 1.00399E-04-3.00868E-05-3.01339E-05-7.96481E-07 8.82138E-20-7.07095E-18
 -1      1425 9.96682E-05-2.98622E-05-2.99187E-05-7.68703E-07 8.76017E-20-6.95244E-18
 -1      1426 1.00256E-04-3.00173E-05-3.01110E-05-1.66036E-06-2.26962E-19-4.42027E-18
 -1      1427 9.91227E-05-2.97032E-05-2.97507E-05-6.56220E-07-1.57714E-19-7.12741E-18
 -1      1428 9.85233E-05-2.95209E-05-2.95734E-05-6.29333E-07-4.34270E-20-6.98761E-18
 -1      1429 9.90889E-05-2.96635E-05-2.97625E-05-1.39694E-06-1.84321E-19-4.70739E-18
 -1      1430 9.80759E-05-2.93916E-05-2.94351E-05-5.22337E-07-3.15693E-20-7.03777E-18
 -1      1431 9.76011E-05-2.92486E-05-2.92942E-05-4.98294E-07-1.54883E-19-7.25741E-18
 -1      1432 9.81145E-05-2.93749E-05-2.94680E-05-1.13202E-06-6.46781E-20-4.75628E-18
 -1      1433 9.72451E-05-2.91464E-05-2.91839E-05-4.03461E-07 6.52327E-19-7.54951E-18
 -1      1434 9.68802E-05-2.90375E-05-2.90753E-05-3.83059E-07 8.00578E-19-6.95899E-18
 -1      1435 9.73271E-05-2.91460E-05-2.92276E-05-8.88782E-07 1.02215E-19-5.18783E-18
 -1      1436 9.66045E-05-2.89588E-05-2.89897E-05-3.02990E-07 2.61649E-19-6.61230E-18
 -1      1437 9.63321E-05-2.88782E-05-2.89084E-05-2.86338E-07 3.62356E-19-5.61922E-18
 -1      1438 9.67085E-05-2.89689E-05-2.90373E-05-6.78138E-07 9.65364E-19-4.71157E-18
 -1      1439 9.61242E-05-2.88191E-05-2.88438E-05-2.21181E-07 1.02484E-20-6.15457E-18
 -1      1440 9.59267E-05-2.87612E-05-2.87846E-05-2.08012E-07-4.12106E-19-6.44626E-18
 -1      1441 9.62351E-05-2.88354E-05-2.88905E-05-5.03268E-07 1.40133E-20-4.95768E-18
 -1      1442 9.57739E-05-2.87180E-05-2.87371E-05-1.56581E-07-7.56088E-19-6.14568E-18
 -1      1443 9.56352E-05-2.86778E-05-2.86954E-05-1.46450E-07-5.33060E-19-6.76683E-18
 -1      1444 9.58819E-05-2.87371E-05-2.87803E-05-3.62868E-07-8.91302E-19-5.03798E-18
 -1      1445 9.55261E-05-2.86470E-05-2.86615E-05-1.06934E-07-3.95354E-19-7.50611E-18
 -1      1446 9.54325E-05-2.86203E-05-2.86332E-05-9.93412E-08-5.51804E-19-8.03828E-18
 -1      1447 9.56255E-05-2.86667E-05-2.86996E-05-2.53311E-07-1.01215E-18-5.08730E-18
 -1      1448 9.53571E-05-2.85991E-05-2.86098E-05-6.97513E-08-6.64221E-19-8.43594E-18
 -1      1449 9.52969E-05-2.85822E-05-2.85915E-05-6.42079E-08-1.48355E-19-9.22876E-18
 -1      1450 9.54447E-05-2.86179E-05-2.86423E-05-1.70025E-07-8.22372E-19-6.00828E-18
 -1      1451 9.52469E-05-2.85683E-05-2.85759E-05-4.26217E-08-3.22613E-19-9.46224E-18
 -1      1452 9.52110E-05-2.85585E-05-2.85649E-05-3.86879E-08-4.67885E-19-1.02166E-17
 -1      1453 9.53217E-05-2.85854E-05-2.86030E-05-1.08309E-07-6.63058E-19-6.17410E-18
 -1      1454 9.51797E-05-2.85498E-05-2.85552E-05-2.33798E-08 2.36091E-19-9.71835E-18
 -1      1455 9.51609E-05-2.85450E-05-2.85493E-05-2.06783E-08 5.50302E-19-9.72858E-18
 -1      1456 9.52419E-05-2.85648E-05-2.85771E-05-6.37801E-08 1.60464E-19-5.81504E-18
 -1      1457 9.51430E-05-2.85401E-05-2.85437E-05-1.01724E-08 5.12736E-19-9.95036E-18
 -1      1458 9.51357E-05-2.85387E-05-2.85413E-05-8.39126E-09 6.75343E-19-8.87500E-18
 -1      1459 9.51935E-05-2.85528E-05-2.85611E-05-3.25922E-08 8.16157E-19-6.23709E-18
 -1      1460 9.51271E-05-2.85363E-05-2.85386E-05-1.46960E-09 1.23377E-18-8.47464E-18
 -1      1461 9.51274E-05-2.85370E-05-2.85385E-05-3.58605E-10 9.57216E-19-7.11799E-18
 -1      1462 9.51672E-05-2.85468E-05-2.85522E-05-1.15076E-08 1.39660E-18-6.33060E-18
 -1      1463 9.51250E-05-2.85364E-05-2.85378E-05 3.95510E-09-4.27724E-19-6.67320E-18
 -1      1464 9.51299E-05-2.85383E-05-2.85391E-05 4.59170E-09-1.55436E-19-7.22858E-18
 -1      1465 9.51562E-05-2.85448E-05-2.85481E-05 2.11162E-09 3.53666E-19-6.25933E-18
 -1      1466 9.51315E-05-2.85389E-05-2.85396E-05 7.05997E-09-7.93034E-19-7.11949E-18
 -1      1467 9.51390E-05-2.85414E-05-2.85417E-05 7.37158E-09-1.29747E-18-8.91880E-18
 -1      1468 9.51552E-05-2.85455E-05-2.85472E-05 1.03571E-08-1.05426E-18-5.88425E-18
 -1      1469 9.51429E-05-2.85426E-05-2.85429E-05 8.57511E-09-7.15494E-19-8.82782E-18
 -1      1470 9.51515E-05-2.85454E-05-2.85454E-05 8.67288E-09-5.25145E-19-9.77666E-18
 -1      1471 9.51604E-05-2.85477E-05-2.85484E-05 1.48455E-08-1.06967E-18-5.63560E-18
 -1      1472 9.51567E-05-2.85470E-05-2.85470E-05 9.04176E-09 3.97993E-19-9.85085E-18
 -1      1473 9.51656E-05-2.85498E-05-2.85495E-05 9.00579E-09 2.63294E-19-9.17394E-18
 -1      1474 9.51692E-05-2.85507E-05-2.85508E-05 1.67942E-08-4.92176E-19-6.02955E-18
 -1      1475 9.51712E-05-2.85514E-05-2.85513E-05 8.84721E-09 6.41327E-19-7.87721E-18
 -1      1476 9.51797E-05-2.85541E-05-2.85538E-05 8.73262E-09 9.44851E-19-6.58743E-18
 -1      1477 9.51797E-05-2.85541E-05-2.85538E-05 1.70923E-08 1.47186E-18-6.09568E-18
 -1      1478 9.51854E-05-2.85558E-05-2.85555E-05 8.25369E-09 5.39986E-19-4.56491E-18
 -1      1479 9.51933E-05-2.85582E-05-2.85578E-05 8.09526E-09 8.90718E-19-3.90951E-18
 -1      1480 9.51907E-05-2.85576E-05-2.85570E-05 1.63606E-08 2.15297E-18-3.56800E-18
 -1      1481 9.51986E-05-2.85598E-05-2.85595E-05 7.42017E-09 1.20800E-18-3.59157E-18
 -1      1482 9.52056E-05-2.85620E-05-2.85615E-05 7.23537E-09 1.45763E-18-1.94267E-18
 -1      1483 9.52014E-05-2.85608E-05-2.85602E-05 1.50008E-08 2.48157E-18-1.56360E-18
 -1      1484 9.52104E-05-2.85634E-05-2.85630E-05 6.41704E-09 1.29450E-18-1.12518E-18
 -1      1485 9.52164E-05-2.85652E-05-2.85648E-05 6.20731E-09 4.66473E-19-2.79646E-19
 -1      1486 9.52113E-05-2.85639E-05-2.85631E-05 1.32297E-08 2.24449E-18 1.23056E-19
 -1      1487 9.52205E-05-2.85664E-05-2.85660E-05 5.23437E-09-4.65645E-19-5.53096E-19
 -1      1488 9.52253E-05-2.85680E-05-2.85674E-05 4.98390E-09 5.61020E-20-2.70381E-19
 -1      1489 9.52199E-05-2.85665E-05-2.85657E-05 1.11040E-08 3.40305E-19 1.04412E-18
 -1      1490 9.52285E-05-2.85689E-05-2.85684E-05 3.79760E-09 9.72501E-19-3.49124E-19
 -1      1491 9.52319E-05-2.85700E-05-2.85693E-05 3.47084E-09 5.74859E-19 1.03008E-18
 -1      1492 9.52271E-05-2.85688E-05-2.85677E-05 8.53909E-09 5.27373E-19 6.27198E-19
 -1      1493 9.52342E-05-2.85708E-05-2.85700E-05 2.00050E-09-4.04423E-20 1.21392E-18
 -1      1494 9.52358E-05-2.85712E-05-2.85705E-05 1.59416E-09-3.22952E-19 1.51765E-18
 -1      1495 9.52325E-05-2.85707E-05-2.85693E-05 5.42200E-09 6.25439E-19 1.09179E-18
 -1      1496 9.52372E-05-2.85713E-05-2.85711E-05-8.59431E-11-1.44232E-18 2.18840E-18
 -1      1497 9.52364E-05-2.85717E-05-2.85705E-05 1.52201E-09-1.31443E-18 1.34300E-18
 -1      1498 1.10119E-04-3.24753E-05-3.37649E-05 1.05832E-06 2.15639E-18 2.11412E-17
 -1      1499 1.13822E-04-3.27554E-05-3.55414E-05 2.42879E-06 1.83129E-18 2.44109E-17
 -1      1500 1.13267E-04-3.02394E-05-3.59448E-05 9.09436E-06 3.53949E-18 1.63304E-17
 -1      1501 1.09216E-04-3.25827E-05-3.29002E-05-7.57996E-07 1.56275E-18 1.69710E-17
 -1      1502 1.09059E-04-3.20903E-05-3.31781E-05-4.09642E-07 1.53321E-18 1.94510E-17
 -1      1503 1.10259E-04-3.22201E-05-3.36602E-05 1.25569E-06 3.21640E-18 1.33485E-17
 -1      1504 1.11204E-04-3.32970E-05-3.33678E-05-1.66070E-06 8.98398E-19 1.41426E-17
 -1      1505 1.09674E-04-3.26428E-05-3.29983E-05-1.43886E-06 9.79885E-19 1.57857E-17
 -1      1506 1.09964E-04-3.26363E-05-3.32039E-05-1.85050E-06 2.31572E-18 1.08484E-17
 -1      1507 1.14578E-04-3.43878E-05-3.43360E-05-2.03494E-06 7.51917E-19 1.23323E-17
 -1      1508 1.12453E-04-3.36371E-05-3.37381E-05-1.91478E-06 6.50134E-19 1.34648E-17
 -1      1509 1.11746E-04-3.33840E-05-3.36086E-05-3.27388E-06 1.47053E-18 9.12613E-18
 -1      1510 1.18205E-04-3.55871E-05-3.53552E-05-1.86651E-06 3.39923E-19 1.12286E-17
 -1      1511 1.16082E-04-3.48788E-05-3.47682E-05-1.88824E-06 3.69636E-19 1.17847E-17
 -1      1512 1.14513E-04-3.44153E-05-3.43270E-05-3.63298E-06 9.82121E-19 8.23672E-18
 -1      1513 1.20827E-04-3.65296E-05-3.60288E-05-9.74821E-07 2.38460E-19 1.08671E-17
 -1      1514 1.19438E-04-3.60984E-05-3.56786E-05-1.21373E-06 1.28100E-19 1.10036E-17
 -1      1515 1.17302E-04-3.55293E-05-3.49990E-05-2.81229E-06 3.68023E-19 7.66957E-18
 -1      1516 1.20951E-04-3.67200E-05-3.59477E-05 7.67879E-07 3.21912E-19 1.05971E-17
 -1      1517 1.21189E-04-3.68778E-05-3.60746E-05 2.51719E-07 2.60291E-19 1.08644E-17
 -1      1518 1.19043E-04-3.63954E-05-3.53092E-05-5.42118E-07 3.33175E-19 7.56792E-18
 -1      1519 1.17250E-04-3.56346E-05-3.48171E-05 3.12054E-06 2.59377E-19 9.92712E-18
 -1      1520 1.19884E-04-3.66603E-05-3.55900E-05 2.38252E-06 2.60714E-19 1.03956E-17
 -1      1521 1.18587E-04-3.65302E-05-3.50025E-05 3.11885E-06 4.99458E-19 7.58571E-18
 -1      1522 1.09543E-04-3.30625E-05-3.27172E-05 5.14131E-06 7.86920E-19 8.66303E-18
 -1      1523 1.14574E-04-3.49480E-05-3.40675E-05 4.46449E-06 6.06595E-19 9.44267E-18
 -1      1524 1.15123E-04-3.54022E-05-3.40123E-05 7.18676E-06 8.30741E-19 7.08834E-18
 -1      1525 9.99820E-05-2.96630E-05-3.02896E-05 5.33104E-06 6.93733E-19 7.13456E-18
 -1      1526 1.05941E-04-3.18151E-05-3.17977E-05 5.17469E-06 6.72806E-19 7.95978E-18
 -1      1527 1.09012E-04-3.28569E-05-3.25957E-05 9.47156E-06 1.16569E-18 6.14679E-18
 -1      1528 9.28997E-05-2.70353E-05-2.85898E-05 2.78089E-06 5.34676E-19 5.20184E-18
 -1      1529 9.70686E-05-2.83901E-05-2.95916E-05 3.43438E-06 6.58886E-19 5.99297E-18
 -1      1530 1.02517E-04-2.97623E-05-3.13104E-05 7.66209E-06 1.25660E-18 4.98849E-18
 -1      1531 9.25187E-05-2.68986E-05-2.84856E-05-1.54847E-06 4.24324E-19 4.29642E-18
 -1      1532 9.24415E-05-2.65691E-05-2.84619E-05-3.80193E-07 2.23590E-19 4.49875E-18
 -1      1533 9.90980E-05-2.78751E-05-3.07561E-05 1.53945E-06 7.74850E-19 2.72368E-18
 -1      1534 9.88088E-05-2.92347E-05-2.99866E-05-4.90602E-06 6.75860E-19 2.88182E-18
 -1      1535 9.47383E-05-2.74963E-05-2.89840E-05-3.98283E-06 6.85858E-19 3.55394E-18
 -1      1536 1.00941E-04-2.86889E-05-3.11821E-05-5.55877E-06 1.14463E-18 1.37423E-18
 -1      1537 1.08936E-04-3.28535E-05-3.25238E-05-5.89237E-06 8.50743E-19 9.88276E-19
 -1      1538 1.02622E-04-3.05288E-05-3.09233E-05-5.55002E-06 9.46622E-19 2.30944E-18
 -1      1539 1.06956E-04-3.15383E-05-3.24230E-05-9.69928E-06 1.63269E-18 3.31137E-20
 -1      1540 1.18061E-04-3.58972E-05-3.49892E-05-4.43063E-06 4.91220E-19-7.72918E-19
 -1      1541 1.12458E-04-3.40741E-05-3.34939E-05-4.69741E-06 6.04332E-19 1.88888E-19
 -1      1542 1.14154E-04-3.48203E-05-3.40044E-05-9.42362E-06 1.51592E-18-1.07319E-18
 -1      1543 1.23340E-04-3.74769E-05-3.65809E-05-2.00465E-06 7.77285E-20-1.17748E-18
 -1      1544 1.20102E-04-3.66051E-05-3.56498E-05-2.52278E-06 1.25546E-19-1.22195E-18
 -1      1545 1.19389E-04-3.68821E-05-3.53149E-05-5.96799E-06 5.72885E-19-2.29588E-18
 -1      1546 1.24460E-04-3.76557E-05-3.70653E-05 1.23366E-07-3.13627E-19-7.87453E-19
 -1      1547 1.23729E-04-3.76283E-05-3.67995E-05-3.48796E-07 4.52501E-20-6.08514E-19
 -1      1548 1.21471E-04-3.74059E-05-3.59765E-05-1.81148E-06 3.07446E-20-1.96536E-18
 -1      1549 1.22537E-04-3.69109E-05-3.66426E-05 1.45854E-06 7.61436E-20-4.80824E-19
 -1      1550 1.23607E-04-3.74069E-05-3.68960E-05 1.14977E-06-2.91988E-19-8.33593E-19
 -1      1551 1.20759E-04-3.68414E-05-3.59268E-05 1.41678E-06-3.41063E-19-1.53322E-18
 -1      1552 1.18970E-04-3.57228E-05-3.56760E-05 2.04975E-06 2.04378E-19-1.05959E-18
 -1      1553 1.20985E-04-3.64450E-05-3.62253E-05 1.89833E-06 3.13769E-19-6.07137E-19
 -1      1554 1.18236E-04-3.57450E-05-3.53310E-05 3.26242E-06 5.18609E-19-1.71889E-18
 -1      1555 1.14854E-04-3.44244E-05-3.44936E-05 2.13910E-06 2.59481E-19-2.19053E-18
 -1      1556 1.17161E-04-3.51785E-05-3.51497E-05 2.09588E-06 2.23560E-19-1.42942E-18
 -1      1557 1.14860E-04-3.45022E-05-3.44285E-05 3.95504E-06 6.49795E-19-2.21844E-18
 -1      1558 1.10866E-04-3.32019E-05-3.33150E-05 1.95835E-06-3.09862E-21-2.11058E-18
 -1      1559 1.13075E-04-3.38876E-05-3.39573E-05 1.97566E-06 2.85022E-20-2.05638E-18
 -1      1560 1.11319E-04-3.33171E-05-3.34258E-05 3.91293E-06 7.08563E-20-2.07968E-18
 -1      1561 1.07339E-04-3.21393E-05-3.22570E-05 1.66668E-06-4.07496E-19-1.21197E-18
 -1      1562 1.09267E-04-3.27178E-05-3.28248E-05 1.71143E-06-2.07786E-19-1.59541E-18
 -1      1563 1.08016E-04-3.22768E-05-3.24597E-05 3.49470E-06-3.55481E-19-9.55592E-19
 -1      1564 1.04390E-04-3.12598E-05-3.13649E-05 1.35496E-06 6.03532E-19-1.70850E-18
 -1      1565 1.05982E-04-3.17263E-05-3.18373E-05 1.40789E-06 6.43166E-20-1.34231E-18
 -1      1566 1.05141E-04-3.14063E-05-3.16023E-05 2.93691E-06 6.46789E-20-1.08534E-18
 -1      1567 1.02014E-04-3.05561E-05-3.06431E-05 1.06746E-06 5.63542E-20-2.63931E-18
 -1      1568 1.03281E-04-3.09206E-05-3.10208E-05 1.11875E-06 5.01109E-19-1.65609E-18
 -1      1569 1.02749E-04-3.07004E-05-3.08805E-05 2.37160E-06 6.15144E-19-1.30633E-18
 -1      1570 1.00152E-04-3.00067E-05-3.00758E-05 8.21353E-07-4.11952E-19-2.26780E-18
 -1      1571 1.01134E-04-3.02850E-05-3.03693E-05 8.66727E-07-6.93558E-19-2.93439E-18
 -1      1572 1.00822E-04-3.01412E-05-3.02945E-05 1.86140E-06-2.57357E-19-1.83523E-18
 -1      1573 9.87233E-05-2.95864E-05-2.96398E-05 6.19751E-07-3.37781E-19-8.28509E-19
 -1      1574 9.94677E-05-2.97949E-05-2.98630E-05 6.57909E-07-6.91631E-20-1.35982E-18
 -1      1575 9.93071E-05-2.97066E-05-2.98315E-05 1.42900E-06-7.15298E-19-4.21641E-19
 -1      1576 9.76470E-05-2.92705E-05-2.93110E-05 4.59312E-07-1.03131E-18 1.73574E-19
 -1      1577 9.82013E-05-2.94240E-05-2.94776E-05 4.90389E-07-7.16855E-19-1.00867E-18
 -1      1578 9.81399E-05-2.93745E-05-2.94734E-05 1.07647E-06-9.24455E-19 1.58442E-19
 -1      1579 9.68507E-05-2.90374E-05-2.90676E-05 3.34286E-07-6.81266E-19 1.52896E-18
 -1      1580 9.72560E-05-2.91482E-05-2.91896E-05 3.59035E-07-1.23419E-18-1.05134E-19
 -1      1581 9.72566E-05-2.91249E-05-2.92016E-05 7.96575E-07-1.71654E-18 2.31023E-19
 -1      1582 9.62722E-05-2.88684E-05-2.88906E-05 2.38503E-07 3.48468E-19 1.48180E-18
 -1      1583 9.65629E-05-2.89468E-05-2.89783E-05 2.57869E-07 6.65732E-19 2.21653E-18
 -1      1584 9.65998E-05-2.89404E-05-2.89989E-05 5.78733E-07-5.09998E-20 2.38053E-19
 -1      1585 9.58605E-05-2.87484E-05-2.87645E-05 1.66242E-07 1.03806E-18-2.09874E-19
 -1      1586 9.60644E-05-2.88025E-05-2.88261E-05 1.81168E-07 6.41844E-19 1.45689E-18
 -1      1587 9.61202E-05-2.88064E-05-2.88504E-05 4.11988E-07 7.60253E-19 1.07091E-18
 -1      1588 9.55744E-05-2.86653E-05-2.86767E-05 1.12553E-07-2.68645E-19-9.85060E-19
 -1      1589 9.57137E-05-2.87015E-05-2.87189E-05 1.23892E-07 4.51752E-19-2.12680E-19
 -1      1590 9.57769E-05-2.87113E-05-2.87438E-05 2.86308E-07 9.06330E-19 8.71495E-19
 -1      1591 9.53817E-05-2.86095E-05-2.86175E-05 7.33104E-08 8.88953E-19-1.01928E-18
 -1      1592 9.54735E-05-2.86328E-05-2.86454E-05 8.17966E-08 1.78908E-19-8.67408E-19
 -1      1593 9.55370E-05-2.86453E-05-2.86690E-05 1.93039E-07 2.88072E-19-9.25474E-19
 -1      1594 9.52571E-05-2.85737E-05-2.85791E-05 4.51515E-08 1.34082E-18-3.63315E-18
 -1      1595 9.53146E-05-2.85877E-05-2.85967E-05 5.14023E-08 1.61584E-18-1.68829E-18
 -1      1596 9.53742E-05-2.86010E-05-2.86179E-05 1.24971E-07 2.09478E-18-2.15840E-19
 -1      1597 9.51813E-05-2.85521E-05-2.85556E-05 2.53826E-08-8.58434E-19-3.19589E-18
 -1      1598 9.52146E-05-2.85596E-05-2.85659E-05 2.99052E-08-4.28340E-19-3.82222E-18
 -1      1599 9.52679E-05-2.85726E-05-2.85844E-05 7.62309E-08-2.52613E-20-1.24389E-18
 -1      1600 9.51395E-05-2.85404E-05-2.85425E-05 1.18738E-08-3.39233E-19-2.57771E-18
 -1      1601 9.51562E-05-2.85435E-05-2.85478E-05 1.50784E-08-6.68985E-19-3.75641E-18
 -1      1602 9.52023E-05-2.85555E-05-2.85635E-05 4.21067E-08-3.94954E-19-3.52477E-18
 -1      1603 9.51210E-05-2.85354E-05-2.85366E-05 2.96093E-09-2.96692E-19-2.19842E-18
 -1      1604 9.51266E-05-2.85357E-05-2.85385E-05 5.17560E-09 1.45989E-19-1.53295E-18
 -1      1605 9.51654E-05-2.85462E-05-2.85515E-05 1.88736E-08-7.26906E-19-1.82396E-18
 -1      1606 9.51177E-05-2.85348E-05-2.85354E-05-2.64022E-09-3.11441E-19-2.06424E-18
 -1      1607 9.51162E-05-2.85334E-05-2.85351E-05-1.15677E-09-4.44914E-20-2.50153E-18
 -1      1608 9.51482E-05-2.85424E-05-2.85456E-05 3.62160E-09-1.41782E-19-1.25556E-18
 -1      1609 9.51239E-05-2.85369E-05-2.85371E-05-5.90796E-09 1.02464E-18-2.51763E-18
 -1      1610 9.51181E-05-2.85346E-05-2.85355E-05-4.95420E-09 3.71829E-19-1.57179E-18
 -1      1611 9.51439E-05-2.85420E-05-2.85439E-05-5.89335E-09 2.76108E-19-1.86730E-18
 -1      1612 9.51355E-05-2.85406E-05-2.85405E-05-7.57636E-09 5.63161E-19-4.18132E-18
 -1      1613 9.51275E-05-2.85378E-05-2.85382E-05-6.99759E-09 9.46170E-19-3.17536E-18
 -1      1614 9.51478E-05-2.85438E-05-2.85447E-05-1.13781E-08 1.66191E-18-2.31505E-18
 -1      1615 9.51499E-05-2.85450E-05-2.85448E-05-8.18607E-09-4.00948E-19-4.69195E-18
 -1      1616 9.51409E-05-2.85421E-05-2.85422E-05-7.86555E-09 4.02071E-20-4.68402E-18
 -1      1617 9.51566E-05-2.85469E-05-2.85471E-05-1.41102E-08 6.51504E-19-2.84686E-18
 -1      1618 9.51651E-05-2.85497E-05-2.85494E-05-8.12519E-09-8.58034E-19-2.81558E-18
 -1      1619 9.51561E-05-2.85468E-05-2.85467E-05-7.97692E-09-9.96309E-19-3.95033E-18
 -1      1620 9.51678E-05-2.85505E-05-2.85504E-05-1.50261E-08-1.07927E-18-2.28692E-18
 -1      1621 9.51801E-05-2.85542E-05-2.85539E-05-7.66131E-09-1.30263E-18-5.86373E-19
 -1      1622 9.51715E-05-2.85515E-05-2.85513E-05-7.62438E-09-1.19860E-18-2.29127E-18
 -1      1623 9.51800E-05-2.85543E-05-2.85539E-05-1.47925E-08-2.03153E-18-1.50745E-18
 -1      1624 9.51941E-05-2.85584E-05-2.85581E-05-6.96526E-09 8.12645E-19-7.21961E-19
 -1      1625 9.51862E-05-2.85560E-05-2.85557E-05-6.99986E-09 4.34937E-19-3.63355E-19
 -1      1626 9.51920E-05-2.85580E-05-2.85575E-05-1.38612E-08-3.27081E-19-1.98193E-18
 -1      1627 9.52068E-05-2.85622E-05-2.85619E-05-6.12651E-09-5.37054E-19-5.75591E-19
 -1      1628 9.51997E-05-2.85601E-05-2.85598E-05-6.21210E-09-1.89915E-19-6.63136E-19
 -1      1629 9.52034E-05-2.85614E-05-2.85609E-05-1.25090E-08-6.35771E-20-1.94255E-19
 -1      1630 9.52177E-05-2.85655E-05-2.85651E-05-5.16188E-09 1.99139E-19-7.53087E-19
 -1      1631 9.52117E-05-2.85637E-05-2.85634E-05-5.29700E-09-3.44373E-19-6.86938E-19
 -1      1632 9.52135E-05-2.85645E-05-2.85639E-05-1.08634E-08-2.48479E-19 4.47403E-19
 -1      1633 9.52265E-05-2.85682E-05-2.85678E-05-4.02207E-09-1.01477E-18-3.09565E-19
 -1      1634 9.52217E-05-2.85668E-05-2.85664E-05-4.22590E-09-1.68490E-19 1.36144E-19
 -1      1635 9.52222E-05-2.85671E-05-2.85664E-05-8.92016E-09-3.51206E-19 1.85234E-18
 -1      1636 9.52329E-05-2.85702E-05-2.85696E-05-2.59264E-09-1.28102E-18 3.62813E-18
 -1      1637 9.52296E-05-2.85692E-05-2.85687E-05-2.91856E-09-1.30129E-18 2.67053E-19
 -1      1638 9.52291E-05-2.85693E-05-2.85684E-05-6.56688E-09-2.08805E-18 2.44643E-18
 -1      1639 9.52364E-05-2.85712E-05-2.85708E-05-9.02224E-10-5.95935E-19 4.04539E-18
 -1      1640 9.52349E-05-2.85709E-05-2.85702E-05-1.32725E-09-4.19644E-19 3.32020E-18
 -1      1641 9.52340E-05-2.85709E-05-2.85698E-05-3.66706E-09-1.08410E-18-3.60525E-19
 -1      1642 9.52371E-05-2.85713E-05-2.85711E-05-2.09692E-11 2.83171E-18 2.98510E-18
 -1      1643 9.52376E-05-2.85742E-05-2.85700E-05-2.07552E-09-1.04400E-19-1.37219E-18
 -1      1644 9.52371E-05-2.85726E-05-2.85705E-05-1.63274E-09 3.10000E-18-6.66735E-19
 -1      1645 9.52394E-05-2.85794E-05-2.85685E-05-3.55248E-09 2.64265E-19 1.71795E-19
 -1      1646 9.52383E-05-2.85763E-05-2.85694E-05-3.30701E-09 6.38826E-19-8.62496E-19
 -1      1647 9.52377E-05-2.85758E-05-2.85693E-05-5.24656E-09-4.70466E-19-2.04944E-18
 -1      1648 9.52416E-05-2.85861E-05-2.85666E-05-4.28550E-09-9.52240E-22-2.02142E-19
 -1      1649 9.52403E-05-2.85822E-05-2.85677E-05-4.20471E-09 8.04190E-19 5.74798E-19
 -1      1650 9.52396E-05-2.85808E-05-2.85680E-05-7.49735E-09 1.34719E-18 1.30529E-19
 -1      1651 9.52438E-05-2.85930E-05-2.85646E-05-4.28290E-09-3.50443E-18-3.02857E-18
 -1      1652 9.52425E-05-2.85891E-05-2.85658E-05-4.34251E-09-3.36618E-19-5.95903E-19
 -1      1653 9.52417E-05-2.85866E-05-2.85665E-05-8.32535E-09-4.17542E-19-1.57804E-18
 -1      1654 9.52458E-05-2.85992E-05-2.85628E-05-3.69014E-09-5.73104E-18-5.96413E-19
 -1      1655 9.52447E-05-2.85958E-05-2.85638E-05-3.84949E-09-3.86444E-18-2.54900E-18
 -1      1656 9.52437E-05-2.85923E-05-2.85649E-05-7.84669E-09-1.57677E-18-4.67885E-18
 -1      1657 9.52474E-05-2.86041E-05-2.85614E-05-2.64300E-09-1.52949E-18 2.71825E-18
 -1      1658 9.52465E-05-2.86015E-05-2.85622E-05-2.87842E-09-5.11648E-18 2.31884E-18
 -1      1659 9.52455E-05-2.85973E-05-2.85636E-05-6.34104E-09-1.17984E-18 1.02371E-18
 -1      1660 9.52482E-05-2.86068E-05-2.85606E-05-1.30619E-09-1.19708E-18 2.84781E-20
 -1      1661 9.52478E-05-2.86055E-05-2.85610E-05-1.58371E-09-1.26450E-18 9.09621E-19
 -1      1662 9.52467E-05-2.86010E-05-2.85625E-05-4.08223E-09-4.86895E-19 1.75259E-18
 -1      1663 9.52484E-05-2.86073E-05-2.85605E-05 1.64865E-10-5.96760E-19-2.19638E-19
 -1      1664 9.52484E-05-2.86073E-05-2.85605E-05-1.26090E-10-8.74580E-20 2.50579E-19
 -1      1665 9.52473E-05-2.86029E-05-2.85620E-05-1.38363E-09 4.38176E-19 3.21509E-19
 -1      1666 9.52478E-05-2.86054E-05-2.85610E-05 1.61842E-09-9.20988E-19 1.23330E-20
 -1      1667 9.52482E-05-2.86068E-05-2.85606E-05 1.34235E-09-3.77618E-19 6.87746E-19
 -1      1668 9.52473E-05-2.86029E-05-2.85620E-05 1.45629E-09 1.29869E-19-3.20110E-19
 -1      1669 9.52465E-05-2.86014E-05-2.85622E-05 2.90300E-09-3.62609E-18-2.32270E-18
 -1      1670 9.52473E-05-2.86040E-05-2.85615E-05 2.67073E-09-6.77937E-19-2.05296E-18
 -1      1671 9.52467E-05-2.86009E-05-2.85626E-05 4.14312E-09-6.30809E-19-1.40711E-18
 -1      1672 9.52447E-05-2.85957E-05-2.85638E-05 3.85168E-09-5.61584E-18-2.19382E-19
 -1      1673 9.52458E-05-2.85991E-05-2.85629E-05 3.69591E-09-3.64198E-18-2.08680E-18
 -1      1674 9.52454E-05-2.85972E-05-2.85636E-05 6.36668E-09-1.49239E-18-3.41531E-18
 -1      1675 9.52425E-05-2.85889E-05-2.85658E-05 4.33867E-09-4.09833E-18 2.34035E-19
 -1      1676 9.52438E-05-2.85929E-05-2.85647E-05 4.28235E-09-5.83495E-18 2.08670E-18
 -1      1677 9.52437E-05-2.85922E-05-2.85650E-05 7.84990E-09-1.18077E-18 8.96326E-19
 -1      1678 9.52402E-05-2.85821E-05-2.85678E-05 4.19697E-09-5.06738E-18 8.32501E-19
 -1      1679 9.52415E-05-2.85859E-05-2.85667E-05 4.27067E-09-5.10373E-18 8.10532E-19
 -1      1680 9.52417E-05-2.85865E-05-2.85665E-05 8.30736E-09-2.58010E-18 5.30031E-19
 -1      1681 9.52383E-05-2.85763E-05-2.85694E-05 3.28670E-09-5.48821E-18-3.54990E-19
 -1      1682 9.52393E-05-2.85793E-05-2.85686E-05 3.53535E-09-5.08256E-18 9.12547E-20
 -1      1683 9.52396E-05-2.85807E-05-2.85681E-05 7.45271E-09-2.85742E-18-1.81582E-19
 -1      1684 9.52370E-05-2.85730E-05-2.85703E-05 2.42339E-09-1.39220E-18 1.81081E-18
 -1      1685 9.52375E-05-2.85746E-05-2.85698E-05 3.06581E-09-3.32255E-18 1.56080E-18
 -1      1686 9.52376E-05-2.85762E-05-2.85691E-05 6.18486E-09-9.69186E-19 2.08832E-18
 -1      1687 9.52355E-05-2.85730E-05-2.85697E-05 4.76896E-09 6.44013E-19 1.08954E-18
 -1      1688 2.03097E-05-6.76481E-05 1.43899E-05-7.47679E-06 1.35889E-17 7.12482E-18
 -1      1689 2.33142E-05-7.59688E-05 1.61386E-05 1.08902E-06 6.19414E-18 4.01578E-18
 -1      1690 2.06729E-05-4.25430E-05 5.13869E-06 2.45660E-06 2.11877E-17 1.27748E-17
 -1      1691 2.46307E-05-6.24265E-05 1.04851E-05 6.66470E-08 1.51331E-17 9.09184E-18
 -1      1692 3.20305E-05-1.66697E-05-9.06109E-06 2.24724E-05 2.50595E-17 1.82921E-17
 -1      1693 2.85410E-05-3.75772E-05-9.61133E-07 7.39231E-06 2.33578E-17 1.38769E-17
 -1      1694 6.95222E-05-4.78090E-06-2.76306E-05 5.34011E-05 2.18128E-17 2.03906E-17
 -1      1695 4.80703E-05-1.35388E-05-1.77089E-05 3.06215E-05 2.42556E-17 1.84382E-17
 -1      1696 1.29866E-04-1.39027E-05-4.68596E-05 7.54145E-05 1.53025E-17 1.75742E-17
 -1      1697 9.03231E-05-4.28603E-06-3.71061E-05 5.98284E-05 2.11589E-17 2.00959E-17
 -1      1698 2.00475E-04-4.07918E-05-6.32579E-05 6.63419E-05 8.20097E-18 1.04456E-17
 -1      1699 1.55822E-04-2.08861E-05-5.52143E-05 7.06717E-05 1.25357E-17 1.51094E-17
 -1      1700 2.51341E-04-6.25844E-05-7.39153E-05 3.51544E-05 4.86705E-18 5.80218E-19
 -1      1701 2.21157E-04-4.63913E-05-6.95548E-05 6.04776E-05 6.94906E-18 7.86216E-18
 -1      1702 2.58656E-04-6.49173E-05-7.61870E-05-1.63894E-05 6.59648E-18-1.30231E-17
 -1      1703 2.57563E-04-6.43811E-05-7.59730E-05 1.94616E-05 5.41551E-18-3.62445E-18
 -1      1704 2.23026E-04-4.69402E-05-6.99848E-05-5.88446E-05 1.18853E-17-2.45538E-17
 -1      1705 2.51738E-04-6.26069E-05-7.42164E-05-3.21459E-05 7.87127E-18-1.69491E-17
 -1      1706 1.59279E-04-2.01213E-05-5.65670E-05-7.63442E-05 1.95326E-17-3.13826E-17
 -1      1707 2.04686E-04-4.11830E-05-6.43940E-05-7.08102E-05 1.41730E-17-2.81046E-17
 -1      1708 9.14734E-05-3.57114E-06-3.78049E-05-6.12742E-05 2.54881E-17-3.00900E-17
 -1      1709 1.33273E-04-1.37133E-05-4.79378E-05-7.78157E-05 2.18721E-17-3.21983E-17
 -1      1710 4.75043E-05-1.55881E-05-1.68324E-05-2.92179E-05 2.51577E-17-2.18933E-17
 -1      1711 7.03664E-05-5.45354E-06-2.76522E-05-5.41797E-05 2.54347E-17-2.75235E-17
 -1      1712 2.57469E-05-4.19893E-05 1.33975E-06-3.13716E-06 1.98892E-17-1.37160E-17
 -1      1713 2.73746E-05-1.75642E-05-7.24385E-06-1.87448E-05 2.54500E-17-2.00044E-17
 -1      1714 2.41344E-05-6.81474E-05 1.22260E-05 3.30132E-06 8.52285E-18-7.16706E-18
 -1      1715 1.89474E-05-4.89126E-05 7.57017E-06 3.66155E-06 1.67950E-17-1.11977E-17
 -1      1716 2.38128E-05-7.77660E-05 1.62881E-05-2.13793E-06-5.60394E-18-5.51143E-18
 -1      1717 2.18176E-05-7.24878E-05 1.51560E-05 7.43470E-06 4.57144E-18-5.88010E-18
 -1      1718 1.93527E-05-6.14788E-05 1.23078E-05-5.68308E-06-1.90676E-17-9.13080E-18
 -1      1719 2.42260E-05-7.60143E-05 1.53497E-05 9.23555E-07-9.78768E-18-6.16216E-18
 -1      1720 2.31807E-05-3.02773E-05-3.20036E-07 1.15875E-05-2.60649E-17-1.66234E-17
 -1      1721 2.56295E-05-5.42220E-05 6.83484E-06 3.42199E-06-2.05245E-17-1.11765E-17
 -1      1722 4.40376E-05-5.70423E-06-1.74881E-05 3.87072E-05-2.89524E-17-2.37703E-17
 -1      1723 3.34167E-05-2.35709E-05-8.06670E-06 1.80563E-05-2.85476E-17-1.88702E-17
 -1      1724 9.63521E-05-5.68095E-06-3.71825E-05 6.74892E-05-2.38330E-17-2.75836E-17
 -1      1725 6.53789E-05-5.75890E-06-2.69627E-05 4.61168E-05-2.73880E-17-2.50950E-17
 -1      1726 1.59809E-04-2.23768E-05-5.48719E-05 7.86440E-05-1.75789E-17-2.65553E-17
 -1      1727 1.17275E-04-6.07846E-06-4.63098E-05 7.23368E-05-2.26395E-17-2.85772E-17
 -1      1728 2.22018E-04-4.97996E-05-6.83017E-05 5.16242E-05-9.66147E-18-1.58903E-17
 -1      1729 1.81987E-04-2.95204E-05-6.17823E-05 6.81676E-05-1.48671E-17-2.25539E-17
 -1      1730 2.53796E-04-6.41135E-05-7.48012E-05 7.85970E-06-6.08911E-18-4.37111E-18
 -1      1731 2.37948E-04-5.53239E-05-7.27383E-05 4.02899E-05-7.50535E-18-1.31201E-17
 -1      1732 2.38920E-04-5.56790E-05-7.26277E-05-4.37270E-05-6.78219E-18 8.65964E-18
 -1      1733 2.56268E-04-6.56536E-05-7.50014E-05-9.09403E-06-5.38522E-18-4.92973E-19
 -1      1734 1.78467E-04-2.78717E-05-6.09322E-05-7.06917E-05-1.24452E-17 1.80113E-17
 -1      1735 2.20698E-04-4.91322E-05-6.77780E-05-5.55523E-05-7.99499E-18 1.17517E-17
 -1      1736 1.09201E-04-4.11216E-06-4.39651E-05-7.04212E-05-1.89295E-17 2.34111E-17
 -1      1737 1.53691E-04-2.00034E-05-5.33270E-05-7.95792E-05-1.46130E-17 2.19576E-17
 -1      1738 5.56391E-05-3.57201E-06-2.40671E-05-4.25361E-05-2.12825E-17 1.97748E-17
 -1      1739 8.43462E-05-6.35498E-07-3.44308E-05-6.58667E-05-1.99561E-17 2.37830E-17
 -1      1740 3.20957E-05-2.91288E-05-5.37501E-06-1.45969E-05-1.65121E-17 1.24836E-17
 -1      1741 4.05316E-05-9.59697E-06-1.46561E-05-3.42690E-05-1.95588E-17 1.76657E-17
 -1      1742 2.38883E-05-5.92090E-05 9.03405E-06 6.34124E-07-9.17760E-18 6.67457E-18
 -1      1743 1.91271E-05-3.46444E-05 2.53843E-06-4.32516E-06-1.56684E-17 1.09877E-17
 -1      1744 2.34466E-05-7.46239E-05 1.56356E-05-3.37484E-06 3.28141E-18 4.54476E-18
 -1      1745 1.98904E-05-6.33346E-05 1.30342E-05 4.18519E-06-5.62176E-18 6.26931E-18
 -1      1746 1.09395E-04-3.37206E-05-3.21059E-05 4.37529E-05 1.35174E-17 9.75528E-18
 -1      1747 6.91708E-05-3.83447E-05-1.49274E-05 3.69840E-05 1.32196E-17 1.09085E-17
 -1      1748 9.52367E-05-2.85716E-05-2.85707E-05-8.66338E-10 2.98836E-18 2.59812E-19
 -1      1749 9.52363E-05-2.85727E-05-2.85701E-05-2.87886E-09-8.51289E-19-1.25583E-18
 -1      1750 1.82994E-05-4.70764E-05 8.44077E-06 1.38286E-05 7.72071E-18 1.09850E-17
 -1      1751 3.81674E-05-4.32824E-05-9.24430E-07 2.67557E-05 1.06116E-17 1.15240E-17
 -1      1752 1.16361E-05-4.92919E-05 1.17506E-05-2.45995E-06 3.60995E-18 8.79474E-18
 -1      1753 1.54644E-04-3.36702E-05-4.91924E-05 4.12688E-05 1.19059E-17 7.38359E-18
 -1      1754 1.92048E-04-3.56671E-05-6.29173E-05 2.80780E-05 9.59667E-18 3.44404E-18
 -1      1755 2.15455E-04-3.66178E-05-7.09490E-05 1.16586E-05 9.59858E-18-2.64740E-18
 -1      1756 2.13878E-04-3.50201E-05-7.10143E-05-1.04495E-05 1.14858E-17-9.15473E-18
 -1      1757 1.94864E-04-3.46910E-05-6.38870E-05-3.16156E-05 1.29204E-17-1.49747E-17
 -1      1758 1.56406E-04-3.23309E-05-5.03257E-05-4.49172E-05 1.48485E-17-1.87686E-17
 -1      1759 1.10619E-04-3.44410E-05-3.23310E-05-4.41526E-05 1.44529E-17-1.84924E-17
 -1      1760 6.61816E-05-3.80270E-05-1.37863E-05-3.68831E-05 1.33577E-17-1.66976E-17
 -1      1761 3.20097E-05-4.40018E-05 1.39727E-06-2.20208E-05 9.46729E-18-1.41302E-17
 -1      1762 1.60895E-05-5.06166E-05 1.01194E-05-8.81952E-06 2.91295E-18-1.13566E-17
 -1      1763 1.26291E-05-5.20773E-05 1.20380E-05 3.88354E-06-4.59939E-18-1.11630E-17
 -1      1764 2.32474E-05-4.51089E-05 5.82687E-06 2.06209E-05-1.03889E-17-1.24973E-17
 -1      1765 4.89924E-05-3.94870E-05-6.51869E-06 3.39057E-05-1.42649E-17-1.43331E-17
 -1      1766 8.64249E-05-3.38964E-05-2.29832E-05 4.31492E-05-1.68848E-17-1.61123E-17
 -1      1767 1.28588E-04-3.06342E-05-4.04693E-05 4.62225E-05-1.62461E-17-1.68221E-17
 -1      1768 1.69208E-04-3.05569E-05-5.59200E-05 3.85647E-05-1.47659E-17-1.35136E-17
 -1      1769 1.97238E-04-3.14886E-05-6.64768E-05 1.96933E-05-1.20374E-17-9.08909E-18
 -1      1770 2.13835E-04-3.54887E-05-7.09591E-05-8.67935E-07-1.00801E-17-3.73700E-18
 -1      1771 1.99711E-04-3.33819E-05-6.64956E-05-2.27936E-05-1.00848E-17 2.59573E-18
 -1      1772 1.66203E-04-3.02455E-05-5.47880E-05-4.06670E-05-1.07367E-17 8.05359E-18
 -1      1773 1.20972E-04-2.81241E-05-3.83654E-05-4.83465E-05-1.14337E-17 1.30672E-17
 -1      1774 7.84879E-05-3.38847E-05-2.01919E-05-4.17460E-05-9.76290E-18 1.28444E-17
 -1      1775 4.36548E-05-4.02994E-05-3.92919E-06-3.12692E-05-6.92195E-18 1.10973E-17
 -1      1776 1.97451E-05-4.68876E-05 7.55270E-06-1.58555E-05-1.75675E-18 9.56088E-18
 -1      1777 1.13777E-04-2.55294E-05-3.79154E-05-1.45153E-05-3.43453E-18 1.16420E-17
 -1      1778 9.28688E-05-1.18288E-05-3.48692E-05-8.28698E-06-3.65757E-18-5.20168E-18
 -1      1779 9.54883E-05-1.32347E-05-3.53859E-05-1.03647E-05-4.36701E-18-3.92285E-18
 -1      1780 9.86928E-05-1.58915E-05-3.56594E-05-1.16513E-05-4.50285E-18-2.17809E-18
 -1      1781 1.01488E-04-1.81951E-05-3.61725E-05-1.36938E-05-5.00839E-18 1.89206E-19
 -1      1782 9.93395E-05-1.84544E-05-3.46826E-05-9.17169E-06-4.68339E-18-2.64023E-18
 -1      1783 8.39969E-05-6.89451E-06-3.31241E-05-2.45301E-06-1.49443E-18-7.44960E-18
 -1      1784 8.58890E-05-7.62786E-06-3.35783E-05-3.75996E-06-2.03240E-18-7.21771E-18
 -1      1785 8.03274E-05-5.01358E-06-3.23433E-05-4.33724E-07-5.09401E-19-7.79209E-18
 -1      1786 8.20060E-05-5.65890E-06-3.27385E-05-1.40072E-06-9.89626E-19-7.68902E-18
 -1      1787 8.43638E-05-8.49256E-06-3.25542E-05-1.41484E-06-1.33116E-18-7.28102E-18
 -1      1788 7.73443E-05-3.42406E-06-3.17343E-05 8.73544E-07 4.25684E-19-7.83479E-18
 -1      1789 7.86528E-05-3.94851E-06-3.20258E-05 2.45419E-07-6.57774E-21-7.84947E-18
 -1      1790 8.04941E-05-6.21642E-06-3.18641E-05 3.58419E-07-2.53099E-19-7.55757E-18
 -1      1791 7.54011E-05-2.28357E-06-3.13786E-05 1.54196E-06 1.29718E-18-7.74813E-18
 -1      1792 7.61617E-05-2.62192E-06-3.15275E-05 1.18553E-06 8.87796E-19-7.83231E-18
 -1      1793 7.74523E-05-4.35846E-06-3.13463E-05 1.39770E-06 7.15402E-19-7.62689E-18
 -1      1794 7.48652E-05-1.80382E-06-3.13427E-05 1.78650E-06 2.03851E-18-7.53325E-18
 -1      1795 7.49144E-05-1.88377E-06-3.13188E-05 1.57731E-06 1.70449E-18-7.71307E-18
 -1      1796 7.56547E-05-3.15630E-06-3.10817E-05 1.78078E-06 1.63249E-18-7.54076E-18
 -1      1797 7.59776E-05-2.15290E-06-3.16606E-05 1.94804E-06 2.74782E-18-7.07014E-18
 -1      1798 7.52270E-05-1.92486E-06-3.14513E-05 1.71619E-06 2.41398E-18-7.38202E-18
 -1      1799 7.54907E-05-2.87220E-06-3.11287E-05 1.76463E-06 2.40095E-18-7.27516E-18
 -1      1800 7.87061E-05-3.36385E-06-3.23080E-05 2.41147E-06 3.52867E-18-6.32742E-18
 -1      1801 7.72054E-05-2.83069E-06-3.19316E-05 1.98240E-06 3.11828E-18-6.77498E-18
 -1      1802 7.71522E-05-3.66397E-06-3.15033E-05 1.73664E-06 3.12899E-18-6.72431E-18
 -1      1803 8.29907E-05-5.46496E-06-3.32522E-05 3.55075E-06 4.40687E-18-4.96602E-18
 -1      1804 8.07723E-05-4.60527E-06-3.27250E-05 2.74299E-06 3.89684E-18-5.77108E-18
 -1      1805 8.06082E-05-5.55832E-06-3.21797E-05 2.09699E-06 3.96945E-18-5.75947E-18
 -1      1806 8.85870E-05-8.47447E-06-3.43899E-05 5.61670E-06 5.12925E-18-2.98508E-18
 -1      1807 8.57690E-05-7.25339E-06-3.37639E-05 4.29920E-06 4.69792E-18-4.13410E-18
 -1      1808 8.56998E-05-8.53899E-06-3.30909E-05 3.15186E-06 4.78586E-18-4.24821E-18
 -1      1809 9.54509E-05-1.27234E-05-3.55807E-05 8.66339E-06 5.64632E-18 2.84815E-19
 -1      1810 9.20076E-05-1.09072E-05-3.49180E-05 6.76976E-06 5.28952E-18-1.62119E-18
 -1      1811 9.21719E-05-1.26386E-05-3.41014E-05 4.97603E-06 5.40875E-18-2.02363E-18
 -1      1812 1.04360E-04-1.95264E-05-3.65292E-05 1.18984E-05 5.22618E-18 6.00901E-18
 -1      1813 9.97041E-05-1.61823E-05-3.59840E-05 9.90375E-06 5.37223E-18 2.60873E-18
 -1      1814 9.99560E-05-1.82828E-05-3.49909E-05 7.12682E-06 5.64555E-18 1.54343E-18
 -1      1815 1.12164E-04-2.83282E-05-3.63438E-05 9.87341E-06 4.26322E-18 1.27275E-17
 -1      1816 1.07529E-04-2.25386E-05-3.64320E-05 1.17102E-05 4.74182E-18 8.37271E-18
 -1      1817 1.06679E-04-2.46511E-05-3.52022E-05 7.30547E-06 5.35091E-18 5.98778E-18
 -1      1818 1.10220E-04-2.96673E-05-3.46990E-05 4.80755E-06 4.41564E-18 1.13874E-17
 -1      1819 1.08066E-04-2.20868E-05-3.65511E-05-1.55986E-05-4.53460E-18 4.38308E-18
 -1      1820 1.09204E-04-3.13939E-05-3.33541E-05-6.74216E-07 3.35944E-18 9.27886E-18
 -1      1821 1.10133E-04-3.10890E-05-3.39054E-05 1.76931E-06 3.67800E-18 1.05239E-17
 -1      1822 1.08850E-04-2.90130E-05-3.42289E-05 3.20856E-06 4.42284E-18 7.42140E-18
 -1      1823 1.07726E-04-2.51692E-05-3.51084E-05-1.09150E-05-4.74113E-18 2.78658E-18
 -1      1824 1.06525E-04-3.01500E-05-3.26176E-05-2.70655E-06-3.74148E-18 2.28678E-18
 -1      1825 1.05457E-04-3.04672E-05-3.21207E-05-1.17604E-06-3.24887E-18 1.30387E-18
 -1      1826 1.05193E-04-3.08945E-05-3.17512E-05-3.25581E-08-2.82401E-18 1.31693E-18
 -1      1827 1.05011E-04-3.12465E-05-3.16014E-05 4.34471E-07-2.50887E-18 4.81677E-19
 -1      1828 1.04948E-04-2.99524E-05-3.21674E-05-1.25068E-06-3.55745E-18-2.40481E-19
 -1      1829 1.05051E-04-3.15899E-05-3.14319E-05 7.02807E-07-2.12586E-18 4.71030E-19
 -1      1830 1.05082E-04-3.18926E-05-3.13821E-05 5.54493E-07-1.77384E-18-9.97977E-20
 -1      1831 1.04916E-04-3.12759E-05-3.15800E-05 4.33664E-07-2.66183E-18-3.77363E-19
 -1      1832 1.05280E-04-3.22211E-05-3.12889E-05 1.51798E-07-1.51632E-18-7.27456E-20
 -1      1833 1.05185E-04-3.24214E-05-3.12202E-05-4.57430E-07-1.31698E-18-4.84434E-19
 -1      1834 1.05305E-04-3.23318E-05-3.12840E-05 3.59657E-07-1.99732E-18-6.01628E-19
 -1      1835 1.05332E-04-3.26630E-05-3.11404E-05-1.38465E-06-1.04561E-18-3.25125E-19
 -1      1836 1.04852E-04-3.26379E-05-3.09907E-05-2.30709E-06-8.95741E-19-6.96074E-19
 -1      1837 1.05760E-04-3.31744E-05-3.11042E-05-1.06045E-06-1.37237E-18-5.37452E-19
 -1      1838 1.04722E-04-3.26501E-05-3.08976E-05-3.52817E-06-7.92975E-19-5.39271E-19
 -1      1839 1.03716E-04-3.22702E-05-3.06481E-05-4.50835E-06-7.15399E-19-6.89157E-19
 -1      1840 1.05842E-04-3.35527E-05-3.09619E-05-3.42105E-06-8.88495E-19-3.10286E-19
 -1      1841 1.03127E-04-3.19044E-05-3.05431E-05-5.61799E-06-7.64609E-19-5.65540E-19
 -1      1842 1.01642E-04-3.11186E-05-3.02206E-05-6.26700E-06-7.69258E-19-5.19635E-19
 -1      1843 1.05120E-04-3.30914E-05-3.08388E-05-6.03430E-06-7.01787E-19-1.08060E-19
 -1      1844 1.00578E-04-3.03390E-05-3.01233E-05-6.71474E-06-1.23346E-18-5.95855E-19
 -1      1845 9.89056E-05-2.92831E-05-2.97962E-05-6.61486E-06-1.34046E-18-9.59953E-19
 -1      1846 1.03374E-04-3.15554E-05-3.07521E-05-7.83920E-06-1.15168E-18-2.97823E-19
 -1      1847 9.76503E-05-2.83017E-05-2.97289E-05-5.93129E-06-1.64165E-18-1.51497E-18
 -1      1848 9.62894E-05-2.73372E-05-2.94854E-05-4.87663E-06-1.58063E-18-2.28067E-18
 -1      1849 1.00880E-04-2.91935E-05-3.07215E-05-7.65742E-06-2.10240E-18-9.28643E-19
 -1      1850 9.53898E-05-2.66024E-05-2.94598E-05-3.03082E-06-1.24956E-18-2.90553E-18
 -1      1851 9.48515E-05-2.61715E-05-2.93753E-05-1.25329E-06-8.18128E-19-3.45106E-18
 -1      1852 9.85407E-05-2.68987E-05-3.07410E-05-4.86210E-06-1.91104E-18-1.35382E-18
 -1      1853 9.48071E-05-2.61046E-05-2.93925E-05 1.16109E-06-7.48896E-19-4.06214E-18
 -1      1854 9.53411E-05-2.64404E-05-2.94996E-05 3.02048E-06-8.37596E-19-4.35499E-18
 -1      1855 9.75049E-05-2.58226E-05-3.07800E-05-5.72801E-08-1.43976E-18-2.72222E-18
 -1      1856 9.62057E-05-2.70886E-05-2.95580E-05 5.06115E-06-7.61734E-19-4.87998E-18
 -1      1857 9.76461E-05-2.80386E-05-2.98341E-05 6.31434E-06-4.31090E-19-5.02954E-18
 -1      1858 9.83871E-05-2.65841E-05-3.08172E-05 4.97255E-06-9.98778E-19-3.96120E-18
 -1      1859 9.89894E-05-2.90455E-05-2.99303E-05 7.26609E-06-9.63507E-19-5.32674E-18
 -1      1860 1.00855E-04-3.01901E-05-3.03052E-05 7.56649E-06-1.03135E-18-5.25782E-18
 -1      1861 1.00771E-04-2.87787E-05-3.08603E-05 8.30181E-06-9.07563E-19-4.50681E-18
 -1      1862 1.02090E-04-3.10785E-05-3.04257E-05 7.31090E-06-9.24682E-19-5.42531E-18
 -1      1863 1.03846E-04-3.20161E-05-3.08072E-05 6.77217E-06-4.62520E-19-5.53083E-18
 -1      1864 1.03540E-04-3.13043E-05-3.09322E-05 8.99798E-06-1.17047E-18-4.97299E-18
 -1      1865 1.04601E-04-3.25098E-05-3.09250E-05 5.69559E-06-6.12276E-19-5.33494E-18
 -1      1866 1.05878E-04-3.30497E-05-3.12309E-05 4.69695E-06-4.60038E-19-5.58287E-18
 -1      1867 1.05657E-04-3.31571E-05-3.10349E-05 7.42764E-06-7.33622E-19-4.73470E-18
 -1      1868 1.06085E-04-3.31342E-05-3.13137E-05 3.33274E-06-2.07642E-19-5.82559E-18
 -1      1869 1.06750E-04-3.32887E-05-3.14962E-05 2.26217E-06 1.33894E-19-5.87416E-18
 -1      1870 1.06658E-04-3.39378E-05-3.11348E-05 4.66614E-06-5.26864E-19-4.80697E-18
 -1      1871 1.06523E-04-3.30927E-05-3.15221E-05 1.01802E-06 1.57694E-19-5.86008E-18
 -1      1872 1.06624E-04-3.29740E-05-3.15724E-05 1.27602E-07-2.97811E-19-5.72721E-18
 -1      1873 1.06613E-04-3.38024E-05-3.11848E-05 1.76405E-06 1.27670E-19-4.66835E-18
 -1      1874 1.06127E-04-3.26454E-05-3.15351E-05-7.95413E-07-6.03266E-19-5.25656E-18
 -1      1875 1.05804E-04-3.23775E-05-3.14729E-05-1.40688E-06-7.94987E-20-5.44785E-18
 -1      1876 1.05834E-04-3.31261E-05-3.11507E-05-6.21583E-07-7.47110E-21-4.25812E-18
 -1      1877 1.05176E-04-3.20219E-05-3.13809E-05-1.97289E-06 2.51622E-19-5.10758E-18
 -1      1878 1.04586E-04-3.16983E-05-3.12397E-05-2.31263E-06 5.58340E-19-5.21233E-18
 -1      1879 1.04649E-04-3.22540E-05-3.10236E-05-2.24756E-06-4.74471E-20-4.21307E-18
 -1      1880 1.03923E-04-3.13718E-05-3.11090E-05-2.57526E-06 6.18417E-19-5.13948E-18
 -1      1881 1.03205E-04-3.10500E-05-3.09236E-05-2.70064E-06 5.40470E-19-4.75785E-18
 -1      1882 1.03306E-04-3.14033E-05-3.08169E-05-3.14416E-06 6.92772E-19-4.10474E-18
 -1      1883 1.02565E-04-3.07740E-05-3.07723E-05-2.74366E-06 3.37586E-19-4.15638E-18
 -1      1884 1.01820E-04-3.04834E-05-3.05714E-05-2.72325E-06 5.40411E-19-4.20005E-18
 -1      1885 1.01964E-04-3.06739E-05-3.05569E-05-3.46662E-06 7.60832E-19-3.92053E-18
 -1      1886 1.01236E-04-3.02606E-05-3.04153E-05-2.62730E-06 1.65156E-19-3.99828E-18
 -1      1887 1.00531E-04-3.00130E-05-3.02195E-05-2.52107E-06 9.89354E-20-3.94892E-18
 -1      1888 1.00714E-04-3.00917E-05-3.02719E-05-3.39645E-06 4.26690E-19-3.34822E-18
 -1      1889 1.00017E-04-2.98380E-05-3.00700E-05-2.35027E-06-2.62447E-19-3.85608E-18
 -1      1890 9.93902E-05-2.96352E-05-2.98918E-05-2.20303E-06-1.05045E-19-3.62333E-18
 -1      1891 9.96014E-05-2.96464E-05-2.99865E-05-3.09249E-06 7.54860E-20-3.42058E-18
 -1      1892 9.89527E-05-2.95002E-05-2.97564E-05-2.00257E-06 1.49210E-19-3.57519E-18
 -1      1893 9.84185E-05-2.93390E-05-2.96020E-05-1.84426E-06-7.82273E-20-3.59461E-18
 -1      1894 9.86445E-05-2.93152E-05-2.97184E-05-2.67452E-06 8.42872E-20-2.87353E-18
 -1      1895 9.80555E-05-2.92363E-05-2.94845E-05-1.64305E-06-9.90052E-21-3.39536E-18
 -1      1896 9.76165E-05-2.91115E-05-2.93559E-05-1.49170E-06 2.17582E-20-3.43570E-18
 -1      1897 9.78438E-05-2.90733E-05-2.94786E-05-2.22382E-06 2.22410E-19-2.10509E-18
 -1      1898 9.73222E-05-2.90344E-05-2.92573E-05-1.30630E-06-3.00257E-19-3.62491E-18
 -1      1899 9.69721E-05-2.89400E-05-2.91534E-05-1.17143E-06 2.70652E-19-3.57705E-18
 -1      1900 9.71894E-05-2.88996E-05-2.92721E-05-1.79040E-06-2.60614E-19-2.21478E-18
 -1      1901 9.67386E-05-2.88830E-05-2.90731E-05-1.00990E-06 5.25244E-19-4.24823E-18
 -1      1902 9.64668E-05-2.88131E-05-2.89916E-05-8.95381E-07 6.79440E-19-4.28003E-18
 -1      1903 9.66664E-05-2.87767E-05-2.91001E-05-1.40141E-06-1.27447E-19-2.64278E-18
 -1      1904 9.62854E-05-2.87716E-05-2.89278E-05-7.60278E-07 2.52016E-19-4.60078E-18
 -1      1905 9.60797E-05-2.87213E-05-2.88654E-05-6.66544E-07-5.07656E-19-4.56233E-18
 -1      1906 9.62569E-05-2.86913E-05-2.89605E-05-1.06859E-06-2.97405E-19-3.43558E-18
 -1      1907 9.59417E-05-2.86916E-05-2.88160E-05-5.57150E-07-7.97703E-19-4.34509E-18
 -1      1908 9.57900E-05-2.86564E-05-2.87695E-05-4.82713E-07-6.09073E-19-4.57608E-18
 -1      1909 9.59429E-05-2.86333E-05-2.88501E-05-7.93994E-07-1.09456E-19-3.26457E-18
 -1      1910 9.56873E-05-2.86357E-05-2.87321E-05-3.96552E-07-1.10836E-18-4.02283E-18
 -1      1911 9.55786E-05-2.86119E-05-2.86984E-05-3.38994E-07-1.15680E-18-3.77441E-18
 -1      1912 9.57071E-05-2.85951E-05-2.87649E-05-5.74111E-07-6.08215E-19-3.06470E-18
 -1      1913 9.55039E-05-2.85979E-05-2.86707E-05-2.72818E-07-8.18757E-19-3.57854E-18
 -1      1914 9.54284E-05-2.85824E-05-2.86469E-05-2.29417E-07-4.05215E-19-3.55471E-18
 -1      1915 9.55341E-05-2.85709E-05-2.87005E-05-4.02594E-07-8.82533E-19-1.94307E-18
 -1      1916 9.53756E-05-2.85734E-05-2.86270E-05-1.79811E-07-7.09569E-19-3.92075E-18
 -1      1917 9.53251E-05-2.85640E-05-2.86109E-05-1.47900E-07-2.67305E-19-3.59432E-18
 -1      1918 9.54102E-05-2.85567E-05-2.86531E-05-2.72038E-07-7.79989E-19-1.83552E-18
 -1      1919 9.52890E-05-2.85585E-05-2.85970E-05-1.11630E-07 4.11867E-19-3.95390E-18
 -1      1920 9.52571E-05-2.85534E-05-2.85865E-05-8.87924E-08 9.13348E-19-3.21691E-18
 -1      1921 9.53243E-05-2.85492E-05-2.86191E-05-1.75038E-07-2.12184E-20-1.99134E-18
 -1      1922 9.52334E-05-2.85504E-05-2.85772E-05-6.29818E-08 8.88825E-19-3.51340E-18
 -1      1923 9.52148E-05-2.85482E-05-2.85708E-05-4.71302E-08 1.03562E-18-3.49835E-18
 -1      1924 9.52668E-05-2.85462E-05-2.85955E-05-1.04775E-07 8.74017E-19-1.38670E-18
 -1      1925 9.52002E-05-2.85469E-05-2.85648E-05-2.93281E-08 5.24784E-19-3.36248E-18
 -1      1926 9.51910E-05-2.85467E-05-2.85614E-05-1.87286E-08 1.07222E-18-3.82747E-18
 -1      1927 9.52303E-05-2.85460E-05-2.85796E-05-5.52932E-08 7.78411E-19-1.32050E-18
 -1      1928 9.51828E-05-2.85464E-05-2.85579E-05-6.91597E-09 9.80964E-19-4.31261E-18
 -1      1929 9.51798E-05-2.85474E-05-2.85565E-05-1.69009E-10-8.63758E-21-3.95741E-18
 -1      1930 9.52088E-05-2.85476E-05-2.85696E-05-2.15896E-08 5.49631E-19-1.78566E-18
 -1      1931 9.51761E-05-2.85478E-05-2.85546E-05 7.27209E-09-5.72842E-19-3.96015E-18
 -1      1932 9.51772E-05-2.85494E-05-2.85545E-05 1.12668E-08-6.20271E-19-3.44086E-18
 -1      1933 9.51980E-05-2.85502E-05-2.85637E-05 4.14439E-10-3.77774E-19-2.38781E-18
 -1      1934 9.51765E-05-2.85502E-05-2.85539E-05 1.56003E-08-1.00418E-18-2.82134E-18
 -1      1935 9.51800E-05-2.85522E-05-2.85546E-05 1.76863E-08-9.15290E-19-2.64716E-18
 -1      1936 9.51943E-05-2.85532E-05-2.85607E-05 1.39552E-08-2.71247E-19-1.65211E-18
 -1      1937 9.51811E-05-2.85532E-05-2.85547E-05 1.98746E-08-1.03468E-18-2.51438E-18
 -1      1938 9.51859E-05-2.85553E-05-2.85559E-05 2.06812E-08-9.30541E-20-2.47924E-18
 -1      1939 9.51953E-05-2.85562E-05-2.85597E-05 2.15366E-08-1.18051E-18-7.01280E-19
 -1      1940 9.51882E-05-2.85564E-05-2.85565E-05 2.14361E-08 6.05282E-19-2.75598E-18
 -1      1941 9.51935E-05-2.85584E-05-2.85579E-05 2.14165E-08 2.00871E-18-2.15623E-18
 -1      1942 9.51990E-05-2.85592E-05-2.85600E-05 2.50452E-08 5.37832E-19 3.62871E-19
 -1      1943 9.51964E-05-2.85595E-05-2.85587E-05 2.12445E-08 3.62583E-18-2.31246E-18
 -1      1944 9.52017E-05-2.85613E-05-2.85601E-05 2.07085E-08 3.35571E-18-1.15834E-18
 -1      1945 9.52044E-05-2.85619E-05-2.85611E-05 2.58564E-08 2.66489E-18 3.31481E-19
 -1      1946 9.52048E-05-2.85624E-05-2.85611E-05 1.99480E-08 3.57771E-18-1.00463E-18
 -1      1947 9.52099E-05-2.85641E-05-2.85625E-05 1.90869E-08 4.46172E-18 1.17828E-18
 -1      1948 9.52103E-05-2.85644E-05-2.85626E-05 2.49276E-08 4.21879E-18-2.64773E-19
 -1      1949 9.52128E-05-2.85651E-05-2.85634E-05 1.79388E-08 3.00187E-18 6.14150E-19
 -1      1950 9.52174E-05-2.85666E-05-2.85647E-05 1.68439E-08 2.27783E-18 1.01892E-18
 -1      1951 9.52164E-05-2.85667E-05-2.85641E-05 2.28741E-08 4.09573E-18 1.18799E-18
 -1      1952 9.52202E-05-2.85675E-05-2.85655E-05 1.53972E-08 8.78392E-19 1.15369E-18
 -1      1953 9.52241E-05-2.85689E-05-2.85666E-05 1.40749E-08 1.14571E-20 9.98427E-19
 -1      1954 9.52221E-05-2.85688E-05-2.85657E-05 2.00334E-08 1.59675E-18-1.12646E-19
 -1      1955 9.52266E-05-2.85697E-05-2.85673E-05 1.23422E-08 2.21877E-20 2.04016E-18
 -1      1956 9.52297E-05-2.85709E-05-2.85681E-05 1.07322E-08 2.18909E-19 1.87194E-18
 -1      1957 9.52273E-05-2.85708E-05-2.85671E-05 1.65284E-08 4.84023E-20 1.40931E-18
 -1      1958 9.52316E-05-2.85716E-05-2.85686E-05 8.79954E-09 6.48922E-19 1.42645E-18
 -1      1959 9.52339E-05-2.85725E-05-2.85692E-05 6.93211E-09 7.77398E-19 1.78164E-18
 -1      1960 9.52349E-05-2.85738E-05-2.85690E-05 8.13011E-09 4.92675E-19 2.01747E-18
 -1      1961 9.52316E-05-2.85726E-05-2.85681E-05 1.24858E-08 4.89481E-19 2.29633E-18
 -1      1962 1.09885E-04-3.22917E-05-3.32219E-05-3.37438E-06 2.42460E-18 7.57974E-18
 -1      1963 1.09456E-04-3.18855E-05-3.31825E-05-2.14310E-06 2.73566E-18 8.63276E-18
 -1      1964 1.08663E-04-3.09814E-05-3.33181E-05-1.85869E-06 3.40961E-18 6.19081E-18
 -1      1965 1.11833E-04-3.33634E-05-3.36202E-05-4.63460E-06 1.55558E-18 6.50267E-18
 -1      1966 1.10668E-04-3.27900E-05-3.33311E-05-4.04852E-06 1.74054E-18 7.16863E-18
 -1      1967 1.09618E-04-3.21820E-05-3.32142E-05-4.56103E-06 2.35585E-18 5.20463E-18
 -1      1968 1.14420E-04-3.47210E-05-3.41776E-05-4.54296E-06 8.91979E-19 6.05245E-18
 -1      1969 1.13019E-04-3.40342E-05-3.38350E-05-4.58989E-06 1.05286E-18 6.38593E-18
 -1      1970 1.11634E-04-3.35803E-05-3.34793E-05-5.55044E-06 1.36219E-18 4.55416E-18
 -1      1971 1.16903E-04-3.62196E-05-3.46217E-05-2.78287E-06 2.30737E-19 5.81386E-18
 -1      1972 1.15768E-04-3.55637E-05-3.43799E-05-3.64816E-06 4.01388E-19 6.08420E-18
 -1      1973 1.14253E-04-3.53440E-05-3.38376E-05-4.74943E-06 6.30848E-19 4.30996E-18
 -1      1974 1.18375E-04-3.74318E-05-3.47363E-05 9.08176E-07 4.09554E-19 5.96764E-18
 -1      1975 1.18057E-04-3.70754E-05-3.47276E-05-9.24122E-07 1.21602E-19 5.95896E-18
 -1      1976 1.16855E-04-3.72585E-05-3.41095E-05-1.81688E-06 1.61479E-19 4.38943E-18
 -1      1977 1.17837E-04-3.75747E-05-3.44204E-05 6.08359E-06 8.23766E-19 6.02362E-18
 -1      1978 1.18829E-04-3.79052E-05-3.47138E-05 3.50474E-06 5.58433E-19 6.20561E-18
 -1      1979 1.18544E-04-3.86269E-05-3.42164E-05 3.24487E-06 5.13792E-19 4.64044E-18
 -1      1980 1.14550E-04-3.57113E-05-3.37771E-05 1.08187E-05 1.35297E-18 5.73775E-18
 -1      1981 1.17013E-04-3.70518E-05-3.43127E-05 8.47427E-06 8.71200E-19 6.11034E-18
 -1      1982 1.18181E-04-3.82284E-05-3.42139E-05 9.26869E-06 1.04541E-18 5.01412E-18
 -1      1983 1.09072E-04-3.18312E-05-3.30950E-05 1.17663E-05 1.50812E-18 5.16563E-18
 -1      1984 1.12363E-04-3.38963E-05-3.36769E-05 1.13073E-05 1.51195E-18 5.61763E-18
 -1      1985 1.15046E-04-3.51082E-05-3.42401E-05 1.32485E-05 1.65562E-18 5.14636E-18
 -1      1986 1.03938E-04-2.77836E-05-3.27026E-05 6.69915E-06 1.89420E-18 3.65940E-18
 -1      1987 1.06641E-04-2.95571E-05-3.30715E-05 9.15223E-06 2.08884E-18 4.48692E-18
 -1      1988 1.10292E-04-3.01753E-05-3.43979E-05 1.15357E-05 2.42069E-18 3.90911E-18
 -1      1989 1.02884E-04-2.68276E-05-3.27289E-05-2.76770E-06 1.04153E-18 1.35422E-18
 -1      1990 1.03229E-04-2.68606E-05-3.27317E-05 1.59547E-06 1.27995E-18 2.09665E-18
 -1      1991 1.06962E-04-2.65015E-05-3.45905E-05 3.03454E-06 2.22637E-18 1.86455E-18
 -1      1992 1.06715E-04-2.96728E-05-3.31395E-05-1.04105E-05 2.16709E-18-5.50704E-19
 -1      1993 1.04600E-04-2.80970E-05-3.27778E-05-6.97310E-06 1.70661E-18 4.46175E-19
 -1      1994 1.08015E-04-2.74465E-05-3.46386E-05-7.46090E-06 2.19358E-18-6.24012E-19
 -1      1995 1.13221E-04-3.42610E-05-3.38662E-05-1.28774E-05 1.49378E-18-1.49210E-18
 -1      1996 1.09584E-04-3.20254E-05-3.32405E-05-1.17953E-05 1.86047E-18-1.16062E-18
 -1      1997 1.12521E-04-3.18666E-05-3.45892E-05-1.38327E-05 2.32390E-18-2.54989E-18
 -1      1998 1.18552E-04-3.75438E-05-3.46580E-05-9.80403E-06 1.17310E-18-2.36571E-18
 -1      1999 1.15267E-04-3.59705E-05-3.40216E-05-1.10633E-05 1.61329E-18-1.43127E-18
 -1      2000 1.17391E-04-3.66928E-05-3.45669E-05-1.34551E-05 1.87805E-18-2.63120E-18
 -1      2001 1.20825E-04-3.84829E-05-3.52107E-05-4.40600E-06 9.68265E-20-2.67043E-18
 -1      2002 1.18981E-04-3.79450E-05-3.47898E-05-6.62861E-06 5.73137E-19-2.23889E-18
 -1      2003 1.19867E-04-3.90965E-05-3.46154E-05-8.29081E-06 8.00314E-19-2.75680E-18
 -1      2004 1.20271E-04-3.77372E-05-3.53202E-05 4.60298E-07-6.11439E-19-1.88761E-18
 -1      2005 1.19997E-04-3.79624E-05-3.52196E-05-1.55773E-06-5.50108E-19-2.33145E-18
 -1      2006 1.19589E-04-3.88940E-05-3.46100E-05-2.12826E-06-3.62477E-19-2.52719E-18
 -1      2007 1.17927E-04-3.62772E-05-3.49741E-05 3.60672E-06-3.78955E-19-1.80654E-18
 -1      2008 1.18817E-04-3.68774E-05-3.51652E-05 2.28141E-06-2.01170E-19-1.53316E-18
 -1      2009 1.17484E-04-3.72826E-05-3.44046E-05 2.64472E-06-3.86565E-19-1.90060E-18
 -1      2010 1.14758E-04-3.47317E-05-3.43000E-05 5.06875E-06 1.12505E-18-1.76518E-18
 -1      2011 1.16297E-04-3.54367E-05-3.46832E-05 4.43021E-06 5.17630E-19-1.58876E-18
 -1      2012 1.14545E-04-3.53601E-05-3.39605E-05 5.38923E-06 5.98555E-19-1.65700E-18
 -1      2013 1.11417E-04-3.33663E-05-3.34622E-05 5.34980E-06 8.33823E-20-1.61343E-18
 -1      2014 1.13187E-04-3.40389E-05-3.39319E-05 5.19957E-06 7.26781E-19-1.55331E-18
 -1      2015 1.11423E-04-3.36684E-05-3.33363E-05 6.43715E-06 7.94193E-19-1.00996E-18
 -1      2016 1.08269E-04-3.22447E-05-3.25954E-05 4.96432E-06-5.10289E-19-4.54774E-19
 -1      2017 1.10004E-04-3.28307E-05-3.30727E-05 5.09507E-06-3.06663E-19-1.19976E-18
 -1      2018 1.08458E-04-3.23447E-05-3.26253E-05 6.38433E-06-3.22251E-19-8.92627E-20
 -1      2019 1.05493E-04-3.13514E-05-3.17860E-05 4.28290E-06-8.47198E-21-6.38956E-19
 -1      2020 1.07049E-04-3.18379E-05-3.22241E-05 4.54290E-06-3.66044E-19-7.02974E-19
 -1      2021 1.05808E-04-3.13533E-05-3.19108E-05 5.74852E-06-2.96950E-19-1.86394E-19
 -1      2022 1.03146E-04-3.06503E-05-3.10777E-05 3.52781E-06 1.37065E-19-1.27085E-18
 -1      2023 1.04468E-04-3.10422E-05-3.14553E-05 3.82468E-06 7.72802E-20-9.20799E-19
 -1      2024 1.03532E-04-3.06177E-05-3.12491E-05 4.88063E-06 2.53203E-19-1.13333E-18
 -1      2025 1.01223E-04-3.01052E-05-3.04845E-05 2.81414E-06 3.37877E-19-5.79746E-19
 -1      2026 1.02304E-04-3.04143E-05-3.07964E-05 3.09909E-06 3.41988E-19-6.38320E-19
 -1      2027 1.01632E-04-3.00694E-05-3.06698E-05 3.98425E-06 1.07944E-19-3.84933E-19
 -1      2028 9.96848E-05-2.96852E-05-3.00032E-05 2.19137E-06-6.79147E-19-3.44915E-19
 -1      2029 1.00545E-04-2.99247E-05-3.02532E-05 2.44265E-06-3.65309E-19-5.52070E-19
 -1      2030 1.00083E-04-2.96582E-05-3.01826E-05 3.16155E-06-2.03601E-19 5.30271E-19
 -1      2031 9.84790E-05-2.93649E-05-2.96222E-05 1.67293E-06-5.65103E-19 3.30267E-19
 -1      2032 9.91486E-05-2.95476E-05-2.98179E-05 1.88387E-06-6.37315E-19-7.56538E-20
 -1      2033 9.88446E-05-2.93491E-05-2.97849E-05 2.45367E-06-7.32106E-19 7.38324E-19
 -1      2034 9.75503E-05-2.91235E-05-2.93267E-05 1.25454E-06-1.56646E-18-1.55116E-19
 -1      2035 9.80618E-05-2.92607E-05-2.94768E-05 1.42601E-06-8.16207E-19-2.44093E-19
 -1      2036 9.78728E-05-2.91172E-05-2.94681E-05 1.86863E-06-5.27921E-19-5.85699E-19
 -1      2037 9.68471E-05-2.89441E-05-2.91016E-05 9.24380E-07-1.61660E-18 2.91656E-20
 -1      2038 9.72310E-05-2.90455E-05-2.92147E-05 1.06060E-06-1.67108E-18 1.06303E-19
 -1      2039 9.71226E-05-2.89446E-05-2.92207E-05 1.39829E-06-1.30436E-18-2.10264E-19
 -1      2040 9.63236E-05-2.88130E-05-2.89330E-05 6.68477E-07 2.20564E-19 5.69342E-20
 -1      2041 9.66067E-05-2.88866E-05-2.90168E-05 7.74740E-07-2.71440E-19-5.99946E-19
 -1      2042 9.65530E-05-2.88177E-05-2.90310E-05 1.02799E-06-2.17776E-19-6.28575E-19
 -1      2043 9.59408E-05-2.87189E-05-2.88091E-05 4.73247E-07 1.23983E-18 4.00104E-19
 -1      2044 9.61457E-05-2.87713E-05-2.88700E-05 5.54836E-07 6.18603E-19 5.43747E-19
 -1      2045 9.61278E-05-2.87258E-05-2.88880E-05 7.41433E-07 1.52387E-19-3.25829E-19
 -1      2046 9.56667E-05-2.86531E-05-2.87197E-05 3.26560E-07 5.78257E-19 1.07256E-18
 -1      2047 9.58117E-05-2.86894E-05-2.87631E-05 3.88265E-07 1.36353E-18 1.83879E-18
 -1      2048 9.58161E-05-2.86607E-05-2.87822E-05 5.23133E-07 8.39965E-19 9.43140E-19
 -1      2049 9.54750E-05-2.86083E-05-2.86567E-05 2.18079E-07 9.76689E-19 6.03793E-19
 -1      2050 9.55750E-05-2.86327E-05-2.86868E-05 2.64030E-07-1.58982E-19 2.27477E-19
 -1      2051 9.55923E-05-2.86157E-05-2.87053E-05 3.59378E-07 3.43309E-19 1.55722E-18
 -1      2052 9.53449E-05-2.85790E-05-2.86135E-05 1.39235E-07 1.71808E-18 1.28966E-18
 -1      2053 9.54116E-05-2.85947E-05-2.86338E-05 1.72887E-07 2.11191E-18 1.03874E-18
 -1      2054 9.54354E-05-2.85858E-05-2.86507E-05 2.38511E-07 1.59814E-18 1.11127E-18
 -1      2055 9.52600E-05-2.85609E-05-2.85849E-05 8.30641E-08-6.10163E-19-1.64714E-18
 -1      2056 9.53026E-05-2.85704E-05-2.85980E-05 1.07247E-07 8.22417E-19 2.58048E-20
 -1      2057 9.53286E-05-2.85669E-05-2.86129E-05 1.50880E-07 1.51449E-18 9.19741E-19
 -1      2058 9.52078E-05-2.85507E-05-2.85670E-05 4.39912E-08-6.12111E-19-2.60853E-18
 -1      2059 9.52331E-05-2.85559E-05-2.85749E-05 6.09869E-08-7.63722E-19-2.46073E-18
 -1      2060 9.52588E-05-2.85557E-05-2.85876E-05 8.86424E-08 7.06065E-20-1.56520E-18
 -1      2061 9.51786E-05-2.85460E-05-2.85565E-05 1.76137E-08-1.19444E-18-9.48347E-19
 -1      2062 9.51918E-05-2.85482E-05-2.85608E-05 2.92377E-08-1.37562E-18-1.47135E-18
 -1      2063 9.52156E-05-2.85500E-05-2.85715E-05 4.55222E-08-1.73609E-18-1.65233E-18
 -1      2064 9.51651E-05-2.85448E-05-2.85513E-05 4.99539E-10-7.01648E-19-1.01002E-18
 -1      2065 9.51702E-05-2.85451E-05-2.85531E-05 8.17593E-09 3.03004E-20-6.18950E-19
 -1      2066 9.51913E-05-2.85480E-05-2.85618E-05 1.65665E-08-3.40730E-19-4.07244E-19
 -1      2067 9.51620E-05-2.85459E-05-2.85495E-05-9.99164E-09 1.05289E-18-3.19157E-19
 -1      2068 9.51619E-05-2.85450E-05-2.85498E-05-5.16002E-09-7.04600E-21-9.58339E-19
 -1      2069 9.51800E-05-2.85483E-05-2.85567E-05-2.08217E-09 1.39564E-19 2.91155E-19
 -1      2070 9.51655E-05-2.85483E-05-2.85500E-05-1.58607E-08 1.43686E-18-6.90527E-19
 -1      2071 9.51622E-05-2.85467E-05-2.85493E-05-1.30326E-08 1.54430E-18-9.97333E-19
 -1      2072 9.51772E-05-2.85501E-05-2.85547E-05-1.33855E-08 1.46431E-18 1.72893E-19
 -1      2073 9.51728E-05-2.85514E-05-2.85519E-05-1.85973E-08-5.07890E-19 4.16123E-19
 -1      2074 9.51677E-05-2.85495E-05-2.85506E-05-1.71422E-08 6.86673E-19-7.20066E-20
 -1      2075 9.51799E-05-2.85526E-05-2.85547E-05-1.95817E-08 6.27443E-19 1.62253E-18
 -1      2076 9.51821E-05-2.85548E-05-2.85545E-05-1.92840E-08-1.41887E-18-1.01271E-18
 -1      2077 9.51762E-05-2.85527E-05-2.85529E-05-1.87405E-08-6.97587E-19-2.65542E-19
 -1      2078 9.51858E-05-2.85555E-05-2.85559E-05-2.23294E-08-5.65124E-19 1.17457E-18
 -1      2079 9.51922E-05-2.85581E-05-2.85574E-05-1.86808E-08-1.63060E-18-2.17356E-18
 -1      2080 9.51860E-05-2.85561E-05-2.85557E-05-1.87231E-08-2.10251E-18-2.67653E-18
 -1      2081 9.51934E-05-2.85585E-05-2.85579E-05-2.28247E-08-1.12724E-18-1.81221E-18
 -1      2082 9.52021E-05-2.85613E-05-2.85603E-05-1.72887E-08-1.74041E-19-1.54725E-18
 -1      2083 9.51962E-05-2.85595E-05-2.85586E-05-1.77014E-08-9.93759E-19-1.98013E-18
 -1      2084 9.52015E-05-2.85614E-05-2.85601E-05-2.18954E-08-7.81847E-19-3.13213E-18
 -1      2085 9.52113E-05-2.85642E-05-2.85630E-05-1.53967E-08-1.28762E-18 4.53906E-19
 -1      2086 9.52059E-05-2.85625E-05-2.85615E-05-1.60572E-08-3.56557E-19 3.61891E-19
 -1      2087 9.52096E-05-2.85640E-05-2.85624E-05-2.00721E-08-1.39988E-18-9.21539E-19
 -1      2088 9.52196E-05-2.85669E-05-2.85654E-05-1.31113E-08-6.78115E-19 1.32872E-18
 -1      2089 9.52148E-05-2.85654E-05-2.85641E-05-1.39805E-08-1.02690E-18 3.29714E-19
 -1      2090 9.52172E-05-2.85665E-05-2.85646E-05-1.76411E-08-9.21950E-19 1.45075E-18
 -1      2091 9.52265E-05-2.85691E-05-2.85674E-05-1.03955E-08-2.27064E-18 2.31443E-18
 -1      2092 9.52226E-05-2.85679E-05-2.85664E-05-1.15030E-08-4.95346E-19 1.52096E-18
 -1      2093 9.52238E-05-2.85688E-05-2.85665E-05-1.46846E-08-7.85115E-19 2.38871E-18
 -1      2094 9.52319E-05-2.85711E-05-2.85690E-05-7.12539E-09-4.63943E-19 6.38975E-19
 -1      2095 9.52290E-05-2.85700E-05-2.85682E-05-8.55413E-09-1.08737E-18 8.55768E-19
 -1      2096 9.52295E-05-2.85708E-05-2.85680E-05-1.11693E-08-6.85935E-19 7.51185E-19
 -1      2097 9.52352E-05-2.85723E-05-2.85698E-05-4.23426E-09 7.59187E-20-2.01824E-18
 -1      2098 9.52332E-05-2.85716E-05-2.85693E-05-5.91857E-09 9.36603E-20-8.90545E-19
 -1      2099 9.52334E-05-2.85724E-05-2.85690E-05-7.91264E-09 1.21409E-18-9.27338E-19
 -1      2100 9.52358E-05-2.85734E-05-2.85696E-05-5.16906E-09-6.91529E-19-1.95253E-18
 -1      2101 9.52421E-05-2.85870E-05-2.85664E-05-1.11896E-08 5.10876E-20-3.45950E-18
 -1      2102 9.52407E-05-2.85841E-05-2.85672E-05-1.11352E-08 8.86786E-19-1.68234E-18
 -1      2103 9.52395E-05-2.85817E-05-2.85676E-05-1.06642E-08 9.87240E-19-3.60492E-19
 -1      2104 9.52382E-05-2.85790E-05-2.85683E-05-9.77943E-09 1.25002E-18 7.19633E-19
 -1      2105 9.52396E-05-2.85821E-05-2.85675E-05-1.37468E-08 1.04839E-18-1.32501E-18
 -1      2106 9.52374E-05-2.85772E-05-2.85687E-05-8.48861E-09 1.11296E-18-9.22075E-19
 -1      2107 9.52364E-05-2.85750E-05-2.85692E-05-6.91575E-09 5.19932E-19-1.41729E-18
 -1      2108 9.52354E-05-2.85746E-05-2.85689E-05-8.44425E-09 1.89347E-18-4.26795E-19
 -1      2109 9.52372E-05-2.85779E-05-2.85683E-05-1.17343E-08 2.59517E-18 1.31292E-19
 -1      2110 9.52443E-05-2.85919E-05-2.85653E-05-1.01648E-08-9.18964E-19-4.47232E-18
 -1      2111 9.52432E-05-2.85893E-05-2.85659E-05-1.07732E-08-6.06367E-19-3.95615E-18
 -1      2112 9.52424E-05-2.85869E-05-2.85667E-05-1.37567E-08-6.77012E-20-4.87749E-18
 -1      2113 9.52461E-05-2.85960E-05-2.85643E-05-7.86999E-09 2.49118E-20 2.12306E-18
 -1      2114 9.52452E-05-2.85938E-05-2.85648E-05-9.00400E-09 9.63417E-20-5.99929E-19
 -1      2115 9.52448E-05-2.85911E-05-2.85659E-05-1.19786E-08 7.80879E-19-1.95702E-18
 -1      2116 9.52473E-05-2.85988E-05-2.85636E-05-4.68874E-09-5.55744E-19-1.17434E-19
 -1      2117 9.52467E-05-2.85974E-05-2.85639E-05-6.16683E-09-5.78502E-19 2.62337E-18
 -1      2118 9.52466E-05-2.85945E-05-2.85652E-05-8.76434E-09 1.08648E-19 1.85831E-18
 -1      2119 9.52478E-05-2.86000E-05-2.85633E-05-1.01476E-09-1.30059E-18 1.46706E-19
 -1      2120 9.52476E-05-2.85995E-05-2.85634E-05-2.66206E-09-9.33000E-19-2.50421E-20
 -1      2121 9.52477E-05-2.85966E-05-2.85648E-05-4.58800E-09-1.74095E-18-6.32856E-19
 -1      2122 9.52476E-05-2.85995E-05-2.85634E-05 2.75983E-09-9.84058E-19-3.39534E-19
 -1      2123 9.52478E-05-2.86000E-05-2.85633E-05 1.11627E-09-1.23419E-18 1.33841E-19
 -1      2124 9.52480E-05-2.85973E-05-2.85646E-05 6.46520E-11-2.56747E-18 3.67758E-19
 -1      2125 9.52467E-05-2.85973E-05-2.85640E-05 6.24459E-09-1.25998E-18-2.65074E-18
 -1      2126 9.52473E-05-2.85987E-05-2.85636E-05 4.77760E-09-7.57827E-19-1.11766E-18
 -1      2127 9.52477E-05-2.85966E-05-2.85648E-05 4.70710E-09-1.90531E-18-6.90382E-19
 -1      2128 9.52452E-05-2.85938E-05-2.85648E-05 9.00990E-09 9.82724E-20-2.90625E-18
 -1      2129 9.52461E-05-2.85960E-05-2.85643E-05 7.90674E-09-3.33269E-19-2.33415E-18
 -1      2130 9.52465E-05-2.85944E-05-2.85652E-05 8.82532E-09-2.50068E-19-1.67569E-18
 -1      2131 9.52431E-05-2.85892E-05-2.85660E-05 1.07700E-08 3.38868E-19 1.83226E-18
 -1      2132 9.52443E-05-2.85919E-05-2.85653E-05 1.01633E-08 4.36812E-19 1.91250E-20
 -1      2133 9.52447E-05-2.85911E-05-2.85659E-05 1.19829E-08 1.80736E-18-1.04263E-18
 -1      2134 9.52407E-05-2.85840E-05-2.85672E-05 1.11061E-08-7.72494E-19-3.56885E-20
 -1      2135 9.52420E-05-2.85869E-05-2.85665E-05 1.11773E-08-2.98309E-19-1.20172E-19
 -1      2136 9.52424E-05-2.85868E-05-2.85667E-05 1.37472E-08 9.78150E-19-1.86685E-19
 -1      2137 9.52381E-05-2.85788E-05-2.85683E-05 9.78850E-09-1.29950E-18 7.88880E-20
 -1      2138 9.52395E-05-2.85816E-05-2.85677E-05 1.06177E-08-1.39337E-18 6.64762E-20
 -1      2139 9.52396E-05-2.85820E-05-2.85675E-05 1.36833E-08-3.85643E-19-7.16769E-19
 -1      2140 5.65990E-05-4.12082E-05-7.12014E-06 3.80401E-05 5.95041E-18 7.77139E-18
 -1      2141 4.24597E-05-4.07367E-05-1.74716E-06 3.19964E-05 3.90482E-18 8.15693E-18
 -1      2142 1.21102E-05-3.49355E-05 8.29943E-06 2.86096E-06 4.32072E-18 8.37123E-18
 -1      2143 1.18932E-05-3.33703E-05 7.86890E-06-7.59792E-06 1.76553E-18 8.41443E-18
 -1      2144 2.40358E-05-3.43119E-05 3.42971E-06 2.35022E-05 5.19104E-18 1.04998E-17
 -1      2145 1.69419E-05-3.67506E-05 6.90541E-06 1.29345E-05 3.70979E-18 9.95306E-18
 -1      2146 9.01485E-05-4.46496E-05-1.96532E-05 4.15046E-05 7.23366E-18 5.36595E-18
 -1      2147 7.14973E-05-4.60859E-05-1.20554E-05 3.66737E-05 6.33919E-18 6.47324E-18
 -1      2148 7.59135E-05-4.82805E-05-1.20936E-05 4.08834E-05 9.36395E-19 4.12939E-18
 -1      2149 1.30404E-04-4.44402E-05-3.63277E-05 3.64261E-05 9.18438E-18 4.36222E-18
 -1      2150 1.09755E-04-4.63483E-05-2.79039E-05 3.43381E-05 8.32803E-18 4.50876E-18
 -1      2151 8.81000E-05-9.04405E-06-3.39870E-05-5.11410E-06-2.56173E-18-6.76329E-18
 -1      2152 9.02566E-05-9.96504E-06-3.44862E-05-6.79801E-06-3.23915E-18-6.08400E-18
 -1      2153 9.36913E-05-1.42499E-05-3.40969E-05-6.65604E-06-3.56771E-18-5.20388E-18
 -1      2154 8.87704E-05-1.10952E-05-3.33267E-05-3.84322E-06-2.43723E-18-6.54877E-18
 -1      2155 1.83034E-04-3.24710E-05-6.26766E-05 1.17940E-05 9.38089E-18-7.11084E-19
 -1      2156 1.68128E-04-3.32907E-05-5.70320E-05 1.39837E-05 9.61933E-18 5.77253E-19
 -1      2157 1.88699E-04-2.68761E-05-6.78941E-05 6.12742E-07 1.08810E-17-4.25867E-18
 -1      2158 1.86001E-04-2.84493E-05-6.60779E-05 8.12598E-06 1.01665E-17-1.20787E-18
 -1      2159 1.81468E-04-2.59119E-05-6.55272E-05-6.56581E-06 1.16628E-17-6.35084E-18
 -1      2160 1.85336E-04-2.53614E-05-6.72160E-05-1.11314E-06 1.14053E-17-4.16309E-18
 -1      2161 1.70791E-04-3.32791E-05-5.80497E-05-1.90230E-05 1.15146E-17-9.85353E-18
 -1      2162 1.82424E-04-3.21997E-05-6.30459E-05-1.20528E-05 1.12759E-17-7.32599E-18
 -1      2163 1.44038E-04-4.03928E-05-4.44587E-05-2.85065E-05 1.07245E-17-1.10199E-17
 -1      2164 1.63992E-04-3.95065E-05-5.21368E-05-2.63663E-05 1.07148E-17-1.01771E-17
 -1      2165 1.11889E-04-4.77448E-05-2.81366E-05-3.43385E-05 7.41916E-18-1.04651E-17
 -1      2166 1.32904E-04-4.51248E-05-3.70347E-05-3.64761E-05 9.31313E-18-1.12079E-17
 -1      2167 6.69707E-05-4.49070E-05-1.08504E-05-3.64405E-05 5.83860E-18-1.22695E-17
 -1      2168 8.86491E-05-4.43055E-05-1.93230E-05-4.28054E-05 7.21376E-18-1.22398E-17
 -1      2169 3.34163E-05-4.07797E-05 1.33700E-06-2.65944E-05 3.11920E-18-1.21469E-17
 -1      2170 4.63893E-05-3.86097E-05-4.32558E-06-3.50878E-05 6.29176E-18-1.32065E-17
 -1      2171 1.46405E-05-3.70660E-05 7.78492E-06-1.01302E-05-6.16958E-19-1.11393E-17
 -1      2172 2.03377E-05-3.58556E-05 5.19143E-06-1.90240E-05 2.95360E-18-1.18856E-17
 -1      2173 1.31945E-05-3.43484E-05 7.56442E-06 1.04834E-05-4.30737E-18-1.15878E-17
 -1      2174 1.16060E-05-3.51520E-05 8.42909E-06 9.91032E-07-8.00870E-19-1.14820E-17
 -1      2175 3.21461E-05-3.37147E-05-1.44389E-07 3.17928E-05-5.05806E-18-1.16289E-17
 -1      2176 2.15359E-05-3.64763E-05 4.75704E-06 2.06153E-05-3.80043E-18-1.14258E-17
 -1      2177 6.76381E-05-3.96273E-05-1.24232E-05 4.28726E-05-1.00526E-17-1.13983E-17
 -1      2178 5.17063E-05-4.06531E-05-5.66925E-06 3.79081E-05-7.17564E-18-1.06484E-17
 -1      2179 1.08140E-04-4.33739E-05-2.76179E-05 4.24491E-05-1.04164E-17-1.03355E-17
 -1      2180 8.74885E-05-4.45229E-05-1.92928E-05 3.95002E-05-9.95475E-18-1.04062E-17
 -1      2181 1.43901E-04-3.97635E-05-4.38495E-05 3.37450E-05-1.19135E-17-9.34150E-18
 -1      2182 1.24743E-04-4.21356E-05-3.57725E-05 3.28255E-05-1.11669E-17-9.53039E-18
 -1      2183 1.65288E-04-3.36032E-05-5.58571E-05 1.72576E-05-1.17759E-17-6.48277E-18
 -1      2184 1.52059E-04-3.51730E-05-4.97645E-05 2.51139E-05-1.23711E-17-8.85912E-18
 -1      2185 1.49089E-04-4.32791E-05-4.46633E-05 1.40011E-05-8.88741E-18-3.41693E-18
 -1      2186 1.77007E-04-2.45378E-05-6.41602E-05 5.28981E-06-1.13685E-17-5.34922E-18
 -1      2187 1.66367E-04-2.48365E-05-6.03256E-05 9.06633E-06-1.18604E-17-6.58822E-18
 -1      2188 1.85515E-04-2.53012E-05-6.72307E-05-4.30823E-06-1.05104E-17-2.90331E-18
 -1      2189 1.83099E-04-2.41020E-05-6.70640E-05 4.36056E-06-1.09754E-17-5.65606E-18
 -1      2190 1.69457E-04-2.62691E-05-6.07671E-05-1.26970E-05-9.81732E-18-6.20028E-19
 -1      2191 1.82584E-04-2.71800E-05-6.50376E-05-7.77584E-06-1.00551E-17-2.51992E-18
 -1      2192 1.49158E-04-3.57500E-05-4.83519E-05-2.55774E-05-7.80472E-18 2.70076E-18
 -1      2193 1.64653E-04-3.44323E-05-5.50350E-05-1.93062E-05-8.30103E-18-2.34205E-19
 -1      2194 1.16947E-04-4.04484E-05-3.32509E-05-3.60803E-05-6.33919E-18 6.50860E-18
 -1      2195 1.38310E-04-3.93748E-05-4.17574E-05-3.66512E-05-6.89485E-18 5.01867E-18
 -1      2196 8.26283E-05-4.36815E-05-1.73023E-05-4.03617E-05-3.96877E-18 8.25222E-18
 -1      2197 1.00502E-04-4.01529E-05-2.56186E-05-4.38060E-05-6.04654E-18 8.21453E-18
 -1      2198 4.38075E-05-4.14522E-05-2.61582E-06-3.31551E-05-1.13968E-18 8.92307E-18
 -1      2199 6.09734E-05-4.00430E-05-9.61611E-06-4.13705E-05-2.16417E-18 9.49937E-18
 -1      2200 2.00074E-05-3.59360E-05 5.49204E-06-2.02301E-05 1.75209E-18 9.39825E-18
 -1      2201 2.93451E-05-3.62872E-05 1.87805E-06-2.88719E-05-1.46960E-18 9.49545E-18
 -1      2202 4.47367E-05-3.65772E-05-3.90194E-06-3.82837E-05 1.96300E-18 9.44124E-18
 -1      2203 1.59839E-04-4.09478E-05-5.02666E-05 2.21209E-05 8.97728E-18 2.32511E-18
 -1      2204 1.41975E-04-4.17119E-05-4.29621E-05 2.80365E-05 9.67820E-18 4.28387E-18
 -1      2205 1.42632E-04-5.21579E-05-3.83257E-05 2.01530E-05 6.39700E-18 6.26804E-20
 -1      2206 1.12264E-04-5.55728E-05-2.43131E-05 3.47516E-05 3.37416E-18 1.87321E-18
 -1      2207 1.05861E-04-2.72297E-05-3.37767E-05-6.60723E-06-4.43131E-18 1.70987E-18
 -1      2208 1.55963E-04-3.54321E-05-5.20122E-05-5.55535E-06 7.94559E-18-3.85231E-18
 -1      2209 1.61367E-04-3.92387E-05-5.17669E-05 9.07625E-06 8.62512E-18-8.18657E-19
 -1      2210 1.52877E-04-4.45966E-05-4.60542E-05 2.02560E-06 7.14054E-18-3.25769E-18
 -1      2211 1.04283E-04-2.59121E-05-3.36633E-05-6.43307E-06-4.65858E-18-4.65352E-19
 -1      2212 4.00585E-05-3.52021E-05-2.45388E-06 3.30136E-05 1.32137E-18 8.32697E-18
 -1      2213 1.63154E-05-2.63938E-05 3.64654E-06 1.02819E-05 2.10202E-18 9.77307E-18
 -1      2214 9.52371E-05-2.85770E-05-2.85686E-05 9.50299E-09-8.75307E-20 1.68942E-18
 -1      2215 1.90530E-05-2.73860E-05 2.91794E-06-1.74423E-05 2.12542E-18 9.91791E-18
 -1      2216 7.94111E-05-4.62258E-05-1.45277E-05-4.17937E-05-6.90332E-19 7.34706E-18
 -1      2217 9.73703E-05-5.28607E-05-1.96980E-05-4.16389E-05 2.22410E-18 3.92594E-18
 -1      2218 7.66638E-05-4.59077E-05-1.27133E-05-4.41985E-05 2.87949E-18 5.93431E-18
 -1      2219 1.21074E-04-5.14397E-05-2.95957E-05-3.34343E-05-1.53652E-18 2.63364E-18
 -1      2220 1.46559E-04-4.45424E-05-4.30048E-05-1.69798E-05-4.17434E-18-1.83510E-18
 -1      2221 1.58092E-04-2.86963E-05-5.46216E-05-2.81392E-06-8.12305E-18-3.84426E-18
 -1      2222 1.62894E-04-1.56120E-05-6.18531E-05 4.67727E-07-1.11486E-17-4.46069E-18
 -1      2223 1.56180E-04-2.70705E-05-5.46568E-05 1.57705E-06-1.08882E-17-3.65516E-18
 -1      2224 1.26690E-04-5.25145E-05-3.15252E-05 3.06557E-05-6.26550E-18-5.61583E-18
 -1      2225 9.03139E-05-4.95442E-05-1.75150E-05 4.26584E-05-4.01324E-18-7.91129E-18
 -1      2226 4.72595E-05-3.69826E-05-4.81697E-06 3.77248E-05-3.06626E-18-1.07576E-17
 -1      2227 4.35439E-05-2.99080E-05-5.36026E-06 3.79261E-05 8.92349E-19-1.00013E-17
 -1      2228 6.24084E-05-3.97885E-05-1.01725E-05 4.37389E-05 2.94344E-19-8.50125E-18
 -1      2229 2.01365E-05-2.56716E-05 1.85794E-06 2.00230E-05-9.79382E-19-1.25153E-17
 -1      2230 1.44979E-05-2.60016E-05 4.03724E-06-6.14771E-06-8.27286E-19-1.30286E-17
 -1      2231 3.21966E-05-3.35590E-05-2.32376E-07-2.91738E-05 8.51268E-20-1.29348E-17
 -1      2232 6.81702E-05-4.52789E-05-1.01616E-05-4.13976E-05 9.82558E-19-1.13006E-17
 -1      2233 1.12913E-04-5.56420E-05-2.45017E-05-3.56028E-05 2.10361E-18-7.61906E-18
 -1      2234 1.45455E-04-5.20614E-05-3.95824E-05-1.87544E-05 5.31587E-18-5.06737E-18
 -1      2235 1.62116E-04-3.79403E-05-5.21411E-05-6.75758E-06 8.69416E-18-4.14030E-18
 -1      2236 1.65544E-04-2.23706E-05-6.01909E-05 3.00954E-07 1.11046E-17-2.77530E-18
 -1      2237 1.66926E-04-2.33438E-05-6.03918E-05-2.04461E-06 1.06608E-17-2.28784E-18
 -1      2238 1.66262E-04-1.63380E-05-6.30798E-05-9.71001E-08 1.19440E-17-3.01139E-18
 -1      2239 1.59213E-04-1.44133E-05-6.12098E-05-1.56372E-06-1.17483E-17-4.45857E-18
 -1      2240 1.06867E-04-2.95856E-05-3.30978E-05-2.91919E-06 3.37717E-18 3.57446E-18
 -1      2241 1.06678E-04-2.87005E-05-3.33460E-05-8.88859E-07 3.89263E-18 4.04681E-18
 -1      2242 8.04488E-05-7.48177E-06-3.13193E-05 1.56746E-06 1.49640E-19-7.19359E-18
 -1      2243 8.23425E-05-8.54559E-06-3.16278E-05 8.54487E-07-4.69892E-19-7.15886E-18
 -1      2244 8.45396E-05-1.01037E-05-3.19527E-05 7.65639E-08-9.04065E-19-7.00088E-18
 -1      2245 8.67233E-05-1.13480E-05-3.23210E-05-9.85927E-07-1.52688E-18-6.79514E-18
 -1      2246 8.45891E-05-1.13691E-05-3.13923E-05 1.38194E-06-6.01647E-19-6.62348E-18
 -1      2247 7.55343E-05-4.06351E-06-3.06630E-05 2.18495E-06 1.91518E-18-7.21723E-18
 -1      2248 7.61400E-05-4.45680E-06-3.07236E-05 2.13549E-06 1.45562E-18-7.29400E-18
 -1      2249 7.57184E-05-3.94437E-06-3.07818E-05 1.69814E-06 2.67139E-18-6.91770E-18
 -1      2250 7.53578E-05-3.81780E-06-3.06771E-05 1.77186E-06 2.20716E-18-7.15861E-18
 -1      2251 7.57764E-05-5.07710E-06-3.02801E-05 2.16750E-06 2.01994E-18-6.85244E-18
 -1      2252 7.79553E-05-5.14436E-06-3.12177E-05 1.26303E-06 3.40836E-18-6.37664E-18
 -1      2253 7.66137E-05-4.46759E-06-3.09555E-05 1.24237E-06 2.91100E-18-6.68248E-18
 -1      2254 7.64794E-05-5.34140E-06-3.04646E-05 1.21516E-06 2.70895E-18-6.49226E-18
 -1      2255 8.21886E-05-7.68788E-06-3.19430E-05 1.30959E-06 4.22300E-18-5.21311E-18
 -1      2256 7.99087E-05-6.44234E-06-3.15400E-05 1.01017E-06 3.72168E-18-5.90146E-18
 -1      2257 7.94205E-05-7.14090E-06-3.09586E-05 4.16092E-07 3.43355E-18-5.76624E-18
 -1      2258 8.80418E-05-1.14543E-05-3.28548E-05 2.09729E-06 4.90450E-18-3.66847E-18
 -1      2259 8.50200E-05-9.65952E-06-3.23677E-05 1.42757E-06 4.43815E-18-4.52586E-18
 -1      2260 8.43926E-05-1.03816E-05-3.17058E-05 1.96424E-07 4.10334E-18-4.51578E-18
 -1      2261 9.51074E-05-1.64029E-05-3.38005E-05 3.51796E-06 5.43312E-18-1.51000E-18
 -1      2262 9.15130E-05-1.39921E-05-3.33051E-05 2.56690E-06 5.01059E-18-2.73782E-18
 -1      2263 9.08704E-05-1.48199E-05-3.25784E-05 6.81068E-07 4.60754E-18-2.89324E-18
 -1      2264 1.08086E-04-3.13018E-05-3.28966E-05-5.69000E-06 2.32345E-18 3.04998E-18
 -1      2265 1.07325E-04-3.04482E-05-3.28724E-05-4.66231E-06 2.81718E-18 3.53060E-18
 -1      2266 1.04769E-04-2.83616E-05-3.27767E-05-4.04692E-06 3.40012E-18 1.59151E-18
 -1      2267 1.03961E-04-2.81784E-05-3.24207E-05-2.21360E-06-3.46886E-18-1.23597E-18
 -1      2268 1.03870E-04-2.92884E-05-3.19920E-05-6.47382E-07-3.05996E-18-1.29045E-18
 -1      2269 1.04439E-04-3.04201E-05-3.16547E-05 2.81921E-07-2.65370E-18-9.66926E-19
 -1      2270 1.04549E-04-3.12524E-05-3.14394E-05 7.35822E-07-2.25216E-18-1.10304E-18
 -1      2271 1.03203E-04-2.89968E-05-3.18240E-05-2.47378E-07-2.90821E-18-1.76212E-18
 -1      2272 1.05217E-04-3.21847E-05-3.12480E-05 8.34330E-07-1.96357E-18-7.51776E-19
 -1      2273 1.05453E-04-3.29040E-05-3.11300E-05 4.88346E-07-1.64173E-18-8.56031E-19
 -1      2274 1.04472E-04-3.15765E-05-3.12709E-05 9.90776E-07-2.11661E-18-1.29584E-18
 -1      2275 1.06260E-04-3.37423E-05-3.10436E-05-2.07149E-07-1.26166E-18-5.17644E-19
 -1      2276 1.06425E-04-3.42647E-05-3.09712E-05-1.18191E-06-1.00192E-18-5.08842E-19
 -1      2277 1.06026E-04-3.37988E-05-3.09787E-05 5.05235E-07-1.41738E-18-7.33390E-19
 -1      2278 1.07179E-04-3.48488E-05-3.09826E-05-2.53904E-06-7.70858E-19-3.13352E-19
 -1      2279 1.07043E-04-3.49427E-05-3.09395E-05-3.89079E-06-6.22080E-19-3.01177E-19
 -1      2280 1.07667E-04-3.55566E-05-3.09144E-05-1.53638E-06-9.81276E-19-5.05248E-19
 -1      2281 1.07410E-04-3.49606E-05-3.10593E-05-5.57985E-06-7.27083E-19-8.24951E-20
 -1      2282 1.06781E-04-3.43548E-05-3.10517E-05-6.86448E-06-7.54663E-19-3.43147E-19
 -1      2283 1.08859E-04-3.62727E-05-3.10952E-05-4.69456E-06-6.92963E-19-2.99206E-19
 -1      2284 1.06407E-04-3.35033E-05-3.12850E-05-8.23962E-06-8.52170E-19-4.19963E-19
 -1      2285 1.05275E-04-3.21105E-05-3.13224E-05-8.82357E-06-1.48036E-18-5.13924E-19
 -1      2286 1.08879E-04-3.51835E-05-3.15462E-05-8.00208E-06-1.06784E-18-4.91737E-19
 -1      2287 1.04098E-04-3.04278E-05-3.16328E-05-9.01156E-06-2.15818E-18-6.58644E-19
 -1      2288 1.02766E-04-2.86208E-05-3.17053E-05-8.30500E-06-2.47814E-18-9.04365E-19
 -1      2289 1.07266E-04-3.19736E-05-3.22309E-05-9.84632E-06-1.90364E-18-7.78802E-19
 -1      2290 1.01321E-04-2.67772E-05-3.19949E-05-6.69555E-06-2.35334E-18-1.00175E-18
 -1      2291 1.00370E-04-2.53971E-05-3.20638E-05-4.60237E-06-2.16995E-18-1.26825E-18
 -1      2292 1.04494E-04-2.75327E-05-3.29829E-05-8.52263E-06-2.62071E-18-8.47281E-19
 -1      2293 9.96180E-05-2.44681E-05-3.22031E-05-1.50213E-06-2.17024E-18-1.91280E-18
 -1      2294 9.95675E-05-2.43299E-05-3.22262E-05 1.28861E-06-1.89379E-18-2.57498E-18
 -1      2295 1.02151E-04-2.40631E-05-3.35167E-05-3.54556E-06-2.61173E-18-1.43694E-18
 -1      2296 1.00093E-04-2.49507E-05-3.21479E-05 4.55256E-06-1.72594E-18-3.15224E-18
 -1      2297 1.01002E-04-2.61452E-05-3.21196E-05 6.87845E-06-1.27413E-18-3.28045E-18
 -1      2298 1.01912E-04-2.36756E-05-3.35844E-05 3.31485E-06-2.25875E-18-2.47194E-18
 -1      2299 1.02405E-04-2.78899E-05-3.18644E-05 8.87500E-06-1.16139E-18-4.24258E-18
 -1      2300 1.03820E-04-2.97338E-05-3.18151E-05 9.88950E-06-1.21173E-18-4.57156E-18
 -1      2301 1.03975E-04-2.66458E-05-3.31579E-05 8.91633E-06-1.75170E-18-3.90978E-18
 -1      2302 1.05151E-04-3.15610E-05-3.14978E-05 1.00286E-05-1.35659E-18-4.69782E-18
 -1      2303 1.06457E-04-3.31531E-05-3.14664E-05 9.64316E-06-9.25875E-19-4.56797E-18
 -1      2304 1.06877E-04-3.11325E-05-3.24282E-05 1.10200E-05-1.40955E-18-5.24853E-18
 -1      2305 1.07020E-04-3.42480E-05-3.11938E-05 8.36615E-06-8.46834E-19-4.55585E-18
 -1      2306 1.07820E-04-3.50994E-05-3.11897E-05 7.08247E-06-7.12012E-19-4.48670E-18
 -1      2307 1.08865E-04-3.48431E-05-3.16807E-05 9.59863E-06-8.98731E-19-4.79424E-18
 -1      2308 1.07552E-04-3.53085E-05-3.09998E-05 5.23068E-06-7.49353E-19-4.25350E-18
 -1      2309 1.07773E-04-3.54283E-05-3.10045E-05 3.66809E-06-2.74247E-19-4.11921E-18
 -1      2310 1.09161E-04-3.65379E-05-3.10971E-05 6.17669E-06-7.15861E-19-4.44224E-18
 -1      2311 1.06968E-04-3.50133E-05-3.08866E-05 1.90985E-06-2.31147E-20-4.49809E-18
 -1      2312 1.06730E-04-3.46578E-05-3.08755E-05 5.13057E-07 3.62444E-19-4.27377E-18
 -1      2313 1.08046E-04-3.63621E-05-3.07160E-05 2.37164E-06-2.81258E-19-4.16567E-18
 -1      2314 1.05727E-04-3.39694E-05-3.07971E-05-8.17210E-07 3.72810E-20-4.25582E-18
 -1      2315 1.05208E-04-3.34132E-05-3.07534E-05-1.84141E-06-1.02785E-20-3.82279E-18
 -1      2316 1.06190E-04-3.50717E-05-3.04871E-05-8.07949E-07 5.00130E-20-4.53490E-18
 -1      2317 1.04232E-04-3.27065E-05-3.06857E-05-2.67686E-06 1.10769E-19-3.84412E-18
 -1      2318 1.03581E-04-3.21353E-05-3.06056E-05-3.29897E-06 3.99977E-19-3.76903E-18
 -1      2319 1.04175E-04-3.34193E-05-3.03363E-05-2.99858E-06 1.07449E-19-3.82822E-18
 -1      2320 1.02735E-04-3.15376E-05-3.05322E-05-3.70903E-06 3.36162E-19-3.70197E-18
 -1      2321 1.02053E-04-3.10425E-05-3.04225E-05-3.99203E-06 6.02250E-19-4.06502E-18
 -1      2322 1.02328E-04-3.18752E-05-3.02066E-05-4.23531E-06 3.64177E-19-3.69234E-18
 -1      2323 1.01361E-04-3.05903E-05-3.03386E-05-4.08967E-06 8.03347E-19-3.71288E-18
 -1      2324 1.00708E-04-3.01992E-05-3.02107E-05-4.12682E-06 9.33434E-19-3.72324E-18
 -1      2325 1.00774E-04-3.06392E-05-3.00682E-05-4.71857E-06 7.65893E-19-3.90675E-18
 -1      2326 1.00157E-04-2.98821E-05-3.01183E-05-4.02143E-06 6.91229E-19-4.04916E-18
 -1      2327 9.95645E-05-2.95904E-05-2.99841E-05-3.90210E-06 4.09747E-19-3.60028E-18
 -1      2328 9.95203E-05-2.97431E-05-2.99129E-05-4.67918E-06 8.12850E-19-3.61598E-18
 -1      2329 9.91301E-05-2.93807E-05-2.98884E-05-3.68162E-06 3.72906E-19-3.48234E-18
 -1      2330 9.86131E-05-2.91715E-05-2.97576E-05-3.47725E-06 2.05598E-19-3.18762E-18
 -1      2331 9.85287E-05-2.91401E-05-2.97446E-05-4.31849E-06 3.74660E-19-3.94643E-18
 -1      2332 9.82719E-05-2.90400E-05-2.96639E-05-3.20510E-06-8.33885E-20-3.03686E-18
 -1      2333 9.78337E-05-2.88944E-05-2.95435E-05-2.96661E-06 3.68080E-19-2.82326E-18
 -1      2334 9.77503E-05-2.87608E-05-2.95724E-05-3.79023E-06 3.57233E-19-3.26334E-18
 -1      2335 9.75660E-05-2.88165E-05-2.94561E-05-2.68477E-06 3.88929E-19-2.59134E-18
 -1      2336 9.72037E-05-2.87178E-05-2.93498E-05-2.44515E-06 3.16615E-19-2.41129E-18
 -1      2337 9.71411E-05-2.85394E-05-2.94053E-05-3.20149E-06 2.13156E-19-3.22156E-18
 -1      2338 9.69942E-05-2.86751E-05-2.92716E-05-2.17902E-06-2.28209E-19-2.66981E-18
 -1      2339 9.67012E-05-2.86101E-05-2.91811E-05-1.95751E-06-3.74054E-19-2.32729E-18
 -1      2340 9.66653E-05-2.84231E-05-2.92506E-05-2.62093E-06-1.50450E-19-3.36688E-18
 -1      2341 9.65380E-05-2.85895E-05-2.91134E-05-1.72061E-06-3.47978E-20-2.32546E-18
 -1      2342 9.63061E-05-2.85481E-05-2.90386E-05-1.52680E-06-1.76897E-19-2.60425E-18
 -1      2343 9.62951E-05-2.83733E-05-2.91128E-05-2.08835E-06-4.48329E-19-1.75254E-18
 -1      2344 9.61800E-05-2.85410E-05-2.89816E-05-1.32467E-06-1.43999E-19-2.21776E-18
 -1      2345 9.60001E-05-2.85157E-05-2.89214E-05-1.16179E-06-2.01121E-20-2.13671E-18
 -1      2346 9.60089E-05-2.83633E-05-2.89939E-05-1.62336E-06 1.35452E-19-1.70207E-18
 -1      2347 9.59036E-05-2.85163E-05-2.88748E-05-9.94960E-07-1.56793E-19-2.22714E-18
 -1      2348 9.57669E-05-2.85021E-05-2.88274E-05-8.62400E-07-1.47466E-19-2.01637E-18
 -1      2349 9.57895E-05-2.83754E-05-2.88943E-05-1.23221E-06-1.16799E-19-1.30692E-18
 -1      2350 9.56940E-05-2.85066E-05-2.87901E-05-7.28482E-07-5.21893E-19-2.20025E-18
 -1      2351 9.55923E-05-2.84997E-05-2.87537E-05-6.23503E-07-3.91461E-19-1.65585E-18
 -1      2352 9.56233E-05-2.83983E-05-2.88128E-05-9.12940E-07-1.06547E-19-1.22174E-18
 -1      2353 9.55381E-05-2.85060E-05-2.87245E-05-5.18626E-07-4.22372E-19-2.25072E-18
 -1      2354 9.54643E-05-2.85037E-05-2.86971E-05-4.37523E-07-6.84569E-19-1.21284E-18
 -1      2355 9.54991E-05-2.84251E-05-2.87478E-05-6.59034E-07-6.59853E-19-1.16014E-18
 -1      2356 9.54246E-05-2.85104E-05-2.86748E-05-3.57271E-07-1.27401E-18-1.08834E-18
 -1      2357 9.53725E-05-2.85109E-05-2.86547E-05-2.96085E-07-8.09713E-19-1.16529E-18
 -1      2358 9.54078E-05-2.84517E-05-2.86969E-05-4.61834E-07-7.74979E-19-5.61960E-19
 -1      2359 9.53441E-05-2.85173E-05-2.86379E-05-2.36071E-07-7.58628E-20-1.00279E-18
 -1      2360 9.53084E-05-2.85195E-05-2.86237E-05-1.91009E-07 1.21477E-19-1.29992E-18
 -1      2361 9.53420E-05-2.84761E-05-2.86579E-05-3.12118E-07-5.35451E-19-5.12016E-19
 -1      2362 9.52887E-05-2.85252E-05-2.86114E-05-1.47191E-07 1.71035E-19-8.18864E-19
 -1      2363 9.52653E-05-2.85281E-05-2.86015E-05-1.14850E-07 8.40462E-19-1.17281E-18
 -1      2364 9.52958E-05-2.84974E-05-2.86288E-05-2.01031E-07 2.73989E-19-6.73518E-19
 -1      2365 9.52520E-05-2.85330E-05-2.85927E-05-8.36867E-08 6.06859E-19-1.11349E-18
 -1      2366 9.52376E-05-2.85362E-05-2.85862E-05-6.11482E-08 8.55773E-19-1.35197E-18
 -1      2367 9.52642E-05-2.85151E-05-2.86074E-05-1.20593E-07 7.94408E-19-1.66966E-19
 -1      2368 9.52290E-05-2.85402E-05-2.85801E-05-3.96522E-08 3.52503E-19-1.40650E-18
 -1      2369 9.52210E-05-2.85434E-05-2.85760E-05-2.44938E-08-9.32817E-20-1.34804E-18
 -1      2370 9.52436E-05-2.85296E-05-2.85923E-05-6.39163E-08 2.82821E-19-1.38261E-18
 -1      2371 9.52159E-05-2.85466E-05-2.85720E-05-1.02185E-08-8.91836E-19-1.81222E-18
 -1      2372 9.52122E-05-2.85496E-05-2.85696E-05-4.87592E-10-8.46817E-19-1.85355E-18
 -1      2373 9.52309E-05-2.85410E-05-2.85818E-05-2.52562E-08-3.78257E-19-8.90814E-19
 -1      2374 9.52095E-05-2.85521E-05-2.85671E-05 8.51919E-09 2.54621E-19-2.23788E-18
 -1      2375 9.52088E-05-2.85547E-05-2.85660E-05 1.43574E-08 8.46162E-20-6.79844E-19
 -1      2376 9.52237E-05-2.85498E-05-2.85748E-05 4.69736E-11-1.05269E-18-1.79786E-18
 -1      2377 9.52078E-05-2.85567E-05-2.85645E-05 1.96157E-08-7.28655E-19-1.03851E-18
 -1      2378 9.52090E-05-2.85590E-05-2.85642E-05 2.27372E-08-5.81764E-19-4.78624E-19
 -1      2379 9.52205E-05-2.85566E-05-2.85704E-05 1.56791E-08 7.97248E-20-6.04646E-19
 -1      2380 9.52090E-05-2.85605E-05-2.85635E-05 2.54007E-08 2.12317E-19 8.27200E-19
 -1      2381 9.52112E-05-2.85625E-05-2.85637E-05 2.66814E-08 1.52595E-18 1.65932E-18
 -1      2382 9.52199E-05-2.85617E-05-2.85679E-05 2.44842E-08 9.15592E-19 5.81454E-19
 -1      2383 9.52119E-05-2.85637E-05-2.85635E-05 2.75997E-08 1.55415E-18 1.38808E-18
 -1      2384 9.52147E-05-2.85653E-05-2.85640E-05 2.76684E-08 2.43698E-18 1.06167E-18
 -1      2385 9.52209E-05-2.85654E-05-2.85667E-05 2.85986E-08 1.37474E-18 2.35149E-18
 -1      2386 9.52158E-05-2.85662E-05-2.85641E-05 2.74426E-08 3.34330E-18 3.42487E-19
 -1      2387 9.52188E-05-2.85677E-05-2.85648E-05 2.67262E-08 4.49009E-18 8.23220E-19
 -1      2388 9.52229E-05-2.85682E-05-2.85663E-05 2.95741E-08 2.30717E-18 9.35962E-19
 -1      2389 9.52201E-05-2.85684E-05-2.85650E-05 2.57557E-08 3.47629E-18-7.86288E-20
 -1      2390 9.52231E-05-2.85697E-05-2.85657E-05 2.45167E-08 2.82444E-18-5.44822E-19
 -1      2391 9.52254E-05-2.85704E-05-2.85664E-05 2.84867E-08 3.11795E-18-1.21147E-19
 -1      2392 9.52244E-05-2.85704E-05-2.85660E-05 2.30379E-08 3.05630E-18-1.10862E-18
 -1      2393 9.52272E-05-2.85715E-05-2.85667E-05 2.14083E-08 1.45233E-18-7.47737E-19
 -1      2394 9.52282E-05-2.85723E-05-2.85668E-05 2.60285E-08 2.18106E-18-1.23572E-18
 -1      2395 9.52286E-05-2.85723E-05-2.85670E-05 1.95389E-08 3.08573E-19 3.14509E-19
 -1      2396 9.52310E-05-2.85734E-05-2.85676E-05 1.75492E-08 5.71095E-19 1.49106E-18
 -1      2397 9.52310E-05-2.85740E-05-2.85673E-05 2.25932E-08 2.08972E-18-5.80239E-19
 -1      2398 1.13031E-04-3.59185E-05-3.31087E-05-5.74823E-06 3.38548E-19 2.79981E-18
 -1      2399 1.11627E-04-3.45852E-05-3.29712E-05-6.62082E-06 7.13711E-19 2.81810E-18
 -1      2400 1.16356E-04-3.89111E-05-3.32833E-05-2.32684E-06 2.50073E-20 2.90025E-18
 -1      2401 1.15129E-04-3.75801E-05-3.31877E-05-4.38297E-06 4.73015E-20 2.91653E-18
 -1      2402 1.12388E-04-3.71962E-05-3.22922E-05-6.65869E-06 2.17927E-19 1.62035E-18
 -1      2403 1.19300E-04-4.12058E-05-3.35742E-05 3.54488E-06 3.66348E-19 3.48857E-18
 -1      2404 1.18803E-04-4.05571E-05-3.34996E-05 5.12696E-07-1.75561E-20 3.28184E-18
 -1      2405 1.17141E-04-4.12588E-05-3.25721E-05-2.51849E-06-1.67593E-19 2.12181E-18
 -1      2406 1.20434E-04-4.07562E-05-3.42188E-05 1.05474E-05 7.87457E-19 4.48965E-18
 -1      2407 1.21297E-04-4.18602E-05-3.40791E-05 7.51924E-06 4.23593E-19 4.27379E-18
 -1      2408 1.21857E-04-4.40097E-05-3.33971E-05 4.46842E-06-1.22257E-20 3.03541E-18
 -1      2409 1.18250E-04-3.55561E-05-3.54001E-05 1.47647E-05 2.06251E-18 4.78792E-18
 -1      2410 1.20490E-04-3.89104E-05-3.51269E-05 1.38723E-05 1.47422E-18 4.98179E-18
 -1      2411 1.24029E-04-4.22959E-05-3.51200E-05 1.27007E-05 9.62415E-19 4.52387E-18
 -1      2412 1.13579E-04-2.76843E-05-3.68320E-05 1.17891E-05 3.54102E-18 3.56222E-18
 -1      2413 1.16187E-04-3.17681E-05-3.64891E-05 1.43670E-05 2.96530E-18 4.26417E-18
 -1      2414 1.21877E-04-3.45879E-05-3.74850E-05 1.69816E-05 2.73544E-18 4.68370E-18
 -1      2415 1.10873E-04-2.30918E-05-3.77002E-05 8.20486E-07 3.66405E-18 7.83453E-19
 -1      2416 1.11700E-04-2.44361E-05-3.75732E-05 6.24922E-06 3.95056E-18 2.24785E-18
 -1      2417 1.17646E-04-2.49669E-05-3.98500E-05 1.03639E-05 4.54446E-18 2.82999E-18
 -1      2418 1.13112E-04-2.64462E-05-3.73873E-05-1.10762E-05 3.45915E-18-2.45461E-18
 -1      2419 1.11150E-04-2.38420E-05-3.75621E-05-6.59289E-06 3.41227E-18-1.24278E-18
 -1      2420 1.15331E-04-2.08165E-05-4.07335E-05-2.74057E-06 5.09723E-18-7.26318E-19
 -1      2421 1.18504E-04-3.46123E-05-3.61729E-05-1.63256E-05 2.49258E-18-3.94179E-18
 -1      2422 1.15545E-04-3.04411E-05-3.64603E-05-1.49720E-05 3.02849E-18-3.58108E-18
 -1      2423 1.19181E-04-2.78032E-05-3.93201E-05-1.46711E-05 4.10043E-18-4.03634E-18
 -1      2424 1.22050E-04-4.08379E-05-3.49019E-05-1.31279E-05 1.52696E-18-3.78986E-18
 -1      2425 1.19981E-04-3.81361E-05-3.50974E-05-1.51095E-05 1.91833E-18-3.86622E-18
 -1      2426 1.23598E-04-3.78852E-05-3.67641E-05-1.69938E-05 2.33299E-18-5.03918E-18
 -1      2427 1.21655E-04-4.21702E-05-3.40630E-05-5.92636E-06-1.96088E-19-3.13257E-18
 -1      2428 1.21194E-04-4.17140E-05-3.41433E-05-9.16489E-06 7.33504E-19-3.29502E-18
 -1      2429 1.24313E-04-4.38303E-05-3.44755E-05-1.09285E-05 8.73480E-19-4.72515E-18
 -1      2430 1.18607E-04-4.01574E-05-3.35899E-05 8.36221E-07-8.61995E-19-2.51312E-18
 -1      2431 1.19380E-04-4.10677E-05-3.36642E-05-2.01441E-06-1.17863E-19-2.54990E-18
 -1      2432 1.20959E-04-4.38050E-05-3.30875E-05-2.62998E-06-3.57991E-19-3.26651E-18
 -1      2433 1.14728E-04-3.71268E-05-3.32286E-05 5.31835E-06-2.10124E-19-2.44602E-18
 -1      2434 1.16130E-04-3.84356E-05-3.33814E-05 3.48393E-06-8.98742E-19-2.54738E-18
 -1      2435 1.15971E-04-4.04462E-05-3.24167E-05 3.90689E-06-5.82630E-19-2.78611E-18
 -1      2436 1.11054E-04-3.44175E-05-3.28256E-05 7.49754E-06 1.98226E-19-1.36122E-18
 -1      2437 1.12648E-04-3.56020E-05-3.30703E-05 6.63855E-06-3.31203E-21-1.75997E-18
 -1      2438 1.11256E-04-3.65217E-05-3.20738E-05 7.71035E-06-5.63651E-19-2.75339E-18
 -1      2439 1.07920E-04-3.24243E-05-3.23451E-05 8.02400E-06-2.77271E-21-1.83457E-19
 -1      2440 1.09472E-04-3.33323E-05-3.26527E-05 7.85660E-06 5.98462E-19-4.48813E-19
 -1      2441 1.07510E-04-3.33777E-05-3.18028E-05 9.24193E-06-4.28580E-19-5.82409E-19
 -1      2442 1.05331E-04-3.10855E-05-3.18142E-05 7.57711E-06-6.29193E-19-3.14033E-19
 -1      2443 1.06739E-04-3.17350E-05-3.21452E-05 7.81188E-06-4.77294E-19-3.48733E-19
 -1      2444 1.04710E-04-3.12618E-05-3.14974E-05 9.28758E-06-1.35393E-19-4.03113E-19
 -1      2445 1.03208E-04-3.02188E-05-3.12775E-05 6.66045E-06 1.17496E-19-5.80574E-19
 -1      2446 1.04431E-04-3.06731E-05-3.15992E-05 7.08307E-06-8.27561E-20-2.01097E-19
 -1      2447 1.02619E-04-2.99771E-05-3.11440E-05 8.51276E-06-2.46168E-19-7.26765E-19
 -1      2448 1.01469E-04-2.96600E-05-3.07724E-05 5.59018E-06-2.01833E-19-2.21906E-19
 -1      2449 1.02501E-04-2.99781E-05-3.10642E-05 6.06705E-06 5.17104E-20-4.26443E-19
 -1      2450 1.01018E-04-2.92471E-05-3.07668E-05 7.37263E-06-7.07351E-20-3.06941E-19
 -1      2451 1.00051E-04-2.92939E-05-3.03218E-05 4.54196E-06-3.12112E-20 1.57745E-19
 -1      2452 1.00901E-04-2.95189E-05-3.05738E-05 5.00034E-06-3.70746E-19-1.17070E-19
 -1      2453 9.97587E-05-2.88509E-05-3.03948E-05 6.14337E-06-4.65081E-19-1.06323E-19
 -1      2454 9.89047E-05-2.90486E-05-2.99356E-05 3.60061E-06-6.18414E-19 9.52178E-19
 -1      2455 9.95903E-05-2.92093E-05-3.01457E-05 4.00682E-06-9.16533E-20 5.22797E-19
 -1      2456 9.87495E-05-2.86439E-05-3.00502E-05 4.97572E-06-5.28594E-19 2.05002E-19
 -1      2457 9.79878E-05-2.88806E-05-2.96147E-05 2.79752E-06-2.97519E-19-2.23037E-19
 -1      2458 9.85312E-05-2.89960E-05-2.97852E-05 3.14042E-06-1.79124E-19 1.00224E-18
 -1      2459 9.79358E-05-2.85401E-05-2.97455E-05 3.94066E-06-3.97487E-19 8.26885E-19
 -1      2460 9.72642E-05-2.87641E-05-2.93548E-05 2.13520E-06-6.48395E-19-6.29513E-19
 -1      2461 9.76876E-05-2.88468E-05-2.94899E-05 2.41547E-06-2.69773E-19-4.22269E-19
 -1      2462 9.72817E-05-2.84912E-05-2.94857E-05 3.06220E-06-2.69251E-19-1.92797E-19
 -1      2463 9.67013E-05-2.86832E-05-2.91485E-05 1.60222E-06-8.01619E-19-6.19937E-19
 -1      2464 9.70259E-05-2.87419E-05-2.92536E-05 1.82597E-06-8.71800E-19-2.06560E-19
 -1      2465 9.67606E-05-2.84715E-05-2.92705E-05 2.33882E-06-9.62566E-19 1.98560E-19
 -1      2466 9.62702E-05-2.86276E-05-2.89879E-05 1.18153E-06-1.00790E-19-1.80341E-19
 -1      2467 9.65149E-05-2.86686E-05-2.90682E-05 1.35686E-06-5.56905E-19 9.30067E-20
 -1      2468 9.63507E-05-2.84672E-05-2.90962E-05 1.75653E-06-7.72200E-19 4.60045E-19
 -1      2469 9.59454E-05-2.85903E-05-2.88649E-05 8.54965E-07-3.47369E-19 1.25922E-19
 -1      2470 9.61268E-05-2.86182E-05-2.89253E-05 9.90130E-07 1.82955E-19 1.93594E-20
 -1      2471 9.60331E-05-2.84710E-05-2.89580E-05 1.29646E-06-1.24761E-19 8.12495E-19
 -1      2472 9.57051E-05-2.85663E-05-2.87725E-05 6.05353E-07 4.28797E-19 6.88090E-19
 -1      2473 9.58369E-05-2.85847E-05-2.88171E-05 7.07962E-07-2.93487E-19 3.39710E-19
 -1      2474 9.57911E-05-2.84792E-05-2.88503E-05 9.38849E-07-5.60940E-19-2.90656E-19
 -1      2475 9.55308E-05-2.85519E-05-2.87042E-05 4.17483E-07 9.11315E-20 7.48173E-19
 -1      2476 9.56245E-05-2.85633E-05-2.87365E-05 4.94172E-07 1.01484E-18 1.23223E-18
 -1      2477 9.56099E-05-2.84893E-05-2.87678E-05 6.65160E-07 2.21673E-19-6.57797E-19
 -1      2478 9.54073E-05-2.85442E-05-2.86548E-05 2.78360E-07 1.97017E-18 1.08425E-18
 -1      2479 9.54723E-05-2.85507E-05-2.86776E-05 3.34729E-07 6.43391E-19 9.55888E-19
 -1      2480 9.54769E-05-2.85002E-05-2.87058E-05 4.58932E-07 7.09765E-19 9.81648E-20
 -1      2481 9.53223E-05-2.85412E-05-2.86199E-05 1.77160E-07 1.87287E-18 4.99450E-19
 -1      2482 9.53658E-05-2.85443E-05-2.86355E-05 2.17825E-07 2.87233E-18 1.56988E-18
 -1      2483 9.53815E-05-2.85109E-05-2.86600E-05 3.06065E-07 2.14509E-18 1.80232E-18
 -1      2484 9.52658E-05-2.85412E-05-2.85958E-05 1.05036E-07-3.71472E-19-1.15935E-18
 -1      2485 9.52936E-05-2.85420E-05-2.86062E-05 1.33742E-07 7.89908E-19-5.75088E-19
 -1      2486 9.53149E-05-2.85209E-05-2.86269E-05 1.94776E-07 1.69877E-18 3.15475E-19
 -1      2487 9.52302E-05-2.85431E-05-2.85798E-05 5.48765E-08-1.68967E-18-1.24759E-18
 -1      2488 9.52468E-05-2.85425E-05-2.85864E-05 7.46114E-08-1.44848E-18-1.37237E-18
 -1      2489 9.52699E-05-2.85300E-05-2.86035E-05 1.15410E-07-7.00826E-19-6.40403E-19
 -1      2490 9.52094E-05-2.85460E-05-2.85698E-05 2.10406E-08-7.46547E-19-1.03036E-19
 -1      2491 9.52182E-05-2.85446E-05-2.85736E-05 3.41575E-08-1.27250E-18-1.16879E-18
 -1      2492 9.52408E-05-2.85381E-05-2.85874E-05 6.01829E-08-1.49050E-18-9.73139E-19
 -1      2493 9.51990E-05-2.85494E-05-2.85639E-05-8.79987E-10 3.85845E-19-5.85329E-19
 -1      2494 9.52025E-05-2.85475E-05-2.85659E-05 7.44649E-09 2.37316E-19-1.98693E-19
 -1      2495 9.52233E-05-2.85450E-05-2.85768E-05 2.29103E-08-3.65950E-19-1.07997E-18
 -1      2496 9.51955E-05-2.85530E-05-2.85610E-05-1.42807E-08 1.44671E-18-4.32598E-19
 -1      2497 9.51955E-05-2.85509E-05-2.85616E-05-9.34671E-09 9.91265E-19-2.77082E-19
 -1      2498 9.52138E-05-2.85508E-05-2.85701E-05-1.24762E-09 6.52879E-19-1.94268E-18
 -1      2499 9.51965E-05-2.85563E-05-2.85600E-05-2.17335E-08-4.37361E-19 1.23009E-18
 -1      2500 9.51944E-05-2.85543E-05-2.85598E-05-1.91411E-08 5.73233E-19 6.55527E-19
 -1      2501 9.52099E-05-2.85557E-05-2.85663E-05-1.60215E-08 3.78487E-19-7.43485E-19
 -1      2502 9.52003E-05-2.85595E-05-2.85603E-05-2.51469E-08-1.78804E-19 7.51419E-19
 -1      2503 9.51969E-05-2.85576E-05-2.85596E-05-2.41238E-08-6.15237E-19 1.09687E-18
 -1      2504 9.52097E-05-2.85597E-05-2.85644E-05-2.42369E-08-3.82390E-19 1.24222E-18
 -1      2505 9.52055E-05-2.85623E-05-2.85613E-05-2.58983E-08-5.13340E-19-2.21083E-19
 -1      2506 9.52016E-05-2.85606E-05-2.85604E-05-2.58947E-08 2.11510E-19 6.45854E-19
 -1      2507 9.52117E-05-2.85629E-05-2.85638E-05-2.79882E-08-2.86352E-19 1.22301E-18
 -1      2508 9.52113E-05-2.85649E-05-2.85627E-05-2.49400E-08-1.98916E-18-2.30466E-19
 -1      2509 9.52073E-05-2.85633E-05-2.85617E-05-2.55848E-08-1.84649E-18-3.26264E-19
 -1      2510 9.52150E-05-2.85656E-05-2.85641E-05-2.87834E-08-1.33139E-18 2.09809E-18
 -1      2511 9.52172E-05-2.85671E-05-2.85643E-05-2.28831E-08-1.85953E-18 7.66727E-19
 -1      2512 9.52133E-05-2.85657E-05-2.85633E-05-2.39502E-08-1.68454E-18-3.06851E-19
 -1      2513 9.52189E-05-2.85678E-05-2.85648E-05-2.76615E-08-2.39505E-18 1.82320E-18
 -1      2514 9.52228E-05-2.85692E-05-2.85658E-05-2.00619E-08-6.49361E-19-1.11363E-19
 -1      2515 9.52192E-05-2.85679E-05-2.85649E-05-2.14459E-08-1.71177E-18-1.14279E-19
 -1      2516 9.52230E-05-2.85698E-05-2.85657E-05-2.52881E-08-1.58320E-18-3.05646E-19
 -1      2517 9.52278E-05-2.85712E-05-2.85672E-05-1.65872E-08-1.70082E-18 7.83612E-19
 -1      2518 9.52248E-05-2.85700E-05-2.85664E-05-1.82834E-08-4.05953E-19 1.87678E-18
 -1      2519 9.52271E-05-2.85716E-05-2.85666E-05-2.20495E-08-1.62170E-18-6.57597E-19
 -1      2520 9.52322E-05-2.85731E-05-2.85682E-05-1.24852E-08 2.90692E-19 5.15955E-19
 -1      2521 9.52296E-05-2.85720E-05-2.85676E-05-1.44828E-08-1.08217E-18 5.31638E-19
 -1      2522 9.52309E-05-2.85734E-05-2.85675E-05-1.80921E-08-1.02891E-18-2.82648E-19
 -1      2523 9.52340E-05-2.85739E-05-2.85686E-05-9.81077E-09 2.05800E-18-9.46371E-20
 -1      2524 9.52460E-05-2.85907E-05-2.85665E-05-1.30468E-08 1.37043E-18-2.56554E-19
 -1      2525 9.52447E-05-2.85888E-05-2.85668E-05-1.44234E-08 1.07845E-18-3.83519E-18
 -1      2526 9.52480E-05-2.85935E-05-2.85661E-05-9.01261E-09-4.87386E-19 1.64567E-18
 -1      2527 9.52471E-05-2.85921E-05-2.85664E-05-1.10234E-08 4.32364E-19 9.37353E-19
 -1      2528 9.52472E-05-2.85901E-05-2.85674E-05-1.35666E-08 1.01844E-18-9.21304E-20
 -1      2529 9.52400E-05-2.85825E-05-2.85674E-05-1.62531E-08 9.39427E-19-1.89549E-18
 -1      2530 9.52382E-05-2.85801E-05-2.85678E-05-1.58027E-08 7.34591E-19 6.87936E-19
 -1      2531 9.52433E-05-2.85870E-05-2.85670E-05-1.56111E-08 4.07964E-19-5.86461E-18
 -1      2532 9.52417E-05-2.85847E-05-2.85673E-05-1.61255E-08 7.50119E-19-4.36281E-18
 -1      2533 9.52406E-05-2.85827E-05-2.85677E-05-1.84097E-08 7.24294E-19-3.42008E-18
 -1      2534 9.52443E-05-2.85868E-05-2.85675E-05-1.69782E-08 1.51902E-18-4.03472E-18
 -1      2535 9.52490E-05-2.85951E-05-2.85659E-05-4.03884E-09-2.64172E-18-1.41846E-18
 -1      2536 9.52486E-05-2.85944E-05-2.85661E-05-6.43001E-09-1.49213E-18-9.95797E-19
 -1      2537 9.52492E-05-2.85924E-05-2.85672E-05-8.68672E-09-1.12414E-18-1.16820E-19
 -1      2538 9.52492E-05-2.85954E-05-2.85659E-05 1.33452E-09-1.91172E-18 1.55293E-19
 -1      2539 9.52492E-05-2.85954E-05-2.85659E-05-1.17951E-09-2.34854E-18 9.46726E-19
 -1      2540 9.52502E-05-2.85936E-05-2.85672E-05-2.93081E-09-1.54216E-18-4.44345E-19
 -1      2541 9.52485E-05-2.85943E-05-2.85661E-05 6.56684E-09-8.35054E-19-1.01579E-18
 -1      2542 9.52490E-05-2.85951E-05-2.85659E-05 4.18744E-09-1.55053E-18 2.24723E-20
 -1      2543 9.52502E-05-2.85936E-05-2.85672E-05 3.10849E-09 4.21783E-19 1.89495E-19
 -1      2544 9.52470E-05-2.85921E-05-2.85664E-05 1.10522E-08 8.54200E-19-1.27565E-18
 -1      2545 9.52479E-05-2.85934E-05-2.85661E-05 9.09082E-09-3.34234E-19-9.75018E-19
 -1      2546 9.52492E-05-2.85924E-05-2.85672E-05 8.79322E-09 5.44087E-21-6.42877E-19
 -1      2547 9.52447E-05-2.85887E-05-2.85668E-05 1.44232E-08 1.69168E-18-6.21509E-19
 -1      2548 9.52460E-05-2.85907E-05-2.85665E-05 1.30601E-08 1.89318E-18-2.68459E-18
 -1      2549 9.52472E-05-2.85900E-05-2.85674E-05 1.35950E-08 1.09853E-18-9.22601E-19
 -1      2550 9.52416E-05-2.85846E-05-2.85673E-05 1.60951E-08 4.38416E-19-7.97011E-19
 -1      2551 9.52433E-05-2.85869E-05-2.85670E-05 1.56038E-08 1.11597E-18-4.39604E-19
 -1      2552 9.52442E-05-2.85867E-05-2.85675E-05 1.69894E-08 8.52275E-19-1.28425E-18
 -1      2553 9.52381E-05-2.85799E-05-2.85678E-05 1.56613E-08-2.68600E-19-6.75741E-19
 -1      2554 9.52399E-05-2.85824E-05-2.85675E-05 1.62300E-08 8.27068E-20-7.48332E-19
 -1      2555 9.52406E-05-2.85826E-05-2.85677E-05 1.83562E-08 6.48710E-19-9.67723E-19
 -1      2556 2.26733E-05-2.11815E-05-5.26656E-07 1.75287E-05 1.28643E-18 9.17083E-18
 -1      2557 1.77143E-05-1.89106E-05 6.86690E-07 3.95136E-06 1.16904E-18 8.83032E-18
 -1      2558 5.26031E-05-3.45454E-05-7.70781E-06 3.81830E-05-1.31332E-18 5.03773E-18
 -1      2559 3.54898E-05-2.73010E-05-3.19484E-06 2.83031E-05-6.14946E-19 7.81917E-18
 -1      2560 1.95278E-05-1.89392E-05 3.30055E-08-1.03375E-05 2.23918E-18 9.21784E-18
 -1      2561 2.75026E-05-2.22427E-05-2.08857E-06-2.58871E-05 1.94691E-18 9.35971E-18
 -1      2562 1.10162E-04-3.33085E-05-3.29588E-05-6.71995E-06 1.18924E-18 2.73579E-18
 -1      2563 1.08957E-04-3.22294E-05-3.28279E-05-6.57013E-06 1.65383E-18 3.00017E-18
 -1      2564 1.08671E-04-3.35077E-05-3.22674E-05-7.93892E-06 1.10355E-18 1.43604E-18
 -1      2565 9.52357E-05-2.85764E-05-2.85683E-05 1.18918E-08 4.93201E-19 1.16266E-18
 -1      2566 9.11746E-05-5.17340E-05-1.69026E-05 4.08235E-05-7.32048E-19 1.53829E-18
 -1      2567 7.56270E-05-4.54565E-05-1.25626E-05 4.01571E-05-1.68454E-18 2.51230E-18
 -1      2568 1.26458E-04-5.95675E-05-2.87975E-05 2.77572E-05 1.95029E-18-1.16912E-18
 -1      2569 1.08076E-04-5.73189E-05-2.17208E-05 3.38159E-05 1.19855E-19-6.77626E-20
 -1      2570 1.47410E-04-5.36745E-05-4.03768E-05 1.09762E-05 5.29629E-18-2.93073E-18
 -1      2571 1.37873E-04-5.73310E-05-3.45724E-05 1.65515E-05 3.70048E-18-2.28953E-18
 -1      2572 1.35675E-04-5.49528E-05-3.48931E-05 2.16588E-05-4.37397E-18-1.82366E-18
 -1      2573 1.21449E-04-5.63414E-05-2.78054E-05 2.94315E-05-2.55105E-18-2.99257E-18
 -1      2574 7.72657E-05-5.35471E-06-3.08611E-05 2.24671E-06 1.08958E-18-7.31679E-18
 -1      2575 7.86452E-05-6.15145E-06-3.10646E-05 1.90378E-06 5.32169E-19-7.32415E-18
 -1      2576 8.03631E-05-8.48494E-06-3.08093E-05 2.52307E-06 3.92140E-19-6.85696E-18
 -1      2577 7.72181E-05-6.24107E-06-3.04101E-05 2.74391E-06 1.26121E-18-6.92839E-18
 -1      2578 1.48693E-04-1.28024E-05-5.86196E-05-2.96119E-08 1.13185E-17-1.77933E-18
 -1      2579 1.52648E-04-1.46067E-05-5.92830E-05-3.35091E-06 1.10470E-17-2.49462E-18
 -1      2580 1.48250E-04-1.10257E-05-5.89713E-05-4.93263E-07-1.14633E-17-4.60437E-18
 -1      2581 1.42390E-04-1.19214E-05-5.64487E-05-3.13642E-06-1.12287E-17-4.10557E-18
 -1      2582 1.54237E-04-1.85404E-05-5.83548E-05-5.85331E-06 1.04723E-17-3.06689E-18
 -1      2583 1.52396E-04-2.38448E-05-5.54574E-05-7.38010E-06 9.59985E-18-3.00443E-18
 -1      2584 1.41561E-04-1.46707E-05-5.46242E-05-7.06255E-06 1.02135E-17-2.97483E-18
 -1      2585 1.54191E-04-2.54185E-05-5.52099E-05 6.55047E-06 9.47936E-18-7.80329E-19
 -1      2586 1.50819E-04-1.81824E-05-5.72780E-05 6.63533E-06 1.03978E-17-5.52477E-19
 -1      2587 1.51489E-04-4.31290E-05-4.67208E-05 2.50536E-07 5.95962E-18-4.24787E-19
 -1      2588 1.54569E-04-3.49170E-05-5.17740E-05 3.63010E-06 7.76666E-18-3.32884E-19
 -1      2589 1.40323E-04-5.71489E-05-3.56737E-05-1.41445E-05 2.12732E-18-1.59115E-18
 -1      2590 1.49532E-04-5.21293E-05-4.20119E-05-8.31587E-06 4.44428E-18-1.18690E-18
 -1      2591 1.06346E-04-5.62009E-05-2.12700E-05-3.54962E-05-1.25319E-18-5.82060E-18
 -1      2592 1.26391E-04-5.97717E-05-2.89496E-05-2.89670E-05 3.48554E-19-3.62880E-18
 -1      2593 6.30637E-05-4.08007E-05-9.44306E-06-3.99420E-05-1.90582E-18-1.03110E-17
 -1      2594 8.23496E-05-4.76905E-05-1.50829E-05-4.29568E-05-1.37939E-18-8.28081E-18
 -1      2595 3.13398E-05-2.62393E-05-2.11971E-06-2.68044E-05-1.54753E-18-1.18906E-17
 -1      2596 4.56021E-05-3.24056E-05-5.61492E-06-3.69725E-05-1.00331E-18-1.15988E-17
 -1      2597 6.14987E-05-3.56159E-05-1.06393E-05-3.85332E-05-3.01671E-18-1.00878E-17
 -1      2598 1.64556E-05-1.81270E-05 7.85809E-07 1.52301E-08-8.07593E-19-1.23790E-17
 -1      2599 1.98515E-05-2.03048E-05 2.52929E-07-1.44764E-05-4.18540E-19-1.23608E-17
 -1      2600 2.81287E-05-2.07573E-05-2.88280E-06 2.55618E-05 8.22045E-19-1.11222E-17
 -1      2601 2.02482E-05-1.86688E-05-4.22621E-07 1.27996E-05 5.09808E-19-1.20262E-17
 -1      2602 1.03657E-04-5.35865E-05-2.17099E-05 4.06082E-05-1.31862E-18-4.59304E-18
 -1      2603 8.60469E-05-4.86071E-05-1.57794E-05 4.20788E-05-9.14796E-20-6.39029E-18
 -1      2604 1.47585E-04-4.27854E-05-4.53901E-05 4.49863E-06-7.60286E-18-9.88064E-19
 -1      2605 1.42630E-04-4.88390E-05-4.02885E-05 1.01183E-05-6.02754E-18-1.21253E-18
 -1      2606 1.45115E-04-2.23684E-05-5.32210E-05-6.62784E-06-9.96958E-18-2.55402E-18
 -1      2607 1.47338E-04-3.23821E-05-4.94623E-05-2.92146E-06-8.79368E-18-1.72646E-18
 -1      2608 1.45683E-04-1.41465E-05-5.68072E-05 4.61200E-06-1.00414E-17-5.45913E-18
 -1      2609 1.47891E-04-1.17733E-05-5.86955E-05 2.04077E-06-1.10110E-17-5.11629E-18
 -1      2610 1.35031E-04-8.63204E-06-5.43907E-05 1.37079E-06-1.06373E-17-5.30448E-18
 -1      2611 1.46828E-04-3.23882E-05-4.91947E-05 2.87429E-06-5.97836E-18-6.01203E-18
 -1      2612 1.48608E-04-2.33599E-05-5.41571E-05 4.99717E-06-8.22257E-18-6.22357E-18
 -1      2613 1.39712E-04-5.12105E-05-3.80050E-05-1.36160E-05-1.42206E-18-3.91308E-18
 -1      2614 1.46021E-04-4.54036E-05-4.37215E-05-5.75130E-06-3.26391E-18-5.29671E-18
 -1      2615 1.17453E-04-5.61445E-05-2.62313E-05-3.11988E-05 1.42365E-18 3.91753E-19
 -1      2616 1.31346E-04-5.55382E-05-3.27965E-05-2.53328E-05 9.48677E-20-2.15083E-18
 -1      2617 4.40808E-05-2.99342E-05-5.63136E-06-3.56481E-05 3.21301E-18 8.36233E-18
 -1      2618 5.89039E-05-3.63582E-05-9.33319E-06-4.28551E-05 3.08701E-18 7.49285E-18
 -1      2619 1.01572E-04-2.24299E-05-3.39569E-05-7.23493E-06-4.46750E-18-2.31805E-18
 -1      2620 1.02824E-04-2.61558E-05-3.28924E-05-3.71790E-06-4.04784E-18-1.73095E-18
 -1      2621 1.01539E-04-2.52751E-05-3.26712E-05-2.99669E-06-3.60737E-18-2.46482E-18
 -1      2622 9.84214E-05-1.96449E-05-3.37885E-05-6.46955E-06-4.19879E-18-3.64154E-18
 -1      2623 1.06728E-04-2.80069E-05-3.37410E-05 1.11533E-06 4.46830E-18 4.46148E-18
 -1      2624 1.06906E-04-2.64933E-05-3.44760E-05 4.43792E-06 4.86284E-18 5.15229E-18
 -1      2625 1.04133E-04-2.35642E-05-3.45841E-05 5.11388E-06 5.28801E-18 3.20279E-18
 -1      2626 1.04380E-04-2.63217E-05-3.34905E-05 6.65602E-08 4.51536E-18 2.04454E-18
 -1      2627 1.36171E-04-1.76109E-05-5.12675E-05 8.81239E-06 9.03488E-18 1.37389E-18
 -1      2628 1.43587E-04-1.53160E-05-5.54317E-05 4.48476E-06 1.03840E-17-3.27961E-19
 -1      2629 1.33227E-04-1.21784E-05-5.24967E-05 1.82507E-06 9.88932E-18-2.19924E-19
 -1      2630 8.93361E-05-1.45653E-05-3.20548E-05-4.87984E-07-1.64179E-18-6.03240E-18
 -1      2631 8.91197E-05-1.30370E-05-3.26619E-05-2.05396E-06-1.97358E-18-6.38330E-18
 -1      2632 9.14507E-05-1.44315E-05-3.30567E-05-3.38991E-06-2.73595E-18-5.97924E-18
 -1      2633 1.06216E-04-3.06966E-05-3.24061E-05-6.93261E-06 2.23171E-18 1.38911E-18
 -1      2634 1.00297E-04-2.04093E-05-3.42890E-05 4.42249E-06 5.29019E-18 7.88694E-19
 -1      2635 1.12056E-04-5.65124E-05-2.34594E-05-3.47277E-05 3.17764E-18 3.67083E-19
 -1      2636 1.50615E-04-3.00958E-05-5.19311E-05-1.02483E-05 7.93077E-18-3.81504E-18
 -1      2637 1.45353E-04-3.47967E-05-4.75523E-05-1.21032E-05 6.50553E-18-4.94540E-18
 -1      2638 1.40755E-04-2.40973E-05-5.05706E-05-1.40673E-05 8.14803E-18-4.25941E-18
 -1      2639 1.48816E-04-5.08544E-05-4.21388E-05-8.59889E-07 5.08987E-18-4.90093E-18
 -1      2640 1.36430E-04-5.62477E-05-3.42538E-05-1.37395E-05 6.62909E-19-4.69627E-18
 -1      2641 1.38439E-04-1.81337E-05-5.17897E-05 8.56832E-06-8.11542E-18-6.93508E-18
 -1      2642 6.95037E-05-3.93840E-05-1.24280E-05 3.80419E-05-2.95212E-18 2.96822E-18
 -1      2643 1.39225E-04-1.69139E-05-5.28721E-05-7.36781E-06-9.92850E-18-2.71813E-18
 -1      2644 1.33657E-04-2.16908E-05-4.83751E-05-1.00920E-05-8.37101E-18-9.03572E-19
 -1      2645 1.29898E-04-1.14747E-05-5.13977E-05-7.11449E-06-9.59286E-18-3.14620E-18
 -1      2646 9.52344E-05-2.85752E-05-2.85682E-05-1.31291E-08 1.47026E-18-5.41332E-19
 -1      2647 9.52356E-05-2.85770E-05-2.85680E-05-1.45225E-08 1.36582E-18-6.59975E-19
 -1      2648 1.42913E-04-3.79470E-05-4.50628E-05-4.99580E-06-6.61385E-18-2.85238E-19
 -1      2649 2.53050E-05-1.55420E-05-3.60688E-06-4.01621E-06 1.17843E-18 8.85234E-18
 -1      2650 3.58979E-05-2.16761E-05-5.52239E-06 2.33312E-05-1.02862E-18 7.53478E-18
 -1      2651 1.17124E-04-5.72437E-05-2.55174E-05 3.14221E-05 4.58668E-19-2.30658E-18
 -1      2652 4.25676E-05-2.36874E-05-7.52420E-06-3.02232E-05 2.72649E-18 8.20754E-18
 -1      2653 9.95539E-05-2.12475E-05-3.35222E-05 1.88029E-06 4.83798E-18 9.49603E-20
 -1      2654 1.34457E-04-6.11482E-05-3.12890E-05 1.70282E-05 6.64709E-19-3.55966E-18
 -1      2655 7.42861E-05-4.23176E-05-1.34973E-05-4.14050E-05 4.30123E-18 5.81425E-18
 -1      2656 1.07555E-04-5.65748E-05-2.15346E-05 3.32404E-05-2.16904E-18-6.82854E-19
 -1      2657 9.58274E-05-1.77788E-05-3.34933E-05-5.15732E-06-3.50669E-18-4.66881E-18
 -1      2658 3.92243E-05-2.42528E-05-5.89370E-06 3.17543E-05 1.72022E-18-1.03247E-17
 -1      2659 3.70314E-05-1.78682E-05-7.63843E-06 2.56433E-05 2.30012E-18-1.00045E-17
 -1      2660 5.04057E-05-2.75627E-05-9.78503E-06 3.65283E-05 3.24255E-18-8.57028E-18
 -1      2661 3.22992E-05-2.04088E-05-4.64385E-06-2.17509E-05-1.49575E-18-1.20963E-17
 -1      2662 1.00479E-04-5.31956E-05-1.98394E-05-3.68160E-05-3.19501E-18-5.61653E-18
 -1      2663 1.35427E-04-6.08677E-05-3.19498E-05-1.69098E-05-7.51318E-19-1.00585E-18
 -1      2664 1.48379E-04-4.96668E-05-4.22203E-05 3.69793E-06 3.34591E-18 1.87004E-18
 -1      2665 7.89540E-05-4.37975E-05-1.45778E-05 4.28756E-05 2.19276E-18-6.56424E-18
 -1      2666 1.39022E-04-5.43657E-05-3.62131E-05 1.07320E-05-2.96784E-18 3.16790E-19
 -1      2667 1.46109E-04-2.98148E-05-4.98998E-05 1.24174E-05 7.25717E-18 1.33704E-18
 -1      2668 2.42080E-05-1.46290E-05-3.60163E-06 5.92095E-06 3.98688E-19-1.19682E-17
 -1      2669 9.52336E-05-2.85747E-05-2.85682E-05 1.39094E-08 1.00225E-18 1.94355E-18
 -1      2670 9.52363E-05-2.85778E-05-2.85679E-05 1.53333E-08 2.79472E-19 5.91434E-19
 -1      2671 9.52363E-05-2.85781E-05-2.85678E-05 1.80064E-08 1.47323E-19 1.29648E-18
 -1      2672 9.52318E-05-2.85739E-05-2.85677E-05 1.60413E-08 2.86750E-19 1.62376E-18
 -1      2673 1.42944E-04-3.99275E-05-4.42487E-05 4.15513E-06-3.54494E-18-6.93805E-18
 -1      2674 9.52356E-05-2.85774E-05-2.85678E-05-1.74140E-08 3.86483E-19-8.52893E-19
 -1      2675 9.52333E-05-2.85754E-05-2.85677E-05 1.90345E-08 8.20140E-19 1.25732E-18
 -1      2676 7.66162E-05-6.59664E-06-3.00221E-05 5.94806E-07 2.85299E-18-6.07079E-18
 -1      2677 7.56762E-05-6.07685E-06-2.98508E-05 1.13510E-06 2.46265E-18-6.31382E-18
 -1      2678 7.53695E-05-5.98410E-06-2.97672E-05 2.21534E-06 2.23375E-18-6.53999E-18
 -1      2679 7.56692E-05-6.22926E-06-2.97598E-05 2.69813E-06 1.85452E-18-6.56380E-18
 -1      2680 7.55081E-05-7.07215E-06-2.92881E-05 1.65921E-06 2.27042E-18-6.18396E-18
 -1      2681 8.61897E-05-1.28952E-05-3.14143E-05-1.28074E-06 4.00581E-18-4.04609E-18
 -1      2682 8.31360E-05-1.09391E-05-3.09906E-05-1.30013E-06 3.65207E-18-4.68539E-18
 -1      2683 9.33173E-05-1.79339E-05-3.23105E-05-1.05151E-06 4.26137E-18-2.43389E-18
 -1      2684 8.96824E-05-1.54060E-05-3.18738E-05-1.37067E-06 4.01472E-18-3.33560E-18
 -1      2685 8.84910E-05-1.57678E-05-3.11557E-05-3.04637E-06 3.53421E-18-3.46499E-18
 -1      2686 1.02291E-04-2.69585E-05-3.22849E-05-5.23869E-06 3.00313E-18 1.05894E-19
 -1      2687 1.01777E-04-2.56561E-05-3.25800E-05-3.24854E-06 3.54150E-18 2.06223E-19
 -1      2688 1.38853E-04-6.04572E-05-3.40239E-05 8.09519E-06 9.79911E-19-4.93016E-18
 -1      2689 1.29230E-04-6.08522E-05-2.91244E-05 1.68193E-05-8.98278E-19-3.96570E-18
 -1      2690 1.03961E-04-2.97661E-05-3.18022E-05-8.11184E-06 1.80696E-18 2.56739E-19
 -1      2691 1.03001E-04-2.83085E-05-3.19542E-05-6.99960E-06 2.33463E-18 2.96021E-19
 -1      2692 9.96319E-05-2.57481E-05-3.16896E-05-6.48314E-06 2.63712E-18-1.07021E-18
 -1      2693 9.95983E-05-2.24729E-05-3.30595E-05-3.80075E-07 4.41414E-18-3.09624E-19
 -1      2694 1.03400E-04-3.04346E-05-3.12144E-05 1.51687E-06-1.91817E-18-1.86804E-18
 -1      2695 1.04124E-04-3.18627E-05-3.10002E-05 1.81235E-06-1.53031E-18-1.67970E-18
 -1      2696 1.05554E-04-3.34630E-05-3.08369E-05 1.73941E-06-1.26188E-18-1.27518E-18
 -1      2697 1.06395E-04-3.47561E-05-3.07438E-05 1.18065E-06-9.64559E-19-1.17301E-18
 -1      2698 1.04195E-04-3.25831E-05-3.07340E-05 2.60509E-06-1.33600E-18-1.81827E-18
 -1      2699 1.08040E-04-3.61821E-05-3.07430E-05 2.15090E-07-7.08320E-19-8.66999E-19
 -1      2700 1.08809E-04-3.71052E-05-3.07786E-05-1.07459E-06-6.10270E-19-6.52755E-19
 -1      2701 1.07303E-04-3.60964E-05-3.05594E-05 1.76466E-06-7.31327E-19-1.26828E-18
 -1      2702 1.10381E-04-3.80046E-05-3.09880E-05-2.88974E-06-5.02055E-19-4.22150E-19
 -1      2703 1.10731E-04-3.80832E-05-3.11760E-05-4.62153E-06-5.90557E-19-5.16737E-19
 -1      2704 1.10609E-04-3.88360E-05-3.07852E-05-8.96274E-07-5.77761E-19-7.03529E-19
 -1      2705 1.11644E-04-3.78460E-05-3.16428E-05-6.88923E-06-8.61101E-19-3.51854E-19
 -1      2706 1.11213E-04-3.65640E-05-3.19970E-05-8.44255E-06-1.23533E-18-3.62610E-19
 -1      2707 1.13221E-04-3.96358E-05-3.15281E-05-5.04668E-06-8.52463E-19-4.94854E-19
 -1      2708 1.10793E-04-3.46563E-05-3.27120E-05-1.01549E-05-1.60533E-18-3.80602E-19
 -1      2709 1.09529E-04-3.19876E-05-3.31849E-05-1.05544E-05-2.21209E-18-3.75697E-19
 -1      2710 1.13809E-04-3.70346E-05-3.28487E-05-9.40620E-06-1.41276E-18-2.09972E-19
 -1      2711 1.07825E-04-2.88152E-05-3.39886E-05-1.02912E-05-2.48376E-18-4.50674E-19
 -1      2712 1.06291E-04-2.57938E-05-3.44339E-05-8.75687E-06-2.73018E-18-4.07309E-19
 -1      2713 1.11645E-04-3.08928E-05-3.45744E-05-1.13300E-05-2.27184E-18 3.22131E-19
 -1      2714 1.04467E-04-2.30064E-05-3.50189E-05-5.78359E-06-3.15078E-18-9.97992E-19
 -1      2715 1.03688E-04-2.14555E-05-3.52306E-05-2.50762E-06-3.23081E-18-1.52856E-18
 -1      2716 1.07919E-04-2.36115E-05-3.61723E-05-8.26842E-06-3.21957E-18-3.78875E-19
 -1      2717 1.03433E-04-2.11420E-05-3.52843E-05 1.99766E-06-3.18369E-18-2.47548E-18
 -1      2718 1.04024E-04-2.21923E-05-3.51515E-05 5.46495E-06-2.95800E-18-3.15987E-18
 -1      2719 1.05711E-04-1.97882E-05-3.69133E-05-3.96969E-07-3.98690E-18-2.12968E-18
 -1      2720 1.05529E-04-2.45267E-05-3.46628E-05 8.88628E-06-2.66646E-18-3.95751E-18
 -1      2721 1.07014E-04-2.73940E-05-3.42562E-05 1.08928E-05-2.12313E-18-4.53506E-18
 -1      2722 1.07180E-04-2.25005E-05-3.63758E-05 7.98976E-06-3.30911E-18-3.87056E-18
 -1      2723 1.08891E-04-3.07323E-05-3.34455E-05 1.17206E-05-1.79581E-18-5.09350E-18
 -1      2724 1.10316E-04-3.36645E-05-3.29514E-05 1.16340E-05-1.38326E-18-5.29005E-18
 -1      2725 1.10734E-04-2.92534E-05-3.49030E-05 1.23256E-05-2.45212E-18-5.03827E-18
 -1      2726 1.11015E-04-3.59673E-05-3.21611E-05 1.01417E-05-1.20850E-18-5.16515E-18
 -1      2727 1.11636E-04-3.76576E-05-3.17449E-05 8.63997E-06-6.96351E-19-4.97714E-18
 -1      2728 1.13421E-04-3.61521E-05-3.30804E-05 1.11444E-05-1.31154E-18-5.70868E-18
 -1      2729 1.10943E-04-3.83311E-05-3.11535E-05 6.22341E-06-4.62081E-19-4.66875E-18
 -1      2730 1.10702E-04-3.86391E-05-3.08700E-05 4.25411E-06-1.47418E-19-4.51712E-18
 -1      2731 1.13350E-04-3.97123E-05-3.15329E-05 6.82418E-06-5.92682E-19-5.31764E-18
 -1      2732 1.09163E-04-3.80820E-05-3.05089E-05 1.98881E-06-3.57992E-19-3.98004E-18
 -1      2733 1.08356E-04-3.74676E-05-3.03441E-05 2.11456E-07-1.46319E-19-3.97931E-18
 -1      2734 1.11000E-04-3.98824E-05-3.04882E-05 1.94794E-06 9.79121E-20-4.22415E-18
 -1      2735 1.06620E-04-3.63425E-05-3.01573E-05-1.42215E-06 8.65156E-20-3.47211E-18
 -1      2736 1.05598E-04-3.53568E-05-3.00647E-05-2.72131E-06 3.89145E-19-3.59117E-18
 -1      2737 1.07643E-04-3.79351E-05-2.99053E-05-1.91466E-06 1.30306E-19-2.98801E-18
 -1      2738 1.04060E-04-3.41672E-05-2.99796E-05-3.68566E-06 2.89672E-19-3.47313E-18
 -1      2739 1.03061E-04-3.31795E-05-2.99179E-05-4.47666E-06 1.19459E-19-3.25277E-18
 -1      2740 1.04334E-04-3.52754E-05-2.96310E-05-4.39307E-06 2.00285E-19-2.42760E-18
 -1      2741 1.01863E-04-3.21781E-05-2.98790E-05-4.90993E-06 1.55908E-19-3.09138E-18
 -1      2742 1.00997E-04-3.13605E-05-2.98223E-05-5.27805E-06 4.32168E-19-3.23013E-18
 -1      2743 1.01596E-04-3.27818E-05-2.95209E-05-5.66583E-06 1.42578E-19-2.90785E-18
 -1      2744 1.00134E-04-3.06227E-05-2.97960E-05-5.34492E-06 7.63779E-19-3.47026E-18
 -1      2745 9.94270E-05-3.00185E-05-2.97327E-05-5.40654E-06 1.14394E-18-3.47569E-18
 -1      2746 9.95455E-05-3.08179E-05-2.94762E-05-6.06565E-06 5.03039E-19-2.46718E-18
 -1      2747 9.88352E-05-2.95272E-05-2.97031E-05-5.24551E-06 8.30961E-19-3.66925E-18
 -1      2748 9.82740E-05-2.91165E-05-2.96315E-05-5.10880E-06 3.74735E-19-3.93354E-18
 -1      2749 9.81035E-05-2.94394E-05-2.94420E-05-5.89883E-06 5.69992E-19-3.47293E-18
 -1      2750 9.78808E-05-2.88201E-05-2.95936E-05-4.82229E-06 4.10997E-19-3.37145E-18
 -1      2751 9.74407E-05-2.85612E-05-2.95165E-05-4.57340E-06 5.56262E-19-3.10738E-18
 -1      2752 9.71288E-05-2.85627E-05-2.93949E-05-5.40021E-06 6.80511E-19-3.58281E-18
 -1      2753 9.71838E-05-2.84041E-05-2.94714E-05-4.23203E-06 3.21880E-19-2.98700E-18
 -1      2754 9.68398E-05-2.82542E-05-2.93932E-05-3.93335E-06 4.13828E-19-3.04668E-18
 -1      2755 9.64858E-05-2.80642E-05-2.93296E-05-4.73575E-06 3.45367E-19-2.38872E-18
 -1      2756 9.66730E-05-2.81890E-05-2.93438E-05-3.58311E-06 1.58841E-19-2.79683E-18
 -1      2757 9.64045E-05-2.81125E-05-2.92688E-05-3.27634E-06 2.20371E-19-2.78296E-18
 -1      2758 9.60668E-05-2.78269E-05-2.92497E-05-4.01665E-06 2.79174E-19-2.15032E-18
 -1      2759 9.62959E-05-2.81037E-05-2.92186E-05-2.94521E-06 5.66062E-19-2.97605E-18
 -1      2760 9.60866E-05-2.80740E-05-2.91497E-05-2.65593E-06 1.55945E-19-2.59959E-18
 -1      2761 9.57946E-05-2.77570E-05-2.91617E-05-3.31344E-06 5.03167E-19-1.86613E-18
 -1      2762 9.60150E-05-2.80967E-05-2.91016E-05-2.35924E-06-8.33415E-20-1.17161E-18
 -1      2763 9.58527E-05-2.80950E-05-2.90407E-05-2.10130E-06 3.15988E-19-6.08612E-19
 -1      2764 9.56167E-05-2.77861E-05-2.90723E-05-2.66750E-06 1.20936E-18-5.98437E-19
 -1      2765 9.58047E-05-2.81329E-05-2.89966E-05-1.84571E-06-1.11731E-19-3.90710E-19
 -1      2766 9.56796E-05-2.81466E-05-2.89444E-05-1.62492E-06 3.60084E-20-7.11408E-19
 -1      2767 9.54991E-05-2.78673E-05-2.89867E-05-2.09981E-06 2.63765E-19 6.21417E-19
 -1      2768 9.56468E-05-2.81894E-05-2.89054E-05-1.41152E-06-2.26410E-19-1.32025E-18
 -1      2769 9.55513E-05-2.82103E-05-2.88619E-05-1.22855E-06-2.99520E-19-9.57692E-19
 -1      2770 9.54201E-05-2.79705E-05-2.89083E-05-1.61762E-06-5.89956E-19-1.86603E-19
 -1      2771 9.55283E-05-2.82523E-05-2.88285E-05-1.05502E-06 1.83263E-19-1.22453E-18
 -1      2772 9.54564E-05-2.82754E-05-2.87931E-05-9.07454E-07 2.40997E-19-5.83130E-19
 -1      2773 9.53660E-05-2.80772E-05-2.88392E-05-1.21944E-06-3.36428E-19-7.67210E-19
 -1      2774 9.54400E-05-2.83133E-05-2.87653E-05-7.69617E-07-4.97649E-19-1.14057E-18
 -1      2775 9.53866E-05-2.83357E-05-2.87371E-05-6.53446E-07-6.90676E-19-1.08965E-18
 -1      2776 9.53282E-05-2.81770E-05-2.87801E-05-8.98582E-07-1.90696E-19-1.12344E-18
 -1      2777 9.53747E-05-2.83683E-05-2.87144E-05-5.46328E-07-6.56614E-19-7.58344E-19
 -1      2778 9.53357E-05-2.83886E-05-2.86924E-05-4.56925E-07-4.95268E-19-4.07309E-19
 -1      2779 9.53015E-05-2.82648E-05-2.87308E-05-6.45725E-07-4.61087E-19-5.25934E-19
 -1      2780 9.53271E-05-2.84155E-05-2.86743E-05-3.75436E-07-7.32196E-19-6.53757E-19
 -1      2781 9.52992E-05-2.84329E-05-2.86576E-05-3.08152E-07-4.32062E-19-7.78523E-19
 -1      2782 9.52822E-05-2.83389E-05-2.86907E-05-4.50646E-07-8.12966E-19-1.53801E-19
 -1      2783 9.52929E-05-2.84545E-05-2.86434E-05-2.47491E-07-1.57892E-19-3.87758E-19
 -1      2784 9.52735E-05-2.84690E-05-2.86309E-05-1.98005E-07 4.10814E-19-5.25515E-19
 -1      2785 9.52683E-05-2.83994E-05-2.86587E-05-3.03285E-07-3.22740E-19-5.31101E-19
 -1      2786 9.52688E-05-2.84858E-05-2.86201E-05-1.53881E-07 5.29859E-19-2.29041E-19
 -1      2787 9.52558E-05-2.84975E-05-2.86110E-05-1.18385E-07 3.13288E-19-7.38099E-19
 -1      2788 9.52583E-05-2.84473E-05-2.86337E-05-1.94373E-07 4.19080E-19-3.74684E-19
 -1      2789 9.52524E-05-2.85104E-05-2.86029E-05-8.71070E-08-3.91227E-19-1.27402E-18
 -1      2790 9.52441E-05-2.85196E-05-2.85964E-05-6.23631E-08 3.80934E-19-1.80878E-18
 -1      2791 9.52510E-05-2.84844E-05-2.86146E-05-1.15758E-07-4.96942E-19-1.21234E-18
 -1      2792 9.52416E-05-2.85291E-05-2.85904E-05-4.08559E-08 3.28045E-19-2.22176E-18
 -1      2793 9.52367E-05-2.85363E-05-2.85860E-05-2.41983E-08-1.10649E-18-2.07512E-18
 -1      2794 9.52459E-05-2.85125E-05-2.86003E-05-6.05162E-08-5.01934E-19-2.46748E-18
 -1      2795 9.52349E-05-2.85432E-05-2.85818E-05-9.96391E-09-9.39214E-19-1.62127E-18
 -1      2796 9.52323E-05-2.85486E-05-2.85788E-05 7.48288E-10-4.33137E-19-1.26792E-18
 -1      2797 9.52422E-05-2.85332E-05-2.85898E-05-2.29316E-08-5.24278E-19-2.20709E-18
 -1      2798 9.52311E-05-2.85534E-05-2.85759E-05 9.68975E-09-1.72239E-19-4.66213E-19
 -1      2799 9.52301E-05-2.85574E-05-2.85740E-05 1.61334E-08 7.22468E-20-6.22488E-19
 -1      2800 9.52398E-05-2.85481E-05-2.85823E-05 1.59777E-09 3.19837E-19-3.94005E-19
 -1      2801 9.52294E-05-2.85608E-05-2.85721E-05 2.13151E-08 9.34494E-19 9.32946E-21
 -1      2802 9.52294E-05-2.85637E-05-2.85710E-05 2.47710E-08 1.84277E-18 1.07219E-18
 -1      2803 9.52381E-05-2.85586E-05-2.85771E-05 1.66908E-08 7.00844E-19 4.66361E-19
 -1      2804 9.52289E-05-2.85659E-05-2.85698E-05 2.73504E-08 1.15026E-18 1.69191E-18
 -1      2805 9.52297E-05-2.85681E-05-2.85693E-05 2.87692E-08 1.09222E-18 5.03449E-19
 -1      2806 9.52371E-05-2.85657E-05-2.85736E-05 2.51256E-08 1.64767E-18-7.46472E-19
 -1      2807 9.52294E-05-2.85695E-05-2.85685E-05 2.95939E-08 1.14407E-18 1.37080E-18
 -1      2808 9.52305E-05-2.85711E-05-2.85683E-05 2.96550E-08 2.96949E-18 1.07787E-18
 -1      2809 9.52366E-05-2.85704E-05-2.85713E-05 2.89790E-08 1.41110E-18 2.72815E-20
 -1      2810 9.52304E-05-2.85720E-05-2.85679E-05 2.93211E-08 3.05007E-18 4.29458E-19
 -1      2811 9.52317E-05-2.85732E-05-2.85679E-05 2.84846E-08 2.12743E-18 1.45507E-19
 -1      2812 9.52364E-05-2.85736E-05-2.85699E-05 2.97523E-08 2.25214E-18 4.52298E-19
 -1      2813 9.52318E-05-2.85739E-05-2.85677E-05 2.73874E-08 1.50424E-18-2.81748E-19
 -1      2814 9.52332E-05-2.85749E-05-2.85678E-05 2.59362E-08 1.31873E-18-1.08139E-18
 -1      2815 9.52366E-05-2.85757E-05-2.85690E-05 2.84810E-08 1.39371E-18-1.07672E-18
 -1      2816 9.52335E-05-2.85756E-05-2.85677E-05 2.43150E-08 2.07972E-18-1.10241E-18
 -1      2817 9.52348E-05-2.85766E-05-2.85678E-05 2.23956E-08 2.35443E-18-9.77787E-19
 -1      2818 9.52370E-05-2.85774E-05-2.85684E-05 2.58321E-08 1.66266E-18-1.26660E-18
 -1      2819 1.17552E-04-4.37737E-05-3.16788E-05-4.42887E-06-5.59227E-19 1.43447E-18
 -1      2820 1.14930E-04-4.12645E-05-3.14434E-05-6.99900E-06-4.98922E-19 1.23290E-18
 -1      2821 1.37957E-04-4.52307E-05-3.97687E-05 5.00802E-06-1.70831E-18-7.36347E-18
 -1      2822 1.36178E-04-3.44746E-05-4.43524E-05 1.04193E-05-4.36921E-18-7.97566E-18
 -1      2823 1.11317E-04-3.82220E-05-3.13742E-05-8.37921E-06-2.43449E-19 5.97815E-19
 -1      2824 1.09065E-04-3.57120E-05-3.13483E-05-9.44597E-06 1.17587E-19 4.99508E-19
 -1      2825 1.10820E-04-4.02740E-05-3.04032E-05-1.04196E-05-5.33942E-19-1.74003E-19
 -1      2826 1.28514E-04-4.57831E-05-3.54633E-05 1.16194E-05 6.58231E-19 4.36184E-18
 -1      2827 1.28403E-04-4.81910E-05-3.44456E-05 7.92588E-06-1.82827E-19 3.66816E-18
 -1      2828 1.31898E-04-3.26129E-05-4.29121E-05 1.51641E-05 4.68949E-18 3.92049E-18
 -1      2829 1.34258E-04-4.08278E-05-4.04585E-05 1.46743E-05 2.88891E-18 4.41373E-18
 -1      2830 1.21132E-04-1.74426E-05-4.49711E-05 5.21566E-06 7.00009E-18 1.34838E-18
 -1      2831 1.22722E-04-2.15270E-05-4.38698E-05 1.20147E-05 6.23575E-18 3.06509E-18
 -1      2832 1.21283E-04-1.70186E-05-4.51250E-05-2.56163E-06 7.10597E-18-7.57909E-19
 -1      2833 1.24737E-04-3.06249E-05-4.08444E-05-1.74834E-05 4.47869E-18-4.83531E-18
 -1      2834 1.21495E-04-2.33468E-05-4.22126E-05-1.34690E-05 5.39962E-18-3.51418E-18
 -1      2835 1.28942E-04-4.37939E-05-3.67731E-05-1.54276E-05 1.68373E-18-5.55672E-18
 -1      2836 1.27076E-04-3.77158E-05-3.83856E-05-1.72580E-05 3.15229E-18-5.54751E-18
 -1      2837 1.26500E-04-4.81607E-05-3.35824E-05-6.34837E-06-3.22189E-19-4.39885E-18
 -1      2838 1.27277E-04-4.66619E-05-3.46411E-05-1.05637E-05 6.18447E-19-5.01898E-18
 -1      2839 1.31423E-04-4.80163E-05-3.58630E-05-1.12471E-05 9.46983E-19-5.70572E-18
 -1      2840 1.20006E-04-4.52039E-05-3.19552E-05 2.23766E-06-9.21151E-19-3.66414E-18
 -1      2841 1.22326E-04-4.68141E-05-3.24590E-05-1.46721E-06-3.04184E-19-3.83779E-18
 -1      2842 1.25186E-04-4.98085E-05-3.23858E-05-1.04739E-06-7.92790E-19-4.80276E-18
 -1      2843 1.13189E-04-3.99014E-05-3.13140E-05 7.65819E-06-8.24310E-19-2.98971E-18
 -1      2844 1.15764E-04-4.24026E-05-3.15240E-05 5.32231E-06-8.39214E-19-2.99310E-18
 -1      2845 1.16691E-04-4.51608E-05-3.07827E-05 6.58549E-06-1.14395E-18-3.85597E-18
 -1      2846 1.07856E-04-3.51635E-05-3.10916E-05 1.01141E-05-1.04812E-18-2.10861E-18
 -1      2847 1.10033E-04-3.73308E-05-3.12034E-05 9.01805E-06-9.57352E-19-2.68018E-18
 -1      2848 1.09336E-04-3.89039E-05-3.02819E-05 1.04890E-05-1.21751E-18-2.44116E-18
 -1      2849 1.04180E-04-3.18504E-05-3.09670E-05 1.06051E-05-4.94432E-19-1.40163E-18
 -1      2850 1.05831E-04-3.33587E-05-3.10779E-05 1.03736E-05-8.57173E-19-1.58764E-18
 -1      2851 1.04234E-04-3.38605E-05-3.02225E-05 1.17515E-05-1.34313E-18-1.37989E-18
 -1      2852 1.01760E-04-2.98464E-05-3.08075E-05 9.99467E-06 1.25503E-20-8.28449E-19
 -1      2853 1.02983E-04-3.07771E-05-3.09469E-05 1.02752E-05-5.37055E-20-6.85002E-19
 -1      2854 1.01071E-04-3.05622E-05-3.02528E-05 1.14701E-05-5.06810E-19-8.25647E-19
 -1      2855 1.00147E-04-2.87631E-05-3.05904E-05 8.85394E-06-2.64786E-19-6.57615E-19
 -1      2856 1.01069E-04-2.92922E-05-3.07531E-05 9.39000E-06-9.67698E-20-5.63754E-19
 -1      2857 9.92059E-05-2.86976E-05-3.02337E-05 1.04253E-05-7.88950E-20 2.09264E-19
 -1      2858 9.90199E-05-2.82449E-05-3.03342E-05 7.52786E-06-3.77584E-19 3.89136E-19
 -1      2859 9.97358E-05-2.85252E-05-3.05056E-05 8.15504E-06-3.61583E-19-1.00974E-19
 -1      2860 9.81016E-05-2.77889E-05-3.01401E-05 9.06028E-06-5.46561E-19 1.10051E-18
 -1      2861 9.81852E-05-2.80427E-05-3.00650E-05 6.21185E-06-3.14066E-19 4.57957E-19
 -1      2862 9.87551E-05-2.81796E-05-3.02316E-05 6.83430E-06 3.67554E-20 8.18064E-19
 -1      2863 9.74117E-05-2.74423E-05-2.99889E-05 7.62630E-06-4.37172E-19 1.36980E-18
 -1      2864 9.75369E-05-2.80031E-05-2.98045E-05 5.00733E-06-7.97226E-19 8.49311E-19
 -1      2865 9.79961E-05-2.80616E-05-2.99570E-05 5.57526E-06-6.94982E-19 3.18136E-19
 -1      2866 9.69409E-05-2.73952E-05-2.98059E-05 6.26177E-06-3.21831E-19 1.53243E-18
 -1      2867 9.70190E-05-2.80394E-05-2.95667E-05 3.95817E-06-7.22038E-20 6.09634E-19
 -1      2868 9.73894E-05-2.80568E-05-2.97003E-05 4.45050E-06-2.42386E-19 6.80095E-19
 -1      2869 9.65886E-05-2.74897E-05-2.96144E-05 5.03655E-06-2.14084E-19 7.26967E-19
 -1      2870 9.66010E-05-2.81053E-05-2.93586E-05 3.07479E-06-4.23703E-19 6.82816E-19
 -1      2871 9.68978E-05-2.81024E-05-2.94717E-05 3.48705E-06-3.45211E-20 7.75746E-19
 -1      2872 9.63072E-05-2.76385E-05-2.94303E-05 3.97854E-06-1.53473E-19 6.29154E-19
 -1      2873 9.62645E-05-2.81782E-05-2.91825E-05 2.34952E-06-6.96954E-19 1.20651E-19
 -1      2874 9.64997E-05-2.81657E-05-2.92758E-05 2.68605E-06-7.06528E-19 4.51473E-19
 -1      2875 9.60752E-05-2.77969E-05-2.92632E-05 3.09080E-06-3.26371E-19 8.75042E-19
 -1      2876 9.59964E-05-2.82475E-05-2.90373E-05 1.76599E-06-1.23982E-18 2.43429E-19
 -1      2877 9.61801E-05-2.82313E-05-2.91125E-05 2.03518E-06-5.53758E-19 2.75019E-19
 -1      2878 9.58829E-05-2.79444E-05-2.91178E-05 2.36260E-06-7.25135E-19 4.87784E-19
 -1      2879 9.57859E-05-2.83091E-05-2.89202E-05 1.30456E-06-8.27724E-20 6.41988E-19
 -1      2880 9.59272E-05-2.82921E-05-2.89796E-05 1.51620E-06-5.17499E-19 3.22862E-20
 -1      2881 9.57250E-05-2.80731E-05-2.89951E-05 1.77652E-06-6.65618E-19-7.16750E-20
 -1      2882 9.56234E-05-2.83619E-05-2.88275E-05 9.45442E-07-2.66842E-19-6.31793E-19
 -1      2883 9.57302E-05-2.83456E-05-2.88737E-05 1.10920E-06 1.03977E-19 7.04232E-20
 -1      2884 9.55975E-05-2.81811E-05-2.88941E-05 1.31272E-06 3.65152E-19 1.57058E-20
 -1      2885 9.55003E-05-2.84062E-05-2.87555E-05 6.70214E-07 3.41028E-19-8.93905E-19
 -1      2886 9.55796E-05-2.83913E-05-2.87907E-05 7.94987E-07 1.48126E-20-1.50479E-18
 -1      2887 9.54966E-05-2.82698E-05-2.88127E-05 9.51432E-07 8.10230E-19-6.84389E-19
 -1      2888 9.54091E-05-2.84427E-05-2.87005E-05 4.62560E-07 1.80621E-19-4.23466E-19
 -1      2889 9.54666E-05-2.84295E-05-2.87269E-05 5.56130E-07 1.68459E-19-1.00459E-18
 -1      2890 9.54184E-05-2.83414E-05-2.87484E-05 6.74328E-07 2.61498E-19-1.15204E-18
 -1      2891 9.53429E-05-2.84724E-05-2.86593E-05 3.08466E-07 1.99749E-18 5.48430E-19
 -1      2892 9.53837E-05-2.84610E-05-2.86787E-05 3.77455E-07 8.84170E-19 5.66453E-20
 -1      2893 9.53592E-05-2.83983E-05-2.86984E-05 4.65135E-07 3.42505E-19-1.29811E-18
 -1      2894 9.52962E-05-2.84962E-05-2.86289E-05 1.96185E-07 1.06339E-18 6.51723E-19
 -1      2895 9.53243E-05-2.84866E-05-2.86429E-05 2.46097E-07 2.46385E-18 7.93858E-19
 -1      2896 9.53154E-05-2.84430E-05-2.86603E-05 3.09844E-07 1.78368E-18-2.10017E-19
 -1      2897 9.52644E-05-2.85152E-05-2.86070E-05 1.16060E-07-9.55922E-19-1.84088E-19
 -1      2898 9.52830E-05-2.85072E-05-2.86168E-05 1.51388E-07 1.32020E-19 5.96259E-19
 -1      2899 9.52839E-05-2.84778E-05-2.86318E-05 1.96676E-07 5.48869E-19 1.31126E-18
 -1      2900 9.52435E-05-2.85301E-05-2.85916E-05 6.02799E-08-1.29860E-18-9.09414E-19
 -1      2901 9.52552E-05-2.85235E-05-2.85983E-05 8.46339E-08-1.20870E-18-6.97347E-19
 -1      2902 9.52618E-05-2.85044E-05-2.86108E-05 1.15927E-07-5.31519E-19 7.77379E-19
 -1      2903 9.52306E-05-2.85416E-05-2.85811E-05 2.26256E-08 7.76436E-19-2.85215E-18
 -1      2904 9.52374E-05-2.85363E-05-2.85855E-05 3.88613E-08-9.01471E-20-1.81546E-18
 -1      2905 9.52470E-05-2.85246E-05-2.85957E-05 5.97349E-08-4.01257E-19-1.32015E-18
 -1      2906 9.52235E-05-2.85504E-05-2.85742E-05-1.77929E-09 8.21723E-19-2.98084E-18
 -1      2907 9.52268E-05-2.85462E-05-2.85769E-05 8.56406E-09 8.35454E-19-2.94629E-18
 -1      2908 9.52375E-05-2.85396E-05-2.85851E-05 2.18294E-08 7.50209E-19-3.83795E-18
 -1      2909 9.52203E-05-2.85571E-05-2.85700E-05-1.66973E-08 5.03796E-20-1.22798E-18
 -1      2910 9.52213E-05-2.85537E-05-2.85715E-05-1.05399E-08 5.68558E-19-2.03267E-18
 -1      2911 9.52318E-05-2.85506E-05-2.85779E-05-2.70824E-09-2.86020E-20-3.11931E-18
 -1      2912 9.52197E-05-2.85620E-05-2.85676E-05-2.49791E-08-1.36423E-18-7.30456E-20
 -1      2913 9.52192E-05-2.85594E-05-2.85683E-05-2.17241E-08-5.53150E-19-8.93166E-19
 -1      2914 9.52289E-05-2.85585E-05-2.85732E-05-1.76741E-08-4.98214E-19-2.71367E-18
 -1      2915 9.52208E-05-2.85657E-05-2.85665E-05-2.87368E-08-4.26162E-19 6.81548E-19
 -1      2916 9.52194E-05-2.85637E-05-2.85666E-05-2.74420E-08-1.32371E-18-4.82478E-19
 -1      2917 9.52279E-05-2.85642E-05-2.85703E-05-2.59423E-08-1.36862E-18-2.39224E-18
 -1      2918 9.52228E-05-2.85684E-05-2.85662E-05-2.94875E-08-2.13656E-18 1.53166E-18
 -1      2919 9.52210E-05-2.85668E-05-2.85660E-05-2.94847E-08-5.17597E-19 1.25616E-18
 -1      2920 9.52281E-05-2.85681E-05-2.85686E-05-2.96392E-08-1.36672E-18-4.45006E-19
 -1      2921 9.52254E-05-2.85706E-05-2.85664E-05-2.82748E-08-2.13944E-18-3.89409E-19
 -1      2922 9.52234E-05-2.85693E-05-2.85660E-05-2.91137E-08-1.99518E-18 8.62889E-19
 -1      2923 9.52290E-05-2.85708E-05-2.85678E-05-3.02879E-08-1.78914E-18 4.27517E-19
 -1      2924 9.52282E-05-2.85723E-05-2.85668E-05-2.57669E-08-6.05543E-19-5.20343E-19
 -1      2925 9.52261E-05-2.85712E-05-2.85664E-05-2.71697E-08-1.87227E-18-5.08164E-20
 -1      2926 9.52304E-05-2.85729E-05-2.85676E-05-2.89357E-08-1.52250E-18-1.29946E-18
 -1      2927 9.52310E-05-2.85740E-05-2.85673E-05-2.23180E-08-1.79925E-18 2.50732E-19
 -1      2928 9.52291E-05-2.85730E-05-2.85669E-05-2.41405E-08-1.18637E-18-2.34077E-19
 -1      2929 9.52321E-05-2.85745E-05-2.85676E-05-2.62564E-08-1.19649E-18 5.03400E-19
 -1      2930 9.52343E-05-2.85762E-05-2.85678E-05-1.88976E-08-2.64342E-19-1.13965E-19
 -1      2931 9.52325E-05-2.85751E-05-2.85675E-05-2.11125E-08-1.05351E-18-3.91715E-19
 -1      2932 9.52348E-05-2.85766E-05-2.85678E-05-2.32192E-08-1.06751E-18 3.30529E-20
 -1      2933 9.52375E-05-2.85791E-05-2.85678E-05-2.01788E-08 2.15802E-19-2.38973E-19
 -1      2934 9.52521E-05-2.85925E-05-2.85684E-05-1.61884E-09-3.25174E-22 5.98229E-19
 -1      2935 9.52518E-05-2.85922E-05-2.85684E-05-4.69998E-09-5.26419E-19-6.54834E-19
 -1      2936 9.52350E-05-2.85770E-05-2.85677E-05 2.10543E-08 1.96091E-18-7.77535E-19
 -1      2937 9.52359E-05-2.85776E-05-2.85678E-05 1.95011E-08 1.09563E-18 4.87047E-19
 -1      2938 9.52375E-05-2.85787E-05-2.85681E-05 2.28307E-08 2.51397E-18-2.45682E-18
 -1      2939 9.52492E-05-2.85898E-05-2.85683E-05-1.36210E-08 1.14231E-19-6.68832E-19
 -1      2940 9.52477E-05-2.85884E-05-2.85683E-05-1.58093E-08 1.37629E-18-1.43003E-18
 -1      2941 9.52518E-05-2.85922E-05-2.85684E-05 4.90159E-09 1.36948E-18-9.20672E-20
 -1      2942 9.52521E-05-2.85925E-05-2.85684E-05 1.82808E-09 1.15456E-18-2.31354E-19
 -1      2943 9.52537E-05-2.85914E-05-2.85696E-05 1.19404E-10 1.47244E-18 5.64902E-19
 -1      2944 9.52512E-05-2.85917E-05-2.85683E-05-7.99873E-09-1.66268E-18-2.02923E-18
 -1      2945 9.52503E-05-2.85908E-05-2.85684E-05-1.07848E-08-6.71362E-19 5.44418E-19
 -1      2946 9.52510E-05-2.85893E-05-2.85693E-05-1.31442E-08-9.73543E-19-1.04994E-18
 -1      2947 9.52530E-05-2.85909E-05-2.85695E-05-6.82247E-09-3.44111E-19-6.29731E-19
 -1      2948 9.52503E-05-2.85908E-05-2.85684E-05 1.08521E-08 3.18019E-19-1.20908E-18
 -1      2949 9.52512E-05-2.85917E-05-2.85683E-05 8.13070E-09 7.34659E-19-2.29807E-19
 -1      2950 9.52530E-05-2.85908E-05-2.85695E-05 6.98710E-09 1.63425E-18-1.08027E-18
 -1      2951 9.52476E-05-2.85883E-05-2.85683E-05 1.58366E-08 5.17437E-19-1.29679E-18
 -1      2952 9.52491E-05-2.85897E-05-2.85683E-05 1.36665E-08-9.10160E-20-5.88488E-19
 -1      2953 9.52510E-05-2.85892E-05-2.85693E-05 1.32143E-08 1.88819E-19-1.24164E-18
 -1      2954 9.52439E-05-2.85849E-05-2.85682E-05 1.91257E-08 1.59665E-18-1.02778E-18
 -1      2955 9.52459E-05-2.85867E-05-2.85682E-05 1.78720E-08 1.59517E-18 7.81074E-21
 -1      2956 9.52476E-05-2.85866E-05-2.85690E-05 1.82324E-08 1.22178E-18-3.93205E-19
 -1      2957 1.24661E-04-5.84998E-05-2.86855E-05 2.38838E-05 7.15319E-19 3.56283E-20
 -1      2958 1.09944E-04-5.45838E-05-2.34322E-05 3.28037E-05 2.32998E-18-1.76394E-18
 -1      2959 9.60532E-05-1.94831E-05-3.28278E-05-3.26156E-06-3.11490E-18-4.45742E-18
 -1      2960 7.46543E-05-3.85131E-05-1.51097E-05-3.89937E-05 4.67477E-18 4.30780E-18
 -1      2961 9.13764E-05-4.86447E-05-1.81170E-05-4.05220E-05 4.85308E-18 2.70712E-18
 -1      2962 3.91110E-05-1.75025E-05-8.50822E-06-2.25759E-05 2.41569E-18 7.80393E-18
 -1      2963 5.22271E-05-2.50362E-05-1.14311E-05-3.27596E-05 3.23440E-18 6.87304E-18
 -1      2964 9.18091E-05-4.77266E-05-1.84038E-05-3.71241E-05-4.20785E-18-5.63489E-18
 -1      2965 1.11221E-04-5.60715E-05-2.37452E-05-3.11590E-05-3.69402E-18-2.96031E-18
 -1      2966 1.33196E-04-1.36655E-05-5.18609E-05-5.19259E-06 9.50943E-18-1.72191E-18
 -1      2967 1.35401E-04-1.75489E-05-5.11533E-05-1.08814E-05 9.10285E-18-3.23588E-18
 -1      2968 1.31311E-04-5.80050E-05-3.12378E-05-1.46092E-05 2.38249E-18-4.79092E-18
 -1      2969 1.36644E-04-5.48629E-05-3.56653E-05-6.00794E-06 5.97383E-19-5.85596E-18
 -1      2970 1.06818E-04-3.33792E-05-3.14915E-05-9.32104E-06 7.39657E-19 2.64954E-19
 -1      2971 1.05239E-04-3.14462E-05-3.15578E-05-9.18768E-06 1.24723E-18 3.62787E-19
 -1      2972 1.01562E-04-2.92315E-05-3.10419E-05-9.54844E-06 1.49786E-18-8.74901E-19
 -1      2973 1.05014E-04-3.38708E-05-3.05675E-05-1.10697E-05 4.02246E-19-8.59156E-19
 -1      2974 4.48211E-05-2.22410E-05-9.52911E-06 2.75132E-05-2.24305E-18 4.66016E-18
 -1      2975 3.43926E-05-1.60822E-05-7.21633E-06 1.56991E-05-8.58680E-19 7.30524E-18
 -1      2976 1.24324E-04-4.76875E-05-3.29333E-05 2.82692E-06-7.25126E-19 2.83289E-18
 -1      2977 1.22122E-04-4.65773E-05-3.22732E-05-1.07678E-06-9.56481E-19 2.24487E-18
 -1      2978 1.19139E-04-4.68777E-05-3.10563E-05-5.89718E-06-1.36581E-18 1.21310E-18
 -1      2979 1.28045E-04-5.09493E-05-3.31868E-05 2.31583E-06-1.04920E-18 2.73323E-18
 -1      2980 1.01547E-04-2.70948E-05-3.18804E-05-3.72092E-07-2.67004E-18-2.57777E-18
 -1      2981 1.02197E-04-2.87310E-05-3.15138E-05 8.02308E-07-2.30127E-18-2.30837E-18
 -1      2982 1.01577E-04-2.88206E-05-3.12132E-05 1.72422E-06-1.91258E-18-2.57979E-18
 -1      2983 8.03948E-05-8.99720E-06-3.06006E-05-7.27641E-07 3.53107E-18-5.22955E-18
 -1      2984 7.82533E-05-7.70305E-06-3.02772E-05-3.87944E-07 3.06956E-18-5.73191E-18
 -1      2985 7.74923E-05-8.26698E-06-2.96292E-05-5.82031E-07 2.78193E-18-5.56810E-18
 -1      2986 8.20533E-05-1.13246E-05-3.02881E-05-2.27705E-06 3.26285E-18-4.70340E-18
 -1      2987 8.19661E-05-4.30251E-05-1.67629E-05 3.75852E-05-3.77512E-18 5.55230E-19
 -1      2988 6.29553E-05-3.18319E-05-1.26388E-05 3.42839E-05-3.65156E-18 2.72776E-18
 -1      2989 1.05909E-04-5.44317E-05-2.18006E-05-3.47479E-05 4.72888E-18 3.54563E-20
 -1      2990 1.22063E-04-5.89507E-05-2.74309E-05-2.56855E-05 3.54272E-18-3.45240E-18
 -1      2991 1.26502E-04-5.78457E-05-2.92177E-05-1.69943E-05 3.52572E-18-4.26169E-18
 -1      2992 1.04947E-04-5.20657E-05-2.23429E-05-3.22424E-05 5.35500E-18-8.03656E-19
 -1      2993 8.44357E-05-1.26486E-05-3.08031E-05 2.99869E-06-1.37378E-19-6.29550E-18
 -1      2994 8.68576E-05-1.42077E-05-3.11287E-05 2.20737E-06-7.11983E-19-6.11277E-18
 -1      2995 1.36372E-04-3.37839E-05-4.45628E-05-9.87812E-06-5.94850E-18 5.95994E-19
 -1      2996 1.39093E-04-4.34129E-05-4.11796E-05-5.23833E-06-4.32654E-18 1.09648E-18
 -1      2997 1.46656E-04-4.64640E-05-4.35057E-05-8.10432E-06 5.11020E-18-5.51546E-18
 -1      2998 1.43403E-04-5.37587E-05-3.84731E-05-2.14577E-06 3.47302E-18-5.81012E-18
 -1      2999 3.11314E-05-1.19029E-05-7.73016E-06 1.03675E-05 1.38776E-18-1.04509E-17
 -1      3000 2.87081E-05-1.15071E-05-6.75441E-06-2.99308E-06 3.38125E-19-1.11571E-17
 -1      3001 8.98011E-05-4.58445E-05-1.88064E-05 3.95585E-05 3.70662E-18-4.17518E-18
 -1      3002 7.08137E-05-3.65469E-05-1.39991E-05 4.00740E-05 3.83738E-18-6.58198E-18
 -1      3003 1.28120E-04-6.03141E-05-2.89249E-05-1.88666E-05-2.50351E-18-3.74706E-19
 -1      3004 1.38885E-04-5.90206E-05-3.45520E-05-6.32433E-06-7.94358E-19 1.61381E-18
 -1      3005 5.68554E-05-2.90616E-05-1.13490E-05-3.41925E-05-3.29009E-18-9.51610E-18
 -1      3006 7.17122E-05-3.76323E-05-1.46193E-05-3.88797E-05-3.58666E-18-7.96264E-18
 -1      3007 9.52381E-05-2.85797E-05-2.85679E-05 1.99522E-08 1.65255E-18-3.65349E-19
 -1      3008 1.37982E-04-5.17148E-05-3.75034E-05 2.41691E-06-2.48265E-18 1.30591E-18
 -1      3009 1.33837E-04-5.62748E-05-3.30173E-05 1.08006E-05-3.89192E-19 1.06038E-18
 -1      3010 3.24357E-05-1.44301E-05-7.20053E-06-1.48302E-05-1.24614E-18-1.12033E-17
 -1      3011 4.33609E-05-2.08319E-05-9.26955E-06-2.78152E-05-2.04431E-18-1.05941E-17
 -1      3012 3.90853E-05-1.22989E-05-1.08310E-05-9.39800E-06-4.25449E-19-1.03407E-17
 -1      3013 2.95265E-05-1.31179E-05-6.50439E-06 4.25407E-06 5.21666E-19 8.17133E-18
 -1      3014 3.08027E-05-1.32898E-05-7.12754E-06-1.08082E-05 1.37847E-18 7.77873E-18
 -1      3015 3.93081E-05-1.38328E-05-1.02045E-05 8.96285E-06-6.17381E-19 6.91973E-18
 -1      3016 1.25807E-04-9.54421E-06-5.04945E-05 4.59811E-06-9.51049E-18-5.13273E-18
 -1      3017 1.25954E-04-8.87947E-06-5.08017E-05-1.17978E-06-9.74533E-18-4.16387E-18
 -1      3018 1.31954E-04-2.17537E-05-4.75360E-05 1.23080E-05-6.49463E-18-7.55966E-18
 -1      3019 1.28718E-04-1.40604E-05-4.98676E-05 9.02632E-06-8.22702E-18-6.50331E-18
 -1      3020 1.16804E-04-5.89392E-05-2.50178E-05 2.76077E-05-2.46868E-18-2.39644E-18
 -1      3021 1.02290E-04-5.25610E-05-2.08172E-05 3.27875E-05-3.72006E-18-1.43160E-18
 -1      3022 8.94160E-05-1.60567E-05-3.14665E-05 1.30270E-06-1.11163E-18-5.71876E-18
 -1      3023 9.18832E-05-1.77333E-05-3.18009E-05 2.46889E-07-1.75225E-18-5.43956E-18
 -1      3024 8.93359E-05-1.73117E-05-3.08775E-05 3.00653E-06-7.56746E-19-5.42727E-18
 -1      3025 7.63296E-05-7.87562E-06-2.93060E-05 3.66831E-06 1.68074E-18-6.26222E-18
 -1      3026 7.66436E-05-7.09095E-06-2.98507E-05 3.47371E-06 1.55966E-18-6.56587E-18
 -1      3027 7.80189E-05-7.98702E-06-2.99974E-05 3.61390E-06 1.08085E-18-6.59615E-18
 -1      3028 9.67292E-05-2.09227E-05-3.25140E-05-1.74829E-06 4.08352E-18-1.45031E-18
 -1      3029 1.24437E-04-5.87193E-05-2.79453E-05 1.75740E-05-2.31912E-18-3.66437E-18
 -1      3030 1.33868E-04-2.23218E-05-4.83245E-05-1.32686E-05 7.85390E-18-3.80170E-18
 -1      3031 5.97580E-05-2.63559E-05-1.37144E-05 2.86450E-05-3.04238E-18 2.70489E-18
 -1      3032 9.52477E-05-2.85867E-05-2.85690E-05-1.81949E-08 6.39768E-19-2.62828E-18
 -1      3033 9.52460E-05-2.85869E-05-2.85681E-05-1.78633E-08 1.32346E-18-2.59990E-18
 -1      3034 9.52440E-05-2.85850E-05-2.85682E-05-1.91494E-08 1.04818E-18-4.85592E-18
 -1      3035 1.29316E-04-2.94668E-05-4.31323E-05 1.27455E-05-4.53634E-18-7.64172E-18
 -1      3036 1.38395E-04-4.69097E-05-3.95964E-05 1.00216E-05 1.98725E-18 3.77157E-18
 -1      3037 1.30906E-04-3.57374E-05-4.10535E-05-1.73577E-05 4.14707E-18-5.82409E-18
 -1      3038 1.28057E-04-5.66838E-05-3.06028E-05 1.45426E-05 1.21928E-18 7.51953E-19
 -1      3039 9.52420E-05-2.85833E-05-2.85680E-05-2.00441E-08 2.77089E-19-4.36547E-18
 -1      3040 9.52397E-05-2.85811E-05-2.85680E-05-2.02207E-08 6.40811E-19-2.33242E-18
 -1      3041 9.52386E-05-2.85798E-05-2.85681E-05-2.20203E-08-1.03169E-18-1.48401E-18
 -1      3042 9.52434E-05-2.85835E-05-2.85686E-05-2.11986E-08 2.78949E-19-4.40769E-18
 -1      3043 4.16803E-05-1.49976E-05-1.07869E-05-1.50480E-05 1.29175E-18 7.20899E-18
 -1      3044 1.26260E-04-2.18842E-05-4.51908E-05-1.25997E-05-6.63968E-18-1.45531E-19
 -1      3045 1.32646E-04-2.81717E-05-4.52348E-05-1.20913E-05-6.44105E-18 2.15358E-19
 -1      3046 1.30187E-04-3.34052E-05-4.16683E-05-1.17809E-05-4.60574E-18 1.38172E-18
 -1      3047 1.09999E-04-5.22180E-05-2.49234E-05 2.79769E-05 3.52186E-18-9.45249E-19
 -1      3048 1.01886E-04-5.03110E-05-2.18202E-05 3.49261E-05 3.48596E-18-2.87679E-18
 -1      3049 9.23976E-05-4.29019E-05-2.09298E-05 3.41623E-05 4.07624E-18-3.42334E-18
 -1      3050 9.52403E-05-2.85819E-05-2.85679E-05 1.98183E-08 1.90944E-18-1.42775E-18
 -1      3051 1.39279E-04-5.59353E-05-3.57735E-05-1.35057E-06 1.28961E-18-5.87237E-18
 -1      3052 5.57315E-05-2.35011E-05-1.31915E-05-2.84214E-05-2.68859E-18-9.39794E-18
 -1      3053 9.48847E-05-1.98939E-05-3.21373E-05-9.56504E-07-2.21644E-18-4.75228E-18
 -1      3054 9.90357E-05-2.32250E-05-3.25122E-05-2.35095E-06-3.16968E-18-3.67418E-18
 -1      3055 1.00238E-04-2.54824E-05-3.20513E-05-8.59182E-07-2.85976E-18-3.09090E-18
 -1      3056 9.49692E-05-2.13232E-05-3.15540E-05 9.03870E-07-1.80808E-18-4.54569E-18
 -1      3057 1.21836E-04-5.87549E-05-2.69021E-05-2.31176E-05-3.39088E-18-1.20289E-18
 -1      3058 1.26530E-04-5.74444E-05-2.96661E-05-1.30849E-05-3.28424E-18 8.56033E-19
 -1      3059 1.13045E-04-5.31797E-05-2.51935E-05-2.54624E-05-3.96348E-18-1.71784E-18
 -1      3060 9.52399E-05-2.85805E-05-2.85683E-05 2.21057E-08 2.02605E-18-2.18276E-18
 -1      3061 9.52423E-05-2.85832E-05-2.85682E-05 2.04980E-08 1.87993E-18-1.54851E-18
 -1      3062 9.52437E-05-2.85833E-05-2.85688E-05 2.15176E-08 2.42587E-18-7.91059E-19
 -1      3063 9.52396E-05-2.85799E-05-2.85685E-05 2.34281E-08 2.44165E-18-1.68301E-18
 -1      3064 3.68687E-05-1.35996E-05-9.26671E-06 1.70202E-05 2.17526E-18-9.93337E-18
 -1      3065 3.95346E-05-1.07297E-05-1.18650E-05 9.38838E-06 1.49959E-18-9.32054E-18
 -1      3066 4.38238E-05-1.62412E-05-1.16447E-05 2.32239E-05 2.99998E-18-8.86431E-18
 -1      3067 1.28591E-04-1.41912E-05-4.93883E-05-1.48016E-06 8.84895E-18-3.62212E-19
 -1      3068 6.74589E-05-3.20231E-05-1.45604E-05-3.59046E-05 3.91017E-18 5.19358E-18
 -1      3069 8.18914E-05-3.85513E-05-1.84051E-05-3.48404E-05 4.87605E-18 2.05236E-18
 -1      3070 6.17757E-05-2.59280E-05-1.50178E-05-3.04330E-05 3.25224E-18 5.18787E-18
 -1      3071 6.47859E-05-3.03769E-05-1.41724E-05 3.61280E-05 3.83293E-18-7.07114E-18
 -1      3072 1.41688E-04-4.06958E-05-4.37037E-05-1.38111E-05 5.02979E-18-5.50741E-18
 -1      3073 8.64466E-05-4.19855E-05-1.85835E-05-3.48548E-05-4.10303E-18-6.13204E-18
 -1      3074 7.99334E-05-9.50559E-06-3.02273E-05 3.79580E-06 7.44073E-19-6.42885E-18
 -1      3075 8.20200E-05-1.08348E-05-3.04893E-05 3.45171E-06 2.12885E-19-6.42556E-18
 -1      3076 8.41386E-05-1.36595E-05-3.02108E-05 4.41478E-06 1.09162E-19-5.93364E-18
 -1      3077 7.95000E-05-1.03000E-05-2.96464E-05 4.69934E-06 9.50483E-19-6.20717E-18
 -1      3078 1.34371E-04-4.92867E-05-3.65847E-05 2.29924E-06 8.05674E-20-7.29772E-18
 -1      3079 9.55513E-05-2.12685E-05-3.18338E-05-3.85900E-06 3.49801E-18-1.92574E-18
 -1      3080 1.35000E-04-4.73988E-05-3.76517E-05-4.34797E-06-1.85778E-18 1.65087E-18
 -1      3081 9.47821E-05-4.63485E-05-2.03367E-05 3.18196E-05-4.03865E-18-8.63285E-19
 -1      3082 9.91337E-05-2.51214E-05-3.17065E-05 2.79371E-07-2.26884E-18-3.37348E-18
 -1      3083 1.21323E-04-1.33713E-05-4.67128E-05 7.45397E-06-7.63378E-18-5.44121E-18
 -1      3084 1.28412E-04-5.85689E-05-3.02914E-05 1.06859E-05-1.93552E-18-4.38077E-18
 -1      3085 1.18684E-04-5.52459E-05-2.68057E-05 1.88671E-05-3.15250E-18-3.67880E-18
 -1      3086 9.06181E-05-1.85060E-05-3.08899E-05-4.95336E-06 3.17395E-18-3.15929E-18
 -1      3087 8.68539E-05-1.60052E-05-3.04069E-05-4.81308E-06 3.01952E-18-3.73900E-18
 -1      3088 1.37183E-04-2.39610E-05-4.90809E-05 1.20878E-05 7.52981E-18 2.17571E-18
 -1      3089 1.29629E-04-1.98732E-05-4.75412E-05 1.02477E-05 7.66607E-18 2.42410E-18
 -1      3090 1.02386E-04-3.10159E-05-3.05282E-05 3.85981E-06-1.05365E-18-2.49501E-18
 -1      3091 1.03874E-04-3.31205E-05-3.03501E-05 4.02058E-06-7.24537E-19-2.26184E-18
 -1      3092 1.22934E-04-1.16981E-05-4.80558E-05-4.56430E-06-8.66716E-18-2.87397E-18
 -1      3093 1.06129E-04-3.54033E-05-3.02349E-05 3.94173E-06-5.05228E-19-1.53395E-18
 -1      3094 1.07815E-04-3.73701E-05-3.02308E-05 3.23190E-06-3.62753E-19-1.49107E-18
 -1      3095 1.03879E-04-3.41077E-05-2.99724E-05 5.58627E-06-3.29878E-19-2.25158E-18
 -1      3096 1.10509E-04-3.94634E-05-3.03700E-05 2.05203E-06-3.17991E-19-9.12207E-19
 -1      3097 1.12115E-04-4.08341E-05-3.06093E-05 4.31600E-07-3.84029E-19-8.24974E-19
 -1      3098 1.08861E-04-3.90960E-05-2.99727E-05 4.67584E-06-8.57613E-20-1.40368E-18
 -1      3099 1.14776E-04-4.20081E-05-3.11320E-05-2.01474E-06-4.54499E-19-1.62725E-19
 -1      3100 1.15654E-04-4.18742E-05-3.16861E-05-4.24675E-06-5.84181E-19-1.29967E-19
 -1      3101 1.14374E-04-4.30085E-05-3.06425E-05 1.34188E-06-1.37242E-19-2.07143E-19
 -1      3102 1.17334E-04-4.11174E-05-3.27007E-05-7.48978E-06-6.74993E-19 3.01290E-19
 -1      3103 1.16816E-04-3.84680E-05-3.35966E-05-9.54203E-06-1.35319E-18 6.43183E-19
 -1      3104 1.18884E-04-4.37085E-05-3.22596E-05-4.20220E-06-5.65826E-19 7.97391E-19
 -1      3105 1.16131E-04-3.47190E-05-3.50729E-05-1.17303E-05-2.00037E-18 7.97988E-19
 -1      3106 1.14297E-04-3.00039E-05-3.61176E-05-1.18689E-05-2.65693E-18 7.48549E-19
 -1      3107 1.20080E-04-3.83987E-05-3.49854E-05-1.04208E-05-1.52416E-18 1.52794E-18
 -1      3108 1.07972E-04-1.72813E-05-3.91348E-05-2.76821E-06-4.96353E-18-1.47168E-18
 -1      3109 1.07885E-04-1.67591E-05-3.91769E-05 1.72046E-06-5.05763E-18-2.40515E-18
 -1      3110 1.13107E-04-2.76326E-05-3.66072E-05 1.28550E-05-3.04866E-18-5.35756E-18
 -1      3111 1.15280E-04-3.28117E-05-3.55351E-05 1.32491E-05-2.33955E-18-5.38356E-18
 -1      3112 1.16208E-04-3.70601E-05-3.39618E-05 1.13709E-05-1.79155E-18-5.47857E-18
 -1      3113 1.17042E-04-4.03066E-05-3.29698E-05 9.64799E-06-1.03071E-18-5.60532E-18
 -1      3114 1.19360E-04-3.65710E-05-3.55946E-05 1.25132E-05-2.15633E-18-5.94434E-18
 -1      3115 1.15964E-04-4.19468E-05-3.17513E-05 6.14182E-06-3.58879E-19-5.29734E-18
 -1      3116 1.15180E-04-4.26946E-05-3.10436E-05 3.66223E-06 2.03100E-19-5.06879E-18
 -1      3117 1.19288E-04-4.36527E-05-3.23942E-05 6.62370E-06-5.64713E-19-5.29022E-18
 -1      3118 1.12673E-04-4.20530E-05-3.03130E-05 7.67310E-07 4.07669E-19-3.96893E-18
 -1      3119 1.11100E-04-4.11694E-05-2.99016E-05-1.38298E-06 5.62977E-19-3.43701E-18
 -1      3120 1.15010E-04-4.42229E-05-3.04058E-05 1.41646E-07 6.13311E-19-4.27961E-18
 -1      3121 1.08368E-04-3.95088E-05-2.95475E-05-3.25929E-06 3.92183E-19-2.91662E-18
 -1      3122 1.06600E-04-3.79650E-05-2.93497E-05-4.69854E-06 7.99052E-19-2.44315E-18
 -1      3123 1.09677E-04-4.14997E-05-2.92874E-05-4.55814E-06 1.09395E-18-2.87019E-18
 -1      3124 1.04330E-04-3.61761E-05-2.92243E-05-5.60063E-06 4.21496E-19-2.33316E-18
 -1      3125 1.02760E-04-3.46343E-05-2.91481E-05-6.38572E-06 2.19385E-19-2.48366E-18
 -1      3126 1.04629E-04-3.75255E-05-2.88237E-05-6.99751E-06 6.52137E-19-2.57097E-18
 -1      3127 1.01116E-04-3.31375E-05-2.91363E-05-6.64187E-06 2.39906E-19-2.03315E-18
 -1      3128 9.98939E-05-3.18840E-05-2.91154E-05-6.94056E-06 3.37144E-19-2.15849E-18
 -1      3129 1.00742E-04-3.38592E-05-2.87146E-05-7.86880E-06 4.22170E-19-2.45813E-18
 -1      3130 9.88118E-05-3.07943E-05-2.91467E-05-6.81852E-06 2.02797E-19-2.06807E-18
 -1      3131 9.79328E-05-2.98933E-05-2.91415E-05-6.79508E-06 6.51337E-19-2.08637E-18
 -1      3132 9.80619E-05-3.10273E-05-2.87634E-05-7.79846E-06 4.41258E-19-1.68225E-18
 -1      3133 9.72784E-05-2.91812E-05-2.91783E-05-6.47399E-06 4.58782E-19-2.11790E-18
 -1      3134 9.66768E-05-2.85939E-05-2.91695E-05-6.25585E-06 3.89504E-19-2.49750E-18
 -1      3135 9.63674E-05-2.90818E-05-2.88580E-05-7.22496E-06 4.29399E-19-1.86167E-18
 -1      3136 9.63177E-05-2.81794E-05-2.91951E-05-5.84503E-06 1.07765E-18-2.27259E-18
 -1      3137 9.59187E-05-2.78345E-05-2.91761E-05-5.52301E-06 1.16263E-18-1.62164E-18
 -1      3138 9.53846E-05-2.78793E-05-2.89432E-05-6.41550E-06 9.20592E-19-1.63344E-18
 -1      3139 9.57492E-05-2.76323E-05-2.91860E-05-5.08739E-06 4.23333E-19-1.29169E-18
 -1      3140 9.54894E-05-2.74585E-05-2.91568E-05-4.72332E-06 2.50727E-19-1.16064E-18
 -1      3141 9.48759E-05-2.72298E-05-2.89976E-05-5.52526E-06 1.01365E-18-1.09963E-18
 -1      3142 9.54334E-05-2.73962E-05-2.91522E-05-4.30076E-06 4.60111E-19-1.09246E-18
 -1      3143 9.52654E-05-2.73346E-05-2.91157E-05-3.93484E-06 5.16022E-19-4.96192E-19
 -1      3144 9.46622E-05-2.69600E-05-2.90182E-05-4.64331E-06 6.67325E-19-1.33012E-19
 -1      3145 9.52721E-05-2.73574E-05-2.91002E-05-3.54651E-06 2.17889E-19-7.79543E-19
 -1      3146 9.51634E-05-2.73642E-05-2.90601E-05-3.20343E-06 7.12713E-19-2.68188E-19
 -1      3147 9.46194E-05-2.69314E-05-2.90102E-05-3.81962E-06 5.82687E-19 2.58385E-19
 -1      3148 9.52005E-05-2.74333E-05-2.90376E-05-2.86008E-06 1.20447E-18-6.78068E-19
 -1      3149 9.51295E-05-2.74778E-05-2.89971E-05-2.55343E-06 1.23881E-18 8.93179E-20
 -1      3150 9.46667E-05-2.70435E-05-2.89815E-05-3.08085E-06 7.75807E-19 1.90368E-19
 -1      3151 9.51778E-05-2.75673E-05-2.89711E-05-2.25892E-06 7.09707E-19-2.53792E-19
 -1      3152 9.51306E-05-2.76292E-05-2.89325E-05-1.99459E-06-6.90681E-20-4.81924E-19
 -1      3153 9.47538E-05-2.72266E-05-2.89399E-05-2.43864E-06 9.18651E-19-7.84191E-19
 -1      3154 9.51793E-05-2.77230E-05-2.89057E-05-1.74835E-06-7.12400E-19-5.85207E-20
 -1      3155 9.51474E-05-2.77896E-05-2.88706E-05-1.52712E-06-9.42733E-19-2.97818E-19
 -1      3156 9.48517E-05-2.74357E-05-2.88921E-05-1.89472E-06-7.75803E-20-9.77431E-19
 -1      3157 9.51910E-05-2.78784E-05-2.88447E-05-1.32586E-06-1.00239E-18 1.02825E-20
 -1      3158 9.51689E-05-2.79422E-05-2.88139E-05-1.14532E-06-3.55743E-19 2.62010E-19
 -1      3159 9.49445E-05-2.76431E-05-2.88431E-05-1.44453E-06-4.24769E-19 5.81286E-19
 -1      3160 9.52053E-05-2.80210E-05-2.87903E-05-9.84197E-07-8.65995E-19-3.36580E-19
 -1      3161 9.51897E-05-2.80783E-05-2.87641E-05-8.40167E-07-1.05756E-18-7.53890E-19
 -1      3162 9.50248E-05-2.78332E-05-2.87961E-05-1.07964E-06-1.00353E-18 1.97412E-19
 -1      3163 9.52185E-05-2.81452E-05-2.87433E-05-7.13687E-07-3.89224E-19-7.56250E-19
 -1      3164 9.52073E-05-2.81942E-05-2.87215E-05-6.01195E-07 1.09365E-19-6.07675E-19
 -1      3165 9.50903E-05-2.79988E-05-2.87533E-05-7.89620E-07-5.15284E-19-1.98852E-19
 -1      3166 9.52292E-05-2.82492E-05-2.87038E-05-5.03817E-07-2.99454E-19-3.06964E-19
 -1      3167 9.52211E-05-2.82898E-05-2.86861E-05-4.17755E-07-9.47470E-19-5.44429E-19
 -1      3168 9.51413E-05-2.81377E-05-2.87157E-05-5.63473E-07-4.03029E-20-1.01434E-18
 -1      3169 9.52370E-05-2.83337E-05-2.86713E-05-3.44243E-07-1.04960E-18 2.21930E-19
 -1      3170 9.52311E-05-2.83663E-05-2.86573E-05-2.79765E-07 1.97254E-21 5.55327E-19
 -1      3171 9.51794E-05-2.82506E-05-2.86837E-05-3.90458E-07-2.29512E-19 2.61017E-19
 -1      3172 9.52421E-05-2.84005E-05-2.86453E-05-2.25403E-07-6.96959E-20 7.29381E-19
 -1      3173 9.52378E-05-2.84260E-05-2.86343E-05-1.78154E-07-3.21591E-19 9.14944E-21
 -1      3174 9.52067E-05-2.83401E-05-2.86572E-05-2.60664E-07-2.70015E-19 8.85133E-19
 -1      3175 9.52452E-05-2.84520E-05-2.86248E-05-1.38850E-07-6.24644E-19-2.26128E-19
 -1      3176 9.52420E-05-2.84715E-05-2.86164E-05-1.05059E-07-4.70704E-19-2.84303E-20
 -1      3177 9.52255E-05-2.84093E-05-2.86356E-05-1.65308E-07-6.73903E-19-8.05481E-20
 -1      3178 9.52466E-05-2.84909E-05-2.86089E-05-7.73641E-08-7.04951E-19-9.59269E-19
 -1      3179 9.52443E-05-2.85055E-05-2.86027E-05-5.38739E-08-9.24127E-19-2.12103E-18
 -1      3180 9.52377E-05-2.84617E-05-2.86184E-05-9.68565E-08-6.90533E-19 9.81770E-20
 -1      3181 9.52468E-05-2.85195E-05-2.85970E-05-3.49520E-08-4.06491E-19-1.06970E-18
 -1      3182 9.52452E-05-2.85302E-05-2.85924E-05-1.91822E-08 1.47713E-19 1.63739E-19
 -1      3183 9.52450E-05-2.85003E-05-2.86050E-05-4.90204E-08-2.32551E-20 7.03818E-19
 -1      3184 9.52463E-05-2.85400E-05-2.85881E-05-6.75544E-09 2.73745E-19 3.31167E-19
 -1      3185 9.52452E-05-2.85476E-05-2.85848E-05 3.35098E-09 6.31590E-19 2.56580E-19
 -1      3186 9.52489E-05-2.85281E-05-2.85947E-05-1.66708E-08 4.81612E-19 2.22232E-18
 -1      3187 9.52454E-05-2.85544E-05-2.85816E-05 1.10731E-08 1.25422E-18 3.21803E-19
 -1      3188 9.52447E-05-2.85596E-05-2.85794E-05 1.71186E-08 1.37762E-18 1.23201E-18
 -1      3189 9.52503E-05-2.85475E-05-2.85870E-05 4.28216E-09 1.10827E-18 1.43981E-18
 -1      3190 9.52442E-05-2.85640E-05-2.85771E-05 2.15126E-08 1.21889E-18 4.14900E-19
 -1      3191 9.52438E-05-2.85676E-05-2.85755E-05 2.47150E-08 1.30885E-18 4.69952E-19
 -1      3192 9.52502E-05-2.85607E-05-2.85813E-05 1.70299E-08 1.48030E-18 1.58338E-18
 -1      3193 9.52430E-05-2.85704E-05-2.85739E-05 2.68131E-08 1.22190E-18 1.21851E-19
 -1      3194 9.52428E-05-2.85727E-05-2.85729E-05 2.80719E-08 1.98701E-18 9.42395E-19
 -1      3195 9.52492E-05-2.85694E-05-2.85771E-05 2.40064E-08 1.66219E-18 1.36468E-18
 -1      3196 9.52419E-05-2.85744E-05-2.85717E-05 2.86242E-08 1.58011E-18-1.55169E-19
 -1      3197 9.52419E-05-2.85760E-05-2.85711E-05 2.85792E-08 1.45088E-18-9.49101E-19
 -1      3198 9.52476E-05-2.85748E-05-2.85741E-05 2.70190E-08 1.45247E-18-4.69989E-19
 -1      3199 9.52410E-05-2.85770E-05-2.85702E-05 2.81122E-08 1.36270E-18-3.28044E-19
 -1      3200 9.52411E-05-2.85781E-05-2.85698E-05 2.71874E-08 7.15757E-19-7.51257E-19
 -1      3201 9.52459E-05-2.85781E-05-2.85720E-05 2.73645E-08 1.13863E-18-3.71047E-19
 -1      3202 9.52401E-05-2.85786E-05-2.85692E-05 2.62902E-08 1.45258E-18-1.11331E-18
 -1      3203 9.52403E-05-2.85795E-05-2.85689E-05 2.47441E-08 2.61394E-18-7.35735E-19
 -1      3204 9.52426E-05-2.85812E-05-2.85692E-05 2.40711E-08 1.75796E-18-9.02344E-19
 -1      3205 9.52441E-05-2.85801E-05-2.85704E-05 2.61698E-08 1.37041E-18-9.13134E-20
 -1      3206 1.17759E-04-1.67280E-05-4.35689E-05 1.08048E-05-6.20833E-18-5.68086E-18
 -1      3207 1.14847E-04-1.28192E-05-4.41977E-05 5.18783E-06-7.12842E-18-4.00899E-18
 -1      3208 1.21322E-04-1.96548E-05-4.43268E-05-1.02385E-05 6.38959E-18-2.52395E-18
 -1      3209 1.28340E-04-5.47403E-05-3.20198E-05 7.55106E-06 7.52989E-19 1.08066E-18
 -1      3210 1.22545E-04-5.53203E-05-2.83685E-05 1.76820E-05 2.27796E-18 3.81059E-19
 -1      3211 1.04144E-04-3.63165E-05-2.89821E-05 1.38385E-05-1.60911E-18-1.76093E-18
 -1      3212 1.07467E-04-3.96438E-05-2.90333E-05 1.29710E-05-1.81022E-18-2.57110E-18
 -1      3213 9.96482E-05-3.13473E-05-2.92313E-05 1.32981E-05-1.68942E-18-9.38459E-19
 -1      3214 1.01750E-04-3.35783E-05-2.91773E-05 1.33092E-05-1.56033E-18-1.30041E-18
 -1      3215 9.87474E-05-3.38084E-05-2.79190E-05 1.57207E-05-1.85044E-18-1.19445E-18
 -1      3216 9.72831E-05-2.84724E-05-2.94790E-05 1.20102E-05-6.60819E-19-1.74568E-19
 -1      3217 9.85178E-05-2.97719E-05-2.94372E-05 1.24682E-05-1.15787E-18-5.49332E-19
 -1      3218 9.54864E-05-2.92863E-05-2.84240E-05 1.39832E-05-1.89142E-18-1.19304E-18
 -1      3219 9.61664E-05-2.70444E-05-2.96251E-05 1.04540E-05-5.36966E-19 7.50899E-19
 -1      3220 9.68788E-05-2.77038E-05-2.96264E-05 1.11092E-05-2.83805E-19 2.92719E-19
 -1      3221 9.40879E-05-2.68105E-05-2.88523E-05 1.20736E-05-9.34414E-19-5.96743E-19
 -1      3222 9.56957E-05-2.64945E-05-2.96648E-05 8.86882E-06-8.39462E-19 1.44637E-18
 -1      3223 9.61181E-05-2.67670E-05-2.97061E-05 9.58696E-06-7.20577E-19 9.01524E-19
 -1      3224 9.37130E-05-2.57338E-05-2.91372E-05 1.02535E-05-8.05797E-19 3.21999E-19
 -1      3225 9.55273E-05-2.64295E-05-2.96223E-05 7.36819E-06-5.98345E-19 1.61916E-18
 -1      3226 9.57975E-05-2.64884E-05-2.96908E-05 8.07193E-06-7.00580E-19 1.52290E-18
 -1      3227 9.38061E-05-2.54606E-05-2.92877E-05 8.58377E-06-8.21654E-19 3.17574E-19
 -1      3228 9.54799E-05-2.66020E-05-2.95279E-05 6.01029E-06 3.86714E-19 1.37596E-18
 -1      3229 9.56713E-05-2.65548E-05-2.96100E-05 6.65708E-06 1.94659E-19 2.01336E-18
 -1      3230 9.40717E-05-2.56126E-05-2.93346E-05 7.08528E-06-1.04561E-19 4.46548E-19
 -1      3231 9.54686E-05-2.68696E-05-2.94074E-05 4.82081E-06-4.51161E-19 6.53301E-19
 -1      3232 9.56169E-05-2.67775E-05-2.94925E-05 5.39026E-06-8.01325E-20 1.07254E-18
 -1      3233 9.43627E-05-2.59569E-05-2.93120E-05 5.76457E-06 2.81760E-19 1.24420E-18
 -1      3234 9.54593E-05-2.71562E-05-2.92794E-05 3.80552E-06 1.19918E-20 9.61989E-19
 -1      3235 9.55806E-05-2.70519E-05-2.93605E-05 4.29131E-06-2.44600E-19 7.94984E-19
 -1      3236 9.46175E-05-2.63624E-05-2.92486E-05 4.62161E-06-4.99144E-19 9.59773E-19
 -1      3237 9.54424E-05-2.74248E-05-2.91558E-05 2.95756E-06-8.23447E-20 9.38486E-19
 -1      3238 9.55435E-05-2.73245E-05-2.92289E-05 3.36187E-06 4.30369E-19 1.20380E-18
 -1      3239 9.48178E-05-2.67605E-05-2.91650E-05 3.65050E-06 2.75188E-19 7.37256E-19
 -1      3240 9.54181E-05-2.76605E-05-2.90432E-05 2.26273E-06-5.53271E-19 7.71076E-19
 -1      3241 9.55022E-05-2.75709E-05-2.91067E-05 2.59238E-06-4.60681E-19 5.90723E-19
 -1      3242 9.49652E-05-2.71193E-05-2.90753E-05 2.84008E-06 3.32569E-19 3.40204E-19
 -1      3243 9.53898E-05-2.78591E-05-2.89450E-05 1.70310E-06 3.95479E-19-1.05309E-18
 -1      3244 9.54587E-05-2.77826E-05-2.89984E-05 1.96711E-06-2.71609E-20-9.98261E-20
 -1      3245 9.50687E-05-2.74275E-05-2.89883E-05 2.17533E-06 4.40316E-19-1.12670E-18
 -1      3246 9.53609E-05-2.80224E-05-2.88619E-05 1.25955E-06 1.26171E-19-1.02470E-18
 -1      3247 9.54163E-05-2.79587E-05-2.89057E-05 1.46755E-06 1.35341E-19-1.14660E-18
 -1      3248 9.51388E-05-2.76840E-05-2.89089E-05 1.63901E-06 4.02702E-19-2.00115E-18
 -1      3249 9.53339E-05-2.81541E-05-2.87933E-05 9.13443E-07 9.07182E-19-7.74385E-19
 -1      3250 9.53776E-05-2.81021E-05-2.88285E-05 1.07477E-06 1.24052E-18 1.21712E-19
 -1      3251 9.51847E-05-2.78929E-05-2.88394E-05 1.21312E-06 3.26975E-20-1.39445E-18
 -1      3252 9.53103E-05-2.82587E-05-2.87378E-05 6.47575E-07 6.88953E-19-7.72391E-19
 -1      3253 9.53439E-05-2.82170E-05-2.87656E-05 7.70748E-07 5.26825E-19-6.03096E-19
 -1      3254 9.52137E-05-2.80602E-05-2.87803E-05 8.80250E-07 5.72530E-19 1.78171E-19
 -1      3255 9.52907E-05-2.83408E-05-2.86939E-05 4.46601E-07 5.93088E-19-9.20280E-19
 -1      3256 9.53159E-05-2.83077E-05-2.87154E-05 5.39127E-07 8.06752E-19-3.30535E-19
 -1      3257 9.52313E-05-2.81921E-05-2.87314E-05 6.24181E-07 5.47152E-19-4.99396E-19
 -1      3258 9.52749E-05-2.84042E-05-2.86596E-05 2.97259E-07 1.04228E-18 6.84868E-19
 -1      3259 9.52935E-05-2.83784E-05-2.86760E-05 3.65562E-07 8.99019E-19-5.37279E-19
 -1      3260 9.52414E-05-2.82947E-05-2.86918E-05 4.30395E-07 9.64220E-19-4.84939E-19
 -1      3261 9.52628E-05-2.84527E-05-2.86334E-05 1.88354E-07-1.99049E-19 6.07112E-19
 -1      3262 9.52760E-05-2.84327E-05-2.86457E-05 2.37806E-07 7.44790E-19 4.72180E-19
 -1      3263 9.52467E-05-2.83735E-05-2.86603E-05 2.86277E-07 9.23207E-19-8.62646E-20
 -1      3264 9.52537E-05-2.84892E-05-2.86137E-05 1.10621E-07-2.32178E-19-4.60344E-20
 -1      3265 9.52628E-05-2.84740E-05-2.86227E-05 1.45632E-07-1.11389E-19 4.34110E-19
 -1      3266 9.52489E-05-2.84331E-05-2.86357E-05 1.81126E-07-9.67710E-20-8.14074E-19
 -1      3267 9.52471E-05-2.85162E-05-2.85992E-05 5.65285E-08 1.06268E-18-2.05856E-18
 -1      3268 9.52531E-05-2.85048E-05-2.86057E-05 8.06578E-08 5.08082E-19-2.22748E-19
 -1      3269 9.52492E-05-2.84774E-05-2.86168E-05 1.06054E-07 6.75380E-19-9.80025E-19
 -1      3270 9.52424E-05-2.85358E-05-2.85887E-05 2.00559E-08 8.87027E-21-2.08740E-18
 -1      3271 9.52462E-05-2.85274E-05-2.85932E-05 3.61275E-08 8.42861E-19-2.23921E-18
 -1      3272 9.52486E-05-2.85099E-05-2.86025E-05 5.38157E-08 1.13870E-18-8.90567E-20
 -1      3273 9.52394E-05-2.85498E-05-2.85813E-05-3.52975E-09 2.78872E-19-2.47658E-18
 -1      3274 9.52415E-05-2.85437E-05-2.85844E-05 6.68950E-09-2.96858E-19-2.90607E-18
 -1      3275 9.52474E-05-2.85333E-05-2.85919E-05 1.86054E-08 3.37264E-19-6.60444E-19
 -1      3276 9.52374E-05-2.85596E-05-2.85763E-05-1.78841E-08-1.16428E-18-2.02587E-18
 -1      3277 9.52385E-05-2.85553E-05-2.85783E-05-1.18257E-08 5.54034E-19-1.96222E-18
 -1      3278 9.52459E-05-2.85496E-05-2.85843E-05-4.14511E-09-2.21853E-19-6.43146E-19
 -1      3279 9.52363E-05-2.85662E-05-2.85729E-05-2.57757E-08-1.52156E-18-2.13134E-18
 -1      3280 9.52366E-05-2.85632E-05-2.85741E-05-2.26072E-08-1.58232E-18-2.34638E-18
 -1      3281 9.52445E-05-2.85608E-05-2.85788E-05-1.79667E-08-1.46869E-18-7.43413E-19
 -1      3282 9.52358E-05-2.85706E-05-2.85708E-05-2.92526E-08-2.01058E-18-9.97733E-19
 -1      3283 9.52356E-05-2.85685E-05-2.85715E-05-2.80434E-08-1.85648E-18-1.48857E-18
 -1      3284 9.52431E-05-2.85682E-05-2.85751E-05-2.55345E-08-1.96935E-18-8.20594E-19
 -1      3285 9.52357E-05-2.85735E-05-2.85695E-05-2.97752E-08-1.57682E-18-9.38275E-19
 -1      3286 9.52352E-05-2.85721E-05-2.85699E-05-2.98703E-08-1.41462E-18-1.15231E-18
 -1      3287 9.52419E-05-2.85729E-05-2.85725E-05-2.88233E-08-1.70962E-18-2.10356E-18
 -1      3288 9.52360E-05-2.85755E-05-2.85688E-05-2.83500E-08-2.57530E-18 1.12039E-18
 -1      3289 9.52353E-05-2.85744E-05-2.85689E-05-2.93045E-08-2.32764E-18 3.85950E-19
 -1      3290 9.52409E-05-2.85759E-05-2.85708E-05-2.92356E-08-2.71858E-18-8.43484E-19
 -1      3291 9.52365E-05-2.85771E-05-2.85683E-05-2.56265E-08-8.91927E-19 5.89799E-19
 -1      3292 9.52357E-05-2.85762E-05-2.85684E-05-2.71581E-08-1.60510E-18 8.23795E-19
 -1      3293 9.52402E-05-2.85779E-05-2.85696E-05-2.77655E-08-1.94478E-18 3.23801E-19
 -1      3294 9.52383E-05-2.85790E-05-2.85683E-05-2.31453E-08-7.78975E-19-8.18257E-19
 -1      3295 9.52368E-05-2.85778E-05-2.85682E-05-2.46240E-08-2.75296E-19-3.30692E-19
 -1      3296 9.52403E-05-2.85795E-05-2.85689E-05-2.55088E-08-1.93272E-19-8.89262E-19
 -1      3297 9.52410E-05-2.85810E-05-2.85685E-05-2.32098E-08-5.98999E-19-3.26963E-18
 -1      3298 7.47322E-05-7.92437E-06-2.86581E-05 1.07125E-06 2.39220E-18-5.81304E-18
 -1      3299 7.45032E-05-7.83670E-06-2.85796E-05 2.29978E-06 2.03631E-18-6.08088E-18
 -1      3300 9.52477E-05-2.85851E-05-2.85697E-05 2.03010E-08 1.27424E-18 2.08235E-19
 -1      3301 9.52500E-05-2.85866E-05-2.85700E-05 1.82017E-08 8.69885E-19-1.07990E-18
 -1      3302 9.52558E-05-2.85904E-05-2.85708E-05 1.90926E-09 1.81875E-18 1.49859E-20
 -1      3303 9.52558E-05-2.85904E-05-2.85708E-05-1.63499E-09 1.27161E-18 1.84662E-18
 -1      3304 1.27688E-04-2.11001E-05-4.62532E-05-1.38155E-05 6.92502E-18-3.54817E-18
 -1      3305 1.33657E-04-2.80289E-05-4.56497E-05-1.70660E-05 6.50130E-18-5.28570E-18
 -1      3306 4.12906E-05-1.02322E-05-1.29067E-05-3.52550E-06 4.76866E-19-9.23859E-18
 -1      3307 4.50629E-05-1.30702E-05-1.33382E-05-1.49728E-05-7.68656E-19-9.45903E-18
 -1      3308 7.32627E-05-3.20359E-05-1.75778E-05 3.46410E-05 4.43115E-18-5.61906E-18
 -1      3309 5.72040E-05-2.30316E-05-1.39050E-05 3.14502E-05 4.00043E-18-7.68153E-18
 -1      3310 5.48473E-05-1.85198E-05-1.50788E-05 2.43174E-05 3.34170E-18-7.63251E-18
 -1      3311 9.52519E-05-2.85878E-05-2.85703E-05 1.53601E-08 3.33210E-19-1.91988E-18
 -1      3312 9.52534E-05-2.85889E-05-2.85705E-05 1.24560E-08 1.48071E-18-1.30703E-18
 -1      3313 9.52523E-05-2.85864E-05-2.85711E-05 1.76671E-08 8.95979E-19-6.37817E-19
 -1      3314 6.94969E-05-2.91528E-05-1.74188E-05 2.93535E-05-3.36590E-18 7.53118E-19
 -1      3315 5.57686E-05-1.99157E-05-1.48206E-05 2.21057E-05-2.25197E-18 2.41198E-18
 -1      3316 1.22715E-04-5.16605E-05-3.02765E-05 7.07320E-06-1.89584E-18-4.54015E-18
 -1      3317 1.27187E-04-5.36076E-05-3.15400E-05 2.76182E-06-1.18188E-18-5.12411E-18
 -1      3318 1.09055E-04-4.11575E-05-2.91008E-05-1.36832E-05-1.16962E-18-1.00433E-18
 -1      3319 1.05326E-04-3.69096E-05-2.91720E-05-1.40752E-05-7.75479E-19-1.19918E-18
 -1      3320 1.25242E-04-3.49290E-05-3.87417E-05 1.38034E-05-2.71389E-18-7.28496E-18
 -1      3321 1.20423E-04-2.53303E-05-4.12474E-05 1.34937E-05-4.44872E-18-6.21653E-18
 -1      3322 7.95728E-05-3.50127E-05-1.85297E-05-3.23749E-05-3.76564E-18-6.30648E-18
 -1      3323 9.57036E-05-4.53547E-05-2.17945E-05-3.20232E-05-3.90900E-18-4.09302E-18
 -1      3324 1.30999E-04-5.21152E-05-3.37033E-05-2.73962E-07 1.01700E-18-6.69156E-18
 -1      3325 1.30399E-04-4.47501E-05-3.71618E-05 8.15569E-06-1.28394E-18-7.93225E-18
 -1      3326 5.37660E-05-1.84487E-05-1.46727E-05-2.30275E-05-2.05683E-18-8.94901E-18
 -1      3327 6.47575E-05-2.63046E-05-1.64115E-05-3.01505E-05-2.85895E-18-7.92791E-18
 -1      3328 9.68995E-05-2.36101E-05-3.13865E-05-6.16810E-06 2.71265E-18-1.87543E-18
 -1      3329 9.33858E-05-2.07283E-05-3.11456E-05-5.51799E-06 2.98893E-18-2.52760E-18
 -1      3330 9.19498E-05-2.09860E-05-3.04120E-05-7.30102E-06 2.47807E-18-2.99187E-18
 -1      3331 9.76228E-05-2.52965E-05-3.10063E-05-8.10534E-06 2.00241E-18-1.84062E-18
 -1      3332 1.35609E-04-3.76580E-05-4.24879E-05-1.63150E-05 4.61935E-18-5.80297E-18
 -1      3333 1.37467E-04-4.66595E-05-3.90694E-05-1.37453E-05 2.73597E-18-6.27906E-18
 -1      3334 1.33091E-04-5.51315E-05-3.33798E-05-1.02495E-06-1.21120E-18 2.44618E-18
 -1      3335 1.38541E-04-5.46113E-05-3.61375E-05 3.69604E-06-5.80482E-20 2.88139E-18
 -1      3336 1.13802E-04-1.16961E-05-4.43219E-05 7.95759E-07-7.30439E-18-3.01392E-18
 -1      3337 1.17769E-04-1.35836E-05-4.50061E-05-5.90505E-06-7.41884E-18-1.75383E-18
 -1      3338 1.29006E-04-5.51873E-05-3.15672E-05-6.06877E-06-2.21091E-18 1.53257E-18
 -1      3339 1.39815E-04-3.16072E-05-4.64822E-05 1.38990E-05 5.96004E-18 2.91305E-18
 -1      3340 1.03813E-04-4.96811E-05-2.35123E-05 2.78617E-05-3.61117E-18-1.91774E-18
 -1      3341 8.76494E-05-3.97100E-05-2.00283E-05 3.06913E-05-3.84238E-18-4.50622E-19
 -1      3342 4.52002E-05-1.48334E-05-1.28189E-05 1.43278E-05-1.50663E-18 5.12286E-18
 -1      3343 4.12531E-05-1.20020E-05-1.21968E-05 2.72589E-06-3.58598E-19 6.87028E-18
 -1      3344 4.31726E-05-1.22556E-05-1.27243E-05-7.40943E-06 5.58089E-19 6.54820E-18
 -1      3345 4.89503E-05-1.61487E-05-1.38678E-05-1.86731E-05 1.52297E-18 6.09811E-18
 -1      3346 1.30277E-04-4.27313E-05-3.80170E-05-9.01613E-06-2.28964E-18 1.56529E-18
 -1      3347 1.30631E-04-4.82883E-05-3.51015E-05-3.92282E-06-5.75003E-19 1.73629E-18
 -1      3348 9.52546E-05-2.85896E-05-2.85707E-05 9.00218E-09 1.76989E-18-6.63714E-19
 -1      3349 9.52554E-05-2.85902E-05-2.85708E-05 5.68170E-09 1.80038E-18-1.06106E-18
 -1      3350 9.52574E-05-2.85893E-05-2.85721E-05 3.96887E-09 1.49119E-18-1.61481E-19
 -1      3351 9.52557E-05-2.85883E-05-2.85717E-05 1.12757E-08 1.31215E-18-1.18225E-18
 -1      3352 9.78639E-05-2.45632E-05-3.14316E-05 1.30998E-06-1.97347E-18-3.78361E-18
 -1      3353 9.92403E-05-2.61965E-05-3.12732E-05 1.74873E-06-1.82844E-18-3.31358E-18
 -1      3354 1.00495E-04-2.83117E-05-3.09472E-05 2.68267E-06-1.46177E-18-2.99689E-18
 -1      3355 9.50202E-05-2.24037E-05-3.11120E-05 2.36553E-06-1.20204E-18-4.39377E-18
 -1      3356 7.51571E-05-8.49412E-06-2.86194E-05 4.03478E-06 1.92571E-18-6.03333E-18
 -1      3357 7.64385E-05-9.35121E-06-2.87285E-05 4.91258E-06 1.49027E-18-5.97570E-18
 -1      3358 7.44651E-05-9.12642E-06-2.79490E-05 3.61494E-06 1.87919E-18-5.80642E-18
 -1      3359 8.50343E-05-1.60557E-05-2.95831E-05-6.13922E-06 2.56101E-18-3.98588E-18
 -1      3360 8.32827E-05-1.34563E-05-2.98972E-05-4.03427E-06 3.00680E-18-4.37203E-18
 -1      3361 8.02653E-05-1.15705E-05-2.94896E-05-3.40212E-06 2.75677E-18-4.82928E-18
 -1      3362 1.34413E-04-4.92476E-05-3.66504E-05-1.06975E-05 1.44956E-18-6.00620E-18
 -1      3363 1.38443E-04-5.25792E-05-3.71997E-05-7.27776E-06 1.91744E-18-6.31871E-18
 -1      3364 1.11705E-04-1.52249E-05-4.15235E-05 3.51882E-06-5.88709E-18-2.96143E-18
 -1      3365 1.08726E-04-1.78385E-05-3.90467E-05 6.43427E-06-4.74558E-18-3.68568E-18
 -1      3366 7.76185E-05-9.69271E-06-2.91067E-05-1.96292E-06 2.70924E-18-5.21962E-18
 -1      3367 7.58037E-05-8.59851E-06-2.88411E-05-8.39134E-07 2.44482E-18-5.55807E-18
 -1      3368 7.47986E-05-9.12135E-06-2.80868E-05-2.91922E-07 2.23912E-18-5.56051E-18
 -1      3369 7.87070E-05-1.17134E-05-2.86732E-05-3.89919E-06 2.37367E-18-4.87702E-18
 -1      3370 9.52501E-05-2.85868E-05-2.85700E-05-1.81508E-08 4.55841E-20-1.99876E-18
 -1      3371 9.52478E-05-2.85852E-05-2.85697E-05-2.02669E-08 1.92555E-19-1.16252E-18
 -1      3372 1.11837E-04-2.47269E-05-3.75989E-05-1.08398E-05-3.59108E-18 1.81626E-19
 -1      3373 1.09810E-04-2.02457E-05-3.84051E-05-8.05843E-06-4.29920E-18-3.21482E-19
 -1      3374 1.10406E-04-2.13506E-05-3.84175E-05 9.98184E-06-3.91282E-18-4.13443E-18
 -1      3375 1.17002E-04-2.79099E-05-3.82856E-05-1.23364E-05-3.52630E-18 1.04865E-18
 -1      3376 4.87915E-05-1.28138E-05-1.49580E-05-2.00504E-06-2.35799E-19 6.20981E-18
 -1      3377 1.26402E-04-5.00235E-05-3.28352E-05 9.50584E-07 3.82588E-19 9.38274E-19
 -1      3378 1.32580E-04-5.29354E-05-3.42195E-05-5.62018E-06-1.85550E-19-5.90737E-18
 -1      3379 9.52520E-05-2.85880E-05-2.85703E-05-1.52727E-08-5.81636E-19-9.62122E-19
 -1      3380 9.52524E-05-2.85865E-05-2.85711E-05-1.75688E-08 4.13948E-19-1.48470E-18
 -1      3381 9.52535E-05-2.85890E-05-2.85705E-05-1.23429E-08-6.91506E-19 9.37544E-20
 -1      3382 4.52499E-05-1.07245E-05-1.46897E-05 9.05430E-06 1.84780E-18-8.28494E-18
 -1      3383 4.27319E-05-9.85264E-06-1.35434E-05 2.30921E-06 1.11038E-18-8.97251E-18
 -1      3384 4.78133E-05-1.02385E-05-1.57629E-05-2.80366E-06 5.15805E-19-8.43671E-18
 -1      3385 8.92536E-05-1.86044E-05-3.02964E-05 4.84751E-06-1.97187E-19-5.15735E-18
 -1      3386 9.20007E-05-2.04960E-05-3.06489E-05 3.91381E-06-7.62006E-19-5.00049E-18
 -1      3387 5.71313E-05-1.77153E-05-1.64150E-05 1.65671E-05-1.91390E-18 3.04275E-18
 -1      3388 1.26266E-04-3.64873E-05-3.87265E-05-1.15888E-05-2.97759E-18 1.36907E-18
 -1      3389 9.52554E-05-2.85902E-05-2.85708E-05-5.44376E-09 8.27691E-19 1.33814E-19
 -1      3390 9.52547E-05-2.85897E-05-2.85707E-05-8.83811E-09 4.47626E-19-1.19992E-18
 -1      3391 9.52558E-05-2.85884E-05-2.85717E-05-1.10885E-08 6.14161E-19 1.71221E-19
 -1      3392 9.52575E-05-2.85893E-05-2.85721E-05-3.68936E-09 1.10760E-18 9.30740E-19
 -1      3393 1.14054E-04-5.13147E-05-2.67844E-05 2.12256E-05 2.80585E-18-7.73136E-19
 -1      3394 5.49706E-05-1.58028E-05-1.63523E-05-1.74039E-05-1.11004E-18-8.49706E-18
 -1      3395 1.17468E-04-4.88687E-05-2.92434E-05-1.28646E-05-2.28156E-18 1.24057E-19
 -1      3396 1.10072E-04-4.59688E-05-2.76093E-05-1.82342E-05-2.47188E-18-9.08893E-19
 -1      3397 9.85370E-05-2.71189E-05-3.05672E-05-9.84348E-06 1.42507E-18-1.83495E-18
 -1      3398 9.55424E-05-2.50629E-05-3.02203E-05-9.75193E-06 1.62447E-18-2.49939E-18
 -1      3399 9.98903E-05-2.92849E-05-3.02579E-05-1.11533E-05 1.08110E-18-1.81799E-18
 -1      3400 1.15377E-04-2.40070E-05-3.93296E-05 1.21264E-05-4.06457E-18-5.06187E-18
 -1      3401 1.27180E-04-5.56215E-05-3.10923E-05-8.56966E-06 2.34353E-18-5.34840E-18
 -1      3402 1.26330E-04-5.15010E-05-3.19976E-05-1.38675E-06 1.26391E-18-5.51482E-18
 -1      3403 7.65526E-05-2.98629E-05-1.95629E-05-2.81807E-05-2.95956E-18-6.38282E-18
 -1      3404 1.03350E-04-3.42468E-05-2.95852E-05-1.29865E-05-1.33001E-19-1.52069E-18
 -1      3405 1.00917E-04-3.12566E-05-2.97992E-05-1.25051E-05 4.51970E-19-1.68531E-18
 -1      3406 9.74357E-05-2.92432E-05-2.92579E-05-1.31724E-05 5.76783E-19-2.30358E-18
 -1      3407 1.00458E-04-3.46144E-05-2.82820E-05-1.60895E-05-6.73126E-19-2.11483E-18
 -1      3408 5.79608E-05-2.05152E-05-1.55036E-05-2.43405E-05 2.51955E-18 5.44499E-18
 -1      3409 6.89532E-05-2.67374E-05-1.79952E-05-2.76927E-05 3.35245E-18 3.46998E-18
 -1      3410 5.77899E-05-1.76878E-05-1.69376E-05-1.78340E-05 1.53823E-18 5.00586E-18
 -1      3411 8.44759E-05-3.69513E-05-1.99486E-05 3.39419E-05 4.17852E-18-4.68970E-18
 -1      3412 7.57837E-05-2.99813E-05-1.94910E-05 3.07825E-05 4.07587E-18-5.32318E-18
 -1      3413 9.35881E-05-4.07554E-05-2.25296E-05 2.97553E-05 4.10316E-18-3.32895E-18
 -1      3414 1.23858E-04-3.98032E-05-3.61455E-05 1.05902E-05-1.65100E-18-6.56440E-18
 -1      3415 9.52445E-05-2.85824E-05-2.85694E-05 2.29885E-08 1.22405E-18-9.72571E-19
 -1      3416 9.52463E-05-2.85840E-05-2.85695E-05 2.17196E-08 1.17749E-18 1.77923E-19
 -1      3417 9.52485E-05-2.85840E-05-2.85705E-05 2.18152E-08 2.76513E-19 7.06319E-19
 -1      3418 9.52452E-05-2.85818E-05-2.85700E-05 2.41937E-08 4.56175E-19-7.40676E-20
 -1      3419 8.17148E-05-3.30515E-05-2.04807E-05 2.64674E-05-3.27635E-18-1.62154E-19
 -1      3420 1.29993E-04-5.54859E-05-3.19203E-05 3.01933E-06-1.12387E-18-5.49444E-18
 -1      3421 1.11772E-04-4.35181E-05-2.90818E-05 1.23765E-05-1.79898E-18-2.95247E-18
 -1      3422 1.16197E-04-4.74228E-05-2.94844E-05 1.01033E-05-1.66350E-18-3.59046E-18
 -1      3423 9.97881E-05-2.86091E-05-3.05298E-05 4.23923E-06-1.06223E-18-3.31475E-18
 -1      3424 1.22390E-04-2.65868E-05-4.21104E-05 1.52888E-05 4.90686E-18 4.13443E-18
 -1      3425 1.22497E-04-5.24896E-05-2.99671E-05-1.02469E-05-2.20810E-18 7.77470E-19
 -1      3426 1.06000E-04-4.81173E-05-2.46536E-05-2.53120E-05-3.86766E-18-2.53932E-18
 -1      3427 1.34959E-04-5.68866E-05-3.33827E-05 6.60180E-07-1.59427E-19-6.27355E-18
 -1      3428 9.92596E-05-4.76491E-05-2.19281E-05-3.12030E-05 4.80914E-18-9.49312E-19
 -1      3429 1.11502E-04-5.38004E-05-2.49162E-05-2.64488E-05 4.66371E-18-2.65592E-18
 -1      3430 1.21217E-04-5.54779E-05-2.79460E-05-1.68144E-05 3.80349E-18-4.00244E-18
 -1      3431 1.12118E-04-1.70780E-05-4.08882E-05-6.48590E-06-5.47242E-18-6.06145E-19
 -1      3432 8.63715E-05-1.65277E-05-2.99044E-05 5.60728E-06 9.24531E-20-5.57760E-18
 -1      3433 8.88450E-05-1.96909E-05-2.96602E-05 6.65888E-06 8.47782E-20-5.01068E-18
 -1      3434 8.36122E-05-1.47124E-05-2.95706E-05 6.10495E-06 5.54598E-19-5.69189E-18
 -1      3435 1.05391E-04-4.12741E-05-2.76102E-05 1.66032E-05-2.08788E-18-1.92357E-18
 -1      3436 9.20235E-05-4.27489E-05-2.08647E-05-3.23730E-05 4.62454E-18 3.29972E-19
 -1      3437 9.98903E-05-4.48746E-05-2.33269E-05-2.66705E-05 4.12672E-18-1.37741E-18
 -1      3438 8.34481E-05-3.62486E-05-2.01236E-05-3.06599E-05 4.00885E-18 1.48398E-18
 -1      3439 1.11310E-04-5.00149E-05-2.60510E-05 2.01071E-05-3.12793E-18-2.64890E-18
 -1      3440 1.16063E-04-5.06651E-05-2.82678E-05 1.45832E-05-2.36253E-18-3.14944E-18
 -1      3441 1.22374E-04-3.16438E-05-3.92605E-05-1.30410E-05-3.59925E-18 1.20485E-18
 -1      3442 1.19416E-04-2.39053E-05-4.11041E-05-1.21374E-05-4.93863E-18 6.88836E-19
 -1      3443 5.18105E-05-1.28401E-05-1.64999E-05 4.12805E-06-5.21772E-19 5.79275E-18
 -1      3444 5.28044E-05-1.32108E-05-1.68934E-05-5.50837E-06 3.28942E-19 5.73611E-18
 -1      3445 1.01133E-04-3.19234E-05-2.95845E-05 7.46326E-06 1.70614E-20-2.94666E-18
 -1      3446 1.03380E-04-3.46944E-05-2.94372E-05 7.71765E-06 1.79921E-19-2.61801E-18
 -1      3447 1.06416E-04-3.77118E-05-2.93466E-05 7.89195E-06 4.26061E-19-2.15608E-18
 -1      3448 1.09216E-04-4.05096E-05-2.94669E-05 7.16035E-06 5.29951E-19-1.61394E-18
 -1      3449 1.02860E-04-3.56871E-05-2.88533E-05 1.02393E-05 5.77628E-19-2.74702E-18
 -1      3450 1.13181E-04-4.34560E-05-2.97710E-05 5.97776E-06 6.00801E-19-9.99585E-19
 -1      3451 1.15998E-04-4.54349E-05-3.03330E-05 3.91872E-06 4.65855E-19-4.23654E-19
 -1      3452 1.09844E-04-4.24163E-05-2.89928E-05 9.89229E-06 9.19387E-19-1.79785E-18
 -1      3453 1.23722E-04-4.37229E-05-3.43768E-05-8.01573E-06-8.39049E-19 1.55036E-18
 -1      3454 1.22666E-04-3.85447E-05-3.60874E-05-1.06507E-05-1.85773E-18 1.57910E-18
 -1      3455 9.06024E-05-3.71561E-05-2.31378E-05 2.55165E-05-3.04252E-18-9.05796E-19
 -1      3456 7.65654E-05-2.70595E-05-2.08905E-05 2.33187E-05-2.42124E-18-1.69327E-19
 -1      3457 1.17580E-04-4.68786E-05-3.01985E-05-2.16163E-06 9.50344E-19-3.56926E-18
 -1      3458 1.14487E-04-4.56971E-05-2.93571E-05-5.06623E-06 1.80996E-18-3.04901E-18
 -1      3459 1.10332E-04-4.31812E-05-2.87914E-05-6.96811E-06 1.37825E-18-2.52816E-18
 -1      3460 1.07471E-04-4.08535E-05-2.84454E-05-8.39907E-06 1.12386E-18-2.20010E-18
 -1      3461 1.11254E-04-4.54197E-05-2.83737E-05-9.60701E-06 1.96505E-18-2.25699E-18
 -1      3462 1.04369E-04-3.83414E-05-2.82919E-05-8.94293E-06 2.97732E-19-2.52873E-18
 -1      3463 1.02030E-04-3.60971E-05-2.81921E-05-9.48805E-06 2.52697E-19-2.77027E-18
 -1      3464 1.04138E-04-3.96968E-05-2.77221E-05-1.13832E-05 5.87093E-19-2.43904E-18
 -1      3465 9.99719E-05-3.40558E-05-2.82314E-05-9.26721E-06 7.68122E-19-2.81992E-18
 -1      3466 9.82847E-05-3.22911E-05-2.82482E-05-9.28232E-06 8.95577E-19-2.38531E-18
 -1      3467 9.90368E-05-3.46309E-05-2.76715E-05-1.11858E-05 3.70995E-19-2.34588E-18
 -1      3468 9.70600E-05-3.08445E-05-2.83578E-05-8.73896E-06 5.86949E-19-1.88397E-18
 -1      3469 9.59538E-05-2.96132E-05-2.84158E-05-8.47073E-06 6.15346E-19-1.98175E-18
 -1      3470 9.58343E-05-3.08972E-05-2.78710E-05-1.00999E-05 1.09351E-18-1.81369E-18
 -1      3471 9.53104E-05-2.86891E-05-2.85344E-05-7.83439E-06 5.33880E-19-1.83632E-18
 -1      3472 9.46427E-05-2.79103E-05-2.85947E-05-7.43257E-06 5.00488E-19-1.76321E-18
 -1      3473 9.40317E-05-2.84289E-05-2.81370E-05-8.74360E-06 7.08175E-19-2.17251E-18
 -1      3474 9.43743E-05-2.73862E-05-2.86953E-05-6.80461E-06 1.01246E-18-1.60533E-18
 -1      3475 9.40079E-05-2.69483E-05-2.87410E-05-6.35380E-06 1.46887E-18-1.19911E-18
 -1      3476 9.31639E-05-2.69561E-05-2.83845E-05-7.39199E-06 1.02325E-18-1.39123E-18
 -1      3477 9.39667E-05-2.67073E-05-2.88149E-05-5.77541E-06 1.30302E-18-4.99485E-19
 -1      3478 9.37934E-05-2.65069E-05-2.88413E-05-5.32356E-06 7.68730E-19-6.93994E-19
 -1      3479 9.28807E-05-2.61992E-05-2.85804E-05-6.14933E-06 1.81315E-18-4.51421E-19
 -1      3480 9.38775E-05-2.64516E-05-2.88888E-05-4.80962E-06 6.92263E-19-3.68664E-19
 -1      3481 9.38198E-05-2.64052E-05-2.88974E-05-4.38314E-06 1.14587E-18-2.78678E-19
 -1      3482 9.29385E-05-2.59273E-05-2.87179E-05-5.04910E-06 1.03424E-18-5.57162E-19
 -1      3483 9.39641E-05-2.64632E-05-2.89227E-05-3.93618E-06 8.98914E-19 2.89496E-19
 -1      3484 9.39703E-05-2.65096E-05-2.89176E-05-3.54959E-06 8.57941E-19 4.11578E-19
 -1      3485 9.31742E-05-2.59602E-05-2.88030E-05-4.09380E-06 1.09672E-18-2.17363E-19
 -1      3486 9.41346E-05-2.66291E-05-2.89259E-05-3.16789E-06 6.19480E-19 6.89452E-19
 -1      3487 9.41720E-05-2.67252E-05-2.89113E-05-2.82822E-06 1.09963E-18 4.50961E-19
 -1      3488 9.34858E-05-2.61702E-05-2.88459E-05-3.27646E-06 9.73012E-19 7.38109E-19
 -1      3489 9.43326E-05-2.68714E-05-2.89078E-05-2.50763E-06 6.68657E-19 2.13964E-19
 -1      3490 9.43816E-05-2.69887E-05-2.88877E-05-2.21683E-06 1.66688E-19-1.26916E-19
 -1      3491 9.38115E-05-2.64682E-05-2.88577E-05-2.58685E-06 4.20904E-19 3.62067E-19
 -1      3492 9.45260E-05-2.71392E-05-2.88767E-05-1.95182E-06 7.20007E-20-2.54021E-19
 -1      3493 9.45757E-05-2.72596E-05-2.88541E-05-1.70846E-06-3.80480E-21-2.27386E-20
 -1      3494 9.41162E-05-2.67957E-05-2.88483E-05-2.01304E-06 1.73019E-19 6.70521E-19
 -1      3495 9.46988E-05-2.74015E-05-2.88389E-05-1.49292E-06 3.09805E-19 4.60581E-20
 -1      3496 9.47435E-05-2.75145E-05-2.88161E-05-1.29356E-06 2.47838E-19 9.25102E-19
 -1      3497 9.43831E-05-2.71162E-05-2.88258E-05-1.54239E-06 1.79558E-19 5.20676E-19
 -1      3498 9.48440E-05-2.76406E-05-2.87992E-05-1.12110E-06-8.48908E-19 2.98547E-19
 -1      3499 9.48814E-05-2.77407E-05-2.87776E-05-9.60890E-07-1.18611E-18 2.73686E-19
 -1      3500 9.46062E-05-2.74094E-05-2.87963E-05-1.16231E-06-5.74454E-19 9.01605E-19
 -1      3501 9.49609E-05-2.78484E-05-2.87606E-05-8.25030E-07-9.46179E-19 6.90603E-20
 -1      3502 9.49906E-05-2.79336E-05-2.87411E-05-6.98699E-07-3.26975E-20 3.09574E-19
 -1      3503 9.47857E-05-2.76648E-05-2.87643E-05-8.59840E-07-1.06103E-18 5.77556E-19
 -1      3504 9.50516E-05-2.80226E-05-2.87252E-05-5.93466E-07-2.89982E-19-4.06546E-22
 -1      3505 9.50742E-05-2.80928E-05-2.87082E-05-4.95687E-07-3.82466E-19-6.45472E-19
 -1      3506 9.49258E-05-2.78799E-05-2.87326E-05-6.22921E-07-5.16175E-19-2.53100E-19
 -1      3507 9.51196E-05-2.81643E-05-2.86939E-05-4.15563E-07 3.80806E-19-1.01464E-18
 -1      3508 9.51362E-05-2.82207E-05-2.86795E-05-3.41296E-07 4.60374E-19-4.10790E-20
 -1      3509 9.50320E-05-2.80557E-05-2.87031E-05-4.40359E-07 1.11676E-19-1.14404E-18
 -1      3510 9.51690E-05-2.82769E-05-2.86671E-05-2.81393E-07-3.55259E-19 1.39201E-20
 -1      3511 9.51807E-05-2.83210E-05-2.86552E-05-2.26088E-07-6.77457E-19-7.44523E-19
 -1      3512 9.51102E-05-2.81958E-05-2.86769E-05-3.02069E-07 3.30609E-19-1.54653E-18
 -1      3513 9.52036E-05-2.83641E-05-2.86448E-05-1.82183E-07-5.30479E-19-5.21971E-19
 -1      3514 9.52114E-05-2.83978E-05-2.86351E-05-1.41868E-07-5.13023E-19-1.77494E-19
 -1      3515 9.51660E-05-2.83050E-05-2.86542E-05-1.99218E-07-2.76713E-19-1.53193E-18
 -1      3516 9.52268E-05-2.84302E-05-2.86265E-05-1.10399E-07-1.14822E-18-3.06962E-19
 -1      3517 9.52316E-05-2.84555E-05-2.86189E-05-8.17112E-08-9.42644E-19-5.59056E-19
 -1      3518 9.52045E-05-2.83882E-05-2.86352E-05-1.24255E-07-1.02602E-18-1.03111E-18
 -1      3519 9.52414E-05-2.84792E-05-2.86120E-05-5.97374E-08 5.86847E-19-2.07095E-19
 -1      3520 9.52442E-05-2.84976E-05-2.86060E-05-3.98954E-08 1.53462E-18 1.20288E-18
 -1      3521 9.52298E-05-2.84502E-05-2.86196E-05-7.08594E-08-9.22445E-20-4.01977E-19
 -1      3522 9.52499E-05-2.85145E-05-2.86005E-05-2.50376E-08 9.32440E-19 1.87229E-18
 -1      3523 9.52511E-05-2.85277E-05-2.85960E-05-1.17943E-08 5.81482E-19 2.11000E-18
 -1      3524 9.52454E-05-2.84953E-05-2.86071E-05-3.38495E-08 1.52894E-18 4.93638E-19
 -1      3525 9.52540E-05-2.85394E-05-2.85917E-05-2.16437E-09 5.46189E-19 2.73580E-18
 -1      3526 9.52543E-05-2.85485E-05-2.85883E-05 6.25698E-09 1.83361E-18 2.36089E-18
 -1      3527 9.52541E-05-2.85273E-05-2.85971E-05-9.05896E-09 1.08066E-18 2.21871E-18
 -1      3528 9.52552E-05-2.85564E-05-2.85850E-05 1.21277E-08 1.67071E-18 2.82204E-18
 -1      3529 9.52548E-05-2.85625E-05-2.85825E-05 1.71016E-08 1.16099E-18 2.42702E-18
 -1      3530 9.52579E-05-2.85493E-05-2.85894E-05 6.79815E-09 1.75802E-18 2.70989E-18
 -1      3531 9.52545E-05-2.85675E-05-2.85800E-05 2.03322E-08 1.27704E-18 2.54720E-18
 -1      3532 9.52538E-05-2.85714E-05-2.85782E-05 2.28975E-08 1.32294E-18 1.98428E-18
 -1      3533 9.52586E-05-2.85638E-05-2.85835E-05 1.62617E-08 1.18982E-18 2.49365E-18
 -1      3534 9.52527E-05-2.85745E-05-2.85763E-05 2.43205E-08 4.11138E-19 1.07073E-18
 -1      3535 9.52519E-05-2.85769E-05-2.85750E-05 2.52366E-08 4.86639E-19 3.14644E-19
 -1      3536 9.52573E-05-2.85731E-05-2.85790E-05 2.12562E-08 1.20909E-19 1.04152E-18
 -1      3537 9.52504E-05-2.85787E-05-2.85735E-05 2.54543E-08 1.71602E-18-4.55389E-19
 -1      3538 9.52495E-05-2.85802E-05-2.85725E-05 2.52440E-08 1.72359E-18 1.08066E-19
 -1      3539 9.52550E-05-2.85787E-05-2.85756E-05 2.31954E-08 4.80877E-19 4.15310E-19
 -1      3540 9.09816E-05-2.63443E-05-2.77058E-05 1.36705E-05-1.91841E-18-1.12422E-18
 -1      3541 9.20811E-05-2.79775E-05-2.74196E-05 1.47303E-05-2.04213E-18-1.13573E-18
 -1      3542 9.52527E-05-2.85849E-05-2.85720E-05 1.96460E-08 1.67124E-18-5.80464E-19
 -1      3543 9.52551E-05-2.85861E-05-2.85724E-05 1.68057E-08 1.73317E-18-2.24462E-18
 -1      3544 9.12872E-05-2.43035E-05-2.87261E-05 9.44473E-06-7.65867E-19-2.85045E-19
 -1      3545 9.13221E-05-2.45446E-05-2.85974E-05 1.02953E-05-7.56328E-19-8.23080E-19
 -1      3546 9.19772E-05-2.44267E-05-2.89675E-05 7.81541E-06-8.58121E-19-4.79006E-19
 -1      3547 9.18633E-05-2.43893E-05-2.89045E-05 8.57760E-06-9.72787E-19-2.22620E-19
 -1      3548 8.95414E-05-2.32267E-05-2.84062E-05 8.61728E-06-9.78918E-19-5.00734E-19
 -1      3549 9.26763E-05-2.48445E-05-2.90858E-05 6.41550E-06 3.36249E-19-4.36355E-19
 -1      3550 9.25219E-05-2.46728E-05-2.90696E-05 7.09267E-06-3.12290E-19-4.51838E-19
 -1      3551 9.06712E-05-2.36288E-05-2.87181E-05 7.09350E-06-3.96582E-19-1.14693E-18
 -1      3552 9.32932E-05-2.53742E-05-2.91209E-05 5.20842E-06-6.03803E-19 7.62260E-19
 -1      3553 9.31474E-05-2.51510E-05-2.91347E-05 5.80196E-06 1.17065E-19 2.70096E-19
 -1      3554 9.16835E-05-2.42378E-05-2.88929E-05 5.81506E-06-1.47144E-19-1.24536E-18
 -1      3555 9.37993E-05-2.59147E-05-2.91040E-05 4.17436E-06-1.60744E-19 1.77985E-19
 -1      3556 9.36799E-05-2.56855E-05-2.91348E-05 4.68589E-06-2.51387E-19 7.06977E-19
 -1      3557 9.25339E-05-2.49051E-05-2.89738E-05 4.72427E-06-1.01356E-19-5.41609E-19
 -1      3558 9.41961E-05-2.64151E-05-2.90577E-05 3.29895E-06 1.97950E-19 1.51316E-19
 -1      3559 9.41059E-05-2.62024E-05-2.90964E-05 3.73204E-06 5.68006E-20-1.74354E-19
 -1      3560 9.32195E-05-2.55496E-05-2.89938E-05 3.79258E-06 3.99570E-19-9.07178E-19
 -1      3561 9.44980E-05-2.68537E-05-2.89973E-05 2.56860E-06 4.80403E-19-1.32286E-20
 -1      3562 9.44333E-05-2.66671E-05-2.90381E-05 2.92877E-06 6.60845E-19 6.43253E-19
 -1      3563 9.37567E-05-2.61313E-05-2.89767E-05 3.00294E-06 1.37786E-19-3.25541E-19
 -1      3564 9.47225E-05-2.72250E-05-2.89330E-05 1.96883E-06 1.00056E-18-8.61045E-19
 -1      3565 9.46780E-05-2.70669E-05-2.89721E-05 2.26322E-06 8.68844E-19-9.11880E-20
 -1      3566 9.41689E-05-2.66346E-05-2.89392E-05 2.34238E-06 1.17709E-18 6.12806E-19
 -1      3567 9.48867E-05-2.75315E-05-2.88708E-05 1.48407E-06-2.61563E-19-7.52902E-19
 -1      3568 9.48571E-05-2.74008E-05-2.89062E-05 1.72075E-06 5.71545E-19-1.18507E-18
 -1      3569 9.44799E-05-2.70577E-05-2.88924E-05 1.79824E-06 9.16686E-19-3.31746E-19
 -1      3570 9.50048E-05-2.77799E-05-2.88140E-05 1.09844E-06 1.04098E-19-4.67577E-19
 -1      3571 9.49858E-05-2.76739E-05-2.88449E-05 1.28567E-06-5.24597E-19-1.27729E-18
 -1      3572 9.47112E-05-2.74057E-05-2.88433E-05 1.35707E-06 3.04302E-20-1.01713E-18
 -1      3573 9.50887E-05-2.79780E-05-2.87643E-05 7.96617E-07 2.33484E-19 3.55521E-20
 -1      3574 9.50769E-05-2.78934E-05-2.87904E-05 9.42336E-07 7.24056E-19-9.80854E-20
 -1      3575 9.48809E-05-2.76869E-05-2.87962E-05 1.00520E-06 3.04340E-19-1.34091E-18
 -1      3576 9.51472E-05-2.81337E-05-2.87220E-05 5.64205E-07 6.35164E-19-5.05379E-19
 -1      3577 9.51402E-05-2.80671E-05-2.87435E-05 6.75799E-07 4.70794E-19-2.46085E-19
 -1      3578 9.50037E-05-2.79107E-05-2.87533E-05 7.29244E-07 1.04516E-18-4.24219E-19
 -1      3579 9.51872E-05-2.82544E-05-2.86869E-05 3.88227E-07 1.14880E-18-1.63675E-19
 -1      3580 9.51834E-05-2.82027E-05-2.87043E-05 4.72257E-07 8.16980E-19-6.89590E-19
 -1      3581 9.50910E-05-2.80862E-05-2.87159E-05 5.16413E-07 9.64894E-19-1.01526E-18
 -1      3582 9.52139E-05-2.83467E-05-2.86584E-05 2.57349E-07 3.85167E-19 5.44546E-19
 -1      3583 9.52121E-05-2.83071E-05-2.86723E-05 3.19488E-07 9.17608E-19 2.59762E-19
 -1      3584 9.51520E-05-2.82218E-05-2.86841E-05 3.55082E-07 4.34480E-19 6.60825E-19
 -1      3585 9.52310E-05-2.84161E-05-2.86357E-05 1.61908E-07 6.06247E-19 2.12054E-19
 -1      3586 9.52305E-05-2.83862E-05-2.86465E-05 2.06949E-07 1.08271E-18 6.80003E-19
 -1      3587 9.51935E-05-2.83251E-05-2.86578E-05 2.35018E-07 7.01293E-19 9.16700E-19
 -1      3588 9.52415E-05-2.84675E-05-2.86180E-05 9.38460E-08 3.44303E-19-1.61036E-19
 -1      3589 9.52417E-05-2.84453E-05-2.86262E-05 1.25751E-07-2.10635E-19-8.52814E-21
 -1      3590 9.52209E-05-2.84025E-05-2.86364E-05 1.47443E-07 8.58903E-19 1.16786E-18
 -1      3591 9.52474E-05-2.85048E-05-2.86043E-05 4.65711E-08 2.85827E-20 1.49028E-18
 -1      3592 9.52479E-05-2.84887E-05-2.86105E-05 6.85574E-08 6.87294E-19 1.91784E-19
 -1      3593 9.52381E-05-2.84596E-05-2.86194E-05 8.49986E-08 2.60590E-19 1.20483E-18
 -1      3594 9.52501E-05-2.85313E-05-2.85940E-05 1.47952E-08 9.21217E-19 7.18166E-19
 -1      3595 9.52508E-05-2.85198E-05-2.85986E-05 2.94270E-08 4.56742E-19 1.39113E-18
 -1      3596 9.52482E-05-2.85009E-05-2.86061E-05 4.16509E-08 4.28673E-19 1.99005E-18
 -1      3597 9.52508E-05-2.85497E-05-2.85863E-05-5.64730E-09-8.40518E-19 1.25456E-18
 -1      3598 9.52516E-05-2.85417E-05-2.85896E-05 3.63690E-09 3.82194E-19 1.31651E-18
 -1      3599 9.52534E-05-2.85300E-05-2.85958E-05 1.25470E-08 1.44853E-19 3.30013E-18
 -1      3600 9.52502E-05-2.85621E-05-2.85807E-05-1.79763E-08-1.45597E-18 1.33635E-18
 -1      3601 9.52510E-05-2.85567E-05-2.85831E-05-1.24985E-08-8.95162E-19 1.10090E-18
 -1      3602 9.52552E-05-2.85500E-05-2.85880E-05-6.13999E-09-3.40821E-19 2.33638E-18
 -1      3603 9.52489E-05-2.85701E-05-2.85766E-05-2.46260E-08-1.74675E-18-1.32441E-19
 -1      3604 9.52496E-05-2.85666E-05-2.85783E-05-2.17972E-08-2.32492E-18 1.19632E-19
 -1      3605 9.52550E-05-2.85633E-05-2.85822E-05-1.73699E-08-1.20011E-18 9.91340E-19
 -1      3606 9.52472E-05-2.85751E-05-2.85738E-05-2.74114E-08-1.37808E-18-7.60353E-19
 -1      3607 9.52478E-05-2.85728E-05-2.85749E-05-2.63802E-08-1.02758E-18-3.93236E-19
 -1      3608 9.52534E-05-2.85718E-05-2.85779E-05-2.33655E-08-1.19641E-18 4.65397E-19
 -1      3609 9.52455E-05-2.85782E-05-2.85717E-05-2.75784E-08-3.45627E-18-4.60212E-19
 -1      3610 9.52460E-05-2.85768E-05-2.85725E-05-2.77611E-08-2.48667E-18-1.06326E-18
 -1      3611 9.52513E-05-2.85771E-05-2.85747E-05-2.58773E-08-1.93708E-18 3.83162E-19
 -1      3612 9.52440E-05-2.85802E-05-2.85702E-05-2.60172E-08-3.19037E-19-2.57235E-18
 -1      3613 9.52443E-05-2.85791E-05-2.85708E-05-2.69672E-08-1.67015E-18-2.12476E-18
 -1      3614 9.52490E-05-2.85804E-05-2.85723E-05-2.59956E-08-1.23020E-18-2.28353E-18
 -1      3615 6.47534E-05-2.03995E-05-1.91879E-05 1.90947E-05-2.19164E-18 7.61721E-19
 -1      3616 5.65801E-05-1.51272E-05-1.74784E-05 1.15936E-05-1.56564E-18 3.59534E-18
 -1      3617 6.02954E-05-1.50266E-05-1.91347E-05 7.62214E-06-9.34840E-19 3.44817E-18
 -1      3618 9.52457E-05-2.85841E-05-2.85693E-05-2.16424E-08 4.84888E-19-4.53912E-18
 -1      3619 9.52433E-05-2.85824E-05-2.85690E-05-2.25767E-08 1.09063E-19-4.78076E-18
 -1      3620 9.52432E-05-2.85817E-05-2.85692E-05-2.38056E-08-2.88421E-20-4.18214E-18
 -1      3621 9.52480E-05-2.85842E-05-2.85702E-05-2.18559E-08 1.11120E-18-2.50401E-18
 -1      3622 1.16579E-04-5.08305E-05-2.84220E-05 1.53940E-05 2.13823E-18-3.48243E-19
 -1      3623 1.07147E-04-4.70020E-05-2.55120E-05 2.38511E-05 3.30197E-18-1.60583E-18
 -1      3624 1.19989E-04-1.90334E-05-4.37631E-05-1.06322E-05-6.28885E-18-4.67430E-19
 -1      3625 9.75628E-05-3.84886E-05-2.49933E-05-2.30760E-05-2.72079E-18-2.84579E-18
 -1      3626 6.18673E-05-2.01308E-05-1.78167E-05 2.50347E-05 3.63711E-18-6.35254E-18
 -1      3627 5.19595E-05-1.35156E-05-1.59028E-05 1.78383E-05 2.71514E-18-7.46596E-18
 -1      3628 7.23425E-05-2.47792E-05-2.00729E-05-2.46279E-05-2.29754E-18-6.43666E-18
 -1      3629 8.43878E-05-3.30742E-05-2.20127E-05-2.73238E-05-2.95853E-18-4.78444E-18
 -1      3630 9.08210E-05-2.47884E-05-2.83170E-05 1.13660E-05-1.28374E-18-1.21476E-18
 -1      3631 9.12128E-05-2.55419E-05-2.81092E-05 1.23102E-05-1.45905E-18-1.46352E-18
 -1      3632 8.84267E-05-2.32929E-05-2.79044E-05 1.04992E-05-1.39057E-18-1.65624E-18
 -1      3633 9.50449E-05-2.37574E-05-3.05401E-05 4.24970E-06-7.96130E-19-4.18740E-18
 -1      3634 9.26463E-05-3.35275E-05-2.52809E-05-2.13408E-05-1.78312E-18-3.27629E-18
 -1      3635 7.85044E-05-1.10563E-05-2.89630E-05 5.89715E-06 1.24460E-18-5.90248E-18
 -1      3636 8.08259E-05-1.25653E-05-2.92173E-05 6.09109E-06 7.95545E-19-5.87161E-18
 -1      3637 8.27842E-05-1.54395E-05-2.88775E-05 7.53228E-06 7.51571E-19-5.49048E-18
 -1      3638 9.69873E-05-2.68440E-05-3.00548E-05 5.85138E-06-3.28164E-19-3.66980E-18
 -1      3639 1.24102E-04-4.45535E-05-3.41598E-05 7.83619E-06-8.06706E-19-6.12210E-18
 -1      3640 1.16741E-04-5.24489E-05-2.72358E-05-1.73297E-05 3.69926E-18-3.52412E-18
 -1      3641 1.12786E-04-4.94861E-05-2.70455E-05-1.61741E-05 3.27886E-18-2.88822E-18
 -1      3642 1.19003E-04-5.10574E-05-2.94151E-05-8.06721E-06 2.29975E-18-3.75768E-18
 -1      3643 5.42996E-05-1.24911E-05-1.76111E-05-1.16671E-05-1.40528E-19-7.85597E-18
 -1      3644 6.15950E-05-1.76620E-05-1.87157E-05-1.96924E-05-1.18516E-18-7.39777E-18
 -1      3645 1.22567E-04-4.70291E-05-3.25582E-05 3.78286E-06-1.13985E-19-5.36775E-18
 -1      3646 9.23154E-05-2.26638E-05-2.98290E-05-9.35216E-06 1.71848E-18-3.02359E-18
 -1      3647 8.94407E-05-2.04409E-05-2.95249E-05-8.90943E-06 2.04580E-18-3.47084E-18
 -1      3648 9.31274E-05-2.47116E-05-2.93377E-05-1.12594E-05 1.23631E-18-3.12186E-18
 -1      3649 9.43296E-05-3.43406E-05-2.56101E-05 1.97636E-05-2.40619E-18-1.18944E-18
 -1      3650 9.84650E-05-3.87545E-05-2.54238E-05 2.03523E-05-2.56434E-18-1.35025E-18
 -1      3651 1.04704E-04-4.45773E-05-2.54511E-05 2.14675E-05-2.84906E-18-2.27250E-18
 -1      3652 9.21795E-05-2.32983E-05-2.94923E-05 7.70413E-06 1.12953E-19-4.59244E-18
 -1      3653 9.73866E-05-2.85135E-05-2.95279E-05 7.64644E-06-3.87584E-20-3.57526E-18
 -1      3654 9.61090E-05-2.85774E-05-2.89440E-05 9.71024E-06 5.31623E-19-3.85724E-18
 -1      3655 8.89213E-05-2.11294E-05-2.90703E-05 8.47458E-06 4.87113E-19-4.92882E-18
 -1      3656 1.21018E-04-4.61490E-05-3.21907E-05-2.10098E-06-2.61285E-19 5.71271E-19
 -1      3657 1.24133E-04-4.73210E-05-3.30968E-05-2.47071E-06-1.65793E-19 9.76033E-19
 -1      3658 1.23198E-04-5.14582E-05-3.04545E-05 6.95320E-06 1.37905E-18 2.48326E-19
 -1      3659 1.19427E-04-4.64212E-05-3.11195E-05 8.00271E-07 2.12473E-19 2.76695E-19
 -1      3660 8.51490E-05-1.78212E-05-2.89224E-05-8.35154E-06 1.89341E-18-3.92058E-18
 -1      3661 9.52553E-05-2.85863E-05-2.85724E-05-1.66968E-08 1.71745E-18-1.24251E-18
 -1      3662 9.52529E-05-2.85851E-05-2.85720E-05-1.95462E-08 1.88151E-18-1.83654E-18
 -1      3663 5.86735E-05-1.43419E-05-1.87982E-05-6.33607E-06 5.94187E-19 4.84548E-18
 -1      3664 5.65712E-05-1.47524E-05-1.75376E-05-1.18613E-05 1.04824E-18 4.99495E-18
 -1      3665 6.27362E-05-1.87855E-05-1.88187E-05-1.73281E-05 1.53476E-18 4.03127E-18
 -1      3666 7.37173E-05-9.95719E-06-2.73238E-05-1.83576E-06 2.07093E-18-5.53626E-18
 -1      3667 7.25429E-05-9.30866E-06-2.71329E-05 3.13493E-07 1.94254E-18-5.72545E-18
 -1      3668 9.52570E-05-2.85870E-05-2.85729E-05 1.33102E-08 1.16551E-18-1.95096E-18
 -1      3669 9.52584E-05-2.85877E-05-2.85732E-05 9.88486E-09 1.39927E-18-6.72884E-19
 -1      3670 9.52577E-05-2.85854E-05-2.85738E-05 1.55703E-08 1.46488E-18-1.26183E-18
 -1      3671 1.17652E-04-4.77522E-05-3.01170E-05 6.30074E-06 8.37176E-19-5.59459E-19
 -1      3672 7.52580E-05-2.41859E-05-2.16465E-05 1.92495E-05-1.91735E-18 4.45248E-19
 -1      3673 1.16529E-04-4.87227E-05-2.91010E-05 1.11507E-05 1.62882E-18-6.84796E-19
 -1      3674 9.52520E-05-2.85831E-05-2.85723E-05-2.21789E-08 1.58629E-18-1.40532E-18
 -1      3675 9.52493E-05-2.85834E-05-2.85711E-05-2.28427E-08 1.33962E-18-2.21702E-18
 -1      3676 8.76101E-05-2.42438E-05-2.71611E-05 1.29091E-05-1.51458E-18-1.64707E-18
 -1      3677 9.52477E-05-2.85808E-05-2.85715E-05 2.52591E-08 1.80518E-18-1.35775E-19
 -1      3678 9.52467E-05-2.85815E-05-2.85708E-05 2.45626E-08 1.77157E-18 5.76054E-19
 -1      3679 9.52485E-05-2.85826E-05-2.85711E-05 2.34500E-08 1.32893E-18 7.66593E-19
 -1      3680 9.52518E-05-2.85815E-05-2.85730E-05 2.36222E-08 2.10373E-18 7.23525E-19
 -1      3681 9.26855E-05-2.98874E-05-2.68845E-05 1.63985E-05-1.88303E-18-8.37161E-19
 -1      3682 9.50475E-05-3.27355E-05-2.65935E-05 1.73482E-05-1.98089E-18-1.20322E-18
 -1      3683 9.52429E-05-2.85808E-05-2.85695E-05-2.48254E-08 1.56954E-19-3.25355E-18
 -1      3684 5.34070E-05-1.22438E-05-1.72930E-05 1.16091E-05 2.08235E-18-7.37443E-18
 -1      3685 9.52466E-05-2.85822E-05-2.85705E-05-2.42937E-08 1.08481E-18-4.31286E-18
 -1      3686 5.27626E-05-1.03752E-05-1.81322E-05-1.90471E-06 8.55847E-19-7.77200E-18
 -1      3687 5.30423E-05-1.11822E-05-1.77274E-05-7.82474E-06 3.28887E-19-7.86147E-18
 -1      3688 5.88082E-05-1.23804E-05-1.99004E-05-9.77346E-06 2.18930E-19-7.28520E-18
 -1      3689 9.52599E-05-2.85884E-05-2.85735E-05-1.87045E-09 1.81734E-18 4.48882E-19
 -1      3690 9.52595E-05-2.85882E-05-2.85734E-05-5.65945E-09 1.77843E-18 5.04505E-19
 -1      3691 7.14443E-05-9.99461E-06-2.62523E-05 1.92558E-06 1.84007E-18-5.60317E-18
 -1      3692 7.25426E-05-9.46186E-06-2.70801E-05 3.33238E-06 2.04476E-18-5.67077E-18
 -1      3693 7.34861E-05-1.00759E-05-2.71385E-05 5.24165E-06 1.76320E-18-5.62910E-18
 -1      3694 7.05991E-05-2.09496E-05-2.09896E-05-1.97679E-05-1.39637E-18-6.38538E-18
 -1      3695 1.04788E-04-4.30973E-05-2.63203E-05 2.01600E-05 2.72335E-18-2.16319E-18
 -1      3696 1.00184E-04-4.27474E-05-2.45676E-05 2.60871E-05 3.37429E-18-2.40631E-18
 -1      3697 9.23234E-05-3.69026E-05-2.36819E-05 2.61071E-05 3.45267E-18-3.33939E-18
 -1      3698 7.75140E-05-1.15441E-05-2.82509E-05 6.53744E-06 1.38849E-18-5.65761E-18
 -1      3699 7.04779E-05-2.42054E-05-1.94222E-05 2.71770E-05 3.77934E-18-5.92825E-18
 -1      3700 6.60947E-05-1.93487E-05-1.99572E-05 2.19786E-05 3.01022E-18-5.96856E-18
 -1      3701 7.91562E-05-2.88447E-05-2.14587E-05 2.68709E-05 3.80056E-18-4.91324E-18
 -1      3702 9.25298E-05-3.08847E-05-2.63468E-05-1.84089E-05-1.22536E-18-3.25399E-18
 -1      3703 9.05439E-05-2.77398E-05-2.69147E-05-1.67112E-05-5.01194E-19-3.29929E-18
 -1      3704 8.11786E-05-2.55864E-05-2.37292E-05-2.11517E-05-1.44753E-18-4.72974E-18
 -1      3705 8.77183E-05-2.68877E-05-2.61407E-05 1.62321E-05-1.76294E-18-9.92866E-19
 -1      3706 7.78637E-05-3.09091E-05-1.98298E-05-2.82736E-05 3.63695E-18 1.75463E-18
 -1      3707 8.62521E-05-3.46703E-05-2.19690E-05-2.59957E-05 3.62132E-18 6.59468E-19
 -1      3708 7.27187E-05-2.57836E-05-2.00671E-05-2.38800E-05 2.84724E-18 2.06602E-18
 -1      3709 1.20293E-04-4.88250E-05-3.05792E-05-2.09574E-06 1.13651E-18-4.48592E-18
 -1      3710 9.52502E-05-2.85837E-05-2.85713E-05 2.20787E-08 1.38901E-18-2.17456E-19
 -1      3711 1.05502E-04-4.68117E-05-2.52183E-05-2.21926E-05 3.19472E-18-2.69375E-18
 -1      3712 1.10685E-04-4.61981E-05-2.75138E-05-1.33336E-05 2.46356E-18-2.79067E-18
 -1      3713 1.06116E-04-4.29073E-05-2.69398E-05-1.47256E-05 1.75744E-18-2.59277E-18
 -1      3714 9.81701E-05-4.16789E-05-2.41982E-05-2.33177E-05 3.06140E-18-1.68673E-18
 -1      3715 9.52529E-05-2.85834E-05-2.85726E-05 2.14181E-08 2.00613E-18-6.87398E-19
 -1      3716 8.71797E-05-2.99080E-05-2.45132E-05 2.01618E-05-2.26548E-18-6.15806E-19
 -1      3717 9.52594E-05-2.85881E-05-2.85734E-05 5.96515E-09 1.27710E-18-2.61468E-19
 -1      3718 9.52599E-05-2.85884E-05-2.85735E-05 2.21602E-09 1.09959E-18-4.61152E-19
 -1      3719 9.52619E-05-2.85871E-05-2.85749E-05 1.92080E-10 1.71153E-18-5.60574E-19
 -1      3720 9.52608E-05-2.85866E-05-2.85746E-05 8.17033E-09 9.80169E-19-8.96321E-19
 -1      3721 9.52572E-05-2.85872E-05-2.85729E-05-1.30958E-08 9.29000E-19 1.92957E-20
 -1      3722 9.52580E-05-2.85857E-05-2.85739E-05-1.53730E-08 2.11406E-18-1.09841E-18
 -1      3723 9.52586E-05-2.85878E-05-2.85732E-05-9.61513E-09 1.39173E-18 4.61735E-19
 -1      3724 8.95146E-05-2.29885E-05-2.85317E-05 6.00216E-06 2.06184E-19-1.94933E-18
 -1      3725 8.89595E-05-2.26792E-05-2.84025E-05 6.63977E-06-1.95333E-19-1.36476E-18
 -1      3726 7.60701E-05-1.16447E-05-2.76901E-05-4.52447E-06 1.82832E-18-5.15935E-18
 -1      3727 7.39867E-05-1.15780E-05-2.66852E-05-4.22035E-06 1.59584E-18-5.40813E-18
 -1      3728 7.91083E-05-1.33893E-05-2.80907E-05-6.10668E-06 2.00690E-18-4.64687E-18
 -1      3729 9.52576E-05-2.85833E-05-2.85747E-05-1.90113E-08 1.26641E-18-4.71453E-19
 -1      3730 9.52539E-05-2.85819E-05-2.85737E-05-2.24334E-08 4.86698E-19-8.50813E-19
 -1      3731 9.52551E-05-2.85803E-05-2.85749E-05-2.26508E-08-9.22027E-19-1.50539E-20
 -1      3732 8.43364E-05-2.20143E-05-2.67563E-05 1.10808E-05-1.11964E-18-1.45176E-18
 -1      3733 8.41310E-05-2.26409E-05-2.62977E-05 1.23373E-05-1.26787E-18-1.26818E-18
 -1      3734 1.02374E-04-3.94257E-05-2.69068E-05-1.40952E-05 9.09465E-19-2.03575E-18
 -1      3735 9.91816E-05-3.64345E-05-2.68221E-05-1.40909E-05 4.59378E-19-1.96373E-18
 -1      3736 9.97507E-05-3.95957E-05-2.58793E-05-1.80382E-05 1.46550E-18-1.83225E-18
 -1      3737 9.71016E-05-3.39125E-05-2.70221E-05-1.28505E-05 3.51637E-19-1.50017E-18
 -1      3738 9.50272E-05-3.17074E-05-2.71162E-05-1.22894E-05 7.39231E-19-1.57474E-18
 -1      3739 9.43510E-05-3.33771E-05-2.61990E-05-1.53684E-05 8.42354E-19-9.13919E-19
 -1      3740 9.40073E-05-3.00454E-05-2.73699E-05-1.10281E-05 1.01161E-18-1.44197E-18
 -1      3741 9.27979E-05-2.85868E-05-2.75200E-05-1.02971E-05 9.50611E-19-1.43075E-18
 -1      3742 9.15702E-05-2.92522E-05-2.67413E-05-1.25021E-05 8.85247E-19-4.82897E-19
 -1      3743 9.24201E-05-2.75874E-05-2.77567E-05-9.19900E-06 7.32433E-19-1.51090E-18
 -1      3744 9.17986E-05-2.67076E-05-2.79053E-05-8.47102E-06 7.54770E-19-1.29238E-18
 -1      3745 9.03785E-05-2.67454E-05-2.72843E-05-9.97897E-06 6.74912E-19-9.66367E-19
 -1      3746 9.17873E-05-2.61765E-05-2.81005E-05-7.56478E-06 1.40872E-18-7.82352E-19
 -1      3747 9.15379E-05-2.57101E-05-2.82238E-05-6.89967E-06 1.62006E-18-3.96656E-19
 -1      3748 9.01160E-05-2.53741E-05-2.77489E-05-7.91732E-06 1.60909E-18-4.39584E-20
 -1      3749 9.17304E-05-2.55022E-05-2.83719E-05-6.16191E-06 1.70765E-18-6.40962E-19
 -1      3750 9.17048E-05-2.53188E-05-2.84629E-05-5.57841E-06 1.84941E-18-7.26829E-19
 -1      3751 9.03716E-05-2.47646E-05-2.81135E-05-6.26429E-06 1.64081E-18-1.46698E-19
 -1      3752 9.19906E-05-2.53158E-05-2.85681E-05-4.98332E-06 1.35459E-18-8.97150E-19
 -1      3753 9.20865E-05-2.53112E-05-2.86287E-05-4.47927E-06 1.02324E-18-4.07486E-19
 -1      3754 9.08948E-05-2.46593E-05-2.83809E-05-4.95124E-06 1.34019E-18-4.21479E-19
 -1      3755 9.24042E-05-2.54323E-05-2.86982E-05-3.99641E-06 1.21008E-18-2.02534E-19
 -1      3756 9.25575E-05-2.55345E-05-2.87335E-05-3.56594E-06 1.35692E-18-2.28947E-19
 -1      3757 9.15232E-05-2.48549E-05-2.85654E-05-3.90124E-06 1.23782E-18-1.10810E-19
 -1      3758 9.28693E-05-2.57217E-05-2.87752E-05-3.17459E-06 8.22668E-19-4.77085E-19
 -1      3759 9.30403E-05-2.58796E-05-2.87912E-05-2.81087E-06 8.21266E-19-3.25345E-19
 -1      3760 9.21664E-05-2.52224E-05-2.86836E-05-3.05793E-06 8.35823E-19-2.97730E-19
 -1      3761 9.33253E-05-2.60935E-05-2.88123E-05-2.49448E-06 6.28680E-19-5.65549E-19
 -1      3762 9.34912E-05-2.62728E-05-2.88146E-05-2.19077E-06 8.85406E-20-4.70383E-19
 -1      3763 9.27698E-05-2.56687E-05-2.87515E-05-2.37947E-06 5.68372E-19-8.50709E-19
 -1      3764 9.37387E-05-2.64873E-05-2.88213E-05-1.93645E-06 1.35267E-20-2.33520E-19
 -1      3765 9.38872E-05-2.66662E-05-2.88146E-05-1.68567E-06-1.73876E-19-8.69832E-20
 -1      3766 9.33052E-05-2.61322E-05-2.87831E-05-1.83491E-06 1.00873E-20-1.04462E-18
 -1      3767 9.40955E-05-2.68670E-05-2.88118E-05-1.48232E-06-3.43425E-19-6.14679E-19
 -1      3768 9.42220E-05-2.70333E-05-2.87997E-05-1.27851E-06-2.72434E-19-1.00507E-18
 -1      3769 9.37612E-05-2.65743E-05-2.87899E-05-1.39858E-06-7.30792E-19-1.35559E-18
 -1      3770 9.43909E-05-2.72111E-05-2.87911E-05-1.11822E-06-6.85882E-20-9.07452E-19
 -1      3771 9.44941E-05-2.73575E-05-2.87764E-05-9.54645E-07-8.76721E-19-1.06444E-18
 -1      3772 9.41378E-05-2.69750E-05-2.87804E-05-1.05281E-06-5.27097E-19-1.90579E-18
 -1      3773 9.46280E-05-2.75097E-05-2.87648E-05-8.29102E-07-1.03796E-18-1.75934E-19
 -1      3774 9.47096E-05-2.76343E-05-2.87493E-05-6.99817E-07-3.19416E-19-3.87026E-19
 -1      3775 9.44392E-05-2.73218E-05-2.87617E-05-7.80535E-07-1.79349E-19-1.44121E-18
 -1      3776 9.48130E-05-2.77606E-05-2.87366E-05-6.02955E-07-4.70660E-19 2.39451E-19
 -1      3777 9.48756E-05-2.78635E-05-2.87216E-05-5.02344E-07-4.44541E-19 2.43184E-19
 -1      3778 9.46751E-05-2.76138E-05-2.87383E-05-5.68527E-07-2.69097E-19 4.82024E-19
 -1      3779 9.49536E-05-2.79656E-05-2.87090E-05-4.28613E-07-6.14938E-19-1.27802E-19
 -1      3780 9.50003E-05-2.80484E-05-2.86953E-05-3.51577E-07-2.08662E-19-6.36697E-19
 -1      3781 9.48552E-05-2.78530E-05-2.87135E-05-4.05544E-07-7.87290E-19 1.30996E-18
 -1      3782 9.50576E-05-2.81292E-05-2.86835E-05-2.96320E-07 1.47788E-19-9.40565E-19
 -1      3783 9.50914E-05-2.81942E-05-2.86714E-05-2.38341E-07-5.27546E-20-7.76301E-19
 -1      3784 9.49893E-05-2.80442E-05-2.86895E-05-2.81972E-07-7.55674E-19 2.32339E-19
 -1      3785 9.51324E-05-2.82567E-05-2.86609E-05-1.97639E-07-1.03217E-19-1.44914E-18
 -1      3786 9.51561E-05-2.83068E-05-2.86506E-05-1.54811E-07-2.91467E-20-1.39149E-18
 -1      3787 9.50866E-05-2.81940E-05-2.86674E-05-1.89724E-07-4.01937E-19 4.58378E-19
 -1      3788 9.51845E-05-2.83541E-05-2.86415E-05-1.25414E-07-5.94337E-19-1.24684E-18
 -1      3789 9.52004E-05-2.83918E-05-2.86329E-05-9.44297E-08-1.29105E-18-7.85981E-19
 -1      3790 9.51552E-05-2.83087E-05-2.86478E-05-1.22049E-07-4.20557E-19-1.03064E-18
 -1      3791 9.52192E-05-2.84268E-05-2.86252E-05-7.36806E-08-7.66967E-19-2.31792E-19
 -1      3792 9.52294E-05-2.84545E-05-2.86182E-05-5.17975E-08 7.67750E-19-1.38852E-19
 -1      3793 9.52018E-05-2.83949E-05-2.86311E-05-7.33865E-08-4.34188E-19 6.18195E-19
 -1      3794 9.52412E-05-2.84799E-05-2.86119E-05-3.75574E-08 2.45981E-18-3.35365E-19
 -1      3795 9.52472E-05-2.84998E-05-2.86063E-05-2.25453E-08 1.40153E-18 7.11573E-19
 -1      3796 9.52321E-05-2.84580E-05-2.86172E-05-3.92130E-08 1.45343E-18 3.50062E-19
 -1      3797 9.52540E-05-2.85176E-05-2.86012E-05-1.31178E-08 7.77371E-19 1.29171E-18
 -1      3798 9.52570E-05-2.85315E-05-2.85968E-05-3.19684E-09 1.87494E-18 2.18847E-18
 -1      3799 9.52503E-05-2.85032E-05-2.86057E-05-1.59049E-08 1.91674E-18 6.56583E-19
 -1      3800 9.52603E-05-2.85436E-05-2.85928E-05 2.74109E-09 1.19440E-18 1.86121E-18
 -1      3801 9.52613E-05-2.85530E-05-2.85894E-05 8.96386E-09 1.48550E-18 1.09795E-18
 -1      3802 9.52601E-05-2.85347E-05-2.85965E-05-6.01322E-10 1.39261E-18 1.47577E-18
 -1      3803 9.52622E-05-2.85609E-05-2.85862E-05 1.24250E-08 1.33128E-18 2.07827E-19
 -1      3804 9.52619E-05-2.85670E-05-2.85836E-05 1.60182E-08 3.79426E-19-7.77024E-20
 -1      3805 9.52642E-05-2.85558E-05-2.85892E-05 8.91690E-09 5.93248E-19-1.64614E-19
 -1      3806 9.52613E-05-2.85720E-05-2.85811E-05 1.77635E-08-1.72351E-19-4.41276E-19
 -1      3807 9.52603E-05-2.85758E-05-2.85791E-05 1.95430E-08-8.36769E-20-1.28034E-18
 -1      3808 9.52644E-05-2.85695E-05-2.85835E-05 1.43406E-08-4.58545E-19-8.84768E-19
 -1      3809 9.52588E-05-2.85788E-05-2.85771E-05 2.01067E-08 1.87771E-20-1.35869E-19
 -1      3810 9.52574E-05-2.85811E-05-2.85756E-05 2.06754E-08 2.99960E-19-2.36156E-19
 -1      3811 9.52622E-05-2.85779E-05-2.85790E-05 1.69653E-08 8.64627E-19-5.52147E-19
 -1      3812 9.52548E-05-2.85827E-05-2.85737E-05 2.10884E-08 1.68682E-18-8.70001E-19
 -1      3813 1.12839E-04-4.63185E-05-2.83432E-05 1.33772E-05 1.83222E-18-1.39629E-18
 -1      3814 9.08100E-05-2.37791E-05-2.87437E-05 4.93297E-06-3.60476E-19-1.48536E-18
 -1      3815 9.03326E-05-2.34235E-05-2.86740E-05 5.47843E-06-1.69906E-19-1.61371E-18
 -1      3816 8.87993E-05-2.25076E-05-2.83891E-05 5.05420E-06-1.36499E-19-1.59221E-18
 -1      3817 1.09335E-04-4.30070E-05-2.83798E-05 1.25060E-05 1.47189E-18-2.01395E-18
 -1      3818 1.06871E-04-4.34083E-05-2.72891E-05 1.73131E-05 2.02335E-18-2.22778E-18
 -1      3819 1.01220E-04-3.91894E-05-2.65139E-05 1.88756E-05 2.27418E-18-2.67685E-18
 -1      3820 1.05162E-04-3.92746E-05-2.81270E-05 1.31480E-05 1.29426E-18-2.36489E-18
 -1      3821 8.79684E-05-2.22925E-05-2.81739E-05 7.28154E-06-1.07185E-18-1.32109E-18
 -1      3822 8.73739E-05-2.21131E-05-2.79600E-05 8.05089E-06-1.12213E-18-1.32351E-18
 -1      3823 8.70087E-05-2.16171E-05-2.79980E-05 6.10302E-06-5.05477E-19-1.75461E-18
 -1      3824 9.18655E-05-2.45657E-05-2.88558E-05 4.01928E-06 2.53721E-20-1.14630E-18
 -1      3825 9.14746E-05-2.42118E-05-2.88261E-05 4.48987E-06-3.58883E-19-1.21482E-18
 -1      3826 9.02642E-05-2.34232E-05-2.86294E-05 4.17642E-06-2.87115E-19-7.31645E-19
 -1      3827 9.27061E-05-2.52925E-05-2.89020E-05 3.23529E-06-9.89287E-21-5.47930E-19
 -1      3828 9.23964E-05-2.49661E-05-2.88977E-05 3.63987E-06 4.11391E-19-9.50801E-19
 -1      3829 9.14443E-05-2.42943E-05-2.87657E-05 3.42130E-06-1.61873E-19-8.53344E-19
 -1      3830 9.33641E-05-2.59347E-05-2.89067E-05 2.56715E-06-8.11029E-20 1.63236E-19
 -1      3831 9.31246E-05-2.56470E-05-2.89177E-05 2.91083E-06-3.73585E-19-2.75982E-19
 -1      3832 9.23812E-05-2.50825E-05-2.88324E-05 2.76698E-06-4.29726E-19 4.17503E-19
 -1      3833 9.38720E-05-2.64846E-05-2.88870E-05 2.00550E-06 1.14533E-18 2.38935E-19
 -1      3834 9.36900E-05-2.62390E-05-2.89060E-05 2.29286E-06 6.45611E-19 2.06659E-19
 -1      3835 9.31157E-05-2.57720E-05-2.88541E-05 2.20415E-06 2.95883E-19 1.58313E-19
 -1      3836 9.42586E-05-2.69443E-05-2.88543E-05 1.54096E-06 1.04458E-18-8.28449E-20
 -1      3837 9.41225E-05-2.67396E-05-2.88767E-05 1.77725E-06 1.54021E-18 4.86755E-19
 -1      3838 9.36847E-05-2.63595E-05-2.88481E-05 1.72736E-06 1.43837E-18-5.51749E-19
 -1      3839 9.45491E-05-2.73212E-05-2.88162E-05 1.16296E-06 4.12162E-19-1.04259E-18
 -1      3840 9.44487E-05-2.71536E-05-2.88391E-05 1.35408E-06 9.35153E-19-3.88455E-20
 -1      3841 9.41199E-05-2.68491E-05-2.88262E-05 1.33040E-06 1.54021E-18 1.04693E-18
 -1      3842 9.47650E-05-2.76254E-05-2.87774E-05 8.60815E-07 5.31445E-19-1.12201E-18
 -1      3843 9.46919E-05-2.74904E-05-2.87991E-05 1.01264E-06 2.99025E-19-8.93083E-19
 -1      3844 9.44489E-05-2.72501E-05-2.87965E-05 1.00556E-06 4.10276E-19 1.52091E-19
 -1      3845 9.49230E-05-2.78670E-05-2.87408E-05 6.23546E-07 6.15179E-19-3.09316E-19
 -1      3846 9.48706E-05-2.77600E-05-2.87604E-05 7.42140E-07 7.18565E-19-3.71276E-19
 -1      3847 9.46944E-05-2.75735E-05-2.87640E-05 7.45015E-07 1.23490E-19-2.27216E-22
 -1      3848 9.50368E-05-2.80561E-05-2.87079E-05 4.40422E-07 1.34615E-18-2.31687E-19
 -1      3849 9.49999E-05-2.79724E-05-2.87249E-05 5.31479E-07 1.45235E-18-4.71292E-20
 -1      3850 9.48750E-05-2.78301E-05-2.87320E-05 5.39809E-07 7.76985E-19 2.36960E-19
 -1      3851 9.51172E-05-2.82019E-05-2.86794E-05 3.01623E-07 1.10541E-19 1.34555E-19
 -1      3852 9.50918E-05-2.81375E-05-2.86937E-05 3.70295E-07 5.43883E-19-4.06334E-19
 -1      3853 9.50055E-05-2.80306E-05-2.87025E-05 3.81103E-07 1.14136E-18 6.30355E-19
 -1      3854 9.51727E-05-2.83127E-05-2.86553E-05 1.98419E-07 1.08933E-18 1.15767E-20
 -1      3855 9.51557E-05-2.82639E-05-2.86671E-05 2.49231E-07 5.42831E-19-4.67971E-20
 -1      3856 9.50981E-05-2.81851E-05-2.86763E-05 2.60662E-07 5.72755E-19 1.12718E-19
 -1      3857 9.52098E-05-2.83956E-05-2.86354E-05 1.23265E-07-3.07524E-19 9.03370E-19
 -1      3858 9.51989E-05-2.83591E-05-2.86450E-05 1.60082E-07 7.12367E-19 7.76152E-19
 -1      3859 9.51622E-05-2.83022E-05-2.86538E-05 1.71053E-07 4.69723E-19 6.97937E-19
 -1      3860 9.52336E-05-2.84563E-05-2.86194E-05 6.98114E-08 3.15531E-19 1.50064E-18
 -1      3861 9.52270E-05-2.84296E-05-2.86269E-05 9.58572E-08-1.01310E-19 1.10989E-18
 -1      3862 9.52052E-05-2.83895E-05-2.86350E-05 1.05796E-07-3.74641E-19 5.79371E-19
 -1      3863 9.52479E-05-2.85000E-05-2.86066E-05 3.28381E-08 4.97179E-19 1.36530E-18
 -1      3864 9.52443E-05-2.84809E-05-2.86125E-05 5.07427E-08 6.40291E-19 1.67930E-18
 -1      3865 9.52328E-05-2.84534E-05-2.86196E-05 5.94060E-08-1.73299E-19 9.61777E-19
 -1      3866 9.52555E-05-2.85306E-05-2.85966E-05 8.14194E-09-8.08453E-20 1.69114E-18
 -1      3867 9.52539E-05-2.85172E-05-2.86012E-05 2.00087E-08 2.39365E-19 1.08166E-18
 -1      3868 9.52493E-05-2.84991E-05-2.86072E-05 2.73538E-08 4.64353E-19 1.43623E-18
 -1      3869 9.52587E-05-2.85515E-05-2.85889E-05-7.59114E-09-7.19792E-19 1.86312E-18
 -1      3870 9.52584E-05-2.85424E-05-2.85924E-05-1.13341E-10-1.63296E-19 1.90631E-18
 -1      3871 9.52582E-05-2.85310E-05-2.85973E-05 5.98598E-09 4.68044E-19 1.45387E-18
 -1      3872 9.52589E-05-2.85652E-05-2.85831E-05-1.69206E-08-6.83026E-19 1.42258E-18
 -1      3873 9.52594E-05-2.85593E-05-2.85856E-05-1.25681E-08-6.52148E-19 1.82457E-18
 -1      3874 9.52618E-05-2.85526E-05-2.85897E-05-7.58261E-09-6.77374E-19 1.07689E-18
 -1      3875 9.52574E-05-2.85738E-05-2.85787E-05-2.17256E-08-1.66289E-18 2.35075E-18
 -1      3876 9.52583E-05-2.85701E-05-2.85806E-05-1.96241E-08-1.23996E-18 2.00672E-18
 -1      3877 9.52620E-05-2.85667E-05-2.85837E-05-1.55913E-08-1.00020E-18 3.38615E-18
 -1      3878 9.52558E-05-2.85786E-05-2.85759E-05-2.28238E-08-9.68905E-19 1.07600E-18
 -1      3879 9.52570E-05-2.85762E-05-2.85774E-05-2.21306E-08-6.07334E-19 1.68049E-18
 -1      3880 9.52613E-05-2.85749E-05-2.85799E-05-1.89568E-08-3.44907E-19 1.84465E-18
 -1      3881 9.52604E-05-2.85798E-05-2.85774E-05-1.93345E-08 3.99469E-19-5.10247E-19
 -1      3882 6.45809E-05-1.63165E-05-2.08302E-05 9.84440E-06-1.21849E-18 1.58946E-18
 -1      3883 6.12076E-05-1.41698E-05-2.00235E-05 2.66412E-06-3.69232E-19 3.83603E-18
 -1      3884 8.20779E-05-1.65186E-05-2.81619E-05 9.30306E-06 1.11864E-18-5.20256E-18
 -1      3885 8.54777E-05-1.86564E-05-2.85640E-05 9.18847E-06 7.24082E-19-5.14242E-18
 -1      3886 8.83910E-05-2.23254E-05-2.83594E-05 1.04449E-05 7.93101E-19-4.65154E-18
 -1      3887 8.61975E-05-2.18620E-05-2.76083E-05 8.89435E-06-1.38728E-18-1.41758E-18
 -1      3888 8.56651E-05-2.19594E-05-2.72793E-05 9.87053E-06-1.30293E-18-1.48474E-18
 -1      3889 8.48545E-05-2.08623E-05-2.73914E-05 7.43781E-06-1.14244E-18-1.93398E-18
 -1      3890 7.56499E-05-1.19727E-05-2.73853E-05 7.50254E-06 1.73019E-18-5.43348E-18
 -1      3891 7.83245E-05-1.36053E-05-2.76622E-05 8.51533E-06 1.35906E-18-5.40077E-18
 -1      3892 7.40689E-05-1.21054E-05-2.65251E-05 7.55738E-06 1.73329E-18-5.37552E-18
 -1      3893 8.31960E-05-2.54470E-05-2.47378E-05 1.70126E-05-1.91992E-18-5.86302E-19
 -1      3894 8.12807E-05-2.63110E-05-2.36413E-05 1.90766E-05-2.08483E-18-1.98259E-19
 -1      3895 7.19785E-05-1.98657E-05-2.21036E-05 1.52441E-05-1.59017E-18 6.16779E-19
 -1      3896 8.28866E-05-2.35943E-05-2.54261E-05 1.48534E-05-1.83578E-18-7.84233E-19
 -1      3897 9.52609E-05-2.85867E-05-2.85746E-05-7.82951E-09 1.68769E-18 6.02783E-19
 -1      3898 9.84312E-05-3.20024E-05-2.84452E-05 1.15512E-05 8.03895E-19-3.44836E-18
 -1      3899 1.01551E-04-3.55353E-05-2.82860E-05 1.22071E-05 9.99160E-19-3.04556E-18
 -1      3900 1.00004E-04-3.56939E-05-2.76309E-05 1.49487E-05 1.41188E-18-3.21770E-18
 -1      3901 9.24273E-05-2.71618E-05-2.79787E-05-1.45628E-05-2.96635E-20-3.04914E-18
 -1      3902 9.16390E-05-2.50608E-05-2.85272E-05-1.29253E-05 6.69407E-19-3.22123E-18
 -1      3903 8.83354E-05-2.25120E-05-2.80794E-05-1.26576E-05 7.74471E-19-3.74860E-18
 -1      3904 8.42547E-05-2.28667E-05-2.61236E-05-1.61607E-05-2.01059E-19-4.13035E-18
 -1      3905 8.26594E-05-1.76766E-05-2.79092E-05-9.41105E-06 1.35858E-18-4.13805E-18
 -1      3906 5.85881E-05-1.31042E-05-1.94873E-05 1.39346E-05 2.41238E-18-6.38380E-18
 -1      3907 5.40174E-05-1.02276E-05-1.84336E-05 6.11785E-06 1.66633E-18-7.28263E-18
 -1      3908 5.86551E-05-1.09405E-05-2.01622E-05 1.66062E-06 1.24094E-18-7.01915E-18
 -1      3909 7.10256E-05-1.86774E-05-2.24816E-05-1.67858E-05-7.13943E-19-5.65035E-18
 -1      3910 9.52581E-05-2.85829E-05-2.85751E-05 1.82698E-08 7.60577E-19-1.53367E-18
 -1      3911 6.69499E-05-1.89834E-05-2.04997E-05-1.53535E-05 1.56892E-18 3.14821E-18
 -1      3912 6.91824E-05-2.18000E-05-2.00483E-05-2.02333E-05 2.03325E-18 2.66623E-18
 -1      3913 7.62164E-05-2.56491E-05-2.16014E-05-2.08850E-05 2.53282E-18 1.07250E-18
 -1      3914 7.33835E-05-1.28004E-05-2.58110E-05-7.07318E-06 1.17168E-18-5.42039E-18
 -1      3915 7.01958E-05-1.11562E-05-2.54142E-05-4.16756E-06 1.22888E-18-5.89753E-18
 -1      3916 9.52601E-05-2.85842E-05-2.85754E-05-1.54012E-08 1.47120E-18-4.82525E-19
 -1      3917 6.13304E-05-1.40380E-05-2.01511E-05-2.08821E-06 5.53602E-19 4.50532E-18
 -1      3918 6.37589E-05-1.56550E-05-2.06429E-05-8.08298E-06 9.89626E-19 3.92444E-18
 -1      3919 6.58901E-05-1.51600E-05-2.17101E-05 2.58960E-07-4.90584E-20 2.90857E-18
 -1      3920 8.04592E-05-1.68511E-05-2.72908E-05 1.06561E-05 1.33426E-18-5.05506E-18
 -1      3921 8.23263E-05-2.04391E-05-2.64774E-05 9.32099E-06-1.41117E-18-1.26205E-18
 -1      3922 9.52640E-05-2.85855E-05-2.85765E-05 2.19493E-09 1.40458E-18-5.07561E-19
 -1      3923 9.52640E-05-2.85855E-05-2.85765E-05-1.74046E-09 1.61687E-18-6.78439E-19
 -1      3924 8.05809E-05-1.78035E-05-2.70365E-05-1.08427E-05 7.56322E-19-4.38979E-18
 -1      3925 7.16146E-05-1.84753E-05-2.27302E-05 1.10403E-05-9.62090E-19 9.83842E-19
 -1      3926 7.96025E-05-2.11047E-05-2.49976E-05 1.28637E-05-1.35239E-18-6.46309E-19
 -1      3927 6.87450E-05-1.00064E-05-2.51311E-05 6.92333E-07 1.55351E-18-5.79891E-18
 -1      3928 6.87516E-05-1.02841E-05-2.51023E-05 3.63310E-06 1.56193E-18-5.62501E-18
 -1      3929 6.72122E-05-1.08812E-05-2.41603E-05-2.24960E-06 1.02210E-18-6.04377E-18
 -1      3930 6.57127E-05-1.31723E-05-2.23129E-05-1.02143E-05 2.28044E-19-6.36735E-18
 -1      3931 7.46805E-05-1.71943E-05-2.46413E-05-1.25410E-05-4.76456E-22-5.14510E-18
 -1      3932 8.65915E-05-3.19181E-05-2.32728E-05 2.55410E-05 3.32904E-18-4.02952E-18
 -1      3933 8.05633E-05-2.64420E-05-2.31499E-05 2.29426E-05 2.86116E-18-4.63217E-18
 -1      3934 9.28206E-05-3.40869E-05-2.51016E-05 2.17544E-05 2.88640E-18-3.37706E-18
 -1      3935 9.52605E-05-2.85838E-05-2.85757E-05 1.48978E-08 4.04726E-19-4.04033E-19
 -1      3936 7.01550E-05-1.93780E-05-2.17545E-05 1.98438E-05 2.85098E-18-5.55849E-18
 -1      3937 6.39470E-05-1.55327E-05-2.04055E-05 1.73171E-05 2.54279E-18-6.00613E-18
 -1      3938 6.27593E-05-1.31408E-05-2.12885E-05 1.24293E-05 2.03341E-18-5.99683E-18
 -1      3939 9.52635E-05-2.85855E-05-2.85763E-05-5.90653E-09 1.43813E-18 6.54779E-19
 -1      3940 9.52625E-05-2.85851E-05-2.85761E-05-9.72504E-09 1.57771E-18 9.80376E-19
 -1      3941 9.52656E-05-2.85835E-05-2.85780E-05-3.74765E-09 5.68424E-19 1.51641E-19
 -1      3942 9.45012E-05-2.82152E-05-2.83683E-05 1.17293E-05 7.82084E-19-4.26577E-18
 -1      3943 9.13522E-05-3.69219E-05-2.32726E-05-2.43379E-05 3.32539E-18-8.97855E-20
 -1      3944 9.70398E-05-3.85172E-05-2.49783E-05-2.01839E-05 2.29138E-18-1.26588E-18
 -1      3945 9.34310E-05-3.48736E-05-2.50750E-05-1.87635E-05 1.75888E-18-5.24251E-19
 -1      3946 8.52542E-05-3.17517E-05-2.29529E-05-2.25439E-05 3.07970E-18 6.91768E-19
 -1      3947 6.28911E-05-1.15931E-05-2.18858E-05-4.48650E-06 6.04212E-19-6.62700E-18
 -1      3948 9.85672E-05-3.55024E-05-2.69580E-05 1.68242E-05 1.91537E-18-3.15413E-18
 -1      3949 9.57062E-05-3.50378E-05-2.59948E-05 1.98226E-05 2.32241E-18-3.26131E-18
 -1      3950 9.00555E-05-3.01550E-05-2.56376E-05 1.92120E-05 2.27455E-18-3.82060E-18
 -1      3951 9.52744E-05-3.14899E-05-2.72077E-05 1.55388E-05 1.49066E-18-3.65827E-18
 -1      3952 7.72283E-05-1.73599E-05-2.57305E-05-1.13321E-05 4.86826E-19-4.80553E-18
 -1      3953 9.52627E-05-2.85825E-05-2.85772E-05-1.34307E-08 1.42687E-18 7.30072E-19
 -1      3954 9.52634E-05-2.85854E-05-2.85763E-05 6.29513E-09 6.47026E-19-9.68506E-19
 -1      3955 9.52655E-05-2.85834E-05-2.85780E-05 4.27772E-09 1.59340E-18-1.47208E-18
 -1      3956 9.52623E-05-2.85850E-05-2.85760E-05 1.00943E-08 4.33890E-19-1.75436E-18
 -1      3957 9.19973E-05-3.22443E-05-2.55396E-05-1.65024E-05 6.92956E-19-3.67836E-19
 -1      3958 9.00502E-05-2.98278E-05-2.58282E-05-1.49281E-05 7.90958E-19-3.79578E-19
 -1      3959 8.87349E-05-3.12118E-05-2.46705E-05-1.84951E-05 1.55082E-18 1.63567E-19
 -1      3960 8.96429E-05-2.82353E-05-2.62707E-05-1.30154E-05 9.45614E-19-4.21567E-19
 -1      3961 8.87134E-05-2.67715E-05-2.65767E-05-1.16183E-05 9.03641E-19-5.64676E-19
 -1      3962 8.70717E-05-2.72180E-05-2.56596E-05-1.40339E-05 6.32250E-19 1.16728E-19
 -1      3963 8.88359E-05-2.58868E-05-2.69469E-05-1.01351E-05 9.98513E-19-5.34031E-19
 -1      3964 8.85169E-05-2.50803E-05-2.72156E-05-8.99935E-06 8.86305E-19-4.10484E-19
 -1      3965 8.68633E-05-2.49883E-05-2.65144E-05-1.05789E-05 1.02429E-18 1.00751E-19
 -1      3966 8.88882E-05-2.46593E-05-2.75068E-05-7.88274E-06 1.12761E-18 5.78598E-20
 -1      3967 8.89080E-05-2.42770E-05-2.77228E-05-6.98486E-06 2.19855E-18 6.46700E-20
 -1      3968 8.73766E-05-2.38963E-05-2.71986E-05-7.99803E-06 1.39399E-18 1.38913E-19
 -1      3969 8.93930E-05-2.41659E-05-2.79411E-05-6.12567E-06 1.86114E-18-1.13148E-18
 -1      3970 8.96088E-05-2.40792E-05-2.81026E-05-5.42090E-06 1.42188E-18-9.67669E-19
 -1      3971 8.82187E-05-2.35121E-05-2.77216E-05-6.07224E-06 1.32964E-18-8.91497E-19
 -1      3972 9.01139E-05-2.41581E-05-2.82594E-05-4.77838E-06 1.19875E-18-1.15172E-18
 -1      3973 9.04121E-05-2.42391E-05-2.83740E-05-4.22045E-06 1.37775E-18-1.36888E-18
 -1      3974 8.92048E-05-2.36115E-05-2.81038E-05-4.63617E-06 1.29426E-18-2.18807E-18
 -1      3975 9.09013E-05-2.44336E-05-2.84815E-05-3.72236E-06 1.56109E-18-1.09477E-18
 -1      3976 9.12259E-05-2.46168E-05-2.85577E-05-3.27825E-06 1.42195E-18-8.85621E-19
 -1      3977 9.01860E-05-2.39644E-05-2.83728E-05-3.54966E-06 1.60735E-18-2.10209E-18
 -1      3978 9.16733E-05-2.48699E-05-2.86274E-05-2.89199E-06 8.00851E-19-8.34092E-19
 -1      3979 9.19887E-05-2.51026E-05-2.86740E-05-2.53668E-06 3.87275E-19-1.31373E-18
 -1      3980 9.11106E-05-2.44704E-05-2.85531E-05-2.71785E-06 9.06870E-19-1.93587E-18
 -1      3981 9.23819E-05-2.53758E-05-2.87155E-05-2.23554E-06 3.87949E-19-1.34894E-18
 -1      3982 9.26684E-05-2.56236E-05-2.87402E-05-1.95042E-06 4.82313E-19-1.55178E-18
 -1      3983 9.19406E-05-2.50380E-05-2.86664E-05-2.07603E-06 2.59133E-19-2.43068E-18
 -1      3984 9.30037E-05-2.58922E-05-2.87615E-05-1.71628E-06 4.45423E-19-1.57358E-18
 -1      3985 9.32508E-05-2.61309E-05-2.87710E-05-1.48874E-06 1.55601E-19-1.51052E-18
 -1      3986 9.26594E-05-2.56092E-05-2.87306E-05-1.57820E-06 3.93225E-19-2.14289E-18
 -1      3987 9.35288E-05-2.63787E-05-2.87784E-05-1.30321E-06-6.09175E-19-1.17350E-18
 -1      3988 9.37374E-05-2.65996E-05-2.87775E-05-1.12163E-06-1.00011E-18-1.43447E-18
 -1      3989 9.32619E-05-2.61447E-05-2.87604E-05-1.19104E-06-2.70058E-19-2.27114E-18
 -1      3990 9.39622E-05-2.68191E-05-2.87758E-05-9.80436E-07-6.28024E-19-1.56711E-18
 -1      3991 9.41304E-05-2.70109E-05-2.87687E-05-8.36990E-07 1.84514E-19-1.36138E-18
 -1      3992 9.37593E-05-2.66290E-05-2.87667E-05-8.90399E-07-5.54743E-19-1.64043E-18
 -1      3993 9.43084E-05-2.71985E-05-2.87615E-05-7.26612E-07 6.68618E-19-7.07110E-19
 -1      3994 9.44416E-05-2.73618E-05-2.87509E-05-6.14195E-07 1.56730E-19 1.48899E-19
 -1      3995 9.41550E-05-2.70453E-05-2.87584E-05-6.58330E-07 8.85779E-19 4.78986E-19
 -1      3996 9.45795E-05-2.75179E-05-2.87408E-05-5.29981E-07-1.32379E-19 3.35418E-19
 -1      3997 9.46823E-05-2.76528E-05-2.87288E-05-4.42871E-07-3.09825E-19 9.50777E-19
 -1      3998 9.44658E-05-2.73969E-05-2.87416E-05-4.79411E-07-6.05522E-20 6.11071E-19
 -1      3999 9.47869E-05-2.77796E-05-2.87176E-05-3.79077E-07-8.50205E-19 1.45403E-18
 -1      4000 9.48643E-05-2.78883E-05-2.87054E-05-3.12438E-07-7.40542E-19 1.29648E-18
 -1      4001 9.47041E-05-2.76853E-05-2.87206E-05-3.42964E-07-4.46133E-19 7.31349E-19
 -1      4002 9.49418E-05-2.79891E-05-2.86942E-05-2.64745E-07-4.41151E-19 1.50784E-18
 -1      4003 9.49987E-05-2.80749E-05-2.86827E-05-2.14482E-07-1.43991E-19 2.04895E-18
 -1      4004 9.48829E-05-2.79169E-05-2.86984E-05-2.40001E-07-5.43331E-19 2.05581E-18
 -1      4005 9.50547E-05-2.81533E-05-2.86722E-05-1.79341E-07-7.10243E-19 2.23524E-18
 -1      4006 9.50953E-05-2.82196E-05-2.86618E-05-1.42025E-07-1.15925E-18 1.59358E-18
 -1      4007 9.50139E-05-2.80990E-05-2.86769E-05-1.63266E-07-6.40649E-19 2.79189E-18
 -1      4008 9.51347E-05-2.82793E-05-2.86524E-05-1.16572E-07-5.81236E-19 6.69191E-19
 -1      4009 9.51628E-05-2.83295E-05-2.86434E-05-8.93612E-08 1.37170E-19 7.07941E-19
 -1      4010 9.51074E-05-2.82393E-05-2.86571E-05-1.06903E-07-1.20394E-18 2.19996E-18
 -1      4011 9.51896E-05-2.83741E-05-2.86352E-05-7.12992E-08-2.16505E-19 7.76120E-19
 -1      4012 9.52082E-05-2.84113E-05-2.86276E-05-5.18668E-08-1.88363E-19 1.57872E-18
 -1      4013 9.51721E-05-2.83452E-05-2.86396E-05-6.62147E-08-2.96697E-20 7.69068E-19
 -1      4014 9.52255E-05-2.84438E-05-2.86208E-05-3.93658E-08 5.03244E-20 1.67111E-18
 -1      4015 9.52372E-05-2.84707E-05-2.86144E-05-2.58310E-08 1.23925E-18 1.53646E-19
 -1      4016 9.52151E-05-2.84234E-05-2.86247E-05-3.74448E-08-1.01667E-19 7.02988E-19
 -1      4017 9.52476E-05-2.84938E-05-2.86088E-05-1.74502E-08 2.51547E-18-1.94663E-19
 -1      4018 9.52543E-05-2.85128E-05-2.86037E-05-8.31436E-09 2.91850E-18 6.67797E-19
 -1      4019 9.52422E-05-2.84799E-05-2.86122E-05-1.76173E-08 1.83899E-18-3.11876E-19
 -1      4020 9.52599E-05-2.85288E-05-2.85991E-05-2.93258E-09 1.70258E-18 1.21741E-18
 -1      4021 9.52631E-05-2.85417E-05-2.85950E-05 2.98059E-09 8.62725E-19 1.08667E-18
 -1      4022 9.52577E-05-2.85196E-05-2.86019E-05-4.39667E-09 2.23473E-18 3.29919E-19
 -1      4023 9.52654E-05-2.85524E-05-2.85913E-05 6.22134E-09-5.47782E-20 4.55937E-19
 -1      4024 9.52662E-05-2.85609E-05-2.85881E-05 9.81811E-09-2.15646E-19-3.82313E-19
 -1      4025 9.52653E-05-2.85467E-05-2.85936E-05 4.02713E-09 9.29687E-20 2.28999E-19
 -1      4026 9.52664E-05-2.85677E-05-2.85851E-05 1.15572E-08-1.89021E-19-7.84893E-19
 -1      4027 9.52658E-05-2.85731E-05-2.85826E-05 1.35192E-08-1.97623E-19-6.02387E-20
 -1      4028 9.52676E-05-2.85645E-05-2.85870E-05 9.02014E-09-6.22246E-19 1.29358E-19
 -1      4029 9.11377E-05-2.41849E-05-2.87052E-05 2.69251E-06-3.03197E-19-1.80231E-19
 -1      4030 9.06043E-05-2.37581E-05-2.86526E-05 3.00653E-06-2.66884E-19-2.20595E-19
 -1      4031 9.21411E-05-2.50030E-05-2.87824E-05 2.19267E-06-5.52521E-19 4.81735E-19
 -1      4032 9.17210E-05-2.46237E-05-2.87587E-05 2.46856E-06-5.20788E-19 2.40299E-19
 -1      4033 9.10039E-05-2.40996E-05-2.86595E-05 2.08100E-06-6.68460E-19 6.41896E-20
 -1      4034 9.29297E-05-2.57139E-05-2.88139E-05 1.75467E-06 8.99740E-19-1.63286E-20
 -1      4035 9.26023E-05-2.53857E-05-2.88087E-05 1.99346E-06 3.76078E-19 4.46469E-19
 -1      4036 9.20337E-05-2.49380E-05-2.87447E-05 1.71316E-06 7.71598E-20-5.61433E-19
 -1      4037 9.35424E-05-2.63172E-05-2.88165E-05 1.37920E-06 7.95400E-19 3.92208E-19
 -1      4038 9.32907E-05-2.60400E-05-2.88225E-05 1.58208E-06 1.09565E-18 4.71199E-19
 -1      4039 9.28455E-05-2.56641E-05-2.87837E-05 1.38319E-06 5.40386E-19-6.00218E-19
 -1      4040 9.40132E-05-2.68190E-05-2.88021E-05 1.06423E-06 1.68918E-18 1.39442E-18
 -1      4041 9.38223E-05-2.65896E-05-2.88142E-05 1.23288E-06 1.48622E-18 1.37613E-18
 -1      4042 9.34784E-05-2.62801E-05-2.87929E-05 1.09382E-06 4.66155E-19 7.32389E-19
 -1      4043 9.43709E-05-2.72299E-05-2.87784E-05 8.04137E-07-4.21330E-20 1.28261E-18
 -1      4044 9.42272E-05-2.70423E-05-2.87934E-05 9.41783E-07 1.19668E-18 1.34199E-18
 -1      4045 9.39655E-05-2.67923E-05-2.87841E-05 8.47752E-07 1.31254E-18 1.97983E-18
 -1      4046 9.46391E-05-2.75607E-05-2.87508E-05 5.95217E-07 8.20320E-19 3.30866E-19
 -1      4047 9.45329E-05-2.74105E-05-2.87665E-05 7.05285E-07 3.44765E-19 3.24907E-19
 -1      4048 9.43372E-05-2.72112E-05-2.87650E-05 6.42270E-07 8.42057E-19 1.56772E-18
 -1      4049 9.48370E-05-2.78229E-05-2.87226E-05 4.30233E-07 1.01254E-18-1.53316E-19
 -1      4050 9.47597E-05-2.77042E-05-2.87377E-05 5.16604E-07 8.64792E-19-2.18258E-19
 -1      4051 9.46162E-05-2.75483E-05-2.87409E-05 4.76348E-07 1.12662E-18-5.26647E-19
 -1      4052 9.49808E-05-2.80275E-05-2.86959E-05 3.02538E-07 6.43023E-19 2.60218E-21
 -1      4053 9.49254E-05-2.79352E-05-2.87097E-05 3.69039E-07 7.67210E-19-5.97226E-19
 -1      4054 9.48225E-05-2.78153E-05-2.87156E-05 3.44553E-07 9.28430E-19-1.73861E-18
 -1      4055 9.50830E-05-2.81848E-05-2.86719E-05 2.05684E-07 5.33686E-19 7.30954E-19
 -1      4056 9.50442E-05-2.81141E-05-2.86839E-05 2.55902E-07 6.55935E-19 7.66514E-19
 -1      4057 9.49723E-05-2.80236E-05-2.86911E-05 2.42216E-07 1.40498E-19-9.72946E-19
 -1      4058 9.51539E-05-2.83038E-05-2.86510E-05 1.33738E-07 1.40055E-20 1.48493E-18
 -1      4059 9.51275E-05-2.82504E-05-2.86612E-05 1.70893E-07 7.78367E-19 1.14378E-18
 -1      4060 9.50789E-05-2.81834E-05-2.86686E-05 1.64429E-07-2.76781E-20 3.29912E-19
 -1      4061 9.52015E-05-2.83921E-05-2.86333E-05 8.14831E-08 1.49479E-19-2.26953E-19
 -1      4062 9.51842E-05-2.83526E-05-2.86418E-05 1.08370E-07 2.95119E-19 2.94577E-19
 -1      4063 9.51527E-05-2.83040E-05-2.86489E-05 1.06580E-07 6.11359E-19 4.85058E-19
 -1      4064 9.52321E-05-2.84565E-05-2.86186E-05 4.44793E-08-1.86627E-20 1.02419E-18
 -1      4065 9.52214E-05-2.84278E-05-2.86256E-05 6.34490E-08-6.68786E-19-1.99580E-19
 -1      4066 9.52022E-05-2.83934E-05-2.86320E-05 6.45523E-08 1.53259E-19 1.18806E-19
 -1      4067 9.52506E-05-2.85023E-05-2.86067E-05 1.90517E-08 8.20759E-20 8.04348E-19
 -1      4068 9.52444E-05-2.84820E-05-2.86123E-05 3.20354E-08 6.37841E-19 4.97587E-19
 -1      4069 9.52339E-05-2.84583E-05-2.86179E-05 3.48064E-08 4.61370E-20 8.87989E-19
 -1      4070 9.52604E-05-2.85341E-05-2.85972E-05 2.23167E-09-4.17522E-20 1.79336E-18
 -1      4071 9.52575E-05-2.85201E-05-2.86016E-05 1.07785E-08-1.38375E-19 1.69200E-18
 -1      4072 9.52527E-05-2.85043E-05-2.86063E-05 1.43939E-08-4.02935E-19 1.39708E-18
 -1      4073 9.52644E-05-2.85554E-05-2.85897E-05-8.31629E-09-8.04944E-19 2.18918E-18
 -1      4074 9.52636E-05-2.85460E-05-2.85931E-05-2.99361E-09 2.27770E-19 2.02881E-18
 -1      4075 9.52627E-05-2.85361E-05-2.85970E-05 9.24919E-10-8.33881E-19 2.04418E-18
 -1      4076 9.52646E-05-2.85690E-05-2.85839E-05-1.43239E-08-6.70515E-19 2.29292E-18
 -1      4077 9.52651E-05-2.85632E-05-2.85865E-05-1.13760E-08-8.52046E-19 2.41061E-18
 -1      4078 9.52665E-05-2.85573E-05-2.85897E-05-7.46839E-09-5.58164E-19 1.63941E-18
 -1      4079 8.07921E-05-1.93691E-05-2.63777E-05 6.71642E-06-1.34818E-18-6.37825E-19
 -1      4080 7.92920E-05-1.91437E-05-2.58021E-05 7.71437E-06-1.25827E-18-1.73910E-19
 -1      4081 9.04780E-05-2.56978E-05-2.77832E-05 1.27272E-05 1.24442E-18-4.32351E-18
 -1      4082 8.82865E-05-2.22743E-05-2.83090E-05 3.88999E-06-8.50245E-19-8.20778E-19
 -1      4083 8.74616E-05-2.17966E-05-2.81486E-05 4.29810E-06-4.44712E-19-8.91139E-19
 -1      4084 7.65798E-05-1.85010E-05-2.49742E-05 7.99859E-06-1.14246E-18 2.76847E-19
 -1      4085 7.48283E-05-1.90619E-05-2.39433E-05 1.03437E-05-9.42688E-19 4.47657E-19
 -1      4086 6.95905E-05-1.56730E-05-2.28882E-05 5.26986E-06-5.81586E-19 1.64596E-18
 -1      4087 7.59859E-05-1.74299E-05-2.49513E-05 5.12228E-06-1.01445E-18 6.86477E-19
 -1      4088 8.63137E-05-2.12481E-05-2.79104E-05 4.61773E-06-4.50813E-19-1.31814E-18
 -1      4089 8.53082E-05-2.07890E-05-2.76586E-05 5.11095E-06-8.52219E-19-1.18321E-18
 -1      4090 8.60549E-05-2.10045E-05-2.78468E-05 3.36773E-06-9.24283E-19-6.36480E-19
 -1      4091 8.38620E-05-2.02507E-05-2.72989E-05 5.51241E-06-1.25539E-18-9.77914E-19
 -1      4092 8.26458E-05-1.98612E-05-2.69163E-05 6.16390E-06-1.33506E-18-7.99317E-19
 -1      4093 8.35069E-05-1.98558E-05-2.72361E-05 3.90997E-06-1.12961E-18-1.09010E-18
 -1      4094 6.92739E-05-1.25917E-05-2.42832E-05 9.76214E-06 1.98068E-18-5.50259E-18
 -1      4095 7.26870E-05-1.48960E-05-2.46812E-05 1.24314E-05 1.92028E-18-5.31964E-18
 -1      4096 9.52630E-05-2.85821E-05-2.85775E-05 1.29958E-08 7.61676E-19-1.54325E-18
 -1      4097 8.98715E-05-2.32677E-05-2.85586E-05 3.25454E-06-8.27459E-20-5.29645E-19
 -1      4098 8.92021E-05-2.28026E-05-2.84625E-05 3.61012E-06-4.33749E-19-6.85021E-19
 -1      4099 8.80821E-05-2.21128E-05-2.82493E-05 2.90670E-06-5.51291E-19-5.47560E-19
 -1      4100 8.97071E-05-2.31536E-05-2.85052E-05 2.47842E-06-3.77939E-19-2.58262E-19
 -1      4101 6.94006E-05-1.58497E-05-2.29577E-05 1.02465E-06-2.44819E-19 2.34876E-18
 -1      4102 6.73830E-05-1.73254E-05-2.13030E-05-1.10799E-05 1.59012E-18 3.45466E-18
 -1      4103 7.19783E-05-2.00996E-05-2.22728E-05-1.41162E-05 1.86986E-18 1.94838E-18
 -1      4104 6.90918E-05-1.68208E-05-2.24103E-05-7.56516E-06 1.10732E-18 2.82019E-18
 -1      4105 9.52663E-05-2.85814E-05-2.85793E-05-8.43952E-09 1.23088E-18 2.50590E-18
 -1      4106 9.52639E-05-2.85805E-05-2.85786E-05-1.38733E-08 1.03618E-18 3.35065E-19
 -1      4107 9.52646E-05-2.85781E-05-2.85798E-05-1.39092E-08 1.41171E-18 1.50009E-18
 -1      4108 9.52652E-05-2.85766E-05-2.85808E-05 1.34101E-08 7.43626E-19-6.16887E-19
 -1      4109 9.52638E-05-2.85801E-05-2.85788E-05 1.42400E-08 1.08606E-18-6.86840E-19
 -1      4110 7.49934E-05-1.90558E-05-2.39819E-05 1.66245E-05 2.17101E-18-5.09038E-18
 -1      4111 7.87813E-05-1.78177E-05-2.62026E-05 1.28962E-05 1.91574E-18-4.91776E-18
 -1      4112 8.02995E-05-1.87296E-05-2.63228E-05 4.63447E-06-1.23746E-18 5.58512E-21
 -1      4113 9.52648E-05-2.85755E-05-2.85811E-05-1.47338E-08 1.16340E-18 6.15607E-19
 -1      4114 9.52650E-05-2.85724E-05-2.85825E-05-1.42040E-08-4.27296E-20 1.49332E-18
 -1      4115 9.52676E-05-2.85693E-05-2.85851E-05-1.06259E-08 1.05286E-20 1.19521E-18
 -1      4116 9.52679E-05-2.85763E-05-2.85822E-05-9.61164E-09 9.12504E-19 1.78306E-18
 -1      4117 9.52657E-05-2.85811E-05-2.85791E-05 9.63767E-09 8.77354E-19-2.58242E-18
 -1      4118 8.35631E-05-2.08908E-05-2.67479E-05 1.38195E-05 1.61159E-18-4.80135E-18
 -1      4119 8.96180E-05-2.73370E-05-2.67238E-05 1.56425E-05 1.62736E-18-4.14117E-18
 -1      4120 7.84966E-05-2.28381E-05-2.36651E-05 2.00496E-05 2.59523E-18-4.98143E-18
 -1      4121 6.61763E-05-1.24425E-05-2.29424E-05 8.60057E-06 1.85802E-18-5.83710E-18
 -1      4122 9.52674E-05-2.85814E-05-2.85798E-05-4.38300E-10 8.62098E-19-1.96875E-18
 -1      4123 9.52671E-05-2.85814E-05-2.85796E-05-4.33040E-09 7.24924E-19 1.02705E-18
 -1      4124 9.52683E-05-2.85788E-05-2.85811E-05-4.84594E-09 5.81086E-19 5.77232E-19
 -1      4125 8.08035E-05-2.77561E-05-2.26683E-05-2.08841E-05 2.45802E-18 1.17516E-18
 -1      4126 8.56218E-05-2.97565E-05-2.38523E-05-1.94034E-05 2.24708E-18 7.37898E-19
 -1      4127 8.42250E-05-2.73762E-05-2.44103E-05-1.68588E-05 1.07116E-18 9.67973E-19
 -1      4128 7.66856E-05-2.39818E-05-2.25975E-05-1.77866E-05 1.92058E-18 1.17484E-18
 -1      4129 9.52670E-05-2.85750E-05-2.85823E-05 1.08866E-08 3.04964E-19-4.95961E-19
 -1      4130 9.52666E-05-2.85812E-05-2.85795E-05 6.51461E-09 3.32368E-19-2.50710E-18
 -1      4131 9.52673E-05-2.85814E-05-2.85797E-05 2.65893E-09 1.05844E-18-1.54358E-18
 -1      4132 9.52686E-05-2.85786E-05-2.85813E-05 1.90271E-09 1.95700E-20-1.82525E-18
 -1      4133 9.52674E-05-2.85786E-05-2.85809E-05 7.85038E-09-5.96410E-19-2.16447E-18
 -1      4134 9.28296E-05-2.57228E-05-2.87654E-05 9.71504E-07 9.74869E-20-1.05051E-18
 -1      4135 9.24662E-05-2.53855E-05-2.87531E-05 1.10181E-06 2.87000E-19-1.31853E-18
 -1      4136 8.47808E-05-2.60596E-05-2.51067E-05-1.43341E-05 4.34803E-19 1.13466E-18
 -1      4137 8.43547E-05-2.47393E-05-2.55984E-05-1.24062E-05 6.58967E-19 9.80898E-19
 -1      4138 8.15788E-05-2.47407E-05-2.43461E-05-1.52124E-05 9.35186E-19 1.42327E-18
 -1      4139 8.51358E-05-2.40704E-05-2.61332E-05-1.05703E-05 7.43672E-19 3.15708E-19
 -1      4140 8.52346E-05-2.34246E-05-2.65309E-05-9.14237E-06 1.05953E-18 6.13187E-19
 -1      4141 8.28409E-05-2.29911E-05-2.56220E-05-1.08791E-05 5.32420E-19 1.15836E-18
 -1      4142 8.60674E-05-2.31732E-05-2.69329E-05-7.84562E-06 1.18449E-18 6.03993E-19
 -1      4143 8.63908E-05-2.29232E-05-2.72409E-05-6.81378E-06 1.30100E-18 4.22072E-19
 -1      4144 8.44067E-05-2.23263E-05-2.65824E-05-7.83842E-06 1.01114E-18 1.46836E-18
 -1      4145 8.72098E-05-2.29069E-05-2.75373E-05-5.84057E-06 6.71747E-19-4.49229E-19
 -1      4146 8.76775E-05-2.29445E-05-2.77639E-05-5.05651E-06 9.30826E-19-1.36446E-18
 -1      4147 8.59418E-05-2.21936E-05-2.72905E-05-5.69316E-06 7.65069E-19 1.68395E-19
 -1      4148 8.84121E-05-2.31215E-05-2.79747E-05-4.39692E-06 1.21365E-18-2.25130E-18
 -1      4149 8.89047E-05-2.32847E-05-2.81380E-05-3.81556E-06 1.45895E-18-2.36336E-18
 -1      4150 8.74733E-05-2.25878E-05-2.78072E-05-4.23401E-06 6.52860E-19-1.58839E-18
 -1      4151 8.95641E-05-2.35523E-05-2.82852E-05-3.31686E-06 1.41123E-18-1.84781E-18
 -1      4152 9.00418E-05-2.38105E-05-2.83967E-05-2.87721E-06 1.29814E-18-1.96690E-18
 -1      4153 8.88413E-05-2.30752E-05-2.81686E-05-3.09710E-06 1.57870E-18-2.17543E-18
 -1      4154 9.06202E-05-2.41245E-05-2.84950E-05-2.50665E-06 8.59491E-19-2.91802E-18
 -1      4155 9.10592E-05-2.44225E-05-2.85675E-05-2.17004E-06 9.36105E-20-3.24022E-18
 -1      4156 9.00552E-05-2.37238E-05-2.84165E-05-2.28793E-06 5.32827E-19-3.32257E-18
 -1      4157 9.15555E-05-2.47499E-05-2.86294E-05-1.89382E-06 1.97547E-19-3.19055E-18
 -1      4158 9.19418E-05-2.50541E-05-2.86730E-05-1.63483E-06 3.20067E-19-3.09976E-18
 -1      4159 9.11151E-05-2.44117E-05-2.85780E-05-1.69532E-06 2.00881E-19-4.23920E-18
 -1      4160 9.23596E-05-2.53719E-05-2.87086E-05-1.42709E-06 3.83415E-19-2.81414E-18
 -1      4161 9.26865E-05-2.56627E-05-2.87313E-05-1.23035E-06 3.93246E-19-3.18528E-18
 -1      4162 9.20183E-05-2.50868E-05-2.86764E-05-1.25443E-06 5.17729E-19-3.50849E-18
 -1      4163 9.30294E-05-2.59457E-05-2.87490E-05-1.07045E-06 3.50397E-19-3.42612E-18
 -1      4164 9.33031E-05-2.62112E-05-2.87572E-05-9.10365E-07-3.56214E-19-3.45232E-18
 -1      4165 9.27610E-05-2.57085E-05-2.87300E-05-9.25082E-07 2.93951E-19-4.23095E-18
 -1      4166 9.35820E-05-2.64726E-05-2.87618E-05-7.95758E-07-3.56897E-19-2.15445E-18
 -1      4167 9.38024E-05-2.67009E-05-2.87609E-05-6.77171E-07 4.87032E-19-9.29680E-19
 -1      4168 9.33769E-05-2.62834E-05-2.87524E-05-6.92448E-07 6.24551E-19-2.73242E-18
 -1      4169 9.40209E-05-2.69185E-05-2.87582E-05-5.86505E-07 1.15996E-18-3.86146E-19
 -1      4170 9.41964E-05-2.71147E-05-2.87516E-05-4.93655E-07 1.33126E-18 3.17034E-19
 -1      4171 9.38656E-05-2.67591E-05-2.87549E-05-5.00918E-07 1.27658E-18-8.89296E-19
 -1      4172 9.43661E-05-2.72971E-05-2.87442E-05-4.26716E-07-1.39916E-19 4.28599E-19
 -1      4173 9.45020E-05-2.74589E-05-2.87345E-05-3.55366E-07-7.51571E-19 2.29862E-19
 -1      4174 9.42493E-05-2.71709E-05-2.87448E-05-3.60609E-07 5.09277E-19-1.25491E-18
 -1      4175 9.46315E-05-2.76079E-05-2.87247E-05-3.05390E-07-7.80484E-20-1.16357E-19
 -1      4176 9.47346E-05-2.77388E-05-2.87138E-05-2.51175E-07 2.25466E-20 4.89698E-19
 -1      4177 9.45452E-05-2.75084E-05-2.87277E-05-2.56711E-07-3.89277E-19-7.31887E-19
 -1      4178 9.48312E-05-2.78578E-05-2.87031E-05-2.14242E-07-3.40388E-19 1.73016E-18
 -1      4179 9.49076E-05-2.79615E-05-2.86921E-05-1.73474E-07 2.37919E-19 2.32184E-18
 -1      4180 9.47686E-05-2.77806E-05-2.87074E-05-1.79660E-07 1.72974E-19 4.88291E-19
 -1      4181 9.49781E-05-2.80546E-05-2.86817E-05-1.46454E-07-7.43846E-19 2.68507E-18
 -1      4182 9.50333E-05-2.81351E-05-2.86713E-05-1.16180E-07-1.22389E-18 2.29473E-18
 -1      4183 9.49337E-05-2.79956E-05-2.86865E-05-1.22835E-07-4.09733E-19 1.37529E-18
 -1      4184 9.50834E-05-2.82066E-05-2.86617E-05-9.66834E-08-1.42083E-18 2.30808E-18
 -1      4185 9.51222E-05-2.82678E-05-2.86524E-05-7.45370E-08-9.43878E-19 2.15733E-18
 -1      4186 9.50527E-05-2.81623E-05-2.86664E-05-8.13444E-08-1.13392E-18 1.52648E-18
 -1      4187 9.51568E-05-2.83216E-05-2.86438E-05-6.07102E-08-9.00160E-19 1.20843E-18
 -1      4188 9.51831E-05-2.83673E-05-2.86357E-05-4.47962E-08-1.53336E-19 6.73615E-19
 -1      4189 9.51363E-05-2.82890E-05-2.86482E-05-5.14559E-08-1.31827E-18 1.19155E-18
 -1      4190 9.52060E-05-2.84068E-05-2.86283E-05-3.52018E-08 5.12373E-20 5.65362E-19
 -1      4191 9.52230E-05-2.84401E-05-2.86214E-05-2.40110E-08-4.20488E-20 9.69119E-19
 -1      4192 9.51930E-05-2.83833E-05-2.86323E-05-3.02883E-08-4.87126E-19 7.22040E-19
 -1      4193 9.52373E-05-2.84686E-05-2.86152E-05-1.75376E-08 9.41761E-19-5.74276E-20
 -1      4194 9.52476E-05-2.84923E-05-2.86096E-05-9.87827E-09 2.48557E-18-8.69007E-19
 -1      4195 9.52297E-05-2.84521E-05-2.86187E-05-1.56174E-08 3.42730E-19 2.21602E-19
 -1      4196 9.52558E-05-2.85122E-05-2.86045E-05-5.67303E-09 2.21719E-18-9.64272E-19
 -1      4197 9.52613E-05-2.85285E-05-2.85999E-05-6.13982E-10 1.95364E-18-2.10275E-19
 -1      4198 9.52518E-05-2.85009E-05-2.86074E-05-5.73132E-09 1.79357E-18-1.83995E-18
 -1      4199 9.52653E-05-2.85420E-05-2.85957E-05 1.97267E-09 9.95478E-19-5.79338E-19
 -1      4200 9.52675E-05-2.85530E-05-2.85920E-05 5.15239E-09-6.06326E-19-3.71532E-19
 -1      4201 9.52638E-05-2.85346E-05-2.85981E-05 6.77986E-10 1.10180E-18-1.46283E-18
 -1      4202 9.52686E-05-2.85617E-05-2.85887E-05 6.60577E-09-1.50525E-18 5.90746E-19
 -1      4203 9.52687E-05-2.85687E-05-2.85857E-05 8.40074E-09-5.44430E-19 7.34522E-19
 -1      4204 9.52687E-05-2.85572E-05-2.85906E-05 4.59503E-09-6.88799E-19-1.42896E-18
 -1      4205 9.20149E-05-2.50049E-05-2.87255E-05 1.18971E-06 3.63959E-20-1.52585E-18
 -1      4206 9.15550E-05-2.46129E-05-2.86943E-05 1.33605E-06-9.88301E-20-1.47101E-18
 -1      4207 9.20729E-05-2.50497E-05-2.87102E-05 7.64575E-07 7.08924E-20-1.34722E-18
 -1      4208 9.09883E-05-2.41801E-05-2.86411E-05 1.41838E-06-8.21751E-20-1.30218E-18
 -1      4209 9.04059E-05-2.37329E-05-2.85813E-05 1.57125E-06-4.46483E-19-9.20607E-19
 -1      4210 9.10767E-05-2.42376E-05-2.86265E-05 8.78032E-07-1.00387E-19-2.33088E-18
 -1      4211 9.34642E-05-2.63303E-05-2.87765E-05 7.75164E-07 7.61192E-19-3.80489E-19
 -1      4212 9.31829E-05-2.60442E-05-2.87763E-05 8.90881E-07 5.74773E-20-9.17594E-19
 -1      4213 9.28762E-05-2.57648E-05-2.87512E-05 6.32932E-07 3.82539E-19-1.74325E-18
 -1      4214 9.39536E-05-2.68302E-05-2.87705E-05 6.00207E-07 7.42189E-19 2.14368E-19
 -1      4215 9.37390E-05-2.65946E-05-2.87773E-05 7.04685E-07 1.34836E-18-1.17422E-19
 -1      4216 9.34946E-05-2.63692E-05-2.87641E-05 5.05470E-07 6.26731E-19-2.34752E-18
 -1      4217 9.43290E-05-2.72447E-05-2.87536E-05 4.57242E-07 1.34265E-18-4.87016E-19
 -1      4218 9.41679E-05-2.70536E-05-2.87642E-05 5.42050E-07 1.38408E-18 3.53821E-19
 -1      4219 9.39803E-05-2.68648E-05-2.87595E-05 4.06925E-07 1.02967E-18-2.43643E-18
 -1      4220 9.46113E-05-2.75763E-05-2.87317E-05 3.38693E-07 1.79124E-18-1.39134E-18
 -1      4221 9.44918E-05-2.74231E-05-2.87440E-05 4.07353E-07 1.54720E-18-4.64286E-19
 -1      4222 9.43485E-05-2.72684E-05-2.87445E-05 3.13655E-07 1.82985E-18-1.65393E-18
 -1      4223 9.48203E-05-2.78387E-05-2.87083E-05 2.44290E-07 1.14101E-18-1.22086E-18
 -1      4224 9.47329E-05-2.77180E-05-2.87207E-05 2.98741E-07 1.76095E-18-7.81010E-19
 -1      4225 9.46269E-05-2.75962E-05-2.87244E-05 2.34115E-07 1.51577E-18-1.58383E-18
 -1      4226 9.49722E-05-2.80429E-05-2.86854E-05 1.70828E-07-1.07765E-18-4.68380E-19
 -1      4227 9.49095E-05-2.79494E-05-2.86971E-05 2.13062E-07-5.17440E-19-1.29869E-18
 -1      4228 9.48327E-05-2.78552E-05-2.87025E-05 1.69642E-07 2.40431E-19-3.31011E-19
 -1      4229 9.50801E-05-2.81992E-05-2.86643E-05 1.14981E-07 5.79471E-20 7.88037E-20
 -1      4230 9.50362E-05-2.81280E-05-2.86748E-05 1.47035E-07-5.13514E-19-1.34146E-19
 -1      4231 9.49821E-05-2.80566E-05-2.86809E-05 1.18941E-07-8.62202E-19-7.42462E-19
 -1      4232 9.51548E-05-2.83168E-05-2.86456E-05 7.35202E-08 5.44225E-19 6.45677E-20
 -1      4233 9.51250E-05-2.82634E-05-2.86548E-05 9.73136E-08 9.71498E-19 2.04861E-19
 -1      4234 9.50879E-05-2.82104E-05-2.86608E-05 8.01326E-08 3.59429E-19-1.05655E-18
 -1      4235 9.52047E-05-2.84036E-05-2.86296E-05 4.35030E-08-1.69808E-19 8.56374E-19
 -1      4236 9.51852E-05-2.83644E-05-2.86373E-05 6.07502E-08 3.04611E-19 1.05101E-18
 -1      4237 9.51609E-05-2.83258E-05-2.86430E-05 5.11909E-08 2.91880E-21-7.77888E-19
 -1      4238 9.52364E-05-2.84663E-05-2.86161E-05 2.23727E-08 3.85905E-19 7.83905E-19
 -1      4239 9.52244E-05-2.84381E-05-2.86225E-05 3.45457E-08 2.32644E-19 9.64780E-19
 -1      4240 9.52094E-05-2.84108E-05-2.86276E-05 3.01789E-08 1.03628E-19 6.24982E-19
 -1      4241 9.52551E-05-2.85105E-05-2.86051E-05 7.98638E-09-1.61892E-18 2.20131E-18
 -1      4242 9.52484E-05-2.84908E-05-2.86103E-05 1.63092E-08-3.50795E-19 1.90753E-18
 -1      4243 9.52400E-05-2.84719E-05-2.86147E-05 1.53663E-08-5.96902E-19 1.25489E-18
 -1      4244 9.52648E-05-2.85408E-05-2.85961E-05-1.39593E-09-7.09498E-20 1.25010E-18
 -1      4245 9.52617E-05-2.85274E-05-2.86003E-05 4.06274E-09-8.66692E-19 1.70532E-18
 -1      4246 9.52577E-05-2.85149E-05-2.86040E-05 5.27757E-09-6.79640E-19 1.71316E-18
 -1      4247 9.52683E-05-2.85607E-05-2.85890E-05-7.00892E-09-6.75387E-19 5.78288E-19
 -1      4248 9.52677E-05-2.85521E-05-2.85923E-05-3.78809E-09-7.54074E-19-2.01068E-20
 -1      4249 9.52666E-05-2.85441E-05-2.85953E-05-1.31964E-09-1.28424E-19 4.86589E-20
 -1      4250 8.02940E-05-1.86954E-05-2.64326E-05 2.29987E-06-9.80628E-19 6.10452E-19
 -1      4251 7.84028E-05-1.81481E-05-2.58668E-05 2.60399E-06-9.25652E-19 9.46469E-19
 -1      4252 7.62219E-05-1.75527E-05-2.51865E-05 1.95880E-06-8.46346E-19 1.44658E-18
 -1      4253 7.35493E-05-1.68289E-05-2.43792E-05 1.72422E-06-4.72618E-19 1.80439E-18
 -1      4254 7.69574E-05-1.76482E-05-2.53732E-05-6.89555E-07-3.39984E-19 2.28102E-18
 -1      4255 6.25259E-05-1.02971E-05-2.22420E-05 5.38788E-06 1.69643E-18-6.16513E-18
 -1      4256 8.42526E-05-2.56405E-05-2.51812E-05 1.89249E-05 2.41266E-18-4.32533E-18
 -1      4257 8.35589E-05-1.99493E-05-2.72868E-05 2.16430E-06-8.48467E-19-2.18452E-19
 -1      4258 8.20782E-05-1.93645E-05-2.69112E-05 2.32383E-06-9.26426E-19-3.37242E-20
 -1      4259 8.08137E-05-1.87874E-05-2.65185E-05 4.33523E-07-4.56464E-19 1.55244E-18
 -1      4260 9.52686E-05-2.85721E-05-2.85842E-05 8.21746E-09-8.50310E-19-7.08912E-19
 -1      4261 9.52680E-05-2.85761E-05-2.85823E-05 8.25762E-09-9.48873E-19-1.69167E-18
 -1      4262 9.52689E-05-2.85761E-05-2.85827E-05 5.44087E-09-1.94129E-18-1.62570E-18
 -1      4263 9.52695E-05-2.85695E-05-2.85857E-05 6.01899E-09-1.80120E-18-8.96291E-19
 -1      4264 8.60811E-05-2.11136E-05-2.78624E-05 2.03215E-06-8.34896E-19-3.86455E-19
 -1      4265 8.49273E-05-2.05414E-05-2.76122E-05 2.18197E-06-8.93527E-19-4.43891E-19
 -1      4266 8.39491E-05-2.00588E-05-2.73305E-05 7.36946E-07-6.30798E-19 2.67672E-19
 -1      4267 7.09088E-05-1.61133E-05-2.33386E-05-2.61203E-06 1.18287E-21 2.75558E-18
 -1      4268 6.21172E-05-1.02162E-05-2.19821E-05-9.73162E-07 1.04389E-18-6.63728E-18
 -1      4269 8.80909E-05-2.22082E-05-2.82470E-05 1.84946E-06-2.65022E-19-7.01558E-19
 -1      4270 8.71735E-05-2.16731E-05-2.80832E-05 2.01282E-06-4.41897E-19-2.82336E-19
 -1      4271 8.63331E-05-2.12425E-05-2.78792E-05 8.64594E-07-4.98477E-19-5.11330E-19
 -1      4272 7.30897E-05-1.75455E-05-2.38283E-05-5.57358E-06 2.51029E-19 2.55243E-18
 -1      4273 9.52690E-05-2.85655E-05-2.85871E-05-6.86449E-09-6.31534E-19 8.62756E-19
 -1      4274 9.52698E-05-2.85609E-05-2.85896E-05-3.86549E-09-5.75871E-19 6.63222E-19
 -1      4275 9.52694E-05-2.85697E-05-2.85856E-05-6.91589E-09-2.24408E-19 7.69947E-19
 -1      4276 9.52694E-05-2.85761E-05-2.85829E-05 2.60960E-09-6.90494E-19-1.42557E-18
 -1      4277 9.52696E-05-2.85763E-05-2.85829E-05-3.18556E-10-3.16634E-19-1.78531E-18
 -1      4278 9.52700E-05-2.85731E-05-2.85843E-05 3.06325E-09-1.72588E-18-2.57800E-18
 -1      4279 8.73229E-05-2.67585E-05-2.60211E-05 1.72749E-05 2.00090E-18-4.15331E-18
 -1      4280 7.62868E-05-2.20293E-05-2.32095E-05-1.43644E-05 1.55118E-18 1.65473E-18
 -1      4281 8.96997E-05-2.32462E-05-2.84912E-05 1.64674E-06-5.19490E-19-8.20760E-19
 -1      4282 8.89655E-05-2.27512E-05-2.83892E-05 1.80114E-06-7.03248E-21-8.50629E-19
 -1      4283 8.98232E-05-2.33136E-05-2.84798E-05 9.60852E-07-3.01122E-19-1.93845E-18
 -1      4284 8.46340E-05-2.05595E-05-2.74733E-05-5.80200E-07-2.52266E-19 2.48391E-19
 -1      4285 8.31926E-05-1.99851E-05-2.71367E-05-7.65225E-07-2.33738E-19 6.41219E-19
 -1      4286 9.29759E-05-2.59068E-05-2.87480E-05 2.82786E-07 3.04380E-19-2.14298E-18
 -1      4287 9.26121E-05-2.55822E-05-2.87350E-05 3.38049E-07 1.06092E-18-2.02603E-18
 -1      4288 7.98535E-05-2.13590E-05-2.50444E-05-1.00576E-05 3.32912E-19 1.30419E-18
 -1      4289 8.06584E-05-2.10263E-05-2.56116E-05-8.34194E-06 5.68884E-19 1.41396E-18
 -1      4290 8.22705E-05-2.11320E-05-2.61926E-05-7.06227E-06 5.06646E-19 1.05025E-18
 -1      4291 8.30487E-05-2.10574E-05-2.66181E-05-5.86458E-06 8.85932E-19 2.82137E-19
 -1      4292 7.97175E-05-1.97611E-05-2.56822E-05-6.27976E-06 4.00514E-19 9.90251E-19
 -1      4293 8.45104E-05-2.12064E-05-2.71223E-05-4.30882E-06 4.12748E-19 1.89424E-22
 -1      4294 8.54027E-05-2.14469E-05-2.74265E-05-3.55281E-06 4.73966E-20-7.09375E-19
 -1      4295 8.62352E-05-2.16836E-05-2.76719E-05-2.94797E-06 6.45386E-19-8.59695E-19
 -1      4296 8.79842E-05-2.25172E-05-2.80596E-05-2.51403E-06 1.32586E-18-1.55410E-18
 -1      4297 8.86295E-05-2.28661E-05-2.82040E-05-2.09824E-06 1.13077E-18-1.96693E-18
 -1      4298 8.93916E-05-2.32685E-05-2.83401E-05-1.79762E-06 4.63528E-19-3.06006E-18
 -1      4299 8.99757E-05-2.36397E-05-2.84419E-05-1.49428E-06-2.54602E-19-3.03421E-18
 -1      4300 8.86858E-05-2.27302E-05-2.82410E-05-1.21410E-06 1.44585E-19-2.68243E-18
 -1      4301 9.06054E-05-2.40407E-05-2.85300E-05-1.28697E-06 8.91790E-20-3.03649E-18
 -1      4302 9.11051E-05-2.44070E-05-2.85941E-05-1.06463E-06 1.80618E-19-2.84891E-18
 -1      4303 9.00708E-05-2.36033E-05-2.84665E-05-7.95777E-07 1.05083E-20-2.68832E-18
 -1      4304 9.16208E-05-2.47817E-05-2.86477E-05-9.23050E-07 5.08833E-20-3.37487E-18
 -1      4305 9.20341E-05-2.51220E-05-2.86851E-05-7.51285E-07 1.34255E-19-3.69454E-18
 -1      4306 9.12127E-05-2.44254E-05-2.86088E-05-5.17215E-07 2.31376E-19-2.44542E-18
 -1      4307 9.25651E-05-2.55524E-05-2.87211E-05-5.18675E-07 2.06544E-19-3.27095E-18
 -1      4308 9.29127E-05-2.58634E-05-2.87384E-05-4.14932E-07 4.12737E-19-3.06548E-18
 -1      4309 9.32072E-05-2.61364E-05-2.87463E-05-3.32281E-07 1.06124E-18-2.27307E-18
 -1      4310 9.36929E-05-2.66025E-05-2.87548E-05-3.39958E-07 1.15340E-18-2.82442E-18
 -1      4311 9.39114E-05-2.68327E-05-2.87518E-05-2.67609E-07 1.50173E-18-2.35167E-18
 -1      4312 9.41189E-05-2.70450E-05-2.87475E-05-2.39554E-07 1.59282E-18-2.24241E-18
 -1      4313 9.42913E-05-2.72350E-05-2.87405E-05-1.87198E-07 3.10979E-19-2.20683E-18
 -1      4314 9.39834E-05-2.68916E-05-2.87488E-05-7.88204E-08 1.11330E-18-3.42921E-18
 -1      4315 9.44495E-05-2.74103E-05-2.87324E-05-1.68198E-07-4.34127E-19-1.46469E-18
 -1      4316 9.45810E-05-2.75646E-05-2.87228E-05-1.29186E-07-6.62585E-20-1.22594E-18
 -1      4317 9.43494E-05-2.72895E-05-2.87363E-05-4.81669E-08 6.76883E-19-2.69082E-18
 -1      4318 9.46994E-05-2.77050E-05-2.87129E-05-1.16659E-07 3.43038E-20-1.04897E-18
 -1      4319 9.47977E-05-2.78277E-05-2.87025E-05-8.75761E-08 3.99559E-19-5.43562E-19
 -1      4320 9.46260E-05-2.76107E-05-2.87182E-05-2.89508E-08 2.01385E-19-1.73356E-18
 -1      4321 9.48847E-05-2.79383E-05-2.86921E-05-7.94471E-08-2.57565E-20-7.02178E-19
 -1      4322 9.49565E-05-2.80341E-05-2.86818E-05-5.78947E-08-5.54266E-19-3.14110E-19
 -1      4323 9.48318E-05-2.78657E-05-2.86978E-05-1.69642E-08 3.47646E-19-1.38561E-18
 -1      4324 9.50190E-05-2.81194E-05-2.86718E-05-5.27123E-08-7.94520E-19 6.22395E-19
 -1      4325 9.50701E-05-2.81928E-05-2.86622E-05-3.68946E-08-7.20480E-19 7.51492E-19
 -1      4326 9.49817E-05-2.80644E-05-2.86775E-05-9.60596E-09 9.82468E-20-1.24103E-18
 -1      4327 9.51138E-05-2.82575E-05-2.86531E-05-3.36678E-08-1.34850E-18 9.40089E-19
 -1      4328 9.51492E-05-2.83127E-05-2.86446E-05-2.22054E-08-1.15178E-18 5.57498E-19
 -1      4329 9.50882E-05-2.82165E-05-2.86584E-05-5.13875E-09-7.31576E-19-5.33420E-19
 -1      4330 9.51787E-05-2.83607E-05-2.86366E-05-2.02666E-08-7.52793E-19 1.10635E-18
 -1      4331 9.52022E-05-2.84013E-05-2.86292E-05-1.20933E-08-3.12731E-19 1.10113E-18
 -1      4332 9.51617E-05-2.83307E-05-2.86413E-05-2.45696E-09-9.32474E-19 2.17970E-19
 -1      4333 9.52213E-05-2.84362E-05-2.86224E-05-1.09940E-08-5.63843E-19 4.85240E-19
 -1      4334 9.52361E-05-2.84654E-05-2.86161E-05-5.28447E-09 2.48871E-19 3.84424E-19
 -1      4335 9.52105E-05-2.84147E-05-2.86264E-05-8.70786E-10-8.31730E-19 5.53722E-19
 -1      4336 9.52475E-05-2.84902E-05-2.86104E-05-4.72389E-09 9.04522E-19-7.69052E-19
 -1      4337 9.52561E-05-2.85105E-05-2.86053E-05-8.41090E-10 1.62145E-18-1.47345E-18
 -1      4338 9.52412E-05-2.84751E-05-2.86139E-05 4.60733E-11-1.28251E-19 3.15189E-19
 -1      4339 9.52622E-05-2.85276E-05-2.86006E-05-6.16259E-10 1.11489E-18-2.20807E-18
 -1      4340 9.52664E-05-2.85414E-05-2.85964E-05 1.92667E-09 5.75462E-19-2.21621E-18
 -1      4341 9.52590E-05-2.85174E-05-2.86034E-05 5.57845E-10 7.25727E-19-1.44529E-18
 -1      4342 9.20711E-05-2.51200E-05-2.86982E-05 1.69556E-07 4.91018E-19-2.56690E-18
 -1      4343 9.16056E-05-2.47390E-05-2.86656E-05 1.96269E-07-3.31199E-19-2.54539E-18
 -1      4344 9.10780E-05-2.43401E-05-2.86126E-05 1.15241E-07-1.51584E-19-2.12634E-18
 -1      4345 9.05029E-05-2.39038E-05-2.85540E-05 1.26663E-07 2.82633E-19-2.25387E-18
 -1      4346 7.61321E-05-1.81933E-05-2.48555E-05-4.56188E-06-8.40382E-20 1.87817E-18
 -1      4347 7.52735E-05-1.89676E-05-2.40684E-05-8.83993E-06 6.44162E-19 2.15201E-18
 -1      4348 9.39579E-05-2.68753E-05-2.87526E-05 1.42643E-07 1.23310E-18-2.77472E-18
 -1      4349 9.37428E-05-2.66457E-05-2.87575E-05 1.70947E-07 9.68727E-19-3.28898E-18
 -1      4350 9.43317E-05-2.72805E-05-2.87394E-05 1.14166E-07 1.30134E-18-2.80258E-18
 -1      4351 9.41665E-05-2.70913E-05-2.87480E-05 1.47329E-07 1.13376E-18-2.88586E-18
 -1      4352 9.46138E-05-2.76047E-05-2.87206E-05 8.83856E-08 5.56687E-19-1.49268E-18
 -1      4353 9.44899E-05-2.74531E-05-2.87311E-05 1.16492E-07 9.93134E-19-2.16119E-18
 -1      4354 9.48234E-05-2.78615E-05-2.86998E-05 6.57349E-08-1.32558E-19-5.95524E-19
 -1      4355 9.47324E-05-2.77423E-05-2.87107E-05 8.86792E-08 7.68920E-19-1.03790E-18
 -1      4356 9.49759E-05-2.80614E-05-2.86790E-05 4.68912E-08-3.75243E-19-1.15820E-18
 -1      4357 9.49105E-05-2.79693E-05-2.86894E-05 6.50162E-08-5.21857E-19-1.13892E-18
 -1      4358 9.50843E-05-2.82143E-05-2.86595E-05 3.19044E-08 2.28154E-19-1.92565E-18
 -1      4359 9.50384E-05-2.81443E-05-2.86691E-05 4.58227E-08 3.84387E-19-1.89858E-18
 -1      4360 9.51591E-05-2.83290E-05-2.86421E-05 2.04353E-08-5.70023E-19-1.12527E-18
 -1      4361 9.51279E-05-2.82768E-05-2.86505E-05 3.08398E-08-3.51659E-19-1.59656E-18
 -1      4362 9.52088E-05-2.84134E-05-2.86271E-05 1.19655E-08-9.00112E-19 4.17749E-19
 -1      4363 9.51885E-05-2.83753E-05-2.86342E-05 1.95339E-08-4.71488E-19-2.92513E-19
 -1      4364 9.52402E-05-2.84741E-05-2.86143E-05 5.93175E-09-7.79697E-19 6.91445E-19
 -1      4365 9.52278E-05-2.84469E-05-2.86203E-05 1.12765E-08-9.03246E-19 4.70102E-20
 -1      4366 9.52584E-05-2.85166E-05-2.86038E-05 1.80058E-09-1.72538E-20-2.88791E-20
 -1      4367 9.52515E-05-2.84977E-05-2.86087E-05 5.44777E-09-3.12788E-19 2.68498E-20
 -1      4368 9.52674E-05-2.85454E-05-2.85952E-05-9.05002E-10 2.48009E-19-7.71426E-19
 -1      4369 9.52644E-05-2.85328E-05-2.85992E-05 1.49625E-09 2.47808E-19-7.98257E-19
 -1      4370 9.52692E-05-2.85732E-05-2.85840E-05-6.02266E-09 1.51654E-19 1.30561E-18
 -1      4371 9.52699E-05-2.85731E-05-2.85844E-05-2.55721E-09-5.82232E-19-8.68160E-19
 -1      4372 9.34761E-05-2.63816E-05-2.87571E-05 2.02725E-07 7.43653E-19-2.97862E-18
 -1      4373 8.15841E-05-1.95189E-05-2.66015E-05-2.05105E-06-2.53918E-19 8.92371E-19
 -1      4374 7.99201E-05-1.90210E-05-2.61190E-05-2.50393E-06 4.93306E-20 1.48079E-18
 -1      4375 7.70660E-05-2.11168E-05-2.40273E-05-1.19473E-05 7.55722E-19 1.71403E-18
 -1      4376 7.78463E-05-1.83810E-05-2.54951E-05-3.49405E-06-6.56368E-20 2.02262E-18
 -1      4377 9.52705E-05-2.85697E-05-2.85860E-05-1.67555E-09-5.51553E-19-9.05073E-19
 -1      4378 8.27932E-05-2.01686E-05-2.67967E-05-3.44211E-06 3.62119E-19-2.44797E-19
 -1      4379 8.62395E-05-2.14690E-05-2.77352E-05-1.82108E-06 6.34486E-19-3.41578E-19
 -1      4380 9.22716E-05-2.52795E-05-2.87012E-05-1.93681E-07 9.46435E-20-2.99179E-18
 -1      4381 9.33113E-05-2.62213E-05-2.87471E-05-7.47522E-08 9.47655E-19-3.70076E-18
 -1      4382 9.52704E-05-2.85695E-05-2.85861E-05 8.16583E-10-7.21106E-19-2.29339E-18
 -1      4383 9.52706E-05-2.85659E-05-2.85877E-05-1.31470E-09-7.43176E-19-9.29763E-19
 -1      4384 9.52702E-05-2.85696E-05-2.85860E-05 3.28255E-09-1.97573E-18-3.46519E-18
 -1      4385 9.52689E-05-2.85528E-05-2.85927E-05 1.95658E-09 1.77329E-20-3.06146E-18
 -1      4386 9.52700E-05-2.85616E-05-2.85893E-05 3.39707E-09-1.04490E-18-3.45893E-18
 -1      4387 8.98628E-05-2.34720E-05-2.84669E-05-1.87684E-09 8.50205E-20-2.18671E-18
 -1      4388 8.75262E-05-2.20189E-05-2.80870E-05-3.00308E-07 4.50995E-19-1.37482E-18
 -1      4389 8.64890E-05-2.14640E-05-2.78807E-05-4.43677E-07 5.51312E-19-5.07169E-19
 -1      4390 8.82720E-05-2.23148E-05-2.82434E-05 9.81420E-07-3.33061E-19-1.35531E-18
 -1      4391 9.52678E-05-2.85461E-05-2.85950E-05 8.44758E-10-5.38556E-19-2.10651E-18
 -1      4392 9.52705E-05-2.85619E-05-2.85894E-05-1.14699E-09-1.38042E-18-8.14747E-19
 -1      4393 9.52697E-05-2.85561E-05-2.85915E-05-1.16761E-09-8.19314E-19-7.99861E-19
 -1      4394 9.52702E-05-2.85657E-05-2.85876E-05 3.33102E-09-1.57404E-18-3.37143E-18
 -1      4395 8.91503E-05-2.29904E-05-2.83701E-05-2.11012E-08-3.24530E-19-1.89046E-18
 -1      4396 9.52704E-05-2.85616E-05-2.85895E-05 9.96893E-10-1.03686E-18-3.21697E-18
 -1      4397 8.83718E-05-2.25153E-05-2.82349E-05-2.12780E-07 3.41853E-20-1.59671E-18
 -3
    1PSTEP                         4           1           1          
  100CL  101 1.000000000        4397                     0    1           1
 -4  ERROR       1    1
 -5  STR(%)      1    1    0    0
 -1         1 1.21799E+01
 -1         2 2.53661E+01
 -1         3 2.70824E-04
 -1         4 3.15251E-04
 -1         5 1.26191E+01
 -1         6 1.21564E+01
 -1         7 1.21564E+01
 -1         8 3.71504E+00
 -1         9 2.22191E+00
 -1        10 1.69491E+00
 -1        11 1.40882E+00
 -1        12 1.17750E+00
 -1        13 9.92611E-01
 -1        14 7.42731E-01
 -1        15 4.64097E-01
 -1        16 8.53384E-01
 -1        17 1.20085E+00
 -1        18 1.54344E+00
 -1        19 1.88681E+00
 -1        20 2.41261E+00
 -1        21 3.60194E+00
 -1        22 7.88258E+00
 -1        23 1.21564E+01
 -1        24 3.52412E+00
 -1        25 2.18285E+00
 -1        26 1.06575E+00
 -1        27 3.88749E-01
 -1        28 4.26127E-01
 -1        29 6.37907E-01
 -1        30 1.04246E+00
 -1        31 1.55903E+00
 -1        32 2.50177E+00
 -1        33 3.12197E+00
 -1        34 3.12197E+00
 -1        35 3.19811E+00
 -1        36 3.19811E+00
 -1        37 2.63864E+00
 -1        38 1.65834E+00
 -1        39 1.24304E+00
 -1        40 9.50499E-01
 -1        41 9.50499E-01
 -1        42 8.78643E-01
 -1        43 8.78643E-01
 -1        44 7.95458E-01
 -1        45 6.61996E-01
 -1        46 5.25430E-01
 -1        47 4.13084E-01
 -1        48 3.52594E-01
 -1        49 2.97838E-01
 -1        50 2.41986E-01
 -1        51 1.90126E-01
 -1        52 1.44861E-01
 -1        53 1.07107E-01
 -1        54 8.64600E-02
 -1        55 7.20704E-02
 -1        56 5.85647E-02
 -1        57 4.65206E-02
 -1        58 3.61737E-02
 -1        59 2.75412E-02
 -1        60 2.07370E-02
 -1        61 1.72771E-02
 -1        62 1.40617E-02
 -1        63 1.11920E-02
 -1        64 8.69987E-03
 -1        65 6.59958E-03
 -1        66 4.97246E-03
 -1        67 3.55595E-03
 -1        68 3.06691E-03
 -1        69 2.55777E-03
 -1        70 1.88549E-03
 -1        71 1.45024E-03
 -1        72 1.26191E+01
 -1        73 2.73041E+00
 -1        74 1.57358E+00
 -1        75 1.13099E+00
 -1        76 9.71535E-01
 -1        77 1.28695E+00
 -1        78 1.44168E+00
 -1        79 1.90067E+00
 -1        80 2.03583E+00
 -1        81 2.73529E+00
 -1        82 4.31975E+00
 -1        83 4.95429E+00
 -1        84 5.59999E+00
 -1        85 5.59999E+00
 -1        86 4.31985E+00
 -1        87 2.29990E+00
 -1        88 1.63367E+00
 -1        89 1.87796E+00
 -1        90 1.91588E+00
 -1        91 1.91588E+00
 -1        92 1.71249E+00
 -1        93 1.43483E+00
 -1        94 1.18195E+00
 -1        95 9.31179E-01
 -1        96 7.07400E-01
 -1        97 5.20395E-01
 -1        98 3.84889E-01
 -1        99 2.94505E-01
 -1       100 2.20537E-01
 -1       101 1.61689E-01
 -1       102 1.15923E-01
 -1       103 8.10297E-02
 -1       104 5.49200E-02
 -1       105 4.49280E-02
 -1       106 3.67194E-02
 -1       107 2.94494E-02
 -1       108 2.31999E-02
 -1       109 1.84808E-02
 -1       110 1.62409E-02
 -1       111 1.38675E-02
 -1       112 1.15566E-02
 -1       113 9.41669E-03
 -1       114 7.49387E-03
 -1       115 5.95674E-03
 -1       116 4.57729E-03
 -1       117 3.31744E-03
 -1       118 2.57622E-03
 -1       119 1.91217E-03
 -1       120 1.07531E-03
 -1       121 4.88129E-04
 -1       122 4.88129E-04
 -1       123 3.46967E-04
 -1       124 1.36327E-04
 -1       125 2.30363E-04
 -1       126 3.30057E-04
 -1       127 3.85962E-04
 -1       128 4.00855E-04
 -1       129 4.00855E-04
 -1       130 3.84281E-04
 -1       131 3.24313E-04
 -1       132 2.27624E-04
 -1       133 1.39241E-04
 -1       134 3.49282E-04
 -1       135 6.47079E-04
 -1       136 7.75558E-04
 -1       137 2.56269E+01
 -1       138 3.14996E+01
 -1       139 3.14996E+01
 -1       140 2.43658E+01
 -1       141 1.22356E+01
 -1       142 1.22455E+01
 -1       143 1.22455E+01
 -1       144 1.25525E+01
 -1       145 1.25525E+01
 -1       146 1.23679E+01
 -1       147 2.64437E+01
 -1       148 2.98830E+01
 -1       149 2.98830E+01
 -1       150 2.46933E+01
 -1       151 2.43219E+01
 -1       152 2.43219E+01
 -1       153 4.16593E+01
 -1       154 4.16593E+01
 -1       155 1.54556E+01
 -1       156 1.29990E+01
 -1       157 1.29990E+01
 -1       158 1.25821E+01
 -1       159 1.25821E+01
 -1       160 1.77117E+01
 -1       161 4.49402E+01
 -1       162 4.49402E+01
 -1       163 2.53661E+01
 -1       164 5.93953E+00
 -1       165 2.64349E+00
 -1       166 1.93422E+00
 -1       167 1.54613E+00
 -1       168 1.25855E+00
 -1       169 1.04534E+00
 -1       170 8.58859E-01
 -1       171 5.71788E-01
 -1       172 6.03853E-01
 -1       173 9.95970E-01
 -1       174 1.33560E+00
 -1       175 1.60963E+00
 -1       176 1.99615E+00
 -1       177 2.71723E+00
 -1       178 3.85507E+00
 -1       179 1.26191E+01
 -1       180 3.52412E+00
 -1       181 2.18285E+00
 -1       182 1.06575E+00
 -1       183 4.32841E-01
 -1       184 2.37566E-01
 -1       185 4.26127E-01
 -1       186 7.12145E-01
 -1       187 1.12903E+00
 -1       188 1.72607E+00
 -1       189 2.50177E+00
 -1       190 3.12197E+00
 -1       191 3.07973E+00
 -1       192 3.19811E+00
 -1       193 2.63864E+00
 -1       194 1.76962E+00
 -1       195 1.24304E+00
 -1       196 8.88392E-01
 -1       197 9.50499E-01
 -1       198 8.53436E-01
 -1       199 8.78643E-01
 -1       200 7.95458E-01
 -1       201 6.61996E-01
 -1       202 5.51104E-01
 -1       203 4.72254E-01
 -1       204 3.90271E-01
 -1       205 3.07595E-01
 -1       206 2.41986E-01
 -1       207 1.90126E-01
 -1       208 1.49126E-01
 -1       209 1.14631E-01
 -1       210 8.64600E-02
 -1       211 7.20704E-02
 -1       212 5.85647E-02
 -1       213 4.65206E-02
 -1       214 3.61737E-02
 -1       215 2.75412E-02
 -1       216 2.14724E-02
 -1       217 1.72771E-02
 -1       218 1.40617E-02
 -1       219 1.11920E-02
 -1       220 8.83397E-03
 -1       221 6.94452E-03
 -1       222 5.38578E-03
 -1       223 4.14382E-03
 -1       224 3.06691E-03
 -1       225 2.55777E-03
 -1       226 1.88549E-03
 -1       227 1.45024E-03
 -1       228 2.73041E+00
 -1       229 1.57358E+00
 -1       230 1.13099E+00
 -1       231 9.71535E-01
 -1       232 9.53715E-01
 -1       233 1.28695E+00
 -1       234 1.44168E+00
 -1       235 1.90067E+00
 -1       236 2.03583E+00
 -1       237 2.87843E+00
 -1       238 4.31975E+00
 -1       239 4.95429E+00
 -1       240 5.59999E+00
 -1       241 4.31985E+00
 -1       242 2.29990E+00
 -1       243 1.39701E+00
 -1       244 1.63367E+00
 -1       245 1.87796E+00
 -1       246 1.91588E+00
 -1       247 1.71249E+00
 -1       248 1.43483E+00
 -1       249 1.18643E+00
 -1       250 9.62573E-01
 -1       251 7.51329E-01
 -1       252 5.67680E-01
 -1       253 4.16480E-01
 -1       254 3.00638E-01
 -1       255 2.20537E-01
 -1       256 1.61689E-01
 -1       257 1.17978E-01
 -1       258 8.46707E-02
 -1       259 5.92856E-02
 -1       260 4.49280E-02
 -1       261 3.67194E-02
 -1       262 2.94494E-02
 -1       263 2.31999E-02
 -1       264 1.84808E-02
 -1       265 1.62409E-02
 -1       266 1.38675E-02
 -1       267 1.15566E-02
 -1       268 9.41669E-03
 -1       269 7.49387E-03
 -1       270 5.95674E-03
 -1       271 4.57729E-03
 -1       272 3.37282E-03
 -1       273 2.57622E-03
 -1       274 1.91217E-03
 -1       275 1.12562E-03
 -1       276 5.87224E-04
 -1       277 5.87224E-04
 -1       278 4.92976E-04
 -1       279 3.74323E-04
 -1       280 5.74388E-04
 -1       281 6.94043E-04
 -1       282 7.39642E-04
 -1       283 7.39642E-04
 -1       284 7.39023E-04
 -1       285 6.87845E-04
 -1       286 5.70296E-04
 -1       287 3.74778E-04
 -1       288 4.86091E-04
 -1       289 4.86091E-04
 -1       290 7.75558E-04
 -1       291 2.89697E+01
 -1       292 2.94074E+01
 -1       293 3.14996E+01
 -1       294 2.60181E+01
 -1       295 1.21771E+01
 -1       296 1.22356E+01
 -1       297 1.22455E+01
 -1       298 1.20050E+01
 -1       299 1.25525E+01
 -1       300 1.18859E+01
 -1       301 1.23679E+01
 -1       302 2.91926E+01
 -1       303 2.98830E+01
 -1       304 2.46933E+01
 -1       305 2.89945E+01
 -1       306 2.89945E+01
 -1       307 3.58158E+01
 -1       308 4.16593E+01
 -1       309 1.59353E+01
 -1       310 1.11463E+01
 -1       311 1.29990E+01
 -1       312 1.21799E+01
 -1       313 1.17685E+01
 -1       314 1.25821E+01
 -1       315 1.10378E+01
 -1       316 1.78418E+01
 -1       317 4.49402E+01
 -1       318 3.93414E+01
 -1       319 2.89697E+01
 -1       320 1.58184E+00
 -1       321 2.61147E+00
 -1       322 1.19660E+00
 -1       323 1.08490E+00
 -1       324 9.94924E-01
 -1       325 7.88028E-01
 -1       326 4.26793E-01
 -1       327 8.17762E-01
 -1       328 1.21430E+00
 -1       329 1.44310E+00
 -1       330 1.65084E+00
 -1       331 1.95405E+00
 -1       332 1.91434E+00
 -1       333 1.67564E+00
 -1       334 1.24217E+00
 -1       335 1.04404E+00
 -1       336 6.35713E-01
 -1       337 3.81406E-01
 -1       338 3.85620E-01
 -1       339 5.25293E-01
 -1       340 8.62250E-01
 -1       341 1.30590E+00
 -1       342 1.61564E+00
 -1       343 1.99644E+00
 -1       344 2.05613E+00
 -1       345 2.06453E+00
 -1       346 2.02954E+00
 -1       347 1.65391E+00
 -1       348 1.27349E+00
 -1       349 7.83287E-01
 -1       350 4.39786E-01
 -1       351 4.92006E-01
 -1       352 6.08232E-01
 -1       353 6.56206E-01
 -1       354 6.22797E-01
 -1       355 5.53269E-01
 -1       356 4.90731E-01
 -1       357 4.29689E-01
 -1       358 3.58090E-01
 -1       359 2.86306E-01
 -1       360 2.20567E-01
 -1       361 1.63964E-01
 -1       362 1.17456E-01
 -1       363 8.57498E-02
 -1       364 6.23694E-02
 -1       365 4.52327E-02
 -1       366 3.64178E-02
 -1       367 3.02713E-02
 -1       368 2.45782E-02
 -1       369 1.95236E-02
 -1       370 1.51756E-02
 -1       371 1.20786E-02
 -1       372 1.02632E-02
 -1       373 8.46695E-03
 -1       374 6.78106E-03
 -1       375 5.38821E-03
 -1       376 4.17565E-03
 -1       377 3.16741E-03
 -1       378 2.35698E-03
 -1       379 1.74587E-03
 -1       380 1.27350E-03
 -1       381 1.09099E+00
 -1       382 1.15874E+00
 -1       383 1.23911E+00
 -1       384 1.22832E+00
 -1       385 1.07699E+00
 -1       386 1.20541E+00
 -1       387 1.80865E+00
 -1       388 2.57414E+00
 -1       389 3.23272E+00
 -1       390 3.05890E+00
 -1       391 3.04331E+00
 -1       392 2.75107E+00
 -1       393 1.64240E+00
 -1       394 1.17371E+00
 -1       395 1.26299E+00
 -1       396 1.43297E+00
 -1       397 1.43455E+00
 -1       398 1.38829E+00
 -1       399 1.24393E+00
 -1       400 1.08077E+00
 -1       401 8.96936E-01
 -1       402 7.14273E-01
 -1       403 5.50314E-01
 -1       404 4.12139E-01
 -1       405 3.00638E-01
 -1       406 2.15092E-01
 -1       407 1.60893E-01
 -1       408 1.17978E-01
 -1       409 8.46707E-02
 -1       410 5.92856E-02
 -1       411 4.02765E-02
 -1       412 2.83790E-02
 -1       413 2.42998E-02
 -1       414 2.02751E-02
 -1       415 1.65326E-02
 -1       416 1.31896E-02
 -1       417 1.02892E-02
 -1       418 8.80410E-03
 -1       419 7.36696E-03
 -1       420 5.96723E-03
 -1       421 4.95479E-03
 -1       422 3.98570E-03
 -1       423 3.07329E-03
 -1       424 2.23597E-03
 -1       425 1.70105E-03
 -1       426 1.12562E-03
 -1       427 6.09276E-04
 -1       428 1.17948E-03
 -1       429 1.17948E-03
 -1       430 7.66306E-04
 -1       431 9.33328E-04
 -1       432 1.00433E-03
 -1       433 1.00433E-03
 -1       434 1.00019E-03
 -1       435 1.00019E-03
 -1       436 9.28617E-04
 -1       437 7.59786E-04
 -1       438 5.90680E-04
 -1       439 1.00850E-03
 -1       440 2.94074E+01
 -1       441 3.16926E+01
 -1       442 3.16926E+01
 -1       443 1.78650E+01
 -1       444 1.07191E+01
 -1       445 1.77531E+00
 -1       446 9.09098E+00
 -1       447 1.00164E+01
 -1       448 1.08323E+01
 -1       449 9.15278E+00
 -1       450 7.29034E+00
 -1       451 1.13413E+01
 -1       452 2.00558E+01
 -1       453 2.56819E+01
 -1       454 3.38717E+01
 -1       455 3.38717E+01
 -1       456 2.72141E+01
 -1       457 2.38017E+01
 -1       458 1.40470E+01
 -1       459 7.82669E+00
 -1       460 7.84512E+00
 -1       461 1.08390E+01
 -1       462 1.01392E+01
 -1       463 1.04180E+01
 -1       464 8.02208E+00
 -1       465 8.64981E+00
 -1       466 1.52464E+01
 -1       467 2.66650E+01
 -1       468 2.84128E+01
 -1       469 6.48843E+00
 -1       470 6.14931E+00
 -1       471 1.41857E+01
 -1       472 2.06684E+01
 -1       473 1.93251E+00
 -1       474 1.11074E+00
 -1       475 1.11074E+00
 -1       476 7.80846E-01
 -1       477 8.08087E-01
 -1       478 1.14509E+00
 -1       479 1.44133E+00
 -1       480 1.50397E+00
 -1       481 1.95405E+00
 -1       482 1.33175E+00
 -1       483 1.05980E+00
 -1       484 7.35588E-01
 -1       485 6.33150E-01
 -1       486 7.36850E-01
 -1       487 8.38400E-01
 -1       488 1.17667E+00
 -1       489 1.38956E+00
 -1       490 1.57011E+00
 -1       491 1.91677E+00
 -1       492 1.76917E+00
 -1       493 1.91296E+00
 -1       494 1.56080E+00
 -1       495 1.35038E+00
 -1       496 1.13564E+00
 -1       497 8.69899E-01
 -1       498 7.92852E-01
 -1       499 6.38166E-01
 -1       500 6.64724E-01
 -1       501 6.32927E-01
 -1       502 5.71344E-01
 -1       503 5.19377E-01
 -1       504 4.60455E-01
 -1       505 3.92609E-01
 -1       506 3.22314E-01
 -1       507 2.56060E-01
 -1       508 1.97400E-01
 -1       509 1.47800E-01
 -1       510 1.07371E-01
 -1       511 7.54352E-02
 -1       512 5.09170E-02
 -1       513 3.26404E-02
 -1       514 2.28723E-02
 -1       515 1.79619E-02
 -1       516 1.57529E-02
 -1       517 1.33816E-02
 -1       518 1.10531E-02
 -1       519 8.88906E-03
 -1       520 7.33451E-03
 -1       521 6.25756E-03
 -1       522 5.13887E-03
 -1       523 4.06427E-03
 -1       524 3.18180E-03
 -1       525 2.37515E-03
 -1       526 1.71120E-03
 -1       527 1.65206E+00
 -1       528 1.80359E+00
 -1       529 2.11162E+00
 -1       530 2.35266E+00
 -1       531 3.78735E+00
 -1       532 6.78243E+00
 -1       533 3.35507E+00
 -1       534 5.22527E+00
 -1       535 2.85678E+00
 -1       536 2.05065E+00
 -1       537 2.26731E+00
 -1       538 1.79862E+00
 -1       539 1.63297E+00
 -1       540 1.46633E+00
 -1       541 1.41359E+00
 -1       542 1.29418E+00
 -1       543 1.10677E+00
 -1       544 9.12276E-01
 -1       545 7.28293E-01
 -1       546 5.65541E-01
 -1       547 4.28489E-01
 -1       548 3.17174E-01
 -1       549 2.31623E-01
 -1       550 1.66600E-01
 -1       551 1.16925E-01
 -1       552 7.96931E-02
 -1       553 5.56541E-02
 -1       554 3.90635E-02
 -1       555 2.83790E-02
 -1       556 2.42998E-02
 -1       557 2.02751E-02
 -1       558 1.65326E-02
 -1       559 1.31896E-02
 -1       560 1.03619E-02
 -1       561 8.80410E-03
 -1       562 7.36696E-03
 -1       563 5.96723E-03
 -1       564 4.73626E-03
 -1       565 3.68989E-03
 -1       566 2.74154E-03
 -1       567 1.96835E-03
 -1       568 1.42187E-03
 -1       569 1.16322E-03
 -1       570 1.25883E-03
 -1       571 1.30847E-03
 -1       572 9.56014E-04
 -1       573 1.25883E-03
 -1       574 1.24368E-03
 -1       575 1.25357E-03
 -1       576 1.25357E-03
 -1       577 1.15487E-03
 -1       578 9.30761E-04
 -1       579 9.30761E-04
 -1       580 3.16926E+01
 -1       581 2.22004E+01
 -1       582 2.84128E+01
 -1       583 1.48720E+00
 -1       584 1.45350E+01
 -1       585 9.56870E+00
 -1       586 5.78960E+00
 -1       587 8.31508E+00
 -1       588 1.04559E+00
 -1       589 8.11079E+00
 -1       590 8.01946E+00
 -1       591 7.03533E+00
 -1       592 6.67436E+00
 -1       593 6.78243E+00
 -1       594 6.83459E+00
 -1       595 1.13237E+01
 -1       596 1.53237E+01
 -1       597 2.56819E+01
 -1       598 3.38717E+01
 -1       599 2.72141E+01
 -1       600 1.38708E+01
 -1       601 4.36807E+00
 -1       602 5.15384E+00
 -1       603 8.35955E+00
 -1       604 5.87619E+00
 -1       605 4.73546E+00
 -1       606 9.74351E+00
 -1       607 1.86415E+01
 -1       608 1.77531E+00
 -1       609 1.95405E+00
 -1       610 7.17814E+00
 -1       611 1.77531E+00
 -1       612 5.28761E+00
 -1       613 6.27103E+00
 -1       614 1.59844E+01
 -1       615 1.09402E-03
 -1       616 1.29268E+00
 -1       617 1.01132E+00
 -1       618 1.63609E+00
 -1       619 1.63609E+00
 -1       620 1.82278E+00
 -1       621 5.68382E+00
 -1       622 1.48720E+00
 -1       623 9.88663E-01
 -1       624 1.01362E+00
 -1       625 1.18309E+00
 -1       626 1.41940E+00
 -1       627 1.59505E+00
 -1       628 1.68330E+00
 -1       629 2.04645E+00
 -1       630 2.83511E+00
 -1       631 2.73881E+00
 -1       632 2.32806E+00
 -1       633 1.69586E+00
 -1       634 1.58110E+00
 -1       635 1.40124E+00
 -1       636 1.26520E+00
 -1       637 9.53267E-01
 -1       638 8.92993E-01
 -1       639 7.85008E-01
 -1       640 6.64490E-01
 -1       641 5.76858E-01
 -1       642 5.02968E-01
 -1       643 4.23658E-01
 -1       644 3.46805E-01
 -1       645 2.76869E-01
 -1       646 2.15967E-01
 -1       647 1.64711E-01
 -1       648 1.22767E-01
 -1       649 8.92808E-02
 -1       650 6.31506E-02
 -1       651 4.32044E-02
 -1       652 2.83174E-02
 -1       653 1.74723E-02
 -1       654 1.09618E-02
 -1       655 9.40528E-03
 -1       656 8.81933E-03
 -1       657 7.86476E-03
 -1       658 6.73749E-03
 -1       659 5.56800E-03
 -1       660 4.68157E-03
 -1       661 3.89018E-03
 -1       662 3.09028E-03
 -1       663 2.33234E-03
 -1       664 1.71120E-03
 -1       665 3.20933E+00
 -1       666 3.44487E+00
 -1       667 1.95182E+00
 -1       668 4.30678E+00
 -1       669 3.59475E+00
 -1       670 2.30212E+00
 -1       671 3.12262E+00
 -1       672 3.15650E+00
 -1       673 2.63156E+00
 -1       674 2.18426E+00
 -1       675 1.72022E+00
 -1       676 1.50610E+00
 -1       677 1.27138E+00
 -1       678 1.04345E+00
 -1       679 8.37560E-01
 -1       680 6.59693E-01
 -1       681 5.10754E-01
 -1       682 3.88981E-01
 -1       683 2.91370E-01
 -1       684 2.14474E-01
 -1       685 1.54868E-01
 -1       686 1.09384E-01
 -1       687 7.52259E-02
 -1       688 5.00039E-02
 -1       689 3.17274E-02
 -1       690 1.99429E-02
 -1       691 1.36823E-02
 -1       692 1.18229E-02
 -1       693 1.02054E-02
 -1       694 8.54476E-03
 -1       695 7.06159E-03
 -1       696 6.15588E-03
 -1       697 5.16038E-03
 -1       698 4.16664E-03
 -1       699 3.31440E-03
 -1       700 2.62711E-03
 -1       701 1.96371E-03
 -1       702 1.66293E-03
 -1       703 1.49558E-03
 -1       704 1.14902E-03
 -1       705 1.51462E-03
 -1       706 1.49084E-03
 -1       707 1.51462E-03
 -1       708 1.49767E-03
 -1       709 1.49767E-03
 -1       710 1.33716E-03
 -1       711 6.20953E+00
 -1       712 1.10905E+01
 -1       713 1.43227E+01
 -1       714 1.00033E+01
 -1       715 5.35632E+00
 -1       716 4.88118E+00
 -1       717 1.65206E+00
 -1       718 1.61813E+01
 -1       719 3.45411E+00
 -1       720 9.45401E-01
 -1       721 1.54140E+00
 -1       722 1.30426E+01
 -1       723 6.98614E+00
 -1       724 1.25889E+00
 -1       725 2.52794E+00
 -1       726 3.30627E+00
 -1       727 1.57566E+01
 -1       728 1.37305E+01
 -1       729 4.61311E+00
 -1       730 1.18032E+01
 -1       731 5.04958E+00
 -1       732 1.84820E+01
 -1       733 1.44265E+01
 -1       734 6.02520E+00
 -1       735 4.81686E+00
 -1       736 9.19682E+00
 -1       737 1.25815E+00
 -1       738 1.20491E+00
 -1       739 1.36579E-03
 -1       740 1.24739E-03
 -1       741 3.86798E+00
 -1       742 6.49891E+00
 -1       743 1.61124E+00
 -1       744 7.22979E+00
 -1       745 1.42483E-03
 -1       746 1.12273E+01
 -1       747 1.05308E+01
 -1       748 1.25889E+00
 -1       749 6.10620E+00
 -1       750 2.00472E+00
 -1       751 6.78243E+00
 -1       752 2.08330E+00
 -1       753 1.52157E+00
 -1       754 1.68139E+00
 -1       755 1.97951E+00
 -1       756 2.27959E+00
 -1       757 2.04645E+00
 -1       758 5.46063E+00
 -1       759 3.44487E+00
 -1       760 1.94348E+00
 -1       761 2.68950E+00
 -1       762 1.83599E+00
 -1       763 1.51123E+00
 -1       764 1.27413E+00
 -1       765 1.02306E+00
 -1       766 8.23491E-01
 -1       767 6.95832E-01
 -1       768 5.73178E-01
 -1       769 4.66626E-01
 -1       770 3.70962E-01
 -1       771 2.89040E-01
 -1       772 2.24410E-01
 -1       773 1.73345E-01
 -1       774 1.29963E-01
 -1       775 9.44680E-02
 -1       776 6.74714E-02
 -1       777 4.69711E-02
 -1       778 3.22065E-02
 -1       779 2.12700E-02
 -1       780 1.33316E-02
 -1       781 7.70657E-03
 -1       782 5.12830E-03
 -1       783 5.61612E-03
 -1       784 5.51788E-03
 -1       785 5.06205E-03
 -1       786 4.41073E-03
 -1       787 3.71207E-03
 -1       788 3.19628E-03
 -1       789 2.61200E-03
 -1       790 2.00809E-03
 -1       791 4.12956E+00
 -1       792 5.72480E+00
 -1       793 4.31119E+00
 -1       794 2.52458E+00
 -1       795 1.92533E+00
 -1       796 1.45720E+00
 -1       797 1.13141E+00
 -1       798 8.80215E-01
 -1       799 6.92617E-01
 -1       800 5.31615E-01
 -1       801 3.99427E-01
 -1       802 2.94165E-01
 -1       803 2.20674E-01
 -1       804 1.63543E-01
 -1       805 1.19226E-01
 -1       806 8.52334E-02
 -1       807 5.95029E-02
 -1       808 4.03247E-02
 -1       809 2.62730E-02
 -1       810 1.61821E-02
 -1       811 9.33086E-03
 -1       812 7.96450E-03
 -1       813 7.73547E-03
 -1       814 7.06159E-03
 -1       815 6.15588E-03
 -1       816 5.16038E-03
 -1       817 4.34261E-03
 -1       818 3.63690E-03
 -1       819 2.91307E-03
 -1       820 2.21244E-03
 -1       821 1.77420E-03
 -1       822 1.83507E+00
 -1       823 1.72476E-03
 -1       824 1.61980E-03
 -1       825 8.13673E+00
 -1       826 1.12273E+01
 -1       827 1.72476E-03
 -1       828 9.87290E+00
 -1       829 5.91166E+00
 -1       830 7.72941E+00
 -1       831 2.68950E+00
 -1       832 9.33769E+00
 -1       833 1.38806E+00
 -1       834 8.65901E+00
 -1       835 1.01858E+01
 -1       836 1.01858E+01
 -1       837 2.97572E+00
 -1       838 1.71528E-03
 -1       839 1.76340E+00
 -1       840 1.62323E+00
 -1       841 2.75339E+00
 -1       842 3.38854E+00
 -1       843 1.83507E+00
 -1       844 1.75433E-03
 -1       845 3.52939E+00
 -1       846 1.75433E-03
 -1       847 8.09470E+00
 -1       848 1.85592E+00
 -1       849 1.72613E-03
 -1       850 2.54454E+00
 -1       851 4.51530E+00
 -1       852 4.19218E+00
 -1       853 6.94537E+00
 -1       854 6.68124E+00
 -1       855 1.70845E-03
 -1       856 5.59345E+00
 -1       857 5.66539E+00
 -1       858 1.59685E+00
 -1       859 5.73324E+00
 -1       860 8.14200E+00
 -1       861 2.08330E+00
 -1       862 2.04745E+00
 -1       863 2.38393E+00
 -1       864 6.88547E+00
 -1       865 2.98837E+00
 -1       866 2.56075E+00
 -1       867 1.94646E+00
 -1       868 1.57914E+00
 -1       869 1.24389E+00
 -1       870 9.41253E-01
 -1       871 7.03011E-01
 -1       872 5.31698E-01
 -1       873 4.33341E-01
 -1       874 3.55636E-01
 -1       875 2.84168E-01
 -1       876 2.21806E-01
 -1       877 1.69236E-01
 -1       878 1.26201E-01
 -1       879 9.17341E-02
 -1       880 6.48812E-02
 -1       881 4.48320E-02
 -1       882 3.03398E-02
 -1       883 1.96029E-02
 -1       884 1.18394E-02
 -1       885 6.39807E-03
 -1       886 2.88818E-03
 -1       887 3.52359E-03
 -1       888 3.88257E-03
 -1       889 3.81251E-03
 -1       890 3.48007E-03
 -1       891 3.00292E-03
 -1       892 2.61352E-03
 -1       893 2.55204E+00
 -1       894 1.93900E-03
 -1       895 1.42863E+00
 -1       896 1.12047E+00
 -1       897 8.67381E-01
 -1       898 6.65276E-01
 -1       899 5.05285E-01
 -1       900 3.79607E-01
 -1       901 2.81611E-01
 -1       902 2.05876E-01
 -1       903 1.47917E-01
 -1       904 1.04099E-01
 -1       905 7.24653E-02
 -1       906 4.94588E-02
 -1       907 3.25673E-02
 -1       908 2.05501E-02
 -1       909 1.20740E-02
 -1       910 6.78504E-03
 -1       911 4.30037E-03
 -1       912 4.94465E-03
 -1       913 4.97750E-03
 -1       914 4.63429E-03
 -1       915 4.07942E-03
 -1       916 3.44959E-03
 -1       917 3.44959E-03
 -1       918 3.41946E-03
 -1       919 8.14200E+00
 -1       920 1.85057E-03
 -1       921 3.37897E+00
 -1       922 8.09470E+00
 -1       923 6.34536E+00
 -1       924 1.83688E+00
 -1       925 1.70270E+00
 -1       926 6.47107E+00
 -1       927 3.83516E+00
 -1       928 2.62610E+00
 -1       929 3.37897E+00
 -1       930 3.18156E-03
 -1       931 5.32920E+00
 -1       932 2.78567E+00
 -1       933 1.93900E-03
 -1       934 2.13392E-03
 -1       935 3.34791E+00
 -1       936 6.36894E+00
 -1       937 1.85726E-03
 -1       938 3.29618E+00
 -1       939 4.05142E+00
 -1       940 5.57529E+00
 -1       941 6.09225E+00
 -1       942 5.25319E+00
 -1       943 3.70212E+00
 -1       944 1.85149E-03
 -1       945 1.85726E-03
 -1       946 9.99649E-01
 -1       947 3.83516E+00
 -1       948 3.41946E-03
 -1       949 2.85664E+00
 -1       950 2.70545E+00
 -1       951 1.94646E+00
 -1       952 1.40974E+00
 -1       953 1.04046E+00
 -1       954 8.07925E-01
 -1       955 6.54999E-01
 -1       956 5.19582E-01
 -1       957 4.08458E-01
 -1       958 3.16650E-01
 -1       959 2.42509E-01
 -1       960 1.83178E-01
 -1       961 1.36413E-01
 -1       962 9.94364E-02
 -1       963 7.12495E-02
 -1       964 4.96609E-02
 -1       965 3.35351E-02
 -1       966 2.25448E-02
 -1       967 1.45029E-02
 -1       968 8.73617E-03
 -1       969 5.01846E-03
 -1       970 2.85284E-03
 -1       971 2.22085E-03
 -1       972 2.71444E-03
 -1       973 2.80333E-03
 -1       974 2.63563E-03
 -1       975 2.31734E-03
 -1       976 7.52605E-01
 -1       977 2.49882E+00
 -1       978 1.34443E+00
 -1       979 5.69802E-01
 -1       980 4.31330E-01
 -1       981 3.24798E-01
 -1       982 2.42467E-01
 -1       983 1.78803E-01
 -1       984 1.29878E-01
 -1       985 9.26182E-02
 -1       986 6.44985E-02
 -1       987 4.42177E-02
 -1       988 2.97559E-02
 -1       989 1.91890E-02
 -1       990 1.16273E-02
 -1       991 6.44869E-03
 -1       992 3.27819E-03
 -1       993 3.12301E-03
 -1       994 3.51682E-03
 -1       995 3.48801E-03
 -1       996 3.22040E-03
 -1       997 3.44959E-03
 -1       998 5.40330E+00
 -1       999 2.71890E+00
 -1      1000 1.83688E+00
 -1      1001 3.29618E+00
 -1      1002 5.40330E+00
 -1      1003 3.54062E+00
 -1      1004 5.32489E+00
 -1      1005 6.36894E+00
 -1      1006 4.24717E+00
 -1      1007 5.69833E+00
 -1      1008 4.62086E+00
 -1      1009 1.61868E-03
 -1      1010 4.24911E+00
 -1      1011 4.05032E+00
 -1      1012 4.55172E+00
 -1      1013 2.38187E-03
 -1      1014 3.43356E+00
 -1      1015 3.54062E+00
 -1      1016 1.87706E-03
 -1      1017 2.23324E+00
 -1      1018 1.33024E+00
 -1      1019 9.88613E-01
 -1      1020 7.71444E-01
 -1      1021 6.00226E-01
 -1      1022 4.54002E-01
 -1      1023 3.49317E-01
 -1      1024 2.65644E-01
 -1      1025 2.01102E-01
 -1      1026 1.51840E-01
 -1      1027 1.14977E-01
 -1      1028 8.78572E-02
 -1      1029 6.67449E-02
 -1      1030 4.90280E-02
 -1      1031 3.52241E-02
 -1      1032 2.47880E-02
 -1      1033 1.74235E-02
 -1      1034 1.18239E-02
 -1      1035 7.65583E-03
 -1      1036 4.62293E-03
 -1      1037 2.47117E-03
 -1      1038 1.41951E-03
 -1      1039 1.70328E-03
 -1      1040 1.74829E-03
 -1      1041 4.31378E-01
 -1      1042 3.29172E-01
 -1      1043 2.50243E-01
 -1      1044 1.88309E-01
 -1      1045 1.40138E-01
 -1      1046 1.02582E-01
 -1      1047 7.38220E-02
 -1      1048 5.18066E-02
 -1      1049 3.53155E-02
 -1      1050 2.40247E-02
 -1      1051 1.57327E-02
 -1      1052 9.73907E-03
 -1      1053 5.90681E-03
 -1      1054 3.33614E-03
 -1      1055 2.03405E-03
 -1      1056 2.53428E-03
 -1      1057 2.64700E-03
 -1      1058 2.02802E+00
 -1      1059 7.51068E-01
 -1      1060 3.28930E+00
 -1      1061 1.02070E+00
 -1      1062 1.40479E+00
 -1      1063 5.64860E-01
 -1      1064 4.01610E+00
 -1      1065 2.75841E-03
 -1      1066 2.08757E-03
 -1      1067 4.55172E+00
 -1      1068 2.75062E-03
 -1      1069 2.10716E-03
 -1      1070 2.95078E+00
 -1      1071 1.55516E-03
 -1      1072 2.20962E-01
 -1      1073 2.78259E+00
 -1      1074 1.64230E+00
 -1      1075 1.15429E+00
 -1      1076 9.95764E-01
 -1      1077 9.95764E-01
 -1      1078 4.47438E-01
 -1      1079 3.28233E-01
 -1      1080 2.44903E-01
 -1      1081 2.40543E-01
 -1      1082 1.83734E-01
 -1      1083 1.89491E-01
 -1      1084 8.66097E-02
 -1      1085 6.37729E-02
 -1      1086 4.62982E-02
 -1      1087 3.27151E-02
 -1      1088 2.29236E-02
 -1      1089 1.58232E-02
 -1      1090 1.05055E-02
 -1      1091 6.60302E-03
 -1      1092 3.80307E-03
 -1      1093 1.84615E-03
 -1      1094 1.31655E-03
 -1      1095 1.51262E-03
 -1      1096 2.86156E-01
 -1      1097 3.57868E-01
 -1      1098 1.99325E-01
 -1      1099 1.09194E-01
 -1      1100 9.64167E-02
 -1      1101 7.15087E-02
 -1      1102 5.12515E-02
 -1      1103 3.63768E-02
 -1      1104 2.51817E-02
 -1      1105 1.67946E-02
 -1      1106 1.06468E-02
 -1      1107 6.24671E-03
 -1      1108 3.33614E-03
 -1      1109 1.55173E-03
 -1      1110 1.89556E-03
 -1      1111 1.95135E+00
 -1      1112 2.97464E+00
 -1      1113 1.07190E+00
 -1      1114 1.64346E-03
 -1      1115 9.50251E-01
 -1      1116 6.26090E-01
 -1      1117 2.25834E-03
 -1      1118 1.92769E-03
 -1      1119 4.41868E-01
 -1      1120 1.00841E+00
 -1      1121 2.40543E-01
 -1      1122 2.67932E+00
 -1      1123 2.03932E+00
 -1      1124 9.50251E-01
 -1      1125 3.92646E-01
 -1      1126 3.07059E-01
 -1      1127 2.40543E-01
 -1      1128 1.99325E-01
 -1      1129 7.89491E-02
 -1      1130 5.76641E-02
 -1      1131 4.11965E-02
 -1      1132 2.86452E-02
 -1      1133 1.98619E-02
 -1      1134 1.34648E-02
 -1      1135 8.72999E-03
 -1      1136 5.29603E-03
 -1      1137 2.86283E-03
 -1      1138 1.23101E-03
 -1      1139 1.37359E-03
 -1      1140 1.31655E-03
 -1      1141 1.21564E+01
 -1      1142 7.93571E+00
 -1      1143 2.96847E+00
 -1      1144 1.95841E+00
 -1      1145 1.55187E+00
 -1      1146 1.29316E+00
 -1      1147 1.08505E+00
 -1      1148 8.67671E-01
 -1      1149 6.03414E-01
 -1      1150 6.58741E-01
 -1      1151 1.02712E+00
 -1      1152 1.37214E+00
 -1      1153 1.71513E+00
 -1      1154 2.14971E+00
 -1      1155 3.00727E+00
 -1      1156 5.74226E+00
 -1      1157 1.02508E+01
 -1      1158 1.21564E+01
 -1      1159 7.84025E+00
 -1      1160 2.85348E+00
 -1      1161 1.62430E+00
 -1      1162 7.27247E-01
 -1      1163 4.07438E-01
 -1      1164 5.32017E-01
 -1      1165 8.40186E-01
 -1      1166 1.30075E+00
 -1      1167 2.03040E+00
 -1      1168 2.81187E+00
 -1      1169 3.12197E+00
 -1      1170 3.16004E+00
 -1      1171 3.19811E+00
 -1      1172 2.91837E+00
 -1      1173 2.14849E+00
 -1      1174 1.45069E+00
 -1      1175 1.09677E+00
 -1      1176 9.50499E-01
 -1      1177 9.14571E-01
 -1      1178 8.78643E-01
 -1      1179 8.37050E-01
 -1      1180 7.28727E-01
 -1      1181 5.93713E-01
 -1      1182 4.69257E-01
 -1      1183 3.82839E-01
 -1      1184 3.25216E-01
 -1      1185 2.69912E-01
 -1      1186 2.16056E-01
 -1      1187 1.67494E-01
 -1      1188 1.25984E-01
 -1      1189 9.67833E-02
 -1      1190 7.92652E-02
 -1      1191 6.53175E-02
 -1      1192 5.25426E-02
 -1      1193 4.13471E-02
 -1      1194 3.18574E-02
 -1      1195 2.41391E-02
 -1      1196 1.90070E-02
 -1      1197 1.56694E-02
 -1      1198 1.26268E-02
 -1      1199 9.94592E-03
 -1      1200 7.64973E-03
 -1      1201 5.78602E-03
 -1      1202 4.26420E-03
 -1      1203 3.31143E-03
 -1      1204 2.81234E-03
 -1      1205 2.22163E-03
 -1      1206 1.66787E-03
 -1      1207 8.82744E-04
 -1      1208 1.26191E+01
 -1      1209 7.67473E+00
 -1      1210 2.15200E+00
 -1      1211 1.35229E+00
 -1      1212 1.05126E+00
 -1      1213 1.12924E+00
 -1      1214 1.36432E+00
 -1      1215 1.67118E+00
 -1      1216 1.96825E+00
 -1      1217 2.38556E+00
 -1      1218 3.52752E+00
 -1      1219 4.63702E+00
 -1      1220 5.27714E+00
 -1      1221 5.59999E+00
 -1      1222 4.95992E+00
 -1      1223 3.30988E+00
 -1      1224 1.96679E+00
 -1      1225 1.75581E+00
 -1      1226 1.89692E+00
 -1      1227 1.91588E+00
 -1      1228 1.81418E+00
 -1      1229 1.57366E+00
 -1      1230 1.30839E+00
 -1      1231 1.05656E+00
 -1      1232 8.19289E-01
 -1      1233 6.13898E-01
 -1      1234 4.52642E-01
 -1      1235 3.39697E-01
 -1      1236 2.57521E-01
 -1      1237 1.91113E-01
 -1      1238 1.38806E-01
 -1      1239 9.84763E-02
 -1      1240 6.79749E-02
 -1      1241 4.99240E-02
 -1      1242 4.08237E-02
 -1      1243 3.30844E-02
 -1      1244 2.63247E-02
 -1      1245 2.08404E-02
 -1      1246 1.73609E-02
 -1      1247 1.50542E-02
 -1      1248 1.27120E-02
 -1      1249 1.04866E-02
 -1      1250 8.45528E-03
 -1      1251 6.72531E-03
 -1      1252 5.26701E-03
 -1      1253 3.94737E-03
 -1      1254 2.94683E-03
 -1      1255 2.24419E-03
 -1      1256 1.49374E-03
 -1      1257 6.73067E-04
 -1      1258 3.79477E-04
 -1      1259 4.88129E-04
 -1      1260 4.17548E-04
 -1      1261 2.41647E-04
 -1      1262 1.83345E-04
 -1      1263 2.80210E-04
 -1      1264 3.58009E-04
 -1      1265 3.93409E-04
 -1      1266 4.00855E-04
 -1      1267 3.92568E-04
 -1      1268 3.54297E-04
 -1      1269 2.75968E-04
 -1      1270 1.83432E-04
 -1      1271 2.44261E-04
 -1      1272 4.98180E-04
 -1      1273 7.11318E-04
 -1      1274 5.45404E-04
 -1      1275 2.54965E+01
 -1      1276 2.85632E+01
 -1      1277 3.14996E+01
 -1      1278 2.79327E+01
 -1      1279 1.83007E+01
 -1      1280 1.22406E+01
 -1      1281 1.22455E+01
 -1      1282 1.23990E+01
 -1      1283 1.25525E+01
 -1      1284 1.24602E+01
 -1      1285 1.94058E+01
 -1      1286 2.81633E+01
 -1      1287 2.98830E+01
 -1      1288 2.72882E+01
 -1      1289 2.45076E+01
 -1      1290 2.43219E+01
 -1      1291 3.29906E+01
 -1      1292 4.16593E+01
 -1      1293 2.85575E+01
 -1      1294 1.42273E+01
 -1      1295 1.29990E+01
 -1      1296 1.25894E+01
 -1      1297 1.23810E+01
 -1      1298 1.25821E+01
 -1      1299 1.51469E+01
 -1      1300 3.13259E+01
 -1      1301 4.49402E+01
 -1      1302 3.51532E+01
 -1      1303 2.53661E+01
 -1      1304 1.21564E+01
 -1      1305 4.82729E+00
 -1      1306 9.04796E+00
 -1      1307 2.43270E+00
 -1      1308 3.17927E+00
 -1      1309 4.29151E+00
 -1      1310 1.81457E+00
 -1      1311 2.07807E+00
 -1      1312 2.28886E+00
 -1      1313 1.47747E+00
 -1      1314 1.62052E+00
 -1      1315 1.74017E+00
 -1      1316 1.21802E+00
 -1      1317 1.33369E+00
 -1      1318 1.40234E+00
 -1      1319 1.01898E+00
 -1      1320 1.11142E+00
 -1      1321 1.15195E+00
 -1      1322 8.00795E-01
 -1      1323 9.25735E-01
 -1      1324 9.52101E-01
 -1      1325 5.17943E-01
 -1      1326 6.57259E-01
 -1      1327 7.15324E-01
 -1      1328 7.28618E-01
 -1      1329 5.33975E-01
 -1      1330 5.87820E-01
 -1      1331 1.09841E+00
 -1      1332 9.24677E-01
 -1      1333 7.99912E-01
 -1      1334 1.43952E+00
 -1      1335 1.26823E+00
 -1      1336 1.16579E+00
 -1      1337 1.74822E+00
 -1      1338 1.57654E+00
 -1      1339 1.47262E+00
 -1      1340 2.20438E+00
 -1      1341 1.94148E+00
 -1      1342 1.80289E+00
 -1      1343 3.15958E+00
 -1      1344 2.56492E+00
 -1      1345 2.35669E+00
 -1      1346 5.86882E+00
 -1      1347 3.72850E+00
 -1      1348 3.28615E+00
 -1      1349 1.26191E+01
 -1      1350 1.02508E+01
 -1      1351 8.23706E+00
 -1      1352 1.26191E+01
 -1      1353 7.84025E+00
 -1      1354 3.52412E+00
 -1      1355 2.85348E+00
 -1      1356 2.18285E+00
 -1      1357 2.85348E+00
 -1      1358 1.62430E+00
 -1      1359 1.06575E+00
 -1      1360 1.62430E+00
 -1      1361 7.49293E-01
 -1      1362 4.10795E-01
 -1      1363 7.49293E-01
 -1      1364 3.13157E-01
 -1      1365 3.31847E-01
 -1      1366 3.35203E-01
 -1      1367 4.26127E-01
 -1      1368 5.32017E-01
 -1      1369 3.31847E-01
 -1      1370 6.75026E-01
 -1      1371 8.77305E-01
 -1      1372 5.69136E-01
 -1      1373 1.08575E+00
 -1      1374 1.34403E+00
 -1      1375 9.20588E-01
 -1      1376 1.64255E+00
 -1      1377 2.11392E+00
 -1      1378 1.42755E+00
 -1      1379 2.50177E+00
 -1      1380 2.81187E+00
 -1      1381 2.11392E+00
 -1      1382 3.12197E+00
 -1      1383 3.12197E+00
 -1      1384 2.81187E+00
 -1      1385 3.10085E+00
 -1      1386 3.13892E+00
 -1      1387 3.10085E+00
 -1      1388 3.19811E+00
 -1      1389 3.19811E+00
 -1      1390 3.13892E+00
 -1      1391 2.91837E+00
 -1      1392 2.63864E+00
 -1      1393 2.91837E+00
 -1      1394 2.20413E+00
 -1      1395 1.71398E+00
 -1      1396 2.20413E+00
 -1      1397 1.45069E+00
 -1      1398 1.24304E+00
 -1      1399 1.50633E+00
 -1      1400 1.06572E+00
 -1      1401 9.19446E-01
 -1      1402 1.06572E+00
 -1      1403 9.50499E-01
 -1      1404 9.50499E-01
 -1      1405 9.19446E-01
 -1      1406 9.01968E-01
 -1      1407 8.66039E-01
 -1      1408 9.01968E-01
 -1      1409 8.78643E-01
 -1      1410 8.78643E-01
 -1      1411 8.66039E-01
 -1      1412 8.37050E-01
 -1      1413 7.95458E-01
 -1      1414 8.37050E-01
 -1      1415 7.28727E-01
 -1      1416 6.61996E-01
 -1      1417 7.28727E-01
 -1      1418 6.06550E-01
 -1      1419 5.38267E-01
 -1      1420 6.06550E-01
 -1      1421 4.98842E-01
 -1      1422 4.42669E-01
 -1      1423 5.11679E-01
 -1      1424 4.01677E-01
 -1      1425 3.71432E-01
 -1      1426 4.31262E-01
 -1      1427 3.30094E-01
 -1      1428 3.02716E-01
 -1      1429 3.48933E-01
 -1      1430 2.69912E-01
 -1      1431 2.41986E-01
 -1      1432 2.74790E-01
 -1      1433 2.16056E-01
 -1      1434 1.90126E-01
 -1      1435 2.16056E-01
 -1      1436 1.69626E-01
 -1      1437 1.46993E-01
 -1      1438 1.69626E-01
 -1      1439 1.29746E-01
 -1      1440 1.10869E-01
 -1      1441 1.31879E-01
 -1      1442 9.67833E-02
 -1      1443 8.64600E-02
 -1      1444 1.00546E-01
 -1      1445 7.92652E-02
 -1      1446 7.20704E-02
 -1      1447 7.92652E-02
 -1      1448 6.53175E-02
 -1      1449 5.85647E-02
 -1      1450 6.53175E-02
 -1      1451 5.25426E-02
 -1      1452 4.65206E-02
 -1      1453 5.25426E-02
 -1      1454 4.13471E-02
 -1      1455 3.61737E-02
 -1      1456 4.13471E-02
 -1      1457 3.18574E-02
 -1      1458 2.75412E-02
 -1      1459 3.18574E-02
 -1      1460 2.45068E-02
 -1      1461 2.11047E-02
 -1      1462 2.45068E-02
 -1      1463 1.90070E-02
 -1      1464 1.72771E-02
 -1      1465 1.93748E-02
 -1      1466 1.56694E-02
 -1      1467 1.40617E-02
 -1      1468 1.56694E-02
 -1      1469 1.26268E-02
 -1      1470 1.11920E-02
 -1      1471 1.26268E-02
 -1      1472 1.00130E-02
 -1      1473 8.76692E-03
 -1      1474 1.00130E-02
 -1      1475 7.82220E-03
 -1      1476 6.77205E-03
 -1      1477 7.88925E-03
 -1      1478 5.99268E-03
 -1      1479 5.17912E-03
 -1      1480 6.16515E-03
 -1      1481 4.55814E-03
 -1      1482 3.84989E-03
 -1      1483 4.76480E-03
 -1      1484 3.31143E-03
 -1      1485 3.06691E-03
 -1      1486 3.60537E-03
 -1      1487 2.81234E-03
 -1      1488 2.55777E-03
 -1      1489 2.81234E-03
 -1      1490 2.22163E-03
 -1      1491 1.88549E-03
 -1      1492 2.22163E-03
 -1      1493 1.66787E-03
 -1      1494 1.45024E-03
 -1      1495 1.66787E-03
 -1      1496 1.11290E-03
 -1      1497 1.11290E-03
 -1      1498 2.73041E+00
 -1      1499 7.67473E+00
 -1      1500 7.67473E+00
 -1      1501 1.57358E+00
 -1      1502 2.15200E+00
 -1      1503 2.15200E+00
 -1      1504 1.13099E+00
 -1      1505 1.35229E+00
 -1      1506 1.35229E+00
 -1      1507 9.71535E-01
 -1      1508 1.05126E+00
 -1      1509 1.05126E+00
 -1      1510 1.12033E+00
 -1      1511 9.62625E-01
 -1      1512 9.62625E-01
 -1      1513 1.36432E+00
 -1      1514 1.28695E+00
 -1      1515 1.12033E+00
 -1      1516 1.67118E+00
 -1      1517 1.44168E+00
 -1      1518 1.36432E+00
 -1      1519 1.96825E+00
 -1      1520 1.90067E+00
 -1      1521 1.67118E+00
 -1      1522 2.38556E+00
 -1      1523 2.03583E+00
 -1      1524 1.96825E+00
 -1      1525 3.59909E+00
 -1      1526 2.80686E+00
 -1      1527 2.45713E+00
 -1      1528 4.63702E+00
 -1      1529 4.31975E+00
 -1      1530 3.59909E+00
 -1      1531 5.27714E+00
 -1      1532 4.95429E+00
 -1      1533 4.63702E+00
 -1      1534 5.59999E+00
 -1      1535 5.59999E+00
 -1      1536 5.27714E+00
 -1      1537 4.31985E+00
 -1      1538 4.95992E+00
 -1      1539 4.95992E+00
 -1      1540 2.29990E+00
 -1      1541 3.30988E+00
 -1      1542 3.30988E+00
 -1      1543 1.51534E+00
 -1      1544 1.84846E+00
 -1      1545 1.84846E+00
 -1      1546 1.75581E+00
 -1      1547 1.63367E+00
 -1      1548 1.51534E+00
 -1      1549 1.89692E+00
 -1      1550 1.87796E+00
 -1      1551 1.75581E+00
 -1      1552 1.91588E+00
 -1      1553 1.91588E+00
 -1      1554 1.89692E+00
 -1      1555 1.71249E+00
 -1      1556 1.81418E+00
 -1      1557 1.81418E+00
 -1      1558 1.43483E+00
 -1      1559 1.57366E+00
 -1      1560 1.57366E+00
 -1      1561 1.18419E+00
 -1      1562 1.31063E+00
 -1      1563 1.31063E+00
 -1      1564 9.46876E-01
 -1      1565 1.07226E+00
 -1      1566 1.07450E+00
 -1      1567 7.29364E-01
 -1      1568 8.41254E-01
 -1      1569 8.56951E-01
 -1      1570 5.44038E-01
 -1      1571 6.37540E-01
 -1      1572 6.59505E-01
 -1      1573 4.00685E-01
 -1      1574 4.68438E-01
 -1      1575 4.92080E-01
 -1      1576 2.97571E-01
 -1      1577 3.42764E-01
 -1      1578 3.58559E-01
 -1      1579 2.20537E-01
 -1      1580 2.57521E-01
 -1      1581 2.60588E-01
 -1      1582 1.61689E-01
 -1      1583 1.91113E-01
 -1      1584 1.91113E-01
 -1      1585 1.16950E-01
 -1      1586 1.39833E-01
 -1      1587 1.39833E-01
 -1      1588 8.28502E-02
 -1      1589 1.00297E-01
 -1      1590 1.01324E-01
 -1      1591 5.71028E-02
 -1      1592 7.01577E-02
 -1      1593 7.19781E-02
 -1      1594 4.49280E-02
 -1      1595 4.99240E-02
 -1      1596 5.21068E-02
 -1      1597 3.67194E-02
 -1      1598 4.08237E-02
 -1      1599 4.08237E-02
 -1      1600 2.94494E-02
 -1      1601 3.30844E-02
 -1      1602 3.30844E-02
 -1      1603 2.31999E-02
 -1      1604 2.63247E-02
 -1      1605 2.63247E-02
 -1      1606 1.84808E-02
 -1      1607 2.08404E-02
 -1      1608 2.08404E-02
 -1      1609 1.62409E-02
 -1      1610 1.73609E-02
 -1      1611 1.73609E-02
 -1      1612 1.38675E-02
 -1      1613 1.50542E-02
 -1      1614 1.50542E-02
 -1      1615 1.15566E-02
 -1      1616 1.27120E-02
 -1      1617 1.27120E-02
 -1      1618 9.41669E-03
 -1      1619 1.04866E-02
 -1      1620 1.04866E-02
 -1      1621 7.49387E-03
 -1      1622 8.45528E-03
 -1      1623 8.45528E-03
 -1      1624 5.95674E-03
 -1      1625 6.72531E-03
 -1      1626 6.72531E-03
 -1      1627 4.57729E-03
 -1      1628 5.26701E-03
 -1      1629 5.26701E-03
 -1      1630 3.34513E-03
 -1      1631 3.97505E-03
 -1      1632 3.97505E-03
 -1      1633 2.57622E-03
 -1      1634 2.94683E-03
 -1      1635 2.97452E-03
 -1      1636 1.91217E-03
 -1      1637 2.24419E-03
 -1      1638 2.24419E-03
 -1      1639 1.10047E-03
 -1      1640 1.51890E-03
 -1      1641 1.51890E-03
 -1      1642 7.81720E-04
 -1      1643 5.37677E-04
 -1      1644 5.37677E-04
 -1      1645 4.67095E-04
 -1      1646 5.37677E-04
 -1      1647 5.87224E-04
 -1      1648 3.14652E-04
 -1      1649 4.19971E-04
 -1      1650 5.40100E-04
 -1      1651 3.02343E-04
 -1      1652 2.55325E-04
 -1      1653 4.33650E-04
 -1      1654 4.52222E-04
 -1      1655 4.02376E-04
 -1      1656 4.74355E-04
 -1      1657 5.40002E-04
 -1      1658 5.12050E-04
 -1      1659 6.34215E-04
 -1      1660 5.70249E-04
 -1      1661 5.62802E-04
 -1      1662 7.16843E-04
 -1      1663 5.70249E-04
 -1      1664 5.70249E-04
 -1      1665 7.39642E-04
 -1      1666 5.61652E-04
 -1      1667 5.69939E-04
 -1      1668 7.39333E-04
 -1      1669 5.06079E-04
 -1      1670 5.36063E-04
 -1      1671 7.13434E-04
 -1      1672 3.98960E-04
 -1      1673 4.47305E-04
 -1      1674 6.29071E-04
 -1      1675 2.57009E-04
 -1      1676 3.01201E-04
 -1      1677 4.72537E-04
 -1      1678 4.17686E-04
 -1      1679 3.12666E-04
 -1      1680 4.30434E-04
 -1      1681 5.66585E-04
 -1      1682 4.17686E-04
 -1      1683 4.86091E-04
 -1      1684 7.75558E-04
 -1      1685 7.11318E-04
 -1      1686 6.30824E-04
 -1      1687 1.11290E-03
 -1      1688 2.72983E+01
 -1      1689 2.71679E+01
 -1      1690 3.04535E+01
 -1      1691 2.75171E+01
 -1      1692 3.14996E+01
 -1      1693 3.14996E+01
 -1      1694 2.51920E+01
 -1      1695 2.87588E+01
 -1      1696 1.22064E+01
 -1      1697 1.82715E+01
 -1      1698 1.22406E+01
 -1      1699 1.22356E+01
 -1      1700 1.22455E+01
 -1      1701 1.22455E+01
 -1      1702 1.22787E+01
 -1      1703 1.21252E+01
 -1      1704 1.25525E+01
 -1      1705 1.25525E+01
 -1      1706 1.21269E+01
 -1      1707 1.22192E+01
 -1      1708 1.94058E+01
 -1      1709 1.23679E+01
 -1      1710 2.95378E+01
 -1      1711 2.78181E+01
 -1      1712 2.98830E+01
 -1      1713 2.98830E+01
 -1      1714 2.46933E+01
 -1      1715 2.72882E+01
 -1      1716 2.66582E+01
 -1      1717 2.68439E+01
 -1      1718 2.66582E+01
 -1      1719 2.66582E+01
 -1      1720 3.87375E+01
 -1      1721 3.00688E+01
 -1      1722 4.16593E+01
 -1      1723 4.16593E+01
 -1      1724 1.56955E+01
 -1      1725 2.87973E+01
 -1      1726 1.20726E+01
 -1      1727 1.33010E+01
 -1      1728 1.29990E+01
 -1      1729 1.29990E+01
 -1      1730 1.21799E+01
 -1      1731 1.25894E+01
 -1      1732 1.21753E+01
 -1      1733 1.19742E+01
 -1      1734 1.25821E+01
 -1      1735 1.25821E+01
 -1      1736 1.43747E+01
 -1      1737 1.18099E+01
 -1      1738 3.13910E+01
 -1      1739 1.77767E+01
 -1      1740 4.49402E+01
 -1      1741 4.49402E+01
 -1      1742 3.23538E+01
 -1      1743 4.21408E+01
 -1      1744 2.71679E+01
 -1      1745 2.71679E+01
 -1      1746 1.90976E+01
 -1      1747 2.87588E+01
 -1      1748 8.06876E-04
 -1      1749 8.56424E-04
 -1      1750 2.91885E+01
 -1      1751 3.04535E+01
 -1      1752 2.89697E+01
 -1      1753 1.22064E+01
 -1      1754 1.22406E+01
 -1      1755 1.21252E+01
 -1      1756 1.22787E+01
 -1      1757 1.22192E+01
 -1      1758 1.21269E+01
 -1      1759 2.07802E+01
 -1      1760 2.95378E+01
 -1      1761 2.72882E+01
 -1      1762 2.68439E+01
 -1      1763 2.89945E+01
 -1      1764 3.24052E+01
 -1      1765 3.87375E+01
 -1      1766 2.87973E+01
 -1      1767 1.35408E+01
 -1      1768 1.20726E+01
 -1      1769 1.25894E+01
 -1      1770 1.19742E+01
 -1      1771 1.21753E+01
 -1      1772 1.18099E+01
 -1      1773 1.44398E+01
 -1      1774 3.13910E+01
 -1      1775 4.21408E+01
 -1      1776 3.41556E+01
 -1      1777 9.04796E+00
 -1      1778 1.75803E+00
 -1      1779 2.11267E+00
 -1      1780 2.62748E+00
 -1      1781 4.27550E+00
 -1      1782 2.09666E+00
 -1      1783 1.22757E+00
 -1      1784 1.37136E+00
 -1      1785 1.06512E+00
 -1      1786 1.17172E+00
 -1      1787 1.14075E+00
 -1      1788 9.26892E-01
 -1      1789 1.02013E+00
 -1      1790 1.03991E+00
 -1      1791 6.79908E-01
 -1      1792 8.23444E-01
 -1      1793 8.91476E-01
 -1      1794 5.15323E-01
 -1      1795 4.99291E-01
 -1      1796 6.07411E-01
 -1      1797 9.06866E-01
 -1      1798 7.10808E-01
 -1      1799 6.22278E-01
 -1      1800 1.27495E+00
 -1      1801 1.10513E+00
 -1      1802 1.01603E+00
 -1      1803 1.52637E+00
 -1      1804 1.38935E+00
 -1      1805 1.32870E+00
 -1      1806 1.82350E+00
 -1      1807 1.63024E+00
 -1      1808 1.54697E+00
 -1      1809 2.33564E+00
 -1      1810 1.97510E+00
 -1      1811 1.80244E+00
 -1      1812 2.88470E+00
 -1      1813 2.31579E+00
 -1      1814 1.93419E+00
 -1      1815 7.14734E+00
 -1      1816 2.76535E+00
 -1      1817 1.79499E+00
 -1      1818 2.20302E+00
 -1      1819 4.73183E+00
 -1      1820 1.40788E+00
 -1      1821 1.98629E+00
 -1      1822 1.45890E+00
 -1      1823 3.06780E+00
 -1      1824 1.61345E+00
 -1      1825 1.05489E+00
 -1      1826 8.50729E-01
 -1      1827 5.34277E-01
 -1      1828 8.39878E-01
 -1      1829 4.07123E-01
 -1      1830 3.09486E-01
 -1      1831 5.08559E-01
 -1      1832 3.11593E-01
 -1      1833 4.05874E-01
 -1      1834 3.83513E-01
 -1      1835 4.75710E-01
 -1      1836 6.18719E-01
 -1      1837 4.55456E-01
 -1      1838 7.87197E-01
 -1      1839 9.95640E-01
 -1      1840 6.93771E-01
 -1      1841 1.21746E+00
 -1      1842 1.51598E+00
 -1      1843 1.08407E+00
 -1      1844 1.67085E+00
 -1      1845 2.05871E+00
 -1      1846 1.46077E+00
 -1      1847 2.24910E+00
 -1      1848 2.55920E+00
 -1      1849 1.80604E+00
 -1      1850 2.58905E+00
 -1      1851 2.56793E+00
 -1      1852 2.02628E+00
 -1      1853 2.57213E+00
 -1      1854 2.63132E+00
 -1      1855 2.06033E+00
 -1      1856 2.61383E+00
 -1      1857 2.33409E+00
 -1      1858 2.04704E+00
 -1      1859 2.14627E+00
 -1      1860 1.71176E+00
 -1      1861 1.84172E+00
 -1      1862 1.52156E+00
 -1      1863 1.25827E+00
 -1      1864 1.46370E+00
 -1      1865 1.01317E+00
 -1      1866 8.35839E-01
 -1      1867 1.02839E+00
 -1      1868 6.64089E-01
 -1      1869 6.95143E-01
 -1      1870 6.11536E-01
 -1      1871 7.21252E-01
 -1      1872 6.72721E-01
 -1      1873 4.65896E-01
 -1      1874 7.30834E-01
 -1      1875 7.43437E-01
 -1      1876 5.50119E-01
 -1      1877 7.67424E-01
 -1      1878 7.25832E-01
 -1      1879 6.32219E-01
 -1      1880 7.09127E-01
 -1      1881 6.42396E-01
 -1      1882 6.39501E-01
 -1      1883 6.07633E-01
 -1      1884 5.52186E-01
 -1      1885 5.88033E-01
 -1      1886 5.20917E-01
 -1      1887 4.81493E-01
 -1      1888 5.22000E-01
 -1      1889 4.50972E-01
 -1      1890 4.09980E-01
 -1      1891 4.60210E-01
 -1      1892 3.74180E-01
 -1      1893 3.32843E-01
 -1      1894 3.93890E-01
 -1      1895 2.96951E-01
 -1      1896 2.64146E-01
 -1      1897 3.22198E-01
 -1      1898 2.31276E-01
 -1      1899 2.05347E-01
 -1      1900 2.53437E-01
 -1      1901 1.77045E-01
 -1      1902 1.56545E-01
 -1      1903 1.92266E-01
 -1      1904 1.33291E-01
 -1      1905 1.16044E-01
 -1      1906 1.40710E-01
 -1      1907 1.00191E-01
 -1      1908 8.61049E-02
 -1      1909 1.01603E-01
 -1      1910 7.44147E-02
 -1      1911 6.72199E-02
 -1      1912 7.40596E-02
 -1      1913 5.86515E-02
 -1      1914 5.18987E-02
 -1      1915 5.38010E-02
 -1      1916 4.74913E-02
 -1      1917 4.14692E-02
 -1      1918 4.08253E-02
 -1      1919 3.83959E-02
 -1      1920 3.32225E-02
 -1      1921 3.33445E-02
 -1      1922 3.03759E-02
 -1      1923 2.60597E-02
 -1      1924 2.74247E-02
 -1      1925 2.35324E-02
 -1      1926 2.04980E-02
 -1      1927 2.20509E-02
 -1      1928 1.83240E-02
 -1      1929 1.62264E-02
 -1      1930 1.73496E-02
 -1      1931 1.46779E-02
 -1      1932 1.30701E-02
 -1      1933 1.36271E-02
 -1      1934 1.21624E-02
 -1      1935 1.07276E-02
 -1      1936 1.11709E-02
 -1      1937 9.82947E-03
 -1      1938 8.65046E-03
 -1      1939 9.36507E-03
 -1      1940 7.80752E-03
 -1      1941 6.86279E-03
 -1      1942 7.62401E-03
 -1      1943 6.16637E-03
 -1      1944 5.38700E-03
 -1      1945 6.08464E-03
 -1      1946 4.78071E-03
 -1      1947 4.15974E-03
 -1      1948 4.78193E-03
 -1      1949 3.65562E-03
 -1      1950 3.11716E-03
 -1      1951 3.67153E-03
 -1      1952 2.71195E-03
 -1      1953 2.45738E-03
 -1      1954 2.76220E-03
 -1      1955 2.15182E-03
 -1      1956 1.81568E-03
 -1      1957 2.05143E-03
 -1      1958 1.57949E-03
 -1      1959 1.36187E-03
 -1      1960 1.02453E-03
 -1      1961 1.50968E-03
 -1      1962 1.11099E+00
 -1      1963 1.33229E+00
 -1      1964 1.16658E+00
 -1      1965 1.06514E+00
 -1      1966 1.14487E+00
 -1      1967 1.12487E+00
 -1      1968 1.09641E+00
 -1      1969 1.10532E+00
 -1      1970 1.19893E+00
 -1      1971 1.25764E+00
 -1      1972 1.09102E+00
 -1      1973 1.23372E+00
 -1      1974 1.25933E+00
 -1      1975 1.18197E+00
 -1      1976 1.15265E+00
 -1      1977 1.55304E+00
 -1      1978 1.32354E+00
 -1      1979 1.14120E+00
 -1      1980 1.92224E+00
 -1      1981 1.85466E+00
 -1      1982 1.50703E+00
 -1      1983 2.72628E+00
 -1      1984 2.30499E+00
 -1      1985 2.19140E+00
 -1      1986 3.77623E+00
 -1      1987 3.05557E+00
 -1      1988 2.90343E+00
 -1      1989 4.00659E+00
 -1      1990 3.68932E+00
 -1      1991 3.14581E+00
 -1      1992 4.32165E+00
 -1      1993 3.99880E+00
 -1      1994 3.05110E+00
 -1      1995 3.53546E+00
 -1      1996 4.17553E+00
 -1      1997 2.89719E+00
 -1      1998 1.97115E+00
 -1      1999 2.98113E+00
 -1      2000 2.19673E+00
 -1      2001 1.28536E+00
 -1      2002 1.73681E+00
 -1      2003 1.40806E+00
 -1      2004 1.44833E+00
 -1      2005 1.33000E+00
 -1      2006 1.21835E+00
 -1      2007 1.65547E+00
 -1      2008 1.53332E+00
 -1      2009 1.34798E+00
 -1      2010 1.67521E+00
 -1      2011 1.65625E+00
 -1      2012 1.43376E+00
 -1      2013 1.55039E+00
 -1      2014 1.65208E+00
 -1      2015 1.41142E+00
 -1      2016 1.33938E+00
 -1      2017 1.47821E+00
 -1      2018 1.31611E+00
 -1      2019 1.13360E+00
 -1      2020 1.25780E+00
 -1      2021 1.16235E+00
 -1      2022 9.29755E-01
 -1      2023 1.04169E+00
 -1      2024 9.88851E-01
 -1      2025 7.32801E-01
 -1      2026 8.38423E-01
 -1      2027 8.05605E-01
 -1      2028 5.58997E-01
 -1      2029 6.50821E-01
 -1      2030 6.32294E-01
 -1      2031 4.14310E-01
 -1      2032 4.89910E-01
 -1      2033 4.81226E-01
 -1      2034 3.00638E-01
 -1      2035 3.58559E-01
 -1      2036 3.56389E-01
 -1      2037 2.17815E-01
 -1      2038 2.57865E-01
 -1      2039 2.57865E-01
 -1      2040 1.61291E-01
 -1      2041 1.90715E-01
 -1      2042 1.87993E-01
 -1      2043 1.17978E-01
 -1      2044 1.39833E-01
 -1      2045 1.39436E-01
 -1      2046 8.46707E-02
 -1      2047 1.01324E-01
 -1      2048 1.01324E-01
 -1      2049 5.92856E-02
 -1      2050 7.19781E-02
 -1      2051 7.19781E-02
 -1      2052 4.26022E-02
 -1      2053 4.97810E-02
 -1      2054 4.97810E-02
 -1      2055 3.25492E-02
 -1      2056 3.66535E-02
 -1      2057 3.43277E-02
 -1      2058 2.68746E-02
 -1      2059 3.05096E-02
 -1      2060 2.63394E-02
 -1      2061 2.17375E-02
 -1      2062 2.48623E-02
 -1      2063 2.22874E-02
 -1      2064 1.75067E-02
 -1      2065 1.98663E-02
 -1      2066 1.84039E-02
 -1      2067 1.47152E-02
 -1      2068 1.58352E-02
 -1      2069 1.48611E-02
 -1      2070 1.20783E-02
 -1      2071 1.32650E-02
 -1      2072 1.17394E-02
 -1      2073 1.01804E-02
 -1      2074 1.13358E-02
 -1      2075 9.54664E-03
 -1      2076 8.39182E-03
 -1      2077 9.46178E-03
 -1      2078 8.08553E-03
 -1      2079 6.73055E-03
 -1      2080 7.69196E-03
 -1      2081 6.66709E-03
 -1      2082 5.45576E-03
 -1      2083 6.22433E-03
 -1      2084 5.46101E-03
 -1      2085 4.28149E-03
 -1      2086 4.97122E-03
 -1      2087 4.47024E-03
 -1      2088 3.22306E-03
 -1      2089 3.82529E-03
 -1      2090 3.52950E-03
 -1      2091 2.40610E-03
 -1      2092 2.80440E-03
 -1      2093 2.65463E-03
 -1      2094 1.80661E-03
 -1      2095 2.13864E-03
 -1      2096 1.96851E-03
 -1      2097 1.12562E-03
 -1      2098 1.51890E-03
 -1      2099 1.41334E-03
 -1      2100 8.56424E-04
 -1      2101 4.91800E-04
 -1      2102 5.51126E-04
 -1      2103 8.36227E-04
 -1      2104 8.83352E-04
 -1      2105 8.94377E-04
 -1      2106 8.83352E-04
 -1      2107 8.83352E-04
 -1      2108 1.15255E-03
 -1      2109 1.17948E-03
 -1      2110 6.70347E-04
 -1      2111 5.70314E-04
 -1      2112 6.87791E-04
 -1      2113 8.13685E-04
 -1      2114 7.53858E-04
 -1      2115 8.49817E-04
 -1      2116 8.71988E-04
 -1      2117 8.49188E-04
 -1      2118 9.68830E-04
 -1      2119 8.71988E-04
 -1      2120 8.71988E-04
 -1      2121 1.00433E-03
 -1      2122 8.69606E-04
 -1      2123 8.69915E-04
 -1      2124 1.00226E-03
 -1      2125 8.44017E-04
 -1      2126 8.69606E-04
 -1      2127 1.00019E-03
 -1      2128 7.49456E-04
 -1      2129 8.08231E-04
 -1      2130 9.64402E-04
 -1      2131 5.67282E-04
 -1      2132 6.65041E-04
 -1      2133 8.44201E-04
 -1      2134 5.38385E-04
 -1      2135 4.82729E-04
 -1      2136 6.75233E-04
 -1      2137 7.47298E-04
 -1      2138 7.47298E-04
 -1      2139 7.99592E-04
 -1      2140 3.04535E+01
 -1      2141 2.94074E+01
 -1      2142 3.03312E+01
 -1      2143 3.03312E+01
 -1      2144 3.05500E+01
 -1      2145 3.03312E+01
 -1      2146 2.19415E+01
 -1      2147 2.46823E+01
 -1      2148 2.36362E+01
 -1      2149 1.14481E+01
 -1      2150 1.83686E+01
 -1      2151 1.66072E+00
 -1      2152 1.85477E+00
 -1      2153 1.67858E+00
 -1      2154 1.48595E+00
 -1      2155 1.06683E+01
 -1      2156 1.06633E+01
 -1      2157 1.10107E+01
 -1      2158 1.11309E+01
 -1      2159 1.16924E+01
 -1      2160 1.14186E+01
 -1      2161 1.05193E+01
 -1      2162 1.08526E+01
 -1      2163 9.82913E+00
 -1      2164 9.58810E+00
 -1      2165 2.02669E+01
 -1      2166 1.18546E+01
 -1      2167 2.49694E+01
 -1      2168 2.46242E+01
 -1      2169 2.51876E+01
 -1      2170 2.77825E+01
 -1      2171 3.14331E+01
 -1      2172 2.92825E+01
 -1      2173 3.14331E+01
 -1      2174 3.14331E+01
 -1      2175 3.15150E+01
 -1      2176 2.81043E+01
 -1      2177 3.27305E+01
 -1      2178 2.98087E+01
 -1      2179 1.49911E+01
 -1      2180 2.78531E+01
 -1      2181 9.48648E+00
 -1      2182 1.18810E+01
 -1      2183 1.04221E+01
 -1      2184 9.49569E+00
 -1      2185 7.83590E+00
 -1      2186 1.15094E+01
 -1      2187 1.19190E+01
 -1      2188 1.09538E+01
 -1      2189 1.11595E+01
 -1      2190 1.15000E+01
 -1      2191 1.10932E+01
 -1      2192 9.52994E+00
 -1      2193 1.03021E+01
 -1      2194 1.32458E+01
 -1      2195 9.84380E+00
 -1      2196 3.00933E+01
 -1      2197 1.65441E+01
 -1      2198 3.30032E+01
 -1      2199 3.58026E+01
 -1      2200 2.86912E+01
 -1      2201 3.38771E+01
 -1      2202 2.75389E+01
 -1      2203 9.36201E+00
 -1      2204 9.33279E+00
 -1      2205 8.60376E+00
 -1      2206 1.42920E+01
 -1      2207 2.39716E+00
 -1      2208 7.62015E+00
 -1      2209 9.19245E+00
 -1      2210 6.31887E+00
 -1      2211 1.82776E+00
 -1      2212 3.05500E+01
 -1      2213 3.16926E+01
 -1      2214 8.92031E-04
 -1      2215 3.00527E+01
 -1      2216 2.95630E+01
 -1      2217 1.47161E+01
 -1      2218 2.04253E+01
 -1      2219 1.19481E+01
 -1      2220 8.33594E+00
 -1      2221 9.22002E+00
 -1      2222 1.02786E+01
 -1      2223 9.34206E+00
 -1      2224 1.09368E+01
 -1      2225 1.89243E+01
 -1      2226 2.82421E+01
 -1      2227 2.39412E+01
 -1      2228 2.22350E+01
 -1      2229 3.05429E+01
 -1      2230 3.38717E+01
 -1      2231 2.97768E+01
 -1      2232 2.28688E+01
 -1      2233 1.56985E+01
 -1      2234 9.31581E+00
 -1      2235 8.22156E+00
 -1      2236 9.99253E+00
 -1      2237 9.55367E+00
 -1      2238 1.04243E+01
 -1      2239 1.04891E+01
 -1      2240 1.51175E+00
 -1      2241 1.58734E+00
 -1      2242 1.05283E+00
 -1      2243 1.09782E+00
 -1      2244 1.09782E+00
 -1      2245 1.15367E+00
 -1      2246 1.11074E+00
 -1      2247 6.03820E-01
 -1      2248 7.84437E-01
 -1      2249 8.12925E-01
 -1      2250 6.17440E-01
 -1      2251 7.94466E-01
 -1      2252 1.17969E+00
 -1      2253 9.81426E-01
 -1      2254 9.76588E-01
 -1      2255 1.44222E+00
 -1      2256 1.32782E+00
 -1      2257 1.29321E+00
 -1      2258 1.57741E+00
 -1      2259 1.47354E+00
 -1      2260 1.47265E+00
 -1      2261 1.95405E+00
 -1      2262 1.80244E+00
 -1      2263 1.72901E+00
 -1      2264 1.24525E+00
 -1      2265 1.21137E+00
 -1      2266 1.63213E+00
 -1      2267 1.05192E+00
 -1      2268 8.47755E-01
 -1      2269 6.85651E-01
 -1      2270 5.58497E-01
 -1      2271 8.97693E-01
 -1      2272 5.07278E-01
 -1      2273 5.09385E-01
 -1      2274 6.84369E-01
 -1      2275 5.61235E-01
 -1      2276 6.31071E-01
 -1      2277 6.85000E-01
 -1      2278 6.81847E-01
 -1      2279 8.50325E-01
 -1      2280 7.87625E-01
 -1      2281 1.01946E+00
 -1      2282 1.24128E+00
 -1      2283 1.00754E+00
 -1      2284 1.34773E+00
 -1      2285 1.50260E+00
 -1      2286 1.28311E+00
 -1      2287 1.59287E+00
 -1      2288 1.78327E+00
 -1      2289 1.47983E+00
 -1      2290 1.95661E+00
 -1      2291 1.98645E+00
 -1      2292 1.74344E+00
 -1      2293 1.91265E+00
 -1      2294 1.91685E+00
 -1      2295 1.84297E+00
 -1      2296 1.98875E+00
 -1      2297 1.97125E+00
 -1      2298 1.84107E+00
 -1      2299 1.79517E+00
 -1      2300 1.60735E+00
 -1      2301 1.73688E+00
 -1      2302 1.50214E+00
 -1      2303 1.31193E+00
 -1      2304 1.45559E+00
 -1      2305 1.20457E+00
 -1      2306 9.59463E-01
 -1      2307 1.24301E+00
 -1      2308 8.26593E-01
 -1      2309 6.54843E-01
 -1      2310 1.00277E+00
 -1      2311 6.16319E-01
 -1      2312 6.42429E-01
 -1      2313 8.31376E-01
 -1      2314 5.65086E-01
 -1      2315 6.23199E-01
 -1      2316 7.15509E-01
 -1      2317 6.36478E-01
 -1      2318 6.60465E-01
 -1      2319 6.51445E-01
 -1      2320 6.44567E-01
 -1      2321 6.27862E-01
 -1      2322 6.48826E-01
 -1      2323 5.97070E-01
 -1      2324 5.62306E-01
 -1      2325 6.02135E-01
 -1      2326 5.36323E-01
 -1      2327 5.05054E-01
 -1      2328 5.45360E-01
 -1      2329 4.75593E-01
 -1      2330 4.45072E-01
 -1      2331 4.89916E-01
 -1      2332 4.11149E-01
 -1      2333 3.75349E-01
 -1      2334 4.26532E-01
 -1      2335 3.40202E-01
 -1      2336 3.04310E-01
 -1      2337 3.57461E-01
 -1      2338 2.71183E-01
 -1      2339 2.38313E-01
 -1      2340 2.89187E-01
 -1      2341 2.08983E-01
 -1      2342 1.80682E-01
 -1      2343 2.26730E-01
 -1      2344 1.55882E-01
 -1      2345 1.32628E-01
 -1      2346 1.72600E-01
 -1      2347 1.12414E-01
 -1      2348 9.65605E-02
 -1      2349 1.27585E-01
 -1      2350 8.05925E-02
 -1      2351 6.89023E-02
 -1      2352 9.14032E-02
 -1      2353 5.66432E-02
 -1      2354 4.80749E-02
 -1      2355 6.31761E-02
 -1      2356 3.89365E-02
 -1      2357 3.45291E-02
 -1      2358 4.17787E-02
 -1      2359 2.96451E-02
 -1      2360 2.65718E-02
 -1      2361 2.77563E-02
 -1      2362 2.41166E-02
 -1      2363 2.12700E-02
 -1      2364 2.04171E-02
 -1      2365 2.01655E-02
 -1      2366 1.76382E-02
 -1      2367 1.68574E-02
 -1      2368 1.64526E-02
 -1      2369 1.42786E-02
 -1      2370 1.45673E-02
 -1      2371 1.31144E-02
 -1      2372 1.15659E-02
 -1      2373 1.22174E-02
 -1      2374 1.04838E-02
 -1      2375 9.57613E-03
 -1      2376 9.97110E-03
 -1      2377 8.79885E-03
 -1      2378 7.90073E-03
 -1      2379 8.11179E-03
 -1      2380 7.36226E-03
 -1      2381 6.51931E-03
 -1      2382 6.79604E-03
 -1      2383 5.95997E-03
 -1      2384 5.26354E-03
 -1      2385 5.69822E-03
 -1      2386 4.72624E-03
 -1      2387 4.11996E-03
 -1      2388 4.60157E-03
 -1      2389 3.67872E-03
 -1      2390 3.17460E-03
 -1      2391 3.62304E-03
 -1      2392 2.77128E-03
 -1      2393 2.36607E-03
 -1      2394 2.77847E-03
 -1      2395 2.03409E-03
 -1      2396 1.72853E-03
 -1      2397 2.04318E-03
 -1      2398 1.44019E+00
 -1      2399 1.44559E+00
 -1      2400 1.44029E+00
 -1      2401 1.51595E+00
 -1      2402 1.72782E+00
 -1      2403 1.65851E+00
 -1      2404 1.59430E+00
 -1      2405 1.95760E+00
 -1      2406 2.08066E+00
 -1      2407 1.77904E+00
 -1      2408 2.23214E+00
 -1      2409 3.18074E+00
 -1      2410 2.79800E+00
 -1      2411 3.07000E+00
 -1      2412 5.00757E+00
 -1      2413 4.67828E+00
 -1      2414 5.28489E+00
 -1      2415 3.20698E+00
 -1      2416 3.29389E+00
 -1      2417 5.06875E+00
 -1      2418 4.13429E+00
 -1      2419 4.14208E+00
 -1      2420 4.29017E+00
 -1      2421 2.80393E+00
 -1      2422 2.95005E+00
 -1      2423 4.04103E+00
 -1      2424 1.84653E+00
 -1      2425 2.40086E+00
 -1      2426 2.45372E+00
 -1      2427 1.72051E+00
 -1      2428 1.95486E+00
 -1      2429 2.15898E+00
 -1      2430 1.53081E+00
 -1      2431 1.48617E+00
 -1      2432 2.03297E+00
 -1      2433 1.53297E+00
 -1      2434 1.44798E+00
 -1      2435 1.71579E+00
 -1      2436 1.45044E+00
 -1      2437 1.44965E+00
 -1      2438 1.54965E+00
 -1      2439 1.40094E+00
 -1      2440 1.42407E+00
 -1      2441 1.43996E+00
 -1      2442 1.26906E+00
 -1      2443 1.34123E+00
 -1      2444 1.35388E+00
 -1      2445 1.09377E+00
 -1      2446 1.17535E+00
 -1      2447 1.20048E+00
 -1      2448 9.04606E-01
 -1      2449 9.96521E-01
 -1      2450 1.00952E+00
 -1      2451 7.21283E-01
 -1      2452 8.12615E-01
 -1      2453 8.20284E-01
 -1      2454 5.57928E-01
 -1      2455 6.39907E-01
 -1      2456 6.46917E-01
 -1      2457 4.20314E-01
 -1      2458 4.89402E-01
 -1      2459 4.97015E-01
 -1      2460 3.08906E-01
 -1      2461 3.64657E-01
 -1      2462 3.72832E-01
 -1      2463 2.23358E-01
 -1      2464 2.66131E-01
 -1      2465 2.74399E-01
 -1      2466 1.63747E-01
 -1      2467 1.90846E-01
 -1      2468 1.99112E-01
 -1      2469 1.17451E-01
 -1      2470 1.38909E-01
 -1      2471 1.41762E-01
 -1      2472 8.21819E-02
 -1      2473 9.88355E-02
 -1      2474 9.83089E-02
 -1      2475 5.74699E-02
 -1      2476 7.01624E-02
 -1      2477 6.76736E-02
 -1      2478 3.96700E-02
 -1      2479 4.91745E-02
 -1      2480 4.73588E-02
 -1      2481 2.83790E-02
 -1      2482 3.43277E-02
 -1      2483 3.37212E-02
 -1      2484 2.42998E-02
 -1      2485 2.63394E-02
 -1      2486 2.63394E-02
 -1      2487 2.02751E-02
 -1      2488 2.22874E-02
 -1      2489 2.22874E-02
 -1      2490 1.65326E-02
 -1      2491 1.84039E-02
 -1      2492 1.84039E-02
 -1      2493 1.31896E-02
 -1      2494 1.48611E-02
 -1      2495 1.48611E-02
 -1      2496 1.03256E-02
 -1      2497 1.17758E-02
 -1      2498 1.17758E-02
 -1      2499 8.80410E-03
 -1      2500 9.54664E-03
 -1      2501 9.58302E-03
 -1      2502 7.36696E-03
 -1      2503 8.08553E-03
 -1      2504 8.08553E-03
 -1      2505 5.96723E-03
 -1      2506 6.66709E-03
 -1      2507 6.66709E-03
 -1      2508 4.84553E-03
 -1      2509 5.35175E-03
 -1      2510 5.35175E-03
 -1      2511 3.83779E-03
 -1      2512 4.32234E-03
 -1      2513 4.21307E-03
 -1      2514 2.90742E-03
 -1      2515 3.36362E-03
 -1      2516 3.21571E-03
 -1      2517 2.10216E-03
 -1      2518 2.52082E-03
 -1      2519 2.35495E-03
 -1      2520 1.56146E-03
 -1      2521 1.82892E-03
 -1      2522 1.69511E-03
 -1      2523 1.44026E-03
 -1      2524 1.04828E-03
 -1      2525 9.64765E-04
 -1      2526 1.13158E-03
 -1      2527 1.09608E-03
 -1      2528 1.21103E-03
 -1      2529 9.58874E-04
 -1      2530 1.24398E-03
 -1      2531 8.61160E-04
 -1      2532 7.82645E-04
 -1      2533 1.13224E-03
 -1      2534 1.05962E-03
 -1      2535 1.13158E-03
 -1      2536 1.13158E-03
 -1      2537 1.25883E-03
 -1      2538 1.12193E-03
 -1      2539 1.12401E-03
 -1      2540 1.25125E-03
 -1      2541 1.12688E-03
 -1      2542 1.12688E-03
 -1      2543 1.24862E-03
 -1      2544 1.09109E-03
 -1      2545 1.12688E-03
 -1      2546 1.25357E-03
 -1      2547 9.57326E-04
 -1      2548 1.04174E-03
 -1      2549 1.20422E-03
 -1      2550 7.60721E-04
 -1      2551 8.45274E-04
 -1      2552 1.04281E-03
 -1      2553 9.69633E-04
 -1      2554 7.60721E-04
 -1      2555 9.30761E-04
 -1      2556 3.16926E+01
 -1      2557 3.16926E+01
 -1      2558 2.58039E+01
 -1      2559 2.69465E+01
 -1      2560 3.00527E+01
 -1      2561 2.84128E+01
 -1      2562 1.36316E+00
 -1      2563 1.32297E+00
 -1      2564 1.56963E+00
 -1      2565 1.14100E-03
 -1      2566 1.62000E+01
 -1      2567 2.19712E+01
 -1      2568 1.01439E+01
 -1      2569 1.37168E+01
 -1      2570 6.13901E+00
 -1      2571 8.25435E+00
 -1      2572 8.07088E+00
 -1      2573 1.11810E+01
 -1      2574 9.16808E-01
 -1      2575 1.02026E+00
 -1      2576 1.07816E+00
 -1      2577 9.13217E-01
 -1      2578 9.47153E+00
 -1      2579 9.06357E+00
 -1      2580 9.07931E+00
 -1      2581 9.42922E+00
 -1      2582 8.52584E+00
 -1      2583 8.06316E+00
 -1      2584 7.57306E+00
 -1      2585 7.91357E+00
 -1      2586 8.75331E+00
 -1      2587 7.03638E+00
 -1      2588 7.96761E+00
 -1      2589 9.08793E+00
 -1      2590 7.06246E+00
 -1      2591 1.56897E+01
 -1      2592 1.13325E+01
 -1      2593 2.05028E+01
 -1      2594 1.76897E+01
 -1      2595 2.97768E+01
 -1      2596 2.56819E+01
 -1      2597 2.05028E+01
 -1      2598 3.38717E+01
 -1      2599 3.38717E+01
 -1      2600 2.72141E+01
 -1      2601 3.05429E+01
 -1      2602 1.39589E+01
 -1      2603 1.88362E+01
 -1      2604 6.10659E+00
 -1      2605 6.09738E+00
 -1      2606 7.99642E+00
 -1      2607 6.49948E+00
 -1      2608 9.38875E+00
 -1      2609 9.24936E+00
 -1      2610 8.18950E+00
 -1      2611 6.94914E+00
 -1      2612 8.14708E+00
 -1      2613 6.69264E+00
 -1      2614 6.37877E+00
 -1      2615 1.24950E+01
 -1      2616 9.19666E+00
 -1      2617 2.35271E+01
 -1      2618 2.26532E+01
 -1      2619 2.19339E+00
 -1      2620 1.40968E+00
 -1      2621 1.41755E+00
 -1      2622 1.67858E+00
 -1      2623 1.59811E+00
 -1      2624 1.81484E+00
 -1      2625 1.93419E+00
 -1      2626 1.94328E+00
 -1      2627 6.92625E+00
 -1      2628 9.00521E+00
 -1      2629 7.64447E+00
 -1      2630 1.44302E+00
 -1      2631 1.48595E+00
 -1      2632 1.77531E+00
 -1      2633 1.40948E+00
 -1      2634 1.95405E+00
 -1      2635 1.19646E+01
 -1      2636 7.18930E+00
 -1      2637 5.71846E+00
 -1      2638 6.16147E+00
 -1      2639 5.96945E+00
 -1      2640 7.23948E+00
 -1      2641 7.11787E+00
 -1      2642 1.83677E+01
 -1      2643 8.55501E+00
 -1      2644 5.71244E+00
 -1      2645 7.14524E+00
 -1      2646 1.30067E-03
 -1      2647 1.30067E-03
 -1      2648 4.76095E+00
 -1      2649 3.00527E+01
 -1      2650 2.69465E+01
 -1      2651 1.10929E+01
 -1      2652 2.35271E+01
 -1      2653 1.95405E+00
 -1      2654 7.67915E+00
 -1      2655 1.64136E+01
 -1      2656 1.20518E+01
 -1      2657 1.77531E+00
 -1      2658 2.15993E+01
 -1      2659 2.15993E+01
 -1      2660 1.83264E+01
 -1      2661 2.97768E+01
 -1      2662 1.33237E+01
 -1      2663 9.07914E+00
 -1      2664 6.80851E+00
 -1      2665 1.72696E+01
 -1      2666 6.34157E+00
 -1      2667 6.72839E+00
 -1      2668 3.05429E+01
 -1      2669 1.18376E-03
 -1      2670 1.05126E-03
 -1      2671 1.01239E-03
 -1      2672 1.41994E-03
 -1      2673 5.30583E+00
 -1      2674 1.36517E-03
 -1      2675 1.40261E-03
 -1      2676 1.21889E+00
 -1      2677 1.05038E+00
 -1      2678 9.09705E-01
 -1      2679 8.96084E-01
 -1      2680 1.15200E+00
 -1      2681 1.57003E+00
 -1      2682 1.53871E+00
 -1      2683 1.79507E+00
 -1      2684 1.57003E+00
 -1      2685 1.63609E+00
 -1      2686 1.57727E+00
 -1      2687 1.87764E+00
 -1      2688 5.73671E+00
 -1      2689 7.62626E+00
 -1      2690 1.48720E+00
 -1      2691 1.40948E+00
 -1      2692 1.65499E+00
 -1      2693 1.94328E+00
 -1      2694 8.62126E-01
 -1      2695 8.10907E-01
 -1      2696 8.23385E-01
 -1      2697 8.75234E-01
 -1      2698 1.00114E+00
 -1      2699 9.59969E-01
 -1      2700 1.01074E+00
 -1      2701 1.09835E+00
 -1      2702 1.12890E+00
 -1      2703 1.29804E+00
 -1      2704 1.30124E+00
 -1      2705 1.38586E+00
 -1      2706 1.49231E+00
 -1      2707 1.50723E+00
 -1      2708 1.53643E+00
 -1      2709 1.62670E+00
 -1      2710 1.63918E+00
 -1      2711 1.80828E+00
 -1      2712 1.98161E+00
 -1      2713 1.86487E+00
 -1      2714 2.37594E+00
 -1      2715 2.30214E+00
 -1      2716 2.44078E+00
 -1      2717 2.25399E+00
 -1      2718 2.32589E+00
 -1      2719 2.78696E+00
 -1      2720 2.12051E+00
 -1      2721 1.94443E+00
 -1      2722 2.53344E+00
 -1      2723 1.62833E+00
 -1      2724 1.52312E+00
 -1      2725 2.01196E+00
 -1      2726 1.46574E+00
 -1      2727 1.35837E+00
 -1      2728 1.63848E+00
 -1      2729 1.26844E+00
 -1      2730 1.13557E+00
 -1      2731 1.49117E+00
 -1      2732 1.06755E+00
 -1      2733 1.02903E+00
 -1      2734 1.33322E+00
 -1      2735 8.73060E-01
 -1      2736 7.95716E-01
 -1      2737 1.10924E+00
 -1      2738 7.65579E-01
 -1      2739 7.78859E-01
 -1      2740 9.23130E-01
 -1      2741 7.24866E-01
 -1      2742 7.08968E-01
 -1      2743 8.39001E-01
 -1      2744 6.48708E-01
 -1      2745 6.17917E-01
 -1      2746 7.24749E-01
 -1      2747 5.74101E-01
 -1      2748 5.48117E-01
 -1      2749 6.20674E-01
 -1      2750 5.11173E-01
 -1      2751 4.81712E-01
 -1      2752 5.39913E-01
 -1      2753 4.42057E-01
 -1      2754 4.08134E-01
 -1      2755 4.63313E-01
 -1      2756 3.69707E-01
 -1      2757 3.34559E-01
 -1      2758 3.85231E-01
 -1      2759 2.99591E-01
 -1      2760 2.66464E-01
 -1      2761 3.11837E-01
 -1      2762 2.36013E-01
 -1      2763 2.06683E-01
 -1      2764 2.46418E-01
 -1      2765 1.81055E-01
 -1      2766 1.56255E-01
 -1      2767 1.90339E-01
 -1      2768 1.35283E-01
 -1      2769 1.15069E-01
 -1      2770 1.43739E-01
 -1      2771 9.83260E-02
 -1      2772 8.23580E-02
 -1      2773 1.06024E-01
 -1      2774 6.92929E-02
 -1      2775 5.70338E-02
 -1      2776 7.62157E-02
 -1      2777 4.70607E-02
 -1      2778 3.79224E-02
 -1      2779 5.31775E-02
 -1      2780 3.04789E-02
 -1      2781 2.55949E-02
 -1      2782 3.57609E-02
 -1      2783 2.01723E-02
 -1      2784 1.77171E-02
 -1      2785 2.28948E-02
 -1      2786 1.44618E-02
 -1      2787 1.33573E-02
 -1      2788 1.42170E-02
 -1      2789 1.25791E-02
 -1      2790 1.13935E-02
 -1      2791 1.01835E-02
 -1      2792 1.11005E-02
 -1      2793 9.93623E-03
 -1      2794 9.11230E-03
 -1      2795 9.45895E-03
 -1      2796 8.37691E-03
 -1      2797 8.34204E-03
 -1      2798 7.81327E-03
 -1      2799 7.03600E-03
 -1      2800 7.30112E-03
 -1      2801 6.45126E-03
 -1      2802 5.91278E-03
 -1      2803 6.15274E-03
 -1      2804 5.46956E-03
 -1      2805 4.91022E-03
 -1      2806 5.12479E-03
 -1      2807 4.51452E-03
 -1      2808 3.97722E-03
 -1      2809 4.28587E-03
 -1      2810 3.57728E-03
 -1      2811 3.13604E-03
 -1      2812 3.49023E-03
 -1      2813 2.75707E-03
 -1      2814 2.35375E-03
 -1      2815 2.71131E-03
 -1      2816 2.04318E-03
 -1      2817 1.71120E-03
 -1      2818 2.02177E-03
 -1      2819 2.66047E+00
 -1      2820 2.50646E+00
 -1      2821 4.09016E+00
 -1      2822 4.66053E+00
 -1      2823 1.87770E+00
 -1      2824 1.80194E+00
 -1      2825 2.58057E+00
 -1      2826 4.04706E+00
 -1      2827 3.32972E+00
 -1      2828 6.78243E+00
 -1      2829 5.28489E+00
 -1      2830 5.26661E+00
 -1      2831 6.98028E+00
 -1      2832 6.20170E+00
 -1      2833 3.22577E+00
 -1      2834 4.41001E+00
 -1      2835 2.17638E+00
 -1      2836 2.57945E+00
 -1      2837 2.69497E+00
 -1      2838 2.58663E+00
 -1      2839 2.71237E+00
 -1      2840 2.47756E+00
 -1      2841 2.71190E+00
 -1      2842 3.13956E+00
 -1      2843 2.13226E+00
 -1      2844 2.21509E+00
 -1      2845 2.89403E+00
 -1      2846 1.82529E+00
 -1      2847 1.90861E+00
 -1      2848 2.40791E+00
 -1      2849 1.56690E+00
 -1      2850 1.59327E+00
 -1      2851 1.95224E+00
 -1      2852 1.40014E+00
 -1      2853 1.45985E+00
 -1      2854 1.61316E+00
 -1      2855 1.18907E+00
 -1      2856 1.28278E+00
 -1      2857 1.38874E+00
 -1      2858 9.77861E-01
 -1      2859 1.07511E+00
 -1      2860 1.15741E+00
 -1      2861 7.82927E-01
 -1      2862 8.74918E-01
 -1      2863 9.40503E-01
 -1      2864 6.12617E-01
 -1      2865 6.93993E-01
 -1      2866 7.48626E-01
 -1      2867 4.69622E-01
 -1      2868 5.38148E-01
 -1      2869 5.85223E-01
 -1      2870 3.53078E-01
 -1      2871 4.08735E-01
 -1      2872 4.49867E-01
 -1      2873 2.61497E-01
 -1      2874 3.04272E-01
 -1      2875 3.40176E-01
 -1      2876 1.90537E-01
 -1      2877 2.23048E-01
 -1      2878 2.52922E-01
 -1      2879 1.35896E-01
 -1      2880 1.60734E-01
 -1      2881 1.84671E-01
 -1      2882 9.45387E-02
 -1      2883 1.13154E-01
 -1      2884 1.32126E-01
 -1      2885 6.54400E-02
 -1      2886 7.74595E-02
 -1      2887 9.23051E-02
 -1      2888 4.45337E-02
 -1      2889 5.28290E-02
 -1      2890 6.26149E-02
 -1      2891 3.00532E-02
 -1      2892 3.53954E-02
 -1      2893 4.08656E-02
 -1      2894 2.21213E-02
 -1      2895 2.41609E-02
 -1      2896 2.58351E-02
 -1      2897 1.69787E-02
 -1      2898 1.89910E-02
 -1      2899 1.68126E-02
 -1      2900 1.41778E-02
 -1      2901 1.60490E-02
 -1      2902 1.27526E-02
 -1      2903 1.16975E-02
 -1      2904 1.33690E-02
 -1      2905 1.10142E-02
 -1      2906 9.45335E-03
 -1      2907 1.08672E-02
 -1      2908 9.37510E-03
 -1      2909 7.93285E-03
 -1      2910 8.71177E-03
 -1      2911 7.80318E-03
 -1      2912 6.76142E-03
 -1      2913 7.47999E-03
 -1      2914 6.60874E-03
 -1      2915 5.56380E-03
 -1      2916 6.26367E-03
 -1      2917 5.65813E-03
 -1      2918 4.45145E-03
 -1      2919 5.06693E-03
 -1      2920 4.66351E-03
 -1      2921 3.50214E-03
 -1      2922 4.02533E-03
 -1      2923 3.74052E-03
 -1      2924 2.68433E-03
 -1      2925 3.15850E-03
 -1      2926 2.97075E-03
 -1      2927 1.96603E-03
 -1      2928 2.35263E-03
 -1      2929 2.29541E-03
 -1      2930 1.54240E-03
 -1      2931 1.81564E-03
 -1      2932 1.81332E-03
 -1      2933 1.48570E-03
 -1      2934 1.36963E-03
 -1      2935 1.37720E-03
 -1      2936 1.43011E-03
 -1      2937 1.12152E-03
 -1      2938 1.43011E-03
 -1      2939 1.38673E-03
 -1      2940 1.33892E-03
 -1      2941 1.37220E-03
 -1      2942 1.36726E-03
 -1      2943 1.49321E-03
 -1      2944 1.38673E-03
 -1      2945 1.38673E-03
 -1      2946 1.51462E-03
 -1      2947 1.50510E-03
 -1      2948 1.37562E-03
 -1      2949 1.37562E-03
 -1      2950 1.49425E-03
 -1      2951 1.32627E-03
 -1      2952 1.37562E-03
 -1      2953 1.49767E-03
 -1      2954 1.13396E-03
 -1      2955 1.24601E-03
 -1      2956 1.41741E-03
 -1      2957 7.26230E+00
 -1      2958 1.00401E+01
 -1      2959 1.77531E+00
 -1      2960 1.48660E+01
 -1      2961 1.26381E+01
 -1      2962 2.13677E+01
 -1      2963 1.64821E+01
 -1      2964 1.26635E+01
 -1      2965 1.06635E+01
 -1      2966 6.73356E+00
 -1      2967 6.19583E+00
 -1      2968 7.31234E+00
 -1      2969 4.80832E+00
 -1      2970 1.65206E+00
 -1      2971 1.56963E+00
 -1      2972 1.56963E+00
 -1      2973 1.80194E+00
 -1      2974 1.91908E+01
 -1      2975 2.39369E+01
 -1      2976 2.90339E+00
 -1      2977 2.78287E+00
 -1      2978 3.33172E+00
 -1      2979 3.88045E+00
 -1      2980 1.00260E+00
 -1      2981 8.40494E-01
 -1      2982 9.67032E-01
 -1      2983 1.49137E+00
 -1      2984 1.34325E+00
 -1      2985 1.41704E+00
 -1      2986 1.58875E+00
 -1      2987 1.37888E+01
 -1      2988 1.76215E+01
 -1      2989 1.05859E+01
 -1      2990 8.36483E+00
 -1      2991 5.93366E+00
 -1      2992 9.03832E+00
 -1      2993 1.18481E+00
 -1      2994 1.18481E+00
 -1      2995 3.84089E+00
 -1      2996 3.44801E+00
 -1      2997 4.72779E+00
 -1      2998 4.54793E+00
 -1      2999 2.14854E+01
 -1      3000 2.48141E+01
 -1      3001 1.38006E+01
 -1      3002 1.71994E+01
 -1      3003 7.96840E+00
 -1      3004 5.72385E+00
 -1      3005 1.87426E+01
 -1      3006 1.35635E+01
 -1      3007 1.03989E-03
 -1      3008 4.70882E+00
 -1      3009 6.68233E+00
 -1      3010 2.61768E+01
 -1      3011 2.20819E+01
 -1      3012 1.71193E+01
 -1      3013 2.30596E+01
 -1      3014 2.14196E+01
 -1      3015 1.53039E+01
 -1      3016 7.19238E+00
 -1      3017 7.02233E+00
 -1      3018 5.34653E+00
 -1      3019 6.58820E+00
 -1      3020 9.38276E+00
 -1      3021 1.18659E+01
 -1      3022 1.18444E+00
 -1      3023 1.51673E+00
 -1      3024 1.25852E+00
 -1      3025 1.10812E+00
 -1      3026 9.92880E-01
 -1      3027 1.12525E+00
 -1      3028 1.88841E+00
 -1      3029 7.44032E+00
 -1      3030 5.32196E+00
 -1      3031 1.46119E+01
 -1      3032 1.44021E-03
 -1      3033 1.26451E-03
 -1      3034 1.16090E-03
 -1      3035 4.13086E+00
 -1      3036 5.54460E+00
 -1      3037 2.94843E+00
 -1      3038 5.62955E+00
 -1      3039 1.10170E-03
 -1      3040 1.27793E-03
 -1      3041 1.45516E-03
 -1      3042 1.30659E-03
 -1      3043 1.43746E+01
 -1      3044 5.06950E+00
 -1      3045 4.51091E+00
 -1      3046 3.19796E+00
 -1      3047 6.35422E+00
 -1      3048 1.01848E+01
 -1      3049 1.01147E+01
 -1      3050 1.03989E-03
 -1      3051 4.49504E+00
 -1      3052 1.51426E+01
 -1      3053 1.69327E+00
 -1      3054 1.69327E+00
 -1      3055 1.33552E+00
 -1      3056 1.43469E+00
 -1      3057 9.27674E+00
 -1      3058 5.92145E+00
 -1      3059 8.61657E+00
 -1      3060 1.28692E-03
 -1      3061 1.17779E-03
 -1      3062 1.38099E-03
 -1      3063 1.56801E-03
 -1      3064 1.92207E+01
 -1      3065 1.34919E+01
 -1      3066 1.36058E+01
 -1      3067 6.26723E+00
 -1      3068 1.45861E+01
 -1      3069 1.08107E+01
 -1      3070 1.24267E+01
 -1      3071 1.48575E+01
 -1      3072 4.29694E+00
 -1      3073 1.09033E+01
 -1      3074 1.15224E+00
 -1      3075 1.18481E+00
 -1      3076 1.25889E+00
 -1      3077 1.23190E+00
 -1      3078 4.16302E+00
 -1      3079 1.72943E+00
 -1      3080 3.78876E+00
 -1      3081 1.11197E+01
 -1      3082 1.27832E+00
 -1      3083 5.42103E+00
 -1      3084 5.89501E+00
 -1      3085 7.65151E+00
 -1      3086 1.82040E+00
 -1      3087 1.82040E+00
 -1      3088 6.72839E+00
 -1      3089 6.98028E+00
 -1      3090 1.53598E+00
 -1      3091 1.54846E+00
 -1      3092 6.14812E+00
 -1      3093 1.26760E+00
 -1      3094 1.35233E+00
 -1      3095 1.80244E+00
 -1      3096 1.43224E+00
 -1      3097 1.55040E+00
 -1      3098 1.60148E+00
 -1      3099 1.69945E+00
 -1      3100 1.78728E+00
 -1      3101 1.83045E+00
 -1      3102 1.93732E+00
 -1      3103 1.98144E+00
 -1      3104 2.12955E+00
 -1      3105 1.86487E+00
 -1      3106 2.04645E+00
 -1      3107 2.16302E+00
 -1      3108 4.14787E+00
 -1      3109 4.09972E+00
 -1      3110 2.88647E+00
 -1      3111 2.57036E+00
 -1      3112 1.81967E+00
 -1      3113 1.76229E+00
 -1      3114 2.69417E+00
 -1      3115 2.13530E+00
 -1      3116 2.04537E+00
 -1      3117 2.31649E+00
 -1      3118 1.61862E+00
 -1      3119 1.55060E+00
 -1      3120 2.26275E+00
 -1      3121 1.38822E+00
 -1      3122 1.23225E+00
 -1      3123 1.67361E+00
 -1      3124 1.11370E+00
 -1      3125 1.08356E+00
 -1      3126 1.39268E+00
 -1      3127 9.58029E-01
 -1      3128 9.04036E-01
 -1      3129 1.14859E+00
 -1      3130 8.04250E-01
 -1      3131 7.43990E-01
 -1      3132 9.23278E-01
 -1      3133 6.80161E-01
 -1      3134 6.36345E-01
 -1      3135 7.59662E-01
 -1      3136 5.75018E-01
 -1      3137 5.38073E-01
 -1      3138 6.34505E-01
 -1      3139 4.84797E-01
 -1      3140 4.45142E-01
 -1      3141 5.19902E-01
 -1      3142 3.97310E-01
 -1      3143 3.58883E-01
 -1      3144 4.18794E-01
 -1      3145 3.17922E-01
 -1      3146 2.82954E-01
 -1      3147 3.30001E-01
 -1      3148 2.50639E-01
 -1      3149 2.20188E-01
 -1      3150 2.56725E-01
 -1      3151 1.94656E-01
 -1      3152 1.69028E-01
 -1      3153 1.98877E-01
 -1      3154 1.47337E-01
 -1      3155 1.26365E-01
 -1      3156 1.51654E-01
 -1      3157 1.08618E-01
 -1      3158 9.18744E-02
 -1      3159 1.12215E-01
 -1      3160 7.83761E-02
 -1      3161 6.53110E-02
 -1      3162 8.09697E-02
 -1      3163 5.50609E-02
 -1      3164 4.50877E-02
 -1      3165 5.72213E-02
 -1      3166 3.77055E-02
 -1      3167 3.02620E-02
 -1      3168 3.95888E-02
 -1      3169 2.47937E-02
 -1      3170 1.93712E-02
 -1      3171 2.67383E-02
 -1      3172 1.54019E-02
 -1      3173 1.21467E-02
 -1      3174 1.73008E-02
 -1      3175 9.33419E-03
 -1      3176 8.55592E-03
 -1      3177 1.05191E-02
 -1      3178 7.26679E-03
 -1      3179 6.97381E-03
 -1      3180 6.41743E-03
 -1      3181 7.21772E-03
 -1      3182 6.74044E-03
 -1      3183 5.37221E-03
 -1      3184 6.69132E-03
 -1      3185 6.12768E-03
 -1      3186 5.56700E-03
 -1      3187 5.89977E-03
 -1      3188 5.31503E-03
 -1      3189 5.28997E-03
 -1      3190 4.98936E-03
 -1      3191 4.54615E-03
 -1      3192 4.73639E-03
 -1      3193 4.19682E-03
 -1      3194 3.80112E-03
 -1      3195 4.06140E-03
 -1      3196 3.54323E-03
 -1      3197 3.14328E-03
 -1      3198 3.45417E-03
 -1      3199 2.85114E-03
 -1      3200 2.47217E-03
 -1      3201 2.90414E-03
 -1      3202 2.17022E-03
 -1      3203 1.85965E-03
 -1      3204 1.71646E-03
 -1      3205 2.31005E-03
 -1      3206 4.47321E+00
 -1      3207 5.07738E+00
 -1      3208 5.29079E+00
 -1      3209 5.38719E+00
 -1      3210 5.96716E+00
 -1      3211 3.24772E+00
 -1      3212 3.47137E+00
 -1      3213 2.12240E+00
 -1      3214 2.35442E+00
 -1      3215 3.41788E+00
 -1      3216 1.71572E+00
 -1      3217 1.82278E+00
 -1      3218 2.22496E+00
 -1      3219 1.36429E+00
 -1      3220 1.48165E+00
 -1      3221 1.69127E+00
 -1      3222 1.08743E+00
 -1      3223 1.20139E+00
 -1      3224 1.29430E+00
 -1      3225 8.58888E-01
 -1      3226 9.61830E-01
 -1      3227 1.00581E+00
 -1      3228 6.76155E-01
 -1      3229 7.65089E-01
 -1      3230 7.86416E-01
 -1      3231 5.21185E-01
 -1      3232 5.95654E-01
 -1      3233 6.12116E-01
 -1      3234 3.94204E-01
 -1      3235 4.55091E-01
 -1      3236 4.65521E-01
 -1      3237 2.92768E-01
 -1      3238 3.41573E-01
 -1      3239 3.46796E-01
 -1      3240 2.17574E-01
 -1      3241 2.56022E-01
 -1      3242 2.57419E-01
 -1      3243 1.59205E-01
 -1      3244 1.89008E-01
 -1      3245 1.92108E-01
 -1      3246 1.14305E-01
 -1      3247 1.37047E-01
 -1      3248 1.41384E-01
 -1      3249 8.02296E-02
 -1      3250 9.73089E-02
 -1      3251 1.02230E-01
 -1      3252 5.47534E-02
 -1      3253 6.73644E-02
 -1      3254 7.23681E-02
 -1      3255 3.60260E-02
 -1      3256 4.51643E-02
 -1      3257 4.99138E-02
 -1      3258 2.31080E-02
 -1      3259 2.90002E-02
 -1      3260 3.32989E-02
 -1      3261 1.49322E-02
 -1      3262 1.80625E-02
 -1      3263 2.12276E-02
 -1      3264 1.05769E-02
 -1      3265 1.15066E-02
 -1      3266 1.27565E-02
 -1      3267 9.08496E-03
 -1      3268 9.89372E-03
 -1      3269 8.64768E-03
 -1      3270 8.14012E-03
 -1      3271 8.97045E-03
 -1      3272 7.84998E-03
 -1      3273 7.06159E-03
 -1      3274 7.80318E-03
 -1      3275 7.39853E-03
 -1      3276 6.15588E-03
 -1      3277 6.60874E-03
 -1      3278 6.60874E-03
 -1      3279 5.16038E-03
 -1      3280 5.65813E-03
 -1      3281 5.65813E-03
 -1      3282 4.25462E-03
 -1      3283 4.75149E-03
 -1      3284 4.75149E-03
 -1      3285 3.47565E-03
 -1      3286 3.90177E-03
 -1      3287 3.98975E-03
 -1      3288 2.77009E-03
 -1      3289 3.11373E-03
 -1      3290 3.27498E-03
 -1      3291 2.08807E-03
 -1      3292 2.41978E-03
 -1      3293 2.56276E-03
 -1      3294 1.71857E-03
 -1      3295 1.86895E-03
 -1      3296 1.99332E-03
 -1      3297 1.51080E-03
 -1      3298 1.56387E+00
 -1      3299 1.42319E+00
 -1      3300 1.53096E-03
 -1      3301 1.61122E-03
 -1      3302 1.55532E-03
 -1      3303 1.55769E-03
 -1      3304 4.47553E+00
 -1      3305 4.44118E+00
 -1      3306 1.19467E+01
 -1      3307 1.33093E+01
 -1      3308 1.24789E+01
 -1      3309 1.36058E+01
 -1      3310 1.12273E+01
 -1      3311 1.61122E-03
 -1      3312 1.61122E-03
 -1      3313 1.72476E-03
 -1      3314 1.14577E+01
 -1      3315 1.30271E+01
 -1      3316 4.63135E+00
 -1      3317 4.61441E+00
 -1      3318 4.56049E+00
 -1      3319 3.93174E+00
 -1      3320 3.44487E+00
 -1      3321 4.13086E+00
 -1      3322 9.76632E+00
 -1      3323 8.86638E+00
 -1      3324 3.78534E+00
 -1      3325 3.06719E+00
 -1      3326 1.39098E+01
 -1      3327 1.05705E+01
 -1      3328 1.60542E+00
 -1      3329 1.51208E+00
 -1      3330 1.69639E+00
 -1      3331 1.43763E+00
 -1      3332 3.79487E+00
 -1      3333 2.80419E+00
 -1      3334 4.45995E+00
 -1      3335 5.57068E+00
 -1      3336 5.74292E+00
 -1      3337 5.86583E+00
 -1      3338 4.03361E+00
 -1      3339 6.78243E+00
 -1      3340 8.92792E+00
 -1      3341 1.08508E+01
 -1      3342 1.31835E+01
 -1      3343 1.23061E+01
 -1      3344 1.23061E+01
 -1      3345 1.22542E+01
 -1      3346 2.75183E+00
 -1      3347 4.01265E+00
 -1      3348 1.60647E-03
 -1      3349 1.60306E-03
 -1      3350 1.66754E-03
 -1      3351 1.72002E-03
 -1      3352 1.68732E+00
 -1      3353 1.35440E+00
 -1      3354 1.37603E+00
 -1      3355 1.51077E+00
 -1      3356 1.31728E+00
 -1      3357 1.41407E+00
 -1      3358 1.72915E+00
 -1      3359 2.37905E+00
 -1      3360 2.19474E+00
 -1      3361 2.14740E+00
 -1      3362 2.84533E+00
 -1      3363 3.34740E+00
 -1      3364 4.79510E+00
 -1      3365 3.43419E+00
 -1      3366 1.68823E+00
 -1      3367 1.56387E+00
 -1      3368 1.83507E+00
 -1      3369 2.29423E+00
 -1      3370 1.63447E-03
 -1      3371 1.56006E-03
 -1      3372 2.78792E+00
 -1      3373 3.18225E+00
 -1      3374 3.22881E+00
 -1      3375 2.78792E+00
 -1      3376 1.01858E+01
 -1      3377 4.35026E+00
 -1      3378 3.25558E+00
 -1      3379 1.63447E-03
 -1      3380 1.75433E-03
 -1      3381 1.63447E-03
 -1      3382 9.66098E+00
 -1      3383 1.19257E+01
 -1      3384 8.11572E+00
 -1      3385 1.55740E+00
 -1      3386 1.55703E+00
 -1      3387 1.00293E+01
 -1      3388 3.42185E+00
 -1      3389 1.61085E-03
 -1      3390 1.62037E-03
 -1      3391 1.74023E-03
 -1      3392 1.67296E-03
 -1      3393 6.11186E+00
 -1      3394 8.73721E+00
 -1      3395 5.21956E+00
 -1      3396 6.57072E+00
 -1      3397 2.01587E+00
 -1      3398 1.96630E+00
 -1      3399 2.09830E+00
 -1      3400 3.78722E+00
 -1      3401 4.69824E+00
 -1      3402 3.60240E+00
 -1      3403 8.53355E+00
 -1      3404 3.07200E+00
 -1      3405 2.92212E+00
 -1      3406 3.36836E+00
 -1      3407 5.05192E+00
 -1      3408 1.06340E+01
 -1      3409 8.73809E+00
 -1      3410 8.56557E+00
 -1      3411 1.02059E+01
 -1      3412 8.95425E+00
 -1      3413 6.59008E+00
 -1      3414 3.06719E+00
 -1      3415 1.56664E-03
 -1      3416 1.52280E-03
 -1      3417 1.71660E-03
 -1      3418 1.85827E-03
 -1      3419 9.26596E+00
 -1      3420 4.74737E+00
 -1      3421 4.11250E+00
 -1      3422 4.37497E+00
 -1      3423 1.92335E+00
 -1      3424 6.78243E+00
 -1      3425 5.34195E+00
 -1      3426 7.47960E+00
 -1      3427 4.53618E+00
 -1      3428 8.37794E+00
 -1      3429 6.32576E+00
 -1      3430 5.75072E+00
 -1      3431 4.49501E+00
 -1      3432 1.42787E+00
 -1      3433 1.72638E+00
 -1      3434 1.42787E+00
 -1      3435 4.95232E+00
 -1      3436 8.41187E+00
 -1      3437 5.69932E+00
 -1      3438 8.13203E+00
 -1      3439 7.38261E+00
 -1      3440 5.84982E+00
 -1      3441 2.95721E+00
 -1      3442 3.69868E+00
 -1      3443 9.16388E+00
 -1      3444 9.16388E+00
 -1      3445 2.08330E+00
 -1      3446 1.80244E+00
 -1      3447 1.78451E+00
 -1      3448 1.86442E+00
 -1      3449 2.06537E+00
 -1      3450 2.03266E+00
 -1      3451 2.18172E+00
 -1      3452 2.21569E+00
 -1      3453 2.62766E+00
 -1      3454 2.51109E+00
 -1      3455 7.77224E+00
 -1      3456 8.37919E+00
 -1      3457 2.83894E+00
 -1      3458 2.41218E+00
 -1      3459 2.19837E+00
 -1      3460 2.03599E+00
 -1      3461 2.77456E+00
 -1      3462 1.72885E+00
 -1      3463 1.61029E+00
 -1      3464 2.25360E+00
 -1      3465 1.42663E+00
 -1      3466 1.30110E+00
 -1      3467 1.76280E+00
 -1      3468 1.13348E+00
 -1      3469 1.03369E+00
 -1      3470 1.41151E+00
 -1      3471 8.82372E-01
 -1      3472 8.18542E-01
 -1      3473 1.09257E+00
 -1      3474 6.99422E-01
 -1      3475 6.38094E-01
 -1      3476 8.22132E-01
 -1      3477 5.52438E-01
 -1      3478 4.99162E-01
 -1      3479 6.17354E-01
 -1      3480 4.49984E-01
 -1      3481 4.02152E-01
 -1      3482 4.82520E-01
 -1      3483 3.63299E-01
 -1      3484 3.22338E-01
 -1      3485 3.94489E-01
 -1      3486 2.86604E-01
 -1      3487 2.54289E-01
 -1      3488 3.19902E-01
 -1      3489 2.23108E-01
 -1      3490 1.97575E-01
 -1      3491 2.52987E-01
 -1      3492 1.71290E-01
 -1      3493 1.49599E-01
 -1      3494 1.95521E-01
 -1      3495 1.28082E-01
 -1      3496 1.10335E-01
 -1      3497 1.47719E-01
 -1      3498 9.31010E-02
 -1      3499 7.96027E-02
 -1      3500 1.08968E-01
 -1      3501 6.61763E-02
 -1      3502 5.59262E-02
 -1      3503 7.83076E-02
 -1      3504 4.59015E-02
 -1      3505 3.85192E-02
 -1      3506 5.48566E-02
 -1      3507 3.12732E-02
 -1      3508 2.58049E-02
 -1      3509 3.75859E-02
 -1      3510 2.04365E-02
 -1      3511 1.64673E-02
 -1      3512 2.49714E-02
 -1      3513 1.25855E-02
 -1      3514 9.77296E-03
 -1      3515 1.57211E-02
 -1      3516 7.05232E-03
 -1      3517 5.76319E-03
 -1      3518 9.11871E-03
 -1      3519 4.00824E-03
 -1      3520 4.25215E-03
 -1      3521 4.64313E-03
 -1      3522 4.56985E-03
 -1      3523 4.52073E-03
 -1      3524 3.20589E-03
 -1      3525 4.70023E-03
 -1      3526 4.47231E-03
 -1      3527 3.70308E-03
 -1      3528 4.43728E-03
 -1      3529 4.11162E-03
 -1      3530 3.84754E-03
 -1      3531 3.94540E-03
 -1      3532 3.59607E-03
 -1      3533 3.64629E-03
 -1      3534 3.35749E-03
 -1      3535 3.09960E-03
 -1      3536 3.24150E-03
 -1      3537 2.90490E-03
 -1      3538 2.61276E-03
 -1      3539 2.80822E-03
 -1      3540 2.23868E+00
 -1      3541 2.53831E+00
 -1      3542 1.83188E-03
 -1      3543 1.83188E-03
 -1      3544 1.28002E+00
 -1      3545 1.44292E+00
 -1      3546 1.00034E+00
 -1      3547 1.12594E+00
 -1      3548 1.27455E+00
 -1      3549 7.79999E-01
 -1      3550 8.73798E-01
 -1      3551 9.93924E-01
 -1      3552 5.98445E-01
 -1      3553 6.78946E-01
 -1      3554 7.66328E-01
 -1      3555 4.52356E-01
 -1      3556 5.18450E-01
 -1      3557 5.85280E-01
 -1      3558 3.36886E-01
 -1      3559 3.89517E-01
 -1      3560 4.42446E-01
 -1      3561 2.51142E-01
 -1      3562 2.87888E-01
 -1      3563 3.30609E-01
 -1      3564 1.84709E-01
 -1      3565 2.13275E-01
 -1      3566 2.43743E-01
 -1      3567 1.33571E-01
 -1      3568 1.55730E-01
 -1      3569 1.76896E-01
 -1      3570 9.46660E-02
 -1      3571 1.11662E-01
 -1      3572 1.26008E-01
 -1      3573 6.59841E-02
 -1      3574 7.88493E-02
 -1      3575 8.82819E-02
 -1      3576 4.48917E-02
 -1      3577 5.44808E-02
 -1      3578 6.09620E-02
 -1      3579 2.94202E-02
 -1      3580 3.64460E-02
 -1      3581 4.10131E-02
 -1      3582 1.83661E-02
 -1      3583 2.34116E-02
 -1      3584 2.65587E-02
 -1      3585 1.07024E-02
 -1      3586 1.41281E-02
 -1      3587 1.63120E-02
 -1      3588 7.37477E-03
 -1      3589 8.05795E-03
 -1      3590 9.42950E-03
 -1      3591 6.01792E-03
 -1      3592 6.13243E-03
 -1      3593 5.54270E-03
 -1      3594 6.00312E-03
 -1      3595 6.34006E-03
 -1      3596 4.62251E-03
 -1      3597 5.56669E-03
 -1      3598 6.01955E-03
 -1      3599 4.96108E-03
 -1      3600 4.89733E-03
 -1      3601 5.39509E-03
 -1      3602 4.80590E-03
 -1      3603 4.21101E-03
 -1      3604 4.61990E-03
 -1      3605 4.35686E-03
 -1      3606 3.54325E-03
 -1      3607 3.89610E-03
 -1      3608 3.76451E-03
 -1      3609 3.18133E-03
 -1      3610 3.54325E-03
 -1      3611 3.44959E-03
 -1      3612 2.81595E-03
 -1      3613 3.16626E-03
 -1      3614 3.43452E-03
 -1      3615 9.00745E+00
 -1      3616 9.16388E+00
 -1      3617 8.14200E+00
 -1      3618 1.60818E-03
 -1      3619 1.54898E-03
 -1      3620 1.81239E-03
 -1      3621 1.80245E-03
 -1      3622 4.55189E+00
 -1      3623 4.93894E+00
 -1      3624 4.90021E+00
 -1      3625 6.82053E+00
 -1      3626 9.66098E+00
 -1      3627 9.66098E+00
 -1      3628 7.84152E+00
 -1      3629 7.03738E+00
 -1      3630 1.64704E+00
 -1      3631 1.88111E+00
 -1      3632 1.63276E+00
 -1      3633 1.80966E+00
 -1      3634 6.12851E+00
 -1      3635 1.45381E+00
 -1      3636 1.48080E+00
 -1      3637 1.64978E+00
 -1      3638 1.96961E+00
 -1      3639 2.31649E+00
 -1      3640 5.09035E+00
 -1      3641 4.32688E+00
 -1      3642 3.75184E+00
 -1      3643 7.30390E+00
 -1      3644 7.90438E+00
 -1      3645 2.68950E+00
 -1      3646 2.61161E+00
 -1      3647 2.91994E+00
 -1      3648 3.18985E+00
 -1      3649 5.59833E+00
 -1      3650 6.23946E+00
 -1      3651 7.12623E+00
 -1      3652 2.24101E+00
 -1      3653 2.35470E+00
 -1      3654 2.35470E+00
 -1      3655 2.11148E+00
 -1      3656 2.82928E+00
 -1      3657 3.17735E+00
 -1      3658 4.55189E+00
 -1      3659 2.67924E+00
 -1      3660 3.29428E+00
 -1      3661 2.46794E-03
 -1      3662 2.46794E-03
 -1      3663 6.73560E+00
 -1      3664 7.75748E+00
 -1      3665 6.13728E+00
 -1      3666 2.31037E+00
 -1      3667 2.31037E+00
 -1      3668 1.83188E-03
 -1      3669 1.82714E-03
 -1      3670 1.93900E-03
 -1      3671 2.88145E+00
 -1      3672 7.51374E+00
 -1      3673 3.37897E+00
 -1      3674 3.30051E-03
 -1      3675 2.58689E-03
 -1      3676 2.19446E+00
 -1      3677 2.37296E-03
 -1      3678 2.07101E-03
 -1      3679 1.92118E-03
 -1      3680 2.37372E-03
 -1      3681 2.93625E+00
 -1      3682 3.82955E+00
 -1      3683 2.03151E-03
 -1      3684 8.09470E+00
 -1      3685 2.63502E-03
 -1      3686 7.23182E+00
 -1      3687 7.25283E+00
 -1      3688 6.42000E+00
 -1      3689 1.73853E-03
 -1      3690 1.79169E-03
 -1      3691 3.04093E+00
 -1      3692 2.56562E+00
 -1      3693 2.45971E+00
 -1      3694 6.40821E+00
 -1      3695 3.71520E+00
 -1      3696 5.27517E+00
 -1      3697 5.36633E+00
 -1      3698 1.66297E+00
 -1      3699 8.40127E+00
 -1      3700 6.83500E+00
 -1      3701 6.12826E+00
 -1      3702 6.00195E+00
 -1      3703 5.14222E+00
 -1      3704 6.21880E+00
 -1      3705 2.94997E+00
 -1      3706 7.89200E+00
 -1      3707 5.49322E+00
 -1      3708 6.09928E+00
 -1      3709 3.60240E+00
 -1      3710 1.92934E-03
 -1      3711 4.68375E+00
 -1      3712 3.34525E+00
 -1      3713 3.13143E+00
 -1      3714 4.71768E+00
 -1      3715 2.03646E-03
 -1      3716 5.11669E+00
 -1      3717 1.78339E-03
 -1      3718 1.73565E-03
 -1      3719 1.85438E-03
 -1      3720 1.89525E-03
 -1      3721 1.80579E-03
 -1      3722 2.51941E-03
 -1      3723 1.79169E-03
 -1      3724 9.33515E-01
 -1      3725 1.06006E+00
 -1      3726 2.83511E+00
 -1      3727 3.31042E+00
 -1      3728 3.29428E+00
 -1      3729 3.30051E-03
 -1      3730 3.41946E-03
 -1      3731 3.43452E-03
 -1      3732 2.34676E+00
 -1      3733 2.70434E+00
 -1      3734 2.63310E+00
 -1      3735 2.32596E+00
 -1      3736 3.20379E+00
 -1      3737 1.94646E+00
 -1      3738 1.76280E+00
 -1      3739 2.32596E+00
 -1      3740 1.49444E+00
 -1      3741 1.32681E+00
 -1      3742 1.67810E+00
 -1      3743 1.14217E+00
 -1      3744 9.90856E-01
 -1      3745 1.22510E+00
 -1      3746 8.74589E-01
 -1      3747 7.55468E-01
 -1      3748 9.24192E-01
 -1      3749 6.79005E-01
 -1      3750 5.93348E-01
 -1      3751 7.31462E-01
 -1      3752 5.25640E-01
 -1      3753 4.76462E-01
 -1      3754 5.87290E-01
 -1      3755 4.20900E-01
 -1      3756 3.82047E-01
 -1      3757 4.64020E-01
 -1      3758 3.36143E-01
 -1      3759 3.00409E-01
 -1      3760 3.62554E-01
 -1      3761 2.63338E-01
 -1      3762 2.32157E-01
 -1      3763 2.79580E-01
 -1      3764 2.02492E-01
 -1      3765 1.76207E-01
 -1      3766 2.12843E-01
 -1      3767 1.52825E-01
 -1      3768 1.31307E-01
 -1      3769 1.59796E-01
 -1      3770 1.12819E-01
 -1      3771 9.55852E-02
 -1      3772 1.17925E-01
 -1      3773 8.14918E-02
 -1      3774 6.80654E-02
 -1      3775 8.53429E-02
 -1      3776 5.72711E-02
 -1      3777 4.72464E-02
 -1      3778 6.04552E-02
 -1      3779 3.91835E-02
 -1      3780 3.19375E-02
 -1      3781 4.15980E-02
 -1      3782 2.64423E-02
 -1      3783 2.10739E-02
 -1      3784 2.80400E-02
 -1      3785 1.70529E-02
 -1      3786 1.31711E-02
 -1      3787 1.85239E-02
 -1      3788 1.02878E-02
 -1      3789 7.56712E-03
 -1      3790 1.16195E-02
 -1      3791 5.70826E-03
 -1      3792 3.95332E-03
 -1      3793 6.87731E-03
 -1      3794 2.87051E-03
 -1      3795 3.18821E-03
 -1      3796 3.93565E-03
 -1      3797 2.87222E-03
 -1      3798 3.05171E-03
 -1      3799 2.53684E-03
 -1      3800 3.29851E-03
 -1      3801 3.26347E-03
 -1      3802 2.46765E-03
 -1      3803 3.30792E-03
 -1      3804 3.14170E-03
 -1      3805 2.75889E-03
 -1      3806 3.05785E-03
 -1      3807 2.81927E-03
 -1      3808 2.71948E-03
 -1      3809 2.66013E-03
 -1      3810 2.46543E-03
 -1      3811 2.47649E-03
 -1      3812 2.27626E-03
 -1      3813 2.88145E+00
 -1      3814 7.08940E-01
 -1      3815 8.09993E-01
 -1      3816 8.76127E-01
 -1      3817 2.44137E+00
 -1      3818 2.93889E+00
 -1      3819 3.27512E+00
 -1      3820 2.27313E+00
 -1      3821 1.23245E+00
 -1      3822 1.38653E+00
 -1      3823 1.17204E+00
 -1      3824 5.37543E-01
 -1      3825 6.17539E-01
 -1      3826 6.61204E-01
 -1      3827 4.05469E-01
 -1      3828 4.68307E-01
 -1      3829 5.00566E-01
 -1      3830 3.03204E-01
 -1      3831 3.52203E-01
 -1      3832 3.78064E-01
 -1      3833 2.24171E-01
 -1      3834 2.62039E-01
 -1      3835 2.83633E-01
 -1      3836 1.63360E-01
 -1      3837 1.92339E-01
 -1      3838 2.10635E-01
 -1      3839 1.16988E-01
 -1      3840 1.38898E-01
 -1      3841 1.54340E-01
 -1      3842 8.25417E-02
 -1      3843 9.83584E-02
 -1      3844 1.11248E-01
 -1      3845 5.69786E-02
 -1      3846 6.84819E-02
 -1      3847 7.85583E-02
 -1      3848 3.83925E-02
 -1      3849 4.68383E-02
 -1      3850 5.43581E-02
 -1      3851 2.51530E-02
 -1      3852 3.11616E-02
 -1      3853 3.69868E-02
 -1      3854 1.56315E-02
 -1      3855 1.98695E-02
 -1      3856 2.44724E-02
 -1      3857 9.20615E-03
 -1      3858 1.18506E-02
 -1      3859 1.54081E-02
 -1      3860 5.37453E-03
 -1      3861 6.61686E-03
 -1      3862 9.03797E-03
 -1      3863 4.11142E-03
 -1      3864 3.78928E-03
 -1      3865 4.86344E-03
 -1      3866 4.05026E-03
 -1      3867 4.03383E-03
 -1      3868 3.20060E-03
 -1      3869 4.07556E-03
 -1      3870 4.24716E-03
 -1      3871 3.31992E-03
 -1      3872 3.78372E-03
 -1      3873 4.06115E-03
 -1      3874 3.50242E-03
 -1      3875 3.33500E-03
 -1      3876 3.64991E-03
 -1      3877 3.35421E-03
 -1      3878 3.44959E-03
 -1      3879 3.44959E-03
 -1      3880 3.33500E-03
 -1      3881 3.43452E-03
 -1      3882 6.77265E+00
 -1      3883 6.77265E+00
 -1      3884 2.21080E+00
 -1      3885 2.15788E+00
 -1      3886 2.67250E+00
 -1      3887 1.63276E+00
 -1      3888 1.83688E+00
 -1      3889 1.59065E+00
 -1      3890 2.45971E+00
 -1      3891 2.49944E+00
 -1      3892 3.29618E+00
 -1      3893 4.37561E+00
 -1      3894 6.14439E+00
 -1      3895 6.77265E+00
 -1      3896 3.97767E+00
 -1      3897 1.85726E-03
 -1      3898 2.81196E+00
 -1      3899 2.79403E+00
 -1      3900 3.01972E+00
 -1      3901 4.75853E+00
 -1      3902 3.93471E+00
 -1      3903 4.58002E+00
 -1      3904 5.70857E+00
 -1      3905 3.83516E+00
 -1      3906 7.23182E+00
 -1      3907 7.23182E+00
 -1      3908 6.36894E+00
 -1      3909 6.28166E+00
 -1      3910 2.12817E-03
 -1      3911 4.78819E+00
 -1      3912 5.59627E+00
 -1      3913 4.75018E+00
 -1      3914 4.76674E+00
 -1      3915 4.24200E+00
 -1      3916 2.63836E-03
 -1      3917 6.38143E+00
 -1      3918 4.97503E+00
 -1      3919 5.01208E+00
 -1      3920 3.00754E+00
 -1      3921 2.34676E+00
 -1      3922 1.73509E-03
 -1      3923 1.73797E-03
 -1      3924 4.58002E+00
 -1      3925 5.40330E+00
 -1      3926 4.12997E+00
 -1      3927 3.51739E+00
 -1      3928 3.77265E+00
 -1      3929 4.97372E+00
 -1      3930 6.08470E+00
 -1      3931 5.89529E+00
 -1      3932 5.36578E+00
 -1      3933 4.81280E+00
 -1      3934 4.05087E+00
 -1      3935 2.12817E-03
 -1      3936 5.06350E+00
 -1      3937 6.32321E+00
 -1      3938 5.46033E+00
 -1      3939 2.11956E-03
 -1      3940 2.11956E-03
 -1      3941 2.00027E-03
 -1      3942 3.08336E+00
 -1      3943 4.58340E+00
 -1      3944 3.56784E+00
 -1      3945 3.06951E+00
 -1      3946 4.34337E+00
 -1      3947 5.36009E+00
 -1      3948 3.01972E+00
 -1      3949 3.79602E+00
 -1      3950 3.79547E+00
 -1      3951 3.54062E+00
 -1      3952 5.51161E+00
 -1      3953 2.90066E-03
 -1      3954 1.86428E-03
 -1      3955 1.74787E-03
 -1      3956 1.90803E-03
 -1      3957 2.46935E+00
 -1      3958 2.08985E+00
 -1      3959 2.83340E+00
 -1      3960 1.63835E+00
 -1      3961 1.36999E+00
 -1      3962 1.78174E+00
 -1      3963 1.19917E+00
 -1      3964 1.01454E+00
 -1      3965 1.15943E+00
 -1      3966 9.05952E-01
 -1      3967 7.89684E-01
 -1      3968 8.80029E-01
 -1      3969 7.04075E-01
 -1      3970 6.27612E-01
 -1      3971 6.85835E-01
 -1      3972 5.54500E-01
 -1      3973 4.86792E-01
 -1      3974 5.27114E-01
 -1      3975 4.34449E-01
 -1      3976 3.78888E-01
 -1      3977 4.01659E-01
 -1      3978 3.37051E-01
 -1      3979 2.91147E-01
 -1      3980 3.07480E-01
 -1      3981 2.58876E-01
 -1      3982 2.21805E-01
 -1      3983 2.33373E-01
 -1      3984 1.97174E-01
 -1      3985 1.67509E-01
 -1      3986 1.76471E-01
 -1      3987 1.49077E-01
 -1      3988 1.25695E-01
 -1      3989 1.33408E-01
 -1      3990 1.12135E-01
 -1      3991 9.36468E-02
 -1      3992 1.01417E-01
 -1      3993 8.30906E-02
 -1      3994 6.89972E-02
 -1      3995 7.73010E-02
 -1      3996 6.01388E-02
 -1      3997 4.93445E-02
 -1      3998 5.78865E-02
 -1      3999 4.24425E-02
 -1      4000 3.43796E-02
 -1      4001 4.21261E-02
 -1      4002 2.91616E-02
 -1      4003 2.36664E-02
 -1      4004 3.00061E-02
 -1      4005 1.99842E-02
 -1      4006 1.59632E-02
 -1      4007 2.11058E-02
 -1      4008 1.31634E-02
 -1      4009 1.02800E-02
 -1      4010 1.46237E-02
 -1      4011 8.19600E-03
 -1      4012 6.33714E-03
 -1      4013 9.73988E-03
 -1      4014 4.82069E-03
 -1      4015 3.73788E-03
 -1      4016 6.13938E-03
 -1      4017 2.66200E-03
 -1      4018 2.34601E-03
 -1      4019 3.54705E-03
 -1      4020 1.82018E-03
 -1      4021 2.06697E-03
 -1      4022 1.94534E-03
 -1      4023 2.20886E-03
 -1      4024 2.25330E-03
 -1      4025 1.56139E-03
 -1      4026 2.27581E-03
 -1      4027 2.19196E-03
 -1      4028 1.72578E-03
 -1      4029 4.31354E-01
 -1      4030 5.00590E-01
 -1      4031 3.26985E-01
 -1      4032 3.80251E-01
 -1      4033 3.80275E-01
 -1      4034 2.46355E-01
 -1      4035 2.87521E-01
 -1      4036 2.89707E-01
 -1      4037 1.83556E-01
 -1      4038 2.15388E-01
 -1      4039 2.19276E-01
 -1      4040 1.35008E-01
 -1      4041 1.59470E-01
 -1      4042 1.64223E-01
 -1      4043 9.75999E-02
 -1      4044 1.16230E-01
 -1      4045 1.21360E-01
 -1      4046 6.91602E-02
 -1      4047 8.32201E-02
 -1      4048 8.82018E-02
 -1      4049 4.80122E-02
 -1      4050 5.81525E-02
 -1      4051 6.28143E-02
 -1      4052 3.25357E-02
 -1      4053 3.97666E-02
 -1      4054 4.35610E-02
 -1      4055 2.16069E-02
 -1      4056 2.68903E-02
 -1      4057 2.96701E-02
 -1      4058 1.36800E-02
 -1      4059 1.74609E-02
 -1      4060 1.98787E-02
 -1      4061 8.09388E-03
 -1      4062 1.06832E-02
 -1      4063 1.27359E-02
 -1      4064 4.59250E-03
 -1      4065 6.17775E-03
 -1      4066 7.82294E-03
 -1      4067 3.22958E-03
 -1      4068 3.30717E-03
 -1      4069 4.62147E-03
 -1      4070 2.77543E-03
 -1      4071 2.57853E-03
 -1      4072 2.68510E-03
 -1      4073 3.01115E-03
 -1      4074 3.02555E-03
 -1      4075 2.28417E-03
 -1      4076 2.93370E-03
 -1      4077 3.06751E-03
 -1      4078 2.59064E-03
 -1      4079 1.93245E+00
 -1      4080 2.44233E+00
 -1      4081 3.12976E+00
 -1      4082 7.51837E-01
 -1      4083 8.75358E-01
 -1      4084 3.07297E+00
 -1      4085 4.34630E+00
 -1      4086 4.34630E+00
 -1      4087 2.65866E+00
 -1      4088 1.01017E+00
 -1      4089 1.18257E+00
 -1      4090 8.85885E-01
 -1      4091 1.37461E+00
 -1      4092 1.62083E+00
 -1      4093 1.21274E+00
 -1      4094 3.92395E+00
 -1      4095 3.92395E+00
 -1      4096 2.09720E-03
 -1      4097 5.67331E-01
 -1      4098 6.58732E-01
 -1      4099 6.57964E-01
 -1      4100 4.98119E-01
 -1      4101 3.95508E+00
 -1      4102 4.67265E+00
 -1      4103 4.13164E+00
 -1      4104 4.31848E+00
 -1      4105 2.57014E-03
 -1      4106 3.08893E-03
 -1      4107 3.10400E-03
 -1      4108 2.36160E-03
 -1      4109 2.20246E-03
 -1      4110 4.55172E+00
 -1      4111 3.92395E+00
 -1      4112 1.71640E+00
 -1      4113 3.10011E-03
 -1      4114 2.98551E-03
 -1      4115 2.69881E-03
 -1      4116 2.75452E-03
 -1      4117 1.98232E-03
 -1      4118 3.63531E+00
 -1      4119 4.04617E+00
 -1      4120 5.06350E+00
 -1      4121 4.40041E+00
 -1      4122 1.86292E-03
 -1      4123 2.24451E-03
 -1      4124 2.43279E-03
 -1      4125 4.10198E+00
 -1      4126 3.19217E+00
 -1      4127 2.59201E+00
 -1      4128 3.59897E+00
 -1      4129 1.91793E-03
 -1      4130 1.71611E-03
 -1      4131 1.58692E-03
 -1      4132 1.83116E-03
 -1      4133 1.82136E-03
 -1      4134 2.04636E-01
 -1      4135 2.35603E-01
 -1      4136 2.50792E+00
 -1      4137 2.05642E+00
 -1      4138 2.86668E+00
 -1      4139 1.48627E+00
 -1      4140 1.31545E+00
 -1      4141 2.21244E+00
 -1      4142 1.07145E+00
 -1      4143 9.62865E-01
 -1      4144 1.39829E+00
 -1      4145 8.83604E-01
 -1      4146 7.97995E-01
 -1      4147 1.07502E+00
 -1      4148 7.97995E-01
 -1      4149 7.24883E-01
 -1      4150 9.95764E-01
 -1      4151 4.50720E-01
 -1      4152 3.98377E-01
 -1      4153 7.21601E-01
 -1      4154 3.38775E-01
 -1      4155 2.96938E-01
 -1      4156 3.87835E-01
 -1      4157 2.55273E-01
 -1      4158 2.23002E-01
 -1      4159 2.86568E-01
 -1      4160 2.20822E-01
 -1      4161 1.96191E-01
 -1      4162 2.42723E-01
 -1      4163 1.67787E-01
 -1      4164 1.49356E-01
 -1      4165 2.12139E-01
 -1      4166 1.52234E-01
 -1      4167 1.38674E-01
 -1      4168 1.86612E-01
 -1      4169 8.72334E-02
 -1      4170 7.66773E-02
 -1      4171 1.38050E-01
 -1      4172 6.52589E-02
 -1      4173 5.64005E-02
 -1      4174 7.51913E-02
 -1      4175 4.76631E-02
 -1      4176 4.07612E-02
 -1      4177 5.50356E-02
 -1      4178 3.39696E-02
 -1      4179 2.87516E-02
 -1      4180 3.95067E-02
 -1      4181 2.38558E-02
 -1      4182 2.01736E-02
 -1      4183 2.78193E-02
 -1      4184 1.66234E-02
 -1      4185 1.38235E-02
 -1      4186 1.93734E-02
 -1      4187 1.11647E-02
 -1      4188 9.08067E-03
 -1      4189 1.31643E-02
 -1      4190 7.12942E-03
 -1      4191 5.61297E-03
 -1      4192 8.55426E-03
 -1      4193 4.21300E-03
 -1      4194 3.13712E-03
 -1      4195 5.20304E-03
 -1      4196 2.15866E-03
 -1      4197 1.63283E-03
 -1      4198 2.82461E-03
 -1      4199 1.36803E-03
 -1      4200 1.50991E-03
 -1      4201 1.58135E-03
 -1      4202 1.60795E-03
 -1      4203 1.63045E-03
 -1      4204 1.41458E-03
 -1      4205 2.68199E-01
 -1      4206 3.07664E-01
 -1      4207 2.53559E-01
 -1      4208 3.43520E-01
 -1      4209 3.94623E-01
 -1      4210 3.22012E-01
 -1      4211 1.69731E-01
 -1      4212 1.93817E-01
 -1      4213 2.10144E-01
 -1      4214 1.05888E-01
 -1      4215 1.24666E-01
 -1      4216 1.54259E-01
 -1      4217 8.51193E-02
 -1      4218 9.94992E-02
 -1      4219 1.02805E-01
 -1      4220 6.16576E-02
 -1      4221 7.26653E-02
 -1      4222 8.39627E-02
 -1      4223 4.32835E-02
 -1      4224 5.15290E-02
 -1      4225 6.13801E-02
 -1      4226 3.02008E-02
 -1      4227 3.58461E-02
 -1      4228 4.38141E-02
 -1      4229 2.04572E-02
 -1      4230 2.46032E-02
 -1      4231 3.07793E-02
 -1      4232 1.32668E-02
 -1      4233 1.62637E-02
 -1      4234 2.09881E-02
 -1      4235 8.27680E-03
 -1      4236 1.01929E-02
 -1      4237 1.37207E-02
 -1      4238 4.79143E-03
 -1      4239 6.07676E-03
 -1      4240 8.44676E-03
 -1      4241 2.68510E-03
 -1      4242 3.33614E-03
 -1      4243 4.79143E-03
 -1      4244 2.04301E-03
 -1      4245 1.79289E-03
 -1      4246 2.44394E-03
 -1      4247 2.27128E-03
 -1      4248 2.21492E-03
 -1      4249 1.72365E-03
 -1      4250 1.67807E+00
 -1      4251 1.98968E+00
 -1      4252 2.50133E+00
 -1      4253 3.13197E+00
 -1      4254 2.46300E+00
 -1      4255 5.30903E+00
 -1      4256 4.30102E+00
 -1      4257 1.04630E+00
 -1      4258 1.23834E+00
 -1      4259 1.51163E+00
 -1      4260 1.69588E-03
 -1      4261 1.86552E-03
 -1      4262 1.59931E-03
 -1      4263 1.57804E-03
 -1      4264 8.50660E-01
 -1      4265 9.85476E-01
 -1      4266 1.01108E+00
 -1      4267 3.79775E+00
 -1      4268 5.30903E+00
 -1      4269 5.95475E-01
 -1      4270 6.88579E-01
 -1      4271 7.88171E-01
 -1      4272 3.49537E+00
 -1      4273 2.45267E-03
 -1      4274 2.07695E-03
 -1      4275 2.50448E-03
 -1      4276 1.74142E-03
 -1      4277 2.01742E-03
 -1      4278 1.78557E-03
 -1      4279 4.04617E+00
 -1      4280 3.48344E+00
 -1      4281 4.36623E-01
 -1      4282 5.03364E-01
 -1      4283 3.99868E-01
 -1      4284 9.79329E-01
 -1      4285 1.04016E+00
 -1      4286 2.19934E-01
 -1      4287 2.30753E-01
 -1      4288 2.73095E+00
 -1      4289 2.16081E+00
 -1      4290 1.84081E+00
 -1      4291 1.59680E+00
 -1      4292 2.35932E+00
 -1      4293 1.08135E+00
 -1      4294 1.00209E+00
 -1      4295 1.00209E+00
 -1      4296 9.73008E-01
 -1      4297 6.98845E-01
 -1      4298 4.20042E-01
 -1      4299 3.60440E-01
 -1      4300 6.71449E-01
 -1      4301 3.17646E-01
 -1      4302 2.75981E-01
 -1      4303 3.49853E-01
 -1      4304 2.42723E-01
 -1      4305 2.40543E-01
 -1      4306 2.73801E-01
 -1      4307 2.40543E-01
 -1      4308 2.12139E-01
 -1      4309 2.15017E-01
 -1      4310 1.94408E-01
 -1      4311 1.42967E-01
 -1      4312 8.27794E-02
 -1      4313 7.13610E-02
 -1      4314 1.39137E-01
 -1      4315 6.07185E-02
 -1      4316 5.19812E-02
 -1      4317 6.83066E-02
 -1      4318 4.37474E-02
 -1      4319 3.69558E-02
 -1      4320 4.94303E-02
 -1      4321 3.06801E-02
 -1      4322 2.57844E-02
 -1      4323 3.49208E-02
 -1      4324 2.13927E-02
 -1      4325 1.78425E-02
 -1      4326 2.42535E-02
 -1      4327 1.46440E-02
 -1      4328 1.19852E-02
 -1      4329 1.66634E-02
 -1      4330 9.61775E-03
 -1      4331 7.66650E-03
 -1      4332 1.10974E-02
 -1      4333 5.94953E-03
 -1      4334 4.54955E-03
 -1      4335 7.01301E-03
 -1      4336 3.33295E-03
 -1      4337 2.35449E-03
 -1      4338 4.07943E-03
 -1      4339 1.53858E-03
 -1      4340 1.27378E-03
 -1      4341 2.04692E-03
 -1      4342 2.30753E-01
 -1      4343 2.63349E-01
 -1      4344 2.96607E-01
 -1      4345 3.32464E-01
 -1      4346 2.82698E+00
 -1      4347 3.34771E+00
 -1      4348 1.47871E-01
 -1      4349 1.54259E-01
 -1      4350 7.52289E-02
 -1      4351 8.76829E-02
 -1      4352 5.44578E-02
 -1      4353 6.45864E-02
 -1      4354 3.87866E-02
 -1      4355 4.62240E-02
 -1      4356 2.69134E-02
 -1      4357 3.25110E-02
 -1      4358 1.83282E-02
 -1      4359 2.25218E-02
 -1      4360 1.20558E-02
 -1      4361 1.51297E-02
 -1      4362 7.48835E-03
 -1      4363 9.68839E-03
 -1      4364 4.31609E-03
 -1      4365 5.77137E-03
 -1      4366 2.20728E-03
 -1      4367 3.09948E-03
 -1      4368 1.56329E-03
 -1      4369 1.39137E-03
 -1      4370 2.50838E-03
 -1      4371 2.18275E-03
 -1      4372 1.99325E-01
 -1      4373 1.55561E+00
 -1      4374 1.99533E+00
 -1      4375 3.39935E+00
 -1      4376 2.50698E+00
 -1      4377 2.09301E-03
 -1      4378 1.52386E+00
 -1      4379 9.79329E-01
 -1      4380 2.40543E-01
 -1      4381 2.19934E-01
 -1      4382 1.65064E-03
 -1      4383 1.81597E-03
 -1      4384 1.50853E-03
 -1      4385 1.31655E-03
 -1      4386 1.41458E-03
 -1      4387 3.75257E-01
 -1      4388 7.88171E-01
 -1      4389 9.50251E-01
 -1      4390 5.33979E-01
 -1      4391 1.27378E-03
 -1      4392 1.78744E-03
 -1      4393 1.60606E-03
 -1      4394 1.44311E-03
 -1      4395 4.17257E-01
 -1      4396 1.34507E-03
 -1      4397 6.96060E-01
 -3
 9999
