    1C
    1UUSER                                                              
    1UDATE              27.october.2022                                 
    1UTIME              00:18:01                                        
    1UHOST                                                              
    1UPGM               CalculiX                                        
    1UVERSION           Version 2.17                             
    1UCOMPILETIME       Thu Jul 23 21:43:50 CEST 2020                    
    1UDIR                                                               
    1UDBN                                                               
    1UMAT    1SOLIDMATERIAL                                             
    2C                          4329                                     1
 -1         1 5.72727E+01 3.04754E+01 0.00000E+00
 -1         2 6.33346E+01 2.35385E+01 0.00000E+00
 -1         3 1.50000E+02 0.00000E+00 0.00000E+00
 -1         4 1.50000E+02 5.00000E+01 0.00000E+00
 -1         5 0.00000E+00 0.00000E+00 0.00000E+00
 -1         6 0.00000E+00 5.00000E+01 0.00000E+00
 -1         7 0.00000E+00 4.70500E+01 0.00000E+00
 -1         8 0.00000E+00 4.41000E+01 0.00000E+00
 -1         9 0.00000E+00 4.11500E+01 0.00000E+00
 -1        10 0.00000E+00 3.82000E+01 0.00000E+00
 -1        11 0.00000E+00 3.52500E+01 0.00000E+00
 -1        12 0.00000E+00 3.23500E+01 0.00000E+00
 -1        13 0.00000E+00 2.94000E+01 0.00000E+00
 -1        14 0.00000E+00 2.64500E+01 0.00000E+00
 -1        15 0.00000E+00 2.35000E+01 0.00000E+00
 -1        16 0.00000E+00 2.05500E+01 0.00000E+00
 -1        17 0.00000E+00 1.76000E+01 0.00000E+00
 -1        18 0.00000E+00 1.47000E+01 0.00000E+00
 -1        19 0.00000E+00 1.17500E+01 0.00000E+00
 -1        20 0.00000E+00 8.80000E+00 0.00000E+00
 -1        21 0.00000E+00 5.85000E+00 0.00000E+00
 -1        22 0.00000E+00 2.90000E+00 0.00000E+00
 -1        23 3.15000E+00 5.00000E+01 0.00000E+00
 -1        24 6.15000E+00 5.00000E+01 0.00000E+00
 -1        25 9.15000E+00 5.00000E+01 0.00000E+00
 -1        26 1.21500E+01 5.00000E+01 0.00000E+00
 -1        27 1.51500E+01 5.00000E+01 0.00000E+00
 -1        28 1.81500E+01 5.00000E+01 0.00000E+00
 -1        29 2.11500E+01 5.00000E+01 0.00000E+00
 -1        30 2.41500E+01 5.00000E+01 0.00000E+00
 -1        31 2.71500E+01 5.00000E+01 0.00000E+00
 -1        32 3.01500E+01 5.00000E+01 0.00000E+00
 -1        33 3.31500E+01 5.00000E+01 0.00000E+00
 -1        34 3.61500E+01 5.00000E+01 0.00000E+00
 -1        35 3.91500E+01 5.00000E+01 0.00000E+00
 -1        36 4.21500E+01 5.00000E+01 0.00000E+00
 -1        37 4.51500E+01 5.00000E+01 0.00000E+00
 -1        38 4.81500E+01 5.00000E+01 0.00000E+00
 -1        39 5.11500E+01 5.00000E+01 0.00000E+00
 -1        40 5.41500E+01 5.00000E+01 0.00000E+00
 -1        41 5.71500E+01 5.00000E+01 0.00000E+00
 -1        42 6.01500E+01 5.00000E+01 0.00000E+00
 -1        43 6.31500E+01 5.00000E+01 0.00000E+00
 -1        44 6.61500E+01 5.00000E+01 0.00000E+00
 -1        45 6.91500E+01 5.00000E+01 0.00000E+00
 -1        46 7.21500E+01 5.00000E+01 0.00000E+00
 -1        47 7.51500E+01 5.00000E+01 0.00000E+00
 -1        48 7.81500E+01 5.00000E+01 0.00000E+00
 -1        49 8.11500E+01 5.00000E+01 0.00000E+00
 -1        50 8.41500E+01 5.00000E+01 0.00000E+00
 -1        51 8.71500E+01 5.00000E+01 0.00000E+00
 -1        52 9.01500E+01 5.00000E+01 0.00000E+00
 -1        53 9.31500E+01 5.00000E+01 0.00000E+00
 -1        54 9.61500E+01 5.00000E+01 0.00000E+00
 -1        55 9.91500E+01 5.00000E+01 0.00000E+00
 -1        56 1.02150E+02 5.00000E+01 0.00000E+00
 -1        57 1.05150E+02 5.00000E+01 0.00000E+00
 -1        58 1.08150E+02 5.00000E+01 0.00000E+00
 -1        59 1.11150E+02 5.00000E+01 0.00000E+00
 -1        60 1.14150E+02 5.00000E+01 0.00000E+00
 -1        61 1.17150E+02 5.00000E+01 0.00000E+00
 -1        62 1.20150E+02 5.00000E+01 0.00000E+00
 -1        63 1.23150E+02 5.00000E+01 0.00000E+00
 -1        64 1.26150E+02 5.00000E+01 0.00000E+00
 -1        65 1.29150E+02 5.00000E+01 0.00000E+00
 -1        66 1.32150E+02 5.00000E+01 0.00000E+00
 -1        67 1.35150E+02 5.00000E+01 0.00000E+00
 -1        68 1.38150E+02 5.00000E+01 0.00000E+00
 -1        69 1.41150E+02 5.00000E+01 0.00000E+00
 -1        70 1.44150E+02 5.00000E+01 0.00000E+00
 -1        71 1.47150E+02 5.00000E+01 0.00000E+00
 -1        72 3.15000E+00 0.00000E+00 0.00000E+00
 -1        73 6.15000E+00 0.00000E+00 0.00000E+00
 -1        74 9.15000E+00 0.00000E+00 0.00000E+00
 -1        75 1.21500E+01 0.00000E+00 0.00000E+00
 -1        76 1.51500E+01 0.00000E+00 0.00000E+00
 -1        77 1.81500E+01 0.00000E+00 0.00000E+00
 -1        78 2.11500E+01 0.00000E+00 0.00000E+00
 -1        79 2.41500E+01 0.00000E+00 0.00000E+00
 -1        80 2.71500E+01 0.00000E+00 0.00000E+00
 -1        81 3.01500E+01 0.00000E+00 0.00000E+00
 -1        82 3.31500E+01 0.00000E+00 0.00000E+00
 -1        83 3.61500E+01 0.00000E+00 0.00000E+00
 -1        84 3.91500E+01 0.00000E+00 0.00000E+00
 -1        85 4.21500E+01 0.00000E+00 0.00000E+00
 -1        86 4.51500E+01 0.00000E+00 0.00000E+00
 -1        87 4.81500E+01 0.00000E+00 0.00000E+00
 -1        88 5.11500E+01 0.00000E+00 0.00000E+00
 -1        89 5.41500E+01 0.00000E+00 0.00000E+00
 -1        90 5.71500E+01 0.00000E+00 0.00000E+00
 -1        91 6.01500E+01 0.00000E+00 0.00000E+00
 -1        92 6.31500E+01 0.00000E+00 0.00000E+00
 -1        93 6.61500E+01 0.00000E+00 0.00000E+00
 -1        94 6.91500E+01 0.00000E+00 0.00000E+00
 -1        95 7.21500E+01 0.00000E+00 0.00000E+00
 -1        96 7.51500E+01 0.00000E+00 0.00000E+00
 -1        97 7.81500E+01 0.00000E+00 0.00000E+00
 -1        98 8.11500E+01 0.00000E+00 0.00000E+00
 -1        99 8.41500E+01 0.00000E+00 0.00000E+00
 -1       100 8.71500E+01 0.00000E+00 0.00000E+00
 -1       101 9.01500E+01 0.00000E+00 0.00000E+00
 -1       102 9.31500E+01 0.00000E+00 0.00000E+00
 -1       103 9.61500E+01 0.00000E+00 0.00000E+00
 -1       104 9.91500E+01 0.00000E+00 0.00000E+00
 -1       105 1.02150E+02 0.00000E+00 0.00000E+00
 -1       106 1.05150E+02 0.00000E+00 0.00000E+00
 -1       107 1.08150E+02 0.00000E+00 0.00000E+00
 -1       108 1.11150E+02 0.00000E+00 0.00000E+00
 -1       109 1.14150E+02 0.00000E+00 0.00000E+00
 -1       110 1.17150E+02 0.00000E+00 0.00000E+00
 -1       111 1.20150E+02 0.00000E+00 0.00000E+00
 -1       112 1.23150E+02 0.00000E+00 0.00000E+00
 -1       113 1.26150E+02 0.00000E+00 0.00000E+00
 -1       114 1.29150E+02 0.00000E+00 0.00000E+00
 -1       115 1.32150E+02 0.00000E+00 0.00000E+00
 -1       116 1.35150E+02 0.00000E+00 0.00000E+00
 -1       117 1.38150E+02 0.00000E+00 0.00000E+00
 -1       118 1.41150E+02 0.00000E+00 0.00000E+00
 -1       119 1.44150E+02 0.00000E+00 0.00000E+00
 -1       120 1.47150E+02 0.00000E+00 0.00000E+00
 -1       121 1.50000E+02 2.95000E+00 0.00000E+00
 -1       122 1.50000E+02 5.90000E+00 0.00000E+00
 -1       123 1.50000E+02 8.85000E+00 0.00000E+00
 -1       124 1.50000E+02 1.18000E+01 0.00000E+00
 -1       125 1.50000E+02 1.47500E+01 0.00000E+00
 -1       126 1.50000E+02 1.76500E+01 0.00000E+00
 -1       127 1.50000E+02 2.06000E+01 0.00000E+00
 -1       128 1.50000E+02 2.35500E+01 0.00000E+00
 -1       129 1.50000E+02 2.65000E+01 0.00000E+00
 -1       130 1.50000E+02 2.94500E+01 0.00000E+00
 -1       131 1.50000E+02 3.24000E+01 0.00000E+00
 -1       132 1.50000E+02 3.53000E+01 0.00000E+00
 -1       133 1.50000E+02 3.82500E+01 0.00000E+00
 -1       134 1.50000E+02 4.12000E+01 0.00000E+00
 -1       135 1.50000E+02 4.41500E+01 0.00000E+00
 -1       136 1.50000E+02 4.71000E+01 0.00000E+00
 -1       137 6.31375E+01 2.18889E+01 0.00000E+00
 -1       138 6.26583E+01 2.05367E+01 0.00000E+00
 -1       139 6.18937E+01 1.92846E+01 0.00000E+00
 -1       140 6.08383E+01 1.81797E+01 0.00000E+00
 -1       141 5.95590E+01 1.73254E+01 0.00000E+00
 -1       142 5.82016E+01 1.67921E+01 0.00000E+00
 -1       143 5.65674E+01 1.65424E+01 0.00000E+00
 -1       144 5.50658E+01 1.66545E+01 0.00000E+00
 -1       145 5.36002E+01 1.70947E+01 0.00000E+00
 -1       146 5.21411E+01 1.79337E+01 0.00000E+00
 -1       147 5.10281E+01 1.89734E+01 0.00000E+00
 -1       148 5.01389E+01 2.02808E+01 0.00000E+00
 -1       149 4.96102E+01 2.15937E+01 0.00000E+00
 -1       150 4.93424E+01 2.32093E+01 0.00000E+00
 -1       151 4.94252E+01 2.46610E+01 0.00000E+00
 -1       152 4.98261E+01 2.61151E+01 0.00000E+00
 -1       153 5.05282E+01 2.74482E+01 0.00000E+00
 -1       154 5.15673E+01 2.86642E+01 0.00000E+00
 -1       155 5.27784E+01 2.95679E+01 0.00000E+00
 -1       156 5.43054E+01 3.02380E+01 0.00000E+00
 -1       157 5.57642E+01 3.05153E+01 0.00000E+00
 -1       158 5.86644E+01 3.01395E+01 0.00000E+00
 -1       159 5.99608E+01 2.95261E+01 0.00000E+00
 -1       160 6.11041E+01 2.86623E+01 0.00000E+00
 -1       161 6.20502E+01 2.75799E+01 0.00000E+00
 -1       162 6.27607E+01 2.63145E+01 0.00000E+00
 -1       163 6.31872E+01 2.49679E+01 0.00000E+00
 -1       164 2.59800E+00 4.55750E+01 0.00000E+00
 -1       165 2.59800E+00 4.26250E+01 0.00000E+00
 -1       166 2.59800E+00 3.96750E+01 0.00000E+00
 -1       167 2.59800E+00 3.67250E+01 0.00000E+00
 -1       168 2.59800E+00 3.38250E+01 0.00000E+00
 -1       169 2.59800E+00 3.08750E+01 0.00000E+00
 -1       170 2.59800E+00 2.79250E+01 0.00000E+00
 -1       171 2.59800E+00 2.49750E+01 0.00000E+00
 -1       172 2.59800E+00 2.20250E+01 0.00000E+00
 -1       173 2.59800E+00 1.90750E+01 0.00000E+00
 -1       174 2.59800E+00 1.61750E+01 0.00000E+00
 -1       175 2.59800E+00 1.32250E+01 0.00000E+00
 -1       176 2.59800E+00 1.02750E+01 0.00000E+00
 -1       177 2.59800E+00 7.32500E+00 0.00000E+00
 -1       178 2.59800E+00 4.37500E+00 0.00000E+00
 -1       179 2.87400E+00 2.18750E+00 0.00000E+00
 -1       180 4.65000E+00 4.74020E+01 0.00000E+00
 -1       181 7.65000E+00 4.74020E+01 0.00000E+00
 -1       182 1.06500E+01 4.74020E+01 0.00000E+00
 -1       183 1.36500E+01 4.74020E+01 0.00000E+00
 -1       184 1.66500E+01 4.74020E+01 0.00000E+00
 -1       185 1.96500E+01 4.74020E+01 0.00000E+00
 -1       186 2.26500E+01 4.74020E+01 0.00000E+00
 -1       187 2.56500E+01 4.74020E+01 0.00000E+00
 -1       188 2.86500E+01 4.74020E+01 0.00000E+00
 -1       189 3.16500E+01 4.74020E+01 0.00000E+00
 -1       190 3.46500E+01 4.74020E+01 0.00000E+00
 -1       191 3.76500E+01 4.74020E+01 0.00000E+00
 -1       192 4.06500E+01 4.74020E+01 0.00000E+00
 -1       193 4.36500E+01 4.74020E+01 0.00000E+00
 -1       194 4.66500E+01 4.74020E+01 0.00000E+00
 -1       195 4.96500E+01 4.74020E+01 0.00000E+00
 -1       196 5.26500E+01 4.74020E+01 0.00000E+00
 -1       197 5.56500E+01 4.74020E+01 0.00000E+00
 -1       198 5.86500E+01 4.74020E+01 0.00000E+00
 -1       199 6.16500E+01 4.74020E+01 0.00000E+00
 -1       200 6.46500E+01 4.74020E+01 0.00000E+00
 -1       201 6.76500E+01 4.74020E+01 0.00000E+00
 -1       202 7.06500E+01 4.74020E+01 0.00000E+00
 -1       203 7.36500E+01 4.74020E+01 0.00000E+00
 -1       204 7.66500E+01 4.74020E+01 0.00000E+00
 -1       205 7.96500E+01 4.74020E+01 0.00000E+00
 -1       206 8.26500E+01 4.74020E+01 0.00000E+00
 -1       207 8.56500E+01 4.74020E+01 0.00000E+00
 -1       208 8.86500E+01 4.74020E+01 0.00000E+00
 -1       209 9.16500E+01 4.74020E+01 0.00000E+00
 -1       210 9.46500E+01 4.74020E+01 0.00000E+00
 -1       211 9.76500E+01 4.74020E+01 0.00000E+00
 -1       212 1.00650E+02 4.74020E+01 0.00000E+00
 -1       213 1.03650E+02 4.74020E+01 0.00000E+00
 -1       214 1.06650E+02 4.74020E+01 0.00000E+00
 -1       215 1.09650E+02 4.74020E+01 0.00000E+00
 -1       216 1.12650E+02 4.74020E+01 0.00000E+00
 -1       217 1.15650E+02 4.74020E+01 0.00000E+00
 -1       218 1.18650E+02 4.74020E+01 0.00000E+00
 -1       219 1.21650E+02 4.74020E+01 0.00000E+00
 -1       220 1.24650E+02 4.74020E+01 0.00000E+00
 -1       221 1.27650E+02 4.74020E+01 0.00000E+00
 -1       222 1.30650E+02 4.74020E+01 0.00000E+00
 -1       223 1.33650E+02 4.74020E+01 0.00000E+00
 -1       224 1.36650E+02 4.74020E+01 0.00000E+00
 -1       225 1.39650E+02 4.74020E+01 0.00000E+00
 -1       226 1.42650E+02 4.74020E+01 0.00000E+00
 -1       227 1.45650E+02 4.74020E+01 0.00000E+00
 -1       228 5.87400E+00 2.18750E+00 0.00000E+00
 -1       229 8.87400E+00 2.18750E+00 0.00000E+00
 -1       230 1.18740E+01 2.18750E+00 0.00000E+00
 -1       231 1.48740E+01 2.18750E+00 0.00000E+00
 -1       232 1.78740E+01 2.18750E+00 0.00000E+00
 -1       233 2.08740E+01 2.18750E+00 0.00000E+00
 -1       234 2.38740E+01 2.18750E+00 0.00000E+00
 -1       235 2.68740E+01 2.18750E+00 0.00000E+00
 -1       236 2.98740E+01 2.18750E+00 0.00000E+00
 -1       237 3.28740E+01 2.18750E+00 0.00000E+00
 -1       238 3.58740E+01 2.18750E+00 0.00000E+00
 -1       239 3.88740E+01 2.18750E+00 0.00000E+00
 -1       240 4.18740E+01 2.18750E+00 0.00000E+00
 -1       241 4.48740E+01 2.18750E+00 0.00000E+00
 -1       242 4.78740E+01 2.18750E+00 0.00000E+00
 -1       243 5.08740E+01 2.18750E+00 0.00000E+00
 -1       244 5.38740E+01 2.18750E+00 0.00000E+00
 -1       245 5.68740E+01 2.18750E+00 0.00000E+00
 -1       246 5.98740E+01 2.18750E+00 0.00000E+00
 -1       247 6.28740E+01 2.18750E+00 0.00000E+00
 -1       248 6.58740E+01 2.18750E+00 0.00000E+00
 -1       249 6.88740E+01 2.18750E+00 0.00000E+00
 -1       250 7.18740E+01 2.18750E+00 0.00000E+00
 -1       251 7.48740E+01 2.18750E+00 0.00000E+00
 -1       252 7.78740E+01 2.18750E+00 0.00000E+00
 -1       253 8.08740E+01 2.18750E+00 0.00000E+00
 -1       254 8.38740E+01 2.18750E+00 0.00000E+00
 -1       255 8.68740E+01 2.18750E+00 0.00000E+00
 -1       256 8.98740E+01 2.18750E+00 0.00000E+00
 -1       257 9.28740E+01 2.18750E+00 0.00000E+00
 -1       258 9.58740E+01 2.18750E+00 0.00000E+00
 -1       259 9.88740E+01 2.18750E+00 0.00000E+00
 -1       260 1.01874E+02 2.18750E+00 0.00000E+00
 -1       261 1.04874E+02 2.18750E+00 0.00000E+00
 -1       262 1.07874E+02 2.18750E+00 0.00000E+00
 -1       263 1.10874E+02 2.18750E+00 0.00000E+00
 -1       264 1.13874E+02 2.18750E+00 0.00000E+00
 -1       265 1.16874E+02 2.18750E+00 0.00000E+00
 -1       266 1.19874E+02 2.18750E+00 0.00000E+00
 -1       267 1.22874E+02 2.18750E+00 0.00000E+00
 -1       268 1.25874E+02 2.18750E+00 0.00000E+00
 -1       269 1.28874E+02 2.18750E+00 0.00000E+00
 -1       270 1.31874E+02 2.18750E+00 0.00000E+00
 -1       271 1.34874E+02 2.18750E+00 0.00000E+00
 -1       272 1.37874E+02 2.18750E+00 0.00000E+00
 -1       273 1.40874E+02 2.18750E+00 0.00000E+00
 -1       274 1.43874E+02 2.18750E+00 0.00000E+00
 -1       275 1.46874E+02 2.18750E+00 0.00000E+00
 -1       276 1.47402E+02 4.42500E+00 0.00000E+00
 -1       277 1.47402E+02 7.37500E+00 0.00000E+00
 -1       278 1.47402E+02 1.03250E+01 0.00000E+00
 -1       279 1.47402E+02 1.32750E+01 0.00000E+00
 -1       280 1.47402E+02 1.61750E+01 0.00000E+00
 -1       281 1.47402E+02 1.91250E+01 0.00000E+00
 -1       282 1.47402E+02 2.20750E+01 0.00000E+00
 -1       283 1.47402E+02 2.50250E+01 0.00000E+00
 -1       284 1.47402E+02 2.79750E+01 0.00000E+00
 -1       285 1.47402E+02 3.09250E+01 0.00000E+00
 -1       286 1.47402E+02 3.38250E+01 0.00000E+00
 -1       287 1.47402E+02 3.67750E+01 0.00000E+00
 -1       288 1.47402E+02 3.97250E+01 0.00000E+00
 -1       289 1.47402E+02 4.26750E+01 0.00000E+00
 -1       290 1.46526E+02 4.50385E+01 0.00000E+00
 -1       291 6.47727E+01 2.25301E+01 0.00000E+00
 -1       292 6.40407E+01 2.08079E+01 0.00000E+00
 -1       293 6.33823E+01 1.92352E+01 0.00000E+00
 -1       294 6.23033E+01 1.78368E+01 0.00000E+00
 -1       295 6.08720E+01 1.67443E+01 0.00000E+00
 -1       296 5.93542E+01 1.58523E+01 0.00000E+00
 -1       297 5.75929E+01 1.53031E+01 0.00000E+00
 -1       298 5.57263E+01 1.53894E+01 0.00000E+00
 -1       299 5.39601E+01 1.56332E+01 0.00000E+00
 -1       300 5.20992E+01 1.61727E+01 0.00000E+00
 -1       301 5.05854E+01 1.73839E+01 0.00000E+00
 -1       302 4.94424E+01 1.88510E+01 0.00000E+00
 -1       303 4.87499E+01 2.04844E+01 0.00000E+00
 -1       304 4.80323E+01 2.21621E+01 0.00000E+00
 -1       305 4.81734E+01 2.40042E+01 0.00000E+00
 -1       306 4.83761E+01 2.57325E+01 0.00000E+00
 -1       307 4.91044E+01 2.73466E+01 0.00000E+00
 -1       308 4.99349E+01 2.90071E+01 0.00000E+00
 -1       309 5.13977E+01 3.01549E+01 0.00000E+00
 -1       310 5.30547E+01 3.10132E+01 0.00000E+00
 -1       311 5.48084E+01 3.15677E+01 0.00000E+00
 -1       312 5.65527E+01 3.17911E+01 0.00000E+00
 -1       313 5.82530E+01 3.14860E+01 0.00000E+00
 -1       314 5.98311E+01 3.09287E+01 0.00000E+00
 -1       315 6.12633E+01 3.00615E+01 0.00000E+00
 -1       316 6.24899E+01 2.89190E+01 0.00000E+00
 -1       317 6.35356E+01 2.75818E+01 0.00000E+00
 -1       318 6.41297E+01 2.60073E+01 0.00000E+00
 -1       319 6.44669E+01 2.43777E+01 0.00000E+00
 -1       320 5.19600E+00 4.11500E+01 0.00000E+00
 -1       321 5.19600E+00 4.41000E+01 0.00000E+00
 -1       322 5.19600E+00 3.52750E+01 0.00000E+00
 -1       323 5.19600E+00 3.23250E+01 0.00000E+00
 -1       324 5.19600E+00 2.93750E+01 0.00000E+00
 -1       325 5.19600E+00 2.64250E+01 0.00000E+00
 -1       326 5.19600E+00 2.34750E+01 0.00000E+00
 -1       327 5.19600E+00 2.05250E+01 0.00000E+00
 -1       328 5.19600E+00 1.76250E+01 0.00000E+00
 -1       329 5.19600E+00 1.46750E+01 0.00000E+00
 -1       330 5.19600E+00 1.17250E+01 0.00000E+00
 -1       331 5.19600E+00 8.77500E+00 0.00000E+00
 -1       332 5.19600E+00 5.82500E+00 0.00000E+00
 -1       333 5.53500E+00 4.00625E+00 0.00000E+00
 -1       334 8.53500E+00 4.00625E+00 0.00000E+00
 -1       335 9.15000E+00 4.48040E+01 0.00000E+00
 -1       336 1.21500E+01 4.48040E+01 0.00000E+00
 -1       337 1.51500E+01 4.48040E+01 0.00000E+00
 -1       338 1.81500E+01 4.48040E+01 0.00000E+00
 -1       339 2.11500E+01 4.48040E+01 0.00000E+00
 -1       340 2.41500E+01 4.48040E+01 0.00000E+00
 -1       341 2.71500E+01 4.48040E+01 0.00000E+00
 -1       342 3.01500E+01 4.48040E+01 0.00000E+00
 -1       343 3.31500E+01 4.48040E+01 0.00000E+00
 -1       344 3.61500E+01 4.48040E+01 0.00000E+00
 -1       345 3.91500E+01 4.48040E+01 0.00000E+00
 -1       346 4.21500E+01 4.48040E+01 0.00000E+00
 -1       347 4.51500E+01 4.48040E+01 0.00000E+00
 -1       348 4.81500E+01 4.48040E+01 0.00000E+00
 -1       349 5.11500E+01 4.48040E+01 0.00000E+00
 -1       350 5.41500E+01 4.48040E+01 0.00000E+00
 -1       351 5.71500E+01 4.48040E+01 0.00000E+00
 -1       352 6.01500E+01 4.48040E+01 0.00000E+00
 -1       353 6.31500E+01 4.48040E+01 0.00000E+00
 -1       354 6.61500E+01 4.48040E+01 0.00000E+00
 -1       355 6.91500E+01 4.48040E+01 0.00000E+00
 -1       356 7.21500E+01 4.48040E+01 0.00000E+00
 -1       357 7.51500E+01 4.48040E+01 0.00000E+00
 -1       358 7.81500E+01 4.48040E+01 0.00000E+00
 -1       359 8.11500E+01 4.48040E+01 0.00000E+00
 -1       360 8.41500E+01 4.48040E+01 0.00000E+00
 -1       361 8.71500E+01 4.48040E+01 0.00000E+00
 -1       362 9.01500E+01 4.48040E+01 0.00000E+00
 -1       363 9.31500E+01 4.48040E+01 0.00000E+00
 -1       364 9.61500E+01 4.48040E+01 0.00000E+00
 -1       365 9.91500E+01 4.48040E+01 0.00000E+00
 -1       366 1.02150E+02 4.48040E+01 0.00000E+00
 -1       367 1.05150E+02 4.48040E+01 0.00000E+00
 -1       368 1.08150E+02 4.48040E+01 0.00000E+00
 -1       369 1.11150E+02 4.48040E+01 0.00000E+00
 -1       370 1.14150E+02 4.48040E+01 0.00000E+00
 -1       371 1.17150E+02 4.48040E+01 0.00000E+00
 -1       372 1.20150E+02 4.48040E+01 0.00000E+00
 -1       373 1.23150E+02 4.48040E+01 0.00000E+00
 -1       374 1.26150E+02 4.48040E+01 0.00000E+00
 -1       375 1.29150E+02 4.48040E+01 0.00000E+00
 -1       376 1.32150E+02 4.48040E+01 0.00000E+00
 -1       377 1.35150E+02 4.48040E+01 0.00000E+00
 -1       378 1.38150E+02 4.48040E+01 0.00000E+00
 -1       379 1.41150E+02 4.48040E+01 0.00000E+00
 -1       380 1.43838E+02 4.49212E+01 0.00000E+00
 -1       381 1.15350E+01 4.00625E+00 0.00000E+00
 -1       382 1.45350E+01 4.00625E+00 0.00000E+00
 -1       383 1.75350E+01 4.00625E+00 0.00000E+00
 -1       384 2.05350E+01 4.00625E+00 0.00000E+00
 -1       385 2.35350E+01 4.00625E+00 0.00000E+00
 -1       386 2.65350E+01 4.00625E+00 0.00000E+00
 -1       387 2.95350E+01 4.00625E+00 0.00000E+00
 -1       388 3.25350E+01 4.00625E+00 0.00000E+00
 -1       389 3.55350E+01 4.00625E+00 0.00000E+00
 -1       390 3.85350E+01 4.00625E+00 0.00000E+00
 -1       391 4.15350E+01 4.00625E+00 0.00000E+00
 -1       392 4.45350E+01 4.00625E+00 0.00000E+00
 -1       393 4.75350E+01 4.00625E+00 0.00000E+00
 -1       394 5.05350E+01 4.00625E+00 0.00000E+00
 -1       395 5.35350E+01 4.00625E+00 0.00000E+00
 -1       396 5.65350E+01 4.00625E+00 0.00000E+00
 -1       397 5.95350E+01 4.00625E+00 0.00000E+00
 -1       398 6.25350E+01 4.00625E+00 0.00000E+00
 -1       399 6.55350E+01 4.00625E+00 0.00000E+00
 -1       400 6.85350E+01 4.00625E+00 0.00000E+00
 -1       401 7.15350E+01 4.00625E+00 0.00000E+00
 -1       402 7.45350E+01 4.00625E+00 0.00000E+00
 -1       403 7.75350E+01 4.00625E+00 0.00000E+00
 -1       404 8.05350E+01 4.00625E+00 0.00000E+00
 -1       405 8.35350E+01 4.00625E+00 0.00000E+00
 -1       406 8.65350E+01 4.00625E+00 0.00000E+00
 -1       407 8.95350E+01 4.00625E+00 0.00000E+00
 -1       408 9.25350E+01 4.00625E+00 0.00000E+00
 -1       409 9.55350E+01 4.00625E+00 0.00000E+00
 -1       410 9.85350E+01 4.00625E+00 0.00000E+00
 -1       411 1.01535E+02 4.00625E+00 0.00000E+00
 -1       412 1.04535E+02 4.00625E+00 0.00000E+00
 -1       413 1.07535E+02 4.00625E+00 0.00000E+00
 -1       414 1.10535E+02 4.00625E+00 0.00000E+00
 -1       415 1.13535E+02 4.00625E+00 0.00000E+00
 -1       416 1.16535E+02 4.00625E+00 0.00000E+00
 -1       417 1.19535E+02 4.00625E+00 0.00000E+00
 -1       418 1.22535E+02 4.00625E+00 0.00000E+00
 -1       419 1.25535E+02 4.00625E+00 0.00000E+00
 -1       420 1.28535E+02 4.00625E+00 0.00000E+00
 -1       421 1.31535E+02 4.00625E+00 0.00000E+00
 -1       422 1.34535E+02 4.00625E+00 0.00000E+00
 -1       423 1.37535E+02 4.00625E+00 0.00000E+00
 -1       424 1.40535E+02 4.00625E+00 0.00000E+00
 -1       425 1.43535E+02 4.00625E+00 0.00000E+00
 -1       426 1.45469E+02 4.21562E+00 0.00000E+00
 -1       427 1.44804E+02 1.18000E+01 0.00000E+00
 -1       428 1.44804E+02 8.85000E+00 0.00000E+00
 -1       429 1.45136E+02 6.53281E+00 0.00000E+00
 -1       430 1.44804E+02 1.47000E+01 0.00000E+00
 -1       431 1.44804E+02 1.76500E+01 0.00000E+00
 -1       432 1.44804E+02 2.06000E+01 0.00000E+00
 -1       433 1.44804E+02 2.35500E+01 0.00000E+00
 -1       434 1.44804E+02 2.65000E+01 0.00000E+00
 -1       435 1.44804E+02 2.94500E+01 0.00000E+00
 -1       436 1.44804E+02 3.23500E+01 0.00000E+00
 -1       437 1.44804E+02 3.53000E+01 0.00000E+00
 -1       438 1.44804E+02 3.82500E+01 0.00000E+00
 -1       439 1.44804E+02 4.12000E+01 0.00000E+00
 -1       440 6.49844E+01 1.94886E+01 0.00000E+00
 -1       441 6.59812E+01 2.36792E+01 0.00000E+00
 -1       442 6.57164E+01 2.12108E+01 0.00000E+00
 -1       443 6.39353E+01 1.76930E+01 0.00000E+00
 -1       444 6.24249E+01 1.61936E+01 0.00000E+00
 -1       445 5.19600E+00 3.82125E+01 0.00000E+00
 -1       446 5.88843E+01 1.42603E+01 0.00000E+00
 -1       447 5.65843E+01 1.37167E+01 0.00000E+00
 -1       448 5.48181E+01 1.39605E+01 0.00000E+00
 -1       449 5.25988E+01 1.44166E+01 0.00000E+00
 -1       450 5.03231E+01 1.55045E+01 0.00000E+00
 -1       451 4.89253E+01 1.72694E+01 0.00000E+00
 -1       452 4.75942E+01 1.90309E+01 0.00000E+00
 -1       453 4.68766E+01 2.07087E+01 0.00000E+00
 -1       454 4.65598E+01 2.32014E+01 0.00000E+00
 -1       455 4.69041E+01 2.50291E+01 0.00000E+00
 -1       456 4.75588E+01 2.70727E+01 0.00000E+00
 -1       457 4.81356E+01 2.88691E+01 0.00000E+00
 -1       458 4.97110E+01 3.07985E+01 0.00000E+00
 -1       459 5.15915E+01 3.18094E+01 0.00000E+00
 -1       460 5.33639E+01 3.30855E+01 0.00000E+00
 -1       461 5.51082E+01 3.33089E+01 0.00000E+00
 -1       462 5.76318E+01 3.29143E+01 0.00000E+00
 -1       463 5.95574E+01 3.26666E+01 0.00000E+00
 -1       464 6.13053E+01 3.17472E+01 0.00000E+00
 -1       465 6.27601E+01 3.04388E+01 0.00000E+00
 -1       466 6.41658E+01 2.91521E+01 0.00000E+00
 -1       467 6.51238E+01 2.72817E+01 0.00000E+00
 -1       468 6.56441E+01 2.53088E+01 0.00000E+00
 -1       469 6.07699E+01 1.51808E+01 0.00000E+00
 -1       470 6.69250E+01 2.23599E+01 0.00000E+00
 -1       471 1.00350E+01 6.60425E+00 0.00000E+00
 -1       472 7.79400E+00 3.08500E+01 0.00000E+00
 -1       473 7.79400E+00 3.38000E+01 0.00000E+00
 -1       474 7.79400E+00 2.49500E+01 0.00000E+00
 -1       475 7.79400E+00 2.20000E+01 0.00000E+00
 -1       476 7.79400E+00 1.91000E+01 0.00000E+00
 -1       477 7.79400E+00 1.61500E+01 0.00000E+00
 -1       478 7.79400E+00 1.32000E+01 0.00000E+00
 -1       479 7.79400E+00 1.02500E+01 0.00000E+00
 -1       480 1.30350E+01 6.60425E+00 0.00000E+00
 -1       481 1.06500E+01 4.22060E+01 0.00000E+00
 -1       482 6.04325E+01 1.34805E+01 0.00000E+00
 -1       483 1.36500E+01 4.22060E+01 0.00000E+00
 -1       484 1.66500E+01 4.22060E+01 0.00000E+00
 -1       485 1.96500E+01 4.22060E+01 0.00000E+00
 -1       486 2.26500E+01 4.22060E+01 0.00000E+00
 -1       487 2.56500E+01 4.22060E+01 0.00000E+00
 -1       488 2.86500E+01 4.22060E+01 0.00000E+00
 -1       489 3.16500E+01 4.22060E+01 0.00000E+00
 -1       490 3.46500E+01 4.22060E+01 0.00000E+00
 -1       491 3.76500E+01 4.22060E+01 0.00000E+00
 -1       492 4.06500E+01 4.22060E+01 0.00000E+00
 -1       493 4.36500E+01 4.22060E+01 0.00000E+00
 -1       494 4.66500E+01 4.22060E+01 0.00000E+00
 -1       495 4.96500E+01 4.22060E+01 0.00000E+00
 -1       496 5.26500E+01 4.22060E+01 0.00000E+00
 -1       497 5.56500E+01 4.22060E+01 0.00000E+00
 -1       498 5.86500E+01 4.22060E+01 0.00000E+00
 -1       499 6.16500E+01 4.22060E+01 0.00000E+00
 -1       500 6.46500E+01 4.22060E+01 0.00000E+00
 -1       501 6.76500E+01 4.22060E+01 0.00000E+00
 -1       502 7.06500E+01 4.22060E+01 0.00000E+00
 -1       503 7.36500E+01 4.22060E+01 0.00000E+00
 -1       504 7.66500E+01 4.22060E+01 0.00000E+00
 -1       505 7.96500E+01 4.22060E+01 0.00000E+00
 -1       506 8.26500E+01 4.22060E+01 0.00000E+00
 -1       507 8.56500E+01 4.22060E+01 0.00000E+00
 -1       508 8.86500E+01 4.22060E+01 0.00000E+00
 -1       509 9.16500E+01 4.22060E+01 0.00000E+00
 -1       510 9.46500E+01 4.22060E+01 0.00000E+00
 -1       511 9.76500E+01 4.22060E+01 0.00000E+00
 -1       512 1.00650E+02 4.22060E+01 0.00000E+00
 -1       513 1.03650E+02 4.22060E+01 0.00000E+00
 -1       514 1.06650E+02 4.22060E+01 0.00000E+00
 -1       515 1.09650E+02 4.22060E+01 0.00000E+00
 -1       516 1.12650E+02 4.22060E+01 0.00000E+00
 -1       517 1.15650E+02 4.22060E+01 0.00000E+00
 -1       518 1.18650E+02 4.22060E+01 0.00000E+00
 -1       519 1.21650E+02 4.22060E+01 0.00000E+00
 -1       520 1.24650E+02 4.22060E+01 0.00000E+00
 -1       521 1.27650E+02 4.22060E+01 0.00000E+00
 -1       522 1.30650E+02 4.22060E+01 0.00000E+00
 -1       523 1.33650E+02 4.22060E+01 0.00000E+00
 -1       524 1.36650E+02 4.22060E+01 0.00000E+00
 -1       525 1.39650E+02 4.22060E+01 0.00000E+00
 -1       526 6.66975E+01 1.97772E+01 0.00000E+00
 -1       527 1.90350E+01 6.60425E+00 0.00000E+00
 -1       528 2.20350E+01 6.60425E+00 0.00000E+00
 -1       529 2.50350E+01 6.60425E+00 0.00000E+00
 -1       530 2.80350E+01 6.60425E+00 0.00000E+00
 -1       531 3.10350E+01 6.60425E+00 0.00000E+00
 -1       532 3.40350E+01 6.60425E+00 0.00000E+00
 -1       533 3.70350E+01 6.60425E+00 0.00000E+00
 -1       534 4.00350E+01 6.60425E+00 0.00000E+00
 -1       535 4.30350E+01 6.60425E+00 0.00000E+00
 -1       536 4.60350E+01 6.60425E+00 0.00000E+00
 -1       537 4.90350E+01 6.60425E+00 0.00000E+00
 -1       538 5.20350E+01 6.60425E+00 0.00000E+00
 -1       539 5.50350E+01 6.60425E+00 0.00000E+00
 -1       540 5.80350E+01 6.60425E+00 0.00000E+00
 -1       541 6.10350E+01 6.60425E+00 0.00000E+00
 -1       542 6.40350E+01 6.60425E+00 0.00000E+00
 -1       543 6.70350E+01 6.60425E+00 0.00000E+00
 -1       544 7.00350E+01 6.60425E+00 0.00000E+00
 -1       545 7.30350E+01 6.60425E+00 0.00000E+00
 -1       546 7.60350E+01 6.60425E+00 0.00000E+00
 -1       547 7.90350E+01 6.60425E+00 0.00000E+00
 -1       548 8.20350E+01 6.60425E+00 0.00000E+00
 -1       549 8.50350E+01 6.60425E+00 0.00000E+00
 -1       550 8.80350E+01 6.60425E+00 0.00000E+00
 -1       551 9.10350E+01 6.60425E+00 0.00000E+00
 -1       552 9.40350E+01 6.60425E+00 0.00000E+00
 -1       553 9.70350E+01 6.60425E+00 0.00000E+00
 -1       554 1.00035E+02 6.60425E+00 0.00000E+00
 -1       555 1.03035E+02 6.60425E+00 0.00000E+00
 -1       556 1.06035E+02 6.60425E+00 0.00000E+00
 -1       557 1.09035E+02 6.60425E+00 0.00000E+00
 -1       558 1.12035E+02 6.60425E+00 0.00000E+00
 -1       559 1.15035E+02 6.60425E+00 0.00000E+00
 -1       560 1.18035E+02 6.60425E+00 0.00000E+00
 -1       561 1.21035E+02 6.60425E+00 0.00000E+00
 -1       562 1.24035E+02 6.60425E+00 0.00000E+00
 -1       563 1.27035E+02 6.60425E+00 0.00000E+00
 -1       564 1.30035E+02 6.60425E+00 0.00000E+00
 -1       565 1.33035E+02 6.60425E+00 0.00000E+00
 -1       566 1.36035E+02 6.60425E+00 0.00000E+00
 -1       567 1.39035E+02 6.60425E+00 0.00000E+00
 -1       568 1.42035E+02 6.60425E+00 0.00000E+00
 -1       569 1.42206E+02 1.61750E+01 0.00000E+00
 -1       570 1.42206E+02 1.91250E+01 0.00000E+00
 -1       571 1.42206E+02 1.03250E+01 0.00000E+00
 -1       572 1.42206E+02 1.32500E+01 0.00000E+00
 -1       573 1.42206E+02 2.20750E+01 0.00000E+00
 -1       574 1.42206E+02 2.50250E+01 0.00000E+00
 -1       575 1.42206E+02 2.79750E+01 0.00000E+00
 -1       576 1.42206E+02 3.08750E+01 0.00000E+00
 -1       577 1.42206E+02 3.38250E+01 0.00000E+00
 -1       578 1.42206E+02 3.67750E+01 0.00000E+00
 -1       579 1.42206E+02 3.97250E+01 0.00000E+00
 -1       580 6.45065E+01 1.56071E+01 0.00000E+00
 -1       581 1.60350E+01 6.60425E+00 0.00000E+00
 -1       582 6.59408E+01 1.77256E+01 0.00000E+00
 -1       583 6.70424E+01 2.67326E+01 0.00000E+00
 -1       584 6.73795E+01 2.51030E+01 0.00000E+00
 -1       585 5.15246E+01 3.37713E+01 0.00000E+00
 -1       586 4.70251E+01 1.72172E+01 0.00000E+00
 -1       587 7.79400E+00 2.79000E+01 0.00000E+00
 -1       588 5.81095E+01 1.24009E+01 0.00000E+00
 -1       589 5.05767E+01 1.31108E+01 0.00000E+00
 -1       590 5.54667E+01 1.21396E+01 0.00000E+00
 -1       591 4.53759E+01 2.43707E+01 0.00000E+00
 -1       592 5.33800E+01 1.25906E+01 0.00000E+00
 -1       593 4.82797E+01 1.53221E+01 0.00000E+00
 -1       594 4.58126E+01 1.92612E+01 0.00000E+00
 -1       595 5.88134E+01 3.44916E+01 0.00000E+00
 -1       596 4.51830E+01 2.17599E+01 0.00000E+00
 -1       597 4.57577E+01 2.65230E+01 0.00000E+00
 -1       598 4.63345E+01 2.83194E+01 0.00000E+00
 -1       599 4.73352E+01 3.11305E+01 0.00000E+00
 -1       600 4.96440E+01 3.27604E+01 0.00000E+00
 -1       601 5.39756E+01 3.52308E+01 0.00000E+00
 -1       602 5.63945E+01 3.48612E+01 0.00000E+00
 -1       603 6.11907E+01 3.36507E+01 0.00000E+00
 -1       604 6.31797E+01 3.23682E+01 0.00000E+00
 -1       605 6.45854E+01 3.10815E+01 0.00000E+00
 -1       606 6.60968E+01 2.89606E+01 0.00000E+00
 -1       607 7.92300E+00 4.16780E+01 0.00000E+00
 -1       608 7.61550E+00 6.21462E+00 0.00000E+00
 -1       609 6.23614E+01 1.44387E+01 0.00000E+00
 -1       610 7.79400E+00 3.67375E+01 0.00000E+00
 -1       611 6.79061E+01 2.09263E+01 0.00000E+00
 -1       612 1.41678E+02 4.22645E+01 0.00000E+00
 -1       613 6.83233E+01 2.37837E+01 0.00000E+00
 -1       614 4.39991E+01 2.29293E+01 0.00000E+00
 -1       615 4.85333E+01 1.29284E+01 0.00000E+00
 -1       616 1.03920E+01 2.05500E+01 0.00000E+00
 -1       617 1.03920E+01 2.35000E+01 0.00000E+00
 -1       618 1.03920E+01 1.46750E+01 0.00000E+00
 -1       619 1.03920E+01 1.17250E+01 0.00000E+00
 -1       620 1.15350E+01 9.20225E+00 0.00000E+00
 -1       621 1.45350E+01 9.20225E+00 0.00000E+00
 -1       622 1.51500E+01 3.96080E+01 0.00000E+00
 -1       623 1.81500E+01 3.96080E+01 0.00000E+00
 -1       624 2.11500E+01 3.96080E+01 0.00000E+00
 -1       625 2.41500E+01 3.96080E+01 0.00000E+00
 -1       626 2.71500E+01 3.96080E+01 0.00000E+00
 -1       627 3.01500E+01 3.96080E+01 0.00000E+00
 -1       628 3.31500E+01 3.96080E+01 0.00000E+00
 -1       629 3.61500E+01 3.96080E+01 0.00000E+00
 -1       630 3.91500E+01 3.96080E+01 0.00000E+00
 -1       631 4.21500E+01 3.96080E+01 0.00000E+00
 -1       632 4.51500E+01 3.96080E+01 0.00000E+00
 -1       633 4.81500E+01 3.96080E+01 0.00000E+00
 -1       634 5.11500E+01 3.96080E+01 0.00000E+00
 -1       635 5.41500E+01 3.96080E+01 0.00000E+00
 -1       636 5.71500E+01 3.96080E+01 0.00000E+00
 -1       637 6.01500E+01 3.96080E+01 0.00000E+00
 -1       638 6.31500E+01 3.96080E+01 0.00000E+00
 -1       639 6.61500E+01 3.96080E+01 0.00000E+00
 -1       640 6.91500E+01 3.96080E+01 0.00000E+00
 -1       641 7.21500E+01 3.96080E+01 0.00000E+00
 -1       642 7.51500E+01 3.96080E+01 0.00000E+00
 -1       643 7.81500E+01 3.96080E+01 0.00000E+00
 -1       644 8.11500E+01 3.96080E+01 0.00000E+00
 -1       645 8.41500E+01 3.96080E+01 0.00000E+00
 -1       646 8.71500E+01 3.96080E+01 0.00000E+00
 -1       647 9.01500E+01 3.96080E+01 0.00000E+00
 -1       648 9.31500E+01 3.96080E+01 0.00000E+00
 -1       649 9.61500E+01 3.96080E+01 0.00000E+00
 -1       650 9.91500E+01 3.96080E+01 0.00000E+00
 -1       651 1.02150E+02 3.96080E+01 0.00000E+00
 -1       652 1.05150E+02 3.96080E+01 0.00000E+00
 -1       653 1.08150E+02 3.96080E+01 0.00000E+00
 -1       654 1.11150E+02 3.96080E+01 0.00000E+00
 -1       655 1.14150E+02 3.96080E+01 0.00000E+00
 -1       656 1.17150E+02 3.96080E+01 0.00000E+00
 -1       657 1.20150E+02 3.96080E+01 0.00000E+00
 -1       658 1.23150E+02 3.96080E+01 0.00000E+00
 -1       659 1.26150E+02 3.96080E+01 0.00000E+00
 -1       660 1.29150E+02 3.96080E+01 0.00000E+00
 -1       661 1.32150E+02 3.96080E+01 0.00000E+00
 -1       662 1.35150E+02 3.96080E+01 0.00000E+00
 -1       663 1.38150E+02 3.96080E+01 0.00000E+00
 -1       664 4.47454E+01 3.04687E+01 0.00000E+00
 -1       665 1.40178E+02 3.96665E+01 0.00000E+00
 -1       666 2.05350E+01 9.20225E+00 0.00000E+00
 -1       667 2.95350E+01 9.20225E+00 0.00000E+00
 -1       668 3.25350E+01 9.20225E+00 0.00000E+00
 -1       669 3.55350E+01 9.20225E+00 0.00000E+00
 -1       670 3.85350E+01 9.20225E+00 0.00000E+00
 -1       671 4.15350E+01 9.20225E+00 0.00000E+00
 -1       672 4.45350E+01 9.20225E+00 0.00000E+00
 -1       673 4.75350E+01 9.20225E+00 0.00000E+00
 -1       674 5.05350E+01 9.20225E+00 0.00000E+00
 -1       675 5.35350E+01 9.20225E+00 0.00000E+00
 -1       676 5.65350E+01 9.20225E+00 0.00000E+00
 -1       677 5.95350E+01 9.20225E+00 0.00000E+00
 -1       678 6.25350E+01 9.20225E+00 0.00000E+00
 -1       679 6.55350E+01 9.20225E+00 0.00000E+00
 -1       680 6.85350E+01 9.20225E+00 0.00000E+00
 -1       681 7.15350E+01 9.20225E+00 0.00000E+00
 -1       682 7.45350E+01 9.20225E+00 0.00000E+00
 -1       683 7.75350E+01 9.20225E+00 0.00000E+00
 -1       684 8.05350E+01 9.20225E+00 0.00000E+00
 -1       685 8.35350E+01 9.20225E+00 0.00000E+00
 -1       686 8.65350E+01 9.20225E+00 0.00000E+00
 -1       687 8.95350E+01 9.20225E+00 0.00000E+00
 -1       688 9.25350E+01 9.20225E+00 0.00000E+00
 -1       689 9.55350E+01 9.20225E+00 0.00000E+00
 -1       690 9.85350E+01 9.20225E+00 0.00000E+00
 -1       691 1.01535E+02 9.20225E+00 0.00000E+00
 -1       692 1.04535E+02 9.20225E+00 0.00000E+00
 -1       693 1.07535E+02 9.20225E+00 0.00000E+00
 -1       694 1.10535E+02 9.20225E+00 0.00000E+00
 -1       695 1.13535E+02 9.20225E+00 0.00000E+00
 -1       696 1.16535E+02 9.20225E+00 0.00000E+00
 -1       697 1.19535E+02 9.20225E+00 0.00000E+00
 -1       698 1.22535E+02 9.20225E+00 0.00000E+00
 -1       699 1.25535E+02 9.20225E+00 0.00000E+00
 -1       700 1.28535E+02 9.20225E+00 0.00000E+00
 -1       701 1.31535E+02 9.20225E+00 0.00000E+00
 -1       702 1.34535E+02 9.20225E+00 0.00000E+00
 -1       703 1.37535E+02 9.20225E+00 0.00000E+00
 -1       704 1.39870E+02 9.76363E+00 0.00000E+00
 -1       705 5.17869E+01 3.61187E+01 0.00000E+00
 -1       706 1.39608E+02 2.35500E+01 0.00000E+00
 -1       707 1.39608E+02 1.76500E+01 0.00000E+00
 -1       708 1.39608E+02 2.65000E+01 0.00000E+00
 -1       709 1.39608E+02 2.06000E+01 0.00000E+00
 -1       710 1.39608E+02 2.94000E+01 0.00000E+00
 -1       711 1.39608E+02 3.23500E+01 0.00000E+00
 -1       712 1.39608E+02 3.53000E+01 0.00000E+00
 -1       713 1.75350E+01 9.20225E+00 0.00000E+00
 -1       714 4.99063E+01 3.51078E+01 0.00000E+00
 -1       715 6.82427E+01 1.80418E+01 0.00000E+00
 -1       716 6.44147E+01 1.32225E+01 0.00000E+00
 -1       717 6.88084E+01 2.62483E+01 0.00000E+00
 -1       718 5.16654E+01 1.11644E+01 0.00000E+00
 -1       719 6.79941E+01 2.84512E+01 0.00000E+00
 -1       720 2.65350E+01 9.20225E+00 0.00000E+00
 -1       721 2.35350E+01 9.20225E+00 0.00000E+00
 -1       722 1.21500E+01 3.96080E+01 0.00000E+00
 -1       723 6.21227E+01 1.24986E+01 0.00000E+00
 -1       724 6.68744E+01 3.11136E+01 0.00000E+00
 -1       725 1.03920E+01 1.76125E+01 0.00000E+00
 -1       726 4.38780E+01 2.57464E+01 0.00000E+00
 -1       727 6.06298E+01 3.58461E+01 0.00000E+00
 -1       728 1.03920E+01 3.23250E+01 0.00000E+00
 -1       729 4.49437E+01 1.73642E+01 0.00000E+00
 -1       730 4.39159E+01 2.01120E+01 0.00000E+00
 -1       731 4.73071E+01 3.36204E+01 0.00000E+00
 -1       732 4.60826E+01 1.52304E+01 0.00000E+00
 -1       733 4.44549E+01 2.75429E+01 0.00000E+00
 -1       734 6.32963E+01 3.47325E+01 0.00000E+00
 -1       735 6.66438E+01 1.57048E+01 0.00000E+00
 -1       736 6.50405E+01 3.29900E+01 0.00000E+00
 -1       737 5.99939E+01 1.13853E+01 0.00000E+00
 -1       738 1.03920E+01 3.52625E+01 0.00000E+00
 -1       739 1.03920E+01 2.64500E+01 0.00000E+00
 -1       740 6.97522E+01 2.49290E+01 0.00000E+00
 -1       741 6.94513E+01 1.91909E+01 0.00000E+00
 -1       742 4.47174E+01 3.29586E+01 0.00000E+00
 -1       743 5.35890E+01 3.74194E+01 0.00000E+00
 -1       744 1.39870E+02 1.26886E+01 0.00000E+00
 -1       745 6.65521E+01 1.33201E+01 0.00000E+00
 -1       746 4.27320E+01 2.12813E+01 0.00000E+00
 -1       747 5.79137E+01 3.67031E+01 0.00000E+00
 -1       748 1.38879E+02 3.74540E+01 0.00000E+00
 -1       749 6.93044E+01 2.23500E+01 0.00000E+00
 -1       750 4.63361E+01 1.28367E+01 0.00000E+00
 -1       751 1.39739E+02 1.51693E+01 0.00000E+00
 -1       752 1.03920E+01 2.93875E+01 0.00000E+00
 -1       753 5.57513E+01 3.70612E+01 0.00000E+00
 -1       754 1.05210E+01 3.87342E+01 0.00000E+00
 -1       755 1.29900E+01 1.32000E+01 0.00000E+00
 -1       756 1.66500E+01 3.70100E+01 0.00000E+00
 -1       757 1.96500E+01 3.70100E+01 0.00000E+00
 -1       758 2.26500E+01 3.70100E+01 0.00000E+00
 -1       759 2.56500E+01 3.70100E+01 0.00000E+00
 -1       760 2.86500E+01 3.70100E+01 0.00000E+00
 -1       761 3.16500E+01 3.70100E+01 0.00000E+00
 -1       762 3.46500E+01 3.70100E+01 0.00000E+00
 -1       763 3.76500E+01 3.70100E+01 0.00000E+00
 -1       764 4.06500E+01 3.70100E+01 0.00000E+00
 -1       765 4.36500E+01 3.70100E+01 0.00000E+00
 -1       766 4.66500E+01 3.70100E+01 0.00000E+00
 -1       767 6.76500E+01 3.70100E+01 0.00000E+00
 -1       768 7.06500E+01 3.70100E+01 0.00000E+00
 -1       769 7.36500E+01 3.70100E+01 0.00000E+00
 -1       770 7.66500E+01 3.70100E+01 0.00000E+00
 -1       771 7.96500E+01 3.70100E+01 0.00000E+00
 -1       772 8.26500E+01 3.70100E+01 0.00000E+00
 -1       773 8.56500E+01 3.70100E+01 0.00000E+00
 -1       774 8.86500E+01 3.70100E+01 0.00000E+00
 -1       775 9.16500E+01 3.70100E+01 0.00000E+00
 -1       776 9.46500E+01 3.70100E+01 0.00000E+00
 -1       777 9.76500E+01 3.70100E+01 0.00000E+00
 -1       778 1.00650E+02 3.70100E+01 0.00000E+00
 -1       779 1.03650E+02 3.70100E+01 0.00000E+00
 -1       780 1.06650E+02 3.70100E+01 0.00000E+00
 -1       781 1.09650E+02 3.70100E+01 0.00000E+00
 -1       782 1.12650E+02 3.70100E+01 0.00000E+00
 -1       783 1.15650E+02 3.70100E+01 0.00000E+00
 -1       784 1.18650E+02 3.70100E+01 0.00000E+00
 -1       785 1.21650E+02 3.70100E+01 0.00000E+00
 -1       786 1.24650E+02 3.70100E+01 0.00000E+00
 -1       787 1.27650E+02 3.70100E+01 0.00000E+00
 -1       788 1.30650E+02 3.70100E+01 0.00000E+00
 -1       789 1.33650E+02 3.70100E+01 0.00000E+00
 -1       790 1.36264E+02 3.72320E+01 0.00000E+00
 -1       791 3.10350E+01 1.18003E+01 0.00000E+00
 -1       792 4.00350E+01 1.18003E+01 0.00000E+00
 -1       793 4.30350E+01 1.18003E+01 0.00000E+00
 -1       794 7.00350E+01 1.18003E+01 0.00000E+00
 -1       795 7.30350E+01 1.18003E+01 0.00000E+00
 -1       796 7.60350E+01 1.18003E+01 0.00000E+00
 -1       797 7.90350E+01 1.18003E+01 0.00000E+00
 -1       798 8.20350E+01 1.18003E+01 0.00000E+00
 -1       799 8.50350E+01 1.18003E+01 0.00000E+00
 -1       800 8.80350E+01 1.18003E+01 0.00000E+00
 -1       801 9.10350E+01 1.18003E+01 0.00000E+00
 -1       802 9.40350E+01 1.18003E+01 0.00000E+00
 -1       803 9.70350E+01 1.18003E+01 0.00000E+00
 -1       804 1.00035E+02 1.18003E+01 0.00000E+00
 -1       805 1.03035E+02 1.18003E+01 0.00000E+00
 -1       806 1.06035E+02 1.18003E+01 0.00000E+00
 -1       807 1.09035E+02 1.18003E+01 0.00000E+00
 -1       808 1.12035E+02 1.18003E+01 0.00000E+00
 -1       809 1.15035E+02 1.18003E+01 0.00000E+00
 -1       810 1.18035E+02 1.18003E+01 0.00000E+00
 -1       811 1.21035E+02 1.18003E+01 0.00000E+00
 -1       812 1.24035E+02 1.18003E+01 0.00000E+00
 -1       813 1.27035E+02 1.18003E+01 0.00000E+00
 -1       814 1.30035E+02 1.18003E+01 0.00000E+00
 -1       815 1.33035E+02 1.18003E+01 0.00000E+00
 -1       816 1.36035E+02 1.18003E+01 0.00000E+00
 -1       817 1.37953E+02 1.22444E+01 0.00000E+00
 -1       818 1.37010E+02 2.79500E+01 0.00000E+00
 -1       819 1.37010E+02 2.50000E+01 0.00000E+00
 -1       820 4.93317E+01 1.11367E+01 0.00000E+00
 -1       821 6.58543E+01 3.55489E+01 0.00000E+00
 -1       822 4.35565E+01 1.52530E+01 0.00000E+00
 -1       823 4.22250E+01 2.42642E+01 0.00000E+00
 -1       824 4.22264E+01 2.92415E+01 0.00000E+00
 -1       825 2.80350E+01 1.18003E+01 0.00000E+00
 -1       826 6.90152E+01 3.04473E+01 0.00000E+00
 -1       827 1.37010E+02 3.09000E+01 0.00000E+00
 -1       828 1.37010E+02 3.38500E+01 0.00000E+00
 -1       829 1.37625E+01 1.12011E+01 0.00000E+00
 -1       830 3.70350E+01 1.18003E+01 0.00000E+00
 -1       831 1.36500E+01 3.70100E+01 0.00000E+00
 -1       832 2.50350E+01 1.18003E+01 0.00000E+00
 -1       833 3.40350E+01 1.18003E+01 0.00000E+00
 -1       834 2.20350E+01 1.18003E+01 0.00000E+00
 -1       835 7.03244E+01 2.80606E+01 0.00000E+00
 -1       836 6.76881E+01 3.36724E+01 0.00000E+00
 -1       837 4.22257E+01 2.67529E+01 0.00000E+00
 -1       838 1.29900E+01 2.20250E+01 0.00000E+00
 -1       839 4.25287E+01 1.80008E+01 0.00000E+00
 -1       840 6.89971E+01 1.58103E+01 0.00000E+00
 -1       841 1.20210E+01 3.61362E+01 0.00000E+00
 -1       842 4.90281E+01 3.73579E+01 0.00000E+00
 -1       843 1.29900E+01 2.49750E+01 0.00000E+00
 -1       844 7.12681E+01 2.67413E+01 0.00000E+00
 -1       845 7.07333E+01 2.34954E+01 0.00000E+00
 -1       846 1.90350E+01 1.18003E+01 0.00000E+00
 -1       847 7.02057E+01 1.69594E+01 0.00000E+00
 -1       848 1.20210E+01 3.31987E+01 0.00000E+00
 -1       849 4.13448E+01 1.91702E+01 0.00000E+00
 -1       850 1.63988E+01 1.15007E+01 0.00000E+00
 -1       851 1.37010E+02 1.91250E+01 0.00000E+00
 -1       852 1.20210E+01 3.02612E+01 0.00000E+00
 -1       853 1.37010E+02 2.20625E+01 0.00000E+00
 -1       854 1.36637E+02 3.55410E+01 0.00000E+00
 -1       855 1.37141E+02 1.66443E+01 0.00000E+00
 -1       856 4.21984E+01 3.17314E+01 0.00000E+00
 -1       857 1.29900E+01 1.90875E+01 0.00000E+00
 -1       858 7.08496E+01 2.06147E+01 0.00000E+00
 -1       859 1.29900E+01 1.61437E+01 0.00000E+00
 -1       860 1.81500E+01 3.44120E+01 0.00000E+00
 -1       861 2.11500E+01 3.44120E+01 0.00000E+00
 -1       862 2.41500E+01 3.44120E+01 0.00000E+00
 -1       863 2.71500E+01 3.44120E+01 0.00000E+00
 -1       864 3.01500E+01 3.44120E+01 0.00000E+00
 -1       865 3.31500E+01 3.44120E+01 0.00000E+00
 -1       866 3.61500E+01 3.44120E+01 0.00000E+00
 -1       867 3.91500E+01 3.44120E+01 0.00000E+00
 -1       868 7.21500E+01 3.44120E+01 0.00000E+00
 -1       869 7.51500E+01 3.44120E+01 0.00000E+00
 -1       870 7.81500E+01 3.44120E+01 0.00000E+00
 -1       871 8.11500E+01 3.44120E+01 0.00000E+00
 -1       872 8.41500E+01 3.44120E+01 0.00000E+00
 -1       873 8.71500E+01 3.44120E+01 0.00000E+00
 -1       874 9.01500E+01 3.44120E+01 0.00000E+00
 -1       875 9.31500E+01 3.44120E+01 0.00000E+00
 -1       876 9.61500E+01 3.44120E+01 0.00000E+00
 -1       877 9.91500E+01 3.44120E+01 0.00000E+00
 -1       878 1.02150E+02 3.44120E+01 0.00000E+00
 -1       879 1.05150E+02 3.44120E+01 0.00000E+00
 -1       880 1.08150E+02 3.44120E+01 0.00000E+00
 -1       881 1.11150E+02 3.44120E+01 0.00000E+00
 -1       882 1.14150E+02 3.44120E+01 0.00000E+00
 -1       883 1.17150E+02 3.44120E+01 0.00000E+00
 -1       884 1.20150E+02 3.44120E+01 0.00000E+00
 -1       885 1.23150E+02 3.44120E+01 0.00000E+00
 -1       886 1.26150E+02 3.44120E+01 0.00000E+00
 -1       887 1.29150E+02 3.44120E+01 0.00000E+00
 -1       888 1.32150E+02 3.44120E+01 0.00000E+00
 -1       889 1.25055E+01 2.76181E+01 0.00000E+00
 -1       890 2.35350E+01 1.43982E+01 0.00000E+00
 -1       891 1.51500E+01 3.44120E+01 0.00000E+00
 -1       892 4.15350E+01 1.43982E+01 0.00000E+00
 -1       893 7.04026E+01 3.29038E+01 0.00000E+00
 -1       894 8.05350E+01 1.43982E+01 0.00000E+00
 -1       895 8.35350E+01 1.43982E+01 0.00000E+00
 -1       896 8.65350E+01 1.43982E+01 0.00000E+00
 -1       897 8.95350E+01 1.43982E+01 0.00000E+00
 -1       898 9.25350E+01 1.43982E+01 0.00000E+00
 -1       899 9.55350E+01 1.43982E+01 0.00000E+00
 -1       900 9.85350E+01 1.43982E+01 0.00000E+00
 -1       901 1.01535E+02 1.43982E+01 0.00000E+00
 -1       902 1.04535E+02 1.43982E+01 0.00000E+00
 -1       903 1.07535E+02 1.43982E+01 0.00000E+00
 -1       904 1.10535E+02 1.43982E+01 0.00000E+00
 -1       905 1.13535E+02 1.43982E+01 0.00000E+00
 -1       906 1.16535E+02 1.43982E+01 0.00000E+00
 -1       907 1.19535E+02 1.43982E+01 0.00000E+00
 -1       908 1.22535E+02 1.43982E+01 0.00000E+00
 -1       909 1.25535E+02 1.43982E+01 0.00000E+00
 -1       910 1.28535E+02 1.43982E+01 0.00000E+00
 -1       911 1.31535E+02 1.43982E+01 0.00000E+00
 -1       912 1.34535E+02 1.43982E+01 0.00000E+00
 -1       913 1.34412E+02 3.23750E+01 0.00000E+00
 -1       914 1.34412E+02 2.64750E+01 0.00000E+00
 -1       915 1.56263E+01 1.34996E+01 0.00000E+00
 -1       916 7.75350E+01 1.43982E+01 0.00000E+00
 -1       917 2.95350E+01 1.43982E+01 0.00000E+00
 -1       918 7.45350E+01 1.43982E+01 0.00000E+00
 -1       919 1.34412E+02 2.94250E+01 0.00000E+00
 -1       920 2.65350E+01 1.43982E+01 0.00000E+00
 -1       921 7.17118E+01 3.05171E+01 0.00000E+00
 -1       922 3.85350E+01 1.43982E+01 0.00000E+00
 -1       923 1.37547E+02 1.44444E+01 0.00000E+00
 -1       924 1.35855E+01 3.38054E+01 0.00000E+00
 -1       925 4.14242E+01 3.43707E+01 0.00000E+00
 -1       926 7.16203E+01 1.43798E+01 0.00000E+00
 -1       927 4.07876E+01 2.24854E+01 0.00000E+00
 -1       928 7.22492E+01 2.53077E+01 0.00000E+00
 -1       929 2.05350E+01 1.43982E+01 0.00000E+00
 -1       930 4.00420E+01 2.45581E+01 0.00000E+00
 -1       931 1.34412E+02 2.05938E+01 0.00000E+00
 -1       932 1.55880E+01 2.35000E+01 0.00000E+00
 -1       933 3.25350E+01 1.43982E+01 0.00000E+00
 -1       934 1.34394E+02 3.49765E+01 0.00000E+00
 -1       935 7.16040E+01 1.83832E+01 0.00000E+00
 -1       936 1.34412E+02 2.35375E+01 0.00000E+00
 -1       937 3.99399E+01 1.67842E+01 0.00000E+00
 -1       938 1.35855E+01 3.08679E+01 0.00000E+00
 -1       939 3.55350E+01 1.43982E+01 0.00000E+00
 -1       940 1.34543E+02 1.81131E+01 0.00000E+00
 -1       941 3.96146E+01 3.04572E+01 0.00000E+00
 -1       942 7.26555E+01 2.91979E+01 0.00000E+00
 -1       943 3.96139E+01 2.79686E+01 0.00000E+00
 -1       944 1.55880E+01 2.05625E+01 0.00000E+00
 -1       945 2.26500E+01 3.18140E+01 0.00000E+00
 -1       946 2.56500E+01 3.18140E+01 0.00000E+00
 -1       947 2.86500E+01 3.18140E+01 0.00000E+00
 -1       948 3.16500E+01 3.18140E+01 0.00000E+00
 -1       949 3.46500E+01 3.18140E+01 0.00000E+00
 -1       950 7.30695E+01 1.63907E+01 0.00000E+00
 -1       951 8.80350E+01 1.69963E+01 0.00000E+00
 -1       952 7.66500E+01 3.18140E+01 0.00000E+00
 -1       953 7.96500E+01 3.18140E+01 0.00000E+00
 -1       954 8.26500E+01 3.18140E+01 0.00000E+00
 -1       955 8.56500E+01 3.18140E+01 0.00000E+00
 -1       956 8.86500E+01 3.18140E+01 0.00000E+00
 -1       957 9.16500E+01 3.18140E+01 0.00000E+00
 -1       958 9.46500E+01 3.18140E+01 0.00000E+00
 -1       959 9.76500E+01 3.18140E+01 0.00000E+00
 -1       960 1.00650E+02 3.18140E+01 0.00000E+00
 -1       961 1.03650E+02 3.18140E+01 0.00000E+00
 -1       962 1.06650E+02 3.18140E+01 0.00000E+00
 -1       963 1.09650E+02 3.18140E+01 0.00000E+00
 -1       964 1.12650E+02 3.18140E+01 0.00000E+00
 -1       965 1.15650E+02 3.18140E+01 0.00000E+00
 -1       966 1.18650E+02 3.18140E+01 0.00000E+00
 -1       967 1.21650E+02 3.18140E+01 0.00000E+00
 -1       968 1.24650E+02 3.18140E+01 0.00000E+00
 -1       969 1.27650E+02 3.18140E+01 0.00000E+00
 -1       970 1.30650E+02 3.18140E+01 0.00000E+00
 -1       971 1.80806E+01 1.39489E+01 0.00000E+00
 -1       972 2.80350E+01 1.69963E+01 0.00000E+00
 -1       973 1.66500E+01 3.18140E+01 0.00000E+00
 -1       974 3.86433E+01 2.28845E+01 0.00000E+00
 -1       975 1.96500E+01 3.18140E+01 0.00000E+00
 -1       976 8.50350E+01 1.69963E+01 0.00000E+00
 -1       977 1.55717E+01 2.64968E+01 0.00000E+00
 -1       978 8.20350E+01 1.69963E+01 0.00000E+00
 -1       979 9.10350E+01 1.69963E+01 0.00000E+00
 -1       980 9.40350E+01 1.69963E+01 0.00000E+00
 -1       981 9.70350E+01 1.69963E+01 0.00000E+00
 -1       982 1.00035E+02 1.69963E+01 0.00000E+00
 -1       983 1.03035E+02 1.69963E+01 0.00000E+00
 -1       984 1.06035E+02 1.69963E+01 0.00000E+00
 -1       985 1.09035E+02 1.69963E+01 0.00000E+00
 -1       986 1.12035E+02 1.69963E+01 0.00000E+00
 -1       987 1.15035E+02 1.69963E+01 0.00000E+00
 -1       988 1.18035E+02 1.69963E+01 0.00000E+00
 -1       989 1.21035E+02 1.69963E+01 0.00000E+00
 -1       990 1.24035E+02 1.69963E+01 0.00000E+00
 -1       991 1.27035E+02 1.69963E+01 0.00000E+00
 -1       992 1.30035E+02 1.69963E+01 0.00000E+00
 -1       993 2.50350E+01 1.69963E+01 0.00000E+00
 -1       994 3.92916E+01 1.98343E+01 0.00000E+00
 -1       995 7.60350E+01 1.69963E+01 0.00000E+00
 -1       996 7.90350E+01 1.69963E+01 0.00000E+00
 -1       997 1.55880E+01 1.76187E+01 0.00000E+00
 -1       998 7.26726E+01 2.21310E+01 0.00000E+00
 -1       999 2.20350E+01 1.69963E+01 0.00000E+00
 -1      1000 3.76500E+01 3.18140E+01 0.00000E+00
 -1      1001 3.10350E+01 1.69963E+01 0.00000E+00
 -1      1002 1.81860E+01 2.20313E+01 0.00000E+00
 -1      1003 1.81697E+01 2.50280E+01 0.00000E+00
 -1      1004 1.31814E+02 2.20656E+01 0.00000E+00
 -1      1005 1.31814E+02 2.50031E+01 0.00000E+00
 -1      1006 7.36367E+01 2.77642E+01 0.00000E+00
 -1      1007 7.34270E+01 1.98994E+01 0.00000E+00
 -1      1008 1.31814E+02 2.79531E+01 0.00000E+00
 -1      1009 3.69399E+01 1.67842E+01 0.00000E+00
 -1      1010 1.30924E+02 1.95309E+01 0.00000E+00
 -1      1011 3.76493E+01 2.93254E+01 0.00000E+00
 -1      1012 1.51178E+01 3.13409E+01 0.00000E+00
 -1      1013 3.76274E+01 2.59871E+01 0.00000E+00
 -1      1014 8.95350E+01 1.95942E+01 0.00000E+00
 -1      1015 2.41500E+01 2.92160E+01 0.00000E+00
 -1      1016 2.71500E+01 2.92160E+01 0.00000E+00
 -1      1017 3.01500E+01 2.92160E+01 0.00000E+00
 -1      1018 3.31500E+01 2.92160E+01 0.00000E+00
 -1      1019 3.40350E+01 1.69963E+01 0.00000E+00
 -1      1020 7.81500E+01 2.92160E+01 0.00000E+00
 -1      1021 1.48187E+01 2.94081E+01 0.00000E+00
 -1      1022 8.11500E+01 2.92160E+01 0.00000E+00
 -1      1023 8.41500E+01 2.92160E+01 0.00000E+00
 -1      1024 8.71500E+01 2.92160E+01 0.00000E+00
 -1      1025 9.01500E+01 2.92160E+01 0.00000E+00
 -1      1026 9.31500E+01 2.92160E+01 0.00000E+00
 -1      1027 9.61500E+01 2.92160E+01 0.00000E+00
 -1      1028 9.91500E+01 2.92160E+01 0.00000E+00
 -1      1029 1.02150E+02 2.92160E+01 0.00000E+00
 -1      1030 1.05150E+02 2.92160E+01 0.00000E+00
 -1      1031 1.08150E+02 2.92160E+01 0.00000E+00
 -1      1032 1.11150E+02 2.92160E+01 0.00000E+00
 -1      1033 1.14150E+02 2.92160E+01 0.00000E+00
 -1      1034 1.17150E+02 2.92160E+01 0.00000E+00
 -1      1035 1.20150E+02 2.92160E+01 0.00000E+00
 -1      1036 1.23150E+02 2.92160E+01 0.00000E+00
 -1      1037 1.26150E+02 2.92160E+01 0.00000E+00
 -1      1038 1.28982E+02 2.85846E+01 0.00000E+00
 -1      1039 1.95806E+01 1.65469E+01 0.00000E+00
 -1      1040 1.81860E+01 1.90875E+01 0.00000E+00
 -1      1041 8.05350E+01 1.95942E+01 0.00000E+00
 -1      1042 7.48254E+01 2.40344E+01 0.00000E+00
 -1      1043 2.11500E+01 2.92160E+01 0.00000E+00
 -1      1044 8.65350E+01 1.95942E+01 0.00000E+00
 -1      1045 9.55350E+01 1.95942E+01 0.00000E+00
 -1      1046 9.85350E+01 1.95942E+01 0.00000E+00
 -1      1047 1.01535E+02 1.95942E+01 0.00000E+00
 -1      1048 1.04535E+02 1.95942E+01 0.00000E+00
 -1      1049 1.07535E+02 1.95942E+01 0.00000E+00
 -1      1050 1.10535E+02 1.95942E+01 0.00000E+00
 -1      1051 1.13535E+02 1.95942E+01 0.00000E+00
 -1      1052 1.16535E+02 1.95942E+01 0.00000E+00
 -1      1053 1.19535E+02 1.95942E+01 0.00000E+00
 -1      1054 1.22535E+02 1.95942E+01 0.00000E+00
 -1      1055 1.25535E+02 1.95942E+01 0.00000E+00
 -1      1056 1.28230E+02 1.95626E+01 0.00000E+00
 -1      1057 2.65350E+01 1.95942E+01 0.00000E+00
 -1      1058 7.48294E+01 2.86963E+01 0.00000E+00
 -1      1059 1.29216E+02 2.35344E+01 0.00000E+00
 -1      1060 7.75350E+01 1.95942E+01 0.00000E+00
 -1      1061 1.81500E+01 2.92160E+01 0.00000E+00
 -1      1062 8.35350E+01 1.95942E+01 0.00000E+00
 -1      1063 9.25350E+01 1.95942E+01 0.00000E+00
 -1      1064 3.60276E+01 2.37457E+01 0.00000E+00
 -1      1065 3.50854E+01 2.76730E+01 0.00000E+00
 -1      1066 2.95350E+01 1.95942E+01 0.00000E+00
 -1      1067 2.07758E+01 2.35438E+01 0.00000E+00
 -1      1068 3.66759E+01 2.06956E+01 0.00000E+00
 -1      1069 2.35350E+01 1.95942E+01 0.00000E+00
 -1      1070 7.61802E+01 2.18143E+01 0.00000E+00
 -1      1071 1.29099E+02 2.60595E+01 0.00000E+00
 -1      1072 2.01782E+01 2.00453E+01 0.00000E+00
 -1      1073 7.68585E+01 2.65994E+01 0.00000E+00
 -1      1074 3.25350E+01 1.95942E+01 0.00000E+00
 -1      1075 2.56500E+01 2.66180E+01 0.00000E+00
 -1      1076 2.86500E+01 2.66180E+01 0.00000E+00
 -1      1077 3.16500E+01 2.66180E+01 0.00000E+00
 -1      1078 3.30740E+01 2.51138E+01 0.00000E+00
 -1      1079 7.98585E+01 2.65994E+01 0.00000E+00
 -1      1080 8.28585E+01 2.65994E+01 0.00000E+00
 -1      1081 8.58585E+01 2.65994E+01 0.00000E+00
 -1      1082 8.88585E+01 2.65994E+01 0.00000E+00
 -1      1083 9.18585E+01 2.65994E+01 0.00000E+00
 -1      1084 9.48585E+01 2.65994E+01 0.00000E+00
 -1      1085 9.78585E+01 2.65994E+01 0.00000E+00
 -1      1086 1.00859E+02 2.65994E+01 0.00000E+00
 -1      1087 1.03859E+02 2.65994E+01 0.00000E+00
 -1      1088 1.06859E+02 2.65994E+01 0.00000E+00
 -1      1089 1.09859E+02 2.65994E+01 0.00000E+00
 -1      1090 1.12859E+02 2.65994E+01 0.00000E+00
 -1      1091 1.15859E+02 2.65994E+01 0.00000E+00
 -1      1092 1.18859E+02 2.65994E+01 0.00000E+00
 -1      1093 1.21859E+02 2.65994E+01 0.00000E+00
 -1      1094 1.24859E+02 2.65994E+01 0.00000E+00
 -1      1095 1.03035E+02 2.21922E+01 0.00000E+00
 -1      1096 8.20350E+01 2.21922E+01 0.00000E+00
 -1      1097 8.80350E+01 2.21922E+01 0.00000E+00
 -1      1098 1.00035E+02 2.21922E+01 0.00000E+00
 -1      1099 2.09629E+01 2.63799E+01 0.00000E+00
 -1      1100 9.70350E+01 2.21922E+01 0.00000E+00
 -1      1101 1.06035E+02 2.21922E+01 0.00000E+00
 -1      1102 1.09035E+02 2.21922E+01 0.00000E+00
 -1      1103 1.12035E+02 2.21922E+01 0.00000E+00
 -1      1104 1.15035E+02 2.21922E+01 0.00000E+00
 -1      1105 1.18035E+02 2.21922E+01 0.00000E+00
 -1      1106 1.21035E+02 2.21922E+01 0.00000E+00
 -1      1107 1.24035E+02 2.21922E+01 0.00000E+00
 -1      1108 8.50350E+01 2.21922E+01 0.00000E+00
 -1      1109 7.90350E+01 2.21922E+01 0.00000E+00
 -1      1110 7.80194E+01 2.42069E+01 0.00000E+00
 -1      1111 2.33065E+01 2.64989E+01 0.00000E+00
 -1      1112 1.26979E+02 2.63295E+01 0.00000E+00
 -1      1113 2.31194E+01 2.36628E+01 0.00000E+00
 -1      1114 1.26626E+02 2.28633E+01 0.00000E+00
 -1      1115 1.26802E+02 2.45964E+01 0.00000E+00
 -1      1116 3.28045E+01 2.23540E+01 0.00000E+00
 -1      1117 9.40350E+01 2.21922E+01 0.00000E+00
 -1      1118 2.80350E+01 2.21922E+01 0.00000E+00
 -1      1119 9.10350E+01 2.21922E+01 0.00000E+00
 -1      1120 3.00740E+01 2.51138E+01 0.00000E+00
 -1      1121 1.24212E+02 2.39253E+01 0.00000E+00
 -1      1122 2.70740E+01 2.51138E+01 0.00000E+00
 -1      1123 3.04198E+01 2.22731E+01 0.00000E+00
 -1      1124 0.00000E+00 4.85250E+01 0.00000E+00
 -1      1125 0.00000E+00 4.55750E+01 0.00000E+00
 -1      1126 0.00000E+00 4.26250E+01 0.00000E+00
 -1      1127 0.00000E+00 3.96750E+01 0.00000E+00
 -1      1128 0.00000E+00 3.67250E+01 0.00000E+00
 -1      1129 0.00000E+00 3.38000E+01 0.00000E+00
 -1      1130 0.00000E+00 3.08750E+01 0.00000E+00
 -1      1131 0.00000E+00 2.79250E+01 0.00000E+00
 -1      1132 0.00000E+00 2.49750E+01 0.00000E+00
 -1      1133 0.00000E+00 2.20250E+01 0.00000E+00
 -1      1134 0.00000E+00 1.90750E+01 0.00000E+00
 -1      1135 0.00000E+00 1.61500E+01 0.00000E+00
 -1      1136 0.00000E+00 1.32250E+01 0.00000E+00
 -1      1137 0.00000E+00 1.02750E+01 0.00000E+00
 -1      1138 0.00000E+00 7.32500E+00 0.00000E+00
 -1      1139 0.00000E+00 4.37500E+00 0.00000E+00
 -1      1140 0.00000E+00 1.45000E+00 0.00000E+00
 -1      1141 1.57500E+00 5.00000E+01 0.00000E+00
 -1      1142 4.65000E+00 5.00000E+01 0.00000E+00
 -1      1143 7.65000E+00 5.00000E+01 0.00000E+00
 -1      1144 1.06500E+01 5.00000E+01 0.00000E+00
 -1      1145 1.36500E+01 5.00000E+01 0.00000E+00
 -1      1146 1.66500E+01 5.00000E+01 0.00000E+00
 -1      1147 1.96500E+01 5.00000E+01 0.00000E+00
 -1      1148 2.26500E+01 5.00000E+01 0.00000E+00
 -1      1149 2.56500E+01 5.00000E+01 0.00000E+00
 -1      1150 2.86500E+01 5.00000E+01 0.00000E+00
 -1      1151 3.16500E+01 5.00000E+01 0.00000E+00
 -1      1152 3.46500E+01 5.00000E+01 0.00000E+00
 -1      1153 3.76500E+01 5.00000E+01 0.00000E+00
 -1      1154 4.06500E+01 5.00000E+01 0.00000E+00
 -1      1155 4.36500E+01 5.00000E+01 0.00000E+00
 -1      1156 4.66500E+01 5.00000E+01 0.00000E+00
 -1      1157 4.96500E+01 5.00000E+01 0.00000E+00
 -1      1158 5.26500E+01 5.00000E+01 0.00000E+00
 -1      1159 5.56500E+01 5.00000E+01 0.00000E+00
 -1      1160 5.86500E+01 5.00000E+01 0.00000E+00
 -1      1161 6.16500E+01 5.00000E+01 0.00000E+00
 -1      1162 6.46500E+01 5.00000E+01 0.00000E+00
 -1      1163 6.76500E+01 5.00000E+01 0.00000E+00
 -1      1164 7.06500E+01 5.00000E+01 0.00000E+00
 -1      1165 7.36500E+01 5.00000E+01 0.00000E+00
 -1      1166 7.66500E+01 5.00000E+01 0.00000E+00
 -1      1167 7.96500E+01 5.00000E+01 0.00000E+00
 -1      1168 8.26500E+01 5.00000E+01 0.00000E+00
 -1      1169 8.56500E+01 5.00000E+01 0.00000E+00
 -1      1170 8.86500E+01 5.00000E+01 0.00000E+00
 -1      1171 9.16500E+01 5.00000E+01 0.00000E+00
 -1      1172 9.46500E+01 5.00000E+01 0.00000E+00
 -1      1173 9.76500E+01 5.00000E+01 0.00000E+00
 -1      1174 1.00650E+02 5.00000E+01 0.00000E+00
 -1      1175 1.03650E+02 5.00000E+01 0.00000E+00
 -1      1176 1.06650E+02 5.00000E+01 0.00000E+00
 -1      1177 1.09650E+02 5.00000E+01 0.00000E+00
 -1      1178 1.12650E+02 5.00000E+01 0.00000E+00
 -1      1179 1.15650E+02 5.00000E+01 0.00000E+00
 -1      1180 1.18650E+02 5.00000E+01 0.00000E+00
 -1      1181 1.21650E+02 5.00000E+01 0.00000E+00
 -1      1182 1.24650E+02 5.00000E+01 0.00000E+00
 -1      1183 1.27650E+02 5.00000E+01 0.00000E+00
 -1      1184 1.30650E+02 5.00000E+01 0.00000E+00
 -1      1185 1.33650E+02 5.00000E+01 0.00000E+00
 -1      1186 1.36650E+02 5.00000E+01 0.00000E+00
 -1      1187 1.39650E+02 5.00000E+01 0.00000E+00
 -1      1188 1.42650E+02 5.00000E+01 0.00000E+00
 -1      1189 1.45650E+02 5.00000E+01 0.00000E+00
 -1      1190 1.48575E+02 5.00000E+01 0.00000E+00
 -1      1191 1.57500E+00 0.00000E+00 0.00000E+00
 -1      1192 4.65000E+00 0.00000E+00 0.00000E+00
 -1      1193 7.65000E+00 0.00000E+00 0.00000E+00
 -1      1194 1.06500E+01 0.00000E+00 0.00000E+00
 -1      1195 1.36500E+01 0.00000E+00 0.00000E+00
 -1      1196 1.66500E+01 0.00000E+00 0.00000E+00
 -1      1197 1.96500E+01 0.00000E+00 0.00000E+00
 -1      1198 2.26500E+01 0.00000E+00 0.00000E+00
 -1      1199 2.56500E+01 0.00000E+00 0.00000E+00
 -1      1200 2.86500E+01 0.00000E+00 0.00000E+00
 -1      1201 3.16500E+01 0.00000E+00 0.00000E+00
 -1      1202 3.46500E+01 0.00000E+00 0.00000E+00
 -1      1203 3.76500E+01 0.00000E+00 0.00000E+00
 -1      1204 4.06500E+01 0.00000E+00 0.00000E+00
 -1      1205 4.36500E+01 0.00000E+00 0.00000E+00
 -1      1206 4.66500E+01 0.00000E+00 0.00000E+00
 -1      1207 4.96500E+01 0.00000E+00 0.00000E+00
 -1      1208 5.26500E+01 0.00000E+00 0.00000E+00
 -1      1209 5.56500E+01 0.00000E+00 0.00000E+00
 -1      1210 5.86500E+01 0.00000E+00 0.00000E+00
 -1      1211 6.16500E+01 0.00000E+00 0.00000E+00
 -1      1212 6.46500E+01 0.00000E+00 0.00000E+00
 -1      1213 6.76500E+01 0.00000E+00 0.00000E+00
 -1      1214 7.06500E+01 0.00000E+00 0.00000E+00
 -1      1215 7.36500E+01 0.00000E+00 0.00000E+00
 -1      1216 7.66500E+01 0.00000E+00 0.00000E+00
 -1      1217 7.96500E+01 0.00000E+00 0.00000E+00
 -1      1218 8.26500E+01 0.00000E+00 0.00000E+00
 -1      1219 8.56500E+01 0.00000E+00 0.00000E+00
 -1      1220 8.86500E+01 0.00000E+00 0.00000E+00
 -1      1221 9.16500E+01 0.00000E+00 0.00000E+00
 -1      1222 9.46500E+01 0.00000E+00 0.00000E+00
 -1      1223 9.76500E+01 0.00000E+00 0.00000E+00
 -1      1224 1.00650E+02 0.00000E+00 0.00000E+00
 -1      1225 1.03650E+02 0.00000E+00 0.00000E+00
 -1      1226 1.06650E+02 0.00000E+00 0.00000E+00
 -1      1227 1.09650E+02 0.00000E+00 0.00000E+00
 -1      1228 1.12650E+02 0.00000E+00 0.00000E+00
 -1      1229 1.15650E+02 0.00000E+00 0.00000E+00
 -1      1230 1.18650E+02 0.00000E+00 0.00000E+00
 -1      1231 1.21650E+02 0.00000E+00 0.00000E+00
 -1      1232 1.24650E+02 0.00000E+00 0.00000E+00
 -1      1233 1.27650E+02 0.00000E+00 0.00000E+00
 -1      1234 1.30650E+02 0.00000E+00 0.00000E+00
 -1      1235 1.33650E+02 0.00000E+00 0.00000E+00
 -1      1236 1.36650E+02 0.00000E+00 0.00000E+00
 -1      1237 1.39650E+02 0.00000E+00 0.00000E+00
 -1      1238 1.42650E+02 0.00000E+00 0.00000E+00
 -1      1239 1.45650E+02 0.00000E+00 0.00000E+00
 -1      1240 1.48575E+02 0.00000E+00 0.00000E+00
 -1      1241 1.50000E+02 1.47500E+00 0.00000E+00
 -1      1242 1.50000E+02 4.42500E+00 0.00000E+00
 -1      1243 1.50000E+02 7.37500E+00 0.00000E+00
 -1      1244 1.50000E+02 1.03250E+01 0.00000E+00
 -1      1245 1.50000E+02 1.32750E+01 0.00000E+00
 -1      1246 1.50000E+02 1.62000E+01 0.00000E+00
 -1      1247 1.50000E+02 1.91250E+01 0.00000E+00
 -1      1248 1.50000E+02 2.20750E+01 0.00000E+00
 -1      1249 1.50000E+02 2.50250E+01 0.00000E+00
 -1      1250 1.50000E+02 2.79750E+01 0.00000E+00
 -1      1251 1.50000E+02 3.09250E+01 0.00000E+00
 -1      1252 1.50000E+02 3.38500E+01 0.00000E+00
 -1      1253 1.50000E+02 3.67750E+01 0.00000E+00
 -1      1254 1.50000E+02 3.97250E+01 0.00000E+00
 -1      1255 1.50000E+02 4.26750E+01 0.00000E+00
 -1      1256 1.50000E+02 4.56250E+01 0.00000E+00
 -1      1257 1.50000E+02 4.85500E+01 0.00000E+00
 -1      1258 6.32852E+01 2.27079E+01 0.00000E+00
 -1      1259 6.29326E+01 2.12005E+01 0.00000E+00
 -1      1260 6.23089E+01 1.98906E+01 0.00000E+00
 -1      1261 6.13963E+01 1.87033E+01 0.00000E+00
 -1      1262 6.02222E+01 1.77173E+01 0.00000E+00
 -1      1263 5.88942E+01 1.70233E+01 0.00000E+00
 -1      1264 5.73919E+01 1.66188E+01 0.00000E+00
 -1      1265 5.58136E+01 1.65580E+01 0.00000E+00
 -1      1266 5.43209E+01 1.68344E+01 0.00000E+00
 -1      1267 5.28453E+01 1.74702E+01 0.00000E+00
 -1      1268 5.15562E+01 1.84232E+01 0.00000E+00
 -1      1269 5.05465E+01 1.96019E+01 0.00000E+00
 -1      1270 4.98413E+01 2.09239E+01 0.00000E+00
 -1      1271 4.94289E+01 2.23936E+01 0.00000E+00
 -1      1272 4.93460E+01 2.39373E+01 0.00000E+00
 -1      1273 4.95864E+01 2.53989E+01 0.00000E+00
 -1      1274 5.01412E+01 2.68006E+01 0.00000E+00
 -1      1275 5.10129E+01 2.80860E+01 0.00000E+00
 -1      1276 5.21484E+01 2.91488E+01 0.00000E+00
 -1      1277 5.35219E+01 2.99486E+01 0.00000E+00
 -1      1278 5.50274E+01 3.04154E+01 0.00000E+00
 -1      1279 5.65195E+01 3.05361E+01 0.00000E+00
 -1      1280 5.79772E+01 3.03431E+01 0.00000E+00
 -1      1281 5.93283E+01 2.98661E+01 0.00000E+00
 -1      1282 6.05546E+01 2.91235E+01 0.00000E+00
 -1      1283 6.16050E+01 2.81454E+01 0.00000E+00
 -1      1284 6.24383E+01 2.69657E+01 0.00000E+00
 -1      1285 6.30080E+01 2.56520E+01 0.00000E+00
 -1      1286 6.32977E+01 2.42570E+01 0.00000E+00
 -1      1287 1.57500E+00 4.85250E+01 0.00000E+00
 -1      1288 1.29900E+00 4.48375E+01 0.00000E+00
 -1      1289 1.29900E+00 4.63125E+01 0.00000E+00
 -1      1290 1.29900E+00 4.18875E+01 0.00000E+00
 -1      1291 1.29900E+00 4.33625E+01 0.00000E+00
 -1      1292 2.59800E+00 4.41000E+01 0.00000E+00
 -1      1293 1.29900E+00 3.89375E+01 0.00000E+00
 -1      1294 1.29900E+00 4.04125E+01 0.00000E+00
 -1      1295 2.59800E+00 4.11500E+01 0.00000E+00
 -1      1296 1.29900E+00 3.59875E+01 0.00000E+00
 -1      1297 1.29900E+00 3.74625E+01 0.00000E+00
 -1      1298 2.59800E+00 3.82000E+01 0.00000E+00
 -1      1299 1.29900E+00 3.30875E+01 0.00000E+00
 -1      1300 1.29900E+00 3.45375E+01 0.00000E+00
 -1      1301 2.59800E+00 3.52750E+01 0.00000E+00
 -1      1302 1.29900E+00 3.01375E+01 0.00000E+00
 -1      1303 1.29900E+00 3.16125E+01 0.00000E+00
 -1      1304 2.59800E+00 3.23500E+01 0.00000E+00
 -1      1305 1.29900E+00 2.71875E+01 0.00000E+00
 -1      1306 1.29900E+00 2.86625E+01 0.00000E+00
 -1      1307 2.59800E+00 2.94000E+01 0.00000E+00
 -1      1308 1.29900E+00 2.42375E+01 0.00000E+00
 -1      1309 1.29900E+00 2.57125E+01 0.00000E+00
 -1      1310 2.59800E+00 2.64500E+01 0.00000E+00
 -1      1311 1.29900E+00 2.12875E+01 0.00000E+00
 -1      1312 1.29900E+00 2.27625E+01 0.00000E+00
 -1      1313 2.59800E+00 2.35000E+01 0.00000E+00
 -1      1314 1.29900E+00 1.83375E+01 0.00000E+00
 -1      1315 1.29900E+00 1.98125E+01 0.00000E+00
 -1      1316 2.59800E+00 2.05500E+01 0.00000E+00
 -1      1317 1.29900E+00 1.54375E+01 0.00000E+00
 -1      1318 1.29900E+00 1.68875E+01 0.00000E+00
 -1      1319 2.59800E+00 1.76250E+01 0.00000E+00
 -1      1320 1.29900E+00 1.24875E+01 0.00000E+00
 -1      1321 1.29900E+00 1.39625E+01 0.00000E+00
 -1      1322 2.59800E+00 1.47000E+01 0.00000E+00
 -1      1323 1.29900E+00 9.53750E+00 0.00000E+00
 -1      1324 1.29900E+00 1.10125E+01 0.00000E+00
 -1      1325 2.59800E+00 1.17500E+01 0.00000E+00
 -1      1326 1.29900E+00 6.58750E+00 0.00000E+00
 -1      1327 1.29900E+00 8.06250E+00 0.00000E+00
 -1      1328 2.59800E+00 8.80000E+00 0.00000E+00
 -1      1329 1.29900E+00 3.63750E+00 0.00000E+00
 -1      1330 1.29900E+00 5.11250E+00 0.00000E+00
 -1      1331 2.59800E+00 5.85000E+00 0.00000E+00
 -1      1332 1.43700E+00 1.09375E+00 0.00000E+00
 -1      1333 1.43700E+00 2.54375E+00 0.00000E+00
 -1      1334 2.73600E+00 3.28125E+00 0.00000E+00
 -1      1335 3.01200E+00 1.09375E+00 0.00000E+00
 -1      1336 3.90000E+00 4.87010E+01 0.00000E+00
 -1      1337 5.40000E+00 4.87010E+01 0.00000E+00
 -1      1338 6.90000E+00 4.87010E+01 0.00000E+00
 -1      1339 8.40000E+00 4.87010E+01 0.00000E+00
 -1      1340 6.15000E+00 4.74020E+01 0.00000E+00
 -1      1341 9.90000E+00 4.87010E+01 0.00000E+00
 -1      1342 1.14000E+01 4.87010E+01 0.00000E+00
 -1      1343 9.15000E+00 4.74020E+01 0.00000E+00
 -1      1344 1.29000E+01 4.87010E+01 0.00000E+00
 -1      1345 1.44000E+01 4.87010E+01 0.00000E+00
 -1      1346 1.21500E+01 4.74020E+01 0.00000E+00
 -1      1347 1.59000E+01 4.87010E+01 0.00000E+00
 -1      1348 1.74000E+01 4.87010E+01 0.00000E+00
 -1      1349 1.51500E+01 4.74020E+01 0.00000E+00
 -1      1350 1.89000E+01 4.87010E+01 0.00000E+00
 -1      1351 2.04000E+01 4.87010E+01 0.00000E+00
 -1      1352 1.81500E+01 4.74020E+01 0.00000E+00
 -1      1353 2.19000E+01 4.87010E+01 0.00000E+00
 -1      1354 2.34000E+01 4.87010E+01 0.00000E+00
 -1      1355 2.11500E+01 4.74020E+01 0.00000E+00
 -1      1356 2.49000E+01 4.87010E+01 0.00000E+00
 -1      1357 2.64000E+01 4.87010E+01 0.00000E+00
 -1      1358 2.41500E+01 4.74020E+01 0.00000E+00
 -1      1359 2.79000E+01 4.87010E+01 0.00000E+00
 -1      1360 2.94000E+01 4.87010E+01 0.00000E+00
 -1      1361 2.71500E+01 4.74020E+01 0.00000E+00
 -1      1362 3.09000E+01 4.87010E+01 0.00000E+00
 -1      1363 3.24000E+01 4.87010E+01 0.00000E+00
 -1      1364 3.01500E+01 4.74020E+01 0.00000E+00
 -1      1365 3.39000E+01 4.87010E+01 0.00000E+00
 -1      1366 3.54000E+01 4.87010E+01 0.00000E+00
 -1      1367 3.31500E+01 4.74020E+01 0.00000E+00
 -1      1368 3.69000E+01 4.87010E+01 0.00000E+00
 -1      1369 3.84000E+01 4.87010E+01 0.00000E+00
 -1      1370 3.61500E+01 4.74020E+01 0.00000E+00
 -1      1371 3.99000E+01 4.87010E+01 0.00000E+00
 -1      1372 4.14000E+01 4.87010E+01 0.00000E+00
 -1      1373 3.91500E+01 4.74020E+01 0.00000E+00
 -1      1374 4.29000E+01 4.87010E+01 0.00000E+00
 -1      1375 4.44000E+01 4.87010E+01 0.00000E+00
 -1      1376 4.21500E+01 4.74020E+01 0.00000E+00
 -1      1377 4.59000E+01 4.87010E+01 0.00000E+00
 -1      1378 4.74000E+01 4.87010E+01 0.00000E+00
 -1      1379 4.51500E+01 4.74020E+01 0.00000E+00
 -1      1380 4.89000E+01 4.87010E+01 0.00000E+00
 -1      1381 5.04000E+01 4.87010E+01 0.00000E+00
 -1      1382 4.81500E+01 4.74020E+01 0.00000E+00
 -1      1383 5.19000E+01 4.87010E+01 0.00000E+00
 -1      1384 5.34000E+01 4.87010E+01 0.00000E+00
 -1      1385 5.11500E+01 4.74020E+01 0.00000E+00
 -1      1386 5.49000E+01 4.87010E+01 0.00000E+00
 -1      1387 5.64000E+01 4.87010E+01 0.00000E+00
 -1      1388 5.41500E+01 4.74020E+01 0.00000E+00
 -1      1389 5.79000E+01 4.87010E+01 0.00000E+00
 -1      1390 5.94000E+01 4.87010E+01 0.00000E+00
 -1      1391 5.71500E+01 4.74020E+01 0.00000E+00
 -1      1392 6.09000E+01 4.87010E+01 0.00000E+00
 -1      1393 6.24000E+01 4.87010E+01 0.00000E+00
 -1      1394 6.01500E+01 4.74020E+01 0.00000E+00
 -1      1395 6.39000E+01 4.87010E+01 0.00000E+00
 -1      1396 6.54000E+01 4.87010E+01 0.00000E+00
 -1      1397 6.31500E+01 4.74020E+01 0.00000E+00
 -1      1398 6.69000E+01 4.87010E+01 0.00000E+00
 -1      1399 6.84000E+01 4.87010E+01 0.00000E+00
 -1      1400 6.61500E+01 4.74020E+01 0.00000E+00
 -1      1401 6.99000E+01 4.87010E+01 0.00000E+00
 -1      1402 7.14000E+01 4.87010E+01 0.00000E+00
 -1      1403 6.91500E+01 4.74020E+01 0.00000E+00
 -1      1404 7.29000E+01 4.87010E+01 0.00000E+00
 -1      1405 7.44000E+01 4.87010E+01 0.00000E+00
 -1      1406 7.21500E+01 4.74020E+01 0.00000E+00
 -1      1407 7.59000E+01 4.87010E+01 0.00000E+00
 -1      1408 7.74000E+01 4.87010E+01 0.00000E+00
 -1      1409 7.51500E+01 4.74020E+01 0.00000E+00
 -1      1410 7.89000E+01 4.87010E+01 0.00000E+00
 -1      1411 8.04000E+01 4.87010E+01 0.00000E+00
 -1      1412 7.81500E+01 4.74020E+01 0.00000E+00
 -1      1413 8.19000E+01 4.87010E+01 0.00000E+00
 -1      1414 8.34000E+01 4.87010E+01 0.00000E+00
 -1      1415 8.11500E+01 4.74020E+01 0.00000E+00
 -1      1416 8.49000E+01 4.87010E+01 0.00000E+00
 -1      1417 8.64000E+01 4.87010E+01 0.00000E+00
 -1      1418 8.41500E+01 4.74020E+01 0.00000E+00
 -1      1419 8.79000E+01 4.87010E+01 0.00000E+00
 -1      1420 8.94000E+01 4.87010E+01 0.00000E+00
 -1      1421 8.71500E+01 4.74020E+01 0.00000E+00
 -1      1422 9.09000E+01 4.87010E+01 0.00000E+00
 -1      1423 9.24000E+01 4.87010E+01 0.00000E+00
 -1      1424 9.01500E+01 4.74020E+01 0.00000E+00
 -1      1425 9.39000E+01 4.87010E+01 0.00000E+00
 -1      1426 9.54000E+01 4.87010E+01 0.00000E+00
 -1      1427 9.31500E+01 4.74020E+01 0.00000E+00
 -1      1428 9.69000E+01 4.87010E+01 0.00000E+00
 -1      1429 9.84000E+01 4.87010E+01 0.00000E+00
 -1      1430 9.61500E+01 4.74020E+01 0.00000E+00
 -1      1431 9.99000E+01 4.87010E+01 0.00000E+00
 -1      1432 1.01400E+02 4.87010E+01 0.00000E+00
 -1      1433 9.91500E+01 4.74020E+01 0.00000E+00
 -1      1434 1.02900E+02 4.87010E+01 0.00000E+00
 -1      1435 1.04400E+02 4.87010E+01 0.00000E+00
 -1      1436 1.02150E+02 4.74020E+01 0.00000E+00
 -1      1437 1.05900E+02 4.87010E+01 0.00000E+00
 -1      1438 1.07400E+02 4.87010E+01 0.00000E+00
 -1      1439 1.05150E+02 4.74020E+01 0.00000E+00
 -1      1440 1.08900E+02 4.87010E+01 0.00000E+00
 -1      1441 1.10400E+02 4.87010E+01 0.00000E+00
 -1      1442 1.08150E+02 4.74020E+01 0.00000E+00
 -1      1443 1.11900E+02 4.87010E+01 0.00000E+00
 -1      1444 1.13400E+02 4.87010E+01 0.00000E+00
 -1      1445 1.11150E+02 4.74020E+01 0.00000E+00
 -1      1446 1.14900E+02 4.87010E+01 0.00000E+00
 -1      1447 1.16400E+02 4.87010E+01 0.00000E+00
 -1      1448 1.14150E+02 4.74020E+01 0.00000E+00
 -1      1449 1.17900E+02 4.87010E+01 0.00000E+00
 -1      1450 1.19400E+02 4.87010E+01 0.00000E+00
 -1      1451 1.17150E+02 4.74020E+01 0.00000E+00
 -1      1452 1.20900E+02 4.87010E+01 0.00000E+00
 -1      1453 1.22400E+02 4.87010E+01 0.00000E+00
 -1      1454 1.20150E+02 4.74020E+01 0.00000E+00
 -1      1455 1.23900E+02 4.87010E+01 0.00000E+00
 -1      1456 1.25400E+02 4.87010E+01 0.00000E+00
 -1      1457 1.23150E+02 4.74020E+01 0.00000E+00
 -1      1458 1.26900E+02 4.87010E+01 0.00000E+00
 -1      1459 1.28400E+02 4.87010E+01 0.00000E+00
 -1      1460 1.26150E+02 4.74020E+01 0.00000E+00
 -1      1461 1.29900E+02 4.87010E+01 0.00000E+00
 -1      1462 1.31400E+02 4.87010E+01 0.00000E+00
 -1      1463 1.29150E+02 4.74020E+01 0.00000E+00
 -1      1464 1.32900E+02 4.87010E+01 0.00000E+00
 -1      1465 1.34400E+02 4.87010E+01 0.00000E+00
 -1      1466 1.32150E+02 4.74020E+01 0.00000E+00
 -1      1467 1.35900E+02 4.87010E+01 0.00000E+00
 -1      1468 1.37400E+02 4.87010E+01 0.00000E+00
 -1      1469 1.35150E+02 4.74020E+01 0.00000E+00
 -1      1470 1.38900E+02 4.87010E+01 0.00000E+00
 -1      1471 1.40400E+02 4.87010E+01 0.00000E+00
 -1      1472 1.38150E+02 4.74020E+01 0.00000E+00
 -1      1473 1.41900E+02 4.87010E+01 0.00000E+00
 -1      1474 1.43400E+02 4.87010E+01 0.00000E+00
 -1      1475 1.41150E+02 4.74020E+01 0.00000E+00
 -1      1476 1.44900E+02 4.87010E+01 0.00000E+00
 -1      1477 1.46400E+02 4.87010E+01 0.00000E+00
 -1      1478 1.44150E+02 4.74020E+01 0.00000E+00
 -1      1479 1.48575E+02 4.85500E+01 0.00000E+00
 -1      1480 1.47825E+02 4.72510E+01 0.00000E+00
 -1      1481 6.01200E+00 1.09375E+00 0.00000E+00
 -1      1482 4.51200E+00 1.09375E+00 0.00000E+00
 -1      1483 4.37400E+00 2.18750E+00 0.00000E+00
 -1      1484 9.01200E+00 1.09375E+00 0.00000E+00
 -1      1485 7.51200E+00 1.09375E+00 0.00000E+00
 -1      1486 7.37400E+00 2.18750E+00 0.00000E+00
 -1      1487 1.20120E+01 1.09375E+00 0.00000E+00
 -1      1488 1.05120E+01 1.09375E+00 0.00000E+00
 -1      1489 1.03740E+01 2.18750E+00 0.00000E+00
 -1      1490 1.50120E+01 1.09375E+00 0.00000E+00
 -1      1491 1.35120E+01 1.09375E+00 0.00000E+00
 -1      1492 1.33740E+01 2.18750E+00 0.00000E+00
 -1      1493 1.80120E+01 1.09375E+00 0.00000E+00
 -1      1494 1.65120E+01 1.09375E+00 0.00000E+00
 -1      1495 1.63740E+01 2.18750E+00 0.00000E+00
 -1      1496 2.10120E+01 1.09375E+00 0.00000E+00
 -1      1497 1.95120E+01 1.09375E+00 0.00000E+00
 -1      1498 1.93740E+01 2.18750E+00 0.00000E+00
 -1      1499 2.40120E+01 1.09375E+00 0.00000E+00
 -1      1500 2.25120E+01 1.09375E+00 0.00000E+00
 -1      1501 2.23740E+01 2.18750E+00 0.00000E+00
 -1      1502 2.70120E+01 1.09375E+00 0.00000E+00
 -1      1503 2.55120E+01 1.09375E+00 0.00000E+00
 -1      1504 2.53740E+01 2.18750E+00 0.00000E+00
 -1      1505 3.00120E+01 1.09375E+00 0.00000E+00
 -1      1506 2.85120E+01 1.09375E+00 0.00000E+00
 -1      1507 2.83740E+01 2.18750E+00 0.00000E+00
 -1      1508 3.30120E+01 1.09375E+00 0.00000E+00
 -1      1509 3.15120E+01 1.09375E+00 0.00000E+00
 -1      1510 3.13740E+01 2.18750E+00 0.00000E+00
 -1      1511 3.60120E+01 1.09375E+00 0.00000E+00
 -1      1512 3.45120E+01 1.09375E+00 0.00000E+00
 -1      1513 3.43740E+01 2.18750E+00 0.00000E+00
 -1      1514 3.90120E+01 1.09375E+00 0.00000E+00
 -1      1515 3.75120E+01 1.09375E+00 0.00000E+00
 -1      1516 3.73740E+01 2.18750E+00 0.00000E+00
 -1      1517 4.20120E+01 1.09375E+00 0.00000E+00
 -1      1518 4.05120E+01 1.09375E+00 0.00000E+00
 -1      1519 4.03740E+01 2.18750E+00 0.00000E+00
 -1      1520 4.50120E+01 1.09375E+00 0.00000E+00
 -1      1521 4.35120E+01 1.09375E+00 0.00000E+00
 -1      1522 4.33740E+01 2.18750E+00 0.00000E+00
 -1      1523 4.80120E+01 1.09375E+00 0.00000E+00
 -1      1524 4.65120E+01 1.09375E+00 0.00000E+00
 -1      1525 4.63740E+01 2.18750E+00 0.00000E+00
 -1      1526 5.10120E+01 1.09375E+00 0.00000E+00
 -1      1527 4.95120E+01 1.09375E+00 0.00000E+00
 -1      1528 4.93740E+01 2.18750E+00 0.00000E+00
 -1      1529 5.40120E+01 1.09375E+00 0.00000E+00
 -1      1530 5.25120E+01 1.09375E+00 0.00000E+00
 -1      1531 5.23740E+01 2.18750E+00 0.00000E+00
 -1      1532 5.70120E+01 1.09375E+00 0.00000E+00
 -1      1533 5.55120E+01 1.09375E+00 0.00000E+00
 -1      1534 5.53740E+01 2.18750E+00 0.00000E+00
 -1      1535 6.00120E+01 1.09375E+00 0.00000E+00
 -1      1536 5.85120E+01 1.09375E+00 0.00000E+00
 -1      1537 5.83740E+01 2.18750E+00 0.00000E+00
 -1      1538 6.30120E+01 1.09375E+00 0.00000E+00
 -1      1539 6.15120E+01 1.09375E+00 0.00000E+00
 -1      1540 6.13740E+01 2.18750E+00 0.00000E+00
 -1      1541 6.60120E+01 1.09375E+00 0.00000E+00
 -1      1542 6.45120E+01 1.09375E+00 0.00000E+00
 -1      1543 6.43740E+01 2.18750E+00 0.00000E+00
 -1      1544 6.90120E+01 1.09375E+00 0.00000E+00
 -1      1545 6.75120E+01 1.09375E+00 0.00000E+00
 -1      1546 6.73740E+01 2.18750E+00 0.00000E+00
 -1      1547 7.20120E+01 1.09375E+00 0.00000E+00
 -1      1548 7.05120E+01 1.09375E+00 0.00000E+00
 -1      1549 7.03740E+01 2.18750E+00 0.00000E+00
 -1      1550 7.50120E+01 1.09375E+00 0.00000E+00
 -1      1551 7.35120E+01 1.09375E+00 0.00000E+00
 -1      1552 7.33740E+01 2.18750E+00 0.00000E+00
 -1      1553 7.80120E+01 1.09375E+00 0.00000E+00
 -1      1554 7.65120E+01 1.09375E+00 0.00000E+00
 -1      1555 7.63740E+01 2.18750E+00 0.00000E+00
 -1      1556 8.10120E+01 1.09375E+00 0.00000E+00
 -1      1557 7.95120E+01 1.09375E+00 0.00000E+00
 -1      1558 7.93740E+01 2.18750E+00 0.00000E+00
 -1      1559 8.40120E+01 1.09375E+00 0.00000E+00
 -1      1560 8.25120E+01 1.09375E+00 0.00000E+00
 -1      1561 8.23740E+01 2.18750E+00 0.00000E+00
 -1      1562 8.70120E+01 1.09375E+00 0.00000E+00
 -1      1563 8.55120E+01 1.09375E+00 0.00000E+00
 -1      1564 8.53740E+01 2.18750E+00 0.00000E+00
 -1      1565 9.00120E+01 1.09375E+00 0.00000E+00
 -1      1566 8.85120E+01 1.09375E+00 0.00000E+00
 -1      1567 8.83740E+01 2.18750E+00 0.00000E+00
 -1      1568 9.30120E+01 1.09375E+00 0.00000E+00
 -1      1569 9.15120E+01 1.09375E+00 0.00000E+00
 -1      1570 9.13740E+01 2.18750E+00 0.00000E+00
 -1      1571 9.60120E+01 1.09375E+00 0.00000E+00
 -1      1572 9.45120E+01 1.09375E+00 0.00000E+00
 -1      1573 9.43740E+01 2.18750E+00 0.00000E+00
 -1      1574 9.90120E+01 1.09375E+00 0.00000E+00
 -1      1575 9.75120E+01 1.09375E+00 0.00000E+00
 -1      1576 9.73740E+01 2.18750E+00 0.00000E+00
 -1      1577 1.02012E+02 1.09375E+00 0.00000E+00
 -1      1578 1.00512E+02 1.09375E+00 0.00000E+00
 -1      1579 1.00374E+02 2.18750E+00 0.00000E+00
 -1      1580 1.05012E+02 1.09375E+00 0.00000E+00
 -1      1581 1.03512E+02 1.09375E+00 0.00000E+00
 -1      1582 1.03374E+02 2.18750E+00 0.00000E+00
 -1      1583 1.08012E+02 1.09375E+00 0.00000E+00
 -1      1584 1.06512E+02 1.09375E+00 0.00000E+00
 -1      1585 1.06374E+02 2.18750E+00 0.00000E+00
 -1      1586 1.11012E+02 1.09375E+00 0.00000E+00
 -1      1587 1.09512E+02 1.09375E+00 0.00000E+00
 -1      1588 1.09374E+02 2.18750E+00 0.00000E+00
 -1      1589 1.14012E+02 1.09375E+00 0.00000E+00
 -1      1590 1.12512E+02 1.09375E+00 0.00000E+00
 -1      1591 1.12374E+02 2.18750E+00 0.00000E+00
 -1      1592 1.17012E+02 1.09375E+00 0.00000E+00
 -1      1593 1.15512E+02 1.09375E+00 0.00000E+00
 -1      1594 1.15374E+02 2.18750E+00 0.00000E+00
 -1      1595 1.20012E+02 1.09375E+00 0.00000E+00
 -1      1596 1.18512E+02 1.09375E+00 0.00000E+00
 -1      1597 1.18374E+02 2.18750E+00 0.00000E+00
 -1      1598 1.23012E+02 1.09375E+00 0.00000E+00
 -1      1599 1.21512E+02 1.09375E+00 0.00000E+00
 -1      1600 1.21374E+02 2.18750E+00 0.00000E+00
 -1      1601 1.26012E+02 1.09375E+00 0.00000E+00
 -1      1602 1.24512E+02 1.09375E+00 0.00000E+00
 -1      1603 1.24374E+02 2.18750E+00 0.00000E+00
 -1      1604 1.29012E+02 1.09375E+00 0.00000E+00
 -1      1605 1.27512E+02 1.09375E+00 0.00000E+00
 -1      1606 1.27374E+02 2.18750E+00 0.00000E+00
 -1      1607 1.32012E+02 1.09375E+00 0.00000E+00
 -1      1608 1.30512E+02 1.09375E+00 0.00000E+00
 -1      1609 1.30374E+02 2.18750E+00 0.00000E+00
 -1      1610 1.35012E+02 1.09375E+00 0.00000E+00
 -1      1611 1.33512E+02 1.09375E+00 0.00000E+00
 -1      1612 1.33374E+02 2.18750E+00 0.00000E+00
 -1      1613 1.38012E+02 1.09375E+00 0.00000E+00
 -1      1614 1.36512E+02 1.09375E+00 0.00000E+00
 -1      1615 1.36374E+02 2.18750E+00 0.00000E+00
 -1      1616 1.41012E+02 1.09375E+00 0.00000E+00
 -1      1617 1.39512E+02 1.09375E+00 0.00000E+00
 -1      1618 1.39374E+02 2.18750E+00 0.00000E+00
 -1      1619 1.44012E+02 1.09375E+00 0.00000E+00
 -1      1620 1.42512E+02 1.09375E+00 0.00000E+00
 -1      1621 1.42374E+02 2.18750E+00 0.00000E+00
 -1      1622 1.47012E+02 1.09375E+00 0.00000E+00
 -1      1623 1.45512E+02 1.09375E+00 0.00000E+00
 -1      1624 1.45374E+02 2.18750E+00 0.00000E+00
 -1      1625 1.48575E+02 1.47500E+00 0.00000E+00
 -1      1626 1.48701E+02 5.16250E+00 0.00000E+00
 -1      1627 1.48701E+02 3.68750E+00 0.00000E+00
 -1      1628 1.48701E+02 8.11250E+00 0.00000E+00
 -1      1629 1.48701E+02 6.63750E+00 0.00000E+00
 -1      1630 1.47402E+02 5.90000E+00 0.00000E+00
 -1      1631 1.48701E+02 1.10625E+01 0.00000E+00
 -1      1632 1.48701E+02 9.58750E+00 0.00000E+00
 -1      1633 1.47402E+02 8.85000E+00 0.00000E+00
 -1      1634 1.48701E+02 1.40125E+01 0.00000E+00
 -1      1635 1.48701E+02 1.25375E+01 0.00000E+00
 -1      1636 1.47402E+02 1.18000E+01 0.00000E+00
 -1      1637 1.48701E+02 1.69125E+01 0.00000E+00
 -1      1638 1.48701E+02 1.54625E+01 0.00000E+00
 -1      1639 1.47402E+02 1.47250E+01 0.00000E+00
 -1      1640 1.48701E+02 1.98625E+01 0.00000E+00
 -1      1641 1.48701E+02 1.83875E+01 0.00000E+00
 -1      1642 1.47402E+02 1.76500E+01 0.00000E+00
 -1      1643 1.48701E+02 2.28125E+01 0.00000E+00
 -1      1644 1.48701E+02 2.13375E+01 0.00000E+00
 -1      1645 1.47402E+02 2.06000E+01 0.00000E+00
 -1      1646 1.48701E+02 2.57625E+01 0.00000E+00
 -1      1647 1.48701E+02 2.42875E+01 0.00000E+00
 -1      1648 1.47402E+02 2.35500E+01 0.00000E+00
 -1      1649 1.48701E+02 2.87125E+01 0.00000E+00
 -1      1650 1.48701E+02 2.72375E+01 0.00000E+00
 -1      1651 1.47402E+02 2.65000E+01 0.00000E+00
 -1      1652 1.48701E+02 3.16625E+01 0.00000E+00
 -1      1653 1.48701E+02 3.01875E+01 0.00000E+00
 -1      1654 1.47402E+02 2.94500E+01 0.00000E+00
 -1      1655 1.48701E+02 3.45625E+01 0.00000E+00
 -1      1656 1.48701E+02 3.31125E+01 0.00000E+00
 -1      1657 1.47402E+02 3.23750E+01 0.00000E+00
 -1      1658 1.48701E+02 3.75125E+01 0.00000E+00
 -1      1659 1.48701E+02 3.60375E+01 0.00000E+00
 -1      1660 1.47402E+02 3.53000E+01 0.00000E+00
 -1      1661 1.48701E+02 4.04625E+01 0.00000E+00
 -1      1662 1.48701E+02 3.89875E+01 0.00000E+00
 -1      1663 1.47402E+02 3.82500E+01 0.00000E+00
 -1      1664 1.48701E+02 4.34125E+01 0.00000E+00
 -1      1665 1.48701E+02 4.19375E+01 0.00000E+00
 -1      1666 1.47402E+02 4.12000E+01 0.00000E+00
 -1      1667 1.48263E+02 4.60692E+01 0.00000E+00
 -1      1668 1.48263E+02 4.45942E+01 0.00000E+00
 -1      1669 1.46964E+02 4.38568E+01 0.00000E+00
 -1      1670 1.46088E+02 4.62202E+01 0.00000E+00
 -1      1671 6.39551E+01 2.22095E+01 0.00000E+00
 -1      1672 6.40537E+01 2.30343E+01 0.00000E+00
 -1      1673 6.33495E+01 2.06723E+01 0.00000E+00
 -1      1674 6.35891E+01 2.13484E+01 0.00000E+00
 -1      1675 6.26380E+01 1.92599E+01 0.00000E+00
 -1      1676 6.30203E+01 1.98859E+01 0.00000E+00
 -1      1677 6.15708E+01 1.80083E+01 0.00000E+00
 -1      1678 6.20985E+01 1.85607E+01 0.00000E+00
 -1      1679 6.02155E+01 1.70348E+01 0.00000E+00
 -1      1680 6.08552E+01 1.74620E+01 0.00000E+00
 -1      1681 5.87779E+01 1.63222E+01 0.00000E+00
 -1      1682 5.94566E+01 1.65888E+01 0.00000E+00
 -1      1683 5.70801E+01 1.59228E+01 0.00000E+00
 -1      1684 5.78972E+01 1.60476E+01 0.00000E+00
 -1      1685 5.53961E+01 1.60220E+01 0.00000E+00
 -1      1686 5.61469E+01 1.59659E+01 0.00000E+00
 -1      1687 5.37802E+01 1.63640E+01 0.00000E+00
 -1      1688 5.45130E+01 1.61439E+01 0.00000E+00
 -1      1689 5.21202E+01 1.70532E+01 0.00000E+00
 -1      1690 5.28497E+01 1.66337E+01 0.00000E+00
 -1      1691 5.08067E+01 1.81787E+01 0.00000E+00
 -1      1692 5.13632E+01 1.76588E+01 0.00000E+00
 -1      1693 4.97907E+01 1.95659E+01 0.00000E+00
 -1      1694 5.02352E+01 1.89122E+01 0.00000E+00
 -1      1695 4.91801E+01 2.10390E+01 0.00000E+00
 -1      1696 4.94444E+01 2.03826E+01 0.00000E+00
 -1      1697 4.86873E+01 2.26857E+01 0.00000E+00
 -1      1698 4.88212E+01 2.18779E+01 0.00000E+00
 -1      1699 4.87993E+01 2.43326E+01 0.00000E+00
 -1      1700 4.87579E+01 2.36068E+01 0.00000E+00
 -1      1701 4.91011E+01 2.59238E+01 0.00000E+00
 -1      1702 4.89006E+01 2.51968E+01 0.00000E+00
 -1      1703 4.98163E+01 2.73974E+01 0.00000E+00
 -1      1704 4.94652E+01 2.67309E+01 0.00000E+00
 -1      1705 5.07511E+01 2.88356E+01 0.00000E+00
 -1      1706 5.02316E+01 2.82276E+01 0.00000E+00
 -1      1707 5.20880E+01 2.98614E+01 0.00000E+00
 -1      1708 5.14825E+01 2.94095E+01 0.00000E+00
 -1      1709 5.36801E+01 3.06256E+01 0.00000E+00
 -1      1710 5.29166E+01 3.02905E+01 0.00000E+00
 -1      1711 5.52863E+01 3.10415E+01 0.00000E+00
 -1      1712 5.45569E+01 3.09028E+01 0.00000E+00
 -1      1713 5.69127E+01 3.11332E+01 0.00000E+00
 -1      1714 5.61584E+01 3.11532E+01 0.00000E+00
 -1      1715 5.84587E+01 3.08127E+01 0.00000E+00
 -1      1716 5.77629E+01 3.09807E+01 0.00000E+00
 -1      1717 5.98959E+01 3.02274E+01 0.00000E+00
 -1      1718 5.92477E+01 3.05341E+01 0.00000E+00
 -1      1719 6.11837E+01 2.93619E+01 0.00000E+00
 -1      1720 6.06120E+01 2.97938E+01 0.00000E+00
 -1      1721 6.22701E+01 2.82495E+01 0.00000E+00
 -1      1722 6.17970E+01 2.87906E+01 0.00000E+00
 -1      1723 6.31482E+01 2.69482E+01 0.00000E+00
 -1      1724 6.27929E+01 2.75809E+01 0.00000E+00
 -1      1725 6.36584E+01 2.54876E+01 0.00000E+00
 -1      1726 6.34452E+01 2.61609E+01 0.00000E+00
 -1      1727 6.39008E+01 2.39581E+01 0.00000E+00
 -1      1728 6.38270E+01 2.46728E+01 0.00000E+00
 -1      1729 6.15876E+01 1.72906E+01 0.00000E+00
 -1      1730 6.28428E+01 1.85360E+01 0.00000E+00
 -1      1731 1.48437E+02 2.56875E+00 0.00000E+00
 -1      1732 1.47138E+02 3.30625E+00 0.00000E+00
 -1      1733 6.44067E+01 2.16690E+01 0.00000E+00
 -1      1734 6.37115E+01 2.00215E+01 0.00000E+00
 -1      1735 6.46198E+01 2.34539E+01 0.00000E+00
 -1      1736 6.01131E+01 1.62983E+01 0.00000E+00
 -1      1737 5.84736E+01 1.55777E+01 0.00000E+00
 -1      1738 5.66596E+01 1.53463E+01 0.00000E+00
 -1      1739 5.48432E+01 1.55113E+01 0.00000E+00
 -1      1740 5.30297E+01 1.59029E+01 0.00000E+00
 -1      1741 5.13423E+01 1.67783E+01 0.00000E+00
 -1      1742 5.00139E+01 1.81175E+01 0.00000E+00
 -1      1743 4.90962E+01 1.96677E+01 0.00000E+00
 -1      1744 4.83911E+01 2.13232E+01 0.00000E+00
 -1      1745 4.81028E+01 2.30832E+01 0.00000E+00
 -1      1746 4.82747E+01 2.48684E+01 0.00000E+00
 -1      1747 4.87402E+01 2.65396E+01 0.00000E+00
 -1      1748 4.95197E+01 2.81769E+01 0.00000E+00
 -1      1749 5.06663E+01 2.95810E+01 0.00000E+00
 -1      1750 5.22262E+01 3.05840E+01 0.00000E+00
 -1      1751 5.39316E+01 3.12904E+01 0.00000E+00
 -1      1752 5.56805E+01 3.16794E+01 0.00000E+00
 -1      1753 5.74029E+01 3.16385E+01 0.00000E+00
 -1      1754 5.90420E+01 3.12074E+01 0.00000E+00
 -1      1755 6.05472E+01 3.04951E+01 0.00000E+00
 -1      1756 6.18766E+01 2.94903E+01 0.00000E+00
 -1      1757 6.30128E+01 2.82504E+01 0.00000E+00
 -1      1758 6.38327E+01 2.67945E+01 0.00000E+00
 -1      1759 6.42983E+01 2.51925E+01 0.00000E+00
 -1      1760 2.87400E+00 4.77875E+01 0.00000E+00
 -1      1761 3.89700E+00 4.04125E+01 0.00000E+00
 -1      1762 3.89700E+00 4.18875E+01 0.00000E+00
 -1      1763 3.89700E+00 4.33625E+01 0.00000E+00
 -1      1764 3.89700E+00 4.48375E+01 0.00000E+00
 -1      1765 5.19600E+00 4.26250E+01 0.00000E+00
 -1      1766 3.89700E+00 3.45500E+01 0.00000E+00
 -1      1767 3.89700E+00 3.60000E+01 0.00000E+00
 -1      1768 3.89700E+00 3.16000E+01 0.00000E+00
 -1      1769 3.89700E+00 3.30750E+01 0.00000E+00
 -1      1770 5.19600E+00 3.38000E+01 0.00000E+00
 -1      1771 3.89700E+00 2.86500E+01 0.00000E+00
 -1      1772 3.89700E+00 3.01250E+01 0.00000E+00
 -1      1773 5.19600E+00 3.08500E+01 0.00000E+00
 -1      1774 3.89700E+00 2.57000E+01 0.00000E+00
 -1      1775 3.89700E+00 2.71750E+01 0.00000E+00
 -1      1776 5.19600E+00 2.79000E+01 0.00000E+00
 -1      1777 3.89700E+00 2.27500E+01 0.00000E+00
 -1      1778 3.89700E+00 2.42250E+01 0.00000E+00
 -1      1779 5.19600E+00 2.49500E+01 0.00000E+00
 -1      1780 3.89700E+00 1.98000E+01 0.00000E+00
 -1      1781 3.89700E+00 2.12750E+01 0.00000E+00
 -1      1782 5.19600E+00 2.20000E+01 0.00000E+00
 -1      1783 3.89700E+00 1.69000E+01 0.00000E+00
 -1      1784 3.89700E+00 1.83500E+01 0.00000E+00
 -1      1785 5.19600E+00 1.90750E+01 0.00000E+00
 -1      1786 3.89700E+00 1.39500E+01 0.00000E+00
 -1      1787 3.89700E+00 1.54250E+01 0.00000E+00
 -1      1788 5.19600E+00 1.61500E+01 0.00000E+00
 -1      1789 3.89700E+00 1.10000E+01 0.00000E+00
 -1      1790 3.89700E+00 1.24750E+01 0.00000E+00
 -1      1791 5.19600E+00 1.32000E+01 0.00000E+00
 -1      1792 3.89700E+00 8.05000E+00 0.00000E+00
 -1      1793 3.89700E+00 9.52500E+00 0.00000E+00
 -1      1794 5.19600E+00 1.02500E+01 0.00000E+00
 -1      1795 3.89700E+00 5.10000E+00 0.00000E+00
 -1      1796 3.89700E+00 6.57500E+00 0.00000E+00
 -1      1797 5.19600E+00 7.30000E+00 0.00000E+00
 -1      1798 4.20450E+00 3.09687E+00 0.00000E+00
 -1      1799 4.06650E+00 4.19063E+00 0.00000E+00
 -1      1800 5.36550E+00 4.91563E+00 0.00000E+00
 -1      1801 5.70450E+00 3.09687E+00 0.00000E+00
 -1      1802 3.62400E+00 4.64885E+01 0.00000E+00
 -1      1803 8.70450E+00 3.09687E+00 0.00000E+00
 -1      1804 7.20450E+00 3.09687E+00 0.00000E+00
 -1      1805 7.03500E+00 4.00625E+00 0.00000E+00
 -1      1806 4.92300E+00 4.57510E+01 0.00000E+00
 -1      1807 8.40000E+00 4.61030E+01 0.00000E+00
 -1      1808 9.90000E+00 4.61030E+01 0.00000E+00
 -1      1809 1.14000E+01 4.61030E+01 0.00000E+00
 -1      1810 1.29000E+01 4.61030E+01 0.00000E+00
 -1      1811 1.06500E+01 4.48040E+01 0.00000E+00
 -1      1812 1.44000E+01 4.61030E+01 0.00000E+00
 -1      1813 1.59000E+01 4.61030E+01 0.00000E+00
 -1      1814 1.36500E+01 4.48040E+01 0.00000E+00
 -1      1815 1.74000E+01 4.61030E+01 0.00000E+00
 -1      1816 1.89000E+01 4.61030E+01 0.00000E+00
 -1      1817 1.66500E+01 4.48040E+01 0.00000E+00
 -1      1818 2.04000E+01 4.61030E+01 0.00000E+00
 -1      1819 2.19000E+01 4.61030E+01 0.00000E+00
 -1      1820 1.96500E+01 4.48040E+01 0.00000E+00
 -1      1821 2.34000E+01 4.61030E+01 0.00000E+00
 -1      1822 2.49000E+01 4.61030E+01 0.00000E+00
 -1      1823 2.26500E+01 4.48040E+01 0.00000E+00
 -1      1824 2.64000E+01 4.61030E+01 0.00000E+00
 -1      1825 2.79000E+01 4.61030E+01 0.00000E+00
 -1      1826 2.56500E+01 4.48040E+01 0.00000E+00
 -1      1827 2.94000E+01 4.61030E+01 0.00000E+00
 -1      1828 3.09000E+01 4.61030E+01 0.00000E+00
 -1      1829 2.86500E+01 4.48040E+01 0.00000E+00
 -1      1830 3.24000E+01 4.61030E+01 0.00000E+00
 -1      1831 3.39000E+01 4.61030E+01 0.00000E+00
 -1      1832 3.16500E+01 4.48040E+01 0.00000E+00
 -1      1833 3.54000E+01 4.61030E+01 0.00000E+00
 -1      1834 3.69000E+01 4.61030E+01 0.00000E+00
 -1      1835 3.46500E+01 4.48040E+01 0.00000E+00
 -1      1836 3.84000E+01 4.61030E+01 0.00000E+00
 -1      1837 3.99000E+01 4.61030E+01 0.00000E+00
 -1      1838 3.76500E+01 4.48040E+01 0.00000E+00
 -1      1839 4.14000E+01 4.61030E+01 0.00000E+00
 -1      1840 4.29000E+01 4.61030E+01 0.00000E+00
 -1      1841 4.06500E+01 4.48040E+01 0.00000E+00
 -1      1842 4.44000E+01 4.61030E+01 0.00000E+00
 -1      1843 4.59000E+01 4.61030E+01 0.00000E+00
 -1      1844 4.36500E+01 4.48040E+01 0.00000E+00
 -1      1845 4.74000E+01 4.61030E+01 0.00000E+00
 -1      1846 4.89000E+01 4.61030E+01 0.00000E+00
 -1      1847 4.66500E+01 4.48040E+01 0.00000E+00
 -1      1848 5.04000E+01 4.61030E+01 0.00000E+00
 -1      1849 5.19000E+01 4.61030E+01 0.00000E+00
 -1      1850 4.96500E+01 4.48040E+01 0.00000E+00
 -1      1851 5.34000E+01 4.61030E+01 0.00000E+00
 -1      1852 5.49000E+01 4.61030E+01 0.00000E+00
 -1      1853 5.26500E+01 4.48040E+01 0.00000E+00
 -1      1854 5.64000E+01 4.61030E+01 0.00000E+00
 -1      1855 5.79000E+01 4.61030E+01 0.00000E+00
 -1      1856 5.56500E+01 4.48040E+01 0.00000E+00
 -1      1857 5.94000E+01 4.61030E+01 0.00000E+00
 -1      1858 6.09000E+01 4.61030E+01 0.00000E+00
 -1      1859 5.86500E+01 4.48040E+01 0.00000E+00
 -1      1860 6.24000E+01 4.61030E+01 0.00000E+00
 -1      1861 6.39000E+01 4.61030E+01 0.00000E+00
 -1      1862 6.16500E+01 4.48040E+01 0.00000E+00
 -1      1863 6.54000E+01 4.61030E+01 0.00000E+00
 -1      1864 6.69000E+01 4.61030E+01 0.00000E+00
 -1      1865 6.46500E+01 4.48040E+01 0.00000E+00
 -1      1866 6.84000E+01 4.61030E+01 0.00000E+00
 -1      1867 6.99000E+01 4.61030E+01 0.00000E+00
 -1      1868 6.76500E+01 4.48040E+01 0.00000E+00
 -1      1869 7.14000E+01 4.61030E+01 0.00000E+00
 -1      1870 7.29000E+01 4.61030E+01 0.00000E+00
 -1      1871 7.06500E+01 4.48040E+01 0.00000E+00
 -1      1872 7.44000E+01 4.61030E+01 0.00000E+00
 -1      1873 7.59000E+01 4.61030E+01 0.00000E+00
 -1      1874 7.36500E+01 4.48040E+01 0.00000E+00
 -1      1875 7.74000E+01 4.61030E+01 0.00000E+00
 -1      1876 7.89000E+01 4.61030E+01 0.00000E+00
 -1      1877 7.66500E+01 4.48040E+01 0.00000E+00
 -1      1878 8.04000E+01 4.61030E+01 0.00000E+00
 -1      1879 8.19000E+01 4.61030E+01 0.00000E+00
 -1      1880 7.96500E+01 4.48040E+01 0.00000E+00
 -1      1881 8.34000E+01 4.61030E+01 0.00000E+00
 -1      1882 8.49000E+01 4.61030E+01 0.00000E+00
 -1      1883 8.26500E+01 4.48040E+01 0.00000E+00
 -1      1884 8.64000E+01 4.61030E+01 0.00000E+00
 -1      1885 8.79000E+01 4.61030E+01 0.00000E+00
 -1      1886 8.56500E+01 4.48040E+01 0.00000E+00
 -1      1887 8.94000E+01 4.61030E+01 0.00000E+00
 -1      1888 9.09000E+01 4.61030E+01 0.00000E+00
 -1      1889 8.86500E+01 4.48040E+01 0.00000E+00
 -1      1890 9.24000E+01 4.61030E+01 0.00000E+00
 -1      1891 9.39000E+01 4.61030E+01 0.00000E+00
 -1      1892 9.16500E+01 4.48040E+01 0.00000E+00
 -1      1893 9.54000E+01 4.61030E+01 0.00000E+00
 -1      1894 9.69000E+01 4.61030E+01 0.00000E+00
 -1      1895 9.46500E+01 4.48040E+01 0.00000E+00
 -1      1896 9.84000E+01 4.61030E+01 0.00000E+00
 -1      1897 9.99000E+01 4.61030E+01 0.00000E+00
 -1      1898 9.76500E+01 4.48040E+01 0.00000E+00
 -1      1899 1.01400E+02 4.61030E+01 0.00000E+00
 -1      1900 1.02900E+02 4.61030E+01 0.00000E+00
 -1      1901 1.00650E+02 4.48040E+01 0.00000E+00
 -1      1902 1.04400E+02 4.61030E+01 0.00000E+00
 -1      1903 1.05900E+02 4.61030E+01 0.00000E+00
 -1      1904 1.03650E+02 4.48040E+01 0.00000E+00
 -1      1905 1.07400E+02 4.61030E+01 0.00000E+00
 -1      1906 1.08900E+02 4.61030E+01 0.00000E+00
 -1      1907 1.06650E+02 4.48040E+01 0.00000E+00
 -1      1908 1.10400E+02 4.61030E+01 0.00000E+00
 -1      1909 1.11900E+02 4.61030E+01 0.00000E+00
 -1      1910 1.09650E+02 4.48040E+01 0.00000E+00
 -1      1911 1.13400E+02 4.61030E+01 0.00000E+00
 -1      1912 1.14900E+02 4.61030E+01 0.00000E+00
 -1      1913 1.12650E+02 4.48040E+01 0.00000E+00
 -1      1914 1.16400E+02 4.61030E+01 0.00000E+00
 -1      1915 1.17900E+02 4.61030E+01 0.00000E+00
 -1      1916 1.15650E+02 4.48040E+01 0.00000E+00
 -1      1917 1.19400E+02 4.61030E+01 0.00000E+00
 -1      1918 1.20900E+02 4.61030E+01 0.00000E+00
 -1      1919 1.18650E+02 4.48040E+01 0.00000E+00
 -1      1920 1.22400E+02 4.61030E+01 0.00000E+00
 -1      1921 1.23900E+02 4.61030E+01 0.00000E+00
 -1      1922 1.21650E+02 4.48040E+01 0.00000E+00
 -1      1923 1.25400E+02 4.61030E+01 0.00000E+00
 -1      1924 1.26900E+02 4.61030E+01 0.00000E+00
 -1      1925 1.24650E+02 4.48040E+01 0.00000E+00
 -1      1926 1.28400E+02 4.61030E+01 0.00000E+00
 -1      1927 1.29900E+02 4.61030E+01 0.00000E+00
 -1      1928 1.27650E+02 4.48040E+01 0.00000E+00
 -1      1929 1.31400E+02 4.61030E+01 0.00000E+00
 -1      1930 1.32900E+02 4.61030E+01 0.00000E+00
 -1      1931 1.30650E+02 4.48040E+01 0.00000E+00
 -1      1932 1.34400E+02 4.61030E+01 0.00000E+00
 -1      1933 1.35900E+02 4.61030E+01 0.00000E+00
 -1      1934 1.33650E+02 4.48040E+01 0.00000E+00
 -1      1935 1.37400E+02 4.61030E+01 0.00000E+00
 -1      1936 1.38900E+02 4.61030E+01 0.00000E+00
 -1      1937 1.36650E+02 4.48040E+01 0.00000E+00
 -1      1938 1.40400E+02 4.61030E+01 0.00000E+00
 -1      1939 1.41900E+02 4.61030E+01 0.00000E+00
 -1      1940 1.39650E+02 4.48040E+01 0.00000E+00
 -1      1941 1.43244E+02 4.61616E+01 0.00000E+00
 -1      1942 1.44744E+02 4.61616E+01 0.00000E+00
 -1      1943 1.45182E+02 4.49799E+01 0.00000E+00
 -1      1944 1.42494E+02 4.48626E+01 0.00000E+00
 -1      1945 1.17045E+01 3.09687E+00 0.00000E+00
 -1      1946 1.02045E+01 3.09687E+00 0.00000E+00
 -1      1947 1.00350E+01 4.00625E+00 0.00000E+00
 -1      1948 1.47045E+01 3.09687E+00 0.00000E+00
 -1      1949 1.32045E+01 3.09687E+00 0.00000E+00
 -1      1950 1.30350E+01 4.00625E+00 0.00000E+00
 -1      1951 1.77045E+01 3.09687E+00 0.00000E+00
 -1      1952 1.62045E+01 3.09687E+00 0.00000E+00
 -1      1953 1.60350E+01 4.00625E+00 0.00000E+00
 -1      1954 2.07045E+01 3.09687E+00 0.00000E+00
 -1      1955 1.92045E+01 3.09687E+00 0.00000E+00
 -1      1956 1.90350E+01 4.00625E+00 0.00000E+00
 -1      1957 2.37045E+01 3.09687E+00 0.00000E+00
 -1      1958 2.22045E+01 3.09687E+00 0.00000E+00
 -1      1959 2.20350E+01 4.00625E+00 0.00000E+00
 -1      1960 2.67045E+01 3.09687E+00 0.00000E+00
 -1      1961 2.52045E+01 3.09687E+00 0.00000E+00
 -1      1962 2.50350E+01 4.00625E+00 0.00000E+00
 -1      1963 2.97045E+01 3.09687E+00 0.00000E+00
 -1      1964 2.82045E+01 3.09687E+00 0.00000E+00
 -1      1965 2.80350E+01 4.00625E+00 0.00000E+00
 -1      1966 3.27045E+01 3.09687E+00 0.00000E+00
 -1      1967 3.12045E+01 3.09687E+00 0.00000E+00
 -1      1968 3.10350E+01 4.00625E+00 0.00000E+00
 -1      1969 3.57045E+01 3.09687E+00 0.00000E+00
 -1      1970 3.42045E+01 3.09687E+00 0.00000E+00
 -1      1971 3.40350E+01 4.00625E+00 0.00000E+00
 -1      1972 3.87045E+01 3.09687E+00 0.00000E+00
 -1      1973 3.72045E+01 3.09687E+00 0.00000E+00
 -1      1974 3.70350E+01 4.00625E+00 0.00000E+00
 -1      1975 4.17045E+01 3.09687E+00 0.00000E+00
 -1      1976 4.02045E+01 3.09687E+00 0.00000E+00
 -1      1977 4.00350E+01 4.00625E+00 0.00000E+00
 -1      1978 4.47045E+01 3.09687E+00 0.00000E+00
 -1      1979 4.32045E+01 3.09687E+00 0.00000E+00
 -1      1980 4.30350E+01 4.00625E+00 0.00000E+00
 -1      1981 4.77045E+01 3.09687E+00 0.00000E+00
 -1      1982 4.62045E+01 3.09687E+00 0.00000E+00
 -1      1983 4.60350E+01 4.00625E+00 0.00000E+00
 -1      1984 5.07045E+01 3.09687E+00 0.00000E+00
 -1      1985 4.92045E+01 3.09687E+00 0.00000E+00
 -1      1986 4.90350E+01 4.00625E+00 0.00000E+00
 -1      1987 5.37045E+01 3.09687E+00 0.00000E+00
 -1      1988 5.22045E+01 3.09687E+00 0.00000E+00
 -1      1989 5.20350E+01 4.00625E+00 0.00000E+00
 -1      1990 5.67045E+01 3.09687E+00 0.00000E+00
 -1      1991 5.52045E+01 3.09687E+00 0.00000E+00
 -1      1992 5.50350E+01 4.00625E+00 0.00000E+00
 -1      1993 5.97045E+01 3.09687E+00 0.00000E+00
 -1      1994 5.82045E+01 3.09687E+00 0.00000E+00
 -1      1995 5.80350E+01 4.00625E+00 0.00000E+00
 -1      1996 6.27045E+01 3.09687E+00 0.00000E+00
 -1      1997 6.12045E+01 3.09687E+00 0.00000E+00
 -1      1998 6.10350E+01 4.00625E+00 0.00000E+00
 -1      1999 6.57045E+01 3.09687E+00 0.00000E+00
 -1      2000 6.42045E+01 3.09687E+00 0.00000E+00
 -1      2001 6.40350E+01 4.00625E+00 0.00000E+00
 -1      2002 6.87045E+01 3.09687E+00 0.00000E+00
 -1      2003 6.72045E+01 3.09687E+00 0.00000E+00
 -1      2004 6.70350E+01 4.00625E+00 0.00000E+00
 -1      2005 7.17045E+01 3.09687E+00 0.00000E+00
 -1      2006 7.02045E+01 3.09687E+00 0.00000E+00
 -1      2007 7.00350E+01 4.00625E+00 0.00000E+00
 -1      2008 7.47045E+01 3.09687E+00 0.00000E+00
 -1      2009 7.32045E+01 3.09687E+00 0.00000E+00
 -1      2010 7.30350E+01 4.00625E+00 0.00000E+00
 -1      2011 7.77045E+01 3.09687E+00 0.00000E+00
 -1      2012 7.62045E+01 3.09687E+00 0.00000E+00
 -1      2013 7.60350E+01 4.00625E+00 0.00000E+00
 -1      2014 8.07045E+01 3.09687E+00 0.00000E+00
 -1      2015 7.92045E+01 3.09687E+00 0.00000E+00
 -1      2016 7.90350E+01 4.00625E+00 0.00000E+00
 -1      2017 8.37045E+01 3.09687E+00 0.00000E+00
 -1      2018 8.22045E+01 3.09687E+00 0.00000E+00
 -1      2019 8.20350E+01 4.00625E+00 0.00000E+00
 -1      2020 8.67045E+01 3.09687E+00 0.00000E+00
 -1      2021 8.52045E+01 3.09687E+00 0.00000E+00
 -1      2022 8.50350E+01 4.00625E+00 0.00000E+00
 -1      2023 8.97045E+01 3.09687E+00 0.00000E+00
 -1      2024 8.82045E+01 3.09687E+00 0.00000E+00
 -1      2025 8.80350E+01 4.00625E+00 0.00000E+00
 -1      2026 9.27045E+01 3.09687E+00 0.00000E+00
 -1      2027 9.12045E+01 3.09687E+00 0.00000E+00
 -1      2028 9.10350E+01 4.00625E+00 0.00000E+00
 -1      2029 9.57045E+01 3.09687E+00 0.00000E+00
 -1      2030 9.42045E+01 3.09687E+00 0.00000E+00
 -1      2031 9.40350E+01 4.00625E+00 0.00000E+00
 -1      2032 9.87045E+01 3.09687E+00 0.00000E+00
 -1      2033 9.72045E+01 3.09687E+00 0.00000E+00
 -1      2034 9.70350E+01 4.00625E+00 0.00000E+00
 -1      2035 1.01704E+02 3.09687E+00 0.00000E+00
 -1      2036 1.00204E+02 3.09687E+00 0.00000E+00
 -1      2037 1.00035E+02 4.00625E+00 0.00000E+00
 -1      2038 1.04704E+02 3.09687E+00 0.00000E+00
 -1      2039 1.03204E+02 3.09687E+00 0.00000E+00
 -1      2040 1.03035E+02 4.00625E+00 0.00000E+00
 -1      2041 1.07704E+02 3.09687E+00 0.00000E+00
 -1      2042 1.06204E+02 3.09687E+00 0.00000E+00
 -1      2043 1.06035E+02 4.00625E+00 0.00000E+00
 -1      2044 1.10704E+02 3.09687E+00 0.00000E+00
 -1      2045 1.09204E+02 3.09687E+00 0.00000E+00
 -1      2046 1.09035E+02 4.00625E+00 0.00000E+00
 -1      2047 1.13704E+02 3.09687E+00 0.00000E+00
 -1      2048 1.12204E+02 3.09687E+00 0.00000E+00
 -1      2049 1.12035E+02 4.00625E+00 0.00000E+00
 -1      2050 1.16704E+02 3.09687E+00 0.00000E+00
 -1      2051 1.15204E+02 3.09687E+00 0.00000E+00
 -1      2052 1.15035E+02 4.00625E+00 0.00000E+00
 -1      2053 1.19704E+02 3.09687E+00 0.00000E+00
 -1      2054 1.18204E+02 3.09687E+00 0.00000E+00
 -1      2055 1.18035E+02 4.00625E+00 0.00000E+00
 -1      2056 1.22704E+02 3.09687E+00 0.00000E+00
 -1      2057 1.21204E+02 3.09687E+00 0.00000E+00
 -1      2058 1.21035E+02 4.00625E+00 0.00000E+00
 -1      2059 1.25704E+02 3.09687E+00 0.00000E+00
 -1      2060 1.24204E+02 3.09687E+00 0.00000E+00
 -1      2061 1.24035E+02 4.00625E+00 0.00000E+00
 -1      2062 1.28704E+02 3.09687E+00 0.00000E+00
 -1      2063 1.27204E+02 3.09687E+00 0.00000E+00
 -1      2064 1.27035E+02 4.00625E+00 0.00000E+00
 -1      2065 1.31704E+02 3.09687E+00 0.00000E+00
 -1      2066 1.30204E+02 3.09687E+00 0.00000E+00
 -1      2067 1.30035E+02 4.00625E+00 0.00000E+00
 -1      2068 1.34704E+02 3.09687E+00 0.00000E+00
 -1      2069 1.33204E+02 3.09687E+00 0.00000E+00
 -1      2070 1.33035E+02 4.00625E+00 0.00000E+00
 -1      2071 1.37704E+02 3.09687E+00 0.00000E+00
 -1      2072 1.36204E+02 3.09687E+00 0.00000E+00
 -1      2073 1.36035E+02 4.00625E+00 0.00000E+00
 -1      2074 1.40704E+02 3.09687E+00 0.00000E+00
 -1      2075 1.39204E+02 3.09687E+00 0.00000E+00
 -1      2076 1.39035E+02 4.00625E+00 0.00000E+00
 -1      2077 1.43704E+02 3.09687E+00 0.00000E+00
 -1      2078 1.42204E+02 3.09687E+00 0.00000E+00
 -1      2079 1.42035E+02 4.00625E+00 0.00000E+00
 -1      2080 1.46171E+02 3.20156E+00 0.00000E+00
 -1      2081 1.44671E+02 3.20156E+00 0.00000E+00
 -1      2082 1.44502E+02 4.11094E+00 0.00000E+00
 -1      2083 1.46435E+02 4.32031E+00 0.00000E+00
 -1      2084 1.46103E+02 1.25375E+01 0.00000E+00
 -1      2085 1.46103E+02 1.10625E+01 0.00000E+00
 -1      2086 1.46103E+02 9.58750E+00 0.00000E+00
 -1      2087 1.46103E+02 8.11250E+00 0.00000E+00
 -1      2088 1.44804E+02 1.03250E+01 0.00000E+00
 -1      2089 1.46269E+02 6.95391E+00 0.00000E+00
 -1      2090 1.46269E+02 5.47891E+00 0.00000E+00
 -1      2091 1.45302E+02 5.37422E+00 0.00000E+00
 -1      2092 1.44970E+02 7.69141E+00 0.00000E+00
 -1      2093 1.46103E+02 1.54375E+01 0.00000E+00
 -1      2094 1.46103E+02 1.39875E+01 0.00000E+00
 -1      2095 1.44804E+02 1.32500E+01 0.00000E+00
 -1      2096 1.46103E+02 1.83875E+01 0.00000E+00
 -1      2097 1.46103E+02 1.69125E+01 0.00000E+00
 -1      2098 1.44804E+02 1.61750E+01 0.00000E+00
 -1      2099 1.46103E+02 2.13375E+01 0.00000E+00
 -1      2100 1.46103E+02 1.98625E+01 0.00000E+00
 -1      2101 1.44804E+02 1.91250E+01 0.00000E+00
 -1      2102 1.46103E+02 2.42875E+01 0.00000E+00
 -1      2103 1.46103E+02 2.28125E+01 0.00000E+00
 -1      2104 1.44804E+02 2.20750E+01 0.00000E+00
 -1      2105 1.46103E+02 2.72375E+01 0.00000E+00
 -1      2106 1.46103E+02 2.57625E+01 0.00000E+00
 -1      2107 1.44804E+02 2.50250E+01 0.00000E+00
 -1      2108 1.46103E+02 3.01875E+01 0.00000E+00
 -1      2109 1.46103E+02 2.87125E+01 0.00000E+00
 -1      2110 1.44804E+02 2.79750E+01 0.00000E+00
 -1      2111 1.46103E+02 3.30875E+01 0.00000E+00
 -1      2112 1.46103E+02 3.16375E+01 0.00000E+00
 -1      2113 1.44804E+02 3.09000E+01 0.00000E+00
 -1      2114 1.46103E+02 3.60375E+01 0.00000E+00
 -1      2115 1.46103E+02 3.45625E+01 0.00000E+00
 -1      2116 1.44804E+02 3.38250E+01 0.00000E+00
 -1      2117 1.46103E+02 3.89875E+01 0.00000E+00
 -1      2118 1.46103E+02 3.75125E+01 0.00000E+00
 -1      2119 1.44804E+02 3.67750E+01 0.00000E+00
 -1      2120 1.46103E+02 4.19375E+01 0.00000E+00
 -1      2121 1.46103E+02 4.04625E+01 0.00000E+00
 -1      2122 1.44804E+02 3.97250E+01 0.00000E+00
 -1      2123 6.41834E+01 1.93619E+01 0.00000E+00
 -1      2124 6.45126E+01 2.01483E+01 0.00000E+00
 -1      2125 6.53770E+01 2.31046E+01 0.00000E+00
 -1      2126 6.52241E+01 2.40284E+01 0.00000E+00
 -1      2127 6.48785E+01 2.10094E+01 0.00000E+00
 -1      2128 6.52445E+01 2.18705E+01 0.00000E+00
 -1      2129 6.53504E+01 2.03497E+01 0.00000E+00
 -1      2130 6.31193E+01 1.77649E+01 0.00000E+00
 -1      2131 6.36588E+01 1.84641E+01 0.00000E+00
 -1      2132 6.16485E+01 1.64690E+01 0.00000E+00
 -1      2133 6.23641E+01 1.70152E+01 0.00000E+00
 -1      2134 3.89700E+00 3.74688E+01 0.00000E+00
 -1      2135 3.89700E+00 3.89437E+01 0.00000E+00
 -1      2136 5.19600E+00 3.96813E+01 0.00000E+00
 -1      2137 5.19600E+00 3.67438E+01 0.00000E+00
 -1      2138 5.82386E+01 1.47817E+01 0.00000E+00
 -1      2139 5.91193E+01 1.50563E+01 0.00000E+00
 -1      2140 5.61553E+01 1.45531E+01 0.00000E+00
 -1      2141 5.70886E+01 1.45099E+01 0.00000E+00
 -1      2142 5.43891E+01 1.47968E+01 0.00000E+00
 -1      2143 5.52722E+01 1.46749E+01 0.00000E+00
 -1      2144 5.57012E+01 1.38386E+01 0.00000E+00
 -1      2145 5.23490E+01 1.52946E+01 0.00000E+00
 -1      2146 5.32795E+01 1.50249E+01 0.00000E+00
 -1      2147 5.04542E+01 1.64442E+01 0.00000E+00
 -1      2148 5.12112E+01 1.58386E+01 0.00000E+00
 -1      2149 4.91838E+01 1.80602E+01 0.00000E+00
 -1      2150 4.97553E+01 1.73267E+01 0.00000E+00
 -1      2151 4.81721E+01 1.97577E+01 0.00000E+00
 -1      2152 4.85183E+01 1.89410E+01 0.00000E+00
 -1      2153 4.74544E+01 2.14354E+01 0.00000E+00
 -1      2154 4.78133E+01 2.05965E+01 0.00000E+00
 -1      2155 4.72354E+01 1.98698E+01 0.00000E+00
 -1      2156 4.73666E+01 2.36028E+01 0.00000E+00
 -1      2157 4.72960E+01 2.26817E+01 0.00000E+00
 -1      2158 4.76401E+01 2.53808E+01 0.00000E+00
 -1      2159 4.75388E+01 2.45167E+01 0.00000E+00
 -1      2160 4.83316E+01 2.72097E+01 0.00000E+00
 -1      2161 4.79674E+01 2.64026E+01 0.00000E+00
 -1      2162 4.90352E+01 2.89381E+01 0.00000E+00
 -1      2163 4.86200E+01 2.81079E+01 0.00000E+00
 -1      2164 5.05543E+01 3.04767E+01 0.00000E+00
 -1      2165 4.98229E+01 2.99028E+01 0.00000E+00
 -1      2166 5.23231E+01 3.14113E+01 0.00000E+00
 -1      2167 5.14946E+01 3.09821E+01 0.00000E+00
 -1      2168 5.40862E+01 3.23266E+01 0.00000E+00
 -1      2169 5.32093E+01 3.20493E+01 0.00000E+00
 -1      2170 5.58304E+01 3.25500E+01 0.00000E+00
 -1      2171 5.49583E+01 3.24383E+01 0.00000E+00
 -1      2172 5.42361E+01 3.31972E+01 0.00000E+00
 -1      2173 5.79424E+01 3.22002E+01 0.00000E+00
 -1      2174 5.70922E+01 3.23527E+01 0.00000E+00
 -1      2175 5.96942E+01 3.17977E+01 0.00000E+00
 -1      2176 5.89052E+01 3.20763E+01 0.00000E+00
 -1      2177 6.12843E+01 3.09044E+01 0.00000E+00
 -1      2178 6.05682E+01 3.13380E+01 0.00000E+00
 -1      2179 6.26250E+01 2.96789E+01 0.00000E+00
 -1      2180 6.20117E+01 3.02501E+01 0.00000E+00
 -1      2181 6.38507E+01 2.83670E+01 0.00000E+00
 -1      2182 6.33279E+01 2.90356E+01 0.00000E+00
 -1      2183 6.46268E+01 2.66445E+01 0.00000E+00
 -1      2184 6.43297E+01 2.74318E+01 0.00000E+00
 -1      2185 6.50555E+01 2.48432E+01 0.00000E+00
 -1      2186 6.48869E+01 2.56580E+01 0.00000E+00
 -1      2187 6.58127E+01 2.44940E+01 0.00000E+00
 -1      2188 6.00621E+01 1.55166E+01 0.00000E+00
 -1      2189 6.08209E+01 1.59626E+01 0.00000E+00
 -1      2190 6.15974E+01 1.56872E+01 0.00000E+00
 -1      2191 6.42300E+00 4.57510E+01 0.00000E+00
 -1      2192 5.98271E+01 1.47206E+01 0.00000E+00
 -1      2193 7.17300E+00 4.44520E+01 0.00000E+00
 -1      2194 6.58488E+01 2.24450E+01 0.00000E+00
 -1      2195 6.64531E+01 2.30196E+01 0.00000E+00
 -1      2196 6.63207E+01 2.17854E+01 0.00000E+00
 -1      2197 6.44599E+01 1.85908E+01 0.00000E+00
 -1      2198 1.45665E+02 4.31193E+01 0.00000E+00
 -1      2199 6.31801E+01 1.69433E+01 0.00000E+00
 -1      2200 6.53839E+01 2.62952E+01 0.00000E+00
 -1      2201 6.46448E+01 2.82169E+01 0.00000E+00
 -1      2202 6.34630E+01 2.97954E+01 0.00000E+00
 -1      2203 6.20327E+01 3.10930E+01 0.00000E+00
 -1      2204 6.04313E+01 3.22069E+01 0.00000E+00
 -1      2205 5.63700E+01 3.31116E+01 0.00000E+00
 -1      2206 5.24777E+01 3.24474E+01 0.00000E+00
 -1      2207 5.06513E+01 3.13039E+01 0.00000E+00
 -1      2208 4.89233E+01 2.98338E+01 0.00000E+00
 -1      2209 4.78472E+01 2.79709E+01 0.00000E+00
 -1      2210 4.72315E+01 2.60509E+01 0.00000E+00
 -1      2211 4.67182E+01 2.19550E+01 0.00000E+00
 -1      2212 4.82598E+01 1.81502E+01 0.00000E+00
 -1      2213 4.96242E+01 1.63870E+01 0.00000E+00
 -1      2214 5.37085E+01 1.41885E+01 0.00000E+00
 -1      2215 5.77343E+01 1.39885E+01 0.00000E+00
 -1      2216 5.14610E+01 1.49605E+01 0.00000E+00
 -1      2217 4.67320E+01 2.41152E+01 0.00000E+00
 -1      2218 5.85946E+01 3.27905E+01 0.00000E+00
 -1      2219 1.07850E+01 5.30525E+00 0.00000E+00
 -1      2220 9.28500E+00 5.30525E+00 0.00000E+00
 -1      2221 6.49500E+00 3.01125E+01 0.00000E+00
 -1      2222 6.49500E+00 3.15875E+01 0.00000E+00
 -1      2223 6.49500E+00 3.30625E+01 0.00000E+00
 -1      2224 6.49500E+00 3.45375E+01 0.00000E+00
 -1      2225 7.79400E+00 3.23250E+01 0.00000E+00
 -1      2226 6.49500E+00 2.42125E+01 0.00000E+00
 -1      2227 6.49500E+00 2.56875E+01 0.00000E+00
 -1      2228 6.49500E+00 2.12625E+01 0.00000E+00
 -1      2229 6.49500E+00 2.27375E+01 0.00000E+00
 -1      2230 7.79400E+00 2.34750E+01 0.00000E+00
 -1      2231 6.49500E+00 1.83625E+01 0.00000E+00
 -1      2232 6.49500E+00 1.98125E+01 0.00000E+00
 -1      2233 7.79400E+00 2.05500E+01 0.00000E+00
 -1      2234 6.49500E+00 1.54125E+01 0.00000E+00
 -1      2235 6.49500E+00 1.68875E+01 0.00000E+00
 -1      2236 7.79400E+00 1.76250E+01 0.00000E+00
 -1      2237 6.49500E+00 1.24625E+01 0.00000E+00
 -1      2238 6.49500E+00 1.39375E+01 0.00000E+00
 -1      2239 7.79400E+00 1.46750E+01 0.00000E+00
 -1      2240 6.49500E+00 9.51250E+00 0.00000E+00
 -1      2241 6.49500E+00 1.09875E+01 0.00000E+00
 -1      2242 7.79400E+00 1.17250E+01 0.00000E+00
 -1      2243 1.37850E+01 5.30525E+00 0.00000E+00
 -1      2244 1.22850E+01 5.30525E+00 0.00000E+00
 -1      2245 1.15350E+01 6.60425E+00 0.00000E+00
 -1      2246 9.90000E+00 4.35050E+01 0.00000E+00
 -1      2247 1.14000E+01 4.35050E+01 0.00000E+00
 -1      2248 5.96584E+01 1.38704E+01 0.00000E+00
 -1      2249 6.06012E+01 1.43307E+01 0.00000E+00
 -1      2250 1.29000E+01 4.35050E+01 0.00000E+00
 -1      2251 1.44000E+01 4.35050E+01 0.00000E+00
 -1      2252 1.21500E+01 4.22060E+01 0.00000E+00
 -1      2253 1.59000E+01 4.35050E+01 0.00000E+00
 -1      2254 1.74000E+01 4.35050E+01 0.00000E+00
 -1      2255 1.51500E+01 4.22060E+01 0.00000E+00
 -1      2256 1.89000E+01 4.35050E+01 0.00000E+00
 -1      2257 2.04000E+01 4.35050E+01 0.00000E+00
 -1      2258 1.81500E+01 4.22060E+01 0.00000E+00
 -1      2259 2.19000E+01 4.35050E+01 0.00000E+00
 -1      2260 2.34000E+01 4.35050E+01 0.00000E+00
 -1      2261 2.11500E+01 4.22060E+01 0.00000E+00
 -1      2262 2.49000E+01 4.35050E+01 0.00000E+00
 -1      2263 2.64000E+01 4.35050E+01 0.00000E+00
 -1      2264 2.41500E+01 4.22060E+01 0.00000E+00
 -1      2265 2.79000E+01 4.35050E+01 0.00000E+00
 -1      2266 2.94000E+01 4.35050E+01 0.00000E+00
 -1      2267 2.71500E+01 4.22060E+01 0.00000E+00
 -1      2268 3.09000E+01 4.35050E+01 0.00000E+00
 -1      2269 3.24000E+01 4.35050E+01 0.00000E+00
 -1      2270 3.01500E+01 4.22060E+01 0.00000E+00
 -1      2271 3.39000E+01 4.35050E+01 0.00000E+00
 -1      2272 3.54000E+01 4.35050E+01 0.00000E+00
 -1      2273 3.31500E+01 4.22060E+01 0.00000E+00
 -1      2274 3.69000E+01 4.35050E+01 0.00000E+00
 -1      2275 3.84000E+01 4.35050E+01 0.00000E+00
 -1      2276 3.61500E+01 4.22060E+01 0.00000E+00
 -1      2277 3.99000E+01 4.35050E+01 0.00000E+00
 -1      2278 4.14000E+01 4.35050E+01 0.00000E+00
 -1      2279 3.91500E+01 4.22060E+01 0.00000E+00
 -1      2280 4.29000E+01 4.35050E+01 0.00000E+00
 -1      2281 4.44000E+01 4.35050E+01 0.00000E+00
 -1      2282 4.21500E+01 4.22060E+01 0.00000E+00
 -1      2283 4.59000E+01 4.35050E+01 0.00000E+00
 -1      2284 4.74000E+01 4.35050E+01 0.00000E+00
 -1      2285 4.51500E+01 4.22060E+01 0.00000E+00
 -1      2286 4.89000E+01 4.35050E+01 0.00000E+00
 -1      2287 5.04000E+01 4.35050E+01 0.00000E+00
 -1      2288 4.81500E+01 4.22060E+01 0.00000E+00
 -1      2289 5.19000E+01 4.35050E+01 0.00000E+00
 -1      2290 5.34000E+01 4.35050E+01 0.00000E+00
 -1      2291 5.11500E+01 4.22060E+01 0.00000E+00
 -1      2292 5.49000E+01 4.35050E+01 0.00000E+00
 -1      2293 5.64000E+01 4.35050E+01 0.00000E+00
 -1      2294 5.41500E+01 4.22060E+01 0.00000E+00
 -1      2295 5.79000E+01 4.35050E+01 0.00000E+00
 -1      2296 5.94000E+01 4.35050E+01 0.00000E+00
 -1      2297 5.71500E+01 4.22060E+01 0.00000E+00
 -1      2298 6.09000E+01 4.35050E+01 0.00000E+00
 -1      2299 6.24000E+01 4.35050E+01 0.00000E+00
 -1      2300 6.01500E+01 4.22060E+01 0.00000E+00
 -1      2301 6.39000E+01 4.35050E+01 0.00000E+00
 -1      2302 6.54000E+01 4.35050E+01 0.00000E+00
 -1      2303 6.31500E+01 4.22060E+01 0.00000E+00
 -1      2304 6.69000E+01 4.35050E+01 0.00000E+00
 -1      2305 6.84000E+01 4.35050E+01 0.00000E+00
 -1      2306 6.61500E+01 4.22060E+01 0.00000E+00
 -1      2307 6.99000E+01 4.35050E+01 0.00000E+00
 -1      2308 7.14000E+01 4.35050E+01 0.00000E+00
 -1      2309 6.91500E+01 4.22060E+01 0.00000E+00
 -1      2310 7.29000E+01 4.35050E+01 0.00000E+00
 -1      2311 7.44000E+01 4.35050E+01 0.00000E+00
 -1      2312 7.21500E+01 4.22060E+01 0.00000E+00
 -1      2313 7.59000E+01 4.35050E+01 0.00000E+00
 -1      2314 7.74000E+01 4.35050E+01 0.00000E+00
 -1      2315 7.51500E+01 4.22060E+01 0.00000E+00
 -1      2316 7.89000E+01 4.35050E+01 0.00000E+00
 -1      2317 8.04000E+01 4.35050E+01 0.00000E+00
 -1      2318 7.81500E+01 4.22060E+01 0.00000E+00
 -1      2319 8.19000E+01 4.35050E+01 0.00000E+00
 -1      2320 8.34000E+01 4.35050E+01 0.00000E+00
 -1      2321 8.11500E+01 4.22060E+01 0.00000E+00
 -1      2322 8.49000E+01 4.35050E+01 0.00000E+00
 -1      2323 8.64000E+01 4.35050E+01 0.00000E+00
 -1      2324 8.41500E+01 4.22060E+01 0.00000E+00
 -1      2325 8.79000E+01 4.35050E+01 0.00000E+00
 -1      2326 8.94000E+01 4.35050E+01 0.00000E+00
 -1      2327 8.71500E+01 4.22060E+01 0.00000E+00
 -1      2328 9.09000E+01 4.35050E+01 0.00000E+00
 -1      2329 9.24000E+01 4.35050E+01 0.00000E+00
 -1      2330 9.01500E+01 4.22060E+01 0.00000E+00
 -1      2331 9.39000E+01 4.35050E+01 0.00000E+00
 -1      2332 9.54000E+01 4.35050E+01 0.00000E+00
 -1      2333 9.31500E+01 4.22060E+01 0.00000E+00
 -1      2334 9.69000E+01 4.35050E+01 0.00000E+00
 -1      2335 9.84000E+01 4.35050E+01 0.00000E+00
 -1      2336 9.61500E+01 4.22060E+01 0.00000E+00
 -1      2337 9.99000E+01 4.35050E+01 0.00000E+00
 -1      2338 1.01400E+02 4.35050E+01 0.00000E+00
 -1      2339 9.91500E+01 4.22060E+01 0.00000E+00
 -1      2340 1.02900E+02 4.35050E+01 0.00000E+00
 -1      2341 1.04400E+02 4.35050E+01 0.00000E+00
 -1      2342 1.02150E+02 4.22060E+01 0.00000E+00
 -1      2343 1.05900E+02 4.35050E+01 0.00000E+00
 -1      2344 1.07400E+02 4.35050E+01 0.00000E+00
 -1      2345 1.05150E+02 4.22060E+01 0.00000E+00
 -1      2346 1.08900E+02 4.35050E+01 0.00000E+00
 -1      2347 1.10400E+02 4.35050E+01 0.00000E+00
 -1      2348 1.08150E+02 4.22060E+01 0.00000E+00
 -1      2349 1.11900E+02 4.35050E+01 0.00000E+00
 -1      2350 1.13400E+02 4.35050E+01 0.00000E+00
 -1      2351 1.11150E+02 4.22060E+01 0.00000E+00
 -1      2352 1.14900E+02 4.35050E+01 0.00000E+00
 -1      2353 1.16400E+02 4.35050E+01 0.00000E+00
 -1      2354 1.14150E+02 4.22060E+01 0.00000E+00
 -1      2355 1.17900E+02 4.35050E+01 0.00000E+00
 -1      2356 1.19400E+02 4.35050E+01 0.00000E+00
 -1      2357 1.17150E+02 4.22060E+01 0.00000E+00
 -1      2358 1.20900E+02 4.35050E+01 0.00000E+00
 -1      2359 1.22400E+02 4.35050E+01 0.00000E+00
 -1      2360 1.20150E+02 4.22060E+01 0.00000E+00
 -1      2361 1.23900E+02 4.35050E+01 0.00000E+00
 -1      2362 1.25400E+02 4.35050E+01 0.00000E+00
 -1      2363 1.23150E+02 4.22060E+01 0.00000E+00
 -1      2364 1.26900E+02 4.35050E+01 0.00000E+00
 -1      2365 1.28400E+02 4.35050E+01 0.00000E+00
 -1      2366 1.26150E+02 4.22060E+01 0.00000E+00
 -1      2367 1.29900E+02 4.35050E+01 0.00000E+00
 -1      2368 1.31400E+02 4.35050E+01 0.00000E+00
 -1      2369 1.29150E+02 4.22060E+01 0.00000E+00
 -1      2370 1.32900E+02 4.35050E+01 0.00000E+00
 -1      2371 1.34400E+02 4.35050E+01 0.00000E+00
 -1      2372 1.32150E+02 4.22060E+01 0.00000E+00
 -1      2373 1.35900E+02 4.35050E+01 0.00000E+00
 -1      2374 1.37400E+02 4.35050E+01 0.00000E+00
 -1      2375 1.35150E+02 4.22060E+01 0.00000E+00
 -1      2376 1.38900E+02 4.35050E+01 0.00000E+00
 -1      2377 1.40400E+02 4.35050E+01 0.00000E+00
 -1      2378 1.38150E+02 4.22060E+01 0.00000E+00
 -1      2379 6.58410E+01 1.96329E+01 0.00000E+00
 -1      2380 6.62070E+01 2.04940E+01 0.00000E+00
 -1      2381 1.97850E+01 5.30525E+00 0.00000E+00
 -1      2382 1.82850E+01 5.30525E+00 0.00000E+00
 -1      2383 2.27850E+01 5.30525E+00 0.00000E+00
 -1      2384 2.12850E+01 5.30525E+00 0.00000E+00
 -1      2385 2.05350E+01 6.60425E+00 0.00000E+00
 -1      2386 2.57850E+01 5.30525E+00 0.00000E+00
 -1      2387 2.42850E+01 5.30525E+00 0.00000E+00
 -1      2388 2.35350E+01 6.60425E+00 0.00000E+00
 -1      2389 2.87850E+01 5.30525E+00 0.00000E+00
 -1      2390 2.72850E+01 5.30525E+00 0.00000E+00
 -1      2391 2.65350E+01 6.60425E+00 0.00000E+00
 -1      2392 3.17850E+01 5.30525E+00 0.00000E+00
 -1      2393 3.02850E+01 5.30525E+00 0.00000E+00
 -1      2394 2.95350E+01 6.60425E+00 0.00000E+00
 -1      2395 3.47850E+01 5.30525E+00 0.00000E+00
 -1      2396 3.32850E+01 5.30525E+00 0.00000E+00
 -1      2397 3.25350E+01 6.60425E+00 0.00000E+00
 -1      2398 3.77850E+01 5.30525E+00 0.00000E+00
 -1      2399 3.62850E+01 5.30525E+00 0.00000E+00
 -1      2400 3.55350E+01 6.60425E+00 0.00000E+00
 -1      2401 4.07850E+01 5.30525E+00 0.00000E+00
 -1      2402 3.92850E+01 5.30525E+00 0.00000E+00
 -1      2403 3.85350E+01 6.60425E+00 0.00000E+00
 -1      2404 4.37850E+01 5.30525E+00 0.00000E+00
 -1      2405 4.22850E+01 5.30525E+00 0.00000E+00
 -1      2406 4.15350E+01 6.60425E+00 0.00000E+00
 -1      2407 4.67850E+01 5.30525E+00 0.00000E+00
 -1      2408 4.52850E+01 5.30525E+00 0.00000E+00
 -1      2409 4.45350E+01 6.60425E+00 0.00000E+00
 -1      2410 4.97850E+01 5.30525E+00 0.00000E+00
 -1      2411 4.82850E+01 5.30525E+00 0.00000E+00
 -1      2412 4.75350E+01 6.60425E+00 0.00000E+00
 -1      2413 5.27850E+01 5.30525E+00 0.00000E+00
 -1      2414 5.12850E+01 5.30525E+00 0.00000E+00
 -1      2415 5.05350E+01 6.60425E+00 0.00000E+00
 -1      2416 5.57850E+01 5.30525E+00 0.00000E+00
 -1      2417 5.42850E+01 5.30525E+00 0.00000E+00
 -1      2418 5.35350E+01 6.60425E+00 0.00000E+00
 -1      2419 5.87850E+01 5.30525E+00 0.00000E+00
 -1      2420 5.72850E+01 5.30525E+00 0.00000E+00
 -1      2421 5.65350E+01 6.60425E+00 0.00000E+00
 -1      2422 6.17850E+01 5.30525E+00 0.00000E+00
 -1      2423 6.02850E+01 5.30525E+00 0.00000E+00
 -1      2424 5.95350E+01 6.60425E+00 0.00000E+00
 -1      2425 6.47850E+01 5.30525E+00 0.00000E+00
 -1      2426 6.32850E+01 5.30525E+00 0.00000E+00
 -1      2427 6.25350E+01 6.60425E+00 0.00000E+00
 -1      2428 6.77850E+01 5.30525E+00 0.00000E+00
 -1      2429 6.62850E+01 5.30525E+00 0.00000E+00
 -1      2430 6.55350E+01 6.60425E+00 0.00000E+00
 -1      2431 7.07850E+01 5.30525E+00 0.00000E+00
 -1      2432 6.92850E+01 5.30525E+00 0.00000E+00
 -1      2433 6.85350E+01 6.60425E+00 0.00000E+00
 -1      2434 7.37850E+01 5.30525E+00 0.00000E+00
 -1      2435 7.22850E+01 5.30525E+00 0.00000E+00
 -1      2436 7.15350E+01 6.60425E+00 0.00000E+00
 -1      2437 7.67850E+01 5.30525E+00 0.00000E+00
 -1      2438 7.52850E+01 5.30525E+00 0.00000E+00
 -1      2439 7.45350E+01 6.60425E+00 0.00000E+00
 -1      2440 7.97850E+01 5.30525E+00 0.00000E+00
 -1      2441 7.82850E+01 5.30525E+00 0.00000E+00
 -1      2442 7.75350E+01 6.60425E+00 0.00000E+00
 -1      2443 8.27850E+01 5.30525E+00 0.00000E+00
 -1      2444 8.12850E+01 5.30525E+00 0.00000E+00
 -1      2445 8.05350E+01 6.60425E+00 0.00000E+00
 -1      2446 8.57850E+01 5.30525E+00 0.00000E+00
 -1      2447 8.42850E+01 5.30525E+00 0.00000E+00
 -1      2448 8.35350E+01 6.60425E+00 0.00000E+00
 -1      2449 8.87850E+01 5.30525E+00 0.00000E+00
 -1      2450 8.72850E+01 5.30525E+00 0.00000E+00
 -1      2451 8.65350E+01 6.60425E+00 0.00000E+00
 -1      2452 9.17850E+01 5.30525E+00 0.00000E+00
 -1      2453 9.02850E+01 5.30525E+00 0.00000E+00
 -1      2454 8.95350E+01 6.60425E+00 0.00000E+00
 -1      2455 9.47850E+01 5.30525E+00 0.00000E+00
 -1      2456 9.32850E+01 5.30525E+00 0.00000E+00
 -1      2457 9.25350E+01 6.60425E+00 0.00000E+00
 -1      2458 9.77850E+01 5.30525E+00 0.00000E+00
 -1      2459 9.62850E+01 5.30525E+00 0.00000E+00
 -1      2460 9.55350E+01 6.60425E+00 0.00000E+00
 -1      2461 1.00785E+02 5.30525E+00 0.00000E+00
 -1      2462 9.92850E+01 5.30525E+00 0.00000E+00
 -1      2463 9.85350E+01 6.60425E+00 0.00000E+00
 -1      2464 1.03785E+02 5.30525E+00 0.00000E+00
 -1      2465 1.02285E+02 5.30525E+00 0.00000E+00
 -1      2466 1.01535E+02 6.60425E+00 0.00000E+00
 -1      2467 1.06785E+02 5.30525E+00 0.00000E+00
 -1      2468 1.05285E+02 5.30525E+00 0.00000E+00
 -1      2469 1.04535E+02 6.60425E+00 0.00000E+00
 -1      2470 1.09785E+02 5.30525E+00 0.00000E+00
 -1      2471 1.08285E+02 5.30525E+00 0.00000E+00
 -1      2472 1.07535E+02 6.60425E+00 0.00000E+00
 -1      2473 1.12785E+02 5.30525E+00 0.00000E+00
 -1      2474 1.11285E+02 5.30525E+00 0.00000E+00
 -1      2475 1.10535E+02 6.60425E+00 0.00000E+00
 -1      2476 1.15785E+02 5.30525E+00 0.00000E+00
 -1      2477 1.14285E+02 5.30525E+00 0.00000E+00
 -1      2478 1.13535E+02 6.60425E+00 0.00000E+00
 -1      2479 1.18785E+02 5.30525E+00 0.00000E+00
 -1      2480 1.17285E+02 5.30525E+00 0.00000E+00
 -1      2481 1.16535E+02 6.60425E+00 0.00000E+00
 -1      2482 1.21785E+02 5.30525E+00 0.00000E+00
 -1      2483 1.20285E+02 5.30525E+00 0.00000E+00
 -1      2484 1.19535E+02 6.60425E+00 0.00000E+00
 -1      2485 1.24785E+02 5.30525E+00 0.00000E+00
 -1      2486 1.23285E+02 5.30525E+00 0.00000E+00
 -1      2487 1.22535E+02 6.60425E+00 0.00000E+00
 -1      2488 1.27785E+02 5.30525E+00 0.00000E+00
 -1      2489 1.26285E+02 5.30525E+00 0.00000E+00
 -1      2490 1.25535E+02 6.60425E+00 0.00000E+00
 -1      2491 1.30785E+02 5.30525E+00 0.00000E+00
 -1      2492 1.29285E+02 5.30525E+00 0.00000E+00
 -1      2493 1.28535E+02 6.60425E+00 0.00000E+00
 -1      2494 1.33785E+02 5.30525E+00 0.00000E+00
 -1      2495 1.32285E+02 5.30525E+00 0.00000E+00
 -1      2496 1.31535E+02 6.60425E+00 0.00000E+00
 -1      2497 1.36785E+02 5.30525E+00 0.00000E+00
 -1      2498 1.35285E+02 5.30525E+00 0.00000E+00
 -1      2499 1.34535E+02 6.60425E+00 0.00000E+00
 -1      2500 1.39785E+02 5.30525E+00 0.00000E+00
 -1      2501 1.38285E+02 5.30525E+00 0.00000E+00
 -1      2502 1.37535E+02 6.60425E+00 0.00000E+00
 -1      2503 1.42785E+02 5.30525E+00 0.00000E+00
 -1      2504 1.41285E+02 5.30525E+00 0.00000E+00
 -1      2505 1.40535E+02 6.60425E+00 0.00000E+00
 -1      2506 1.44336E+02 5.26953E+00 0.00000E+00
 -1      2507 1.43505E+02 1.69125E+01 0.00000E+00
 -1      2508 1.43505E+02 1.54375E+01 0.00000E+00
 -1      2509 1.43505E+02 1.98625E+01 0.00000E+00
 -1      2510 1.43505E+02 1.83875E+01 0.00000E+00
 -1      2511 1.42206E+02 1.76500E+01 0.00000E+00
 -1      2512 1.43505E+02 1.10625E+01 0.00000E+00
 -1      2513 1.43505E+02 9.58750E+00 0.00000E+00
 -1      2514 1.43505E+02 1.39750E+01 0.00000E+00
 -1      2515 1.43505E+02 1.25250E+01 0.00000E+00
 -1      2516 1.42206E+02 1.17875E+01 0.00000E+00
 -1      2517 1.42206E+02 1.47125E+01 0.00000E+00
 -1      2518 1.43505E+02 2.28125E+01 0.00000E+00
 -1      2519 1.43505E+02 2.13375E+01 0.00000E+00
 -1      2520 1.42206E+02 2.06000E+01 0.00000E+00
 -1      2521 1.43505E+02 2.57625E+01 0.00000E+00
 -1      2522 1.43505E+02 2.42875E+01 0.00000E+00
 -1      2523 1.42206E+02 2.35500E+01 0.00000E+00
 -1      2524 1.43505E+02 2.87125E+01 0.00000E+00
 -1      2525 1.43505E+02 2.72375E+01 0.00000E+00
 -1      2526 1.42206E+02 2.65000E+01 0.00000E+00
 -1      2527 1.43505E+02 3.16125E+01 0.00000E+00
 -1      2528 1.43505E+02 3.01625E+01 0.00000E+00
 -1      2529 1.42206E+02 2.94250E+01 0.00000E+00
 -1      2530 1.43505E+02 3.45625E+01 0.00000E+00
 -1      2531 1.43505E+02 3.30875E+01 0.00000E+00
 -1      2532 1.42206E+02 3.23500E+01 0.00000E+00
 -1      2533 1.43505E+02 3.75125E+01 0.00000E+00
 -1      2534 1.43505E+02 3.60375E+01 0.00000E+00
 -1      2535 1.42206E+02 3.53000E+01 0.00000E+00
 -1      2536 1.43505E+02 4.04625E+01 0.00000E+00
 -1      2537 1.43505E+02 3.89875E+01 0.00000E+00
 -1      2538 1.42206E+02 3.82500E+01 0.00000E+00
 -1      2539 1.44321E+02 4.30606E+01 0.00000E+00
 -1      2540 6.34657E+01 1.59004E+01 0.00000E+00
 -1      2541 6.42209E+01 1.66500E+01 0.00000E+00
 -1      2542 1.67850E+01 5.30525E+00 0.00000E+00
 -1      2543 1.52850E+01 5.30525E+00 0.00000E+00
 -1      2544 1.75350E+01 6.60425E+00 0.00000E+00
 -1      2545 6.49381E+01 1.77093E+01 0.00000E+00
 -1      2546 6.54626E+01 1.86071E+01 0.00000E+00
 -1      2547 6.63432E+01 2.60207E+01 0.00000E+00
 -1      2548 6.60831E+01 2.70071E+01 0.00000E+00
 -1      2549 6.66804E+01 2.43911E+01 0.00000E+00
 -1      2550 6.65118E+01 2.52059E+01 0.00000E+00
 -1      2551 6.72110E+01 2.59178E+01 0.00000E+00
 -1      2552 5.24442E+01 3.34284E+01 0.00000E+00
 -1      2553 5.15581E+01 3.27904E+01 0.00000E+00
 -1      2554 4.73097E+01 1.81241E+01 0.00000E+00
 -1      2555 4.79752E+01 1.72433E+01 0.00000E+00
 -1      2556 6.49500E+00 2.71625E+01 0.00000E+00
 -1      2557 6.49500E+00 2.86375E+01 0.00000E+00
 -1      2558 7.79400E+00 2.93750E+01 0.00000E+00
 -1      2559 7.79400E+00 2.64250E+01 0.00000E+00
 -1      2560 5.73469E+01 1.30588E+01 0.00000E+00
 -1      2561 5.84969E+01 1.33306E+01 0.00000E+00
 -1      2562 5.04499E+01 1.43077E+01 0.00000E+00
 -1      2563 5.15878E+01 1.37637E+01 0.00000E+00
 -1      2564 5.51424E+01 1.30500E+01 0.00000E+00
 -1      2565 5.60255E+01 1.29281E+01 0.00000E+00
 -1      2566 4.61400E+01 2.46999E+01 0.00000E+00
 -1      2567 4.59678E+01 2.37860E+01 0.00000E+00
 -1      2568 5.29894E+01 1.35036E+01 0.00000E+00
 -1      2569 5.40991E+01 1.32755E+01 0.00000E+00
 -1      2570 4.86025E+01 1.62957E+01 0.00000E+00
 -1      2571 4.93014E+01 1.54133E+01 0.00000E+00
 -1      2572 4.63446E+01 1.99849E+01 0.00000E+00
 -1      2573 4.67034E+01 1.91461E+01 0.00000E+00
 -1      2574 5.91854E+01 3.35791E+01 0.00000E+00
 -1      2575 5.82226E+01 3.37030E+01 0.00000E+00
 -1      2576 4.58714E+01 2.24806E+01 0.00000E+00
 -1      2577 4.60298E+01 2.12343E+01 0.00000E+00
 -1      2578 4.66582E+01 2.67978E+01 0.00000E+00
 -1      2579 4.63309E+01 2.57760E+01 0.00000E+00
 -1      2580 4.72350E+01 2.85943E+01 0.00000E+00
 -1      2581 4.69466E+01 2.76960E+01 0.00000E+00
 -1      2582 4.60461E+01 2.74212E+01 0.00000E+00
 -1      2583 4.85231E+01 3.09645E+01 0.00000E+00
 -1      2584 4.77354E+01 2.99998E+01 0.00000E+00
 -1      2585 5.06178E+01 3.22849E+01 0.00000E+00
 -1      2586 4.96775E+01 3.17794E+01 0.00000E+00
 -1      2587 5.05843E+01 3.32659E+01 0.00000E+00
 -1      2588 5.45419E+01 3.42699E+01 0.00000E+00
 -1      2589 5.36698E+01 3.41582E+01 0.00000E+00
 -1      2590 5.70131E+01 3.38878E+01 0.00000E+00
 -1      2591 5.57514E+01 3.40850E+01 0.00000E+00
 -1      2592 5.51851E+01 3.50460E+01 0.00000E+00
 -1      2593 5.76040E+01 3.46764E+01 0.00000E+00
 -1      2594 6.12480E+01 3.26990E+01 0.00000E+00
 -1      2595 6.03740E+01 3.31587E+01 0.00000E+00
 -1      2596 6.29699E+01 3.14035E+01 0.00000E+00
 -1      2597 6.22425E+01 3.20577E+01 0.00000E+00
 -1      2598 6.43756E+01 3.01168E+01 0.00000E+00
 -1      2599 6.36728E+01 3.07601E+01 0.00000E+00
 -1      2600 6.38826E+01 3.17248E+01 0.00000E+00
 -1      2601 6.56103E+01 2.81211E+01 0.00000E+00
 -1      2602 6.51313E+01 2.90563E+01 0.00000E+00
 -1      2603 6.55950E+00 4.28890E+01 0.00000E+00
 -1      2604 8.53650E+00 4.32410E+01 0.00000E+00
 -1      2605 9.28650E+00 4.19420E+01 0.00000E+00
 -1      2606 6.55950E+00 4.14140E+01 0.00000E+00
 -1      2607 8.07525E+00 5.11044E+00 0.00000E+00
 -1      2608 6.57525E+00 5.11044E+00 0.00000E+00
 -1      2609 6.40575E+00 6.01981E+00 0.00000E+00
 -1      2610 8.82525E+00 6.40944E+00 0.00000E+00
 -1      2611 6.15657E+01 1.48098E+01 0.00000E+00
 -1      2612 6.23932E+01 1.53162E+01 0.00000E+00
 -1      2613 5.92710E+01 1.29407E+01 0.00000E+00
 -1      2614 7.79400E+00 3.52687E+01 0.00000E+00
 -1      2615 6.49500E+00 3.60062E+01 0.00000E+00
 -1      2616 6.49500E+00 3.74750E+01 0.00000E+00
 -1      2617 1.45350E+01 6.60425E+00 0.00000E+00
 -1      2618 6.40575E+00 7.49481E+00 0.00000E+00
 -1      2619 6.13970E+01 1.39596E+01 0.00000E+00
 -1      2620 6.55950E+00 3.99453E+01 0.00000E+00
 -1      2621 6.53411E+01 3.00210E+01 0.00000E+00
 -1      2622 6.68113E+01 2.10686E+01 0.00000E+00
 -1      2623 6.74155E+01 2.16431E+01 0.00000E+00
 -1      2624 6.73018E+01 2.03517E+01 0.00000E+00
 -1      2625 6.52236E+01 1.66664E+01 0.00000E+00
 -1      2626 6.63192E+01 1.87514E+01 0.00000E+00
 -1      2627 1.43586E+02 6.56853E+00 0.00000E+00
 -1      2628 5.27501E+01 3.45011E+01 0.00000E+00
 -1      2629 1.43419E+02 7.72713E+00 0.00000E+00
 -1      2630 1.42758E+02 4.35929E+01 0.00000E+00
 -1      2631 1.43241E+02 4.17323E+01 0.00000E+00
 -1      2632 1.41942E+02 4.09948E+01 0.00000E+00
 -1      2633 1.41414E+02 4.35342E+01 0.00000E+00
 -1      2634 4.68348E+01 2.97250E+01 0.00000E+00
 -1      2635 6.34340E+01 1.50229E+01 0.00000E+00
 -1      2636 7.70475E+00 8.23231E+00 0.00000E+00
 -1      2637 6.76241E+01 2.30718E+01 0.00000E+00
 -1      2638 6.71523E+01 2.37315E+01 0.00000E+00
 -1      2639 6.78514E+01 2.44433E+01 0.00000E+00
 -1      2640 6.65696E+01 2.78466E+01 0.00000E+00
 -1      2641 1.42120E+02 8.46463E+00 0.00000E+00
 -1      2642 4.52794E+01 2.30653E+01 0.00000E+00
 -1      2643 4.45910E+01 2.23446E+01 0.00000E+00
 -1      2644 4.46875E+01 2.36500E+01 0.00000E+00
 -1      2645 6.00021E+01 3.40711E+01 0.00000E+00
 -1      2646 4.54978E+01 2.05105E+01 0.00000E+00
 -1      2647 4.76524E+01 1.62697E+01 0.00000E+00
 -1      2648 5.19784E+01 1.28507E+01 0.00000E+00
 -1      2649 4.55668E+01 2.54469E+01 0.00000E+00
 -1      2650 5.44233E+01 1.23651E+01 0.00000E+00
 -1      2651 4.64188E+01 1.82392E+01 0.00000E+00
 -1      2652 4.94282E+01 1.42164E+01 0.00000E+00
 -1      2653 4.95550E+01 1.30196E+01 0.00000E+00
 -1      2654 4.84065E+01 1.41252E+01 0.00000E+00
 -1      2655 5.67881E+01 1.22702E+01 0.00000E+00
 -1      2656 4.84896E+01 3.19455E+01 0.00000E+00
 -1      2657 6.21852E+01 3.30094E+01 0.00000E+00
 -1      2658 1.40664E+02 4.22352E+01 0.00000E+00
 -1      2659 9.09300E+00 1.98250E+01 0.00000E+00
 -1      2660 9.09300E+00 2.12750E+01 0.00000E+00
 -1      2661 9.09300E+00 2.27500E+01 0.00000E+00
 -1      2662 9.09300E+00 2.42250E+01 0.00000E+00
 -1      2663 1.03920E+01 2.20250E+01 0.00000E+00
 -1      2664 9.09300E+00 1.39375E+01 0.00000E+00
 -1      2665 9.09300E+00 1.54125E+01 0.00000E+00
 -1      2666 9.09300E+00 1.09875E+01 0.00000E+00
 -1      2667 9.09300E+00 1.24625E+01 0.00000E+00
 -1      2668 1.03920E+01 1.32000E+01 0.00000E+00
 -1      2669 1.22850E+01 7.90325E+00 0.00000E+00
 -1      2670 1.07850E+01 7.90325E+00 0.00000E+00
 -1      2671 1.52850E+01 7.90325E+00 0.00000E+00
 -1      2672 1.37850E+01 7.90325E+00 0.00000E+00
 -1      2673 1.30350E+01 9.20225E+00 0.00000E+00
 -1      2674 8.91450E+00 8.42712E+00 0.00000E+00
 -1      2675 7.85850E+00 3.92077E+01 0.00000E+00
 -1      2676 1.44000E+01 4.09070E+01 0.00000E+00
 -1      2677 1.59000E+01 4.09070E+01 0.00000E+00
 -1      2678 1.74000E+01 4.09070E+01 0.00000E+00
 -1      2679 1.89000E+01 4.09070E+01 0.00000E+00
 -1      2680 1.66500E+01 3.96080E+01 0.00000E+00
 -1      2681 2.04000E+01 4.09070E+01 0.00000E+00
 -1      2682 2.19000E+01 4.09070E+01 0.00000E+00
 -1      2683 1.96500E+01 3.96080E+01 0.00000E+00
 -1      2684 2.34000E+01 4.09070E+01 0.00000E+00
 -1      2685 2.49000E+01 4.09070E+01 0.00000E+00
 -1      2686 2.26500E+01 3.96080E+01 0.00000E+00
 -1      2687 2.64000E+01 4.09070E+01 0.00000E+00
 -1      2688 2.79000E+01 4.09070E+01 0.00000E+00
 -1      2689 2.56500E+01 3.96080E+01 0.00000E+00
 -1      2690 2.94000E+01 4.09070E+01 0.00000E+00
 -1      2691 3.09000E+01 4.09070E+01 0.00000E+00
 -1      2692 2.86500E+01 3.96080E+01 0.00000E+00
 -1      2693 3.24000E+01 4.09070E+01 0.00000E+00
 -1      2694 3.39000E+01 4.09070E+01 0.00000E+00
 -1      2695 3.16500E+01 3.96080E+01 0.00000E+00
 -1      2696 3.54000E+01 4.09070E+01 0.00000E+00
 -1      2697 3.69000E+01 4.09070E+01 0.00000E+00
 -1      2698 3.46500E+01 3.96080E+01 0.00000E+00
 -1      2699 3.84000E+01 4.09070E+01 0.00000E+00
 -1      2700 3.99000E+01 4.09070E+01 0.00000E+00
 -1      2701 3.76500E+01 3.96080E+01 0.00000E+00
 -1      2702 4.14000E+01 4.09070E+01 0.00000E+00
 -1      2703 4.29000E+01 4.09070E+01 0.00000E+00
 -1      2704 4.06500E+01 3.96080E+01 0.00000E+00
 -1      2705 4.44000E+01 4.09070E+01 0.00000E+00
 -1      2706 4.59000E+01 4.09070E+01 0.00000E+00
 -1      2707 4.36500E+01 3.96080E+01 0.00000E+00
 -1      2708 4.74000E+01 4.09070E+01 0.00000E+00
 -1      2709 4.89000E+01 4.09070E+01 0.00000E+00
 -1      2710 4.66500E+01 3.96080E+01 0.00000E+00
 -1      2711 5.04000E+01 4.09070E+01 0.00000E+00
 -1      2712 5.19000E+01 4.09070E+01 0.00000E+00
 -1      2713 4.96500E+01 3.96080E+01 0.00000E+00
 -1      2714 5.34000E+01 4.09070E+01 0.00000E+00
 -1      2715 5.49000E+01 4.09070E+01 0.00000E+00
 -1      2716 5.26500E+01 3.96080E+01 0.00000E+00
 -1      2717 5.64000E+01 4.09070E+01 0.00000E+00
 -1      2718 5.79000E+01 4.09070E+01 0.00000E+00
 -1      2719 5.56500E+01 3.96080E+01 0.00000E+00
 -1      2720 5.94000E+01 4.09070E+01 0.00000E+00
 -1      2721 6.09000E+01 4.09070E+01 0.00000E+00
 -1      2722 5.86500E+01 3.96080E+01 0.00000E+00
 -1      2723 6.24000E+01 4.09070E+01 0.00000E+00
 -1      2724 6.39000E+01 4.09070E+01 0.00000E+00
 -1      2725 6.16500E+01 3.96080E+01 0.00000E+00
 -1      2726 6.54000E+01 4.09070E+01 0.00000E+00
 -1      2727 6.69000E+01 4.09070E+01 0.00000E+00
 -1      2728 6.46500E+01 3.96080E+01 0.00000E+00
 -1      2729 6.84000E+01 4.09070E+01 0.00000E+00
 -1      2730 6.99000E+01 4.09070E+01 0.00000E+00
 -1      2731 6.76500E+01 3.96080E+01 0.00000E+00
 -1      2732 7.14000E+01 4.09070E+01 0.00000E+00
 -1      2733 7.29000E+01 4.09070E+01 0.00000E+00
 -1      2734 7.06500E+01 3.96080E+01 0.00000E+00
 -1      2735 7.44000E+01 4.09070E+01 0.00000E+00
 -1      2736 7.59000E+01 4.09070E+01 0.00000E+00
 -1      2737 7.36500E+01 3.96080E+01 0.00000E+00
 -1      2738 7.74000E+01 4.09070E+01 0.00000E+00
 -1      2739 7.89000E+01 4.09070E+01 0.00000E+00
 -1      2740 7.66500E+01 3.96080E+01 0.00000E+00
 -1      2741 8.04000E+01 4.09070E+01 0.00000E+00
 -1      2742 8.19000E+01 4.09070E+01 0.00000E+00
 -1      2743 7.96500E+01 3.96080E+01 0.00000E+00
 -1      2744 8.34000E+01 4.09070E+01 0.00000E+00
 -1      2745 8.49000E+01 4.09070E+01 0.00000E+00
 -1      2746 8.26500E+01 3.96080E+01 0.00000E+00
 -1      2747 8.64000E+01 4.09070E+01 0.00000E+00
 -1      2748 8.79000E+01 4.09070E+01 0.00000E+00
 -1      2749 8.56500E+01 3.96080E+01 0.00000E+00
 -1      2750 8.94000E+01 4.09070E+01 0.00000E+00
 -1      2751 9.09000E+01 4.09070E+01 0.00000E+00
 -1      2752 8.86500E+01 3.96080E+01 0.00000E+00
 -1      2753 9.24000E+01 4.09070E+01 0.00000E+00
 -1      2754 9.39000E+01 4.09070E+01 0.00000E+00
 -1      2755 9.16500E+01 3.96080E+01 0.00000E+00
 -1      2756 9.54000E+01 4.09070E+01 0.00000E+00
 -1      2757 9.69000E+01 4.09070E+01 0.00000E+00
 -1      2758 9.46500E+01 3.96080E+01 0.00000E+00
 -1      2759 9.84000E+01 4.09070E+01 0.00000E+00
 -1      2760 9.99000E+01 4.09070E+01 0.00000E+00
 -1      2761 9.76500E+01 3.96080E+01 0.00000E+00
 -1      2762 1.01400E+02 4.09070E+01 0.00000E+00
 -1      2763 1.02900E+02 4.09070E+01 0.00000E+00
 -1      2764 1.00650E+02 3.96080E+01 0.00000E+00
 -1      2765 1.04400E+02 4.09070E+01 0.00000E+00
 -1      2766 1.05900E+02 4.09070E+01 0.00000E+00
 -1      2767 1.03650E+02 3.96080E+01 0.00000E+00
 -1      2768 1.07400E+02 4.09070E+01 0.00000E+00
 -1      2769 1.08900E+02 4.09070E+01 0.00000E+00
 -1      2770 1.06650E+02 3.96080E+01 0.00000E+00
 -1      2771 1.10400E+02 4.09070E+01 0.00000E+00
 -1      2772 1.11900E+02 4.09070E+01 0.00000E+00
 -1      2773 1.09650E+02 3.96080E+01 0.00000E+00
 -1      2774 1.13400E+02 4.09070E+01 0.00000E+00
 -1      2775 1.14900E+02 4.09070E+01 0.00000E+00
 -1      2776 1.12650E+02 3.96080E+01 0.00000E+00
 -1      2777 1.16400E+02 4.09070E+01 0.00000E+00
 -1      2778 1.17900E+02 4.09070E+01 0.00000E+00
 -1      2779 1.15650E+02 3.96080E+01 0.00000E+00
 -1      2780 1.19400E+02 4.09070E+01 0.00000E+00
 -1      2781 1.20900E+02 4.09070E+01 0.00000E+00
 -1      2782 1.18650E+02 3.96080E+01 0.00000E+00
 -1      2783 1.22400E+02 4.09070E+01 0.00000E+00
 -1      2784 1.23900E+02 4.09070E+01 0.00000E+00
 -1      2785 1.21650E+02 3.96080E+01 0.00000E+00
 -1      2786 1.25400E+02 4.09070E+01 0.00000E+00
 -1      2787 1.26900E+02 4.09070E+01 0.00000E+00
 -1      2788 1.24650E+02 3.96080E+01 0.00000E+00
 -1      2789 1.28400E+02 4.09070E+01 0.00000E+00
 -1      2790 1.29900E+02 4.09070E+01 0.00000E+00
 -1      2791 1.27650E+02 3.96080E+01 0.00000E+00
 -1      2792 1.31400E+02 4.09070E+01 0.00000E+00
 -1      2793 1.32900E+02 4.09070E+01 0.00000E+00
 -1      2794 1.30650E+02 3.96080E+01 0.00000E+00
 -1      2795 1.34400E+02 4.09070E+01 0.00000E+00
 -1      2796 1.35900E+02 4.09070E+01 0.00000E+00
 -1      2797 1.33650E+02 3.96080E+01 0.00000E+00
 -1      2798 1.37400E+02 4.09070E+01 0.00000E+00
 -1      2799 1.38900E+02 4.09070E+01 0.00000E+00
 -1      2800 1.36650E+02 3.96080E+01 0.00000E+00
 -1      2801 4.60403E+01 3.07996E+01 0.00000E+00
 -1      2802 4.55400E+01 2.93941E+01 0.00000E+00
 -1      2803 1.40928E+02 4.09655E+01 0.00000E+00
 -1      2804 1.41192E+02 3.96958E+01 0.00000E+00
 -1      2805 1.39914E+02 4.09362E+01 0.00000E+00
 -1      2806 2.12850E+01 7.90325E+00 0.00000E+00
 -1      2807 1.97850E+01 7.90325E+00 0.00000E+00
 -1      2808 3.02850E+01 7.90325E+00 0.00000E+00
 -1      2809 2.87850E+01 7.90325E+00 0.00000E+00
 -1      2810 3.32850E+01 7.90325E+00 0.00000E+00
 -1      2811 3.17850E+01 7.90325E+00 0.00000E+00
 -1      2812 3.10350E+01 9.20225E+00 0.00000E+00
 -1      2813 3.62850E+01 7.90325E+00 0.00000E+00
 -1      2814 3.47850E+01 7.90325E+00 0.00000E+00
 -1      2815 3.40350E+01 9.20225E+00 0.00000E+00
 -1      2816 3.92850E+01 7.90325E+00 0.00000E+00
 -1      2817 3.77850E+01 7.90325E+00 0.00000E+00
 -1      2818 3.70350E+01 9.20225E+00 0.00000E+00
 -1      2819 4.22850E+01 7.90325E+00 0.00000E+00
 -1      2820 4.07850E+01 7.90325E+00 0.00000E+00
 -1      2821 4.00350E+01 9.20225E+00 0.00000E+00
 -1      2822 4.52850E+01 7.90325E+00 0.00000E+00
 -1      2823 4.37850E+01 7.90325E+00 0.00000E+00
 -1      2824 4.30350E+01 9.20225E+00 0.00000E+00
 -1      2825 4.82850E+01 7.90325E+00 0.00000E+00
 -1      2826 4.67850E+01 7.90325E+00 0.00000E+00
 -1      2827 4.60350E+01 9.20225E+00 0.00000E+00
 -1      2828 5.12850E+01 7.90325E+00 0.00000E+00
 -1      2829 4.97850E+01 7.90325E+00 0.00000E+00
 -1      2830 4.90350E+01 9.20225E+00 0.00000E+00
 -1      2831 5.42850E+01 7.90325E+00 0.00000E+00
 -1      2832 5.27850E+01 7.90325E+00 0.00000E+00
 -1      2833 5.20350E+01 9.20225E+00 0.00000E+00
 -1      2834 5.72850E+01 7.90325E+00 0.00000E+00
 -1      2835 5.57850E+01 7.90325E+00 0.00000E+00
 -1      2836 5.50350E+01 9.20225E+00 0.00000E+00
 -1      2837 6.02850E+01 7.90325E+00 0.00000E+00
 -1      2838 5.87850E+01 7.90325E+00 0.00000E+00
 -1      2839 5.80350E+01 9.20225E+00 0.00000E+00
 -1      2840 6.32850E+01 7.90325E+00 0.00000E+00
 -1      2841 6.17850E+01 7.90325E+00 0.00000E+00
 -1      2842 6.10350E+01 9.20225E+00 0.00000E+00
 -1      2843 6.62850E+01 7.90325E+00 0.00000E+00
 -1      2844 6.47850E+01 7.90325E+00 0.00000E+00
 -1      2845 6.40350E+01 9.20225E+00 0.00000E+00
 -1      2846 6.92850E+01 7.90325E+00 0.00000E+00
 -1      2847 6.77850E+01 7.90325E+00 0.00000E+00
 -1      2848 6.70350E+01 9.20225E+00 0.00000E+00
 -1      2849 7.22850E+01 7.90325E+00 0.00000E+00
 -1      2850 7.07850E+01 7.90325E+00 0.00000E+00
 -1      2851 7.00350E+01 9.20225E+00 0.00000E+00
 -1      2852 7.52850E+01 7.90325E+00 0.00000E+00
 -1      2853 7.37850E+01 7.90325E+00 0.00000E+00
 -1      2854 7.30350E+01 9.20225E+00 0.00000E+00
 -1      2855 7.82850E+01 7.90325E+00 0.00000E+00
 -1      2856 7.67850E+01 7.90325E+00 0.00000E+00
 -1      2857 7.60350E+01 9.20225E+00 0.00000E+00
 -1      2858 8.12850E+01 7.90325E+00 0.00000E+00
 -1      2859 7.97850E+01 7.90325E+00 0.00000E+00
 -1      2860 7.90350E+01 9.20225E+00 0.00000E+00
 -1      2861 8.42850E+01 7.90325E+00 0.00000E+00
 -1      2862 8.27850E+01 7.90325E+00 0.00000E+00
 -1      2863 8.20350E+01 9.20225E+00 0.00000E+00
 -1      2864 8.72850E+01 7.90325E+00 0.00000E+00
 -1      2865 8.57850E+01 7.90325E+00 0.00000E+00
 -1      2866 8.50350E+01 9.20225E+00 0.00000E+00
 -1      2867 9.02850E+01 7.90325E+00 0.00000E+00
 -1      2868 8.87850E+01 7.90325E+00 0.00000E+00
 -1      2869 8.80350E+01 9.20225E+00 0.00000E+00
 -1      2870 9.32850E+01 7.90325E+00 0.00000E+00
 -1      2871 9.17850E+01 7.90325E+00 0.00000E+00
 -1      2872 9.10350E+01 9.20225E+00 0.00000E+00
 -1      2873 9.62850E+01 7.90325E+00 0.00000E+00
 -1      2874 9.47850E+01 7.90325E+00 0.00000E+00
 -1      2875 9.40350E+01 9.20225E+00 0.00000E+00
 -1      2876 9.92850E+01 7.90325E+00 0.00000E+00
 -1      2877 9.77850E+01 7.90325E+00 0.00000E+00
 -1      2878 9.70350E+01 9.20225E+00 0.00000E+00
 -1      2879 1.02285E+02 7.90325E+00 0.00000E+00
 -1      2880 1.00785E+02 7.90325E+00 0.00000E+00
 -1      2881 1.00035E+02 9.20225E+00 0.00000E+00
 -1      2882 1.05285E+02 7.90325E+00 0.00000E+00
 -1      2883 1.03785E+02 7.90325E+00 0.00000E+00
 -1      2884 1.03035E+02 9.20225E+00 0.00000E+00
 -1      2885 1.08285E+02 7.90325E+00 0.00000E+00
 -1      2886 1.06785E+02 7.90325E+00 0.00000E+00
 -1      2887 1.06035E+02 9.20225E+00 0.00000E+00
 -1      2888 1.11285E+02 7.90325E+00 0.00000E+00
 -1      2889 1.09785E+02 7.90325E+00 0.00000E+00
 -1      2890 1.09035E+02 9.20225E+00 0.00000E+00
 -1      2891 1.14285E+02 7.90325E+00 0.00000E+00
 -1      2892 1.12785E+02 7.90325E+00 0.00000E+00
 -1      2893 1.12035E+02 9.20225E+00 0.00000E+00
 -1      2894 1.17285E+02 7.90325E+00 0.00000E+00
 -1      2895 1.15785E+02 7.90325E+00 0.00000E+00
 -1      2896 1.15035E+02 9.20225E+00 0.00000E+00
 -1      2897 1.20285E+02 7.90325E+00 0.00000E+00
 -1      2898 1.18785E+02 7.90325E+00 0.00000E+00
 -1      2899 1.18035E+02 9.20225E+00 0.00000E+00
 -1      2900 1.23285E+02 7.90325E+00 0.00000E+00
 -1      2901 1.21785E+02 7.90325E+00 0.00000E+00
 -1      2902 1.21035E+02 9.20225E+00 0.00000E+00
 -1      2903 1.26285E+02 7.90325E+00 0.00000E+00
 -1      2904 1.24785E+02 7.90325E+00 0.00000E+00
 -1      2905 1.24035E+02 9.20225E+00 0.00000E+00
 -1      2906 1.29285E+02 7.90325E+00 0.00000E+00
 -1      2907 1.27785E+02 7.90325E+00 0.00000E+00
 -1      2908 1.27035E+02 9.20225E+00 0.00000E+00
 -1      2909 1.32285E+02 7.90325E+00 0.00000E+00
 -1      2910 1.30785E+02 7.90325E+00 0.00000E+00
 -1      2911 1.30035E+02 9.20225E+00 0.00000E+00
 -1      2912 1.35285E+02 7.90325E+00 0.00000E+00
 -1      2913 1.33785E+02 7.90325E+00 0.00000E+00
 -1      2914 1.33035E+02 9.20225E+00 0.00000E+00
 -1      2915 1.38285E+02 7.90325E+00 0.00000E+00
 -1      2916 1.36785E+02 7.90325E+00 0.00000E+00
 -1      2917 1.36035E+02 9.20225E+00 0.00000E+00
 -1      2918 1.40953E+02 8.18394E+00 0.00000E+00
 -1      2919 1.39453E+02 8.18394E+00 0.00000E+00
 -1      2920 1.38703E+02 9.48294E+00 0.00000E+00
 -1      2921 1.41038E+02 1.00443E+01 0.00000E+00
 -1      2922 5.28813E+01 3.56748E+01 0.00000E+00
 -1      2923 5.16557E+01 3.49450E+01 0.00000E+00
 -1      2924 1.40907E+02 2.42875E+01 0.00000E+00
 -1      2925 1.40907E+02 2.28125E+01 0.00000E+00
 -1      2926 1.40907E+02 1.83875E+01 0.00000E+00
 -1      2927 1.40907E+02 1.69125E+01 0.00000E+00
 -1      2928 1.40907E+02 2.72375E+01 0.00000E+00
 -1      2929 1.40907E+02 2.57625E+01 0.00000E+00
 -1      2930 1.39608E+02 2.50250E+01 0.00000E+00
 -1      2931 1.40907E+02 2.13375E+01 0.00000E+00
 -1      2932 1.40907E+02 1.98625E+01 0.00000E+00
 -1      2933 1.39608E+02 1.91250E+01 0.00000E+00
 -1      2934 1.39608E+02 2.20750E+01 0.00000E+00
 -1      2935 1.40907E+02 3.01375E+01 0.00000E+00
 -1      2936 1.40907E+02 2.86875E+01 0.00000E+00
 -1      2937 1.39608E+02 2.79500E+01 0.00000E+00
 -1      2938 1.40907E+02 3.30875E+01 0.00000E+00
 -1      2939 1.40907E+02 3.16125E+01 0.00000E+00
 -1      2940 1.39608E+02 3.08750E+01 0.00000E+00
 -1      2941 1.40907E+02 3.60375E+01 0.00000E+00
 -1      2942 1.40907E+02 3.45625E+01 0.00000E+00
 -1      2943 1.39608E+02 3.38250E+01 0.00000E+00
 -1      2944 1.41192E+02 3.82207E+01 0.00000E+00
 -1      2945 1.82850E+01 7.90325E+00 0.00000E+00
 -1      2946 1.67850E+01 7.90325E+00 0.00000E+00
 -1      2947 1.60350E+01 9.20225E+00 0.00000E+00
 -1      2948 1.90350E+01 9.20225E+00 0.00000E+00
 -1      2949 5.07154E+01 3.44396E+01 0.00000E+00
 -1      2950 4.97751E+01 3.39341E+01 0.00000E+00
 -1      2951 5.08466E+01 3.56132E+01 0.00000E+00
 -1      2952 6.70918E+01 1.78837E+01 0.00000E+00
 -1      2953 6.74701E+01 1.89095E+01 0.00000E+00
 -1      2954 6.33881E+01 1.38306E+01 0.00000E+00
 -1      2955 6.44606E+01 1.44148E+01 0.00000E+00
 -1      2956 6.80940E+01 2.56756E+01 0.00000E+00
 -1      2957 6.79254E+01 2.64904E+01 0.00000E+00
 -1      2958 5.11211E+01 1.21376E+01 0.00000E+00
 -1      2959 5.25227E+01 1.18775E+01 0.00000E+00
 -1      2960 6.75183E+01 2.75919E+01 0.00000E+00
 -1      2961 6.70455E+01 2.87059E+01 0.00000E+00
 -1      2962 2.72850E+01 7.90325E+00 0.00000E+00
 -1      2963 2.57850E+01 7.90325E+00 0.00000E+00
 -1      2964 2.80350E+01 9.20225E+00 0.00000E+00
 -1      2965 2.42850E+01 7.90325E+00 0.00000E+00
 -1      2966 2.27850E+01 7.90325E+00 0.00000E+00
 -1      2967 2.50350E+01 9.20225E+00 0.00000E+00
 -1      2968 1.14000E+01 4.09070E+01 0.00000E+00
 -1      2969 1.29000E+01 4.09070E+01 0.00000E+00
 -1      2970 1.36500E+01 3.96080E+01 0.00000E+00
 -1      2971 6.12776E+01 1.29895E+01 0.00000E+00
 -1      2972 6.22421E+01 1.34686E+01 0.00000E+00
 -1      2973 6.64856E+01 3.00371E+01 0.00000E+00
 -1      2974 6.57299E+01 3.10976E+01 0.00000E+00
 -1      2975 9.09300E+00 1.68813E+01 0.00000E+00
 -1      2976 9.09300E+00 1.83563E+01 0.00000E+00
 -1      2977 1.03920E+01 1.90812E+01 0.00000E+00
 -1      2978 1.03920E+01 1.61437E+01 0.00000E+00
 -1      2979 4.48179E+01 2.61347E+01 0.00000E+00
 -1      2980 4.46269E+01 2.50586E+01 0.00000E+00
 -1      2981 6.09103E+01 3.47484E+01 0.00000E+00
 -1      2982 5.97216E+01 3.51688E+01 0.00000E+00
 -1      2983 9.09300E+00 3.15875E+01 0.00000E+00
 -1      2984 9.09300E+00 3.30625E+01 0.00000E+00
 -1      2985 4.53781E+01 1.83127E+01 0.00000E+00
 -1      2986 4.59844E+01 1.72907E+01 0.00000E+00
 -1      2987 5.60008E+01 1.06709E+01 0.00000E+00
 -1      2988 5.73223E+01 1.08016E+01 0.00000E+00
 -1      2989 4.45494E+01 2.09359E+01 0.00000E+00
 -1      2990 4.48642E+01 1.96866E+01 0.00000E+00
 -1      2991 4.84756E+01 3.31904E+01 0.00000E+00
 -1      2992 4.73212E+01 3.23755E+01 0.00000E+00
 -1      2993 4.65538E+01 1.62238E+01 0.00000E+00
 -1      2994 4.71811E+01 1.52762E+01 0.00000E+00
 -1      2995 4.53947E+01 2.79311E+01 0.00000E+00
 -1      2996 4.51063E+01 2.70329E+01 0.00000E+00
 -1      2997 4.41664E+01 2.66447E+01 0.00000E+00
 -1      2998 6.32380E+01 3.35503E+01 0.00000E+00
 -1      2999 6.22435E+01 3.41916E+01 0.00000E+00
 -1      3000 6.55752E+01 1.56560E+01 0.00000E+00
 -1      3001 6.62923E+01 1.67152E+01 0.00000E+00
 -1      3002 6.48130E+01 3.20358E+01 0.00000E+00
 -1      3003 6.41101E+01 3.26791E+01 0.00000E+00
 -1      3004 5.90517E+01 1.18931E+01 0.00000E+00
 -1      3005 6.02132E+01 1.24329E+01 0.00000E+00
 -1      3006 9.09300E+00 3.45313E+01 0.00000E+00
 -1      3007 9.09300E+00 3.60000E+01 0.00000E+00
 -1      3008 1.03920E+01 3.37938E+01 0.00000E+00
 -1      3009 1.03920E+01 2.49750E+01 0.00000E+00
 -1      3010 9.09300E+00 2.57000E+01 0.00000E+00
 -1      3011 9.09300E+00 2.71750E+01 0.00000E+00
 -1      3012 9.66450E+00 9.72612E+00 0.00000E+00
 -1      3013 6.90377E+01 2.43564E+01 0.00000E+00
 -1      3014 6.85659E+01 2.50160E+01 0.00000E+00
 -1      3015 6.92803E+01 2.55887E+01 0.00000E+00
 -1      3016 1.39164E+02 3.96372E+01 0.00000E+00
 -1      3017 6.32687E+01 1.28605E+01 0.00000E+00
 -1      3018 4.39385E+01 2.43379E+01 0.00000E+00
 -1      3019 6.80744E+01 1.94841E+01 0.00000E+00
 -1      3020 6.86787E+01 2.00586E+01 0.00000E+00
 -1      3021 6.88470E+01 1.86164E+01 0.00000E+00
 -1      3022 4.60263E+01 3.20446E+01 0.00000E+00
 -1      3023 4.47314E+01 3.17137E+01 0.00000E+00
 -1      3024 4.60123E+01 3.32895E+01 0.00000E+00
 -1      3025 6.59575E+01 3.20518E+01 0.00000E+00
 -1      3026 2.20350E+01 9.20225E+00 0.00000E+00
 -1      3027 5.37823E+01 3.63251E+01 0.00000E+00
 -1      3028 5.26879E+01 3.67690E+01 0.00000E+00
 -1      3029 1.41038E+02 1.15068E+01 0.00000E+00
 -1      3030 1.39870E+02 1.12261E+01 0.00000E+00
 -1      3031 1.41038E+02 1.29693E+01 0.00000E+00
 -1      3032 6.55293E+01 1.44636E+01 0.00000E+00
 -1      3033 6.65980E+01 1.45125E+01 0.00000E+00
 -1      3034 6.54834E+01 1.32713E+01 0.00000E+00
 -1      3035 4.33655E+01 2.21053E+01 0.00000E+00
 -1      3036 4.39575E+01 2.15206E+01 0.00000E+00
 -1      3037 4.33239E+01 2.06966E+01 0.00000E+00
 -1      3038 4.46002E+01 2.90058E+01 0.00000E+00
 -1      3039 6.19631E+01 3.52893E+01 0.00000E+00
 -1      3040 5.83636E+01 3.55973E+01 0.00000E+00
 -1      3041 5.71541E+01 3.57822E+01 0.00000E+00
 -1      3042 1.39529E+02 3.85602E+01 0.00000E+00
 -1      3043 1.40542E+02 3.71145E+01 0.00000E+00
 -1      3044 1.39243E+02 3.63770E+01 0.00000E+00
 -1      3045 1.38514E+02 3.85310E+01 0.00000E+00
 -1      3046 4.55131E+01 1.62973E+01 0.00000E+00
 -1      3047 4.86067E+01 3.43641E+01 0.00000E+00
 -1      3048 6.74433E+01 1.68733E+01 0.00000E+00
 -1      3049 5.45008E+01 1.06709E+01 0.00000E+00
 -1      3050 6.81147E+01 2.23550E+01 0.00000E+00
 -1      3051 6.88138E+01 2.30669E+01 0.00000E+00
 -1      3052 6.86053E+01 2.16382E+01 0.00000E+00
 -1      3053 4.44298E+01 1.87381E+01 0.00000E+00
 -1      3054 6.84013E+01 2.73497E+01 0.00000E+00
 -1      3055 6.74343E+01 2.97824E+01 0.00000E+00
 -1      3056 1.09635E+01 1.04636E+01 0.00000E+00
 -1      3057 4.73079E+01 1.40794E+01 0.00000E+00
 -1      3058 4.74347E+01 1.28825E+01 0.00000E+00
 -1      3059 4.62093E+01 1.40335E+01 0.00000E+00
 -1      3060 1.40973E+02 1.56722E+01 0.00000E+00
 -1      3061 1.40973E+02 1.42097E+01 0.00000E+00
 -1      3062 1.39805E+02 1.39290E+01 0.00000E+00
 -1      3063 1.39674E+02 1.64097E+01 0.00000E+00
 -1      3064 9.09300E+00 2.86437E+01 0.00000E+00
 -1      3065 9.09300E+00 3.01187E+01 0.00000E+00
 -1      3066 1.03920E+01 3.08563E+01 0.00000E+00
 -1      3067 1.03920E+01 2.79188E+01 0.00000E+00
 -1      3068 6.10583E+01 1.19420E+01 0.00000E+00
 -1      3069 5.92718E+01 3.62746E+01 0.00000E+00
 -1      3070 6.41684E+01 3.38613E+01 0.00000E+00
 -1      3071 5.60729E+01 3.59612E+01 0.00000E+00
 -1      3072 5.48635E+01 3.61460E+01 0.00000E+00
 -1      3073 5.46701E+01 3.72403E+01 0.00000E+00
 -1      3074 5.68325E+01 3.68822E+01 0.00000E+00
 -1      3075 9.15750E+00 3.77359E+01 0.00000E+00
 -1      3076 9.22200E+00 4.02061E+01 0.00000E+00
 -1      3077 1.05855E+01 4.04701E+01 0.00000E+00
 -1      3078 1.04565E+01 3.69984E+01 0.00000E+00
 -1      3079 1.13355E+01 3.91711E+01 0.00000E+00
 -1      3080 1.16910E+01 1.24625E+01 0.00000E+00
 -1      3081 1.16910E+01 1.39375E+01 0.00000E+00
 -1      3082 1.59000E+01 3.83090E+01 0.00000E+00
 -1      3083 1.74000E+01 3.83090E+01 0.00000E+00
 -1      3084 5.82644E+01 1.02938E+01 0.00000E+00
 -1      3085 1.89000E+01 3.83090E+01 0.00000E+00
 -1      3086 2.04000E+01 3.83090E+01 0.00000E+00
 -1      3087 1.81500E+01 3.70100E+01 0.00000E+00
 -1      3088 2.19000E+01 3.83090E+01 0.00000E+00
 -1      3089 2.34000E+01 3.83090E+01 0.00000E+00
 -1      3090 2.11500E+01 3.70100E+01 0.00000E+00
 -1      3091 2.49000E+01 3.83090E+01 0.00000E+00
 -1      3092 2.64000E+01 3.83090E+01 0.00000E+00
 -1      3093 2.41500E+01 3.70100E+01 0.00000E+00
 -1      3094 2.79000E+01 3.83090E+01 0.00000E+00
 -1      3095 2.94000E+01 3.83090E+01 0.00000E+00
 -1      3096 2.71500E+01 3.70100E+01 0.00000E+00
 -1      3097 3.09000E+01 3.83090E+01 0.00000E+00
 -1      3098 3.24000E+01 3.83090E+01 0.00000E+00
 -1      3099 3.01500E+01 3.70100E+01 0.00000E+00
 -1      3100 3.39000E+01 3.83090E+01 0.00000E+00
 -1      3101 3.54000E+01 3.83090E+01 0.00000E+00
 -1      3102 3.31500E+01 3.70100E+01 0.00000E+00
 -1      3103 3.69000E+01 3.83090E+01 0.00000E+00
 -1      3104 3.84000E+01 3.83090E+01 0.00000E+00
 -1      3105 3.61500E+01 3.70100E+01 0.00000E+00
 -1      3106 3.99000E+01 3.83090E+01 0.00000E+00
 -1      3107 4.14000E+01 3.83090E+01 0.00000E+00
 -1      3108 3.91500E+01 3.70100E+01 0.00000E+00
 -1      3109 4.29000E+01 3.83090E+01 0.00000E+00
 -1      3110 4.44000E+01 3.83090E+01 0.00000E+00
 -1      3111 4.21500E+01 3.70100E+01 0.00000E+00
 -1      3112 4.59000E+01 3.83090E+01 0.00000E+00
 -1      3113 4.74000E+01 3.83090E+01 0.00000E+00
 -1      3114 4.51500E+01 3.70100E+01 0.00000E+00
 -1      3115 5.23695E+01 3.85137E+01 0.00000E+00
 -1      3116 5.38695E+01 3.85137E+01 0.00000E+00
 -1      3117 5.49507E+01 3.83346E+01 0.00000E+00
 -1      3118 5.64507E+01 3.83346E+01 0.00000E+00
 -1      3119 5.75318E+01 3.81556E+01 0.00000E+00
 -1      3120 5.90318E+01 3.81556E+01 0.00000E+00
 -1      3121 6.03899E+01 3.77270E+01 0.00000E+00
 -1      3122 6.18899E+01 3.77270E+01 0.00000E+00
 -1      3123 6.69000E+01 3.83090E+01 0.00000E+00
 -1      3124 6.84000E+01 3.83090E+01 0.00000E+00
 -1      3125 6.99000E+01 3.83090E+01 0.00000E+00
 -1      3126 7.14000E+01 3.83090E+01 0.00000E+00
 -1      3127 6.91500E+01 3.70100E+01 0.00000E+00
 -1      3128 7.29000E+01 3.83090E+01 0.00000E+00
 -1      3129 7.44000E+01 3.83090E+01 0.00000E+00
 -1      3130 7.21500E+01 3.70100E+01 0.00000E+00
 -1      3131 7.59000E+01 3.83090E+01 0.00000E+00
 -1      3132 7.74000E+01 3.83090E+01 0.00000E+00
 -1      3133 7.51500E+01 3.70100E+01 0.00000E+00
 -1      3134 7.89000E+01 3.83090E+01 0.00000E+00
 -1      3135 8.04000E+01 3.83090E+01 0.00000E+00
 -1      3136 7.81500E+01 3.70100E+01 0.00000E+00
 -1      3137 8.19000E+01 3.83090E+01 0.00000E+00
 -1      3138 8.34000E+01 3.83090E+01 0.00000E+00
 -1      3139 8.11500E+01 3.70100E+01 0.00000E+00
 -1      3140 8.49000E+01 3.83090E+01 0.00000E+00
 -1      3141 8.64000E+01 3.83090E+01 0.00000E+00
 -1      3142 8.41500E+01 3.70100E+01 0.00000E+00
 -1      3143 8.79000E+01 3.83090E+01 0.00000E+00
 -1      3144 8.94000E+01 3.83090E+01 0.00000E+00
 -1      3145 8.71500E+01 3.70100E+01 0.00000E+00
 -1      3146 9.09000E+01 3.83090E+01 0.00000E+00
 -1      3147 9.24000E+01 3.83090E+01 0.00000E+00
 -1      3148 9.01500E+01 3.70100E+01 0.00000E+00
 -1      3149 9.39000E+01 3.83090E+01 0.00000E+00
 -1      3150 9.54000E+01 3.83090E+01 0.00000E+00
 -1      3151 9.31500E+01 3.70100E+01 0.00000E+00
 -1      3152 9.69000E+01 3.83090E+01 0.00000E+00
 -1      3153 9.84000E+01 3.83090E+01 0.00000E+00
 -1      3154 9.61500E+01 3.70100E+01 0.00000E+00
 -1      3155 9.99000E+01 3.83090E+01 0.00000E+00
 -1      3156 1.01400E+02 3.83090E+01 0.00000E+00
 -1      3157 9.91500E+01 3.70100E+01 0.00000E+00
 -1      3158 1.02900E+02 3.83090E+01 0.00000E+00
 -1      3159 1.04400E+02 3.83090E+01 0.00000E+00
 -1      3160 1.02150E+02 3.70100E+01 0.00000E+00
 -1      3161 1.05900E+02 3.83090E+01 0.00000E+00
 -1      3162 1.07400E+02 3.83090E+01 0.00000E+00
 -1      3163 1.05150E+02 3.70100E+01 0.00000E+00
 -1      3164 1.08900E+02 3.83090E+01 0.00000E+00
 -1      3165 1.10400E+02 3.83090E+01 0.00000E+00
 -1      3166 1.08150E+02 3.70100E+01 0.00000E+00
 -1      3167 1.11900E+02 3.83090E+01 0.00000E+00
 -1      3168 1.13400E+02 3.83090E+01 0.00000E+00
 -1      3169 1.11150E+02 3.70100E+01 0.00000E+00
 -1      3170 1.14900E+02 3.83090E+01 0.00000E+00
 -1      3171 1.16400E+02 3.83090E+01 0.00000E+00
 -1      3172 1.14150E+02 3.70100E+01 0.00000E+00
 -1      3173 1.17900E+02 3.83090E+01 0.00000E+00
 -1      3174 1.19400E+02 3.83090E+01 0.00000E+00
 -1      3175 1.17150E+02 3.70100E+01 0.00000E+00
 -1      3176 1.20900E+02 3.83090E+01 0.00000E+00
 -1      3177 1.22400E+02 3.83090E+01 0.00000E+00
 -1      3178 1.20150E+02 3.70100E+01 0.00000E+00
 -1      3179 1.23900E+02 3.83090E+01 0.00000E+00
 -1      3180 1.25400E+02 3.83090E+01 0.00000E+00
 -1      3181 1.23150E+02 3.70100E+01 0.00000E+00
 -1      3182 1.26900E+02 3.83090E+01 0.00000E+00
 -1      3183 1.28400E+02 3.83090E+01 0.00000E+00
 -1      3184 1.26150E+02 3.70100E+01 0.00000E+00
 -1      3185 1.29900E+02 3.83090E+01 0.00000E+00
 -1      3186 1.31400E+02 3.83090E+01 0.00000E+00
 -1      3187 1.29150E+02 3.70100E+01 0.00000E+00
 -1      3188 1.32900E+02 3.83090E+01 0.00000E+00
 -1      3189 1.34400E+02 3.83090E+01 0.00000E+00
 -1      3190 1.32150E+02 3.70100E+01 0.00000E+00
 -1      3191 1.35707E+02 3.84200E+01 0.00000E+00
 -1      3192 1.37207E+02 3.84200E+01 0.00000E+00
 -1      3193 1.37572E+02 3.73430E+01 0.00000E+00
 -1      3194 1.34957E+02 3.71210E+01 0.00000E+00
 -1      3195 5.14684E+01 3.78633E+01 0.00000E+00
 -1      3196 3.17850E+01 1.05013E+01 0.00000E+00
 -1      3197 3.02850E+01 1.05013E+01 0.00000E+00
 -1      3198 4.07850E+01 1.05013E+01 0.00000E+00
 -1      3199 3.92850E+01 1.05013E+01 0.00000E+00
 -1      3200 4.37850E+01 1.05013E+01 0.00000E+00
 -1      3201 4.22850E+01 1.05013E+01 0.00000E+00
 -1      3202 4.15350E+01 1.18003E+01 0.00000E+00
 -1      3203 4.69356E+01 1.10195E+01 0.00000E+00
 -1      3204 4.54356E+01 1.10195E+01 0.00000E+00
 -1      3205 5.26002E+01 1.01833E+01 0.00000E+00
 -1      3206 5.11002E+01 1.01833E+01 0.00000E+00
 -1      3207 6.49749E+01 1.12124E+01 0.00000E+00
 -1      3208 6.34748E+01 1.12124E+01 0.00000E+00
 -1      3209 7.07850E+01 1.05013E+01 0.00000E+00
 -1      3210 6.92850E+01 1.05013E+01 0.00000E+00
 -1      3211 7.37850E+01 1.05013E+01 0.00000E+00
 -1      3212 7.22850E+01 1.05013E+01 0.00000E+00
 -1      3213 7.15350E+01 1.18003E+01 0.00000E+00
 -1      3214 7.67850E+01 1.05013E+01 0.00000E+00
 -1      3215 7.52850E+01 1.05013E+01 0.00000E+00
 -1      3216 7.45350E+01 1.18003E+01 0.00000E+00
 -1      3217 7.97850E+01 1.05013E+01 0.00000E+00
 -1      3218 7.82850E+01 1.05013E+01 0.00000E+00
 -1      3219 7.75350E+01 1.18003E+01 0.00000E+00
 -1      3220 8.27850E+01 1.05013E+01 0.00000E+00
 -1      3221 8.12850E+01 1.05013E+01 0.00000E+00
 -1      3222 8.05350E+01 1.18003E+01 0.00000E+00
 -1      3223 8.57850E+01 1.05013E+01 0.00000E+00
 -1      3224 8.42850E+01 1.05013E+01 0.00000E+00
 -1      3225 8.35350E+01 1.18003E+01 0.00000E+00
 -1      3226 8.87850E+01 1.05013E+01 0.00000E+00
 -1      3227 8.72850E+01 1.05013E+01 0.00000E+00
 -1      3228 8.65350E+01 1.18003E+01 0.00000E+00
 -1      3229 9.17850E+01 1.05013E+01 0.00000E+00
 -1      3230 9.02850E+01 1.05013E+01 0.00000E+00
 -1      3231 8.95350E+01 1.18003E+01 0.00000E+00
 -1      3232 9.47850E+01 1.05013E+01 0.00000E+00
 -1      3233 9.32850E+01 1.05013E+01 0.00000E+00
 -1      3234 9.25350E+01 1.18003E+01 0.00000E+00
 -1      3235 9.77850E+01 1.05013E+01 0.00000E+00
 -1      3236 9.62850E+01 1.05013E+01 0.00000E+00
 -1      3237 9.55350E+01 1.18003E+01 0.00000E+00
 -1      3238 1.00785E+02 1.05013E+01 0.00000E+00
 -1      3239 9.92850E+01 1.05013E+01 0.00000E+00
 -1      3240 9.85350E+01 1.18003E+01 0.00000E+00
 -1      3241 1.03785E+02 1.05013E+01 0.00000E+00
 -1      3242 1.02285E+02 1.05013E+01 0.00000E+00
 -1      3243 1.01535E+02 1.18003E+01 0.00000E+00
 -1      3244 1.06785E+02 1.05013E+01 0.00000E+00
 -1      3245 1.05285E+02 1.05013E+01 0.00000E+00
 -1      3246 1.04535E+02 1.18003E+01 0.00000E+00
 -1      3247 1.09785E+02 1.05013E+01 0.00000E+00
 -1      3248 1.08285E+02 1.05013E+01 0.00000E+00
 -1      3249 1.07535E+02 1.18003E+01 0.00000E+00
 -1      3250 1.12785E+02 1.05013E+01 0.00000E+00
 -1      3251 1.11285E+02 1.05013E+01 0.00000E+00
 -1      3252 1.10535E+02 1.18003E+01 0.00000E+00
 -1      3253 1.15785E+02 1.05013E+01 0.00000E+00
 -1      3254 1.14285E+02 1.05013E+01 0.00000E+00
 -1      3255 1.13535E+02 1.18003E+01 0.00000E+00
 -1      3256 1.18785E+02 1.05013E+01 0.00000E+00
 -1      3257 1.17285E+02 1.05013E+01 0.00000E+00
 -1      3258 1.16535E+02 1.18003E+01 0.00000E+00
 -1      3259 1.21785E+02 1.05013E+01 0.00000E+00
 -1      3260 1.20285E+02 1.05013E+01 0.00000E+00
 -1      3261 1.19535E+02 1.18003E+01 0.00000E+00
 -1      3262 1.24785E+02 1.05013E+01 0.00000E+00
 -1      3263 1.23285E+02 1.05013E+01 0.00000E+00
 -1      3264 1.22535E+02 1.18003E+01 0.00000E+00
 -1      3265 1.27785E+02 1.05013E+01 0.00000E+00
 -1      3266 1.26285E+02 1.05013E+01 0.00000E+00
 -1      3267 1.25535E+02 1.18003E+01 0.00000E+00
 -1      3268 1.30785E+02 1.05013E+01 0.00000E+00
 -1      3269 1.29285E+02 1.05013E+01 0.00000E+00
 -1      3270 1.28535E+02 1.18003E+01 0.00000E+00
 -1      3271 1.33785E+02 1.05013E+01 0.00000E+00
 -1      3272 1.32285E+02 1.05013E+01 0.00000E+00
 -1      3273 1.31535E+02 1.18003E+01 0.00000E+00
 -1      3274 1.36785E+02 1.05013E+01 0.00000E+00
 -1      3275 1.35285E+02 1.05013E+01 0.00000E+00
 -1      3276 1.34535E+02 1.18003E+01 0.00000E+00
 -1      3277 1.38912E+02 1.10040E+01 0.00000E+00
 -1      3278 1.37744E+02 1.07233E+01 0.00000E+00
 -1      3279 1.36994E+02 1.20223E+01 0.00000E+00
 -1      3280 1.38912E+02 1.24665E+01 0.00000E+00
 -1      3281 1.38309E+02 2.86750E+01 0.00000E+00
 -1      3282 1.38309E+02 2.72250E+01 0.00000E+00
 -1      3283 1.38309E+02 2.57500E+01 0.00000E+00
 -1      3284 1.38309E+02 2.42750E+01 0.00000E+00
 -1      3285 1.37010E+02 2.64750E+01 0.00000E+00
 -1      3286 4.99542E+01 1.21237E+01 0.00000E+00
 -1      3287 5.04986E+01 1.11505E+01 0.00000E+00
 -1      3288 6.54474E+01 3.42695E+01 0.00000E+00
 -1      3289 6.45753E+01 3.51407E+01 0.00000E+00
 -1      3290 4.42501E+01 1.63086E+01 0.00000E+00
 -1      3291 4.48195E+01 1.52417E+01 0.00000E+00
 -1      3292 4.30515E+01 2.50053E+01 0.00000E+00
 -1      3293 4.31120E+01 2.35968E+01 0.00000E+00
 -1      3294 4.34859E+01 2.98551E+01 0.00000E+00
 -1      3295 4.33406E+01 2.83922E+01 0.00000E+00
 -1      3296 5.34575E+01 1.08964E+01 0.00000E+00
 -1      3297 2.87850E+01 1.05013E+01 0.00000E+00
 -1      3298 2.72850E+01 1.05013E+01 0.00000E+00
 -1      3299 2.95350E+01 1.18003E+01 0.00000E+00
 -1      3300 6.85047E+01 2.94492E+01 0.00000E+00
 -1      3301 6.79448E+01 3.07805E+01 0.00000E+00
 -1      3302 1.38309E+02 3.16250E+01 0.00000E+00
 -1      3303 1.38309E+02 3.01500E+01 0.00000E+00
 -1      3304 1.37010E+02 2.94250E+01 0.00000E+00
 -1      3305 1.38309E+02 3.45750E+01 0.00000E+00
 -1      3306 1.38309E+02 3.31000E+01 0.00000E+00
 -1      3307 1.37010E+02 3.23750E+01 0.00000E+00
 -1      3308 1.26488E+01 1.02017E+01 0.00000E+00
 -1      3309 1.20772E+01 1.14631E+01 0.00000E+00
 -1      3310 1.33763E+01 1.22006E+01 0.00000E+00
 -1      3311 1.41488E+01 1.02017E+01 0.00000E+00
 -1      3312 3.77850E+01 1.05013E+01 0.00000E+00
 -1      3313 3.62850E+01 1.05013E+01 0.00000E+00
 -1      3314 3.85350E+01 1.18003E+01 0.00000E+00
 -1      3315 1.29000E+01 3.83090E+01 0.00000E+00
 -1      3316 1.44000E+01 3.83090E+01 0.00000E+00
 -1      3317 1.51500E+01 3.70100E+01 0.00000E+00
 -1      3318 2.57850E+01 1.05013E+01 0.00000E+00
 -1      3319 2.42850E+01 1.05013E+01 0.00000E+00
 -1      3320 2.65350E+01 1.18003E+01 0.00000E+00
 -1      3321 6.32231E+01 3.71703E+01 0.00000E+00
 -1      3322 3.47850E+01 1.05013E+01 0.00000E+00
 -1      3323 3.32850E+01 1.05013E+01 0.00000E+00
 -1      3324 3.25350E+01 1.18003E+01 0.00000E+00
 -1      3325 3.55350E+01 1.18003E+01 0.00000E+00
 -1      3326 2.27850E+01 1.05013E+01 0.00000E+00
 -1      3327 2.12850E+01 1.05013E+01 0.00000E+00
 -1      3328 2.35350E+01 1.18003E+01 0.00000E+00
 -1      3329 4.82781E+01 3.60589E+01 0.00000E+00
 -1      3330 4.69786E+01 3.53152E+01 0.00000E+00
 -1      3331 6.95664E+01 2.71544E+01 0.00000E+00
 -1      3332 6.91593E+01 2.82559E+01 0.00000E+00
 -1      3333 4.89325E+01 1.20325E+01 0.00000E+00
 -1      3334 6.72813E+01 3.23930E+01 0.00000E+00
 -1      3335 6.63643E+01 3.33312E+01 0.00000E+00
 -1      3336 6.67712E+01 3.46106E+01 0.00000E+00
 -1      3337 4.33403E+01 2.71479E+01 0.00000E+00
 -1      3338 4.30519E+01 2.62497E+01 0.00000E+00
 -1      3339 4.22254E+01 2.55086E+01 0.00000E+00
 -1      3340 4.22261E+01 2.79972E+01 0.00000E+00
 -1      3341 1.16910E+01 2.12875E+01 0.00000E+00
 -1      3342 1.16910E+01 2.27625E+01 0.00000E+00
 -1      3343 4.32223E+01 1.90564E+01 0.00000E+00
 -1      3344 4.37362E+01 1.76825E+01 0.00000E+00
 -1      3345 4.30426E+01 1.66269E+01 0.00000E+00
 -1      3346 6.78205E+01 1.57575E+01 0.00000E+00
 -1      3347 6.86199E+01 1.69261E+01 0.00000E+00
 -1      3348 1.12710E+01 3.74352E+01 0.00000E+00
 -1      3349 1.20855E+01 3.78721E+01 0.00000E+00
 -1      3350 1.12065E+01 3.56994E+01 0.00000E+00
 -1      3351 5.00891E+01 3.84829E+01 0.00000E+00
 -1      3352 5.04075E+01 3.67383E+01 0.00000E+00
 -1      3353 4.94672E+01 3.62328E+01 0.00000E+00
 -1      3354 4.85891E+01 3.84829E+01 0.00000E+00
 -1      3355 4.99334E+01 1.01695E+01 0.00000E+00
 -1      3356 6.45021E+01 3.75784E+01 0.00000E+00
 -1      3357 4.84334E+01 1.01695E+01 0.00000E+00
 -1      3358 1.16910E+01 2.42375E+01 0.00000E+00
 -1      3359 1.16910E+01 2.57125E+01 0.00000E+00
 -1      3360 1.29900E+01 2.35000E+01 0.00000E+00
 -1      3361 7.05101E+01 2.58352E+01 0.00000E+00
 -1      3362 7.00383E+01 2.64948E+01 0.00000E+00
 -1      3363 7.07962E+01 2.74010E+01 0.00000E+00
 -1      3364 6.95283E+01 2.36395E+01 0.00000E+00
 -1      3365 7.02428E+01 2.42122E+01 0.00000E+00
 -1      3366 7.00189E+01 2.29227E+01 0.00000E+00
 -1      3367 2.05350E+01 1.18003E+01 0.00000E+00
 -1      3368 1.97850E+01 1.05013E+01 0.00000E+00
 -1      3369 1.82850E+01 1.05013E+01 0.00000E+00
 -1      3370 5.97644E+01 1.02938E+01 0.00000E+00
 -1      3371 6.92242E+01 1.75006E+01 0.00000E+00
 -1      3372 6.98285E+01 1.80752E+01 0.00000E+00
 -1      3373 6.96014E+01 1.63848E+01 0.00000E+00
 -1      3374 4.56837E+01 3.49843E+01 0.00000E+00
 -1      3375 1.12065E+01 3.27619E+01 0.00000E+00
 -1      3376 1.12065E+01 3.42306E+01 0.00000E+00
 -1      3377 1.20210E+01 3.46675E+01 0.00000E+00
 -1      3378 6.23289E+01 1.08504E+01 0.00000E+00
 -1      3379 6.83517E+01 3.20599E+01 0.00000E+00
 -1      3380 4.26303E+01 1.96411E+01 0.00000E+00
 -1      3381 4.19367E+01 1.85855E+01 0.00000E+00
 -1      3382 4.20384E+01 2.02257E+01 0.00000E+00
 -1      3383 6.60021E+01 3.75784E+01 0.00000E+00
 -1      3384 4.46856E+01 1.23185E+01 0.00000E+00
 -1      3385 1.69669E+01 1.03515E+01 0.00000E+00
 -1      3386 1.54669E+01 1.03515E+01 0.00000E+00
 -1      3387 1.50806E+01 1.13509E+01 0.00000E+00
 -1      3388 1.77169E+01 1.16505E+01 0.00000E+00
 -1      3389 6.12644E+01 1.02938E+01 0.00000E+00
 -1      3390 6.82935E+01 1.25602E+01 0.00000E+00
 -1      3391 6.75435E+01 1.12612E+01 0.00000E+00
 -1      3392 6.60435E+01 1.12612E+01 0.00000E+00
 -1      3393 1.38309E+02 1.98625E+01 0.00000E+00
 -1      3394 1.38309E+02 1.83875E+01 0.00000E+00
 -1      3395 1.12065E+01 2.98244E+01 0.00000E+00
 -1      3396 1.12065E+01 3.12931E+01 0.00000E+00
 -1      3397 1.20210E+01 3.17300E+01 0.00000E+00
 -1      3398 1.38309E+02 2.28062E+01 0.00000E+00
 -1      3399 1.38309E+02 2.13312E+01 0.00000E+00
 -1      3400 1.37010E+02 2.05938E+01 0.00000E+00
 -1      3401 1.37010E+02 2.35313E+01 0.00000E+00
 -1      3402 6.77746E+01 1.45652E+01 0.00000E+00
 -1      3403 4.78339E+01 1.19867E+01 0.00000E+00
 -1      3404 4.49463E+01 1.40448E+01 0.00000E+00
 -1      3405 1.37758E+02 3.64975E+01 0.00000E+00
 -1      3406 1.38123E+02 3.54205E+01 0.00000E+00
 -1      3407 1.36824E+02 3.46955E+01 0.00000E+00
 -1      3408 1.36451E+02 3.63865E+01 0.00000E+00
 -1      3409 1.37076E+02 1.78847E+01 0.00000E+00
 -1      3410 1.38375E+02 1.71472E+01 0.00000E+00
 -1      3411 1.38440E+02 1.59068E+01 0.00000E+00
 -1      3412 4.34719E+01 3.11001E+01 0.00000E+00
 -1      3413 4.22124E+01 3.04865E+01 0.00000E+00
 -1      3414 4.34579E+01 3.23450E+01 0.00000E+00
 -1      3415 1.16910E+01 1.98188E+01 0.00000E+00
 -1      3416 1.29900E+01 2.05562E+01 0.00000E+00
 -1      3417 1.16910E+01 1.83500E+01 0.00000E+00
 -1      3418 6.93778E+01 2.07705E+01 0.00000E+00
 -1      3419 7.00770E+01 2.14824E+01 0.00000E+00
 -1      3420 7.01504E+01 1.99028E+01 0.00000E+00
 -1      3421 1.16910E+01 1.54094E+01 0.00000E+00
 -1      3422 1.16910E+01 1.68781E+01 0.00000E+00
 -1      3423 1.29900E+01 1.76156E+01 0.00000E+00
 -1      3424 1.29900E+01 1.46719E+01 0.00000E+00
 -1      3425 6.96698E+01 2.92540E+01 0.00000E+00
 -1      3426 1.28355E+01 3.65731E+01 0.00000E+00
 -1      3427 4.78391E+01 3.71839E+01 0.00000E+00
 -1      3428 1.74000E+01 3.57110E+01 0.00000E+00
 -1      3429 1.89000E+01 3.57110E+01 0.00000E+00
 -1      3430 2.04000E+01 3.57110E+01 0.00000E+00
 -1      3431 2.19000E+01 3.57110E+01 0.00000E+00
 -1      3432 1.96500E+01 3.44120E+01 0.00000E+00
 -1      3433 2.34000E+01 3.57110E+01 0.00000E+00
 -1      3434 2.49000E+01 3.57110E+01 0.00000E+00
 -1      3435 2.26500E+01 3.44120E+01 0.00000E+00
 -1      3436 2.64000E+01 3.57110E+01 0.00000E+00
 -1      3437 2.79000E+01 3.57110E+01 0.00000E+00
 -1      3438 2.56500E+01 3.44120E+01 0.00000E+00
 -1      3439 2.94000E+01 3.57110E+01 0.00000E+00
 -1      3440 3.09000E+01 3.57110E+01 0.00000E+00
 -1      3441 2.86500E+01 3.44120E+01 0.00000E+00
 -1      3442 3.24000E+01 3.57110E+01 0.00000E+00
 -1      3443 3.39000E+01 3.57110E+01 0.00000E+00
 -1      3444 3.16500E+01 3.44120E+01 0.00000E+00
 -1      3445 3.54000E+01 3.57110E+01 0.00000E+00
 -1      3446 3.69000E+01 3.57110E+01 0.00000E+00
 -1      3447 3.46500E+01 3.44120E+01 0.00000E+00
 -1      3448 3.84000E+01 3.57110E+01 0.00000E+00
 -1      3449 3.99000E+01 3.57110E+01 0.00000E+00
 -1      3450 3.76500E+01 3.44120E+01 0.00000E+00
 -1      3451 4.41837E+01 3.49843E+01 0.00000E+00
 -1      3452 7.14000E+01 3.57110E+01 0.00000E+00
 -1      3453 7.29000E+01 3.57110E+01 0.00000E+00
 -1      3454 7.44000E+01 3.57110E+01 0.00000E+00
 -1      3455 7.59000E+01 3.57110E+01 0.00000E+00
 -1      3456 7.36500E+01 3.44120E+01 0.00000E+00
 -1      3457 7.74000E+01 3.57110E+01 0.00000E+00
 -1      3458 7.89000E+01 3.57110E+01 0.00000E+00
 -1      3459 7.66500E+01 3.44120E+01 0.00000E+00
 -1      3460 8.04000E+01 3.57110E+01 0.00000E+00
 -1      3461 8.19000E+01 3.57110E+01 0.00000E+00
 -1      3462 7.96500E+01 3.44120E+01 0.00000E+00
 -1      3463 8.34000E+01 3.57110E+01 0.00000E+00
 -1      3464 8.49000E+01 3.57110E+01 0.00000E+00
 -1      3465 8.26500E+01 3.44120E+01 0.00000E+00
 -1      3466 8.64000E+01 3.57110E+01 0.00000E+00
 -1      3467 8.79000E+01 3.57110E+01 0.00000E+00
 -1      3468 8.56500E+01 3.44120E+01 0.00000E+00
 -1      3469 8.94000E+01 3.57110E+01 0.00000E+00
 -1      3470 9.09000E+01 3.57110E+01 0.00000E+00
 -1      3471 8.86500E+01 3.44120E+01 0.00000E+00
 -1      3472 9.24000E+01 3.57110E+01 0.00000E+00
 -1      3473 9.39000E+01 3.57110E+01 0.00000E+00
 -1      3474 9.16500E+01 3.44120E+01 0.00000E+00
 -1      3475 9.54000E+01 3.57110E+01 0.00000E+00
 -1      3476 9.69000E+01 3.57110E+01 0.00000E+00
 -1      3477 9.46500E+01 3.44120E+01 0.00000E+00
 -1      3478 9.84000E+01 3.57110E+01 0.00000E+00
 -1      3479 9.99000E+01 3.57110E+01 0.00000E+00
 -1      3480 9.76500E+01 3.44120E+01 0.00000E+00
 -1      3481 1.01400E+02 3.57110E+01 0.00000E+00
 -1      3482 1.02900E+02 3.57110E+01 0.00000E+00
 -1      3483 1.00650E+02 3.44120E+01 0.00000E+00
 -1      3484 1.04400E+02 3.57110E+01 0.00000E+00
 -1      3485 1.05900E+02 3.57110E+01 0.00000E+00
 -1      3486 1.03650E+02 3.44120E+01 0.00000E+00
 -1      3487 1.07400E+02 3.57110E+01 0.00000E+00
 -1      3488 1.08900E+02 3.57110E+01 0.00000E+00
 -1      3489 1.06650E+02 3.44120E+01 0.00000E+00
 -1      3490 1.10400E+02 3.57110E+01 0.00000E+00
 -1      3491 1.11900E+02 3.57110E+01 0.00000E+00
 -1      3492 1.09650E+02 3.44120E+01 0.00000E+00
 -1      3493 1.13400E+02 3.57110E+01 0.00000E+00
 -1      3494 1.14900E+02 3.57110E+01 0.00000E+00
 -1      3495 1.12650E+02 3.44120E+01 0.00000E+00
 -1      3496 1.16400E+02 3.57110E+01 0.00000E+00
 -1      3497 1.17900E+02 3.57110E+01 0.00000E+00
 -1      3498 1.15650E+02 3.44120E+01 0.00000E+00
 -1      3499 1.19400E+02 3.57110E+01 0.00000E+00
 -1      3500 1.20900E+02 3.57110E+01 0.00000E+00
 -1      3501 1.18650E+02 3.44120E+01 0.00000E+00
 -1      3502 1.22400E+02 3.57110E+01 0.00000E+00
 -1      3503 1.23900E+02 3.57110E+01 0.00000E+00
 -1      3504 1.21650E+02 3.44120E+01 0.00000E+00
 -1      3505 1.25400E+02 3.57110E+01 0.00000E+00
 -1      3506 1.26900E+02 3.57110E+01 0.00000E+00
 -1      3507 1.24650E+02 3.44120E+01 0.00000E+00
 -1      3508 1.28400E+02 3.57110E+01 0.00000E+00
 -1      3509 1.29900E+02 3.57110E+01 0.00000E+00
 -1      3510 1.27650E+02 3.44120E+01 0.00000E+00
 -1      3511 1.31400E+02 3.57110E+01 0.00000E+00
 -1      3512 1.32900E+02 3.57110E+01 0.00000E+00
 -1      3513 1.30650E+02 3.44120E+01 0.00000E+00
 -1      3514 1.14487E+01 2.70341E+01 0.00000E+00
 -1      3515 1.14487E+01 2.85028E+01 0.00000E+00
 -1      3516 1.22633E+01 2.89397E+01 0.00000E+00
 -1      3517 1.27478E+01 2.62966E+01 0.00000E+00
 -1      3518 2.42850E+01 1.30992E+01 0.00000E+00
 -1      3519 2.27850E+01 1.30992E+01 0.00000E+00
 -1      3520 1.44000E+01 3.57110E+01 0.00000E+00
 -1      3521 1.59000E+01 3.57110E+01 0.00000E+00
 -1      3522 1.66500E+01 3.44120E+01 0.00000E+00
 -1      3523 4.22850E+01 1.30992E+01 0.00000E+00
 -1      3524 4.07850E+01 1.30992E+01 0.00000E+00
 -1      3525 6.97089E+01 3.16756E+01 0.00000E+00
 -1      3526 6.90454E+01 3.32881E+01 0.00000E+00
 -1      3527 6.95161E+01 1.38053E+01 0.00000E+00
 -1      3528 8.12850E+01 1.30992E+01 0.00000E+00
 -1      3529 7.97850E+01 1.30992E+01 0.00000E+00
 -1      3530 8.42850E+01 1.30992E+01 0.00000E+00
 -1      3531 8.27850E+01 1.30992E+01 0.00000E+00
 -1      3532 8.20350E+01 1.43982E+01 0.00000E+00
 -1      3533 8.72850E+01 1.30992E+01 0.00000E+00
 -1      3534 8.57850E+01 1.30992E+01 0.00000E+00
 -1      3535 8.50350E+01 1.43982E+01 0.00000E+00
 -1      3536 9.02850E+01 1.30992E+01 0.00000E+00
 -1      3537 8.87850E+01 1.30992E+01 0.00000E+00
 -1      3538 8.80350E+01 1.43982E+01 0.00000E+00
 -1      3539 9.32850E+01 1.30992E+01 0.00000E+00
 -1      3540 9.17850E+01 1.30992E+01 0.00000E+00
 -1      3541 9.10350E+01 1.43982E+01 0.00000E+00
 -1      3542 9.62850E+01 1.30992E+01 0.00000E+00
 -1      3543 9.47850E+01 1.30992E+01 0.00000E+00
 -1      3544 9.40350E+01 1.43982E+01 0.00000E+00
 -1      3545 9.92850E+01 1.30992E+01 0.00000E+00
 -1      3546 9.77850E+01 1.30992E+01 0.00000E+00
 -1      3547 9.70350E+01 1.43982E+01 0.00000E+00
 -1      3548 1.02285E+02 1.30992E+01 0.00000E+00
 -1      3549 1.00785E+02 1.30992E+01 0.00000E+00
 -1      3550 1.00035E+02 1.43982E+01 0.00000E+00
 -1      3551 1.05285E+02 1.30992E+01 0.00000E+00
 -1      3552 1.03785E+02 1.30992E+01 0.00000E+00
 -1      3553 1.03035E+02 1.43982E+01 0.00000E+00
 -1      3554 1.08285E+02 1.30992E+01 0.00000E+00
 -1      3555 1.06785E+02 1.30992E+01 0.00000E+00
 -1      3556 1.06035E+02 1.43982E+01 0.00000E+00
 -1      3557 1.11285E+02 1.30992E+01 0.00000E+00
 -1      3558 1.09785E+02 1.30992E+01 0.00000E+00
 -1      3559 1.09035E+02 1.43982E+01 0.00000E+00
 -1      3560 1.14285E+02 1.30992E+01 0.00000E+00
 -1      3561 1.12785E+02 1.30992E+01 0.00000E+00
 -1      3562 1.12035E+02 1.43982E+01 0.00000E+00
 -1      3563 1.17285E+02 1.30992E+01 0.00000E+00
 -1      3564 1.15785E+02 1.30992E+01 0.00000E+00
 -1      3565 1.15035E+02 1.43982E+01 0.00000E+00
 -1      3566 1.20285E+02 1.30992E+01 0.00000E+00
 -1      3567 1.18785E+02 1.30992E+01 0.00000E+00
 -1      3568 1.18035E+02 1.43982E+01 0.00000E+00
 -1      3569 1.23285E+02 1.30992E+01 0.00000E+00
 -1      3570 1.21785E+02 1.30992E+01 0.00000E+00
 -1      3571 1.21035E+02 1.43982E+01 0.00000E+00
 -1      3572 1.26285E+02 1.30992E+01 0.00000E+00
 -1      3573 1.24785E+02 1.30992E+01 0.00000E+00
 -1      3574 1.24035E+02 1.43982E+01 0.00000E+00
 -1      3575 1.29285E+02 1.30992E+01 0.00000E+00
 -1      3576 1.27785E+02 1.30992E+01 0.00000E+00
 -1      3577 1.27035E+02 1.43982E+01 0.00000E+00
 -1      3578 1.32285E+02 1.30992E+01 0.00000E+00
 -1      3579 1.30785E+02 1.30992E+01 0.00000E+00
 -1      3580 1.30035E+02 1.43982E+01 0.00000E+00
 -1      3581 1.35285E+02 1.30992E+01 0.00000E+00
 -1      3582 1.33785E+02 1.30992E+01 0.00000E+00
 -1      3583 1.33035E+02 1.43982E+01 0.00000E+00
 -1      3584 1.35711E+02 3.31125E+01 0.00000E+00
 -1      3585 1.35711E+02 3.16375E+01 0.00000E+00
 -1      3586 1.35711E+02 2.72125E+01 0.00000E+00
 -1      3587 1.35711E+02 2.57375E+01 0.00000E+00
 -1      3588 4.24785E+01 2.27728E+01 0.00000E+00
 -1      3589 6.76691E+01 3.53412E+01 0.00000E+00
 -1      3590 6.67521E+01 3.62794E+01 0.00000E+00
 -1      3591 1.46944E+01 1.23503E+01 0.00000E+00
 -1      3592 1.43081E+01 1.33498E+01 0.00000E+00
 -1      3593 1.60125E+01 1.25001E+01 0.00000E+00
 -1      3594 6.91691E+01 3.53412E+01 0.00000E+00
 -1      3595 7.82850E+01 1.30992E+01 0.00000E+00
 -1      3596 7.67850E+01 1.30992E+01 0.00000E+00
 -1      3597 7.90350E+01 1.43982E+01 0.00000E+00
 -1      3598 3.02850E+01 1.30992E+01 0.00000E+00
 -1      3599 2.87850E+01 1.30992E+01 0.00000E+00
 -1      3600 7.52850E+01 1.30992E+01 0.00000E+00
 -1      3601 7.37850E+01 1.30992E+01 0.00000E+00
 -1      3602 7.60350E+01 1.43982E+01 0.00000E+00
 -1      3603 1.35711E+02 3.01625E+01 0.00000E+00
 -1      3604 1.35711E+02 2.86875E+01 0.00000E+00
 -1      3605 1.34412E+02 2.79500E+01 0.00000E+00
 -1      3606 1.34412E+02 3.09000E+01 0.00000E+00
 -1      3607 2.72850E+01 1.30992E+01 0.00000E+00
 -1      3608 2.57850E+01 1.30992E+01 0.00000E+00
 -1      3609 2.50350E+01 1.43982E+01 0.00000E+00
 -1      3610 7.10181E+01 2.92889E+01 0.00000E+00
 -1      3611 7.03635E+01 3.04822E+01 0.00000E+00
 -1      3612 7.10572E+01 3.17105E+01 0.00000E+00
 -1      3613 3.92850E+01 1.30992E+01 0.00000E+00
 -1      3614 3.77850E+01 1.30992E+01 0.00000E+00
 -1      3615 4.00350E+01 1.43982E+01 0.00000E+00
 -1      3616 1.38643E+02 1.48068E+01 0.00000E+00
 -1      3617 1.38709E+02 1.35665E+01 0.00000E+00
 -1      3618 1.37750E+02 1.33444E+01 0.00000E+00
 -1      3619 1.37344E+02 1.55443E+01 0.00000E+00
 -1      3620 4.20319E+01 1.61995E+01 0.00000E+00
 -1      3621 4.25458E+01 1.48256E+01 0.00000E+00
 -1      3622 1.28033E+01 3.49708E+01 0.00000E+00
 -1      3623 1.36178E+01 3.54077E+01 0.00000E+00
 -1      3624 1.43678E+01 3.41087E+01 0.00000E+00
 -1      3625 1.28033E+01 3.35021E+01 0.00000E+00
 -1      3626 4.25371E+01 3.56904E+01 0.00000E+00
 -1      3627 4.30708E+01 3.36647E+01 0.00000E+00
 -1      3628 4.18113E+01 3.30511E+01 0.00000E+00
 -1      3629 4.10371E+01 3.56904E+01 0.00000E+00
 -1      3630 7.08277E+01 1.30900E+01 0.00000E+00
 -1      3631 7.03087E+01 1.50950E+01 0.00000E+00
 -1      3632 7.09130E+01 1.56696E+01 0.00000E+00
 -1      3633 7.23277E+01 1.30900E+01 0.00000E+00
 -1      3634 4.15063E+01 2.33748E+01 0.00000E+00
 -1      3635 4.17598E+01 2.18834E+01 0.00000E+00
 -1      3636 7.10007E+01 2.51184E+01 0.00000E+00
 -1      3637 7.17587E+01 2.60245E+01 0.00000E+00
 -1      3638 7.14913E+01 2.44015E+01 0.00000E+00
 -1      3639 7.07915E+01 2.20550E+01 0.00000E+00
 -1      3640 2.12850E+01 1.30992E+01 0.00000E+00
 -1      3641 1.97850E+01 1.30992E+01 0.00000E+00
 -1      3642 2.20350E+01 1.43982E+01 0.00000E+00
 -1      3643 4.11335E+01 2.44112E+01 0.00000E+00
 -1      3644 4.04148E+01 2.35218E+01 0.00000E+00
 -1      3645 1.35711E+02 2.13281E+01 0.00000E+00
 -1      3646 1.35711E+02 1.98594E+01 0.00000E+00
 -1      3647 4.02871E+01 3.43914E+01 0.00000E+00
 -1      3648 2.80350E+01 1.43982E+01 0.00000E+00
 -1      3649 4.10662E+01 2.08278E+01 0.00000E+00
 -1      3650 1.42890E+01 2.27625E+01 0.00000E+00
 -1      3651 1.42890E+01 2.42375E+01 0.00000E+00
 -1      3652 3.32850E+01 1.30992E+01 0.00000E+00
 -1      3653 3.17850E+01 1.30992E+01 0.00000E+00
 -1      3654 3.10350E+01 1.43982E+01 0.00000E+00
 -1      3655 4.32958E+01 1.35266E+01 0.00000E+00
 -1      3656 1.34022E+02 3.59933E+01 0.00000E+00
 -1      3657 1.35329E+02 3.61043E+01 0.00000E+00
 -1      3658 1.35515E+02 3.52588E+01 0.00000E+00
 -1      3659 1.33272E+02 3.46942E+01 0.00000E+00
 -1      3660 7.09048E+01 1.76713E+01 0.00000E+00
 -1      3661 7.05276E+01 1.87870E+01 0.00000E+00
 -1      3662 7.12268E+01 1.94989E+01 0.00000E+00
 -1      3663 1.36791E+02 1.31223E+01 0.00000E+00
 -1      3664 1.34412E+02 2.50063E+01 0.00000E+00
 -1      3665 1.35711E+02 2.42687E+01 0.00000E+00
 -1      3666 1.35711E+02 2.28000E+01 0.00000E+00
 -1      3667 4.12343E+01 1.73925E+01 0.00000E+00
 -1      3668 4.07374E+01 1.55912E+01 0.00000E+00
 -1      3669 3.92374E+01 1.55912E+01 0.00000E+00
 -1      3670 4.06423E+01 1.79772E+01 0.00000E+00
 -1      3671 1.28033E+01 3.05646E+01 0.00000E+00
 -1      3672 1.28033E+01 3.20333E+01 0.00000E+00
 -1      3673 1.35855E+01 3.23366E+01 0.00000E+00
 -1      3674 1.43081E+01 1.48217E+01 0.00000E+00
 -1      3675 7.30777E+01 1.43890E+01 0.00000E+00
 -1      3676 1.36041E+02 1.44213E+01 0.00000E+00
 -1      3677 3.70350E+01 1.43982E+01 0.00000E+00
 -1      3678 3.62850E+01 1.30992E+01 0.00000E+00
 -1      3679 3.47850E+01 1.30992E+01 0.00000E+00
 -1      3680 4.11339E+01 2.56555E+01 0.00000E+00
 -1      3681 1.35777E+02 1.86190E+01 0.00000E+00
 -1      3682 1.35842E+02 1.73787E+01 0.00000E+00
 -1      3683 1.34478E+02 1.93534E+01 0.00000E+00
 -1      3684 1.35702E+02 3.44132E+01 0.00000E+00
 -1      3685 4.09065E+01 3.10943E+01 0.00000E+00
 -1      3686 4.09205E+01 2.98494E+01 0.00000E+00
 -1      3687 7.14899E+01 2.86292E+01 0.00000E+00
 -1      3688 7.21836E+01 2.98575E+01 0.00000E+00
 -1      3689 7.19618E+01 2.79696E+01 0.00000E+00
 -1      3690 6.99191E+01 3.40422E+01 0.00000E+00
 -1      3691 4.09202E+01 2.86051E+01 0.00000E+00
 -1      3692 4.09198E+01 2.73607E+01 0.00000E+00
 -1      3693 3.96142E+01 2.92129E+01 0.00000E+00
 -1      3694 1.42890E+01 1.98250E+01 0.00000E+00
 -1      3695 1.42890E+01 2.12938E+01 0.00000E+00
 -1      3696 1.55880E+01 2.20313E+01 0.00000E+00
 -1      3697 1.34403E+02 3.36758E+01 0.00000E+00
 -1      3698 1.34412E+02 2.20656E+01 0.00000E+00
 -1      3699 2.19000E+01 3.31130E+01 0.00000E+00
 -1      3700 2.34000E+01 3.31130E+01 0.00000E+00
 -1      3701 2.49000E+01 3.31130E+01 0.00000E+00
 -1      3702 2.64000E+01 3.31130E+01 0.00000E+00
 -1      3703 2.41500E+01 3.18140E+01 0.00000E+00
 -1      3704 2.79000E+01 3.31130E+01 0.00000E+00
 -1      3705 2.94000E+01 3.31130E+01 0.00000E+00
 -1      3706 2.71500E+01 3.18140E+01 0.00000E+00
 -1      3707 3.09000E+01 3.31130E+01 0.00000E+00
 -1      3708 3.24000E+01 3.31130E+01 0.00000E+00
 -1      3709 3.01500E+01 3.18140E+01 0.00000E+00
 -1      3710 3.39000E+01 3.31130E+01 0.00000E+00
 -1      3711 3.54000E+01 3.31130E+01 0.00000E+00
 -1      3712 3.31500E+01 3.18140E+01 0.00000E+00
 -1      3713 7.23449E+01 1.53853E+01 0.00000E+00
 -1      3714 7.16376E+01 1.66750E+01 0.00000E+00
 -1      3715 7.23367E+01 1.73869E+01 0.00000E+00
 -1      3716 7.38022E+01 1.53945E+01 0.00000E+00
 -1      3717 8.87850E+01 1.56973E+01 0.00000E+00
 -1      3718 8.72850E+01 1.56973E+01 0.00000E+00
 -1      3719 1.33281E+02 3.33935E+01 0.00000E+00
 -1      3720 7.59000E+01 3.31130E+01 0.00000E+00
 -1      3721 7.74000E+01 3.31130E+01 0.00000E+00
 -1      3722 7.89000E+01 3.31130E+01 0.00000E+00
 -1      3723 8.04000E+01 3.31130E+01 0.00000E+00
 -1      3724 7.81500E+01 3.18140E+01 0.00000E+00
 -1      3725 8.19000E+01 3.31130E+01 0.00000E+00
 -1      3726 8.34000E+01 3.31130E+01 0.00000E+00
 -1      3727 8.11500E+01 3.18140E+01 0.00000E+00
 -1      3728 8.49000E+01 3.31130E+01 0.00000E+00
 -1      3729 8.64000E+01 3.31130E+01 0.00000E+00
 -1      3730 8.41500E+01 3.18140E+01 0.00000E+00
 -1      3731 8.79000E+01 3.31130E+01 0.00000E+00
 -1      3732 8.94000E+01 3.31130E+01 0.00000E+00
 -1      3733 8.71500E+01 3.18140E+01 0.00000E+00
 -1      3734 9.09000E+01 3.31130E+01 0.00000E+00
 -1      3735 9.24000E+01 3.31130E+01 0.00000E+00
 -1      3736 9.01500E+01 3.18140E+01 0.00000E+00
 -1      3737 9.39000E+01 3.31130E+01 0.00000E+00
 -1      3738 9.54000E+01 3.31130E+01 0.00000E+00
 -1      3739 9.31500E+01 3.18140E+01 0.00000E+00
 -1      3740 9.69000E+01 3.31130E+01 0.00000E+00
 -1      3741 9.84000E+01 3.31130E+01 0.00000E+00
 -1      3742 9.61500E+01 3.18140E+01 0.00000E+00
 -1      3743 9.99000E+01 3.31130E+01 0.00000E+00
 -1      3744 1.01400E+02 3.31130E+01 0.00000E+00
 -1      3745 9.91500E+01 3.18140E+01 0.00000E+00
 -1      3746 1.02900E+02 3.31130E+01 0.00000E+00
 -1      3747 1.04400E+02 3.31130E+01 0.00000E+00
 -1      3748 1.02150E+02 3.18140E+01 0.00000E+00
 -1      3749 1.05900E+02 3.31130E+01 0.00000E+00
 -1      3750 1.07400E+02 3.31130E+01 0.00000E+00
 -1      3751 1.05150E+02 3.18140E+01 0.00000E+00
 -1      3752 1.08900E+02 3.31130E+01 0.00000E+00
 -1      3753 1.10400E+02 3.31130E+01 0.00000E+00
 -1      3754 1.08150E+02 3.18140E+01 0.00000E+00
 -1      3755 1.11900E+02 3.31130E+01 0.00000E+00
 -1      3756 1.13400E+02 3.31130E+01 0.00000E+00
 -1      3757 1.11150E+02 3.18140E+01 0.00000E+00
 -1      3758 1.14900E+02 3.31130E+01 0.00000E+00
 -1      3759 1.16400E+02 3.31130E+01 0.00000E+00
 -1      3760 1.14150E+02 3.18140E+01 0.00000E+00
 -1      3761 1.17900E+02 3.31130E+01 0.00000E+00
 -1      3762 1.19400E+02 3.31130E+01 0.00000E+00
 -1      3763 1.17150E+02 3.18140E+01 0.00000E+00
 -1      3764 1.20900E+02 3.31130E+01 0.00000E+00
 -1      3765 1.22400E+02 3.31130E+01 0.00000E+00
 -1      3766 1.20150E+02 3.18140E+01 0.00000E+00
 -1      3767 1.23900E+02 3.31130E+01 0.00000E+00
 -1      3768 1.25400E+02 3.31130E+01 0.00000E+00
 -1      3769 1.23150E+02 3.18140E+01 0.00000E+00
 -1      3770 1.26900E+02 3.31130E+01 0.00000E+00
 -1      3771 1.28400E+02 3.31130E+01 0.00000E+00
 -1      3772 1.26150E+02 3.18140E+01 0.00000E+00
 -1      3773 1.29900E+02 3.31130E+01 0.00000E+00
 -1      3774 1.31400E+02 3.31130E+01 0.00000E+00
 -1      3775 1.29150E+02 3.18140E+01 0.00000E+00
 -1      3776 1.85578E+01 1.28746E+01 0.00000E+00
 -1      3777 1.72397E+01 1.27248E+01 0.00000E+00
 -1      3778 1.68534E+01 1.37242E+01 0.00000E+00
 -1      3779 1.93078E+01 1.41736E+01 0.00000E+00
 -1      3780 2.87850E+01 1.56973E+01 0.00000E+00
 -1      3781 2.72850E+01 1.56973E+01 0.00000E+00
 -1      3782 1.59000E+01 3.31130E+01 0.00000E+00
 -1      3783 1.74000E+01 3.31130E+01 0.00000E+00
 -1      3784 3.93426E+01 2.37213E+01 0.00000E+00
 -1      3785 3.97155E+01 2.26849E+01 0.00000E+00
 -1      3786 1.89000E+01 3.31130E+01 0.00000E+00
 -1      3787 2.04000E+01 3.31130E+01 0.00000E+00
 -1      3788 2.11500E+01 3.18140E+01 0.00000E+00
 -1      3789 8.57850E+01 1.56973E+01 0.00000E+00
 -1      3790 8.42850E+01 1.56973E+01 0.00000E+00
 -1      3791 8.65350E+01 1.69963E+01 0.00000E+00
 -1      3792 1.55798E+01 2.49984E+01 0.00000E+00
 -1      3793 1.42808E+01 2.57359E+01 0.00000E+00
 -1      3794 8.27850E+01 1.56973E+01 0.00000E+00
 -1      3795 8.12850E+01 1.56973E+01 0.00000E+00
 -1      3796 8.35350E+01 1.69963E+01 0.00000E+00
 -1      3797 9.17850E+01 1.56973E+01 0.00000E+00
 -1      3798 9.02850E+01 1.56973E+01 0.00000E+00
 -1      3799 8.95350E+01 1.69963E+01 0.00000E+00
 -1      3800 9.47850E+01 1.56973E+01 0.00000E+00
 -1      3801 9.32850E+01 1.56973E+01 0.00000E+00
 -1      3802 9.25350E+01 1.69963E+01 0.00000E+00
 -1      3803 9.77850E+01 1.56973E+01 0.00000E+00
 -1      3804 9.62850E+01 1.56973E+01 0.00000E+00
 -1      3805 9.55350E+01 1.69963E+01 0.00000E+00
 -1      3806 1.00785E+02 1.56973E+01 0.00000E+00
 -1      3807 9.92850E+01 1.56973E+01 0.00000E+00
 -1      3808 9.85350E+01 1.69963E+01 0.00000E+00
 -1      3809 1.03785E+02 1.56973E+01 0.00000E+00
 -1      3810 1.02285E+02 1.56973E+01 0.00000E+00
 -1      3811 1.01535E+02 1.69963E+01 0.00000E+00
 -1      3812 1.06785E+02 1.56973E+01 0.00000E+00
 -1      3813 1.05285E+02 1.56973E+01 0.00000E+00
 -1      3814 1.04535E+02 1.69963E+01 0.00000E+00
 -1      3815 1.09785E+02 1.56973E+01 0.00000E+00
 -1      3816 1.08285E+02 1.56973E+01 0.00000E+00
 -1      3817 1.07535E+02 1.69963E+01 0.00000E+00
 -1      3818 1.12785E+02 1.56973E+01 0.00000E+00
 -1      3819 1.11285E+02 1.56973E+01 0.00000E+00
 -1      3820 1.10535E+02 1.69963E+01 0.00000E+00
 -1      3821 1.15785E+02 1.56973E+01 0.00000E+00
 -1      3822 1.14285E+02 1.56973E+01 0.00000E+00
 -1      3823 1.13535E+02 1.69963E+01 0.00000E+00
 -1      3824 1.18785E+02 1.56973E+01 0.00000E+00
 -1      3825 1.17285E+02 1.56973E+01 0.00000E+00
 -1      3826 1.16535E+02 1.69963E+01 0.00000E+00
 -1      3827 1.21785E+02 1.56973E+01 0.00000E+00
 -1      3828 1.20285E+02 1.56973E+01 0.00000E+00
 -1      3829 1.19535E+02 1.69963E+01 0.00000E+00
 -1      3830 1.24785E+02 1.56973E+01 0.00000E+00
 -1      3831 1.23285E+02 1.56973E+01 0.00000E+00
 -1      3832 1.22535E+02 1.69963E+01 0.00000E+00
 -1      3833 1.27785E+02 1.56973E+01 0.00000E+00
 -1      3834 1.26285E+02 1.56973E+01 0.00000E+00
 -1      3835 1.25535E+02 1.69963E+01 0.00000E+00
 -1      3836 1.30785E+02 1.56973E+01 0.00000E+00
 -1      3837 1.29285E+02 1.56973E+01 0.00000E+00
 -1      3838 1.28535E+02 1.69963E+01 0.00000E+00
 -1      3839 2.57850E+01 1.56973E+01 0.00000E+00
 -1      3840 2.42850E+01 1.56973E+01 0.00000E+00
 -1      3841 2.65350E+01 1.69963E+01 0.00000E+00
 -1      3842 4.00396E+01 2.11599E+01 0.00000E+00
 -1      3843 4.03182E+01 1.95023E+01 0.00000E+00
 -1      3844 3.96157E+01 1.83093E+01 0.00000E+00
 -1      3845 3.89674E+01 2.13594E+01 0.00000E+00
 -1      3846 7.67850E+01 1.56973E+01 0.00000E+00
 -1      3847 7.52850E+01 1.56973E+01 0.00000E+00
 -1      3848 7.97850E+01 1.56973E+01 0.00000E+00
 -1      3849 7.82850E+01 1.56973E+01 0.00000E+00
 -1      3850 7.75350E+01 1.69963E+01 0.00000E+00
 -1      3851 1.35838E+02 1.55213E+01 0.00000E+00
 -1      3852 1.42890E+01 1.68813E+01 0.00000E+00
 -1      3853 1.42890E+01 1.83531E+01 0.00000E+00
 -1      3854 1.55880E+01 1.90906E+01 0.00000E+00
 -1      3855 4.05194E+01 3.24140E+01 0.00000E+00
 -1      3856 3.98279E+01 2.62634E+01 0.00000E+00
 -1      3857 3.93823E+01 3.24346E+01 0.00000E+00
 -1      3858 1.56071E+01 1.55592E+01 0.00000E+00
 -1      3859 7.17611E+01 2.13728E+01 0.00000E+00
 -1      3860 7.17030E+01 2.28132E+01 0.00000E+00
 -1      3861 1.32531E+02 3.20945E+01 0.00000E+00
 -1      3862 1.34539E+02 1.62557E+01 0.00000E+00
 -1      3863 2.27850E+01 1.56973E+01 0.00000E+00
 -1      3864 2.12850E+01 1.56973E+01 0.00000E+00
 -1      3865 2.35350E+01 1.69963E+01 0.00000E+00
 -1      3866 1.68343E+01 1.57838E+01 0.00000E+00
 -1      3867 7.45522E+01 1.66935E+01 0.00000E+00
 -1      3868 3.69000E+01 3.31130E+01 0.00000E+00
 -1      3869 3.84000E+01 3.31130E+01 0.00000E+00
 -1      3870 3.40350E+01 1.43982E+01 0.00000E+00
 -1      3871 7.34309E+01 3.24646E+01 0.00000E+00
 -1      3872 7.41809E+01 3.11656E+01 0.00000E+00
 -1      3873 3.17850E+01 1.56973E+01 0.00000E+00
 -1      3874 3.02850E+01 1.56973E+01 0.00000E+00
 -1      3875 2.95350E+01 1.69963E+01 0.00000E+00
 -1      3876 7.19309E+01 3.24646E+01 0.00000E+00
 -1      3877 1.33039E+02 1.62557E+01 0.00000E+00
 -1      3878 1.40386E+01 2.70574E+01 0.00000E+00
 -1      3879 1.81500E+01 3.18140E+01 0.00000E+00
 -1      3880 3.86323E+01 3.11356E+01 0.00000E+00
 -1      3881 1.68870E+01 2.12969E+01 0.00000E+00
 -1      3882 1.68870E+01 2.27656E+01 0.00000E+00
 -1      3883 7.24609E+01 2.37193E+01 0.00000E+00
 -1      3884 1.68788E+01 2.42640E+01 0.00000E+00
 -1      3885 1.68707E+01 2.57624E+01 0.00000E+00
 -1      3886 1.81778E+01 2.35296E+01 0.00000E+00
 -1      3887 8.05350E+01 1.69963E+01 0.00000E+00
 -1      3888 1.32289E+02 1.75547E+01 0.00000E+00
 -1      3889 1.33113E+02 2.28016E+01 0.00000E+00
 -1      3890 1.33113E+02 2.13297E+01 0.00000E+00
 -1      3891 1.33113E+02 2.57391E+01 0.00000E+00
 -1      3892 1.33113E+02 2.42703E+01 0.00000E+00
 -1      3893 1.31814E+02 2.35344E+01 0.00000E+00
 -1      3894 7.29429E+01 2.65359E+01 0.00000E+00
 -1      3895 7.24524E+01 2.72528E+01 0.00000E+00
 -1      3896 7.31461E+01 2.84810E+01 0.00000E+00
 -1      3897 7.25155E+01 1.91413E+01 0.00000E+00
 -1      3898 7.21383E+01 2.02571E+01 0.00000E+00
 -1      3899 7.30498E+01 2.10152E+01 0.00000E+00
 -1      3900 1.33113E+02 2.86891E+01 0.00000E+00
 -1      3901 1.33113E+02 2.72141E+01 0.00000E+00
 -1      3902 1.31814E+02 2.64781E+01 0.00000E+00
 -1      3903 3.84399E+01 1.67842E+01 0.00000E+00
 -1      3904 3.77374E+01 1.55912E+01 0.00000E+00
 -1      3905 3.62374E+01 1.55912E+01 0.00000E+00
 -1      3906 1.32668E+02 2.00623E+01 0.00000E+00
 -1      3907 1.32734E+02 1.88220E+01 0.00000E+00
 -1      3908 1.30480E+02 1.82636E+01 0.00000E+00
 -1      3909 1.31369E+02 2.07983E+01 0.00000E+00
 -1      3910 1.32531E+02 3.06195E+01 0.00000E+00
 -1      3911 3.76496E+01 3.05697E+01 0.00000E+00
 -1      3912 3.86319E+01 2.98913E+01 0.00000E+00
 -1      3913 3.86316E+01 2.86470E+01 0.00000E+00
 -1      3914 3.61500E+01 3.18140E+01 0.00000E+00
 -1      3915 1.43516E+01 3.25732E+01 0.00000E+00
 -1      3916 1.51339E+01 3.28765E+01 0.00000E+00
 -1      3917 1.58839E+01 3.15775E+01 0.00000E+00
 -1      3918 1.43516E+01 3.11044E+01 0.00000E+00
 -1      3919 3.86206E+01 2.69779E+01 0.00000E+00
 -1      3920 3.88347E+01 2.52726E+01 0.00000E+00
 -1      3921 3.81353E+01 2.44358E+01 0.00000E+00
 -1      3922 9.02850E+01 1.82952E+01 0.00000E+00
 -1      3923 8.87850E+01 1.82952E+01 0.00000E+00
 -1      3924 2.34000E+01 3.05150E+01 0.00000E+00
 -1      3925 2.49000E+01 3.05150E+01 0.00000E+00
 -1      3926 7.32482E+01 1.81451E+01 0.00000E+00
 -1      3927 2.64000E+01 3.05150E+01 0.00000E+00
 -1      3928 2.79000E+01 3.05150E+01 0.00000E+00
 -1      3929 2.56500E+01 2.92160E+01 0.00000E+00
 -1      3930 2.94000E+01 3.05150E+01 0.00000E+00
 -1      3931 3.09000E+01 3.05150E+01 0.00000E+00
 -1      3932 2.86500E+01 2.92160E+01 0.00000E+00
 -1      3933 3.24000E+01 3.05150E+01 0.00000E+00
 -1      3934 3.39000E+01 3.05150E+01 0.00000E+00
 -1      3935 3.16500E+01 2.92160E+01 0.00000E+00
 -1      3936 3.47850E+01 1.56973E+01 0.00000E+00
 -1      3937 3.32850E+01 1.56973E+01 0.00000E+00
 -1      3938 3.25350E+01 1.69963E+01 0.00000E+00
 -1      3939 1.31232E+02 2.98836E+01 0.00000E+00
 -1      3940 7.74000E+01 3.05150E+01 0.00000E+00
 -1      3941 7.89000E+01 3.05150E+01 0.00000E+00
 -1      3942 1.36621E+01 2.85131E+01 0.00000E+00
 -1      3943 1.34198E+01 2.98347E+01 0.00000E+00
 -1      3944 7.47310E+01 1.84478E+01 0.00000E+00
 -1      3945 8.04000E+01 3.05150E+01 0.00000E+00
 -1      3946 8.19000E+01 3.05150E+01 0.00000E+00
 -1      3947 7.96500E+01 2.92160E+01 0.00000E+00
 -1      3948 8.34000E+01 3.05150E+01 0.00000E+00
 -1      3949 8.49000E+01 3.05150E+01 0.00000E+00
 -1      3950 8.26500E+01 2.92160E+01 0.00000E+00
 -1      3951 8.64000E+01 3.05150E+01 0.00000E+00
 -1      3952 8.79000E+01 3.05150E+01 0.00000E+00
 -1      3953 8.56500E+01 2.92160E+01 0.00000E+00
 -1      3954 8.94000E+01 3.05150E+01 0.00000E+00
 -1      3955 9.09000E+01 3.05150E+01 0.00000E+00
 -1      3956 8.86500E+01 2.92160E+01 0.00000E+00
 -1      3957 9.24000E+01 3.05150E+01 0.00000E+00
 -1      3958 9.39000E+01 3.05150E+01 0.00000E+00
 -1      3959 9.16500E+01 2.92160E+01 0.00000E+00
 -1      3960 9.54000E+01 3.05150E+01 0.00000E+00
 -1      3961 9.69000E+01 3.05150E+01 0.00000E+00
 -1      3962 9.46500E+01 2.92160E+01 0.00000E+00
 -1      3963 9.84000E+01 3.05150E+01 0.00000E+00
 -1      3964 9.99000E+01 3.05150E+01 0.00000E+00
 -1      3965 9.76500E+01 2.92160E+01 0.00000E+00
 -1      3966 1.01400E+02 3.05150E+01 0.00000E+00
 -1      3967 1.02900E+02 3.05150E+01 0.00000E+00
 -1      3968 1.00650E+02 2.92160E+01 0.00000E+00
 -1      3969 1.04400E+02 3.05150E+01 0.00000E+00
 -1      3970 1.05900E+02 3.05150E+01 0.00000E+00
 -1      3971 1.03650E+02 2.92160E+01 0.00000E+00
 -1      3972 1.07400E+02 3.05150E+01 0.00000E+00
 -1      3973 1.08900E+02 3.05150E+01 0.00000E+00
 -1      3974 1.06650E+02 2.92160E+01 0.00000E+00
 -1      3975 1.10400E+02 3.05150E+01 0.00000E+00
 -1      3976 1.11900E+02 3.05150E+01 0.00000E+00
 -1      3977 1.09650E+02 2.92160E+01 0.00000E+00
 -1      3978 1.13400E+02 3.05150E+01 0.00000E+00
 -1      3979 1.14900E+02 3.05150E+01 0.00000E+00
 -1      3980 1.12650E+02 2.92160E+01 0.00000E+00
 -1      3981 1.16400E+02 3.05150E+01 0.00000E+00
 -1      3982 1.17900E+02 3.05150E+01 0.00000E+00
 -1      3983 1.15650E+02 2.92160E+01 0.00000E+00
 -1      3984 1.19400E+02 3.05150E+01 0.00000E+00
 -1      3985 1.20900E+02 3.05150E+01 0.00000E+00
 -1      3986 1.18650E+02 2.92160E+01 0.00000E+00
 -1      3987 1.22400E+02 3.05150E+01 0.00000E+00
 -1      3988 1.23900E+02 3.05150E+01 0.00000E+00
 -1      3989 1.21650E+02 2.92160E+01 0.00000E+00
 -1      3990 1.25400E+02 3.05150E+01 0.00000E+00
 -1      3991 1.26900E+02 3.05150E+01 0.00000E+00
 -1      3992 1.24650E+02 2.92160E+01 0.00000E+00
 -1      3993 1.28316E+02 3.01993E+01 0.00000E+00
 -1      3994 1.29816E+02 3.01993E+01 0.00000E+00
 -1      3995 1.30398E+02 2.82688E+01 0.00000E+00
 -1      3996 1.27566E+02 2.89003E+01 0.00000E+00
 -1      3997 2.00578E+01 1.54726E+01 0.00000E+00
 -1      3998 1.88306E+01 1.52479E+01 0.00000E+00
 -1      3999 2.08078E+01 1.67716E+01 0.00000E+00
 -1      4000 3.76383E+01 2.76562E+01 0.00000E+00
 -1      4001 1.68870E+01 1.98250E+01 0.00000E+00
 -1      4002 1.81860E+01 2.05594E+01 0.00000E+00
 -1      4003 1.68870E+01 1.83531E+01 0.00000E+00
 -1      4004 8.12850E+01 1.82952E+01 0.00000E+00
 -1      4005 7.97850E+01 1.82952E+01 0.00000E+00
 -1      4006 7.37490E+01 2.30827E+01 0.00000E+00
 -1      4007 7.35373E+01 2.46711E+01 0.00000E+00
 -1      4008 7.12763E+01 3.36579E+01 0.00000E+00
 -1      4009 2.04000E+01 3.05150E+01 0.00000E+00
 -1      4010 2.19000E+01 3.05150E+01 0.00000E+00
 -1      4011 2.26500E+01 2.92160E+01 0.00000E+00
 -1      4012 8.72850E+01 1.82952E+01 0.00000E+00
 -1      4013 8.57850E+01 1.82952E+01 0.00000E+00
 -1      4014 8.80350E+01 1.95942E+01 0.00000E+00
 -1      4015 9.62850E+01 1.82952E+01 0.00000E+00
 -1      4016 9.47850E+01 1.82952E+01 0.00000E+00
 -1      4017 9.92850E+01 1.82952E+01 0.00000E+00
 -1      4018 9.77850E+01 1.82952E+01 0.00000E+00
 -1      4019 9.70350E+01 1.95942E+01 0.00000E+00
 -1      4020 1.02285E+02 1.82952E+01 0.00000E+00
 -1      4021 1.00785E+02 1.82952E+01 0.00000E+00
 -1      4022 1.00035E+02 1.95942E+01 0.00000E+00
 -1      4023 1.05285E+02 1.82952E+01 0.00000E+00
 -1      4024 1.03785E+02 1.82952E+01 0.00000E+00
 -1      4025 1.03035E+02 1.95942E+01 0.00000E+00
 -1      4026 1.08285E+02 1.82952E+01 0.00000E+00
 -1      4027 1.06785E+02 1.82952E+01 0.00000E+00
 -1      4028 1.06035E+02 1.95942E+01 0.00000E+00
 -1      4029 1.11285E+02 1.82952E+01 0.00000E+00
 -1      4030 1.09785E+02 1.82952E+01 0.00000E+00
 -1      4031 1.09035E+02 1.95942E+01 0.00000E+00
 -1      4032 1.14285E+02 1.82952E+01 0.00000E+00
 -1      4033 1.12785E+02 1.82952E+01 0.00000E+00
 -1      4034 1.12035E+02 1.95942E+01 0.00000E+00
 -1      4035 1.17285E+02 1.82952E+01 0.00000E+00
 -1      4036 1.15785E+02 1.82952E+01 0.00000E+00
 -1      4037 1.15035E+02 1.95942E+01 0.00000E+00
 -1      4038 1.20285E+02 1.82952E+01 0.00000E+00
 -1      4039 1.18785E+02 1.82952E+01 0.00000E+00
 -1      4040 1.18035E+02 1.95942E+01 0.00000E+00
 -1      4041 1.23285E+02 1.82952E+01 0.00000E+00
 -1      4042 1.21785E+02 1.82952E+01 0.00000E+00
 -1      4043 1.21035E+02 1.95942E+01 0.00000E+00
 -1      4044 1.26285E+02 1.82952E+01 0.00000E+00
 -1      4045 1.24785E+02 1.82952E+01 0.00000E+00
 -1      4046 1.24035E+02 1.95942E+01 0.00000E+00
 -1      4047 1.29132E+02 1.82794E+01 0.00000E+00
 -1      4048 1.27632E+02 1.82794E+01 0.00000E+00
 -1      4049 1.26882E+02 1.95784E+01 0.00000E+00
 -1      4050 1.29577E+02 1.95468E+01 0.00000E+00
 -1      4051 2.72850E+01 1.82952E+01 0.00000E+00
 -1      4052 2.57850E+01 1.82952E+01 0.00000E+00
 -1      4053 1.51952E+01 2.79524E+01 0.00000E+00
 -1      4054 7.32706E+01 2.96067E+01 0.00000E+00
 -1      4055 7.57397E+01 3.02552E+01 0.00000E+00
 -1      4056 1.30515E+02 2.42687E+01 0.00000E+00
 -1      4057 1.30515E+02 2.28000E+01 0.00000E+00
 -1      4058 7.82850E+01 1.82952E+01 0.00000E+00
 -1      4059 7.67850E+01 1.82952E+01 0.00000E+00
 -1      4060 7.90350E+01 1.95942E+01 0.00000E+00
 -1      4061 1.74000E+01 3.05150E+01 0.00000E+00
 -1      4062 1.89000E+01 3.05150E+01 0.00000E+00
 -1      4063 1.96500E+01 2.92160E+01 0.00000E+00
 -1      4064 8.42850E+01 1.82952E+01 0.00000E+00
 -1      4065 8.27850E+01 1.82952E+01 0.00000E+00
 -1      4066 8.50350E+01 1.95942E+01 0.00000E+00
 -1      4067 9.32850E+01 1.82952E+01 0.00000E+00
 -1      4068 9.17850E+01 1.82952E+01 0.00000E+00
 -1      4069 9.10350E+01 1.95942E+01 0.00000E+00
 -1      4070 9.40350E+01 1.95942E+01 0.00000E+00
 -1      4071 3.61496E+01 3.05697E+01 0.00000E+00
 -1      4072 3.68275E+01 2.48664E+01 0.00000E+00
 -1      4073 3.73354E+01 2.33151E+01 0.00000E+00
 -1      4074 7.64897E+01 2.89562E+01 0.00000E+00
 -1      4075 1.68608E+01 2.78564E+01 0.00000E+00
 -1      4076 1.64843E+01 2.93121E+01 0.00000E+00
 -1      4077 3.63674E+01 2.84992E+01 0.00000E+00
 -1      4078 3.63564E+01 2.68301E+01 0.00000E+00
 -1      4079 3.54874E+01 1.68902E+01 0.00000E+00
 -1      4080 1.81598E+01 2.71220E+01 0.00000E+00
 -1      4081 1.42021E+01 3.01380E+01 0.00000E+00
 -1      4082 3.02850E+01 1.82952E+01 0.00000E+00
 -1      4083 2.87850E+01 1.82952E+01 0.00000E+00
 -1      4084 2.80350E+01 1.95942E+01 0.00000E+00
 -1      4085 7.54810E+01 1.97468E+01 0.00000E+00
 -1      4086 1.75843E+01 1.70828E+01 0.00000E+00
 -1      4087 1.88833E+01 1.78172E+01 0.00000E+00
 -1      4088 8.20350E+01 1.95942E+01 0.00000E+00
 -1      4089 7.42310E+01 2.58993E+01 0.00000E+00
 -1      4090 1.94809E+01 2.27875E+01 0.00000E+00
 -1      4091 1.94727E+01 2.42859E+01 0.00000E+00
 -1      4092 3.55565E+01 2.57093E+01 0.00000E+00
 -1      4093 3.76596E+01 2.17900E+01 0.00000E+00
 -1      4094 3.79838E+01 2.02649E+01 0.00000E+00
 -1      4095 3.63518E+01 2.22206E+01 0.00000E+00
 -1      4096 1.30070E+02 2.15327E+01 0.00000E+00
 -1      4097 2.42850E+01 1.82952E+01 0.00000E+00
 -1      4098 2.27850E+01 1.82952E+01 0.00000E+00
 -1      4099 2.50350E+01 1.95942E+01 0.00000E+00
 -1      4100 3.41177E+01 2.84445E+01 0.00000E+00
 -1      4101 3.48677E+01 2.97435E+01 0.00000E+00
 -1      4102 3.81157E+01 1.83093E+01 0.00000E+00
 -1      4103 1.49682E+01 3.03745E+01 0.00000E+00
 -1      4104 7.48036E+01 2.08569E+01 0.00000E+00
 -1      4105 7.44264E+01 2.19727E+01 0.00000E+00
 -1      4106 7.55028E+01 2.29244E+01 0.00000E+00
 -1      4107 7.68576E+01 2.07043E+01 0.00000E+00
 -1      4108 1.30456E+02 2.70063E+01 0.00000E+00
 -1      4109 1.30456E+02 2.55313E+01 0.00000E+00
 -1      4110 1.29158E+02 2.47969E+01 0.00000E+00
 -1      4111 1.29040E+02 2.73220E+01 0.00000E+00
 -1      4112 1.91821E+01 1.95664E+01 0.00000E+00
 -1      4113 1.91821E+01 2.10383E+01 0.00000E+00
 -1      4114 2.04770E+01 2.17946E+01 0.00000E+00
 -1      4115 1.98794E+01 1.82961E+01 0.00000E+00
 -1      4116 7.58439E+01 2.76479E+01 0.00000E+00
 -1      4117 7.75043E+01 2.79077E+01 0.00000E+00
 -1      4118 3.32850E+01 1.82952E+01 0.00000E+00
 -1      4119 3.17850E+01 1.82952E+01 0.00000E+00
 -1      4120 3.10350E+01 1.95942E+01 0.00000E+00
 -1      4121 3.68079E+01 1.87399E+01 0.00000E+00
 -1      4122 3.53555E+01 1.88459E+01 0.00000E+00
 -1      4123 2.11066E+01 1.85208E+01 0.00000E+00
 -1      4124 2.49000E+01 2.79170E+01 0.00000E+00
 -1      4125 2.64000E+01 2.79170E+01 0.00000E+00
 -1      4126 2.79000E+01 2.79170E+01 0.00000E+00
 -1      4127 2.94000E+01 2.79170E+01 0.00000E+00
 -1      4128 2.71500E+01 2.66180E+01 0.00000E+00
 -1      4129 3.09000E+01 2.79170E+01 0.00000E+00
 -1      4130 3.24000E+01 2.79170E+01 0.00000E+00
 -1      4131 3.01500E+01 2.66180E+01 0.00000E+00
 -1      4132 1.57343E+01 3.06111E+01 0.00000E+00
 -1      4133 3.40797E+01 2.63934E+01 0.00000E+00
 -1      4134 3.45508E+01 2.44297E+01 0.00000E+00
 -1      4135 7.90043E+01 2.79077E+01 0.00000E+00
 -1      4136 8.05043E+01 2.79077E+01 0.00000E+00
 -1      4137 7.83585E+01 2.65994E+01 0.00000E+00
 -1      4138 8.20043E+01 2.79077E+01 0.00000E+00
 -1      4139 8.35043E+01 2.79077E+01 0.00000E+00
 -1      4140 8.13585E+01 2.65994E+01 0.00000E+00
 -1      4141 8.50043E+01 2.79077E+01 0.00000E+00
 -1      4142 8.65043E+01 2.79077E+01 0.00000E+00
 -1      4143 8.43585E+01 2.65994E+01 0.00000E+00
 -1      4144 8.80043E+01 2.79077E+01 0.00000E+00
 -1      4145 8.95043E+01 2.79077E+01 0.00000E+00
 -1      4146 8.73585E+01 2.65994E+01 0.00000E+00
 -1      4147 9.10043E+01 2.79077E+01 0.00000E+00
 -1      4148 9.25043E+01 2.79077E+01 0.00000E+00
 -1      4149 9.03585E+01 2.65994E+01 0.00000E+00
 -1      4150 9.40043E+01 2.79077E+01 0.00000E+00
 -1      4151 9.55043E+01 2.79077E+01 0.00000E+00
 -1      4152 9.33585E+01 2.65994E+01 0.00000E+00
 -1      4153 9.70043E+01 2.79077E+01 0.00000E+00
 -1      4154 9.85043E+01 2.79077E+01 0.00000E+00
 -1      4155 9.63585E+01 2.65994E+01 0.00000E+00
 -1      4156 1.00004E+02 2.79077E+01 0.00000E+00
 -1      4157 1.01504E+02 2.79077E+01 0.00000E+00
 -1      4158 9.93585E+01 2.65994E+01 0.00000E+00
 -1      4159 1.03004E+02 2.79077E+01 0.00000E+00
 -1      4160 1.04504E+02 2.79077E+01 0.00000E+00
 -1      4161 1.02359E+02 2.65994E+01 0.00000E+00
 -1      4162 1.06004E+02 2.79077E+01 0.00000E+00
 -1      4163 1.07504E+02 2.79077E+01 0.00000E+00
 -1      4164 1.05359E+02 2.65994E+01 0.00000E+00
 -1      4165 1.09004E+02 2.79077E+01 0.00000E+00
 -1      4166 1.10504E+02 2.79077E+01 0.00000E+00
 -1      4167 1.08359E+02 2.65994E+01 0.00000E+00
 -1      4168 1.12004E+02 2.79077E+01 0.00000E+00
 -1      4169 1.13504E+02 2.79077E+01 0.00000E+00
 -1      4170 1.11359E+02 2.65994E+01 0.00000E+00
 -1      4171 1.15004E+02 2.79077E+01 0.00000E+00
 -1      4172 1.16504E+02 2.79077E+01 0.00000E+00
 -1      4173 1.14359E+02 2.65994E+01 0.00000E+00
 -1      4174 1.18004E+02 2.79077E+01 0.00000E+00
 -1      4175 1.19504E+02 2.79077E+01 0.00000E+00
 -1      4176 1.17359E+02 2.65994E+01 0.00000E+00
 -1      4177 1.21004E+02 2.79077E+01 0.00000E+00
 -1      4178 1.22504E+02 2.79077E+01 0.00000E+00
 -1      4179 1.20359E+02 2.65994E+01 0.00000E+00
 -1      4180 1.24004E+02 2.79077E+01 0.00000E+00
 -1      4181 1.25504E+02 2.79077E+01 0.00000E+00
 -1      4182 1.23359E+02 2.65994E+01 0.00000E+00
 -1      4183 1.03785E+02 2.08932E+01 0.00000E+00
 -1      4184 1.02285E+02 2.08932E+01 0.00000E+00
 -1      4185 8.27850E+01 2.08932E+01 0.00000E+00
 -1      4186 8.12850E+01 2.08932E+01 0.00000E+00
 -1      4187 7.48274E+01 2.63654E+01 0.00000E+00
 -1      4188 7.58420E+01 2.53169E+01 0.00000E+00
 -1      4189 8.87850E+01 2.08932E+01 0.00000E+00
 -1      4190 8.72850E+01 2.08932E+01 0.00000E+00
 -1      4191 1.00785E+02 2.08932E+01 0.00000E+00
 -1      4192 9.92850E+01 2.08932E+01 0.00000E+00
 -1      4193 1.01535E+02 2.21922E+01 0.00000E+00
 -1      4194 1.95663E+01 2.57040E+01 0.00000E+00
 -1      4195 1.95565E+01 2.77979E+01 0.00000E+00
 -1      4196 2.10565E+01 2.77979E+01 0.00000E+00
 -1      4197 2.08694E+01 2.49618E+01 0.00000E+00
 -1      4198 9.77850E+01 2.08932E+01 0.00000E+00
 -1      4199 9.62850E+01 2.08932E+01 0.00000E+00
 -1      4200 9.85350E+01 2.21922E+01 0.00000E+00
 -1      4201 1.06785E+02 2.08932E+01 0.00000E+00
 -1      4202 1.05285E+02 2.08932E+01 0.00000E+00
 -1      4203 1.04535E+02 2.21922E+01 0.00000E+00
 -1      4204 1.09785E+02 2.08932E+01 0.00000E+00
 -1      4205 1.08285E+02 2.08932E+01 0.00000E+00
 -1      4206 1.07535E+02 2.21922E+01 0.00000E+00
 -1      4207 1.12785E+02 2.08932E+01 0.00000E+00
 -1      4208 1.11285E+02 2.08932E+01 0.00000E+00
 -1      4209 1.10535E+02 2.21922E+01 0.00000E+00
 -1      4210 1.15785E+02 2.08932E+01 0.00000E+00
 -1      4211 1.14285E+02 2.08932E+01 0.00000E+00
 -1      4212 1.13535E+02 2.21922E+01 0.00000E+00
 -1      4213 1.18785E+02 2.08932E+01 0.00000E+00
 -1      4214 1.17285E+02 2.08932E+01 0.00000E+00
 -1      4215 1.16535E+02 2.21922E+01 0.00000E+00
 -1      4216 1.21785E+02 2.08932E+01 0.00000E+00
 -1      4217 1.20285E+02 2.08932E+01 0.00000E+00
 -1      4218 1.19535E+02 2.21922E+01 0.00000E+00
 -1      4219 1.24785E+02 2.08932E+01 0.00000E+00
 -1      4220 1.23285E+02 2.08932E+01 0.00000E+00
 -1      4221 1.22535E+02 2.21922E+01 0.00000E+00
 -1      4222 7.42330E+01 2.82303E+01 0.00000E+00
 -1      4223 7.37424E+01 2.89471E+01 0.00000E+00
 -1      4224 3.33677E+01 2.71455E+01 0.00000E+00
 -1      4225 8.57850E+01 2.08932E+01 0.00000E+00
 -1      4226 8.42850E+01 2.08932E+01 0.00000E+00
 -1      4227 8.65350E+01 2.21922E+01 0.00000E+00
 -1      4228 1.28723E+02 2.15485E+01 0.00000E+00
 -1      4229 7.97850E+01 2.08932E+01 0.00000E+00
 -1      4230 7.82850E+01 2.08932E+01 0.00000E+00
 -1      4231 8.05350E+01 2.21922E+01 0.00000E+00
 -1      4232 7.64224E+01 2.41207E+01 0.00000E+00
 -1      4233 7.74389E+01 2.54032E+01 0.00000E+00
 -1      4234 7.89389E+01 2.54032E+01 0.00000E+00
 -1      4235 7.70998E+01 2.30106E+01 0.00000E+00
 -1      4236 2.22282E+01 2.78575E+01 0.00000E+00
 -1      4237 2.37282E+01 2.78575E+01 0.00000E+00
 -1      4238 2.44782E+01 2.65585E+01 0.00000E+00
 -1      4239 2.21347E+01 2.64394E+01 0.00000E+00
 -1      4240 8.35350E+01 2.21922E+01 0.00000E+00
 -1      4241 2.18566E+01 1.98198E+01 0.00000E+00
 -1      4242 2.21554E+01 2.15690E+01 0.00000E+00
 -1      4243 3.23620E+01 2.58659E+01 0.00000E+00
 -1      4244 3.46055E+01 2.01449E+01 0.00000E+00
 -1      4245 1.26564E+02 2.77727E+01 0.00000E+00
 -1      4246 1.27980E+02 2.74570E+01 0.00000E+00
 -1      4247 1.28039E+02 2.61945E+01 0.00000E+00
 -1      4248 1.25919E+02 2.64645E+01 0.00000E+00
 -1      4249 2.19476E+01 2.36033E+01 0.00000E+00
 -1      4250 2.20411E+01 2.50214E+01 0.00000E+00
 -1      4251 2.32129E+01 2.50809E+01 0.00000E+00
 -1      4252 1.27428E+02 2.12130E+01 0.00000E+00
 -1      4253 1.26080E+02 2.12288E+01 0.00000E+00
 -1      4254 1.25330E+02 2.25278E+01 0.00000E+00
 -1      4255 1.27921E+02 2.31988E+01 0.00000E+00
 -1      4256 1.27951E+02 2.53279E+01 0.00000E+00
 -1      4257 1.28009E+02 2.40654E+01 0.00000E+00
 -1      4258 1.26714E+02 2.37298E+01 0.00000E+00
 -1      4259 1.26890E+02 2.54629E+01 0.00000E+00
 -1      4260 7.76076E+01 2.20033E+01 0.00000E+00
 -1      4261 3.44161E+01 2.30498E+01 0.00000E+00
 -1      4262 3.47402E+01 2.15248E+01 0.00000E+00
 -1      4263 3.26698E+01 2.09741E+01 0.00000E+00
 -1      4264 3.29393E+01 2.37339E+01 0.00000E+00
 -1      4265 9.55350E+01 2.21922E+01 0.00000E+00
 -1      4266 9.47850E+01 2.08932E+01 0.00000E+00
 -1      4267 9.32850E+01 2.08932E+01 0.00000E+00
 -1      4268 2.87850E+01 2.08932E+01 0.00000E+00
 -1      4269 2.72850E+01 2.08932E+01 0.00000E+00
 -1      4270 9.17850E+01 2.08932E+01 0.00000E+00
 -1      4271 9.02850E+01 2.08932E+01 0.00000E+00
 -1      4272 8.95350E+01 2.21922E+01 0.00000E+00
 -1      4273 9.25350E+01 2.21922E+01 0.00000E+00
 -1      4274 2.55772E+01 2.29275E+01 0.00000E+00
 -1      4275 2.48272E+01 2.16285E+01 0.00000E+00
 -1      4276 2.93620E+01 2.58659E+01 0.00000E+00
 -1      4277 3.08620E+01 2.58659E+01 0.00000E+00
 -1      4278 3.15740E+01 2.51138E+01 0.00000E+00
 -1      4279 1.25419E+02 2.33943E+01 0.00000E+00
 -1      4280 1.24123E+02 2.30588E+01 0.00000E+00
 -1      4281 1.25507E+02 2.42609E+01 0.00000E+00
 -1      4282 8.39468E+01 2.43958E+01 0.00000E+00
 -1      4283 8.24468E+01 2.43958E+01 0.00000E+00
 -1      4284 8.09468E+01 2.43958E+01 0.00000E+00
 -1      4285 8.54468E+01 2.43958E+01 0.00000E+00
 -1      4286 8.69468E+01 2.43958E+01 0.00000E+00
 -1      4287 8.84468E+01 2.43958E+01 0.00000E+00
 -1      4288 8.99468E+01 2.43958E+01 0.00000E+00
 -1      4289 9.14468E+01 2.43958E+01 0.00000E+00
 -1      4290 9.29468E+01 2.43958E+01 0.00000E+00
 -1      4291 9.44468E+01 2.43958E+01 0.00000E+00
 -1      4292 9.59468E+01 2.43958E+01 0.00000E+00
 -1      4293 9.74468E+01 2.43958E+01 0.00000E+00
 -1      4294 9.89468E+01 2.43958E+01 0.00000E+00
 -1      4295 1.00447E+02 2.43958E+01 0.00000E+00
 -1      4296 1.01947E+02 2.43958E+01 0.00000E+00
 -1      4297 1.03447E+02 2.43958E+01 0.00000E+00
 -1      4298 1.04947E+02 2.43958E+01 0.00000E+00
 -1      4299 1.06447E+02 2.43958E+01 0.00000E+00
 -1      4300 1.07947E+02 2.43958E+01 0.00000E+00
 -1      4301 1.09447E+02 2.43958E+01 0.00000E+00
 -1      4302 1.10947E+02 2.43958E+01 0.00000E+00
 -1      4303 1.12447E+02 2.43958E+01 0.00000E+00
 -1      4304 1.13947E+02 2.43958E+01 0.00000E+00
 -1      4305 1.15447E+02 2.43958E+01 0.00000E+00
 -1      4306 1.16947E+02 2.43958E+01 0.00000E+00
 -1      4307 1.18447E+02 2.43958E+01 0.00000E+00
 -1      4308 1.19947E+02 2.43958E+01 0.00000E+00
 -1      4309 1.21447E+02 2.43958E+01 0.00000E+00
 -1      4310 1.23035E+02 2.52624E+01 0.00000E+00
 -1      4311 1.24535E+02 2.52624E+01 0.00000E+00
 -1      4312 2.33272E+01 2.16285E+01 0.00000E+00
 -1      4313 2.63620E+01 2.58659E+01 0.00000E+00
 -1      4314 2.78620E+01 2.58659E+01 0.00000E+00
 -1      4315 2.85740E+01 2.51138E+01 0.00000E+00
 -1      4316 7.85272E+01 2.31996E+01 0.00000E+00
 -1      4317 3.14774E+01 2.09337E+01 0.00000E+00
 -1      4318 2.99774E+01 2.09337E+01 0.00000E+00
 -1      4319 2.92274E+01 2.22327E+01 0.00000E+00
 -1      4320 3.16121E+01 2.23136E+01 0.00000E+00
 -1      4321 2.43847E+01 2.51404E+01 0.00000E+00
 -1      4322 1.25830E+02 2.55979E+01 0.00000E+00
 -1      4323 8.00272E+01 2.31996E+01 0.00000E+00
 -1      4324 2.50967E+01 2.43883E+01 0.00000E+00
 -1      4325 2.75545E+01 2.36530E+01 0.00000E+00
 -1      4326 1.22623E+02 2.30588E+01 0.00000E+00
 -1      4327 3.14393E+01 2.37339E+01 0.00000E+00
 -1      4328 2.90545E+01 2.36530E+01 0.00000E+00
 -1      4329 3.02469E+01 2.36935E+01 0.00000E+00
 -3
    3C                          2083                                     1
 -1       164    8    0    1
 -2         6         7        23      1124      1287      1141
 -1       165    8    0    1
 -2         7         8       164      1125      1288      1289
 -1       166    8    0    1
 -2         8         9       165      1126      1290      1291
 -1       167    8    0    1
 -2         8       165       164      1291      1292      1288
 -1       168    8    0    1
 -2         9        10       166      1127      1293      1294
 -1       169    8    0    1
 -2         9       166       165      1294      1295      1290
 -1       170    8    0    1
 -2        10        11       167      1128      1296      1297
 -1       171    8    0    1
 -2        10       167       166      1297      1298      1293
 -1       172    8    0    1
 -2        11        12       168      1129      1299      1300
 -1       173    8    0    1
 -2        11       168       167      1300      1301      1296
 -1       174    8    0    1
 -2        12        13       169      1130      1302      1303
 -1       175    8    0    1
 -2        12       169       168      1303      1304      1299
 -1       176    8    0    1
 -2        13        14       170      1131      1305      1306
 -1       177    8    0    1
 -2        13       170       169      1306      1307      1302
 -1       178    8    0    1
 -2        14        15       171      1132      1308      1309
 -1       179    8    0    1
 -2        14       171       170      1309      1310      1305
 -1       180    8    0    1
 -2        15        16       172      1133      1311      1312
 -1       181    8    0    1
 -2        15       172       171      1312      1313      1308
 -1       182    8    0    1
 -2        16        17       173      1134      1314      1315
 -1       183    8    0    1
 -2        16       173       172      1315      1316      1311
 -1       184    8    0    1
 -2        17        18       174      1135      1317      1318
 -1       185    8    0    1
 -2        17       174       173      1318      1319      1314
 -1       186    8    0    1
 -2        18        19       175      1136      1320      1321
 -1       187    8    0    1
 -2        18       175       174      1321      1322      1317
 -1       188    8    0    1
 -2        19        20       176      1137      1323      1324
 -1       189    8    0    1
 -2        19       176       175      1324      1325      1320
 -1       190    8    0    1
 -2        20        21       177      1138      1326      1327
 -1       191    8    0    1
 -2        20       177       176      1327      1328      1323
 -1       192    8    0    1
 -2        21        22       178      1139      1329      1330
 -1       193    8    0    1
 -2        21       178       177      1330      1331      1326
 -1       194    8    0    1
 -2        22         5       179      1140      1332      1333
 -1       195    8    0    1
 -2       178        22       179      1329      1333      1334
 -1       196    8    0    1
 -2         5        72       179      1191      1335      1332
 -1       197    8    0    1
 -2        24        23       180      1142      1336      1337
 -1       198    8    0    1
 -2        25        24       181      1143      1338      1339
 -1       199    8    0    1
 -2        24       180       181      1337      1340      1338
 -1       200    8    0    1
 -2        26        25       182      1144      1341      1342
 -1       201    8    0    1
 -2        25       181       182      1339      1343      1341
 -1       202    8    0    1
 -2        27        26       183      1145      1344      1345
 -1       203    8    0    1
 -2        26       182       183      1342      1346      1344
 -1       204    8    0    1
 -2        28        27       184      1146      1347      1348
 -1       205    8    0    1
 -2        27       183       184      1345      1349      1347
 -1       206    8    0    1
 -2        29        28       185      1147      1350      1351
 -1       207    8    0    1
 -2        28       184       185      1348      1352      1350
 -1       208    8    0    1
 -2        30        29       186      1148      1353      1354
 -1       209    8    0    1
 -2        29       185       186      1351      1355      1353
 -1       210    8    0    1
 -2        31        30       187      1149      1356      1357
 -1       211    8    0    1
 -2        30       186       187      1354      1358      1356
 -1       212    8    0    1
 -2        32        31       188      1150      1359      1360
 -1       213    8    0    1
 -2        31       187       188      1357      1361      1359
 -1       214    8    0    1
 -2        33        32       189      1151      1362      1363
 -1       215    8    0    1
 -2        32       188       189      1360      1364      1362
 -1       216    8    0    1
 -2        34        33       190      1152      1365      1366
 -1       217    8    0    1
 -2        33       189       190      1363      1367      1365
 -1       218    8    0    1
 -2        35        34       191      1153      1368      1369
 -1       219    8    0    1
 -2        34       190       191      1366      1370      1368
 -1       220    8    0    1
 -2        36        35       192      1154      1371      1372
 -1       221    8    0    1
 -2        35       191       192      1369      1373      1371
 -1       222    8    0    1
 -2        37        36       193      1155      1374      1375
 -1       223    8    0    1
 -2        36       192       193      1372      1376      1374
 -1       224    8    0    1
 -2        38        37       194      1156      1377      1378
 -1       225    8    0    1
 -2        37       193       194      1375      1379      1377
 -1       226    8    0    1
 -2        39        38       195      1157      1380      1381
 -1       227    8    0    1
 -2        38       194       195      1378      1382      1380
 -1       228    8    0    1
 -2        40        39       196      1158      1383      1384
 -1       229    8    0    1
 -2        39       195       196      1381      1385      1383
 -1       230    8    0    1
 -2        41        40       197      1159      1386      1387
 -1       231    8    0    1
 -2        40       196       197      1384      1388      1386
 -1       232    8    0    1
 -2        42        41       198      1160      1389      1390
 -1       233    8    0    1
 -2        41       197       198      1387      1391      1389
 -1       234    8    0    1
 -2        43        42       199      1161      1392      1393
 -1       235    8    0    1
 -2        42       198       199      1390      1394      1392
 -1       236    8    0    1
 -2        44        43       200      1162      1395      1396
 -1       237    8    0    1
 -2        43       199       200      1393      1397      1395
 -1       238    8    0    1
 -2        45        44       201      1163      1398      1399
 -1       239    8    0    1
 -2        44       200       201      1396      1400      1398
 -1       240    8    0    1
 -2        46        45       202      1164      1401      1402
 -1       241    8    0    1
 -2        45       201       202      1399      1403      1401
 -1       242    8    0    1
 -2        47        46       203      1165      1404      1405
 -1       243    8    0    1
 -2        46       202       203      1402      1406      1404
 -1       244    8    0    1
 -2        48        47       204      1166      1407      1408
 -1       245    8    0    1
 -2        47       203       204      1405      1409      1407
 -1       246    8    0    1
 -2        49        48       205      1167      1410      1411
 -1       247    8    0    1
 -2        48       204       205      1408      1412      1410
 -1       248    8    0    1
 -2        50        49       206      1168      1413      1414
 -1       249    8    0    1
 -2        49       205       206      1411      1415      1413
 -1       250    8    0    1
 -2        51        50       207      1169      1416      1417
 -1       251    8    0    1
 -2        50       206       207      1414      1418      1416
 -1       252    8    0    1
 -2        52        51       208      1170      1419      1420
 -1       253    8    0    1
 -2        51       207       208      1417      1421      1419
 -1       254    8    0    1
 -2        53        52       209      1171      1422      1423
 -1       255    8    0    1
 -2        52       208       209      1420      1424      1422
 -1       256    8    0    1
 -2        54        53       210      1172      1425      1426
 -1       257    8    0    1
 -2        53       209       210      1423      1427      1425
 -1       258    8    0    1
 -2        55        54       211      1173      1428      1429
 -1       259    8    0    1
 -2        54       210       211      1426      1430      1428
 -1       260    8    0    1
 -2        56        55       212      1174      1431      1432
 -1       261    8    0    1
 -2        55       211       212      1429      1433      1431
 -1       262    8    0    1
 -2        57        56       213      1175      1434      1435
 -1       263    8    0    1
 -2        56       212       213      1432      1436      1434
 -1       264    8    0    1
 -2        58        57       214      1176      1437      1438
 -1       265    8    0    1
 -2        57       213       214      1435      1439      1437
 -1       266    8    0    1
 -2        59        58       215      1177      1440      1441
 -1       267    8    0    1
 -2        58       214       215      1438      1442      1440
 -1       268    8    0    1
 -2        60        59       216      1178      1443      1444
 -1       269    8    0    1
 -2        59       215       216      1441      1445      1443
 -1       270    8    0    1
 -2        61        60       217      1179      1446      1447
 -1       271    8    0    1
 -2        60       216       217      1444      1448      1446
 -1       272    8    0    1
 -2        62        61       218      1180      1449      1450
 -1       273    8    0    1
 -2        61       217       218      1447      1451      1449
 -1       274    8    0    1
 -2        63        62       219      1181      1452      1453
 -1       275    8    0    1
 -2        62       218       219      1450      1454      1452
 -1       276    8    0    1
 -2        64        63       220      1182      1455      1456
 -1       277    8    0    1
 -2        63       219       220      1453      1457      1455
 -1       278    8    0    1
 -2        65        64       221      1183      1458      1459
 -1       279    8    0    1
 -2        64       220       221      1456      1460      1458
 -1       280    8    0    1
 -2        66        65       222      1184      1461      1462
 -1       281    8    0    1
 -2        65       221       222      1459      1463      1461
 -1       282    8    0    1
 -2        67        66       223      1185      1464      1465
 -1       283    8    0    1
 -2        66       222       223      1462      1466      1464
 -1       284    8    0    1
 -2        68        67       224      1186      1467      1468
 -1       285    8    0    1
 -2        67       223       224      1465      1469      1467
 -1       286    8    0    1
 -2        69        68       225      1187      1470      1471
 -1       287    8    0    1
 -2        68       224       225      1468      1472      1470
 -1       288    8    0    1
 -2        70        69       226      1188      1473      1474
 -1       289    8    0    1
 -2        69       225       226      1471      1475      1473
 -1       290    8    0    1
 -2        71        70       227      1189      1476      1477
 -1       291    8    0    1
 -2        70       226       227      1474      1478      1476
 -1       292    8    0    1
 -2         4        71       136      1190      1479      1257
 -1       293    8    0    1
 -2       136        71       227      1479      1477      1480
 -1       294    8    0    1
 -2        72        73       228      1192      1481      1482
 -1       295    8    0    1
 -2        72       228       179      1482      1483      1335
 -1       296    8    0    1
 -2        73        74       229      1193      1484      1485
 -1       297    8    0    1
 -2        73       229       228      1485      1486      1481
 -1       298    8    0    1
 -2        74        75       230      1194      1487      1488
 -1       299    8    0    1
 -2        74       230       229      1488      1489      1484
 -1       300    8    0    1
 -2        75        76       231      1195      1490      1491
 -1       301    8    0    1
 -2        75       231       230      1491      1492      1487
 -1       302    8    0    1
 -2        76        77       232      1196      1493      1494
 -1       303    8    0    1
 -2        76       232       231      1494      1495      1490
 -1       304    8    0    1
 -2        77        78       233      1197      1496      1497
 -1       305    8    0    1
 -2        77       233       232      1497      1498      1493
 -1       306    8    0    1
 -2        78        79       234      1198      1499      1500
 -1       307    8    0    1
 -2        78       234       233      1500      1501      1496
 -1       308    8    0    1
 -2        79        80       235      1199      1502      1503
 -1       309    8    0    1
 -2        79       235       234      1503      1504      1499
 -1       310    8    0    1
 -2        80        81       236      1200      1505      1506
 -1       311    8    0    1
 -2        80       236       235      1506      1507      1502
 -1       312    8    0    1
 -2        81        82       237      1201      1508      1509
 -1       313    8    0    1
 -2        81       237       236      1509      1510      1505
 -1       314    8    0    1
 -2        82        83       238      1202      1511      1512
 -1       315    8    0    1
 -2        82       238       237      1512      1513      1508
 -1       316    8    0    1
 -2        83        84       239      1203      1514      1515
 -1       317    8    0    1
 -2        83       239       238      1515      1516      1511
 -1       318    8    0    1
 -2        84        85       240      1204      1517      1518
 -1       319    8    0    1
 -2        84       240       239      1518      1519      1514
 -1       320    8    0    1
 -2        85        86       241      1205      1520      1521
 -1       321    8    0    1
 -2        85       241       240      1521      1522      1517
 -1       322    8    0    1
 -2        86        87       242      1206      1523      1524
 -1       323    8    0    1
 -2        86       242       241      1524      1525      1520
 -1       324    8    0    1
 -2        87        88       243      1207      1526      1527
 -1       325    8    0    1
 -2        87       243       242      1527      1528      1523
 -1       326    8    0    1
 -2        88        89       244      1208      1529      1530
 -1       327    8    0    1
 -2        88       244       243      1530      1531      1526
 -1       328    8    0    1
 -2        89        90       245      1209      1532      1533
 -1       329    8    0    1
 -2        89       245       244      1533      1534      1529
 -1       330    8    0    1
 -2        90        91       246      1210      1535      1536
 -1       331    8    0    1
 -2        90       246       245      1536      1537      1532
 -1       332    8    0    1
 -2        91        92       247      1211      1538      1539
 -1       333    8    0    1
 -2        91       247       246      1539      1540      1535
 -1       334    8    0    1
 -2        92        93       248      1212      1541      1542
 -1       335    8    0    1
 -2        92       248       247      1542      1543      1538
 -1       336    8    0    1
 -2        93        94       249      1213      1544      1545
 -1       337    8    0    1
 -2        93       249       248      1545      1546      1541
 -1       338    8    0    1
 -2        94        95       250      1214      1547      1548
 -1       339    8    0    1
 -2        94       250       249      1548      1549      1544
 -1       340    8    0    1
 -2        95        96       251      1215      1550      1551
 -1       341    8    0    1
 -2        95       251       250      1551      1552      1547
 -1       342    8    0    1
 -2        96        97       252      1216      1553      1554
 -1       343    8    0    1
 -2        96       252       251      1554      1555      1550
 -1       344    8    0    1
 -2        97        98       253      1217      1556      1557
 -1       345    8    0    1
 -2        97       253       252      1557      1558      1553
 -1       346    8    0    1
 -2        98        99       254      1218      1559      1560
 -1       347    8    0    1
 -2        98       254       253      1560      1561      1556
 -1       348    8    0    1
 -2        99       100       255      1219      1562      1563
 -1       349    8    0    1
 -2        99       255       254      1563      1564      1559
 -1       350    8    0    1
 -2       100       101       256      1220      1565      1566
 -1       351    8    0    1
 -2       100       256       255      1566      1567      1562
 -1       352    8    0    1
 -2       101       102       257      1221      1568      1569
 -1       353    8    0    1
 -2       101       257       256      1569      1570      1565
 -1       354    8    0    1
 -2       102       103       258      1222      1571      1572
 -1       355    8    0    1
 -2       102       258       257      1572      1573      1568
 -1       356    8    0    1
 -2       103       104       259      1223      1574      1575
 -1       357    8    0    1
 -2       103       259       258      1575      1576      1571
 -1       358    8    0    1
 -2       104       105       260      1224      1577      1578
 -1       359    8    0    1
 -2       104       260       259      1578      1579      1574
 -1       360    8    0    1
 -2       105       106       261      1225      1580      1581
 -1       361    8    0    1
 -2       105       261       260      1581      1582      1577
 -1       362    8    0    1
 -2       106       107       262      1226      1583      1584
 -1       363    8    0    1
 -2       106       262       261      1584      1585      1580
 -1       364    8    0    1
 -2       107       108       263      1227      1586      1587
 -1       365    8    0    1
 -2       107       263       262      1587      1588      1583
 -1       366    8    0    1
 -2       108       109       264      1228      1589      1590
 -1       367    8    0    1
 -2       108       264       263      1590      1591      1586
 -1       368    8    0    1
 -2       109       110       265      1229      1592      1593
 -1       369    8    0    1
 -2       109       265       264      1593      1594      1589
 -1       370    8    0    1
 -2       110       111       266      1230      1595      1596
 -1       371    8    0    1
 -2       110       266       265      1596      1597      1592
 -1       372    8    0    1
 -2       111       112       267      1231      1598      1599
 -1       373    8    0    1
 -2       111       267       266      1599      1600      1595
 -1       374    8    0    1
 -2       112       113       268      1232      1601      1602
 -1       375    8    0    1
 -2       112       268       267      1602      1603      1598
 -1       376    8    0    1
 -2       113       114       269      1233      1604      1605
 -1       377    8    0    1
 -2       113       269       268      1605      1606      1601
 -1       378    8    0    1
 -2       114       115       270      1234      1607      1608
 -1       379    8    0    1
 -2       114       270       269      1608      1609      1604
 -1       380    8    0    1
 -2       115       116       271      1235      1610      1611
 -1       381    8    0    1
 -2       115       271       270      1611      1612      1607
 -1       382    8    0    1
 -2       116       117       272      1236      1613      1614
 -1       383    8    0    1
 -2       116       272       271      1614      1615      1610
 -1       384    8    0    1
 -2       117       118       273      1237      1616      1617
 -1       385    8    0    1
 -2       117       273       272      1617      1618      1613
 -1       386    8    0    1
 -2       118       119       274      1238      1619      1620
 -1       387    8    0    1
 -2       118       274       273      1620      1621      1616
 -1       388    8    0    1
 -2       119       120       275      1239      1622      1623
 -1       389    8    0    1
 -2       119       275       274      1623      1624      1619
 -1       390    8    0    1
 -2       120         3       121      1240      1241      1625
 -1       391    8    0    1
 -2       121       122       276      1242      1626      1627
 -1       392    8    0    1
 -2       122       123       277      1243      1628      1629
 -1       393    8    0    1
 -2       122       277       276      1629      1630      1626
 -1       394    8    0    1
 -2       123       124       278      1244      1631      1632
 -1       395    8    0    1
 -2       123       278       277      1632      1633      1628
 -1       396    8    0    1
 -2       124       125       279      1245      1634      1635
 -1       397    8    0    1
 -2       124       279       278      1635      1636      1631
 -1       398    8    0    1
 -2       125       126       280      1246      1637      1638
 -1       399    8    0    1
 -2       125       280       279      1638      1639      1634
 -1       400    8    0    1
 -2       126       127       281      1247      1640      1641
 -1       401    8    0    1
 -2       126       281       280      1641      1642      1637
 -1       402    8    0    1
 -2       127       128       282      1248      1643      1644
 -1       403    8    0    1
 -2       127       282       281      1644      1645      1640
 -1       404    8    0    1
 -2       128       129       283      1249      1646      1647
 -1       405    8    0    1
 -2       128       283       282      1647      1648      1643
 -1       406    8    0    1
 -2       129       130       284      1250      1649      1650
 -1       407    8    0    1
 -2       129       284       283      1650      1651      1646
 -1       408    8    0    1
 -2       130       131       285      1251      1652      1653
 -1       409    8    0    1
 -2       130       285       284      1653      1654      1649
 -1       410    8    0    1
 -2       131       132       286      1252      1655      1656
 -1       411    8    0    1
 -2       131       286       285      1656      1657      1652
 -1       412    8    0    1
 -2       132       133       287      1253      1658      1659
 -1       413    8    0    1
 -2       132       287       286      1659      1660      1655
 -1       414    8    0    1
 -2       133       134       288      1254      1661      1662
 -1       415    8    0    1
 -2       133       288       287      1662      1663      1658
 -1       416    8    0    1
 -2       134       135       289      1255      1664      1665
 -1       417    8    0    1
 -2       134       289       288      1665      1666      1661
 -1       418    8    0    1
 -2       135       136       290      1256      1667      1668
 -1       419    8    0    1
 -2       289       135       290      1664      1668      1669
 -1       420    8    0    1
 -2       136       227       290      1480      1670      1667
 -1       421    8    0    1
 -2         2       137       291      1258      1671      1672
 -1       422    8    0    1
 -2       137       138       292      1259      1673      1674
 -1       423    8    0    1
 -2       138       139       293      1260      1675      1676
 -1       424    8    0    1
 -2       139       140       294      1261      1677      1678
 -1       425    8    0    1
 -2       140       141       295      1262      1679      1680
 -1       426    8    0    1
 -2       141       142       296      1263      1681      1682
 -1       427    8    0    1
 -2       142       143       297      1264      1683      1684
 -1       428    8    0    1
 -2       143       144       298      1265      1685      1686
 -1       429    8    0    1
 -2       144       145       299      1266      1687      1688
 -1       430    8    0    1
 -2       145       146       300      1267      1689      1690
 -1       431    8    0    1
 -2       146       147       301      1268      1691      1692
 -1       432    8    0    1
 -2       147       148       302      1269      1693      1694
 -1       433    8    0    1
 -2       148       149       303      1270      1695      1696
 -1       434    8    0    1
 -2       149       150       304      1271      1697      1698
 -1       435    8    0    1
 -2       150       151       305      1272      1699      1700
 -1       436    8    0    1
 -2       151       152       306      1273      1701      1702
 -1       437    8    0    1
 -2       152       153       307      1274      1703      1704
 -1       438    8    0    1
 -2       153       154       308      1275      1705      1706
 -1       439    8    0    1
 -2       154       155       309      1276      1707      1708
 -1       440    8    0    1
 -2       155       156       310      1277      1709      1710
 -1       441    8    0    1
 -2       156       157       311      1278      1711      1712
 -1       442    8    0    1
 -2       157         1       312      1279      1713      1714
 -1       443    8    0    1
 -2         1       158       313      1280      1715      1716
 -1       444    8    0    1
 -2       158       159       314      1281      1717      1718
 -1       445    8    0    1
 -2       159       160       315      1282      1719      1720
 -1       446    8    0    1
 -2       160       161       316      1283      1721      1722
 -1       447    8    0    1
 -2       161       162       317      1284      1723      1724
 -1       448    8    0    1
 -2       162       163       318      1285      1725      1726
 -1       449    8    0    1
 -2       163         2       319      1286      1727      1728
 -1       450    8    0    1
 -2       294       140       295      1677      1680      1729
 -1       451    8    0    1
 -2       293       139       294      1675      1678      1730
 -1       452    8    0    1
 -2       120       121       275      1625      1731      1622
 -1       453    8    0    1
 -2       121       276       275      1627      1732      1731
 -1       454    8    0    1
 -2       291       137       292      1671      1674      1733
 -1       455    8    0    1
 -2       292       138       293      1673      1676      1734
 -1       456    8    0    1
 -2         2       291       319      1672      1735      1727
 -1       457    8    0    1
 -2       141       296       295      1682      1736      1679
 -1       458    8    0    1
 -2       142       297       296      1684      1737      1681
 -1       459    8    0    1
 -2       143       298       297      1686      1738      1683
 -1       460    8    0    1
 -2       144       299       298      1688      1739      1685
 -1       461    8    0    1
 -2       145       300       299      1690      1740      1687
 -1       462    8    0    1
 -2       146       301       300      1692      1741      1689
 -1       463    8    0    1
 -2       147       302       301      1694      1742      1691
 -1       464    8    0    1
 -2       148       303       302      1696      1743      1693
 -1       465    8    0    1
 -2       149       304       303      1698      1744      1695
 -1       466    8    0    1
 -2       150       305       304      1700      1745      1697
 -1       467    8    0    1
 -2       151       306       305      1702      1746      1699
 -1       468    8    0    1
 -2       152       307       306      1704      1747      1701
 -1       469    8    0    1
 -2       153       308       307      1706      1748      1703
 -1       470    8    0    1
 -2       154       309       308      1708      1749      1705
 -1       471    8    0    1
 -2       155       310       309      1710      1750      1707
 -1       472    8    0    1
 -2       156       311       310      1712      1751      1709
 -1       473    8    0    1
 -2       157       312       311      1714      1752      1711
 -1       474    8    0    1
 -2         1       313       312      1716      1753      1713
 -1       475    8    0    1
 -2       158       314       313      1718      1754      1715
 -1       476    8    0    1
 -2       159       315       314      1720      1755      1717
 -1       477    8    0    1
 -2       160       316       315      1722      1756      1719
 -1       478    8    0    1
 -2       161       317       316      1724      1757      1721
 -1       479    8    0    1
 -2       162       318       317      1726      1758      1723
 -1       480    8    0    1
 -2       163       319       318      1728      1759      1725
 -1       481    8    0    1
 -2        23         7       164      1287      1289      1760
 -1       482    8    0    1
 -2       165       166       320      1295      1761      1762
 -1       483    8    0    1
 -2       164       165       321      1292      1763      1764
 -1       484    8    0    1
 -2       165       320       321      1762      1765      1763
 -1       485    8    0    1
 -2       167       168       322      1301      1766      1767
 -1       486    8    0    1
 -2       168       169       323      1304      1768      1769
 -1       487    8    0    1
 -2       168       323       322      1769      1770      1766
 -1       488    8    0    1
 -2       169       170       324      1307      1771      1772
 -1       489    8    0    1
 -2       169       324       323      1772      1773      1768
 -1       490    8    0    1
 -2       170       171       325      1310      1774      1775
 -1       491    8    0    1
 -2       170       325       324      1775      1776      1771
 -1       492    8    0    1
 -2       171       172       326      1313      1777      1778
 -1       493    8    0    1
 -2       171       326       325      1778      1779      1774
 -1       494    8    0    1
 -2       172       173       327      1316      1780      1781
 -1       495    8    0    1
 -2       172       327       326      1781      1782      1777
 -1       496    8    0    1
 -2       173       174       328      1319      1783      1784
 -1       497    8    0    1
 -2       173       328       327      1784      1785      1780
 -1       498    8    0    1
 -2       174       175       329      1322      1786      1787
 -1       499    8    0    1
 -2       174       329       328      1787      1788      1783
 -1       500    8    0    1
 -2       175       176       330      1325      1789      1790
 -1       501    8    0    1
 -2       175       330       329      1790      1791      1786
 -1       502    8    0    1
 -2       176       177       331      1328      1792      1793
 -1       503    8    0    1
 -2       176       331       330      1793      1794      1789
 -1       504    8    0    1
 -2       177       178       332      1331      1795      1796
 -1       505    8    0    1
 -2       177       332       331      1796      1797      1792
 -1       506    8    0    1
 -2       178       179       333      1334      1798      1799
 -1       507    8    0    1
 -2       332       178       333      1795      1799      1800
 -1       508    8    0    1
 -2       179       228       333      1483      1801      1798
 -1       509    8    0    1
 -2       180        23       164      1336      1760      1802
 -1       510    8    0    1
 -2       228       229       334      1486      1803      1804
 -1       511    8    0    1
 -2       228       334       333      1804      1805      1801
 -1       512    8    0    1
 -2       180       164       321      1802      1764      1806
 -1       513    8    0    1
 -2       182       181       335      1343      1807      1808
 -1       514    8    0    1
 -2       183       182       336      1346      1809      1810
 -1       515    8    0    1
 -2       182       335       336      1808      1811      1809
 -1       516    8    0    1
 -2       184       183       337      1349      1812      1813
 -1       517    8    0    1
 -2       183       336       337      1810      1814      1812
 -1       518    8    0    1
 -2       185       184       338      1352      1815      1816
 -1       519    8    0    1
 -2       184       337       338      1813      1817      1815
 -1       520    8    0    1
 -2       186       185       339      1355      1818      1819
 -1       521    8    0    1
 -2       185       338       339      1816      1820      1818
 -1       522    8    0    1
 -2       187       186       340      1358      1821      1822
 -1       523    8    0    1
 -2       186       339       340      1819      1823      1821
 -1       524    8    0    1
 -2       188       187       341      1361      1824      1825
 -1       525    8    0    1
 -2       187       340       341      1822      1826      1824
 -1       526    8    0    1
 -2       189       188       342      1364      1827      1828
 -1       527    8    0    1
 -2       188       341       342      1825      1829      1827
 -1       528    8    0    1
 -2       190       189       343      1367      1830      1831
 -1       529    8    0    1
 -2       189       342       343      1828      1832      1830
 -1       530    8    0    1
 -2       191       190       344      1370      1833      1834
 -1       531    8    0    1
 -2       190       343       344      1831      1835      1833
 -1       532    8    0    1
 -2       192       191       345      1373      1836      1837
 -1       533    8    0    1
 -2       191       344       345      1834      1838      1836
 -1       534    8    0    1
 -2       193       192       346      1376      1839      1840
 -1       535    8    0    1
 -2       192       345       346      1837      1841      1839
 -1       536    8    0    1
 -2       194       193       347      1379      1842      1843
 -1       537    8    0    1
 -2       193       346       347      1840      1844      1842
 -1       538    8    0    1
 -2       195       194       348      1382      1845      1846
 -1       539    8    0    1
 -2       194       347       348      1843      1847      1845
 -1       540    8    0    1
 -2       196       195       349      1385      1848      1849
 -1       541    8    0    1
 -2       195       348       349      1846      1850      1848
 -1       542    8    0    1
 -2       197       196       350      1388      1851      1852
 -1       543    8    0    1
 -2       196       349       350      1849      1853      1851
 -1       544    8    0    1
 -2       198       197       351      1391      1854      1855
 -1       545    8    0    1
 -2       197       350       351      1852      1856      1854
 -1       546    8    0    1
 -2       199       198       352      1394      1857      1858
 -1       547    8    0    1
 -2       198       351       352      1855      1859      1857
 -1       548    8    0    1
 -2       200       199       353      1397      1860      1861
 -1       549    8    0    1
 -2       199       352       353      1858      1862      1860
 -1       550    8    0    1
 -2       201       200       354      1400      1863      1864
 -1       551    8    0    1
 -2       200       353       354      1861      1865      1863
 -1       552    8    0    1
 -2       202       201       355      1403      1866      1867
 -1       553    8    0    1
 -2       201       354       355      1864      1868      1866
 -1       554    8    0    1
 -2       203       202       356      1406      1869      1870
 -1       555    8    0    1
 -2       202       355       356      1867      1871      1869
 -1       556    8    0    1
 -2       204       203       357      1409      1872      1873
 -1       557    8    0    1
 -2       203       356       357      1870      1874      1872
 -1       558    8    0    1
 -2       205       204       358      1412      1875      1876
 -1       559    8    0    1
 -2       204       357       358      1873      1877      1875
 -1       560    8    0    1
 -2       206       205       359      1415      1878      1879
 -1       561    8    0    1
 -2       205       358       359      1876      1880      1878
 -1       562    8    0    1
 -2       207       206       360      1418      1881      1882
 -1       563    8    0    1
 -2       206       359       360      1879      1883      1881
 -1       564    8    0    1
 -2       208       207       361      1421      1884      1885
 -1       565    8    0    1
 -2       207       360       361      1882      1886      1884
 -1       566    8    0    1
 -2       209       208       362      1424      1887      1888
 -1       567    8    0    1
 -2       208       361       362      1885      1889      1887
 -1       568    8    0    1
 -2       210       209       363      1427      1890      1891
 -1       569    8    0    1
 -2       209       362       363      1888      1892      1890
 -1       570    8    0    1
 -2       211       210       364      1430      1893      1894
 -1       571    8    0    1
 -2       210       363       364      1891      1895      1893
 -1       572    8    0    1
 -2       212       211       365      1433      1896      1897
 -1       573    8    0    1
 -2       211       364       365      1894      1898      1896
 -1       574    8    0    1
 -2       213       212       366      1436      1899      1900
 -1       575    8    0    1
 -2       212       365       366      1897      1901      1899
 -1       576    8    0    1
 -2       214       213       367      1439      1902      1903
 -1       577    8    0    1
 -2       213       366       367      1900      1904      1902
 -1       578    8    0    1
 -2       215       214       368      1442      1905      1906
 -1       579    8    0    1
 -2       214       367       368      1903      1907      1905
 -1       580    8    0    1
 -2       216       215       369      1445      1908      1909
 -1       581    8    0    1
 -2       215       368       369      1906      1910      1908
 -1       582    8    0    1
 -2       217       216       370      1448      1911      1912
 -1       583    8    0    1
 -2       216       369       370      1909      1913      1911
 -1       584    8    0    1
 -2       218       217       371      1451      1914      1915
 -1       585    8    0    1
 -2       217       370       371      1912      1916      1914
 -1       586    8    0    1
 -2       219       218       372      1454      1917      1918
 -1       587    8    0    1
 -2       218       371       372      1915      1919      1917
 -1       588    8    0    1
 -2       220       219       373      1457      1920      1921
 -1       589    8    0    1
 -2       219       372       373      1918      1922      1920
 -1       590    8    0    1
 -2       221       220       374      1460      1923      1924
 -1       591    8    0    1
 -2       220       373       374      1921      1925      1923
 -1       592    8    0    1
 -2       222       221       375      1463      1926      1927
 -1       593    8    0    1
 -2       221       374       375      1924      1928      1926
 -1       594    8    0    1
 -2       223       222       376      1466      1929      1930
 -1       595    8    0    1
 -2       222       375       376      1927      1931      1929
 -1       596    8    0    1
 -2       224       223       377      1469      1932      1933
 -1       597    8    0    1
 -2       223       376       377      1930      1934      1932
 -1       598    8    0    1
 -2       225       224       378      1472      1935      1936
 -1       599    8    0    1
 -2       224       377       378      1933      1937      1935
 -1       600    8    0    1
 -2       226       225       379      1475      1938      1939
 -1       601    8    0    1
 -2       225       378       379      1936      1940      1938
 -1       602    8    0    1
 -2       227       226       380      1478      1941      1942
 -1       603    8    0    1
 -2       290       227       380      1670      1942      1943
 -1       604    8    0    1
 -2       226       379       380      1939      1944      1941
 -1       605    8    0    1
 -2       229       230       381      1489      1945      1946
 -1       606    8    0    1
 -2       229       381       334      1946      1947      1803
 -1       607    8    0    1
 -2       230       231       382      1492      1948      1949
 -1       608    8    0    1
 -2       230       382       381      1949      1950      1945
 -1       609    8    0    1
 -2       231       232       383      1495      1951      1952
 -1       610    8    0    1
 -2       231       383       382      1952      1953      1948
 -1       611    8    0    1
 -2       232       233       384      1498      1954      1955
 -1       612    8    0    1
 -2       232       384       383      1955      1956      1951
 -1       613    8    0    1
 -2       233       234       385      1501      1957      1958
 -1       614    8    0    1
 -2       233       385       384      1958      1959      1954
 -1       615    8    0    1
 -2       234       235       386      1504      1960      1961
 -1       616    8    0    1
 -2       234       386       385      1961      1962      1957
 -1       617    8    0    1
 -2       235       236       387      1507      1963      1964
 -1       618    8    0    1
 -2       235       387       386      1964      1965      1960
 -1       619    8    0    1
 -2       236       237       388      1510      1966      1967
 -1       620    8    0    1
 -2       236       388       387      1967      1968      1963
 -1       621    8    0    1
 -2       237       238       389      1513      1969      1970
 -1       622    8    0    1
 -2       237       389       388      1970      1971      1966
 -1       623    8    0    1
 -2       238       239       390      1516      1972      1973
 -1       624    8    0    1
 -2       238       390       389      1973      1974      1969
 -1       625    8    0    1
 -2       239       240       391      1519      1975      1976
 -1       626    8    0    1
 -2       239       391       390      1976      1977      1972
 -1       627    8    0    1
 -2       240       241       392      1522      1978      1979
 -1       628    8    0    1
 -2       240       392       391      1979      1980      1975
 -1       629    8    0    1
 -2       241       242       393      1525      1981      1982
 -1       630    8    0    1
 -2       241       393       392      1982      1983      1978
 -1       631    8    0    1
 -2       242       243       394      1528      1984      1985
 -1       632    8    0    1
 -2       242       394       393      1985      1986      1981
 -1       633    8    0    1
 -2       243       244       395      1531      1987      1988
 -1       634    8    0    1
 -2       243       395       394      1988      1989      1984
 -1       635    8    0    1
 -2       244       245       396      1534      1990      1991
 -1       636    8    0    1
 -2       244       396       395      1991      1992      1987
 -1       637    8    0    1
 -2       245       246       397      1537      1993      1994
 -1       638    8    0    1
 -2       245       397       396      1994      1995      1990
 -1       639    8    0    1
 -2       246       247       398      1540      1996      1997
 -1       640    8    0    1
 -2       246       398       397      1997      1998      1993
 -1       641    8    0    1
 -2       247       248       399      1543      1999      2000
 -1       642    8    0    1
 -2       247       399       398      2000      2001      1996
 -1       643    8    0    1
 -2       248       249       400      1546      2002      2003
 -1       644    8    0    1
 -2       248       400       399      2003      2004      1999
 -1       645    8    0    1
 -2       249       250       401      1549      2005      2006
 -1       646    8    0    1
 -2       249       401       400      2006      2007      2002
 -1       647    8    0    1
 -2       250       251       402      1552      2008      2009
 -1       648    8    0    1
 -2       250       402       401      2009      2010      2005
 -1       649    8    0    1
 -2       251       252       403      1555      2011      2012
 -1       650    8    0    1
 -2       251       403       402      2012      2013      2008
 -1       651    8    0    1
 -2       252       253       404      1558      2014      2015
 -1       652    8    0    1
 -2       252       404       403      2015      2016      2011
 -1       653    8    0    1
 -2       253       254       405      1561      2017      2018
 -1       654    8    0    1
 -2       253       405       404      2018      2019      2014
 -1       655    8    0    1
 -2       254       255       406      1564      2020      2021
 -1       656    8    0    1
 -2       254       406       405      2021      2022      2017
 -1       657    8    0    1
 -2       255       256       407      1567      2023      2024
 -1       658    8    0    1
 -2       255       407       406      2024      2025      2020
 -1       659    8    0    1
 -2       256       257       408      1570      2026      2027
 -1       660    8    0    1
 -2       256       408       407      2027      2028      2023
 -1       661    8    0    1
 -2       257       258       409      1573      2029      2030
 -1       662    8    0    1
 -2       257       409       408      2030      2031      2026
 -1       663    8    0    1
 -2       258       259       410      1576      2032      2033
 -1       664    8    0    1
 -2       258       410       409      2033      2034      2029
 -1       665    8    0    1
 -2       259       260       411      1579      2035      2036
 -1       666    8    0    1
 -2       259       411       410      2036      2037      2032
 -1       667    8    0    1
 -2       260       261       412      1582      2038      2039
 -1       668    8    0    1
 -2       260       412       411      2039      2040      2035
 -1       669    8    0    1
 -2       261       262       413      1585      2041      2042
 -1       670    8    0    1
 -2       261       413       412      2042      2043      2038
 -1       671    8    0    1
 -2       262       263       414      1588      2044      2045
 -1       672    8    0    1
 -2       262       414       413      2045      2046      2041
 -1       673    8    0    1
 -2       263       264       415      1591      2047      2048
 -1       674    8    0    1
 -2       263       415       414      2048      2049      2044
 -1       675    8    0    1
 -2       264       265       416      1594      2050      2051
 -1       676    8    0    1
 -2       264       416       415      2051      2052      2047
 -1       677    8    0    1
 -2       265       266       417      1597      2053      2054
 -1       678    8    0    1
 -2       265       417       416      2054      2055      2050
 -1       679    8    0    1
 -2       266       267       418      1600      2056      2057
 -1       680    8    0    1
 -2       266       418       417      2057      2058      2053
 -1       681    8    0    1
 -2       267       268       419      1603      2059      2060
 -1       682    8    0    1
 -2       267       419       418      2060      2061      2056
 -1       683    8    0    1
 -2       268       269       420      1606      2062      2063
 -1       684    8    0    1
 -2       268       420       419      2063      2064      2059
 -1       685    8    0    1
 -2       269       270       421      1609      2065      2066
 -1       686    8    0    1
 -2       269       421       420      2066      2067      2062
 -1       687    8    0    1
 -2       270       271       422      1612      2068      2069
 -1       688    8    0    1
 -2       270       422       421      2069      2070      2065
 -1       689    8    0    1
 -2       271       272       423      1615      2071      2072
 -1       690    8    0    1
 -2       271       423       422      2072      2073      2068
 -1       691    8    0    1
 -2       272       273       424      1618      2074      2075
 -1       692    8    0    1
 -2       272       424       423      2075      2076      2071
 -1       693    8    0    1
 -2       273       274       425      1621      2077      2078
 -1       694    8    0    1
 -2       273       425       424      2078      2079      2074
 -1       695    8    0    1
 -2       274       275       426      1624      2080      2081
 -1       696    8    0    1
 -2       425       274       426      2077      2081      2082
 -1       697    8    0    1
 -2       275       276       426      1732      2083      2080
 -1       698    8    0    1
 -2       278       279       427      1636      2084      2085
 -1       699    8    0    1
 -2       277       278       428      1633      2086      2087
 -1       700    8    0    1
 -2       278       427       428      2085      2088      2086
 -1       701    8    0    1
 -2       276       277       429      1630      2089      2090
 -1       702    8    0    1
 -2       426       276       429      2083      2090      2091
 -1       703    8    0    1
 -2       277       428       429      2087      2092      2089
 -1       704    8    0    1
 -2       279       280       430      1639      2093      2094
 -1       705    8    0    1
 -2       279       430       427      2094      2095      2084
 -1       706    8    0    1
 -2       280       281       431      1642      2096      2097
 -1       707    8    0    1
 -2       280       431       430      2097      2098      2093
 -1       708    8    0    1
 -2       281       282       432      1645      2099      2100
 -1       709    8    0    1
 -2       281       432       431      2100      2101      2096
 -1       710    8    0    1
 -2       282       283       433      1648      2102      2103
 -1       711    8    0    1
 -2       282       433       432      2103      2104      2099
 -1       712    8    0    1
 -2       283       284       434      1651      2105      2106
 -1       713    8    0    1
 -2       283       434       433      2106      2107      2102
 -1       714    8    0    1
 -2       284       285       435      1654      2108      2109
 -1       715    8    0    1
 -2       284       435       434      2109      2110      2105
 -1       716    8    0    1
 -2       285       286       436      1657      2111      2112
 -1       717    8    0    1
 -2       285       436       435      2112      2113      2108
 -1       718    8    0    1
 -2       286       287       437      1660      2114      2115
 -1       719    8    0    1
 -2       286       437       436      2115      2116      2111
 -1       720    8    0    1
 -2       287       288       438      1663      2117      2118
 -1       721    8    0    1
 -2       287       438       437      2118      2119      2114
 -1       722    8    0    1
 -2       288       289       439      1666      2120      2121
 -1       723    8    0    1
 -2       288       439       438      2121      2122      2117
 -1       724    8    0    1
 -2       292       293       440      1734      2123      2124
 -1       725    8    0    1
 -2       319       291       441      1735      2125      2126
 -1       726    8    0    1
 -2       291       292       442      1733      2127      2128
 -1       727    8    0    1
 -2       292       440       442      2124      2129      2127
 -1       728    8    0    1
 -2       293       294       443      1730      2130      2131
 -1       729    8    0    1
 -2       294       295       444      1729      2132      2133
 -1       730    8    0    1
 -2       166       167       445      1298      2134      2135
 -1       731    8    0    1
 -2       320       166       445      1761      2135      2136
 -1       732    8    0    1
 -2       167       322       445      1767      2137      2134
 -1       733    8    0    1
 -2       296       297       446      1737      2138      2139
 -1       734    8    0    1
 -2       297       298       447      1738      2140      2141
 -1       735    8    0    1
 -2       298       299       448      1739      2142      2143
 -1       736    8    0    1
 -2       298       448       447      2143      2144      2140
 -1       737    8    0    1
 -2       299       300       449      1740      2145      2146
 -1       738    8    0    1
 -2       300       301       450      1741      2147      2148
 -1       739    8    0    1
 -2       301       302       451      1742      2149      2150
 -1       740    8    0    1
 -2       302       303       452      1743      2151      2152
 -1       741    8    0    1
 -2       303       304       453      1744      2153      2154
 -1       742    8    0    1
 -2       303       453       452      2154      2155      2151
 -1       743    8    0    1
 -2       304       305       454      1745      2156      2157
 -1       744    8    0    1
 -2       305       306       455      1746      2158      2159
 -1       745    8    0    1
 -2       306       307       456      1747      2160      2161
 -1       746    8    0    1
 -2       307       308       457      1748      2162      2163
 -1       747    8    0    1
 -2       308       309       458      1749      2164      2165
 -1       748    8    0    1
 -2       309       310       459      1750      2166      2167
 -1       749    8    0    1
 -2       310       311       460      1751      2168      2169
 -1       750    8    0    1
 -2       311       312       461      1752      2170      2171
 -1       751    8    0    1
 -2       311       461       460      2171      2172      2168
 -1       752    8    0    1
 -2       312       313       462      1753      2173      2174
 -1       753    8    0    1
 -2       313       314       463      1754      2175      2176
 -1       754    8    0    1
 -2       314       315       464      1755      2177      2178
 -1       755    8    0    1
 -2       315       316       465      1756      2179      2180
 -1       756    8    0    1
 -2       316       317       466      1757      2181      2182
 -1       757    8    0    1
 -2       317       318       467      1758      2183      2184
 -1       758    8    0    1
 -2       318       319       468      1759      2185      2186
 -1       759    8    0    1
 -2       319       441       468      2126      2187      2185
 -1       760    8    0    1
 -2       295       296       469      1736      2188      2189
 -1       761    8    0    1
 -2       444       295       469      2132      2189      2190
 -1       762    8    0    1
 -2       180       321       181      1806      2191      1340
 -1       763    8    0    1
 -2       296       446       469      2139      2192      2188
 -1       764    8    0    1
 -2       335       181       321      1807      2191      2193
 -1       765    8    0    1
 -2       441       291       470      2125      2194      2195
 -1       766    8    0    1
 -2       291       442       470      2128      2196      2194
 -1       767    8    0    1
 -2       293       443       440      2131      2197      2123
 -1       768    8    0    1
 -2       439       289       290      2120      1669      2198
 -1       769    8    0    1
 -2       443       294       444      2130      2133      2199
 -1       770    8    0    1
 -2       467       318       468      2183      2186      2200
 -1       771    8    0    1
 -2       466       317       467      2181      2184      2201
 -1       772    8    0    1
 -2       465       316       466      2179      2182      2202
 -1       773    8    0    1
 -2       464       315       465      2177      2180      2203
 -1       774    8    0    1
 -2       463       314       464      2175      2178      2204
 -1       775    8    0    1
 -2       461       312       462      2170      2174      2205
 -1       776    8    0    1
 -2       459       310       460      2166      2169      2206
 -1       777    8    0    1
 -2       458       309       459      2164      2167      2207
 -1       778    8    0    1
 -2       457       308       458      2162      2165      2208
 -1       779    8    0    1
 -2       456       307       457      2160      2163      2209
 -1       780    8    0    1
 -2       455       306       456      2158      2161      2210
 -1       781    8    0    1
 -2       453       304       454      2153      2157      2211
 -1       782    8    0    1
 -2       451       302       452      2149      2152      2212
 -1       783    8    0    1
 -2       450       301       451      2147      2150      2213
 -1       784    8    0    1
 -2       448       299       449      2142      2146      2214
 -1       785    8    0    1
 -2       446       297       447      2138      2141      2215
 -1       786    8    0    1
 -2       449       300       450      2145      2148      2216
 -1       787    8    0    1
 -2       454       305       455      2156      2159      2217
 -1       788    8    0    1
 -2       462       313       463      2173      2176      2218
 -1       789    8    0    1
 -2       334       381       471      1947      2219      2220
 -1       790    8    0    1
 -2       323       324       472      1773      2221      2222
 -1       791    8    0    1
 -2       322       323       473      1770      2223      2224
 -1       792    8    0    1
 -2       323       472       473      2222      2225      2223
 -1       793    8    0    1
 -2       325       326       474      1779      2226      2227
 -1       794    8    0    1
 -2       326       327       475      1782      2228      2229
 -1       795    8    0    1
 -2       326       475       474      2229      2230      2226
 -1       796    8    0    1
 -2       327       328       476      1785      2231      2232
 -1       797    8    0    1
 -2       327       476       475      2232      2233      2228
 -1       798    8    0    1
 -2       328       329       477      1788      2234      2235
 -1       799    8    0    1
 -2       328       477       476      2235      2236      2231
 -1       800    8    0    1
 -2       329       330       478      1791      2237      2238
 -1       801    8    0    1
 -2       329       478       477      2238      2239      2234
 -1       802    8    0    1
 -2       330       331       479      1794      2240      2241
 -1       803    8    0    1
 -2       330       479       478      2241      2242      2237
 -1       804    8    0    1
 -2       381       382       480      1950      2243      2244
 -1       805    8    0    1
 -2       381       480       471      2244      2245      2219
 -1       806    8    0    1
 -2       336       335       481      1811      2246      2247
 -1       807    8    0    1
 -2       469       446       482      2192      2248      2249
 -1       808    8    0    1
 -2       337       336       483      1814      2250      2251
 -1       809    8    0    1
 -2       336       481       483      2247      2252      2250
 -1       810    8    0    1
 -2       338       337       484      1817      2253      2254
 -1       811    8    0    1
 -2       337       483       484      2251      2255      2253
 -1       812    8    0    1
 -2       339       338       485      1820      2256      2257
 -1       813    8    0    1
 -2       338       484       485      2254      2258      2256
 -1       814    8    0    1
 -2       340       339       486      1823      2259      2260
 -1       815    8    0    1
 -2       339       485       486      2257      2261      2259
 -1       816    8    0    1
 -2       341       340       487      1826      2262      2263
 -1       817    8    0    1
 -2       340       486       487      2260      2264      2262
 -1       818    8    0    1
 -2       342       341       488      1829      2265      2266
 -1       819    8    0    1
 -2       341       487       488      2263      2267      2265
 -1       820    8    0    1
 -2       343       342       489      1832      2268      2269
 -1       821    8    0    1
 -2       342       488       489      2266      2270      2268
 -1       822    8    0    1
 -2       344       343       490      1835      2271      2272
 -1       823    8    0    1
 -2       343       489       490      2269      2273      2271
 -1       824    8    0    1
 -2       345       344       491      1838      2274      2275
 -1       825    8    0    1
 -2       344       490       491      2272      2276      2274
 -1       826    8    0    1
 -2       346       345       492      1841      2277      2278
 -1       827    8    0    1
 -2       345       491       492      2275      2279      2277
 -1       828    8    0    1
 -2       347       346       493      1844      2280      2281
 -1       829    8    0    1
 -2       346       492       493      2278      2282      2280
 -1       830    8    0    1
 -2       348       347       494      1847      2283      2284
 -1       831    8    0    1
 -2       347       493       494      2281      2285      2283
 -1       832    8    0    1
 -2       349       348       495      1850      2286      2287
 -1       833    8    0    1
 -2       348       494       495      2284      2288      2286
 -1       834    8    0    1
 -2       350       349       496      1853      2289      2290
 -1       835    8    0    1
 -2       349       495       496      2287      2291      2289
 -1       836    8    0    1
 -2       351       350       497      1856      2292      2293
 -1       837    8    0    1
 -2       350       496       497      2290      2294      2292
 -1       838    8    0    1
 -2       352       351       498      1859      2295      2296
 -1       839    8    0    1
 -2       351       497       498      2293      2297      2295
 -1       840    8    0    1
 -2       353       352       499      1862      2298      2299
 -1       841    8    0    1
 -2       352       498       499      2296      2300      2298
 -1       842    8    0    1
 -2       354       353       500      1865      2301      2302
 -1       843    8    0    1
 -2       353       499       500      2299      2303      2301
 -1       844    8    0    1
 -2       355       354       501      1868      2304      2305
 -1       845    8    0    1
 -2       354       500       501      2302      2306      2304
 -1       846    8    0    1
 -2       356       355       502      1871      2307      2308
 -1       847    8    0    1
 -2       355       501       502      2305      2309      2307
 -1       848    8    0    1
 -2       357       356       503      1874      2310      2311
 -1       849    8    0    1
 -2       356       502       503      2308      2312      2310
 -1       850    8    0    1
 -2       358       357       504      1877      2313      2314
 -1       851    8    0    1
 -2       357       503       504      2311      2315      2313
 -1       852    8    0    1
 -2       359       358       505      1880      2316      2317
 -1       853    8    0    1
 -2       358       504       505      2314      2318      2316
 -1       854    8    0    1
 -2       360       359       506      1883      2319      2320
 -1       855    8    0    1
 -2       359       505       506      2317      2321      2319
 -1       856    8    0    1
 -2       361       360       507      1886      2322      2323
 -1       857    8    0    1
 -2       360       506       507      2320      2324      2322
 -1       858    8    0    1
 -2       362       361       508      1889      2325      2326
 -1       859    8    0    1
 -2       361       507       508      2323      2327      2325
 -1       860    8    0    1
 -2       363       362       509      1892      2328      2329
 -1       861    8    0    1
 -2       362       508       509      2326      2330      2328
 -1       862    8    0    1
 -2       364       363       510      1895      2331      2332
 -1       863    8    0    1
 -2       363       509       510      2329      2333      2331
 -1       864    8    0    1
 -2       365       364       511      1898      2334      2335
 -1       865    8    0    1
 -2       364       510       511      2332      2336      2334
 -1       866    8    0    1
 -2       366       365       512      1901      2337      2338
 -1       867    8    0    1
 -2       365       511       512      2335      2339      2337
 -1       868    8    0    1
 -2       367       366       513      1904      2340      2341
 -1       869    8    0    1
 -2       366       512       513      2338      2342      2340
 -1       870    8    0    1
 -2       368       367       514      1907      2343      2344
 -1       871    8    0    1
 -2       367       513       514      2341      2345      2343
 -1       872    8    0    1
 -2       369       368       515      1910      2346      2347
 -1       873    8    0    1
 -2       368       514       515      2344      2348      2346
 -1       874    8    0    1
 -2       370       369       516      1913      2349      2350
 -1       875    8    0    1
 -2       369       515       516      2347      2351      2349
 -1       876    8    0    1
 -2       371       370       517      1916      2352      2353
 -1       877    8    0    1
 -2       370       516       517      2350      2354      2352
 -1       878    8    0    1
 -2       372       371       518      1919      2355      2356
 -1       879    8    0    1
 -2       371       517       518      2353      2357      2355
 -1       880    8    0    1
 -2       373       372       519      1922      2358      2359
 -1       881    8    0    1
 -2       372       518       519      2356      2360      2358
 -1       882    8    0    1
 -2       374       373       520      1925      2361      2362
 -1       883    8    0    1
 -2       373       519       520      2359      2363      2361
 -1       884    8    0    1
 -2       375       374       521      1928      2364      2365
 -1       885    8    0    1
 -2       374       520       521      2362      2366      2364
 -1       886    8    0    1
 -2       376       375       522      1931      2367      2368
 -1       887    8    0    1
 -2       375       521       522      2365      2369      2367
 -1       888    8    0    1
 -2       377       376       523      1934      2370      2371
 -1       889    8    0    1
 -2       376       522       523      2368      2372      2370
 -1       890    8    0    1
 -2       378       377       524      1937      2373      2374
 -1       891    8    0    1
 -2       377       523       524      2371      2375      2373
 -1       892    8    0    1
 -2       379       378       525      1940      2376      2377
 -1       893    8    0    1
 -2       378       524       525      2374      2378      2376
 -1       894    8    0    1
 -2       442       440       526      2129      2379      2380
 -1       895    8    0    1
 -2       383       384       527      1956      2381      2382
 -1       896    8    0    1
 -2       384       385       528      1959      2383      2384
 -1       897    8    0    1
 -2       384       528       527      2384      2385      2381
 -1       898    8    0    1
 -2       385       386       529      1962      2386      2387
 -1       899    8    0    1
 -2       385       529       528      2387      2388      2383
 -1       900    8    0    1
 -2       386       387       530      1965      2389      2390
 -1       901    8    0    1
 -2       386       530       529      2390      2391      2386
 -1       902    8    0    1
 -2       387       388       531      1968      2392      2393
 -1       903    8    0    1
 -2       387       531       530      2393      2394      2389
 -1       904    8    0    1
 -2       388       389       532      1971      2395      2396
 -1       905    8    0    1
 -2       388       532       531      2396      2397      2392
 -1       906    8    0    1
 -2       389       390       533      1974      2398      2399
 -1       907    8    0    1
 -2       389       533       532      2399      2400      2395
 -1       908    8    0    1
 -2       390       391       534      1977      2401      2402
 -1       909    8    0    1
 -2       390       534       533      2402      2403      2398
 -1       910    8    0    1
 -2       391       392       535      1980      2404      2405
 -1       911    8    0    1
 -2       391       535       534      2405      2406      2401
 -1       912    8    0    1
 -2       392       393       536      1983      2407      2408
 -1       913    8    0    1
 -2       392       536       535      2408      2409      2404
 -1       914    8    0    1
 -2       393       394       537      1986      2410      2411
 -1       915    8    0    1
 -2       393       537       536      2411      2412      2407
 -1       916    8    0    1
 -2       394       395       538      1989      2413      2414
 -1       917    8    0    1
 -2       394       538       537      2414      2415      2410
 -1       918    8    0    1
 -2       395       396       539      1992      2416      2417
 -1       919    8    0    1
 -2       395       539       538      2417      2418      2413
 -1       920    8    0    1
 -2       396       397       540      1995      2419      2420
 -1       921    8    0    1
 -2       396       540       539      2420      2421      2416
 -1       922    8    0    1
 -2       397       398       541      1998      2422      2423
 -1       923    8    0    1
 -2       397       541       540      2423      2424      2419
 -1       924    8    0    1
 -2       398       399       542      2001      2425      2426
 -1       925    8    0    1
 -2       398       542       541      2426      2427      2422
 -1       926    8    0    1
 -2       399       400       543      2004      2428      2429
 -1       927    8    0    1
 -2       399       543       542      2429      2430      2425
 -1       928    8    0    1
 -2       400       401       544      2007      2431      2432
 -1       929    8    0    1
 -2       400       544       543      2432      2433      2428
 -1       930    8    0    1
 -2       401       402       545      2010      2434      2435
 -1       931    8    0    1
 -2       401       545       544      2435      2436      2431
 -1       932    8    0    1
 -2       402       403       546      2013      2437      2438
 -1       933    8    0    1
 -2       402       546       545      2438      2439      2434
 -1       934    8    0    1
 -2       403       404       547      2016      2440      2441
 -1       935    8    0    1
 -2       403       547       546      2441      2442      2437
 -1       936    8    0    1
 -2       404       405       548      2019      2443      2444
 -1       937    8    0    1
 -2       404       548       547      2444      2445      2440
 -1       938    8    0    1
 -2       405       406       549      2022      2446      2447
 -1       939    8    0    1
 -2       405       549       548      2447      2448      2443
 -1       940    8    0    1
 -2       406       407       550      2025      2449      2450
 -1       941    8    0    1
 -2       406       550       549      2450      2451      2446
 -1       942    8    0    1
 -2       407       408       551      2028      2452      2453
 -1       943    8    0    1
 -2       407       551       550      2453      2454      2449
 -1       944    8    0    1
 -2       408       409       552      2031      2455      2456
 -1       945    8    0    1
 -2       408       552       551      2456      2457      2452
 -1       946    8    0    1
 -2       409       410       553      2034      2458      2459
 -1       947    8    0    1
 -2       409       553       552      2459      2460      2455
 -1       948    8    0    1
 -2       410       411       554      2037      2461      2462
 -1       949    8    0    1
 -2       410       554       553      2462      2463      2458
 -1       950    8    0    1
 -2       411       412       555      2040      2464      2465
 -1       951    8    0    1
 -2       411       555       554      2465      2466      2461
 -1       952    8    0    1
 -2       412       413       556      2043      2467      2468
 -1       953    8    0    1
 -2       412       556       555      2468      2469      2464
 -1       954    8    0    1
 -2       413       414       557      2046      2470      2471
 -1       955    8    0    1
 -2       413       557       556      2471      2472      2467
 -1       956    8    0    1
 -2       414       415       558      2049      2473      2474
 -1       957    8    0    1
 -2       414       558       557      2474      2475      2470
 -1       958    8    0    1
 -2       415       416       559      2052      2476      2477
 -1       959    8    0    1
 -2       415       559       558      2477      2478      2473
 -1       960    8    0    1
 -2       416       417       560      2055      2479      2480
 -1       961    8    0    1
 -2       416       560       559      2480      2481      2476
 -1       962    8    0    1
 -2       417       418       561      2058      2482      2483
 -1       963    8    0    1
 -2       417       561       560      2483      2484      2479
 -1       964    8    0    1
 -2       418       419       562      2061      2485      2486
 -1       965    8    0    1
 -2       418       562       561      2486      2487      2482
 -1       966    8    0    1
 -2       419       420       563      2064      2488      2489
 -1       967    8    0    1
 -2       419       563       562      2489      2490      2485
 -1       968    8    0    1
 -2       420       421       564      2067      2491      2492
 -1       969    8    0    1
 -2       420       564       563      2492      2493      2488
 -1       970    8    0    1
 -2       421       422       565      2070      2494      2495
 -1       971    8    0    1
 -2       421       565       564      2495      2496      2491
 -1       972    8    0    1
 -2       422       423       566      2073      2497      2498
 -1       973    8    0    1
 -2       422       566       565      2498      2499      2494
 -1       974    8    0    1
 -2       423       424       567      2076      2500      2501
 -1       975    8    0    1
 -2       423       567       566      2501      2502      2497
 -1       976    8    0    1
 -2       424       425       568      2079      2503      2504
 -1       977    8    0    1
 -2       424       568       567      2504      2505      2500
 -1       978    8    0    1
 -2       425       426       429      2082      2091      2506
 -1       979    8    0    1
 -2       430       431       569      2098      2507      2508
 -1       980    8    0    1
 -2       431       432       570      2101      2509      2510
 -1       981    8    0    1
 -2       431       570       569      2510      2511      2507
 -1       982    8    0    1
 -2       428       427       571      2088      2512      2513
 -1       983    8    0    1
 -2       427       430       572      2095      2514      2515
 -1       984    8    0    1
 -2       571       427       572      2512      2515      2516
 -1       985    8    0    1
 -2       430       569       572      2508      2517      2514
 -1       986    8    0    1
 -2       432       433       573      2104      2518      2519
 -1       987    8    0    1
 -2       432       573       570      2519      2520      2509
 -1       988    8    0    1
 -2       433       434       574      2107      2521      2522
 -1       989    8    0    1
 -2       433       574       573      2522      2523      2518
 -1       990    8    0    1
 -2       434       435       575      2110      2524      2525
 -1       991    8    0    1
 -2       434       575       574      2525      2526      2521
 -1       992    8    0    1
 -2       435       436       576      2113      2527      2528
 -1       993    8    0    1
 -2       435       576       575      2528      2529      2524
 -1       994    8    0    1
 -2       436       437       577      2116      2530      2531
 -1       995    8    0    1
 -2       436       577       576      2531      2532      2527
 -1       996    8    0    1
 -2       437       438       578      2119      2533      2534
 -1       997    8    0    1
 -2       437       578       577      2534      2535      2530
 -1       998    8    0    1
 -2       438       439       579      2122      2536      2537
 -1       999    8    0    1
 -2       438       579       578      2537      2538      2533
 -1      1000    8    0    1
 -2       439       290       380      2198      1943      2539
 -1      1001    8    0    1
 -2       443       444       580      2199      2540      2541
 -1      1002    8    0    1
 -2       382       383       581      1953      2542      2543
 -1      1003    8    0    1
 -2       383       527       581      2382      2544      2542
 -1      1004    8    0    1
 -2       440       443       582      2197      2545      2546
 -1      1005    8    0    1
 -2       467       468       583      2200      2547      2548
 -1      1006    8    0    1
 -2       468       441       584      2187      2549      2550
 -1      1007    8    0    1
 -2       468       584       583      2550      2551      2547
 -1      1008    8    0    1
 -2       459       460       585      2206      2552      2553
 -1      1009    8    0    1
 -2       451       452       586      2212      2554      2555
 -1      1010    8    0    1
 -2       324       325       587      1776      2556      2557
 -1      1011    8    0    1
 -2       472       324       587      2221      2557      2558
 -1      1012    8    0    1
 -2       325       474       587      2227      2559      2556
 -1      1013    8    0    1
 -2       446       447       588      2215      2560      2561
 -1      1014    8    0    1
 -2       449       450       589      2216      2562      2563
 -1      1015    8    0    1
 -2       447       448       590      2144      2564      2565
 -1      1016    8    0    1
 -2       454       455       591      2217      2566      2567
 -1      1017    8    0    1
 -2       448       449       592      2214      2568      2569
 -1      1018    8    0    1
 -2       450       451       593      2213      2570      2571
 -1      1019    8    0    1
 -2       452       453       594      2155      2572      2573
 -1      1020    8    0    1
 -2       462       463       595      2218      2574      2575
 -1      1021    8    0    1
 -2       453       454       596      2211      2576      2577
 -1      1022    8    0    1
 -2       455       456       597      2210      2578      2579
 -1      1023    8    0    1
 -2       456       457       598      2209      2580      2581
 -1      1024    8    0    1
 -2       456       598       597      2581      2582      2578
 -1      1025    8    0    1
 -2       457       458       599      2208      2583      2584
 -1      1026    8    0    1
 -2       458       459       600      2207      2585      2586
 -1      1027    8    0    1
 -2       459       585       600      2553      2587      2585
 -1      1028    8    0    1
 -2       460       461       601      2172      2588      2589
 -1      1029    8    0    1
 -2       461       462       602      2205      2590      2591
 -1      1030    8    0    1
 -2       601       461       602      2588      2591      2592
 -1      1031    8    0    1
 -2       462       595       602      2575      2593      2590
 -1      1032    8    0    1
 -2       463       464       603      2204      2594      2595
 -1      1033    8    0    1
 -2       464       465       604      2203      2596      2597
 -1      1034    8    0    1
 -2       465       466       605      2202      2598      2599
 -1      1035    8    0    1
 -2       465       605       604      2599      2600      2596
 -1      1036    8    0    1
 -2       466       467       606      2201      2601      2602
 -1      1037    8    0    1
 -2       335       321       607      2193      2603      2604
 -1      1038    8    0    1
 -2       481       335       607      2246      2604      2605
 -1      1039    8    0    1
 -2       321       320       607      1765      2606      2603
 -1      1040    8    0    1
 -2       333       334       608      1805      2607      2608
 -1      1041    8    0    1
 -2       332       333       608      1800      2608      2609
 -1      1042    8    0    1
 -2       334       471       608      2220      2610      2607
 -1      1043    8    0    1
 -2       444       469       609      2190      2611      2612
 -1      1044    8    0    1
 -2       446       588       482      2561      2613      2248
 -1      1045    8    0    1
 -2       322       473       610      2224      2614      2615
 -1      1046    8    0    1
 -2       322       610       445      2615      2616      2137
 -1      1047    8    0    1
 -2       480       382       581      2243      2543      2617
 -1      1048    8    0    1
 -2       331       332       608      1797      2609      2618
 -1      1049    8    0    1
 -2       609       469       482      2611      2249      2619
 -1      1050    8    0    1
 -2       607       320       445      2606      2136      2620
 -1      1051    8    0    1
 -2       605       466       606      2598      2602      2621
 -1      1052    8    0    1
 -2       470       442       611      2196      2622      2623
 -1      1053    8    0    1
 -2       442       526       611      2380      2624      2622
 -1      1054    8    0    1
 -2       443       580       582      2541      2625      2545
 -1      1055    8    0    1
 -2       526       440       582      2379      2546      2626
 -1      1056    8    0    1
 -2       425       429       568      2506      2627      2503
 -1      1057    8    0    1
 -2       460       601       585      2589      2628      2552
 -1      1058    8    0    1
 -2       429       428       568      2092      2629      2627
 -1      1059    8    0    1
 -2       439       380       612      2539      2630      2631
 -1      1060    8    0    1
 -2       579       439       612      2536      2631      2632
 -1      1061    8    0    1
 -2       380       379       612      1944      2633      2630
 -1      1062    8    0    1
 -2       598       457       599      2580      2584      2634
 -1      1063    8    0    1
 -2       580       444       609      2540      2612      2635
 -1      1064    8    0    1
 -2       331       608       479      2618      2636      2240
 -1      1065    8    0    1
 -2       441       470       613      2195      2637      2638
 -1      1066    8    0    1
 -2       441       613       584      2638      2639      2549
 -1      1067    8    0    1
 -2       467       583       606      2548      2640      2601
 -1      1068    8    0    1
 -2       568       428       571      2629      2513      2641
 -1      1069    8    0    1
 -2       596       454       614      2576      2642      2643
 -1      1070    8    0    1
 -2       454       591       614      2567      2644      2642
 -1      1071    8    0    1
 -2       595       463       603      2574      2595      2645
 -1      1072    8    0    1
 -2       594       453       596      2572      2577      2646
 -1      1073    8    0    1
 -2       593       451       586      2570      2555      2647
 -1      1074    8    0    1
 -2       592       449       589      2568      2563      2648
 -1      1075    8    0    1
 -2       591       455       597      2566      2579      2649
 -1      1076    8    0    1
 -2       590       448       592      2564      2569      2650
 -1      1077    8    0    1
 -2       586       452       594      2554      2573      2651
 -1      1078    8    0    1
 -2       589       450       615      2562      2652      2653
 -1      1079    8    0    1
 -2       450       593       615      2571      2654      2652
 -1      1080    8    0    1
 -2       447       590       588      2565      2655      2560
 -1      1081    8    0    1
 -2       599       458       600      2583      2586      2656
 -1      1082    8    0    1
 -2       603       464       604      2594      2597      2657
 -1      1083    8    0    1
 -2       612       379       525      2633      2377      2658
 -1      1084    8    0    1
 -2       475       476       616      2233      2659      2660
 -1      1085    8    0    1
 -2       474       475       617      2230      2661      2662
 -1      1086    8    0    1
 -2       475       616       617      2660      2663      2661
 -1      1087    8    0    1
 -2       477       478       618      2239      2664      2665
 -1      1088    8    0    1
 -2       478       479       619      2242      2666      2667
 -1      1089    8    0    1
 -2       478       619       618      2667      2668      2664
 -1      1090    8    0    1
 -2       471       480       620      2245      2669      2670
 -1      1091    8    0    1
 -2       480       581       621      2617      2671      2672
 -1      1092    8    0    1
 -2       480       621       620      2672      2673      2669
 -1      1093    8    0    1
 -2       608       471       479      2610      2674      2636
 -1      1094    8    0    1
 -2       607       445       610      2620      2616      2675
 -1      1095    8    0    1
 -2       484       483       622      2255      2676      2677
 -1      1096    8    0    1
 -2       485       484       623      2258      2678      2679
 -1      1097    8    0    1
 -2       484       622       623      2677      2680      2678
 -1      1098    8    0    1
 -2       486       485       624      2261      2681      2682
 -1      1099    8    0    1
 -2       485       623       624      2679      2683      2681
 -1      1100    8    0    1
 -2       487       486       625      2264      2684      2685
 -1      1101    8    0    1
 -2       486       624       625      2682      2686      2684
 -1      1102    8    0    1
 -2       488       487       626      2267      2687      2688
 -1      1103    8    0    1
 -2       487       625       626      2685      2689      2687
 -1      1104    8    0    1
 -2       489       488       627      2270      2690      2691
 -1      1105    8    0    1
 -2       488       626       627      2688      2692      2690
 -1      1106    8    0    1
 -2       490       489       628      2273      2693      2694
 -1      1107    8    0    1
 -2       489       627       628      2691      2695      2693
 -1      1108    8    0    1
 -2       491       490       629      2276      2696      2697
 -1      1109    8    0    1
 -2       490       628       629      2694      2698      2696
 -1      1110    8    0    1
 -2       492       491       630      2279      2699      2700
 -1      1111    8    0    1
 -2       491       629       630      2697      2701      2699
 -1      1112    8    0    1
 -2       493       492       631      2282      2702      2703
 -1      1113    8    0    1
 -2       492       630       631      2700      2704      2702
 -1      1114    8    0    1
 -2       494       493       632      2285      2705      2706
 -1      1115    8    0    1
 -2       493       631       632      2703      2707      2705
 -1      1116    8    0    1
 -2       495       494       633      2288      2708      2709
 -1      1117    8    0    1
 -2       494       632       633      2706      2710      2708
 -1      1118    8    0    1
 -2       496       495       634      2291      2711      2712
 -1      1119    8    0    1
 -2       495       633       634      2709      2713      2711
 -1      1120    8    0    1
 -2       497       496       635      2294      2714      2715
 -1      1121    8    0    1
 -2       496       634       635      2712      2716      2714
 -1      1122    8    0    1
 -2       498       497       636      2297      2717      2718
 -1      1123    8    0    1
 -2       497       635       636      2715      2719      2717
 -1      1124    8    0    1
 -2       499       498       637      2300      2720      2721
 -1      1125    8    0    1
 -2       498       636       637      2718      2722      2720
 -1      1126    8    0    1
 -2       500       499       638      2303      2723      2724
 -1      1127    8    0    1
 -2       499       637       638      2721      2725      2723
 -1      1128    8    0    1
 -2       501       500       639      2306      2726      2727
 -1      1129    8    0    1
 -2       500       638       639      2724      2728      2726
 -1      1130    8    0    1
 -2       502       501       640      2309      2729      2730
 -1      1131    8    0    1
 -2       501       639       640      2727      2731      2729
 -1      1132    8    0    1
 -2       503       502       641      2312      2732      2733
 -1      1133    8    0    1
 -2       502       640       641      2730      2734      2732
 -1      1134    8    0    1
 -2       504       503       642      2315      2735      2736
 -1      1135    8    0    1
 -2       503       641       642      2733      2737      2735
 -1      1136    8    0    1
 -2       505       504       643      2318      2738      2739
 -1      1137    8    0    1
 -2       504       642       643      2736      2740      2738
 -1      1138    8    0    1
 -2       506       505       644      2321      2741      2742
 -1      1139    8    0    1
 -2       505       643       644      2739      2743      2741
 -1      1140    8    0    1
 -2       507       506       645      2324      2744      2745
 -1      1141    8    0    1
 -2       506       644       645      2742      2746      2744
 -1      1142    8    0    1
 -2       508       507       646      2327      2747      2748
 -1      1143    8    0    1
 -2       507       645       646      2745      2749      2747
 -1      1144    8    0    1
 -2       509       508       647      2330      2750      2751
 -1      1145    8    0    1
 -2       508       646       647      2748      2752      2750
 -1      1146    8    0    1
 -2       510       509       648      2333      2753      2754
 -1      1147    8    0    1
 -2       509       647       648      2751      2755      2753
 -1      1148    8    0    1
 -2       511       510       649      2336      2756      2757
 -1      1149    8    0    1
 -2       510       648       649      2754      2758      2756
 -1      1150    8    0    1
 -2       512       511       650      2339      2759      2760
 -1      1151    8    0    1
 -2       511       649       650      2757      2761      2759
 -1      1152    8    0    1
 -2       513       512       651      2342      2762      2763
 -1      1153    8    0    1
 -2       512       650       651      2760      2764      2762
 -1      1154    8    0    1
 -2       514       513       652      2345      2765      2766
 -1      1155    8    0    1
 -2       513       651       652      2763      2767      2765
 -1      1156    8    0    1
 -2       515       514       653      2348      2768      2769
 -1      1157    8    0    1
 -2       514       652       653      2766      2770      2768
 -1      1158    8    0    1
 -2       516       515       654      2351      2771      2772
 -1      1159    8    0    1
 -2       515       653       654      2769      2773      2771
 -1      1160    8    0    1
 -2       517       516       655      2354      2774      2775
 -1      1161    8    0    1
 -2       516       654       655      2772      2776      2774
 -1      1162    8    0    1
 -2       518       517       656      2357      2777      2778
 -1      1163    8    0    1
 -2       517       655       656      2775      2779      2777
 -1      1164    8    0    1
 -2       519       518       657      2360      2780      2781
 -1      1165    8    0    1
 -2       518       656       657      2778      2782      2780
 -1      1166    8    0    1
 -2       520       519       658      2363      2783      2784
 -1      1167    8    0    1
 -2       519       657       658      2781      2785      2783
 -1      1168    8    0    1
 -2       521       520       659      2366      2786      2787
 -1      1169    8    0    1
 -2       520       658       659      2784      2788      2786
 -1      1170    8    0    1
 -2       522       521       660      2369      2789      2790
 -1      1171    8    0    1
 -2       521       659       660      2787      2791      2789
 -1      1172    8    0    1
 -2       523       522       661      2372      2792      2793
 -1      1173    8    0    1
 -2       522       660       661      2790      2794      2792
 -1      1174    8    0    1
 -2       524       523       662      2375      2795      2796
 -1      1175    8    0    1
 -2       523       661       662      2793      2797      2795
 -1      1176    8    0    1
 -2       525       524       663      2378      2798      2799
 -1      1177    8    0    1
 -2       524       662       663      2796      2800      2798
 -1      1178    8    0    1
 -2       598       599       664      2634      2801      2802
 -1      1179    8    0    1
 -2       579       612       665      2632      2803      2804
 -1      1180    8    0    1
 -2       612       525       665      2658      2805      2803
 -1      1181    8    0    1
 -2       527       528       666      2385      2806      2807
 -1      1182    8    0    1
 -2       530       531       667      2394      2808      2809
 -1      1183    8    0    1
 -2       531       532       668      2397      2810      2811
 -1      1184    8    0    1
 -2       531       668       667      2811      2812      2808
 -1      1185    8    0    1
 -2       532       533       669      2400      2813      2814
 -1      1186    8    0    1
 -2       532       669       668      2814      2815      2810
 -1      1187    8    0    1
 -2       533       534       670      2403      2816      2817
 -1      1188    8    0    1
 -2       533       670       669      2817      2818      2813
 -1      1189    8    0    1
 -2       534       535       671      2406      2819      2820
 -1      1190    8    0    1
 -2       534       671       670      2820      2821      2816
 -1      1191    8    0    1
 -2       535       536       672      2409      2822      2823
 -1      1192    8    0    1
 -2       535       672       671      2823      2824      2819
 -1      1193    8    0    1
 -2       536       537       673      2412      2825      2826
 -1      1194    8    0    1
 -2       536       673       672      2826      2827      2822
 -1      1195    8    0    1
 -2       537       538       674      2415      2828      2829
 -1      1196    8    0    1
 -2       537       674       673      2829      2830      2825
 -1      1197    8    0    1
 -2       538       539       675      2418      2831      2832
 -1      1198    8    0    1
 -2       538       675       674      2832      2833      2828
 -1      1199    8    0    1
 -2       539       540       676      2421      2834      2835
 -1      1200    8    0    1
 -2       539       676       675      2835      2836      2831
 -1      1201    8    0    1
 -2       540       541       677      2424      2837      2838
 -1      1202    8    0    1
 -2       540       677       676      2838      2839      2834
 -1      1203    8    0    1
 -2       541       542       678      2427      2840      2841
 -1      1204    8    0    1
 -2       541       678       677      2841      2842      2837
 -1      1205    8    0    1
 -2       542       543       679      2430      2843      2844
 -1      1206    8    0    1
 -2       542       679       678      2844      2845      2840
 -1      1207    8    0    1
 -2       543       544       680      2433      2846      2847
 -1      1208    8    0    1
 -2       543       680       679      2847      2848      2843
 -1      1209    8    0    1
 -2       544       545       681      2436      2849      2850
 -1      1210    8    0    1
 -2       544       681       680      2850      2851      2846
 -1      1211    8    0    1
 -2       545       546       682      2439      2852      2853
 -1      1212    8    0    1
 -2       545       682       681      2853      2854      2849
 -1      1213    8    0    1
 -2       546       547       683      2442      2855      2856
 -1      1214    8    0    1
 -2       546       683       682      2856      2857      2852
 -1      1215    8    0    1
 -2       547       548       684      2445      2858      2859
 -1      1216    8    0    1
 -2       547       684       683      2859      2860      2855
 -1      1217    8    0    1
 -2       548       549       685      2448      2861      2862
 -1      1218    8    0    1
 -2       548       685       684      2862      2863      2858
 -1      1219    8    0    1
 -2       549       550       686      2451      2864      2865
 -1      1220    8    0    1
 -2       549       686       685      2865      2866      2861
 -1      1221    8    0    1
 -2       550       551       687      2454      2867      2868
 -1      1222    8    0    1
 -2       550       687       686      2868      2869      2864
 -1      1223    8    0    1
 -2       551       552       688      2457      2870      2871
 -1      1224    8    0    1
 -2       551       688       687      2871      2872      2867
 -1      1225    8    0    1
 -2       552       553       689      2460      2873      2874
 -1      1226    8    0    1
 -2       552       689       688      2874      2875      2870
 -1      1227    8    0    1
 -2       553       554       690      2463      2876      2877
 -1      1228    8    0    1
 -2       553       690       689      2877      2878      2873
 -1      1229    8    0    1
 -2       554       555       691      2466      2879      2880
 -1      1230    8    0    1
 -2       554       691       690      2880      2881      2876
 -1      1231    8    0    1
 -2       555       556       692      2469      2882      2883
 -1      1232    8    0    1
 -2       555       692       691      2883      2884      2879
 -1      1233    8    0    1
 -2       556       557       693      2472      2885      2886
 -1      1234    8    0    1
 -2       556       693       692      2886      2887      2882
 -1      1235    8    0    1
 -2       557       558       694      2475      2888      2889
 -1      1236    8    0    1
 -2       557       694       693      2889      2890      2885
 -1      1237    8    0    1
 -2       558       559       695      2478      2891      2892
 -1      1238    8    0    1
 -2       558       695       694      2892      2893      2888
 -1      1239    8    0    1
 -2       559       560       696      2481      2894      2895
 -1      1240    8    0    1
 -2       559       696       695      2895      2896      2891
 -1      1241    8    0    1
 -2       560       561       697      2484      2897      2898
 -1      1242    8    0    1
 -2       560       697       696      2898      2899      2894
 -1      1243    8    0    1
 -2       561       562       698      2487      2900      2901
 -1      1244    8    0    1
 -2       561       698       697      2901      2902      2897
 -1      1245    8    0    1
 -2       562       563       699      2490      2903      2904
 -1      1246    8    0    1
 -2       562       699       698      2904      2905      2900
 -1      1247    8    0    1
 -2       563       564       700      2493      2906      2907
 -1      1248    8    0    1
 -2       563       700       699      2907      2908      2903
 -1      1249    8    0    1
 -2       564       565       701      2496      2909      2910
 -1      1250    8    0    1
 -2       564       701       700      2910      2911      2906
 -1      1251    8    0    1
 -2       565       566       702      2499      2912      2913
 -1      1252    8    0    1
 -2       565       702       701      2913      2914      2909
 -1      1253    8    0    1
 -2       566       567       703      2502      2915      2916
 -1      1254    8    0    1
 -2       566       703       702      2916      2917      2912
 -1      1255    8    0    1
 -2       567       568       704      2505      2918      2919
 -1      1256    8    0    1
 -2       703       567       704      2915      2919      2920
 -1      1257    8    0    1
 -2       568       571       704      2641      2921      2918
 -1      1258    8    0    1
 -2       585       601       705      2628      2922      2923
 -1      1259    8    0    1
 -2       573       574       706      2523      2924      2925
 -1      1260    8    0    1
 -2       569       570       707      2511      2926      2927
 -1      1261    8    0    1
 -2       574       575       708      2526      2928      2929
 -1      1262    8    0    1
 -2       574       708       706      2929      2930      2924
 -1      1263    8    0    1
 -2       570       573       709      2520      2931      2932
 -1      1264    8    0    1
 -2       707       570       709      2926      2932      2933
 -1      1265    8    0    1
 -2       573       706       709      2925      2934      2931
 -1      1266    8    0    1
 -2       575       576       710      2529      2935      2936
 -1      1267    8    0    1
 -2       575       710       708      2936      2937      2928
 -1      1268    8    0    1
 -2       576       577       711      2532      2938      2939
 -1      1269    8    0    1
 -2       576       711       710      2939      2940      2935
 -1      1270    8    0    1
 -2       577       578       712      2535      2941      2942
 -1      1271    8    0    1
 -2       577       712       711      2942      2943      2938
 -1      1272    8    0    1
 -2       578       579       665      2538      2804      2944
 -1      1273    8    0    1
 -2       581       527       713      2544      2945      2946
 -1      1274    8    0    1
 -2       621       581       713      2671      2946      2947
 -1      1275    8    0    1
 -2       527       666       713      2807      2948      2945
 -1      1276    8    0    1
 -2       600       585       714      2587      2949      2950
 -1      1277    8    0    1
 -2       585       705       714      2923      2951      2949
 -1      1278    8    0    1
 -2       526       582       715      2626      2952      2953
 -1      1279    8    0    1
 -2       580       609       716      2635      2954      2955
 -1      1280    8    0    1
 -2       583       584       717      2551      2956      2957
 -1      1281    8    0    1
 -2       592       589       718      2648      2958      2959
 -1      1282    8    0    1
 -2       606       583       719      2640      2960      2961
 -1      1283    8    0    1
 -2       529       530       720      2391      2962      2963
 -1      1284    8    0    1
 -2       530       667       720      2809      2964      2962
 -1      1285    8    0    1
 -2       528       529       721      2388      2965      2966
 -1      1286    8    0    1
 -2       529       720       721      2963      2967      2965
 -1      1287    8    0    1
 -2       483       481       722      2252      2968      2969
 -1      1288    8    0    1
 -2       483       722       622      2969      2970      2676
 -1      1289    8    0    1
 -2       609       482       723      2619      2971      2972
 -1      1290    8    0    1
 -2       605       606       724      2621      2973      2974
 -1      1291    8    0    1
 -2       476       477       725      2236      2975      2976
 -1      1292    8    0    1
 -2       616       476       725      2659      2976      2977
 -1      1293    8    0    1
 -2       477       618       725      2665      2978      2975
 -1      1294    8    0    1
 -2       591       597       726      2649      2979      2980
 -1      1295    8    0    1
 -2       595       603       727      2645      2981      2982
 -1      1296    8    0    1
 -2       473       472       728      2225      2983      2984
 -1      1297    8    0    1
 -2       586       594       729      2651      2985      2986
 -1      1298    8    0    1
 -2       588       590       676      2655      2987      2988
 -1      1299    8    0    1
 -2       594       596       730      2646      2989      2990
 -1      1300    8    0    1
 -2       599       600       731      2656      2991      2992
 -1      1301    8    0    1
 -2       593       586       732      2647      2993      2994
 -1      1302    8    0    1
 -2       597       598       733      2582      2995      2996
 -1      1303    8    0    1
 -2       597       733       726      2996      2997      2979
 -1      1304    8    0    1
 -2       603       604       734      2657      2998      2999
 -1      1305    8    0    1
 -2       582       580       735      2625      3000      3001
 -1      1306    8    0    1
 -2       604       605       736      2600      3002      3003
 -1      1307    8    0    1
 -2       482       588       737      2613      3004      3005
 -1      1308    8    0    1
 -2       610       473       738      2614      3006      3007
 -1      1309    8    0    1
 -2       473       728       738      2984      3008      3006
 -1      1310    8    0    1
 -2       474       617       739      2662      3009      3010
 -1      1311    8    0    1
 -2       474       739       587      3010      3011      2559
 -1      1312    8    0    1
 -2       479       471       620      2674      2670      3012
 -1      1313    8    0    1
 -2       584       613       740      2639      3013      3014
 -1      1314    8    0    1
 -2       584       740       717      3014      3015      2956
 -1      1315    8    0    1
 -2       665       525       663      2805      2799      3016
 -1      1316    8    0    1
 -2       609       723       716      2972      3017      2954
 -1      1317    8    0    1
 -2       591       726       614      2980      3018      2644
 -1      1318    8    0    1
 -2       611       526       741      2624      3019      3020
 -1      1319    8    0    1
 -2       526       715       741      2953      3021      3019
 -1      1320    8    0    1
 -2       664       599       742      2801      3022      3023
 -1      1321    8    0    1
 -2       599       731       742      2992      3024      3022
 -1      1322    8    0    1
 -2       736       605       724      3002      2974      3025
 -1      1323    8    0    1
 -2       666       528       721      2806      2966      3026
 -1      1324    8    0    1
 -2       705       601       743      2922      3027      3028
 -1      1325    8    0    1
 -2       704       571       744      2921      3029      3030
 -1      1326    8    0    1
 -2       571       572       744      2516      3031      3029
 -1      1327    8    0    1
 -2       735       580       745      3000      3032      3033
 -1      1328    8    0    1
 -2       580       716       745      2955      3034      3032
 -1      1329    8    0    1
 -2       596       614       746      2643      3035      3036
 -1      1330    8    0    1
 -2       596       746       730      3036      3037      2989
 -1      1331    8    0    1
 -2       733       598       664      2995      2802      3038
 -1      1332    8    0    1
 -2       603       734       727      2999      3039      2981
 -1      1333    8    0    1
 -2       602       595       747      2593      3040      3041
 -1      1334    8    0    1
 -2       578       665       748      2944      3042      3043
 -1      1335    8    0    1
 -2       712       578       748      2941      3043      3044
 -1      1336    8    0    1
 -2       665       663       748      3016      3045      3042
 -1      1337    8    0    1
 -2       732       586       729      2993      2986      3046
 -1      1338    8    0    1
 -2       731       600       714      2991      2950      3047
 -1      1339    8    0    1
 -2       715       582       735      2952      3001      3048
 -1      1340    8    0    1
 -2       676       590       675      2987      3049      2836
 -1      1341    8    0    1
 -2       613       470       749      2637      3050      3051
 -1      1342    8    0    1
 -2       470       611       749      2623      3052      3050
 -1      1343    8    0    1
 -2       729       594       730      2985      2990      3053
 -1      1344    8    0    1
 -2       583       717       719      2957      3054      2960
 -1      1345    8    0    1
 -2       724       606       719      2973      2961      3055
 -1      1346    8    0    1
 -2       479       620       619      3012      3056      2666
 -1      1347    8    0    1
 -2       615       593       750      2654      3057      3058
 -1      1348    8    0    1
 -2       593       732       750      2994      3059      3057
 -1      1349    8    0    1
 -2       572       569       751      2517      3060      3061
 -1      1350    8    0    1
 -2       744       572       751      3031      3061      3062
 -1      1351    8    0    1
 -2       569       707       751      2927      3063      3060
 -1      1352    8    0    1
 -2       472       587       752      2558      3064      3065
 -1      1353    8    0    1
 -2       728       472       752      2983      3065      3066
 -1      1354    8    0    1
 -2       587       739       752      3011      3067      3064
 -1      1355    8    0    1
 -2       723       482       737      2971      3005      3068
 -1      1356    8    0    1
 -2       595       727       747      2982      3069      3040
 -1      1357    8    0    1
 -2       734       604       736      2998      3003      3070
 -1      1358    8    0    1
 -2       601       602       753      2592      3071      3072
 -1      1359    8    0    1
 -2       743       601       753      3027      3072      3073
 -1      1360    8    0    1
 -2       602       747       753      3041      3074      3071
 -1      1361    8    0    1
 -2       607       610       754      2675      3075      3076
 -1      1362    8    0    1
 -2       481       607       754      2605      3076      3077
 -1      1363    8    0    1
 -2       610       738       754      3007      3078      3075
 -1      1364    8    0    1
 -2       481       754       722      3077      3079      2968
 -1      1365    8    0    1
 -2       618       619       755      2668      3080      3081
 -1      1366    8    0    1
 -2       623       622       756      2680      3082      3083
 -1      1367    8    0    1
 -2       737       588       676      3004      2988      3084
 -1      1368    8    0    1
 -2       624       623       757      2683      3085      3086
 -1      1369    8    0    1
 -2       623       756       757      3083      3087      3085
 -1      1370    8    0    1
 -2       625       624       758      2686      3088      3089
 -1      1371    8    0    1
 -2       624       757       758      3086      3090      3088
 -1      1372    8    0    1
 -2       626       625       759      2689      3091      3092
 -1      1373    8    0    1
 -2       625       758       759      3089      3093      3091
 -1      1374    8    0    1
 -2       627       626       760      2692      3094      3095
 -1      1375    8    0    1
 -2       626       759       760      3092      3096      3094
 -1      1376    8    0    1
 -2       628       627       761      2695      3097      3098
 -1      1377    8    0    1
 -2       627       760       761      3095      3099      3097
 -1      1378    8    0    1
 -2       629       628       762      2698      3100      3101
 -1      1379    8    0    1
 -2       628       761       762      3098      3102      3100
 -1      1380    8    0    1
 -2       630       629       763      2701      3103      3104
 -1      1381    8    0    1
 -2       629       762       763      3101      3105      3103
 -1      1382    8    0    1
 -2       631       630       764      2704      3106      3107
 -1      1383    8    0    1
 -2       630       763       764      3104      3108      3106
 -1      1384    8    0    1
 -2       632       631       765      2707      3109      3110
 -1      1385    8    0    1
 -2       631       764       765      3107      3111      3109
 -1      1386    8    0    1
 -2       633       632       766      2710      3112      3113
 -1      1387    8    0    1
 -2       632       765       766      3110      3114      3112
 -1      1388    8    0    1
 -2       635       634       743      2716      3115      3116
 -1      1389    8    0    1
 -2       636       635       753      2719      3117      3118
 -1      1390    8    0    1
 -2       637       636       747      2722      3119      3120
 -1      1391    8    0    1
 -2       638       637       727      2725      3121      3122
 -1      1392    8    0    1
 -2       640       639       767      2731      3123      3124
 -1      1393    8    0    1
 -2       641       640       768      2734      3125      3126
 -1      1394    8    0    1
 -2       640       767       768      3124      3127      3125
 -1      1395    8    0    1
 -2       642       641       769      2737      3128      3129
 -1      1396    8    0    1
 -2       641       768       769      3126      3130      3128
 -1      1397    8    0    1
 -2       643       642       770      2740      3131      3132
 -1      1398    8    0    1
 -2       642       769       770      3129      3133      3131
 -1      1399    8    0    1
 -2       644       643       771      2743      3134      3135
 -1      1400    8    0    1
 -2       643       770       771      3132      3136      3134
 -1      1401    8    0    1
 -2       645       644       772      2746      3137      3138
 -1      1402    8    0    1
 -2       644       771       772      3135      3139      3137
 -1      1403    8    0    1
 -2       646       645       773      2749      3140      3141
 -1      1404    8    0    1
 -2       645       772       773      3138      3142      3140
 -1      1405    8    0    1
 -2       647       646       774      2752      3143      3144
 -1      1406    8    0    1
 -2       646       773       774      3141      3145      3143
 -1      1407    8    0    1
 -2       648       647       775      2755      3146      3147
 -1      1408    8    0    1
 -2       647       774       775      3144      3148      3146
 -1      1409    8    0    1
 -2       649       648       776      2758      3149      3150
 -1      1410    8    0    1
 -2       648       775       776      3147      3151      3149
 -1      1411    8    0    1
 -2       650       649       777      2761      3152      3153
 -1      1412    8    0    1
 -2       649       776       777      3150      3154      3152
 -1      1413    8    0    1
 -2       651       650       778      2764      3155      3156
 -1      1414    8    0    1
 -2       650       777       778      3153      3157      3155
 -1      1415    8    0    1
 -2       652       651       779      2767      3158      3159
 -1      1416    8    0    1
 -2       651       778       779      3156      3160      3158
 -1      1417    8    0    1
 -2       653       652       780      2770      3161      3162
 -1      1418    8    0    1
 -2       652       779       780      3159      3163      3161
 -1      1419    8    0    1
 -2       654       653       781      2773      3164      3165
 -1      1420    8    0    1
 -2       653       780       781      3162      3166      3164
 -1      1421    8    0    1
 -2       655       654       782      2776      3167      3168
 -1      1422    8    0    1
 -2       654       781       782      3165      3169      3167
 -1      1423    8    0    1
 -2       656       655       783      2779      3170      3171
 -1      1424    8    0    1
 -2       655       782       783      3168      3172      3170
 -1      1425    8    0    1
 -2       657       656       784      2782      3173      3174
 -1      1426    8    0    1
 -2       656       783       784      3171      3175      3173
 -1      1427    8    0    1
 -2       658       657       785      2785      3176      3177
 -1      1428    8    0    1
 -2       657       784       785      3174      3178      3176
 -1      1429    8    0    1
 -2       659       658       786      2788      3179      3180
 -1      1430    8    0    1
 -2       658       785       786      3177      3181      3179
 -1      1431    8    0    1
 -2       660       659       787      2791      3182      3183
 -1      1432    8    0    1
 -2       659       786       787      3180      3184      3182
 -1      1433    8    0    1
 -2       661       660       788      2794      3185      3186
 -1      1434    8    0    1
 -2       660       787       788      3183      3187      3185
 -1      1435    8    0    1
 -2       662       661       789      2797      3188      3189
 -1      1436    8    0    1
 -2       661       788       789      3186      3190      3188
 -1      1437    8    0    1
 -2       663       662       790      2800      3191      3192
 -1      1438    8    0    1
 -2       748       663       790      3045      3192      3193
 -1      1439    8    0    1
 -2       662       789       790      3189      3194      3191
 -1      1440    8    0    1
 -2       705       743       634      3028      3115      3195
 -1      1441    8    0    1
 -2       667       668       791      2812      3196      3197
 -1      1442    8    0    1
 -2       670       671       792      2821      3198      3199
 -1      1443    8    0    1
 -2       671       672       793      2824      3200      3201
 -1      1444    8    0    1
 -2       671       793       792      3201      3202      3198
 -1      1445    8    0    1
 -2       672       673       750      2827      3203      3204
 -1      1446    8    0    1
 -2       674       675       718      2833      3205      3206
 -1      1447    8    0    1
 -2       678       679       716      2845      3207      3208
 -1      1448    8    0    1
 -2       680       681       794      2851      3209      3210
 -1      1449    8    0    1
 -2       681       682       795      2854      3211      3212
 -1      1450    8    0    1
 -2       681       795       794      3212      3213      3209
 -1      1451    8    0    1
 -2       682       683       796      2857      3214      3215
 -1      1452    8    0    1
 -2       682       796       795      3215      3216      3211
 -1      1453    8    0    1
 -2       683       684       797      2860      3217      3218
 -1      1454    8    0    1
 -2       683       797       796      3218      3219      3214
 -1      1455    8    0    1
 -2       684       685       798      2863      3220      3221
 -1      1456    8    0    1
 -2       684       798       797      3221      3222      3217
 -1      1457    8    0    1
 -2       685       686       799      2866      3223      3224
 -1      1458    8    0    1
 -2       685       799       798      3224      3225      3220
 -1      1459    8    0    1
 -2       686       687       800      2869      3226      3227
 -1      1460    8    0    1
 -2       686       800       799      3227      3228      3223
 -1      1461    8    0    1
 -2       687       688       801      2872      3229      3230
 -1      1462    8    0    1
 -2       687       801       800      3230      3231      3226
 -1      1463    8    0    1
 -2       688       689       802      2875      3232      3233
 -1      1464    8    0    1
 -2       688       802       801      3233      3234      3229
 -1      1465    8    0    1
 -2       689       690       803      2878      3235      3236
 -1      1466    8    0    1
 -2       689       803       802      3236      3237      3232
 -1      1467    8    0    1
 -2       690       691       804      2881      3238      3239
 -1      1468    8    0    1
 -2       690       804       803      3239      3240      3235
 -1      1469    8    0    1
 -2       691       692       805      2884      3241      3242
 -1      1470    8    0    1
 -2       691       805       804      3242      3243      3238
 -1      1471    8    0    1
 -2       692       693       806      2887      3244      3245
 -1      1472    8    0    1
 -2       692       806       805      3245      3246      3241
 -1      1473    8    0    1
 -2       693       694       807      2890      3247      3248
 -1      1474    8    0    1
 -2       693       807       806      3248      3249      3244
 -1      1475    8    0    1
 -2       694       695       808      2893      3250      3251
 -1      1476    8    0    1
 -2       694       808       807      3251      3252      3247
 -1      1477    8    0    1
 -2       695       696       809      2896      3253      3254
 -1      1478    8    0    1
 -2       695       809       808      3254      3255      3250
 -1      1479    8    0    1
 -2       696       697       810      2899      3256      3257
 -1      1480    8    0    1
 -2       696       810       809      3257      3258      3253
 -1      1481    8    0    1
 -2       697       698       811      2902      3259      3260
 -1      1482    8    0    1
 -2       697       811       810      3260      3261      3256
 -1      1483    8    0    1
 -2       698       699       812      2905      3262      3263
 -1      1484    8    0    1
 -2       698       812       811      3263      3264      3259
 -1      1485    8    0    1
 -2       699       700       813      2908      3265      3266
 -1      1486    8    0    1
 -2       699       813       812      3266      3267      3262
 -1      1487    8    0    1
 -2       700       701       814      2911      3268      3269
 -1      1488    8    0    1
 -2       700       814       813      3269      3270      3265
 -1      1489    8    0    1
 -2       701       702       815      2914      3271      3272
 -1      1490    8    0    1
 -2       701       815       814      3272      3273      3268
 -1      1491    8    0    1
 -2       702       703       816      2917      3274      3275
 -1      1492    8    0    1
 -2       702       816       815      3275      3276      3271
 -1      1493    8    0    1
 -2       703       704       817      2920      3277      3278
 -1      1494    8    0    1
 -2       816       703       817      3274      3278      3279
 -1      1495    8    0    1
 -2       704       744       817      3030      3280      3277
 -1      1496    8    0    1
 -2       708       710       818      2937      3281      3282
 -1      1497    8    0    1
 -2       706       708       819      2930      3283      3284
 -1      1498    8    0    1
 -2       708       818       819      3282      3285      3283
 -1      1499    8    0    1
 -2       718       589       820      2958      3286      3287
 -1      1500    8    0    1
 -2       734       736       821      3070      3288      3289
 -1      1501    8    0    1
 -2       732       729       822      3046      3290      3291
 -1      1502    8    0    1
 -2       614       726       823      3018      3292      3293
 -1      1503    8    0    1
 -2       733       664       824      3038      3294      3295
 -1      1504    8    0    1
 -2       592       718       675      2959      3205      3296
 -1      1505    8    0    1
 -2       720       667       825      2964      3297      3298
 -1      1506    8    0    1
 -2       667       791       825      3197      3299      3297
 -1      1507    8    0    1
 -2       724       719       826      3055      3300      3301
 -1      1508    8    0    1
 -2       710       711       827      2940      3302      3303
 -1      1509    8    0    1
 -2       710       827       818      3303      3304      3281
 -1      1510    8    0    1
 -2       711       712       828      2943      3305      3306
 -1      1511    8    0    1
 -2       711       828       827      3306      3307      3302
 -1      1512    8    0    1
 -2       619       620       829      3056      3308      3309
 -1      1513    8    0    1
 -2       755       619       829      3080      3309      3310
 -1      1514    8    0    1
 -2       620       621       829      2673      3311      3308
 -1      1515    8    0    1
 -2       669       670       830      2818      3312      3313
 -1      1516    8    0    1
 -2       670       792       830      3199      3314      3312
 -1      1517    8    0    1
 -2       622       722       831      2970      3315      3316
 -1      1518    8    0    1
 -2       622       831       756      3316      3317      3082
 -1      1519    8    0    1
 -2       721       720       832      2967      3318      3319
 -1      1520    8    0    1
 -2       720       825       832      3298      3320      3318
 -1      1521    8    0    1
 -2       727       734       638      3039      3321      3122
 -1      1522    8    0    1
 -2       668       669       833      2815      3322      3323
 -1      1523    8    0    1
 -2       791       668       833      3196      3323      3324
 -1      1524    8    0    1
 -2       669       830       833      3313      3325      3322
 -1      1525    8    0    1
 -2       666       721       834      3026      3326      3327
 -1      1526    8    0    1
 -2       721       832       834      3319      3328      3326
 -1      1527    8    0    1
 -2       727       637       747      3121      3120      3069
 -1      1528    8    0    1
 -2       731       714       766      3047      3329      3330
 -1      1529    8    0    1
 -2       635       743       753      3116      3073      3117
 -1      1530    8    0    1
 -2       719       717       835      3054      3331      3332
 -1      1531    8    0    1
 -2       589       615       820      2653      3333      3286
 -1      1532    8    0    1
 -2       736       724       836      3025      3334      3335
 -1      1533    8    0    1
 -2       736       836       821      3335      3336      3288
 -1      1534    8    0    1
 -2       726       733       837      2997      3337      3338
 -1      1535    8    0    1
 -2       823       726       837      3292      3338      3339
 -1      1536    8    0    1
 -2       733       824       837      3295      3340      3337
 -1      1537    8    0    1
 -2       590       592       675      2650      3296      3049
 -1      1538    8    0    1
 -2       617       616       838      2663      3341      3342
 -1      1539    8    0    1
 -2       747       636       753      3119      3118      3074
 -1      1540    8    0    1
 -2       729       730       839      3053      3343      3344
 -1      1541    8    0    1
 -2       729       839       822      3344      3345      3290
 -1      1542    8    0    1
 -2       715       735       840      3048      3346      3347
 -1      1543    8    0    1
 -2       722       754       841      3079      3348      3349
 -1      1544    8    0    1
 -2       754       738       841      3078      3350      3348
 -1      1545    8    0    1
 -2       705       634       842      3195      3351      3352
 -1      1546    8    0    1
 -2       714       705       842      2951      3352      3353
 -1      1547    8    0    1
 -2       634       633       842      2713      3354      3351
 -1      1548    8    0    1
 -2       674       718       820      3206      3287      3355
 -1      1549    8    0    1
 -2       638       734       821      3321      3289      3356
 -1      1550    8    0    1
 -2       674       820       673      3355      3357      2830
 -1      1551    8    0    1
 -2       739       617       843      3009      3358      3359
 -1      1552    8    0    1
 -2       617       838       843      3342      3360      3358
 -1      1553    8    0    1
 -2       717       740       844      3015      3361      3362
 -1      1554    8    0    1
 -2       717       844       835      3362      3363      3331
 -1      1555    8    0    1
 -2       740       613       845      3013      3364      3365
 -1      1556    8    0    1
 -2       613       749       845      3051      3366      3364
 -1      1557    8    0    1
 -2       666       834       846      3327      3367      3368
 -1      1558    8    0    1
 -2       666       846       713      3368      3369      2948
 -1      1559    8    0    1
 -2       737       676       677      3084      2839      3370
 -1      1560    8    0    1
 -2       741       715       847      3021      3371      3372
 -1      1561    8    0    1
 -2       715       840       847      3347      3373      3371
 -1      1562    8    0    1
 -2       742       731       766      3024      3330      3374
 -1      1563    8    0    1
 -2       738       728       848      3008      3375      3376
 -1      1564    8    0    1
 -2       738       848       841      3376      3377      3350
 -1      1565    8    0    1
 -2       716       723       678      3017      3378      3208
 -1      1566    8    0    1
 -2       724       826       836      3301      3379      3334
 -1      1567    8    0    1
 -2       839       730       849      3343      3380      3381
 -1      1568    8    0    1
 -2       730       746       849      3037      3382      3380
 -1      1569    8    0    1
 -2       639       638       821      2728      3356      3383
 -1      1570    8    0    1
 -2       793       672       750      3200      3204      3384
 -1      1571    8    0    1
 -2       621       713       850      2947      3385      3386
 -1      1572    8    0    1
 -2       829       621       850      3311      3386      3387
 -1      1573    8    0    1
 -2       713       846       850      3369      3388      3385
 -1      1574    8    0    1
 -2       677       678       737      2842      3389      3370
 -1      1575    8    0    1
 -2       680       794       745      3210      3390      3391
 -1      1576    8    0    1
 -2       679       680       745      2848      3391      3392
 -1      1577    8    0    1
 -2       707       709       851      2933      3393      3394
 -1      1578    8    0    1
 -2       728       752       852      3066      3395      3396
 -1      1579    8    0    1
 -2       728       852       848      3396      3397      3375
 -1      1580    8    0    1
 -2       709       706       853      2934      3398      3399
 -1      1581    8    0    1
 -2       851       709       853      3393      3399      3400
 -1      1582    8    0    1
 -2       706       819       853      3284      3401      3398
 -1      1583    8    0    1
 -2       735       745       840      3033      3402      3346
 -1      1584    8    0    1
 -2       673       820       750      3357      3403      3203
 -1      1585    8    0    1
 -2       732       822       750      3291      3404      3059
 -1      1586    8    0    1
 -2       712       748       854      3044      3405      3406
 -1      1587    8    0    1
 -2       828       712       854      3305      3406      3407
 -1      1588    8    0    1
 -2       748       790       854      3193      3408      3405
 -1      1589    8    0    1
 -2       707       851       855      3394      3409      3410
 -1      1590    8    0    1
 -2       707       855       751      3410      3411      3063
 -1      1591    8    0    1
 -2       824       664       856      3294      3412      3413
 -1      1592    8    0    1
 -2       664       742       856      3023      3414      3412
 -1      1593    8    0    1
 -2       838       616       857      3341      3415      3416
 -1      1594    8    0    1
 -2       616       725       857      2977      3417      3415
 -1      1595    8    0    1
 -2       749       611       858      3052      3418      3419
 -1      1596    8    0    1
 -2       611       741       858      3020      3420      3418
 -1      1597    8    0    1
 -2       725       618       859      2978      3421      3422
 -1      1598    8    0    1
 -2       857       725       859      3417      3422      3423
 -1      1599    8    0    1
 -2       618       755       859      3081      3424      3421
 -1      1600    8    0    1
 -2       826       719       835      3300      3332      3425
 -1      1601    8    0    1
 -2       831       722       841      3315      3349      3426
 -1      1602    8    0    1
 -2       716       679       745      3207      3392      3034
 -1      1603    8    0    1
 -2       723       737       678      3068      3389      3378
 -1      1604    8    0    1
 -2       633       766       842      3113      3427      3354
 -1      1605    8    0    1
 -2       757       756       860      3087      3428      3429
 -1      1606    8    0    1
 -2       758       757       861      3090      3430      3431
 -1      1607    8    0    1
 -2       757       860       861      3429      3432      3430
 -1      1608    8    0    1
 -2       759       758       862      3093      3433      3434
 -1      1609    8    0    1
 -2       758       861       862      3431      3435      3433
 -1      1610    8    0    1
 -2       760       759       863      3096      3436      3437
 -1      1611    8    0    1
 -2       759       862       863      3434      3438      3436
 -1      1612    8    0    1
 -2       761       760       864      3099      3439      3440
 -1      1613    8    0    1
 -2       760       863       864      3437      3441      3439
 -1      1614    8    0    1
 -2       762       761       865      3102      3442      3443
 -1      1615    8    0    1
 -2       761       864       865      3440      3444      3442
 -1      1616    8    0    1
 -2       763       762       866      3105      3445      3446
 -1      1617    8    0    1
 -2       762       865       866      3443      3447      3445
 -1      1618    8    0    1
 -2       764       763       867      3108      3448      3449
 -1      1619    8    0    1
 -2       763       866       867      3446      3450      3448
 -1      1620    8    0    1
 -2       766       765       742      3114      3451      3374
 -1      1621    8    0    1
 -2       766       714       842      3329      3353      3427
 -1      1622    8    0    1
 -2       769       768       868      3130      3452      3453
 -1      1623    8    0    1
 -2       770       769       869      3133      3454      3455
 -1      1624    8    0    1
 -2       769       868       869      3453      3456      3454
 -1      1625    8    0    1
 -2       771       770       870      3136      3457      3458
 -1      1626    8    0    1
 -2       770       869       870      3455      3459      3457
 -1      1627    8    0    1
 -2       772       771       871      3139      3460      3461
 -1      1628    8    0    1
 -2       771       870       871      3458      3462      3460
 -1      1629    8    0    1
 -2       773       772       872      3142      3463      3464
 -1      1630    8    0    1
 -2       772       871       872      3461      3465      3463
 -1      1631    8    0    1
 -2       774       773       873      3145      3466      3467
 -1      1632    8    0    1
 -2       773       872       873      3464      3468      3466
 -1      1633    8    0    1
 -2       775       774       874      3148      3469      3470
 -1      1634    8    0    1
 -2       774       873       874      3467      3471      3469
 -1      1635    8    0    1
 -2       776       775       875      3151      3472      3473
 -1      1636    8    0    1
 -2       775       874       875      3470      3474      3472
 -1      1637    8    0    1
 -2       777       776       876      3154      3475      3476
 -1      1638    8    0    1
 -2       776       875       876      3473      3477      3475
 -1      1639    8    0    1
 -2       778       777       877      3157      3478      3479
 -1      1640    8    0    1
 -2       777       876       877      3476      3480      3478
 -1      1641    8    0    1
 -2       779       778       878      3160      3481      3482
 -1      1642    8    0    1
 -2       778       877       878      3479      3483      3481
 -1      1643    8    0    1
 -2       780       779       879      3163      3484      3485
 -1      1644    8    0    1
 -2       779       878       879      3482      3486      3484
 -1      1645    8    0    1
 -2       781       780       880      3166      3487      3488
 -1      1646    8    0    1
 -2       780       879       880      3485      3489      3487
 -1      1647    8    0    1
 -2       782       781       881      3169      3490      3491
 -1      1648    8    0    1
 -2       781       880       881      3488      3492      3490
 -1      1649    8    0    1
 -2       783       782       882      3172      3493      3494
 -1      1650    8    0    1
 -2       782       881       882      3491      3495      3493
 -1      1651    8    0    1
 -2       784       783       883      3175      3496      3497
 -1      1652    8    0    1
 -2       783       882       883      3494      3498      3496
 -1      1653    8    0    1
 -2       785       784       884      3178      3499      3500
 -1      1654    8    0    1
 -2       784       883       884      3497      3501      3499
 -1      1655    8    0    1
 -2       786       785       885      3181      3502      3503
 -1      1656    8    0    1
 -2       785       884       885      3500      3504      3502
 -1      1657    8    0    1
 -2       787       786       886      3184      3505      3506
 -1      1658    8    0    1
 -2       786       885       886      3503      3507      3505
 -1      1659    8    0    1
 -2       788       787       887      3187      3508      3509
 -1      1660    8    0    1
 -2       787       886       887      3506      3510      3508
 -1      1661    8    0    1
 -2       789       788       888      3190      3511      3512
 -1      1662    8    0    1
 -2       788       887       888      3509      3513      3511
 -1      1663    8    0    1
 -2       752       739       889      3067      3514      3515
 -1      1664    8    0    1
 -2       852       752       889      3395      3515      3516
 -1      1665    8    0    1
 -2       739       843       889      3359      3517      3514
 -1      1666    8    0    1
 -2       834       832       890      3328      3518      3519
 -1      1667    8    0    1
 -2       756       831       891      3317      3520      3521
 -1      1668    8    0    1
 -2       756       891       860      3521      3522      3428
 -1      1669    8    0    1
 -2       792       793       892      3202      3523      3524
 -1      1670    8    0    1
 -2       836       826       893      3379      3525      3526
 -1      1671    8    0    1
 -2       745       794       840      3390      3527      3402
 -1      1672    8    0    1
 -2       797       798       894      3222      3528      3529
 -1      1673    8    0    1
 -2       798       799       895      3225      3530      3531
 -1      1674    8    0    1
 -2       798       895       894      3531      3532      3528
 -1      1675    8    0    1
 -2       799       800       896      3228      3533      3534
 -1      1676    8    0    1
 -2       799       896       895      3534      3535      3530
 -1      1677    8    0    1
 -2       800       801       897      3231      3536      3537
 -1      1678    8    0    1
 -2       800       897       896      3537      3538      3533
 -1      1679    8    0    1
 -2       801       802       898      3234      3539      3540
 -1      1680    8    0    1
 -2       801       898       897      3540      3541      3536
 -1      1681    8    0    1
 -2       802       803       899      3237      3542      3543
 -1      1682    8    0    1
 -2       802       899       898      3543      3544      3539
 -1      1683    8    0    1
 -2       803       804       900      3240      3545      3546
 -1      1684    8    0    1
 -2       803       900       899      3546      3547      3542
 -1      1685    8    0    1
 -2       804       805       901      3243      3548      3549
 -1      1686    8    0    1
 -2       804       901       900      3549      3550      3545
 -1      1687    8    0    1
 -2       805       806       902      3246      3551      3552
 -1      1688    8    0    1
 -2       805       902       901      3552      3553      3548
 -1      1689    8    0    1
 -2       806       807       903      3249      3554      3555
 -1      1690    8    0    1
 -2       806       903       902      3555      3556      3551
 -1      1691    8    0    1
 -2       807       808       904      3252      3557      3558
 -1      1692    8    0    1
 -2       807       904       903      3558      3559      3554
 -1      1693    8    0    1
 -2       808       809       905      3255      3560      3561
 -1      1694    8    0    1
 -2       808       905       904      3561      3562      3557
 -1      1695    8    0    1
 -2       809       810       906      3258      3563      3564
 -1      1696    8    0    1
 -2       809       906       905      3564      3565      3560
 -1      1697    8    0    1
 -2       810       811       907      3261      3566      3567
 -1      1698    8    0    1
 -2       810       907       906      3567      3568      3563
 -1      1699    8    0    1
 -2       811       812       908      3264      3569      3570
 -1      1700    8    0    1
 -2       811       908       907      3570      3571      3566
 -1      1701    8    0    1
 -2       812       813       909      3267      3572      3573
 -1      1702    8    0    1
 -2       812       909       908      3573      3574      3569
 -1      1703    8    0    1
 -2       813       814       910      3270      3575      3576
 -1      1704    8    0    1
 -2       813       910       909      3576      3577      3572
 -1      1705    8    0    1
 -2       814       815       911      3273      3578      3579
 -1      1706    8    0    1
 -2       814       911       910      3579      3580      3575
 -1      1707    8    0    1
 -2       815       816       912      3276      3581      3582
 -1      1708    8    0    1
 -2       815       912       911      3582      3583      3578
 -1      1709    8    0    1
 -2       827       828       913      3307      3584      3585
 -1      1710    8    0    1
 -2       819       818       914      3285      3586      3587
 -1      1711    8    0    1
 -2       746       614       823      3035      3293      3588
 -1      1712    8    0    1
 -2       821       836       767      3336      3589      3590
 -1      1713    8    0    1
 -2       755       829       915      3310      3591      3592
 -1      1714    8    0    1
 -2       829       850       915      3387      3593      3591
 -1      1715    8    0    1
 -2       639       821       767      3383      3590      3123
 -1      1716    8    0    1
 -2       768       767       836      3127      3589      3594
 -1      1717    8    0    1
 -2       796       797       916      3219      3595      3596
 -1      1718    8    0    1
 -2       797       894       916      3529      3597      3595
 -1      1719    8    0    1
 -2       825       791       917      3299      3598      3599
 -1      1720    8    0    1
 -2       795       796       918      3216      3600      3601
 -1      1721    8    0    1
 -2       796       916       918      3596      3602      3600
 -1      1722    8    0    1
 -2       818       827       919      3304      3603      3604
 -1      1723    8    0    1
 -2       914       818       919      3586      3604      3605
 -1      1724    8    0    1
 -2       827       913       919      3585      3606      3603
 -1      1725    8    0    1
 -2       832       825       920      3320      3607      3608
 -1      1726    8    0    1
 -2       832       920       890      3608      3609      3518
 -1      1727    8    0    1
 -2       826       835       921      3425      3610      3611
 -1      1728    8    0    1
 -2       826       921       893      3611      3612      3525
 -1      1729    8    0    1
 -2       830       792       922      3314      3613      3614
 -1      1730    8    0    1
 -2       792       892       922      3524      3615      3613
 -1      1731    8    0    1
 -2       820       615       750      3333      3058      3403
 -1      1732    8    0    1
 -2       744       751       923      3062      3616      3617
 -1      1733    8    0    1
 -2       817       744       923      3280      3617      3618
 -1      1734    8    0    1
 -2       751       855       923      3411      3619      3616
 -1      1735    8    0    1
 -2       822       839       892      3345      3620      3621
 -1      1736    8    0    1
 -2       831       841       924      3426      3622      3623
 -1      1737    8    0    1
 -2       891       831       924      3520      3623      3624
 -1      1738    8    0    1
 -2       841       848       924      3377      3625      3622
 -1      1739    8    0    1
 -2       742       765       925      3451      3626      3627
 -1      1740    8    0    1
 -2       856       742       925      3414      3627      3628
 -1      1741    8    0    1
 -2       765       764       925      3111      3629      3626
 -1      1742    8    0    1
 -2       840       794       926      3527      3630      3631
 -1      1743    8    0    1
 -2       847       840       926      3373      3631      3632
 -1      1744    8    0    1
 -2       794       795       926      3213      3633      3630
 -1      1745    8    0    1
 -2       746       823       927      3588      3634      3635
 -1      1746    8    0    1
 -2       844       740       928      3361      3636      3637
 -1      1747    8    0    1
 -2       740       845       928      3365      3638      3636
 -1      1748    8    0    1
 -2       845       749       858      3366      3419      3639
 -1      1749    8    0    1
 -2       846       834       929      3367      3640      3641
 -1      1750    8    0    1
 -2       834       890       929      3519      3642      3640
 -1      1751    8    0    1
 -2       927       823       930      3634      3643      3644
 -1      1752    8    0    1
 -2       851       853       931      3400      3645      3646
 -1      1753    8    0    1
 -2       764       867       925      3449      3647      3629
 -1      1754    8    0    1
 -2       920       825       917      3607      3599      3648
 -1      1755    8    0    1
 -2       849       746       927      3382      3635      3649
 -1      1756    8    0    1
 -2       843       838       932      3360      3650      3651
 -1      1757    8    0    1
 -2       791       833       933      3324      3652      3653
 -1      1758    8    0    1
 -2       791       933       917      3653      3654      3598
 -1      1759    8    0    1
 -2       822       892       793      3621      3523      3655
 -1      1760    8    0    1
 -2       790       789       934      3194      3656      3657
 -1      1761    8    0    1
 -2       854       790       934      3408      3657      3658
 -1      1762    8    0    1
 -2       789       888       934      3512      3659      3656
 -1      1763    8    0    1
 -2       750       822       793      3404      3655      3384
 -1      1764    8    0    1
 -2       741       847       935      3372      3660      3661
 -1      1765    8    0    1
 -2       741       935       858      3661      3662      3420
 -1      1766    8    0    1
 -2       816       817       923      3279      3618      3663
 -1      1767    8    0    1
 -2       819       914       936      3587      3664      3665
 -1      1768    8    0    1
 -2       819       936       853      3665      3666      3401
 -1      1769    8    0    1
 -2       892       839       937      3620      3667      3668
 -1      1770    8    0    1
 -2       922       892       937      3615      3668      3669
 -1      1771    8    0    1
 -2       839       849       937      3381      3670      3667
 -1      1772    8    0    1
 -2       848       852       938      3397      3671      3672
 -1      1773    8    0    1
 -2       848       938       924      3672      3673      3625
 -1      1774    8    0    1
 -2       755       915       859      3592      3674      3424
 -1      1775    8    0    1
 -2       926       795       918      3633      3601      3675
 -1      1776    8    0    1
 -2       816       923       912      3663      3676      3581
 -1      1777    8    0    1
 -2       830       922       939      3614      3677      3678
 -1      1778    8    0    1
 -2       830       939       833      3678      3679      3325
 -1      1779    8    0    1
 -2       823       837       930      3339      3680      3643
 -1      1780    8    0    1
 -2       855       851       940      3409      3681      3682
 -1      1781    8    0    1
 -2       851       931       940      3646      3683      3681
 -1      1782    8    0    1
 -2       828       854       934      3407      3658      3684
 -1      1783    8    0    1
 -2       824       856       941      3413      3685      3686
 -1      1784    8    0    1
 -2       921       835       942      3610      3687      3688
 -1      1785    8    0    1
 -2       835       844       942      3363      3689      3687
 -1      1786    8    0    1
 -2       768       836       868      3594      3690      3452
 -1      1787    8    0    1
 -2       837       824       943      3340      3691      3692
 -1      1788    8    0    1
 -2       824       941       943      3686      3693      3691
 -1      1789    8    0    1
 -2       838       857       944      3416      3694      3695
 -1      1790    8    0    1
 -2       838       944       932      3695      3696      3650
 -1      1791    8    0    1
 -2       828       934       913      3684      3697      3584
 -1      1792    8    0    1
 -2       931       853       936      3645      3666      3698
 -1      1793    8    0    1
 -2       862       861       945      3435      3699      3700
 -1      1794    8    0    1
 -2       863       862       946      3438      3701      3702
 -1      1795    8    0    1
 -2       862       945       946      3700      3703      3701
 -1      1796    8    0    1
 -2       864       863       947      3441      3704      3705
 -1      1797    8    0    1
 -2       863       946       947      3702      3706      3704
 -1      1798    8    0    1
 -2       865       864       948      3444      3707      3708
 -1      1799    8    0    1
 -2       864       947       948      3705      3709      3707
 -1      1800    8    0    1
 -2       866       865       949      3447      3710      3711
 -1      1801    8    0    1
 -2       865       948       949      3708      3712      3710
 -1      1802    8    0    1
 -2       847       926       950      3632      3713      3714
 -1      1803    8    0    1
 -2       935       847       950      3660      3714      3715
 -1      1804    8    0    1
 -2       926       918       950      3675      3716      3713
 -1      1805    8    0    1
 -2       896       897       951      3538      3717      3718
 -1      1806    8    0    1
 -2       913       934       888      3697      3659      3719
 -1      1807    8    0    1
 -2       870       869       952      3459      3720      3721
 -1      1808    8    0    1
 -2       871       870       953      3462      3722      3723
 -1      1809    8    0    1
 -2       870       952       953      3721      3724      3722
 -1      1810    8    0    1
 -2       872       871       954      3465      3725      3726
 -1      1811    8    0    1
 -2       871       953       954      3723      3727      3725
 -1      1812    8    0    1
 -2       873       872       955      3468      3728      3729
 -1      1813    8    0    1
 -2       872       954       955      3726      3730      3728
 -1      1814    8    0    1
 -2       874       873       956      3471      3731      3732
 -1      1815    8    0    1
 -2       873       955       956      3729      3733      3731
 -1      1816    8    0    1
 -2       875       874       957      3474      3734      3735
 -1      1817    8    0    1
 -2       874       956       957      3732      3736      3734
 -1      1818    8    0    1
 -2       876       875       958      3477      3737      3738
 -1      1819    8    0    1
 -2       875       957       958      3735      3739      3737
 -1      1820    8    0    1
 -2       877       876       959      3480      3740      3741
 -1      1821    8    0    1
 -2       876       958       959      3738      3742      3740
 -1      1822    8    0    1
 -2       878       877       960      3483      3743      3744
 -1      1823    8    0    1
 -2       877       959       960      3741      3745      3743
 -1      1824    8    0    1
 -2       879       878       961      3486      3746      3747
 -1      1825    8    0    1
 -2       878       960       961      3744      3748      3746
 -1      1826    8    0    1
 -2       880       879       962      3489      3749      3750
 -1      1827    8    0    1
 -2       879       961       962      3747      3751      3749
 -1      1828    8    0    1
 -2       881       880       963      3492      3752      3753
 -1      1829    8    0    1
 -2       880       962       963      3750      3754      3752
 -1      1830    8    0    1
 -2       882       881       964      3495      3755      3756
 -1      1831    8    0    1
 -2       881       963       964      3753      3757      3755
 -1      1832    8    0    1
 -2       883       882       965      3498      3758      3759
 -1      1833    8    0    1
 -2       882       964       965      3756      3760      3758
 -1      1834    8    0    1
 -2       884       883       966      3501      3761      3762
 -1      1835    8    0    1
 -2       883       965       966      3759      3763      3761
 -1      1836    8    0    1
 -2       885       884       967      3504      3764      3765
 -1      1837    8    0    1
 -2       884       966       967      3762      3766      3764
 -1      1838    8    0    1
 -2       886       885       968      3507      3767      3768
 -1      1839    8    0    1
 -2       885       967       968      3765      3769      3767
 -1      1840    8    0    1
 -2       887       886       969      3510      3770      3771
 -1      1841    8    0    1
 -2       886       968       969      3768      3772      3770
 -1      1842    8    0    1
 -2       888       887       970      3513      3773      3774
 -1      1843    8    0    1
 -2       887       969       970      3771      3775      3773
 -1      1844    8    0    1
 -2       850       846       971      3388      3776      3777
 -1      1845    8    0    1
 -2       915       850       971      3593      3777      3778
 -1      1846    8    0    1
 -2       846       929       971      3641      3779      3776
 -1      1847    8    0    1
 -2       920       917       972      3648      3780      3781
 -1      1848    8    0    1
 -2       860       891       973      3522      3782      3783
 -1      1849    8    0    1
 -2       927       930       974      3644      3784      3785
 -1      1850    8    0    1
 -2       861       860       975      3432      3786      3787
 -1      1851    8    0    1
 -2       861       975       945      3787      3788      3699
 -1      1852    8    0    1
 -2       895       896       976      3535      3789      3790
 -1      1853    8    0    1
 -2       896       951       976      3718      3791      3789
 -1      1854    8    0    1
 -2       843       932       977      3651      3792      3793
 -1      1855    8    0    1
 -2       894       895       978      3532      3794      3795
 -1      1856    8    0    1
 -2       895       976       978      3790      3796      3794
 -1      1857    8    0    1
 -2       897       898       979      3541      3797      3798
 -1      1858    8    0    1
 -2       897       979       951      3798      3799      3717
 -1      1859    8    0    1
 -2       898       899       980      3544      3800      3801
 -1      1860    8    0    1
 -2       898       980       979      3801      3802      3797
 -1      1861    8    0    1
 -2       899       900       981      3547      3803      3804
 -1      1862    8    0    1
 -2       899       981       980      3804      3805      3800
 -1      1863    8    0    1
 -2       900       901       982      3550      3806      3807
 -1      1864    8    0    1
 -2       900       982       981      3807      3808      3803
 -1      1865    8    0    1
 -2       901       902       983      3553      3809      3810
 -1      1866    8    0    1
 -2       901       983       982      3810      3811      3806
 -1      1867    8    0    1
 -2       902       903       984      3556      3812      3813
 -1      1868    8    0    1
 -2       902       984       983      3813      3814      3809
 -1      1869    8    0    1
 -2       903       904       985      3559      3815      3816
 -1      1870    8    0    1
 -2       903       985       984      3816      3817      3812
 -1      1871    8    0    1
 -2       904       905       986      3562      3818      3819
 -1      1872    8    0    1
 -2       904       986       985      3819      3820      3815
 -1      1873    8    0    1
 -2       905       906       987      3565      3821      3822
 -1      1874    8    0    1
 -2       905       987       986      3822      3823      3818
 -1      1875    8    0    1
 -2       906       907       988      3568      3824      3825
 -1      1876    8    0    1
 -2       906       988       987      3825      3826      3821
 -1      1877    8    0    1
 -2       907       908       989      3571      3827      3828
 -1      1878    8    0    1
 -2       907       989       988      3828      3829      3824
 -1      1879    8    0    1
 -2       908       909       990      3574      3830      3831
 -1      1880    8    0    1
 -2       908       990       989      3831      3832      3827
 -1      1881    8    0    1
 -2       909       910       991      3577      3833      3834
 -1      1882    8    0    1
 -2       909       991       990      3834      3835      3830
 -1      1883    8    0    1
 -2       910       911       992      3580      3836      3837
 -1      1884    8    0    1
 -2       910       992       991      3837      3838      3833
 -1      1885    8    0    1
 -2       890       920       993      3609      3839      3840
 -1      1886    8    0    1
 -2       920       972       993      3781      3841      3839
 -1      1887    8    0    1
 -2       849       927       994      3649      3842      3843
 -1      1888    8    0    1
 -2       937       849       994      3670      3843      3844
 -1      1889    8    0    1
 -2       927       974       994      3785      3845      3842
 -1      1890    8    0    1
 -2       918       916       995      3602      3846      3847
 -1      1891    8    0    1
 -2       916       894       996      3597      3848      3849
 -1      1892    8    0    1
 -2       916       996       995      3849      3850      3846
 -1      1893    8    0    1
 -2       912       923       855      3676      3619      3851
 -1      1894    8    0    1
 -2       857       859       997      3423      3852      3853
 -1      1895    8    0    1
 -2       857       997       944      3853      3854      3694
 -1      1896    8    0    1
 -2       941       856       925      3685      3628      3855
 -1      1897    8    0    1
 -2       930       837       943      3680      3692      3856
 -1      1898    8    0    1
 -2       941       925       867      3855      3647      3857
 -1      1899    8    0    1
 -2       859       915       997      3674      3858      3852
 -1      1900    8    0    1
 -2       845       858       998      3639      3859      3860
 -1      1901    8    0    1
 -2       913       888       970      3719      3774      3861
 -1      1902    8    0    1
 -2       912       855       940      3851      3682      3862
 -1      1903    8    0    1
 -2       929       890       999      3642      3863      3864
 -1      1904    8    0    1
 -2       890       993       999      3840      3865      3863
 -1      1905    8    0    1
 -2       997       915       971      3858      3778      3866
 -1      1906    8    0    1
 -2       950       918       995      3716      3847      3867
 -1      1907    8    0    1
 -2       867       866      1000      3450      3868      3869
 -1      1908    8    0    1
 -2       933       833       939      3652      3679      3870
 -1      1909    8    0    1
 -2       952       869       921      3720      3871      3872
 -1      1910    8    0    1
 -2       917       933      1001      3654      3873      3874
 -1      1911    8    0    1
 -2       917      1001       972      3874      3875      3780
 -1      1912    8    0    1
 -2       869       868       921      3456      3876      3871
 -1      1913    8    0    1
 -2       912       940       911      3862      3877      3583
 -1      1914    8    0    1
 -2       889       843       977      3517      3793      3878
 -1      1915    8    0    1
 -2       860       973       975      3783      3879      3786
 -1      1916    8    0    1
 -2       941       867      1000      3857      3869      3880
 -1      1917    8    0    1
 -2       932       944      1002      3696      3881      3882
 -1      1918    8    0    1
 -2       928       845       998      3638      3860      3883
 -1      1919    8    0    1
 -2       977       932      1003      3792      3884      3885
 -1      1920    8    0    1
 -2       932      1002      1003      3882      3886      3884
 -1      1921    8    0    1
 -2       894       978       996      3795      3887      3848
 -1      1922    8    0    1
 -2       992       911       940      3836      3877      3888
 -1      1923    8    0    1
 -2       931       936      1004      3698      3889      3890
 -1      1924    8    0    1
 -2       936       914      1005      3664      3891      3892
 -1      1925    8    0    1
 -2       936      1005      1004      3892      3893      3889
 -1      1926    8    0    1
 -2       844       928      1006      3637      3894      3895
 -1      1927    8    0    1
 -2       844      1006       942      3895      3896      3689
 -1      1928    8    0    1
 -2       858       935      1007      3662      3897      3898
 -1      1929    8    0    1
 -2       858      1007       998      3898      3899      3859
 -1      1930    8    0    1
 -2       914       919      1008      3605      3900      3901
 -1      1931    8    0    1
 -2       914      1008      1005      3901      3902      3891
 -1      1932    8    0    1
 -2       922       937      1009      3669      3903      3904
 -1      1933    8    0    1
 -2       922      1009       939      3904      3905      3677
 -1      1934    8    0    1
 -2       940       931      1010      3683      3906      3907
 -1      1935    8    0    1
 -2       992       940      1010      3888      3907      3908
 -1      1936    8    0    1
 -2       931      1004      1010      3890      3909      3906
 -1      1937    8    0    1
 -2       919       913       970      3606      3861      3910
 -1      1938    8    0    1
 -2       941      1000      1011      3880      3911      3912
 -1      1939    8    0    1
 -2       941      1011       943      3912      3913      3693
 -1      1940    8    0    1
 -2      1000       866       949      3868      3711      3914
 -1      1941    8    0    1
 -2       891       924      1012      3624      3915      3916
 -1      1942    8    0    1
 -2       973       891      1012      3782      3916      3917
 -1      1943    8    0    1
 -2       924       938      1012      3673      3918      3915
 -1      1944    8    0    1
 -2       930       943      1013      3856      3919      3920
 -1      1945    8    0    1
 -2       974       930      1013      3784      3920      3921
 -1      1946    8    0    1
 -2       951       979      1014      3799      3922      3923
 -1      1947    8    0    1
 -2       946       945      1015      3703      3924      3925
 -1      1948    8    0    1
 -2       935       950      1007      3715      3926      3897
 -1      1949    8    0    1
 -2       947       946      1016      3706      3927      3928
 -1      1950    8    0    1
 -2       946      1015      1016      3925      3929      3927
 -1      1951    8    0    1
 -2       948       947      1017      3709      3930      3931
 -1      1952    8    0    1
 -2       947      1016      1017      3928      3932      3930
 -1      1953    8    0    1
 -2       949       948      1018      3712      3933      3934
 -1      1954    8    0    1
 -2       948      1017      1018      3931      3935      3933
 -1      1955    8    0    1
 -2       933       939      1019      3870      3936      3937
 -1      1956    8    0    1
 -2       933      1019      1001      3937      3938      3873
 -1      1957    8    0    1
 -2       919       970      1008      3910      3939      3900
 -1      1958    8    0    1
 -2       953       952      1020      3724      3940      3941
 -1      1959    8    0    1
 -2       852       889      1021      3516      3942      3943
 -1      1960    8    0    1
 -2       950       995      1007      3867      3944      3926
 -1      1961    8    0    1
 -2       954       953      1022      3727      3945      3946
 -1      1962    8    0    1
 -2       953      1020      1022      3941      3947      3945
 -1      1963    8    0    1
 -2       955       954      1023      3730      3948      3949
 -1      1964    8    0    1
 -2       954      1022      1023      3946      3950      3948
 -1      1965    8    0    1
 -2       956       955      1024      3733      3951      3952
 -1      1966    8    0    1
 -2       955      1023      1024      3949      3953      3951
 -1      1967    8    0    1
 -2       957       956      1025      3736      3954      3955
 -1      1968    8    0    1
 -2       956      1024      1025      3952      3956      3954
 -1      1969    8    0    1
 -2       958       957      1026      3739      3957      3958
 -1      1970    8    0    1
 -2       957      1025      1026      3955      3959      3957
 -1      1971    8    0    1
 -2       959       958      1027      3742      3960      3961
 -1      1972    8    0    1
 -2       958      1026      1027      3958      3962      3960
 -1      1973    8    0    1
 -2       960       959      1028      3745      3963      3964
 -1      1974    8    0    1
 -2       959      1027      1028      3961      3965      3963
 -1      1975    8    0    1
 -2       961       960      1029      3748      3966      3967
 -1      1976    8    0    1
 -2       960      1028      1029      3964      3968      3966
 -1      1977    8    0    1
 -2       962       961      1030      3751      3969      3970
 -1      1978    8    0    1
 -2       961      1029      1030      3967      3971      3969
 -1      1979    8    0    1
 -2       963       962      1031      3754      3972      3973
 -1      1980    8    0    1
 -2       962      1030      1031      3970      3974      3972
 -1      1981    8    0    1
 -2       964       963      1032      3757      3975      3976
 -1      1982    8    0    1
 -2       963      1031      1032      3973      3977      3975
 -1      1983    8    0    1
 -2       965       964      1033      3760      3978      3979
 -1      1984    8    0    1
 -2       964      1032      1033      3976      3980      3978
 -1      1985    8    0    1
 -2       966       965      1034      3763      3981      3982
 -1      1986    8    0    1
 -2       965      1033      1034      3979      3983      3981
 -1      1987    8    0    1
 -2       967       966      1035      3766      3984      3985
 -1      1988    8    0    1
 -2       966      1034      1035      3982      3986      3984
 -1      1989    8    0    1
 -2       968       967      1036      3769      3987      3988
 -1      1990    8    0    1
 -2       967      1035      1036      3985      3989      3987
 -1      1991    8    0    1
 -2       969       968      1037      3772      3990      3991
 -1      1992    8    0    1
 -2       968      1036      1037      3988      3992      3990
 -1      1993    8    0    1
 -2       970       969      1038      3775      3993      3994
 -1      1994    8    0    1
 -2      1008       970      1038      3939      3994      3995
 -1      1995    8    0    1
 -2       969      1037      1038      3991      3996      3993
 -1      1996    8    0    1
 -2       971       929      1039      3779      3997      3998
 -1      1997    8    0    1
 -2       929       999      1039      3864      3999      3997
 -1      1998    8    0    1
 -2      1013       943      1011      3919      3913      4000
 -1      1999    8    0    1
 -2      1002       944      1040      3881      4001      4002
 -1      2000    8    0    1
 -2       944       997      1040      3854      4003      4001
 -1      2001    8    0    1
 -2       996       978      1041      3887      4004      4005
 -1      2002    8    0    1
 -2       928       998      1042      3883      4006      4007
 -1      2003    8    0    1
 -2       836       893       868      3526      4008      3690
 -1      2004    8    0    1
 -2       945       975      1043      3788      4009      4010
 -1      2005    8    0    1
 -2       945      1043      1015      4010      4011      3924
 -1      2006    8    0    1
 -2       976       951      1044      3791      4012      4013
 -1      2007    8    0    1
 -2       951      1014      1044      3923      4014      4012
 -1      2008    8    0    1
 -2       980       981      1045      3805      4015      4016
 -1      2009    8    0    1
 -2       981       982      1046      3808      4017      4018
 -1      2010    8    0    1
 -2       981      1046      1045      4018      4019      4015
 -1      2011    8    0    1
 -2       982       983      1047      3811      4020      4021
 -1      2012    8    0    1
 -2       982      1047      1046      4021      4022      4017
 -1      2013    8    0    1
 -2       983       984      1048      3814      4023      4024
 -1      2014    8    0    1
 -2       983      1048      1047      4024      4025      4020
 -1      2015    8    0    1
 -2       984       985      1049      3817      4026      4027
 -1      2016    8    0    1
 -2       984      1049      1048      4027      4028      4023
 -1      2017    8    0    1
 -2       985       986      1050      3820      4029      4030
 -1      2018    8    0    1
 -2       985      1050      1049      4030      4031      4026
 -1      2019    8    0    1
 -2       986       987      1051      3823      4032      4033
 -1      2020    8    0    1
 -2       986      1051      1050      4033      4034      4029
 -1      2021    8    0    1
 -2       987       988      1052      3826      4035      4036
 -1      2022    8    0    1
 -2       987      1052      1051      4036      4037      4032
 -1      2023    8    0    1
 -2       988       989      1053      3829      4038      4039
 -1      2024    8    0    1
 -2       988      1053      1052      4039      4040      4035
 -1      2025    8    0    1
 -2       989       990      1054      3832      4041      4042
 -1      2026    8    0    1
 -2       989      1054      1053      4042      4043      4038
 -1      2027    8    0    1
 -2       990       991      1055      3835      4044      4045
 -1      2028    8    0    1
 -2       990      1055      1054      4045      4046      4041
 -1      2029    8    0    1
 -2       991       992      1056      3838      4047      4048
 -1      2030    8    0    1
 -2      1055       991      1056      4044      4048      4049
 -1      2031    8    0    1
 -2       992      1010      1056      3908      4050      4047
 -1      2032    8    0    1
 -2       993       972      1057      3841      4051      4052
 -1      2033    8    0    1
 -2       889       977      1021      3878      4053      3942
 -1      2034    8    0    1
 -2       952       921      1058      3872      4054      4055
 -1      2035    8    0    1
 -2      1004      1005      1059      3893      4056      4057
 -1      2036    8    0    1
 -2       995       996      1060      3850      4058      4059
 -1      2037    8    0    1
 -2       996      1041      1060      4005      4060      4058
 -1      2038    8    0    1
 -2       975       973      1061      3879      4061      4062
 -1      2039    8    0    1
 -2       975      1061      1043      4062      4063      4009
 -1      2040    8    0    1
 -2       978       976      1062      3796      4064      4065
 -1      2041    8    0    1
 -2       976      1044      1062      4013      4066      4064
 -1      2042    8    0    1
 -2       979       980      1063      3802      4067      4068
 -1      2043    8    0    1
 -2      1014       979      1063      3922      4068      4069
 -1      2044    8    0    1
 -2       980      1045      1063      4016      4070      4067
 -1      2045    8    0    1
 -2       893       921       868      3612      3876      4008
 -1      2046    8    0    1
 -2      1000       949      1011      3914      4071      3911
 -1      2047    8    0    1
 -2       974      1013      1064      3921      4072      4073
 -1      2048    8    0    1
 -2       952      1058      1020      4055      4074      3940
 -1      2049    8    0    1
 -2      1021       977      1061      4053      4075      4076
 -1      2050    8    0    1
 -2      1013      1011      1065      4000      4077      4078
 -1      2051    8    0    1
 -2      1019       939      1009      3936      3905      4079
 -1      2052    8    0    1
 -2      1061       977      1003      4075      3885      4080
 -1      2053    8    0    1
 -2       852      1021       938      3943      4081      3671
 -1      2054    8    0    1
 -2       972      1001      1066      3875      4082      4083
 -1      2055    8    0    1
 -2       972      1066      1057      4083      4084      4051
 -1      2056    8    0    1
 -2      1007       995      1060      3944      4059      4085
 -1      2057    8    0    1
 -2      1040       997      1039      4003      4086      4087
 -1      2058    8    0    1
 -2      1041       978      1062      4004      4065      4088
 -1      2059    8    0    1
 -2       928      1042      1006      4007      4089      3894
 -1      2060    8    0    1
 -2      1003      1002      1067      3886      4090      4091
 -1      2061    8    0    1
 -2       997       971      1039      3866      3998      4086
 -1      2062    8    0    1
 -2      1013      1065      1064      4078      4092      4072
 -1      2063    8    0    1
 -2       994       974      1068      3845      4093      4094
 -1      2064    8    0    1
 -2       974      1064      1068      4073      4095      4093
 -1      2065    8    0    1
 -2      1004      1059      1010      4057      4096      3909
 -1      2066    8    0    1
 -2       999       993      1069      3865      4097      4098
 -1      2067    8    0    1
 -2       993      1057      1069      4052      4099      4097
 -1      2068    8    0    1
 -2       949      1018      1065      3934      4100      4101
 -1      2069    8    0    1
 -2      1009       937       994      3903      3844      4102
 -1      2070    8    0    1
 -2       949      1065      1011      4101      4077      4071
 -1      2071    8    0    1
 -2       938      1021      1012      4081      4103      3918
 -1      2072    8    0    1
 -2       998      1007      1070      3899      4104      4105
 -1      2073    8    0    1
 -2      1042       998      1070      4006      4105      4106
 -1      2074    8    0    1
 -2      1007      1060      1070      4085      4107      4104
 -1      2075    8    0    1
 -2      1005      1008      1071      3902      4108      4109
 -1      2076    8    0    1
 -2      1059      1005      1071      4056      4109      4110
 -1      2077    8    0    1
 -2      1008      1038      1071      3995      4111      4108
 -1      2078    8    0    1
 -2      1002      1040      1072      4002      4112      4113
 -1      2079    8    0    1
 -2      1067      1002      1072      4090      4113      4114
 -1      2080    8    0    1
 -2      1040      1039      1072      4087      4115      4112
 -1      2081    8    0    1
 -2      1020      1058      1073      4074      4116      4117
 -1      2082    8    0    1
 -2      1001      1019      1074      3938      4118      4119
 -1      2083    8    0    1
 -2      1001      1074      1066      4119      4120      4082
 -1      2084    8    0    1
 -2      1019      1009      1068      4079      4121      4122
 -1      2085    8    0    1
 -2      1039       999      1072      3999      4123      4115
 -1      2086    8    0    1
 -2      1016      1015      1075      3929      4124      4125
 -1      2087    8    0    1
 -2      1017      1016      1076      3932      4126      4127
 -1      2088    8    0    1
 -2      1016      1075      1076      4125      4128      4126
 -1      2089    8    0    1
 -2      1018      1017      1077      3935      4129      4130
 -1      2090    8    0    1
 -2      1017      1076      1077      4127      4131      4129
 -1      2091    8    0    1
 -2      1021      1061       973      4076      4061      4132
 -1      2092    8    0    1
 -2      1064      1065      1078      4092      4133      4134
 -1      2093    8    0    1
 -2      1022      1020      1079      3947      4135      4136
 -1      2094    8    0    1
 -2      1020      1073      1079      4117      4137      4135
 -1      2095    8    0    1
 -2      1023      1022      1080      3950      4138      4139
 -1      2096    8    0    1
 -2      1022      1079      1080      4136      4140      4138
 -1      2097    8    0    1
 -2      1024      1023      1081      3953      4141      4142
 -1      2098    8    0    1
 -2      1023      1080      1081      4139      4143      4141
 -1      2099    8    0    1
 -2      1025      1024      1082      3956      4144      4145
 -1      2100    8    0    1
 -2      1024      1081      1082      4142      4146      4144
 -1      2101    8    0    1
 -2      1026      1025      1083      3959      4147      4148
 -1      2102    8    0    1
 -2      1025      1082      1083      4145      4149      4147
 -1      2103    8    0    1
 -2      1027      1026      1084      3962      4150      4151
 -1      2104    8    0    1
 -2      1026      1083      1084      4148      4152      4150
 -1      2105    8    0    1
 -2      1028      1027      1085      3965      4153      4154
 -1      2106    8    0    1
 -2      1027      1084      1085      4151      4155      4153
 -1      2107    8    0    1
 -2      1029      1028      1086      3968      4156      4157
 -1      2108    8    0    1
 -2      1028      1085      1086      4154      4158      4156
 -1      2109    8    0    1
 -2      1030      1029      1087      3971      4159      4160
 -1      2110    8    0    1
 -2      1029      1086      1087      4157      4161      4159
 -1      2111    8    0    1
 -2      1031      1030      1088      3974      4162      4163
 -1      2112    8    0    1
 -2      1030      1087      1088      4160      4164      4162
 -1      2113    8    0    1
 -2      1032      1031      1089      3977      4165      4166
 -1      2114    8    0    1
 -2      1031      1088      1089      4163      4167      4165
 -1      2115    8    0    1
 -2      1033      1032      1090      3980      4168      4169
 -1      2116    8    0    1
 -2      1032      1089      1090      4166      4170      4168
 -1      2117    8    0    1
 -2      1034      1033      1091      3983      4171      4172
 -1      2118    8    0    1
 -2      1033      1090      1091      4169      4173      4171
 -1      2119    8    0    1
 -2      1035      1034      1092      3986      4174      4175
 -1      2120    8    0    1
 -2      1034      1091      1092      4172      4176      4174
 -1      2121    8    0    1
 -2      1036      1035      1093      3989      4177      4178
 -1      2122    8    0    1
 -2      1035      1092      1093      4175      4179      4177
 -1      2123    8    0    1
 -2      1037      1036      1094      3992      4180      4181
 -1      2124    8    0    1
 -2      1036      1093      1094      4178      4182      4180
 -1      2125    8    0    1
 -2      1047      1048      1095      4025      4183      4184
 -1      2126    8    0    1
 -2      1041      1062      1096      4088      4185      4186
 -1      2127    8    0    1
 -2      1073      1058      1042      4116      4187      4188
 -1      2128    8    0    1
 -2      1044      1014      1097      4014      4189      4190
 -1      2129    8    0    1
 -2      1046      1047      1098      4022      4191      4192
 -1      2130    8    0    1
 -2      1047      1095      1098      4184      4193      4191
 -1      2131    8    0    1
 -2      1061      1003      1099      4080      4194      4195
 -1      2132    8    0    1
 -2      1043      1061      1099      4063      4195      4196
 -1      2133    8    0    1
 -2      1003      1067      1099      4091      4197      4194
 -1      2134    8    0    1
 -2      1045      1046      1100      4019      4198      4199
 -1      2135    8    0    1
 -2      1046      1098      1100      4192      4200      4198
 -1      2136    8    0    1
 -2      1048      1049      1101      4028      4201      4202
 -1      2137    8    0    1
 -2      1048      1101      1095      4202      4203      4183
 -1      2138    8    0    1
 -2      1049      1050      1102      4031      4204      4205
 -1      2139    8    0    1
 -2      1049      1102      1101      4205      4206      4201
 -1      2140    8    0    1
 -2      1050      1051      1103      4034      4207      4208
 -1      2141    8    0    1
 -2      1050      1103      1102      4208      4209      4204
 -1      2142    8    0    1
 -2      1051      1052      1104      4037      4210      4211
 -1      2143    8    0    1
 -2      1051      1104      1103      4211      4212      4207
 -1      2144    8    0    1
 -2      1052      1053      1105      4040      4213      4214
 -1      2145    8    0    1
 -2      1052      1105      1104      4214      4215      4210
 -1      2146    8    0    1
 -2      1053      1054      1106      4043      4216      4217
 -1      2147    8    0    1
 -2      1053      1106      1105      4217      4218      4213
 -1      2148    8    0    1
 -2      1054      1055      1107      4046      4219      4220
 -1      2149    8    0    1
 -2      1054      1107      1106      4220      4221      4216
 -1      2150    8    0    1
 -2       942      1006      1058      3896      4222      4223
 -1      2151    8    0    1
 -2      1065      1018      1077      4100      4130      4224
 -1      2152    8    0    1
 -2      1009       994      1068      4102      4094      4121
 -1      2153    8    0    1
 -2      1062      1044      1108      4066      4225      4226
 -1      2154    8    0    1
 -2      1044      1097      1108      4190      4227      4225
 -1      2155    8    0    1
 -2      1010      1059      1056      4096      4228      4050
 -1      2156    8    0    1
 -2      1060      1041      1109      4060      4229      4230
 -1      2157    8    0    1
 -2      1041      1096      1109      4186      4231      4229
 -1      2158    8    0    1
 -2      1021       973      1012      4132      3917      4103
 -1      2159    8    0    1
 -2      1073      1042      1110      4188      4232      4233
 -1      2160    8    0    1
 -2      1079      1073      1110      4137      4233      4234
 -1      2161    8    0    1
 -2      1042      1070      1110      4106      4235      4232
 -1      2162    8    0    1
 -2      1015      1043      1111      4011      4236      4237
 -1      2163    8    0    1
 -2      1075      1015      1111      4124      4237      4238
 -1      2164    8    0    1
 -2      1043      1099      1111      4196      4239      4236
 -1      2165    8    0    1
 -2      1062      1108      1096      4226      4240      4185
 -1      2166    8    0    1
 -2      1072       999      1069      4123      4098      4241
 -1      2167    8    0    1
 -2      1067      1072      1069      4114      4241      4242
 -1      2168    8    0    1
 -2      1078      1065      1077      4133      4224      4243
 -1      2169    8    0    1
 -2      1019      1068      1074      4122      4244      4118
 -1      2170    8    0    1
 -2      1038      1037      1112      3996      4245      4246
 -1      2171    8    0    1
 -2      1071      1038      1112      4111      4246      4247
 -1      2172    8    0    1
 -2      1037      1094      1112      4181      4248      4245
 -1      2173    8    0    1
 -2      1099      1067      1113      4197      4249      4250
 -1      2174    8    0    1
 -2      1099      1113      1111      4250      4251      4239
 -1      2175    8    0    1
 -2      1055      1056      1114      4049      4252      4253
 -1      2176    8    0    1
 -2      1107      1055      1114      4219      4253      4254
 -1      2177    8    0    1
 -2      1056      1059      1114      4228      4255      4252
 -1      2178    8    0    1
 -2      1059      1071      1115      4110      4256      4257
 -1      2179    8    0    1
 -2      1114      1059      1115      4255      4257      4258
 -1      2180    8    0    1
 -2      1071      1112      1115      4247      4259      4256
 -1      2181    8    0    1
 -2      1060      1109      1070      4230      4260      4107
 -1      2182    8    0    1
 -2      1068      1064      1116      4095      4261      4262
 -1      2183    8    0    1
 -2      1074      1068      1116      4244      4262      4263
 -1      2184    8    0    1
 -2      1064      1078      1116      4134      4264      4261
 -1      2185    8    0    1
 -2      1058       921       942      4054      3688      4223
 -1      2186    8    0    1
 -2      1045      1100      1117      4199      4265      4266
 -1      2187    8    0    1
 -2      1045      1117      1063      4266      4267      4070
 -1      2188    8    0    1
 -2      1057      1066      1118      4084      4268      4269
 -1      2189    8    0    1
 -2      1014      1063      1119      4069      4270      4271
 -1      2190    8    0    1
 -2      1097      1014      1119      4189      4271      4272
 -1      2191    8    0    1
 -2      1063      1117      1119      4267      4273      4270
 -1      2192    8    0    1
 -2      1057      1118      1113      4269      4274      4275
 -1      2193    8    0    1
 -2      1077      1076      1120      4131      4276      4277
 -1      2194    8    0    1
 -2      1077      1120      1078      4277      4278      4243
 -1      2195    8    0    1
 -2      1107      1114      1121      4254      4279      4280
 -1      2196    8    0    1
 -2      1114      1115      1121      4258      4281      4279
 -1      2197    8    0    1
 -2      1096      1108      1080      4240      4282      4283
 -1      2198    8    0    1
 -2      1080      1079      1096      4140      4284      4283
 -1      2199    8    0    1
 -2      1081      1080      1108      4143      4282      4285
 -1      2200    8    0    1
 -2      1082      1081      1097      4146      4286      4287
 -1      2201    8    0    1
 -2      1083      1082      1119      4149      4288      4289
 -1      2202    8    0    1
 -2      1084      1083      1117      4152      4290      4291
 -1      2203    8    0    1
 -2      1085      1084      1100      4155      4292      4293
 -1      2204    8    0    1
 -2      1086      1085      1098      4158      4294      4295
 -1      2205    8    0    1
 -2      1087      1086      1095      4161      4296      4297
 -1      2206    8    0    1
 -2      1088      1087      1101      4164      4298      4299
 -1      2207    8    0    1
 -2      1089      1088      1102      4167      4300      4301
 -1      2208    8    0    1
 -2      1090      1089      1103      4170      4302      4303
 -1      2209    8    0    1
 -2      1091      1090      1104      4173      4304      4305
 -1      2210    8    0    1
 -2      1092      1091      1105      4176      4306      4307
 -1      2211    8    0    1
 -2      1093      1092      1106      4179      4308      4309
 -1      2212    8    0    1
 -2      1094      1093      1121      4182      4310      4311
 -1      2213    8    0    1
 -2      1101      1102      1088      4206      4300      4299
 -1      2214    8    0    1
 -2      1103      1089      1102      4302      4301      4209
 -1      2215    8    0    1
 -2      1113      1067      1069      4249      4242      4312
 -1      2216    8    0    1
 -2      1081      1108      1097      4285      4227      4286
 -1      2217    8    0    1
 -2      1095      1101      1087      4203      4298      4297
 -1      2218    8    0    1
 -2      1095      1086      1098      4296      4295      4193
 -1      2219    8    0    1
 -2      1103      1104      1090      4212      4304      4303
 -1      2220    8    0    1
 -2      1104      1105      1091      4215      4306      4305
 -1      2221    8    0    1
 -2      1105      1106      1092      4218      4308      4307
 -1      2222    8    0    1
 -2      1057      1113      1069      4275      4312      4099
 -1      2223    8    0    1
 -2      1058      1006      1042      4222      4089      4187
 -1      2224    8    0    1
 -2      1100      1084      1117      4292      4291      4265
 -1      2225    8    0    1
 -2      1098      1085      1100      4294      4293      4200
 -1      2226    8    0    1
 -2      1076      1075      1122      4128      4313      4314
 -1      2227    8    0    1
 -2      1076      1122      1120      4314      4315      4276
 -1      2228    8    0    1
 -2      1070      1109      1110      4260      4316      4235
 -1      2229    8    0    1
 -2      1066      1074      1123      4120      4317      4318
 -1      2230    8    0    1
 -2      1118      1066      1123      4268      4318      4319
 -1      2231    8    0    1
 -2      1074      1116      1123      4263      4320      4317
 -1      2232    8    0    1
 -2      1082      1097      1119      4287      4272      4288
 -1      2233    8    0    1
 -2      1075      1111      1113      4238      4251      4321
 -1      2234    8    0    1
 -2      1112      1094      1115      4248      4322      4259
 -1      2235    8    0    1
 -2      1096      1079      1110      4284      4234      4323
 -1      2236    8    0    1
 -2      1075      1113      1122      4321      4324      4313
 -1      2237    8    0    1
 -2      1083      1119      1117      4289      4273      4290
 -1      2238    8    0    1
 -2      1094      1121      1115      4311      4281      4322
 -1      2239    8    0    1
 -2      1122      1113      1118      4324      4274      4325
 -1      2240    8    0    1
 -2      1106      1107      1121      4221      4280      4326
 -1      2241    8    0    1
 -2      1116      1078      1120      4264      4278      4327
 -1      2242    8    0    1
 -2      1122      1118      1120      4325      4328      4315
 -1      2243    8    0    1
 -2      1106      1121      1093      4326      4310      4309
 -1      2244    8    0    1
 -2      1120      1118      1123      4328      4319      4329
 -1      2245    8    0    1
 -2      1109      1096      1110      4231      4323      4316
 -1      2246    8    0    1
 -2      1116      1120      1123      4327      4329      4320
 -3
    1PSTEP                         1           1           1          
  100CL  101 1.000000000        4329                     0    1           1
 -4  DISP        4    1
 -5  D1          1    2    1    0
 -5  D2          1    2    2    0
 -5  D3          1    2    3    0
 -5  ALL         1    2    0    0    1ALL
 -1         1 6.06675E-03-7.13240E-04-2.92760E-14
 -1         2 7.98866E-03 1.39147E-04-3.61911E-14
 -1         3 1.53707E-02 1.35823E-03-1.81309E-13
 -1         4 1.50278E-02-7.32310E-05-1.76479E-13
 -1         5 0.00000E+00 0.00000E+00 0.00000E+00
 -1         6 0.00000E+00 0.00000E+00 0.00000E+00
 -1         7 0.00000E+00 0.00000E+00 0.00000E+00
 -1         8 0.00000E+00 0.00000E+00 0.00000E+00
 -1         9 0.00000E+00 0.00000E+00 0.00000E+00
 -1        10 0.00000E+00 0.00000E+00 0.00000E+00
 -1        11 0.00000E+00 0.00000E+00 0.00000E+00
 -1        12 0.00000E+00 0.00000E+00 0.00000E+00
 -1        13 0.00000E+00 0.00000E+00 0.00000E+00
 -1        14 0.00000E+00 0.00000E+00 0.00000E+00
 -1        15 0.00000E+00 0.00000E+00 0.00000E+00
 -1        16 0.00000E+00 0.00000E+00 0.00000E+00
 -1        17 0.00000E+00 0.00000E+00 0.00000E+00
 -1        18 0.00000E+00 0.00000E+00 0.00000E+00
 -1        19 0.00000E+00 0.00000E+00 0.00000E+00
 -1        20 0.00000E+00 0.00000E+00 0.00000E+00
 -1        21 0.00000E+00 0.00000E+00 0.00000E+00
 -1        22 0.00000E+00 0.00000E+00 0.00000E+00
 -1        23 4.08560E-04-2.53175E-04 8.19623E-17
 -1        24 7.02330E-04-3.84404E-04-6.29176E-18
 -1        25 9.77577E-04-4.72453E-04-2.64400E-16
 -1        26 1.25035E-03-5.32122E-04-6.93354E-16
 -1        27 1.52570E-03-5.72943E-04-1.29314E-15
 -1        28 1.80647E-03-6.00911E-04-2.06451E-15
 -1        29 2.09457E-03-6.20715E-04-3.00763E-15
 -1        30 2.39140E-03-6.36533E-04-4.12173E-15
 -1        31 2.69793E-03-6.52457E-04-5.40726E-15
 -1        32 3.01452E-03-6.72707E-04-6.86500E-15
 -1        33 3.34062E-03-7.01607E-04-8.48883E-15
 -1        34 3.67420E-03-7.43221E-04-1.02725E-14
 -1        35 4.01129E-03-8.00490E-04-1.22191E-14
 -1        36 4.34566E-03-8.73758E-04-1.43228E-14
 -1        37 4.66950E-03-9.58919E-04-1.65867E-14
 -1        38 4.97528E-03-1.04599E-03-1.90192E-14
 -1        39 5.25894E-03-1.11961E-03-2.16196E-14
 -1        40 5.52304E-03-1.16261E-03-2.43914E-14
 -1        41 5.77740E-03-1.16226E-03-2.73342E-14
 -1        42 6.03597E-03-1.11593E-03-3.04475E-14
 -1        43 6.31108E-03-1.03235E-03-3.37335E-14
 -1        44 6.60879E-03-9.27593E-04-3.71850E-14
 -1        45 6.92787E-03-8.18610E-04-4.08012E-14
 -1        46 7.26209E-03-7.18237E-04-4.45776E-14
 -1        47 7.60365E-03-6.33403E-04-4.84976E-14
 -1        48 7.94570E-03-5.65943E-04-5.25536E-14
 -1        49 8.28350E-03-5.14425E-04-5.67286E-14
 -1        50 8.61448E-03-4.75890E-04-6.10250E-14
 -1        51 8.93770E-03-4.47047E-04-6.54471E-14
 -1        52 9.25334E-03-4.24908E-04-6.99899E-14
 -1        53 9.56218E-03-4.07047E-04-7.46395E-14
 -1        54 9.86524E-03-3.91638E-04-7.93854E-14
 -1        55 1.01636E-02-3.77383E-04-8.42303E-14
 -1        56 1.04582E-02-3.63413E-04-8.91615E-14
 -1        57 1.07500E-02-3.49181E-04-9.41832E-14
 -1        58 1.10397E-02-3.34376E-04-9.92825E-14
 -1        59 1.13278E-02-3.18848E-04-1.04451E-13
 -1        60 1.16149E-02-3.02555E-04-1.09683E-13
 -1        61 1.19012E-02-2.85524E-04-1.14978E-13
 -1        62 1.21870E-02-2.67820E-04-1.20348E-13
 -1        63 1.24726E-02-2.49527E-04-1.25793E-13
 -1        64 1.27580E-02-2.30739E-04-1.31306E-13
 -1        65 1.30433E-02-2.11545E-04-1.36886E-13
 -1        66 1.33287E-02-1.92033E-04-1.42515E-13
 -1        67 1.36141E-02-1.72282E-04-1.48183E-13
 -1        68 1.38995E-02-1.52365E-04-1.53876E-13
 -1        69 1.41851E-02-1.32348E-04-1.59577E-13
 -1        70 1.44707E-02-1.12291E-04-1.65288E-13
 -1        71 1.47564E-02-9.22436E-05-1.71022E-13
 -1        72 4.10693E-04 2.53648E-04 5.34308E-17
 -1        73 7.02007E-04 3.86551E-04-8.72478E-17
 -1        74 9.78022E-04 4.73292E-04-4.12827E-16
 -1        75 1.25128E-03 5.32347E-04-9.22287E-16
 -1        76 1.52720E-03 5.72452E-04-1.61390E-15
 -1        77 1.80892E-03 5.99494E-04-2.48494E-15
 -1        78 2.09868E-03 6.18135E-04-3.53031E-15
 -1        79 2.39837E-03 6.32633E-04-4.74586E-15
 -1        80 2.70964E-03 6.47356E-04-6.13278E-15
 -1        81 3.03377E-03 6.67139E-04-7.69104E-15
 -1        82 3.37126E-03 6.97457E-04-9.41685E-15
 -1        83 3.72109E-03 7.44251E-04-1.13044E-14
 -1        84 4.07970E-03 8.13068E-04-1.33544E-14
 -1        85 4.44004E-03 9.07123E-04-1.55775E-14
 -1        86 4.79141E-03 1.02412E-03-1.79789E-14
 -1        87 5.12154E-03 1.15276E-03-2.05627E-14
 -1        88 5.42167E-03 1.27156E-03-2.33290E-14
 -1        89 5.69289E-03 1.35359E-03-2.62854E-14
 -1        90 5.94897E-03 1.37744E-03-2.94350E-14
 -1        91 6.21142E-03 1.33857E-03-3.27763E-14
 -1        92 6.49871E-03 1.25193E-03-3.63001E-14
 -1        93 6.81789E-03 1.14366E-03-3.99791E-14
 -1        94 7.16400E-03 1.03886E-03-4.38157E-14
 -1        95 7.52567E-03 9.53753E-04-4.77851E-14
 -1        96 7.89122E-03 8.94596E-04-5.18878E-14
 -1        97 8.25208E-03 8.60600E-04-5.61183E-14
 -1        98 8.60348E-03 8.47474E-04-6.04774E-14
 -1        99 8.94365E-03 8.50005E-04-6.49449E-14
 -1       100 9.27278E-03 8.63418E-04-6.95291E-14
 -1       101 9.59204E-03 8.83881E-04-7.42303E-14
 -1       102 9.90298E-03 9.08549E-04-7.90318E-14
 -1       103 1.02072E-02 9.35432E-04-8.39359E-14
 -1       104 1.05062E-02 9.63198E-04-8.89270E-14
 -1       105 1.08011E-02 9.91007E-04-9.39899E-14
 -1       106 1.10930E-02 1.01836E-03-9.91337E-14
 -1       107 1.13827E-02 1.04499E-03-1.04370E-13
 -1       108 1.16708E-02 1.07080E-03-1.09673E-13
 -1       109 1.19578E-02 1.09577E-03-1.15052E-13
 -1       110 1.22441E-02 1.11995E-03-1.20479E-13
 -1       111 1.25299E-02 1.14343E-03-1.25940E-13
 -1       112 1.28155E-02 1.16631E-03-1.31433E-13
 -1       113 1.31008E-02 1.18867E-03-1.36943E-13
 -1       114 1.33862E-02 1.21063E-03-1.42477E-13
 -1       115 1.36715E-02 1.23226E-03-1.48034E-13
 -1       116 1.39569E-02 1.25365E-03-1.53599E-13
 -1       117 1.42424E-02 1.27487E-03-1.59170E-13
 -1       118 1.45279E-02 1.29599E-03-1.64762E-13
 -1       119 1.48135E-02 1.31707E-03-1.70374E-13
 -1       120 1.50992E-02 1.33817E-03-1.75981E-13
 -1       121 1.53499E-02 1.27395E-03-1.81048E-13
 -1       122 1.53291E-02 1.18964E-03-1.80802E-13
 -1       123 1.53082E-02 1.10528E-03-1.80559E-13
 -1       124 1.52874E-02 1.02084E-03-1.80307E-13
 -1       125 1.52667E-02 9.36354E-04-1.80044E-13
 -1       126 1.52464E-02 8.53248E-04-1.79797E-13
 -1       127 1.52259E-02 7.68675E-04-1.79550E-13
 -1       128 1.52056E-02 6.84081E-04-1.79275E-13
 -1       129 1.51854E-02 5.99482E-04-1.78979E-13
 -1       130 1.51653E-02 5.14889E-04-1.78671E-13
 -1       131 1.51453E-02 4.30318E-04-1.78352E-13
 -1       132 1.51258E-02 3.47214E-04-1.78046E-13
 -1       133 1.51061E-02 2.62726E-04-1.77744E-13
 -1       134 1.50864E-02 1.78298E-04-1.77444E-13
 -1       135 1.50668E-02 9.39351E-05-1.77132E-13
 -1       136 1.50472E-02 9.62523E-06-1.76804E-13
 -1       137 7.93684E-03 3.28864E-04-3.60265E-14
 -1       138 7.79610E-03 4.89428E-04-3.55247E-14
 -1       139 7.56506E-03 6.39508E-04-3.46975E-14
 -1       140 7.24101E-03 7.75632E-04-3.35465E-14
 -1       141 6.84208E-03 8.83494E-04-3.21539E-14
 -1       142 6.41474E-03 9.51519E-04-3.06976E-14
 -1       143 5.89770E-03 9.81472E-04-2.89802E-14
 -1       144 5.41848E-03 9.61961E-04-2.74333E-14
 -1       145 4.95118E-03 8.98257E-04-2.59539E-14
 -1       146 4.48865E-03 7.82886E-04-2.45147E-14
 -1       147 4.13583E-03 6.47057E-04-2.34379E-14
 -1       148 3.85432E-03 4.83195E-04-2.25857E-14
 -1       149 3.68705E-03 3.22399E-04-2.20724E-14
 -1       150 3.60061E-03 1.32170E-04-2.17918E-14
 -1       151 3.62383E-03-3.91971E-05-2.18315E-14
 -1       152 3.74595E-03-2.08656E-04-2.21614E-14
 -1       153 3.96215E-03-3.65163E-04-2.27737E-14
 -1       154 4.28329E-03-5.08104E-04-2.37070E-14
 -1       155 4.65960E-03-6.15566E-04-2.48277E-14
 -1       156 5.13677E-03-6.94241E-04-2.62858E-14
 -1       157 5.59385E-03-7.24048E-04-2.77297E-14
 -1       158 6.50447E-03-6.65098E-04-3.07523E-14
 -1       159 6.91199E-03-5.83271E-04-3.21739E-14
 -1       160 7.27180E-03-4.72836E-04-3.34674E-14
 -1       161 7.57033E-03-3.39038E-04-3.45684E-14
 -1       162 7.79639E-03-1.87380E-04-3.54244E-14
 -1       163 7.93525E-03-2.86357E-05-3.59640E-14
 -1       164 2.42402E-04-1.18515E-04-1.39388E-17
 -1       165 2.27417E-04-8.66502E-05-4.42930E-17
 -1       166 2.20961E-04-6.44271E-05-6.25280E-17
 -1       167 2.17080E-04-4.71290E-05-7.39256E-17
 -1       168 2.14463E-04-3.31028E-05-8.07426E-17
 -1       169 2.12629E-04-2.08593E-05-8.49405E-17
 -1       170 2.11531E-04-9.91373E-06-8.74748E-17
 -1       171 2.11158E-04 3.87246E-07-8.89690E-17
 -1       172 2.11520E-04 1.06724E-05-8.97652E-17
 -1       173 2.12625E-04 2.15813E-05-8.93416E-17
 -1       174 2.14455E-04 3.35769E-05-8.75358E-17
 -1       175 2.17179E-04 4.78582E-05-8.35208E-17
 -1       176 2.21145E-04 6.53184E-05-7.56536E-17
 -1       177 2.27639E-04 8.78723E-05-6.09694E-17
 -1       178 2.41398E-04 1.20406E-04-3.40270E-17
 -1       179 2.98651E-04 1.78183E-04-6.32564E-18
 -1       180 4.71452E-04-2.50808E-04-4.42863E-17
 -1       181 7.73592E-04-3.59547E-04-2.61096E-16
 -1       182 1.06371E-03-4.32494E-04-6.39544E-16
 -1       183 1.35003E-03-4.81635E-04-1.18373E-15
 -1       184 1.63673E-03-5.14418E-04-1.89498E-15
 -1       185 1.92653E-03-5.36271E-04-2.77448E-15
 -1       186 2.22124E-03-5.51695E-04-3.82293E-15
 -1       187 2.52214E-03-5.64905E-04-5.03929E-15
 -1       188 2.82995E-03-5.80180E-04-6.42308E-15
 -1       189 3.14485E-03-6.02012E-04-7.97334E-15
 -1       190 3.46619E-03-6.34973E-04-9.68572E-15
 -1       191 3.79225E-03-6.83128E-04-1.15576E-14
 -1       192 4.12009E-03-7.48841E-04-1.35897E-14
 -1       193 4.44551E-03-8.30888E-04-1.57794E-14
 -1       194 4.76378E-03-9.22380E-04-1.81330E-14
 -1       195 5.07103E-03-1.00973E-03-2.06552E-14
 -1       196 5.36628E-03-1.07452E-03-2.33481E-14
 -1       197 5.65288E-03-1.09917E-03-2.62118E-14
 -1       198 5.93787E-03-1.07443E-03-2.92473E-14
 -1       199 6.22918E-03-1.00397E-03-3.24557E-14
 -1       200 6.53208E-03-9.02520E-04-3.58355E-14
 -1       201 6.84754E-03-7.89135E-04-3.93799E-14
 -1       202 7.17283E-03-6.80190E-04-4.30840E-14
 -1       203 7.50352E-03-5.85812E-04-4.69401E-14
 -1       204 7.83517E-03-5.09881E-04-5.09304E-14
 -1       205 8.16438E-03-4.51860E-04-5.50487E-14
 -1       206 8.48899E-03-4.08904E-04-5.92911E-14
 -1       207 8.80799E-03-3.77433E-04-6.36542E-14
 -1       208 9.12120E-03-3.54033E-04-6.81307E-14
 -1       209 9.42894E-03-3.35864E-04-7.27231E-14
 -1       210 9.73184E-03-3.20755E-04-7.74195E-14
 -1       211 1.00306E-02-3.07147E-04-8.22115E-14
 -1       212 1.03260E-02-2.93987E-04-8.70961E-14
 -1       213 1.06188E-02-2.80607E-04-9.20690E-14
 -1       214 1.09094E-02-2.66620E-04-9.71251E-14
 -1       215 1.11985E-02-2.51835E-04-1.02260E-13
 -1       216 1.14863E-02-2.36190E-04-1.07459E-13
 -1       217 1.17734E-02-2.19706E-04-1.12723E-13
 -1       218 1.20598E-02-2.02450E-04-1.18050E-13
 -1       219 1.23459E-02-1.84517E-04-1.23456E-13
 -1       220 1.26317E-02-1.66008E-04-1.28928E-13
 -1       221 1.29173E-02-1.47025E-04-1.34463E-13
 -1       222 1.32029E-02-1.27665E-04-1.40052E-13
 -1       223 1.34884E-02-1.08017E-04-1.45688E-13
 -1       224 1.37740E-02-8.81618E-05-1.51356E-13
 -1       225 1.40596E-02-6.81708E-05-1.57044E-13
 -1       226 1.43452E-02-4.81105E-05-1.62743E-13
 -1       227 1.46309E-02-2.80398E-05-1.68459E-13
 -1       228 6.08208E-04 3.13960E-04-1.68526E-16
 -1       229 9.02319E-04 4.05303E-04-5.04320E-16
 -1       230 1.18892E-03 4.66728E-04-1.01722E-15
 -1       231 1.47417E-03 5.07730E-04-1.70707E-15
 -1       232 1.76183E-03 5.34608E-04-2.57255E-15
 -1       233 2.05444E-03 5.52221E-04-3.61048E-15
 -1       234 2.35392E-03 5.64913E-04-4.81822E-15
 -1       235 2.66178E-03 5.77087E-04-6.19400E-15
 -1       236 2.97911E-03 5.93622E-04-7.73702E-15
 -1       237 3.30642E-03 6.20121E-04-9.44412E-15
 -1       238 3.64318E-03 6.62842E-04-1.13129E-14
 -1       239 3.98733E-03 7.27973E-04-1.33450E-14
 -1       240 4.33479E-03 8.19773E-04-1.55468E-14
 -1       241 4.67929E-03 9.37287E-04-1.79215E-14
 -1       242 5.01348E-03 1.07027E-03-2.04758E-14
 -1       243 5.33154E-03 1.19702E-03-2.32123E-14
 -1       244 5.63302E-03 1.28831E-03-2.61399E-14
 -1       245 5.92496E-03 1.31920E-03-2.92605E-14
 -1       246 6.21954E-03 1.28258E-03-3.25722E-14
 -1       247 6.52770E-03 1.19351E-03-3.60652E-14
 -1       248 6.85375E-03 1.08031E-03-3.97239E-14
 -1       249 7.19491E-03 9.70493E-04-4.35366E-14
 -1       250 7.54448E-03 8.81687E-04-4.74834E-14
 -1       251 7.89540E-03 8.20539E-04-5.15610E-14
 -1       252 8.24233E-03 7.86000E-04-5.57670E-14
 -1       253 8.58209E-03 7.73324E-04-6.01006E-14
 -1       254 8.91341E-03 7.76867E-04-6.45487E-14
 -1       255 9.23626E-03 7.91534E-04-6.91093E-14
 -1       256 9.55136E-03 8.13285E-04-7.37829E-14
 -1       257 9.85974E-03 8.39156E-04-7.85623E-14
 -1       258 1.01626E-02 8.67099E-04-8.34387E-14
 -1       259 1.04609E-02 8.95764E-04-8.84042E-14
 -1       260 1.07557E-02 9.24311E-04-9.34520E-14
 -1       261 1.10478E-02 9.52257E-04-9.85785E-14
 -1       262 1.13379E-02 9.79356E-04-1.03788E-13
 -1       263 1.16265E-02 1.00552E-03-1.09064E-13
 -1       264 1.19140E-02 1.03077E-03-1.14411E-13
 -1       265 1.22007E-02 1.05515E-03-1.19813E-13
 -1       266 1.24869E-02 1.07878E-03-1.25256E-13
 -1       267 1.27728E-02 1.10175E-03-1.30736E-13
 -1       268 1.30585E-02 1.12419E-03-1.36243E-13
 -1       269 1.33440E-02 1.14618E-03-1.41773E-13
 -1       270 1.36295E-02 1.16784E-03-1.47322E-13
 -1       271 1.39151E-02 1.18924E-03-1.52884E-13
 -1       272 1.42006E-02 1.21046E-03-1.58456E-13
 -1       273 1.44862E-02 1.23157E-03-1.64051E-13
 -1       274 1.47719E-02 1.25264E-03-1.69661E-13
 -1       275 1.50575E-02 1.27372E-03-1.75273E-13
 -1       276 1.50920E-02 1.21350E-03-1.76066E-13
 -1       277 1.50712E-02 1.12917E-03-1.75811E-13
 -1       278 1.50504E-02 1.04480E-03-1.75557E-13
 -1       279 1.50296E-02 9.60396E-04-1.75300E-13
 -1       280 1.50093E-02 8.77391E-04-1.75043E-13
 -1       281 1.49887E-02 7.92931E-04-1.74778E-13
 -1       282 1.49682E-02 7.08454E-04-1.74504E-13
 -1       283 1.49479E-02 6.23970E-04-1.74211E-13
 -1       284 1.49278E-02 5.39486E-04-1.73909E-13
 -1       285 1.49078E-02 4.55010E-04-1.73596E-13
 -1       286 1.48882E-02 3.71982E-04-1.73287E-13
 -1       287 1.48685E-02 2.87547E-04-1.72971E-13
 -1       288 1.48488E-02 2.03144E-04-1.72652E-13
 -1       289 1.48292E-02 1.18779E-04-1.72331E-13
 -1       290 1.47300E-02 4.53579E-05-1.70399E-13
 -1       291 8.00212E-03 1.89988E-04-3.80712E-14
 -1       292 7.85723E-03 3.05294E-04-3.72418E-14
 -1       293 7.60817E-03 4.29021E-04-3.65198E-14
 -1       294 7.27183E-03 5.92637E-04-3.52976E-14
 -1       295 6.89036E-03 7.77531E-04-3.36790E-14
 -1       296 6.49268E-03 9.34766E-04-3.20020E-14
 -1       297 6.09192E-03 1.04248E-03-3.01014E-14
 -1       298 5.69352E-03 1.04929E-03-2.81428E-14
 -1       299 5.30653E-03 9.69782E-04-2.63584E-14
 -1       300 4.90236E-03 8.00492E-04-2.45555E-14
 -1       301 4.47477E-03 5.97220E-04-2.31321E-14
 -1       302 4.09068E-03 4.16549E-04-2.20806E-14
 -1       303 3.79492E-03 2.81281E-04-2.14371E-14
 -1       304 3.61305E-03 1.56316E-04-2.08054E-14
 -1       305 3.57494E-03 6.46312E-05-2.08702E-14
 -1       306 3.67696E-03-3.13319E-05-2.10090E-14
 -1       307 3.90483E-03-1.59915E-04-2.15900E-14
 -1       308 4.25024E-03-3.03865E-04-2.22806E-14
 -1       309 4.62712E-03-4.92286E-04-2.35510E-14
 -1       310 5.03195E-03-6.61878E-04-2.50597E-14
 -1       311 5.43643E-03-7.72089E-04-2.67316E-14
 -1       312 5.81377E-03-8.01506E-04-2.84707E-14
 -1       313 6.18874E-03-7.40256E-04-3.02530E-14
 -1       314 6.56038E-03-6.17167E-04-3.19783E-14
 -1       315 6.93630E-03-4.54652E-04-3.36097E-14
 -1       316 7.29899E-03-2.83299E-04-3.50615E-14
 -1       317 7.61667E-03-1.21606E-04-3.63454E-14
 -1       318 7.86088E-03-1.82856E-06-3.71203E-14
 -1       319 7.99426E-03 9.81162E-05-3.75998E-14
 -1       320 4.59296E-04-1.48327E-04-2.17037E-16
 -1       321 4.79285E-04-1.97184E-04-1.64335E-16
 -1       322 4.39360E-04-7.96450E-05-2.75675E-16
 -1       323 4.33806E-04-5.34850E-05-2.91149E-16
 -1       324 4.30174E-04-3.04806E-05-3.01266E-16
 -1       325 4.28351E-04-9.31204E-06-3.07761E-16
 -1       326 4.28340E-04 1.12332E-05-3.11058E-16
 -1       327 4.30166E-04 3.23557E-05-3.11251E-16
 -1       328 4.33788E-04 5.48977E-05-3.07622E-16
 -1       329 4.39475E-04 8.10072E-05-2.99389E-16
 -1       330 4.47680E-04 1.12038E-04-2.83861E-16
 -1       331 4.59912E-04 1.50482E-04-2.57196E-16
 -1       332 4.81018E-04 2.00812E-04-2.12917E-16
 -1       333 5.37128E-04 2.53291E-04-1.99856E-16
 -1       334 8.34267E-04 3.46337E-04-5.39255E-16
 -1       335 8.74068E-04-3.28501E-04-5.55881E-16
 -1       336 1.16652E-03-3.87040E-04-1.04917E-15
 -1       337 1.45741E-03-4.26294E-04-1.70463E-15
 -1       338 1.74872E-03-4.51954E-04-2.52421E-15
 -1       339 2.04212E-03-4.68728E-04-3.50936E-15
 -1       340 2.33896E-03-4.80874E-04-4.66008E-15
 -1       341 2.64030E-03-4.92589E-04-5.97417E-15
 -1       342 2.94696E-03-5.08269E-04-7.45323E-15
 -1       343 3.25948E-03-5.32574E-04-9.09383E-15
 -1       344 3.57797E-03-5.70184E-04-1.08946E-14
 -1       345 3.90184E-03-6.25045E-04-1.28539E-14
 -1       346 4.22942E-03-6.98882E-04-1.49704E-14
 -1       347 4.55756E-03-7.88900E-04-1.72475E-14
 -1       348 4.88189E-03-8.85307E-04-1.96889E-14
 -1       349 5.19838E-03-9.70504E-04-2.23009E-14
 -1       350 5.50603E-03-1.02261E-03-2.50838E-14
 -1       351 5.80878E-03-1.02413E-03-2.80392E-14
 -1       352 6.11374E-03-9.71295E-04-3.11709E-14
 -1       353 6.42674E-03-8.76324E-04-3.44788E-14
 -1       354 6.74898E-03-7.60464E-04-3.79541E-14
 -1       355 7.07750E-03-6.44177E-04-4.15890E-14
 -1       356 7.40786E-03-5.41007E-04-4.53800E-14
 -1       357 7.73634E-03-4.56920E-04-4.93104E-14
 -1       358 8.06067E-03-3.92313E-04-5.33692E-14
 -1       359 8.37986E-03-3.44559E-04-5.75564E-14
 -1       360 8.69375E-03-3.09927E-04-6.18612E-14
 -1       361 9.00262E-03-2.84704E-04-6.62825E-14
 -1       362 9.30700E-03-2.65716E-04-7.08149E-14
 -1       363 9.60747E-03-2.50485E-04-7.54556E-14
 -1       364 9.90464E-03-2.37203E-04-8.01972E-14
 -1       365 1.01991E-02-2.24626E-04-8.50353E-14
 -1       366 1.04913E-02-2.11949E-04-8.99625E-14
 -1       367 1.07818E-02-1.98693E-04-9.49761E-14
 -1       368 1.10709E-02-1.84608E-04-1.00069E-13
 -1       369 1.13590E-02-1.69597E-04-1.05233E-13
 -1       370 1.16463E-02-1.53667E-04-1.10470E-13
 -1       371 1.19330E-02-1.36880E-04-1.15764E-13
 -1       372 1.22193E-02-1.19332E-04-1.21126E-13
 -1       373 1.25054E-02-1.01131E-04-1.26558E-13
 -1       374 1.27912E-02-8.23893E-05-1.32057E-13
 -1       375 1.30770E-02-6.32108E-05-1.37608E-13
 -1       376 1.33627E-02-4.36927E-05-1.43208E-13
 -1       377 1.36483E-02-2.39221E-05-1.48851E-13
 -1       378 1.39340E-02-3.97753E-06-1.54518E-13
 -1       379 1.42196E-02 1.60708E-05-1.60203E-13
 -1       380 1.44748E-02 3.07194E-05-1.65296E-13
 -1       381 1.12637E-03 4.09976E-04-1.04960E-15
 -1       382 1.41623E-03 4.52431E-04-1.73309E-15
 -1       383 1.70674E-03 4.79926E-04-2.58922E-15
 -1       384 2.00015E-03 4.97375E-04-3.61555E-15
 -1       385 2.29824E-03 5.09142E-04-4.81011E-15
 -1       386 2.60242E-03 5.19598E-04-6.17112E-15
 -1       387 2.91384E-03 5.33550E-04-7.69656E-15
 -1       388 3.23332E-03 5.56537E-04-9.38389E-15
 -1       389 3.56121E-03 5.94868E-04-1.12316E-14
 -1       390 3.89703E-03 6.55089E-04-1.32414E-14
 -1       391 4.23901E-03 7.42415E-04-1.54179E-14
 -1       392 4.58353E-03 8.57631E-04-1.77648E-14
 -1       393 4.92491E-03 9.92656E-04-2.02882E-14
 -1       394 5.25694E-03 1.12691E-03-2.29933E-14
 -1       395 5.57647E-03 1.22929E-03-2.58879E-14
 -1       396 5.88727E-03 1.27004E-03-2.89764E-14
 -1       397 6.19909E-03 1.23787E-03-3.22581E-14
 -1       398 6.52114E-03 1.14753E-03-3.57252E-14
 -1       399 6.85611E-03 1.03017E-03-3.93598E-14
 -1       400 7.20017E-03 9.16093E-04-4.31488E-14
 -1       401 7.54707E-03 8.24204E-04-4.70733E-14
 -1       402 7.89151E-03 7.61274E-04-5.11276E-14
 -1       403 8.23021E-03 7.25955E-04-5.53107E-14
 -1       404 8.56171E-03 7.13167E-04-5.96181E-14
 -1       405 8.88573E-03 7.17012E-04-6.40427E-14
 -1       406 9.20267E-03 7.32215E-04-6.85787E-14
 -1       407 9.51328E-03 7.54611E-04-7.32308E-14
 -1       408 9.81844E-03 7.81153E-04-7.79862E-14
 -1       409 1.01191E-02 8.09738E-04-8.28385E-14
 -1       410 1.04160E-02 8.38988E-04-8.77827E-14
 -1       411 1.07100E-02 8.68048E-04-9.28080E-14
 -1       412 1.10016E-02 8.96428E-04-9.79153E-14
 -1       413 1.12915E-02 9.23888E-04-1.03103E-13
 -1       414 1.15801E-02 9.50347E-04-1.08360E-13
 -1       415 1.18677E-02 9.75822E-04-1.13681E-13
 -1       416 1.21546E-02 1.00039E-03-1.19060E-13
 -1       417 1.24410E-02 1.02415E-03-1.24490E-13
 -1       418 1.27270E-02 1.04723E-03-1.29957E-13
 -1       419 1.30129E-02 1.06974E-03-1.35457E-13
 -1       420 1.32986E-02 1.09179E-03-1.40981E-13
 -1       421 1.35842E-02 1.11348E-03-1.46528E-13
 -1       422 1.38698E-02 1.13490E-03-1.52084E-13
 -1       423 1.41554E-02 1.15613E-03-1.57660E-13
 -1       424 1.44411E-02 1.17724E-03-1.63254E-13
 -1       425 1.47267E-02 1.19830E-03-1.68863E-13
 -1       426 1.49094E-02 1.20589E-03-1.72465E-13
 -1       427 1.47925E-02 9.84423E-04-1.70551E-13
 -1       428 1.48133E-02 1.06877E-03-1.70812E-13
 -1       429 1.48614E-02 1.13734E-03-1.71639E-13
 -1       430 1.47721E-02 9.01490E-04-1.70290E-13
 -1       431 1.47515E-02 8.17115E-04-1.70020E-13
 -1       432 1.47310E-02 7.32734E-04-1.69739E-13
 -1       433 1.47106E-02 6.48350E-04-1.69447E-13
 -1       434 1.46904E-02 5.63965E-04-1.69149E-13
 -1       435 1.46703E-02 4.79581E-04-1.68841E-13
 -1       436 1.46507E-02 3.96631E-04-1.68533E-13
 -1       437 1.46309E-02 3.12258E-04-1.68211E-13
 -1       438 1.46112E-02 2.27896E-04-1.67885E-13
 -1       439 1.45915E-02 1.43552E-04-1.67555E-13
 -1       440 7.73682E-03 3.02835E-04-3.84995E-14
 -1       441 8.03326E-03 1.45557E-04-3.95474E-14
 -1       442 7.94399E-03 2.15179E-04-3.93343E-14
 -1       443 7.40423E-03 4.50025E-04-3.72867E-14
 -1       444 7.00828E-03 6.50915E-04-3.55295E-14
 -1       445 4.47246E-04-1.10435E-04-2.52155E-16
 -1       446 6.26002E-03 1.01372E-03-3.15409E-14
 -1       447 5.87145E-03 1.09684E-03-2.90794E-14
 -1       448 5.58345E-03 1.05995E-03-2.72576E-14
 -1       449 5.19988E-03 9.08613E-04-2.50754E-14
 -1       450 4.74188E-03 6.57425E-04-2.29556E-14
 -1       451 4.31378E-03 4.40484E-04-2.16962E-14
 -1       452 3.93653E-03 2.62807E-04-2.05462E-14
 -1       453 3.70230E-03 1.67856E-04-1.99316E-14
 -1       454 3.55197E-03 9.26404E-05-1.96294E-14
 -1       455 3.59336E-03 4.41586E-05-1.98626E-14
 -1       456 3.79379E-03-4.39183E-05-2.03443E-14
 -1       457 4.07091E-03-1.52442E-04-2.07782E-14
 -1       458 4.51664E-03-3.65051E-04-2.20548E-14
 -1       459 4.90701E-03-5.71543E-04-2.36846E-14
 -1       460 5.28984E-03-7.44370E-04-2.52756E-14
 -1       461 5.56948E-03-8.24228E-04-2.69499E-14
 -1       462 5.98107E-03-8.05647E-04-2.95292E-14
 -1       463 6.30699E-03-6.93272E-04-3.15946E-14
 -1       464 6.66939E-03-5.13509E-04-3.35828E-14
 -1       465 7.05315E-03-3.16555E-04-3.53180E-14
 -1       466 7.40576E-03-1.34573E-04-3.70467E-14
 -1       467 7.74303E-03 8.65668E-06-3.83033E-14
 -1       468 7.96126E-03 9.65379E-05-3.90432E-14
 -1       469 6.64027E-03 8.44699E-04-3.36340E-14
 -1       470 8.03599E-03 1.74057E-04-4.08110E-14
 -1       471 9.42773E-04 3.12621E-04-8.72637E-16
 -1       472 6.56765E-04-6.12235E-05-6.33594E-16
 -1       473 6.64761E-04-9.68010E-05-6.09508E-16
 -1       474 6.50324E-04 1.48540E-06-6.58849E-16
 -1       475 6.51894E-04 3.19363E-05-6.62231E-16
 -1       476 6.56608E-04 6.34372E-05-6.59026E-16
 -1       477 6.64728E-04 9.88052E-05-6.48289E-16
 -1       478 6.76558E-04 1.39453E-04-6.27262E-16
 -1       479 6.93204E-04 1.87636E-04-5.92056E-16
 -1       480 1.23417E-03 3.62251E-04-1.49155E-15
 -1       481 9.86948E-04-2.94103E-04-8.93389E-16
 -1       482 6.45209E-03 9.35844E-04-3.33038E-14
 -1       483 1.27733E-03-3.38785E-04-1.49588E-15
 -1       484 1.56809E-03-3.68668E-04-2.25817E-15
 -1       485 1.85962E-03-3.87812E-04-3.18283E-15
 -1       486 2.15276E-03-4.00168E-04-4.27005E-15
 -1       487 2.44845E-03-4.09622E-04-5.51915E-15
 -1       488 2.74781E-03-4.20202E-04-6.92848E-15
 -1       489 3.05206E-03-4.36255E-04-8.49831E-15
 -1       490 3.36264E-03-4.62492E-04-1.02288E-14
 -1       491 3.68093E-03-5.03766E-04-1.21172E-14
 -1       492 4.00774E-03-5.64302E-04-1.41612E-14
 -1       493 4.34228E-03-6.45974E-04-1.63618E-14
 -1       494 4.68090E-03-7.45118E-04-1.87217E-14
 -1       495 5.01713E-03-8.48540E-04-2.12502E-14
 -1       496 5.34472E-03-9.32186E-04-2.39505E-14
 -1       497 5.66306E-03-9.67793E-04-2.68249E-14
 -1       498 5.97931E-03-9.38599E-04-2.98778E-14
 -1       499 6.30259E-03-8.51381E-04-3.31127E-14
 -1       500 6.63594E-03-7.31288E-04-3.65212E-14
 -1       501 6.97506E-03-6.06107E-04-4.00935E-14
 -1       502 7.31298E-03-4.94013E-04-4.38197E-14
 -1       503 7.64476E-03-4.02789E-04-4.76903E-14
 -1       504 7.96839E-03-3.32939E-04-5.16894E-14
 -1       505 8.28409E-03-2.81453E-04-5.58198E-14
 -1       506 8.59306E-03-2.44260E-04-6.00722E-14
 -1       507 8.89669E-03-2.17389E-04-6.44358E-14
 -1       508 9.19616E-03-1.97466E-04-6.89124E-14
 -1       509 9.49244E-03-1.81844E-04-7.34989E-14
 -1       510 9.78622E-03-1.68565E-04-7.81897E-14
 -1       511 1.00781E-02-1.56255E-04-8.29782E-14
 -1       512 1.03684E-02-1.44004E-04-8.78619E-14
 -1       513 1.06576E-02-1.31252E-04-9.28299E-14
 -1       514 1.09458E-02-1.17691E-04-9.78801E-14
 -1       515 1.12334E-02-1.03186E-04-1.03012E-13
 -1       516 1.15203E-02-8.77183E-05-1.08214E-13
 -1       517 1.18069E-02-7.13385E-05-1.13477E-13
 -1       518 1.20932E-02-5.41378E-05-1.18804E-13
 -1       519 1.23793E-02-3.62255E-05-1.24197E-13
 -1       520 1.26653E-02-1.77155E-05-1.29657E-13
 -1       521 1.29511E-02 1.28205E-06-1.35174E-13
 -1       522 1.32369E-02 2.06651E-05-1.40741E-13
 -1       523 1.35226E-02 4.03415E-05-1.46353E-13
 -1       524 1.38083E-02 6.02292E-05-1.52001E-13
 -1       525 1.40940E-02 8.02549E-05-1.57668E-13
 -1       526 7.86447E-03 2.41480E-04-4.06447E-14
 -1       527 1.81745E-03 4.15831E-04-3.23270E-15
 -1       528 2.11136E-03 4.28563E-04-4.35311E-15
 -1       529 2.40833E-03 4.37420E-04-5.63780E-15
 -1       530 2.70951E-03 4.46728E-04-7.08412E-15
 -1       531 3.01617E-03 4.61387E-04-8.69177E-15
 -1       532 3.32980E-03 4.87117E-04-1.04567E-14
 -1       533 3.65209E-03 5.30473E-04-1.23804E-14
 -1       534 3.98469E-03 5.98305E-04-1.44661E-14
 -1       535 4.32817E-03 6.96049E-04-1.67153E-14
 -1       536 4.68024E-03 8.23916E-04-1.91349E-14
 -1       537 5.03417E-03 9.70690E-04-2.17320E-14
 -1       538 5.38061E-03 1.10773E-03-2.45132E-14
 -1       539 5.71509E-03 1.19366E-03-2.74874E-14
 -1       540 6.04433E-03 1.19664E-03-3.06615E-14
 -1       541 6.38069E-03 1.11945E-03-3.40307E-14
 -1       542 6.72937E-03 9.97232E-04-3.75777E-14
 -1       543 7.08460E-03 8.70780E-04-4.12855E-14
 -1       544 7.43708E-03 7.66096E-04-4.51369E-14
 -1       545 7.78078E-03 6.92589E-04-4.91185E-14
 -1       546 8.11397E-03 6.49273E-04-5.32265E-14
 -1       547 8.43748E-03 6.30737E-04-5.74575E-14
 -1       548 8.75301E-03 6.30683E-04-6.18103E-14
 -1       549 9.06218E-03 6.43463E-04-6.62725E-14
 -1       550 9.36633E-03 6.64562E-04-7.08531E-14
 -1       551 9.66646E-03 6.90624E-04-7.55420E-14
 -1       552 9.96336E-03 7.19281E-04-8.03278E-14
 -1       553 1.02577E-02 7.48945E-04-8.52088E-14
 -1       554 1.05499E-02 7.78605E-04-9.01765E-14
 -1       555 1.08405E-02 8.07663E-04-9.52272E-14
 -1       556 1.11297E-02 8.35804E-04-1.00358E-13
 -1       557 1.14180E-02 8.62902E-04-1.05567E-13
 -1       558 1.17055E-02 8.88950E-04-1.10837E-13
 -1       559 1.19924E-02 9.14014E-04-1.16167E-13
 -1       560 1.22789E-02 9.38196E-04-1.21557E-13
 -1       561 1.25651E-02 9.61617E-04-1.26995E-13
 -1       562 1.28511E-02 9.84398E-04-1.32471E-13
 -1       563 1.31370E-02 1.00666E-03-1.37975E-13
 -1       564 1.34227E-02 1.02851E-03-1.43510E-13
 -1       565 1.37084E-02 1.05004E-03-1.49061E-13
 -1       566 1.39941E-02 1.07134E-03-1.54629E-13
 -1       567 1.42798E-02 1.09248E-03-1.60216E-13
 -1       568 1.45655E-02 1.11355E-03-1.65823E-13
 -1       569 1.45143E-02 8.41230E-04-1.65267E-13
 -1       570 1.44937E-02 7.56930E-04-1.64981E-13
 -1       571 1.45555E-02 1.00842E-03-1.65808E-13
 -1       572 1.45348E-02 9.24823E-04-1.65541E-13
 -1       573 1.44733E-02 6.72635E-04-1.64690E-13
 -1       574 1.44530E-02 5.88345E-04-1.64391E-13
 -1       575 1.44329E-02 5.04054E-04-1.64083E-13
 -1       576 1.44132E-02 4.21189E-04-1.63775E-13
 -1       577 1.43933E-02 3.36890E-04-1.63455E-13
 -1       578 1.43736E-02 2.52584E-04-1.63126E-13
 -1       579 1.43539E-02 1.68277E-04-1.62792E-13
 -1       580 7.20679E-03 5.31472E-04-3.80701E-14
 -1       581 1.52544E-03 3.95131E-04-2.27868E-15
 -1       582 7.59808E-03 3.46012E-04-3.97744E-14
 -1       583 7.89621E-03 8.60656E-05-4.07290E-14
 -1       584 8.01887E-03 1.28225E-04-4.12477E-14
 -1       585 5.05886E-03-6.45774E-04-2.35422E-14
 -1       586 4.12244E-03 3.24697E-04-2.01152E-14
 -1       587 6.51963E-04-2.90207E-05-6.49688E-16
 -1       588 6.08108E-03 1.08591E-03-3.07397E-14
 -1       589 4.99869E-03 7.98467E-04-2.32181E-14
 -1       590 5.72043E-03 1.10669E-03-2.79516E-14
 -1       591 3.53462E-03 6.69373E-05-1.86908E-14
 -1       592 5.42281E-03 1.01531E-03-2.58591E-14
 -1       593 4.48759E-03 5.06179E-04-2.11816E-14
 -1       594 3.79173E-03 1.89135E-04-1.91177E-14
 -1       595 6.10136E-03-7.81434E-04-3.06902E-14
 -1       596 3.56783E-03 1.10487E-04-1.85905E-14
 -1       597 3.65688E-03 1.76233E-05-1.89385E-14
 -1       598 3.85933E-03-5.51231E-05-1.93432E-14
 -1       599 4.26543E-03-2.35533E-04-2.00533E-14
 -1       600 4.72129E-03-4.66204E-04-2.19247E-14
 -1       601 5.44937E-03-8.17981E-04-2.57476E-14
 -1       602 5.76640E-03-8.54405E-04-2.81524E-14
 -1       603 6.47820E-03-6.01932E-04-3.33443E-14
 -1       604 6.86623E-03-3.84520E-04-3.57019E-14
 -1       605 7.18914E-03-2.11866E-04-3.74467E-14
 -1       606 7.60154E-03-2.25909E-05-3.94183E-14
 -1       607 7.19434E-04-2.26484E-04-4.96931E-16
 -1       608 7.12001E-04 2.66159E-04-4.85865E-16
 -1       609 6.80264E-03 7.47797E-04-3.55197E-14
 -1       610 6.76251E-04-1.37380E-04-5.74780E-16
 -1       611 8.00571E-03 2.00009E-04-4.21324E-14
 -1       612 1.42867E-02 9.21648E-05-1.61500E-13
 -1       613 8.08495E-03 1.54205E-04-4.25244E-14
 -1       614 3.49170E-03 8.45952E-05-1.76679E-14
 -1       615 4.72809E-03 6.61319E-04-2.14080E-14
 -1       616 8.82104E-04 6.08157E-05-1.13642E-15
 -1       617 8.77415E-04 2.11353E-05-1.13589E-15
 -1       618 9.06043E-04 1.50264E-04-1.10286E-15
 -1       619 9.25937E-04 2.04432E-04-1.06287E-15
 -1       620 1.05750E-03 2.75636E-04-1.24276E-15
 -1       621 1.34600E-03 3.12689E-04-1.96380E-15
 -1       622 1.39092E-03-2.88634E-04-1.97973E-15
 -1       623 1.67908E-03-3.10039E-04-2.84516E-15
 -1       624 1.96806E-03-3.23294E-04-3.87081E-15
 -1       625 2.25820E-03-3.31642E-04-5.05681E-15
 -1       626 2.55034E-03-3.38479E-04-6.40055E-15
 -1       627 2.84582E-03-3.47483E-04-7.90200E-15
 -1       628 3.14661E-03-3.62789E-04-9.56190E-15
 -1       629 3.45535E-03-3.89175E-04-1.13792E-14
 -1       630 3.77511E-03-4.32101E-04-1.33525E-14
 -1       631 4.10841E-03-4.97187E-04-1.54785E-14
 -1       632 4.45519E-03-5.88183E-04-1.77592E-14
 -1       633 4.81005E-03-7.01607E-04-2.02018E-14
 -1       634 5.16203E-03-8.18262E-04-2.28144E-14
 -1       635 5.50227E-03-9.00526E-04-2.56046E-14
 -1       636 5.83288E-03-9.08936E-04-2.85770E-14
 -1       637 6.16770E-03-8.34273E-04-3.17342E-14
 -1       638 6.51527E-03-7.05914E-04-3.50766E-14
 -1       639 6.87017E-03-5.65815E-04-3.85872E-14
 -1       640 7.22154E-03-4.41524E-04-4.22524E-14
 -1       641 7.56140E-03-3.43440E-04-4.60651E-14
 -1       642 7.88724E-03-2.70390E-04-5.00103E-14
 -1       643 8.20071E-03-2.17402E-04-5.40828E-14
 -1       644 8.50483E-03-1.79367E-04-5.82809E-14
 -1       645 8.80245E-03-1.51890E-04-6.25917E-14
 -1       646 9.09579E-03-1.31492E-04-6.70165E-14
 -1       647 9.38642E-03-1.15533E-04-7.15485E-14
 -1       648 9.67535E-03-1.02071E-04-7.61856E-14
 -1       649 9.96322E-03-8.97276E-05-8.09260E-14
 -1       650 1.02504E-02-7.75685E-05-8.57612E-14
 -1       651 1.05372E-02-6.50002E-05-9.06867E-14
 -1       652 1.08236E-02-5.16800E-05-9.56966E-14
 -1       653 1.11099E-02-3.74438E-05-1.00789E-13
 -1       654 1.13960E-02-2.22485E-05-1.05960E-13
 -1       655 1.16820E-02-6.12891E-06-1.11191E-13
 -1       656 1.19679E-02 1.08348E-05-1.16484E-13
 -1       657 1.22538E-02 2.85393E-05-1.21842E-13
 -1       658 1.25396E-02 4.68733E-05-1.27265E-13
 -1       659 1.28254E-02 6.57270E-05-1.32747E-13
 -1       660 1.31112E-02 8.49977E-05-1.38282E-13
 -1       661 1.33969E-02 1.04592E-04-1.43869E-13
 -1       662 1.36826E-02 1.24427E-04-1.49488E-13
 -1       663 1.39684E-02 1.44429E-04-1.55135E-13
 -1       664 3.92719E-03-1.20879E-04-1.80234E-14
 -1       665 1.41611E-02 1.56340E-04-1.58962E-13
 -1       666 1.92472E-03 3.51635E-04-3.89626E-15
 -1       667 2.80239E-03 3.75628E-04-8.00689E-15
 -1       668 3.10181E-03 3.90579E-04-9.69286E-15
 -1       669 3.40836E-03 4.17592E-04-1.15326E-14
 -1       670 3.72583E-03 4.63433E-04-1.35305E-14
 -1       671 4.05872E-03 5.36033E-04-1.56882E-14
 -1       672 4.41024E-03 6.43285E-04-1.80074E-14
 -1       673 4.77863E-03 7.87133E-04-2.04949E-14
 -1       674 5.15341E-03 9.53799E-04-2.31615E-14
 -1       675 5.51892E-03 1.09732E-03-2.60199E-14
 -1       676 5.87194E-03 1.15548E-03-2.90806E-14
 -1       677 6.22549E-03 1.10075E-03-3.23453E-14
 -1       678 6.59369E-03 9.68607E-04-3.58030E-14
 -1       679 6.96837E-03 8.22238E-04-3.94321E-14
 -1       680 7.33576E-03 7.02039E-04-4.32099E-14
 -1       681 7.68495E-03 6.19476E-04-4.71236E-14
 -1       682 8.01606E-03 5.71324E-04-5.11585E-14
 -1       683 8.33250E-03 5.49745E-04-5.53183E-14
 -1       684 8.63871E-03 5.47403E-04-5.95940E-14
 -1       685 8.93829E-03 5.58373E-04-6.39865E-14
 -1       686 9.23367E-03 5.78123E-04-6.84930E-14
 -1       687 9.52637E-03 6.03293E-04-7.31146E-14
 -1       688 9.81729E-03 6.31472E-04-7.78387E-14
 -1       689 1.01070E-02 6.60991E-04-8.26547E-14
 -1       690 1.03957E-02 6.90751E-04-8.75616E-14
 -1       691 1.06838E-02 7.20066E-04-9.25556E-14
 -1       692 1.09713E-02 7.48554E-04-9.76320E-14
 -1       693 1.12583E-02 7.76034E-04-1.02789E-13
 -1       694 1.15450E-02 8.02463E-04-1.08012E-13
 -1       695 1.18314E-02 8.27883E-04-1.13294E-13
 -1       696 1.21176E-02 8.52384E-04-1.18641E-13
 -1       697 1.24037E-02 8.76080E-04-1.24045E-13
 -1       698 1.26896E-02 8.99091E-04-1.29494E-13
 -1       699 1.29755E-02 9.21538E-04-1.34979E-13
 -1       700 1.32613E-02 9.43530E-04-1.40496E-13
 -1       701 1.35471E-02 9.65167E-04-1.46038E-13
 -1       702 1.38328E-02 9.86540E-04-1.51599E-13
 -1       703 1.41185E-02 1.00773E-03-1.57182E-13
 -1       704 1.43370E-02 1.00810E-03-1.61487E-13
 -1       705 5.18470E-03-7.40910E-04-2.36482E-14
 -1       706 1.42157E-02 6.12626E-04-1.59645E-13
 -1       707 1.42566E-02 7.81031E-04-1.60243E-13
 -1       708 1.41955E-02 5.28437E-04-1.59335E-13
 -1       709 1.42361E-02 6.96821E-04-1.59949E-13
 -1       710 1.41757E-02 4.45670E-04-1.59028E-13
 -1       711 1.41558E-02 3.61461E-04-1.58709E-13
 -1       712 1.41360E-02 2.77232E-04-1.58380E-13
 -1       713 1.63510E-03 3.36873E-04-2.84847E-15
 -1       714 4.90303E-03-5.98581E-04-2.20315E-14
 -1       715 7.82278E-03 2.84496E-04-4.26817E-14
 -1       716 6.99646E-03 6.75645E-04-3.80194E-14
 -1       717 8.01458E-03 1.17127E-04-4.30039E-14
 -1       718 5.24034E-03 9.51512E-04-2.42296E-14
 -1       719 7.80185E-03 4.65952E-05-4.18232E-14
 -1       720 2.50746E-03 3.67155E-04-6.47741E-15
 -1       721 2.21527E-03 3.60502E-04-5.10716E-15
 -1       722 1.10382E-03-2.56044E-04-1.27301E-15
 -1       723 6.64233E-03 8.58017E-04-3.52868E-14
 -1       724 7.44597E-03-1.02969E-04-4.02355E-14
 -1       725 8.91613E-04 1.03143E-04-1.12614E-15
 -1       726 3.52866E-03 4.21082E-05-1.75184E-14
 -1       727 6.29977E-03-7.13731E-04-3.25711E-14
 -1       728 8.91936E-04-1.00145E-04-1.07460E-15
 -1       729 3.90974E-03 2.46884E-04-1.84506E-14
 -1       730 3.60854E-03 1.35646E-04-1.76416E-14
 -1       731 4.47372E-03-3.77773E-04-1.99135E-14
 -1       732 4.22832E-03 3.93750E-04-1.93600E-14
 -1       733 3.66416E-03-2.19066E-06-1.79065E-14
 -1       734 6.70180E-03-4.98486E-04-3.56739E-14
 -1       735 7.46903E-03 4.29601E-04-4.07240E-14
 -1       736 7.05679E-03-2.95379E-04-3.78623E-14
 -1       737 6.31439E-03 1.02655E-03-3.28477E-14
 -1       738 9.06065E-04-1.47663E-04-1.03023E-15
 -1       739 8.77566E-04-1.77013E-05-1.12569E-15
 -1       740 8.11424E-03 1.44177E-04-4.42989E-14
 -1       741 7.98966E-03 2.40219E-04-4.41956E-14
 -1       742 4.11300E-03-2.46157E-04-1.78813E-14
 -1       743 5.42781E-03-8.44894E-04-2.52380E-14
 -1       744 1.43163E-02 9.24542E-04-1.61217E-13
 -1       745 7.27943E-03 5.66092E-04-4.06629E-14
 -1       746 3.48593E-03 1.05017E-04-1.67412E-14
 -1       747 5.94201E-03-8.49764E-04-2.95947E-14
 -1       748 1.40521E-02 2.10823E-04-1.56761E-13
 -1       749 8.11297E-03 1.76480E-04-4.38631E-14
 -1       750 4.44677E-03 5.40263E-04-1.95527E-14
 -1       751 1.42864E-02 8.52776E-04-1.60734E-13
 -1       752 8.82443E-04-5.74415E-05-1.10566E-15
 -1       753 5.68233E-03-8.77496E-04-2.73659E-14
 -1       754 9.41532E-04-2.14484E-04-9.79052E-16
 -1       755 1.15728E-03 2.05426E-04-1.66518E-15
 -1       756 1.50486E-03-2.37075E-04-2.50110E-15
 -1       757 1.78898E-03-2.51114E-04-3.46614E-15
 -1       758 2.07350E-03-2.59134E-04-4.58957E-15
 -1       759 2.35855E-03-2.63696E-04-5.86990E-15
 -1       760 2.64495E-03-2.67583E-04-7.30613E-15
 -1       761 2.93439E-03-2.73935E-04-8.89750E-15
 -1       762 3.22964E-03-2.86544E-04-1.06444E-14
 -1       763 3.53485E-03-3.10401E-04-1.25461E-14
 -1       764 3.85527E-03-3.52413E-04-1.46007E-14
 -1       765 4.19575E-03-4.21745E-04-1.68047E-14
 -1       766 4.55914E-03-5.26724E-04-1.91635E-14
 -1       767 7.14295E-03-3.81693E-04-4.06787E-14
 -1       768 7.49296E-03-2.75869E-04-4.44335E-14
 -1       769 7.82123E-03-2.01863E-04-4.83262E-14
 -1       770 8.13151E-03-1.50429E-04-5.23466E-14
 -1       771 8.42935E-03-1.14121E-04-5.64905E-14
 -1       772 8.71943E-03-8.77964E-05-6.07510E-14
 -1       773 9.00516E-03-6.79061E-05-6.51209E-14
 -1       774 9.28873E-03-5.20046E-05-6.95989E-14
 -1       775 9.57148E-03-3.83633E-05-7.41867E-14
 -1       776 9.85414E-03-2.57616E-05-7.88790E-14
 -1       777 1.01371E-02-1.33590E-05-8.36665E-14
 -1       778 1.04205E-02-6.04650E-07-8.85471E-14
 -1       779 1.07044E-02 1.28325E-05-9.35175E-14
 -1       780 1.09887E-02 2.71222E-05-9.85692E-14
 -1       781 1.12733E-02 4.23204E-05-1.03703E-13
 -1       782 1.15583E-02 5.84072E-05-1.08905E-13
 -1       783 1.18435E-02 7.53157E-05-1.14164E-13
 -1       784 1.21289E-02 9.29538E-05-1.19491E-13
 -1       785 1.24144E-02 1.11219E-04-1.24881E-13
 -1       786 1.27000E-02 1.30007E-04-1.30333E-13
 -1       787 1.29856E-02 1.49221E-04-1.35837E-13
 -1       788 1.32713E-02 1.68771E-04-1.41389E-13
 -1       789 1.35571E-02 1.88576E-04-1.46985E-13
 -1       790 1.38046E-02 1.99655E-04-1.51864E-13
 -1       791 2.88245E-03 3.06610E-04-8.93908E-15
 -1       792 3.77843E-03 3.90254E-04-1.46820E-14
 -1       793 4.11002E-03 4.63875E-04-1.69074E-14
 -1       794 7.61263E-03 5.37336E-04-4.51370E-14
 -1       795 7.94018E-03 4.88590E-04-4.91056E-14
 -1       796 8.24738E-03 4.68066E-04-5.31946E-14
 -1       797 8.54191E-03 4.66309E-04-5.74007E-14
 -1       798 8.82957E-03 4.77020E-04-6.17206E-14
 -1       799 9.11398E-03 4.95962E-04-6.61557E-14
 -1       800 9.39718E-03 5.20145E-04-7.07049E-14
 -1       801 9.68022E-03 5.47411E-04-7.53630E-14
 -1       802 9.96356E-03 5.76213E-04-8.01188E-14
 -1       803 1.02474E-02 6.05482E-04-8.49668E-14
 -1       804 1.05316E-02 6.34512E-04-8.99025E-14
 -1       805 1.08163E-02 6.62876E-04-9.49217E-14
 -1       806 1.11013E-02 6.90349E-04-1.00024E-13
 -1       807 1.13865E-02 7.16848E-04-1.05202E-13
 -1       808 1.16719E-02 7.42382E-04-1.10442E-13
 -1       809 1.19574E-02 7.67016E-04-1.15742E-13
 -1       810 1.22430E-02 7.90848E-04-1.21107E-13
 -1       811 1.25287E-02 8.13988E-04-1.26524E-13
 -1       812 1.28144E-02 8.36548E-04-1.31983E-13
 -1       813 1.31001E-02 8.58636E-04-1.37484E-13
 -1       814 1.33858E-02 8.80349E-04-1.43010E-13
 -1       815 1.36716E-02 9.01775E-04-1.48565E-13
 -1       816 1.39573E-02 9.22991E-04-1.54146E-13
 -1       817 1.41368E-02 9.23793E-04-1.57677E-13
 -1       818 1.39382E-02 4.69357E-04-1.54299E-13
 -1       819 1.39583E-02 5.53432E-04-1.54614E-13
 -1       820 4.93346E-03 8.03617E-04-2.20975E-14
 -1       821 6.99164E-03-3.91059E-04-3.86321E-14
 -1       822 3.94972E-03 3.12386E-04-1.73672E-14
 -1       823 3.41742E-03 6.05849E-05-1.63226E-14
 -1       824 3.61850E-03-4.93509E-05-1.61763E-14
 -1       825 2.59673E-03 2.99326E-04-7.33038E-15
 -1       826 7.71778E-03-1.50152E-05-4.29691E-14
 -1       827 1.39181E-02 3.85264E-04-1.53979E-13
 -1       828 1.38982E-02 3.01137E-04-1.53651E-13
 -1       829 1.24923E-03 2.56800E-04-1.81832E-15
 -1       830 3.46826E-03 3.45884E-04-1.26129E-14
 -1       831 1.22168E-03-2.14730E-04-1.69465E-15
 -1       832 2.31226E-03 2.94516E-04-5.87718E-15
 -1       833 3.17166E-03 3.20410E-04-1.06994E-14
 -1       834 2.02792E-03 2.88743E-04-4.58054E-15
 -1       835 7.99434E-03 8.36375E-05-4.48294E-14
 -1       836 7.33075E-03-2.10055E-04-4.10369E-14
 -1       837 3.48587E-03 1.88259E-05-1.62621E-14
 -1       838 1.10960E-03 4.83581E-05-1.73398E-15
 -1       839 3.65714E-03 1.85384E-04-1.66039E-14
 -1       840 7.72497E-03 3.69224E-04-4.37186E-14
 -1       841 1.06213E-03-1.80961E-04-1.34379E-15
 -1       842 4.86678E-03-6.48968E-04-2.11246E-14
 -1       843 1.10659E-03 2.34561E-06-1.72577E-15
 -1       844 8.12468E-03 1.18941E-04-4.61499E-14
 -1       845 8.18152E-03 1.66478E-04-4.56578E-14
 -1       846 1.74329E-03 2.78908E-04-3.44287E-15
 -1       847 7.91142E-03 3.10354E-04-4.52539E-14
 -1       848 1.04356E-03-1.26634E-04-1.40370E-15
 -1       849 3.50127E-03 1.44490E-04-1.57334E-14
 -1       850 1.49659E-03 2.71786E-04-2.56734E-15
 -1       851 1.39989E-02 7.20888E-04-1.55234E-13
 -1       852 1.03038E-03-7.77979E-05-1.44668E-15
 -1       853 1.39785E-02 6.37150E-04-1.54929E-13
 -1       854 1.38514E-02 2.50396E-04-1.52758E-13
 -1       855 1.40286E-02 7.92546E-04-1.55732E-13
 -1       856 3.76769E-03-1.43635E-04-1.60440E-14
 -1       857 1.11913E-03 9.60629E-05-1.72795E-15
 -1       858 8.14135E-03 2.09891E-04-4.59554E-14
 -1       859 1.13506E-03 1.47827E-04-1.70596E-15
 -1       860 1.61852E-03-1.84545E-04-3.06041E-15
 -1       861 1.89759E-03-1.92409E-04-4.12124E-15
 -1       862 2.17616E-03-1.95881E-04-5.33782E-15
 -1       863 2.45416E-03-1.96814E-04-6.70959E-15
 -1       864 2.73232E-03-1.97249E-04-8.23484E-15
 -1       865 3.01246E-03-1.99607E-04-9.91335E-15
 -1       866 3.29791E-03-2.07154E-04-1.17446E-14
 -1       867 3.59407E-03-2.25008E-04-1.37277E-14
 -1       868 7.77892E-03-1.25913E-04-4.66396E-14
 -1       869 8.08127E-03-7.99132E-05-5.06081E-14
 -1       870 8.36840E-03-4.81583E-05-5.47001E-14
 -1       871 8.64774E-03-2.50806E-05-5.89095E-14
 -1       872 8.92354E-03-6.92611E-06-6.32303E-14
 -1       873 9.19835E-03 8.34252E-06-6.76573E-14
 -1       874 9.47360E-03 2.20377E-05-7.21912E-14
 -1       875 9.75000E-03 3.50557E-05-7.68352E-14
 -1       876 1.00278E-02 4.80192E-05-8.15776E-14
 -1       877 1.03071E-02 6.13483E-05-8.64160E-14
 -1       878 1.05877E-02 7.53054E-05-9.13446E-14
 -1       879 1.08695E-02 9.00307E-05-9.63579E-14
 -1       880 1.11523E-02 1.05574E-04-1.01451E-13
 -1       881 1.14359E-02 1.21922E-04-1.06622E-13
 -1       882 1.17200E-02 1.39020E-04-1.11849E-13
 -1       883 1.20047E-02 1.56790E-04-1.17145E-13
 -1       884 1.22897E-02 1.75142E-04-1.22507E-13
 -1       885 1.25750E-02 1.93986E-04-1.27929E-13
 -1       886 1.28604E-02 2.13233E-04-1.33406E-13
 -1       887 1.31460E-02 2.32803E-04-1.38929E-13
 -1       888 1.34316E-02 2.52625E-04-1.44495E-13
 -1       889 1.06630E-03-3.80645E-05-1.58814E-15
 -1       890 2.12761E-03 2.28118E-04-5.28410E-15
 -1       891 1.33968E-03-1.70650E-04-2.15632E-15
 -1       892 3.79880E-03 3.09802E-04-1.58338E-14
 -1       893 7.68192E-03-9.57400E-05-4.45269E-14
 -1       894 8.73463E-03 3.99715E-04-5.94770E-14
 -1       895 9.00535E-03 4.18656E-04-6.38403E-14
 -1       896 9.27707E-03 4.41942E-04-6.83162E-14
 -1       897 9.55066E-03 4.67962E-04-7.29030E-14
 -1       898 9.82637E-03 4.95502E-04-7.75983E-14
 -1       899 1.01041E-02 5.23659E-04-8.23878E-14
 -1       900 1.03836E-02 5.51789E-04-8.72674E-14
 -1       901 1.06646E-02 5.79469E-04-9.22299E-14
 -1       902 1.09468E-02 6.06449E-04-9.72808E-14
 -1       903 1.12299E-02 6.32608E-04-1.02410E-13
 -1       904 1.15138E-02 6.57921E-04-1.07606E-13
 -1       905 1.17983E-02 6.82420E-04-1.12862E-13
 -1       906 1.20831E-02 7.06179E-04-1.18184E-13
 -1       907 1.23683E-02 7.29287E-04-1.23566E-13
 -1       908 1.26536E-02 7.51841E-04-1.29000E-13
 -1       909 1.29391E-02 7.73936E-04-1.34476E-13
 -1       910 1.32248E-02 7.95662E-04-1.39990E-13
 -1       911 1.35104E-02 8.17097E-04-1.45532E-13
 -1       912 1.37961E-02 8.38318E-04-1.51099E-13
 -1       913 1.36608E-02 3.25723E-04-1.48949E-13
 -1       914 1.37008E-02 4.93653E-04-1.49604E-13
 -1       915 1.40149E-03 2.20437E-04-2.38363E-15
 -1       916 8.46286E-03 3.87368E-04-5.52247E-14
 -1       917 2.67769E-03 2.34720E-04-8.19470E-15
 -1       918 8.18586E-03 3.85208E-04-5.10873E-14
 -1       919 1.36807E-02 4.09710E-04-1.49278E-13
 -1       920 2.40358E-03 2.31542E-04-6.66190E-15
 -1       921 7.95298E-03 1.87814E-05-4.64321E-14
 -1       922 3.50503E-03 2.71641E-04-1.36969E-14
 -1       923 1.40827E-02 8.58151E-04-1.56707E-13
 -1       924 1.19058E-03-1.48738E-04-1.76117E-15
 -1       925 3.82953E-03-2.49528E-04-1.53329E-14
 -1       926 7.90378E-03 3.99905E-04-4.71793E-14
 -1       927 3.35265E-03 8.06337E-05-1.53112E-14
 -1       928 8.23096E-03 1.46679E-04-4.75370E-14
 -1       929 1.84975E-03 2.22083E-04-4.06142E-15
 -1       930 3.30615E-03 4.87518E-05-1.47492E-14
 -1       931 1.37413E-02 6.60993E-04-1.50239E-13
 -1       932 1.33884E-03 2.86804E-05-2.44616E-15
 -1       933 2.95078E-03 2.40197E-04-9.87882E-15
 -1       934 1.36415E-02 2.51487E-04-1.48617E-13
 -1       935 8.09950E-03 2.63024E-04-4.70406E-14
 -1       936 1.37210E-02 5.77227E-04-1.49923E-13
 -1       937 3.51602E-03 2.04484E-04-1.47146E-14
 -1       938 1.17384E-03-9.48709E-05-1.81636E-15
 -1       939 3.22509E-03 2.51034E-04-1.17125E-14
 -1       940 1.37710E-02 7.32532E-04-1.50743E-13
 -1       941 3.46430E-03-8.51821E-05-1.42585E-14
 -1       942 8.10253E-03 6.63355E-05-4.77825E-14
 -1       943 3.36155E-03-1.64762E-05-1.43564E-14
 -1       944 1.34673E-03 8.04103E-05-2.44866E-15
 -1       945 2.00572E-03-1.34435E-04-4.80804E-15
 -1       946 2.27704E-03-1.34169E-04-6.11453E-15
 -1       947 2.54596E-03-1.31798E-04-7.57393E-15
 -1       948 2.81272E-03-1.28504E-04-9.18542E-15
 -1       949 3.07886E-03-1.25904E-04-1.09476E-14
 -1       950 8.13040E-03 3.22563E-04-4.90567E-14
 -1       951 9.42624E-03 3.93761E-04-7.04657E-14
 -1       952 8.32404E-03 1.73253E-05-5.29072E-14
 -1       953 8.58735E-03 3.53158E-05-5.70676E-14
 -1       954 8.84983E-03 5.07515E-05-6.13384E-14
 -1       955 9.11378E-03 6.49463E-05-6.57166E-14
 -1       956 9.38020E-03 7.86260E-05-7.02019E-14
 -1       957 9.64944E-03 9.22354E-05-7.47951E-14
 -1       958 9.92149E-03 1.06084E-04-7.94935E-14
 -1       959 1.01961E-02 1.20389E-04-8.42864E-14
 -1       960 1.04731E-02 1.35294E-04-8.91778E-14
 -1       961 1.07520E-02 1.50873E-04-9.41520E-14
 -1       962 1.10326E-02 1.67148E-04-9.92071E-14
 -1       963 1.13145E-02 1.84099E-04-1.04340E-13
 -1       964 1.15974E-02 2.01680E-04-1.09540E-13
 -1       965 1.18812E-02 2.19826E-04-1.14803E-13
 -1       966 1.21655E-02 2.38464E-04-1.20134E-13
 -1       967 1.24503E-02 2.57520E-04-1.25530E-13
 -1       968 1.27355E-02 2.76923E-04-1.30980E-13
 -1       969 1.30208E-02 2.96605E-04-1.36476E-13
 -1       970 1.33064E-02 3.16509E-04-1.42015E-13
 -1       971 1.62646E-03 2.23800E-04-3.16856E-15
 -1       972 2.49158E-03 1.72454E-04-7.46014E-15
 -1       973 1.45818E-03-1.24291E-04-2.65778E-15
 -1       974 3.22249E-03 6.95085E-05-1.38083E-14
 -1       975 1.73243E-03-1.31485E-04-3.65551E-15
 -1       976 9.16328E-03 3.69363E-04-6.59501E-14
 -1       977 1.33797E-03-2.33292E-05-2.42073E-15
 -1       978 8.90495E-03 3.47051E-04-6.15457E-14
 -1       979 9.69346E-03 4.19491E-04-7.50934E-14
 -1       980 9.96443E-03 4.45911E-04-7.98233E-14
 -1       981 1.02386E-02 4.72507E-04-8.46452E-14
 -1       982 1.05154E-02 4.98902E-04-8.95551E-14
 -1       983 1.07944E-02 5.24845E-04-9.45513E-14
 -1       984 1.10750E-02 5.50191E-04-9.96308E-14
 -1       985 1.13571E-02 5.74882E-04-1.04783E-13
 -1       986 1.16402E-02 5.98916E-04-1.09998E-13
 -1       987 1.19240E-02 6.22334E-04-1.15277E-13
 -1       988 1.22085E-02 6.45197E-04-1.20623E-13
 -1       989 1.24934E-02 6.67578E-04-1.26026E-13
 -1       990 1.27785E-02 6.89555E-04-1.31477E-13
 -1       991 1.30639E-02 7.11199E-04-1.36968E-13
 -1       992 1.33495E-02 7.32580E-04-1.42496E-13
 -1       993 2.22561E-03 1.70484E-04-6.00379E-15
 -1       994 3.33092E-03 1.23427E-04-1.42749E-14
 -1       995 8.40151E-03 3.12703E-04-5.30620E-14
 -1       996 8.65127E-03 3.27710E-04-5.72490E-14
 -1       997 1.36282E-03 1.35145E-04-2.43173E-15
 -1       998 8.27778E-03 1.93296E-04-4.82864E-14
 -1       999 1.95561E-03 1.67004E-04-4.70122E-15
 -1      1000 3.34713E-03-1.26400E-04-1.28606E-14
 -1      1001 2.75281E-03 1.74443E-04-9.06844E-15
 -1      1002 1.57409E-03 5.89536E-05-3.28280E-15
 -1      1003 1.56835E-03 3.17082E-06-3.26218E-15
 -1      1004 1.34838E-02 6.01114E-04-1.45254E-13
 -1      1005 1.34636E-02 5.17715E-04-1.44937E-13
 -1      1006 8.23987E-03 1.06057E-04-4.91989E-14
 -1      1007 8.28293E-03 2.34779E-04-4.94021E-14
 -1      1008 1.34434E-02 4.33963E-04-1.44610E-13
 -1      1009 3.26158E-03 1.90223E-04-1.26660E-14
 -1      1010 1.34166E-02 6.66877E-04-1.43878E-13
 -1      1011 3.25801E-03-5.50826E-05-1.29716E-14
 -1      1012 1.31538E-03-1.09709E-04-2.21819E-15
 -1      1013 3.17147E-03 1.66809E-05-1.30655E-14
 -1      1014 9.56206E-03 3.48495E-04-7.26086E-14
 -1      1015 2.11513E-03-7.77886E-05-5.52351E-15
 -1      1016 2.37822E-03-7.48434E-05-6.91629E-15
 -1      1017 2.63616E-03-6.99667E-05-8.46079E-15
 -1      1018 2.88825E-03-6.36096E-05-1.01549E-14
 -1      1019 3.00916E-03 1.77937E-04-1.08263E-14
 -1      1020 8.53654E-03 9.10921E-05-5.52200E-14
 -1      1021 1.27886E-03-7.33356E-05-2.16804E-15
 -1      1022 8.78160E-03 1.03774E-04-5.94448E-14
 -1      1023 9.03250E-03 1.16995E-04-6.37758E-14
 -1      1024 9.28896E-03 1.30879E-04-6.82131E-14
 -1      1025 9.55047E-03 1.45389E-04-7.27559E-14
 -1      1026 9.81644E-03 1.60500E-04-7.74086E-14
 -1      1027 1.00863E-02 1.76202E-04-8.21581E-14
 -1      1028 1.03594E-02 1.92491E-04-8.70079E-14
 -1      1029 1.06354E-02 2.09355E-04-9.19445E-14
 -1      1030 1.09136E-02 2.26766E-04-9.69639E-14
 -1      1031 1.11938E-02 2.44688E-04-1.02062E-13
 -1      1032 1.14753E-02 2.63074E-04-1.07231E-13
 -1      1033 1.17581E-02 2.81871E-04-1.12466E-13
 -1      1034 1.20417E-02 3.01024E-04-1.17767E-13
 -1      1035 1.23260E-02 3.20479E-04-1.23132E-13
 -1      1036 1.26108E-02 3.40184E-04-1.28558E-13
 -1      1037 1.28959E-02 3.60094E-04-1.34031E-13
 -1      1038 1.31696E-02 3.96921E-04-1.39307E-13
 -1      1039 1.73696E-03 1.71575E-04-3.74373E-15
 -1      1040 1.58880E-03 1.15491E-04-3.27529E-15
 -1      1041 8.80779E-03 2.82336E-04-5.92647E-14
 -1      1042 8.40745E-03 1.75034E-04-5.10630E-14
 -1      1043 1.84805E-03-7.83838E-05-4.28360E-15
 -1      1044 9.30344E-03 3.25185E-04-6.80517E-14
 -1      1045 1.00950E-02 3.97012E-04-8.20375E-14
 -1      1046 1.03676E-02 4.21533E-04-8.68928E-14
 -1      1047 1.06432E-02 4.45891E-04-9.18378E-14
 -1      1048 1.09212E-02 4.69933E-04-9.68683E-14
 -1      1049 1.12013E-02 4.93570E-04-1.01974E-13
 -1      1050 1.14828E-02 5.16772E-04-1.07150E-13
 -1      1051 1.17655E-02 5.39541E-04-1.12388E-13
 -1      1052 1.20492E-02 5.61908E-04-1.17694E-13
 -1      1053 1.23335E-02 5.83916E-04-1.23060E-13
 -1      1054 1.26183E-02 6.05616E-04-1.28484E-13
 -1      1055 1.29034E-02 6.27058E-04-1.33955E-13
 -1      1056 1.31599E-02 6.47034E-04-1.38901E-13
 -1      1057 2.32499E-03 1.16308E-04-6.73821E-15
 -1      1058 8.29176E-03 8.91296E-05-5.07209E-14
 -1      1059 1.32264E-02 5.41483E-04-1.40295E-13
 -1      1060 8.57401E-03 2.63339E-04-5.50298E-14
 -1      1061 1.57842E-03-7.61477E-05-3.19666E-15
 -1      1062 9.05155E-03 3.03017E-04-6.36051E-14
 -1      1063 9.82624E-03 3.72562E-04-7.72758E-14
 -1      1064 3.04510E-03 4.95950E-05-1.20666E-14
 -1      1065 3.01431E-03-2.47865E-05-1.13808E-14
 -1      1066 2.58023E-03 1.18117E-04-8.26968E-15
 -1      1067 1.80045E-03 3.31659E-05-4.22228E-15
 -1      1068 3.12317E-03 1.02884E-04-1.25129E-14
 -1      1069 2.06330E-03 1.14137E-04-5.35864E-15
 -1      1070 8.49903E-03 2.15962E-04-5.30428E-14
 -1      1071 1.31980E-02 4.69200E-04-1.39805E-13
 -1      1072 1.76162E-03 1.00600E-04-3.99814E-15
 -1      1073 8.50460E-03 1.39674E-04-5.36564E-14
 -1      1074 2.82699E-03 1.20106E-04-9.95131E-15
 -1      1075 2.22877E-03-2.29521E-05-6.26314E-15
 -1      1076 2.48338E-03-1.88121E-05-7.73928E-15
 -1      1077 2.72935E-03-1.28462E-05-9.36665E-15
 -1      1078 2.83084E-03 1.87759E-05-1.02247E-14
 -1      1079 8.72995E-03 1.51593E-04-5.78400E-14
 -1      1080 8.96711E-03 1.64977E-04-6.21320E-14
 -1      1081 9.21395E-03 1.79873E-04-6.65318E-14
 -1      1082 9.46832E-03 1.95881E-04-7.10344E-14
 -1      1083 9.72886E-03 2.12769E-04-7.56454E-14
 -1      1084 9.99451E-03 2.30356E-04-8.03619E-14
 -1      1085 1.02644E-02 2.48504E-04-8.51752E-14
 -1      1086 1.05378E-02 2.67109E-04-9.00800E-14
 -1      1087 1.08141E-02 2.86087E-04-9.50722E-14
 -1      1088 1.10927E-02 3.05375E-04-1.00139E-13
 -1      1089 1.13731E-02 3.24918E-04-1.05283E-13
 -1      1090 1.16550E-02 3.44672E-04-1.10495E-13
 -1      1091 1.19379E-02 3.64600E-04-1.15770E-13
 -1      1092 1.22218E-02 3.84670E-04-1.21111E-13
 -1      1093 1.25062E-02 4.04855E-04-1.26515E-13
 -1      1094 1.27911E-02 4.25133E-04-1.31969E-13
 -1      1095 1.07676E-02 3.91990E-04-9.41175E-14
 -1      1096 8.93541E-03 2.42965E-04-6.12692E-14
 -1      1097 9.42843E-03 2.82310E-04-7.01426E-14
 -1      1098 1.04919E-02 3.69709E-04-8.91374E-14
 -1      1099 1.81836E-03-2.16450E-05-4.26497E-15
 -1      1100 1.02194E-02 3.47419E-04-8.42449E-14
 -1      1101 1.10457E-02 4.14160E-04-9.91780E-14
 -1      1102 1.13258E-02 4.36161E-04-1.04311E-13
 -1      1103 1.16074E-02 4.57965E-04-1.09511E-13
 -1      1104 1.18902E-02 4.79569E-04-1.14776E-13
 -1      1105 1.21739E-02 5.00983E-04-1.20108E-13
 -1      1106 1.24582E-02 5.22225E-04-1.25499E-13
 -1      1107 1.27430E-02 5.43325E-04-1.30944E-13
 -1      1108 9.17736E-03 2.62043E-04-6.56524E-14
 -1      1109 8.70521E-03 2.25350E-04-5.69903E-14
 -1      1110 8.62330E-03 1.85957E-04-5.54392E-14
 -1      1111 2.02497E-03-2.27816E-05-5.21798E-15
 -1      1112 1.29945E-02 4.47130E-04-1.35878E-13
 -1      1113 2.00585E-03 3.28094E-05-5.17420E-15
 -1      1114 1.29847E-02 5.42507E-04-1.35608E-13
 -1      1115 1.29896E-02 4.94828E-04-1.35744E-13
 -1      1116 2.81371E-03 6.80991E-05-1.01030E-14
 -1      1117 9.95068E-03 3.25274E-04-7.94436E-14
 -1      1118 2.43077E-03 6.59951E-05-7.48372E-15
 -1      1119 9.68667E-03 3.03484E-04-7.47421E-14
 -1      1120 2.59352E-03 1.29438E-05-8.52378E-15
 -1      1121 1.27480E-02 4.95867E-04-1.31081E-13
 -1      1122 2.34514E-03 8.42469E-06-6.97184E-15
 -1      1123 2.62606E-03 6.68061E-05-8.74687E-15
 -1      1124 0.00000E+00 0.00000E+00 0.00000E+00
 -1      1125 0.00000E+00 0.00000E+00 0.00000E+00
 -1      1126 0.00000E+00 0.00000E+00 0.00000E+00
 -1      1127 0.00000E+00 0.00000E+00 0.00000E+00
 -1      1128 0.00000E+00 0.00000E+00 0.00000E+00
 -1      1129 0.00000E+00 0.00000E+00 0.00000E+00
 -1      1130 0.00000E+00 0.00000E+00 0.00000E+00
 -1      1131 0.00000E+00 0.00000E+00 0.00000E+00
 -1      1132 0.00000E+00 0.00000E+00 0.00000E+00
 -1      1133 0.00000E+00 0.00000E+00 0.00000E+00
 -1      1134 0.00000E+00 0.00000E+00 0.00000E+00
 -1      1135 0.00000E+00 0.00000E+00 0.00000E+00
 -1      1136 0.00000E+00 0.00000E+00 0.00000E+00
 -1      1137 0.00000E+00 0.00000E+00 0.00000E+00
 -1      1138 0.00000E+00 0.00000E+00 0.00000E+00
 -1      1139 0.00000E+00 0.00000E+00 0.00000E+00
 -1      1140 0.00000E+00 0.00000E+00 0.00000E+00
 -1      1141 2.09924E-04-1.45244E-04 3.77980E-17
 -1      1142 5.49851E-04-3.25854E-04 1.55990E-17
 -1      1143 8.35353E-04-4.37756E-04-1.55271E-16
 -1      1144 1.11173E-03-5.09957E-04-5.00793E-16
 -1      1145 1.38725E-03-5.58169E-04-1.01681E-15
 -1      1146 1.66607E-03-5.90698E-04-1.70323E-15
 -1      1147 1.95091E-03-6.12933E-04-2.56094E-15
 -1      1148 2.24359E-03-6.29190E-04-3.58925E-15
 -1      1149 2.54534E-03-6.43529E-04-4.78831E-15
 -1      1150 2.85686E-03-6.60106E-04-6.15956E-15
 -1      1151 3.17806E-03-6.83298E-04-7.70074E-15
 -1      1152 3.50766E-03-7.17542E-04-9.40505E-15
 -1      1153 3.84274E-03-7.66742E-04-1.12702E-14
 -1      1154 4.17828E-03-8.33042E-04-1.32953E-14
 -1      1155 4.50737E-03-9.14977E-04-1.54794E-14
 -1      1156 4.82232E-03-1.00549E-03-1.78278E-14
 -1      1157 5.11723E-03-1.09115E-03-2.03447E-14
 -1      1158 5.39119E-03-1.15415E-03-2.30287E-14
 -1      1159 5.65030E-03-1.17784E-03-2.58860E-14
 -1      1160 5.90661E-03-1.15356E-03-2.89163E-14
 -1      1161 6.17343E-03-1.08474E-03-3.21163E-14
 -1      1162 6.46001E-03-9.85262E-04-3.54853E-14
 -1      1163 6.76861E-03-8.73362E-04-3.90182E-14
 -1      1164 7.09533E-03-7.65064E-04-4.27117E-14
 -1      1165 7.43311E-03-6.70559E-04-4.65591E-14
 -1      1166 7.77468E-03-5.93949E-04-5.05471E-14
 -1      1167 8.11435E-03-5.34924E-04-5.46604E-14
 -1      1168 8.44854E-03-4.90813E-04-5.88936E-14
 -1      1169 8.77551E-03-4.58156E-04-6.32532E-14
 -1      1170 9.09490E-03-4.33620E-04-6.77357E-14
 -1      1171 9.40715E-03-4.14414E-04-7.23313E-14
 -1      1172 9.71316E-03-3.98393E-04-7.70273E-14
 -1      1173 1.00139E-02-3.84009E-04-8.18204E-14
 -1      1174 1.03105E-02-3.70207E-04-8.67065E-14
 -1      1175 1.06038E-02-3.56308E-04-9.16822E-14
 -1      1176 1.08946E-02-3.41912E-04-9.67421E-14
 -1      1177 1.11836E-02-3.26810E-04-1.01877E-13
 -1      1178 1.14712E-02-3.10926E-04-1.07078E-13
 -1      1179 1.17579E-02-2.94265E-04-1.12343E-13
 -1      1180 1.20440E-02-2.76883E-04-1.17673E-13
 -1      1181 1.23298E-02-2.58861E-04-1.23081E-13
 -1      1182 1.26152E-02-2.40293E-04-1.28559E-13
 -1      1183 1.29006E-02-2.21273E-04-1.34106E-13
 -1      1184 1.31860E-02-2.01892E-04-1.39708E-13
 -1      1185 1.34714E-02-1.82233E-04-1.45355E-13
 -1      1186 1.37568E-02-1.62374E-04-1.51035E-13
 -1      1187 1.40423E-02-1.42385E-04-1.56732E-13
 -1      1188 1.43279E-02-1.22329E-04-1.62436E-13
 -1      1189 1.46136E-02-1.02263E-04-1.68156E-13
 -1      1190 1.48921E-02-8.27295E-05-1.73754E-13
 -1      1191 2.26351E-04 1.57342E-04 2.82299E-17
 -1      1192 5.51824E-04 3.30037E-04-3.89229E-17
 -1      1193 8.36165E-04 4.39210E-04-2.72419E-16
 -1      1194 1.11266E-03 5.10484E-04-6.91355E-16
 -1      1195 1.38852E-03 5.58035E-04-1.29305E-15
 -1      1196 1.66809E-03 5.89748E-04-2.07455E-15
 -1      1197 1.95428E-03 6.10888E-04-3.03295E-15
 -1      1198 2.24927E-03 6.25783E-04-4.16247E-15
 -1      1199 2.55489E-03 6.38628E-04-5.46365E-15
 -1      1200 2.87260E-03 6.53975E-04-6.93597E-15
 -1      1201 3.20328E-03 6.77040E-04-8.57787E-15
 -1      1202 3.54668E-03 7.13786E-04-1.03853E-14
 -1      1203 3.90059E-03 7.70493E-04-1.23544E-14
 -1      1204 4.25984E-03 8.52379E-04-1.44912E-14
 -1      1205 4.61573E-03 9.60847E-04-1.68045E-14
 -1      1206 4.95682E-03 1.08958E-03-1.92984E-14
 -1      1207 5.27234E-03 1.22139E-03-2.19744E-14
 -1      1208 5.55802E-03 1.32957E-03-2.48360E-14
 -1      1209 5.82116E-03 1.38657E-03-2.78881E-14
 -1      1210 6.07977E-03 1.37735E-03-3.11322E-14
 -1      1211 6.35440E-03 1.30790E-03-3.45660E-14
 -1      1212 6.65788E-03 1.20190E-03-3.81657E-14
 -1      1213 6.99091E-03 1.08818E-03-4.19178E-14
 -1      1214 7.34497E-03 9.88944E-04-4.58201E-14
 -1      1215 7.70847E-03 9.15363E-04-4.98586E-14
 -1      1216 8.07140E-03 8.69257E-04-5.40241E-14
 -1      1217 8.42724E-03 8.47103E-04-5.83167E-14
 -1      1218 8.77283E-03 8.43461E-04-6.27280E-14
 -1      1219 9.10740E-03 8.52961E-04-6.72504E-14
 -1      1220 9.43160E-03 8.71147E-04-7.18948E-14
 -1      1221 9.74676E-03 8.94660E-04-7.66444E-14
 -1      1222 1.00544E-02 9.21116E-04-8.14975E-14
 -1      1223 1.03561E-02 9.48907E-04-8.64464E-14
 -1      1224 1.06532E-02 9.76999E-04-9.14709E-14
 -1      1225 1.09467E-02 1.00477E-03-9.65714E-14
 -1      1226 1.12376E-02 1.03187E-03-1.01759E-13
 -1      1227 1.15266E-02 1.05814E-03-1.07026E-13
 -1      1228 1.18142E-02 1.08354E-03-1.12372E-13
 -1      1229 1.21009E-02 1.10811E-03-1.17774E-13
 -1      1230 1.23869E-02 1.13192E-03-1.23217E-13
 -1      1231 1.26726E-02 1.15507E-03-1.28692E-13
 -1      1232 1.29581E-02 1.17765E-03-1.34191E-13
 -1      1233 1.32435E-02 1.19978E-03-1.39710E-13
 -1      1234 1.35288E-02 1.22155E-03-1.45261E-13
 -1      1235 1.38142E-02 1.24303E-03-1.50817E-13
 -1      1236 1.40996E-02 1.26431E-03-1.56383E-13
 -1      1237 1.43851E-02 1.28546E-03-1.61969E-13
 -1      1238 1.46707E-02 1.30654E-03-1.67572E-13
 -1      1239 1.49564E-02 1.32761E-03-1.73178E-13
 -1      1240 1.52350E-02 1.34819E-03-1.78646E-13
 -1      1241 1.53603E-02 1.31609E-03-1.81177E-13
 -1      1242 1.53395E-02 1.23179E-03-1.80924E-13
 -1      1243 1.53186E-02 1.14746E-03-1.80681E-13
 -1      1244 1.52978E-02 1.06306E-03-1.80433E-13
 -1      1245 1.52770E-02 9.78597E-04-1.80173E-13
 -1      1246 1.52565E-02 8.94799E-04-1.79915E-13
 -1      1247 1.52361E-02 8.10960E-04-1.79674E-13
 -1      1248 1.52157E-02 7.26377E-04-1.79414E-13
 -1      1249 1.51954E-02 6.41782E-04-1.79129E-13
 -1      1250 1.51753E-02 5.57186E-04-1.78825E-13
 -1      1251 1.51552E-02 4.72605E-04-1.78509E-13
 -1      1252 1.51355E-02 3.88768E-04-1.78198E-13
 -1      1253 1.51159E-02 3.04972E-04-1.77895E-13
 -1      1254 1.50962E-02 2.20514E-04-1.77594E-13
 -1      1255 1.50766E-02 1.36118E-04-1.77288E-13
 -1      1256 1.50570E-02 5.17828E-05-1.76972E-13
 -1      1257 1.50375E-02-3.17966E-05-1.76651E-13
 -1      1258 8.01610E-03 2.20062E-04-3.61669E-14
 -1      1259 7.89987E-03 3.74742E-04-3.58224E-14
 -1      1260 7.68819E-03 5.23916E-04-3.51678E-14
 -1      1261 7.38532E-03 6.77796E-04-3.41937E-14
 -1      1262 7.00810E-03 8.24323E-04-3.29293E-14
 -1      1263 6.59492E-03 9.38910E-04-3.15072E-14
 -1      1264 6.14014E-03 1.00886E-03-2.99220E-14
 -1      1265 5.66673E-03 1.01771E-03-2.82838E-14
 -1      1266 5.21415E-03 9.61088E-04-2.67565E-14
 -1      1267 4.75451E-03 8.43461E-04-2.52734E-14
 -1      1268 4.33616E-03 6.89855E-04-2.40004E-14
 -1      1269 3.99286E-03 5.25456E-04-2.30137E-14
 -1      1270 3.74292E-03 3.65215E-04-2.23223E-14
 -1      1271 3.59356E-03 2.07901E-04-2.19022E-14
 -1      1272 3.55949E-03 5.30614E-05-2.17846E-14
 -1      1273 3.64431E-03-9.47347E-05-2.19698E-14
 -1      1274 3.83833E-03-2.46943E-04-2.24525E-14
 -1      1275 4.13432E-03-4.03299E-04-2.32396E-14
 -1      1276 4.50342E-03-5.50214E-04-2.42907E-14
 -1      1277 4.93138E-03-6.72934E-04-2.55941E-14
 -1      1278 5.38535E-03-7.48317E-04-2.70667E-14
 -1      1279 5.82736E-03-7.64186E-04-2.85749E-14
 -1      1280 6.26089E-03-7.24466E-04-3.00938E-14
 -1      1281 6.67237E-03-6.37365E-04-3.15434E-14
 -1      1282 7.05963E-03-5.15222E-04-3.28969E-14
 -1      1283 7.40631E-03-3.72948E-04-3.40871E-14
 -1      1284 7.69428E-03-2.22829E-04-3.50607E-14
 -1      1285 7.90121E-03-7.55888E-05-3.57481E-14
 -1      1286 8.01307E-03 6.72396E-05-3.61239E-14
 -1      1287 1.66731E-04-1.07309E-04 1.13164E-17
 -1      1288 1.13615E-04-5.35735E-05-2.47876E-17
 -1      1289 1.18489E-04-6.45537E-05-1.51246E-17
 -1      1290 1.09439E-04-3.94090E-05-4.10506E-17
 -1      1291 1.11366E-04-4.57694E-05-3.58329E-17
 -1      1292 2.28712E-04-1.00178E-04-8.39715E-17
 -1      1293 1.07493E-04-2.92620E-05-5.12286E-17
 -1      1294 1.08542E-04-3.40237E-05-4.81657E-17
 -1      1295 2.21073E-04-7.41125E-05-1.14410E-16
 -1      1296 1.06224E-04-2.12160E-05-5.79506E-17
 -1      1297 1.06909E-04-2.50681E-05-5.61210E-17
 -1      1298 2.16892E-04-5.47938E-05-1.34509E-16
 -1      1299 1.05336E-04-1.46003E-05-6.20435E-17
 -1      1300 1.05808E-04-1.77962E-05-6.10270E-17
 -1      1301 2.14123E-04-3.94145E-05-1.47573E-16
 -1      1302 1.04703E-04-8.78387E-06-6.49844E-17
 -1      1303 1.05021E-04-1.16257E-05-6.43474E-17
 -1      1304 2.12142E-04-2.64743E-05-1.56247E-16
 -1      1305 1.04349E-04-3.54169E-06-6.67597E-17
 -1      1306 1.04509E-04-6.14068E-06-6.64074E-17
 -1      1307 2.10806E-04-1.50788E-05-1.62115E-16
 -1      1308 1.04282E-04 1.44941E-06-6.77220E-17
 -1      1309 1.04283E-04-1.06609E-06-6.74645E-17
 -1      1310 2.10128E-04-4.65914E-06-1.65639E-16
 -1      1311 1.04507E-04 6.51189E-06-6.81286E-17
 -1      1312 1.04347E-04 3.92049E-06-6.80201E-17
 -1      1313 2.10122E-04 5.42572E-06-1.67387E-16
 -1      1314 1.05024E-04 1.19773E-05-6.75729E-17
 -1      1315 1.04703E-04 9.14476E-06-6.76949E-17
 -1      1316 2.10796E-04 1.58156E-05-1.67441E-16
 -1      1317 1.05821E-04 1.80844E-05-6.59195E-17
 -1      1318 1.05339E-04 1.48934E-05-6.64074E-17
 -1      1319 2.12135E-04 2.70720E-05-1.65219E-16
 -1      1320 1.06964E-04 2.54457E-05-6.27482E-17
 -1      1321 1.06263E-04 2.15696E-05-6.38460E-17
 -1      1322 2.14162E-04 3.99921E-05-1.60326E-16
 -1      1323 1.08606E-04 3.45282E-05-5.68935E-17
 -1      1324 1.07547E-04 2.97067E-05-5.91839E-17
 -1      1325 2.17029E-04 5.56037E-05-1.51395E-16
 -1      1326 1.11377E-04 4.64287E-05-4.65665E-17
 -1      1327 1.09473E-04 3.99977E-05-5.10388E-17
 -1      1328 2.21225E-04 7.51967E-05-1.35918E-16
 -1      1329 1.17820E-04 6.45569E-05-2.86094E-17
 -1      1330 1.13294E-04 5.43064E-05-3.74592E-17
 -1      1331 2.28759E-04 1.01826E-04-1.10467E-16
 -1      1332 1.57293E-04 1.07081E-04 8.94467E-19
 -1      1333 1.36354E-04 8.30495E-05-1.81604E-17
 -1      1334 2.58068E-04 1.45158E-04-7.91468E-17
 -1      1335 3.34991E-04 2.13683E-04-3.14690E-17
 -1      1336 4.22279E-04-2.52137E-04-1.91633E-17
 -1      1337 5.76724E-04-3.22295E-04-7.25873E-17
 -1      1338 7.25893E-04-3.77930E-04-1.70708E-16
 -1      1339 8.71680E-04-4.22257E-04-3.11017E-16
 -1      1340 6.17244E-04-3.13347E-04-1.76210E-16
 -1      1341 1.01502E-03-4.58398E-04-4.91875E-16
 -1      1342 1.15691E-03-4.87548E-04-7.15004E-16
 -1      1343 9.15686E-04-4.03846E-04-4.74271E-16
 -1      1344 1.29824E-03-5.11573E-04-9.79821E-16
 -1      1345 1.43958E-03-5.31035E-04-1.28741E-15
 -1      1346 1.20577E-03-4.63232E-04-9.36317E-16
 -1      1347 1.58146E-03-5.47026E-04-1.63674E-15
 -1      1348 1.72422E-03-5.60005E-04-2.02862E-15
 -1      1349 1.49328E-03-5.02424E-04-1.56446E-15
 -1      1350 1.86819E-03-5.70684E-04-2.46298E-15
 -1      1351 2.01359E-03-5.79529E-04-2.93976E-15
 -1      1352 1.78205E-03-5.28126E-04-2.36039E-15
 -1      1353 2.16064E-03-5.87105E-04-3.45877E-15
 -1      1354 2.30948E-03-5.93896E-04-4.02025E-15
 -1      1355 2.07458E-03-5.45247E-04-3.32419E-15
 -1      1356 2.46026E-03-6.00440E-04-4.62414E-15
 -1      1357 2.61303E-03-6.07240E-04-5.27037E-15
 -1      1358 2.37252E-03-5.58072E-04-4.45629E-15
 -1      1359 2.76786E-03-6.14871E-04-5.95956E-15
 -1      1360 2.92474E-03-6.23853E-04-6.69029E-15
 -1      1361 2.67688E-03-5.70820E-04-5.75637E-15
 -1      1362 3.08361E-03-6.34821E-04-7.46204E-15
 -1      1363 3.24433E-03-6.48278E-04-8.27620E-15
 -1      1364 2.98813E-03-5.87924E-04-7.22304E-15
 -1      1365 3.40672E-03-6.64894E-04-9.13004E-15
 -1      1366 3.57047E-03-6.85078E-04-1.00241E-14
 -1      1367 3.30600E-03-6.14076E-04-8.85372E-15
 -1      1368 3.73520E-03-7.09421E-04-1.09588E-14
 -1      1369 3.90041E-03-7.38104E-04-1.19328E-14
 -1      1370 3.62934E-03-6.53905E-04-1.06459E-14
 -1      1371 4.06554E-03-7.71404E-04-1.29471E-14
 -1      1372 4.22989E-03-8.09065E-04-1.40013E-14
 -1      1373 3.95591E-03-7.11090E-04-1.25988E-14
 -1      1374 4.39276E-03-8.50726E-04-1.50949E-14
 -1      1375 4.55343E-03-8.95466E-04-1.62293E-14
 -1      1376 4.28225E-03-7.86724E-04-1.47099E-14
 -1      1377 4.71120E-03-9.41986E-04-1.74051E-14
 -1      1378 4.86552E-03-9.88590E-04-1.86234E-14
 -1      1379 4.60401E-03-8.77074E-04-1.69821E-14
 -1      1380 5.01602E-03-1.03303E-03-1.98832E-14
 -1      1381 5.16261E-03-1.07307E-03-2.11842E-14
 -1      1382 4.91692E-03-9.71618E-04-1.94196E-14
 -1      1383 5.30550E-03-1.10604E-03-2.25281E-14
 -1      1384 5.44528E-03-1.12985E-03-2.39149E-14
 -1      1385 5.21842E-03-1.05316E-03-2.20261E-14
 -1      1386 5.58278E-03-1.14244E-03-2.53454E-14
 -1      1387 5.71920E-03-1.14273E-03-2.68191E-14
 -1      1388 5.50954E-03-1.10184E-03-2.48034E-14
 -1      1389 5.85571E-03-1.13027E-03-2.83359E-14
 -1      1390 5.99363E-03-1.10550E-03-2.98961E-14
 -1      1391 5.79545E-03-1.10261E-03-2.77541E-14
 -1      1392 6.13401E-03-1.06984E-03-3.14983E-14
 -1      1393 6.27776E-03-1.02504E-03-3.31425E-14
 -1      1394 6.08375E-03-1.05229E-03-3.08773E-14
 -1      1395 6.42538E-03-9.73626E-04-3.48285E-14
 -1      1396 6.57710E-03-9.17914E-04-3.65569E-14
 -1      1397 6.38110E-03-9.61254E-04-3.41711E-14
 -1      1398 6.73279E-03-8.60447E-04-3.83275E-14
 -1      1399 6.89208E-03-8.03243E-04-4.01365E-14
 -1      1400 6.69051E-03-8.48295E-04-3.76332E-14
 -1      1401 7.05442E-03-7.48066E-04-4.19859E-14
 -1      1402 7.21913E-03-6.96230E-04-4.38727E-14
 -1      1403 7.01093E-03-7.32683E-04-4.12580E-14
 -1      1404 7.38551E-03-6.48516E-04-4.57954E-14
 -1      1405 7.55286E-03-6.05502E-04-4.77572E-14
 -1      1406 7.33873E-03-6.28337E-04-4.50350E-14
 -1      1407 7.72055E-03-5.67193E-04-4.97514E-14
 -1      1408 7.88802E-03-5.33646E-04-5.17771E-14
 -1      1409 7.66955E-03-5.42150E-04-4.89557E-14
 -1      1410 8.05482E-03-5.04432E-04-5.38351E-14
 -1      1411 8.22059E-03-4.79313E-04-5.59226E-14
 -1      1412 7.99961E-03-4.75304E-04-5.30093E-14
 -1      1413 8.38507E-03-4.57716E-04-5.80415E-14
 -1      1414 8.54807E-03-4.39280E-04-6.01917E-14
 -1      1415 8.32623E-03-4.25585E-04-5.71890E-14
 -1      1416 8.70950E-03-4.23462E-04-6.23716E-14
 -1      1417 8.86931E-03-4.09888E-04-6.45823E-14
 -1      1418 8.64785E-03-3.89379E-04-6.14903E-14
 -1      1419 9.02750E-03-3.98117E-04-6.68221E-14
 -1      1420 9.18410E-03-3.87814E-04-6.90904E-14
 -1      1421 8.96388E-03-3.62941E-04-6.59096E-14
 -1      1422 9.33920E-03-3.78657E-04-7.13873E-14
 -1      1423 9.49287E-03-3.70372E-04-7.37099E-14
 -1      1424 9.27436E-03-3.43023E-04-7.04444E-14
 -1      1425 9.64522E-03-3.62740E-04-7.60587E-14
 -1      1426 9.79635E-03-3.55552E-04-7.84292E-14
 -1      1427 9.57974E-03-3.27076E-04-7.50886E-14
 -1      1428 9.94637E-03-3.48670E-04-8.08230E-14
 -1      1429 1.00954E-02-3.41939E-04-8.32438E-14
 -1      1430 9.88066E-03-3.13236E-04-7.98300E-14
 -1      1431 1.02435E-02-3.35283E-04-8.56868E-14
 -1      1432 1.03908E-02-3.28593E-04-8.81510E-14
 -1      1433 1.01779E-02-3.00222E-04-8.46674E-14
 -1      1434 1.05374E-02-3.21833E-04-9.06387E-14
 -1      1435 1.06834E-02-3.14929E-04-9.31465E-14
 -1      1436 1.04720E-02-2.87203E-04-8.95955E-14
 -1      1437 1.08289E-02-3.07872E-04-9.56750E-14
 -1      1438 1.09738E-02-3.00617E-04-9.82225E-14
 -1      1439 1.07638E-02-2.73678E-04-9.46097E-14
 -1      1440 1.11184E-02-2.93169E-04-1.00789E-13
 -1      1441 1.12627E-02-2.85503E-04-1.03373E-13
 -1      1442 1.10537E-02-2.59385E-04-9.97031E-14
 -1      1443 1.14066E-02-2.77634E-04-1.05972E-13
 -1      1444 1.15503E-02-2.69550E-04-1.08590E-13
 -1      1445 1.13422E-02-2.44215E-04-1.04868E-13
 -1      1446 1.16938E-02-2.61269E-04-1.11222E-13
 -1      1447 1.18371E-02-2.52789E-04-1.13868E-13
 -1      1448 1.16297E-02-2.28164E-04-1.10100E-13
 -1      1449 1.19802E-02-2.44131E-04-1.16535E-13
 -1      1450 1.21233E-02-2.35296E-04-1.19221E-13
 -1      1451 1.19165E-02-2.11288E-04-1.15397E-13
 -1      1452 1.22663E-02-2.26305E-04-1.21922E-13
 -1      1453 1.24092E-02-2.17163E-04-1.24641E-13
 -1      1454 1.22028E-02-1.93676E-04-1.20765E-13
 -1      1455 1.25520E-02-2.07890E-04-1.27380E-13
 -1      1456 1.26948E-02-1.98492E-04-1.30134E-13
 -1      1457 1.24887E-02-1.75430E-04-1.26201E-13
 -1      1458 1.28376E-02-1.88987E-04-1.32904E-13
 -1      1459 1.29803E-02-1.79381E-04-1.35688E-13
 -1      1460 1.27745E-02-1.56657E-04-1.31705E-13
 -1      1461 1.31231E-02-1.69691E-04-1.38486E-13
 -1      1462 1.32658E-02-1.59923E-04-1.41293E-13
 -1      1463 1.30601E-02-1.37458E-04-1.37266E-13
 -1      1464 1.34085E-02-1.50091E-04-1.44113E-13
 -1      1465 1.35513E-02-1.40203E-04-1.46943E-13
 -1      1466 1.33457E-02-1.17928E-04-1.42877E-13
 -1      1467 1.36940E-02-1.30269E-04-1.49780E-13
 -1      1468 1.38368E-02-1.20298E-04-1.52619E-13
 -1      1469 1.36312E-02-9.81512E-05-1.48527E-13
 -1      1470 1.39796E-02-1.10298E-04-1.55464E-13
 -1      1471 1.41224E-02-1.00277E-04-1.58315E-13
 -1      1472 1.39168E-02-7.82048E-05-1.54203E-13
 -1      1473 1.42652E-02-9.02433E-05-1.61167E-13
 -1      1474 1.44080E-02-8.02044E-05-1.64018E-13
 -1      1475 1.42024E-02-5.81585E-05-1.59896E-13
 -1      1476 1.45508E-02-7.01669E-05-1.66877E-13
 -1      1477 1.46937E-02-6.01372E-05-1.69742E-13
 -1      1478 1.44881E-02-3.80754E-05-1.65601E-13
 -1      1479 1.49018E-02-4.12998E-05-1.73919E-13
 -1      1480 1.48390E-02-9.18799E-06-1.72633E-13
 -1      1481 6.45423E-04 3.55044E-04-1.78080E-16
 -1      1482 4.93743E-04 2.91769E-04-8.08679E-17
 -1      1483 4.47434E-04 2.54072E-04-1.16213E-16
 -1      1484 9.36255E-04 4.44750E-04-5.09873E-16
 -1      1485 7.92412E-04 4.04392E-04-3.21330E-16
 -1      1486 7.51293E-04 3.68524E-04-3.61310E-16
 -1      1487 1.21944E-03 5.03966E-04-1.02156E-15
 -1      1488 1.07823E-03 4.77357E-04-7.43153E-16
 -1      1489 1.04378E-03 4.43411E-04-7.86331E-16
 -1      1490 1.50188E-03 5.43254E-04-1.71247E-15
 -1      1491 1.36039E-03 5.25670E-04-1.34465E-15
 -1      1492 1.33109E-03 4.92765E-04-1.38839E-15
 -1      1493 1.78771E-03 5.68996E-04-2.57980E-15
 -1      1494 1.64414E-03 5.57505E-04-2.12410E-15
 -1      1495 1.61830E-03 5.24960E-04-2.16610E-15
 -1      1496 2.07968E-03 5.85939E-04-3.62026E-15
 -1      1497 1.93277E-03 5.78284E-04-3.07859E-15
 -1      1498 1.90886E-03 5.45577E-04-3.11727E-15
 -1      1499 2.37984E-03 5.98318E-04-4.83131E-15
 -1      1500 2.22862E-03 5.92410E-04-4.20464E-15
 -1      1501 2.20517E-03 5.59114E-04-4.23946E-15
 -1      1502 2.68974E-03 6.10477E-04-6.21270E-15
 -1      1503 2.53348E-03 6.04111E-04-5.50056E-15
 -1      1504 2.50899E-03 5.69846E-04-5.53080E-15
 -1      1505 3.01049E-03 6.27293E-04-7.76191E-15
 -1      1506 2.84870E-03 6.17958E-04-6.96665E-15
 -1      1507 2.82162E-03 5.82361E-04-6.99005E-15
 -1      1508 3.34239E-03 6.54426E-04-9.47819E-15
 -1      1509 3.17504E-03 6.39207E-04-8.59966E-15
 -1      1510 3.14382E-03 6.01943E-04-8.61493E-15
 -1      1511 3.68450E-03 6.98256E-04-1.13574E-14
 -1      1512 3.51226E-03 6.73923E-04-1.03971E-14
 -1      1513 3.47554E-03 6.34731E-04-1.04037E-14
 -1      1514 4.03392E-03 7.65113E-04-1.33997E-14
 -1      1515 3.85855E-03 7.28615E-04-1.23580E-14
 -1      1516 3.81553E-03 6.87412E-04-1.23545E-14
 -1      1517 4.38526E-03 8.59315E-04-1.56137E-14
 -1      1518 4.20979E-03 8.08924E-04-1.44847E-14
 -1      1519 4.16082E-03 7.65988E-04-1.44718E-14
 -1      1520 4.73068E-03 9.79675E-04-1.80025E-14
 -1      1521 4.55931E-03 9.16892E-04-1.67857E-14
 -1      1522 4.50644E-03 8.73083E-04-1.67604E-14
 -1      1523 5.06144E-03 1.11526E-03-2.05733E-14
 -1      1524 4.89847E-03 1.04689E-03-1.92647E-14
 -1      1525 4.84577E-03 1.00378E-03-1.92253E-14
 -1      1526 5.37127E-03 1.24337E-03-2.33266E-14
 -1      1527 5.21920E-03 1.18204E-03-2.19271E-14
 -1      1528 5.17218E-03 1.14165E-03-2.18722E-14
 -1      1529 5.66066E-03 1.33404E-03-2.62693E-14
 -1      1530 5.51813E-03 1.29499E-03-2.47739E-14
 -1      1531 5.48225E-03 1.25892E-03-2.47052E-14
 -1      1532 5.93897E-03 1.36237E-03-2.94032E-14
 -1      1533 5.80026E-03 1.35657E-03-2.78123E-14
 -1      1534 5.77903E-03 1.32494E-03-2.77287E-14
 -1      1535 6.22110E-03 1.32208E-03-3.27275E-14
 -1      1536 6.07851E-03 1.34996E-03-3.10414E-14
 -1      1537 6.07228E-03 1.32110E-03-3.09442E-14
 -1      1538 6.52027E-03 1.22923E-03-3.62322E-14
 -1      1539 6.36794E-03 1.28039E-03-3.44580E-14
 -1      1540 6.37384E-03 1.25181E-03-3.43455E-14
 -1      1541 6.84188E-03 1.11313E-03-3.98981E-14
 -1      1542 6.67826E-03 1.17220E-03-3.80462E-14
 -1      1543 6.69131E-03 1.14197E-03-3.79202E-14
 -1      1544 7.18299E-03 1.00166E-03-4.37132E-14
 -1      1545 7.01043E-03 1.05554E-03-4.17875E-14
 -1      1546 7.02512E-03 1.02295E-03-4.16521E-14
 -1      1547 7.53575E-03 9.12427E-04-4.76732E-14
 -1      1548 7.35849E-03 9.53763E-04-4.56769E-14
 -1      1549 7.37032E-03 9.19053E-04-4.55297E-14
 -1      1550 7.89168E-03 8.51666E-04-5.17653E-14
 -1      1551 7.71383E-03 8.78539E-04-4.97031E-14
 -1      1552 7.72013E-03 8.42406E-04-4.95432E-14
 -1      1553 8.24412E-03 8.17855E-04-5.59810E-14
 -1      1554 8.06868E-03 8.31707E-04-5.38571E-14
 -1      1555 8.06854E-03 7.94886E-04-5.36859E-14
 -1      1556 8.58906E-03 8.05912E-04-6.03238E-14
 -1      1557 8.41771E-03 8.09530E-04-5.81371E-14
 -1      1558 8.41149E-03 7.72601E-04-5.79545E-14
 -1      1559 8.92475E-03 8.10019E-04-6.47791E-14
 -1      1560 8.75812E-03 8.06302E-04-6.25382E-14
 -1      1561 8.74680E-03 7.69652E-04-6.23432E-14
 -1      1562 9.25103E-03 8.25033E-04-6.93517E-14
 -1      1563 9.08904E-03 8.16434E-04-6.70500E-14
 -1      1564 9.07382E-03 7.80278E-04-6.68458E-14
 -1      1565 9.56868E-03 8.46935E-04-7.40358E-14
 -1      1566 9.41087E-03 8.35323E-04-7.16798E-14
 -1      1567 9.39283E-03 7.99748E-04-7.14626E-14
 -1      1568 9.87886E-03 8.72812E-04-7.88251E-14
 -1      1569 9.72462E-03 8.59516E-04-7.64180E-14
 -1      1570 9.70468E-03 8.24528E-04-7.61871E-14
 -1      1571 1.01829E-02 9.00664E-04-8.37134E-14
 -1      1572 1.00316E-02 8.86584E-04-8.12568E-14
 -1      1573 1.00104E-02 8.52140E-04-8.10144E-14
 -1      1574 1.04820E-02 9.29184E-04-8.86907E-14
 -1      1575 1.03330E-02 9.14899E-04-8.61916E-14
 -1      1576 1.03111E-02 8.80934E-04-8.59354E-14
 -1      1577 1.07772E-02 9.57564E-04-9.37411E-14
 -1      1578 1.06300E-02 9.43427E-04-9.12057E-14
 -1      1579 1.06078E-02 9.09866E-04-9.09384E-14
 -1      1580 1.10695E-02 9.85339E-04-9.88795E-14
 -1      1581 1.09237E-02 9.71546E-04-9.63000E-14
 -1      1582 1.09014E-02 9.38318E-04-9.60233E-14
 -1      1583 1.13596E-02 1.01228E-03-1.04094E-13
 -1      1584 1.12148E-02 9.98922E-04-1.01478E-13
 -1      1585 1.11926E-02 9.65960E-04-1.01191E-13
 -1      1586 1.16482E-02 1.03830E-03-1.09388E-13
 -1      1587 1.15041E-02 1.02541E-03-1.06731E-13
 -1      1588 1.14820E-02 9.92654E-04-1.06434E-13
 -1      1589 1.19356E-02 1.06342E-03-1.14748E-13
 -1      1590 1.17920E-02 1.05097E-03-1.12061E-13
 -1      1591 1.17701E-02 1.01838E-03-1.11749E-13
 -1      1592 1.22222E-02 1.08770E-03-1.20159E-13
 -1      1593 1.20790E-02 1.07566E-03-1.17448E-13
 -1      1594 1.20572E-02 1.04319E-03-1.17120E-13
 -1      1595 1.25083E-02 1.11125E-03-1.25610E-13
 -1      1596 1.23653E-02 1.09956E-03-1.22881E-13
 -1      1597 1.23437E-02 1.06718E-03-1.22543E-13
 -1      1598 1.27940E-02 1.13415E-03-1.31094E-13
 -1      1599 1.26512E-02 1.12277E-03-1.28347E-13
 -1      1600 1.26298E-02 1.09046E-03-1.28004E-13
 -1      1601 1.30796E-02 1.15653E-03-1.36598E-13
 -1      1602 1.29368E-02 1.14540E-03-1.33844E-13
 -1      1603 1.29156E-02 1.11313E-03-1.33495E-13
 -1      1604 1.33651E-02 1.17849E-03-1.42131E-13
 -1      1605 1.32223E-02 1.16756E-03-1.39360E-13
 -1      1606 1.32012E-02 1.13532E-03-1.39012E-13
 -1      1607 1.36505E-02 1.20011E-03-1.47683E-13
 -1      1608 1.35078E-02 1.18934E-03-1.44905E-13
 -1      1609 1.34868E-02 1.15712E-03-1.44550E-13
 -1      1610 1.39360E-02 1.22149E-03-1.53243E-13
 -1      1611 1.37933E-02 1.21083E-03-1.50463E-13
 -1      1612 1.37723E-02 1.17862E-03-1.50106E-13
 -1      1613 1.42215E-02 1.24269E-03-1.58821E-13
 -1      1614 1.40788E-02 1.23211E-03-1.56028E-13
 -1      1615 1.40578E-02 1.19990E-03-1.55673E-13
 -1      1616 1.45071E-02 1.26380E-03-1.64412E-13
 -1      1617 1.43643E-02 1.25325E-03-1.61614E-13
 -1      1618 1.43434E-02 1.22105E-03-1.61258E-13
 -1      1619 1.47927E-02 1.28486E-03-1.70019E-13
 -1      1620 1.46499E-02 1.27433E-03-1.67214E-13
 -1      1621 1.46290E-02 1.24212E-03-1.66859E-13
 -1      1622 1.50784E-02 1.30594E-03-1.75626E-13
 -1      1623 1.49356E-02 1.29540E-03-1.72823E-13
 -1      1624 1.49147E-02 1.26318E-03-1.72467E-13
 -1      1625 1.52246E-02 1.30605E-03-1.78515E-13
 -1      1626 1.52106E-02 1.20155E-03-1.78433E-13
 -1      1627 1.52210E-02 1.24371E-03-1.78557E-13
 -1      1628 1.51897E-02 1.11721E-03-1.78181E-13
 -1      1629 1.52001E-02 1.15939E-03-1.78308E-13
 -1      1630 1.50816E-02 1.17133E-03-1.75937E-13
 -1      1631 1.51689E-02 1.03281E-03-1.77930E-13
 -1      1632 1.51793E-02 1.07501E-03-1.78055E-13
 -1      1633 1.50608E-02 1.08698E-03-1.75682E-13
 -1      1634 1.51481E-02 9.48369E-04-1.77668E-13
 -1      1635 1.51585E-02 9.90595E-04-1.77803E-13
 -1      1636 1.50400E-02 1.00259E-03-1.75426E-13
 -1      1637 1.51278E-02 8.65319E-04-1.77416E-13
 -1      1638 1.51380E-02 9.06848E-04-1.77540E-13
 -1      1639 1.50194E-02 9.18890E-04-1.75168E-13
 -1      1640 1.51073E-02 7.80808E-04-1.77159E-13
 -1      1641 1.51175E-02 8.23067E-04-1.77288E-13
 -1      1642 1.49989E-02 8.35158E-04-1.74908E-13
 -1      1643 1.50869E-02 6.96279E-04-1.76884E-13
 -1      1644 1.50970E-02 7.38545E-04-1.77022E-13
 -1      1645 1.49784E-02 7.50691E-04-1.74637E-13
 -1      1646 1.50666E-02 6.11741E-04-1.76593E-13
 -1      1647 1.50767E-02 6.54010E-04-1.76743E-13
 -1      1648 1.49580E-02 6.66211E-04-1.74353E-13
 -1      1649 1.50465E-02 5.27207E-04-1.76287E-13
 -1      1650 1.50565E-02 5.69473E-04-1.76442E-13
 -1      1651 1.49378E-02 5.81728E-04-1.74060E-13
 -1      1652 1.50265E-02 4.42687E-04-1.75974E-13
 -1      1653 1.50365E-02 4.84944E-04-1.76132E-13
 -1      1654 1.49177E-02 4.97250E-04-1.73753E-13
 -1      1655 1.50070E-02 3.59623E-04-1.75666E-13
 -1      1656 1.50167E-02 4.01151E-04-1.75819E-13
 -1      1657 1.48980E-02 4.13499E-04-1.73442E-13
 -1      1658 1.49873E-02 2.75162E-04-1.75354E-13
 -1      1659 1.49971E-02 3.17387E-04-1.75510E-13
 -1      1660 1.48783E-02 3.29768E-04-1.73128E-13
 -1      1661 1.49676E-02 1.90744E-04-1.75044E-13
 -1      1662 1.49774E-02 2.32947E-04-1.75201E-13
 -1      1663 1.48586E-02 2.45350E-04-1.72812E-13
 -1      1664 1.49480E-02 1.06374E-04-1.74730E-13
 -1      1665 1.49578E-02 1.48553E-04-1.74888E-13
 -1      1666 1.48390E-02 1.60965E-04-1.72495E-13
 -1      1667 1.48886E-02 2.75072E-05-1.73603E-13
 -1      1668 1.48984E-02 6.96663E-05-1.73765E-13
 -1      1669 1.47796E-02 8.20714E-05-1.71369E-13
 -1      1670 1.46805E-02 8.66008E-06-1.69433E-13
 -1      1671 8.00929E-03 2.15325E-04-3.70530E-14
 -1      1672 8.04534E-03 1.68789E-04-3.71349E-14
 -1      1673 7.83980E-03 3.38559E-04-3.63903E-14
 -1      1674 7.93037E-03 2.84535E-04-3.66419E-14
 -1      1675 7.56676E-03 4.74724E-04-3.56289E-14
 -1      1676 7.70398E-03 4.06099E-04-3.60430E-14
 -1      1677 7.21144E-03 6.47362E-04-3.44582E-14
 -1      1678 7.38405E-03 5.64363E-04-3.50368E-14
 -1      1679 6.81733E-03 8.30969E-04-3.29688E-14
 -1      1680 7.00487E-03 7.48538E-04-3.36674E-14
 -1      1681 6.41986E-03 9.76014E-04-3.14159E-14
 -1      1682 6.59711E-03 9.14776E-04-3.21463E-14
 -1      1683 6.00056E-03 1.06478E-03-2.96159E-14
 -1      1684 6.19623E-03 1.03392E-03-3.04763E-14
 -1      1685 5.59697E-03 1.05160E-03-2.78679E-14
 -1      1686 5.77905E-03 1.06802E-03-2.86416E-14
 -1      1687 5.19680E-03 9.52427E-04-2.62330E-14
 -1      1688 5.38353E-03 1.00950E-03-2.69704E-14
 -1      1689 4.77104E-03 7.68819E-04-2.46040E-14
 -1      1690 4.97621E-03 8.61736E-04-2.53170E-14
 -1      1691 4.35259E-03 5.71649E-04-2.33391E-14
 -1      1692 4.53311E-03 6.60251E-04-2.38727E-14
 -1      1693 3.97916E-03 3.94099E-04-2.23734E-14
 -1      1694 4.14151E-03 4.74684E-04-2.27945E-14
 -1      1695 3.71351E-03 2.63429E-04-2.17808E-14
 -1      1696 3.81795E-03 3.21620E-04-2.20359E-14
 -1      1697 3.55920E-03 1.39873E-04-2.13142E-14
 -1      1698 3.61592E-03 1.89939E-04-2.14527E-14
 -1      1699 3.55482E-03 4.22368E-05-2.13596E-14
 -1      1700 3.53904E-03 8.69042E-05-2.13410E-14
 -1      1701 3.69019E-03-6.36576E-05-2.15961E-14
 -1      1702 3.61060E-03-1.17492E-05-2.14339E-14
 -1      1703 3.94314E-03-2.02617E-04-2.21999E-14
 -1      1704 3.81252E-03-1.36479E-04-2.18978E-14
 -1      1705 4.30980E-03-3.60575E-04-2.30245E-14
 -1      1706 4.13457E-03-2.77518E-04-2.25642E-14
 -1      1707 4.69456E-03-5.45237E-04-2.42357E-14
 -1      1708 4.51347E-03-4.65118E-04-2.36800E-14
 -1      1709 5.11780E-03-7.07448E-04-2.57306E-14
 -1      1710 4.91403E-03-6.37182E-04-2.50058E-14
 -1      1711 5.51954E-03-7.97406E-04-2.72992E-14
 -1      1712 5.34123E-03-7.66425E-04-2.65786E-14
 -1      1713 5.90684E-03-8.05149E-04-2.89481E-14
 -1      1714 5.72909E-03-8.13044E-04-2.81744E-14
 -1      1715 6.28758E-03-7.29790E-04-3.05778E-14
 -1      1716 6.11435E-03-7.72691E-04-2.98390E-14
 -1      1717 6.66863E-03-5.95586E-04-3.21436E-14
 -1      1718 6.49197E-03-6.63919E-04-3.14310E-14
 -1      1719 7.04859E-03-4.29096E-04-3.35934E-14
 -1      1720 6.87412E-03-5.08557E-04-3.29453E-14
 -1      1721 7.40736E-03-2.59421E-04-3.48580E-14
 -1      1722 7.24566E-03-3.36951E-04-3.43038E-14
 -1      1723 7.71288E-03-1.03259E-04-3.59176E-14
 -1      1724 7.57827E-03-1.69879E-04-3.54842E-14
 -1      1725 7.93333E-03 1.43621E-05-3.65613E-14
 -1      1726 7.84528E-03-3.80342E-05-3.62902E-14
 -1      1727 8.04008E-03 1.15231E-04-3.69011E-14
 -1      1728 8.00570E-03 7.07105E-05-3.67875E-14
 -1      1729 7.04921E-03 6.61830E-04-3.45281E-14
 -1      1730 7.43033E-03 4.68104E-04-3.59339E-14
 -1      1731 1.52037E-02 1.27382E-03-1.78161E-13
 -1      1732 1.50748E-02 1.24361E-03-1.75668E-13
 -1      1733 7.97418E-03 2.14652E-04-3.76601E-14
 -1      1734 7.75142E-03 3.23355E-04-3.68927E-14
 -1      1735 8.05325E-03 1.47847E-04-3.78390E-14
 -1      1736 6.64934E-03 8.61272E-04-3.28943E-14
 -1      1737 6.26090E-03 1.02109E-03-3.11139E-14
 -1      1738 5.89183E-03 1.09337E-03-2.91892E-14
 -1      1739 5.52043E-03 1.05053E-03-2.73183E-14
 -1      1740 5.13952E-03 9.02524E-04-2.55157E-14
 -1      1741 4.72616E-03 6.82823E-04-2.38941E-14
 -1      1742 4.29905E-03 4.67603E-04-2.26460E-14
 -1      1743 3.92982E-03 3.04269E-04-2.17887E-14
 -1      1744 3.66454E-03 1.82664E-04-2.11384E-14
 -1      1745 3.53986E-03 1.06508E-04-2.08491E-14
 -1      1746 3.57781E-03 3.66961E-05-2.09497E-14
 -1      1747 3.76351E-03-5.40002E-05-2.13135E-14
 -1      1748 4.07996E-03-1.88075E-04-2.19614E-14
 -1      1749 4.46625E-03-3.69221E-04-2.29506E-14
 -1      1750 4.86779E-03-5.77766E-04-2.43519E-14
 -1      1751 5.26682E-03-7.45935E-04-2.59519E-14
 -1      1752 5.63775E-03-8.30527E-04-2.76643E-14
 -1      1753 5.98338E-03-8.12021E-04-2.94285E-14
 -1      1754 6.33873E-03-7.01836E-04-3.11798E-14
 -1      1755 6.70775E-03-5.32257E-04-3.28488E-14
 -1      1756 7.08828E-03-3.40269E-04-3.43791E-14
 -1      1757 7.45189E-03-1.58535E-04-3.57362E-14
 -1      1758 7.76030E-03-1.98184E-05-3.67565E-14
 -1      1759 7.97145E-03 7.43412E-05-3.73713E-14
 -1      1760 2.86598E-04-1.69535E-04-2.84196E-17
 -1      1761 3.34888E-04-1.04208E-04-1.86401E-16
 -1      1762 3.39656E-04-1.20696E-04-1.68363E-16
 -1      1763 3.45955E-04-1.40141E-04-1.47546E-16
 -1      1764 3.55546E-04-1.62784E-04-1.20075E-16
 -1      1765 4.63313E-04-1.71736E-04-2.43525E-16
 -1      1766 3.23693E-04-5.45624E-05-2.29905E-16
 -1      1767 3.25753E-04-6.50157E-05-2.22017E-16
 -1      1768 3.20483E-04-3.55616E-05-2.41709E-16
 -1      1769 3.21946E-04-4.46867E-05-2.36166E-16
 -1      1770 4.34242E-04-6.59483E-05-3.45196E-16
 -1      1771 3.18450E-04-1.87692E-05-2.49434E-16
 -1      1772 3.19330E-04-2.69338E-05-2.45911E-16
 -1      1773 4.29896E-04-4.15498E-05-3.60131E-16
 -1      1774 3.17567E-04-3.17960E-06-2.54042E-16
 -1      1775 3.17866E-04-1.08670E-05-2.52077E-16
 -1      1776 4.27289E-04-1.96709E-05-3.70052E-16
 -1      1777 3.17854E-04 1.21523E-05-2.56075E-16
 -1      1778 3.17562E-04 4.47577E-06-2.55330E-16
 -1      1779 4.26406E-04 9.61681E-07-3.75784E-16
 -1      1780 3.19323E-04 2.81757E-05-2.55181E-16
 -1      1781 3.18436E-04 2.00353E-05-2.55912E-16
 -1      1782 4.27274E-04 2.15688E-05-3.77479E-16
 -1      1783 3.21936E-04 4.55727E-05-2.50979E-16
 -1      1784 3.20474E-04 3.66319E-05-2.53595E-16
 -1      1785 4.29882E-04 4.31989E-05-3.75066E-16
 -1      1786 3.25873E-04 6.60718E-05-2.42766E-16
 -1      1787 3.23715E-04 5.54315E-05-2.47781E-16
 -1      1788 4.34275E-04 6.73288E-05-3.68249E-16
 -1      1789 3.31474E-04 9.09006E-05-2.27547E-16
 -1      1790 3.28402E-04 7.79020E-05-2.36343E-16
 -1      1791 4.40724E-04 9.57475E-05-3.54724E-16
 -1      1792 3.40001E-04 1.22518E-04-2.01973E-16
 -1      1793 3.35175E-04 1.05791E-04-2.16596E-16
 -1      1794 4.49920E-04 1.30380E-04-3.30966E-16
 -1      1795 3.56161E-04 1.66087E-04-1.60232E-16
 -1      1796 3.46647E-04 1.42604E-04-1.83894E-16
 -1      1797 4.64407E-04 1.74715E-04-2.92450E-16
 -1      1798 4.11038E-04 2.22067E-04-1.33791E-16
 -1      1799 3.81924E-04 1.90994E-04-1.52330E-16
 -1      1800 5.01558E-04 2.27546E-04-2.59070E-16
 -1      1801 5.63724E-04 2.85719E-04-2.34581E-16
 -1      1802 3.43071E-04-1.81344E-04-7.34682E-17
 -1      1803 8.63749E-04 3.79684E-04-5.72838E-16
 -1      1804 7.14585E-04 3.37305E-04-3.82046E-16
 -1      1805 6.81214E-04 3.06888E-04-3.97631E-16
 -1      1806 4.63833E-04-2.22566E-04-1.52086E-16
 -1      1807 8.17141E-04-3.48189E-04-4.48792E-16
 -1      1808 9.65383E-04-3.84190E-04-6.47431E-16
 -1      1809 1.11172E-03-4.13733E-04-8.85929E-16
 -1      1810 1.25748E-03-4.37550E-04-1.16577E-15
 -1      1811 1.01816E-03-3.63547E-04-8.29632E-16
 -1      1812 1.40262E-03-4.57061E-04-1.48669E-15
 -1      1813 1.54778E-03-4.72639E-04-1.84904E-15
 -1      1814 1.31098E-03-4.11162E-04-1.40362E-15
 -1      1815 1.69317E-03-4.85282E-04-2.25296E-15
 -1      1816 1.83913E-03-4.95341E-04-2.69871E-15
 -1      1817 1.60278E-03-4.42245E-04-2.14103E-15
 -1      1818 1.98586E-03-5.03574E-04-3.18578E-15
 -1      1819 2.13358E-03-5.10351E-04-3.71450E-15
 -1      1820 1.89553E-03-4.62090E-04-3.04340E-15
 -1      1821 2.28243E-03-5.16338E-04-4.28515E-15
 -1      1822 2.43254E-03-5.21934E-04-4.89706E-15
 -1      1823 2.19086E-03-4.75179E-04-4.11085E-15
 -1      1824 2.58405E-03-5.27799E-04-5.55080E-15
 -1      1825 2.73699E-03-5.34373E-04-6.24602E-15
 -1      1826 2.49001E-03-4.85722E-04-5.34318E-15
 -1      1827 2.89147E-03-5.42351E-04-6.98274E-15
 -1      1828 3.04741E-03-5.52213E-04-7.75921E-15
 -1      1829 2.79396E-03-4.98030E-04-6.73981E-15
 -1      1830 3.20495E-03-5.64682E-04-8.57681E-15
 -1      1831 3.36379E-03-5.80253E-04-9.43473E-15
 -1      1832 3.10340E-03-5.16723E-04-8.29939E-15
 -1      1833 3.52415E-03-5.99598E-04-1.03328E-14
 -1      1834 3.68542E-03-6.23148E-04-1.12712E-14
 -1      1835 3.41872E-03-5.46671E-04-1.00194E-14
 -1      1836 3.84792E-03-6.51343E-04-1.22491E-14
 -1      1837 4.01068E-03-6.84382E-04-1.32667E-14
 -1      1838 3.73978E-03-5.92540E-04-1.18994E-14
 -1      1839 4.17407E-03-7.22198E-04-1.43238E-14
 -1      1840 4.33684E-03-7.64460E-04-1.54209E-14
 -1      1841 4.06561E-03-6.57669E-04-1.39375E-14
 -1      1842 4.49929E-03-8.10270E-04-1.65586E-14
 -1      1843 4.66012E-03-8.58460E-04-1.77368E-14
 -1      1844 4.39392E-03-7.42051E-04-1.61346E-14
 -1      1845 4.81946E-03-9.07114E-04-1.89570E-14
 -1      1846 4.97648E-03-9.54080E-04-2.02189E-14
 -1      1847 4.72088E-03-8.39635E-04-1.84935E-14
 -1      1848 5.13098E-03-9.96669E-04-2.15236E-14
 -1      1849 5.28328E-03-1.03219E-03-2.28705E-14
 -1      1850 5.04184E-03-9.36164E-04-2.10198E-14
 -1      1851 5.43288E-03-1.05800E-03-2.42601E-14
 -1      1852 5.58151E-03-1.07196E-03-2.56930E-14
 -1      1853 5.35370E-03-1.01023E-03-2.37163E-14
 -1      1854 5.72849E-03-1.07264E-03-2.71709E-14
 -1      1855 5.87643E-03-1.05961E-03-2.86919E-14
 -1      1856 5.65776E-03-1.03987E-03-2.65859E-14
 -1      1857 6.02461E-03-1.03340E-03-3.02555E-14
 -1      1858 6.17528E-03-9.95519E-04-3.18630E-14
 -1      1859 5.96026E-03-1.01307E-03-2.96314E-14
 -1      1860 6.32784E-03-9.48192E-04-3.35128E-14
 -1      1861 6.48326E-03-8.94040E-04-3.52043E-14
 -1      1862 6.26859E-03-9.34620E-04-3.28516E-14
 -1      1863 6.64120E-03-8.35887E-04-3.69383E-14
 -1      1864 6.80131E-03-7.76223E-04-3.87141E-14
 -1      1865 6.58648E-03-8.23306E-04-3.62431E-14
 -1      1866 6.96356E-03-7.17383E-04-4.05281E-14
 -1      1867 7.12681E-03-6.61039E-04-4.23815E-14
 -1      1868 6.91259E-03-7.02041E-04-3.97976E-14
 -1      1869 7.29129E-03-6.08565E-04-4.42721E-14
 -1      1870 7.45572E-03-5.60649E-04-4.61981E-14
 -1      1871 7.24264E-03-5.88881E-04-4.35087E-14
 -1      1872 7.62044E-03-5.17743E-04-4.81603E-14
 -1      1873 7.78438E-03-4.79896E-04-5.01559E-14
 -1      1874 7.57231E-03-4.93642E-04-4.73659E-14
 -1      1875 7.94787E-03-4.46917E-04-5.21859E-14
 -1      1876 8.11017E-03-4.18513E-04-5.42453E-14
 -1      1877 7.89867E-03-4.19025E-04-5.13601E-14
 -1      1878 8.27153E-03-3.94179E-04-5.63356E-14
 -1      1879 8.43156E-03-3.73511E-04-5.84573E-14
 -1      1880 8.22025E-03-3.63372E-04-5.54831E-14
 -1      1881 8.59039E-03-3.55921E-04-6.06087E-14
 -1      1882 8.74788E-03-3.41013E-04-6.27900E-14
 -1      1883 8.53658E-03-3.23068E-04-5.97274E-14
 -1      1884 8.90410E-03-3.28253E-04-6.49997E-14
 -1      1885 9.05906E-03-3.17302E-04-6.72374E-14
 -1      1886 8.84782E-03-2.94106E-04-6.40899E-14
 -1      1887 9.21280E-03-3.07734E-04-6.95043E-14
 -1      1888 9.36542E-03-2.99281E-04-7.17983E-14
 -1      1889 9.15436E-03-2.72887E-04-6.85655E-14
 -1      1890 9.51693E-03-2.91630E-04-7.41187E-14
 -1      1891 9.66748E-03-2.84581E-04-7.64656E-14
 -1      1892 9.45676E-03-2.56517E-04-7.31517E-14
 -1      1893 9.81706E-03-2.77922E-04-7.88374E-14
 -1      1894 9.96584E-03-2.71507E-04-8.12300E-14
 -1      1895 9.75559E-03-2.42839E-04-7.78433E-14
 -1      1896 1.01138E-02-2.65206E-04-8.36486E-14
 -1      1897 1.02611E-02-2.58918E-04-8.60903E-14
 -1      1898 1.00514E-02-2.30339E-04-8.26316E-14
 -1      1899 1.04078E-02-2.52567E-04-8.85534E-14
 -1      1900 1.05539E-02-2.46089E-04-9.10390E-14
 -1      1901 1.03448E-02-2.18017E-04-8.75137E-14
 -1      1902 1.06996E-02-2.39448E-04-9.35463E-14
 -1      1903 1.08448E-02-2.32603E-04-9.60723E-14
 -1      1904 1.06362E-02-2.05255E-04-9.24825E-14
 -1      1905 1.09896E-02-2.25546E-04-9.86192E-14
 -1      1906 1.11341E-02-2.18254E-04-1.01184E-13
 -1      1907 1.09261E-02-1.91713E-04-9.75358E-14
 -1      1908 1.12783E-02-2.10735E-04-1.03765E-13
 -1      1909 1.14222E-02-2.02977E-04-1.06364E-13
 -1      1910 1.12147E-02-1.77240E-04-1.02663E-13
 -1      1911 1.15660E-02-1.94998E-04-1.08980E-13
 -1      1912 1.17095E-02-1.86794E-04-1.11612E-13
 -1      1913 1.15025E-02-1.61806E-04-1.07861E-13
 -1      1914 1.18529E-02-1.78388E-04-1.14262E-13
 -1      1915 1.19962E-02-1.69781E-04-1.16929E-13
 -1      1916 1.17895E-02-1.45457E-04-1.13127E-13
 -1      1917 1.21394E-02-1.60995E-04-1.19611E-13
 -1      1918 1.22825E-02-1.52036E-04-1.22309E-13
 -1      1919 1.20761E-02-1.28283E-04-1.18456E-13
 -1      1920 1.24255E-02-1.42926E-04-1.25026E-13
 -1      1921 1.25684E-02-1.33671E-04-1.27760E-13
 -1      1922 1.23623E-02-1.10393E-04-1.23854E-13
 -1      1923 1.27114E-02-1.24291E-04-1.30508E-13
 -1      1924 1.28542E-02-1.14795E-04-1.33273E-13
 -1      1925 1.26483E-02-9.19000E-05-1.29315E-13
 -1      1926 1.29971E-02-1.05198E-04-1.36051E-13
 -1      1927 1.31399E-02-9.55094E-05-1.38841E-13
 -1      1928 1.29341E-02-7.29161E-05-1.34838E-13
 -1      1929 1.32827E-02-8.57443E-05-1.41647E-13
 -1      1930 1.34255E-02-7.59099E-05-1.44459E-13
 -1      1931 1.32198E-02-5.35438E-05-1.40416E-13
 -1      1932 1.35684E-02-6.60197E-05-1.47279E-13
 -1      1933 1.37112E-02-5.60806E-05-1.50108E-13
 -1      1934 1.35055E-02-3.38762E-05-1.46037E-13
 -1      1935 1.38540E-02-4.61044E-05-1.52943E-13
 -1      1936 1.39968E-02-3.60977E-05-1.55782E-13
 -1      1937 1.37911E-02-1.39966E-05-1.51686E-13
 -1      1938 1.41396E-02-2.60707E-05-1.58629E-13
 -1      1939 1.42824E-02-1.60300E-05-1.61477E-13
 -1      1940 1.40768E-02 6.02004E-06-1.57363E-13
 -1      1941 1.44100E-02-8.70402E-06-1.64022E-13
 -1      1942 1.45529E-02 1.34074E-06-1.66877E-13
 -1      1943 1.46024E-02 3.80430E-05-1.67847E-13
 -1      1944 1.43472E-02 2.33863E-05-1.62750E-13
 -1      1945 1.15613E-03 4.41901E-04-1.08466E-15
 -1      1946 1.01037E-03 4.14021E-04-8.06592E-16
 -1      1947 9.78006E-04 3.84618E-04-8.22096E-16
 -1      1948 1.44547E-03 4.82754E-04-1.77117E-15
 -1      1949 1.30080E-03 4.64577E-04-1.40601E-15
 -1      1950 1.27042E-03 4.36305E-04-1.41887E-15
 -1      1951 1.73563E-03 5.08933E-04-2.63121E-15
 -1      1952 1.59021E-03 4.97382E-04-2.17964E-15
 -1      1953 1.56142E-03 4.69794E-04-2.18845E-15
 -1      1954 2.02936E-03 5.25413E-04-3.66231E-15
 -1      1955 1.88188E-03 5.18133E-04-3.12569E-15
 -1      1956 1.85385E-03 4.90777E-04-3.12921E-15
 -1      1957 2.32862E-03 5.36535E-04-4.86261E-15
 -1      1958 2.17817E-03 5.31394E-04-4.24136E-15
 -1      1959 2.14988E-03 5.03864E-04-4.23927E-15
 -1      1960 2.63491E-03 5.46674E-04-6.23058E-15
 -1      1961 2.48078E-03 5.41458E-04-5.52553E-15
 -1      1962 2.45115E-03 5.13355E-04-5.51610E-15
 -1      1963 2.94932E-03 5.60706E-04-7.76362E-15
 -1      1964 2.79103E-03 5.52899E-04-6.97649E-15
 -1      1965 2.75896E-03 5.23795E-04-6.95867E-15
 -1      1966 3.27242E-03 5.84318E-04-9.46084E-15
 -1      1967 3.10976E-03 5.70972E-04-8.59169E-15
 -1      1968 3.07428E-03 5.40386E-04-8.56468E-15
 -1      1969 3.60404E-03 6.24039E-04-1.13198E-14
 -1      1970 3.43723E-03 6.01810E-04-1.03704E-14
 -1      1971 3.39767E-03 5.69220E-04-1.03331E-14
 -1      1972 3.94295E-03 6.86639E-04-1.33425E-14
 -1      1973 3.77280E-03 6.52192E-04-1.23106E-14
 -1      1974 3.72915E-03 6.17132E-04-1.22627E-14
 -1      1975 4.28637E-03 7.77360E-04-1.55322E-14
 -1      1976 4.11451E-03 7.28427E-04-1.44156E-14
 -1      1977 4.06779E-03 6.90724E-04-1.43563E-14
 -1      1978 4.62976E-03 8.96532E-04-1.78934E-14
 -1      1979 4.45868E-03 8.33826E-04-1.66910E-14
 -1      1980 4.41117E-03 7.94009E-04-1.66176E-14
 -1      1981 4.96702E-03 1.03486E-03-2.04338E-14
 -1      1982 4.79979E-03 9.64448E-04-1.91412E-14
 -1      1983 4.75480E-03 9.24211E-04-1.90529E-14
 -1      1984 5.29244E-03 1.17024E-03-2.31575E-14
 -1      1985 5.13157E-03 1.10473E-03-2.17724E-14
 -1      1986 5.09246E-03 1.06684E-03-2.16686E-14
 -1      1987 5.60407E-03 1.27082E-03-2.60698E-14
 -1      1988 5.44966E-03 1.22671E-03-2.45901E-14
 -1      1989 5.41854E-03 1.19389E-03-2.44698E-14
 -1      1990 5.90696E-03 1.30768E-03-2.91741E-14
 -1      1991 5.75561E-03 1.29804E-03-2.75974E-14
 -1      1992 5.73268E-03 1.27107E-03-2.74615E-14
 -1      1993 6.21154E-03 1.27123E-03-3.24679E-14
 -1      1994 6.05789E-03 1.29787E-03-3.07972E-14
 -1      1995 6.04230E-03 1.27481E-03-3.06462E-14
 -1      1996 6.52745E-03 1.17720E-03-3.59439E-14
 -1      1997 6.36746E-03 1.22953E-03-3.41841E-14
 -1      1998 6.35834E-03 1.20717E-03-3.40187E-14
 -1      1999 6.85774E-03 1.05711E-03-3.95884E-14
 -1      2000 6.69084E-03 1.11850E-03-3.77461E-14
 -1      2001 6.68729E-03 1.09452E-03-3.75682E-14
 -1      2002 7.19926E-03 9.41219E-04-4.33804E-14
 -1      2003 7.02758E-03 9.97394E-04-4.14667E-14
 -1      2004 7.02775E-03 9.71210E-04-4.12776E-14
 -1      2005 7.54599E-03 8.48526E-04-4.73164E-14
 -1      2006 7.37255E-03 8.91536E-04-4.53319E-14
 -1      2007 7.37387E-03 8.63553E-04-4.51321E-14
 -1      2008 7.89225E-03 7.85639E-04-5.13838E-14
 -1      2009 7.71965E-03 8.13459E-04-4.93328E-14
 -1      2010 7.71961E-03 7.84356E-04-4.91215E-14
 -1      2011 8.23406E-03 7.50887E-04-5.55775E-14
 -1      2012 8.06402E-03 7.65083E-04-5.34651E-14
 -1      2013 8.06089E-03 7.35405E-04-5.32415E-14
 -1      2014 8.56918E-03 7.38878E-04-5.98942E-14
 -1      2015 8.40261E-03 7.42418E-04-5.77207E-14
 -1      2016 8.39562E-03 7.12527E-04-5.74856E-14
 -1      2017 8.89673E-03 7.43482E-04-6.43294E-14
 -1      2018 8.73395E-03 7.39432E-04-6.20983E-14
 -1      2019 8.72310E-03 7.09562E-04-6.18505E-14
 -1      2020 9.21678E-03 7.59301E-04-6.88783E-14
 -1      2021 9.05767E-03 7.50241E-04-6.65896E-14
 -1      2022 9.04344E-03 7.20542E-04-6.63307E-14
 -1      2023 9.52994E-03 7.82130E-04-7.35366E-14
 -1      2024 9.37416E-03 7.70018E-04-7.11939E-14
 -1      2025 9.35718E-03 7.40577E-04-7.09240E-14
 -1      2026 9.83708E-03 8.08937E-04-7.83024E-14
 -1      2027 9.68418E-03 7.95156E-04-7.59059E-14
 -1      2028 9.66511E-03 7.66015E-04-7.56242E-14
 -1      2029 1.01392E-02 8.37652E-04-8.31643E-14
 -1      2030 9.98867E-03 8.23133E-04-8.07219E-14
 -1      2031 9.96808E-03 7.94301E-04-8.04272E-14
 -1      2032 1.04371E-02 8.66935E-04-8.81168E-14
 -1      2033 1.02886E-02 8.52269E-04-8.56297E-14
 -1      2034 1.02670E-02 8.23731E-04-8.53237E-14
 -1      2035 1.07318E-02 8.95963E-04-9.31491E-14
 -1      2036 1.05848E-02 8.81506E-04-9.06234E-14
 -1      2037 1.05625E-02 8.53236E-04-9.03047E-14
 -1      2038 1.10239E-02 9.24275E-04-9.82688E-14
 -1      2039 1.08782E-02 9.10221E-04-9.56983E-14
 -1      2040 1.08554E-02 8.82184E-04-9.53722E-14
 -1      2041 1.13141E-02 9.51649E-04-1.03462E-13
 -1      2042 1.11692E-02 9.38083E-04-1.00856E-13
 -1      2043 1.11463E-02 9.10243E-04-1.00519E-13
 -1      2044 1.16029E-02 9.78015E-04-1.08730E-13
 -1      2045 1.14586E-02 9.64956E-04-1.06087E-13
 -1      2046 1.14356E-02 9.37280E-04-1.05740E-13
 -1      2047 1.18905E-02 1.00340E-03-1.14064E-13
 -1      2048 1.17468E-02 9.90825E-04-1.11390E-13
 -1      2049 1.17237E-02 9.63283E-04-1.11030E-13
 -1      2050 1.21774E-02 1.02789E-03-1.19451E-13
 -1      2051 1.20341E-02 1.01575E-03-1.16750E-13
 -1      2052 1.20110E-02 9.88312E-04-1.16380E-13
 -1      2053 1.24638E-02 1.05158E-03-1.24886E-13
 -1      2054 1.23207E-02 1.03982E-03-1.22163E-13
 -1      2055 1.22977E-02 1.01247E-03-1.21784E-13
 -1      2056 1.27498E-02 1.07460E-03-1.30356E-13
 -1      2057 1.26068E-02 1.06317E-03-1.27617E-13
 -1      2058 1.25839E-02 1.03587E-03-1.27231E-13
 -1      2059 1.30356E-02 1.09705E-03-1.35858E-13
 -1      2060 1.28927E-02 1.08589E-03-1.33103E-13
 -1      2061 1.28699E-02 1.05864E-03-1.32712E-13
 -1      2062 1.33213E-02 1.11906E-03-1.41383E-13
 -1      2063 1.31785E-02 1.10811E-03-1.38618E-13
 -1      2064 1.31557E-02 1.08089E-03-1.38223E-13
 -1      2065 1.36069E-02 1.14072E-03-1.46928E-13
 -1      2066 1.34641E-02 1.12993E-03-1.44152E-13
 -1      2067 1.34414E-02 1.10274E-03-1.43756E-13
 -1      2068 1.38924E-02 1.16211E-03-1.52488E-13
 -1      2069 1.37497E-02 1.15144E-03-1.49708E-13
 -1      2070 1.37270E-02 1.12426E-03-1.49308E-13
 -1      2071 1.41780E-02 1.18332E-03-1.58064E-13
 -1      2072 1.40352E-02 1.17274E-03-1.55273E-13
 -1      2073 1.40126E-02 1.14557E-03-1.54874E-13
 -1      2074 1.44637E-02 1.20442E-03-1.63658E-13
 -1      2075 1.43208E-02 1.19388E-03-1.60859E-13
 -1      2076 1.42983E-02 1.16672E-03-1.60459E-13
 -1      2077 1.47493E-02 1.22548E-03-1.69264E-13
 -1      2078 1.46065E-02 1.21495E-03-1.66460E-13
 -1      2079 1.45839E-02 1.18778E-03-1.66061E-13
 -1      2080 1.49835E-02 1.23981E-03-1.73869E-13
 -1      2081 1.48406E-02 1.22927E-03-1.71063E-13
 -1      2082 1.48181E-02 1.20210E-03-1.70665E-13
 -1      2083 1.50007E-02 1.20969E-03-1.74265E-13
 -1      2084 1.49110E-02 9.72407E-04-1.72925E-13
 -1      2085 1.49214E-02 1.01460E-03-1.73054E-13
 -1      2086 1.49318E-02 1.05678E-03-1.73183E-13
 -1      2087 1.49423E-02 1.09896E-03-1.73313E-13
 -1      2088 1.48029E-02 1.02660E-03-1.70682E-13
 -1      2089 1.49663E-02 1.13325E-03-1.73724E-13
 -1      2090 1.49767E-02 1.17541E-03-1.73853E-13
 -1      2091 1.48854E-02 1.17162E-03-1.72052E-13
 -1      2092 1.48373E-02 1.10305E-03-1.71225E-13
 -1      2093 1.48907E-02 8.89442E-04-1.72662E-13
 -1      2094 1.49008E-02 9.30927E-04-1.72793E-13
 -1      2095 1.47823E-02 9.42956E-04-1.70421E-13
 -1      2096 1.48700E-02 8.05028E-04-1.72396E-13
 -1      2097 1.48803E-02 8.47236E-04-1.72530E-13
 -1      2098 1.47618E-02 8.59302E-04-1.70152E-13
 -1      2099 1.48496E-02 7.20603E-04-1.72116E-13
 -1      2100 1.48598E-02 7.62817E-04-1.72259E-13
 -1      2101 1.47412E-02 7.74924E-04-1.69878E-13
 -1      2102 1.48292E-02 6.36172E-04-1.71827E-13
 -1      2103 1.48394E-02 6.78388E-04-1.71970E-13
 -1      2104 1.47207E-02 6.90542E-04-1.69592E-13
 -1      2105 1.48090E-02 5.51740E-04-1.71527E-13
 -1      2106 1.48191E-02 5.93955E-04-1.71678E-13
 -1      2107 1.47004E-02 6.06157E-04-1.69296E-13
 -1      2108 1.47890E-02 4.67312E-04-1.71219E-13
 -1      2109 1.47990E-02 5.09524E-04-1.71374E-13
 -1      2110 1.46803E-02 5.21773E-04-1.68993E-13
 -1      2111 1.47694E-02 3.84323E-04-1.70909E-13
 -1      2112 1.47792E-02 4.25816E-04-1.71063E-13
 -1      2113 1.46604E-02 4.38107E-04-1.68685E-13
 -1      2114 1.47496E-02 2.99919E-04-1.70590E-13
 -1      2115 1.47595E-02 3.42119E-04-1.70750E-13
 -1      2116 1.46407E-02 3.54445E-04-1.68370E-13
 -1      2117 1.47300E-02 2.15535E-04-1.70267E-13
 -1      2118 1.47398E-02 2.57724E-04-1.70429E-13
 -1      2119 1.46210E-02 2.70077E-04-1.68048E-13
 -1      2120 1.47103E-02 1.31177E-04-1.69944E-13
 -1      2121 1.47202E-02 1.73353E-04-1.70106E-13
 -1      2122 1.46013E-02 1.85723E-04-1.67722E-13
 -1      2123 7.67175E-03 3.11998E-04-3.75245E-14
 -1      2124 7.80738E-03 2.61682E-04-3.78859E-14
 -1      2125 8.05753E-03 1.54700E-04-3.88188E-14
 -1      2126 8.05060E-03 1.37502E-04-3.85825E-14
 -1      2127 7.92276E-03 2.15448E-04-3.82971E-14
 -1      2128 8.00629E-03 1.84063E-04-3.87126E-14
 -1      2129 7.86745E-03 2.22059E-04-3.89309E-14
 -1      2130 7.31030E-03 4.74728E-04-3.63212E-14
 -1      2131 7.48660E-03 3.91563E-04-3.69331E-14
 -1      2132 6.90464E-03 6.92190E-04-3.46473E-14
 -1      2133 7.09323E-03 5.86699E-04-3.54584E-14
 -1      2134 3.28136E-04-7.67356E-05-2.12612E-16
 -1      2135 3.31135E-04-8.95888E-05-2.00442E-16
 -1      2136 4.49381E-04-1.28473E-04-2.90688E-16
 -1      2137 4.40457E-04-9.42785E-05-3.22984E-16
 -1      2138 6.15832E-03 1.06111E-03-3.08862E-14
 -1      2139 6.32354E-03 9.94036E-04-3.18398E-14
 -1      2140 5.80028E-03 1.11620E-03-2.86833E-14
 -1      2141 5.95365E-03 1.10920E-03-2.96613E-14
 -1      2142 5.49232E-03 1.04647E-03-2.68795E-14
 -1      2143 5.64592E-03 1.09497E-03-2.77734E-14
 -1      2144 5.73675E-03 1.11864E-03-2.82282E-14
 -1      2145 5.11049E-03 8.57483E-04-2.48827E-14
 -1      2146 5.28838E-03 9.59132E-04-2.57827E-14
 -1      2147 4.66247E-03 5.98299E-04-2.31018E-14
 -1      2148 4.86458E-03 7.15198E-04-2.38078E-14
 -1      2149 4.22901E-03 3.82370E-04-2.19345E-14
 -1      2150 4.42480E-03 4.78104E-04-2.24552E-14
 -1      2151 3.86344E-03 2.25685E-04-2.10271E-14
 -1      2152 4.02013E-03 2.84292E-04-2.13435E-14
 -1      2153 3.62918E-03 1.37595E-04-2.03930E-14
 -1      2154 3.73230E-03 1.74559E-04-2.07073E-14
 -1      2155 3.79824E-03 1.77265E-04-2.02690E-14
 -1      2156 3.52507E-03 8.70168E-05-2.02662E-14
 -1      2157 3.54438E-03 1.03038E-04-2.02339E-14
 -1      2158 3.60510E-03 4.21780E-05-2.04501E-14
 -1      2159 3.54754E-03 6.40424E-05-2.03822E-14
 -1      2160 3.84312E-03-4.93814E-05-2.09859E-14
 -1      2161 3.71629E-03-1.82078E-06-2.06987E-14
 -1      2162 4.17895E-03-1.77971E-04-2.15547E-14
 -1      2163 4.00079E-03-1.06092E-04-2.12149E-14
 -1      2164 4.61538E-03-3.99704E-04-2.28418E-14
 -1      2165 4.42561E-03-2.95779E-04-2.22115E-14
 -1      2166 5.01145E-03-6.20846E-04-2.44216E-14
 -1      2167 4.82565E-03-5.17924E-04-2.36718E-14
 -1      2168 5.38541E-03-7.90011E-04-2.60607E-14
 -1      2169 5.22308E-03-7.18368E-04-2.52304E-14
 -1      2170 5.68107E-03-8.56028E-04-2.77724E-14
 -1      2171 5.53644E-03-8.34306E-04-2.69081E-14
 -1      2172 5.45108E-03-8.15453E-04-2.61645E-14
 -1      2173 6.04678E-03-8.06324E-04-2.99625E-14
 -1      2174 5.89732E-03-8.43131E-04-2.90688E-14
 -1      2175 6.37443E-03-6.65780E-04-3.18548E-14
 -1      2176 6.21879E-03-7.42762E-04-3.09904E-14
 -1      2177 6.74337E-03-4.66712E-04-3.36541E-14
 -1      2178 6.57080E-03-5.64730E-04-3.28361E-14
 -1      2179 7.13472E-03-2.60865E-04-3.52386E-14
 -1      2180 6.95372E-03-3.57260E-04-3.45093E-14
 -1      2181 7.49552E-03-8.00760E-05-3.67364E-14
 -1      2182 7.32673E-03-1.59171E-04-3.60891E-14
 -1      2183 7.81552E-03 4.31434E-05-3.77394E-14
 -1      2184 7.68276E-03-3.77405E-06-3.73489E-14
 -1      2185 8.01155E-03 1.13853E-04-3.83367E-14
 -1      2186 7.93904E-03 8.77768E-05-3.80979E-14
 -1      2187 8.03841E-03 1.35019E-04-3.93113E-14
 -1      2188 6.52663E-03 8.98477E-04-3.28738E-14
 -1      2189 6.70530E-03 8.01821E-04-3.37150E-14
 -1      2190 6.78657E-03 7.37919E-04-3.46245E-14
 -1      2191 6.14743E-04-2.78835E-04-2.61564E-16
 -1      2192 6.41147E-03 9.48029E-04-3.26386E-14
 -1      2193 6.71670E-04-2.69993E-04-3.77438E-16
 -1      2194 8.04613E-03 1.64660E-04-3.94519E-14
 -1      2195 8.06822E-03 1.57235E-04-4.01946E-14
 -1      2196 8.02128E-03 1.71994E-04-4.00873E-14
 -1      2197 7.57445E-03 3.32514E-04-3.79146E-14
 -1      2198 1.46608E-02 9.44585E-05-1.68978E-13
 -1      2199 7.18421E-03 5.16617E-04-3.64396E-14
 -1      2200 7.88535E-03 8.59174E-05-3.86957E-14
 -1      2201 7.58188E-03-2.00621E-05-3.77061E-14
 -1      2202 7.21123E-03-1.88853E-04-3.62201E-14
 -1      2203 6.82380E-03-3.98800E-04-3.44963E-14
 -1      2204 6.44906E-03-6.12780E-04-3.26404E-14
 -1      2205 5.76853E-03-8.64012E-04-2.82869E-14
 -1      2206 5.14157E-03-6.72561E-04-2.45277E-14
 -1      2207 4.74560E-03-4.53859E-04-2.29072E-14
 -1      2208 4.30780E-03-2.21148E-04-2.14479E-14
 -1      2209 3.92414E-03-5.72658E-05-2.05893E-14
 -1      2210 3.65539E-03 3.26163E-05-2.01238E-14
 -1      2211 3.57526E-03 1.10115E-04-1.98044E-14
 -1      2212 4.12514E-03 3.08210E-04-2.11555E-14
 -1      2213 4.55704E-03 5.21961E-04-2.23700E-14
 -1      2214 5.41904E-03 1.01587E-03-2.62187E-14
 -1      2215 6.04544E-03 1.09785E-03-3.03619E-14
 -1      2216 5.00701E-03 7.85359E-04-2.40592E-14
 -1      2217 3.52717E-03 7.77240E-05-1.97661E-14
 -1      2218 6.12028E-03-7.80884E-04-3.06185E-14
 -1      2219 1.03137E-03 3.63670E-04-1.01320E-15
 -1      2220 8.83938E-04 3.32792E-04-7.51894E-16
 -1      2221 5.40516E-04-4.46348E-05-5.15945E-16
 -1      2222 5.42905E-04-5.88367E-05-5.07610E-16
 -1      2223 5.45923E-04-7.39442E-05-4.97527E-16
 -1      2224 5.49545E-04-9.00567E-05-4.85262E-16
 -1      2225 6.58230E-04-7.85285E-05-6.82465E-16
 -1      2226 5.36868E-04 7.56476E-06-5.34335E-16
 -1      2227 5.36880E-04-5.13203E-06-5.31801E-16
 -1      2228 5.38666E-04 3.34239E-05-5.35325E-16
 -1      2229 5.37466E-04 2.03787E-05-5.35515E-16
 -1      2230 6.48776E-04 1.66037E-05-7.24464E-16
 -1      2231 5.42832E-04 6.06298E-05-5.30947E-16
 -1      2232 5.40458E-04 4.67330E-05-5.34010E-16
 -1      2233 6.51866E-04 4.73776E-05-7.24369E-16
 -1      2234 5.49603E-04 9.17349E-05-5.19848E-16
 -1      2235 5.45902E-04 7.56709E-05-5.26312E-16
 -1      2236 6.58115E-04 8.06322E-05-7.16780E-16
 -1      2237 5.59326E-04 1.28212E-04-4.98869E-16
 -1      2238 5.54081E-04 1.09208E-04-5.10849E-16
 -1      2239 6.67777E-04 1.18551E-04-6.99731E-16
 -1      2240 5.73221E-04 1.72601E-04-4.64350E-16
 -1      2241 5.65698E-04 1.49277E-04-4.83744E-16
 -1      2242 6.81408E-04 1.63016E-04-6.69901E-16
 -1      2243 1.32421E-03 4.09543E-04-1.66327E-15
 -1      2244 1.17792E-03 3.89134E-04-1.31668E-15
 -1      2245 1.08647E-03 3.42053E-04-1.21211E-15
 -1      2246 9.26932E-04-3.14201E-04-7.67588E-16
 -1      2247 1.07363E-03-3.42282E-04-1.02175E-15
 -1      2248 6.33009E-03 9.91804E-04-3.24768E-14
 -1      2249 6.49934E-03 8.96591E-04-3.35279E-14
 -1      2250 1.21983E-03-3.65443E-04-1.31569E-15
 -1      2251 1.36601E-03-3.84156E-04-1.65016E-15
 -1      2252 1.13020E-03-3.20361E-04-1.22370E-15
 -1      2253 1.51199E-03-3.99341E-04-2.02524E-15
 -1      2254 1.65813E-03-4.11341E-04-2.44130E-15
 -1      2255 1.42163E-03-3.56796E-04-1.90568E-15
 -1      2256 1.80445E-03-4.20947E-04-2.89768E-15
 -1      2257 1.95121E-03-4.28495E-04-3.39533E-15
 -1      2258 1.71331E-03-3.80233E-04-2.74872E-15
 -1      2259 2.09850E-03-4.34669E-04-3.93381E-15
 -1      2260 2.24650E-03-4.39831E-04-4.51324E-15
 -1      2261 2.00593E-03-3.94817E-04-3.75397E-15
 -1      2262 2.39533E-03-4.44623E-04-5.13295E-15
 -1      2263 2.54512E-03-4.49457E-04-5.79425E-15
 -1      2264 2.30047E-03-4.04496E-04-4.92117E-15
 -1      2265 2.69602E-03-4.54976E-04-6.49598E-15
 -1      2266 2.84811E-03-4.61665E-04-7.23801E-15
 -1      2267 2.59797E-03-4.13238E-04-6.25045E-15
 -1      2268 3.00160E-03-4.70181E-04-8.02018E-15
 -1      2269 3.15645E-03-4.81096E-04-8.84244E-15
 -1      2270 2.89966E-03-4.25265E-04-7.74016E-15
 -1      2271 3.31302E-03-4.95048E-04-9.70490E-15
 -1      2272 3.47107E-03-5.12675E-04-1.06074E-14
 -1      2273 3.20693E-03-4.45205E-04-9.38994E-15
 -1      2274 3.63107E-03-5.34497E-04-1.15489E-14
 -1      2275 3.79251E-03-5.61126E-04-1.25302E-14
 -1      2276 3.52133E-03-4.78049E-04-1.11984E-14
 -1      2277 3.95596E-03-5.92785E-04-1.35507E-14
 -1      2278 4.12048E-03-6.29809E-04-1.46107E-14
 -1      2279 3.84419E-03-5.28713E-04-1.31645E-14
 -1      2280 4.28661E-03-6.71874E-04-1.57095E-14
 -1      2281 4.45295E-03-7.18513E-04-1.68494E-14
 -1      2282 4.17579E-03-6.00878E-04-1.52857E-14
 -1      2283 4.61974E-03-7.68564E-04-1.80310E-14
 -1      2284 4.78546E-03-8.20218E-04-1.92526E-14
 -1      2285 4.51396E-03-6.94410E-04-1.75671E-14
 -1      2286 4.94993E-03-8.71319E-04-2.05161E-14
 -1      2287 5.11218E-03-9.18480E-04-2.18224E-14
 -1      2288 4.85311E-03-8.01299E-04-2.00121E-14
 -1      2289 5.27161E-03-9.59000E-04-2.31717E-14
 -1      2290 5.42898E-03-9.88805E-04-2.45634E-14
 -1      2291 5.18555E-03-9.02077E-04-2.26256E-14
 -1      2292 5.58350E-03-1.00567E-03-2.60004E-14
 -1      2293 5.73788E-03-1.00723E-03-2.74815E-14
 -1      2294 5.50658E-03-9.67712E-04-2.54136E-14
 -1      2295 5.89133E-03-9.92964E-04-2.90057E-14
 -1      2296 6.04704E-03-9.63905E-04-3.05751E-14
 -1      2297 5.82017E-03-9.72159E-04-2.83783E-14
 -1      2298 6.20420E-03-9.21604E-04-3.21880E-14
 -1      2299 6.36451E-03-8.69601E-04-3.38447E-14
 -1      2300 6.13698E-03-9.09694E-04-3.15219E-14
 -1      2301 6.52719E-03-8.10635E-04-3.55438E-14
 -1      2302 6.69209E-03-7.48554E-04-3.72849E-14
 -1      2303 6.46474E-03-7.98989E-04-3.48424E-14
 -1      2304 6.85879E-03-6.85843E-04-3.90668E-14
 -1      2305 7.02579E-03-6.25182E-04-4.08867E-14
 -1      2306 6.80239E-03-6.69667E-04-3.83332E-14
 -1      2307 7.19319E-03-5.68182E-04-4.27461E-14
 -1      2308 7.35954E-03-5.15807E-04-4.46408E-14
 -1      2309 7.14267E-03-5.46679E-04-4.19809E-14
 -1      2310 7.52524E-03-4.68780E-04-4.65714E-14
 -1      2311 7.68917E-03-4.27109E-04-4.85357E-14
 -1      2312 7.47874E-03-4.43016E-04-4.57765E-14
 -1      2313 7.85187E-03-3.90831E-04-5.05358E-14
 -1      2314 8.01268E-03-3.59467E-04-5.25682E-14
 -1      2315 7.80698E-03-3.62062E-04-4.97115E-14
 -1      2316 8.17210E-03-3.32682E-04-5.46304E-14
 -1      2317 8.32981E-03-3.09890E-04-5.67234E-14
 -1      2318 8.12670E-03-3.01864E-04-5.37766E-14
 -1      2319 8.48617E-03-2.90605E-04-5.88462E-14
 -1      2320 8.64110E-03-2.74299E-04-6.09990E-14
 -1      2321 8.43888E-03-2.58378E-04-5.79656E-14
 -1      2322 8.79482E-03-2.60474E-04-6.31796E-14
 -1      2323 8.94738E-03-2.48708E-04-6.53895E-14
 -1      2324 8.74497E-03-2.27294E-04-6.22709E-14
 -1      2325 9.09889E-03-2.38569E-04-6.76292E-14
 -1      2326 9.24946E-03-2.29740E-04-6.98949E-14
 -1      2327 9.04633E-03-2.04787E-04-6.66919E-14
 -1      2328 9.39914E-03-2.21883E-04-7.21875E-14
 -1      2329 9.54806E-03-2.14769E-04-7.45068E-14
 -1      2330 9.34408E-03-1.87776E-04-7.12248E-14
 -1      2331 9.69624E-03-2.08154E-04-7.68504E-14
 -1      2332 9.84381E-03-2.01880E-04-7.92209E-14
 -1      2333 9.63904E-03-1.73939E-04-7.58608E-14
 -1      2334 9.99076E-03-1.95782E-04-8.16161E-14
 -1      2335 1.01372E-02-1.89754E-04-8.40334E-14
 -1      2336 9.93184E-03-1.61614E-04-8.06000E-14
 -1      2337 1.02832E-02-1.83695E-04-8.64723E-14
 -1      2338 1.04288E-02-1.77535E-04-8.89355E-14
 -1      2339 1.02229E-02-1.49679E-04-8.54339E-14
 -1      2340 1.05739E-02-1.71222E-04-9.14201E-14
 -1      2341 1.07188E-02-1.64713E-04-9.39256E-14
 -1      2342 1.05127E-02-1.37420E-04-9.03579E-14
 -1      2343 1.08634E-02-1.57986E-04-9.64521E-14
 -1      2344 1.10077E-02-1.51019E-04-9.89978E-14
 -1      2345 1.08015E-02-1.24426E-04-9.53687E-14
 -1      2346 1.11518E-02-1.43810E-04-1.01561E-13
 -1      2347 1.12957E-02-1.36349E-04-1.04142E-13
 -1      2348 1.10894E-02-1.10496E-04-1.00458E-13
 -1      2349 1.14394E-02-1.28648E-04-1.06742E-13
 -1      2350 1.15829E-02-1.20706E-04-1.09357E-13
 -1      2351 1.13767E-02-9.55677E-05-1.05623E-13
 -1      2352 1.17264E-02-1.12540E-04-1.11990E-13
 -1      2353 1.18697E-02-1.04155E-04-1.14640E-13
 -1      2354 1.16635E-02-7.96716E-05-1.10854E-13
 -1      2355 1.20129E-02-9.55723E-05-1.17305E-13
 -1      2356 1.21561E-02-8.67974E-05-1.19985E-13
 -1      2357 1.19500E-02-6.28886E-05-1.16151E-13
 -1      2358 1.22992E-02-7.78528E-05-1.22681E-13
 -1      2359 1.24422E-02-6.87462E-05-1.25395E-13
 -1      2360 1.22362E-02-4.53261E-05-1.21512E-13
 -1      2361 1.25852E-02-5.94985E-05-1.28126E-13
 -1      2362 1.27282E-02-5.01178E-05-1.30870E-13
 -1      2363 1.25222E-02-2.71010E-05-1.26935E-13
 -1      2364 1.28711E-02-4.06232E-05-1.33630E-13
 -1      2365 1.30140E-02-3.10226E-05-1.36404E-13
 -1      2366 1.28081E-02-8.32903E-06-1.32424E-13
 -1      2367 1.31569E-02-2.13330E-05-1.39187E-13
 -1      2368 1.32997E-02-1.15620E-05-1.41987E-13
 -1      2369 1.30939E-02 1.08813E-05-1.37964E-13
 -1      2370 1.34426E-02-1.72440E-06-1.44795E-13
 -1      2371 1.35854E-02 8.17284E-06-1.47608E-13
 -1      2372 1.33797E-02 3.04314E-05-1.43553E-13
 -1      2373 1.37283E-02 1.81167E-05-1.50432E-13
 -1      2374 1.38711E-02 2.81008E-05-1.53262E-13
 -1      2375 1.36654E-02 5.02333E-05-1.49180E-13
 -1      2376 1.40140E-02 3.81137E-05-1.56098E-13
 -1      2377 1.41568E-02 4.81491E-05-1.58938E-13
 -1      2378 1.39511E-02 7.02086E-05-1.54836E-13
 -1      2379 7.81110E-03 2.32812E-04-3.95861E-14
 -1      2380 7.92064E-03 2.01304E-04-4.00058E-14
 -1      2381 1.90981E-03 4.57071E-04-3.47301E-15
 -1      2382 1.76281E-03 4.49209E-04-2.95723E-15
 -1      2383 2.20618E-03 4.68191E-04-4.62906E-15
 -1      2384 2.05752E-03 4.63274E-04-4.03022E-15
 -1      2385 1.96445E-03 4.23283E-04-3.82084E-15
 -1      2386 2.50685E-03 4.76595E-04-5.95051E-15
 -1      2387 2.35588E-03 4.72486E-04-5.26905E-15
 -1      2388 2.26008E-03 4.32653E-04-5.02244E-15
 -1      2389 2.81305E-03 4.86888E-04-7.43504E-15
 -1      2390 2.65918E-03 4.81220E-04-6.67252E-15
 -1      2391 2.55918E-03 4.40176E-04-6.38722E-15
 -1      2392 3.12587E-03 5.04394E-04-9.08170E-15
 -1      2393 2.96859E-03 4.94396E-04-8.23790E-15
 -1      2394 2.86298E-03 4.50453E-04-7.91329E-15
 -1      2395 3.44632E-03 5.35361E-04-1.08887E-14
 -1      2396 3.28515E-03 5.17785E-04-9.96542E-15
 -1      2397 3.17288E-03 4.68851E-04-9.60004E-15
 -1      2398 3.77525E-03 5.86766E-04-1.28566E-14
 -1      2399 3.60984E-03 5.58057E-04-1.18522E-14
 -1      2400 3.49055E-03 5.01697E-04-1.14450E-14
 -1      2401 4.11288E-03 6.65274E-04-1.49874E-14
 -1      2402 3.94326E-03 6.22246E-04-1.39012E-14
 -1      2403 3.81792E-03 5.56123E-04-1.34498E-14
 -1      2404 4.45792E-03 7.74688E-04-1.72857E-14
 -1      2405 4.28500E-03 7.16036E-04-1.61153E-14
 -1      2406 4.15648E-03 6.39066E-04-1.56177E-14
 -1      2407 4.80627E-03 9.11343E-04-1.97593E-14
 -1      2408 4.63245E-03 8.40313E-04-1.85009E-14
 -1      2409 4.50583E-03 7.54659E-04-1.79531E-14
 -1      2410 5.15059E-03 1.05808E-03-2.24119E-14
 -1      2411 4.97964E-03 9.85194E-04-2.10621E-14
 -1      2412 4.86129E-03 8.98496E-04-2.04619E-14
 -1      2413 5.48352E-03 1.18274E-03-2.52518E-14
 -1      2414 5.31851E-03 1.12587E-03-2.38082E-14
 -1      2415 5.21320E-03 1.05053E-03-2.31517E-14
 -1      2416 5.80453E-03 1.24715E-03-2.82845E-14
 -1      2417 5.64441E-03 1.22462E-03-2.67436E-14
 -1      2418 5.55228E-03 1.17209E-03-2.60304E-14
 -1      2419 6.12303E-03 1.22984E-03-3.15105E-14
 -1      2420 5.96240E-03 1.24880E-03-2.98738E-14
 -1      2421 5.87936E-03 1.22047E-03-2.91046E-14
 -1      2422 6.45131E-03 1.14107E-03-3.49248E-14
 -1      2423 6.28504E-03 1.19221E-03-3.31947E-14
 -1      2424 6.20771E-03 1.17822E-03-3.23740E-14
 -1      2425 6.79276E-03 1.01653E-03-3.85126E-14
 -1      2426 6.62062E-03 1.08074E-03-3.66976E-14
 -1      2427 6.54940E-03 1.06799E-03-3.58299E-14
 -1      2428 7.14190E-03 8.92279E-04-4.22544E-14
 -1      2429 6.96721E-03 9.52520E-04-4.03657E-14
 -1      2430 6.90336E-03 9.33934E-04-3.94554E-14
 -1      2431 7.49069E-03 7.91400E-04-4.61404E-14
 -1      2432 7.31709E-03 8.38166E-04-4.41798E-14
 -1      2433 7.25960E-03 8.12238E-04-4.32331E-14
 -1      2434 7.83374E-03 7.21984E-04-5.01586E-14
 -1      2435 7.66339E-03 7.52762E-04-4.81328E-14
 -1      2436 7.60908E-03 7.20715E-04-4.71481E-14
 -1      2437 8.16889E-03 6.82462E-04-5.43021E-14
 -1      2438 8.00251E-03 6.98799E-04-5.22140E-14
 -1      2439 7.94793E-03 6.62274E-04-5.11924E-14
 -1      2440 8.49599E-03 6.67237E-04-5.85703E-14
 -1      2441 8.33350E-03 6.72207E-04-5.64223E-14
 -1      2442 8.27613E-03 6.32445E-04-5.53618E-14
 -1      2443 8.81571E-03 6.69885E-04-6.29559E-14
 -1      2444 8.65674E-03 6.66687E-04-6.07477E-14
 -1      2445 8.59533E-03 6.24636E-04-5.96530E-14
 -1      2446 9.12899E-03 6.84713E-04-6.74582E-14
 -1      2447 8.97309E-03 6.76066E-04-6.51934E-14
 -1      2448 8.90740E-03 6.32474E-04-6.40601E-14
 -1      2449 9.43675E-03 7.07243E-04-7.20706E-14
 -1      2450 9.28348E-03 6.95232E-04-6.97511E-14
 -1      2451 9.21387E-03 6.50698E-04-6.85818E-14
 -1      2452 9.73984E-03 7.34211E-04-7.67888E-14
 -1      2453 9.58880E-03 7.20327E-04-7.44170E-14
 -1      2454 9.51592E-03 6.75315E-04-7.32155E-14
 -1      2455 1.00391E-02 7.63364E-04-8.16054E-14
 -1      2456 9.88987E-03 7.48621E-04-7.91844E-14
 -1      2457 9.81441E-03 7.03468E-04-7.79490E-14
 -1      2458 1.03351E-02 7.93225E-04-8.65150E-14
 -1      2459 1.01874E-02 7.78276E-04-8.40494E-14
 -1      2460 1.01100E-02 7.33211E-04-8.27795E-14
 -1      2461 1.06286E-02 8.22880E-04-9.15111E-14
 -1      2462 1.04821E-02 8.08123E-04-8.90034E-14
 -1      2463 1.04034E-02 7.63285E-04-8.77041E-14
 -1      2464 1.09200E-02 8.51808E-04-9.65909E-14
 -1      2465 1.07745E-02 8.37461E-04-9.40406E-14
 -1      2466 1.06948E-02 7.92923E-04-9.27146E-14
 -1      2467 1.12098E-02 8.79749E-04-1.01748E-13
 -1      2468 1.10651E-02 8.65915E-04-9.91600E-14
 -1      2469 1.09848E-02 8.21705E-04-9.78045E-14
 -1      2470 1.14985E-02 9.06618E-04-1.06976E-13
 -1      2471 1.13543E-02 8.93323E-04-1.04353E-13
 -1      2472 1.12736E-02 8.49435E-04-1.02972E-13
 -1      2473 1.17862E-02 9.32434E-04-1.12273E-13
 -1      2474 1.16424E-02 9.19658E-04-1.09617E-13
 -1      2475 1.15616E-02 8.76068E-04-1.08209E-13
 -1      2476 1.20732E-02 9.57279E-04-1.17628E-13
 -1      2477 1.19298E-02 9.44975E-04-1.14944E-13
 -1      2478 1.18488E-02 9.01651E-04-1.13512E-13
 -1      2479 1.23597E-02 9.81264E-04-1.23035E-13
 -1      2480 1.22165E-02 9.69374E-04-1.20325E-13
 -1      2481 1.21356E-02 9.26279E-04-1.18872E-13
 -1      2482 1.26459E-02 1.00451E-03-1.28487E-13
 -1      2483 1.25029E-02 9.92976E-04-1.25756E-13
 -1      2484 1.24219E-02 9.50071E-04-1.24284E-13
 -1      2485 1.29319E-02 1.02715E-03-1.33970E-13
 -1      2486 1.27889E-02 1.01590E-03-1.31224E-13
 -1      2487 1.27080E-02 9.73155E-04-1.29739E-13
 -1      2488 1.32177E-02 1.04930E-03-1.39485E-13
 -1      2489 1.30748E-02 1.03828E-03-1.36724E-13
 -1      2490 1.29940E-02 9.95655E-04-1.35228E-13
 -1      2491 1.35034E-02 1.07105E-03-1.45021E-13
 -1      2492 1.33606E-02 1.06022E-03-1.42251E-13
 -1      2493 1.32798E-02 1.01769E-03-1.40746E-13
 -1      2494 1.37891E-02 1.09251E-03-1.50579E-13
 -1      2495 1.36463E-02 1.08181E-03-1.47799E-13
 -1      2496 1.35656E-02 1.03935E-03-1.46289E-13
 -1      2497 1.40748E-02 1.11376E-03-1.56150E-13
 -1      2498 1.39320E-02 1.10316E-03-1.53361E-13
 -1      2499 1.38513E-02 1.06075E-03-1.51848E-13
 -1      2500 1.43604E-02 1.13488E-03-1.61741E-13
 -1      2501 1.42176E-02 1.12433E-03-1.58943E-13
 -1      2502 1.41370E-02 1.08195E-03-1.57427E-13
 -1      2503 1.46461E-02 1.15593E-03-1.67346E-13
 -1      2504 1.45033E-02 1.14541E-03-1.64542E-13
 -1      2505 1.44227E-02 1.10303E-03-1.63022E-13
 -1      2506 1.47940E-02 1.16783E-03-1.70250E-13
 -1      2507 1.46329E-02 8.29183E-04-1.67642E-13
 -1      2508 1.46432E-02 8.71352E-04-1.67781E-13
 -1      2509 1.46123E-02 7.44843E-04-1.67360E-13
 -1      2510 1.46226E-02 7.87012E-04-1.67502E-13
 -1      2511 1.45040E-02 7.99081E-04-1.65130E-13
 -1      2512 1.46740E-02 9.96427E-04-1.68181E-13
 -1      2513 1.46844E-02 1.03859E-03-1.68311E-13
 -1      2514 1.46535E-02 9.13164E-04-1.67914E-13
 -1      2515 1.46637E-02 9.54617E-04-1.68047E-13
 -1      2516 1.45451E-02 9.66625E-04-1.65677E-13
 -1      2517 1.45245E-02 8.83029E-04-1.65407E-13
 -1      2518 1.45919E-02 6.60504E-04-1.67066E-13
 -1      2519 1.46021E-02 7.02673E-04-1.67213E-13
 -1      2520 1.44835E-02 7.14783E-04-1.64840E-13
 -1      2521 1.45717E-02 5.76167E-04-1.66767E-13
 -1      2522 1.45818E-02 6.18335E-04-1.66919E-13
 -1      2523 1.44631E-02 6.30490E-04-1.64543E-13
 -1      2524 1.45515E-02 4.91829E-04-1.66462E-13
 -1      2525 1.45616E-02 5.33998E-04-1.66614E-13
 -1      2526 1.44429E-02 5.46200E-04-1.64238E-13
 -1      2527 1.45319E-02 4.08921E-04-1.66151E-13
 -1      2528 1.45417E-02 4.50375E-04-1.66307E-13
 -1      2529 1.44230E-02 4.62622E-04-1.63930E-13
 -1      2530 1.45121E-02 3.24582E-04-1.65833E-13
 -1      2531 1.45220E-02 3.66751E-04-1.65994E-13
 -1      2532 1.44032E-02 3.79038E-04-1.63617E-13
 -1      2533 1.44923E-02 2.40246E-04-1.65507E-13
 -1      2534 1.45022E-02 2.82413E-04-1.65672E-13
 -1      2535 1.43834E-02 2.94734E-04-1.63295E-13
 -1      2536 1.44727E-02 1.55916E-04-1.65176E-13
 -1      2537 1.44825E-02 1.98079E-04-1.65341E-13
 -1      2538 1.43637E-02 2.10426E-04-1.62965E-13
 -1      2539 1.45332E-02 8.71271E-05-1.66427E-13
 -1      2540 7.07858E-03 5.59998E-04-3.68331E-14
 -1      2541 7.27320E-03 4.57147E-04-3.77182E-14
 -1      2542 1.61638E-03 4.38980E-04-2.48366E-15
 -1      2543 1.47022E-03 4.26045E-04-2.05215E-15
 -1      2544 1.67113E-03 4.07890E-04-2.78431E-15
 -1      2545 7.49207E-03 3.54609E-04-3.85520E-14
 -1      2546 7.66102E-03 2.86553E-04-3.91603E-14
 -1      2547 7.94775E-03 1.14867E-04-3.99109E-14
 -1      2548 7.83516E-03 8.56733E-05-3.95377E-14
 -1      2549 8.05675E-03 1.42281E-04-4.04154E-14
 -1      2550 8.01379E-03 1.32915E-04-4.01631E-14
 -1      2551 7.98527E-03 1.26896E-04-4.10127E-14
 -1      2552 5.20044E-03-7.07068E-04-2.44553E-14
 -1      2553 5.03145E-03-6.09804E-04-2.36698E-14
 -1      2554 4.03873E-03 2.57064E-04-2.03739E-14
 -1      2555 4.23170E-03 3.42040E-04-2.09425E-14
 -1      2556 5.37496E-04-1.79653E-05-5.28006E-16
 -1      2557 5.38704E-04-3.10464E-05-5.22707E-16
 -1      2558 6.51980E-04-4.47990E-05-7.04108E-16
 -1      2559 6.48816E-04-1.36507E-05-7.17891E-16
 -1      2560 5.97484E-03 1.12403E-03-2.99680E-14
 -1      2561 6.13845E-03 1.07672E-03-3.12049E-14
 -1      2562 4.91857E-03 7.22853E-04-2.31471E-14
 -1      2563 5.12999E-03 8.55377E-04-2.42000E-14
 -1      2564 5.67191E-03 1.11376E-03-2.76715E-14
 -1      2565 5.79179E-03 1.13408E-03-2.85801E-14
 -1      2566 3.53597E-03 7.19548E-05-1.92973E-14
 -1      2567 3.51113E-03 7.95004E-05-1.91829E-14
 -1      2568 5.35094E-03 9.80607E-04-2.55307E-14
 -1      2569 5.51820E-03 1.06346E-03-2.66200E-14
 -1      2570 4.43543E-03 4.42468E-04-2.14898E-14
 -1      2571 4.64030E-03 5.57086E-04-2.21105E-14
 -1      2572 3.73528E-03 1.48811E-04-1.95578E-14
 -1      2573 3.85708E-03 1.86594E-04-1.98623E-14
 -1      2574 6.16631E-03-7.58908E-04-3.12045E-14
 -1      2575 6.02703E-03-8.20716E-04-3.01719E-14
 -1      2576 3.52993E-03 9.38268E-05-1.91351E-14
 -1      2577 3.60760E-03 1.11733E-04-1.92849E-14
 -1      2578 3.70793E-03 2.42179E-05-1.96627E-14
 -1      2579 3.60175E-03 5.19457E-05-1.94250E-14
 -1      2580 3.96335E-03-6.17709E-05-2.00857E-14
 -1      2581 3.82486E-03-1.31833E-05-1.98730E-14
 -1      2582 3.73923E-03 1.15444E-05-1.91709E-14
 -1      2583 4.41284E-03-2.65117E-04-2.10835E-14
 -1      2584 4.19387E-03-1.58910E-04-2.04568E-14
 -1      2585 4.84921E-03-5.06228E-04-2.28464E-14
 -1      2586 4.66124E-03-3.96855E-04-2.20397E-14
 -1      2587 4.92058E-03-5.55134E-04-2.27755E-14
 -1      2588 5.52167E-03-8.47154E-04-2.64070E-14
 -1      2589 5.40312E-03-8.03579E-04-2.55714E-14
 -1      2590 5.85267E-03-8.64858E-04-2.89027E-14
 -1      2591 5.68319E-03-8.72981E-04-2.76106E-14
 -1      2592 5.61305E-03-8.71203E-04-2.69925E-14
 -1      2593 5.92155E-03-8.55112E-04-2.94644E-14
 -1      2594 6.52607E-03-5.57381E-04-3.35214E-14
 -1      2595 6.36290E-03-6.56387E-04-3.25246E-14
 -1      2596 6.91477E-03-3.27797E-04-3.55628E-14
 -1      2597 6.73422E-03-4.34232E-04-3.46869E-14
 -1      2598 7.27055E-03-1.38779E-04-3.72922E-14
 -1      2599 7.09249E-03-2.30488E-04-3.64219E-14
 -1      2600 7.00409E-03-2.76904E-04-3.66152E-14
 -1      2601 7.67005E-03 2.99144E-05-3.88941E-14
 -1      2602 7.49832E-03-3.54567E-05-3.82607E-14
 -1      2603 5.95152E-04-2.17162E-04-3.59820E-16
 -1      2604 7.90767E-04-2.77310E-04-5.80753E-16
 -1      2605 8.49718E-04-2.63346E-04-7.30590E-16
 -1      2606 5.84529E-04-1.89107E-04-3.94148E-16
 -1      2607 7.67631E-04 3.08056E-04-5.65913E-16
 -1      2608 6.18869E-04 2.64090E-04-3.81612E-16
 -1      2609 5.91787E-04 2.37563E-04-3.87426E-16
 -1      2610 8.24052E-04 2.93591E-04-7.16983E-16
 -1      2611 6.68538E-03 7.88970E-04-3.46225E-14
 -1      2612 6.86037E-03 6.83463E-04-3.55727E-14
 -1      2613 6.23812E-03 1.04103E-03-3.20658E-14
 -1      2614 6.67675E-04-1.16527E-04-6.51091E-16
 -1      2615 5.53903E-04-1.07470E-04-4.70652E-16
 -1      2616 5.58922E-04-1.26376E-04-4.52871E-16
 -1      2617 1.37886E-03 3.82329E-04-1.91428E-15
 -1      2618 5.78590E-04 2.06949E-04-4.19898E-16
 -1      2619 6.59454E-03 8.46154E-04-3.44535E-14
 -1      2620 5.75929E-04-1.64209E-04-4.22798E-16
 -1      2621 7.39221E-03-8.14890E-05-3.84635E-14
 -1      2622 7.99047E-03 1.81860E-04-4.07463E-14
 -1      2623 8.04464E-03 1.73044E-04-4.14909E-14
 -1      2624 7.95683E-03 1.95697E-04-4.14063E-14
 -1      2625 7.39502E-03 4.05297E-04-3.89513E-14
 -1      2626 7.74421E-03 2.59668E-04-4.02315E-14
 -1      2627 1.47134E-02 1.12544E-03-1.68730E-13
 -1      2628 5.28632E-03-7.58195E-04-2.46852E-14
 -1      2629 1.46894E-02 1.09117E-03-1.68316E-13
 -1      2630 1.43808E-02 6.14379E-05-1.63398E-13
 -1      2631 1.44391E-02 1.17851E-04-1.64531E-13
 -1      2632 1.43203E-02 1.30212E-04-1.62151E-13
 -1      2633 1.42532E-02 5.41052E-05-1.60858E-13
 -1      2634 4.06375E-03-1.10348E-04-1.97352E-14
 -1      2635 6.98152E-03 6.20003E-04-3.68266E-14
 -1      2636 6.96642E-04 2.25748E-04-5.98940E-16
 -1      2637 8.09082E-03 1.57633E-04-4.16871E-14
 -1      2638 8.08086E-03 1.51945E-04-4.10489E-14
 -1      2639 8.08091E-03 1.49383E-04-4.19064E-14
 -1      2640 7.76933E-03 6.59103E-05-4.01014E-14
 -1      2641 1.45605E-02 1.06099E-03-1.65819E-13
 -1      2642 3.50128E-03 8.41950E-05-1.86680E-14
 -1      2643 3.50304E-03 8.73556E-05-1.81575E-14
 -1      2644 3.48453E-03 7.85700E-05-1.82063E-14
 -1      2645 6.26127E-03-7.13972E-04-3.20575E-14
 -1      2646 3.64549E-03 1.22897E-04-1.88861E-14
 -1      2647 4.31856E-03 3.85293E-04-2.06903E-14
 -1      2648 5.23583E-03 9.23973E-04-2.45745E-14
 -1      2649 3.55870E-03 6.04600E-05-1.88425E-14
 -1      2650 5.58715E-03 1.09317E-03-2.69543E-14
 -1      2651 3.94563E-03 2.20513E-04-1.96521E-14
 -1      2652 4.77870E-03 6.41615E-04-2.22376E-14
 -1      2653 4.88456E-03 7.22611E-04-2.23572E-14
 -1      2654 4.64020E-03 5.70969E-04-2.13483E-14
 -1      2655 5.89598E-03 1.13829E-03-2.93876E-14
 -1      2656 4.51205E-03-3.27369E-04-2.10207E-14
 -1      2657 6.63982E-03-4.91143E-04-3.45643E-14
 -1      2658 1.41904E-02 8.61950E-05-1.59587E-13
 -1      2659 7.67055E-04 6.34587E-05-9.43649E-16
 -1      2660 7.64185E-04 4.54675E-05-9.45885E-16
 -1      2661 7.62235E-04 2.77014E-05-9.45600E-16
 -1      2662 7.61292E-04 1.02861E-05-9.43527E-16
 -1      2663 8.77174E-04 4.07684E-05-1.19734E-15
 -1      2664 7.88966E-04 1.47089E-04-9.07382E-16
 -1      2665 7.81905E-04 1.24052E-04-9.21314E-16
 -1      2666 8.07024E-04 1.99081E-04-8.67226E-16
 -1      2667 7.97358E-04 1.72019E-04-8.89832E-16
 -1      2668 9.13010E-04 1.76936E-04-1.14215E-15
 -1      2669 1.14305E-03 3.19967E-04-1.41951E-15
 -1      2670 9.97348E-04 2.96386E-04-1.10551E-15
 -1      2671 1.43422E-03 3.54810E-04-2.17201E-15
 -1      2672 1.28855E-03 3.39314E-04-1.77480E-15
 -1      2673 1.20003E-03 2.97319E-04-1.63488E-15
 -1      2674 8.11194E-04 2.48496E-04-7.85952E-16
 -1      2675 6.92347E-04-1.79124E-04-5.96609E-16
 -1      2676 1.33263E-03-3.15238E-04-1.78263E-15
 -1      2677 1.47775E-03-3.29150E-04-2.16994E-15
 -1      2678 1.62291E-03-3.40301E-04-2.59673E-15
 -1      2679 1.76830E-03-3.48990E-04-3.06397E-15
 -1      2680 1.53381E-03-3.01294E-04-2.44244E-15
 -1      2681 1.91385E-03-3.55827E-04-3.57182E-15
 -1      2682 2.05976E-03-3.61127E-04-4.11967E-15
 -1      2683 1.82276E-03-3.17747E-04-3.38743E-15
 -1      2684 2.20604E-03-3.65467E-04-4.70778E-15
 -1      2685 2.35287E-03-3.69208E-04-5.33587E-15
 -1      2686 2.11250E-03-3.27545E-04-4.49251E-15
 -1      2687 2.50037E-03-3.72910E-04-6.00342E-15
 -1      2688 2.64871E-03-3.77011E-04-6.71192E-15
 -1      2689 2.40366E-03-3.34037E-04-5.75638E-15
 -1      2690 2.79810E-03-3.82067E-04-7.46023E-15
 -1      2691 2.94870E-03-3.88634E-04-8.24753E-15
 -1      2692 2.69736E-03-3.40767E-04-7.17907E-15
 -1      2693 3.10087E-03-3.97255E-04-9.07447E-15
 -1      2694 3.25473E-03-4.08652E-04-9.94137E-15
 -1      2695 2.99531E-03-3.51657E-04-8.75961E-15
 -1      2696 3.41080E-03-4.23321E-04-1.08480E-14
 -1      2697 3.56907E-03-4.42160E-04-1.17935E-14
 -1      2698 3.29996E-03-3.71223E-04-1.04975E-14
 -1      2699 3.73023E-03-4.65534E-04-1.27778E-14
 -1      2700 3.89392E-03-4.94434E-04-1.38011E-14
 -1      2701 3.61441E-03-4.04753E-04-1.23920E-14
 -1      2702 4.06095E-03-5.28955E-04-1.48631E-14
 -1      2703 4.23028E-03-5.69842E-04-1.59638E-14
 -1      2704 3.94186E-03-4.58190E-04-1.44408E-14
 -1      2705 4.40258E-03-6.16710E-04-1.71045E-14
 -1      2706 4.57583E-03-6.68936E-04-1.82867E-14
 -1      2707 4.28403E-03-5.37278E-04-1.66447E-14
 -1      2708 4.75023E-03-7.25205E-04-1.95096E-14
 -1      2709 4.92330E-03-7.82634E-04-2.07734E-14
 -1      2710 4.63813E-03-6.43535E-04-1.90074E-14
 -1      2711 5.09435E-03-8.38909E-04-2.20804E-14
 -1      2712 5.26227E-03-8.87802E-04-2.34301E-14
 -1      2713 4.99430E-03-7.66852E-04-2.15357E-14
 -1      2714 5.42602E-03-9.26512E-04-2.48252E-14
 -1      2715 5.58752E-03-9.48519E-04-2.62654E-14
 -1      2716 5.33957E-03-8.77165E-04-2.42372E-14
 -1      2717 5.74586E-03-9.52064E-04-2.77498E-14
 -1      2718 5.90582E-03-9.35741E-04-2.92794E-14
 -1      2719 5.66947E-03-9.29393E-04-2.71190E-14
 -1      2720 6.06632E-03-9.00139E-04-3.08546E-14
 -1      2721 6.23126E-03-8.50186E-04-3.24749E-14
 -1      2722 5.99522E-03-8.93335E-04-3.01845E-14
 -1      2723 6.39919E-03-7.88844E-04-3.41404E-14
 -1      2724 6.57050E-03-7.22024E-04-3.58481E-14
 -1      2725 6.33283E-03-7.81912E-04-3.34339E-14
 -1      2726 6.74457E-03-6.52681E-04-3.75958E-14
 -1      2727 6.91845E-03-5.86027E-04-3.93867E-14
 -1      2728 6.68599E-03-6.37179E-04-3.68578E-14
 -1      2729 7.09234E-03-5.23470E-04-4.12141E-14
 -1      2730 7.26402E-03-4.66309E-04-4.30790E-14
 -1      2731 7.04236E-03-4.99239E-04-4.04444E-14
 -1      2732 7.43389E-03-4.15380E-04-4.49811E-14
 -1      2733 7.60054E-03-3.70573E-04-4.69157E-14
 -1      2734 7.39062E-03-3.86000E-04-4.41815E-14
 -1      2735 7.76468E-03-3.31961E-04-4.88847E-14
 -1      2736 7.92570E-03-2.98646E-04-5.08880E-14
 -1      2737 7.72485E-03-3.00271E-04-4.80596E-14
 -1      2738 8.08435E-03-2.70420E-04-5.29224E-14
 -1      2739 8.24050E-03-2.46357E-04-5.49875E-14
 -1      2740 8.04493E-03-2.38040E-04-5.20671E-14
 -1      2741 8.39473E-03-2.26114E-04-5.70844E-14
 -1      2742 8.54715E-03-2.08948E-04-5.92091E-14
 -1      2743 8.35365E-03-1.93574E-04-5.62022E-14
 -1      2744 8.69813E-03-1.94468E-04-6.13627E-14
 -1      2745 8.84786E-03-1.82129E-04-6.35446E-14
 -1      2746 8.65425E-03-1.61853E-04-6.04558E-14
 -1      2747 8.99654E-03-1.71563E-04-6.57561E-14
 -1      2748 9.14437E-03-1.62389E-04-6.79964E-14
 -1      2749 8.94945E-03-1.38836E-04-6.48221E-14
 -1      2750 9.29145E-03-1.54294E-04-7.02630E-14
 -1      2751 9.43795E-03-1.47021E-04-7.25544E-14
 -1      2752 9.24121E-03-1.21433E-04-6.93009E-14
 -1      2753 9.58391E-03-1.40325E-04-7.48728E-14
 -1      2754 9.72947E-03-1.34037E-04-7.72160E-14
 -1      2755 9.53082E-03-1.07348E-04-7.38855E-14
 -1      2756 9.87462E-03-1.27980E-04-7.95845E-14
 -1      2757 1.00195E-02-1.22043E-04-8.19786E-14
 -1      2758 9.81912E-03-9.49325E-05-7.85723E-14
 -1      2759 1.01641E-02-1.16109E-04-8.43979E-14
 -1      2760 1.03084E-02-1.10111E-04-8.68362E-14
 -1      2761 1.01066E-02-8.30477E-05-8.33584E-14
 -1      2762 1.04526E-02-1.03976E-04-8.92974E-14
 -1      2763 1.05966E-02-9.76654E-05-9.17817E-14
 -1      2764 1.03935E-02-7.09503E-05-8.82390E-14
 -1      2765 1.07404E-02-9.11423E-05-9.42864E-14
 -1      2766 1.08841E-02-8.43876E-05-9.68124E-14
 -1      2767 1.06802E-02-5.81919E-05-9.32060E-14
 -1      2768 1.10276E-02-7.73877E-05-9.93581E-14
 -1      2769 1.11711E-02-7.01366E-05-1.01922E-13
 -1      2770 1.09665E-02-4.45374E-05-9.82573E-14
 -1      2771 1.13145E-02-6.26367E-05-1.04504E-13
 -1      2772 1.14578E-02-5.48897E-05-1.07103E-13
 -1      2773 1.12527E-02-2.98990E-05-1.03386E-13
 -1      2774 1.16010E-02-4.69078E-05-1.09721E-13
 -1      2775 1.17442E-02-3.86975E-05-1.12351E-13
 -1      2776 1.15388E-02-1.42852E-05-1.08585E-13
 -1      2777 1.18873E-02-3.02760E-05-1.14997E-13
 -1      2778 1.20303E-02-2.16521E-05-1.17663E-13
 -1      2779 1.18248E-02 2.23641E-06-1.13846E-13
 -1      2780 1.21734E-02-1.28454E-05-1.20343E-13
 -1      2781 1.23164E-02-3.86544E-06-1.23036E-13
 -1      2782 1.21107E-02 1.95663E-05-1.19172E-13
 -1      2783 1.24594E-02 5.26820E-06-1.25750E-13
 -1      2784 1.26023E-02 1.45458E-05-1.28477E-13
 -1      2785 1.23966E-02 3.75915E-05-1.24563E-13
 -1      2786 1.27452E-02 2.39488E-05-1.31219E-13
 -1      2787 1.28882E-02 3.34682E-05-1.33974E-13
 -1      2788 1.26824E-02 5.61973E-05-1.30017E-13
 -1      2789 1.30311E-02 4.30871E-05-1.36743E-13
 -1      2790 1.31739E-02 5.27970E-05-1.39524E-13
 -1      2791 1.29682E-02 7.52748E-05-1.35525E-13
 -1      2792 1.33168E-02 6.25831E-05-1.42318E-13
 -1      2793 1.34597E-02 7.24377E-05-1.45121E-13
 -1      2794 1.32540E-02 9.47240E-05-1.41085E-13
 -1      2795 1.36026E-02 8.23477E-05-1.47931E-13
 -1      2796 1.37454E-02 9.23063E-05-1.50748E-13
 -1      2797 1.35397E-02 1.14456E-04-1.46684E-13
 -1      2798 1.38883E-02 1.02302E-04-1.53576E-13
 -1      2799 1.40312E-02 1.12328E-04-1.56407E-13
 -1      2800 1.38255E-02 1.34391E-04-1.52316E-13
 -1      2801 4.09583E-03-1.46120E-04-1.90634E-14
 -1      2802 3.90325E-03-6.05271E-05-1.87187E-14
 -1      2803 1.42239E-02 1.24245E-04-1.60235E-13
 -1      2804 1.42575E-02 1.62298E-04-1.60881E-13
 -1      2805 1.41275E-02 1.18283E-04-1.58319E-13
 -1      2806 2.01781E-03 3.89605E-04-4.17327E-15
 -1      2807 1.87152E-03 3.84063E-04-3.61127E-15
 -1      2808 2.90905E-03 4.14461E-04-8.39391E-15
 -1      2809 2.75812E-03 4.08609E-04-7.59053E-15
 -1      2810 3.21553E-03 4.33470E-04-1.01188E-14
 -1      2811 3.06145E-03 4.22488E-04-9.23639E-15
 -1      2812 2.95143E-03 3.78870E-04-8.87619E-15
 -1      2813 3.53029E-03 4.67568E-04-1.20018E-14
 -1      2814 3.37176E-03 4.48138E-04-1.10407E-14
 -1      2815 3.25406E-03 3.98043E-04-1.06390E-14
 -1      2816 3.85651E-03 5.24079E-04-1.40433E-14
 -1      2817 3.69192E-03 4.92411E-04-1.30027E-14
 -1      2818 3.56584E-03 4.32606E-04-1.25592E-14
 -1      2819 4.19721E-03 6.10563E-04-1.62467E-14
 -1      2820 4.02522E-03 5.62971E-04-1.51245E-14
 -1      2821 3.89140E-03 4.90271E-04-1.46365E-14
 -1      2822 4.55288E-03 7.32155E-04-1.86181E-14
 -1      2823 4.37378E-03 6.66720E-04-1.74111E-14
 -1      2824 4.23538E-03 5.79837E-04-1.68761E-14
 -1      2825 4.91857E-03 8.84716E-04-2.11618E-14
 -1      2826 4.73588E-03 8.05504E-04-1.98683E-14
 -1      2827 4.59946E-03 7.08529E-04-1.92806E-14
 -1      2828 5.28011E-03 1.04467E-03-2.38889E-14
 -1      2829 5.10086E-03 9.66794E-04-2.25018E-14
 -1      2830 4.97606E-03 8.73197E-04-2.18593E-14
 -1      2831 5.62603E-03 1.16409E-03-2.68072E-14
 -1      2832 5.45476E-03 1.11376E-03-2.53234E-14
 -1      2833 5.34731E-03 1.04358E-03-2.46219E-14
 -1      2834 5.95873E-03 1.19311E-03-2.99244E-14
 -1      2835 5.79145E-03 1.19229E-03-2.83412E-14
 -1      2836 5.69989E-03 1.15797E-03-2.75812E-14
 -1      2837 6.29805E-03 1.12009E-03-3.32380E-14
 -1      2838 6.12555E-03 1.16695E-03-3.15572E-14
 -1      2839 6.04275E-03 1.15846E-03-3.07429E-14
 -1      2840 6.65413E-03 9.86696E-04-3.67358E-14
 -1      2841 6.47377E-03 1.05674E-03-3.49644E-14
 -1      2842 6.39836E-03 1.05003E-03-3.41014E-14
 -1      2843 7.02068E-03 8.45686E-04-4.03994E-14
 -1      2844 6.83788E-03 9.14030E-04-3.85481E-14
 -1      2845 6.77187E-03 8.95876E-04-3.76426E-14
 -1      2846 7.38213E-03 7.30587E-04-4.42101E-14
 -1      2847 7.20348E-03 7.83959E-04-4.22874E-14
 -1      2848 7.14825E-03 7.54176E-04-4.13439E-14
 -1      2849 7.72948E-03 6.51371E-04-4.81556E-14
 -1      2850 7.55801E-03 6.86665E-04-4.61670E-14
 -1      2851 7.50998E-03 6.50577E-04-4.51889E-14
 -1      2852 8.06205E-03 6.05272E-04-5.22250E-14
 -1      2853 7.89771E-03 6.24720E-04-5.01747E-14
 -1      2854 7.85155E-03 5.85712E-04-4.91610E-14
 -1      2855 8.38219E-03 5.85451E-04-5.64200E-14
 -1      2856 8.22356E-03 5.92624E-04-5.43061E-14
 -1      2857 8.17553E-03 5.52336E-04-5.32566E-14
 -1      2858 8.69317E-03 5.84821E-04-6.07321E-14
 -1      2859 8.53867E-03 5.83174E-04-5.85621E-14
 -1      2860 8.48654E-03 5.42047E-04-5.74740E-14
 -1      2861 8.99768E-03 5.97408E-04-6.51614E-14
 -1      2862 8.84609E-03 5.89788E-04-6.29315E-14
 -1      2863 8.78901E-03 5.47899E-04-6.18093E-14
 -1      2864 9.29764E-03 6.18557E-04-6.97046E-14
 -1      2865 9.14812E-03 6.07146E-04-6.74199E-14
 -1      2866 9.08613E-03 5.64568E-04-6.62598E-14
 -1      2867 9.59431E-03 6.44834E-04-7.43543E-14
 -1      2868 9.44630E-03 6.31217E-04-7.20153E-14
 -1      2869 9.37992E-03 5.88089E-04-7.08219E-14
 -1      2870 9.88851E-03 6.73814E-04-7.91057E-14
 -1      2871 9.74165E-03 6.59097E-04-7.67190E-14
 -1      2872 9.67158E-03 6.15591E-04-7.54909E-14
 -1      2873 1.01808E-02 7.03859E-04-8.39536E-14
 -1      2874 1.00348E-02 6.88776E-04-8.15185E-14
 -1      2875 9.96181E-03 6.45065E-04-8.02613E-14
 -1      2876 1.04716E-02 7.33921E-04-8.88900E-14
 -1      2877 1.03263E-02 7.18933E-04-8.64098E-14
 -1      2878 1.02510E-02 6.75161E-04-8.51231E-14
 -1      2879 1.07611E-02 7.63372E-04-9.39116E-14
 -1      2880 1.06164E-02 7.48749E-04-9.13904E-14
 -1      2881 1.05394E-02 7.05022E-04-9.00712E-14
 -1      2882 1.10497E-02 7.91878E-04-9.90158E-14
 -1      2883 1.09055E-02 7.77756E-04-9.64549E-14
 -1      2884 1.08272E-02 7.34144E-04-9.51077E-14
 -1      2885 1.13375E-02 8.19302E-04-1.04192E-13
 -1      2886 1.11937E-02 8.05730E-04-1.01595E-13
 -1      2887 1.11145E-02 7.62271E-04-1.00222E-13
 -1      2888 1.16248E-02 8.45633E-04-1.09438E-13
 -1      2889 1.14812E-02 8.32603E-04-1.06807E-13
 -1      2890 1.14014E-02 7.89313E-04-1.05409E-13
 -1      2891 1.19116E-02 8.70934E-04-1.14746E-13
 -1      2892 1.17682E-02 8.58408E-04-1.12084E-13
 -1      2893 1.16880E-02 8.15287E-04-1.10662E-13
 -1      2894 1.21980E-02 8.95312E-04-1.20113E-13
 -1      2895 1.20548E-02 8.83233E-04-1.17424E-13
 -1      2896 1.19744E-02 8.40269E-04-1.15978E-13
 -1      2897 1.24842E-02 9.18890E-04-1.25531E-13
 -1      2898 1.23412E-02 9.07195E-04-1.22815E-13
 -1      2899 1.22606E-02 8.64370E-04-1.21352E-13
 -1      2900 1.27702E-02 9.41794E-04-1.30991E-13
 -1      2901 1.26273E-02 9.30420E-04-1.28258E-13
 -1      2902 1.25466E-02 8.87717E-04-1.26776E-13
 -1      2903 1.30561E-02 9.64148E-04-1.36485E-13
 -1      2904 1.29132E-02 9.53034E-04-1.33734E-13
 -1      2905 1.28325E-02 9.10431E-04-1.32242E-13
 -1      2906 1.33420E-02 9.86063E-04-1.42007E-13
 -1      2907 1.31991E-02 9.75155E-04-1.39243E-13
 -1      2908 1.31184E-02 9.32633E-04-1.37742E-13
 -1      2909 1.36277E-02 1.00764E-03-1.47555E-13
 -1      2910 1.34848E-02 9.96889E-04-1.44777E-13
 -1      2911 1.34042E-02 9.54429E-04-1.43270E-13
 -1      2912 1.39134E-02 1.02897E-03-1.53121E-13
 -1      2913 1.37706E-02 1.01833E-03-1.50336E-13
 -1      2914 1.36899E-02 9.75915E-04-1.48821E-13
 -1      2915 1.41992E-02 1.05012E-03-1.58706E-13
 -1      2916 1.40563E-02 1.03956E-03-1.55912E-13
 -1      2917 1.39757E-02 9.97177E-04-1.54397E-13
 -1      2918 1.44512E-02 1.06083E-03-1.63658E-13
 -1      2919 1.43084E-02 1.05031E-03-1.60857E-13
 -1      2920 1.42277E-02 1.00794E-03-1.59339E-13
 -1      2921 1.44462E-02 1.00827E-03-1.63650E-13
 -1      2922 5.33093E-03-7.96126E-04-2.47409E-14
 -1      2923 5.15414E-03-7.03385E-04-2.36527E-14
 -1      2924 1.43343E-02 6.00499E-04-1.62021E-13
 -1      2925 1.43445E-02 6.42620E-04-1.62173E-13
 -1      2926 1.43751E-02 7.68996E-04-1.62617E-13
 -1      2927 1.43854E-02 8.11128E-04-1.62761E-13
 -1      2928 1.43141E-02 5.16257E-04-1.61713E-13
 -1      2929 1.43242E-02 5.58378E-04-1.61867E-13
 -1      2930 1.42055E-02 5.70532E-04-1.59501E-13
 -1      2931 1.43546E-02 6.84743E-04-1.62320E-13
 -1      2932 1.43649E-02 7.26868E-04-1.62469E-13
 -1      2933 1.42463E-02 7.38928E-04-1.60105E-13
 -1      2934 1.42258E-02 6.54724E-04-1.59807E-13
 -1      2935 1.42944E-02 4.33437E-04-1.61402E-13
 -1      2936 1.43043E-02 4.74848E-04-1.61558E-13
 -1      2937 1.41855E-02 4.87053E-04-1.59190E-13
 -1      2938 1.42745E-02 3.49179E-04-1.61084E-13
 -1      2939 1.42844E-02 3.91309E-04-1.61243E-13
 -1      2940 1.41657E-02 4.03564E-04-1.58875E-13
 -1      2941 1.42547E-02 2.64906E-04-1.60758E-13
 -1      2942 1.42646E-02 3.07044E-04-1.60921E-13
 -1      2943 1.41458E-02 3.19343E-04-1.58552E-13
 -1      2944 1.42673E-02 2.04444E-04-1.61050E-13
 -1      2945 1.72559E-03 3.76689E-04-3.09022E-15
 -1      2946 1.57980E-03 3.67159E-04-2.61042E-15
 -1      2947 1.48954E-03 3.27157E-04-2.43650E-15
 -1      2948 1.77935E-03 3.45609E-04-3.40170E-15
 -1      2949 5.00575E-03-6.21916E-04-2.28335E-14
 -1      2950 4.84776E-03-5.30067E-04-2.20314E-14
 -1      2951 5.06600E-03-6.78544E-04-2.28831E-14
 -1      2952 7.71547E-03 2.82713E-04-4.12456E-14
 -1      2953 7.84496E-03 2.37284E-04-4.16846E-14
 -1      2954 6.87372E-03 6.97433E-04-3.68073E-14
 -1      2955 7.07074E-03 5.89255E-04-3.80902E-14
 -1      2956 8.03458E-03 1.36037E-04-4.21472E-14
 -1      2957 7.97273E-03 1.22537E-04-4.18862E-14
 -1      2958 5.15089E-03 8.84826E-04-2.37788E-14
 -1      2959 5.34897E-03 9.95927E-04-2.50986E-14
 -1      2960 7.85753E-03 9.01431E-05-4.13058E-14
 -1      2961 7.70880E-03 4.31201E-05-4.06450E-14
 -1      2962 2.60838E-03 4.04217E-04-6.82709E-15
 -1      2963 2.45963E-03 4.00715E-04-6.10323E-15
 -1      2964 2.65454E-03 3.68805E-04-7.26947E-15
 -1      2965 2.31173E-03 3.97436E-04-5.41896E-15
 -1      2966 2.16448E-03 3.93943E-04-4.77573E-15
 -1      2967 2.36110E-03 3.62712E-04-5.81983E-15
 -1      2968 1.04300E-03-2.76973E-04-1.12804E-15
 -1      2969 1.18777E-03-2.97946E-04-1.43546E-15
 -1      2970 1.24555E-03-2.74939E-04-1.65732E-15
 -1      2971 6.52259E-03 9.00490E-04-3.43413E-14
 -1      2972 6.68614E-03 8.01699E-04-3.54531E-14
 -1      2973 7.51172E-03-3.52650E-05-3.98655E-14
 -1      2974 7.30824E-03-1.26890E-04-3.88706E-14
 -1      2975 7.75902E-04 1.02653E-04-9.31479E-16
 -1      2976 7.70983E-04 8.25040E-05-9.38824E-16
 -1      2977 8.84231E-04 8.15939E-05-1.19209E-15
 -1      2978 8.96088E-04 1.26229E-04-1.17449E-15
 -1      2979 3.57188E-03 5.03239E-05-1.82525E-14
 -1      2980 3.50966E-03 6.40426E-05-1.81312E-14
 -1      2981 6.35556E-03-6.69131E-04-3.30137E-14
 -1      2982 6.18424E-03-7.63115E-04-3.16809E-14
 -1      2983 7.71209E-04-7.98956E-05-8.99820E-16
 -1      2984 7.76053E-04-1.00196E-04-8.83421E-16
 -1      2985 3.84950E-03 1.91400E-04-1.88246E-14
 -1      2986 4.01622E-03 2.53714E-04-1.93168E-14
 -1      2987 5.80425E-03 1.15485E-03-2.85785E-14
 -1      2988 5.95878E-03 1.14867E-03-2.99718E-14
 -1      2989 3.57084E-03 1.07032E-04-1.81481E-14
 -1      2990 3.68292E-03 1.36109E-04-1.84077E-14
 -1      2991 4.61787E-03-4.04131E-04-2.09544E-14
 -1      2992 4.39602E-03-2.89746E-04-2.00306E-14
 -1      2993 4.19348E-03 3.33578E-04-1.97851E-14
 -1      2994 4.37000E-03 4.22873E-04-2.03076E-14
 -1      2995 3.74855E-03 1.25117E-06-1.86508E-14
 -1      2996 3.64973E-03 2.98236E-05-1.84516E-14
 -1      2997 3.57355E-03 3.82036E-05-1.77448E-14
 -1      2998 6.74809E-03-4.35361E-04-3.57424E-14
 -1      2999 6.56677E-03-5.47191E-04-3.45539E-14
 -1      3000 7.32785E-03 4.51631E-04-3.94250E-14
 -1      3001 7.51946E-03 3.60825E-04-4.02805E-14
 -1      3002 7.09640E-03-2.34097E-04-3.77021E-14
 -1      3003 6.93961E-03-3.21697E-04-3.68236E-14
 -1      3004 6.18506E-03 1.07785E-03-3.18424E-14
 -1      3005 6.35079E-03 9.96051E-04-3.31348E-14
 -1      3006 7.81930E-04-1.21733E-04-8.64353E-16
 -1      3007 7.88794E-04-1.44779E-04-8.41395E-16
 -1      3008 8.96284E-04-1.23449E-04-1.11002E-15
 -1      3009 8.74924E-04 1.73163E-06-1.19177E-15
 -1      3010 7.61336E-04-7.05900E-06-9.39299E-16
 -1      3011 7.62357E-04-2.45189E-05-9.32956E-16
 -1      3012 8.71279E-04 2.34599E-04-9.43202E-16
 -1      3013 8.12005E-03 1.53073E-04-4.34327E-14
 -1      3014 8.08325E-03 1.46658E-04-4.27890E-14
 -1      3015 8.08627E-03 1.41750E-04-4.36726E-14
 -1      3016 1.40647E-02 1.50366E-04-1.57054E-13
 -1      3017 6.79856E-03 7.61902E-04-3.66864E-14
 -1      3018 3.46948E-03 6.87032E-05-1.76270E-14
 -1      3019 7.93229E-03 2.15554E-04-4.24331E-14
 -1      3020 8.00826E-03 2.02578E-04-4.31858E-14
 -1      3021 7.91866E-03 2.41146E-04-4.34624E-14
 -1      3022 4.20717E-03-2.17642E-04-1.89987E-14
 -1      3023 4.02935E-03-1.65441E-04-1.79965E-14
 -1      3024 4.30042E-03-2.93160E-04-1.89267E-14
 -1      3025 7.24178E-03-1.75769E-04-3.90814E-14
 -1      3026 2.06967E-03 3.56259E-04-4.53007E-15
 -1      3027 5.45239E-03-8.47919E-04-2.55513E-14
 -1      3028 5.32353E-03-8.11607E-04-2.44896E-14
 -1      3029 1.44359E-02 9.66482E-04-1.63516E-13
 -1      3030 1.43266E-02 9.66330E-04-1.61356E-13
 -1      3031 1.44256E-02 9.24695E-04-1.63378E-13
 -1      3032 7.21672E-03 5.28003E-04-3.94018E-14
 -1      3033 7.35771E-03 4.80414E-04-4.07309E-14
 -1      3034 7.12570E-03 6.05935E-04-3.93721E-14
 -1      3035 3.46727E-03 8.74065E-05-1.72363E-14
 -1      3036 3.51360E-03 9.48127E-05-1.76896E-14
 -1      3037 3.52767E-03 1.05980E-04-1.72234E-14
 -1      3038 3.78623E-03-3.51199E-05-1.80045E-14
 -1      3039 6.47767E-03-6.15405E-04-3.41552E-14
 -1      3040 6.00144E-03-8.38778E-04-3.01998E-14
 -1      3041 5.85429E-03-8.77105E-04-2.89286E-14
 -1      3042 1.41066E-02 1.83574E-04-1.57866E-13
 -1      3043 1.42128E-02 2.31684E-04-1.59947E-13
 -1      3044 1.40940E-02 2.44015E-04-1.57578E-13
 -1      3045 1.40102E-02 1.77610E-04-1.55956E-13
 -1      3046 4.07010E-03 2.93903E-04-1.89460E-14
 -1      3047 4.70887E-03-4.81204E-04-2.10043E-14
 -1      3048 7.65293E-03 3.26523E-04-4.17294E-14
 -1      3049 5.62297E-03 1.12259E-03-2.70447E-14
 -1      3050 8.09190E-03 1.65484E-04-4.23510E-14
 -1      3051 8.12379E-03 1.63055E-04-4.32145E-14
 -1      3052 8.08483E-03 1.74670E-04-4.30168E-14
 -1      3053 3.73768E-03 1.63234E-04-1.80828E-14
 -1      3054 7.93077E-03 1.04441E-04-4.24385E-14
 -1      3055 7.63078E-03 1.08701E-06-4.10610E-14
 -1      3056 9.88308E-04 2.39866E-04-1.20840E-15
 -1      3057 4.49521E-03 5.04734E-04-2.04164E-14
 -1      3058 4.60018E-03 5.87709E-04-2.05195E-14
 -1      3059 4.35470E-03 4.51601E-04-1.95067E-14
 -1      3060 1.44003E-02 8.47017E-04-1.63003E-13
 -1      3061 1.44106E-02 8.88798E-04-1.63140E-13
 -1      3062 1.43013E-02 8.88665E-04-1.60981E-13
 -1      3063 1.42714E-02 8.16907E-04-1.60498E-13
 -1      3064 7.64352E-04-4.22902E-05-9.24296E-16
 -1      3065 7.67293E-04-6.07093E-05-9.13223E-16
 -1      3066 8.84583E-04-7.84093E-05-1.14915E-15
 -1      3067 8.77436E-04-3.73464E-05-1.17591E-15
 -1      3068 6.45333E-03 9.56763E-04-3.41076E-14
 -1      3069 6.10347E-03-8.08788E-04-3.11171E-14
 -1      3070 6.85639E-03-3.89235E-04-3.68081E-14
 -1      3071 5.72314E-03-8.88245E-04-2.78186E-14
 -1      3072 5.58135E-03-8.75397E-04-2.66066E-14
 -1      3073 5.56093E-03-8.84937E-04-2.63438E-14
 -1      3074 5.80864E-03-8.90814E-04-2.85222E-14
 -1      3075 8.04422E-04-1.75365E-04-8.19955E-16
 -1      3076 8.27786E-04-2.24159E-04-7.71830E-16
 -1      3077 9.60421E-04-2.53917E-04-9.92126E-16
 -1      3078 9.20416E-04-1.80185E-04-1.06192E-15
 -1      3079 1.02009E-03-2.36303E-04-1.17322E-15
 -1      3080 1.03972E-03 2.07266E-04-1.40322E-15
 -1      3081 1.02848E-03 1.78075E-04-1.42695E-15
 -1      3082 1.44657E-03-2.63672E-04-2.28691E-15
 -1      3083 1.58986E-03-2.73312E-04-2.72421E-15
 -1      3084 6.07038E-03 1.13313E-03-3.09914E-14
 -1      3085 1.73323E-03-2.80862E-04-3.20138E-15
 -1      3086 1.87678E-03-2.86570E-04-3.71884E-15
 -1      3087 1.64562E-03-2.45222E-04-3.01490E-15
 -1      3088 2.02042E-03-2.90900E-04-4.27547E-15
 -1      3089 2.16430E-03-2.94131E-04-4.87208E-15
 -1      3090 1.93018E-03-2.55516E-04-4.05787E-15
 -1      3091 2.30840E-03-2.96723E-04-5.50791E-15
 -1      3092 2.45294E-03-2.99015E-04-6.18292E-15
 -1      3093 2.21503E-03-2.60934E-04-5.25853E-15
 -1      3094 2.59803E-03-3.01455E-04-6.89761E-15
 -1      3095 2.74393E-03-3.04487E-04-7.65193E-15
 -1      3096 2.50066E-03-2.64153E-04-6.61630E-15
 -1      3097 2.89088E-03-3.08539E-04-8.44474E-15
 -1      3098 3.03925E-03-3.14239E-04-9.27634E-15
 -1      3099 2.78836E-03-2.68108E-04-8.12965E-15
 -1      3100 3.18947E-03-3.21980E-04-1.01475E-14
 -1      3101 3.34195E-03-3.32696E-04-1.10578E-14
 -1      3102 3.08044E-03-2.76209E-04-9.79840E-15
 -1      3103 3.49739E-03-3.46732E-04-1.20064E-14
 -1      3104 3.65609E-03-3.65432E-04-1.29935E-14
 -1      3105 3.38057E-03-2.92788E-04-1.16217E-14
 -1      3106 3.81903E-03-3.89023E-04-1.40189E-14
 -1      3107 3.98605E-03-4.19298E-04-1.50828E-14
 -1      3108 3.69391E-03-3.23843E-04-1.35988E-14
 -1      3109 4.15837E-03-4.56389E-04-1.61850E-14
 -1      3110 4.33462E-03-5.01991E-04-1.73262E-14
 -1      3111 4.02621E-03-3.77703E-04-1.57279E-14
 -1      3112 4.51647E-03-5.55849E-04-1.85077E-14
 -1      3113 4.69944E-03-6.17037E-04-1.97298E-14
 -1      3114 4.38214E-03-4.64856E-04-1.80104E-14
 -1      3115 5.30185E-03-8.42441E-04-2.40666E-14
 -1      3116 5.47400E-03-8.87722E-04-2.54767E-14
 -1      3117 5.59357E-03-9.05283E-04-2.65353E-14
 -1      3118 5.76085E-03-9.11084E-04-2.80256E-14
 -1      3119 5.87990E-03-8.95871E-04-2.91433E-14
 -1      3120 6.05011E-03-8.55251E-04-3.07150E-14
 -1      3121 6.21202E-03-7.87933E-04-3.22140E-14
 -1      3122 6.39310E-03-7.11496E-04-3.38755E-14
 -1      3123 6.99410E-03-4.72844E-04-3.96727E-14
 -1      3124 7.17421E-03-4.08997E-04-4.15095E-14
 -1      3125 7.35118E-03-3.53987E-04-4.33817E-14
 -1      3126 7.52229E-03-3.06333E-04-4.52895E-14
 -1      3127 7.31550E-03-3.19463E-04-4.25797E-14
 -1      3128 7.68914E-03-2.66432E-04-4.72315E-14
 -1      3129 7.85115E-03-2.32558E-04-4.92058E-14
 -1      3130 7.65777E-03-2.30232E-04-4.64029E-14
 -1      3131 8.00937E-03-2.04440E-04-5.12125E-14
 -1      3132 8.16408E-03-1.80523E-04-5.32516E-14
 -1      3133 7.97789E-03-1.69238E-04-5.03576E-14
 -1      3134 8.31601E-03-1.60622E-04-5.53206E-14
 -1      3135 8.46562E-03-1.43673E-04-5.74194E-14
 -1      3136 8.28196E-03-1.26962E-04-5.44385E-14
 -1      3137 8.61339E-03-1.29410E-04-5.95480E-14
 -1      3138 8.75975E-03-1.17155E-04-6.17031E-14
 -1      3139 8.57559E-03-9.69669E-05-5.86399E-14
 -1      3140 8.90498E-03-1.06638E-04-6.38871E-14
 -1      3141 9.04942E-03-9.74263E-05-6.60997E-14
 -1      3142 8.86310E-03-7.48802E-05-6.29537E-14
 -1      3143 9.19321E-03-8.92723E-05-6.83402E-14
 -1      3144 9.33660E-03-8.19058E-05-7.06065E-14
 -1      3145 9.14741E-03-5.77851E-05-6.73798E-14
 -1      3146 9.47964E-03-7.51154E-05-7.28974E-14
 -1      3147 9.62250E-03-6.87339E-05-7.52161E-14
 -1      3148 9.43030E-03-4.36391E-05-7.19111E-14
 -1      3149 9.76520E-03-6.25946E-05-7.75606E-14
 -1      3150 9.90785E-03-5.65964E-05-7.99288E-14
 -1      3151 9.71282E-03-3.10011E-05-7.65484E-14
 -1      3152 1.00504E-02-5.06173E-05-8.23238E-14
 -1      3153 1.01930E-02-4.45996E-05-8.47421E-14
 -1      3154 9.99551E-03-1.88658E-05-8.12899E-14
 -1      3155 1.03356E-02-3.84605E-05-8.71823E-14
 -1      3156 1.04782E-02-3.21707E-05-8.96430E-14
 -1      3157 1.02786E-02-6.55894E-06-8.61253E-14
 -1      3158 1.06208E-02-2.56798E-05-9.21253E-14
 -1      3159 1.07634E-02-1.89766E-05-9.46318E-14
 -1      3160 1.05622E-02 6.34179E-06-9.10484E-14
 -1      3161 1.09061E-02-1.20352E-05-9.71569E-14
 -1      3162 1.10488E-02-4.85592E-06-9.97024E-14
 -1      3163 1.08463E-02 2.00704E-05-9.60585E-14
 -1      3164 1.11915E-02 2.56953E-06-1.02268E-13
 -1      3165 1.13343E-02 1.02341E-05-1.04850E-13
 -1      3166 1.11308E-02 3.47255E-05-1.01148E-13
 -1      3167 1.14770E-02 1.81343E-05-1.07448E-13
 -1      3168 1.16198E-02 2.62595E-05-1.10065E-13
 -1      3169 1.14156E-02 5.03133E-05-1.06315E-13
 -1      3170 1.17626E-02 3.45991E-05-1.12697E-13
 -1      3171 1.19055E-02 4.31409E-05-1.15343E-13
 -1      3172 1.17007E-02 6.67809E-05-1.11545E-13
 -1      3173 1.20483E-02 5.18704E-05-1.18005E-13
 -1      3174 1.21911E-02 6.07752E-05-1.20685E-13
 -1      3175 1.19861E-02 8.40414E-05-1.16840E-13
 -1      3176 1.23340E-02 6.98393E-05-1.23380E-13
 -1      3177 1.24769E-02 7.90511E-05-1.26091E-13
 -1      3178 1.22715E-02 1.01992E-04-1.22198E-13
 -1      3179 1.26197E-02 8.83944E-05-1.28814E-13
 -1      3180 1.27626E-02 9.78585E-05-1.31554E-13
 -1      3181 1.25571E-02 1.20524E-04-1.27617E-13
 -1      3182 1.29054E-02 1.07428E-04-1.34307E-13
 -1      3183 1.30483E-02 1.17094E-04-1.37072E-13
 -1      3184 1.28428E-02 1.39536E-04-1.33093E-13
 -1      3185 1.31912E-02 1.26843E-04-1.39851E-13
 -1      3186 1.33341E-02 1.36665E-04-1.42640E-13
 -1      3187 1.31284E-02 1.58930E-04-1.38621E-13
 -1      3188 1.34769E-02 1.46549E-04-1.45440E-13
 -1      3189 1.36198E-02 1.56487E-04-1.48245E-13
 -1      3190 1.34142E-02 1.78622E-04-1.44196E-13
 -1      3191 1.37436E-02 1.62016E-04-1.50685E-13
 -1      3192 1.38865E-02 1.72030E-04-1.53507E-13
 -1      3193 1.39283E-02 2.05215E-04-1.54317E-13
 -1      3194 1.36808E-02 1.94083E-04-1.49431E-13
 -1      3195 5.19019E-03-7.87468E-04-2.32906E-14
 -1      3196 2.99024E-03 3.43689E-04-9.35943E-15
 -1      3197 2.84355E-03 3.38040E-04-8.51740E-15
 -1      3198 3.92038E-03 4.54005E-04-1.52297E-14
 -1      3199 3.75596E-03 4.21402E-04-1.41536E-14
 -1      3200 4.26784E-03 5.45648E-04-1.75023E-14
 -1      3201 4.09121E-03 4.94317E-04-1.63455E-14
 -1      3202 3.94331E-03 4.14854E-04-1.58227E-14
 -1      3203 4.63654E-03 6.63104E-04-2.00755E-14
 -1      3204 4.44590E-03 5.86846E-04-1.88341E-14
 -1      3205 5.40068E-03 1.04492E-03-2.51723E-14
 -1      3206 5.21208E-03 9.59130E-04-2.37526E-14
 -1      3207 6.95403E-03 7.47296E-04-3.87775E-14
 -1      3208 6.75584E-03 8.32213E-04-3.69584E-14
 -1      3209 7.64232E-03 5.72575E-04-4.61648E-14
 -1      3210 7.46752E-03 6.11255E-04-4.42100E-14
 -1      3211 7.97441E-03 5.24207E-04-5.01645E-14
 -1      3212 7.81145E-03 5.44602E-04-4.81502E-14
 -1      3213 7.77758E-03 5.00928E-04-4.71410E-14
 -1      3214 8.28752E-03 5.03700E-04-5.42873E-14
 -1      3215 8.13294E-03 5.11290E-04-5.22113E-14
 -1      3216 8.09591E-03 4.68953E-04-5.11688E-14
 -1      3217 8.58846E-03 5.02328E-04-5.85277E-14
 -1      3218 8.43914E-03 5.01156E-04-5.63931E-14
 -1      3219 8.39651E-03 4.60160E-04-5.53166E-14
 -1      3220 8.88232E-03 5.13891E-04-6.28835E-14
 -1      3221 8.73601E-03 5.06839E-04-6.06911E-14
 -1      3222 8.68703E-03 4.66432E-04-5.95790E-14
 -1      3223 9.17233E-03 5.33940E-04-6.73573E-14
 -1      3224 9.02763E-03 5.23083E-04-6.51053E-14
 -1      3225 8.97252E-03 4.82631E-04-6.39568E-14
 -1      3226 9.46037E-03 5.59265E-04-7.19362E-14
 -1      3227 9.31649E-03 5.46098E-04-6.96339E-14
 -1      3228 9.25591E-03 5.05255E-04-6.84483E-14
 -1      3229 9.74747E-03 5.87554E-04-7.66245E-14
 -1      3230 9.60397E-03 5.73144E-04-7.42671E-14
 -1      3231 9.53875E-03 5.31803E-04-7.30486E-14
 -1      3232 1.00341E-02 6.17190E-04-8.14099E-14
 -1      3233 9.89080E-03 6.02273E-04-7.90052E-14
 -1      3234 9.82177E-03 5.60466E-04-7.77544E-14
 -1      3235 1.03205E-02 6.47087E-04-8.62858E-14
 -1      3236 1.01773E-02 6.32150E-04-8.38375E-14
 -1      3237 1.01052E-02 5.89973E-04-8.25554E-14
 -1      3238 1.06068E-02 6.76561E-04-9.12505E-14
 -1      3239 1.04637E-02 6.61903E-04-8.87581E-14
 -1      3240 1.03892E-02 6.19466E-04-8.74483E-14
 -1      3241 1.08931E-02 7.05217E-04-9.62989E-14
 -1      3242 1.07499E-02 6.91004E-04-9.37633E-14
 -1      3243 1.06737E-02 6.48407E-04-9.24253E-14
 -1      3244 1.11792E-02 7.32865E-04-1.01424E-13
 -1      3245 1.10361E-02 7.19171E-04-9.88526E-14
 -1      3246 1.09585E-02 6.76492E-04-9.74854E-14
 -1      3247 1.14653E-02 7.59453E-04-1.06622E-13
 -1      3248 1.13222E-02 7.46290E-04-1.04013E-13
 -1      3249 1.12436E-02 7.03587E-04-1.02624E-13
 -1      3250 1.17513E-02 7.85017E-04-1.11883E-13
 -1      3251 1.16083E-02 7.72359E-04-1.09244E-13
 -1      3252 1.15290E-02 7.29669E-04-1.07831E-13
 -1      3253 1.20372E-02 8.09644E-04-1.17208E-13
 -1      3254 1.18943E-02 7.97442E-04-1.14538E-13
 -1      3255 1.18145E-02 7.54789E-04-1.13102E-13
 -1      3256 1.23231E-02 8.33447E-04-1.22589E-13
 -1      3257 1.21802E-02 8.21642E-04-1.19892E-13
 -1      3258 1.21001E-02 7.79038E-04-1.18434E-13
 -1      3259 1.26090E-02 8.56546E-04-1.28020E-13
 -1      3260 1.24661E-02 8.45078E-04-1.25298E-13
 -1      3261 1.23857E-02 8.02526E-04-1.23824E-13
 -1      3262 1.28948E-02 8.79062E-04-1.33491E-13
 -1      3263 1.27519E-02 8.67871E-04-1.30750E-13
 -1      3264 1.26714E-02 8.25370E-04-1.29261E-13
 -1      3265 1.31806E-02 9.01107E-04-1.38997E-13
 -1      3266 1.30377E-02 8.90138E-04-1.36240E-13
 -1      3267 1.29572E-02 8.47682E-04-1.34740E-13
 -1      3268 1.34664E-02 9.22782E-04-1.44531E-13
 -1      3269 1.33235E-02 9.11986E-04-1.41761E-13
 -1      3270 1.32429E-02 8.69568E-04-1.40252E-13
 -1      3271 1.37521E-02 9.44178E-04-1.50089E-13
 -1      3272 1.36093E-02 9.33511E-04-1.47305E-13
 -1      3273 1.35286E-02 8.91122E-04-1.45791E-13
 -1      3274 1.40379E-02 9.65374E-04-1.55668E-13
 -1      3275 1.38950E-02 9.54797E-04-1.52876E-13
 -1      3276 1.38144E-02 9.12428E-04-1.51355E-13
 -1      3277 1.42369E-02 9.65955E-04-1.59587E-13
 -1      3278 1.41276E-02 9.65775E-04-1.57436E-13
 -1      3279 1.40470E-02 9.23417E-04-1.55913E-13
 -1      3280 1.42266E-02 9.24185E-04-1.59449E-13
 -1      3281 1.40569E-02 4.57521E-04-1.56670E-13
 -1      3282 1.40668E-02 4.98879E-04-1.56826E-13
 -1      3283 1.40769E-02 5.40948E-04-1.56984E-13
 -1      3284 1.40870E-02 5.83015E-04-1.57141E-13
 -1      3285 1.39482E-02 5.11394E-04-1.54472E-13
 -1      3286 4.99057E-03 7.99142E-04-2.27150E-14
 -1      3287 5.10375E-03 8.82751E-04-2.32047E-14
 -1      3288 6.99983E-03-3.34790E-04-3.82975E-14
 -1      3289 6.83281E-03-4.36195E-04-3.71888E-14
 -1      3290 3.93715E-03 2.60403E-04-1.79519E-14
 -1      3291 4.09060E-03 3.30120E-04-1.83953E-14
 -1      3292 3.44999E-03 5.95322E-05-1.69497E-14
 -1      3293 3.43352E-03 7.18732E-05-1.70234E-14
 -1      3294 3.76111E-03-6.12169E-05-1.71264E-14
 -1      3295 3.64075E-03-7.87004E-06-1.70705E-14
 -1      3296 5.49394E-03 1.07387E-03-2.60080E-14
 -1      3297 2.69789E-03 3.34034E-04-7.71388E-15
 -1      3298 2.55289E-03 3.31079E-04-6.94936E-15
 -1      3299 2.73851E-03 2.99908E-04-8.16107E-15
 -1      3300 7.75828E-03 3.61004E-05-4.24300E-14
 -1      3301 7.58432E-03-3.49157E-05-4.16293E-14
 -1      3302 1.40369E-02 3.73364E-04-1.56349E-13
 -1      3303 1.40469E-02 4.15445E-04-1.56511E-13
 -1      3304 1.39281E-02 4.27309E-04-1.54153E-13
 -1      3305 1.40171E-02 2.89178E-04-1.56022E-13
 -1      3306 1.40270E-02 3.31275E-04-1.56186E-13
 -1      3307 1.39081E-02 3.43197E-04-1.53826E-13
 -1      3308 1.15179E-03 2.68579E-04-1.57162E-15
 -1      3309 1.08488E-03 2.32976E-04-1.47021E-15
 -1      3310 1.20086E-03 2.31187E-04-1.79608E-15
 -1      3311 1.29563E-03 2.85258E-04-1.94419E-15
 -1      3312 3.59618E-03 3.96487E-04-1.31168E-14
 -1      3313 3.44063E-03 3.76947E-04-1.21195E-14
 -1      3314 3.62118E-03 3.58698E-04-1.36753E-14
 -1      3315 1.16087E-03-2.36593E-04-1.53036E-15
 -1      3316 1.30359E-03-2.51510E-04-1.88905E-15
 -1      3317 1.36153E-03-2.27567E-04-2.13019E-15
 -1      3318 2.40841E-03 3.28621E-04-6.22398E-15
 -1      3319 2.26419E-03 3.26242E-04-5.53741E-15
 -1      3320 2.45370E-03 2.95243E-04-6.63103E-15
 -1      3321 6.57404E-03-6.11899E-04-3.54392E-14
 -1      3322 3.28821E-03 3.62449E-04-1.11603E-14
 -1      3323 3.13828E-03 3.51520E-04-1.02402E-14
 -1      3324 3.02552E-03 3.08795E-04-9.84526E-15
 -1      3325 3.31794E-03 3.26379E-04-1.16831E-14
 -1      3326 2.12022E-03 3.23397E-04-4.89120E-15
 -1      3327 1.97629E-03 3.19760E-04-4.28498E-15
 -1      3328 2.16938E-03 2.91137E-04-5.25727E-15
 -1      3329 4.74411E-03-5.53356E-04-2.06250E-14
 -1      3330 4.54168E-03-4.48012E-04-1.95920E-14
 -1      3331 8.01402E-03 1.14870E-04-4.39419E-14
 -1      3332 7.90835E-03 8.51799E-05-4.33461E-14
 -1      3333 4.85313E-03 7.30655E-04-2.18052E-14
 -1      3334 7.37211E-03-1.40575E-04-4.06794E-14
 -1      3335 7.18387E-03-2.33793E-04-3.94819E-14
 -1      3336 7.14963E-03-2.89229E-04-3.98711E-14
 -1      3337 3.55945E-03 2.57858E-05-1.71096E-14
 -1      3338 3.49459E-03 4.16668E-05-1.69193E-14
 -1      3339 3.42663E-03 4.82002E-05-1.63299E-14
 -1      3340 3.53768E-03 6.80348E-08-1.62590E-14
 -1      3341 9.93645E-04 5.56719E-05-1.47912E-15
 -1      3342 9.90916E-04 3.39854E-05-1.47868E-15
 -1      3343 3.62692E-03 1.43579E-04-1.71606E-14
 -1      3344 3.77420E-03 1.92625E-04-1.75566E-14
 -1      3345 3.79569E-03 2.27335E-04-1.70276E-14
 -1      3346 7.59602E-03 3.75536E-04-4.22449E-14
 -1      3347 7.77075E-03 3.07053E-04-4.32309E-14
 -1      3348 9.99640E-04-1.98970E-04-1.20875E-15
 -1      3349 1.07987E-03-2.17852E-04-1.36485E-15
 -1      3350 9.81552E-04-1.64622E-04-1.23636E-15
 -1      3351 5.03168E-03-7.45236E-04-2.20109E-14
 -1      3352 5.03849E-03-6.98014E-04-2.24204E-14
 -1      3353 4.90495E-03-6.24918E-04-2.16301E-14
 -1      3354 4.84965E-03-6.77457E-04-2.07146E-14
 -1      3355 5.06199E-03 8.86068E-04-2.26815E-14
 -1      3356 6.72332E-03-5.58243E-04-3.68871E-14
 -1      3357 4.86879E-03 7.93627E-04-2.13471E-14
 -1      3358 9.89598E-04 1.26469E-05-1.47536E-15
 -1      3359 9.89703E-04-8.59452E-06-1.46892E-15
 -1      3360 1.10532E-03 2.52599E-05-1.78889E-15
 -1      3361 8.13398E-03 1.39894E-04-4.52493E-14
 -1      3362 8.07894E-03 1.29685E-04-4.45943E-14
 -1      3363 8.07355E-03 1.13269E-04-4.55166E-14
 -1      3364 8.14830E-03 1.60991E-04-4.41056E-14
 -1      3365 8.16881E-03 1.58396E-04-4.49996E-14
 -1      3366 8.16680E-03 1.68035E-04-4.47804E-14
 -1      3367 1.88478E-03 2.84353E-04-4.04173E-15
 -1      3368 1.83248E-03 3.14792E-04-3.71919E-15
 -1      3369 1.68862E-03 3.08212E-04-3.19325E-15
 -1      3370 6.25331E-03 1.07895E-03-3.26544E-14
 -1      3371 7.86736E-03 2.78783E-04-4.39895E-14
 -1      3372 7.95599E-03 2.58416E-04-4.47531E-14
 -1      3373 7.82273E-03 3.22050E-04-4.45157E-14
 -1      3374 4.35832E-03-3.77617E-04-1.85679E-14
 -1      3375 9.65320E-04-1.13377E-04-1.28983E-15
 -1      3376 9.72779E-04-1.38239E-04-1.26516E-15
 -1      3377 1.05017E-03-1.53365E-04-1.42987E-15
 -1      3378 6.59057E-03 9.19299E-04-3.56000E-14
 -1      3379 7.52058E-03-9.12787E-05-4.20398E-14
 -1      3380 3.54919E-03 1.25467E-04-1.67149E-14
 -1      3381 3.56764E-03 1.50522E-04-1.62062E-14
 -1      3382 3.48072E-03 1.12759E-04-1.62741E-14
 -1      3383 6.90965E-03-4.80205E-04-3.86652E-14
 -1      3384 4.28272E-03 4.86424E-04-1.82566E-14
 -1      3385 1.56422E-03 3.04444E-04-2.75925E-15
 -1      3386 1.42025E-03 2.93552E-04-2.30970E-15
 -1      3387 1.37154E-03 2.66108E-04-2.22896E-15
 -1      3388 1.61897E-03 2.76525E-04-3.04064E-15
 -1      3389 6.44104E-03 1.00418E-03-3.43642E-14
 -1      3390 7.44009E-03 5.35795E-04-4.29155E-14
 -1      3391 7.28640E-03 6.28755E-04-4.19765E-14
 -1      3392 7.09733E-03 6.92057E-04-4.00945E-14
 -1      3393 1.41174E-02 7.08876E-04-1.57593E-13
 -1      3394 1.41277E-02 7.50958E-04-1.57745E-13
 -1      3395 9.54088E-04-6.74187E-05-1.32850E-15
 -1      3396 9.59065E-04-8.98639E-05-1.31085E-15
 -1      3397 1.03431E-03-1.01787E-04-1.48254E-15
 -1      3398 1.40971E-02 6.24906E-04-1.57294E-13
 -1      3399 1.41072E-02 6.66978E-04-1.57446E-13
 -1      3400 1.39886E-02 6.79020E-04-1.55092E-13
 -1      3401 1.39684E-02 5.95291E-04-1.54786E-13
 -1      3402 7.50231E-03 4.42653E-04-4.22172E-14
 -1      3403 4.70559E-03 6.63504E-04-2.08521E-14
 -1      3404 4.19837E-03 4.01928E-04-1.84878E-14
 -1      3405 1.39517E-02 2.30601E-04-1.54765E-13
 -1      3406 1.39937E-02 2.63791E-04-1.55575E-13
 -1      3407 1.38748E-02 2.75754E-04-1.53214E-13
 -1      3408 1.38280E-02 2.25010E-04-1.52320E-13
 -1      3409 1.40137E-02 7.56721E-04-1.55487E-13
 -1      3410 1.41426E-02 7.86808E-04-1.57991E-13
 -1      3411 1.41575E-02 8.22665E-04-1.58235E-13
 -1      3412 3.85169E-03-1.14736E-04-1.70623E-14
 -1      3413 3.68981E-03-8.11683E-05-1.61528E-14
 -1      3414 3.93677E-03-1.75887E-04-1.69921E-14
 -1      3415 9.97804E-04 7.78826E-05-1.47610E-15
 -1      3416 1.11161E-03 7.19009E-05-1.78972E-15
 -1      3417 1.00333E-03 1.00960E-04-1.46955E-15
 -1      3418 8.08314E-03 1.90318E-04-4.40565E-14
 -1      3419 8.14365E-03 1.84604E-04-4.49309E-14
 -1      3420 8.08319E-03 2.10602E-04-4.50998E-14
 -1      3421 1.01863E-03 1.50806E-04-1.44563E-15
 -1      3422 1.01032E-03 1.25220E-04-1.45974E-15
 -1      3423 1.12439E-03 1.21490E-04-1.77535E-15
 -1      3424 1.14351E-03 1.76186E-04-1.74342E-15
 -1      3425 7.86992E-03 5.54525E-05-4.39279E-14
 -1      3426 1.13962E-03-1.98379E-04-1.56734E-15
 -1      3427 4.72422E-03-5.85749E-04-2.01792E-14
 -1      3428 1.56028E-03-2.11125E-04-2.82792E-15
 -1      3429 1.70125E-03-2.17118E-04-3.31450E-15
 -1      3430 1.84218E-03-2.21571E-04-3.83997E-15
 -1      3431 1.98314E-03-2.24668E-04-4.40506E-15
 -1      3432 1.75665E-03-1.89011E-04-3.62244E-15
 -1      3433 2.12399E-03-2.26754E-04-5.00914E-15
 -1      3434 2.26488E-03-2.28045E-04-5.65212E-15
 -1      3435 2.03559E-03-1.94060E-04-4.75970E-15
 -1      3436 2.40578E-03-2.28888E-04-6.33417E-15
 -1      3437 2.54692E-03-2.29561E-04-7.05550E-15
 -1      3438 2.31382E-03-1.95500E-04-6.05271E-15
 -1      3439 2.68838E-03-2.30385E-04-7.81459E-15
 -1      3440 2.83058E-03-2.31775E-04-8.61279E-15
 -1      3441 2.59168E-03-1.95242E-04-7.50016E-15
 -1      3442 2.97370E-03-2.34008E-04-9.44946E-15
 -1      3443 3.11839E-03-2.37763E-04-1.03246E-14
 -1      3444 2.87047E-03-1.95422E-04-9.10113E-15
 -1      3445 3.26505E-03-2.43253E-04-1.12387E-14
 -1      3446 3.41457E-03-2.51701E-04-1.21903E-14
 -1      3447 3.15286E-03-1.98707E-04-1.08557E-14
 -1      3448 3.56772E-03-2.63237E-04-1.31796E-14
 -1      3449 3.72558E-03-2.80166E-04-1.42072E-14
 -1      3450 3.44356E-03-2.09117E-04-1.27622E-14
 -1      3451 4.17562E-03-3.27956E-04-1.73945E-14
 -1      3452 7.63343E-03-1.91309E-04-4.55718E-14
 -1      3453 7.79548E-03-1.58568E-04-4.75203E-14
 -1      3454 7.95213E-03-1.32643E-04-4.95019E-14
 -1      3455 8.10398E-03-1.10717E-04-5.15136E-14
 -1      3456 7.93239E-03-9.38760E-05-4.86439E-14
 -1      3457 8.25221E-03-9.28224E-05-5.35572E-14
 -1      3458 8.39771E-03-7.75448E-05-5.56300E-14
 -1      3459 8.22714E-03-5.78615E-05-5.26743E-14
 -1      3460 8.54106E-03-6.46895E-05-5.77312E-14
 -1      3461 8.68297E-03-5.34571E-05-5.98621E-14
 -1      3462 8.50991E-03-3.24241E-05-5.68238E-14
 -1      3463 8.82376E-03-4.36975E-05-6.20201E-14
 -1      3464 8.96393E-03-3.49615E-05-6.42053E-14
 -1      3465 8.78696E-03-1.30131E-05-6.10864E-14
 -1      3466 9.10362E-03-2.70865E-05-6.64202E-14
 -1      3467 9.24317E-03-1.98283E-05-6.86615E-14
 -1      3468 9.06180E-03 2.84672E-06-6.54604E-14
 -1      3469 9.38260E-03-1.30279E-05-7.09272E-14
 -1      3470 9.52215E-03-6.55119E-06-7.32194E-14
 -1      3471 9.33646E-03 1.67104E-05-6.99434E-14
 -1      3472 9.66179E-03-2.58523E-07-7.55397E-14
 -1      3473 9.80166E-03 5.92201E-06-7.78850E-14
 -1      3474 9.61201E-03 2.96066E-05-7.45314E-14
 -1      3475 9.94172E-03 1.21031E-05-8.02551E-14
 -1      3476 1.00820E-02 1.83198E-05-8.26510E-14
 -1      3477 9.88895E-03 4.22520E-05-7.92240E-14
 -1      3478 1.02226E-02 2.46561E-05-8.50692E-14
 -1      3479 1.03634E-02 3.11244E-05-8.75098E-14
 -1      3480 1.01674E-02 5.51415E-05-8.40136E-14
 -1      3481 1.05044E-02 3.77824E-05-8.99728E-14
 -1      3482 1.06457E-02 4.46286E-05-9.24558E-14
 -1      3483 1.04473E-02 6.85972E-05-8.88972E-14
 -1      3484 1.07871E-02 5.16984E-05-9.49619E-14
 -1      3485 1.09287E-02 5.89824E-05-9.74870E-14
 -1      3486 1.07284E-02 8.28056E-05-9.38676E-14
 -1      3487 1.10705E-02 6.64988E-05-1.00031E-13
 -1      3488 1.12125E-02 7.42336E-05-1.02598E-13
 -1      3489 1.10107E-02 9.78493E-05-9.89178E-14
 -1      3490 1.13546E-02 8.21926E-05-1.05181E-13
 -1      3491 1.14968E-02 9.03599E-05-1.07779E-13
 -1      3492 1.12939E-02 1.13736E-04-1.04047E-13
 -1      3493 1.16391E-02 9.87329E-05-1.10396E-13
 -1      3494 1.17815E-02 1.07296E-04-1.13028E-13
 -1      3495 1.15778E-02 1.30424E-04-1.09247E-13
 -1      3496 1.19240E-02 1.16040E-04-1.15675E-13
 -1      3497 1.20666E-02 1.24951E-04-1.18338E-13
 -1      3498 1.18622E-02 1.47840E-04-1.14510E-13
 -1      3499 1.22092E-02 1.34017E-04-1.21017E-13
 -1      3500 1.23519E-02 1.43225E-04-1.23714E-13
 -1      3501 1.21471E-02 1.65894E-04-1.19839E-13
 -1      3502 1.24946E-02 1.52563E-04-1.26422E-13
 -1      3503 1.26374E-02 1.62018E-04-1.29146E-13
 -1      3504 1.24322E-02 1.84493E-04-1.25229E-13
 -1      3505 1.27801E-02 1.71579E-04-1.31883E-13
 -1      3506 1.29229E-02 1.81234E-04-1.34634E-13
 -1      3507 1.27176E-02 2.03544E-04-1.30677E-13
 -1      3508 1.30658E-02 1.90973E-04-1.37395E-13
 -1      3509 1.32086E-02 2.00787E-04-1.40170E-13
 -1      3510 1.30031E-02 2.22961E-04-1.36174E-13
 -1      3511 1.33514E-02 2.10664E-04-1.42954E-13
 -1      3512 1.34943E-02 2.20597E-04-1.45749E-13
 -1      3513 1.32888E-02 2.42667E-04-1.41716E-13
 -1      3514 9.69528E-04-2.73697E-05-1.40624E-15
 -1      3515 9.72188E-04-4.87337E-05-1.39423E-15
 -1      3516 1.04588E-03-5.79758E-05-1.57459E-15
 -1      3517 1.08389E-03-1.80159E-05-1.71475E-15
 -1      3518 2.21745E-03 2.59610E-04-5.62717E-15
 -1      3519 2.07709E-03 2.57468E-04-4.97856E-15
 -1      3520 1.27893E-03-1.93404E-04-1.97348E-15
 -1      3521 1.41950E-03-2.03278E-04-2.38117E-15
 -1      3522 1.47740E-03-1.78586E-04-2.64143E-15
 -1      3523 3.95587E-03 3.73226E-04-1.64132E-14
 -1      3524 3.79381E-03 3.41984E-04-1.53044E-14
 -1      3525 7.69206E-03-4.14865E-05-4.37861E-14
 -1      3526 7.50781E-03-1.35608E-04-4.28080E-14
 -1      3527 7.65230E-03 4.42028E-04-4.44678E-14
 -1      3528 8.78161E-03 4.34250E-04-6.06273E-14
 -1      3529 8.64200E-03 4.26945E-04-5.84708E-14
 -1      3530 9.05922E-03 4.53988E-04-6.50288E-14
 -1      3531 8.92049E-03 4.43405E-04-6.28141E-14
 -1      3532 8.87140E-03 4.05351E-04-6.16761E-14
 -1      3533 9.33661E-03 4.78393E-04-6.95384E-14
 -1      3534 9.19781E-03 4.65728E-04-6.72705E-14
 -1      3535 9.14203E-03 4.27514E-04-6.60971E-14
 -1      3536 9.61486E-03 5.05603E-04-7.41588E-14
 -1      3537 9.47557E-03 4.91728E-04-7.18359E-14
 -1      3538 9.41426E-03 4.52949E-04-7.06268E-14
 -1      3539 9.89435E-03 5.34249E-04-7.88820E-14
 -1      3540 9.75442E-03 5.19801E-04-7.65078E-14
 -1      3541 9.68862E-03 4.80324E-04-7.52662E-14
 -1      3542 1.01751E-02 5.63352E-04-8.36985E-14
 -1      3543 1.00346E-02 5.48779E-04-8.12774E-14
 -1      3544 9.96516E-03 5.08624E-04-8.00057E-14
 -1      3545 1.04570E-02 5.92247E-04-8.86063E-14
 -1      3546 1.03159E-02 5.77847E-04-8.61418E-14
 -1      3547 1.02437E-02 5.37105E-04-8.48389E-14
 -1      3548 1.07399E-02 6.20517E-04-9.35982E-14
 -1      3549 1.05983E-02 6.06472E-04-9.10930E-14
 -1      3550 1.05239E-02 5.65257E-04-8.97614E-14
 -1      3551 1.10236E-02 6.47936E-04-9.86717E-14
 -1      3552 1.08816E-02 6.34337E-04-9.61244E-14
 -1      3553 1.08054E-02 5.92761E-04-9.47689E-14
 -1      3554 1.13078E-02 6.74411E-04-1.03822E-13
 -1      3555 1.11656E-02 6.61290E-04-1.01239E-13
 -1      3556 1.10881E-02 6.19450E-04-9.98563E-14
 -1      3557 1.15925E-02 6.99941E-04-1.09038E-13
 -1      3558 1.14501E-02 6.87290E-04-1.06423E-13
 -1      3559 1.13717E-02 6.45263E-04-1.05018E-13
 -1      3560 1.18776E-02 7.24586E-04-1.14319E-13
 -1      3561 1.17350E-02 7.12369E-04-1.11670E-13
 -1      3562 1.16559E-02 6.70216E-04-1.10245E-13
 -1      3563 1.21628E-02 7.48437E-04-1.19661E-13
 -1      3564 1.20202E-02 7.36604E-04-1.16982E-13
 -1      3565 1.19405E-02 6.94371E-04-1.15534E-13
 -1      3566 1.24483E-02 7.71598E-04-1.25059E-13
 -1      3567 1.23055E-02 7.60097E-04-1.22353E-13
 -1      3568 1.22256E-02 7.17814E-04-1.20886E-13
 -1      3569 1.27339E-02 7.94179E-04-1.30505E-13
 -1      3570 1.25911E-02 7.82955E-04-1.27777E-13
 -1      3571 1.25108E-02 7.40646E-04-1.26295E-13
 -1      3572 1.30195E-02 8.16285E-04-1.35989E-13
 -1      3573 1.28767E-02 8.05286E-04-1.33240E-13
 -1      3574 1.27963E-02 7.62964E-04-1.31746E-13
 -1      3575 1.33052E-02 8.38012E-04-1.41508E-13
 -1      3576 1.31624E-02 8.27191E-04-1.38744E-13
 -1      3577 1.30819E-02 7.84865E-04-1.37237E-13
 -1      3578 1.35909E-02 8.59445E-04-1.47054E-13
 -1      3579 1.34481E-02 8.48761E-04-1.44278E-13
 -1      3580 1.33675E-02 8.06435E-04-1.42765E-13
 -1      3581 1.38767E-02 8.80663E-04-1.52624E-13
 -1      3582 1.37338E-02 8.70077E-04-1.49836E-13
 -1      3583 1.36532E-02 8.27751E-04-1.48317E-13
 -1      3584 1.37795E-02 3.13424E-04-1.51308E-13
 -1      3585 1.37894E-02 3.55463E-04-1.51473E-13
 -1      3586 1.38195E-02 4.81517E-04-1.51961E-13
 -1      3587 1.38295E-02 5.23522E-04-1.52121E-13
 -1      3588 3.41656E-03 7.80308E-05-1.65690E-14
 -1      3589 7.21939E-03-2.90174E-04-4.09055E-14
 -1      3590 7.05718E-03-3.80015E-04-3.96967E-14
 -1      3591 1.32398E-03 2.39758E-04-2.14629E-15
 -1      3592 1.27765E-03 2.14393E-04-2.06226E-15
 -1      3593 1.44706E-03 2.46076E-04-2.52821E-15
 -1      3594 7.39848E-03-2.35485E-04-4.27721E-14
 -1      3595 8.50153E-03 4.21722E-04-5.63426E-14
 -1      3596 8.35920E-03 4.19445E-04-5.42427E-14
 -1      3597 8.60094E-03 3.88202E-04-5.73672E-14
 -1      3598 2.77667E-03 2.66619E-04-8.61065E-15
 -1      3599 2.63692E-03 2.64401E-04-7.80720E-15
 -1      3600 8.21466E-03 4.20254E-04-5.21718E-14
 -1      3601 8.06635E-03 4.25848E-04-5.01295E-14
 -1      3602 8.32745E-03 3.78643E-04-5.31728E-14
 -1      3603 1.37994E-02 3.97491E-04-1.51637E-13
 -1      3604 1.38094E-02 4.39507E-04-1.51801E-13
 -1      3605 1.36907E-02 4.51681E-04-1.49456E-13
 -1      3606 1.36707E-02 3.67714E-04-1.49128E-13
 -1      3607 2.49730E-03 2.62732E-04-7.04195E-15
 -1      3608 2.35746E-03 2.61282E-04-6.31518E-15
 -1      3609 2.26450E-03 2.28890E-04-6.00126E-15
 -1      3610 7.97552E-03 6.38804E-05-4.56636E-14
 -1      3611 7.83919E-03 1.77244E-05-4.47228E-14
 -1      3612 7.82200E-03-2.32064E-05-4.55137E-14
 -1      3613 3.63874E-03 3.19787E-04-1.42334E-14
 -1      3614 3.48866E-03 3.02540E-04-1.32013E-14
 -1      3615 3.64837E-03 2.79039E-04-1.47917E-14
 -1      3616 1.41845E-02 8.55482E-04-1.58724E-13
 -1      3617 1.41995E-02 8.91354E-04-1.58964E-13
 -1      3618 1.41097E-02 8.90981E-04-1.57197E-13
 -1      3619 1.40556E-02 8.25354E-04-1.56223E-13
 -1      3620 3.73152E-03 2.32313E-04-1.62674E-14
 -1      3621 3.87565E-03 2.97516E-04-1.66379E-14
 -1      3622 1.12446E-03-1.65795E-04-1.60034E-15
 -1      3623 1.20342E-03-1.81143E-04-1.78443E-15
 -1      3624 1.26310E-03-1.59986E-04-2.00792E-15
 -1      3625 1.11487E-03-1.37922E-04-1.63200E-15
 -1      3626 4.01633E-03-3.24158E-04-1.61052E-14
 -1      3627 3.97528E-03-2.34570E-04-1.66288E-14
 -1      3628 3.80305E-03-1.86610E-04-1.57322E-14
 -1      3629 3.84801E-03-2.95430E-04-1.50117E-14
 -1      3630 7.75828E-03 4.54875E-04-4.61894E-14
 -1      3631 7.81124E-03 3.70832E-04-4.54703E-14
 -1      3632 7.90419E-03 3.42821E-04-4.62461E-14
 -1      3633 7.91759E-03 4.36303E-04-4.81734E-14
 -1      3634 3.36596E-03 7.00808E-05-1.58510E-14
 -1      3635 3.40205E-03 8.61326E-05-1.60554E-14
 -1      3636 8.18310E-03 1.50639E-04-4.59340E-14
 -1      3637 8.19345E-03 1.39765E-04-4.68696E-14
 -1      3638 8.22307E-03 1.59239E-04-4.66205E-14
 -1      3639 8.19003E-03 1.81598E-04-4.58344E-14
 -1      3640 1.93650E-03 2.54414E-04-4.36938E-15
 -1      3641 1.79557E-03 2.50232E-04-3.79994E-15
 -1      3642 1.98760E-03 2.25037E-04-4.70235E-15
 -1      3643 3.35017E-03 5.71463E-05-1.55638E-14
 -1      3644 3.31048E-03 6.44874E-05-1.50691E-14
 -1      3645 1.38599E-02 6.49097E-04-1.52591E-13
 -1      3646 1.38700E-02 6.90936E-04-1.52742E-13
 -1      3647 3.71089E-03-2.28695E-04-1.45625E-14
 -1      3648 2.53930E-03 2.31139E-04-7.45553E-15
 -1      3649 3.39941E-03 1.01266E-04-1.55651E-14
 -1      3650 1.22206E-03 3.92816E-05-2.13223E-15
 -1      3651 1.22039E-03 1.48702E-05-2.12738E-15
 -1      3652 3.05727E-03 2.74462E-04-1.03328E-14
 -1      3653 2.91658E-03 2.69795E-04-9.45237E-15
 -1      3654 2.81243E-03 2.34157E-04-9.06295E-15
 -1      3655 4.04241E-03 3.76991E-04-1.71892E-14
 -1      3656 1.35992E-02 2.20011E-04-1.47812E-13
 -1      3657 1.37230E-02 2.25563E-04-1.50247E-13
 -1      3658 1.37464E-02 2.50921E-04-1.50694E-13
 -1      3659 1.35365E-02 2.52031E-04-1.46562E-13
 -1      3660 8.01603E-03 2.71337E-04-4.61732E-14
 -1      3661 8.04984E-03 2.37994E-04-4.56370E-14
 -1      3662 8.13233E-03 2.24804E-04-4.65255E-14
 -1      3663 1.40200E-02 8.90595E-04-1.55429E-13
 -1      3664 1.37109E-02 5.35440E-04-1.49775E-13
 -1      3665 1.38396E-02 5.65349E-04-1.52278E-13
 -1      3666 1.38497E-02 6.07176E-04-1.52435E-13
 -1      3667 3.58531E-03 1.82681E-04-1.56901E-14
 -1      3668 3.64895E-03 2.42234E-04-1.53146E-14
 -1      3669 3.51028E-03 2.29540E-04-1.42503E-14
 -1      3670 3.50370E-03 1.63087E-04-1.52657E-14
 -1      3671 1.09993E-03-8.63354E-05-1.68252E-15
 -1      3672 1.10666E-03-1.11524E-04-1.65910E-15
 -1      3673 1.17956E-03-1.21348E-04-1.84566E-15
 -1      3674 1.26463E-03 1.83433E-04-2.08783E-15
 -1      3675 8.04852E-03 3.81511E-04-4.91502E-14
 -1      3676 1.39394E-02 8.48266E-04-1.53904E-13
 -1      3677 3.36183E-03 2.53698E-04-1.27312E-14
 -1      3678 3.34257E-03 2.90238E-04-1.22070E-14
 -1      3679 3.19893E-03 2.80942E-04-1.12503E-14
 -1      3680 3.37395E-03 4.17444E-05-1.55364E-14
 -1      3681 1.38849E-02 7.26735E-04-1.52991E-13
 -1      3682 1.38998E-02 7.62543E-04-1.53239E-13
 -1      3683 1.37561E-02 6.96765E-04-1.50498E-13
 -1      3684 1.37698E-02 2.76279E-04-1.51141E-13
 -1      3685 3.60753E-03-1.00162E-04-1.51799E-14
 -1      3686 3.54046E-03-5.62780E-05-1.52450E-14
 -1      3687 8.05166E-03 8.56577E-05-4.63284E-14
 -1      3688 8.03467E-03 5.29902E-05-4.71382E-14
 -1      3689 8.12135E-03 1.02859E-04-4.69969E-14
 -1      3690 7.55702E-03-1.49822E-04-4.38433E-14
 -1      3691 3.47662E-03-1.94262E-05-1.52934E-14
 -1      3692 3.41855E-03 1.00957E-05-1.53348E-14
 -1      3693 3.40398E-03-4.06063E-05-1.43510E-14
 -1      3694 1.23102E-03 8.91881E-05-2.12931E-15
 -1      3695 1.22563E-03 6.39203E-05-2.13290E-15
 -1      3696 1.33982E-03 5.43174E-05-2.50451E-15
 -1      3697 1.36511E-02 2.88597E-04-1.48796E-13
 -1      3698 1.37311E-02 6.19110E-04-1.50091E-13
 -1      3699 1.95008E-03-1.62904E-04-4.51076E-15
 -1      3700 2.08781E-03-1.63802E-04-5.12177E-15
 -1      3701 2.22511E-03-1.63948E-04-5.77115E-15
 -1      3702 2.36211E-03-1.63456E-04-6.45953E-15
 -1      3703 2.13987E-03-1.33943E-04-5.49082E-15
 -1      3704 2.49868E-03-1.62574E-04-7.18589E-15
 -1      3705 2.63512E-03-1.61461E-04-7.95062E-15
 -1      3706 2.40982E-03-1.31970E-04-6.87235E-15
 -1      3707 2.77137E-03-1.60326E-04-8.75375E-15
 -1      3708 2.90799E-03-1.59490E-04-9.59478E-15
 -1      3709 2.67728E-03-1.28254E-04-8.40707E-15
 -1      3710 3.04498E-03-1.59124E-04-1.04741E-14
 -1      3711 3.18329E-03-1.59747E-04-1.13914E-14
 -1      3712 2.94307E-03-1.23942E-04-1.00934E-14
 -1      3713 8.02391E-03 3.48277E-04-4.81462E-14
 -1      3714 8.02396E-03 3.03791E-04-4.71714E-14
 -1      3715 8.11812E-03 2.82657E-04-4.80739E-14
 -1      3716 8.15854E-03 3.45929E-04-5.00996E-14
 -1      3717 9.48878E-03 4.28735E-04-7.17132E-14
 -1      3718 9.35433E-03 4.15603E-04-6.94247E-14
 -1      3719 1.35461E-02 2.89134E-04-1.46732E-13
 -1      3720 8.20753E-03-2.30105E-05-5.17897E-14
 -1      3721 8.34601E-03-1.09999E-05-5.38376E-14
 -1      3722 8.48235E-03-6.98370E-07-5.59156E-14
 -1      3723 8.61787E-03 8.55122E-06-5.80200E-14
 -1      3724 8.45847E-03 3.05479E-05-5.50044E-14
 -1      3725 8.75256E-03 1.68451E-05-6.01528E-14
 -1      3726 8.88716E-03 2.45683E-05-6.23132E-14
 -1      3727 8.72051E-03 4.59084E-05-5.92201E-14
 -1      3728 9.02166E-03 3.18141E-05-6.45010E-14
 -1      3729 9.15648E-03 3.87353E-05-6.67178E-14
 -1      3730 8.98308E-03 5.98111E-05-6.35430E-14
 -1      3731 9.29157E-03 4.54429E-05-6.89609E-14
 -1      3732 9.42717E-03 5.19923E-05-7.12285E-14
 -1      3733 9.24778E-03 7.31495E-05-6.79762E-14
 -1      3734 9.56322E-03 5.84944E-05-7.35230E-14
 -1      3735 9.69984E-03 6.49630E-05-7.58453E-14
 -1      3736 9.51525E-03 8.63785E-05-7.25154E-14
 -1      3737 9.83697E-03 7.14966E-05-7.81923E-14
 -1      3738 9.97466E-03 7.80893E-05-8.05638E-14
 -1      3739 9.78565E-03 9.98063E-05-7.71611E-14
 -1      3740 1.01128E-02 8.48214E-05-8.29604E-14
 -1      3741 1.02515E-02 9.16771E-05-8.53801E-14
 -1      3742 1.00588E-02 1.13662E-04-8.19068E-14
 -1      3743 1.03907E-02 9.87168E-05-8.78220E-14
 -1      3744 1.05303E-02 1.05920E-04-9.02875E-14
 -1      3745 1.03345E-02 1.28106E-04-8.67478E-14
 -1      3746 1.06702E-02 1.13328E-04-9.27732E-14
 -1      3747 1.08106E-02 1.20920E-04-9.52790E-14
 -1      3748 1.06124E-02 1.43232E-04-9.16788E-14
 -1      3749 1.09513E-02 1.28720E-04-9.78050E-14
 -1      3750 1.10923E-02 1.36707E-04-1.00351E-13
 -1      3751 1.08921E-02 1.59078E-04-9.66929E-14
 -1      3752 1.12335E-02 1.44895E-04-1.02916E-13
 -1      3753 1.13750E-02 1.53261E-04-1.05497E-13
 -1      3754 1.11733E-02 1.75637E-04-1.01785E-13
 -1      3755 1.15167E-02 1.61812E-04-1.08097E-13
 -1      3756 1.16585E-02 1.70527E-04-1.10714E-13
 -1      3757 1.14558E-02 1.92869E-04-1.06950E-13
 -1      3758 1.18006E-02 1.79405E-04-1.13347E-13
 -1      3759 1.19428E-02 1.88429E-04-1.15994E-13
 -1      3760 1.17391E-02 2.10712E-04-1.12183E-13
 -1      3761 1.20851E-02 1.97593E-04-1.18658E-13
 -1      3762 1.22275E-02 2.06883E-04-1.21340E-13
 -1      3763 1.20232E-02 2.29095E-04-1.17480E-13
 -1      3764 1.23700E-02 2.16291E-04-1.24037E-13
 -1      3765 1.25125E-02 2.25803E-04-1.26746E-13
 -1      3766 1.23078E-02 2.47940E-04-1.22843E-13
 -1      3767 1.26552E-02 2.35413E-04-1.29470E-13
 -1      3768 1.27978E-02 2.45108E-04-1.32207E-13
 -1      3769 1.25928E-02 2.67171E-04-1.28265E-13
 -1      3770 1.29406E-02 2.54880E-04-1.34955E-13
 -1      3771 1.30833E-02 2.64721E-04-1.37715E-13
 -1      3772 1.28781E-02 2.86719E-04-1.33737E-13
 -1      3773 1.32261E-02 2.74622E-04-1.40483E-13
 -1      3774 1.33689E-02 2.84575E-04-1.43263E-13
 -1      3775 1.31635E-02 3.06519E-04-1.39253E-13
 -1      3776 1.68298E-03 2.50976E-04-3.35758E-15
 -1      3777 1.56042E-03 2.48225E-04-2.91420E-15
 -1      3778 1.51267E-03 2.23073E-04-2.81458E-15
 -1      3779 1.73703E-03 2.23390E-04-3.65231E-15
 -1      3780 2.58024E-03 2.00679E-04-7.87204E-15
 -1      3781 2.44598E-03 1.99956E-04-7.10650E-15
 -1      3782 1.39706E-03-1.47846E-04-2.45593E-15
 -1      3783 1.53542E-03-1.53631E-04-2.91116E-15
 -1      3784 3.25028E-03 5.92470E-05-1.43163E-14
 -1      3785 3.27736E-03 7.29680E-05-1.45901E-14
 -1      3786 1.67378E-03-1.57987E-04-3.40529E-15
 -1      3787 1.81207E-03-1.60998E-04-3.93872E-15
 -1      3788 1.86756E-03-1.33106E-04-4.26304E-15
 -1      3789 9.22080E-03 4.02954E-04-6.71632E-14
 -1      3790 9.08800E-03 3.90817E-04-6.49298E-14
 -1      3791 9.29552E-03 3.79712E-04-6.82276E-14
 -1      3792 1.33540E-03 2.72227E-06-2.49063E-15
 -1      3793 1.21988E-03-9.84736E-06-2.11602E-15
 -1      3794 8.95610E-03 3.79418E-04-6.27221E-14
 -1      3795 8.82473E-03 3.68827E-04-6.05421E-14
 -1      3796 9.03544E-03 3.55658E-04-6.37655E-14
 -1      3797 9.76000E-03 4.55827E-04-7.63710E-14
 -1      3798 9.62397E-03 4.42146E-04-7.40290E-14
 -1      3799 9.56022E-03 4.05296E-04-7.27972E-14
 -1      3800 1.00342E-02 4.83488E-04-8.11270E-14
 -1      3801 9.89672E-03 4.69608E-04-7.87377E-14
 -1      3802 9.82905E-03 4.31766E-04-7.74745E-14
 -1      3803 1.03109E-02 5.11155E-04-8.59778E-14
 -1      3804 1.01722E-02 4.97335E-04-8.35407E-14
 -1      3805 1.01015E-02 4.58576E-04-8.22473E-14
 -1      3806 1.05897E-02 5.38437E-04-9.09165E-14
 -1      3807 1.04501E-02 5.24852E-04-8.84358E-14
 -1      3808 1.03768E-02 4.85298E-04-8.71144E-14
 -1      3809 1.08703E-02 5.65093E-04-9.59373E-14
 -1      3810 1.07298E-02 5.51846E-04-9.34169E-14
 -1      3811 1.06547E-02 5.11632E-04-9.20678E-14
 -1      3812 1.11522E-02 5.90998E-04-1.01038E-13
 -1      3813 1.10111E-02 5.78138E-04-9.84771E-14
 -1      3814 1.09345E-02 5.37393E-04-9.71034E-14
 -1      3815 1.14352E-02 6.16117E-04-1.06211E-13
 -1      3816 1.12936E-02 6.03652E-04-1.03616E-13
 -1      3817 1.12159E-02 5.62491E-04-1.02217E-13
 -1      3818 1.17190E-02 6.40472E-04-1.11448E-13
 -1      3819 1.15770E-02 6.28384E-04-1.08821E-13
 -1      3820 1.14984E-02 5.86905E-04-1.07402E-13
 -1      3821 1.20034E-02 6.64126E-04-1.16750E-13
 -1      3822 1.18611E-02 6.52381E-04-1.14090E-13
 -1      3823 1.17819E-02 6.10662E-04-1.12651E-13
 -1      3824 1.22882E-02 6.87159E-04-1.22111E-13
 -1      3825 1.21457E-02 6.75714E-04-1.19423E-13
 -1      3826 1.20661E-02 6.33818E-04-1.17963E-13
 -1      3827 1.25734E-02 7.09660E-04-1.27527E-13
 -1      3828 1.24307E-02 6.98470E-04-1.24812E-13
 -1      3829 1.23508E-02 6.56446E-04-1.23335E-13
 -1      3830 1.28587E-02 7.31718E-04-1.32986E-13
 -1      3831 1.27160E-02 7.20739E-04-1.30253E-13
 -1      3832 1.26358E-02 6.78625E-04-1.28761E-13
 -1      3833 1.31443E-02 7.53417E-04-1.38488E-13
 -1      3834 1.30015E-02 7.42608E-04-1.35732E-13
 -1      3835 1.29212E-02 7.00430E-04-1.34229E-13
 -1      3836 1.34299E-02 7.74833E-04-1.44022E-13
 -1      3837 1.32871E-02 7.64157E-04-1.41250E-13
 -1      3838 1.32067E-02 7.21935E-04-1.39738E-13
 -1      3839 2.31099E-03 1.99109E-04-6.37896E-15
 -1      3840 2.17509E-03 1.98025E-04-5.68980E-15
 -1      3841 2.35712E-03 1.70322E-04-6.76016E-15
 -1      3842 3.32737E-03 9.53645E-05-1.48326E-14
 -1      3843 3.40574E-03 1.24683E-04-1.50366E-14
 -1      3844 3.40885E-03 1.51936E-04-1.45406E-14
 -1      3845 3.25642E-03 9.07994E-05-1.40862E-14
 -1      3846 8.43309E-03 3.43917E-04-5.41727E-14
 -1      3847 8.30158E-03 3.38947E-04-5.21062E-14
 -1      3848 8.69409E-03 3.59261E-04-5.83912E-14
 -1      3849 8.56348E-03 3.50908E-04-5.62675E-14
 -1      3850 8.52956E-03 3.14915E-04-5.51707E-14
 -1      3851 1.39124E-02 8.15471E-04-1.53416E-13
 -1      3852 1.24730E-03 1.42715E-04-2.10856E-15
 -1      3853 1.23829E-03 1.15376E-04-2.12113E-15
 -1      3854 1.35193E-03 1.07332E-04-2.49680E-15
 -1      3855 3.63929E-03-1.49851E-04-1.48386E-14
 -1      3856 3.31266E-03 2.44809E-05-1.45975E-14
 -1      3857 3.53051E-03-1.45155E-04-1.40432E-14
 -1      3858 1.37873E-03 1.76549E-04-2.46648E-15
 -1      3859 8.22654E-03 1.94640E-04-4.71449E-14
 -1      3860 8.24346E-03 1.77554E-04-4.69914E-14
 -1      3861 1.34835E-02 3.21087E-04-1.45485E-13
 -1      3862 1.37835E-02 7.85426E-04-1.50926E-13
 -1      3863 2.03849E-03 1.96324E-04-5.03993E-15
 -1      3864 1.90115E-03 1.93912E-04-4.42865E-15
 -1      3865 2.08929E-03 1.68334E-04-5.38180E-15
 -1      3866 1.49019E-03 1.78010E-04-2.84564E-15
 -1      3867 8.27250E-03 3.08471E-04-5.10750E-14
 -1      3868 3.32297E-03-1.61636E-04-1.23456E-14
 -1      3869 3.46577E-03-1.66118E-04-1.33371E-14
 -1      3870 3.08545E-03 2.40548E-04-1.08217E-14
 -1      3871 8.00603E-03-2.36316E-05-4.85478E-14
 -1      3872 8.13747E-03 2.58385E-05-4.96658E-14
 -1      3873 2.84630E-03 2.02919E-04-9.51687E-15
 -1      3874 2.71355E-03 2.01620E-04-8.67531E-15
 -1      3875 2.62033E-03 1.71421E-04-8.29080E-15
 -1      3876 7.86223E-03-4.22249E-05-4.65782E-14
 -1      3877 1.36406E-02 7.74882E-04-1.48142E-13
 -1      3878 1.20002E-03-3.15189E-05-2.03907E-15
 -1      3879 1.59361E-03-1.28410E-04-3.18984E-15
 -1      3880 3.40427E-03-9.89931E-05-1.35950E-14
 -1      3881 1.45854E-03 7.02256E-05-2.90527E-15
 -1      3882 1.45416E-03 4.34124E-05-2.90395E-15
 -1      3883 8.28035E-03 1.70574E-04-4.79435E-14
 -1      3884 1.45139E-03 1.64043E-05-2.89454E-15
 -1      3885 1.45110E-03-1.05828E-05-2.88010E-15
 -1      3886 1.56791E-03 3.09434E-05-3.32751E-15
 -1      3887 8.78022E-03 3.33836E-04-5.94134E-14
 -1      3888 1.35602E-02 7.32635E-04-1.46617E-13
 -1      3889 1.36023E-02 5.89199E-04-1.47597E-13
 -1      3890 1.36125E-02 6.31044E-04-1.47753E-13
 -1      3891 1.35822E-02 5.05704E-04-1.47281E-13
 -1      3892 1.35922E-02 5.47450E-04-1.47439E-13
 -1      3893 1.34736E-02 5.59414E-04-1.45108E-13
 -1      3894 8.24685E-03 1.33458E-04-4.83979E-14
 -1      3895 8.18801E-03 1.19910E-04-4.76967E-14
 -1      3896 8.18113E-03 9.46709E-05-4.85201E-14
 -1      3897 8.20421E-03 2.38581E-04-4.82468E-14
 -1      3898 8.21891E-03 2.14569E-04-4.76974E-14
 -1      3899 8.29400E-03 2.08016E-04-4.88751E-14
 -1      3900 1.35620E-02 4.21845E-04-1.46954E-13
 -1      3901 1.35721E-02 4.63778E-04-1.47117E-13
 -1      3902 1.34535E-02 4.75839E-04-1.44786E-13
 -1      3903 3.38386E-03 1.88727E-04-1.37158E-14
 -1      3904 3.37550E-03 2.21065E-04-1.32231E-14
 -1      3905 3.24186E-03 2.14777E-04-1.22331E-14
 -1      3906 1.35789E-02 6.63981E-04-1.47060E-13
 -1      3907 1.35937E-02 6.99710E-04-1.47311E-13
 -1      3908 1.33830E-02 6.99748E-04-1.43194E-13
 -1      3909 1.34501E-02 6.34013E-04-1.44574E-13
 -1      3910 1.34935E-02 3.63033E-04-1.45655E-13
 -1      3911 3.29660E-03-8.32714E-05-1.29624E-14
 -1      3912 3.35322E-03-6.17762E-05-1.36501E-14
 -1      3913 3.30550E-03-2.94800E-05-1.36981E-14
 -1      3914 3.20937E-03-1.20729E-04-1.19298E-14
 -1      3915 1.25102E-03-1.29825E-04-2.03857E-15
 -1      3916 1.32484E-03-1.39598E-04-2.24400E-15
 -1      3917 1.38483E-03-1.17093E-04-2.48742E-15
 -1      3918 1.24256E-03-1.02395E-04-2.06736E-15
 -1      3919 3.25244E-03 6.55370E-06-1.37456E-14
 -1      3920 3.23082E-03 3.57545E-05-1.39364E-14
 -1      3921 3.17945E-03 4.51718E-05-1.34800E-14
 -1      3922 9.62869E-03 3.82434E-04-7.38782E-14
 -1      3923 9.49681E-03 3.69827E-04-7.15702E-14
 -1      3924 2.05819E-03-1.05408E-04-5.21171E-15
 -1      3925 2.19219E-03-1.04616E-04-5.86651E-15
 -1      3926 8.22088E-03 2.66186E-04-4.92653E-14
 -1      3927 2.32525E-03-1.03245E-04-6.55979E-15
 -1      3928 2.45744E-03-1.01273E-04-7.29133E-15
 -1      3929 2.24497E-03-7.58771E-05-6.24838E-15
 -1      3930 2.58849E-03-9.89010E-05-8.06095E-15
 -1      3931 2.71868E-03-9.60703E-05-8.86841E-15
 -1      3932 2.50517E-03-7.14572E-05-7.71582E-15
 -1      3933 2.84766E-03-9.29741E-05-9.71338E-15
 -1      3934 2.97593E-03-8.96010E-05-1.05960E-14
 -1      3935 2.75958E-03-6.49535E-05-9.33455E-15
 -1      3936 3.11035E-03 2.07788E-04-1.13121E-14
 -1      3937 2.97832E-03 2.04855E-04-1.03956E-14
 -1      3938 2.87848E-03 1.72912E-04-9.97272E-15
 -1      3939 1.33748E-02 3.75211E-04-1.43325E-13
 -1      3940 8.43808E-03 6.03782E-05-5.40931E-14
 -1      3941 8.56411E-03 6.70954E-05-5.61748E-14
 -1      3942 1.16985E-03-5.50000E-05-1.92443E-15
 -1      3943 1.15256E-03-7.64873E-05-1.84535E-15
 -1      3944 8.34381E-03 2.66191E-04-5.12547E-14
 -1      3945 8.69031E-03 7.36172E-05-5.82862E-14
 -1      3946 8.81759E-03 8.00525E-05-6.04213E-14
 -1      3947 8.66175E-03 9.98855E-05-5.73483E-14
 -1      3948 8.94555E-03 8.65392E-05-6.25847E-14
 -1      3949 9.07464E-03 9.30439E-05-6.47751E-14
 -1      3950 8.90879E-03 1.11951E-04-6.16256E-14
 -1      3951 9.20462E-03 9.96731E-05-6.69926E-14
 -1      3952 9.33571E-03 1.06348E-04-6.92375E-14
 -1      3953 9.16183E-03 1.24973E-04-6.60097E-14
 -1      3954 9.46771E-03 1.13169E-04-7.15092E-14
 -1      3955 9.60074E-03 1.20063E-04-7.38060E-14
 -1      3956 9.42037E-03 1.38838E-04-7.05005E-14
 -1      3957 9.73465E-03 1.27122E-04-7.61292E-14
 -1      3958 9.86948E-03 1.34281E-04-7.84783E-14
 -1      3959 9.68378E-03 1.53420E-04-7.50979E-14
 -1      3960 1.00051E-02 1.41618E-04-8.08525E-14
 -1      3961 1.01415E-02 1.49078E-04-8.32512E-14
 -1      3962 9.95147E-03 1.68665E-04-7.97992E-14
 -1      3963 1.02786E-02 1.56723E-04-8.56727E-14
 -1      3964 1.04164E-02 1.64507E-04-8.81173E-14
 -1      3965 1.02228E-02 1.84545E-04-8.45974E-14
 -1      3966 1.05548E-02 1.72477E-04-9.05845E-14
 -1      3967 1.06937E-02 1.80592E-04-9.30718E-14
 -1      3968 1.04973E-02 2.01039E-04-8.94896E-14
 -1      3969 1.08332E-02 1.88885E-04-9.55802E-14
 -1      3970 1.09731E-02 1.97324E-04-9.81072E-14
 -1      3971 1.07744E-02 2.18118E-04-9.44665E-14
 -1      3972 1.11134E-02 2.05928E-04-1.00654E-13
 -1      3973 1.12540E-02 2.14671E-04-1.03219E-13
 -1      3974 1.10535E-02 2.35746E-04-9.95228E-14
 -1      3975 1.13950E-02 2.23564E-04-1.05803E-13
 -1      3976 1.15363E-02 2.32583E-04-1.08404E-13
 -1      3977 1.13344E-02 2.53874E-04-1.04656E-13
 -1      3978 1.16778E-02 2.41734E-04-1.11020E-13
 -1      3979 1.18195E-02 2.50998E-04-1.13654E-13
 -1      3980 1.16165E-02 2.72450E-04-1.09858E-13
 -1      3981 1.19614E-02 2.60375E-04-1.16304E-13
 -1      3982 1.21035E-02 2.69850E-04-1.18970E-13
 -1      3983 1.18997E-02 2.91417E-04-1.15126E-13
 -1      3984 1.22457E-02 2.79421E-04-1.21650E-13
 -1      3985 1.23881E-02 2.89073E-04-1.24348E-13
 -1      3986 1.21837E-02 3.10718E-04-1.20460E-13
 -1      3987 1.25305E-02 2.98804E-04-1.27058E-13
 -1      3988 1.26730E-02 3.08603E-04-1.29782E-13
 -1      3989 1.24683E-02 3.30299E-04-1.25852E-13
 -1      3990 1.28156E-02 3.18466E-04-1.32520E-13
 -1      3991 1.29583E-02 3.28383E-04-1.35266E-13
 -1      3992 1.27533E-02 3.50110E-04-1.31301E-13
 -1      3993 1.30952E-02 3.46730E-04-1.37906E-13
 -1      3994 1.32379E-02 3.56752E-04-1.40669E-13
 -1      3995 1.33065E-02 4.15414E-04-1.41965E-13
 -1      3996 1.30327E-02 3.78470E-04-1.36676E-13
 -1      3997 1.79101E-03 1.96163E-04-3.95327E-15
 -1      3998 1.68018E-03 1.97548E-04-3.50432E-15
 -1      3999 1.84500E-03 1.69315E-04-4.25969E-15
 -1      4000 3.20067E-03-1.18726E-05-1.30658E-14
 -1      4001 1.46528E-03 9.76602E-05-2.90143E-15
 -1      4002 1.57829E-03 8.67574E-05-3.33407E-15
 -1      4003 1.47424E-03 1.26013E-04-2.89191E-15
 -1      4004 8.85930E-03 3.11393E-04-6.04315E-14
 -1      4005 8.73679E-03 3.00877E-04-5.82852E-14
 -1      4006 8.35562E-03 1.82985E-04-4.96995E-14
 -1      4007 8.33004E-03 1.62765E-04-4.93173E-14
 -1      4008 7.72723E-03-1.01802E-04-4.56174E-14
 -1      4009 1.78809E-03-1.04688E-04-4.01643E-15
 -1      4010 1.92348E-03-1.05435E-04-4.59456E-15
 -1      4011 1.97999E-03-7.80030E-05-4.93368E-15
 -1      4012 9.36628E-03 3.57504E-04-6.92888E-14
 -1      4013 9.23710E-03 3.45377E-04-6.70342E-14
 -1      4014 9.43340E-03 3.35744E-04-7.03471E-14
 -1      4015 1.01671E-02 4.33787E-04-8.33647E-14
 -1      4016 1.00310E-02 4.20869E-04-8.09578E-14
 -1      4017 1.04416E-02 4.59460E-04-8.82482E-14
 -1      4018 1.03040E-02 4.46640E-04-8.57948E-14
 -1      4019 1.02312E-02 4.08894E-04-8.44810E-14
 -1      4020 1.07187E-02 4.84786E-04-9.32175E-14
 -1      4021 1.05799E-02 4.72166E-04-9.07218E-14
 -1      4022 1.05052E-02 4.33471E-04-8.93796E-14
 -1      4023 1.09981E-02 5.09622E-04-9.82672E-14
 -1      4024 1.08582E-02 4.97263E-04-9.57331E-14
 -1      4025 1.07820E-02 4.57771E-04-9.43648E-14
 -1      4026 1.12790E-02 5.33899E-04-1.03397E-13
 -1      4027 1.11384E-02 5.21826E-04-1.00823E-13
 -1      4028 1.10610E-02 4.81681E-04-9.94330E-14
 -1      4029 1.15613E-02 5.57606E-04-1.08592E-13
 -1      4030 1.14200E-02 5.45819E-04-1.05987E-13
 -1      4031 1.13418E-02 5.05149E-04-1.04575E-13
 -1      4032 1.18446E-02 5.80767E-04-1.13853E-13
 -1      4033 1.17029E-02 5.69249E-04-1.11215E-13
 -1      4034 1.16240E-02 5.28165E-04-1.09782E-13
 -1      4035 1.21287E-02 6.03434E-04-1.19177E-13
 -1      4036 1.19866E-02 5.92157E-04-1.16507E-13
 -1      4037 1.19072E-02 5.50751E-04-1.15054E-13
 -1      4038 1.24133E-02 6.25668E-04-1.24559E-13
 -1      4039 1.22709E-02 6.14600E-04-1.21863E-13
 -1      4040 1.21912E-02 5.72947E-04-1.20391E-13
 -1      4041 1.26983E-02 6.47533E-04-1.29994E-13
 -1      4042 1.25558E-02 6.36642E-04-1.27269E-13
 -1      4043 1.24758E-02 5.94804E-04-1.25782E-13
 -1      4044 1.29836E-02 6.69095E-04-1.35471E-13
 -1      4045 1.28409E-02 6.58348E-04-1.32727E-13
 -1      4046 1.27607E-02 6.16373E-04-1.31226E-13
 -1      4047 1.32546E-02 6.89783E-04-1.40705E-13
 -1      4048 1.31119E-02 6.79145E-04-1.37946E-13
 -1      4049 1.30316E-02 6.37073E-04-1.36434E-13
 -1      4050 1.32882E-02 6.56980E-04-1.41393E-13
 -1      4051 2.40359E-03 1.42656E-04-7.14459E-15
 -1      4052 2.27271E-03 1.42060E-04-6.41714E-15
 -1      4053 1.30567E-03-4.84088E-05-2.34951E-15
 -1      4054 8.13575E-03 6.65117E-05-4.85943E-14
 -1      4055 8.30962E-03 5.96105E-05-5.18481E-14
 -1      4056 1.33450E-02 5.29630E-04-1.42624E-13
 -1      4057 1.33550E-02 5.71277E-04-1.42782E-13
 -1      4058 8.61658E-03 2.91034E-04-5.61679E-14
 -1      4059 8.49791E-03 2.81477E-04-5.40769E-14
 -1      4060 8.69385E-03 2.70035E-04-5.71614E-14
 -1      4061 1.51614E-03-1.00396E-04-2.97603E-15
 -1      4062 1.65228E-03-1.03007E-04-3.47691E-15
 -1      4063 1.71157E-03-7.74428E-05-3.77195E-15
 -1      4064 9.10952E-03 3.33668E-04-6.48062E-14
 -1      4065 8.98346E-03 3.22249E-04-6.26057E-14
 -1      4066 9.17864E-03 3.12605E-04-6.58436E-14
 -1      4067 9.89589E-03 4.08000E-04-7.85736E-14
 -1      4068 9.76173E-03 3.95139E-04-7.62137E-14
 -1      4069 9.69446E-03 3.59733E-04-7.49577E-14
 -1      4070 9.96071E-03 3.84227E-04-7.96714E-14
 -1      4071 3.16875E-03-8.59544E-05-1.19872E-14
 -1      4072 3.09628E-03 3.46701E-05-1.26054E-14
 -1      4073 3.12681E-03 5.93105E-05-1.29656E-14
 -1      4074 8.41692E-03 9.43540E-05-5.29849E-14
 -1      4075 1.45487E-03-4.87459E-05-2.85213E-15
 -1      4076 1.42676E-03-7.53303E-05-2.71173E-15
 -1      4077 3.12703E-03-3.45865E-05-1.22080E-14
 -1      4078 3.08838E-03-9.03095E-07-1.22530E-14
 -1      4079 3.13140E-03 1.78696E-04-1.17726E-14
 -1      4080 1.56893E-03-3.59451E-05-3.28729E-15
 -1      4081 1.22436E-03-8.44888E-05-2.04383E-15
 -1      4082 2.66047E-03 1.43616E-04-8.71234E-15
 -1      4083 2.53281E-03 1.43218E-04-7.90958E-15
 -1      4084 2.45077E-03 1.16181E-04-7.53132E-15
 -1      4085 8.43089E-03 2.44031E-04-5.22199E-14
 -1      4086 1.54757E-03 1.53923E-04-3.10632E-15
 -1      4087 1.65980E-03 1.42774E-04-3.55940E-15
 -1      4088 8.93154E-03 2.90630E-04-6.14488E-14
 -1      4089 8.34621E-03 1.46794E-04-5.01646E-14
 -1      4090 1.68527E-03 4.62808E-05-3.79076E-15
 -1      4091 1.68222E-03 1.78425E-05-3.77907E-15
 -1      4092 3.01489E-03 1.60374E-05-1.17727E-14
 -1      4093 3.16321E-03 8.29592E-05-1.31976E-14
 -1      4094 3.21869E-03 1.08204E-04-1.34225E-14
 -1      4095 3.06957E-03 7.42706E-05-1.23362E-14
 -1      4096 1.33214E-02 6.04124E-04-1.42094E-13
 -1      4097 2.14056E-03 1.41123E-04-5.72743E-15
 -1      4098 2.00714E-03 1.39790E-04-5.07678E-15
 -1      4099 2.19260E-03 1.14728E-04-6.07722E-15
 -1      4100 2.94809E-03-4.12657E-05-1.08051E-14
 -1      4101 3.03821E-03-6.85100E-05-1.12168E-14
 -1      4102 3.29328E-03 1.49036E-04-1.35080E-14
 -1      4103 1.29477E-03-9.12689E-05-2.24885E-15
 -1      4104 8.40334E-03 2.20325E-04-5.12442E-14
 -1      4105 8.39279E-03 2.01458E-04-5.06742E-14
 -1      4106 8.46425E-03 1.93947E-04-5.20816E-14
 -1      4107 8.54373E-03 2.36037E-04-5.40647E-14
 -1      4108 1.33206E-02 4.51612E-04-1.42214E-13
 -1      4109 1.33307E-02 4.93433E-04-1.42379E-13
 -1      4110 1.32122E-02 5.05338E-04-1.40061E-13
 -1      4111 1.31837E-02 4.33058E-04-1.39568E-13
 -1      4112 1.67353E-03 1.08129E-04-3.67963E-15
 -1      4113 1.66507E-03 7.93183E-05-3.68472E-15
 -1      4114 1.77690E-03 6.64974E-05-4.16453E-15
 -1      4115 1.74600E-03 1.35269E-04-3.92526E-15
 -1      4116 8.40922E-03 1.20049E-04-5.22128E-14
 -1      4117 8.52619E-03 1.19444E-04-5.44679E-14
 -1      4118 2.90994E-03 1.44787E-04-1.04310E-14
 -1      4119 2.78609E-03 1.44228E-04-9.55297E-15
 -1      4120 2.70116E-03 1.17331E-04-9.13653E-15
 -1      4121 3.17820E-03 1.38078E-04-1.26405E-14
 -1      4122 3.06220E-03 1.34745E-04-1.17067E-14
 -1      4123 1.85465E-03 1.32812E-04-4.39620E-15
 -1      4124 2.16887E-03-4.96774E-05-5.93885E-15
 -1      4125 2.29886E-03-4.78521E-05-6.63621E-15
 -1      4126 2.42721E-03-4.56339E-05-7.37183E-15
 -1      4127 2.55388E-03-4.27434E-05-8.14576E-15
 -1      4128 2.35418E-03-2.06250E-05-7.02951E-15
 -1      4129 2.67850E-03-3.94541E-05-8.95617E-15
 -1      4130 2.80109E-03-3.54013E-05-9.80490E-15
 -1      4131 2.60402E-03-1.51969E-05-8.57963E-15
 -1      4132 1.36548E-03-9.80351E-05-2.46354E-15
 -1      4133 2.91267E-03-6.27072E-07-1.08419E-14
 -1      4134 2.93368E-03 3.51034E-05-1.11710E-14
 -1      4135 8.64178E-03 1.24697E-04-5.65573E-14
 -1      4136 8.76006E-03 1.30280E-04-5.86728E-14
 -1      4137 8.62036E-03 1.47369E-04-5.57625E-14
 -1      4138 8.88040E-03 1.36381E-04-6.08143E-14
 -1      4139 9.00305E-03 1.42763E-04-6.29824E-14
 -1      4140 8.85063E-03 1.59056E-04-6.00000E-14
 -1      4141 9.12750E-03 1.49615E-04-6.51791E-14
 -1      4142 9.25383E-03 1.56676E-04-6.74015E-14
 -1      4143 9.09191E-03 1.72873E-04-6.43450E-14
 -1      4144 9.38169E-03 1.64065E-04-6.96512E-14
 -1      4145 9.51111E-03 1.71626E-04-7.19272E-14
 -1      4146 9.34199E-03 1.88138E-04-6.87986E-14
 -1      4147 9.64183E-03 1.79446E-04-7.42302E-14
 -1      4148 9.77385E-03 1.87411E-04-7.65577E-14
 -1      4149 9.59906E-03 2.04478E-04-7.33579E-14
 -1      4150 9.90699E-03 1.95590E-04-7.89092E-14
 -1      4151 1.00412E-02 2.03897E-04-8.12888E-14
 -1      4152 9.86189E-03 2.21651E-04-7.80202E-14
 -1      4153 1.01764E-02 2.12387E-04-8.36919E-14
 -1      4154 1.03125E-02 2.20992E-04-8.61173E-14
 -1      4155 1.01295E-02 2.39478E-04-8.27828E-14
 -1      4156 1.04493E-02 2.29757E-04-8.85668E-14
 -1      4157 1.05869E-02 2.38626E-04-9.10379E-14
 -1      4158 1.04010E-02 2.57829E-04-8.76416E-14
 -1      4159 1.07252E-02 2.47635E-04-9.35294E-14
 -1      4160 1.08640E-02 2.56739E-04-9.60407E-14
 -1      4161 1.06758E-02 2.76605E-04-9.25901E-14
 -1      4162 1.10034E-02 2.65964E-04-9.85723E-14
 -1      4163 1.11433E-02 2.75276E-04-1.01122E-13
 -1      4164 1.09532E-02 2.95727E-04-9.76185E-14
 -1      4165 1.12836E-02 2.84692E-04-1.03690E-13
 -1      4166 1.14242E-02 2.94185E-04-1.06276E-13
 -1      4167 1.12327E-02 3.15137E-04-1.02723E-13
 -1      4168 1.15652E-02 3.03767E-04-1.08880E-13
 -1      4169 1.17065E-02 3.13415E-04-1.11499E-13
 -1      4170 1.15138E-02 3.34782E-04-1.07899E-13
 -1      4171 1.18480E-02 3.23139E-04-1.14136E-13
 -1      4172 1.19898E-02 3.32919E-04-1.16789E-13
 -1      4173 1.17963E-02 3.54622E-04-1.13143E-13
 -1      4174 1.21317E-02 3.42762E-04-1.19456E-13
 -1      4175 1.22738E-02 3.52654E-04-1.22140E-13
 -1      4176 1.20797E-02 3.74621E-04-1.18452E-13
 -1      4177 1.24161E-02 3.62596E-04-1.24837E-13
 -1      4178 1.25584E-02 3.72577E-04-1.27549E-13
 -1      4179 1.23639E-02 3.94750E-04-1.23822E-13
 -1      4180 1.27009E-02 3.82600E-04-1.30273E-13
 -1      4181 1.28434E-02 3.92655E-04-1.33011E-13
 -1      4182 1.26485E-02 4.14983E-04-1.29247E-13
 -1      4183 1.08445E-02 4.30542E-04-9.55128E-14
 -1      4184 1.07059E-02 4.18928E-04-9.30012E-14
 -1      4185 8.99747E-03 2.71045E-04-6.24641E-14
 -1      4186 8.87827E-03 2.60837E-04-6.02944E-14
 -1      4187 8.37392E-03 1.40233E-04-5.09356E-14
 -1      4188 8.46446E-03 1.60100E-04-5.23870E-14
 -1      4189 9.49717E-03 3.14187E-04-7.14033E-14
 -1      4190 9.36924E-03 3.02989E-04-6.91283E-14
 -1      4191 1.05678E-02 4.07270E-04-9.05107E-14
 -1      4192 1.04305E-02 3.95546E-04-8.80415E-14
 -1      4193 1.06296E-02 3.80740E-04-9.16406E-14
 -1      4194 1.69112E-03-8.98397E-06-3.79944E-15
 -1      4195 1.69604E-03-4.93531E-05-3.76566E-15
 -1      4196 1.82975E-03-4.94524E-05-4.32721E-15
 -1      4197 1.80577E-03 5.89360E-06-4.29641E-15
 -1      4198 1.02940E-02 3.83815E-04-8.55930E-14
 -1      4199 1.01583E-02 3.72047E-04-8.31680E-14
 -1      4200 1.03556E-02 3.58392E-04-8.67050E-14
 -1      4201 1.11235E-02 4.53539E-04-1.00593E-13
 -1      4202 1.09838E-02 4.42073E-04-9.80428E-14
 -1      4203 1.09065E-02 4.03012E-04-9.66582E-14
 -1      4204 1.14043E-02 4.76216E-04-1.05750E-13
 -1      4205 1.12637E-02 4.64915E-04-1.03164E-13
 -1      4206 1.11855E-02 4.25130E-04-1.01754E-13
 -1      4207 1.16864E-02 4.98565E-04-1.10968E-13
 -1      4208 1.15452E-02 4.87429E-04-1.08350E-13
 -1      4209 1.14664E-02 4.47054E-04-1.06923E-13
 -1      4210 1.19696E-02 5.20599E-04-1.16254E-13
 -1      4211 1.18279E-02 5.09618E-04-1.13604E-13
 -1      4212 1.17486E-02 4.68771E-04-1.12155E-13
 -1      4213 1.22536E-02 5.42348E-04-1.21603E-13
 -1      4214 1.21115E-02 5.31506E-04-1.18921E-13
 -1      4215 1.20319E-02 4.90288E-04-1.17455E-13
 -1      4216 1.25382E-02 5.63849E-04-1.27003E-13
 -1      4217 1.23958E-02 5.53127E-04-1.24297E-13
 -1      4218 1.23159E-02 5.11621E-04-1.22813E-13
 -1      4219 1.28231E-02 5.85141E-04-1.32460E-13
 -1      4220 1.26806E-02 5.74518E-04-1.29728E-13
 -1      4221 1.26005E-02 5.32792E-04-1.28230E-13
 -1      4222 8.27196E-03 1.03559E-04-4.99901E-14
 -1      4223 8.20450E-03 8.57130E-05-4.92756E-14
 -1      4224 2.86717E-03-1.70782E-05-1.03946E-14
 -1      4225 9.24320E-03 2.92113E-04-6.68799E-14
 -1      4226 9.11913E-03 2.81372E-04-6.46584E-14
 -1      4227 9.30384E-03 2.71550E-04-6.79126E-14
 -1      4228 1.31931E-02 5.94282E-04-1.39609E-13
 -1      4229 8.76215E-03 2.51306E-04-5.81537E-14
 -1      4230 8.64926E-03 2.41630E-04-5.60412E-14
 -1      4231 8.82281E-03 2.32976E-04-5.91444E-14
 -1      4232 8.51938E-03 1.80638E-04-5.32648E-14
 -1      4233 8.57363E-03 1.64580E-04-5.45755E-14
 -1      4234 8.68270E-03 1.70310E-04-5.66666E-14
 -1      4235 8.57118E-03 2.00244E-04-5.42684E-14
 -1      4236 1.93392E-03-5.03598E-05-4.79182E-15
 -1      4237 2.06609E-03-4.94772E-05-5.42170E-15
 -1      4238 2.12488E-03-2.27106E-05-5.77766E-15
 -1      4239 1.91979E-03-2.21295E-05-4.77941E-15
 -1      4240 9.05794E-03 2.51671E-04-6.34757E-14
 -1      4241 1.91083E-03 1.07262E-04-4.70392E-15
 -1      4242 1.92621E-03 7.26789E-05-4.82927E-15
 -1      4243 2.77542E-03 4.14020E-06-9.83584E-15
 -1      4244 2.97447E-03 1.08335E-04-1.12416E-14
 -1      4245 1.29451E-02 4.03590E-04-1.34967E-13
 -1      4246 1.30820E-02 4.22063E-04-1.37600E-13
 -1      4247 1.30962E-02 4.58155E-04-1.37849E-13
 -1      4248 1.28927E-02 4.36119E-04-1.33930E-13
 -1      4249 1.90132E-03 3.29315E-05-4.73607E-15
 -1      4250 1.90890E-03 5.49654E-06-4.76058E-15
 -1      4251 2.01135E-03 5.28801E-06-5.24811E-15
 -1      4252 1.30722E-02 5.94715E-04-1.37263E-13
 -1      4253 1.29440E-02 5.84812E-04-1.34791E-13
 -1      4254 1.28638E-02 5.42947E-04-1.33284E-13
 -1      4255 1.31055E-02 5.42018E-04-1.37959E-13
 -1      4256 1.30937E-02 4.82046E-04-1.37781E-13
 -1      4257 1.31079E-02 5.18134E-04-1.38026E-13
 -1      4258 1.29871E-02 5.18671E-04-1.35684E-13
 -1      4259 1.29920E-02 4.70982E-04-1.35819E-13
 -1      4260 8.60640E-03 2.18941E-04-5.50335E-14
 -1      4261 2.92523E-03 5.78645E-05-1.11081E-14
 -1      4262 2.96257E-03 8.35714E-05-1.13214E-14
 -1      4263 2.81255E-03 9.19127E-05-1.00747E-14
 -1      4264 2.81350E-03 4.35734E-05-1.02108E-14
 -1      4265 1.00851E-02 3.36093E-04-8.18597E-14
 -1      4266 1.00237E-02 3.60328E-04-8.07663E-14
 -1      4267 9.89009E-03 3.48616E-04-7.83882E-14
 -1      4268 2.49979E-03 9.08729E-05-7.92129E-15
 -1      4269 2.37403E-03 9.00924E-05-7.15706E-15
 -1      4270 9.75774E-03 3.37027E-04-7.60330E-14
 -1      4271 9.62669E-03 3.25499E-04-7.37049E-14
 -1      4272 9.55807E-03 2.92418E-04-7.24561E-14
 -1      4273 9.81891E-03 3.14024E-04-7.71071E-14
 -1      4274 2.21715E-03 4.91282E-05-6.32597E-15
 -1      4275 2.15887E-03 7.38735E-05-5.98555E-15
 -1      4276 2.53488E-03-2.30885E-06-8.17376E-15
 -1      4277 2.65668E-03 7.61849E-07-8.98614E-15
 -1      4278 2.70951E-03 1.62404E-05-9.39983E-15
 -1      4279 1.28662E-02 5.19161E-04-1.33352E-13
 -1      4280 1.27455E-02 5.19599E-04-1.31026E-13
 -1      4281 1.28687E-02 4.95373E-04-1.33418E-13
 -1      4282 9.08064E-03 2.13121E-04-6.39215E-14
 -1      4283 8.96105E-03 2.04747E-04-6.17379E-14
 -1      4284 8.84429E-03 1.97164E-04-5.95826E-14
 -1      4285 9.20280E-03 2.21538E-04-6.61300E-14
 -1      4286 9.32719E-03 2.30490E-04-6.83645E-14
 -1      4287 9.45358E-03 2.39535E-04-7.06283E-14
 -1      4288 9.58176E-03 2.48967E-04-7.29148E-14
 -1      4289 9.71155E-03 2.58478E-04-7.52309E-14
 -1      4290 9.84279E-03 2.68265E-04-7.75727E-14
 -1      4291 9.97534E-03 2.78106E-04-7.99374E-14
 -1      4292 1.01091E-02 2.88142E-04-8.23290E-14
 -1      4293 1.02439E-02 2.98209E-04-8.47431E-14
 -1      4294 1.03796E-02 3.08408E-04-8.71811E-14
 -1      4295 1.05163E-02 3.18620E-04-8.96408E-14
 -1      4296 1.06537E-02 3.28920E-04-9.21211E-14
 -1      4297 1.07918E-02 3.39219E-04-9.46239E-14
 -1      4298 1.09305E-02 3.49574E-04-9.71436E-14
 -1      4299 1.10698E-02 3.59921E-04-9.96852E-14
 -1      4300 1.12096E-02 3.70301E-04-1.02246E-13
 -1      4301 1.13498E-02 3.80668E-04-1.04822E-13
 -1      4302 1.14905E-02 3.91053E-04-1.07416E-13
 -1      4303 1.16314E-02 4.01425E-04-1.10026E-13
 -1      4304 1.17727E-02 4.11805E-04-1.12653E-13
 -1      4305 1.19142E-02 4.22171E-04-1.15298E-13
 -1      4306 1.20559E-02 4.32540E-04-1.17959E-13
 -1      4307 1.21979E-02 4.42897E-04-1.20633E-13
 -1      4308 1.23400E-02 4.53252E-04-1.23322E-13
 -1      4309 1.24822E-02 4.63598E-04-1.26025E-13
 -1      4310 1.26270E-02 4.50266E-04-1.28809E-13
 -1      4311 1.27695E-02 4.60524E-04-1.31537E-13
 -1      4312 2.02863E-03 7.26699E-05-5.32129E-15
 -1      4313 2.28406E-03-6.92951E-06-6.66177E-15
 -1      4314 2.41057E-03-4.82476E-06-7.39922E-15
 -1      4315 2.46729E-03 1.07380E-05-7.77527E-15
 -1      4316 8.67166E-03 2.04912E-04-5.62430E-14
 -1      4317 2.71884E-03 9.16657E-05-9.38723E-15
 -1      4318 2.59764E-03 9.08809E-05-8.55533E-15
 -1      4319 2.52584E-03 6.57261E-05-8.14938E-15
 -1      4320 2.71671E-03 6.65863E-05-9.45760E-15
 -1      4321 2.11302E-03 5.15645E-06-5.75836E-15
 -1      4322 1.28903E-02 4.59934E-04-1.33863E-13
 -1      4323 8.78250E-03 2.12931E-04-5.83559E-14
 -1      4324 2.17371E-03 2.05191E-05-6.09011E-15
 -1      4325 2.38233E-03 3.71386E-05-7.27693E-15
 -1      4326 1.26030E-02 5.09142E-04-1.28298E-13
 -1      4327 2.69744E-03 4.07661E-05-9.34551E-15
 -1      4328 2.50633E-03 3.90694E-05-8.04599E-15
 -1      4329 2.60287E-03 3.97203E-05-8.68375E-15
 -3
    1PSTEP                         2           1           1          
  100CL  101 1.000000000        4329                     0    1           1
 -4  STRESS      6    1
 -5  SXX         1    4    1    1
 -5  SYY         1    4    2    2
 -5  SZZ         1    4    3    3
 -5  SXY         1    4    1    2
 -5  SYZ         1    4    2    3
 -5  SZX         1    4    3    1
 -1         1 6.32457E+01 1.84810E+00 3.42121E+00-8.08347E+00-6.58258E-14 2.60986E-13
 -1         2-7.92163E-01-2.43755E+01-3.32547E+00-2.97219E-01-9.45175E-13 2.12705E-13
 -1         3 2.00000E+01 2.63177E-04-7.90458E-05 2.54528E-04-1.67255E-13-3.14448E-13
 -1         4 2.00000E+01 2.20847E-04-1.06748E-04-2.17658E-04 2.14629E-13 1.16337E-13
 -1         5 3.24145E+01 6.08245E+00 2.65542E+00 6.12837E+00-4.89539E-14 3.45639E-12
 -1         6 3.53164E+01 1.20903E+01 4.98447E+00-8.49945E+00-1.81188E-13 4.08795E-12
 -1         7 2.09427E+01 6.12852E+00-9.99551E-02-4.56413E+00-2.50772E-14 1.18352E-12
 -1         8 1.98453E+01 5.98263E+00 6.51702E-02-3.05245E+00-5.01647E-14 1.79647E-13
 -1         9 1.92934E+01 5.81590E+00 5.63296E-02-2.26513E+00-4.50334E-14-4.10848E-13
 -1        10 1.89877E+01 5.71794E+00 5.19149E-02-1.68043E+00-3.50293E-14-7.41149E-13
 -1        11 1.87848E+01 5.65316E+00 4.59743E-02-1.20613E+00-2.92275E-14-9.25536E-13
 -1        12 1.86429E+01 5.60823E+00 4.02452E-02-8.12105E-01-2.23979E-14-1.02085E-12
 -1        13 1.85465E+01 5.57808E+00 3.56779E-02-4.62129E-01-1.58068E-14-1.07257E-12
 -1        14 1.84977E+01 5.56289E+00 3.32008E-02-1.42626E-01-9.21528E-15-1.10018E-12
 -1        15 1.84975E+01 5.56282E+00 3.30875E-02 1.66348E-01-1.25496E-15-1.12338E-12
 -1        16 1.85464E+01 5.57802E+00 3.54023E-02 4.84889E-01-5.40366E-16-1.13164E-12
 -1        17 1.86443E+01 5.60843E+00 3.99678E-02 8.33838E-01 9.91308E-15-1.12039E-12
 -1        18 1.87892E+01 5.65422E+00 4.60535E-02 1.22759E+00 1.71399E-14-1.07421E-12
 -1        19 1.89965E+01 5.72029E+00 5.23157E-02 1.70546E+00 2.86299E-14-9.69553E-13
 -1        20 1.93032E+01 5.81964E+00 5.61833E-02 2.29740E+00 3.78378E-14-7.28205E-13
 -1        21 1.98456E+01 5.99773E+00 6.07283E-02 3.08249E+00 4.82531E-14-2.30202E-13
 -1        22 2.12921E+01 6.39793E+00 1.54531E-01 4.36204E+00 1.23512E-14 8.58579E-13
 -1        23 2.30198E+01-1.38439E+00-9.43707E-01-6.67345E-01-1.17937E-13 3.42096E-12
 -1        24 1.96221E+01-9.97322E-02-3.05252E-01 6.83200E-02-3.81310E-14 2.80798E-12
 -1        25 1.91481E+01-5.77500E-02-6.84163E-02 6.26944E-02-1.65284E-14 2.16944E-12
 -1        26 1.91738E+01-2.49041E-02-9.59923E-03 3.55725E-02 1.74838E-15 1.75598E-12
 -1        27 1.94564E+01-1.55122E-02-3.51224E-03 2.67473E-02-1.39152E-14 1.48269E-12
 -1        28 1.99026E+01-1.03603E-02-4.43666E-03 2.27192E-02-1.06507E-14 1.27362E-12
 -1        29 2.04652E+01-6.93502E-03-4.73427E-03 2.14443E-02-8.95876E-16 1.16445E-12
 -1        30 2.11122E+01-3.80057E-03-3.42472E-03 2.17106E-02-5.92937E-15 9.82287E-13
 -1        31 2.18086E+01 7.82768E-07 8.78384E-05 2.24812E-02-2.06700E-14 7.56249E-13
 -1        32 2.25025E+01 5.14022E-03 6.79069E-03 2.23458E-02-3.46261E-14 5.41811E-13
 -1        33 2.31117E+01 1.18446E-02 1.75572E-02 1.91328E-02 4.93507E-14 4.43490E-13
 -1        34 2.35164E+01 1.94541E-02 3.20035E-02 9.86541E-03-2.44520E-14 4.32702E-13
 -1        35 2.35655E+01 2.58741E-02 4.67816E-02-8.41410E-03 2.37534E-14 4.77167E-13
 -1        36 2.31141E+01 2.74213E-02 5.41585E-02-3.62305E-02-1.85620E-14 5.41893E-13
 -1        37 2.21001E+01 2.00455E-02 4.37214E-02-6.79596E-02-1.24328E-14 5.26135E-13
 -1        38 2.06455E+01 2.33584E-03 9.12293E-03-8.97240E-02 2.98197E-14 3.50407E-13
 -1        39 1.91125E+01-2.11921E-02-4.20870E-02-8.42037E-02-4.62505E-14 3.09270E-13
 -1        40 1.80225E+01-4.01787E-02-8.57921E-02-4.38637E-02-2.05222E-14 1.27483E-13
 -1        41 1.78145E+01-4.43410E-02-9.54922E-02 1.74091E-02-1.60085E-14-2.03823E-13
 -1        42 1.85858E+01-3.13075E-02-6.49762E-02 7.03389E-02-2.78902E-14-2.29376E-13
 -1        43 2.00310E+01-8.54264E-03-1.37319E-02 9.20610E-02-4.20470E-15-1.28952E-13
 -1        44 2.16328E+01 1.26142E-02 3.02730E-02 8.09231E-02 3.82091E-14-1.74742E-13
 -1        45 2.29387E+01 2.46288E-02 5.12028E-02 5.19110E-02-2.36634E-14-5.01578E-14
 -1        46 2.37222E+01 2.65646E-02 5.01971E-02 2.17122E-02-5.46297E-14-2.91221E-13
 -1        47 2.39769E+01 2.18068E-02 3.73734E-02-3.55383E-04 7.08795E-14-4.98733E-15
 -1        48 2.38239E+01 1.44457E-02 2.19495E-02-1.25077E-02 2.63469E-14 2.85264E-13
 -1        49 2.34187E+01 7.39804E-03 9.21251E-03-1.69300E-02-1.93595E-15 3.43855E-13
 -1        50 2.28969E+01 1.98907E-03 7.04656E-04-1.66890E-02 3.38593E-14 1.26811E-13
 -1        51 2.23541E+01-1.54776E-03-4.04302E-03-1.42427E-02-8.82771E-14-1.04753E-13
 -1        52 2.18480E+01-3.50713E-03-6.12425E-03-1.11312E-02-4.03857E-15-1.98095E-13
 -1        53 2.14070E+01-4.33328E-03-6.57311E-03-8.15585E-03 8.99763E-15-1.05436E-13
 -1        54 2.10407E+01-4.43474E-03-6.14735E-03-5.64916E-03 4.82369E-14-1.72317E-13
 -1        55 2.07472E+01-4.12303E-03-5.33032E-03-3.68902E-03-3.24322E-14-2.26547E-13
 -1        56 2.05191E+01-3.61121E-03-4.40142E-03-2.23459E-03 1.43869E-14-3.62274E-13
 -1        57 2.03465E+01-3.03357E-03-3.50771E-03-1.20122E-03 5.74225E-14-4.30484E-13
 -1        58 2.02194E+01-2.46827E-03-2.71708E-03-4.97346E-04 1.23870E-14-7.18457E-13
 -1        59 2.01284E+01-1.95629E-03-2.05289E-03-4.03969E-05 4.01345E-16-5.06534E-13
 -1        60 2.00654E+01-1.51519E-03-1.51492E-03 2.38009E-04-2.10880E-14-3.65736E-13
 -1        61 2.00235E+01-1.14862E-03-1.09161E-03 3.91736E-04 5.08448E-14-3.32358E-13
 -1        62 1.99972E+01-8.52463E-04-7.66741E-04 4.61801E-04 6.01954E-14-2.54076E-13
 -1        63 1.99822E+01-6.18642E-04-5.23155E-04 4.78611E-04-1.47114E-13-4.05535E-13
 -1        64 1.99752E+01-4.37445E-04-3.44493E-04 4.64157E-04 2.38188E-14-9.70270E-13
 -1        65 1.99737E+01-2.98805E-04-2.15880E-04 4.33906E-04-1.26961E-14-8.61747E-13
 -1        66 1.99758E+01-1.92898E-04-1.23711E-04 3.98246E-04 2.30318E-14-8.81008E-13
 -1        67 1.99801E+01-1.10308E-04-5.44983E-05 3.63304E-04 1.86149E-13-7.05798E-13
 -1        68 1.99855E+01-4.18901E-05 7.64445E-06 3.30746E-04-1.28982E-13-3.40833E-13
 -1        69 1.99912E+01 1.99116E-05 8.27738E-05 2.93603E-04 1.84702E-13-1.87637E-13
 -1        70 1.99963E+01 6.38780E-05 1.70993E-04 2.12311E-04-6.55093E-14-1.87578E-14
 -1        71 1.99995E+01-1.41924E-05 1.68892E-04 6.11601E-05 1.05037E-14-5.70355E-14
 -1        72 2.10559E+01-4.02882E-01-9.81413E-01-3.20962E-01 7.55056E-14 3.00637E-12
 -1        73 1.95920E+01-6.64130E-02-2.86894E-01-5.58317E-02 3.11600E-14 2.09086E-12
 -1        74 1.91668E+01-2.24494E-02-6.45016E-02-2.01188E-02 2.32236E-14 1.44060E-12
 -1        75 1.92045E+01-1.28275E-02-1.32376E-02-1.45729E-02 3.37013E-15 1.02764E-12
 -1        76 1.95102E+01-8.89367E-03-5.85326E-03-1.19141E-02 9.69309E-15 7.17176E-13
 -1        77 1.99966E+01-6.83318E-03-6.77925E-03-1.10327E-02 1.07223E-14 5.15451E-13
 -1        78 2.06269E+01-5.34228E-03-8.04619E-03-1.18444E-02-1.00766E-14 4.47008E-13
 -1        79 2.13823E+01-3.56538E-03-8.14511E-03-1.44676E-02 2.30455E-14 2.55199E-13
 -1        80 2.22436E+01-7.11868E-04-6.00270E-03-1.91136E-02-1.97571E-15 7.14012E-15
 -1        81 2.31729E+01 3.97197E-03 2.63348E-04-2.56593E-02 3.43685E-14-1.59525E-13
 -1        82 2.40925E+01 1.09036E-02 1.31722E-02-3.28425E-02 4.70885E-15-2.55056E-13
 -1        83 2.48614E+01 1.94099E-02 3.44896E-02-3.70337E-02-3.03745E-14-2.10137E-13
 -1        84 2.52619E+01 2.66460E-02 6.19362E-02-3.11578E-02 3.98436E-14-3.00426E-13
 -1        85 2.50256E+01 2.71350E-02 8.43803E-02-5.89313E-03 2.15704E-14-4.89043E-13
 -1        86 2.39405E+01 1.51756E-02 8.06392E-02 4.32851E-02 3.50746E-14-6.54889E-13
 -1        87 2.20494E+01-8.93105E-03 3.06234E-02 1.03619E-01-1.09897E-14-7.91339E-13
 -1        88 1.98401E+01-3.39598E-02-5.88302E-02 1.39051E-01-3.61807E-14-6.70734E-13
 -1        89 1.81880E+01-4.41092E-02-1.39601E-01 1.11873E-01 1.57383E-15-8.53068E-13
 -1        90 1.78998E+01-3.32503E-02-1.54100E-01 2.43682E-02 1.13572E-14-1.12363E-12
 -1        91 1.91402E+01-9.92649E-03-9.04933E-02-7.22091E-02 3.57752E-14-1.56369E-12
 -1        92 2.13014E+01 1.17366E-02 2.59342E-03-1.22453E-01-1.09017E-13-1.36625E-12
 -1        93 2.34621E+01 2.35134E-02 6.90515E-02-1.14584E-01 3.32095E-14-1.13896E-12
 -1        94 2.49562E+01 2.45711E-02 8.68889E-02-7.44209E-02 1.61928E-14-1.34795E-12
 -1        95 2.55862E+01 1.89974E-02 7.04790E-02-3.16167E-02 1.28187E-14-1.27859E-12
 -1        96 2.54951E+01 1.14026E-02 4.26144E-02-1.28711E-03 1.96696E-15-1.04231E-12
 -1        97 2.49498E+01 4.71712E-03 1.80185E-02 1.47259E-02-1.63433E-14-8.91942E-13
 -1        98 2.41953E+01 5.70137E-05 1.79763E-03 2.04070E-02 1.36319E-14-6.89169E-13
 -1        99 2.34017E+01-2.63790E-03-6.73630E-03 2.02800E-02-2.11921E-14-8.96359E-13
 -1       100 2.26654E+01-3.86784E-03-1.00632E-02 1.75681E-02 3.99259E-14-1.23222E-12
 -1       101 2.20302E+01-4.16573E-03-1.04633E-02 1.41137E-02-6.37804E-14-1.13628E-12
 -1       102 2.15077E+01-3.94423E-03-9.47790E-03 1.08049E-02 1.49111E-14-1.10834E-12
 -1       103 2.10922E+01-3.47738E-03-7.99107E-03 7.98652E-03 1.09598E-14-1.27748E-12
 -1       104 2.07707E+01-2.92923E-03-6.45093E-03 5.73230E-03-6.68858E-14-8.96834E-13
 -1       105 2.05274E+01-2.38938E-03-5.05558E-03 3.99870E-03 3.35434E-14-5.04082E-13
 -1       106 2.03473E+01-1.90138E-03-3.87330E-03 2.70214E-03-9.50637E-14-8.18308E-13
 -1       107 2.02170E+01-1.48219E-03-2.91048E-03 1.75435E-03 4.76151E-14-1.25822E-12
 -1       108 2.01251E+01-1.13430E-03-2.14714E-03 1.07625E-03 9.85228E-14-1.81133E-12
 -1       109 2.00621E+01-8.52902E-04-1.55436E-03 6.02037E-04-4.49445E-14-1.41743E-12
 -1       110 2.00208E+01-6.29983E-04-1.10229E-03 2.78985E-04-7.25000E-15-1.32173E-12
 -1       111 1.99951E+01-4.56508E-04-7.63494E-04 6.57929E-05 5.25641E-14-9.36830E-13
 -1       112 1.99808E+01-3.23551E-04-5.14075E-04-6.94593E-05-1.35452E-13-6.39902E-13
 -1       113 1.99743E+01-2.22814E-04-3.33739E-04-1.51203E-04 1.10600E-13-2.41319E-13
 -1       114 1.99731E+01-1.46786E-04-2.05410E-04-1.98002E-04-1.63387E-13-8.86663E-13
 -1       115 1.99755E+01-8.86152E-05-1.14311E-04-2.23972E-04 3.39509E-14-2.52903E-13
 -1       116 1.99800E+01-4.19027E-05-4.59973E-05-2.39822E-04 9.33500E-14-4.34301E-13
 -1       117 1.99855E+01-6.11377E-07 1.66768E-05-2.52817E-04 1.39105E-13-8.00295E-13
 -1       118 1.99913E+01 3.92563E-05 9.41385E-05-2.64463E-04 6.94450E-15-6.49807E-13
 -1       119 1.99964E+01 7.75978E-05 1.92458E-04-2.54798E-04-3.30822E-14-5.93452E-13
 -1       120 1.99995E+01-4.85282E-05 1.36159E-04-1.18057E-04 1.33737E-13-2.05372E-13
 -1       121 1.99998E+01-4.98449E-04 1.15262E-04-8.90662E-05-3.28693E-13-1.23078E-13
 -1       122 1.99999E+01-3.48518E-03 1.30282E-04-2.12542E-04-4.65968E-13-1.16632E-13
 -1       123 1.99998E+01-7.96797E-03 9.29549E-06-2.30060E-04-1.35063E-13 4.35276E-14
 -1       124 1.99998E+01-1.25318E-02-6.55331E-05-1.91965E-04 1.01950E-13 9.56004E-14
 -1       125 1.99998E+01-1.64457E-02-9.38979E-05-1.39168E-04-1.63722E-13-2.58970E-13
 -1       126 1.99997E+01-1.93663E-02-9.87101E-05-9.18036E-05-1.14840E-12-4.82681E-14
 -1       127 1.99997E+01-2.13060E-02-9.25814E-05-4.99186E-05-6.13821E-13 2.22667E-13
 -1       128 1.99997E+01-2.22379E-02-8.70670E-05-1.47916E-05-3.14848E-13-3.31931E-15
 -1       129 1.99997E+01-2.22029E-02-8.65268E-05 1.75495E-05 1.59929E-13-1.02047E-13
 -1       130 1.99997E+01-2.12068E-02-9.11498E-05 5.20360E-05 2.35326E-13-6.18350E-14
 -1       131 1.99997E+01-1.92202E-02-9.58911E-05 9.44026E-05-9.24554E-15-7.99126E-14
 -1       132 1.99998E+01-1.62778E-02-9.22990E-05 1.39806E-04-6.77673E-13 2.10988E-13
 -1       133 1.99998E+01-1.23631E-02-6.34831E-05 1.91101E-04-1.35865E-12 1.65671E-14
 -1       134 1.99998E+01-7.81950E-03 1.59827E-05 2.39658E-04-1.11776E-12 2.17834E-13
 -1       135 1.99999E+01-3.47688E-03 1.08004E-04 2.93092E-04-5.52928E-13-2.65020E-14
 -1       136 1.99999E+01-5.82287E-04 1.04292E-04 5.84825E-05-2.91399E-13 4.44255E-14
 -1       137-1.48068E+00-1.91413E+01-3.02717E+00-3.78697E+00 1.43624E-12 3.59705E-13
 -1       138-1.51579E+00-7.75017E+00-2.23772E+00-2.88269E+00 2.94287E-12 1.61768E-12
 -1       139 3.46009E+00 3.88525E+00-1.05402E+00 3.96825E+00 3.94940E-12 3.11234E-12
 -1       140 1.67754E+01 1.05390E+01 4.27377E-01 1.32233E+01 3.30397E-12 3.90366E-12
 -1       141 3.70977E+01 9.56211E+00 1.94956E+00 1.82418E+01 2.11839E-12 3.89899E-12
 -1       142 5.60107E+01 4.62877E+00 3.09853E+00 1.45888E+01 8.35804E-13 3.06516E-12
 -1       143 6.67123E+01 9.60638E-01 3.68261E+00 2.36268E+00 1.19082E-13 9.62848E-13
 -1       144 6.18107E+01 2.73095E+00 3.41357E+00-1.10210E+01 4.02609E-13-1.72082E-12
 -1       145 4.45886E+01 8.09667E+00 2.44868E+00-1.80270E+01 1.56711E-12-3.45013E-12
 -1       146 2.22696E+01 1.07361E+01 9.03012E-01-1.51759E+01 2.97423E-12-3.99258E-12
 -1       147 6.45313E+00 6.23860E+00-6.48141E-01-6.49444E+00 3.87790E-12-3.39062E-12
 -1       148-1.07093E+00-5.20790E+00-2.03745E+00 1.86411E+00 3.89766E-12-2.02396E-12
 -1       149-1.66252E+00-1.72182E+01-2.94509E+00 4.11885E+00 3.02763E-12-9.66296E-13
 -1       150-8.39839E-01-2.44448E+01-3.38076E+00 1.25697E+00 9.26113E-13-1.08354E-13
 -1       151-1.14340E+00-2.18556E+01-3.20397E+00-3.24739E+00-1.57932E-12-3.28798E-13
 -1       152-1.74512E+00-1.13479E+01-2.49428E+00-3.70428E+00-3.70687E-12-1.51124E-12
 -1       153 1.63076E+00 1.46758E+00-1.29257E+00 1.95883E+00-4.55158E-12-3.12811E-12
 -1       154 1.34798E+01 9.89435E+00 1.87657E-01 1.15098E+01-4.06619E-12-4.33520E-12
 -1       155 3.20902E+01 1.05370E+01 1.66606E+00 1.80187E+01-2.71372E-12-4.48824E-12
 -1       156 5.36092E+01 5.30567E+00 2.93465E+00 1.57186E+01-1.09189E-12-3.58080E-12
 -1       157 6.50185E+01 1.19307E+00 3.51100E+00 5.01250E+00-1.66409E-13-1.81939E-12
 -1       158 4.98059E+01 6.34868E+00 2.69712E+00-1.68590E+01-8.12156E-13 2.05547E-12
 -1       159 3.07323E+01 1.06339E+01 1.55265E+00-1.76869E+01-1.97498E-12 3.24130E-12
 -1       160 1.32431E+01 1.00227E+01 1.75503E-01-1.14769E+01-3.42387E-12 3.48271E-12
 -1       161 2.27752E+00 2.56690E+00-1.19244E+00-2.76510E+00-4.20047E-12 3.08970E-12
 -1       162-1.61742E+00-9.25307E+00-2.31730E+00 3.24789E+00-4.36212E-12 1.70880E-12
 -1       163-1.28031E+00-1.99965E+01-3.05615E+00 3.73668E+00-3.19497E-12 7.90056E-13
 -1       164 2.12158E+01 3.66017E+00-5.42437E-02-3.37948E+00-5.21420E-13 5.98750E-13
 -1       165 2.01916E+01 4.21061E+00-4.35951E-02-2.54657E+00-5.43269E-13-4.37358E-14
 -1       166 1.96410E+01 4.51241E+00-3.03945E-02-1.91733E+00-4.73314E-13-4.41888E-13
 -1       167 1.93000E+01 4.67838E+00-2.25790E-02-1.40963E+00-3.98821E-13-6.78935E-13
 -1       168 1.90660E+01 4.78285E+00-1.80359E-02-9.89924E-01-3.14610E-13-8.04735E-13
 -1       169 1.89005E+01 4.85154E+00-1.56695E-02-6.22956E-01-2.32299E-13-8.72595E-13
 -1       170 1.88010E+01 4.89107E+00-1.44488E-02-2.95341E-01-1.46448E-13-9.04605E-13
 -1       171 1.87671E+01 4.90469E+00-1.40683E-02 1.23856E-02-5.70128E-14-9.29732E-13
 -1       172 1.87998E+01 4.89291E+00-1.44607E-02 3.19398E-01 2.46832E-14-9.50871E-13
 -1       173 1.88997E+01 4.85406E+00-1.57123E-02 6.45257E-01 1.05747E-13-9.46666E-13
 -1       174 1.90649E+01 4.78533E+00-1.81703E-02 1.00377E+00 2.04757E-13-9.14456E-13
 -1       175 1.93087E+01 4.67472E+00-2.27287E-02 1.42936E+00 3.13889E-13-8.42455E-13
 -1       176 1.96590E+01 4.49903E+00-3.14859E-02 1.94377E+00 4.12654E-13-6.86810E-13
 -1       177 2.02187E+01 4.18855E+00-4.49745E-02 2.57805E+00 5.05890E-13-3.61624E-13
 -1       178 2.13349E+01 3.43492E+00-5.67336E-02 3.30719E+00 5.36148E-13 2.80637E-13
 -1       179 2.25495E+01 1.11687E+00-3.31164E-01 2.84611E+00 4.46455E-13 1.13948E-12
 -1       180 2.21765E+01 8.41450E-01 1.18910E-03-1.78770E+00-4.42844E-13 1.28562E-12
 -1       181 2.08032E+01 1.90347E-01-8.90129E-03-5.94631E-01-4.02078E-13 1.03750E-12
 -1       182 2.02038E+01 1.11434E-01 1.43212E-02-1.00878E-01-2.61750E-13 8.29711E-13
 -1       183 2.00694E+01 6.32157E-02 1.07045E-02 1.50957E-01-1.87099E-13 6.60202E-13
 -1       184 2.01845E+01 4.26850E-02 5.87604E-03 3.04821E-01-1.42706E-13 5.58154E-13
 -1       185 2.04618E+01 3.12094E-02 3.04667E-03 4.10690E-01-8.54801E-14 4.62875E-13
 -1       186 2.08482E+01 2.15420E-02 1.41285E-03 4.84932E-01-9.53960E-14 3.68464E-13
 -1       187 2.13043E+01 9.06135E-03 1.60973E-04 5.27983E-01-1.40625E-13 3.12078E-13
 -1       188 2.17907E+01-1.02848E-02-1.07775E-03 5.28926E-01-1.15091E-13 3.09295E-13
 -1       189 2.22586E+01-3.98859E-02-2.33905E-03 4.67556E-01-9.88874E-14 2.85713E-13
 -1       190 2.26435E+01-8.06567E-02-3.40415E-03 3.18532E-01-2.91254E-14 1.14199E-13
 -1       191 2.28660E+01-1.27312E-01-3.86100E-03 6.19741E-02 1.37932E-14 1.26070E-13
 -1       192 2.28426E+01-1.63591E-01-3.26436E-03-2.96093E-01 6.74573E-14 1.70744E-13
 -1       193 2.25140E+01-1.61281E-01-1.61641E-03-6.96218E-01 7.40857E-15 2.30652E-13
 -1       194 2.18911E+01-9.15484E-02 5.32278E-04-1.00976E+00-1.25237E-13 2.44881E-13
 -1       195 2.11010E+01 4.78588E-02 2.17623E-03-1.06881E+00-7.30686E-14 1.66143E-13
 -1       196 2.03887E+01 2.07181E-01 2.67322E-03-7.61172E-01-1.20391E-13 7.22720E-14
 -1       197 2.00340E+01 2.98597E-01 2.52766E-03-1.43407E-01-1.77769E-13-5.10892E-14
 -1       198 2.01975E+01 2.62773E-01 2.57143E-03 5.43295E-01-1.37504E-13-1.56128E-13
 -1       199 2.08164E+01 1.24241E-01 2.53637E-03 1.01399E+00-5.58863E-14-3.25074E-13
 -1       200 2.16481E+01-3.30012E-02 1.59444E-03 1.12043E+00 3.34158E-14-4.13301E-13
 -1       201 2.24170E+01-1.35792E-01-3.64785E-04 9.09029E-01-4.23372E-14-3.97230E-13
 -1       202 2.29404E+01-1.64829E-01-2.48962E-03 5.38238E-01 3.91518E-14-2.19471E-13
 -1       203 2.31610E+01-1.41453E-01-3.54974E-03 1.61382E-01 1.76627E-13 9.56070E-14
 -1       204 2.31128E+01-9.64674E-02-3.56904E-03-1.32001E-01 5.15618E-14 4.71396E-14
 -1       205 2.28723E+01-5.19048E-02-2.80145E-03-3.15935E-01-3.57711E-14-9.65354E-14
 -1       206 2.25209E+01-1.77347E-02-1.72122E-03-4.03075E-01-7.66740E-14-1.85191E-13
 -1       207 2.21258E+01 4.36929E-03-7.01568E-04-4.20337E-01-9.67651E-14-1.08742E-13
 -1       208 2.17342E+01 1.64901E-02 7.60970E-05-3.94504E-01-2.90794E-14 1.11897E-13
 -1       209 2.13748E+01 2.16324E-02 5.75116E-04-3.46471E-01-5.79528E-15 3.88903E-14
 -1       210 2.10618E+01 2.24478E-02 8.34957E-04-2.90388E-01-3.83946E-14 1.31734E-13
 -1       211 2.07999E+01 2.08775E-02 9.21106E-04-2.34813E-01-5.84748E-14 4.94087E-14
 -1       212 2.05876E+01 1.81959E-02 8.96517E-04-1.84320E-01-1.04569E-13-2.01842E-13
 -1       213 2.04201E+01 1.51741E-02 8.10483E-04-1.40900E-01 3.23272E-14-2.70272E-13
 -1       214 2.02911E+01 1.22417E-02 6.97158E-04-1.04991E-01-1.18467E-14-3.64449E-13
 -1       215 2.01942E+01 9.61267E-03 5.78075E-04-7.61828E-02 2.13599E-15-3.43709E-13
 -1       216 2.01232E+01 7.37145E-03 4.65564E-04-5.36504E-02 6.82644E-14-5.31620E-13
 -1       217 2.00725E+01 5.52876E-03 3.65781E-04-3.64233E-02-7.97105E-16-2.09508E-13
 -1       218 2.00376E+01 4.05640E-03 2.80996E-04-2.35343E-02 2.64705E-14-2.75127E-13
 -1       219 2.00146E+01 2.90803E-03 2.11172E-04-1.40990E-02-1.82367E-13-6.14198E-13
 -1       220 2.00004E+01 2.03100E-03 1.54987E-04-7.35208E-03-1.48286E-13-5.60076E-13
 -1       221 1.99925E+01 1.37277E-03 1.10477E-04-2.65815E-03 1.64387E-13-3.39128E-13
 -1       222 1.99891E+01 8.83693E-04 7.54208E-05 4.89153E-04-1.48150E-14-1.20796E-13
 -1       223 1.99887E+01 5.17099E-04 4.76615E-05 2.47380E-03 1.03339E-13-2.02175E-13
 -1       224 1.99901E+01 2.27695E-04 2.55554E-05 3.56315E-03 1.97986E-13-1.82371E-13
 -1       225 1.99926E+01-3.43370E-05 9.33986E-06 3.90953E-03 1.23335E-13-5.01439E-14
 -1       226 1.99953E+01-3.33441E-04 3.76392E-07 3.54314E-03 4.60497E-14-1.77709E-13
 -1       227 1.99978E+01-7.21748E-04 3.52346E-06 2.42189E-03 1.63598E-13 4.50310E-14
 -1       228 2.12312E+01 2.72483E-01-4.90141E-02 1.01545E+00 4.20435E-13 9.42000E-13
 -1       229 2.03135E+01 1.30907E-01 9.26423E-03 2.91055E-01 3.18546E-13 6.36566E-13
 -1       230 2.00132E+01 6.87457E-02 1.31862E-02-2.66928E-02 2.03565E-13 3.86273E-13
 -1       231 2.00536E+01 4.38341E-02 7.98971E-03-2.08002E-01 1.48239E-13 2.55060E-13
 -1       232 2.03126E+01 3.36475E-02 4.13288E-03-3.33442E-01 1.06503E-13 1.92183E-13
 -1       233 2.07278E+01 2.88498E-02 2.04227E-03-4.32907E-01 7.21815E-14 8.24193E-14
 -1       234 2.12633E+01 2.49346E-02 7.80586E-04-5.16347E-01 1.07018E-13-3.91551E-14
 -1       235 2.18902E+01 1.81298E-02-2.14044E-04-5.81090E-01 8.37573E-14-6.90116E-15
 -1       236 2.25723E+01 4.01160E-03-1.03944E-03-6.12265E-01 9.03982E-14-5.04618E-14
 -1       237 2.32526E+01-2.25895E-02-1.40924E-03-5.81261E-01 1.55748E-14-1.58281E-14
 -1       238 2.38415E+01-6.57397E-02-7.40862E-04-4.46836E-01 1.13568E-14-1.92160E-14
 -1       239 2.42125E+01-1.23140E-01 1.46024E-03-1.66268E-01 9.30896E-14-5.66731E-14
 -1       240 2.42181E+01-1.76899E-01 4.84301E-03 2.73742E-01 1.08855E-13-9.26082E-14
 -1       241 2.37428E+01-1.87028E-01 6.92245E-03 8.03849E-01 1.17339E-13-1.86799E-13
 -1       242 2.28003E+01-1.05368E-01 3.67133E-03 1.22809E+00 3.31330E-14-2.00989E-13
 -1       243 2.16331E+01 7.55969E-02-6.08789E-03 1.26683E+00 1.35625E-14-3.06855E-13
 -1       244 2.07072E+01 2.70535E-01-1.62917E-02 7.51577E-01 1.58339E-13-4.74829E-13
 -1       245 2.04873E+01 3.41388E-01-1.77820E-02-1.51712E-01 1.80881E-13-7.21191E-13
 -1       246 2.11069E+01 2.32060E-01-8.09830E-03-9.84728E-01 1.67966E-13-8.05942E-13
 -1       247 2.22564E+01 3.04017E-02 3.71209E-03-1.34459E+00-1.88016E-13-8.24335E-13
 -1       248 2.34259E+01-1.28002E-01 9.26875E-03-1.17449E+00 2.60837E-14-7.88838E-13
 -1       249 2.42332E+01-1.84335E-01 6.98882E-03-7.01342E-01 6.66446E-14-7.70226E-13
 -1       250 2.45490E+01-1.61034E-01 2.12648E-03-1.92226E-01-7.89169E-14-8.64590E-13
 -1       251 2.44343E+01-1.05485E-01-1.37842E-03 1.95074E-01-1.23300E-13-7.92983E-13
 -1       252 2.40300E+01-5.17421E-02-2.71027E-03 4.20895E-01-2.01467E-13-4.26250E-13
 -1       253 2.34772E+01-1.31886E-02-2.47641E-03 5.11996E-01-5.19332E-14-2.37827E-13
 -1       254 2.28830E+01 9.51442E-03-1.59506E-03 5.13913E-01 1.47426E-13-1.19683E-13
 -1       255 2.23156E+01 2.03819E-02-6.85604E-04 4.66875E-01 1.09214E-13-3.02364E-13
 -1       256 2.18110E+01 2.38230E-02-6.91340E-06 3.98916E-01-7.67883E-14-3.89768E-13
 -1       257 2.13834E+01 2.31879E-02 4.04675E-04 3.26892E-01-1.18779E-14-5.06852E-13
 -1       258 2.10334E+01 2.06339E-02 6.03269E-04 2.59681E-01-5.87560E-14-2.40366E-13
 -1       259 2.07549E+01 1.74107E-02 6.60088E-04 2.01178E-01-9.47454E-14-1.04448E-13
 -1       260 2.05383E+01 1.41779E-02 6.34410E-04 1.52448E-01 4.58192E-14-2.89776E-13
 -1       261 2.03733E+01 1.12462E-02 5.67359E-04 1.13096E-01 5.30051E-14-4.72133E-13
 -1       262 2.02502E+01 8.73306E-03 4.84525E-04 8.20675E-02 3.50081E-13-4.34454E-13
 -1       263 2.01603E+01 6.65558E-03 4.00494E-04 5.80875E-02 1.27055E-13-4.84884E-13
 -1       264 2.00963E+01 4.98281E-03 3.22806E-04 3.98899E-02-1.81812E-13-6.05221E-13
 -1       265 2.00519E+01 3.66405E-03 2.54752E-04 2.63226E-02 6.94341E-14-5.44397E-13
 -1       266 2.00224E+01 2.64341E-03 1.97201E-04 1.63901E-02-1.98608E-13-4.14267E-13
 -1       267 2.00038E+01 1.86684E-03 1.49704E-04 9.26041E-03-1.34303E-13-8.08352E-14
 -1       268 1.99931E+01 1.28513E-03 1.11147E-04 4.25777E-03 6.17776E-14-4.82714E-13
 -1       269 1.99879E+01 8.54749E-04 8.01098E-05 8.47447E-04 2.80971E-14-2.27509E-13
 -1       270 1.99865E+01 5.37526E-04 5.51254E-05-1.38013E-03-1.03423E-13-2.47645E-13
 -1       271 1.99876E+01 2.98643E-04 3.51936E-05-2.72295E-03 2.47791E-13-2.59499E-13
 -1       272 1.99901E+01 1.03121E-04 2.09528E-05-3.37371E-03 6.48139E-14-1.27919E-13
 -1       273 1.99933E+01-8.51238E-05 1.61317E-05-3.41868E-03-1.59831E-14-1.82784E-13
 -1       274 1.99963E+01-3.26413E-04 1.86998E-05-2.83292E-03-5.25935E-15-2.65195E-13
 -1       275 1.99986E+01-6.24174E-04 2.11549E-05-1.55013E-03-1.14395E-13-2.62023E-13
 -1       276 1.99992E+01-2.15481E-03-1.24717E-06-2.39909E-03-1.14353E-13-1.11450E-13
 -1       277 1.99996E+01-4.53526E-03-3.12168E-06-3.25707E-03-4.93547E-14 1.33583E-13
 -1       278 1.99999E+01-7.13265E-03-2.07297E-06-3.31236E-03-2.61680E-13 6.33406E-14
 -1       279 2.00001E+01-9.56064E-03 2.97907E-06-2.86274E-03-3.33582E-13-1.23772E-13
 -1       280 2.00001E+01-1.15220E-02 7.63174E-06-2.18635E-03-4.50154E-13-5.77989E-13
 -1       281 2.00001E+01-1.29621E-02 1.06396E-05-1.43204E-03-1.62533E-13 1.37078E-13
 -1       282 2.00001E+01-1.38081E-02 1.21356E-05-6.89602E-04 5.70311E-15 2.58014E-13
 -1       283 2.00001E+01-1.40718E-02 1.25495E-05 2.65046E-05 1.35398E-13 2.21896E-13
 -1       284 2.00001E+01-1.37637E-02 1.20575E-05 7.38183E-04 2.42906E-13 4.53699E-14
 -1       285 2.00001E+01-1.28803E-02 1.03929E-05 1.46870E-03-2.53888E-14-2.39647E-13
 -1       286 2.00001E+01-1.14469E-02 7.15613E-06 2.19429E-03-2.25973E-13-3.88023E-13
 -1       287 2.00001E+01-9.44615E-03 2.57705E-06 2.86136E-03-2.54137E-13-3.28941E-13
 -1       288 1.99999E+01-7.03194E-03-3.71498E-06 3.29654E-03-2.59962E-13 3.13463E-13
 -1       289 1.99996E+01-4.42516E-03-5.31363E-06 3.16123E-03-3.70963E-13 4.33285E-13
 -1       290 1.99990E+01-2.37802E-03-1.19381E-05 3.27743E-03-1.66976E-13 2.23432E-13
 -1       291-3.48741E-01-8.74128E+00-6.32185E-01 1.60103E+00-3.79141E-14 1.13223E-12
 -1       292 2.91992E+00-8.41587E+00-8.04669E-01 3.33585E+00 5.97911E-13 1.19459E-12
 -1       293 1.00534E+01-4.94705E+00-4.73688E-01 5.66286E+00 8.73912E-13 1.41918E-12
 -1       294 1.94792E+01-1.18963E+00-1.08014E-01 7.01154E+00 1.28822E-12 1.37751E-12
 -1       295 3.00107E+01 2.68357E+00 3.59536E-01 7.50466E+00 1.43459E-12 1.49625E-12
 -1       296 3.93327E+01 4.87521E+00 6.95950E-01 5.47237E+00 1.17517E-12 1.12460E-12
 -1       297 4.46443E+01 6.65039E+00 8.85684E-01 2.16021E+00 1.03509E-12 5.24886E-13
 -1       298 4.70933E+01 6.59072E+00 1.08044E+00-1.40302E+00 1.21375E-12-8.33916E-14
 -1       299 4.20365E+01 5.72500E+00 8.09315E-01-4.46691E+00 1.24428E-12-6.34687E-13
 -1       300 3.31995E+01 2.45128E+00 3.21891E-01-5.46048E+00 1.21442E-12-9.10050E-13
 -1       301 2.32080E+01-9.95534E-01 1.77204E-02-6.88485E+00 1.28364E-12-1.27690E-12
 -1       302 1.26231E+01-4.29108E+00-3.48954E-01-6.29785E+00 1.33726E-12-1.33550E-12
 -1       303 4.16350E+00-7.78234E+00-7.41068E-01-3.92007E+00 1.24453E-12-1.15522E-12
 -1       304-5.53372E-03-9.21220E+00-7.34564E-01-2.08802E+00 4.22148E-13-1.14628E-12
 -1       305-1.17367E+00-1.11276E+01-9.92719E-01 6.65383E-01-1.75922E-13-1.24190E-12
 -1       306 1.65141E+00-9.07656E+00-8.14303E-01 3.05704E+00-8.96422E-13-1.40754E-12
 -1       307 7.49610E+00-5.77911E+00-5.82337E-01 5.08329E+00-1.53233E-12-1.54033E-12
 -1       308 1.79106E+01-2.47917E+00-1.32689E-01 6.93485E+00-1.36532E-12-1.46216E-12
 -1       309 2.76204E+01 1.77788E+00 2.35660E-01 7.34259E+00-1.67535E-12-1.69004E-12
 -1       310 3.79881E+01 4.90996E+00 7.29969E-01 6.62763E+00-1.39714E-12-1.61082E-12
 -1       311 4.48621E+01 6.28185E+00 9.70709E-01 3.50498E+00-1.12453E-12-1.10056E-12
 -1       312 4.60237E+01 6.87486E+00 9.81438E-01-3.47286E-01-9.93733E-13-4.83738E-13
 -1       313 4.37255E+01 6.04559E+00 9.34340E-01-4.23193E+00-1.04060E-12 2.18187E-13
 -1       314 3.66138E+01 4.57111E+00 6.53118E-01-6.74934E+00-1.27118E-12 7.60725E-13
 -1       315 2.70661E+01 2.11014E+00 2.60882E-01-7.70492E+00-1.55634E-12 1.18991E-12
 -1       316 1.70544E+01-1.30975E+00-1.69048E-01-6.99750E+00-1.65254E-12 1.16265E-12
 -1       317 8.81935E+00-5.28936E+00-4.97896E-01-5.51653E+00-1.51976E-12 1.15086E-12
 -1       318 2.25821E+00-8.72158E+00-8.35721E-01-3.19979E+00-1.26918E-12 1.08102E-12
 -1       319-8.60322E-01-1.08021E+01-9.66158E-01-1.10497E+00-6.72462E-13 1.23657E-12
 -1       320 2.03294E+01 3.05479E+00-1.79689E-02-1.79867E+00-5.76731E-13-1.16805E-13
 -1       321 2.10085E+01 2.20344E+00-1.69191E-02-2.08693E+00-5.91552E-13 2.80092E-13
 -1       322 1.95286E+01 3.84170E+00-1.41405E-02-1.03248E+00-4.20093E-13-5.52726E-13
 -1       323 1.92826E+01 4.04808E+00-1.21315E-02-6.95078E-01-3.32945E-13-6.51490E-13
 -1       324 1.91190E+01 4.17633E+00-1.08661E-02-3.94123E-01-2.26697E-13-6.72639E-13
 -1       325 1.90360E+01 4.23928E+00-1.02601E-02-1.17679E-01-1.17615E-13-6.99946E-13
 -1       326 1.90350E+01 4.24089E+00-1.02657E-02 1.49346E-01-1.59211E-14-7.27386E-13
 -1       327 1.91174E+01 4.17996E+00-1.08932E-02 4.23221E-01 8.64591E-14-7.41739E-13
 -1       328 1.92800E+01 4.05326E+00-1.22608E-02 7.14773E-01 1.98159E-13-7.10819E-13
 -1       329 1.95310E+01 3.84229E+00-1.46116E-02 1.04689E+00 3.16885E-13-6.47372E-13
 -1       330 1.98811E+01 3.51541E+00-1.82404E-02 1.41917E+00 4.31659E-13-5.59234E-13
 -1       331 2.03707E+01 3.00127E+00-2.21914E-02 1.80747E+00 5.52753E-13-3.64179E-13
 -1       332 2.10066E+01 2.13012E+00-2.93397E-02 2.04106E+00 5.98737E-13 3.24775E-14
 -1       333 2.13680E+01 1.17851E+00-2.32042E-02 1.69130E+00 5.52135E-13 4.08758E-13
 -1       334 2.07891E+01 5.05574E-01 9.19594E-03 6.75529E-01 4.53707E-13 2.59491E-13
 -1       335 2.08364E+01 7.06038E-01 1.29077E-02-7.24405E-01-4.48929E-13 3.39658E-13
 -1       336 2.05475E+01 3.92064E-01 7.78295E-03-1.04710E-01-3.22055E-13 2.60567E-13
 -1       337 2.04555E+01 2.49536E-01 4.81842E-03 2.75910E-01-2.46054E-13 1.98871E-13
 -1       338 2.05155E+01 1.73538E-01 2.63888E-03 5.32456E-01-1.85709E-13 9.97495E-14
 -1       339 2.06909E+01 1.22566E-01 1.42834E-03 7.12984E-01-1.54294E-13 6.76766E-14
 -1       340 2.09522E+01 7.34640E-02 5.57236E-04 8.34539E-01-1.35801E-13 1.56248E-14
 -1       341 2.12754E+01 9.10781E-03-3.73598E-04 8.93435E-01-1.00273E-13 3.82793E-14
 -1       342 2.16380E+01-8.48414E-02-1.54064E-03 8.69589E-01-9.45249E-14 7.92633E-14
 -1       343 2.20146E+01-2.17073E-01-2.92729E-03 7.30496E-01-1.46983E-13 7.16019E-14
 -1       344 2.23709E+01-3.81451E-01-4.29787E-03 4.40261E-01-2.78834E-14 4.55226E-14
 -1       345 2.26577E+01-5.42095E-01-5.12612E-03-2.03317E-02 4.63679E-14 4.16981E-14
 -1       346 2.28068E+01-6.19690E-01-4.60849E-03-6.18171E-01 4.86128E-14 4.53012E-14
 -1       347 2.27435E+01-5.03840E-01-2.76388E-03-1.22328E+00 3.21813E-15 1.07618E-13
 -1       348 2.24356E+01-1.20498E-01 3.07939E-05-1.59587E+00-1.29755E-13 1.63378E-13
 -1       349 2.19674E+01 4.57495E-01 2.61452E-03-1.46885E+00-1.48309E-13 1.91400E-13
 -1       350 2.15680E+01 9.60627E-01 3.95551E-03-7.43746E-01-2.23561E-13 2.34416E-14
 -1       351 2.14906E+01 1.07312E+00 3.58309E-03 3.33915E-01-2.78423E-13-1.35454E-13
 -1       352 2.17959E+01 7.20005E-01 2.87438E-03 1.27239E+00-2.22358E-13-3.34342E-13
 -1       353 2.22959E+01 1.38067E-01 1.61676E-03 1.68411E+00-1.13523E-13-4.26516E-13
 -1       354 2.27281E+01-3.52854E-01-8.99497E-04 1.51837E+00 1.12278E-13-4.61160E-13
 -1       355 2.29368E+01-5.82309E-01-4.00654E-03 9.97620E-01 1.75498E-13-2.35907E-13
 -1       356 2.29155E+01-5.76218E-01-4.83828E-03 3.90554E-01 2.79191E-13-2.35918E-13
 -1       357 2.27251E+01-4.40008E-01-4.54971E-03-1.23648E-01 7.22011E-14-2.86233E-13
 -1       358 2.24389E+01-2.71078E-01-3.40760E-03-4.73925E-01-3.16086E-14-2.23803E-13
 -1       359 2.21127E+01-1.25074E-01-2.01466E-03-6.63608E-01 1.77451E-14-2.45259E-13
 -1       360 2.17824E+01-2.08684E-02-8.19831E-04-7.28281E-01 1.30141E-14 1.55012E-14
 -1       361 2.14697E+01 4.29937E-02 2.80530E-05-7.09467E-01-3.66045E-14 5.40194E-14
 -1       362 2.11867E+01 7.57265E-02 5.43007E-04-6.42581E-01-3.76935E-14-2.35542E-14
 -1       363 2.09393E+01 8.74373E-02 7.96667E-04-5.53464E-01 1.82257E-14-3.52978E-14
 -1       364 2.07290E+01 8.64044E-02 8.71926E-04-4.59025E-01-1.08025E-13 2.57720E-14
 -1       365 2.05547E+01 7.85263E-02 8.39192E-04-3.69250E-01-2.60737E-13-8.65022E-15
 -1       366 2.04134E+01 6.76442E-02 7.49782E-04-2.89296E-01-9.38454E-14-3.45939E-15
 -1       367 2.03013E+01 5.60790E-02 6.37447E-04-2.21198E-01-1.93238E-14-1.72178E-14
 -1       368 2.02141E+01 4.51217E-02 5.22500E-04-1.65110E-01-2.00666E-14-8.80914E-14
 -1       369 2.01477E+01 3.54055E-02 4.16002E-04-1.20151E-01 6.80252E-14 9.92435E-14
 -1       370 2.00983E+01 2.71642E-02 3.23084E-04-8.49487E-02 5.75030E-14 8.22428E-14
 -1       371 2.00623E+01 2.04013E-02 2.45298E-04-5.79696E-02 4.29404E-14-1.81018E-13
 -1       372 2.00369E+01 1.49973E-02 1.82174E-04-3.77170E-02-1.09854E-13 5.20286E-14
 -1       373 2.00195E+01 1.07748E-02 1.32190E-04-2.28328E-02-2.21477E-13 1.35648E-13
 -1       374 2.00082E+01 7.53687E-03 9.33483E-05-1.21465E-02-3.44047E-14-9.22884E-15
 -1       375 2.00014E+01 5.08740E-03 6.35168E-05-4.69050E-03 1.97312E-13-2.73129E-13
 -1       376 1.99977E+01 3.23977E-03 4.05782E-05 3.02625E-04 1.73377E-13 4.00254E-14
 -1       377 1.99962E+01 1.81698E-03 2.25493E-05 3.40996E-03 2.11701E-13 4.13441E-13
 -1       378 1.99962E+01 6.49410E-04 8.67602E-06 5.02841E-03 1.65185E-13 4.79246E-13
 -1       379 1.99969E+01-4.40458E-04-3.90296E-06 5.41115E-03 1.16766E-13 5.83076E-13
 -1       380 1.99978E+01-1.40719E-03-1.80594E-05 4.75850E-03 6.84095E-14 6.55148E-13
 -1       381 2.04480E+01 2.65317E-01 1.14826E-02 1.01892E-01 3.17911E-13 1.47825E-13
 -1       382 2.03591E+01 1.69639E-01 7.11933E-03-2.45376E-01 2.00478E-13 3.21730E-14
 -1       383 2.04697E+01 1.26176E-01 3.94866E-03-4.83906E-01 1.50299E-13-4.45183E-14
 -1       384 2.07282E+01 1.03908E-01 2.36349E-03-6.66602E-01 1.39887E-13-9.33372E-14
 -1       385 2.10999E+01 8.64920E-02 1.42203E-03-8.14521E-01 1.02123E-13-1.07550E-13
 -1       386 2.15591E+01 6.10264E-02 4.74771E-04-9.27734E-01 6.80831E-14-7.85578E-14
 -1       387 2.20809E+01 1.35145E-02-8.07538E-04-9.87580E-01 1.19514E-13-1.77545E-14
 -1       388 2.26338E+01-7.14936E-02-2.50792E-03-9.55586E-01 3.18684E-14-1.83187E-15
 -1       389 2.31719E+01-2.05571E-01-4.40660E-03-7.75171E-01 1.28994E-14-7.56686E-15
 -1       390 2.36284E+01-3.81516E-01-5.87659E-03-3.85435E-01 7.64536E-14 3.16640E-14
 -1       391 2.39097E+01-5.48050E-01-6.10355E-03 2.39845E-01 1.68322E-13 1.08618E-13
 -1       392 2.39048E+01-5.88468E-01-4.13774E-03 1.02077E+00 1.30513E-13 1.23524E-13
 -1       393 2.35334E+01-3.57035E-01-2.58485E-03 1.69714E+00 8.20537E-14 8.13152E-15
 -1       394 2.28562E+01 1.88089E-01-2.85589E-03 1.85692E+00 1.25088E-13-1.71400E-13
 -1       395 2.21791E+01 8.08603E-01-4.09468E-03 1.19519E+00 2.88702E-13-3.65714E-13
 -1       396 2.19348E+01 1.07024E+00-3.56830E-03-1.08891E-01 3.35602E-13-4.50101E-13
 -1       397 2.23149E+01 7.60216E-01-7.05123E-05-1.37284E+00 2.08054E-13-5.66717E-13
 -1       398 2.30689E+01 1.27484E-01 1.59474E-03-1.94352E+00-7.68417E-14-6.37899E-13
 -1       399 2.37560E+01-3.89785E-01 4.29816E-04-1.70659E+00-1.01939E-13-6.91510E-13
 -1       400 2.41081E+01-5.87273E-01-4.53878E-03-1.00460E+00 1.52753E-13-6.10954E-13
 -1       401 2.41005E+01-5.25240E-01-7.35221E-03-2.42305E-01-7.68222E-15-6.36789E-13
 -1       402 2.38282E+01-3.51492E-01-6.84449E-03 3.43113E-01-3.07332E-13-6.14704E-13
 -1       403 2.34046E+01-1.77463E-01-4.84466E-03 6.90004E-01-3.36203E-13-3.75748E-13
 -1       404 2.29183E+01-4.93443E-02-2.55397E-03 8.34783E-01-1.00115E-13-3.83462E-13
 -1       405 2.24283E+01 2.81831E-02-7.04373E-04 8.42573E-01 7.22440E-14-9.49583E-14
 -1       406 2.19704E+01 6.67165E-02 4.95789E-04 7.72474E-01 1.66615E-13 1.63570E-13
 -1       407 2.15637E+01 8.00837E-02 1.12628E-03 6.66950E-01 6.36322E-14 1.50117E-13
 -1       408 2.12158E+01 7.92053E-02 1.35907E-03 5.52493E-01-5.43903E-14 2.32652E-13
 -1       409 2.09268E+01 7.13309E-02 1.35325E-03 4.43730E-01-1.17578E-13 1.56605E-13
 -1       410 2.06927E+01 6.07829E-02 1.22458E-03 3.47580E-01 1.03576E-14 6.19337E-16
 -1       411 2.05071E+01 4.99195E-02 1.04642E-03 2.66382E-01 8.19044E-15-2.54654E-13
 -1       412 2.03628E+01 3.99015E-02 8.60453E-04 1.99982E-01 1.91392E-13-1.37123E-13
 -1       413 2.02528E+01 3.12070E-02 6.87841E-04 1.47010E-01 2.61310E-13-1.55328E-13
 -1       414 2.01705E+01 2.39481E-02 5.37593E-04 1.05609E-01 2.09862E-13 6.69512E-14
 -1       415 2.01103E+01 1.80534E-02 4.12036E-04 7.38409E-02-1.72331E-15 8.27633E-14
 -1       416 2.00673E+01 1.33705E-02 3.10092E-04 4.98884E-02 6.77888E-14 1.35296E-13
 -1       417 2.00375E+01 9.71953E-03 2.29137E-04 3.21448E-02-2.97784E-13-7.92047E-14
 -1       418 2.00175E+01 6.92103E-03 1.65995E-04 1.92453E-02-7.13486E-14-1.48276E-13
 -1       419 2.00050E+01 4.80827E-03 1.17440E-04 1.00649E-02 3.09776E-14-2.00984E-13
 -1       420 1.99977E+01 3.23186E-03 8.04188E-05 3.70246E-03 2.00343E-14-3.35981E-14
 -1       421 1.99942E+01 2.05981E-03 5.21042E-05-5.41864E-04-1.30999E-14-1.39531E-13
 -1       422 1.99932E+01 1.17331E-03 2.99948E-05-3.18806E-03 1.42533E-13-7.91511E-14
 -1       423 1.99938E+01 4.56387E-04 1.29935E-05-4.59193E-03-3.05749E-14 3.31324E-14
 -1       424 1.99952E+01-2.00112E-04 6.29020E-07-4.95047E-03 4.44440E-14-1.55984E-13
 -1       425 1.99970E+01-9.17645E-04-5.46007E-06-4.33323E-03 6.81908E-14-1.50539E-13
 -1       426 1.99982E+01-1.53054E-03-1.10786E-05-3.54025E-03-1.00138E-13-1.75098E-13
 -1       427 2.00005E+01-4.75410E-03 3.92370E-06-4.65308E-03-2.75230E-13 5.14933E-15
 -1       428 1.99998E+01-3.58561E-03-7.83377E-06-5.06311E-03-2.44677E-13-2.72367E-14
 -1       429 1.99990E+01-2.68741E-03-1.51948E-05-4.65821E-03-1.57998E-13 9.83670E-16
 -1       430 2.00009E+01-5.62168E-03 9.35749E-06-3.75406E-03-3.20185E-13-7.34842E-13
 -1       431 2.00010E+01-6.22429E-03 1.14647E-05-2.65378E-03-1.28709E-13 2.20986E-13
 -1       432 2.00009E+01-6.57666E-03 1.24091E-05-1.54008E-03 1.65914E-13 3.99043E-13
 -1       433 2.00009E+01-6.72747E-03 1.27655E-05-4.74851E-04-5.78225E-14 1.93590E-13
 -1       434 2.00009E+01-6.71139E-03 1.27258E-05 5.59971E-04-1.38467E-13 6.87811E-14
 -1       435 2.00009E+01-6.53096E-03 1.23133E-05 1.61164E-03-1.73771E-13-1.55412E-13
 -1       436 2.00009E+01-6.16417E-03 1.10296E-05 2.68224E-03-2.89410E-13-6.64414E-13
 -1       437 2.00008E+01-5.55553E-03 8.10822E-06 3.75283E-03-5.82036E-14 3.99000E-14
 -1       438 2.00005E+01-4.66775E-03 2.81097E-06 4.63844E-03 2.19777E-13-1.15284E-13
 -1       439 1.99998E+01-3.55428E-03-9.47437E-06 5.08876E-03 2.89639E-14 2.40792E-13
 -1       440 1.05321E+01-5.68660E+00-7.40708E-02 6.72426E+00-3.42407E-13 9.34357E-13
 -1       441 1.33905E+00-4.10288E+00-3.35363E-02-5.29270E-01-8.54542E-14 1.28472E-12
 -1       442 4.57634E+00-4.73002E+00-2.73116E-02 4.74057E+00-2.11914E-13 9.73457E-13
 -1       443 1.93949E+01-5.40800E+00-3.90262E-02 6.44283E+00-1.01266E-13 7.27425E-13
 -1       444 2.74946E+01-2.94275E+00 8.62582E-03 4.06359E+00 4.36734E-13 2.80637E-13
 -1       445 1.98618E+01 3.53428E+00-1.98437E-02-1.41322E+00-5.05239E-13-3.95355E-13
 -1       446 3.54158E+01 5.42483E+00 6.07803E-02-2.33420E-01 9.59788E-13 1.52239E-14
 -1       447 3.51733E+01 8.02309E+00 2.10798E-02-2.14180E-01 1.22766E-12 2.91676E-14
 -1       448 3.55683E+01 7.04800E+00 4.18640E-02 4.09426E-01 1.25536E-12 2.14918E-13
 -1       449 3.36198E+01 2.86039E+00-1.81510E-03 5.94369E-02 1.02535E-12 2.27374E-13
 -1       450 2.92660E+01-2.82411E+00-2.37575E-02-2.50060E+00 4.37442E-13 5.75789E-14
 -1       451 2.16173E+01-5.25650E+00-2.40219E-02-6.04565E+00 2.94459E-13-4.84397E-13
 -1       452 1.28437E+01-5.70508E+00-1.14499E-02-7.07622E+00-8.21565E-15-8.05012E-13
 -1       453 6.28312E+00-4.65829E+00 3.17006E-02-5.64950E+00-9.95315E-14-1.02075E-12
 -1       454 1.65647E+00-3.89912E+00 9.65486E-03-6.96929E-01-1.31643E-13-1.37229E-12
 -1       455 2.46934E+00-4.86018E+00-8.95560E-02 3.38262E+00-4.56857E-14-1.46029E-12
 -1       456 8.46609E+00-5.63312E+00-7.83761E-02 6.53812E+00-1.56569E-13-1.15274E-12
 -1       457 1.67560E+01-5.68023E+00-3.30133E-02 7.06021E+00-1.15186E-13-7.37840E-13
 -1       458 2.61922E+01-3.83134E+00 1.04745E-02 4.48820E+00-4.37608E-13-3.60018E-13
 -1       459 3.17822E+01 5.98464E-01 3.06201E-02 2.11979E+00-9.31791E-13-2.17493E-13
 -1       460 3.33988E+01 4.84453E+00-4.10831E-02-6.29211E-01-9.02861E-13-7.97279E-14
 -1       461 3.45105E+01 7.51718E+00-3.37357E-02-2.77453E-01-1.17786E-12-2.75419E-13
 -1       462 3.63621E+01 7.42051E+00 1.02654E-01 8.28281E-02-1.22571E-12-2.96867E-13
 -1       463 3.41169E+01 4.24468E+00 2.62401E-02-1.14287E-01-1.09066E-12-7.71327E-14
 -1       464 3.11878E+01 3.16274E-02 2.47619E-02-2.21655E+00-9.64549E-13-4.28546E-14
 -1       465 2.53111E+01-3.32598E+00-3.19508E-03-5.07395E+00-6.65676E-13 2.44929E-13
 -1       466 1.81340E+01-5.36215E+00-1.98341E-02-6.78946E+00-3.80335E-13 2.45626E-13
 -1       467 9.33657E+00-5.48689E+00-5.99937E-02-6.71085E+00-2.18117E-13 6.53914E-13
 -1       468 2.96792E+00-5.01953E+00-9.52370E-02-3.93306E+00 2.24265E-14 1.37372E-12
 -1       469 3.28498E+01 1.11717E+00 5.74936E-02 1.70853E+00 8.04625E-13 2.11414E-13
 -1       470 4.23955E+00-2.23945E+00 1.43513E-01 2.38254E+00-2.62637E-13 1.11675E-12
 -1       471 2.07378E+01 9.09372E-01 4.27018E-03 5.85136E-01 4.25860E-13-1.19776E-13
 -1       472 1.94271E+01 3.43309E+00-4.65104E-03-4.01400E-01-2.73396E-13-5.92612E-13
 -1       473 1.96557E+01 3.19632E+00-5.27181E-03-6.37543E-01-3.51632E-13-5.49688E-13
 -1       474 1.92346E+01 3.61953E+00-4.14858E-03 1.80260E-02-7.68992E-14-6.22890E-13
 -1       475 1.92800E+01 3.57761E+00-4.26241E-03 2.18383E-01 2.95766E-14-6.72400E-13
 -1       476 1.94175E+01 3.44503E+00-4.69474E-03 4.24335E-01 1.29987E-13-6.52857E-13
 -1       477 1.96484E+01 3.20726E+00-5.43709E-03 6.50248E-01 2.49995E-13-5.97349E-13
 -1       478 1.99652E+01 2.84568E+00-6.24853E-03 8.88190E-01 3.46970E-13-5.23899E-13
 -1       479 2.03706E+01 2.31828E+00-5.61113E-03 1.11418E+00 4.59131E-13-3.91613E-13
 -1       480 2.05880E+01 5.72390E-01 5.59897E-03-7.97392E-03 2.98905E-13-1.46029E-13
 -1       481 2.06542E+01 1.07623E+00 3.38016E-03-5.30134E-01-4.09741E-13 1.79547E-14
 -1       482 3.14330E+01 2.08386E+00-1.06675E-01-1.51509E+00 6.78298E-13-3.34663E-13
 -1       483 2.05670E+01 6.82049E-01 2.26245E-03 3.11550E-02-3.15924E-13-1.32886E-14
 -1       484 2.05293E+01 4.68941E-01 1.38703E-03 4.37203E-01-2.46620E-13-1.85034E-14
 -1       485 2.05646E+01 3.36245E-01 7.79209E-04 7.35117E-01-2.16758E-13-3.40798E-14
 -1       486 2.06731E+01 2.31449E-01 4.04691E-04 9.54207E-01-1.77318E-13-6.69668E-14
 -1       487 2.08515E+01 1.17700E-01 5.19141E-05 1.10348E+00-1.35027E-13-7.42941E-14
 -1       488 2.11006E+01-3.57897E-02-4.05970E-04 1.17361E+00-6.85322E-14-9.62611E-14
 -1       489 2.14258E+01-2.54005E-01-1.01928E-03 1.13795E+00-1.05074E-13-6.94045E-14
 -1       490 2.18332E+01-5.46402E-01-1.73148E-03 9.54904E-01-8.36439E-14 2.78873E-14
 -1       491 2.23169E+01-8.84931E-01-2.42793E-03 5.77049E-01 1.64924E-14 5.67948E-14
 -1       492 2.28360E+01-1.17255E+00-2.83274E-03-2.49228E-02 7.82712E-14 9.28471E-14
 -1       493 2.32847E+01-1.21699E+00-2.19676E-03-8.08552E-01 2.77928E-14 9.59333E-14
 -1       494 2.34965E+01-7.84619E-01-3.27060E-03-1.57681E+00-8.14697E-15 1.25237E-13
 -1       495 2.33525E+01 2.07596E-01-6.16712E-03-1.94721E+00-1.71023E-13 1.48523E-13
 -1       496 2.29525E+01 1.44406E+00-7.19420E-03-1.52252E+00-3.40437E-13 4.20660E-14
 -1       497 2.26684E+01 2.18693E+00-9.65252E-03-2.93655E-01-3.68120E-13-4.43023E-14
 -1       498 2.27964E+01 1.89327E+00-1.09720E-02 1.12300E+00-3.95235E-13-1.12118E-13
 -1       499 2.32143E+01 7.91253E-01-6.83943E-03 1.95159E+00-2.56883E-13-3.39577E-13
 -1       500 2.35300E+01-3.90628E-01-3.54496E-03 1.91720E+00-3.94337E-14-4.74957E-13
 -1       501 2.34793E+01-1.06474E+00-4.50390E-03 1.28772E+00 1.96937E-13-5.49415E-13
 -1       502 2.31407E+01-1.20442E+00-2.42065E-03 4.94936E-01 2.29066E-13-5.22206E-13
 -1       503 2.26577E+01-9.97269E-01-2.41164E-03-1.84654E-01 1.42555E-13-5.73462E-13
 -1       504 2.21686E+01-6.64839E-01-2.04781E-03-6.45522E-01 2.83113E-14-6.32996E-13
 -1       505 2.17413E+01-3.50240E-01-1.27890E-03-8.97158E-01-1.39438E-14-3.39947E-13
 -1       506 2.13904E+01-1.10497E-01-5.93139E-04-9.88236E-01 8.18391E-14-2.30471E-13
 -1       507 2.11082E+01 4.65988E-02-1.19411E-04-9.71403E-01-2.31458E-14-2.73953E-13
 -1       508 2.08812E+01 1.35174E-01 1.74835E-04-8.90647E-01 4.58069E-14-8.70365E-14
 -1       509 2.06974E+01 1.74706E-01 3.28697E-04-7.78164E-01-6.81338E-14 7.06680E-15
 -1       510 2.05477E+01 1.82657E-01 3.86096E-04-6.55564E-01-9.79678E-14-2.14434E-14
 -1       511 2.04256E+01 1.72253E-01 3.84135E-04-5.36230E-01-6.07149E-14-5.60411E-15
 -1       512 2.03265E+01 1.52581E-01 3.49854E-04-4.27627E-01-1.82036E-13 2.68696E-13
 -1       513 2.02468E+01 1.29438E-01 3.01196E-04-3.33228E-01-1.10757E-13 1.80039E-13
 -1       514 2.01834E+01 1.06276E-01 2.49118E-04-2.53947E-01-8.06291E-14 2.24418E-13
 -1       515 2.01337E+01 8.49655E-02 1.99731E-04-1.89183E-01 1.14874E-13 3.78233E-13
 -1       516 2.00953E+01 6.63757E-02 1.56022E-04-1.37511E-01 1.16667E-13 1.40006E-13
 -1       517 2.00662E+01 5.07619E-02 1.19073E-04-9.71526E-02-2.38244E-13 6.93571E-14
 -1       518 2.00446E+01 3.80276E-02 8.88759E-05-6.62563E-02 7.00505E-14 1.21404E-13
 -1       519 2.00288E+01 2.78899E-02 6.48483E-05-4.30696E-02-3.78657E-14 2.71822E-13
 -1       520 2.00177E+01 1.99814E-02 4.61322E-05-2.60296E-02-1.67063E-13 3.88351E-13
 -1       521 2.00101E+01 1.39106E-02 3.17469E-05-1.38031E-02-9.21807E-14 4.06449E-13
 -1       522 2.00051E+01 9.29410E-03 2.08045E-05-5.29716E-03 2.62233E-13 3.22995E-13
 -1       523 2.00020E+01 5.76960E-03 1.24431E-05 3.50032E-04 2.78092E-13 2.15283E-13
 -1       524 2.00003E+01 2.99231E-03 6.34792E-06 3.78060E-03 1.05346E-13 1.64488E-13
 -1       525 1.99995E+01 6.42182E-04 1.73198E-06 5.44291E-03 1.38294E-13 6.60742E-15
 -1       526 1.05408E+01-3.71470E+00 1.26245E-01 6.21676E+00-4.17610E-13 7.18071E-13
 -1       527 2.06012E+01 3.12216E-01 1.77029E-03-7.41151E-01 1.59121E-13-1.48470E-13
 -1       528 2.07533E+01 2.55958E-01 1.11716E-03-9.92315E-01 1.42238E-13-1.51695E-13
 -1       529 2.09862E+01 1.99804E-01 6.28210E-04-1.19514E+00 5.87168E-14-1.74198E-13
 -1       530 2.12939E+01 1.12936E-01-1.55600E-05-1.34373E+00 2.99052E-14-1.16772E-13
 -1       531 2.16776E+01-3.84958E-02-9.89278E-04-1.41009E+00 5.73243E-15-4.17063E-14
 -1       532 2.21464E+01-2.87587E-01-2.33262E-03-1.34202E+00 2.42264E-14 1.76847E-14
 -1       533 2.27097E+01-6.47700E-01-3.85437E-03-1.06495E+00 6.81298E-14 4.83285E-14
 -1       534 2.33558E+01-1.06937E+00-5.03943E-03-4.99301E-01 4.41696E-14 1.30173E-13
 -1       535 2.40083E+01-1.37875E+00-5.72855E-03 3.85007E-01 4.76575E-14 2.31350E-13
 -1       536 2.44860E+01-1.24901E+00-4.15455E-03 1.44816E+00 1.50204E-13 3.18120E-13
 -1       537 2.45336E+01-3.55184E-01-1.19209E-02 2.25978E+00 2.31570E-13 3.09873E-13
 -1       538 2.41296E+01 1.15229E+00-2.20629E-02 2.13778E+00 3.66695E-13 1.28639E-13
 -1       539 2.36755E+01 2.37612E+00-3.05820E-02 7.80888E-01 4.26320E-13 3.18541E-14
 -1       540 2.37377E+01 2.26833E+00-2.77433E-02-1.11159E+00 3.89640E-13-1.78432E-13
 -1       541 2.42399E+01 9.33648E-01-2.29255E-02-2.31879E+00 1.94397E-13-3.68786E-13
 -1       542 2.46291E+01-5.32182E-01-7.85817E-03-2.27446E+00-2.06688E-14-5.42636E-13
 -1       543 2.45216E+01-1.29214E+00-5.13019E-03-1.40100E+00-4.05891E-14-6.00101E-13
 -1       544 2.40353E+01-1.33521E+00-6.54741E-03-3.58096E-01-4.41140E-14-3.26563E-13
 -1       545 2.34026E+01-9.88298E-01-5.38221E-03 4.68068E-01-2.19116E-13-1.26064E-13
 -1       546 2.27955E+01-5.65841E-01-3.84235E-03 9.71347E-01-2.66792E-13-3.27526E-13
 -1       547 2.22752E+01-2.21742E-01-2.14905E-03 1.19768E+00-2.20912E-13-3.78141E-13
 -1       548 2.18453E+01 5.47466E-03-7.37384E-04 1.23221E+00-1.64597E-13-3.29128E-13
 -1       549 2.14906E+01 1.31709E-01 1.98139E-04 1.15245E+00-5.83994E-14-2.61122E-13
 -1       550 2.11958E+01 1.87191E-01 7.00181E-04 1.01541E+00-2.68135E-14-3.63483E-14
 -1       551 2.09496E+01 1.99271E-01 9.01677E-04 8.58370E-01-1.37466E-13 3.37827E-13
 -1       552 2.07448E+01 1.87717E-01 9.21154E-04 7.03373E-01 6.44916E-14 2.72942E-13
 -1       553 2.05757E+01 1.65202E-01 8.44516E-04 5.62083E-01 8.66262E-14 9.97112E-14
 -1       554 2.04380E+01 1.39172E-01 7.26997E-04 4.39562E-01 1.12552E-13 1.53609E-13
 -1       555 2.03274E+01 1.13661E-01 6.00414E-04 3.36967E-01 1.93862E-14 1.92413E-13
 -1       556 2.02400E+01 9.06182E-02 4.81226E-04 2.53312E-01 1.50284E-13 1.80854E-13
 -1       557 2.01722E+01 7.08035E-02 3.76696E-04 1.86568E-01 1.30405E-13 8.98693E-14
 -1       558 2.01204E+01 5.43248E-02 2.88975E-04 1.34319E-01 1.01360E-13 2.69915E-13
 -1       559 2.00817E+01 4.09615E-02 2.17583E-04 9.41309E-02 3.96642E-14 2.99290E-13
 -1       560 2.00533E+01 3.03461E-02 1.60825E-04 6.37439E-02 1.28063E-13 1.55088E-13
 -1       561 2.00330E+01 2.20637E-02 1.16556E-04 4.11673E-02-9.81028E-14-1.83236E-14
 -1       562 2.00190E+01 1.57041E-02 8.25832E-05 2.47086E-02 2.54942E-14-1.64447E-13
 -1       563 2.00097E+01 1.08855E-02 5.68122E-05 1.29719E-02 3.71180E-14-1.67289E-13
 -1       564 2.00038E+01 7.26337E-03 3.73469E-05 4.84045E-03 2.31354E-14-6.77449E-14
 -1       565 2.00004E+01 4.53282E-03 2.23408E-05-5.50110E-04 6.72306E-14-1.38376E-13
 -1       566 1.99987E+01 2.41496E-03 1.12468E-05-3.84104E-03-7.43964E-14-5.59047E-14
 -1       567 1.99982E+01 6.42621E-04 7.55560E-07-5.48921E-03 1.55049E-13-1.97919E-13
 -1       568 1.99984E+01-1.01999E-03-6.16719E-06-5.76027E-03 1.42751E-15-9.62547E-14
 -1       569 2.00020E+01-6.94622E-04 3.87806E-06-3.26349E-03 1.05786E-13-3.64272E-14
 -1       570 2.00020E+01-2.08543E-04 4.94406E-06-2.05090E-03 1.50791E-13 4.74513E-13
 -1       571 2.00007E+01-1.36726E-03-4.21116E-06-5.45863E-03-2.36295E-13-1.01884E-13
 -1       572 2.00016E+01-1.13713E-03 1.48576E-06-4.47038E-03-3.84492E-13-3.18748E-13
 -1       573 2.00019E+01 1.58924E-04 5.44472E-06-9.50155E-04-4.21024E-14 1.52504E-13
 -1       574 2.00018E+01 3.03015E-04 5.59289E-06 5.59448E-05 8.73772E-14 3.10475E-13
 -1       575 2.00018E+01 1.82538E-04 5.52548E-06 1.05309E-03-9.19286E-14-4.19436E-14
 -1       576 2.00019E+01-1.57188E-04 5.04667E-06 2.11117E-03-2.05792E-13-5.16186E-13
 -1       577 2.00019E+01-6.25160E-04 3.48305E-06 3.29032E-03 9.79100E-14-2.37113E-13
 -1       578 2.00016E+01-1.03488E-03 9.56450E-07 4.48177E-03 2.27868E-14-2.39685E-15
 -1       579 2.00006E+01-1.23383E-03-1.36820E-06 5.37866E-03 1.14603E-13 1.39577E-13
 -1       580 2.52444E+01-5.41699E+00 2.31450E-03 3.67126E+00-2.97304E-13-7.55819E-14
 -1       581 2.05422E+01 4.01415E-01 3.11910E-03-4.26315E-01 1.99209E-13-1.49612E-13
 -1       582 1.77034E+01-5.32388E+00 7.53294E-02 6.53837E+00-6.51132E-13 6.18484E-13
 -1       583 9.00601E+00-3.04519E+00 1.39586E-01-5.82029E+00 3.27419E-13 9.08759E-13
 -1       584 5.74155E+00-1.79205E+00 1.79718E-01-3.27069E+00 1.02734E-13 1.11824E-12
 -1       585 3.01646E+01 9.10761E-01-1.24344E-01-1.24389E+00-5.55639E-13 2.34250E-13
 -1       586 1.97083E+01-5.62586E+00 7.00379E-02-6.21376E+00-3.17482E-13-2.94341E-13
 -1       587 1.92847E+01 3.57160E+00-4.28253E-03-1.84895E-01-1.65384E-13-5.96023E-13
 -1       588 3.04467E+01 6.14207E+00-1.56378E-01-1.56280E+00 9.12603E-13-2.21781E-13
 -1       589 2.93738E+01-1.04297E+00-1.36467E-01 1.27138E+00 4.37751E-13 6.32931E-13
 -1       590 2.98234E+01 6.65047E+00-1.91351E-01 7.43454E-01 1.06251E-12 1.62393E-13
 -1       591 4.53387E+00-1.81441E+00 1.46793E-01 1.90238E+00-1.62752E-14-1.30779E-12
 -1       592 3.04658E+01 4.31294E+00-1.60264E-01 1.99590E+00 1.05904E-12 5.05720E-13
 -1       593 2.59097E+01-5.14504E+00 5.75280E-03-3.22760E+00-9.63153E-14 3.17444E-13
 -1       594 1.22866E+01-3.94945E+00 1.24082E-01-6.55561E+00-3.30520E-13-6.50258E-13
 -1       595 3.03175E+01 5.38587E+00-1.51825E-01 1.68266E+00-1.13833E-12-4.96783E-13
 -1       596 6.22775E+00-1.85869E+00 1.71940E-01-3.46609E+00-2.98241E-13-1.09822E-12
 -1       597 8.30874E+00-3.14301E+00 1.46612E-01 5.68231E+00 2.40828E-13-1.18704E-12
 -1       598 1.40972E+01-4.75731E+00 7.76445E-02 7.00203E+00 3.91645E-13-6.46087E-13
 -1       599 2.33894E+01-5.61049E+00 3.84238E-02 4.82131E+00 3.20903E-13-6.43860E-14
 -1       600 2.85248E+01-3.06342E+00-4.16918E-02 1.04124E+00-2.16337E-13 3.33733E-13
 -1       601 2.88222E+01 5.28603E+00-1.77912E-01-1.74790E+00-7.92158E-13 2.01877E-13
 -1       602 2.97473E+01 7.28166E+00-1.87593E-01 1.33988E-01-1.13497E-12-1.79375E-13
 -1       603 3.02175E+01 7.73382E-01-1.10515E-01 1.14932E+00-7.38021E-13-5.47763E-13
 -1       604 2.80539E+01-3.48269E+00-6.08251E-02-1.63360E+00-4.06387E-13-3.29653E-13
 -1       605 2.41349E+01-5.31265E+00 3.10926E-02-4.53191E+00-9.96009E-14-1.20719E-13
 -1       606 1.62463E+01-5.07142E+00 7.69170E-02-6.87530E+00 1.94220E-13 2.15383E-13
 -1       607 2.06257E+01 1.84048E+00-5.65672E-03-1.18498E+00-5.26574E-13-5.06899E-14
 -1       608 2.08938E+01 1.34014E+00-7.25297E-04 1.22257E+00 5.40453E-13-7.30251E-14
 -1       609 2.96584E+01-2.33761E+00-6.58387E-02 5.49772E-01 1.82894E-13-2.48079E-13
 -1       610 1.99616E+01 2.85274E+00-6.45982E-03-8.91348E-01-4.21617E-13-4.40737E-13
 -1       611 8.53817E+00-1.74794E+00 1.69053E-01 4.36677E+00-2.63189E-13 7.56097E-13
 -1       612 1.99993E+01-8.54991E-04-3.24746E-06 5.74164E-03 1.53475E-13 1.96838E-13
 -1       613 6.25470E+00-5.69996E-01 1.91796E-01-5.86712E-01-1.23375E-13 1.01869E-12
 -1       614 6.93689E+00-4.45314E-01 1.65266E-01-9.52129E-01-1.70230E-13-1.17270E-12
 -1       615 2.75338E+01-3.37818E+00-3.56849E-02 3.82520E-02-4.93884E-14 5.88295E-13
 -1       616 1.94819E+01 2.94038E+00-1.35363E-03 1.89312E-01 8.29560E-14-5.73977E-13
 -1       617 1.93838E+01 3.04300E+00-1.22776E-03 7.69894E-02-2.37659E-14-5.55619E-13
 -1       618 1.99556E+01 2.38996E+00-1.52640E-03 4.29775E-01 2.62113E-13-4.83577E-13
 -1       619 2.02819E+01 1.91989E+00-2.06002E-03 5.29832E-01 3.42289E-13-4.00237E-13
 -1       620 2.05521E+01 1.22034E+00 2.81339E-03 3.39458E-01 3.49916E-13-2.57447E-13
 -1       621 2.04935E+01 8.60186E-01 1.39090E-03-1.90901E-01 2.48975E-13-2.60645E-13
 -1       622 2.04342E+01 9.25948E-01 4.34682E-04 2.21003E-01-2.97926E-13-1.62332E-13
 -1       623 2.04119E+01 6.75340E-01 2.71692E-04 6.05728E-01-2.58404E-13-1.80495E-13
 -1       624 2.04178E+01 4.96108E-01 1.65675E-04 9.10641E-01-1.95907E-13-1.68063E-13
 -1       625 2.04712E+01 3.33304E-01 8.97531E-05 1.15030E+00-1.51923E-13-1.49187E-13
 -1       626 2.05915E+01 1.39852E-01-2.38426E-05 1.32805E+00-8.53913E-14-1.23034E-13
 -1       627 2.08059E+01-1.27579E-01-2.07371E-04 1.43242E+00-1.76692E-14-5.91214E-14
 -1       628 2.11530E+01-5.04047E-01-4.46487E-04 1.43326E+00-2.58569E-14 8.85549E-14
 -1       629 2.16766E+01-9.97185E-01-5.95055E-04 1.27664E+00-1.16787E-14 9.66856E-14
 -1       630 2.24010E+01-1.54648E+00-1.02283E-03 8.87388E-01 5.90036E-14 1.00213E-13
 -1       631 2.32906E+01-1.96915E+00-2.04879E-03 1.86710E-01 9.59715E-14 1.53765E-13
 -1       632 2.41585E+01-1.88666E+00-2.96605E-03-8.11272E-01 6.99699E-14 2.16842E-13
 -1       633 2.46779E+01-8.62487E-01-1.71666E-02-1.82492E+00-6.45660E-14 3.16571E-13
 -1       634 2.45622E+01 1.11462E+00-3.29848E-02-2.21423E+00-3.75789E-13 2.58927E-13
 -1       635 2.41557E+01 3.10098E+00-4.37831E-02-1.26973E+00-5.20967E-13 5.52557E-14
 -1       636 2.40066E+01 3.57443E+00-5.61483E-02 5.85337E-01-4.56510E-13-1.38735E-13
 -1       637 2.43264E+01 2.13129E+00-4.94146E-02 2.07160E+00-4.49963E-13-3.17668E-13
 -1       638 2.47424E+01-1.52942E-02-2.13066E-02 2.32086E+00-3.09210E-13-3.79158E-13
 -1       639 2.44995E+01-1.46760E+00-4.95664E-03 1.46925E+00-1.82944E-14-4.69480E-13
 -1       640 2.37323E+01-1.97328E+00-9.59062E-05 3.72702E-01 2.10835E-13-6.06552E-13
 -1       641 2.28168E+01-1.72601E+00-5.40048E-04-4.65197E-01 1.51644E-13-5.09838E-13
 -1       642 2.20017E+01-1.19711E+00-9.92144E-04-9.71669E-01 4.93455E-14-3.97643E-13
 -1       643 2.13846E+01-6.72977E-01-6.34603E-04-1.20885E+00 1.81226E-13-2.07988E-13
 -1       644 2.09534E+01-2.58916E-01-2.28401E-04-1.26654E+00 1.53012E-13-1.17644E-13
 -1       645 2.06667E+01 2.24470E-02-4.46156E-05-1.21402E+00 4.94942E-14-7.82193E-14
 -1       646 2.04791E+01 1.89701E-01 6.32127E-05-1.10117E+00 9.00176E-14-4.43862E-14
 -1       647 2.03552E+01 2.72556E-01 1.16808E-04-9.60459E-01 8.10275E-16-4.58253E-14
 -1       648 2.02706E+01 2.98927E-01 1.35442E-04-8.12549E-01-5.50881E-14 3.02317E-14
 -1       649 2.02102E+01 2.90765E-01 1.33872E-04-6.70084E-01 1.30660E-14 7.00325E-14
 -1       650 2.01650E+01 2.63717E-01 1.21584E-04-5.40257E-01-4.99991E-14 2.02565E-13
 -1       651 2.01299E+01 2.28187E-01 1.04607E-04-4.26561E-01-2.99250E-13 1.39953E-13
 -1       652 2.01019E+01 1.90672E-01 8.65761E-05-3.30039E-01 2.79079E-14 2.12170E-13
 -1       653 2.00794E+01 1.54939E-01 6.95162E-05-2.50185E-01-4.69228E-14 1.65332E-13
 -1       654 2.00611E+01 1.22947E-01 5.44152E-05-1.85589E-01-3.76025E-14 3.74262E-14
 -1       655 2.00465E+01 9.54968E-02 4.16300E-05-1.34390E-01-1.81692E-13 3.83944E-14
 -1       656 2.00348E+01 7.26884E-02 3.11513E-05-9.45812E-02-1.56978E-13 1.73992E-13
 -1       657 2.00256E+01 5.42225E-02 2.27838E-05-6.42057E-02-9.51532E-14-1.77140E-13
 -1       658 2.00185E+01 3.95935E-02 1.62590E-05-4.14705E-02-8.94498E-14-3.53358E-13
 -1       659 2.00131E+01 2.82103E-02 1.12233E-05-2.48083E-02-4.66061E-14-1.63552E-13
 -1       660 2.00089E+01 1.94688E-02 7.21587E-06-1.29003E-02 1.00141E-14 1.16842E-13
 -1       661 2.00059E+01 1.27876E-02 4.14868E-06-4.67588E-03 1.46822E-14 1.04050E-13
 -1       662 2.00037E+01 7.62247E-03 5.59833E-06 7.10141E-04 1.29770E-13-1.44457E-13
 -1       663 2.00021E+01 3.45602E-03-6.72186E-07 3.85111E-03 1.14164E-13-1.09699E-13
 -1       664 1.92648E+01-4.25676E+00 7.99362E-02 5.48964E+00 4.17461E-13-2.42400E-13
 -1       665 2.00013E+01 1.01045E-03-6.82099E-06 4.95608E-03 2.76520E-13 1.17954E-13
 -1       666 2.04658E+01 5.26713E-01 4.55169E-04-9.48961E-01 1.60594E-13-2.28945E-13
 -1       667 2.08190E+01 1.42278E-01-6.38209E-05-1.66021E+00-1.94034E-14-1.32754E-13
 -1       668 2.11235E+01-1.58559E-01-5.19089E-04-1.76879E+00-1.55703E-14-1.09725E-13
 -1       669 2.16063E+01-6.33138E-01-1.08935E-03-1.74412E+00-1.91852E-14-2.60433E-15
 -1       670 2.23437E+01-1.29048E+00-1.65173E-03-1.49443E+00 6.44274E-15 8.90060E-14
 -1       671 2.33874E+01-2.01553E+00-1.71058E-03-8.89959E-01-5.89621E-14 1.46979E-13
 -1       672 2.46499E+01-2.42757E+00-5.86862E-03 2.03816E-01-4.02037E-14 2.65652E-13
 -1       673 2.57110E+01-1.86398E+00-2.93602E-02 1.57974E+00 1.19609E-13 4.48765E-13
 -1       674 2.61423E+01 2.50726E-01-5.00655E-02 2.54917E+00 4.06734E-13 4.60478E-13
 -1       675 2.57434E+01 3.14020E+00-9.82644E-02 2.04153E+00 5.77566E-13 3.15623E-13
 -1       676 2.54849E+01 4.51229E+00-1.25773E-01-2.60970E-01 6.67192E-13-4.06038E-14
 -1       677 2.59738E+01 2.73384E+00-7.99977E-02-2.31366E+00 4.12836E-13-3.13529E-13
 -1       678 2.61309E+01-1.08253E-01-6.80862E-02-2.65704E+00 2.38804E-13-5.56166E-13
 -1       679 2.57045E+01-1.96800E+00-1.62870E-02-1.55422E+00-1.21845E-13-5.58698E-13
 -1       680 2.45193E+01-2.38347E+00-1.01367E-02-1.56715E-01-1.70969E-13-3.32949E-13
 -1       681 2.32765E+01-1.88193E+00-1.75484E-03 8.60129E-01-2.29286E-13-8.97557E-14
 -1       682 2.22828E+01-1.14770E+00-1.55527E-03 1.39176E+00-2.51325E-13 3.88333E-14
 -1       683 2.15925E+01-5.15716E-01-1.03867E-03 1.58655E+00-1.87494E-13-2.15427E-14
 -1       684 2.11417E+01-7.85499E-02-4.57761E-04 1.57834E+00-1.55756E-13-7.46434E-14
 -1       685 2.08513E+01 1.79628E-01-1.75936E-05 1.45857E+00 2.03141E-14-2.72651E-13
 -1       686 2.06582E+01 3.06448E-01 2.05970E-04 1.28559E+00-1.63486E-13-1.19091E-13
 -1       687 2.05216E+01 3.48594E-01 3.00281E-04 1.09505E+00-9.69078E-14 1.68385E-15
 -1       688 2.04180E+01 3.41579E-01 3.20988E-04 9.08016E-01-7.14244E-14-1.08683E-13
 -1       689 2.03352E+01 3.09311E-01 3.01601E-04 7.36115E-01 4.57994E-16 2.32749E-14
 -1       690 2.02669E+01 2.66615E-01 2.64079E-04 5.84919E-01 2.98504E-14 1.86000E-13
 -1       691 2.02100E+01 2.22053E-01 2.21048E-04 4.56176E-01 1.22503E-13 4.21940E-14
 -1       692 2.01629E+01 1.80177E-01 1.79231E-04 3.49331E-01 1.12113E-13-3.38793E-14
 -1       693 2.01243E+01 1.43106E-01 1.41798E-04 2.62551E-01 3.05856E-13 7.00404E-14
 -1       694 2.00932E+01 1.11551E-01 1.09900E-04 1.93397E-01 1.25018E-13 1.76299E-13
 -1       695 2.00685E+01 8.54485E-02 8.36107E-05 1.39249E-01-1.88687E-14 1.66346E-13
 -1       696 2.00493E+01 6.43422E-02 6.24769E-05 9.75615E-02 2.26214E-13 1.58517E-13
 -1       697 2.00346E+01 4.76018E-02 4.58219E-05 6.60034E-02 1.06094E-13 1.52420E-13
 -1       698 2.00236E+01 3.45476E-02 3.29240E-05 4.25310E-02 1.57438E-13 2.33243E-14
 -1       699 2.00156E+01 2.45169E-02 2.30964E-05 2.54095E-02 5.01730E-14-2.27946E-14
 -1       700 2.00098E+01 1.68948E-02 1.55952E-05 1.32095E-02 9.70965E-14-2.53502E-13
 -1       701 2.00059E+01 1.11224E-02 9.41242E-06 4.79340E-03 2.01904E-14-4.81879E-13
 -1       702 2.00032E+01 6.72077E-03 6.06596E-06-7.22220E-04-7.45278E-14-3.29115E-13
 -1       703 2.00015E+01 3.22035E-03 8.01399E-06-3.99114E-03 7.97498E-14-1.91252E-13
 -1       704 2.00011E+01 1.02088E-03 2.46764E-06-5.13924E-03-1.43727E-13-6.33034E-14
 -1       705 2.74129E+01 1.85480E+00-1.07853E-01-2.31981E+00-4.66224E-13 4.15945E-13
 -1       706 2.00025E+01 7.57983E-03 1.51865E-06-2.12741E-04 2.04019E-13 3.10405E-13
 -1       707 2.00030E+01 5.55510E-03 3.04830E-07-1.77290E-03 2.79030E-13 7.56121E-14
 -1       708 2.00025E+01 7.58765E-03 1.72039E-06 3.39838E-04-8.98332E-14-1.58595E-13
 -1       709 2.00028E+01 6.86064E-03 1.15093E-06-8.68655E-04 1.87687E-13 2.43904E-13
 -1       710 2.00027E+01 6.90449E-03 1.20563E-06 9.66370E-04-2.73625E-13-2.22087E-13
 -1       711 2.00029E+01 5.62870E-03-3.07659E-07 1.83634E-03 3.80626E-14-6.10425E-14
 -1       712 2.00029E+01 4.00806E-03-1.44561E-06 2.97139E-03 1.48888E-13-7.84814E-14
 -1       713 2.04604E+01 6.52157E-01 8.23750E-04-6.08748E-01 1.77633E-13-2.47777E-13
 -1       714 2.78803E+01-1.25797E+00-8.04350E-02-1.34885E+00-2.64348E-13 3.42060E-13
 -1       715 1.58342E+01-3.36834E+00 9.44404E-02 5.69635E+00-6.75758E-13 3.94455E-13
 -1       716 2.72934E+01-3.76022E+00-4.20138E-02 2.65266E-01-1.23287E-13-2.36422E-13
 -1       717 9.76273E+00-1.20022E+00 1.44060E-01-4.22562E+00 2.49700E-13 8.63656E-13
 -1       718 2.79237E+01 1.39080E+00-1.19590E-01 2.43505E+00 5.81708E-13 7.18229E-13
 -1       719 1.43171E+01-3.26483E+00 1.05039E-01-6.11691E+00 3.88745E-13 2.45179E-13
 -1       720 2.06306E+01 3.20568E-01 2.03585E-04-1.47294E+00 1.44654E-14-1.37319E-13
 -1       721 2.05194E+01 4.32103E-01 3.52751E-04-1.23373E+00 9.24039E-14-2.04016E-13
 -1       722 2.04509E+01 1.32805E+00 8.60350E-04-2.60753E-01-3.57688E-13-1.76459E-13
 -1       723 2.89909E+01-7.28446E-01-6.72321E-02-1.82983E+00 3.24483E-13-4.73427E-13
 -1       724 2.13106E+01-4.97347E+00 4.29553E-02-4.98146E+00 4.71921E-13-2.35936E-13
 -1       725 1.96780E+01 2.72496E+00-1.45593E-03 3.07961E-01 1.72477E-13-5.46213E-13
 -1       726 8.82092E+00-9.58440E-01 1.64914E-01 3.66843E+00 1.88755E-13-1.09471E-12
 -1       727 2.77612E+01 2.19792E+00-1.09279E-01 2.38963E+00-6.90777E-13-7.88185E-13
 -1       728 1.96952E+01 2.70440E+00-1.68152E-03-2.87436E-01-2.76467E-13-5.19926E-13
 -1       729 1.77195E+01-4.15889E+00 9.23702E-02-5.87370E+00-4.74148E-13-3.40002E-13
 -1       730 1.11968E+01-1.74575E+00 1.29773E-01-4.85047E+00-4.45845E-13-8.11878E-13
 -1       731 2.59428E+01-4.29953E+00-2.40025E-02 1.51206E+00 1.75016E-13 2.65930E-13
 -1       732 2.30033E+01-5.02227E+00 2.38440E-02-4.06209E+00-2.90643E-13 2.55029E-13
 -1       733 1.21927E+01-2.57751E+00 1.24258E-01 5.74068E+00 3.66748E-13-7.30138E-13
 -1       734 2.77131E+01-1.96848E+00-6.83936E-02 9.95713E-01-3.24345E-13-9.06424E-13
 -1       735 2.20318E+01-5.02713E+00 2.71058E-02 4.52015E+00-6.08538E-13 3.63105E-13
 -1       736 2.59733E+01-4.56065E+00-1.64315E-02-2.05473E+00 7.64163E-14-4.93067E-13
 -1       737 2.83332E+01 2.97068E+00-1.37797E-01-2.53122E+00 5.76511E-13-4.91752E-13
 -1       738 1.99658E+01 2.37545E+00-2.21706E-03-4.28203E-01-3.28347E-13-4.47300E-13
 -1       739 1.93895E+01 3.03627E+00-1.40488E-03-3.44668E-02-1.14951E-13-5.26072E-13
 -1       740 9.16350E+00-5.61394E-02 1.31818E-01-2.14052E+00 9.28519E-14 7.87516E-13
 -1       741 1.34384E+01-1.71052E+00 1.08558E-01 4.82836E+00-5.47297E-13 2.66336E-13
 -1       742 2.30533E+01-4.45561E+00 1.30789E-02 3.30418E+00 3.06906E-13 9.54980E-14
 -1       743 2.59844E+01 3.71906E+00-1.03682E-01-1.81399E+00-5.83172E-13 3.86111E-13
 -1       744 2.00025E+01 2.34445E-03-6.36054E-07-3.97193E-03-1.45296E-13-1.98741E-13
 -1       745 2.51640E+01-4.40978E+00 2.06506E-02 1.74550E+00-2.38379E-13-2.09195E-13
 -1       746 1.02976E+01-3.36240E-01 1.11046E-01-2.98787E+00-3.34950E-13-8.18266E-13
 -1       747 2.65899E+01 5.17869E+00-1.43635E-01 1.30853E+00-8.33604E-13-2.65518E-13
 -1       748 2.00028E+01 3.95389E-03-2.01070E-06 3.43260E-03 2.55828E-13-1.25351E-13
 -1       749 8.28688E+00-1.64964E-01 1.39248E-01 1.72799E+00-1.75918E-13 1.13309E-12
 -1       750 2.56549E+01-4.29394E+00-5.84994E-03-1.25594E+00-2.38681E-13 4.87591E-13
 -1       751 2.00030E+01 3.90959E-03-2.78508E-07-2.81485E-03 1.60545E-13 1.62316E-13
 -1       752 1.94966E+01 2.92344E+00-1.62421E-03-1.53745E-01-2.06337E-13-5.04972E-13
 -1       753 2.61184E+01 5.39508E+00-1.38670E-01-4.17751E-01-7.92200E-13 2.34686E-13
 -1       754 2.03468E+01 1.80170E+00-8.60799E-04-5.42064E-01-3.87318E-13-2.56392E-13
 -1       755 2.01632E+01 1.68604E+00 4.13730E-04 8.62719E-02 2.50850E-13-3.88080E-13
 -1       756 2.02108E+01 1.11982E+00 1.70196E-05 3.99181E-01-2.66387E-13-2.62025E-13
 -1       757 2.01665E+01 8.54015E-01 1.93507E-05 7.48252E-01-1.87080E-13-2.03254E-13
 -1       758 2.01249E+01 6.41425E-01 4.08025E-05 1.04775E+00-1.44355E-13-1.40792E-13
 -1       759 2.01158E+01 4.26263E-01 4.90049E-05 1.30803E+00-1.13020E-13-1.15089E-13
 -1       760 2.01757E+01 1.53187E-01 5.29632E-06 1.53402E+00 2.66878E-15-8.34842E-14
 -1       761 2.03571E+01-2.33421E-01-5.86899E-05 1.71908E+00 7.36938E-14-3.61345E-14
 -1       762 2.07353E+01-7.82527E-01 7.46027E-05 1.83511E+00 3.03958E-14 3.94040E-14
 -1       763 2.14119E+01-1.51022E+00 1.75408E-03 1.80951E+00 3.65564E-14 1.05818E-13
 -1       764 2.24555E+01-2.30968E+00 4.14101E-03 1.51004E+00 1.45388E-13 1.60085E-13
 -1       765 2.38907E+01-2.92315E+00-7.32785E-03 7.37920E-01 1.82382E-13 1.90190E-13
 -1       766 2.54517E+01-2.65969E+00-7.52698E-03-5.60034E-01 6.52724E-14 2.51217E-13
 -1       767 2.44971E+01-2.86390E+00-2.20581E-02-1.40124E-01 2.76607E-14-5.47453E-13
 -1       768 2.30280E+01-2.60776E+00-1.13211E-03-1.08776E+00 3.90133E-13-4.03123E-13
 -1       769 2.17773E+01-1.81217E+00-4.64280E-05-1.57643E+00 2.75472E-13-1.76836E-13
 -1       770 2.09295E+01-1.03675E+00-1.13730E-04-1.68384E+00 1.27302E-13-8.83058E-14
 -1       771 2.04059E+01-4.23689E-01 1.76437E-04-1.61822E+00 1.54833E-13-8.76029E-14
 -1       772 2.01176E+01-5.56652E-03 1.11692E-04-1.46671E+00 1.56140E-13-6.10262E-15
 -1       773 1.99760E+01 2.48401E-01 8.97920E-05-1.28549E+00 9.44217E-14-7.62808E-15
 -1       774 1.99197E+01 3.80730E-01 7.56642E-05-1.09973E+00-2.36540E-15 4.01413E-14
 -1       775 1.99089E+01 4.30185E-01 6.12254E-05-9.22115E-01-7.73605E-14 6.97167E-14
 -1       776 1.99196E+01 4.27365E-01 4.91913E-05-7.59187E-01-1.16950E-13-7.26746E-14
 -1       777 1.99380E+01 3.94486E-01 3.93375E-05-6.14193E-01 1.32388E-14-1.67277E-13
 -1       778 1.99573E+01 3.46742E-01 3.11731E-05-4.88374E-01-1.45220E-13-9.59997E-14
 -1       779 1.99741E+01 2.93988E-01 2.43948E-05-3.81617E-01-1.65427E-14 1.72117E-13
 -1       780 1.99872E+01 2.42230E-01 1.88193E-05-2.92880E-01-1.33327E-13-3.70867E-14
 -1       781 1.99967E+01 1.94826E-01 1.42990E-05-2.20528E-01-1.10350E-13 4.08422E-14
 -1       782 2.00031E+01 1.53374E-01 1.06887E-05-1.62603E-01-1.58491E-13-1.14311E-13
 -1       783 2.00069E+01 1.18352E-01 7.83442E-06-1.17042E-01-1.17543E-13-1.62396E-13
 -1       784 2.00089E+01 8.95649E-02 5.57503E-06-8.18268E-02-2.21583E-13-2.49070E-13
 -1       785 2.00094E+01 6.64382E-02 3.81986E-06-5.50893E-02-3.39594E-14 7.46697E-14
 -1       786 2.00090E+01 4.82148E-02 2.52295E-06-3.51689E-02 1.23402E-13 1.59766E-13
 -1       787 2.00081E+01 3.40750E-02 1.31468E-06-2.06443E-02 1.86848E-13 1.43350E-13
 -1       788 2.00068E+01 2.32120E-02 4.17752E-07-1.03335E-02 1.91879E-13 4.98833E-14
 -1       789 2.00054E+01 1.48522E-02 3.22623E-06-3.31726E-03 2.62005E-15 2.33342E-13
 -1       790 2.00040E+01 8.77792E-03-1.78318E-06 8.44165E-04-6.98614E-14 2.52571E-13
 -1       791 2.01338E+01 1.63443E-01 4.05365E-05-1.91904E+00-1.45267E-14-1.77411E-13
 -1       792 2.18155E+01-2.01980E+00 3.64977E-03-2.24946E+00-1.23697E-13 1.04950E-13
 -1       793 2.33797E+01-3.11272E+00 5.07556E-03-1.80924E+00-1.67950E-13 2.34760E-13
 -1       794 2.31279E+01-2.93247E+00 5.39371E-03 1.77889E+00-3.07687E-13-3.01472E-13
 -1       795 2.16221E+01-1.80796E+00 4.15028E-03 2.12909E+00-3.26502E-13-1.28163E-13
 -1       796 2.07355E+01-8.47394E-01 5.40647E-04 2.11686E+00-2.14574E-13-3.12118E-14
 -1       797 2.02674E+01-1.78525E-01-2.83923E-05 1.94349E+00-1.72113E-13 2.35856E-14
 -1       798 2.00520E+01 2.25410E-01 1.04832E-04 1.71554E+00-1.25138E-13-1.00932E-13
 -1       799 1.99731E+01 4.34405E-01 1.35123E-04 1.47771E+00-1.62055E-13 9.62867E-14
 -1       800 1.99596E+01 5.15345E-01 1.29889E-04 1.24871E+00-1.48515E-13 8.67774E-14
 -1       801 1.99721E+01 5.19026E-01 1.18166E-04 1.03709E+00 6.00145E-14-6.66235E-14
 -1       802 1.99911E+01 4.80421E-01 1.01264E-04 8.47114E-01-5.76027E-14-2.24125E-13
 -1       803 2.00079E+01 4.22045E-01 8.40342E-05 6.80699E-01-8.77908E-14-2.55785E-13
 -1       804 2.00197E+01 3.57561E-01 6.81933E-05 5.38104E-01 1.12437E-13-1.08463E-13
 -1       805 2.00265E+01 2.94739E-01 5.43329E-05 4.18386E-01 2.01363E-13-4.53367E-14
 -1       806 2.00292E+01 2.37603E-01 4.25855E-05 3.19766E-01 3.19730E-14 7.25247E-14
 -1       807 2.00289E+01 1.87886E-01 3.28653E-05 2.39963E-01-5.85084E-14 1.90271E-13
 -1       808 2.00269E+01 1.45973E-01 2.49785E-05 1.76481E-01 5.06550E-14 3.47664E-13
 -1       809 2.00238E+01 1.11503E-01 1.86799E-05 1.26811E-01 9.33276E-14 1.73302E-13
 -1       810 2.00203E+01 8.37348E-02 1.37142E-05 8.85841E-02 2.40700E-13 1.41238E-13
 -1       811 2.00169E+01 6.17651E-02 9.84217E-06 5.96571E-02 1.46712E-13 4.03639E-14
 -1       812 2.00136E+01 4.46575E-02 6.91174E-06 3.81576E-02 1.34332E-13 5.10275E-14
 -1       813 2.00107E+01 3.15120E-02 4.90697E-06 2.25025E-02 1.06504E-13 1.47078E-13
 -1       814 2.00081E+01 2.14985E-02 3.45017E-06 1.13807E-02 1.78943E-13 3.43632E-13
 -1       815 2.00059E+01 1.38634E-02 7.71869E-07 3.80092E-03-1.71644E-13 1.82521E-13
 -1       816 2.00040E+01 7.97463E-03 3.35018E-06-1.08133E-03 1.09156E-13-1.12978E-13
 -1       817 2.00032E+01 5.15881E-03-9.02132E-06-2.88658E-03 4.48968E-14-2.27587E-13
 -1       818 2.00028E+01 1.53853E-02 2.13198E-07-2.08155E-04-8.52147E-14-2.15399E-13
 -1       819 2.00026E+01 1.60048E-02 4.40415E-07 7.24875E-05 1.56166E-14-1.56640E-13
 -1       820 2.74569E+01-1.61723E+00-2.64025E-02 1.74821E+00 2.08316E-13 6.75519E-13
 -1       821 2.57714E+01-3.24845E+00-1.45613E-02 8.07607E-03 5.03330E-15-7.68744E-13
 -1       822 2.08745E+01-3.80541E+00 3.31398E-02-4.18365E+00-4.26458E-13 5.91276E-14
 -1       823 9.60991E+00 2.86307E-01 1.16435E-01 1.06943E+00-5.41108E-14-9.30898E-13
 -1       824 1.61342E+01-2.08433E+00 6.08424E-02 4.79419E+00 3.45623E-13-3.91577E-13
 -1       825 2.00676E+01 4.40322E-01 1.31076E-04-1.66402E+00-6.35623E-15-1.83988E-13
 -1       826 1.84699E+01-3.51728E+00 4.22472E-02-5.08310E+00 5.24860E-13-2.51238E-13
 -1       827 2.00033E+01 1.36154E-02-2.15447E-06-1.90685E-04-3.19560E-14 1.60655E-13
 -1       828 2.00039E+01 1.09499E-02 2.45237E-06 3.89520E-04-9.86553E-14-1.29228E-13
 -1       829 2.03569E+01 1.25964E+00 2.05355E-04-4.18832E-02 2.80663E-13-2.96684E-13
 -1       830 2.08601E+01-1.02044E+00 6.15418E-04-2.29311E+00-7.83147E-14-7.03254E-14
 -1       831 2.02240E+01 1.50346E+00 4.59579E-05-7.13813E-03-3.15861E-13-3.14838E-13
 -1       832 2.00831E+01 6.10125E-01 1.34777E-04-1.38932E+00 2.82292E-14-2.10062E-13
 -1       833 2.03570E+01-2.98363E-01-7.15344E-05-2.14327E+00-1.16109E-13-2.01605E-13
 -1       834 2.01376E+01 7.39668E-01 1.16173E-04-1.09105E+00 7.62172E-14-2.32895E-13
 -1       835 1.40353E+01-1.44290E+00 7.18671E-02-4.59385E+00 5.85363E-13 1.72657E-13
 -1       836 2.36785E+01-4.23371E+00 1.16673E-02-2.57319E+00 3.62207E-13-2.98477E-13
 -1       837 1.20786E+01-6.58745E-01 9.27819E-02 3.80366E+00 2.42294E-13-7.81805E-13
 -1       838 1.94743E+01 2.52305E+00-2.62024E-04 3.97002E-02 3.42541E-14-4.92777E-13
 -1       839 1.59373E+01-2.12796E+00 6.01422E-02-4.83194E+00-4.70389E-13-4.32852E-13
 -1       840 2.00003E+01-3.68391E+00 3.48783E-02 4.40928E+00-4.89050E-13 6.17961E-13
 -1       841 2.01159E+01 1.91530E+00-1.20533E-04-2.32403E-01-3.04550E-13-3.94768E-13
 -1       842 2.59748E+01-1.00955E+00-3.70626E-02-1.80687E+00-1.58080E-13 3.17164E-13
 -1       843 1.94304E+01 2.57038E+00 4.91861E-05 2.97635E-02-4.46690E-14-4.57134E-13
 -1       844 1.26564E+01-2.99546E-01 6.81546E-02-3.34355E+00 3.59756E-13 2.19741E-13
 -1       845 9.79681E+00 4.96182E-01 9.52359E-02-4.71152E-02 5.26052E-14 8.47621E-13
 -1       846 2.02071E+01 8.87328E-01 7.87710E-05-7.56911E-01 1.33552E-13-2.69633E-13
 -1       847 1.75924E+01-2.44742E+00 5.91967E-02 4.53464E+00-2.95801E-13 6.28648E-13
 -1       848 1.98293E+01 2.28278E+00-6.48455E-04-1.53151E-01-2.69171E-13-4.82858E-13
 -1       849 1.43165E+01-8.24664E-01 6.33848E-02-3.93414E+00-3.95878E-13-5.29363E-13
 -1       850 2.02926E+01 1.03346E+00 5.12189E-05-4.27277E-01 1.91452E-13-2.93593E-13
 -1       851 2.00035E+01 1.35522E-02-9.59378E-07 2.91750E-04 4.53175E-13 2.64240E-13
 -1       852 1.96025E+01 2.54258E+00-8.99606E-04-7.73184E-02-1.99203E-13-4.77977E-13
 -1       853 2.00029E+01 1.53627E-02 6.58544E-07 3.47136E-04 4.64108E-13-6.86303E-14
 -1       854 2.00041E+01 1.01002E-02 2.57161E-05 5.35175E-04-1.82154E-13-2.43881E-13
 -1       855 2.00039E+01 1.10135E-02-8.32063E-07-3.26034E-04 3.35382E-13 3.17272E-13
 -1       856 1.97010E+01-3.02485E+00 1.95529E-02 4.10607E+00 3.25922E-13-1.52970E-13
 -1       857 1.96273E+01 2.35770E+00-2.51887E-04 5.13884E-02 1.15747E-13-4.83907E-13
 -1       858 1.19321E+01-1.98605E-01 8.96860E-02 3.17797E+00-2.97679E-13 2.99882E-13
 -1       859 1.98710E+01 2.07520E+00 1.16159E-04 7.10530E-02 1.79831E-13-4.40731E-13
 -1       860 1.99244E+01 1.26950E+00-3.18008E-05 5.26412E-01-1.70677E-13-2.68814E-13
 -1       861 1.98255E+01 1.00568E+00 2.84354E-06 8.36459E-01-1.10911E-13-2.15346E-13
 -1       862 1.97088E+01 7.77183E-01 4.31095E-05 1.12887E+00-1.01128E-13-1.73566E-13
 -1       863 1.96076E+01 5.27591E-01 3.12263E-05 1.41874E+00-4.81934E-14-1.20337E-13
 -1       864 1.95682E+01 1.94689E-01-6.00971E-05 1.72118E+00 7.34969E-14-1.28124E-13
 -1       865 1.96591E+01-2.88736E-01-1.66153E-04 2.04403E+00 1.00764E-13-1.21835E-13
 -1       866 1.99945E+01-9.98396E-01 4.34942E-04 2.37537E+00 8.13823E-14-9.01924E-14
 -1       867 2.07438E+01-2.00317E+00-6.06448E-03 2.66714E+00 1.58614E-13 1.47211E-14
 -1       868 2.11426E+01-2.41333E+00 3.54392E-03-2.57905E+00 4.95621E-13-2.03716E-13
 -1       869 2.01756E+01-1.34020E+00-1.85467E-03-2.35986E+00 2.88885E-13-2.00956E-13
 -1       870 1.96071E+01-5.26330E-01 4.46516E-04-2.06100E+00 1.77138E-13-1.64204E-14
 -1       871 1.93907E+01 1.08813E-02 3.04819E-04-1.73048E+00 1.45173E-13-6.94762E-14
 -1       872 1.93434E+01 3.36964E-01 1.20943E-04-1.43882E+00 1.16656E-13-1.85566E-13
 -1       873 1.93864E+01 5.09412E-01 7.68115E-05-1.18793E+00 8.88573E-14-3.99373E-14
 -1       874 1.94698E+01 5.77192E-01 4.48186E-05-9.74231E-01 5.78617E-14-2.53916E-14
 -1       875 1.95653E+01 5.77891E-01 2.62834E-05-7.92409E-01-1.05007E-13-1.69725E-15
 -1       876 1.96577E+01 5.38734E-01 1.60137E-05-6.37968E-01-1.78437E-13-1.35153E-13
 -1       877 1.97396E+01 4.78678E-01 1.00794E-05-5.07499E-01-1.57969E-13-3.11031E-13
 -1       878 1.98082E+01 4.10411E-01 6.42156E-06-3.98292E-01 9.81633E-14-3.68638E-13
 -1       879 1.98635E+01 3.42001E-01 4.06375E-06-3.07962E-01-7.96451E-14-3.60055E-13
 -1       880 1.99065E+01 2.78221E-01 2.52027E-06-2.34254E-01 2.99155E-14-2.47086E-13
 -1       881 1.99389E+01 2.21563E-01 1.52079E-06-1.74977E-01-1.67243E-13-2.69404E-13
 -1       882 1.99625E+01 1.73000E-01 8.83954E-07-1.28020E-01-1.48530E-13-1.52920E-13
 -1       883 1.99793E+01 1.32544E-01 4.23933E-07-9.13989E-02-2.01693E-13-8.11344E-14
 -1       884 1.99906E+01 9.96326E-02-1.83765E-08-6.32959E-02 6.52036E-14 8.86237E-14
 -1       885 1.99978E+01 7.33977E-02-1.61413E-07-4.20956E-02 8.72730E-14 1.24488E-13
 -1       886 2.00021E+01 5.28412E-02-4.95700E-07-2.64019E-02 1.42843E-13-1.28778E-13
 -1       887 2.00042E+01 3.69215E-02-3.92417E-07-1.50560E-02 3.31620E-13-1.82508E-13
 -1       888 2.00048E+01 2.46181E-02-1.53117E-05-7.07574E-03 1.44759E-13-5.31184E-14
 -1       889 1.94796E+01 2.59761E+00-1.97130E-04-2.80426E-03-1.14961E-13-4.55457E-13
 -1       890 1.96670E+01 9.38219E-01 4.12538E-05-1.14013E+00 3.27977E-14-2.60374E-13
 -1       891 1.99743E+01 1.62518E+00 5.75862E-07 1.90322E-01-2.09200E-13-3.64696E-13
 -1       892 2.06237E+01-2.69237E+00 2.95629E-03-3.47571E+00-2.79236E-13 5.13862E-14
 -1       893 2.10062E+01-3.06440E+00 6.19004E-02-3.31275E+00 4.49170E-13-5.36290E-15
 -1       894 1.90366E+01 3.16390E-01 2.01898E-04 1.91148E+00-2.96330E-13 3.62686E-14
 -1       895 1.91339E+01 5.86597E-01 1.15810E-04 1.57610E+00-2.80023E-13 6.17343E-14
 -1       896 1.92794E+01 6.97144E-01 5.49585E-05 1.30154E+00-2.43240E-13 2.26957E-13
 -1       897 1.94301E+01 7.09369E-01 3.88544E-05 1.07161E+00 3.82485E-15 1.69040E-13
 -1       898 1.95661E+01 6.65318E-01 2.52931E-05 8.75996E-01 1.76535E-13 2.29949E-13
 -1       899 1.96800E+01 5.92792E-01 1.62194E-05 7.08670E-01 5.79650E-14 6.74633E-14
 -1       900 1.97709E+01 5.09407E-01 1.05728E-05 5.66087E-01-6.70004E-14-2.99456E-13
 -1       901 1.98410E+01 4.25792E-01 7.05472E-06 4.45793E-01-6.95865E-15-1.37925E-13
 -1       902 1.98936E+01 3.47925E-01 4.80915E-06 3.45658E-01-6.46077E-14 2.49442E-14
 -1       903 1.99319E+01 2.78774E-01 3.33833E-06 2.63555E-01-5.14119E-14-2.52557E-15
 -1       904 1.99591E+01 2.19419E-01 2.35888E-06 1.97293E-01-3.62862E-14 1.22229E-13
 -1       905 1.99780E+01 1.69803E-01 1.70480E-06 1.44665E-01 5.65659E-15-3.36025E-14
 -1       906 1.99905E+01 1.29228E-01 1.24267E-06 1.03540E-01 1.30717E-13 3.96800E-14
 -1       907 1.99984E+01 9.66751E-02 8.96050E-07 7.19309E-02 1.81623E-13 1.71838E-13
 -1       908 2.00031E+01 7.09998E-02 5.98169E-07 4.80507E-02 1.66031E-13 3.88640E-13
 -1       909 2.00054E+01 5.10435E-02 3.93794E-07 3.03442E-02 1.09029E-13 3.55686E-13
 -1       910 2.00062E+01 3.57007E-02 2.16416E-06 1.75150E-02 5.31376E-15 3.69602E-13
 -1       911 2.00059E+01 2.39733E-02-1.78352E-05 8.42212E-03-5.82289E-14 4.64534E-13
 -1       912 2.00051E+01 1.51011E-02 1.99699E-05 2.29203E-03 1.95059E-13 4.24787E-13
 -1       913 2.00038E+01 2.04241E-02 1.45858E-05-2.86526E-03-1.95529E-13-1.29822E-13
 -1       914 2.00018E+01 2.56974E-02-1.10008E-06-7.67230E-04 1.01544E-13-3.48850E-13
 -1       915 2.01117E+01 1.38081E+00 2.71434E-04-2.80849E-01 1.75180E-13-3.35435E-13
 -1       916 1.90743E+01-2.00633E-01-1.18329E-05 2.32494E+00-1.87782E-13 3.75816E-14
 -1       917 1.93004E+01 5.77821E-01 1.74353E-04-1.75621E+00-6.18277E-15-1.91593E-13
 -1       918 1.94031E+01-1.06734E+00 3.49500E-03 2.81191E+00-2.83500E-13 1.91865E-13
 -1       919 2.00026E+01 2.38379E-02-3.32477E-06-2.14572E-03 4.25809E-14-4.20674E-13
 -1       920 1.94793E+01 7.87156E-01 9.81288E-05-1.44047E+00-5.87720E-15-2.53086E-13
 -1       921 1.77172E+01-1.89306E+00 1.63711E-02-4.02871E+00 5.36131E-13 6.40737E-14
 -1       922 1.95804E+01-1.29046E+00 3.30997E-03-3.02394E+00-2.00394E-13-3.39631E-14
 -1       923 2.00039E+01 7.95147E-03 1.54025E-06-1.48862E-03 2.19894E-13 3.29986E-13
 -1       924 1.99128E+01 1.93658E+00-4.64057E-05 9.80779E-03-2.32182E-13-4.41133E-13
 -1       925 2.17832E+01-2.89815E+00 2.07041E-02 2.75168E+00 2.51493E-13 9.18319E-14
 -1       926 2.03220E+01-2.32991E+00 1.05177E-02 3.25470E+00-4.57245E-13 3.03451E-13
 -1       927 1.14313E+01 5.79636E-01 6.55557E-02-1.10466E+00-1.99383E-13-7.81347E-13
 -1       928 1.20040E+01 5.39275E-01 4.10474E-02-1.82918E+00 1.40244E-13 5.95617E-13
 -1       929 1.98378E+01 1.09279E+00 1.95166E-04-8.32649E-01 1.04194E-13-2.75535E-13
 -1       930 1.21638E+01 6.92914E-01 5.18877E-02 1.07006E+00-2.98314E-14-7.27101E-13
 -1       931 2.00027E+01 2.37770E-02-2.78842E-07 2.31028E-03 2.92773E-13 2.78701E-13
 -1       932 1.93999E+01 2.17518E+00 4.08431E-05-4.30874E-03 2.73087E-15-4.10657E-13
 -1       933 1.91832E+01 2.29448E-01 2.06024E-04-2.11403E+00-6.62757E-14-1.76494E-13
 -1       934 2.00047E+01 1.65056E-02 1.15029E-07-2.73150E-03-1.85928E-13-2.57330E-13
 -1       935 1.53328E+01-1.00913E+00 4.74526E-02 3.88596E+00-2.03366E-13 3.31707E-13
 -1       936 2.00019E+01 2.56774E-02-2.48641E-06 9.20239E-04 2.04776E-13-5.12229E-13
 -1       937 1.76083E+01-1.26761E+00 2.55430E-02-3.72394E+00-2.97928E-13-3.47396E-13
 -1       938 1.96661E+01 2.21970E+00-8.10078E-04 3.15361E-02-1.59336E-13-4.83271E-13
 -1       939 1.92188E+01-3.55543E-01 3.10756E-04-2.53599E+00-1.84167E-13-1.61419E-13
 -1       940 2.00038E+01 2.04771E-02-8.96917E-06 2.66842E-03 2.05770E-13 4.73604E-13
 -1       941 1.76726E+01-1.41746E+00 8.51816E-03 3.70401E+00 2.63908E-13-2.76470E-13
 -1       942 1.61518E+01-9.38929E-01 3.56118E-02-3.68627E+00 4.51235E-13-6.32875E-14
 -1       943 1.50084E+01-3.25379E-01 3.66331E-02 3.27298E+00 1.99366E-13-4.75188E-13
 -1       944 1.95019E+01 2.07284E+00-2.59813E-05-1.00437E-01 8.44434E-14-4.20985E-13
 -1       945 1.94087E+01 1.13670E+00-5.13838E-05 8.41864E-01-5.65126E-14-2.09763E-13
 -1       946 1.91795E+01 9.15838E-01 7.52681E-06 1.12426E+00-4.33842E-14-1.84789E-13
 -1       947 1.89320E+01 6.63864E-01-1.54994E-04 1.44624E+00 2.62660E-14-1.98517E-13
 -1       948 1.87031E+01 3.14123E-01-1.64952E-03 1.84602E+00 8.54146E-14-2.31662E-13
 -1       949 1.85835E+01-2.26523E-01-4.19940E-03 2.36880E+00 1.22465E-13-2.60412E-13
 -1       950 1.78220E+01-1.14773E+00 2.23177E-02 3.45838E+00-2.62076E-13 3.84119E-13
 -1       951 1.88203E+01 9.02819E-01-1.05092E-04 9.87614E-01-2.16149E-13-8.88741E-14
 -1       952 1.84044E+01-4.60726E-01 4.32584E-03-2.52216E+00 2.78869E-13 2.04372E-14
 -1       953 1.83901E+01 1.30750E-01-5.84922E-04-1.94959E+00 1.52303E-13-3.73224E-14
 -1       954 1.85415E+01 4.87951E-01-1.48454E-04-1.52185E+00 5.91295E-14-3.65353E-14
 -1       955 1.87463E+01 6.72918E-01-3.15821E-05-1.19807E+00 2.06466E-13-2.26501E-13
 -1       956 1.89602E+01 7.43033E-01-1.46182E-05-9.49808E-01 2.78137E-14-1.37391E-13
 -1       957 1.91611E+01 7.39190E-01-1.31701E-05-7.55338E-01 8.14836E-14-2.46791E-13
 -1       958 1.93392E+01 6.90328E-01-1.20863E-05-5.99837E-01-2.22729E-13-2.23317E-13
 -1       959 1.94912E+01 6.16875E-01-1.05100E-05-4.73821E-01-2.55892E-13-1.61305E-13
 -1       960 1.96169E+01 5.32975E-01-8.95861E-06-3.71129E-01-8.60079E-14-6.65133E-14
 -1       961 1.97182E+01 4.48026E-01-7.57570E-06-2.87523E-01-9.71322E-14-1.14073E-13
 -1       962 1.97980E+01 3.67884E-01-6.33935E-06-2.19844E-01-5.20126E-14-2.25539E-13
 -1       963 1.98595E+01 2.95827E-01-5.20612E-06-1.65549E-01-9.73448E-14-2.84850E-13
 -1       964 1.99057E+01 2.33332E-01-4.14092E-06-1.22477E-01-1.24017E-13-2.51308E-13
 -1       965 1.99396E+01 1.80668E-01-3.15863E-06-8.87377E-02 1.51353E-14-2.36550E-13
 -1       966 1.99638E+01 1.37347E-01-2.35518E-06-6.26775E-02 9.70458E-14-1.12897E-13
 -1       967 1.99805E+01 1.02458E-01-1.87731E-06-4.28503E-02 1.09387E-13-9.37378E-14
 -1       968 1.99914E+01 7.48473E-02-1.89928E-06-2.80129E-02 9.36291E-15-6.12637E-14
 -1       969 1.99981E+01 5.33601E-02-4.35656E-06-1.71381E-02 2.01102E-13 7.86106E-15
 -1       970 2.00019E+01 3.67138E-02 1.15778E-06-9.26000E-03 2.37595E-13-2.99969E-13
 -1       971 1.99978E+01 1.20717E+00-6.93412E-05-5.76208E-01 1.14736E-13-3.08349E-13
 -1       972 1.87352E+01 9.68795E-01 1.90934E-04-1.34671E+00-3.64329E-14-3.15050E-13
 -1       973 1.97107E+01 1.69744E+00-2.14088E-04 3.04754E-01-8.75045E-14-4.12504E-13
 -1       974 1.32741E+01 9.05062E-01 2.40925E-02-4.71611E-01-1.00892E-13-6.65385E-13
 -1       975 1.95941E+01 1.38039E+00-7.95087E-05 5.74182E-01-7.28967E-14-2.99135E-13
 -1       976 1.84998E+01 8.94072E-01-1.53485E-04 1.21883E+00-2.33319E-13-3.32879E-14
 -1       977 1.94198E+01 2.15802E+00 4.69753E-05 8.67614E-02-4.80460E-14-3.81028E-13
 -1       978 1.81316E+01 7.82976E-01 4.88938E-05 1.52571E+00-2.17430E-13 1.36641E-13
 -1       979 1.90893E+01 8.50295E-01-7.39153E-05 8.04275E-01-5.10940E-14 1.01593E-14
 -1       980 1.93091E+01 7.64666E-01-5.50118E-05 6.53335E-01 2.27952E-14 1.35363E-13
 -1       981 1.94850E+01 6.64672E-01-4.20961E-05 5.26565E-01 1.91379E-13 3.06865E-13
 -1       982 1.96231E+01 5.62413E-01-3.25689E-05 4.19576E-01 2.30188E-14 2.66526E-13
 -1       983 1.97299E+01 4.65285E-01-2.52048E-05 3.29747E-01 6.32952E-15 1.14342E-13
 -1       984 1.98109E+01 3.77409E-01-1.93654E-05 2.55151E-01 4.04014E-14 9.28766E-15
 -1       985 1.98714E+01 3.00672E-01-1.46870E-05 1.94067E-01-1.76477E-13 2.72476E-14
 -1       986 1.99157E+01 2.35504E-01-1.09256E-05 1.44813E-01-4.99134E-15 3.83212E-14
 -1       987 1.99475E+01 1.81426E-01-7.87681E-06 1.05732E-01 1.45966E-15 1.14136E-13
 -1       988 1.99697E+01 1.37441E-01-5.30378E-06 7.52347E-02 1.80853E-14 2.64894E-13
 -1       989 1.99846E+01 1.02309E-01-2.80996E-06 5.18442E-02 1.54623E-13 1.20411E-13
 -1       990 1.99943E+01 7.47067E-02-2.11117E-06 3.42197E-02 4.21016E-14 3.37854E-13
 -1       991 2.00001E+01 5.32777E-02-4.15860E-06 2.11997E-02-1.51554E-13 6.54079E-13
 -1       992 2.00031E+01 3.67561E-02-6.14775E-06 1.17627E-02-4.11952E-15 8.31782E-13
 -1       993 1.90967E+01 1.11503E+00 3.71640E-05-1.06513E+00 2.35868E-16-2.98489E-13
 -1       994 1.44830E+01 1.16775E-01 2.39557E-02-2.74647E+00-2.72940E-13-5.35994E-13
 -1       995 1.73623E+01-2.44987E-02 4.51102E-04 2.58484E+00-1.80223E-13 3.21200E-13
 -1       996 1.77327E+01 5.09635E-01 7.44417E-04 1.95867E+00-1.41542E-13 2.17283E-13
 -1       997 1.97108E+01 1.85312E+00-2.72535E-04-1.84582E-01 1.20392E-13-4.54480E-13
 -1       998 1.22102E+01 7.50381E-01 4.82091E-02 1.20881E+00-1.14898E-13 4.31622E-13
 -1       999 1.93926E+01 1.26153E+00-1.09232E-04-7.99714E-01 2.77553E-14-3.22305E-13
 -1      1000 1.87184E+01-1.03108E+00 1.13937E-02 2.99106E+00 1.77112E-13-1.85167E-13
 -1      1001 1.83209E+01 7.59666E-01 2.20325E-04-1.69260E+00-4.12456E-14-2.56685E-13
 -1      1002 1.93005E+01 1.85040E+00-3.52779E-04-1.39167E-01 1.91461E-14-3.32574E-13
 -1      1003 1.92639E+01 1.88653E+00-1.08916E-04 6.53189E-02-3.19367E-14-3.74668E-13
 -1      1004 2.00001E+01 3.68547E-02 6.14671E-06 3.76893E-03 6.85901E-14-2.83862E-13
 -1      1005 1.99993E+01 3.81638E-02-6.75281E-06 1.03877E-04 3.31025E-14-5.98455E-13
 -1      1006 1.49136E+01-7.55002E-03 4.46192E-02-2.88056E+00 2.50131E-13-1.88470E-13
 -1      1007 1.43450E+01 2.30343E-01 2.38816E-02 2.57453E+00-2.71657E-13 2.47351E-13
 -1      1008 2.00000E+01 3.68499E-02-1.16587E-05-3.58622E-03-1.26463E-13-4.97287E-13
 -1      1009 1.76791E+01-2.35471E-01 6.26610E-03-2.83199E+00-2.11084E-13-3.98742E-13
 -1      1010 2.00011E+01 3.79886E-02 1.63449E-05 7.73783E-03 4.58155E-14 3.06339E-13
 -1      1011 1.67519E+01-3.03391E-01 8.08097E-03 2.89143E+00 1.97069E-13-3.38058E-13
 -1      1012 1.96997E+01 1.94839E+00 1.11844E-03 1.62301E-01-1.17579E-13-4.54071E-13
 -1      1013 1.45349E+01 6.91540E-01 1.37379E-02 1.62872E+00 6.86933E-14-4.75349E-13
 -1      1014 1.86022E+01 1.01728E+00-2.96671E-04 6.13279E-01-1.96576E-13 6.58356E-14
 -1      1015 1.89387E+01 1.25077E+00-1.95306E-04 7.31955E-01-2.45759E-14-3.06845E-13
 -1      1016 1.85546E+01 1.06500E+00-6.32148E-05 9.85395E-01-4.02621E-14-3.33041E-13
 -1      1017 1.80938E+01 8.47327E-01-5.55732E-04 1.31564E+00 1.97773E-14-3.49956E-13
 -1      1018 1.75717E+01 5.45217E-01 3.68387E-03 1.75704E+00 1.31458E-13-2.78858E-13
 -1      1019 1.78903E+01 4.01066E-01-6.68189E-04-2.16487E+00-8.63872E-14-3.11159E-13
 -1      1020 1.70372E+01 4.05034E-01-1.23256E-03-1.98049E+00 2.42172E-13-3.99985E-13
 -1      1021 1.95698E+01 2.12874E+00 2.71823E-04 1.11835E-01-1.01068E-13-4.15809E-13
 -1      1022 1.75500E+01 7.19962E-01-1.09813E-03-1.44507E+00 2.91957E-14-3.46335E-13
 -1      1023 1.80054E+01 8.76967E-01-6.20341E-04-1.07541E+00 7.15848E-14-2.76075E-13
 -1      1024 1.83980E+01 9.25321E-01-3.06137E-04-8.15991E-01 1.60315E-13-4.24856E-13
 -1      1025 1.87283E+01 9.04907E-01-1.99668E-04-6.27802E-01 5.15923E-14-4.24507E-13
 -1      1026 1.90039E+01 8.41179E-01-1.42521E-04-4.86528E-01-7.17474E-14-4.14646E-13
 -1      1027 1.92313E+01 7.52794E-01-1.07733E-04-3.77779E-01-8.55719E-14-4.10279E-13
 -1      1028 1.94164E+01 6.53470E-01-8.43934E-05-2.92623E-01-1.91127E-13-2.95390E-13
 -1      1029 1.95650E+01 5.52869E-01-6.72804E-05-2.25301E-01-2.34002E-14-3.17866E-13
 -1      1030 1.96823E+01 4.57367E-01-5.38746E-05-1.71910E-01-8.61235E-14-9.72120E-14
 -1      1031 1.97733E+01 3.70766E-01-4.29476E-05-1.29647E-01-5.13296E-14-1.90780E-13
 -1      1032 1.98427E+01 2.94953E-01-3.38613E-05-9.63806E-02 1.47183E-14-3.29770E-13
 -1      1033 1.98944E+01 2.30455E-01-2.62598E-05-7.04143E-02 3.06275E-14-2.52953E-13
 -1      1034 1.99322E+01 1.76896E-01-2.06185E-05-5.03510E-02 9.46215E-14-2.79139E-13
 -1      1035 1.99591E+01 1.33324E-01-1.33716E-05-3.50450E-02 8.90893E-14-3.84658E-13
 -1      1036 1.99775E+01 9.86251E-02-5.85448E-06-2.35237E-02 7.77891E-14-5.49715E-13
 -1      1037 1.99896E+01 7.13556E-02-1.13818E-05-1.50642E-02 4.40629E-14-3.21565E-13
 -1      1038 1.99960E+01 5.23035E-02 5.37684E-06-8.00358E-03 1.44619E-13-1.79448E-13
 -1      1039 1.96303E+01 1.37166E+00-1.00250E-04-6.10279E-01 7.40548E-14-4.08607E-13
 -1      1040 1.94786E+01 1.69411E+00 1.98295E-04-3.32041E-01 5.35923E-14-4.32532E-13
 -1      1041 1.70083E+01 1.01190E+00-3.06827E-04 1.21731E+00-5.89068E-14 2.44133E-13
 -1      1042 1.35424E+01 1.06649E+00 9.85108E-03-4.56371E-01 5.99980E-14 4.47986E-13
 -1      1043 1.92395E+01 1.45892E+00 3.02661E-04 5.19457E-01-1.33564E-14-3.43569E-13
 -1      1044 1.81889E+01 1.08169E+00-4.84031E-04 7.53613E-01-1.78742E-13 1.08173E-13
 -1      1045 1.91904E+01 8.08232E-01-1.50874E-04 4.09868E-01-9.17247E-15-1.42762E-13
 -1      1046 1.93954E+01 6.91665E-01-1.16636E-04 3.31519E-01 1.83116E-13-1.06988E-13
 -1      1047 1.95555E+01 5.78970E-01-9.22883E-05 2.64742E-01 3.70774E-14 1.09323E-14
 -1      1048 1.96791E+01 4.75150E-01-7.35808E-05 2.08236E-01-4.92634E-14 6.75682E-14
 -1      1049 1.97734E+01 3.82922E-01-5.85339E-05 1.61045E-01 1.10859E-14 5.98847E-14
 -1      1050 1.98441E+01 3.03345E-01-4.61843E-05 1.22259E-01-8.38900E-14 2.05696E-14
 -1      1051 1.98963E+01 2.36343E-01-3.60011E-05 9.09227E-02-7.13713E-14 1.33335E-13
 -1      1052 1.99339E+01 1.81118E-01-2.84170E-05 6.60366E-02-1.47820E-14 2.00323E-13
 -1      1053 1.99605E+01 1.36416E-01-1.81353E-05 4.66240E-02 2.21178E-13 4.08077E-13
 -1      1054 1.99786E+01 1.00906E-01-9.47989E-06 3.17871E-02 7.90186E-14 4.81263E-13
 -1      1055 1.99904E+01 7.31852E-02-4.46630E-06 2.06597E-02-1.51425E-13 3.66768E-13
 -1      1056 1.99971E+01 5.36088E-02 5.61917E-06 1.33524E-02-2.27930E-13 3.33580E-13
 -1      1057 1.84720E+01 1.26157E+00-5.08427E-04-8.15341E-01 4.17025E-16-3.30219E-13
 -1      1058 1.59558E+01-1.54992E-02 2.39146E-02-2.79216E+00 2.53360E-13-2.87050E-13
 -1      1059 1.99951E+01 5.31146E-02-1.62059E-05 3.44507E-03-1.91307E-13-4.99850E-13
 -1      1060 1.61721E+01 8.04519E-01 4.42038E-04 1.65113E+00-1.46566E-13 3.06724E-13
 -1      1061 1.94433E+01 1.72951E+00 1.86433E-05 3.22105E-01-2.17224E-14-3.61415E-13
 -1      1062 1.76677E+01 1.09072E+00-8.30282E-04 9.43632E-01-1.56137E-13 7.32064E-14
 -1      1063 1.89303E+01 9.20677E-01-2.04168E-04 5.02151E-01-1.58882E-14 3.69846E-15
 -1      1064 1.49670E+01 1.08572E+00 7.30788E-03 1.44077E-01 4.93977E-14-5.72600E-13
 -1      1065 1.64120E+01 6.31673E-01 5.58523E-03 1.79935E+00 1.14565E-13-3.34526E-13
 -1      1066 1.79061E+01 1.13605E+00-1.04139E-03-1.04650E+00-6.13354E-14-3.50966E-13
 -1      1067 1.90343E+01 1.67439E+00 1.23787E-03-5.45047E-02 2.23602E-14-3.17118E-13
 -1      1068 1.52727E+01 7.88805E-01 4.75887E-03-1.60436E+00-9.07293E-14-4.79242E-13
 -1      1069 1.89177E+01 1.38412E+00 2.74181E-05-6.24635E-01-2.24250E-15-3.65298E-13
 -1      1070 1.47446E+01 1.04073E+00 5.64329E-03 8.96994E-01-2.07492E-13 1.09869E-13
 -1      1071 1.99947E+01 5.39424E-02-8.83198E-06-2.41643E-03-7.75104E-14-6.89640E-13
 -1      1072 1.92501E+01 1.59839E+00-8.40436E-06-3.88924E-01-1.06375E-14-3.82290E-13
 -1      1073 1.54324E+01 8.03809E-01-1.37191E-03-1.48188E+00 2.68842E-13 1.62379E-14
 -1      1074 1.71942E+01 9.71342E-01-6.78430E-04-1.34537E+00-4.86890E-14-3.78643E-13
 -1      1075 1.84569E+01 1.33784E+00-1.30012E-03 4.62221E-01-1.64520E-14-3.92523E-13
 -1      1076 1.78981E+01 1.20447E+00-5.84007E-05 6.53588E-01 1.82384E-15-3.30251E-13
 -1      1077 1.71495E+01 1.06158E+00-1.74968E-03 9.19146E-01 1.13440E-13-3.23976E-13
 -1      1078 1.64570E+01 1.12289E+00 2.10335E-03 5.50778E-01 7.03322E-14-4.37181E-13
 -1      1079 1.64838E+01 1.02736E+00 2.95591E-03-1.01496E+00 3.75591E-14-1.37538E-13
 -1      1080 1.72472E+01 1.10814E+00 3.73411E-04-7.14358E-01 1.44541E-13-1.68256E-13
 -1      1081 1.78507E+01 1.10760E+00-1.42988E-04-5.15792E-01 8.27778E-15-3.16585E-13
 -1      1082 1.83223E+01 1.05859E+00-1.31639E-04-3.76315E-01 1.17275E-13-4.82380E-13
 -1      1083 1.86974E+01 9.74713E-01-9.84995E-05-2.77196E-01-9.24597E-15-3.96673E-13
 -1      1084 1.89978E+01 8.70068E-01-7.49574E-05-2.05553E-01-3.38840E-14-3.21816E-13
 -1      1085 1.92380E+01 7.56224E-01-5.70941E-05-1.52954E-01-1.41250E-13-2.69207E-13
 -1      1086 1.94289E+01 6.42009E-01-4.24064E-05-1.13848E-01-1.57976E-13-3.14814E-13
 -1      1087 1.95793E+01 5.33626E-01-3.02217E-05-8.45099E-02 8.29714E-14-3.36970E-13
 -1      1088 1.96961E+01 4.34991E-01-2.03783E-05-6.23784E-02-2.47552E-14-1.54794E-13
 -1      1089 1.97856E+01 3.48169E-01-1.27505E-05-4.56462E-02-9.47817E-14-5.61423E-14
 -1      1090 1.98530E+01 2.73836E-01-7.22798E-06-3.30075E-02-7.94951E-14-3.09032E-13
 -1      1091 1.99027E+01 2.11696E-01-3.91639E-06-2.35030E-02-1.68204E-15-4.52073E-13
 -1      1092 1.99386E+01 1.60823E-01-2.13373E-06-1.64313E-02 6.98633E-14-5.17692E-13
 -1      1093 1.99642E+01 1.19740E-01 6.44610E-05-1.12165E-02 4.86041E-14-4.51535E-13
 -1      1094 1.99811E+01 8.73343E-02 6.15775E-06-7.26448E-03 1.58003E-13-4.12529E-13
 -1      1095 1.95500E+01 5.64032E-01 5.75786E-05 1.21235E-01-1.02682E-13 7.58992E-14
 -1      1096 1.68745E+01 1.24557E+00-1.90975E-03 4.24795E-01 1.74703E-14 1.35947E-13
 -1      1097 1.81513E+01 1.14292E+00 9.90898E-05 2.92778E-01-1.73668E-13 6.24408E-14
 -1      1098 1.93878E+01 6.79134E-01 7.01792E-05 1.49389E-01 1.42766E-15-6.69647E-14
 -1      1099 1.90639E+01 1.61742E+00-4.42158E-04 2.46163E-01-2.25399E-14-3.84606E-13
 -1      1100 1.91799E+01 8.01500E-01 8.49947E-05 1.80567E-01 2.28320E-14-2.27450E-13
 -1      1101 1.96752E+01 4.59812E-01 4.68327E-05 9.64143E-02 4.81361E-14-1.40665E-13
 -1      1102 1.97707E+01 3.68327E-01 3.75743E-05 7.50840E-02 3.66918E-14-1.24941E-13
 -1      1103 1.98424E+01 2.90100E-01 2.95384E-05 5.72058E-02-1.18730E-13-1.30841E-13
 -1      1104 1.98953E+01 2.24720E-01 2.27157E-05 4.25776E-02-1.02172E-13-3.93264E-14
 -1      1105 1.99334E+01 1.71206E-01 2.09687E-05 3.09002E-02-4.39199E-14 1.90248E-13
 -1      1106 1.99604E+01 1.27933E-01-3.35697E-06 2.13793E-02-3.69645E-14 3.13150E-13
 -1      1107 1.99790E+01 9.37419E-02 8.87376E-05 1.41953E-02 1.04633E-13 2.98054E-13
 -1      1108 1.75981E+01 1.21453E+00-3.47575E-05 3.42594E-01-2.11941E-13 1.70126E-13
 -1      1109 1.59581E+01 1.18995E+00 7.57608E-03 5.43447E-01-4.18517E-14 1.47342E-13
 -1      1110 1.54172E+01 1.17153E+00-7.40475E-04-3.31628E-01-8.32510E-14 4.66049E-14
 -1      1111 1.88027E+01 1.46579E+00 1.70348E-03 3.40823E-01-1.34032E-14-3.85173E-13
 -1      1112 1.99890E+01 6.93713E-02 3.67942E-05-4.42203E-03 1.24510E-13-3.95024E-13
 -1      1113 1.87427E+01 1.53859E+00 1.03397E-04-4.87711E-02-1.44128E-14-3.16002E-13
 -1      1114 1.99885E+01 7.13931E-02 1.21839E-05 7.59703E-03-2.82555E-15-3.22605E-14
 -1      1115 1.99881E+01 7.11013E-02 1.93641E-05 1.46826E-03 1.32213E-13-4.17990E-13
 -1      1116 1.65069E+01 1.20851E+00 3.60690E-05-4.57659E-01-1.00717E-14-4.43507E-13
 -1      1117 1.89154E+01 9.25367E-01 1.01313E-04 2.14500E-01 1.39048E-13-1.94358E-13
 -1      1118 1.78968E+01 1.33502E+00-1.15845E-03-3.83969E-01 4.30835E-15-3.72393E-13
 -1      1119 1.85795E+01 1.04262E+00 1.13237E-04 2.51406E-01 1.87570E-14-1.26573E-13
 -1      1120 1.73811E+01 1.24774E+00-2.10125E-03 3.76391E-01 4.32687E-14-3.27967E-13
 -1      1121 1.99772E+01 9.42159E-02-6.98569E-05 5.60907E-03 1.56975E-13-2.62944E-13
 -1      1122 1.81037E+01 1.34971E+00 1.82638E-03 2.51379E-01 2.00328E-14-3.27608E-13
 -1      1123 1.72984E+01 1.27151E+00 5.08012E-03-4.16908E-01-1.51190E-14-3.62181E-13
 -1      1124 2.78306E+01 9.03452E+00 2.28426E+00-6.55406E+00-4.33542E-14 2.59578E-12
 -1      1125 2.06853E+01 6.27358E+00 2.26583E-01-3.71010E+00-3.36953E-14 7.76088E-13
 -1      1126 1.96015E+01 5.90690E+00 8.81456E-02-2.64431E+00-2.68535E-14-9.14373E-14
 -1      1127 1.91517E+01 5.76520E+00 6.56143E-02-1.96714E+00-2.00673E-14-5.57461E-13
 -1      1128 1.88921E+01 5.68447E+00 5.61312E-02-1.43948E+00-1.47486E-14-8.13899E-13
 -1      1129 1.87179E+01 5.62994E+00 4.85872E-02-1.00631E+00-1.13069E-14-9.53718E-13
 -1      1130 1.85979E+01 5.59215E+00 4.25519E-02-6.35200E-01-8.44290E-15-1.02871E-12
 -1      1131 1.85249E+01 5.56901E+00 3.84577E-02-3.01388E-01-4.25875E-15-1.06652E-12
 -1      1132 1.85003E+01 5.56118E+00 3.69777E-02 1.18884E-02-2.36031E-15-1.09172E-12
 -1      1133 1.85248E+01 5.56894E+00 3.82866E-02 3.24661E-01 6.76542E-16-1.11034E-12
 -1      1134 1.85987E+01 5.59230E+00 4.23212E-02 6.57366E-01 3.65506E-15-1.10240E-12
 -1      1135 1.87215E+01 5.63112E+00 4.88726E-02 1.02786E+00 7.25114E-15-1.07717E-12
 -1      1136 1.88993E+01 5.68683E+00 5.67911E-02 1.46252E+00 1.16504E-14-9.99359E-13
 -1      1137 1.91611E+01 5.76808E+00 6.57958E-02 1.99591E+00 1.74930E-14-8.27483E-13
 -1      1138 1.96029E+01 5.90569E+00 8.26681E-02 2.68007E+00 2.49939E-14-4.53172E-13
 -1      1139 2.05943E+01 6.22992E+00 1.72036E-01 3.68348E+00 3.28071E-14 3.18370E-13
 -1      1140 2.51366E+01 7.96324E+00 1.40737E+00 5.70553E+00 7.98805E-14 2.03765E-12
 -1      1141 2.85811E+01 3.53374E+00 1.20096E+00-4.12150E+00-2.12413E-13 3.78109E-12
 -1      1142 2.03514E+01-1.80760E-01-6.18021E-01-9.19747E-02-6.99857E-14 3.27907E-12
 -1      1143 1.91956E+01-9.83290E-02-2.34613E-01 6.61058E-02-3.02171E-14 2.48968E-12
 -1      1144 1.90769E+01-5.21265E-02-6.32206E-02 4.30862E-02-1.24050E-14 1.97586E-12
 -1      1145 1.92676E+01-3.05421E-02-2.25965E-02 3.04189E-02-1.18087E-14 1.63912E-12
 -1      1146 1.96486E+01-2.02317E-02-1.46450E-02 2.45855E-02-1.29311E-14 1.39189E-12
 -1      1147 2.01621E+01-1.41250E-02-1.20451E-02 2.21915E-02-1.18770E-14 1.22806E-12
 -1      1148 2.07743E+01-9.31553E-03-9.01238E-03 2.17545E-02-1.13036E-14 1.09947E-12
 -1      1149 2.14549E+01-3.97050E-03-3.73226E-03 2.22145E-02-1.73340E-14 8.86367E-13
 -1      1150 2.21631E+01 3.34434E-03 5.41330E-03 2.23704E-02-1.36435E-14 6.38514E-13
 -1      1151 2.28337E+01 1.36626E-02 1.99682E-02 2.04558E-02 2.58561E-15 4.53252E-13
 -1      1152 2.33658E+01 2.70790E-02 4.02673E-02 1.39533E-02 8.23907E-15 5.04303E-13
 -1      1153 2.36202E+01 4.16882E-02 6.33798E-02-1.08746E-05-4.76659E-15 4.09305E-13
 -1      1154 2.34386E+01 5.23672E-02 8.07795E-02-2.30836E-02 6.14005E-15 5.33924E-13
 -1      1155 2.27011E+01 5.06373E-02 7.83814E-02-5.27065E-02-1.96553E-14 5.58067E-13
 -1      1156 2.14228E+01 2.82894E-02 4.28891E-02-7.92396E-02-3.29034E-15 4.02997E-13
 -1      1157 1.98471E+01-1.48064E-02-2.52434E-02-8.72183E-02 3.65565E-14 3.83943E-13
 -1      1158 1.84456E+01-6.34613E-02-1.01237E-01-6.41996E-02-2.33008E-14 2.29233E-13
 -1      1159 1.77459E+01-9.12642E-02-1.44241E-01-1.32481E-02-3.37126E-14-4.76043E-14
 -1      1160 1.80473E+01-8.04003E-02-1.27460E-01 4.40233E-02-5.61617E-15-2.09617E-13
 -1      1161 1.92330E+01-3.82672E-02-6.18573E-02 8.14632E-02 3.15590E-15-1.78219E-13
 -1      1162 2.08469E+01 9.97101E-03 1.40410E-02 8.68725E-02 4.67367E-15-1.46425E-13
 -1      1163 2.23630E+01 4.22355E-02 6.53488E-02 6.69810E-02 2.21646E-14-8.35582E-14
 -1      1164 2.34284E+01 5.21654E-02 8.09837E-02 3.75875E-02-5.51009E-14-1.76074E-13
 -1      1165 2.39364E+01 4.58508E-02 7.02314E-02 1.15243E-02 7.60590E-15-1.88087E-13
 -1      1166 2.39616E+01 3.21635E-02 4.80796E-02-5.69965E-03 7.51352E-15 1.34336E-13
 -1      1167 2.36555E+01 1.79931E-02 2.57873E-02-1.42238E-02 4.72072E-14 3.63421E-13
 -1      1168 2.31706E+01 6.67837E-03 8.68447E-03-1.65722E-02-1.94435E-14 2.17817E-13
 -1      1169 2.26239E+01-9.69200E-04-2.27116E-03-1.54394E-02-1.92635E-14-6.31439E-16
 -1      1170 2.20913E+01-5.39895E-03-8.15752E-03-1.27998E-02-1.13414E-14-1.75100E-13
 -1      1171 2.16141E+01-7.46278E-03-1.05488E-02-9.82949E-03-1.29652E-14-1.76838E-13
 -1      1172 2.12097E+01-7.98279E-03-1.08204E-02-7.11262E-03 3.39233E-14-2.42081E-14
 -1      1173 2.08806E+01-7.59891E-03-9.95963E-03-4.87257E-03 2.44932E-15-2.82815E-13
 -1      1174 2.06213E+01-6.75464E-03-8.59842E-03-3.14232E-03 3.39995E-15-2.24277E-13
 -1      1175 2.04229E+01-5.73303E-03-7.10764E-03-1.86892E-03 3.37443E-14-4.21586E-13
 -1      1176 2.02749E+01-4.70154E-03-5.68664E-03-9.70209E-04 3.03082E-14-5.60541E-13
 -1      1177 2.01676E+01-3.75048E-03-4.42960E-03-3.62275E-04 1.04506E-14-6.36616E-13
 -1      1178 2.00920E+01-2.92138E-03-3.36965E-03 2.89858E-05-3.48246E-16-4.22261E-13
 -1      1179 2.00407E+01-2.22647E-03-2.50646E-03 2.64368E-04 4.96443E-15-3.22330E-13
 -1      1180 2.00076E+01-1.66136E-03-1.82280E-03 3.91546E-04 2.07466E-14-3.72959E-13
 -1      1181 1.99877E+01-1.21300E-03-1.29414E-03 4.46724E-04-1.01840E-14-1.87804E-13
 -1      1182 1.99773E+01-8.64560E-04-8.93973E-04 4.56671E-04-4.62798E-14-6.84791E-13
 -1      1183 1.99735E+01-5.98150E-04-5.96539E-04 4.40657E-04 5.05427E-14-1.00124E-12
 -1      1184 1.99741E+01-3.96262E-04-3.77760E-04 4.12076E-04-9.05969E-15-7.70258E-13
 -1      1185 1.99776E+01-2.42224E-04-2.14783E-04 3.79533E-04 3.27992E-14-7.15035E-13
 -1      1186 1.99826E+01-1.20161E-04-8.40957E-05 3.47125E-04 2.90148E-14-4.90650E-13
 -1      1187 1.99884E+01-1.49387E-05 4.12236E-05 3.12736E-04-2.07167E-15-2.93354E-13
 -1      1188 1.99940E+01 8.63010E-05 1.82659E-04 2.57629E-04 1.03704E-13 3.76757E-14
 -1      1189 1.99983E+01 1.89936E-04 3.09910E-04 1.40550E-04-7.11729E-14-2.64462E-13
 -1      1190 1.99999E+01-1.40208E-05 2.56172E-05-3.72838E-05 1.45117E-13 1.12825E-13
 -1      1191 2.75674E+01 5.16780E-01 3.24488E-01 1.93472E+00-3.42781E-14 3.47750E-12
 -1      1192 2.02212E+01-6.91303E-02-5.73455E-01 1.23010E-01 3.22659E-14 2.57941E-12
 -1      1193 1.92730E+01-4.46065E-02-1.93433E-01 1.86344E-02 2.64589E-14 1.78324E-12
 -1      1194 1.91186E+01-2.72780E-02-5.59173E-02 2.95641E-03 1.71230E-14 1.24925E-12
 -1      1195 1.93105E+01-2.01657E-02-2.31447E-02-1.65554E-03 1.02559E-14 8.84785E-13
 -1      1196 1.97153E+01-1.68862E-02-1.79658E-02-3.16148E-03 1.47692E-14 6.22693E-13
 -1      1197 2.02771E+01-1.50258E-02-1.80799E-02-4.42684E-03 3.48311E-15 4.74516E-13
 -1      1198 2.09717E+01-1.31132E-02-1.80484E-02-6.58322E-03 2.57173E-16 3.99694E-13
 -1      1199 2.17828E+01-9.66073E-03-1.57624E-02-1.04020E-02 1.35835E-14 1.30802E-13
 -1      1200 2.26854E+01-2.88106E-03-8.66906E-03-1.65054E-02 1.58810E-14-5.75789E-14
 -1      1201 2.36263E+01 9.10756E-03 6.75458E-03-2.49724E-02 2.53729E-14-2.47115E-13
 -1      1202 2.45009E+01 2.72488E-02 3.38402E-02-3.43707E-02-1.64816E-14-2.71828E-13
 -1      1203 2.51314E+01 4.92772E-02 7.22936E-02-4.03220E-02 8.28981E-15-2.19932E-13
 -1      1204 2.52672E+01 6.68231E-02 1.12274E-01-3.46515E-02 2.12087E-14-3.93078E-13
 -1      1205 2.46444E+01 6.50431E-02 1.29849E-01-7.96935E-03 5.73239E-15-5.76567E-13
 -1      1206 2.31420E+01 3.08902E-02 9.40186E-02 4.14995E-02 2.97574E-14-8.04468E-13
 -1      1207 2.10015E+01-2.97552E-02-6.26164E-03 9.64882E-02-2.65746E-14-7.21936E-13
 -1      1208 1.89309E+01-8.37823E-02-1.31781E-01 1.21976E-01-1.63489E-14-7.80098E-13
 -1      1209 1.78495E+01-9.46868E-02-2.05526E-01 9.10932E-02-6.03684E-16-9.86145E-13
 -1      1210 1.83119E+01-5.86962E-02-1.76874E-01 1.53021E-02 4.19447E-14-1.30348E-12
 -1      1211 2.00921E+01-7.17517E-03-7.19882E-02-6.11854E-02 8.70484E-15-1.56089E-12
 -1      1212 2.23592E+01 2.87304E-02 3.61144E-02-9.92174E-02-4.89686E-14-1.12925E-12
 -1      1213 2.42599E+01 4.04204E-02 9.47209E-02-9.36670E-02 3.43831E-14-1.28735E-12
 -1      1214 2.53474E+01 3.56345E-02 9.92803E-02-6.35877E-02 1.29679E-14-1.31901E-12
 -1      1215 2.56095E+01 2.44275E-02 7.37717E-02-3.03038E-02-1.78993E-14-1.15803E-12
 -1      1216 2.52710E+01 1.33298E-02 4.19250E-02-5.29777E-03 3.76821E-14-1.03979E-12
 -1      1217 2.46008E+01 4.94158E-03 1.63727E-02 9.23269E-03-6.09723E-15-8.29413E-13
 -1      1218 2.38112E+01-4.42073E-04 2.19106E-04 1.55465E-02-8.64968E-15-7.86152E-13
 -1      1219 2.30361E+01-3.41853E-03-8.13300E-03 1.67766E-02 1.20352E-14-1.05703E-12
 -1      1220 2.23446E+01-4.74702E-03-1.13731E-02 1.54037E-02-1.28635E-14-1.26588E-12
 -1      1221 2.17630E+01-5.06181E-03-1.17459E-02 1.29965E-02-2.11396E-14-1.04764E-12
 -1      1222 2.12930E+01-4.81237E-03-1.07307E-02 1.04083E-02 4.03722E-14-1.24342E-12
 -1      1223 2.09245E+01-4.28836E-03-9.18145E-03 8.03942E-03-3.82171E-14-1.21306E-12
 -1      1224 2.06427E+01-3.66402E-03-7.54362E-03 6.03789E-03-8.32392E-14-6.31274E-13
 -1      1225 2.04319E+01-3.03754E-03-6.02610E-03 4.42499E-03-3.38374E-15-6.77594E-13
 -1      1226 2.02775E+01-2.45984E-03-4.71080E-03 3.16603E-03 3.20777E-15-9.75941E-13
 -1      1227 2.01672E+01-1.95355E-03-3.61570E-03 2.20673E-03 5.98524E-14-1.68678E-12
 -1      1228 2.00905E+01-1.52513E-03-2.72883E-03 1.49059E-03 2.68277E-14-1.66611E-12
 -1      1229 2.00390E+01-1.17212E-03-2.02593E-03 9.66179E-04 2.82343E-14-1.43416E-12
 -1      1230 2.00060E+01-8.87490E-04-1.47914E-03 5.89626E-04-9.60313E-15-1.06135E-12
 -1      1231 1.99865E+01-6.62174E-04-1.06111E-03 3.24752E-04 1.85236E-14-9.92171E-13
 -1      1232 1.99764E+01-4.86413E-04-7.46735E-04 1.42333E-04-6.76777E-14-2.05750E-13
 -1      1233 1.99728E+01-3.50452E-04-5.13589E-04 1.90395E-05 3.22470E-14-5.60495E-13
 -1      1234 1.99737E+01-2.44698E-04-3.41593E-04-6.37063E-05-4.64725E-14-6.92967E-13
 -1      1235 1.99773E+01-1.59243E-04-2.11463E-04-1.20851E-04 1.09274E-14-2.49342E-13
 -1      1236 1.99824E+01-8.31192E-05-1.01794E-04-1.64364E-04 1.13484E-13-6.93124E-13
 -1      1237 1.99883E+01-3.69463E-06 1.36720E-05-2.02786E-04 3.61912E-14-6.12729E-13
 -1      1238 1.99939E+01 9.02634E-05 1.58666E-04-2.34988E-04 4.52802E-14-6.74771E-13
 -1      1239 1.99983E+01 1.77884E-04 2.90193E-04-2.17856E-04 5.36921E-14-3.80232E-13
 -1      1240 1.99999E+01-2.21331E-05 1.92147E-05 2.71198E-05 1.59986E-14-2.83202E-13
 -1      1241 1.99998E+01 5.83183E-05 9.11902E-06 8.38444E-06-2.74685E-13-2.03050E-13
 -1      1242 1.99999E+01-1.59979E-03 2.48506E-04-1.18945E-04-4.74244E-13 4.88095E-14
 -1      1243 1.99999E+01-5.60831E-03 1.00835E-04-2.22027E-04-3.21695E-13-1.40723E-13
 -1      1244 1.99998E+01-1.03068E-02-4.78210E-05-2.12240E-04 5.36206E-14 2.76239E-14
 -1      1245 1.99997E+01-1.46423E-02-1.27167E-04-1.67686E-04 1.78411E-13-1.35826E-13
 -1      1246 1.99997E+01-1.80952E-02-1.55304E-04-1.16127E-04-8.07037E-13-1.54747E-13
 -1      1247 1.99997E+01-2.05305E-02-1.54758E-04-7.26290E-05-1.15870E-12 3.89878E-14
 -1      1248 1.99997E+01-2.19605E-02-1.47200E-04-3.33230E-05-3.55827E-13-5.38742E-14
 -1      1249 1.99997E+01-2.24046E-02-1.42778E-04 1.37727E-06 6.17969E-14 7.01935E-15
 -1      1250 1.99997E+01-2.18912E-02-1.45485E-04 3.58427E-05 1.52183E-13-1.31572E-13
 -1      1251 1.99997E+01-2.04037E-02-1.51456E-04 7.44900E-05 2.26257E-13-1.91391E-14
 -1      1252 1.99997E+01-1.79302E-02-1.50452E-04 1.19367E-04-3.89265E-13 1.37304E-14
 -1      1253 1.99997E+01-1.44685E-02-1.23755E-04 1.67593E-04-1.04612E-12 1.63931E-14
 -1      1254 1.99998E+01-1.01414E-02-4.23369E-05 2.13877E-04-1.30822E-12 1.30957E-14
 -1      1255 1.99999E+01-5.41731E-03 1.31628E-04 2.60577E-04-8.77040E-13 7.06993E-14
 -1      1256 2.00000E+01-1.59003E-03 2.61754E-04 1.33910E-04-2.23097E-13-1.25430E-13
 -1      1257 1.99997E+01 4.45710E-05-8.26856E-06 6.02296E-06-1.52856E-13 1.59960E-13
 -1      1258-1.28196E+00-2.34384E+01-3.64331E+00-2.34656E+00 2.83773E-13 3.75346E-13
 -1      1259-1.84272E+00-1.46835E+01-3.07556E+00-4.10138E+00 2.20002E-12 9.48464E-13
 -1      1260 4.04467E-01-2.10507E+00-1.83717E+00-2.00468E-03 3.64175E-12 2.45426E-12
 -1      1261 9.62411E+00 7.73997E+00-2.96721E-01 8.54355E+00 3.78675E-12 3.66840E-12
 -1      1262 2.72205E+01 1.08266E+01 1.48090E+00 1.64325E+01 2.72571E-12 4.04698E-12
 -1      1263 4.79669E+01 7.74188E+00 3.10995E+00 1.72731E+01 1.48359E-12 3.57003E-12
 -1      1264 6.37584E+01 2.99263E+00 4.08849E+00 9.03285E+00 4.47253E-13 2.25975E-12
 -1      1265 6.68880E+01 1.84062E+00 4.27487E+00-4.63379E+00 1.63616E-13-3.96183E-13
 -1      1266 5.51369E+01 5.80037E+00 3.56692E+00-1.54218E+01 9.77274E-13-2.77334E-12
 -1      1267 3.40487E+01 1.03480E+01 2.09631E+00-1.74676E+01 2.36811E-12-3.87956E-12
 -1      1268 1.40774E+01 9.34857E+00 3.06100E-01-1.10362E+01 3.53806E-12-3.88423E-12
 -1      1269 2.05767E+00 6.40550E-01-1.45856E+00-1.84387E+00 4.00480E-12-2.81397E-12
 -1      1270-1.76865E+00-1.22400E+01-2.88933E+00 3.77652E+00 3.63376E-12-1.56519E-12
 -1      1271-1.41941E+00-2.24391E+01-3.62174E+00 3.11522E+00 2.06990E-12-5.70780E-13
 -1      1272-9.27020E-01-2.51336E+01-3.81868E+00-1.17801E+00-2.96985E-13-2.17330E-13
 -1      1273-1.69039E+00-1.78490E+01-3.24564E+00-4.05866E+00-2.73537E-12-9.30644E-13
 -1      1274-5.45270E-01-5.33029E+00-2.11799E+00-1.56946E+00-4.30611E-12-2.42995E-12
 -1      1275 7.03285E+00 6.19307E+00-5.41931E-01 6.58652E+00-4.42757E-12-3.87379E-12
 -1      1276 2.27551E+01 1.10162E+01 1.13961E+00 1.52510E+01-3.50164E-12-4.57945E-12
 -1      1277 4.40254E+01 8.43331E+00 2.74861E+00 1.78533E+01-1.87839E-12-4.15645E-12
 -1      1278 6.14565E+01 3.41451E+00 3.86326E+00 1.09131E+01-6.26360E-13-2.82196E-12
 -1      1279 6.65019E+01 1.67766E+00 4.16182E+00-1.62821E+00-6.76334E-14-7.86080E-13
 -1      1280 5.84391E+01 4.39630E+00 3.67771E+00-1.31568E+01-4.35013E-13 1.21969E-12
 -1      1281 4.12224E+01 9.12149E+00 2.56695E+00-1.80474E+01-1.38234E-12 2.78622E-12
 -1      1282 2.20574E+01 1.10728E+01 1.09521E+00-1.50324E+01-2.76579E-12 3.47278E-12
 -1      1283 7.26492E+00 6.70475E+00-5.28426E-01-6.99973E+00-4.03966E-12 3.51164E-12
 -1      1284-1.96469E-01-3.62157E+00-1.96779E+00 7.90040E-01-4.35185E-12 2.48346E-12
 -1      1285-1.71995E+00-1.57151E+01-3.05506E+00 4.10242E+00-4.03688E-12 1.31778E-12
 -1      1286-1.03401E+00-2.40734E+01-3.71109E+00 2.03063E+00-2.03720E-12 4.56135E-13
 -1      1287 2.23116E+01 1.84380E+00-7.15364E-01-2.68659E+00-7.28584E-14 2.26247E-12
 -1      1288 2.05403E+01 4.69179E+00-4.32586E-02-3.08904E+00-2.78819E-13 3.73028E-13
 -1      1289 2.10259E+01 4.79752E+00-1.02890E-01-3.95986E+00-3.36370E-13 8.29663E-13
 -1      1290 1.97057E+01 5.01156E+00-1.75866E-02-2.39525E+00-3.06345E-13-2.94268E-13
 -1      1291 2.00187E+01 5.11138E+00 7.88586E-03-2.80181E+00-3.40443E-13 1.94289E-15
 -1      1292 2.07282E+01 3.94441E+00-2.22451E-02-2.83210E+00-4.99083E-13 3.27516E-13
 -1      1293 1.92925E+01 5.11167E+00-4.50536E-03-1.79804E+00-2.65891E-13-6.64229E-13
 -1      1294 1.94801E+01 5.17766E+00 1.54127E-02-2.09374E+00-2.96298E-13-4.89605E-13
 -1      1295 1.99221E+01 4.38896E+00-2.17065E-02-2.21885E+00-4.84954E-13-2.29039E-13
 -1      1296 1.90275E+01 5.16197E+00 5.06733E-04-1.30773E+00-2.21861E-13-8.78476E-13
 -1      1297 1.91525E+01 5.20569E+00 1.50794E-02-1.54658E+00-2.42736E-13-7.79564E-13
 -1      1298 1.94754E+01 4.60684E+00-1.80243E-02-1.65885E+00-4.11596E-13-5.52874E-13
 -1      1299 1.88440E+01 5.19280E+00 2.60167E-03-9.01225E-01-1.74919E-13-9.92385E-13
 -1      1300 1.89314E+01 5.22258E+00 1.32764E-02-1.09943E+00-1.93396E-13-9.35096E-13
 -1      1301 1.91866E+01 4.73657E+00-1.47207E-02-1.19647E+00-3.39893E-13-7.29292E-13
 -1      1302 1.87164E+01 5.21318E+00 3.53527E-03-5.42467E-01-1.27533E-13-1.05015E-12
 -1      1303 1.87753E+01 5.23280E+00 1.07927E-02-7.18619E-01-1.42801E-13-1.02128E-12
 -1      1304 1.89856E+01 4.82111E+00-1.26274E-02-8.04255E-01-2.59170E-13-8.34881E-13
 -1      1305 1.86453E+01 5.22666E+00 4.59616E-03-2.18592E-01-7.70213E-14-1.08361E-12
 -1      1306 1.86750E+01 5.23647E+00 8.29166E-03-3.79669E-01-9.33524E-14-1.06334E-12
 -1      1307 1.88525E+01 4.87398E+00-1.15582E-02-4.57880E-01-1.82347E-13-8.77347E-13
 -1      1308 1.86309E+01 5.23462E+00 6.09381E-03 9.00387E-02-2.40383E-14-1.10434E-12
 -1      1309 1.86312E+01 5.23467E+00 6.20089E-03-6.58493E-02-4.49703E-14-1.09092E-12
 -1      1310 1.87855E+01 4.89998E+00-1.10798E-02-1.41043E-01-1.00406E-13-9.11424E-13
 -1      1311 1.86743E+01 5.23737E+00 8.14178E-03 4.03039E-01 1.83213E-14-1.12099E-12
 -1      1312 1.86447E+01 5.22758E+00 4.59416E-03 2.42421E-01 6.90550E-15-1.11674E-12
 -1      1313 1.87849E+01 4.90092E+00-1.10752E-02 1.65484E-01-1.25226E-14-9.34981E-13
 -1      1314 1.87756E+01 5.23410E+00 1.06080E-02 7.40571E-01 7.00551E-14-1.11278E-12
 -1      1315 1.87160E+01 5.21444E+00 3.40624E-03 5.64935E-01 5.02758E-14-1.11982E-12
 -1      1316 1.88515E+01 4.87628E+00-1.15621E-02 4.81041E-01 6.17466E-14-9.40248E-13
 -1      1317 1.89332E+01 5.22413E+00 1.32826E-02 1.11691E+00 1.27228E-13-1.07086E-12
 -1      1318 1.88440E+01 5.19369E+00 2.25809E-03 9.19035E-01 1.06842E-13-1.09654E-12
 -1      1319 1.89850E+01 4.82386E+00-1.25524E-02 8.22390E-01 1.46523E-13-9.22346E-13
 -1      1320 1.91620E+01 5.20508E+00 1.54022E-02 1.56900E+00 1.95732E-13-9.81187E-13
 -1      1321 1.90335E+01 5.16038E+00 1.52475E-04 1.32864E+00 1.67963E-13-1.03672E-12
 -1      1322 1.91902E+01 4.73675E+00-1.46508E-02 1.21319E+00 2.47159E-13-8.68514E-13
 -1      1323 1.94943E+01 5.17423E+00 1.52310E-02 2.12275E+00 2.59542E-13-7.81545E-13
 -1      1324 1.93045E+01 5.10608E+00-5.33437E-03 1.82346E+00 2.26558E-13-9.06591E-13
 -1      1325 1.94893E+01 4.59908E+00-1.81828E-02 1.68129E+00 3.45857E-13-7.56863E-13
 -1      1326 2.00484E+01 5.12111E+00 1.37867E-02 2.83489E+00 3.21097E-13-3.67796E-13
 -1      1327 1.97216E+01 5.00389E+00-1.84396E-02 2.43169E+00 2.80206E-13-6.18682E-13
 -1      1328 1.99459E+01 4.37233E+00-2.19812E-02 2.25140E+00 4.40592E-13-5.12222E-13
 -1      1329 2.12512E+01 4.89187E+00 1.52174E-02 3.85620E+00 3.04146E-13 4.74967E-13
 -1      1330 2.05201E+01 4.73404E+00-4.22488E-02 3.19217E+00 2.92336E-13-4.55885E-14
 -1      1331 2.07706E+01 3.90949E+00-1.83428E-02 2.92873E+00 5.02730E-13-2.55490E-14
 -1      1332 2.71074E+01 3.16474E+00 8.95448E-01 4.45077E+00 1.77303E-13 2.17404E-12
 -1      1333 2.21191E+01 3.50804E+00-1.75516E-01 3.72374E+00 1.76525E-13 9.76330E-13
 -1      1334 2.22749E+01 2.53954E+00-2.81524E-02 3.25142E+00 5.13433E-13 7.42711E-13
 -1      1335 2.15086E+01 3.50097E-01-7.56841E-01 1.09087E+00 3.03660E-13 2.03426E-12
 -1      1336 2.21229E+01 1.25103E-01-3.97490E-01-1.18278E+00-2.59515E-13 2.32350E-12
 -1      1337 2.09125E+01 2.99757E-01-1.59835E-01-7.18394E-01-2.52846E-13 2.02881E-12
 -1      1338 2.03869E+01 1.53440E-01-7.13951E-02-3.15429E-01-2.10772E-13 1.87558E-12
 -1      1339 2.00244E+01 9.27657E-02-1.29031E-02-2.44206E-01-2.04156E-13 1.58466E-12
 -1      1340 2.12501E+01 3.61918E-01-1.03479E-01-1.10384E+00-4.53429E-13 1.18967E-12
 -1      1341 1.97562E+01 6.86563E-02 3.75447E-03-4.29733E-02-1.39109E-13 1.46869E-12
 -1      1342 1.97168E+01 4.66878E-02 1.40359E-02-2.25650E-02-1.29204E-13 1.27642E-12
 -1      1343 2.03601E+01 1.36565E-01-3.63739E-02-3.27990E-01-3.34874E-13 9.53845E-13
 -1      1344 1.96606E+01 3.88553E-02 1.31311E-02 8.10676E-02-9.27635E-14 1.18880E-12
 -1      1345 1.97767E+01 2.73181E-02 1.13948E-02 9.46086E-02-1.02416E-13 1.05434E-12
 -1      1346 2.00715E+01 6.53458E-02-1.04821E-02 3.11744E-02-2.30175E-13 7.67383E-13
 -1      1347 1.98449E+01 2.55807E-02 8.25173E-03 1.57607E-01-7.49765E-14 9.91929E-13
 -1      1348 2.00517E+01 1.85001E-02 6.49896E-03 1.67460E-01-7.44383E-14 8.94876E-13
 -1      1349 2.00858E+01 3.86431E-02-6.17735E-03 2.30636E-01-1.67599E-13 6.19744E-13
 -1      1350 2.01998E+01 1.85848E-02 3.80570E-03 2.10786E-01-4.61835E-14 8.53271E-13
 -1      1351 2.04679E+01 1.30577E-02 3.41540E-03 2.18381E-01-4.04429E-14 7.91532E-13
 -1      1352 2.02958E+01 2.68079E-02-5.29099E-03 3.59537E-01-1.20304E-13 5.32565E-13
 -1      1353 2.06700E+01 1.34513E-02 1.22334E-03 2.48753E-01-4.57236E-14 7.53385E-13
 -1      1354 2.09807E+01 7.95602E-03 1.61967E-03 2.54289E-01-5.89015E-14 6.64406E-13
 -1      1355 2.06367E+01 1.91218E-02-4.43479E-03 4.49385E-01-8.55648E-14 4.17385E-13
 -1      1356 2.12175E+01 7.67437E-03-1.78951E-04 2.71766E-01-6.60129E-14 6.30947E-13
 -1      1357 2.15516E+01 1.13603E-03 4.88869E-04 2.74444E-01-8.17517E-14 5.29044E-13
 -1      1358 2.10658E+01 1.07173E-02-3.15332E-03 5.08345E-01-1.22299E-13 3.54196E-13
 -1      1359 2.18035E+01-8.08495E-04-7.59851E-04 2.74350E-01-6.98279E-14 5.26777E-13
 -1      1360 2.21341E+01-9.16306E-03-1.05235E-04 2.72368E-01-7.28344E-14 4.35959E-13
 -1      1361 2.15461E+01-1.94094E-03-1.20232E-03 5.31102E-01-1.34366E-13 3.10516E-13
 -1      1362 2.23761E+01-1.37978E-02-4.00930E-04 2.46142E-01-8.04185E-14 4.07426E-13
 -1      1363 2.26624E+01-2.41633E-02 6.33662E-05 2.36747E-01-2.69955E-14 3.35558E-13
 -1      1364 2.20349E+01-2.18966E-02 1.81728E-03 5.02007E-01-1.18924E-13 3.00064E-13
 -1      1365 2.28611E+01-3.21995E-02 1.24773E-03 1.73711E-01 2.27409E-14 2.80789E-13
 -1      1366 2.30460E+01-4.35146E-02 1.32911E-03 1.53718E-01-1.97047E-14 2.61597E-13
 -1      1367 2.24761E+01-5.08610E-02 6.28789E-03 3.97989E-01-4.91096E-14 2.11784E-13
 -1      1368 2.31593E+01-5.44920E-02 4.36272E-03 4.55893E-02-2.00395E-14 2.75442E-13
 -1      1369 2.31733E+01-6.34914E-02 3.73577E-03 1.29207E-02 1.34198E-14 2.87305E-13
 -1      1370 2.27968E+01-8.68268E-02 1.21815E-02 1.95712E-01-2.64476E-14 1.21710E-13
 -1      1371 2.31567E+01-7.44747E-02 8.32254E-03-1.37503E-01 6.05974E-14 3.35613E-13
 -1      1372 2.29368E+01-7.52012E-02 6.42057E-03-1.80813E-01 1.98582E-14 3.68650E-13
 -1      1373 2.29112E+01-1.20459E-01 1.84507E-02-1.13043E-01 6.18203E-14 1.34231E-13
 -1      1374 2.27579E+01-8.00745E-02 1.10606E-02-3.48154E-01-1.60202E-15 3.80716E-13
 -1      1375 2.22827E+01-6.54703E-02 7.30044E-03-3.92319E-01-1.59048E-14 3.80404E-13
 -1      1376 2.27403E+01-1.32889E-01 2.23310E-02-4.97010E-01 2.86021E-14 2.16430E-13
 -1      1377 2.19465E+01-5.69043E-02 9.60073E-03-5.22382E-01-7.42531E-14 3.70738E-13
 -1      1378 2.12789E+01-2.38677E-02 3.87351E-03-5.48965E-01-7.61669E-14 2.46074E-13
 -1      1379 2.22504E+01-1.00976E-01 1.94350E-02-8.62296E-01-6.99007E-14 2.67709E-13
 -1      1380 2.08527E+01 4.99772E-04 2.13725E-03-5.71885E-01-1.38169E-14 2.56392E-13
 -1      1381 2.01599E+01 4.45279E-02-4.45957E-03-5.60750E-01-7.53512E-14 2.20490E-13
 -1      1382 2.15056E+01-1.35099E-02 6.35767E-03-1.05741E+00-8.58312E-14 1.96293E-13
 -1      1383 1.97753E+01 7.53938E-02-9.04213E-03-4.30836E-01-9.29872E-14 1.87329E-13
 -1      1384 1.92879E+01 1.11321E-01-1.41074E-02-3.75249E-01-7.22165E-14 1.10134E-13
 -1      1385 2.07003E+01 1.07963E-01-1.49429E-02-9.35709E-01-1.06866E-13 1.17337E-13
 -1      1386 1.90959E+01 1.29794E-01-1.73959E-02-1.16964E-01-1.05331E-13 1.63758E-14
 -1      1387 1.90042E+01 1.37644E-01-1.84270E-02-3.54935E-02-1.08377E-13-1.11248E-13
 -1      1388 2.01213E+01 2.07860E-01-3.42286E-02-4.64214E-01-1.48900E-13-1.06599E-15
 -1      1389 1.90918E+01 1.30426E-01-1.71760E-02 2.51275E-01-6.78207E-14-2.05712E-13
 -1      1390 1.94378E+01 1.05497E-01-1.36179E-02 3.22560E-01-8.22450E-14-2.39173E-13
 -1      1391 2.00156E+01 2.29790E-01-3.86846E-02 2.04641E-01-1.59773E-13-9.72425E-14
 -1      1392 1.97709E+01 7.81290E-02-9.16199E-03 5.20083E-01-2.96221E-14-2.93966E-13
 -1      1393 2.04230E+01 3.50878E-02-2.76786E-03 5.52367E-01-2.21888E-14-2.52486E-13
 -1      1394 2.04384E+01 1.60777E-01-2.50006E-02 7.96713E-01-9.05803E-14-2.39121E-13
 -1      1395 2.08704E+01 6.07484E-03 5.66347E-04 5.98579E-01-1.10191E-14-2.46428E-13
 -1      1396 2.16024E+01-3.35958E-02 7.08871E-03 5.87566E-01 2.21912E-14-2.78930E-13
 -1      1397 2.12171E+01 4.16839E-02-2.99011E-03 1.08770E+00-3.19146E-14-3.72364E-13
 -1      1398 2.20156E+01-4.92244E-02 6.38554E-03 5.00666E-01 2.42176E-14-2.77119E-13
 -1      1399 2.26235E+01-7.21908E-02 1.12505E-02 4.62663E-01-1.70350E-15-2.31710E-13
 -1      1400 2.20646E+01-6.54128E-02 1.46400E-02 1.02824E+00 1.12831E-14-4.08276E-13
 -1      1401 2.29050E+01-7.21881E-02 7.08234E-03 3.08046E-01-8.35183E-15-1.90497E-13
 -1      1402 2.32797E+01-7.76420E-02 9.87415E-03 2.63708E-01-3.12892E-14-2.21817E-13
 -1      1403 2.27355E+01-1.22080E-01 2.16272E-02 7.27866E-01 8.63892E-16-3.63980E-13
 -1      1404 2.33998E+01-6.81174E-02 4.76534E-03 1.05688E-01 7.07854E-14-1.38389E-13
 -1      1405 2.35308E+01-6.22087E-02 6.09738E-03 6.88457E-02 1.48473E-13 1.43123E-14
 -1      1406 2.31098E+01-1.26150E-01 2.01956E-02 3.47507E-01 8.68246E-14-5.37502E-14
 -1      1407 2.35085E+01-5.02816E-02 1.94313E-03-5.46088E-02 7.45593E-14 2.91054E-14
 -1      1408 2.34460E+01-3.98533E-02 2.35637E-03-7.88980E-02 4.16412E-14 1.73331E-13
 -1      1409 2.31845E+01-9.89185E-02 1.45406E-02 9.59297E-03 1.10023E-13 6.40557E-14
 -1      1410 2.33226E+01-2.98809E-02-4.93970E-05-1.56522E-01-8.17055E-16 1.03039E-13
 -1      1411 2.31365E+01-1.94956E-02-1.25369E-04-1.68993E-01-2.77525E-14 9.31321E-14
 -1      1412 2.30237E+01-6.21311E-02 8.28408E-03-2.29192E-01 2.03483E-14 2.55885E-14
 -1      1413 2.29553E+01-1.29323E-02-9.30227E-04-2.05928E-01-5.55590E-14 5.13773E-14
 -1      1414 2.27091E+01-4.63997E-03-1.27809E-03-2.09669E-01-4.06394E-14-1.42403E-14
 -1      1415 2.27123E+01-2.95125E-02 3.25047E-03-3.63637E-01-6.47234E-14-2.07189E-13
 -1      1416 2.25056E+01-1.21584E-03-1.00963E-03-2.17191E-01 1.80717E-14-5.31727E-14
 -1      1417 2.22455E+01 4.56351E-03-1.52026E-03-2.15474E-01-7.36906E-14-1.35245E-13
 -1      1418 2.23272E+01-6.17317E-03-1.28935E-04-4.14501E-01-6.25076E-14-1.90129E-13
 -1      1419 2.20443E+01 5.72390E-03-6.97851E-04-2.04853E-01-1.07550E-13-2.50130E-14
 -1      1420 2.17991E+01 9.32640E-03-1.29689E-03-2.00260E-01-1.58969E-14-8.17194E-14
 -1      1421 2.19261E+01 7.98834E-03-2.07096E-03-4.09074E-01-1.08616E-13 6.32372E-14
 -1      1422 2.16150E+01 9.10554E-03-2.91205E-04-1.80297E-01-2.68060E-14-8.05189E-14
 -1      1423 2.13995E+01 1.10870E-02-9.16675E-04-1.74574E-01 8.95876E-16-5.54001E-14
 -1      1424 2.15462E+01 1.50956E-02-2.97833E-03-3.71317E-01 1.91549E-14 5.36576E-14
 -1      1425 2.12396E+01 1.01561E-02 5.66805E-05-1.51224E-01 1.91467E-14-1.63923E-14
 -1      1426 2.10594E+01 1.10408E-02-5.45354E-04-1.45420E-01 2.30099E-14 3.93765E-14
 -1      1427 2.12081E+01 1.75251E-02-3.22534E-03-3.18725E-01-2.38191E-14 2.55635E-14
 -1      1428 2.09260E+01 9.83824E-03 2.94503E-04-1.22279E-01-1.83642E-14-1.00046E-13
 -1      1429 2.07807E+01 1.00359E-02-2.49360E-04-1.16953E-01-3.19100E-14-1.33925E-13
 -1      1430 2.09204E+01 1.72011E-02-3.09209E-03-2.62580E-01-8.65787E-14 1.77378E-13
 -1      1431 2.06729E+01 8.81628E-03 4.25633E-04-9.59393E-02-6.38655E-14-1.74865E-13
 -1      1432 2.05593E+01 8.61756E-03-4.10585E-05-9.13401E-02-4.24893E-14-2.76567E-13
 -1      1433 2.06840E+01 1.54615E-02-2.76593E-03-2.09379E-01-5.09191E-14-5.93445E-14
 -1      1434 2.04745E+01 7.51084E-03 4.74364E-04-7.32829E-02 3.73616E-15-3.38106E-13
 -1      1435 2.03881E+01 7.10895E-03 9.07015E-05-6.94731E-02 4.63991E-14-3.56507E-13
 -1      1436 2.04952E+01 1.31489E-02-2.36338E-03-1.62349E-01-5.33007E-14-2.80489E-13
 -1      1437 2.03230E+01 6.16871E-03 4.67905E-04-5.45534E-02-2.94463E-14-3.64274E-13
 -1      1438 2.02590E+01 5.68571E-03 1.63983E-04-5.14959E-02-3.72983E-14-5.08616E-13
 -1      1439 2.03483E+01 1.07516E-02-1.95254E-03-1.22667E-01 1.35124E-15-2.93546E-13
 -1      1440 2.02103E+01 4.92227E-03 4.29006E-04-3.95379E-02 8.14046E-14-5.51041E-13
 -1      1441 2.01642E+01 4.43122E-03 1.96241E-04-3.71475E-02 4.83264E-14-4.08919E-13
 -1      1442 2.02367E+01 8.52681E-03-1.57025E-03-9.03227E-02 2.81899E-14-4.06924E-13
 -1      1443 2.01286E+01 3.83265E-03 3.74196E-04-2.78044E-02 4.33211E-14-5.21152E-13
 -1      1444 2.00964E+01 3.37421E-03 2.01680E-04-2.59784E-02 3.30550E-14-4.58192E-13
 -1      1445 2.01539E+01 6.59042E-03-1.23396E-03-6.46811E-02 7.48262E-15-4.07614E-13
 -1      1446 2.00711E+01 2.91884E-03 3.14372E-04-1.88431E-02-1.60558E-14-2.55407E-13
 -1      1447 2.00495E+01 2.51284E-03 1.90859E-04-1.74786E-02 5.05753E-15-2.67825E-13
 -1      1448 2.00941E+01 4.97625E-03-9.49493E-04-4.48360E-02 5.84554E-14-3.70572E-13
 -1      1449 2.00322E+01 2.17622E-03 2.56109E-04-1.21466E-02 1.04832E-15-3.20756E-13
 -1      1450 2.00185E+01 1.82956E-03 1.71151E-04-1.11491E-02-2.08801E-14-3.49745E-13
 -1      1451 2.00522E+01 3.67365E-03-7.15990E-04-2.98128E-02-1.60803E-14-2.27009E-13
 -1      1452 2.00071E+01 1.58807E-03 2.02933E-04-7.25107E-03-4.41479E-15-4.33976E-13
 -1      1453 1.99992E+01 1.29987E-03 1.47431E-04-6.53871E-03-1.62653E-13-5.72512E-13
 -1      1454 2.00240E+01 2.65004E-03-5.29007E-04-1.86830E-02-6.44728E-14-4.74871E-13
 -1      1455 1.99922E+01 1.13239E-03 1.56355E-04-3.75541E-03-2.10375E-13-5.54528E-13
 -1      1456 1.99883E+01 8.97328E-04 1.22718E-04-3.25992E-03-7.45651E-14-7.40503E-13
 -1      1457 2.00059E+01 1.86393E-03-3.82427E-04-1.06200E-02-2.29882E-13-6.61053E-13
 -1      1458 1.99845E+01 7.85778E-04 1.16626E-04-1.32688E-03 6.05663E-14-6.36369E-13
 -1      1459 1.99834E+01 5.96173E-04 9.87157E-05-9.93434E-04 1.05456E-13-6.12094E-13
 -1      1460 1.99953E+01 1.27213E-03-2.69597E-04-4.92306E-03 7.17455E-15-4.58468E-13
 -1      1461 1.99819E+01 5.25324E-04 8.33128E-05 2.99961E-04-2.56895E-14-4.35700E-13
 -1      1462 1.99826E+01 3.72302E-04 7.63298E-05 5.13638E-04 7.69522E-15-5.01469E-13
 -1      1463 1.99900E+01 8.33142E-04-1.83946E-04-1.02111E-03 1.39381E-13-1.60265E-13
 -1      1464 1.99825E+01 3.29157E-04 5.58680E-05 1.32677E-03 4.54802E-14-5.98306E-13
 -1      1465 1.99844E+01 2.03213E-04 5.63733E-05 1.45130E-03 1.52604E-13-5.27099E-13
 -1      1466 1.99884E+01 5.08054E-04-1.19219E-04 1.53095E-03-1.63742E-14-2.00794E-13
 -1      1467 1.99853E+01 1.76010E-04 3.44938E-05 1.89477E-03 2.00539E-13-4.70171E-13
 -1      1468 1.99878E+01 6.71047E-05 4.07286E-05 1.94943E-03 4.35735E-14-2.80344E-13
 -1      1469 1.99891E+01 2.59708E-04-6.92857E-05 3.05878E-03 1.64272E-13-2.07157E-13
 -1      1470 1.99892E+01 4.36464E-05 2.18341E-05 2.08530E-03 2.23457E-14-2.56344E-13
 -1      1471 1.99918E+01-5.90821E-05 3.41327E-05 2.07655E-03 1.46455E-13-1.39045E-13
 -1      1472 1.99912E+01 4.96551E-05-2.76458E-05 3.77279E-03 1.59725E-13-1.73240E-13
 -1      1473 1.99933E+01-9.51185E-05 2.41048E-05 1.91552E-03 1.11950E-13-1.76671E-13
 -1      1474 1.99956E+01-2.01607E-04 3.76226E-05 1.83194E-03-2.50772E-15-9.45577E-14
 -1      1475 1.99940E+01-1.69120E-04 1.15868E-05 3.76193E-03 7.07925E-14-6.82329E-14
 -1      1476 1.99969E+01-2.69514E-04 4.19129E-05 1.33220E-03 7.17245E-15 2.66058E-14
 -1      1477 1.99985E+01-3.44703E-04 4.68437E-05 1.17689E-03 5.66880E-14 8.70486E-14
 -1      1478 1.99967E+01-4.65399E-04 4.85304E-05 3.01149E-03 1.46063E-13-1.81630E-13
 -1      1479 1.99996E+01-2.79049E-04 9.14497E-05 1.60751E-04-1.60159E-13 1.27298E-13
 -1      1480 1.99991E+01-8.37808E-04 6.00198E-05 1.24380E-03-2.45225E-14 9.14461E-14
 -1      1481 2.05250E+01 7.44852E-02-1.47729E-01 4.06830E-01 2.38212E-13 1.49350E-12
 -1      1482 2.16758E+01 2.16396E-01-2.27649E-01 6.38840E-01 2.15689E-13 1.89247E-12
 -1      1483 2.19110E+01 8.61008E-01-8.82704E-02 1.90761E+00 4.35998E-13 1.15376E-12
 -1      1484 1.97950E+01 3.45128E-02-1.98624E-02 1.07793E-01 1.79674E-13 1.02264E-12
 -1      1485 2.01068E+01 1.16165E-01-5.98936E-02 1.61033E-01 1.76085E-13 1.31503E-12
 -1      1486 2.06528E+01 1.84460E-01-5.60667E-02 6.37521E-01 3.65846E-13 8.18387E-13
 -1      1487 1.96381E+01 1.94677E-02 5.32961E-03-3.77584E-02 1.01533E-13 6.97119E-13
 -1      1488 1.96564E+01 5.78893E-02 2.45310E-03-7.19812E-03 1.13711E-13 8.90239E-13
 -1      1489 2.00981E+01 7.63933E-02-1.40025E-02 1.36293E-01 2.64851E-13 5.32265E-13
 -1      1490 1.98013E+01 1.33037E-02 5.67129E-03-1.22561E-01 8.23291E-14 4.79845E-13
 -1      1491 1.96695E+01 3.55386E-02 1.17884E-02-1.01412E-01 7.13388E-14 6.17860E-13
 -1      1492 1.99883E+01 4.08483E-02-5.37269E-03-1.12367E-01 1.68280E-13 3.17213E-13
 -1      1493 2.01696E+01 1.08326E-02 2.86757E-03-1.82695E-01 5.51768E-14 3.45115E-13
 -1      1494 1.99413E+01 2.65566E-02 8.91769E-03-1.65519E-01 5.33605E-14 4.32314E-13
 -1      1495 2.01483E+01 2.71160E-02-5.50920E-03-2.66207E-01 1.31400E-13 2.31588E-13
 -1      1496 2.06901E+01 9.55481E-03 9.38688E-04-2.31688E-01 3.38336E-14 2.58025E-13
 -1      1497 2.03878E+01 2.25360E-02 5.59873E-03-2.16115E-01 3.99422E-14 2.95729E-13
 -1      1498 2.04908E+01 2.13657E-02-6.47781E-03-3.79061E-01 8.71408E-14 1.58766E-13
 -1      1499 2.13336E+01 8.11082E-03-4.28720E-05-2.73642E-01 6.11952E-14 1.01816E-13
 -1      1500 2.09692E+01 2.00076E-02 3.46505E-03-2.58953E-01 4.36691E-14 1.94064E-13
 -1      1501 2.09693E+01 1.81100E-02-7.02597E-03-4.70934E-01 9.20817E-14 3.08850E-14
 -1      1502 2.20748E+01 5.20920E-03-1.29684E-04-3.06438E-01 4.46258E-14-5.05498E-15
 -1      1503 2.16595E+01 1.65047E-02 2.11750E-03-2.93348E-01 5.51369E-14 8.92897E-14
 -1      1504 2.15537E+01 1.40733E-02-6.95811E-03-5.45742E-01 8.99495E-14-1.84080E-14
 -1      1505 2.28751E+01-7.25018E-04 1.15900E-03-3.21544E-01 5.57026E-14-8.71733E-14
 -1      1506 2.24291E+01 9.36171E-03 1.30204E-03-3.12601E-01 4.38170E-14-2.83176E-14
 -1      1507 2.22138E+01 6.02174E-03-5.77540E-03-5.95119E-01 9.47698E-14-2.08826E-14
 -1      1508 2.36655E+01-1.14253E-02 4.78635E-03-3.02944E-01 9.79035E-15-9.82998E-14
 -1      1509 2.32282E+01-4.58122E-03 1.22166E-03-3.03128E-01 2.44874E-14-8.45747E-14
 -1      1510 2.29056E+01-9.89198E-03-2.51067E-03-5.97786E-01 4.89157E-14-5.20660E-14
 -1      1511 2.43300E+01-2.78873E-02 1.17288E-02-2.27667E-01-1.02626E-14-1.26385E-13
 -1      1512 2.39697E+01-2.82074E-02 2.46654E-03-2.44540E-01 3.48636E-15-1.15217E-13
 -1      1513 2.35582E+01-3.75196E-02 4.02931E-03-5.19106E-01 1.59872E-14 5.09835E-15
 -1      1514 2.46983E+01-4.82184E-02 2.16902E-02-7.20835E-02 8.39172E-14-1.76161E-13
 -1      1515 2.45170E+01-6.15511E-02 5.62142E-03-1.14143E-01 4.06003E-14-1.39503E-13
 -1      1516 2.40645E+01-7.79578E-02 1.44466E-02-3.16669E-01 5.26350E-14-6.47156E-14
 -1      1517 2.45690E+01-6.44156E-02 3.08624E-02 1.70464E-01 5.59396E-14-2.80772E-13
 -1      1518 2.46878E+01-9.70059E-02 1.02784E-02 9.92318E-02 5.03347E-14-2.12003E-13
 -1      1519 2.42835E+01-1.23786E-01 2.70585E-02 3.94432E-02 9.48287E-14-7.94939E-14
 -1      1520 2.37895E+01-6.12095E-02 3.04082E-02 4.59711E-01 6.52846E-14-4.19068E-13
 -1      1521 2.42982E+01-1.14991E-01 1.34623E-02 3.69699E-01 6.05176E-14-3.42448E-13
 -1      1522 2.40719E+01-1.51654E-01 3.61721E-02 5.24993E-01 1.08911E-13-1.06172E-13
 -1      1523 2.23977E+01-2.36930E-02 1.00726E-02 6.84965E-01 1.25056E-14-5.03958E-13
 -1      1524 2.32670E+01-8.84343E-02 9.37568E-03 6.08931E-01 5.79476E-14-4.46095E-13
 -1      1525 2.33605E+01-1.24213E-01 3.23306E-02 1.01053E+00 8.76538E-14-2.35451E-13
 -1      1526 2.07553E+01 4.37896E-02-2.97186E-02 6.92230E-01-1.60232E-14-4.71345E-13
 -1      1527 2.17579E+01-4.63481E-03-6.26617E-03 6.77097E-01-1.19102E-14-5.06581E-13
 -1      1528 2.22651E+01-1.29848E-02 1.01240E-02 1.25651E+00 8.28330E-16-2.41959E-13
 -1      1529 1.95106E+01 1.04751E-01-6.76468E-02 3.94449E-01 6.88286E-14-6.44394E-13
 -1      1530 2.02528E+01 1.05882E-01-2.83071E-02 4.67235E-01 4.98022E-14-5.61488E-13
 -1      1531 2.11508E+01 1.55265E-01-2.20720E-02 1.02843E+00 7.79567E-14-4.13055E-13
 -1      1532 1.92716E+01 1.14171E-01-7.39949E-02-1.08621E-01 7.24039E-14-9.10357E-13
 -1      1533 1.93965E+01 1.75196E-01-4.11121E-02 2.47511E-02 8.13273E-14-7.71622E-13
 -1      1534 2.05189E+01 2.82330E-01-4.40065E-02 3.15383E-01 1.75620E-13-5.99430E-13
 -1      1535 2.01796E+01 6.47415E-02-4.01725E-02-5.60897E-01 8.26613E-14-1.14767E-12
 -1      1536 1.96151E+01 1.55507E-01-3.21800E-02-4.36436E-01 1.04139E-13-9.75567E-13
 -1      1537 2.06998E+01 2.69443E-01-4.22898E-02-5.66222E-01 1.85824E-13-7.88036E-13
 -1      1538 2.17942E+01-5.34507E-03 8.46147E-03-7.44989E-01-1.46536E-13-1.08075E-12
 -1      1539 2.08105E+01 6.68441E-02-6.58875E-03-6.86864E-01-5.23566E-14-1.15684E-12
 -1      1540 2.16065E+01 1.21093E-01-2.32164E-02-1.17243E+00-1.03251E-14-7.66984E-13
 -1      1541 2.34248E+01-5.23316E-02 4.12837E-02-6.38476E-01 3.28296E-14-9.71653E-13
 -1      1542 2.24340E+01-2.64322E-02 1.73361E-02-6.52356E-01-5.50462E-14-1.07392E-12
 -1      1543 2.28057E+01-5.51475E-02-2.92519E-03-1.26703E+00-8.82801E-14-8.32091E-13
 -1      1544 2.45595E+01-6.37469E-02 4.67876E-02-3.72929E-01 3.18886E-14-1.05687E-12
 -1      1545 2.38660E+01-7.82560E-02 2.71207E-02-4.27361E-01 4.36283E-14-9.74353E-13
 -1      1546 2.38296E+01-1.58836E-01 8.73267E-03-9.40782E-01 5.54314E-14-7.33229E-13
 -1      1547 2.50328E+01-5.12551E-02 3.47147E-02-9.58134E-02-4.04347E-14-1.03432E-12
 -1      1548 2.47339E+01-8.48089E-02 2.30541E-02-1.55975E-01-9.77690E-15-1.07548E-12
 -1      1549 2.44125E+01-1.70814E-01 1.15619E-02-4.46199E-01 2.74138E-14-8.37856E-13
 -1      1550 2.49388E+01-3.11693E-02 1.83897E-02 1.09797E-01-9.15240E-14-8.70779E-13
 -1      1551 2.49762E+01-6.52868E-02 1.32688E-02 6.34780E-02-9.48226E-14-1.01742E-12
 -1      1552 2.45203E+01-1.28224E-01 9.69615E-03 2.94055E-03-1.28533E-13-8.46882E-13
 -1      1553 2.44746E+01-1.36169E-02 5.44069E-03 2.26192E-01-8.68051E-14-6.82680E-13
 -1      1554 2.47288E+01-3.91725E-02 4.31551E-03 1.98333E-01-3.76214E-14-7.40148E-13
 -1      1555 2.42585E+01-7.26731E-02 6.51761E-03 3.09004E-01-1.24859E-13-5.94882E-13
 -1      1556 2.38298E+01-1.79493E-03-2.15858E-03 2.70513E-01-9.03531E-15-4.51977E-13
 -1      1557 2.41874E+01-1.71835E-02-1.27058E-03 2.57944E-01-6.06015E-14-5.29601E-13
 -1      1558 2.37731E+01-2.73888E-02 3.68641E-03 4.66772E-01-1.45601E-13-3.37961E-13
 -1      1559 2.31418E+01 4.75952E-03-5.46315E-03 2.68431E-01 5.77560E-14-5.04282E-13
 -1      1560 2.35222E+01-2.37422E-03-3.63801E-03 2.65985E-01 6.96398E-14-4.10363E-13
 -1      1561 2.31921E+01 1.62515E-03 1.71597E-03 5.12865E-01 4.68689E-14-2.01611E-13
 -1      1562 2.24934E+01 7.62377E-03-6.18050E-03 2.41676E-01 8.15778E-14-7.49453E-13
 -1      1563 2.28492E+01 6.01809E-03-3.96793E-03 2.44900E-01 4.41097E-14-6.00854E-13
 -1      1564 2.26051E+01 1.68004E-02 5.14074E-04 4.90187E-01 1.17449E-13-1.98669E-13
 -1      1565 2.19252E+01 8.28125E-03-5.64943E-03 2.04945E-01-5.39744E-14-7.45776E-13
 -1      1566 2.22342E+01 9.87048E-03-3.35344E-03 2.10776E-01-1.86854E-14-7.58007E-13
 -1      1567 2.20646E+01 2.26919E-02-1.59313E-04 4.32744E-01-4.48643E-15-2.95197E-13
 -1      1568 2.14505E+01 7.78642E-03-4.67148E-03 1.66838E-01-1.04606E-14-7.77389E-13
 -1      1569 2.17062E+01 1.09321E-02-2.47659E-03 1.73431E-01-2.32427E-14-8.08978E-13
 -1      1570 2.15957E+01 2.32459E-02-5.07543E-04 3.62870E-01-9.04441E-15-4.92067E-13
 -1      1571 2.10677E+01 6.78892E-03-3.64742E-03 1.31743E-01-2.27808E-14-7.34559E-13
 -1      1572 2.12719E+01 1.04703E-02-1.66259E-03 1.38106E-01-9.42649E-15-7.29626E-13
 -1      1573 2.12054E+01 2.11559E-02-6.64031E-04 2.93366E-01-4.13569E-14-4.16403E-13
 -1      1574 2.07671E+01 5.65105E-03-2.74296E-03 1.01485E-01-6.65763E-14-5.48772E-13
 -1      1575 2.09259E+01 9.29203E-03-1.02176E-03 1.07153E-01-5.17071E-14-6.40222E-13
 -1      1576 2.08905E+01 1.80304E-02-7.08856E-04 2.30592E-01-9.45552E-14-1.19085E-13
 -1      1577 2.05365E+01 4.55638E-03-2.00548E-03 7.64711E-02 4.97729E-14-4.08089E-13
 -1      1578 2.06572E+01 7.86703E-03-5.61603E-04 8.12833E-02-4.21781E-14-5.38785E-13
 -1      1579 2.06428E+01 1.47365E-02-6.89393E-04 1.77023E-01-5.98935E-14-2.10073E-13
 -1      1580 2.03634E+01 3.58606E-03-1.43052E-03 5.64006E-02-3.55345E-14-6.27544E-13
 -1      1581 2.04531E+01 6.44766E-03-2.51749E-04 6.03543E-02 9.30239E-14-5.38715E-13
 -1      1582 2.04522E+01 1.16916E-02-6.34451E-04 1.33000E-01 1.15585E-13-4.32871E-13
 -1      1583 2.02361E+01 2.76622E-03-9.95038E-04 4.06652E-02 1.61077E-13-7.64422E-13
 -1      1584 2.03013E+01 5.15613E-03-5.45932E-05 4.38351E-02 7.37678E-14-6.12230E-13
 -1      1585 2.03086E+01 9.06257E-03-5.62163E-04 9.78072E-02 1.71511E-13-4.48459E-13
 -1      1586 2.01446E+01 2.09538E-03-6.72265E-04 2.85693E-02 1.33667E-13-1.14810E-12
 -1      1587 2.01909E+01 4.04097E-03 6.29695E-05 3.10608E-02 1.29542E-13-9.61913E-13
 -1      1588 2.02025E+01 6.88542E-03-4.84105E-04 7.02872E-02 2.38707E-13-4.75580E-13
 -1      1589 2.00807E+01 1.55949E-03-4.37579E-04 1.94381E-02-1.60034E-13-1.00959E-12
 -1      1590 2.01126E+01 3.11113E-03 1.26596E-04 2.13625E-02-7.19285E-14-1.12926E-12
 -1      1591 2.01260E+01 5.13393E-03-4.07549E-04 4.91758E-02 1.95599E-14-4.49605E-13
 -1      1592 2.00375E+01 1.13980E-03-2.70286E-04 1.26666E-02-1.34025E-14-9.79744E-13
 -1      1593 2.00586E+01 2.35569E-03 1.54940E-04 1.41294E-02 5.60732E-14-9.76115E-13
 -1      1594 2.00722E+01 3.75606E-03-3.36825E-04 3.32682E-02 2.94800E-14-6.49139E-13
 -1      1595 2.00096E+01 8.16908E-04-1.53731E-04 7.73725E-03-6.11127E-14-6.67858E-13
 -1      1596 2.00229E+01 1.75479E-03 1.61066E-04 8.83209E-03-1.28286E-13-8.61010E-13
 -1      1597 2.00357E+01 2.69260E-03-2.74220E-04 2.14932E-02-1.52751E-13-5.01470E-13
 -1      1598 1.99929E+01 5.72552E-04-7.48036E-05 4.22086E-03-1.47218E-13-4.33271E-13
 -1      1599 2.00005E+01 1.28555E-03 1.53887E-04 5.02796E-03-5.98049E-15-5.04321E-13
 -1      1600 2.00119E+01 1.88611E-03-2.20617E-04 1.29388E-02-9.94586E-14-2.28007E-13
 -1      1601 1.99841E+01 3.90335E-04-2.33147E-05 1.77103E-03 5.76468E-14-3.07093E-13
 -1      1602 1.99877E+01 9.25047E-04 1.39331E-04 2.35686E-03-1.66644E-13-4.61230E-13
 -1      1603 1.99975E+01 1.28465E-03-1.75939E-04 6.85185E-03-1.50072E-13-3.62557E-13
 -1      1604 1.99808E+01 2.55848E-04 8.60999E-06 1.15273E-04-6.30314E-14-5.41553E-13
 -1      1605 1.99817E+01 6.51695E-04 1.21221E-04 5.33357E-04 1.08469E-13-3.61263E-13
 -1      1606 1.99897E+01 8.42939E-04-1.39450E-04 2.62728E-03 1.17900E-13-3.20377E-13
 -1      1607 1.99812E+01 1.56420E-04 2.71969E-05-9.53819E-04-3.52243E-14-2.43682E-13
 -1      1608 1.99803E+01 4.45603E-04 1.01924E-04-6.62025E-04-1.53450E-13-5.34672E-13
 -1      1609 1.99866E+01 5.22045E-04-1.09925E-04-2.07411E-04-3.37669E-14-2.04251E-13
 -1      1610 1.99839E+01 8.02827E-05 3.81860E-05-1.58566E-03 1.80410E-13-3.24988E-13
 -1      1611 1.99819E+01 2.87970E-04 8.30769E-05-1.39027E-03 1.09981E-13-2.28929E-13
 -1      1612 1.99866E+01 2.88177E-04-8.54334E-05-2.00686E-03 5.56884E-14-2.70968E-13
 -1      1613 1.99879E+01 1.55332E-05 4.87253E-05-1.87451E-03 1.28762E-13-5.26212E-13
 -1      1614 1.99853E+01 1.59488E-04 6.68036E-05-1.75799E-03 1.09814E-13-3.48727E-13
 -1      1615 1.99886E+01 1.10185E-04-6.24327E-05-3.01791E-03 1.80298E-13-2.03331E-13
 -1      1616 1.99923E+01-5.08843E-05 6.74307E-05-1.85770E-03-3.28868E-14-4.35347E-13
 -1      1617 1.99896E+01 3.86282E-05 5.70822E-05-1.81708E-03 1.34392E-14-4.63109E-13
 -1      1618 1.99915E+01-4.45736E-05-3.50686E-05-3.38229E-03-3.72305E-14-1.30190E-13
 -1      1619 1.99963E+01-1.35119E-04 9.38379E-05-1.50819E-03-4.12328E-14-4.62500E-13
 -1      1620 1.99939E+01-1.01541E-04 5.77355E-05-1.56329E-03 5.64871E-15-4.99075E-13
 -1      1621 1.99947E+01-2.13847E-04 2.78267E-06-3.13322E-03 6.33386E-14-2.64184E-13
 -1      1622 1.99989E+01-2.62619E-04 6.35809E-05-7.87754E-04-2.89165E-14-2.69836E-13
 -1      1623 1.99975E+01-2.74714E-04 6.23002E-05-9.48104E-04-6.63108E-14-4.72548E-13
 -1      1624 1.99975E+01-4.62054E-04 4.46936E-05-2.21782E-03-5.71254E-14-2.89981E-13
 -1      1625 1.99996E+01-3.17778E-04 7.34820E-05-1.93985E-04-1.00649E-13-1.87323E-13
 -1      1626 1.99996E+01-2.89279E-03 3.62491E-05-1.33218E-03-2.88233E-13-7.31971E-14
 -1      1627 1.99995E+01-1.46160E-03 2.32475E-05-1.13728E-03-2.18506E-13-3.14988E-14
 -1      1628 1.99998E+01-6.22903E-03-2.57632E-06-1.73703E-03-1.01411E-13 1.14891E-13
 -1      1629 1.99997E+01-4.15337E-03 2.05844E-05-1.69812E-03-2.20608E-13-5.28637E-14
 -1      1630 1.99994E+01-3.24579E-03 3.33063E-05-2.86984E-03-8.81047E-14-5.85269E-14
 -1      1631 1.99999E+01-9.74409E-03-1.95813E-05-1.72536E-03-8.95594E-14 5.93433E-14
 -1      1632 1.99998E+01-7.60435E-03-5.05518E-08-1.76064E-03-1.69305E-13 1.37937E-13
 -1      1633 1.99998E+01-5.82644E-03-2.35639E-06-3.31967E-03-1.33300E-13 1.52045E-13
 -1      1634 1.99999E+01-1.28901E-02-2.12333E-05-1.46779E-03-1.66092E-13-1.93076E-13
 -1      1635 1.99999E+01-1.10290E-02-8.19458E-06-1.53764E-03-1.56562E-13 6.17150E-14
 -1      1636 2.00000E+01-8.41093E-03-2.67090E-05-3.10775E-03-3.57514E-13-9.52350E-14
 -1      1637 2.00000E+01-1.53274E-02-1.69305E-05-1.10544E-03-6.81626E-13-2.73019E-13
 -1      1638 1.99999E+01-1.39220E-02-6.94608E-06-1.18330E-03-3.59857E-13-3.90576E-13
 -1      1639 2.00000E+01-1.06484E-02-3.75944E-05-2.53190E-03-3.92252E-13-4.65878E-13
 -1      1640 1.99999E+01-1.70269E-02-1.11814E-05-7.09715E-04-4.71558E-13 2.66298E-13
 -1      1641 1.99999E+01-1.60857E-02-4.96235E-06-7.87495E-04-6.38969E-13 7.72072E-14
 -1      1642 2.00001E+01-1.23652E-02-3.78420E-05-1.81144E-03-3.21059E-13-2.41836E-13
 -1      1643 1.99999E+01-1.79258E-02-6.28820E-06-3.23703E-04-2.30223E-13-1.34842E-14
 -1      1644 1.99999E+01-1.74707E-02-3.14581E-06-3.96432E-04-2.85410E-13 2.52606E-13
 -1      1645 2.00001E+01-1.35092E-02-3.53305E-05-1.06026E-03-1.63447E-13 3.75096E-13
 -1      1646 1.99999E+01-1.80475E-02-3.44419E-06 4.88484E-05 1.32445E-13-2.32648E-14
 -1      1647 1.99999E+01-1.80640E-02-3.51458E-06-2.12693E-05-2.64396E-14 1.84324E-13
 -1      1648 2.00000E+01-1.40615E-02-3.28476E-05-3.30905E-04 1.56454E-13 2.34753E-13
 -1      1649 1.99999E+01-1.74007E-02-2.92273E-06 4.21223E-04 1.86868E-13-5.83806E-14
 -1      1650 1.99999E+01-1.78861E-02-6.26028E-06 3.49448E-04 2.08394E-13 4.01903E-14
 -1      1651 2.00000E+01-1.40385E-02-3.25969E-05 3.82194E-04 1.69647E-13 1.02234E-13
 -1      1652 1.99999E+01-1.59742E-02-4.56492E-06 8.05427E-04-5.31893E-15-1.93459E-13
 -1      1653 1.99999E+01-1.69376E-02-1.13221E-05 7.29427E-04 1.37716E-13-8.01564E-14
 -1      1654 2.00001E+01-1.34441E-02-3.45761E-05 1.10327E-03 1.43760E-13-8.96808E-14
 -1      1655 1.99999E+01-1.38060E-02-7.39301E-06 1.18725E-03-3.97014E-13 1.52726E-14
 -1      1656 1.99999E+01-1.52208E-02-1.71796E-05 1.11213E-03-8.24417E-14-2.40231E-13
 -1      1657 2.00001E+01-1.22810E-02-3.68604E-05 1.83360E-03-1.69382E-13-4.70209E-13
 -1      1658 1.99999E+01-1.08887E-02-7.91756E-06 1.53564E-03-7.99650E-13-2.08065E-13
 -1      1659 1.99999E+01-1.27512E-02-2.16666E-05 1.46791E-03-4.75451E-13-4.12252E-14
 -1      1660 2.00000E+01-1.05497E-02-3.58969E-05 2.53615E-03-2.60089E-13-1.77142E-13
 -1      1661 1.99998E+01-7.49070E-03-3.41755E-06 1.75721E-03-6.99907E-13 2.41000E-13
 -1      1662 1.99999E+01-9.61091E-03-1.97288E-05 1.71742E-03-8.08587E-13 1.96345E-13
 -1      1663 2.00000E+01-8.29857E-03-2.56549E-05 3.09689E-03-2.73920E-13-6.36156E-14
 -1      1664 1.99997E+01-4.13294E-03 6.35702E-07 1.66800E-03-5.39049E-13 2.45163E-13
 -1      1665 1.99998E+01-6.13106E-03-6.79631E-06 1.70352E-03-7.37835E-13 3.78483E-13
 -1      1666 1.99997E+01-5.71370E-03-4.10943E-06 3.29327E-03-3.35813E-13 3.66210E-13
 -1      1667 1.99994E+01-1.68440E-03-1.18165E-05 1.52659E-03-2.14885E-13-2.36406E-14
 -1      1668 1.99994E+01-3.06817E-03-7.31764E-06 1.81547E-03-3.06222E-13 1.60446E-13
 -1      1669 1.99994E+01-3.23493E-03 7.56552E-05 3.21682E-03-2.09432E-13 4.12646E-13
 -1      1670 1.99984E+01-1.42081E-03 3.67207E-05 2.84699E-03-2.55740E-15-2.95197E-14
 -1      1671-4.04173E-01-1.34056E+01-1.47216E+00-6.92211E-01 6.55254E-13 7.46986E-13
 -1      1672-4.56568E-01-1.55801E+01-1.63990E+00 3.85281E-01-4.34763E-13 7.50511E-13
 -1      1673 1.29687E+00-7.80647E+00-1.22937E+00 3.08627E-01 1.72162E-12 1.32530E-12
 -1      1674 6.18926E-01-1.28279E+01-1.68885E+00-2.48442E-01 1.00364E-12 7.07857E-13
 -1      1675 7.24490E+00-5.39753E-01-5.67210E-01 4.60648E+00 2.40807E-12 2.17759E-12
 -1      1676 4.11173E+00-5.85038E+00-1.29599E+00 1.73640E+00 1.87361E-12 1.60200E-12
 -1      1677 1.81288E+01 4.72765E+00 2.34054E-01 9.66509E+00 2.32891E-12 2.51832E-12
 -1      1678 1.14069E+01 1.32748E+00-6.59737E-01 5.92184E+00 2.48590E-12 2.23488E-12
 -1      1679 3.28190E+01 6.31158E+00 1.03297E+00 1.25573E+01 1.82321E-12 2.61857E-12
 -1      1680 2.32715E+01 6.09535E+00 1.51204E-01 1.06029E+01 2.25064E-12 2.70872E-12
 -1      1681 4.63623E+01 4.82068E+00 1.56559E+00 9.98755E+00 1.05030E-12 2.02949E-12
 -1      1682 3.79637E+01 6.34064E+00 9.45248E-01 1.16719E+01 1.58884E-12 2.45470E-12
 -1      1683 5.44598E+01 3.65015E+00 1.87938E+00 2.69324E+00 6.39766E-13 7.96863E-13
 -1      1684 4.97155E+01 4.84208E+00 1.53655E+00 7.87575E+00 8.73385E-13 1.73528E-12
 -1      1685 5.36943E+01 4.05926E+00 1.82189E+00-5.76952E+00 7.72271E-13-8.41160E-13
 -1      1686 5.58458E+01 3.41495E+00 1.95410E+00-2.17673E-02 6.44179E-13 3.17787E-13
 -1      1687 4.28914E+01 5.98617E+00 1.18707E+00-1.09935E+01 1.29553E-12-2.00195E-12
 -1      1688 5.07516E+01 4.32191E+00 1.81163E+00-7.90725E+00 8.72580E-13-1.24634E-12
 -1      1689 2.78058E+01 5.71669E+00 2.98424E-01-1.04002E+01 1.97420E-12-2.40030E-12
 -1      1690 3.78911E+01 5.39193E+00 1.17559E+00-1.13013E+01 1.46333E-12-2.11808E-12
 -1      1691 1.47910E+01 2.35225E+00-4.66937E-01-7.13262E+00 2.46081E-12-2.32081E-12
 -1      1692 2.23663E+01 4.82807E+00 4.05871E-01-1.04886E+01 2.13929E-12-2.52998E-12
 -1      1693 5.58631E+00-4.36435E+00-1.18289E+00-2.61673E+00 2.50933E-12-1.71524E-12
 -1      1694 9.85261E+00 8.99209E-01-3.65207E-01-6.06229E+00 2.59215E-12-2.24998E-12
 -1      1695 1.06184E+00-1.16266E+01-1.66498E+00 1.02332E-01 2.08789E-12-1.07374E-12
 -1      1696 2.13366E+00-6.25862E+00-1.10587E+00-1.01203E+00 2.56173E-12-1.49281E-12
 -1      1697-3.30705E-01-1.58594E+01-1.74796E+00-2.11217E-01 6.84786E-13-6.51812E-13
 -1      1698-2.02251E-01-1.27725E+01-1.48434E+00 6.33676E-01 1.63625E-12-9.93816E-13
 -1      1699-7.54452E-01-1.59131E+01-1.79132E+00-9.72031E-01-8.38274E-13-7.53675E-13
 -1      1700-7.40108E-01-1.69984E+01-1.87026E+00 6.23981E-01 3.35568E-13-6.45151E-13
 -1      1701 6.16490E-01-9.98050E+00-1.35152E+00-1.10345E-01-2.23033E-12-1.36179E-12
 -1      1702 1.98270E-01-1.45686E+01-1.77974E+00-1.45115E-01-1.26454E-12-8.83141E-13
 -1      1703 4.96137E+00-2.06382E+00-7.43464E-01 3.33546E+00-3.05000E-12-2.23577E-12
 -1      1704 2.58009E+00-7.92681E+00-1.46651E+00 8.51205E-01-2.58082E-12-1.57518E-12
 -1      1705 1.58515E+01 3.56480E+00 1.00813E-01 8.74676E+00-2.70828E-12-2.78344E-12
 -1      1706 9.79182E+00-4.90171E-01-7.65768E-01 4.97746E+00-2.83373E-12-2.33391E-12
 -1      1707 2.93312E+01 6.39622E+00 9.16251E-01 1.22631E+01-2.25175E-12-3.02136E-12
 -1      1708 2.04818E+01 5.39699E+00 3.99391E-03 9.71962E+00-2.75668E-12-2.98161E-12
 -1      1709 4.47519E+01 5.36200E+00 1.62408E+00 1.12807E+01-1.26635E-12-2.60014E-12
 -1      1710 3.48759E+01 6.94288E+00 8.67789E-01 1.23980E+01-1.94078E-12-3.02425E-12
 -1      1711 5.38818E+01 3.57536E+00 1.87949E+00 4.58165E+00-6.70047E-13-1.49519E-12
 -1      1712 4.87692E+01 4.99987E+00 1.54217E+00 9.16285E+00-1.05371E-12-2.27995E-12
 -1      1713 5.37910E+01 3.79541E+00 1.76967E+00-3.76443E+00-5.30742E-13-1.71196E-13
 -1      1714 5.45445E+01 3.58170E+00 1.81568E+00 1.77237E+00-5.73042E-13-1.09587E-12
 -1      1715 4.62908E+01 5.41212E+00 1.40929E+00-1.01814E+01-8.95117E-13 1.06093E-12
 -1      1716 5.23413E+01 3.87397E+00 1.82896E+00-6.37502E+00-5.75623E-13 2.81053E-13
 -1      1717 3.34988E+01 6.81995E+00 7.73198E-01-1.22044E+01-1.52495E-12 1.93978E-12
 -1      1718 4.22519E+01 5.62087E+00 1.46985E+00-1.17027E+01-1.06423E-12 1.40576E-12
 -1      1719 2.00698E+01 5.61509E+00 1.02354E-02-9.87195E+00-2.37732E-12 2.28972E-12
 -1      1720 2.83841E+01 6.52298E+00 8.44136E-01-1.23295E+01-1.81100E-12 2.17559E-12
 -1      1721 9.50772E+00 7.33997E-01-7.43780E-01-5.25361E+00-2.84883E-12 2.14606E-12
 -1      1722 1.52132E+01 4.44076E+00 9.46573E-02-8.85656E+00-2.57139E-12 2.21934E-12
 -1      1723 3.46217E+00-6.72482E+00-1.32580E+00-1.44606E+00-2.83595E-12 1.41898E-12
 -1      1724 6.10273E+00-1.36683E+00-6.30379E-01-3.99751E+00-2.81131E-12 1.99185E-12
 -1      1725 3.86598E-01-1.35537E+01-1.75933E+00 2.86311E-01-2.25553E-12 9.81215E-13
 -1      1726 9.26190E-01-8.75549E+00-1.29449E+00-9.64102E-02-2.75802E-12 1.27304E-12
 -1      1727-6.44100E-01-1.67269E+01-1.83824E+00-4.22080E-01-8.29212E-13 6.38406E-13
 -1      1728-6.53913E-01-1.48776E+01-1.71293E+00 1.01385E+00-1.86828E-12 9.18349E-13
 -1      1729 2.49422E+01 9.21770E-01 2.40573E-01 7.29092E+00 1.41798E-12 1.56264E-12
 -1      1730 1.46732E+01-3.20958E+00-3.46468E-01 6.32631E+00 1.14553E-12 1.47682E-12
 -1      1731 1.99994E+01-6.86300E-04 8.44844E-05-8.14000E-04-2.09956E-13-2.49984E-13
 -1      1732 1.99989E+01-1.31314E-03 4.48712E-05-1.96543E-03-1.11831E-13-8.56035E-14
 -1      1733 7.95762E-01-9.61337E+00-1.09819E+00 2.37648E+00 2.75835E-13 1.08402E-12
 -1      1734 6.13400E+00-7.10145E+00-8.53635E-01 4.44868E+00 7.54286E-13 1.41603E-12
 -1      1735-1.17626E+00-1.06389E+01-1.16714E+00 1.99412E-01-2.99233E-13 1.20914E-12
 -1      1736 3.55429E+01 4.27486E+00 9.02364E-01 6.71551E+00 1.34481E-12 1.34026E-12
 -1      1737 4.32539E+01 6.38306E+00 1.30814E+00 3.91276E+00 1.07148E-12 8.70637E-13
 -1      1738 4.72822E+01 7.40733E+00 1.58498E+00 4.44973E-01 1.13493E-12 2.83093E-13
 -1      1739 4.59346E+01 6.85824E+00 1.51483E+00-3.04826E+00 1.25866E-12-4.10172E-13
 -1      1740 3.83435E+01 4.69764E+00 9.50619E-01-5.04562E+00 1.26211E-12-8.40772E-13
 -1      1741 2.88371E+01 1.02118E+00 4.23666E-01-6.31767E+00 1.28891E-12-1.17328E-12
 -1      1742 1.80130E+01-2.57958E+00-1.12391E-01-6.69488E+00 1.38356E-12-1.39672E-12
 -1      1743 8.07481E+00-6.34190E+00-7.20792E-01-5.12436E+00 1.38067E-12-1.31167E-12
 -1      1744 1.62385E+00-9.45739E+00-1.10267E+00-2.87151E+00 8.31668E-13-1.21908E-12
 -1      1745-1.12926E+00-1.10500E+01-1.24202E+00-6.77837E-01 2.08056E-13-1.21086E-12
 -1      1746-2.55605E-01-1.09311E+01-1.26184E+00 1.81464E+00-5.93359E-13-1.38062E-12
 -1      1747 4.19350E+00-8.07500E+00-9.57143E-01 3.92430E+00-1.23934E-12-1.50159E-12
 -1      1748 1.26747E+01-4.11793E+00-3.72638E-01 6.19237E+00-1.54521E-12-1.58873E-12
 -1      1749 2.28810E+01-2.98736E-01 1.21245E-01 7.05000E+00-1.55709E-12-1.66100E-12
 -1      1750 3.34196E+01 3.74996E+00 7.66912E-01 7.16715E+00-1.59717E-12-1.71752E-12
 -1      1751 4.26678E+01 6.31983E+00 1.38620E+00 5.20743E+00-1.24684E-12-1.41498E-12
 -1      1752 4.68597E+01 7.34229E+00 1.57888E+00 1.69280E+00-1.07786E-12-8.49987E-13
 -1      1753 4.62869E+01 7.04755E+00 1.51010E+00-2.38039E+00-9.98868E-13-8.87068E-14
 -1      1754 4.11825E+01 5.93052E+00 1.25048E+00-5.64813E+00-1.17233E-12 5.54001E-13
 -1      1755 3.24711E+01 3.77497E+00 7.57646E-01-7.38867E+00-1.42503E-12 1.03872E-12
 -1      1756 2.22340E+01 5.77202E-01 1.47369E-01-7.44580E+00-1.69120E-12 1.22957E-12
 -1      1757 1.27653E+01-3.54676E+00-4.35493E-01-6.16562E+00-1.64768E-12 1.28347E-12
 -1      1758 5.21407E+00-7.44254E+00-8.75375E-01-4.29800E+00-1.44473E-12 1.13377E-12
 -1      1759 2.44770E-01-1.05811E+01-1.24343E+00-2.09402E+00-1.07936E-12 1.27054E-12
 -1      1760 2.29584E+01 1.96084E+00-2.59588E-02-2.57359E+00-3.20775E-13 1.88807E-12
 -1      1761 1.99795E+01 3.74875E+00-3.64419E-02-1.86041E+00-5.13379E-13-2.27318E-13
 -1      1762 2.02544E+01 3.58474E+00-3.75602E-02-2.15748E+00-5.69565E-13-3.34559E-14
 -1      1763 2.05858E+01 3.17778E+00-4.58416E-02-2.31856E+00-5.52789E-13 1.97828E-13
 -1      1764 2.08207E+01 2.79364E+00-1.37275E-01-2.60234E+00-5.57483E-13 4.99906E-13
 -1      1765 2.06476E+01 2.71142E+00-2.83356E-03-1.93062E+00-5.83447E-13 9.61661E-14
 -1      1766 1.92882E+01 4.30492E+00-2.06922E-02-1.01452E+00-3.67077E-13-6.09485E-13
 -1      1767 1.94206E+01 4.25699E+00-1.45359E-02-1.22024E+00-4.16460E-13-5.46455E-13
 -1      1768 1.90852E+01 4.44486E+00-1.67520E-02-6.61340E-01-2.80223E-13-6.87585E-13
 -1      1769 1.91793E+01 4.41452E+00-1.17633E-02-8.42119E-01-3.27651E-13-6.53911E-13
 -1      1770 1.94105E+01 3.95859E+00-7.37428E-03-8.61905E-01-3.73198E-13-6.03585E-13
 -1      1771 1.89563E+01 4.53049E+00-1.40744E-02-3.46309E-01-1.86414E-13-7.10045E-13
 -1      1772 1.90130E+01 4.51347E+00-1.09103E-02-5.08237E-01-2.35566E-13-6.95707E-13
 -1      1773 1.92046E+01 4.12193E+00-7.10637E-03-5.43213E-01-2.74939E-13-6.65029E-13
 -1      1774 1.89003E+01 4.57008E+00-1.22713E-02-5.36462E-02-8.80551E-14-7.40727E-13
 -1      1775 1.89196E+01 4.56430E+00-1.11447E-02-2.05936E-01-1.35980E-13-7.27807E-13
 -1      1776 1.90808E+01 4.21581E+00-6.76376E-03-2.55139E-01-1.66373E-13-6.89885E-13
 -1      1777 1.89185E+01 4.56594E+00-1.12166E-02 2.33801E-01 6.12336E-15-7.62919E-13
 -1      1778 1.88998E+01 4.57100E+00-1.22246E-02 8.19091E-02-3.43083E-14-7.50164E-13
 -1      1779 1.90387E+01 4.24767E+00-6.59889E-03 1.58794E-02-6.47225E-14-7.15096E-13
 -1      1780 1.90118E+01 4.51642E+00-1.10203E-02 5.33938E-01 9.61150E-14-7.64114E-13
 -1      1781 1.89548E+01 4.53339E+00-1.40833E-02 3.73011E-01 5.52893E-14-7.69381E-13
 -1      1782 1.90795E+01 4.21871E+00-6.69859E-03 2.85608E-01 3.58975E-14-7.38828E-13
 -1      1783 1.91774E+01 4.41838E+00-1.19393E-02 8.58907E-01 2.05864E-13-7.34905E-13
 -1      1784 1.90834E+01 4.44863E+00-1.69061E-02 6.82520E-01 1.48958E-13-7.46958E-13
 -1      1785 1.92029E+01 4.12672E+00-6.94322E-03 5.67656E-01 1.35783E-13-7.28823E-13
 -1      1786 1.94260E+01 4.25509E+00-1.49144E-02 1.23728E+00 3.20381E-13-6.71917E-13
 -1      1787 1.92884E+01 4.30636E+00-2.11620E-02 1.02887E+00 2.58938E-13-7.06529E-13
 -1      1788 1.94106E+01 3.96209E+00-7.45157E-03 8.78858E-01 2.55387E-13-6.81356E-13
 -1      1789 1.97744E+01 3.99439E+00-2.27400E-02 1.67858E+00 4.28329E-13-5.52003E-13
 -1      1790 1.95823E+01 4.08257E+00-2.80325E-02 1.42938E+00 3.67649E-13-6.29784E-13
 -1      1791 1.97135E+01 3.70181E+00-7.46310E-03 1.23084E+00 3.67353E-13-6.06171E-13
 -1      1792 2.02775E+01 3.54855E+00-4.23749E-02 2.17812E+00 5.36739E-13-2.99271E-13
 -1      1793 1.99951E+01 3.72316E+00-4.04607E-02 1.88317E+00 4.72093E-13-4.48828E-13
 -1      1794 2.01362E+01 3.30003E+00-4.61514E-03 1.61331E+00 4.85204E-13-4.55707E-13
 -1      1795 2.11525E+01 2.66950E+00-5.46297E-02 2.60357E+00 5.67467E-13 2.10769E-13
 -1      1796 2.06414E+01 3.09735E+00-4.99533E-02 2.34171E+00 5.34832E-13-9.88376E-14
 -1      1797 2.07404E+01 2.63382E+00 3.30397E-03 1.94319E+00 5.70050E-13-1.67130E-13
 -1      1798 2.19336E+01 1.19812E+00-1.19364E-01 2.13437E+00 5.08198E-13 8.38996E-13
 -1      1799 2.15005E+01 2.24219E+00-2.48660E-04 2.51198E+00 5.31389E-13 4.31544E-13
 -1      1800 2.12067E+01 1.68307E+00-1.98763E-02 1.88236E+00 5.76466E-13 2.22246E-13
 -1      1801 2.12283E+01 7.72913E-01-5.85133E-02 1.33051E+00 5.02466E-13 6.79260E-13
 -1      1802 2.19892E+01 2.42737E+00 8.83604E-02-2.84143E+00-4.54546E-13 9.95939E-13
 -1      1803 2.05284E+01 3.10085E-01-5.89535E-03 4.52587E-01 3.82930E-13 4.54010E-13
 -1      1804 2.09900E+01 4.45985E-01-1.06517E-02 8.36322E-01 4.17763E-13 5.98564E-13
 -1      1805 2.10720E+01 8.46328E-01 7.00525E-04 1.17553E+00 5.02268E-13 3.38599E-13
 -1      1806 2.17348E+01 1.72980E+00 7.81979E-02-2.10846E+00-5.10002E-13 7.75872E-13
 -1      1807 2.08916E+01 5.14376E-01 3.30218E-02-6.88126E-01-4.10994E-13 6.90025E-13
 -1      1808 2.05502E+01 3.76052E-01 1.09394E-02-3.85840E-01-3.46974E-13 5.85048E-13
 -1      1809 2.04196E+01 2.88591E-01 2.78064E-02-1.23599E-01-2.89674E-13 5.45751E-13
 -1      1810 2.03330E+01 2.17121E-01 1.36504E-02 3.47200E-02-2.51505E-13 4.51328E-13
 -1      1811 2.06378E+01 5.23842E-01-7.86096E-03-3.96930E-01-3.91210E-13 3.10936E-13
 -1      1812 2.02908E+01 1.76755E-01 1.72030E-02 2.00257E-01-2.10061E-13 4.26177E-13
 -1      1813 2.03366E+01 1.42554E-01 1.03071E-02 2.98394E-01-1.87230E-13 3.77097E-13
 -1      1814 2.04593E+01 3.05268E-01-7.51678E-03 9.24751E-02-2.88035E-13 2.36441E-13
 -1      1815 2.03683E+01 1.20460E-01 9.45565E-03 4.10119E-01-1.67858E-13 3.42506E-13
 -1      1816 2.05000E+01 1.00939E-01 7.32770E-03 4.77268E-01-1.38862E-13 2.82130E-13
 -1      1817 2.04550E+01 2.00252E-01-6.52261E-03 4.08075E-01-2.21133E-13 1.54623E-13
 -1      1818 2.05886E+01 8.55888E-02 5.08872E-03 5.56021E-01-1.25204E-13 2.68352E-13
 -1      1819 2.07768E+01 7.02503E-02 4.94387E-03 6.02769E-01-1.21410E-13 2.03429E-13
 -1      1820 2.05814E+01 1.39836E-01-5.46279E-03 6.25395E-01-1.74663E-13 8.87218E-14
 -1      1821 2.09082E+01 5.51039E-02 2.60421E-03 6.55766E-01-1.12051E-13 1.98651E-13
 -1      1822 2.11313E+01 3.72014E-02 2.35599E-03 6.83130E-01-1.24807E-13 1.66704E-13
 -1      1823 2.08065E+01 9.21198E-02-4.38514E-03 7.76262E-01-1.51350E-13 3.73540E-14
 -1      1824 2.12944E+01 1.73440E-02 1.02746E-03 7.08319E-01-1.34933E-13 1.92282E-13
 -1      1825 2.15311E+01-8.69172E-03-1.05203E-03 7.10665E-01-1.10659E-13 1.72987E-13
 -1      1826 2.11045E+01 3.74733E-02-3.40749E-03 8.67106E-01-1.17006E-13 3.28573E-14
 -1      1827 2.17155E+01-3.74428E-02-1.09053E-04 6.98563E-01-9.50299E-14 1.86775E-13
 -1      1828 2.19402E+01-7.60167E-02-5.55594E-03 6.64986E-01-8.27257E-14 2.03104E-13
 -1      1829 2.14533E+01-3.94581E-02-2.47158E-03 8.85925E-01-1.06224E-13 3.65528E-14
 -1      1830 2.21338E+01-1.16202E-01-1.02199E-03 6.00442E-01-1.13935E-13 1.88804E-13
 -1      1831 2.23139E+01-1.68440E-01-1.08936E-02 5.17193E-01-8.72527E-14 1.13275E-13
 -1      1832 2.18295E+01-1.49900E-01-1.35678E-03 8.06221E-01-1.23500E-13 8.95317E-14
 -1      1833 2.24996E+01-2.18148E-01-1.90620E-03 3.83577E-01-3.97720E-14 1.03448E-13
 -1      1834 2.25966E+01-2.77504E-01-1.59199E-02 2.39892E-01 2.42861E-15 7.77092E-14
 -1      1835 2.22037E+01-2.94901E-01 3.26403E-04 5.93219E-01-8.28829E-14 6.74194E-14
 -1      1836 2.27487E+01-3.25778E-01-3.09625E-03 2.85448E-02 4.24391E-14 7.95668E-14
 -1      1837 2.27246E+01-3.72385E-01-1.82696E-02-1.72345E-01 5.85972E-14 7.88732E-14
 -1      1838 2.25342E+01-4.53390E-01 3.07504E-03 2.18129E-01 2.55178E-15 1.88534E-14
 -1      1839 2.28058E+01-3.94907E-01-4.99453E-03-4.45343E-01 5.21909E-14 8.41193E-14
 -1      1840 2.26384E+01-3.94227E-01-1.49033E-02-6.71090E-01 2.27093E-14 1.13265E-13
 -1      1841 2.27613E+01-5.67928E-01 7.24143E-03-3.14285E-01 5.06661E-14 6.33581E-14
 -1      1842 2.26061E+01-3.57019E-01-7.79034E-03-9.44862E-01 2.37484E-14 1.41366E-13
 -1      1843 2.23092E+01-2.73298E-01-4.33666E-03-1.12452E+00-4.44731E-14 2.18972E-13
 -1      1844 2.28099E+01-5.44757E-01 1.16525E-02-9.24789E-01 1.65055E-14 3.59480E-14
 -1      1845 2.21431E+01-1.53262E-01-9.75780E-03-1.28917E+00-1.01342E-13 2.04630E-13
 -1      1846 2.17823E+01 1.71909E-02 1.04211E-02-1.32787E+00-8.67858E-14 2.03782E-13
 -1      1847 2.26190E+01-2.95993E-01 1.22473E-02-1.42791E+00-6.28809E-14 1.50008E-13
 -1      1848 2.15266E+01 1.97483E-01-7.28812E-03-1.26435E+00-1.09899E-13 1.50968E-13
 -1      1849 2.12120E+01 3.93975E-01 2.09572E-02-1.09578E+00-1.28703E-13 1.31483E-13
 -1      1850 2.22082E+01 1.73883E-01 4.69899E-03-1.56306E+00-1.46878E-13 1.59958E-13
 -1      1851 2.09924E+01 5.50828E-01 2.14804E-03-7.64078E-01-1.62583E-13 2.67598E-14
 -1      1852 2.08395E+01 6.64144E-01 1.95910E-02-4.17327E-01-1.90251E-13-1.18353E-14
 -1      1853 2.17399E+01 6.94726E-01-9.86240E-03-1.13485E+00-1.87395E-13 1.33423E-13
 -1      1854 2.07962E+01 6.99199E-01 1.47990E-02 7.07893E-02-2.15515E-13-1.07115E-13
 -1      1855 2.08685E+01 6.54853E-01 8.05304E-03 4.57294E-01-2.01205E-13-1.30655E-13
 -1      1856 2.14788E+01 9.88215E-01-2.06567E-02-2.11412E-01-2.40084E-13-6.05973E-14
 -1      1857 2.10352E+01 5.44698E-01 2.15505E-02 8.83891E-01-1.98785E-13-1.93812E-13
 -1      1858 2.13081E+01 3.73539E-01-3.70065E-03 1.14577E+00-1.52692E-13-2.90886E-13
 -1      1859 2.16019E+01 8.73396E-01-1.67876E-02 8.23553E-01-2.50499E-13-2.59765E-13
 -1      1860 2.15806E+01 1.91836E-01 1.62485E-02 1.33738E+00-9.74932E-14-3.71250E-13
 -1      1861 2.19567E+01-1.14990E-03-8.83998E-03 1.39187E+00-7.66921E-15-4.52819E-13
 -1      1862 2.20370E+01 4.25798E-01-1.77904E-03 1.51022E+00-1.88485E-13-3.91062E-13
 -1      1863 2.21896E+01-1.54478E-01 2.44951E-03 1.32242E+00 8.04448E-14-4.56253E-13
 -1      1864 2.25507E+01-2.78957E-01-8.01802E-03 1.19911E+00 1.70029E-14-4.27335E-13
 -1      1865 2.25332E+01-9.38941E-02 1.07363E-02 1.62619E+00 1.35655E-14-4.43030E-13
 -1      1866 2.26604E+01-3.51532E-01-1.09753E-02 9.65037E-01-2.22912E-15-2.88489E-13
 -1      1867 2.29183E+01-3.84957E-01-5.60303E-03 7.54915E-01 1.26568E-13-2.34328E-13
 -1      1868 2.28656E+01-4.51297E-01 1.22886E-02 1.26775E+00 1.14795E-13-3.52415E-13
 -1      1869 2.29035E+01-3.84618E-01-1.75568E-02 4.78644E-01 1.68539E-13-1.75342E-13
 -1      1870 2.30232E+01-3.53863E-01-3.07930E-03 2.66811E-01 2.27886E-13-5.57405E-14
 -1      1871 2.29577E+01-5.64355E-01 9.19232E-03 6.92417E-01 2.44093E-13-2.41203E-13
 -1      1872 2.29194E+01-3.13349E-01-1.74770E-02 3.13505E-02 1.18515E-13-2.23371E-14
 -1      1873 2.29095E+01-2.56098E-01-1.63905E-03-1.33158E-01 4.90693E-14-1.10966E-13
 -1      1874 2.28439E+01-4.97993E-01 4.79694E-03 1.26155E-01 1.90290E-13-3.04225E-13
 -1      1875 2.27579E+01-2.05292E-01-1.34552E-02-2.94091E-01 5.71721E-15-1.09129E-13
 -1      1876 2.26510E+01-1.48652E-01-8.03402E-04-3.97297E-01-6.38161E-15-1.30283E-13
 -1      1877 2.25966E+01-3.49719E-01 1.42461E-03-3.06980E-01 2.29448E-14-2.58059E-13
 -1      1878 2.24813E+01-1.04555E-01-8.24593E-03-4.84663E-01-2.16986E-14-1.86222E-13
 -1      1879 2.23158E+01-6.08600E-02-1.94502E-04-5.33615E-01-1.12831E-14-2.03888E-13
 -1      1880 2.22827E+01-1.95580E-01-4.72171E-04-5.75555E-01-3.27171E-14-2.53996E-13
 -1      1881 2.21466E+01-2.92236E-02-3.59699E-03-5.63700E-01-3.72872E-14-5.97053E-14
 -1      1882 2.19556E+01-7.12790E-04 3.04360E-04-5.73227E-01-9.04637E-14-4.59435E-14
 -1      1883 2.19487E+01-7.29596E-02-1.43176E-03-7.00715E-01 3.77901E-14-1.03008E-13
 -1      1884 2.17973E+01 1.88692E-02-1.84682E-04-5.65154E-01-7.81918E-14 5.92759E-14
 -1      1885 2.16050E+01 3.46282E-02 7.00905E-04-5.50124E-01 2.27883E-14 1.08875E-13
 -1      1886 2.16231E+01 9.40364E-03-1.88202E-03-7.21795E-01-2.85851E-14 5.90803E-15
 -1      1887 2.14630E+01 4.48962E-02 1.95487E-03-5.20175E-01-3.38748E-15 7.59600E-14
 -1      1888 2.12846E+01 5.15903E-02 9.77891E-04-4.92309E-01 8.08706E-15 5.93870E-14
 -1      1889 2.13227E+01 5.67061E-02-2.05962E-03-6.77541E-01-3.92569E-14 1.23635E-14
 -1      1890 2.11612E+01 5.55485E-02 3.06468E-03-4.52311E-01-1.81025E-14-8.45190E-15
 -1      1891 2.10046E+01 5.65193E-02 1.12989E-03-4.19644E-01-8.78193E-15 2.23489E-14
 -1      1892 2.10561E+01 7.84562E-02-2.07812E-03-5.98592E-01-1.58928E-14-4.84316E-14
 -1      1893 2.09002E+01 5.66251E-02 3.45108E-03-3.77290E-01-1.10285E-13 1.12196E-13
 -1      1894 2.07684E+01 5.43779E-02 1.17231E-03-3.44756E-01-9.46833E-14 8.51029E-14
 -1      1895 2.08268E+01 8.37001E-02-1.99400E-03-5.06231E-01-4.11344E-14-1.15903E-14
 -1      1896 2.06821E+01 5.23826E-02 3.38462E-03-3.04557E-01-1.80131E-13 3.76586E-14
 -1      1897 2.05747E+01 4.86013E-02 1.13213E-03-2.74844E-01-1.81640E-13-9.67911E-14
 -1      1898 2.06346E+01 7.93967E-02-1.84148E-03-4.13804E-01-1.88705E-13 3.42386E-14
 -1      1899 2.05050E+01 4.56477E-02 3.06871E-03-2.39108E-01-1.26611E-13-1.45757E-13
 -1      1900 2.04198E+01 4.13751E-02 1.03811E-03-2.13424E-01-1.16704E-14-1.98671E-13
 -1      1901 2.04774E+01 7.03127E-02-1.64685E-03-3.28791E-01-1.96482E-13 6.22083E-15
 -1      1902 2.03646E+01 3.81582E-02 2.64133E-03-1.83045E-01 2.79465E-14-1.82546E-13
 -1      1903 2.02988E+01 3.39900E-02 9.15080E-04-1.61696E-01 5.27081E-14-1.95147E-13
 -1      1904 2.03515E+01 5.94533E-02-1.43197E-03-2.54724E-01-3.10293E-14-9.62400E-14
 -1      1905 2.02559E+01 3.09007E-02 2.18849E-03-1.36722E-01 4.04010E-14-2.58173E-13
 -1      1906 2.02063E+01 2.71424E-02 7.81779E-04-1.19508E-01-2.72500E-14-2.00999E-13
 -1      1907 2.02527E+01 4.85724E-02-1.21432E-03-1.92651E-01-9.97965E-15-2.09339E-14
 -1      1908 2.01737E+01 2.43774E-02 1.75923E-03-9.95276E-02-1.07527E-13-1.03269E-13
 -1      1909 2.01372E+01 2.11556E-02 6.50946E-04-8.59947E-02-6.94984E-15-2.25199E-13
 -1      1910 2.01768E+01 3.85995E-02-1.00670E-03-1.42179E-01 3.21814E-14 2.94012E-14
 -1      1911 2.01129E+01 1.87929E-02 1.37808E-03-7.03803E-02 1.26509E-13-1.74930E-13
 -1      1912 2.00868E+01 1.61298E-02 5.30322E-04-5.99794E-02 1.01330E-13-1.06942E-13
 -1      1913 2.01197E+01 2.99499E-02-8.17391E-04-1.02163E-01 7.56036E-14 1.53636E-13
 -1      1914 2.00691E+01 1.41783E-02 1.05430E-03-4.80364E-02 4.97341E-14-2.06654E-13
 -1      1915 2.00510E+01 1.20394E-02 4.23872E-04-4.02117E-02 1.11855E-13-1.19766E-13
 -1      1916 2.00777E+01 2.27336E-02-6.50840E-04-7.11378E-02 1.69509E-14-1.67690E-13
 -1      1917 2.00386E+01 1.04705E-02 7.88133E-04-3.12650E-02 1.67103E-15-3.80416E-14
 -1      1918 2.00265E+01 8.79366E-03 3.32890E-04-2.55031E-02-1.49133E-13-1.02955E-13
 -1      1919 2.00476E+01 1.68908E-02-5.08522E-04-4.75838E-02-1.02191E-14-8.67500E-14
 -1      1920 2.00181E+01 7.56010E-03 5.75010E-04-1.89425E-02-2.36585E-13-1.38203E-13
 -1      1921 2.00105E+01 6.27279E-03 2.56876E-04-1.47954E-02-1.23187E-13-1.75238E-13
 -1      1922 2.00266E+01 1.22751E-02-3.89824E-04-3.00700E-02-2.10350E-13 1.32217E-13
 -1      1923 2.00050E+01 5.32058E-03 4.08051E-04-1.00966E-02-4.35124E-14-1.88083E-13
 -1      1924 2.00008E+01 4.34919E-03 1.94161E-04-7.19012E-03 6.03507E-14-1.82507E-13
 -1      1925 2.00127E+01 8.70397E-03-2.92798E-04-1.73307E-02-6.54450E-14 4.97499E-14
 -1      1926 1.99975E+01 3.62354E-03 2.79666E-04-3.92066E-03 2.17321E-13-2.99848E-13
 -1      1927 1.99955E+01 2.89805E-03 1.42327E-04-1.95478E-03 1.62927E-13-2.15150E-13
 -1      1928 2.00040E+01 5.98632E-03-2.14770E-04-8.29682E-03 6.32316E-14-1.39046E-13
 -1      1929 1.99938E+01 2.34611E-03 1.82489E-04 2.27484E-04 3.69326E-14-1.02765E-13
 -1      1930 1.99934E+01 1.80099E-03 9.84782E-05 1.48190E-03 1.43755E-13 8.68535E-14
 -1      1931 1.99990E+01 3.93675E-03-1.52801E-04-2.10107E-03 1.72523E-13-1.89076E-13
 -1      1932 1.99927E+01 1.37191E-03 1.10024E-04 2.83323E-03 1.90467E-13 1.90988E-13
 -1      1933 1.99933E+01 9.45071E-04 5.96176E-05 3.53780E-03 2.39158E-13 1.80544E-13
 -1      1934 1.99966E+01 2.37901E-03-1.04095E-04 1.92833E-03 1.89076E-13 2.55292E-13
 -1      1935 1.99933E+01 5.89372E-04 5.71929E-05 4.23388E-03 1.74903E-13 1.82526E-13
 -1      1936 1.99944E+01 2.23549E-04 2.62872E-05 4.48390E-03 1.48270E-13 2.50378E-13
 -1      1937 1.99960E+01 1.14580E-03-6.56182E-05 4.27913E-03 1.95005E-13 3.94243E-13
 -1      1938 1.99948E+01-1.23237E-04 1.81396E-05 4.63943E-03 9.16171E-14 2.23754E-13
 -1      1939 1.99961E+01-4.83209E-04-2.16977E-06 4.45938E-03 8.64433E-14 2.46752E-13
 -1      1940 1.99964E+01 8.57625E-05-3.49774E-05 5.27041E-03 1.00333E-13 5.13045E-13
 -1      1941 1.99966E+01-7.89144E-04 3.07298E-06 4.13743E-03 1.44139E-13 2.98275E-13
 -1      1942 1.99977E+01-1.18631E-03-2.71190E-05 3.53937E-03 1.88331E-13 2.49088E-13
 -1      1943 1.99983E+01-1.86132E-03-1.20777E-05 4.05904E-03-9.79900E-14 4.44122E-13
 -1      1944 1.99973E+01-9.60042E-04-2.09698E-05 5.11727E-03 1.72120E-13 6.91024E-13
 -1      1945 2.02291E+01 1.67916E-01 1.04623E-02 1.99234E-02 2.74551E-13 2.68802E-13
 -1      1946 2.03960E+01 2.25026E-01 1.78938E-02 2.10741E-01 3.07979E-13 3.96150E-13
 -1      1947 2.05739E+01 3.74577E-01-3.10108E-03 3.82039E-01 3.85372E-13 2.17961E-13
 -1      1948 2.02121E+01 1.09272E-01 9.69543E-03-2.39106E-01 1.79260E-13 1.35378E-13
 -1      1949 2.02002E+01 1.35400E-01 1.58164E-02-1.22892E-01 1.94326E-13 2.16174E-13
 -1      1950 2.03606E+01 2.07682E-01-3.79376E-03-7.34194E-02 2.61445E-13 1.08687E-13
 -1      1951 2.03995E+01 8.27964E-02 7.45434E-03-4.18380E-01 1.29562E-13 7.00577E-14
 -1      1952 2.02736E+01 9.61649E-02 1.02679E-02-3.34822E-01 1.41226E-13 1.16122E-13
 -1      1953 2.03816E+01 1.38455E-01-4.90250E-03-3.64530E-01 1.83697E-13-1.02821E-14
 -1      1954 2.07373E+01 6.89082E-02 5.97281E-03-5.58004E-01 1.06940E-13-1.42759E-14
 -1      1955 2.05313E+01 7.72188E-02 6.48047E-03-4.90174E-01 1.22132E-13 7.62420E-14
 -1      1956 2.05731E+01 1.06598E-01-5.27038E-03-5.74269E-01 1.40424E-13-6.14287E-14
 -1      1957 2.11906E+01 5.72376E-02 4.69630E-03-6.72658E-01 1.12725E-13-8.15359E-14
 -1      1958 2.09242E+01 6.49487E-02 4.18413E-03-6.14682E-01 8.70311E-14-3.17493E-14
 -1      1959 2.08930E+01 8.76468E-02-5.15023E-03-7.39432E-01 1.30811E-13-1.06883E-13
 -1      1960 2.17318E+01 3.92328E-02 2.91259E-03-7.60374E-01 6.85209E-14-4.45620E-14
 -1      1961 2.14209E+01 5.01593E-02 2.44206E-03-7.13819E-01 7.35991E-14-5.59691E-14
 -1      1962 2.13126E+01 6.70999E-02-4.93462E-03-8.70555E-01 7.24744E-14-9.27067E-14
 -1      1963 2.23294E+01 5.43506E-03 1.15342E-04-8.03669E-01 9.56688E-14-3.74501E-14
 -1      1964 2.19938E+01 2.36512E-02 6.20605E-04-7.77527E-01 9.53193E-14-2.56774E-14
 -1      1965 2.18079E+01 3.18737E-02-4.68919E-03-9.58575E-01 1.09274E-13-5.86089E-14
 -1      1966 2.29382E+01-5.43911E-02-3.83971E-03-7.68201E-01 2.10240E-14-3.85117E-14
 -1      1967 2.26079E+01-2.49850E-02-1.58597E-03-7.79933E-01 4.90393E-14-2.27925E-14
 -1      1968 2.23517E+01-3.22508E-02-4.18198E-03-9.75232E-01 6.65570E-14 1.71235E-14
 -1      1969 2.34908E+01-1.47055E-01-8.35685E-03-6.04379E-01 1.07536E-14-1.32056E-14
 -1      1970 2.32106E+01-1.05201E-01-4.16052E-03-6.79394E-01 1.29159E-14-2.98849E-14
 -1      1971 2.29067E+01-1.38190E-01-2.89140E-03-8.73087E-01 4.23095E-14-9.41608E-15
 -1      1972 2.38929E+01-2.65115E-01-1.16516E-02-2.60457E-01 7.49314E-14 1.16519E-14
 -1      1973 2.37230E+01-2.17681E-01-6.72340E-03-4.25609E-01 3.67276E-14-1.27546E-14
 -1      1974 2.34169E+01-2.87603E-01-2.65877E-05-5.92631E-01 3.27351E-14-4.62044E-15
 -1      1975 2.40306E+01-3.69744E-01-1.08750E-02 2.81365E-01 1.85891E-13 1.58849E-14
 -1      1976 2.40360E+01-3.39101E-01-8.67658E-03 1.62575E-02 1.25984E-13 5.14897E-14
 -1      1977 2.38010E+01-4.51078E-01 5.11242E-03-8.77153E-02 1.21791E-13 7.91097E-14
 -1      1978 2.37985E+01-3.79874E-01-4.18972E-03 9.41387E-01 1.45715E-13-3.46025E-14
 -1      1979 2.40246E+01-4.04762E-01-9.15622E-03 6.16329E-01 1.22406E-13 2.02139E-14
 -1      1980 2.39529E+01-5.46256E-01 1.20516E-02 6.19900E-01 1.51282E-13 1.36987E-13
 -1      1981 2.31648E+01-2.03859E-01 4.27124E-03 1.48455E+00 5.41494E-14-9.78141E-14
 -1      1982 2.35983E+01-3.17166E-01-8.43162E-03 1.21723E+00 1.08111E-13-1.06743E-13
 -1      1983 2.37683E+01-4.45177E-01 1.68456E-02 1.36468E+00 1.24158E-13 4.42467E-14
 -1      1984 2.22660E+01 1.66114E-01 5.28892E-03 1.56324E+00 8.96540E-14-2.17291E-13
 -1      1985 2.28018E+01-1.46282E-02-5.84619E-03 1.52382E+00 5.34325E-14-1.69136E-13
 -1      1986 2.32269E+01-6.61445E-02 1.04735E-02 1.80654E+00 7.89983E-14-1.11348E-13
 -1      1987 2.14667E+01 5.54360E-01-6.08050E-03 9.51617E-01 1.97186E-13-4.31335E-13
 -1      1988 2.19077E+01 4.08256E-01-9.26226E-05 1.24030E+00 1.33530E-13-3.62779E-13
 -1      1989 2.25131E+01 4.91276E-01-7.20865E-03 1.56599E+00 2.19030E-13-2.61157E-13
 -1      1990 2.12147E+01 6.86485E-01-1.99565E-02-1.60688E-01 2.58155E-13-5.86310E-13
 -1      1991 2.13522E+01 6.88585E-01 7.74309E-03 3.51674E-01 2.59841E-13-4.70663E-13
 -1      1992 2.20196E+01 9.06313E-01-2.36604E-02 5.61444E-01 3.07150E-13-4.09311E-13
 -1      1993 2.16975E+01 4.57616E-01-1.97504E-02-1.20138E+00 1.85579E-13-7.28043E-13
 -1      1994 2.14451E+01 6.12177E-01 1.18062E-02-7.34044E-01 2.28081E-13-6.54537E-13
 -1      1995 2.20858E+01 8.86907E-01-1.99462E-02-7.60001E-01 2.91080E-13-4.89688E-13
 -1      1996 2.26535E+01 4.90026E-02-5.15124E-03-1.65352E+00-1.62510E-13-7.79314E-13
 -1      1997 2.21245E+01 2.42270E-01 7.67261E-03-1.45272E+00 3.24532E-14-6.91218E-13
 -1      1998 2.26767E+01 4.41231E-01-3.17401E-03-1.69536E+00 5.71904E-14-6.03458E-13
 -1      1999 2.35995E+01-2.67353E-01 1.06335E-02-1.44005E+00-5.07329E-14-7.41169E-13
 -1      2000 2.30239E+01-1.50136E-01-1.89874E-03-1.52490E+00-1.63538E-13-8.26395E-13
 -1      2001 2.34176E+01-1.14798E-01 8.35357E-03-1.84970E+00-1.13580E-13-7.16857E-13
 -1      2002 2.41918E+01-3.78231E-01 1.54887E-02-8.46541E-01 7.70911E-14-7.14121E-13
 -1      2003 2.37687E+01-3.61493E-01-1.04396E-02-1.09118E+00 6.62768E-14-6.70420E-13
 -1      2004 2.39438E+01-4.73185E-01 6.04476E-03-1.35964E+00 4.83918E-14-6.07035E-13
 -1      2005 2.43468E+01-3.30042E-01 1.20165E-02-2.08517E-01-3.95534E-14-7.91087E-13
 -1      2006 2.41595E+01-3.75674E-01-1.41377E-02-4.73177E-01 6.39853E-14-7.44809E-13
 -1      2007 2.41154E+01-5.48197E-01-8.97737E-04-6.15268E-01 8.14522E-14-6.53556E-13
 -1      2008 2.41466E+01-2.17066E-01 6.06335E-03 2.77385E-01-1.77400E-13-7.80079E-13
 -1      2009 2.41784E+01-2.79476E-01-1.28578E-02 7.38703E-02-2.01974E-13-8.11982E-13
 -1      2010 2.39739E+01-4.35896E-01-4.46196E-03 6.14452E-02-1.57669E-13-6.59336E-13
 -1      2011 2.37244E+01-1.07128E-01 1.12930E-03 5.61752E-01-3.20034E-13-4.23230E-13
 -1      2012 2.39100E+01-1.59406E-01-9.03612E-03 4.40251E-01-2.28947E-13-6.05304E-13
 -1      2013 2.36243E+01-2.64800E-01-4.50851E-03 5.25277E-01-3.32453E-13-4.71161E-13
 -1      2014 2.31984E+01-2.73018E-02-1.60089E-03 6.77257E-01-6.08753E-14-3.00098E-13
 -1      2015 2.34668E+01-6.16313E-02-4.85929E-03 6.25257E-01-1.76665E-13-3.77499E-13
 -1      2016 2.31671E+01-1.14682E-01-3.10804E-03 7.67742E-01-1.98912E-13-4.03480E-13
 -1      2017 2.26526E+01 2.04929E-02-2.54599E-03 6.79955E-01 1.23572E-13-6.36297E-14
 -1      2018 2.29477E+01 2.15305E-03-1.39493E-03 6.75009E-01-6.22001E-15-1.85242E-13
 -1      2019 2.26760E+01-1.21557E-02-1.68707E-03 8.41279E-01-3.05990E-14-2.45490E-13
 -1      2020 2.21384E+01 4.39257E-02-2.48155E-03 6.19805E-01 1.43639E-13-8.96303E-14
 -1      2021 2.24236E+01 3.67367E-02 9.87735E-04 6.41591E-01 1.84394E-13 2.72612E-15
 -1      2022 2.21992E+01 4.57407E-02-7.77784E-04 8.08349E-01 1.47438E-13 4.05281E-14
 -1      2023 2.16826E+01 5.17574E-02-2.00353E-03 5.32065E-01-2.97212E-14-2.05453E-13
 -1      2024 2.19381E+01 5.12336E-02 2.35343E-03 5.66058E-01 6.70076E-14-8.70688E-14
 -1      2025 2.17646E+01 7.16000E-02-3.64638E-04 7.19560E-01 9.48473E-14 1.79265E-13
 -1      2026 2.12953E+01 5.08149E-02-1.44532E-03 4.38295E-01-1.23057E-14-1.40951E-13
 -1      2027 2.15129E+01 5.37386E-02 2.94571E-03 4.75492E-01-7.43236E-14-2.27672E-13
 -1      2028 2.13858E+01 7.78038E-02-2.62214E-04 6.09120E-01-6.87124E-15 9.32268E-14
 -1      2029 2.09766E+01 4.55997E-02-9.53777E-04 3.50106E-01-1.12274E-13-2.99938E-14
 -1      2030 2.11553E+01 4.99579E-02 3.02998E-03 3.85565E-01-1.10914E-13-1.74603E-13
 -1      2031 2.10666E+01 7.34550E-02-3.00355E-04 4.97368E-01-9.04739E-14 2.22706E-13
 -1      2032 2.07211E+01 3.87844E-02-5.72765E-04 2.72784E-01-1.12045E-13-8.08473E-14
 -1      2033 2.08637E+01 4.34379E-02 2.82266E-03 3.04177E-01-7.06995E-14-9.42759E-14
 -1      2034 2.08048E+01 6.43391E-02-3.73132E-04 3.94927E-01-1.74305E-14 8.84848E-14
 -1      2035 2.05206E+01 3.18219E-02-2.99502E-04 2.07940E-01 3.09121E-14-2.10810E-13
 -1      2036 2.06318E+01 3.61889E-02 2.47543E-03 2.34477E-01 3.85109E-16-1.29623E-13
 -1      2037 2.05952E+01 5.37816E-02-4.29907E-04 3.06338E-01 1.16816E-14-1.00729E-13
 -1      2038 2.03666E+01 2.54237E-02-1.14847E-04 1.55241E-01 1.26564E-13-2.68941E-13
 -1      2039 2.04514E+01 2.92505E-02 2.08365E-03 1.76961E-01 1.37041E-13-1.99979E-13
 -1      2040 2.04306E+01 4.35213E-02-4.54616E-04 2.32647E-01 9.97085E-14-1.77841E-13
 -1      2041 2.02505E+01 1.98804E-02 2.91261E-06 1.13434E-01 3.52398E-13-3.25740E-13
 -1      2042 2.03139E+01 2.30935E-02 1.70159E-03 1.30780E-01 8.18649E-14-3.51618E-13
 -1      2043 2.03040E+01 3.43581E-02-4.48569E-04 1.73068E-01 1.75165E-13-2.11467E-13
 -1      2044 2.01647E+01 1.52561E-02 7.28128E-05 8.09330E-02 5.40187E-14-2.36031E-13
 -1      2045 2.02111E+01 1.78745E-02 1.35660E-03 9.45069E-02 3.03200E-13-2.12377E-13
 -1      2046 2.02085E+01 2.65721E-02-4.19660E-04 1.25977E-01 2.93355E-13 1.33693E-14
 -1      2047 2.01029E+01 1.15025E-02 1.09860E-04 5.61232E-02-1.10262E-13-2.91976E-13
 -1      2048 2.01360E+01 1.35874E-02 1.05965E-03 6.65552E-02 5.38575E-14-2.13503E-13
 -1      2049 2.01378E+01 2.01731E-02-3.76780E-04 8.94721E-02 1.44531E-13 6.00203E-14
 -1      2050 2.00594E+01 8.52102E-03 1.25209E-04 3.75144E-02 9.15331E-14-1.17577E-13
 -1      2051 2.00824E+01 1.01491E-02 8.12415E-04 4.53959E-02-5.44145E-14-2.51238E-13
 -1      2052 2.00867E+01 1.50433E-02-3.27447E-04 6.16768E-02-3.48139E-14 7.28439E-14
 -1      2053 2.00298E+01 6.19667E-03 1.26820E-04 2.38041E-02-3.31055E-13-2.27681E-13
 -1      2054 2.00452E+01 7.44575E-03 6.11696E-04 2.96582E-02-1.50839E-13-2.95532E-13
 -1      2055 2.00507E+01 1.10140E-02-2.77150E-04 4.08802E-02-5.19978E-14 3.58754E-14
 -1      2056 2.00106E+01 4.41487E-03 1.20158E-04 1.38949E-02-9.02674E-14-7.60161E-14
 -1      2057 2.00204E+01 5.35739E-03 4.52001E-04 1.81667E-02-1.20049E-13-2.12180E-13
 -1      2058 2.00262E+01 7.90526E-03-2.29446E-04 2.55985E-02-2.27353E-13-1.18178E-13
 -1      2059 1.99990E+01 3.06919E-03 1.08779E-04 6.88877E-03 6.92047E-14-4.14916E-13
 -1      2060 2.00047E+01 3.76949E-03 3.27042E-04 9.94527E-03-5.84124E-14-2.36666E-13
 -1      2061 2.00102E+01 5.54534E-03-1.86338E-04 1.45887E-02-2.52925E-14-2.17427E-13
 -1      2062 1.99928E+01 2.06407E-03 9.47812E-05 2.07061E-03 2.15039E-14-1.04925E-13
 -1      2063 1.99956E+01 2.57790E-03 2.30516E-04 4.20576E-03 1.54658E-13-2.50987E-13
 -1      2064 2.00006E+01 3.77846E-03-1.48696E-04 6.83942E-03 3.75628E-14-3.12026E-14
 -1      2065 1.99904E+01 1.31474E-03 7.90866E-05-1.11098E-03-8.29823E-14-2.17654E-13
 -1      2066 1.99912E+01 1.68996E-03 1.56474E-04 3.30398E-04-5.39203E-14-1.52827E-13
 -1      2067 1.99954E+01 2.46687E-03-1.16591E-04 1.55143E-03-2.35074E-15-1.87406E-13
 -1      2068 1.99905E+01 7.43831E-04 6.17610E-05-3.06145E-03 2.29279E-13-2.27718E-13
 -1      2069 1.99900E+01 1.02276E-03 9.96121E-05-2.14693E-03 7.46402E-14-2.33217E-13
 -1      2070 1.99933E+01 1.48819E-03-8.96991E-05-1.88424E-03 7.06490E-14-2.09100E-14
 -1      2071 1.99920E+01 2.75647E-04 4.34758E-05-4.05108E-03 2.60853E-14 1.41838E-14
 -1      2072 1.99908E+01 4.97775E-04 5.58207E-05-3.55511E-03 1.24140E-13-9.67492E-14
 -1      2073 1.99932E+01 7.29264E-04-6.68679E-05-3.90571E-03 3.91262E-14-5.21115E-14
 -1      2074 1.99943E+01-1.65941E-04 2.56330E-05-4.21815E-03 8.46537E-16-1.33686E-13
 -1      2075 1.99928E+01 3.71960E-05 2.32869E-05-4.09252E-03 4.61639E-15-1.39212E-13
 -1      2076 1.99943E+01 7.94922E-05-4.54408E-05-4.78759E-03-3.56375E-15-1.24372E-13
 -1      2077 1.99966E+01-6.61816E-04 8.99490E-06-3.56749E-03 3.21822E-14-1.67653E-13
 -1      2078 1.99952E+01-4.35095E-04 4.43872E-06-3.84546E-03 7.56196E-14-1.16609E-13
 -1      2079 1.99960E+01-5.72567E-04-2.47330E-05-4.67771E-03 7.53907E-14-2.10203E-14
 -1      2080 1.99984E+01-1.15987E-03-1.04259E-05-2.49877E-03-1.31485E-13-6.99858E-14
 -1      2081 1.99972E+01-8.86216E-04-4.24498E-06-3.17398E-03-6.30435E-14-1.13083E-13
 -1      2082 1.99976E+01-1.16911E-03 8.38514E-07-3.94092E-03 1.32555E-14-2.22064E-13
 -1      2083 1.99987E+01-1.82965E-03 1.38565E-05-2.97219E-03-1.44251E-13-1.92020E-13
 -1      2084 2.00003E+01-7.12418E-03 3.91029E-06-3.73767E-03-2.40569E-13-7.62823E-14
 -1      2085 2.00002E+01-5.93704E-03 1.10908E-05-3.98976E-03-2.55409E-13-1.10021E-15
 -1      2086 1.99999E+01-5.32701E-03 3.53479E-06-4.18387E-03-2.11539E-13 4.42485E-14
 -1      2087 1.99996E+01-4.08787E-03-7.13572E-06-4.14909E-03-1.50214E-13 6.68292E-14
 -1      2088 2.00001E+01-4.19187E-03-1.41820E-05-4.90272E-03-2.53608E-13 2.41989E-14
 -1      2089 1.99994E+01-3.62207E-03 2.93923E-06-3.94504E-03-1.46013E-13 1.09378E-13
 -1      2090 1.99990E+01-2.47365E-03-1.79623E-05-3.48847E-03-1.54450E-13-6.36121E-14
 -1      2091 1.99986E+01-2.13855E-03-1.85139E-05-4.08689E-03-9.29653E-14-1.97697E-13
 -1      2092 1.99994E+01-3.17995E-03-1.78777E-05-4.89315E-03-2.56715E-13 7.45930E-15
 -1      2093 2.00005E+01-8.53508E-03 6.71578E-06-2.94852E-03-4.84795E-13-7.06493E-13
 -1      2094 2.00005E+01-7.55626E-03 3.01328E-05-3.32657E-03-2.98675E-13-4.09544E-13
 -1      2095 2.00007E+01-5.22838E-03-1.17891E-05-4.21570E-03-2.60937E-13-4.22292E-13
 -1      2096 2.00005E+01-9.55510E-03 1.08616E-05-2.02170E-03-1.16565E-13 5.14364E-14
 -1      2097 2.00005E+01-8.82930E-03 3.69814E-05-2.44473E-03-3.90127E-13-1.03517E-13
 -1      2098 2.00009E+01-5.97133E-03-9.59432E-06-3.20707E-03-2.96363E-13-2.93141E-13
 -1      2099 2.00005E+01-1.01531E-02 1.63758E-05-1.09441E-03 1.13964E-13 4.09755E-13
 -1      2100 2.00005E+01-9.72127E-03 3.63982E-05-1.51096E-03 4.65200E-14 3.37125E-13
 -1      2101 2.00009E+01-6.44708E-03-6.29189E-06-2.09504E-03 8.19869E-14 2.46505E-13
 -1      2102 2.00005E+01-1.03580E-02 2.32642E-05-2.03336E-04 5.23891E-14 2.08352E-13
 -1      2103 2.00005E+01-1.02221E-02 3.08531E-05-6.05135E-04 1.21222E-13 2.28588E-13
 -1      2104 2.00009E+01-6.69401E-03-2.80407E-06-1.00499E-03 8.14223E-14 2.88458E-13
 -1      2105 2.00005E+01-1.01926E-02 3.04752E-05 6.71614E-04 2.75678E-14 6.33260E-14
 -1      2106 2.00005E+01-1.03498E-02 2.33932E-05 2.72321E-04-1.67733E-14 2.15378E-13
 -1      2107 2.00009E+01-6.75895E-03-1.35392E-06 4.29166E-05-1.32703E-13 1.14767E-13
 -1      2108 2.00005E+01-9.65929E-03 3.57752E-05 1.56427E-03-5.72927E-14-2.08312E-13
 -1      2109 2.00005E+01-1.01083E-02 1.60976E-05 1.15470E-03-1.35153E-14-4.64260E-14
 -1      2110 2.00009E+01-6.66222E-03-2.52389E-06 1.08402E-03-2.00161E-13-7.09284E-15
 -1      2111 2.00005E+01-8.76217E-03 3.60119E-05 2.46125E-03-2.88158E-13-5.99730E-13
 -1      2112 2.00005E+01-9.48635E-03 1.01161E-05 2.05591E-03-2.06958E-13-4.37241E-13
 -1      2113 2.00009E+01-6.39114E-03-5.42842E-06 2.14536E-03-2.15120E-13-4.97089E-13
 -1      2114 2.00004E+01-7.47045E-03 2.82408E-05 3.32546E-03-1.69222E-13-1.60509E-13
 -1      2115 2.00005E+01-8.46528E-03 5.66254E-06 2.95242E-03-1.58786E-13-2.08161E-13
 -1      2116 2.00009E+01-5.90528E-03-9.69555E-06 3.22026E-03-1.12256E-13-2.99756E-13
 -1      2117 2.00002E+01-5.84308E-03 9.86820E-06 3.96897E-03 2.23196E-14 1.10595E-13
 -1      2118 2.00003E+01-7.02520E-03 2.97370E-06 3.72913E-03 7.22879E-14-2.34471E-13
 -1      2119 2.00006E+01-5.15165E-03-1.31085E-05 4.21069E-03 3.77817E-14-4.36084E-14
 -1      2120 1.99995E+01-4.02875E-03-2.37071E-05 4.16530E-03-1.68409E-13 3.11429E-13
 -1      2121 2.00000E+01-5.24793E-03 1.10554E-05 4.15633E-03-1.07368E-13 3.33401E-13
 -1      2122 2.00001E+01-4.10610E-03-5.96724E-06 4.86851E-03 1.04179E-13 1.35517E-13
 -1      2123 1.04342E+01-5.22329E+00-1.68701E-01 6.28934E+00 2.35589E-13 1.06070E-12
 -1      2124 6.71638E+00-6.83782E+00-4.34986E-01 5.00756E+00 7.58282E-14 1.11297E-12
 -1      2125 5.01815E-01-6.27064E+00-2.83809E-01 6.26436E-01-8.80962E-14 1.17573E-12
 -1      2126 3.16927E-01-7.37733E+00-4.56468E-01-1.05570E+00-3.47472E-13 1.25067E-12
 -1      2127 3.93106E+00-6.59886E+00-3.41999E-01 4.28318E+00 2.04892E-13 1.03709E-12
 -1      2128 2.11780E+00-6.40432E+00-2.61877E-01 3.09669E+00-7.40796E-14 9.50795E-13
 -1      2129 7.30947E+00-5.53185E+00-1.70039E-01 5.74341E+00-2.53464E-13 1.02823E-12
 -1      2130 1.94807E+01-3.27075E+00-2.61172E-03 6.75822E+00 6.37712E-13 9.76108E-13
 -1      2131 1.46764E+01-5.15412E+00-3.19420E-01 6.03703E+00 3.71259E-13 9.82908E-13
 -1      2132 2.86174E+01-1.47206E-01 1.98695E-01 5.73697E+00 9.78329E-13 8.98170E-13
 -1      2133 2.34473E+01-2.22866E+00-1.71201E-01 5.48344E+00 8.52540E-13 8.99947E-13
 -1      2134 1.95690E+01 4.09186E+00-2.78330E-02-1.41457E+00-4.51017E-13-4.67407E-13
 -1      2135 1.97534E+01 4.01104E+00-2.23252E-02-1.66023E+00-4.98960E-13-3.49144E-13
 -1      2136 2.00998E+01 3.31450E+00-1.36634E-02-1.60644E+00-5.21862E-13-2.58940E-13
 -1      2137 1.97069E+01 3.70816E+00-6.16962E-03-1.22061E+00-4.51039E-13-4.72296E-13
 -1      2138 3.93961E+01 5.95172E+00 3.09748E-01 1.18612E+00 1.03723E-12 2.78944E-13
 -1      2139 3.72142E+01 4.87450E+00 2.40682E-01 2.27305E+00 1.02271E-12 5.67157E-13
 -1      2140 4.05168E+01 7.14785E+00 3.57684E-01-4.07604E-01 1.23107E-12-3.24046E-15
 -1      2141 3.93698E+01 7.13122E+00 2.36336E-01 5.85815E-01 1.10845E-12 2.27623E-13
 -1      2142 3.84568E+01 6.08400E+00 1.99310E-01-1.66033E+00 1.22807E-12-1.49436E-13
 -1      2143 4.06483E+01 6.72992E+00 3.79082E-01-7.17994E-01 1.23301E-12 4.06064E-14
 -1      2144 3.59789E+01 7.98172E+00 3.38987E-01 1.18868E-01 1.25139E-12 1.15088E-13
 -1      2145 3.31835E+01 2.43293E+00-1.47857E-02-2.51043E+00 1.05613E-12-2.98650E-13
 -1      2146 3.74369E+01 4.32478E+00 3.57300E-01-2.30458E+00 1.17889E-12-1.59095E-13
 -1      2147 2.62985E+01-2.07804E+00-9.68889E-02-4.57549E+00 8.02580E-13-5.64937E-13
 -1      2148 3.08401E+01-1.95204E-01 1.04051E-01-4.09642E+00 8.41799E-13-4.04621E-13
 -1      2149 1.70711E+01-4.80100E+00-2.59007E-01-6.09878E+00 7.66276E-13-9.21263E-13
 -1      2150 2.22107E+01-3.09365E+00-1.52868E-03-6.47640E+00 8.20066E-13-8.64364E-13
 -1      2151 8.58180E+00-6.54871E+00-3.66471E-01-5.57758E+00 5.65492E-13-9.58074E-13
 -1      2152 1.28448E+01-4.97697E+00-8.74513E-02-6.77705E+00 6.58140E-13-9.96481E-13
 -1      2153 3.16996E+00-6.53473E+00-2.69432E-01-3.79797E+00 1.37279E-13-1.10012E-12
 -1      2154 5.54964E+00-6.16246E+00-2.39733E-01-5.06078E+00 5.40457E-13-1.03684E-12
 -1      2155 9.50973E+00-5.42074E+00-7.48129E-02-6.36829E+00-2.75890E-14-9.06525E-13
 -1      2156 3.44542E-01-7.23115E+00-3.99589E-01 2.45992E-01-1.73403E-13-1.29036E-12
 -1      2157 8.61368E-01-6.24928E+00-2.51210E-01-1.56416E+00 1.43607E-13-1.18855E-12
 -1      2158 2.21231E+00-6.74575E+00-3.33766E-01 3.43209E+00-4.78950E-13-1.40721E-12
 -1      2159 7.02591E-01-7.64181E+00-4.60550E-01 1.86804E+00-1.25983E-13-1.34126E-12
 -1      2160 8.18756E+00-5.71698E+00-2.50169E-01 5.93419E+00-8.31779E-13-1.26424E-12
 -1      2161 4.98002E+00-7.11649E+00-4.38919E-01 4.68515E+00-4.98102E-13-1.27814E-12
 -1      2162 1.71886E+01-4.07886E+00-6.43995E-02 7.02773E+00-7.64833E-13-1.04267E-12
 -1      2163 1.22550E+01-5.72648E+00-3.34321E-01 6.13076E+00-7.37854E-13-1.14903E-12
 -1      2164 2.68902E+01-1.06600E+00 1.65531E-01 5.88484E+00-1.08302E-12-9.77551E-13
 -1      2165 2.20690E+01-3.21931E+00-1.42837E-01 5.62489E+00-8.46545E-13-9.40747E-13
 -1      2166 3.44011E+01 2.74056E+00 2.83594E-01 4.30049E+00-1.22485E-12-8.45879E-13
 -1      2167 2.95372E+01 9.43436E-01-3.80000E-02 4.61344E+00-1.26937E-12-9.38583E-13
 -1      2168 3.82045E+01 5.49420E+00 2.42655E-01 1.49414E+00-1.03689E-12-5.30354E-13
 -1      2169 3.54747E+01 4.39841E+00 1.02643E-01 2.46305E+00-1.10340E-12-7.27862E-13
 -1      2170 3.96426E+01 7.15140E+00 2.78769E-01 6.07372E-02-1.10395E-12-4.17770E-13
 -1      2171 3.89450E+01 6.60186E+00 2.01479E-01 1.19523E+00-1.14286E-12-6.30662E-13
 -1      2172 3.45130E+01 6.61248E+00 2.77746E-01-4.56766E-01-1.02446E-12-2.13218E-13
 -1      2173 3.96672E+01 6.44044E+00 3.30253E-01-1.75720E+00-1.09357E-12-7.06657E-14
 -1      2174 4.06296E+01 7.03855E+00 3.62182E-01-4.02853E-01-1.06970E-12-3.58852E-13
 -1      2175 3.51770E+01 3.98445E+00 1.32344E-01-3.08107E+00-1.15029E-12 3.15192E-13
 -1      2176 3.83354E+01 5.13217E+00 3.60419E-01-2.26678E+00-1.07753E-12 7.28306E-14
 -1      2177 2.90929E+01 6.81996E-01-2.83004E-02-4.78776E+00-1.21744E-12 5.49560E-13
 -1      2178 3.34745E+01 2.26914E+00 2.62438E-01-4.43000E+00-1.15441E-12 3.34732E-13
 -1      2179 2.10955E+01-2.45701E+00-2.01081E-01-6.02371E+00-1.12010E-12 6.79012E-13
 -1      2180 2.60374E+01-5.53616E-01 1.49057E-01-6.35700E+00-1.15558E-12 6.76403E-13
 -1      2181 1.34839E+01-5.25974E+00-2.98446E-01-6.17871E+00-8.93507E-13 7.18037E-13
 -1      2182 1.77910E+01-3.38221E+00-3.48573E-03-6.92004E+00-1.02496E-12 6.33049E-13
 -1      2183 5.78076E+00-6.90997E+00-4.44807E-01-4.89582E+00-6.97720E-13 8.39162E-13
 -1      2184 9.22612E+00-5.28954E+00-1.79313E-01-6.21420E+00-8.75633E-13 8.48134E-13
 -1      2185 1.11003E+00-7.62931E+00-4.67730E-01-2.35024E+00-3.05422E-13 1.37079E-12
 -1      2186 2.74374E+00-6.73723E+00-3.58860E-01-3.76701E+00-6.17784E-13 1.17584E-12
 -1      2187 1.86963E+00-4.95667E+00-2.29934E-01-2.17849E+00-5.01821E-14 1.38428E-12
 -1      2188 3.56157E+01 2.99068E+00 2.87331E-01 3.66805E+00 1.02403E-12 6.68909E-13
 -1      2189 3.13834E+01 1.54413E+00 5.50353E-02 4.39994E+00 1.08383E-12 7.87925E-13
 -1      2190 3.04963E+01-7.70310E-01 1.64892E-01 2.88346E+00 6.40821E-13 2.62790E-13
 -1      2191 2.10382E+01 1.10753E+00-1.85921E-02-1.38575E+00-4.95656E-13 6.46089E-13
 -1      2192 3.47286E+01 3.52611E+00 2.69512E-01 7.67148E-01 8.71497E-13 1.61315E-13
 -1      2193 2.09295E+01 1.34208E+00-2.03945E-02-1.38887E+00-5.25595E-13 3.31738E-13
 -1      2194 2.19772E+00-5.17818E+00-1.55031E-01 2.06632E+00-1.59095E-13 1.12926E-12
 -1      2195 2.73481E+00-3.16616E+00 4.11691E-02 1.05702E+00-1.46286E-13 1.19132E-12
 -1      2196 4.22802E+00-3.62454E+00-2.15214E-02 3.47802E+00-2.56295E-13 1.02468E-12
 -1      2197 1.49594E+01-5.70028E+00-7.62172E-02 6.66875E+00-2.08611E-13 8.65773E-13
 -1      2198 1.99993E+01-3.07371E-03-1.78094E-05 4.20885E-03-8.79180E-14 2.36140E-13
 -1      2199 2.36555E+01-4.25737E+00 2.65082E-02 5.28268E+00 1.91569E-13 5.73541E-13
 -1      2200 5.91348E+00-5.51757E+00-1.77813E-01-5.39111E+00-1.65090E-13 9.85212E-13
 -1      2201 1.37406E+01-5.60236E+00-7.22282E-02-6.84376E+00-2.98539E-13 5.75311E-13
 -1      2202 2.18010E+01-4.43590E+00 6.93619E-03-5.87645E+00-5.61218E-13 2.23765E-13
 -1      2203 2.86719E+01-1.51264E+00 1.50198E-01-3.75829E+00-8.93396E-13 1.68643E-13
 -1      2204 3.32255E+01 2.37317E+00 2.34803E-01-1.19828E+00-1.03850E-12-6.18394E-14
 -1      2205 3.62907E+01 7.91246E+00 3.06843E-01-3.80765E-02-1.23712E-12-3.42039E-13
 -1      2206 3.33795E+01 3.01179E+00 2.36555E-01 8.32717E-01-9.29035E-13-1.32894E-13
 -1      2207 2.91872E+01-1.56175E+00 1.04002E-01 3.23868E+00-7.24643E-13-3.17857E-13
 -1      2208 2.17667E+01-4.89758E+00 4.35139E-02 5.87899E+00-2.99927E-13-6.51673E-13
 -1      2209 1.26191E+01-5.68531E+00-6.54146E-02 6.94105E+00-1.99174E-13-9.60954E-13
 -1      2210 5.20402E+00-5.57608E+00-1.96185E-01 4.99041E+00-9.09828E-14-1.35725E-12
 -1      2211 3.55087E+00-4.62951E+00-1.09547E-01-3.25587E+00-8.00471E-14-1.25078E-12
 -1      2212 1.72487E+01-5.63715E+00-1.17453E-02-6.59969E+00 1.68421E-13-6.89275E-13
 -1      2213 2.58492E+01-3.91103E+00 1.01067E-01-4.45990E+00 4.00596E-13-2.27374E-13
 -1      2214 3.51755E+01 5.30093E+00 2.37638E-01 2.62021E-01 1.17101E-12 2.05558E-13
 -1      2215 3.60074E+01 7.08547E+00 2.83705E-01-2.49591E-01 1.12338E-12 1.33227E-14
 -1      2216 3.18152E+01 2.18138E-02 7.58309E-02-1.17966E+00 7.23163E-13 6.95000E-14
 -1      2217 1.79924E+00-4.70092E+00-1.81527E-01 1.35744E+00-8.67639E-14-1.46810E-12
 -1      2218 3.57901E+01 6.20461E+00 3.26128E-01-9.50456E-03-1.16485E-12-1.53044E-13
 -1      2219 2.06131E+01 5.67829E-01 6.95431E-03 3.33067E-01 3.65078E-13 1.26622E-14
 -1      2220 2.07990E+01 7.45453E-01 2.08229E-02 6.50875E-01 4.35863E-13 7.17989E-14
 -1      2221 1.92681E+01 3.79748E+00-1.13431E-02-4.01071E-01-2.49568E-13-6.36766E-13
 -1      2222 1.93563E+01 3.73531E+00-8.51300E-03-5.45742E-01-3.08358E-13-6.29939E-13
 -1      2223 1.94630E+01 3.61268E+00-1.34605E-02-6.70446E-01-3.38293E-13-6.07670E-13
 -1      2224 1.95926E+01 3.51026E+00-1.05564E-02-8.31362E-01-3.93626E-13-5.53498E-13
 -1      2225 1.95477E+01 3.33152E+00 1.50965E-03-5.18495E-01-3.05548E-13-5.77216E-13
 -1      2226 1.91335E+01 3.92522E+00-8.72696E-03 8.12731E-02-3.99580E-14-6.77194E-13
 -1      2227 1.91345E+01 3.92471E+00-8.49630E-03-4.75248E-02-1.02360E-13-6.63078E-13
 -1      2228 1.91989E+01 3.87393E+00-8.34095E-03 3.18448E-01 6.45944E-14-7.10945E-13
 -1      2229 1.91547E+01 3.90353E+00-9.63663E-03 1.86615E-01 1.29890E-15-7.07358E-13
 -1      2230 1.92624E+01 3.61154E+00 1.14885E-03 1.18025E-01-1.77525E-14-6.47700E-13
 -1      2231 1.93499E+01 3.74339E+00-8.85199E-03 5.66774E-01 1.68470E-13-6.88042E-13
 -1      2232 1.92628E+01 3.80485E+00-1.13886E-02 4.27041E-01 1.04086E-13-7.00905E-13
 -1      2233 1.93548E+01 3.52567E+00 1.43202E-03 3.20688E-01 7.68455E-14-6.63451E-13
 -1      2234 1.95901E+01 3.51589E+00-1.09277E-02 8.44570E-01 2.88047E-13-6.27391E-13
 -1      2235 1.94580E+01 3.62029E+00-1.37345E-02 6.86843E-01 2.20378E-13-6.64831E-13
 -1      2236 1.95396E+01 3.34405E+00 1.81337E-03 5.36350E-01 1.90734E-13-6.29916E-13
 -1      2237 1.99182E+01 3.16357E+00-1.60095E-02 1.14664E+00 3.96998E-13-5.47571E-13
 -1      2238 1.97422E+01 3.32983E+00-1.65725E-02 9.73373E-01 3.27486E-13-5.88997E-13
 -1      2239 1.98156E+01 3.05035E+00 2.96567E-03 7.68716E-01 2.93719E-13-5.60551E-13
 -1      2240 2.03390E+01 2.63347E+00-2.62218E-02 1.44183E+00 5.17795E-13-3.84779E-13
 -1      2241 2.01178E+01 2.89886E+00-1.86817E-02 1.26907E+00 4.38397E-13-4.73680E-13
 -1      2242 2.01727E+01 2.62037E+00 6.24128E-03 9.97681E-01 3.95340E-13-4.55497E-13
 -1      2243 2.04927E+01 3.59130E-01 8.61864E-03-1.36964E-01 2.42534E-13-6.09755E-14
 -1      2244 2.05516E+01 4.44051E-01 2.03544E-02 5.85611E-02 3.01215E-13-8.44724E-15
 -1      2245 2.06250E+01 7.30131E-01-4.13488E-03 2.76591E-01 3.72118E-13-1.26708E-13
 -1      2246 2.07496E+01 9.19596E-01 1.36246E-02-6.45204E-01-4.22948E-13 1.66292E-13
 -1      2247 2.06047E+01 7.09101E-01-1.09377E-03-3.07072E-01-3.63775E-13 1.40290E-13
 -1      2248 3.30792E+01 3.59009E+00-1.33533E-01-7.63882E-01 8.07465E-13-1.71391E-13
 -1      2249 3.22023E+01 1.63434E+00-1.51545E-02-5.78616E-02 7.46764E-13-1.00864E-13
 -1      2250 2.05794E+01 5.64617E-01 1.60458E-02-5.03098E-02-3.07505E-13 1.32033E-13
 -1      2251 2.05213E+01 4.53464E-01 3.09286E-03 1.59810E-01-2.72501E-13 1.00176E-13
 -1      2252 2.05919E+01 8.63033E-01-3.34409E-03-2.39078E-01-3.71089E-13 7.83444E-15
 -1      2253 2.05108E+01 3.77938E-01 1.08311E-02 3.46893E-01-2.46413E-13 9.95781E-14
 -1      2254 2.05314E+01 3.14588E-01 3.68913E-03 4.89475E-01-2.13972E-13 6.21851E-14
 -1      2255 2.05259E+01 5.66257E-01-5.11658E-03 2.40140E-01-2.80951E-13-2.76969E-14
 -1      2256 2.05537E+01 2.67922E-01 6.70946E-03 6.26747E-01-1.87271E-13 5.36928E-14
 -1      2257 2.06348E+01 2.24879E-01 3.31654E-03 7.27417E-01-1.70936E-13 3.40786E-14
 -1      2258 2.05279E+01 3.95136E-01-5.17160E-03 5.90002E-01-2.33733E-13-8.45309E-15
 -1      2259 2.06923E+01 1.87533E-01 4.41006E-03 8.28253E-01-1.59246E-13 1.77538E-16
 -1      2260 2.08175E+01 1.47494E-01 2.26810E-03 8.96542E-01-1.56335E-13-2.84306E-14
 -1      2261 2.06033E+01 2.77889E-01-4.75553E-03 8.47684E-01-2.06911E-13-5.20579E-14
 -1      2262 2.09103E+01 1.06186E-01 3.44385E-03 9.64648E-01-1.37952E-13-3.20284E-14
 -1      2263 2.10658E+01 5.58408E-02 3.76834E-04 9.99426E-01-9.96892E-14-2.91333E-14
 -1      2264 2.07494E+01 1.69645E-01-4.47861E-03 1.03191E+00-1.48879E-13-6.47301E-14
 -1      2265 2.11958E+01-4.31235E-04 3.48518E-03 1.02957E+00-6.98168E-14-3.25772E-14
 -1      2266 2.13688E+01-7.24384E-02-2.56932E-03 1.02131E+00-8.01503E-14-2.15647E-14
 -1      2267 2.09645E+01 3.65393E-02-4.64585E-03 1.14244E+00-1.13121E-13-9.76099E-14
 -1      2268 2.15399E+01-1.52470E-01 4.29929E-03 9.99782E-01-1.08631E-13 4.31046E-15
 -1      2269 2.17162E+01-2.53639E-01-6.64096E-03 9.32622E-01-1.32616E-13-7.77145E-15
 -1      2270 2.12516E+01-1.49350E-01-5.31971E-03 1.16126E+00-8.37234E-14-7.47068E-14
 -1      2271 2.19324E+01-3.60264E-01 5.47857E-03 8.38547E-01-1.14585E-13 4.11429E-14
 -1      2272 2.20940E+01-4.87761E-01-1.14645E-02 6.94602E-01-5.01483E-14 5.38391E-14
 -1      2273 2.16172E+01-4.05170E-01-6.21569E-03 1.05412E+00-1.04987E-13-4.33157E-14
 -1      2274 2.23516E+01-6.09623E-01 6.04212E-03 5.04962E-01-4.32987E-15 4.30274E-14
 -1      2275 2.24750E+01-7.39157E-01-1.57877E-02 2.73972E-01 4.72010E-14 5.23780E-14
 -1      2276 2.20630E+01-7.20975E-01-6.43805E-03 7.75914E-01-3.79246E-14 3.81534E-14
 -1      2277 2.27496E+01-8.39379E-01 4.20636E-03-2.36648E-02 7.25318E-14 8.76008E-14
 -1      2278 2.28066E+01-9.12687E-01-1.65871E-02-3.27504E-01 7.58330E-14 1.11980E-13
 -1      2279 2.25689E+01-1.03312E+00-4.48310E-03 2.86959E-01 5.08727E-14 8.66711E-14
 -1      2280 2.30374E+01-9.20984E-01-1.98493E-03-7.07695E-01 4.80432E-14 9.80639E-14
 -1      2281 2.30025E+01-8.49988E-01-1.00012E-02-1.02232E+00-4.29344E-16 1.15061E-13
 -1      2282 2.30660E+01-1.19445E+00 1.77545E-03-4.10019E-01 5.51959E-14 8.45592E-14
 -1      2283 2.30963E+01-6.84157E-01-1.39168E-02-1.38413E+00-1.02500E-14 1.35584E-13
 -1      2284 2.29681E+01-3.99672E-01 4.41919E-03-1.58887E+00-7.98239E-14 1.50839E-13
 -1      2285 2.34166E+01-9.89403E-01 1.09538E-02-1.19993E+00-2.45615E-15 9.75526E-14
 -1      2286 2.28601E+01-3.43004E-02-2.57214E-02-1.74905E+00-1.34255E-13 1.81957E-13
 -1      2287 2.26806E+01 4.19311E-01 1.95934E-02-1.70046E+00-1.38489E-13 2.14866E-13
 -1      2288 2.34626E+01-2.69215E-01 1.26997E-02-1.79169E+00-8.59239E-14 1.45822E-13
 -1      2289 2.24342E+01 8.65460E-01-2.51547E-02-1.48140E+00-2.35084E-13 1.45083E-13
 -1      2290 2.22891E+01 1.27322E+00 2.17080E-02-1.11522E+00-3.00189E-13 7.83087E-14
 -1      2291 2.31782E+01 8.38459E-01 1.75236E-03-1.78230E+00-2.50119E-13 8.85899E-14
 -1      2292 2.21180E+01 1.53940E+00-7.81846E-03-5.24736E-01-2.95318E-13-3.16416E-14
 -1      2293 2.20924E+01 1.63150E+00 2.98131E-03 3.38269E-02-3.11372E-13-6.40656E-14
 -1      2294 2.28068E+01 1.81224E+00-1.66854E-02-9.39431E-01-3.81048E-13-2.40281E-15
 -1      2295 2.21684E+01 1.52599E+00 1.37314E-02 7.10110E-01-3.67827E-13-1.13505E-13
 -1      2296 2.22812E+01 1.23715E+00-2.03306E-02 1.19250E+00-3.00714E-13-2.19759E-13
 -1      2297 2.27216E+01 2.03134E+00-2.30283E-02 4.26706E-01-3.50765E-13-7.98993E-14
 -1      2298 2.25333E+01 8.41753E-01 2.26073E-02 1.59956E+00-2.28557E-13-3.40958E-13
 -1      2299 2.27213E+01 3.77419E-01-2.74687E-02 1.79765E+00-1.89348E-13-3.54338E-13
 -1      2300 2.30202E+01 1.34476E+00-8.51190E-03 1.58326E+00-3.41616E-13-2.55732E-13
 -1      2301 2.29211E+01-5.03313E-02 1.25572E-02 1.80092E+00-9.85247E-14-4.09116E-13
 -1      2302 2.30988E+01-4.25661E-01-1.82330E-02 1.69752E+00 6.19661E-14-4.44848E-13
 -1      2303 2.34046E+01 2.25078E-01 1.08203E-02 1.97828E+00-1.45330E-13-3.81619E-13
 -1      2304 2.30968E+01-6.80817E-01-5.19792E-03 1.40722E+00 1.54113E-13-4.81062E-13
 -1      2305 2.31935E+01-8.40191E-01-7.13341E-03 1.13213E+00 2.20880E-13-4.00346E-13
 -1      2306 2.35317E+01-7.19479E-01 8.21430E-03 1.61520E+00 7.71982E-14-5.63061E-13
 -1      2307 2.30244E+01-9.00084E-01-1.49016E-02 7.52572E-01 2.36199E-13-3.76326E-13
 -1      2308 2.30270E+01-8.79481E-01 2.60031E-03 4.41190E-01 2.57067E-13-3.62888E-13
 -1      2309 2.33241E+01-1.12833E+00 5.24402E-03 8.89539E-01 2.32609E-13-5.28566E-13
 -1      2310 2.27725E+01-8.10173E-01-1.68959E-02 1.08124E-01 2.18871E-13-4.08959E-13
 -1      2311 2.26975E+01-6.96159E-01 6.19723E-03-1.51251E-01 1.35815E-13-4.13882E-13
 -1      2312 2.28973E+01-1.10358E+00-1.75549E-03 1.45234E-01 1.86704E-13-5.79730E-13
 -1      2313 2.24366E+01-5.77826E-01-1.38557E-02-3.81028E-01 3.75654E-14-4.64138E-13
 -1      2314 2.23118E+01-4.45352E-01 6.18303E-03-5.55823E-01 3.95972E-15-3.86283E-13
 -1      2315 2.24028E+01-8.36387E-01-5.79228E-03-4.25788E-01 6.18002E-14-6.16652E-13
 -1      2316 2.20839E+01-3.31128E-01-9.06150E-03-6.83239E-01-2.27743E-14-2.75248E-13
 -1      2317 2.19343E+01-2.19652E-01 4.85344E-03-7.76825E-01 4.17754E-14-2.49873E-13
 -1      2318 2.19437E+01-5.12332E-01-6.10679E-03-7.79828E-01 2.53042E-15-4.82410E-13
 -1      2319 2.17487E+01-1.31686E-01-4.62959E-03-8.24785E-01 8.16767E-14-2.19120E-13
 -1      2320 2.15921E+01-5.31982E-02 3.32656E-03-8.55341E-01 1.05332E-13-4.55321E-14
 -1      2321 2.15562E+01-2.34283E-01-5.01056E-03-9.48647E-01 5.22606E-14-3.18430E-13
 -1      2322 2.14450E+01 4.90913E-03-1.27240E-03-8.49696E-01 4.48025E-15-1.17494E-13
 -1      2323 2.12933E+01 5.25331E-02 2.08405E-03-8.38076E-01-6.08839E-14-1.14603E-13
 -1      2324 2.12416E+01-3.50440E-02-3.72263E-03-9.83521E-01 8.77865E-15-2.11945E-13
 -1      2325 2.11770E+01 8.56345E-02 9.46714E-04-8.00690E-01-2.94673E-14-1.56727E-15
 -1      2326 2.10373E+01 1.09685E-01 1.23722E-03-7.64662E-01-1.23838E-15-4.84920E-14
 -1      2327 2.09884E+01 8.83180E-02-2.71782E-03-9.33039E-01 1.89745E-14-2.21618E-13
 -1      2328 2.09448E+01 1.24814E-01 2.22667E-03-7.11545E-01-6.32131E-14-2.08829E-14
 -1      2329 2.08211E+01 1.32963E-01 7.17115E-04-6.64154E-01-9.40101E-15 6.26338E-15
 -1      2330 2.07839E+01 1.52676E-01-2.04964E-03-8.35257E-01-2.89757E-14-3.94059E-14
 -1      2331 2.07468E+01 1.36494E-01 2.81880E-03-6.05999E-01-4.46253E-14-4.44925E-14
 -1      2332 2.06406E+01 1.34975E-01 4.20667E-04-5.55864E-01-5.67492E-14-5.19253E-14
 -1      2333 2.06177E+01 1.76614E-01-1.63392E-03-7.16973E-01-9.12843E-14-3.40285E-14
 -1      2334 2.05808E+01 1.31749E-01 2.95175E-03-4.99233E-01-7.39004E-14-7.78461E-14
 -1      2335 2.04921E+01 1.25017E-01 2.61119E-04-4.51505E-01-1.39871E-13-6.51265E-15
 -1      2336 2.04822E+01 1.75552E-01-1.37039E-03-5.95570E-01-6.32943E-14-7.43999E-15
 -1      2337 2.04441E+01 1.18354E-01 2.80542E-03-4.00027E-01-1.96010E-13 8.57965E-14
 -1      2338 2.03716E+01 1.09334E-01 1.78637E-04-3.57406E-01-1.12785E-13 1.94899E-13
 -1      2339 2.03720E+01 1.60684E-01-1.18522E-03-4.81378E-01-1.40466E-13 1.20596E-13
 -1      2340 2.03333E+01 1.01350E-01 2.50929E-03-3.12739E-01-5.86031E-14 1.18642E-13
 -1      2341 2.02754E+01 9.18292E-02 1.36438E-04-2.76322E-01-4.35620E-14 1.07768E-13
 -1      2342 2.02830E+01 1.39462E-01-1.03533E-03-3.79791E-01-1.37441E-13 2.01451E-13
 -1      2343 2.02452E+01 8.37811E-02 2.15028E-03-2.38888E-01-1.17286E-13 1.26587E-13
 -1      2344 2.01999E+01 7.47665E-02 1.13740E-04-2.08790E-01-8.37791E-14 5.64223E-14
 -1      2345 2.02118E+01 1.16505E-01-9.00290E-04-2.92950E-01-1.10876E-13 2.18375E-13
 -1      2346 2.01763E+01 6.73360E-02 1.78291E-03-1.78277E-01-1.82528E-15 1.52237E-13
 -1      2347 2.01417E+01 5.93296E-02 9.96711E-05-1.54066E-01 1.79375E-13 2.15181E-13
 -1      2348 2.01557E+01 9.44662E-02-7.73037E-04-2.20975E-01 1.63726E-14 3.34834E-13
 -1      2349 2.01235E+01 5.28349E-02 1.43866E-03-1.29777E-01 1.51417E-13 1.42769E-13
 -1      2350 2.00976E+01 4.60259E-02 8.90082E-05-1.10749E-01 2.70403E-14 2.07963E-13
 -1      2351 2.01121E+01 7.47059E-02-6.52966E-04-1.62827E-01 1.16151E-13 2.13901E-13
 -1      2352 2.00839E+01 4.05642E-02 1.13351E-03-9.18221E-02-1.43598E-13 7.59547E-14
 -1      2353 2.00649E+01 3.49594E-02 7.94986E-05-7.71826E-02-1.21597E-13-5.90095E-14
 -1      2354 2.00788E+01 5.77788E-02-5.41783E-04-1.16891E-01-8.72667E-14 1.45764E-13
 -1      2355 2.00547E+01 3.05009E-02 8.73456E-04-6.27289E-02 3.96149E-14-5.44840E-14
 -1      2356 2.00412E+01 2.60071E-02 7.02951E-05-5.16944E-02 8.05738E-16 5.01120E-15
 -1      2357 2.00538E+01 4.37603E-02-4.41384E-04-8.13412E-02-7.86000E-14 2.48583E-14
 -1      2358 2.00339E+01 2.24550E-02 6.58520E-04-4.08752E-02-1.04601E-13 6.29047E-16
 -1      2359 2.00246E+01 1.89311E-02 6.10900E-05-3.27301E-02-1.29577E-13 1.28095E-13
 -1      2360 2.00354E+01 3.24588E-02-3.52982E-04-5.43705E-02-2.95275E-14 2.03299E-13
 -1      2361 2.00194E+01 1.61580E-02 4.85330E-04-2.48008E-02-1.75764E-13 1.44984E-13
 -1      2362 2.00133E+01 1.34455E-02 5.16696E-05-1.89249E-02-5.32182E-14 1.54638E-13
 -1      2363 2.00223E+01 2.35493E-02-2.76905E-04-3.43188E-02-6.37838E-14 3.34422E-13
 -1      2364 2.00097E+01 1.13150E-02 3.48875E-04-1.32525E-02-6.07595E-14 1.45339E-13
 -1      2365 2.00059E+01 9.25523E-03 4.17139E-05-9.13052E-03 1.09049E-14 1.00233E-13
 -1      2366 2.00131E+01 1.66539E-02-2.12721E-04-1.97370E-02-1.17990E-13 4.29580E-13
 -1      2367 2.00037E+01 7.63292E-03 2.43683E-04-5.19754E-03 1.92501E-13-1.27600E-14
 -1      2368 2.00015E+01 6.07528E-03 3.07961E-05-2.41900E-03 2.71282E-13 8.72102E-14
 -1      2369 2.00070E+01 1.13872E-02-1.59518E-04-9.41209E-03 2.69424E-14 3.58877E-13
 -1      2370 2.00002E+01 4.83351E-03 1.64541E-04 1.81009E-04 1.83477E-13 2.89394E-14
 -1      2371 1.99992E+01 3.63601E-03 1.80398E-05 1.92750E-03 2.10040E-13 2.39157E-13
 -1      2372 2.00031E+01 7.37926E-03-1.16060E-04-2.36745E-03 2.36297E-13 2.75220E-13
 -1      2373 1.99985E+01 2.65209E-03 1.06648E-04 3.49614E-03 1.70923E-13 3.12959E-13
 -1      2374 1.99983E+01 1.68716E-03 5.98877E-06 4.42656E-03 1.56978E-13 3.46830E-13
 -1      2375 2.00009E+01 4.27763E-03-8.17420E-05 2.15076E-03 2.46736E-13 1.35434E-13
 -1      2376 1.99980E+01 8.22847E-04 5.91775E-05 5.18042E-03 1.35991E-13 2.39416E-13
 -1      2377 1.99982E+01 1.07340E-05 1.92376E-06 5.41760E-03 1.58910E-13 3.03288E-13
 -1      2378 1.99997E+01 1.77510E-03-5.30098E-05 4.68881E-03 7.50418E-14 8.84309E-14
 -1      2379 1.04407E+01-4.70990E+00 1.85289E-02 6.54904E+00-3.38229E-13 8.41577E-13
 -1      2380 7.56210E+00-4.06791E+00 7.59842E-02 5.42503E+00-3.20549E-13 9.07774E-13
 -1      2381 2.06750E+01 2.06251E-01 6.57622E-03-7.11697E-01 1.34635E-13-1.38000E-13
 -1      2382 2.05522E+01 2.29417E-01 7.61758E-03-6.07648E-01 1.50264E-13-1.01240E-13
 -1      2383 2.09336E+01 1.69632E-01 5.51260E-03-9.10081E-01 1.19804E-13-1.26696E-13
 -1      2384 2.07527E+01 1.87488E-01 4.62119E-03-8.26132E-01 1.47121E-13-1.31211E-13
 -1      2385 2.06580E+01 2.76696E-01-5.17562E-03-8.68932E-01 1.61032E-13-1.61971E-13
 -1      2386 2.12763E+01 1.26597E-01 3.80028E-03-1.06665E+00 5.57585E-14-1.27587E-13
 -1      2387 2.10517E+01 1.50457E-01 3.01897E-03-1.00241E+00 7.38267E-14-1.28182E-13
 -1      2388 2.08544E+01 2.21922E-01-4.65891E-03-1.09576E+00 1.09443E-13-1.54444E-13
 -1      2389 2.16870E+01 5.45223E-02 8.35444E-04-1.16871E+00 8.26327E-14-6.47290E-14
 -1      2390 2.14326E+01 9.64635E-02 2.31274E-03-1.13364E+00 7.26395E-14-7.75012E-14
 -1      2391 2.11274E+01 1.51386E-01-4.56156E-03-1.27223E+00 4.77429E-14-1.49171E-13
 -1      2392 2.21503E+01-7.13892E-02-3.88245E-03-1.18264E+00 1.32186E-14-2.79074E-14
 -1      2393 2.18834E+01 1.72889E-03 2.33395E-03-1.19640E+00 6.79134E-14-1.65046E-14
 -1      2394 2.14745E+01 3.27679E-02-5.14396E-03-1.38150E+00 2.14891E-14-8.18255E-14
 -1      2395 2.26479E+01-2.72550E-01-1.04738E-02-1.05375E+00 2.78310E-14 2.47870E-14
 -1      2396 2.23924E+01-1.58304E-01 3.02340E-03-1.14519E+00 3.94598E-14 1.82415E-14
 -1      2397 2.19007E+01-1.67524E-01-6.47102E-03-1.38357E+00 1.49764E-14-1.85086E-14
 -1      2398 2.31516E+01-5.48334E-01-1.80103E-02-7.14430E-01 7.06293E-14 2.15685E-14
 -1      2399 2.29409E+01-3.97990E-01 4.04601E-03-9.14564E-01 3.89519E-14 3.00424E-14
 -1      2400 2.24158E+01-4.72721E-01-8.08628E-03-1.21490E+00 5.49526E-14 1.92644E-14
 -1      2401 2.36105E+01-8.39697E-01-2.35722E-02-1.12692E-01 8.53336E-14 8.74369E-14
 -1      2402 2.34880E+01-6.94306E-01 4.17922E-03-4.35461E-01 7.12356E-14 5.75278E-14
 -1      2403 2.30215E+01-8.64151E-01-8.41476E-03-7.97239E-01 5.13556E-14 6.72757E-14
 -1      2404 2.39358E+01-9.87487E-01-2.12240E-02 7.24016E-01 1.10627E-13 1.94508E-13
 -1      2405 2.39466E+01-9.44251E-01 5.50736E-04 3.16775E-01 1.07084E-13 1.83594E-13
 -1      2406 2.36790E+01-1.22689E+00-4.65835E-03-7.25185E-02 4.31894E-14 2.14379E-13
 -1      2407 2.40035E+01-7.49704E-01-6.48160E-03 1.59089E+00 1.36200E-13 1.78127E-13
 -1      2408 2.41698E+01-9.36323E-01-8.94329E-03 1.22995E+00 1.47238E-13 2.28480E-13
 -1      2409 2.42630E+01-1.30864E+00 4.87728E-03 9.13016E-01 1.14779E-13 2.75916E-13
 -1      2410 2.37199E+01 2.82758E-02 1.21326E-02 2.05694E+00 1.81197E-13 6.18568E-14
 -1      2411 2.40020E+01-4.34118E-01-2.72272E-02 1.95855E+00 1.50407E-13 1.63287E-13
 -1      2412 2.45548E+01-7.78654E-01 1.46845E-02 1.88337E+00 1.92127E-13 3.08645E-13
 -1      2413 2.32027E+01 1.08944E+00 1.75059E-02 1.63989E+00 3.46296E-13-8.25217E-14
 -1      2414 2.34742E+01 5.56916E-01-3.79783E-02 1.97482E+00 2.43775E-13-2.83740E-14
 -1      2415 2.43762E+01 4.21509E-01 8.37008E-04 2.26242E+00 3.07934E-13 2.07168E-13
 -1      2416 2.28445E+01 1.72866E+00-4.57282E-03 3.04269E-01 3.65930E-13-2.34049E-13
 -1      2417 2.29477E+01 1.51479E+00-2.60407E-02 9.84538E-01 3.82822E-13-1.49098E-13
 -1      2418 2.39164E+01 1.76571E+00-2.94581E-02 1.52152E+00 3.84800E-13 1.14938E-13
 -1      2419 2.30216E+01 1.41360E+00-3.09194E-02-1.24581E+00 2.93175E-13-3.40648E-13
 -1      2420 2.28831E+01 1.69804E+00 3.57799E-03-5.96831E-01 4.03240E-13-3.08094E-13
 -1      2421 2.37006E+01 2.31238E+00-4.27953E-02-1.74408E-01 4.14849E-13-9.40437E-14
 -1      2422 2.36161E+01 4.05987E-01-3.77481E-02-2.10495E+00 5.93935E-14-5.06166E-13
 -1      2423 2.33171E+01 9.50268E-01 1.83681E-02-1.83644E+00 1.78694E-13-4.50227E-13
 -1      2424 2.40053E+01 1.61043E+00-2.51716E-02-1.78110E+00 2.75963E-13-2.75722E-13
 -1      2425 2.41449E+01-5.25976E-01-1.91969E-02-1.96549E+00-8.50899E-14-6.36604E-13
 -1      2426 2.38463E+01-1.08892E-01 9.14500E-03-2.11016E+00-2.06354E-14-5.81020E-13
 -1      2427 2.44776E+01 2.26016E-01 3.66199E-03-2.35756E+00 1.06833E-13-4.79988E-13
 -1      2428 2.42828E+01-9.43931E-01-3.49326E-03-1.19419E+00 5.24528E-14-5.91450E-13
 -1      2429 2.41083E+01-8.05365E-01-1.03272E-02-1.55979E+00-3.38809E-14-6.34314E-13
 -1      2430 2.46093E+01-8.97708E-01 1.05693E-02-1.85512E+00-3.92319E-14-5.99756E-13
 -1      2431 2.40517E+01-8.99065E-01 3.86838E-03-3.03029E-01-3.63190E-14-4.19548E-13
 -1      2432 2.40331E+01-9.67778E-01-2.25469E-02-6.86931E-01 9.42892E-14-4.71886E-13
 -1      2433 2.42886E+01-1.31357E+00 6.44888E-04-8.73248E-01-2.86693E-14-5.15797E-13
 -1      2434 2.36118E+01-6.32254E-01 5.81066E-03 3.98883E-01-2.88647E-13-3.10927E-13
 -1      2435 2.37209E+01-7.82163E-01-2.25467E-02 1.08340E-01-1.36776E-13-3.71442E-13
 -1      2436 2.37112E+01-1.16569E+00-7.17926E-03 7.12027E-02-1.40447E-13-2.21987E-13
 -1      2437 2.31027E+01-3.40919E-01 4.53899E-03 8.25075E-01-2.90672E-13-3.56721E-13
 -1      2438 2.32931E+01-4.84569E-01-1.62037E-02 6.53983E-01-3.29093E-13-3.68182E-13
 -1      2439 2.30861E+01-7.83233E-01-9.44642E-03 7.34112E-01-2.69732E-13-1.87125E-13
 -1      2440 2.26024E+01-1.15162E-01 2.87127E-03 1.01260E+00-1.74096E-13-3.98626E-13
 -1      2441 2.28316E+01-2.19282E-01-9.01339E-03 9.42012E-01-2.43603E-13-3.80511E-13
 -1      2442 2.25232E+01-3.98799E-01-8.07298E-03 1.09490E+00-2.35899E-13-4.01070E-13
 -1      2443 2.21438E+01 2.83481E-02 1.71458E-03 1.03518E+00-7.34869E-14-2.45756E-13
 -1      2444 2.23810E+01-3.43784E-02-3.15644E-03 1.03304E+00-1.86896E-13-4.10155E-13
 -1      2445 2.20506E+01-1.12081E-01-5.74702E-03 1.22142E+00-2.08808E-13-3.35785E-13
 -1      2446 2.17379E+01 1.04578E-01 1.09977E-03 9.60972E-01 3.31215E-14 2.62485E-15
 -1      2447 2.19634E+01 7.34695E-02 7.94728E-04 9.98170E-01 3.07255E-14-1.86747E-13
 -1      2448 2.16599E+01 6.52199E-02-3.84696E-03 1.19585E+00-6.65360E-14-2.97205E-13
 -1      2449 2.13869E+01 1.35252E-01 8.28412E-04 8.39968E-01 1.59150E-15 1.53769E-13
 -1      2450 2.15896E+01 1.24667E-01 3.05824E-03 8.95369E-01 6.18006E-14 1.12284E-13
 -1      2451 2.13359E+01 1.56309E-01-2.66420E-03 1.08547E+00-3.72413E-14-2.01326E-13
 -1      2452 2.10894E+01 1.38814E-01 7.26386E-04 7.04286E-01-1.22626E-13 3.84928E-13
 -1      2453 2.12643E+01 1.40006E-01 4.08649E-03 7.64498E-01-2.33448E-14 3.26744E-13
 -1      2454 2.10657E+01 1.90199E-01-2.02707E-03 9.37221E-01-8.16430E-14 1.49750E-13
 -1      2455 2.08417E+01 1.28144E-01 6.84756E-04 5.72423E-01 2.97076E-14 2.28963E-13
 -1      2456 2.09880E+01 1.35233E-01 4.31622E-03 6.29904E-01 2.02485E-14 3.62343E-13
 -1      2457 2.08404E+01 1.90587E-01-1.69750E-03 7.80523E-01-9.25882E-14 3.53452E-13
 -1      2458 2.06393E+01 1.11282E-01 6.50926E-04 4.53734E-01 1.02854E-13 1.80377E-14
 -1      2459 2.07585E+01 1.20694E-01 4.08459E-03 5.04822E-01 1.66358E-14 7.86780E-14
 -1      2460 2.06538E+01 1.73743E-01-1.50611E-03 6.32048E-01 7.98290E-14 1.28893E-13
 -1      2461 2.04768E+01 9.28395E-02 6.06424E-04 3.51940E-01 1.56639E-14-1.07755E-13
 -1      2462 2.05718E+01 1.02574E-01 3.62350E-03 3.95318E-01 9.23220E-14 5.09551E-14
 -1      2463 2.05009E+01 1.49724E-01-1.35991E-03 5.00024E-01 1.03279E-13 8.91318E-14
 -1      2464 2.03486E+01 7.52363E-02 5.49251E-04 2.67538E-01 1.07247E-13-4.71654E-14
 -1      2465 2.04227E+01 8.42758E-02 3.07886E-03 3.03200E-01-1.10073E-14-1.66045E-13
 -1      2466 2.03774E+01 1.24249E-01-1.21897E-03 3.87467E-01 7.45461E-14 2.06379E-13
 -1      2467 2.02492E+01 5.95900E-02 4.83705E-04 1.99336E-01 2.02259E-13-2.10044E-14
 -1      2468 2.03060E+01 6.74941E-02 2.53509E-03 2.27936E-01 2.06231E-13-5.42873E-14
 -1      2469 2.02791E+01 1.00281E-01-1.07273E-03 2.94406E-01 1.12088E-13 2.64419E-13
 -1      2470 2.01736E+01 4.62838E-02 4.15327E-04 1.45383E-01 2.00394E-13 1.75485E-13
 -1      2471 2.02162E+01 5.29312E-02 2.03625E-03 1.67850E-01 1.94948E-13 9.08814E-14
 -1      2472 2.02022E+01 7.91555E-02-9.23625E-04 2.19298E-01 7.74468E-14 8.60285E-14
 -1      2473 2.01171E+01 3.53114E-02 3.48802E-04 1.03490E-01 6.52299E-14 2.50522E-13
 -1      2474 2.01484E+01 4.07467E-02 1.60158E-03 1.20818E-01 1.94345E-13 2.24745E-13
 -1      2475 2.01431E+01 6.12894E-02-7.77973E-04 1.59901E-01 1.50502E-13 1.71890E-13
 -1      2476 2.00758E+01 2.64754E-02 2.87332E-04 7.15266E-02 2.20461E-14 1.56153E-13
 -1      2477 2.00983E+01 3.08217E-02 1.23595E-03 8.46602E-02-3.09420E-15 2.76867E-13
 -1      2478 2.00984E+01 4.66184E-02-6.41737E-04 1.13778E-01 7.04414E-14 3.38792E-13
 -1      2479 2.00464E+01 1.94994E-02 2.32671E-04 4.75559E-02-1.41128E-14 6.72331E-14
 -1      2480 2.00621E+01 2.29093E-02 9.36415E-04 5.73388E-02 1.45489E-13 1.35800E-13
 -1      2481 2.00654E+01 3.48448E-02-5.19020E-04 7.85770E-02 7.98651E-14 2.43130E-13
 -1      2482 2.00260E+01 1.40870E-02 1.85372E-04 2.98993E-02-7.14202E-14-1.10542E-13
 -1      2483 2.00366E+01 1.67171E-02 6.96220E-04 3.70538E-02-1.82437E-13-5.06089E-14
 -1      2484 2.00416E+01 2.55774E-02-4.11901E-04 5.21703E-02-1.34166E-14 2.55719E-15
 -1      2485 2.00125E+01 9.95202E-03 1.45080E-04 1.71483E-02-2.11912E-14-1.65328E-13
 -1      2486 2.00193E+01 1.19504E-02 5.07135E-04 2.22739E-02-3.83771E-14-1.25980E-13
 -1      2487 2.00248E+01 1.84060E-02-3.20778E-04 3.27157E-02-1.64471E-14-1.23849E-14
 -1      2488 2.00040E+01 6.83161E-03 1.10742E-04 8.15570E-03 5.10276E-14-9.87339E-14
 -1      2489 2.00080E+01 8.33282E-03 3.60738E-04 1.17354E-02 9.73114E-14-9.47221E-14
 -1      2490 2.00134E+01 1.29380E-02-2.44877E-04 1.86693E-02-6.90705E-15-1.74233E-13
 -1      2491 1.99992E+01 4.49041E-03 8.09441E-05 2.01543E-03 6.61709E-14-1.06366E-13
 -1      2492 2.00012E+01 5.61396E-03 2.49105E-04 4.42593E-03 5.11086E-14-1.03258E-14
 -1      2493 2.00061E+01 8.81448E-03-1.82765E-04 8.77556E-03 6.78176E-14-1.83871E-13
 -1      2494 1.99969E+01 2.71841E-03 5.37757E-05-1.96282E-03 8.94721E-14-3.41056E-14
 -1      2495 1.99976E+01 3.57140E-03 1.65104E-04-4.39861E-04 4.24931E-14-6.32306E-14
 -1      2496 2.00016E+01 5.71555E-03-1.32475E-04 2.04543E-03 1.44941E-14-1.32886E-13
 -1      2497 1.99963E+01 1.32344E-03 3.01944E-05-4.27415E-03-5.57465E-14-2.52640E-15
 -1      2498 1.99962E+01 2.00314E-03 1.02874E-04-3.44524E-03-9.34305E-15 5.11311E-14
 -1      2499 1.99992E+01 3.35243E-03-9.26346E-05-2.27436E-03-2.38446E-14-5.53919E-14
 -1      2500 1.99967E+01 1.06291E-04 6.57898E-06-5.24406E-03 1.29932E-13-2.26898E-13
 -1      2501 1.99961E+01 7.08019E-04 5.47024E-05-4.99901E-03 9.23801E-14-7.24693E-14
 -1      2502 1.99983E+01 1.47465E-03-5.91225E-05-4.72312E-03 6.46636E-14-1.07134E-13
 -1      2503 1.99977E+01-1.07231E-03-1.77275E-05-5.03830E-03 1.73556E-14-1.90188E-13
 -1      2504 1.99969E+01-4.62993E-04 2.99113E-05-5.30747E-03 4.80669E-14-1.10423E-13
 -1      2505 1.99982E+01-2.52534E-04-3.83407E-05-5.68543E-03 7.33044E-14-1.39967E-13
 -1      2506 1.99980E+01-1.69256E-03 8.40023E-06-4.48944E-03-9.46374E-15-2.18556E-13
 -1      2507 2.00015E+01-3.45912E-03-6.46380E-06-2.95725E-03-2.43859E-14 1.68204E-13
 -1      2508 2.00014E+01-3.14255E-03 2.64116E-05-3.51044E-03-1.14672E-13-4.08402E-13
 -1      2509 2.00014E+01-3.39990E-03-5.16945E-06-1.79722E-03 1.80279E-13 3.83107E-13
 -1      2510 2.00015E+01-3.20449E-03 2.56276E-05-2.35579E-03 6.77734E-14 3.76408E-13
 -1      2511 2.00020E+01-4.27180E-04 1.03078E-05-2.65372E-03 1.69245E-13 3.46981E-13
 -1      2512 2.00007E+01-3.03193E-03 5.02411E-06-5.03779E-03-2.94559E-13 3.44430E-14
 -1      2513 2.00002E+01-2.45414E-03-9.08391E-06-5.25891E-03-2.59982E-13-6.72955E-14
 -1      2514 2.00013E+01-3.36538E-03-3.87255E-06-4.10884E-03-3.63332E-13-4.95414E-13
 -1      2515 2.00011E+01-2.92430E-03 1.77901E-05-4.55557E-03-3.78339E-13-2.06096E-13
 -1      2516 2.00012E+01-1.23537E-03 5.12202E-06-4.95617E-03-2.69465E-13-2.52564E-13
 -1      2517 2.00018E+01-8.95856E-04 7.24320E-06-3.86607E-03-1.79073E-13-2.90147E-13
 -1      2518 2.00014E+01-3.29080E-03 5.62941E-07-7.15545E-04-8.04263E-14 2.61482E-13
 -1      2519 2.00014E+01-3.20223E-03 1.92770E-05-1.24608E-03 3.21722E-14 2.22969E-13
 -1      2520 2.00019E+01 1.43835E-05 1.93780E-05-1.49493E-03 4.49856E-14 1.89297E-13
 -1      2521 2.00013E+01-3.20555E-03 9.43985E-06 3.05982E-04 2.58485E-15 1.46171E-13
 -1      2522 2.00013E+01-3.21290E-03 9.95427E-06-2.07790E-04-8.03309E-14 2.41890E-13
 -1      2523 2.00018E+01 2.79702E-04 2.43406E-05-4.44360E-04-1.36676E-14 2.74037E-13
 -1      2524 2.00014E+01-3.16892E-03 1.86774E-05 1.33300E-03-1.50493E-13-7.53026E-14
 -1      2525 2.00013E+01-3.27023E-03 9.34896E-07 8.09424E-04-1.01831E-13-4.45453E-14
 -1      2526 2.00018E+01 2.91948E-04 2.43445E-05 5.52677E-04 6.09422E-14 1.07848E-13
 -1      2527 2.00014E+01-3.14922E-03 2.47546E-05 2.39900E-03-2.69242E-13-6.13504E-13
 -1      2528 2.00014E+01-3.35238E-03-5.19056E-06 1.86348E-03-1.58062E-13-3.67783E-13
 -1      2529 2.00019E+01 5.32882E-05 2.04290E-05 1.57683E-03-1.58825E-13-2.65368E-13
 -1      2530 2.00014E+01-3.07796E-03 2.35300E-05 3.52264E-03 2.33337E-14-2.03135E-14
 -1      2531 2.00014E+01-3.39450E-03-6.26083E-06 2.98273E-03-1.04321E-13-4.03550E-13
 -1      2532 2.00019E+01-3.64729E-04 1.17045E-05 2.69561E-03-7.42766E-14-3.92441E-13
 -1      2533 2.00010E+01-2.87174E-03 9.19606E-06 4.54907E-03 1.08201E-13 2.31202E-14
 -1      2534 2.00012E+01-3.29161E-03 2.87390E-07 4.09786E-03-2.12207E-14 9.65499E-14
 -1      2535 2.00018E+01-8.16581E-04 7.73034E-06 3.89073E-03 5.34719E-14-1.37491E-13
 -1      2536 2.00001E+01-2.40817E-03-5.12008E-06 5.19403E-03 6.49526E-14 2.40428E-13
 -1      2537 2.00006E+01-2.94832E-03 3.72557E-06 4.99946E-03 1.28966E-13-8.20223E-14
 -1      2538 2.00012E+01-1.17286E-03-1.24571E-05 4.93467E-03 8.46874E-14 3.86029E-14
 -1      2539 1.99989E+01-2.35755E-03 1.53223E-05 4.95045E-03-2.86589E-14 3.77783E-13
 -1      2540 2.61206E+01-4.37895E+00-6.13714E-02 3.95774E+00 4.81004E-14-8.74301E-15
 -1      2541 2.25357E+01-5.30533E+00 1.39436E-02 4.97677E+00-2.30094E-13 3.69441E-13
 -1      2542 2.05201E+01 2.59051E-01 7.58039E-03-4.64097E-01 1.74997E-13-1.00457E-13
 -1      2543 2.04743E+01 3.01378E-01 1.28438E-02-3.28479E-01 1.93259E-13-7.28462E-14
 -1      2544 2.05474E+01 3.47438E-01-5.63510E-03-5.87014E-01 1.86269E-13-1.42934E-13
 -1      2545 1.83424E+01-5.48485E+00-3.97213E-02 6.56541E+00-4.04787E-13 7.38170E-13
 -1      2546 1.42819E+01-5.37378E+00 3.21808E-02 6.57604E+00-5.35572E-13 7.16385E-13
 -1      2547 6.08073E+00-3.85378E+00 5.49961E-02-4.84926E+00 2.27207E-13 1.11405E-12
 -1      2548 9.03939E+00-4.25356E+00 2.68975E-02-6.35650E+00 7.31915E-14 7.34302E-13
 -1      2549 3.51205E+00-2.81131E+00 9.81817E-02-1.91158E+00-4.19109E-15 1.22824E-12
 -1      2550 4.45754E+00-3.28778E+00 8.59190E-02-3.68273E+00 8.03246E-14 1.24362E-12
 -1      2551 7.32603E+00-2.53587E+00 1.25306E-01-4.51077E+00 2.57044E-13 1.02590E-12
 -1      2552 3.15067E+01 2.72669E+00-1.85144E-01-8.32321E-01-7.55229E-13 5.52614E-14
 -1      2553 3.11032E+01 7.10860E-01-3.38621E-02 2.49487E-01-7.08406E-13 3.99680E-14
 -1      2554 1.63880E+01-5.53673E+00 5.71437E-02-6.56665E+00-1.84575E-13-5.53294E-13
 -1      2555 2.04147E+01-5.57932E+00-4.79420E-02-6.20125E+00 1.65423E-14-3.43801E-13
 -1      2556 1.91572E+01 3.89964E+00-9.77426E-03-1.54016E-01-1.39951E-13-6.55362E-13
 -1      2557 1.92026E+01 3.86961E+00-8.03355E-03-2.87329E-01-1.99953E-13-6.41808E-13
 -1      2558 1.93611E+01 3.51617E+00 1.05613E-03-2.92322E-01-2.14119E-13-5.88233E-13
 -1      2559 1.92646E+01 3.60823E+00 1.00878E-03-8.30214E-02-1.26655E-13-6.17192E-13
 -1      2560 3.25796E+01 6.96276E+00-1.50325E-01-7.35363E-01 1.08996E-12-4.90441E-14
 -1      2561 3.29245E+01 5.78198E+00-4.95939E-02-1.08091E+00 9.13714E-13-1.32505E-13
 -1      2562 2.94802E+01-1.77671E+00-4.77944E-02-5.01348E-01 4.41435E-13 3.24879E-13
 -1      2563 3.12937E+01 6.84162E-01-1.24963E-01 5.52782E-01 7.43544E-13 4.10089E-13
 -1      2564 3.25572E+01 6.74773E+00-1.26002E-01 7.32356E-01 1.15608E-12 2.32037E-13
 -1      2565 3.23105E+01 7.22585E+00-1.55423E-01 9.91413E-02 1.09585E-12 1.35983E-13
 -1      2566 3.53909E+00-3.33039E+00 2.57596E-02 2.71482E+00-5.43038E-14-1.35358E-12
 -1      2567 3.09705E+00-2.76366E+00 7.78319E-02 6.32291E-01-1.19182E-13-1.31972E-12
 -1      2568 3.19746E+01 3.70207E+00-9.89363E-02 1.14281E+00 9.97785E-13 3.71481E-13
 -1      2569 3.27716E+01 5.56382E+00-1.34861E-01 1.00104E+00 1.13876E-12 3.35842E-13
 -1      2570 2.40140E+01-5.16003E+00 2.18669E-02-4.50677E+00 8.74023E-14-5.66769E-14
 -1      2571 2.71505E+01-4.15262E+00-1.21597E-01-2.86852E+00 1.79620E-13 1.87211E-13
 -1      2572 9.44982E+00-4.19956E+00 1.05661E-01-5.99104E+00-2.17659E-13-7.84289E-13
 -1      2573 1.24406E+01-4.85902E+00 1.07192E-02-6.87902E+00-1.35614E-13-6.98275E-13
 -1      2574 3.20989E+01 4.83801E+00-1.02967E-01 9.18566E-01-1.13401E-12-2.83218E-13
 -1      2575 3.29891E+01 6.26085E+00-1.11448E-01 7.41042E-01-1.21170E-12-3.64597E-13
 -1      2576 3.99978E+00-2.79552E+00 1.14943E-01-2.07536E+00-1.64854E-13-1.22730E-12
 -1      2577 6.03227E+00-3.29857E+00 6.19397E-02-4.58099E+00-1.93956E-13-1.05649E-12
 -1      2578 8.30928E+00-4.42962E+00 1.57868E-02 6.18597E+00 7.18314E-14-1.14181E-12
 -1      2579 5.45506E+00-3.87906E+00 5.25183E-02 4.50875E+00 1.09773E-13-1.29335E-12
 -1      2580 1.50679E+01-5.33281E+00-8.25195E-02 7.08991E+00 1.25788E-13-6.47066E-13
 -1      2581 1.15099E+01-5.06267E+00 6.33980E-02 6.64402E+00 1.34892E-13-9.04762E-13
 -1      2582 1.11731E+01-3.99378E+00 1.13129E-01 6.39535E+00 3.16802E-13-9.55375E-13
 -1      2583 2.44214E+01-4.94366E+00-8.16283E-02 4.76664E+00-4.03844E-14-1.80328E-13
 -1      2584 2.04865E+01-5.47738E+00 1.00922E-01 5.84480E+00 1.24983E-13-3.69149E-13
 -1      2585 2.98501E+01-1.43742E+00-8.47608E-02 1.64691E+00-5.82999E-13 5.44564E-14
 -1      2586 2.73723E+01-3.32688E+00-1.52412E-02 2.60849E+00-3.01204E-13 4.60187E-14
 -1      2587 2.95949E+01-9.85003E-01 1.24940E-02-1.50662E-01-4.11789E-13 2.93821E-13
 -1      2588 3.14045E+01 6.22453E+00-1.61907E-01-9.03354E-01-9.78578E-13-1.48909E-14
 -1      2589 3.10228E+01 5.02092E+00-1.42034E-01-1.33001E+00-8.35942E-13 3.16136E-14
 -1      2590 3.29221E+01 7.37402E+00-7.93033E-02 3.25969E-01-1.21331E-12-2.35645E-13
 -1      2591 3.19419E+01 7.35166E+00-1.86555E-01-1.85437E-01-1.17051E-12-2.30302E-13
 -1      2592 2.94950E+01 6.45705E+00-9.06639E-02-8.81441E-01-9.52682E-13 1.56819E-15
 -1      2593 3.03483E+01 6.57787E+00-4.95634E-02 9.62403E-01-1.12291E-12-3.46168E-13
 -1      2594 3.07313E+01 4.20596E-01-4.90193E-02-3.66224E-01-8.10380E-13-3.35509E-13
 -1      2595 3.18487E+01 2.34855E+00-1.40357E-01 4.04114E-01-8.83765E-13-3.19744E-13
 -1      2596 2.68044E+01-3.41498E+00-4.07402E-02-3.24866E+00-4.69805E-13-3.75810E-14
 -1      2597 2.92870E+01-1.88712E+00-1.06812E-01-1.99492E+00-6.59459E-13-1.99757E-13
 -1      2598 2.12889E+01-5.23452E+00 2.62478E-02-5.57002E+00-2.42639E-13-4.77396E-15
 -1      2599 2.45777E+01-4.46713E+00-3.38665E-02-4.83667E+00-3.53245E-13 3.68872E-14
 -1      2600 2.62688E+01-4.37333E+00 4.07766E-02-3.07351E+00-2.41335E-13-1.81632E-13
 -1      2601 1.29622E+01-5.13237E+00 5.02122E-02-6.73120E+00 3.55549E-14 4.66627E-13
 -1      2602 1.69607E+01-5.31319E+00-3.46351E-02-6.90941E+00-8.72635E-14 2.31901E-13
 -1      2603 2.07965E+01 1.98907E+00-1.17148E-02-1.58484E+00-5.50534E-13 9.47228E-14
 -1      2604 2.07199E+01 1.26600E+00-5.21457E-03-9.53248E-01-4.93258E-13 1.34189E-13
 -1      2605 2.06442E+01 1.46003E+00 3.51976E-03-8.51353E-01-4.61442E-13-2.19443E-16
 -1      2606 2.04942E+01 2.43925E+00-5.67246E-03-1.50718E+00-5.55795E-13-7.33563E-14
 -1      2607 2.08488E+01 9.03825E-01-4.09504E-03 9.37121E-01 5.02397E-13 9.27726E-14
 -1      2608 2.11345E+01 1.26993E+00-4.96397E-03 1.45213E+00 5.33185E-13 1.56316E-13
 -1      2609 2.09274E+01 1.73356E+00-1.56762E-02 1.61960E+00 5.72142E-13-2.22947E-14
 -1      2610 2.07833E+01 1.11380E+00-9.90799E-03 8.86603E-01 4.92387E-13-8.84852E-14
 -1      2611 3.09816E+01-7.46029E-01-7.76489E-02 1.22909E+00 5.10142E-13-1.00475E-14
 -1      2612 2.85886E+01-2.55761E+00-3.83543E-02 2.18158E+00 2.76487E-13-6.92779E-14
 -1      2613 3.12706E+01 4.22004E+00-6.25701E-02-1.55860E+00 7.72049E-13-2.66509E-13
 -1      2614 1.98185E+01 3.04403E+00 3.22914E-03-7.60419E-01-3.82381E-13-4.93747E-13
 -1      2615 1.97406E+01 3.32814E+00-1.61871E-02-9.62971E-01-4.13364E-13-5.01259E-13
 -1      2616 1.99099E+01 3.18183E+00-1.50862E-02-1.14463E+00-4.73411E-13-4.23406E-13
 -1      2617 2.05356E+01 4.74642E-01-5.28971E-03-2.22901E-01 2.52505E-13-1.47366E-13
 -1      2618 2.06688E+01 2.15617E+00-1.27256E-02 1.54971E+00 5.41251E-13-2.25819E-13
 -1      2619 3.07900E+01-6.34203E-02-1.16518E-02-5.01436E-01 4.66328E-13-2.65565E-13
 -1      2620 2.02614E+01 2.70246E+00-1.25431E-02-1.33823E+00-5.09294E-13-2.26553E-13
 -1      2621 2.03538E+01-5.32458E+00 7.85476E-02-5.80117E+00 3.42226E-14 9.88792E-16
 -1      2622 6.75617E+00-3.20623E+00 1.02657E-01 4.55949E+00-2.64649E-13 9.03388E-13
 -1      2623 6.34662E+00-1.93414E+00 1.65068E-01 3.46214E+00-2.31093E-13 9.62508E-13
 -1      2624 9.39259E+00-2.82887E+00 9.85332E-02 5.21094E+00-3.80695E-13 7.36161E-13
 -1      2625 2.16776E+01-5.41720E+00 8.88264E-02 5.21966E+00-4.36706E-13 4.37754E-13
 -1      2626 1.41121E+01-4.60588E+00 9.88679E-02 6.48699E+00-5.42399E-13 6.21544E-13
 -1      2627 1.99986E+01-1.80373E-03-1.97615E-05-5.23703E-03-5.20990E-14-7.77928E-14
 -1      2628 2.98162E+01 3.28533E+00-8.07097E-02-1.53529E+00-6.86451E-13 2.02560E-13
 -1      2629 1.99993E+01-2.19330E-03 1.41054E-05-5.38286E-03-1.33289E-13-4.22460E-14
 -1      2630 1.99985E+01-1.20318E-03-1.13599E-05 5.24074E-03 9.99880E-14 3.97633E-13
 -1      2631 1.99996E+01-2.17142E-03-1.38704E-05 5.46639E-03 1.11378E-13 1.52931E-13
 -1      2632 2.00000E+01-9.74568E-04 2.02445E-05 5.55867E-03 1.21479E-13 1.93567E-13
 -1      2633 1.99981E+01-5.49900E-04 2.52266E-05 5.53097E-03 1.62098E-13 4.94523E-13
 -1      2634 1.90256E+01-5.21649E+00 1.11696E-01 6.13493E+00 3.18356E-13-3.74535E-13
 -1      2635 2.75586E+01-4.01056E+00-1.23598E-02 2.07564E+00-7.80209E-14-2.00451E-13
 -1      2636 2.06614E+01 1.88864E+00 1.19586E-02 1.20143E+00 4.99279E-13-2.37157E-13
 -1      2637 5.14793E+00-1.39997E+00 1.54826E-01 7.68702E-01-2.12679E-13 1.03029E-12
 -1      2638 4.04952E+00-2.20422E+00 1.39004E-01-5.44832E-01-1.02276E-13 1.13570E-12
 -1      2639 5.88713E+00-1.24382E+00 1.49390E-01-1.84355E+00-3.40006E-14 1.06898E-12
 -1      2640 1.25892E+01-4.11794E+00 1.20985E-01-6.46308E+00 2.06168E-13 6.03156E-13
 -1      2641 1.99996E+01-1.17071E-03 2.04232E-06-5.65585E-03-1.62659E-13-7.67200E-14
 -1      2642 4.64847E+00-2.01533E+00 1.34054E-01-8.75945E-01-1.30753E-13-1.26404E-12
 -1      2643 6.58880E+00-1.14188E+00 1.48847E-01-2.07717E+00-2.35752E-13-1.12024E-12
 -1      2644 5.61902E+00-1.14492E+00 1.09528E-01 3.89298E-01-8.20229E-14-1.25433E-12
 -1      2645 3.05861E+01 3.20568E+00-4.37461E-02 1.47263E+00-9.14130E-13-5.34073E-13
 -1      2646 9.06690E+00-2.96822E+00 1.35911E-01-5.14894E+00-3.22076E-13-9.10799E-13
 -1      2647 2.30606E+01-5.41954E+00 9.42734E-02-4.78540E+00-1.72945E-13 2.06501E-14
 -1      2648 3.02372E+01 1.64758E+00-8.00332E-02 1.72849E+00 7.53536E-13 5.63549E-13
 -1      2649 6.36112E+00-2.56231E+00 1.44420E-01 3.81718E+00 1.09718E-13-1.27476E-12
 -1      2650 3.04308E+01 5.68126E+00-5.41449E-02 1.37001E+00 1.10623E-12 3.44461E-13
 -1      2651 1.60734E+01-4.86312E+00 1.22875E-01-6.43677E+00-3.46972E-13-5.06525E-13
 -1      2652 2.84748E+01-3.21551E+00-1.23361E-02-1.09198E+00 1.83180E-13 3.46972E-13
 -1      2653 2.83566E+01-2.28285E+00-1.03569E-01 7.05267E-01 1.64611E-13 6.11955E-13
 -1      2654 2.69378E+01-4.17777E+00 3.12806E-02-1.64645E+00-6.66273E-14 4.07702E-13
 -1      2655 3.04429E+01 6.61594E+00-7.52454E-02-4.36443E-01 9.76275E-13-5.49560E-14
 -1      2656 2.60991E+01-4.53691E+00 6.14088E-03 2.93864E+00 8.37247E-14 1.12646E-13
 -1      2657 2.94631E+01-1.34312E+00 5.41096E-04-2.52367E-01-6.32647E-13-4.46282E-13
 -1      2658 1.99993E+01-1.78442E-04-4.64921E-05 5.60672E-03 1.63185E-13 1.52061E-13
 -1      2659 1.94482E+01 3.18462E+00-5.45242E-03 3.03053E-01 1.06124E-13-6.14652E-13
 -1      2660 1.93770E+01 3.25030E+00-6.55584E-03 2.07856E-01 5.32069E-14-6.23505E-13
 -1      2661 1.93295E+01 3.30276E+00-5.46918E-03 1.43976E-01 6.71075E-15-6.15734E-13
 -1      2662 1.93067E+01 3.32375E+00-5.56032E-03 5.09279E-02-5.31538E-14-5.86548E-13
 -1      2663 1.94395E+01 3.00859E+00 5.50400E-03 1.32915E-01 3.53358E-14-5.77095E-13
 -1      2664 1.99536E+01 2.60356E+00-8.74375E-03 6.52251E-01 3.09698E-13-5.07613E-13
 -1      2665 1.97981E+01 2.78626E+00-8.27905E-03 5.45869E-01 2.51886E-13-5.36862E-13
 -1      2666 2.03117E+01 2.09729E+00-1.01040E-02 8.05843E-01 3.97374E-13-4.04801E-13
 -1      2667 2.01270E+01 2.37134E+00-6.90165E-03 7.19047E-01 3.39987E-13-4.58163E-13
 -1      2668 2.01286E+01 2.18164E+00 6.89679E-03 4.82547E-01 3.05339E-13-4.37634E-13
 -1      2669 2.05720E+01 8.82496E-01-2.26163E-04 1.59263E-01 3.27995E-13-2.06059E-13
 -1      2670 2.06557E+01 1.08079E+00 9.05197E-03 4.68443E-01 3.80102E-13-1.88179E-13
 -1      2671 2.05257E+01 6.20363E-01 1.83448E-03-3.12507E-01 2.20950E-13-1.90788E-13
 -1      2672 2.05543E+01 7.33926E-01 9.86946E-03-9.05511E-02 2.70023E-13-1.87049E-13
 -1      2673 2.05104E+01 1.03416E+00-8.91027E-04 6.72208E-02 3.10148E-13-2.62602E-13
 -1      2674 2.05877E+01 1.60654E+00-6.59115E-04 8.74554E-01 4.45047E-13-2.60877E-13
 -1      2675 2.02910E+01 2.40219E+00 4.92544E-04-1.05554E+00-4.69825E-13-2.43500E-13
 -1      2676 2.05118E+01 8.21136E-01 7.54560E-03 1.19192E-01-3.06030E-13-8.40123E-14
 -1      2677 2.04847E+01 6.87279E-01-8.46524E-04 3.31713E-01-2.68923E-13-1.05135E-13
 -1      2678 2.04818E+01 5.86035E-01 5.96893E-03 5.15346E-01-2.45402E-13-1.09644E-13
 -1      2679 2.04925E+01 4.98859E-01 6.90289E-04 6.72786E-01-2.39589E-13-1.39817E-13
 -1      2680 2.04127E+01 7.96136E-01-2.54896E-03 4.17489E-01-2.76902E-13-1.53337E-13
 -1      2681 2.05010E+01 4.27307E-01 4.39951E-03 8.17790E-01-2.14108E-13-1.23703E-13
 -1      2682 2.05498E+01 3.58357E-01 1.37876E-03 9.34437E-01-1.85855E-13-1.29095E-13
 -1      2683 2.04039E+01 5.81400E-01-3.28947E-03 7.61277E-01-2.39150E-13-1.73286E-13
 -1      2684 2.05812E+01 2.92631E-01 3.73952E-03 1.04771E+00-1.52044E-13-9.75777E-14
 -1      2685 2.06656E+01 2.19746E-01 1.33428E-03 1.12863E+00-1.31885E-13-1.04715E-13
 -1      2686 2.04332E+01 4.10494E-01-3.83547E-03 1.03310E+00-1.73235E-13-1.55851E-13
 -1      2687 2.07313E+01 1.40440E-01 4.18478E-03 1.21100E+00-1.23144E-13-8.24693E-14
 -1      2688 2.08503E+01 4.40675E-02 5.30549E-04 1.25254E+00-8.25569E-14-1.00538E-13
 -1      2689 2.05185E+01 2.31901E-01-4.81187E-03 1.24194E+00-1.25257E-13-1.33259E-13
 -1      2690 2.09656E+01-6.60564E-02 5.86757E-03 1.29707E+00-4.81747E-14-6.53139E-14
 -1      2691 2.11201E+01-2.02973E-01-1.21417E-03 1.28724E+00-5.62528E-14-4.40013E-14
 -1      2692 2.06818E+01 1.14186E-05-6.65185E-03 1.38385E+00-5.15955E-14-1.12659E-13
 -1      2693 2.13061E+01-3.56809E-01 8.80803E-03 1.27740E+00-6.52824E-14 3.86334E-15
 -1      2694 2.14970E+01-5.43644E-01-4.20394E-03 1.19685E+00-6.18435E-14 5.45958E-14
 -1      2695 2.09555E+01-3.24753E-01-9.53837E-03 1.43823E+00-2.17958E-14 2.49850E-14
 -1      2696 2.17765E+01-7.41320E-01 1.25707E-02 1.10467E+00-4.16845E-14 7.63764E-14
 -1      2697 2.19988E+01-9.66422E-01-8.52702E-03 9.30165E-01-5.25925E-15 5.37314E-14
 -1      2698 2.13814E+01-7.63987E-01-1.30472E-02 1.36343E+00-1.61734E-14 1.18991E-13
 -1      2699 2.23829E+01-1.17880E+00 1.52918E-02 7.19057E-01 2.57056E-14 8.93283E-14
 -1      2700 2.26159E+01-1.38908E+00-1.38856E-02 4.34435E-01 7.20678E-14 6.89567E-14
 -1      2701 2.19973E+01-1.28924E+00-1.54532E-02 1.09434E+00 6.08747E-15 8.23089E-14
 -1      2702 2.30796E+01-1.53650E+00 1.31577E-02 7.11107E-02 8.04651E-14 9.94313E-14
 -1      2703 2.32773E+01-1.61015E+00-1.62878E-02-3.10575E-01 6.38784E-14 9.92279E-14
 -1      2704 2.28035E+01-1.77796E+00-1.49976E-02 5.54715E-01 8.91247E-14 1.18029E-13
 -1      2705 2.37182E+01-1.54722E+00 1.65105E-03-8.07073E-01 4.08974E-14 1.42827E-13
 -1      2706 2.38152E+01-1.31265E+00-1.09353E-02-1.19985E+00 7.35750E-15 1.45637E-13
 -1      2707 2.37035E+01-1.94733E+00-7.73843E-03-2.98830E-01 8.25374E-14 1.94093E-13
 -1      2708 2.40500E+01-8.82335E-01-2.61387E-02-1.67563E+00-2.26724E-14 2.11659E-13
 -1      2709 2.40081E+01-2.41337E-01-3.16864E-05-1.88998E+00-1.43592E-13 1.92562E-13
 -1      2710 2.44438E+01-1.37598E+00 5.39881E-03-1.32401E+00 9.28164E-15 2.50502E-13
 -1      2711 2.39135E+01 5.44283E-01-5.46800E-02-2.02787E+00-2.87242E-13 1.90577E-13
 -1      2712 2.37768E+01 1.40552E+00 8.38425E-03-1.84316E+00-3.49883E-13 1.37468E-13
 -1      2713 2.46820E+01 1.47275E-01-7.26342E-03-2.06245E+00-2.31900E-13 3.35997E-13
 -1      2714 2.35233E+01 2.17526E+00-4.92984E-02-1.37957E+00-4.26022E-13 1.84468E-14
 -1      2715 2.34153E+01 2.71477E+00-8.09123E-03-7.73241E-01-4.80276E-13 1.45344E-14
 -1      2716 2.44234E+01 2.12035E+00-2.69412E-02-1.78119E+00-4.50376E-13 1.63007E-13
 -1      2717 2.33431E+01 2.88935E+00-2.61047E-02 1.37234E-01-4.06331E-13-5.78747E-14
 -1      2718 2.33925E+01 2.67486E+00-4.42604E-02 8.39759E-01-4.03455E-13-1.20046E-13
 -1      2719 2.41124E+01 3.41004E+00-4.50014E-02-3.59662E-01-4.85299E-13-1.97132E-14
 -1      2720 2.36113E+01 2.11917E+00 8.33695E-04 1.56863E+00-4.42351E-13-2.08663E-13
 -1      2721 2.37470E+01 1.32285E+00-6.59645E-02 1.96056E+00-3.76383E-13-3.21404E-13
 -1      2722 2.42565E+01 2.88001E+00-3.48818E-02 1.35654E+00-4.66235E-13-2.54026E-13
 -1      2723 2.39909E+01 5.09694E-01 1.81512E-02 2.07910E+00-2.58872E-13-3.64082E-13
 -1      2724 2.40954E+01-2.96591E-01-3.14936E-02 2.04288E+00-1.28508E-13-4.45867E-13
 -1      2725 2.46301E+01 1.03481E+00 2.54456E-03 2.22584E+00-3.76664E-13-3.51340E-13
 -1      2726 2.39698E+01-9.00698E-01-1.20762E-02 1.65005E+00-4.04928E-14-5.16677E-13
 -1      2727 2.39457E+01-1.29265E+00-1.05162E-02 1.34092E+00 9.27739E-14-5.68882E-13
 -1      2728 2.46029E+01-8.06463E-01-4.23211E-02 1.89729E+00-1.60486E-13-4.10425E-13
 -1      2729 2.35910E+01-1.52291E+00-1.64370E-02 8.31455E-01 1.78517E-13-5.04622E-13
 -1      2730 2.34420E+01-1.56361E+00 1.00487E-02 4.40130E-01 2.08413E-13-5.70510E-13
 -1      2731 2.40792E+01-1.76002E+00-1.19032E-02 9.14272E-01 1.00282E-13-5.23281E-13
 -1      2732 2.29721E+01-1.49297E+00-1.58114E-02 1.35987E-02 1.83110E-13-5.09439E-13
 -1      2733 2.27593E+01-1.32383E+00 1.59827E-02-3.11991E-01 1.63369E-13-4.91358E-13
 -1      2734 2.32394E+01-1.86780E+00-9.80232E-03-6.27048E-02 1.87367E-13-6.14082E-13
 -1      2735 2.23296E+01-1.12586E+00-1.14058E-02-5.81654E-01 6.80298E-14-5.35597E-13
 -1      2736 2.21080E+01-8.97645E-01 1.40649E-02-7.96479E-01 3.88761E-14-5.26530E-13
 -1      2737 2.23666E+01-1.48153E+00-1.56884E-02-7.33795E-01 8.99005E-14-4.97909E-13
 -1      2738 2.17794E+01-6.89972E-01-6.31327E-03-9.30009E-01 1.17150E-13-4.56468E-13
 -1      2739 2.15807E+01-4.87003E-01 1.01911E-02-1.04419E+00 7.33370E-14-2.95453E-13
 -1      2740 2.16570E+01-9.49723E-01-1.41344E-02-1.09983E+00 1.07295E-13-2.91701E-13
 -1      2741 2.13507E+01-3.18475E-01-2.61039E-03-1.08387E+00 6.19407E-14-2.43732E-13
 -1      2742 2.11839E+01-1.68653E-01 6.44203E-03-1.12160E+00 1.52704E-13-2.03283E-13
 -1      2743 2.11431E+01-4.75946E-01-1.04481E-02-1.24389E+00 1.38938E-13-1.50567E-13
 -1      2744 2.10317E+01-5.19803E-02-2.12253E-04-1.10245E+00 1.83933E-14-1.86947E-13
 -1      2745 2.08948E+01 4.39371E-02 3.50958E-03-1.08918E+00-1.23377E-14-2.05010E-13
 -1      2746 2.07935E+01-1.24300E-01-6.82561E-03-1.24377E+00 1.30538E-13-6.91569E-14
 -1      2747 2.07965E+01 1.14442E-01 1.18325E-03-1.03725E+00 8.82049E-14-1.80283E-13
 -1      2748 2.06844E+01 1.67242E-01 1.54565E-03-9.93807E-01 1.11517E-13-7.99553E-14
 -1      2749 2.05630E+01 1.02532E-01-4.17370E-03-1.15938E+00 6.84491E-14-8.01819E-14
 -1      2750 2.06208E+01 2.03024E-01 1.94665E-03-9.26421E-01 4.22725E-14-7.24758E-14
 -1      2751 2.05286E+01 2.25445E-01 3.55515E-04-8.68055E-01 2.13994E-15-1.97024E-15
 -1      2752 2.04114E+01 2.29054E-01-2.45994E-03-1.03151E+00 3.11883E-14-6.33343E-14
 -1      2753 2.04866E+01 2.37799E-01 2.29777E-03-7.96245E-01-6.12894E-14 3.10948E-14
 -1      2754 2.04103E+01 2.40789E-01-2.94072E-04-7.33270E-01-9.78931E-14 5.57306E-14
 -1      2755 2.03094E+01 2.84454E-01-1.45019E-03-8.86514E-01-1.06532E-14-4.73104E-14
 -1      2756 2.03814E+01 2.38751E-01 2.37806E-03-6.63761E-01-6.31225E-14 8.21686E-14
 -1      2757 2.03185E+01 2.30493E-01-5.96687E-04-6.02624E-01-1.77928E-14 6.59962E-14
 -1      2758 2.02381E+01 2.93950E-01-8.97491E-04-7.40917E-01-3.76543E-14 5.70747E-14
 -1      2759 2.02978E+01 2.20541E-01 2.28426E-03-5.39206E-01-6.11523E-14 1.09762E-13
 -1      2760 2.02461E+01 2.06648E-01-6.92121E-04-4.83549E-01-1.20829E-13 2.42910E-13
 -1      2761 2.01858E+01 2.76530E-01-6.11953E-04-6.04551E-01-2.89291E-14 7.22502E-14
 -1      2762 2.02305E+01 1.93086E-01 2.08593E-03-4.28044E-01-2.44023E-13 2.18720E-13
 -1      2763 2.01886E+01 1.77158E-01-6.73315E-04-3.79581E-01-1.72629E-13 1.24496E-13
 -1      2764 2.01460E+01 2.45333E-01-4.68732E-04-4.82697E-01-1.79711E-13 2.06192E-13
 -1      2765 2.01765E+01 1.62668E-01 1.83358E-03-3.32531E-01-1.06613E-13 2.24983E-13
 -1      2766 2.01428E+01 1.46861E-01-5.98557E-04-2.91733E-01-2.98946E-14 2.29936E-13
 -1      2767 2.01146E+01 2.08866E-01-3.94042E-04-3.77580E-01-8.59224E-14 1.71512E-13
 -1      2768 2.01333E+01 1.32993E-01 1.56293E-03-2.52884E-01-3.72727E-14 2.29144E-13
 -1      2769 2.01067E+01 1.18486E-01-5.02536E-04-2.19464E-01 4.37853E-14 3.05162E-13
 -1      2770 2.00894E+01 1.72291E-01-3.48226E-04-2.89436E-01-3.36180E-14 2.31086E-13
 -1      2771 2.00990E+01 1.06046E-01 1.29787E-03-1.88107E-01 5.44051E-14 1.53109E-13
 -1      2772 2.00784E+01 9.33898E-02-4.04704E-04-1.61363E-01 7.81527E-14 6.84071E-14
 -1      2773 2.00691E+01 1.38479E-01-3.12159E-04-2.17282E-01-5.57057E-14 9.86395E-17
 -1      2774 2.00723E+01 8.27092E-02 1.05311E-03-1.36568E-01 9.87979E-15 1.21544E-14
 -1      2775 2.00565E+01 7.20639E-02-3.15067E-04-1.15614E-01-1.99854E-13 7.20933E-14
 -1      2776 2.00528E+01 1.08811E-01-2.78004E-04-1.59467E-01-9.31007E-14 1.89908E-14
 -1      2777 2.00516E+01 6.31902E-02 8.36456E-04-9.63838E-02-1.83487E-13 2.38116E-14
 -1      2778 2.00398E+01 5.44894E-02-2.38012E-04-8.02888E-02-9.43115E-15 8.45877E-14
 -1      2779 2.00398E+01 8.37371E-02-2.43556E-04-1.14048E-01-1.92369E-13 1.45745E-13
 -1      2780 2.00360E+01 4.73085E-02 6.50955E-04-6.56537E-02-1.78765E-14 5.06813E-14
 -1      2781 2.00273E+01 4.03638E-02-1.74764E-04-5.35321E-02-1.13119E-13 8.52709E-14
 -1      2782 2.00295E+01 6.31549E-02-2.09069E-04-7.90353E-02-9.40352E-14 4.10421E-14
 -1      2783 2.00244E+01 3.46787E-02 4.96495E-04-4.26087E-02-4.73454E-14 3.57182E-14
 -1      2784 2.00182E+01 2.92453E-02-1.24906E-04-3.36665E-02-9.52500E-14 1.42269E-14
 -1      2785 2.00214E+01 4.66596E-02-1.75576E-04-5.25510E-02-1.50807E-13-3.26511E-13
 -1      2786 2.00159E+01 2.48249E-02 3.71034E-04-2.56848E-02-1.54467E-13 1.40565E-13
 -1      2787 2.00116E+01 2.06414E-02-8.72711E-05-1.92420E-02-4.76739E-14 1.46994E-13
 -1      2788 2.00153E+01 3.37012E-02-1.44143E-04-3.29132E-02-6.42798E-14-3.08180E-13
 -1      2789 2.00099E+01 1.72489E-02 2.71448E-04-1.35563E-02-6.17666E-14 3.18006E-13
 -1      2790 2.00071E+01 1.40590E-02-6.04040E-05-9.05274E-03 1.12342E-13 2.73379E-13
 -1      2791 2.00106E+01 2.36816E-02-1.15561E-04-1.86784E-02-5.06334E-15 1.49992E-14
 -1      2792 2.00058E+01 1.14660E-02 1.94460E-04-5.14059E-03 1.99012E-13 2.32601E-13
 -1      2793 2.00040E+01 9.02923E-03-4.23254E-05-2.13312E-03 2.08966E-13 2.68573E-13
 -1      2794 2.00071E+01 1.60078E-02-9.03779E-05-8.65197E-03 4.62721E-14-1.35644E-14
 -1      2795 2.00031E+01 7.02485E-03 1.37733E-04 4.14903E-04 2.32282E-13 1.29735E-13
 -1      2796 2.00020E+01 5.11272E-03-3.00944E-05 2.26491E-03 1.14129E-13-8.23428E-14
 -1      2797 2.00045E+01 1.01220E-02-6.82010E-05-1.88033E-03 5.30381E-14 9.87662E-14
 -1      2798 2.00014E+01 3.46888E-03 8.99484E-05 3.73919E-03-1.71426E-14-2.24997E-14
 -1      2799 2.00008E+01 1.94668E-03-8.51753E-06 4.65067E-03 3.46700E-14-2.06351E-15
 -1      2800 2.00027E+01 5.45400E-03-6.32650E-05 2.38024E-03 1.19918E-13-2.51929E-13
 -1      2801 2.09414E+01-5.03404E+00-3.27150E-02 5.18608E+00 3.69663E-13-1.70499E-13
 -1      2802 1.71258E+01-4.38102E+00 1.87846E-01 6.20964E+00 4.31544E-13-4.33653E-13
 -1      2803 2.00003E+01 5.75542E-06 2.03778E-07 5.33637E-03 2.68391E-13 2.32091E-13
 -1      2804 2.00009E+01-9.79569E-05-1.62136E-05 5.19020E-03 2.28776E-13 2.27603E-13
 -1      2805 2.00005E+01 9.43324E-04 5.12684E-05 5.14784E-03 2.33416E-13 1.15892E-13
 -1      2806 2.06158E+01 3.88459E-01 3.46351E-03-9.73422E-01 1.50286E-13-1.94626E-13
 -1      2807 2.05439E+01 4.29346E-01 4.38594E-03-8.39444E-01 1.70469E-13-1.83206E-13
 -1      2808 2.12531E+01 4.23414E-02 9.47937E-04-1.53670E+00-1.46231E-14-7.99078E-14
 -1      2809 2.10662E+01 1.39795E-01 3.57006E-03-1.49725E+00-6.72597E-15-1.21048E-13
 -1      2810 2.16400E+01-2.40315E-01-2.25378E-03-1.55755E+00 1.62804E-15-4.69196E-14
 -1      2811 2.14148E+01-7.90317E-02 6.37150E-03-1.58262E+00 1.51515E-15-6.45066E-14
 -1      2812 2.09518E+01-1.47030E-02-7.99587E-03-1.71879E+00-7.68228E-15-1.23963E-13
 -1      2813 2.21630E+01-6.68351E-01-7.41299E-03-1.40812E+00 2.90219E-14 2.42765E-14
 -1      2814 2.18981E+01-4.29522E-01 1.11187E-02-1.53234E+00 6.24652E-15 2.23378E-15
 -1      2815 2.13333E+01-4.07016E-01-1.29408E-02-1.76389E+00-1.92592E-14-6.95491E-14
 -1      2816 2.28522E+01-1.21919E+00-1.47320E-02-1.00196E+00 7.77677E-15 1.20311E-13
 -1      2817 2.25567E+01-9.24582E-01 1.70549E-02-1.26376E+00 2.91128E-14 1.09086E-13
 -1      2818 2.19264E+01-9.80570E-01-1.93089E-02-1.63192E+00 8.91886E-15 4.96619E-14
 -1      2819 2.36918E+01-1.73646E+00-2.21683E-02-2.57586E-01-2.35610E-14 1.74275E-13
 -1      2820 2.34015E+01-1.48810E+00 2.07193E-02-6.75422E-01 1.15136E-14 1.76384E-13
 -1      2821 2.27999E+01-1.68034E+00-2.41630E-02-1.21273E+00-3.23743E-14 9.72139E-14
 -1      2822 2.45493E+01-1.83471E+00-1.81510E-02 8.08989E-01 5.36520E-14 2.81836E-13
 -1      2823 2.43312E+01-1.86091E+00 1.28926E-02 2.93368E-01-2.54198E-14 2.34350E-13
 -1      2824 2.39393E+01-2.25767E+00-2.72126E-02-3.69120E-01-5.67203E-14 2.12847E-13
 -1      2825 2.51346E+01-1.02529E+00-8.81790E-03 1.92564E+00 1.70812E-13 3.72354E-13
 -1      2826 2.50830E+01-1.59555E+00-1.81156E-02 1.49099E+00 1.06537E-13 3.70411E-13
 -1      2827 2.51707E+01-2.14213E+00-1.24272E-02 8.92218E-01 5.56014E-14 3.50458E-13
 -1      2828 2.51417E+01 8.77038E-01-3.97590E-03 2.35017E+00 4.21680E-13 2.94821E-13
 -1      2829 2.52629E+01-1.92012E-01-7.18337E-02 2.36445E+00 3.04817E-13 3.89092E-13
 -1      2830 2.59985E+01-8.22234E-01-5.68704E-03 2.10430E+00 2.45018E-13 4.65090E-13
 -1      2831 2.47403E+01 2.86874E+00-3.64040E-02 1.38307E+00 4.85570E-13 1.57510E-13
 -1      2832 2.49064E+01 1.95306E+00-1.03582E-01 2.02451E+00 4.56912E-13 2.19244E-13
 -1      2833 2.60654E+01 1.71807E+00-5.49287E-02 2.38619E+00 5.06740E-13 4.19303E-13
 -1      2834 2.45945E+01 3.24959E+00-9.14215E-02-6.48691E-01 4.96256E-13-9.45962E-14
 -1      2835 2.45990E+01 3.34132E+00-7.38634E-02 2.70453E-01 5.74499E-13-1.89809E-14
 -1      2836 2.57959E+01 3.87632E+00-5.25336E-02 9.21755E-01 6.51604E-13 1.18280E-13
 -1      2837 2.50139E+01 1.66175E+00-9.77293E-02-2.27638E+00 3.03854E-13-2.93463E-13
 -1      2838 2.48334E+01 2.66908E+00-1.90680E-02-1.70786E+00 3.97335E-13-2.52149E-13
 -1      2839 2.58062E+01 3.78156E+00-8.67269E-02-1.37207E+00 5.39901E-13-2.08771E-13
 -1      2840 2.53542E+01-4.39304E-01-4.96846E-02-2.39663E+00 7.54397E-14-5.20545E-13
 -1      2841 2.51969E+01 5.72072E-01-8.51002E-03-2.44631E+00 2.41973E-13-4.47903E-13
 -1      2842 2.61050E+01 1.23560E+00-5.90352E-02-2.50286E+00 3.21090E-13-3.80095E-13
 -1      2843 2.50794E+01-1.64677E+00-9.30949E-04-1.44423E+00-9.62648E-14-5.14607E-13
 -1      2844 2.51041E+01-1.19579E+00-1.79598E-02-1.87678E+00-5.26471E-14-5.26306E-13
 -1      2845 2.59210E+01-1.05873E+00-4.28271E-02-2.13087E+00 5.90500E-14-5.78360E-13
 -1      2846 2.42767E+01-1.80436E+00 1.48133E-02-2.50504E-01-9.61161E-14-3.46662E-13
 -1      2847 2.44954E+01-1.84582E+00-2.30488E-02-7.44813E-01-6.18225E-14-4.18793E-13
 -1      2848 2.50618E+01-2.24211E+00-3.36512E-02-8.46845E-01-1.58517E-13-4.54522E-13
 -1      2849 2.33695E+01-1.37969E+00 2.08546E-02 6.45632E-01-2.37781E-13-1.30517E-13
 -1      2850 2.36506E+01-1.64767E+00-2.17808E-02 2.57149E-01-1.73962E-13-2.17468E-13
 -1      2851 2.37980E+01-2.16778E+00-3.41108E-02 3.75738E-01-1.69456E-13-2.47863E-13
 -1      2852 2.25676E+01-8.13850E-01 1.63758E-02 1.16645E+00-2.45371E-13-1.50473E-13
 -1      2853 2.28448E+01-1.10559E+00-1.42432E-02 9.34579E-01-2.12965E-13-4.66697E-14
 -1      2854 2.27161E+01-1.54217E+00-2.39369E-02 1.14596E+00-2.62448E-13 6.80662E-16
 -1      2855 2.19534E+01-3.40481E-01 1.02312E-02 1.38242E+00-2.29240E-13-2.28698E-13
 -1      2856 2.21986E+01-5.66399E-01-6.91617E-03 1.28192E+00-2.13696E-13-1.67017E-13
 -1      2857 2.18927E+01-8.48757E-01-1.80655E-02 1.50066E+00-2.21355E-13-7.66921E-15
 -1      2858 2.15053E+01-2.01806E-02 5.41925E-03 1.39960E+00-1.02373E-13-1.54518E-13
 -1      2859 2.17128E+01-1.65347E-01-2.02384E-03 1.38964E+00-1.42107E-13-1.78590E-13
 -1      2860 2.13395E+01-3.06836E-01-1.15932E-02 1.58894E+00-1.90626E-13-5.41419E-14
 -1      2861 2.11775E+01 1.63866E-01 2.32465E-03 1.30228E+00-1.86719E-14-2.32156E-13
 -1      2862 2.13522E+01 8.49680E-02 9.95202E-04 1.34645E+00-2.86856E-14-2.15978E-13
 -1      2863 2.09812E+01 4.54153E-02-6.60843E-03 1.52179E+00-5.05355E-14-1.65294E-13
 -1      2864 2.09305E+01 2.49934E-01 5.59131E-04 1.14859E+00-9.57136E-14-1.13628E-13
 -1      2865 2.10780E+01 2.16588E-01 2.67248E-03 1.22002E+00-9.32460E-14-1.66894E-13
 -1      2866 2.07466E+01 2.40318E-01-3.51906E-03 1.37348E+00-6.84090E-14-2.53575E-13
 -1      2867 2.07375E+01 2.74127E-01-3.18123E-04 9.75457E-01-9.37399E-14 5.04327E-14
 -1      2868 2.08623E+01 2.68572E-01 3.46604E-03 1.05642E+00-4.13901E-14-9.94822E-15
 -1      2869 2.05853E+01 3.25901E-01-1.86891E-03 1.19057E+00-1.47942E-13-1.60953E-15
 -1      2870 2.05826E+01 2.63322E-01-6.70275E-04 8.04757E-01-6.41154E-14 2.97540E-14
 -1      2871 2.06875E+01 2.72908E-01 3.69844E-03 8.84575E-01-1.17152E-13 5.94258E-14
 -1      2872 2.04667E+01 3.43893E-01-1.08760E-03 1.00111E+00-8.07616E-14-5.26088E-14
 -1      2873 2.04563E+01 2.35264E-01-7.42594E-04 6.48325E-01 2.51220E-14 1.56913E-13
 -1      2874 2.05436E+01 2.51868E-01 3.58393E-03 7.21240E-01 3.29110E-14 1.34500E-13
 -1      2875 2.03740E+01 3.24383E-01-7.64295E-04 8.21286E-01-1.95330E-14-4.90898E-14
 -1      2876 2.03532E+01 2.00729E-01-6.82560E-04 5.11570E-01 1.01923E-13 1.69424E-13
 -1      2877 2.04248E+01 2.19529E-01 3.27183E-03 5.75011E-01 8.99102E-14 2.52087E-13
 -1      2878 2.02986E+01 2.86938E-01-6.49434E-04 6.59592E-01 1.81012E-14 1.06472E-13
 -1      2879 2.02694E+01 1.65784E-01-5.72190E-04 3.95984E-01 4.73577E-14 1.81750E-13
 -1      2880 2.03272E+01 1.84132E-01 2.86485E-03 4.49309E-01 1.33129E-13 2.31529E-13
 -1      2881 2.02361E+01 2.43340E-01-6.09719E-04 5.19603E-01 9.73578E-14 1.39899E-13
 -1      2882 2.02021E+01 1.33543E-01-4.53346E-04 3.00811E-01 1.17112E-13 1.74765E-13
 -1      2883 2.02480E+01 1.50132E-01 2.43038E-03 3.44461E-01 6.38485E-14 1.73910E-13
 -1      2884 2.01842E+01 2.00175E-01-5.83596E-04 4.01864E-01 8.53724E-14-2.79761E-14
 -1      2885 2.01488E+01 1.05366E-01-3.45035E-04 2.24124E-01 1.98558E-13 5.66353E-15
 -1      2886 2.01847E+01 1.19675E-01 2.00982E-03 2.59084E-01 1.86332E-13 9.71596E-14
 -1      2887 2.01415E+01 1.60781E-01-5.48459E-04 3.05144E-01 2.10331E-13 2.04219E-14
 -1      2888 2.01073E+01 8.16180E-02-2.54116E-04 1.63494E-01 8.19107E-14 9.62284E-14
 -1      2889 2.01348E+01 9.35629E-02 1.62626E-03 1.90967E-01 1.76757E-13 3.49995E-15
 -1      2890 2.01069E+01 1.26566E-01-5.00329E-04 2.27286E-01 2.60873E-13 1.42682E-13
 -1      2891 2.00755E+01 6.21345E-02-1.81481E-04 1.16392E-01 7.34750E-14 1.93639E-13
 -1      2892 2.00962E+01 7.18603E-02 1.29050E-03 1.37604E-01 1.04175E-13 2.56489E-13
 -1      2893 2.00792E+01 9.78428E-02-4.42618E-04 1.65746E-01 1.19156E-14 2.00090E-13
 -1      2894 2.00516E+01 4.64929E-02-1.25435E-04 8.04139E-02 1.93543E-13 9.81377E-14
 -1      2895 2.00669E+01 5.42501E-02 1.00546E-03 9.65139E-02 1.64410E-13 1.97036E-13
 -1      2896 2.00575E+01 7.43440E-02-3.80555E-04 1.17931E-01 8.33058E-14 1.35578E-13
 -1      2897 2.00341E+01 3.41673E-02-8.34707E-05 5.33978E-02-1.42381E-14 1.79120E-14
 -1      2898 2.00451E+01 4.02441E-02 7.69367E-04 6.54071E-02 1.01384E-13 6.51994E-14
 -1      2899 2.00408E+01 5.55196E-02-3.18818E-04 8.14007E-02 1.85984E-13 1.49008E-13
 -1      2900 2.00215E+01 2.46130E-02-5.30996E-05 3.34759E-02 9.66662E-14-8.25948E-14
 -1      2901 2.00292E+01 2.92979E-02 5.77936E-04 4.22674E-02-8.00668E-15-4.70440E-14
 -1      2902 2.00282E+01 4.07115E-02-2.60795E-04 5.39651E-02 9.73759E-14 4.38636E-14
 -1      2903 2.00128E+01 1.73099E-02-3.22063E-05 1.90835E-02-4.03106E-14-1.29412E-13
 -1      2904 2.00180E+01 2.08737E-02 4.25729E-04 2.53809E-02 6.20803E-14-1.74903E-13
 -1      2905 2.00188E+01 2.92469E-02-2.08459E-04 3.37347E-02 1.08520E-13 6.49918E-14
 -1      2906 2.00070E+01 1.17805E-02-1.94088E-05 8.94836E-03-5.94590E-15-1.94236E-13
 -1      2907 2.00103E+01 1.44696E-02 3.07001E-04 1.33339E-02 5.20556E-15-2.63623E-13
 -1      2908 2.00121E+01 2.04869E-02-1.62730E-04 1.91281E-02 7.74581E-14-2.23192E-13
 -1      2909 2.00032E+01 7.59841E-03-1.31859E-05 2.07128E-03 5.27836E-14-3.42167E-13
 -1      2910 2.00052E+01 9.62963E-03 2.16079E-04 4.99641E-03-8.32503E-15-3.49908E-13
 -1      2911 2.00074E+01 1.38448E-02-1.24239E-04 8.86147E-03 5.78596E-14-3.98082E-13
 -1      2912 2.00010E+01 4.38915E-03-9.88969E-06-2.31049E-03-1.02169E-13-2.61156E-13
 -1      2913 2.00021E+01 5.95392E-03 1.47904E-04-5.07046E-04-2.84406E-14-1.63393E-13
 -1      2914 2.00042E+01 8.80345E-03-9.18877E-05 1.92765E-03-4.08952E-14-3.82359E-13
 -1      2915 1.99999E+01 1.82803E-03 8.49507E-06-4.72115E-03 7.80229E-14-2.04791E-13
 -1      2916 2.00003E+01 3.04308E-03 9.04540E-05-3.83633E-03-2.40065E-15-1.38369E-13
 -1      2917 2.00021E+01 4.91238E-03-6.03982E-05-2.45228E-03-6.93421E-15-2.57740E-13
 -1      2918 1.99997E+01-1.37596E-04-3.37860E-06-5.48515E-03-4.47525E-14-1.10484E-13
 -1      2919 1.99997E+01 9.72576E-04 3.96237E-05-5.28031E-03 3.23330E-14-1.46703E-13
 -1      2920 2.00012E+01 2.05299E-03-5.05629E-05-4.60487E-03 8.96949E-15-9.13026E-14
 -1      2921 2.00009E+01-2.30936E-04-2.22979E-05-5.32921E-03-2.21737E-13-8.42199E-14
 -1      2922 2.80717E+01 3.53342E+00-1.60938E-01-2.04575E+00-6.29607E-13 3.03327E-13
 -1      2923 2.88134E+01 1.48942E+00-9.94145E-02-1.83781E+00-4.98379E-13 3.03202E-13
 -1      2924 2.00021E+01 3.89170E-03-1.74662E-05-1.05012E-04 1.71627E-13 3.78288E-13
 -1      2925 2.00022E+01 3.83190E-03-3.53851E-06-5.58811E-04 8.98352E-14 3.07026E-13
 -1      2926 2.00025E+01 2.63199E-03-2.94021E-05-1.93736E-03 1.89898E-13 2.49358E-13
 -1      2927 2.00025E+01 2.41619E-03 1.75328E-05-2.51396E-03 2.67565E-13 1.05450E-13
 -1      2928 2.00022E+01 3.84591E-03-4.51693E-06 6.74168E-04-9.75425E-14-2.86443E-14
 -1      2929 2.00021E+01 3.89685E-03-1.68422E-05 2.24627E-04 1.31629E-14 1.58075E-13
 -1      2930 2.00026E+01 7.72714E-03 5.59478E-05 6.37231E-05 7.85149E-14 2.35390E-14
 -1      2931 2.00023E+01 3.45594E-03-2.71659E-05-9.36472E-04 4.06805E-14 8.82349E-14
 -1      2932 2.00024E+01 3.30304E-03 9.36319E-06-1.44413E-03 9.71424E-14 3.11696E-13
 -1      2933 2.00029E+01 6.31865E-03 3.74100E-05-1.30841E-03 1.74022E-13 2.07945E-13
 -1      2934 2.00027E+01 7.35452E-03 5.16123E-05-5.31908E-04 1.89632E-13 2.37289E-13
 -1      2935 2.00023E+01 3.34930E-03 8.44488E-06 1.52150E-03-2.42673E-13-3.43860E-13
 -1      2936 2.00022E+01 3.48856E-03-2.68019E-05 1.03595E-03-2.03038E-13-7.74474E-14
 -1      2937 2.00027E+01 7.37949E-03 5.23974E-05 6.45427E-04-1.81202E-13-1.39001E-13
 -1      2938 2.00024E+01 2.48546E-03 1.39594E-05 2.55170E-03 6.89133E-14-1.92483E-13
 -1      2939 2.00024E+01 2.68914E-03-3.01067E-05 1.99416E-03-8.23934E-14-2.08143E-13
 -1      2940 2.00029E+01 6.37813E-03 4.01447E-05 1.38693E-03-1.21853E-13-1.05208E-13
 -1      2941 2.00022E+01 1.41667E-03-3.72893E-06 3.71691E-03 8.50023E-14-7.14619E-14
 -1      2942 2.00024E+01 1.66015E-03-2.60021E-05 3.12553E-03 1.54595E-13-1.96110E-13
 -1      2943 2.00029E+01 4.92218E-03 2.90079E-05 2.39380E-03 9.24544E-14-1.53998E-13
 -1      2944 2.00015E+01 1.65149E-04 3.34419E-05 4.68272E-03 8.94628E-14-7.63917E-15
 -1      2945 2.05380E+01 4.76402E-01 2.89894E-03-6.78674E-01 1.66321E-13-1.85267E-13
 -1      2946 2.05142E+01 5.40026E-01 6.98975E-03-5.10528E-01 1.86875E-13-1.81403E-13
 -1      2947 2.04642E+01 7.49019E-01-2.90626E-03-4.03302E-01 2.14574E-13-2.54596E-13
 -1      2948 2.04506E+01 5.83562E-01-3.46468E-03-7.81606E-01 1.70056E-13-2.36601E-13
 -1      2949 2.88020E+01-2.99760E-01-1.70335E-01-1.18704E+00-4.12149E-13 2.61666E-13
 -1      2950 2.83053E+01-1.92339E+00-1.35973E-02-3.01648E-01-2.53644E-13 3.15359E-13
 -1      2951 2.77561E+01 3.18649E-01-7.94255E-02-1.83483E+00-3.75373E-13 3.84054E-13
 -1      2952 1.64704E+01-4.40091E+00 1.26983E-02 6.18906E+00-6.63705E-13 4.99517E-13
 -1      2953 1.33203E+01-3.44540E+00 1.35783E-01 5.91877E+00-5.53418E-13 4.76494E-13
 -1      2954 2.83169E+01-3.25296E+00-8.98463E-02 5.72995E-01-8.84015E-15-2.07515E-13
 -1      2955 2.62990E+01-4.45580E+00-3.46522E-03 1.99086E+00-1.97342E-13-1.72973E-13
 -1      2956 7.76558E+00-1.48371E+00 1.53312E-01-3.69665E+00 1.73903E-13 9.69308E-13
 -1      2957 9.28966E+00-2.12500E+00 1.14206E-01-5.02734E+00 2.81469E-13 9.13408E-13
 -1      2958 2.87463E+01 3.44651E-01-8.95150E-02 1.92624E+00 5.28660E-13 6.82357E-13
 -1      2959 2.90610E+01 2.71958E+00-1.81074E-01 2.20753E+00 8.49515E-13 5.86184E-13
 -1      2960 1.17854E+01-3.08436E+00 1.58004E-01-5.90624E+00 3.39923E-13 5.97189E-13
 -1      2961 1.49977E+01-4.28680E+00-1.00436E-02-6.55670E+00 2.65565E-13 2.68591E-13
 -1      2962 2.09671E+01 2.11863E-01 2.70848E-03-1.40996E+00 7.22258E-15-1.35100E-13
 -1      2963 2.08164E+01 2.68753E-01 2.49568E-03-1.32997E+00 4.03481E-14-1.65119E-13
 -1      2964 2.07118E+01 2.27006E-01-5.06834E-03-1.56920E+00-1.85643E-16-1.38224E-13
 -1      2965 2.07583E+01 3.13181E-01 3.46085E-03-1.21654E+00 7.66806E-14-1.80268E-13
 -1      2966 2.06448E+01 3.52011E-01 2.83421E-03-1.10857E+00 1.08012E-13-1.66950E-13
 -1      2967 2.05641E+01 3.72461E-01-3.77135E-03-1.35529E+00 5.92837E-14-1.73316E-13
 -1      2968 2.05527E+01 1.21118E+00 3.75261E-03-3.99355E-01-3.85583E-13-7.75662E-14
 -1      2969 2.05082E+01 9.90064E-01-2.83066E-03-1.12098E-01-3.49534E-13-9.11654E-14
 -1      2970 2.04367E+01 1.11849E+00-8.82574E-04-1.40539E-02-3.33348E-13-1.67366E-13
 -1      2971 2.99953E+01 5.17410E-01-1.49324E-01-1.56106E+00 5.14491E-13-3.59240E-13
 -1      2972 2.92847E+01-1.37475E+00-5.41162E-02-6.95027E-01 2.78631E-13-3.40922E-13
 -1      2973 1.90647E+01-4.85949E+00 1.44830E-01-5.83867E+00 3.52801E-13-8.30482E-14
 -1      2974 2.23822E+01-5.31302E+00-7.23080E-02-4.83440E+00 1.69309E-13-1.53277E-13
 -1      2975 1.96606E+01 2.95609E+00-6.40053E-03 4.74293E-01 2.14982E-13-5.67507E-13
 -1      2976 1.95428E+01 3.07476E+00-7.60022E-03 3.70941E-01 1.50622E-13-5.92633E-13
 -1      2977 1.95874E+01 2.85140E+00 5.94012E-03 2.48143E-01 1.27775E-13-5.56422E-13
 -1      2978 1.98253E+01 2.57942E+00 6.71204E-03 3.68746E-01 2.12108E-13-5.17634E-13
 -1      2979 8.44625E+00-2.08619E+00 1.03067E-01 4.66708E+00 1.83784E-13-1.14378E-12
 -1      2980 6.78973E+00-1.31119E+00 1.97415E-01 2.78585E+00 1.20938E-13-1.21411E-12
 -1      2981 2.90777E+01 1.67333E+00-5.63332E-02 1.89975E+00-7.18481E-13-6.92557E-13
 -1      2982 2.88500E+01 3.64320E+00-2.05976E-01 1.95976E+00-9.24066E-13-6.17353E-13
 -1      2983 1.95580E+01 3.05791E+00-7.17408E-03-3.49402E-01-2.67814E-13-5.55170E-13
 -1      2984 1.96746E+01 2.93880E+00-6.21024E-03-4.58971E-01-3.17103E-13-5.32281E-13
 -1      2985 1.52049E+01-3.96469E+00 1.60892E-01-6.15023E+00-4.05204E-13-4.82447E-13
 -1      2986 1.84337E+01-5.01899E+00-1.83093E-02-6.08377E+00-3.90729E-13-3.30569E-13
 -1      2987 2.73874E+01 5.53297E+00-1.94027E-01 3.24173E-01 8.72108E-13 6.05765E-15
 -1      2988 2.77101E+01 5.36556E+00-1.75252E-01-9.86850E-01 7.47069E-13-1.37688E-13
 -1      2989 8.81528E+00-1.73487E+00 1.84066E-01-4.14915E+00-3.81306E-13-9.53682E-13
 -1      2990 1.14651E+01-2.89942E+00 5.87923E-02-5.74123E+00-3.79571E-13-7.43267E-13
 -1      2991 2.70481E+01-3.90732E+00-1.08266E-01 1.40169E+00-2.53825E-14 2.75474E-13
 -1      2992 2.46924E+01-4.79512E+00 1.75120E-02 3.10685E+00 2.40877E-13 1.15859E-13
 -1      2993 2.16042E+01-5.24705E+00 1.00279E-01-5.00919E+00-3.14665E-13-1.07666E-14
 -1      2994 2.41868E+01-5.17220E+00-5.37693E-02-3.64153E+00-1.93755E-13 3.22841E-13
 -1      2995 1.27856E+01-3.75859E+00-5.07676E-03 6.40217E+00 3.80362E-13-6.50785E-13
 -1      2996 1.04476E+01-2.77438E+00 1.96092E-01 5.58610E+00 3.14540E-13-9.67643E-13
 -1      2997 1.05362E+01-1.82711E+00 1.49822E-01 4.69728E+00 2.59306E-13-9.58816E-13
 -1      2998 2.80123E+01-2.57721E+00-1.22215E-02-2.62801E-01-4.01082E-13-6.08846E-13
 -1      2999 2.86401E+01-8.43885E-01-2.03067E-01 9.33661E-01-5.66228E-13-7.03881E-13
 -1      3000 2.33655E+01-5.26224E+00-4.60734E-02 4.11114E+00-4.58938E-13 1.59065E-13
 -1      3001 2.00959E+01-5.10995E+00 9.99018E-02 5.42780E+00-6.22280E-13 5.03486E-13
 -1      3002 2.51628E+01-4.77219E+00 6.14986E-02-3.14723E+00 3.15581E-14-2.58724E-13
 -1      3003 2.67389E+01-4.14897E+00-1.29930E-01-1.93259E+00-1.66846E-13-3.97904E-13
 -1      3004 2.92299E+01 4.49975E+00-1.95875E-01-2.03507E+00 7.47985E-13-3.56160E-13
 -1      3005 2.99832E+01 2.58027E+00-8.40802E-02-2.14017E+00 6.14508E-13-4.00402E-13
 -1      3006 1.98099E+01 2.77087E+00-7.94792E-03-5.37703E-01-3.39141E-13-4.94547E-13
 -1      3007 1.99548E+01 2.59351E+00-1.05648E-02-6.52728E-01-3.83101E-13-4.47214E-13
 -1      3008 1.98375E+01 2.55377E+00 3.74837E-03-3.56888E-01-3.01975E-13-4.89801E-13
 -1      3009 1.93931E+01 3.05470E+00 4.93984E-03 2.14142E-02-6.64233E-14-5.34892E-13
 -1      3010 1.93090E+01 3.31970E+00-6.02226E-03-1.25685E-02-9.74343E-14-5.76756E-13
 -1      3011 1.93364E+01 3.29686E+00-4.92914E-03-1.07289E-01-1.46597E-13-5.61518E-13
 -1      3012 2.04669E+01 1.74408E+00-2.93766E-03 7.27245E-01 4.06286E-13-3.04999E-13
 -1      3013 7.64775E+00-3.27592E-01 1.37641E-01-1.39030E+00-2.07508E-14 9.34863E-13
 -1      3014 7.57874E+00-8.99033E-01 1.74162E-01-2.69516E+00 5.44703E-14 9.53154E-13
 -1      3015 9.39850E+00-6.48066E-01 1.23702E-01-3.11502E+00 1.37584E-13 7.78655E-13
 -1      3016 2.00016E+01 2.13748E-03-5.89068E-05 4.44880E-03 2.12348E-13-1.55553E-15
 -1      3017 2.82132E+01-2.30360E+00-3.97573E-02-8.21488E-01 7.91277E-14-3.30250E-13
 -1      3018 7.69775E+00-6.64923E-01 1.86805E-01 1.42693E+00 4.85376E-15-1.15716E-12
 -1      3019 1.21271E+01-2.65945E+00 1.38852E-01 5.52886E+00-4.97907E-13 4.62380E-13
 -1      3020 1.10008E+01-1.67452E+00 1.35287E-01 4.64979E+00-4.00263E-13 4.76771E-13
 -1      3021 1.45523E+01-2.54767E+00 8.14074E-02 5.19657E+00-6.25763E-13 2.79693E-13
 -1      3022 2.32523E+01-5.00389E+00 5.23392E-02 3.99395E+00 3.43184E-13-2.34188E-16
 -1      3023 2.10988E+01-4.33624E+00 2.88441E-02 4.44481E+00 3.71023E-13-6.97845E-14
 -1      3024 2.43726E+01-4.48736E+00-5.59685E-02 2.44743E+00 2.43042E-13 1.82240E-13
 -1      3025 2.37948E+01-4.85605E+00 4.64450E-02-3.53034E+00 2.49314E-13-3.08580E-13
 -1      3026 2.04812E+01 4.75146E-01-3.48220E-03-1.09342E+00 1.29994E-13-2.30182E-13
 -1      3027 2.73909E+01 4.39174E+00-1.39607E-01-1.75468E+00-6.71421E-13 2.94820E-13
 -1      3028 2.67232E+01 2.82468E+00-1.03841E-01-2.00604E+00-5.29327E-13 4.00256E-13
 -1      3029 2.00016E+01 4.32165E-04 1.25497E-05-4.70206E-03-1.48956E-13-2.36423E-13
 -1      3030 2.00018E+01 1.76615E-03 2.32190E-05-4.53161E-03-2.12767E-13-1.74694E-13
 -1      3031 2.00020E+01 5.41370E-04-2.83519E-05-4.24286E-03-2.28416E-13-2.93782E-13
 -1      3032 2.52650E+01-4.92197E+00 1.63790E-02 2.63136E+00-2.71276E-13-1.24983E-13
 -1      3033 2.37710E+01-4.65599E+00 7.42356E-02 3.14405E+00-3.71203E-13 4.90814E-14
 -1      3034 2.60462E+01-4.11085E+00-4.69311E-02 1.00242E+00-1.81264E-13-2.00884E-13
 -1      3035 8.54314E+00-4.35749E-01 9.62535E-02-2.05498E+00-2.58456E-13-9.82769E-13
 -1      3036 8.54787E+00-1.09028E+00 1.61403E-01-3.22678E+00-3.04562E-13-9.56180E-13
 -1      3037 1.07314E+01-1.03326E+00 1.06870E-01-3.78096E+00-3.85494E-13-8.17693E-13
 -1      3038 1.58837E+01-3.49714E+00 1.15917E-01 5.80563E+00 3.90729E-13-4.64358E-13
 -1      3039 2.79915E+01 1.24424E-01-2.63329E-02 1.83993E+00-4.80400E-13-8.73704E-13
 -1      3040 2.84247E+01 5.37369E+00-1.31663E-01 1.60031E+00-9.41469E-13-3.68511E-13
 -1      3041 2.80201E+01 6.15428E+00-2.10663E-01 6.53597E-01-9.92401E-13-1.88481E-13
 -1      3042 2.00020E+01 2.41045E-03-1.98471E-05 4.18993E-03 2.27321E-13-1.30084E-13
 -1      3043 2.00021E+01 1.46538E-03-2.17909E-05 4.03553E-03 1.64417E-13-1.12488E-13
 -1      3044 2.00029E+01 4.15275E-03 6.18780E-05 3.18859E-03 1.83799E-13-1.50442E-14
 -1      3045 2.00025E+01 3.92823E-03 8.71164E-05 3.55579E-03 2.58414E-13-1.67147E-13
 -1      3046 2.05698E+01-4.68606E+00 8.88359E-02-5.00099E+00-3.96294E-13-1.00808E-13
 -1      3047 2.71681E+01-2.90987E+00-2.07959E-02 2.05265E-02-4.23377E-14 2.73753E-13
 -1      3048 1.90265E+01-4.31228E+00 9.02025E-02 5.25112E+00-6.68979E-13 4.94771E-13
 -1      3049 2.74382E+01 4.78083E+00-1.99880E-01 1.36311E+00 8.56704E-13 2.17017E-13
 -1      3050 6.46771E+00-1.13501E+00 1.85800E-01 2.03032E+00-2.11789E-13 1.14814E-12
 -1      3051 7.22440E+00-3.96320E-01 1.52483E-01 6.71284E-01-1.06470E-13 1.08494E-12
 -1      3052 8.32558E+00-9.87151E-01 1.37699E-01 2.92861E+00-2.44901E-13 9.36556E-13
 -1      3053 1.43776E+01-2.97112E+00 1.28195E-01-5.53659E+00-4.41092E-13-5.61204E-13
 -1      3054 1.19895E+01-2.21298E+00 1.50860E-01-5.21359E+00 3.76185E-13 6.03656E-13
 -1      3055 1.79130E+01-4.16490E+00 9.84752E-02-5.70215E+00 4.20192E-13-3.43059E-14
 -1      3056 2.04188E+01 1.58181E+00 3.33996E-03 4.40227E-01 3.48491E-13-3.33674E-13
 -1      3057 2.59062E+01-4.69344E+00 3.41678E-02-2.17803E+00-1.75797E-13 4.04482E-13
 -1      3058 2.62856E+01-4.03754E+00-1.56615E-01-6.45003E-01-1.65035E-13 5.19737E-13
 -1      3059 2.45242E+01-4.54470E+00 8.46845E-02-2.66839E+00-2.31006E-13 4.07953E-13
 -1      3060 2.00024E+01 1.55747E-03-2.96180E-05-3.05986E-03 1.43357E-13 1.09072E-14
 -1      3061 2.00023E+01 1.35374E-03 1.66708E-05-3.63884E-03-1.21228E-13-1.16839E-13
 -1      3062 2.00027E+01 3.19983E-03 2.13727E-05-3.37761E-03-4.58367E-14-6.07724E-14
 -1      3063 2.00030E+01 4.81118E-03 2.53899E-05-2.28096E-03 2.95932E-13 1.89033E-13
 -1      3064 1.93871E+01 3.23838E+00-6.64576E-03-1.74194E-01-1.83297E-13-5.44283E-13
 -1      3065 1.94619E+01 3.16975E+00-5.15072E-03-2.75336E-01-2.44247E-13-5.48510E-13
 -1      3066 1.96000E+01 2.82746E+00 3.20549E-03-2.19794E-01-2.37441E-13-5.14474E-13
 -1      3067 1.94477E+01 2.99426E+00 3.95104E-03-9.34664E-02-1.62606E-13-5.15211E-13
 -1      3068 2.88855E+01 1.02187E+00-7.44393E-02-2.18630E+00 4.58425E-13-4.93994E-13
 -1      3069 2.73552E+01 3.81253E+00-8.59574E-02 1.90045E+00-7.63903E-13-5.36279E-13
 -1      3070 2.70685E+01-3.30970E+00-1.04436E-02-5.93473E-01-1.36294E-13-6.63941E-13
 -1      3071 2.78618E+01 6.18510E+00-1.89646E-01-1.12587E-01-9.56818E-13-2.72265E-15
 -1      3072 2.74126E+01 5.47776E+00-1.55667E-01-1.03974E+00-8.04690E-13 1.87923E-13
 -1      3073 2.61134E+01 4.61259E+00-1.08138E-01-1.17756E+00-6.82718E-13 3.56468E-13
 -1      3074 2.64860E+01 5.33277E+00-1.06110E-01 3.92465E-01-8.39384E-13 1.98539E-15
 -1      3075 2.01683E+01 2.32005E+00-2.01166E-03-7.32421E-01-3.95703E-13-3.44250E-13
 -1      3076 2.04647E+01 1.81643E+00-8.17613E-03-8.42990E-01-4.57341E-13-1.51184E-13
 -1      3077 2.04945E+01 1.45288E+00 6.37137E-04-5.40043E-01-4.09271E-13-1.12242E-13
 -1      3078 2.01684E+01 2.10739E+00 5.51179E-03-4.90014E-01-3.53846E-13-3.61227E-13
 -1      3079 2.03978E+01 1.57320E+00 2.10451E-03-4.06931E-01-3.75695E-13-1.99852E-13
 -1      3080 2.02156E+01 1.79286E+00-4.90265E-03 3.01303E-01 2.91339E-13-3.94640E-13
 -1      3081 2.00610E+01 2.02742E+00-2.87407E-03 2.64249E-01 2.47661E-13-4.28619E-13
 -1      3082 2.03277E+01 1.03274E+00 3.14424E-03 3.06829E-01-2.86633E-13-2.16359E-13
 -1      3083 2.03114E+01 8.90274E-01-1.48895E-03 5.02985E-01-2.62594E-13-2.22110E-13
 -1      3084 2.70029E+01 4.07812E+00-1.04770E-01-1.47372E+00 6.00534E-13-2.46644E-13
 -1      3085 2.02953E+01 7.73638E-01 2.87861E-03 6.73623E-01-2.29543E-13-1.86456E-13
 -1      3086 2.02940E+01 6.69718E-01 7.92636E-05 8.30389E-01-1.98191E-13-1.66613E-13
 -1      3087 2.01855E+01 9.85594E-01-4.16081E-04 5.76280E-01-2.24913E-13-2.44499E-13
 -1      3088 2.02778E+01 5.76559E-01 2.49531E-03 9.75897E-01-1.68243E-13-1.42344E-13
 -1      3089 2.03016E+01 4.83462E-01 1.35232E-03 1.10037E+00-1.55495E-13-1.42762E-13
 -1      3090 2.01404E+01 7.45823E-01-1.56201E-03 8.99957E-01-1.71647E-13-1.66839E-13
 -1      3091 2.03012E+01 3.87586E-01 2.73309E-03 1.22548E+00-1.37865E-13-1.30347E-13
 -1      3092 2.03592E+01 2.79559E-01 2.30420E-03 1.32010E+00-9.62797E-14-1.18155E-13
 -1      3093 2.01122E+01 5.31072E-01-2.93259E-03 1.17942E+00-1.24585E-13-1.14527E-13
 -1      3094 2.03944E+01 1.56412E-01 4.05767E-03 1.42599E+00-3.12785E-14-1.18146E-13
 -1      3095 2.04993E+01 8.24938E-03 2.88114E-03 1.48663E+00 2.75549E-15-8.24815E-14
 -1      3096 2.01324E+01 2.85214E-01-5.13337E-03 1.42248E+00-7.37331E-14-1.17603E-13
 -1      3097 2.05983E+01-1.65399E-01 7.00050E-03 1.56785E+00 4.04848E-14-3.30116E-14
 -1      3098 2.07675E+01-3.76760E-01 2.74905E-03 1.58187E+00 3.15783E-14 4.63659E-16
 -1      3099 2.02438E+01-4.79238E-02-8.77643E-03 1.62854E+00 5.12540E-14-4.16179E-14
 -1      3100 2.09704E+01-6.18411E-01 1.21902E-02 1.62121E+00 6.90312E-16 4.77889E-14
 -1      3101 2.12222E+01-9.05777E-01 9.55366E-04 1.56480E+00 8.65725E-15 5.79381E-14
 -1      3102 2.05082E+01-5.21448E-01-1.43066E-02 1.78079E+00 4.38079E-14 1.13624E-15
 -1      3103 2.15802E+01-1.21327E+00 1.98632E-02 1.52291E+00-3.74787E-15 9.49780E-14
 -1      3104 2.19234E+01-1.55490E+00-2.94425E-03 1.35950E+00 4.22670E-14 1.04063E-13
 -1      3105 2.10128E+01-1.16864E+00-2.10550E-02 1.83119E+00 2.57109E-14 6.70301E-14
 -1      3106 2.24711E+01-1.87579E+00 2.64925E-02 1.17261E+00 9.13523E-14 1.50205E-13
 -1      3107 2.28856E+01-2.18624E+00-1.19951E-02 8.64961E-01 1.22583E-13 1.54932E-13
 -1      3108 2.18510E+01-1.94161E+00-2.54306E-02 1.67130E+00 8.85786E-14 1.34797E-13
 -1      3109 2.36125E+01-2.36865E+00 2.82355E-02 4.47992E-01 1.39297E-13 2.15895E-13
 -1      3110 2.40079E+01-2.43588E+00-2.13952E-02 3.39343E-03 1.19836E-13 2.23117E-13
 -1      3111 2.30375E+01-2.68129E+00-4.33555E-02 1.16290E+00 1.77535E-13 1.75089E-13
 -1      3112 2.48127E+01-2.21137E+00 2.20215E-02-7.10312E-01 7.92680E-14 2.40968E-13
 -1      3113 2.50403E+01-1.69549E+00-1.92749E-02-1.19824E+00-1.99068E-14 2.82111E-13
 -1      3114 2.45882E+01-2.89423E+00-5.52862E-02 1.16578E-01 1.21807E-13 1.96347E-13
 -1      3115 2.51642E+01 2.35815E+00-8.41522E-02-2.01115E+00-4.93043E-13 2.61327E-13
 -1      3116 2.50490E+01 3.46677E+00-5.57845E-02-1.57101E+00-5.60586E-13 2.26930E-13
 -1      3117 2.50675E+01 4.18322E+00-1.03189E-01-8.28298E-01-6.32092E-13 1.59670E-13
 -1      3118 2.49980E+01 4.48174E+00-9.87684E-02 6.43412E-02-6.16701E-13 2.14941E-14
 -1      3119 2.52210E+01 4.36054E+00-9.67945E-02 9.67454E-01-6.53255E-13-2.34182E-13
 -1      3120 2.52935E+01 3.53964E+00-1.34932E-01 1.68271E+00-6.10567E-13-3.20447E-13
 -1      3121 2.58913E+01 2.28587E+00-7.39509E-02 2.24465E+00-5.39693E-13-5.30853E-13
 -1      3122 2.59350E+01 8.39824E-01-1.38867E-01 2.24949E+00-5.01280E-13-5.65759E-13
 -1      3123 2.46356E+01-2.18449E+00 5.17042E-03 6.99590E-01 2.06753E-14-5.10643E-13
 -1      3124 2.41932E+01-2.39171E+00 2.42409E-02 1.25267E-01 1.51082E-13-5.55037E-13
 -1      3125 2.33990E+01-2.31873E+00-8.59408E-03-3.73245E-01 2.83646E-13-5.16811E-13
 -1      3126 2.29686E+01-2.10035E+00 2.99256E-02-7.58157E-01 2.75937E-13-5.01003E-13
 -1      3127 2.37141E+01-2.71761E+00-8.49776E-03-6.12620E-01 1.85039E-13-4.12283E-13
 -1      3128 2.23120E+01-1.80574E+00-8.01168E-03-1.03464E+00 1.56797E-13-3.36379E-13
 -1      3129 2.19318E+01-1.45659E+00 2.32222E-02-1.25134E+00 1.18755E-13-2.24367E-13
 -1      3130 2.23050E+01-2.25896E+00-3.60558E-02-1.36192E+00 3.48315E-13-3.34093E-13
 -1      3131 2.14814E+01-1.13517E+00-9.90433E-04-1.33810E+00 1.06109E-13-1.43515E-13
 -1      3132 2.11864E+01-8.24298E-01 1.48591E-02-1.43204E+00 1.66799E-13-9.01407E-14
 -1      3133 2.12825E+01-1.45233E+00-2.58776E-02-1.63955E+00 2.03229E-13-1.33323E-13
 -1      3134 2.09086E+01-5.58702E-01 1.95681E-03-1.42042E+00 1.52269E-13-1.02503E-13
 -1      3135 2.06984E+01-3.24407E-01 8.51222E-03-1.43341E+00 1.34760E-13-1.09363E-13
 -1      3136 2.06218E+01-7.47165E-01-1.71151E-02-1.65708E+00 1.38097E-13-9.46098E-14
 -1      3137 2.05449E+01-1.36437E-01 3.09624E-03-1.37051E+00 1.08264E-13-1.03497E-13
 -1      3138 2.04025E+01 1.69403E-02 4.07639E-03-1.33563E+00 1.11809E-13-1.93595E-14
 -1      3139 2.02356E+01-2.23626E-01-1.01304E-02-1.54430E+00 1.48053E-13-7.08262E-14
 -1      3140 2.03273E+01 1.34324E-01 3.05056E-03-1.25184E+00 1.16861E-13-7.23670E-15
 -1      3141 2.02326E+01 2.22578E-01 1.37281E-03-1.19108E+00 8.20259E-14-4.82273E-14
 -1      3142 2.00332E+01 1.16894E-01-5.59551E-03-1.37663E+00 1.37698E-13 4.58625E-14
 -1      3143 2.02031E+01 2.85814E-01 2.75906E-03-1.10152E+00-2.23731E-14 6.54849E-14
 -1      3144 2.01393E+01 3.27254E-01-1.69405E-04-1.02923E+00-6.37672E-14 5.16950E-14
 -1      3145 1.99417E+01 3.12641E-01-2.76642E-03-1.19247E+00 5.17154E-14-1.58105E-14
 -1      3146 2.01345E+01 3.52958E-01 2.45179E-03-9.41874E-01-1.02944E-13 2.41640E-14
 -1      3147 2.00899E+01 3.63520E-01-9.71311E-04-8.67185E-01-6.53130E-14-1.66642E-15
 -1      3148 1.99123E+01 4.04911E-01-1.13639E-03-1.01043E+00-5.94884E-14 3.66868E-14
 -1      3149 2.00968E+01 3.65307E-01 2.18230E-03-7.86270E-01-7.94125E-14-6.24126E-15
 -1      3150 2.00642E+01 3.57169E-01-1.31728E-03-7.14814E-01-4.73563E-14 2.00305E-14
 -1      3151 1.99141E+01 4.28872E-01-2.77470E-04-8.39971E-01-6.47196E-14-2.52510E-14
 -1      3152 2.00756E+01 3.45075E-01 1.94439E-03-6.42501E-01 2.56408E-14-5.94185E-14
 -1      3153 2.00506E+01 3.26837E-01-1.39427E-03-5.77518E-01 3.47418E-15-3.25908E-14
 -1      3154 1.99295E+01 4.11260E-01 1.22612E-04-6.85917E-01-8.57745E-14-1.29440E-13
 -1      3155 2.00625E+01 3.07760E-01 1.72217E-03-5.14693E-01-1.20703E-13 7.67576E-14
 -1      3156 2.00426E+01 2.85139E-01-1.32173E-03-4.57770E-01-2.67299E-13 2.39479E-14
 -1      3157 1.99485E+01 3.70980E-01 2.67879E-04-5.50484E-01-4.21635E-14-1.48559E-13
 -1      3158 2.00532E+01 2.63544E-01 1.50678E-03-4.04489E-01-2.01275E-13 1.93909E-13
 -1      3159 2.00371E+01 2.40125E-01-1.17456E-03-3.56093E-01 5.09062E-14 1.32810E-13
 -1      3160 1.99664E+01 3.20672E-01 2.83160E-04-4.34219E-01-1.02651E-13 9.87685E-14
 -1      3161 2.00457E+01 2.18728E-01 1.29719E-03-3.11868E-01-6.38395E-14 9.60868E-14
 -1      3162 2.00326E+01 1.96601E-01-9.98644E-04-2.71745E-01-9.98188E-14 8.95086E-14
 -1      3163 1.99812E+01 2.68328E-01 2.40697E-04-3.36528E-01-4.61494E-14 4.45431E-14
 -1      3164 2.00391E+01 1.76918E-01 1.09681E-03-2.35756E-01-9.80121E-14 7.97065E-14
 -1      3165 2.00284E+01 1.57169E-01-8.20983E-04-2.03217E-01-8.69242E-14 5.34061E-14
 -1      3166 1.99923E+01 2.18661E-01 1.79784E-04-2.56058E-01-1.33363E-13-6.91688E-14
 -1      3167 2.00331E+01 1.39926E-01 9.10262E-04-1.74470E-01-8.78719E-14 3.20855E-14
 -1      3168 2.00244E+01 1.22991E-01-6.56450E-04-1.48609E-01-1.70258E-13-5.17452E-14
 -1      3169 2.00001E+01 1.74162E-01 1.20034E-04-1.91004E-01-1.25774E-13-3.89148E-14
 -1      3170 2.00275E+01 1.08416E-01 7.41458E-04-1.26054E-01-1.61515E-13 4.26043E-14
 -1      3171 2.00206E+01 9.43365E-02-5.12213E-04-1.05887E-01-1.40180E-13 5.41776E-14
 -1      3172 2.00050E+01 1.35873E-01 6.98723E-05-1.39347E-01-1.29209E-13-1.23165E-13
 -1      3173 2.00225E+01 8.23582E-02 5.92836E-04-8.85003E-02-2.23518E-13 6.63569E-14
 -1      3174 2.00170E+01 7.09437E-02-3.90722E-04-7.30635E-02-1.53559E-13-1.65408E-13
 -1      3175 2.00078E+01 1.03933E-01 3.17422E-05-9.90408E-02-1.59555E-13-2.37688E-13
 -1      3176 2.00181E+01 6.13270E-02 4.65346E-04-5.99000E-02-1.03747E-13-1.03133E-13
 -1      3177 2.00138E+01 5.22674E-02-2.91663E-04-4.83073E-02-1.22927E-13-1.11374E-13
 -1      3178 2.00090E+01 7.79556E-02 5.03343E-06-6.81389E-02-1.53569E-13-1.30874E-13
 -1      3179 2.00142E+01 4.46963E-02 3.58722E-04-3.85296E-02-9.86321E-15-9.90915E-14
 -1      3180 2.00109E+01 3.76317E-02-2.13364E-04-3.00030E-02 4.42829E-14-5.13972E-14
 -1      3181 2.00091E+01 5.72709E-02-1.19758E-05-4.48748E-02 1.76938E-14 1.40917E-13
 -1      3182 2.00109E+01 3.17629E-02 2.71591E-04-2.28970E-02 7.67351E-14 4.12755E-14
 -1      3183 2.00085E+01 2.63261E-02-1.53436E-04-1.67795E-02 8.61882E-14 5.19774E-14
 -1      3184 2.00084E+01 4.10869E-02-2.17317E-05-2.77066E-02 1.90841E-13 1.37220E-13
 -1      3185 2.00082E+01 2.18199E-02 2.01583E-04-1.17543E-02 6.39917E-14 4.71784E-14
 -1      3186 2.00063E+01 1.76588E-02-1.08582E-04-7.51021E-03 4.87352E-14-5.29207E-15
 -1      3187 2.00073E+01 2.85916E-02-2.53071E-05-1.53339E-02 1.38314E-13 4.35385E-14
 -1      3188 2.00059E+01 1.41936E-02 1.45832E-04-4.09594E-03-1.04025E-13 2.47709E-13
 -1      3189 2.00045E+01 1.09996E-02-6.56555E-05-1.30685E-03-2.14367E-14 1.46383E-13
 -1      3190 2.00060E+01 1.90081E-02-2.12096E-05-6.70162E-03 1.89107E-13 9.37797E-14
 -1      3191 2.00040E+01 8.48801E-03 1.11188E-04 6.87845E-04 7.08241E-14 8.88500E-14
 -1      3192 2.00030E+01 5.95223E-03-3.77427E-05 2.36641E-03 1.08414E-13 5.65926E-14
 -1      3193 2.00033E+01 6.21923E-03-7.06808E-05 2.19812E-03 3.24375E-14 3.52923E-14
 -1      3194 2.00046E+01 1.17162E-02-5.81119E-05-1.16072E-03-6.87769E-14 2.50519E-13
 -1      3195 2.59181E+01 1.43540E+00-7.23536E-02-2.27448E+00-4.15411E-13 3.17666E-13
 -1      3196 2.06402E+01-2.16281E-03 4.70060E-03-1.84795E+00-2.46297E-14-1.32284E-13
 -1      3197 2.04883E+01 1.62696E-01 3.64311E-03-1.78439E+00-1.60858E-14-1.44837E-13
 -1      3198 2.26380E+01-2.05558E+00-3.51937E-04-1.58942E+00-1.14591E-13 1.08557E-13
 -1      3199 2.21364E+01-1.59602E+00 2.99394E-02-1.84149E+00-4.26486E-14 7.78388E-14
 -1      3200 2.40986E+01-2.83260E+00 3.64648E-04-8.17165E-01-9.74802E-14 2.40247E-13
 -1      3201 2.34523E+01-2.49482E+00 3.80695E-02-1.31460E+00-1.27620E-13 1.81958E-13
 -1      3202 2.24388E+01-2.60663E+00-4.24689E-02-2.05321E+00-1.56292E-13 1.57041E-13
 -1      3203 2.58064E+01-2.94371E+00-9.32318E-04 2.54341E-01-5.35657E-14 4.47212E-13
 -1      3204 2.51243E+01-3.23888E+00 5.00711E-03-4.30111E-01-1.32194E-13 3.59681E-13
 -1      3205 2.69926E+01 2.42548E+00-4.82808E-02 2.24590E+00 5.92831E-13 5.16191E-13
 -1      3206 2.69928E+01 6.40432E-01-1.32042E-01 2.46506E+00 4.78312E-13 6.04412E-13
 -1      3207 2.66486E+01-2.79277E+00 5.05780E-03-7.77480E-01-1.05962E-13-4.33993E-13
 -1      3208 2.70275E+01-1.80090E+00-4.04862E-02-1.39350E+00 1.08483E-13-4.77736E-13
 -1      3209 2.32717E+01-2.33615E+00 4.12074E-02 1.28760E+00-2.29785E-13-1.91878E-13
 -1      3210 2.39464E+01-2.70223E+00 1.65704E-02 8.14282E-01-2.44488E-13-2.79916E-13
 -1      3211 2.20076E+01-1.42380E+00 2.85007E-02 1.73186E+00-2.71442E-13-5.87013E-14
 -1      3212 2.24875E+01-1.88249E+00 9.06920E-04 1.51312E+00-2.43969E-13-3.92288E-14
 -1      3213 2.22130E+01-2.41237E+00-4.12010E-02 1.98221E+00-3.24604E-13-1.93363E-13
 -1      3214 2.11984E+01-6.51009E-01 1.53554E-02 1.83506E+00-1.85912E-13-2.68048E-14
 -1      3215 2.15346E+01-1.01801E+00 2.77513E-03 1.76701E+00-2.28818E-13-2.89487E-15
 -1      3216 2.10944E+01-1.35933E+00-2.86604E-02 2.13432E+00-2.75731E-13-1.22084E-13
 -1      3217 2.07229E+01-1.13455E-01 6.95819E-03 1.75267E+00-2.32020E-13-6.29794E-14
 -1      3218 2.09468E+01-3.55769E-01 4.47477E-03 1.77200E+00-1.46675E-13-8.02564E-15
 -1      3219 2.04543E+01-5.28669E-01-1.76948E-02 2.03358E+00-1.73629E-13-1.94851E-14
 -1      3220 2.04600E+01 2.08727E-01 2.24627E-03 1.58352E+00-1.79655E-14-2.17594E-13
 -1      3221 2.06067E+01 7.05387E-02 4.52492E-03 1.65018E+00-1.47421E-13-1.25534E-13
 -1      3222 2.01370E+01 1.67109E-02-9.09870E-03 1.83040E+00-1.73031E-13-3.20937E-14
 -1      3223 2.03185E+01 3.71818E-01-2.77170E-04 1.38050E+00-1.92098E-13-1.05804E-13
 -1      3224 2.04176E+01 3.07026E-01 4.03652E-03 1.46942E+00-7.17686E-14-1.68694E-13
 -1      3225 2.00038E+01 3.27687E-01-3.88855E-03 1.59649E+00-1.19273E-13-1.87772E-14
 -1      3226 2.02407E+01 4.30814E-01-1.47335E-03 1.17181E+00-1.41053E-13 3.46825E-14
 -1      3227 2.03120E+01 4.12501E-01 3.52104E-03 1.26763E+00-1.37573E-13-5.21963E-14
 -1      3228 1.99644E+01 4.74747E-01-1.17989E-03 1.36265E+00-1.39557E-13 5.10769E-14
 -1      3229 2.01940E+01 4.27888E-01-1.91312E-03 9.72871E-01 7.34939E-15-1.08910E-13
 -1      3230 2.02489E+01 4.36364E-01 3.12233E-03 1.06635E+00-1.65584E-14-6.84106E-14
 -1      3231 1.99668E+01 5.17842E-01 6.09599E-05 1.14210E+00-8.40968E-14 2.67977E-14
 -1      3232 2.01618E+01 3.91941E-01-1.94898E-03 7.92011E-01-4.92288E-14-1.23881E-13
 -1      3233 2.02063E+01 4.14082E-01 2.80026E-03 8.77902E-01-1.39942E-14-1.20835E-13
 -1      3234 1.99834E+01 5.00514E-01 5.06791E-04 9.41170E-01 3.42074E-14-1.03203E-13
 -1      3235 2.01361E+01 3.41331E-01-1.78583E-03 6.33153E-01-2.79064E-14-3.50644E-14
 -1      3236 2.01732E+01 3.68971E-01 2.50639E-03 7.08865E-01 1.00548E-14-1.18730E-13
 -1      3237 2.00011E+01 4.51885E-01 5.63832E-04 7.62922E-01-8.58984E-14-2.73936E-13
 -1      3238 2.01138E+01 2.86977E-01-1.54087E-03 4.97393E-01 1.38925E-13-7.85653E-14
 -1      3239 2.01450E+01 3.15353E-01 2.21681E-03 5.62072E-01 2.33643E-14-1.11601E-14
 -1      3240 2.00150E+01 3.90239E-01 4.60975E-04 6.08426E-01-3.59199E-14-2.13424E-13
 -1      3241 2.00939E+01 2.34922E-01-1.27804E-03 3.84024E-01 1.59934E-13-1.57456E-13
 -1      3242 2.01199E+01 2.61467E-01 1.92709E-03 4.37897E-01 2.12115E-13-1.49388E-13
 -1      3243 2.00238E+01 3.26381E-01 3.15336E-04 4.77324E-01 2.07544E-13-1.07745E-14
 -1      3244 2.00762E+01 1.88162E-01-1.02987E-03 2.91252E-01 1.69535E-13 2.38914E-14
 -1      3245 2.00976E+01 2.11664E-01 1.64316E-03 3.35171E-01 9.75737E-14-4.81569E-14
 -1      3246 2.00281E+01 2.66241E-01 1.79988E-04 3.68239E-01 7.84514E-14 4.83348E-14
 -1      3247 2.00607E+01 1.47874E-01-8.10924E-04 2.16722E-01 6.89316E-14 2.94683E-13
 -1      3248 2.00780E+01 1.67921E-01 1.37390E-03 2.51851E-01 1.63058E-13 1.81463E-13
 -1      3249 2.00290E+01 2.12703E-01 7.39955E-05 2.79128E-01-1.31940E-14 1.08591E-13
 -1      3250 2.00474E+01 1.14195E-01-6.25816E-04 1.57873E-01-3.90340E-14 3.17959E-13
 -1      3251 2.00613E+01 1.30827E-01 1.12702E-03 1.85479E-01 9.18135E-14 3.92227E-13
 -1      3252 2.00276E+01 1.66820E-01-6.38145E-08 2.07591E-01 1.60975E-14 2.51820E-13
 -1      3253 2.00364E+01 8.67005E-02-4.73976E-04 1.12173E-01 1.52720E-13 1.57959E-13
 -1      3254 2.00472E+01 1.00193E-01 9.07545E-04 1.33504E-01 9.05495E-15 1.78447E-13
 -1      3255 2.00250E+01 1.28593E-01-4.64976E-05 1.51117E-01 5.85092E-14 2.67623E-13
 -1      3256 2.00274E+01 6.46999E-02-3.52354E-04 7.72697E-02 1.39904E-13 2.14211E-13
 -1      3257 2.00357E+01 7.54381E-02 7.17698E-04 9.34767E-02 1.81229E-13 1.87834E-13
 -1      3258 2.00217E+01 9.74630E-02-7.15904E-05 1.07264E-01 1.84950E-13 9.55144E-14
 -1      3259 2.00202E+01 4.74008E-02-2.57042E-04 5.10659E-02 1.56067E-13 6.23767E-14
 -1      3260 2.00265E+01 5.58031E-02 5.57445E-04 6.31656E-02 1.31852E-13 1.01336E-13
 -1      3261 2.00182E+01 7.25981E-02-8.15109E-05 7.37715E-02 2.00063E-13 4.89953E-14
 -1      3262 2.00146E+01 3.40053E-02-1.84009E-04 3.17560E-02 1.16771E-13 9.69046E-14
 -1      3263 2.00192E+01 4.04835E-02 4.25278E-04 4.06165E-02 2.01179E-13 1.20347E-13
 -1      3264 2.00149E+01 5.30726E-02-8.15027E-05 4.86308E-02 1.05960E-13 7.03432E-14
 -1      3265 2.00102E+01 2.37597E-02-1.29268E-04 1.78324E-02 1.40801E-13-2.32904E-14
 -1      3266 2.00136E+01 2.86974E-02 3.18735E-04 2.41723E-02 1.33747E-13 4.13606E-14
 -1      3267 2.00118E+01 3.79639E-02-7.52702E-05 3.01138E-02 1.48764E-13-7.57853E-14
 -1      3268 2.00070E+01 1.59667E-02-9.11988E-05 8.07003E-03 1.72324E-13-8.03166E-14
 -1      3269 2.00093E+01 1.97189E-02 2.34523E-04 1.24665E-02 2.37948E-13 2.36078E-14
 -1      3270 2.00091E+01 2.64063E-02-6.48211E-05 1.67770E-02 1.32293E-13 2.75360E-13
 -1      3271 2.00045E+01 1.00364E-02-6.23929E-05 1.52287E-03-1.10782E-13-1.89337E-13
 -1      3272 2.00061E+01 1.28899E-02 1.68531E-04 4.42300E-03-6.91024E-14-1.00726E-13
 -1      3273 2.00068E+01 1.76042E-02-5.18344E-05 7.45858E-03 4.71615E-14 3.40736E-13
 -1      3274 2.00028E+01 5.45847E-03-1.23835E-05-2.53179E-03 4.66812E-14-1.03785E-13
 -1      3275 2.00038E+01 7.61793E-03 1.13327E-04-8.25915E-04 6.90715E-15-1.99414E-13
 -1      3276 2.00048E+01 1.08553E-02-4.54906E-05 1.23618E-03-3.87435E-14-1.27659E-13
 -1      3277 2.00022E+01 3.04332E-03 1.57508E-05-3.98524E-03-1.09702E-13-1.19901E-13
 -1      3278 2.00025E+01 4.32141E-03 4.54796E-05-3.39252E-03 4.42751E-14-2.31539E-13
 -1      3279 2.00035E+01 6.57834E-03-2.99773E-05-2.00518E-03 6.96698E-14-1.86614E-13
 -1      3280 2.00028E+01 3.68124E-03-3.81981E-05-3.44100E-03-2.07316E-14-8.21173E-14
 -1      3281 2.00028E+01 1.10787E-02-9.63671E-06 3.39279E-04-2.01861E-13-1.96351E-13
 -1      3282 2.00026E+01 1.13845E-02-4.63063E-05 1.17959E-04-9.90075E-14-1.70799E-13
 -1      3283 2.00025E+01 1.17059E-02-2.97647E-05 1.55651E-04-6.63806E-15-2.16901E-13
 -1      3284 2.00025E+01 1.17024E-02-2.88998E-05-2.16535E-05 1.10846E-13 5.96670E-14
 -1      3285 2.00028E+01 1.59371E-02 9.24599E-05-7.71002E-05-6.26810E-14-1.90065E-13
 -1      3286 2.83617E+01-1.51715E+00-1.22563E-01 1.46521E+00 2.96443E-13 6.73211E-13
 -1      3287 2.76851E+01-8.77562E-02-5.98440E-02 2.16567E+00 3.89203E-13 7.08711E-13
 -1      3288 2.59722E+01-3.77352E+00 4.85636E-02-9.28441E-01 4.88980E-14-6.67563E-13
 -1      3289 2.65440E+01-2.76190E+00-1.12006E-01 4.34128E-01-1.49880E-13-8.75557E-13
 -1      3290 1.94812E+01-3.84639E+00 1.24769E-01-4.90732E+00-4.67022E-13-1.61066E-13
 -1      3291 2.16961E+01-4.54410E+00-5.52666E-02-4.20786E+00-3.53967E-13 1.35357E-13
 -1      3292 9.00849E+00-4.09021E-01 6.22427E-02 2.36691E+00 7.30180E-14-9.81076E-13
 -1      3293 8.33538E+00-2.55882E-02 1.80161E-01 9.01833E-02-1.03697E-13-1.04222E-12
 -1      3294 1.74235E+01-3.25462E+00-5.98971E-04 5.15641E+00 3.71172E-13-3.04298E-13
 -1      3295 1.44658E+01-2.20425E+00 1.76166E-01 5.25674E+00 3.56090E-13-5.38757E-13
 -1      3296 2.78566E+01 3.70926E+00-1.61417E-01 2.11687E+00 8.47725E-13 4.12365E-13
 -1      3297 2.04502E+01 2.88927E-01 4.02209E-03-1.66411E+00-2.51547E-14-1.63341E-13
 -1      3298 2.03560E+01 3.86561E-01 1.54352E-03-1.56534E+00 5.14027E-15-1.51310E-13
 -1      3299 2.00872E+01 2.97952E-01-5.41315E-03-1.79240E+00-1.87214E-14-1.90269E-13
 -1      3300 1.65988E+01-3.28724E+00 1.40633E-01-5.53828E+00 4.31294E-13-3.64847E-14
 -1      3301 1.95837E+01-4.40499E+00-7.48650E-02-5.10751E+00 5.12798E-13-2.27339E-13
 -1      3302 2.00032E+01 9.57657E-03 7.32117E-06 7.95879E-04 2.58536E-14 8.94697E-14
 -1      3303 2.00029E+01 1.01580E-02-5.65793E-05 4.41131E-04-1.31132E-13-2.85372E-14
 -1      3304 2.00032E+01 1.47173E-02 8.09537E-05-2.16683E-04-4.41852E-14-7.34158E-14
 -1      3305 2.00034E+01 7.37920E-03-1.12244E-05 1.68473E-03 5.66702E-14-1.53638E-13
 -1      3306 2.00033E+01 8.20074E-03-5.46916E-05 1.14296E-03-8.20542E-15-1.53732E-13
 -1      3307 2.00037E+01 1.24584E-02 5.54763E-05 6.56409E-05-8.39895E-14-1.68943E-14
 -1      3308 2.04494E+01 1.23816E+00-6.63792E-04 1.48170E-01 3.05143E-13-2.90707E-13
 -1      3309 2.03234E+01 1.58530E+00 1.41611E-03 2.44137E-01 3.08833E-13-3.42398E-13
 -1      3310 2.02613E+01 1.47618E+00 1.33595E-03 2.34017E-02 2.76808E-13-3.46612E-13
 -1      3311 2.04200E+01 1.05963E+00-1.28166E-03-1.18495E-01 2.63116E-13-2.94365E-13
 -1      3312 2.16286E+01-1.17874E+00 2.23625E-03-1.90794E+00-2.43015E-14 4.71471E-15
 -1      3313 2.12712E+01-7.92303E-01 1.70124E-02-1.99979E+00-5.27215E-14-3.12665E-14
 -1      3314 2.12448E+01-1.55486E+00-3.12392E-02-2.28505E+00-9.17502E-14 2.90384E-14
 -1      3315 2.03374E+01 1.42034E+00 1.15946E-03-1.34461E-01-3.29279E-13-2.52856E-13
 -1      3316 2.03276E+01 1.20563E+00-2.55634E-03 1.06341E-01-3.06661E-13-2.46687E-13
 -1      3317 2.02177E+01 1.30779E+00 6.10500E-04 1.99206E-01-2.90669E-13-2.77906E-13
 -1      3318 2.03612E+01 4.63370E-01 3.12418E-03-1.43232E+00 7.18864E-15-1.71901E-13
 -1      3319 2.03066E+01 5.26522E-01 1.10391E-03-1.30887E+00 4.91802E-14-2.02463E-13
 -1      3320 2.00686E+01 5.23348E-01-2.60854E-03-1.52754E+00 1.20838E-14-2.07884E-13
 -1      3321 2.62571E+01-7.26770E-01 8.42154E-03 1.85500E+00-3.31929E-13-6.68333E-13
 -1      3322 2.10005E+01-4.76228E-01 4.62911E-03-1.95169E+00-7.78570E-14-1.13533E-13
 -1      3323 2.07621E+01-2.10119E-01 8.33051E-03-1.94604E+00-5.76277E-14-1.44014E-13
 -1      3324 2.02177E+01-7.60020E-02-1.08290E-02-2.03275E+00-4.58258E-14-1.77522E-13
 -1      3325 2.05548E+01-6.77137E-01-1.97288E-02-2.22249E+00-1.06225E-13-1.73356E-13
 -1      3326 2.03317E+01 5.83072E-01 2.09183E-03-1.16347E+00 9.37514E-14-2.26311E-13
 -1      3327 2.03072E+01 6.39833E-01 1.69538E-03-1.01697E+00 1.20570E-13-2.24663E-13
 -1      3328 2.01059E+01 6.73482E-01-1.43277E-03-1.24147E+00 5.05841E-14-2.31065E-13
 -1      3329 2.64205E+01-2.12593E+00-9.25002E-02-8.54069E-01-8.33595E-14 3.19586E-13
 -1      3330 2.59506E+01-3.32542E+00 7.30091E-02 3.65327E-01 1.32769E-13 2.79658E-13
 -1      3331 1.19278E+01-1.29919E+00 1.05398E-01-4.41785E+00 3.61315E-13 5.05582E-13
 -1      3332 1.39757E+01-2.34955E+00 3.92036E-02-5.36302E+00 4.67328E-13 2.49065E-13
 -1      3333 2.76005E+01-2.34584E+00 3.58696E-02 9.06334E-01 8.68958E-14 6.48995E-13
 -1      3334 2.27714E+01-4.42265E+00 1.26128E-01-3.64897E+00 4.12864E-13-2.23172E-13
 -1      3335 2.45564E+01-4.50346E+00-7.96880E-02-2.38626E+00 1.96954E-13-4.28477E-13
 -1      3336 2.48519E+01-3.77031E+00 3.73396E-02-1.27779E+00 1.86975E-13-5.81479E-13
 -1      3337 1.19420E+01-1.66234E+00 3.97928E-02 4.74265E+00 3.02633E-13-7.67594E-13
 -1      3338 1.06725E+01-7.42241E-01 1.88891E-01 3.66052E+00 2.18364E-13-9.22804E-13
 -1      3339 1.07267E+01-2.19011E-01 7.71418E-02 2.51464E+00 8.17332E-14-8.76271E-13
 -1      3340 1.42006E+01-1.44242E+00 8.01572E-02 4.41220E+00 3.05950E-13-5.96925E-13
 -1      3341 1.94751E+01 2.72277E+00-4.19665E-03 1.10136E-01 6.42313E-14-5.34531E-13
 -1      3342 1.94256E+01 2.77425E+00-4.31628E-03 6.27870E-02 9.67596E-16-5.26004E-13
 -1      3343 1.36874E+01-1.89473E+00 1.23406E-01-4.85449E+00-4.60687E-13-6.00686E-13
 -1      3344 1.65430E+01-3.16781E+00 1.25228E-02-5.38541E+00-4.63976E-13-3.78350E-13
 -1      3345 1.84845E+01-2.92821E+00 9.55159E-02-4.60700E+00-4.44485E-13-2.48954E-13
 -1      3346 2.08116E+01-4.46228E+00-3.05518E-02 4.55621E+00-5.49699E-13 5.33226E-13
 -1      3347 1.80085E+01-3.45312E+00 9.63788E-02 5.05165E+00-5.57124E-13 5.68857E-13
 -1      3348 2.02230E+01 1.85343E+00-4.75659E-03-3.81555E-01-3.47850E-13-3.33500E-13
 -1      3349 2.02846E+01 1.63068E+00 1.01170E-03-2.48151E-01-3.38406E-13-2.85280E-13
 -1      3350 2.00428E+01 2.14673E+00-6.30920E-06-3.36026E-01-3.06803E-13-4.06452E-13
 -1      3351 2.53305E+01 1.19868E-01-3.05450E-02-2.01724E+00-2.68709E-13 2.85213E-13
 -1      3352 2.66234E+01 3.54360E-01-7.92359E-02-2.04861E+00-3.12202E-13 3.75214E-13
 -1      3353 2.68719E+01-1.07981E+00-4.02520E-02-1.59481E+00-2.10630E-13 3.88009E-13
 -1      3354 2.53243E+01-9.83194E-01-4.76815E-02-1.80578E+00-1.07846E-13 3.15097E-13
 -1      3355 2.67489E+01-5.17877E-01-2.09946E-02 2.11809E+00 3.40849E-13 5.59015E-13
 -1      3356 2.55046E+01-1.53313E+00-1.24665E-03 1.31668E+00-1.75365E-13-5.74596E-13
 -1      3357 2.64858E+01-1.86450E+00-7.95025E-02 1.62068E+00 1.70698E-13 5.43524E-13
 -1      3358 1.94030E+01 2.79839E+00-4.22523E-03 4.84915E-02-3.05972E-14-5.05360E-13
 -1      3359 1.94089E+01 2.79789E+00-2.58228E-03 2.01934E-03-8.32106E-14-4.89815E-13
 -1      3360 1.94593E+01 2.56431E+00 7.02944E-03 3.44472E-02-4.06524E-15-4.77909E-13
 -1      3361 1.08629E+01-1.92113E-01 7.90390E-02-2.80149E+00 1.93644E-13 5.91471E-13
 -1      3362 1.13431E+01-7.22189E-01 1.26217E-01-3.78671E+00 2.45814E-13 5.90583E-13
 -1      3363 1.32916E+01-8.64649E-01 6.19053E-02-3.90671E+00 4.01327E-13 9.59996E-14
 -1      3364 8.20473E+00-2.45439E-02 1.66110E-01-3.34938E-01-4.29665E-14 9.55791E-13
 -1      3365 9.45342E+00 2.04633E-01 1.05784E-01-1.03173E+00 1.14792E-13 8.56565E-13
 -1      3366 8.94746E+00 1.08078E-01 7.63598E-02 8.16973E-01-4.93034E-14 9.71473E-13
 -1      3367 2.01684E+01 8.11442E-01-8.24329E-04-9.26125E-01 1.14576E-13-2.52327E-13
 -1      3368 2.03384E+01 7.01979E-01 8.06326E-04-8.54509E-01 1.34137E-13-2.41737E-13
 -1      3369 2.03395E+01 7.77778E-01 2.52273E-03-6.79191E-01 1.50297E-13-2.62412E-13
 -1      3370 2.70961E+01 2.88582E+00-1.13793E-01-2.39466E+00 4.74273E-13-4.01686E-13
 -1      3371 1.67979E+01-2.89177E+00 8.55457E-02 5.10393E+00-4.69423E-13 4.94806E-13
 -1      3372 1.54929E+01-2.12459E+00 6.19084E-02 4.74482E+00-4.13565E-13 4.54144E-13
 -1      3373 1.87992E+01-2.97188E+00 8.25227E-02 4.41916E+00-3.89919E-13 6.20514E-13
 -1      3374 2.45803E+01-3.62720E+00 1.42343E-02 1.29850E+00 1.61565E-13 1.61846E-13
 -1      3375 1.97625E+01 2.49059E+00-1.89916E-03-2.23946E-01-2.74329E-13-4.98445E-13
 -1      3376 1.98910E+01 2.32393E+00-4.72687E-03-2.85357E-01-3.02833E-13-4.65601E-13
 -1      3377 1.99748E+01 2.10751E+00 2.50880E-03-1.92638E-01-2.82923E-13-4.48137E-13
 -1      3378 2.75925E+01-3.75513E-01-5.73152E-02-2.30738E+00 2.71769E-13-5.88217E-13
 -1      3379 2.12407E+01-3.97302E+00 3.39788E-02-3.94389E+00 4.76424E-13-1.80896E-13
 -1      3380 1.29551E+01-1.29201E+00 1.04958E-01-4.37707E+00-4.20414E-13-6.60402E-13
 -1      3381 1.51183E+01-1.44040E+00 6.76433E-02-4.25454E+00-4.44610E-13-4.60125E-13
 -1      3382 1.23049E+01-6.19140E-01 6.34350E-02-3.51853E+00-3.56701E-13-6.52443E-13
 -1      3383 2.52097E+01-2.24991E+00 8.59958E-03 8.16043E-01-9.88445E-15-5.50830E-13
 -1      3384 2.42481E+01-3.75461E+00-5.26678E-02-1.61418E+00-1.78035E-13 3.36685E-13
 -1      3385 2.03774E+01 8.37809E-01-3.43599E-04-5.18883E-01 1.89382E-13-2.86465E-13
 -1      3386 2.03970E+01 9.54108E-01 2.65751E-03-3.05328E-01 2.20000E-13-2.91818E-13
 -1      3387 2.03213E+01 1.14966E+00 6.42161E-04-2.36465E-01 2.36256E-13-2.89070E-13
 -1      3388 2.02473E+01 9.60050E-01-2.76130E-04-5.93848E-01 1.65081E-13-2.83585E-13
 -1      3389 2.70083E+01 1.23572E+00-1.34644E-01-2.53549E+00 4.01658E-13-5.09714E-13
 -1      3390 2.38698E+01-3.72360E+00-4.67992E-02 1.80730E+00-2.89503E-13-2.52250E-13
 -1      3391 2.48423E+01-3.27085E+00 1.41450E-02 6.61631E-01-2.50211E-13-3.40441E-13
 -1      3392 2.55884E+01-3.14960E+00-5.40731E-03 5.89091E-03-1.69797E-13-4.16908E-13
 -1      3393 2.00030E+01 1.01151E-02-5.39933E-05-3.43953E-04 3.42990E-13 2.94084E-13
 -1      3394 2.00033E+01 9.51492E-03 9.44627E-06-7.20863E-04 3.83128E-13 1.32011E-13
 -1      3395 1.95477E+01 2.72669E+00-3.71936E-03-1.18054E-01-1.96138E-13-4.90219E-13
 -1      3396 1.96443E+01 2.62167E+00-3.26332E-03-1.78710E-01-2.40024E-13-5.06848E-13
 -1      3397 1.97160E+01 2.42319E+00 2.04868E-03-1.14421E-01-2.32541E-13-4.82623E-13
 -1      3398 2.00026E+01 1.13695E-02-4.68266E-05 1.31645E-05 3.50341E-13 6.37889E-14
 -1      3399 2.00028E+01 1.10462E-02-8.29250E-06-2.20980E-04 3.85117E-13 1.20338E-13
 -1      3400 2.00033E+01 1.46789E-02 7.89968E-05 3.40152E-04 3.83303E-13 2.16276E-13
 -1      3401 2.00028E+01 1.59250E-02 9.17716E-05 2.18916E-04 2.55519E-13-1.83020E-13
 -1      3402 2.26928E+01-4.18241E+00 5.75542E-02 3.24015E+00-3.89855E-13 2.13753E-13
 -1      3403 2.66941E+01-3.02565E+00-4.34294E-03 2.83395E-01-6.20762E-14 5.59157E-13
 -1      3404 2.33218E+01-4.15502E+00 3.73789E-02-2.87815E+00-3.19231E-13 3.09527E-13
 -1      3405 2.00034E+01 6.82412E-03-3.02310E-05 1.99347E-03-1.27517E-15-1.51453E-13
 -1      3406 2.00034E+01 6.90729E-03-4.08869E-05 1.83588E-03 2.05934E-14-7.40411E-14
 -1      3407 2.00040E+01 1.06737E-02 6.03394E-05 4.53067E-04-7.34298E-14-1.53921E-13
 -1      3408 2.00042E+01 9.62749E-03 9.28114E-05 6.27332E-04-2.10578E-13-3.70930E-14
 -1      3409 2.00038E+01 1.24328E-02 6.27182E-05 1.80117E-05 4.31543E-13 2.26805E-13
 -1      3410 2.00034E+01 8.17935E-03-5.29419E-05-1.08863E-03 3.10312E-13 1.31050E-13
 -1      3411 2.00035E+01 7.42357E-03 1.15627E-05-1.57579E-03 2.71148E-13 2.42832E-13
 -1      3412 1.95992E+01-3.56808E+00 9.47203E-02 4.73878E+00 3.63022E-13-2.11567E-13
 -1      3413 1.78495E+01-2.62045E+00-9.65218E-04 4.54353E+00 3.32238E-13-2.72466E-13
 -1      3414 2.12896E+01-3.70309E+00 3.22420E-02 3.70582E+00 3.38620E-13-2.48915E-14
 -1      3415 1.95503E+01 2.63892E+00-4.94957E-03 1.25192E-01 9.42650E-14-5.20083E-13
 -1      3416 1.95584E+01 2.45888E+00 7.22128E-03 4.53381E-02 7.42285E-14-4.88933E-13
 -1      3417 1.96498E+01 2.53176E+00-4.22990E-03 1.74717E-01 1.51793E-13-5.19761E-13
 -1      3418 1.04136E+01-9.19294E-01 1.55114E-01 3.76170E+00-2.68972E-13 4.85695E-13
 -1      3419 1.01204E+01-1.49067E-01 1.23056E-01 2.51468E+00-2.85830E-13 7.07795E-13
 -1      3420 1.25777E+01-1.01406E+00 6.30760E-02 3.93259E+00-4.07525E-13 2.54186E-13
 -1      3421 1.99071E+01 2.22150E+00-5.22982E-03 2.43621E-01 2.20085E-13-4.56636E-13
 -1      3422 1.97697E+01 2.38882E+00-5.17630E-03 1.94482E-01 1.68622E-13-4.99902E-13
 -1      3423 1.97582E+01 2.23605E+00 7.80643E-03 6.05558E-02 1.48321E-13-4.74180E-13
 -1      3424 2.00234E+01 1.89777E+00 6.23845E-03 7.98325E-02 2.16348E-13-4.03501E-13
 -1      3425 1.62496E+01-2.44114E+00 9.91239E-02-4.89720E+00 5.90659E-13 3.19605E-14
 -1      3426 2.01706E+01 1.71100E+00 8.75088E-04-1.24334E-01-3.15202E-13-3.48380E-13
 -1      3427 2.56779E+01-1.87495E+00-2.20710E-02-1.16405E+00-5.54409E-14 2.72272E-13
 -1      3428 2.00687E+01 1.19916E+00 4.77100E-04 4.62015E-01-2.05935E-13-2.77071E-13
 -1      3429 2.00440E+01 1.05721E+00-1.11912E-03 6.36676E-01-1.64576E-13-2.45349E-13
 -1      3430 1.99980E+01 9.33894E-01 4.34264E-04 7.91243E-01-1.43442E-13-2.14038E-13
 -1      3431 1.99759E+01 8.20947E-01 5.70353E-04 9.42139E-01-1.25788E-13-1.97009E-13
 -1      3432 1.98776E+01 1.13883E+00 1.48951E-03 6.82659E-01-1.42680E-13-2.27745E-13
 -1      3433 1.99198E+01 7.12353E-01 3.15049E-04 1.08685E+00-1.26116E-13-1.56724E-13
 -1      3434 1.99158E+01 6.01328E-01 2.46807E-03 1.21942E+00-1.04311E-13-1.55722E-13
 -1      3435 1.97672E+01 8.91758E-01 2.11053E-04 9.83190E-01-1.08190E-13-1.83906E-13
 -1      3436 1.98669E+01 4.79666E-01 6.61898E-04 1.36105E+00-8.37913E-14-1.20114E-13
 -1      3437 1.98992E+01 3.41978E-01 4.58293E-03 1.47892E+00-3.50135E-14-9.41461E-14
 -1      3438 1.96543E+01 6.51501E-01-1.53552E-03 1.27359E+00-7.70131E-14-1.58499E-13
 -1      3439 1.98818E+01 1.78271E-01 2.06056E-03 1.62316E+00 4.61812E-14-7.55333E-14
 -1      3440 1.99763E+01-1.66341E-02 6.94198E-03 1.72530E+00 7.66652E-14-8.17268E-14
 -1      3441 1.95767E+01 3.57978E-01-4.49875E-03 1.56909E+00 1.50177E-14-1.09674E-13
 -1      3442 2.00278E+01-2.51904E-01 5.64001E-03 1.87298E+00 7.41767E-14-7.49830E-14
 -1      3443 2.02200E+01-5.34927E-01 9.21914E-03 1.94923E+00 7.16934E-14-3.23592E-14
 -1      3444 1.95900E+01-5.52861E-02-9.55104E-03 1.88118E+00 7.77936E-14-1.37811E-13
 -1      3445 2.04009E+01-8.68504E-01 1.31995E-02 2.08922E+00 5.88314E-14-1.22925E-14
 -1      3446 2.07406E+01-1.25931E+00 1.27692E-02 2.10819E+00 6.91613E-14 1.51927E-14
 -1      3447 1.97797E+01-6.60158E-01-1.78480E-02 2.21141E+00 9.36824E-14-1.09944E-13
 -1      3448 2.11402E+01-1.71587E+00 2.28936E-02 2.20265E+00 8.57099E-14 6.76256E-14
 -1      3449 2.16787E+01-2.17385E+00 1.63084E-02 2.08687E+00 1.43134E-13 8.17742E-14
 -1      3450 2.02795E+01-1.50549E+00-2.56000E-02 2.52413E+00 1.15492E-13-3.14627E-14
 -1      3451 2.36907E+01-3.56848E+00 5.02795E-02 1.89220E+00 2.10334E-13 1.40025E-13
 -1      3452 2.21172E+01-2.58198E+00-8.28696E-03-1.86499E+00 4.63102E-13-3.42639E-13
 -1      3453 2.15680E+01-2.04930E+00 4.20017E-02-2.02645E+00 4.36837E-13-2.41297E-13
 -1      3454 2.10105E+01-1.58127E+00 1.43199E-02-2.00556E+00 2.85881E-13-2.62495E-13
 -1      3455 2.05836E+01-1.14675E+00 2.16298E-02-2.00797E+00 1.84165E-13-1.65886E-13
 -1      3456 2.05833E+01-1.93001E+00-4.38495E-02-2.46336E+00 3.67335E-13-2.24500E-13
 -1      3457 2.02977E+01-7.86974E-01 9.41180E-03-1.88594E+00 1.59837E-13-8.05491E-14
 -1      3458 2.00325E+01-4.63152E-01 8.38548E-03-1.82767E+00 2.05367E-13-4.30911E-14
 -1      3459 1.98053E+01-9.62567E-01-2.68711E-02-2.21602E+00 2.33398E-13-9.70560E-14
 -1      3460 1.99154E+01-2.02448E-01 8.62702E-03-1.68070E+00 1.19650E-13-9.22750E-14
 -1      3461 1.97654E+01 5.99204E-03 2.60801E-03-1.59376E+00 1.53295E-13-4.09444E-14
 -1      3462 1.94692E+01-2.67934E-01-1.16335E-02-1.89232E+00 1.59251E-13-9.26928E-15
 -1      3463 1.97400E+01 1.70165E-01 6.18549E-03-1.45595E+00 1.59566E-13-1.02627E-13
 -1      3464 1.96639E+01 2.92000E-01-1.63695E-04-1.36050E+00 8.10798E-14-7.10575E-14
 -1      3465 1.93536E+01 1.69925E-01-5.63078E-03-1.58279E+00 1.22445E-13-1.61917E-13
 -1      3466 1.96862E+01 3.82881E-01 4.37923E-03-1.23801E+00 6.92526E-14-5.19329E-14
 -1      3467 1.96534E+01 4.42620E-01-1.46937E-03-1.14382E+00 9.17775E-14 1.93248E-14
 -1      3468 1.93609E+01 4.22364E-01-2.13186E-03-1.31166E+00 1.09352E-13-1.43495E-13
 -1      3469 1.96971E+01 4.82324E-01 3.10801E-03-1.03729E+00 2.43441E-14-1.04423E-14
 -1      3470 1.96879E+01 5.00545E-01-2.01479E-03-9.48920E-01-1.85996E-15 6.06244E-14
 -1      3471 1.94289E+01 5.44031E-01-2.24232E-04-1.07965E+00 5.51055E-14 4.25311E-14
 -1      3472 1.97382E+01 5.06941E-01 2.27692E-03-8.57143E-01-8.32812E-14-4.21826E-15
 -1      3473 1.97402E+01 4.99299E-01-2.15313E-03-7.76822E-01-1.08708E-13-5.68265E-14
 -1      3474 1.95205E+01 5.78916E-01 7.07750E-04-8.82117E-01-1.19262E-14-8.62729E-14
 -1      3475 1.97890E+01 4.85653E-01 1.75032E-03-6.98329E-01-1.80914E-13-1.30201E-13
 -1      3476 1.97955E+01 4.63350E-01-2.07583E-03-6.27134E-01-1.20214E-13-9.25559E-14
 -1      3477 1.96151E+01 5.59847E-01 1.08523E-03-7.14147E-01-1.64492E-13-5.46054E-14
 -1      3478 1.98390E+01 4.38973E-01 1.40826E-03-5.60615E-01-6.67251E-14-2.36268E-13
 -1      3479 1.98462E+01 4.09664E-01-1.88796E-03-4.98901E-01-9.82209E-14-2.00786E-13
 -1      3480 1.97022E+01 5.10154E-01 1.15957E-03-5.71810E-01-1.74106E-13-2.60647E-13
 -1      3481 1.98830E+01 3.80781E-01 1.16943E-03-4.43178E-01-1.52748E-14-2.23123E-13
 -1      3482 1.98892E+01 3.49447E-01-1.65006E-03-3.90780E-01 6.05988E-14-9.65989E-14
 -1      3483 1.97770E+01 4.45796E-01 1.07876E-03-4.52070E-01-2.15407E-14-3.36202E-13
 -1      3484 1.99190E+01 3.20005E-01 9.86175E-04-3.44721E-01-7.88194E-14-1.11232E-13
 -1      3485 1.99237E+01 2.89699E-01-1.39848E-03-3.01097E-01-8.85508E-14-1.87794E-13
 -1      3486 1.98384E+01 3.77226E-01 9.29222E-04-3.52393E-01-1.09288E-14-3.46365E-13
 -1      3487 1.99471E+01 2.62027E-01 8.33580E-04-2.63572E-01-5.85916E-14-1.12878E-13
 -1      3488 1.99503E+01 2.34454E-01-1.15520E-03-2.27925E-01-5.66058E-14-9.18382E-14
 -1      3489 1.98870E+01 3.10908E-01 7.60057E-04-2.70463E-01 2.24804E-14-2.98221E-13
 -1      3490 1.99681E+01 2.09775E-01 7.00135E-04-1.97812E-01-1.32156E-13-1.35517E-13
 -1      3491 1.99700E+01 1.85735E-01-9.32814E-04-1.69200E-01-1.69726E-13-1.93850E-13
 -1      3492 1.99242E+01 2.50491E-01 5.97559E-04-2.04059E-01-7.36238E-14-3.20452E-13
 -1      3493 1.99832E+01 1.64544E-01 5.81341E-04-1.45406E-01-1.86656E-13-1.57995E-13
 -1      3494 1.99839E+01 1.44254E-01-7.37712E-04-1.22838E-01-1.41383E-13-1.40025E-13
 -1      3495 1.99518E+01 1.97717E-01 4.54283E-04-1.51027E-01-1.84949E-13-1.51719E-13
 -1      3496 1.99934E+01 1.26590E-01 4.75807E-04-1.04332E-01-2.09696E-13-1.70275E-13
 -1      3497 1.99935E+01 1.09909E-01-5.71978E-04-8.68370E-02-1.50410E-13-2.36512E-13
 -1      3498 1.99717E+01 1.53077E-01 3.34755E-04-1.09317E-01-1.74351E-13-7.43521E-14
 -1      3499 2.00000E+01 9.55406E-02 3.83213E-04-7.26784E-02-5.78560E-14-1.23583E-13
 -1      3500 1.99996E+01 8.21291E-02-4.35086E-04-5.93522E-02 8.40758E-14 1.09191E-13
 -1      3501 1.99854E+01 1.16293E-01 2.39202E-04-7.70267E-02-4.10663E-14-4.78972E-14
 -1      3502 2.00039E+01 7.06812E-02 3.03690E-04-4.87054E-02 6.63762E-14 1.51116E-13
 -1      3503 2.00031E+01 6.01005E-02-3.24586E-04-3.87434E-02 1.11653E-13 2.53228E-13
 -1      3504 1.99945E+01 8.66459E-02 1.65091E-04-5.24378E-02 9.69214E-14 1.18367E-13
 -1      3505 2.00058E+01 5.11362E-02 2.37117E-04-3.08888E-02 1.92873E-13 1.05500E-13
 -1      3506 2.00049E+01 4.29127E-02-2.38918E-04-2.35976E-02 2.18494E-13 7.81224E-14
 -1      3507 2.00001E+01 6.31965E-02 1.09768E-04-3.40455E-02 1.18293E-13 5.40041E-14
 -1      3508 2.00063E+01 3.59811E-02 1.82045E-04-1.79378E-02 2.18349E-13 2.50595E-14
 -1      3509 2.00054E+01 2.96664E-02-1.68833E-04-1.27473E-02 2.39639E-13 2.52533E-15
 -1      3510 2.00032E+01 4.49175E-02 6.68561E-05-2.05597E-02 2.17713E-13-2.42899E-13
 -1      3511 2.00060E+01 2.42853E-02 1.21620E-04-8.76580E-03 1.58122E-13 2.26974E-14
 -1      3512 2.00051E+01 1.94981E-02-8.61581E-05-5.26227E-03 1.24474E-13 6.79499E-14
 -1      3513 2.00045E+01 3.08574E-02 4.68154E-05-1.09233E-02 2.77582E-13-7.41486E-14
 -1      3514 1.94294E+01 2.80761E+00-5.11001E-03-2.18057E-02-1.11972E-13-4.88646E-13
 -1      3515 1.94854E+01 2.75870E+00-2.23337E-03-7.41875E-02-1.62497E-13-4.77146E-13
 -1      3516 1.95432E+01 2.58077E+00 3.22869E-03-3.86259E-02-1.57206E-13-4.63032E-13
 -1      3517 1.94639E+01 2.59686E+00 6.26109E-03 1.59654E-02-7.77343E-14-4.49980E-13
 -1      3518 1.98759E+01 7.73111E-01 1.88927E-03-1.26442E+00 3.63640E-14-2.30836E-13
 -1      3519 1.99031E+01 8.41039E-01-7.91788E-04-1.11508E+00 3.66989E-14-2.35138E-13
 -1      3520 2.00981E+01 1.56602E+00-3.81911E-04 9.22654E-02-2.65605E-13-3.58365E-13
 -1      3521 2.00907E+01 1.36690E+00-1.73814E-03 2.92475E-01-2.37988E-13-3.12030E-13
 -1      3522 1.99547E+01 1.44636E+00 2.14934E-03 3.59942E-01-1.94102E-13-3.17767E-13
 -1      3523 2.21430E+01-2.89011E+00 4.47067E-02-2.63311E+00-2.36944E-13 2.09689E-13
 -1      3524 2.13089E+01-2.29879E+00 3.87630E-02-2.80427E+00-1.95384E-13 1.05224E-13
 -1      3525 1.98791E+01-3.25381E+00 7.48196E-02-4.15147E+00 4.95883E-13-1.37211E-13
 -1      3526 2.21341E+01-3.81187E+00-4.20336E-02-3.07279E+00 4.30083E-13-9.14416E-14
 -1      3527 2.17446E+01-3.31380E+00 3.05973E-02 3.04179E+00-3.94089E-13 8.98413E-14
 -1      3528 1.95511E+01 2.68911E-01-6.76122E-04 1.81130E+00-2.43493E-13-3.81091E-14
 -1      3529 1.96685E+01 7.65857E-02 1.04812E-02 1.93272E+00-2.18722E-13 3.44630E-14
 -1      3530 1.95536E+01 5.06358E-01-2.64028E-03 1.52740E+00-2.14658E-13 1.73172E-13
 -1      3531 1.96003E+01 4.12086E-01 6.86184E-03 1.64729E+00-2.25788E-13 1.79417E-14
 -1      3532 1.90819E+01 4.51912E-01-2.09456E-03 1.74064E+00-2.99802E-13-1.33714E-14
 -1      3533 1.96167E+01 6.01632E-01-3.25974E-03 1.27664E+00-1.91228E-13 2.25769E-13
 -1      3534 1.96289E+01 5.70182E-01 4.42072E-03 1.38944E+00-1.86440E-13 2.38155E-13
 -1      3535 1.92108E+01 6.44274E-01 7.38321E-04 1.43667E+00-2.48708E-13 1.15551E-13
 -1      3536 1.96974E+01 6.09657E-01-3.27052E-03 1.05611E+00 2.90467E-14 8.04528E-14
 -1      3537 1.96953E+01 6.15762E-01 3.00419E-03 1.15941E+00-6.41447E-14 1.97052E-13
 -1      3538 1.93615E+01 7.06252E-01 1.89164E-03 1.18502E+00-1.24634E-13 2.47956E-13
 -1      3539 1.97749E+01 5.68595E-01-3.02060E-03 8.63198E-01 7.32394E-14 4.50033E-15
 -1      3540 1.97689E+01 5.95103E-01 2.22324E-03 9.55742E-01 1.31311E-13 1.36534E-13
 -1      3541 1.95050E+01 6.90213E-01 2.17261E-03 9.72573E-01 5.36085E-14 1.84617E-13
 -1      3542 1.98407E+01 5.03497E-01-2.66288E-03 6.96081E-01-6.18387E-14-2.08330E-13
 -1      3543 1.98352E+01 5.39336E-01 1.78878E-03 7.77272E-01-2.71480E-14-1.36490E-13
 -1      3544 1.96291E+01 6.31507E-01 2.03146E-03 7.91273E-01 1.40593E-13 1.87808E-13
 -1      3545 1.98926E+01 4.29963E-01-2.27480E-03 5.53221E-01-2.94278E-15-2.22646E-13
 -1      3546 1.98893E+01 4.68339E-01 1.52459E-03 6.23008E-01-1.11570E-13-3.04322E-13
 -1      3547 1.97304E+01 5.53058E-01 1.72251E-03 6.36422E-01 3.00048E-15-1.97926E-13
 -1      3548 1.99316E+01 3.57170E-01-1.89674E-03 4.32964E-01 7.88211E-14-2.16525E-14
 -1      3549 1.99305E+01 3.94162E-01 1.33306E-03 4.91778E-01 1.07112E-13-1.14881E-13
 -1      3550 1.98098E+01 4.69091E-01 1.37631E-03 5.05065E-01-3.79374E-14-2.17219E-13
 -1      3551 1.99597E+01 2.90098E-01-1.54960E-03 3.33373E-01-6.54369E-14 9.18171E-14
 -1      3552 1.99604E+01 3.23644E-01 1.16816E-03 3.82015E-01 4.05396E-14 4.55580E-14
 -1      3553 1.98701E+01 3.87952E-01 1.05441E-03 3.94932E-01-2.64545E-14-2.12758E-14
 -1      3554 1.99791E+01 2.31079E-01-1.24316E-03 2.52249E-01-7.11376E-14 1.52805E-13
 -1      3555 1.99810E+01 2.60281E-01 1.01269E-03 2.91764E-01-1.47839E-14 9.43517E-14
 -1      3556 1.99147E+01 3.14124E-01 7.81178E-04 3.03900E-01-9.46085E-14-7.77135E-14
 -1      3557 1.99920E+01 1.80831E-01-9.80497E-04 1.87241E-01-3.71724E-14 2.10934E-13
 -1      3558 1.99946E+01 2.05495E-01 8.63365E-04 2.18797E-01-7.34008E-14 7.62749E-14
 -1      3559 1.99469E+01 2.49626E-01 5.61791E-04 2.29808E-01-3.14013E-14 7.01477E-14
 -1      3560 2.00002E+01 1.39135E-01-7.60762E-04 1.35989E-01 1.71033E-14 2.25340E-14
 -1      3561 2.00030E+01 1.59471E-01 7.22307E-04 1.60772E-01 1.05040E-14 9.34531E-14
 -1      3562 1.99694E+01 1.94959E-01 3.92361E-04 1.70454E-01-2.03671E-14 1.56741E-13
 -1      3563 2.00049E+01 1.05266E-01-5.80715E-04 9.62361E-02 2.23667E-13 1.29152E-13
 -1      3564 2.00077E+01 1.21695E-01 5.92727E-04 1.15380E-01 1.30669E-13 1.21162E-13
 -1      3565 1.99848E+01 1.49732E-01 2.65427E-04 1.23664E-01 8.94638E-14-6.27993E-14
 -1      3566 2.00073E+01 7.82625E-02-4.35863E-04 6.59119E-02 1.81883E-13 1.69853E-13
 -1      3567 2.00098E+01 9.12982E-02 4.77081E-04 8.04520E-02 2.60035E-13 1.60164E-13
 -1      3568 1.99948E+01 1.13077E-01 1.73104E-04 8.73756E-02 1.24722E-13 1.28392E-13
 -1      3569 2.00081E+01 5.70848E-02-3.21638E-04 4.31817E-02 9.15354E-14 3.14982E-13
 -1      3570 2.00104E+01 6.72647E-02 3.76810E-04 5.40291E-02 1.34706E-13 2.49297E-13
 -1      3571 2.00009E+01 8.39013E-02 1.07705E-04 5.97014E-02 1.75537E-13 2.89163E-13
 -1      3572 2.00079E+01 4.07068E-02-2.33718E-04 2.64723E-02 3.26637E-14 2.95603E-13
 -1      3573 2.00098E+01 4.85518E-02 2.92662E-04 3.44025E-02 1.02806E-13 2.21275E-13
 -1      3574 2.00043E+01 6.10446E-02 6.18248E-05 3.89677E-02 1.78801E-13 4.21735E-13
 -1      3575 2.00070E+01 2.81805E-02-1.63758E-04 1.44806E-02 1.23121E-14 4.14718E-13
 -1      3576 2.00087E+01 3.41605E-02 2.24413E-04 2.01302E-02 4.45809E-14 3.22106E-13
 -1      3577 2.00058E+01 4.33684E-02 2.98033E-05 2.37416E-02-5.78486E-15 3.02840E-13
 -1      3578 2.00058E+01 1.85575E-02-1.31297E-04 6.17127E-03-1.13033E-13 4.50114E-13
 -1      3579 2.00072E+01 2.31304E-02 1.57232E-04 1.00051E-02-1.09134E-14 4.17046E-13
 -1      3580 2.00060E+01 2.98335E-02 1.69789E-05 1.28150E-02 2.38918E-15 4.36557E-13
 -1      3581 2.00045E+01 1.12882E-02-5.15716E-05 6.02379E-04 1.93965E-13 8.32808E-14
 -1      3582 2.00056E+01 1.47831E-02 1.20661E-04 3.13190E-03 4.81569E-14 3.22097E-13
 -1      3583 2.00055E+01 1.96728E-02 4.23755E-05 5.31613E-03 9.81265E-14 4.58643E-13
 -1      3584 2.00039E+01 1.55964E-02 1.35860E-05-1.26229E-03-2.08351E-13-1.04863E-13
 -1      3585 2.00035E+01 1.68226E-02-9.03582E-05-1.48745E-03-1.42214E-13-1.57691E-14
 -1      3586 2.00023E+01 2.04188E-02-3.30006E-05-5.62332E-04 2.36273E-14-2.85051E-13
 -1      3587 2.00021E+01 2.07029E-02-6.06625E-05-2.66019E-04 2.47316E-14-2.86799E-13
 -1      3588 9.81606E+00 4.99010E-02 1.44926E-01-9.76262E-01-2.13165E-13-9.20888E-13
 -1      3589 2.41770E+01-3.49408E+00 2.40666E-03-1.25412E+00 1.51017E-13-4.88877E-13
 -1      3590 2.49620E+01-3.11746E+00-7.16678E-02-1.31152E-01-2.99413E-15-6.59618E-13
 -1      3591 2.02361E+01 1.32256E+00-3.29498E-06-1.62353E-01 2.27411E-13-3.16528E-13
 -1      3592 2.01382E+01 1.52920E+00-9.43450E-05-9.97420E-02 2.18993E-13-3.63544E-13
 -1      3593 2.01983E+01 1.20552E+00-1.56147E-03-3.55067E-01 1.77740E-13-3.10413E-13
 -1      3594 2.33744E+01-3.30635E+00 3.30737E-02-1.71199E+00 3.64374E-13-3.36885E-13
 -1      3595 1.96917E+01-1.84226E-01 4.23358E-03 2.12617E+00-1.67793E-13 1.62734E-14
 -1      3596 1.99358E+01-5.18027E-01 1.47961E-02 2.23369E+00-1.99140E-13-9.65477E-15
 -1      3597 1.90344E+01 5.35695E-02-8.37524E-03 2.11418E+00-2.13672E-13 3.33431E-14
 -1      3598 1.97261E+01 3.75108E-01 7.06311E-03-1.83995E+00-2.66325E-14-1.84718E-13
 -1      3599 1.96875E+01 5.08520E-01-1.20726E-03-1.70893E+00-5.31720E-16-1.73788E-13
 -1      3600 2.01214E+01-9.34666E-01 1.72861E-02 2.44304E+00-2.84875E-13 3.47611E-14
 -1      3601 2.05623E+01-1.44613E+00 1.87046E-02 2.49482E+00-3.66760E-13-1.29920E-15
 -1      3602 1.91867E+01-6.55841E-01-2.04171E-02 2.56605E+00-2.29525E-13 8.58541E-14
 -1      3603 2.00030E+01 1.86532E-02-6.94409E-06-1.26977E-03-7.69153E-15-9.33385E-14
 -1      3604 2.00026E+01 1.94632E-02-8.21107E-05-1.12837E-03 5.60125E-14-3.46740E-13
 -1      3605 2.00024E+01 2.51509E-02 1.49206E-04-1.48510E-03 9.80930E-14-3.75172E-13
 -1      3606 2.00033E+01 2.23403E-02 7.39096E-05-2.55601E-03-7.17051E-14-2.18506E-13
 -1      3607 1.97771E+01 6.15478E-01 4.10419E-03-1.55259E+00-2.46089E-15-2.23182E-13
 -1      3608 1.97823E+01 6.99115E-01-1.34040E-03-1.41455E+00 2.33561E-14-2.28816E-13
 -1      3609 1.95765E+01 8.64454E-01 1.17983E-03-1.29042E+00 1.17995E-14-2.59219E-13
 -1      3610 1.59256E+01-1.65817E+00 5.04951E-02-4.34169E+00 6.54598E-13 5.57054E-14
 -1      3611 1.78978E+01-2.70415E+00-1.42144E-02-4.56829E+00 5.61821E-13-1.96163E-13
 -1      3612 1.94304E+01-2.53735E+00 5.18538E-02-3.74829E+00 4.93855E-13 1.69198E-14
 -1      3613 2.07594E+01-1.66658E+00 2.13525E-02-2.66451E+00-1.65554E-13 4.23515E-14
 -1      3614 2.02777E+01-1.12931E+00 1.92274E-02-2.63593E+00-1.31490E-13-2.82049E-14
 -1      3615 1.99674E+01-2.00193E+00-2.72855E-02-3.26364E+00-2.30651E-13-2.42861E-14
 -1      3616 2.00033E+01 5.84657E-03-3.90763E-05-2.15831E-03 1.74584E-13 2.77926E-13
 -1      3617 2.00032E+01 5.08265E-03 1.10286E-05-2.71895E-03 2.07276E-14 1.34490E-13
 -1      3618 2.00036E+01 6.55009E-03-2.25688E-06-2.15504E-03 1.62614E-13 4.64698E-14
 -1      3619 2.00038E+01 9.50818E-03-1.22979E-05-9.13911E-04 2.91931E-13 3.77699E-13
 -1      3620 1.84187E+01-2.46009E+00 2.86896E-02-4.21808E+00-3.68823E-13-2.06252E-13
 -1      3621 2.06630E+01-3.32743E+00-4.10009E-02-3.80844E+00-3.47972E-13 6.20528E-14
 -1      3622 2.00099E+01 1.92090E+00-2.65200E-03-1.08038E-01-2.71138E-13-4.40143E-13
 -1      3623 2.00687E+01 1.72725E+00 1.03566E-03 1.39178E-03-2.82397E-13-3.86366E-13
 -1      3624 1.99446E+01 1.78245E+00 9.24393E-04 9.62758E-02-2.17913E-13-3.98480E-13
 -1      3625 1.98731E+01 2.10773E+00 1.13652E-04-7.52976E-02-2.47586E-13-4.66413E-13
 -1      3626 2.29526E+01-2.93614E+00 2.72811E-02 1.71474E+00 2.20949E-13 1.31031E-13
 -1      3627 2.21953E+01-3.67155E+00-3.32280E-02 3.05533E+00 2.65395E-13 1.13885E-13
 -1      3628 2.08070E+01-2.92044E+00 4.70701E-02 3.40126E+00 2.77859E-13-1.62934E-14
 -1      3629 2.22131E+01-2.53266E+00 5.00031E-02 2.06247E+00 1.97769E-13 1.29534E-13
 -1      3630 2.18464E+01-2.62276E+00 4.28342E-02 2.52391E+00-3.87199E-13-3.85018E-14
 -1      3631 2.01250E+01-3.04854E+00-1.59131E-02 3.79600E+00-4.66335E-13 4.98783E-13
 -1      3632 1.89492E+01-2.39900E+00 1.50150E-02 3.86101E+00-3.77489E-13 5.47227E-13
 -1      3633 2.10598E+01-2.02679E+00 3.96938E-02 2.65014E+00-3.91087E-13 2.01683E-14
 -1      3634 1.04378E+01 3.90141E-01 4.95151E-02-6.27051E-02-1.23598E-13-8.43298E-13
 -1      3635 1.08201E+01 1.61993E-01 9.74905E-02-2.00609E+00-2.66500E-13-7.77309E-13
 -1      3636 1.07695E+01 2.56338E-01 1.20812E-01-1.99591E+00 8.81430E-14 6.79026E-13
 -1      3637 1.22577E+01 1.16855E-01 3.87559E-02-2.53772E+00 2.67278E-13 4.13836E-13
 -1      3638 1.08043E+01 4.59553E-01 2.14070E-02-9.94268E-01 8.25347E-14 7.51843E-13
 -1      3639 1.07303E+01 1.80134E-01 1.07424E-01 1.62711E+00-1.67304E-13 6.28775E-13
 -1      3640 1.99862E+01 9.12825E-01 2.59617E-04-9.61179E-01 8.24742E-14-2.45948E-13
 -1      3641 2.00235E+01 9.94148E-01 2.64141E-04-7.94125E-01 1.20945E-13-2.57819E-13
 -1      3642 1.97561E+01 1.01683E+00 1.85424E-03-9.87031E-01 7.09537E-14-2.74278E-13
 -1      3643 1.11270E+01 5.59332E-01 1.49627E-01 1.02612E+00-5.07710E-14-8.14841E-13
 -1      3644 1.18269E+01 6.20265E-01 6.06399E-02 5.05544E-02-1.14768E-13-7.73340E-13
 -1      3645 2.00027E+01 1.94583E-02-7.26983E-05 1.27691E-03 3.44585E-13 1.66671E-13
 -1      3646 2.00031E+01 1.85959E-02-7.16904E-06 1.39593E-03 3.56164E-13 3.00698E-13
 -1      3647 2.11619E+01-2.51588E+00-3.79018E-02 2.71942E+00 2.00985E-13 3.54369E-14
 -1      3648 1.93903E+01 6.83635E-01-2.04108E-04-1.59704E+00 1.65888E-15-2.27404E-13
 -1      3649 1.27538E+01-5.58784E-02 8.87360E-02-2.60669E+00-3.13012E-13-6.69291E-13
 -1      3650 1.94333E+01 2.33977E+00-4.00381E-03 1.30080E-02 2.33315E-14-4.50452E-13
 -1      3651 1.94130E+01 2.36443E+00-3.00759E-03 1.71329E-02-2.51019E-14-4.42959E-13
 -1      3652 1.97886E+01-2.75157E-02 1.10933E-02-2.13494E+00-8.18580E-14-1.63506E-13
 -1      3653 1.96685E+01 1.97498E-01 5.54508E-04-2.01271E+00-3.08866E-14-1.67404E-13
 -1      3654 1.92338E+01 4.02523E-01-3.42201E-03-1.93272E+00-5.34742E-14-1.99481E-13
 -1      3655 2.22352E+01-3.42717E+00 3.15271E-02-2.93476E+00-2.92570E-13 2.19338E-13
 -1      3656 2.00052E+01 1.59095E-02 8.86049E-05-3.11415E-03-1.80757E-14-5.22687E-14
 -1      3657 2.00044E+01 1.24700E-02-2.83628E-05-9.65393E-04-1.29489E-13-1.60166E-14
 -1      3658 2.00043E+01 1.31385E-02-4.08221E-05-1.05805E-03-2.33342E-13-3.07744E-13
 -1      3659 2.00048E+01 2.06140E-02 1.46213E-05-4.92261E-03-1.47567E-14-1.71633E-13
 -1      3660 1.64359E+01-1.73421E+00 5.71043E-02 4.19393E+00-2.53341E-13 4.53675E-13
 -1      3661 1.45024E+01-1.31974E+00 1.16892E-01 4.33070E+00-3.62946E-13 3.18912E-13
 -1      3662 1.35939E+01-6.56374E-01 4.12084E-02 3.59258E+00-2.16743E-13 2.58987E-13
 -1      3663 2.00040E+01 8.15315E-03 4.78427E-05-1.22614E-03 2.24347E-13 1.15040E-13
 -1      3664 2.00020E+01 2.60444E-02 1.37622E-04 8.20945E-05 8.98486E-14-3.96611E-13
 -1      3665 2.00022E+01 2.06931E-02-6.20131E-05 4.18026E-04 1.10951E-13-2.94540E-13
 -1      3666 2.00023E+01 2.03984E-02-3.56321E-05 7.04074E-04 3.34119E-13-3.80710E-13
 -1      3667 1.68675E+01-1.72216E+00 4.18778E-02-4.24124E+00-3.80966E-13-3.65315E-13
 -1      3668 1.91052E+01-1.94684E+00 3.45432E-02-3.62655E+00-3.01613E-13-1.86123E-13
 -1      3669 1.85827E+01-1.28092E+00 6.32688E-03-3.32478E+00-2.50777E-13-2.10892E-13
 -1      3670 1.59641E+01-1.08583E+00 2.13378E-02-3.81891E+00-3.41234E-13-3.98896E-13
 -1      3671 1.96334E+01 2.37617E+00-2.39605E-03-2.46887E-02-1.81582E-13-4.78800E-13
 -1      3672 1.97442E+01 2.24747E+00-2.97383E-03-5.68960E-02-2.13475E-13-4.81226E-13
 -1      3673 1.97895E+01 2.08526E+00 1.42393E-03 2.14953E-02-1.89780E-13-4.54446E-13
 -1      3674 1.99875E+01 1.71958E+00-2.57264E-03-9.68745E-02 1.80667E-13-3.83181E-13
 -1      3675 1.97498E+01-1.72742E+00-2.58005E-02 3.04713E+00-3.79483E-13 2.29207E-13
 -1      3676 2.00044E+01 1.14678E-02 9.08130E-06 3.26616E-04 1.82388E-13 2.95031E-13
 -1      3677 1.93387E+01-8.39316E-01-2.05593E-02-2.77697E+00-1.88261E-13-9.09841E-14
 -1      3678 2.00744E+01-6.82742E-01 1.60394E-02-2.42841E+00-1.36488E-13-1.13243E-13
 -1      3679 1.98137E+01-3.19225E-01 5.71023E-03-2.32999E+00-1.60188E-13-1.64076E-13
 -1      3680 1.18671E+01-1.17534E-02 7.07821E-03 2.37466E+00 9.57333E-14-7.48991E-13
 -1      3681 2.00035E+01 1.68384E-02-9.50604E-05 1.49072E-03 3.65692E-13 3.32315E-13
 -1      3682 2.00039E+01 1.57518E-02 2.07892E-05 1.28264E-03 2.37610E-13 3.96447E-13
 -1      3683 2.00035E+01 2.24387E-02 1.54401E-04 2.57491E-03 3.11580E-13 3.05115E-13
 -1      3684 2.00042E+01 1.36384E-02-4.86508E-05-1.10442E-03-1.73004E-13-1.63811E-13
 -1      3685 1.85037E+01-2.27132E+00-4.16163E-02 3.94697E+00 3.05297E-13-1.99622E-13
 -1      3686 1.70603E+01-1.64002E+00 9.79732E-02 4.15579E+00 3.07422E-13-3.22388E-13
 -1      3687 1.52073E+01-1.21850E+00 5.56058E-02-4.13075E+00 5.73798E-13-1.04083E-14
 -1      3688 1.67931E+01-1.40614E+00 2.30074E-03-3.84538E+00 4.74659E-13 6.43444E-14
 -1      3689 1.44171E+01-6.76993E-01 3.07254E-02-3.57039E+00 4.28609E-13-8.12475E-14
 -1      3690 2.21818E+01-3.30822E+00-8.09795E-03-2.61032E+00 4.23659E-13-2.12226E-13
 -1      3691 1.53782E+01-1.24196E+00-1.02899E-02 3.97822E+00 2.86733E-13-4.60659E-13
 -1      3692 1.37929E+01-3.89687E-01 1.41701E-01 3.51407E+00 2.32803E-13-6.15820E-13
 -1      3693 1.63247E+01-8.86437E-01 1.44227E-02 3.49138E+00 2.16195E-13-3.95167E-13
 -1      3694 1.95619E+01 2.20625E+00-3.61538E-03-2.86728E-02 9.83989E-14-4.58601E-13
 -1      3695 1.94840E+01 2.28830E+00-4.03037E-03-2.55065E-02 5.25381E-14-4.64852E-13
 -1      3696 1.94589E+01 2.14177E+00 7.56872E-03-5.27554E-02 4.51728E-14-4.12807E-13
 -1      3697 2.00042E+01 1.86481E-02 2.80901E-05-2.82966E-03-1.79659E-13-1.51629E-13
 -1      3698 2.00024E+01 2.51362E-02 1.37876E-04 1.63685E-03 2.47677E-13-1.13680E-13
 -1      3699 1.96146E+01 1.07017E+00-2.09475E-03 8.40191E-01-8.17008E-14-2.11489E-13
 -1      3700 1.95581E+01 9.57729E-01 1.29903E-03 9.84402E-01-7.64575E-14-1.91341E-13
 -1      3701 1.94423E+01 8.43466E-01-2.63177E-03 1.12743E+00-6.62508E-14-1.83197E-13
 -1      3702 1.93961E+01 7.25990E-01 3.79004E-03 1.27163E+00-4.44845E-14-1.73390E-13
 -1      3703 1.93010E+01 1.02916E+00 2.44952E-03 9.81983E-01-6.16166E-14-1.80200E-13
 -1      3704 1.92699E+01 5.90410E-01-3.14232E-03 1.43282E+00-9.54930E-15-1.56000E-13
 -1      3705 1.92583E+01 4.38137E-01 7.23673E-03 1.58583E+00 3.35857E-14-1.70971E-13
 -1      3706 1.90605E+01 7.92074E-01 1.21491E-03 1.28292E+00-1.51796E-15-1.82524E-13
 -1      3707 1.91426E+01 2.47530E-01-3.10383E-03 1.78119E+00 7.81479E-14-1.85176E-13
 -1      3708 1.91988E+01 2.30792E-02 1.02200E-02 1.94996E+00 1.01520E-13-1.80307E-13
 -1      3709 1.88175E+01 4.90876E-01-1.38763E-03 1.64090E+00 4.45690E-14-2.17148E-13
 -1      3710 1.91392E+01-2.50223E-01 2.90739E-03 2.18644E+00 1.18328E-13-1.80676E-13
 -1      3711 1.93046E+01-5.93819E-01 1.30056E-02 2.37456E+00 1.00027E-13-1.79718E-13
 -1      3712 1.86395E+01 4.64485E-02-2.46483E-03 2.09877E+00 1.09662E-13-2.43958E-13
 -1      3713 1.90713E+01-1.71983E+00 3.17349E-02 3.36229E+00-3.80756E-13 3.76685E-13
 -1      3714 1.76666E+01-1.81352E+00 2.00722E-02 3.96992E+00-2.76900E-13 5.25316E-13
 -1      3715 1.66494E+01-1.06853E+00 5.34724E-02 3.67038E+00-2.29585E-13 3.37059E-13
 -1      3716 1.86344E+01-1.09714E+00 1.73260E-02 3.08438E+00-2.65646E-13 3.37902E-13
 -1      3717 1.91176E+01 7.98571E-01-5.12388E-03 1.03329E+00-1.11882E-13 1.64461E-14
 -1      3718 1.90474E+01 8.04566E-01 2.59345E-03 1.14228E+00-2.08482E-13 7.47963E-14
 -1      3719 2.00042E+01 2.25574E-02-2.08236E-05-4.95364E-03-2.15541E-14-1.40396E-13
 -1      3720 1.93508E+01-8.96716E-01 2.18346E-02-2.43594E+00 2.96536E-13-7.13856E-14
 -1      3721 1.90185E+01-4.99517E-01 4.58923E-03-2.27654E+00 2.04947E-13-3.49210E-14
 -1      3722 1.90192E+01-1.82020E-01 1.39374E-02-2.00967E+00 1.37408E-13-4.63202E-14
 -1      3723 1.88971E+01 6.29063E-02-2.67600E-03-1.83773E+00 1.96828E-13-5.35187E-15
 -1      3724 1.83754E+01-1.72698E-01-3.93504E-03-2.22825E+00 2.18472E-13-4.25816E-14
 -1      3725 1.89769E+01 2.61582E-01 9.46897E-03-1.62925E+00 9.73310E-14-3.65367E-14
 -1      3726 1.89421E+01 4.03864E-01-3.98154E-03-1.48097E+00 6.29115E-14-4.47230E-14
 -1      3727 1.84623E+01 3.10395E-01-2.43828E-03-1.73056E+00 1.04389E-13-1.21204E-14
 -1      3728 1.90496E+01 5.13450E-01 5.98109E-03-1.31920E+00 1.69109E-13-2.02040E-13
 -1      3729 1.90630E+01 5.83447E-01-4.07810E-03-1.19483E+00 1.43909E-13-1.63680E-13
 -1      3730 1.86483E+01 5.82965E-01 5.53069E-04-1.35613E+00 1.13110E-13-1.49914E-13
 -1      3731 1.91746E+01 6.32004E-01 3.71992E-03-1.06846E+00 4.95503E-14-1.29143E-13
 -1      3732 1.92106E+01 6.53618E-01-3.75806E-03-9.64216E-01 7.97077E-14-9.00728E-14
 -1      3733 1.88607E+01 7.11271E-01 1.93925E-03-1.07125E+00 1.27906E-13-2.02599E-13
 -1      3734 1.93152E+01 6.62157E-01 2.31817E-03-8.63902E-01 7.76470E-14-2.16616E-13
 -1      3735 1.93587E+01 6.53130E-01-3.32054E-03-7.76034E-01 1.99332E-14-1.13708E-13
 -1      3736 1.90687E+01 7.44451E-01 2.39920E-03-8.50698E-01 3.59327E-14-1.62684E-13
 -1      3737 1.94513E+01 6.36984E-01 1.49855E-03-6.95131E-01-1.29511E-13-5.10872E-14
 -1      3738 1.94943E+01 6.09982E-01-2.87808E-03-6.20861E-01-1.72472E-13-7.45835E-14
 -1      3739 1.92578E+01 7.17853E-01 2.42945E-03-6.76211E-01-3.02609E-14-2.76615E-13
 -1      3740 1.95733E+01 5.80044E-01 1.02815E-03-5.54973E-01-2.04642E-13-1.61744E-13
 -1      3741 1.96117E+01 5.43921E-01-2.46178E-03-4.92354E-01-2.28424E-13-2.04197E-13
 -1      3742 1.94220E+01 6.56319E-01 2.25370E-03-5.35764E-01-2.53699E-13-1.53009E-13
 -1      3743 1.96772E+01 5.07684E-01 7.55911E-04-4.38542E-01-1.17736E-13-1.74058E-13
 -1      3744 1.97094E+01 4.68420E-01-2.07859E-03-3.86127E-01 2.51897E-14-1.73853E-13
 -1      3745 1.95598E+01 5.77222E-01 1.98355E-03-4.21614E-01-1.79998E-13-1.78535E-13
 -1      3746 1.97624E+01 4.30820E-01 5.91648E-04-3.42305E-01-1.21953E-14-2.73048E-13
 -1      3747 1.97883E+01 3.92247E-01-1.73052E-03-2.98897E-01-4.28712E-14-2.71703E-13
 -1      3748 1.96723E+01 4.92384E-01 1.68133E-03-3.28611E-01-9.84802E-14-4.29472E-14
 -1      3749 1.98302E+01 3.56346E-01 4.84156E-04-2.63460E-01-1.83900E-14-2.90085E-13
 -1      3750 1.98502E+01 3.20737E-01-1.41906E-03-2.27968E-01 3.86834E-14-3.01674E-13
 -1      3751 1.97619E+01 4.09459E-01 1.38308E-03-2.53082E-01-5.25624E-14-9.69879E-14
 -1      3752 1.98826E+01 2.88253E-01 4.05849E-04-1.99594E-01-3.91070E-14-3.00732E-13
 -1      3753 1.98975E+01 2.56780E-01-1.14528E-03-1.70979E-01-1.45524E-13-3.05629E-13
 -1      3754 1.98317E+01 3.33027E-01 1.10891E-03-1.92190E-01-6.32757E-14-3.16083E-13
 -1      3755 1.99220E+01 2.28513E-01 3.42824E-04-1.48528E-01-1.86205E-13-2.39729E-13
 -1      3756 1.99328E+01 2.01606E-01-9.09279E-04-1.25795E-01-1.48996E-13-2.34017E-13
 -1      3757 1.98848E+01 2.65473E-01 8.68706E-04-1.43589E-01-9.62102E-14-2.45906E-13
 -1      3758 1.99509E+01 1.77745E-01 2.88684E-04-1.08262E-01-4.81144E-14-2.22971E-13
 -1      3759 1.99585E+01 1.55352E-01-7.10149E-04-9.04772E-02-9.53042E-14-1.51691E-13
 -1      3760 1.99243E+01 2.07666E-01 6.65715E-04-1.05256E-01-5.32172E-14-2.91762E-13
 -1      3761 1.99715E+01 1.35711E-01 2.40673E-04-7.69802E-02-8.94101E-14-1.14607E-13
 -1      3762 1.99765E+01 1.17499E-01-5.45171E-04-6.32870E-02 1.36998E-14-1.05273E-13
 -1      3763 1.99529E+01 1.59491E-01 4.98908E-04-7.54202E-02 5.90719E-14-1.71450E-13
 -1      3764 1.99855E+01 1.01677E-01 1.97796E-04-5.30549E-02 6.55060E-14-1.62269E-14
 -1      3765 1.99886E+01 8.71541E-02-4.11381E-04-4.26878E-02 1.19702E-13-7.63996E-14
 -1      3766 1.99730E+01 1.20247E-01 3.66621E-04-5.25335E-02 6.94401E-14-1.25427E-13
 -1      3767 1.99947E+01 7.46397E-02 1.61361E-04-3.50613E-02 6.08171E-14 1.00938E-15
 -1      3768 1.99964E+01 6.32458E-02-3.07751E-04-2.73578E-02 3.30170E-14-1.04789E-13
 -1      3769 1.99865E+01 8.88873E-02 2.61277E-04-3.52476E-02 9.61185E-14-1.07473E-13
 -1      3770 2.00002E+01 5.35202E-02 1.39089E-04-2.17954E-02 1.28339E-13-9.56414E-14
 -1      3771 2.00009E+01 4.46655E-02-2.36256E-04-1.61850E-02 3.09837E-13-1.30179E-13
 -1      3772 1.99952E+01 6.42184E-02 1.79619E-04-2.24235E-02 5.79032E-14 1.94836E-14
 -1      3773 2.00031E+01 3.71552E-02 1.11652E-04-1.22284E-02 3.33370E-13-1.56298E-13
 -1      3774 2.00033E+01 3.04047E-02-1.04238E-04-8.22480E-03 2.21887E-13-2.19686E-13
 -1      3775 2.00002E+01 4.51271E-02 1.06005E-04-1.31276E-02 2.48179E-13-9.48432E-14
 -1      3776 2.01006E+01 1.04454E+00-1.16345E-03-6.65327E-01 1.37247E-13-2.81692E-13
 -1      3777 2.01472E+01 1.12401E+00 1.99335E-04-5.02131E-01 1.53259E-13-2.93022E-13
 -1      3778 2.00559E+01 1.29607E+00 1.24294E-03-4.33140E-01 1.44919E-13-3.27536E-13
 -1      3779 1.99230E+01 1.15527E+00 2.97362E-03-7.06117E-01 1.16853E-13-2.86736E-13
 -1      3780 1.90185E+01 7.79706E-01 5.04307E-03-1.55016E+00-1.09050E-14-2.39542E-13
 -1      3781 1.91017E+01 8.70491E-01-5.10429E-03-1.39660E+00-2.38794E-14-2.79339E-13
 -1      3782 1.98400E+01 1.66162E+00-1.36591E-03 2.50985E-01-1.45655E-13-3.80694E-13
 -1      3783 1.98139E+01 1.48062E+00-1.63680E-03 4.12795E-01-1.35989E-13-3.35928E-13
 -1      3784 1.25897E+01 7.03526E-01-3.18784E-02 2.76531E-01-7.12022E-14-7.01737E-13
 -1      3785 1.24930E+01 7.58731E-01 7.51626E-02-7.79877E-01-1.50345E-13-7.43371E-13
 -1      3786 1.97565E+01 1.32557E+00-1.58433E-03 5.51797E-01-1.23925E-13-2.70610E-13
 -1      3787 1.97068E+01 1.19139E+00-6.04496E-04 7.03630E-01-9.23442E-14-2.47333E-13
 -1      3788 1.95094E+01 1.26184E+00 3.18117E-03 7.07650E-01-6.08570E-14-2.41691E-13
 -1      3789 1.88813E+01 7.85628E-01-6.27935E-03 1.26434E+00-2.59811E-13 3.79111E-14
 -1      3790 1.88164E+01 7.48349E-01 4.87141E-03 1.39560E+00-2.63512E-13 3.15088E-14
 -1      3791 1.86762E+01 9.04901E-01 4.92047E-03 1.10083E+00-2.16654E-13-8.89574E-14
 -1      3792 1.94184E+01 2.18368E+00 7.51952E-03 4.19463E-02-2.84944E-14-3.93345E-13
 -1      3793 1.94188E+01 2.35216E+00-5.35973E-03 5.31467E-02-4.41737E-14-4.14225E-13
 -1      3794 1.86252E+01 6.71220E-01-7.46322E-03 1.55514E+00-2.66710E-13 6.44409E-14
 -1      3795 1.85892E+01 5.63758E-01 9.29280E-03 1.71813E+00-2.55606E-13 1.34926E-13
 -1      3796 1.83333E+01 8.45618E-01 5.11732E-03 1.36834E+00-2.45560E-13 6.88407E-14
 -1      3797 1.93211E+01 7.51913E-01-4.19840E-03 8.43225E-01 3.10938E-14 8.31345E-14
 -1      3798 1.92567E+01 7.82661E-01 1.45145E-03 9.35763E-01-1.70601E-14 8.10714E-14
 -1      3799 1.89687E+01 8.82004E-01 4.40242E-03 8.94404E-01-1.35385E-13-3.21203E-14
 -1      3800 1.94891E+01 6.73922E-01-3.46099E-03 6.83523E-01 6.23352E-14 2.21934E-13
 -1      3801 1.94349E+01 7.17025E-01 9.14015E-04 7.62832E-01 1.06066E-13 1.85845E-13
 -1      3802 1.92106E+01 8.11933E-01 3.74568E-03 7.27714E-01-1.91642E-14 2.73311E-14
 -1      3803 1.96235E+01 5.83007E-01-2.85869E-03 5.48342E-01 7.50537E-14 2.51914E-14
 -1      3804 1.95803E+01 6.30456E-01 6.86408E-04 6.16192E-01 1.35367E-13 2.22122E-13
 -1      3805 1.94061E+01 7.18226E-01 3.08672E-03 5.89084E-01 9.73702E-14 1.61610E-13
 -1      3806 1.97285E+01 4.90677E-01-2.35324E-03 4.34272E-01-5.54154E-14 4.31203E-14
 -1      3807 1.96954E+01 5.37524E-01 5.96535E-04 4.91789E-01-1.46936E-14-2.49012E-14
 -1      3808 1.95612E+01 6.16329E-01 2.48402E-03 4.72326E-01 1.43191E-13 2.85193E-13
 -1      3809 1.98089E+01 4.03695E-01-1.92223E-03 3.38935E-01-1.66350E-14 7.02793E-14
 -1      3810 1.97844E+01 4.47091E-01 5.55389E-04 3.87049E-01-2.47114E-14 3.39617E-15
 -1      3811 1.96820E+01 5.15994E-01 1.95987E-03 3.73997E-01-4.46413E-14 2.18635E-13
 -1      3812 1.98692E+01 3.25640E-01-1.55341E-03 2.60296E-01 5.92895E-15-8.73275E-14
 -1      3813 1.98516E+01 3.64143E-01 5.22428E-04 2.99937E-01 2.81296E-14-1.96079E-14
 -1      3814 1.97745E+01 4.22970E-01 1.51927E-03 2.91853E-01 5.39488E-14 4.57520E-14
 -1      3815 1.99136E+01 2.58005E-01-1.23956E-03 1.96391E-01-9.96806E-14 1.21097E-14
 -1      3816 1.99013E+01 2.91089E-01 4.82945E-04 2.28531E-01-9.70190E-14-1.70539E-14
 -1      3817 1.98442E+01 3.40247E-01 1.15839E-03 2.24080E-01-7.39878E-14 6.51305E-15
 -1      3818 1.99456E+01 2.00980E-01-9.75446E-04 1.45268E-01 2.32936E-14 6.93442E-14
 -1      3819 1.99373E+01 2.28690E-01 4.34685E-04 1.70905E-01 2.70001E-14 1.00273E-13
 -1      3820 1.98958E+01 2.68969E-01 8.69040E-04 1.68980E-01-9.72840E-14 2.69580E-14
 -1      3821 1.99680E+01 1.53975E-01-7.56561E-04 1.05023E-01 8.50400E-14 1.17010E-14
 -1      3822 1.99627E+01 1.76689E-01 3.80507E-04 1.25141E-01 4.08691E-14 4.34558E-14
 -1      3823 1.99332E+01 2.09096E-01 6.41226E-04 1.24880E-01 7.37105E-15 9.92831E-14
 -1      3824 1.99833E+01 1.15983E-01-5.77784E-04 7.38615E-02 7.61618E-14 1.61619E-13
 -1      3825 1.99801E+01 1.34252E-01 3.24454E-04 8.93874E-02 6.68174E-14 9.60598E-14
 -1      3826 1.99597E+01 1.59875E-01 4.64520E-04 9.01551E-02 2.59493E-14 1.89059E-13
 -1      3827 1.99934E+01 8.58132E-02-4.33462E-04 5.01447E-02 1.30348E-13 1.65077E-13
 -1      3828 1.99916E+01 1.00256E-01 2.69824E-04 6.19209E-02 1.61832E-13 8.54330E-14
 -1      3829 1.99779E+01 1.20178E-01 3.31449E-04 6.32704E-02 8.69635E-14 2.18214E-13
 -1      3830 1.99995E+01 6.22193E-02-3.21568E-04 3.24157E-02 1.40152E-13 2.91016E-13
 -1      3831 1.99988E+01 7.34747E-02 2.19693E-04 4.11858E-02 1.45480E-13 2.66222E-13
 -1      3832 1.99900E+01 8.87074E-02 2.31695E-04 4.28192E-02 9.08677E-14 1.59344E-13
 -1      3833 2.00029E+01 4.39888E-02-2.33934E-04 1.94191E-02-6.93180E-14 4.49008E-13
 -1      3834 2.00029E+01 5.26841E-02 1.82449E-04 2.58290E-02 1.96986E-14 4.40379E-13
 -1      3835 1.99975E+01 6.41005E-02 1.46936E-04 2.75404E-02-6.40328E-14 5.48769E-13
 -1      3836 2.00043E+01 3.00486E-02-1.70788E-04 1.00425E-02 1.25074E-14 6.25598E-13
 -1      3837 2.00048E+01 3.67370E-02 1.65445E-04 1.47372E-02 3.06204E-14 6.17826E-13
 -1      3838 2.00017E+01 4.50256E-02 4.90877E-05 1.63975E-02-9.30131E-14 7.28794E-13
 -1      3839 1.92854E+01 9.52461E-01 1.75388E-03-1.25048E+00-9.20889E-15-2.75541E-13
 -1      3840 1.93766E+01 1.02395E+00-3.58973E-03-1.10467E+00 2.49248E-14-2.81585E-13
 -1      3841 1.89312E+01 1.04781E+00 5.30102E-03-1.20406E+00-2.12879E-14-3.11990E-13
 -1      3842 1.28911E+01 3.20252E-01 1.73893E-02-2.00033E+00-2.56205E-13-6.44512E-13
 -1      3843 1.43282E+01-3.70656E-01 2.70693E-02-3.31553E+00-3.29244E-13-5.41237E-13
 -1      3844 1.60881E+01-5.52248E-01 5.50799E-02-3.28228E+00-2.81724E-13-4.51731E-13
 -1      3845 1.38553E+01 5.70417E-01 5.41335E-02-1.62140E+00-1.93554E-13-5.95544E-13
 -1      3846 1.82292E+01-1.22383E-01-2.27621E-03 2.45462E+00-1.92723E-13 2.51796E-13
 -1      3847 1.83992E+01-5.26048E-01 2.30167E-02 2.72665E+00-2.00659E-13 3.10417E-13
 -1      3848 1.83821E+01 3.95067E-01-7.89359E-03 1.93743E+00-2.34720E-13 1.89219E-13
 -1      3849 1.84213E+01 1.75450E-01 1.65279E-02 2.14546E+00-1.74054E-13 1.97027E-13
 -1      3850 1.75505E+01 2.46523E-01 1.25840E-03 2.25824E+00-1.55932E-13 2.54501E-13
 -1      3851 2.00044E+01 1.30322E-02-3.59591E-05 9.78196E-04 2.34604E-13 4.49517E-13
 -1      3852 1.97903E+01 1.95808E+00-2.45792E-03-6.32014E-02 1.59193E-13-4.53558E-13
 -1      3853 1.96638E+01 2.09586E+00-4.45171E-03-6.27163E-02 1.12143E-13-4.69409E-13
 -1      3854 1.96130E+01 1.98079E+00 6.64249E-03-1.44001E-01 9.76124E-14-4.38383E-13
 -1      3855 1.97321E+01-2.20088E+00 1.86093E-02 3.34570E+00 2.71652E-13-9.58394E-14
 -1      3856 1.35024E+01 1.74996E-01 3.40112E-02 2.27735E+00 9.60499E-14-6.12579E-13
 -1      3857 1.93373E+01-1.73136E+00 2.00689E-02 3.21809E+00 2.28421E-13-1.25019E-13
 -1      3858 1.99090E+01 1.63501E+00 3.27702E-03-2.31088E-01 1.53621E-13-3.84051E-13
 -1      3859 1.18966E+01 2.24125E-01 1.54219E-02 2.15279E+00-2.25946E-13 4.38614E-13
 -1      3860 1.10518E+01 6.72786E-01 1.04336E-01 6.23175E-01-3.93604E-14 6.19012E-13
 -1      3861 2.00030E+01 2.82958E-02 2.38767E-05-5.93729E-03 2.38209E-14-2.89884E-13
 -1      3862 2.00043E+01 1.79081E-02-3.92365E-05 2.56064E-03 1.13118E-13 5.19052E-13
 -1      3863 1.95261E+01 1.09749E+00-3.63940E-04-9.67753E-01 3.58668E-14-2.97067E-13
 -1      3864 1.96126E+01 1.17631E+00-2.10280E-03-8.18622E-01 5.98290E-14-3.05063E-13
 -1      3865 1.92581E+01 1.19344E+00 4.88047E-03-9.32027E-01 2.13869E-14-2.92467E-13
 -1      3866 1.98485E+01 1.52605E+00-1.63731E-03-3.72320E-01 1.11005E-13-3.79249E-13
 -1      3867 1.75004E+01-6.25374E-01-2.40561E-02 3.02911E+00-2.30554E-13 3.27577E-13
 -1      3868 1.93690E+01-1.01039E+00 6.62168E-03 2.65386E+00 1.21076E-13-1.22185E-13
 -1      3869 1.97346E+01-1.49843E+00 1.38352E-02 2.84226E+00 1.87667E-13-8.81821E-14
 -1      3870 1.91758E+01-6.98042E-02-1.01188E-02-2.32162E+00-1.00936E-13-1.59382E-13
 -1      3871 1.91351E+01-1.62403E+00 1.58195E-02-3.12386E+00 4.25786E-13-2.57344E-14
 -1      3872 1.80558E+01-1.13992E+00 3.21395E-03-3.20765E+00 3.96831E-13 6.98851E-14
 -1      3873 1.87601E+01 5.07726E-01 1.01818E-02-1.90363E+00-6.57104E-14-2.15007E-13
 -1      3874 1.88063E+01 6.56663E-01-6.52164E-03-1.72736E+00-1.14909E-14-2.17100E-13
 -1      3875 1.85448E+01 8.70907E-01 5.27537E-03-1.51596E+00-3.89541E-14-2.78990E-13
 -1      3876 1.96640E+01-2.24173E+00 2.80118E-02-3.35606E+00 4.93786E-13-2.89473E-14
 -1      3877 2.00049E+01 2.26675E-02 7.13300E-05 5.50345E-03 5.59922E-14 5.28829E-13
 -1      3878 1.94557E+01 2.37359E+00 4.23810E-04 4.54508E-02-8.53166E-14-4.21987E-13
 -1      3879 1.96617E+01 1.54333E+00 4.09546E-03 4.40408E-01-8.14535E-14-3.58217E-13
 -1      3880 1.82463E+01-1.21140E+00 1.97737E-02 3.31985E+00 2.17766E-13-2.53038E-13
 -1      3881 1.94003E+01 1.95463E+00-2.78550E-03-1.24232E-01 6.01750E-14-3.68260E-13
 -1      3882 1.93479E+01 2.00267E+00-3.83915E-03-6.70419E-02 9.90367E-15-3.73705E-13
 -1      3883 1.20380E+01 7.01764E-01 7.53015E-02-2.85639E-01 2.80041E-14 5.98951E-13
 -1      3884 1.93272E+01 2.02067E+00-4.54657E-03 2.61032E-02-1.36606E-14-3.87169E-13
 -1      3885 1.93444E+01 2.01802E+00-6.19541E-04 8.12889E-02-4.44059E-14-3.74301E-13
 -1      3886 1.92921E+01 1.88237E+00 6.87768E-03-3.75963E-02-1.03279E-14-3.58859E-13
 -1      3887 1.79491E+01 6.53796E-01 4.86736E-03 1.73447E+00-1.69850E-13 1.74324E-13
 -1      3888 2.00034E+01 2.84468E-02-2.36176E-05 6.88143E-03 1.11732E-13 6.77446E-13
 -1      3889 2.00009E+01 3.09700E-02-1.08136E-04 2.21209E-03 1.26657E-13-4.25946E-13
 -1      3890 2.00014E+01 2.99600E-02-1.08551E-04 3.00701E-03 1.66826E-13 2.89313E-14
 -1      3891 2.00005E+01 3.17152E-02-7.76572E-05-4.28184E-04 6.84734E-14-3.98184E-13
 -1      3892 2.00006E+01 3.17255E-02-6.77401E-05 6.13358E-04 1.10226E-13-5.14350E-13
 -1      3893 1.99999E+01 3.79539E-02 1.68100E-04 1.96694E-03 1.15023E-14-5.20401E-13
 -1      3894 1.33526E+01 2.15071E-01-7.28294E-03-2.37978E+00 2.30772E-13 1.60944E-13
 -1      3895 1.39463E+01-1.51385E-01 8.74311E-02-3.09344E+00 3.52952E-13-3.44134E-14
 -1      3896 1.55270E+01-4.81477E-01 3.88135E-02-3.26826E+00 3.01094E-13-1.85950E-13
 -1      3897 1.46772E+01-4.43986E-01-1.26015E-02 3.24560E+00-2.10396E-13 2.76657E-13
 -1      3898 1.33126E+01 5.12709E-02 1.03286E-01 2.81386E+00-2.47944E-13 2.47816E-13
 -1      3899 1.32489E+01 4.66177E-01 2.14598E-02 1.93943E+00-2.19980E-13 3.60115E-13
 -1      3900 2.00013E+01 3.00913E-02-6.92827E-05-2.88872E-03-7.77293E-14-4.98768E-13
 -1      3901 2.00008E+01 3.10117E-02-1.07781E-04-2.07262E-03 5.20315E-14-4.22474E-13
 -1      3902 1.99999E+01 3.79785E-02 1.73836E-04-1.78764E-03 1.42716E-14-5.34755E-13
 -1      3903 1.75677E+01-7.78003E-01-1.47032E-02-3.26123E+00-2.43045E-13-3.92286E-13
 -1      3904 1.86522E+01-7.27699E-01 2.98716E-02-2.92714E+00-2.18105E-13-2.44253E-13
 -1      3905 1.84420E+01-3.02808E-01-3.50936E-03-2.65802E+00-2.07856E-13-2.99653E-13
 -1      3906 2.00018E+01 3.05013E-02-9.72442E-05 4.88664E-03 1.90568E-13 1.99731E-13
 -1      3907 2.00025E+01 2.86743E-02-9.19827E-05 5.13435E-03 1.97206E-13 3.49273E-13
 -1      3908 2.00024E+01 3.77527E-02 1.85663E-04 9.68596E-03 2.16397E-14 6.17907E-13
 -1      3909 2.00005E+01 3.76639E-02 2.25531E-05 5.86794E-03 9.45212E-14 8.06726E-14
 -1      3910 2.00021E+01 3.02001E-02-5.81953E-05-5.37428E-03 1.40134E-13-3.83529E-13
 -1      3911 1.77595E+01-6.83958E-01 1.14296E-02 2.96096E+00 2.02159E-13-2.68770E-13
 -1      3912 1.70559E+01-8.81320E-01-3.88994E-02 3.25285E+00 2.25458E-13-3.21958E-13
 -1      3913 1.60478E+01-2.46339E-01 8.47637E-02 3.05916E+00 1.87244E-13-3.88241E-13
 -1      3914 1.85748E+01-6.47668E-01-2.68329E-02 2.66536E+00 1.44402E-13-2.13796E-13
 -1      3915 1.98025E+01 1.93914E+00-1.76392E-03 8.94277E-02-1.67542E-13-4.38263E-13
 -1      3916 1.98342E+01 1.79266E+00 8.37672E-04 1.77701E-01-1.55639E-13-4.07255E-13
 -1      3917 1.97077E+01 1.82510E+00 2.00870E-03 2.31536E-01-1.08881E-13-4.32587E-13
 -1      3918 1.96842E+01 2.08375E+00 6.83333E-04 9.47510E-02-1.37622E-13-4.67387E-13
 -1      3919 1.45753E+01 9.40319E-02-4.77777E-02 2.43857E+00 1.45634E-13-4.69378E-13
 -1      3920 1.35428E+01 7.70380E-01 9.80673E-02 1.35749E+00 2.90956E-14-6.20809E-13
 -1      3921 1.38917E+01 8.33057E-01 3.26151E-02 6.32875E-01-2.93567E-14-5.79096E-13
 -1      3922 1.88358E+01 9.26217E-01-5.49858E-03 7.13437E-01-1.38714E-13 2.45443E-14
 -1      3923 1.87042E+01 9.61616E-01-1.87349E-04 7.96375E-01-2.02615E-13 1.15440E-14
 -1      3924 1.91655E+01 1.18786E+00-4.94381E-03 7.89192E-01-4.29253E-14-2.63639E-13
 -1      3925 1.90558E+01 1.08776E+00 1.68571E-03 9.25553E-01-4.16060E-14-2.40045E-13
 -1      3926 1.60559E+01-4.73802E-01 3.11189E-02 3.11538E+00-2.36039E-13 3.01007E-13
 -1      3927 1.88584E+01 9.80025E-01-6.46152E-03 1.05897E+00-2.91202E-14-2.56823E-13
 -1      3928 1.87415E+01 8.72278E-01 3.78616E-03 1.21422E+00 7.82837E-15-2.66258E-13
 -1      3929 1.87643E+01 1.16404E+00 5.87136E-03 8.56251E-01-3.23590E-14-3.04385E-13
 -1      3930 1.85019E+01 7.41328E-01-8.94412E-03 1.38544E+00 2.87805E-14-2.81743E-13
 -1      3931 1.83956E+01 5.95053E-01 5.38775E-03 1.57955E+00 4.21438E-14-2.95393E-13
 -1      3932 1.83434E+01 9.64014E-01 6.09584E-03 1.14677E+00-8.76892E-15-3.51203E-13
 -1      3933 1.81078E+01 4.15098E-01-1.37465E-02 1.80589E+00 9.75272E-14-2.61157E-13
 -1      3934 1.80184E+01 1.48670E-01-1.20703E-02 2.08829E+00 1.17225E-13-2.71480E-13
 -1      3935 1.78522E+01 7.01646E-01 6.17929E-03 1.53018E+00 7.78980E-14-3.03365E-13
 -1      3936 1.85754E+01 4.41020E-02 1.86680E-02-2.35341E+00-1.36264E-13-2.51017E-13
 -1      3937 1.85365E+01 3.00708E-01-6.51054E-03-2.13736E+00-8.16763E-14-2.49109E-13
 -1      3938 1.81188E+01 5.90686E-01 5.66890E-03-1.92092E+00-5.95586E-14-2.74656E-13
 -1      3939 2.00009E+01 3.73645E-02 1.13143E-04-6.45343E-03 1.77663E-14-3.70753E-13
 -1      3940 1.77177E+01-4.07517E-03 1.50716E-02-2.25867E+00 2.47374E-13-1.61008E-13
 -1      3941 1.76996E+01 2.38540E-01-1.55172E-02-1.96913E+00 1.76192E-13-2.10683E-13
 -1      3942 1.95169E+01 2.35241E+00-5.30903E-03 5.08968E-02-1.19776E-13-4.38869E-13
 -1      3943 1.95926E+01 2.32810E+00-3.25048E-04 1.91903E-02-1.60233E-13-4.47443E-13
 -1      3944 1.59250E+01 8.60930E-02 9.91980E-03 2.61072E+00-2.23798E-13 2.66676E-13
 -1      3945 1.79758E+01 4.44849E-01 1.00523E-02-1.69734E+00 7.14606E-14-2.02937E-13
 -1      3946 1.80349E+01 5.83197E-01-1.12189E-02-1.48967E+00 8.49689E-14-1.95564E-13
 -1      3947 1.73221E+01 5.77143E-01 9.46905E-03-1.70195E+00 1.21125E-13-3.70262E-13
 -1      3948 1.82747E+01 6.94228E-01 5.93632E-03-1.29681E+00 6.81932E-14-2.35761E-13
 -1      3949 1.83658E+01 7.59348E-01-8.51689E-03-1.14239E+00 1.45629E-13-2.20767E-13
 -1      3950 1.78025E+01 8.10300E-01 7.49315E-03-1.25407E+00 3.18890E-14-3.06933E-13
 -1      3951 1.85706E+01 8.06343E-01 3.29964E-03-1.00469E+00 2.23689E-13-2.75434E-13
 -1      3952 1.86700E+01 8.22979E-01-6.45603E-03-8.87639E-01 1.00010E-13-2.56067E-13
 -1      3953 1.82232E+01 9.10100E-01 6.60479E-03-9.41343E-01 1.51855E-13-3.29284E-13
 -1      3954 1.88416E+01 8.28257E-01 1.70537E-03-7.86530E-01 1.91253E-14-2.69957E-13
 -1      3955 1.89370E+01 8.13838E-01-4.96983E-03-6.95478E-01 5.51674E-14-2.91009E-13
 -1      3956 1.85805E+01 9.22214E-01 5.52507E-03-7.19123E-01 9.86433E-14-4.28147E-13
 -1      3957 1.90796E+01 7.92815E-01 8.39142E-04-6.18883E-01 2.13643E-14-3.74454E-13
 -1      3958 1.91652E+01 7.59542E-01-3.90382E-03-5.46402E-01-1.36891E-13-4.25170E-13
 -1      3959 1.88802E+01 8.78785E-01 4.58834E-03-5.55276E-01-1.33847E-14-4.51541E-13
 -1      3960 1.92826E+01 7.23276E-01 3.77523E-04-4.87048E-01-2.17858E-13-3.74523E-13
 -1      3961 1.93560E+01 6.80005E-01-3.11507E-03-4.28439E-01-1.85130E-13-3.16160E-13
 -1      3962 1.91290E+01 8.01633E-01 3.80469E-03-4.30818E-01-8.37000E-14-3.75377E-13
 -1      3963 1.94514E+01 6.36388E-01 1.44383E-04-3.81769E-01-1.91486E-13-2.14668E-13
 -1      3964 1.95124E+01 5.89391E-01-2.50709E-03-3.34022E-01-1.19055E-13-1.95080E-13
 -1      3965 1.93330E+01 7.06875E-01 3.13867E-03-3.34224E-01-1.36331E-13-3.97506E-13
 -1      3966 1.95890E+01 5.43862E-01 3.78728E-05-2.97053E-01-1.13388E-13-1.84087E-13
 -1      3967 1.96382E+01 4.97373E-01-2.02116E-03-2.58137E-01-1.16986E-13-2.39704E-13
 -1      3968 1.94981E+01 6.06159E-01 2.56604E-03-2.58226E-01-1.09924E-13-2.83673E-13
 -1      3969 1.96987E+01 4.53476E-01-1.64996E-06-2.28815E-01-1.21717E-13-1.19846E-13
 -1      3970 1.97374E+01 4.10148E-01-1.62310E-03-1.97246E-01-1.14897E-13-1.42831E-13
 -1      3971 1.96294E+01 5.07477E-01 2.07305E-03-1.98038E-01-4.35007E-14-2.35991E-13
 -1      3972 1.97844E+01 3.69998E-01-8.51304E-06-1.74065E-01-1.01429E-13-1.77843E-13
 -1      3973 1.98143E+01 3.31305E-01-1.29311E-03-1.48669E-01-4.24631E-14-2.23624E-13
 -1      3974 1.97323E+01 4.15903E-01 1.65167E-03-1.50335E-01-1.16018E-13-9.04241E-14
 -1      3975 1.98501E+01 2.95980E-01-1.75745E-06-1.30466E-01-7.30063E-14-2.74603E-13
 -1      3976 1.98725E+01 2.62552E-01-1.01906E-03-1.10254E-01-8.10895E-14-2.38043E-13
 -1      3977 1.98115E+01 3.34266E-01 1.29610E-03-1.12665E-01 1.01282E-14-3.20838E-13
 -1      3978 1.98994E+01 2.32411E-01 8.70766E-06-9.60910E-02-5.60618E-14-2.24011E-13
 -1      3979 1.99158E+01 2.04304E-01-7.92559E-04-8.02010E-02 4.67745E-15-1.85103E-13
 -1      3980 1.98712E+01 2.63764E-01 1.00083E-03-8.31233E-02 2.65193E-14-2.77421E-13
 -1      3981 1.99354E+01 1.79232E-01 1.83469E-05-6.93014E-02 7.28053E-14-1.69756E-13
 -1      3982 1.99471E+01 1.56135E-01-6.08630E-04-5.69780E-02 1.84151E-13-1.15232E-13
 -1      3983 1.99153E+01 2.04460E-01 7.59396E-04-6.01682E-02 2.80458E-14-2.99926E-13
 -1      3984 1.99611E+01 1.35729E-01 2.56101E-05-4.87017E-02 1.16264E-13-1.83110E-13
 -1      3985 1.99691E+01 1.17141E-01-4.57186E-04-3.92895E-02 6.92257E-14-1.58568E-13
 -1      3986 1.99471E+01 1.55677E-01 5.62213E-04-4.25237E-02 1.12032E-13-3.35222E-13
 -1      3987 1.99788E+01 1.00859E-01 3.06024E-05-3.30908E-02 7.27909E-14-2.35480E-13
 -1      3988 1.99840E+01 8.61366E-02-3.42290E-04-2.60070E-02 3.73467E-14-2.99742E-13
 -1      3989 1.99693E+01 1.16381E-01 4.18452E-04-2.91770E-02 6.39669E-14-4.66943E-13
 -1      3990 1.99904E+01 7.34103E-02 5.33906E-05-2.14657E-02 4.72654E-14-2.48569E-13
 -1      3991 1.99934E+01 6.18786E-02-2.77513E-04-1.61988E-02 1.46465E-13-1.46774E-13
 -1      3992 1.99842E+01 8.51662E-02 2.72819E-04-1.91969E-02 4.20508E-14-5.22959E-13
 -1      3993 1.99970E+01 5.32528E-02 9.24299E-05-1.25819E-02 1.88293E-13-1.34094E-13
 -1      3994 1.99987E+01 4.42079E-02-1.86242E-04-8.87383E-03 1.93006E-13-2.06877E-13
 -1      3995 1.99981E+01 4.44603E-02-6.62233E-06-5.63088E-03-7.57198E-15-2.65885E-13
 -1      3996 1.99931E+01 6.18868E-02 1.09133E-04-1.13572E-02 1.15184E-13-2.17110E-13
 -1      3997 1.97279E+01 1.22924E+00-2.59131E-03-7.19391E-01 9.04747E-14-3.47005E-13
 -1      3998 1.98114E+01 1.28996E+00-1.51814E-03-5.92745E-01 8.50609E-14-3.52144E-13
 -1      3999 1.95219E+01 1.32370E+00 4.46249E-03-7.07756E-01 5.34597E-14-3.69084E-13
 -1      4000 1.56078E+01 1.82033E-01 8.40085E-03 2.32761E+00 1.34704E-13-4.09038E-13
 -1      4001 1.94856E+01 1.87375E+00-3.87807E-03-2.12617E-01 7.18067E-14-4.15621E-13
 -1      4002 1.93924E+01 1.78635E+00 5.04557E-03-2.38720E-01 3.63396E-14-3.73039E-13
 -1      4003 1.95938E+01 1.76496E+00-3.07749E-03-2.61183E-01 8.92919E-14-4.53419E-13
 -1      4004 1.75470E+01 8.73683E-01-1.44171E-02 1.38307E+00-1.57874E-13 1.13868E-13
 -1      4005 1.73599E+01 7.80053E-01 7.30285E-03 1.58082E+00-9.22540E-14 1.94625E-13
 -1      4006 1.28500E+01 8.78618E-01 4.60150E-03 3.55960E-01-1.36213E-14 3.99875E-13
 -1      4007 1.28371E+01 8.64268E-01 6.00744E-02-1.09386E+00 1.34920E-13 5.75054E-13
 -1      4008 2.10491E+01-2.66863E+00 5.32542E-02-2.95709E+00 4.55119E-13-9.54905E-14
 -1      4009 1.94080E+01 1.41633E+00-3.84800E-03 5.47180E-01-3.89186E-14-3.14569E-13
 -1      4010 1.93193E+01 1.29949E+00 2.73025E-04 6.77167E-01-2.66565E-14-2.84110E-13
 -1      4011 1.91028E+01 1.35725E+00 4.24251E-03 6.24663E-01-1.36672E-14-3.34097E-13
 -1      4012 1.84917E+01 9.81412E-01-7.45135E-03 8.76674E-01-2.24402E-13 1.68459E-14
 -1      4013 1.83362E+01 9.91759E-01 6.32286E-04 9.81350E-01-1.67478E-13-5.86990E-15
 -1      4014 1.84192E+01 1.05837E+00 7.49309E-03 6.81843E-01-1.86296E-13 1.32070E-13
 -1      4015 1.93315E+01 7.32072E-01-3.33106E-03 4.71053E-01 7.03897E-14 9.92367E-14
 -1      4016 1.92452E+01 7.86749E-01-4.68781E-04 5.29032E-01 5.09467E-15-7.08018E-15
 -1      4017 1.95044E+01 6.23481E-01-2.67943E-03 3.77771E-01 1.26157E-13 7.00145E-14
 -1      4018 1.94367E+01 6.78498E-01-3.62719E-04 4.27072E-01 1.72877E-13 1.46710E-13
 -1      4019 1.93035E+01 7.54096E-01 3.63111E-03 3.70137E-01 9.74933E-14-7.57420E-14
 -1      4020 1.96388E+01 5.19180E-01-2.16980E-03 2.98982E-01 2.00388E-14 8.60353E-14
 -1      4021 1.95867E+01 5.71144E-01-2.31099E-04 3.40682E-01 5.27608E-14 1.83701E-13
 -1      4022 1.94837E+01 6.38537E-01 2.85659E-03 2.97642E-01 8.92719E-14-8.83849E-14
 -1      4023 1.97420E+01 4.23823E-01-1.75434E-03 2.33041E-01-3.16663E-14 7.77015E-14
 -1      4024 1.97026E+01 4.70788E-01-1.12674E-04 2.67910E-01 2.65195E-14 1.18324E-13
 -1      4025 1.96236E+01 5.29540E-01 2.23287E-03 2.36046E-01-6.05513E-16 5.39023E-14
 -1      4026 1.98201E+01 3.39760E-01-1.40834E-03 1.78591E-01-1.01258E-13 3.76971E-14
 -1      4027 1.97908E+01 3.80808E-01-2.17208E-05 2.07326E-01 9.64582E-15 4.09008E-14
 -1      4028 1.97310E+01 4.30928E-01 1.72944E-03 1.84239E-01-4.57600E-15 8.40096E-14
 -1      4029 1.98781E+01 2.67752E-01-1.11851E-03 1.34322E-01-5.81804E-14 2.00844E-14
 -1      4030 1.98568E+01 3.02673E-01 4.00739E-05 1.57626E-01-1.51464E-13 3.42158E-14
 -1      4031 1.98123E+01 3.44559E-01 1.32468E-03 1.41294E-01-7.02715E-14-3.38534E-14
 -1      4032 1.99205E+01 2.07530E-01-8.76452E-04 9.89163E-02-6.02126E-14 1.33102E-13
 -1      4033 1.99054E+01 2.36567E-01 7.67264E-05 1.17506E-01-2.42355E-14 7.00006E-14
 -1      4034 1.98728E+01 2.70904E-01 1.00190E-03 1.06278E-01-3.65696E-14 7.94667E-14
 -1      4035 1.99508E+01 1.58195E-01-6.77823E-04 7.10684E-02-3.98750E-14 3.22097E-13
 -1      4036 1.99403E+01 1.81865E-01 9.43427E-05 8.56503E-02-7.62372E-14 2.18721E-13
 -1      4037 1.99170E+01 2.09507E-01 7.47000E-04 7.82139E-02-6.03960E-14 1.52250E-13
 -1      4038 1.99718E+01 1.18520E-01-5.12206E-04 4.95516E-02 2.08917E-13 3.31856E-13
 -1      4039 1.99648E+01 1.37464E-01 9.95157E-05 6.07873E-02 1.27359E-13 3.64898E-13
 -1      4040 1.99486E+01 1.59326E-01 5.45750E-04 5.61004E-02 1.34511E-13 2.62546E-13
 -1      4041 1.99859E+01 8.71469E-02-3.82399E-04 3.32274E-02 6.78242E-14 3.40414E-13
 -1      4042 1.99815E+01 1.02062E-01 9.53305E-05 4.17303E-02 1.99244E-13 2.96257E-13
 -1      4043 1.99705E+01 1.19080E-01 4.04820E-04 3.90369E-02 1.59890E-13 4.69291E-13
 -1      4044 1.99948E+01 6.26996E-02-2.93477E-04 2.10948E-02-2.01679E-13 4.74396E-13
 -1      4045 1.99923E+01 7.43267E-02 1.03531E-04 2.74028E-02-1.03008E-13 4.27665E-13
 -1      4046 1.99852E+01 8.72305E-02 2.77758E-04 2.60751E-02-7.28994E-14 4.00875E-13
 -1      4047 1.99999E+01 4.46345E-02-2.32876E-04 1.27206E-02-8.71146E-14 5.46314E-13
 -1      4048 1.99987E+01 5.37828E-02 1.27125E-04 1.72787E-02-1.56673E-13 5.55503E-13
 -1      4049 1.99941E+01 6.35473E-02 1.87692E-04 1.68751E-02-1.88902E-13 3.17794E-13
 -1      4050 1.99992E+01 4.59141E-02 9.25951E-05 1.04001E-02-1.37564E-13 2.66506E-13
 -1      4051 1.85989E+01 1.11274E+00-2.90626E-04-1.07979E+00-1.54998E-14-3.31529E-13
 -1      4052 1.87728E+01 1.17488E+00-8.53393E-03-9.52470E-01 1.50357E-15-3.28036E-13
 -1      4053 1.94942E+01 2.15402E+00 2.98272E-03 1.04325E-01-7.44520E-14-3.92464E-13
 -1      4054 1.67153E+01-8.95412E-01 2.54720E-02-3.37731E+00 3.75724E-13-9.08995E-14
 -1      4055 1.71898E+01-3.00554E-01-1.78026E-02-2.65393E+00 2.83473E-13-1.07523E-13
 -1      4056 1.99971E+01 4.52982E-02-1.20285E-04 1.59430E-03-7.46968E-14-6.21865E-13
 -1      4057 1.99978E+01 4.49107E-02 3.26841E-05 3.71150E-03-6.40291E-14-4.69659E-13
 -1      4058 1.69159E+01 6.20119E-01-1.93389E-02 1.82029E+00-1.21584E-13 2.47968E-13
 -1      4059 1.67853E+01 4.20612E-01 1.88187E-02 2.10109E+00-1.50700E-13 3.10078E-13
 -1      4060 1.66374E+01 9.28542E-01 1.79883E-02 1.42535E+00-7.01105E-14 2.97422E-13
 -1      4061 1.95763E+01 1.71198E+00-1.15730E-03 3.16745E-01-4.68067E-14-3.91736E-13
 -1      4062 1.95147E+01 1.55181E+00-1.57226E-03 4.44802E-01-4.69022E-14-3.38189E-13
 -1      4063 1.93522E+01 1.59327E+00 2.84372E-03 4.21500E-01-1.57564E-14-3.39204E-13
 -1      4064 1.80667E+01 9.76433E-01-1.04408E-02 1.08926E+00-2.01568E-13 4.78502E-14
 -1      4065 1.78903E+01 9.45327E-01 2.49947E-03 1.22924E+00-2.18798E-13 7.81260E-14
 -1      4066 1.79594E+01 1.09800E+00 9.62699E-03 8.45915E-01-1.41290E-13 6.42049E-14
 -1      4067 1.91119E+01 8.37069E-01-4.21574E-03 5.81366E-01-6.20313E-16 7.55636E-14
 -1      4068 1.90040E+01 8.86065E-01-4.65573E-04 6.49940E-01-4.99792E-14 2.87992E-14
 -1      4069 1.87842E+01 9.75823E-01 5.85179E-03 5.56738E-01-1.35990E-13 3.23626E-14
 -1      4070 1.90742E+01 8.69779E-01 4.60371E-03 4.55319E-01 1.09308E-14-1.08059E-13
 -1      4071 1.77837E+01-2.41774E-01 2.63445E-02 2.59625E+00 1.69713E-13-3.00086E-13
 -1      4072 1.46077E+01 8.34132E-01-4.26415E-02 8.64188E-01 4.22817E-14-5.12042E-13
 -1      4073 1.42343E+01 1.02065E+00 4.68559E-02-1.56884E-01-1.62578E-14-6.17856E-13
 -1      4074 1.66159E+01 1.73299E-01 2.18488E-02-2.34582E+00 2.53552E-13-3.32535E-13
 -1      4075 1.94192E+01 1.93738E+00-4.83842E-03 1.94073E-01-3.35270E-14-3.79268E-13
 -1      4076 1.95193E+01 1.92864E+00 3.78970E-03 2.15287E-01-6.40382E-14-3.78253E-13
 -1      4077 1.64620E+01 1.24201E-01-3.65764E-02 2.34865E+00 1.45095E-13-3.39283E-13
 -1      4078 1.56254E+01 7.12603E-01 6.01324E-02 1.71079E+00 8.64924E-14-3.98731E-13
 -1      4079 1.77488E+01 6.43533E-02-1.24357E-02-2.48868E+00-1.44397E-13-3.48697E-13
 -1      4080 1.93469E+01 1.82808E+00 4.24983E-03 1.96514E-01-2.98810E-14-3.73104E-13
 -1      4081 1.96220E+01 2.17554E+00 1.40354E-03 7.39475E-02-1.26382E-13-4.63487E-13
 -1      4082 1.81029E+01 9.56767E-01 1.97870E-03-1.36352E+00-6.36201E-14-3.29026E-13
 -1      4083 1.83055E+01 1.04041E+00-9.46117E-03-1.20437E+00-5.38831E-14-3.39668E-13
 -1      4084 1.82292E+01 1.21183E+00 1.25315E-02-9.29349E-01-3.10924E-14-3.11096E-13
 -1      4085 1.53430E+01 5.40695E-01 1.96592E-02 2.07240E+00-2.28068E-13 2.66909E-13
 -1      4086 1.96799E+01 1.60179E+00 1.14710E-03-3.96075E-01 9.72850E-14-4.26975E-13
 -1      4087 1.95488E+01 1.53255E+00-8.78293E-04-4.68016E-01 6.40379E-14-4.29343E-13
 -1      4088 1.73787E+01 1.06547E+00 1.23338E-02 1.07693E+00-1.54350E-13 1.00013E-13
 -1      4089 1.40057E+01 5.56871E-01 3.22174E-03-1.68651E+00 1.87000E-13 2.66174E-13
 -1      4090 1.91760E+01 1.76092E+00 1.70902E-03-1.01023E-01 2.26226E-14-3.17077E-13
 -1      4091 1.91514E+01 1.76633E+00-3.72928E-03 4.84599E-03-1.34292E-14-3.48350E-13
 -1      4092 1.56418E+01 8.71498E-01 7.82624E-03 1.01319E+00 6.64260E-14-4.42354E-13
 -1      4093 1.42033E+01 8.07763E-01-1.68707E-02-1.06257E+00-1.03651E-13-5.63348E-13
 -1      4094 1.48470E+01 4.41563E-01 1.39303E-03-2.16450E+00-1.80991E-13-5.07493E-13
 -1      4095 1.51160E+01 9.73763E-01 2.66073E-02-7.14345E-01-1.67295E-14-5.38262E-13
 -1      4096 1.99979E+01 4.55975E-02-8.16755E-05 5.90184E-03-1.55810E-13 5.48423E-16
 -1      4097 1.90009E+01 1.25008E+00-1.00692E-03-8.42991E-01 7.23770E-15-3.42345E-13
 -1      4098 1.91479E+01 1.31861E+00-4.70652E-03-7.17115E-01 1.77447E-14-3.48448E-13
 -1      4099 1.87191E+01 1.33556E+00 9.17631E-03-7.19363E-01 7.92357E-15-3.51422E-13
 -1      4100 1.70441E+01 5.95820E-01 1.69438E-02 1.77713E+00 1.40924E-13-3.08172E-13
 -1      4101 1.75034E+01 1.72480E-01-3.94566E-03 2.13511E+00 1.26803E-13-2.90259E-13
 -1      4102 1.61496E+01-8.25131E-02 8.23275E-03-2.80755E+00-2.32722E-13-4.49599E-13
 -1      4103 1.96297E+01 2.04121E+00 1.78236E-04 1.34608E-01-1.06245E-13-4.48664E-13
 -1      4104 1.44683E+01 6.59209E-01 2.37828E-03 1.66152E+00-2.54353E-13 1.82146E-13
 -1      4105 1.36562E+01 9.29386E-01 6.21631E-02 1.01931E+00-1.45828E-13 2.32798E-13
 -1      4106 1.41534E+01 1.01615E+00-7.43579E-03 3.16429E-01-8.34324E-14 2.22161E-13
 -1      4107 1.53858E+01 8.86370E-01-2.74533E-02 1.30262E+00-1.99100E-13 2.06933E-13
 -1      4108 1.99973E+01 4.50807E-02-1.22880E-04-3.12181E-03-8.51921E-14-5.45676E-13
 -1      4109 1.99970E+01 4.57884E-02-8.27871E-05-1.02794E-03-3.36122E-14-6.13046E-13
 -1      4110 1.99951E+01 5.39876E-02 1.79600E-04 4.86265E-04-1.38716E-13-5.51675E-13
 -1      4111 1.99956E+01 5.35592E-02 1.77662E-04-5.24447E-03 4.64597E-14-4.37559E-13
 -1      4112 1.93740E+01 1.65173E+00 3.86750E-03-3.64028E-01 2.15651E-14-4.04360E-13
 -1      4113 1.92615E+01 1.71456E+00-6.77099E-03-2.62312E-01-2.11994E-15-3.58704E-13
 -1      4114 1.91264E+01 1.64503E+00-7.14435E-04-2.25054E-01 2.65239E-15-3.44083E-13
 -1      4115 1.94339E+01 1.49071E+00-6.86750E-04-5.01422E-01 3.37490E-14-4.00343E-13
 -1      4116 1.56255E+01 3.85332E-01-2.31245E-03-2.13483E+00 2.68186E-13-8.28452E-14
 -1      4117 1.61864E+01 5.75893E-01-2.52915E-02-1.76567E+00 3.07702E-13-2.16075E-13
 -1      4118 1.75263E+01 7.05362E-01 2.81046E-03-1.74854E+00-5.79541E-14-3.31726E-13
 -1      4119 1.77260E+01 8.45823E-01-1.45475E-02-1.52689E+00-4.39486E-14-3.23144E-13
 -1      4120 1.75914E+01 1.06954E+00 1.45414E-02-1.18706E+00-6.01495E-14-3.85616E-13
 -1      4121 1.64963E+01 3.10173E-01 3.47552E-02-2.28813E+00-1.43913E-13-4.32459E-13
 -1      4122 1.66294E+01 5.70273E-01-8.96302E-04-1.95079E+00-8.67648E-14-3.94884E-13
 -1      4123 1.93103E+01 1.42616E+00-3.25414E-03-5.86674E-01 1.69600E-14-3.68071E-13
 -1      4124 1.86827E+01 1.28374E+00-8.19505E-03 6.07120E-01-1.22048E-14-3.45014E-13
 -1      4125 1.84966E+01 1.20506E+00-5.28766E-04 7.21533E-01-3.67428E-14-3.60403E-13
 -1      4126 1.82060E+01 1.12288E+00-9.04365E-03 8.28224E-01-2.46207E-14-3.33191E-13
 -1      4127 1.79811E+01 1.03567E+00 1.36147E-03 9.80467E-01 1.29392E-14-3.37341E-13
 -1      4128 1.82034E+01 1.27683E+00 6.99119E-03 5.55451E-01-8.50207E-15-3.66170E-13
 -1      4129 1.76044E+01 9.35331E-01-1.16701E-02 1.13468E+00 5.91372E-14-3.21971E-13
 -1      4130 1.73639E+01 8.16648E-01 9.44211E-03 1.34175E+00 1.24133E-13-2.92917E-13
 -1      4131 1.75551E+01 1.13793E+00 6.96578E-03 7.81923E-01 5.65420E-14-3.27196E-13
 -1      4132 1.96333E+01 1.91168E+00-2.18584E-03 2.02951E-01-8.91021E-14-4.23034E-13
 -1      4133 1.63518E+01 8.68047E-01-1.56875E-02 1.15557E+00 8.76374E-14-3.92894E-13
 -1      4134 1.57499E+01 1.12024E+00 1.35878E-02 3.57784E-01 5.80018E-14-5.13766E-13
 -1      4135 1.67460E+01 7.26995E-01 5.82437E-03-1.50037E+00 1.93222E-13-2.73411E-13
 -1      4136 1.69750E+01 8.31176E-01-2.46350E-02-1.25786E+00 5.25377E-14-2.53385E-13
 -1      4137 1.60539E+01 9.38507E-01 2.76800E-02-1.24128E+00 1.70788E-13-1.15958E-13
 -1      4138 1.73953E+01 9.21978E-01 1.57053E-03-1.07086E+00 6.20489E-14-2.29746E-13
 -1      4139 1.76107E+01 9.63013E-01-1.56447E-02-9.08086E-01 1.09931E-13-2.06246E-13
 -1      4140 1.69333E+01 1.10775E+00 2.92404E-02-8.53688E-01 5.77422E-14-1.08187E-13
 -1      4141 1.79253E+01 9.94249E-01-5.80553E-04-7.87196E-01 7.26347E-14-2.62527E-13
 -1      4142 1.81143E+01 9.95999E-01-1.07736E-02-6.74468E-01 8.95079E-14-3.99739E-13
 -1      4143 1.76208E+01 1.13586E+00 2.51096E-02-6.08867E-01 8.93270E-14-2.59838E-13
 -1      4144 1.83579E+01 9.92046E-01-9.11892E-04-5.89924E-01 1.18098E-13-4.29618E-13
 -1      4145 1.85182E+01 9.67325E-01-7.59504E-03-5.08595E-01 1.03519E-13-4.18991E-13
 -1      4146 1.81386E+01 1.10465E+00 1.84199E-02-4.41591E-01 5.95233E-14-3.99231E-13
 -1      4147 1.87107E+01 9.39033E-01-1.08522E-03-4.47809E-01 1.35144E-14-3.52370E-13
 -1      4148 1.88453E+01 8.97553E-01-5.51785E-03-3.86986E-01-6.76476E-14-2.71863E-13
 -1      4149 1.85484E+01 1.03270E+00 1.36911E-02-3.23710E-01 7.61431E-14-4.69759E-13
 -1      4150 1.89987E+01 8.54446E-01-1.13258E-03-3.42473E-01-1.20745E-13-2.54364E-13
 -1      4151 1.91103E+01 8.03781E-01-4.10295E-03-2.95714E-01-6.72474E-14-3.10544E-13
 -1      4152 1.88766E+01 9.34507E-01 1.03980E-02-2.39306E-01-4.54405E-14-3.01399E-13
 -1      4153 1.92326E+01 7.53207E-01-1.09094E-03-2.62640E-01-7.72972E-14-3.03639E-13
 -1      4154 1.93239E+01 6.99123E-01-3.09935E-03-2.25983E-01-1.88619E-13-3.41731E-13
 -1      4155 1.91401E+01 8.22386E-01 8.01984E-03-1.77861E-01-6.83948E-14-2.65473E-13
 -1      4156 1.94209E+01 6.46472E-01-9.94440E-04-2.01157E-01-2.33874E-13-3.01959E-13
 -1      4157 1.94944E+01 5.93111E-01-2.36184E-03-1.72079E-01-6.41906E-14-3.51721E-13
 -1      4158 1.93506E+01 7.06185E-01 6.23439E-03-1.32475E-01-1.43399E-13-2.64222E-13
 -1      4159 1.95706E+01 5.42103E-01-8.69411E-04-1.53332E-01 5.71969E-14-2.70932E-13
 -1      4160 1.96288E+01 4.92207E-01-1.80468E-03-1.30152E-01 2.50151E-14-2.14199E-13
 -1      4161 1.95173E+01 5.93210E-01 4.85198E-03-9.85760E-02-5.08512E-14-3.70162E-13
 -1      4162 1.96879E+01 4.45196E-01-7.34705E-04-1.15967E-01-7.31227E-14-9.29033E-14
 -1      4163 1.97331E+01 4.00378E-01-1.37588E-03-9.74987E-02-9.41230E-14-1.32134E-13
 -1      4164 1.96478E+01 4.88394E-01 3.76051E-03-7.30627E-02 5.94666E-14-2.37482E-13
 -1      4165 1.97784E+01 3.58656E-01-6.03000E-04-8.67784E-02-1.30482E-13-1.55009E-13
 -1      4166 1.98129E+01 3.19668E-01-1.04261E-03-7.21326E-02-2.74961E-14-2.37056E-13
 -1      4167 1.97486E+01 3.94641E-01 2.89101E-03-5.37808E-02-1.41575E-13-7.58127E-14
 -1      4168 1.98469E+01 2.83747E-01-4.82090E-04-6.40648E-02 1.06645E-14-3.42598E-13
 -1      4169 1.98728E+01 2.50723E-01-7.83103E-04-5.25378E-02-9.18340E-15-3.13343E-13
 -1      4170 1.98251E+01 3.13265E-01 2.19757E-03-3.91951E-02-3.72766E-14-1.94993E-13
 -1      4171 1.98979E+01 2.20578E-01-3.75878E-04-4.65082E-02 5.48981E-14-4.26904E-13
 -1      4172 1.99168E+01 1.93241E-01-5.81886E-04-3.75209E-02 3.11756E-14-3.63966E-13
 -1      4173 1.98821E+01 2.44408E-01 1.64524E-03-2.81879E-02-7.07080E-14-4.61668E-13
 -1      4174 1.99348E+01 1.68511E-01-2.83976E-04-3.30522E-02 3.52519E-14-4.02328E-13
 -1      4175 1.99483E+01 1.46330E-01-4.16199E-04-2.61132E-02 1.12016E-13-4.49211E-13
 -1      4176 1.99237E+01 1.87411E-01 1.19580E-03-1.99401E-02 1.36880E-14-4.13506E-13
 -1      4177 1.99610E+01 1.26356E-01-2.29280E-04-2.27956E-02 7.50951E-14-4.64326E-13
 -1      4178 1.99704E+01 1.08771E-01-2.46366E-04-1.75219E-02 9.01601E-14-5.35580E-13
 -1      4179 1.99531E+01 1.41023E-01 7.37639E-04-1.38573E-02 7.07328E-14-4.42958E-13
 -1      4180 1.99788E+01 9.29776E-02-1.29385E-04-1.52312E-02 1.34509E-13-4.86259E-13
 -1      4181 1.99849E+01 7.90966E-02-2.08611E-04-1.13763E-02 4.87638E-14-3.70755E-13
 -1      4182 1.99737E+01 1.03604E-01 3.95889E-04-9.18823E-03 1.20444E-13-4.17399E-13
 -1      4183 1.96124E+01 5.15898E-01-2.05968E-03 1.65881E-01-1.04107E-13 5.37139E-14
 -1      4184 1.95516E+01 5.69787E-01-8.59366E-04 1.90265E-01-2.03779E-14 3.54011E-14
 -1      4185 1.72534E+01 1.14140E+00-1.49242E-02 6.93809E-01-7.16577E-14 8.12806E-14
 -1      4186 1.69285E+01 1.11934E+00-5.18530E-03 8.05423E-01-2.37772E-14 2.07996E-13
 -1      4187 1.45763E+01 5.26660E-01 2.05524E-03-1.72510E+00 1.71344E-13 1.48204E-13
 -1      4188 1.45548E+01 9.48794E-01 2.49978E-02-1.03413E+00 1.39605E-13 1.97823E-13
 -1      4189 1.83705E+01 1.06690E+00-7.25113E-03 4.58555E-01-1.77745E-13 9.64288E-14
 -1      4190 1.81651E+01 1.10577E+00-3.81320E-03 5.12698E-01-1.65590E-13 1.56816E-13
 -1      4191 1.94691E+01 6.24505E-01-2.55406E-03 2.08653E-01-5.77704E-16-1.34491E-15
 -1      4192 1.93900E+01 6.82975E-01-1.21448E-03 2.36900E-01 1.01929E-13-6.33923E-14
 -1      4193 1.94838E+01 6.27655E-01 5.61271E-03 1.35618E-01-5.12159E-14 1.54180E-14
 -1      4194 1.91640E+01 1.74646E+00-1.95879E-03 1.51090E-01-1.43481E-14-3.78770E-13
 -1      4195 1.92510E+01 1.66895E+00-3.24442E-03 2.93424E-01-2.18016E-14-3.76720E-13
 -1      4196 1.91516E+01 1.54426E+00 2.00836E-03 3.81485E-01-2.91799E-14-3.73295E-13
 -1      4197 1.90555E+01 1.65166E+00 4.05382E-03 9.15511E-02-6.44222E-15-3.49458E-13
 -1      4198 1.92846E+01 7.40925E-01-3.18456E-03 2.58215E-01 1.35631E-13-1.09201E-13
 -1      4199 1.91830E+01 8.01563E-01-1.66698E-03 2.90597E-01 4.05795E-15-1.45781E-13
 -1      4200 1.93033E+01 7.48289E-01 7.26480E-03 1.65572E-01 2.25645E-14-1.70588E-13
 -1      4201 1.97225E+01 4.18366E-01-1.65632E-03 1.29541E-01 3.80806E-14-1.17461E-14
 -1      4202 1.96764E+01 4.66318E-01-5.88344E-04 1.50255E-01-7.33327E-15-1.91780E-14
 -1      4203 1.96239E+01 5.16530E-01 4.32769E-03 1.08926E-01-4.32167E-14 3.30520E-14
 -1      4204 1.98060E+01 3.33414E-01-1.32108E-03 9.92339E-02-6.22212E-15-2.19078E-14
 -1      4205 1.97715E+01 3.74874E-01-3.87449E-04 1.16510E-01 6.14510E-14-2.69675E-14
 -1      4206 1.97316E+01 4.17540E-01 3.31549E-03 8.57152E-02 6.29721E-14-2.09215E-13
 -1      4207 1.98682E+01 2.61289E-01-1.04185E-03 7.44429E-02-5.93835E-14-4.17436E-15
 -1      4208 1.98429E+01 2.96269E-01-2.42924E-04 8.85810E-02-7.26650E-14 3.11093E-14
 -1      4209 1.98130E+01 3.31799E-01 2.51516E-03 6.60292E-02-7.49348E-14-1.12245E-13
 -1      4210 1.99137E+01 2.01397E-01-8.11366E-04 5.45522E-02-3.49838E-14 5.66806E-14
 -1      4211 1.98956E+01 2.30286E-01-1.42273E-04 6.59100E-02-1.16605E-13 6.76368E-14
 -1      4212 1.98736E+01 2.59307E-01 1.88346E-03 4.97332E-02-1.05998E-13-1.73730E-13
 -1      4213 1.99462E+01 1.52654E-01-6.08416E-04 3.88857E-02 1.19123E-13 3.20653E-13
 -1      4214 1.99336E+01 1.76058E-01-7.36195E-05 4.78506E-02 2.17238E-14 1.60260E-13
 -1      4215 1.99178E+01 1.99315E-01 1.38412E-03 3.65602E-02-9.53862E-14 5.07276E-14
 -1      4216 1.99691E+01 1.13624E-01-3.76913E-04 2.67400E-02 6.54548E-15 4.44181E-13
 -1      4217 1.99603E+01 1.32186E-01-5.97805E-05 3.36470E-02 1.13756E-13 4.26685E-13
 -1      4218 1.99491E+01 1.50600E-01 9.38087E-04 2.61245E-02 1.55857E-14 3.04421E-13
 -1      4219 1.99841E+01 8.30239E-02-2.75612E-04 1.75894E-02 3.00278E-14 3.12774E-13
 -1      4220 1.99784E+01 9.75256E-02-3.68495E-05 2.29456E-02 5.72413E-14 4.29325E-13
 -1      4221 1.99706E+01 1.10320E-01 1.54658E-04 1.74483E-02-2.36302E-14 3.19576E-13
 -1      4222 1.54456E+01 3.45559E-02 5.60736E-02-2.87005E+00 2.21825E-13-2.63417E-13
 -1      4223 1.60180E+01-4.12488E-01 4.65645E-02-3.21421E+00 3.21914E-13-1.41705E-13
 -1      4224 1.67815E+01 8.64103E-01 3.05756E-03 1.32964E+00 1.12469E-13-3.47153E-13
 -1      4225 1.78846E+01 1.12917E+00-1.04248E-02 5.56475E-01-2.18903E-13 1.54360E-13
 -1      4226 1.76261E+01 1.14579E+00-4.71847E-03 6.29690E-01-1.46826E-13 1.50562E-13
 -1      4227 1.79378E+01 1.20392E+00 2.24700E-02 3.20470E-01-2.05822E-13 1.34013E-13
 -1      4228 1.99959E+01 5.38326E-02 2.91783E-05 8.47960E-03-2.79566E-13 6.32740E-14
 -1      4229 1.64280E+01 1.07786E+00-1.76067E-02 8.93600E-01-3.27975E-14 2.80416E-13
 -1      4230 1.60196E+01 1.01879E+00 6.08689E-03 1.07932E+00-1.08720E-13 2.43276E-13
 -1      4231 1.64683E+01 1.21139E+00 7.59635E-03 4.94365E-01 2.88760E-14 1.39885E-13
 -1      4232 1.46225E+01 1.13345E+00 2.93130E-02-3.93968E-01-3.99784E-14 1.96819E-13
 -1      4233 1.54321E+01 9.94818E-01 6.29961E-03-8.61948E-01 9.48130E-14 3.75004E-14
 -1      4234 1.59021E+01 1.07317E+00-1.88622E-02-6.69424E-01-1.51953E-14-7.73236E-14
 -1      4235 1.50407E+01 1.08888E+00-7.47166E-03 2.43718E-01-1.87901E-13 8.01963E-14
 -1      4236 1.90114E+01 1.45432E+00-4.92309E-03 4.36544E-01-1.63709E-14-3.63566E-13
 -1      4237 1.88618E+01 1.36339E+00 6.04601E-04 5.34547E-01-1.37895E-14-3.54622E-13
 -1      4238 1.86418E+01 1.40914E+00 5.56106E-03 3.99265E-01-1.25238E-14-3.92274E-13
 -1      4239 1.89402E+01 1.53889E+00 1.49015E-03 2.93750E-01-1.91305E-14-3.74082E-13
 -1      4240 1.73161E+01 1.26198E+00 2.89526E-02 3.79329E-01-1.11157E-13 1.00180E-13
 -1      4241 1.91086E+01 1.49368E+00 7.20056E-03-5.05883E-01-5.25778E-15-3.65643E-13
 -1      4242 1.89500E+01 1.52379E+00-5.91908E-03-3.27045E-01 2.10660E-15-3.50624E-13
 -1      4243 1.67722E+01 1.08533E+00-1.11004E-02 7.35083E-01 9.96833E-14-3.83254E-13
 -1      4244 1.63317E+01 8.77580E-01 8.67225E-03-1.45977E+00-5.17594E-14-4.08703E-13
 -1      4245 1.99891E+01 7.06694E-02 5.02945E-05-9.73986E-03 8.20192E-14-3.57256E-13
 -1      4246 1.99923E+01 6.04129E-02-1.77874E-04-6.35897E-03 1.70291E-13-3.36682E-13
 -1      4247 1.99919E+01 6.13535E-02-5.98330E-05-3.37772E-03 7.78279E-14-5.85400E-13
 -1      4248 1.99853E+01 7.85036E-02 1.61630E-04-5.76298E-03 8.36774E-14-4.32232E-13
 -1      4249 1.89054E+01 1.61218E+00 7.57256E-03-5.15711E-02 8.33697E-15-3.14997E-13
 -1      4250 1.88943E+01 1.57307E+00-4.03066E-03 1.06206E-01-2.11756E-14-3.46398E-13
 -1      4251 1.87597E+01 1.50241E+00-1.68568E-03 1.43502E-01-1.47481E-14-3.53510E-13
 -1      4252 1.99924E+01 6.22546E-02-2.14355E-04 1.06968E-02-1.80010E-13 1.85373E-13
 -1      4253 1.99891E+01 7.27160E-02 1.72890E-05 1.41925E-02-4.02481E-14 2.43358E-13
 -1      4254 1.99840E+01 8.24766E-02 1.07792E-04 1.07366E-02 8.12985E-14 1.22782E-13
 -1      4255 1.99920E+01 6.22537E-02 6.02672E-05 5.34017E-03-1.35834E-13-3.17870E-13
 -1      4256 1.99913E+01 6.23039E-02-1.04734E-04-5.96683E-04 1.77174E-14-6.25495E-13
 -1      4257 1.99915E+01 6.17291E-02-1.20450E-04 2.53400E-03 6.01220E-14-4.81597E-13
 -1      4258 1.99888E+01 7.15507E-02 2.57891E-04 4.45331E-03 1.33741E-13-2.03381E-13
 -1      4259 1.99885E+01 7.05335E-02 9.28476E-05-1.48753E-03 4.46354E-14-4.22051E-13
 -1      4260 1.54140E+01 1.14087E+00 3.05405E-02 7.05336E-01-1.38992E-13 1.06483E-13
 -1      4261 1.57465E+01 1.13140E+00-7.66364E-03-1.77394E-01 2.61408E-14-4.94067E-13
 -1      4262 1.58732E+01 1.01199E+00-5.25138E-03-9.76732E-01-3.40243E-14-4.55796E-13
 -1      4263 1.68360E+01 1.08236E+00-4.26575E-03-9.32109E-01-3.05233E-14-4.24516E-13
 -1      4264 1.64931E+01 1.16990E+00 8.66706E-03 4.88789E-02 2.08839E-14-4.38126E-13
 -1      4265 1.90732E+01 8.73917E-01 9.43897E-03 1.98511E-01 5.73317E-14-2.24197E-13
 -1      4266 1.90492E+01 8.59593E-01-4.03975E-03 3.15129E-01 8.14953E-14-1.48537E-13
 -1      4267 1.89200E+01 9.18689E-01-2.23108E-03 3.52310E-01 1.33069E-13-6.20353E-14
 -1      4268 1.78756E+01 1.23222E+00-7.00087E-03-7.06729E-01-2.11394E-14-3.59549E-13
 -1      4269 1.81604E+01 1.29192E+00-9.98293E-03-6.01037E-01-3.19189E-16-3.53333E-13
 -1      4270 1.87502E+01 9.72119E-01-5.28994E-03 3.80771E-01 1.83507E-15-5.51832E-14
 -1      4271 1.85871E+01 1.02448E+00-2.93117E-03 4.24445E-01-9.51885E-14 4.33945E-14
 -1      4272 1.84112E+01 1.11142E+00 1.65647E-02 2.74156E-01-8.54005E-14 4.54114E-14
 -1      4273 1.87814E+01 9.97886E-01 1.23967E-02 2.34417E-01 1.00455E-13-1.52109E-13
 -1      4274 1.83648E+01 1.43689E+00 8.06638E-03-2.04959E-01-4.75423E-17-3.38601E-13
 -1      4275 1.85837E+01 1.40033E+00-4.06391E-03-4.09452E-01-9.74188E-15-3.40598E-13
 -1      4276 1.76397E+01 1.20659E+00-8.11743E-03 5.21304E-01 1.38869E-14-3.26782E-13
 -1      4277 1.72817E+01 1.14870E+00 3.31959E-04 6.29872E-01 8.59768E-14-3.37888E-13
 -1      4278 1.69622E+01 1.18909E+00 9.74596E-03 4.68755E-01 6.62092E-14-3.80597E-13
 -1      4279 1.99828E+01 8.22513E-02-2.07192E-04 6.76508E-03 1.50934E-13-1.28319E-13
 -1      4280 1.99787E+01 9.41478E-02 2.31724E-04 9.95567E-03 1.54677E-13 7.27117E-14
 -1      4281 1.99828E+01 8.26852E-02 3.31595E-05 3.36853E-03 1.30295E-13-3.66797E-13
 -1      4282 1.73395E+01 1.15361E+00-1.84307E-02-1.75135E-01-1.68073E-15-4.92818E-14
 -1      4283 1.69655E+01 1.16149E+00-2.12416E-02-1.74221E-01 6.91942E-14-1.26639E-14
 -1      4284 1.65900E+01 1.15399E+00-9.62093E-03-2.70824E-01-8.78984E-15 5.92384E-14
 -1      4285 1.76515E+01 1.15016E+00-1.72041E-02-9.97996E-02-1.04050E-13-6.21785E-14
 -1      4286 1.79385E+01 1.11966E+00-1.43101E-02-1.03921E-01-1.09851E-13-1.73533E-13
 -1      4287 1.81834E+01 1.09307E+00-1.25518E-02-5.06751E-02-3.83026E-14-2.26895E-13
 -1      4288 1.84054E+01 1.04634E+00-1.05998E-02-5.64846E-02 5.57389E-14-3.30597E-13
 -1      4289 1.85993E+01 1.00338E+00-9.13076E-03-1.91836E-02 4.77711E-14-4.14347E-13
 -1      4290 1.87729E+01 9.46665E-01-7.99510E-03-2.64007E-02 4.16940E-14-4.06748E-13
 -1      4291 1.89274E+01 8.94211E-01-6.73875E-03-2.70405E-05 3.67954E-14-4.21302E-13
 -1      4292 1.90638E+01 8.33020E-01-6.16395E-03-8.28684E-03 4.26856E-14-3.73554E-13
 -1      4293 1.91870E+01 7.76662E-01-5.03072E-03 1.05797E-02-5.37302E-14-2.87053E-13
 -1      4294 1.92939E+01 7.15371E-01-4.82067E-03 1.82105E-03-7.30370E-14-2.12211E-13
 -1      4295 1.93917E+01 6.59313E-01-3.77614E-03 1.54694E-02-4.37842E-14-1.55075E-13
 -1      4296 1.94751E+01 6.01083E-01-3.79185E-03 6.76657E-03-1.16528E-13-1.30762E-13
 -1      4297 1.95520E+01 5.48225E-01-2.83407E-03 1.67388E-02-8.62908E-15-1.61714E-13
 -1      4298 1.96164E+01 4.95101E-01-2.97884E-03 8.54183E-03 7.16240E-14-2.15734E-13
 -1      4299 1.96762E+01 4.47232E-01-2.11710E-03 1.58894E-02 8.41619E-14-2.00263E-13
 -1      4300 1.97253E+01 4.00324E-01-2.32519E-03 8.50118E-03 2.16557E-14-1.59660E-13
 -1      4301 1.97711E+01 3.58351E-01-1.56821E-03 1.39500E-02-2.41673E-14-4.44413E-14
 -1      4302 1.98080E+01 3.18051E-01-1.79649E-03 7.53157E-03-5.73721E-14-6.68528E-14
 -1      4303 1.98425E+01 2.82226E-01-1.14755E-03 1.15885E-02-1.17195E-13-1.56225E-13
 -1      4304 1.98697E+01 2.48413E-01-1.36833E-03 6.18852E-03-8.41968E-14-1.65586E-13
 -1      4305 1.98953E+01 2.18539E-01-8.22898E-04 9.20902E-03-7.47361E-14-2.36980E-13
 -1      4306 1.99150E+01 1.90772E-01-1.01365E-03 4.80794E-03-5.52338E-14-1.44236E-13
 -1      4307 1.99335E+01 1.66370E-01-5.49855E-04 7.04151E-03 1.00805E-14-1.74659E-13
 -1      4308 1.99474E+01 1.44121E-01-6.48442E-04 3.61744E-03 4.64608E-14-1.59134E-13
 -1      4309 1.99606E+01 1.24696E-01-1.90112E-04 4.98194E-03-2.21587E-14-1.17436E-13
 -1      4310 1.99700E+01 1.06450E-01-3.63086E-04-2.61846E-03 6.55825E-14-3.52477E-13
 -1      4311 1.99788E+01 9.11960E-02-1.65048E-06-1.01082E-03 1.56773E-13-4.08219E-13
 -1      4312 1.87989E+01 1.46481E+00-4.63647E-03-3.37004E-01-2.03089E-14-3.46740E-13
 -1      4313 1.82675E+01 1.33307E+00-7.06858E-03 3.54198E-01 3.27212E-15-3.67199E-13
 -1      4314 1.80020E+01 1.27942E+00 2.01116E-03 4.41679E-01 7.22378E-15-3.28023E-13
 -1      4315 1.77768E+01 1.30771E+00 1.06040E-02 3.09495E-01 1.91429E-14-3.20902E-13
 -1      4316 1.56788E+01 1.16024E+00-4.11070E-03 1.12133E-01-7.22673E-14 5.26170E-14
 -1      4317 1.71966E+01 1.11865E+00-7.32769E-03-8.73082E-01-5.10275E-14-3.97822E-13
 -1      4318 1.75619E+01 1.19487E+00-1.11432E-02-7.43529E-01-2.91327E-14-3.71827E-13
 -1      4319 1.76335E+01 1.31839E+00 1.56084E-02-4.04628E-01-4.13515E-16-3.57982E-13
 -1      4320 1.69415E+01 1.25121E+00 1.70724E-02-4.27592E-01-1.99782E-14-4.10873E-13
 -1      4321 1.85984E+01 1.44392E+00 1.09758E-03 1.88459E-01-1.43713E-14-3.49989E-13
 -1      4322 1.99843E+01 7.89396E-02-1.56248E-04-2.72210E-03 8.79531E-14-4.37602E-13
 -1      4323 1.62073E+01 1.23106E+00 1.41783E-02 7.78918E-02 1.32663E-14 1.14106E-13
 -1      4324 1.84325E+01 1.43306E+00-2.48312E-03 9.14069E-02 5.64116E-15-3.20881E-13
 -1      4325 1.79979E+01 1.34000E+00 3.91163E-04-5.38594E-02 1.55882E-14-3.37834E-13
 -1      4326 1.99695E+01 1.11222E-01 2.31769E-04 1.28362E-02-1.92543E-15 6.13105E-14
 -1      4327 1.69238E+01 1.22924E+00-4.33590E-03-7.52130E-03 2.37477E-14-3.77390E-13
 -1      4328 1.76136E+01 1.29007E+00-6.91952E-03-2.52306E-02 1.04990E-14-3.42130E-13
 -1      4329 1.73066E+01 1.25074E+00-7.61959E-03-2.02207E-02 1.74625E-14-3.27584E-13
 -3
    1PSTEP                         3           1           1          
  100CL  101 1.000000000        4329                     0    1           1
 -4  TOSTRAIN    6    1
 -5  EXX         1    4    1    1
 -5  EYY         1    4    2    2
 -5  EZZ         1    4    3    3
 -5  EXY         1    4    1    2
 -5  EYZ         1    4    2    3
 -5  EZX         1    4    3    1
 -1         1 2.93642E-04-8.64379E-05-7.66996E-05-5.00405E-05-4.07423E-19 1.61614E-18
 -1         2 3.58006E-05-1.10191E-04 2.01182E-05-1.83992E-06-5.85106E-18 1.31671E-18
 -1         3 9.52381E-05-2.85701E-05-2.85722E-05 1.57565E-09-1.03539E-18-1.94659E-18
 -1         4 9.52380E-05-2.85702E-05-2.85723E-05-1.34740E-09 1.32866E-18 7.20180E-19
 -1         5 1.41872E-04-2.11358E-05-4.23508E-05 3.79375E-05-3.03238E-19 2.13965E-17
 -1         6 1.43781E-04 2.57186E-10-4.39883E-05-5.26156E-05-1.12253E-18 2.53068E-17
 -1         7 9.11151E-05-5.91983E-07-3.91492E-05-2.82541E-05-1.55325E-19 7.32657E-18
 -1         8 8.58617E-05 4.51735E-08-3.65867E-05-1.88961E-05-3.10464E-19 1.11209E-18
 -1         9 8.34844E-05 5.22877E-08-3.56022E-05-1.40223E-05-2.78819E-19-2.54333E-18
 -1        10 8.21749E-05 2.88398E-08-3.50465E-05-1.04027E-05-2.16867E-19-4.58806E-18
 -1        11 8.13098E-05 1.87126E-08-3.46924E-05-7.46652E-06-1.80908E-19-5.72952E-18
 -1        12 8.07064E-05 1.56602E-08-3.44528E-05-5.02732E-06-1.38662E-19-6.31952E-18
 -1        13 8.02971E-05 1.63100E-08-3.42938E-05-2.86080E-06-9.78555E-20-6.63974E-18
 -1        14 8.00900E-05 1.72119E-08-3.42142E-05-8.82924E-07-5.70457E-20-6.81062E-18
 -1        15 8.00893E-05 1.73270E-08-3.42143E-05 1.02977E-06-7.76640E-21-6.95428E-18
 -1        16 8.02971E-05 1.65403E-08-3.42949E-05 3.00169E-06-3.35504E-21-7.00539E-18
 -1        17 8.07134E-05 1.49502E-08-3.44565E-05 5.16186E-06 6.13536E-20-6.93574E-18
 -1        18 8.13292E-05 1.73147E-08-3.46999E-05 7.59939E-06 1.06097E-19-6.64986E-18
 -1        19 8.22127E-05 2.69539E-08-3.50605E-05 1.05576E-05 1.77228E-19-6.00199E-18
 -1        20 8.35258E-05 5.63668E-08-3.56222E-05 1.42220E-05 2.34284E-19-4.50792E-18
 -1        21 8.58481E-05 1.22981E-07-3.66299E-05 1.90821E-05 2.98685E-19-1.42510E-18
 -1        22 9.20302E-05-1.71691E-07-3.88213E-05 2.70031E-05 7.66565E-20 5.31509E-18
 -1        23 1.12944E-04-3.81296E-05-3.54016E-05-4.13118E-06-7.30063E-19 2.11775E-17
 -1        24 9.40171E-05-2.80704E-05-2.93427E-05 4.22933E-07-2.36061E-19 1.73827E-17
 -1        25 9.13618E-05-2.75317E-05-2.75978E-05 3.88108E-07-1.02324E-19 1.34299E-17
 -1        26 9.13531E-05-2.74960E-05-2.74013E-05 2.20211E-07 1.08261E-20 1.08703E-17
 -1        27 9.26769E-05-2.78638E-05-2.77895E-05 1.65579E-07-8.61434E-20 9.17861E-18
 -1        28 9.47955E-05-2.84753E-05-2.84386E-05 1.40643E-07-6.59296E-20 7.88432E-18
 -1        29 9.74699E-05-2.92622E-05-2.92486E-05 1.32750E-07-5.54666E-21 7.20847E-18
 -1        30 1.00544E-04-3.01734E-05-3.01711E-05 1.34399E-07-3.67047E-20 6.08082E-18
 -1        31 1.03850E-04-3.11553E-05-3.11548E-05 1.39170E-07-1.27957E-19 4.68150E-18
 -1        32 1.07138E-04-3.21317E-05-3.21214E-05 1.38331E-07-2.14354E-19 3.35409E-18
 -1        33 1.10014E-04-3.29854E-05-3.29501E-05 1.18441E-07 3.05508E-19 2.74543E-18
 -1        34 1.11909E-04-3.35479E-05-3.34702E-05 6.10716E-08-1.51376E-19 2.67864E-18
 -1        35 1.12113E-04-3.36087E-05-3.34793E-05-5.20873E-08 1.47045E-19 2.95390E-18
 -1        36 1.09951E-04-3.29669E-05-3.28014E-05-2.24284E-07-1.14905E-19 3.35454E-18
 -1        37 1.05147E-04-3.15385E-05-3.13920E-05-4.20702E-07-7.69642E-20 3.25716E-18
 -1        38 9.82953E-05-2.94954E-05-2.94534E-05-5.55435E-07 1.84602E-19 2.16920E-18
 -1        39 9.11025E-05-2.73444E-05-2.74738E-05-5.21261E-07-2.86311E-19 1.91464E-18
 -1        40 8.60016E-05-2.58153E-05-2.60976E-05-2.71537E-07-1.27047E-19 7.89210E-19
 -1        41 8.50307E-05-2.55240E-05-2.58407E-05 1.07771E-07-9.90962E-20-1.26177E-18
 -1        42 8.86416E-05-2.66075E-05-2.68159E-05 4.35432E-07-1.72652E-19-1.41997E-18
 -1        43 9.54176E-05-2.86368E-05-2.86689E-05 5.69902E-07-2.60301E-20-7.98408E-19
 -1        44 1.02952E-04-3.08872E-05-3.07779E-05 5.00953E-07 2.36536E-19-1.08177E-18
 -1        45 1.09124E-04-3.27254E-05-3.25609E-05 3.21354E-07-1.46485E-19-3.10464E-19
 -1        46 1.12853E-04-3.38340E-05-3.36877E-05 1.34409E-07-3.38180E-19-1.80277E-18
 -1        47 1.14091E-04-3.42023E-05-3.41059E-05-2.19999E-09 4.38771E-19-3.08712E-20
 -1        48 1.13395E-04-3.39967E-05-3.39502E-05-7.74287E-08 1.63099E-19 1.76591E-18
 -1        49 1.11494E-04-3.34332E-05-3.34220E-05-1.04805E-07-1.19850E-20 2.12862E-18
 -1        50 1.09029E-04-3.27013E-05-3.27093E-05-1.03313E-07 2.09605E-19 7.85034E-19
 -1        51 1.06456E-04-3.19360E-05-3.19515E-05-8.81690E-08-5.46477E-19-6.48477E-19
 -1        52 1.04052E-04-3.12193E-05-3.12355E-05-6.89073E-08-2.50009E-20-1.22630E-18
 -1        53 1.01954E-04-3.05927E-05-3.06066E-05-5.04886E-08 5.56999E-20-6.52698E-19
 -1        54 1.00209E-04-3.00705E-05-3.00811E-05-3.49710E-08 2.98608E-19-1.06673E-18
 -1        55 9.88098E-05-2.96509E-05-2.96584E-05-2.28368E-08-2.00771E-19-1.40244E-18
 -1        56 9.77215E-05-2.93239E-05-2.93288E-05-1.38332E-08 8.90613E-20-2.24265E-18
 -1        57 9.68977E-05-2.90759E-05-2.90789E-05-7.43611E-09 3.55472E-19-2.66490E-18
 -1        58 9.62905E-05-2.88928E-05-2.88943E-05-3.07881E-09 7.66814E-20-4.44759E-18
 -1        59 9.58555E-05-2.87613E-05-2.87619E-05-2.50076E-10 2.48423E-21-3.13568E-18
 -1        60 9.55538E-05-2.86699E-05-2.86699E-05 1.47339E-09-1.30545E-19-2.26408E-18
 -1        61 9.53530E-05-2.86089E-05-2.86085E-05 2.42503E-09 3.14753E-19-2.05746E-18
 -1        62 9.52270E-05-2.85704E-05-2.85698E-05 2.85877E-09 3.72638E-19-1.57285E-18
 -1        63 9.51550E-05-2.85482E-05-2.85476E-05 2.96283E-09-9.10707E-19-2.51046E-18
 -1        64 9.51212E-05-2.85376E-05-2.85371E-05 2.87335E-09 1.47449E-19-6.00644E-18
 -1        65 9.51136E-05-2.85350E-05-2.85345E-05 2.68608E-09-7.85947E-20-5.33462E-18
 -1        66 9.51233E-05-2.85376E-05-2.85372E-05 2.46533E-09 1.42578E-19-5.45386E-18
 -1        67 9.51435E-05-2.85434E-05-2.85431E-05 2.24903E-09 1.15235E-18-4.36923E-18
 -1        68 9.51692E-05-2.85510E-05-2.85507E-05 2.04748E-09-7.98459E-19-2.10992E-18
 -1        69 9.51963E-05-2.85589E-05-2.85586E-05 1.81754E-09 1.14339E-18-1.16156E-18
 -1        70 9.52200E-05-2.85661E-05-2.85654E-05 1.31431E-09-4.05534E-19-1.16119E-19
 -1        71 9.52355E-05-2.85710E-05-2.85699E-05 3.78610E-10 6.50230E-20-3.53077E-19
 -1        72 1.02244E-04-3.05964E-05-3.41778E-05-1.98691E-06 4.67456E-19 1.86106E-17
 -1        73 9.38000E-05-2.78950E-05-2.92599E-05-3.45625E-07 1.92918E-19 1.29435E-17
 -1        74 9.13945E-05-2.73958E-05-2.76562E-05-1.24545E-07 1.43766E-19 8.91801E-18
 -1        75 9.14873E-05-2.74772E-05-2.74797E-05-9.02135E-08 2.08648E-20 6.36161E-18
 -1        76 9.29268E-05-2.79057E-05-2.78869E-05-7.37540E-08 6.00037E-20 4.43965E-18
 -1        77 9.52415E-05-2.85895E-05-2.85891E-05-6.82977E-08 6.63750E-20 3.19087E-18
 -1        78 9.82426E-05-2.94810E-05-2.94977E-05-7.33225E-08-6.23798E-20 2.76718E-18
 -1        79 1.01837E-04-3.05516E-05-3.05799E-05-8.95615E-08 1.42662E-19 1.57979E-18
 -1        80 1.05931E-04-3.17714E-05-3.18041E-05-1.18323E-07-1.22303E-20 4.41913E-20
 -1        81 1.10341E-04-3.30855E-05-3.31085E-05-1.58843E-07 2.12758E-19-9.87495E-19
 -1        82 1.14692E-04-3.43847E-05-3.43707E-05-2.03311E-07 2.91498E-20-1.57894E-18
 -1        83 1.18311E-04-3.54731E-05-3.53798E-05-2.29256E-07-1.88030E-19-1.30084E-18
 -1        84 1.20168E-04-3.60500E-05-3.58315E-05-1.92882E-07 2.46647E-19-1.85978E-18
 -1        85 1.19010E-04-3.57422E-05-3.53878E-05-3.64813E-08 1.33519E-19-3.02739E-18
 -1        86 1.13866E-04-3.42437E-05-3.38384E-05 2.67956E-07 2.17132E-19-4.05408E-18
 -1        87 1.04966E-04-3.15855E-05-3.13406E-05 6.41450E-07-6.80311E-20-4.89900E-18
 -1        88 9.46090E-05-2.84206E-05-2.85746E-05 8.60794E-07-2.23976E-19-4.15216E-18
 -1        89 8.68720E-05-2.59935E-05-2.65846E-05 6.92547E-07 9.73757E-21-5.28091E-18
 -1        90 8.55048E-05-2.55093E-05-2.62575E-05 1.50851E-07 7.03203E-20-6.95581E-18
 -1        91 9.12871E-05-2.72611E-05-2.77598E-05-4.47009E-07 2.21467E-19-9.67989E-18
 -1        92 1.01415E-04-3.03784E-05-3.04350E-05-7.58041E-07-6.74873E-19-8.45747E-18
 -1        93 1.11592E-04-3.35040E-05-3.32221E-05-7.09330E-07 2.05578E-19-7.05081E-18
 -1        94 1.18680E-04-3.56589E-05-3.52731E-05-4.60701E-07 1.00234E-19-8.34449E-18
 -1        95 1.21711E-04-3.65620E-05-3.62433E-05-1.95723E-07 7.93423E-20-7.91505E-18
 -1        96 1.21328E-04-3.64281E-05-3.62349E-05-7.96781E-09 1.21736E-20-6.45238E-18
 -1        97 1.18776E-04-3.56458E-05-3.55635E-05 9.11606E-08-1.01173E-19-5.52155E-18
 -1        98 1.15213E-04-3.45671E-05-3.45563E-05 1.26329E-07 8.43879E-20-4.26631E-18
 -1        99 1.11450E-04-3.34339E-05-3.34593E-05 1.25543E-07-1.31189E-19-5.54889E-18
 -1       100 1.07950E-04-3.23832E-05-3.24215E-05 1.08755E-07 2.47159E-19-7.62801E-18
 -1       101 1.04927E-04-3.14766E-05-3.15156E-05 8.73702E-08-3.94831E-19-7.03409E-18
 -1       102 1.02437E-04-3.07305E-05-3.07647E-05 6.68875E-08 9.23057E-20-6.86114E-18
 -1       103 1.00456E-04-3.01369E-05-3.01648E-05 4.94403E-08 6.78468E-20-7.90819E-18
 -1       104 9.89213E-05-2.96771E-05-2.96989E-05 3.54857E-08-4.14055E-19-5.55182E-18
 -1       105 9.77601E-05-2.93290E-05-2.93455E-05 2.47538E-08 2.07650E-19-3.12051E-18
 -1       106 9.69003E-05-2.90711E-05-2.90834E-05 1.67275E-08-5.88490E-19-5.06572E-18
 -1       107 9.62778E-05-2.88844E-05-2.88932E-05 1.08603E-08 2.94760E-19-7.78895E-18
 -1       108 9.58383E-05-2.87524E-05-2.87587E-05 6.66253E-09 6.09903E-19-1.12130E-17
 -1       109 9.55374E-05-2.86620E-05-2.86664E-05 3.72690E-09-2.78228E-19-8.77455E-18
 -1       110 9.53394E-05-2.86025E-05-2.86054E-05 1.72705E-09-4.48810E-20-8.18215E-18
 -1       111 9.52166E-05-2.85655E-05-2.85674E-05 4.07289E-10 3.25397E-19-5.79942E-18
 -1       112 9.51476E-05-2.85447E-05-2.85459E-05-4.29986E-10-8.38513E-19-3.96130E-18
 -1       113 9.51163E-05-2.85352E-05-2.85359E-05-9.36019E-10 6.84666E-19-1.49388E-18
 -1       114 9.51105E-05-2.85334E-05-2.85338E-05-1.22573E-09-1.01144E-18-5.48886E-18
 -1       115 9.51216E-05-2.85366E-05-2.85368E-05-1.38649E-09 2.10172E-19-1.56559E-18
 -1       116 9.51428E-05-2.85429E-05-2.85430E-05-1.48461E-09 5.77881E-19-2.68853E-18
 -1       117 9.51692E-05-2.85508E-05-2.85507E-05-1.56506E-09 8.61129E-19-4.95421E-18
 -1       118 9.51967E-05-2.85590E-05-2.85587E-05-1.63715E-09 4.29898E-20-4.02261E-18
 -1       119 9.52207E-05-2.85662E-05-2.85655E-05-1.57732E-09-2.04794E-19-3.67375E-18
 -1       120 9.52354E-05-2.85711E-05-2.85699E-05-7.30830E-10 8.27894E-19-1.27135E-18
 -1       121 9.52378E-05-2.85737E-05-2.85699E-05-5.51362E-10-2.03476E-18-7.61912E-19
 -1       122 9.52423E-05-2.85880E-05-2.85656E-05-1.31573E-09-2.88456E-18-7.22010E-19
 -1       123 9.52486E-05-2.86091E-05-2.85597E-05-1.42418E-09-8.36102E-19 2.69456E-19
 -1       124 9.52550E-05-2.86307E-05-2.85535E-05-1.18835E-09 6.31119E-19 5.91812E-19
 -1       125 9.52605E-05-2.86493E-05-2.85480E-05-8.61513E-10-1.01352E-18-1.60315E-18
 -1       126 9.52647E-05-2.86631E-05-2.85439E-05-5.68308E-10-7.10913E-18-2.98802E-19
 -1       127 9.52674E-05-2.86724E-05-2.85411E-05-3.09020E-10-3.79984E-18 1.37841E-18
 -1       128 9.52688E-05-2.86768E-05-2.85397E-05-9.15672E-11-1.94906E-18-2.05481E-20
 -1       129 9.52687E-05-2.86767E-05-2.85398E-05 1.08640E-10 9.90034E-19-6.31716E-19
 -1       130 9.52673E-05-2.86719E-05-2.85412E-05 3.22127E-10 1.45678E-18-3.82788E-19
 -1       131 9.52645E-05-2.86625E-05-2.85441E-05 5.84397E-10-5.72343E-20-4.94697E-19
 -1       132 9.52603E-05-2.86485E-05-2.85483E-05 8.65464E-10-4.19512E-18 1.30612E-18
 -1       133 9.52548E-05-2.86299E-05-2.85537E-05 1.18301E-09-8.41071E-18 1.02558E-19
 -1       134 9.52484E-05-2.86084E-05-2.85599E-05 1.48360E-09-6.91946E-18 1.34850E-18
 -1       135 9.52423E-05-2.85879E-05-2.85658E-05 1.81438E-09-3.42288E-18-1.64060E-19
 -1       136 9.52382E-05-2.85742E-05-2.85699E-05 3.62035E-10-1.80390E-18 2.75015E-19
 -1       137 2.46184E-05-8.47092E-05 1.50448E-05-2.34431E-05 8.89130E-18 2.22666E-18
 -1       138 7.05034E-06-3.15434E-05 2.58129E-06-1.78452E-05 1.82167E-17 1.00145E-17
 -1       139 1.24320E-05 1.50639E-05-1.55125E-05 2.45653E-05 2.44505E-17 1.92675E-17
 -1       140 6.42166E-05 2.56105E-05-3.69855E-05 8.18582E-05 2.04529E-17 2.41675E-17
 -1       141 1.60210E-04-1.02479E-05-5.73732E-05 1.12926E-04 1.31140E-17 2.41379E-17
 -1       142 2.55678E-04-6.23999E-05-7.18728E-05 9.03114E-05 5.17394E-18 1.89769E-17
 -1       143 3.11045E-04-9.59898E-05-7.91394E-05 1.46261E-05 7.37051E-19 5.96046E-18
 -1       144 2.85559E-04-8.01730E-05-7.59472E-05-6.82250E-05 2.49239E-18-1.06512E-17
 -1       145 1.97262E-04-2.86405E-05-6.36043E-05-1.11596E-04 9.70213E-18-2.13575E-17
 -1       146 8.94183E-05 1.80207E-05-4.28510E-05-9.39460E-05 1.84136E-17-2.47168E-17
 -1       147 2.27428E-05 2.14148E-05-2.12174E-05-4.02037E-05 2.40045E-17-2.09895E-17
 -1       148 5.25086E-06-2.03590E-05-7.32400E-07 1.15397E-05 2.41265E-17-1.25299E-17
 -1       149 2.08879E-05-7.54092E-05 1.29482E-05 2.54977E-05 1.87429E-17-5.98180E-18
 -1       150 3.57516E-05-1.10374E-04 2.00221E-05 7.78124E-06 5.73320E-18-6.70691E-19
 -1       151 3.03546E-05-9.78637E-05 1.75987E-05-2.01029E-05-9.77688E-18-2.03549E-18
 -1       152 1.14645E-05-4.79816E-05 6.82689E-06-2.29312E-05-2.29478E-17-9.35506E-18
 -1       153 7.51552E-06 6.50537E-06-1.05813E-05 1.21261E-05-2.81753E-17-1.93642E-17
 -1       154 4.97867E-05 2.75910E-05-3.24981E-05 7.12513E-05-2.51696E-17-2.68387E-17
 -1       155 1.35378E-04 1.95296E-06-5.29624E-05 1.11544E-04-1.68005E-17-2.77865E-17
 -1       156 2.43510E-04-5.55118E-05-7.01895E-05 9.73055E-05-6.75922E-18-2.21660E-17
 -1       157 3.02892E-04-9.22180E-05-7.78689E-05 3.10298E-05-1.03028E-18-1.12632E-17
 -1       158 2.24248E-04-4.47725E-05-6.73774E-05-1.04365E-04-5.02799E-18 1.27246E-17
 -1       159 1.28935E-04 4.51606E-06-5.17009E-05-1.09490E-04-1.22242E-17 2.00654E-17
 -1       160 4.84936E-05 2.85576E-05-3.24011E-05-7.10478E-05-2.11978E-17 2.15600E-17
 -1       161 8.88181E-06 1.06732E-05-1.25989E-05-1.71173E-05-2.60052E-17 1.91277E-17
 -1       162 8.82710E-06-3.84412E-05 4.49450E-06 2.01060E-05-2.70043E-17 1.05780E-17
 -1       163 2.68357E-05-8.90266E-05 1.58424E-05 2.31318E-05-1.97774E-17 4.89064E-18
 -1       164 9.58763E-05-1.28014E-05-3.57954E-05-2.09206E-05-3.22787E-18 3.70651E-18
 -1       165 9.01975E-05-8.73231E-06-3.50679E-05-1.57645E-05-3.36311E-18-2.70680E-19
 -1       166 8.71258E-05-6.52754E-06-3.46496E-05-1.18692E-05-2.93005E-18-2.73548E-18
 -1       167 8.52538E-05-5.26124E-06-3.43624E-05-8.72626E-06-2.46889E-18-4.20294E-18
 -1       168 8.39837E-05-4.43592E-06-3.41557E-05-6.12810E-06-1.94759E-18-4.98169E-18
 -1       169 8.30940E-05-3.87574E-06-3.40061E-05-3.85640E-06-1.43804E-18-5.40179E-18
 -1       170 8.25619E-05-3.54711E-06-3.39146E-05-1.82830E-06-9.06585E-19-5.59993E-18
 -1       171 8.23804E-05-3.43433E-06-3.38838E-05 7.66729E-08-3.52937E-19-5.75549E-18
 -1       172 8.25535E-05-3.53656E-06-3.39155E-05 1.97723E-06 1.52801E-19-5.88636E-18
 -1       173 8.30869E-05-3.86261E-06-3.40088E-05 3.99445E-06 6.54621E-19-5.86031E-18
 -1       174 8.39749E-05-4.42231E-06-3.41582E-05 6.21384E-06 1.26755E-18-5.66091E-18
 -1       175 8.53006E-05-5.29084E-06-3.43703E-05 8.84839E-06 1.94313E-18-5.21520E-18
 -1       176 8.72322E-05-6.61536E-06-3.46614E-05 1.20329E-05 2.55452E-18-4.25168E-18
 -1       177 9.03600E-05-8.87409E-06-3.50816E-05 1.59594E-05 3.13169E-18-2.23864E-18
 -1       178 9.67690E-05-1.40407E-05-3.56557E-05 2.04731E-05 3.31903E-18 1.73724E-18
 -1       179 1.06256E-04-2.64220E-05-3.53860E-05 1.76187E-05 2.76372E-18 7.05425E-18
 -1       180 1.04399E-04-2.76755E-05-3.28771E-05-1.10667E-05-2.74142E-18 7.95862E-18
 -1       181 9.88037E-05-2.87997E-05-3.00332E-05-3.68105E-06-2.48901E-18 6.42263E-18
 -1       182 9.60291E-05-2.83524E-05-2.89536E-05-6.24480E-07-1.62036E-18 5.13632E-18
 -1       183 9.54629E-05-2.83848E-05-2.87099E-05 9.34497E-07-1.15823E-18 4.08696E-18
 -1       184 9.60471E-05-2.86401E-05-2.88680E-05 1.88698E-06-8.83414E-19 3.45523E-18
 -1       185 9.73883E-05-2.90869E-05-2.92612E-05 2.54237E-06-5.29161E-19 2.86541E-18
 -1       186 9.92444E-05-2.96826E-05-2.98072E-05 3.00196E-06-5.90549E-19 2.28096E-18
 -1       187 1.01436E-04-3.03918E-05-3.04469E-05 3.26847E-06-8.70534E-19 1.93191E-18
 -1       188 1.03782E-04-3.11770E-05-3.11200E-05 3.27431E-06-7.12466E-19 1.91469E-18
 -1       189 1.06053E-04-3.19845E-05-3.17521E-05 2.89439E-06-6.12161E-19 1.76870E-18
 -1       190 1.07946E-04-3.27271E-05-3.22488E-05 1.97187E-06-1.80294E-19 7.06944E-19
 -1       191 1.09073E-04-3.32665E-05-3.25022E-05 3.83649E-07 8.53899E-20 7.80432E-19
 -1       192 1.09013E-04-3.34066E-05-3.24141E-05-1.83296E-06 4.17591E-19 1.05698E-18
 -1       193 1.07442E-04-3.29285E-05-3.19401E-05-4.30992E-06 4.58556E-20 1.42784E-18
 -1       194 1.04373E-04-3.17097E-05-3.11397E-05-6.25091E-06-7.75278E-19 1.51593E-18
 -1       195 1.00409E-04-2.99194E-05-3.02022E-05-6.61642E-06-4.52327E-19 1.02852E-18
 -1       196 9.67894E-05-2.81440E-05-2.94100E-05-4.71202E-06-7.45286E-19 4.47399E-19
 -1       197 9.49697E-05-2.72017E-05-2.90345E-05-8.87755E-07-1.10048E-18-3.16268E-19
 -1       198 9.57996E-05-2.76060E-05-2.92168E-05 3.36325E-06-8.51209E-19-9.66503E-19
 -1       199 9.89448E-05-2.91498E-05-2.99032E-05 6.27707E-06-3.45962E-19-2.01238E-18
 -1       200 1.03131E-04-3.10853E-05-3.08711E-05 6.93597E-06 2.06858E-19-2.55852E-18
 -1       201 1.06942E-04-3.26705E-05-3.18321E-05 5.62732E-06-2.62081E-19-2.45903E-18
 -1       202 1.09479E-04-3.35534E-05-3.25484E-05 3.33195E-06 2.42371E-19-1.35864E-18
 -1       203 1.10498E-04-3.37557E-05-3.29020E-05 9.99031E-07 1.09341E-18 5.91855E-19
 -1       204 1.10204E-04-3.34726E-05-3.28975E-05-8.17151E-07 3.19191E-19 2.91814E-19
 -1       205 1.08994E-04-3.29178E-05-3.26139E-05-1.95579E-06-2.21441E-19-5.97595E-19
 -1       206 1.07270E-04-3.22547E-05-3.21555E-05-2.49522E-06-4.74649E-19-1.14642E-18
 -1       207 1.05356E-04-3.15865E-05-3.16179E-05-2.60208E-06-5.99022E-19-6.73168E-19
 -1       208 1.03473E-04-3.09705E-05-3.10721E-05-2.44217E-06-1.80016E-19 6.92696E-19
 -1       209 1.01753E-04-3.04332E-05-3.05636E-05-2.14482E-06-3.58757E-20 2.40748E-19
 -1       210 1.00261E-04-2.99826E-05-3.01164E-05-1.79764E-06-2.37681E-19 8.15494E-19
 -1       211 9.90161E-05-2.96161E-05-2.97396E-05-1.45360E-06-3.61987E-19 3.05863E-19
 -1       212 9.80089E-05-2.93255E-05-2.94326E-05-1.14103E-06-6.47333E-19-1.24950E-18
 -1       213 9.72155E-05-2.91004E-05-2.91893E-05-8.72235E-07 2.00121E-19-1.67311E-18
 -1       214 9.66058E-05-2.89300E-05-2.90014E-05-6.49945E-07-7.33364E-20-2.25611E-18
 -1       215 9.61482E-05-2.88039E-05-2.88598E-05-4.71608E-07 1.32225E-20-2.12772E-18
 -1       216 9.58133E-05-2.87129E-05-2.87557E-05-3.32122E-07 4.22589E-19-3.29098E-18
 -1       217 9.55750E-05-2.86492E-05-2.86812E-05-2.25477E-07-4.93455E-21-1.29696E-18
 -1       218 9.54111E-05-2.86063E-05-2.86296E-05-1.45688E-07 1.63865E-19-1.70317E-18
 -1       219 9.53032E-05-2.85788E-05-2.85955E-05-8.72798E-08-1.12894E-18-3.80218E-18
 -1       220 9.52368E-05-2.85625E-05-2.85741E-05-4.55129E-08-9.17962E-19-3.46714E-18
 -1       221 9.52003E-05-2.85543E-05-2.85621E-05-1.64552E-08 1.01763E-18-2.09936E-18
 -1       222 9.51847E-05-2.85517E-05-2.85567E-05 3.02809E-09-9.17116E-20-7.47787E-19
 -1       223 9.51833E-05-2.85528E-05-2.85557E-05 1.53140E-08 6.39715E-19-1.25156E-18
 -1       224 9.51907E-05-2.85563E-05-2.85575E-05 2.20576E-08 1.22563E-18-1.12896E-18
 -1       225 9.52029E-05-2.85610E-05-2.85608E-05 2.42018E-08 7.63500E-19-3.10414E-19
 -1       226 9.52163E-05-2.85663E-05-2.85643E-05 2.19337E-08 2.85070E-19-1.10010E-18
 -1       227 9.52287E-05-2.85717E-05-2.85672E-05 1.49926E-08 1.01275E-18 2.78763E-19
 -1       228 1.00782E-04-2.89627E-05-3.09529E-05 6.28613E-06 2.60267E-18 5.83144E-18
 -1       229 9.65308E-05-2.84092E-05-2.91622E-05 1.80177E-06 1.97192E-18 3.94066E-18
 -1       230 9.51841E-05-2.82818E-05-2.86258E-05-1.65241E-07 1.26016E-18 2.39122E-18
 -1       231 9.54192E-05-2.84506E-05-2.86725E-05-1.28763E-06 9.17674E-19 1.57894E-18
 -1       232 9.66725E-05-2.88636E-05-2.90463E-05-2.06417E-06 6.59308E-19 1.18970E-18
 -1       233 9.86597E-05-2.94767E-05-2.96426E-05-2.67990E-06 4.46839E-19 5.10213E-19
 -1       234 1.01217E-04-3.02585E-05-3.04081E-05-3.19643E-06 6.62492E-19-2.42390E-19
 -1       235 1.04214E-04-3.11851E-05-3.12987E-05-3.59723E-06 5.18498E-19-4.27222E-20
 -1       236 1.07483E-04-3.22256E-05-3.22569E-05-3.79021E-06 5.59608E-19-3.12393E-19
 -1       237 1.10761E-04-3.33236E-05-3.31925E-05-3.59828E-06 9.64153E-20-9.79812E-20
 -1       238 1.13626E-04-3.43713E-05-3.39689E-05-2.76613E-06 7.03004E-20-1.18950E-19
 -1       239 1.15471E-04-3.51777E-05-3.44064E-05-1.02928E-06 5.76270E-19-3.50830E-19
 -1       240 1.15570E-04-3.54466E-05-3.43215E-05 1.69459E-06 6.73851E-19-5.73294E-19
 -1       241 1.13318E-04-3.48188E-05-3.36182E-05 4.97621E-06 7.26387E-19-1.15639E-18
 -1       242 1.08718E-04-3.30789E-05-3.24039E-05 7.60245E-06 2.05108E-19-1.24420E-18
 -1       243 1.02916E-04-3.05358E-05-3.10415E-05 7.84227E-06 8.39688E-20-1.89958E-18
 -1       244 9.82424E-05-2.82702E-05-3.00457E-05 4.65262E-06 9.80202E-19-2.93941E-18
 -1       245 9.70963E-05-2.76165E-05-2.98399E-05-9.39171E-07 1.11974E-18-4.46452E-18
 -1       246 1.00189E-04-2.90361E-05-3.05228E-05-6.09594E-06 1.03981E-18-4.98918E-18
 -1       247 1.05934E-04-3.16554E-05-3.18206E-05-8.32366E-06-1.16391E-18-5.10307E-18
 -1       248 1.11722E-04-3.40884E-05-3.32386E-05-7.27065E-06 1.61472E-19-4.88328E-18
 -1       249 1.15649E-04-3.55066E-05-3.43222E-05-4.34164E-06 4.12568E-19-4.76807E-18
 -1       250 1.17127E-04-3.58398E-05-3.48298E-05-1.18997E-06-4.88536E-19-5.35222E-18
 -1       251 1.16507E-04-3.54065E-05-3.47621E-05 1.20760E-06-7.63276E-19-4.90894E-18
 -1       252 1.14507E-04-3.45712E-05-3.42676E-05 2.60554E-06-1.24718E-18-2.63869E-18
 -1       253 1.11819E-04-3.35981E-05-3.35318E-05 3.16950E-06-3.21491E-19-1.47226E-18
 -1       254 1.08955E-04-3.26424E-05-3.27112E-05 3.18137E-06 9.12634E-19-7.40892E-19
 -1       255 1.06236E-04-3.17814E-05-3.19118E-05 2.89018E-06 6.76087E-19-1.87177E-18
 -1       256 1.03828E-04-3.10451E-05-3.11926E-05 2.46948E-06-4.75356E-19-2.41285E-18
 -1       257 1.01792E-04-3.04378E-05-3.05789E-05 2.02362E-06-7.35289E-20-3.13765E-18
 -1       258 1.00129E-04-2.99504E-05-3.00744E-05 1.60755E-06-3.63725E-19-1.48798E-18
 -1       259 9.88070E-05-2.95679E-05-2.96716E-05 1.24539E-06-5.86519E-19-6.46581E-19
 -1       260 9.77801E-05-2.92738E-05-2.93576E-05 9.43727E-07 2.83642E-19-1.79385E-18
 -1       261 9.69987E-05-2.90519E-05-2.91180E-05 7.00120E-07 3.28126E-19-2.92273E-18
 -1       262 9.64163E-05-2.88879E-05-2.89390E-05 5.08037E-07 2.16717E-18-2.68948E-18
 -1       263 9.59914E-05-2.87693E-05-2.88081E-05 3.59589E-07 7.86530E-19-3.00166E-18
 -1       264 9.56890E-05-2.86857E-05-2.87145E-05 2.46937E-07-1.12550E-18-3.74660E-18
 -1       265 9.54799E-05-2.86286E-05-2.86497E-05 1.62950E-07 4.29830E-19-3.37008E-18
 -1       266 9.53408E-05-2.85912E-05-2.86063E-05 1.01462E-07-1.22948E-18-2.56451E-18
 -1       267 9.52533E-05-2.85682E-05-2.85788E-05 5.73263E-08-8.31399E-19-5.00408E-19
 -1       268 9.52030E-05-2.85556E-05-2.85628E-05 2.63576E-08 3.82433E-19-2.98823E-18
 -1       269 9.51790E-05-2.85502E-05-2.85550E-05 5.24610E-09 1.73935E-19-1.40839E-18
 -1       270 9.51730E-05-2.85497E-05-2.85527E-05-8.54368E-09-6.40239E-19-1.53304E-18
 -1       271 9.51786E-05-2.85523E-05-2.85540E-05-1.68564E-08 1.53395E-18-1.60642E-18
 -1       272 9.51909E-05-2.85569E-05-2.85574E-05-2.08849E-08 4.01229E-19-7.91879E-19
 -1       273 9.52062E-05-2.85622E-05-2.85616E-05-2.11633E-08-9.89433E-20-1.13152E-18
 -1       274 9.52208E-05-2.85677E-05-2.85656E-05-1.75371E-08-3.25578E-20-1.64168E-18
 -1       275 9.52323E-05-2.85724E-05-2.85685E-05-9.59607E-09-7.08161E-19-1.62205E-18
 -1       276 9.52372E-05-2.85805E-05-2.85672E-05-1.48515E-08-7.07900E-19-6.89927E-19
 -1       277 9.52427E-05-2.85925E-05-2.85644E-05-2.01628E-08-3.05529E-19 8.26942E-19
 -1       278 9.52479E-05-2.86053E-05-2.85611E-05-2.05051E-08-1.61992E-18 3.92108E-19
 -1       279 9.52520E-05-2.86170E-05-2.85578E-05-1.77217E-08-2.06503E-18-7.66207E-19
 -1       280 9.52551E-05-2.86265E-05-2.85551E-05-1.35346E-08-2.78667E-18-3.57802E-18
 -1       281 9.52571E-05-2.86333E-05-2.85530E-05-8.86503E-09-1.00616E-18 8.48581E-19
 -1       282 9.52583E-05-2.86373E-05-2.85518E-05-4.26897E-09 3.53050E-20 1.59723E-18
 -1       283 9.52586E-05-2.86386E-05-2.85514E-05 1.64076E-10 8.38181E-19 1.37364E-18
 -1       284 9.52582E-05-2.86371E-05-2.85518E-05 4.56971E-09 1.50370E-18 2.80861E-19
 -1       285 9.52570E-05-2.86329E-05-2.85531E-05 9.09195E-09-1.57169E-19-1.48353E-18
 -1       286 9.52549E-05-2.86261E-05-2.85552E-05 1.35837E-08-1.39888E-18-2.40205E-18
 -1       287 9.52518E-05-2.86165E-05-2.85580E-05 1.77132E-08-1.57323E-18-2.03630E-18
 -1       288 9.52477E-05-2.86048E-05-2.85613E-05 2.04072E-08-1.60929E-18 1.94048E-18
 -1       289 9.52424E-05-2.85919E-05-2.85645E-05 1.95695E-08-2.29644E-18 2.68224E-18
 -1       290 9.52366E-05-2.85813E-05-2.85666E-05 2.02888E-08-1.03366E-18 1.38315E-18
 -1       291 1.17300E-05-4.02238E-05 9.97535E-06 9.91111E-06-2.34681E-19 7.00899E-18
 -1       292 2.70766E-05-4.30974E-05 4.01959E-06 2.06505E-05 3.70111E-18 7.39518E-18
 -1       293 5.56174E-05-3.72427E-05-9.55049E-06 3.50558E-05 5.41000E-18 8.78548E-18
 -1       294 9.46120E-05-3.33381E-05-2.66423E-05 4.34048E-05 7.97503E-18 8.52708E-18
 -1       295 1.38561E-04-3.06071E-05-4.49940E-05 4.64574E-05 8.88051E-18 9.26188E-18
 -1       296 1.79340E-04-3.39685E-05-5.98401E-05 3.38766E-05 7.27487E-18 6.96219E-18
 -1       297 2.01826E-04-3.33744E-05-6.90606E-05 1.33727E-05 6.40791E-18 3.24943E-18
 -1       298 2.13295E-04-3.74353E-05-7.15465E-05-8.68539E-06 7.51329E-18-5.16637E-19
 -1       299 1.90839E-04-3.39464E-05-6.43769E-05-2.76523E-05 7.70249E-18-3.92939E-18
 -1       300 1.54131E-04-3.62150E-05-4.93969E-05-3.38030E-05 7.51789E-18-5.63404E-18
 -1       301 1.11911E-04-3.79203E-05-3.16478E-05-4.26205E-05 7.94644E-18-7.90451E-18
 -1       302 6.67386E-05-3.79682E-05-1.35646E-05-3.89867E-05 8.27826E-18-8.26725E-18
 -1       303 3.20025E-05-4.19479E-05 1.64087E-06-2.42671E-05 7.70461E-18-7.15134E-18
 -1       304 1.41833E-05-4.28103E-05 9.67027E-06-1.29258E-05 2.61331E-18-7.09612E-18
 -1       305 1.17259E-05-4.98939E-05 1.28461E-05 4.11904E-06-1.08918E-18-7.68757E-18
 -1       306 2.19937E-05-4.44176E-05 6.72972E-06 1.89245E-05-5.54912E-18-8.71332E-18
 -1       307 4.47835E-05-3.73964E-05-5.22587E-06 3.14680E-05-9.48571E-18-9.53531E-18
 -1       308 8.90199E-05-3.72026E-05-2.26768E-05 4.29300E-05-8.45212E-18-9.05214E-18
 -1       309 1.28649E-04-3.13283E-05-4.08754E-05 4.54541E-05-1.03712E-17-1.04626E-17
 -1       310 1.72839E-04-3.19307E-05-5.78069E-05 4.10282E-05-8.64900E-18-9.97170E-18
 -1       311 2.03268E-04-3.55619E-05-6.84404E-05 2.16975E-05-6.96145E-18-6.81258E-18
 -1       312 2.07937E-04-3.44127E-05-7.08958E-05-2.14986E-06-6.15158E-18-2.99458E-18
 -1       313 1.98245E-04-3.50112E-05-6.66523E-05-2.61977E-05-6.44179E-18 1.35144E-18
 -1       314 1.66888E-04-3.14712E-05-5.57255E-05-4.17816E-05-7.86915E-18 4.70929E-18
 -1       315 1.25499E-04-2.89902E-05-4.04380E-05-4.76971E-05-9.63415E-18 7.36643E-18
 -1       316 8.33241E-05-3.03588E-05-2.32974E-05-4.33179E-05-1.02305E-17 7.19830E-18
 -1       317 5.02644E-05-3.70752E-05-7.41377E-06-3.41500E-05-9.40842E-18 7.12439E-18
 -1       318 2.44067E-05-4.35635E-05 5.25376E-06-1.98082E-05-7.85665E-18 6.69193E-18
 -1       319 1.27151E-05-4.88294E-05 1.20599E-05-6.84032E-06-4.16280E-18 7.65432E-18
 -1       320 9.24685E-05-1.44697E-05-3.34916E-05-1.11346E-05-3.57025E-18-7.23082E-19
 -1       321 9.69167E-05-1.94953E-05-3.32404E-05-1.29191E-05-3.66197E-18 1.73390E-18
 -1       322 8.75254E-05-9.58397E-06-3.34535E-05-6.39153E-06-2.60058E-18-3.42163E-18
 -1       323 8.60560E-05-8.25259E-06-3.33872E-05-4.30287E-06-2.06109E-18-4.03303E-18
 -1       324 8.50922E-05-7.41005E-06-3.33308E-05-2.43981E-06-1.40336E-18-4.16396E-18
 -1       325 8.46061E-05-6.99259E-06-3.32992E-05-7.28488E-07-7.28094E-19-4.33300E-18
 -1       326 8.45992E-05-6.98353E-06-3.33002E-05 9.24522E-07-9.85588E-20-4.50286E-18
 -1       327 8.50794E-05-7.39046E-06-3.33338E-05 2.61994E-06 5.35222E-19-4.59172E-18
 -1       328 8.60365E-05-8.22407E-06-3.33916E-05 4.42478E-06 1.22669E-18-4.40032E-18
 -1       329 8.75367E-05-9.58397E-06-3.34600E-05 6.48074E-06 1.96167E-18-4.00754E-18
 -1       330 8.96761E-05-1.16355E-05-3.35105E-05 8.78533E-06 2.67217E-18-3.46193E-18
 -1       331 9.27473E-05-1.47775E-05-3.34942E-05 1.11891E-05 3.42181E-18-2.25446E-18
 -1       332 9.70305E-05-1.98241E-05-3.31922E-05 1.26351E-05 3.70647E-18 2.01071E-19
 -1       333 1.00102E-04-2.48806E-05-3.23198E-05 1.04700E-05 3.41800E-18 2.53042E-18
 -1       334 9.82605E-05-2.73044E-05-3.03772E-05 4.18185E-06 2.80864E-18 1.60638E-18
 -1       335 9.81941E-05-2.64227E-05-3.07135E-05-4.48441E-06-2.77909E-18 2.10264E-18
 -1       336 9.72738E-05-2.74977E-05-2.98765E-05-6.48207E-07-1.99367E-18 1.61303E-18
 -1       337 9.70438E-05-2.80408E-05-2.95557E-05 1.70802E-06-1.52319E-18 1.23110E-18
 -1       338 9.74409E-05-2.84852E-05-2.95431E-05 3.29615E-06-1.14963E-18 6.17498E-19
 -1       339 9.83510E-05-2.89768E-05-2.97267E-05 4.41371E-06-9.55150E-19 4.18950E-19
 -1       340 9.96667E-05-2.95827E-05-3.00340E-05 5.16620E-06-8.40674E-19 9.67251E-20
 -1       341 1.01299E-04-3.03495E-05-3.04082E-05 5.53079E-06-6.20740E-19 2.36967E-19
 -1       342 1.03162E-04-3.13133E-05-3.07976E-05 5.38317E-06-5.85153E-19 4.90678E-19
 -1       343 1.05146E-04-3.24789E-05-3.11533E-05 4.52212E-06-9.09895E-19 4.43250E-19
 -1       344 1.07079E-04-3.37687E-05-3.14340E-05 2.72543E-06-1.72613E-19 2.81807E-19
 -1       345 1.08676E-04-3.49422E-05-3.16181E-05-1.25863E-07 2.87038E-19 2.58131E-19
 -1       346 1.09496E-04-3.55254E-05-3.17178E-05-3.82677E-06 3.00940E-19 2.80436E-19
 -1       347 1.09026E-04-3.48859E-05-3.17840E-05-7.57269E-06 1.99202E-20 6.66206E-19
 -1       348 1.07008E-04-3.26247E-05-3.18786E-05-9.87920E-06-8.03247E-19 1.01139E-18
 -1       349 1.03950E-04-2.92072E-05-3.20232E-05-9.09287E-06-9.18097E-19 1.18486E-18
 -1       350 1.01327E-04-2.62427E-05-3.21650E-05-4.60414E-06-1.38395E-18 1.45113E-19
 -1       351 1.00798E-04-2.55959E-05-3.22168E-05 2.06710E-06-1.72356E-18-8.38524E-19
 -1       352 1.02757E-04-2.77125E-05-3.21519E-05 7.87667E-06-1.37650E-18-2.06973E-18
 -1       353 1.05972E-04-3.11962E-05-3.20409E-05 1.04254E-05-7.02761E-19-2.64033E-18
 -1       354 1.08734E-04-3.41477E-05-3.19689E-05 9.39941E-06 6.95057E-19-2.85480E-18
 -1       355 1.10060E-04-3.55340E-05-3.19540E-05 6.17574E-06 1.08641E-18-1.46037E-18
 -1       356 1.09951E-04-3.54734E-05-3.19363E-05 2.41772E-06 1.72833E-18-1.46045E-18
 -1       357 1.08850E-04-3.45533E-05-3.18576E-05-7.65443E-07 4.46958E-19-1.77192E-18
 -1       358 1.07244E-04-3.33416E-05-3.16846E-05-2.93382E-06-1.95676E-19-1.38544E-18
 -1       359 1.05480E-04-3.21822E-05-3.14205E-05-4.10805E-06 1.09851E-19-1.51827E-18
 -1       360 1.03757E-04-3.12159E-05-3.10918E-05-4.50841E-06 8.05638E-20 9.59602E-20
 -1       361 1.02175E-04-3.04663E-05-3.07323E-05-4.39194E-06-2.26599E-19 3.34406E-19
 -1       362 1.00780E-04-2.99069E-05-3.03723E-05-3.97788E-06-2.33340E-19-1.45811E-19
 -1       363 9.95848E-05-2.94980E-05-3.00344E-05-3.42621E-06 1.12825E-19-2.18510E-19
 -1       364 9.85849E-05-2.92027E-05-2.97321E-05-2.84158E-06-6.68727E-19 1.59541E-19
 -1       365 9.77661E-05-2.89911E-05-2.94720E-05-2.28583E-06-1.61409E-18-5.35490E-20
 -1       366 9.71089E-05-2.88409E-05-2.92551E-05-1.79088E-06-5.80948E-19-2.14151E-20
 -1       367 9.65917E-05-2.87357E-05-2.90789E-05-1.36932E-06-1.19623E-19-1.06586E-19
 -1       368 9.61925E-05-2.86632E-05-2.89393E-05-1.02211E-06-1.24221E-19-5.45328E-19
 -1       369 9.58905E-05-2.86145E-05-2.88311E-05-7.43794E-07 4.21108E-19 6.14364E-19
 -1       370 9.56669E-05-2.85830E-05-2.87491E-05-5.25873E-07 3.55971E-19 5.09122E-19
 -1       371 9.55054E-05-2.85637E-05-2.86884E-05-3.58859E-07 2.65822E-19-1.12059E-18
 -1       372 9.53921E-05-2.85530E-05-2.86447E-05-2.33486E-07-6.80049E-19 3.22082E-19
 -1       373 9.53155E-05-2.85482E-05-2.86141E-05-1.41346E-07-1.37105E-18 8.39723E-19
 -1       374 9.52664E-05-2.85474E-05-2.85935E-05-7.51927E-08-2.12982E-19-5.71309E-20
 -1       375 9.52373E-05-2.85493E-05-2.85804E-05-2.90364E-08 1.22146E-18-1.69080E-18
 -1       376 9.52225E-05-2.85528E-05-2.85726E-05 1.87339E-09 1.07329E-18 2.47776E-19
 -1       377 9.52175E-05-2.85574E-05-2.85685E-05 2.11093E-08 1.31053E-18 2.55940E-18
 -1       378 9.52188E-05-2.85629E-05-2.85668E-05 3.11282E-08 1.02258E-18 2.96676E-18
 -1       379 9.52238E-05-2.85690E-05-2.85663E-05 3.34976E-08 7.22835E-19 3.60952E-18
 -1       380 9.52295E-05-2.85749E-05-2.85663E-05 2.94574E-08 4.23488E-19 4.05568E-18
 -1       381 9.69760E-05-2.79644E-05-2.95358E-05 6.30760E-07 1.96802E-18 9.15103E-19
 -1       382 9.66954E-05-2.82867E-05-2.92928E-05-1.51899E-06 1.24106E-18 1.99159E-19
 -1       383 9.72891E-05-2.86473E-05-2.94039E-05-2.99561E-06 9.30424E-19-2.75590E-19
 -1       384 9.85538E-05-2.91203E-05-2.97489E-05-4.12658E-06 8.65963E-19-5.77801E-19
 -1       385 1.00350E-04-2.97329E-05-3.02595E-05-5.04227E-06 6.32187E-19-6.65787E-19
 -1       386 1.02575E-04-3.05088E-05-3.08837E-05-5.74312E-06 4.21465E-19-4.86310E-19
 -1       387 1.05129E-04-3.14787E-05-3.15674E-05-6.11359E-06 7.39850E-19-1.09907E-19
 -1       388 1.07886E-04-3.26708E-05-3.22438E-05-5.91554E-06 1.97281E-19-1.13406E-20
 -1       389 1.10642E-04-3.40754E-05-3.28301E-05-4.79868E-06 7.98560E-20-4.68424E-20
 -1       390 1.13069E-04-3.55632E-05-3.32378E-05-2.38602E-06 4.73285E-19 1.96019E-19
 -1       391 1.14647E-04-3.67577E-05-3.34028E-05 1.48476E-06 1.04200E-18 6.72397E-19
 -1       392 1.14679E-04-3.69461E-05-3.33288E-05 6.31904E-06 8.07940E-19 7.64676E-19
 -1       393 1.12577E-04-3.53156E-05-3.31214E-05 1.05061E-05 5.07948E-19 5.03257E-20
 -1       394 1.08575E-04-3.17520E-05-3.29341E-05 1.14952E-05 7.74351E-19-1.06106E-18
 -1       395 1.04466E-04-2.78282E-05-3.28591E-05 7.39878E-06 1.78722E-18-2.26394E-18
 -1       396 1.02928E-04-2.62340E-05-3.28814E-05-6.74087E-07 2.07758E-18-2.78634E-18
 -1       397 1.05176E-04-2.82583E-05-3.29648E-05-8.49852E-06 1.28793E-18-3.50825E-18
 -1       398 1.09668E-04-3.23508E-05-3.31301E-05-1.20313E-05-4.75685E-19-3.94890E-18
 -1       399 1.13680E-04-3.57939E-05-3.33783E-05-1.05646E-05-6.31053E-19-4.28076E-18
 -1       400 1.15646E-04-3.72302E-05-3.36228E-05-6.21894E-06 9.45610E-19-3.78209E-18
 -1       401 1.15525E-04-3.69199E-05-3.37139E-05-1.49999E-06-4.75497E-20-3.94203E-18
 -1       402 1.13979E-04-3.57043E-05-3.35707E-05 2.12403E-06-1.90254E-18-3.80531E-18
 -1       403 1.11711E-04-3.42733E-05-3.32047E-05 4.27145E-06-2.08126E-18-2.32606E-18
 -1       404 1.09209E-04-3.29717E-05-3.26821E-05 5.16771E-06-6.19761E-19-2.37382E-18
 -1       405 1.06762E-04-3.19052E-05-3.20840E-05 5.21593E-06 4.47225E-19-5.87838E-19
 -1       406 1.04525E-04-3.10693E-05-3.14792E-05 4.78198E-06 1.03143E-18 1.01258E-18
 -1       407 1.02568E-04-3.04256E-05-3.09143E-05 4.12874E-06 3.93915E-19 9.29299E-19
 -1       408 1.00912E-04-2.99330E-05-3.04149E-05 3.42019E-06-3.36701E-19 1.44023E-18
 -1       409 9.95478E-05-2.95577E-05-2.99909E-05 2.74690E-06-7.27864E-19 9.69458E-19
 -1       410 9.84482E-05-2.92733E-05-2.96420E-05 2.15169E-06 6.41185E-20 3.83414E-21
 -1       411 9.75800E-05-2.90596E-05-2.93622E-05 1.64903E-06 5.07037E-20-1.57643E-18
 -1       412 9.69075E-05-2.89009E-05-2.91426E-05 1.23798E-06 1.18481E-18-8.48858E-19
 -1       413 9.63962E-05-2.87849E-05-2.89738E-05 9.10060E-07 1.61763E-18-9.61552E-19
 -1       414 9.60151E-05-2.87018E-05-2.88467E-05 6.53768E-07 1.29915E-18 4.14460E-19
 -1       415 9.57370E-05-2.86436E-05-2.87529E-05 4.57110E-07-1.06680E-20 5.12344E-19
 -1       416 9.55390E-05-2.86044E-05-2.86852E-05 3.08833E-07 4.19645E-19 8.37546E-19
 -1       417 9.54023E-05-2.85790E-05-2.86377E-05 1.98991E-07-1.84343E-18-4.90315E-19
 -1       418 9.53115E-05-2.85638E-05-2.86056E-05 1.19137E-07-4.41682E-19-9.17899E-19
 -1       419 9.52547E-05-2.85558E-05-2.85848E-05 6.23067E-08 1.91766E-19-1.24418E-18
 -1       420 9.52224E-05-2.85529E-05-2.85724E-05 2.29200E-08 1.24022E-19-2.07988E-19
 -1       421 9.52073E-05-2.85534E-05-2.85658E-05-3.35440E-09-8.10943E-20-8.63762E-19
 -1       422 9.52039E-05-2.85561E-05-2.85632E-05-1.97356E-08 8.82347E-19-4.89983E-19
 -1       423 9.52077E-05-2.85604E-05-2.85631E-05-2.84262E-08-1.89273E-19 2.05105E-19
 -1       424 9.52157E-05-2.85656E-05-2.85643E-05-3.06457E-08 2.75130E-19-9.65616E-19
 -1       425 9.52252E-05-2.85715E-05-2.85659E-05-2.68247E-08 4.22134E-19-9.31908E-19
 -1       426 9.52316E-05-2.85761E-05-2.85667E-05-2.19158E-08-6.19899E-19-1.08394E-18
 -1       427 9.52474E-05-2.85948E-05-2.85654E-05-2.88048E-08-1.70380E-18 3.18768E-20
 -1       428 9.52423E-05-2.85882E-05-2.85661E-05-3.13431E-08-1.51467E-18-1.68608E-19
 -1       429 9.52370E-05-2.85827E-05-2.85662E-05-2.88365E-08-9.78081E-19 6.08938E-21
 -1       430 9.52502E-05-2.85994E-05-2.85646E-05-2.32394E-08-1.98210E-18-4.54902E-18
 -1       431 9.52515E-05-2.86024E-05-2.85638E-05-1.64282E-08-7.96773E-19 1.36801E-18
 -1       432 9.52519E-05-2.86041E-05-2.85633E-05-9.53382E-09 1.02709E-18 2.47027E-18
 -1       433 9.52519E-05-2.86047E-05-2.85630E-05-2.93955E-09-3.57949E-19 1.19842E-18
 -1       434 9.52518E-05-2.86047E-05-2.85630E-05 3.46649E-09-8.57176E-19 4.25788E-19
 -1       435 9.52517E-05-2.86038E-05-2.85633E-05 9.97682E-09-1.07573E-18-9.62077E-19
 -1       436 9.52513E-05-2.86021E-05-2.85639E-05 1.66043E-08-1.79158E-18-4.11304E-18
 -1       437 9.52500E-05-2.85991E-05-2.85646E-05 2.32318E-08-3.60308E-19 2.47000E-19
 -1       438 9.52471E-05-2.85944E-05-2.85655E-05 2.87142E-08 1.36053E-18-7.13665E-19
 -1       439 9.52421E-05-2.85880E-05-2.85661E-05 3.15019E-08 1.79301E-19 1.49062E-18
 -1       440 5.83825E-05-4.20192E-05-7.27490E-06 4.16264E-05-2.11991E-18 5.78418E-18
 -1       441 1.22856E-05-2.14025E-05 3.78862E-06-3.27643E-06-5.29012E-19 7.95343E-18
 -1       442 2.85883E-05-2.90225E-05 8.95002E-08 2.93464E-05-1.31195E-18 6.02611E-18
 -1       443 1.00138E-04-5.34036E-05-2.01671E-05 3.98842E-05-6.26804E-19 4.50314E-18
 -1       444 1.35118E-04-5.33033E-05-3.50329E-05 2.51556E-05 2.70346E-18 1.73695E-18
 -1       445 8.95596E-05-1.15158E-05-3.35175E-05-8.74849E-06-3.12767E-18-2.44743E-18
 -1       446 1.60810E-04-2.48483E-05-5.80543E-05-1.44498E-06 5.94151E-18 9.41265E-20
 -1       447 1.56000E-04-1.20725E-05-6.16088E-05-1.32588E-06 7.60000E-18 1.80564E-19
 -1       448 1.59244E-04-1.73097E-05-6.06810E-05 2.53454E-06 7.77079E-18 1.33064E-18
 -1       449 1.56011E-04-3.44048E-05-5.21232E-05 3.67943E-07 6.34745E-18 1.40735E-18
 -1       450 1.43430E-04-5.52227E-05-3.78872E-05-1.54799E-05 2.70799E-18 3.56601E-19
 -1       451 1.10483E-04-5.58785E-05-2.34870E-05-3.74255E-05 1.82303E-18-2.99881E-18
 -1       452 6.93270E-05-4.54989E-05-1.02526E-05-4.38052E-05-5.09279E-20-4.98336E-18
 -1       453 3.65290E-05-3.12035E-05-2.17023E-06-3.49731E-05-6.16322E-19-6.31918E-18
 -1       454 1.34443E-05-2.09474E-05 3.24976E-06-4.31432E-06-8.14952E-19-8.49553E-18
 -1       455 1.88298E-05-2.65434E-05 2.98903E-06 2.09400E-05-2.82697E-19-9.03954E-18
 -1       456 4.84740E-05-3.88068E-05-4.42031E-06 4.04741E-05-9.69323E-19-7.13593E-18
 -1       457 8.79523E-05-5.09387E-05-1.59798E-05 4.37060E-05-7.13202E-19-4.56756E-18
 -1       458 1.30183E-04-5.56769E-05-3.18942E-05 2.77841E-05-2.70876E-18-2.22865E-18
 -1       459 1.50445E-04-4.25971E-05-4.61123E-05 1.31225E-05-5.76828E-18-1.34678E-18
 -1       460 1.52180E-04-2.45847E-05-5.48290E-05-3.89512E-06-5.58946E-18-4.93608E-19
 -1       461 1.53645E-04-1.34564E-05-6.02002E-05-1.71756E-06-7.29168E-18-1.70481E-18
 -1       462 1.62405E-04-1.67567E-05-6.20577E-05 5.12745E-07-7.58793E-18-1.83774E-18
 -1       463 1.56360E-04-2.85631E-05-5.46772E-05-7.07493E-07-6.75159E-18-4.76880E-19
 -1       464 1.48433E-04-4.44388E-05-4.44813E-05-1.37215E-05-5.97103E-18-2.65757E-19
 -1       465 1.25285E-04-5.19922E-05-3.14225E-05-3.14102E-05-4.12103E-18 1.51608E-18
 -1       466 9.40408E-05-5.14114E-05-1.83399E-05-4.20300E-05-2.35454E-18 1.52066E-18
 -1       467 5.23840E-05-3.93803E-05-5.78523E-06-4.15434E-05-1.34985E-18 4.04786E-18
 -1       468 2.14397E-05-2.80063E-05 2.47737E-06-2.43475E-05 1.38808E-19 8.50379E-18
 -1       469 1.54750E-04-4.16906E-05-4.82505E-05 1.05766E-05 4.98098E-18 1.30835E-18
 -1       470 2.31825E-05-1.69256E-05-2.17389E-06 1.47490E-05-1.62580E-18 6.91295E-18
 -1       471 9.74464E-05-2.53012E-05-3.09043E-05 3.62227E-06 2.63629E-18-7.41468E-19
 -1       472 8.76121E-05-1.13982E-05-3.26795E-05-2.48486E-06-1.69245E-18-3.66855E-18
 -1       473 8.90401E-05-1.28515E-05-3.26709E-05-3.94670E-06-2.17677E-18-3.40283E-18
 -1       474 8.64283E-05-1.02361E-05-3.26684E-05 1.11589E-07-4.76043E-19-3.85598E-18
 -1       475 8.67048E-05-1.05006E-05-3.26741E-05 1.35189E-06 1.83093E-19-4.16248E-18
 -1       476 8.75497E-05-1.13277E-05-3.26832E-05 2.62683E-06 8.04681E-19-4.04149E-18
 -1       477 8.89899E-05-1.27887E-05-3.26769E-05 4.02535E-06 1.54759E-18-3.69788E-18
 -1       478 9.10162E-05-1.49620E-05-3.26168E-05 5.49832E-06 2.14791E-18-3.24318E-18
 -1       479 9.36991E-05-1.80534E-05-3.24394E-05 6.89730E-06 2.84224E-18-2.42427E-18
 -1       480 9.72125E-05-2.66938E-05-3.02025E-05-4.93623E-08 1.85037E-18-9.03989E-19
 -1       481 9.68108E-05-2.43859E-05-3.10273E-05-3.28178E-06-2.53649E-18 1.11149E-19
 -1       482 1.46856E-04-3.48287E-05-4.83892E-05-9.37915E-06 4.19906E-18-2.07195E-18
 -1       483 9.69603E-05-2.61367E-05-3.03449E-05 1.92864E-07-1.95572E-18-8.22626E-20
 -1       484 9.70866E-05-2.70965E-05-2.99909E-05 2.70649E-06-1.52670E-18-1.14544E-19
 -1       485 9.74451E-05-2.77779E-05-2.98546E-05 4.55073E-06-1.34184E-18-2.10970E-19
 -1       486 9.81119E-05-2.84314E-05-2.98617E-05 5.90700E-06-1.09768E-18-4.14556E-19
 -1       487 9.91248E-05-2.92275E-05-2.99558E-05 6.83107E-06-8.35883E-19-4.59916E-19
 -1       488 1.00531E-04-3.03136E-05-3.00946E-05 7.26520E-06-4.24247E-19-5.95902E-19
 -1       489 1.02392E-04-3.18164E-05-3.02503E-05 7.04444E-06-6.50459E-19-4.29648E-19
 -1       490 1.04751E-04-3.37898E-05-3.04180E-05 5.91131E-06-5.17796E-19 1.72635E-19
 -1       491 1.07538E-04-3.60917E-05-3.06286E-05 3.57221E-06 1.02095E-19 3.51585E-19
 -1       492 1.10422E-04-3.82023E-05-3.09613E-05-1.54284E-07 4.84536E-19 5.74769E-19
 -1       493 1.12621E-04-3.90559E-05-3.15358E-05-5.00532E-06 1.72050E-19 5.93875E-19
 -1       494 1.13014E-04-3.72980E-05-3.24611E-05-9.76121E-06-5.04346E-20 7.75275E-19
 -1       495 1.10915E-04-3.23634E-05-3.36867E-05-1.20542E-05-1.05871E-18 9.19424E-19
 -1       496 1.07245E-04-2.59024E-05-3.48864E-05-9.42511E-06-2.10746E-18 2.60411E-19
 -1       497 1.04834E-04-2.19556E-05-3.55535E-05-1.81786E-06-2.27883E-18-2.74253E-19
 -1       498 1.05865E-04-2.35350E-05-3.53232E-05 6.95188E-06-2.44669E-18-6.94060E-19
 -1       499 1.09424E-04-2.93857E-05-3.43262E-05 1.20813E-05-1.59023E-18-2.10214E-18
 -1       500 1.12611E-04-3.54694E-05-3.30732E-05 1.18684E-05-2.44113E-19-2.94021E-18
 -1       501 1.13333E-04-3.86055E-05-3.20422E-05 7.97157E-06 1.21913E-18-3.40114E-18
 -1       502 1.11918E-04-3.87901E-05-3.13491E-05 3.06389E-06 1.41803E-18-3.23270E-18
 -1       503 1.09322E-04-3.71136E-05-3.09550E-05-1.14310E-06 8.82485E-19-3.55000E-18
 -1       504 1.06517E-04-3.48324E-05-3.07294E-05-3.99609E-06 1.75262E-19-3.91855E-18
 -1       505 1.04032E-04-3.27250E-05-3.05648E-05-5.55383E-06-8.63188E-20-2.10443E-18
 -1       506 1.02018E-04-3.10831E-05-3.04027E-05-6.11765E-06 5.06623E-19-1.42673E-18
 -1       507 1.00449E-04-2.99325E-05-3.02217E-05-6.01344E-06-1.43283E-19-1.69590E-18
 -1       508 9.92412E-05-2.91869E-05-3.00226E-05-5.51353E-06 2.83566E-19-5.38798E-19
 -1       509 9.83092E-05-2.87363E-05-2.98158E-05-4.81720E-06-4.21781E-19 4.37469E-20
 -1       510 9.75847E-05-2.84846E-05-2.96130E-05-4.05825E-06-6.06467E-19-1.32745E-19
 -1       511 9.70183E-05-2.83598E-05-2.94237E-05-3.31952E-06-3.75854E-19-3.46921E-20
 -1       512 9.65746E-05-2.83118E-05-2.92542E-05-2.64722E-06-1.12689E-18 1.66336E-18
 -1       513 9.62281E-05-2.83081E-05-2.91075E-05-2.06284E-06-6.85640E-19 1.11453E-18
 -1       514 9.59593E-05-2.83277E-05-2.89841E-05-1.57205E-06-4.99133E-19 1.38925E-18
 -1       515 9.57530E-05-2.83581E-05-2.88828E-05-1.17113E-06 7.11122E-19 2.34144E-18
 -1       516 9.55969E-05-2.83917E-05-2.88017E-05-8.51259E-07 7.22225E-19 8.66704E-19
 -1       517 9.54806E-05-2.84244E-05-2.87379E-05-6.01421E-07-1.47485E-18 4.29354E-19
 -1       518 9.53958E-05-2.84541E-05-2.86890E-05-4.10158E-07 4.33646E-19 7.51546E-19
 -1       519 9.53354E-05-2.84799E-05-2.86521E-05-2.66621E-07-2.34407E-19 1.68271E-18
 -1       520 9.52938E-05-2.85016E-05-2.86250E-05-1.61135E-07-1.03420E-18 2.40408E-18
 -1       521 9.52662E-05-2.85196E-05-2.86055E-05-8.54478E-08-5.70642E-19 2.51611E-18
 -1       522 9.52490E-05-2.85345E-05-2.85919E-05-3.27919E-08 1.62334E-18 1.99950E-18
 -1       523 9.52394E-05-2.85468E-05-2.85825E-05 2.16687E-09 1.72152E-18 1.33271E-18
 -1       524 9.52351E-05-2.85576E-05-2.85761E-05 2.34037E-08 6.52144E-19 1.01826E-18
 -1       525 9.52347E-05-2.85676E-05-2.85716E-05 3.36942E-08 8.56103E-19 4.09031E-20
 -1       526 5.53204E-05-3.29276E-05-9.15034E-06 3.84847E-05-2.58536E-18 4.44528E-18
 -1       527 9.76523E-05-2.79460E-05-2.98678E-05-4.58808E-06 9.85039E-19-9.19101E-19
 -1       528 9.84578E-05-2.84303E-05-3.00078E-05-6.14290E-06 8.80522E-19-9.39063E-19
 -1       529 9.96482E-05-2.90298E-05-3.02628E-05-7.39846E-06 3.63485E-19-1.07837E-18
 -1       530 1.01238E-04-2.98820E-05-3.05812E-05-8.31832E-06 1.85127E-19-7.22873E-19
 -1       531 1.03283E-04-3.11499E-05-3.09177E-05-8.72915E-06 3.54870E-20-2.58182E-19
 -1       532 1.05873E-04-3.30038E-05-3.12379E-05-8.30771E-06 1.49973E-19 1.09475E-19
 -1       533 1.09072E-04-3.55211E-05-3.15354E-05-6.59254E-06 4.21757E-19 2.99177E-19
 -1       534 1.12753E-04-3.84504E-05-3.18617E-05-3.09091E-06 2.73434E-19 8.05837E-19
 -1       535 1.16303E-04-4.08549E-05-3.23553E-05 2.38338E-06 2.95021E-19 1.43217E-18
 -1       536 1.18390E-04-4.09218E-05-3.32156E-05 8.96482E-06 9.29834E-19 1.96932E-18
 -1       537 1.17351E-04-3.67224E-05-3.45974E-05 1.39891E-05 1.43353E-18 1.91827E-18
 -1       538 1.13288E-04-2.89522E-05-3.62220E-05 1.32338E-05 2.27000E-18 7.96329E-19
 -1       539 1.09390E-04-2.24636E-05-3.73623E-05 4.83407E-06 2.63914E-18 1.97190E-19
 -1       540 1.09836E-04-2.30698E-05-3.72836E-05-6.88126E-06 2.41205E-18-1.10458E-18
 -1       541 1.14127E-04-3.01497E-05-3.60714E-05-1.43544E-05 1.20344E-18-2.28297E-18
 -1       542 1.18053E-04-3.77075E-05-3.44616E-05-1.40800E-05-1.27950E-19-3.35917E-18
 -1       543 1.18623E-04-4.11766E-05-3.32094E-05-8.67283E-06-2.51264E-19-3.71491E-18
 -1       544 1.16371E-04-4.06849E-05-3.24598E-05-2.21678E-06-2.73086E-19-2.02158E-18
 -1       545 1.12861E-04-3.81308E-05-3.20461E-05 2.89757E-06-1.35644E-18-7.80395E-19
 -1       546 1.09364E-04-3.52540E-05-3.17749E-05 6.01310E-06-1.65157E-18-2.02754E-18
 -1       547 1.06392E-04-3.28745E-05-3.15152E-05 7.41422E-06-1.36755E-18-2.34087E-18
 -1       548 1.04019E-04-3.11805E-05-3.12189E-05 7.62799E-06-1.01893E-18-2.03746E-18
 -1       549 1.02148E-04-3.00740E-05-3.08881E-05 7.13418E-06-3.61520E-19-1.61647E-18
 -1       550 1.00664E-04-2.93893E-05-3.05438E-05 6.28590E-06-1.65989E-19-2.25013E-19
 -1       551 9.94742E-05-2.89804E-05-3.02084E-05 5.31372E-06-8.50982E-19 2.09131E-18
 -1       552 9.85151E-05-2.87428E-05-2.98991E-05 4.35421E-06 3.99233E-19 1.68964E-18
 -1       553 9.77423E-05-2.86084E-05-2.96258E-05 3.47956E-06 5.36258E-19 6.17260E-19
 -1       554 9.71237E-05-2.85354E-05-2.93924E-05 2.72110E-06 6.96754E-19 9.50912E-19
 -1       555 9.66338E-05-2.84987E-05-2.91986E-05 2.08599E-06 1.20010E-19 1.19113E-18
 -1       556 9.62509E-05-2.84835E-05-2.90415E-05 1.56812E-06 9.30326E-19 1.11957E-18
 -1       557 9.59562E-05-2.84808E-05-2.89167E-05 1.15494E-06 8.07271E-19 5.56334E-19
 -1       558 9.57334E-05-2.84852E-05-2.88197E-05 8.31501E-07 6.27467E-19 1.67090E-18
 -1       559 9.55682E-05-2.84934E-05-2.87456E-05 5.82715E-07 2.45540E-19 1.85275E-18
 -1       560 9.54484E-05-2.85033E-05-2.86902E-05 3.94605E-07 7.92771E-19 9.60068E-19
 -1       561 9.53638E-05-2.85137E-05-2.86496E-05 2.54845E-07-6.07303E-19-1.13432E-19
 -1       562 9.53061E-05-2.85239E-05-2.86206E-05 1.52958E-07 1.57821E-19-1.01800E-18
 -1       563 9.52685E-05-2.85335E-05-2.86005E-05 8.03020E-08 2.29778E-19-1.03560E-18
 -1       564 9.52457E-05-2.85423E-05-2.85871E-05 2.99647E-08 1.43219E-19-4.19373E-19
 -1       565 9.52335E-05-2.85505E-05-2.85784E-05-3.40544E-09 4.16190E-19-8.56612E-19
 -1       566 9.52286E-05-2.85581E-05-2.85730E-05-2.37779E-08-4.60549E-19-3.46077E-19
 -1       567 9.52286E-05-2.85658E-05-2.85698E-05-3.39808E-08 9.59824E-19-1.22521E-18
 -1       568 9.52320E-05-2.85740E-05-2.85677E-05-3.56588E-08 8.83694E-21-5.95863E-19
 -1       569 9.52485E-05-2.85776E-05-2.85732E-05-2.02025E-08 6.54867E-19-2.25501E-19
 -1       570 9.52478E-05-2.85752E-05-2.85739E-05-1.26961E-08 9.33470E-19 2.93746E-18
 -1       571 9.52435E-05-2.85790E-05-2.85705E-05-3.37915E-08-1.46278E-18-6.30708E-19
 -1       572 9.52475E-05-2.85792E-05-2.85721E-05-2.76738E-08-2.38019E-18-1.97320E-18
 -1       573 9.52467E-05-2.85733E-05-2.85743E-05-5.88191E-09-2.60634E-19 9.44074E-19
 -1       574 9.52461E-05-2.85725E-05-2.85744E-05 3.46325E-10 5.40907E-19 1.92199E-18
 -1       575 9.52465E-05-2.85732E-05-2.85743E-05 6.51911E-09-5.69082E-19-2.59651E-19
 -1       576 9.52475E-05-2.85749E-05-2.85739E-05 1.30691E-08-1.27395E-18-3.19543E-18
 -1       577 9.52481E-05-2.85772E-05-2.85733E-05 2.03687E-08 6.06110E-19-1.46784E-18
 -1       578 9.52472E-05-2.85787E-05-2.85722E-05 2.77443E-08 1.41061E-19-1.48377E-20
 -1       579 9.52430E-05-2.85782E-05-2.85706E-05 3.32965E-08 7.09449E-19 8.64048E-19
 -1       580 1.27947E-04-6.18620E-05-2.83139E-05 2.27269E-05-1.84044E-18-4.67933E-19
 -1       581 9.72422E-05-2.74390E-05-2.99046E-05-2.63909E-06 1.23320E-18-9.26168E-19
 -1       582 9.18000E-05-5.07500E-05-1.73264E-05 4.04756E-05-4.03092E-18 3.82864E-18
 -1       583 4.70366E-05-2.75660E-05-7.85076E-06-3.60303E-05 2.02690E-18 5.62589E-18
 -1       584 2.96441E-05-1.69926E-05-4.78634E-06-2.02471E-05 6.35963E-19 6.92238E-18
 -1       585 1.42517E-04-3.85777E-05-4.49854E-05-7.70029E-06-3.43954E-18 1.45023E-18
 -1       586 1.01786E-04-5.50446E-05-1.97843E-05-3.84661E-05-1.96554E-18-1.82214E-18
 -1       587 8.67359E-05-1.05359E-05-3.26723E-05-1.14459E-06-1.02381E-18-3.68966E-18
 -1       588 1.36434E-04-1.40240E-05-5.30144E-05-9.67445E-06 5.64950E-18-1.37291E-18
 -1       589 1.41560E-04-4.67342E-05-4.11225E-05 7.87048E-06 2.70990E-18 3.91822E-18
 -1       590 1.32789E-04-1.06626E-05-5.30167E-05 4.60233E-06 6.57753E-18 1.00532E-18
 -1       591 2.39722E-05-1.53267E-05-3.18592E-06 1.17766E-05-1.00770E-19-8.09584E-18
 -1       592 1.39143E-04-2.27558E-05-5.04471E-05 1.23556E-05 6.55598E-18 3.13063E-18
 -1       593 1.30721E-04-6.15223E-05-2.96364E-05-1.99804E-05-5.96285E-19 1.96512E-18
 -1       594 6.39724E-05-3.65364E-05-1.13193E-05-4.05823E-05-2.04601E-18-4.02542E-18
 -1       595 1.36892E-04-1.74469E-05-5.17278E-05 1.04164E-05-7.04721E-18-3.07529E-18
 -1       596 3.20656E-05-1.79933E-05-5.42275E-06-2.14568E-05-1.84621E-18-6.79839E-18
 -1       597 4.38460E-05-2.70458E-05-6.68146E-06 3.51762E-05 1.49083E-18-7.34833E-18
 -1       598 7.38148E-05-4.29036E-05-1.29730E-05 4.33459E-05 2.42447E-18-3.99958E-18
 -1       599 1.19338E-04-6.01849E-05-2.52155E-05 2.98462E-05 1.98664E-18-3.98622E-19
 -1       600 1.40268E-04-5.52779E-05-3.65719E-05 6.44580E-06-1.33924E-18 2.06570E-18
 -1       601 1.29951E-04-1.57489E-05-4.95732E-05-1.08204E-05-4.90384E-18 1.24980E-18
 -1       602 1.31519E-04-7.55351E-06-5.37917E-05 8.29447E-07-7.02603E-18-1.11043E-18
 -1       603 1.42946E-04-3.93272E-05-4.47990E-05 7.11481E-06-4.56858E-18-3.39078E-18
 -1       604 1.38652E-04-5.65743E-05-3.53913E-05-1.01127E-05-2.51581E-18-2.04082E-18
 -1       605 1.22473E-04-5.98211E-05-2.67408E-05-2.80547E-05-6.16693E-19-7.47268E-19
 -1       606 8.44982E-05-4.74685E-05-1.55978E-05-4.25614E-05 1.20247E-18 1.33328E-18
 -1       607 9.55963E-05-2.06930E-05-3.21214E-05-7.33558E-06-3.25974E-18-3.13793E-19
 -1       608 9.75810E-05-2.34657E-05-3.17663E-05 7.56831E-06 3.34565E-18-4.52054E-19
 -1       609 1.44664E-04-5.34066E-05-3.93433E-05 3.40335E-06 1.13221E-18-1.53599E-18
 -1       610 9.09892E-05-1.49229E-05-3.26227E-05-5.51787E-06-2.61001E-18-2.72837E-18
 -1       611 4.29135E-05-2.07624E-05-8.89530E-06 2.70324E-05-1.62924E-18 4.68049E-18
 -1       612 9.52358E-05-2.85745E-05-2.85692E-05 3.55435E-08 9.50081E-19 1.21852E-18
 -1       613 3.03246E-05-1.19236E-05-7.20770E-06-3.63203E-06-7.63739E-19 6.30627E-18
 -1       614 3.34329E-05-1.22665E-05-8.48670E-06-5.89413E-06-1.05382E-18-7.25960E-18
 -1       615 1.35990E-04-5.53695E-05-3.46779E-05 2.36798E-07-3.05739E-19 3.64188E-18
 -1       616 8.85725E-05-1.38276E-05-3.20383E-05 1.17193E-06 5.13537E-19-3.55319E-18
 -1       617 8.79584E-05-1.31989E-05-3.20441E-05 4.76601E-07-1.47122E-19-3.43955E-18
 -1       618 9.16148E-05-1.71251E-05-3.19295E-05 2.66051E-06 1.62261E-18-2.99357E-18
 -1       619 9.38405E-05-1.98288E-05-3.17266E-05 3.27992E-06 2.11893E-18-2.47766E-18
 -1       620 9.61199E-05-2.35531E-05-3.10901E-05 2.10141E-06 2.16615E-18-1.59372E-18
 -1       621 9.63574E-05-2.51823E-05-3.04987E-05-1.18177E-06 1.54127E-18-1.61352E-18
 -1       622 9.59823E-05-2.47831E-05-3.05124E-05 1.36811E-06-1.84430E-18-1.00491E-18
 -1       623 9.62345E-05-2.59444E-05-3.01234E-05 3.74974E-06-1.59964E-18-1.11735E-18
 -1       624 9.65188E-05-2.68061E-05-2.98763E-05 5.63730E-06-1.21276E-18-1.04039E-18
 -1       625 9.70058E-05-2.76576E-05-2.97203E-05 7.12093E-06-9.40473E-19-9.23540E-19
 -1       626 9.78550E-05-2.87504E-05-2.96163E-05 8.22127E-06-5.28613E-19-7.61642E-19
 -1       627 9.92584E-05-3.03300E-05-2.95415E-05 8.86739E-06-1.09381E-19-3.65989E-19
 -1       628 1.01449E-04-3.26182E-05-2.95006E-05 8.87256E-06-1.60066E-19 5.48197E-19
 -1       629 1.04647E-04-3.57142E-05-2.95448E-05 7.90304E-06-7.22970E-20 5.98528E-19
 -1       630 1.08882E-04-3.93641E-05-2.97970E-05 5.49335E-06 3.65258E-19 6.20364E-19
 -1       631 1.13723E-04-4.26462E-05-3.04689E-05 1.15582E-06 5.94110E-19 9.51882E-19
 -1       632 1.17740E-04-4.34920E-05-3.18311E-05-5.02216E-06 4.33146E-19 1.34235E-18
 -1       633 1.18770E-04-3.93366E-05-3.41037E-05-1.12971E-05-3.99694E-19 1.95973E-18
 -1       634 1.15418E-04-2.97340E-05-3.68382E-05-1.37072E-05-2.32631E-18 1.60288E-18
 -1       635 1.10660E-04-1.96790E-05-3.91465E-05-7.86026E-06-3.22501E-18 3.42052E-19
 -1       636 1.09291E-04-1.71938E-05-3.96688E-05 3.62351E-06-2.82605E-18-8.58838E-19
 -1       637 1.12866E-04-2.45325E-05-3.80321E-05 1.28242E-05-2.78550E-18-1.96653E-18
 -1       638 1.17873E-04-3.53886E-05-3.54259E-05 1.43672E-05-1.91416E-18-2.34716E-18
 -1       639 1.18768E-04-4.19808E-05-3.29263E-05 9.09534E-06-1.13238E-19-2.90631E-18
 -1       640 1.15830E-04-4.32997E-05-3.10847E-05 2.30720E-06 1.30517E-18-3.75485E-18
 -1       641 1.11118E-04-4.08137E-05-3.01323E-05-2.87979E-06 9.38747E-19-3.15614E-18
 -1       642 1.06481E-04-3.71301E-05-2.97255E-05-6.01510E-06 3.05473E-19-2.46160E-18
 -1       643 1.02794E-04-3.37531E-05-2.95910E-05-7.48335E-06 1.12187E-18-1.28755E-18
 -1       644 1.00148E-04-3.11660E-05-2.95646E-05-7.84046E-06 9.47218E-19-7.28274E-19
 -1       645 9.83806E-05-2.94168E-05-2.95561E-05-7.51536E-06 3.06392E-19-4.84215E-19
 -1       646 9.72485E-05-2.83526E-05-2.95266E-05-6.81675E-06 5.57252E-19-2.74772E-19
 -1       647 9.65398E-05-2.77811E-05-2.94676E-05-5.94570E-06 5.01605E-21-2.83681E-19
 -1       648 9.60993E-05-2.75347E-05-2.93844E-05-5.03007E-06-3.41022E-19 1.87149E-19
 -1       649 9.58234E-05-2.74873E-05-2.92864E-05-4.14814E-06 8.08850E-20 4.33534E-19
 -1       650 9.56470E-05-2.75515E-05-2.91833E-05-3.34445E-06-3.09518E-19 1.25398E-18
 -1       651 9.55306E-05-2.76706E-05-2.90825E-05-2.64061E-06-1.85250E-18 8.66378E-19
 -1       652 9.54510E-05-2.78092E-05-2.89890E-05-2.04310E-06 1.72763E-19 1.31344E-18
 -1       653 9.53946E-05-2.79471E-05-2.89058E-05-1.54877E-06-2.90474E-19 1.02349E-18
 -1       654 9.53535E-05-2.80734E-05-2.88342E-05-1.14888E-06-2.32777E-19 2.31686E-19
 -1       655 9.53230E-05-2.81832E-05-2.87741E-05-8.31938E-07-1.12476E-18 2.37680E-19
 -1       656 9.53000E-05-2.82751E-05-2.87249E-05-5.85503E-07-9.71771E-19 1.07710E-18
 -1       657 9.52826E-05-2.83499E-05-2.86854E-05-3.97464E-07-5.89043E-19-1.09658E-18
 -1       658 9.52696E-05-2.84093E-05-2.86543E-05-2.56722E-07-5.53737E-19-2.18745E-18
 -1       659 9.52599E-05-2.84558E-05-2.86303E-05-1.53575E-07-2.88514E-19-1.01247E-18
 -1       660 9.52529E-05-2.84915E-05-2.86120E-05-7.98588E-08 6.19920E-20 7.23308E-19
 -1       661 9.52479E-05-2.85190E-05-2.85981E-05-2.89459E-08 9.08899E-20 6.44118E-19
 -1       662 9.52447E-05-2.85404E-05-2.85875E-05 4.39611E-09 8.03341E-19-8.94256E-19
 -1       663 9.52431E-05-2.85579E-05-2.85793E-05 2.38402E-08 7.06727E-19-6.79090E-19
 -1       664 9.77041E-05-4.79057E-05-2.10594E-05 3.39835E-05 2.58434E-18-1.50057E-18
 -1       665 9.52427E-05-2.85684E-05-2.85747E-05 3.06805E-08 1.71179E-18 7.30189E-19
 -1       666 9.67030E-05-2.67293E-05-2.99871E-05-5.87452E-06 9.94153E-19-1.41728E-18
 -1       667 9.89351E-05-2.90639E-05-2.99450E-05-1.02775E-05-1.20116E-19-8.21811E-19
 -1       668 1.00815E-04-3.09307E-05-2.99524E-05-1.09497E-05-9.63871E-20-6.79252E-19
 -1       669 1.03793E-04-3.38795E-05-2.99668E-05-1.07969E-05-1.18764E-19-1.61222E-20
 -1       670 1.08245E-04-3.80624E-05-3.00839E-05-9.25124E-06 3.98848E-20 5.50992E-19
 -1       671 1.14250E-04-4.30058E-05-3.05393E-05-5.50927E-06-3.65003E-19 9.09873E-19
 -1       672 1.20857E-04-4.67656E-05-3.17741E-05 1.26172E-06-2.48867E-19 1.64453E-18
 -1       673 1.25138E-04-4.55642E-05-3.42070E-05 9.77935E-06 7.40424E-19 2.77807E-18
 -1       674 1.24200E-04-3.60807E-05-3.79427E-05 1.57806E-05 2.51785E-18 2.85055E-18
 -1       675 1.18242E-04-2.16826E-05-4.17302E-05 1.26381E-05 3.57546E-18 1.95383E-18
 -1       676 1.15090E-04-1.47402E-05-4.34520E-05-1.61553E-06 4.13021E-18-2.51370E-19
 -1       677 1.19894E-04-2.39728E-05-4.13919E-05-1.43227E-05 2.55563E-18-1.94083E-18
 -1       678 1.24685E-04-3.77480E-05-3.74994E-05-1.64483E-05 1.47831E-18-3.44293E-18
 -1       679 1.25237E-04-4.60689E-05-3.39869E-05-9.62138E-06-7.54299E-19-3.45860E-18
 -1       680 1.20178E-04-4.63629E-05-3.16709E-05-9.70143E-07-1.05838E-18-2.06110E-18
 -1       681 1.13531E-04-4.22112E-05-3.05720E-05 5.32461E-06-1.41940E-18-5.55623E-19
 -1       682 1.07750E-04-3.72956E-05-3.02004E-05 8.61565E-06-1.55582E-18 2.40394E-19
 -1       683 1.03560E-04-3.33007E-05-3.01146E-05 9.82148E-06-1.16068E-18-1.33359E-19
 -1       684 1.00788E-04-3.05759E-05-3.00925E-05 9.77065E-06-9.64205E-19-4.62078E-19
 -1       685 9.90355E-05-2.89322E-05-3.00443E-05 9.02924E-06 1.25754E-19-1.68784E-18
 -1       686 9.79344E-05-2.80528E-05-2.99485E-05 7.95840E-06-1.01206E-18-7.37232E-19
 -1       687 9.72234E-05-2.76570E-05-2.98131E-05 6.77890E-06-5.99905E-19 1.04240E-20
 -1       688 9.67402E-05-2.75425E-05-2.96550E-05 5.62105E-06-4.42151E-19-6.72802E-19
 -1       689 9.63918E-05-2.75777E-05-2.94907E-05 4.55690E-06 2.83501E-21 1.44083E-19
 -1       690 9.61276E-05-2.76834E-05-2.93323E-05 3.62093E-06 1.84788E-19 1.15143E-18
 -1       691 9.59207E-05-2.78144E-05-2.91876E-05 2.82395E-06 7.58354E-19 2.61201E-19
 -1       692 9.57562E-05-2.79464E-05-2.90607E-05 2.16253E-06 6.94035E-19-2.09729E-19
 -1       693 9.56254E-05-2.80678E-05-2.89528E-05 1.62531E-06 1.89339E-18 4.33584E-19
 -1       694 9.55222E-05-2.81735E-05-2.88634E-05 1.19722E-06 7.73918E-19 1.09138E-18
 -1       695 9.54420E-05-2.82625E-05-2.87909E-05 8.62020E-07-1.16806E-19 1.02976E-18
 -1       696 9.53806E-05-2.83355E-05-2.87334E-05 6.03952E-07 1.40037E-18 9.81298E-19
 -1       697 9.53347E-05-2.83942E-05-2.86886E-05 4.08593E-07 6.56771E-19 9.43552E-19
 -1       698 9.53011E-05-2.84407E-05-2.86543E-05 2.63287E-07 9.74617E-19 1.44389E-19
 -1       699 9.52772E-05-2.84770E-05-2.86286E-05 1.57297E-07 3.10595E-19-1.41110E-19
 -1       700 9.52608E-05-2.85051E-05-2.86095E-05 8.17730E-08 6.01074E-19-1.56930E-18
 -1       701 9.52501E-05-2.85269E-05-2.85957E-05 2.96735E-08 1.24988E-19-2.98306E-18
 -1       702 9.52437E-05-2.85440E-05-2.85856E-05-4.47089E-09-4.61363E-19-2.03738E-18
 -1       703 9.52408E-05-2.85583E-05-2.85782E-05-2.47071E-08 4.93689E-19-1.18394E-18
 -1       704 9.52419E-05-2.85681E-05-2.85745E-05-3.18143E-08-8.89736E-19-3.91878E-19
 -1       705 1.28042E-04-3.01749E-05-4.23246E-05-1.43607E-05-2.88611E-18 2.57487E-18
 -1       706 9.52393E-05-2.85389E-05-2.85859E-05-1.31697E-09 1.26297E-18 1.92156E-18
 -1       707 9.52445E-05-2.85493E-05-2.85837E-05-1.09751E-08 1.72733E-18 4.68075E-19
 -1       708 9.52392E-05-2.85389E-05-2.85858E-05 2.10376E-09-5.56110E-19-9.81781E-19
 -1       709 9.52414E-05-2.85427E-05-2.85852E-05-5.37739E-09 1.16187E-18 1.50988E-18
 -1       710 9.52410E-05-2.85424E-05-2.85851E-05 5.98229E-09-1.69387E-18-1.37483E-18
 -1       711 9.52440E-05-2.85488E-05-2.85837E-05 1.13678E-08 2.35626E-19-3.77882E-19
 -1       712 9.52460E-05-2.85564E-05-2.85813E-05 1.83943E-08 9.21687E-19-4.85837E-19
 -1       713 9.64975E-05-2.61248E-05-3.01568E-05-3.76844E-06 1.09963E-18-1.53385E-18
 -1       714 1.34675E-04-4.57045E-05-3.84150E-05-8.35004E-06-1.63644E-18 2.11744E-18
 -1       715 8.00781E-05-3.87950E-05-1.73587E-05 3.52631E-05-4.18328E-18 2.44192E-18
 -1       716 1.35400E-04-5.68364E-05-3.38189E-05 1.64212E-06-7.63175E-19-1.46357E-18
 -1       717 4.79980E-05-1.98679E-05-1.15461E-05-2.61586E-05 1.54580E-18 5.34658E-18
 -1       718 1.31154E-04-3.30973E-05-4.24474E-05 1.50741E-05 3.60100E-18 4.44614E-18
 -1       719 7.26906E-05-3.61498E-05-1.52887E-05-3.78666E-05 2.40666E-18 1.51780E-18
 -1       720 9.77827E-05-2.79461E-05-2.99293E-05-9.11817E-06 8.95474E-20-8.50072E-19
 -1       721 9.70938E-05-2.72563E-05-2.99291E-05-7.63737E-06 5.72024E-19-1.26296E-18
 -1       722 9.54869E-05-2.28928E-05-3.11087E-05-1.61418E-06-2.21426E-18-1.09237E-18
 -1       723 1.39189E-04-4.47883E-05-4.06951E-05-1.13275E-05 2.00871E-18-2.93068E-18
 -1       724 1.08523E-04-5.41883E-05-2.31342E-05-3.08376E-05 2.92147E-18-1.46060E-18
 -1       725 8.98140E-05-1.51333E-05-3.20112E-05 1.90643E-06 1.06771E-18-3.38132E-18
 -1       726 4.31380E-05-1.74009E-05-1.04468E-05 2.27094E-05 1.16844E-18-6.77674E-18
 -1       727 1.29212E-04-2.90364E-05-4.33191E-05 1.47929E-05-4.27633E-18-4.87923E-18
 -1       728 8.99256E-05-1.52555E-05-3.20074E-05-1.77937E-06-1.71146E-18-3.21859E-18
 -1       729 9.01880E-05-4.52498E-05-1.89325E-05-3.63610E-05-2.93513E-18-2.10485E-18
 -1       730 5.56267E-05-2.44939E-05-1.28836E-05-3.00267E-05-2.76006E-18-5.02603E-18
 -1       731 1.29713E-04-5.75007E-05-3.10332E-05 9.36037E-06 1.08342E-18 1.64625E-18
 -1       732 1.16680E-04-5.68114E-05-2.55736E-05-2.51463E-05-1.79930E-18 1.57874E-18
 -1       733 6.15653E-05-2.98696E-05-1.31443E-05 3.55376E-05 2.27039E-18-4.51993E-18
 -1       734 1.34877E-04-4.88662E-05-3.71037E-05 6.16394E-06-2.00790E-18-5.61114E-18
 -1       735 1.12056E-04-5.54514E-05-2.41633E-05 2.79819E-05-3.76710E-18 2.24777E-18
 -1       736 1.30221E-04-5.87986E-05-3.06677E-05-1.27198E-05 4.73081E-19-3.05228E-18
 -1       737 1.30873E-04-2.61331E-05-4.53760E-05-1.56694E-05 3.56892E-18-3.04428E-18
 -1       738 9.16848E-05-1.72077E-05-3.19266E-05-2.65078E-06-2.03262E-18-2.76900E-18
 -1       739 8.79955E-05-1.32389E-05-3.20435E-05-2.13366E-07-7.11602E-19-3.25664E-18
 -1       740 4.35276E-05-1.35463E-05-1.23828E-05-1.32508E-05 5.74791E-19 4.87507E-18
 -1       741 6.62807E-05-2.74981E-05-1.62371E-05 2.98899E-05-3.38808E-18 1.64875E-18
 -1       742 1.16124E-04-5.41692E-05-2.65058E-05 2.04545E-05 1.89988E-18 5.91161E-19
 -1       743 1.18570E-04-1.92626E-05-4.29272E-05-1.12295E-05-3.61008E-18 2.39023E-18
 -1       744 9.52464E-05-2.85638E-05-2.85783E-05-2.45881E-08-8.99449E-19-1.23030E-18
 -1       745 1.26099E-04-5.69771E-05-2.95506E-05 1.08054E-05-1.47569E-18-1.29502E-18
 -1       746 4.93578E-05-1.64706E-05-1.37017E-05-1.84963E-05-2.07350E-18-5.06536E-18
 -1       747 1.19426E-04-1.31199E-05-4.60677E-05 8.10040E-06-5.16039E-18-1.64369E-18
 -1       748 9.52456E-05-2.85565E-05-2.85810E-05 2.12494E-08 1.58370E-18-7.75984E-19
 -1       749 3.94981E-05-1.28229E-05-1.09396E-05 1.06971E-05-1.08903E-18 7.01433E-18
 -1       750 1.28309E-04-5.70888E-05-3.05435E-05-7.77485E-06-1.47755E-18 3.01842E-18
 -1       751 9.52466E-05-2.85570E-05-2.85812E-05-1.74253E-08 9.93849E-19 1.00482E-18
 -1       752 8.86671E-05-1.39289E-05-3.20364E-05-9.51753E-07-1.27733E-18-3.12602E-18
 -1       753 1.16864E-04-1.14231E-05-4.56796E-05-2.58607E-06-4.90411E-18 1.45282E-18
 -1       754 9.43167E-05-2.04860E-05-3.16448E-05-3.35564E-06-2.39768E-18-1.58719E-18
 -1       755 9.36062E-05-2.07764E-05-3.12113E-05 5.34064E-07 1.55288E-18-2.40240E-18
 -1       756 9.46420E-05-2.35401E-05-3.04722E-05 2.47112E-06-1.64906E-18-1.62206E-18
 -1       757 9.48109E-05-2.47426E-05-3.00292E-05 4.63204E-06-1.15811E-18-1.25824E-18
 -1       758 9.49166E-05-2.56955E-05-2.96660E-05 6.48608E-06-8.93624E-19-8.71569E-19
 -1       759 9.51805E-05-2.67071E-05-2.93456E-05 8.09734E-06-6.99648E-19-7.12454E-19
 -1       760 9.58561E-05-2.80930E-05-2.90413E-05 9.49633E-06 1.65217E-20-5.16807E-19
 -1       761 9.72722E-05-3.01930E-05-2.87484E-05 1.06419E-05 4.56199E-19-2.23690E-19
 -1       762 9.98574E-05-3.33483E-05-2.85036E-05 1.13602E-05 1.88164E-19 2.43927E-19
 -1       763 1.04117E-04-3.77825E-05-2.84227E-05 1.12018E-05 2.26300E-19 6.55066E-19
 -1       764 1.10225E-04-4.30837E-05-2.87600E-05 9.34789E-06 9.00016E-19 9.91001E-19
 -1       765 1.17952E-04-4.80389E-05-2.99886E-05 4.56808E-06 1.12903E-18 1.17737E-18
 -1       766 1.25009E-04-4.90140E-05-3.25959E-05-3.46688E-06 4.04068E-19 1.55516E-18
 -1       767 1.20776E-04-4.86019E-05-3.10096E-05-8.67436E-07 1.71241E-19-3.38899E-18
 -1       768 1.13384E-04-4.53134E-05-2.91771E-05-6.73377E-06 2.41512E-18-2.49552E-18
 -1       769 1.06290E-04-3.97397E-05-2.85218E-05-9.75888E-06 1.70530E-18-1.09470E-18
 -1       770 1.01146E-04-3.48361E-05-2.84188E-05-1.04238E-05 7.88061E-19-5.46655E-19
 -1       771 9.77761E-05-3.11692E-05-2.85452E-05-1.00175E-05 9.58489E-19-5.42303E-19
 -1       772 9.58057E-05-2.87660E-05-2.87309E-05-9.07961E-06 9.66580E-19-3.77790E-20
 -1       773 9.47689E-05-2.73544E-05-2.88916E-05-7.95777E-06 5.84515E-19-4.72219E-20
 -1       774 9.43119E-05-2.66439E-05-2.90003E-05-6.80784E-06-1.46429E-20 2.48494E-19
 -1       775 9.41898E-05-2.63929E-05-2.90556E-05-5.70833E-06-4.78898E-19 4.31580E-19
 -1       776 9.42445E-05-2.64215E-05-2.90668E-05-4.69973E-06-7.23976E-19-4.49891E-19
 -1       777 9.43795E-05-2.66045E-05-2.90463E-05-3.80215E-06 8.19545E-20-1.03553E-18
 -1       778 9.45393E-05-2.68593E-05-2.90056E-05-3.02327E-06-8.98979E-19-5.94284E-19
 -1       779 9.46945E-05-2.71345E-05-2.89542E-05-2.36239E-06-1.02407E-19 1.06548E-18
 -1       780 9.48311E-05-2.73997E-05-2.88991E-05-1.81307E-06-8.25359E-19-2.29584E-19
 -1       781 9.49442E-05-2.76391E-05-2.88450E-05-1.36517E-06-6.83118E-19 2.52833E-19
 -1       782 9.50338E-05-2.78455E-05-2.87949E-05-1.00659E-06-9.81132E-19-7.07637E-19
 -1       783 9.51020E-05-2.80178E-05-2.87504E-05-7.24543E-07-7.27649E-19-1.00531E-18
 -1       784 9.51523E-05-2.81576E-05-2.87120E-05-5.06547E-07-1.37171E-18-1.54186E-18
 -1       785 9.51880E-05-2.82685E-05-2.86798E-05-3.41029E-07-2.10225E-19 4.62241E-19
 -1       786 9.52123E-05-2.83547E-05-2.86532E-05-2.17712E-07 7.63919E-19 9.89027E-19
 -1       787 9.52279E-05-2.84207E-05-2.86317E-05-1.27798E-07 1.15668E-18 8.87407E-19
 -1       788 9.52374E-05-2.84706E-05-2.86143E-05-6.39692E-08 1.18782E-18 3.08801E-19
 -1       789 9.52425E-05-2.85084E-05-2.86003E-05-2.05354E-08 1.62193E-20 1.44450E-18
 -1       790 9.52448E-05-2.85354E-05-2.85898E-05 5.22579E-09-4.32475E-19 1.56353E-18
 -1       791 9.56419E-05-2.79844E-05-2.89959E-05-1.18798E-05-8.99270E-20-1.09826E-18
 -1       792 1.06764E-04-4.07884E-05-2.82622E-05-1.39252E-05-7.65741E-19 6.49693E-19
 -1       793 1.15771E-04-4.82293E-05-2.89286E-05-1.12000E-05-1.03970E-18 1.45329E-18
 -1       794 1.14314E-04-4.70117E-05-2.88249E-05 1.10122E-05-1.90474E-18-1.86625E-18
 -1       795 1.05539E-04-3.95040E-05-2.82862E-05 1.31801E-05-2.02120E-18-7.93400E-19
 -1       796 9.99505E-05-3.36582E-05-2.84091E-05 1.31044E-05-1.32831E-18-1.93217E-19
 -1       797 9.67665E-05-2.98035E-05-2.86985E-05 1.20311E-05-1.06546E-18 1.46007E-19
 -1       798 9.51635E-05-2.75725E-05-2.89672E-05 1.06200E-05-7.74664E-19-6.24819E-19
 -1       799 9.44892E-05-2.64646E-05-2.91529E-05 9.14771E-06-1.00320E-18 5.96061E-19
 -1       800 9.43091E-05-2.60598E-05-2.92492E-05 7.73013E-06-9.19376E-19 5.37193E-19
 -1       801 9.43637E-05-2.60602E-05-2.92725E-05 6.42007E-06 3.71518E-19-4.12431E-19
 -1       802 9.45092E-05-2.62711E-05-2.92445E-05 5.24404E-06-3.56588E-19-1.38744E-18
 -1       803 9.46727E-05-2.65731E-05-2.91852E-05 4.21385E-06-5.43467E-19-1.58343E-18
 -1       804 9.48212E-05-2.68970E-05-2.91101E-05 3.33112E-06 6.96037E-19-6.71435E-19
 -1       805 9.49432E-05-2.72058E-05-2.90301E-05 2.59001E-06 1.24653E-18-2.80656E-19
 -1       806 9.50375E-05-2.74817E-05-2.89523E-05 1.97950E-06 1.97928E-19 4.48962E-19
 -1       807 9.51074E-05-2.77181E-05-2.88810E-05 1.48549E-06-3.62195E-19 1.17787E-18
 -1       808 9.51575E-05-2.79147E-05-2.88182E-05 1.09250E-06 3.13578E-19 2.15221E-18
 -1       809 9.51921E-05-2.80745E-05-2.87646E-05 7.85019E-07 5.77742E-19 1.07282E-18
 -1       810 9.52153E-05-2.82018E-05-2.87200E-05 5.48378E-07 1.49005E-18 8.74329E-19
 -1       811 9.52301E-05-2.83014E-05-2.86837E-05 3.69306E-07 9.08218E-19 2.49872E-19
 -1       812 9.52390E-05-2.83782E-05-2.86546E-05 2.36214E-07 8.31581E-19 3.15884E-19
 -1       813 9.52438E-05-2.84366E-05-2.86316E-05 1.39301E-07 6.59310E-19 9.10480E-19
 -1       814 9.52458E-05-2.84806E-05-2.86137E-05 7.04522E-08 1.10774E-18 2.12724E-18
 -1       815 9.52463E-05-2.85138E-05-2.85996E-05 2.35295E-08-1.06256E-18 1.12989E-18
 -1       816 9.52460E-05-2.85392E-05-2.85886E-05-6.69396E-09 6.75729E-19-6.99388E-19
 -1       817 9.52459E-05-2.85514E-05-2.85834E-05-1.78693E-08 2.77933E-19-1.40887E-18
 -1       818 9.52295E-05-2.85022E-05-2.85974E-05-1.28858E-09-5.27520E-19-1.33342E-18
 -1       819 9.52277E-05-2.84989E-05-2.85980E-05 4.48732E-10 9.66743E-20-9.69677E-19
 -1       820 1.33095E-04-4.68876E-05-3.70396E-05 1.08223E-05 1.28956E-18 4.18175E-18
 -1       821 1.27382E-04-5.22643E-05-3.22450E-05 4.99947E-08 3.11483E-20-4.75889E-18
 -1       822 1.04792E-04-4.79891E-05-2.42267E-05-2.58988E-05-2.63998E-18 3.66006E-19
 -1       823 4.51861E-05-1.25314E-05-1.35830E-05 6.62029E-06-3.34982E-19-5.76274E-18
 -1       824 7.97202E-05-3.30611E-05-1.97815E-05 2.96783E-05 2.13958E-18-2.42406E-18
 -1       825 9.49310E-05-2.65715E-05-2.92965E-05-1.03011E-05-3.93481E-20-1.13898E-18
 -1       826 9.29161E-05-4.31949E-05-2.11597E-05-3.14668E-05 3.24913E-18-1.55528E-18
 -1       827 9.52346E-05-2.85114E-05-2.85957E-05-1.18043E-09-1.97823E-19 9.94530E-19
 -1       828 9.52409E-05-2.85248E-05-2.85926E-05 2.41132E-09-6.10723E-19-7.99982E-19
 -1       829 9.51380E-05-2.30833E-05-3.08799E-05-2.59277E-07 1.73744E-18-1.83662E-18
 -1       830 1.00791E-04-3.46603E-05-2.83395E-05-1.41955E-05-4.84805E-19-4.35343E-19
 -1       831 9.41571E-05-2.17322E-05-3.10391E-05-4.41884E-08-1.95533E-18-1.94900E-18
 -1       832 9.47622E-05-2.57850E-05-2.95612E-05-8.60058E-06 1.74752E-19-1.30039E-18
 -1       833 9.73645E-05-3.05021E-05-2.86556E-05-1.32679E-05-7.18768E-19-1.24803E-18
 -1       834 9.48366E-05-2.52460E-05-2.98242E-05-6.75413E-06 4.71820E-19-1.44173E-18
 -1       835 6.87934E-05-2.70241E-05-1.76469E-05-2.84381E-05 3.62368E-18 1.06874E-18
 -1       836 1.18786E-04-5.40036E-05-2.77227E-05-1.59293E-05 2.24224E-18-1.84771E-18
 -1       837 5.83257E-05-2.05246E-05-1.58723E-05 2.35465E-05 1.49990E-18-4.83973E-18
 -1       838 8.91308E-05-1.58055E-05-3.14260E-05 2.45763E-07 2.12049E-19-3.05052E-18
 -1       839 7.88459E-05-3.29866E-05-1.94412E-05-2.99120E-05-2.91196E-18-2.67958E-18
 -1       840 1.00452E-04-4.61641E-05-2.31430E-05 2.72955E-05-3.02743E-18 3.82546E-18
 -1       841 9.30542E-05-1.96164E-05-3.14738E-05-1.43868E-06-1.88531E-18-2.44381E-18
 -1       842 1.25185E-04-4.18613E-05-3.58411E-05-1.11854E-05-9.78568E-19 1.96340E-18
 -1       843 8.88535E-05-1.55178E-05-3.14294E-05 1.84250E-07-2.76522E-19-2.82988E-18
 -1       844 6.05993E-05-1.96044E-05-1.73282E-05-2.06982E-05 2.22707E-18 1.36030E-18
 -1       845 4.58066E-05-1.17687E-05-1.42508E-05-2.91665E-07 3.25643E-19 5.24713E-18
 -1       846 9.49565E-05-2.46420E-05-3.01345E-05-4.68564E-06 8.26753E-19-1.66916E-18
 -1       847 8.71850E-05-3.68709E-05-2.13538E-05 2.80716E-05-1.83115E-18 3.89165E-18
 -1       848 9.11651E-05-1.74563E-05-3.15918E-05-9.48078E-07-1.66629E-18-2.98912E-18
 -1       849 6.92615E-05-2.44697E-05-1.89723E-05-2.43542E-05-2.45067E-18-3.27702E-18
 -1       850 9.51549E-05-2.40682E-05-3.04655E-05-2.64505E-06 1.18518E-18-1.81748E-18
 -1       851 9.52353E-05-2.85119E-05-2.85958E-05 1.80607E-09 2.80537E-18 1.63577E-18
 -1       852 8.97142E-05-1.58947E-05-3.16401E-05-4.78638E-07-1.23316E-18-2.95891E-18
 -1       853 9.52298E-05-2.85024E-05-2.85975E-05 2.14893E-09 2.87305E-18-4.24854E-19
 -1       854 9.52430E-05-2.85292E-05-2.85915E-05 3.31299E-09-1.12762E-18-1.50974E-18
 -1       855 9.52410E-05-2.85246E-05-2.85928E-05-2.01830E-09 2.07618E-18 1.96407E-18
 -1       856 9.81076E-05-4.25763E-05-2.37300E-05 2.54185E-05 2.01760E-18-9.46950E-19
 -1       857 9.00955E-05-1.68115E-05-3.14083E-05 3.18119E-07 7.16527E-19-2.99562E-18
 -1       858 5.69751E-05-1.81197E-05-1.63351E-05 1.96732E-05-1.84276E-18 1.85643E-18
 -1       859 9.16590E-05-1.85054E-05-3.13511E-05 4.39852E-07 1.11324E-18-2.72834E-18
 -1       860 9.30647E-05-2.24182E-05-3.02772E-05 3.25874E-06-1.05657E-18-1.66409E-18
 -1       861 9.29706E-05-2.35332E-05-2.97588E-05 5.17808E-06-6.86591E-19-1.33309E-18
 -1       862 9.27411E-05-2.44546E-05-2.92655E-05 6.98823E-06-6.26031E-19-1.07446E-18
 -1       863 9.26156E-05-2.54985E-05-2.87644E-05 8.78265E-06-2.98340E-19-7.44942E-19
 -1       864 9.29037E-05-2.70274E-05-2.82329E-05 1.06549E-05 4.54981E-19-7.93150E-19
 -1       865 9.40277E-05-2.94592E-05-2.76728E-05 1.26535E-05 6.23777E-19-7.54215E-19
 -1       866 9.66377E-05-3.33185E-05-2.71352E-05 1.47047E-05 5.03796E-19-5.58333E-19
 -1       867 1.01651E-04-3.91643E-05-2.68013E-05 1.65109E-05 9.81898E-19 9.11288E-20
 -1       868 1.04122E-04-4.17008E-05-2.67392E-05-1.59656E-05 3.06812E-18-1.26110E-18
 -1       869 9.79916E-05-3.52016E-05-2.69166E-05-1.46087E-05 1.78833E-18-1.24401E-18
 -1       870 9.41182E-05-3.05170E-05-2.72560E-05-1.27586E-05 1.09657E-18-1.01647E-19
 -1       871 9.23205E-05-2.76496E-05-2.77150E-05-1.07125E-05 8.98689E-19-4.30090E-19
 -1       872 9.16300E-05-2.60290E-05-2.81143E-05-8.90697E-06 7.22157E-19-1.14874E-18
 -1       873 9.15882E-05-2.52691E-05-2.84222E-05-7.35384E-06 5.50068E-19-2.47231E-19
 -1       874 9.18887E-05-2.50655E-05-2.86383E-05-6.03095E-06 3.58191E-19-1.57186E-19
 -1       875 9.23425E-05-2.51986E-05-2.87759E-05-4.90539E-06-6.50042E-19-1.05068E-20
 -1       876 9.28383E-05-2.55170E-05-2.88519E-05-3.94932E-06-1.10461E-18-8.36659E-19
 -1       877 9.33141E-05-2.59200E-05-2.88832E-05-3.14166E-06-9.77903E-19-1.92543E-18
 -1       878 9.37386E-05-2.63432E-05-2.88838E-05-2.46562E-06 6.07678E-19-2.28205E-18
 -1       879 9.40995E-05-2.67479E-05-2.88650E-05-1.90643E-06-4.93041E-19-2.22891E-18
 -1       880 9.43953E-05-2.71130E-05-2.88353E-05-1.45015E-06 1.85191E-19-1.52958E-18
 -1       881 9.46305E-05-2.74290E-05-2.88006E-05-1.08319E-06-1.03531E-18-1.66774E-18
 -1       882 9.48126E-05-2.76941E-05-2.87651E-05-7.92507E-07-9.19474E-19-9.46649E-19
 -1       883 9.49500E-05-2.79106E-05-2.87312E-05-5.65803E-07-1.24858E-18-5.02260E-19
 -1       884 9.50510E-05-2.80835E-05-2.87003E-05-3.91832E-07 4.03642E-19 5.48623E-19
 -1       885 9.51230E-05-2.82188E-05-2.86732E-05-2.60592E-07 5.40262E-19 7.70639E-19
 -1       886 9.51725E-05-2.83228E-05-2.86499E-05-1.63440E-07 8.84264E-19-7.97198E-19
 -1       887 9.52053E-05-2.84016E-05-2.86302E-05-9.32040E-08 2.05289E-18-1.12981E-18
 -1       888 9.52259E-05-2.84611E-05-2.86136E-05-4.38022E-08 8.96128E-19-3.28828E-19
 -1       889 8.90494E-05-1.54582E-05-3.15398E-05-1.73597E-08-7.11666E-19-2.81949E-18
 -1       890 9.23120E-05-2.36281E-05-2.94358E-05-7.05795E-06 2.03034E-19-1.61184E-18
 -1       891 9.27940E-05-2.07958E-05-3.08564E-05 1.17819E-06-1.29505E-18-2.25764E-18
 -1       892 1.02050E-04-4.22875E-05-2.56021E-05-2.15163E-05-1.72861E-18 3.18109E-19
 -1       893 1.04319E-04-4.46896E-05-2.53364E-05-2.05075E-05 2.78057E-18-3.31964E-20
 -1       894 9.01983E-05-2.56888E-05-2.76462E-05 1.18329E-05-1.83442E-18 2.24520E-19
 -1       895 9.02756E-05-2.45410E-05-2.81716E-05 9.75679E-06-1.73347E-18 3.82165E-19
 -1       896 9.08108E-05-2.42224E-05-2.85377E-05 8.05713E-06-1.50577E-18 1.40497E-18
 -1       897 9.15108E-05-2.43794E-05-2.87705E-05 6.63381E-06 2.36776E-20 1.04643E-18
 -1       898 9.22212E-05-2.47834E-05-2.89018E-05 5.42283E-06 1.09283E-18 1.42349E-18
 -1       899 9.28673E-05-2.52914E-05-2.89610E-05 4.38700E-06 3.58831E-19 4.17630E-19
 -1       900 9.34195E-05-2.58185E-05-2.89719E-05 3.50435E-06-4.14764E-19-1.85377E-18
 -1       901 9.38729E-05-2.63168E-05-2.89526E-05 2.75967E-06-4.30773E-20-8.53822E-19
 -1       902 9.42342E-05-2.67626E-05-2.89164E-05 2.13979E-06-3.99952E-19 1.54416E-19
 -1       903 9.45156E-05-2.71467E-05-2.88724E-05 1.63153E-06-3.18264E-19-1.56345E-20
 -1       904 9.47301E-05-2.74682E-05-2.88265E-05 1.22134E-06-2.24629E-19 7.56653E-19
 -1       905 9.48905E-05-2.77313E-05-2.87825E-05 8.95547E-07 3.50170E-20-2.08016E-19
 -1       906 9.50081E-05-2.79425E-05-2.87424E-05 6.40961E-07 8.09199E-19 2.45638E-19
 -1       907 9.50924E-05-2.81088E-05-2.87073E-05 4.45286E-07 1.12434E-18 1.06376E-18
 -1       908 9.51512E-05-2.82377E-05-2.86772E-05 2.97457E-07 1.02781E-18 2.40587E-18
 -1       909 9.51909E-05-2.83361E-05-2.86521E-05 1.87845E-07 6.74943E-19 2.20186E-18
 -1       910 9.52166E-05-2.84103E-05-2.86313E-05 1.08426E-07 3.28947E-20 2.28801E-18
 -1       911 9.52321E-05-2.84657E-05-2.86142E-05 5.21370E-08-3.60465E-19 2.87568E-18
 -1       912 9.52407E-05-2.85068E-05-2.86002E-05 1.41888E-08 1.20751E-18 2.62963E-18
 -1       913 9.52272E-05-2.84797E-05-2.86060E-05-1.77373E-08-1.21042E-18-8.03661E-19
 -1       914 9.52101E-05-2.84517E-05-2.86108E-05-4.74952E-09 6.28608E-19-2.15955E-18
 -1       915 9.37970E-05-2.21561E-05-3.07023E-05-1.73859E-06 1.08445E-18-2.07650E-18
 -1       916 9.11165E-05-2.82044E-05-2.69624E-05 1.43925E-05-1.16246E-18 2.32646E-19
 -1       917 9.10809E-05-2.48207E-05-2.83966E-05-1.08718E-05-3.82742E-20-1.18605E-18
 -1       918 9.39153E-05-3.28062E-05-2.61772E-05 1.74071E-05-1.75500E-18 1.18774E-18
 -1       919 9.52163E-05-2.84616E-05-2.86092E-05-1.32830E-08 2.63596E-19-2.60417E-18
 -1       920 9.16340E-05-2.40794E-05-2.89516E-05-8.91718E-06-3.63826E-20-1.56672E-18
 -1       921 8.70488E-05-3.43483E-05-2.25280E-05-2.49396E-05 3.31890E-18 3.96656E-19
 -1       922 9.50789E-05-3.41218E-05-2.61128E-05-1.87196E-05-1.24054E-18-2.10249E-19
 -1       923 9.52451E-05-2.85391E-05-2.85883E-05-9.21528E-09 1.36125E-18 2.04277E-18
 -1       924 9.20566E-05-1.92251E-05-3.12137E-05 6.07149E-08-1.43732E-18-2.73083E-18
 -1       925 1.07840E-04-4.49491E-05-2.68801E-05 1.70342E-05 1.55687E-18 5.68491E-19
 -1       926 1.00085E-04-4.01412E-05-2.56528E-05 2.01481E-05-2.83057E-18 1.87850E-18
 -1       927 5.35132E-05-1.36639E-05-1.68463E-05-6.83835E-06-1.23429E-18-4.83684E-18
 -1       928 5.63329E-05-1.46392E-05-1.77235E-05-1.13235E-05 8.68189E-19 3.68715E-18
 -1       929 9.29041E-05-2.31362E-05-2.98998E-05-5.15450E-06 6.45008E-19-1.70570E-18
 -1       930 5.68591E-05-1.41515E-05-1.81197E-05 6.62418E-06-1.84675E-19-4.50108E-18
 -1       931 9.52171E-05-2.84621E-05-2.86093E-05 1.43017E-08 1.81241E-18 1.72529E-18
 -1       932 8.92732E-05-1.73562E-05-3.08214E-05-2.66732E-08 1.69054E-20-2.54216E-18
 -1       933 9.10204E-05-2.63122E-05-2.77313E-05-1.30868E-05-4.10278E-19-1.09258E-18
 -1       934 9.52371E-05-2.84996E-05-2.86018E-05-1.69093E-08-1.15099E-18-1.59300E-18
 -1       935 7.43872E-05-2.67772E-05-2.02364E-05 2.40559E-05-1.25893E-18 2.05345E-18
 -1       936 9.52103E-05-2.84518E-05-2.86108E-05 5.69672E-09 1.26766E-18-3.17094E-18
 -1       937 8.56233E-05-3.12274E-05-2.32222E-05-2.30529E-05-1.84431E-18-2.15055E-18
 -1       938 9.04784E-05-1.75233E-05-3.12693E-05 1.95224E-07-9.86366E-19-2.99168E-18
 -1       939 9.20257E-05-2.91490E-05-2.69461E-05-1.56990E-05-1.14008E-18-9.99258E-19
 -1       940 9.52271E-05-2.84794E-05-2.86062E-05 1.65188E-08 1.27381E-18 2.93183E-18
 -1       941 8.61679E-05-3.20085E-05-2.31810E-05 2.29296E-05 1.63371E-18-1.71149E-18
 -1       942 7.82037E-05-2.75959E-05-2.15631E-05-2.28198E-05 2.79335E-18-3.91766E-19
 -1       943 7.18809E-05-2.30423E-05-2.08012E-05 2.02613E-05 1.23417E-18-2.94164E-18
 -1       944 8.99049E-05-1.79891E-05-3.08211E-05-6.21751E-07 5.22745E-19-2.60609E-18
 -1       945 9.07985E-05-2.23137E-05-2.93508E-05 5.21154E-06-3.49840E-19-1.29853E-18
 -1       946 9.00227E-05-2.30382E-05-2.87076E-05 6.95969E-06-2.68569E-19-1.14393E-18
 -1       947 8.92044E-05-2.38843E-05-2.79949E-05 8.95292E-06 1.62599E-19-1.22891E-18
 -1       948 8.86160E-05-2.52205E-05-2.71753E-05 1.14277E-05 5.28757E-19-1.43410E-18
 -1       949 8.88224E-05-2.76205E-05-2.62442E-05 1.46640E-05 7.58116E-19-1.61207E-18
 -1       950 8.64742E-05-3.09572E-05-2.37140E-05 2.14090E-05-1.62238E-18 2.37788E-18
 -1       951 8.83310E-05-2.25869E-05-2.81764E-05 6.11380E-06-1.33807E-18-5.50173E-19
 -1       952 8.82922E-05-2.84922E-05-2.56133E-05-1.56134E-05 1.72633E-18 1.26515E-19
 -1       953 8.73859E-05-2.56481E-05-2.64611E-05-1.20689E-05 9.42830E-19-2.31043E-19
 -1       954 8.75962E-05-2.41641E-05-2.71857E-05-9.42096E-06 3.66040E-19-2.26170E-19
 -1       955 8.83070E-05-2.35760E-05-2.77419E-05-7.41661E-06 1.27812E-18-1.40215E-18
 -1       956 8.92250E-05-2.35477E-05-2.81475E-05-5.87976E-06 1.72180E-19-8.50517E-19
 -1       957 9.01872E-05-2.38530E-05-2.84290E-05-4.67590E-06 5.04422E-19-1.52775E-18
 -1       958 9.11053E-05-2.43402E-05-2.86137E-05-3.71327E-06-1.37880E-18-1.38244E-18
 -1       959 9.19338E-05-2.49070E-05-2.87258E-05-2.93318E-06-1.58409E-18-9.98558E-19
 -1       960 9.26523E-05-2.54861E-05-2.87855E-05-2.29747E-06-5.32430E-19-4.11749E-19
 -1       961 9.32563E-05-2.60354E-05-2.88090E-05-1.77991E-06-6.01294E-19-7.06169E-19
 -1       962 9.37509E-05-2.65311E-05-2.88085E-05-1.36094E-06-3.21983E-19-1.39619E-18
 -1       963 9.41464E-05-2.69620E-05-2.87933E-05-1.02483E-06-6.02611E-19-1.76336E-18
 -1       964 9.44557E-05-2.73256E-05-2.87701E-05-7.58190E-07-7.67726E-19-1.55571E-18
 -1       965 9.46924E-05-2.76248E-05-2.87433E-05-5.49329E-07 9.36948E-20-1.46436E-18
 -1       966 9.48694E-05-2.78657E-05-2.87159E-05-3.88004E-07 6.00760E-19-6.98885E-19
 -1       967 9.49986E-05-2.80556E-05-2.86899E-05-2.65264E-07 6.77155E-19-5.80282E-19
 -1       968 9.50903E-05-2.82028E-05-2.86661E-05-1.73413E-07 5.79609E-20-3.79251E-19
 -1       969 9.51530E-05-2.83147E-05-2.86450E-05-1.06093E-07 1.24492E-18 4.86637E-20
 -1       970 9.51946E-05-2.83993E-05-2.86266E-05-5.73238E-08 1.47083E-18-1.85695E-18
 -1       971 9.35034E-05-2.28198E-05-3.02932E-05-3.56700E-06 7.10268E-19-1.90883E-18
 -1       972 8.78310E-05-2.21516E-05-2.81477E-05-8.33678E-06-2.25536E-19-1.95031E-18
 -1       973 9.14361E-05-2.00748E-05-3.05841E-05 1.88657E-06-5.41694E-19-2.55359E-18
 -1       974 6.18826E-05-1.46876E-05-2.01412E-05-2.91949E-06-6.24565E-19-4.11905E-18
 -1       975 9.13333E-05-2.14182E-05-2.99639E-05 3.55446E-06-4.51265E-19-1.85179E-18
 -1       976 8.68170E-05-2.21705E-05-2.77062E-05 7.54515E-06-1.44435E-18-2.06069E-19
 -1       977 8.93924E-05-1.74664E-05-3.08253E-05 5.37095E-07-2.97428E-19-2.35874E-18
 -1       978 8.52226E-05-2.21740E-05-2.70207E-05 9.44487E-06-1.34600E-18 8.45873E-19
 -1       979 8.96869E-05-2.32213E-05-2.84855E-05 4.97885E-06-3.16296E-19 6.28910E-20
 -1       980 9.08558E-05-2.39431E-05-2.86771E-05 4.04446E-06 1.41113E-19 8.37960E-19
 -1       981 9.18361E-05-2.46705E-05-2.87854E-05 3.25969E-06 1.18473E-18 1.89964E-18
 -1       982 9.26401E-05-2.53548E-05-2.88367E-05 2.59737E-06 1.42498E-19 1.64992E-18
 -1       983 9.32870E-05-2.59698E-05-2.88503E-05 2.04129E-06 3.91826E-20 7.07833E-19
 -1       984 9.37986E-05-2.65041E-05-2.88406E-05 1.57951E-06 2.50104E-19 5.74950E-20
 -1       985 9.41963E-05-2.69559E-05-2.88173E-05 1.20136E-06-1.09247E-18 1.68676E-19
 -1       986 9.45004E-05-2.73296E-05-2.87875E-05 8.96461E-07-3.08989E-20 2.37227E-19
 -1       987 9.47288E-05-2.76325E-05-2.87556E-05 6.54533E-07 9.03602E-21 7.06556E-19
 -1       988 9.48973E-05-2.78736E-05-2.87245E-05 4.65738E-07 1.11956E-19 1.63982E-18
 -1       989 9.50188E-05-2.80623E-05-2.86957E-05 3.20940E-07 9.57191E-19 7.45402E-19
 -1       990 9.51041E-05-2.82075E-05-2.86700E-05 2.11837E-07 2.60629E-19 2.09148E-18
 -1       991 9.51622E-05-2.83178E-05-2.86476E-05 1.31236E-07-9.38193E-19 4.04906E-18
 -1       992 9.52004E-05-2.84008E-05-2.86284E-05 7.28167E-08-2.55018E-20 5.14913E-18
 -1       993 8.93439E-05-2.19715E-05-2.88738E-05-6.59366E-06 1.46028E-21-1.84779E-18
 -1       994 6.87658E-05-2.01682E-05-2.07428E-05-1.70019E-05-1.68962E-18-3.31806E-18
 -1       995 8.27120E-05-2.49206E-05-2.47662E-05 1.60014E-05-1.11567E-18 1.98838E-18
 -1       996 8.37124E-05-2.29067E-05-2.60570E-05 1.21251E-05-8.76213E-19 1.34508E-18
 -1       997 9.12141E-05-1.93335E-05-3.08069E-05-1.14265E-06 7.45281E-19-2.81345E-18
 -1       998 5.70028E-05-1.39387E-05-1.82855E-05 7.48308E-06-7.11268E-19 2.67193E-18
 -1       999 9.05435E-05-2.16962E-05-2.95063E-05-4.95061E-06 1.71818E-19-1.99522E-18
 -1      1000 9.05921E-05-3.16668E-05-2.52134E-05 1.85161E-05 1.09640E-18-1.14628E-18
 -1      1001 8.61568E-05-2.25555E-05-2.72569E-05-1.04780E-05-2.55329E-19-1.58900E-18
 -1      1002 8.92641E-05-1.87602E-05-3.02172E-05-8.61513E-07 1.18523E-19-2.05879E-18
 -1      1003 8.90379E-05-1.85362E-05-3.02154E-05 4.04355E-07-1.97703E-19-2.31937E-18
 -1      1004 9.51861E-05-2.83961E-05-2.86243E-05 2.33314E-08 4.24605E-19-1.75724E-18
 -1      1005 9.51805E-05-2.83887E-05-2.86250E-05 6.43047E-10 2.04920E-19-3.70472E-18
 -1      1006 7.09641E-05-2.14048E-05-2.10819E-05-1.78320E-05 1.54843E-18-1.16672E-18
 -1      1007 6.79463E-05-1.94301E-05-2.07082E-05 1.59376E-05-1.68169E-18 1.53122E-18
 -1      1008 9.51855E-05-2.83959E-05-2.86241E-05-2.22004E-08-7.82867E-19-3.07845E-18
 -1      1009 8.45138E-05-2.63862E-05-2.48897E-05-1.75314E-05-1.30671E-18-2.46840E-18
 -1      1010 9.51889E-05-2.83921E-05-2.86271E-05 4.79008E-08 2.83619E-19 1.89638E-18
 -1      1011 8.01930E-05-2.53876E-05-2.34594E-05 1.78993E-05 1.21995E-18-2.09274E-18
 -1      1012 9.10231E-05-1.88660E-05-3.09205E-05 1.00472E-06-7.27871E-19-2.81092E-18
 -1      1013 6.82062E-05-1.74907E-05-2.16866E-05 1.00826E-05 4.25241E-19-2.94265E-18
 -1      1014 8.71291E-05-2.17300E-05-2.80292E-05 3.79649E-06-1.21690E-18 4.07553E-19
 -1      1015 8.83979E-05-2.10990E-05-2.88431E-05 4.53115E-06-1.52137E-19-1.89952E-18
 -1      1016 8.68337E-05-2.14350E-05-2.80283E-05 6.10006E-06-2.49242E-19-2.06168E-18
 -1      1017 8.49512E-05-2.18126E-05-2.70614E-05 8.14443E-06 1.22431E-19-2.16639E-18
 -1      1018 8.28906E-05-2.25114E-05-2.58638E-05 1.08769E-05 8.13794E-19-1.72627E-18
 -1      1019 8.46201E-05-2.36468E-05-2.61338E-05-1.34016E-05-5.34778E-19-1.92622E-18
 -1      1020 8.05525E-05-2.24083E-05-2.49233E-05-1.22602E-05 1.49916E-18-2.47610E-18
 -1      1021 9.01479E-05-1.78204E-05-3.09966E-05 6.92311E-07-6.25659E-19-2.57406E-18
 -1      1022 8.25443E-05-2.16414E-05-2.61051E-05-8.94568E-06 1.80737E-19-2.14398E-18
 -1      1023 8.44879E-05-2.15450E-05-2.69777E-05-6.65733E-06 4.43146E-19-1.70904E-18
 -1      1024 8.62879E-05-2.18761E-05-2.76062E-05-5.05137E-06 9.92424E-19-2.63006E-18
 -1      1025 8.78901E-05-2.24454E-05-2.80484E-05-3.88639E-06 3.19381E-19-2.62790E-18
 -1      1026 8.92934E-05-2.31426E-05-2.83508E-05-3.01184E-06-4.44151E-19-2.56686E-18
 -1      1027 9.05023E-05-2.38884E-05-2.85492E-05-2.33863E-06-5.29731E-19-2.53982E-18
 -1      1028 9.15259E-05-2.46259E-05-2.86717E-05-1.81148E-06-1.18317E-18-1.82861E-18
 -1      1029 9.23769E-05-2.53172E-05-2.87401E-05-1.39472E-06-1.44858E-19-1.96774E-18
 -1      1030 9.30719E-05-2.59395E-05-2.87712E-05-1.06420E-06-5.33145E-19-6.01789E-19
 -1      1031 9.36290E-05-2.64820E-05-2.87775E-05-8.02575E-07-3.17754E-19-1.18102E-18
 -1      1032 9.40676E-05-2.69421E-05-2.87682E-05-5.96642E-07 9.11135E-20-2.04143E-18
 -1      1033 9.44063E-05-2.73232E-05-2.87500E-05-4.35898E-07 1.89599E-19-1.56590E-18
 -1      1034 9.46627E-05-2.76322E-05-2.87274E-05-3.11697E-07 5.85752E-19-1.72801E-18
 -1      1035 9.48529E-05-2.78781E-05-2.87035E-05-2.16945E-07 5.51505E-19-2.38122E-18
 -1      1036 9.49901E-05-2.80696E-05-2.86802E-05-1.45623E-07 4.81551E-19-3.40300E-18
 -1      1037 9.50864E-05-2.82167E-05-2.86585E-05-9.32545E-08 2.72770E-19-1.99064E-18
 -1      1038 9.51445E-05-2.83167E-05-2.86405E-05-4.95460E-08 8.95262E-19-1.11087E-18
 -1      1039 9.15183E-05-2.15114E-05-3.00033E-05-3.77792E-06 4.58435E-19-2.52947E-18
 -1      1040 9.03350E-05-1.97597E-05-3.02459E-05-2.05549E-06 3.31763E-19-2.67758E-18
 -1      1041 7.95470E-05-1.94786E-05-2.57447E-05 7.53573E-06-3.64663E-19 1.51130E-18
 -1      1042 6.29500E-05-1.42818E-05-2.08229E-05-2.82516E-06 3.71418E-19 2.77325E-18
 -1      1043 8.95320E-05-2.05382E-05-2.95677E-05 3.21569E-06-8.26829E-20-2.12686E-18
 -1      1044 8.50694E-05-2.08326E-05-2.75318E-05 4.66522E-06-1.10650E-18 6.69641E-19
 -1      1045 9.02284E-05-2.35659E-05-2.85702E-05 2.53728E-06-5.67825E-20-8.83767E-19
 -1      1046 9.13710E-05-2.44139E-05-2.86963E-05 2.05226E-06 1.13358E-18-6.62304E-19
 -1      1047 9.22944E-05-2.51793E-05-2.87639E-05 1.63888E-06 2.29527E-19 6.76761E-20
 -1      1048 9.30315E-05-2.58503E-05-2.87922E-05 1.28908E-06-3.04964E-19 4.18280E-19
 -1      1049 9.36120E-05-2.64242E-05-2.87950E-05 9.96946E-07 6.86268E-20 3.70715E-19
 -1      1050 9.40624E-05-2.69042E-05-2.87823E-05 7.56844E-07-5.19319E-19 1.27336E-19
 -1      1051 9.44065E-05-2.72977E-05-2.87610E-05 5.62855E-07-4.41822E-19 8.25409E-19
 -1      1052 9.46648E-05-2.76145E-05-2.87359E-05 4.08798E-07-9.15077E-20 1.24009E-18
 -1      1053 9.48552E-05-2.78654E-05-2.87100E-05 2.88625E-07 1.36920E-18 2.52619E-18
 -1      1054 9.49922E-05-2.80604E-05-2.86851E-05 1.96777E-07 4.89163E-19 2.97925E-18
 -1      1055 9.50878E-05-2.82092E-05-2.86623E-05 1.27893E-07-9.37392E-19 2.27047E-18
 -1      1056 9.51476E-05-2.83120E-05-2.86438E-05 8.26576E-08-1.41100E-18 2.06502E-18
 -1      1057 8.61602E-05-2.03803E-05-2.81932E-05-5.04735E-06 2.58153E-21-2.04421E-18
 -1      1058 7.59679E-05-2.29019E-05-2.26580E-05-1.72848E-05 1.56842E-18-1.77697E-18
 -1      1059 9.51388E-05-2.83115E-05-2.86404E-05 2.13266E-08-1.18428E-18-3.09431E-18
 -1      1060 7.58601E-05-1.92726E-05-2.42502E-05 1.02213E-05-9.07308E-19 1.89877E-18
 -1      1061 9.01164E-05-1.95404E-05-3.02468E-05 1.99398E-06-1.34473E-19-2.23733E-18
 -1      1062 8.25747E-05-2.00444E-05-2.68016E-05 5.84153E-06-9.66562E-19 4.53181E-19
 -1      1063 8.88293E-05-2.26588E-05-2.83595E-05 3.10855E-06-9.83557E-20 2.28951E-20
 -1      1064 6.97100E-05-1.62218E-05-2.28977E-05 8.91905E-07 3.05794E-19-3.54467E-18
 -1      1065 7.72419E-05-2.04457E-05-2.43215E-05 1.11388E-05 7.09216E-19-2.07088E-18
 -1      1066 8.36456E-05-2.01689E-05-2.72080E-05-6.47834E-06-3.79695E-19-2.17265E-18
 -1      1067 8.82458E-05-1.92203E-05-2.95780E-05-3.37410E-07 1.38420E-19-1.96311E-18
 -1      1068 7.15936E-05-1.80688E-05-2.29224E-05-9.93175E-06-5.61657E-19-2.96674E-18
 -1      1069 8.81068E-05-2.04342E-05-2.90024E-05-3.86679E-06-1.38827E-20-2.26137E-18
 -1      1070 6.87178E-05-1.61160E-05-2.25237E-05 5.55282E-06-1.28448E-18 6.80145E-19
 -1      1071 9.51359E-05-2.83070E-05-2.86410E-05-1.49588E-08-4.79826E-19-4.26920E-18
 -1      1072 8.93837E-05-1.98887E-05-2.97836E-05-2.40762E-06-6.58518E-20-2.36656E-18
 -1      1073 7.23412E-05-1.82166E-05-2.32011E-05-9.17352E-06 1.66425E-18 1.00522E-19
 -1      1074 8.04903E-05-1.99367E-05-2.59540E-05-8.32847E-06-3.01407E-19-2.34398E-18
 -1      1075 8.59806E-05-1.99945E-05-2.82844E-05 2.86137E-06-1.01846E-19-2.42990E-18
 -1      1076 8.35083E-05-1.98330E-05-2.72896E-05 4.04602E-06 1.12899E-20-2.04441E-18
 -1      1077 8.01500E-05-1.94416E-05-2.60241E-05 5.68995E-06 7.02247E-19-2.00556E-18
 -1      1078 7.67594E-05-1.81659E-05-2.51041E-05 3.40958E-06 4.35385E-19-2.70636E-18
 -1      1079 7.70225E-05-1.86604E-05-2.50019E-05-6.28307E-06 2.32511E-19-8.51426E-19
 -1      1080 8.05461E-05-1.93626E-05-2.62202E-05-4.42221E-06 8.94779E-19-1.04158E-18
 -1      1081 8.34211E-05-2.02264E-05-2.70839E-05-3.19300E-06 5.12457E-20-1.95981E-18
 -1      1082 8.57369E-05-2.11336E-05-2.76876E-05-2.32957E-06 7.25987E-19-2.98616E-18
 -1      1083 8.76432E-05-2.20690E-05-2.81036E-05-1.71597E-06-5.72388E-20-2.45559E-18
 -1      1084 8.92227E-05-2.29964E-05-2.83830E-05-1.27247E-06-2.09758E-19-1.99219E-18
 -1      1085 9.05292E-05-2.38817E-05-2.85634E-05-9.46859E-07-8.74407E-19-1.66652E-18
 -1      1086 9.16017E-05-2.46984E-05-2.86730E-05-7.04773E-07-9.77946E-19-1.94885E-18
 -1      1087 9.24724E-05-2.54293E-05-2.87329E-05-5.23156E-07 5.13632E-19-2.08600E-18
 -1      1088 9.31698E-05-2.60659E-05-2.87589E-05-3.86152E-07-1.53246E-19-9.58246E-19
 -1      1089 9.37199E-05-2.66072E-05-2.87626E-05-2.82571E-07-5.86744E-19-3.47547E-19
 -1      1090 9.41469E-05-2.70574E-05-2.87527E-05-2.04332E-07-4.92113E-19-1.91306E-18
 -1      1091 9.44725E-05-2.74244E-05-2.87349E-05-1.45495E-07-1.04126E-20-2.79854E-18
 -1      1092 9.47160E-05-2.77179E-05-2.87135E-05-1.01717E-07 4.32487E-19-3.20476E-18
 -1      1093 9.48964E-05-2.79502E-05-2.86910E-05-6.94355E-08 3.00883E-19-2.79521E-18
 -1      1094 9.50231E-05-2.81285E-05-2.86691E-05-4.49706E-08 9.78112E-19-2.55375E-18
 -1      1095 9.22893E-05-2.52428E-05-2.87340E-05 7.50502E-07-6.35653E-19 4.69852E-19
 -1      1096 7.85780E-05-1.81724E-05-2.58949E-05 2.62968E-06 1.08148E-19 8.41573E-19
 -1      1097 8.48018E-05-2.04881E-05-2.75627E-05 1.81244E-06-1.07509E-18 3.86538E-19
 -1      1098 9.13525E-05-2.44630E-05-2.86667E-05 9.24787E-07 8.83708E-21-4.14544E-19
 -1      1099 8.84704E-05-1.95315E-05-2.95468E-05 1.52387E-06-1.39533E-19-2.38090E-18
 -1      1100 9.01879E-05-2.35834E-05-2.85445E-05 1.11779E-06 1.41341E-19-1.40803E-18
 -1      1101 9.30346E-05-2.59180E-05-2.87641E-05 5.96850E-07 2.97985E-19-8.70784E-19
 -1      1102 9.36201E-05-2.64900E-05-2.87699E-05 4.64806E-07 2.27140E-19-7.73442E-19
 -1      1103 9.40732E-05-2.69649E-05-2.87606E-05 3.54131E-07-7.34994E-19-8.09966E-19
 -1      1104 9.44184E-05-2.73518E-05-2.87428E-05 2.63576E-07-6.32491E-19-2.43449E-19
 -1      1105 9.46765E-05-2.76611E-05-2.87208E-05 1.91287E-07-2.71885E-19 1.17773E-18
 -1      1106 9.48666E-05-2.79056E-05-2.86976E-05 1.32348E-07-2.28828E-19 1.93855E-18
 -1      1107 9.50043E-05-2.80952E-05-2.86750E-05 8.78754E-08 6.47727E-19 1.84510E-18
 -1      1108 8.20655E-05-1.93566E-05-2.68754E-05 2.12082E-06-1.31201E-18 1.05316E-18
 -1      1109 7.42803E-05-1.71417E-05-2.44612E-05 3.36420E-06-2.59084E-19 9.12120E-19
 -1      1110 7.17426E-05-1.64448E-05-2.37017E-05-2.05293E-06-5.15363E-19 2.88504E-19
 -1      1111 8.74402E-05-1.98835E-05-2.89469E-05 2.10986E-06-8.29722E-20-2.38440E-18
 -1      1112 9.50865E-05-2.82254E-05-2.86546E-05-2.73745E-08 7.70775E-19-2.44539E-18
 -1      1113 8.70529E-05-1.94488E-05-2.89728E-05-3.01916E-07-8.92214E-20-1.95620E-18
 -1      1114 9.50813E-05-2.82150E-05-2.86569E-05 4.70292E-08-1.74915E-20-1.99708E-19
 -1      1115 9.50801E-05-2.82159E-05-2.86560E-05 9.08925E-09 8.18460E-19-2.58756E-18
 -1      1116 7.68779E-05-1.78266E-05-2.53076E-05-2.83313E-06-6.23475E-20-2.74552E-18
 -1      1117 8.87512E-05-2.26156E-05-2.83435E-05 1.32786E-06 8.60773E-19-1.20317E-18
 -1      1118 8.33175E-05-1.92080E-05-2.74796E-05-2.37695E-06 2.66716E-20-2.30529E-18
 -1      1119 8.69841E-05-2.15774E-05-2.80310E-05 1.55632E-06 1.16113E-19-7.83544E-19
 -1      1120 8.09876E-05-1.88855E-05-2.66226E-05 2.33004E-06 2.67854E-19-2.03027E-18
 -1      1121 9.49952E-05-2.80902E-05-2.86738E-05 3.47228E-08 9.71749E-19-1.62775E-18
 -1      1122 8.42773E-05-1.94378E-05-2.77819E-05 1.55615E-06 1.24013E-19-2.02805E-18
 -1      1123 8.05497E-05-1.86645E-05-2.65043E-05-2.58086E-06-9.35942E-20-2.24207E-18
 -1      1124 1.16357E-04 2.57186E-10-4.17871E-05-4.05727E-05-2.68933E-19 1.60695E-17
 -1      1125 8.92155E-05 7.44422E-11-3.74337E-05-2.29673E-05-2.08582E-19 4.80437E-18
 -1      1126 8.47761E-05 4.31215E-11-3.60208E-05-1.63696E-05-1.66230E-19-5.66056E-19
 -1      1127 8.28688E-05 3.22824E-11-3.52831E-05-1.21776E-05-1.24276E-19-3.45094E-18
 -1      1128 8.17615E-05 2.61164E-11-3.48421E-05-8.91109E-06-9.13207E-20-5.03841E-18
 -1      1129 8.10206E-05 2.20406E-11-3.45512E-05-6.22952E-06-7.00126E-20-5.90396E-18
 -1      1130 8.05121E-05 1.92664E-11-3.43547E-05-3.93219E-06-5.22646E-20-6.36820E-18
 -1      1131 8.02031E-05 1.76202E-11-3.42367E-05-1.86573E-06-2.63705E-20-6.60226E-18
 -1      1132 8.00991E-05 1.70542E-11-3.41974E-05 7.35950E-08-1.46047E-20-6.75824E-18
 -1      1133 8.02031E-05 1.75688E-11-3.42373E-05 2.00981E-06 4.19546E-21-6.87354E-18
 -1      1134 8.05156E-05 1.92039E-11-3.43570E-05 4.06941E-06 2.26184E-20-6.82442E-18
 -1      1135 8.10358E-05 2.20070E-11-3.45568E-05 6.36295E-06 4.48398E-20-6.66817E-18
 -1      1136 8.17915E-05 2.62785E-11-3.48526E-05 9.05370E-06 7.20507E-20-6.18650E-18
 -1      1137 8.29093E-05 3.26885E-11-3.52998E-05 1.23556E-05 1.08314E-19-5.12252E-18
 -1      1138 8.47926E-05 4.36002E-11-3.60473E-05 1.65909E-05 1.54795E-19-2.80536E-18
 -1      1139 8.89225E-05 6.94950E-11-3.75011E-05 2.28025E-05 2.03076E-19 1.97086E-18
 -1      1140 1.06312E-04 1.65735E-10-4.05837E-05 3.53199E-05 4.94244E-19 1.26142E-17
 -1      1141 1.29337E-04-2.57185E-05-4.01595E-05-2.55141E-05-1.31544E-18 2.34065E-17
 -1      1142 9.80526E-05-2.90513E-05-3.17582E-05-5.69367E-07-4.33178E-19 2.02986E-17
 -1      1143 9.18830E-05-2.75553E-05-2.83990E-05 4.09226E-07-1.87062E-19 1.54123E-17
 -1      1144 9.10071E-05-2.74106E-05-2.74793E-05 2.66724E-07-7.67888E-20 1.22316E-17
 -1      1145 9.18265E-05-2.76383E-05-2.75891E-05 1.88308E-07-7.31029E-20 1.01470E-17
 -1      1146 9.36145E-05-2.81448E-05-2.81102E-05 1.52196E-07-8.00479E-20 8.61644E-18
 -1      1147 9.60475E-05-2.88531E-05-2.88402E-05 1.37376E-07-7.35239E-20 7.60228E-18
 -1      1148 9.89513E-05-2.97090E-05-2.97072E-05 1.34671E-07-6.99729E-20 6.80625E-18
 -1      1149 1.02177E-04-3.06634E-05-3.06619E-05 1.37518E-07-1.07305E-19 5.48703E-18
 -1      1150 1.05526E-04-3.16533E-05-3.16405E-05 1.38483E-07-8.44601E-20 3.95268E-18
 -1      1151 1.08684E-04-3.25830E-05-3.25440E-05 1.26631E-07 1.60051E-20 2.80589E-18
 -1      1152 1.11170E-04-3.33083E-05-3.32267E-05 8.63773E-08 5.10056E-20 3.12187E-18
 -1      1153 1.12327E-04-3.36352E-05-3.35009E-05-6.73188E-11-2.95171E-20 2.53380E-18
 -1      1154 1.11422E-04-3.33498E-05-3.31739E-05-1.42899E-07 3.80040E-20 3.30520E-18
 -1      1155 1.07916E-04-3.23010E-05-3.21293E-05-3.26278E-07-1.21675E-19 3.45473E-18
 -1      1156 1.01911E-04-3.05305E-05-3.04401E-05-4.90531E-07-2.03635E-20 2.49499E-18
 -1      1157 9.45674E-05-2.83875E-05-2.84521E-05-5.39923E-07 2.26305E-19 2.37677E-18
 -1      1158 8.80717E-05-2.65085E-05-2.67423E-05-3.97426E-07-1.44234E-19 1.41920E-18
 -1      1159 8.48409E-05-2.55799E-05-2.59078E-05-8.20118E-08-2.08708E-19-2.94662E-19
 -1      1160 8.62364E-05-2.59826E-05-2.62739E-05 2.72525E-07-3.47681E-20-1.29760E-18
 -1      1161 9.17287E-05-2.75696E-05-2.77156E-05 5.04296E-07 1.95314E-20-1.10331E-18
 -1      1162 9.92365E-05-2.97538E-05-2.97286E-05 5.37782E-07 2.89319E-20-9.06537E-19
 -1      1163 1.06337E-04-3.18394E-05-3.16963E-05 4.14644E-07 1.37216E-19-5.17167E-19
 -1      1164 1.11374E-04-3.33364E-05-3.31580E-05 2.32684E-07-3.41100E-19-1.08997E-18
 -1      1165 1.13817E-04-3.40769E-05-3.39259E-05 7.13411E-08 4.70831E-20-1.16435E-18
 -1      1166 1.13988E-04-3.41463E-05-3.40478E-05-3.52836E-08 4.65107E-20 8.31601E-19
 -1      1167 1.12583E-04-3.37448E-05-3.36965E-05-8.80520E-08 2.92235E-19 2.24975E-18
 -1      1168 1.10314E-04-3.30814E-05-3.30690E-05-1.02590E-07-1.20366E-19 1.34840E-18
 -1      1169 1.07738E-04-3.23213E-05-3.23293E-05-9.55774E-08-1.19250E-19-3.90429E-21
 -1      1170 1.05216E-04-3.15731E-05-3.15902E-05-7.92370E-08-7.02082E-20-1.08394E-18
 -1      1171 1.02950E-04-3.08978E-05-3.09169E-05-6.08492E-08-8.02613E-20-1.09472E-18
 -1      1172 1.01025E-04-3.03221E-05-3.03396E-05-4.40305E-08 2.10001E-19-1.49865E-19
 -1      1173 9.94563E-05-2.98513E-05-2.98659E-05-3.01635E-08 1.51614E-20-1.75076E-18
 -1      1174 9.82188E-05-2.94790E-05-2.94904E-05-1.94524E-08 2.10472E-20-1.38838E-18
 -1      1175 9.72702E-05-2.91927E-05-2.92012E-05-1.15695E-08 2.08895E-19-2.60982E-18
 -1      1176 9.65621E-05-2.89784E-05-2.89845E-05-6.00606E-09 1.87622E-19-3.47002E-18
 -1      1177 9.60477E-05-2.88223E-05-2.88265E-05-2.24265E-09 6.46944E-20-3.94096E-18
 -1      1178 9.56851E-05-2.87119E-05-2.87147E-05 1.79436E-10-2.15605E-21-2.61400E-18
 -1      1179 9.54387E-05-2.86366E-05-2.86383E-05 1.63656E-09 3.07320E-20-1.99538E-18
 -1      1180 9.52791E-05-2.85876E-05-2.85886E-05 2.42386E-09 1.28431E-19-2.30879E-18
 -1      1181 9.51832E-05-2.85578E-05-2.85583E-05 2.76544E-09-6.30436E-20-1.16260E-18
 -1      1182 9.51326E-05-2.85419E-05-2.85421E-05 2.82701E-09-2.86494E-19-4.23918E-18
 -1      1183 9.51137E-05-2.85356E-05-2.85356E-05 2.72788E-09 3.12883E-19-6.19813E-18
 -1      1184 9.51160E-05-2.85358E-05-2.85357E-05 2.55094E-09-5.60838E-20-4.76826E-18
 -1      1185 9.51319E-05-2.85402E-05-2.85401E-05 2.34949E-09 2.03043E-19-4.42641E-18
 -1      1186 9.51557E-05-2.85471E-05-2.85469E-05 2.14887E-09 1.79615E-19-3.03736E-18
 -1      1187 9.51828E-05-2.85550E-05-2.85546E-05 1.93598E-09-1.28246E-20-1.81600E-18
 -1      1188 9.52090E-05-2.85627E-05-2.85621E-05 1.59484E-09 6.41979E-19 2.33231E-19
 -1      1189 9.52292E-05-2.85685E-05-2.85678E-05 8.70072E-10-4.40594E-19-1.63715E-18
 -1      1190 9.52375E-05-2.85714E-05-2.85711E-05-2.30804E-10 8.98341E-19 6.98438E-19
 -1      1191 1.30072E-04-3.73848E-05-3.85751E-05 1.19768E-05-2.12235E-19 2.15269E-17
 -1      1192 9.72093E-05-2.83974E-05-3.15194E-05 7.61488E-07 1.99767E-19 1.59678E-17
 -1      1193 9.21165E-05-2.74690E-05-2.83903E-05 1.15356E-07 1.63815E-19 1.10391E-17
 -1      1194 9.11600E-05-2.73624E-05-2.75396E-05 1.83016E-08 1.05998E-19 7.73349E-18
 -1      1195 9.20166E-05-2.76494E-05-2.76678E-05-1.02486E-08 6.34878E-20 5.47718E-18
 -1      1196 9.39320E-05-2.82194E-05-2.82261E-05-1.95711E-08 9.14299E-20 3.85485E-18
 -1      1197 9.66050E-05-2.90130E-05-2.90319E-05-2.74043E-08 2.15629E-20 2.93746E-18
 -1      1198 9.99097E-05-2.99962E-05-3.00268E-05-4.07533E-08 1.59150E-21 2.47432E-18
 -1      1199 1.03764E-04-3.11418E-05-3.11795E-05-6.43931E-08 8.40887E-20 8.09711E-19
 -1      1200 1.08042E-04-3.24091E-05-3.24449E-05-1.02176E-07 9.83104E-20-3.56389E-19
 -1      1201 1.12484E-04-3.37181E-05-3.37327E-05-1.54591E-07 1.57070E-19-1.52974E-18
 -1      1202 1.16584E-04-3.49198E-05-3.48790E-05-2.12771E-07-1.02028E-19-1.68271E-18
 -1      1203 1.19500E-04-3.57706E-05-3.56281E-05-2.49612E-07 5.13183E-20-1.36149E-18
 -1      1204 1.20064E-04-3.59382E-05-3.56569E-05-2.14509E-07 1.31290E-19-2.43333E-18
 -1      1205 1.17076E-04-3.50821E-05-3.46809E-05-4.93341E-08 3.54827E-20-3.56924E-18
 -1      1206 1.10021E-04-3.30472E-05-3.26564E-05 2.56901E-07 1.84213E-19-4.98013E-18
 -1      1207 1.00059E-04-3.01350E-05-2.99895E-05 5.97308E-07-1.64509E-19-4.46916E-18
 -1      1208 9.04552E-05-2.72549E-05-2.75520E-05 7.55092E-07-1.01214E-19-4.82915E-18
 -1      1209 8.54264E-05-2.56565E-05-2.63427E-05 5.63910E-07-3.73886E-21-6.10470E-18
 -1      1210 8.75359E-05-2.61866E-05-2.69182E-05 9.47271E-08 2.59662E-19-8.06894E-18
 -1      1211 9.57900E-05-2.86344E-05-2.90356E-05-3.78767E-07 5.38859E-20-9.66274E-18
 -1      1212 1.06380E-04-3.18565E-05-3.18108E-05-6.14203E-07-3.03140E-19-6.99046E-18
 -1      1213 1.15330E-04-3.45998E-05-3.42637E-05-5.79843E-07 2.12847E-19-7.96931E-18
 -1      1214 1.20509E-04-3.61827E-05-3.57887E-05-3.93638E-07 8.02762E-20-8.16534E-18
 -1      1215 1.21810E-04-3.65741E-05-3.62686E-05-1.87595E-07-1.10812E-19-7.16874E-18
 -1      1216 1.20259E-04-3.60979E-05-3.59208E-05-3.27957E-08 2.33273E-19-6.43683E-18
 -1      1217 1.17116E-04-3.51438E-05-3.50730E-05 5.71547E-08-3.77459E-20-5.13450E-18
 -1      1218 1.13387E-04-3.40184E-05-3.40143E-05 9.62402E-08-5.35457E-20-4.86668E-18
 -1      1219 1.09712E-04-3.29134E-05-3.29426E-05 1.03855E-07 7.45029E-20-6.54351E-18
 -1      1220 1.06426E-04-3.19272E-05-3.19683E-05 9.53560E-08-7.96319E-20-7.83640E-18
 -1      1221 1.03657E-04-3.10973E-05-3.11386E-05 8.04543E-08-1.30863E-19-6.48539E-18
 -1      1222 1.01417E-04-3.04261E-05-3.04628E-05 6.44321E-08 2.49922E-19-7.69735E-18
 -1      1223 9.96599E-05-2.98995E-05-2.99298E-05 4.97678E-08-2.36582E-19-7.50940E-18
 -1      1224 9.83146E-05-2.94962E-05-2.95203E-05 3.73774E-08-5.15291E-19-3.90788E-18
 -1      1225 9.73075E-05-2.91942E-05-2.92127E-05 2.73928E-08-2.09475E-20-4.19463E-18
 -1      1226 9.65700E-05-2.89729E-05-2.89868E-05 1.95992E-08 1.98577E-20-6.04154E-18
 -1      1227 9.60424E-05-2.88145E-05-2.88248E-05 1.36607E-08 3.70515E-19-1.04420E-17
 -1      1228 9.56753E-05-2.87041E-05-2.87116E-05 9.22744E-09 1.66077E-19-1.03140E-17
 -1      1229 9.54284E-05-2.86298E-05-2.86351E-05 5.98111E-09 1.74784E-19-8.87811E-18
 -1      1230 9.52702E-05-2.85822E-05-2.85858E-05 3.65006E-09-5.94480E-20-6.57023E-18
 -1      1231 9.51762E-05-2.85537E-05-2.85562E-05 2.01037E-09 1.14670E-19-6.14201E-18
 -1      1232 9.51274E-05-2.85389E-05-2.85406E-05 8.81108E-10-4.18957E-19-1.27369E-18
 -1      1233 9.51100E-05-2.85336E-05-2.85346E-05 1.17864E-10 1.99624E-19-3.46973E-18
 -1      1234 9.51135E-05-2.85345E-05-2.85351E-05-3.94373E-10-2.87687E-19-4.28980E-18
 -1      1235 9.51303E-05-2.85394E-05-2.85397E-05-7.48127E-10 6.76459E-20-1.54354E-18
 -1      1236 9.51547E-05-2.85466E-05-2.85467E-05-1.01749E-09 7.02521E-19-4.29077E-18
 -1      1237 9.51822E-05-2.85547E-05-2.85546E-05-1.25534E-09 2.24041E-19-3.79308E-18
 -1      1238 9.52087E-05-2.85625E-05-2.85621E-05-1.45469E-09 2.80306E-19-4.17715E-18
 -1      1239 9.52292E-05-2.85685E-05-2.85678E-05-1.34863E-09 3.32380E-19-2.35382E-18
 -1      1240 9.52375E-05-2.85714E-05-2.85711E-05 1.67884E-10 9.90392E-20-1.75315E-18
 -1      1241 9.52369E-05-2.85708E-05-2.85711E-05 5.19037E-11-1.70043E-18-1.25697E-18
 -1      1242 9.52398E-05-2.85793E-05-2.85679E-05-7.36328E-10-2.93580E-18 3.02154E-19
 -1      1243 9.52453E-05-2.85981E-05-2.85627E-05-1.37445E-09-1.99144E-18-8.71143E-19
 -1      1244 9.52518E-05-2.86201E-05-2.85566E-05-1.31387E-09 3.31937E-19 1.71005E-19
 -1      1245 9.52579E-05-2.86406E-05-2.85507E-05-1.03805E-09 1.10445E-18-8.40827E-19
 -1      1246 9.52627E-05-2.86569E-05-2.85459E-05-7.18880E-10-4.99594E-18-9.57956E-19
 -1      1247 9.52662E-05-2.86685E-05-2.85424E-05-4.49608E-10-7.17289E-18 2.41353E-19
 -1      1248 9.52682E-05-2.86754E-05-2.85403E-05-2.06285E-10-2.20274E-18-3.33507E-19
 -1      1249 9.52689E-05-2.86775E-05-2.85397E-05 8.52596E-12 3.82553E-19 4.34531E-20
 -1      1250 9.52682E-05-2.86750E-05-2.85404E-05 2.21883E-10 9.42086E-19-8.14496E-19
 -1      1251 9.52660E-05-2.86679E-05-2.85426E-05 4.61128E-10 1.40064E-18-1.18480E-19
 -1      1252 9.52625E-05-2.86562E-05-2.85461E-05 7.38938E-10-2.40973E-18 8.49976E-20
 -1      1253 9.52576E-05-2.86398E-05-2.85510E-05 1.03748E-09-6.47600E-18 1.01481E-19
 -1      1254 9.52516E-05-2.86193E-05-2.85568E-05 1.32400E-09-8.09853E-18 8.10688E-20
 -1      1255 9.52451E-05-2.85973E-05-2.85629E-05 1.61309E-09-5.42930E-18 4.37662E-19
 -1      1256 9.52400E-05-2.85794E-05-2.85679E-05 8.28968E-10-1.38108E-18-7.76474E-19
 -1      1257 9.52368E-05-2.85708E-05-2.85712E-05 3.72850E-11-9.46251E-19 9.90226E-19
 -1      1258 3.25836E-05-1.04575E-04 1.79658E-05-1.45263E-05 1.75717E-18 2.32338E-18
 -1      1259 1.65953E-05-6.28955E-05 8.96340E-06-2.53895E-05 1.36169E-17 5.87163E-18
 -1      1260 7.55780E-06-7.97740E-06-6.31901E-06-1.24099E-08 2.25446E-17 1.51924E-17
 -1      1261 3.51959E-05 2.35322E-05-2.62188E-05 5.28886E-05 2.34459E-17 2.27106E-17
 -1      1262 1.12039E-04 1.05533E-05-4.73010E-05 1.01725E-04 1.68720E-17 2.50518E-17
 -1      1263 2.12911E-04-3.61008E-05-6.47746E-05 1.06928E-04 9.18395E-18 2.21025E-17
 -1      1264 2.93496E-04-8.26735E-05-7.58897E-05 5.59177E-05 2.76884E-18 1.39900E-17
 -1      1265 3.09778E-04-9.28963E-05-7.78272E-05-2.86854E-05 1.01273E-18-2.45195E-18
 -1      1266 2.49175E-04-5.62418E-05-7.00680E-05-9.54686E-05 6.04993E-18-1.71660E-17
 -1      1267 1.44359E-04-2.35931E-06-5.34415E-05-1.08133E-04 1.46613E-17-2.40168E-17
 -1      1268 5.32429E-05 2.39691E-05-3.20081E-05-6.83191E-05 2.19026E-17-2.40456E-17
 -1      1269 1.09670E-05 2.19437E-06-1.08001E-05-1.14144E-05 2.47893E-17-1.74192E-17
 -1      1270 1.31912E-05-5.16316E-05 6.25368E-06 2.33785E-05 2.24921E-17-9.69006E-18
 -1      1271 3.04706E-05-9.96510E-05 1.68372E-05 1.92847E-05 1.28131E-17-3.53329E-18
 -1      1272 3.69460E-05-1.12904E-04 1.90453E-05-7.29247E-06-1.83849E-18-1.34527E-18
 -1      1273 2.20857E-05-7.79438E-05 1.24580E-05-2.51250E-05-1.69322E-17-5.76173E-18
 -1      1274 8.04388E-06-2.15777E-05-1.69200E-06-9.71567E-06-2.66578E-17-1.50416E-17
 -1      1275 2.54167E-05 2.02181E-05-2.14748E-05 4.07737E-05-2.74066E-17-2.39812E-17
 -1      1276 9.09922E-05 1.83226E-05-4.28179E-05 9.44111E-05-2.16756E-17-2.83485E-17
 -1      1277 1.93670E-04-2.66613E-05-6.18523E-05 1.10520E-04-1.16285E-17-2.57329E-17
 -1      1278 2.82253E-04-7.70544E-05-7.42764E-05 6.75576E-05-3.87719E-18-1.74684E-17
 -1      1279 3.08333E-04-9.29593E-05-7.75812E-05-1.00794E-05-4.18646E-19-4.86610E-18
 -1      1280 2.66747E-04-6.78036E-05-7.22520E-05-8.14469E-05-2.69272E-18 7.55130E-18
 -1      1281 1.79599E-04-1.91205E-05-5.96962E-05-1.11722E-04-8.55673E-18 1.72490E-17
 -1      1282 8.76523E-05 1.96523E-05-4.21135E-05-9.30579E-05-1.71236E-17 2.14977E-17
 -1      1283 2.57715E-05 2.23038E-05-2.24730E-05-4.33316E-05-2.50112E-17 2.17366E-17
 -1      1284 7.04923E-06-1.41538E-05-3.91609E-06 4.89072E-06-2.69424E-17 1.53753E-17
 -1      1285 1.86242E-05-6.80121E-05 1.03592E-05 2.53959E-05-2.49926E-17 8.15714E-18
 -1      1286 3.47682E-05-1.07856E-04 1.81958E-05 1.25706E-05-1.26111E-17 2.82369E-18
 -1      1287 1.04634E-04-2.20717E-05-3.79142E-05-1.66313E-05-4.51151E-19 1.40059E-17
 -1      1288 9.11700E-05-6.93959E-06-3.62518E-05-1.91226E-05-1.72599E-18 2.30922E-18
 -1      1289 9.34168E-05-7.04471E-06-3.73806E-05-2.45134E-05-2.08243E-18 5.13598E-18
 -1      1290 8.67022E-05-4.26125E-06-3.53941E-05-1.48277E-05-1.89643E-18-1.82162E-18
 -1      1291 8.80137E-05-4.26943E-06-3.58625E-05-1.73445E-05-2.10752E-18 1.20173E-20
 -1      1292 9.31028E-05-1.07971E-05-3.53526E-05-1.75321E-05-3.08961E-18 2.02748E-18
 -1      1293 8.45731E-05-3.21298E-06-3.48846E-05-1.11307E-05-1.64602E-18-4.11189E-18
 -1      1294 8.53437E-05-3.19519E-06-3.51520E-05-1.29612E-05-1.83425E-18-3.03090E-18
 -1      1295 8.86281E-05-7.52928E-06-3.48334E-05-1.37358E-05-3.00208E-18-1.41785E-18
 -1      1296 8.32321E-05-2.60204E-06-3.45540E-05-8.09550E-06-1.37341E-18-5.43822E-18
 -1      1297 8.37440E-05-2.59319E-06-3.47256E-05-9.57406E-06-1.50266E-18-4.82586E-18
 -1      1298 8.61846E-05-5.85892E-06-3.44890E-05-1.02691E-05-2.54798E-18-3.42257E-18
 -1      1299 8.23111E-05-2.19604E-06-3.43258E-05-5.57901E-06-1.08285E-18-6.14332E-18
 -1      1300 8.26696E-05-2.19438E-06-3.44424E-05-6.80601E-06-1.19721E-18-5.78870E-18
 -1      1301 8.46191E-05-4.83323E-06-3.42460E-05-7.40670E-06-2.10410E-18-4.51466E-18
 -1      1302 8.16734E-05-1.91813E-06-3.41683E-05-3.35813E-06-7.89481E-19-6.50095E-18
 -1      1303 8.19152E-05-1.91914E-06-3.42458E-05-4.44859E-06-8.84011E-19-6.32217E-18
 -1      1304 8.35384E-05-4.14659E-06-3.40697E-05-4.97872E-06-1.60439E-18-5.16826E-18
 -1      1305 8.13138E-05-1.75381E-06-3.40809E-05-1.35319E-06-4.76803E-19-6.70805E-18
 -1      1306 8.14361E-05-1.75488E-06-3.41198E-05-2.35033E-06-5.77908E-19-6.58258E-18
 -1      1307 8.28277E-05-3.70626E-06-3.39501E-05-2.83450E-06-1.12881E-18-5.43120E-18
 -1      1308 8.12320E-05-1.69758E-06-3.40646E-05 5.57382E-07-1.48806E-19-6.83642E-18
 -1      1309 8.12330E-05-1.69783E-06-3.40646E-05-4.07639E-07-2.78386E-19-6.75329E-18
 -1      1310 8.24708E-05-3.48742E-06-3.38892E-05-8.73121E-07-6.21560E-19-5.64215E-18
 -1      1311 8.14316E-05-1.74932E-06-3.41207E-05 2.49500E-06 1.13416E-19-6.93948E-18
 -1      1312 8.13097E-05-1.74862E-06-3.40814E-05 1.50070E-06 4.27487E-20-6.91314E-18
 -1      1313 8.24665E-05-3.48205E-06-3.38897E-05 1.02442E-06-7.75217E-20-5.78800E-18
 -1      1314 8.19150E-05-1.91310E-06-3.42490E-05 4.58449E-06 4.33668E-19-6.88865E-18
 -1      1315 8.16699E-05-1.91140E-06-3.41702E-05 3.49722E-06 3.11225E-19-6.93220E-18
 -1      1316 8.28192E-05-3.69375E-06-3.39518E-05 2.97787E-06 3.82240E-19-5.82060E-18
 -1      1317 8.26759E-05-2.18956E-06-3.44472E-05 6.91420E-06 7.87608E-19-6.62910E-18
 -1      1318 8.23106E-05-2.19140E-06-3.43288E-05 5.68927E-06 6.61394E-19-6.78812E-18
 -1      1319 8.35315E-05-4.13274E-06-3.40724E-05 5.09098E-06 9.07047E-19-5.70976E-18
 -1      1320 8.37896E-05-2.61013E-06-3.47367E-05 9.71285E-06 1.21167E-18-6.07403E-18
 -1      1321 8.32633E-05-2.61762E-06-3.45619E-05 8.22489E-06 1.03977E-18-6.41781E-18
 -1      1322 8.46361E-05-4.83771E-06-3.42511E-05 7.51022E-06 1.53004E-18-5.37649E-18
 -1      1323 8.54167E-05-3.23162E-06-3.51683E-05 1.31408E-05 1.60672E-18-4.83817E-18
 -1      1324 8.46394E-05-3.25556E-06-3.48976E-05 1.12881E-05 1.40253E-18-5.61222E-18
 -1      1325 8.62619E-05-5.91547E-06-3.44985E-05 1.04080E-05 2.14102E-18-4.68531E-18
 -1      1326 8.81330E-05-4.27403E-06-3.58908E-05 1.75493E-05 1.98777E-18-2.27688E-18
 -1      1327 8.67905E-05-4.31938E-06-3.54100E-05 1.50533E-05 1.73467E-18-3.82991E-18
 -1      1328 8.87658E-05-7.64214E-06-3.48451E-05 1.39372E-05 2.72749E-18-3.17087E-18
 -1      1329 9.41863E-05-7.08603E-06-3.72749E-05 2.38717E-05 1.88317E-18 2.94026E-18
 -1      1330 9.10122E-05-6.71102E-06-3.62785E-05 1.97611E-05 1.80969E-18-2.82168E-19
 -1      1331 9.33486E-05-1.10294E-05-3.53445E-05 1.81302E-05 3.11216E-18-1.58183E-19
 -1      1332 1.23283E-04-2.49340E-05-3.89819E-05 2.75524E-05 1.09754E-18 1.34585E-17
 -1      1333 1.00568E-04-1.46430E-05-3.74460E-05 2.30517E-05 1.09278E-18 6.04443E-18
 -1      1334 1.02483E-04-1.96880E-05-3.55832E-05 2.01278E-05 3.17839E-18 4.59791E-18
 -1      1335 1.03003E-04-2.79783E-05-3.48307E-05 6.75299E-06 1.87980E-18 1.25928E-17
 -1      1336 1.05736E-04-3.04405E-05-3.36756E-05-7.32196E-06-1.60650E-18 1.43835E-17
 -1      1337 9.93833E-05-2.82192E-05-3.10643E-05-4.44720E-06-1.56521E-18 1.25592E-17
 -1      1338 9.69633E-05-2.82915E-05-2.96833E-05-1.95265E-06-1.30480E-18 1.16107E-17
 -1      1339 9.52403E-05-2.81462E-05-2.88003E-05-1.51175E-06-1.26380E-18 9.80975E-18
 -1      1340 1.00822E-04-2.84860E-05-3.13671E-05-6.83332E-06-2.80691E-18 7.36463E-18
 -1      1341 9.39736E-05-2.79016E-05-2.83033E-05-2.66025E-07-8.61155E-19 9.09192E-18
 -1      1342 9.38030E-05-2.79647E-05-2.81668E-05-1.39688E-07-7.99831E-19 7.90165E-18
 -1      1343 9.68097E-05-2.83836E-05-2.94542E-05-2.03041E-06-2.07301E-18 5.90477E-18
 -1      1344 9.35478E-05-2.79203E-05-2.80796E-05 5.01847E-07-5.74249E-19 7.35929E-18
 -1      1345 9.41194E-05-2.81386E-05-2.82372E-05 5.85672E-07-6.34007E-19 6.52688E-18
 -1      1346 9.55001E-05-2.83474E-05-2.88168E-05 1.92985E-07-1.42489E-18 4.75047E-18
 -1      1347 9.44512E-05-2.82398E-05-2.83471E-05 9.75662E-07-4.64138E-19 6.14051E-18
 -1      1348 9.54486E-05-2.85665E-05-2.86408E-05 1.03666E-06-4.60809E-19 5.53970E-18
 -1      1349 9.56003E-05-2.85012E-05-2.87786E-05 1.42774E-06-1.03751E-18 3.83649E-18
 -1      1350 9.61576E-05-2.87738E-05-2.88653E-05 1.30486E-06-2.85897E-19 5.28212E-18
 -1      1351 9.74429E-05-2.91826E-05-2.92423E-05 1.35188E-06-2.50361E-19 4.89997E-18
 -1      1352 9.66159E-05-2.88588E-05-2.90575E-05 2.22571E-06-7.44737E-19 3.29683E-18
 -1      1353 9.84077E-05-2.94663E-05-2.95420E-05 1.53990E-06-2.83050E-19 4.66380E-18
 -1      1354 9.98945E-05-2.99369E-05-2.99761E-05 1.57417E-06-3.64629E-19 4.11298E-18
 -1      1355 9.82491E-05-2.93836E-05-2.95295E-05 2.78191E-06-5.29685E-19 2.58381E-18
 -1      1356 1.01025E-04-3.02739E-05-3.03226E-05 1.68236E-06-4.08651E-19 3.90585E-18
 -1      1357 1.02624E-04-3.07833E-05-3.07873E-05 1.69894E-06-5.06082E-19 3.27501E-18
 -1      1358 1.00303E-04-3.00385E-05-3.01244E-05 3.14689E-06-7.57089E-19 2.19264E-18
 -1      1359 1.03828E-04-3.11506E-05-3.11503E-05 1.69836E-06-4.32270E-19 3.26100E-18
 -1      1360 1.05414E-04-3.16636E-05-3.16075E-05 1.68609E-06-4.50880E-19 2.69879E-18
 -1      1361 1.02605E-04-3.07876E-05-3.07831E-05 3.28778E-06-8.31789E-19 1.92224E-18
 -1      1362 1.06573E-04-3.20309E-05-3.19480E-05 1.52374E-06-4.97829E-19 2.52219E-18
 -1      1363 1.07951E-04-3.24901E-05-3.23401E-05 1.46557E-06-1.67114E-19 2.07728E-18
 -1      1364 1.04957E-04-3.15852E-05-3.14384E-05 3.10766E-06-7.36194E-19 1.85753E-18
 -1      1365 1.08906E-04-3.28138E-05-3.26067E-05 1.07535E-06 1.40780E-19 1.73821E-18
 -1      1366 1.09803E-04-3.31319E-05-3.28543E-05 9.51587E-07-1.21983E-19 1.61941E-18
 -1      1367 1.07093E-04-3.23599E-05-3.20062E-05 2.46374E-06-3.04012E-19 1.31104E-18
 -1      1368 1.10354E-04-3.33504E-05-3.29861E-05 2.82220E-07-1.24057E-19 1.70512E-18
 -1      1369 1.10434E-04-3.34124E-05-3.29962E-05 7.99852E-08 8.30820E-20 1.77855E-18
 -1      1370 1.08663E-04-3.29977E-05-3.23848E-05 1.21155E-06-1.63722E-19 7.53442E-19
 -1      1371 1.10365E-04-3.34476E-05-3.29350E-05-8.51208E-07 3.75136E-19 2.07761E-18
 -1      1372 1.09321E-04-3.31341E-05-3.26288E-05-1.11932E-06 1.22932E-19 2.28208E-18
 -1      1373 1.09247E-04-3.33303E-05-3.24704E-05-6.99792E-07 3.82687E-19 8.30952E-19
 -1      1374 1.08470E-04-3.29085E-05-3.23443E-05-2.15524E-06-9.91955E-21 2.35682E-18
 -1      1375 1.06191E-04-3.21546E-05-3.17041E-05-2.42864E-06-9.84543E-20 2.35494E-18
 -1      1376 1.08445E-04-3.31508E-05-3.21899E-05-3.07673E-06 1.77043E-19 1.33981E-18
 -1      1377 1.04575E-04-3.16369E-05-3.12252E-05-3.23379E-06-4.59661E-19 2.29506E-18
 -1      1378 1.01357E-04-3.05177E-05-3.03459E-05-3.39836E-06-4.71506E-19 1.52334E-18
 -1      1379 1.06071E-04-3.22949E-05-3.15495E-05-5.33802E-06-4.32721E-19 1.65725E-18
 -1      1380 9.92949E-05-2.97903E-05-2.97801E-05-3.54024E-06-8.55305E-20 1.58718E-18
 -1      1381 9.59421E-05-2.85814E-05-2.88846E-05-3.47131E-06-4.66462E-19 1.36499E-18
 -1      1382 1.02418E-04-3.07956E-05-3.06726E-05-6.54590E-06-5.31336E-19 1.21516E-18
 -1      1383 9.40732E-05-2.78784E-05-2.84011E-05-2.66708E-06-5.75638E-19 1.15975E-18
 -1      1384 9.17082E-05-2.70039E-05-2.77803E-05-2.32297E-06-4.47061E-19 6.81782E-19
 -1      1385 9.84398E-05-2.90364E-05-2.97972E-05-5.79248E-06-6.61539E-19 7.26370E-19
 -1      1386 9.07721E-05-2.66369E-05-2.75480E-05-7.24064E-07-6.52057E-19 1.01392E-19
 -1      1387 9.03258E-05-2.64671E-05-2.74332E-05-2.19722E-07-6.70877E-19-6.88677E-19
 -1      1388 9.55676E-05-2.77060E-05-2.92046E-05-2.87371E-06-9.21770E-19-6.59759E-21
 -1      1389 9.07516E-05-2.66284E-05-2.75421E-05 1.55551E-06-4.19831E-19-1.27345E-18
 -1      1390 9.24296E-05-2.72464E-05-2.79838E-05 1.99680E-06-5.09133E-19-1.48056E-18
 -1      1391 9.50391E-05-2.74441E-05-2.91061E-05 1.26683E-06-9.89070E-19-6.01974E-19
 -1      1392 9.40488E-05-2.78591E-05-2.83995E-05 3.21956E-06-1.83373E-19-1.81985E-18
 -1      1393 9.72062E-05-2.90047E-05-2.92390E-05 3.41941E-06-1.37352E-19-1.56304E-18
 -1      1394 9.71317E-05-2.83964E-05-2.95464E-05 4.93203E-06-5.60729E-19-1.48028E-18
 -1      1395 9.93735E-05-2.97868E-05-2.98209E-05 3.70549E-06-6.82143E-20-1.52551E-18
 -1      1396 1.02906E-04-3.10306E-05-3.07788E-05 3.63732E-06 1.37375E-19-1.72678E-18
 -1      1397 1.00979E-04-3.01074E-05-3.03840E-05 6.73336E-06-1.97570E-19-2.30512E-18
 -1      1398 1.04897E-04-3.16944E-05-3.13501E-05 3.09936E-06 1.49925E-19-1.71548E-18
 -1      1399 1.07818E-04-3.26791E-05-3.21625E-05 2.86410E-06-1.05449E-20-1.43440E-18
 -1      1400 1.05142E-04-3.18533E-05-3.13577E-05 6.36529E-06 6.98471E-20-2.52741E-18
 -1      1401 1.09164E-04-3.30753E-05-3.25846E-05 1.90695E-06-5.16955E-20-1.17928E-18
 -1      1402 1.10953E-04-3.36406E-05-3.30988E-05 1.63248E-06-1.93693E-19-1.37315E-18
 -1      1403 1.08408E-04-3.30915E-05-3.22019E-05 4.50584E-06 5.35351E-21-2.25321E-18
 -1      1404 1.11518E-04-3.37594E-05-3.33083E-05 6.54260E-07 4.38194E-19-8.56681E-19
 -1      1405 1.12132E-04-3.39204E-05-3.34976E-05 4.26188E-07 9.19117E-19 8.86043E-20
 -1      1406 1.10198E-04-3.36436E-05-3.27377E-05 2.15124E-06 5.37495E-19-3.32735E-19
 -1      1407 1.12014E-04-3.38258E-05-3.35025E-05-3.38055E-07 4.61560E-19 1.80174E-19
 -1      1408 1.11701E-04-3.36874E-05-3.34261E-05-4.88416E-07 2.57783E-19 1.07301E-18
 -1      1409 1.10523E-04-3.36125E-05-3.29101E-05 5.93851E-08 6.81107E-19 3.96532E-19
 -1      1410 1.11103E-04-3.34602E-05-3.32755E-05-9.68945E-07-5.06069E-21 6.37856E-19
 -1      1411 1.10202E-04-3.31448E-05-3.30249E-05-1.04615E-06-1.71799E-19 5.76532E-19
 -1      1412 1.09713E-04-3.31986E-05-3.27627E-05-1.41881E-06 1.25966E-19 1.58405E-19
 -1      1413 1.09331E-04-3.28536E-05-3.27793E-05-1.27479E-06-3.43936E-19 3.18054E-19
 -1      1414 1.08147E-04-3.24618E-05-3.24410E-05-1.29795E-06-2.51578E-19-8.81444E-20
 -1      1415 1.08191E-04-3.25913E-05-3.23884E-05-2.25109E-06-4.00671E-19-1.28260E-18
 -1      1416 1.07173E-04-3.21552E-05-3.21539E-05-1.34451E-06 1.11873E-19-3.29152E-19
 -1      1417 1.05927E-04-3.17554E-05-3.17931E-05-1.33389E-06-4.56180E-19-8.37226E-19
 -1      1418 1.06329E-04-3.19252E-05-3.18878E-05-2.56596E-06-3.86953E-19-1.17699E-18
 -1      1419 1.04966E-04-3.14636E-05-3.15034E-05-1.26813E-06-6.65788E-19-1.54848E-19
 -1      1420 1.03794E-04-3.10953E-05-3.11611E-05-1.23971E-06-9.84097E-20-5.05890E-19
 -1      1421 1.04401E-04-3.12820E-05-3.13442E-05-2.53236E-06-6.72384E-19 3.91468E-19
 -1      1422 1.02916E-04-3.08347E-05-3.08929E-05-1.11612E-06-1.65942E-19-4.98459E-19
 -1      1423 1.01888E-04-3.05166E-05-3.05909E-05-1.08070E-06 5.54542E-21-3.42959E-19
 -1      1424 1.02584E-04-3.07041E-05-3.08160E-05-2.29863E-06 1.18580E-19 3.32166E-19
 -1      1425 1.01127E-04-3.02941E-05-3.03566E-05-9.36147E-07 1.18527E-19-1.01479E-19
 -1      1426 1.00268E-04-3.00315E-05-3.01032E-05-9.00216E-07 1.42442E-19 2.43757E-19
 -1      1427 1.00971E-04-3.02092E-05-3.03377E-05-1.97306E-06-1.47453E-19 1.58252E-19
 -1      1428 9.96331E-05-2.98479E-05-2.99069E-05-7.56964E-07-1.13685E-19-6.19340E-19
 -1      1429 9.89418E-05-2.96386E-05-2.97022E-05-7.23997E-07-1.97539E-19-8.29067E-19
 -1      1430 9.96008E-05-2.98000E-05-2.99256E-05-1.62550E-06-5.35963E-19 1.09806E-18
 -1      1431 9.84291E-05-2.94913E-05-2.95432E-05-5.93910E-07-3.95358E-19-1.08250E-18
 -1      1432 9.78892E-05-2.93293E-05-2.93829E-05-5.65438E-07-2.63029E-19-1.71209E-18
 -1      1433 9.84769E-05-2.94709E-05-2.95838E-05-1.29616E-06-3.15213E-19-3.67370E-19
 -1      1434 9.74861E-05-2.92142E-05-2.92577E-05-4.53656E-07 2.31296E-20-2.09304E-18
 -1      1435 9.70759E-05-2.90921E-05-2.91356E-05-4.30072E-07 2.87234E-19-2.20695E-18
 -1      1436 9.75807E-05-2.92129E-05-2.93089E-05-1.00502E-06-3.29954E-19-1.73636E-18
 -1      1437 9.67667E-05-2.90041E-05-2.90394E-05-3.37711E-07-1.82286E-19-2.25503E-18
 -1      1438 9.64632E-05-2.89146E-05-2.89488E-05-3.18784E-07-2.30894E-19-3.14858E-18
 -1      1439 9.68840E-05-2.90150E-05-2.90936E-05-7.59370E-07 8.36610E-21-1.81719E-18
 -1      1440 9.62317E-05-2.88490E-05-2.88768E-05-2.44758E-07 5.03933E-19-3.41121E-18
 -1      1441 9.60133E-05-2.87851E-05-2.88114E-05-2.29961E-07 2.99164E-19-2.53140E-18
 -1      1442 9.63551E-05-2.88667E-05-2.89292E-05-5.59140E-07 1.74509E-19-2.51906E-18
 -1      1443 9.58443E-05-2.87374E-05-2.87588E-05-1.72122E-07 2.68179E-19-3.22618E-18
 -1      1444 9.56920E-05-2.86934E-05-2.87130E-05-1.60819E-07 2.04626E-19-2.83642E-18
 -1      1445 9.59633E-05-2.87581E-05-2.88066E-05-4.00407E-07 4.63209E-20-2.52332E-18
 -1      1446 9.55722E-05-2.86596E-05-2.86757E-05-1.16648E-07-9.93932E-20-1.58109E-18
 -1      1447 9.54701E-05-2.86305E-05-2.86449E-05-1.08201E-07 3.13086E-20-1.65796E-18
 -1      1448 9.56805E-05-2.86808E-05-2.87175E-05-2.77556E-07 3.61868E-19-2.29402E-18
 -1      1449 9.53880E-05-2.86074E-05-2.86193E-05-7.51933E-08 6.48923E-21-1.98563E-18
 -1      1450 9.53233E-05-2.85894E-05-2.85997E-05-6.90185E-08-1.29258E-19-2.16509E-18
 -1      1451 9.54826E-05-2.86275E-05-2.86547E-05-1.84556E-07-9.95446E-20-1.40529E-18
 -1      1452 9.52696E-05-2.85744E-05-2.85829E-05-4.48876E-08-2.73297E-20-2.68652E-18
 -1      1453 9.52320E-05-2.85643E-05-2.85714E-05-4.04777E-08-1.00690E-18-3.54412E-18
 -1      1454 9.53493E-05-2.85923E-05-2.86120E-05-1.15657E-07-3.99118E-19-2.93968E-18
 -1      1455 9.51992E-05-2.85551E-05-2.85612E-05-2.32478E-08-1.30232E-18-3.43279E-18
 -1      1456 9.51809E-05-2.85506E-05-2.85554E-05-2.01805E-08-4.61593E-19-4.58407E-18
 -1      1457 9.52643E-05-2.85705E-05-2.85844E-05-6.57432E-08-1.42308E-18-4.09223E-18
 -1      1458 9.51631E-05-2.85458E-05-2.85499E-05-8.21400E-09 3.74934E-19-3.93942E-18
 -1      1459 9.51581E-05-2.85450E-05-2.85481E-05-6.14983E-09 6.52826E-19-3.78915E-18
 -1      1460 9.52144E-05-2.85583E-05-2.85679E-05-3.04761E-08 4.44137E-20-2.83813E-18
 -1      1461 9.51509E-05-2.85431E-05-2.85459E-05 1.85690E-09-1.59030E-19-2.69719E-18
 -1      1462 9.51546E-05-2.85449E-05-2.85467E-05 3.17967E-09 4.76370E-20-3.10433E-18
 -1      1463 9.51896E-05-2.85529E-05-2.85592E-05-6.32117E-09 8.62837E-19-9.92118E-19
 -1      1464 9.51544E-05-2.85450E-05-2.85467E-05 8.21336E-09 2.81544E-19-3.70380E-18
 -1      1465 9.51636E-05-2.85483E-05-2.85492E-05 8.98426E-09 9.44694E-19-3.26299E-18
 -1      1466 9.51821E-05-2.85522E-05-2.85561E-05 9.47734E-09-1.01364E-19-1.24301E-18
 -1      1467 9.51678E-05-2.85496E-05-2.85505E-05 1.17295E-08 1.24143E-18-2.91058E-18
 -1      1468 9.51798E-05-2.85537E-05-2.85539E-05 1.20679E-08 2.69740E-19-1.73547E-18
 -1      1469 9.51859E-05-2.85545E-05-2.85565E-05 1.89353E-08 1.01692E-18-1.28240E-18
 -1      1470 9.51864E-05-2.85558E-05-2.85559E-05 1.29090E-08 1.38331E-19-1.58689E-18
 -1      1471 9.51991E-05-2.85601E-05-2.85595E-05 1.28548E-08 9.06626E-19-8.60755E-19
 -1      1472 9.51963E-05-2.85586E-05-2.85591E-05 2.33553E-08 9.88776E-19-1.07244E-18
 -1      1473 9.52062E-05-2.85623E-05-2.85616E-05 1.18580E-08 6.93026E-19-1.09368E-18
 -1      1474 9.52175E-05-2.85662E-05-2.85647E-05 1.13406E-08-1.55240E-20-5.85357E-19
 -1      1475 9.52096E-05-2.85636E-05-2.85625E-05 2.32881E-08 4.38239E-19-4.22394E-19
 -1      1476 9.52237E-05-2.85684E-05-2.85664E-05 8.24695E-09 4.44009E-20 1.64702E-19
 -1      1477 9.52312E-05-2.85709E-05-2.85685E-05 7.28550E-09 3.50926E-19 5.38872E-19
 -1      1478 9.52228E-05-2.85690E-05-2.85658E-05 1.86426E-08 9.04202E-19-1.12438E-18
 -1      1479 9.52364E-05-2.85723E-05-2.85700E-05 9.95128E-10-9.91463E-19 7.88035E-19
 -1      1480 9.52347E-05-2.85742E-05-2.85686E-05 7.69974E-09-1.51806E-19 5.66095E-19
 -1      1481 9.78427E-05-2.87557E-05-3.01313E-05 2.51847E-06 1.47468E-18 9.24555E-18
 -1      1482 1.03234E-04-2.96097E-05-3.23585E-05 3.95472E-06 1.33529E-18 1.17154E-17
 -1      1483 1.03234E-04-2.70753E-05-3.29518E-05 1.18090E-05 2.69896E-18 7.14239E-18
 -1      1484 9.42410E-05-2.80859E-05-2.84225E-05 6.67292E-07 1.11226E-18 6.33062E-18
 -1      1485 9.56663E-05-2.80853E-05-2.91752E-05 9.96871E-07 1.09004E-18 8.14067E-18
 -1      1486 9.81631E-05-2.85455E-05-3.00345E-05 3.94656E-06 2.26467E-18 5.06623E-18
 -1      1487 9.34792E-05-2.79693E-05-2.80568E-05-2.33742E-07 6.28545E-19 4.31553E-18
 -1      1488 9.35159E-05-2.78085E-05-2.81516E-05-4.45598E-08 7.03931E-19 5.51101E-18
 -1      1489 9.56159E-05-2.83277E-05-2.88873E-05 8.43719E-07 1.63955E-18 3.29498E-18
 -1      1490 9.42649E-05-2.82323E-05-2.82796E-05-7.58713E-07 5.09659E-19 2.97045E-18
 -1      1491 9.35964E-05-2.79468E-05-2.80939E-05-6.27790E-07 4.41625E-19 3.82483E-18
 -1      1492 9.51318E-05-2.83525E-05-2.86387E-05-6.95607E-07 1.04173E-18 1.96369E-18
 -1      1493 9.60261E-05-2.87662E-05-2.88155E-05-1.13097E-06 3.41566E-19 2.13640E-18
 -1      1494 9.49079E-05-2.83738E-05-2.84830E-05-1.02464E-06 3.30326E-19 2.67624E-18
 -1      1495 9.59132E-05-2.86462E-05-2.88482E-05-1.64795E-06 8.13426E-19 1.43364E-18
 -1      1496 9.85091E-05-2.95131E-05-2.95664E-05-1.43426E-06 2.09447E-19 1.59728E-18
 -1      1497 9.70447E-05-2.90262E-05-2.91310E-05-1.33786E-06 2.47261E-19 1.83066E-18
 -1      1498 9.75538E-05-2.91615E-05-2.93339E-05-2.34657E-06 5.39444E-19 9.82836E-19
 -1      1499 1.01577E-04-3.04379E-05-3.04884E-05-1.69397E-06 3.78826E-19 6.30298E-19
 -1      1500 9.98196E-05-2.98656E-05-2.99680E-05-1.60304E-06 2.70333E-19 1.20136E-18
 -1      1501 9.98379E-05-2.98599E-05-3.00155E-05-2.91530E-06 5.70032E-19 1.91191E-19
 -1      1502 1.05111E-04-3.15105E-05-3.15435E-05-1.89700E-06 2.76256E-19-3.13137E-20
 -1      1503 1.03114E-04-3.08666E-05-3.09556E-05-1.81596E-06 3.41321E-19 5.52742E-19
 -1      1504 1.02627E-04-3.07141E-05-3.08443E-05-3.37840E-06 5.56832E-19-1.13959E-19
 -1      1505 1.08928E-04-3.26838E-05-3.26721E-05-1.99051E-06 3.44827E-19-5.39639E-19
 -1      1506 1.06790E-04-3.19989E-05-3.20488E-05-1.93515E-06 2.71248E-19-1.75283E-19
 -1      1507 1.05780E-04-3.16971E-05-3.17701E-05-3.68407E-06 5.86671E-19-1.29272E-19
 -1      1508 1.12702E-04-3.38691E-05-3.37688E-05-1.87537E-06 6.06059E-20-6.08540E-19
 -1      1509 1.10615E-04-3.32066E-05-3.31707E-05-1.87651E-06 1.51589E-19-5.23546E-19
 -1      1510 1.09092E-04-3.27658E-05-3.27201E-05-3.70058E-06 3.02813E-19-3.22323E-19
 -1      1511 1.15880E-04-3.49067E-05-3.46615E-05-1.40936E-06-6.35275E-20-7.82367E-19
 -1      1512 1.14178E-04-3.43802E-05-3.41903E-05-1.51382E-06 2.15861E-20-7.13241E-19
 -1      1513 1.12230E-04-3.38390E-05-3.35818E-05-3.21351E-06 9.89639E-20 3.15652E-20
 -1      1514 1.17649E-04-3.55439E-05-3.51111E-05-4.46231E-07 5.19496E-19-1.09052E-18
 -1      1515 1.16827E-04-3.53253E-05-3.49095E-05-7.06603E-07 2.51337E-19-8.63590E-19
 -1      1516 1.14684E-04-3.47697E-05-3.41977E-05-1.96033E-06 3.25823E-19-4.00613E-19
 -1      1517 1.17043E-04-3.54494E-05-3.48595E-05 1.05525E-06 3.46278E-19-1.73811E-18
 -1      1518 1.17685E-04-3.57449E-05-3.50807E-05 6.14292E-07 3.11582E-19-1.31240E-18
 -1      1519 1.15774E-04-3.53188E-05-3.43850E-05 2.44172E-07 5.87020E-19-4.92105E-19
 -1      1520 1.13327E-04-3.43199E-05-3.37527E-05 2.84583E-06 4.04147E-19-2.59420E-18
 -1      1521 1.15851E-04-3.52785E-05-3.44833E-05 2.28861E-06 3.74627E-19-2.11991E-18
 -1      1522 1.14793E-04-3.51622E-05-3.39995E-05 3.24996E-06 6.74212E-19-6.57271E-19
 -1      1523 1.06675E-04-3.21239E-05-3.19149E-05 4.24026E-06 7.74175E-20-3.11994E-18
 -1      1524 1.10908E-04-3.36730E-05-3.30675E-05 3.76958E-06 3.58725E-19-2.76154E-18
 -1      1525 1.11372E-04-3.40099E-05-3.30408E-05 6.25568E-06 5.42604E-19-1.45751E-18
 -1      1526 9.88147E-05-2.93995E-05-2.98545E-05 4.28524E-06-9.91856E-20-2.91787E-18
 -1      1527 1.03625E-04-3.10958E-05-3.11059E-05 4.19155E-06-7.37349E-20-3.13614E-18
 -1      1528 1.06028E-04-3.18836E-05-3.17405E-05 7.77838E-06 5.12356E-21-1.49782E-18
 -1      1529 9.28544E-05-2.72768E-05-2.83440E-05 2.44183E-06 4.26058E-19-3.98913E-18
 -1      1530 9.63312E-05-2.83880E-05-2.92187E-05 2.89241E-06 3.08280E-19-3.47591E-18
 -1      1531 1.00528E-04-2.94446E-05-3.05424E-05 6.36649E-06 4.82623E-19-2.55698E-18
 -1      1532 9.17122E-05-2.68815E-05-2.80463E-05-6.72417E-07 4.48213E-19-5.63556E-18
 -1      1533 9.21725E-05-2.68162E-05-2.81553E-05 1.53221E-07 5.03442E-19-4.77674E-18
 -1      1534 9.73688E-05-2.79055E-05-2.99256E-05 1.95237E-06 1.08717E-18-3.71078E-18
 -1      1535 9.60581E-05-2.84623E-05-2.91117E-05-3.47222E-06 5.11720E-19-7.10454E-18
 -1      1536 9.32289E-05-2.72350E-05-2.83969E-05-2.70175E-06 6.44685E-19-6.03924E-18
 -1      1537 9.82461E-05-2.82277E-05-3.01575E-05-3.50518E-06 1.15032E-18-4.87833E-18
 -1      1538 1.03777E-04-3.11721E-05-3.10866E-05-4.61184E-06-9.07128E-19-6.69034E-18
 -1      1539 9.90113E-05-2.94015E-05-2.98561E-05-4.25201E-06-3.24113E-19-7.16135E-18
 -1      1540 1.02748E-04-3.02567E-05-3.11500E-05-7.25792E-06-6.39179E-20-4.74799E-18
 -1      1541 1.11563E-04-3.37722E-05-3.31927E-05-3.95247E-06 2.03238E-19-6.01505E-18
 -1      1542 1.06842E-04-3.21992E-05-3.19283E-05-4.03839E-06-3.40765E-19-6.64789E-18
 -1      1543 1.08682E-04-3.28380E-05-3.25147E-05-7.84355E-06-5.46495E-19-5.15105E-18
 -1      1544 1.16974E-04-3.54554E-05-3.47711E-05-2.30861E-06 1.97412E-19-6.54251E-18
 -1      1545 1.13721E-04-3.45057E-05-3.38534E-05-2.64557E-06 2.70071E-19-6.03177E-18
 -1      1546 1.13689E-04-3.48111E-05-3.37738E-05-5.82389E-06 3.43154E-19-4.53905E-18
 -1      1547 1.19227E-04-3.60548E-05-3.55226E-05-5.93131E-07-2.50311E-19-6.40291E-18
 -1      1548 1.17869E-04-3.57710E-05-3.51033E-05-9.65561E-07-6.05099E-20-6.65776E-18
 -1      1549 1.16478E-04-3.57050E-05-3.45760E-05-2.76218E-06 1.69698E-19-5.18673E-18
 -1      1550 1.18774E-04-3.58015E-05-3.54948E-05 6.79694E-07-5.66586E-19-5.39054E-18
 -1      1551 1.19009E-04-3.60101E-05-3.55238E-05 3.92959E-07-5.86994E-19-6.29832E-18
 -1      1552 1.16933E-04-3.56535E-05-3.47997E-05 1.82034E-08-7.95668E-19-5.24260E-18
 -1      1553 1.16558E-04-3.50364E-05-3.49184E-05 1.40024E-06-5.37370E-19-4.22611E-18
 -1      1554 1.17806E-04-3.55196E-05-3.52504E-05 1.22777E-06-2.32901E-19-4.58187E-18
 -1      1555 1.15611E-04-3.50103E-05-3.45201E-05 1.91288E-06-7.72937E-19-3.68259E-18
 -1      1556 1.13481E-04-3.40480E-05-3.40503E-05 1.67460E-06-5.59331E-20-2.79796E-18
 -1      1557 1.15205E-04-3.46335E-05-3.45350E-05 1.59679E-06-3.75150E-19-3.27848E-18
 -1      1558 1.13239E-04-3.40973E-05-3.39049E-05 2.88954E-06-9.01346E-19-2.09213E-18
 -1      1559 1.10200E-04-3.30293E-05-3.30926E-05 1.66171E-06 3.57538E-19-3.12175E-18
 -1      1560 1.12019E-04-3.36092E-05-3.36170E-05 1.64657E-06 4.31103E-19-2.54034E-18
 -1      1561 1.10434E-04-3.31263E-05-3.31258E-05 3.17488E-06 2.90140E-19-1.24808E-18
 -1      1562 1.07109E-04-3.20883E-05-3.21738E-05 1.49609E-06 5.05006E-19-4.63946E-18
 -1      1563 1.08803E-04-3.26074E-05-3.26692E-05 1.51605E-06 2.73061E-19-3.71957E-18
 -1      1564 1.07619E-04-3.22137E-05-3.23146E-05 3.03449E-06 7.27060E-19-1.22985E-18
 -1      1565 1.04402E-04-3.12741E-05-3.13604E-05 1.26871E-06-3.34126E-19-4.61671E-18
 -1      1566 1.05868E-04-3.17113E-05-3.17932E-05 1.30480E-06-1.15673E-19-4.69242E-18
 -1      1567 1.05038E-04-3.14126E-05-3.15541E-05 2.67889E-06-2.77718E-20-1.82741E-18
 -1      1568 1.02141E-04-3.05999E-05-3.06770E-05 1.03281E-06-6.47550E-20-4.81240E-18
 -1      1569 1.03351E-04-3.09532E-05-3.10363E-05 1.07362E-06-1.43883E-19-5.00794E-18
 -1      1570 1.02804E-04-3.07396E-05-3.08867E-05 2.24634E-06-5.59869E-20-3.04613E-18
 -1      1571 1.00318E-04-3.00591E-05-3.01237E-05 8.15552E-07-1.41024E-19-4.54727E-18
 -1      1572 1.01282E-04-3.03363E-05-3.04114E-05 8.54939E-07-5.83526E-20-4.51674E-18
 -1      1573 1.00949E-04-3.01918E-05-3.03268E-05 1.81608E-06-2.56019E-19-2.57773E-18
 -1      1574 9.88868E-05-2.96365E-05-2.96884E-05 6.28238E-07-4.12139E-19-3.39716E-18
 -1      1575 9.96355E-05-2.98485E-05-2.99123E-05 6.63328E-07-3.20090E-19-3.96328E-18
 -1      1576 9.94540E-05-2.97567E-05-2.98727E-05 1.42747E-06-5.85339E-19-7.37193E-19
 -1      1577 9.77893E-05-2.93133E-05-2.93539E-05 4.73393E-07 3.08119E-19-2.52627E-18
 -1      1578 9.83571E-05-2.94720E-05-2.95242E-05 5.03183E-07-2.61102E-19-3.33533E-18
 -1      1579 9.82791E-05-2.94186E-05-2.95141E-05 1.09585E-06-3.70770E-19-1.30045E-18
 -1      1580 9.69653E-05-2.90714E-05-2.91024E-05 3.49146E-07-2.19976E-19-3.88479E-18
 -1      1581 9.73867E-05-2.91876E-05-2.92291E-05 3.73622E-07 5.75862E-19-3.33490E-18
 -1      1582 9.73758E-05-2.91609E-05-2.92372E-05 8.23333E-07 7.15526E-19-2.67967E-18
 -1      1583 9.63597E-05-2.88941E-05-2.89174E-05 2.51737E-07 9.97141E-19-4.73213E-18
 -1      1584 9.66655E-05-2.89772E-05-2.90095E-05 2.71360E-07 4.56657E-19-3.78999E-18
 -1      1585 9.66953E-05-2.89683E-05-2.90279E-05 6.05473E-07 1.06174E-18-2.77618E-18
 -1      1586 9.59248E-05-2.87671E-05-2.87842E-05 1.76858E-07 8.27462E-19-7.10726E-18
 -1      1587 9.61413E-05-2.88250E-05-2.88496E-05 1.92281E-07 8.01925E-19-5.95470E-18
 -1      1588 9.61934E-05-2.88273E-05-2.88729E-05 4.35111E-07 1.47771E-18-2.94407E-18
 -1      1589 9.56208E-05-2.86787E-05-2.86910E-05 1.20331E-07-9.90689E-19-6.24986E-18
 -1      1590 9.57695E-05-2.87176E-05-2.87361E-05 1.32244E-07-4.45272E-19-6.99063E-18
 -1      1591 9.58314E-05-2.87264E-05-2.87607E-05 3.04422E-07 1.21085E-19-2.78327E-18
 -1      1592 9.54154E-05-2.86192E-05-2.86279E-05 7.84125E-08-8.29681E-20-6.06508E-18
 -1      1593 9.55137E-05-2.86442E-05-2.86578E-05 8.74677E-08 3.47120E-19-6.04262E-18
 -1      1594 9.55772E-05-2.86563E-05-2.86816E-05 2.05946E-07 1.82495E-19-4.01848E-18
 -1      1595 9.52830E-05-2.85811E-05-2.85871E-05 4.78973E-08-3.78317E-19-4.13436E-18
 -1      1596 9.53443E-05-2.85960E-05-2.86059E-05 5.46749E-08-7.94152E-19-5.33006E-18
 -1      1597 9.54045E-05-2.86092E-05-2.86275E-05 1.33053E-07-9.45599E-19-3.10434E-18
 -1      1598 9.52036E-05-2.85585E-05-2.85625E-05 2.61291E-08-9.11351E-19-2.68216E-18
 -1      1599 9.52385E-05-2.85662E-05-2.85733E-05 3.11254E-08-3.70222E-20-3.12199E-18
 -1      1600 9.52924E-05-2.85791E-05-2.85922E-05 8.00972E-08-6.15696E-19-1.41147E-18
 -1      1601 9.51620E-05-2.85469E-05-2.85494E-05 1.09635E-08 3.56861E-19-1.90105E-18
 -1      1602 9.51782E-05-2.85497E-05-2.85546E-05 1.45901E-08-1.03161E-18-2.85523E-18
 -1      1603 9.52245E-05-2.85615E-05-2.85705E-05 4.24162E-08-9.29019E-19-2.24440E-18
 -1      1604 9.51464E-05-2.85428E-05-2.85444E-05 7.13592E-10-3.90194E-19-3.35247E-18
 -1      1605 9.51500E-05-2.85424E-05-2.85457E-05 3.30174E-09 6.71476E-19-2.23639E-18
 -1      1606 9.51882E-05-2.85526E-05-2.85586E-05 1.62641E-08 7.29857E-19-1.98329E-18
 -1      1607 9.51484E-05-2.85439E-05-2.85447E-05-5.90459E-09-2.18055E-19-1.50851E-18
 -1      1608 9.51436E-05-2.85413E-05-2.85435E-05-4.09825E-09-9.49928E-19-3.30988E-18
 -1      1609 9.51739E-05-2.85497E-05-2.85536E-05-1.28398E-09-2.09033E-19-1.26441E-18
 -1      1610 9.51614E-05-2.85481E-05-2.85484E-05-9.81596E-09 1.11682E-18-2.01183E-18
 -1      1611 9.51515E-05-2.85444E-05-2.85456E-05-8.60646E-09 6.80836E-19-1.41718E-18
 -1      1612 9.51742E-05-2.85508E-05-2.85532E-05-1.24234E-08 3.44738E-19-1.67742E-18
 -1      1613 9.51804E-05-2.85542E-05-2.85540E-05-1.16041E-08 7.97100E-19-3.25751E-18
 -1      1614 9.51680E-05-2.85498E-05-2.85504E-05-1.08828E-08 6.79799E-19-2.15879E-18
 -1      1615 9.51836E-05-2.85545E-05-2.85556E-05-1.86823E-08 1.11613E-18-1.25872E-18
 -1      1616 9.52015E-05-2.85608E-05-2.85601E-05-1.15000E-08-2.03585E-19-2.69501E-18
 -1      1617 9.51885E-05-2.85565E-05-2.85564E-05-1.12486E-08 8.31950E-20-2.86686E-18
 -1      1618 9.51978E-05-2.85595E-05-2.85594E-05-2.09380E-08-2.30474E-19-8.05936E-19
 -1      1619 9.52204E-05-2.85669E-05-2.85655E-05-9.33638E-09-2.55251E-19-2.86309E-18
 -1      1620 9.52093E-05-2.85633E-05-2.85623E-05-9.67750E-09 3.49682E-20-3.08951E-18
 -1      1621 9.52132E-05-2.85649E-05-2.85636E-05-1.93961E-08 3.92096E-19-1.63542E-18
 -1      1622 9.52332E-05-2.85712E-05-2.85692E-05-4.87657E-09-1.79007E-19-1.67041E-18
 -1      1623 9.52265E-05-2.85692E-05-2.85672E-05-5.86922E-09-4.10495E-19-2.92530E-18
 -1      1624 9.52268E-05-2.85701E-05-2.85670E-05-1.37294E-08-3.53633E-19-1.79512E-18
 -1      1625 9.52364E-05-2.85724E-05-2.85700E-05-1.20086E-09-6.23063E-19-1.15962E-18
 -1      1626 9.52402E-05-2.85847E-05-2.85665E-05-8.24685E-09-1.78430E-18-4.53125E-19
 -1      1627 9.52377E-05-2.85777E-05-2.85685E-05-7.04033E-09-1.35266E-18-1.94993E-19
 -1      1628 9.52459E-05-2.86008E-05-2.85622E-05-1.07530E-08-6.27783E-19 7.11231E-19
 -1      1629 9.52424E-05-2.85908E-05-2.85649E-05-1.05122E-08-1.36567E-18-3.27252E-19
 -1      1630 9.52400E-05-2.85861E-05-2.85658E-05-1.77657E-08-5.45410E-19-3.62309E-19
 -1      1631 9.52515E-05-2.86176E-05-2.85574E-05-1.06808E-08-5.54416E-19 3.67363E-19
 -1      1632 9.52481E-05-2.86074E-05-2.85603E-05-1.08992E-08-1.04808E-18 8.53895E-19
 -1      1633 9.52453E-05-2.85988E-05-2.85628E-05-2.05504E-08-8.25192E-19 9.41232E-19
 -1      1634 9.52562E-05-2.86327E-05-2.85530E-05-9.08634E-09-1.02819E-18-1.19523E-18
 -1      1635 9.52534E-05-2.86238E-05-2.85556E-05-9.51871E-09-9.69192E-19 3.82045E-19
 -1      1636 9.52499E-05-2.86114E-05-2.85595E-05-1.92385E-08-2.21318E-18-5.89550E-19
 -1      1637 9.52598E-05-2.86443E-05-2.85495E-05-6.84318E-09-4.21959E-18-1.69012E-18
 -1      1638 9.52577E-05-2.86376E-05-2.85515E-05-7.32519E-09-2.22769E-18-2.41785E-18
 -1      1639 9.52535E-05-2.86221E-05-2.85564E-05-1.56737E-08-2.42823E-18-2.88401E-18
 -1      1640 9.52622E-05-2.86524E-05-2.85471E-05-4.39347E-09-2.91917E-18 1.64851E-18
 -1      1641 9.52608E-05-2.86479E-05-2.85484E-05-4.87497E-09-3.95552E-18 4.77950E-19
 -1      1642 9.52561E-05-2.86303E-05-2.85540E-05-1.12137E-08-1.98751E-18-1.49708E-18
 -1      1643 9.52634E-05-2.86567E-05-2.85458E-05-2.00387E-09-1.42519E-18-8.34735E-20
 -1      1644 9.52628E-05-2.86545E-05-2.85464E-05-2.45410E-09-1.76682E-18 1.56375E-18
 -1      1645 9.52577E-05-2.86358E-05-2.85524E-05-6.56354E-09-1.01182E-18 2.32202E-18
 -1      1646 9.52636E-05-2.86573E-05-2.85456E-05 3.02395E-10 8.19897E-19-1.44020E-19
 -1      1647 9.52636E-05-2.86574E-05-2.85455E-05-1.31667E-10-1.63674E-19 1.14105E-18
 -1      1648 9.52584E-05-2.86384E-05-2.85516E-05-2.04846E-09 9.68523E-19 1.45323E-18
 -1      1649 9.52627E-05-2.86542E-05-2.85465E-05 2.60757E-09 1.15680E-18-3.61404E-19
 -1      1650 9.52634E-05-2.86565E-05-2.85458E-05 2.16325E-09 1.29006E-18 2.48797E-19
 -1      1651 9.52584E-05-2.86383E-05-2.85516E-05 2.36596E-09 1.05019E-18 6.32878E-19
 -1      1652 9.52606E-05-2.86474E-05-2.85485E-05 4.98598E-09-3.29267E-20-1.19761E-18
 -1      1653 9.52620E-05-2.86520E-05-2.85472E-05 4.51550E-09 8.52529E-19-4.96206E-19
 -1      1654 9.52576E-05-2.86355E-05-2.85525E-05 6.82977E-09 8.89940E-19-5.55167E-19
 -1      1655 9.52575E-05-2.86371E-05-2.85516E-05 7.34965E-09-2.45770E-18 9.45446E-20
 -1      1656 9.52596E-05-2.86438E-05-2.85497E-05 6.88464E-09-5.10353E-19-1.48714E-18
 -1      1657 9.52559E-05-2.86299E-05-2.85541E-05 1.13509E-08-1.04856E-18-2.91082E-18
 -1      1658 9.52532E-05-2.86231E-05-2.85558E-05 9.50635E-09-4.95021E-18-1.28802E-18
 -1      1659 9.52560E-05-2.86320E-05-2.85532E-05 9.08703E-09-2.94327E-18-2.55204E-19
 -1      1660 9.52534E-05-2.86217E-05-2.85566E-05 1.57000E-08-1.61008E-18-1.09659E-18
 -1      1661 9.52479E-05-2.86068E-05-2.85605E-05 1.08780E-08-4.33276E-18 1.49190E-18
 -1      1662 9.52513E-05-2.86170E-05-2.85576E-05 1.06317E-08-5.00554E-18 1.21547E-18
 -1      1663 9.52498E-05-2.86108E-05-2.85596E-05 1.91712E-08-1.69569E-18-3.93811E-19
 -1      1664 9.52425E-05-2.85907E-05-2.85651E-05 1.03257E-08-3.33697E-18 1.51768E-18
 -1      1665 9.52457E-05-2.86003E-05-2.85624E-05 1.05456E-08-4.56755E-18 2.34299E-18
 -1      1666 9.52451E-05-2.85983E-05-2.85629E-05 2.03869E-08-2.07884E-18 2.26702E-18
 -1      1667 9.52374E-05-2.85785E-05-2.85682E-05 9.45035E-09-1.33024E-18-1.46346E-19
 -1      1668 9.52399E-05-2.85852E-05-2.85663E-05 1.12386E-08-1.89566E-18 9.93238E-19
 -1      1669 9.52398E-05-2.85861E-05-2.85656E-05 1.99137E-08-1.29648E-18 2.55447E-18
 -1      1670 9.52325E-05-2.85760E-05-2.85670E-05 1.76242E-08-1.58315E-20-1.82741E-19
 -1      1671 1.93293E-05-6.11555E-05 1.27179E-05-4.28512E-06 4.05644E-18 4.62480E-18
 -1      1672 2.24259E-05-7.11960E-05 1.51005E-05 2.38507E-06-2.69134E-18 4.64576E-18
 -1      1673 1.90839E-05-3.72701E-05 3.44530E-06 1.91055E-06 1.06565E-17 8.20415E-18
 -1      1674 2.36856E-05-5.95570E-05 9.39931E-06-1.53797E-06 6.21214E-18 4.38186E-18
 -1      1675 3.60809E-05-1.21098E-05-1.22798E-05 2.85163E-05 1.49078E-17 1.34805E-17
 -1      1676 2.97888E-05-3.18814E-05-3.68760E-06 1.07491E-05 1.15976E-17 9.91706E-18
 -1      1677 7.92396E-05-3.72007E-06-3.15376E-05 5.98315E-05 1.44173E-17 1.55913E-17
 -1      1678 5.33648E-05-9.03182E-06-2.13336E-05 3.66590E-05 1.53897E-17 1.38371E-17
 -1      1679 1.45789E-04-1.83048E-05-5.09819E-05 7.77354E-05 1.12871E-17 1.62088E-17
 -1      1680 1.01893E-04-4.43551E-06-4.12326E-05 6.56370E-05 1.39328E-17 1.67687E-17
 -1      1681 2.11650E-04-4.55128E-05-6.56633E-05 6.18277E-05 6.50161E-18 1.25649E-17
 -1      1682 1.70371E-04-2.53907E-05-5.87907E-05 7.22547E-05 9.83511E-18 1.51966E-17
 -1      1683 2.51433E-04-6.31029E-05-7.40648E-05 1.66724E-05 3.96073E-18 4.93270E-18
 -1      1684 2.27628E-04-5.01596E-05-7.06225E-05 4.87546E-05 5.40682E-18 1.07438E-17
 -1      1685 2.47286E-04-5.99791E-05-7.38294E-05-3.57160E-05 4.78044E-18-5.20756E-18
 -1      1686 2.58263E-04-6.63097E-05-7.53530E-05-1.34750E-07 3.98783E-18 1.96713E-18
 -1      1687 1.93997E-04-3.44637E-05-6.41724E-05-6.80548E-05 8.01992E-18-1.23929E-17
 -1      1688 2.32912E-04-5.45098E-05-7.00497E-05-4.89497E-05 5.40174E-18-7.71478E-18
 -1      1689 1.23815E-04-1.29265E-05-4.64682E-05-6.43820E-05 1.22231E-17-1.48595E-17
 -1      1690 1.71052E-04-3.01337E-05-5.62349E-05-6.99601E-05 9.05944E-18-1.31112E-17
 -1      1691 6.77398E-05-9.26168E-06-2.67138E-05-4.41543E-05 1.52322E-17-1.43665E-17
 -1      1692 9.90293E-05-9.54092E-06-3.69164E-05-6.49297E-05 1.32434E-17-1.56616E-17
 -1      1693 3.45261E-05-2.70732E-05-7.37845E-06-1.61988E-05 1.55346E-17-1.06184E-17
 -1      1694 4.61543E-05-9.27148E-06-1.70988E-05-3.75285E-05 1.60470E-17-1.39286E-17
 -1      1695 2.40444E-05-5.45033E-05 7.16408E-06 6.33484E-07 1.29249E-17-6.64699E-18
 -1      1696 2.06810E-05-3.12712E-05 6.26742E-07-6.26495E-06 1.58582E-17-9.24155E-18
 -1      1697 2.35785E-05-7.25512E-05 1.48050E-05-1.30754E-06 4.23919E-18-4.03505E-18
 -1      1698 1.94038E-05-5.84120E-05 1.14670E-05 3.92276E-06 1.01297E-17-6.15221E-18
 -1      1699 2.16994E-05-7.21398E-05 1.52807E-05-6.01734E-06-5.18977E-18-4.66546E-18
 -1      1700 2.34309E-05-7.72158E-05 1.64348E-05 3.86274E-06 2.07737E-18-3.99334E-18
 -1      1701 1.91243E-05-4.64762E-05 6.94133E-06-6.83088E-07-1.38066E-17-8.43004E-18
 -1      1702 2.42990E-05-6.71152E-05 1.20541E-05-8.98330E-07-7.82785E-18-5.46728E-18
 -1      1703 2.76360E-05-1.58533E-05-7.67967E-06 2.06481E-05-1.88812E-17-1.38401E-17
 -1      1704 2.57051E-05-3.93375E-05 6.54794E-07 5.26937E-06-1.59767E-17-9.75083E-18
 -1      1705 7.02468E-05-5.81378E-06-2.72575E-05 5.41466E-05-1.67645E-17-1.72320E-17
 -1      1706 4.84219E-05-1.52285E-05-1.69346E-05 3.08129E-05-1.75404E-17-1.44487E-17
 -1      1707 1.29226E-04-1.27524E-05-4.66760E-05 7.59147E-05-1.39400E-17-1.87042E-17
 -1      1708 8.98165E-05-3.56543E-06-3.69506E-05 6.01691E-05-1.70652E-17-1.84585E-17
 -1      1709 2.03124E-04-4.07180E-05-6.38575E-05 6.98330E-05-7.83940E-18-1.60970E-17
 -1      1710 1.54918E-04-1.80011E-05-5.56088E-05 7.67494E-05-1.20147E-17-1.87237E-17
 -1      1711 2.48787E-04-6.26335E-05-7.31317E-05 2.83626E-05-4.14771E-18-9.25638E-18
 -1      1712 2.22889E-04-4.80645E-05-6.94693E-05 5.67224E-05-6.52279E-18-1.41124E-17
 -1      1713 2.48197E-04-6.12990E-05-7.38393E-05-2.33036E-05-3.28585E-18-1.05964E-18
 -1      1714 2.52025E-04-6.34588E-05-7.43913E-05 1.09718E-05-3.54737E-18-6.78399E-18
 -1      1715 2.10687E-04-4.23709E-05-6.71503E-05-6.30279E-05-5.54102E-18 6.56789E-18
 -1      1716 2.41097E-04-5.89386E-05-7.15981E-05-3.94644E-05-3.56336E-18 1.74065E-18
 -1      1717 1.48671E-04-1.64841E-05-5.39164E-05-7.55513E-05-9.44018E-18 1.20075E-17
 -1      1718 1.91070E-04-3.56936E-05-6.13904E-05-7.24450E-05-6.58822E-18 8.70242E-18
 -1      1719 8.75344E-05-1.94728E-06-3.66440E-05-6.11121E-05-1.47189E-17 1.41768E-17
 -1      1720 1.24638E-04-1.06929E-05-4.58476E-05-7.63257E-05-1.12105E-17 1.34661E-17
 -1      1721 4.52888E-05-9.02469E-06-1.81728E-05-3.25224E-05-1.76361E-17 1.32857E-17
 -1      1722 6.59645E-05-7.21866E-07-2.76263E-05-5.48263E-05-1.59191E-17 1.37380E-17
 -1      1723 2.79874E-05-3.50749E-05-1.65241E-06-8.95183E-06-1.75556E-17 8.78458E-18
 -1      1724 3.19138E-05-1.43264E-05-9.76737E-06-2.47465E-05-1.74040E-17 1.23311E-17
 -1      1725 2.37167E-05-6.25804E-05 1.04324E-05 1.77240E-06-1.39625E-17 6.07389E-18
 -1      1726 1.87676E-05-4.11667E-05 5.02046E-06-5.96825E-07-1.70745E-17 7.88058E-18
 -1      1727 2.34545E-05-7.61059E-05 1.60622E-05-2.61288E-06-5.13323E-18 3.95204E-18
 -1      1728 2.05869E-05-6.74644E-05 1.40310E-05 6.27619E-06-1.15654E-17 5.68486E-18
 -1      1729 1.17112E-04-3.15860E-05-3.58029E-05 4.51343E-05 8.77865E-18 9.67396E-18
 -1      1730 7.49523E-05-3.57505E-05-1.80264E-05 3.91629E-05 7.09221E-18 9.14203E-18
 -1      1731 9.52360E-05-2.85739E-05-2.85692E-05-5.03905E-09-1.29973E-18-1.54752E-18
 -1      1732 9.52347E-05-2.85762E-05-2.85678E-05-1.21669E-08-6.92286E-19-5.29927E-19
 -1      1733 1.90916E-05-4.53459E-05 7.36711E-06 1.47116E-05 1.70677E-18 6.71062E-18
 -1      1734 4.05739E-05-4.13598E-05-2.68286E-06 2.75394E-05 4.66969E-18 8.76594E-18
 -1      1735 1.12645E-05-4.73135E-05 1.13210E-05 1.23446E-06-1.85241E-18 7.48481E-18
 -1      1736 1.61856E-04-3.17082E-05-5.25856E-05 4.15722E-05 8.32506E-18 8.29669E-18
 -1      1737 1.94984E-04-3.32646E-05-6.46808E-05 2.42218E-05 6.63269E-18 5.39009E-18
 -1      1738 2.12307E-04-3.45373E-05-7.05804E-05 2.75459E-06 7.02614E-18 1.75230E-18
 -1      1739 2.06775E-04-3.51266E-05-6.82049E-05-1.88702E-05 7.79164E-18-2.53983E-18
 -1      1740 1.74519E-04-3.37647E-05-5.69605E-05-3.12348E-05 7.81310E-18-5.20502E-18
 -1      1741 1.35255E-04-3.69383E-05-4.06372E-05-3.91094E-05 7.97905E-18-7.26161E-18
 -1      1742 8.96216E-05-3.78559E-05-2.25829E-05-4.14445E-05 8.56520E-18-8.64651E-18
 -1      1743 4.85410E-05-4.07053E-05-5.90793E-06-3.17222E-05 8.54741E-18-8.12008E-18
 -1      1744 2.28184E-05-4.57797E-05 5.93994E-06-1.77760E-05 5.14742E-18-7.54706E-18
 -1      1745 1.21826E-05-4.92314E-05 1.14845E-05-4.19614E-06 1.28802E-18-7.49539E-18
 -1      1746 1.62014E-05-4.98852E-05 9.97229E-06 1.12335E-05-3.67316E-18-8.54677E-18
 -1      1747 3.28721E-05-4.30757E-05 9.87168E-07 2.42933E-05-7.67158E-18-9.29545E-18
 -1      1748 6.67708E-05-3.71835E-05-1.39984E-05 3.83337E-05-9.56639E-18-9.83532E-18
 -1      1749 1.09211E-04-3.42829E-05-3.16830E-05 4.36428E-05-9.63923E-18-1.02830E-17
 -1      1750 1.52688E-04-3.09809E-05-4.94474E-05 4.43681E-05-9.88678E-18-1.06320E-17
 -1      1751 1.92172E-04-3.28399E-05-6.33814E-05 3.22365E-05-7.71869E-18-8.75917E-18
 -1      1752 2.10397E-04-3.42347E-05-6.99130E-05 1.04792E-05-6.67293E-18-5.26145E-18
 -1      1753 2.08189E-04-3.47216E-05-6.90011E-05-1.47358E-05-6.18292E-18-5.48877E-19
 -1      1754 1.85848E-04-3.23779E-05-6.13496E-05-3.49646E-05-7.25717E-18 3.42964E-18
 -1      1755 1.48149E-04-2.94936E-05-4.81723E-05-4.57394E-05-8.82142E-18 6.43152E-18
 -1      1756 1.04841E-04-2.92248E-05-3.18857E-05-4.60930E-05-1.04693E-17 7.61229E-18
 -1      1757 6.64762E-05-3.45034E-05-1.52432E-05-3.81681E-05-1.02008E-17 7.94517E-18
 -1      1758 3.67116E-05-4.16388E-05-9.84928E-07-2.66067E-05-8.94467E-18 7.01857E-18
 -1      1759 1.80577E-05-4.89595E-05 8.84509E-06-1.29630E-05-6.68140E-18 7.86512E-18
 -1      1760 1.06562E-04-2.34233E-05-3.57226E-05-1.59318E-05-1.98582E-18 1.16882E-17
 -1      1761 8.98374E-05-1.06390E-05-3.40711E-05-1.15168E-05-3.17806E-18-1.40716E-18
 -1      1762 9.13821E-05-1.18110E-05-3.42348E-05-1.33558E-05-3.52588E-18-2.07100E-19
 -1      1763 9.35533E-05-1.42105E-05-3.41662E-05-1.43530E-05-3.42201E-18 1.22468E-18
 -1      1764 9.53514E-05-1.62447E-05-3.43885E-05-1.61097E-05-3.45109E-18 3.09463E-18
 -1      1765 9.44524E-05-1.65810E-05-3.33835E-05-1.19514E-05-3.61181E-18 5.95332E-19
 -1      1766 8.57281E-05-7.02533E-06-3.38030E-05-6.28038E-06-2.27238E-18-3.77299E-18
 -1      1767 8.64185E-05-7.45160E-06-3.38944E-05-7.55387E-06-2.57808E-18-3.38281E-18
 -1      1768 8.45561E-05-6.07466E-06-3.36942E-05-4.09401E-06-1.73471E-18-4.25647E-18
 -1      1769 8.50404E-05-6.36068E-06-3.37615E-05-5.21312E-06-2.02832E-18-4.04801E-18
 -1      1770 8.67866E-05-8.86839E-06-3.34196E-05-5.33560E-06-2.31027E-18-3.73646E-18
 -1      1771 8.38159E-05-5.48650E-06-3.36195E-05-2.14382E-06-1.15399E-18-4.39551E-18
 -1      1772 8.41059E-05-5.65315E-06-3.36612E-05-3.14623E-06-1.45827E-18-4.30677E-18
 -1      1773 8.55722E-05-7.79677E-06-3.33575E-05-3.36275E-06-1.70200E-18-4.11686E-18
 -1      1774 8.34901E-05-5.22058E-06-3.35875E-05-3.32095E-07-5.45103E-19-4.58547E-18
 -1      1775 8.35890E-05-5.27738E-06-3.36015E-05-1.27484E-06-8.41780E-19-4.50545E-18
 -1      1776 8.48479E-05-7.17331E-06-3.33130E-05-1.57943E-06-1.02993E-18-4.27071E-18
 -1      1777 8.35813E-05-5.26783E-06-3.36026E-05 1.44734E-06 3.79064E-20-4.72283E-18
 -1      1778 8.34866E-05-5.21560E-06-3.35879E-05 5.07056E-07-2.12385E-19-4.64388E-18
 -1      1779 8.46016E-05-6.96167E-06-3.32976E-05 9.83013E-08-4.00663E-19-4.42679E-18
 -1      1780 8.40960E-05-5.63717E-06-3.36642E-05 3.30533E-06 5.94996E-19-4.73023E-18
 -1      1781 8.38047E-05-5.47058E-06-3.36216E-05 2.30911E-06 3.42266E-19-4.76283E-18
 -1      1782 8.48375E-05-7.15771E-06-3.33150E-05 1.76805E-06 2.22222E-19-4.57370E-18
 -1      1783 8.50262E-05-6.33938E-06-3.37651E-05 5.31705E-06 1.27440E-18-4.54939E-18
 -1      1784 8.45425E-05-6.05394E-06-3.36978E-05 4.22512E-06 9.22121E-19-4.62402E-18
 -1      1785 8.55572E-05-7.77181E-06-3.33612E-05 3.51406E-06 8.40564E-19-4.51176E-18
 -1      1786 8.64474E-05-7.46778E-06-3.39011E-05 7.65934E-06 1.98331E-18-4.15950E-18
 -1      1787 8.57278E-05-7.01814E-06-3.38076E-05 6.36919E-06 1.60295E-18-4.37372E-18
 -1      1788 8.67818E-05-8.85165E-06-3.34250E-05 5.44055E-06 1.58096E-18-4.21791E-18
 -1      1789 8.84901E-05-9.19579E-06-3.40637E-05 1.03912E-05 2.65156E-18-3.41714E-18
 -1      1790 8.74567E-05-8.49381E-06-3.39404E-05 8.84853E-06 2.27592E-18-3.89868E-18
 -1      1791 8.85964E-05-1.05239E-05-3.34861E-05 7.61951E-06 2.27409E-18-3.75248E-18
 -1      1792 9.15508E-05-1.20095E-05-3.42390E-05 1.34836E-05 3.32267E-18-1.85259E-18
 -1      1793 8.99536E-05-1.07772E-05-3.40759E-05 1.16577E-05 2.92248E-18-2.77845E-18
 -1      1794 9.11789E-05-1.30450E-05-3.35023E-05 9.98714E-06 3.00365E-18-2.82106E-18
 -1      1795 9.69907E-05-1.74279E-05-3.42916E-05 1.61173E-05 3.51290E-18 1.30480E-18
 -1      1796 9.39388E-05-1.46670E-05-3.41503E-05 1.44963E-05 3.31087E-18-6.11875E-19
 -1      1797 9.49965E-05-1.70919E-05-3.33760E-05 1.20293E-05 3.52888E-18-1.03465E-18
 -1      1798 1.02905E-04-2.54578E-05-3.36137E-05 1.32128E-05 3.14588E-18 5.19401E-18
 -1      1799 9.91805E-05-2.00375E-05-3.39193E-05 1.55503E-05 3.28958E-18 2.67165E-18
 -1      1800 9.86084E-05-2.22523E-05-3.27944E-05 1.16527E-05 3.56860E-18 1.37582E-18
 -1      1801 1.00066E-04-2.65619E-05-3.17089E-05 8.23647E-06 3.11052E-18 4.20496E-18
 -1      1802 1.01117E-04-1.99805E-05-3.44600E-05-1.75898E-05-2.81388E-18 6.16534E-18
 -1      1803 9.73195E-05-2.78412E-05-2.97973E-05 2.80173E-06 2.37049E-18 2.81053E-18
 -1      1804 9.93305E-05-2.78468E-05-3.06736E-05 5.17723E-06 2.58618E-18 3.70541E-18
 -1      1805 9.91330E-05-2.60738E-05-3.13086E-05 7.27711E-06 3.10930E-18 2.09611E-18
 -1      1806 1.00916E-04-2.29243E-05-3.31485E-05-1.30523E-05-3.15710E-18 4.80305E-18
 -1      1807 9.87019E-05-2.74429E-05-3.04228E-05-4.25983E-06-2.54422E-18 4.27159E-18
 -1      1808 9.73055E-05-2.75824E-05-2.98426E-05-2.38853E-06-2.14796E-18 3.62171E-18
 -1      1809 9.67841E-05-2.78363E-05-2.94507E-05-7.65138E-07-1.79323E-18 3.37844E-18
 -1      1810 9.64942E-05-2.80328E-05-2.92923E-05 2.14933E-07-1.55693E-18 2.79393E-18
 -1      1811 9.75383E-05-2.69769E-05-3.02684E-05-2.45719E-06-2.42179E-18 1.92484E-18
 -1      1812 9.63456E-05-2.81697E-05-2.91574E-05 1.23969E-06-1.30038E-18 2.63824E-18
 -1      1813 9.66225E-05-2.83882E-05-2.92068E-05 1.84720E-06-1.15904E-18 2.33441E-18
 -1      1814 9.69999E-05-2.77632E-05-2.96995E-05 5.72465E-07-1.78308E-18 1.46368E-18
 -1      1815 9.68064E-05-2.85375E-05-2.92246E-05 2.53883E-06-1.03912E-18 2.12027E-18
 -1      1816 9.74643E-05-2.88155E-05-2.93950E-05 2.95452E-06-8.59618E-19 1.74652E-18
 -1      1817 9.71279E-05-2.82585E-05-2.95385E-05 2.52618E-06-1.36892E-18 9.57197E-19
 -1      1818 9.79113E-05-2.90120E-05-2.95103E-05 3.44203E-06-7.75073E-19 1.66122E-18
 -1      1819 9.88295E-05-2.93536E-05-2.97579E-05 3.73143E-06-7.51585E-19 1.25932E-18
 -1      1820 9.78149E-05-2.87284E-05-2.96278E-05 3.87149E-06-1.08125E-18 5.49230E-19
 -1      1821 9.94806E-05-2.96102E-05-2.99352E-05 4.05951E-06-6.93651E-19 1.22975E-18
 -1      1822 1.00569E-04-3.00138E-05-3.02295E-05 4.22890E-06-7.72613E-19 1.03198E-18
 -1      1823 9.89533E-05-2.92787E-05-2.98761E-05 4.80543E-06-9.36927E-19 2.31240E-19
 -1      1824 1.01376E-04-3.03395E-05-3.04405E-05 4.38483E-06-8.35297E-19 1.19031E-18
 -1      1825 1.02543E-04-3.07986E-05-3.07514E-05 4.39935E-06-6.85030E-19 1.07087E-18
 -1      1826 1.00449E-04-2.99660E-05-3.02191E-05 5.36780E-06-7.24322E-19 2.03404E-19
 -1      1827 1.03461E-04-3.12003E-05-3.09692E-05 4.32444E-06-5.88278E-19 1.15623E-18
 -1      1828 1.04594E-04-3.16972E-05-3.12610E-05 4.11658E-06-5.12108E-19 1.25731E-18
 -1      1829 1.02218E-04-3.08319E-05-3.06030E-05 5.48430E-06-6.57576E-19 2.26280E-19
 -1      1830 1.05566E-04-3.21716E-05-3.14585E-05 3.71702E-06-7.05317E-19 1.16879E-18
 -1      1831 1.06513E-04-3.26635E-05-3.16883E-05 3.20167E-06-5.40132E-19 7.01224E-19
 -1      1832 1.04166E-04-3.18968E-05-3.09773E-05 4.99089E-06-7.64520E-19 5.54246E-19
 -1      1833 1.07455E-04-3.31784E-05-3.18398E-05 2.37452E-06-2.46215E-19 6.40392E-19
 -1      1834 1.08022E-04-3.35795E-05-3.19602E-05 1.48505E-06 1.50282E-20 4.81056E-19
 -1      1835 1.06153E-04-3.31243E-05-3.12967E-05 3.67231E-06-5.13084E-19 4.17357E-19
 -1      1836 1.08797E-04-3.40450E-05-3.20474E-05 1.76706E-07 2.62719E-19 4.92555E-19
 -1      1837 1.08771E-04-3.42109E-05-3.20188E-05-1.06690E-06 3.62748E-19 4.88262E-19
 -1      1838 1.07949E-04-3.43551E-05-3.15293E-05 1.35032E-06 1.57991E-20 1.16711E-19
 -1      1839 1.09170E-04-3.44530E-05-3.20393E-05-2.75689E-06 3.23077E-19 5.20739E-19
 -1      1840 1.08386E-04-3.41965E-05-3.18483E-05-4.15436E-06 1.40568E-19 7.01161E-19
 -1      1841 1.09188E-04-3.52309E-05-3.16704E-05-1.94557E-06 3.13654E-19 3.92217E-19
 -1      1842 1.08169E-04-3.39833E-05-3.18214E-05-5.84915E-06 1.47013E-19 8.75114E-19
 -1      1843 1.06631E-04-3.31655E-05-3.15005E-05-6.96129E-06-2.75312E-19 1.35554E-18
 -1      1844 1.09380E-04-3.51963E-05-3.17519E-05-5.72488E-06 1.02180E-19 2.22536E-19
 -1      1845 1.05676E-04-3.23489E-05-3.14605E-05-7.98059E-06-6.27352E-19 1.26675E-18
 -1      1846 1.03686E-04-3.10506E-05-3.10925E-05-8.22016E-06-5.37246E-19 1.26150E-18
 -1      1847 1.08115E-04-3.37398E-05-3.18317E-05-8.83945E-06-3.89261E-19 9.28623E-19
 -1      1848 1.02236E-04-2.98015E-05-3.10691E-05-7.82695E-06-6.80323E-19 9.34562E-19
 -1      1849 1.00417E-04-2.84567E-05-3.07659E-05-6.78341E-06-7.96734E-19 8.13946E-19
 -1      1850 1.05498E-04-3.09047E-05-3.19520E-05-9.67607E-06-9.09237E-19 9.90215E-19
 -1      1851 9.91738E-05-2.73692E-05-3.07658E-05-4.73001E-06-1.00647E-18 1.65654E-19
 -1      1852 9.82590E-05-2.66361E-05-3.06262E-05-2.58345E-06-1.17775E-18-7.32675E-20
 -1      1853 1.02545E-04-2.77347E-05-3.20965E-05-7.02526E-06-1.16006E-18 8.25951E-19
 -1      1854 9.80096E-05-2.64005E-05-3.06373E-05 4.38219E-07-1.33413E-18-6.63091E-19
 -1      1855 9.84267E-05-2.67053E-05-3.07093E-05 2.83087E-06-1.24555E-18-8.08817E-19
 -1      1856 1.00898E-04-2.59487E-05-3.21941E-05-1.30874E-06-1.48624E-18-3.75128E-19
 -1      1857 9.93589E-05-2.74873E-05-3.07259E-05 5.47170E-06-1.23057E-18-1.19979E-18
 -1      1858 1.00939E-04-2.86561E-05-3.09914E-05 7.09289E-06-9.45236E-19-1.80073E-18
 -1      1859 1.01642E-04-2.66768E-05-3.21875E-05 5.09818E-06-1.55070E-18-1.60807E-18
 -1      1860 1.02467E-04-2.99391E-05-3.10261E-05 8.27903E-06-6.03528E-19-2.29821E-18
 -1      1861 1.04570E-04-3.13595E-05-3.14071E-05 8.61636E-06-4.74752E-20-2.80316E-18
 -1      1862 1.04332E-04-2.94512E-05-3.20981E-05 9.34898E-06-1.16681E-18-2.42086E-18
 -1      1863 1.05882E-04-3.24386E-05-3.14671E-05 8.18639E-06 4.97989E-19-2.82442E-18
 -1      1864 1.07794E-04-3.35322E-05-3.18550E-05 7.42306E-06 1.05257E-19-2.64541E-18
 -1      1865 1.07420E-04-3.26527E-05-3.20050E-05 1.00669E-05 8.39770E-20-2.74256E-18
 -1      1866 1.08425E-04-3.40303E-05-3.19221E-05 5.97404E-06-1.38040E-20-1.78588E-18
 -1      1867 1.09693E-04-3.45656E-05-3.22172E-05 4.67328E-06 7.83512E-19-1.45060E-18
 -1      1868 1.09511E-04-3.48317E-05-3.19619E-05 7.84800E-06 7.10637E-19-2.18161E-18
 -1      1869 1.09639E-04-3.45257E-05-3.22534E-05 2.96303E-06 1.04334E-18-1.08545E-18
 -1      1870 1.10144E-04-3.45709E-05-3.23994E-05 1.65169E-06 1.41073E-18-3.45059E-19
 -1      1871 1.10116E-04-3.54973E-05-3.19468E-05 4.28639E-06 1.51105E-18-1.49316E-18
 -1      1872 1.09613E-04-3.42092E-05-3.23776E-05 1.94075E-07 7.33663E-19-1.38276E-19
 -1      1873 1.09461E-04-3.39451E-05-3.23698E-05-8.24309E-07 3.03764E-19-6.86934E-19
 -1      1874 1.09485E-04-3.50124E-05-3.18999E-05 7.80957E-07 1.17799E-18-1.88330E-18
 -1      1875 1.08683E-04-3.34696E-05-3.22820E-05-1.82057E-06 3.53967E-20-6.75563E-19
 -1      1876 1.08075E-04-3.30652E-05-3.21500E-05-2.45946E-06-3.95061E-20-8.06511E-19
 -1      1877 1.08100E-04-3.39482E-05-3.17744E-05-1.90035E-06 1.42040E-19-1.59750E-18
 -1      1878 1.07215E-04-3.26023E-05-3.20061E-05-3.00030E-06-1.34326E-19-1.15281E-18
 -1      1879 1.06353E-04-3.21692E-05-3.17937E-05-3.30333E-06-6.98488E-20-1.26217E-18
 -1      1880 1.06388E-04-3.27632E-05-3.15553E-05-3.56296E-06-2.02537E-19-1.57235E-18
 -1      1881 1.05507E-04-3.17720E-05-3.16134E-05-3.48957E-06-2.30826E-19-3.69604E-19
 -1      1882 1.04551E-04-3.13690E-05-3.13627E-05-3.54855E-06-5.60014E-19-2.84411E-19
 -1      1883 1.04624E-04-3.17006E-05-3.12578E-05-4.33776E-06 2.33940E-19-6.37671E-19
 -1      1884 1.03770E-04-3.10489E-05-3.11668E-05-3.49857E-06-4.84045E-19 3.66947E-19
 -1      1885 1.02830E-04-3.07004E-05-3.09104E-05-3.40553E-06 1.41071E-19 6.73988E-19
 -1      1886 1.02956E-04-3.08427E-05-3.09125E-05-4.46825E-06-1.76956E-19 3.65763E-20
 -1      1887 1.02138E-04-3.04504E-05-3.07162E-05-3.22013E-06-2.09707E-20 4.70229E-19
 -1      1888 1.01280E-04-3.01622E-05-3.04756E-05-3.04763E-06 5.00626E-20 3.67634E-19
 -1      1889 1.01458E-04-3.01880E-05-3.05518E-05-4.19430E-06-2.43019E-19 7.65365E-20
 -1      1890 1.00684E-04-2.99701E-05-3.02950E-05-2.80002E-06-1.12065E-19-5.23221E-20
 -1      1891 9.99395E-05-2.97390E-05-3.00819E-05-2.59780E-06-5.43664E-20 1.38351E-19
 -1      1892 1.00158E-04-2.97036E-05-3.02021E-05-3.70557E-06-9.83832E-20-2.99815E-19
 -1      1893 9.94390E-05-2.95927E-05-2.99219E-05-2.33561E-06-6.82718E-19 6.94550E-19
 -1      1894 9.88176E-05-2.94118E-05-2.97412E-05-2.13420E-06-5.86134E-19 5.26827E-19
 -1      1895 9.90584E-05-2.93511E-05-2.98816E-05-3.13381E-06-2.54642E-19-7.17489E-20
 -1      1896 9.84067E-05-2.93013E-05-2.96046E-05-1.88535E-06-1.11509E-18 2.33125E-19
 -1      1897 9.79036E-05-2.91626E-05-2.94564E-05-1.70142E-06-1.12444E-18-5.99183E-19
 -1      1898 9.81494E-05-2.90974E-05-2.96003E-05-2.56164E-06-1.16817E-18 2.11953E-19
 -1      1899 9.75731E-05-2.90798E-05-2.93434E-05-1.48019E-06-7.83783E-19-9.02304E-19
 -1      1900 9.71766E-05-2.89756E-05-2.92253E-05-1.32120E-06-7.22468E-20-1.22987E-18
 -1      1901 9.74134E-05-2.89163E-05-2.93617E-05-2.03538E-06-1.21632E-18 3.85100E-20
 -1      1902 9.69160E-05-2.89144E-05-2.91342E-05-1.13314E-06 1.73002E-19-1.13004E-18
 -1      1903 9.66110E-05-2.88377E-05-2.90425E-05-1.00098E-06 3.26290E-19-1.20805E-18
 -1      1904 9.68290E-05-2.87884E-05-2.91653E-05-1.57686E-06-1.92086E-19-5.95771E-19
 -1      1905 9.64096E-05-2.87930E-05-2.89708E-05-8.46376E-07 2.50102E-19-1.59822E-18
 -1      1906 9.61805E-05-2.87380E-05-2.89012E-05-7.39810E-07-1.68690E-19-1.24428E-18
 -1      1907 9.63739E-05-2.86994E-05-2.90076E-05-1.19260E-06-6.17792E-20-1.29591E-19
 -1      1908 9.60279E-05-2.87060E-05-2.88460E-05-6.16123E-07-6.65643E-19-6.39284E-19
 -1      1909 9.58601E-05-2.86676E-05-2.87945E-05-5.32348E-07-4.30225E-20-1.39409E-18
 -1      1910 9.60263E-05-2.86388E-05-2.88839E-05-8.80156E-07 1.99217E-19 1.82008E-19
 -1      1911 9.57470E-05-2.86452E-05-2.87530E-05-4.35687E-07 7.83148E-19-1.08290E-18
 -1      1912 9.56274E-05-2.86193E-05-2.87159E-05-3.71301E-07 6.27278E-19-6.62020E-19
 -1      1913 9.57664E-05-2.85986E-05-2.87891E-05-6.32435E-07 4.68023E-19 9.51078E-19
 -1      1914 9.55456E-05-2.86042E-05-2.86854E-05-2.97368E-07 3.07878E-19-1.27929E-18
 -1      1915 9.54632E-05-2.85876E-05-2.86595E-05-2.48929E-07 6.92439E-19-7.41410E-19
 -1      1916 9.55764E-05-2.85732E-05-2.87180E-05-4.40377E-07 1.04934E-19-1.03808E-18
 -1      1917 9.54057E-05-2.85778E-05-2.86377E-05-1.93545E-07 1.03447E-20-2.35495E-19
 -1      1918 9.53514E-05-2.85679E-05-2.86203E-05-1.57876E-07-9.23202E-19-6.37341E-19
 -1      1919 9.54412E-05-2.85582E-05-2.86659E-05-2.94566E-07-6.32613E-20-5.37024E-19
 -1      1920 9.53125E-05-2.85621E-05-2.86053E-05-1.17263E-07-1.46457E-18-8.55543E-19
 -1      1921 9.52789E-05-2.85570E-05-2.85942E-05-9.15904E-08-7.62586E-19-1.08481E-18
 -1      1922 9.53480E-05-2.85505E-05-2.86289E-05-1.86147E-07-1.30216E-18 8.18489E-19
 -1      1923 9.52539E-05-2.85539E-05-2.85843E-05-6.25028E-08-2.69363E-19-1.16432E-18
 -1      1924 9.52353E-05-2.85521E-05-2.85778E-05-4.45103E-08 3.73599E-19-1.12981E-18
 -1      1925 9.52866E-05-2.85477E-05-2.86034E-05-1.07285E-07-4.05136E-19 3.07976E-19
 -1      1926 9.52204E-05-2.85509E-05-2.85716E-05-2.42707E-08 1.34532E-18-1.85620E-18
 -1      1927 9.52124E-05-2.85514E-05-2.85685E-05-1.21010E-08 1.00859E-18-1.33188E-18
 -1      1928 9.52487E-05-2.85483E-05-2.85867E-05-5.13613E-08 3.91434E-19-8.60761E-19
 -1      1929 9.52047E-05-2.85516E-05-2.85650E-05 1.40823E-09 2.28630E-19-6.36167E-19
 -1      1930 9.52038E-05-2.85535E-05-2.85641E-05 9.17369E-09 8.89914E-19 5.37665E-19
 -1      1931 9.52277E-05-2.85510E-05-2.85763E-05-1.30066E-08 1.06800E-18-1.17047E-18
 -1      1932 9.52011E-05-2.85546E-05-2.85624E-05 1.75390E-08 1.17908E-18 1.18230E-18
 -1      1933 9.52046E-05-2.85574E-05-2.85629E-05 2.19007E-08 1.48050E-18 1.11766E-18
 -1      1934 9.52186E-05-2.85551E-05-2.85704E-05 1.19373E-08 1.17047E-18 1.58038E-18
 -1      1935 9.52051E-05-2.85591E-05-2.85624E-05 2.62097E-08 1.08273E-18 1.12992E-18
 -1      1936 9.52111E-05-2.85624E-05-2.85636E-05 2.77575E-08 9.17860E-19 1.54996E-18
 -1      1937 9.52173E-05-2.85601E-05-2.85676E-05 2.64899E-08 1.20718E-18 2.44055E-18
 -1      1938 9.52135E-05-2.85646E-05-2.85637E-05 2.87203E-08 5.67153E-19 1.38515E-18
 -1      1939 9.52202E-05-2.85682E-05-2.85652E-05 2.76057E-08 5.35125E-19 1.52751E-18
 -1      1940 9.52208E-05-2.85658E-05-2.85666E-05 3.26264E-08 6.21111E-19 3.17600E-18
 -1      1941 9.52229E-05-2.85703E-05-2.85654E-05 2.56126E-08 8.92290E-19 1.84646E-18
 -1      1942 9.52291E-05-2.85738E-05-2.85666E-05 2.19104E-08 1.16586E-18 1.54198E-18
 -1      1943 9.52328E-05-2.85779E-05-2.85664E-05 2.51274E-08-6.06605E-19 2.74933E-18
 -1      1944 9.52266E-05-2.85721E-05-2.85663E-05 3.16783E-08 1.06551E-18 4.27777E-18
 -1      1945 9.60742E-05-2.81140E-05-2.90888E-05 1.23335E-07 1.69959E-18 1.66401E-18
 -1      1946 9.67768E-05-2.80911E-05-2.93734E-05 1.30459E-06 1.90654E-18 2.45233E-18
 -1      1947 9.74404E-05-2.76032E-05-2.99412E-05 2.36500E-06 2.38563E-18 1.34928E-18
 -1      1948 9.60783E-05-2.83680E-05-2.89844E-05-1.48018E-06 1.10970E-18 8.38046E-19
 -1      1949 9.59753E-05-2.82352E-05-2.89755E-05-7.60761E-07 1.20297E-18 1.33822E-18
 -1      1950 9.66640E-05-2.80922E-05-2.94013E-05-4.54501E-07 1.61847E-18 6.72809E-19
 -1      1951 9.70116E-05-2.87585E-05-2.92249E-05-2.58997E-06 8.02048E-19 4.33694E-19
 -1      1952 9.63891E-05-2.85191E-05-2.90508E-05-2.07271E-06 8.74264E-19 7.18856E-19
 -1      1953 9.68644E-05-2.84502E-05-2.93377E-05-2.25661E-06 1.13717E-18-6.36499E-20
 -1      1954 9.86421E-05-2.93051E-05-2.96947E-05-3.45431E-06 6.62004E-19-8.83760E-20
 -1      1955 9.76485E-05-2.89720E-05-2.94099E-05-3.03441E-06 7.56060E-19 4.71976E-19
 -1      1956 9.78225E-05-2.88750E-05-2.95676E-05-3.55500E-06 8.69294E-19-3.80273E-19
 -1      1957 1.00819E-04-3.00065E-05-3.03317E-05-4.16407E-06 6.97816E-19-5.04746E-19
 -1      1958 9.95403E-05-2.95884E-05-2.99646E-05-3.80517E-06 5.38759E-19-1.96545E-19
 -1      1959 9.93728E-05-2.94225E-05-2.99969E-05-4.57744E-06 8.09780E-19-6.61658E-19
 -1      1960 1.03425E-04-3.08628E-05-3.10876E-05-4.70708E-06 4.24176E-19-2.75858E-19
 -1      1961 1.01929E-04-3.03660E-05-3.06613E-05-4.41888E-06 4.55611E-19-3.46473E-19
 -1      1962 1.01400E-04-3.01200E-05-3.05659E-05-5.38915E-06 4.48650E-19-5.73898E-19
 -1      1963 1.06322E-04-3.18734E-05-3.19063E-05-4.97509E-06 5.92236E-19-2.31836E-19
 -1      1964 1.04698E-04-3.13080E-05-3.14505E-05-4.81327E-06 5.90072E-19-1.58958E-19
 -1      1965 1.03808E-04-3.09956E-05-3.12219E-05-5.93403E-06 6.76458E-19-3.62818E-19
 -1      1966 1.09313E-04-3.30224E-05-3.27095E-05-4.75553E-06 1.30147E-19-2.38403E-19
 -1      1967 1.07694E-04-3.24136E-05-3.22688E-05-4.82816E-06 3.03582E-19-1.41097E-19
 -1      1968 1.06489E-04-3.20787E-05-3.19049E-05-6.03715E-06 4.12022E-19 1.06008E-19
 -1      1969 1.12083E-04-3.42466E-05-3.33880E-05-3.74140E-06 6.65748E-20-8.17453E-20
 -1      1970 1.10683E-04-3.36530E-05-3.30275E-05-4.20577E-06 7.99586E-20-1.84997E-19
 -1      1971 1.09281E-04-3.33778E-05-3.25402E-05-5.40482E-06 2.61915E-19-5.82865E-20
 -1      1972 1.14171E-04-3.53785E-05-3.38095E-05-1.61236E-06 4.63856E-19 7.21326E-20
 -1      1973 1.13287E-04-3.49169E-05-3.36110E-05-2.63472E-06 2.27349E-19-7.89527E-20
 -1      1974 1.11920E-04-3.48222E-05-3.30419E-05-3.66867E-06 2.02639E-19-2.86006E-20
 -1      1975 1.14975E-04-3.60746E-05-3.38531E-05 1.74178E-06 1.15075E-18 9.83286E-20
 -1      1976 1.14954E-04-3.59395E-05-3.38940E-05 1.00641E-07 7.79919E-19 3.18750E-19
 -1      1977 1.13975E-04-3.61567E-05-3.33326E-05-5.43000E-07 7.53945E-19 4.89727E-19
 -1      1978 1.13875E-04-3.58008E-05-3.34751E-05 5.82763E-06 9.02037E-19-2.14193E-19
 -1      1979 1.14994E-04-3.62352E-05-3.37863E-05 3.81537E-06 7.57724E-19 1.25136E-19
 -1      1980 1.14824E-04-3.68368E-05-3.33806E-05 3.83748E-06 9.36501E-19 8.48022E-19
 -1      1981 1.10594E-04-3.40694E-05-3.27810E-05 9.19005E-06 3.35207E-19-6.05523E-19
 -1      1982 1.12838E-04-3.52101E-05-3.32989E-05 7.53523E-06 6.69242E-19-6.60792E-19
 -1      1983 1.13794E-04-3.60986E-05-3.32385E-05 8.44804E-06 7.68596E-19 2.73896E-19
 -1      1984 1.05784E-04-3.10251E-05-3.20207E-05 9.67721E-06 5.54998E-19-1.34510E-18
 -1      1985 1.08609E-04-3.26353E-05-3.25810E-05 9.43314E-06 3.30775E-19-1.04703E-18
 -1      1986 1.10684E-04-3.35113E-05-3.30370E-05 1.11834E-05 4.89033E-19-6.89300E-19
 -1      1987 1.01439E-04-2.80183E-05-3.14877E-05 5.89096E-06 1.22069E-18-2.67015E-18
 -1      1988 1.03739E-04-2.93526E-05-3.18804E-05 7.67804E-06 8.26638E-19-2.24578E-18
 -1      1989 1.06514E-04-2.98118E-05-3.28977E-05 9.69422E-06 1.35589E-18-1.61669E-18
 -1      1990 1.00070E-04-2.70092E-05-3.13824E-05-9.94737E-07 1.59811E-18-3.62953E-18
 -1      1991 1.00682E-04-2.72352E-05-3.14499E-05 2.17703E-06 1.60854E-18-2.91361E-18
 -1      1992 1.03594E-04-2.71070E-05-3.28640E-05 3.47560E-06 1.90142E-18-2.53383E-18
 -1      1993 1.02696E-04-2.87891E-05-3.17442E-05-7.43714E-06 1.14881E-18-4.50696E-18
 -1      1994 1.01228E-04-2.77375E-05-3.14541E-05-4.54408E-06 1.41192E-18-4.05189E-18
 -1      1995 1.03932E-04-2.72993E-05-3.29131E-05-4.70477E-06 1.80194E-18-3.03139E-18
 -1      1996 1.07811E-04-3.21214E-05-3.24566E-05-1.02361E-05-1.00602E-18-4.82436E-18
 -1      1997 1.04998E-04-3.04638E-05-3.19160E-05-8.99301E-06 2.00892E-19-4.27897E-18
 -1      1998 1.07359E-04-3.02897E-05-3.30408E-05-1.04951E-05 3.54020E-19-3.73569E-18
 -1      1999 1.12745E-04-3.50018E-05-3.32810E-05-8.91458E-06-3.14057E-19-4.58818E-18
 -1      2000 1.09855E-04-3.36035E-05-3.26859E-05-9.43984E-06-1.01238E-18-5.11579E-18
 -1      2001 1.11665E-04-3.40124E-05-3.32500E-05-1.14505E-05-7.03118E-19-4.43769E-18
 -1      2002 1.15717E-04-3.63830E-05-3.39457E-05-5.24049E-06 4.77224E-19-4.42075E-18
 -1      2003 1.13716E-04-3.56618E-05-3.34886E-05-6.75495E-06 4.10268E-19-4.15021E-18
 -1      2004 1.14685E-04-3.64673E-05-3.35006E-05-8.41680E-06 2.99565E-19-3.75782E-18
 -1      2005 1.16391E-04-3.63699E-05-3.42524E-05-1.29082E-06-2.44865E-19-4.89721E-18
 -1      2006 1.15602E-04-3.62823E-05-3.40442E-05-2.92919E-06 3.96094E-19-4.61072E-18
 -1      2007 1.15620E-04-3.70598E-05-3.36718E-05-3.80880E-06 5.04223E-19-4.04582E-18
 -1      2008 1.15285E-04-3.55375E-05-3.41562E-05 1.71715E-06-1.09818E-18-4.82906E-18
 -1      2009 1.15553E-04-3.58530E-05-3.42025E-05 4.57292E-07-1.25030E-18-5.02655E-18
 -1      2010 1.14790E-04-3.63177E-05-3.36469E-05 3.80375E-07-9.76040E-19-4.08161E-18
 -1      2011 1.13125E-04-3.44037E-05-3.37336E-05 3.47751E-06-1.98116E-18-2.61999E-18
 -1      2012 1.14098E-04-3.49033E-05-3.39725E-05 2.72536E-06-1.41729E-18-3.74711E-18
 -1      2013 1.12882E-04-3.50036E-05-3.33922E-05 3.25172E-06-2.05805E-18-2.91671E-18
 -1      2014 1.10510E-04-3.32682E-05-3.31091E-05 4.19254E-06-3.76849E-19-1.85775E-18
 -1      2015 1.11842E-04-3.38105E-05-3.34591E-05 3.87064E-06-1.09364E-18-2.33691E-18
 -1      2016 1.10488E-04-3.36375E-05-3.29468E-05 4.75269E-06-1.23136E-18-2.49773E-18
 -1      2017 1.07844E-04-3.22596E-05-3.24022E-05 4.20925E-06 7.64972E-19-3.93897E-19
 -1      2018 1.09274E-04-3.27701E-05-3.27921E-05 4.17862E-06-3.85044E-20-1.14674E-18
 -1      2019 1.08001E-04-3.24498E-05-3.23850E-05 5.20792E-06-1.89424E-19-1.51970E-18
 -1      2020 1.05362E-04-3.14135E-05-3.17008E-05 3.83689E-06 8.89194E-19-5.54856E-19
 -1      2021 1.06725E-04-3.18603E-05-3.20816E-05 3.97175E-06 1.14149E-18 1.68745E-20
 -1      2022 1.05646E-04-3.14942E-05-3.17822E-05 5.00406E-06 9.12714E-19 2.50887E-19
 -1      2023 1.03179E-04-3.07258E-05-3.10586E-05 3.29374E-06-1.83991E-19-1.27185E-18
 -1      2024 1.04391E-04-3.10996E-05-3.14021E-05 3.50417E-06 4.14810E-19-5.38998E-19
 -1      2025 1.03539E-04-3.07508E-05-3.11963E-05 4.45442E-06 5.87149E-19 1.10974E-18
 -1      2026 1.01336E-04-3.01778E-05-3.05013E-05 2.71325E-06-7.61800E-20-8.72551E-19
 -1      2027 1.02362E-04-3.04811E-05-3.07955E-05 2.94352E-06-4.60098E-19-1.40940E-18
 -1      2028 1.01726E-04-3.01802E-05-3.06635E-05 3.77075E-06-4.25336E-20 5.77118E-19
 -1      2029 9.98249E-05-2.97481E-05-3.00363E-05 2.16733E-06-6.95034E-19-1.85676E-19
 -1      2030 1.00664E-04-2.99883E-05-3.02788E-05 2.38683E-06-6.86608E-19-1.08087E-18
 -1      2031 1.00212E-04-2.97449E-05-3.02015E-05 3.07894E-06-5.60076E-19 1.37865E-18
 -1      2032 9.86172E-05-2.94160E-05-2.96597E-05 1.68866E-06-6.93614E-19-5.00483E-19
 -1      2033 9.92848E-05-2.96024E-05-2.98539E-05 1.88300E-06-4.37661E-19-5.83612E-19
 -1      2034 9.89793E-05-2.94143E-05-2.98149E-05 2.44478E-06-1.07904E-19 5.47763E-19
 -1      2035 9.76723E-05-2.91632E-05-2.93621E-05 1.28725E-06 1.91363E-19-1.30501E-18
 -1      2036 9.81914E-05-2.93052E-05-2.95139E-05 1.45153E-06 2.38393E-21-8.02426E-19
 -1      2037 9.79960E-05-2.91649E-05-2.95005E-05 1.89638E-06 7.23163E-20-6.23561E-19
 -1      2038 9.69475E-05-2.89739E-05-2.91320E-05 9.61013E-07 7.83490E-19-1.66487E-18
 -1      2039 9.73427E-05-2.90799E-05-2.92481E-05 1.09547E-06 8.48350E-19-1.23797E-18
 -1      2040 9.72272E-05-2.89787E-05-2.92510E-05 1.44020E-06 6.17244E-19-1.10092E-18
 -1      2041 9.64024E-05-2.88346E-05-2.89576E-05 7.02211E-07 2.18151E-18-2.01649E-18
 -1      2042 9.66972E-05-2.89122E-05-2.90447E-05 8.09591E-07 5.06781E-19-2.17668E-18
 -1      2043 9.66374E-05-2.88415E-05-2.90570E-05 1.07137E-06 1.08435E-18-1.30908E-18
 -1      2044 9.60007E-05-2.87342E-05-2.88282E-05 5.01014E-07 3.34402E-19-1.46114E-18
 -1      2045 9.62159E-05-2.87898E-05-2.88921E-05 5.85043E-07 1.87695E-18-1.31471E-18
 -1      2046 9.61935E-05-2.87421E-05-2.89092E-05 7.79855E-07 1.81600E-18 8.27624E-20
 -1      2047 9.57114E-05-2.86638E-05-2.87343E-05 3.47429E-07-6.82577E-19-1.80747E-18
 -1      2048 9.58647E-05-2.87025E-05-2.87801E-05 4.12008E-07 3.33404E-19-1.32169E-18
 -1      2049 9.58660E-05-2.86717E-05-2.87989E-05 5.53875E-07 8.94717E-19 3.71554E-19
 -1      2050 9.55085E-05-2.86159E-05-2.86678E-05 2.32232E-07 5.66634E-19-7.27859E-19
 -1      2051 9.56146E-05-2.86419E-05-2.86997E-05 2.81022E-07-3.36852E-19-1.55528E-18
 -1      2052 9.56299E-05-2.86232E-05-2.87183E-05 3.81809E-07-2.15514E-19 4.50938E-19
 -1      2053 9.53711E-05-2.85847E-05-2.86223E-05 1.47358E-07-2.04939E-18-1.40945E-18
 -1      2054 9.54417E-05-2.86014E-05-2.86437E-05 1.83599E-07-9.33766E-19-1.82948E-18
 -1      2055 9.54642E-05-2.85910E-05-2.86609E-05 2.53068E-07-3.21891E-19 2.22086E-19
 -1      2056 9.52823E-05-2.85658E-05-2.85924E-05 8.60160E-08-5.58798E-19-4.70576E-19
 -1      2057 9.53268E-05-2.85757E-05-2.86060E-05 1.12461E-07-7.43159E-19-1.31349E-18
 -1      2058 9.53518E-05-2.85709E-05-2.86212E-05 1.58467E-07-1.40742E-18-7.31577E-19
 -1      2059 9.52289E-05-2.85556E-05-2.85739E-05 4.26448E-08 4.28410E-19-2.56853E-18
 -1      2060 9.52546E-05-2.85607E-05-2.85820E-05 6.15660E-08-3.61601E-19-1.46507E-18
 -1      2061 9.52792E-05-2.85594E-05-2.85949E-05 9.03110E-08-1.56572E-19-1.34598E-18
 -1      2062 9.52009E-05-2.85515E-05-2.85637E-05 1.28181E-08 1.33120E-19-6.49535E-19
 -1      2063 9.52133E-05-2.85532E-05-2.85678E-05 2.60357E-08 9.57407E-19-1.55373E-18
 -1      2064 9.52356E-05-2.85540E-05-2.85783E-05 4.23393E-08 2.32532E-19-1.93159E-19
 -1      2065 9.51904E-05-2.85516E-05-2.85592E-05-6.87750E-09-5.13700E-19-1.34738E-18
 -1      2066 9.51937E-05-2.85511E-05-2.85606E-05 2.04532E-09-3.33793E-19-9.46074E-19
 -1      2067 9.52127E-05-2.85529E-05-2.85689E-05 9.60409E-09-1.45522E-20-1.16013E-18
 -1      2068 9.51915E-05-2.85543E-05-2.85586E-05-1.89518E-08 1.41935E-18-1.40968E-18
 -1      2069 9.51889E-05-2.85524E-05-2.85581E-05-1.32905E-08 4.62058E-19-1.44372E-18
 -1      2070 9.52040E-05-2.85546E-05-2.85644E-05-1.16643E-08 4.37351E-19-1.29443E-19
 -1      2071 9.51996E-05-2.85588E-05-2.85602E-05-2.50781E-08 1.61480E-19 8.78045E-20
 -1      2072 9.51935E-05-2.85560E-05-2.85587E-05-2.20078E-08 7.68486E-19-5.98924E-19
 -1      2073 9.52047E-05-2.85581E-05-2.85631E-05-2.41782E-08 2.42210E-19-3.22595E-19
 -1      2074 9.52111E-05-2.85641E-05-2.85629E-05-2.61124E-08 5.24047E-21-8.27581E-19
 -1      2075 9.52036E-05-2.85609E-05-2.85610E-05-2.53346E-08 2.85777E-20-8.61789E-19
 -1      2076 9.52111E-05-2.85629E-05-2.85637E-05-2.96375E-08-2.20613E-20-7.69923E-19
 -1      2077 9.52231E-05-2.85698E-05-2.85656E-05-2.20845E-08 1.99223E-19-1.03785E-18
 -1      2078 9.52158E-05-2.85666E-05-2.85639E-05-2.38052E-08 4.68121E-19-7.21867E-19
 -1      2079 9.52201E-05-2.85685E-05-2.85651E-05-2.89573E-08 4.66705E-19-1.30126E-19
 -1      2080 9.52319E-05-2.85746E-05-2.85675E-05-1.54686E-08-8.13953E-19-4.33245E-19
 -1      2081 9.52260E-05-2.85716E-05-2.85662E-05-1.96484E-08-3.90269E-19-7.00038E-19
 -1      2082 9.52283E-05-2.85736E-05-2.85663E-05-2.43962E-08 8.20576E-20-1.37468E-18
 -1      2083 9.52344E-05-2.85783E-05-2.85669E-05-1.83992E-08-8.92980E-19-1.18870E-18
 -1      2084 9.52499E-05-2.86058E-05-2.85617E-05-2.31380E-08-1.48924E-18-4.72224E-19
 -1      2085 9.52474E-05-2.86000E-05-2.85631E-05-2.46985E-08-1.58110E-18-6.81082E-21
 -1      2086 9.52454E-05-2.85967E-05-2.85637E-05-2.59002E-08-1.30953E-18 2.73920E-19
 -1      2087 9.52421E-05-2.85903E-05-2.85651E-05-2.56848E-08-9.29898E-19 4.13705E-19
 -1      2088 9.52448E-05-2.85916E-05-2.85657E-05-3.03502E-08-1.56996E-18 1.49803E-19
 -1      2089 9.52402E-05-2.85878E-05-2.85653E-05-2.44217E-08-9.03888E-19 6.77103E-19
 -1      2090 9.52367E-05-2.85817E-05-2.85665E-05-2.15953E-08-9.56117E-19-3.93789E-19
 -1      2091 9.52343E-05-2.85795E-05-2.85664E-05-2.52998E-08-5.75499E-19-1.22384E-18
 -1      2092 9.52398E-05-2.85857E-05-2.85661E-05-3.02909E-08-1.58919E-18 4.61766E-20
 -1      2093 9.52527E-05-2.86128E-05-2.85599E-05-1.82528E-08-3.00111E-18-4.37353E-18
 -1      2094 9.52510E-05-2.86081E-05-2.85611E-05-2.05931E-08-1.84894E-18-2.53527E-18
 -1      2095 9.52488E-05-2.85973E-05-2.85650E-05-2.60972E-08-1.61532E-18-2.61419E-18
 -1      2096 9.52543E-05-2.86177E-05-2.85585E-05-1.25153E-08-7.21593E-19 3.18416E-19
 -1      2097 9.52533E-05-2.86143E-05-2.85594E-05-1.51341E-08-2.41507E-18-6.40817E-19
 -1      2098 9.52509E-05-2.86011E-05-2.85642E-05-1.98533E-08-1.83463E-18-1.81468E-18
 -1      2099 9.52550E-05-2.86205E-05-2.85576E-05-6.77491E-09 7.05490E-19 2.53658E-18
 -1      2100 9.52545E-05-2.86185E-05-2.85581E-05-9.35356E-09 2.87981E-19 2.08696E-18
 -1      2101 9.52517E-05-2.86034E-05-2.85636E-05-1.29693E-08 5.07538E-19 1.52598E-18
 -1      2102 9.52552E-05-2.86215E-05-2.85572E-05-1.25875E-09 3.24314E-19 1.28980E-18
 -1      2103 9.52551E-05-2.86209E-05-2.85574E-05-3.74608E-09 7.50423E-19 1.41507E-18
 -1      2104 9.52519E-05-2.86046E-05-2.85631E-05-6.22139E-09 5.04043E-19 1.78569E-18
 -1      2105 9.52550E-05-2.86207E-05-2.85574E-05 4.15761E-09 1.70658E-19 3.92018E-19
 -1      2106 9.52552E-05-2.86215E-05-2.85572E-05 1.68580E-09-1.03835E-19 1.33329E-18
 -1      2107 9.52519E-05-2.86048E-05-2.85630E-05 2.65674E-10-8.21497E-19 7.10459E-19
 -1      2108 9.52543E-05-2.86182E-05-2.85582E-05 9.68356E-09-3.54669E-19-1.28955E-18
 -1      2109 9.52549E-05-2.86203E-05-2.85576E-05 7.14813E-09-8.36663E-20-2.87399E-19
 -1      2110 9.52518E-05-2.86044E-05-2.85632E-05 6.71062E-09-1.23909E-18-4.39081E-20
 -1      2111 9.52531E-05-2.86140E-05-2.85595E-05 1.52363E-08-1.78384E-18-3.71261E-18
 -1      2112 9.52541E-05-2.86174E-05-2.85586E-05 1.27270E-08-1.28117E-18-2.70673E-18
 -1      2113 9.52515E-05-2.86031E-05-2.85636E-05 1.32808E-08-1.33169E-18-3.07722E-18
 -1      2114 9.52508E-05-2.86077E-05-2.85612E-05 2.05862E-08-1.04756E-18-9.93627E-19
 -1      2115 9.52525E-05-2.86125E-05-2.85600E-05 1.82769E-08-9.82962E-19-1.28862E-18
 -1      2116 9.52506E-05-2.86008E-05-2.85643E-05 1.99349E-08-6.94916E-19-1.85563E-18
 -1      2117 9.52472E-05-2.85995E-05-2.85633E-05 2.45698E-08 1.38169E-19 6.84638E-19
 -1      2118 9.52497E-05-2.86053E-05-2.85618E-05 2.30851E-08 4.47497E-19-1.45149E-18
 -1      2119 9.52485E-05-2.85969E-05-2.85651E-05 2.60662E-08 2.33887E-19-2.69957E-19
 -1      2120 9.52417E-05-2.85899E-05-2.85651E-05 2.57852E-08-1.04253E-18 1.92789E-18
 -1      2121 9.52454E-05-2.85964E-05-2.85638E-05 2.57296E-08-6.64659E-19 2.06391E-18
 -1      2122 9.52446E-05-2.85912E-05-2.85658E-05 3.01384E-08 6.44916E-19 8.38915E-19
 -1      2123 5.73897E-05-3.95379E-05-8.24757E-06 3.89340E-05 1.45817E-18 6.56631E-18
 -1      2124 4.23725E-05-4.15345E-05-1.89789E-06 3.09992E-05 4.69256E-19 6.88998E-18
 -1      2125 1.17531E-05-3.01716E-05 6.88970E-06 3.87794E-06-5.45383E-19 7.27771E-18
 -1      2126 1.27003E-05-3.49308E-05 7.91263E-06-6.53529E-06-2.15104E-18 7.74188E-18
 -1      2127 2.86348E-05-3.65504E-05 2.18258E-06 2.65149E-05 1.26886E-18 6.42072E-18
 -1      2128 1.96079E-05-3.31481E-05 4.87656E-06 1.91700E-05-4.58668E-19 5.88603E-18
 -1      2129 4.29526E-05-3.65413E-05-3.34918E-06 3.55544E-05-1.56955E-18 6.36566E-18
 -1      2130 9.74414E-05-4.34008E-05-2.31695E-05 4.18366E-05 3.94802E-18 6.04316E-18
 -1      2131 7.77068E-05-4.50533E-05-1.51243E-05 3.73721E-05 2.29842E-18 6.08466E-18
 -1      2132 1.36200E-04-4.18668E-05-3.97255E-05 3.55146E-05 6.05607E-18 5.55950E-18
 -1      2133 1.15082E-04-4.38642E-05-3.11276E-05 3.39451E-05 5.27829E-18 5.57094E-18
 -1      2134 8.73798E-05-8.43088E-06-3.39337E-05-8.75687E-06-2.79201E-18-2.89346E-18
 -1      2135 8.83656E-05-9.08706E-06-3.40555E-05-1.02776E-05-3.08880E-18-2.16139E-18
 -1      2136 9.09978E-05-1.29111E-05-3.35140E-05-9.94463E-06-3.23058E-18-1.60296E-18
 -1      2137 8.85539E-05-1.04860E-05-3.34795E-05-7.55614E-06-2.79214E-18-2.92372E-18
 -1      2138 1.78655E-04-2.83811E-05-6.33076E-05 7.34267E-06 6.42093E-18 1.72668E-18
 -1      2139 1.69903E-04-3.02950E-05-5.89806E-05 1.40713E-05 6.33115E-18 3.51138E-18
 -1      2140 1.82215E-04-2.43548E-05-6.63891E-05-2.52326E-06 7.62076E-18-2.00112E-20
 -1      2141 1.76950E-04-2.26220E-05-6.53046E-05 3.62647E-06 6.86181E-18 1.40904E-18
 -1      2142 1.74151E-04-2.62515E-05-6.26806E-05-1.02782E-05 7.60254E-18-9.25383E-19
 -1      2143 1.83408E-04-2.65633E-05-6.58780E-05-4.44472E-06 7.63261E-18 2.51145E-19
 -1      2144 1.59442E-04-1.38746E-05-6.11867E-05 7.35848E-07 7.74612E-18 7.12461E-19
 -1      2145 1.54562E-04-3.57985E-05-5.09510E-05-1.55407E-05 6.53814E-18-1.84950E-18
 -1      2146 1.71582E-04-3.33976E-05-5.79581E-05-1.42664E-05 7.29782E-18-9.85099E-19
 -1      2147 1.28338E-04-4.73263E-05-3.50621E-05-2.83245E-05 4.96806E-18-3.49740E-18
 -1      2148 1.46988E-04-4.51355E-05-4.32829E-05-2.53588E-05 5.21116E-18-2.50468E-18
 -1      2149 8.85197E-05-4.68792E-05-1.87621E-05-3.77543E-05 4.74423E-18-5.70350E-18
 -1      2150 1.10187E-04-4.64590E-05-2.73174E-05-4.00920E-05 5.07712E-18-5.35071E-18
 -1      2151 5.07446E-05-4.29205E-05-4.64952E-06-3.45279E-05 3.50163E-18-5.93082E-18
 -1      2152 6.84007E-05-4.19247E-05-1.16562E-05-4.19532E-05 4.07380E-18-6.16868E-18
 -1      2153 2.48153E-05-3.52613E-05 3.52381E-06-2.35112E-05 8.50209E-19-6.81057E-18
 -1      2154 3.55728E-05-3.69306E-05-2.66117E-07-3.13287E-05 3.34578E-18-6.41882E-18
 -1      2155 5.31352E-05-3.92915E-05-6.19767E-06-3.94227E-05-1.71101E-19-5.61202E-18
 -1      2156 1.25417E-05-3.43554E-05 7.93520E-06 1.52281E-06-1.07340E-18-7.98837E-18
 -1      2157 1.33882E-05-3.06301E-05 6.50078E-06-9.68292E-06 8.88961E-19-7.35733E-18
 -1      2158 2.06484E-05-3.48063E-05 4.88699E-06 2.12463E-05-2.96504E-18-8.71131E-18
 -1      2159 1.49205E-05-3.67353E-05 7.72007E-06 1.15641E-05-7.80117E-19-8.30304E-18
 -1      2160 4.75129E-05-3.85629E-05-4.72068E-06 3.67354E-05-5.14911E-18-7.82600E-18
 -1      2161 3.45078E-05-4.03753E-05 9.62003E-07 2.90033E-05-3.08278E-18-7.91256E-18
 -1      2162 8.77696E-05-4.38863E-05-1.90349E-05 4.35050E-05-4.73491E-18-6.45460E-18
 -1      2163 6.70154E-05-4.42985E-05-1.09185E-05 3.79523E-05-4.56720E-18-7.11296E-18
 -1      2164 1.29335E-04-4.37272E-05-3.61035E-05 3.64300E-05-6.70511E-18-6.05247E-18
 -1      2165 1.09894E-04-4.66532E-05-2.76083E-05 3.48207E-05-5.24017E-18-5.82335E-18
 -1      2166 1.59495E-04-3.64993E-05-5.17091E-05 2.66221E-05-7.58241E-18-5.23636E-18
 -1      2167 1.39360E-04-3.76492E-05-4.37247E-05 2.85594E-05-7.85771E-18-5.80938E-18
 -1      2168 1.73731E-04-2.87617E-05-6.12712E-05 9.24942E-06-6.41903E-18-3.28352E-18
 -1      2169 1.62497E-04-2.98800E-05-5.64728E-05 1.52474E-05-6.83069E-18-4.50664E-18
 -1      2170 1.78160E-04-2.29762E-05-6.55210E-05 3.75992E-07-6.83301E-18-2.58615E-18
 -1      2171 1.75733E-04-2.44860E-05-6.41075E-05 7.39907E-06-7.07527E-18-3.90355E-18
 -1      2172 1.54504E-04-1.82130E-05-5.74280E-05-2.82760E-06-6.34174E-18-1.31968E-18
 -1      2173 1.79219E-04-2.64705E-05-6.42955E-05-1.08779E-05-6.77033E-18-4.36222E-19
 -1      2174 1.82902E-04-2.50428E-05-6.63727E-05-2.49385E-06-6.62210E-18-2.22145E-18
 -1      2175 1.61628E-04-3.14684E-05-5.53147E-05-1.90733E-05-7.12069E-18 1.95072E-18
 -1      2176 1.74703E-04-3.08409E-05-6.03803E-05-1.40324E-05-6.67017E-18 4.51469E-19
 -1      2177 1.37604E-04-3.82733E-05-4.26703E-05-2.96385E-05-7.53648E-18 3.40253E-18
 -1      2178 1.55786E-04-3.73901E-05-4.98126E-05-2.74238E-05-7.14631E-18 2.07269E-18
 -1      2179 1.04252E-04-4.15492E-05-2.75839E-05-3.72896E-05-6.93424E-18 4.20340E-18
 -1      2180 1.24566E-04-4.00456E-05-3.56957E-05-3.93528E-05-7.15319E-18 4.18731E-18
 -1      2181 7.21493E-05-4.38827E-05-1.31700E-05-3.82492E-05-5.53155E-18 4.44512E-18
 -1      2182 8.95556E-05-4.15165E-05-2.06005E-05-4.28384E-05-6.34597E-18 3.91943E-18
 -1      2183 3.80342E-05-4.05274E-05-5.04971E-07-3.03074E-05-4.31860E-18 5.19464E-18
 -1      2184 5.17465E-05-3.81123E-05-6.47756E-06-3.84689E-05-5.42016E-18 5.25020E-18
 -1      2185 1.68530E-05-3.72476E-05 7.08598E-06-1.45491E-05-1.89079E-18 8.48558E-18
 -1      2186 2.32027E-05-3.54890E-05 3.99612E-06-2.33196E-05-3.82393E-18 7.27898E-18
 -1      2187 1.63125E-05-2.59456E-05 3.31512E-06-1.34859E-05-3.10861E-19 8.56986E-18
 -1      2188 1.64916E-04-3.70487E-05-5.37837E-05 2.27070E-05 6.33925E-18 4.14199E-18
 -1      2189 1.47160E-04-3.75591E-05-4.67773E-05 2.72377E-05 6.70945E-18 4.87679E-18
 -1      2190 1.46085E-04-4.74699E-05-4.16805E-05 1.78500E-05 3.96697E-18 1.62588E-18
 -1      2191 9.86262E-05-2.47540E-05-3.17253E-05-8.57847E-06-3.06830E-18 3.99958E-18
 -1      2192 1.59952E-04-3.32064E-05-5.33663E-05 4.74901E-06 5.39496E-18 9.98652E-19
 -1      2193 9.77764E-05-2.34793E-05-3.19137E-05-8.59777E-06-3.25371E-18 2.05359E-18
 -1      2194 1.80842E-05-2.75761E-05 3.51955E-06 1.27915E-05-9.84993E-19 6.99014E-18
 -1      2195 1.74872E-05-1.90426E-05 8.12256E-07 6.54345E-06-9.05584E-19 7.37469E-18
 -1      2196 2.53421E-05-2.32690E-05-9.64592E-07 2.15306E-05-1.58670E-18 6.34279E-18
 -1      2197 7.94875E-05-4.84059E-05-1.35903E-05 4.12827E-05-1.29130E-18 5.35953E-18
 -1      2198 9.52392E-05-2.85850E-05-2.85661E-05 2.60548E-08-5.44254E-19 1.46182E-18
 -1      2199 1.18690E-04-5.41047E-05-2.75855E-05 3.27023E-05 1.18585E-18 3.55097E-18
 -1      2200 3.62957E-05-3.44679E-05-1.41232E-06-3.33736E-05-1.02131E-18 6.09885E-18
 -1      2201 7.35381E-05-4.62042E-05-1.19700E-05-4.23661E-05-1.84823E-18 3.56132E-18
 -1      2202 1.10141E-04-5.22774E-05-2.47742E-05-3.63780E-05-3.47411E-18 1.38490E-18
 -1      2203 1.38479E-04-4.83774E-05-3.80836E-05-2.32656E-05-5.53049E-18 1.04439E-18
 -1      2204 1.54491E-04-3.64996E-05-4.97371E-05-7.41794E-06-6.42877E-18-3.82012E-19
 -1      2205 1.61071E-04-1.46039E-05-6.16863E-05-2.35711E-07-7.65887E-18-2.11732E-18
 -1      2206 1.54310E-04-3.36811E-05-5.08611E-05 5.15491E-06-5.75114E-18-8.22893E-19
 -1      2207 1.41069E-04-4.92815E-05-3.89697E-05 2.00490E-05-4.48589E-18-1.96766E-18
 -1      2208 1.10585E-04-5.44793E-05-2.38915E-05 3.63938E-05-1.85670E-18-4.03357E-18
 -1      2209 6.83064E-05-4.50068E-05-1.02170E-05 4.29684E-05-1.23286E-18-5.94877E-18
 -1      2210 3.30271E-05-3.37068E-05-4.02710E-07 3.08930E-05-5.63277E-19-8.40172E-18
 -1      2211 2.36790E-05-2.69615E-05 1.01927E-06-2.01554E-05-4.95938E-19-7.74273E-18
 -1      2212 9.02067E-05-5.14679E-05-1.66439E-05-4.08552E-05 1.04312E-18-4.26709E-18
 -1      2213 1.28534E-04-5.56958E-05-3.08590E-05-2.76089E-05 2.47948E-18-1.40713E-18
 -1      2214 1.59590E-04-2.53477E-05-5.66919E-05 1.62203E-06 7.24891E-18 1.27309E-18
 -1      2215 1.60936E-04-1.81041E-05-6.02103E-05-1.54509E-06 6.95499E-18 8.23740E-20
 -1      2216 1.51362E-04-4.54548E-05-4.51204E-05-7.30268E-06 4.47687E-18 4.30716E-19
 -1      2217 1.55427E-05-2.46963E-05 3.28084E-06 8.40317E-06-5.37231E-19-9.08866E-18
 -1      2218 1.61099E-04-2.20488E-05-5.84395E-05-5.88378E-08-7.21079E-18-9.47195E-19
 -1      2219 9.73367E-05-2.67533E-05-3.02254E-05 2.06184E-06 2.26000E-18 7.83936E-20
 -1      2220 9.79482E-05-2.61928E-05-3.06786E-05 4.02923E-06 2.69821E-18 4.44464E-19
 -1      2221 8.63441E-05-9.42639E-06-3.30048E-05-2.48282E-06-1.54494E-18-3.94188E-18
 -1      2222 8.68491E-05-9.85255E-06-3.30286E-05-3.37841E-06-1.90888E-18-3.89961E-18
 -1      2223 8.75393E-05-1.05818E-05-3.30294E-05-4.15038E-06-2.09419E-18-3.76177E-18
 -1      2224 8.82983E-05-1.12588E-05-3.30543E-05-5.14652E-06-2.43673E-18-3.42641E-18
 -1      2225 8.83229E-05-1.20631E-05-3.26774E-05-3.20973E-06-1.89149E-18-3.57324E-18
 -1      2226 8.55169E-05-8.62956E-06-3.29826E-05 5.03119E-07-2.47359E-19-4.19215E-18
 -1      2227 8.55219E-05-8.63370E-06-3.29821E-05-2.94201E-07-6.33659E-19-4.10477E-18
 -1      2228 8.59012E-05-8.96784E-06-3.30009E-05 1.97135E-06 3.99870E-19-4.40109E-18
 -1      2229 8.56502E-05-8.76185E-06-3.29862E-05 1.15523E-06 8.04082E-21-4.37888E-18
 -1      2230 8.65648E-05-1.03216E-05-3.26716E-05 7.30630E-07-1.09897E-19-4.00957E-18
 -1      2231 8.68072E-05-9.80439E-06-3.30325E-05 3.50860E-06 1.04291E-18-4.25931E-18
 -1      2232 8.63086E-05-9.38372E-06-3.30081E-05 2.64359E-06 6.44339E-19-4.33893E-18
 -1      2233 8.71268E-05-1.08628E-05-3.26795E-05 1.98521E-06 4.75710E-19-4.10708E-18
 -1      2234 8.82790E-05-1.12279E-05-3.30606E-05 5.22829E-06 1.78315E-18-3.88386E-18
 -1      2235 8.75049E-05-1.05380E-05-3.30344E-05 4.25189E-06 1.36424E-18-4.11563E-18
 -1      2236 8.82657E-05-1.19922E-05-3.26822E-05 3.32026E-06 1.18073E-18-3.89948E-18
 -1      2237 9.03519E-05-1.33670E-05-3.30501E-05 7.09826E-06 2.45761E-18-3.38972E-18
 -1      2238 8.92775E-05-1.23232E-05-3.30390E-05 6.02564E-06 2.02729E-18-3.64617E-18
 -1      2239 8.99980E-05-1.37867E-05-3.26515E-05 4.75872E-06 1.81826E-18-3.47008E-18
 -1      2240 9.31276E-05-1.64779E-05-3.29426E-05 8.92564E-06 3.20540E-18-2.38196E-18
 -1      2241 9.16845E-05-1.49090E-05-3.29699E-05 7.85613E-06 2.71389E-18-2.93232E-18
 -1      2242 9.23082E-05-1.63491E-05-3.25318E-05 6.17612E-06 2.44735E-18-2.81974E-18
 -1      2243 9.70589E-05-2.75775E-05-2.97473E-05-8.47873E-07 1.50140E-18-3.77471E-19
 -1      2244 9.72013E-05-2.72740E-05-2.98968E-05 3.62521E-07 1.86466E-18-5.22910E-20
 -1      2245 9.71771E-05-2.59815E-05-3.05270E-05 1.71223E-06 2.30360E-18-7.84372E-19
 -1      2246 9.74743E-05-2.52827E-05-3.08911E-05-3.99412E-06-2.61825E-18 1.02943E-18
 -1      2247 9.71062E-05-2.60571E-05-3.04535E-05-1.90092E-06-2.25193E-18 8.68462E-19
 -1      2248 1.52582E-04-2.99695E-05-5.30205E-05-4.72879E-06 4.99855E-18-1.06112E-18
 -1      2249 1.51031E-04-3.81990E-05-4.84102E-05-3.58191E-07 4.62279E-18-6.25110E-19
 -1      2250 9.71679E-05-2.67335E-05-3.01294E-05-3.11442E-07-1.90360E-18 8.17347E-19
 -1      2251 9.70682E-05-2.71612E-05-2.99492E-05 9.89301E-07-1.68691E-18 6.20136E-19
 -1      2252 9.68286E-05-2.53026E-05-3.06659E-05-1.48000E-06-2.29722E-18 4.84993E-20
 -1      2253 9.71149E-05-2.75168E-05-2.97894E-05 2.14743E-06-1.52541E-18 6.16436E-19
 -1      2254 9.73138E-05-2.78378E-05-2.97624E-05 3.03008E-06-1.32459E-18 3.84957E-19
 -1      2255 9.69409E-05-2.66190E-05-3.01561E-05 1.48658E-06-1.73922E-18-1.71457E-19
 -1      2256 9.74824E-05-2.80962E-05-2.97132E-05 3.87986E-06-1.15930E-18 3.32384E-19
 -1      2257 9.79351E-05-2.84122E-05-2.97838E-05 4.50306E-06-1.05817E-18 2.10963E-19
 -1      2258 9.71947E-05-2.74365E-05-2.99146E-05 3.65239E-06-1.44692E-18-5.23291E-20
 -1      2259 9.82606E-05-2.86737E-05-2.98074E-05 5.12728E-06-9.85811E-19 1.09891E-21
 -1      2260 9.89170E-05-2.90402E-05-2.99392E-05 5.55002E-06-9.67788E-19-1.75998E-19
 -1      2261 9.77207E-05-2.81032E-05-2.98529E-05 5.24757E-06-1.28088E-18-3.22263E-19
 -1      2262 9.94162E-05-2.93711E-05-3.00071E-05 5.97163E-06-8.53987E-19-1.98271E-19
 -1      2263 1.00233E-04-2.98287E-05-3.01720E-05 6.18692E-06-6.17123E-19-1.80350E-19
 -1      2264 9.85706E-05-2.88277E-05-2.99056E-05 6.38800E-06-9.21630E-19-4.00710E-19
 -1      2265 1.00928E-04-3.02867E-05-3.02624E-05 6.37352E-06-4.32199E-19-2.01669E-19
 -1      2266 1.01863E-04-3.08681E-05-3.04356E-05 6.32242E-06-4.96169E-19-1.33496E-19
 -1      2267 9.97853E-05-2.97686E-05-3.00236E-05 7.07223E-06-7.00275E-19-6.04251E-19
 -1      2268 1.02783E-04-3.15035E-05-3.05331E-05 6.18913E-06-6.72474E-19 2.66848E-20
 -1      2269 1.03782E-04-3.22215E-05-3.06924E-05 5.77338E-06-8.20954E-19-4.81097E-20
 -1      2270 1.01419E-04-3.10631E-05-3.01715E-05 7.18875E-06-5.18287E-19-4.62471E-19
 -1      2271 1.04947E-04-3.30554E-05-3.07913E-05 5.19101E-06-7.09331E-19 2.54695E-19
 -1      2272 1.05923E-04-3.38691E-05-3.09206E-05 4.29992E-06-3.10443E-19 3.33289E-19
 -1      2273 1.03527E-04-3.28023E-05-3.03325E-05 6.52551E-06-6.49918E-19-2.68145E-19
 -1      2274 1.07298E-04-3.48424E-05-3.10311E-05 3.12595E-06-2.68040E-20 2.66359E-19
 -1      2275 1.08102E-04-3.56043E-05-3.11263E-05 1.69601E-06 2.92193E-19 3.24245E-19
 -1      2276 1.06101E-04-3.49426E-05-3.05193E-05 4.80328E-06-2.34770E-19 2.36187E-19
 -1      2277 1.09525E-04-3.65025E-05-3.12803E-05-1.46497E-07 4.49007E-19 5.42291E-19
 -1      2278 1.09930E-04-3.69032E-05-3.13559E-05-2.02741E-06 4.69445E-19 6.93208E-19
 -1      2279 1.08953E-04-3.71545E-05-3.07868E-05 1.77641E-06 3.14926E-19 5.36535E-19
 -1      2280 1.11021E-04-3.72934E-05-3.16044E-05-4.38097E-06 2.97414E-19 6.07062E-19
 -1      2281 1.10764E-04-3.68940E-05-3.16940E-05-6.32865E-06-2.66021E-21 7.12281E-19
 -1      2282 1.11542E-04-3.86418E-05-3.12366E-05-2.53821E-06 3.41690E-19 5.23461E-19
 -1      2283 1.10980E-04-3.62327E-05-3.20836E-05-8.56842E-06-6.34547E-20 8.39327E-19
 -1      2284 1.09936E-04-3.47210E-05-3.22195E-05-9.83587E-06-4.94147E-19 9.33768E-19
 -1      2285 1.12905E-04-3.81794E-05-3.19867E-05-7.42813E-06-1.52052E-20 6.03896E-19
 -1      2286 1.08943E-04-3.27839E-05-3.27308E-05-1.08275E-05-8.31104E-19 1.12640E-18
 -1      2287 1.07376E-04-3.04321E-05-3.29066E-05-1.05267E-05-8.57303E-19 1.33013E-18
 -1      2288 1.12093E-04-3.48181E-05-3.30729E-05-1.10914E-05-5.31907E-19 9.02710E-19
 -1      2289 1.05629E-04-2.78917E-05-3.34050E-05-9.17055E-06-1.45527E-18 8.98136E-19
 -1      2290 1.04289E-04-2.58096E-05-3.35571E-05-6.90377E-06-1.85831E-18 4.84769E-19
 -1      2291 1.09172E-04-2.91216E-05-3.43012E-05-1.10333E-05-1.54835E-18 5.48414E-19
 -1      2292 1.03136E-04-2.42555E-05-3.38336E-05-3.24837E-06-1.82816E-18-1.95875E-19
 -1      2293 1.02867E-04-2.37958E-05-3.38771E-05 2.09404E-07-1.92756E-18-3.96596E-19
 -1      2294 1.06039E-04-2.39277E-05-3.52496E-05-5.81553E-06-2.35887E-18-1.48760E-20
 -1      2295 1.03364E-04-2.44222E-05-3.37838E-05 4.39592E-06-2.27700E-18-7.02652E-19
 -1      2296 1.04363E-04-2.59101E-05-3.36945E-05 7.38214E-06-1.86155E-18-1.36041E-18
 -1      2297 1.05329E-04-2.27535E-05-3.54710E-05 2.64152E-06-2.17140E-18-4.94614E-19
 -1      2298 1.06066E-04-2.82143E-05-3.32852E-05 9.90203E-06-1.41487E-18-2.11069E-18
 -1      2299 1.07697E-04-3.06225E-05-3.31289E-05 1.11283E-05-1.17215E-18-2.19352E-18
 -1      2300 1.07711E-04-2.64703E-05-3.48477E-05 9.80114E-06-2.11476E-18-1.58310E-18
 -1      2301 1.09202E-04-3.30020E-05-3.26127E-05 1.11485E-05-6.09915E-19-2.53262E-18
 -1      2302 1.10628E-04-3.49992E-05-3.24770E-05 1.05084E-05 3.83603E-19-2.75383E-18
 -1      2303 1.11113E-04-3.23788E-05-3.37051E-05 1.22465E-05-8.99663E-19-2.36241E-18
 -1      2304 1.10965E-04-3.62300E-05-3.20475E-05 8.71135E-06 9.54033E-19-2.97800E-18
 -1      2305 1.11656E-04-3.71243E-05-3.19673E-05 7.00842E-06 1.36735E-18-2.47833E-18
 -1      2306 1.13072E-04-3.70546E-05-3.25498E-05 9.99886E-06 4.77893E-19-3.48562E-18
 -1      2307 1.10947E-04-3.71568E-05-3.16771E-05 4.65878E-06 1.46218E-18-2.32964E-18
 -1      2308 1.10905E-04-3.70874E-05-3.16269E-05 2.73117E-06 1.59137E-18-2.24645E-18
 -1      2309 1.12672E-04-3.87007E-05-3.16833E-05 5.50667E-06 1.43996E-18-3.27208E-18
 -1      2310 1.09622E-04-3.63660E-05-3.14553E-05 6.69338E-07 1.35492E-18-2.53165E-18
 -1      2311 1.09069E-04-3.57489E-05-3.14010E-05-9.36316E-07 8.40763E-19-2.56213E-18
 -1      2312 1.10614E-04-3.79630E-05-3.11422E-05 8.99066E-07 1.15579E-18-3.58881E-18
 -1      2313 1.07686E-04-3.47840E-05-3.12928E-05-2.35875E-06 2.32547E-19-2.87323E-18
 -1      2314 1.06874E-04-3.40036E-05-3.12084E-05-3.44081E-06 2.45110E-20-2.39127E-18
 -1      2315 1.07883E-04-3.59786E-05-3.08368E-05-2.63583E-06 3.82571E-19-3.81737E-18
 -1      2316 1.05648E-04-3.31123E-05-3.11186E-05-4.22957E-06-1.40983E-19-1.70392E-18
 -1      2317 1.04756E-04-3.23876E-05-3.09978E-05-4.80892E-06 2.58609E-19-1.54683E-18
 -1      2318 1.05234E-04-3.37790E-05-3.06452E-05-4.82751E-06 1.56656E-20-2.98635E-18
 -1      2319 1.03760E-04-3.16900E-05-3.09035E-05-5.10581E-06 5.05618E-19-1.35646E-18
 -1      2320 1.02891E-04-3.11040E-05-3.07541E-05-5.29497E-06 6.52053E-19-2.81866E-19
 -1      2321 1.02990E-04-3.19030E-05-3.04837E-05-5.87258E-06 3.23519E-19-1.97123E-18
 -1      2322 1.02114E-04-3.06105E-05-3.06488E-05-5.26002E-06 2.77350E-20-7.27341E-19
 -1      2323 1.01319E-04-3.01718E-05-3.04841E-05-5.18809E-06-3.76900E-19-7.09448E-19
 -1      2324 1.01206E-04-3.05066E-05-3.03127E-05-6.08847E-06 5.43442E-20-1.31204E-18
 -1      2325 1.00719E-04-2.98464E-05-3.03707E-05-4.95665E-06-1.82416E-19-9.70200E-21
 -1      2326 1.00019E-04-2.95328E-05-3.02041E-05-4.73362E-06-7.66610E-21-3.00188E-19
 -1      2327 9.98225E-05-2.95590E-05-3.01225E-05-5.77596E-06 1.17461E-19-1.37192E-18
 -1      2328 9.95555E-05-2.93299E-05-3.00888E-05-4.40480E-06-3.91319E-19-1.29275E-19
 -1      2329 9.89569E-05-2.91122E-05-2.99309E-05-4.11143E-06-5.81967E-20 3.87733E-20
 -1      2330 9.87557E-05-2.89613E-05-2.99191E-05-5.17064E-06-1.79373E-19-2.43941E-19
 -1      2331 9.85953E-05-2.89923E-05-2.98199E-05-3.75142E-06-2.76252E-19-2.75429E-19
 -1      2332 9.80951E-05-2.88444E-05-2.96774E-05-3.44106E-06-3.51304E-19-3.21442E-19
 -1      2333 9.79294E-05-2.86104E-05-2.97139E-05-4.43840E-06-5.65094E-19-2.10653E-19
 -1      2334 9.78116E-05-2.87780E-05-2.95754E-05-3.09049E-06-4.57478E-19-4.81905E-19
 -1      2335 9.74023E-05-2.86794E-05-2.94517E-05-2.79503E-06-8.65869E-19-4.03164E-20
 -1      2336 9.72852E-05-2.84223E-05-2.95175E-05-3.68686E-06-3.91822E-19-4.60571E-20
 -1      2337 9.71796E-05-2.86462E-05-2.93615E-05-2.47635E-06-1.21339E-18 5.31122E-19
 -1      2338 9.68512E-05-2.85819E-05-2.92576E-05-2.21251E-06-6.98195E-19 1.20652E-18
 -1      2339 9.67814E-05-2.83359E-05-2.93380E-05-2.97996E-06-8.69553E-19 7.46549E-19
 -1      2340 9.66768E-05-2.85685E-05-2.91804E-05-1.93601E-06-3.62781E-19 7.34452E-19
 -1      2341 9.64183E-05-2.85278E-05-2.90954E-05-1.71057E-06-2.69669E-19 6.67135E-19
 -1      2342 9.63877E-05-2.83101E-05-2.91798E-05-2.35109E-06-8.50828E-19 1.24708E-18
 -1      2343 9.62827E-05-2.85258E-05-2.90311E-05-1.47883E-06-7.26059E-19 7.83635E-19
 -1      2344 9.60832E-05-2.85012E-05-2.89633E-05-1.29251E-06-5.18632E-19 3.49281E-19
 -1      2345 9.60816E-05-2.83180E-05-2.90447E-05-1.81350E-06-6.86376E-19 1.35184E-18
 -1      2346 9.59789E-05-2.85052E-05-2.89110E-05-1.10362E-06-1.12995E-20 9.42422E-19
 -1      2347 9.58279E-05-2.84915E-05-2.88581E-05-9.53739E-07 1.11042E-18 1.33207E-18
 -1      2348 9.58457E-05-2.83429E-05-2.89325E-05-1.36794E-06 1.01354E-19 2.07278E-18
 -1      2349 9.57488E-05-2.84984E-05-2.88165E-05-8.03379E-07 9.37346E-19 8.83808E-19
 -1      2350 9.56370E-05-2.84918E-05-2.87762E-05-6.85586E-07 1.67393E-19 1.28739E-18
 -1      2351 9.56661E-05-2.83749E-05-2.88414E-05-1.00798E-06 7.19029E-19 1.32415E-18
 -1      2352 9.55780E-05-2.84997E-05-2.87438E-05-5.68422E-07-8.88942E-19 4.70196E-19
 -1      2353 9.54971E-05-2.84978E-05-2.87137E-05-4.77797E-07-7.52745E-19-3.65297E-19
 -1      2354 9.55314E-05-2.84080E-05-2.87691E-05-7.23612E-07-5.40223E-19 9.02348E-19
 -1      2355 9.54540E-05-2.85056E-05-2.86890E-05-3.88322E-07 2.45235E-19-3.37282E-19
 -1      2356 9.53972E-05-2.85066E-05-2.86671E-05-3.20013E-07 4.98800E-21 3.10217E-20
 -1      2357 9.54323E-05-2.84392E-05-2.87129E-05-5.03541E-07-4.86571E-19 1.53885E-19
 -1      2358 9.53664E-05-2.85138E-05-2.86488E-05-2.53037E-07-6.47530E-19 3.89411E-21
 -1      2359 9.53280E-05-2.85165E-05-2.86333E-05-2.02615E-07-8.02146E-19 7.92967E-19
 -1      2360 9.53609E-05-2.84670E-05-2.86701E-05-3.36579E-07-1.82789E-19 1.25852E-18
 -1      2361 9.53067E-05-2.85229E-05-2.86199E-05-1.53529E-07-1.08806E-18 8.97522E-19
 -1      2362 9.52820E-05-2.85264E-05-2.86093E-05-1.17154E-07-3.29446E-19 9.57283E-19
 -1      2363 9.53109E-05-2.84907E-05-2.86382E-05-2.12450E-07-3.94852E-19 2.07023E-18
 -1      2364 9.52678E-05-2.85320E-05-2.85998E-05-8.20390E-08-3.76130E-19 8.99718E-19
 -1      2365 9.52531E-05-2.85359E-05-2.85929E-05-5.65223E-08 6.75062E-20 6.20491E-19
 -1      2366 9.52771E-05-2.85106E-05-2.86150E-05-1.22181E-07-7.30415E-19 2.65930E-18
 -1      2367 9.52443E-05-2.85407E-05-2.85864E-05-3.21752E-08 1.19167E-18-7.89903E-20
 -1      2368 9.52367E-05-2.85448E-05-2.85822E-05-1.49748E-08 1.67937E-18 5.39873E-19
 -1      2369 9.52555E-05-2.85270E-05-2.85985E-05-5.82653E-08 1.66787E-19 2.22162E-18
 -1      2370 9.52317E-05-2.85489E-05-2.85778E-05 1.12053E-09 1.13581E-18 1.79148E-19
 -1      2371 9.52291E-05-2.85530E-05-2.85754E-05 1.19322E-08 1.30025E-18 1.48050E-18
 -1      2372 9.52427E-05-2.85406E-05-2.85870E-05-1.46556E-08 1.46279E-18 1.70374E-18
 -1      2373 9.52268E-05-2.85568E-05-2.85725E-05 2.16428E-08 1.05809E-18 1.93737E-18
 -1      2374 9.52274E-05-2.85609E-05-2.85713E-05 2.74025E-08 9.71769E-19 2.14704E-18
 -1      2375 9.52362E-05-2.85522E-05-2.85792E-05 1.33142E-08 1.52741E-18 8.38400E-19
 -1      2376 9.52271E-05-2.85647E-05-2.85694E-05 3.20693E-08 8.41848E-19 1.48210E-18
 -1      2377 9.52295E-05-2.85688E-05-2.85689E-05 3.35376E-08 9.83730E-19 1.87750E-18
 -1      2378 9.52342E-05-2.85625E-05-2.85738E-05 2.90260E-08 4.64544E-19 5.47429E-19
 -1      2379 5.64196E-05-3.73699E-05-8.09862E-06 4.05417E-05-2.09365E-18 5.20968E-18
 -1      2380 4.17128E-05-3.02826E-05-4.62986E-06 3.35835E-05-1.98417E-18 5.61943E-18
 -1      2381 9.81483E-05-2.85629E-05-2.97990E-05-4.40575E-06 8.33457E-19-8.54288E-19
 -1      2382 9.75291E-05-2.82787E-05-2.96518E-05-3.76163E-06 9.30204E-19-6.26723E-19
 -1      2383 9.94335E-05-2.91052E-05-3.01212E-05-5.63384E-06 7.41645E-19-7.84307E-19
 -1      2384 9.85478E-05-2.87605E-05-2.98925E-05-5.11415E-06 9.10748E-19-8.12262E-19
 -1      2385 9.79834E-05-2.81864E-05-2.99313E-05-5.37911E-06 9.96864E-19-1.00268E-18
 -1      2386 1.01129E-04-2.97973E-05-3.05575E-05-6.60306E-06 3.45170E-19-7.89823E-19
 -1      2387 1.00027E-04-2.93616E-05-3.02744E-05-6.20538E-06 4.57021E-19-7.93509E-19
 -1      2388 9.89964E-05-2.87286E-05-3.01312E-05-6.78331E-06 6.77504E-19-9.56080E-19
 -1      2389 1.03192E-04-3.07230E-05-3.10553E-05-7.23490E-06 5.11536E-19-4.00703E-19
 -1      2390 1.01919E-04-3.01620E-05-3.07448E-05-7.01778E-06 4.49673E-19-4.79768E-19
 -1      2391 1.00397E-04-2.94546E-05-3.04200E-05-7.87574E-06 2.95552E-19-9.23438E-19
 -1      2392 1.05585E-04-3.19777E-05-3.15598E-05-7.32110E-06 8.18305E-20-1.72762E-19
 -1      2393 1.04201E-04-3.12571E-05-3.12533E-05-7.40631E-06 4.20418E-19-1.02169E-19
 -1      2394 1.02220E-04-3.05144E-05-3.07491E-05-8.55214E-06 1.33029E-19-5.06538E-19
 -1      2395 1.08251E-04-3.36370E-05-3.20147E-05-6.52324E-06 1.72292E-19 1.53442E-19
 -1      2396 1.06852E-04-3.27473E-05-3.17486E-05-7.08928E-06 2.44273E-19 1.12923E-19
 -1      2397 1.04537E-04-3.20751E-05-3.10781E-05-8.56496E-06 9.27112E-20-1.14579E-19
 -1      2398 1.11055E-04-3.56590E-05-3.23761E-05-4.42266E-06 4.37228E-19 1.33522E-19
 -1      2399 1.09805E-04-3.46736E-05-3.21849E-05-5.66159E-06 2.41140E-19 1.85975E-19
 -1      2400 1.07429E-04-3.42620E-05-3.13857E-05-7.52081E-06 3.40185E-19 1.19255E-19
 -1      2401 1.13664E-04-3.76942E-05-3.26420E-05-6.97619E-07 5.28264E-19 5.41276E-19
 -1      2402 1.12834E-04-3.68665E-05-3.25426E-05-2.69571E-06 4.40993E-19 3.56126E-19
 -1      2403 1.10873E-04-3.69908E-05-3.16934E-05-4.93529E-06 3.17915E-19 4.16469E-19
 -1      2404 1.15421E-04-3.88660E-05-3.28844E-05 4.48200E-06 6.84826E-19 1.20410E-18
 -1      2405 1.15379E-04-3.87066E-05-3.28578E-05 1.96099E-06 6.62899E-19 1.13653E-18
 -1      2406 1.14517E-04-3.96629E-05-3.20966E-05-4.48924E-07 2.67365E-19 1.32711E-18
 -1      2407 1.15382E-04-3.78514E-05-3.32505E-05 9.84835E-06 8.43142E-19 1.10267E-18
 -1      2408 1.16445E-04-3.89742E-05-3.32332E-05 7.61396E-06 9.11474E-19 1.41440E-18
 -1      2409 1.17401E-04-4.09000E-05-3.27687E-05 5.65200E-06 7.10532E-19 1.70805E-18
 -1      2410 1.12894E-04-3.37682E-05-3.38682E-05 1.27335E-05 1.12171E-18 3.82912E-19
 -1      2411 1.14954E-04-3.63169E-05-3.37981E-05 1.21244E-05 9.31088E-19 1.01083E-18
 -1      2412 1.18019E-04-3.88071E-05-3.38960E-05 1.16590E-05 1.18936E-18 1.91066E-18
 -1      2413 1.08908E-04-2.79839E-05-3.46197E-05 1.01517E-05 2.14373E-18-5.10844E-19
 -1      2414 1.11041E-04-3.08284E-05-3.45111E-05 1.22251E-05 1.50907E-18-1.75653E-19
 -1      2415 1.15474E-04-3.28172E-05-3.54213E-05 1.40055E-05 1.90626E-18 1.28247E-18
 -1      2416 1.06321E-04-2.43968E-05-3.51263E-05 1.88357E-06 2.26531E-18-1.44888E-18
 -1      2417 1.07148E-04-2.55319E-05-3.50704E-05 6.09476E-06 2.36981E-18-9.22981E-19
 -1      2418 1.11407E-04-2.57161E-05-3.68290E-05 9.41896E-06 2.38209E-18 7.11528E-19
 -1      2419 1.07651E-04-2.61123E-05-3.50546E-05-7.71216E-06 1.81490E-18-2.10878E-18
 -1      2420 1.06536E-04-2.46094E-05-3.50989E-05-3.69467E-06 2.49626E-18-1.90725E-18
 -1      2421 1.09618E-04-2.27855E-05-3.73651E-05-1.07967E-06 2.56810E-18-5.82181E-19
 -1      2422 1.11931E-04-3.17500E-05-3.44970E-05-1.30306E-05 3.67705E-19-3.13341E-18
 -1      2423 1.09650E-04-2.88113E-05-3.45802E-05-1.13685E-05 1.10620E-18-2.78714E-18
 -1      2424 1.12046E-04-2.65886E-05-3.67138E-05-1.10259E-05 1.70836E-18-1.70685E-18
 -1      2425 1.15755E-04-3.69700E-05-3.38328E-05-1.21673E-05-5.26745E-19-3.94088E-18
 -1      2426 1.13696E-04-3.45977E-05-3.38670E-05-1.30629E-05-1.27743E-19-3.59679E-18
 -1      2427 1.16232E-04-3.38970E-05-3.52735E-05-1.45944E-05 6.61361E-19-2.97135E-18
 -1      2428 1.16986E-04-3.91797E-05-3.33579E-05-7.39261E-06 3.24705E-19-3.66136E-18
 -1      2429 1.15967E-04-3.82607E-05-3.33391E-05-9.65584E-06-2.09747E-19-3.92670E-18
 -1      2430 1.18455E-04-3.94461E-05-3.38234E-05-1.14841E-05-2.42864E-19-3.71278E-18
 -1      2431 1.15811E-04-3.86464E-05-3.30568E-05-1.87590E-06-2.24828E-19-2.59720E-18
 -1      2432 1.15858E-04-3.89093E-05-3.30578E-05-4.25243E-06 5.83692E-19-2.92120E-18
 -1      2433 1.17536E-04-4.09541E-05-3.28184E-05-5.40582E-06-1.77475E-19-3.19303E-18
 -1      2434 1.13332E-04-3.67501E-05-3.28002E-05 2.46927E-06-1.78686E-18-1.92479E-18
 -1      2435 1.14106E-04-3.75794E-05-3.28770E-05 6.70676E-07-8.46715E-19-2.29940E-18
 -1      2436 1.14586E-04-3.94137E-05-3.22420E-05 4.40778E-07-8.69430E-19-1.37421E-18
 -1      2437 1.10493E-04-3.46337E-05-3.24952E-05 5.10761E-06-1.79940E-18-2.20827E-18
 -1      2438 1.11635E-04-3.55601E-05-3.26607E-05 4.04847E-06-2.03724E-18-2.27922E-18
 -1      2439 1.11066E-04-3.66964E-05-3.19063E-05 4.54450E-06-1.66977E-18-1.15839E-18
 -1      2440 1.07791E-04-3.28416E-05-3.21110E-05 6.26850E-06-1.07774E-18-2.46768E-18
 -1      2441 1.09048E-04-3.36478E-05-3.23462E-05 5.83150E-06-1.50802E-18-2.35555E-18
 -1      2442 1.07835E-04-3.40636E-05-3.16448E-05 6.77797E-06-1.46033E-18-2.48281E-18
 -1      2443 1.05404E-04-3.15014E-05-3.16663E-05 6.40828E-06-4.54918E-19-1.52135E-18
 -1      2444 1.06630E-04-3.21320E-05-3.19387E-05 6.39498E-06-1.15698E-18-2.53906E-18
 -1      2445 1.05171E-04-3.20263E-05-3.13681E-05 7.56119E-06-1.29262E-18-2.07867E-18
 -1      2446 1.03363E-04-3.05577E-05-3.11983E-05 5.94888E-06 2.05038E-19 1.62487E-20
 -1      2447 1.04481E-04-3.10275E-05-3.14774E-05 6.17915E-06 1.90206E-19-1.15605E-18
 -1      2448 1.03055E-04-3.06267E-05-3.10543E-05 7.40290E-06-4.11889E-19-1.83984E-18
 -1      2449 1.01648E-04-2.99099E-05-3.07420E-05 5.19980E-06 9.85255E-21 9.51905E-19
 -1      2450 1.02625E-04-3.02530E-05-3.10059E-05 5.54276E-06 3.82574E-19 6.95092E-19
 -1      2451 1.01380E-04-2.97317E-05-3.07159E-05 6.71960E-06-2.30541E-19-1.24630E-18
 -1      2452 1.00226E-04-2.94677E-05-3.03225E-05 4.35987E-06-7.59114E-19 2.38289E-18
 -1      2453 1.01053E-04-2.97167E-05-3.05581E-05 4.73260E-06-1.44515E-19 2.02270E-18
 -1      2454 1.00044E-04-2.91852E-05-3.03752E-05 5.80185E-06-5.05409E-19 9.27023E-19
 -1      2455 9.90623E-05-2.91647E-05-2.99537E-05 3.54357E-06 1.83905E-19 1.41739E-18
 -1      2456 9.97436E-05-2.93451E-05-3.01555E-05 3.89941E-06 1.25348E-19 2.24307E-18
 -1      2457 9.89702E-05-2.88620E-05-3.00524E-05 4.83181E-06-5.73166E-19 2.18804E-18
 -1      2458 9.81226E-05-2.89558E-05-2.96406E-05 2.80883E-06 6.36714E-19 1.11662E-19
 -1      2459 9.86718E-05-2.90861E-05-2.98080E-05 3.12509E-06 1.02984E-19 4.87054E-19
 -1      2460 9.81053E-05-2.86759E-05-2.97608E-05 3.91268E-06 4.94180E-19 7.97909E-19
 -1      2461 9.73752E-05-2.88114E-05-2.93823E-05 2.17868E-06 9.69671E-20-6.67056E-19
 -1      2462 9.78090E-05-2.89050E-05-2.95175E-05 2.44721E-06 5.71516E-19 3.15436E-19
 -1      2463 9.74113E-05-2.85721E-05-2.95074E-05 3.09539E-06 6.39346E-19 5.51768E-19
 -1      2464 9.67899E-05-2.87120E-05-2.91743E-05 1.65619E-06 6.63910E-19-2.91976E-19
 -1      2465 9.71263E-05-2.87784E-05-2.92810E-05 1.87695E-06-6.81394E-20-1.02789E-18
 -1      2466 9.68593E-05-2.85171E-05-2.92938E-05 2.39861E-06 4.61477E-19 1.27759E-18
 -1      2467 9.63391E-05-2.86444E-05-2.90103E-05 1.23399E-06 1.25208E-18-1.30027E-19
 -1      2468 9.65950E-05-2.86907E-05-2.90929E-05 1.41103E-06 1.27667E-18-3.36064E-19
 -1      2469 9.64254E-05-2.84911E-05-2.91185E-05 1.82251E-06 6.93878E-19 1.63688E-18
 -1      2470 9.59980E-05-2.85996E-05-2.88835E-05 8.99988E-07 1.24054E-18 1.08634E-18
 -1      2471 9.61890E-05-2.86311E-05-2.89462E-05 1.03907E-06 1.20682E-18 5.62599E-19
 -1      2472 9.60892E-05-2.84820E-05-2.89778E-05 1.35756E-06 4.79432E-19 5.32557E-19
 -1      2473 9.57448E-05-2.85711E-05-2.87875E-05 6.40654E-07 4.03804E-19 1.55085E-18
 -1      2474 9.58843E-05-2.85917E-05-2.88340E-05 7.47922E-07 1.20309E-18 1.39128E-18
 -1      2475 9.58329E-05-2.84828E-05-2.88671E-05 9.89863E-07 9.31680E-19 1.06408E-18
 -1      2476 9.55609E-05-2.85541E-05-2.87162E-05 4.42783E-07 1.36476E-19 9.66660E-19
 -1      2477 9.56604E-05-2.85668E-05-2.87500E-05 5.24087E-07-1.91542E-20 1.71394E-18
 -1      2478 9.56411E-05-2.84891E-05-2.87817E-05 7.04341E-07 4.36066E-19 2.09729E-18
 -1      2479 9.54307E-05-2.85452E-05-2.86644E-05 2.94394E-07-8.73652E-20 4.16205E-19
 -1      2480 9.54996E-05-2.85523E-05-2.86884E-05 3.54954E-07 9.00649E-19 8.40666E-19
 -1      2481 9.55006E-05-2.84982E-05-2.87171E-05 4.86429E-07 4.94403E-19 1.50509E-18
 -1      2482 9.53416E-05-2.85418E-05-2.86278E-05 1.85091E-07-4.42125E-19-6.84310E-19
 -1      2483 9.53874E-05-2.85451E-05-2.86443E-05 2.29381E-07-1.12937E-18-3.13293E-19
 -1      2484 9.54000E-05-2.85084E-05-2.86693E-05 3.22959E-07-8.30551E-20 1.58301E-20
 -1      2485 9.52832E-05-2.85421E-05-2.86028E-05 1.06156E-07-1.31184E-19-1.02346E-18
 -1      2486 9.53120E-05-2.85428E-05-2.86136E-05 1.37886E-07-2.37573E-19-7.79876E-19
 -1      2487 9.53303E-05-2.85187E-05-2.86347E-05 2.02526E-07-1.01815E-19-7.66685E-20
 -1      2488 9.52474E-05-2.85448E-05-2.85864E-05 5.04877E-08 3.15885E-19-6.11210E-19
 -1      2489 9.52639E-05-2.85437E-05-2.85931E-05 7.26479E-08 6.02404E-19-5.86375E-19
 -1      2490 9.52838E-05-2.85286E-05-2.86102E-05 1.15572E-07-4.27579E-20-1.07858E-18
 -1      2491 9.52278E-05-2.85490E-05-2.85763E-05 1.24765E-08 4.09629E-19-6.58457E-19
 -1      2492 9.52356E-05-2.85468E-05-2.85800E-05 2.73986E-08 3.16387E-19-6.39217E-20
 -1      2493 9.52546E-05-2.85378E-05-2.85935E-05 5.43249E-08 4.19823E-19-1.13825E-18
 -1      2494 9.52195E-05-2.85542E-05-2.85707E-05-1.21508E-08 5.53875E-19-2.11130E-19
 -1      2495 9.52214E-05-2.85513E-05-2.85723E-05-2.72295E-09 2.63052E-19-3.91427E-19
 -1      2496 9.52378E-05-2.85463E-05-2.85825E-05 1.26622E-08 8.97255E-20-8.22628E-19
 -1      2497 9.52186E-05-2.85599E-05-2.85679E-05-2.64590E-08-3.45097E-19-1.56396E-20
 -1      2498 9.52168E-05-2.85566E-05-2.85683E-05-2.13277E-08-5.78380E-20 3.16526E-19
 -1      2499 9.52298E-05-2.85543E-05-2.85756E-05-1.40794E-08-1.47609E-19-3.42903E-19
 -1      2500 9.52224E-05-2.85663E-05-2.85669E-05-3.24632E-08 8.04344E-19-1.40461E-18
 -1      2501 9.52184E-05-2.85626E-05-2.85666E-05-3.09463E-08 5.71877E-19-4.48619E-19
 -1      2502 9.52278E-05-2.85618E-05-2.85713E-05-2.92383E-08 4.00299E-19-6.63208E-19
 -1      2503 9.52285E-05-2.85732E-05-2.85666E-05-3.11895E-08 1.07440E-19-1.17735E-18
 -1      2504 9.52238E-05-2.85692E-05-2.85661E-05-3.28558E-08 2.97557E-19-6.83573E-19
 -1      2505 9.52300E-05-2.85700E-05-2.85687E-05-3.51955E-08 4.53789E-19-8.66465E-19
 -1      2506 9.52311E-05-2.85767E-05-2.85662E-05-2.77918E-08-5.85851E-20-1.35297E-18
 -1      2507 9.52500E-05-2.85900E-05-2.85686E-05-1.83068E-08-1.50960E-19 1.04126E-18
 -1      2508 9.52493E-05-2.85885E-05-2.85688E-05-2.17313E-08-7.09877E-19-2.52820E-18
 -1      2509 9.52498E-05-2.85897E-05-2.85686E-05-1.11257E-08 1.11601E-18 2.37161E-18
 -1      2510 9.52497E-05-2.85888E-05-2.85688E-05-1.45835E-08 4.19550E-19 2.33015E-18
 -1      2511 9.52481E-05-2.85763E-05-2.85736E-05-1.64278E-08 1.04771E-18 2.14798E-18
 -1      2512 9.52457E-05-2.85869E-05-2.85681E-05-3.11863E-08-1.82346E-18 2.13218E-19
 -1      2513 9.52425E-05-2.85834E-05-2.85682E-05-3.25552E-08-1.60942E-18-4.16591E-19
 -1      2514 9.52490E-05-2.85893E-05-2.85685E-05-2.54356E-08-2.24920E-18-3.06685E-18
 -1      2515 9.52473E-05-2.85869E-05-2.85687E-05-2.82012E-08-2.34210E-18-1.27584E-18
 -1      2516 9.52456E-05-2.85790E-05-2.85714E-05-3.06811E-08-1.66812E-18-1.56349E-18
 -1      2517 9.52481E-05-2.85783E-05-2.85727E-05-2.39328E-08-1.10855E-18-1.79615E-18
 -1      2518 9.52492E-05-2.85890E-05-2.85687E-05-4.42957E-09-4.97877E-19 1.61870E-18
 -1      2519 9.52493E-05-2.85887E-05-2.85688E-05-7.71383E-09 1.99161E-19 1.38028E-18
 -1      2520 9.52472E-05-2.85741E-05-2.85741E-05-9.25431E-09 2.78483E-19 1.17184E-18
 -1      2521 9.52490E-05-2.85886E-05-2.85687E-05 1.89417E-09 1.60015E-20 9.04867E-19
 -1      2522 9.52490E-05-2.85886E-05-2.85687E-05-1.28632E-09-4.97286E-19 1.49741E-18
 -1      2523 9.52464E-05-2.85728E-05-2.85743E-05-2.75080E-09-8.46090E-20 1.69642E-18
 -1      2524 9.52491E-05-2.85885E-05-2.85688E-05 8.25188E-09-9.31623E-19-4.66159E-19
 -1      2525 9.52491E-05-2.85889E-05-2.85687E-05 5.01072E-09-6.30382E-19-2.75756E-19
 -1      2526 9.52463E-05-2.85727E-05-2.85743E-05 3.42133E-09 3.77261E-19 6.67632E-19
 -1      2527 9.52494E-05-2.85885E-05-2.85689E-05 1.48510E-08-1.66673E-18-3.79788E-18
 -1      2528 9.52496E-05-2.85894E-05-2.85687E-05 1.15359E-08-9.78480E-19-2.27675E-18
 -1      2529 9.52470E-05-2.85739E-05-2.85741E-05 9.76132E-09-9.83205E-19-1.64276E-18
 -1      2530 9.52490E-05-2.85881E-05-2.85689E-05 2.18068E-08 1.44447E-19-1.25750E-19
 -1      2531 9.52497E-05-2.85896E-05-2.85686E-05 1.84645E-08-6.45799E-19-2.49817E-18
 -1      2532 9.52478E-05-2.85759E-05-2.85736E-05 1.66871E-08-4.59807E-19-2.42940E-18
 -1      2533 9.52470E-05-2.85866E-05-2.85687E-05 2.81609E-08 6.69814E-19 1.43125E-19
 -1      2534 9.52487E-05-2.85889E-05-2.85685E-05 2.53677E-08-1.31366E-19 5.97690E-19
 -1      2535 9.52477E-05-2.85778E-05-2.85727E-05 2.40855E-08 3.31016E-19-8.51132E-19
 -1      2536 9.52422E-05-2.85831E-05-2.85682E-05 3.21535E-08 4.02087E-19 1.48837E-18
 -1      2537 9.52453E-05-2.85864E-05-2.85681E-05 3.09490E-08 7.98363E-19-5.07757E-19
 -1      2538 9.52453E-05-2.85787E-05-2.85715E-05 3.05479E-08 5.24255E-19 2.38970E-19
 -1      2539 9.52360E-05-2.85811E-05-2.85664E-05 3.06457E-08-1.77413E-19 2.33866E-18
 -1      2540 1.30727E-04-5.80796E-05-3.13518E-05 2.45003E-05 2.97732E-19-5.39984E-20
 -1      2541 1.14872E-04-5.74773E-05-2.45485E-05 3.08086E-05-1.42471E-18 2.28709E-18
 -1      2542 9.73338E-05-2.80917E-05-2.96484E-05-2.87298E-06 1.08332E-18-6.21874E-19
 -1      2543 9.70480E-05-2.78323E-05-2.96184E-05-2.03344E-06 1.19636E-18-4.50954E-19
 -1      2544 9.73563E-05-2.76909E-05-2.98766E-05-3.63389E-06 1.15309E-18-8.84831E-19
 -1      2545 9.52372E-05-5.22651E-05-1.85571E-05 4.06430E-05-2.50574E-18 4.56953E-18
 -1      2546 7.56398E-05-4.60381E-05-1.25726E-05 4.07088E-05-3.31571E-18 4.43464E-18
 -1      2547 3.43827E-05-2.71167E-05-2.91947E-06-3.00192E-05 1.40650E-18 6.89654E-18
 -1      2548 4.90828E-05-3.32069E-05-6.70881E-06-3.93497E-05 4.53163E-19 4.54560E-18
 -1      2549 2.05999E-05-1.85447E-05-5.33516E-07-1.18336E-05-2.59933E-20 7.60339E-18
 -1      2550 2.58005E-05-2.21468E-05-1.26194E-06-2.27978E-05 4.97208E-19 7.69868E-18
 -1      2551 3.83295E-05-2.27203E-05-6.24639E-06-2.79238E-05 1.59136E-18 6.35063E-18
 -1      2552 1.46401E-04-3.17608E-05-4.97865E-05-5.15246E-06-4.67562E-18 3.41990E-19
 -1      2553 1.47143E-04-4.09997E-05-4.56098E-05 1.54444E-06-4.38530E-18 2.47122E-19
 -1      2554 8.58661E-05-4.98584E-05-1.52297E-05-4.06507E-05-1.14265E-18-3.42519E-18
 -1      2555 1.05252E-04-5.56636E-05-2.14217E-05-3.83887E-05 1.02491E-19-2.12822E-18
 -1      2556 8.56677E-05-8.78375E-06-3.29849E-05-9.53433E-07-8.66360E-19-4.05700E-18
 -1      2557 8.59246E-05-8.99418E-06-3.29986E-05-1.77871E-06-1.23780E-18-3.97309E-18
 -1      2558 8.71712E-05-1.09166E-05-3.26768E-05-1.80962E-06-1.32550E-18-3.64145E-18
 -1      2559 8.65803E-05-1.03403E-05-3.26707E-05-5.13942E-07-7.84056E-19-3.82072E-18
 -1      2560 1.45409E-04-1.31715E-05-5.72049E-05-4.55225E-06 6.74789E-18-3.03555E-19
 -1      2561 1.48594E-04-1.94309E-05-5.55311E-05-6.69136E-06 5.65649E-18-8.20140E-19
 -1      2562 1.42988E-04-5.05068E-05-3.98040E-05-3.10359E-06 2.73275E-18 2.01149E-18
 -1      2563 1.48219E-04-4.12688E-05-4.62777E-05 3.42198E-06 4.60299E-18 2.53877E-18
 -1      2564 1.45575E-04-1.41982E-05-5.67499E-05 4.53363E-06 7.15616E-18 1.43636E-18
 -1      2565 1.43759E-04-1.15271E-05-5.72206E-05 6.13732E-07 6.78389E-18 8.41752E-19
 -1      2566 2.15737E-05-2.09516E-05-1.75472E-07 1.68060E-05-3.35954E-19-8.37927E-18
 -1      2567 1.85848E-05-1.76958E-05-1.05650E-07 3.91418E-06-7.37819E-19-8.16921E-18
 -1      2568 1.47113E-04-2.79078E-05-5.14378E-05 7.07451E-06 6.17656E-18 2.29991E-18
 -1      2569 1.48299E-04-2.01295E-05-5.54070E-05 6.19693E-06 7.04943E-18 2.07925E-18
 -1      2570 1.21693E-04-5.89085E-05-2.68301E-05-2.78990E-05 5.40831E-19-3.50883E-19
 -1      2571 1.35394E-04-5.83871E-05-3.34331E-05-1.77575E-05 1.11184E-18 1.15938E-18
 -1      2572 5.08476E-05-3.36486E-05-6.99723E-06-3.70874E-05-1.34763E-18-4.85498E-18
 -1      2573 6.61671E-05-4.09258E-05-1.07798E-05-4.25844E-05-8.39410E-19-4.32252E-18
 -1      2574 1.46088E-04-2.26704E-05-5.32574E-05 5.68636E-06-7.02042E-18-1.75336E-18
 -1      2575 1.48306E-04-1.71545E-05-5.66020E-05 4.58741E-06-7.50090E-18-2.25713E-18
 -1      2576 2.28760E-05-1.91902E-05-1.17302E-06-1.28475E-05-1.02057E-18-7.59767E-18
 -1      2577 3.33489E-05-2.44135E-05-3.61034E-06-2.83585E-05-1.20088E-18-6.54036E-18
 -1      2578 4.58735E-05-3.29864E-05-5.46719E-06 3.82941E-05 4.44904E-19-7.06849E-18
 -1      2579 3.14430E-05-2.63397E-05-2.00135E-06 2.79113E-05 6.79744E-19-8.00594E-18
 -1      2580 7.94882E-05-4.68021E-05-1.43003E-05 4.38899E-05 7.78635E-19-4.00551E-18
 -1      2581 6.19508E-05-4.06412E-05-8.90842E-06 4.11297E-05 8.35174E-19-5.60090E-18
 -1      2582 5.87491E-05-3.51412E-05-9.71749E-06 3.95903E-05 1.96130E-18-5.91462E-18
 -1      2583 1.23471E-04-5.83123E-05-2.82140E-05 2.95077E-05-2.49875E-19-1.11650E-18
 -1      2584 1.05235E-04-5.54934E-05-2.09610E-05 3.61821E-05 7.73341E-19-2.28519E-18
 -1      2585 1.44318E-04-4.93668E-05-4.09931E-05 1.01951E-05-3.60915E-18 3.37119E-19
 -1      2586 1.35119E-04-5.49237E-05-3.44231E-05 1.61478E-05-1.86448E-18 2.84603E-19
 -1      2587 1.42317E-04-4.69867E-05-4.08117E-05-9.32672E-07-2.54915E-18 1.81858E-18
 -1      2588 1.40884E-04-1.49917E-05-5.45267E-05-5.59219E-06-6.05819E-18-9.21148E-20
 -1      2589 1.40758E-04-2.02062E-05-5.21673E-05-8.23339E-06-5.17495E-18 1.95665E-19
 -1      2590 1.46351E-04-1.18039E-05-5.79435E-05 2.01790E-06-7.51064E-18-1.45875E-18
 -1      2591 1.41868E-04-1.03569E-05-5.70220E-05-1.14795E-06-7.24637E-18-1.42566E-18
 -1      2592 1.31358E-04-1.12584E-05-5.17918E-05-5.45654E-06-5.89789E-18 9.79382E-21
 -1      2593 1.35190E-04-1.19607E-05-5.29877E-05 5.95774E-06-6.95118E-18-2.14289E-18
 -1      2594 1.45809E-04-4.18290E-05-4.47361E-05-2.26710E-06-5.01661E-18-2.07692E-18
 -1      2595 1.48506E-04-3.41141E-05-4.95216E-05 2.50166E-06-5.47099E-18-1.97930E-18
 -1      2596 1.32577E-04-5.44956E-05-3.36075E-05-2.01108E-05-2.90850E-18-2.32934E-19
 -1      2597 1.42310E-04-5.06723E-05-3.96513E-05-1.23495E-05-4.08249E-18-1.23688E-18
 -1      2598 1.08816E-04-5.53765E-05-2.28099E-05-3.44810E-05-1.50200E-18-2.94344E-20
 -1      2599 1.23466E-04-5.63346E-05-2.88906E-05-2.99413E-05-2.18640E-18 2.28064E-19
 -1      2600 1.31279E-04-5.84105E-05-3.10851E-05-1.90265E-05-1.49406E-18-1.12444E-18
 -1      2601 6.89849E-05-4.30290E-05-1.09463E-05-4.16694E-05 2.20017E-19 2.88870E-18
 -1      2602 8.84048E-05-4.94809E-05-1.68042E-05-4.27726E-05-5.40407E-19 1.43559E-18
 -1      2603 9.62060E-05-2.02207E-05-3.26066E-05-9.81093E-06-3.40806E-18 5.86385E-19
 -1      2604 9.68652E-05-2.35639E-05-3.14333E-05-5.90106E-06-3.05351E-18 8.30696E-19
 -1      2605 9.62150E-05-2.25443E-05-3.15607E-05-5.27028E-06-2.85654E-18-1.35823E-21
 -1      2606 9.41151E-05-1.76539E-05-3.27892E-05-9.33018E-06-3.44064E-18-4.54116E-19
 -1      2607 9.79947E-05-2.54742E-05-3.10947E-05 5.80123E-06 3.11005E-18 5.74308E-19
 -1      2608 9.88333E-05-2.41377E-05-3.20299E-05 8.98938E-06 3.30070E-18 9.67669E-19
 -1      2609 9.72002E-05-2.16188E-05-3.24475E-05 1.00261E-05 3.54182E-18-1.38013E-19
 -1      2610 9.73911E-05-2.43724E-05-3.13287E-05 5.48849E-06 3.04810E-18-5.47765E-19
 -1      2611 1.48708E-04-4.77010E-05-4.35634E-05 7.60866E-06 3.15802E-18-6.20452E-20
 -1      2612 1.39845E-04-5.29651E-05-3.73697E-05 1.35050E-05 1.71143E-18-4.29446E-19
 -1      2613 1.42968E-04-2.44874E-05-5.09988E-05-9.64845E-06 4.77981E-18-1.64981E-18
 -1      2614 9.00204E-05-1.38213E-05-3.26453E-05-4.70736E-06-2.36712E-18-3.05653E-18
 -1      2615 8.92714E-05-1.23294E-05-3.30324E-05-5.96125E-06-2.55892E-18-3.10303E-18
 -1      2616 9.02850E-05-1.32695E-05-3.30600E-05-7.08580E-06-2.93064E-18-2.62108E-18
 -1      2617 9.71182E-05-2.70688E-05-3.00399E-05-1.37986E-06 1.56313E-18-9.12261E-19
 -1      2618 9.53608E-05-1.92412E-05-3.26677E-05 9.59343E-06 3.35060E-18-1.39792E-18
 -1      2619 1.46726E-04-4.42710E-05-4.39505E-05-3.10412E-06 2.88685E-18-1.64388E-18
 -1      2620 9.26400E-05-1.60581E-05-3.28652E-05-8.28428E-06-3.15277E-18-1.40247E-18
 -1      2621 1.04417E-04-5.45442E-05-2.10963E-05-3.59120E-05 2.11758E-19 6.03511E-21
 -1      2622 3.66059E-05-2.50661E-05-4.58249E-06 2.82254E-05-1.63827E-18 5.59254E-18
 -1      2623 3.27492E-05-1.85126E-05-5.51751E-06 2.14323E-05-1.43053E-18 5.95803E-18
 -1      2624 4.86271E-05-2.70296E-05-8.90754E-06 3.22582E-05-2.35666E-18 4.55725E-18
 -1      2625 1.10839E-04-5.68911E-05-2.28061E-05 3.23122E-05-2.70331E-18 2.70987E-18
 -1      2626 7.36392E-05-4.22342E-05-1.31096E-05 4.01576E-05-3.35785E-18 3.84765E-18
 -1      2627 9.52341E-05-2.85780E-05-2.85670E-05-3.24197E-08-3.22517E-19-4.81575E-19
 -1      2628 1.37404E-04-2.68349E-05-4.76723E-05-9.50417E-06-4.24946E-18 1.25403E-18
 -1      2629 9.52377E-05-2.85808E-05-2.85672E-05-3.33224E-08-8.25125E-19-2.61523E-19
 -1      2630 9.52326E-05-2.85750E-05-2.85676E-05 3.24427E-08 6.18973E-19 2.46154E-18
 -1      2631 9.52391E-05-2.85811E-05-2.85678E-05 3.38396E-08 6.89486E-19 9.46714E-19
 -1      2632 9.52395E-05-2.85761E-05-2.85700E-05 3.44108E-08 7.52011E-19 1.19827E-18
 -1      2633 9.52298E-05-2.85714E-05-2.85678E-05 3.42393E-08 1.00347E-18 3.06134E-18
 -1      2634 9.78905E-05-5.21794E-05-1.91954E-05 3.79781E-05 1.97105E-18-2.31857E-18
 -1      2635 1.36978E-04-5.84496E-05-3.36988E-05 1.28492E-05-4.82915E-19-1.24133E-18
 -1      2636 9.56727E-05-2.05399E-05-3.21574E-05 7.43745E-06 3.09078E-18-1.46811E-18
 -1      2637 2.62927E-05-1.42419E-05-4.61696E-06 4.75863E-06-1.31653E-18 6.37816E-18
 -1      2638 2.22337E-05-1.64799E-05-1.97422E-06-3.37277E-06-6.33131E-19 7.03080E-18
 -1      2639 2.95974E-05-1.45466E-05-5.92192E-06-1.14124E-05-2.10488E-19 6.61766E-18
 -1      2640 6.56585E-05-3.77666E-05-1.15257E-05-4.00095E-05 1.27648E-18 3.73393E-18
 -1      2641 9.52380E-05-2.85765E-05-2.85692E-05-3.50124E-08-1.00694E-18-4.74933E-19
 -1      2642 2.48231E-05-1.64290E-05-3.12328E-06-5.42252E-06-8.09446E-19-7.82510E-18
 -1      2643 3.27938E-05-1.50627E-05-7.07252E-06-1.28587E-05-1.45938E-18-6.93466E-18
 -1      2644 2.82364E-05-1.36356E-05-5.87001E-06 2.40994E-06-5.07793E-19-7.76475E-18
 -1      2645 1.41131E-04-2.83668E-05-4.84823E-05 9.11628E-06-5.65903E-18-3.30639E-18
 -1      2646 4.72219E-05-2.72813E-05-8.06521E-06-3.18744E-05-1.99370E-18-5.63827E-18
 -1      2647 1.17420E-04-5.88857E-05-2.47526E-05-2.96239E-05-1.07044E-18 1.27743E-19
 -1      2648 1.41747E-04-3.52360E-05-4.59308E-05 1.07001E-05 4.66472E-18 3.48872E-18
 -1      2649 3.37452E-05-2.14951E-05-4.73916E-06 2.36302E-05 6.79109E-19-7.89138E-18
 -1      2650 1.36870E-04-1.63416E-05-5.18465E-05 8.48103E-06 6.84784E-18 2.13241E-18
 -1      2651 8.33118E-05-4.62953E-05-1.54296E-05-3.98467E-05-2.14808E-18-3.13561E-18
 -1      2652 1.40205E-04-5.59726E-05-3.61434E-05-6.75987E-06 1.13407E-18 2.14818E-18
 -1      2653 1.38440E-04-5.12321E-05-3.77414E-05 4.36594E-06 1.01909E-18 3.78814E-18
 -1      2654 1.34199E-04-5.84213E-05-3.23653E-05-1.01923E-05-4.12399E-19 2.52384E-18
 -1      2655 1.35622E-04-1.18779E-05-5.32995E-05-2.70179E-06 6.04379E-18-3.40322E-19
 -1      2656 1.30754E-04-5.88976E-05-3.07739E-05 1.81916E-05 5.18384E-19 6.97002E-19
 -1      2657 1.42218E-04-4.84867E-05-4.01688E-05-1.56227E-06-3.91628E-18-2.76281E-18
 -1      2658 9.52350E-05-2.85712E-05-2.85704E-05 3.47082E-08 1.01019E-18 9.41331E-19
 -1      2659 8.80688E-05-1.26105E-05-3.23586E-05 1.87604E-06 6.56960E-19-3.80499E-18
 -1      2660 8.76376E-05-1.21945E-05-3.23560E-05 1.28673E-06 3.29376E-19-3.85979E-18
 -1      2661 8.73350E-05-1.18784E-05-3.23579E-05 8.91279E-07 4.15425E-20-3.81169E-18
 -1      2662 8.71966E-05-1.17457E-05-3.23558E-05 3.15268E-07-3.29047E-19-3.63101E-18
 -1      2663 8.82634E-05-1.34520E-05-3.20425E-05 8.22805E-07 2.18745E-19-3.57249E-18
 -1      2664 9.13102E-05-1.60947E-05-3.22661E-05 4.03774E-06 1.91718E-18-3.14237E-18
 -1      2665 9.03082E-05-1.50033E-05-3.23028E-05 3.37919E-06 1.55929E-18-3.32343E-18
 -1      2666 9.37408E-05-1.90152E-05-3.20610E-05 4.98855E-06 2.45994E-18-2.50591E-18
 -1      2667 9.24650E-05-1.74509E-05-3.21733E-05 4.45124E-06 2.10468E-18-2.83625E-18
 -1      2668 9.27240E-05-1.83762E-05-3.18389E-05 2.98720E-06 1.89019E-18-2.70916E-18
 -1      2669 9.67016E-05-2.51859E-05-3.06504E-05 9.85914E-07 2.03045E-18-1.27560E-18
 -1      2670 9.68037E-05-2.43745E-05-3.10091E-05 2.89988E-06 2.35301E-18-1.16492E-18
 -1      2671 9.68526E-05-2.63709E-05-3.01999E-05-1.93456E-06 1.36778E-18-1.18107E-18
 -1      2672 9.68152E-05-2.58825E-05-3.03648E-05-5.60554E-07 1.67157E-18-1.15792E-18
 -1      2673 9.61925E-05-2.43748E-05-3.07822E-05 4.16129E-07 1.91996E-18-1.62563E-18
 -1      2674 9.57427E-05-2.17599E-05-3.17092E-05 5.41391E-06 2.75506E-18-1.61496E-18
 -1      2675 9.31913E-05-1.75488E-05-3.24165E-05-6.53432E-06-2.90844E-18-1.50737E-18
 -1      2676 9.64912E-05-2.54031E-05-3.04396E-05 7.37852E-07-1.89447E-18-5.20076E-19
 -1      2677 9.65658E-05-2.59899E-05-3.02498E-05 2.05346E-06-1.66476E-18-6.50834E-19
 -1      2678 9.66865E-05-2.64776E-05-3.00684E-05 3.19024E-06-1.51915E-18-6.78749E-19
 -1      2679 9.68696E-05-2.69005E-05-2.99844E-05 4.16487E-06-1.48317E-18-8.65536E-19
 -1      2680 9.60695E-05-2.53662E-05-3.03104E-05 2.58446E-06-1.71415E-18-9.49226E-19
 -1      2681 9.70069E-05-2.72586E-05-2.98766E-05 5.06251E-06-1.32543E-18-7.65781E-19
 -1      2682 9.73424E-05-2.76524E-05-2.98623E-05 5.78461E-06-1.15053E-18-7.99160E-19
 -1      2683 9.63354E-05-2.63751E-05-2.99946E-05 4.71267E-06-1.48045E-18-1.07272E-18
 -1      2684 9.75823E-05-2.80136E-05-2.98019E-05 6.48581E-06-9.41226E-19-6.04052E-19
 -1      2685 9.80920E-05-2.84778E-05-2.98299E-05 6.98676E-06-8.16433E-19-6.48235E-19
 -1      2686 9.67202E-05-2.72301E-05-2.97950E-05 6.39540E-06-1.07241E-18-9.64793E-19
 -1      2687 9.85137E-05-2.89533E-05-2.97968E-05 7.49668E-06-7.62323E-19-5.10524E-19
 -1      2688 9.92233E-05-2.95770E-05-2.98465E-05 7.75381E-06-5.11067E-19-6.22381E-19
 -1      2689 9.73827E-05-2.82010E-05-2.96663E-05 7.68822E-06-7.75401E-19-8.24937E-19
 -1      2690 9.99223E-05-3.02738E-05-2.98286E-05 8.02948E-06-2.98224E-19-4.04324E-19
 -1      2691 1.00864E-04-3.11364E-05-2.98874E-05 7.96866E-06-3.48231E-19-2.72390E-19
 -1      2692 9.84943E-05-2.95359E-05-2.95771E-05 8.56667E-06-3.19402E-19-6.97416E-19
 -1      2693 1.01955E-04-3.21490E-05-2.98856E-05 7.90774E-06-4.04129E-19 2.39152E-20
 -1      2694 1.03149E-04-3.32928E-05-2.99534E-05 7.40907E-06-3.82842E-19 3.37974E-19
 -1      2695 1.00266E-04-3.14692E-05-2.95179E-05 8.90336E-06-1.34927E-19 1.54669E-19
 -1      2696 1.04739E-04-3.46574E-05-2.99904E-05 6.83841E-06-2.58047E-19 4.72806E-19
 -1      2697 1.06149E-04-3.60166E-05-3.00868E-05 5.75817E-06-3.25595E-20 3.32622E-19
 -1      2698 1.02926E-04-3.41642E-05-2.95155E-05 8.44026E-06-1.00119E-19 7.36611E-19
 -1      2699 1.08247E-04-3.76107E-05-3.02187E-05 4.45130E-06 1.59129E-19 5.52983E-19
 -1      2700 1.09699E-04-3.89033E-05-3.03902E-05 2.68936E-06 4.46137E-19 4.26876E-19
 -1      2701 1.06613E-04-3.75419E-05-2.96565E-05 6.77450E-06 3.76835E-20 5.09532E-19
 -1      2702 1.12079E-04-4.03064E-05-3.07132E-05 4.40209E-07 4.98117E-19 6.15530E-19
 -1      2703 1.13168E-04-4.08974E-05-3.10307E-05-1.92260E-06 3.95439E-19 6.14270E-19
 -1      2704 1.11150E-04-4.10215E-05-3.01079E-05 3.43395E-06 5.51723E-19 7.30658E-19
 -1      2705 1.15152E-04-4.12532E-05-3.16650E-05-4.99616E-06 2.53174E-19 8.84170E-19
 -1      2706 1.15297E-04-4.02568E-05-3.21986E-05-7.42766E-06 4.55462E-20 9.01557E-19
 -1      2707 1.15667E-04-4.31241E-05-3.11171E-05-1.84990E-06 5.10947E-19 1.20153E-18
 -1      2708 1.15822E-04-3.85214E-05-3.32211E-05-1.03730E-05-1.40359E-19 1.31027E-18
 -1      2709 1.14669E-04-3.54464E-05-3.39526E-05-1.16999E-05-8.88921E-19 1.19205E-18
 -1      2710 1.18357E-04-4.14797E-05-3.29284E-05-8.19623E-06 5.74493E-20 1.55072E-18
 -1      2711 1.13175E-04-3.14923E-05-3.52001E-05-1.25535E-05-1.77817E-18 1.17976E-18
 -1      2712 1.11203E-04-2.72860E-05-3.59349E-05-1.14100E-05-2.16596E-18 8.50990E-19
 -1      2713 1.17333E-04-3.45483E-05-3.55050E-05-1.27676E-05-1.43555E-18 2.08000E-18
 -1      2714 1.08978E-04-2.31758E-05-3.69469E-05-8.54017E-06-2.63728E-18 1.14189E-19
 -1      2715 1.07635E-04-2.05114E-05-3.73672E-05-4.78673E-06-2.97311E-18 8.99757E-20
 -1      2716 1.13311E-04-2.47552E-05-3.80480E-05-1.10264E-05-2.78804E-18 1.00905E-18
 -1      2717 1.07067E-04-1.95512E-05-3.75993E-05 8.49545E-07-2.51534E-18-3.58268E-19
 -1      2718 1.07635E-04-2.06172E-05-3.74498E-05 5.19851E-06-2.49757E-18-7.43136E-19
 -1      2719 1.10014E-04-1.81437E-05-3.95321E-05-2.22648E-06-3.00421E-18-1.22034E-19
 -1      2720 1.09406E-04-2.36403E-05-3.67539E-05 9.71057E-06-2.73835E-18-1.29173E-18
 -1      2721 1.11285E-04-2.75307E-05-3.61281E-05 1.21368E-05-2.32999E-18-1.98964E-18
 -1      2722 1.11443E-04-2.08879E-05-3.89325E-05 8.39765E-06-2.88626E-18-1.57254E-18
 -1      2723 1.13488E-04-3.18716E-05-3.49144E-05 1.28706E-05-1.60255E-18-2.25384E-18
 -1      2724 1.15209E-04-3.57894E-05-3.41483E-05 1.26464E-05-7.95523E-19-2.76013E-18
 -1      2725 1.15804E-04-3.02619E-05-3.66521E-05 1.37790E-05-2.33178E-18-2.17494E-18
 -1      2726 1.15446E-04-3.85143E-05-3.30133E-05 1.02146E-05-2.50669E-19-3.19848E-18
 -1      2727 1.15889E-04-4.03485E-05-3.24115E-05 8.30093E-06 5.74321E-19-3.52165E-18
 -1      2728 1.18369E-04-3.89268E-05-3.41964E-05 1.17451E-05-9.93451E-19-2.54073E-18
 -1      2729 1.14537E-04-4.09299E-05-3.16041E-05 5.14710E-06 1.10511E-18-3.12385E-18
 -1      2730 1.13848E-04-4.09487E-05-3.12069E-05 2.72461E-06 1.29018E-18-3.53173E-18
 -1      2731 1.17194E-04-4.27629E-05-3.19412E-05 5.65978E-06 6.20789E-19-3.23936E-18
 -1      2732 1.11546E-04-3.99040E-05-3.07597E-05 8.41827E-08 1.13354E-18-3.15366E-18
 -1      2733 1.10246E-04-3.88401E-05-3.05461E-05-1.93137E-06 1.01133E-18-3.04174E-18
 -1      2734 1.13346E-04-4.20794E-05-3.05776E-05-3.88173E-07 1.15990E-18-3.80146E-18
 -1      2735 1.07956E-04-3.72444E-05-3.03453E-05-3.60071E-06 4.21138E-19-3.31560E-18
 -1      2736 1.06538E-04-3.58774E-05-3.02335E-05-4.93058E-06 2.40662E-19-3.25947E-18
 -1      2737 1.08647E-04-3.89848E-05-2.99105E-05-4.54254E-06 5.56528E-19-3.08229E-18
 -1      2738 1.04706E-04-3.43900E-05-3.01578E-05-5.75720E-06 7.25213E-19-2.82576E-18
 -1      2739 1.03446E-04-3.31632E-05-3.00853E-05-6.46404E-06 4.53990E-19-1.82899E-18
 -1      2740 1.04505E-04-3.54408E-05-2.96491E-05-6.80845E-06 6.64208E-19-1.80577E-18
 -1      2741 1.02129E-04-3.20139E-05-3.00585E-05-6.70968E-06 3.83443E-19-1.50882E-18
 -1      2742 1.01108E-04-3.10751E-05-2.99911E-05-6.94321E-06 9.45311E-19-1.25842E-18
 -1      2743 1.01376E-04-3.24559E-05-2.95743E-05-7.70025E-06 8.60091E-19-9.32078E-19
 -1      2744 1.00226E-04-3.02925E-05-2.99720E-05-6.82468E-06 1.13864E-19-1.15729E-18
 -1      2745 9.94314E-05-2.96455E-05-2.98958E-05-6.74252E-06-7.63762E-20-1.26911E-18
 -1      2746 9.92040E-05-3.02872E-05-2.95599E-05-7.69954E-06 8.08093E-19-4.28114E-19
 -1      2747 9.88657E-05-2.91660E-05-2.98671E-05-6.42109E-06 5.46031E-19-1.11603E-18
 -1      2748 9.82561E-05-2.87550E-05-2.97807E-05-6.15214E-06 6.90344E-19-4.94961E-19
 -1      2749 9.77787E-05-2.88816E-05-2.95421E-05-7.17713E-06 4.23732E-19-4.96364E-19
 -1      2750 9.79016E-05-2.84943E-05-2.97391E-05-5.73498E-06 2.61687E-19-4.48660E-19
 -1      2751 9.74327E-05-2.82535E-05-2.96469E-05-5.37367E-06 1.32473E-20-1.21965E-20
 -1      2752 9.68734E-05-2.80649E-05-2.94981E-05-6.38553E-06 1.93070E-19-3.92070E-19
 -1      2753 9.72120E-05-2.81374E-05-2.95953E-05-4.92913E-06-3.79411E-19 1.92492E-19
 -1      2754 9.68485E-05-2.80106E-05-2.95030E-05-4.53929E-06-6.06005E-19 3.44999E-19
 -1      2755 9.63071E-05-2.76568E-05-2.94267E-05-5.48794E-06-6.59480E-20-2.92874E-19
 -1      2756 9.67100E-05-2.79828E-05-2.94461E-05-4.10900E-06-3.90758E-19 5.08663E-19
 -1      2757 9.64265E-05-2.79280E-05-2.93586E-05-3.73053E-06-1.10146E-19 4.08548E-19
 -1      2758 9.59531E-05-2.75105E-05-2.93357E-05-4.58663E-06-2.33098E-19 3.53319E-19
 -1      2759 9.63376E-05-2.79499E-05-2.93010E-05-3.33794E-06-3.78562E-19 6.79477E-19
 -1      2760 9.61159E-05-2.79380E-05-2.92216E-05-2.99340E-06-7.47987E-19 1.50373E-18
 -1      2761 9.57289E-05-2.75192E-05-2.92349E-05-3.74246E-06-1.79085E-19 4.47263E-19
 -1      2762 9.60570E-05-2.79843E-05-2.91666E-05-2.64979E-06-1.51062E-18 1.35398E-18
 -1      2763 9.58840E-05-2.79963E-05-2.90971E-05-2.34979E-06-1.06866E-18 7.70689E-19
 -1      2764 9.55834E-05-2.76110E-05-2.91327E-05-2.98813E-06-1.11250E-18 1.27643E-18
 -1      2765 9.58435E-05-2.80515E-05-2.90472E-05-2.05853E-06-6.59987E-19 1.39275E-18
 -1      2766 9.57094E-05-2.80753E-05-2.89882E-05-1.80597E-06-1.85062E-19 1.42341E-18
 -1      2767 9.54858E-05-2.77399E-05-2.90353E-05-2.33740E-06-5.31901E-19 1.06174E-18
 -1      2768 9.56805E-05-2.81307E-05-2.89444E-05-1.56547E-06-2.30736E-19 1.41851E-18
 -1      2769 9.55776E-05-2.81589E-05-2.88955E-05-1.35858E-06 2.71052E-19 1.88910E-18
 -1      2770 9.54182E-05-2.78782E-05-2.89469E-05-1.79175E-06-2.08111E-19 1.43053E-18
 -1      2771 9.55564E-05-2.82098E-05-2.88582E-05-1.16447E-06 3.36793E-19 9.47818E-19
 -1      2772 9.54785E-05-2.82381E-05-2.88187E-05-9.98916E-07 4.83803E-19 4.23472E-19
 -1      2773 9.53698E-05-2.80103E-05-2.88695E-05-1.34508E-06-3.44845E-19 6.10631E-22
 -1      2774 9.54626E-05-2.82823E-05-2.87878E-05-8.45424E-07 6.11605E-20 7.52412E-20
 -1      2775 9.54046E-05-2.83085E-05-2.87566E-05-7.15707E-07-1.23719E-18 4.46292E-19
 -1      2776 9.53344E-05-2.81283E-05-2.88036E-05-9.87178E-07-5.76337E-19 1.17562E-19
 -1      2777 9.53926E-05-2.83455E-05-2.87315E-05-5.96661E-07-1.13587E-18 1.47405E-19
 -1      2778 9.53502E-05-2.83685E-05-2.87073E-05-4.97026E-07-5.83833E-20 5.23638E-19
 -1      2779 9.53081E-05-2.82291E-05-2.87490E-05-7.06010E-07-1.19085E-18 9.02232E-19
 -1      2780 9.53411E-05-2.83985E-05-2.86874E-05-4.06428E-07-1.10664E-19 3.13741E-19
 -1      2781 9.53109E-05-2.84180E-05-2.86690E-05-3.31389E-07-7.00259E-19 5.27868E-19
 -1      2782 9.52884E-05-2.83125E-05-2.87047E-05-4.89266E-07-5.82123E-19 2.54070E-19
 -1      2783 9.53040E-05-2.84419E-05-2.86535E-05-2.63768E-07-2.93091E-19 2.21113E-19
 -1      2784 9.52832E-05-2.84580E-05-2.86398E-05-2.08412E-07-5.89643E-19 8.80710E-20
 -1      2785 9.52737E-05-2.83796E-05-2.86695E-05-3.25316E-07-9.33567E-19-2.02126E-18
 -1      2786 9.52780E-05-2.84765E-05-2.86279E-05-1.59001E-07-9.56222E-19 8.70163E-19
 -1      2787 9.52642E-05-2.84897E-05-2.86180E-05-1.19117E-07-2.95124E-19 9.09962E-19
 -1      2788 9.52628E-05-2.84325E-05-2.86421E-05-2.03748E-07-3.97922E-19-1.90778E-18
 -1      2789 9.52604E-05-2.85039E-05-2.86090E-05-8.39197E-08-3.82364E-19 1.96861E-18
 -1      2790 9.52518E-05-2.85145E-05-2.86019E-05-5.60408E-08 6.95451E-19 1.69235E-18
 -1      2791 9.52548E-05-2.84736E-05-2.86209E-05-1.15628E-07-3.13445E-20 9.28524E-20
 -1      2792 9.52491E-05-2.85254E-05-2.85952E-05-3.18227E-08 1.23198E-18 1.43991E-18
 -1      2793 9.52443E-05-2.85341E-05-2.85902E-05-1.32050E-08 1.29360E-18 1.66259E-18
 -1      2794 9.52492E-05-2.85052E-05-2.86049E-05-5.35598E-08 2.86447E-19-8.39700E-20
 -1      2795 9.52425E-05-2.85426E-05-2.85852E-05 2.56845E-09 1.43794E-18 8.03123E-19
 -1      2796 9.52404E-05-2.85499E-05-2.85817E-05 1.40209E-08 7.06515E-19-5.09741E-19
 -1      2797 9.52454E-05-2.85296E-05-2.85927E-05-1.16401E-08 3.28331E-19 6.11410E-19
 -1      2798 9.52395E-05-2.85570E-05-2.85779E-05 2.31474E-08-1.06121E-19-1.39284E-19
 -1      2799 9.52391E-05-2.85633E-05-2.85754E-05 2.87899E-08 2.14624E-19-1.27741E-20
 -1      2800 9.52432E-05-2.85492E-05-2.85834E-05 1.47348E-08 7.42348E-19-1.55956E-18
 -1      2801 1.06959E-04-5.38412E-05-2.28806E-05 3.21043E-05 2.28837E-18-1.05540E-18
 -1      2802 8.75415E-05-4.55957E-05-1.73123E-05 3.84406E-05 2.67154E-18-2.68462E-18
 -1      2803 9.52394E-05-2.85718E-05-2.85718E-05 3.30347E-08 1.66147E-18 1.43676E-18
 -1      2804 9.52426E-05-2.85732E-05-2.85727E-05 3.21298E-08 1.41623E-18 1.40897E-18
 -1      2805 9.52389E-05-2.85677E-05-2.85732E-05 3.18676E-08 1.44496E-18 7.17429E-19
 -1      2806 9.76106E-05-2.76063E-05-2.99896E-05-6.02595E-06 9.30342E-19-1.20483E-18
 -1      2807 9.72086E-05-2.73102E-05-2.99409E-05-5.19656E-06 1.05529E-18-1.13413E-18
 -1      2808 1.01143E-04-3.01613E-05-3.04176E-05-9.51289E-06-9.05245E-20-4.94668E-19
 -1      2809 1.00110E-04-2.94339E-05-3.02772E-05-9.26871E-06-4.16365E-20-7.49344E-19
 -1      2810 1.03394E-04-3.20554E-05-3.05817E-05-9.64200E-06 1.00792E-20-2.90455E-19
 -1      2811 1.02079E-04-3.09781E-05-3.04494E-05-9.79714E-06 9.37919E-21-3.99327E-19
 -1      2812 9.98030E-05-2.99898E-05-2.99482E-05-1.06401E-05-4.75569E-20-7.67392E-19
 -1      2813 1.06503E-04-3.48334E-05-3.07419E-05-8.71696E-06 1.79660E-19 1.50283E-19
 -1      2814 1.04874E-04-3.33442E-05-3.06164E-05-9.48593E-06 3.86699E-20 1.38288E-20
 -1      2815 1.02187E-04-3.23959E-05-2.99563E-05-1.09193E-05-1.19222E-19-4.30541E-19
 -1      2816 1.10583E-04-3.84306E-05-3.09744E-05-6.20258E-06 4.81419E-20 7.44783E-19
 -1      2817 1.08709E-04-3.66510E-05-3.08219E-05-7.82326E-06 1.80223E-19 6.75295E-19
 -1      2818 1.05840E-04-3.59652E-05-3.00145E-05-1.01023E-05 5.52143E-20 3.07430E-19
 -1      2819 1.15330E-04-4.20826E-05-3.14703E-05-1.59458E-06-1.45855E-19 1.07885E-18
 -1      2820 1.13532E-04-4.05465E-05-3.12062E-05-4.18118E-06 7.12777E-20 1.09190E-18
 -1      2821 1.11006E-04-4.05384E-05-3.02859E-05-7.50735E-06-2.00406E-19 6.01797E-19
 -1      2822 1.19548E-04-4.37812E-05-3.25358E-05 5.00803E-06 3.32123E-19 1.74470E-18
 -1      2823 1.18503E-04-4.36388E-05-3.20390E-05 1.81609E-06-1.57360E-19 1.45074E-18
 -1      2824 1.17261E-04-4.49110E-05-3.11034E-05-2.28503E-06-3.51128E-19 1.31763E-18
 -1      2825 1.21166E-04-4.07763E-05-3.44839E-05 1.19206E-05 1.05739E-18 2.30506E-18
 -1      2826 1.21748E-04-4.34049E-05-3.36398E-05 9.22994E-06 6.59516E-19 2.29302E-18
 -1      2827 1.22939E-04-4.61410E-05-3.29572E-05 5.52325E-06 3.44226E-19 2.16951E-18
 -1      2828 1.18475E-04-3.17346E-05-3.71885E-05 1.45486E-05 2.61037E-18 1.82506E-18
 -1      2829 1.20676E-04-3.69015E-05-3.61576E-05 1.46371E-05 1.88696E-18 2.40866E-18
 -1      2830 1.24985E-04-4.10479E-05-3.59931E-05 1.30266E-05 1.51676E-18 2.87912E-18
 -1      2831 1.13765E-04-2.16307E-05-3.96149E-05 8.56186E-06 3.00596E-18 9.75067E-19
 -1      2832 1.15960E-04-2.61323E-05-3.88639E-05 1.25327E-05 2.82840E-18 1.35720E-18
 -1      2833 1.21745E-04-2.89766E-05-3.99523E-05 1.47716E-05 3.13699E-18 2.59563E-18
 -1      2834 1.12605E-04-1.95301E-05-4.02126E-05-4.01571E-06 3.07208E-18-5.85604E-19
 -1      2835 1.12471E-04-1.91249E-05-4.02665E-05 1.67423E-06 3.55643E-18-1.17493E-19
 -1      2836 1.17375E-04-1.83175E-05-4.26390E-05 5.70610E-06 4.03373E-18 7.32207E-19
 -1      2837 1.16879E-04-2.76814E-05-3.85734E-05-1.40919E-05 1.88100E-18-1.81670E-18
 -1      2838 1.14468E-04-2.27391E-05-3.93800E-05-1.05724E-05 2.45968E-18-1.56090E-18
 -1      2839 1.17608E-04-1.87347E-05-4.26812E-05-8.49375E-06 3.34229E-18-1.29236E-18
 -1      2840 1.21433E-04-3.82412E-05-3.58293E-05-1.48363E-05 4.67000E-19-3.22242E-18
 -1      2841 1.19180E-04-3.32593E-05-3.68534E-05-1.51438E-05 1.49798E-18-2.77276E-18
 -1      2842 1.22629E-04-3.13247E-05-3.93391E-05-1.54939E-05 1.98772E-18-2.35295E-18
 -1      2843 1.21779E-04-4.36681E-05-3.34796E-05-8.94049E-06-5.95932E-19-3.18565E-18
 -1      2844 1.21277E-04-4.15316E-05-3.42403E-05-1.16181E-05-3.25929E-19-3.25808E-18
 -1      2845 1.25007E-04-4.20104E-05-3.57214E-05-1.31911E-05 3.65521E-19-3.58034E-18
 -1      2846 1.18160E-04-4.32943E-05-3.20328E-05-1.55074E-06-5.95005E-19-2.14600E-18
 -1      2847 1.19315E-04-4.37501E-05-3.24663E-05-4.61075E-06-3.82707E-19-2.59252E-18
 -1      2848 1.22593E-04-4.64313E-05-3.27598E-05-5.24238E-06-9.81301E-19-2.81371E-18
 -1      2849 1.13224E-04-3.99847E-05-3.13147E-05 3.99677E-06-1.47198E-18-8.07964E-19
 -1      2850 1.15007E-04-4.16015E-05-3.15365E-05 1.59188E-06-1.07691E-18-1.34624E-18
 -1      2851 1.16469E-04-4.42712E-05-3.10627E-05 2.32600E-06-1.04902E-18-1.53439E-18
 -1      2852 1.08604E-04-3.61383E-05-3.09988E-05 7.22089E-06-1.51896E-18-9.31501E-19
 -1      2853 1.10385E-04-3.78798E-05-3.11239E-05 5.78549E-06-1.31835E-18-2.88908E-19
 -1      2854 1.10409E-04-3.97611E-05-3.03625E-05 7.09404E-06-1.62468E-18 4.21366E-21
 -1      2855 1.05012E-04-3.29980E-05-3.08269E-05 8.55787E-06-1.41910E-18-1.41575E-18
 -1      2856 1.06526E-04-3.43995E-05-3.09360E-05 7.93572E-06-1.32288E-18-1.03392E-18
 -1      2857 1.05489E-04-3.52912E-05-3.01488E-05 9.28981E-06-1.37030E-18-4.74760E-20
 -1      2858 1.02427E-04-3.08257E-05-3.06672E-05 8.66419E-06-6.33737E-19-9.56541E-19
 -1      2859 1.03634E-04-3.18028E-05-3.07918E-05 8.60251E-06-8.79712E-19-1.10556E-18
 -1      2860 1.02072E-04-3.19296E-05-3.01019E-05 9.83630E-06-1.18006E-18-3.35164E-19
 -1      2861 1.00608E-04-2.94766E-05-3.04766E-05 8.06173E-06-1.15588E-19-1.43716E-18
 -1      2862 1.01554E-04-3.00999E-05-3.06197E-05 8.33514E-06-1.77577E-19-1.33701E-18
 -1      2863 9.98552E-05-2.97475E-05-3.00695E-05 9.42060E-06-3.12839E-19-1.02325E-18
 -1      2864 9.93111E-05-2.87113E-05-3.02551E-05 7.11033E-06-5.92513E-19-7.03414E-19
 -1      2865 1.00058E-04-2.90839E-05-3.04081E-05 7.55253E-06-5.77238E-19-1.03315E-18
 -1      2866 9.84551E-05-2.84886E-05-2.99981E-05 8.50252E-06-4.23484E-19-1.56975E-18
 -1      2867 9.83590E-05-2.83192E-05-3.00182E-05 6.03854E-06-5.80295E-19 3.12203E-19
 -1      2868 9.89555E-05-2.85293E-05-3.01704E-05 6.53975E-06-2.56225E-19-6.15845E-20
 -1      2869 9.75623E-05-2.78530E-05-2.98820E-05 7.37016E-06-9.15830E-19-9.96370E-21
 -1      2870 9.76371E-05-2.81488E-05-2.97831E-05 4.98183E-06-3.96905E-19 1.84192E-19
 -1      2871 9.81167E-05-2.82593E-05-2.99258E-05 5.47594E-06-7.25229E-19 3.67874E-19
 -1      2872 9.69707E-05-2.75990E-05-2.97346E-05 6.19733E-06-4.99953E-19-3.25673E-19
 -1      2873 9.70761E-05-2.81020E-05-2.95630E-05 4.01344E-06 1.55517E-19 9.71365E-19
 -1      2874 9.74617E-05-2.81537E-05-2.96907E-05 4.46482E-06 2.03735E-19 8.32621E-19
 -1      2875 9.65568E-05-2.75600E-05-2.95728E-05 5.08415E-06-1.20919E-19-3.03889E-19
 -1      2876 9.66341E-05-2.81191E-05-2.93660E-05 3.16686E-06 6.30950E-19 1.04882E-18
 -1      2877 9.69426E-05-2.81376E-05-2.94763E-05 3.55959E-06 5.56587E-19 1.56054E-18
 -1      2878 9.62510E-05-2.76307E-05-2.94110E-05 4.08319E-06 1.12055E-19 6.59112E-19
 -1      2879 9.62849E-05-2.81660E-05-2.91958E-05 2.45133E-06 2.93167E-19 1.12512E-18
 -1      2880 9.65292E-05-2.81662E-05-2.92883E-05 2.78143E-06 8.24130E-19 1.43328E-18
 -1      2881 9.60156E-05-2.77491E-05-2.92592E-05 3.21659E-06 6.02691E-19 8.66042E-19
 -1      2882 9.60104E-05-2.82236E-05-2.90531E-05 1.86216E-06 7.24978E-19 1.08188E-18
 -1      2883 9.62013E-05-2.82143E-05-2.91287E-05 2.13238E-06 3.95253E-19 1.07659E-18
 -1      2884 9.58302E-05-2.78805E-05-2.91233E-05 2.48773E-06 5.28496E-19-1.73186E-19
 -1      2885 9.57967E-05-2.82818E-05-2.89362E-05 1.38743E-06 1.22917E-18 3.50599E-20
 -1      2886 9.59437E-05-2.82682E-05-2.89966E-05 1.60386E-06 1.15348E-18 6.01464E-19
 -1      2887 9.56831E-05-2.80072E-05-2.90059E-05 1.88899E-06 1.30205E-18 1.26421E-19
 -1      2888 9.56328E-05-2.83357E-05-2.88425E-05 1.01211E-06 5.07066E-19 5.95700E-19
 -1      2889 9.57440E-05-2.83208E-05-2.88899E-05 1.18218E-06 1.09421E-18 2.16663E-20
 -1      2890 9.55669E-05-2.81207E-05-2.89073E-05 1.40701E-06 1.61493E-18 8.83271E-19
 -1      2891 9.55092E-05-2.83832E-05-2.87689E-05 7.20524E-07 4.54845E-19 1.19872E-18
 -1      2892 9.55917E-05-2.83685E-05-2.88054E-05 8.51834E-07 6.44890E-19 1.58779E-18
 -1      2893 9.54760E-05-2.82180E-05-2.88264E-05 1.02604E-06 7.37631E-20 1.23865E-18
 -1      2894 9.54178E-05-2.84236E-05-2.87122E-05 4.97800E-07 1.19813E-18 6.07519E-19
 -1      2895 9.54777E-05-2.84101E-05-2.87397E-05 5.97467E-07 1.01778E-18 1.21975E-18
 -1      2896 9.54061E-05-2.82990E-05-2.87616E-05 7.30050E-07 5.15703E-19 8.39295E-19
 -1      2897 9.53518E-05-2.84573E-05-2.86694E-05 3.30558E-07-8.81406E-20 1.10884E-19
 -1      2898 9.53941E-05-2.84453E-05-2.86896E-05 4.04901E-07 6.27615E-19 4.03615E-19
 -1      2899 9.53533E-05-2.83648E-05-2.87105E-05 5.03909E-07 1.15133E-18 9.22430E-19
 -1      2900 9.53056E-05-2.84849E-05-2.86376E-05 2.07232E-07 5.98410E-19-5.11301E-19
 -1      2901 9.53345E-05-2.84745E-05-2.86523E-05 2.61655E-07-4.95651E-20-2.91225E-19
 -1      2902 9.53144E-05-2.84174E-05-2.86710E-05 3.34070E-07 6.02803E-19 2.71537E-19
 -1      2903 9.52744E-05-2.85072E-05-2.86146E-05 1.18136E-07-2.49542E-19-8.01120E-19
 -1      2904 9.52932E-05-2.84983E-05-2.86249E-05 1.57120E-07 3.84306E-19-1.08273E-18
 -1      2905 9.52863E-05-2.84588E-05-2.86411E-05 2.08834E-07 6.71791E-19 4.02330E-19
 -1      2906 9.52544E-05-2.85252E-05-2.85983E-05 5.53946E-08-3.68080E-20-1.20241E-18
 -1      2907 9.52659E-05-2.85176E-05-2.86053E-05 8.25430E-08 3.22249E-20-1.63195E-18
 -1      2908 9.52668E-05-2.84910E-05-2.86188E-05 1.18412E-07 4.79503E-19-1.38166E-18
 -1      2909 9.52426E-05-2.85398E-05-2.85870E-05 1.28222E-08 3.26756E-19-2.11818E-18
 -1      2910 9.52488E-05-2.85333E-05-2.85916E-05 3.09301E-08-5.15359E-20-2.16610E-18
 -1      2911 9.52538E-05-2.85159E-05-2.86024E-05 5.48567E-08 3.58178E-19-2.46432E-18
 -1      2912 9.52367E-05-2.85520E-05-2.85792E-05-1.43030E-08-6.32478E-19-1.61668E-18
 -1      2913 9.52392E-05-2.85462E-05-2.85822E-05-3.13885E-09-1.76061E-19-1.01148E-18
 -1      2914 9.52457E-05-2.85354E-05-2.85905E-05 1.19331E-08-2.53160E-19-2.36698E-18
 -1      2915 9.52351E-05-2.85626E-05-2.85739E-05-2.92262E-08 4.82999E-19-1.26775E-18
 -1      2916 9.52351E-05-2.85575E-05-2.85758E-05-2.37487E-08-1.48612E-20-8.56570E-19
 -1      2917 9.52413E-05-2.85510E-05-2.85818E-05-1.51808E-08-4.29261E-20-1.59553E-18
 -1      2918 9.52370E-05-2.85717E-05-2.85708E-05-3.39557E-08-2.77039E-19-6.83948E-19
 -1      2919 9.52354E-05-2.85665E-05-2.85723E-05-3.26876E-08 2.00157E-19-9.08163E-19
 -1      2920 9.52411E-05-2.85633E-05-2.85764E-05-2.85063E-08 5.55254E-20-5.65207E-19
 -1      2921 9.52427E-05-2.85738E-05-2.85725E-05-3.29904E-08-1.37266E-18-5.21361E-19
 -1      2922 1.28857E-04-2.30467E-05-4.59165E-05-1.26642E-05-3.89752E-18 1.87766E-18
 -1      2923 1.35221E-04-3.39275E-05-4.37631E-05-1.13769E-05-3.08521E-18 1.87692E-18
 -1      2924 9.52427E-05-2.85559E-05-2.85801E-05-6.50074E-10 1.06245E-18 2.34178E-18
 -1      2925 9.52430E-05-2.85563E-05-2.85800E-05-3.45930E-09 5.56122E-19 1.90063E-18
 -1      2926 9.52461E-05-2.85624E-05-2.85788E-05-1.19932E-08 1.17556E-18 1.54364E-18
 -1      2927 9.52466E-05-2.85635E-05-2.85784E-05-1.55626E-08 1.65635E-18 6.52788E-19
 -1      2928 9.52429E-05-2.85562E-05-2.85800E-05 4.17342E-09-6.03834E-19-1.77322E-19
 -1      2929 9.52426E-05-2.85559E-05-2.85801E-05 1.39055E-09 8.14843E-20 9.78558E-19
 -1      2930 9.52393E-05-2.85384E-05-2.85859E-05 3.94476E-10 4.86044E-19 1.45717E-19
 -1      2931 9.52440E-05-2.85582E-05-2.85797E-05-5.79721E-09 2.51831E-19 5.46216E-19
 -1      2932 9.52447E-05-2.85591E-05-2.85795E-05-8.93987E-09 6.01358E-19 1.92955E-18
 -1      2933 9.52430E-05-2.85456E-05-2.85845E-05-8.09966E-09 1.07728E-18 1.28728E-18
 -1      2934 9.52404E-05-2.85403E-05-2.85855E-05-3.29276E-09 1.17391E-18 1.46893E-18
 -1      2935 9.52443E-05-2.85588E-05-2.85795E-05 9.41881E-09-1.50226E-18-2.12866E-18
 -1      2936 9.52437E-05-2.85579E-05-2.85797E-05 6.41301E-09-1.25690E-18-4.79437E-19
 -1      2937 9.52401E-05-2.85402E-05-2.85855E-05 3.99550E-09-1.12173E-18-8.60483E-19
 -1      2938 9.52461E-05-2.85631E-05-2.85784E-05 1.57963E-08 4.26606E-19-1.19156E-18
 -1      2939 9.52456E-05-2.85620E-05-2.85788E-05 1.23448E-08-5.10054E-19-1.28850E-18
 -1      2940 9.52425E-05-2.85452E-05-2.85844E-05 8.58574E-09-7.54328E-19-6.51286E-19
 -1      2941 9.52466E-05-2.85678E-05-2.85766E-05 2.30094E-08 5.26205E-19-4.42383E-19
 -1      2942 9.52471E-05-2.85669E-05-2.85773E-05 1.93485E-08 9.57015E-19-1.21402E-18
 -1      2943 9.52450E-05-2.85522E-05-2.85825E-05 1.48188E-08 5.72337E-19-9.53323E-19
 -1      2944 9.52451E-05-2.85729E-05-2.85737E-05 2.89883E-08 5.53817E-19-4.72901E-20
 -1      2945 9.71152E-05-2.70755E-05-3.00067E-05-4.20132E-06 1.02961E-18-1.14689E-18
 -1      2946 9.69051E-05-2.67444E-05-3.00441E-05-3.16041E-06 1.15685E-18-1.12297E-18
 -1      2947 9.63825E-05-2.56636E-05-3.03184E-05-2.49663E-06 1.32832E-18-1.57607E-18
 -1      2948 9.65549E-05-2.64313E-05-3.00653E-05-4.83851E-06 1.05273E-18-1.46467E-18
 -1      2949 1.37824E-04-4.23298E-05-4.15286E-05-7.34833E-06-2.55132E-18 1.61984E-18
 -1      2950 1.37554E-04-4.95757E-05-3.77531E-05-1.86735E-06-1.57024E-18 1.95188E-18
 -1      2951 1.31830E-04-3.80207E-05-4.04849E-05-1.13585E-05-2.32373E-18 2.37741E-18
 -1      2952 8.46991E-05-4.45039E-05-1.71816E-05 3.83132E-05-4.10864E-18 3.09209E-18
 -1      2953 6.81581E-05-3.56297E-05-1.34605E-05 3.66400E-05-3.42572E-18 2.94979E-18
 -1      2954 1.39618E-04-5.58146E-05-3.62334E-05 3.54711E-06-5.47660E-20-1.28484E-18
 -1      2955 1.31603E-04-5.87831E-05-3.12210E-05 1.23244E-05-1.22174E-18-1.07091E-18
 -1      2956 3.88795E-05-1.83780E-05-8.24405E-06-2.28840E-05 1.07647E-18 6.00038E-18
 -1      2957 4.71090E-05-2.35532E-05-9.69138E-06-3.11216E-05 1.74235E-18 5.65458E-18
 -1      2958 1.36523E-04-3.92970E-05-4.19847E-05 1.19244E-05 3.27251E-18 4.22415E-18
 -1      2959 1.34759E-04-2.83066E-05-4.62631E-05 1.36656E-05 5.25870E-18 3.62880E-18
 -1      2960 6.03015E-05-3.17494E-05-1.16777E-05-3.65625E-05 2.10445E-18 3.69698E-18
 -1      2961 7.75562E-05-4.18243E-05-1.53492E-05-4.05891E-05 1.64409E-18 1.66262E-18
 -1      2962 9.95370E-05-2.89481E-05-3.02428E-05-8.72833E-06 4.47116E-20-8.36336E-19
 -1      2963 9.87381E-05-2.84615E-05-3.01097E-05-8.23315E-06 2.49773E-19-1.02216E-18
 -1      2964 9.83106E-05-2.85001E-05-2.99367E-05-9.71411E-06-1.14895E-21-8.55671E-19
 -1      2965 9.83968E-05-2.81684E-05-3.00857E-05-7.53098E-06 4.74689E-19-1.11594E-18
 -1      2966 9.78015E-05-2.78203E-05-2.99819E-05-6.86256E-06 6.68647E-19-1.03350E-18
 -1      2967 9.73978E-05-2.75983E-05-2.99274E-05-8.38990E-06 3.66994E-19-1.07291E-18
 -1      2968 9.61343E-05-2.35988E-05-3.10734E-05-2.47220E-06-2.38694E-18-4.80172E-19
 -1      2969 9.62476E-05-2.45788E-05-3.07252E-05-6.93938E-07-2.16379E-18-5.64358E-19
 -1      2970 9.57209E-05-2.38678E-05-3.07973E-05-8.70002E-08-2.06358E-18-1.03608E-18
 -1      2971 1.42309E-04-4.01733E-05-4.43007E-05-9.66370E-06 3.18506E-18-2.22367E-18
 -1      2972 1.41492E-04-4.83044E-05-4.01290E-05-4.30255E-06 1.72488E-18-2.11038E-18
 -1      2973 9.75195E-05-5.05826E-05-1.96035E-05-3.61441E-05 2.18407E-18-5.14162E-19
 -1      2974 1.14275E-04-5.71714E-05-2.47289E-05-2.99273E-05 1.04789E-18-9.48902E-19
 -1      2975 8.94080E-05-1.40008E-05-3.23400E-05 2.93610E-06 1.33084E-18-3.51314E-18
 -1      2976 8.86794E-05-1.32657E-05-3.23470E-05 2.29630E-06 9.32420E-19-3.66868E-18
 -1      2977 8.91915E-05-1.44124E-05-3.20272E-05 1.53612E-06 7.90989E-19-3.44452E-18
 -1      2978 9.07117E-05-1.60485E-05-3.19748E-05 2.28272E-06 1.31305E-18-3.20440E-18
 -1      2979 4.30533E-05-2.21476E-05-8.59501E-06 2.88915E-05 1.13767E-18-7.08014E-18
 -1      2980 3.39231E-05-1.62254E-05-6.88641E-06 1.72457E-05 7.48565E-19-7.51594E-18
 -1      2981 1.36155E-04-3.34908E-05-4.41983E-05 1.17604E-05-4.44766E-18-4.28705E-18
 -1      2982 1.32470E-04-2.35714E-05-4.73997E-05 1.21319E-05-5.72065E-18-3.82160E-18
 -1      2983 8.87752E-05-1.33683E-05-3.23426E-05-2.16296E-06-1.65790E-18-3.43677E-18
 -1      2984 8.94991E-05-1.41034E-05-3.23344E-05-2.84125E-06-1.96302E-18-3.29507E-18
 -1      2985 7.78384E-05-4.08307E-05-1.52913E-05-3.80728E-05-2.50838E-18-2.98664E-18
 -1      2986 9.49755E-05-5.02076E-05-1.92510E-05-3.76615E-05-2.41891E-18-2.04638E-18
 -1      2987 1.22789E-04-1.25003E-05-4.79531E-05 2.00678E-06 5.39878E-18 3.74812E-20
 -1      2988 1.24538E-04-1.37853E-05-4.80855E-05-6.10907E-06 4.62480E-18-8.52327E-19
 -1      2989 4.41930E-05-2.11175E-05-9.23837E-06-2.56852E-05-2.36047E-18-5.90403E-18
 -1      2990 5.86536E-05-3.02694E-05-1.19567E-05-3.55409E-05-2.34978E-18-4.60129E-18
 -1      2991 1.34537E-04-5.70918E-05-3.35738E-05 8.67715E-06-1.57178E-19 1.70524E-18
 -1      2992 1.24408E-04-5.81338E-05-2.83413E-05 1.92329E-05 1.49112E-18 7.17199E-19
 -1      2993 1.10230E-04-5.59924E-05-2.28899E-05-3.10092E-05-1.94796E-18-6.66708E-20
 -1      2994 1.22641E-04-5.91053E-05-2.74197E-05-2.25428E-05-1.19950E-18 1.99857E-18
 -1      2995 6.62604E-05-3.61559E-05-1.29199E-05 3.96325E-05 2.35475E-18-4.02859E-18
 -1      2996 5.34336E-05-2.84166E-05-1.00279E-05 3.45806E-05 1.94701E-18-5.99011E-18
 -1      2997 5.25687E-05-2.39663E-05-1.17282E-05 2.90784E-05 1.60523E-18-5.93548E-18
 -1      2998 1.37091E-04-5.22726E-05-3.63941E-05-1.62687E-06-2.48291E-18-3.76908E-18
 -1      2999 1.37877E-04-4.46429E-05-4.06759E-05 5.77981E-06-3.50523E-18-4.35735E-18
 -1      3000 1.18848E-04-5.83718E-05-2.60812E-05 2.54499E-05-2.84095E-18 9.84636E-19
 -1      3001 1.02852E-04-5.31842E-05-2.09327E-05 3.36007E-05-3.85209E-18 3.11679E-18
 -1      3002 1.26552E-04-5.87594E-05-2.88365E-05-1.94828E-05 1.95241E-19-1.60147E-18
 -1      3003 1.33441E-04-5.77698E-05-3.28900E-05-1.19637E-05-1.03285E-18-2.46317E-18
 -1      3004 1.33042E-04-2.00498E-05-4.91180E-05-1.25980E-05 4.63031E-18-2.20504E-18
 -1      3005 1.39211E-04-3.04260E-05-4.69196E-05-1.32487E-05 3.80434E-18-2.47863E-18
 -1      3006 9.03860E-05-1.50939E-05-3.22961E-05-3.32864E-06-2.09945E-18-3.06148E-18
 -1      3007 9.13328E-05-1.61417E-05-3.22621E-05-4.04070E-06-2.37158E-18-2.76847E-18
 -1      3008 9.08108E-05-1.61839E-05-3.19697E-05-2.20930E-06-1.86937E-18-3.03210E-18
 -1      3009 8.79773E-05-1.31653E-05-3.20448E-05 1.32564E-07-4.11191E-19-3.31124E-18
 -1      3010 8.72137E-05-1.17676E-05-3.23554E-05-7.78052E-08-6.03164E-19-3.57040E-18
 -1      3011 8.73753E-05-1.19170E-05-3.23567E-05-6.64170E-07-9.07503E-19-3.47607E-18
 -1      3012 9.49741E-05-2.09291E-05-3.17440E-05 4.50199E-06 2.51510E-18-1.88809E-18
 -1      3013 3.66892E-05-1.26819E-05-9.80193E-06-8.60662E-06-1.28458E-19 5.78714E-18
 -1      3014 3.71248E-05-1.53567E-05-8.71310E-06-1.66843E-05 3.37119E-19 5.90043E-18
 -1      3015 4.55039E-05-1.66892E-05-1.19116E-05-1.92834E-05 8.51692E-19 4.82015E-18
 -1      3016 9.52425E-05-2.85634E-05-2.85770E-05 2.75402E-08 1.31454E-18-9.62946E-21
 -1      3017 1.37696E-04-5.12173E-05-3.72030E-05-5.08540E-06 4.89903E-19-2.04463E-18
 -1      3018 3.73390E-05-1.44300E-05-9.15736E-06 8.83341E-06 3.00432E-20-7.16336E-18
 -1      3019 6.13489E-05-3.01868E-05-1.28640E-05 3.42263E-05-3.08225E-18 2.86234E-18
 -1      3020 5.45836E-05-2.38826E-05-1.26790E-05 2.87844E-05-2.47789E-18 2.95149E-18
 -1      3021 7.28197E-05-3.30370E-05-1.67618E-05 3.21693E-05-3.87380E-18 1.73144E-18
 -1      3022 1.17799E-04-5.71204E-05-2.58199E-05 2.47245E-05 2.12441E-18-1.46907E-21
 -1      3023 1.06624E-04-5.08311E-05-2.38091E-05 2.75155E-05 2.29678E-18-4.31987E-19
 -1      3024 1.22551E-04-5.61065E-05-2.86740E-05 1.51508E-05 1.50453E-18 1.12817E-18
 -1      3025 1.20179E-04-5.71829E-05-2.68341E-05-2.18545E-05 1.54335E-18-1.91027E-18
 -1      3026 9.68558E-05-2.69913E-05-2.99542E-05-6.76879E-06 8.04722E-19-1.42494E-18
 -1      3027 1.24359E-04-1.80174E-05-4.60686E-05-1.08623E-05-4.15628E-18 1.82514E-18
 -1      3028 1.23366E-04-2.45768E-05-4.27057E-05-1.24184E-05-3.27675E-18 2.47773E-18
 -1      3029 9.52451E-05-2.85717E-05-2.85743E-05-2.91080E-08-9.22106E-19-1.46357E-18
 -1      3030 9.52442E-05-2.85656E-05-2.85764E-05-2.80528E-08-1.31713E-18-1.08144E-18
 -1      3031 9.52470E-05-2.85717E-05-2.85752E-05-2.62653E-08-1.41400E-18-1.81865E-18
 -1      3032 1.27318E-04-5.95542E-05-2.89835E-05 1.62894E-05-1.67945E-18-7.73712E-19
 -1      3033 1.19741E-04-5.62360E-05-2.69537E-05 1.94632E-05-2.29792E-18 3.03800E-19
 -1      3034 1.29969E-04-5.67173E-05-3.15596E-05 6.20548E-06-1.12211E-18-1.24355E-18
 -1      3035 4.11666E-05-1.44170E-05-1.11236E-05-1.27213E-05-1.59999E-18-6.08371E-18
 -1      3036 4.20311E-05-1.76337E-05-9.88511E-06-1.99753E-05-1.88539E-18-5.91938E-18
 -1      3037 5.24254E-05-2.04036E-05-1.33456E-05-2.34059E-05-2.38644E-18-5.06176E-18
 -1      3038 8.04669E-05-3.95096E-05-1.71431E-05 3.59396E-05 2.41891E-18-2.87462E-18
 -1      3039 1.33153E-04-3.93578E-05-4.02911E-05 1.13900E-05-2.97393E-18-5.40873E-18
 -1      3040 1.27867E-04-1.48297E-05-4.89104E-05 9.90671E-06-5.82865E-18-2.28106E-18
 -1      3041 1.24938E-04-1.04216E-05-4.98237E-05 4.04607E-06-6.14332E-18-1.16681E-18
 -1      3042 9.52443E-05-2.85628E-05-2.85779E-05 2.59377E-08 1.40723E-18-8.05282E-19
 -1      3043 9.52462E-05-2.85675E-05-2.85767E-05 2.49819E-08 1.01782E-18-6.96354E-19
 -1      3044 9.52459E-05-2.85559E-05-2.85812E-05 1.97389E-08 1.13780E-18-9.31308E-20
 -1      3045 9.52445E-05-2.85565E-05-2.85803E-05 2.20120E-08 1.59970E-18-1.03472E-18
 -1      3046 1.04519E-04-5.18270E-05-2.22681E-05-3.09585E-05-2.45333E-18-6.24078E-19
 -1      3047 1.33559E-04-5.26384E-05-3.47537E-05 1.27069E-07-2.62110E-19 1.69465E-18
 -1      3048 9.66341E-05-4.78443E-05-2.05908E-05 3.25070E-05-4.14136E-18 3.06290E-18
 -1      3049 1.24114E-04-1.61460E-05-4.69790E-05 8.43832E-06 5.30317E-18 1.34347E-18
 -1      3050 3.21546E-05-1.49098E-05-6.73339E-06 1.25686E-05-1.31102E-18 7.10745E-18
 -1      3051 3.47502E-05-1.24256E-05-9.02829E-06 4.15557E-06-6.59124E-19 6.71612E-18
 -1      3052 4.08591E-05-1.67911E-05-9.82776E-06 1.81295E-05-1.51603E-18 5.79752E-18
 -1      3053 7.25262E-05-3.48708E-05-1.56846E-05-3.42741E-05-2.73052E-18-3.47432E-18
 -1      3054 6.00387E-05-2.78813E-05-1.32481E-05-3.22746E-05 2.32881E-18 3.73700E-18
 -1      3055 9.11090E-05-4.55635E-05-1.91711E-05-3.52990E-05 2.60156E-18-2.12341E-19
 -1      3056 9.49679E-05-2.16421E-05-3.14136E-05 2.72521E-06 2.15732E-18-2.06560E-18
 -1      3057 1.30019E-04-5.94074E-05-3.01413E-05-1.34830E-05-1.08828E-18 2.50404E-18
 -1      3058 1.31161E-04-5.65535E-05-3.25288E-05-3.99287E-06-1.02166E-18 3.21743E-18
 -1      3059 1.23153E-04-5.67970E-05-2.81389E-05-1.65186E-05-1.43006E-18 2.52544E-18
 -1      3060 9.52475E-05-2.85675E-05-2.85773E-05-1.89420E-08 8.87448E-19 6.75207E-20
 -1      3061 9.52472E-05-2.85683E-05-2.85766E-05-2.25261E-08-7.50458E-19-7.23287E-19
 -1      3062 9.52466E-05-2.85601E-05-2.85798E-05-2.09090E-08-2.83751E-19-3.76210E-19
 -1      3063 9.52456E-05-2.85529E-05-2.85825E-05-1.41202E-08 1.83196E-18 1.17020E-18
 -1      3064 8.77029E-05-1.22655E-05-3.23538E-05-1.07834E-06-1.13469E-18-3.36937E-18
 -1      3065 8.81547E-05-1.27013E-05-3.23554E-05-1.70446E-06-1.51201E-18-3.39554E-18
 -1      3066 8.92896E-05-1.45405E-05-3.20240E-05-1.36063E-06-1.46988E-18-3.18484E-18
 -1      3067 8.83247E-05-1.35296E-05-3.20411E-05-5.78602E-07-1.00661E-18-3.18940E-18
 -1      3068 1.36196E-04-3.62926E-05-4.30793E-05-1.35342E-05 2.83788E-18-3.05768E-18
 -1      3069 1.24939E-04-2.08011E-05-4.49346E-05 1.17647E-05-4.72898E-18-3.31979E-18
 -1      3070 1.33641E-04-5.44148E-05-3.39909E-05-3.67388E-06-8.43764E-19-4.11012E-18
 -1      3071 1.24111E-04-1.00789E-05-4.95416E-05-6.96965E-07-5.92330E-18-1.68546E-20
 -1      3072 1.22933E-04-1.28540E-05-4.77275E-05-6.43649E-06-4.98161E-18 1.16340E-18
 -1      3073 1.17914E-04-1.51856E-05-4.44092E-05-7.28963E-06-4.22627E-18 2.20671E-18
 -1      3074 1.18657E-04-1.22914E-05-4.59607E-05 2.42955E-06-5.19623E-18 1.22820E-20
 -1      3075 9.27282E-05-1.77612E-05-3.21358E-05-4.53403E-06-2.44959E-18-2.13107E-18
 -1      3076 9.48676E-05-2.05739E-05-3.18691E-05-5.21851E-06-2.83116E-18-9.35904E-19
 -1      3077 9.55166E-05-2.23603E-05-3.13504E-05-3.34312E-06-2.53359E-18-6.94831E-19
 -1      3078 9.30215E-05-1.87846E-05-3.17963E-05-3.03342E-06-2.19048E-18-2.23617E-18
 -1      3079 9.48819E-05-2.16513E-05-3.13771E-05-2.51910E-06-2.32573E-18-1.23718E-18
 -1      3080 9.37106E-05-2.03350E-05-3.14640E-05 1.86521E-06 1.80353E-18-2.44301E-18
 -1      3081 9.26362E-05-1.90000E-05-3.15685E-05 1.63583E-06 1.53314E-18-2.65336E-18
 -1      3082 9.53187E-05-2.41262E-05-3.04999E-05 1.89942E-06-1.77440E-18-1.33937E-18
 -1      3083 9.54512E-05-2.47747E-05-3.02952E-05 3.11371E-06-1.62558E-18-1.37497E-18
 -1      3084 1.22909E-04-1.90063E-05-4.49004E-05-9.12302E-06 3.71752E-18-1.52688E-18
 -1      3085 9.55351E-05-2.53134E-05-3.00848E-05 4.17005E-06-1.42098E-18-1.15425E-18
 -1      3086 9.56814E-05-2.58024E-05-2.99478E-05 5.14050E-06-1.22690E-18-1.03141E-18
 -1      3087 9.47143E-05-2.41426E-05-3.02465E-05 3.56745E-06-1.39232E-18-1.51357E-18
 -1      3088 9.57339E-05-2.62264E-05-2.97801E-05 6.04127E-06-1.04150E-18-8.81179E-19
 -1      3089 9.59816E-05-2.67020E-05-2.96865E-05 6.81182E-06-9.62591E-19-8.83768E-19
 -1      3090 9.48435E-05-2.52183E-05-2.98449E-05 5.57116E-06-1.06258E-18-1.03281E-18
 -1      3091 9.61147E-05-2.71600E-05-2.95424E-05 7.58628E-06-8.53451E-19-8.06908E-19
 -1      3092 9.65457E-05-2.77566E-05-2.94729E-05 8.17206E-06-5.96018E-19-7.31434E-19
 -1      3093 9.50180E-05-2.61986E-05-2.95044E-05 7.30117E-06-7.71240E-19-7.08975E-19
 -1      3094 9.68870E-05-2.83959E-05-2.93390E-05 8.82758E-06-1.93629E-19-7.31381E-19
 -1      3095 9.75998E-05-2.92495E-05-2.92828E-05 9.20296E-06 1.70579E-20-5.10599E-19
 -1      3096 9.54687E-05-2.73951E-05-2.91925E-05 8.80586E-06-4.56442E-19-7.28017E-19
 -1      3097 9.83136E-05-3.02238E-05-2.91566E-05 9.70577E-06 2.50620E-19-2.04358E-19
 -1      3098 9.94272E-05-3.14659E-05-2.91165E-05 9.79251E-06 1.95485E-19 2.86980E-21
 -1      3099 9.64800E-05-2.91354E-05-2.88930E-05 1.00814E-05 3.17288E-19-2.57634E-19
 -1      3100 1.00725E-04-3.29199E-05-2.90162E-05 1.00361E-05 4.27487E-21 2.95836E-19
 -1      3101 1.02351E-04-3.46321E-05-2.90190E-05 9.68687E-06 5.35930E-20 3.58660E-19
 -1      3102 9.84235E-05-3.17601E-05-2.86206E-05 1.10239E-05 2.71192E-19 7.03269E-21
 -1      3103 1.04468E-04-3.66347E-05-2.90011E-05 9.42755E-06-2.32016E-20 5.87956E-19
 -1      3104 1.06623E-04-3.87192E-05-2.91119E-05 8.41595E-06 2.61654E-19 6.44204E-19
 -1      3105 1.01760E-04-3.55531E-05-2.84490E-05 1.13359E-05 1.59160E-19 4.14944E-19
 -1      3106 1.09647E-04-4.10718E-05-2.92958E-05 7.25903E-06 5.65510E-19 9.29844E-19
 -1      3107 1.12119E-04-4.30872E-05-2.96276E-05 5.35452E-06 7.58847E-19 9.59107E-19
 -1      3108 1.06862E-04-4.04251E-05-2.85630E-05 1.03462E-05 5.48340E-19 8.34460E-19
 -1      3109 1.15784E-04-4.50518E-05-3.02140E-05 2.77329E-06 8.62309E-19 1.33650E-18
 -1      3110 1.17834E-04-4.58659E-05-3.09191E-05 2.10069E-08 7.41839E-19 1.38120E-18
 -1      3111 1.13595E-04-4.56168E-05-2.92867E-05 7.19890E-06 1.09902E-18 1.08388E-18
 -1      3112 1.21283E-04-4.60084E-05-3.21827E-05-4.39717E-06 4.90703E-19 1.49170E-18
 -1      3113 1.21689E-04-4.38181E-05-3.34415E-05-7.41766E-06-1.23237E-19 1.74640E-18
 -1      3114 1.21300E-04-4.88291E-05-3.12547E-05 7.21672E-07 7.54038E-19 1.21549E-18
 -1      3115 1.16581E-04-2.45993E-05-3.97183E-05-1.24500E-05-3.05220E-18 1.61771E-18
 -1      3116 1.14408E-04-1.91961E-05-4.10024E-05-9.72528E-06-3.47029E-18 1.40479E-18
 -1      3117 1.13540E-04-1.57432E-05-4.22781E-05-5.12756E-06-3.91303E-18 9.88421E-19
 -1      3118 1.12777E-04-1.42287E-05-4.25842E-05 3.98303E-07-3.81768E-18 1.33050E-19
 -1      3119 1.14009E-04-1.51273E-05-4.27203E-05 5.98900E-06-4.04400E-18-1.44972E-18
 -1      3120 1.15581E-04-1.90854E-05-4.18328E-05 1.04168E-05-3.77957E-18-1.98372E-18
 -1      3121 1.20132E-04-2.59969E-05-4.06053E-05 1.38954E-05-3.34102E-18-3.28625E-18
 -1      3122 1.22498E-04-3.28524E-05-3.89110E-05 1.39254E-05-3.10318E-18-3.50232E-18
 -1      3123 1.20426E-04-4.56034E-05-3.20484E-05 4.33079E-06 1.28014E-19-3.16112E-18
 -1      3124 1.18588E-04-4.59854E-05-3.10295E-05 7.75463E-07 9.35277E-19-3.43595E-18
 -1      3125 1.14749E-04-4.44565E-05-3.01557E-05-2.31057E-06 1.75591E-18-3.19932E-18
 -1      3126 1.12332E-04-4.28567E-05-2.96693E-05-4.69335E-06 1.70819E-18-3.10145E-18
 -1      3127 1.16819E-04-4.68062E-05-3.00355E-05-3.79241E-06 1.14549E-18-2.55222E-18
 -1      3128 1.08839E-04-4.04616E-05-2.93328E-05-6.40494E-06 9.70650E-19-2.08235E-18
 -1      3129 1.06485E-04-3.83004E-05-2.91397E-05-7.74639E-06 7.35148E-19-1.38894E-18
 -1      3130 1.09493E-04-4.25697E-05-2.88088E-05-8.43095E-06 2.15624E-18-2.06819E-18
 -1      3131 1.03916E-04-3.60919E-05-2.90708E-05-8.28350E-06 6.56866E-19-8.88423E-19
 -1      3132 1.02044E-04-3.42128E-05-2.90180E-05-8.86503E-06 1.03257E-18-5.58016E-19
 -1      3133 1.03457E-04-3.72825E-05-2.84521E-05-1.01496E-05 1.25808E-18-8.25329E-19
 -1      3134 1.00360E-04-3.25328E-05-2.90620E-05-8.79306E-06 9.42617E-19-6.34539E-19
 -1      3135 9.90153E-05-3.11262E-05-2.90652E-05-8.87352E-06 8.34231E-19-6.77006E-19
 -1      3136 9.92910E-05-3.29932E-05-2.84739E-05-1.02581E-05 8.54886E-19-5.85678E-19
 -1      3137 9.80231E-05-3.00039E-05-2.91401E-05-8.48414E-06 6.70203E-19-6.40697E-19
 -1      3138 9.71248E-05-2.90716E-05-2.91512E-05-8.26817E-06 6.92151E-19-1.19844E-19
 -1      3139 9.66939E-05-2.99584E-05-2.86368E-05-9.55997E-06 9.16519E-19-4.38449E-19
 -1      3140 9.66003E-05-2.84037E-05-2.92163E-05-7.74946E-06 7.23427E-19-4.47986E-20
 -1      3141 9.60258E-05-2.78458E-05-2.92152E-05-7.37335E-06 5.07779E-19-2.98550E-19
 -1      3142 9.52373E-05-2.80542E-05-2.88125E-05-8.52200E-06 8.52416E-19 2.83911E-19
 -1      3143 9.57931E-05-2.75045E-05-2.92568E-05-6.81893E-06-1.38500E-19 4.05383E-19
 -1      3144 9.54343E-05-2.72119E-05-2.92388E-05-6.37144E-06-3.94749E-19 3.20017E-19
 -1      3145 9.45180E-05-2.69955E-05-2.89480E-05-7.38196E-06 3.20143E-19-9.78747E-20
 -1      3146 9.53707E-05-2.70863E-05-2.92561E-05-5.83065E-06-6.37269E-19 1.49587E-19
 -1      3147 9.51484E-05-2.69675E-05-2.92238E-05-5.36829E-06-4.04319E-19-1.03160E-20
 -1      3148 9.42434E-05-2.65163E-05-2.90299E-05-6.25505E-06-3.68262E-19 2.27109E-19
 -1      3149 9.51742E-05-2.69733E-05-2.92212E-05-4.86738E-06-4.91601E-19-3.86364E-20
 -1      3150 9.50357E-05-2.69605E-05-2.91797E-05-4.42504E-06-2.93158E-19 1.23998E-19
 -1      3151 9.42170E-05-2.64061E-05-2.90628E-05-5.19982E-06-4.00645E-19-1.56316E-19
 -1      3152 9.51022E-05-2.70389E-05-2.91631E-05-3.97739E-06 1.58729E-19-3.67829E-19
 -1      3153 9.50141E-05-2.70854E-05-2.91173E-05-3.57511E-06 2.15068E-20-2.01753E-19
 -1      3154 9.43147E-05-2.65125E-05-2.90576E-05-4.24615E-06-5.30985E-19-8.01296E-19
 -1      3155 9.50934E-05-2.71976E-05-2.90921E-05-3.18620E-06-7.47211E-19 4.75166E-19
 -1      3156 9.50357E-05-2.72726E-05-2.90460E-05-2.83381E-06-1.65471E-18 1.48249E-19
 -1      3157 9.44627E-05-2.67317E-05-2.90266E-05-3.40776E-06-2.61012E-19-9.19654E-19
 -1      3158 9.51128E-05-2.73946E-05-2.90167E-05-2.50398E-06-1.24599E-18 1.20039E-18
 -1      3159 9.50735E-05-2.74793E-05-2.89731E-05-2.20439E-06 3.15134E-19 8.22157E-19
 -1      3160 9.46198E-05-2.69969E-05-2.89802E-05-2.68802E-06-6.35456E-19 6.11424E-19
 -1      3161 9.51414E-05-2.75970E-05-2.89430E-05-1.93061E-06-3.95197E-19 5.94823E-19
 -1      3162 9.51138E-05-2.76803E-05-2.89036E-05-1.68223E-06-6.17926E-19 5.54101E-19
 -1      3163 9.47649E-05-2.72672E-05-2.89267E-05-2.08327E-06-2.85687E-19 2.75743E-19
 -1      3164 9.51699E-05-2.77864E-05-2.88748E-05-1.45944E-06-6.06742E-19 4.93421E-19
 -1      3165 9.51499E-05-2.78624E-05-2.88404E-05-1.25801E-06-5.38102E-19 3.30609E-19
 -1      3166 9.48889E-05-2.75195E-05-2.88720E-05-1.58512E-06-8.25584E-19-4.28188E-19
 -1      3167 9.51943E-05-2.79536E-05-2.88142E-05-1.08005E-06-5.43969E-19 1.98624E-19
 -1      3168 9.51794E-05-2.80196E-05-2.87851E-05-9.19959E-07-1.05398E-18-3.20327E-19
 -1      3169 9.49895E-05-2.77424E-05-2.88198E-05-1.18241E-06-7.78602E-19-2.40901E-19
 -1      3170 9.52132E-05-2.80955E-05-2.87621E-05-7.80335E-07-9.99855E-19 2.63741E-19
 -1      3171 9.52020E-05-2.81509E-05-2.87380E-05-6.55489E-07-8.67783E-19 3.35385E-19
 -1      3172 9.50679E-05-2.79317E-05-2.87724E-05-8.62624E-07-7.99866E-19-7.62451E-19
 -1      3173 9.52268E-05-2.82123E-05-2.87184E-05-5.47859E-07-1.38368E-18 4.10781E-19
 -1      3174 9.52184E-05-2.82574E-05-2.86990E-05-4.52298E-07-9.50604E-19-1.02395E-18
 -1      3175 9.51268E-05-2.80877E-05-2.87309E-05-6.13110E-07-9.87722E-19-1.47140E-18
 -1      3176 9.52360E-05-2.83059E-05-2.86827E-05-3.70809E-07-6.42245E-19-6.38440E-19
 -1      3177 9.52296E-05-2.83418E-05-2.86672E-05-2.99045E-07-7.60975E-19-6.89456E-19
 -1      3178 9.51696E-05-2.82131E-05-2.86956E-05-4.21813E-07-9.50666E-19-8.10172E-19
 -1      3179 9.52415E-05-2.83794E-05-2.86539E-05-2.38517E-07-6.10580E-20-6.13424E-19
 -1      3180 9.52368E-05-2.84076E-05-2.86418E-05-1.85733E-07 2.74132E-19-3.18173E-19
 -1      3181 9.51995E-05-2.83116E-05-2.86663E-05-2.77796E-07 1.09533E-19 8.72343E-19
 -1      3182 9.52444E-05-2.84362E-05-2.86311E-05-1.41743E-07 4.75027E-19 2.55515E-19
 -1      3183 9.52410E-05-2.84579E-05-2.86218E-05-1.03873E-07 5.33546E-19 3.21765E-19
 -1      3184 9.52195E-05-2.83878E-05-2.86422E-05-1.71517E-07 1.18139E-18 8.49458E-19
 -1      3185 9.52455E-05-2.84795E-05-2.86133E-05-7.27647E-08 3.96139E-19 2.92056E-19
 -1      3186 9.52431E-05-2.84962E-05-2.86062E-05-4.64918E-08 3.01694E-19-3.27604E-20
 -1      3187 9.52320E-05-2.84457E-05-2.86228E-05-9.49240E-08 8.56227E-19 2.69524E-19
 -1      3188 9.52455E-05-2.85124E-05-2.85994E-05-2.53558E-08-6.43965E-19 1.53344E-18
 -1      3189 9.52440E-05-2.85254E-05-2.85939E-05-8.09000E-09-1.32703E-19 9.06179E-19
 -1      3190 9.52394E-05-2.84894E-05-2.86072E-05-4.14862E-08 1.17066E-18 5.80541E-19
 -1      3191 9.52450E-05-2.85369E-05-2.85888E-05 4.25809E-09 4.38435E-19 5.50024E-19
 -1      3192 9.52441E-05-2.85474E-05-2.85845E-05 1.46492E-08 6.71137E-19 3.50335E-19
 -1      3193 9.52448E-05-2.85464E-05-2.85853E-05 1.36074E-08 2.00804E-19 2.18476E-19
 -1      3194 9.52432E-05-2.85221E-05-2.85950E-05-7.18538E-09-4.25762E-19 1.55083E-18
 -1      3195 1.21472E-04-3.00873E-05-3.94210E-05-1.40801E-05-2.57154E-18 1.96649E-18
 -1      3196 9.82829E-05-2.95030E-05-2.94605E-05-1.14397E-05-1.52470E-19-8.18901E-19
 -1      3197 9.73257E-05-2.84995E-05-2.94841E-05-1.10462E-05-9.95786E-20-8.96608E-19
 -1      3198 1.10737E-04-4.21279E-05-2.94051E-05-9.83924E-06-7.09374E-19 6.72022E-19
 -1      3199 1.07648E-04-3.92662E-05-2.92008E-05-1.13997E-05-2.64013E-19 4.81861E-19
 -1      3200 1.18801E-04-4.79157E-05-3.03783E-05-5.05864E-06-6.03471E-19 1.48728E-18
 -1      3201 1.15187E-04-4.54378E-05-2.97580E-05-8.13799E-06-7.90034E-19 1.12641E-18
 -1      3202 1.10636E-04-4.44074E-05-2.85340E-05-1.27103E-05-9.67523E-19 9.72156E-19
 -1      3203 1.27094E-04-5.08827E-05-3.26655E-05 1.57449E-06-3.31620E-19 2.76846E-18
 -1      3204 1.24259E-04-5.13222E-05-3.12410E-05-2.66259E-06-8.18326E-19 2.22662E-18
 -1      3205 1.25140E-04-2.69420E-05-4.22557E-05 1.39032E-05 3.66998E-18 3.19548E-18
 -1      3206 1.27811E-04-3.53229E-05-4.01049E-05 1.52599E-05 2.96102E-18 3.74158E-18
 -1      3207 1.30880E-04-5.13755E-05-3.40556E-05-4.81297E-06-6.55961E-19-2.68668E-18
 -1      3208 1.31333E-04-4.71285E-05-3.62307E-05-8.62644E-06 6.71591E-19-2.95742E-18
 -1      3209 1.14096E-04-4.44287E-05-2.97118E-05 7.97085E-06-1.42247E-18-1.18782E-18
 -1      3210 1.17867E-04-4.71005E-05-3.02699E-05 5.04079E-06-1.51350E-18-1.73279E-18
 -1      3211 1.06791E-04-3.82601E-05-2.92697E-05 1.07211E-05-1.68035E-18-3.63395E-19
 -1      3212 1.09771E-04-4.10905E-05-2.94314E-05 9.36693E-06-1.51028E-18-2.42841E-19
 -1      3213 1.09281E-04-4.31615E-05-2.84828E-05 1.22708E-05-2.00944E-18-1.19700E-18
 -1      3214 1.01853E-04-3.34055E-05-2.92803E-05 1.13599E-05-1.15088E-18-1.65935E-19
 -1      3215 1.03996E-04-3.56154E-05-2.92962E-05 1.09386E-05-1.41649E-18-1.79254E-20
 -1      3216 1.02432E-04-3.65669E-05-2.83295E-05 1.32125E-05-1.70691E-18-7.55759E-19
 -1      3217 9.88328E-05-3.01544E-05-2.94090E-05 1.08499E-05-1.43631E-18-3.89873E-19
 -1      3218 1.00248E-04-3.16245E-05-2.93944E-05 1.09695E-05-9.07986E-19-4.96821E-20
 -1      3219 9.81818E-05-3.17126E-05-2.85494E-05 1.25888E-05-1.07485E-18-1.20623E-19
 -1      3220 9.71273E-05-2.82379E-05-2.95161E-05 9.80275E-06-1.11215E-19-1.34701E-18
 -1      3221 9.80199E-05-2.91087E-05-2.95174E-05 1.02154E-05-9.12610E-19-7.77115E-19
 -1      3222 9.58798E-05-2.86746E-05-2.88344E-05 1.13310E-05-1.07115E-18-1.98676E-19
 -1      3223 9.62239E-05-2.72554E-05-2.95589E-05 8.54595E-06-1.18918E-18-6.54976E-19
 -1      3224 9.67825E-05-2.77118E-05-2.95874E-05 9.09642E-06-4.44282E-19-1.04430E-18
 -1      3225 9.47936E-05-2.70109E-05-2.90635E-05 9.88305E-06-7.38354E-19-1.16240E-19
 -1      3226 9.57708E-05-2.68616E-05-2.95377E-05 7.25404E-06-8.73188E-19 2.14702E-19
 -1      3227 9.61294E-05-2.70579E-05-2.95896E-05 7.84726E-06-8.51639E-19-3.23120E-19
 -1      3228 9.43923E-05-2.62582E-05-2.92045E-05 8.43544E-06-8.63921E-19 3.16190E-19
 -1      3229 9.55535E-05-2.68083E-05-2.94690E-05 6.02254E-06 4.54962E-20-6.74203E-19
 -1      3230 9.57957E-05-2.68536E-05-2.95356E-05 6.60124E-06-1.02504E-19-4.23494E-19
 -1      3231 9.43402E-05-2.60582E-05-2.92635E-05 7.07014E-06-5.20599E-19 1.65891E-19
 -1      3232 9.54514E-05-2.69334E-05-2.93718E-05 4.90293E-06-3.04750E-19-7.66880E-19
 -1      3233 9.56249E-05-2.68983E-05-2.94444E-05 5.43463E-06-8.66310E-20-7.48028E-19
 -1      3234 9.44432E-05-2.61650E-05-2.92603E-05 5.82629E-06 2.11760E-19-6.38876E-19
 -1      3235 9.54013E-05-2.71380E-05-2.92620E-05 3.91952E-06-1.72754E-19-2.17066E-19
 -1      3236 9.55323E-05-2.70655E-05-2.93340E-05 4.38821E-06 6.22437E-20-7.34998E-19
 -1      3237 9.45971E-05-2.64220E-05-2.92159E-05 4.72285E-06-5.31752E-19-1.69580E-18
 -1      3238 9.53725E-05-2.73653E-05-2.91514E-05 3.07910E-06 8.60012E-19-4.86357E-19
 -1      3239 9.54748E-05-2.72800E-05-2.92185E-05 3.47950E-06 1.44636E-19-6.90862E-20
 -1      3240 9.47513E-05-2.67352E-05-2.91481E-05 3.76644E-06-2.22361E-19-1.32120E-18
 -1      3241 9.53516E-05-2.75851E-05-2.90473E-05 2.37729E-06 9.90064E-19-9.74725E-19
 -1      3242 9.54328E-05-2.75004E-05-2.91071E-05 2.71079E-06 1.31309E-18-9.24783E-19
 -1      3243 9.48846E-05-2.70517E-05-2.90702E-05 2.95486E-06 1.28480E-18-6.66991E-20
 -1      3244 9.53335E-05-2.77828E-05-2.89540E-05 1.80299E-06 1.04951E-18 1.47899E-19
 -1      3245 9.53981E-05-2.77053E-05-2.90054E-05 2.07487E-06 6.04028E-19-2.98114E-19
 -1      3246 9.49912E-05-2.73440E-05-2.89910E-05 2.27957E-06 4.85651E-19 2.99215E-19
 -1      3247 9.53169E-05-2.79528E-05-2.88732E-05 1.34161E-06 4.26720E-19 1.82423E-18
 -1      3248 9.53679E-05-2.78853E-05-2.89163E-05 1.55908E-06 1.00941E-18 1.12334E-18
 -1      3249 9.50722E-05-2.76001E-05-2.89164E-05 1.72793E-06-8.16769E-20 6.72230E-19
 -1      3250 9.53017E-05-2.80945E-05-2.88053E-05 9.77308E-07-2.41639E-19 1.96832E-18
 -1      3251 9.53414E-05-2.80376E-05-2.88405E-05 1.14821E-06 5.68369E-19 2.42807E-18
 -1      3252 9.51314E-05-2.78165E-05-2.88492E-05 1.28508E-06 9.96515E-20 1.55889E-18
 -1      3253 9.52881E-05-2.82099E-05-2.87495E-05 6.94405E-07 9.45412E-19 9.77844E-19
 -1      3254 9.53185E-05-2.81631E-05-2.87777E-05 8.26455E-07 5.60545E-20 1.10467E-18
 -1      3255 9.51734E-05-2.79947E-05-2.87910E-05 9.35487E-07 3.62200E-19 1.65672E-18
 -1      3256 9.52765E-05-2.83019E-05-2.87046E-05 4.78337E-07 8.66075E-19 1.32607E-18
 -1      3257 9.52993E-05-2.82642E-05-2.87268E-05 5.78665E-07 1.12190E-18 1.16278E-18
 -1      3258 9.52022E-05-2.81382E-05-2.87420E-05 6.64014E-07 1.14493E-18 5.91280E-19
 -1      3259 9.52669E-05-2.83742E-05-2.86692E-05 3.16122E-07 9.66131E-19 3.86142E-19
 -1      3260 9.52836E-05-2.83443E-05-2.86863E-05 3.91025E-07 8.16225E-19 6.27319E-19
 -1      3261 9.52212E-05-2.82516E-05-2.87015E-05 4.56681E-07 1.23849E-18 3.03304E-19
 -1      3262 9.52591E-05-2.84300E-05-2.86417E-05 1.96585E-07 7.22871E-19 5.99886E-19
 -1      3263 9.52710E-05-2.84067E-05-2.86547E-05 2.51436E-07 1.24539E-18 7.45004E-19
 -1      3264 9.52332E-05-2.83398E-05-2.86689E-05 3.01048E-07 6.55942E-19 4.35458E-19
 -1      3265 9.52531E-05-2.84727E-05-2.86206E-05 1.10391E-07 8.71626E-19-1.44178E-19
 -1      3266 9.52613E-05-2.84546E-05-2.86303E-05 1.49638E-07 8.27956E-19 2.56042E-19
 -1      3267 9.52402E-05-2.84074E-05-2.86429E-05 1.86419E-07 9.20920E-19-4.69147E-19
 -1      3268 9.52487E-05-2.85052E-05-2.86046E-05 4.99573E-08 1.06677E-18-4.97198E-19
 -1      3269 9.52540E-05-2.84912E-05-2.86118E-05 7.71734E-08 1.47301E-18 1.46143E-19
 -1      3270 9.52438E-05-2.84586E-05-2.86225E-05 1.03858E-07 8.18958E-19 1.70461E-18
 -1      3271 9.52455E-05-2.85300E-05-2.85926E-05 9.42732E-09-6.85794E-19-1.17209E-18
 -1      3272 9.52487E-05-2.85191E-05-2.85978E-05 2.73805E-08-4.27777E-19-6.23542E-19
 -1      3273 9.52453E-05-2.84972E-05-2.86065E-05 4.61722E-08 2.91952E-19 2.10932E-18
 -1      3274 9.52437E-05-2.85494E-05-2.85833E-05-1.56730E-08 2.88979E-19-6.42480E-19
 -1      3275 9.52453E-05-2.85408E-05-2.85872E-05-5.11281E-09 4.27586E-20-1.23447E-18
 -1      3276 9.52454E-05-2.85265E-05-2.85940E-05 7.65254E-09-2.39841E-19-7.90272E-19
 -1      3277 9.52441E-05-2.85601E-05-2.85788E-05-2.46705E-08-6.79106E-19-7.42242E-19
 -1      3278 9.52436E-05-2.85544E-05-2.85809E-05-2.10013E-08 2.74084E-19-1.43334E-18
 -1      3279 9.52456E-05-2.85451E-05-2.85860E-05-1.24130E-08 4.31289E-19-1.15523E-18
 -1      3280 9.52461E-05-2.85578E-05-2.85808E-05-2.13014E-08-1.28339E-19-5.08345E-19
 -1      3281 9.52354E-05-2.85226E-05-2.85912E-05 2.10030E-09-1.24961E-18-1.21550E-18
 -1      3282 9.52343E-05-2.85209E-05-2.85916E-05 7.30225E-10-6.12903E-19-1.05732E-18
 -1      3283 9.52334E-05-2.85193E-05-2.85919E-05 9.63556E-10-4.10928E-20-1.34272E-18
 -1      3284 9.52335E-05-2.85193E-05-2.85919E-05-1.34046E-10 6.86190E-19 3.69367E-19
 -1      3285 9.52286E-05-2.84997E-05-2.85978E-05-4.77287E-10-3.88025E-19-1.17659E-18
 -1      3286 1.37398E-04-4.75661E-05-3.89329E-05 9.07037E-06 1.83515E-18 4.16740E-18
 -1      3287 1.32045E-04-3.98825E-05-3.97097E-05 1.34066E-05 2.40933E-18 4.38721E-18
 -1      3288 1.28999E-04-5.51417E-05-3.14812E-05-5.74749E-06 3.02695E-19-4.13246E-18
 -1      3289 1.30506E-04-5.09119E-05-3.45078E-05 2.68746E-06-9.27845E-19-5.42006E-18
 -1      3290 9.80841E-05-4.63246E-05-2.17413E-05-3.03787E-05-2.89106E-18-9.97103E-19
 -1      3291 1.09885E-04-5.25540E-05-2.47660E-05-2.60486E-05-2.19133E-18 8.37927E-19
 -1      3292 4.33930E-05-1.49059E-05-1.19886E-05 1.46523E-05 4.51998E-19-6.07344E-18
 -1      3293 3.94715E-05-1.22869E-05-1.10132E-05 5.58278E-07-6.41932E-19-6.45206E-18
 -1      3294 8.76192E-05-4.03880E-05-2.02441E-05 3.19207E-05 2.29779E-18-1.88380E-18
 -1      3295 7.17819E-05-3.14135E-05-1.66776E-05 3.25417E-05 2.20430E-18-3.33530E-18
 -1      3296 1.27582E-04-2.19014E-05-4.58627E-05 1.31044E-05 5.24758E-18 2.55264E-18
 -1      3297 9.69634E-05-2.78445E-05-2.96082E-05-1.03017E-05-1.55719E-19-1.01116E-18
 -1      3298 9.63790E-05-2.72415E-05-2.96249E-05-9.69018E-06 3.18208E-20-9.36678E-19
 -1      3299 9.52356E-05-2.72695E-05-2.91475E-05-1.10958E-05-1.15895E-19-1.17786E-18
 -1      3300 8.35368E-05-3.95669E-05-1.83468E-05-3.42846E-05 2.67001E-18-2.25840E-19
 -1      3301 9.96556E-05-4.88460E-05-2.20404E-05-3.16179E-05 3.17457E-18-1.40735E-18
 -1      3302 9.52395E-05-2.85304E-05-2.85896E-05 4.92687E-09 1.60046E-19 5.53860E-19
 -1      3303 9.52377E-05-2.85272E-05-2.85904E-05 2.73081E-09-8.11767E-19-1.76659E-19
 -1      3304 9.52321E-05-2.85060E-05-2.85966E-05-1.34137E-09-2.73528E-19-4.54478E-19
 -1      3305 9.52436E-05-2.85411E-05-2.85868E-05 1.04293E-08 3.50815E-19-9.51091E-19
 -1      3306 9.52423E-05-2.85371E-05-2.85882E-05 7.07548E-09-5.07955E-20-9.51674E-19
 -1      3307 9.52377E-05-2.85174E-05-2.85942E-05 4.06348E-10-5.19935E-19-1.04583E-19
 -1      3308 9.56104E-05-2.33165E-05-3.09854E-05 9.17242E-07 1.88898E-18-1.79961E-18
 -1      3309 9.45112E-05-2.14863E-05-3.12913E-05 1.51133E-06 1.91183E-18-2.11960E-18
 -1      3310 9.43715E-05-2.19172E-05-3.10472E-05 1.44868E-07 1.71357E-18-2.14570E-18
 -1      3311 9.57260E-05-2.41237E-05-3.06912E-05-7.33538E-07 1.62881E-18-1.82226E-18
 -1      3312 1.04674E-04-3.65143E-05-2.92035E-05-1.18110E-05-1.50439E-19 2.91912E-20
 -1      3313 1.02399E-04-3.41846E-05-2.91746E-05-1.23796E-05-3.26372E-19-1.93554E-19
 -1      3314 1.03431E-04-3.77092E-05-2.82772E-05-1.41456E-05-5.67977E-19 1.79770E-19
 -1      3315 9.48141E-05-2.22916E-05-3.10770E-05-8.32379E-07-2.03839E-18-1.56530E-18
 -1      3316 9.50793E-05-2.32946E-05-3.07739E-05 6.58300E-07-1.89838E-18-1.52711E-18
 -1      3317 9.44058E-05-2.26558E-05-3.07478E-05 1.23318E-06-1.79938E-18-1.72037E-18
 -1      3318 9.62919E-05-2.68854E-05-2.97346E-05-8.86673E-06 4.45011E-20-1.06415E-18
 -1      3319 9.59442E-05-2.65037E-05-2.97563E-05-8.10254E-06 3.04449E-19-1.25334E-18
 -1      3320 9.48208E-05-2.61736E-05-2.94295E-05-9.45619E-06 7.48048E-20-1.28690E-18
 -1      3321 1.26060E-04-4.09829E-05-3.64317E-05 1.14833E-05-2.05480E-18-4.13731E-18
 -1      3322 1.00676E-04-3.22750E-05-2.92983E-05-1.20819E-05-4.81973E-19-7.02819E-19
 -1      3323 9.91556E-05-3.06727E-05-2.93204E-05-1.20469E-05-3.56743E-19-8.91512E-19
 -1      3324 9.63986E-05-2.92288E-05-2.88254E-05-1.25837E-05-2.83682E-19-1.09895E-18
 -1      3325 9.88756E-05-3.25603E-05-2.84906E-05-1.37583E-05-6.57581E-19-1.07316E-18
 -1      3326 9.59817E-05-2.62717E-05-2.98683E-05-7.20246E-06 5.80366E-19-1.40097E-18
 -1      3327 9.57846E-05-2.59659E-05-2.99163E-05-6.29556E-06 7.46387E-19-1.39077E-18
 -1      3328 9.47823E-05-2.55136E-05-2.96916E-05-7.68528E-06 3.13140E-19-1.43040E-18
 -1      3329 1.28981E-04-4.77350E-05-3.51471E-05-5.28709E-06-5.16028E-19 1.97834E-18
 -1      3330 1.28220E-04-5.30119E-05-3.19740E-05 2.26155E-06 8.21873E-19 1.73118E-18
 -1      3331 5.85047E-05-2.33770E-05-1.46819E-05-2.73486E-05 2.23672E-18 3.12979E-18
 -1      3332 6.98515E-05-3.12096E-05-1.64221E-05-3.31997E-05 2.89288E-18 1.54181E-18
 -1      3333 1.34731E-04-5.06511E-05-3.59072E-05 5.61064E-06 5.37919E-19 4.01764E-18
 -1      3334 1.14573E-04-5.37710E-05-2.56119E-05-2.25889E-05 2.55587E-18-1.38152E-18
 -1      3335 1.23483E-04-5.64118E-05-2.90266E-05-1.47721E-05 1.21925E-18-2.65247E-18
 -1      3336 1.23675E-04-5.35099E-05-2.99388E-05-7.91012E-06 1.15743E-18-3.59967E-18
 -1      3337 5.91844E-05-2.50327E-05-1.44957E-05 2.93593E-05 1.87353E-18-4.75185E-18
 -1      3338 5.16118E-05-1.90507E-05-1.32866E-05 2.26604E-05 1.35179E-18-5.71260E-18
 -1      3339 5.12822E-05-1.64770E-05-1.46437E-05 1.55668E-05 5.05943E-19-5.42472E-18
 -1      3340 6.95682E-05-2.72698E-05-1.78443E-05 2.73136E-05 1.89399E-18-3.69518E-18
 -1      3341 8.88551E-05-1.48501E-05-3.17313E-05 6.81793E-07 3.97622E-19-3.30900E-18
 -1      3342 8.85457E-05-1.45339E-05-3.17346E-05 3.88681E-07 5.98951E-21-3.25622E-18
 -1      3343 6.77085E-05-2.87522E-05-1.62590E-05-3.00516E-05-2.85191E-18-3.71869E-18
 -1      3344 8.32836E-05-3.87355E-05-1.90477E-05-3.33383E-05-2.87234E-18-2.34226E-18
 -1      3345 9.20683E-05-4.04868E-05-2.17685E-05-2.85195E-05-2.75159E-18-1.54118E-18
 -1      3346 1.05521E-04-5.09361E-05-2.35016E-05 2.82051E-05-3.40285E-18 3.30094E-18
 -1      3347 9.05501E-05-4.23076E-05-2.03345E-05 3.12721E-05-3.44883E-18 3.52149E-18
 -1      3348 9.36592E-05-2.00574E-05-3.15605E-05-2.36201E-06-2.15335E-18-2.06452E-18
 -1      3349 9.42622E-05-2.12143E-05-3.13027E-05-1.53617E-06-2.09489E-18-1.76602E-18
 -1      3350 9.23749E-05-1.84100E-05-3.16993E-05-2.08016E-06-1.89925E-18-2.51613E-18
 -1      3351 1.20494E-04-3.55720E-05-3.65031E-05-1.24877E-05-1.66341E-18 1.76560E-18
 -1      3352 1.26385E-04-3.62329E-05-3.89170E-05-1.26819E-05-1.93261E-18 2.32267E-18
 -1      3353 1.29562E-04-4.34729E-05-3.70376E-05-9.87266E-06-1.30390E-18 2.40195E-18
 -1      3354 1.22064E-04-4.07913E-05-3.50000E-05-1.11786E-05-6.67621E-19 1.95058E-18
 -1      3355 1.28145E-04-4.06488E-05-3.75728E-05 1.31120E-05 2.11001E-18 3.46058E-18
 -1      3356 1.23642E-04-4.37340E-05-3.42508E-05 8.15086E-06-1.08559E-18-3.55702E-18
 -1      3357 1.28900E-04-4.66018E-05-3.55518E-05 1.00328E-05 1.05670E-18 3.36463E-18
 -1      3358 8.84033E-05-1.43868E-05-3.17363E-05 3.00185E-07-1.89411E-19-3.12842E-18
 -1      3359 8.84298E-05-1.44000E-05-3.17362E-05 1.25007E-08-5.15113E-19-3.03219E-18
 -1      3360 8.89901E-05-1.55981E-05-3.14289E-05 2.13245E-07-2.51656E-20-2.95848E-18
 -1      3361 5.18895E-05-1.65461E-05-1.48676E-05-1.73426E-05 1.19879E-18 3.66146E-18
 -1      3362 5.48663E-05-1.98238E-05-1.45717E-05-2.34415E-05 1.52167E-18 3.65606E-18
 -1      3363 6.44399E-05-2.31938E-05-1.74580E-05-2.41844E-05 2.48437E-18 5.94247E-19
 -1      3364 3.88679E-05-1.20752E-05-1.08950E-05-2.07343E-06-2.65975E-19 5.91695E-18
 -1      3365 4.45728E-05-1.26816E-05-1.32935E-05-6.38689E-06 7.10613E-19 5.30264E-18
 -1      3366 4.23435E-05-1.23765E-05-1.25729E-05 5.05745E-06-3.05213E-19 6.01404E-18
 -1      3367 9.48820E-05-2.49468E-05-2.99751E-05-5.73316E-06 7.09283E-19-1.56202E-18
 -1      3368 9.58457E-05-2.57133E-05-3.00539E-05-5.28981E-06 8.30370E-19-1.49647E-18
 -1      3369 9.57402E-05-2.53564E-05-3.01556E-05-4.20452E-06 9.30409E-19-1.62446E-18
 -1      3370 1.25069E-04-2.48042E-05-4.33732E-05-1.48241E-05 2.93592E-18-2.48657E-18
 -1      3371 8.39987E-05-3.78895E-05-1.94585E-05 3.15958E-05-2.90598E-18 3.06308E-18
 -1      3372 7.67225E-05-3.23383E-05-1.88028E-05 2.93727E-05-2.56018E-18 2.81141E-18
 -1      3373 9.36479E-05-4.11258E-05-2.22176E-05 2.73567E-05-2.41378E-18 3.84129E-18
 -1      3374 1.22210E-04-5.24074E-05-2.98652E-05 8.03834E-06 1.00011E-18 1.00192E-18
 -1      3375 9.05518E-05-1.63695E-05-3.17992E-05-1.38633E-06-1.69823E-18-3.08561E-18
 -1      3376 9.14057E-05-1.73426E-05-3.17581E-05-1.76650E-06-1.87468E-18-2.88229E-18
 -1      3377 9.21039E-05-1.85033E-05-3.15342E-05-1.19252E-06-1.75143E-18-2.77418E-18
 -1      3378 1.32011E-04-4.11241E-05-3.91543E-05-1.42838E-05 1.68242E-18-3.64134E-18
 -1      3379 1.06773E-04-4.93115E-05-2.45063E-05-2.44146E-05 2.94926E-18-1.11980E-18
 -1      3380 6.33868E-05-2.48097E-05-1.61618E-05-2.70961E-05-2.60256E-18-4.08810E-18
 -1      3381 7.39529E-05-2.85532E-05-1.92177E-05-2.63376E-05-2.75237E-18-2.84839E-18
 -1      3382 5.93886E-05-2.06173E-05-1.63919E-05-2.17813E-05-2.20812E-18-4.03876E-18
 -1      3383 1.23248E-04-4.67401E-05-3.27588E-05 5.05169E-06-6.11717E-20-3.40992E-18
 -1      3384 1.20906E-04-5.24440E-05-2.95272E-05-9.99252E-06-1.10212E-18 2.08426E-18
 -1      3385 9.58387E-05-2.51205E-05-3.03090E-05-3.21213E-06 1.17237E-18-1.77336E-18
 -1      3386 9.57617E-05-2.45990E-05-3.04889E-05-1.89013E-06 1.36190E-18-1.80649E-18
 -1      3387 9.51250E-05-2.35568E-05-3.06698E-05-1.46383E-06 1.46254E-18-1.78948E-18
 -1      3388 9.50444E-05-2.43526E-05-3.02975E-05-3.67620E-06 1.02193E-18-1.75552E-18
 -1      3389 1.27038E-04-3.25065E-05-4.09897E-05-1.56959E-05 2.48636E-18-3.15537E-18
 -1      3390 1.19052E-04-5.17642E-05-2.90031E-05 1.11880E-05-1.79218E-18-1.56156E-18
 -1      3391 1.22949E-04-5.10846E-05-3.07490E-05 4.09581E-06-1.54892E-18-2.10748E-18
 -1      3392 1.26357E-04-5.15453E-05-3.20812E-05 3.64676E-08-1.05112E-18-2.58086E-18
 -1      3393 9.52382E-05-2.85275E-05-2.85905E-05-2.12923E-09 2.12327E-18 1.82052E-18
 -1      3394 9.52401E-05-2.85308E-05-2.85897E-05-4.46248E-09 2.37174E-18 8.17211E-19
 -1      3395 8.91945E-05-1.49358E-05-3.18383E-05-7.30809E-07-1.21419E-18-3.03469E-18
 -1      3396 8.98035E-05-1.55744E-05-3.18240E-05-1.10630E-06-1.48586E-18-3.13763E-18
 -1      3397 9.04213E-05-1.66297E-05-3.16177E-05-7.08322E-07-1.43954E-18-2.98767E-18
 -1      3398 9.52345E-05-2.85210E-05-2.85917E-05 8.14947E-11 2.16878E-18 3.94884E-19
 -1      3399 9.52358E-05-2.85228E-05-2.85913E-05-1.36797E-09 2.38405E-18 7.44952E-19
 -1      3400 9.52326E-05-2.85063E-05-2.85967E-05 2.10571E-09 2.37283E-18 1.33885E-18
 -1      3401 9.52288E-05-2.84998E-05-2.85978E-05 1.35519E-09 1.58179E-18-1.13298E-18
 -1      3402 1.13954E-04-5.24167E-05-2.61694E-05 2.00580E-05-2.41341E-18 1.32322E-18
 -1      3403 1.31443E-04-5.25360E-05-3.38327E-05 1.75435E-06-3.84295E-19 3.46135E-18
 -1      3404 1.16938E-04-5.31560E-05-2.72031E-05-1.78171E-05-1.97615E-18 1.91607E-18
 -1      3405 9.52446E-05-2.85437E-05-2.85862E-05 1.23406E-08-7.89390E-21-9.37568E-19
 -1      3406 9.52445E-05-2.85433E-05-2.85863E-05 1.13650E-08 1.27483E-19-4.58349E-19
 -1      3407 9.52418E-05-2.85264E-05-2.85921E-05 2.80470E-09-4.54565E-19-9.52843E-19
 -1      3408 9.52441E-05-2.85317E-05-2.85907E-05 3.88348E-09-1.30358E-18-2.29624E-19
 -1      3409 9.52382E-05-2.85177E-05-2.85943E-05 1.11501E-10 2.67146E-18 1.40403E-18
 -1      3410 9.52426E-05-2.85372E-05-2.85882E-05-6.73916E-09 1.92098E-18 8.11262E-19
 -1      3411 9.52439E-05-2.85410E-05-2.85869E-05-9.75487E-09 1.67854E-18 1.50325E-18
 -1      3412 9.82917E-05-4.51251E-05-2.24506E-05 2.93353E-05 2.24731E-18-1.30967E-18
 -1      3413 8.87423E-05-3.79762E-05-2.17603E-05 2.81266E-05 2.05673E-18-1.68668E-18
 -1      3414 1.06623E-04-4.80936E-05-2.49701E-05 2.29408E-05 2.09623E-18-1.54107E-19
 -1      3415 8.93337E-05-1.53556E-05-3.17224E-05 7.75000E-07 5.83545E-19-3.21956E-18
 -1      3416 8.96124E-05-1.62420E-05-3.14189E-05 2.80665E-07 4.59509E-19-3.02673E-18
 -1      3417 8.99597E-05-1.60091E-05-3.17081E-05 1.08158E-06 9.39670E-19-3.21757E-18
 -1      3418 5.06801E-05-1.94757E-05-1.28246E-05 2.32867E-05-1.66511E-18 3.00686E-18
 -1      3419 4.82295E-05-1.53433E-05-1.36588E-05 1.55671E-05-1.76940E-18 4.38138E-18
 -1      3420 6.12522E-05-2.28871E-05-1.62191E-05 2.43446E-05-2.52281E-18 1.57347E-18
 -1      3421 9.16297E-05-1.78527E-05-3.16372E-05 1.50813E-06 1.36243E-18-2.82679E-18
 -1      3422 9.07361E-05-1.68597E-05-3.16797E-05 1.20393E-06 1.04385E-18-3.09463E-18
 -1      3423 9.08814E-05-1.75894E-05-3.13832E-05 3.74869E-07 9.18180E-19-2.93540E-18
 -1      3424 9.26297E-05-1.95768E-05-3.12863E-05 4.94201E-07 1.33930E-18-2.49786E-18
 -1      3425 8.07246E-05-3.49797E-05-1.92543E-05-3.03160E-05 3.65643E-18 1.97809E-19
 -1      3426 9.36049E-05-2.06688E-05-3.12552E-05-7.69685E-07-1.95125E-18-2.15664E-18
 -1      3427 1.24986E-04-4.55796E-05-3.41093E-05-7.20600E-06-3.43184E-19 1.68549E-18
 -1      3428 9.38513E-05-2.29599E-05-3.03803E-05 2.86009E-06-1.27483E-18-1.71520E-18
 -1      3429 9.39387E-05-2.35983E-05-3.01499E-05 3.94133E-06-1.01881E-18-1.51883E-18
 -1      3430 9.38936E-05-2.41220E-05-2.99006E-05 4.89817E-06-8.87974E-19-1.32500E-18
 -1      3431 9.39498E-05-2.46286E-05-2.97071E-05 5.83229E-06-7.78688E-19-1.21958E-18
 -1      3432 9.30262E-05-2.29757E-05-3.00164E-05 4.22599E-06-8.83256E-19-1.40985E-18
 -1      3433 9.38382E-05-2.50652E-05-2.94730E-05 6.72810E-06-7.80719E-19-9.70198E-19
 -1      3434 9.39743E-05-2.55911E-05-2.92984E-05 7.54878E-06-6.45733E-19-9.63994E-19
 -1      3435 9.28554E-05-2.39927E-05-2.95118E-05 6.08641E-06-6.69750E-19-1.13847E-18
 -1      3436 9.39180E-05-2.60981E-05-2.90633E-05 8.42555E-06-5.18708E-19-7.43564E-19
 -1      3437 9.42629E-05-2.68055E-05-2.88941E-05 9.15520E-06-2.16750E-19-5.82809E-19
 -1      3438 9.26636E-05-2.49731E-05-2.90157E-05 7.88412E-06-4.76748E-19-9.81185E-19
 -1      3439 9.44176E-05-2.75566E-05-2.86474E-05 1.00481E-05 2.85884E-19-4.67588E-19
 -1      3440 9.51390E-05-2.86267E-05-2.84807E-05 1.06804E-05 4.74594E-19-5.05928E-19
 -1      3441 9.27176E-05-2.62557E-05-2.84996E-05 9.71341E-06 9.29660E-20-6.78931E-19
 -1      3442 9.57223E-05-2.98188E-05-2.82244E-05 1.15947E-05 4.59189E-19-4.64181E-19
 -1      3443 9.70367E-05-3.14462E-05-2.80776E-05 1.20667E-05 4.43816E-19-2.00320E-19
 -1      3444 9.33783E-05-2.82353E-05-2.79522E-05 1.16454E-05 4.81579E-19-8.53114E-19
 -1      3445 9.83688E-05-3.32987E-05-2.78405E-05 1.29333E-05 3.64193E-19-7.60973E-20
 -1      3446 1.00546E-04-3.56444E-05-2.77697E-05 1.30507E-05 4.28139E-19 9.40533E-20
 -1      3447 9.51577E-05-3.13749E-05-2.73986E-05 1.36897E-05 5.79938E-19-6.80601E-19
 -1      3448 1.03086E-04-3.84039E-05-2.76401E-05 1.36354E-05 5.30583E-19 4.18630E-19
 -1      3449 1.06314E-04-4.13446E-05-2.77864E-05 1.29187E-05 8.86063E-19 5.06220E-19
 -1      3450 9.87565E-05-3.61032E-05-2.69420E-05 1.56256E-05 7.14949E-19-1.94765E-19
 -1      3451 1.17839E-04-5.09085E-05-2.85066E-05 1.17136E-05 1.30206E-18 8.66826E-19
 -1      3452 1.09021E-04-4.38794E-05-2.79470E-05-1.15452E-05 2.86682E-18-2.12110E-18
 -1      3453 1.05572E-04-4.06299E-05-2.76838E-05-1.25447E-05 2.70422E-18-1.49374E-18
 -1      3454 1.02289E-04-3.75654E-05-2.76879E-05-1.24154E-05 1.76974E-18-1.62496E-18
 -1      3455 9.96246E-05-3.48968E-05-2.76640E-05-1.24303E-05 1.14007E-18-1.02691E-18
 -1      3456 1.00835E-04-3.85325E-05-2.68563E-05-1.52494E-05 2.27397E-18-1.38977E-18
 -1      3457 9.77664E-05-3.27576E-05-2.78276E-05-1.16749E-05 9.89465E-19-4.98638E-19
 -1      3458 9.60425E-05-3.08353E-05-2.79163E-05-1.13141E-05 1.27132E-18-2.66754E-19
 -1      3459 9.57245E-05-3.28386E-05-2.70462E-05-1.37182E-05 1.44484E-18-6.00818E-19
 -1      3460 9.51122E-05-2.94270E-05-2.81203E-05-1.04043E-05 7.40690E-19-5.71226E-19
 -1      3461 9.41085E-05-2.82114E-05-2.82324E-05-9.86616E-06 9.48969E-19-2.53465E-19
 -1      3462 9.31098E-05-2.90724E-05-2.74858E-05-1.17144E-05 9.85836E-19-5.73832E-20
 -1      3463 9.37481E-05-2.73985E-05-2.84136E-05-9.01301E-06 9.87792E-19-6.35310E-19
 -1      3464 9.32206E-05-2.67006E-05-2.85092E-05-8.42215E-06 5.01923E-19-4.39880E-19
 -1      3465 9.19251E-05-2.68307E-05-2.79175E-05-9.79821E-06 7.57991E-19-1.00234E-18
 -1      3466 9.31904E-05-2.63061E-05-2.86492E-05-7.66385E-06 4.28707E-19-3.21489E-19
 -1      3467 9.29576E-05-2.59665E-05-2.87156E-05-7.08079E-06 5.68147E-19 1.19630E-19
 -1      3468 9.15944E-05-2.56441E-05-2.82720E-05-8.11982E-06 6.76943E-19-8.88305E-19
 -1      3469 9.31025E-05-2.58464E-05-2.88130E-05-6.42134E-06 1.50702E-19-6.46427E-20
 -1      3470 9.30397E-05-2.57391E-05-2.88502E-05-5.87427E-06-1.15140E-20 3.75294E-19
 -1      3471 9.17418E-05-2.51646E-05-2.85338E-05-6.68353E-06 3.41128E-19 2.63288E-19
 -1      3472 9.32638E-05-2.57866E-05-2.89107E-05-5.30612E-06-5.15550E-19-2.61130E-20
 -1      3473 9.32908E-05-2.58196E-05-2.89239E-05-4.80890E-06-6.72952E-19-3.51783E-19
 -1      3474 9.21268E-05-2.51307E-05-2.87101E-05-5.46072E-06-7.38291E-20-5.34070E-19
 -1      3475 9.35373E-05-2.59599E-05-2.89555E-05-4.32299E-06-1.11994E-18-8.06004E-19
 -1      3476 9.36052E-05-2.60699E-05-2.89511E-05-3.88226E-06-7.44179E-19-5.72965E-19
 -1      3477 9.26040E-05-2.53572E-05-2.88162E-05-4.42091E-06-1.01828E-18-3.38034E-19
 -1      3478 9.38424E-05-2.62531E-05-2.89619E-05-3.47048E-06-4.13060E-19-1.46261E-18
 -1      3479 9.39231E-05-2.63982E-05-2.89459E-05-3.08843E-06-6.08034E-19-1.24296E-18
 -1      3480 9.30894E-05-2.57183E-05-2.88692E-05-3.53978E-06-1.07780E-18-1.61353E-18
 -1      3481 9.41351E-05-2.65926E-05-2.89426E-05-2.74348E-06-9.45581E-20-1.38124E-18
 -1      3482 9.42135E-05-2.67467E-05-2.89202E-05-2.41911E-06 3.75135E-19-5.97993E-19
 -1      3483 9.35378E-05-2.61316E-05-2.88846E-05-2.79853E-06-1.33347E-19-2.08125E-18
 -1      3484 9.43938E-05-2.69333E-05-2.89082E-05-2.13398E-06-4.87930E-19-6.88579E-19
 -1      3485 9.44630E-05-2.70809E-05-2.88830E-05-1.86393E-06-5.48172E-19-1.16253E-18
 -1      3486 9.39284E-05-2.65456E-05-2.88751E-05-2.18148E-06-6.76544E-20-2.14416E-18
 -1      3487 9.46108E-05-2.72493E-05-2.88662E-05-1.63164E-06-3.62710E-19-6.98770E-19
 -1      3488 9.46681E-05-2.73823E-05-2.88408E-05-1.41096E-06-3.50417E-19-5.68522E-19
 -1      3489 9.42547E-05-2.69305E-05-2.88505E-05-1.67430E-06 1.39164E-19-1.84613E-18
 -1      3490 9.47856E-05-2.75280E-05-2.88222E-05-1.22455E-06-8.18106E-19-8.38915E-19
 -1      3491 9.48310E-05-2.76427E-05-2.87983E-05-1.04743E-06-1.05069E-18-1.20002E-18
 -1      3492 9.45183E-05-2.72711E-05-2.88181E-05-1.26322E-06-4.55767E-19-1.98375E-18
 -1      3493 9.49220E-05-2.77647E-05-2.87797E-05-9.00131E-07-1.15549E-18-9.78065E-19
 -1      3494 9.49566E-05-2.78605E-05-2.87581E-05-7.60426E-07-8.75230E-19-8.66823E-19
 -1      3495 9.47255E-05-2.75617E-05-2.87829E-05-9.34930E-07-1.14492E-18-9.39211E-19
 -1      3496 9.50253E-05-2.79599E-05-2.87406E-05-6.45867E-07-1.29812E-18-1.05408E-18
 -1      3497 9.50508E-05-2.80379E-05-2.87218E-05-5.37563E-07-9.31111E-19-1.46412E-18
 -1      3498 9.48840E-05-2.78025E-05-2.87480E-05-6.76725E-07-1.07932E-18-4.60275E-19
 -1      3499 9.51012E-05-2.81171E-05-2.87061E-05-4.49914E-07-3.58156E-19-7.65039E-19
 -1      3500 9.51193E-05-2.81791E-05-2.86902E-05-3.67419E-07 5.20469E-19 6.75947E-19
 -1      3501 9.50023E-05-2.79972E-05-2.87156E-05-4.76832E-07-2.54220E-19-2.96507E-19
 -1      3502 9.51553E-05-2.82409E-05-2.86765E-05-3.01510E-07 4.10900E-19 9.35478E-19
 -1      3503 9.51676E-05-2.82892E-05-2.86633E-05-2.39840E-07 6.91187E-19 1.56760E-18
 -1      3504 9.50880E-05-2.81513E-05-2.86866E-05-3.24615E-07 5.99990E-19 7.32746E-19
 -1      3505 9.51923E-05-2.83366E-05-2.86516E-05-1.91216E-07 1.19397E-18 6.53093E-19
 -1      3506 9.52003E-05-2.83737E-05-2.86408E-05-1.46080E-07 1.35258E-18 4.83615E-19
 -1      3507 9.51484E-05-2.82709E-05-2.86614E-05-2.10758E-07 7.32291E-19 3.34311E-19
 -1      3508 9.52166E-05-2.84094E-05-2.86310E-05-1.11044E-07 1.35168E-18 1.55130E-19
 -1      3509 9.52214E-05-2.84376E-05-2.86223E-05-7.89116E-08 1.48348E-18 1.56330E-20
 -1      3510 9.51892E-05-2.83622E-05-2.86399E-05-1.27274E-07 1.34775E-18-1.50366E-18
 -1      3511 9.52316E-05-2.84645E-05-2.86141E-05-5.42645E-08 9.78851E-19 1.40507E-19
 -1      3512 9.52345E-05-2.84857E-05-2.86069E-05-3.25760E-08 7.70550E-19 4.20642E-19
 -1      3513 9.52155E-05-2.84310E-05-2.86218E-05-6.76206E-08 1.71837E-18-4.59015E-19
 -1      3514 8.85175E-05-1.43795E-05-3.17915E-05-1.34988E-07-6.93160E-19-3.02495E-18
 -1      3515 8.88498E-05-1.46964E-05-3.17879E-05-4.59256E-07-1.00594E-18-2.95376E-18
 -1      3516 8.93715E-05-1.56341E-05-3.15903E-05-2.39113E-07-9.73180E-19-2.86639E-18
 -1      3517 8.89666E-05-1.54485E-05-3.14856E-05 9.88334E-08-4.81213E-19-2.78559E-18
 -1      3518 9.35399E-05-2.47153E-05-2.94896E-05-7.82737E-06 2.25111E-19-1.42898E-18
 -1      3519 9.35762E-05-2.44269E-05-2.96382E-05-6.90291E-06 2.27184E-19-1.45561E-18
 -1      3520 9.34685E-05-2.12538E-05-3.09505E-05 5.71167E-07-1.64422E-18-2.21845E-18
 -1      3521 9.37200E-05-2.21895E-05-3.06621E-05 1.81056E-06-1.47326E-18-1.93161E-18
 -1      3522 9.29531E-05-2.16223E-05-3.05627E-05 2.22821E-06-1.20158E-18-1.96713E-18
 -1      3523 1.09508E-04-4.54591E-05-2.72912E-05-1.63002E-05-1.46681E-18 1.29808E-18
 -1      3524 1.04699E-04-4.14433E-05-2.69727E-05-1.73598E-05-1.20953E-18 6.51393E-19
 -1      3525 9.92039E-05-4.39999E-05-2.33942E-05-2.56996E-05 3.06975E-18-8.49386E-19
 -1      3526 1.10906E-04-4.97119E-05-2.63748E-05-1.90220E-05 2.66244E-18-5.66069E-19
 -1      3527 1.08236E-04-4.68875E-05-2.61841E-05 1.88302E-05-2.43960E-18 5.56157E-19
 -1      3528 9.27174E-05-2.66487E-05-2.83175E-05 1.12128E-05-1.50734E-18-2.35914E-19
 -1      3529 9.35350E-05-2.77481E-05-2.81573E-05 1.19645E-05-1.35400E-18 2.13343E-19
 -1      3530 9.23926E-05-2.55187E-05-2.86696E-05 9.45532E-06-1.32884E-18 1.07202E-18
 -1      3531 9.27364E-05-2.60479E-05-2.85565E-05 1.01975E-05-1.39773E-18 1.11067E-19
 -1      3532 9.02237E-05-2.51049E-05-2.79155E-05 1.07754E-05-1.85592E-18-8.27756E-20
 -1      3533 9.25581E-05-2.51543E-05-2.88989E-05 7.90303E-06-1.18379E-18 1.39762E-18
 -1      3534 9.26500E-05-2.53324E-05-2.88348E-05 8.60131E-06-1.15415E-18 1.47429E-18
 -1      3535 9.05586E-05-2.43771E-05-2.83609E-05 8.89370E-06-1.53962E-18 7.15317E-19
 -1      3536 9.29310E-05-2.52314E-05-2.90257E-05 6.53781E-06 1.79813E-19 4.98041E-19
 -1      3537 9.29033E-05-2.52083E-05-2.90015E-05 7.17729E-06-3.97086E-19 1.21985E-18
 -1      3538 9.11859E-05-2.42988E-05-2.86592E-05 7.33584E-06-7.71544E-19 1.53496E-18
 -1      3539 9.33582E-05-2.55379E-05-2.90765E-05 5.34360E-06 4.53387E-19 2.78590E-20
 -1      3540 9.32841E-05-2.54106E-05-2.90808E-05 5.91650E-06 8.12876E-19 8.45211E-19
 -1      3541 9.18919E-05-2.45807E-05-2.88400E-05 6.02069E-06 3.31862E-19 1.14287E-18
 -1      3542 9.37639E-05-2.59424E-05-2.90758E-05 4.30907E-06-3.82811E-19-1.28966E-18
 -1      3543 9.36805E-05-2.57703E-05-2.90980E-05 4.81168E-06-1.68059E-19-8.44938E-19
 -1      3544 9.25670E-05-2.50373E-05-2.89341E-05 4.89836E-06 8.70335E-19 1.16262E-18
 -1      3545 9.41157E-05-2.63673E-05-2.90431E-05 3.42470E-06-1.82170E-20-1.37829E-18
 -1      3546 9.40398E-05-2.61853E-05-2.90751E-05 3.85672E-06-6.90671E-19-1.88390E-18
 -1      3547 9.31618E-05-2.55552E-05-2.89682E-05 3.93975E-06 1.85747E-20-1.22525E-18
 -1      3548 9.44047E-05-2.67702E-05-2.89930E-05 2.68025E-06 4.87940E-19-1.34039E-19
 -1      3549 9.43423E-05-2.65971E-05-2.90289E-05 3.04434E-06 6.63076E-19-7.11169E-19
 -1      3550 9.36603E-05-2.60679E-05-2.89633E-05 3.12659E-06-2.34850E-19-1.34469E-18
 -1      3551 9.46338E-05-2.71302E-05-2.89356E-05 2.06374E-06-4.05086E-19 5.68392E-19
 -1      3552 9.45854E-05-2.69753E-05-2.89716E-05 2.36486E-06 2.50959E-19 2.82025E-19
 -1      3553 9.40639E-05-2.65400E-05-2.89351E-05 2.44482E-06-1.63766E-19-1.31708E-19
 -1      3554 9.48103E-05-2.74394E-05-2.88776E-05 1.56154E-06-4.40376E-19 9.45938E-19
 -1      3555 9.47744E-05-2.73063E-05-2.89113E-05 1.80616E-06-9.15191E-20 5.84082E-19
 -1      3556 9.43822E-05-2.69549E-05-2.88946E-05 1.88129E-06-5.85672E-19-4.81084E-19
 -1      3557 9.49432E-05-2.76975E-05-2.88230E-05 1.15911E-06-2.30115E-19 1.30578E-18
 -1      3558 9.49175E-05-2.75864E-05-2.88531E-05 1.35446E-06-4.54386E-19 4.72178E-19
 -1      3559 9.46277E-05-2.73077E-05-2.88495E-05 1.42262E-06-1.94389E-19 4.34248E-19
 -1      3560 9.50412E-05-2.79080E-05-2.87741E-05 8.41838E-07 1.05878E-19 1.39496E-19
 -1      3561 9.50233E-05-2.78173E-05-2.88000E-05 9.95256E-07 6.50244E-20 5.78519E-19
 -1      3562 9.48135E-05-2.76000E-05-2.88044E-05 1.05519E-06-1.26082E-19 9.70299E-19
 -1      3563 9.51119E-05-2.80763E-05-2.87316E-05 5.95747E-07 1.38460E-18 7.99512E-19
 -1      3564 9.50999E-05-2.80037E-05-2.87534E-05 7.14257E-07 8.08906E-19 7.50051E-19
 -1      3565 9.49513E-05-2.78370E-05-2.87623E-05 7.65537E-07 5.53823E-19-3.88758E-19
 -1      3566 9.51616E-05-2.82085E-05-2.86957E-05 4.08026E-07 1.12594E-18 1.05147E-18
 -1      3567 9.51539E-05-2.81514E-05-2.87136E-05 4.98036E-07 1.60974E-18 9.91491E-19
 -1      3568 9.50513E-05-2.80257E-05-2.87246E-05 5.40896E-07 7.72089E-19 7.94811E-19
 -1      3569 9.51955E-05-2.83107E-05-2.86661E-05 2.67315E-07 5.66648E-19 1.94989E-18
 -1      3570 9.51908E-05-2.82665E-05-2.86805E-05 3.34466E-07 8.33897E-19 1.54327E-18
 -1      3571 9.51223E-05-2.81733E-05-2.86920E-05 3.69580E-07 1.08666E-18 1.79005E-18
 -1      3572 9.52177E-05-2.83885E-05-2.86419E-05 1.63876E-07 2.02204E-19 1.82992E-18
 -1      3573 9.52152E-05-2.83547E-05-2.86535E-05 2.12968E-07 6.36415E-19 1.36979E-18
 -1      3574 9.51712E-05-2.82869E-05-2.86645E-05 2.41228E-07 1.10687E-18 2.61074E-18
 -1      3575 9.52315E-05-2.84470E-05-2.86225E-05 8.96417E-08 7.62176E-20 2.56730E-18
 -1      3576 9.52304E-05-2.84215E-05-2.86316E-05 1.24615E-07 2.75977E-19 1.99399E-18
 -1      3577 9.52036E-05-2.83732E-05-2.86415E-05 1.46972E-07-3.58111E-20 1.87472E-18
 -1      3578 9.52395E-05-2.84912E-05-2.86069E-05 3.82031E-08-6.99730E-19 2.78642E-18
 -1      3579 9.52393E-05-2.84718E-05-2.86141E-05 6.19361E-08-6.75589E-20 2.58171E-18
 -1      3580 9.52242E-05-2.84380E-05-2.86226E-05 7.93310E-08 1.47902E-20 2.70250E-18
 -1      3581 9.52437E-05-2.85241E-05-2.85943E-05 3.72901E-09 1.20073E-18 5.15548E-19
 -1      3582 9.52436E-05-2.85092E-05-2.86000E-05 1.93880E-08 2.98114E-19 1.99393E-18
 -1      3583 9.52359E-05-2.84856E-05-2.86071E-05 3.29094E-08 6.07450E-19 2.83922E-18
 -1      3584 9.52344E-05-2.85028E-05-2.85992E-05-7.81418E-09-1.28979E-18-6.49154E-19
 -1      3585 9.52307E-05-2.84962E-05-2.86009E-05-9.20805E-09-8.80372E-19-9.76180E-20
 -1      3586 9.52199E-05-2.84774E-05-2.86040E-05-3.48110E-09 1.46264E-19-1.76460E-18
 -1      3587 9.52188E-05-2.84758E-05-2.86044E-05-1.64678E-09 1.53101E-19-1.77542E-18
 -1      3588 4.64648E-05-1.39924E-05-1.34041E-05-6.04353E-06-1.31959E-18-5.70074E-18
 -1      3589 1.20117E-04-5.11805E-05-2.95356E-05-7.76358E-06 9.34870E-19-3.02638E-18
 -1      3590 1.23423E-04-5.04027E-05-3.15478E-05-8.11893E-07-1.85421E-20-4.08335E-18
 -1      3591 9.44728E-05-2.26107E-05-3.07980E-05-1.00505E-06 1.40778E-18-1.95946E-18
 -1      3592 9.37118E-05-2.14868E-05-3.09539E-05-6.17450E-07 1.35567E-18-2.25051E-18
 -1      3593 9.44626E-05-2.31120E-05-3.05844E-05-2.19804E-06 1.10029E-18-1.92160E-18
 -1      3594 1.15983E-04-4.91838E-05-2.85111E-05-1.05980E-05 2.25566E-18-2.08548E-18
 -1      3595 9.40269E-05-2.90143E-05-2.78476E-05 1.31620E-05-1.03871E-18 1.00740E-19
 -1      3596 9.56514E-05-3.09677E-05-2.76693E-05 1.38276E-05-1.23277E-18-5.97688E-20
 -1      3597 9.05754E-05-2.69249E-05-2.73084E-05 1.30878E-05-1.32273E-18 2.06410E-19
 -1      3598 9.33879E-05-2.64040E-05-2.86824E-05-1.13902E-05-1.64868E-19-1.14349E-18
 -1      3599 9.30250E-05-2.57017E-05-2.88571E-05-1.05791E-05-3.29177E-21-1.07583E-18
 -1      3600 9.71266E-05-3.32203E-05-2.73273E-05 1.51236E-05-1.76351E-18 2.15188E-19
 -1      3601 9.99548E-05-3.62877E-05-2.72197E-05 1.54441E-05-2.27042E-18-8.04268E-21
 -1      3602 9.23311E-05-3.05034E-05-2.65698E-05 1.58851E-05-1.42087E-18 5.31477E-19
 -1      3603 9.52257E-05-2.84869E-05-2.86024E-05-7.86048E-09-4.76142E-20-5.77810E-19
 -1      3604 9.52226E-05-2.84823E-05-2.86033E-05-6.98516E-09 3.46744E-19-2.14649E-18
 -1      3605 9.52133E-05-2.84553E-05-2.86100E-05-9.19350E-09 6.07243E-19-2.32249E-18
 -1      3606 9.52217E-05-2.84698E-05-2.86077E-05-1.58229E-08-4.43889E-19-1.35265E-18
 -1      3607 9.32915E-05-2.53280E-05-2.91127E-05-9.61126E-06-1.52344E-20-1.38161E-18
 -1      3608 9.32044E-05-2.49293E-05-2.92655E-05-8.75671E-06 1.44586E-19-1.41648E-18
 -1      3609 9.19849E-05-2.38517E-05-2.91958E-05-7.98829E-06 7.30442E-20-1.60469E-18
 -1      3610 7.81327E-05-3.07190E-05-2.01415E-05-2.68771E-05 4.05227E-18 3.44822E-19
 -1      3611 8.91112E-05-3.84249E-05-2.17730E-05-2.82799E-05 3.47792E-18-1.21430E-18
 -1      3612 9.60762E-05-3.99143E-05-2.38859E-05-2.32037E-05 3.05719E-18 1.04757E-19
 -1      3613 1.01205E-04-3.76229E-05-2.71738E-05-1.64946E-05-1.02486E-18 2.62177E-19
 -1      3614 9.81462E-05-3.43732E-05-2.72633E-05-1.63177E-05-8.13985E-19-1.74592E-19
 -1      3615 9.79817E-05-3.80189E-05-2.57949E-05-2.02035E-05-1.42784E-18-1.50348E-19
 -1      3616 9.52457E-05-2.85483E-05-2.85848E-05-1.33610E-08 1.08076E-18 1.72050E-18
 -1      3617 9.52460E-05-2.85518E-05-2.85832E-05-1.68316E-08 1.28314E-19 8.32556E-19
 -1      3618 9.52457E-05-2.85453E-05-2.85859E-05-1.33407E-08 1.00666E-18 2.87670E-19
 -1      3619 9.52427E-05-2.85316E-05-2.85905E-05-5.65755E-09 1.80719E-18 2.33814E-18
 -1      3620 9.11813E-05-3.80681E-05-2.26613E-05-2.61119E-05-2.28318E-18-1.27682E-18
 -1      3621 1.03207E-04-4.53049E-05-2.49603E-05-2.35761E-05-2.15414E-18 3.84136E-19
 -1      3622 9.25447E-05-1.94346E-05-3.13423E-05-6.68809E-07-1.67847E-18-2.72470E-18
 -1      3623 9.30964E-05-2.04461E-05-3.11322E-05 8.61576E-09-1.74817E-18-2.39179E-18
 -1      3624 9.24267E-05-2.00058E-05-3.10343E-05 5.95993E-07-1.34899E-18-2.46678E-18
 -1      3625 9.16224E-05-1.83534E-05-3.14006E-05-4.66128E-07-1.53267E-18-2.88732E-18
 -1      3626 1.13454E-04-4.68100E-05-2.84650E-05 1.06151E-05 1.36780E-18 8.11153E-19
 -1      3627 1.10985E-04-4.91437E-05-2.66208E-05 1.89139E-05 1.64294E-18 7.04996E-19
 -1      3628 1.03186E-04-4.36984E-05-2.53281E-05 2.10554E-05 1.72007E-18-1.00863E-19
 -1      3629 1.09323E-04-4.38647E-05-2.78768E-05 1.27677E-05 1.22429E-18 8.01882E-19
 -1      3630 1.07716E-04-4.37596E-05-2.72583E-05 1.56242E-05-2.39693E-18-2.38342E-19
 -1      3631 1.00211E-04-4.32440E-05-2.44707E-05 2.34991E-05-2.88682E-18 3.08770E-18
 -1      3632 9.36402E-05-3.85156E-05-2.35717E-05 2.39015E-05-2.33683E-18 3.38759E-18
 -1      3633 1.03124E-04-3.97935E-05-2.70010E-05 1.64056E-05-2.42101E-18 1.24848E-19
 -1      3634 4.90759E-05-1.31241E-05-1.52328E-05-3.88175E-07-7.65139E-19-5.22048E-18
 -1      3635 5.11537E-05-1.48252E-05-1.52245E-05-1.24186E-05-1.64980E-18-4.81189E-18
 -1      3636 5.07445E-05-1.43369E-05-1.51759E-05-1.23556E-05 5.45675E-19 4.20356E-18
 -1      3637 5.81479E-05-1.70100E-05-1.74934E-05-1.57097E-05 1.65458E-18 2.56185E-18
 -1      3638 5.07620E-05-1.32770E-05-1.59893E-05-6.15499E-06 5.10926E-19 4.65429E-18
 -1      3639 5.06860E-05-1.46247E-05-1.50748E-05 1.00726E-05-1.03570E-18 3.89233E-18
 -1      3640 9.38681E-05-2.42053E-05-2.98545E-05-5.95015E-06 5.10554E-19-1.52253E-18
 -1      3641 9.39296E-05-2.38714E-05-3.00240E-05-4.91601E-06 7.48706E-19-1.59602E-18
 -1      3642 9.26215E-05-2.33836E-05-2.96668E-05-6.11019E-06 4.39237E-19-1.69791E-18
 -1      3643 5.19728E-05-1.34459E-05-1.59822E-05 6.35217E-06-3.14315E-19-5.04429E-18
 -1      3644 5.53458E-05-1.40285E-05-1.74929E-05 3.12956E-07-7.10472E-19-4.78727E-18
 -1      3645 9.52231E-05-2.84825E-05-2.86034E-05 7.90469E-09 2.13315E-18 1.03177E-18
 -1      3646 9.52264E-05-2.84873E-05-2.86025E-05 8.64147E-09 2.20483E-18 1.86146E-18
 -1      3647 1.04419E-04-4.21575E-05-2.68176E-05 1.68345E-05 1.24419E-18 2.19375E-19
 -1      3648 9.13583E-05-2.44447E-05-2.86780E-05-9.88646E-06 1.02697E-20-1.40774E-18
 -1      3649 6.06856E-05-1.86126E-05-1.77174E-05-1.61367E-05-1.93769E-18-4.14321E-18
 -1      3650 8.92026E-05-1.66143E-05-3.11234E-05 8.05254E-08 1.44433E-19-2.78851E-18
 -1      3651 8.90696E-05-1.64694E-05-3.11250E-05 1.06061E-07-1.55392E-19-2.74212E-18
 -1      3652 9.42551E-05-2.84164E-05-2.81774E-05-1.32163E-05-5.06739E-19-1.01218E-18
 -1      3653 9.33765E-05-2.71581E-05-2.83773E-05-1.24596E-05-1.91202E-19-1.03631E-18
 -1      3654 9.10196E-05-2.55552E-05-2.80682E-05-1.19644E-05-3.31031E-19-1.23488E-18
 -1      3655 1.10733E-04-4.81295E-05-2.67185E-05-1.81676E-05-1.81115E-18 1.35782E-18
 -1      3656 9.52398E-05-2.85032E-05-2.86011E-05-1.92780E-08-1.11898E-19-3.23568E-19
 -1      3657 9.52414E-05-2.85183E-05-2.85957E-05-5.97624E-09-8.01597E-19-9.91506E-20
 -1      3658 9.52401E-05-2.85150E-05-2.85966E-05-6.54986E-09-1.44450E-18-1.90508E-18
 -1      3659 9.52313E-05-2.84801E-05-2.86076E-05-3.04733E-08-9.13508E-20-1.06249E-18
 -1      3660 8.06620E-05-3.18196E-05-2.07305E-05 2.59624E-05-1.56831E-18 2.80844E-18
 -1      3661 7.07774E-05-2.71692E-05-1.82757E-05 2.68091E-05-2.24681E-18 1.97417E-18
 -1      3662 6.56115E-05-2.26043E-05-1.82859E-05 2.22398E-05-1.34170E-18 1.60333E-18
 -1      3663 9.52455E-05-2.85384E-05-2.85886E-05-7.59036E-09 1.38882E-18 7.12155E-19
 -1      3664 9.52102E-05-2.84505E-05-2.86108E-05 5.08204E-10 5.56205E-19-2.45521E-18
 -1      3665 9.52189E-05-2.84759E-05-2.86044E-05 2.58778E-09 6.86839E-19-1.82334E-18
 -1      3666 9.52202E-05-2.84776E-05-2.86041E-05 4.35855E-09 2.06835E-18-2.35678E-18
 -1      3667 8.27220E-05-3.23571E-05-2.14368E-05-2.62553E-05-2.35834E-18-2.26149E-18
 -1      3668 9.37088E-05-3.66131E-05-2.43474E-05-2.24501E-05-1.86712E-18-1.15219E-18
 -1      3669 9.03100E-05-3.26554E-05-2.46867E-05-2.05820E-05-1.55243E-18-1.30552E-18
 -1      3670 7.75401E-05-2.80069E-05-2.11530E-05-2.36409E-05-2.11241E-18-2.46937E-18
 -1      3671 9.01014E-05-1.67292E-05-3.14537E-05-1.52835E-07-1.12408E-18-2.96400E-18
 -1      3672 9.08134E-05-1.74995E-05-3.14308E-05-3.52213E-07-1.32151E-18-2.97902E-18
 -1      3673 9.12546E-05-1.83429E-05-3.12428E-05 1.33066E-07-1.17483E-18-2.81323E-18
 -1      3674 9.27255E-05-2.03613E-05-3.10223E-05-5.99699E-07 1.11842E-18-2.37207E-18
 -1      3675 9.65515E-05-3.64030E-05-2.58692E-05 1.88632E-05-2.34919E-18 1.41890E-18
 -1      3676 9.52429E-05-2.85232E-05-2.85941E-05 2.02191E-09 1.12907E-18 1.82638E-18
 -1      3677 9.33176E-05-3.15941E-05-2.65256E-05-1.71908E-05-1.16542E-18-5.63231E-19
 -1      3678 9.65448E-05-3.19518E-05-2.76260E-05-1.50330E-05-8.44923E-19-7.01026E-19
 -1      3679 9.47988E-05-2.98336E-05-2.78221E-05-1.44238E-05-9.91643E-19-1.01571E-18
 -1      3680 5.65167E-05-1.70191E-05-1.69025E-05 1.47003E-05 5.92612E-19-4.63655E-18
 -1      3681 9.52309E-05-2.84961E-05-2.86010E-05 9.22824E-09 2.26381E-18 2.05719E-18
 -1      3682 9.52343E-05-2.85021E-05-2.85994E-05 7.94016E-09 1.47092E-18 2.45420E-18
 -1      3683 9.52225E-05-2.84698E-05-2.86078E-05 1.59399E-08 1.92883E-18 1.88881E-18
 -1      3684 9.52388E-05-2.85124E-05-2.85972E-05-6.83688E-09-1.07098E-18-1.01407E-18
 -1      3685 9.14171E-05-3.71902E-05-2.33873E-05 2.44336E-05 1.88992E-18-1.23575E-18
 -1      3686 8.34422E-05-3.23213E-05-2.15624E-05 2.57263E-05 1.90309E-18-1.99573E-18
 -1      3687 7.40772E-05-2.76066E-05-1.97193E-05-2.55713E-05 3.55210E-18-6.44274E-20
 -1      3688 8.19726E-05-3.06893E-05-2.19704E-05-2.38047E-05 2.93833E-18 3.98344E-19
 -1      3689 6.95762E-05-2.38636E-05-1.94824E-05-2.21024E-05 2.65330E-18-5.02979E-19
 -1      3690 1.10365E-04-4.74302E-05-2.70008E-05-1.61591E-05 2.62263E-18-1.31381E-18
 -1      3691 7.50186E-05-2.78683E-05-2.02437E-05 2.46271E-05 1.77500E-18-2.85167E-18
 -1      3692 6.60349E-05-2.17623E-05-1.84727E-05 2.17538E-05 1.44117E-18-3.81223E-18
 -1      3693 7.89826E-05-2.75628E-05-2.19860E-05 2.16133E-05 1.33835E-18-2.44628E-18
 -1      3694 9.00054E-05-1.74345E-05-3.11146E-05-1.77498E-07 6.09136E-19-2.83896E-18
 -1      3695 8.95177E-05-1.69319E-05-3.11225E-05-1.57897E-07 3.25236E-19-2.87765E-18
 -1      3696 8.95910E-05-1.76103E-05-3.08221E-05-3.26581E-07 2.79641E-19-2.55547E-18
 -1      3697 9.52316E-05-2.84887E-05-2.86040E-05-1.75169E-08-1.11217E-18-9.38658E-19
 -1      3698 9.52135E-05-2.84554E-05-2.86101E-05 1.01329E-08 1.53324E-18-7.03731E-19
 -1      3699 9.18769E-05-2.29218E-05-2.95596E-05 5.20118E-06-5.05767E-19-1.30921E-18
 -1      3700 9.17637E-05-2.33814E-05-2.93021E-05 6.09392E-06-4.73309E-19-1.18449E-18
 -1      3701 9.13812E-05-2.37545E-05-2.89922E-05 6.97931E-06-4.10124E-19-1.13408E-18
 -1      3702 9.13199E-05-2.42571E-05-2.87278E-05 7.87201E-06-2.75380E-19-1.07337E-18
 -1      3703 9.04360E-05-2.26757E-05-2.90315E-05 6.07894E-06-3.81436E-19-1.11552E-18
 -1      3704 9.09224E-05-2.47124E-05-2.83868E-05 8.86986E-06-5.91145E-20-9.65716E-19
 -1      3705 9.10701E-05-2.54359E-05-2.81034E-05 9.81703E-06 2.07912E-19-1.05839E-18
 -1      3706 8.96309E-05-2.34592E-05-2.83550E-05 7.94186E-06-9.39739E-21-1.12991E-18
 -1      3707 9.08059E-05-2.61634E-05-2.77149E-05 1.10264E-05 4.83773E-19-1.14633E-18
 -1      3708 9.13751E-05-2.73315E-05-2.74111E-05 1.20712E-05 6.28454E-19-1.11619E-18
 -1      3709 8.89080E-05-2.45427E-05-2.75900E-05 1.01580E-05 2.75903E-19-1.34425E-18
 -1      3710 9.14923E-05-2.85374E-05-2.69704E-05 1.35351E-05 7.32506E-19-1.11847E-18
 -1      3711 9.27565E-05-3.04243E-05-2.66678E-05 1.46996E-05 6.19214E-19-1.11254E-18
 -1      3712 8.86969E-05-2.64032E-05-2.67060E-05 1.29924E-05 6.78861E-19-1.51022E-18
 -1      3713 9.32271E-05-3.54797E-05-2.46366E-05 2.08142E-05-2.35708E-18 2.33186E-18
 -1      3714 8.66885E-05-3.39024E-05-2.25516E-05 2.45757E-05-1.71413E-18 3.25194E-18
 -1      3715 8.07329E-05-2.89495E-05-2.20038E-05 2.27214E-05-1.42124E-18 2.08656E-18
 -1      3716 9.02778E-05-3.18698E-05-2.49707E-05 1.90938E-05-1.64448E-18 2.09178E-18
 -1      3717 8.99028E-05-2.35008E-05-2.84761E-05 6.39656E-06-6.92602E-19 1.01809E-19
 -1      3718 8.95489E-05-2.33830E-05-2.83476E-05 7.07129E-06-1.29060E-18 4.63025E-19
 -1      3719 9.52261E-05-2.84700E-05-2.86098E-05-3.06654E-08-1.33430E-19-8.69117E-19
 -1      3720 9.33967E-05-3.19453E-05-2.62591E-05-1.50796E-05 1.83570E-18-4.41916E-19
 -1      3721 9.12714E-05-2.95545E-05-2.64339E-05-1.40929E-05 1.26872E-18-2.16177E-19
 -1      3722 9.08076E-05-2.80569E-05-2.68439E-05-1.24408E-05 8.50622E-19-2.86744E-19
 -1      3723 8.99001E-05-2.66925E-05-2.70985E-05-1.13764E-05 1.21846E-18-3.31305E-20
 -1      3724 8.77540E-05-2.70673E-05-2.60225E-05-1.37939E-05 1.35244E-18-2.63599E-19
 -1      3725 8.99792E-05-2.58778E-05-2.74385E-05-1.00858E-05 6.02525E-19-2.26179E-19
 -1      3726 8.96293E-05-2.51313E-05-2.76561E-05-9.16791E-06 3.89452E-19-2.76857E-19
 -1      3727 8.74760E-05-2.48932E-05-2.68298E-05-1.07130E-05 6.46217E-19-7.50313E-20
 -1      3728 8.99703E-05-2.47773E-05-2.79187E-05-8.16648E-06 1.04687E-18-1.25072E-18
 -1      3729 8.99483E-05-2.44487E-05-2.80857E-05-7.39659E-06 8.90863E-19-1.01326E-18
 -1      3730 8.79677E-05-2.38652E-05-2.74706E-05-8.39509E-06 7.00204E-19-9.28039E-19
 -1      3731 9.03996E-05-2.43881E-05-2.82775E-05-6.61427E-06 3.06740E-19-7.99459E-19
 -1      3732 9.05504E-05-2.43258E-05-2.83953E-05-5.96896E-06 4.93429E-19-5.57594E-19
 -1      3733 8.87938E-05-2.35596E-05-2.79507E-05-6.63156E-06 7.91797E-19-1.25419E-18
 -1      3734 9.10277E-05-2.44433E-05-2.85280E-05-5.34797E-06 4.80672E-19-1.34096E-18
 -1      3735 9.12558E-05-2.45403E-05-2.86041E-05-4.80402E-06 1.23396E-19-7.03904E-19
 -1      3736 8.97364E-05-2.36994E-05-2.82931E-05-5.26622E-06 2.22440E-19-1.00709E-18
 -1      3737 9.17132E-05-2.47565E-05-2.86904E-05-4.30319E-06-8.01735E-19-3.16254E-19
 -1      3738 9.19625E-05-2.49401E-05-2.87340E-05-3.84342E-06-1.06769E-18-4.61708E-19
 -1      3739 9.06748E-05-2.40963E-05-2.85251E-05-4.18607E-06-1.87329E-19-1.71238E-18
 -1      3740 9.23761E-05-2.52012E-05-2.87856E-05-3.43555E-06-1.26683E-18-1.00128E-18
 -1      3741 9.26154E-05-2.54231E-05-2.88054E-05-3.04790E-06-1.41405E-18-1.26408E-18
 -1      3742 9.15447E-05-2.46236E-05-2.86725E-05-3.31663E-06-1.57052E-18-9.47199E-19
 -1      3743 9.29746E-05-2.56938E-05-2.88320E-05-2.71478E-06-7.28842E-19-1.07750E-18
 -1      3744 9.31882E-05-2.59228E-05-2.88354E-05-2.39031E-06 1.55936E-19-1.07623E-18
 -1      3745 9.23143E-05-2.51967E-05-2.87577E-05-2.60999E-06-1.11427E-18-1.10522E-18
 -1      3746 9.34904E-05-2.61813E-05-2.88447E-05-2.11903E-06-7.54948E-20-1.69030E-18
 -1      3747 9.36721E-05-2.63987E-05-2.88376E-05-1.85031E-06-2.65393E-19-1.68197E-18
 -1      3748 9.29717E-05-2.57610E-05-2.87986E-05-2.03426E-06-6.09639E-19-2.65864E-19
 -1      3749 9.39196E-05-2.66326E-05-2.88356E-05-1.63094E-06-1.13843E-19-1.79576E-18
 -1      3750 9.40685E-05-2.68281E-05-2.88224E-05-1.41123E-06 2.39469E-19-1.86751E-18
 -1      3751 9.35174E-05-2.62835E-05-2.88096E-05-1.56670E-06-3.25387E-19-6.00401E-19
 -1      3752 9.42665E-05-2.70316E-05-2.88135E-05-1.23558E-06-2.42091E-19-1.86167E-18
 -1      3753 9.43850E-05-2.72007E-05-2.87973E-05-1.05844E-06-9.00865E-19-1.89199E-18
 -1      3754 9.39593E-05-2.67467E-05-2.88015E-05-1.18975E-06-3.91706E-19-1.95670E-18
 -1      3755 9.45398E-05-2.73724E-05-2.87849E-05-9.19458E-07-1.15270E-18-1.48404E-18
 -1      3756 9.46316E-05-2.75142E-05-2.87678E-05-7.78733E-07-9.22359E-19-1.44868E-18
 -1      3757 9.43091E-05-2.71440E-05-2.87820E-05-8.88885E-07-5.95587E-19-1.52228E-18
 -1      3758 9.47501E-05-2.76553E-05-2.87539E-05-6.70194E-07-2.97851E-19-1.38029E-18
 -1      3759 9.48194E-05-2.77713E-05-2.87374E-05-5.60097E-07-5.89979E-19-9.39037E-19
 -1      3760 9.45800E-05-2.74754E-05-2.87568E-05-6.51587E-07-3.29440E-19-1.80615E-18
 -1      3761 9.49081E-05-2.78848E-05-2.87234E-05-4.76544E-07-5.53491E-19-7.09473E-19
 -1      3762 9.49590E-05-2.79775E-05-2.87083E-05-3.91777E-07 8.48086E-20-6.51690E-19
 -1      3763 9.47852E-05-2.77454E-05-2.87296E-05-4.66887E-07 3.65684E-19-1.06136E-18
 -1      3764 9.50237E-05-2.80669E-05-2.86951E-05-3.28435E-07 4.05514E-19-1.00452E-19
 -1      3765 9.50600E-05-2.81396E-05-2.86816E-05-2.64258E-07 7.41011E-19-4.72950E-19
 -1      3766 9.49371E-05-2.79607E-05-2.87029E-05-3.25207E-07 4.29867E-19-7.76454E-19
 -1      3767 9.51059E-05-2.82086E-05-2.86697E-05-2.17046E-07 3.76487E-19 6.24858E-21
 -1      3768 9.51309E-05-2.82646E-05-2.86581E-05-1.69358E-07 2.04391E-19-6.48693E-19
 -1      3769 9.50466E-05-2.81293E-05-2.86779E-05-2.18199E-07 5.95020E-19-6.65311E-19
 -1      3770 9.51624E-05-2.83171E-05-2.86475E-05-1.34924E-07 7.94477E-19-5.92066E-19
 -1      3771 9.51788E-05-2.83597E-05-2.86376E-05-1.00193E-07 1.91804E-18-8.05873E-19
 -1      3772 9.51233E-05-2.82590E-05-2.86555E-05-1.38812E-07 3.58448E-19 1.20613E-19
 -1      3773 9.51998E-05-2.83991E-05-2.86285E-05-7.56995E-08 2.06372E-18-9.67557E-19
 -1      3774 9.52104E-05-2.84312E-05-2.86200E-05-5.09155E-08 1.37359E-18-1.35996E-18
 -1      3775 9.51745E-05-2.83570E-05-2.86357E-05-8.12662E-08 1.53635E-18-5.87124E-19
 -1      3776 9.42267E-05-2.37395E-05-3.02129E-05-4.11869E-06 8.49627E-19-1.74381E-18
 -1      3777 9.43330E-05-2.34296E-05-3.03865E-05-3.10843E-06 9.48749E-19-1.81395E-18
 -1      3778 9.36509E-05-2.24813E-05-3.04969E-05-2.68134E-06 8.97116E-19-2.02760E-18
 -1      3779 9.32166E-05-2.29643E-05-3.00976E-05-4.37120E-06 7.23373E-19-1.77503E-18
 -1      3780 8.94434E-05-2.34637E-05-2.82592E-05-9.59624E-06-6.75068E-20-1.48288E-18
 -1      3781 8.97241E-05-2.31356E-05-2.85560E-05-8.64562E-06-1.47825E-19-1.72924E-18
 -1      3782 9.21042E-05-2.04284E-05-3.07230E-05 1.55371E-06-9.01676E-19-2.35668E-18
 -1      3783 9.22389E-05-2.12526E-05-3.04285E-05 2.55540E-06-8.41839E-19-2.07955E-18
 -1      3784 5.89913E-05-1.45896E-05-1.91421E-05 1.71186E-06-4.40765E-19-4.34406E-18
 -1      3785 5.82991E-05-1.43415E-05-1.85731E-05-4.82781E-06-9.30704E-19-4.60182E-18
 -1      3786 9.21870E-05-2.19090E-05-3.01247E-05 3.41589E-06-7.67153E-19-1.67521E-18
 -1      3787 9.21407E-05-2.24784E-05-2.98574E-05 4.35581E-06-5.71654E-19-1.53111E-18
 -1      3788 9.10948E-05-2.18664E-05-2.96581E-05 4.38069E-06-3.76734E-19-1.49618E-18
 -1      3789 8.87978E-05-2.32233E-05-2.81256E-05 7.82686E-06-1.60835E-18 2.34688E-19
 -1      3790 8.85260E-05-2.33240E-05-2.79265E-05 8.63945E-06-1.63127E-18 1.95055E-19
 -1      3791 8.76345E-05-2.23783E-05-2.79496E-05 6.81465E-06-1.34119E-18-5.50689E-19
 -1      3792 8.93385E-05-1.73529E-05-3.08244E-05 2.59668E-07-1.76394E-19-2.43499E-18
 -1      3793 8.91177E-05-1.65326E-05-3.11268E-05 3.29003E-07-2.73456E-19-2.56425E-18
 -1      3794 8.77432E-05-2.34005E-05-2.76018E-05 9.62703E-06-1.65106E-18 3.98920E-19
 -1      3795 8.77013E-05-2.38847E-05-2.73171E-05 1.06361E-05-1.58233E-18 8.35259E-19
 -1      3796 8.60863E-05-2.21711E-05-2.73742E-05 8.47065E-06-1.52013E-18 4.26156E-19
 -1      3797 9.09372E-05-2.40151E-05-2.86958E-05 5.21996E-06 1.92485E-19 5.14642E-19
 -1      3798 9.05786E-05-2.37847E-05-2.86208E-05 5.79282E-06-1.05609E-19 5.01870E-19
 -1      3799 8.90607E-05-2.29044E-05-2.83372E-05 5.53679E-06-8.38098E-19-1.98840E-19
 -1      3800 9.18472E-05-2.46274E-05-2.88207E-05 4.23133E-06 3.85884E-19 1.37388E-18
 -1      3801 9.15213E-05-2.43510E-05-2.87841E-05 4.72229E-06 6.56600E-19 1.15047E-18
 -1      3802 9.03138E-05-2.35827E-05-2.85858E-05 4.50490E-06-1.18635E-19 1.69193E-19
 -1      3803 9.26163E-05-2.52532E-05-2.88800E-05 3.39450E-06 4.64618E-19 1.55947E-19
 -1      3804 9.23378E-05-2.49706E-05-2.88692E-05 3.81452E-06 8.37984E-19 1.37504E-18
 -1      3805 9.13797E-05-2.43073E-05-2.87344E-05 3.64671E-06 6.02768E-19 1.00044E-18
 -1      3806 9.32477E-05-2.58437E-05-2.88958E-05 2.68835E-06-3.43047E-19 2.66935E-19
 -1      3807 9.30190E-05-2.55775E-05-2.89014E-05 3.04441E-06-9.09604E-20-1.54150E-19
 -1      3808 9.22645E-05-2.50132E-05-2.88132E-05 2.92392E-06 8.86422E-19 1.76548E-18
 -1      3809 9.37541E-05-2.63733E-05-2.88843E-05 2.09817E-06-1.02979E-19 4.35062E-19
 -1      3810 9.35717E-05-2.61352E-05-2.88994E-05 2.39602E-06-1.52975E-19 2.10238E-20
 -1      3811 9.29838E-05-2.56628E-05-2.88449E-05 2.31522E-06-2.76351E-19 1.35345E-18
 -1      3812 9.41523E-05-2.68317E-05-2.88572E-05 1.61136E-06 3.67029E-20-5.40599E-19
 -1      3813 9.40103E-05-2.66261E-05-2.88771E-05 1.85675E-06 1.74135E-19-1.21382E-19
 -1      3814 9.35580E-05-2.62373E-05-2.88463E-05 1.80671E-06 3.33968E-19 2.83227E-19
 -1      3815 9.44598E-05-2.72176E-05-2.88225E-05 1.21576E-06-6.17070E-19 7.49646E-20
 -1      3816 9.43515E-05-2.70450E-05-2.88440E-05 1.41471E-06-6.00593E-19-1.05572E-19
 -1      3817 9.40086E-05-2.67303E-05-2.88294E-05 1.38716E-06-4.58020E-19 4.03189E-20
 -1      3818 9.46931E-05-2.75352E-05-2.87854E-05 8.99280E-07 1.44199E-19 4.29274E-19
 -1      3819 9.46121E-05-2.73934E-05-2.88065E-05 1.05799E-06 1.67144E-19 6.20735E-19
 -1      3820 9.43564E-05-2.71430E-05-2.88027E-05 1.04606E-06-6.02234E-19 1.66883E-19
 -1      3821 9.48670E-05-2.77915E-05-2.87493E-05 6.50142E-07 5.26438E-19 7.24345E-20
 -1      3822 9.48076E-05-2.76773E-05-2.87688E-05 7.74685E-07 2.52999E-19 2.69012E-19
 -1      3823 9.46203E-05-2.74812E-05-2.87716E-05 7.73069E-07 4.56303E-20 6.14609E-19
 -1      3824 9.49939E-05-2.79945E-05-2.87161E-05 4.57238E-07 4.71478E-19 1.00050E-18
 -1      3825 9.49513E-05-2.79042E-05-2.87333E-05 5.53350E-07 4.13631E-19 5.94656E-19
 -1      3826 9.48170E-05-2.77532E-05-2.87400E-05 5.58103E-07 1.60638E-19 1.17037E-18
 -1      3827 9.50845E-05-2.81527E-05-2.86866E-05 3.10419E-07 8.06918E-19 1.02191E-18
 -1      3828 9.50547E-05-2.80825E-05-2.87014E-05 3.83320E-07 1.00181E-18 5.28871E-19
 -1      3829 9.49607E-05-2.79681E-05-2.87100E-05 3.91674E-07 5.38345E-19 1.35085E-18
 -1      3830 9.51472E-05-2.82740E-05-2.86611E-05 2.00669E-07 8.67611E-19 1.80153E-18
 -1      3831 9.51272E-05-2.82202E-05-2.86736E-05 2.54960E-07 9.00591E-19 1.64804E-18
 -1      3832 9.50632E-05-2.81350E-05-2.86827E-05 2.65071E-07 5.62515E-19 9.86412E-19
 -1      3833 9.51893E-05-2.83657E-05-2.86395E-05 1.20213E-07-4.29111E-19 2.77957E-18
 -1      3834 9.51763E-05-2.83249E-05-2.86499E-05 1.59894E-07 1.21944E-19 2.72615E-18
 -1      3835 9.51343E-05-2.82628E-05-2.86587E-05 1.70488E-07-3.96393E-19 3.39714E-18
 -1      3836 9.52159E-05-2.84342E-05-2.86213E-05 6.21680E-08 7.74269E-20 3.87275E-18
 -1      3837 9.52082E-05-2.84036E-05-2.86300E-05 9.12301E-08 1.89555E-19 3.82464E-18
 -1      3838 9.51817E-05-2.83595E-05-2.86379E-05 1.01508E-07-5.75795E-19 4.51158E-18
 -1      3839 9.04722E-05-2.30176E-05-2.89029E-05-7.74104E-06-5.70078E-20-1.70573E-18
 -1      3840 9.08118E-05-2.27997E-05-2.91607E-05-6.83846E-06 1.54296E-19-1.74315E-18
 -1      3841 8.86443E-05-2.20626E-05-2.85162E-05-7.45372E-06-1.31782E-19-1.93137E-18
 -1      3842 6.09039E-05-1.69157E-05-1.87906E-05-1.23830E-05-1.58603E-18-3.98984E-18
 -1      3843 6.87205E-05-2.22726E-05-1.98105E-05-2.05247E-05-2.03816E-18-3.35057E-18
 -1      3844 7.73203E-05-2.56915E-05-2.19318E-05-2.03189E-05-1.74399E-18-2.79643E-18
 -1      3845 6.50854E-05-1.71543E-05-2.03504E-05-1.00372E-05-1.19819E-18-3.68671E-18
 -1      3846 8.69838E-05-2.66212E-05-2.58777E-05 1.51953E-05-1.19305E-18 1.55874E-18
 -1      3847 8.83337E-05-2.88224E-05-2.54234E-05 1.68793E-05-1.24217E-18 1.92163E-18
 -1      3848 8.69809E-05-2.43676E-05-2.68622E-05 1.19936E-05-1.45303E-18 1.17135E-18
 -1      3849 8.74463E-05-2.55043E-05-2.64881E-05 1.32814E-05-1.07748E-18 1.21969E-18
 -1      3850 8.32197E-05-2.39000E-05-2.54183E-05 1.39796E-05-9.65299E-19 1.57548E-18
 -1      3851 9.52406E-05-2.85157E-05-2.85966E-05 6.05550E-09 1.45231E-18 2.78273E-18
 -1      3852 9.14456E-05-1.89441E-05-3.10807E-05-3.91247E-07 9.85481E-19-2.80774E-18
 -1      3853 9.06494E-05-1.81045E-05-3.11064E-05-3.88244E-07 6.94220E-19-2.90587E-18
 -1      3854 9.05561E-05-1.85957E-05-3.08166E-05-8.91432E-07 6.04267E-19-2.71380E-18
 -1      3855 9.70797E-05-3.86956E-05-2.49559E-05 2.07114E-05 1.68166E-18-5.93292E-19
 -1      3856 6.39986E-05-1.85044E-05-1.93772E-05 1.40979E-05 5.94591E-19-3.79217E-18
 -1      3857 9.45271E-05-3.58980E-05-2.50558E-05 1.99215E-05 1.41403E-18-7.73930E-19
 -1      3858 9.24643E-05-2.06603E-05-3.07615E-05-1.43055E-06 9.50991E-19-2.37746E-18
 -1      3859 5.63083E-05-1.59499E-05-1.72419E-05 1.33268E-05-1.39872E-18 2.71527E-18
 -1      3860 5.15174E-05-1.27336E-05-1.62526E-05 3.85775E-06-2.43664E-19 3.83198E-18
 -1      3861 9.52121E-05-2.84411E-05-2.86161E-05-3.67546E-08 1.47463E-19-1.79452E-18
 -1      3862 9.52333E-05-2.84923E-05-2.86034E-05 1.58516E-08 7.00257E-19 3.21318E-18
 -1      3863 9.14143E-05-2.26678E-05-2.94641E-05-5.99085E-06 2.22033E-19-1.83899E-18
 -1      3864 9.17157E-05-2.24135E-05-2.97084E-05-5.06766E-06 3.70370E-19-1.88848E-18
 -1      3865 8.99935E-05-2.18355E-05-2.91933E-05-5.76969E-06 1.32395E-19-1.81051E-18
 -1      3866 9.23388E-05-2.10857E-05-3.05428E-05-2.30484E-06 6.87175E-19-2.34773E-18
 -1      3867 8.42630E-05-2.79442E-05-2.42217E-05 1.87516E-05-1.42725E-18 2.02787E-18
 -1      3868 9.36675E-05-3.24909E-05-2.61951E-05 1.64286E-05 7.49518E-19-7.56387E-19
 -1      3869 9.60949E-05-3.53474E-05-2.59857E-05 1.75950E-05 1.16175E-18-5.45893E-19
 -1      3870 9.14275E-05-2.77120E-05-2.73425E-05-1.43720E-05-6.24844E-19-9.86651E-19
 -1      3871 9.34168E-05-3.50919E-05-2.49404E-05-1.93382E-05 2.63580E-18-1.59302E-19
 -1      3872 8.76037E-05-3.12267E-05-2.41502E-05-1.98569E-05 2.45657E-18 4.32622E-19
 -1      3873 8.85937E-05-2.43969E-05-2.74769E-05-1.17844E-05-4.06779E-19-1.33100E-18
 -1      3874 8.86251E-05-2.37299E-05-2.78353E-05-1.06932E-05-7.11330E-20-1.34395E-18
 -1      3875 8.70567E-05-2.23529E-05-2.77116E-05-9.38451E-06-2.41143E-19-1.72708E-18
 -1      3876 9.68005E-05-3.88063E-05-2.47556E-05-2.07756E-05 3.05676E-18-1.79200E-19
 -1      3877 9.52289E-05-2.84706E-05-2.86105E-05 3.40690E-08 3.46619E-19 3.27370E-18
 -1      3878 8.92548E-05-1.64917E-05-3.11827E-05 2.81362E-07-5.28150E-19-2.61230E-18
 -1      3879 9.14167E-05-2.07449E-05-3.02734E-05 2.72633E-06-5.04236E-19-2.21754E-18
 -1      3880 8.85896E-05-3.18630E-05-2.42415E-05 2.05515E-05 1.34807E-18-1.56643E-18
 -1      3881 8.95939E-05-1.84029E-05-3.05203E-05-7.69052E-07 3.72512E-19-2.27970E-18
 -1      3882 8.92772E-05-1.80978E-05-3.05190E-05-4.15022E-07 6.13090E-20-2.31341E-18
 -1      3883 5.62139E-05-1.39630E-05-1.78411E-05-1.76824E-06 1.73357E-19 3.70778E-18
 -1      3884 8.91540E-05-1.79815E-05-3.05186E-05 1.61591E-07-8.45658E-20-2.39676E-18
 -1      3885 8.92343E-05-1.80244E-05-3.05207E-05 5.03217E-07-2.74894E-19-2.31710E-18
 -1      3886 8.91683E-05-1.86063E-05-3.02165E-05-2.32739E-07-6.39344E-20-2.22151E-18
 -1      3887 8.45309E-05-2.25352E-05-2.65524E-05 1.07372E-05-1.05145E-18 1.07915E-18
 -1      3888 9.52139E-05-2.84409E-05-2.86171E-05 4.25993E-08 6.91676E-19 4.19371E-18
 -1      3889 9.51983E-05-2.84251E-05-2.86175E-05 1.36939E-08 7.84068E-19-2.63681E-18
 -1      3890 9.52019E-05-2.84305E-05-2.86167E-05 1.86148E-08 1.03273E-18 1.79099E-19
 -1      3891 9.51954E-05-2.84210E-05-2.86179E-05-2.65066E-09 4.23883E-19-2.46495E-18
 -1      3892 9.51956E-05-2.84211E-05-2.86179E-05 3.79698E-09 6.82352E-19-3.18407E-18
 -1      3893 9.51833E-05-2.83908E-05-2.86247E-05 1.21763E-08 7.12050E-20-3.22153E-18
 -1      3894 6.32870E-05-1.80406E-05-1.94171E-05-1.47320E-05 1.42861E-18 9.96270E-19
 -1      3895 6.65023E-05-2.07691E-05-1.92907E-05-1.91499E-05 2.18492E-18-2.13068E-19
 -1      3896 7.45703E-05-2.45296E-05-2.13087E-05-2.02321E-05 1.86392E-18-1.15111E-18
 -1      3897 7.05436E-05-2.30636E-05-2.03931E-05 2.00918E-05-1.30245E-18 1.71270E-18
 -1      3898 6.31727E-05-1.89215E-05-1.85995E-05 1.74191E-05-1.53488E-18 1.53416E-18
 -1      3899 6.23932E-05-1.67377E-05-1.94907E-05 1.20060E-05-1.36178E-18 2.22926E-18
 -1      3900 9.52014E-05-2.84299E-05-2.86166E-05-1.78826E-08-4.81181E-19-3.08761E-18
 -1      3901 9.51978E-05-2.84247E-05-2.86174E-05-1.28305E-08 3.22100E-19-2.61532E-18
 -1      3902 9.51829E-05-2.83906E-05-2.86247E-05-1.10664E-08 8.83481E-20-3.31039E-18
 -1      3903 8.47879E-05-2.87804E-05-2.40552E-05-2.01885E-05-1.50456E-18-2.42844E-18
 -1      3904 8.98167E-05-3.01538E-05-2.54641E-05-1.81204E-05-1.35017E-18-1.51204E-18
 -1      3905 8.82566E-05-2.77826E-05-2.59298E-05-1.64544E-05-1.28673E-18-1.85499E-18
 -1      3906 9.52033E-05-2.84286E-05-2.86180E-05 3.02506E-08 1.17971E-18 1.23643E-18
 -1      3907 9.52092E-05-2.84383E-05-2.86164E-05 3.17841E-08 1.22080E-18 2.16217E-18
 -1      3908 9.51951E-05-2.83953E-05-2.86278E-05 5.99607E-08 1.33960E-19 3.82514E-18
 -1      3909 9.51864E-05-2.83928E-05-2.86258E-05 3.63253E-08 5.85131E-19 4.99402E-19
 -1      3910 9.52050E-05-2.84305E-05-2.86178E-05-3.32694E-08 8.67495E-19-2.37423E-18
 -1      3911 8.55300E-05-2.86440E-05-2.43393E-05 1.83298E-05 1.25146E-18-1.66382E-18
 -1      3912 8.25330E-05-2.85067E-05-2.32917E-05 2.01367E-05 1.39568E-18-1.99308E-18
 -1      3913 7.66487E-05-2.42195E-05-2.21698E-05 1.89377E-05 1.15913E-18-2.40340E-18
 -1      3914 8.94152E-05-2.95813E-05-2.57380E-05 1.64999E-05 8.93916E-19-1.32350E-18
 -1      3915 9.15300E-05-1.90528E-05-3.10679E-05 5.53600E-07-1.03717E-18-2.71306E-18
 -1      3916 9.18864E-05-1.97993E-05-3.08915E-05 1.10005E-06-9.63478E-19-2.52110E-18
 -1      3917 9.12361E-05-1.94658E-05-3.07516E-05 1.43331E-06-6.74022E-19-2.67792E-18
 -1      3918 9.07565E-05-1.81986E-05-3.10938E-05 5.86554E-07-8.51947E-19-2.89335E-18
 -1      3919 6.93402E-05-2.03059E-05-2.11837E-05 1.50959E-05 9.01528E-19-2.90569E-18
 -1      3920 6.32489E-05-1.58185E-05-1.99804E-05 8.40351E-06 1.80124E-19-3.84309E-18
 -1      3921 6.49143E-05-1.59249E-05-2.08801E-05 3.91780E-06-1.81728E-19-3.58486E-18
 -1      3922 8.83788E-05-2.24898E-05-2.82576E-05 4.41652E-06-8.58706E-19 1.51941E-19
 -1      3923 8.76943E-05-2.21409E-05-2.80950E-05 4.92994E-06-1.25428E-18 7.14631E-20
 -1      3924 8.95742E-05-2.17157E-05-2.90997E-05 4.88547E-06-2.65728E-19-1.63205E-18
 -1      3925 8.91856E-05-2.20452E-05-2.87685E-05 5.72961E-06-2.57562E-19-1.48599E-18
 -1      3926 7.70893E-05-2.52377E-05-2.21120E-05 1.92857E-05-1.46120E-18 1.86338E-18
 -1      3927 8.84110E-05-2.22645E-05-2.83713E-05 6.55552E-06-1.80268E-19-1.58985E-18
 -1      3928 8.79939E-05-2.26253E-05-2.80017E-05 7.51657E-06 4.84613E-20-1.64826E-18
 -1      3929 8.76827E-05-2.12716E-05-2.84412E-05 5.30060E-06-2.00318E-19-1.88429E-18
 -1      3930 8.70581E-05-2.28884E-05-2.75329E-05 8.57655E-06 1.78165E-19-1.74412E-18
 -1      3931 8.67401E-05-2.34535E-05-2.71038E-05 9.77816E-06 2.60889E-19-1.82862E-18
 -1      3932 8.59637E-05-2.16230E-05-2.75530E-05 7.09906E-06-5.42841E-20-2.17412E-18
 -1      3933 8.56543E-05-2.38720E-05-2.65267E-05 1.11793E-05 6.03743E-19-1.61669E-18
 -1      3934 8.56066E-05-2.50153E-05-2.60104E-05 1.29275E-05 7.25686E-19-1.68059E-18
 -1      3935 8.39994E-05-2.21708E-05-2.64761E-05 9.47257E-06 4.82228E-19-1.87797E-18
 -1      3936 8.83646E-05-2.63529E-05-2.65104E-05-1.45687E-05-8.43540E-19-1.55392E-18
 -1      3937 8.78487E-05-2.50394E-05-2.69413E-05-1.32313E-05-5.05615E-19-1.54210E-18
 -1      3938 8.54282E-05-2.30793E-05-2.67009E-05-1.18914E-05-3.68697E-19-1.70025E-18
 -1      3939 9.51889E-05-2.83950E-05-2.86256E-05-3.99498E-08 1.09982E-19-2.29514E-18
 -1      3940 8.43541E-05-2.53519E-05-2.52334E-05-1.39822E-05 1.53136E-18-9.96720E-19
 -1      3941 8.39651E-05-2.41270E-05-2.56998E-05-1.21898E-05 1.09071E-18-1.30423E-18
 -1      3942 8.95846E-05-1.66717E-05-3.12672E-05 3.15076E-07-7.41468E-19-2.71681E-18
 -1      3943 8.99726E-05-1.69027E-05-3.13168E-05 1.18797E-07-9.91917E-19-2.76989E-18
 -1      3944 7.56960E-05-2.23542E-05-2.28257E-05 1.61616E-05-1.38542E-18 1.65085E-18
 -1      3945 8.49491E-05-2.35757E-05-2.62673E-05-1.05073E-05 4.42375E-19-1.25628E-18
 -1      3946 8.50634E-05-2.29710E-05-2.66507E-05-9.22180E-06 5.25998E-19-1.21064E-18
 -1      3947 8.16481E-05-2.20111E-05-2.55252E-05-1.05359E-05 7.49824E-19-2.29210E-18
 -1      3948 8.60221E-05-2.28093E-05-2.70702E-05-8.02786E-06 4.22149E-19-1.45947E-18
 -1      3949 8.63834E-05-2.26087E-05-2.73621E-05-7.07192E-06 9.01515E-19-1.36665E-18
 -1      3950 8.36055E-05-2.15843E-05-2.65540E-05-7.76327E-06 1.97410E-19-1.90006E-18
 -1      3951 8.72746E-05-2.26944E-05-2.76656E-05-6.21952E-06 1.38474E-18-1.70507E-18
 -1      3952 8.77381E-05-2.27432E-05-2.78778E-05-5.49491E-06 6.19111E-19-1.58518E-18
 -1      3953 8.54677E-05-2.17088E-05-2.73019E-05-5.82736E-06 9.40057E-19-2.03842E-18
 -1      3954 8.85363E-05-2.29749E-05-2.80917E-05-4.86900E-06 1.18395E-19-1.67116E-18
 -1      3955 8.90208E-05-2.31704E-05-2.82392E-05-4.30534E-06 3.41512E-19-1.80149E-18
 -1      3956 8.71534E-05-2.21600E-05-2.78347E-05-4.45171E-06 6.10649E-19-2.65044E-18
 -1      3957 8.97216E-05-2.34825E-05-2.83852E-05-3.83118E-06 1.32255E-19-2.31805E-18
 -1      3958 9.01834E-05-2.37564E-05-2.84825E-05-3.38249E-06-8.47419E-19-2.63200E-18
 -1      3959 8.86436E-05-2.27935E-05-2.82052E-05-3.43742E-06-8.28572E-20-2.79525E-18
 -1      3960 9.07879E-05-2.41029E-05-2.85780E-05-3.01506E-06-1.34865E-18-2.31848E-18
 -1      3961 9.12044E-05-2.44089E-05-2.86377E-05-2.65224E-06-1.14604E-18-1.95718E-18
 -1      3962 8.99397E-05-2.35152E-05-2.84542E-05-2.66697E-06-5.18143E-19-2.32376E-18
 -1      3963 9.17166E-05-2.47576E-05-2.86962E-05-2.36333E-06-1.18539E-18-1.32890E-18
 -1      3964 9.20778E-05-2.50647E-05-2.87288E-05-2.06775E-06-7.37005E-19-1.20764E-18
 -1      3965 9.10478E-05-2.42570E-05-2.86135E-05-2.06900E-06-8.43956E-19-2.46075E-18
 -1      3966 9.25038E-05-2.53945E-05-2.87610E-05-1.83890E-06-7.01927E-19-1.13959E-18
 -1      3967 9.28075E-05-2.56832E-05-2.87747E-05-1.59799E-06-7.24201E-19-1.48388E-18
 -1      3968 9.19783E-05-2.49716E-05-2.87081E-05-1.59854E-06-6.80484E-19-1.75607E-18
 -1      3969 9.31554E-05-2.59815E-05-2.87888E-05-1.41647E-06-7.53485E-19-7.41907E-19
 -1      3970 9.34042E-05-2.62409E-05-2.87900E-05-1.22105E-06-7.11267E-19-8.84191E-19
 -1      3971 9.27456E-05-2.56285E-05-2.87572E-05-1.22595E-06-2.69290E-19-1.46090E-18
 -1      3972 9.36831E-05-2.65016E-05-2.87921E-05-1.07754E-06-6.27893E-19-1.10093E-18
 -1      3973 9.38822E-05-2.67266E-05-2.87855E-05-9.20333E-07-2.62867E-19-1.38434E-18
 -1      3974 9.33670E-05-2.62109E-05-2.87753E-05-9.30646E-07-7.18205E-19-5.59768E-19
 -1      3975 9.41016E-05-2.69479E-05-2.87802E-05-8.07648E-07-4.51944E-19-1.69992E-18
 -1      3976 9.42574E-05-2.71376E-05-2.87692E-05-6.82523E-07-5.01983E-19-1.47360E-18
 -1      3977 9.38610E-05-2.67122E-05-2.87735E-05-6.97451E-07 6.26985E-20-1.98614E-18
 -1      3978 9.44269E-05-2.73210E-05-2.87597E-05-5.94849E-07-3.47049E-19-1.38674E-18
 -1      3979 9.45462E-05-2.74771E-05-2.87467E-05-4.96482E-07 2.89557E-20-1.14587E-18
 -1      3980 9.42465E-05-2.71328E-05-2.87595E-05-5.14573E-07 1.64167E-19-1.71737E-18
 -1      3981 9.46745E-05-2.76257E-05-2.87351E-05-4.29009E-07 4.50699E-19-1.05087E-18
 -1      3982 9.47638E-05-2.77514E-05-2.87218E-05-3.52721E-07 1.13999E-18-7.13340E-19
 -1      3983 9.45416E-05-2.74779E-05-2.87389E-05-3.72470E-07 1.73617E-19-1.85668E-18
 -1      3984 9.48589E-05-2.78696E-05-2.87096E-05-3.01487E-07 7.19732E-19-1.13354E-18
 -1      3985 9.49242E-05-2.79688E-05-2.86968E-05-2.43221E-07 4.28540E-19-9.81608E-19
 -1      3986 9.47629E-05-2.77553E-05-2.87155E-05-2.63242E-07 6.93532E-19-2.07518E-18
 -1      3987 9.49929E-05-2.80609E-05-2.86850E-05-2.04848E-07 4.50610E-19-1.45774E-18
 -1      3988 9.50392E-05-2.81379E-05-2.86732E-05-1.60996E-07 2.31194E-19-1.85555E-18
 -1      3989 9.49251E-05-2.79740E-05-2.86919E-05-1.80620E-07 3.95986E-19-2.89060E-18
 -1      3990 9.50874E-05-2.82082E-05-2.86623E-05-1.32883E-07 2.92595E-19-1.53876E-18
 -1      3991 9.51189E-05-2.82670E-05-2.86518E-05-1.00278E-07 9.06690E-19-9.08598E-19
 -1      3992 9.50410E-05-2.81438E-05-2.86693E-05-1.18838E-07 2.60315E-19-3.23736E-18
 -1      3993 9.51478E-05-2.83138E-05-2.86428E-05-7.78881E-08 1.16562E-18-8.30105E-19
 -1      3994 9.51690E-05-2.83588E-05-2.86336E-05-5.49332E-08 1.19480E-18-1.28067E-18
 -1      3995 9.51654E-05-2.83570E-05-2.86322E-05-3.48578E-08-4.68742E-20-1.64596E-18
 -1      3996 9.51165E-05-2.82670E-05-2.86494E-05-7.03064E-08 7.13041E-19-1.34401E-18
 -1      3997 9.21902E-05-2.23256E-05-2.99512E-05-4.45337E-06 5.60081E-19-2.14813E-18
 -1      3998 9.24996E-05-2.21572E-05-3.01521E-05-3.66937E-06 5.26567E-19-2.17994E-18
 -1      3999 9.10641E-05-2.15915E-05-2.97582E-05-4.38135E-06 3.30941E-19-2.28481E-18
 -1      4000 7.40506E-05-2.14420E-05-2.25168E-05 1.44090E-05 8.33891E-19-2.53216E-18
 -1      4001 9.01174E-05-1.89084E-05-3.05318E-05-1.31620E-06 4.44518E-19-2.57289E-18
 -1      4002 8.97855E-05-1.92042E-05-3.02313E-05-1.47779E-06 2.24959E-19-2.30929E-18
 -1      4003 9.07867E-05-1.95821E-05-3.05271E-05-1.61685E-06 5.52759E-19-2.80688E-18
 -1      4004 8.23297E-05-2.08862E-05-2.63839E-05 8.56188E-06-9.77319E-19 7.04898E-19
 -1      4005 8.15413E-05-2.10957E-05-2.58794E-05 9.78605E-06-5.71097E-19 1.20482E-18
 -1      4006 5.99290E-05-1.41799E-05-1.95905E-05 2.20356E-06-8.43195E-20 2.47543E-18
 -1      4007 5.98087E-05-1.43090E-05-1.92874E-05-6.77154E-06 8.35241E-19 3.55987E-18
 -1      4008 1.03970E-04-4.28539E-05-2.60042E-05-1.83058E-05 2.81738E-18-5.91143E-19
 -1      4009 9.04012E-05-2.09758E-05-2.97674E-05 3.38730E-06-2.40925E-19-1.94733E-18
 -1      4010 9.01397E-05-2.14113E-05-2.94541E-05 4.19199E-06-1.65017E-19-1.75878E-18
 -1      4011 8.90207E-05-2.08326E-05-2.92084E-05 3.86696E-06-8.46063E-20-2.06822E-18
 -1      4012 8.66645E-05-2.17327E-05-2.78543E-05 5.42703E-06-1.38916E-18 1.04285E-19
 -1      4013 8.58974E-05-2.14728E-05-2.76083E-05 6.07502E-06-1.03677E-18-3.63389E-20
 -1      4014 8.61877E-05-2.12840E-05-2.77894E-05 4.22093E-06-1.15326E-18 8.17575E-19
 -1      4015 9.10138E-05-2.41257E-05-2.86781E-05 2.91604E-06 4.35746E-19 6.14322E-19
 -1      4016 9.05204E-05-2.37460E-05-2.86193E-05 3.27496E-06 3.15383E-20-4.38300E-20
 -1      4017 9.19912E-05-2.48906E-05-2.87669E-05 2.33858E-06 7.80970E-19 4.33423E-19
 -1      4018 9.15867E-05-2.45352E-05-2.87377E-05 2.64378E-06 1.07019E-18 9.08202E-19
 -1      4019 9.08392E-05-2.39907E-05-2.86365E-05 2.29133E-06 6.03530E-19-4.68879E-19
 -1      4020 9.27797E-05-2.55801E-05-2.88075E-05 1.85084E-06 1.24050E-19 5.32599E-19
 -1      4021 9.24543E-05-2.52609E-05-2.87980E-05 2.10898E-06 3.26615E-19 1.13720E-18
 -1      4022 9.18630E-05-2.47972E-05-2.87324E-05 1.84255E-06 5.52636E-19-5.47145E-19
 -1      4023 9.34067E-05-2.61822E-05-2.88167E-05 1.44263E-06-1.96030E-19 4.81009E-19
 -1      4024 9.31494E-05-2.59045E-05-2.88196E-05 1.65849E-06 1.64169E-19 7.32483E-19
 -1      4025 9.26861E-05-2.55153E-05-2.87796E-05 1.46124E-06-3.74842E-21 3.33681E-19
 -1      4026 9.38979E-05-2.66945E-05-2.88064E-05 1.10556E-06-6.26833E-19 2.33363E-19
 -1      4027 9.36979E-05-2.64591E-05-2.88167E-05 1.28345E-06 5.97122E-20 2.53196E-19
 -1      4028 9.33392E-05-2.61376E-05-2.87946E-05 1.14053E-06-2.83275E-20 5.20060E-19
 -1      4029 9.42768E-05-2.71207E-05-2.87851E-05 8.31518E-07-3.60164E-19 1.24332E-19
 -1      4030 9.41238E-05-2.69256E-05-2.87991E-05 9.75779E-07-9.37637E-19 2.11812E-19
 -1      4031 9.38503E-05-2.66645E-05-2.87892E-05 8.74676E-07-4.35014E-19-2.09569E-19
 -1      4032 9.45643E-05-2.74684E-05-2.87585E-05 6.12339E-07-3.72744E-19 8.23967E-19
 -1      4033 9.44494E-05-2.73098E-05-2.87738E-05 7.27417E-07-1.50029E-19 4.33337E-19
 -1      4034 9.42441E-05-2.71012E-05-2.87720E-05 6.57912E-07-2.26383E-19 4.91937E-19
 -1      4035 9.47787E-05-2.77468E-05-2.87303E-05 4.39947E-07-2.46845E-19 1.99394E-18
 -1      4036 9.46939E-05-2.76203E-05-2.87455E-05 5.30216E-07-4.71945E-19 1.35399E-18
 -1      4037 9.45426E-05-2.74563E-05-2.87486E-05 4.84181E-07-3.73880E-19 9.42501E-19
 -1      4038 9.49353E-05-2.79661E-05-2.87029E-05 3.06748E-07 1.29329E-18 2.05435E-18
 -1      4039 9.48742E-05-2.78668E-05-2.87171E-05 3.76303E-07 7.88412E-19 2.25889E-18
 -1      4040 9.47648E-05-2.77401E-05-2.87230E-05 3.47288E-07 8.32685E-19 1.62528E-18
 -1      4041 9.50471E-05-2.81358E-05-2.86776E-05 2.05694E-07 4.19864E-19 2.10733E-18
 -1      4042 9.50041E-05-2.80591E-05-2.86904E-05 2.58331E-07 1.23342E-18 1.83397E-18
 -1      4043 9.49270E-05-2.79628E-05-2.86975E-05 2.41657E-07 9.89797E-19 2.90514E-18
 -1      4044 9.51243E-05-2.82650E-05-2.86550E-05 1.30587E-07-1.24849E-18 2.93674E-18
 -1      4045 9.50952E-05-2.82067E-05-2.86661E-05 1.69637E-07-6.37668E-19 2.64745E-18
 -1      4046 9.50426E-05-2.81353E-05-2.86736E-05 1.61417E-07-4.51282E-19 2.48161E-18
 -1      4047 9.51740E-05-2.83583E-05-2.86361E-05 7.87466E-08-5.39281E-19 3.38194E-18
 -1      4048 9.51547E-05-2.83136E-05-2.86458E-05 1.06963E-07-9.69882E-19 3.43883E-18
 -1      4049 9.51192E-05-2.82607E-05-2.86530E-05 1.04465E-07-1.16939E-18 1.96730E-18
 -1      4050 9.51686E-05-2.83518E-05-2.86355E-05 6.43815E-08-8.51588E-19 1.64980E-18
 -1      4051 8.69769E-05-2.12707E-05-2.81609E-05-6.68440E-06-9.59509E-20-2.05232E-18
 -1      4052 8.77279E-05-2.12114E-05-2.85373E-05-5.89625E-06 9.30785E-21-2.03070E-18
 -1      4053 8.97483E-05-1.75959E-05-3.09119E-05 6.45818E-07-4.60894E-19-2.42954E-18
 -1      4054 8.08395E-05-2.81793E-05-2.24786E-05-2.09072E-05 2.32589E-18-5.62708E-19
 -1      4055 8.23109E-05-2.59626E-05-2.42122E-05-1.64291E-05 1.75483E-18-6.65616E-19
 -1      4056 9.51599E-05-2.83515E-05-2.86326E-05 9.86947E-09-4.62409E-19-3.84964E-18
 -1      4057 9.51634E-05-2.83545E-05-2.86323E-05 2.29760E-08-3.96371E-19-2.90741E-18
 -1      4058 7.96935E-05-2.11850E-05-2.51435E-05 1.12685E-05-7.52665E-19 1.53503E-18
 -1      4059 7.93024E-05-2.20030E-05-2.44903E-05 1.30067E-05-9.32908E-19 1.91953E-18
 -1      4060 7.78737E-05-1.93718E-05-2.50086E-05 8.82362E-06-4.34018E-19 1.84118E-18
 -1      4061 9.07766E-05-1.98122E-05-3.04174E-05 1.96080E-06-2.89756E-19-2.42503E-18
 -1      4062 9.07126E-05-2.04863E-05-3.01025E-05 2.75354E-06-2.90347E-19-2.09355E-18
 -1      4063 8.98731E-05-2.00631E-05-2.99086E-05 2.60929E-06-9.75397E-20-2.09983E-18
 -1      4064 8.46521E-05-2.11450E-05-2.72542E-05 6.74302E-06-1.24780E-18 2.96214E-19
 -1      4065 8.38381E-05-2.10596E-05-2.68962E-05 7.60958E-06-1.35446E-18 4.83636E-19
 -1      4066 8.39384E-05-2.04414E-05-2.71790E-05 5.23662E-06-8.74654E-19 3.97458E-19
 -1      4067 8.98192E-05-2.33106E-05-2.85186E-05 3.59893E-06-3.83957E-21 4.67774E-19
 -1      4068 8.92303E-05-2.29286E-05-2.84166E-05 4.02344E-06-3.09395E-19 1.78280E-19
 -1      4069 8.80463E-05-2.21962E-05-2.82008E-05 3.44647E-06-8.41844E-19 2.00340E-19
 -1      4070 8.95802E-05-2.31136E-05-2.84694E-05 2.81864E-06 6.76661E-20-6.68938E-19
 -1      4071 8.49921E-05-2.65942E-05-2.49345E-05 1.60720E-05 1.05061E-18-1.85768E-18
 -1      4072 6.84297E-05-1.68352E-05-2.22628E-05 5.34974E-06 2.61741E-19-3.16976E-18
 -1      4073 6.62574E-05-1.55414E-05-2.15697E-05-9.71184E-07-1.00644E-19-3.82481E-18
 -1      4074 7.88448E-05-2.29430E-05-2.38806E-05-1.45217E-05 1.56960E-18-2.05854E-18
 -1      4075 8.97115E-05-1.85092E-05-3.05324E-05 1.20141E-06-2.07548E-19-2.34785E-18
 -1      4076 9.01885E-05-1.87061E-05-3.06219E-05 1.33273E-06-3.96427E-19-2.34157E-18
 -1      4077 7.82655E-05-2.28735E-05-2.38688E-05 1.45392E-05 8.98208E-19-2.10031E-18
 -1      4078 7.33026E-05-1.90145E-05-2.30536E-05 1.05906E-05 5.35434E-19-2.46834E-18
 -1      4079 8.44442E-05-2.50313E-05-2.55066E-05-1.54061E-05-8.93883E-19-2.15859E-18
 -1      4080 8.95103E-05-1.89393E-05-3.02297E-05 1.21651E-06-1.84978E-19-2.30969E-18
 -1      4081 9.03282E-05-1.76737E-05-3.11327E-05 4.57770E-07-7.82367E-19-2.86920E-18
 -1      4082 8.48346E-05-2.13081E-05-2.72187E-05-8.44083E-06-3.93839E-19-2.03683E-18
 -1      4083 8.56963E-05-2.11829E-05-2.76821E-05-7.45563E-06-3.33562E-19-2.10270E-18
 -1      4084 8.50567E-05-2.02890E-05-2.77133E-05-5.75311E-06-1.92476E-19-1.92583E-18
 -1      4085 7.22612E-05-1.93719E-05-2.25973E-05 1.28292E-05-1.41185E-18 1.65230E-18
 -1      4086 9.14241E-05-2.04883E-05-3.03970E-05-2.45189E-06 6.02241E-19-2.64318E-18
 -1      4087 9.09013E-05-2.06277E-05-3.01204E-05-2.89724E-06 3.96426E-19-2.65784E-18
 -1      4088 8.12161E-05-1.97707E-05-2.62901E-05 6.66674E-06-9.55498E-19 6.19130E-19
 -1      4089 6.58936E-05-1.73610E-05-2.07883E-05-1.04403E-05 1.15762E-18 1.64774E-18
 -1      4090 8.87963E-05-1.90114E-05-2.99018E-05-6.25379E-07 1.40045E-19-1.96286E-18
 -1      4091 8.86791E-05-1.89427E-05-2.99002E-05 2.99990E-08-8.31335E-20-2.15646E-18
 -1      4092 7.32285E-05-1.82066E-05-2.35531E-05 6.27210E-06 4.11211E-19-2.73838E-18
 -1      4093 6.65051E-05-1.64199E-05-2.15248E-05-6.57784E-06-6.41651E-19-3.48741E-18
 -1      4094 7.00670E-05-1.91092E-05-2.18341E-05-1.33993E-05-1.12041E-18-3.14162E-18
 -1      4095 7.05517E-05-1.69953E-05-2.28586E-05-4.42214E-06-1.03565E-19-3.33210E-18
 -1      4096 9.51631E-05-2.83512E-05-2.86340E-05 3.65352E-08-9.64538E-19 3.39499E-21
 -1      4097 8.86962E-05-2.11900E-05-2.89348E-05-5.21851E-06 4.48034E-20-2.11928E-18
 -1      4098 8.93036E-05-2.10683E-05-2.92603E-05-4.43928E-06 1.09848E-19-2.15706E-18
 -1      4099 8.72174E-05-2.03948E-05-2.86058E-05-4.45320E-06 4.90493E-20-2.17547E-18
 -1      4100 8.02872E-05-2.15357E-05-2.51192E-05 1.10013E-05 8.72386E-19-1.90773E-18
 -1      4101 8.31087E-05-2.41779E-05-2.52700E-05 1.32173E-05 7.84968E-19-1.79684E-18
 -1      4102 7.70091E-05-2.34756E-05-2.29138E-05-1.73801E-05-1.44066E-18-2.78323E-18
 -1      4103 9.05585E-05-1.83226E-05-3.09576E-05 8.33285E-07-6.57708E-19-2.77744E-18
 -1      4104 6.79513E-05-1.75332E-05-2.15993E-05 1.02856E-05-1.57457E-18 1.12757E-18
 -1      4105 6.36132E-05-1.51721E-05-2.05406E-05 6.30999E-06-9.02744E-19 1.44113E-18
 -1      4106 6.59559E-05-1.53697E-05-2.17061E-05 1.95885E-06-5.16485E-19 1.37528E-18
 -1      4107 7.20389E-05-1.77197E-05-2.33767E-05 8.06385E-06-1.23252E-18 1.28101E-18
 -1      4108 9.51608E-05-2.83527E-05-2.86325E-05-1.93255E-08-5.27380E-19-3.37799E-18
 -1      4109 9.51585E-05-2.83490E-05-2.86330E-05-6.36342E-09-2.08075E-19-3.79505E-18
 -1      4110 9.51374E-05-2.83076E-05-2.86407E-05 3.01021E-09-8.58715E-19-3.41513E-18
 -1      4111 9.51403E-05-2.83103E-05-2.86408E-05-3.24657E-08 2.87608E-19-2.70870E-18
 -1      4112 8.98920E-05-1.98173E-05-3.00183E-05-2.25351E-06 1.33499E-19-2.50318E-18
 -1      4113 8.92815E-05-1.93421E-05-2.99980E-05-1.62384E-06-1.31236E-20-2.22054E-18
 -1      4114 8.87288E-05-1.94888E-05-2.96768E-05-1.39319E-06 1.64195E-20-2.13004E-18
 -1      4115 9.04140E-05-2.06632E-05-2.98956E-05-3.10404E-06 2.08923E-19-2.47831E-18
 -1      4116 7.38600E-05-2.04839E-05-2.28836E-05-1.32156E-05 1.66020E-18-5.12852E-19
 -1      4117 7.62915E-05-2.03449E-05-2.40666E-05-1.09303E-05 1.90482E-18-1.33761E-18
 -1      4118 8.24469E-05-2.16827E-05-2.60319E-05-1.08243E-05-3.58765E-19-2.05354E-18
 -1      4119 8.32222E-05-2.12744E-05-2.66005E-05-9.45220E-06-2.72062E-19-2.00042E-18
 -1      4120 8.22198E-05-2.00583E-05-2.65892E-05-7.34845E-06-3.72354E-19-2.38715E-18
 -1      4121 7.80609E-05-2.21387E-05-2.38437E-05-1.41646E-05-8.90887E-19-2.67713E-18
 -1      4122 7.83744E-05-2.10395E-05-2.45753E-05-1.20763E-05-5.37118E-19-2.44452E-18
 -1      4123 8.99211E-05-2.07903E-05-2.96390E-05-3.63179E-06 1.04990E-19-2.27854E-18
 -1      4124 8.71430E-05-2.05648E-05-2.85625E-05 3.75836E-06-7.55543E-20-2.13580E-18
 -1      4125 8.63581E-05-2.06845E-05-2.81477E-05 4.46663E-06-2.27455E-19-2.23107E-18
 -1      4126 8.51039E-05-2.06486E-05-2.76557E-05 5.12710E-06-1.52415E-19-2.06261E-18
 -1      4127 8.41427E-05-2.07574E-05-2.71603E-05 6.06956E-06 8.01000E-20-2.08830E-18
 -1      4128 8.48488E-05-1.99347E-05-2.77956E-05 3.43850E-06-5.26327E-20-2.26676E-18
 -1      4129 8.25109E-05-2.06785E-05-2.65409E-05 7.02421E-06 3.66086E-19-1.99316E-18
 -1      4130 8.15051E-05-2.09302E-05-2.59272E-05 8.30607E-06 7.68441E-19-1.81330E-18
 -1      4131 8.19604E-05-1.96700E-05-2.66712E-05 4.84048E-06 3.50021E-19-2.02550E-18
 -1      4132 9.07640E-05-1.89412E-05-3.07889E-05 1.25636E-06-5.51584E-19-2.61878E-18
 -1      4133 7.66483E-05-1.92038E-05-2.46746E-05 7.15351E-06 5.42511E-19-2.43220E-18
 -1      4134 7.33799E-05-1.71849E-05-2.40355E-05 2.21485E-06 3.59054E-19-3.18046E-18
 -1      4135 7.86960E-05-2.04693E-05-2.49337E-05-9.28798E-06 1.19614E-18-1.69255E-18
 -1      4136 7.96809E-05-2.02568E-05-2.55546E-05-7.78678E-06 3.25237E-19-1.56858E-18
 -1      4137 7.50668E-05-1.85046E-05-2.41430E-05-7.68411E-06 1.05726E-18-7.17837E-19
 -1      4138 8.15153E-05-2.04623E-05-2.61600E-05-6.62912E-06 3.84112E-19-1.42223E-18
 -1      4139 8.25072E-05-2.05501E-05-2.66084E-05-5.62149E-06 6.80525E-19-1.27676E-18
 -1      4140 7.90106E-05-1.89572E-05-2.56337E-05-5.28474E-06 3.57455E-19-6.69732E-19
 -1      4141 8.39390E-05-2.08722E-05-2.70307E-05-4.87312E-06 4.49644E-19-1.62517E-18
 -1      4142 8.48511E-05-2.11193E-05-2.73517E-05-4.17528E-06 5.54097E-19-2.47457E-18
 -1      4143 8.22501E-05-1.97996E-05-2.66757E-05-3.76918E-06 5.52980E-19-1.60852E-18
 -1      4144 8.60025E-05-2.15002E-05-2.76471E-05-3.65191E-06 7.31081E-19-2.65954E-18
 -1      4145 8.68106E-05-2.18373E-05-2.78726E-05-3.14845E-06 6.40833E-19-2.59375E-18
 -1      4146 8.47698E-05-2.06783E-05-2.74026E-05-2.73366E-06 3.68475E-19-2.47143E-18
 -1      4147 8.77586E-05-2.22564E-05-2.80762E-05-2.77215E-06 8.36602E-20-2.18134E-18
 -1      4148 8.84651E-05-2.26399E-05-2.82303E-05-2.39563E-06-4.18771E-19-1.68296E-18
 -1      4149 8.68306E-05-2.15996E-05-2.79077E-05-2.00392E-06 4.71362E-19-2.90803E-18
 -1      4150 8.92510E-05-2.30706E-05-2.83670E-05-2.12007E-06-7.47468E-19-1.57464E-18
 -1      4151 8.98593E-05-2.34671E-05-2.84683E-05-1.83061E-06-4.16294E-19-1.92242E-18
 -1      4152 8.85389E-05-2.25314E-05-2.82521E-05-1.48142E-06-2.81299E-19-1.86580E-18
 -1      4153 9.05095E-05-2.38869E-05-2.85564E-05-1.62587E-06-4.78506E-19-1.87967E-18
 -1      4154 9.10244E-05-2.42720E-05-2.86191E-05-1.39894E-06-1.16764E-18-2.11548E-18
 -1      4155 8.99569E-05-2.34383E-05-2.84796E-05-1.10104E-06-4.23397E-19-1.64340E-18
 -1      4156 9.15583E-05-2.46643E-05-2.86724E-05-1.24526E-06-1.44779E-18-1.86927E-18
 -1      4157 9.19865E-05-2.50214E-05-2.87077E-05-1.06525E-06-3.97370E-19-2.17732E-18
 -1      4158 9.11278E-05-2.42898E-05-2.86228E-05-8.20086E-07-8.87705E-19-1.63566E-18
 -1      4159 9.24199E-05-2.53753E-05-2.87365E-05-9.49199E-07 3.54076E-19-1.67720E-18
 -1      4160 9.27697E-05-2.56947E-05-2.87528E-05-8.05704E-07 1.54855E-19-1.32599E-18
 -1      4161 9.20852E-05-2.50640E-05-2.87062E-05-6.10232E-07-3.14793E-19-2.29148E-18
 -1      4162 9.31168E-05-2.60045E-05-2.87650E-05-7.17890E-07-4.52664E-19-5.75116E-19
 -1      4163 9.33974E-05-2.62817E-05-2.87687E-05-6.03564E-07-5.82666E-19-8.17972E-19
 -1      4164 9.28580E-05-2.57480E-05-2.87481E-05-4.52293E-07 3.68127E-19-1.47013E-18
 -1      4165 9.36712E-05-2.65461E-05-2.87700E-05-5.37200E-07-8.07746E-19-9.59578E-19
 -1      4166 9.38921E-05-2.67805E-05-2.87658E-05-4.46535E-07-1.70214E-19-1.46749E-18
 -1      4167 9.34729E-05-2.63371E-05-2.87623E-05-3.32929E-07-8.76416E-19-4.69317E-19
 -1      4168 9.41046E-05-2.70009E-05-2.87604E-05-3.96592E-07 6.60182E-20-2.12085E-18
 -1      4169 9.42753E-05-2.71947E-05-2.87516E-05-3.25234E-07-5.68497E-20-1.93974E-18
 -1      4170 9.39545E-05-2.68330E-05-2.87586E-05-2.42636E-07-2.30760E-19-1.20710E-18
 -1      4171 9.44372E-05-2.73746E-05-2.87424E-05-2.87908E-07 3.39846E-19-2.64274E-18
 -1      4172 9.45665E-05-2.75315E-05-2.87313E-05-2.32272E-07 1.92992E-19-2.25313E-18
 -1      4173 9.43253E-05-2.72416E-05-2.87444E-05-1.74497E-07-4.37717E-19-2.85795E-18
 -1      4174 9.46875E-05-2.76755E-05-2.87204E-05-2.04609E-07 2.18226E-19-2.49060E-18
 -1      4175 9.47835E-05-2.78002E-05-2.87086E-05-1.61653E-07 6.93432E-19-2.78083E-18
 -1      4176 9.46055E-05-2.75718E-05-2.87245E-05-1.23439E-07 8.47351E-20-2.55980E-18
 -1      4177 9.48720E-05-2.79136E-05-2.86973E-05-1.41116E-07 4.64874E-19-2.87440E-18
 -1      4178 9.49420E-05-2.80108E-05-2.86857E-05-1.08469E-07 5.58134E-19-3.31550E-18
 -1      4179 9.48123E-05-2.78339E-05-2.87024E-05-8.57832E-08 4.37870E-19-2.74212E-18
 -1      4180 9.50047E-05-2.80983E-05-2.86747E-05-9.42882E-08 8.32678E-19-3.01017E-18
 -1      4181 9.50535E-05-2.81729E-05-2.86638E-05-7.04245E-08 3.01871E-19-2.29515E-18
 -1      4182 9.49645E-05-2.80411E-05-2.86800E-05-5.68795E-08 7.45608E-19-2.58390E-18
 -1      4183 9.26584E-05-2.55581E-05-2.87646E-05 1.02688E-06-6.44473E-19 3.32515E-19
 -1      4184 9.22902E-05-2.52164E-05-2.87490E-05 1.17783E-06-1.26149E-19 2.19149E-19
 -1      4185 8.05496E-05-1.91911E-05-2.63493E-05 4.29501E-06-4.43596E-19 5.03165E-19
 -1      4186 7.90200E-05-1.88459E-05-2.58073E-05 4.98595E-06-1.47193E-19 1.28759E-18
 -1      4187 6.86558E-05-1.83184E-05-2.15659E-05-1.06792E-05 1.06069E-18 9.17449E-19
 -1      4188 6.79176E-05-1.63103E-05-2.20290E-05-6.40175E-06 8.64218E-19 1.22462E-18
 -1      4189 8.59650E-05-2.11528E-05-2.78023E-05 2.83867E-06-1.10032E-18 5.96940E-19
 -1      4190 8.49261E-05-2.06791E-05-2.75479E-05 3.17384E-06-1.02508E-18 9.70763E-19
 -1      4191 9.18214E-05-2.48355E-05-2.87173E-05 1.29166E-06-3.57647E-21-8.32547E-21
 -1      4192 9.13595E-05-2.44460E-05-2.86815E-05 1.46652E-06 6.30987E-19-3.92428E-19
 -1      4193 9.18752E-05-2.48531E-05-2.87039E-05 8.39540E-07-3.17052E-19 9.54444E-20
 -1      4194 8.87652E-05-1.90579E-05-2.98815E-05 9.35317E-07-8.88216E-20-2.34477E-18
 -1      4195 8.92920E-05-1.95495E-05-2.99011E-05 1.81643E-06-1.34963E-19-2.33208E-18
 -1      4196 8.89894E-05-2.00088E-05-2.95560E-05 2.36158E-06-1.80638E-19-2.31088E-18
 -1      4197 8.83750E-05-1.93628E-05-2.95623E-05 5.66745E-07-3.98804E-20-2.16331E-18
 -1      4198 9.07775E-05-2.40166E-05-2.86230E-05 1.59847E-06 8.39618E-19-6.76009E-19
 -1      4199 9.02051E-05-2.35850E-05-2.85574E-05 1.79894E-06 2.51206E-20-9.02456E-19
 -1      4200 9.08413E-05-2.40233E-05-2.86106E-05 1.02497E-06 1.39684E-19-1.05602E-18
 -1      4201 9.33215E-05-2.61805E-05-2.87806E-05 8.01921E-07 2.35737E-19-7.27137E-20
 -1      4202 9.30319E-05-2.58878E-05-2.87781E-05 9.30152E-07-4.53967E-20-1.18721E-19
 -1      4203 9.27032E-05-2.55807E-05-2.87515E-05 6.74305E-07-2.67533E-19 2.04607E-19
 -1      4204 9.38397E-05-2.67047E-05-2.87768E-05 6.14305E-07-3.85179E-20-1.35619E-19
 -1      4205 9.36152E-05-2.64594E-05-2.87824E-05 7.21252E-07 3.80411E-19-1.66942E-19
 -1      4206 9.33585E-05-2.62044E-05-2.87686E-05 5.30618E-07 3.89827E-19-1.29514E-18
 -1      4207 9.42386E-05-2.71374E-05-2.87613E-05 4.60837E-07-3.67612E-19-2.58414E-20
 -1      4208 9.40672E-05-2.69359E-05-2.87714E-05 5.48359E-07-4.49831E-19 1.92582E-19
 -1      4209 9.38700E-05-2.67279E-05-2.87663E-05 4.08752E-07-4.63882E-19-6.94849E-19
 -1      4210 9.45405E-05-2.74879E-05-2.87397E-05 3.37704E-07-2.16566E-19 3.50880E-19
 -1      4211 9.44120E-05-2.73254E-05-2.87519E-05 4.08014E-07-7.21839E-19 4.18704E-19
 -1      4212 9.42630E-05-2.71587E-05-2.87523E-05 3.07872E-07-6.56180E-19-1.07547E-18
 -1      4213 9.47649E-05-2.77668E-05-2.87156E-05 2.40721E-07 7.37426E-19 1.98499E-18
 -1      4214 9.46703E-05-2.76380E-05-2.87284E-05 2.96218E-07 1.34480E-19 9.92086E-19
 -1      4215 9.45599E-05-2.75068E-05-2.87321E-05 2.26325E-07-5.90485E-19 3.14028E-19
 -1      4216 9.49293E-05-2.79857E-05-2.86914E-05 1.65533E-07 4.05196E-20 2.74969E-18
 -1      4217 9.48601E-05-2.78851E-05-2.87038E-05 2.08291E-07 7.04206E-19 2.64138E-18
 -1      4218 9.47791E-05-2.77829E-05-2.87094E-05 1.61723E-07 9.64826E-20 1.88451E-18
 -1      4219 9.50443E-05-2.81530E-05-2.86687E-05 1.08887E-07 1.85886E-19 1.93622E-18
 -1      4220 9.49958E-05-2.80761E-05-2.86800E-05 1.42044E-07 3.54351E-19 2.65772E-18
 -1      4221 9.49403E-05-2.80043E-05-2.86863E-05 1.08013E-07-1.46282E-19 1.97833E-18
 -1      4222 7.34208E-05-2.19806E-05-2.18474E-05-1.77670E-05 1.37320E-18-1.63067E-18
 -1      4223 7.67990E-05-2.49136E-05-2.20719E-05-1.98975E-05 1.99279E-18-8.77222E-19
 -1      4224 7.86732E-05-1.98632E-05-2.51935E-05 8.23110E-06 6.96235E-19-2.14905E-18
 -1      4225 8.35665E-05-2.01575E-05-2.72122E-05 3.44485E-06-1.35511E-18 9.55565E-19
 -1      4226 8.23035E-05-1.97172E-05-2.68394E-05 3.89808E-06-9.08924E-19 9.32050E-19
 -1      4227 8.36661E-05-1.99246E-05-2.72383E-05 1.98386E-06-1.27414E-18 8.29603E-19
 -1      4228 9.51414E-05-2.83092E-05-2.86423E-05 5.24928E-08-1.73065E-18 3.91696E-19
 -1      4229 7.67139E-05-1.83108E-05-2.50922E-05 5.53181E-06-2.03033E-19 1.73591E-18
 -1      4230 7.48199E-05-1.80425E-05-2.43116E-05 6.68148E-06-6.73029E-19 1.50599E-18
 -1      4231 7.66789E-05-1.77684E-05-2.52205E-05 3.06036E-06 1.78755E-19 8.65952E-19
 -1      4232 6.79699E-05-1.55338E-05-2.23689E-05-2.43885E-06-2.47486E-19 1.21840E-18
 -1      4233 7.20559E-05-1.73176E-05-2.34370E-05-5.33587E-06 5.86941E-19 2.32147E-19
 -1      4234 7.42182E-05-1.75801E-05-2.43402E-05-4.14405E-06-9.40653E-20-4.78673E-19
 -1      4235 7.00776E-05-1.62909E-05-2.30779E-05 1.50873E-06-1.16320E-18 4.96457E-19
 -1      4236 8.84601E-05-2.02269E-05-2.92602E-05 2.70242E-06-1.01344E-19-2.25064E-18
 -1      4237 8.78696E-05-2.04540E-05-2.88903E-05 3.30910E-06-8.53634E-20-2.19528E-18
 -1      4238 8.67494E-05-1.99289E-05-2.86177E-05 2.47164E-06-7.75287E-20-2.42836E-18
 -1      4239 8.79911E-05-1.97315E-05-2.92488E-05 1.81845E-06-1.18427E-19-2.31575E-18
 -1      4240 8.06134E-05-1.87692E-05-2.64022E-05 2.34823E-06-6.88115E-19 6.20164E-19
 -1      4241 8.88491E-05-2.01955E-05-2.93975E-05-3.13166E-06-3.25485E-20-2.26351E-18
 -1      4242 8.80699E-05-1.98069E-05-2.92765E-05-2.02456E-06 1.30401E-20-2.17053E-18
 -1      4243 7.83330E-05-1.87762E-05-2.55636E-05 4.55051E-06 6.17087E-19-2.37253E-18
 -1      4244 7.65039E-05-1.91644E-05-2.45434E-05-9.03669E-06-3.20416E-19-2.53006E-18
 -1      4245 9.50854E-05-2.82195E-05-2.86566E-05-6.02944E-08 5.07738E-19-2.21158E-18
 -1      4246 9.51152E-05-2.82724E-05-2.86475E-05-3.93650E-08 1.05419E-18-2.08422E-18
 -1      4247 9.51119E-05-2.82676E-05-2.86478E-05-2.09097E-08 4.81791E-19-3.62391E-18
 -1      4248 9.50558E-05-2.81769E-05-2.86618E-05-3.56756E-08 5.18003E-19-2.67572E-18
 -1      4249 8.77117E-05-1.93415E-05-2.92747E-05-3.19249E-07 5.16086E-20-1.94998E-18
 -1      4250 8.77314E-05-1.94953E-05-2.92583E-05 6.57465E-07-1.31087E-19-2.14437E-18
 -1      4251 8.71881E-05-1.96429E-05-2.89539E-05 8.88348E-07-9.12970E-20-2.18839E-18
 -1      4252 9.51131E-05-2.82638E-05-2.86505E-05 6.62182E-08-1.11435E-18 1.14755E-18
 -1      4253 9.50824E-05-2.82096E-05-2.86597E-05 8.78582E-08-2.49155E-19 1.50650E-18
 -1      4254 9.50440E-05-2.81560E-05-2.86659E-05 6.64647E-08 5.03276E-19 7.60078E-19
 -1      4255 9.51108E-05-2.82636E-05-2.86486E-05 3.30582E-08-8.40875E-19-1.96777E-18
 -1      4256 9.51077E-05-2.82621E-05-2.86485E-05-3.69375E-09 1.09679E-19-3.87211E-18
 -1      4257 9.51098E-05-2.82652E-05-2.86481E-05 1.56866E-08 3.72184E-19-2.98131E-18
 -1      4258 9.50823E-05-2.82151E-05-2.86565E-05 2.75681E-08 8.27921E-19-1.25903E-18
 -1      4259 9.50824E-05-2.82192E-05-2.86553E-05-9.20855E-09 2.76314E-19-2.61270E-18
 -1      4260 7.17265E-05-1.66309E-05-2.35044E-05 4.36637E-06-8.60427E-19 6.59182E-19
 -1      4261 7.33779E-05-1.70964E-05-2.41478E-05-1.09815E-06 1.61823E-19-3.05851E-18
 -1      4262 7.41486E-05-1.78495E-05-2.41467E-05-6.04644E-06-2.10627E-19-2.82160E-18
 -1      4263 7.86311E-05-1.88912E-05-2.56179E-05-5.77020E-06-1.88951E-19-2.62795E-18
 -1      4264 7.68550E-05-1.80030E-05-2.51916E-05 3.02584E-07 1.29278E-19-2.71221E-18
 -1      4265 8.95630E-05-2.30995E-05-2.84510E-05 1.22888E-06 3.54911E-19-1.38789E-18
 -1      4266 8.94881E-05-2.31140E-05-2.84603E-05 1.95080E-06 5.04495E-19-9.19514E-19
 -1      4267 8.87861E-05-2.26507E-05-2.83516E-05 2.18097E-06 8.23759E-19-3.84028E-19
 -1      4268 8.33714E-05-1.96588E-05-2.73302E-05-4.37499E-06-1.30863E-19-2.22578E-18
 -1      4269 8.46467E-05-1.97772E-05-2.78366E-05-3.72071E-06-1.97613E-21-2.18730E-18
 -1      4270 8.79056E-05-2.21493E-05-2.82000E-05 2.35716E-06 1.13596E-20-3.41610E-19
 -1      4271 8.70507E-05-2.16704E-05-2.80305E-05 2.62751E-06-5.89262E-19 2.68633E-19
 -1      4272 8.60608E-05-2.10329E-05-2.78105E-05 1.69716E-06-5.28671E-19 2.81118E-19
 -1      4273 8.79918E-05-2.20964E-05-2.81970E-05 1.45115E-06 6.21862E-19-9.41628E-19
 -1      4274 8.53871E-05-1.94046E-05-2.82497E-05-1.26880E-06-2.93649E-22-2.09610E-18
 -1      4275 8.64991E-05-1.98741E-05-2.85680E-05-2.53470E-06-6.03073E-20-2.10847E-18
 -1      4276 8.22863E-05-1.94422E-05-2.69619E-05 3.22712E-06 8.59656E-20-2.02293E-18
 -1      4277 8.06521E-05-1.92186E-05-2.63275E-05 3.89921E-06 5.32237E-19-2.09169E-18
 -1      4278 7.90598E-05-1.85833E-05-2.58840E-05 2.90182E-06 4.09865E-19-2.35607E-18
 -1      4279 9.50390E-05-2.81549E-05-2.86653E-05 4.18791E-08 9.34350E-19-7.94353E-19
 -1      4280 9.50020E-05-2.80931E-05-2.86744E-05 6.16304E-08 9.57521E-19 4.50120E-19
 -1      4281 9.50382E-05-2.81532E-05-2.86649E-05 2.08528E-08 8.06588E-19-2.27065E-18
 -1      4282 8.09473E-05-1.92510E-05-2.65065E-05-1.08417E-06-1.04010E-20-3.05076E-19
 -1      4283 7.91589E-05-1.86751E-05-2.59968E-05-1.07851E-06 4.28349E-19-7.83960E-20
 -1      4284 7.73652E-05-1.81911E-05-2.53944E-05-1.67653E-06-5.44119E-20 3.66712E-19
 -1      4285 8.24363E-05-1.97149E-05-2.69415E-05-6.17807E-07-6.44117E-19-3.84913E-19
 -1      4286 8.38425E-05-2.02743E-05-2.72941E-05-6.43320E-07-6.80028E-19-1.07425E-18
 -1      4287 8.50438E-05-2.07532E-05-2.75975E-05-3.13703E-07-2.37112E-19-1.40458E-18
 -1      4288 8.61654E-05-2.12958E-05-2.78387E-05-3.49667E-07 3.45049E-19-2.04655E-18
 -1      4289 8.71476E-05-2.17793E-05-2.80473E-05-1.18756E-07 2.95724E-19-2.56500E-18
 -1      4290 8.80539E-05-2.22991E-05-2.82089E-05-1.63433E-07 2.58104E-19-2.51796E-18
 -1      4291 8.88626E-05-2.27714E-05-2.83487E-05-1.67394E-10 2.27782E-19-2.60806E-18
 -1      4292 8.95987E-05-2.32584E-05-2.84533E-05-5.12995E-08 2.64245E-19-2.31248E-18
 -1      4293 9.02642E-05-2.37044E-05-2.85434E-05 6.54931E-08-3.32615E-19-1.77700E-18
 -1      4294 9.08608E-05-2.41494E-05-2.86077E-05 1.12732E-08-4.52134E-19-1.31368E-18
 -1      4295 9.14050E-05-2.45575E-05-2.86623E-05 9.57629E-08-2.71045E-19-9.59987E-19
 -1      4296 9.18853E-05-2.49539E-05-2.86983E-05 4.18883E-08-7.21365E-19-8.09478E-19
 -1      4297 9.23257E-05-2.53168E-05-2.87281E-05 1.03621E-07-5.34185E-20-1.00109E-18
 -1      4298 9.27084E-05-2.56615E-05-2.87449E-05 5.28780E-08 4.43387E-19-1.33550E-18
 -1      4299 9.30603E-05-2.59762E-05-2.87578E-05 9.83631E-08 5.21003E-19-1.23972E-18
 -1      4300 9.33614E-05-2.62694E-05-2.87619E-05 5.26263E-08 1.34059E-19-9.88370E-19
 -1      4301 9.36384E-05-2.65358E-05-2.87638E-05 8.63571E-08-1.49607E-19-2.75113E-19
 -1      4302 9.38719E-05-2.67800E-05-2.87600E-05 4.66240E-08-3.55161E-19-4.13851E-19
 -1      4303 9.40866E-05-2.70009E-05-2.87551E-05 7.17385E-08-7.25492E-19-9.67107E-19
 -1      4304 9.42649E-05-2.72005E-05-2.87467E-05 3.83099E-08-5.21218E-19-1.02506E-18
 -1      4305 9.44284E-05-2.73800E-05-2.87379E-05 5.70082E-08-4.62652E-19-1.46702E-18
 -1      4306 9.45621E-05-2.75401E-05-2.87273E-05 2.97635E-08-3.41923E-19-8.92889E-19
 -1      4307 9.46845E-05-2.76834E-05-2.87167E-05 4.35903E-08 6.24031E-20-1.08122E-18
 -1      4308 9.47829E-05-2.78091E-05-2.87053E-05 2.23937E-08 2.87615E-19-9.85113E-19
 -1      4309 9.48725E-05-2.79211E-05-2.86942E-05 3.08406E-08-1.37173E-19-7.26982E-19
 -1      4310 9.49435E-05-2.80211E-05-2.86823E-05-1.62095E-08 4.05987E-19-2.18200E-18
 -1      4311 9.50071E-05-2.81069E-05-2.86715E-05-6.25743E-09 9.70500E-19-2.52707E-18
 -1      4312 8.74326E-05-1.98737E-05-2.89702E-05-2.08622E-06-1.25722E-19-2.14648E-18
 -1      4313 8.50937E-05-1.97383E-05-2.80344E-05 2.19265E-06 2.02535E-20-2.27314E-18
 -1      4314 8.38931E-05-1.96275E-05-2.75353E-05 2.73420E-06 4.47180E-20-2.03061E-18
 -1      4315 8.27680E-05-1.91834E-05-2.72130E-05 1.91592E-06 1.18504E-19-1.98654E-18
 -1      4316 7.30094E-05-1.68675E-05-2.40753E-05 6.94155E-07-4.47372E-19 3.25720E-19
 -1      4317 8.03008E-05-1.92291E-05-2.61995E-05-5.40479E-06-3.15885E-19-2.46271E-18
 -1      4318 8.19371E-05-1.93826E-05-2.68485E-05-4.60280E-06-1.80345E-19-2.30179E-18
 -1      4319 8.20632E-05-1.89349E-05-2.69998E-05-2.50484E-06-2.55888E-21-2.21608E-18
 -1      4320 7.88618E-05-1.82683E-05-2.59082E-05-2.64700E-06-1.23673E-19-2.54350E-18
 -1      4321 8.64997E-05-1.96950E-05-2.86267E-05 1.16665E-06-8.89649E-20-2.16660E-18
 -1      4322 9.50508E-05-2.81729E-05-2.86625E-05-1.68511E-08 5.44471E-19-2.70897E-18
 -1      4323 7.53988E-05-1.73114E-05-2.48445E-05 4.82187E-07 8.21241E-20 7.06366E-19
 -1      4324 8.57300E-05-1.95045E-05-2.83912E-05 5.65852E-07 3.49223E-20-1.98640E-18
 -1      4325 8.37895E-05-1.93309E-05-2.76237E-05-3.33415E-07 9.64997E-20-2.09135E-18
 -1      4326 9.49336E-05-2.79986E-05-2.86856E-05 7.94624E-08-1.19194E-20 3.79541E-19
 -1      4327 7.88396E-05-1.83171E-05-2.59535E-05-4.65604E-08 1.47008E-19-2.33622E-18
 -1      4328 8.20412E-05-1.90092E-05-2.70382E-05-1.56189E-07 6.49941E-20-2.11795E-18
 -1      4329 8.06363E-05-1.87569E-05-2.65467E-05-1.25176E-07 1.08102E-19-2.02790E-18
 -3
    1PSTEP                         4           1           1          
  100CL  101 1.000000000        4329                     0    1           1
 -4  ERROR       1    1
 -5  STR(%)      1    1    0    0
 -1         1 1.19933E+01
 -1         2 2.66538E+01
 -1         3 7.81372E-04
 -1         4 8.14823E-04
 -1         5 1.37730E+01
 -1         6 1.28789E+01
 -1         7 1.28789E+01
 -1         8 3.53974E+00
 -1         9 1.81258E+00
 -1        10 1.31886E+00
 -1        11 1.05512E+00
 -1        12 8.75454E-01
 -1        13 7.45771E-01
 -1        14 6.52130E-01
 -1        15 6.51063E-01
 -1        16 7.45161E-01
 -1        17 8.70110E-01
 -1        18 1.05830E+00
 -1        19 1.33301E+00
 -1        20 1.82228E+00
 -1        21 3.37915E+00
 -1        22 8.34877E+00
 -1        23 1.28789E+01
 -1        24 4.24738E+00
 -1        25 3.16724E+00
 -1        26 1.90644E+00
 -1        27 1.39990E+00
 -1        28 1.04544E+00
 -1        29 7.63528E-01
 -1        30 7.22159E-01
 -1        31 7.57586E-01
 -1        32 9.80763E-01
 -1        33 1.10716E+00
 -1        34 1.10716E+00
 -1        35 1.11516E+00
 -1        36 1.11516E+00
 -1        37 1.49617E+00
 -1        38 2.39705E+00
 -1        39 3.34980E+00
 -1        40 3.48141E+00
 -1        41 3.54824E+00
 -1        42 3.54824E+00
 -1        43 2.91447E+00
 -1        44 1.71304E+00
 -1        45 1.34093E+00
 -1        46 1.15154E+00
 -1        47 1.15154E+00
 -1        48 1.12383E+00
 -1        49 1.09358E+00
 -1        50 9.53498E-01
 -1        51 7.71384E-01
 -1        52 6.17284E-01
 -1        53 4.78639E-01
 -1        54 4.14290E-01
 -1        55 3.43710E-01
 -1        56 2.75399E-01
 -1        57 2.14044E-01
 -1        58 1.61692E-01
 -1        59 1.18716E-01
 -1        60 9.55420E-02
 -1        61 7.89737E-02
 -1        62 6.36062E-02
 -1        63 4.99342E-02
 -1        64 3.81125E-02
 -1        65 2.80829E-02
 -1        66 2.15216E-02
 -1        67 1.70379E-02
 -1        68 1.25085E-02
 -1        69 7.98900E-03
 -1        70 5.78470E-03
 -1        71 4.00627E-03
 -1        72 1.37730E+01
 -1        73 3.39139E+00
 -1        74 2.35796E+00
 -1        75 1.58952E+00
 -1        76 1.35635E+00
 -1        77 1.17123E+00
 -1        78 1.01290E+00
 -1        79 8.95344E-01
 -1        80 8.98206E-01
 -1        81 8.98206E-01
 -1        82 1.09186E+00
 -1        83 1.29563E+00
 -1        84 1.43506E+00
 -1        85 1.71689E+00
 -1        86 1.78352E+00
 -1        87 2.23833E+00
 -1        88 3.33210E+00
 -1        89 3.94819E+00
 -1        90 4.51457E+00
 -1        91 4.51457E+00
 -1        92 3.79499E+00
 -1        93 2.18737E+00
 -1        94 1.42543E+00
 -1        95 1.37357E+00
 -1        96 1.56008E+00
 -1        97 1.56008E+00
 -1        98 1.49159E+00
 -1        99 1.29591E+00
 -1       100 1.08931E+00
 -1       101 8.87859E-01
 -1       102 6.94164E-01
 -1       103 5.23401E-01
 -1       104 3.82095E-01
 -1       105 2.98252E-01
 -1       106 2.27001E-01
 -1       107 1.68631E-01
 -1       108 1.22165E-01
 -1       109 8.60558E-02
 -1       110 5.85911E-02
 -1       111 4.65888E-02
 -1       112 3.81152E-02
 -1       113 3.03616E-02
 -1       114 2.34541E-02
 -1       115 1.94214E-02
 -1       116 1.66034E-02
 -1       117 1.32330E-02
 -1       118 9.41385E-03
 -1       119 5.81127E-03
 -1       120 3.87915E-03
 -1       121 1.81762E-03
 -1       122 1.26050E-03
 -1       123 4.17967E-04
 -1       124 6.00887E-04
 -1       125 6.99094E-04
 -1       126 6.99094E-04
 -1       127 6.92921E-04
 -1       128 6.54599E-04
 -1       129 6.47502E-04
 -1       130 6.73640E-04
 -1       131 6.79740E-04
 -1       132 6.79740E-04
 -1       133 5.83961E-04
 -1       134 5.15595E-04
 -1       135 1.64758E-03
 -1       136 2.66007E-03
 -1       137 2.66538E+01
 -1       138 4.70534E+01
 -1       139 4.70534E+01
 -1       140 2.01950E+01
 -1       141 1.23382E+01
 -1       142 1.27189E+01
 -1       143 1.27189E+01
 -1       144 1.24829E+01
 -1       145 1.24829E+01
 -1       146 1.57364E+01
 -1       147 4.29531E+01
 -1       148 4.29531E+01
 -1       149 2.60479E+01
 -1       150 2.60479E+01
 -1       151 2.49393E+01
 -1       152 3.07004E+01
 -1       153 3.07004E+01
 -1       154 2.49199E+01
 -1       155 1.19148E+01
 -1       156 1.19266E+01
 -1       157 1.19266E+01
 -1       158 1.19933E+01
 -1       159 1.16173E+01
 -1       160 2.27872E+01
 -1       161 4.83912E+01
 -1       162 4.83912E+01
 -1       163 2.44272E+01
 -1       164 5.86421E+00
 -1       165 2.29843E+00
 -1       166 1.55141E+00
 -1       167 1.18500E+00
 -1       168 9.65960E-01
 -1       169 8.15121E-01
 -1       170 7.05349E-01
 -1       171 6.29561E-01
 -1       172 7.04540E-01
 -1       173 8.12364E-01
 -1       174 9.70120E-01
 -1       175 1.19762E+00
 -1       176 1.56955E+00
 -1       177 2.28625E+00
 -1       178 3.80644E+00
 -1       179 1.37730E+01
 -1       180 4.24738E+00
 -1       181 3.16724E+00
 -1       182 1.90644E+00
 -1       183 1.39990E+00
 -1       184 1.04544E+00
 -1       185 7.63528E-01
 -1       186 7.16061E-01
 -1       187 7.22159E-01
 -1       188 7.57586E-01
 -1       189 9.80763E-01
 -1       190 1.10716E+00
 -1       191 1.05811E+00
 -1       192 1.11516E+00
 -1       193 1.08082E+00
 -1       194 1.49711E+00
 -1       195 2.39705E+00
 -1       196 3.34980E+00
 -1       197 3.48141E+00
 -1       198 3.54824E+00
 -1       199 2.91447E+00
 -1       200 1.87237E+00
 -1       201 1.34093E+00
 -1       202 1.13877E+00
 -1       203 1.15154E+00
 -1       204 1.12383E+00
 -1       205 1.09358E+00
 -1       206 9.53498E-01
 -1       207 7.87826E-01
 -1       208 6.70216E-01
 -1       209 5.70527E-01
 -1       210 4.61804E-01
 -1       211 3.58023E-01
 -1       212 2.75399E-01
 -1       213 2.14605E-01
 -1       214 1.67940E-01
 -1       215 1.28041E-01
 -1       216 9.55420E-02
 -1       217 7.89737E-02
 -1       218 6.36062E-02
 -1       219 4.99342E-02
 -1       220 3.81125E-02
 -1       221 2.80985E-02
 -1       222 2.15216E-02
 -1       223 1.70379E-02
 -1       224 1.25085E-02
 -1       225 8.35507E-03
 -1       226 5.78470E-03
 -1       227 4.00627E-03
 -1       228 3.39139E+00
 -1       229 2.35796E+00
 -1       230 1.58952E+00
 -1       231 1.35635E+00
 -1       232 1.17123E+00
 -1       233 1.01290E+00
 -1       234 8.51845E-01
 -1       235 8.95344E-01
 -1       236 8.98206E-01
 -1       237 8.90077E-01
 -1       238 1.09186E+00
 -1       239 1.29563E+00
 -1       240 1.43506E+00
 -1       241 1.71689E+00
 -1       242 1.78352E+00
 -1       243 2.26500E+00
 -1       244 3.33210E+00
 -1       245 3.94819E+00
 -1       246 4.51457E+00
 -1       247 3.79499E+00
 -1       248 2.18737E+00
 -1       249 1.42543E+00
 -1       250 1.27221E+00
 -1       251 1.37357E+00
 -1       252 1.56008E+00
 -1       253 1.49159E+00
 -1       254 1.29591E+00
 -1       255 1.08931E+00
 -1       256 9.00290E-01
 -1       257 7.24252E-01
 -1       258 5.61468E-01
 -1       259 4.21098E-01
 -1       260 3.06232E-01
 -1       261 2.27001E-01
 -1       262 1.68631E-01
 -1       263 1.23303E-01
 -1       264 8.92134E-02
 -1       265 6.27947E-02
 -1       266 4.65888E-02
 -1       267 3.81152E-02
 -1       268 3.03616E-02
 -1       269 2.34541E-02
 -1       270 1.94214E-02
 -1       271 1.66034E-02
 -1       272 1.32330E-02
 -1       273 9.41385E-03
 -1       274 5.81127E-03
 -1       275 3.87915E-03
 -1       276 1.29346E-03
 -1       277 9.38993E-04
 -1       278 1.02285E-03
 -1       279 1.19206E-03
 -1       280 1.19206E-03
 -1       281 1.19030E-03
 -1       282 1.15552E-03
 -1       283 1.08666E-03
 -1       284 1.13102E-03
 -1       285 1.15750E-03
 -1       286 1.16367E-03
 -1       287 1.16367E-03
 -1       288 9.68213E-04
 -1       289 8.75137E-04
 -1       290 2.43956E-03
 -1       291 2.98362E+01
 -1       292 2.86971E+01
 -1       293 4.70534E+01
 -1       294 2.15309E+01
 -1       295 1.14972E+01
 -1       296 1.23382E+01
 -1       297 1.27189E+01
 -1       298 1.18265E+01
 -1       299 1.24829E+01
 -1       300 1.21185E+01
 -1       301 1.68235E+01
 -1       302 4.29531E+01
 -1       303 3.78026E+01
 -1       304 3.11241E+01
 -1       305 3.11241E+01
 -1       306 3.31387E+01
 -1       307 3.31387E+01
 -1       308 2.80493E+01
 -1       309 1.19148E+01
 -1       310 1.18773E+01
 -1       311 1.19266E+01
 -1       312 1.18431E+01
 -1       313 1.19933E+01
 -1       314 1.15197E+01
 -1       315 1.16173E+01
 -1       316 2.41816E+01
 -1       317 4.83912E+01
 -1       318 3.03640E+01
 -1       319 2.98362E+01
 -1       320 1.08253E+00
 -1       321 2.38712E+00
 -1       322 8.17890E-01
 -1       323 6.90877E-01
 -1       324 5.95860E-01
 -1       325 5.18632E-01
 -1       326 5.18723E-01
 -1       327 5.94080E-01
 -1       328 6.95610E-01
 -1       329 8.20260E-01
 -1       330 9.76007E-01
 -1       331 1.19188E+00
 -1       332 1.32188E+00
 -1       333 2.03165E+00
 -1       334 1.69008E+00
 -1       335 1.53327E+00
 -1       336 1.00723E+00
 -1       337 7.20242E-01
 -1       338 5.59398E-01
 -1       339 4.87694E-01
 -1       340 5.28887E-01
 -1       341 5.36407E-01
 -1       342 6.82092E-01
 -1       343 7.64038E-01
 -1       344 7.16876E-01
 -1       345 6.35196E-01
 -1       346 6.64813E-01
 -1       347 1.07165E+00
 -1       348 1.55361E+00
 -1       349 2.01565E+00
 -1       350 2.19736E+00
 -1       351 2.15237E+00
 -1       352 2.16831E+00
 -1       353 1.73776E+00
 -1       354 1.30898E+00
 -1       355 7.54136E-01
 -1       356 6.36207E-01
 -1       357 6.80912E-01
 -1       358 8.33989E-01
 -1       359 8.44735E-01
 -1       360 7.70406E-01
 -1       361 6.86814E-01
 -1       362 6.11184E-01
 -1       363 5.21038E-01
 -1       364 4.25270E-01
 -1       365 3.34491E-01
 -1       366 2.54406E-01
 -1       367 1.87287E-01
 -1       368 1.33246E-01
 -1       369 9.51264E-02
 -1       370 6.87510E-02
 -1       371 4.98305E-02
 -1       372 3.88394E-02
 -1       373 3.16903E-02
 -1       374 2.49907E-02
 -1       375 1.89143E-02
 -1       376 1.35247E-02
 -1       377 1.05977E-02
 -1       378 7.75957E-03
 -1       379 5.19407E-03
 -1       380 3.15175E-03
 -1       381 1.03193E+00
 -1       382 7.23230E-01
 -1       383 7.02039E-01
 -1       384 6.51335E-01
 -1       385 6.54958E-01
 -1       386 7.69717E-01
 -1       387 9.26945E-01
 -1       388 1.03369E+00
 -1       389 1.03369E+00
 -1       390 9.92523E-01
 -1       391 7.97943E-01
 -1       392 8.72926E-01
 -1       393 1.55481E+00
 -1       394 2.14256E+00
 -1       395 2.35653E+00
 -1       396 2.27661E+00
 -1       397 2.47735E+00
 -1       398 2.40898E+00
 -1       399 1.62226E+00
 -1       400 9.24459E-01
 -1       401 8.18557E-01
 -1       402 1.07950E+00
 -1       403 1.13249E+00
 -1       404 1.15069E+00
 -1       405 1.06597E+00
 -1       406 9.55215E-01
 -1       407 8.24495E-01
 -1       408 6.78326E-01
 -1       409 5.37112E-01
 -1       410 4.11653E-01
 -1       411 3.06232E-01
 -1       412 2.21329E-01
 -1       413 1.66358E-01
 -1       414 1.23303E-01
 -1       415 8.92134E-02
 -1       416 6.27947E-02
 -1       417 4.27206E-02
 -1       418 2.83511E-02
 -1       419 2.39164E-02
 -1       420 1.93752E-02
 -1       421 1.49941E-02
 -1       422 1.09316E-02
 -1       423 8.60699E-03
 -1       424 6.60865E-03
 -1       425 4.84085E-03
 -1       426 3.20748E-03
 -1       427 1.59082E-03
 -1       428 2.03916E-03
 -1       429 2.56177E-03
 -1       430 1.59082E-03
 -1       431 1.49945E-03
 -1       432 1.37404E-03
 -1       433 1.24440E-03
 -1       434 1.21521E-03
 -1       435 1.32889E-03
 -1       436 1.46100E-03
 -1       437 1.61370E-03
 -1       438 1.61370E-03
 -1       439 2.72580E-03
 -1       440 2.86971E+01
 -1       441 2.98362E+01
 -1       442 2.29275E+01
 -1       443 1.64860E+01
 -1       444 9.54166E+00
 -1       445 9.61230E-01
 -1       446 9.51539E+00
 -1       447 1.14524E+01
 -1       448 1.08532E+01
 -1       449 8.55340E+00
 -1       450 8.30729E+00
 -1       451 1.42004E+01
 -1       452 2.51702E+01
 -1       453 2.85595E+01
 -1       454 3.12912E+01
 -1       455 3.12912E+01
 -1       456 3.31387E+01
 -1       457 1.89088E+01
 -1       458 1.09959E+01
 -1       459 8.00350E+00
 -1       460 1.09306E+01
 -1       461 1.11985E+01
 -1       462 1.00154E+01
 -1       463 9.55114E+00
 -1       464 7.03883E+00
 -1       465 1.04437E+01
 -1       466 1.76663E+01
 -1       467 3.03640E+01
 -1       468 2.74882E+01
 -1       469 7.26217E+00
 -1       470 2.90946E+01
 -1       471 8.22842E-01
 -1       472 4.85317E-01
 -1       473 5.42750E-01
 -1       474 3.54526E-01
 -1       475 4.11280E-01
 -1       476 4.79756E-01
 -1       477 5.40556E-01
 -1       478 5.68783E-01
 -1       479 7.74140E-01
 -1       480 5.86325E-01
 -1       481 6.26808E-01
 -1       482 4.90978E+00
 -1       483 3.92701E-01
 -1       484 2.69173E-01
 -1       485 2.82390E-01
 -1       486 3.97057E-01
 -1       487 5.03394E-01
 -1       488 6.05616E-01
 -1       489 7.24341E-01
 -1       490 8.09591E-01
 -1       491 8.55869E-01
 -1       492 1.10283E+00
 -1       493 1.21421E+00
 -1       494 1.51461E+00
 -1       495 1.61524E+00
 -1       496 2.12447E+00
 -1       497 2.26962E+00
 -1       498 2.37445E+00
 -1       499 1.84171E+00
 -1       500 1.57447E+00
 -1       501 1.23038E+00
 -1       502 1.18233E+00
 -1       503 9.86035E-01
 -1       504 9.32022E-01
 -1       505 8.94955E-01
 -1       506 8.08241E-01
 -1       507 7.21035E-01
 -1       508 6.51041E-01
 -1       509 5.63893E-01
 -1       510 4.69742E-01
 -1       511 3.78750E-01
 -1       512 2.96729E-01
 -1       513 2.26339E-01
 -1       514 1.68167E-01
 -1       515 1.21567E-01
 -1       516 8.52519E-02
 -1       517 5.76805E-02
 -1       518 3.72950E-02
 -1       519 2.48206E-02
 -1       520 1.79089E-02
 -1       521 1.50890E-02
 -1       522 1.20411E-02
 -1       523 9.01096E-03
 -1       524 6.17522E-03
 -1       525 4.47452E-03
 -1       526 1.97262E+01
 -1       527 3.78728E-01
 -1       528 5.03965E-01
 -1       529 6.84698E-01
 -1       530 8.40272E-01
 -1       531 9.56944E-01
 -1       532 1.11440E+00
 -1       533 1.23607E+00
 -1       534 1.24911E+00
 -1       535 1.53056E+00
 -1       536 1.67342E+00
 -1       537 1.84781E+00
 -1       538 2.36059E+00
 -1       539 3.37448E+00
 -1       540 3.18840E+00
 -1       541 2.31024E+00
 -1       542 1.99357E+00
 -1       543 1.74132E+00
 -1       544 1.43829E+00
 -1       545 1.33551E+00
 -1       546 1.32393E+00
 -1       547 1.21418E+00
 -1       548 1.08157E+00
 -1       549 9.90645E-01
 -1       550 8.67317E-01
 -1       551 7.25804E-01
 -1       552 5.86047E-01
 -1       553 4.59300E-01
 -1       554 3.50599E-01
 -1       555 2.61053E-01
 -1       556 1.89563E-01
 -1       557 1.33970E-01
 -1       558 9.17575E-02
 -1       559 6.04442E-02
 -1       560 4.12323E-02
 -1       561 2.93191E-02
 -1       562 2.39164E-02
 -1       563 1.93752E-02
 -1       564 1.49941E-02
 -1       565 1.09316E-02
 -1       566 7.96631E-03
 -1       567 5.86397E-03
 -1       568 3.92413E-03
 -1       569 1.71646E-03
 -1       570 1.45785E-03
 -1       571 3.37540E-03
 -1       572 2.23131E-03
 -1       573 1.24440E-03
 -1       574 1.13891E-03
 -1       575 1.21521E-03
 -1       576 1.39687E-03
 -1       577 1.76350E-03
 -1       578 1.95103E-03
 -1       579 2.15732E-03
 -1       580 9.16245E+00
 -1       581 4.39622E-01
 -1       582 1.33584E+01
 -1       583 2.25461E+01
 -1       584 2.74882E+01
 -1       585 4.28889E+00
 -1       586 1.16890E+01
 -1       587 4.18936E-01
 -1       588 7.21316E+00
 -1       589 3.58737E+00
 -1       590 8.03151E+00
 -1       591 3.12912E+01
 -1       592 6.42933E+00
 -1       593 7.86275E+00
 -1       594 1.65769E+01
 -1       595 7.41345E+00
 -1       596 2.85595E+01
 -1       597 2.42837E+01
 -1       598 1.38935E+01
 -1       599 1.23937E+01
 -1       600 6.01724E+00
 -1       601 7.32621E+00
 -1       602 8.75147E+00
 -1       603 4.55125E+00
 -1       604 5.00471E+00
 -1       605 9.79444E+00
 -1       606 1.40148E+01
 -1       607 8.79349E-01
 -1       608 1.16275E+00
 -1       609 5.01832E+00
 -1       610 8.78834E-01
 -1       611 1.97125E+01
 -1       612 2.93726E-03
 -1       613 2.26709E+01
 -1       614 2.08519E+01
 -1       615 4.00070E+00
 -1       616 3.24517E-01
 -1       617 2.66805E-01
 -1       618 4.28820E-01
 -1       619 4.77586E-01
 -1       620 4.33900E-01
 -1       621 3.27084E-01
 -1       622 3.41143E-01
 -1       623 3.08522E-01
 -1       624 3.95621E-01
 -1       625 5.09409E-01
 -1       626 6.31660E-01
 -1       627 7.64998E-01
 -1       628 9.66450E-01
 -1       629 1.17395E+00
 -1       630 1.31911E+00
 -1       631 1.69809E+00
 -1       632 2.23005E+00
 -1       633 1.63766E+00
 -1       634 3.38499E+00
 -1       635 3.12785E+00
 -1       636 4.25231E+00
 -1       637 4.55893E+00
 -1       638 3.45161E+00
 -1       639 1.58806E+00
 -1       640 1.97257E+00
 -1       641 1.51264E+00
 -1       642 1.33686E+00
 -1       643 1.16814E+00
 -1       644 9.75546E-01
 -1       645 8.27214E-01
 -1       646 7.22374E-01
 -1       647 6.10325E-01
 -1       648 5.02267E-01
 -1       649 4.04111E-01
 -1       650 3.18512E-01
 -1       651 2.46140E-01
 -1       652 1.86497E-01
 -1       653 1.38440E-01
 -1       654 1.00521E-01
 -1       655 7.12038E-02
 -1       656 4.90052E-02
 -1       657 3.25678E-02
 -1       658 2.07007E-02
 -1       659 1.23891E-02
 -1       660 8.09079E-03
 -1       661 7.09996E-03
 -1       662 5.70192E-03
 -1       663 4.17003E-03
 -1       664 1.13158E+01
 -1       665 2.93585E-03
 -1       666 4.53946E-01
 -1       667 9.86009E-01
 -1       668 1.14594E+00
 -1       669 1.44921E+00
 -1       670 1.78454E+00
 -1       671 2.09922E+00
 -1       672 2.14865E+00
 -1       673 2.28797E+00
 -1       674 2.36059E+00
 -1       675 6.40897E+00
 -1       676 7.11548E+00
 -1       677 3.18840E+00
 -1       678 3.18846E+00
 -1       679 2.99048E+00
 -1       680 2.11429E+00
 -1       681 2.17419E+00
 -1       682 1.83775E+00
 -1       683 1.51335E+00
 -1       684 1.25011E+00
 -1       685 1.10617E+00
 -1       686 9.41516E-01
 -1       687 7.78363E-01
 -1       688 6.28377E-01
 -1       689 4.96878E-01
 -1       690 3.85441E-01
 -1       691 2.93489E-01
 -1       692 2.19298E-01
 -1       693 1.60626E-01
 -1       694 1.15093E-01
 -1       695 8.04102E-02
 -1       696 5.45010E-02
 -1       697 3.55541E-02
 -1       698 2.20373E-02
 -1       699 1.40407E-02
 -1       700 1.12512E-02
 -1       701 9.31816E-03
 -1       702 7.16925E-03
 -1       703 5.06113E-03
 -1       704 3.88647E-03
 -1       705 3.65549E+00
 -1       706 1.12790E-03
 -1       707 1.45785E-03
 -1       708 1.09304E-03
 -1       709 1.26577E-03
 -1       710 1.22140E-03
 -1       711 1.47166E-03
 -1       712 2.08535E-03
 -1       713 3.28492E-01
 -1       714 3.07325E+00
 -1       715 1.05458E+01
 -1       716 4.31686E+00
 -1       717 1.32894E+01
 -1       718 3.50115E+00
 -1       719 1.19731E+01
 -1       720 8.00985E-01
 -1       721 6.17396E-01
 -1       722 4.74329E-01
 -1       723 3.18846E+00
 -1       724 9.47600E+00
 -1       725 3.75987E-01
 -1       726 1.60575E+01
 -1       727 4.55893E+00
 -1       728 3.84818E-01
 -1       729 1.08111E+01
 -1       730 1.49913E+01
 -1       731 4.78229E+00
 -1       732 7.14036E+00
 -1       733 1.13158E+01
 -1       734 3.45161E+00
 -1       735 8.18988E+00
 -1       736 5.82940E+00
 -1       737 4.58151E+00
 -1       738 5.16141E-01
 -1       739 2.77849E-01
 -1       740 1.12024E+01
 -1       741 1.16257E+01
 -1       742 5.59453E+00
 -1       743 3.38499E+00
 -1       744 2.66878E-03
 -1       745 5.68843E+00
 -1       746 1.17538E+01
 -1       747 5.83945E+00
 -1       748 2.67318E-03
 -1       749 1.22683E+01
 -1       750 5.34320E+00
 -1       751 1.92745E-03
 -1       752 3.35458E-01
 -1       753 5.39645E+00
 -1       754 7.01356E-01
 -1       755 3.92451E-01
 -1       756 3.62018E-01
 -1       757 4.02912E-01
 -1       758 4.85759E-01
 -1       759 6.38588E-01
 -1       760 8.31712E-01
 -1       761 1.05288E+00
 -1       762 1.32772E+00
 -1       763 1.78384E+00
 -1       764 2.04257E+00
 -1       765 2.85786E+00
 -1       766 3.86401E+00
 -1       767 1.99386E+00
 -1       768 2.94358E+00
 -1       769 2.01433E+00
 -1       770 1.63012E+00
 -1       771 1.25844E+00
 -1       772 1.04661E+00
 -1       773 8.44112E-01
 -1       774 6.78731E-01
 -1       775 5.39149E-01
 -1       776 4.21370E-01
 -1       777 3.37743E-01
 -1       778 2.63860E-01
 -1       779 2.00856E-01
 -1       780 1.49013E-01
 -1       781 1.07591E-01
 -1       782 7.66765E-02
 -1       783 5.33743E-02
 -1       784 3.66026E-02
 -1       785 2.46836E-02
 -1       786 1.60935E-02
 -1       787 1.00728E-02
 -1       788 6.00308E-03
 -1       789 3.95002E-03
 -1       790 3.60096E-03
 -1       791 1.25649E+00
 -1       792 2.70903E+00
 -1       793 4.08124E+00
 -1       794 4.58247E+00
 -1       795 2.66661E+00
 -1       796 2.03517E+00
 -1       797 1.67217E+00
 -1       798 1.33396E+00
 -1       799 1.05203E+00
 -1       800 8.34449E-01
 -1       801 6.52652E-01
 -1       802 5.06176E-01
 -1       803 3.91915E-01
 -1       804 2.96337E-01
 -1       805 2.23483E-01
 -1       806 1.66917E-01
 -1       807 1.22695E-01
 -1       808 8.85432E-02
 -1       809 6.25432E-02
 -1       810 4.30726E-02
 -1       811 2.87683E-02
 -1       812 1.84970E-02
 -1       813 1.13252E-02
 -1       814 6.66023E-03
 -1       815 5.26408E-03
 -1       816 4.42766E-03
 -1       817 3.16787E-03
 -1       818 2.22342E-03
 -1       819 2.22808E-03
 -1       820 3.16339E+00
 -1       821 3.21598E+00
 -1       822 6.59656E+00
 -1       823 1.03956E+01
 -1       824 7.83747E+00
 -1       825 9.52349E-01
 -1       826 6.86136E+00
 -1       827 2.08849E-03
 -1       828 2.08535E-03
 -1       829 3.33031E-01
 -1       830 1.98388E+00
 -1       831 4.11644E-01
 -1       832 7.09887E-01
 -1       833 1.61495E+00
 -1       834 5.46861E-01
 -1       835 8.98988E+00
 -1       836 6.58028E+00
 -1       837 7.95854E+00
 -1       838 1.99647E-01
 -1       839 9.00949E+00
 -1       840 6.80553E+00
 -1       841 4.74329E-01
 -1       842 2.50374E+00
 -1       843 1.33590E-01
 -1       844 8.67430E+00
 -1       845 9.94124E+00
 -1       846 4.48074E-01
 -1       847 6.94223E+00
 -1       848 3.77521E-01
 -1       849 8.52988E+00
 -1       850 3.72928E-01
 -1       851 2.02444E-03
 -1       852 2.93950E-01
 -1       853 2.22808E-03
 -1       854 2.67318E-03
 -1       855 2.43072E-03
 -1       856 5.55480E+00
 -1       857 3.05845E-01
 -1       858 1.01454E+01
 -1       859 4.69026E-01
 -1       860 4.20880E-01
 -1       861 5.07622E-01
 -1       862 6.27527E-01
 -1       863 8.25821E-01
 -1       864 1.10600E+00
 -1       865 1.54860E+00
 -1       866 2.14094E+00
 -1       867 3.92008E+00
 -1       868 3.82345E+00
 -1       869 2.75639E+00
 -1       870 1.84480E+00
 -1       871 1.38782E+00
 -1       872 1.01224E+00
 -1       873 8.01354E-01
 -1       874 6.43271E-01
 -1       875 5.25708E-01
 -1       876 4.20513E-01
 -1       877 3.30040E-01
 -1       878 2.54330E-01
 -1       879 1.92359E-01
 -1       880 1.42624E-01
 -1       881 1.03457E-01
 -1       882 7.31908E-02
 -1       883 5.07604E-02
 -1       884 3.46439E-02
 -1       885 2.27689E-02
 -1       886 1.42333E-02
 -1       887 8.29049E-03
 -1       888 4.35743E-03
 -1       889 1.77146E-01
 -1       890 7.03451E-01
 -1       891 3.61557E-01
 -1       892 5.47434E+00
 -1       893 4.13939E+00
 -1       894 1.66453E+00
 -1       895 1.26704E+00
 -1       896 1.00211E+00
 -1       897 8.05676E-01
 -1       898 6.36296E-01
 -1       899 4.95006E-01
 -1       900 3.79532E-01
 -1       901 2.86644E-01
 -1       902 2.12985E-01
 -1       903 1.55395E-01
 -1       904 1.11028E-01
 -1       905 7.76449E-02
 -1       906 5.38822E-02
 -1       907 3.62480E-02
 -1       908 2.34262E-02
 -1       909 1.44343E-02
 -1       910 8.43683E-03
 -1       911 5.19841E-03
 -1       912 3.94421E-03
 -1       913 3.31610E-03
 -1       914 4.47308E-03
 -1       915 5.22002E-01
 -1       916 2.37049E+00
 -1       917 1.21788E+00
 -1       918 2.76756E+00
 -1       919 4.47308E-03
 -1       920 9.10497E-01
 -1       921 5.81605E+00
 -1       922 3.39163E+00
 -1       923 2.43072E-03
 -1       924 4.11644E-01
 -1       925 5.16332E+00
 -1       926 3.57841E+00
 -1       927 7.78063E+00
 -1       928 6.66613E+00
 -1       929 5.58235E-01
 -1       930 7.13789E+00
 -1       931 4.97579E-03
 -1       932 2.72500E-01
 -1       933 1.63993E+00
 -1       934 2.73143E-03
 -1       935 6.88568E+00
 -1       936 4.20043E-03
 -1       937 5.12900E+00
 -1       938 3.25964E-01
 -1       939 2.25990E+00
 -1       940 4.97579E-03
 -1       941 5.16332E+00
 -1       942 6.12102E+00
 -1       943 7.13789E+00
 -1       944 2.86310E-01
 -1       945 6.27527E-01
 -1       946 8.25821E-01
 -1       947 1.07512E+00
 -1       948 1.51687E+00
 -1       949 3.49255E+00
 -1       950 5.71102E+00
 -1       951 9.69623E-01
 -1       952 3.33556E+00
 -1       953 1.86785E+00
 -1       954 1.31572E+00
 -1       955 1.01224E+00
 -1       956 8.01354E-01
 -1       957 6.29481E-01
 -1       958 4.91535E-01
 -1       959 3.81100E-01
 -1       960 2.92779E-01
 -1       961 2.22376E-01
 -1       962 1.66609E-01
 -1       963 1.22837E-01
 -1       964 8.88727E-02
 -1       965 6.28784E-02
 -1       966 4.32967E-02
 -1       967 2.94479E-02
 -1       968 1.95282E-02
 -1       969 1.23619E-02
 -1       970 8.25520E-03
 -1       971 5.22002E-01
 -1       972 1.21788E+00
 -1       973 3.63133E-01
 -1       974 5.83550E+00
 -1       975 4.71231E-01
 -1       976 1.26704E+00
 -1       977 2.38561E-01
 -1       978 1.66350E+00
 -1       979 7.43625E-01
 -1       980 5.70858E-01
 -1       981 4.37047E-01
 -1       982 3.32486E-01
 -1       983 2.50529E-01
 -1       984 1.86433E-01
 -1       985 1.36630E-01
 -1       986 9.83071E-02
 -1       987 6.91859E-02
 -1       988 4.75102E-02
 -1       989 3.24356E-02
 -1       990 2.13593E-02
 -1       991 1.34569E-02
 -1       992 8.09663E-03
 -1       993 9.01761E-01
 -1       994 6.13787E+00
 -1       995 4.33158E+00
 -1       996 2.21087E+00
 -1       997 5.22002E-01
 -1       998 6.66613E+00
 -1       999 6.64987E-01
 -1      1000 2.99729E+00
 -1      1001 1.63789E+00
 -1      1002 3.49647E-01
 -1      1003 4.65671E-01
 -1      1004 7.04183E-03
 -1      1005 7.27049E-03
 -1      1006 5.79964E+00
 -1      1007 5.71102E+00
 -1      1008 7.27049E-03
 -1      1009 4.80770E+00
 -1      1010 8.62934E-03
 -1      1011 4.54630E+00
 -1      1012 3.60112E-01
 -1      1013 5.33199E+00
 -1      1014 7.96435E-01
 -1      1015 7.70108E-01
 -1      1016 1.07186E+00
 -1      1017 1.46673E+00
 -1      1018 2.48354E+00
 -1      1019 3.39507E+00
 -1      1020 2.89214E+00
 -1      1021 2.64724E-01
 -1      1022 1.80677E+00
 -1      1023 1.31572E+00
 -1      1024 9.61911E-01
 -1      1025 7.13925E-01
 -1      1026 5.36943E-01
 -1      1027 4.06513E-01
 -1      1028 3.08093E-01
 -1      1029 2.32666E-01
 -1      1030 1.74393E-01
 -1      1031 1.29294E-01
 -1      1032 9.45064E-02
 -1      1033 6.78700E-02
 -1      1034 4.76962E-02
 -1      1035 3.26384E-02
 -1      1036 2.19113E-02
 -1      1037 1.47457E-02
 -1      1038 9.61949E-03
 -1      1039 5.31029E-01
 -1      1040 3.90707E-01
 -1      1041 2.18831E+00
 -1      1042 5.73861E+00
 -1      1043 6.01593E-01
 -1      1044 1.08454E+00
 -1      1045 4.53633E-01
 -1      1046 3.45490E-01
 -1      1047 2.62355E-01
 -1      1048 1.97714E-01
 -1      1049 1.47320E-01
 -1      1050 1.08177E-01
 -1      1051 7.80199E-02
 -1      1052 5.50588E-02
 -1      1053 3.78483E-02
 -1      1054 2.56492E-02
 -1      1055 1.69504E-02
 -1      1056 1.24351E-02
 -1      1057 1.14579E+00
 -1      1058 5.73861E+00
 -1      1059 9.18553E-03
 -1      1060 4.19094E+00
 -1      1061 4.71852E-01
 -1      1062 1.50778E+00
 -1      1063 5.97587E-01
 -1      1064 3.73896E+00
 -1      1065 3.63701E+00
 -1      1066 1.48612E+00
 -1      1067 3.97960E-01
 -1      1068 4.80770E+00
 -1      1069 7.64650E-01
 -1      1070 4.59427E+00
 -1      1071 9.17709E-03
 -1      1072 5.34697E-01
 -1      1073 3.78163E+00
 -1      1074 3.36584E+00
 -1      1075 9.22737E-01
 -1      1076 1.26173E+00
 -1      1077 1.76328E+00
 -1      1078 2.70290E+00
 -1      1079 2.33558E+00
 -1      1080 1.50135E+00
 -1      1081 9.63416E-01
 -1      1082 6.73935E-01
 -1      1083 5.16211E-01
 -1      1084 4.02741E-01
 -1      1085 3.14536E-01
 -1      1086 2.44623E-01
 -1      1087 1.88703E-01
 -1      1088 1.43929E-01
 -1      1089 1.08249E-01
 -1      1090 8.00616E-02
 -1      1091 5.80417E-02
 -1      1092 4.10494E-02
 -1      1093 2.79164E-02
 -1      1094 1.88664E-02
 -1      1095 2.31925E-01
 -1      1096 2.33558E+00
 -1      1097 8.08990E-01
 -1      1098 2.98435E-01
 -1      1099 5.44576E-01
 -1      1100 3.81379E-01
 -1      1101 1.78314E-01
 -1      1102 1.35234E-01
 -1      1103 1.00905E-01
 -1      1104 7.38576E-02
 -1      1105 5.27477E-02
 -1      1106 3.61361E-02
 -1      1107 2.07216E-02
 -1      1108 1.08135E+00
 -1      1109 2.24305E+00
 -1      1110 3.16402E+00
 -1      1111 6.01593E-01
 -1      1112 9.30257E-03
 -1      1113 1.14579E+00
 -1      1114 1.46222E-02
 -1      1115 1.46222E-02
 -1      1116 2.95277E+00
 -1      1117 4.86574E-01
 -1      1118 1.14579E+00
 -1      1119 6.23962E-01
 -1      1120 1.53583E+00
 -1      1121 2.07216E-02
 -1      1122 1.01397E+00
 -1      1123 1.21239E+00
 -1      1124 1.28789E+01
 -1      1125 8.20933E+00
 -1      1126 2.67616E+00
 -1      1127 1.56572E+00
 -1      1128 1.18699E+00
 -1      1129 9.65288E-01
 -1      1130 8.10612E-01
 -1      1131 6.98950E-01
 -1      1132 6.51596E-01
 -1      1133 6.98112E-01
 -1      1134 8.07635E-01
 -1      1135 9.64203E-01
 -1      1136 1.19565E+00
 -1      1137 1.57764E+00
 -1      1138 2.60071E+00
 -1      1139 5.86396E+00
 -1      1140 1.10609E+01
 -1      1141 1.28789E+01
 -1      1142 8.56315E+00
 -1      1143 3.70731E+00
 -1      1144 2.53684E+00
 -1      1145 1.65317E+00
 -1      1146 1.22267E+00
 -1      1147 9.04483E-01
 -1      1148 7.42844E-01
 -1      1149 7.39872E-01
 -1      1150 8.69174E-01
 -1      1151 1.04396E+00
 -1      1152 1.10716E+00
 -1      1153 1.11116E+00
 -1      1154 1.11516E+00
 -1      1155 1.30566E+00
 -1      1156 1.94661E+00
 -1      1157 2.87342E+00
 -1      1158 3.41560E+00
 -1      1159 3.51482E+00
 -1      1160 3.54824E+00
 -1      1161 3.23135E+00
 -1      1162 2.31375E+00
 -1      1163 1.52699E+00
 -1      1164 1.24624E+00
 -1      1165 1.15154E+00
 -1      1166 1.13769E+00
 -1      1167 1.10871E+00
 -1      1168 1.02354E+00
 -1      1169 8.62441E-01
 -1      1170 6.94334E-01
 -1      1171 5.47961E-01
 -1      1172 4.46465E-01
 -1      1173 3.79000E-01
 -1      1174 3.09555E-01
 -1      1175 2.44722E-01
 -1      1176 1.87868E-01
 -1      1177 1.40204E-01
 -1      1178 1.07129E-01
 -1      1179 8.72578E-02
 -1      1180 7.12900E-02
 -1      1181 5.67702E-02
 -1      1182 4.40233E-02
 -1      1183 3.30977E-02
 -1      1184 2.48023E-02
 -1      1185 1.92798E-02
 -1      1186 1.47732E-02
 -1      1187 1.02487E-02
 -1      1188 6.88685E-03
 -1      1189 4.89548E-03
 -1      1190 2.41054E-03
 -1      1191 1.37730E+01
 -1      1192 8.58218E+00
 -1      1193 2.87468E+00
 -1      1194 1.97374E+00
 -1      1195 1.47293E+00
 -1      1196 1.26379E+00
 -1      1197 1.09206E+00
 -1      1198 9.54121E-01
 -1      1199 8.96775E-01
 -1      1200 8.98206E-01
 -1      1201 9.95034E-01
 -1      1202 1.19375E+00
 -1      1203 1.36534E+00
 -1      1204 1.57597E+00
 -1      1205 1.75021E+00
 -1      1206 2.01092E+00
 -1      1207 2.78521E+00
 -1      1208 3.64014E+00
 -1      1209 4.23138E+00
 -1      1210 4.51457E+00
 -1      1211 4.15478E+00
 -1      1212 2.99118E+00
 -1      1213 1.80640E+00
 -1      1214 1.39950E+00
 -1      1215 1.46683E+00
 -1      1216 1.56008E+00
 -1      1217 1.52583E+00
 -1      1218 1.39375E+00
 -1      1219 1.19261E+00
 -1      1220 9.88585E-01
 -1      1221 7.91012E-01
 -1      1222 6.08783E-01
 -1      1223 4.52748E-01
 -1      1224 3.40173E-01
 -1      1225 2.62626E-01
 -1      1226 1.97816E-01
 -1      1227 1.45398E-01
 -1      1228 1.04111E-01
 -1      1229 7.23235E-02
 -1      1230 5.25900E-02
 -1      1231 4.23520E-02
 -1      1232 3.42384E-02
 -1      1233 2.69079E-02
 -1      1234 2.14378E-02
 -1      1235 1.80124E-02
 -1      1236 1.49182E-02
 -1      1237 1.13234E-02
 -1      1238 7.61256E-03
 -1      1239 4.84521E-03
 -1      1240 2.33026E-03
 -1      1241 1.29949E-03
 -1      1242 1.53906E-03
 -1      1243 8.39231E-04
 -1      1244 5.09427E-04
 -1      1245 6.49991E-04
 -1      1246 6.99094E-04
 -1      1247 6.96007E-04
 -1      1248 6.73760E-04
 -1      1249 6.51051E-04
 -1      1250 6.60571E-04
 -1      1251 6.76690E-04
 -1      1252 6.79740E-04
 -1      1253 6.31851E-04
 -1      1254 5.49778E-04
 -1      1255 1.08159E-03
 -1      1256 2.15383E-03
 -1      1257 1.73745E-03
 -1      1258 2.66538E+01
 -1      1259 3.68536E+01
 -1      1260 4.70534E+01
 -1      1261 3.36242E+01
 -1      1262 1.62666E+01
 -1      1263 1.25285E+01
 -1      1264 1.27189E+01
 -1      1265 1.26009E+01
 -1      1266 1.24829E+01
 -1      1267 1.41096E+01
 -1      1268 2.93448E+01
 -1      1269 4.29531E+01
 -1      1270 3.45005E+01
 -1      1271 2.60479E+01
 -1      1272 2.54936E+01
 -1      1273 2.78199E+01
 -1      1274 3.07004E+01
 -1      1275 2.78101E+01
 -1      1276 1.84174E+01
 -1      1277 1.19207E+01
 -1      1278 1.19266E+01
 -1      1279 1.19599E+01
 -1      1280 1.19933E+01
 -1      1281 1.18053E+01
 -1      1282 1.72023E+01
 -1      1283 3.55892E+01
 -1      1284 4.83912E+01
 -1      1285 3.64092E+01
 -1      1286 2.55405E+01
 -1      1287 1.28789E+01
 -1      1288 4.70198E+00
 -1      1289 9.37157E+00
 -1      1290 2.05551E+00
 -1      1291 2.91908E+00
 -1      1292 4.08132E+00
 -1      1293 1.43514E+00
 -1      1294 1.68200E+00
 -1      1295 1.92492E+00
 -1      1296 1.12006E+00
 -1      1297 1.25193E+00
 -1      1298 1.36820E+00
 -1      1299 9.20707E-01
 -1      1300 1.01054E+00
 -1      1301 1.07548E+00
 -1      1302 7.80446E-01
 -1      1303 8.45288E-01
 -1      1304 8.90541E-01
 -1      1305 6.78740E-01
 -1      1306 7.25560E-01
 -1      1307 7.60235E-01
 -1      1308 6.40312E-01
 -1      1309 6.40845E-01
 -1      1310 6.67455E-01
 -1      1311 7.24850E-01
 -1      1312 6.77801E-01
 -1      1313 6.67050E-01
 -1      1314 8.41237E-01
 -1      1315 7.78763E-01
 -1      1316 7.58452E-01
 -1      1317 1.01421E+00
 -1      1318 9.20115E-01
 -1      1319 8.91242E-01
 -1      1320 1.26532E+00
 -1      1321 1.12796E+00
 -1      1322 1.08387E+00
 -1      1323 1.69591E+00
 -1      1324 1.45128E+00
 -1      1325 1.38359E+00
 -1      1326 2.83270E+00
 -1      1327 2.05426E+00
 -1      1328 1.92790E+00
 -1      1329 6.07761E+00
 -1      1330 3.59280E+00
 -1      1331 3.04634E+00
 -1      1332 1.37730E+01
 -1      1333 1.10609E+01
 -1      1334 8.78970E+00
 -1      1335 1.37730E+01
 -1      1336 8.56315E+00
 -1      1337 4.24738E+00
 -1      1338 3.70731E+00
 -1      1339 3.16724E+00
 -1      1340 3.70731E+00
 -1      1341 2.53684E+00
 -1      1342 1.90644E+00
 -1      1343 2.53684E+00
 -1      1344 1.65317E+00
 -1      1345 1.39990E+00
 -1      1346 1.65317E+00
 -1      1347 1.22267E+00
 -1      1348 1.04544E+00
 -1      1349 1.22267E+00
 -1      1350 9.04483E-01
 -1      1351 7.63528E-01
 -1      1352 9.04483E-01
 -1      1353 7.39794E-01
 -1      1354 7.19110E-01
 -1      1355 7.39794E-01
 -1      1356 7.22159E-01
 -1      1357 7.39872E-01
 -1      1358 7.19110E-01
 -1      1359 7.57586E-01
 -1      1360 8.69174E-01
 -1      1361 7.39872E-01
 -1      1362 9.80763E-01
 -1      1363 1.04396E+00
 -1      1364 8.69174E-01
 -1      1365 1.10716E+00
 -1      1366 1.10716E+00
 -1      1367 1.04396E+00
 -1      1368 1.08263E+00
 -1      1369 1.08664E+00
 -1      1370 1.08263E+00
 -1      1371 1.11516E+00
 -1      1372 1.11516E+00
 -1      1373 1.08664E+00
 -1      1374 1.09799E+00
 -1      1375 1.28849E+00
 -1      1376 1.09799E+00
 -1      1377 1.49664E+00
 -1      1378 1.94708E+00
 -1      1379 1.28897E+00
 -1      1380 2.39705E+00
 -1      1381 2.87342E+00
 -1      1382 1.94708E+00
 -1      1383 3.34980E+00
 -1      1384 3.41560E+00
 -1      1385 2.87342E+00
 -1      1386 3.48141E+00
 -1      1387 3.51482E+00
 -1      1388 3.41560E+00
 -1      1389 3.54824E+00
 -1      1390 3.54824E+00
 -1      1391 3.51482E+00
 -1      1392 3.23135E+00
 -1      1393 2.91447E+00
 -1      1394 3.23135E+00
 -1      1395 2.39342E+00
 -1      1396 1.79270E+00
 -1      1397 2.39342E+00
 -1      1398 1.52699E+00
 -1      1399 1.34093E+00
 -1      1400 1.60665E+00
 -1      1401 1.23985E+00
 -1      1402 1.14515E+00
 -1      1403 1.23985E+00
 -1      1404 1.15154E+00
 -1      1405 1.15154E+00
 -1      1406 1.14515E+00
 -1      1407 1.13769E+00
 -1      1408 1.12383E+00
 -1      1409 1.13769E+00
 -1      1410 1.10871E+00
 -1      1411 1.09358E+00
 -1      1412 1.10871E+00
 -1      1413 1.02354E+00
 -1      1414 9.53498E-01
 -1      1415 1.02354E+00
 -1      1416 8.70662E-01
 -1      1417 7.79605E-01
 -1      1418 8.70662E-01
 -1      1419 7.20800E-01
 -1      1420 6.43750E-01
 -1      1421 7.29021E-01
 -1      1422 5.93905E-01
 -1      1423 5.24583E-01
 -1      1424 6.20371E-01
 -1      1425 4.70222E-01
 -1      1426 4.38047E-01
 -1      1427 5.16166E-01
 -1      1428 3.86156E-01
 -1      1429 3.50866E-01
 -1      1430 4.09914E-01
 -1      1431 3.09555E-01
 -1      1432 2.75399E-01
 -1      1433 3.16711E-01
 -1      1434 2.45002E-01
 -1      1435 2.14325E-01
 -1      1436 2.45002E-01
 -1      1437 1.90992E-01
 -1      1438 1.64816E-01
 -1      1439 1.91272E-01
 -1      1440 1.44866E-01
 -1      1441 1.23379E-01
 -1      1442 1.47990E-01
 -1      1443 1.07129E-01
 -1      1444 9.55420E-02
 -1      1445 1.11791E-01
 -1      1446 8.72578E-02
 -1      1447 7.89737E-02
 -1      1448 8.72578E-02
 -1      1449 7.12900E-02
 -1      1450 6.36062E-02
 -1      1451 7.12900E-02
 -1      1452 5.67702E-02
 -1      1453 4.99342E-02
 -1      1454 5.67702E-02
 -1      1455 4.40233E-02
 -1      1456 3.81125E-02
 -1      1457 4.40233E-02
 -1      1458 3.31055E-02
 -1      1459 2.80907E-02
 -1      1460 3.31055E-02
 -1      1461 2.48023E-02
 -1      1462 2.15216E-02
 -1      1463 2.48101E-02
 -1      1464 1.92798E-02
 -1      1465 1.70379E-02
 -1      1466 1.92798E-02
 -1      1467 1.47732E-02
 -1      1468 1.25085E-02
 -1      1469 1.47732E-02
 -1      1470 1.04318E-02
 -1      1471 8.17203E-03
 -1      1472 1.04318E-02
 -1      1473 6.88685E-03
 -1      1474 5.78470E-03
 -1      1475 7.06988E-03
 -1      1476 4.89548E-03
 -1      1477 4.00627E-03
 -1      1478 4.89548E-03
 -1      1479 3.33317E-03
 -1      1480 3.33317E-03
 -1      1481 3.39139E+00
 -1      1482 8.58218E+00
 -1      1483 8.58218E+00
 -1      1484 2.35796E+00
 -1      1485 2.87468E+00
 -1      1486 2.87468E+00
 -1      1487 1.58952E+00
 -1      1488 1.97374E+00
 -1      1489 1.97374E+00
 -1      1490 1.35635E+00
 -1      1491 1.47293E+00
 -1      1492 1.47293E+00
 -1      1493 1.17123E+00
 -1      1494 1.26379E+00
 -1      1495 1.26379E+00
 -1      1496 1.01290E+00
 -1      1497 1.09206E+00
 -1      1498 1.09206E+00
 -1      1499 8.73595E-01
 -1      1500 9.32371E-01
 -1      1501 9.32371E-01
 -1      1502 8.96775E-01
 -1      1503 8.95344E-01
 -1      1504 8.73595E-01
 -1      1505 8.98206E-01
 -1      1506 8.98206E-01
 -1      1507 8.96775E-01
 -1      1508 9.90970E-01
 -1      1509 8.94141E-01
 -1      1510 8.94141E-01
 -1      1511 1.19375E+00
 -1      1512 1.09186E+00
 -1      1513 9.90970E-01
 -1      1514 1.36534E+00
 -1      1515 1.29563E+00
 -1      1516 1.19375E+00
 -1      1517 1.57597E+00
 -1      1518 1.43506E+00
 -1      1519 1.36534E+00
 -1      1520 1.75021E+00
 -1      1521 1.71689E+00
 -1      1522 1.57597E+00
 -1      1523 2.01092E+00
 -1      1524 1.78352E+00
 -1      1525 1.75021E+00
 -1      1526 2.79855E+00
 -1      1527 2.25166E+00
 -1      1528 2.02426E+00
 -1      1529 3.64014E+00
 -1      1530 3.33210E+00
 -1      1531 2.79855E+00
 -1      1532 4.23138E+00
 -1      1533 3.94819E+00
 -1      1534 3.64014E+00
 -1      1535 4.51457E+00
 -1      1536 4.51457E+00
 -1      1537 4.23138E+00
 -1      1538 3.79499E+00
 -1      1539 4.15478E+00
 -1      1540 4.15478E+00
 -1      1541 2.18737E+00
 -1      1542 2.99118E+00
 -1      1543 2.99118E+00
 -1      1544 1.42543E+00
 -1      1545 1.80640E+00
 -1      1546 1.80640E+00
 -1      1547 1.32289E+00
 -1      1548 1.34882E+00
 -1      1549 1.34882E+00
 -1      1550 1.46683E+00
 -1      1551 1.37357E+00
 -1      1552 1.32289E+00
 -1      1553 1.56008E+00
 -1      1554 1.56008E+00
 -1      1555 1.46683E+00
 -1      1556 1.49159E+00
 -1      1557 1.52583E+00
 -1      1558 1.52583E+00
 -1      1559 1.29591E+00
 -1      1560 1.39375E+00
 -1      1561 1.39375E+00
 -1      1562 1.08931E+00
 -1      1563 1.19261E+00
 -1      1564 1.19261E+00
 -1      1565 8.94074E-01
 -1      1566 9.94800E-01
 -1      1567 9.94800E-01
 -1      1568 7.09208E-01
 -1      1569 8.06056E-01
 -1      1570 8.12271E-01
 -1      1571 5.42435E-01
 -1      1572 6.27816E-01
 -1      1573 6.42860E-01
 -1      1574 4.01597E-01
 -1      1575 4.72250E-01
 -1      1576 4.91283E-01
 -1      1577 3.02242E-01
 -1      1578 3.44164E-01
 -1      1579 3.63665E-01
 -1      1580 2.27001E-01
 -1      1581 2.62626E-01
 -1      1582 2.66617E-01
 -1      1583 1.68631E-01
 -1      1584 1.97816E-01
 -1      1585 1.97816E-01
 -1      1586 1.22734E-01
 -1      1587 1.45967E-01
 -1      1588 1.45967E-01
 -1      1589 8.76346E-02
 -1      1590 1.05689E-01
 -1      1591 1.06258E-01
 -1      1592 6.06929E-02
 -1      1593 7.44253E-02
 -1      1594 7.60041E-02
 -1      1595 4.65888E-02
 -1      1596 5.25900E-02
 -1      1597 5.46918E-02
 -1      1598 3.81152E-02
 -1      1599 4.23520E-02
 -1      1600 4.23520E-02
 -1      1601 3.03616E-02
 -1      1602 3.42384E-02
 -1      1603 3.42384E-02
 -1      1604 2.34541E-02
 -1      1605 2.69079E-02
 -1      1606 2.69079E-02
 -1      1607 1.94214E-02
 -1      1608 2.14378E-02
 -1      1609 2.14378E-02
 -1      1610 1.66034E-02
 -1      1611 1.80124E-02
 -1      1612 1.80124E-02
 -1      1613 1.32330E-02
 -1      1614 1.49182E-02
 -1      1615 1.49182E-02
 -1      1616 9.41385E-03
 -1      1617 1.13234E-02
 -1      1618 1.13234E-02
 -1      1619 5.81127E-03
 -1      1620 7.61256E-03
 -1      1621 7.61256E-03
 -1      1622 3.87915E-03
 -1      1623 4.84521E-03
 -1      1624 4.84521E-03
 -1      1625 2.84838E-03
 -1      1626 1.27698E-03
 -1      1627 1.55554E-03
 -1      1628 6.78480E-04
 -1      1629 1.09974E-03
 -1      1630 1.11623E-03
 -1      1631 8.11867E-04
 -1      1632 7.20407E-04
 -1      1633 9.80920E-04
 -1      1634 9.45578E-04
 -1      1635 8.96475E-04
 -1      1636 1.10745E-03
 -1      1637 9.45578E-04
 -1      1638 9.45578E-04
 -1      1639 1.19206E-03
 -1      1640 9.41609E-04
 -1      1641 9.44696E-04
 -1      1642 1.19118E-03
 -1      1643 9.05062E-04
 -1      1644 9.24223E-04
 -1      1645 1.17291E-03
 -1      1646 8.67082E-04
 -1      1647 8.70630E-04
 -1      1648 1.12109E-03
 -1      1649 9.02329E-04
 -1      1650 8.89260E-04
 -1      1651 1.10884E-03
 -1      1652 9.18621E-04
 -1      1653 9.15571E-04
 -1      1654 1.14426E-03
 -1      1655 9.21703E-04
 -1      1656 9.21703E-04
 -1      1657 1.16058E-03
 -1      1658 8.73814E-04
 -1      1659 9.21703E-04
 -1      1660 1.16367E-03
 -1      1661 7.41904E-04
 -1      1662 7.76087E-04
 -1      1663 1.06594E-03
 -1      1664 1.26136E-03
 -1      1665 6.95366E-04
 -1      1666 9.21675E-04
 -1      1667 2.54981E-03
 -1      1668 2.04357E-03
 -1      1669 1.65735E-03
 -1      1670 3.22291E-03
 -1      1671 2.82450E+01
 -1      1672 2.82450E+01
 -1      1673 3.78752E+01
 -1      1674 2.76754E+01
 -1      1675 4.70534E+01
 -1      1676 4.70534E+01
 -1      1677 2.08630E+01
 -1      1678 3.42922E+01
 -1      1679 1.19177E+01
 -1      1680 1.58461E+01
 -1      1681 1.25285E+01
 -1      1682 1.23382E+01
 -1      1683 1.27189E+01
 -1      1684 1.27189E+01
 -1      1685 1.21547E+01
 -1      1686 1.22727E+01
 -1      1687 1.24829E+01
 -1      1688 1.24829E+01
 -1      1689 1.39274E+01
 -1      1690 1.23007E+01
 -1      1691 2.98883E+01
 -1      1692 1.62799E+01
 -1      1693 4.29531E+01
 -1      1694 4.29531E+01
 -1      1695 3.19253E+01
 -1      1696 4.03779E+01
 -1      1697 2.85860E+01
 -1      1698 2.85860E+01
 -1      1699 2.80317E+01
 -1      1700 2.85860E+01
 -1      1701 3.19196E+01
 -1      1702 2.90390E+01
 -1      1703 3.19196E+01
 -1      1704 3.19196E+01
 -1      1705 2.64846E+01
 -1      1706 2.93749E+01
 -1      1707 1.19148E+01
 -1      1708 1.84174E+01
 -1      1709 1.19019E+01
 -1      1710 1.18961E+01
 -1      1711 1.19266E+01
 -1      1712 1.19266E+01
 -1      1713 1.19182E+01
 -1      1714 1.18849E+01
 -1      1715 1.19933E+01
 -1      1716 1.19933E+01
 -1      1717 1.15685E+01
 -1      1718 1.17565E+01
 -1      1719 1.72023E+01
 -1      1720 1.16173E+01
 -1      1721 3.62864E+01
 -1      1722 2.34844E+01
 -1      1723 4.83912E+01
 -1      1724 4.83912E+01
 -1      1725 2.73956E+01
 -1      1726 3.93776E+01
 -1      1727 2.82450E+01
 -1      1728 2.71317E+01
 -1      1729 1.65140E+01
 -1      1730 3.42922E+01
 -1      1731 2.84838E-03
 -1      1732 2.58630E-03
 -1      1733 2.92666E+01
 -1      1734 3.78752E+01
 -1      1735 2.98362E+01
 -1      1736 1.19177E+01
 -1      1737 1.25285E+01
 -1      1738 1.22727E+01
 -1      1739 1.21547E+01
 -1      1740 1.23007E+01
 -1      1741 1.44710E+01
 -1      1742 2.98883E+01
 -1      1743 4.03779E+01
 -1      1744 3.44633E+01
 -1      1745 3.11241E+01
 -1      1746 3.21314E+01
 -1      1747 3.31387E+01
 -1      1748 3.05940E+01
 -1      1749 1.99821E+01
 -1      1750 1.18961E+01
 -1      1751 1.19019E+01
 -1      1752 1.18849E+01
 -1      1753 1.19182E+01
 -1      1754 1.17565E+01
 -1      1755 1.15685E+01
 -1      1756 1.78995E+01
 -1      1757 3.62864E+01
 -1      1758 3.93776E+01
 -1      1759 3.01001E+01
 -1      1760 9.37157E+00
 -1      1761 1.31697E+00
 -1      1762 1.69048E+00
 -1      1763 2.34277E+00
 -1      1764 4.12567E+00
 -1      1765 1.73482E+00
 -1      1766 8.91925E-01
 -1      1767 1.00144E+00
 -1      1768 7.52999E-01
 -1      1769 8.28419E-01
 -1      1770 7.54384E-01
 -1      1771 6.50605E-01
 -1      1772 7.05491E-01
 -1      1773 6.43369E-01
 -1      1774 5.74097E-01
 -1      1775 6.11991E-01
 -1      1776 5.57246E-01
 -1      1777 6.11631E-01
 -1      1778 5.74142E-01
 -1      1779 5.18678E-01
 -1      1780 7.03222E-01
 -1      1781 6.49310E-01
 -1      1782 5.56401E-01
 -1      1783 8.32865E-01
 -1      1784 7.53987E-01
 -1      1785 6.44845E-01
 -1      1786 1.00894E+00
 -1      1787 8.95190E-01
 -1      1788 7.57935E-01
 -1      1789 1.27278E+00
 -1      1790 1.08682E+00
 -1      1791 8.98133E-01
 -1      1792 1.73907E+00
 -1      1793 1.38072E+00
 -1      1794 1.08395E+00
 -1      1795 2.56416E+00
 -1      1796 1.80407E+00
 -1      1797 1.25688E+00
 -1      1798 7.90231E+00
 -1      1799 2.91904E+00
 -1      1800 1.67677E+00
 -1      1801 2.71152E+00
 -1      1802 5.05580E+00
 -1      1803 2.02402E+00
 -1      1804 2.54073E+00
 -1      1805 1.86087E+00
 -1      1806 3.31725E+00
 -1      1807 2.35026E+00
 -1      1808 1.71985E+00
 -1      1809 1.45683E+00
 -1      1810 1.20357E+00
 -1      1811 1.27025E+00
 -1      1812 1.06007E+00
 -1      1813 8.82840E-01
 -1      1814 8.63734E-01
 -1      1815 8.02419E-01
 -1      1816 6.61463E-01
 -1      1817 6.39820E-01
 -1      1818 6.25611E-01
 -1      1819 6.01878E-01
 -1      1820 5.23546E-01
 -1      1821 6.22474E-01
 -1      1822 6.25523E-01
 -1      1823 5.08291E-01
 -1      1824 6.29283E-01
 -1      1825 6.46996E-01
 -1      1826 5.32647E-01
 -1      1827 7.19839E-01
 -1      1828 8.31428E-01
 -1      1829 6.09250E-01
 -1      1830 8.72400E-01
 -1      1831 9.35599E-01
 -1      1832 7.23065E-01
 -1      1833 9.12018E-01
 -1      1834 8.87493E-01
 -1      1835 7.40457E-01
 -1      1836 8.46653E-01
 -1      1837 8.75178E-01
 -1      1838 6.76036E-01
 -1      1839 8.89987E-01
 -1      1840 8.72818E-01
 -1      1841 6.50005E-01
 -1      1842 1.07624E+00
 -1      1843 1.28438E+00
 -1      1844 8.68234E-01
 -1      1845 1.52536E+00
 -1      1846 1.97533E+00
 -1      1847 1.31263E+00
 -1      1848 2.20635E+00
 -1      1849 2.68272E+00
 -1      1850 1.78463E+00
 -1      1851 2.77358E+00
 -1      1852 2.83939E+00
 -1      1853 2.10651E+00
 -1      1854 2.81689E+00
 -1      1855 2.85030E+00
 -1      1856 2.17487E+00
 -1      1857 2.85828E+00
 -1      1858 2.54139E+00
 -1      1859 2.16034E+00
 -1      1860 2.32611E+00
 -1      1861 1.80506E+00
 -1      1862 1.95304E+00
 -1      1863 1.59068E+00
 -1      1864 1.32496E+00
 -1      1865 1.52337E+00
 -1      1866 1.04753E+00
 -1      1867 9.46452E-01
 -1      1868 1.03156E+00
 -1      1869 8.87487E-01
 -1      1870 8.93873E-01
 -1      1871 6.95172E-01
 -1      1872 9.16226E-01
 -1      1873 9.02374E-01
 -1      1874 6.58560E-01
 -1      1875 9.78912E-01
 -1      1876 9.63784E-01
 -1      1877 7.57451E-01
 -1      1878 9.69158E-01
 -1      1879 8.99116E-01
 -1      1880 8.39362E-01
 -1      1881 8.61952E-01
 -1      1882 7.79116E-01
 -1      1883 8.07571E-01
 -1      1884 7.37320E-01
 -1      1885 6.78515E-01
 -1      1886 7.28610E-01
 -1      1887 6.40700E-01
 -1      1888 5.90855E-01
 -1      1889 6.48999E-01
 -1      1890 5.45783E-01
 -1      1891 4.91421E-01
 -1      1892 5.66111E-01
 -1      1893 4.43537E-01
 -1      1894 3.91646E-01
 -1      1895 4.73154E-01
 -1      1896 3.46257E-01
 -1      1897 3.04945E-01
 -1      1898 3.79880E-01
 -1      1899 2.64903E-01
 -1      1900 2.34506E-01
 -1      1901 2.94449E-01
 -1      1902 2.00946E-01
 -1      1903 1.77613E-01
 -1      1904 2.20847E-01
 -1      1905 1.50593E-01
 -1      1906 1.30644E-01
 -1      1907 1.60267E-01
 -1      1908 1.11584E-01
 -1      1909 9.53342E-02
 -1      1910 1.14186E-01
 -1      1911 8.21465E-02
 -1      1912 7.38623E-02
 -1      1913 8.19387E-02
 -1      1914 6.44021E-02
 -1      1915 5.67183E-02
 -1      1916 5.92907E-02
 -1      1917 5.12228E-02
 -1      1918 4.43868E-02
 -1      1919 4.43349E-02
 -1      1920 4.08123E-02
 -1      1921 3.49014E-02
 -1      1922 3.52649E-02
 -1      1923 3.15516E-02
 -1      1924 2.65446E-02
 -1      1925 2.83405E-02
 -1      1926 2.35064E-02
 -1      1927 2.02179E-02
 -1      1928 2.19525E-02
 -1      1929 1.75232E-02
 -1      1930 1.52813E-02
 -1      1931 1.62195E-02
 -1      1932 1.38178E-02
 -1      1933 1.15531E-02
 -1      1934 1.20612E-02
 -1      1935 1.01340E-02
 -1      1936 8.05732E-03
 -1      1937 9.17866E-03
 -1      1938 6.77457E-03
 -1      1939 5.48939E-03
 -1      1940 6.47682E-03
 -1      1941 4.46823E-03
 -1      1942 3.57901E-03
 -1      1943 2.79565E-03
 -1      1944 4.17291E-03
 -1      1945 1.31072E+00
 -1      1946 1.69494E+00
 -1      1947 1.36100E+00
 -1      1948 1.03979E+00
 -1      1949 1.15638E+00
 -1      1950 8.77578E-01
 -1      1951 9.36633E-01
 -1      1952 1.02919E+00
 -1      1953 7.12634E-01
 -1      1954 8.32116E-01
 -1      1955 9.11281E-01
 -1      1956 6.76687E-01
 -1      1957 7.53402E-01
 -1      1958 8.33928E-01
 -1      1959 6.53147E-01
 -1      1960 8.32530E-01
 -1      1961 8.10781E-01
 -1      1962 7.12337E-01
 -1      1963 9.12575E-01
 -1      1964 9.11145E-01
 -1      1965 8.48331E-01
 -1      1966 9.61883E-01
 -1      1967 9.65947E-01
 -1      1968 9.80317E-01
 -1      1969 1.06278E+00
 -1      1970 9.61883E-01
 -1      1971 1.03369E+00
 -1      1972 1.14408E+00
 -1      1973 1.04219E+00
 -1      1974 1.01311E+00
 -1      1975 1.11650E+00
 -1      1976 1.04679E+00
 -1      1977 8.95233E-01
 -1      1978 1.29491E+00
 -1      1979 1.15399E+00
 -1      1980 8.35434E-01
 -1      1981 1.66917E+00
 -1      1982 1.63585E+00
 -1      1983 1.21387E+00
 -1      1984 2.20378E+00
 -1      1985 1.96304E+00
 -1      1986 1.84869E+00
 -1      1987 2.84431E+00
 -1      1988 2.31077E+00
 -1      1989 2.24954E+00
 -1      1990 3.11240E+00
 -1      1991 2.80435E+00
 -1      1992 2.31657E+00
 -1      1993 3.49596E+00
 -1      1994 3.21277E+00
 -1      1995 2.37698E+00
 -1      1996 3.10198E+00
 -1      1997 3.46177E+00
 -1      1998 2.44317E+00
 -1      1999 1.90481E+00
 -1      2000 2.70862E+00
 -1      2001 2.01562E+00
 -1      2002 1.17494E+00
 -1      2003 1.55591E+00
 -1      2004 1.27336E+00
 -1      2005 1.04538E+00
 -1      2006 1.12199E+00
 -1      2007 8.71508E-01
 -1      2008 1.22654E+00
 -1      2009 1.17586E+00
 -1      2010 9.49030E-01
 -1      2011 1.34628E+00
 -1      2012 1.25303E+00
 -1      2013 1.10600E+00
 -1      2014 1.32114E+00
 -1      2015 1.35538E+00
 -1      2016 1.14159E+00
 -1      2017 1.18094E+00
 -1      2018 1.27878E+00
 -1      2019 1.10833E+00
 -1      2020 1.02226E+00
 -1      2021 1.12556E+00
 -1      2022 1.01059E+00
 -1      2023 8.62392E-01
 -1      2024 9.56902E-01
 -1      2025 8.89855E-01
 -1      2026 7.01289E-01
 -1      2027 7.89308E-01
 -1      2028 7.51410E-01
 -1      2029 5.49290E-01
 -1      2030 6.30682E-01
 -1      2031 6.07719E-01
 -1      2032 4.16376E-01
 -1      2033 4.86561E-01
 -1      2034 4.74383E-01
 -1      2035 3.06232E-01
 -1      2036 3.63665E-01
 -1      2037 3.58943E-01
 -1      2038 2.24165E-01
 -1      2039 2.63781E-01
 -1      2040 2.63781E-01
 -1      2041 1.67494E-01
 -1      2042 1.96680E-01
 -1      2043 1.93843E-01
 -1      2044 1.23303E-01
 -1      2045 1.45967E-01
 -1      2046 1.44831E-01
 -1      2047 8.92134E-02
 -1      2048 1.06258E-01
 -1      2049 1.06258E-01
 -1      2050 6.27947E-02
 -1      2051 7.60041E-02
 -1      2052 7.60041E-02
 -1      2053 4.46547E-02
 -1      2054 5.27577E-02
 -1      2055 5.27577E-02
 -1      2056 3.32331E-02
 -1      2057 3.74699E-02
 -1      2058 3.55358E-02
 -1      2059 2.71390E-02
 -1      2060 3.10158E-02
 -1      2061 2.61337E-02
 -1      2062 2.14147E-02
 -1      2063 2.48684E-02
 -1      2064 2.16458E-02
 -1      2065 1.72077E-02
 -1      2066 1.92241E-02
 -1      2067 1.71846E-02
 -1      2068 1.37675E-02
 -1      2069 1.51765E-02
 -1      2070 1.29628E-02
 -1      2071 1.09200E-02
 -1      2072 1.26052E-02
 -1      2073 9.76930E-03
 -1      2074 8.01125E-03
 -1      2075 9.92082E-03
 -1      2076 7.60782E-03
 -1      2077 5.32606E-03
 -1      2078 7.12735E-03
 -1      2079 5.72475E-03
 -1      2080 3.54331E-03
 -1      2081 4.50938E-03
 -1      2082 4.02416E-03
 -1      2083 2.25047E-03
 -1      2084 1.39144E-03
 -1      2085 1.30683E-03
 -1      2086 1.53101E-03
 -1      2087 1.48908E-03
 -1      2088 1.81499E-03
 -1      2089 1.75038E-03
 -1      2090 1.92761E-03
 -1      2091 2.88462E-03
 -1      2092 2.30047E-03
 -1      2093 1.39144E-03
 -1      2094 1.39144E-03
 -1      2095 1.59082E-03
 -1      2096 1.34487E-03
 -1      2097 1.34576E-03
 -1      2098 1.54513E-03
 -1      2099 1.26478E-03
 -1      2100 1.28217E-03
 -1      2101 1.43675E-03
 -1      2102 1.16553E-03
 -1      2103 1.19996E-03
 -1      2104 1.30922E-03
 -1      2105 1.17312E-03
 -1      2106 1.15094E-03
 -1      2107 1.22981E-03
 -1      2108 1.24320E-03
 -1      2109 1.22995E-03
 -1      2110 1.27205E-03
 -1      2111 1.31233E-03
 -1      2112 1.30925E-03
 -1      2113 1.39495E-03
 -1      2114 1.38869E-03
 -1      2115 1.38869E-03
 -1      2116 1.53735E-03
 -1      2117 1.29096E-03
 -1      2118 1.38869E-03
 -1      2119 1.61370E-03
 -1      2120 1.80047E-03
 -1      2121 1.84701E-03
 -1      2122 2.16975E-03
 -1      2123 3.78752E+01
 -1      2124 2.86971E+01
 -1      2125 2.98362E+01
 -1      2126 2.98362E+01
 -1      2127 2.58123E+01
 -1      2128 2.63818E+01
 -1      2129 2.58123E+01
 -1      2130 1.90085E+01
 -1      2131 3.17697E+01
 -1      2132 1.05194E+01
 -1      2133 1.55363E+01
 -1      2134 1.07311E+00
 -1      2135 1.25632E+00
 -1      2136 1.02188E+00
 -1      2137 8.89560E-01
 -1      2138 1.11171E+01
 -1      2139 1.09268E+01
 -1      2140 1.16395E+01
 -1      2141 1.20857E+01
 -1      2142 1.16681E+01
 -1      2143 1.13399E+01
 -1      2144 1.11528E+01
 -1      2145 1.03359E+01
 -1      2146 1.05181E+01
 -1      2147 1.25654E+01
 -1      2148 1.02129E+01
 -1      2149 2.85768E+01
 -1      2150 1.55120E+01
 -1      2151 3.14864E+01
 -1      2152 3.40616E+01
 -1      2153 2.98418E+01
 -1      2154 3.31811E+01
 -1      2155 2.68648E+01
 -1      2156 3.12076E+01
 -1      2157 3.12076E+01
 -1      2158 3.22150E+01
 -1      2159 3.12076E+01
 -1      2160 3.31387E+01
 -1      2161 3.31387E+01
 -1      2162 2.34791E+01
 -1      2163 2.60238E+01
 -1      2164 1.14554E+01
 -1      2165 1.95226E+01
 -1      2166 9.94040E+00
 -1      2167 9.95917E+00
 -1      2168 1.14286E+01
 -1      2169 1.14040E+01
 -1      2170 1.15208E+01
 -1      2171 1.15625E+01
 -1      2172 1.10645E+01
 -1      2173 1.10044E+01
 -1      2174 1.09293E+01
 -1      2175 1.05354E+01
 -1      2176 1.07722E+01
 -1      2177 9.32806E+00
 -1      2178 9.27925E+00
 -1      2179 1.73127E+01
 -1      2180 1.10305E+01
 -1      2181 3.30287E+01
 -1      2182 2.09240E+01
 -1      2183 3.03640E+01
 -1      2184 3.93776E+01
 -1      2185 2.86622E+01
 -1      2186 2.89261E+01
 -1      2187 2.86622E+01
 -1      2188 9.80016E+00
 -1      2189 9.37967E+00
 -1      2190 8.40191E+00
 -1      2191 2.77718E+00
 -1      2192 8.38878E+00
 -1      2193 1.96019E+00
 -1      2194 2.94654E+01
 -1      2195 2.94654E+01
 -1      2196 2.60111E+01
 -1      2197 2.25915E+01
 -1      2198 2.58268E-03
 -1      2199 1.30138E+01
 -1      2200 2.89261E+01
 -1      2201 2.40152E+01
 -1      2202 1.40550E+01
 -1      2203 8.74126E+00
 -1      2204 8.29498E+00
 -1      2205 1.06070E+01
 -1      2206 9.46706E+00
 -1      2207 9.49972E+00
 -1      2208 1.49524E+01
 -1      2209 2.60238E+01
 -1      2210 3.22150E+01
 -1      2211 2.99254E+01
 -1      2212 1.96853E+01
 -1      2213 1.12539E+01
 -1      2214 9.70331E+00
 -1      2215 1.04839E+01
 -1      2216 8.43035E+00
 -1      2217 3.12912E+01
 -1      2218 9.78328E+00
 -1      2219 9.27384E-01
 -1      2220 1.25646E+00
 -1      2221 5.40589E-01
 -1      2222 5.88097E-01
 -1      2223 6.16813E-01
 -1      2224 6.80320E-01
 -1      2225 5.14034E-01
 -1      2226 4.36624E-01
 -1      2227 4.36579E-01
 -1      2228 5.02680E-01
 -1      2229 4.65002E-01
 -1      2230 3.82903E-01
 -1      2231 5.87683E-01
 -1      2232 5.36918E-01
 -1      2233 4.45518E-01
 -1      2234 6.80408E-01
 -1      2235 6.18083E-01
 -1      2236 5.10156E-01
 -1      2237 7.72395E-01
 -1      2238 6.94522E-01
 -1      2239 5.54670E-01
 -1      2240 9.83012E-01
 -1      2241 8.75073E-01
 -1      2242 6.71462E-01
 -1      2243 6.54778E-01
 -1      2244 8.09125E-01
 -1      2245 7.04584E-01
 -1      2246 1.08004E+00
 -1      2247 8.17017E-01
 -1      2248 7.21258E+00
 -1      2249 6.08597E+00
 -1      2250 6.99964E-01
 -1      2251 5.56472E-01
 -1      2252 5.09755E-01
 -1      2253 4.94707E-01
 -1      2254 4.14286E-01
 -1      2255 3.30937E-01
 -1      2256 4.20894E-01
 -1      2257 3.85042E-01
 -1      2258 2.75781E-01
 -1      2259 4.42376E-01
 -1      2260 4.62972E-01
 -1      2261 3.39723E-01
 -1      2262 5.16141E-01
 -1      2263 5.19900E-01
 -1      2264 4.50225E-01
 -1      2265 5.71012E-01
 -1      2266 6.43854E-01
 -1      2267 5.54505E-01
 -1      2268 7.03217E-01
 -1      2269 7.44190E-01
 -1      2270 6.64979E-01
 -1      2271 7.86815E-01
 -1      2272 7.63234E-01
 -1      2273 7.66966E-01
 -1      2274 7.86372E-01
 -1      2275 7.45532E-01
 -1      2276 8.32730E-01
 -1      2277 8.69012E-01
 -1      2278 8.83820E-01
 -1      2279 9.79348E-01
 -1      2280 9.39512E-01
 -1      2281 1.14293E+00
 -1      2282 1.15852E+00
 -1      2283 1.29313E+00
 -1      2284 1.53411E+00
 -1      2285 1.36441E+00
 -1      2286 1.58443E+00
 -1      2287 1.81545E+00
 -1      2288 1.56493E+00
 -1      2289 2.07006E+00
 -1      2290 2.16092E+00
 -1      2291 1.86986E+00
 -1      2292 2.23349E+00
 -1      2293 2.21099E+00
 -1      2294 2.19705E+00
 -1      2295 2.26341E+00
 -1      2296 2.27138E+00
 -1      2297 2.32204E+00
 -1      2298 2.00501E+00
 -1      2299 1.78974E+00
 -1      2300 2.10808E+00
 -1      2301 1.65612E+00
 -1      2302 1.44173E+00
 -1      2303 1.70809E+00
 -1      2304 1.26968E+00
 -1      2305 9.92257E-01
 -1      2306 1.40243E+00
 -1      2307 9.68232E-01
 -1      2308 9.09267E-01
 -1      2309 1.20635E+00
 -1      2310 8.11121E-01
 -1      2311 8.33474E-01
 -1      2312 1.08418E+00
 -1      2313 8.06467E-01
 -1      2314 8.83006E-01
 -1      2315 9.59029E-01
 -1      2316 8.64472E-01
 -1      2317 8.69845E-01
 -1      2318 9.13489E-01
 -1      2319 8.26488E-01
 -1      2320 7.89324E-01
 -1      2321 8.51598E-01
 -1      2322 7.45720E-01
 -1      2323 7.03925E-01
 -1      2324 7.64638E-01
 -1      2325 6.68928E-01
 -1      2326 6.31112E-01
 -1      2327 6.86038E-01
 -1      2328 5.87539E-01
 -1      2329 5.42466E-01
 -1      2330 6.07467E-01
 -1      2331 4.95390E-01
 -1      2332 4.47506E-01
 -1      2333 5.16818E-01
 -1      2334 4.02010E-01
 -1      2335 3.56621E-01
 -1      2336 4.24246E-01
 -1      2337 3.15610E-01
 -1      2338 2.75568E-01
 -1      2339 3.37740E-01
 -1      2340 2.40373E-01
 -1      2341 2.06813E-01
 -1      2342 2.61534E-01
 -1      2343 1.77727E-01
 -1      2344 1.50707E-01
 -1      2345 1.97253E-01
 -1      2346 1.27407E-01
 -1      2347 1.08347E-01
 -1      2348 1.44867E-01
 -1      2349 9.01892E-02
 -1      2350 7.70015E-02
 -1      2351 1.03409E-01
 -1      2352 6.32158E-02
 -1      2353 5.37555E-02
 -1      2354 7.14662E-02
 -1      2355 4.35627E-02
 -1      2356 3.80672E-02
 -1      2357 4.74878E-02
 -1      2358 3.18300E-02
 -1      2359 2.82555E-02
 -1      2360 3.10578E-02
 -1      2361 2.47996E-02
 -1      2362 2.14498E-02
 -1      2363 2.13648E-02
 -1      2364 2.00398E-02
 -1      2365 1.70016E-02
 -1      2366 1.64989E-02
 -1      2367 1.54777E-02
 -1      2368 1.27829E-02
 -1      2369 1.35650E-02
 -1      2370 1.12679E-02
 -1      2371 9.80435E-03
 -1      2372 1.05260E-02
 -1      2373 8.38648E-03
 -1      2374 6.96740E-03
 -1      2375 7.59309E-03
 -1      2376 6.11704E-03
 -1      2377 4.83429E-03
 -1      2378 5.32487E-03
 -1      2379 2.42116E+01
 -1      2380 2.13268E+01
 -1      2381 5.15031E-01
 -1      2382 5.40383E-01
 -1      2383 5.79462E-01
 -1      2384 5.77650E-01
 -1      2385 4.41346E-01
 -1      2386 7.27207E-01
 -1      2387 6.69828E-01
 -1      2388 5.94331E-01
 -1      2389 8.83609E-01
 -1      2390 8.04994E-01
 -1      2391 7.62485E-01
 -1      2392 9.95316E-01
 -1      2393 9.41944E-01
 -1      2394 8.98608E-01
 -1      2395 1.07404E+00
 -1      2396 1.07404E+00
 -1      2397 1.03567E+00
 -1      2398 1.11430E+00
 -1      2399 1.13488E+00
 -1      2400 1.17523E+00
 -1      2401 1.02352E+00
 -1      2402 1.12081E+00
 -1      2403 1.24259E+00
 -1      2404 1.20174E+00
 -1      2405 1.16425E+00
 -1      2406 1.38983E+00
 -1      2407 1.61412E+00
 -1      2408 1.27318E+00
 -1      2409 1.60199E+00
 -1      2410 1.99519E+00
 -1      2411 1.70131E+00
 -1      2412 1.76062E+00
 -1      2413 2.35856E+00
 -1      2414 2.25158E+00
 -1      2415 2.10420E+00
 -1      2416 2.82554E+00
 -1      2417 2.86551E+00
 -1      2418 2.86754E+00
 -1      2419 2.83288E+00
 -1      2420 2.73250E+00
 -1      2421 3.28144E+00
 -1      2422 2.35961E+00
 -1      2423 2.39380E+00
 -1      2424 2.74932E+00
 -1      2425 1.80792E+00
 -1      2426 2.20128E+00
 -1      2427 2.15191E+00
 -1      2428 1.33289E+00
 -1      2429 1.68179E+00
 -1      2430 1.86744E+00
 -1      2431 1.12842E+00
 -1      2432 1.18137E+00
 -1      2433 1.58980E+00
 -1      2434 1.20751E+00
 -1      2435 1.07703E+00
 -1      2436 1.38690E+00
 -1      2437 1.22821E+00
 -1      2438 1.20172E+00
 -1      2439 1.32972E+00
 -1      2440 1.18243E+00
 -1      2441 1.17334E+00
 -1      2442 1.26906E+00
 -1      2443 1.07377E+00
 -1      2444 1.11613E+00
 -1      2445 1.14788E+00
 -1      2446 9.72930E-01
 -1      2447 1.02831E+00
 -1      2448 1.03611E+00
 -1      2449 8.45906E-01
 -1      2450 9.11266E-01
 -1      2451 9.28981E-01
 -1      2452 7.02065E-01
 -1      2453 7.75150E-01
 -1      2454 7.96561E-01
 -1      2455 5.61579E-01
 -1      2456 6.32186E-01
 -1      2457 6.55926E-01
 -1      2458 4.35476E-01
 -1      2459 4.98206E-01
 -1      2460 5.22673E-01
 -1      2461 3.28416E-01
 -1      2462 3.81126E-01
 -1      2463 4.04949E-01
 -1      2464 2.41191E-01
 -1      2465 2.83643E-01
 -1      2466 3.05826E-01
 -1      2467 1.77960E-01
 -1      2468 2.05446E-01
 -1      2469 2.25308E-01
 -1      2470 1.28637E-01
 -1      2471 1.50164E-01
 -1      2472 1.61766E-01
 -1      2473 9.04855E-02
 -1      2474 1.07530E-01
 -1      2475 1.12864E-01
 -1      2476 6.16195E-02
 -1      2477 7.48288E-02
 -1      2478 7.61008E-02
 -1      2479 4.19765E-02
 -1      2480 5.20135E-02
 -1      2481 5.08382E-02
 -1      2482 2.88351E-02
 -1      2483 3.60199E-02
 -1      2484 3.52757E-02
 -1      2485 2.39164E-02
 -1      2486 2.61337E-02
 -1      2487 2.66178E-02
 -1      2488 1.93752E-02
 -1      2489 2.16458E-02
 -1      2490 2.16458E-02
 -1      2491 1.49941E-02
 -1      2492 1.71846E-02
 -1      2493 1.71846E-02
 -1      2494 1.09316E-02
 -1      2495 1.29628E-02
 -1      2496 1.29628E-02
 -1      2497 8.28665E-03
 -1      2498 9.44897E-03
 -1      2499 9.44897E-03
 -1      2500 6.23631E-03
 -1      2501 7.23548E-03
 -1      2502 6.91514E-03
 -1      2503 4.38249E-03
 -1      2504 5.26639E-03
 -1      2505 4.89405E-03
 -1      2506 3.70131E-03
 -1      2507 1.60795E-03
 -1      2508 1.65364E-03
 -1      2509 1.41595E-03
 -1      2510 1.47865E-03
 -1      2511 1.58716E-03
 -1      2512 2.48311E-03
 -1      2513 2.70728E-03
 -1      2514 1.91107E-03
 -1      2515 1.91107E-03
 -1      2516 2.80336E-03
 -1      2517 1.97389E-03
 -1      2518 1.24440E-03
 -1      2519 1.30922E-03
 -1      2520 1.35113E-03
 -1      2521 1.17706E-03
 -1      2522 1.19166E-03
 -1      2523 1.19166E-03
 -1      2524 1.27205E-03
 -1      2525 1.21521E-03
 -1      2526 1.17706E-03
 -1      2527 1.42894E-03
 -1      2528 1.36288E-03
 -1      2529 1.30604E-03
 -1      2530 1.68860E-03
 -1      2531 1.61225E-03
 -1      2532 1.58018E-03
 -1      2533 1.78237E-03
 -1      2534 1.78237E-03
 -1      2535 1.85727E-03
 -1      2536 2.44156E-03
 -1      2537 1.88551E-03
 -1      2538 2.05417E-03
 -1      2539 2.93877E-03
 -1      2540 9.35206E+00
 -1      2541 1.28242E+01
 -1      2542 5.70830E-01
 -1      2543 5.81426E-01
 -1      2544 4.09175E-01
 -1      2545 1.49222E+01
 -1      2546 2.10277E+01
 -1      2547 2.50172E+01
 -1      2548 2.64551E+01
 -1      2549 2.86622E+01
 -1      2550 2.74882E+01
 -1      2551 2.50172E+01
 -1      2552 7.60975E+00
 -1      2553 6.14619E+00
 -1      2554 1.84296E+01
 -1      2555 1.29447E+01
 -1      2556 4.68784E-01
 -1      2557 5.07398E-01
 -1      2558 4.52126E-01
 -1      2559 3.86731E-01
 -1      2560 9.33280E+00
 -1      2561 8.36428E+00
 -1      2562 5.94733E+00
 -1      2563 6.07039E+00
 -1      2564 9.44237E+00
 -1      2565 9.74197E+00
 -1      2566 3.12912E+01
 -1      2567 3.12912E+01
 -1      2568 7.49136E+00
 -1      2569 8.64128E+00
 -1      2570 1.10316E+01
 -1      2571 8.08502E+00
 -1      2572 2.25682E+01
 -1      2573 2.08735E+01
 -1      2574 8.48229E+00
 -1      2575 8.71444E+00
 -1      2576 2.99254E+01
 -1      2577 2.85595E+01
 -1      2578 2.87112E+01
 -1      2579 2.77875E+01
 -1      2580 1.64012E+01
 -1      2581 2.35161E+01
 -1      2582 1.90886E+01
 -1      2583 1.16948E+01
 -1      2584 1.56513E+01
 -1      2585 7.01037E+00
 -1      2586 8.50659E+00
 -1      2587 5.15306E+00
 -1      2588 9.26234E+00
 -1      2589 9.12842E+00
 -1      2590 9.38345E+00
 -1      2591 9.97497E+00
 -1      2592 8.03884E+00
 -1      2593 8.08246E+00
 -1      2594 5.79504E+00
 -1      2595 7.05119E+00
 -1      2596 7.72420E+00
 -1      2597 6.02177E+00
 -1      2598 1.37304E+01
 -1      2599 1.01191E+01
 -1      2600 7.39958E+00
 -1      2601 2.21894E+01
 -1      2602 1.58406E+01
 -1      2603 1.63323E+00
 -1      2604 1.20631E+00
 -1      2605 7.53078E-01
 -1      2606 9.80939E-01
 -1      2607 1.42641E+00
 -1      2608 1.59720E+00
 -1      2609 1.24231E+00
 -1      2610 9.92795E-01
 -1      2611 6.14024E+00
 -1      2612 7.27999E+00
 -1      2613 6.06147E+00
 -1      2614 7.10792E-01
 -1      2615 8.48362E-01
 -1      2616 9.20032E-01
 -1      2617 5.12974E-01
 -1      2618 1.17732E+00
 -1      2619 4.96405E+00
 -1      2620 9.20290E-01
 -1      2621 1.19046E+01
 -1      2622 2.13200E+01
 -1      2623 2.44036E+01
 -1      2624 1.97193E+01
 -1      2625 1.12604E+01
 -1      2626 1.65423E+01
 -1      2627 3.24295E-03
 -1      2628 5.80755E+00
 -1      2629 2.98165E-03
 -1      2630 3.04451E-03
 -1      2631 2.83153E-03
 -1      2632 2.54729E-03
 -1      2633 4.06566E-03
 -1      2634 1.31436E+01
 -1      2635 7.09039E+00
 -1      2636 9.68444E-01
 -1      2637 2.58828E+01
 -1      2638 2.62535E+01
 -1      2639 2.50795E+01
 -1      2640 1.82805E+01
 -1      2641 3.64977E-03
 -1      2642 2.60716E+01
 -1      2643 2.47057E+01
 -1      2644 2.60716E+01
 -1      2645 5.98235E+00
 -1      2646 2.25682E+01
 -1      2647 9.77586E+00
 -1      2648 5.00835E+00
 -1      2649 2.77875E+01
 -1      2650 7.23042E+00
 -1      2651 1.41329E+01
 -1      2652 6.15400E+00
 -1      2653 3.79404E+00
 -1      2654 5.93172E+00
 -1      2655 7.62233E+00
 -1      2656 9.20545E+00
 -1      2657 4.77798E+00
 -1      2658 3.70589E-03
 -1      2659 4.02137E-01
 -1      2660 3.67899E-01
 -1      2661 3.39043E-01
 -1      2662 3.10666E-01
 -1      2663 2.95661E-01
 -1      2664 4.98802E-01
 -1      2665 4.84688E-01
 -1      2666 6.25863E-01
 -1      2667 5.23184E-01
 -1      2668 4.53203E-01
 -1      2669 5.10113E-01
 -1      2670 6.28371E-01
 -1      2671 3.83353E-01
 -1      2672 4.56705E-01
 -1      2673 3.80492E-01
 -1      2674 7.98491E-01
 -1      2675 8.79092E-01
 -1      2676 3.66922E-01
 -1      2677 3.05158E-01
 -1      2678 2.88848E-01
 -1      2679 2.95456E-01
 -1      2680 3.24833E-01
 -1      2681 3.39005E-01
 -1      2682 3.96339E-01
 -1      2683 3.52072E-01
 -1      2684 4.53233E-01
 -1      2685 5.06401E-01
 -1      2686 4.52515E-01
 -1      2687 5.67527E-01
 -1      2688 6.18638E-01
 -1      2689 5.70535E-01
 -1      2690 6.85307E-01
 -1      2691 7.44670E-01
 -1      2692 6.98329E-01
 -1      2693 8.45396E-01
 -1      2694 8.88021E-01
 -1      2695 8.65724E-01
 -1      2696 9.91773E-01
 -1      2697 1.01491E+00
 -1      2698 1.07020E+00
 -1      2699 1.08749E+00
 -1      2700 1.21097E+00
 -1      2701 1.24653E+00
 -1      2702 1.40046E+00
 -1      2703 1.45615E+00
 -1      2704 1.50860E+00
 -1      2705 1.72213E+00
 -1      2706 1.87233E+00
 -1      2707 1.96407E+00
 -1      2708 1.57613E+00
 -1      2709 1.62645E+00
 -1      2710 1.93385E+00
 -1      2711 2.50012E+00
 -1      2712 2.75473E+00
 -1      2713 2.51132E+00
 -1      2714 2.62616E+00
 -1      2715 2.69873E+00
 -1      2716 3.25642E+00
 -1      2717 3.26097E+00
 -1      2718 3.31338E+00
 -1      2719 3.69008E+00
 -1      2720 3.46669E+00
 -1      2721 3.20032E+00
 -1      2722 4.40562E+00
 -1      2723 2.64666E+00
 -1      2724 2.51304E+00
 -1      2725 4.00527E+00
 -1      2726 1.58126E+00
 -1      2727 1.40922E+00
 -1      2728 2.51983E+00
 -1      2729 1.60148E+00
 -1      2730 1.57745E+00
 -1      2731 1.78031E+00
 -1      2732 1.34748E+00
 -1      2733 1.24934E+00
 -1      2734 1.74260E+00
 -1      2735 1.16145E+00
 -1      2736 1.13444E+00
 -1      2737 1.42475E+00
 -1      2738 1.05008E+00
 -1      2739 1.03155E+00
 -1      2740 1.25250E+00
 -1      2741 9.35251E-01
 -1      2742 8.91894E-01
 -1      2743 1.07184E+00
 -1      2744 8.17728E-01
 -1      2745 7.74125E-01
 -1      2746 9.01380E-01
 -1      2747 7.21705E-01
 -1      2748 6.86708E-01
 -1      2749 7.74794E-01
 -1      2750 6.30683E-01
 -1      2751 5.87109E-01
 -1      2752 6.66350E-01
 -1      2753 5.33080E-01
 -1      2754 4.86004E-01
 -1      2755 5.56296E-01
 -1      2756 4.36926E-01
 -1      2757 3.91431E-01
 -1      2758 4.53189E-01
 -1      2759 3.48631E-01
 -1      2760 3.07621E-01
 -1      2761 3.61312E-01
 -1      2762 2.71435E-01
 -1      2763 2.36240E-01
 -1      2764 2.82326E-01
 -1      2765 2.06418E-01
 -1      2766 1.77332E-01
 -1      2767 2.16319E-01
 -1      2768 1.53303E-01
 -1      2769 1.30003E-01
 -1      2770 1.62469E-01
 -1      2771 1.11044E-01
 -1      2772 9.28862E-02
 -1      2773 1.19480E-01
 -1      2774 7.82279E-02
 -1      2775 6.44422E-02
 -1      2776 8.58622E-02
 -1      2777 5.33429E-02
 -1      2778 4.31501E-02
 -1      2779 6.01045E-02
 -1      2780 3.49314E-02
 -1      2781 2.86942E-02
 -1      2782 4.07865E-02
 -1      2783 2.27607E-02
 -1      2784 1.93048E-02
 -1      2785 2.66343E-02
 -1      2786 1.51490E-02
 -1      2787 1.37390E-02
 -1      2788 1.65449E-02
 -1      2789 1.15899E-02
 -1      2790 1.00660E-02
 -1      2791 1.02399E-02
 -1      2792 9.57054E-03
 -1      2793 8.05546E-03
 -1      2794 7.59537E-03
 -1      2795 7.35644E-03
 -1      2796 5.93857E-03
 -1      2797 6.40094E-03
 -1      2798 5.17262E-03
 -1      2799 4.32227E-03
 -1      2800 4.93598E-03
 -1      2801 1.18547E+01
 -1      2802 1.26047E+01
 -1      2803 2.93656E-03
 -1      2804 2.54658E-03
 -1      2805 3.70518E-03
 -1      2806 4.78956E-01
 -1      2807 4.16337E-01
 -1      2808 9.71476E-01
 -1      2809 9.13141E-01
 -1      2810 1.13017E+00
 -1      2811 1.05144E+00
 -1      2812 1.06598E+00
 -1      2813 1.34264E+00
 -1      2814 1.28180E+00
 -1      2815 1.29758E+00
 -1      2816 1.51682E+00
 -1      2817 1.51031E+00
 -1      2818 1.61688E+00
 -1      2819 1.81489E+00
 -1      2820 1.67416E+00
 -1      2821 1.94188E+00
 -1      2822 1.91104E+00
 -1      2823 1.83960E+00
 -1      2824 2.12393E+00
 -1      2825 2.06789E+00
 -1      2826 1.98070E+00
 -1      2827 2.21831E+00
 -1      2828 2.36059E+00
 -1      2829 2.10420E+00
 -1      2830 2.32428E+00
 -1      2831 4.89173E+00
 -1      2832 4.38478E+00
 -1      2833 4.38478E+00
 -1      2834 5.15194E+00
 -1      2835 5.24498E+00
 -1      2836 6.76222E+00
 -1      2837 2.74932E+00
 -1      2838 3.18840E+00
 -1      2839 5.15194E+00
 -1      2840 2.59102E+00
 -1      2841 2.74935E+00
 -1      2842 3.18843E+00
 -1      2843 2.36590E+00
 -1      2844 2.49203E+00
 -1      2845 3.08947E+00
 -1      2846 1.77629E+00
 -1      2847 1.92780E+00
 -1      2848 2.55238E+00
 -1      2849 1.75485E+00
 -1      2850 1.80624E+00
 -1      2851 2.14424E+00
 -1      2852 1.58084E+00
 -1      2853 1.58663E+00
 -1      2854 2.00597E+00
 -1      2855 1.36377E+00
 -1      2856 1.41864E+00
 -1      2857 1.67555E+00
 -1      2858 1.16584E+00
 -1      2859 1.23215E+00
 -1      2860 1.38173E+00
 -1      2861 1.04841E+00
 -1      2862 1.09387E+00
 -1      2863 1.17814E+00
 -1      2864 9.04417E-01
 -1      2865 9.66081E-01
 -1      2866 1.02384E+00
 -1      2867 7.52084E-01
 -1      2868 8.22840E-01
 -1      2869 8.59940E-01
 -1      2870 6.07212E-01
 -1      2871 6.77091E-01
 -1      2872 7.03370E-01
 -1      2873 4.78089E-01
 -1      2874 5.41462E-01
 -1      2875 5.62627E-01
 -1      2876 3.68020E-01
 -1      2877 4.22370E-01
 -1      2878 4.41159E-01
 -1      2879 2.77271E-01
 -1      2880 3.22044E-01
 -1      2881 3.39465E-01
 -1      2882 2.04431E-01
 -1      2883 2.40176E-01
 -1      2884 2.56394E-01
 -1      2885 1.47298E-01
 -1      2886 1.75094E-01
 -1      2887 1.89962E-01
 -1      2888 1.03425E-01
 -1      2889 1.24531E-01
 -1      2890 1.37859E-01
 -1      2891 7.04272E-02
 -1      2892 8.60839E-02
 -1      2893 9.77515E-02
 -1      2894 4.78666E-02
 -1      2895 5.74726E-02
 -1      2896 6.74556E-02
 -1      2897 3.24366E-02
 -1      2898 3.83932E-02
 -1      2899 4.50276E-02
 -1      2900 2.29768E-02
 -1      2901 2.56782E-02
 -1      2902 2.87957E-02
 -1      2903 1.67080E-02
 -1      2904 1.89785E-02
 -1      2905 1.80390E-02
 -1      2906 1.31226E-02
 -1      2907 1.53132E-02
 -1      2908 1.26459E-02
 -1      2909 1.01249E-02
 -1      2910 1.21561E-02
 -1      2911 1.02847E-02
 -1      2912 7.56778E-03
 -1      2913 9.05043E-03
 -1      2914 8.24370E-03
 -1      2915 5.46255E-03
 -1      2916 6.51372E-03
 -1      2917 6.11519E-03
 -1      2918 3.90530E-03
 -1      2919 4.87522E-03
 -1      2920 4.47380E-03
 -1      2921 3.63094E-03
 -1      2922 5.49085E+00
 -1      2923 3.97219E+00
 -1      2924 1.13340E-03
 -1      2925 1.18615E-03
 -1      2926 1.45785E-03
 -1      2927 1.58716E-03
 -1      2928 1.15412E-03
 -1      2929 1.11597E-03
 -1      2930 1.11047E-03
 -1      2931 1.25509E-03
 -1      2932 1.36181E-03
 -1      2933 1.36181E-03
 -1      2934 1.19683E-03
 -1      2935 1.30913E-03
 -1      2936 1.21831E-03
 -1      2937 1.15722E-03
 -1      2938 1.61758E-03
 -1      2939 1.43426E-03
 -1      2940 1.34653E-03
 -1      2941 2.01819E-03
 -1      2942 1.92443E-03
 -1      2943 1.77850E-03
 -1      2944 2.44344E-03
 -1      2945 3.53610E-01
 -1      2946 3.84057E-01
 -1      2947 3.27788E-01
 -1      2948 3.91219E-01
 -1      2949 3.68107E+00
 -1      2950 4.54524E+00
 -1      2951 3.36437E+00
 -1      2952 1.19521E+01
 -1      2953 1.51360E+01
 -1      2954 4.66759E+00
 -1      2955 6.73966E+00
 -1      2956 2.03888E+01
 -1      2957 1.79178E+01
 -1      2958 3.54426E+00
 -1      2959 4.96524E+00
 -1      2960 1.72596E+01
 -1      2961 1.29940E+01
 -1      2962 8.20629E-01
 -1      2963 7.42841E-01
 -1      2964 8.93497E-01
 -1      2965 6.51047E-01
 -1      2966 5.60680E-01
 -1      2967 7.09190E-01
 -1      2968 5.50568E-01
 -1      2969 4.33515E-01
 -1      2970 4.07736E-01
 -1      2971 4.04912E+00
 -1      2972 4.10339E+00
 -1      2973 1.17454E+01
 -1      2974 9.63522E+00
 -1      2975 4.58272E-01
 -1      2976 4.27872E-01
 -1      2977 3.50252E-01
 -1      2978 4.02404E-01
 -1      2979 2.01706E+01
 -1      2980 2.36744E+01
 -1      2981 4.55509E+00
 -1      2982 5.98619E+00
 -1      2983 4.35067E-01
 -1      2984 4.63784E-01
 -1      2985 1.36940E+01
 -1      2986 1.12500E+01
 -1      2987 7.57349E+00
 -1      2988 7.16432E+00
 -1      2989 2.17754E+01
 -1      2990 1.57841E+01
 -1      2991 5.39976E+00
 -1      2992 8.58797E+00
 -1      2993 9.41467E+00
 -1      2994 7.50156E+00
 -1      2995 1.26047E+01
 -1      2996 1.77998E+01
 -1      2997 1.36867E+01
 -1      2998 4.22816E+00
 -1      2999 4.00143E+00
 -1      3000 8.67616E+00
 -1      3001 1.07741E+01
 -1      3002 7.81192E+00
 -1      3003 5.41706E+00
 -1      3004 5.89733E+00
 -1      3005 4.74564E+00
 -1      3006 5.29446E-01
 -1      3007 6.97488E-01
 -1      3008 4.50479E-01
 -1      3009 2.72327E-01
 -1      3010 3.16188E-01
 -1      3011 3.48393E-01
 -1      3012 6.04020E-01
 -1      3013 1.69367E+01
 -1      3014 1.93453E+01
 -1      3015 1.22459E+01
 -1      3016 3.55294E-03
 -1      3017 3.75266E+00
 -1      3018 1.84547E+01
 -1      3019 1.56759E+01
 -1      3020 1.56691E+01
 -1      3021 1.10857E+01
 -1      3022 8.99409E+00
 -1      3023 8.45516E+00
 -1      3024 5.18841E+00
 -1      3025 7.65270E+00
 -1      3026 5.35671E-01
 -1      3027 5.35560E+00
 -1      3028 3.52024E+00
 -1      3029 3.02209E-03
 -1      3030 3.27763E-03
 -1      3031 2.45005E-03
 -1      3032 7.42544E+00
 -1      3033 6.93915E+00
 -1      3034 5.00265E+00
 -1      3035 1.63028E+01
 -1      3036 2.01567E+01
 -1      3037 1.33725E+01
 -1      3038 1.13158E+01
 -1      3039 4.00527E+00
 -1      3040 6.62645E+00
 -1      3041 7.29546E+00
 -1      3042 2.80452E-03
 -1      3043 2.31211E-03
 -1      3044 2.37927E-03
 -1      3045 3.42161E-03
 -1      3046 8.97573E+00
 -1      3047 3.92777E+00
 -1      3048 9.36783E+00
 -1      3049 7.22024E+00
 -1      3050 2.06814E+01
 -1      3051 1.74696E+01
 -1      3052 1.59904E+01
 -1      3053 1.29012E+01
 -1      3054 1.26313E+01
 -1      3055 1.07246E+01
 -1      3056 4.55743E-01
 -1      3057 6.60298E+00
 -1      3058 4.67195E+00
 -1      3059 6.24178E+00
 -1      3060 1.82195E-03
 -1      3061 2.07938E-03
 -1      3062 2.29811E-03
 -1      3063 1.69265E-03
 -1      3064 3.77197E-01
 -1      3065 4.10388E-01
 -1      3066 3.60138E-01
 -1      3067 3.06654E-01
 -1      3068 3.88498E+00
 -1      3069 5.19919E+00
 -1      3070 4.64051E+00
 -1      3071 7.07396E+00
 -1      3072 6.36133E+00
 -1      3073 4.39072E+00
 -1      3074 5.61795E+00
 -1      3075 7.90095E-01
 -1      3076 7.90353E-01
 -1      3077 6.64082E-01
 -1      3078 6.08749E-01
 -1      3079 5.87843E-01
 -1      3080 4.35019E-01
 -1      3081 4.10636E-01
 -1      3082 3.51580E-01
 -1      3083 3.35270E-01
 -1      3084 5.84849E+00
 -1      3085 3.55717E-01
 -1      3086 3.99267E-01
 -1      3087 3.82465E-01
 -1      3088 4.40690E-01
 -1      3089 4.97584E-01
 -1      3090 4.44336E-01
 -1      3091 5.73998E-01
 -1      3092 6.35124E-01
 -1      3093 5.62173E-01
 -1      3094 7.31686E-01
 -1      3095 7.98355E-01
 -1      3096 7.35150E-01
 -1      3097 9.08938E-01
 -1      3098 1.00966E+00
 -1      3099 9.42295E-01
 -1      3100 1.14708E+00
 -1      3101 1.25084E+00
 -1      3102 1.19030E+00
 -1      3103 1.47890E+00
 -1      3104 1.55147E+00
 -1      3105 1.55578E+00
 -1      3106 1.68084E+00
 -1      3107 1.87033E+00
 -1      3108 1.91321E+00
 -1      3109 2.27797E+00
 -1      3110 2.54395E+00
 -1      3111 2.45021E+00
 -1      3112 3.04703E+00
 -1      3113 2.75083E+00
 -1      3114 3.36093E+00
 -1      3115 3.38499E+00
 -1      3116 3.25642E+00
 -1      3117 4.26215E+00
 -1      3118 4.82438E+00
 -1      3119 5.04588E+00
 -1      3120 5.19919E+00
 -1      3121 4.55893E+00
 -1      3122 4.00527E+00
 -1      3123 1.79096E+00
 -1      3124 1.98322E+00
 -1      3125 2.45807E+00
 -1      3126 2.22811E+00
 -1      3127 2.46872E+00
 -1      3128 1.76349E+00
 -1      3129 1.67560E+00
 -1      3130 2.47896E+00
 -1      3131 1.48349E+00
 -1      3132 1.39913E+00
 -1      3133 1.82223E+00
 -1      3134 1.21329E+00
 -1      3135 1.11699E+00
 -1      3136 1.44428E+00
 -1      3137 1.01108E+00
 -1      3138 9.36914E-01
 -1      3139 1.15252E+00
 -1      3140 8.35663E-01
 -1      3141 7.83243E-01
 -1      3142 9.45363E-01
 -1      3143 7.00553E-01
 -1      3144 6.44528E-01
 -1      3145 7.61422E-01
 -1      3146 5.74737E-01
 -1      3147 5.20708E-01
 -1      3148 6.08940E-01
 -1      3149 4.61818E-01
 -1      3150 4.12740E-01
 -1      3151 4.80259E-01
 -1      3152 3.70927E-01
 -1      3153 3.28128E-01
 -1      3154 3.79557E-01
 -1      3155 2.91186E-01
 -1      3156 2.55000E-01
 -1      3157 3.00802E-01
 -1      3158 2.23498E-01
 -1      3159 1.93677E-01
 -1      3160 2.32358E-01
 -1      3161 1.67755E-01
 -1      3162 1.43726E-01
 -1      3163 1.74934E-01
 -1      3164 1.23015E-01
 -1      3165 1.04056E-01
 -1      3166 1.28302E-01
 -1      3167 8.85985E-02
 -1      3168 7.39402E-02
 -1      3169 9.21336E-02
 -1      3170 6.22891E-02
 -1      3171 5.11897E-02
 -1      3172 6.50254E-02
 -1      3173 4.28039E-02
 -1      3174 3.45852E-02
 -1      3175 4.49885E-02
 -1      3176 2.86257E-02
 -1      3177 2.26922E-02
 -1      3178 3.06431E-02
 -1      3179 1.83971E-02
 -1      3180 1.42413E-02
 -1      3181 2.03886E-02
 -1      3182 1.12309E-02
 -1      3183 9.08178E-03
 -1      3184 1.30831E-02
 -1      3185 7.04693E-03
 -1      3186 6.55152E-03
 -1      3187 8.03793E-03
 -1      3188 5.52499E-03
 -1      3189 4.82597E-03
 -1      3190 4.97655E-03
 -1      3191 4.65144E-03
 -1      3192 3.88550E-03
 -1      3193 3.13707E-03
 -1      3194 3.77549E-03
 -1      3195 3.52024E+00
 -1      3196 1.20122E+00
 -1      3197 1.12125E+00
 -1      3198 2.40413E+00
 -1      3199 2.24679E+00
 -1      3200 3.11495E+00
 -1      3201 3.09023E+00
 -1      3202 3.39514E+00
 -1      3203 3.81559E+00
 -1      3204 3.74593E+00
 -1      3205 4.95506E+00
 -1      3206 2.93087E+00
 -1      3207 3.65367E+00
 -1      3208 3.75266E+00
 -1      3209 3.37833E+00
 -1      3210 3.34838E+00
 -1      3211 2.25218E+00
 -1      3212 2.42040E+00
 -1      3213 3.62454E+00
 -1      3214 1.77426E+00
 -1      3215 1.93646E+00
 -1      3216 2.35089E+00
 -1      3217 1.46114E+00
 -1      3218 1.59276E+00
 -1      3219 1.85367E+00
 -1      3220 1.22006E+00
 -1      3221 1.29203E+00
 -1      3222 1.50306E+00
 -1      3223 9.96775E-01
 -1      3224 1.07910E+00
 -1      3225 1.19299E+00
 -1      3226 8.06406E-01
 -1      3227 8.87982E-01
 -1      3228 9.43241E-01
 -1      3229 6.40514E-01
 -1      3230 7.15507E-01
 -1      3231 7.43550E-01
 -1      3232 5.01527E-01
 -1      3233 5.67277E-01
 -1      3234 5.79414E-01
 -1      3235 3.88678E-01
 -1      3236 4.44397E-01
 -1      3237 4.49046E-01
 -1      3238 2.94913E-01
 -1      3239 3.40889E-01
 -1      3240 3.44126E-01
 -1      3241 2.21391E-01
 -1      3242 2.58486E-01
 -1      3243 2.59910E-01
 -1      3244 1.63772E-01
 -1      3245 1.93108E-01
 -1      3246 1.95200E-01
 -1      3247 1.18894E-01
 -1      3248 1.41661E-01
 -1      3249 1.44806E-01
 -1      3250 8.44767E-02
 -1      3251 1.01818E-01
 -1      3252 1.05619E-01
 -1      3253 5.85221E-02
 -1      3254 7.14767E-02
 -1      3255 7.55432E-02
 -1      3256 3.93133E-02
 -1      3257 4.87868E-02
 -1      3258 5.28079E-02
 -1      3259 2.54028E-02
 -1      3260 3.21612E-02
 -1      3261 3.59204E-02
 -1      3262 1.62688E-02
 -1      3263 2.02671E-02
 -1      3264 2.36326E-02
 -1      3265 1.12882E-02
 -1      3266 1.26830E-02
 -1      3267 1.49111E-02
 -1      3268 7.98920E-03
 -1      3269 8.95570E-03
 -1      3270 8.99274E-03
 -1      3271 6.21666E-03
 -1      3272 7.29112E-03
 -1      3273 5.96216E-03
 -1      3274 4.74440E-03
 -1      3275 5.79845E-03
 -1      3276 4.84587E-03
 -1      3277 3.52717E-03
 -1      3278 4.11450E-03
 -1      3279 3.79776E-03
 -1      3280 2.91832E-03
 -1      3281 1.72241E-03
 -1      3282 1.65823E-03
 -1      3283 1.66056E-03
 -1      3284 1.67799E-03
 -1      3285 2.22575E-03
 -1      3286 3.37538E+00
 -1      3287 3.33227E+00
 -1      3288 4.52269E+00
 -1      3289 3.33379E+00
 -1      3290 8.70383E+00
 -1      3291 6.86846E+00
 -1      3292 1.32266E+01
 -1      3293 1.56237E+01
 -1      3294 9.57663E+00
 -1      3295 9.57663E+00
 -1      3296 6.41915E+00
 -1      3297 9.69179E-01
 -1      3298 8.76667E-01
 -1      3299 1.10442E+00
 -1      3300 9.41724E+00
 -1      3301 8.16868E+00
 -1      3302 1.78007E-03
 -1      3303 1.65494E-03
 -1      3304 2.15595E-03
 -1      3305 2.08535E-03
 -1      3306 1.77850E-03
 -1      3307 2.08692E-03
 -1      3308 3.83465E-01
 -1      3309 4.05308E-01
 -1      3310 3.62741E-01
 -1      3311 3.30057E-01
 -1      3312 1.88421E+00
 -1      3313 1.71655E+00
 -1      3314 2.34646E+00
 -1      3315 4.42986E-01
 -1      3316 3.76393E-01
 -1      3317 3.86831E-01
 -1      3318 7.55436E-01
 -1      3319 6.63641E-01
 -1      3320 8.31118E-01
 -1      3321 3.45161E+00
 -1      3322 1.53208E+00
 -1      3323 1.38045E+00
 -1      3324 1.43572E+00
 -1      3325 1.79941E+00
 -1      3326 5.82128E-01
 -1      3327 5.00403E-01
 -1      3328 6.28374E-01
 -1      3329 3.46863E+00
 -1      3330 4.32314E+00
 -1      3331 1.11396E+01
 -1      3332 1.04815E+01
 -1      3333 3.58204E+00
 -1      3334 8.02814E+00
 -1      3335 6.20484E+00
 -1      3336 4.89813E+00
 -1      3337 9.63717E+00
 -1      3338 1.20080E+01
 -1      3339 9.17707E+00
 -1      3340 7.89801E+00
 -1      3341 2.62082E-01
 -1      3342 2.33226E-01
 -1      3343 1.20004E+01
 -1      3344 9.91030E+00
 -1      3345 7.80302E+00
 -1      3346 7.49770E+00
 -1      3347 8.67565E+00
 -1      3348 5.87843E-01
 -1      3349 4.74329E-01
 -1      3350 4.95235E-01
 -1      3351 2.94436E+00
 -1      3352 3.07962E+00
 -1      3353 2.78849E+00
 -1      3354 2.07070E+00
 -1      3355 2.76199E+00
 -1      3356 3.33379E+00
 -1      3357 2.72568E+00
 -1      3358 2.00198E-01
 -1      3359 2.05720E-01
 -1      3360 1.66619E-01
 -1      3361 9.93837E+00
 -1      3362 1.09818E+01
 -1      3363 8.83209E+00
 -1      3364 1.63061E+01
 -1      3365 1.05718E+01
 -1      3366 1.11047E+01
 -1      3367 4.97468E-01
 -1      3368 4.51010E-01
 -1      3369 3.88283E-01
 -1      3370 3.88495E+00
 -1      3371 8.74400E+00
 -1      3372 9.28397E+00
 -1      3373 6.87388E+00
 -1      3374 4.72927E+00
 -1      3375 3.81169E-01
 -1      3376 4.46831E-01
 -1      3377 4.25925E-01
 -1      3378 3.18846E+00
 -1      3379 6.72082E+00
 -1      3380 1.17606E+01
 -1      3381 8.76968E+00
 -1      3382 1.01419E+01
 -1      3383 2.40202E+00
 -1      3384 4.71222E+00
 -1      3385 3.50710E-01
 -1      3386 3.50006E-01
 -1      3387 3.52979E-01
 -1      3388 4.10501E-01
 -1      3389 3.88498E+00
 -1      3390 5.13545E+00
 -1      3391 3.90136E+00
 -1      3392 4.33946E+00
 -1      3393 1.64510E-03
 -1      3394 1.74115E-03
 -1      3395 3.14704E-01
 -1      3396 3.39384E-01
 -1      3397 3.35736E-01
 -1      3398 1.67799E-03
 -1      3399 1.74692E-03
 -1      3400 2.12626E-03
 -1      3401 2.22808E-03
 -1      3402 6.24698E+00
 -1      3403 4.25329E+00
 -1      3404 5.96988E+00
 -1      3405 2.67318E-03
 -1      3406 2.37927E-03
 -1      3407 2.37927E-03
 -1      3408 3.13707E-03
 -1      3409 2.22758E-03
 -1      3410 1.94429E-03
 -1      3411 2.17908E-03
 -1      3412 8.43530E+00
 -1      3413 6.69614E+00
 -1      3414 5.57467E+00
 -1      3415 3.15181E-01
 -1      3416 2.52746E-01
 -1      3417 3.40916E-01
 -1      3418 1.49289E+01
 -1      3419 1.12068E+01
 -1      3420 1.08855E+01
 -1      3421 4.48923E-01
 -1      3422 4.22506E-01
 -1      3423 3.87435E-01
 -1      3424 4.30738E-01
 -1      3425 7.92562E+00
 -1      3426 4.42986E-01
 -1      3427 3.18387E+00
 -1      3428 3.91449E-01
 -1      3429 4.11896E-01
 -1      3430 4.55267E-01
 -1      3431 4.96690E-01
 -1      3432 4.64251E-01
 -1      3433 5.56643E-01
 -1      3434 6.33057E-01
 -1      3435 5.67574E-01
 -1      3436 7.32204E-01
 -1      3437 8.28767E-01
 -1      3438 7.26674E-01
 -1      3439 9.68854E-01
 -1      3440 1.07944E+00
 -1      3441 9.65909E-01
 -1      3442 1.30074E+00
 -1      3443 1.43816E+00
 -1      3444 1.32730E+00
 -1      3445 1.73433E+00
 -1      3446 1.96239E+00
 -1      3447 1.84477E+00
 -1      3448 2.85196E+00
 -1      3449 2.98133E+00
 -1      3450 3.03051E+00
 -1      3451 4.22619E+00
 -1      3452 3.38351E+00
 -1      3453 2.91889E+00
 -1      3454 2.38536E+00
 -1      3455 2.19326E+00
 -1      3456 3.28992E+00
 -1      3457 1.73746E+00
 -1      3458 1.55162E+00
 -1      3459 2.30060E+00
 -1      3460 1.32313E+00
 -1      3461 1.21722E+00
 -1      3462 1.61631E+00
 -1      3463 1.02943E+00
 -1      3464 9.28176E-01
 -1      3465 1.20003E+00
 -1      3466 8.22733E-01
 -1      3467 7.40043E-01
 -1      3468 9.06797E-01
 -1      3469 6.61001E-01
 -1      3470 5.91210E-01
 -1      3471 7.22313E-01
 -1      3472 5.32428E-01
 -1      3473 4.73539E-01
 -1      3474 5.84490E-01
 -1      3475 4.20941E-01
 -1      3476 3.79128E-01
 -1      3477 4.73111E-01
 -1      3478 3.33892E-01
 -1      3479 2.96950E-01
 -1      3480 3.75277E-01
 -1      3481 2.59095E-01
 -1      3482 2.27593E-01
 -1      3483 2.92185E-01
 -1      3484 1.96608E-01
 -1      3485 1.70686E-01
 -1      3486 2.23345E-01
 -1      3487 1.45818E-01
 -1      3488 1.25108E-01
 -1      3489 1.67492E-01
 -1      3490 1.05524E-01
 -1      3491 9.00668E-02
 -1      3492 1.23041E-01
 -1      3493 7.49337E-02
 -1      3494 6.32826E-02
 -1      3495 8.83240E-02
 -1      3496 5.20674E-02
 -1      3497 4.36815E-02
 -1      3498 6.19756E-02
 -1      3499 3.56233E-02
 -1      3500 2.96638E-02
 -1      3501 4.27022E-02
 -1      3502 2.37263E-02
 -1      3503 1.94312E-02
 -1      3504 2.87064E-02
 -1      3505 1.51634E-02
 -1      3506 1.21530E-02
 -1      3507 1.85011E-02
 -1      3508 9.18163E-03
 -1      3509 7.14678E-03
 -1      3510 1.12619E-02
 -1      3511 5.18025E-03
 -1      3512 4.15373E-03
 -1      3513 6.32396E-03
 -1      3514 2.27498E-01
 -1      3515 2.56302E-01
 -1      3516 2.35548E-01
 -1      3517 1.55368E-01
 -1      3518 7.06669E-01
 -1      3519 6.25156E-01
 -1      3520 3.86600E-01
 -1      3521 3.61787E-01
 -1      3522 3.91219E-01
 -1      3523 4.77779E+00
 -1      3524 4.09169E+00
 -1      3525 5.50038E+00
 -1      3526 5.35984E+00
 -1      3527 5.69400E+00
 -1      3528 1.49924E+00
 -1      3529 1.66835E+00
 -1      3530 1.15954E+00
 -1      3531 1.30050E+00
 -1      3532 1.46578E+00
 -1      3533 9.18278E-01
 -1      3534 1.02707E+00
 -1      3535 1.13457E+00
 -1      3536 7.29164E-01
 -1      3537 8.20062E-01
 -1      3538 9.03891E-01
 -1      3539 5.71236E-01
 -1      3540 6.44474E-01
 -1      3541 7.20986E-01
 -1      3542 4.43461E-01
 -1      3543 5.00591E-01
 -1      3544 5.65651E-01
 -1      3545 3.37934E-01
 -1      3546 3.85724E-01
 -1      3547 4.37269E-01
 -1      3548 2.55064E-01
 -1      3549 2.91490E-01
 -1      3550 3.33088E-01
 -1      3551 1.89951E-01
 -1      3552 2.18234E-01
 -1      3553 2.49814E-01
 -1      3554 1.39045E-01
 -1      3555 1.61156E-01
 -1      3556 1.84190E-01
 -1      3557 9.97856E-02
 -1      3558 1.16862E-01
 -1      3559 1.33211E-01
 -1      3560 7.00940E-02
 -1      3561 8.30940E-02
 -1      3562 9.43364E-02
 -1      3563 4.84774E-02
 -1      3564 5.82127E-02
 -1      3565 6.57635E-02
 -1      3566 3.25082E-02
 -1      3567 3.96603E-02
 -1      3568 4.50651E-02
 -1      3569 2.09616E-02
 -1      3570 2.60973E-02
 -1      3571 2.98371E-02
 -1      3572 1.28798E-02
 -1      3573 1.64656E-02
 -1      3574 1.89303E-02
 -1      3575 7.54853E-03
 -1      3576 9.88104E-03
 -1      3577 1.14356E-02
 -1      3578 5.23125E-03
 -1      3579 5.92932E-03
 -1      3580 6.81762E-03
 -1      3581 4.18594E-03
 -1      3582 4.60414E-03
 -1      3583 4.57131E-03
 -1      3584 2.70073E-03
 -1      3585 2.70229E-03
 -1      3586 3.34825E-03
 -1      3587 3.35058E-03
 -1      3588 1.10747E+01
 -1      3589 4.28707E+00
 -1      3590 2.60492E+00
 -1      3591 4.27516E-01
 -1      3592 4.57227E-01
 -1      3593 4.47465E-01
 -1      3594 4.76193E+00
 -1      3595 2.02133E+00
 -1      3596 2.20283E+00
 -1      3597 2.01751E+00
 -1      3598 1.23719E+00
 -1      3599 1.08512E+00
 -1      3600 2.40137E+00
 -1      3601 2.71709E+00
 -1      3602 2.56903E+00
 -1      3603 3.28078E-03
 -1      3604 3.34825E-03
 -1      3605 4.47308E-03
 -1      3606 3.89459E-03
 -1      3607 9.31423E-01
 -1      3608 8.10192E-01
 -1      3609 8.06974E-01
 -1      3610 7.40296E+00
 -1      3611 6.33871E+00
 -1      3612 4.97772E+00
 -1      3613 3.05033E+00
 -1      3614 2.68775E+00
 -1      3615 4.43298E+00
 -1      3616 2.17908E-03
 -1      3617 2.54975E-03
 -1      3618 2.79929E-03
 -1      3619 2.43072E-03
 -1      3620 7.24191E+00
 -1      3621 6.03545E+00
 -1      3622 4.42986E-01
 -1      3623 4.11644E-01
 -1      3624 3.86600E-01
 -1      3625 3.94582E-01
 -1      3626 4.01059E+00
 -1      3627 5.37893E+00
 -1      3628 5.35906E+00
 -1      3629 3.60295E+00
 -1      3630 4.08044E+00
 -1      3631 5.19197E+00
 -1      3632 5.26032E+00
 -1      3633 3.12251E+00
 -1      3634 9.08812E+00
 -1      3635 9.76723E+00
 -1      3636 8.93429E+00
 -1      3637 7.67022E+00
 -1      3638 8.30369E+00
 -1      3639 1.00433E+01
 -1      3640 5.52548E-01
 -1      3641 5.03154E-01
 -1      3642 6.30843E-01
 -1      3643 8.76675E+00
 -1      3644 7.45926E+00
 -1      3645 3.60194E-03
 -1      3646 3.50012E-03
 -1      3647 4.54170E+00
 -1      3648 1.06419E+00
 -1      3649 8.15526E+00
 -1      3650 2.36074E-01
 -1      3651 2.03045E-01
 -1      3652 1.62744E+00
 -1      3653 1.44821E+00
 -1      3654 1.42891E+00
 -1      3655 5.33890E+00
 -1      3656 3.34072E-03
 -1      3657 3.16620E-03
 -1      3658 2.70230E-03
 -1      3659 3.54443E-03
 -1      3660 6.91396E+00
 -1      3661 9.25570E+00
 -1      3662 8.51553E+00
 -1      3663 3.42919E-03
 -1      3664 4.33675E-03
 -1      3665 3.21425E-03
 -1      3666 3.21425E-03
 -1      3667 7.06924E+00
 -1      3668 5.30167E+00
 -1      3669 4.26031E+00
 -1      3670 6.82944E+00
 -1      3671 3.09957E-01
 -1      3672 3.51743E-01
 -1      3673 3.68804E-01
 -1      3674 4.95514E-01
 -1      3675 3.17299E+00
 -1      3676 3.18747E-03
 -1      3677 2.82576E+00
 -1      3678 2.12189E+00
 -1      3679 1.93742E+00
 -1      3680 7.54822E+00
 -1      3681 3.50012E-03
 -1      3682 3.70326E-03
 -1      3683 4.97579E-03
 -1      3684 2.40839E-03
 -1      3685 5.35906E+00
 -1      3686 6.50039E+00
 -1      3687 7.55545E+00
 -1      3688 5.96853E+00
 -1      3689 7.39766E+00
 -1      3690 5.20186E+00
 -1      3691 7.48768E+00
 -1      3692 7.54822E+00
 -1      3693 6.15061E+00
 -1      3694 2.96078E-01
 -1      3695 2.42979E-01
 -1      3696 2.79405E-01
 -1      3697 3.02376E-03
 -1      3698 4.58811E-03
 -1      3699 5.67574E-01
 -1      3700 6.27527E-01
 -1      3701 7.26674E-01
 -1      3702 8.25821E-01
 -1      3703 7.26674E-01
 -1      3704 9.50468E-01
 -1      3705 1.09056E+00
 -1      3706 9.50468E-01
 -1      3707 1.31143E+00
 -1      3708 1.53273E+00
 -1      3709 1.29599E+00
 -1      3710 2.52057E+00
 -1      3711 2.81674E+00
 -1      3712 2.50471E+00
 -1      3713 4.64472E+00
 -1      3714 6.32662E+00
 -1      3715 6.29835E+00
 -1      3716 4.23929E+00
 -1      3717 8.87649E-01
 -1      3718 9.85865E-01
 -1      3719 3.83677E-03
 -1      3720 3.04598E+00
 -1      3721 2.59018E+00
 -1      3722 1.85633E+00
 -1      3723 1.62784E+00
 -1      3724 2.60171E+00
 -1      3725 1.35177E+00
 -1      3726 1.16398E+00
 -1      3727 1.59179E+00
 -1      3728 1.01224E+00
 -1      3729 9.06797E-01
 -1      3730 1.16398E+00
 -1      3731 8.01354E-01
 -1      3732 7.22313E-01
 -1      3733 9.06797E-01
 -1      3734 6.36376E-01
 -1      3735 5.77595E-01
 -1      3736 7.15418E-01
 -1      3737 5.08621E-01
 -1      3738 4.56024E-01
 -1      3739 5.60508E-01
 -1      3740 4.00807E-01
 -1      3741 3.55570E-01
 -1      3742 4.36317E-01
 -1      3743 3.11409E-01
 -1      3744 2.73555E-01
 -1      3745 3.36940E-01
 -1      3746 2.38353E-01
 -1      3747 2.07367E-01
 -1      3748 2.57577E-01
 -1      3749 1.79484E-01
 -1      3750 1.54617E-01
 -1      3751 1.94493E-01
 -1      3752 1.32731E-01
 -1      3753 1.13147E-01
 -1      3754 1.44723E-01
 -1      3755 9.61649E-02
 -1      3756 8.10318E-02
 -1      3757 1.05855E-01
 -1      3758 6.80346E-02
 -1      3759 5.68194E-02
 -1      3760 7.58755E-02
 -1      3761 4.70286E-02
 -1      3762 3.89703E-02
 -1      3763 5.30876E-02
 -1      3764 3.20459E-02
 -1      3765 2.61084E-02
 -1      3766 3.63723E-02
 -1      3767 2.11485E-02
 -1      3768 1.68807E-02
 -1      3769 2.44880E-02
 -1      3770 1.32976E-02
 -1      3771 1.03262E-02
 -1      3772 1.59451E-02
 -1      3773 8.27284E-03
 -1      3774 6.30632E-03
 -1      3775 1.03086E-02
 -1      3776 4.85038E-01
 -1      3777 4.47465E-01
 -1      3778 5.22002E-01
 -1      3779 5.40118E-01
 -1      3780 1.21788E+00
 -1      3781 1.06419E+00
 -1      3782 3.62345E-01
 -1      3783 3.92006E-01
 -1      3784 6.48670E+00
 -1      3785 6.80807E+00
 -1      3786 4.46056E-01
 -1      3787 4.89426E-01
 -1      3788 5.49379E-01
 -1      3789 1.13457E+00
 -1      3790 1.26704E+00
 -1      3791 1.11833E+00
 -1      3792 2.55530E-01
 -1      3793 1.86076E-01
 -1      3794 1.46527E+00
 -1      3795 1.66402E+00
 -1      3796 1.46527E+00
 -1      3797 6.89960E-01
 -1      3798 7.74650E-01
 -1      3799 8.56624E-01
 -1      3800 5.32932E-01
 -1      3801 6.03577E-01
 -1      3802 6.57241E-01
 -1      3803 4.08290E-01
 -1      3804 4.66027E-01
 -1      3805 5.03953E-01
 -1      3806 3.09565E-01
 -1      3807 3.56009E-01
 -1      3808 3.84766E-01
 -1      3809 2.31757E-01
 -1      3810 2.68586E-01
 -1      3811 2.91507E-01
 -1      3812 1.70914E-01
 -1      3813 1.99709E-01
 -1      3814 2.18481E-01
 -1      3815 1.23829E-01
 -1      3816 1.46012E-01
 -1      3817 1.61532E-01
 -1      3818 8.79760E-02
 -1      3819 1.04668E-01
 -1      3820 1.17468E-01
 -1      3821 6.15340E-02
 -1      3822 7.34154E-02
 -1      3823 8.37465E-02
 -1      3824 4.18791E-02
 -1      3825 5.06962E-02
 -1      3826 5.83481E-02
 -1      3827 2.79309E-02
 -1      3828 3.43418E-02
 -1      3829 3.99729E-02
 -1      3830 1.78968E-02
 -1      3831 2.23928E-02
 -1      3832 2.68975E-02
 -1      3833 1.09469E-02
 -1      3834 1.39456E-02
 -1      3835 1.74081E-02
 -1      3836 6.64752E-03
 -1      3837 8.26673E-03
 -1      3838 1.07768E-02
 -1      3839 9.06129E-01
 -1      3840 8.02606E-01
 -1      3841 1.05982E+00
 -1      3842 6.95925E+00
 -1      3843 7.33388E+00
 -1      3844 5.63343E+00
 -1      3845 5.98669E+00
 -1      3846 3.35103E+00
 -1      3847 3.54957E+00
 -1      3848 1.93770E+00
 -1      3849 2.29068E+00
 -1      3850 3.27122E+00
 -1      3851 3.18747E-03
 -1      3852 4.95514E-01
 -1      3853 4.13923E-01
 -1      3854 4.04156E-01
 -1      3855 5.16332E+00
 -1      3856 7.13789E+00
 -1      3857 4.54170E+00
 -1      3858 5.22002E-01
 -1      3859 8.40576E+00
 -1      3860 8.30369E+00
 -1      3861 5.78565E-03
 -1      3862 4.46000E-03
 -1      3863 6.84219E-01
 -1      3864 6.11611E-01
 -1      3865 7.83374E-01
 -1      3866 5.22002E-01
 -1      3867 5.02130E+00
 -1      3868 2.56911E+00
 -1      3869 3.45869E+00
 -1      3870 1.94991E+00
 -1      3871 4.28622E+00
 -1      3872 4.57580E+00
 -1      3873 1.63891E+00
 -1      3874 1.42789E+00
 -1      3875 1.42789E+00
 -1      3876 4.81975E+00
 -1      3877 5.08710E-03
 -1      3878 2.07853E-01
 -1      3879 4.17182E-01
 -1      3880 4.08030E+00
 -1      3881 3.17979E-01
 -1      3882 3.11074E-01
 -1      3883 6.66613E+00
 -1      3884 3.69085E-01
 -1      3885 3.52116E-01
 -1      3886 4.07659E-01
 -1      3887 1.93719E+00
 -1      3888 6.53621E-03
 -1      3889 5.62113E-03
 -1      3890 6.00881E-03
 -1      3891 5.87178E-03
 -1      3892 5.73546E-03
 -1      3893 7.15616E-03
 -1      3894 6.23289E+00
 -1      3895 7.23697E+00
 -1      3896 5.96033E+00
 -1      3897 6.29835E+00
 -1      3898 7.92820E+00
 -1      3899 6.18858E+00
 -1      3900 5.87178E-03
 -1      3901 5.87178E-03
 -1      3902 7.27049E-03
 -1      3903 4.96835E+00
 -1      3904 4.09967E+00
 -1      3905 3.53380E+00
 -1      3906 6.80256E-03
 -1      3907 6.80256E-03
 -1      3908 8.36298E-03
 -1      3909 7.83558E-03
 -1      3910 6.36414E-03
 -1      3911 3.77179E+00
 -1      3912 4.85481E+00
 -1      3913 5.84210E+00
 -1      3914 3.24492E+00
 -1      3915 3.85878E-01
 -1      3916 3.60835E-01
 -1      3917 3.61622E-01
 -1      3918 3.43038E-01
 -1      3919 6.23494E+00
 -1      3920 6.23494E+00
 -1      3921 5.58375E+00
 -1      3922 7.70030E-01
 -1      3923 8.83029E-01
 -1      3924 6.98818E-01
 -1      3925 7.97965E-01
 -1      3926 5.71102E+00
 -1      3927 9.48841E-01
 -1      3928 1.07349E+00
 -1      3929 9.20985E-01
 -1      3930 1.27092E+00
 -1      3931 1.49180E+00
 -1      3932 1.26930E+00
 -1      3933 2.00020E+00
 -1      3934 2.98805E+00
 -1      3935 1.97514E+00
 -1      3936 2.82748E+00
 -1      3937 2.51750E+00
 -1      3938 2.51648E+00
 -1      3939 7.76284E-03
 -1      3940 3.11385E+00
 -1      3941 2.37999E+00
 -1      3942 2.20935E-01
 -1      3943 2.79337E-01
 -1      3944 5.02130E+00
 -1      3945 1.83731E+00
 -1      3946 1.56125E+00
 -1      3947 2.34945E+00
 -1      3948 1.31572E+00
 -1      3949 1.16398E+00
 -1      3950 1.56125E+00
 -1      3951 9.87075E-01
 -1      3952 8.81633E-01
 -1      3953 1.13882E+00
 -1      3954 7.57640E-01
 -1      3955 6.71703E-01
 -1      3956 8.37918E-01
 -1      3957 5.83212E-01
 -1      3958 5.14239E-01
 -1      3959 6.25434E-01
 -1      3960 4.49024E-01
 -1      3961 3.93806E-01
 -1      3962 4.71728E-01
 -1      3963 3.44596E-01
 -1      3964 3.00436E-01
 -1      3965 3.57303E-01
 -1      3966 2.62722E-01
 -1      3967 2.27521E-01
 -1      3968 2.70379E-01
 -1      3969 1.98384E-01
 -1      3970 1.70501E-01
 -1      3971 2.03530E-01
 -1      3972 1.47952E-01
 -1      3973 1.26065E-01
 -1      3974 1.51843E-01
 -1      3975 1.08672E-01
 -1      3976 9.16896E-02
 -1      3977 1.11900E-01
 -1      3978 7.83714E-02
 -1      3979 6.53742E-02
 -1      3980 8.11882E-02
 -1      3981 5.52873E-02
 -1      3982 4.54965E-02
 -1      3983 5.77831E-02
 -1      3984 3.79676E-02
 -1      3985 3.10432E-02
 -1      3986 4.01673E-02
 -1      3987 2.56796E-02
 -1      3988 2.07197E-02
 -1      3989 2.72749E-02
 -1      3990 1.71369E-02
 -1      3991 1.35538E-02
 -1      3992 1.83285E-02
 -1      3993 1.09907E-02
 -1      3994 8.93734E-03
 -1      3995 8.44499E-03
 -1      3996 1.21826E-02
 -1      3997 5.44632E-01
 -1      3998 5.26515E-01
 -1      3999 5.98008E-01
 -1      4000 4.93915E+00
 -1      4001 3.38509E-01
 -1      4002 3.70177E-01
 -1      4003 4.56354E-01
 -1      4004 1.92590E+00
 -1      4005 2.19959E+00
 -1      4006 6.20237E+00
 -1      4007 6.20237E+00
 -1      4008 3.98142E+00
 -1      4009 5.36412E-01
 -1      4010 6.14560E-01
 -1      4011 6.85851E-01
 -1      4012 1.02708E+00
 -1      4013 1.17579E+00
 -1      4014 9.40487E-01
 -1      4015 4.45340E-01
 -1      4016 5.12246E-01
 -1      4017 3.38988E-01
 -1      4018 3.91268E-01
 -1      4019 3.99561E-01
 -1      4020 2.56442E-01
 -1      4021 2.97420E-01
 -1      4022 3.03922E-01
 -1      4023 1.92074E-01
 -1      4024 2.24121E-01
 -1      4025 2.30034E-01
 -1      4026 1.41975E-01
 -1      4027 1.66877E-01
 -1      4028 1.72517E-01
 -1      4029 1.03242E-01
 -1      4030 1.22403E-01
 -1      4031 1.27749E-01
 -1      4032 7.36029E-02
 -1      4033 8.81635E-02
 -1      4034 9.30984E-02
 -1      4035 5.12845E-02
 -1      4036 6.21223E-02
 -1      4037 6.65393E-02
 -1      4038 3.51420E-02
 -1      4039 4.26793E-02
 -1      4040 4.64536E-02
 -1      4041 2.35043E-02
 -1      4042 2.90424E-02
 -1      4043 3.17488E-02
 -1      4044 1.52036E-02
 -1      4045 1.91548E-02
 -1      4046 2.12998E-02
 -1      4047 1.02658E-02
 -1      4048 1.29460E-02
 -1      4049 1.46927E-02
 -1      4050 1.05322E-02
 -1      4051 1.18183E+00
 -1      4052 1.02377E+00
 -1      4053 2.51643E-01
 -1      4054 5.77733E+00
 -1      4055 4.53708E+00
 -1      4056 8.22801E-03
 -1      4057 8.11368E-03
 -1      4058 3.20090E+00
 -1      4059 4.26126E+00
 -1      4060 3.18962E+00
 -1      4061 4.17492E-01
 -1      4062 4.71542E-01
 -1      4063 5.36722E-01
 -1      4064 1.38741E+00
 -1      4065 1.58564E+00
 -1      4066 1.29616E+00
 -1      4067 5.84222E-01
 -1      4068 6.70606E-01
 -1      4069 6.97011E-01
 -1      4070 5.25610E-01
 -1      4071 4.01943E+00
 -1      4072 4.53547E+00
 -1      4073 4.78723E+00
 -1      4074 4.31537E+00
 -1      4075 3.55207E-01
 -1      4076 3.68288E-01
 -1      4077 4.09166E+00
 -1      4078 4.48450E+00
 -1      4079 4.10139E+00
 -1      4080 4.68762E-01
 -1      4081 2.95344E-01
 -1      4082 1.56200E+00
 -1      4083 1.35200E+00
 -1      4084 1.31595E+00
 -1      4085 4.95098E+00
 -1      4086 5.26515E-01
 -1      4087 4.60868E-01
 -1      4088 1.84804E+00
 -1      4089 5.76912E+00
 -1      4090 3.73803E-01
 -1      4091 4.31815E-01
 -1      4092 3.68798E+00
 -1      4093 5.32160E+00
 -1      4094 5.47279E+00
 -1      4095 4.27333E+00
 -1      4096 8.90743E-03
 -1      4097 8.33206E-01
 -1      4098 7.14818E-01
 -1      4099 9.55218E-01
 -1      4100 3.06028E+00
 -1      4101 3.56478E+00
 -1      4102 5.47279E+00
 -1      4103 3.12418E-01
 -1      4104 5.15264E+00
 -1      4105 5.63020E+00
 -1      4106 5.16644E+00
 -1      4107 4.39260E+00
 -1      4108 8.22379E-03
 -1      4109 8.22379E-03
 -1      4110 9.18131E-03
 -1      4111 9.39829E-03
 -1      4112 4.62702E-01
 -1      4113 4.42172E-01
 -1      4114 4.66329E-01
 -1      4115 5.32863E-01
 -1      4116 4.76012E+00
 -1      4117 3.33688E+00
 -1      4118 3.38045E+00
 -1      4119 2.50187E+00
 -1      4120 2.42598E+00
 -1      4121 4.80770E+00
 -1      4122 4.10139E+00
 -1      4123 5.99842E-01
 -1      4124 8.46423E-01
 -1      4125 9.97299E-01
 -1      4126 1.16680E+00
 -1      4127 1.36423E+00
 -1      4128 1.09223E+00
 -1      4129 1.61501E+00
 -1      4130 2.12341E+00
 -1      4131 1.51250E+00
 -1      4132 3.13928E-01
 -1      4133 3.16996E+00
 -1      4134 3.22093E+00
 -1      4135 2.61386E+00
 -1      4136 2.07117E+00
 -1      4137 3.05861E+00
 -1      4138 1.65406E+00
 -1      4139 1.40854E+00
 -1      4140 1.91847E+00
 -1      4141 1.13957E+00
 -1      4142 9.62664E-01
 -1      4143 1.23238E+00
 -1      4144 8.17923E-01
 -1      4145 6.93930E-01
 -1      4146 8.18676E-01
 -1      4147 6.15068E-01
 -1      4148 5.26577E-01
 -1      4149 5.95073E-01
 -1      4150 4.69842E-01
 -1      4151 4.04627E-01
 -1      4152 4.59476E-01
 -1      4153 3.60524E-01
 -1      4154 3.11314E-01
 -1      4155 3.58639E-01
 -1      4156 2.76358E-01
 -1      4157 2.38645E-01
 -1      4158 2.79580E-01
 -1      4159 2.10684E-01
 -1      4160 1.81548E-01
 -1      4161 2.16663E-01
 -1      4162 1.59161E-01
 -1      4163 1.36611E-01
 -1      4164 1.66316E-01
 -1      4165 1.18771E-01
 -1      4166 1.01378E-01
 -1      4167 1.26089E-01
 -1      4168 8.72840E-02
 -1      4169 7.39658E-02
 -1      4170 9.41554E-02
 -1      4171 6.29559E-02
 -1      4172 5.28689E-02
 -1      4173 6.90516E-02
 -1      4174 4.43728E-02
 -1      4175 3.68439E-02
 -1      4176 4.95455E-02
 -1      4177 3.02774E-02
 -1      4178 2.49139E-02
 -1      4179 3.44829E-02
 -1      4180 2.03889E-02
 -1      4181 1.68061E-02
 -1      4182 2.33914E-02
 -1      4183 2.14819E-01
 -1      4184 2.47140E-01
 -1      4185 1.92168E+00
 -1      4186 2.26194E+00
 -1      4187 5.73861E+00
 -1      4188 4.76012E+00
 -1      4189 8.02713E-01
 -1      4190 9.46765E-01
 -1      4191 2.80395E-01
 -1      4192 3.21962E-01
 -1      4193 2.65180E-01
 -1      4194 5.05123E-01
 -1      4195 5.08214E-01
 -1      4196 5.73084E-01
 -1      4197 4.71268E-01
 -1      4198 3.63435E-01
 -1      4199 4.17506E-01
 -1      4200 3.39907E-01
 -1      4201 1.62817E-01
 -1      4202 1.88014E-01
 -1      4203 2.05119E-01
 -1      4204 1.21705E-01
 -1      4205 1.41277E-01
 -1      4206 1.56774E-01
 -1      4207 8.94626E-02
 -1      4208 1.04541E-01
 -1      4209 1.18070E-01
 -1      4210 6.44582E-02
 -1      4211 7.59387E-02
 -1      4212 8.73814E-02
 -1      4213 4.52980E-02
 -1      4214 5.39033E-02
 -1      4215 6.33026E-02
 -1      4216 3.08926E-02
 -1      4217 3.69922E-02
 -1      4218 4.44419E-02
 -1      4219 1.88360E-02
 -1      4220 2.31854E-02
 -1      4221 2.84288E-02
 -1      4222 5.76912E+00
 -1      4223 5.92981E+00
 -1      4224 2.70014E+00
 -1      4225 1.08294E+00
 -1      4226 1.29456E+00
 -1      4227 9.45168E-01
 -1      4228 1.08103E-02
 -1      4229 2.21568E+00
 -1      4230 3.21699E+00
 -1      4231 2.28931E+00
 -1      4232 4.45131E+00
 -1      4233 3.47283E+00
 -1      4234 2.74980E+00
 -1      4235 3.87914E+00
 -1      4236 6.01593E-01
 -1      4237 6.85851E-01
 -1      4238 7.62165E-01
 -1      4239 5.73084E-01
 -1      4240 1.70846E+00
 -1      4241 6.49674E-01
 -1      4242 5.81305E-01
 -1      4243 2.23309E+00
 -1      4244 4.08677E+00
 -1      4245 1.20241E-02
 -1      4246 9.46103E-03
 -1      4247 9.23983E-03
 -1      4248 1.40845E-02
 -1      4249 7.71873E-01
 -1      4250 8.45181E-01
 -1      4251 8.73689E-01
 -1      4252 1.35286E-02
 -1      4253 1.57863E-02
 -1      4254 1.76719E-02
 -1      4255 1.19039E-02
 -1      4256 1.18996E-02
 -1      4257 1.19039E-02
 -1      4258 1.46222E-02
 -1      4259 1.19624E-02
 -1      4260 3.41866E+00
 -1      4261 3.34587E+00
 -1      4262 3.88024E+00
 -1      4263 3.15931E+00
 -1      4264 2.82784E+00
 -1      4265 4.33976E-01
 -1      4266 4.70103E-01
 -1      4267 5.42080E-01
 -1      4268 1.31595E+00
 -1      4269 1.14579E+00
 -1      4270 6.10774E-01
 -1      4271 7.10198E-01
 -1      4272 7.16476E-01
 -1      4273 5.55268E-01
 -1      4274 1.14579E+00
 -1      4275 1.14579E+00
 -1      4276 1.39878E+00
 -1      4277 1.64955E+00
 -1      4278 2.11936E+00
 -1      4279 1.76719E-02
 -1      4280 2.07216E-02
 -1      4281 1.76719E-02
 -1      4282 1.29135E+00
 -1      4283 1.91847E+00
 -1      4284 2.33558E+00
 -1      4285 1.02238E+00
 -1      4286 8.86203E-01
 -1      4287 7.41463E-01
 -1      4288 6.48948E-01
 -1      4289 5.70086E-01
 -1      4290 5.01392E-01
 -1      4291 4.44657E-01
 -1      4292 3.92060E-01
 -1      4293 3.47958E-01
 -1      4294 3.06485E-01
 -1      4295 2.71529E-01
 -1      4296 2.38274E-01
 -1      4297 2.10314E-01
 -1      4298 1.83508E-01
 -1      4299 1.61121E-01
 -1      4300 1.39581E-01
 -1      4301 1.21742E-01
 -1      4302 1.04577E-01
 -1      4303 9.04834E-02
 -1      4304 7.69596E-02
 -1      4305 6.59496E-02
 -1      4306 5.53947E-02
 -1      4307 4.68985E-02
 -1      4308 3.85927E-02
 -1      4309 3.20262E-02
 -1      4310 2.43190E-02
 -1      4311 1.97940E-02
 -1      4312 9.55218E-01
 -1      4313 9.68352E-01
 -1      4314 1.13785E+00
 -1      4315 1.27490E+00
 -1      4316 2.70353E+00
 -1      4317 2.28912E+00
 -1      4318 1.34926E+00
 -1      4319 1.17909E+00
 -1      4320 2.08258E+00
 -1      4321 1.03426E+00
 -1      4322 1.67443E-02
 -1      4323 2.74980E+00
 -1      4324 1.07988E+00
 -1      4325 1.07988E+00
 -1      4326 2.84288E-02
 -1      4327 2.24430E+00
 -1      4328 1.34081E+00
 -1      4329 1.37411E+00
 -3
 9999
