    1C
    1UUSER                                                              
    1UDATE              26.october.2022                                 
    1UTIME              23:57:30                                        
    1UHOST                                                              
    1UPGM               CalculiX                                        
    1UVERSION           Version 2.17                             
    1UCOMPILETIME       Thu Jul 23 21:43:50 CEST 2020                    
    1UDIR                                                               
    1UDBN                                                               
    1UMAT    1SOLIDMATERIAL                                             
    2C                          4321                                     1
 -1         1 7.09091E+01 3.44540E+01 0.00000E+00
 -1         2 7.76406E+01 2.74592E+01 0.00000E+00
 -1         3 1.50000E+02 0.00000E+00 0.00000E+00
 -1         4 1.50000E+02 5.00000E+01 0.00000E+00
 -1         5 0.00000E+00 0.00000E+00 0.00000E+00
 -1         6 0.00000E+00 5.00000E+01 0.00000E+00
 -1         7 0.00000E+00 4.70500E+01 0.00000E+00
 -1         8 0.00000E+00 4.41000E+01 0.00000E+00
 -1         9 0.00000E+00 4.11500E+01 0.00000E+00
 -1        10 0.00000E+00 3.82000E+01 0.00000E+00
 -1        11 0.00000E+00 3.52500E+01 0.00000E+00
 -1        12 0.00000E+00 3.23500E+01 0.00000E+00
 -1        13 0.00000E+00 2.94000E+01 0.00000E+00
 -1        14 0.00000E+00 2.64500E+01 0.00000E+00
 -1        15 0.00000E+00 2.35000E+01 0.00000E+00
 -1        16 0.00000E+00 2.05500E+01 0.00000E+00
 -1        17 0.00000E+00 1.76000E+01 0.00000E+00
 -1        18 0.00000E+00 1.47000E+01 0.00000E+00
 -1        19 0.00000E+00 1.17500E+01 0.00000E+00
 -1        20 0.00000E+00 8.80000E+00 0.00000E+00
 -1        21 0.00000E+00 5.85000E+00 0.00000E+00
 -1        22 0.00000E+00 2.90000E+00 0.00000E+00
 -1        23 3.15000E+00 5.00000E+01 0.00000E+00
 -1        24 6.15000E+00 5.00000E+01 0.00000E+00
 -1        25 9.15000E+00 5.00000E+01 0.00000E+00
 -1        26 1.21500E+01 5.00000E+01 0.00000E+00
 -1        27 1.51500E+01 5.00000E+01 0.00000E+00
 -1        28 1.81500E+01 5.00000E+01 0.00000E+00
 -1        29 2.11500E+01 5.00000E+01 0.00000E+00
 -1        30 2.41500E+01 5.00000E+01 0.00000E+00
 -1        31 2.71500E+01 5.00000E+01 0.00000E+00
 -1        32 3.01500E+01 5.00000E+01 0.00000E+00
 -1        33 3.31500E+01 5.00000E+01 0.00000E+00
 -1        34 3.61500E+01 5.00000E+01 0.00000E+00
 -1        35 3.91500E+01 5.00000E+01 0.00000E+00
 -1        36 4.21500E+01 5.00000E+01 0.00000E+00
 -1        37 4.51500E+01 5.00000E+01 0.00000E+00
 -1        38 4.81500E+01 5.00000E+01 0.00000E+00
 -1        39 5.11500E+01 5.00000E+01 0.00000E+00
 -1        40 5.41500E+01 5.00000E+01 0.00000E+00
 -1        41 5.71500E+01 5.00000E+01 0.00000E+00
 -1        42 6.01500E+01 5.00000E+01 0.00000E+00
 -1        43 6.31500E+01 5.00000E+01 0.00000E+00
 -1        44 6.61500E+01 5.00000E+01 0.00000E+00
 -1        45 6.91500E+01 5.00000E+01 0.00000E+00
 -1        46 7.21500E+01 5.00000E+01 0.00000E+00
 -1        47 7.51500E+01 5.00000E+01 0.00000E+00
 -1        48 7.81500E+01 5.00000E+01 0.00000E+00
 -1        49 8.11500E+01 5.00000E+01 0.00000E+00
 -1        50 8.41500E+01 5.00000E+01 0.00000E+00
 -1        51 8.71500E+01 5.00000E+01 0.00000E+00
 -1        52 9.01500E+01 5.00000E+01 0.00000E+00
 -1        53 9.31500E+01 5.00000E+01 0.00000E+00
 -1        54 9.61500E+01 5.00000E+01 0.00000E+00
 -1        55 9.91500E+01 5.00000E+01 0.00000E+00
 -1        56 1.02150E+02 5.00000E+01 0.00000E+00
 -1        57 1.05150E+02 5.00000E+01 0.00000E+00
 -1        58 1.08150E+02 5.00000E+01 0.00000E+00
 -1        59 1.11150E+02 5.00000E+01 0.00000E+00
 -1        60 1.14150E+02 5.00000E+01 0.00000E+00
 -1        61 1.17150E+02 5.00000E+01 0.00000E+00
 -1        62 1.20150E+02 5.00000E+01 0.00000E+00
 -1        63 1.23150E+02 5.00000E+01 0.00000E+00
 -1        64 1.26150E+02 5.00000E+01 0.00000E+00
 -1        65 1.29150E+02 5.00000E+01 0.00000E+00
 -1        66 1.32150E+02 5.00000E+01 0.00000E+00
 -1        67 1.35150E+02 5.00000E+01 0.00000E+00
 -1        68 1.38150E+02 5.00000E+01 0.00000E+00
 -1        69 1.41150E+02 5.00000E+01 0.00000E+00
 -1        70 1.44150E+02 5.00000E+01 0.00000E+00
 -1        71 1.47150E+02 5.00000E+01 0.00000E+00
 -1        72 3.15000E+00 0.00000E+00 0.00000E+00
 -1        73 6.15000E+00 0.00000E+00 0.00000E+00
 -1        74 9.15000E+00 0.00000E+00 0.00000E+00
 -1        75 1.21500E+01 0.00000E+00 0.00000E+00
 -1        76 1.51500E+01 0.00000E+00 0.00000E+00
 -1        77 1.81500E+01 0.00000E+00 0.00000E+00
 -1        78 2.11500E+01 0.00000E+00 0.00000E+00
 -1        79 2.41500E+01 0.00000E+00 0.00000E+00
 -1        80 2.71500E+01 0.00000E+00 0.00000E+00
 -1        81 3.01500E+01 0.00000E+00 0.00000E+00
 -1        82 3.31500E+01 0.00000E+00 0.00000E+00
 -1        83 3.61500E+01 0.00000E+00 0.00000E+00
 -1        84 3.91500E+01 0.00000E+00 0.00000E+00
 -1        85 4.21500E+01 0.00000E+00 0.00000E+00
 -1        86 4.51500E+01 0.00000E+00 0.00000E+00
 -1        87 4.81500E+01 0.00000E+00 0.00000E+00
 -1        88 5.11500E+01 0.00000E+00 0.00000E+00
 -1        89 5.41500E+01 0.00000E+00 0.00000E+00
 -1        90 5.71500E+01 0.00000E+00 0.00000E+00
 -1        91 6.01500E+01 0.00000E+00 0.00000E+00
 -1        92 6.31500E+01 0.00000E+00 0.00000E+00
 -1        93 6.61500E+01 0.00000E+00 0.00000E+00
 -1        94 6.91500E+01 0.00000E+00 0.00000E+00
 -1        95 7.21500E+01 0.00000E+00 0.00000E+00
 -1        96 7.51500E+01 0.00000E+00 0.00000E+00
 -1        97 7.81500E+01 0.00000E+00 0.00000E+00
 -1        98 8.11500E+01 0.00000E+00 0.00000E+00
 -1        99 8.41500E+01 0.00000E+00 0.00000E+00
 -1       100 8.71500E+01 0.00000E+00 0.00000E+00
 -1       101 9.01500E+01 0.00000E+00 0.00000E+00
 -1       102 9.31500E+01 0.00000E+00 0.00000E+00
 -1       103 9.61500E+01 0.00000E+00 0.00000E+00
 -1       104 9.91500E+01 0.00000E+00 0.00000E+00
 -1       105 1.02150E+02 0.00000E+00 0.00000E+00
 -1       106 1.05150E+02 0.00000E+00 0.00000E+00
 -1       107 1.08150E+02 0.00000E+00 0.00000E+00
 -1       108 1.11150E+02 0.00000E+00 0.00000E+00
 -1       109 1.14150E+02 0.00000E+00 0.00000E+00
 -1       110 1.17150E+02 0.00000E+00 0.00000E+00
 -1       111 1.20150E+02 0.00000E+00 0.00000E+00
 -1       112 1.23150E+02 0.00000E+00 0.00000E+00
 -1       113 1.26150E+02 0.00000E+00 0.00000E+00
 -1       114 1.29150E+02 0.00000E+00 0.00000E+00
 -1       115 1.32150E+02 0.00000E+00 0.00000E+00
 -1       116 1.35150E+02 0.00000E+00 0.00000E+00
 -1       117 1.38150E+02 0.00000E+00 0.00000E+00
 -1       118 1.41150E+02 0.00000E+00 0.00000E+00
 -1       119 1.44150E+02 0.00000E+00 0.00000E+00
 -1       120 1.47150E+02 0.00000E+00 0.00000E+00
 -1       121 1.50000E+02 2.95000E+00 0.00000E+00
 -1       122 1.50000E+02 5.90000E+00 0.00000E+00
 -1       123 1.50000E+02 8.85000E+00 0.00000E+00
 -1       124 1.50000E+02 1.18000E+01 0.00000E+00
 -1       125 1.50000E+02 1.47500E+01 0.00000E+00
 -1       126 1.50000E+02 1.76500E+01 0.00000E+00
 -1       127 1.50000E+02 2.06000E+01 0.00000E+00
 -1       128 1.50000E+02 2.35500E+01 0.00000E+00
 -1       129 1.50000E+02 2.65000E+01 0.00000E+00
 -1       130 1.50000E+02 2.94500E+01 0.00000E+00
 -1       131 1.50000E+02 3.24000E+01 0.00000E+00
 -1       132 1.50000E+02 3.53000E+01 0.00000E+00
 -1       133 1.50000E+02 3.82500E+01 0.00000E+00
 -1       134 1.50000E+02 4.12000E+01 0.00000E+00
 -1       135 1.50000E+02 4.41500E+01 0.00000E+00
 -1       136 1.50000E+02 4.71000E+01 0.00000E+00
 -1       137 7.74820E+01 2.59779E+01 0.00000E+00
 -1       138 7.70485E+01 2.46417E+01 0.00000E+00
 -1       139 7.63413E+01 2.33969E+01 0.00000E+00
 -1       140 7.52559E+01 2.21963E+01 0.00000E+00
 -1       141 7.40914E+01 2.13689E+01 0.00000E+00
 -1       142 7.26093E+01 2.07417E+01 0.00000E+00
 -1       143 7.12112E+01 2.04825E+01 0.00000E+00
 -1       144 6.96878E+01 2.05243E+01 0.00000E+00
 -1       145 6.82478E+01 2.08808E+01 0.00000E+00
 -1       146 6.68643E+01 2.15651E+01 0.00000E+00
 -1       147 6.57410E+01 2.24597E+01 0.00000E+00
 -1       148 6.47213E+01 2.37226E+01 0.00000E+00
 -1       149 6.40604E+01 2.50715E+01 0.00000E+00
 -1       150 6.37096E+01 2.64781E+01 0.00000E+00
 -1       151 6.36631E+01 2.80205E+01 0.00000E+00
 -1       152 6.39176E+01 2.94089E+01 0.00000E+00
 -1       153 6.45523E+01 3.09136E+01 0.00000E+00
 -1       154 6.53875E+01 3.20858E+01 0.00000E+00
 -1       155 6.65242E+01 3.31209E+01 0.00000E+00
 -1       156 6.78390E+01 3.38741E+01 0.00000E+00
 -1       157 6.94290E+01 3.43535E+01 0.00000E+00
 -1       158 7.24131E+01 3.42310E+01 0.00000E+00
 -1       159 7.38987E+01 3.36547E+01 0.00000E+00
 -1       160 7.51480E+01 3.28148E+01 0.00000E+00
 -1       161 7.62264E+01 3.16780E+01 0.00000E+00
 -1       162 7.69973E+01 3.03903E+01 0.00000E+00
 -1       163 7.74683E+01 2.90025E+01 0.00000E+00
 -1       164 2.59800E+00 4.55750E+01 0.00000E+00
 -1       165 2.59800E+00 4.26250E+01 0.00000E+00
 -1       166 2.59800E+00 3.96750E+01 0.00000E+00
 -1       167 2.59800E+00 3.67250E+01 0.00000E+00
 -1       168 2.59800E+00 3.38250E+01 0.00000E+00
 -1       169 2.59800E+00 3.08750E+01 0.00000E+00
 -1       170 2.59800E+00 2.79250E+01 0.00000E+00
 -1       171 2.59800E+00 2.49750E+01 0.00000E+00
 -1       172 2.59800E+00 2.20250E+01 0.00000E+00
 -1       173 2.59800E+00 1.90750E+01 0.00000E+00
 -1       174 2.59800E+00 1.61750E+01 0.00000E+00
 -1       175 2.59800E+00 1.32250E+01 0.00000E+00
 -1       176 2.59800E+00 1.02750E+01 0.00000E+00
 -1       177 2.59800E+00 7.32500E+00 0.00000E+00
 -1       178 2.59800E+00 4.37500E+00 0.00000E+00
 -1       179 2.87400E+00 2.18750E+00 0.00000E+00
 -1       180 4.65000E+00 4.74020E+01 0.00000E+00
 -1       181 7.65000E+00 4.74020E+01 0.00000E+00
 -1       182 1.06500E+01 4.74020E+01 0.00000E+00
 -1       183 1.36500E+01 4.74020E+01 0.00000E+00
 -1       184 1.66500E+01 4.74020E+01 0.00000E+00
 -1       185 1.96500E+01 4.74020E+01 0.00000E+00
 -1       186 2.26500E+01 4.74020E+01 0.00000E+00
 -1       187 2.56500E+01 4.74020E+01 0.00000E+00
 -1       188 2.86500E+01 4.74020E+01 0.00000E+00
 -1       189 3.16500E+01 4.74020E+01 0.00000E+00
 -1       190 3.46500E+01 4.74020E+01 0.00000E+00
 -1       191 3.76500E+01 4.74020E+01 0.00000E+00
 -1       192 4.06500E+01 4.74020E+01 0.00000E+00
 -1       193 4.36500E+01 4.74020E+01 0.00000E+00
 -1       194 4.66500E+01 4.74020E+01 0.00000E+00
 -1       195 4.96500E+01 4.74020E+01 0.00000E+00
 -1       196 5.26500E+01 4.74020E+01 0.00000E+00
 -1       197 5.56500E+01 4.74020E+01 0.00000E+00
 -1       198 5.86500E+01 4.74020E+01 0.00000E+00
 -1       199 6.16500E+01 4.74020E+01 0.00000E+00
 -1       200 6.46500E+01 4.74020E+01 0.00000E+00
 -1       201 6.76500E+01 4.74020E+01 0.00000E+00
 -1       202 7.06500E+01 4.74020E+01 0.00000E+00
 -1       203 7.36500E+01 4.74020E+01 0.00000E+00
 -1       204 7.66500E+01 4.74020E+01 0.00000E+00
 -1       205 7.96500E+01 4.74020E+01 0.00000E+00
 -1       206 8.26500E+01 4.74020E+01 0.00000E+00
 -1       207 8.56500E+01 4.74020E+01 0.00000E+00
 -1       208 8.86500E+01 4.74020E+01 0.00000E+00
 -1       209 9.16500E+01 4.74020E+01 0.00000E+00
 -1       210 9.46500E+01 4.74020E+01 0.00000E+00
 -1       211 9.76500E+01 4.74020E+01 0.00000E+00
 -1       212 1.00650E+02 4.74020E+01 0.00000E+00
 -1       213 1.03650E+02 4.74020E+01 0.00000E+00
 -1       214 1.06650E+02 4.74020E+01 0.00000E+00
 -1       215 1.09650E+02 4.74020E+01 0.00000E+00
 -1       216 1.12650E+02 4.74020E+01 0.00000E+00
 -1       217 1.15650E+02 4.74020E+01 0.00000E+00
 -1       218 1.18650E+02 4.74020E+01 0.00000E+00
 -1       219 1.21650E+02 4.74020E+01 0.00000E+00
 -1       220 1.24650E+02 4.74020E+01 0.00000E+00
 -1       221 1.27650E+02 4.74020E+01 0.00000E+00
 -1       222 1.30650E+02 4.74020E+01 0.00000E+00
 -1       223 1.33650E+02 4.74020E+01 0.00000E+00
 -1       224 1.36650E+02 4.74020E+01 0.00000E+00
 -1       225 1.39650E+02 4.74020E+01 0.00000E+00
 -1       226 1.42650E+02 4.74020E+01 0.00000E+00
 -1       227 1.45650E+02 4.74020E+01 0.00000E+00
 -1       228 5.87400E+00 2.18750E+00 0.00000E+00
 -1       229 8.87400E+00 2.18750E+00 0.00000E+00
 -1       230 1.18740E+01 2.18750E+00 0.00000E+00
 -1       231 1.48740E+01 2.18750E+00 0.00000E+00
 -1       232 1.78740E+01 2.18750E+00 0.00000E+00
 -1       233 2.08740E+01 2.18750E+00 0.00000E+00
 -1       234 2.38740E+01 2.18750E+00 0.00000E+00
 -1       235 2.68740E+01 2.18750E+00 0.00000E+00
 -1       236 2.98740E+01 2.18750E+00 0.00000E+00
 -1       237 3.28740E+01 2.18750E+00 0.00000E+00
 -1       238 3.58740E+01 2.18750E+00 0.00000E+00
 -1       239 3.88740E+01 2.18750E+00 0.00000E+00
 -1       240 4.18740E+01 2.18750E+00 0.00000E+00
 -1       241 4.48740E+01 2.18750E+00 0.00000E+00
 -1       242 4.78740E+01 2.18750E+00 0.00000E+00
 -1       243 5.08740E+01 2.18750E+00 0.00000E+00
 -1       244 5.38740E+01 2.18750E+00 0.00000E+00
 -1       245 5.68740E+01 2.18750E+00 0.00000E+00
 -1       246 5.98740E+01 2.18750E+00 0.00000E+00
 -1       247 6.28740E+01 2.18750E+00 0.00000E+00
 -1       248 6.58740E+01 2.18750E+00 0.00000E+00
 -1       249 6.88740E+01 2.18750E+00 0.00000E+00
 -1       250 7.18740E+01 2.18750E+00 0.00000E+00
 -1       251 7.48740E+01 2.18750E+00 0.00000E+00
 -1       252 7.78740E+01 2.18750E+00 0.00000E+00
 -1       253 8.08740E+01 2.18750E+00 0.00000E+00
 -1       254 8.38740E+01 2.18750E+00 0.00000E+00
 -1       255 8.68740E+01 2.18750E+00 0.00000E+00
 -1       256 8.98740E+01 2.18750E+00 0.00000E+00
 -1       257 9.28740E+01 2.18750E+00 0.00000E+00
 -1       258 9.58740E+01 2.18750E+00 0.00000E+00
 -1       259 9.88740E+01 2.18750E+00 0.00000E+00
 -1       260 1.01874E+02 2.18750E+00 0.00000E+00
 -1       261 1.04874E+02 2.18750E+00 0.00000E+00
 -1       262 1.07874E+02 2.18750E+00 0.00000E+00
 -1       263 1.10874E+02 2.18750E+00 0.00000E+00
 -1       264 1.13874E+02 2.18750E+00 0.00000E+00
 -1       265 1.16874E+02 2.18750E+00 0.00000E+00
 -1       266 1.19874E+02 2.18750E+00 0.00000E+00
 -1       267 1.22874E+02 2.18750E+00 0.00000E+00
 -1       268 1.25874E+02 2.18750E+00 0.00000E+00
 -1       269 1.28874E+02 2.18750E+00 0.00000E+00
 -1       270 1.31874E+02 2.18750E+00 0.00000E+00
 -1       271 1.34874E+02 2.18750E+00 0.00000E+00
 -1       272 1.37874E+02 2.18750E+00 0.00000E+00
 -1       273 1.40874E+02 2.18750E+00 0.00000E+00
 -1       274 1.43874E+02 2.18750E+00 0.00000E+00
 -1       275 1.46874E+02 2.18750E+00 0.00000E+00
 -1       276 1.47402E+02 4.42500E+00 0.00000E+00
 -1       277 1.47402E+02 7.37500E+00 0.00000E+00
 -1       278 1.47402E+02 1.03250E+01 0.00000E+00
 -1       279 1.47402E+02 1.32750E+01 0.00000E+00
 -1       280 1.47402E+02 1.61750E+01 0.00000E+00
 -1       281 1.47402E+02 1.91250E+01 0.00000E+00
 -1       282 1.47402E+02 2.20750E+01 0.00000E+00
 -1       283 1.47402E+02 2.50250E+01 0.00000E+00
 -1       284 1.47402E+02 2.79750E+01 0.00000E+00
 -1       285 1.47402E+02 3.09250E+01 0.00000E+00
 -1       286 1.47402E+02 3.38250E+01 0.00000E+00
 -1       287 1.47402E+02 3.67750E+01 0.00000E+00
 -1       288 1.47402E+02 3.97250E+01 0.00000E+00
 -1       289 1.47402E+02 4.26750E+01 0.00000E+00
 -1       290 1.46526E+02 4.50385E+01 0.00000E+00
 -1       291 7.88501E+01 2.65806E+01 0.00000E+00
 -1       292 7.84185E+01 2.49356E+01 0.00000E+00
 -1       293 7.78219E+01 2.33790E+01 0.00000E+00
 -1       294 7.69466E+01 2.17589E+01 0.00000E+00
 -1       295 7.53759E+01 2.07942E+01 0.00000E+00
 -1       296 7.39208E+01 1.97073E+01 0.00000E+00
 -1       297 7.21313E+01 1.94200E+01 0.00000E+00
 -1       298 7.04116E+01 1.91240E+01 0.00000E+00
 -1       299 6.86563E+01 1.94444E+01 0.00000E+00
 -1       300 6.69814E+01 2.00611E+01 0.00000E+00
 -1       301 6.55473E+01 2.10641E+01 0.00000E+00
 -1       302 6.41575E+01 2.22242E+01 0.00000E+00
 -1       303 6.33021E+01 2.38636E+01 0.00000E+00
 -1       304 6.27086E+01 2.54815E+01 0.00000E+00
 -1       305 6.23070E+01 2.72077E+01 0.00000E+00
 -1       306 6.25978E+01 2.89333E+01 0.00000E+00
 -1       307 6.28862E+01 3.07301E+01 0.00000E+00
 -1       308 6.39825E+01 3.22032E+01 0.00000E+00
 -1       309 6.49703E+01 3.36856E+01 0.00000E+00
 -1       310 6.65790E+01 3.45495E+01 0.00000E+00
 -1       311 6.82115E+01 3.55153E+01 0.00000E+00
 -1       312 7.00813E+01 3.56970E+01 0.00000E+00
 -1       313 7.18389E+01 3.55418E+01 0.00000E+00
 -1       314 7.36550E+01 3.52294E+01 0.00000E+00
 -1       315 7.51998E+01 3.42409E+01 0.00000E+00
 -1       316 7.65668E+01 3.30808E+01 0.00000E+00
 -1       317 7.76521E+01 3.16570E+01 0.00000E+00
 -1       318 7.83809E+01 3.00860E+01 0.00000E+00
 -1       319 7.89259E+01 2.83839E+01 0.00000E+00
 -1       320 5.19600E+00 4.11500E+01 0.00000E+00
 -1       321 5.19600E+00 4.41000E+01 0.00000E+00
 -1       322 5.19600E+00 3.52750E+01 0.00000E+00
 -1       323 5.19600E+00 3.23250E+01 0.00000E+00
 -1       324 5.19600E+00 2.93750E+01 0.00000E+00
 -1       325 5.19600E+00 2.64250E+01 0.00000E+00
 -1       326 5.19600E+00 2.34750E+01 0.00000E+00
 -1       327 5.19600E+00 2.05250E+01 0.00000E+00
 -1       328 5.19600E+00 1.76250E+01 0.00000E+00
 -1       329 5.19600E+00 1.46750E+01 0.00000E+00
 -1       330 5.19600E+00 1.17250E+01 0.00000E+00
 -1       331 5.19600E+00 8.77500E+00 0.00000E+00
 -1       332 5.19600E+00 5.82500E+00 0.00000E+00
 -1       333 5.53500E+00 4.00625E+00 0.00000E+00
 -1       334 8.53500E+00 4.00625E+00 0.00000E+00
 -1       335 9.15000E+00 4.48040E+01 0.00000E+00
 -1       336 1.21500E+01 4.48040E+01 0.00000E+00
 -1       337 1.51500E+01 4.48040E+01 0.00000E+00
 -1       338 1.81500E+01 4.48040E+01 0.00000E+00
 -1       339 2.11500E+01 4.48040E+01 0.00000E+00
 -1       340 2.41500E+01 4.48040E+01 0.00000E+00
 -1       341 2.71500E+01 4.48040E+01 0.00000E+00
 -1       342 3.01500E+01 4.48040E+01 0.00000E+00
 -1       343 3.31500E+01 4.48040E+01 0.00000E+00
 -1       344 3.61500E+01 4.48040E+01 0.00000E+00
 -1       345 3.91500E+01 4.48040E+01 0.00000E+00
 -1       346 4.21500E+01 4.48040E+01 0.00000E+00
 -1       347 4.51500E+01 4.48040E+01 0.00000E+00
 -1       348 4.81500E+01 4.48040E+01 0.00000E+00
 -1       349 5.11500E+01 4.48040E+01 0.00000E+00
 -1       350 5.41500E+01 4.48040E+01 0.00000E+00
 -1       351 5.71500E+01 4.48040E+01 0.00000E+00
 -1       352 6.01500E+01 4.48040E+01 0.00000E+00
 -1       353 6.31500E+01 4.48040E+01 0.00000E+00
 -1       354 6.61500E+01 4.48040E+01 0.00000E+00
 -1       355 6.91500E+01 4.48040E+01 0.00000E+00
 -1       356 7.21500E+01 4.48040E+01 0.00000E+00
 -1       357 7.51500E+01 4.48040E+01 0.00000E+00
 -1       358 7.81500E+01 4.48040E+01 0.00000E+00
 -1       359 8.11500E+01 4.48040E+01 0.00000E+00
 -1       360 8.41500E+01 4.48040E+01 0.00000E+00
 -1       361 8.71500E+01 4.48040E+01 0.00000E+00
 -1       362 9.01500E+01 4.48040E+01 0.00000E+00
 -1       363 9.31500E+01 4.48040E+01 0.00000E+00
 -1       364 9.61500E+01 4.48040E+01 0.00000E+00
 -1       365 9.91500E+01 4.48040E+01 0.00000E+00
 -1       366 1.02150E+02 4.48040E+01 0.00000E+00
 -1       367 1.05150E+02 4.48040E+01 0.00000E+00
 -1       368 1.08150E+02 4.48040E+01 0.00000E+00
 -1       369 1.11150E+02 4.48040E+01 0.00000E+00
 -1       370 1.14150E+02 4.48040E+01 0.00000E+00
 -1       371 1.17150E+02 4.48040E+01 0.00000E+00
 -1       372 1.20150E+02 4.48040E+01 0.00000E+00
 -1       373 1.23150E+02 4.48040E+01 0.00000E+00
 -1       374 1.26150E+02 4.48040E+01 0.00000E+00
 -1       375 1.29150E+02 4.48040E+01 0.00000E+00
 -1       376 1.32150E+02 4.48040E+01 0.00000E+00
 -1       377 1.35150E+02 4.48040E+01 0.00000E+00
 -1       378 1.38150E+02 4.48040E+01 0.00000E+00
 -1       379 1.41150E+02 4.48040E+01 0.00000E+00
 -1       380 1.43838E+02 4.49212E+01 0.00000E+00
 -1       381 1.15350E+01 4.00625E+00 0.00000E+00
 -1       382 1.45350E+01 4.00625E+00 0.00000E+00
 -1       383 1.75350E+01 4.00625E+00 0.00000E+00
 -1       384 2.05350E+01 4.00625E+00 0.00000E+00
 -1       385 2.35350E+01 4.00625E+00 0.00000E+00
 -1       386 2.65350E+01 4.00625E+00 0.00000E+00
 -1       387 2.95350E+01 4.00625E+00 0.00000E+00
 -1       388 3.25350E+01 4.00625E+00 0.00000E+00
 -1       389 3.55350E+01 4.00625E+00 0.00000E+00
 -1       390 3.85350E+01 4.00625E+00 0.00000E+00
 -1       391 4.15350E+01 4.00625E+00 0.00000E+00
 -1       392 4.45350E+01 4.00625E+00 0.00000E+00
 -1       393 4.75350E+01 4.00625E+00 0.00000E+00
 -1       394 5.05350E+01 4.00625E+00 0.00000E+00
 -1       395 5.35350E+01 4.00625E+00 0.00000E+00
 -1       396 5.65350E+01 4.00625E+00 0.00000E+00
 -1       397 5.95350E+01 4.00625E+00 0.00000E+00
 -1       398 6.25350E+01 4.00625E+00 0.00000E+00
 -1       399 6.55350E+01 4.00625E+00 0.00000E+00
 -1       400 6.85350E+01 4.00625E+00 0.00000E+00
 -1       401 7.15350E+01 4.00625E+00 0.00000E+00
 -1       402 7.45350E+01 4.00625E+00 0.00000E+00
 -1       403 7.75350E+01 4.00625E+00 0.00000E+00
 -1       404 8.05350E+01 4.00625E+00 0.00000E+00
 -1       405 8.35350E+01 4.00625E+00 0.00000E+00
 -1       406 8.65350E+01 4.00625E+00 0.00000E+00
 -1       407 8.95350E+01 4.00625E+00 0.00000E+00
 -1       408 9.25350E+01 4.00625E+00 0.00000E+00
 -1       409 9.55350E+01 4.00625E+00 0.00000E+00
 -1       410 9.85350E+01 4.00625E+00 0.00000E+00
 -1       411 1.01535E+02 4.00625E+00 0.00000E+00
 -1       412 1.04535E+02 4.00625E+00 0.00000E+00
 -1       413 1.07535E+02 4.00625E+00 0.00000E+00
 -1       414 1.10535E+02 4.00625E+00 0.00000E+00
 -1       415 1.13535E+02 4.00625E+00 0.00000E+00
 -1       416 1.16535E+02 4.00625E+00 0.00000E+00
 -1       417 1.19535E+02 4.00625E+00 0.00000E+00
 -1       418 1.22535E+02 4.00625E+00 0.00000E+00
 -1       419 1.25535E+02 4.00625E+00 0.00000E+00
 -1       420 1.28535E+02 4.00625E+00 0.00000E+00
 -1       421 1.31535E+02 4.00625E+00 0.00000E+00
 -1       422 1.34535E+02 4.00625E+00 0.00000E+00
 -1       423 1.37535E+02 4.00625E+00 0.00000E+00
 -1       424 1.40535E+02 4.00625E+00 0.00000E+00
 -1       425 1.43535E+02 4.00625E+00 0.00000E+00
 -1       426 1.45469E+02 4.21562E+00 0.00000E+00
 -1       427 1.44804E+02 1.18000E+01 0.00000E+00
 -1       428 1.44804E+02 8.85000E+00 0.00000E+00
 -1       429 1.45136E+02 6.53281E+00 0.00000E+00
 -1       430 1.44804E+02 1.47000E+01 0.00000E+00
 -1       431 1.44804E+02 1.76500E+01 0.00000E+00
 -1       432 1.44804E+02 2.06000E+01 0.00000E+00
 -1       433 1.44804E+02 2.35500E+01 0.00000E+00
 -1       434 1.44804E+02 2.65000E+01 0.00000E+00
 -1       435 1.44804E+02 2.94500E+01 0.00000E+00
 -1       436 1.44804E+02 3.23500E+01 0.00000E+00
 -1       437 1.44804E+02 3.53000E+01 0.00000E+00
 -1       438 1.44804E+02 3.82500E+01 0.00000E+00
 -1       439 1.44804E+02 4.12000E+01 0.00000E+00
 -1       440 7.94088E+01 2.36635E+01 0.00000E+00
 -1       441 8.01831E+01 2.74279E+01 0.00000E+00
 -1       442 8.00501E+01 2.53866E+01 0.00000E+00
 -1       443 7.88195E+01 2.17936E+01 0.00000E+00
 -1       444 7.68396E+01 2.01720E+01 0.00000E+00
 -1       445 5.19600E+00 3.82125E+01 0.00000E+00
 -1       446 7.32713E+01 1.80357E+01 0.00000E+00
 -1       447 7.15516E+01 1.77396E+01 0.00000E+00
 -1       448 6.91959E+01 1.74321E+01 0.00000E+00
 -1       449 6.73420E+01 1.84578E+01 0.00000E+00
 -1       450 6.54735E+01 1.94317E+01 0.00000E+00
 -1       451 6.40836E+01 2.05919E+01 0.00000E+00
 -1       452 6.23578E+01 2.23280E+01 0.00000E+00
 -1       453 6.17098E+01 2.41973E+01 0.00000E+00
 -1       454 6.11637E+01 2.60319E+01 0.00000E+00
 -1       455 6.11742E+01 2.82859E+01 0.00000E+00
 -1       456 6.14627E+01 3.00827E+01 0.00000E+00
 -1       457 6.23945E+01 3.22405E+01 0.00000E+00
 -1       458 6.33823E+01 3.37229E+01 0.00000E+00
 -1       459 6.51217E+01 3.53333E+01 0.00000E+00
 -1       460 6.67542E+01 3.62990E+01 0.00000E+00
 -1       461 6.89805E+01 3.73132E+01 0.00000E+00
 -1       462 7.10741E+01 3.69106E+01 0.00000E+00
 -1       463 7.29951E+01 3.68282E+01 0.00000E+00
 -1       464 7.52164E+01 3.59681E+01 0.00000E+00
 -1       465 7.67762E+01 3.47130E+01 0.00000E+00
 -1       466 7.83402E+01 3.33070E+01 0.00000E+00
 -1       467 7.94203E+01 3.15228E+01 0.00000E+00
 -1       468 8.01272E+01 2.97069E+01 0.00000E+00
 -1       469 7.53845E+01 1.90851E+01 0.00000E+00
 -1       470 7.87125E+01 2.02067E+01 0.00000E+00
 -1       471 6.35337E+01 3.53706E+01 0.00000E+00
 -1       472 6.09710E+01 3.15931E+01 0.00000E+00
 -1       473 6.22840E+01 2.06957E+01 0.00000E+00
 -1       474 1.00350E+01 6.60425E+00 0.00000E+00
 -1       475 7.79400E+00 3.08500E+01 0.00000E+00
 -1       476 7.79400E+00 3.38000E+01 0.00000E+00
 -1       477 7.79400E+00 2.49500E+01 0.00000E+00
 -1       478 7.79400E+00 2.20000E+01 0.00000E+00
 -1       479 7.79400E+00 1.91000E+01 0.00000E+00
 -1       480 7.79400E+00 1.61500E+01 0.00000E+00
 -1       481 7.79400E+00 1.32000E+01 0.00000E+00
 -1       482 7.79400E+00 1.02500E+01 0.00000E+00
 -1       483 1.30350E+01 6.60425E+00 0.00000E+00
 -1       484 1.06500E+01 4.22060E+01 0.00000E+00
 -1       485 7.49417E+01 1.73244E+01 0.00000E+00
 -1       486 1.36500E+01 4.22060E+01 0.00000E+00
 -1       487 1.66500E+01 4.22060E+01 0.00000E+00
 -1       488 1.96500E+01 4.22060E+01 0.00000E+00
 -1       489 2.26500E+01 4.22060E+01 0.00000E+00
 -1       490 2.56500E+01 4.22060E+01 0.00000E+00
 -1       491 2.86500E+01 4.22060E+01 0.00000E+00
 -1       492 3.16500E+01 4.22060E+01 0.00000E+00
 -1       493 3.46500E+01 4.22060E+01 0.00000E+00
 -1       494 3.76500E+01 4.22060E+01 0.00000E+00
 -1       495 4.06500E+01 4.22060E+01 0.00000E+00
 -1       496 4.36500E+01 4.22060E+01 0.00000E+00
 -1       497 4.66500E+01 4.22060E+01 0.00000E+00
 -1       498 4.96500E+01 4.22060E+01 0.00000E+00
 -1       499 5.26500E+01 4.22060E+01 0.00000E+00
 -1       500 5.56500E+01 4.22060E+01 0.00000E+00
 -1       501 5.86500E+01 4.22060E+01 0.00000E+00
 -1       502 6.16500E+01 4.22060E+01 0.00000E+00
 -1       503 6.46500E+01 4.22060E+01 0.00000E+00
 -1       504 6.76500E+01 4.22060E+01 0.00000E+00
 -1       505 7.06500E+01 4.22060E+01 0.00000E+00
 -1       506 7.36500E+01 4.22060E+01 0.00000E+00
 -1       507 7.66500E+01 4.22060E+01 0.00000E+00
 -1       508 7.96500E+01 4.22060E+01 0.00000E+00
 -1       509 8.26500E+01 4.22060E+01 0.00000E+00
 -1       510 8.56500E+01 4.22060E+01 0.00000E+00
 -1       511 8.86500E+01 4.22060E+01 0.00000E+00
 -1       512 9.16500E+01 4.22060E+01 0.00000E+00
 -1       513 9.46500E+01 4.22060E+01 0.00000E+00
 -1       514 9.76500E+01 4.22060E+01 0.00000E+00
 -1       515 1.00650E+02 4.22060E+01 0.00000E+00
 -1       516 1.03650E+02 4.22060E+01 0.00000E+00
 -1       517 1.06650E+02 4.22060E+01 0.00000E+00
 -1       518 1.09650E+02 4.22060E+01 0.00000E+00
 -1       519 1.12650E+02 4.22060E+01 0.00000E+00
 -1       520 1.15650E+02 4.22060E+01 0.00000E+00
 -1       521 1.18650E+02 4.22060E+01 0.00000E+00
 -1       522 1.21650E+02 4.22060E+01 0.00000E+00
 -1       523 1.24650E+02 4.22060E+01 0.00000E+00
 -1       524 1.27650E+02 4.22060E+01 0.00000E+00
 -1       525 1.30650E+02 4.22060E+01 0.00000E+00
 -1       526 1.33650E+02 4.22060E+01 0.00000E+00
 -1       527 1.36650E+02 4.22060E+01 0.00000E+00
 -1       528 1.39650E+02 4.22060E+01 0.00000E+00
 -1       529 1.90350E+01 6.60425E+00 0.00000E+00
 -1       530 2.20350E+01 6.60425E+00 0.00000E+00
 -1       531 2.50350E+01 6.60425E+00 0.00000E+00
 -1       532 2.80350E+01 6.60425E+00 0.00000E+00
 -1       533 3.10350E+01 6.60425E+00 0.00000E+00
 -1       534 3.40350E+01 6.60425E+00 0.00000E+00
 -1       535 3.70350E+01 6.60425E+00 0.00000E+00
 -1       536 4.00350E+01 6.60425E+00 0.00000E+00
 -1       537 4.30350E+01 6.60425E+00 0.00000E+00
 -1       538 4.60350E+01 6.60425E+00 0.00000E+00
 -1       539 4.90350E+01 6.60425E+00 0.00000E+00
 -1       540 5.20350E+01 6.60425E+00 0.00000E+00
 -1       541 5.50350E+01 6.60425E+00 0.00000E+00
 -1       542 5.80350E+01 6.60425E+00 0.00000E+00
 -1       543 6.10350E+01 6.60425E+00 0.00000E+00
 -1       544 6.40350E+01 6.60425E+00 0.00000E+00
 -1       545 6.70350E+01 6.60425E+00 0.00000E+00
 -1       546 7.00350E+01 6.60425E+00 0.00000E+00
 -1       547 7.30350E+01 6.60425E+00 0.00000E+00
 -1       548 7.60350E+01 6.60425E+00 0.00000E+00
 -1       549 7.90350E+01 6.60425E+00 0.00000E+00
 -1       550 8.20350E+01 6.60425E+00 0.00000E+00
 -1       551 8.50350E+01 6.60425E+00 0.00000E+00
 -1       552 8.80350E+01 6.60425E+00 0.00000E+00
 -1       553 9.10350E+01 6.60425E+00 0.00000E+00
 -1       554 9.40350E+01 6.60425E+00 0.00000E+00
 -1       555 9.70350E+01 6.60425E+00 0.00000E+00
 -1       556 1.00035E+02 6.60425E+00 0.00000E+00
 -1       557 1.03035E+02 6.60425E+00 0.00000E+00
 -1       558 1.06035E+02 6.60425E+00 0.00000E+00
 -1       559 1.09035E+02 6.60425E+00 0.00000E+00
 -1       560 1.12035E+02 6.60425E+00 0.00000E+00
 -1       561 1.15035E+02 6.60425E+00 0.00000E+00
 -1       562 1.18035E+02 6.60425E+00 0.00000E+00
 -1       563 1.21035E+02 6.60425E+00 0.00000E+00
 -1       564 1.24035E+02 6.60425E+00 0.00000E+00
 -1       565 1.27035E+02 6.60425E+00 0.00000E+00
 -1       566 1.30035E+02 6.60425E+00 0.00000E+00
 -1       567 1.33035E+02 6.60425E+00 0.00000E+00
 -1       568 1.36035E+02 6.60425E+00 0.00000E+00
 -1       569 1.39035E+02 6.60425E+00 0.00000E+00
 -1       570 1.42035E+02 6.60425E+00 0.00000E+00
 -1       571 1.42206E+02 1.61750E+01 0.00000E+00
 -1       572 1.42206E+02 1.91250E+01 0.00000E+00
 -1       573 1.42206E+02 1.03250E+01 0.00000E+00
 -1       574 1.42206E+02 1.32500E+01 0.00000E+00
 -1       575 1.42206E+02 2.20750E+01 0.00000E+00
 -1       576 1.42206E+02 2.50250E+01 0.00000E+00
 -1       577 1.42206E+02 2.79750E+01 0.00000E+00
 -1       578 1.42206E+02 3.08750E+01 0.00000E+00
 -1       579 1.42206E+02 3.38250E+01 0.00000E+00
 -1       580 1.42206E+02 3.67750E+01 0.00000E+00
 -1       581 1.42206E+02 3.97250E+01 0.00000E+00
 -1       582 8.18281E+01 2.62958E+01 0.00000E+00
 -1       583 8.07500E+01 2.22130E+01 0.00000E+00
 -1       584 1.60350E+01 6.60425E+00 0.00000E+00
 -1       585 8.17723E+01 2.85748E+01 0.00000E+00
 -1       586 8.13913E+01 2.39362E+01 0.00000E+00
 -1       587 7.92300E+00 4.16780E+01 0.00000E+00
 -1       588 8.12159E+01 3.11763E+01 0.00000E+00
 -1       589 5.94539E+01 2.71669E+01 0.00000E+00
 -1       590 6.56925E+01 1.75725E+01 0.00000E+00
 -1       591 7.79400E+00 2.79000E+01 0.00000E+00
 -1       592 6.75464E+01 1.65468E+01 0.00000E+00
 -1       593 7.26598E+01 1.64451E+01 0.00000E+00
 -1       594 6.05716E+01 2.27558E+01 0.00000E+00
 -1       595 7.05849E+01 1.59683E+01 0.00000E+00
 -1       596 6.36795E+01 1.86952E+01 0.00000E+00
 -1       597 7.03512E+01 3.87961E+01 0.00000E+00
 -1       598 6.00256E+01 2.45904E+01 0.00000E+00
 -1       599 5.98732E+01 2.94163E+01 0.00000E+00
 -1       600 6.16006E+01 3.38398E+01 0.00000E+00
 -1       601 6.50647E+01 3.72923E+01 0.00000E+00
 -1       602 6.70174E+01 3.86719E+01 0.00000E+00
 -1       603 7.22722E+01 3.87137E+01 0.00000E+00
 -1       604 7.46948E+01 3.79194E+01 0.00000E+00
 -1       605 7.70714E+01 3.66768E+01 0.00000E+00
 -1       606 7.86355E+01 3.52708E+01 0.00000E+00
 -1       607 8.03475E+01 3.33031E+01 0.00000E+00
 -1       608 7.69880E+01 1.84558E+01 0.00000E+00
 -1       609 7.61550E+00 6.21462E+00 0.00000E+00
 -1       610 6.89354E+01 1.50829E+01 0.00000E+00
 -1       611 7.79400E+00 3.67375E+01 0.00000E+00
 -1       612 8.06429E+01 2.06262E+01 0.00000E+00
 -1       613 6.17520E+01 3.54875E+01 0.00000E+00
 -1       614 6.04978E+01 2.11235E+01 0.00000E+00
 -1       615 5.93815E+01 3.09267E+01 0.00000E+00
 -1       616 1.41678E+02 4.22645E+01 0.00000E+00
 -1       617 1.03920E+01 2.05500E+01 0.00000E+00
 -1       618 1.03920E+01 2.35000E+01 0.00000E+00
 -1       619 1.03920E+01 1.46750E+01 0.00000E+00
 -1       620 1.03920E+01 1.17250E+01 0.00000E+00
 -1       621 1.15350E+01 9.20225E+00 0.00000E+00
 -1       622 6.37689E+01 1.64896E+01 0.00000E+00
 -1       623 8.09118E+01 3.55227E+01 0.00000E+00
 -1       624 7.69569E+01 1.60959E+01 0.00000E+00
 -1       625 1.51500E+01 3.96080E+01 0.00000E+00
 -1       626 1.81500E+01 3.96080E+01 0.00000E+00
 -1       627 2.11500E+01 3.96080E+01 0.00000E+00
 -1       628 2.41500E+01 3.96080E+01 0.00000E+00
 -1       629 2.71500E+01 3.96080E+01 0.00000E+00
 -1       630 3.01500E+01 3.96080E+01 0.00000E+00
 -1       631 3.31500E+01 3.96080E+01 0.00000E+00
 -1       632 3.61500E+01 3.96080E+01 0.00000E+00
 -1       633 3.91500E+01 3.96080E+01 0.00000E+00
 -1       634 4.21500E+01 3.96080E+01 0.00000E+00
 -1       635 4.51500E+01 3.96080E+01 0.00000E+00
 -1       636 4.81500E+01 3.96080E+01 0.00000E+00
 -1       637 5.11500E+01 3.96080E+01 0.00000E+00
 -1       638 5.41500E+01 3.96080E+01 0.00000E+00
 -1       639 5.71500E+01 3.96080E+01 0.00000E+00
 -1       640 6.01500E+01 3.96080E+01 0.00000E+00
 -1       641 6.31500E+01 3.96080E+01 0.00000E+00
 -1       642 7.51500E+01 3.96530E+01 0.00000E+00
 -1       643 7.81500E+01 3.96530E+01 0.00000E+00
 -1       644 8.11500E+01 3.96530E+01 0.00000E+00
 -1       645 8.41500E+01 3.96530E+01 0.00000E+00
 -1       646 8.71500E+01 3.96530E+01 0.00000E+00
 -1       647 9.01500E+01 3.96530E+01 0.00000E+00
 -1       648 9.31500E+01 3.96530E+01 0.00000E+00
 -1       649 9.61500E+01 3.96530E+01 0.00000E+00
 -1       650 9.91500E+01 3.96530E+01 0.00000E+00
 -1       651 1.02150E+02 3.96530E+01 0.00000E+00
 -1       652 1.05150E+02 3.96530E+01 0.00000E+00
 -1       653 1.08150E+02 3.96530E+01 0.00000E+00
 -1       654 1.11150E+02 3.96530E+01 0.00000E+00
 -1       655 1.14150E+02 3.96530E+01 0.00000E+00
 -1       656 1.17150E+02 3.96530E+01 0.00000E+00
 -1       657 1.20150E+02 3.96530E+01 0.00000E+00
 -1       658 1.23150E+02 3.96530E+01 0.00000E+00
 -1       659 1.26150E+02 3.96530E+01 0.00000E+00
 -1       660 1.29150E+02 3.96530E+01 0.00000E+00
 -1       661 1.32150E+02 3.96530E+01 0.00000E+00
 -1       662 1.35150E+02 3.96530E+01 0.00000E+00
 -1       663 1.38150E+02 3.96530E+01 0.00000E+00
 -1       664 2.35350E+01 9.20225E+00 0.00000E+00
 -1       665 2.05350E+01 9.20225E+00 0.00000E+00
 -1       666 2.95350E+01 9.20225E+00 0.00000E+00
 -1       667 3.25350E+01 9.20225E+00 0.00000E+00
 -1       668 3.55350E+01 9.20225E+00 0.00000E+00
 -1       669 3.85350E+01 9.20225E+00 0.00000E+00
 -1       670 4.15350E+01 9.20225E+00 0.00000E+00
 -1       671 4.45350E+01 9.20225E+00 0.00000E+00
 -1       672 4.75350E+01 9.20225E+00 0.00000E+00
 -1       673 5.05350E+01 9.20225E+00 0.00000E+00
 -1       674 5.35350E+01 9.20225E+00 0.00000E+00
 -1       675 5.65350E+01 9.20225E+00 0.00000E+00
 -1       676 5.95350E+01 9.20225E+00 0.00000E+00
 -1       677 6.25350E+01 9.20225E+00 0.00000E+00
 -1       678 6.55350E+01 9.20225E+00 0.00000E+00
 -1       679 6.85350E+01 9.20225E+00 0.00000E+00
 -1       680 7.15350E+01 9.20225E+00 0.00000E+00
 -1       681 7.45350E+01 9.20225E+00 0.00000E+00
 -1       682 7.75350E+01 9.20225E+00 0.00000E+00
 -1       683 8.05350E+01 9.20225E+00 0.00000E+00
 -1       684 8.35350E+01 9.20225E+00 0.00000E+00
 -1       685 8.65350E+01 9.20225E+00 0.00000E+00
 -1       686 8.95350E+01 9.20225E+00 0.00000E+00
 -1       687 9.25350E+01 9.20225E+00 0.00000E+00
 -1       688 9.55350E+01 9.20225E+00 0.00000E+00
 -1       689 9.85350E+01 9.20225E+00 0.00000E+00
 -1       690 1.01535E+02 9.20225E+00 0.00000E+00
 -1       691 1.04535E+02 9.20225E+00 0.00000E+00
 -1       692 1.07535E+02 9.20225E+00 0.00000E+00
 -1       693 1.10535E+02 9.20225E+00 0.00000E+00
 -1       694 1.13535E+02 9.20225E+00 0.00000E+00
 -1       695 1.16535E+02 9.20225E+00 0.00000E+00
 -1       696 1.19535E+02 9.20225E+00 0.00000E+00
 -1       697 1.22535E+02 9.20225E+00 0.00000E+00
 -1       698 1.25535E+02 9.20225E+00 0.00000E+00
 -1       699 1.28535E+02 9.20225E+00 0.00000E+00
 -1       700 1.31535E+02 9.20225E+00 0.00000E+00
 -1       701 1.34535E+02 9.20225E+00 0.00000E+00
 -1       702 1.37535E+02 9.20225E+00 0.00000E+00
 -1       703 1.39870E+02 9.76363E+00 0.00000E+00
 -1       704 1.39608E+02 2.35500E+01 0.00000E+00
 -1       705 1.40178E+02 3.96890E+01 0.00000E+00
 -1       706 1.39608E+02 1.76500E+01 0.00000E+00
 -1       707 1.39608E+02 2.65000E+01 0.00000E+00
 -1       708 1.39608E+02 2.06000E+01 0.00000E+00
 -1       709 8.31713E+01 3.02342E+01 0.00000E+00
 -1       710 1.39608E+02 2.94000E+01 0.00000E+00
 -1       711 1.39608E+02 3.23500E+01 0.00000E+00
 -1       712 1.39608E+02 3.53000E+01 0.00000E+00
 -1       713 9.78035E+00 3.93914E+01 0.00000E+00
 -1       714 8.33473E+01 2.74732E+01 0.00000E+00
 -1       715 8.31492E+01 2.23010E+01 0.00000E+00
 -1       716 6.14376E+01 1.86183E+01 0.00000E+00
 -1       717 8.35859E+01 2.46606E+01 0.00000E+00
 -1       718 1.75350E+01 9.20225E+00 0.00000E+00
 -1       719 2.65350E+01 9.20225E+00 0.00000E+00
 -1       720 1.24652E+01 3.94997E+01 0.00000E+00
 -1       721 1.45350E+01 9.20225E+00 0.00000E+00
 -1       722 5.82289E+01 2.55434E+01 0.00000E+00
 -1       723 5.79775E+01 2.86059E+01 0.00000E+00
 -1       724 1.03920E+01 1.76125E+01 0.00000E+00
 -1       725 8.23695E+01 3.28880E+01 0.00000E+00
 -1       726 1.03920E+01 3.23250E+01 0.00000E+00
 -1       727 6.56228E+01 1.54639E+01 0.00000E+00
 -1       728 5.87351E+01 2.32077E+01 0.00000E+00
 -1       729 6.24510E+01 3.75478E+01 0.00000E+00
 -1       730 7.46751E+01 1.52166E+01 0.00000E+00
 -1       731 5.93116E+01 3.32697E+01 0.00000E+00
 -1       732 7.90125E+01 1.81866E+01 0.00000E+00
 -1       733 7.91121E+01 3.73739E+01 0.00000E+00
 -1       734 7.20816E+01 1.42085E+01 0.00000E+00
 -1       735 1.03920E+01 3.52625E+01 0.00000E+00
 -1       736 1.03920E+01 2.64500E+01 0.00000E+00
 -1       737 5.67525E+01 2.69824E+01 0.00000E+00
 -1       738 5.86612E+01 2.15754E+01 0.00000E+00
 -1       739 8.09429E+01 1.86060E+01 0.00000E+00
 -1       740 6.70119E+01 1.40000E+01 0.00000E+00
 -1       741 1.39608E+02 1.47250E+01 0.00000E+00
 -1       742 8.30421E+01 2.07141E+01 0.00000E+00
 -1       743 1.39739E+02 1.22443E+01 0.00000E+00
 -1       744 1.38879E+02 3.74765E+01 0.00000E+00
 -1       745 7.04321E+01 1.33232E+01 0.00000E+00
 -1       746 6.15271E+01 1.64127E+01 0.00000E+00
 -1       747 1.03920E+01 2.93875E+01 0.00000E+00
 -1       748 5.74858E+01 3.01163E+01 0.00000E+00
 -1       749 5.94630E+01 3.49174E+01 0.00000E+00
 -1       750 1.29900E+01 1.32000E+01 0.00000E+00
 -1       751 7.93272E+01 1.58213E+01 0.00000E+00
 -1       752 1.96500E+01 3.70100E+01 0.00000E+00
 -1       753 2.26500E+01 3.70100E+01 0.00000E+00
 -1       754 2.56500E+01 3.70100E+01 0.00000E+00
 -1       755 2.86500E+01 3.70100E+01 0.00000E+00
 -1       756 3.16500E+01 3.70100E+01 0.00000E+00
 -1       757 3.46500E+01 3.70100E+01 0.00000E+00
 -1       758 3.76500E+01 3.70100E+01 0.00000E+00
 -1       759 4.06500E+01 3.70100E+01 0.00000E+00
 -1       760 4.36500E+01 3.70100E+01 0.00000E+00
 -1       761 4.66500E+01 3.70100E+01 0.00000E+00
 -1       762 4.96500E+01 3.70100E+01 0.00000E+00
 -1       763 5.26500E+01 3.70100E+01 0.00000E+00
 -1       764 5.56500E+01 3.70100E+01 0.00000E+00
 -1       765 8.26500E+01 3.70550E+01 0.00000E+00
 -1       766 8.56500E+01 3.70550E+01 0.00000E+00
 -1       767 8.86500E+01 3.70550E+01 0.00000E+00
 -1       768 9.16500E+01 3.70550E+01 0.00000E+00
 -1       769 9.46500E+01 3.70550E+01 0.00000E+00
 -1       770 9.76500E+01 3.70550E+01 0.00000E+00
 -1       771 1.00650E+02 3.70550E+01 0.00000E+00
 -1       772 1.03650E+02 3.70550E+01 0.00000E+00
 -1       773 1.06650E+02 3.70550E+01 0.00000E+00
 -1       774 1.09650E+02 3.70550E+01 0.00000E+00
 -1       775 1.12650E+02 3.70550E+01 0.00000E+00
 -1       776 1.15650E+02 3.70550E+01 0.00000E+00
 -1       777 1.18650E+02 3.70550E+01 0.00000E+00
 -1       778 1.21650E+02 3.70550E+01 0.00000E+00
 -1       779 1.24650E+02 3.70550E+01 0.00000E+00
 -1       780 1.27650E+02 3.70550E+01 0.00000E+00
 -1       781 1.30650E+02 3.70550E+01 0.00000E+00
 -1       782 1.33650E+02 3.70550E+01 0.00000E+00
 -1       783 1.36264E+02 3.72658E+01 0.00000E+00
 -1       784 3.40350E+01 1.18003E+01 0.00000E+00
 -1       785 3.10350E+01 1.18003E+01 0.00000E+00
 -1       786 4.00350E+01 1.18003E+01 0.00000E+00
 -1       787 4.30350E+01 1.18003E+01 0.00000E+00
 -1       788 4.60350E+01 1.18003E+01 0.00000E+00
 -1       789 4.90350E+01 1.18003E+01 0.00000E+00
 -1       790 5.20350E+01 1.18003E+01 0.00000E+00
 -1       791 5.50350E+01 1.18003E+01 0.00000E+00
 -1       792 5.80350E+01 1.18003E+01 0.00000E+00
 -1       793 6.10350E+01 1.18003E+01 0.00000E+00
 -1       794 6.40350E+01 1.18003E+01 0.00000E+00
 -1       795 7.60350E+01 1.17552E+01 0.00000E+00
 -1       796 7.90350E+01 1.17552E+01 0.00000E+00
 -1       797 8.20350E+01 1.17552E+01 0.00000E+00
 -1       798 8.50350E+01 1.17552E+01 0.00000E+00
 -1       799 8.80350E+01 1.17552E+01 0.00000E+00
 -1       800 9.10350E+01 1.17552E+01 0.00000E+00
 -1       801 9.40350E+01 1.17552E+01 0.00000E+00
 -1       802 9.70350E+01 1.17552E+01 0.00000E+00
 -1       803 1.00035E+02 1.17552E+01 0.00000E+00
 -1       804 1.03035E+02 1.17552E+01 0.00000E+00
 -1       805 1.06035E+02 1.17552E+01 0.00000E+00
 -1       806 1.09035E+02 1.17552E+01 0.00000E+00
 -1       807 1.12035E+02 1.17552E+01 0.00000E+00
 -1       808 1.15035E+02 1.17552E+01 0.00000E+00
 -1       809 1.18035E+02 1.17552E+01 0.00000E+00
 -1       810 1.21035E+02 1.17552E+01 0.00000E+00
 -1       811 1.24035E+02 1.17552E+01 0.00000E+00
 -1       812 1.27035E+02 1.17552E+01 0.00000E+00
 -1       813 1.30035E+02 1.17552E+01 0.00000E+00
 -1       814 1.33035E+02 1.17552E+01 0.00000E+00
 -1       815 1.36035E+02 1.17552E+01 0.00000E+00
 -1       816 1.37887E+02 1.19998E+01 0.00000E+00
 -1       817 5.90481E+01 1.91507E+01 0.00000E+00
 -1       818 1.29900E+01 2.20250E+01 0.00000E+00
 -1       819 1.37010E+02 3.08750E+01 0.00000E+00
 -1       820 1.37010E+02 2.50250E+01 0.00000E+00
 -1       821 1.37010E+02 3.38250E+01 0.00000E+00
 -1       822 1.37010E+02 2.79500E+01 0.00000E+00
 -1       823 8.59221E+01 2.30079E+01 0.00000E+00
 -1       824 6.36222E+01 1.40361E+01 0.00000E+00
 -1       825 3.70350E+01 1.18003E+01 0.00000E+00
 -1       826 8.51381E+01 2.89735E+01 0.00000E+00
 -1       827 1.90350E+01 1.18003E+01 0.00000E+00
 -1       828 2.20350E+01 1.18003E+01 0.00000E+00
 -1       829 5.74159E+01 3.24593E+01 0.00000E+00
 -1       830 1.66500E+01 3.70100E+01 0.00000E+00
 -1       831 8.56765E+01 2.62544E+01 0.00000E+00
 -1       832 7.66134E+01 1.35867E+01 0.00000E+00
 -1       833 8.34346E+01 3.51979E+01 0.00000E+00
 -1       834 7.40604E+01 1.29578E+01 0.00000E+00
 -1       835 1.37625E+01 1.12011E+01 0.00000E+00
 -1       836 8.44122E+01 3.20571E+01 0.00000E+00
 -1       837 5.64783E+01 2.39414E+01 0.00000E+00
 -1       838 1.29900E+01 2.49750E+01 0.00000E+00
 -1       839 5.59959E+01 2.88272E+01 0.00000E+00
 -1       840 8.12576E+01 1.62408E+01 0.00000E+00
 -1       841 5.64044E+01 2.23090E+01 0.00000E+00
 -1       842 1.37010E+02 1.61875E+01 0.00000E+00
 -1       843 1.29900E+01 3.37938E+01 0.00000E+00
 -1       844 1.39652E+01 3.69017E+01 0.00000E+00
 -1       845 7.33083E+01 1.17054E+01 0.00000E+00
 -1       846 1.29900E+01 1.61375E+01 0.00000E+00
 -1       847 8.58151E+01 2.14211E+01 0.00000E+00
 -1       848 2.50350E+01 1.18003E+01 0.00000E+00
 -1       849 2.80350E+01 1.18003E+01 0.00000E+00
 -1       850 1.29900E+01 1.90875E+01 0.00000E+00
 -1       851 1.37010E+02 1.91375E+01 0.00000E+00
 -1       852 1.37010E+02 2.20812E+01 0.00000E+00
 -1       853 5.91375E+01 1.69451E+01 0.00000E+00
 -1       854 5.75673E+01 3.41070E+01 0.00000E+00
 -1       855 1.36637E+02 3.55454E+01 0.00000E+00
 -1       856 1.63988E+01 1.15007E+01 0.00000E+00
 -1       857 1.29900E+01 3.08563E+01 0.00000E+00
 -1       858 8.35641E+01 1.80952E+01 0.00000E+00
 -1       859 8.66276E+01 3.39143E+01 0.00000E+00
 -1       860 8.81779E+01 2.48112E+01 0.00000E+00
 -1       861 2.41500E+01 3.44120E+01 0.00000E+00
 -1       862 2.71500E+01 3.44120E+01 0.00000E+00
 -1       863 3.01500E+01 3.44120E+01 0.00000E+00
 -1       864 3.31500E+01 3.44120E+01 0.00000E+00
 -1       865 3.61500E+01 3.44120E+01 0.00000E+00
 -1       866 3.91500E+01 3.44120E+01 0.00000E+00
 -1       867 4.21500E+01 3.44120E+01 0.00000E+00
 -1       868 4.51500E+01 3.44120E+01 0.00000E+00
 -1       869 4.81500E+01 3.44120E+01 0.00000E+00
 -1       870 5.11500E+01 3.44120E+01 0.00000E+00
 -1       871 5.41500E+01 3.44120E+01 0.00000E+00
 -1       872 5.67913E+01 1.98844E+01 0.00000E+00
 -1       873 8.35350E+01 1.43532E+01 0.00000E+00
 -1       874 8.96276E+01 3.39143E+01 0.00000E+00
 -1       875 9.26276E+01 3.39143E+01 0.00000E+00
 -1       876 9.56276E+01 3.39143E+01 0.00000E+00
 -1       877 9.86276E+01 3.39143E+01 0.00000E+00
 -1       878 1.01628E+02 3.39143E+01 0.00000E+00
 -1       879 1.04628E+02 3.39143E+01 0.00000E+00
 -1       880 1.07628E+02 3.39143E+01 0.00000E+00
 -1       881 1.10628E+02 3.39143E+01 0.00000E+00
 -1       882 1.13628E+02 3.39143E+01 0.00000E+00
 -1       883 1.16628E+02 3.39143E+01 0.00000E+00
 -1       884 1.19628E+02 3.39143E+01 0.00000E+00
 -1       885 1.22628E+02 3.39143E+01 0.00000E+00
 -1       886 1.25628E+02 3.39143E+01 0.00000E+00
 -1       887 1.28628E+02 3.39143E+01 0.00000E+00
 -1       888 1.31628E+02 3.39143E+01 0.00000E+00
 -1       889 4.75350E+01 1.43982E+01 0.00000E+00
 -1       890 4.45350E+01 1.43982E+01 0.00000E+00
 -1       891 4.15350E+01 1.43982E+01 0.00000E+00
 -1       892 5.05350E+01 1.43982E+01 0.00000E+00
 -1       893 5.35350E+01 1.43982E+01 0.00000E+00
 -1       894 5.65350E+01 1.43982E+01 0.00000E+00
 -1       895 8.65350E+01 1.43532E+01 0.00000E+00
 -1       896 8.95350E+01 1.43532E+01 0.00000E+00
 -1       897 9.25350E+01 1.43532E+01 0.00000E+00
 -1       898 9.55350E+01 1.43532E+01 0.00000E+00
 -1       899 9.85350E+01 1.43532E+01 0.00000E+00
 -1       900 1.01535E+02 1.43532E+01 0.00000E+00
 -1       901 1.04535E+02 1.43532E+01 0.00000E+00
 -1       902 1.07535E+02 1.43532E+01 0.00000E+00
 -1       903 1.10535E+02 1.43532E+01 0.00000E+00
 -1       904 1.13535E+02 1.43532E+01 0.00000E+00
 -1       905 1.16535E+02 1.43532E+01 0.00000E+00
 -1       906 1.19535E+02 1.43532E+01 0.00000E+00
 -1       907 1.22535E+02 1.43532E+01 0.00000E+00
 -1       908 1.25535E+02 1.43532E+01 0.00000E+00
 -1       909 1.28535E+02 1.43532E+01 0.00000E+00
 -1       910 1.31535E+02 1.43532E+01 0.00000E+00
 -1       911 1.34535E+02 1.43532E+01 0.00000E+00
 -1       912 3.25350E+01 1.43982E+01 0.00000E+00
 -1       913 5.46323E+01 2.71904E+01 0.00000E+00
 -1       914 1.37449E+02 1.40936E+01 0.00000E+00
 -1       915 6.00863E+01 1.43727E+01 0.00000E+00
 -1       916 1.34412E+02 3.23500E+01 0.00000E+00
 -1       917 5.54015E+01 3.12266E+01 0.00000E+00
 -1       918 2.05350E+01 1.43982E+01 0.00000E+00
 -1       919 5.55553E+01 2.55659E+01 0.00000E+00
 -1       920 7.92736E+01 1.31213E+01 0.00000E+00
 -1       921 1.29900E+01 2.79188E+01 0.00000E+00
 -1       922 8.73535E+01 3.08306E+01 0.00000E+00
 -1       923 1.81500E+01 3.44120E+01 0.00000E+00
 -1       924 2.11500E+01 3.44120E+01 0.00000E+00
 -1       925 8.78918E+01 2.81115E+01 0.00000E+00
 -1       926 5.40584E+01 2.32330E+01 0.00000E+00
 -1       927 8.86722E+01 2.18803E+01 0.00000E+00
 -1       928 5.55529E+01 3.28743E+01 0.00000E+00
 -1       929 5.40379E+01 2.95898E+01 0.00000E+00
 -1       930 5.68807E+01 1.76788E+01 0.00000E+00
 -1       931 1.34412E+02 2.64875E+01 0.00000E+00
 -1       932 3.85350E+01 1.43982E+01 0.00000E+00
 -1       933 8.63371E+01 1.88021E+01 0.00000E+00
 -1       934 2.95350E+01 1.43982E+01 0.00000E+00
 -1       935 1.34412E+02 2.35438E+01 0.00000E+00
 -1       936 3.55350E+01 1.43982E+01 0.00000E+00
 -1       937 1.34226E+02 1.73576E+01 0.00000E+00
 -1       938 1.34412E+02 2.94125E+01 0.00000E+00
 -1       939 1.55700E+01 3.41029E+01 0.00000E+00
 -1       940 2.35350E+01 1.43982E+01 0.00000E+00
 -1       941 1.75351E+01 1.43983E+01 0.00000E+00
 -1       942 1.55700E+01 3.11654E+01 0.00000E+00
 -1       943 1.55880E+01 2.05562E+01 0.00000E+00
 -1       944 1.55880E+01 2.35063E+01 0.00000E+00
 -1       945 1.46944E+01 1.38191E+01 0.00000E+00
 -1       946 1.31628E+02 3.09768E+01 0.00000E+00
 -1       947 5.44452E+01 2.08083E+01 0.00000E+00
 -1       948 9.09869E+01 2.37778E+01 0.00000E+00
 -1       949 2.86500E+01 3.18140E+01 0.00000E+00
 -1       950 3.16500E+01 3.18140E+01 0.00000E+00
 -1       951 3.46500E+01 3.18140E+01 0.00000E+00
 -1       952 3.76500E+01 3.18140E+01 0.00000E+00
 -1       953 4.06500E+01 3.18140E+01 0.00000E+00
 -1       954 4.36500E+01 3.18140E+01 0.00000E+00
 -1       955 4.66500E+01 3.18140E+01 0.00000E+00
 -1       956 4.96500E+01 3.18140E+01 0.00000E+00
 -1       957 1.81500E+01 3.14745E+01 0.00000E+00
 -1       958 8.80350E+01 1.69512E+01 0.00000E+00
 -1       959 9.11276E+01 3.13163E+01 0.00000E+00
 -1       960 9.41276E+01 3.13163E+01 0.00000E+00
 -1       961 9.71276E+01 3.13163E+01 0.00000E+00
 -1       962 1.00128E+02 3.13163E+01 0.00000E+00
 -1       963 1.03128E+02 3.13163E+01 0.00000E+00
 -1       964 1.06128E+02 3.13163E+01 0.00000E+00
 -1       965 1.09128E+02 3.13163E+01 0.00000E+00
 -1       966 1.12128E+02 3.13163E+01 0.00000E+00
 -1       967 1.15128E+02 3.13163E+01 0.00000E+00
 -1       968 1.18128E+02 3.13163E+01 0.00000E+00
 -1       969 1.21128E+02 3.13163E+01 0.00000E+00
 -1       970 1.24128E+02 3.13163E+01 0.00000E+00
 -1       971 1.27128E+02 3.13163E+01 0.00000E+00
 -1       972 1.29378E+02 3.11465E+01 0.00000E+00
 -1       973 5.20350E+01 1.69963E+01 0.00000E+00
 -1       974 4.90350E+01 1.69963E+01 0.00000E+00
 -1       975 4.30350E+01 1.69963E+01 0.00000E+00
 -1       976 8.97983E+01 2.99018E+01 0.00000E+00
 -1       977 1.55880E+01 1.76063E+01 0.00000E+00
 -1       978 9.10350E+01 1.69512E+01 0.00000E+00
 -1       979 9.40350E+01 1.69512E+01 0.00000E+00
 -1       980 9.70350E+01 1.69512E+01 0.00000E+00
 -1       981 1.00035E+02 1.69512E+01 0.00000E+00
 -1       982 1.03035E+02 1.69512E+01 0.00000E+00
 -1       983 1.06035E+02 1.69512E+01 0.00000E+00
 -1       984 1.09035E+02 1.69512E+01 0.00000E+00
 -1       985 1.12035E+02 1.69512E+01 0.00000E+00
 -1       986 1.15035E+02 1.69512E+01 0.00000E+00
 -1       987 1.18035E+02 1.69512E+01 0.00000E+00
 -1       988 1.21035E+02 1.69512E+01 0.00000E+00
 -1       989 1.24035E+02 1.69512E+01 0.00000E+00
 -1       990 1.27035E+02 1.69512E+01 0.00000E+00
 -1       991 1.30035E+02 1.69512E+01 0.00000E+00
 -1       992 1.55880E+01 2.64500E+01 0.00000E+00
 -1       993 1.90351E+01 1.69963E+01 0.00000E+00
 -1       994 5.31354E+01 2.48575E+01 0.00000E+00
 -1       995 2.65350E+01 1.43982E+01 0.00000E+00
 -1       996 1.31628E+02 2.80518E+01 0.00000E+00
 -1       997 1.55790E+01 2.88077E+01 0.00000E+00
 -1       998 1.34412E+02 2.06000E+01 0.00000E+00
 -1       999 2.26500E+01 3.18140E+01 0.00000E+00
 -1      1000 4.60350E+01 1.69963E+01 0.00000E+00
 -1      1001 2.56500E+01 3.18140E+01 0.00000E+00
 -1      1002 2.04000E+01 3.16443E+01 0.00000E+00
 -1      1003 9.03926E+01 2.68398E+01 0.00000E+00
 -1      1004 5.18962E+01 2.16448E+01 0.00000E+00
 -1      1005 9.14766E+01 2.08199E+01 0.00000E+00
 -1      1006 5.28870E+01 3.19350E+01 0.00000E+00
 -1      1007 5.45347E+01 1.86028E+01 0.00000E+00
 -1      1008 4.00350E+01 1.69963E+01 0.00000E+00
 -1      1009 1.30221E+02 2.01936E+01 0.00000E+00
 -1      1010 3.10350E+01 1.69963E+01 0.00000E+00
 -1      1011 1.31628E+02 2.51080E+01 0.00000E+00
 -1      1012 5.21824E+01 2.78568E+01 0.00000E+00
 -1      1013 1.81860E+01 1.90812E+01 0.00000E+00
 -1      1014 3.40350E+01 1.69963E+01 0.00000E+00
 -1      1015 5.09733E+01 2.32694E+01 0.00000E+00
 -1      1016 2.20351E+01 1.69963E+01 0.00000E+00
 -1      1017 1.81860E+01 2.20313E+01 0.00000E+00
 -1      1018 9.37949E+01 2.27232E+01 0.00000E+00
 -1      1019 5.09162E+01 2.98354E+01 0.00000E+00
 -1      1020 3.01500E+01 2.92160E+01 0.00000E+00
 -1      1021 3.31500E+01 2.92160E+01 0.00000E+00
 -1      1022 3.61500E+01 2.92160E+01 0.00000E+00
 -1      1023 3.91500E+01 2.92160E+01 0.00000E+00
 -1      1024 4.21500E+01 2.92160E+01 0.00000E+00
 -1      1025 4.51500E+01 2.92160E+01 0.00000E+00
 -1      1026 4.81500E+01 2.92160E+01 0.00000E+00
 -1      1027 1.81590E+01 2.91168E+01 0.00000E+00
 -1      1028 9.56276E+01 2.87183E+01 0.00000E+00
 -1      1029 9.86276E+01 2.87183E+01 0.00000E+00
 -1      1030 1.01628E+02 2.87183E+01 0.00000E+00
 -1      1031 1.04628E+02 2.87183E+01 0.00000E+00
 -1      1032 1.07628E+02 2.87183E+01 0.00000E+00
 -1      1033 1.10628E+02 2.87183E+01 0.00000E+00
 -1      1034 1.13628E+02 2.87183E+01 0.00000E+00
 -1      1035 1.16628E+02 2.87183E+01 0.00000E+00
 -1      1036 1.19628E+02 2.87183E+01 0.00000E+00
 -1      1037 1.22628E+02 2.87183E+01 0.00000E+00
 -1      1038 1.25628E+02 2.87183E+01 0.00000E+00
 -1      1039 5.05350E+01 1.95942E+01 0.00000E+00
 -1      1040 9.55350E+01 1.95492E+01 0.00000E+00
 -1      1041 2.80350E+01 1.69963E+01 0.00000E+00
 -1      1042 9.85350E+01 1.95492E+01 0.00000E+00
 -1      1043 1.01535E+02 1.95492E+01 0.00000E+00
 -1      1044 1.04535E+02 1.95492E+01 0.00000E+00
 -1      1045 1.07535E+02 1.95492E+01 0.00000E+00
 -1      1046 1.10535E+02 1.95492E+01 0.00000E+00
 -1      1047 1.13535E+02 1.95492E+01 0.00000E+00
 -1      1048 1.16535E+02 1.95492E+01 0.00000E+00
 -1      1049 1.19535E+02 1.95492E+01 0.00000E+00
 -1      1050 1.22535E+02 1.95492E+01 0.00000E+00
 -1      1051 1.25535E+02 1.95492E+01 0.00000E+00
 -1      1052 1.27878E+02 1.98714E+01 0.00000E+00
 -1      1053 1.81860E+01 2.49750E+01 0.00000E+00
 -1      1054 5.00202E+01 2.62686E+01 0.00000E+00
 -1      1055 2.71500E+01 2.92160E+01 0.00000E+00
 -1      1056 1.29378E+02 2.82215E+01 0.00000E+00
 -1      1057 1.30924E+02 2.26508E+01 0.00000E+00
 -1      1058 2.41500E+01 2.92160E+01 0.00000E+00
 -1      1059 2.50350E+01 1.69963E+01 0.00000E+00
 -1      1060 3.70350E+01 1.69963E+01 0.00000E+00
 -1      1061 2.11860E+01 1.90812E+01 0.00000E+00
 -1      1062 9.26276E+01 2.87633E+01 0.00000E+00
 -1      1063 2.04090E+01 2.92866E+01 0.00000E+00
 -1      1064 4.15350E+01 1.95942E+01 0.00000E+00
 -1      1065 4.75350E+01 1.95942E+01 0.00000E+00
 -1      1066 1.27503E+02 2.84699E+01 0.00000E+00
 -1      1067 4.45350E+01 1.95942E+01 0.00000E+00
 -1      1068 1.29378E+02 2.52778E+01 0.00000E+00
 -1      1069 2.95350E+01 1.95942E+01 0.00000E+00
 -1      1070 3.25350E+01 1.95942E+01 0.00000E+00
 -1      1071 1.81725E+01 2.70459E+01 0.00000E+00
 -1      1072 9.32112E+01 2.57433E+01 0.00000E+00
 -1      1073 4.88962E+01 2.16448E+01 0.00000E+00
 -1      1074 9.71276E+01 2.61203E+01 0.00000E+00
 -1      1075 3.16500E+01 2.66180E+01 0.00000E+00
 -1      1076 2.04225E+01 2.72157E+01 0.00000E+00
 -1      1077 2.15076E+01 2.24087E+01 0.00000E+00
 -1      1078 9.67949E+01 2.27232E+01 0.00000E+00
 -1      1079 3.46500E+01 2.66180E+01 0.00000E+00
 -1      1080 3.76500E+01 2.66180E+01 0.00000E+00
 -1      1081 4.06500E+01 2.66180E+01 0.00000E+00
 -1      1082 4.36500E+01 2.66180E+01 0.00000E+00
 -1      1083 4.66500E+01 2.66180E+01 0.00000E+00
 -1      1084 2.86500E+01 2.66180E+01 0.00000E+00
 -1      1085 1.00128E+02 2.61203E+01 0.00000E+00
 -1      1086 1.03128E+02 2.61203E+01 0.00000E+00
 -1      1087 1.06128E+02 2.61203E+01 0.00000E+00
 -1      1088 1.09128E+02 2.61203E+01 0.00000E+00
 -1      1089 1.12128E+02 2.61203E+01 0.00000E+00
 -1      1090 1.15128E+02 2.61203E+01 0.00000E+00
 -1      1091 1.18128E+02 2.61203E+01 0.00000E+00
 -1      1092 1.21128E+02 2.61203E+01 0.00000E+00
 -1      1093 1.24128E+02 2.61203E+01 0.00000E+00
 -1      1094 2.56500E+01 2.66180E+01 0.00000E+00
 -1      1095 9.97949E+01 2.27232E+01 0.00000E+00
 -1      1096 1.02795E+02 2.27232E+01 0.00000E+00
 -1      1097 1.05795E+02 2.27232E+01 0.00000E+00
 -1      1098 1.08795E+02 2.27232E+01 0.00000E+00
 -1      1099 1.11795E+02 2.27232E+01 0.00000E+00
 -1      1100 1.14795E+02 2.27232E+01 0.00000E+00
 -1      1101 1.17795E+02 2.27232E+01 0.00000E+00
 -1      1102 1.20795E+02 2.27232E+01 0.00000E+00
 -1      1103 1.23795E+02 2.27232E+01 0.00000E+00
 -1      1104 4.77731E+01 2.41314E+01 0.00000E+00
 -1      1105 2.65350E+01 1.95943E+01 0.00000E+00
 -1      1106 3.85350E+01 1.95942E+01 0.00000E+00
 -1      1107 2.30362E+01 2.69168E+01 0.00000E+00
 -1      1108 2.32713E+01 1.97025E+01 0.00000E+00
 -1      1109 4.30350E+01 2.21922E+01 0.00000E+00
 -1      1110 1.28581E+02 2.23286E+01 0.00000E+00
 -1      1111 1.26003E+02 2.58719E+01 0.00000E+00
 -1      1112 3.10350E+01 2.21922E+01 0.00000E+00
 -1      1113 3.55350E+01 1.95942E+01 0.00000E+00
 -1      1114 1.26188E+02 2.25259E+01 0.00000E+00
 -1      1115 4.64119E+01 2.20808E+01 0.00000E+00
 -1      1116 1.27690E+02 2.55748E+01 0.00000E+00
 -1      1117 2.80350E+01 2.21923E+01 0.00000E+00
 -1      1118 4.00350E+01 2.21922E+01 0.00000E+00
 -1      1119 3.61500E+01 2.40200E+01 0.00000E+00
 -1      1120 3.40350E+01 2.21922E+01 0.00000E+00
 -1      1121 2.45660E+01 2.24741E+01 0.00000E+00
 -1      1122 0.00000E+00 4.85250E+01 0.00000E+00
 -1      1123 0.00000E+00 4.55750E+01 0.00000E+00
 -1      1124 0.00000E+00 4.26250E+01 0.00000E+00
 -1      1125 0.00000E+00 3.96750E+01 0.00000E+00
 -1      1126 0.00000E+00 3.67250E+01 0.00000E+00
 -1      1127 0.00000E+00 3.38000E+01 0.00000E+00
 -1      1128 0.00000E+00 3.08750E+01 0.00000E+00
 -1      1129 0.00000E+00 2.79250E+01 0.00000E+00
 -1      1130 0.00000E+00 2.49750E+01 0.00000E+00
 -1      1131 0.00000E+00 2.20250E+01 0.00000E+00
 -1      1132 0.00000E+00 1.90750E+01 0.00000E+00
 -1      1133 0.00000E+00 1.61500E+01 0.00000E+00
 -1      1134 0.00000E+00 1.32250E+01 0.00000E+00
 -1      1135 0.00000E+00 1.02750E+01 0.00000E+00
 -1      1136 0.00000E+00 7.32500E+00 0.00000E+00
 -1      1137 0.00000E+00 4.37500E+00 0.00000E+00
 -1      1138 0.00000E+00 1.45000E+00 0.00000E+00
 -1      1139 1.57500E+00 5.00000E+01 0.00000E+00
 -1      1140 4.65000E+00 5.00000E+01 0.00000E+00
 -1      1141 7.65000E+00 5.00000E+01 0.00000E+00
 -1      1142 1.06500E+01 5.00000E+01 0.00000E+00
 -1      1143 1.36500E+01 5.00000E+01 0.00000E+00
 -1      1144 1.66500E+01 5.00000E+01 0.00000E+00
 -1      1145 1.96500E+01 5.00000E+01 0.00000E+00
 -1      1146 2.26500E+01 5.00000E+01 0.00000E+00
 -1      1147 2.56500E+01 5.00000E+01 0.00000E+00
 -1      1148 2.86500E+01 5.00000E+01 0.00000E+00
 -1      1149 3.16500E+01 5.00000E+01 0.00000E+00
 -1      1150 3.46500E+01 5.00000E+01 0.00000E+00
 -1      1151 3.76500E+01 5.00000E+01 0.00000E+00
 -1      1152 4.06500E+01 5.00000E+01 0.00000E+00
 -1      1153 4.36500E+01 5.00000E+01 0.00000E+00
 -1      1154 4.66500E+01 5.00000E+01 0.00000E+00
 -1      1155 4.96500E+01 5.00000E+01 0.00000E+00
 -1      1156 5.26500E+01 5.00000E+01 0.00000E+00
 -1      1157 5.56500E+01 5.00000E+01 0.00000E+00
 -1      1158 5.86500E+01 5.00000E+01 0.00000E+00
 -1      1159 6.16500E+01 5.00000E+01 0.00000E+00
 -1      1160 6.46500E+01 5.00000E+01 0.00000E+00
 -1      1161 6.76500E+01 5.00000E+01 0.00000E+00
 -1      1162 7.06500E+01 5.00000E+01 0.00000E+00
 -1      1163 7.36500E+01 5.00000E+01 0.00000E+00
 -1      1164 7.66500E+01 5.00000E+01 0.00000E+00
 -1      1165 7.96500E+01 5.00000E+01 0.00000E+00
 -1      1166 8.26500E+01 5.00000E+01 0.00000E+00
 -1      1167 8.56500E+01 5.00000E+01 0.00000E+00
 -1      1168 8.86500E+01 5.00000E+01 0.00000E+00
 -1      1169 9.16500E+01 5.00000E+01 0.00000E+00
 -1      1170 9.46500E+01 5.00000E+01 0.00000E+00
 -1      1171 9.76500E+01 5.00000E+01 0.00000E+00
 -1      1172 1.00650E+02 5.00000E+01 0.00000E+00
 -1      1173 1.03650E+02 5.00000E+01 0.00000E+00
 -1      1174 1.06650E+02 5.00000E+01 0.00000E+00
 -1      1175 1.09650E+02 5.00000E+01 0.00000E+00
 -1      1176 1.12650E+02 5.00000E+01 0.00000E+00
 -1      1177 1.15650E+02 5.00000E+01 0.00000E+00
 -1      1178 1.18650E+02 5.00000E+01 0.00000E+00
 -1      1179 1.21650E+02 5.00000E+01 0.00000E+00
 -1      1180 1.24650E+02 5.00000E+01 0.00000E+00
 -1      1181 1.27650E+02 5.00000E+01 0.00000E+00
 -1      1182 1.30650E+02 5.00000E+01 0.00000E+00
 -1      1183 1.33650E+02 5.00000E+01 0.00000E+00
 -1      1184 1.36650E+02 5.00000E+01 0.00000E+00
 -1      1185 1.39650E+02 5.00000E+01 0.00000E+00
 -1      1186 1.42650E+02 5.00000E+01 0.00000E+00
 -1      1187 1.45650E+02 5.00000E+01 0.00000E+00
 -1      1188 1.48575E+02 5.00000E+01 0.00000E+00
 -1      1189 1.57500E+00 0.00000E+00 0.00000E+00
 -1      1190 4.65000E+00 0.00000E+00 0.00000E+00
 -1      1191 7.65000E+00 0.00000E+00 0.00000E+00
 -1      1192 1.06500E+01 0.00000E+00 0.00000E+00
 -1      1193 1.36500E+01 0.00000E+00 0.00000E+00
 -1      1194 1.66500E+01 0.00000E+00 0.00000E+00
 -1      1195 1.96500E+01 0.00000E+00 0.00000E+00
 -1      1196 2.26500E+01 0.00000E+00 0.00000E+00
 -1      1197 2.56500E+01 0.00000E+00 0.00000E+00
 -1      1198 2.86500E+01 0.00000E+00 0.00000E+00
 -1      1199 3.16500E+01 0.00000E+00 0.00000E+00
 -1      1200 3.46500E+01 0.00000E+00 0.00000E+00
 -1      1201 3.76500E+01 0.00000E+00 0.00000E+00
 -1      1202 4.06500E+01 0.00000E+00 0.00000E+00
 -1      1203 4.36500E+01 0.00000E+00 0.00000E+00
 -1      1204 4.66500E+01 0.00000E+00 0.00000E+00
 -1      1205 4.96500E+01 0.00000E+00 0.00000E+00
 -1      1206 5.26500E+01 0.00000E+00 0.00000E+00
 -1      1207 5.56500E+01 0.00000E+00 0.00000E+00
 -1      1208 5.86500E+01 0.00000E+00 0.00000E+00
 -1      1209 6.16500E+01 0.00000E+00 0.00000E+00
 -1      1210 6.46500E+01 0.00000E+00 0.00000E+00
 -1      1211 6.76500E+01 0.00000E+00 0.00000E+00
 -1      1212 7.06500E+01 0.00000E+00 0.00000E+00
 -1      1213 7.36500E+01 0.00000E+00 0.00000E+00
 -1      1214 7.66500E+01 0.00000E+00 0.00000E+00
 -1      1215 7.96500E+01 0.00000E+00 0.00000E+00
 -1      1216 8.26500E+01 0.00000E+00 0.00000E+00
 -1      1217 8.56500E+01 0.00000E+00 0.00000E+00
 -1      1218 8.86500E+01 0.00000E+00 0.00000E+00
 -1      1219 9.16500E+01 0.00000E+00 0.00000E+00
 -1      1220 9.46500E+01 0.00000E+00 0.00000E+00
 -1      1221 9.76500E+01 0.00000E+00 0.00000E+00
 -1      1222 1.00650E+02 0.00000E+00 0.00000E+00
 -1      1223 1.03650E+02 0.00000E+00 0.00000E+00
 -1      1224 1.06650E+02 0.00000E+00 0.00000E+00
 -1      1225 1.09650E+02 0.00000E+00 0.00000E+00
 -1      1226 1.12650E+02 0.00000E+00 0.00000E+00
 -1      1227 1.15650E+02 0.00000E+00 0.00000E+00
 -1      1228 1.18650E+02 0.00000E+00 0.00000E+00
 -1      1229 1.21650E+02 0.00000E+00 0.00000E+00
 -1      1230 1.24650E+02 0.00000E+00 0.00000E+00
 -1      1231 1.27650E+02 0.00000E+00 0.00000E+00
 -1      1232 1.30650E+02 0.00000E+00 0.00000E+00
 -1      1233 1.33650E+02 0.00000E+00 0.00000E+00
 -1      1234 1.36650E+02 0.00000E+00 0.00000E+00
 -1      1235 1.39650E+02 0.00000E+00 0.00000E+00
 -1      1236 1.42650E+02 0.00000E+00 0.00000E+00
 -1      1237 1.45650E+02 0.00000E+00 0.00000E+00
 -1      1238 1.48575E+02 0.00000E+00 0.00000E+00
 -1      1239 1.50000E+02 1.47500E+00 0.00000E+00
 -1      1240 1.50000E+02 4.42500E+00 0.00000E+00
 -1      1241 1.50000E+02 7.37500E+00 0.00000E+00
 -1      1242 1.50000E+02 1.03250E+01 0.00000E+00
 -1      1243 1.50000E+02 1.32750E+01 0.00000E+00
 -1      1244 1.50000E+02 1.62000E+01 0.00000E+00
 -1      1245 1.50000E+02 1.91250E+01 0.00000E+00
 -1      1246 1.50000E+02 2.20750E+01 0.00000E+00
 -1      1247 1.50000E+02 2.50250E+01 0.00000E+00
 -1      1248 1.50000E+02 2.79750E+01 0.00000E+00
 -1      1249 1.50000E+02 3.09250E+01 0.00000E+00
 -1      1250 1.50000E+02 3.38500E+01 0.00000E+00
 -1      1251 1.50000E+02 3.67750E+01 0.00000E+00
 -1      1252 1.50000E+02 3.97250E+01 0.00000E+00
 -1      1253 1.50000E+02 4.26750E+01 0.00000E+00
 -1      1254 1.50000E+02 4.56250E+01 0.00000E+00
 -1      1255 1.50000E+02 4.85500E+01 0.00000E+00
 -1      1256 7.76008E+01 2.67143E+01 0.00000E+00
 -1      1257 7.72989E+01 2.52989E+01 0.00000E+00
 -1      1258 7.67268E+01 2.40012E+01 0.00000E+00
 -1      1259 7.58334E+01 2.27651E+01 0.00000E+00
 -1      1260 7.46948E+01 2.17528E+01 0.00000E+00
 -1      1261 7.33684E+01 2.10126E+01 0.00000E+00
 -1      1262 7.19169E+01 2.05765E+01 0.00000E+00
 -1      1263 7.04484E+01 2.04618E+01 0.00000E+00
 -1      1264 6.89584E+01 2.06643E+01 0.00000E+00
 -1      1265 6.75371E+01 2.11847E+01 0.00000E+00
 -1      1266 6.62796E+01 2.19836E+01 0.00000E+00
 -1      1267 6.51944E+01 2.30615E+01 0.00000E+00
 -1      1268 6.43545E+01 2.43793E+01 0.00000E+00
 -1      1269 6.38485E+01 2.57657E+01 0.00000E+00
 -1      1270 6.36437E+01 2.72480E+01 0.00000E+00
 -1      1271 6.37552E+01 2.87211E+01 0.00000E+00
 -1      1272 6.41909E+01 3.01798E+01 0.00000E+00
 -1      1273 6.49397E+01 3.15212E+01 0.00000E+00
 -1      1274 6.59273E+01 3.26347E+01 0.00000E+00
 -1      1275 6.71612E+01 3.35332E+01 0.00000E+00
 -1      1276 6.86198E+01 3.41612E+01 0.00000E+00
 -1      1277 7.01664E+01 3.44431E+01 0.00000E+00
 -1      1278 7.16672E+01 3.43835E+01 0.00000E+00
 -1      1279 7.31723E+01 3.39853E+01 0.00000E+00
 -1      1280 7.45460E+01 3.32684E+01 0.00000E+00
 -1      1281 7.57191E+01 3.22767E+01 0.00000E+00
 -1      1282 7.66464E+01 3.10549E+01 0.00000E+00
 -1      1283 7.72692E+01 2.97088E+01 0.00000E+00
 -1      1284 7.75974E+01 2.82356E+01 0.00000E+00
 -1      1285 1.57500E+00 4.85250E+01 0.00000E+00
 -1      1286 1.29900E+00 4.48375E+01 0.00000E+00
 -1      1287 1.29900E+00 4.63125E+01 0.00000E+00
 -1      1288 1.29900E+00 4.18875E+01 0.00000E+00
 -1      1289 1.29900E+00 4.33625E+01 0.00000E+00
 -1      1290 2.59800E+00 4.41000E+01 0.00000E+00
 -1      1291 1.29900E+00 3.89375E+01 0.00000E+00
 -1      1292 1.29900E+00 4.04125E+01 0.00000E+00
 -1      1293 2.59800E+00 4.11500E+01 0.00000E+00
 -1      1294 1.29900E+00 3.59875E+01 0.00000E+00
 -1      1295 1.29900E+00 3.74625E+01 0.00000E+00
 -1      1296 2.59800E+00 3.82000E+01 0.00000E+00
 -1      1297 1.29900E+00 3.30875E+01 0.00000E+00
 -1      1298 1.29900E+00 3.45375E+01 0.00000E+00
 -1      1299 2.59800E+00 3.52750E+01 0.00000E+00
 -1      1300 1.29900E+00 3.01375E+01 0.00000E+00
 -1      1301 1.29900E+00 3.16125E+01 0.00000E+00
 -1      1302 2.59800E+00 3.23500E+01 0.00000E+00
 -1      1303 1.29900E+00 2.71875E+01 0.00000E+00
 -1      1304 1.29900E+00 2.86625E+01 0.00000E+00
 -1      1305 2.59800E+00 2.94000E+01 0.00000E+00
 -1      1306 1.29900E+00 2.42375E+01 0.00000E+00
 -1      1307 1.29900E+00 2.57125E+01 0.00000E+00
 -1      1308 2.59800E+00 2.64500E+01 0.00000E+00
 -1      1309 1.29900E+00 2.12875E+01 0.00000E+00
 -1      1310 1.29900E+00 2.27625E+01 0.00000E+00
 -1      1311 2.59800E+00 2.35000E+01 0.00000E+00
 -1      1312 1.29900E+00 1.83375E+01 0.00000E+00
 -1      1313 1.29900E+00 1.98125E+01 0.00000E+00
 -1      1314 2.59800E+00 2.05500E+01 0.00000E+00
 -1      1315 1.29900E+00 1.54375E+01 0.00000E+00
 -1      1316 1.29900E+00 1.68875E+01 0.00000E+00
 -1      1317 2.59800E+00 1.76250E+01 0.00000E+00
 -1      1318 1.29900E+00 1.24875E+01 0.00000E+00
 -1      1319 1.29900E+00 1.39625E+01 0.00000E+00
 -1      1320 2.59800E+00 1.47000E+01 0.00000E+00
 -1      1321 1.29900E+00 9.53750E+00 0.00000E+00
 -1      1322 1.29900E+00 1.10125E+01 0.00000E+00
 -1      1323 2.59800E+00 1.17500E+01 0.00000E+00
 -1      1324 1.29900E+00 6.58750E+00 0.00000E+00
 -1      1325 1.29900E+00 8.06250E+00 0.00000E+00
 -1      1326 2.59800E+00 8.80000E+00 0.00000E+00
 -1      1327 1.29900E+00 3.63750E+00 0.00000E+00
 -1      1328 1.29900E+00 5.11250E+00 0.00000E+00
 -1      1329 2.59800E+00 5.85000E+00 0.00000E+00
 -1      1330 1.43700E+00 1.09375E+00 0.00000E+00
 -1      1331 1.43700E+00 2.54375E+00 0.00000E+00
 -1      1332 2.73600E+00 3.28125E+00 0.00000E+00
 -1      1333 3.01200E+00 1.09375E+00 0.00000E+00
 -1      1334 3.90000E+00 4.87010E+01 0.00000E+00
 -1      1335 5.40000E+00 4.87010E+01 0.00000E+00
 -1      1336 6.90000E+00 4.87010E+01 0.00000E+00
 -1      1337 8.40000E+00 4.87010E+01 0.00000E+00
 -1      1338 6.15000E+00 4.74020E+01 0.00000E+00
 -1      1339 9.90000E+00 4.87010E+01 0.00000E+00
 -1      1340 1.14000E+01 4.87010E+01 0.00000E+00
 -1      1341 9.15000E+00 4.74020E+01 0.00000E+00
 -1      1342 1.29000E+01 4.87010E+01 0.00000E+00
 -1      1343 1.44000E+01 4.87010E+01 0.00000E+00
 -1      1344 1.21500E+01 4.74020E+01 0.00000E+00
 -1      1345 1.59000E+01 4.87010E+01 0.00000E+00
 -1      1346 1.74000E+01 4.87010E+01 0.00000E+00
 -1      1347 1.51500E+01 4.74020E+01 0.00000E+00
 -1      1348 1.89000E+01 4.87010E+01 0.00000E+00
 -1      1349 2.04000E+01 4.87010E+01 0.00000E+00
 -1      1350 1.81500E+01 4.74020E+01 0.00000E+00
 -1      1351 2.19000E+01 4.87010E+01 0.00000E+00
 -1      1352 2.34000E+01 4.87010E+01 0.00000E+00
 -1      1353 2.11500E+01 4.74020E+01 0.00000E+00
 -1      1354 2.49000E+01 4.87010E+01 0.00000E+00
 -1      1355 2.64000E+01 4.87010E+01 0.00000E+00
 -1      1356 2.41500E+01 4.74020E+01 0.00000E+00
 -1      1357 2.79000E+01 4.87010E+01 0.00000E+00
 -1      1358 2.94000E+01 4.87010E+01 0.00000E+00
 -1      1359 2.71500E+01 4.74020E+01 0.00000E+00
 -1      1360 3.09000E+01 4.87010E+01 0.00000E+00
 -1      1361 3.24000E+01 4.87010E+01 0.00000E+00
 -1      1362 3.01500E+01 4.74020E+01 0.00000E+00
 -1      1363 3.39000E+01 4.87010E+01 0.00000E+00
 -1      1364 3.54000E+01 4.87010E+01 0.00000E+00
 -1      1365 3.31500E+01 4.74020E+01 0.00000E+00
 -1      1366 3.69000E+01 4.87010E+01 0.00000E+00
 -1      1367 3.84000E+01 4.87010E+01 0.00000E+00
 -1      1368 3.61500E+01 4.74020E+01 0.00000E+00
 -1      1369 3.99000E+01 4.87010E+01 0.00000E+00
 -1      1370 4.14000E+01 4.87010E+01 0.00000E+00
 -1      1371 3.91500E+01 4.74020E+01 0.00000E+00
 -1      1372 4.29000E+01 4.87010E+01 0.00000E+00
 -1      1373 4.44000E+01 4.87010E+01 0.00000E+00
 -1      1374 4.21500E+01 4.74020E+01 0.00000E+00
 -1      1375 4.59000E+01 4.87010E+01 0.00000E+00
 -1      1376 4.74000E+01 4.87010E+01 0.00000E+00
 -1      1377 4.51500E+01 4.74020E+01 0.00000E+00
 -1      1378 4.89000E+01 4.87010E+01 0.00000E+00
 -1      1379 5.04000E+01 4.87010E+01 0.00000E+00
 -1      1380 4.81500E+01 4.74020E+01 0.00000E+00
 -1      1381 5.19000E+01 4.87010E+01 0.00000E+00
 -1      1382 5.34000E+01 4.87010E+01 0.00000E+00
 -1      1383 5.11500E+01 4.74020E+01 0.00000E+00
 -1      1384 5.49000E+01 4.87010E+01 0.00000E+00
 -1      1385 5.64000E+01 4.87010E+01 0.00000E+00
 -1      1386 5.41500E+01 4.74020E+01 0.00000E+00
 -1      1387 5.79000E+01 4.87010E+01 0.00000E+00
 -1      1388 5.94000E+01 4.87010E+01 0.00000E+00
 -1      1389 5.71500E+01 4.74020E+01 0.00000E+00
 -1      1390 6.09000E+01 4.87010E+01 0.00000E+00
 -1      1391 6.24000E+01 4.87010E+01 0.00000E+00
 -1      1392 6.01500E+01 4.74020E+01 0.00000E+00
 -1      1393 6.39000E+01 4.87010E+01 0.00000E+00
 -1      1394 6.54000E+01 4.87010E+01 0.00000E+00
 -1      1395 6.31500E+01 4.74020E+01 0.00000E+00
 -1      1396 6.69000E+01 4.87010E+01 0.00000E+00
 -1      1397 6.84000E+01 4.87010E+01 0.00000E+00
 -1      1398 6.61500E+01 4.74020E+01 0.00000E+00
 -1      1399 6.99000E+01 4.87010E+01 0.00000E+00
 -1      1400 7.14000E+01 4.87010E+01 0.00000E+00
 -1      1401 6.91500E+01 4.74020E+01 0.00000E+00
 -1      1402 7.29000E+01 4.87010E+01 0.00000E+00
 -1      1403 7.44000E+01 4.87010E+01 0.00000E+00
 -1      1404 7.21500E+01 4.74020E+01 0.00000E+00
 -1      1405 7.59000E+01 4.87010E+01 0.00000E+00
 -1      1406 7.74000E+01 4.87010E+01 0.00000E+00
 -1      1407 7.51500E+01 4.74020E+01 0.00000E+00
 -1      1408 7.89000E+01 4.87010E+01 0.00000E+00
 -1      1409 8.04000E+01 4.87010E+01 0.00000E+00
 -1      1410 7.81500E+01 4.74020E+01 0.00000E+00
 -1      1411 8.19000E+01 4.87010E+01 0.00000E+00
 -1      1412 8.34000E+01 4.87010E+01 0.00000E+00
 -1      1413 8.11500E+01 4.74020E+01 0.00000E+00
 -1      1414 8.49000E+01 4.87010E+01 0.00000E+00
 -1      1415 8.64000E+01 4.87010E+01 0.00000E+00
 -1      1416 8.41500E+01 4.74020E+01 0.00000E+00
 -1      1417 8.79000E+01 4.87010E+01 0.00000E+00
 -1      1418 8.94000E+01 4.87010E+01 0.00000E+00
 -1      1419 8.71500E+01 4.74020E+01 0.00000E+00
 -1      1420 9.09000E+01 4.87010E+01 0.00000E+00
 -1      1421 9.24000E+01 4.87010E+01 0.00000E+00
 -1      1422 9.01500E+01 4.74020E+01 0.00000E+00
 -1      1423 9.39000E+01 4.87010E+01 0.00000E+00
 -1      1424 9.54000E+01 4.87010E+01 0.00000E+00
 -1      1425 9.31500E+01 4.74020E+01 0.00000E+00
 -1      1426 9.69000E+01 4.87010E+01 0.00000E+00
 -1      1427 9.84000E+01 4.87010E+01 0.00000E+00
 -1      1428 9.61500E+01 4.74020E+01 0.00000E+00
 -1      1429 9.99000E+01 4.87010E+01 0.00000E+00
 -1      1430 1.01400E+02 4.87010E+01 0.00000E+00
 -1      1431 9.91500E+01 4.74020E+01 0.00000E+00
 -1      1432 1.02900E+02 4.87010E+01 0.00000E+00
 -1      1433 1.04400E+02 4.87010E+01 0.00000E+00
 -1      1434 1.02150E+02 4.74020E+01 0.00000E+00
 -1      1435 1.05900E+02 4.87010E+01 0.00000E+00
 -1      1436 1.07400E+02 4.87010E+01 0.00000E+00
 -1      1437 1.05150E+02 4.74020E+01 0.00000E+00
 -1      1438 1.08900E+02 4.87010E+01 0.00000E+00
 -1      1439 1.10400E+02 4.87010E+01 0.00000E+00
 -1      1440 1.08150E+02 4.74020E+01 0.00000E+00
 -1      1441 1.11900E+02 4.87010E+01 0.00000E+00
 -1      1442 1.13400E+02 4.87010E+01 0.00000E+00
 -1      1443 1.11150E+02 4.74020E+01 0.00000E+00
 -1      1444 1.14900E+02 4.87010E+01 0.00000E+00
 -1      1445 1.16400E+02 4.87010E+01 0.00000E+00
 -1      1446 1.14150E+02 4.74020E+01 0.00000E+00
 -1      1447 1.17900E+02 4.87010E+01 0.00000E+00
 -1      1448 1.19400E+02 4.87010E+01 0.00000E+00
 -1      1449 1.17150E+02 4.74020E+01 0.00000E+00
 -1      1450 1.20900E+02 4.87010E+01 0.00000E+00
 -1      1451 1.22400E+02 4.87010E+01 0.00000E+00
 -1      1452 1.20150E+02 4.74020E+01 0.00000E+00
 -1      1453 1.23900E+02 4.87010E+01 0.00000E+00
 -1      1454 1.25400E+02 4.87010E+01 0.00000E+00
 -1      1455 1.23150E+02 4.74020E+01 0.00000E+00
 -1      1456 1.26900E+02 4.87010E+01 0.00000E+00
 -1      1457 1.28400E+02 4.87010E+01 0.00000E+00
 -1      1458 1.26150E+02 4.74020E+01 0.00000E+00
 -1      1459 1.29900E+02 4.87010E+01 0.00000E+00
 -1      1460 1.31400E+02 4.87010E+01 0.00000E+00
 -1      1461 1.29150E+02 4.74020E+01 0.00000E+00
 -1      1462 1.32900E+02 4.87010E+01 0.00000E+00
 -1      1463 1.34400E+02 4.87010E+01 0.00000E+00
 -1      1464 1.32150E+02 4.74020E+01 0.00000E+00
 -1      1465 1.35900E+02 4.87010E+01 0.00000E+00
 -1      1466 1.37400E+02 4.87010E+01 0.00000E+00
 -1      1467 1.35150E+02 4.74020E+01 0.00000E+00
 -1      1468 1.38900E+02 4.87010E+01 0.00000E+00
 -1      1469 1.40400E+02 4.87010E+01 0.00000E+00
 -1      1470 1.38150E+02 4.74020E+01 0.00000E+00
 -1      1471 1.41900E+02 4.87010E+01 0.00000E+00
 -1      1472 1.43400E+02 4.87010E+01 0.00000E+00
 -1      1473 1.41150E+02 4.74020E+01 0.00000E+00
 -1      1474 1.44900E+02 4.87010E+01 0.00000E+00
 -1      1475 1.46400E+02 4.87010E+01 0.00000E+00
 -1      1476 1.44150E+02 4.74020E+01 0.00000E+00
 -1      1477 1.48575E+02 4.85500E+01 0.00000E+00
 -1      1478 1.47825E+02 4.72510E+01 0.00000E+00
 -1      1479 6.01200E+00 1.09375E+00 0.00000E+00
 -1      1480 4.51200E+00 1.09375E+00 0.00000E+00
 -1      1481 4.37400E+00 2.18750E+00 0.00000E+00
 -1      1482 9.01200E+00 1.09375E+00 0.00000E+00
 -1      1483 7.51200E+00 1.09375E+00 0.00000E+00
 -1      1484 7.37400E+00 2.18750E+00 0.00000E+00
 -1      1485 1.20120E+01 1.09375E+00 0.00000E+00
 -1      1486 1.05120E+01 1.09375E+00 0.00000E+00
 -1      1487 1.03740E+01 2.18750E+00 0.00000E+00
 -1      1488 1.50120E+01 1.09375E+00 0.00000E+00
 -1      1489 1.35120E+01 1.09375E+00 0.00000E+00
 -1      1490 1.33740E+01 2.18750E+00 0.00000E+00
 -1      1491 1.80120E+01 1.09375E+00 0.00000E+00
 -1      1492 1.65120E+01 1.09375E+00 0.00000E+00
 -1      1493 1.63740E+01 2.18750E+00 0.00000E+00
 -1      1494 2.10120E+01 1.09375E+00 0.00000E+00
 -1      1495 1.95120E+01 1.09375E+00 0.00000E+00
 -1      1496 1.93740E+01 2.18750E+00 0.00000E+00
 -1      1497 2.40120E+01 1.09375E+00 0.00000E+00
 -1      1498 2.25120E+01 1.09375E+00 0.00000E+00
 -1      1499 2.23740E+01 2.18750E+00 0.00000E+00
 -1      1500 2.70120E+01 1.09375E+00 0.00000E+00
 -1      1501 2.55120E+01 1.09375E+00 0.00000E+00
 -1      1502 2.53740E+01 2.18750E+00 0.00000E+00
 -1      1503 3.00120E+01 1.09375E+00 0.00000E+00
 -1      1504 2.85120E+01 1.09375E+00 0.00000E+00
 -1      1505 2.83740E+01 2.18750E+00 0.00000E+00
 -1      1506 3.30120E+01 1.09375E+00 0.00000E+00
 -1      1507 3.15120E+01 1.09375E+00 0.00000E+00
 -1      1508 3.13740E+01 2.18750E+00 0.00000E+00
 -1      1509 3.60120E+01 1.09375E+00 0.00000E+00
 -1      1510 3.45120E+01 1.09375E+00 0.00000E+00
 -1      1511 3.43740E+01 2.18750E+00 0.00000E+00
 -1      1512 3.90120E+01 1.09375E+00 0.00000E+00
 -1      1513 3.75120E+01 1.09375E+00 0.00000E+00
 -1      1514 3.73740E+01 2.18750E+00 0.00000E+00
 -1      1515 4.20120E+01 1.09375E+00 0.00000E+00
 -1      1516 4.05120E+01 1.09375E+00 0.00000E+00
 -1      1517 4.03740E+01 2.18750E+00 0.00000E+00
 -1      1518 4.50120E+01 1.09375E+00 0.00000E+00
 -1      1519 4.35120E+01 1.09375E+00 0.00000E+00
 -1      1520 4.33740E+01 2.18750E+00 0.00000E+00
 -1      1521 4.80120E+01 1.09375E+00 0.00000E+00
 -1      1522 4.65120E+01 1.09375E+00 0.00000E+00
 -1      1523 4.63740E+01 2.18750E+00 0.00000E+00
 -1      1524 5.10120E+01 1.09375E+00 0.00000E+00
 -1      1525 4.95120E+01 1.09375E+00 0.00000E+00
 -1      1526 4.93740E+01 2.18750E+00 0.00000E+00
 -1      1527 5.40120E+01 1.09375E+00 0.00000E+00
 -1      1528 5.25120E+01 1.09375E+00 0.00000E+00
 -1      1529 5.23740E+01 2.18750E+00 0.00000E+00
 -1      1530 5.70120E+01 1.09375E+00 0.00000E+00
 -1      1531 5.55120E+01 1.09375E+00 0.00000E+00
 -1      1532 5.53740E+01 2.18750E+00 0.00000E+00
 -1      1533 6.00120E+01 1.09375E+00 0.00000E+00
 -1      1534 5.85120E+01 1.09375E+00 0.00000E+00
 -1      1535 5.83740E+01 2.18750E+00 0.00000E+00
 -1      1536 6.30120E+01 1.09375E+00 0.00000E+00
 -1      1537 6.15120E+01 1.09375E+00 0.00000E+00
 -1      1538 6.13740E+01 2.18750E+00 0.00000E+00
 -1      1539 6.60120E+01 1.09375E+00 0.00000E+00
 -1      1540 6.45120E+01 1.09375E+00 0.00000E+00
 -1      1541 6.43740E+01 2.18750E+00 0.00000E+00
 -1      1542 6.90120E+01 1.09375E+00 0.00000E+00
 -1      1543 6.75120E+01 1.09375E+00 0.00000E+00
 -1      1544 6.73740E+01 2.18750E+00 0.00000E+00
 -1      1545 7.20120E+01 1.09375E+00 0.00000E+00
 -1      1546 7.05120E+01 1.09375E+00 0.00000E+00
 -1      1547 7.03740E+01 2.18750E+00 0.00000E+00
 -1      1548 7.50120E+01 1.09375E+00 0.00000E+00
 -1      1549 7.35120E+01 1.09375E+00 0.00000E+00
 -1      1550 7.33740E+01 2.18750E+00 0.00000E+00
 -1      1551 7.80120E+01 1.09375E+00 0.00000E+00
 -1      1552 7.65120E+01 1.09375E+00 0.00000E+00
 -1      1553 7.63740E+01 2.18750E+00 0.00000E+00
 -1      1554 8.10120E+01 1.09375E+00 0.00000E+00
 -1      1555 7.95120E+01 1.09375E+00 0.00000E+00
 -1      1556 7.93740E+01 2.18750E+00 0.00000E+00
 -1      1557 8.40120E+01 1.09375E+00 0.00000E+00
 -1      1558 8.25120E+01 1.09375E+00 0.00000E+00
 -1      1559 8.23740E+01 2.18750E+00 0.00000E+00
 -1      1560 8.70120E+01 1.09375E+00 0.00000E+00
 -1      1561 8.55120E+01 1.09375E+00 0.00000E+00
 -1      1562 8.53740E+01 2.18750E+00 0.00000E+00
 -1      1563 9.00120E+01 1.09375E+00 0.00000E+00
 -1      1564 8.85120E+01 1.09375E+00 0.00000E+00
 -1      1565 8.83740E+01 2.18750E+00 0.00000E+00
 -1      1566 9.30120E+01 1.09375E+00 0.00000E+00
 -1      1567 9.15120E+01 1.09375E+00 0.00000E+00
 -1      1568 9.13740E+01 2.18750E+00 0.00000E+00
 -1      1569 9.60120E+01 1.09375E+00 0.00000E+00
 -1      1570 9.45120E+01 1.09375E+00 0.00000E+00
 -1      1571 9.43740E+01 2.18750E+00 0.00000E+00
 -1      1572 9.90120E+01 1.09375E+00 0.00000E+00
 -1      1573 9.75120E+01 1.09375E+00 0.00000E+00
 -1      1574 9.73740E+01 2.18750E+00 0.00000E+00
 -1      1575 1.02012E+02 1.09375E+00 0.00000E+00
 -1      1576 1.00512E+02 1.09375E+00 0.00000E+00
 -1      1577 1.00374E+02 2.18750E+00 0.00000E+00
 -1      1578 1.05012E+02 1.09375E+00 0.00000E+00
 -1      1579 1.03512E+02 1.09375E+00 0.00000E+00
 -1      1580 1.03374E+02 2.18750E+00 0.00000E+00
 -1      1581 1.08012E+02 1.09375E+00 0.00000E+00
 -1      1582 1.06512E+02 1.09375E+00 0.00000E+00
 -1      1583 1.06374E+02 2.18750E+00 0.00000E+00
 -1      1584 1.11012E+02 1.09375E+00 0.00000E+00
 -1      1585 1.09512E+02 1.09375E+00 0.00000E+00
 -1      1586 1.09374E+02 2.18750E+00 0.00000E+00
 -1      1587 1.14012E+02 1.09375E+00 0.00000E+00
 -1      1588 1.12512E+02 1.09375E+00 0.00000E+00
 -1      1589 1.12374E+02 2.18750E+00 0.00000E+00
 -1      1590 1.17012E+02 1.09375E+00 0.00000E+00
 -1      1591 1.15512E+02 1.09375E+00 0.00000E+00
 -1      1592 1.15374E+02 2.18750E+00 0.00000E+00
 -1      1593 1.20012E+02 1.09375E+00 0.00000E+00
 -1      1594 1.18512E+02 1.09375E+00 0.00000E+00
 -1      1595 1.18374E+02 2.18750E+00 0.00000E+00
 -1      1596 1.23012E+02 1.09375E+00 0.00000E+00
 -1      1597 1.21512E+02 1.09375E+00 0.00000E+00
 -1      1598 1.21374E+02 2.18750E+00 0.00000E+00
 -1      1599 1.26012E+02 1.09375E+00 0.00000E+00
 -1      1600 1.24512E+02 1.09375E+00 0.00000E+00
 -1      1601 1.24374E+02 2.18750E+00 0.00000E+00
 -1      1602 1.29012E+02 1.09375E+00 0.00000E+00
 -1      1603 1.27512E+02 1.09375E+00 0.00000E+00
 -1      1604 1.27374E+02 2.18750E+00 0.00000E+00
 -1      1605 1.32012E+02 1.09375E+00 0.00000E+00
 -1      1606 1.30512E+02 1.09375E+00 0.00000E+00
 -1      1607 1.30374E+02 2.18750E+00 0.00000E+00
 -1      1608 1.35012E+02 1.09375E+00 0.00000E+00
 -1      1609 1.33512E+02 1.09375E+00 0.00000E+00
 -1      1610 1.33374E+02 2.18750E+00 0.00000E+00
 -1      1611 1.38012E+02 1.09375E+00 0.00000E+00
 -1      1612 1.36512E+02 1.09375E+00 0.00000E+00
 -1      1613 1.36374E+02 2.18750E+00 0.00000E+00
 -1      1614 1.41012E+02 1.09375E+00 0.00000E+00
 -1      1615 1.39512E+02 1.09375E+00 0.00000E+00
 -1      1616 1.39374E+02 2.18750E+00 0.00000E+00
 -1      1617 1.44012E+02 1.09375E+00 0.00000E+00
 -1      1618 1.42512E+02 1.09375E+00 0.00000E+00
 -1      1619 1.42374E+02 2.18750E+00 0.00000E+00
 -1      1620 1.47012E+02 1.09375E+00 0.00000E+00
 -1      1621 1.45512E+02 1.09375E+00 0.00000E+00
 -1      1622 1.45374E+02 2.18750E+00 0.00000E+00
 -1      1623 1.48575E+02 1.47500E+00 0.00000E+00
 -1      1624 1.48701E+02 5.16250E+00 0.00000E+00
 -1      1625 1.48701E+02 3.68750E+00 0.00000E+00
 -1      1626 1.48701E+02 8.11250E+00 0.00000E+00
 -1      1627 1.48701E+02 6.63750E+00 0.00000E+00
 -1      1628 1.47402E+02 5.90000E+00 0.00000E+00
 -1      1629 1.48701E+02 1.10625E+01 0.00000E+00
 -1      1630 1.48701E+02 9.58750E+00 0.00000E+00
 -1      1631 1.47402E+02 8.85000E+00 0.00000E+00
 -1      1632 1.48701E+02 1.40125E+01 0.00000E+00
 -1      1633 1.48701E+02 1.25375E+01 0.00000E+00
 -1      1634 1.47402E+02 1.18000E+01 0.00000E+00
 -1      1635 1.48701E+02 1.69125E+01 0.00000E+00
 -1      1636 1.48701E+02 1.54625E+01 0.00000E+00
 -1      1637 1.47402E+02 1.47250E+01 0.00000E+00
 -1      1638 1.48701E+02 1.98625E+01 0.00000E+00
 -1      1639 1.48701E+02 1.83875E+01 0.00000E+00
 -1      1640 1.47402E+02 1.76500E+01 0.00000E+00
 -1      1641 1.48701E+02 2.28125E+01 0.00000E+00
 -1      1642 1.48701E+02 2.13375E+01 0.00000E+00
 -1      1643 1.47402E+02 2.06000E+01 0.00000E+00
 -1      1644 1.48701E+02 2.57625E+01 0.00000E+00
 -1      1645 1.48701E+02 2.42875E+01 0.00000E+00
 -1      1646 1.47402E+02 2.35500E+01 0.00000E+00
 -1      1647 1.48701E+02 2.87125E+01 0.00000E+00
 -1      1648 1.48701E+02 2.72375E+01 0.00000E+00
 -1      1649 1.47402E+02 2.65000E+01 0.00000E+00
 -1      1650 1.48701E+02 3.16625E+01 0.00000E+00
 -1      1651 1.48701E+02 3.01875E+01 0.00000E+00
 -1      1652 1.47402E+02 2.94500E+01 0.00000E+00
 -1      1653 1.48701E+02 3.45625E+01 0.00000E+00
 -1      1654 1.48701E+02 3.31125E+01 0.00000E+00
 -1      1655 1.47402E+02 3.23750E+01 0.00000E+00
 -1      1656 1.48701E+02 3.75125E+01 0.00000E+00
 -1      1657 1.48701E+02 3.60375E+01 0.00000E+00
 -1      1658 1.47402E+02 3.53000E+01 0.00000E+00
 -1      1659 1.48701E+02 4.04625E+01 0.00000E+00
 -1      1660 1.48701E+02 3.89875E+01 0.00000E+00
 -1      1661 1.47402E+02 3.82500E+01 0.00000E+00
 -1      1662 1.48701E+02 4.34125E+01 0.00000E+00
 -1      1663 1.48701E+02 4.19375E+01 0.00000E+00
 -1      1664 1.47402E+02 4.12000E+01 0.00000E+00
 -1      1665 1.48263E+02 4.60692E+01 0.00000E+00
 -1      1666 1.48263E+02 4.45942E+01 0.00000E+00
 -1      1667 1.46964E+02 4.38568E+01 0.00000E+00
 -1      1668 1.46088E+02 4.62202E+01 0.00000E+00
 -1      1669 7.81661E+01 2.62793E+01 0.00000E+00
 -1      1670 7.82453E+01 2.70199E+01 0.00000E+00
 -1      1671 7.77335E+01 2.47887E+01 0.00000E+00
 -1      1672 7.79503E+01 2.54568E+01 0.00000E+00
 -1      1673 7.70816E+01 2.33880E+01 0.00000E+00
 -1      1674 7.74352E+01 2.40104E+01 0.00000E+00
 -1      1675 7.61013E+01 2.19776E+01 0.00000E+00
 -1      1676 7.66440E+01 2.25779E+01 0.00000E+00
 -1      1677 7.47337E+01 2.10816E+01 0.00000E+00
 -1      1678 7.53159E+01 2.14953E+01 0.00000E+00
 -1      1679 7.32650E+01 2.02245E+01 0.00000E+00
 -1      1680 7.40061E+01 2.05381E+01 0.00000E+00
 -1      1681 7.16713E+01 1.99513E+01 0.00000E+00
 -1      1682 7.23703E+01 2.00809E+01 0.00000E+00
 -1      1683 7.00497E+01 1.98241E+01 0.00000E+00
 -1      1684 7.08114E+01 1.98032E+01 0.00000E+00
 -1      1685 6.84521E+01 2.01626E+01 0.00000E+00
 -1      1686 6.91721E+01 1.99843E+01 0.00000E+00
 -1      1687 6.69228E+01 2.08131E+01 0.00000E+00
 -1      1688 6.76146E+01 2.04710E+01 0.00000E+00
 -1      1689 6.56442E+01 2.17619E+01 0.00000E+00
 -1      1690 6.62058E+01 2.13146E+01 0.00000E+00
 -1      1691 6.44394E+01 2.29734E+01 0.00000E+00
 -1      1692 6.49492E+01 2.23420E+01 0.00000E+00
 -1      1693 6.36812E+01 2.44675E+01 0.00000E+00
 -1      1694 6.40117E+01 2.37931E+01 0.00000E+00
 -1      1695 6.32091E+01 2.59798E+01 0.00000E+00
 -1      1696 6.33845E+01 2.52765E+01 0.00000E+00
 -1      1697 6.29851E+01 2.76141E+01 0.00000E+00
 -1      1698 6.30083E+01 2.68429E+01 0.00000E+00
 -1      1699 6.32577E+01 2.91711E+01 0.00000E+00
 -1      1700 6.31304E+01 2.84769E+01 0.00000E+00
 -1      1701 6.37193E+01 3.08219E+01 0.00000E+00
 -1      1702 6.34019E+01 3.00695E+01 0.00000E+00
 -1      1703 6.46850E+01 3.21445E+01 0.00000E+00
 -1      1704 6.42674E+01 3.15584E+01 0.00000E+00
 -1      1705 6.57472E+01 3.34033E+01 0.00000E+00
 -1      1706 6.51789E+01 3.28857E+01 0.00000E+00
 -1      1707 6.72090E+01 3.42118E+01 0.00000E+00
 -1      1708 6.65516E+01 3.38352E+01 0.00000E+00
 -1      1709 6.88203E+01 3.49344E+01 0.00000E+00
 -1      1710 6.80252E+01 3.46947E+01 0.00000E+00
 -1      1711 7.04952E+01 3.50755E+01 0.00000E+00
 -1      1712 6.97551E+01 3.50253E+01 0.00000E+00
 -1      1713 7.21260E+01 3.48864E+01 0.00000E+00
 -1      1714 7.13740E+01 3.49979E+01 0.00000E+00
 -1      1715 7.37769E+01 3.44421E+01 0.00000E+00
 -1      1716 7.30340E+01 3.47302E+01 0.00000E+00
 -1      1717 7.51739E+01 3.35278E+01 0.00000E+00
 -1      1718 7.45492E+01 3.39478E+01 0.00000E+00
 -1      1719 7.63966E+01 3.23794E+01 0.00000E+00
 -1      1720 7.58574E+01 3.29478E+01 0.00000E+00
 -1      1721 7.73247E+01 3.10236E+01 0.00000E+00
 -1      1722 7.69392E+01 3.16675E+01 0.00000E+00
 -1      1723 7.79246E+01 2.95443E+01 0.00000E+00
 -1      1724 7.76891E+01 3.02382E+01 0.00000E+00
 -1      1725 7.82832E+01 2.79215E+01 0.00000E+00
 -1      1726 7.81971E+01 2.86932E+01 0.00000E+00
 -1      1727 7.61613E+01 2.12766E+01 0.00000E+00
 -1      1728 7.73843E+01 2.25689E+01 0.00000E+00
 -1      1729 1.48437E+02 2.56875E+00 0.00000E+00
 -1      1730 1.47138E+02 3.30625E+00 0.00000E+00
 -1      1731 7.86343E+01 2.57581E+01 0.00000E+00
 -1      1732 7.81202E+01 2.41573E+01 0.00000E+00
 -1      1733 7.88880E+01 2.74823E+01 0.00000E+00
 -1      1734 7.46483E+01 2.02508E+01 0.00000E+00
 -1      1735 7.30260E+01 1.95637E+01 0.00000E+00
 -1      1736 7.12715E+01 1.92720E+01 0.00000E+00
 -1      1737 6.95340E+01 1.92842E+01 0.00000E+00
 -1      1738 6.78189E+01 1.97528E+01 0.00000E+00
 -1      1739 6.62644E+01 2.05626E+01 0.00000E+00
 -1      1740 6.48524E+01 2.16441E+01 0.00000E+00
 -1      1741 6.37298E+01 2.30439E+01 0.00000E+00
 -1      1742 6.30054E+01 2.46725E+01 0.00000E+00
 -1      1743 6.25078E+01 2.63446E+01 0.00000E+00
 -1      1744 6.24524E+01 2.80705E+01 0.00000E+00
 -1      1745 6.27420E+01 2.98317E+01 0.00000E+00
 -1      1746 6.34344E+01 3.14667E+01 0.00000E+00
 -1      1747 6.44764E+01 3.29444E+01 0.00000E+00
 -1      1748 6.57746E+01 3.41176E+01 0.00000E+00
 -1      1749 6.73952E+01 3.50324E+01 0.00000E+00
 -1      1750 6.91464E+01 3.56061E+01 0.00000E+00
 -1      1751 7.09601E+01 3.56194E+01 0.00000E+00
 -1      1752 7.27470E+01 3.53856E+01 0.00000E+00
 -1      1753 7.44274E+01 3.47352E+01 0.00000E+00
 -1      1754 7.58833E+01 3.36609E+01 0.00000E+00
 -1      1755 7.71094E+01 3.23689E+01 0.00000E+00
 -1      1756 7.80165E+01 3.08715E+01 0.00000E+00
 -1      1757 7.86534E+01 2.92350E+01 0.00000E+00
 -1      1758 2.87400E+00 4.77875E+01 0.00000E+00
 -1      1759 3.89700E+00 4.04125E+01 0.00000E+00
 -1      1760 3.89700E+00 4.18875E+01 0.00000E+00
 -1      1761 3.89700E+00 4.33625E+01 0.00000E+00
 -1      1762 3.89700E+00 4.48375E+01 0.00000E+00
 -1      1763 5.19600E+00 4.26250E+01 0.00000E+00
 -1      1764 3.89700E+00 3.45500E+01 0.00000E+00
 -1      1765 3.89700E+00 3.60000E+01 0.00000E+00
 -1      1766 3.89700E+00 3.16000E+01 0.00000E+00
 -1      1767 3.89700E+00 3.30750E+01 0.00000E+00
 -1      1768 5.19600E+00 3.38000E+01 0.00000E+00
 -1      1769 3.89700E+00 2.86500E+01 0.00000E+00
 -1      1770 3.89700E+00 3.01250E+01 0.00000E+00
 -1      1771 5.19600E+00 3.08500E+01 0.00000E+00
 -1      1772 3.89700E+00 2.57000E+01 0.00000E+00
 -1      1773 3.89700E+00 2.71750E+01 0.00000E+00
 -1      1774 5.19600E+00 2.79000E+01 0.00000E+00
 -1      1775 3.89700E+00 2.27500E+01 0.00000E+00
 -1      1776 3.89700E+00 2.42250E+01 0.00000E+00
 -1      1777 5.19600E+00 2.49500E+01 0.00000E+00
 -1      1778 3.89700E+00 1.98000E+01 0.00000E+00
 -1      1779 3.89700E+00 2.12750E+01 0.00000E+00
 -1      1780 5.19600E+00 2.20000E+01 0.00000E+00
 -1      1781 3.89700E+00 1.69000E+01 0.00000E+00
 -1      1782 3.89700E+00 1.83500E+01 0.00000E+00
 -1      1783 5.19600E+00 1.90750E+01 0.00000E+00
 -1      1784 3.89700E+00 1.39500E+01 0.00000E+00
 -1      1785 3.89700E+00 1.54250E+01 0.00000E+00
 -1      1786 5.19600E+00 1.61500E+01 0.00000E+00
 -1      1787 3.89700E+00 1.10000E+01 0.00000E+00
 -1      1788 3.89700E+00 1.24750E+01 0.00000E+00
 -1      1789 5.19600E+00 1.32000E+01 0.00000E+00
 -1      1790 3.89700E+00 8.05000E+00 0.00000E+00
 -1      1791 3.89700E+00 9.52500E+00 0.00000E+00
 -1      1792 5.19600E+00 1.02500E+01 0.00000E+00
 -1      1793 3.89700E+00 5.10000E+00 0.00000E+00
 -1      1794 3.89700E+00 6.57500E+00 0.00000E+00
 -1      1795 5.19600E+00 7.30000E+00 0.00000E+00
 -1      1796 4.20450E+00 3.09687E+00 0.00000E+00
 -1      1797 4.06650E+00 4.19063E+00 0.00000E+00
 -1      1798 5.36550E+00 4.91563E+00 0.00000E+00
 -1      1799 5.70450E+00 3.09687E+00 0.00000E+00
 -1      1800 3.62400E+00 4.64885E+01 0.00000E+00
 -1      1801 8.70450E+00 3.09687E+00 0.00000E+00
 -1      1802 7.20450E+00 3.09687E+00 0.00000E+00
 -1      1803 7.03500E+00 4.00625E+00 0.00000E+00
 -1      1804 4.92300E+00 4.57510E+01 0.00000E+00
 -1      1805 8.40000E+00 4.61030E+01 0.00000E+00
 -1      1806 9.90000E+00 4.61030E+01 0.00000E+00
 -1      1807 1.14000E+01 4.61030E+01 0.00000E+00
 -1      1808 1.29000E+01 4.61030E+01 0.00000E+00
 -1      1809 1.06500E+01 4.48040E+01 0.00000E+00
 -1      1810 1.44000E+01 4.61030E+01 0.00000E+00
 -1      1811 1.59000E+01 4.61030E+01 0.00000E+00
 -1      1812 1.36500E+01 4.48040E+01 0.00000E+00
 -1      1813 1.74000E+01 4.61030E+01 0.00000E+00
 -1      1814 1.89000E+01 4.61030E+01 0.00000E+00
 -1      1815 1.66500E+01 4.48040E+01 0.00000E+00
 -1      1816 2.04000E+01 4.61030E+01 0.00000E+00
 -1      1817 2.19000E+01 4.61030E+01 0.00000E+00
 -1      1818 1.96500E+01 4.48040E+01 0.00000E+00
 -1      1819 2.34000E+01 4.61030E+01 0.00000E+00
 -1      1820 2.49000E+01 4.61030E+01 0.00000E+00
 -1      1821 2.26500E+01 4.48040E+01 0.00000E+00
 -1      1822 2.64000E+01 4.61030E+01 0.00000E+00
 -1      1823 2.79000E+01 4.61030E+01 0.00000E+00
 -1      1824 2.56500E+01 4.48040E+01 0.00000E+00
 -1      1825 2.94000E+01 4.61030E+01 0.00000E+00
 -1      1826 3.09000E+01 4.61030E+01 0.00000E+00
 -1      1827 2.86500E+01 4.48040E+01 0.00000E+00
 -1      1828 3.24000E+01 4.61030E+01 0.00000E+00
 -1      1829 3.39000E+01 4.61030E+01 0.00000E+00
 -1      1830 3.16500E+01 4.48040E+01 0.00000E+00
 -1      1831 3.54000E+01 4.61030E+01 0.00000E+00
 -1      1832 3.69000E+01 4.61030E+01 0.00000E+00
 -1      1833 3.46500E+01 4.48040E+01 0.00000E+00
 -1      1834 3.84000E+01 4.61030E+01 0.00000E+00
 -1      1835 3.99000E+01 4.61030E+01 0.00000E+00
 -1      1836 3.76500E+01 4.48040E+01 0.00000E+00
 -1      1837 4.14000E+01 4.61030E+01 0.00000E+00
 -1      1838 4.29000E+01 4.61030E+01 0.00000E+00
 -1      1839 4.06500E+01 4.48040E+01 0.00000E+00
 -1      1840 4.44000E+01 4.61030E+01 0.00000E+00
 -1      1841 4.59000E+01 4.61030E+01 0.00000E+00
 -1      1842 4.36500E+01 4.48040E+01 0.00000E+00
 -1      1843 4.74000E+01 4.61030E+01 0.00000E+00
 -1      1844 4.89000E+01 4.61030E+01 0.00000E+00
 -1      1845 4.66500E+01 4.48040E+01 0.00000E+00
 -1      1846 5.04000E+01 4.61030E+01 0.00000E+00
 -1      1847 5.19000E+01 4.61030E+01 0.00000E+00
 -1      1848 4.96500E+01 4.48040E+01 0.00000E+00
 -1      1849 5.34000E+01 4.61030E+01 0.00000E+00
 -1      1850 5.49000E+01 4.61030E+01 0.00000E+00
 -1      1851 5.26500E+01 4.48040E+01 0.00000E+00
 -1      1852 5.64000E+01 4.61030E+01 0.00000E+00
 -1      1853 5.79000E+01 4.61030E+01 0.00000E+00
 -1      1854 5.56500E+01 4.48040E+01 0.00000E+00
 -1      1855 5.94000E+01 4.61030E+01 0.00000E+00
 -1      1856 6.09000E+01 4.61030E+01 0.00000E+00
 -1      1857 5.86500E+01 4.48040E+01 0.00000E+00
 -1      1858 6.24000E+01 4.61030E+01 0.00000E+00
 -1      1859 6.39000E+01 4.61030E+01 0.00000E+00
 -1      1860 6.16500E+01 4.48040E+01 0.00000E+00
 -1      1861 6.54000E+01 4.61030E+01 0.00000E+00
 -1      1862 6.69000E+01 4.61030E+01 0.00000E+00
 -1      1863 6.46500E+01 4.48040E+01 0.00000E+00
 -1      1864 6.84000E+01 4.61030E+01 0.00000E+00
 -1      1865 6.99000E+01 4.61030E+01 0.00000E+00
 -1      1866 6.76500E+01 4.48040E+01 0.00000E+00
 -1      1867 7.14000E+01 4.61030E+01 0.00000E+00
 -1      1868 7.29000E+01 4.61030E+01 0.00000E+00
 -1      1869 7.06500E+01 4.48040E+01 0.00000E+00
 -1      1870 7.44000E+01 4.61030E+01 0.00000E+00
 -1      1871 7.59000E+01 4.61030E+01 0.00000E+00
 -1      1872 7.36500E+01 4.48040E+01 0.00000E+00
 -1      1873 7.74000E+01 4.61030E+01 0.00000E+00
 -1      1874 7.89000E+01 4.61030E+01 0.00000E+00
 -1      1875 7.66500E+01 4.48040E+01 0.00000E+00
 -1      1876 8.04000E+01 4.61030E+01 0.00000E+00
 -1      1877 8.19000E+01 4.61030E+01 0.00000E+00
 -1      1878 7.96500E+01 4.48040E+01 0.00000E+00
 -1      1879 8.34000E+01 4.61030E+01 0.00000E+00
 -1      1880 8.49000E+01 4.61030E+01 0.00000E+00
 -1      1881 8.26500E+01 4.48040E+01 0.00000E+00
 -1      1882 8.64000E+01 4.61030E+01 0.00000E+00
 -1      1883 8.79000E+01 4.61030E+01 0.00000E+00
 -1      1884 8.56500E+01 4.48040E+01 0.00000E+00
 -1      1885 8.94000E+01 4.61030E+01 0.00000E+00
 -1      1886 9.09000E+01 4.61030E+01 0.00000E+00
 -1      1887 8.86500E+01 4.48040E+01 0.00000E+00
 -1      1888 9.24000E+01 4.61030E+01 0.00000E+00
 -1      1889 9.39000E+01 4.61030E+01 0.00000E+00
 -1      1890 9.16500E+01 4.48040E+01 0.00000E+00
 -1      1891 9.54000E+01 4.61030E+01 0.00000E+00
 -1      1892 9.69000E+01 4.61030E+01 0.00000E+00
 -1      1893 9.46500E+01 4.48040E+01 0.00000E+00
 -1      1894 9.84000E+01 4.61030E+01 0.00000E+00
 -1      1895 9.99000E+01 4.61030E+01 0.00000E+00
 -1      1896 9.76500E+01 4.48040E+01 0.00000E+00
 -1      1897 1.01400E+02 4.61030E+01 0.00000E+00
 -1      1898 1.02900E+02 4.61030E+01 0.00000E+00
 -1      1899 1.00650E+02 4.48040E+01 0.00000E+00
 -1      1900 1.04400E+02 4.61030E+01 0.00000E+00
 -1      1901 1.05900E+02 4.61030E+01 0.00000E+00
 -1      1902 1.03650E+02 4.48040E+01 0.00000E+00
 -1      1903 1.07400E+02 4.61030E+01 0.00000E+00
 -1      1904 1.08900E+02 4.61030E+01 0.00000E+00
 -1      1905 1.06650E+02 4.48040E+01 0.00000E+00
 -1      1906 1.10400E+02 4.61030E+01 0.00000E+00
 -1      1907 1.11900E+02 4.61030E+01 0.00000E+00
 -1      1908 1.09650E+02 4.48040E+01 0.00000E+00
 -1      1909 1.13400E+02 4.61030E+01 0.00000E+00
 -1      1910 1.14900E+02 4.61030E+01 0.00000E+00
 -1      1911 1.12650E+02 4.48040E+01 0.00000E+00
 -1      1912 1.16400E+02 4.61030E+01 0.00000E+00
 -1      1913 1.17900E+02 4.61030E+01 0.00000E+00
 -1      1914 1.15650E+02 4.48040E+01 0.00000E+00
 -1      1915 1.19400E+02 4.61030E+01 0.00000E+00
 -1      1916 1.20900E+02 4.61030E+01 0.00000E+00
 -1      1917 1.18650E+02 4.48040E+01 0.00000E+00
 -1      1918 1.22400E+02 4.61030E+01 0.00000E+00
 -1      1919 1.23900E+02 4.61030E+01 0.00000E+00
 -1      1920 1.21650E+02 4.48040E+01 0.00000E+00
 -1      1921 1.25400E+02 4.61030E+01 0.00000E+00
 -1      1922 1.26900E+02 4.61030E+01 0.00000E+00
 -1      1923 1.24650E+02 4.48040E+01 0.00000E+00
 -1      1924 1.28400E+02 4.61030E+01 0.00000E+00
 -1      1925 1.29900E+02 4.61030E+01 0.00000E+00
 -1      1926 1.27650E+02 4.48040E+01 0.00000E+00
 -1      1927 1.31400E+02 4.61030E+01 0.00000E+00
 -1      1928 1.32900E+02 4.61030E+01 0.00000E+00
 -1      1929 1.30650E+02 4.48040E+01 0.00000E+00
 -1      1930 1.34400E+02 4.61030E+01 0.00000E+00
 -1      1931 1.35900E+02 4.61030E+01 0.00000E+00
 -1      1932 1.33650E+02 4.48040E+01 0.00000E+00
 -1      1933 1.37400E+02 4.61030E+01 0.00000E+00
 -1      1934 1.38900E+02 4.61030E+01 0.00000E+00
 -1      1935 1.36650E+02 4.48040E+01 0.00000E+00
 -1      1936 1.40400E+02 4.61030E+01 0.00000E+00
 -1      1937 1.41900E+02 4.61030E+01 0.00000E+00
 -1      1938 1.39650E+02 4.48040E+01 0.00000E+00
 -1      1939 1.43244E+02 4.61616E+01 0.00000E+00
 -1      1940 1.44744E+02 4.61616E+01 0.00000E+00
 -1      1941 1.45182E+02 4.49799E+01 0.00000E+00
 -1      1942 1.42494E+02 4.48626E+01 0.00000E+00
 -1      1943 1.17045E+01 3.09687E+00 0.00000E+00
 -1      1944 1.02045E+01 3.09687E+00 0.00000E+00
 -1      1945 1.00350E+01 4.00625E+00 0.00000E+00
 -1      1946 1.47045E+01 3.09687E+00 0.00000E+00
 -1      1947 1.32045E+01 3.09687E+00 0.00000E+00
 -1      1948 1.30350E+01 4.00625E+00 0.00000E+00
 -1      1949 1.77045E+01 3.09687E+00 0.00000E+00
 -1      1950 1.62045E+01 3.09687E+00 0.00000E+00
 -1      1951 1.60350E+01 4.00625E+00 0.00000E+00
 -1      1952 2.07045E+01 3.09687E+00 0.00000E+00
 -1      1953 1.92045E+01 3.09687E+00 0.00000E+00
 -1      1954 1.90350E+01 4.00625E+00 0.00000E+00
 -1      1955 2.37045E+01 3.09687E+00 0.00000E+00
 -1      1956 2.22045E+01 3.09687E+00 0.00000E+00
 -1      1957 2.20350E+01 4.00625E+00 0.00000E+00
 -1      1958 2.67045E+01 3.09687E+00 0.00000E+00
 -1      1959 2.52045E+01 3.09687E+00 0.00000E+00
 -1      1960 2.50350E+01 4.00625E+00 0.00000E+00
 -1      1961 2.97045E+01 3.09687E+00 0.00000E+00
 -1      1962 2.82045E+01 3.09687E+00 0.00000E+00
 -1      1963 2.80350E+01 4.00625E+00 0.00000E+00
 -1      1964 3.27045E+01 3.09687E+00 0.00000E+00
 -1      1965 3.12045E+01 3.09687E+00 0.00000E+00
 -1      1966 3.10350E+01 4.00625E+00 0.00000E+00
 -1      1967 3.57045E+01 3.09687E+00 0.00000E+00
 -1      1968 3.42045E+01 3.09687E+00 0.00000E+00
 -1      1969 3.40350E+01 4.00625E+00 0.00000E+00
 -1      1970 3.87045E+01 3.09687E+00 0.00000E+00
 -1      1971 3.72045E+01 3.09687E+00 0.00000E+00
 -1      1972 3.70350E+01 4.00625E+00 0.00000E+00
 -1      1973 4.17045E+01 3.09687E+00 0.00000E+00
 -1      1974 4.02045E+01 3.09687E+00 0.00000E+00
 -1      1975 4.00350E+01 4.00625E+00 0.00000E+00
 -1      1976 4.47045E+01 3.09687E+00 0.00000E+00
 -1      1977 4.32045E+01 3.09687E+00 0.00000E+00
 -1      1978 4.30350E+01 4.00625E+00 0.00000E+00
 -1      1979 4.77045E+01 3.09687E+00 0.00000E+00
 -1      1980 4.62045E+01 3.09687E+00 0.00000E+00
 -1      1981 4.60350E+01 4.00625E+00 0.00000E+00
 -1      1982 5.07045E+01 3.09687E+00 0.00000E+00
 -1      1983 4.92045E+01 3.09687E+00 0.00000E+00
 -1      1984 4.90350E+01 4.00625E+00 0.00000E+00
 -1      1985 5.37045E+01 3.09687E+00 0.00000E+00
 -1      1986 5.22045E+01 3.09687E+00 0.00000E+00
 -1      1987 5.20350E+01 4.00625E+00 0.00000E+00
 -1      1988 5.67045E+01 3.09687E+00 0.00000E+00
 -1      1989 5.52045E+01 3.09687E+00 0.00000E+00
 -1      1990 5.50350E+01 4.00625E+00 0.00000E+00
 -1      1991 5.97045E+01 3.09687E+00 0.00000E+00
 -1      1992 5.82045E+01 3.09687E+00 0.00000E+00
 -1      1993 5.80350E+01 4.00625E+00 0.00000E+00
 -1      1994 6.27045E+01 3.09687E+00 0.00000E+00
 -1      1995 6.12045E+01 3.09687E+00 0.00000E+00
 -1      1996 6.10350E+01 4.00625E+00 0.00000E+00
 -1      1997 6.57045E+01 3.09687E+00 0.00000E+00
 -1      1998 6.42045E+01 3.09687E+00 0.00000E+00
 -1      1999 6.40350E+01 4.00625E+00 0.00000E+00
 -1      2000 6.87045E+01 3.09687E+00 0.00000E+00
 -1      2001 6.72045E+01 3.09687E+00 0.00000E+00
 -1      2002 6.70350E+01 4.00625E+00 0.00000E+00
 -1      2003 7.17045E+01 3.09687E+00 0.00000E+00
 -1      2004 7.02045E+01 3.09687E+00 0.00000E+00
 -1      2005 7.00350E+01 4.00625E+00 0.00000E+00
 -1      2006 7.47045E+01 3.09687E+00 0.00000E+00
 -1      2007 7.32045E+01 3.09687E+00 0.00000E+00
 -1      2008 7.30350E+01 4.00625E+00 0.00000E+00
 -1      2009 7.77045E+01 3.09687E+00 0.00000E+00
 -1      2010 7.62045E+01 3.09687E+00 0.00000E+00
 -1      2011 7.60350E+01 4.00625E+00 0.00000E+00
 -1      2012 8.07045E+01 3.09687E+00 0.00000E+00
 -1      2013 7.92045E+01 3.09687E+00 0.00000E+00
 -1      2014 7.90350E+01 4.00625E+00 0.00000E+00
 -1      2015 8.37045E+01 3.09687E+00 0.00000E+00
 -1      2016 8.22045E+01 3.09687E+00 0.00000E+00
 -1      2017 8.20350E+01 4.00625E+00 0.00000E+00
 -1      2018 8.67045E+01 3.09687E+00 0.00000E+00
 -1      2019 8.52045E+01 3.09687E+00 0.00000E+00
 -1      2020 8.50350E+01 4.00625E+00 0.00000E+00
 -1      2021 8.97045E+01 3.09687E+00 0.00000E+00
 -1      2022 8.82045E+01 3.09687E+00 0.00000E+00
 -1      2023 8.80350E+01 4.00625E+00 0.00000E+00
 -1      2024 9.27045E+01 3.09687E+00 0.00000E+00
 -1      2025 9.12045E+01 3.09687E+00 0.00000E+00
 -1      2026 9.10350E+01 4.00625E+00 0.00000E+00
 -1      2027 9.57045E+01 3.09687E+00 0.00000E+00
 -1      2028 9.42045E+01 3.09687E+00 0.00000E+00
 -1      2029 9.40350E+01 4.00625E+00 0.00000E+00
 -1      2030 9.87045E+01 3.09687E+00 0.00000E+00
 -1      2031 9.72045E+01 3.09687E+00 0.00000E+00
 -1      2032 9.70350E+01 4.00625E+00 0.00000E+00
 -1      2033 1.01704E+02 3.09687E+00 0.00000E+00
 -1      2034 1.00204E+02 3.09687E+00 0.00000E+00
 -1      2035 1.00035E+02 4.00625E+00 0.00000E+00
 -1      2036 1.04704E+02 3.09687E+00 0.00000E+00
 -1      2037 1.03204E+02 3.09687E+00 0.00000E+00
 -1      2038 1.03035E+02 4.00625E+00 0.00000E+00
 -1      2039 1.07704E+02 3.09687E+00 0.00000E+00
 -1      2040 1.06204E+02 3.09687E+00 0.00000E+00
 -1      2041 1.06035E+02 4.00625E+00 0.00000E+00
 -1      2042 1.10704E+02 3.09687E+00 0.00000E+00
 -1      2043 1.09204E+02 3.09687E+00 0.00000E+00
 -1      2044 1.09035E+02 4.00625E+00 0.00000E+00
 -1      2045 1.13704E+02 3.09687E+00 0.00000E+00
 -1      2046 1.12204E+02 3.09687E+00 0.00000E+00
 -1      2047 1.12035E+02 4.00625E+00 0.00000E+00
 -1      2048 1.16704E+02 3.09687E+00 0.00000E+00
 -1      2049 1.15204E+02 3.09687E+00 0.00000E+00
 -1      2050 1.15035E+02 4.00625E+00 0.00000E+00
 -1      2051 1.19704E+02 3.09687E+00 0.00000E+00
 -1      2052 1.18204E+02 3.09687E+00 0.00000E+00
 -1      2053 1.18035E+02 4.00625E+00 0.00000E+00
 -1      2054 1.22704E+02 3.09687E+00 0.00000E+00
 -1      2055 1.21204E+02 3.09687E+00 0.00000E+00
 -1      2056 1.21035E+02 4.00625E+00 0.00000E+00
 -1      2057 1.25704E+02 3.09687E+00 0.00000E+00
 -1      2058 1.24204E+02 3.09687E+00 0.00000E+00
 -1      2059 1.24035E+02 4.00625E+00 0.00000E+00
 -1      2060 1.28704E+02 3.09687E+00 0.00000E+00
 -1      2061 1.27204E+02 3.09687E+00 0.00000E+00
 -1      2062 1.27035E+02 4.00625E+00 0.00000E+00
 -1      2063 1.31704E+02 3.09687E+00 0.00000E+00
 -1      2064 1.30204E+02 3.09687E+00 0.00000E+00
 -1      2065 1.30035E+02 4.00625E+00 0.00000E+00
 -1      2066 1.34704E+02 3.09687E+00 0.00000E+00
 -1      2067 1.33204E+02 3.09687E+00 0.00000E+00
 -1      2068 1.33035E+02 4.00625E+00 0.00000E+00
 -1      2069 1.37704E+02 3.09687E+00 0.00000E+00
 -1      2070 1.36204E+02 3.09687E+00 0.00000E+00
 -1      2071 1.36035E+02 4.00625E+00 0.00000E+00
 -1      2072 1.40704E+02 3.09687E+00 0.00000E+00
 -1      2073 1.39204E+02 3.09687E+00 0.00000E+00
 -1      2074 1.39035E+02 4.00625E+00 0.00000E+00
 -1      2075 1.43704E+02 3.09687E+00 0.00000E+00
 -1      2076 1.42204E+02 3.09687E+00 0.00000E+00
 -1      2077 1.42035E+02 4.00625E+00 0.00000E+00
 -1      2078 1.46171E+02 3.20156E+00 0.00000E+00
 -1      2079 1.44671E+02 3.20156E+00 0.00000E+00
 -1      2080 1.44502E+02 4.11094E+00 0.00000E+00
 -1      2081 1.46435E+02 4.32031E+00 0.00000E+00
 -1      2082 1.46103E+02 1.25375E+01 0.00000E+00
 -1      2083 1.46103E+02 1.10625E+01 0.00000E+00
 -1      2084 1.46103E+02 9.58750E+00 0.00000E+00
 -1      2085 1.46103E+02 8.11250E+00 0.00000E+00
 -1      2086 1.44804E+02 1.03250E+01 0.00000E+00
 -1      2087 1.46269E+02 6.95391E+00 0.00000E+00
 -1      2088 1.46269E+02 5.47891E+00 0.00000E+00
 -1      2089 1.45302E+02 5.37422E+00 0.00000E+00
 -1      2090 1.44970E+02 7.69141E+00 0.00000E+00
 -1      2091 1.46103E+02 1.54375E+01 0.00000E+00
 -1      2092 1.46103E+02 1.39875E+01 0.00000E+00
 -1      2093 1.44804E+02 1.32500E+01 0.00000E+00
 -1      2094 1.46103E+02 1.83875E+01 0.00000E+00
 -1      2095 1.46103E+02 1.69125E+01 0.00000E+00
 -1      2096 1.44804E+02 1.61750E+01 0.00000E+00
 -1      2097 1.46103E+02 2.13375E+01 0.00000E+00
 -1      2098 1.46103E+02 1.98625E+01 0.00000E+00
 -1      2099 1.44804E+02 1.91250E+01 0.00000E+00
 -1      2100 1.46103E+02 2.42875E+01 0.00000E+00
 -1      2101 1.46103E+02 2.28125E+01 0.00000E+00
 -1      2102 1.44804E+02 2.20750E+01 0.00000E+00
 -1      2103 1.46103E+02 2.72375E+01 0.00000E+00
 -1      2104 1.46103E+02 2.57625E+01 0.00000E+00
 -1      2105 1.44804E+02 2.50250E+01 0.00000E+00
 -1      2106 1.46103E+02 3.01875E+01 0.00000E+00
 -1      2107 1.46103E+02 2.87125E+01 0.00000E+00
 -1      2108 1.44804E+02 2.79750E+01 0.00000E+00
 -1      2109 1.46103E+02 3.30875E+01 0.00000E+00
 -1      2110 1.46103E+02 3.16375E+01 0.00000E+00
 -1      2111 1.44804E+02 3.09000E+01 0.00000E+00
 -1      2112 1.46103E+02 3.60375E+01 0.00000E+00
 -1      2113 1.46103E+02 3.45625E+01 0.00000E+00
 -1      2114 1.44804E+02 3.38250E+01 0.00000E+00
 -1      2115 1.46103E+02 3.89875E+01 0.00000E+00
 -1      2116 1.46103E+02 3.75125E+01 0.00000E+00
 -1      2117 1.44804E+02 3.67750E+01 0.00000E+00
 -1      2118 1.46103E+02 4.19375E+01 0.00000E+00
 -1      2119 1.46103E+02 4.04625E+01 0.00000E+00
 -1      2120 1.44804E+02 3.97250E+01 0.00000E+00
 -1      2121 7.86153E+01 2.35212E+01 0.00000E+00
 -1      2122 7.89136E+01 2.42995E+01 0.00000E+00
 -1      2123 7.95166E+01 2.70042E+01 0.00000E+00
 -1      2124 7.95545E+01 2.79059E+01 0.00000E+00
 -1      2125 7.92343E+01 2.51611E+01 0.00000E+00
 -1      2126 7.94501E+01 2.59836E+01 0.00000E+00
 -1      2127 7.78831E+01 2.17762E+01 0.00000E+00
 -1      2128 7.83207E+01 2.25863E+01 0.00000E+00
 -1      2129 7.61077E+01 2.04831E+01 0.00000E+00
 -1      2130 7.68931E+01 2.09654E+01 0.00000E+00
 -1      2131 3.89700E+00 3.74688E+01 0.00000E+00
 -1      2132 3.89700E+00 3.89437E+01 0.00000E+00
 -1      2133 5.19600E+00 3.96813E+01 0.00000E+00
 -1      2134 5.19600E+00 3.67438E+01 0.00000E+00
 -1      2135 7.27013E+01 1.87279E+01 0.00000E+00
 -1      2136 7.35960E+01 1.88715E+01 0.00000E+00
 -1      2137 7.09816E+01 1.84318E+01 0.00000E+00
 -1      2138 7.18415E+01 1.85798E+01 0.00000E+00
 -1      2139 7.24115E+01 1.78876E+01 0.00000E+00
 -1      2140 6.89261E+01 1.84382E+01 0.00000E+00
 -1      2141 6.98038E+01 1.82780E+01 0.00000E+00
 -1      2142 6.71617E+01 1.92595E+01 0.00000E+00
 -1      2143 6.79992E+01 1.89511E+01 0.00000E+00
 -1      2144 6.55104E+01 2.02479E+01 0.00000E+00
 -1      2145 6.62274E+01 1.97464E+01 0.00000E+00
 -1      2146 6.41206E+01 2.14081E+01 0.00000E+00
 -1      2147 6.48155E+01 2.08280E+01 0.00000E+00
 -1      2148 6.47786E+01 2.00118E+01 0.00000E+00
 -1      2149 6.28299E+01 2.30958E+01 0.00000E+00
 -1      2150 6.32576E+01 2.22761E+01 0.00000E+00
 -1      2151 6.22092E+01 2.48394E+01 0.00000E+00
 -1      2152 6.25059E+01 2.40304E+01 0.00000E+00
 -1      2153 6.17354E+01 2.66198E+01 0.00000E+00
 -1      2154 6.19362E+01 2.57567E+01 0.00000E+00
 -1      2155 6.18860E+01 2.86096E+01 0.00000E+00
 -1      2156 6.17406E+01 2.77468E+01 0.00000E+00
 -1      2157 6.21745E+01 3.04064E+01 0.00000E+00
 -1      2158 6.20302E+01 2.95080E+01 0.00000E+00
 -1      2159 6.13185E+01 2.91843E+01 0.00000E+00
 -1      2160 6.31885E+01 3.22219E+01 0.00000E+00
 -1      2161 6.26404E+01 3.14853E+01 0.00000E+00
 -1      2162 6.41763E+01 3.37042E+01 0.00000E+00
 -1      2163 6.36824E+01 3.29631E+01 0.00000E+00
 -1      2164 6.28884E+01 3.29817E+01 0.00000E+00
 -1      2165 6.58503E+01 3.49414E+01 0.00000E+00
 -1      2166 6.50460E+01 3.45094E+01 0.00000E+00
 -1      2167 6.74828E+01 3.59071E+01 0.00000E+00
 -1      2168 6.66666E+01 3.54243E+01 0.00000E+00
 -1      2169 6.59380E+01 3.58162E+01 0.00000E+00
 -1      2170 6.95309E+01 3.65051E+01 0.00000E+00
 -1      2171 6.85960E+01 3.64142E+01 0.00000E+00
 -1      2172 7.14565E+01 3.62262E+01 0.00000E+00
 -1      2173 7.05777E+01 3.63038E+01 0.00000E+00
 -1      2174 7.33251E+01 3.60288E+01 0.00000E+00
 -1      2175 7.24170E+01 3.61850E+01 0.00000E+00
 -1      2176 7.52081E+01 3.51045E+01 0.00000E+00
 -1      2177 7.44357E+01 3.55988E+01 0.00000E+00
 -1      2178 7.66715E+01 3.38969E+01 0.00000E+00
 -1      2179 7.59880E+01 3.44770E+01 0.00000E+00
 -1      2180 7.79961E+01 3.24820E+01 0.00000E+00
 -1      2181 7.74535E+01 3.31939E+01 0.00000E+00
 -1      2182 7.89006E+01 3.08044E+01 0.00000E+00
 -1      2183 7.85362E+01 3.15899E+01 0.00000E+00
 -1      2184 7.95266E+01 2.90454E+01 0.00000E+00
 -1      2185 7.92541E+01 2.98965E+01 0.00000E+00
 -1      2186 7.46526E+01 1.93962E+01 0.00000E+00
 -1      2187 7.53802E+01 1.99397E+01 0.00000E+00
 -1      2188 7.61120E+01 1.96285E+01 0.00000E+00
 -1      2189 7.78296E+01 2.09828E+01 0.00000E+00
 -1      2190 7.87660E+01 2.10001E+01 0.00000E+00
 -1      2191 7.77760E+01 2.01894E+01 0.00000E+00
 -1      2192 6.42300E+00 4.57510E+01 0.00000E+00
 -1      2193 7.43279E+01 1.85604E+01 0.00000E+00
 -1      2194 7.17300E+00 4.44520E+01 0.00000E+00
 -1      2195 7.97294E+01 2.45250E+01 0.00000E+00
 -1      2196 8.01166E+01 2.64072E+01 0.00000E+00
 -1      2197 1.45665E+02 4.31193E+01 0.00000E+00
 -1      2198 7.91141E+01 2.27285E+01 0.00000E+00
 -1      2199 8.01551E+01 2.85674E+01 0.00000E+00
 -1      2200 7.97738E+01 3.06148E+01 0.00000E+00
 -1      2201 7.88803E+01 3.24149E+01 0.00000E+00
 -1      2202 7.75582E+01 3.40100E+01 0.00000E+00
 -1      2203 7.59963E+01 3.53406E+01 0.00000E+00
 -1      2204 7.41057E+01 3.63981E+01 0.00000E+00
 -1      2205 7.20346E+01 3.68694E+01 0.00000E+00
 -1      2206 6.78673E+01 3.68061E+01 0.00000E+00
 -1      2207 6.42520E+01 3.45281E+01 0.00000E+00
 -1      2208 6.34580E+01 3.45467E+01 0.00000E+00
 -1      2209 6.43277E+01 3.53520E+01 0.00000E+00
 -1      2210 6.19286E+01 3.11616E+01 0.00000E+00
 -1      2211 6.12168E+01 3.08379E+01 0.00000E+00
 -1      2212 6.16828E+01 3.19168E+01 0.00000E+00
 -1      2213 6.11690E+01 2.71589E+01 0.00000E+00
 -1      2214 6.14368E+01 2.51146E+01 0.00000E+00
 -1      2215 6.32207E+01 2.14600E+01 0.00000E+00
 -1      2216 6.31838E+01 2.06438E+01 0.00000E+00
 -1      2217 6.23209E+01 2.15119E+01 0.00000E+00
 -1      2218 6.64078E+01 1.89448E+01 0.00000E+00
 -1      2219 7.03738E+01 1.75858E+01 0.00000E+00
 -1      2220 6.82690E+01 1.79449E+01 0.00000E+00
 -1      2221 6.20338E+01 2.32627E+01 0.00000E+00
 -1      2222 7.00273E+01 3.71119E+01 0.00000E+00
 -1      2223 1.07850E+01 5.30525E+00 0.00000E+00
 -1      2224 9.28500E+00 5.30525E+00 0.00000E+00
 -1      2225 6.49500E+00 3.01125E+01 0.00000E+00
 -1      2226 6.49500E+00 3.15875E+01 0.00000E+00
 -1      2227 6.49500E+00 3.30625E+01 0.00000E+00
 -1      2228 6.49500E+00 3.45375E+01 0.00000E+00
 -1      2229 7.79400E+00 3.23250E+01 0.00000E+00
 -1      2230 6.49500E+00 2.42125E+01 0.00000E+00
 -1      2231 6.49500E+00 2.56875E+01 0.00000E+00
 -1      2232 6.49500E+00 2.12625E+01 0.00000E+00
 -1      2233 6.49500E+00 2.27375E+01 0.00000E+00
 -1      2234 7.79400E+00 2.34750E+01 0.00000E+00
 -1      2235 6.49500E+00 1.83625E+01 0.00000E+00
 -1      2236 6.49500E+00 1.98125E+01 0.00000E+00
 -1      2237 7.79400E+00 2.05500E+01 0.00000E+00
 -1      2238 6.49500E+00 1.54125E+01 0.00000E+00
 -1      2239 6.49500E+00 1.68875E+01 0.00000E+00
 -1      2240 7.79400E+00 1.76250E+01 0.00000E+00
 -1      2241 6.49500E+00 1.24625E+01 0.00000E+00
 -1      2242 6.49500E+00 1.39375E+01 0.00000E+00
 -1      2243 7.79400E+00 1.46750E+01 0.00000E+00
 -1      2244 6.49500E+00 9.51250E+00 0.00000E+00
 -1      2245 6.49500E+00 1.09875E+01 0.00000E+00
 -1      2246 7.79400E+00 1.17250E+01 0.00000E+00
 -1      2247 1.37850E+01 5.30525E+00 0.00000E+00
 -1      2248 1.22850E+01 5.30525E+00 0.00000E+00
 -1      2249 1.15350E+01 6.60425E+00 0.00000E+00
 -1      2250 9.90000E+00 4.35050E+01 0.00000E+00
 -1      2251 1.14000E+01 4.35050E+01 0.00000E+00
 -1      2252 7.41065E+01 1.76800E+01 0.00000E+00
 -1      2253 7.51631E+01 1.82047E+01 0.00000E+00
 -1      2254 1.29000E+01 4.35050E+01 0.00000E+00
 -1      2255 1.44000E+01 4.35050E+01 0.00000E+00
 -1      2256 1.21500E+01 4.22060E+01 0.00000E+00
 -1      2257 1.59000E+01 4.35050E+01 0.00000E+00
 -1      2258 1.74000E+01 4.35050E+01 0.00000E+00
 -1      2259 1.51500E+01 4.22060E+01 0.00000E+00
 -1      2260 1.89000E+01 4.35050E+01 0.00000E+00
 -1      2261 2.04000E+01 4.35050E+01 0.00000E+00
 -1      2262 1.81500E+01 4.22060E+01 0.00000E+00
 -1      2263 2.19000E+01 4.35050E+01 0.00000E+00
 -1      2264 2.34000E+01 4.35050E+01 0.00000E+00
 -1      2265 2.11500E+01 4.22060E+01 0.00000E+00
 -1      2266 2.49000E+01 4.35050E+01 0.00000E+00
 -1      2267 2.64000E+01 4.35050E+01 0.00000E+00
 -1      2268 2.41500E+01 4.22060E+01 0.00000E+00
 -1      2269 2.79000E+01 4.35050E+01 0.00000E+00
 -1      2270 2.94000E+01 4.35050E+01 0.00000E+00
 -1      2271 2.71500E+01 4.22060E+01 0.00000E+00
 -1      2272 3.09000E+01 4.35050E+01 0.00000E+00
 -1      2273 3.24000E+01 4.35050E+01 0.00000E+00
 -1      2274 3.01500E+01 4.22060E+01 0.00000E+00
 -1      2275 3.39000E+01 4.35050E+01 0.00000E+00
 -1      2276 3.54000E+01 4.35050E+01 0.00000E+00
 -1      2277 3.31500E+01 4.22060E+01 0.00000E+00
 -1      2278 3.69000E+01 4.35050E+01 0.00000E+00
 -1      2279 3.84000E+01 4.35050E+01 0.00000E+00
 -1      2280 3.61500E+01 4.22060E+01 0.00000E+00
 -1      2281 3.99000E+01 4.35050E+01 0.00000E+00
 -1      2282 4.14000E+01 4.35050E+01 0.00000E+00
 -1      2283 3.91500E+01 4.22060E+01 0.00000E+00
 -1      2284 4.29000E+01 4.35050E+01 0.00000E+00
 -1      2285 4.44000E+01 4.35050E+01 0.00000E+00
 -1      2286 4.21500E+01 4.22060E+01 0.00000E+00
 -1      2287 4.59000E+01 4.35050E+01 0.00000E+00
 -1      2288 4.74000E+01 4.35050E+01 0.00000E+00
 -1      2289 4.51500E+01 4.22060E+01 0.00000E+00
 -1      2290 4.89000E+01 4.35050E+01 0.00000E+00
 -1      2291 5.04000E+01 4.35050E+01 0.00000E+00
 -1      2292 4.81500E+01 4.22060E+01 0.00000E+00
 -1      2293 5.19000E+01 4.35050E+01 0.00000E+00
 -1      2294 5.34000E+01 4.35050E+01 0.00000E+00
 -1      2295 5.11500E+01 4.22060E+01 0.00000E+00
 -1      2296 5.49000E+01 4.35050E+01 0.00000E+00
 -1      2297 5.64000E+01 4.35050E+01 0.00000E+00
 -1      2298 5.41500E+01 4.22060E+01 0.00000E+00
 -1      2299 5.79000E+01 4.35050E+01 0.00000E+00
 -1      2300 5.94000E+01 4.35050E+01 0.00000E+00
 -1      2301 5.71500E+01 4.22060E+01 0.00000E+00
 -1      2302 6.09000E+01 4.35050E+01 0.00000E+00
 -1      2303 6.24000E+01 4.35050E+01 0.00000E+00
 -1      2304 6.01500E+01 4.22060E+01 0.00000E+00
 -1      2305 6.39000E+01 4.35050E+01 0.00000E+00
 -1      2306 6.54000E+01 4.35050E+01 0.00000E+00
 -1      2307 6.31500E+01 4.22060E+01 0.00000E+00
 -1      2308 6.69000E+01 4.35050E+01 0.00000E+00
 -1      2309 6.84000E+01 4.35050E+01 0.00000E+00
 -1      2310 6.61500E+01 4.22060E+01 0.00000E+00
 -1      2311 6.99000E+01 4.35050E+01 0.00000E+00
 -1      2312 7.14000E+01 4.35050E+01 0.00000E+00
 -1      2313 6.91500E+01 4.22060E+01 0.00000E+00
 -1      2314 7.29000E+01 4.35050E+01 0.00000E+00
 -1      2315 7.44000E+01 4.35050E+01 0.00000E+00
 -1      2316 7.21500E+01 4.22060E+01 0.00000E+00
 -1      2317 7.59000E+01 4.35050E+01 0.00000E+00
 -1      2318 7.74000E+01 4.35050E+01 0.00000E+00
 -1      2319 7.51500E+01 4.22060E+01 0.00000E+00
 -1      2320 7.89000E+01 4.35050E+01 0.00000E+00
 -1      2321 8.04000E+01 4.35050E+01 0.00000E+00
 -1      2322 7.81500E+01 4.22060E+01 0.00000E+00
 -1      2323 8.19000E+01 4.35050E+01 0.00000E+00
 -1      2324 8.34000E+01 4.35050E+01 0.00000E+00
 -1      2325 8.11500E+01 4.22060E+01 0.00000E+00
 -1      2326 8.49000E+01 4.35050E+01 0.00000E+00
 -1      2327 8.64000E+01 4.35050E+01 0.00000E+00
 -1      2328 8.41500E+01 4.22060E+01 0.00000E+00
 -1      2329 8.79000E+01 4.35050E+01 0.00000E+00
 -1      2330 8.94000E+01 4.35050E+01 0.00000E+00
 -1      2331 8.71500E+01 4.22060E+01 0.00000E+00
 -1      2332 9.09000E+01 4.35050E+01 0.00000E+00
 -1      2333 9.24000E+01 4.35050E+01 0.00000E+00
 -1      2334 9.01500E+01 4.22060E+01 0.00000E+00
 -1      2335 9.39000E+01 4.35050E+01 0.00000E+00
 -1      2336 9.54000E+01 4.35050E+01 0.00000E+00
 -1      2337 9.31500E+01 4.22060E+01 0.00000E+00
 -1      2338 9.69000E+01 4.35050E+01 0.00000E+00
 -1      2339 9.84000E+01 4.35050E+01 0.00000E+00
 -1      2340 9.61500E+01 4.22060E+01 0.00000E+00
 -1      2341 9.99000E+01 4.35050E+01 0.00000E+00
 -1      2342 1.01400E+02 4.35050E+01 0.00000E+00
 -1      2343 9.91500E+01 4.22060E+01 0.00000E+00
 -1      2344 1.02900E+02 4.35050E+01 0.00000E+00
 -1      2345 1.04400E+02 4.35050E+01 0.00000E+00
 -1      2346 1.02150E+02 4.22060E+01 0.00000E+00
 -1      2347 1.05900E+02 4.35050E+01 0.00000E+00
 -1      2348 1.07400E+02 4.35050E+01 0.00000E+00
 -1      2349 1.05150E+02 4.22060E+01 0.00000E+00
 -1      2350 1.08900E+02 4.35050E+01 0.00000E+00
 -1      2351 1.10400E+02 4.35050E+01 0.00000E+00
 -1      2352 1.08150E+02 4.22060E+01 0.00000E+00
 -1      2353 1.11900E+02 4.35050E+01 0.00000E+00
 -1      2354 1.13400E+02 4.35050E+01 0.00000E+00
 -1      2355 1.11150E+02 4.22060E+01 0.00000E+00
 -1      2356 1.14900E+02 4.35050E+01 0.00000E+00
 -1      2357 1.16400E+02 4.35050E+01 0.00000E+00
 -1      2358 1.14150E+02 4.22060E+01 0.00000E+00
 -1      2359 1.17900E+02 4.35050E+01 0.00000E+00
 -1      2360 1.19400E+02 4.35050E+01 0.00000E+00
 -1      2361 1.17150E+02 4.22060E+01 0.00000E+00
 -1      2362 1.20900E+02 4.35050E+01 0.00000E+00
 -1      2363 1.22400E+02 4.35050E+01 0.00000E+00
 -1      2364 1.20150E+02 4.22060E+01 0.00000E+00
 -1      2365 1.23900E+02 4.35050E+01 0.00000E+00
 -1      2366 1.25400E+02 4.35050E+01 0.00000E+00
 -1      2367 1.23150E+02 4.22060E+01 0.00000E+00
 -1      2368 1.26900E+02 4.35050E+01 0.00000E+00
 -1      2369 1.28400E+02 4.35050E+01 0.00000E+00
 -1      2370 1.26150E+02 4.22060E+01 0.00000E+00
 -1      2371 1.29900E+02 4.35050E+01 0.00000E+00
 -1      2372 1.31400E+02 4.35050E+01 0.00000E+00
 -1      2373 1.29150E+02 4.22060E+01 0.00000E+00
 -1      2374 1.32900E+02 4.35050E+01 0.00000E+00
 -1      2375 1.34400E+02 4.35050E+01 0.00000E+00
 -1      2376 1.32150E+02 4.22060E+01 0.00000E+00
 -1      2377 1.35900E+02 4.35050E+01 0.00000E+00
 -1      2378 1.37400E+02 4.35050E+01 0.00000E+00
 -1      2379 1.35150E+02 4.22060E+01 0.00000E+00
 -1      2380 1.38900E+02 4.35050E+01 0.00000E+00
 -1      2381 1.40400E+02 4.35050E+01 0.00000E+00
 -1      2382 1.38150E+02 4.22060E+01 0.00000E+00
 -1      2383 1.97850E+01 5.30525E+00 0.00000E+00
 -1      2384 1.82850E+01 5.30525E+00 0.00000E+00
 -1      2385 2.27850E+01 5.30525E+00 0.00000E+00
 -1      2386 2.12850E+01 5.30525E+00 0.00000E+00
 -1      2387 2.05350E+01 6.60425E+00 0.00000E+00
 -1      2388 2.57850E+01 5.30525E+00 0.00000E+00
 -1      2389 2.42850E+01 5.30525E+00 0.00000E+00
 -1      2390 2.35350E+01 6.60425E+00 0.00000E+00
 -1      2391 2.87850E+01 5.30525E+00 0.00000E+00
 -1      2392 2.72850E+01 5.30525E+00 0.00000E+00
 -1      2393 2.65350E+01 6.60425E+00 0.00000E+00
 -1      2394 3.17850E+01 5.30525E+00 0.00000E+00
 -1      2395 3.02850E+01 5.30525E+00 0.00000E+00
 -1      2396 2.95350E+01 6.60425E+00 0.00000E+00
 -1      2397 3.47850E+01 5.30525E+00 0.00000E+00
 -1      2398 3.32850E+01 5.30525E+00 0.00000E+00
 -1      2399 3.25350E+01 6.60425E+00 0.00000E+00
 -1      2400 3.77850E+01 5.30525E+00 0.00000E+00
 -1      2401 3.62850E+01 5.30525E+00 0.00000E+00
 -1      2402 3.55350E+01 6.60425E+00 0.00000E+00
 -1      2403 4.07850E+01 5.30525E+00 0.00000E+00
 -1      2404 3.92850E+01 5.30525E+00 0.00000E+00
 -1      2405 3.85350E+01 6.60425E+00 0.00000E+00
 -1      2406 4.37850E+01 5.30525E+00 0.00000E+00
 -1      2407 4.22850E+01 5.30525E+00 0.00000E+00
 -1      2408 4.15350E+01 6.60425E+00 0.00000E+00
 -1      2409 4.67850E+01 5.30525E+00 0.00000E+00
 -1      2410 4.52850E+01 5.30525E+00 0.00000E+00
 -1      2411 4.45350E+01 6.60425E+00 0.00000E+00
 -1      2412 4.97850E+01 5.30525E+00 0.00000E+00
 -1      2413 4.82850E+01 5.30525E+00 0.00000E+00
 -1      2414 4.75350E+01 6.60425E+00 0.00000E+00
 -1      2415 5.27850E+01 5.30525E+00 0.00000E+00
 -1      2416 5.12850E+01 5.30525E+00 0.00000E+00
 -1      2417 5.05350E+01 6.60425E+00 0.00000E+00
 -1      2418 5.57850E+01 5.30525E+00 0.00000E+00
 -1      2419 5.42850E+01 5.30525E+00 0.00000E+00
 -1      2420 5.35350E+01 6.60425E+00 0.00000E+00
 -1      2421 5.87850E+01 5.30525E+00 0.00000E+00
 -1      2422 5.72850E+01 5.30525E+00 0.00000E+00
 -1      2423 5.65350E+01 6.60425E+00 0.00000E+00
 -1      2424 6.17850E+01 5.30525E+00 0.00000E+00
 -1      2425 6.02850E+01 5.30525E+00 0.00000E+00
 -1      2426 5.95350E+01 6.60425E+00 0.00000E+00
 -1      2427 6.47850E+01 5.30525E+00 0.00000E+00
 -1      2428 6.32850E+01 5.30525E+00 0.00000E+00
 -1      2429 6.25350E+01 6.60425E+00 0.00000E+00
 -1      2430 6.77850E+01 5.30525E+00 0.00000E+00
 -1      2431 6.62850E+01 5.30525E+00 0.00000E+00
 -1      2432 6.55350E+01 6.60425E+00 0.00000E+00
 -1      2433 7.07850E+01 5.30525E+00 0.00000E+00
 -1      2434 6.92850E+01 5.30525E+00 0.00000E+00
 -1      2435 6.85350E+01 6.60425E+00 0.00000E+00
 -1      2436 7.37850E+01 5.30525E+00 0.00000E+00
 -1      2437 7.22850E+01 5.30525E+00 0.00000E+00
 -1      2438 7.15350E+01 6.60425E+00 0.00000E+00
 -1      2439 7.67850E+01 5.30525E+00 0.00000E+00
 -1      2440 7.52850E+01 5.30525E+00 0.00000E+00
 -1      2441 7.45350E+01 6.60425E+00 0.00000E+00
 -1      2442 7.97850E+01 5.30525E+00 0.00000E+00
 -1      2443 7.82850E+01 5.30525E+00 0.00000E+00
 -1      2444 7.75350E+01 6.60425E+00 0.00000E+00
 -1      2445 8.27850E+01 5.30525E+00 0.00000E+00
 -1      2446 8.12850E+01 5.30525E+00 0.00000E+00
 -1      2447 8.05350E+01 6.60425E+00 0.00000E+00
 -1      2448 8.57850E+01 5.30525E+00 0.00000E+00
 -1      2449 8.42850E+01 5.30525E+00 0.00000E+00
 -1      2450 8.35350E+01 6.60425E+00 0.00000E+00
 -1      2451 8.87850E+01 5.30525E+00 0.00000E+00
 -1      2452 8.72850E+01 5.30525E+00 0.00000E+00
 -1      2453 8.65350E+01 6.60425E+00 0.00000E+00
 -1      2454 9.17850E+01 5.30525E+00 0.00000E+00
 -1      2455 9.02850E+01 5.30525E+00 0.00000E+00
 -1      2456 8.95350E+01 6.60425E+00 0.00000E+00
 -1      2457 9.47850E+01 5.30525E+00 0.00000E+00
 -1      2458 9.32850E+01 5.30525E+00 0.00000E+00
 -1      2459 9.25350E+01 6.60425E+00 0.00000E+00
 -1      2460 9.77850E+01 5.30525E+00 0.00000E+00
 -1      2461 9.62850E+01 5.30525E+00 0.00000E+00
 -1      2462 9.55350E+01 6.60425E+00 0.00000E+00
 -1      2463 1.00785E+02 5.30525E+00 0.00000E+00
 -1      2464 9.92850E+01 5.30525E+00 0.00000E+00
 -1      2465 9.85350E+01 6.60425E+00 0.00000E+00
 -1      2466 1.03785E+02 5.30525E+00 0.00000E+00
 -1      2467 1.02285E+02 5.30525E+00 0.00000E+00
 -1      2468 1.01535E+02 6.60425E+00 0.00000E+00
 -1      2469 1.06785E+02 5.30525E+00 0.00000E+00
 -1      2470 1.05285E+02 5.30525E+00 0.00000E+00
 -1      2471 1.04535E+02 6.60425E+00 0.00000E+00
 -1      2472 1.09785E+02 5.30525E+00 0.00000E+00
 -1      2473 1.08285E+02 5.30525E+00 0.00000E+00
 -1      2474 1.07535E+02 6.60425E+00 0.00000E+00
 -1      2475 1.12785E+02 5.30525E+00 0.00000E+00
 -1      2476 1.11285E+02 5.30525E+00 0.00000E+00
 -1      2477 1.10535E+02 6.60425E+00 0.00000E+00
 -1      2478 1.15785E+02 5.30525E+00 0.00000E+00
 -1      2479 1.14285E+02 5.30525E+00 0.00000E+00
 -1      2480 1.13535E+02 6.60425E+00 0.00000E+00
 -1      2481 1.18785E+02 5.30525E+00 0.00000E+00
 -1      2482 1.17285E+02 5.30525E+00 0.00000E+00
 -1      2483 1.16535E+02 6.60425E+00 0.00000E+00
 -1      2484 1.21785E+02 5.30525E+00 0.00000E+00
 -1      2485 1.20285E+02 5.30525E+00 0.00000E+00
 -1      2486 1.19535E+02 6.60425E+00 0.00000E+00
 -1      2487 1.24785E+02 5.30525E+00 0.00000E+00
 -1      2488 1.23285E+02 5.30525E+00 0.00000E+00
 -1      2489 1.22535E+02 6.60425E+00 0.00000E+00
 -1      2490 1.27785E+02 5.30525E+00 0.00000E+00
 -1      2491 1.26285E+02 5.30525E+00 0.00000E+00
 -1      2492 1.25535E+02 6.60425E+00 0.00000E+00
 -1      2493 1.30785E+02 5.30525E+00 0.00000E+00
 -1      2494 1.29285E+02 5.30525E+00 0.00000E+00
 -1      2495 1.28535E+02 6.60425E+00 0.00000E+00
 -1      2496 1.33785E+02 5.30525E+00 0.00000E+00
 -1      2497 1.32285E+02 5.30525E+00 0.00000E+00
 -1      2498 1.31535E+02 6.60425E+00 0.00000E+00
 -1      2499 1.36785E+02 5.30525E+00 0.00000E+00
 -1      2500 1.35285E+02 5.30525E+00 0.00000E+00
 -1      2501 1.34535E+02 6.60425E+00 0.00000E+00
 -1      2502 1.39785E+02 5.30525E+00 0.00000E+00
 -1      2503 1.38285E+02 5.30525E+00 0.00000E+00
 -1      2504 1.37535E+02 6.60425E+00 0.00000E+00
 -1      2505 1.42785E+02 5.30525E+00 0.00000E+00
 -1      2506 1.41285E+02 5.30525E+00 0.00000E+00
 -1      2507 1.40535E+02 6.60425E+00 0.00000E+00
 -1      2508 1.44336E+02 5.26953E+00 0.00000E+00
 -1      2509 1.43505E+02 1.69125E+01 0.00000E+00
 -1      2510 1.43505E+02 1.54375E+01 0.00000E+00
 -1      2511 1.43505E+02 1.98625E+01 0.00000E+00
 -1      2512 1.43505E+02 1.83875E+01 0.00000E+00
 -1      2513 1.42206E+02 1.76500E+01 0.00000E+00
 -1      2514 1.43505E+02 1.10625E+01 0.00000E+00
 -1      2515 1.43505E+02 9.58750E+00 0.00000E+00
 -1      2516 1.43505E+02 1.39750E+01 0.00000E+00
 -1      2517 1.43505E+02 1.25250E+01 0.00000E+00
 -1      2518 1.42206E+02 1.17875E+01 0.00000E+00
 -1      2519 1.42206E+02 1.47125E+01 0.00000E+00
 -1      2520 1.43505E+02 2.28125E+01 0.00000E+00
 -1      2521 1.43505E+02 2.13375E+01 0.00000E+00
 -1      2522 1.42206E+02 2.06000E+01 0.00000E+00
 -1      2523 1.43505E+02 2.57625E+01 0.00000E+00
 -1      2524 1.43505E+02 2.42875E+01 0.00000E+00
 -1      2525 1.42206E+02 2.35500E+01 0.00000E+00
 -1      2526 1.43505E+02 2.87125E+01 0.00000E+00
 -1      2527 1.43505E+02 2.72375E+01 0.00000E+00
 -1      2528 1.42206E+02 2.65000E+01 0.00000E+00
 -1      2529 1.43505E+02 3.16125E+01 0.00000E+00
 -1      2530 1.43505E+02 3.01625E+01 0.00000E+00
 -1      2531 1.42206E+02 2.94250E+01 0.00000E+00
 -1      2532 1.43505E+02 3.45625E+01 0.00000E+00
 -1      2533 1.43505E+02 3.30875E+01 0.00000E+00
 -1      2534 1.42206E+02 3.23500E+01 0.00000E+00
 -1      2535 1.43505E+02 3.75125E+01 0.00000E+00
 -1      2536 1.43505E+02 3.60375E+01 0.00000E+00
 -1      2537 1.42206E+02 3.53000E+01 0.00000E+00
 -1      2538 1.43505E+02 4.04625E+01 0.00000E+00
 -1      2539 1.43505E+02 3.89875E+01 0.00000E+00
 -1      2540 1.42206E+02 3.82500E+01 0.00000E+00
 -1      2541 8.09391E+01 2.58412E+01 0.00000E+00
 -1      2542 8.10056E+01 2.68618E+01 0.00000E+00
 -1      2543 7.97847E+01 2.20033E+01 0.00000E+00
 -1      2544 8.00794E+01 2.29382E+01 0.00000E+00
 -1      2545 1.67850E+01 5.30525E+00 0.00000E+00
 -1      2546 1.52850E+01 5.30525E+00 0.00000E+00
 -1      2547 1.75350E+01 6.60425E+00 0.00000E+00
 -1      2548 1.44321E+02 4.30606E+01 0.00000E+00
 -1      2549 8.09777E+01 2.80013E+01 0.00000E+00
 -1      2550 8.09498E+01 2.91408E+01 0.00000E+00
 -1      2551 8.18002E+01 2.74353E+01 0.00000E+00
 -1      2552 8.04000E+01 2.37998E+01 0.00000E+00
 -1      2553 8.07207E+01 2.46614E+01 0.00000E+00
 -1      2554 8.10707E+01 2.30746E+01 0.00000E+00
 -1      2555 6.55950E+00 4.28890E+01 0.00000E+00
 -1      2556 8.53650E+00 4.32410E+01 0.00000E+00
 -1      2557 9.28650E+00 4.19420E+01 0.00000E+00
 -1      2558 6.55950E+00 4.14140E+01 0.00000E+00
 -1      2559 8.06716E+01 3.04416E+01 0.00000E+00
 -1      2560 8.03181E+01 3.13495E+01 0.00000E+00
 -1      2561 6.03141E+01 2.77264E+01 0.00000E+00
 -1      2562 6.03088E+01 2.65994E+01 0.00000E+00
 -1      2563 6.55830E+01 1.85021E+01 0.00000E+00
 -1      2564 6.65172E+01 1.80151E+01 0.00000E+00
 -1      2565 6.49500E+00 2.71625E+01 0.00000E+00
 -1      2566 6.49500E+00 2.86375E+01 0.00000E+00
 -1      2567 7.79400E+00 2.93750E+01 0.00000E+00
 -1      2568 7.79400E+00 2.64250E+01 0.00000E+00
 -1      2569 6.74442E+01 1.75023E+01 0.00000E+00
 -1      2570 6.83711E+01 1.69894E+01 0.00000E+00
 -1      2571 6.66194E+01 1.70596E+01 0.00000E+00
 -1      2572 7.21057E+01 1.70924E+01 0.00000E+00
 -1      2573 7.29656E+01 1.72404E+01 0.00000E+00
 -1      2574 6.11407E+01 2.34765E+01 0.00000E+00
 -1      2575 6.14647E+01 2.25419E+01 0.00000E+00
 -1      2576 6.98904E+01 1.67002E+01 0.00000E+00
 -1      2577 7.10683E+01 1.68539E+01 0.00000E+00
 -1      2578 6.38816E+01 1.96435E+01 0.00000E+00
 -1      2579 6.45765E+01 1.90634E+01 0.00000E+00
 -1      2580 7.07126E+01 3.78533E+01 0.00000E+00
 -1      2581 6.96658E+01 3.80547E+01 0.00000E+00
 -1      2582 6.05947E+01 2.53111E+01 0.00000E+00
 -1      2583 6.08677E+01 2.43938E+01 0.00000E+00
 -1      2584 6.02986E+01 2.36731E+01 0.00000E+00
 -1      2585 6.06680E+01 2.97495E+01 0.00000E+00
 -1      2586 6.05237E+01 2.88511E+01 0.00000E+00
 -1      2587 6.24915E+01 3.37814E+01 0.00000E+00
 -1      2588 6.19976E+01 3.30402E+01 0.00000E+00
 -1      2589 6.59095E+01 3.67957E+01 0.00000E+00
 -1      2590 6.50932E+01 3.63128E+01 0.00000E+00
 -1      2591 6.79989E+01 3.79925E+01 0.00000E+00
 -1      2592 6.68858E+01 3.74854E+01 0.00000E+00
 -1      2593 7.26336E+01 3.77710E+01 0.00000E+00
 -1      2594 7.16731E+01 3.78122E+01 0.00000E+00
 -1      2595 7.13117E+01 3.87549E+01 0.00000E+00
 -1      2596 7.49556E+01 3.69437E+01 0.00000E+00
 -1      2597 7.38449E+01 3.73738E+01 0.00000E+00
 -1      2598 7.69238E+01 3.56949E+01 0.00000E+00
 -1      2599 7.61439E+01 3.63225E+01 0.00000E+00
 -1      2600 7.84878E+01 3.42889E+01 0.00000E+00
 -1      2601 7.77058E+01 3.49919E+01 0.00000E+00
 -1      2602 7.78535E+01 3.59738E+01 0.00000E+00
 -1      2603 7.98839E+01 3.24130E+01 0.00000E+00
 -1      2604 7.93438E+01 3.33050E+01 0.00000E+00
 -1      2605 7.61862E+01 1.87705E+01 0.00000E+00
 -1      2606 7.69138E+01 1.93139E+01 0.00000E+00
 -1      2607 8.07525E+00 5.11044E+00 0.00000E+00
 -1      2608 6.57525E+00 5.11044E+00 0.00000E+00
 -1      2609 6.40575E+00 6.01981E+00 0.00000E+00
 -1      2610 8.82525E+00 6.40944E+00 0.00000E+00
 -1      2611 6.82409E+01 1.58148E+01 0.00000E+00
 -1      2612 6.90657E+01 1.62575E+01 0.00000E+00
 -1      2613 6.97602E+01 1.55256E+01 0.00000E+00
 -1      2614 7.79400E+00 3.52687E+01 0.00000E+00
 -1      2615 6.49500E+00 3.60062E+01 0.00000E+00
 -1      2616 6.49500E+00 3.74750E+01 0.00000E+00
 -1      2617 1.45350E+01 6.60425E+00 0.00000E+00
 -1      2618 6.40575E+00 7.49481E+00 0.00000E+00
 -1      2619 7.96777E+01 2.04165E+01 0.00000E+00
 -1      2620 7.97312E+01 2.12099E+01 0.00000E+00
 -1      2621 8.06964E+01 2.14196E+01 0.00000E+00
 -1      2622 8.14941E+01 2.98755E+01 0.00000E+00
 -1      2623 7.59648E+01 1.78901E+01 0.00000E+00
 -1      2624 7.94915E+01 3.42869E+01 0.00000E+00
 -1      2625 1.43586E+02 6.56853E+00 0.00000E+00
 -1      2626 1.43419E+02 7.72713E+00 0.00000E+00
 -1      2627 7.34835E+01 3.83166E+01 0.00000E+00
 -1      2628 8.16097E+01 2.51160E+01 0.00000E+00
 -1      2629 6.86843E+01 3.87340E+01 0.00000E+00
 -1      2630 6.60410E+01 3.79821E+01 0.00000E+00
 -1      2631 7.70475E+00 8.23231E+00 0.00000E+00
 -1      2632 6.46860E+01 1.81338E+01 0.00000E+00
 -1      2633 6.25672E+01 3.46052E+01 0.00000E+00
 -1      2634 6.16763E+01 3.46637E+01 0.00000E+00
 -1      2635 6.26429E+01 3.54291E+01 0.00000E+00
 -1      2636 6.55950E+00 3.99453E+01 0.00000E+00
 -1      2637 5.96636E+01 2.82916E+01 0.00000E+00
 -1      2638 5.97397E+01 2.58786E+01 0.00000E+00
 -1      2639 6.29817E+01 1.96954E+01 0.00000E+00
 -1      2640 6.42992E+01 3.63315E+01 0.00000E+00
 -1      2641 6.12858E+01 3.27165E+01 0.00000E+00
 -1      2642 7.38007E+01 1.68848E+01 0.00000E+00
 -1      2643 6.14278E+01 2.17257E+01 0.00000E+00
 -1      2644 6.13909E+01 2.09096E+01 0.00000E+00
 -1      2645 6.05347E+01 2.19396E+01 0.00000E+00
 -1      2646 8.07817E+01 3.22397E+01 0.00000E+00
 -1      2647 7.16224E+01 1.62067E+01 0.00000E+00
 -1      2648 6.04221E+01 3.05047E+01 0.00000E+00
 -1      2649 5.96274E+01 3.01715E+01 0.00000E+00
 -1      2650 6.01763E+01 3.12599E+01 0.00000E+00
 -1      2651 1.42758E+02 4.35929E+01 0.00000E+00
 -1      2652 1.43241E+02 4.17323E+01 0.00000E+00
 -1      2653 1.41942E+02 4.09948E+01 0.00000E+00
 -1      2654 1.41414E+02 4.35342E+01 0.00000E+00
 -1      2655 7.58831E+01 3.72981E+01 0.00000E+00
 -1      2656 7.78502E+01 1.93313E+01 0.00000E+00
 -1      2657 1.42120E+02 8.46463E+00 0.00000E+00
 -1      2658 1.40664E+02 4.22352E+01 0.00000E+00
 -1      2659 9.09300E+00 1.98250E+01 0.00000E+00
 -1      2660 9.09300E+00 2.12750E+01 0.00000E+00
 -1      2661 9.09300E+00 2.27500E+01 0.00000E+00
 -1      2662 9.09300E+00 2.42250E+01 0.00000E+00
 -1      2663 1.03920E+01 2.20250E+01 0.00000E+00
 -1      2664 9.09300E+00 1.39375E+01 0.00000E+00
 -1      2665 9.09300E+00 1.54125E+01 0.00000E+00
 -1      2666 9.09300E+00 1.09875E+01 0.00000E+00
 -1      2667 9.09300E+00 1.24625E+01 0.00000E+00
 -1      2668 1.03920E+01 1.32000E+01 0.00000E+00
 -1      2669 1.22850E+01 7.90325E+00 0.00000E+00
 -1      2670 1.07850E+01 7.90325E+00 0.00000E+00
 -1      2671 6.37242E+01 1.75924E+01 0.00000E+00
 -1      2672 6.47307E+01 1.70310E+01 0.00000E+00
 -1      2673 8.91450E+00 8.42712E+00 0.00000E+00
 -1      2674 8.06296E+01 3.44129E+01 0.00000E+00
 -1      2675 7.97736E+01 3.53967E+01 0.00000E+00
 -1      2676 7.59493E+01 1.67101E+01 0.00000E+00
 -1      2677 7.69725E+01 1.72759E+01 0.00000E+00
 -1      2678 1.44000E+01 4.09070E+01 0.00000E+00
 -1      2679 1.59000E+01 4.09070E+01 0.00000E+00
 -1      2680 1.74000E+01 4.09070E+01 0.00000E+00
 -1      2681 1.89000E+01 4.09070E+01 0.00000E+00
 -1      2682 1.66500E+01 3.96080E+01 0.00000E+00
 -1      2683 2.04000E+01 4.09070E+01 0.00000E+00
 -1      2684 2.19000E+01 4.09070E+01 0.00000E+00
 -1      2685 1.96500E+01 3.96080E+01 0.00000E+00
 -1      2686 2.34000E+01 4.09070E+01 0.00000E+00
 -1      2687 2.49000E+01 4.09070E+01 0.00000E+00
 -1      2688 2.26500E+01 3.96080E+01 0.00000E+00
 -1      2689 2.64000E+01 4.09070E+01 0.00000E+00
 -1      2690 2.79000E+01 4.09070E+01 0.00000E+00
 -1      2691 2.56500E+01 3.96080E+01 0.00000E+00
 -1      2692 2.94000E+01 4.09070E+01 0.00000E+00
 -1      2693 3.09000E+01 4.09070E+01 0.00000E+00
 -1      2694 2.86500E+01 3.96080E+01 0.00000E+00
 -1      2695 3.24000E+01 4.09070E+01 0.00000E+00
 -1      2696 3.39000E+01 4.09070E+01 0.00000E+00
 -1      2697 3.16500E+01 3.96080E+01 0.00000E+00
 -1      2698 3.54000E+01 4.09070E+01 0.00000E+00
 -1      2699 3.69000E+01 4.09070E+01 0.00000E+00
 -1      2700 3.46500E+01 3.96080E+01 0.00000E+00
 -1      2701 3.84000E+01 4.09070E+01 0.00000E+00
 -1      2702 3.99000E+01 4.09070E+01 0.00000E+00
 -1      2703 3.76500E+01 3.96080E+01 0.00000E+00
 -1      2704 4.14000E+01 4.09070E+01 0.00000E+00
 -1      2705 4.29000E+01 4.09070E+01 0.00000E+00
 -1      2706 4.06500E+01 3.96080E+01 0.00000E+00
 -1      2707 4.44000E+01 4.09070E+01 0.00000E+00
 -1      2708 4.59000E+01 4.09070E+01 0.00000E+00
 -1      2709 4.36500E+01 3.96080E+01 0.00000E+00
 -1      2710 4.74000E+01 4.09070E+01 0.00000E+00
 -1      2711 4.89000E+01 4.09070E+01 0.00000E+00
 -1      2712 4.66500E+01 3.96080E+01 0.00000E+00
 -1      2713 5.04000E+01 4.09070E+01 0.00000E+00
 -1      2714 5.19000E+01 4.09070E+01 0.00000E+00
 -1      2715 4.96500E+01 3.96080E+01 0.00000E+00
 -1      2716 5.34000E+01 4.09070E+01 0.00000E+00
 -1      2717 5.49000E+01 4.09070E+01 0.00000E+00
 -1      2718 5.26500E+01 3.96080E+01 0.00000E+00
 -1      2719 5.64000E+01 4.09070E+01 0.00000E+00
 -1      2720 5.79000E+01 4.09070E+01 0.00000E+00
 -1      2721 5.56500E+01 3.96080E+01 0.00000E+00
 -1      2722 5.94000E+01 4.09070E+01 0.00000E+00
 -1      2723 6.09000E+01 4.09070E+01 0.00000E+00
 -1      2724 5.86500E+01 3.96080E+01 0.00000E+00
 -1      2725 6.24000E+01 4.09070E+01 0.00000E+00
 -1      2726 6.39000E+01 4.09070E+01 0.00000E+00
 -1      2727 6.16500E+01 3.96080E+01 0.00000E+00
 -1      2728 6.58337E+01 4.04389E+01 0.00000E+00
 -1      2729 6.73337E+01 4.04389E+01 0.00000E+00
 -1      2730 6.90006E+01 4.05011E+01 0.00000E+00
 -1      2731 7.05006E+01 4.05011E+01 0.00000E+00
 -1      2732 7.20006E+01 4.05011E+01 0.00000E+00
 -1      2733 7.44000E+01 4.09295E+01 0.00000E+00
 -1      2734 7.59000E+01 4.09295E+01 0.00000E+00
 -1      2735 7.74000E+01 4.09295E+01 0.00000E+00
 -1      2736 7.89000E+01 4.09295E+01 0.00000E+00
 -1      2737 7.66500E+01 3.96530E+01 0.00000E+00
 -1      2738 8.04000E+01 4.09295E+01 0.00000E+00
 -1      2739 8.19000E+01 4.09295E+01 0.00000E+00
 -1      2740 7.96500E+01 3.96530E+01 0.00000E+00
 -1      2741 8.34000E+01 4.09295E+01 0.00000E+00
 -1      2742 8.49000E+01 4.09295E+01 0.00000E+00
 -1      2743 8.26500E+01 3.96530E+01 0.00000E+00
 -1      2744 8.64000E+01 4.09295E+01 0.00000E+00
 -1      2745 8.79000E+01 4.09295E+01 0.00000E+00
 -1      2746 8.56500E+01 3.96530E+01 0.00000E+00
 -1      2747 8.94000E+01 4.09295E+01 0.00000E+00
 -1      2748 9.09000E+01 4.09295E+01 0.00000E+00
 -1      2749 8.86500E+01 3.96530E+01 0.00000E+00
 -1      2750 9.24000E+01 4.09295E+01 0.00000E+00
 -1      2751 9.39000E+01 4.09295E+01 0.00000E+00
 -1      2752 9.16500E+01 3.96530E+01 0.00000E+00
 -1      2753 9.54000E+01 4.09295E+01 0.00000E+00
 -1      2754 9.69000E+01 4.09295E+01 0.00000E+00
 -1      2755 9.46500E+01 3.96530E+01 0.00000E+00
 -1      2756 9.84000E+01 4.09295E+01 0.00000E+00
 -1      2757 9.99000E+01 4.09295E+01 0.00000E+00
 -1      2758 9.76500E+01 3.96530E+01 0.00000E+00
 -1      2759 1.01400E+02 4.09295E+01 0.00000E+00
 -1      2760 1.02900E+02 4.09295E+01 0.00000E+00
 -1      2761 1.00650E+02 3.96530E+01 0.00000E+00
 -1      2762 1.04400E+02 4.09295E+01 0.00000E+00
 -1      2763 1.05900E+02 4.09295E+01 0.00000E+00
 -1      2764 1.03650E+02 3.96530E+01 0.00000E+00
 -1      2765 1.07400E+02 4.09295E+01 0.00000E+00
 -1      2766 1.08900E+02 4.09295E+01 0.00000E+00
 -1      2767 1.06650E+02 3.96530E+01 0.00000E+00
 -1      2768 1.10400E+02 4.09295E+01 0.00000E+00
 -1      2769 1.11900E+02 4.09295E+01 0.00000E+00
 -1      2770 1.09650E+02 3.96530E+01 0.00000E+00
 -1      2771 1.13400E+02 4.09295E+01 0.00000E+00
 -1      2772 1.14900E+02 4.09295E+01 0.00000E+00
 -1      2773 1.12650E+02 3.96530E+01 0.00000E+00
 -1      2774 1.16400E+02 4.09295E+01 0.00000E+00
 -1      2775 1.17900E+02 4.09295E+01 0.00000E+00
 -1      2776 1.15650E+02 3.96530E+01 0.00000E+00
 -1      2777 1.19400E+02 4.09295E+01 0.00000E+00
 -1      2778 1.20900E+02 4.09295E+01 0.00000E+00
 -1      2779 1.18650E+02 3.96530E+01 0.00000E+00
 -1      2780 1.22400E+02 4.09295E+01 0.00000E+00
 -1      2781 1.23900E+02 4.09295E+01 0.00000E+00
 -1      2782 1.21650E+02 3.96530E+01 0.00000E+00
 -1      2783 1.25400E+02 4.09295E+01 0.00000E+00
 -1      2784 1.26900E+02 4.09295E+01 0.00000E+00
 -1      2785 1.24650E+02 3.96530E+01 0.00000E+00
 -1      2786 1.28400E+02 4.09295E+01 0.00000E+00
 -1      2787 1.29900E+02 4.09295E+01 0.00000E+00
 -1      2788 1.27650E+02 3.96530E+01 0.00000E+00
 -1      2789 1.31400E+02 4.09295E+01 0.00000E+00
 -1      2790 1.32900E+02 4.09295E+01 0.00000E+00
 -1      2791 1.30650E+02 3.96530E+01 0.00000E+00
 -1      2792 1.34400E+02 4.09295E+01 0.00000E+00
 -1      2793 1.35900E+02 4.09295E+01 0.00000E+00
 -1      2794 1.33650E+02 3.96530E+01 0.00000E+00
 -1      2795 1.37400E+02 4.09295E+01 0.00000E+00
 -1      2796 1.38900E+02 4.09295E+01 0.00000E+00
 -1      2797 1.36650E+02 3.96530E+01 0.00000E+00
 -1      2798 2.42850E+01 7.90325E+00 0.00000E+00
 -1      2799 2.27850E+01 7.90325E+00 0.00000E+00
 -1      2800 7.49224E+01 3.87862E+01 0.00000E+00
 -1      2801 7.37111E+01 3.91834E+01 0.00000E+00
 -1      2802 2.12850E+01 7.90325E+00 0.00000E+00
 -1      2803 1.97850E+01 7.90325E+00 0.00000E+00
 -1      2804 2.20350E+01 9.20225E+00 0.00000E+00
 -1      2805 3.02850E+01 7.90325E+00 0.00000E+00
 -1      2806 2.87850E+01 7.90325E+00 0.00000E+00
 -1      2807 3.32850E+01 7.90325E+00 0.00000E+00
 -1      2808 3.17850E+01 7.90325E+00 0.00000E+00
 -1      2809 3.10350E+01 9.20225E+00 0.00000E+00
 -1      2810 3.62850E+01 7.90325E+00 0.00000E+00
 -1      2811 3.47850E+01 7.90325E+00 0.00000E+00
 -1      2812 3.40350E+01 9.20225E+00 0.00000E+00
 -1      2813 3.92850E+01 7.90325E+00 0.00000E+00
 -1      2814 3.77850E+01 7.90325E+00 0.00000E+00
 -1      2815 3.70350E+01 9.20225E+00 0.00000E+00
 -1      2816 4.22850E+01 7.90325E+00 0.00000E+00
 -1      2817 4.07850E+01 7.90325E+00 0.00000E+00
 -1      2818 4.00350E+01 9.20225E+00 0.00000E+00
 -1      2819 4.52850E+01 7.90325E+00 0.00000E+00
 -1      2820 4.37850E+01 7.90325E+00 0.00000E+00
 -1      2821 4.30350E+01 9.20225E+00 0.00000E+00
 -1      2822 4.82850E+01 7.90325E+00 0.00000E+00
 -1      2823 4.67850E+01 7.90325E+00 0.00000E+00
 -1      2824 4.60350E+01 9.20225E+00 0.00000E+00
 -1      2825 5.12850E+01 7.90325E+00 0.00000E+00
 -1      2826 4.97850E+01 7.90325E+00 0.00000E+00
 -1      2827 4.90350E+01 9.20225E+00 0.00000E+00
 -1      2828 5.42850E+01 7.90325E+00 0.00000E+00
 -1      2829 5.27850E+01 7.90325E+00 0.00000E+00
 -1      2830 5.20350E+01 9.20225E+00 0.00000E+00
 -1      2831 5.72850E+01 7.90325E+00 0.00000E+00
 -1      2832 5.57850E+01 7.90325E+00 0.00000E+00
 -1      2833 5.50350E+01 9.20225E+00 0.00000E+00
 -1      2834 6.02850E+01 7.90325E+00 0.00000E+00
 -1      2835 5.87850E+01 7.90325E+00 0.00000E+00
 -1      2836 5.80350E+01 9.20225E+00 0.00000E+00
 -1      2837 6.32850E+01 7.90325E+00 0.00000E+00
 -1      2838 6.17850E+01 7.90325E+00 0.00000E+00
 -1      2839 6.10350E+01 9.20225E+00 0.00000E+00
 -1      2840 6.62850E+01 7.90325E+00 0.00000E+00
 -1      2841 6.47850E+01 7.90325E+00 0.00000E+00
 -1      2842 6.40350E+01 9.20225E+00 0.00000E+00
 -1      2843 6.92850E+01 7.90325E+00 0.00000E+00
 -1      2844 6.77850E+01 7.90325E+00 0.00000E+00
 -1      2845 6.70350E+01 9.20225E+00 0.00000E+00
 -1      2846 7.22850E+01 7.90325E+00 0.00000E+00
 -1      2847 7.07850E+01 7.90325E+00 0.00000E+00
 -1      2848 7.00350E+01 9.20225E+00 0.00000E+00
 -1      2849 7.52850E+01 7.90325E+00 0.00000E+00
 -1      2850 7.37850E+01 7.90325E+00 0.00000E+00
 -1      2851 7.30350E+01 9.20225E+00 0.00000E+00
 -1      2852 7.82850E+01 7.90325E+00 0.00000E+00
 -1      2853 7.67850E+01 7.90325E+00 0.00000E+00
 -1      2854 7.60350E+01 9.20225E+00 0.00000E+00
 -1      2855 8.12850E+01 7.90325E+00 0.00000E+00
 -1      2856 7.97850E+01 7.90325E+00 0.00000E+00
 -1      2857 7.90350E+01 9.20225E+00 0.00000E+00
 -1      2858 8.42850E+01 7.90325E+00 0.00000E+00
 -1      2859 8.27850E+01 7.90325E+00 0.00000E+00
 -1      2860 8.20350E+01 9.20225E+00 0.00000E+00
 -1      2861 8.72850E+01 7.90325E+00 0.00000E+00
 -1      2862 8.57850E+01 7.90325E+00 0.00000E+00
 -1      2863 8.50350E+01 9.20225E+00 0.00000E+00
 -1      2864 9.02850E+01 7.90325E+00 0.00000E+00
 -1      2865 8.87850E+01 7.90325E+00 0.00000E+00
 -1      2866 8.80350E+01 9.20225E+00 0.00000E+00
 -1      2867 9.32850E+01 7.90325E+00 0.00000E+00
 -1      2868 9.17850E+01 7.90325E+00 0.00000E+00
 -1      2869 9.10350E+01 9.20225E+00 0.00000E+00
 -1      2870 9.62850E+01 7.90325E+00 0.00000E+00
 -1      2871 9.47850E+01 7.90325E+00 0.00000E+00
 -1      2872 9.40350E+01 9.20225E+00 0.00000E+00
 -1      2873 9.92850E+01 7.90325E+00 0.00000E+00
 -1      2874 9.77850E+01 7.90325E+00 0.00000E+00
 -1      2875 9.70350E+01 9.20225E+00 0.00000E+00
 -1      2876 1.02285E+02 7.90325E+00 0.00000E+00
 -1      2877 1.00785E+02 7.90325E+00 0.00000E+00
 -1      2878 1.00035E+02 9.20225E+00 0.00000E+00
 -1      2879 1.05285E+02 7.90325E+00 0.00000E+00
 -1      2880 1.03785E+02 7.90325E+00 0.00000E+00
 -1      2881 1.03035E+02 9.20225E+00 0.00000E+00
 -1      2882 1.08285E+02 7.90325E+00 0.00000E+00
 -1      2883 1.06785E+02 7.90325E+00 0.00000E+00
 -1      2884 1.06035E+02 9.20225E+00 0.00000E+00
 -1      2885 1.11285E+02 7.90325E+00 0.00000E+00
 -1      2886 1.09785E+02 7.90325E+00 0.00000E+00
 -1      2887 1.09035E+02 9.20225E+00 0.00000E+00
 -1      2888 1.14285E+02 7.90325E+00 0.00000E+00
 -1      2889 1.12785E+02 7.90325E+00 0.00000E+00
 -1      2890 1.12035E+02 9.20225E+00 0.00000E+00
 -1      2891 1.17285E+02 7.90325E+00 0.00000E+00
 -1      2892 1.15785E+02 7.90325E+00 0.00000E+00
 -1      2893 1.15035E+02 9.20225E+00 0.00000E+00
 -1      2894 1.20285E+02 7.90325E+00 0.00000E+00
 -1      2895 1.18785E+02 7.90325E+00 0.00000E+00
 -1      2896 1.18035E+02 9.20225E+00 0.00000E+00
 -1      2897 1.23285E+02 7.90325E+00 0.00000E+00
 -1      2898 1.21785E+02 7.90325E+00 0.00000E+00
 -1      2899 1.21035E+02 9.20225E+00 0.00000E+00
 -1      2900 1.26285E+02 7.90325E+00 0.00000E+00
 -1      2901 1.24785E+02 7.90325E+00 0.00000E+00
 -1      2902 1.24035E+02 9.20225E+00 0.00000E+00
 -1      2903 1.29285E+02 7.90325E+00 0.00000E+00
 -1      2904 1.27785E+02 7.90325E+00 0.00000E+00
 -1      2905 1.27035E+02 9.20225E+00 0.00000E+00
 -1      2906 1.32285E+02 7.90325E+00 0.00000E+00
 -1      2907 1.30785E+02 7.90325E+00 0.00000E+00
 -1      2908 1.30035E+02 9.20225E+00 0.00000E+00
 -1      2909 1.35285E+02 7.90325E+00 0.00000E+00
 -1      2910 1.33785E+02 7.90325E+00 0.00000E+00
 -1      2911 1.33035E+02 9.20225E+00 0.00000E+00
 -1      2912 1.38285E+02 7.90325E+00 0.00000E+00
 -1      2913 1.36785E+02 7.90325E+00 0.00000E+00
 -1      2914 1.36035E+02 9.20225E+00 0.00000E+00
 -1      2915 1.40953E+02 8.18394E+00 0.00000E+00
 -1      2916 1.39453E+02 8.18394E+00 0.00000E+00
 -1      2917 1.38703E+02 9.48294E+00 0.00000E+00
 -1      2918 1.41038E+02 1.00443E+01 0.00000E+00
 -1      2919 1.40907E+02 2.42875E+01 0.00000E+00
 -1      2920 1.40907E+02 2.28125E+01 0.00000E+00
 -1      2921 1.39914E+02 4.09475E+01 0.00000E+00
 -1      2922 1.40928E+02 4.09768E+01 0.00000E+00
 -1      2923 1.41192E+02 3.97070E+01 0.00000E+00
 -1      2924 1.39164E+02 3.96710E+01 0.00000E+00
 -1      2925 1.40907E+02 1.83875E+01 0.00000E+00
 -1      2926 1.40907E+02 1.69125E+01 0.00000E+00
 -1      2927 1.40907E+02 2.72375E+01 0.00000E+00
 -1      2928 1.40907E+02 2.57625E+01 0.00000E+00
 -1      2929 1.39608E+02 2.50250E+01 0.00000E+00
 -1      2930 1.40907E+02 2.13375E+01 0.00000E+00
 -1      2931 1.40907E+02 1.98625E+01 0.00000E+00
 -1      2932 1.39608E+02 1.91250E+01 0.00000E+00
 -1      2933 1.39608E+02 2.20750E+01 0.00000E+00
 -1      2934 8.24718E+01 2.94045E+01 0.00000E+00
 -1      2935 8.21936E+01 3.07052E+01 0.00000E+00
 -1      2936 1.40907E+02 3.01375E+01 0.00000E+00
 -1      2937 1.40907E+02 2.86875E+01 0.00000E+00
 -1      2938 1.39608E+02 2.79500E+01 0.00000E+00
 -1      2939 1.40907E+02 3.30875E+01 0.00000E+00
 -1      2940 1.40907E+02 3.16125E+01 0.00000E+00
 -1      2941 1.39608E+02 3.08750E+01 0.00000E+00
 -1      2942 1.40907E+02 3.60375E+01 0.00000E+00
 -1      2943 1.40907E+02 3.45625E+01 0.00000E+00
 -1      2944 1.39608E+02 3.38250E+01 0.00000E+00
 -1      2945 1.41192E+02 3.82320E+01 0.00000E+00
 -1      2946 8.85168E+00 4.05347E+01 0.00000E+00
 -1      2947 1.02152E+01 4.07987E+01 0.00000E+00
 -1      2948 8.25877E+01 2.68845E+01 0.00000E+00
 -1      2949 8.25598E+01 2.80240E+01 0.00000E+00
 -1      2950 8.19496E+01 2.22570E+01 0.00000E+00
 -1      2951 8.22703E+01 2.31186E+01 0.00000E+00
 -1      2952 6.18608E+01 1.96570E+01 0.00000E+00
 -1      2953 6.25586E+01 1.86567E+01 0.00000E+00
 -1      2954 8.24886E+01 2.42984E+01 0.00000E+00
 -1      2955 8.27070E+01 2.54782E+01 0.00000E+00
 -1      2956 8.33675E+01 2.34808E+01 0.00000E+00
 -1      2957 1.82850E+01 7.90325E+00 0.00000E+00
 -1      2958 1.67850E+01 7.90325E+00 0.00000E+00
 -1      2959 1.90350E+01 9.20225E+00 0.00000E+00
 -1      2960 2.72850E+01 7.90325E+00 0.00000E+00
 -1      2961 2.57850E+01 7.90325E+00 0.00000E+00
 -1      2962 2.50350E+01 9.20225E+00 0.00000E+00
 -1      2963 2.80350E+01 9.20225E+00 0.00000E+00
 -1      2964 1.15576E+01 4.08528E+01 0.00000E+00
 -1      2965 1.30576E+01 4.08528E+01 0.00000E+00
 -1      2966 1.38076E+01 3.95538E+01 0.00000E+00
 -1      2967 1.11228E+01 3.94455E+01 0.00000E+00
 -1      2968 1.52850E+01 7.90325E+00 0.00000E+00
 -1      2969 1.37850E+01 7.90325E+00 0.00000E+00
 -1      2970 1.30350E+01 9.20225E+00 0.00000E+00
 -1      2971 1.60350E+01 9.20225E+00 0.00000E+00
 -1      2972 5.88414E+01 2.63551E+01 0.00000E+00
 -1      2973 5.91273E+01 2.50669E+01 0.00000E+00
 -1      2974 5.89254E+01 2.90111E+01 0.00000E+00
 -1      2975 5.87157E+01 2.78864E+01 0.00000E+00
 -1      2976 9.09300E+00 1.68813E+01 0.00000E+00
 -1      2977 9.09300E+00 1.83563E+01 0.00000E+00
 -1      2978 1.03920E+01 1.90812E+01 0.00000E+00
 -1      2979 1.03920E+01 1.61437E+01 0.00000E+00
 -1      2980 8.17927E+01 3.20321E+01 0.00000E+00
 -1      2981 8.13585E+01 3.30956E+01 0.00000E+00
 -1      2982 9.09300E+00 3.15875E+01 0.00000E+00
 -1      2983 9.09300E+00 3.30625E+01 0.00000E+00
 -1      2984 6.50837E+01 3.91399E+01 0.00000E+00
 -1      2985 6.41074E+01 3.84502E+01 0.00000E+00
 -1      2986 6.56576E+01 1.65182E+01 0.00000E+00
 -1      2987 6.65846E+01 1.60053E+01 0.00000E+00
 -1      2988 6.46959E+01 1.59767E+01 0.00000E+00
 -1      2989 5.93803E+01 2.38990E+01 0.00000E+00
 -1      2990 5.96533E+01 2.29817E+01 0.00000E+00
 -1      2991 6.37579E+01 3.74200E+01 0.00000E+00
 -1      2992 6.29924E+01 3.64592E+01 0.00000E+00
 -1      2993 6.21015E+01 3.65177E+01 0.00000E+00
 -1      2994 6.28005E+01 3.85779E+01 0.00000E+00
 -1      2995 7.36674E+01 1.58309E+01 0.00000E+00
 -1      2996 7.48084E+01 1.62705E+01 0.00000E+00
 -1      2997 7.58160E+01 1.56562E+01 0.00000E+00
 -1      2998 6.04561E+01 3.35548E+01 0.00000E+00
 -1      2999 6.01413E+01 3.24314E+01 0.00000E+00
 -1      3000 7.48818E+00 3.88019E+01 0.00000E+00
 -1      3001 7.80003E+01 1.83212E+01 0.00000E+00
 -1      3002 7.88625E+01 1.91966E+01 0.00000E+00
 -1      3003 7.88738E+01 3.63223E+01 0.00000E+00
 -1      3004 7.80918E+01 3.70254E+01 0.00000E+00
 -1      3005 7.13333E+01 1.50884E+01 0.00000E+00
 -1      3006 7.23707E+01 1.53268E+01 0.00000E+00
 -1      3007 9.09300E+00 3.45313E+01 0.00000E+00
 -1      3008 9.09300E+00 3.60000E+01 0.00000E+00
 -1      3009 1.03920E+01 3.37938E+01 0.00000E+00
 -1      3010 1.03920E+01 2.49750E+01 0.00000E+00
 -1      3011 9.09300E+00 2.57000E+01 0.00000E+00
 -1      3012 9.09300E+00 2.71750E+01 0.00000E+00
 -1      3013 5.81032E+01 2.70746E+01 0.00000E+00
 -1      3014 5.74907E+01 2.62629E+01 0.00000E+00
 -1      3015 5.73650E+01 2.77942E+01 0.00000E+00
 -1      3016 5.86981E+01 2.23915E+01 0.00000E+00
 -1      3017 5.96164E+01 2.21656E+01 0.00000E+00
 -1      3018 5.95795E+01 2.13494E+01 0.00000E+00
 -1      3019 9.66450E+00 9.72612E+00 0.00000E+00
 -1      3020 7.98277E+01 1.94064E+01 0.00000E+00
 -1      3021 8.07929E+01 1.96161E+01 0.00000E+00
 -1      3022 7.99777E+01 1.83963E+01 0.00000E+00
 -1      3023 6.72791E+01 1.52734E+01 0.00000E+00
 -1      3024 6.79736E+01 1.45415E+01 0.00000E+00
 -1      3025 6.63173E+01 1.47319E+01 0.00000E+00
 -1      3026 8.16407E+01 3.42054E+01 0.00000E+00
 -1      3027 7.79847E+01 1.71412E+01 0.00000E+00
 -1      3028 1.39608E+02 1.61875E+01 0.00000E+00
 -1      3029 1.40907E+02 1.54500E+01 0.00000E+00
 -1      3030 1.40907E+02 1.39875E+01 0.00000E+00
 -1      3031 7.76107E+01 3.81649E+01 0.00000E+00
 -1      3032 7.64224E+01 3.87862E+01 0.00000E+00
 -1      3033 8.18960E+01 2.14636E+01 0.00000E+00
 -1      3034 8.30956E+01 2.15076E+01 0.00000E+00
 -1      3035 8.18425E+01 2.06702E+01 0.00000E+00
 -1      3036 1.40973E+02 1.27472E+01 0.00000E+00
 -1      3037 1.40973E+02 1.12847E+01 0.00000E+00
 -1      3038 1.39805E+02 1.10040E+01 0.00000E+00
 -1      3039 1.39674E+02 1.34847E+01 0.00000E+00
 -1      3040 1.39529E+02 3.85828E+01 0.00000E+00
 -1      3041 1.40542E+02 3.71258E+01 0.00000E+00
 -1      3042 1.39243E+02 3.63883E+01 0.00000E+00
 -1      3043 1.38514E+02 3.85648E+01 0.00000E+00
 -1      3044 6.09677E+01 1.98709E+01 0.00000E+00
 -1      3045 5.93466E+01 3.20982E+01 0.00000E+00
 -1      3046 8.34666E+01 2.60669E+01 0.00000E+00
 -1      3047 8.32593E+01 2.88537E+01 0.00000E+00
 -1      3048 7.33783E+01 1.47126E+01 0.00000E+00
 -1      3049 7.05085E+01 1.46457E+01 0.00000E+00
 -1      3050 7.12568E+01 1.37659E+01 0.00000E+00
 -1      3051 6.96837E+01 1.42031E+01 0.00000E+00
 -1      3052 5.84820E+01 2.43756E+01 0.00000E+00
 -1      3053 6.14823E+01 1.75155E+01 0.00000E+00
 -1      3054 6.26033E+01 1.75539E+01 0.00000E+00
 -1      3055 6.26480E+01 1.64511E+01 0.00000E+00
 -1      3056 8.78718E+00 3.80644E+01 0.00000E+00
 -1      3057 1.09635E+01 1.04636E+01 0.00000E+00
 -1      3058 9.09300E+00 2.86437E+01 0.00000E+00
 -1      3059 9.09300E+00 3.01187E+01 0.00000E+00
 -1      3060 1.03920E+01 3.08563E+01 0.00000E+00
 -1      3061 1.03920E+01 2.79188E+01 0.00000E+00
 -1      3062 5.86795E+01 2.97663E+01 0.00000E+00
 -1      3063 5.77316E+01 2.93611E+01 0.00000E+00
 -1      3064 5.84337E+01 3.05215E+01 0.00000E+00
 -1      3065 6.06075E+01 3.52025E+01 0.00000E+00
 -1      3066 6.05318E+01 3.43786E+01 0.00000E+00
 -1      3067 5.93873E+01 3.40936E+01 0.00000E+00
 -1      3068 8.00120E+01 3.64483E+01 0.00000E+00
 -1      3069 8.27704E+01 3.15611E+01 0.00000E+00
 -1      3070 7.86311E+01 3.85135E+01 0.00000E+00
 -1      3071 1.16910E+01 1.24625E+01 0.00000E+00
 -1      3072 1.16910E+01 1.39375E+01 0.00000E+00
 -1      3073 7.81420E+01 1.59586E+01 0.00000E+00
 -1      3074 7.91698E+01 1.70039E+01 0.00000E+00
 -1      3075 1.89000E+01 3.83090E+01 0.00000E+00
 -1      3076 2.04000E+01 3.83090E+01 0.00000E+00
 -1      3077 2.19000E+01 3.83090E+01 0.00000E+00
 -1      3078 2.34000E+01 3.83090E+01 0.00000E+00
 -1      3079 2.11500E+01 3.70100E+01 0.00000E+00
 -1      3080 2.49000E+01 3.83090E+01 0.00000E+00
 -1      3081 2.64000E+01 3.83090E+01 0.00000E+00
 -1      3082 2.41500E+01 3.70100E+01 0.00000E+00
 -1      3083 2.79000E+01 3.83090E+01 0.00000E+00
 -1      3084 2.94000E+01 3.83090E+01 0.00000E+00
 -1      3085 2.71500E+01 3.70100E+01 0.00000E+00
 -1      3086 3.09000E+01 3.83090E+01 0.00000E+00
 -1      3087 3.24000E+01 3.83090E+01 0.00000E+00
 -1      3088 3.01500E+01 3.70100E+01 0.00000E+00
 -1      3089 3.39000E+01 3.83090E+01 0.00000E+00
 -1      3090 3.54000E+01 3.83090E+01 0.00000E+00
 -1      3091 3.31500E+01 3.70100E+01 0.00000E+00
 -1      3092 3.69000E+01 3.83090E+01 0.00000E+00
 -1      3093 3.84000E+01 3.83090E+01 0.00000E+00
 -1      3094 3.61500E+01 3.70100E+01 0.00000E+00
 -1      3095 3.99000E+01 3.83090E+01 0.00000E+00
 -1      3096 4.14000E+01 3.83090E+01 0.00000E+00
 -1      3097 3.91500E+01 3.70100E+01 0.00000E+00
 -1      3098 4.29000E+01 3.83090E+01 0.00000E+00
 -1      3099 4.44000E+01 3.83090E+01 0.00000E+00
 -1      3100 4.21500E+01 3.70100E+01 0.00000E+00
 -1      3101 4.59000E+01 3.83090E+01 0.00000E+00
 -1      3102 4.74000E+01 3.83090E+01 0.00000E+00
 -1      3103 4.51500E+01 3.70100E+01 0.00000E+00
 -1      3104 4.89000E+01 3.83090E+01 0.00000E+00
 -1      3105 5.04000E+01 3.83090E+01 0.00000E+00
 -1      3106 4.81500E+01 3.70100E+01 0.00000E+00
 -1      3107 5.19000E+01 3.83090E+01 0.00000E+00
 -1      3108 5.34000E+01 3.83090E+01 0.00000E+00
 -1      3109 5.11500E+01 3.70100E+01 0.00000E+00
 -1      3110 5.49000E+01 3.83090E+01 0.00000E+00
 -1      3111 5.64000E+01 3.83090E+01 0.00000E+00
 -1      3112 5.41500E+01 3.70100E+01 0.00000E+00
 -1      3113 5.83065E+01 3.72627E+01 0.00000E+00
 -1      3114 5.98065E+01 3.72627E+01 0.00000E+00
 -1      3115 6.13005E+01 3.85779E+01 0.00000E+00
 -1      3116 7.29611E+01 4.04599E+01 0.00000E+00
 -1      3117 8.01311E+01 3.85135E+01 0.00000E+00
 -1      3118 8.19000E+01 3.83540E+01 0.00000E+00
 -1      3119 8.34000E+01 3.83540E+01 0.00000E+00
 -1      3120 8.49000E+01 3.83540E+01 0.00000E+00
 -1      3121 8.64000E+01 3.83540E+01 0.00000E+00
 -1      3122 8.41500E+01 3.70550E+01 0.00000E+00
 -1      3123 8.79000E+01 3.83540E+01 0.00000E+00
 -1      3124 8.94000E+01 3.83540E+01 0.00000E+00
 -1      3125 8.71500E+01 3.70550E+01 0.00000E+00
 -1      3126 9.09000E+01 3.83540E+01 0.00000E+00
 -1      3127 9.24000E+01 3.83540E+01 0.00000E+00
 -1      3128 9.01500E+01 3.70550E+01 0.00000E+00
 -1      3129 9.39000E+01 3.83540E+01 0.00000E+00
 -1      3130 9.54000E+01 3.83540E+01 0.00000E+00
 -1      3131 9.31500E+01 3.70550E+01 0.00000E+00
 -1      3132 9.69000E+01 3.83540E+01 0.00000E+00
 -1      3133 9.84000E+01 3.83540E+01 0.00000E+00
 -1      3134 9.61500E+01 3.70550E+01 0.00000E+00
 -1      3135 9.99000E+01 3.83540E+01 0.00000E+00
 -1      3136 1.01400E+02 3.83540E+01 0.00000E+00
 -1      3137 9.91500E+01 3.70550E+01 0.00000E+00
 -1      3138 1.02900E+02 3.83540E+01 0.00000E+00
 -1      3139 1.04400E+02 3.83540E+01 0.00000E+00
 -1      3140 1.02150E+02 3.70550E+01 0.00000E+00
 -1      3141 1.05900E+02 3.83540E+01 0.00000E+00
 -1      3142 1.07400E+02 3.83540E+01 0.00000E+00
 -1      3143 1.05150E+02 3.70550E+01 0.00000E+00
 -1      3144 1.08900E+02 3.83540E+01 0.00000E+00
 -1      3145 1.10400E+02 3.83540E+01 0.00000E+00
 -1      3146 1.08150E+02 3.70550E+01 0.00000E+00
 -1      3147 1.11900E+02 3.83540E+01 0.00000E+00
 -1      3148 1.13400E+02 3.83540E+01 0.00000E+00
 -1      3149 1.11150E+02 3.70550E+01 0.00000E+00
 -1      3150 1.14900E+02 3.83540E+01 0.00000E+00
 -1      3151 1.16400E+02 3.83540E+01 0.00000E+00
 -1      3152 1.14150E+02 3.70550E+01 0.00000E+00
 -1      3153 1.17900E+02 3.83540E+01 0.00000E+00
 -1      3154 1.19400E+02 3.83540E+01 0.00000E+00
 -1      3155 1.17150E+02 3.70550E+01 0.00000E+00
 -1      3156 1.20900E+02 3.83540E+01 0.00000E+00
 -1      3157 1.22400E+02 3.83540E+01 0.00000E+00
 -1      3158 1.20150E+02 3.70550E+01 0.00000E+00
 -1      3159 1.23900E+02 3.83540E+01 0.00000E+00
 -1      3160 1.25400E+02 3.83540E+01 0.00000E+00
 -1      3161 1.23150E+02 3.70550E+01 0.00000E+00
 -1      3162 1.26900E+02 3.83540E+01 0.00000E+00
 -1      3163 1.28400E+02 3.83540E+01 0.00000E+00
 -1      3164 1.26150E+02 3.70550E+01 0.00000E+00
 -1      3165 1.29900E+02 3.83540E+01 0.00000E+00
 -1      3166 1.31400E+02 3.83540E+01 0.00000E+00
 -1      3167 1.29150E+02 3.70550E+01 0.00000E+00
 -1      3168 1.32900E+02 3.83540E+01 0.00000E+00
 -1      3169 1.34400E+02 3.83540E+01 0.00000E+00
 -1      3170 1.32150E+02 3.70550E+01 0.00000E+00
 -1      3171 1.35707E+02 3.84594E+01 0.00000E+00
 -1      3172 1.37207E+02 3.84594E+01 0.00000E+00
 -1      3173 1.37572E+02 3.73712E+01 0.00000E+00
 -1      3174 1.34957E+02 3.71604E+01 0.00000E+00
 -1      3175 8.08811E+01 3.72145E+01 0.00000E+00
 -1      3176 3.47850E+01 1.05013E+01 0.00000E+00
 -1      3177 3.32850E+01 1.05013E+01 0.00000E+00
 -1      3178 3.17850E+01 1.05013E+01 0.00000E+00
 -1      3179 3.02850E+01 1.05013E+01 0.00000E+00
 -1      3180 3.25350E+01 1.18003E+01 0.00000E+00
 -1      3181 4.07850E+01 1.05013E+01 0.00000E+00
 -1      3182 3.92850E+01 1.05013E+01 0.00000E+00
 -1      3183 4.37850E+01 1.05013E+01 0.00000E+00
 -1      3184 4.22850E+01 1.05013E+01 0.00000E+00
 -1      3185 4.15350E+01 1.18003E+01 0.00000E+00
 -1      3186 4.67850E+01 1.05013E+01 0.00000E+00
 -1      3187 4.52850E+01 1.05013E+01 0.00000E+00
 -1      3188 4.45350E+01 1.18003E+01 0.00000E+00
 -1      3189 4.97850E+01 1.05013E+01 0.00000E+00
 -1      3190 4.82850E+01 1.05013E+01 0.00000E+00
 -1      3191 4.75350E+01 1.18003E+01 0.00000E+00
 -1      3192 5.27850E+01 1.05013E+01 0.00000E+00
 -1      3193 5.12850E+01 1.05013E+01 0.00000E+00
 -1      3194 5.05350E+01 1.18003E+01 0.00000E+00
 -1      3195 5.57850E+01 1.05013E+01 0.00000E+00
 -1      3196 5.42850E+01 1.05013E+01 0.00000E+00
 -1      3197 5.35350E+01 1.18003E+01 0.00000E+00
 -1      3198 5.87850E+01 1.05013E+01 0.00000E+00
 -1      3199 5.72850E+01 1.05013E+01 0.00000E+00
 -1      3200 5.65350E+01 1.18003E+01 0.00000E+00
 -1      3201 6.17850E+01 1.05013E+01 0.00000E+00
 -1      3202 6.02850E+01 1.05013E+01 0.00000E+00
 -1      3203 5.95350E+01 1.18003E+01 0.00000E+00
 -1      3204 6.47850E+01 1.05013E+01 0.00000E+00
 -1      3205 6.32850E+01 1.05013E+01 0.00000E+00
 -1      3206 6.25350E+01 1.18003E+01 0.00000E+00
 -1      3207 6.77734E+01 1.16011E+01 0.00000E+00
 -1      3208 6.62734E+01 1.16011E+01 0.00000E+00
 -1      3209 7.09835E+01 1.12627E+01 0.00000E+00
 -1      3210 6.94835E+01 1.12627E+01 0.00000E+00
 -1      3211 7.67850E+01 1.04787E+01 0.00000E+00
 -1      3212 7.52850E+01 1.04787E+01 0.00000E+00
 -1      3213 7.97850E+01 1.04787E+01 0.00000E+00
 -1      3214 7.82850E+01 1.04787E+01 0.00000E+00
 -1      3215 7.75350E+01 1.17552E+01 0.00000E+00
 -1      3216 8.27850E+01 1.04787E+01 0.00000E+00
 -1      3217 8.12850E+01 1.04787E+01 0.00000E+00
 -1      3218 8.05350E+01 1.17552E+01 0.00000E+00
 -1      3219 8.57850E+01 1.04787E+01 0.00000E+00
 -1      3220 8.42850E+01 1.04787E+01 0.00000E+00
 -1      3221 8.35350E+01 1.17552E+01 0.00000E+00
 -1      3222 8.87850E+01 1.04787E+01 0.00000E+00
 -1      3223 8.72850E+01 1.04787E+01 0.00000E+00
 -1      3224 8.65350E+01 1.17552E+01 0.00000E+00
 -1      3225 9.17850E+01 1.04787E+01 0.00000E+00
 -1      3226 9.02850E+01 1.04787E+01 0.00000E+00
 -1      3227 8.95350E+01 1.17552E+01 0.00000E+00
 -1      3228 9.47850E+01 1.04787E+01 0.00000E+00
 -1      3229 9.32850E+01 1.04787E+01 0.00000E+00
 -1      3230 9.25350E+01 1.17552E+01 0.00000E+00
 -1      3231 9.77850E+01 1.04787E+01 0.00000E+00
 -1      3232 9.62850E+01 1.04787E+01 0.00000E+00
 -1      3233 9.55350E+01 1.17552E+01 0.00000E+00
 -1      3234 1.00785E+02 1.04787E+01 0.00000E+00
 -1      3235 9.92850E+01 1.04787E+01 0.00000E+00
 -1      3236 9.85350E+01 1.17552E+01 0.00000E+00
 -1      3237 1.03785E+02 1.04787E+01 0.00000E+00
 -1      3238 1.02285E+02 1.04787E+01 0.00000E+00
 -1      3239 1.01535E+02 1.17552E+01 0.00000E+00
 -1      3240 1.06785E+02 1.04787E+01 0.00000E+00
 -1      3241 1.05285E+02 1.04787E+01 0.00000E+00
 -1      3242 1.04535E+02 1.17552E+01 0.00000E+00
 -1      3243 1.09785E+02 1.04787E+01 0.00000E+00
 -1      3244 1.08285E+02 1.04787E+01 0.00000E+00
 -1      3245 1.07535E+02 1.17552E+01 0.00000E+00
 -1      3246 1.12785E+02 1.04787E+01 0.00000E+00
 -1      3247 1.11285E+02 1.04787E+01 0.00000E+00
 -1      3248 1.10535E+02 1.17552E+01 0.00000E+00
 -1      3249 1.15785E+02 1.04787E+01 0.00000E+00
 -1      3250 1.14285E+02 1.04787E+01 0.00000E+00
 -1      3251 1.13535E+02 1.17552E+01 0.00000E+00
 -1      3252 1.18785E+02 1.04787E+01 0.00000E+00
 -1      3253 1.17285E+02 1.04787E+01 0.00000E+00
 -1      3254 1.16535E+02 1.17552E+01 0.00000E+00
 -1      3255 1.21785E+02 1.04787E+01 0.00000E+00
 -1      3256 1.20285E+02 1.04787E+01 0.00000E+00
 -1      3257 1.19535E+02 1.17552E+01 0.00000E+00
 -1      3258 1.24785E+02 1.04787E+01 0.00000E+00
 -1      3259 1.23285E+02 1.04787E+01 0.00000E+00
 -1      3260 1.22535E+02 1.17552E+01 0.00000E+00
 -1      3261 1.27785E+02 1.04787E+01 0.00000E+00
 -1      3262 1.26285E+02 1.04787E+01 0.00000E+00
 -1      3263 1.25535E+02 1.17552E+01 0.00000E+00
 -1      3264 1.30785E+02 1.04787E+01 0.00000E+00
 -1      3265 1.29285E+02 1.04787E+01 0.00000E+00
 -1      3266 1.28535E+02 1.17552E+01 0.00000E+00
 -1      3267 1.33785E+02 1.04787E+01 0.00000E+00
 -1      3268 1.32285E+02 1.04787E+01 0.00000E+00
 -1      3269 1.31535E+02 1.17552E+01 0.00000E+00
 -1      3270 1.36785E+02 1.04787E+01 0.00000E+00
 -1      3271 1.35285E+02 1.04787E+01 0.00000E+00
 -1      3272 1.34535E+02 1.17552E+01 0.00000E+00
 -1      3273 1.38879E+02 1.08817E+01 0.00000E+00
 -1      3274 1.37711E+02 1.06010E+01 0.00000E+00
 -1      3275 1.36961E+02 1.18775E+01 0.00000E+00
 -1      3276 1.38813E+02 1.21220E+01 0.00000E+00
 -1      3277 5.97729E+01 2.01371E+01 0.00000E+00
 -1      3278 6.02428E+01 1.88845E+01 0.00000E+00
 -1      3279 1.16910E+01 2.12875E+01 0.00000E+00
 -1      3280 1.16910E+01 2.27625E+01 0.00000E+00
 -1      3281 1.38309E+02 3.16125E+01 0.00000E+00
 -1      3282 1.38309E+02 3.01375E+01 0.00000E+00
 -1      3283 1.38309E+02 2.57625E+01 0.00000E+00
 -1      3284 1.38309E+02 2.42875E+01 0.00000E+00
 -1      3285 1.38309E+02 3.45625E+01 0.00000E+00
 -1      3286 1.38309E+02 3.30875E+01 0.00000E+00
 -1      3287 1.37010E+02 3.23500E+01 0.00000E+00
 -1      3288 1.38309E+02 2.86750E+01 0.00000E+00
 -1      3289 1.38309E+02 2.72250E+01 0.00000E+00
 -1      3290 1.37010E+02 2.64875E+01 0.00000E+00
 -1      3291 1.37010E+02 2.94125E+01 0.00000E+00
 -1      3292 8.45357E+01 2.26545E+01 0.00000E+00
 -1      3293 8.47540E+01 2.38343E+01 0.00000E+00
 -1      3294 6.36956E+01 1.52628E+01 0.00000E+00
 -1      3295 6.46225E+01 1.47500E+01 0.00000E+00
 -1      3296 3.77850E+01 1.05013E+01 0.00000E+00
 -1      3297 3.62850E+01 1.05013E+01 0.00000E+00
 -1      3298 3.55350E+01 1.18003E+01 0.00000E+00
 -1      3299 3.85350E+01 1.18003E+01 0.00000E+00
 -1      3300 8.42427E+01 2.82233E+01 0.00000E+00
 -1      3301 8.41547E+01 2.96039E+01 0.00000E+00
 -1      3302 1.97850E+01 1.05013E+01 0.00000E+00
 -1      3303 1.82850E+01 1.05013E+01 0.00000E+00
 -1      3304 2.27850E+01 1.05013E+01 0.00000E+00
 -1      3305 2.12850E+01 1.05013E+01 0.00000E+00
 -1      3306 2.05350E+01 1.18003E+01 0.00000E+00
 -1      3307 5.83637E+01 3.28645E+01 0.00000E+00
 -1      3308 5.83987E+01 3.16930E+01 0.00000E+00
 -1      3309 5.74508E+01 3.12878E+01 0.00000E+00
 -1      3310 1.59000E+01 3.83090E+01 0.00000E+00
 -1      3311 1.74000E+01 3.83090E+01 0.00000E+00
 -1      3312 1.81500E+01 3.70100E+01 0.00000E+00
 -1      3313 8.46312E+01 2.54575E+01 0.00000E+00
 -1      3314 8.45119E+01 2.68638E+01 0.00000E+00
 -1      3315 7.56442E+01 1.44017E+01 0.00000E+00
 -1      3316 7.67852E+01 1.48413E+01 0.00000E+00
 -1      3317 8.29021E+01 3.40430E+01 0.00000E+00
 -1      3318 8.21732E+01 3.53603E+01 0.00000E+00
 -1      3319 8.17809E+01 3.62889E+01 0.00000E+00
 -1      3320 7.30710E+01 1.35832E+01 0.00000E+00
 -1      3321 7.43677E+01 1.40872E+01 0.00000E+00
 -1      3322 1.26488E+01 1.02017E+01 0.00000E+00
 -1      3323 1.20772E+01 1.14631E+01 0.00000E+00
 -1      3324 1.33763E+01 1.22006E+01 0.00000E+00
 -1      3325 1.41488E+01 1.02017E+01 0.00000E+00
 -1      3326 8.37917E+01 3.11457E+01 0.00000E+00
 -1      3327 8.33909E+01 3.24726E+01 0.00000E+00
 -1      3328 5.73536E+01 2.47424E+01 0.00000E+00
 -1      3329 5.76067E+01 2.35745E+01 0.00000E+00
 -1      3330 1.00862E+01 3.73269E+01 0.00000E+00
 -1      3331 1.16910E+01 2.42375E+01 0.00000E+00
 -1      3332 1.16910E+01 2.57125E+01 0.00000E+00
 -1      3333 1.29900E+01 2.35000E+01 0.00000E+00
 -1      3334 5.69867E+01 2.87165E+01 0.00000E+00
 -1      3335 5.63742E+01 2.79048E+01 0.00000E+00
 -1      3336 8.19925E+01 1.96601E+01 0.00000E+00
 -1      3337 8.02924E+01 1.60310E+01 0.00000E+00
 -1      3338 8.01350E+01 1.72137E+01 0.00000E+00
 -1      3339 8.11003E+01 1.74234E+01 0.00000E+00
 -1      3340 5.75697E+01 2.27584E+01 0.00000E+00
 -1      3341 5.75328E+01 2.19422E+01 0.00000E+00
 -1      3342 5.64413E+01 2.31252E+01 0.00000E+00
 -1      3343 6.53170E+01 1.40181E+01 0.00000E+00
 -1      3344 5.75565E+01 3.59637E+01 0.00000E+00
 -1      3345 1.38309E+02 1.69188E+01 0.00000E+00
 -1      3346 1.38309E+02 1.54563E+01 0.00000E+00
 -1      3347 1.16910E+01 3.30594E+01 0.00000E+00
 -1      3348 1.16910E+01 3.45281E+01 0.00000E+00
 -1      3349 8.39234E+01 3.36275E+01 0.00000E+00
 -1      3350 1.32152E+01 3.82007E+01 0.00000E+00
 -1      3351 1.45576E+01 3.82548E+01 0.00000E+00
 -1      3352 1.53076E+01 3.69558E+01 0.00000E+00
 -1      3353 7.24217E+01 1.04538E+01 0.00000E+00
 -1      3354 7.18702E+01 1.25143E+01 0.00000E+00
 -1      3355 7.26950E+01 1.29570E+01 0.00000E+00
 -1      3356 7.39217E+01 1.04538E+01 0.00000E+00
 -1      3357 1.29900E+01 1.46687E+01 0.00000E+00
 -1      3358 1.16910E+01 1.54063E+01 0.00000E+00
 -1      3359 1.16910E+01 1.68750E+01 0.00000E+00
 -1      3360 8.47752E+01 3.05153E+01 0.00000E+00
 -1      3361 7.53369E+01 1.32723E+01 0.00000E+00
 -1      3362 1.14286E+01 3.73811E+01 0.00000E+00
 -1      3363 8.54073E+01 2.76139E+01 0.00000E+00
 -1      3364 8.44286E+01 2.10676E+01 0.00000E+00
 -1      3365 8.44821E+01 2.18610E+01 0.00000E+00
 -1      3366 8.58686E+01 2.22145E+01 0.00000E+00
 -1      3367 2.57850E+01 1.05013E+01 0.00000E+00
 -1      3368 2.42850E+01 1.05013E+01 0.00000E+00
 -1      3369 2.35350E+01 1.18003E+01 0.00000E+00
 -1      3370 2.95350E+01 1.18003E+01 0.00000E+00
 -1      3371 2.87850E+01 1.05013E+01 0.00000E+00
 -1      3372 2.72850E+01 1.05013E+01 0.00000E+00
 -1      3373 7.46717E+01 1.17303E+01 0.00000E+00
 -1      3374 5.88546E+01 2.03631E+01 0.00000E+00
 -1      3375 1.16910E+01 1.98188E+01 0.00000E+00
 -1      3376 1.29900E+01 2.05562E+01 0.00000E+00
 -1      3377 1.16910E+01 1.83500E+01 0.00000E+00
 -1      3378 1.38309E+02 1.98687E+01 0.00000E+00
 -1      3379 1.38309E+02 1.83937E+01 0.00000E+00
 -1      3380 1.37010E+02 1.76625E+01 0.00000E+00
 -1      3381 8.57993E+01 2.46312E+01 0.00000E+00
 -1      3382 1.38309E+02 2.28156E+01 0.00000E+00
 -1      3383 1.38309E+02 2.13406E+01 0.00000E+00
 -1      3384 1.37010E+02 2.06094E+01 0.00000E+00
 -1      3385 1.37010E+02 2.35531E+01 0.00000E+00
 -1      3386 6.25746E+01 1.52244E+01 0.00000E+00
 -1      3387 6.87220E+01 1.36616E+01 0.00000E+00
 -1      3388 6.02876E+01 1.77817E+01 0.00000E+00
 -1      3389 6.03323E+01 1.66789E+01 0.00000E+00
 -1      3390 5.90928E+01 1.80479E+01 0.00000E+00
 -1      3391 5.84395E+01 3.36884E+01 0.00000E+00
 -1      3392 5.74916E+01 3.32832E+01 0.00000E+00
 -1      3393 5.85152E+01 3.45122E+01 0.00000E+00
 -1      3394 7.79703E+01 1.47040E+01 0.00000E+00
 -1      3395 5.67409E+01 2.94717E+01 0.00000E+00
 -1      3396 8.30423E+01 3.61265E+01 0.00000E+00
 -1      3397 1.37758E+02 3.65110E+01 0.00000E+00
 -1      3398 1.38123E+02 3.54227E+01 0.00000E+00
 -1      3399 1.36824E+02 3.46852E+01 0.00000E+00
 -1      3400 1.36451E+02 3.64056E+01 0.00000E+00
 -1      3401 1.69669E+01 1.03515E+01 0.00000E+00
 -1      3402 1.54669E+01 1.03515E+01 0.00000E+00
 -1      3403 1.50806E+01 1.13509E+01 0.00000E+00
 -1      3404 1.77169E+01 1.16505E+01 0.00000E+00
 -1      3405 1.16910E+01 3.01219E+01 0.00000E+00
 -1      3406 1.16910E+01 3.15906E+01 0.00000E+00
 -1      3407 1.29900E+01 3.23250E+01 0.00000E+00
 -1      3408 8.45423E+01 3.61265E+01 0.00000E+00
 -1      3409 8.22535E+01 1.83506E+01 0.00000E+00
 -1      3410 8.33031E+01 1.94047E+01 0.00000E+00
 -1      3411 8.50311E+01 3.45561E+01 0.00000E+00
 -1      3412 8.61388E+01 3.54846E+01 0.00000E+00
 -1      3413 8.55199E+01 3.29857E+01 0.00000E+00
 -1      3414 8.70500E+01 2.39096E+01 0.00000E+00
 -1      3415 8.69272E+01 2.55328E+01 0.00000E+00
 -1      3416 1.34776E+01 3.53477E+01 0.00000E+00
 -1      3417 1.21786E+01 3.60821E+01 0.00000E+00
 -1      3418 6.09570E+01 3.62326E+01 0.00000E+00
 -1      3419 2.34000E+01 3.57110E+01 0.00000E+00
 -1      3420 2.49000E+01 3.57110E+01 0.00000E+00
 -1      3421 2.64000E+01 3.57110E+01 0.00000E+00
 -1      3422 2.79000E+01 3.57110E+01 0.00000E+00
 -1      3423 2.56500E+01 3.44120E+01 0.00000E+00
 -1      3424 2.94000E+01 3.57110E+01 0.00000E+00
 -1      3425 3.09000E+01 3.57110E+01 0.00000E+00
 -1      3426 2.86500E+01 3.44120E+01 0.00000E+00
 -1      3427 3.24000E+01 3.57110E+01 0.00000E+00
 -1      3428 3.39000E+01 3.57110E+01 0.00000E+00
 -1      3429 3.16500E+01 3.44120E+01 0.00000E+00
 -1      3430 3.54000E+01 3.57110E+01 0.00000E+00
 -1      3431 3.69000E+01 3.57110E+01 0.00000E+00
 -1      3432 3.46500E+01 3.44120E+01 0.00000E+00
 -1      3433 3.84000E+01 3.57110E+01 0.00000E+00
 -1      3434 3.99000E+01 3.57110E+01 0.00000E+00
 -1      3435 3.76500E+01 3.44120E+01 0.00000E+00
 -1      3436 4.14000E+01 3.57110E+01 0.00000E+00
 -1      3437 4.29000E+01 3.57110E+01 0.00000E+00
 -1      3438 4.06500E+01 3.44120E+01 0.00000E+00
 -1      3439 4.44000E+01 3.57110E+01 0.00000E+00
 -1      3440 4.59000E+01 3.57110E+01 0.00000E+00
 -1      3441 4.36500E+01 3.44120E+01 0.00000E+00
 -1      3442 4.74000E+01 3.57110E+01 0.00000E+00
 -1      3443 4.89000E+01 3.57110E+01 0.00000E+00
 -1      3444 4.66500E+01 3.44120E+01 0.00000E+00
 -1      3445 5.04000E+01 3.57110E+01 0.00000E+00
 -1      3446 5.19000E+01 3.57110E+01 0.00000E+00
 -1      3447 4.96500E+01 3.44120E+01 0.00000E+00
 -1      3448 5.34000E+01 3.57110E+01 0.00000E+00
 -1      3449 5.49000E+01 3.57110E+01 0.00000E+00
 -1      3450 5.26500E+01 3.44120E+01 0.00000E+00
 -1      3451 5.77262E+01 2.07299E+01 0.00000E+00
 -1      3452 5.79197E+01 1.95176E+01 0.00000E+00
 -1      3453 5.65978E+01 2.10967E+01 0.00000E+00
 -1      3454 8.42850E+01 1.30542E+01 0.00000E+00
 -1      3455 8.27850E+01 1.30542E+01 0.00000E+00
 -1      3456 8.76388E+01 3.54846E+01 0.00000E+00
 -1      3457 8.91388E+01 3.54846E+01 0.00000E+00
 -1      3458 9.06388E+01 3.54846E+01 0.00000E+00
 -1      3459 8.81276E+01 3.39143E+01 0.00000E+00
 -1      3460 9.21388E+01 3.54846E+01 0.00000E+00
 -1      3461 9.36388E+01 3.54846E+01 0.00000E+00
 -1      3462 9.11276E+01 3.39143E+01 0.00000E+00
 -1      3463 9.51388E+01 3.54846E+01 0.00000E+00
 -1      3464 9.66388E+01 3.54846E+01 0.00000E+00
 -1      3465 9.41276E+01 3.39143E+01 0.00000E+00
 -1      3466 9.81388E+01 3.54846E+01 0.00000E+00
 -1      3467 9.96388E+01 3.54846E+01 0.00000E+00
 -1      3468 9.71276E+01 3.39143E+01 0.00000E+00
 -1      3469 1.01139E+02 3.54846E+01 0.00000E+00
 -1      3470 1.02639E+02 3.54846E+01 0.00000E+00
 -1      3471 1.00128E+02 3.39143E+01 0.00000E+00
 -1      3472 1.04139E+02 3.54846E+01 0.00000E+00
 -1      3473 1.05639E+02 3.54846E+01 0.00000E+00
 -1      3474 1.03128E+02 3.39143E+01 0.00000E+00
 -1      3475 1.07139E+02 3.54846E+01 0.00000E+00
 -1      3476 1.08639E+02 3.54846E+01 0.00000E+00
 -1      3477 1.06128E+02 3.39143E+01 0.00000E+00
 -1      3478 1.10139E+02 3.54846E+01 0.00000E+00
 -1      3479 1.11639E+02 3.54846E+01 0.00000E+00
 -1      3480 1.09128E+02 3.39143E+01 0.00000E+00
 -1      3481 1.13139E+02 3.54846E+01 0.00000E+00
 -1      3482 1.14639E+02 3.54846E+01 0.00000E+00
 -1      3483 1.12128E+02 3.39143E+01 0.00000E+00
 -1      3484 1.16139E+02 3.54846E+01 0.00000E+00
 -1      3485 1.17639E+02 3.54846E+01 0.00000E+00
 -1      3486 1.15128E+02 3.39143E+01 0.00000E+00
 -1      3487 1.19139E+02 3.54846E+01 0.00000E+00
 -1      3488 1.20639E+02 3.54846E+01 0.00000E+00
 -1      3489 1.18128E+02 3.39143E+01 0.00000E+00
 -1      3490 1.22139E+02 3.54846E+01 0.00000E+00
 -1      3491 1.23639E+02 3.54846E+01 0.00000E+00
 -1      3492 1.21128E+02 3.39143E+01 0.00000E+00
 -1      3493 1.25139E+02 3.54846E+01 0.00000E+00
 -1      3494 1.26639E+02 3.54846E+01 0.00000E+00
 -1      3495 1.24128E+02 3.39143E+01 0.00000E+00
 -1      3496 1.28139E+02 3.54846E+01 0.00000E+00
 -1      3497 1.29639E+02 3.54846E+01 0.00000E+00
 -1      3498 1.27128E+02 3.39143E+01 0.00000E+00
 -1      3499 1.31139E+02 3.54846E+01 0.00000E+00
 -1      3500 1.32639E+02 3.54846E+01 0.00000E+00
 -1      3501 1.30128E+02 3.39143E+01 0.00000E+00
 -1      3502 4.82850E+01 1.30992E+01 0.00000E+00
 -1      3503 4.67850E+01 1.30992E+01 0.00000E+00
 -1      3504 4.52850E+01 1.30992E+01 0.00000E+00
 -1      3505 4.37850E+01 1.30992E+01 0.00000E+00
 -1      3506 4.60350E+01 1.43982E+01 0.00000E+00
 -1      3507 4.22850E+01 1.30992E+01 0.00000E+00
 -1      3508 4.07850E+01 1.30992E+01 0.00000E+00
 -1      3509 4.30350E+01 1.43982E+01 0.00000E+00
 -1      3510 5.12850E+01 1.30992E+01 0.00000E+00
 -1      3511 4.97850E+01 1.30992E+01 0.00000E+00
 -1      3512 4.90350E+01 1.43982E+01 0.00000E+00
 -1      3513 5.42850E+01 1.30992E+01 0.00000E+00
 -1      3514 5.27850E+01 1.30992E+01 0.00000E+00
 -1      3515 5.20350E+01 1.43982E+01 0.00000E+00
 -1      3516 5.72850E+01 1.30992E+01 0.00000E+00
 -1      3517 5.57850E+01 1.30992E+01 0.00000E+00
 -1      3518 5.50350E+01 1.43982E+01 0.00000E+00
 -1      3519 6.38286E+01 1.29182E+01 0.00000E+00
 -1      3520 6.23286E+01 1.29182E+01 0.00000E+00
 -1      3521 6.55234E+01 1.29001E+01 0.00000E+00
 -1      3522 8.72850E+01 1.30542E+01 0.00000E+00
 -1      3523 8.57850E+01 1.30542E+01 0.00000E+00
 -1      3524 8.50350E+01 1.43532E+01 0.00000E+00
 -1      3525 9.02850E+01 1.30542E+01 0.00000E+00
 -1      3526 8.87850E+01 1.30542E+01 0.00000E+00
 -1      3527 8.80350E+01 1.43532E+01 0.00000E+00
 -1      3528 9.32850E+01 1.30542E+01 0.00000E+00
 -1      3529 9.17850E+01 1.30542E+01 0.00000E+00
 -1      3530 9.10350E+01 1.43532E+01 0.00000E+00
 -1      3531 9.62850E+01 1.30542E+01 0.00000E+00
 -1      3532 9.47850E+01 1.30542E+01 0.00000E+00
 -1      3533 9.40350E+01 1.43532E+01 0.00000E+00
 -1      3534 9.92850E+01 1.30542E+01 0.00000E+00
 -1      3535 9.77850E+01 1.30542E+01 0.00000E+00
 -1      3536 9.70350E+01 1.43532E+01 0.00000E+00
 -1      3537 1.02285E+02 1.30542E+01 0.00000E+00
 -1      3538 1.00785E+02 1.30542E+01 0.00000E+00
 -1      3539 1.00035E+02 1.43532E+01 0.00000E+00
 -1      3540 1.05285E+02 1.30542E+01 0.00000E+00
 -1      3541 1.03785E+02 1.30542E+01 0.00000E+00
 -1      3542 1.03035E+02 1.43532E+01 0.00000E+00
 -1      3543 1.08285E+02 1.30542E+01 0.00000E+00
 -1      3544 1.06785E+02 1.30542E+01 0.00000E+00
 -1      3545 1.06035E+02 1.43532E+01 0.00000E+00
 -1      3546 1.11285E+02 1.30542E+01 0.00000E+00
 -1      3547 1.09785E+02 1.30542E+01 0.00000E+00
 -1      3548 1.09035E+02 1.43532E+01 0.00000E+00
 -1      3549 1.14285E+02 1.30542E+01 0.00000E+00
 -1      3550 1.12785E+02 1.30542E+01 0.00000E+00
 -1      3551 1.12035E+02 1.43532E+01 0.00000E+00
 -1      3552 1.17285E+02 1.30542E+01 0.00000E+00
 -1      3553 1.15785E+02 1.30542E+01 0.00000E+00
 -1      3554 1.15035E+02 1.43532E+01 0.00000E+00
 -1      3555 1.20285E+02 1.30542E+01 0.00000E+00
 -1      3556 1.18785E+02 1.30542E+01 0.00000E+00
 -1      3557 1.18035E+02 1.43532E+01 0.00000E+00
 -1      3558 1.23285E+02 1.30542E+01 0.00000E+00
 -1      3559 1.21785E+02 1.30542E+01 0.00000E+00
 -1      3560 1.21035E+02 1.43532E+01 0.00000E+00
 -1      3561 1.26285E+02 1.30542E+01 0.00000E+00
 -1      3562 1.24785E+02 1.30542E+01 0.00000E+00
 -1      3563 1.24035E+02 1.43532E+01 0.00000E+00
 -1      3564 1.29285E+02 1.30542E+01 0.00000E+00
 -1      3565 1.27785E+02 1.30542E+01 0.00000E+00
 -1      3566 1.27035E+02 1.43532E+01 0.00000E+00
 -1      3567 1.32285E+02 1.30542E+01 0.00000E+00
 -1      3568 1.30785E+02 1.30542E+01 0.00000E+00
 -1      3569 1.30035E+02 1.43532E+01 0.00000E+00
 -1      3570 1.35285E+02 1.30542E+01 0.00000E+00
 -1      3571 1.33785E+02 1.30542E+01 0.00000E+00
 -1      3572 1.33035E+02 1.43532E+01 0.00000E+00
 -1      3573 3.32850E+01 1.30992E+01 0.00000E+00
 -1      3574 3.17850E+01 1.30992E+01 0.00000E+00
 -1      3575 5.53141E+01 2.80088E+01 0.00000E+00
 -1      3576 5.56924E+01 2.70864E+01 0.00000E+00
 -1      3577 1.38528E+02 1.44093E+01 0.00000E+00
 -1      3578 1.38594E+02 1.31690E+01 0.00000E+00
 -1      3579 1.37668E+02 1.30467E+01 0.00000E+00
 -1      3580 1.37229E+02 1.51406E+01 0.00000E+00
 -1      3581 6.08067E+01 1.53927E+01 0.00000E+00
 -1      3582 6.18542E+01 1.42044E+01 0.00000E+00
 -1      3583 6.05606E+01 1.30865E+01 0.00000E+00
 -1      3584 5.96119E+01 1.56589E+01 0.00000E+00
 -1      3585 1.35711E+02 3.30875E+01 0.00000E+00
 -1      3586 1.35711E+02 3.16125E+01 0.00000E+00
 -1      3587 5.64087E+01 3.18430E+01 0.00000E+00
 -1      3588 5.64436E+01 3.06714E+01 0.00000E+00
 -1      3589 2.12850E+01 1.30992E+01 0.00000E+00
 -1      3590 1.97850E+01 1.30992E+01 0.00000E+00
 -1      3591 5.61539E+01 2.62742E+01 0.00000E+00
 -1      3592 5.68921E+01 2.55547E+01 0.00000E+00
 -1      3593 5.60168E+01 2.47536E+01 0.00000E+00
 -1      3594 5.50938E+01 2.63782E+01 0.00000E+00
 -1      3595 7.79435E+01 1.33540E+01 0.00000E+00
 -1      3596 7.93004E+01 1.44713E+01 0.00000E+00
 -1      3597 1.16910E+01 2.71844E+01 0.00000E+00
 -1      3598 1.16910E+01 2.86531E+01 0.00000E+00
 -1      3599 1.29900E+01 2.93875E+01 0.00000E+00
 -1      3600 8.62458E+01 2.99020E+01 0.00000E+00
 -1      3601 8.58829E+01 3.14439E+01 0.00000E+00
 -1      3602 8.69905E+01 3.23724E+01 0.00000E+00
 -1      3603 7.36844E+01 1.23316E+01 0.00000E+00
 -1      3604 1.74000E+01 3.57110E+01 0.00000E+00
 -1      3605 1.89000E+01 3.57110E+01 0.00000E+00
 -1      3606 2.04000E+01 3.57110E+01 0.00000E+00
 -1      3607 2.19000E+01 3.57110E+01 0.00000E+00
 -1      3608 2.26500E+01 3.44120E+01 0.00000E+00
 -1      3609 5.56987E+01 3.00269E+01 0.00000E+00
 -1      3610 8.67841E+01 2.71829E+01 0.00000E+00
 -1      3611 8.65150E+01 2.85425E+01 0.00000E+00
 -1      3612 8.76227E+01 2.94710E+01 0.00000E+00
 -1      3613 8.24108E+01 1.71680E+01 0.00000E+00
 -1      3614 1.33020E+02 3.31321E+01 0.00000E+00
 -1      3615 1.34031E+02 3.47025E+01 0.00000E+00
 -1      3616 5.52683E+01 2.35872E+01 0.00000E+00
 -1      3617 5.52314E+01 2.27710E+01 0.00000E+00
 -1      3618 8.72972E+01 2.24441E+01 0.00000E+00
 -1      3619 8.84251E+01 2.33457E+01 0.00000E+00
 -1      3620 1.35330E+02 3.54400E+01 0.00000E+00
 -1      3621 5.64844E+01 3.26668E+01 0.00000E+00
 -1      3622 5.54772E+01 3.20505E+01 0.00000E+00
 -1      3623 5.65601E+01 3.34907E+01 0.00000E+00
 -1      3624 8.80349E+01 2.64613E+01 0.00000E+00
 -1      3625 5.47197E+01 3.04082E+01 0.00000E+00
 -1      3626 5.50169E+01 2.92085E+01 0.00000E+00
 -1      3627 5.43351E+01 2.83901E+01 0.00000E+00
 -1      3628 5.68360E+01 1.87816E+01 0.00000E+00
 -1      3629 5.79644E+01 1.84148E+01 0.00000E+00
 -1      3630 5.80091E+01 1.73120E+01 0.00000E+00
 -1      3631 5.90606E+01 1.30865E+01 0.00000E+00
 -1      3632 1.35711E+02 2.72188E+01 0.00000E+00
 -1      3633 1.35711E+02 2.57563E+01 0.00000E+00
 -1      3634 4.00350E+01 1.43982E+01 0.00000E+00
 -1      3635 3.92850E+01 1.30992E+01 0.00000E+00
 -1      3636 3.77850E+01 1.30992E+01 0.00000E+00
 -1      3637 8.46896E+01 1.97581E+01 0.00000E+00
 -1      3638 8.60761E+01 2.01116E+01 0.00000E+00
 -1      3639 8.49506E+01 1.84487E+01 0.00000E+00
 -1      3640 2.65350E+01 1.18003E+01 0.00000E+00
 -1      3641 3.02850E+01 1.30992E+01 0.00000E+00
 -1      3642 2.87850E+01 1.30992E+01 0.00000E+00
 -1      3643 3.10350E+01 1.43982E+01 0.00000E+00
 -1      3644 5.83106E+01 1.43855E+01 0.00000E+00
 -1      3645 1.34412E+02 2.50156E+01 0.00000E+00
 -1      3646 1.35711E+02 2.42844E+01 0.00000E+00
 -1      3647 1.35711E+02 2.28125E+01 0.00000E+00
 -1      3648 1.35773E+02 1.52704E+01 0.00000E+00
 -1      3649 1.35992E+02 1.42234E+01 0.00000E+00
 -1      3650 1.29900E+01 1.76125E+01 0.00000E+00
 -1      3651 7.78242E+01 1.26710E+01 0.00000E+00
 -1      3652 7.63242E+01 1.26710E+01 0.00000E+00
 -1      3653 3.47850E+01 1.30992E+01 0.00000E+00
 -1      3654 3.40350E+01 1.43982E+01 0.00000E+00
 -1      3655 3.62850E+01 1.30992E+01 0.00000E+00
 -1      3656 1.36742E+02 1.29244E+01 0.00000E+00
 -1      3657 7.50477E+01 1.23565E+01 0.00000E+00
 -1      3658 1.35618E+02 1.67726E+01 0.00000E+00
 -1      3659 1.34380E+02 1.58554E+01 0.00000E+00
 -1      3660 7.91543E+01 1.24382E+01 0.00000E+00
 -1      3661 1.35618E+02 1.82476E+01 0.00000E+00
 -1      3662 1.35711E+02 3.01437E+01 0.00000E+00
 -1      3663 1.35711E+02 2.86812E+01 0.00000E+00
 -1      3664 1.34412E+02 2.79500E+01 0.00000E+00
 -1      3665 5.68065E+01 3.46647E+01 0.00000E+00
 -1      3666 1.47676E+01 3.55023E+01 0.00000E+00
 -1      3667 1.61100E+01 3.55564E+01 0.00000E+00
 -1      3668 1.68600E+01 3.42574E+01 0.00000E+00
 -1      3669 1.42800E+01 3.39483E+01 0.00000E+00
 -1      3670 2.27850E+01 1.30992E+01 0.00000E+00
 -1      3671 2.20350E+01 1.43982E+01 0.00000E+00
 -1      3672 2.42850E+01 1.30992E+01 0.00000E+00
 -1      3673 1.90350E+01 1.43983E+01 0.00000E+00
 -1      3674 1.82850E+01 1.30993E+01 0.00000E+00
 -1      3675 1.42800E+01 3.10108E+01 0.00000E+00
 -1      3676 1.42800E+01 3.24796E+01 0.00000E+00
 -1      3677 1.55700E+01 3.26341E+01 0.00000E+00
 -1      3678 5.48068E+01 2.43994E+01 0.00000E+00
 -1      3679 1.69669E+01 1.29495E+01 0.00000E+00
 -1      3680 1.29900E+01 2.64469E+01 0.00000E+00
 -1      3681 1.34412E+02 3.08813E+01 0.00000E+00
 -1      3682 1.96500E+01 3.44120E+01 0.00000E+00
 -1      3683 1.42890E+01 1.98219E+01 0.00000E+00
 -1      3684 1.42890E+01 2.12906E+01 0.00000E+00
 -1      3685 8.72437E+01 2.16507E+01 0.00000E+00
 -1      3686 1.55880E+01 2.20313E+01 0.00000E+00
 -1      3687 1.42890E+01 2.27656E+01 0.00000E+00
 -1      3688 1.42890E+01 2.42406E+01 0.00000E+00
 -1      3689 1.42284E+01 1.25101E+01 0.00000E+00
 -1      3690 1.38422E+01 1.35095E+01 0.00000E+00
 -1      3691 1.38422E+01 1.49783E+01 0.00000E+00
 -1      3692 1.55466E+01 1.26599E+01 0.00000E+00
 -1      3693 8.16463E+01 1.39980E+01 0.00000E+00
 -1      3694 8.01463E+01 1.39980E+01 0.00000E+00
 -1      3695 8.23963E+01 1.52970E+01 0.00000E+00
 -1      3696 1.31628E+02 3.24455E+01 0.00000E+00
 -1      3697 1.33020E+02 3.16634E+01 0.00000E+00
 -1      3698 1.33020E+02 3.01946E+01 0.00000E+00
 -1      3699 5.42518E+01 2.20207E+01 0.00000E+00
 -1      3700 5.54248E+01 2.15587E+01 0.00000E+00
 -1      3701 5.56183E+01 2.03464E+01 0.00000E+00
 -1      3702 8.98296E+01 2.28290E+01 0.00000E+00
 -1      3703 8.95824E+01 2.42945E+01 0.00000E+00
 -1      3704 2.79000E+01 3.31130E+01 0.00000E+00
 -1      3705 2.94000E+01 3.31130E+01 0.00000E+00
 -1      3706 3.09000E+01 3.31130E+01 0.00000E+00
 -1      3707 3.24000E+01 3.31130E+01 0.00000E+00
 -1      3708 3.01500E+01 3.18140E+01 0.00000E+00
 -1      3709 3.39000E+01 3.31130E+01 0.00000E+00
 -1      3710 3.54000E+01 3.31130E+01 0.00000E+00
 -1      3711 3.31500E+01 3.18140E+01 0.00000E+00
 -1      3712 3.69000E+01 3.31130E+01 0.00000E+00
 -1      3713 3.84000E+01 3.31130E+01 0.00000E+00
 -1      3714 3.61500E+01 3.18140E+01 0.00000E+00
 -1      3715 3.99000E+01 3.31130E+01 0.00000E+00
 -1      3716 4.14000E+01 3.31130E+01 0.00000E+00
 -1      3717 3.91500E+01 3.18140E+01 0.00000E+00
 -1      3718 4.29000E+01 3.31130E+01 0.00000E+00
 -1      3719 4.44000E+01 3.31130E+01 0.00000E+00
 -1      3720 4.21500E+01 3.18140E+01 0.00000E+00
 -1      3721 4.59000E+01 3.31130E+01 0.00000E+00
 -1      3722 4.74000E+01 3.31130E+01 0.00000E+00
 -1      3723 4.51500E+01 3.18140E+01 0.00000E+00
 -1      3724 4.89000E+01 3.31130E+01 0.00000E+00
 -1      3725 5.04000E+01 3.31130E+01 0.00000E+00
 -1      3726 4.81500E+01 3.18140E+01 0.00000E+00
 -1      3727 1.68600E+01 3.27887E+01 0.00000E+00
 -1      3728 1.81500E+01 3.29432E+01 0.00000E+00
 -1      3729 1.68600E+01 3.13199E+01 0.00000E+00
 -1      3730 8.87850E+01 1.56522E+01 0.00000E+00
 -1      3731 8.72850E+01 1.56522E+01 0.00000E+00
 -1      3732 8.84905E+01 3.23724E+01 0.00000E+00
 -1      3733 9.03776E+01 3.26153E+01 0.00000E+00
 -1      3734 9.18776E+01 3.26153E+01 0.00000E+00
 -1      3735 9.33776E+01 3.26153E+01 0.00000E+00
 -1      3736 9.48776E+01 3.26153E+01 0.00000E+00
 -1      3737 9.26276E+01 3.13163E+01 0.00000E+00
 -1      3738 9.63776E+01 3.26153E+01 0.00000E+00
 -1      3739 9.78776E+01 3.26153E+01 0.00000E+00
 -1      3740 9.56276E+01 3.13163E+01 0.00000E+00
 -1      3741 9.93776E+01 3.26153E+01 0.00000E+00
 -1      3742 1.00878E+02 3.26153E+01 0.00000E+00
 -1      3743 9.86276E+01 3.13163E+01 0.00000E+00
 -1      3744 1.02378E+02 3.26153E+01 0.00000E+00
 -1      3745 1.03878E+02 3.26153E+01 0.00000E+00
 -1      3746 1.01628E+02 3.13163E+01 0.00000E+00
 -1      3747 1.05378E+02 3.26153E+01 0.00000E+00
 -1      3748 1.06878E+02 3.26153E+01 0.00000E+00
 -1      3749 1.04628E+02 3.13163E+01 0.00000E+00
 -1      3750 1.08378E+02 3.26153E+01 0.00000E+00
 -1      3751 1.09878E+02 3.26153E+01 0.00000E+00
 -1      3752 1.07628E+02 3.13163E+01 0.00000E+00
 -1      3753 1.11378E+02 3.26153E+01 0.00000E+00
 -1      3754 1.12878E+02 3.26153E+01 0.00000E+00
 -1      3755 1.10628E+02 3.13163E+01 0.00000E+00
 -1      3756 1.14378E+02 3.26153E+01 0.00000E+00
 -1      3757 1.15878E+02 3.26153E+01 0.00000E+00
 -1      3758 1.13628E+02 3.13163E+01 0.00000E+00
 -1      3759 1.17378E+02 3.26153E+01 0.00000E+00
 -1      3760 1.18878E+02 3.26153E+01 0.00000E+00
 -1      3761 1.16628E+02 3.13163E+01 0.00000E+00
 -1      3762 1.20378E+02 3.26153E+01 0.00000E+00
 -1      3763 1.21878E+02 3.26153E+01 0.00000E+00
 -1      3764 1.19628E+02 3.13163E+01 0.00000E+00
 -1      3765 1.23378E+02 3.26153E+01 0.00000E+00
 -1      3766 1.24878E+02 3.26153E+01 0.00000E+00
 -1      3767 1.22628E+02 3.13163E+01 0.00000E+00
 -1      3768 1.26378E+02 3.26153E+01 0.00000E+00
 -1      3769 1.27878E+02 3.26153E+01 0.00000E+00
 -1      3770 1.25628E+02 3.13163E+01 0.00000E+00
 -1      3771 1.29003E+02 3.25304E+01 0.00000E+00
 -1      3772 1.30503E+02 3.25304E+01 0.00000E+00
 -1      3773 1.30503E+02 3.10616E+01 0.00000E+00
 -1      3774 1.28253E+02 3.12314E+01 0.00000E+00
 -1      3775 5.27850E+01 1.56973E+01 0.00000E+00
 -1      3776 5.12850E+01 1.56973E+01 0.00000E+00
 -1      3777 1.35144E+02 3.63002E+01 0.00000E+00
 -1      3778 4.97850E+01 1.56973E+01 0.00000E+00
 -1      3779 4.82850E+01 1.56973E+01 0.00000E+00
 -1      3780 5.05350E+01 1.69963E+01 0.00000E+00
 -1      3781 4.37850E+01 1.56973E+01 0.00000E+00
 -1      3782 4.22850E+01 1.56973E+01 0.00000E+00
 -1      3783 5.67079E+01 1.60385E+01 0.00000E+00
 -1      3784 5.52079E+01 1.60385E+01 0.00000E+00
 -1      3785 8.88450E+01 2.90066E+01 0.00000E+00
 -1      3786 8.85759E+01 3.03662E+01 0.00000E+00
 -1      3787 1.42890E+01 1.68719E+01 0.00000E+00
 -1      3788 1.42890E+01 1.83469E+01 0.00000E+00
 -1      3789 1.55880E+01 1.90812E+01 0.00000E+00
 -1      3790 9.17850E+01 1.56522E+01 0.00000E+00
 -1      3791 9.02850E+01 1.56522E+01 0.00000E+00
 -1      3792 8.95350E+01 1.69512E+01 0.00000E+00
 -1      3793 9.47850E+01 1.56522E+01 0.00000E+00
 -1      3794 9.32850E+01 1.56522E+01 0.00000E+00
 -1      3795 9.25350E+01 1.69512E+01 0.00000E+00
 -1      3796 9.77850E+01 1.56522E+01 0.00000E+00
 -1      3797 9.62850E+01 1.56522E+01 0.00000E+00
 -1      3798 9.55350E+01 1.69512E+01 0.00000E+00
 -1      3799 1.00785E+02 1.56522E+01 0.00000E+00
 -1      3800 9.92850E+01 1.56522E+01 0.00000E+00
 -1      3801 9.85350E+01 1.69512E+01 0.00000E+00
 -1      3802 1.03785E+02 1.56522E+01 0.00000E+00
 -1      3803 1.02285E+02 1.56522E+01 0.00000E+00
 -1      3804 1.01535E+02 1.69512E+01 0.00000E+00
 -1      3805 1.06785E+02 1.56522E+01 0.00000E+00
 -1      3806 1.05285E+02 1.56522E+01 0.00000E+00
 -1      3807 1.04535E+02 1.69512E+01 0.00000E+00
 -1      3808 1.09785E+02 1.56522E+01 0.00000E+00
 -1      3809 1.08285E+02 1.56522E+01 0.00000E+00
 -1      3810 1.07535E+02 1.69512E+01 0.00000E+00
 -1      3811 1.12785E+02 1.56522E+01 0.00000E+00
 -1      3812 1.11285E+02 1.56522E+01 0.00000E+00
 -1      3813 1.10535E+02 1.69512E+01 0.00000E+00
 -1      3814 1.15785E+02 1.56522E+01 0.00000E+00
 -1      3815 1.14285E+02 1.56522E+01 0.00000E+00
 -1      3816 1.13535E+02 1.69512E+01 0.00000E+00
 -1      3817 1.18785E+02 1.56522E+01 0.00000E+00
 -1      3818 1.17285E+02 1.56522E+01 0.00000E+00
 -1      3819 1.16535E+02 1.69512E+01 0.00000E+00
 -1      3820 1.21785E+02 1.56522E+01 0.00000E+00
 -1      3821 1.20285E+02 1.56522E+01 0.00000E+00
 -1      3822 1.19535E+02 1.69512E+01 0.00000E+00
 -1      3823 1.24785E+02 1.56522E+01 0.00000E+00
 -1      3824 1.23285E+02 1.56522E+01 0.00000E+00
 -1      3825 1.22535E+02 1.69512E+01 0.00000E+00
 -1      3826 1.27785E+02 1.56522E+01 0.00000E+00
 -1      3827 1.26285E+02 1.56522E+01 0.00000E+00
 -1      3828 1.25535E+02 1.69512E+01 0.00000E+00
 -1      3829 1.30785E+02 1.56522E+01 0.00000E+00
 -1      3830 1.29285E+02 1.56522E+01 0.00000E+00
 -1      3831 1.28535E+02 1.69512E+01 0.00000E+00
 -1      3832 1.32880E+02 1.58554E+01 0.00000E+00
 -1      3833 1.42890E+01 2.57125E+01 0.00000E+00
 -1      3834 1.42890E+01 2.71844E+01 0.00000E+00
 -1      3835 1.55880E+01 2.49781E+01 0.00000E+00
 -1      3836 1.97850E+01 1.56973E+01 0.00000E+00
 -1      3837 1.82851E+01 1.56973E+01 0.00000E+00
 -1      3838 5.38839E+01 2.60240E+01 0.00000E+00
 -1      3839 5.43454E+01 2.52117E+01 0.00000E+00
 -1      3840 5.35969E+01 2.40453E+01 0.00000E+00
 -1      3841 2.72850E+01 1.30992E+01 0.00000E+00
 -1      3842 2.57850E+01 1.30992E+01 0.00000E+00
 -1      3843 2.80350E+01 1.43982E+01 0.00000E+00
 -1      3844 1.33020E+02 2.87321E+01 0.00000E+00
 -1      3845 1.33020E+02 2.72696E+01 0.00000E+00
 -1      3846 1.31628E+02 2.95143E+01 0.00000E+00
 -1      3847 1.42845E+01 2.83632E+01 0.00000E+00
 -1      3848 1.42845E+01 2.98320E+01 0.00000E+00
 -1      3849 1.55745E+01 2.99865E+01 0.00000E+00
 -1      3850 1.55835E+01 2.76288E+01 0.00000E+00
 -1      3851 8.35495E+01 1.62242E+01 0.00000E+00
 -1      3852 8.75046E+01 2.03412E+01 0.00000E+00
 -1      3853 1.35711E+02 2.13406E+01 0.00000E+00
 -1      3854 1.35711E+02 1.98687E+01 0.00000E+00
 -1      3855 1.34412E+02 2.20719E+01 0.00000E+00
 -1      3856 2.19000E+01 3.31130E+01 0.00000E+00
 -1      3857 2.34000E+01 3.31130E+01 0.00000E+00
 -1      3858 4.67850E+01 1.56973E+01 0.00000E+00
 -1      3859 4.52850E+01 1.56973E+01 0.00000E+00
 -1      3860 4.45350E+01 1.69963E+01 0.00000E+00
 -1      3861 4.75350E+01 1.69963E+01 0.00000E+00
 -1      3862 8.50495E+01 1.62242E+01 0.00000E+00
 -1      3863 1.34319E+02 1.89788E+01 0.00000E+00
 -1      3864 2.49000E+01 3.31130E+01 0.00000E+00
 -1      3865 2.64000E+01 3.31130E+01 0.00000E+00
 -1      3866 2.41500E+01 3.18140E+01 0.00000E+00
 -1      3867 1.61147E+01 1.41087E+01 0.00000E+00
 -1      3868 1.92750E+01 3.30281E+01 0.00000E+00
 -1      3869 2.07750E+01 3.30281E+01 0.00000E+00
 -1      3870 2.15250E+01 3.17291E+01 0.00000E+00
 -1      3871 1.92750E+01 3.15594E+01 0.00000E+00
 -1      3872 8.92852E+01 2.58255E+01 0.00000E+00
 -1      3873 8.91422E+01 2.74756E+01 0.00000E+00
 -1      3874 9.00954E+01 2.83708E+01 0.00000E+00
 -1      3875 9.06897E+01 2.53088E+01 0.00000E+00
 -1      3876 1.32130E+02 1.71544E+01 0.00000E+00
 -1      3877 5.29773E+01 2.24389E+01 0.00000E+00
 -1      3878 5.31707E+01 2.12266E+01 0.00000E+00
 -1      3879 9.00744E+01 2.13501E+01 0.00000E+00
 -1      3880 9.12318E+01 2.22988E+01 0.00000E+00
 -1      3881 5.41442E+01 3.15808E+01 0.00000E+00
 -1      3882 5.34624E+01 3.07624E+01 0.00000E+00
 -1      3883 5.56630E+01 1.92436E+01 0.00000E+00
 -1      3884 5.57077E+01 1.81408E+01 0.00000E+00
 -1      3885 5.44900E+01 1.97056E+01 0.00000E+00
 -1      3886 4.07850E+01 1.56973E+01 0.00000E+00
 -1      3887 3.92850E+01 1.56973E+01 0.00000E+00
 -1      3888 4.15350E+01 1.69963E+01 0.00000E+00
 -1      3889 5.12685E+01 3.18745E+01 0.00000E+00
 -1      3890 5.20185E+01 3.31735E+01 0.00000E+00
 -1      3891 5.35185E+01 3.31735E+01 0.00000E+00
 -1      3892 1.32223E+02 1.87756E+01 0.00000E+00
 -1      3893 1.30128E+02 1.85724E+01 0.00000E+00
 -1      3894 1.32317E+02 2.03968E+01 0.00000E+00
 -1      3895 3.70350E+01 1.43982E+01 0.00000E+00
 -1      3896 8.92405E+01 3.10734E+01 0.00000E+00
 -1      3897 5.78363E+01 1.56717E+01 0.00000E+00
 -1      3898 3.17850E+01 1.56973E+01 0.00000E+00
 -1      3899 3.02850E+01 1.56973E+01 0.00000E+00
 -1      3900 5.42199E+01 3.24047E+01 0.00000E+00
 -1      3901 1.33020E+02 2.57978E+01 0.00000E+00
 -1      3902 1.33020E+02 2.43259E+01 0.00000E+00
 -1      3903 1.31628E+02 2.65799E+01 0.00000E+00
 -1      3904 5.31102E+01 2.87233E+01 0.00000E+00
 -1      3905 5.34074E+01 2.75236E+01 0.00000E+00
 -1      3906 1.68870E+01 1.83438E+01 0.00000E+00
 -1      3907 1.68870E+01 1.98188E+01 0.00000E+00
 -1      3908 3.47850E+01 1.56973E+01 0.00000E+00
 -1      3909 3.32850E+01 1.56973E+01 0.00000E+00
 -1      3910 3.25350E+01 1.69963E+01 0.00000E+00
 -1      3911 5.25158E+01 2.32512E+01 0.00000E+00
 -1      3912 5.14347E+01 2.24571E+01 0.00000E+00
 -1      3913 5.20543E+01 2.40634E+01 0.00000E+00
 -1      3914 5.26589E+01 2.63572E+01 0.00000E+00
 -1      3915 2.12850E+01 1.56973E+01 0.00000E+00
 -1      3916 2.05351E+01 1.69963E+01 0.00000E+00
 -1      3917 2.27850E+01 1.56973E+01 0.00000E+00
 -1      3918 2.50350E+01 1.43982E+01 0.00000E+00
 -1      3919 1.65615E+01 1.60023E+01 0.00000E+00
 -1      3920 1.51412E+01 1.57127E+01 0.00000E+00
 -1      3921 2.71500E+01 3.18140E+01 0.00000E+00
 -1      3922 8.57995E+01 1.75232E+01 0.00000E+00
 -1      3923 1.68870E+01 2.12938E+01 0.00000E+00
 -1      3924 1.68870E+01 2.27687E+01 0.00000E+00
 -1      3925 1.81860E+01 2.05562E+01 0.00000E+00
 -1      3926 8.83536E+01 1.94157E+01 0.00000E+00
 -1      3927 8.97558E+01 1.88855E+01 0.00000E+00
 -1      3928 5.40348E+01 1.65005E+01 0.00000E+00
 -1      3929 5.32848E+01 1.77995E+01 0.00000E+00
 -1      3930 5.48515E+01 3.36432E+01 0.00000E+00
 -1      3931 9.26357E+01 2.17715E+01 0.00000E+00
 -1      3932 9.23909E+01 2.32505E+01 0.00000E+00
 -1      3933 5.19016E+01 3.08852E+01 0.00000E+00
 -1      3934 5.24771E+01 2.97126E+01 0.00000E+00
 -1      3935 5.15493E+01 2.88461E+01 0.00000E+00
 -1      3936 5.02831E+01 3.08247E+01 0.00000E+00
 -1      3937 8.02656E+01 1.46810E+01 0.00000E+00
 -1      3938 2.94000E+01 3.05150E+01 0.00000E+00
 -1      3939 3.09000E+01 3.05150E+01 0.00000E+00
 -1      3940 3.24000E+01 3.05150E+01 0.00000E+00
 -1      3941 3.39000E+01 3.05150E+01 0.00000E+00
 -1      3942 3.16500E+01 2.92160E+01 0.00000E+00
 -1      3943 3.54000E+01 3.05150E+01 0.00000E+00
 -1      3944 3.69000E+01 3.05150E+01 0.00000E+00
 -1      3945 3.46500E+01 2.92160E+01 0.00000E+00
 -1      3946 3.84000E+01 3.05150E+01 0.00000E+00
 -1      3947 3.99000E+01 3.05150E+01 0.00000E+00
 -1      3948 3.76500E+01 2.92160E+01 0.00000E+00
 -1      3949 4.14000E+01 3.05150E+01 0.00000E+00
 -1      3950 4.29000E+01 3.05150E+01 0.00000E+00
 -1      3951 4.06500E+01 2.92160E+01 0.00000E+00
 -1      3952 4.44000E+01 3.05150E+01 0.00000E+00
 -1      3953 4.59000E+01 3.05150E+01 0.00000E+00
 -1      3954 4.36500E+01 2.92160E+01 0.00000E+00
 -1      3955 4.74000E+01 3.05150E+01 0.00000E+00
 -1      3956 4.89000E+01 3.05150E+01 0.00000E+00
 -1      3957 4.66500E+01 2.92160E+01 0.00000E+00
 -1      3958 1.68645E+01 3.01411E+01 0.00000E+00
 -1      3959 1.81545E+01 3.02957E+01 0.00000E+00
 -1      3960 1.68690E+01 2.89622E+01 0.00000E+00
 -1      3961 1.73115E+01 1.73013E+01 0.00000E+00
 -1      3962 1.86105E+01 1.80388E+01 0.00000E+00
 -1      3963 9.48776E+01 3.00173E+01 0.00000E+00
 -1      3964 9.63776E+01 3.00173E+01 0.00000E+00
 -1      3965 9.78776E+01 3.00173E+01 0.00000E+00
 -1      3966 9.93776E+01 3.00173E+01 0.00000E+00
 -1      3967 9.71276E+01 2.87183E+01 0.00000E+00
 -1      3968 1.00878E+02 3.00173E+01 0.00000E+00
 -1      3969 1.02378E+02 3.00173E+01 0.00000E+00
 -1      3970 1.00128E+02 2.87183E+01 0.00000E+00
 -1      3971 1.03878E+02 3.00173E+01 0.00000E+00
 -1      3972 1.05378E+02 3.00173E+01 0.00000E+00
 -1      3973 1.03128E+02 2.87183E+01 0.00000E+00
 -1      3974 1.06878E+02 3.00173E+01 0.00000E+00
 -1      3975 1.08378E+02 3.00173E+01 0.00000E+00
 -1      3976 1.06128E+02 2.87183E+01 0.00000E+00
 -1      3977 1.09878E+02 3.00173E+01 0.00000E+00
 -1      3978 1.11378E+02 3.00173E+01 0.00000E+00
 -1      3979 1.09128E+02 2.87183E+01 0.00000E+00
 -1      3980 1.12878E+02 3.00173E+01 0.00000E+00
 -1      3981 1.14378E+02 3.00173E+01 0.00000E+00
 -1      3982 1.12128E+02 2.87183E+01 0.00000E+00
 -1      3983 1.15878E+02 3.00173E+01 0.00000E+00
 -1      3984 1.17378E+02 3.00173E+01 0.00000E+00
 -1      3985 1.15128E+02 2.87183E+01 0.00000E+00
 -1      3986 1.18878E+02 3.00173E+01 0.00000E+00
 -1      3987 1.20378E+02 3.00173E+01 0.00000E+00
 -1      3988 1.18128E+02 2.87183E+01 0.00000E+00
 -1      3989 1.21878E+02 3.00173E+01 0.00000E+00
 -1      3990 1.23378E+02 3.00173E+01 0.00000E+00
 -1      3991 1.21128E+02 2.87183E+01 0.00000E+00
 -1      3992 1.24878E+02 3.00173E+01 0.00000E+00
 -1      3993 1.26378E+02 3.00173E+01 0.00000E+00
 -1      3994 1.24128E+02 2.87183E+01 0.00000E+00
 -1      3995 5.12850E+01 1.82952E+01 0.00000E+00
 -1      3996 4.97850E+01 1.82952E+01 0.00000E+00
 -1      3997 9.12558E+01 1.88855E+01 0.00000E+00
 -1      3998 9.62850E+01 1.82502E+01 0.00000E+00
 -1      3999 9.47850E+01 1.82502E+01 0.00000E+00
 -1      4000 2.95350E+01 1.69963E+01 0.00000E+00
 -1      4001 2.87850E+01 1.56973E+01 0.00000E+00
 -1      4002 2.72850E+01 1.56973E+01 0.00000E+00
 -1      4003 9.92850E+01 1.82502E+01 0.00000E+00
 -1      4004 9.77850E+01 1.82502E+01 0.00000E+00
 -1      4005 9.70350E+01 1.95492E+01 0.00000E+00
 -1      4006 1.02285E+02 1.82502E+01 0.00000E+00
 -1      4007 1.00785E+02 1.82502E+01 0.00000E+00
 -1      4008 1.00035E+02 1.95492E+01 0.00000E+00
 -1      4009 1.05285E+02 1.82502E+01 0.00000E+00
 -1      4010 1.03785E+02 1.82502E+01 0.00000E+00
 -1      4011 1.03035E+02 1.95492E+01 0.00000E+00
 -1      4012 1.08285E+02 1.82502E+01 0.00000E+00
 -1      4013 1.06785E+02 1.82502E+01 0.00000E+00
 -1      4014 1.06035E+02 1.95492E+01 0.00000E+00
 -1      4015 1.11285E+02 1.82502E+01 0.00000E+00
 -1      4016 1.09785E+02 1.82502E+01 0.00000E+00
 -1      4017 1.09035E+02 1.95492E+01 0.00000E+00
 -1      4018 1.14285E+02 1.82502E+01 0.00000E+00
 -1      4019 1.12785E+02 1.82502E+01 0.00000E+00
 -1      4020 1.12035E+02 1.95492E+01 0.00000E+00
 -1      4021 1.17285E+02 1.82502E+01 0.00000E+00
 -1      4022 1.15785E+02 1.82502E+01 0.00000E+00
 -1      4023 1.15035E+02 1.95492E+01 0.00000E+00
 -1      4024 1.20285E+02 1.82502E+01 0.00000E+00
 -1      4025 1.18785E+02 1.82502E+01 0.00000E+00
 -1      4026 1.18035E+02 1.95492E+01 0.00000E+00
 -1      4027 1.23285E+02 1.82502E+01 0.00000E+00
 -1      4028 1.21785E+02 1.82502E+01 0.00000E+00
 -1      4029 1.21035E+02 1.95492E+01 0.00000E+00
 -1      4030 1.26285E+02 1.82502E+01 0.00000E+00
 -1      4031 1.24785E+02 1.82502E+01 0.00000E+00
 -1      4032 1.24035E+02 1.95492E+01 0.00000E+00
 -1      4033 1.28957E+02 1.84113E+01 0.00000E+00
 -1      4034 1.27457E+02 1.84113E+01 0.00000E+00
 -1      4035 1.26707E+02 1.97103E+01 0.00000E+00
 -1      4036 1.29050E+02 2.00325E+01 0.00000E+00
 -1      4037 1.68870E+01 2.42406E+01 0.00000E+00
 -1      4038 1.68870E+01 2.57125E+01 0.00000E+00
 -1      4039 1.81860E+01 2.35031E+01 0.00000E+00
 -1      4040 5.11013E+01 2.70627E+01 0.00000E+00
 -1      4041 5.15778E+01 2.55631E+01 0.00000E+00
 -1      4042 5.04967E+01 2.47690E+01 0.00000E+00
 -1      4043 2.64000E+01 3.05150E+01 0.00000E+00
 -1      4044 2.79000E+01 3.05150E+01 0.00000E+00
 -1      4045 2.86500E+01 2.92160E+01 0.00000E+00
 -1      4046 1.30503E+02 2.95991E+01 0.00000E+00
 -1      4047 1.30503E+02 2.81366E+01 0.00000E+00
 -1      4048 1.29378E+02 2.96840E+01 0.00000E+00
 -1      4049 1.32668E+02 2.30973E+01 0.00000E+00
 -1      4050 1.32668E+02 2.16254E+01 0.00000E+00
 -1      4051 1.30573E+02 2.14222E+01 0.00000E+00
 -1      4052 1.31276E+02 2.38794E+01 0.00000E+00
 -1      4053 5.25348E+01 1.90985E+01 0.00000E+00
 -1      4054 2.34000E+01 3.05150E+01 0.00000E+00
 -1      4055 2.49000E+01 3.05150E+01 0.00000E+00
 -1      4056 2.56500E+01 2.92160E+01 0.00000E+00
 -1      4057 2.57850E+01 1.56973E+01 0.00000E+00
 -1      4058 2.42850E+01 1.56973E+01 0.00000E+00
 -1      4059 2.35350E+01 1.69963E+01 0.00000E+00
 -1      4060 2.65350E+01 1.69963E+01 0.00000E+00
 -1      4061 3.77850E+01 1.56973E+01 0.00000E+00
 -1      4062 3.62850E+01 1.56973E+01 0.00000E+00
 -1      4063 3.55350E+01 1.69963E+01 0.00000E+00
 -1      4064 3.85350E+01 1.69963E+01 0.00000E+00
 -1      4065 5.24901E+01 2.02013E+01 0.00000E+00
 -1      4066 2.01105E+01 1.80388E+01 0.00000E+00
 -1      4067 1.96860E+01 1.90812E+01 0.00000E+00
 -1      4068 2.16105E+01 1.80388E+01 0.00000E+00
 -1      4069 9.27558E+01 1.88855E+01 0.00000E+00
 -1      4070 9.35058E+01 2.01845E+01 0.00000E+00
 -1      4071 5.04682E+01 2.80520E+01 0.00000E+00
 -1      4072 9.18776E+01 3.00398E+01 0.00000E+00
 -1      4073 9.33776E+01 3.00398E+01 0.00000E+00
 -1      4074 5.58587E+01 3.42595E+01 0.00000E+00
 -1      4075 1.92840E+01 2.92017E+01 0.00000E+00
 -1      4076 1.92795E+01 3.03805E+01 0.00000E+00
 -1      4077 2.04045E+01 3.04654E+01 0.00000E+00
 -1      4078 4.22850E+01 1.82952E+01 0.00000E+00
 -1      4079 4.07850E+01 1.82952E+01 0.00000E+00
 -1      4080 9.46649E+01 2.11362E+01 0.00000E+00
 -1      4081 8.71860E+01 1.78767E+01 0.00000E+00
 -1      4082 4.90350E+01 1.95942E+01 0.00000E+00
 -1      4083 4.82850E+01 1.82952E+01 0.00000E+00
 -1      4084 4.67850E+01 1.82952E+01 0.00000E+00
 -1      4085 1.27315E+02 2.98931E+01 0.00000E+00
 -1      4086 1.28440E+02 2.98082E+01 0.00000E+00
 -1      4087 1.28440E+02 2.83457E+01 0.00000E+00
 -1      4088 1.26565E+02 2.85941E+01 0.00000E+00
 -1      4089 4.95331E+01 2.95257E+01 0.00000E+00
 -1      4090 9.04629E+01 3.06090E+01 0.00000E+00
 -1      4091 9.12129E+01 2.93325E+01 0.00000E+00
 -1      4092 4.37850E+01 1.82952E+01 0.00000E+00
 -1      4093 4.30350E+01 1.95942E+01 0.00000E+00
 -1      4094 4.52850E+01 1.82952E+01 0.00000E+00
 -1      4095 9.15101E+01 2.78015E+01 0.00000E+00
 -1      4096 1.30503E+02 2.66648E+01 0.00000E+00
 -1      4097 1.30503E+02 2.51929E+01 0.00000E+00
 -1      4098 1.29378E+02 2.67496E+01 0.00000E+00
 -1      4099 3.02850E+01 1.82952E+01 0.00000E+00
 -1      4100 2.87850E+01 1.82952E+01 0.00000E+00
 -1      4101 3.32850E+01 1.82952E+01 0.00000E+00
 -1      4102 3.17850E+01 1.82952E+01 0.00000E+00
 -1      4103 3.10350E+01 1.95942E+01 0.00000E+00
 -1      4104 5.12156E+01 2.06195E+01 0.00000E+00
 -1      4105 9.41276E+01 2.87408E+01 0.00000E+00
 -1      4106 1.68803E+01 2.67480E+01 0.00000E+00
 -1      4107 1.68757E+01 2.79268E+01 0.00000E+00
 -1      4108 1.81658E+01 2.80814E+01 0.00000E+00
 -1      4109 1.81793E+01 2.60105E+01 0.00000E+00
 -1      4110 9.20991E+01 2.47605E+01 0.00000E+00
 -1      4111 9.18019E+01 2.62915E+01 0.00000E+00
 -1      4112 9.29194E+01 2.72533E+01 0.00000E+00
 -1      4113 9.35030E+01 2.42332E+01 0.00000E+00
 -1      4114 1.96860E+01 2.05562E+01 0.00000E+00
 -1      4115 2.15295E+01 3.05503E+01 0.00000E+00
 -1      4116 2.22795E+01 2.92513E+01 0.00000E+00
 -1      4117 5.03962E+01 2.16448E+01 0.00000E+00
 -1      4118 4.97156E+01 2.06195E+01 0.00000E+00
 -1      4119 4.82156E+01 2.06195E+01 0.00000E+00
 -1      4120 4.99347E+01 2.24571E+01 0.00000E+00
 -1      4121 9.63776E+01 2.74193E+01 0.00000E+00
 -1      4122 9.78776E+01 2.74193E+01 0.00000E+00
 -1      4123 3.09000E+01 2.79170E+01 0.00000E+00
 -1      4124 3.24000E+01 2.79170E+01 0.00000E+00
 -1      4125 1.92908E+01 2.81662E+01 0.00000E+00
 -1      4126 2.04158E+01 2.82511E+01 0.00000E+00
 -1      4127 1.92975E+01 2.71308E+01 0.00000E+00
 -1      4128 2.13468E+01 2.07450E+01 0.00000E+00
 -1      4129 1.98468E+01 2.22200E+01 0.00000E+00
 -1      4130 9.61649E+01 2.11362E+01 0.00000E+00
 -1      4131 9.52949E+01 2.27232E+01 0.00000E+00
 -1      4132 9.76649E+01 2.11362E+01 0.00000E+00
 -1      4133 3.39000E+01 2.79170E+01 0.00000E+00
 -1      4134 3.54000E+01 2.79170E+01 0.00000E+00
 -1      4135 3.31500E+01 2.66180E+01 0.00000E+00
 -1      4136 3.69000E+01 2.79170E+01 0.00000E+00
 -1      4137 3.84000E+01 2.79170E+01 0.00000E+00
 -1      4138 3.61500E+01 2.66180E+01 0.00000E+00
 -1      4139 3.99000E+01 2.79170E+01 0.00000E+00
 -1      4140 4.14000E+01 2.79170E+01 0.00000E+00
 -1      4141 3.91500E+01 2.66180E+01 0.00000E+00
 -1      4142 4.29000E+01 2.79170E+01 0.00000E+00
 -1      4143 4.44000E+01 2.79170E+01 0.00000E+00
 -1      4144 4.21500E+01 2.66180E+01 0.00000E+00
 -1      4145 4.59000E+01 2.79170E+01 0.00000E+00
 -1      4146 4.74000E+01 2.79170E+01 0.00000E+00
 -1      4147 4.51500E+01 2.66180E+01 0.00000E+00
 -1      4148 2.79000E+01 2.79170E+01 0.00000E+00
 -1      4149 2.94000E+01 2.79170E+01 0.00000E+00
 -1      4150 3.01500E+01 2.66180E+01 0.00000E+00
 -1      4151 4.90851E+01 2.77423E+01 0.00000E+00
 -1      4152 9.93776E+01 2.74193E+01 0.00000E+00
 -1      4153 1.00878E+02 2.74193E+01 0.00000E+00
 -1      4154 9.86276E+01 2.61203E+01 0.00000E+00
 -1      4155 1.02378E+02 2.74193E+01 0.00000E+00
 -1      4156 1.03878E+02 2.74193E+01 0.00000E+00
 -1      4157 1.01628E+02 2.61203E+01 0.00000E+00
 -1      4158 1.05378E+02 2.74193E+01 0.00000E+00
 -1      4159 1.06878E+02 2.74193E+01 0.00000E+00
 -1      4160 1.04628E+02 2.61203E+01 0.00000E+00
 -1      4161 1.08378E+02 2.74193E+01 0.00000E+00
 -1      4162 1.09878E+02 2.74193E+01 0.00000E+00
 -1      4163 1.07628E+02 2.61203E+01 0.00000E+00
 -1      4164 1.11378E+02 2.74193E+01 0.00000E+00
 -1      4165 1.12878E+02 2.74193E+01 0.00000E+00
 -1      4166 1.10628E+02 2.61203E+01 0.00000E+00
 -1      4167 1.14378E+02 2.74193E+01 0.00000E+00
 -1      4168 1.15878E+02 2.74193E+01 0.00000E+00
 -1      4169 1.13628E+02 2.61203E+01 0.00000E+00
 -1      4170 1.17378E+02 2.74193E+01 0.00000E+00
 -1      4171 1.18878E+02 2.74193E+01 0.00000E+00
 -1      4172 1.16628E+02 2.61203E+01 0.00000E+00
 -1      4173 1.20378E+02 2.74193E+01 0.00000E+00
 -1      4174 1.21878E+02 2.74193E+01 0.00000E+00
 -1      4175 1.19628E+02 2.61203E+01 0.00000E+00
 -1      4176 1.23378E+02 2.74193E+01 0.00000E+00
 -1      4177 1.24878E+02 2.74193E+01 0.00000E+00
 -1      4178 1.22628E+02 2.61203E+01 0.00000E+00
 -1      4179 2.49000E+01 2.79170E+01 0.00000E+00
 -1      4180 2.64000E+01 2.79170E+01 0.00000E+00
 -1      4181 2.71500E+01 2.66180E+01 0.00000E+00
 -1      4182 4.83351E+01 2.64433E+01 0.00000E+00
 -1      4183 1.00665E+02 2.11362E+01 0.00000E+00
 -1      4184 9.91649E+01 2.11362E+01 0.00000E+00
 -1      4185 9.82949E+01 2.27232E+01 0.00000E+00
 -1      4186 1.03665E+02 2.11362E+01 0.00000E+00
 -1      4187 1.02165E+02 2.11362E+01 0.00000E+00
 -1      4188 1.01295E+02 2.27232E+01 0.00000E+00
 -1      4189 1.06665E+02 2.11362E+01 0.00000E+00
 -1      4190 1.05165E+02 2.11362E+01 0.00000E+00
 -1      4191 1.04295E+02 2.27232E+01 0.00000E+00
 -1      4192 1.09665E+02 2.11362E+01 0.00000E+00
 -1      4193 1.08165E+02 2.11362E+01 0.00000E+00
 -1      4194 1.07295E+02 2.27232E+01 0.00000E+00
 -1      4195 1.12665E+02 2.11362E+01 0.00000E+00
 -1      4196 1.11165E+02 2.11362E+01 0.00000E+00
 -1      4197 1.10295E+02 2.27232E+01 0.00000E+00
 -1      4198 1.15665E+02 2.11362E+01 0.00000E+00
 -1      4199 1.14165E+02 2.11362E+01 0.00000E+00
 -1      4200 1.13295E+02 2.27232E+01 0.00000E+00
 -1      4201 1.18665E+02 2.11362E+01 0.00000E+00
 -1      4202 1.17165E+02 2.11362E+01 0.00000E+00
 -1      4203 1.16295E+02 2.27232E+01 0.00000E+00
 -1      4204 1.21665E+02 2.11362E+01 0.00000E+00
 -1      4205 1.20165E+02 2.11362E+01 0.00000E+00
 -1      4206 1.19295E+02 2.27232E+01 0.00000E+00
 -1      4207 1.24665E+02 2.11362E+01 0.00000E+00
 -1      4208 1.23165E+02 2.11362E+01 0.00000E+00
 -1      4209 1.22295E+02 2.27232E+01 0.00000E+00
 -1      4210 1.98468E+01 2.36918E+01 0.00000E+00
 -1      4211 4.88967E+01 2.52000E+01 0.00000E+00
 -1      4212 4.93732E+01 2.37004E+01 0.00000E+00
 -1      4213 4.83347E+01 2.28881E+01 0.00000E+00
 -1      4214 4.72116E+01 2.53747E+01 0.00000E+00
 -1      4215 9.44194E+01 2.72308E+01 0.00000E+00
 -1      4216 2.80350E+01 1.95943E+01 0.00000E+00
 -1      4217 2.72850E+01 1.82953E+01 0.00000E+00
 -1      4218 2.57850E+01 1.82953E+01 0.00000E+00
 -1      4219 4.00350E+01 1.95942E+01 0.00000E+00
 -1      4220 3.92850E+01 1.82952E+01 0.00000E+00
 -1      4221 3.77850E+01 1.82952E+01 0.00000E+00
 -1      4222 2.17226E+01 2.81017E+01 0.00000E+00
 -1      4223 2.35931E+01 2.80664E+01 0.00000E+00
 -1      4224 2.43431E+01 2.67674E+01 0.00000E+00
 -1      4225 2.17294E+01 2.70662E+01 0.00000E+00
 -1      4226 2.26532E+01 1.83494E+01 0.00000E+00
 -1      4227 2.22286E+01 1.93919E+01 0.00000E+00
 -1      4228 2.23894E+01 2.10556E+01 0.00000E+00
 -1      4229 2.41532E+01 1.83494E+01 0.00000E+00
 -1      4230 4.37850E+01 2.08932E+01 0.00000E+00
 -1      4231 4.22850E+01 2.08932E+01 0.00000E+00
 -1      4232 9.69612E+01 2.44217E+01 0.00000E+00
 -1      4233 9.54612E+01 2.44217E+01 0.00000E+00
 -1      4234 9.51694E+01 2.59318E+01 0.00000E+00
 -1      4235 1.29753E+02 2.24897E+01 0.00000E+00
 -1      4236 1.29401E+02 2.12611E+01 0.00000E+00
 -1      4237 1.28230E+02 2.11000E+01 0.00000E+00
 -1      4238 1.25815E+02 2.72951E+01 0.00000E+00
 -1      4239 1.26753E+02 2.71709E+01 0.00000E+00
 -1      4240 1.25065E+02 2.59961E+01 0.00000E+00
 -1      4241 3.17850E+01 2.08932E+01 0.00000E+00
 -1      4242 3.02850E+01 2.08932E+01 0.00000E+00
 -1      4243 3.62850E+01 1.82952E+01 0.00000E+00
 -1      4244 3.47850E+01 1.82952E+01 0.00000E+00
 -1      4245 3.40350E+01 1.95942E+01 0.00000E+00
 -1      4246 3.70350E+01 1.95942E+01 0.00000E+00
 -1      4247 1.27033E+02 2.11987E+01 0.00000E+00
 -1      4248 1.25862E+02 2.10376E+01 0.00000E+00
 -1      4249 1.24991E+02 2.26246E+01 0.00000E+00
 -1      4250 1.27385E+02 2.24273E+01 0.00000E+00
 -1      4251 1.93043E+01 2.60953E+01 0.00000E+00
 -1      4252 4.70925E+01 2.31061E+01 0.00000E+00
 -1      4253 4.76541E+01 2.18628E+01 0.00000E+00
 -1      4254 4.69734E+01 2.08375E+01 0.00000E+00
 -1      4255 2.09650E+01 2.48122E+01 0.00000E+00
 -1      4256 1.30151E+02 2.39643E+01 0.00000E+00
 -1      4257 1.27596E+02 2.70223E+01 0.00000E+00
 -1      4258 1.28534E+02 2.68982E+01 0.00000E+00
 -1      4259 1.28534E+02 2.54263E+01 0.00000E+00
 -1      4260 1.26846E+02 2.57233E+01 0.00000E+00
 -1      4261 2.87850E+01 2.08933E+01 0.00000E+00
 -1      4262 2.72850E+01 2.08933E+01 0.00000E+00
 -1      4263 2.95350E+01 2.21923E+01 0.00000E+00
 -1      4264 4.60350E+01 1.95942E+01 0.00000E+00
 -1      4265 4.07850E+01 2.08932E+01 0.00000E+00
 -1      4266 3.92850E+01 2.08932E+01 0.00000E+00
 -1      4267 4.15350E+01 2.21922E+01 0.00000E+00
 -1      4268 2.98425E+01 2.44051E+01 0.00000E+00
 -1      4269 3.13425E+01 2.44051E+01 0.00000E+00
 -1      4270 4.54734E+01 2.08375E+01 0.00000E+00
 -1      4271 4.47234E+01 2.21365E+01 0.00000E+00
 -1      4272 3.54000E+01 2.53190E+01 0.00000E+00
 -1      4273 3.69000E+01 2.53190E+01 0.00000E+00
 -1      4274 3.88425E+01 2.44051E+01 0.00000E+00
 -1      4275 4.03425E+01 2.44051E+01 0.00000E+00
 -1      4276 4.18425E+01 2.44051E+01 0.00000E+00
 -1      4277 4.33425E+01 2.44051E+01 0.00000E+00
 -1      4278 9.84612E+01 2.44217E+01 0.00000E+00
 -1      4279 9.99612E+01 2.44217E+01 0.00000E+00
 -1      4280 3.32850E+01 2.08932E+01 0.00000E+00
 -1      4281 3.25350E+01 2.21922E+01 0.00000E+00
 -1      4282 3.47850E+01 2.08932E+01 0.00000E+00
 -1      4283 1.01461E+02 2.44217E+01 0.00000E+00
 -1      4284 1.02961E+02 2.44217E+01 0.00000E+00
 -1      4285 1.04461E+02 2.44217E+01 0.00000E+00
 -1      4286 1.05961E+02 2.44217E+01 0.00000E+00
 -1      4287 1.07461E+02 2.44217E+01 0.00000E+00
 -1      4288 1.08961E+02 2.44217E+01 0.00000E+00
 -1      4289 1.10461E+02 2.44217E+01 0.00000E+00
 -1      4290 1.11961E+02 2.44217E+01 0.00000E+00
 -1      4291 1.13461E+02 2.44217E+01 0.00000E+00
 -1      4292 1.14961E+02 2.44217E+01 0.00000E+00
 -1      4293 1.16461E+02 2.44217E+01 0.00000E+00
 -1      4294 1.17961E+02 2.44217E+01 0.00000E+00
 -1      4295 1.19461E+02 2.44217E+01 0.00000E+00
 -1      4296 1.20961E+02 2.44217E+01 0.00000E+00
 -1      4297 1.22461E+02 2.44217E+01 0.00000E+00
 -1      4298 1.23961E+02 2.44217E+01 0.00000E+00
 -1      4299 2.68425E+01 2.44051E+01 0.00000E+00
 -1      4300 2.83425E+01 2.44051E+01 0.00000E+00
 -1      4301 1.28979E+02 2.38032E+01 0.00000E+00
 -1      4302 2.49032E+01 1.96484E+01 0.00000E+00
 -1      4303 3.28425E+01 2.44051E+01 0.00000E+00
 -1      4304 2.22719E+01 2.46628E+01 0.00000E+00
 -1      4305 4.50309E+01 2.43494E+01 0.00000E+00
 -1      4306 1.25158E+02 2.43231E+01 0.00000E+00
 -1      4307 2.39186E+01 2.10883E+01 0.00000E+00
 -1      4308 2.30368E+01 2.24414E+01 0.00000E+00
 -1      4309 3.80925E+01 2.31061E+01 0.00000E+00
 -1      4310 3.43425E+01 2.44051E+01 0.00000E+00
 -1      4311 4.65309E+01 2.43494E+01 0.00000E+00
 -1      4312 2.38011E+01 2.46955E+01 0.00000E+00
 -1      4313 2.63005E+01 2.23332E+01 0.00000E+00
 -1      4314 2.55505E+01 2.10342E+01 0.00000E+00
 -1      4315 2.51080E+01 2.45461E+01 0.00000E+00
 -1      4316 3.50925E+01 2.31061E+01 0.00000E+00
 -1      4317 3.73425E+01 2.18071E+01 0.00000E+00
 -1      4318 1.26095E+02 2.41989E+01 0.00000E+00
 -1      4319 3.58425E+01 2.18071E+01 0.00000E+00
 -1      4320 1.28136E+02 2.39517E+01 0.00000E+00
 -1      4321 1.26939E+02 2.40504E+01 0.00000E+00
 -3
    3C                          2079                                     1
 -1       164    8    0    1
 -2         6         7        23      1122      1285      1139
 -1       165    8    0    1
 -2         7         8       164      1123      1286      1287
 -1       166    8    0    1
 -2         8         9       165      1124      1288      1289
 -1       167    8    0    1
 -2         8       165       164      1289      1290      1286
 -1       168    8    0    1
 -2         9        10       166      1125      1291      1292
 -1       169    8    0    1
 -2         9       166       165      1292      1293      1288
 -1       170    8    0    1
 -2        10        11       167      1126      1294      1295
 -1       171    8    0    1
 -2        10       167       166      1295      1296      1291
 -1       172    8    0    1
 -2        11        12       168      1127      1297      1298
 -1       173    8    0    1
 -2        11       168       167      1298      1299      1294
 -1       174    8    0    1
 -2        12        13       169      1128      1300      1301
 -1       175    8    0    1
 -2        12       169       168      1301      1302      1297
 -1       176    8    0    1
 -2        13        14       170      1129      1303      1304
 -1       177    8    0    1
 -2        13       170       169      1304      1305      1300
 -1       178    8    0    1
 -2        14        15       171      1130      1306      1307
 -1       179    8    0    1
 -2        14       171       170      1307      1308      1303
 -1       180    8    0    1
 -2        15        16       172      1131      1309      1310
 -1       181    8    0    1
 -2        15       172       171      1310      1311      1306
 -1       182    8    0    1
 -2        16        17       173      1132      1312      1313
 -1       183    8    0    1
 -2        16       173       172      1313      1314      1309
 -1       184    8    0    1
 -2        17        18       174      1133      1315      1316
 -1       185    8    0    1
 -2        17       174       173      1316      1317      1312
 -1       186    8    0    1
 -2        18        19       175      1134      1318      1319
 -1       187    8    0    1
 -2        18       175       174      1319      1320      1315
 -1       188    8    0    1
 -2        19        20       176      1135      1321      1322
 -1       189    8    0    1
 -2        19       176       175      1322      1323      1318
 -1       190    8    0    1
 -2        20        21       177      1136      1324      1325
 -1       191    8    0    1
 -2        20       177       176      1325      1326      1321
 -1       192    8    0    1
 -2        21        22       178      1137      1327      1328
 -1       193    8    0    1
 -2        21       178       177      1328      1329      1324
 -1       194    8    0    1
 -2        22         5       179      1138      1330      1331
 -1       195    8    0    1
 -2       178        22       179      1327      1331      1332
 -1       196    8    0    1
 -2         5        72       179      1189      1333      1330
 -1       197    8    0    1
 -2        24        23       180      1140      1334      1335
 -1       198    8    0    1
 -2        25        24       181      1141      1336      1337
 -1       199    8    0    1
 -2        24       180       181      1335      1338      1336
 -1       200    8    0    1
 -2        26        25       182      1142      1339      1340
 -1       201    8    0    1
 -2        25       181       182      1337      1341      1339
 -1       202    8    0    1
 -2        27        26       183      1143      1342      1343
 -1       203    8    0    1
 -2        26       182       183      1340      1344      1342
 -1       204    8    0    1
 -2        28        27       184      1144      1345      1346
 -1       205    8    0    1
 -2        27       183       184      1343      1347      1345
 -1       206    8    0    1
 -2        29        28       185      1145      1348      1349
 -1       207    8    0    1
 -2        28       184       185      1346      1350      1348
 -1       208    8    0    1
 -2        30        29       186      1146      1351      1352
 -1       209    8    0    1
 -2        29       185       186      1349      1353      1351
 -1       210    8    0    1
 -2        31        30       187      1147      1354      1355
 -1       211    8    0    1
 -2        30       186       187      1352      1356      1354
 -1       212    8    0    1
 -2        32        31       188      1148      1357      1358
 -1       213    8    0    1
 -2        31       187       188      1355      1359      1357
 -1       214    8    0    1
 -2        33        32       189      1149      1360      1361
 -1       215    8    0    1
 -2        32       188       189      1358      1362      1360
 -1       216    8    0    1
 -2        34        33       190      1150      1363      1364
 -1       217    8    0    1
 -2        33       189       190      1361      1365      1363
 -1       218    8    0    1
 -2        35        34       191      1151      1366      1367
 -1       219    8    0    1
 -2        34       190       191      1364      1368      1366
 -1       220    8    0    1
 -2        36        35       192      1152      1369      1370
 -1       221    8    0    1
 -2        35       191       192      1367      1371      1369
 -1       222    8    0    1
 -2        37        36       193      1153      1372      1373
 -1       223    8    0    1
 -2        36       192       193      1370      1374      1372
 -1       224    8    0    1
 -2        38        37       194      1154      1375      1376
 -1       225    8    0    1
 -2        37       193       194      1373      1377      1375
 -1       226    8    0    1
 -2        39        38       195      1155      1378      1379
 -1       227    8    0    1
 -2        38       194       195      1376      1380      1378
 -1       228    8    0    1
 -2        40        39       196      1156      1381      1382
 -1       229    8    0    1
 -2        39       195       196      1379      1383      1381
 -1       230    8    0    1
 -2        41        40       197      1157      1384      1385
 -1       231    8    0    1
 -2        40       196       197      1382      1386      1384
 -1       232    8    0    1
 -2        42        41       198      1158      1387      1388
 -1       233    8    0    1
 -2        41       197       198      1385      1389      1387
 -1       234    8    0    1
 -2        43        42       199      1159      1390      1391
 -1       235    8    0    1
 -2        42       198       199      1388      1392      1390
 -1       236    8    0    1
 -2        44        43       200      1160      1393      1394
 -1       237    8    0    1
 -2        43       199       200      1391      1395      1393
 -1       238    8    0    1
 -2        45        44       201      1161      1396      1397
 -1       239    8    0    1
 -2        44       200       201      1394      1398      1396
 -1       240    8    0    1
 -2        46        45       202      1162      1399      1400
 -1       241    8    0    1
 -2        45       201       202      1397      1401      1399
 -1       242    8    0    1
 -2        47        46       203      1163      1402      1403
 -1       243    8    0    1
 -2        46       202       203      1400      1404      1402
 -1       244    8    0    1
 -2        48        47       204      1164      1405      1406
 -1       245    8    0    1
 -2        47       203       204      1403      1407      1405
 -1       246    8    0    1
 -2        49        48       205      1165      1408      1409
 -1       247    8    0    1
 -2        48       204       205      1406      1410      1408
 -1       248    8    0    1
 -2        50        49       206      1166      1411      1412
 -1       249    8    0    1
 -2        49       205       206      1409      1413      1411
 -1       250    8    0    1
 -2        51        50       207      1167      1414      1415
 -1       251    8    0    1
 -2        50       206       207      1412      1416      1414
 -1       252    8    0    1
 -2        52        51       208      1168      1417      1418
 -1       253    8    0    1
 -2        51       207       208      1415      1419      1417
 -1       254    8    0    1
 -2        53        52       209      1169      1420      1421
 -1       255    8    0    1
 -2        52       208       209      1418      1422      1420
 -1       256    8    0    1
 -2        54        53       210      1170      1423      1424
 -1       257    8    0    1
 -2        53       209       210      1421      1425      1423
 -1       258    8    0    1
 -2        55        54       211      1171      1426      1427
 -1       259    8    0    1
 -2        54       210       211      1424      1428      1426
 -1       260    8    0    1
 -2        56        55       212      1172      1429      1430
 -1       261    8    0    1
 -2        55       211       212      1427      1431      1429
 -1       262    8    0    1
 -2        57        56       213      1173      1432      1433
 -1       263    8    0    1
 -2        56       212       213      1430      1434      1432
 -1       264    8    0    1
 -2        58        57       214      1174      1435      1436
 -1       265    8    0    1
 -2        57       213       214      1433      1437      1435
 -1       266    8    0    1
 -2        59        58       215      1175      1438      1439
 -1       267    8    0    1
 -2        58       214       215      1436      1440      1438
 -1       268    8    0    1
 -2        60        59       216      1176      1441      1442
 -1       269    8    0    1
 -2        59       215       216      1439      1443      1441
 -1       270    8    0    1
 -2        61        60       217      1177      1444      1445
 -1       271    8    0    1
 -2        60       216       217      1442      1446      1444
 -1       272    8    0    1
 -2        62        61       218      1178      1447      1448
 -1       273    8    0    1
 -2        61       217       218      1445      1449      1447
 -1       274    8    0    1
 -2        63        62       219      1179      1450      1451
 -1       275    8    0    1
 -2        62       218       219      1448      1452      1450
 -1       276    8    0    1
 -2        64        63       220      1180      1453      1454
 -1       277    8    0    1
 -2        63       219       220      1451      1455      1453
 -1       278    8    0    1
 -2        65        64       221      1181      1456      1457
 -1       279    8    0    1
 -2        64       220       221      1454      1458      1456
 -1       280    8    0    1
 -2        66        65       222      1182      1459      1460
 -1       281    8    0    1
 -2        65       221       222      1457      1461      1459
 -1       282    8    0    1
 -2        67        66       223      1183      1462      1463
 -1       283    8    0    1
 -2        66       222       223      1460      1464      1462
 -1       284    8    0    1
 -2        68        67       224      1184      1465      1466
 -1       285    8    0    1
 -2        67       223       224      1463      1467      1465
 -1       286    8    0    1
 -2        69        68       225      1185      1468      1469
 -1       287    8    0    1
 -2        68       224       225      1466      1470      1468
 -1       288    8    0    1
 -2        70        69       226      1186      1471      1472
 -1       289    8    0    1
 -2        69       225       226      1469      1473      1471
 -1       290    8    0    1
 -2        71        70       227      1187      1474      1475
 -1       291    8    0    1
 -2        70       226       227      1472      1476      1474
 -1       292    8    0    1
 -2         4        71       136      1188      1477      1255
 -1       293    8    0    1
 -2       136        71       227      1477      1475      1478
 -1       294    8    0    1
 -2        72        73       228      1190      1479      1480
 -1       295    8    0    1
 -2        72       228       179      1480      1481      1333
 -1       296    8    0    1
 -2        73        74       229      1191      1482      1483
 -1       297    8    0    1
 -2        73       229       228      1483      1484      1479
 -1       298    8    0    1
 -2        74        75       230      1192      1485      1486
 -1       299    8    0    1
 -2        74       230       229      1486      1487      1482
 -1       300    8    0    1
 -2        75        76       231      1193      1488      1489
 -1       301    8    0    1
 -2        75       231       230      1489      1490      1485
 -1       302    8    0    1
 -2        76        77       232      1194      1491      1492
 -1       303    8    0    1
 -2        76       232       231      1492      1493      1488
 -1       304    8    0    1
 -2        77        78       233      1195      1494      1495
 -1       305    8    0    1
 -2        77       233       232      1495      1496      1491
 -1       306    8    0    1
 -2        78        79       234      1196      1497      1498
 -1       307    8    0    1
 -2        78       234       233      1498      1499      1494
 -1       308    8    0    1
 -2        79        80       235      1197      1500      1501
 -1       309    8    0    1
 -2        79       235       234      1501      1502      1497
 -1       310    8    0    1
 -2        80        81       236      1198      1503      1504
 -1       311    8    0    1
 -2        80       236       235      1504      1505      1500
 -1       312    8    0    1
 -2        81        82       237      1199      1506      1507
 -1       313    8    0    1
 -2        81       237       236      1507      1508      1503
 -1       314    8    0    1
 -2        82        83       238      1200      1509      1510
 -1       315    8    0    1
 -2        82       238       237      1510      1511      1506
 -1       316    8    0    1
 -2        83        84       239      1201      1512      1513
 -1       317    8    0    1
 -2        83       239       238      1513      1514      1509
 -1       318    8    0    1
 -2        84        85       240      1202      1515      1516
 -1       319    8    0    1
 -2        84       240       239      1516      1517      1512
 -1       320    8    0    1
 -2        85        86       241      1203      1518      1519
 -1       321    8    0    1
 -2        85       241       240      1519      1520      1515
 -1       322    8    0    1
 -2        86        87       242      1204      1521      1522
 -1       323    8    0    1
 -2        86       242       241      1522      1523      1518
 -1       324    8    0    1
 -2        87        88       243      1205      1524      1525
 -1       325    8    0    1
 -2        87       243       242      1525      1526      1521
 -1       326    8    0    1
 -2        88        89       244      1206      1527      1528
 -1       327    8    0    1
 -2        88       244       243      1528      1529      1524
 -1       328    8    0    1
 -2        89        90       245      1207      1530      1531
 -1       329    8    0    1
 -2        89       245       244      1531      1532      1527
 -1       330    8    0    1
 -2        90        91       246      1208      1533      1534
 -1       331    8    0    1
 -2        90       246       245      1534      1535      1530
 -1       332    8    0    1
 -2        91        92       247      1209      1536      1537
 -1       333    8    0    1
 -2        91       247       246      1537      1538      1533
 -1       334    8    0    1
 -2        92        93       248      1210      1539      1540
 -1       335    8    0    1
 -2        92       248       247      1540      1541      1536
 -1       336    8    0    1
 -2        93        94       249      1211      1542      1543
 -1       337    8    0    1
 -2        93       249       248      1543      1544      1539
 -1       338    8    0    1
 -2        94        95       250      1212      1545      1546
 -1       339    8    0    1
 -2        94       250       249      1546      1547      1542
 -1       340    8    0    1
 -2        95        96       251      1213      1548      1549
 -1       341    8    0    1
 -2        95       251       250      1549      1550      1545
 -1       342    8    0    1
 -2        96        97       252      1214      1551      1552
 -1       343    8    0    1
 -2        96       252       251      1552      1553      1548
 -1       344    8    0    1
 -2        97        98       253      1215      1554      1555
 -1       345    8    0    1
 -2        97       253       252      1555      1556      1551
 -1       346    8    0    1
 -2        98        99       254      1216      1557      1558
 -1       347    8    0    1
 -2        98       254       253      1558      1559      1554
 -1       348    8    0    1
 -2        99       100       255      1217      1560      1561
 -1       349    8    0    1
 -2        99       255       254      1561      1562      1557
 -1       350    8    0    1
 -2       100       101       256      1218      1563      1564
 -1       351    8    0    1
 -2       100       256       255      1564      1565      1560
 -1       352    8    0    1
 -2       101       102       257      1219      1566      1567
 -1       353    8    0    1
 -2       101       257       256      1567      1568      1563
 -1       354    8    0    1
 -2       102       103       258      1220      1569      1570
 -1       355    8    0    1
 -2       102       258       257      1570      1571      1566
 -1       356    8    0    1
 -2       103       104       259      1221      1572      1573
 -1       357    8    0    1
 -2       103       259       258      1573      1574      1569
 -1       358    8    0    1
 -2       104       105       260      1222      1575      1576
 -1       359    8    0    1
 -2       104       260       259      1576      1577      1572
 -1       360    8    0    1
 -2       105       106       261      1223      1578      1579
 -1       361    8    0    1
 -2       105       261       260      1579      1580      1575
 -1       362    8    0    1
 -2       106       107       262      1224      1581      1582
 -1       363    8    0    1
 -2       106       262       261      1582      1583      1578
 -1       364    8    0    1
 -2       107       108       263      1225      1584      1585
 -1       365    8    0    1
 -2       107       263       262      1585      1586      1581
 -1       366    8    0    1
 -2       108       109       264      1226      1587      1588
 -1       367    8    0    1
 -2       108       264       263      1588      1589      1584
 -1       368    8    0    1
 -2       109       110       265      1227      1590      1591
 -1       369    8    0    1
 -2       109       265       264      1591      1592      1587
 -1       370    8    0    1
 -2       110       111       266      1228      1593      1594
 -1       371    8    0    1
 -2       110       266       265      1594      1595      1590
 -1       372    8    0    1
 -2       111       112       267      1229      1596      1597
 -1       373    8    0    1
 -2       111       267       266      1597      1598      1593
 -1       374    8    0    1
 -2       112       113       268      1230      1599      1600
 -1       375    8    0    1
 -2       112       268       267      1600      1601      1596
 -1       376    8    0    1
 -2       113       114       269      1231      1602      1603
 -1       377    8    0    1
 -2       113       269       268      1603      1604      1599
 -1       378    8    0    1
 -2       114       115       270      1232      1605      1606
 -1       379    8    0    1
 -2       114       270       269      1606      1607      1602
 -1       380    8    0    1
 -2       115       116       271      1233      1608      1609
 -1       381    8    0    1
 -2       115       271       270      1609      1610      1605
 -1       382    8    0    1
 -2       116       117       272      1234      1611      1612
 -1       383    8    0    1
 -2       116       272       271      1612      1613      1608
 -1       384    8    0    1
 -2       117       118       273      1235      1614      1615
 -1       385    8    0    1
 -2       117       273       272      1615      1616      1611
 -1       386    8    0    1
 -2       118       119       274      1236      1617      1618
 -1       387    8    0    1
 -2       118       274       273      1618      1619      1614
 -1       388    8    0    1
 -2       119       120       275      1237      1620      1621
 -1       389    8    0    1
 -2       119       275       274      1621      1622      1617
 -1       390    8    0    1
 -2       120         3       121      1238      1239      1623
 -1       391    8    0    1
 -2       121       122       276      1240      1624      1625
 -1       392    8    0    1
 -2       122       123       277      1241      1626      1627
 -1       393    8    0    1
 -2       122       277       276      1627      1628      1624
 -1       394    8    0    1
 -2       123       124       278      1242      1629      1630
 -1       395    8    0    1
 -2       123       278       277      1630      1631      1626
 -1       396    8    0    1
 -2       124       125       279      1243      1632      1633
 -1       397    8    0    1
 -2       124       279       278      1633      1634      1629
 -1       398    8    0    1
 -2       125       126       280      1244      1635      1636
 -1       399    8    0    1
 -2       125       280       279      1636      1637      1632
 -1       400    8    0    1
 -2       126       127       281      1245      1638      1639
 -1       401    8    0    1
 -2       126       281       280      1639      1640      1635
 -1       402    8    0    1
 -2       127       128       282      1246      1641      1642
 -1       403    8    0    1
 -2       127       282       281      1642      1643      1638
 -1       404    8    0    1
 -2       128       129       283      1247      1644      1645
 -1       405    8    0    1
 -2       128       283       282      1645      1646      1641
 -1       406    8    0    1
 -2       129       130       284      1248      1647      1648
 -1       407    8    0    1
 -2       129       284       283      1648      1649      1644
 -1       408    8    0    1
 -2       130       131       285      1249      1650      1651
 -1       409    8    0    1
 -2       130       285       284      1651      1652      1647
 -1       410    8    0    1
 -2       131       132       286      1250      1653      1654
 -1       411    8    0    1
 -2       131       286       285      1654      1655      1650
 -1       412    8    0    1
 -2       132       133       287      1251      1656      1657
 -1       413    8    0    1
 -2       132       287       286      1657      1658      1653
 -1       414    8    0    1
 -2       133       134       288      1252      1659      1660
 -1       415    8    0    1
 -2       133       288       287      1660      1661      1656
 -1       416    8    0    1
 -2       134       135       289      1253      1662      1663
 -1       417    8    0    1
 -2       134       289       288      1663      1664      1659
 -1       418    8    0    1
 -2       135       136       290      1254      1665      1666
 -1       419    8    0    1
 -2       289       135       290      1662      1666      1667
 -1       420    8    0    1
 -2       136       227       290      1478      1668      1665
 -1       421    8    0    1
 -2         2       137       291      1256      1669      1670
 -1       422    8    0    1
 -2       137       138       292      1257      1671      1672
 -1       423    8    0    1
 -2       138       139       293      1258      1673      1674
 -1       424    8    0    1
 -2       139       140       294      1259      1675      1676
 -1       425    8    0    1
 -2       140       141       295      1260      1677      1678
 -1       426    8    0    1
 -2       141       142       296      1261      1679      1680
 -1       427    8    0    1
 -2       142       143       297      1262      1681      1682
 -1       428    8    0    1
 -2       143       144       298      1263      1683      1684
 -1       429    8    0    1
 -2       144       145       299      1264      1685      1686
 -1       430    8    0    1
 -2       145       146       300      1265      1687      1688
 -1       431    8    0    1
 -2       146       147       301      1266      1689      1690
 -1       432    8    0    1
 -2       147       148       302      1267      1691      1692
 -1       433    8    0    1
 -2       148       149       303      1268      1693      1694
 -1       434    8    0    1
 -2       149       150       304      1269      1695      1696
 -1       435    8    0    1
 -2       150       151       305      1270      1697      1698
 -1       436    8    0    1
 -2       151       152       306      1271      1699      1700
 -1       437    8    0    1
 -2       152       153       307      1272      1701      1702
 -1       438    8    0    1
 -2       153       154       308      1273      1703      1704
 -1       439    8    0    1
 -2       154       155       309      1274      1705      1706
 -1       440    8    0    1
 -2       155       156       310      1275      1707      1708
 -1       441    8    0    1
 -2       156       157       311      1276      1709      1710
 -1       442    8    0    1
 -2       157         1       312      1277      1711      1712
 -1       443    8    0    1
 -2         1       158       313      1278      1713      1714
 -1       444    8    0    1
 -2       158       159       314      1279      1715      1716
 -1       445    8    0    1
 -2       159       160       315      1280      1717      1718
 -1       446    8    0    1
 -2       160       161       316      1281      1719      1720
 -1       447    8    0    1
 -2       161       162       317      1282      1721      1722
 -1       448    8    0    1
 -2       162       163       318      1283      1723      1724
 -1       449    8    0    1
 -2       163         2       319      1284      1725      1726
 -1       450    8    0    1
 -2       294       140       295      1675      1678      1727
 -1       451    8    0    1
 -2       293       139       294      1673      1676      1728
 -1       452    8    0    1
 -2       120       121       275      1623      1729      1620
 -1       453    8    0    1
 -2       121       276       275      1625      1730      1729
 -1       454    8    0    1
 -2       291       137       292      1669      1672      1731
 -1       455    8    0    1
 -2       292       138       293      1671      1674      1732
 -1       456    8    0    1
 -2         2       291       319      1670      1733      1725
 -1       457    8    0    1
 -2       141       296       295      1680      1734      1677
 -1       458    8    0    1
 -2       142       297       296      1682      1735      1679
 -1       459    8    0    1
 -2       143       298       297      1684      1736      1681
 -1       460    8    0    1
 -2       144       299       298      1686      1737      1683
 -1       461    8    0    1
 -2       145       300       299      1688      1738      1685
 -1       462    8    0    1
 -2       146       301       300      1690      1739      1687
 -1       463    8    0    1
 -2       147       302       301      1692      1740      1689
 -1       464    8    0    1
 -2       148       303       302      1694      1741      1691
 -1       465    8    0    1
 -2       149       304       303      1696      1742      1693
 -1       466    8    0    1
 -2       150       305       304      1698      1743      1695
 -1       467    8    0    1
 -2       151       306       305      1700      1744      1697
 -1       468    8    0    1
 -2       152       307       306      1702      1745      1699
 -1       469    8    0    1
 -2       153       308       307      1704      1746      1701
 -1       470    8    0    1
 -2       154       309       308      1706      1747      1703
 -1       471    8    0    1
 -2       155       310       309      1708      1748      1705
 -1       472    8    0    1
 -2       156       311       310      1710      1749      1707
 -1       473    8    0    1
 -2       157       312       311      1712      1750      1709
 -1       474    8    0    1
 -2         1       313       312      1714      1751      1711
 -1       475    8    0    1
 -2       158       314       313      1716      1752      1713
 -1       476    8    0    1
 -2       159       315       314      1718      1753      1715
 -1       477    8    0    1
 -2       160       316       315      1720      1754      1717
 -1       478    8    0    1
 -2       161       317       316      1722      1755      1719
 -1       479    8    0    1
 -2       162       318       317      1724      1756      1721
 -1       480    8    0    1
 -2       163       319       318      1726      1757      1723
 -1       481    8    0    1
 -2        23         7       164      1285      1287      1758
 -1       482    8    0    1
 -2       165       166       320      1293      1759      1760
 -1       483    8    0    1
 -2       164       165       321      1290      1761      1762
 -1       484    8    0    1
 -2       165       320       321      1760      1763      1761
 -1       485    8    0    1
 -2       167       168       322      1299      1764      1765
 -1       486    8    0    1
 -2       168       169       323      1302      1766      1767
 -1       487    8    0    1
 -2       168       323       322      1767      1768      1764
 -1       488    8    0    1
 -2       169       170       324      1305      1769      1770
 -1       489    8    0    1
 -2       169       324       323      1770      1771      1766
 -1       490    8    0    1
 -2       170       171       325      1308      1772      1773
 -1       491    8    0    1
 -2       170       325       324      1773      1774      1769
 -1       492    8    0    1
 -2       171       172       326      1311      1775      1776
 -1       493    8    0    1
 -2       171       326       325      1776      1777      1772
 -1       494    8    0    1
 -2       172       173       327      1314      1778      1779
 -1       495    8    0    1
 -2       172       327       326      1779      1780      1775
 -1       496    8    0    1
 -2       173       174       328      1317      1781      1782
 -1       497    8    0    1
 -2       173       328       327      1782      1783      1778
 -1       498    8    0    1
 -2       174       175       329      1320      1784      1785
 -1       499    8    0    1
 -2       174       329       328      1785      1786      1781
 -1       500    8    0    1
 -2       175       176       330      1323      1787      1788
 -1       501    8    0    1
 -2       175       330       329      1788      1789      1784
 -1       502    8    0    1
 -2       176       177       331      1326      1790      1791
 -1       503    8    0    1
 -2       176       331       330      1791      1792      1787
 -1       504    8    0    1
 -2       177       178       332      1329      1793      1794
 -1       505    8    0    1
 -2       177       332       331      1794      1795      1790
 -1       506    8    0    1
 -2       178       179       333      1332      1796      1797
 -1       507    8    0    1
 -2       332       178       333      1793      1797      1798
 -1       508    8    0    1
 -2       179       228       333      1481      1799      1796
 -1       509    8    0    1
 -2       180        23       164      1334      1758      1800
 -1       510    8    0    1
 -2       228       229       334      1484      1801      1802
 -1       511    8    0    1
 -2       228       334       333      1802      1803      1799
 -1       512    8    0    1
 -2       180       164       321      1800      1762      1804
 -1       513    8    0    1
 -2       182       181       335      1341      1805      1806
 -1       514    8    0    1
 -2       183       182       336      1344      1807      1808
 -1       515    8    0    1
 -2       182       335       336      1806      1809      1807
 -1       516    8    0    1
 -2       184       183       337      1347      1810      1811
 -1       517    8    0    1
 -2       183       336       337      1808      1812      1810
 -1       518    8    0    1
 -2       185       184       338      1350      1813      1814
 -1       519    8    0    1
 -2       184       337       338      1811      1815      1813
 -1       520    8    0    1
 -2       186       185       339      1353      1816      1817
 -1       521    8    0    1
 -2       185       338       339      1814      1818      1816
 -1       522    8    0    1
 -2       187       186       340      1356      1819      1820
 -1       523    8    0    1
 -2       186       339       340      1817      1821      1819
 -1       524    8    0    1
 -2       188       187       341      1359      1822      1823
 -1       525    8    0    1
 -2       187       340       341      1820      1824      1822
 -1       526    8    0    1
 -2       189       188       342      1362      1825      1826
 -1       527    8    0    1
 -2       188       341       342      1823      1827      1825
 -1       528    8    0    1
 -2       190       189       343      1365      1828      1829
 -1       529    8    0    1
 -2       189       342       343      1826      1830      1828
 -1       530    8    0    1
 -2       191       190       344      1368      1831      1832
 -1       531    8    0    1
 -2       190       343       344      1829      1833      1831
 -1       532    8    0    1
 -2       192       191       345      1371      1834      1835
 -1       533    8    0    1
 -2       191       344       345      1832      1836      1834
 -1       534    8    0    1
 -2       193       192       346      1374      1837      1838
 -1       535    8    0    1
 -2       192       345       346      1835      1839      1837
 -1       536    8    0    1
 -2       194       193       347      1377      1840      1841
 -1       537    8    0    1
 -2       193       346       347      1838      1842      1840
 -1       538    8    0    1
 -2       195       194       348      1380      1843      1844
 -1       539    8    0    1
 -2       194       347       348      1841      1845      1843
 -1       540    8    0    1
 -2       196       195       349      1383      1846      1847
 -1       541    8    0    1
 -2       195       348       349      1844      1848      1846
 -1       542    8    0    1
 -2       197       196       350      1386      1849      1850
 -1       543    8    0    1
 -2       196       349       350      1847      1851      1849
 -1       544    8    0    1
 -2       198       197       351      1389      1852      1853
 -1       545    8    0    1
 -2       197       350       351      1850      1854      1852
 -1       546    8    0    1
 -2       199       198       352      1392      1855      1856
 -1       547    8    0    1
 -2       198       351       352      1853      1857      1855
 -1       548    8    0    1
 -2       200       199       353      1395      1858      1859
 -1       549    8    0    1
 -2       199       352       353      1856      1860      1858
 -1       550    8    0    1
 -2       201       200       354      1398      1861      1862
 -1       551    8    0    1
 -2       200       353       354      1859      1863      1861
 -1       552    8    0    1
 -2       202       201       355      1401      1864      1865
 -1       553    8    0    1
 -2       201       354       355      1862      1866      1864
 -1       554    8    0    1
 -2       203       202       356      1404      1867      1868
 -1       555    8    0    1
 -2       202       355       356      1865      1869      1867
 -1       556    8    0    1
 -2       204       203       357      1407      1870      1871
 -1       557    8    0    1
 -2       203       356       357      1868      1872      1870
 -1       558    8    0    1
 -2       205       204       358      1410      1873      1874
 -1       559    8    0    1
 -2       204       357       358      1871      1875      1873
 -1       560    8    0    1
 -2       206       205       359      1413      1876      1877
 -1       561    8    0    1
 -2       205       358       359      1874      1878      1876
 -1       562    8    0    1
 -2       207       206       360      1416      1879      1880
 -1       563    8    0    1
 -2       206       359       360      1877      1881      1879
 -1       564    8    0    1
 -2       208       207       361      1419      1882      1883
 -1       565    8    0    1
 -2       207       360       361      1880      1884      1882
 -1       566    8    0    1
 -2       209       208       362      1422      1885      1886
 -1       567    8    0    1
 -2       208       361       362      1883      1887      1885
 -1       568    8    0    1
 -2       210       209       363      1425      1888      1889
 -1       569    8    0    1
 -2       209       362       363      1886      1890      1888
 -1       570    8    0    1
 -2       211       210       364      1428      1891      1892
 -1       571    8    0    1
 -2       210       363       364      1889      1893      1891
 -1       572    8    0    1
 -2       212       211       365      1431      1894      1895
 -1       573    8    0    1
 -2       211       364       365      1892      1896      1894
 -1       574    8    0    1
 -2       213       212       366      1434      1897      1898
 -1       575    8    0    1
 -2       212       365       366      1895      1899      1897
 -1       576    8    0    1
 -2       214       213       367      1437      1900      1901
 -1       577    8    0    1
 -2       213       366       367      1898      1902      1900
 -1       578    8    0    1
 -2       215       214       368      1440      1903      1904
 -1       579    8    0    1
 -2       214       367       368      1901      1905      1903
 -1       580    8    0    1
 -2       216       215       369      1443      1906      1907
 -1       581    8    0    1
 -2       215       368       369      1904      1908      1906
 -1       582    8    0    1
 -2       217       216       370      1446      1909      1910
 -1       583    8    0    1
 -2       216       369       370      1907      1911      1909
 -1       584    8    0    1
 -2       218       217       371      1449      1912      1913
 -1       585    8    0    1
 -2       217       370       371      1910      1914      1912
 -1       586    8    0    1
 -2       219       218       372      1452      1915      1916
 -1       587    8    0    1
 -2       218       371       372      1913      1917      1915
 -1       588    8    0    1
 -2       220       219       373      1455      1918      1919
 -1       589    8    0    1
 -2       219       372       373      1916      1920      1918
 -1       590    8    0    1
 -2       221       220       374      1458      1921      1922
 -1       591    8    0    1
 -2       220       373       374      1919      1923      1921
 -1       592    8    0    1
 -2       222       221       375      1461      1924      1925
 -1       593    8    0    1
 -2       221       374       375      1922      1926      1924
 -1       594    8    0    1
 -2       223       222       376      1464      1927      1928
 -1       595    8    0    1
 -2       222       375       376      1925      1929      1927
 -1       596    8    0    1
 -2       224       223       377      1467      1930      1931
 -1       597    8    0    1
 -2       223       376       377      1928      1932      1930
 -1       598    8    0    1
 -2       225       224       378      1470      1933      1934
 -1       599    8    0    1
 -2       224       377       378      1931      1935      1933
 -1       600    8    0    1
 -2       226       225       379      1473      1936      1937
 -1       601    8    0    1
 -2       225       378       379      1934      1938      1936
 -1       602    8    0    1
 -2       227       226       380      1476      1939      1940
 -1       603    8    0    1
 -2       290       227       380      1668      1940      1941
 -1       604    8    0    1
 -2       226       379       380      1937      1942      1939
 -1       605    8    0    1
 -2       229       230       381      1487      1943      1944
 -1       606    8    0    1
 -2       229       381       334      1944      1945      1801
 -1       607    8    0    1
 -2       230       231       382      1490      1946      1947
 -1       608    8    0    1
 -2       230       382       381      1947      1948      1943
 -1       609    8    0    1
 -2       231       232       383      1493      1949      1950
 -1       610    8    0    1
 -2       231       383       382      1950      1951      1946
 -1       611    8    0    1
 -2       232       233       384      1496      1952      1953
 -1       612    8    0    1
 -2       232       384       383      1953      1954      1949
 -1       613    8    0    1
 -2       233       234       385      1499      1955      1956
 -1       614    8    0    1
 -2       233       385       384      1956      1957      1952
 -1       615    8    0    1
 -2       234       235       386      1502      1958      1959
 -1       616    8    0    1
 -2       234       386       385      1959      1960      1955
 -1       617    8    0    1
 -2       235       236       387      1505      1961      1962
 -1       618    8    0    1
 -2       235       387       386      1962      1963      1958
 -1       619    8    0    1
 -2       236       237       388      1508      1964      1965
 -1       620    8    0    1
 -2       236       388       387      1965      1966      1961
 -1       621    8    0    1
 -2       237       238       389      1511      1967      1968
 -1       622    8    0    1
 -2       237       389       388      1968      1969      1964
 -1       623    8    0    1
 -2       238       239       390      1514      1970      1971
 -1       624    8    0    1
 -2       238       390       389      1971      1972      1967
 -1       625    8    0    1
 -2       239       240       391      1517      1973      1974
 -1       626    8    0    1
 -2       239       391       390      1974      1975      1970
 -1       627    8    0    1
 -2       240       241       392      1520      1976      1977
 -1       628    8    0    1
 -2       240       392       391      1977      1978      1973
 -1       629    8    0    1
 -2       241       242       393      1523      1979      1980
 -1       630    8    0    1
 -2       241       393       392      1980      1981      1976
 -1       631    8    0    1
 -2       242       243       394      1526      1982      1983
 -1       632    8    0    1
 -2       242       394       393      1983      1984      1979
 -1       633    8    0    1
 -2       243       244       395      1529      1985      1986
 -1       634    8    0    1
 -2       243       395       394      1986      1987      1982
 -1       635    8    0    1
 -2       244       245       396      1532      1988      1989
 -1       636    8    0    1
 -2       244       396       395      1989      1990      1985
 -1       637    8    0    1
 -2       245       246       397      1535      1991      1992
 -1       638    8    0    1
 -2       245       397       396      1992      1993      1988
 -1       639    8    0    1
 -2       246       247       398      1538      1994      1995
 -1       640    8    0    1
 -2       246       398       397      1995      1996      1991
 -1       641    8    0    1
 -2       247       248       399      1541      1997      1998
 -1       642    8    0    1
 -2       247       399       398      1998      1999      1994
 -1       643    8    0    1
 -2       248       249       400      1544      2000      2001
 -1       644    8    0    1
 -2       248       400       399      2001      2002      1997
 -1       645    8    0    1
 -2       249       250       401      1547      2003      2004
 -1       646    8    0    1
 -2       249       401       400      2004      2005      2000
 -1       647    8    0    1
 -2       250       251       402      1550      2006      2007
 -1       648    8    0    1
 -2       250       402       401      2007      2008      2003
 -1       649    8    0    1
 -2       251       252       403      1553      2009      2010
 -1       650    8    0    1
 -2       251       403       402      2010      2011      2006
 -1       651    8    0    1
 -2       252       253       404      1556      2012      2013
 -1       652    8    0    1
 -2       252       404       403      2013      2014      2009
 -1       653    8    0    1
 -2       253       254       405      1559      2015      2016
 -1       654    8    0    1
 -2       253       405       404      2016      2017      2012
 -1       655    8    0    1
 -2       254       255       406      1562      2018      2019
 -1       656    8    0    1
 -2       254       406       405      2019      2020      2015
 -1       657    8    0    1
 -2       255       256       407      1565      2021      2022
 -1       658    8    0    1
 -2       255       407       406      2022      2023      2018
 -1       659    8    0    1
 -2       256       257       408      1568      2024      2025
 -1       660    8    0    1
 -2       256       408       407      2025      2026      2021
 -1       661    8    0    1
 -2       257       258       409      1571      2027      2028
 -1       662    8    0    1
 -2       257       409       408      2028      2029      2024
 -1       663    8    0    1
 -2       258       259       410      1574      2030      2031
 -1       664    8    0    1
 -2       258       410       409      2031      2032      2027
 -1       665    8    0    1
 -2       259       260       411      1577      2033      2034
 -1       666    8    0    1
 -2       259       411       410      2034      2035      2030
 -1       667    8    0    1
 -2       260       261       412      1580      2036      2037
 -1       668    8    0    1
 -2       260       412       411      2037      2038      2033
 -1       669    8    0    1
 -2       261       262       413      1583      2039      2040
 -1       670    8    0    1
 -2       261       413       412      2040      2041      2036
 -1       671    8    0    1
 -2       262       263       414      1586      2042      2043
 -1       672    8    0    1
 -2       262       414       413      2043      2044      2039
 -1       673    8    0    1
 -2       263       264       415      1589      2045      2046
 -1       674    8    0    1
 -2       263       415       414      2046      2047      2042
 -1       675    8    0    1
 -2       264       265       416      1592      2048      2049
 -1       676    8    0    1
 -2       264       416       415      2049      2050      2045
 -1       677    8    0    1
 -2       265       266       417      1595      2051      2052
 -1       678    8    0    1
 -2       265       417       416      2052      2053      2048
 -1       679    8    0    1
 -2       266       267       418      1598      2054      2055
 -1       680    8    0    1
 -2       266       418       417      2055      2056      2051
 -1       681    8    0    1
 -2       267       268       419      1601      2057      2058
 -1       682    8    0    1
 -2       267       419       418      2058      2059      2054
 -1       683    8    0    1
 -2       268       269       420      1604      2060      2061
 -1       684    8    0    1
 -2       268       420       419      2061      2062      2057
 -1       685    8    0    1
 -2       269       270       421      1607      2063      2064
 -1       686    8    0    1
 -2       269       421       420      2064      2065      2060
 -1       687    8    0    1
 -2       270       271       422      1610      2066      2067
 -1       688    8    0    1
 -2       270       422       421      2067      2068      2063
 -1       689    8    0    1
 -2       271       272       423      1613      2069      2070
 -1       690    8    0    1
 -2       271       423       422      2070      2071      2066
 -1       691    8    0    1
 -2       272       273       424      1616      2072      2073
 -1       692    8    0    1
 -2       272       424       423      2073      2074      2069
 -1       693    8    0    1
 -2       273       274       425      1619      2075      2076
 -1       694    8    0    1
 -2       273       425       424      2076      2077      2072
 -1       695    8    0    1
 -2       274       275       426      1622      2078      2079
 -1       696    8    0    1
 -2       425       274       426      2075      2079      2080
 -1       697    8    0    1
 -2       275       276       426      1730      2081      2078
 -1       698    8    0    1
 -2       278       279       427      1634      2082      2083
 -1       699    8    0    1
 -2       277       278       428      1631      2084      2085
 -1       700    8    0    1
 -2       278       427       428      2083      2086      2084
 -1       701    8    0    1
 -2       276       277       429      1628      2087      2088
 -1       702    8    0    1
 -2       426       276       429      2081      2088      2089
 -1       703    8    0    1
 -2       277       428       429      2085      2090      2087
 -1       704    8    0    1
 -2       279       280       430      1637      2091      2092
 -1       705    8    0    1
 -2       279       430       427      2092      2093      2082
 -1       706    8    0    1
 -2       280       281       431      1640      2094      2095
 -1       707    8    0    1
 -2       280       431       430      2095      2096      2091
 -1       708    8    0    1
 -2       281       282       432      1643      2097      2098
 -1       709    8    0    1
 -2       281       432       431      2098      2099      2094
 -1       710    8    0    1
 -2       282       283       433      1646      2100      2101
 -1       711    8    0    1
 -2       282       433       432      2101      2102      2097
 -1       712    8    0    1
 -2       283       284       434      1649      2103      2104
 -1       713    8    0    1
 -2       283       434       433      2104      2105      2100
 -1       714    8    0    1
 -2       284       285       435      1652      2106      2107
 -1       715    8    0    1
 -2       284       435       434      2107      2108      2103
 -1       716    8    0    1
 -2       285       286       436      1655      2109      2110
 -1       717    8    0    1
 -2       285       436       435      2110      2111      2106
 -1       718    8    0    1
 -2       286       287       437      1658      2112      2113
 -1       719    8    0    1
 -2       286       437       436      2113      2114      2109
 -1       720    8    0    1
 -2       287       288       438      1661      2115      2116
 -1       721    8    0    1
 -2       287       438       437      2116      2117      2112
 -1       722    8    0    1
 -2       288       289       439      1664      2118      2119
 -1       723    8    0    1
 -2       288       439       438      2119      2120      2115
 -1       724    8    0    1
 -2       292       293       440      1732      2121      2122
 -1       725    8    0    1
 -2       319       291       441      1733      2123      2124
 -1       726    8    0    1
 -2       291       292       442      1731      2125      2126
 -1       727    8    0    1
 -2       293       294       443      1728      2127      2128
 -1       728    8    0    1
 -2       294       295       444      1727      2129      2130
 -1       729    8    0    1
 -2       166       167       445      1296      2131      2132
 -1       730    8    0    1
 -2       320       166       445      1759      2132      2133
 -1       731    8    0    1
 -2       167       322       445      1765      2134      2131
 -1       732    8    0    1
 -2       296       297       446      1735      2135      2136
 -1       733    8    0    1
 -2       297       298       447      1736      2137      2138
 -1       734    8    0    1
 -2       297       447       446      2138      2139      2135
 -1       735    8    0    1
 -2       298       299       448      1737      2140      2141
 -1       736    8    0    1
 -2       299       300       449      1738      2142      2143
 -1       737    8    0    1
 -2       300       301       450      1739      2144      2145
 -1       738    8    0    1
 -2       301       302       451      1740      2146      2147
 -1       739    8    0    1
 -2       301       451       450      2147      2148      2144
 -1       740    8    0    1
 -2       302       303       452      1741      2149      2150
 -1       741    8    0    1
 -2       303       304       453      1742      2151      2152
 -1       742    8    0    1
 -2       304       305       454      1743      2153      2154
 -1       743    8    0    1
 -2       305       306       455      1744      2155      2156
 -1       744    8    0    1
 -2       306       307       456      1745      2157      2158
 -1       745    8    0    1
 -2       306       456       455      2158      2159      2155
 -1       746    8    0    1
 -2       307       308       457      1746      2160      2161
 -1       747    8    0    1
 -2       308       309       458      1747      2162      2163
 -1       748    8    0    1
 -2       308       458       457      2163      2164      2160
 -1       749    8    0    1
 -2       309       310       459      1748      2165      2166
 -1       750    8    0    1
 -2       310       311       460      1749      2167      2168
 -1       751    8    0    1
 -2       310       460       459      2168      2169      2165
 -1       752    8    0    1
 -2       311       312       461      1750      2170      2171
 -1       753    8    0    1
 -2       312       313       462      1751      2172      2173
 -1       754    8    0    1
 -2       313       314       463      1752      2174      2175
 -1       755    8    0    1
 -2       314       315       464      1753      2176      2177
 -1       756    8    0    1
 -2       315       316       465      1754      2178      2179
 -1       757    8    0    1
 -2       316       317       466      1755      2180      2181
 -1       758    8    0    1
 -2       317       318       467      1756      2182      2183
 -1       759    8    0    1
 -2       318       319       468      1757      2184      2185
 -1       760    8    0    1
 -2       295       296       469      1734      2186      2187
 -1       761    8    0    1
 -2       295       469       444      2187      2188      2129
 -1       762    8    0    1
 -2       443       294       470      2127      2189      2190
 -1       763    8    0    1
 -2       294       444       470      2130      2191      2189
 -1       764    8    0    1
 -2       180       321       181      1804      2192      1338
 -1       765    8    0    1
 -2       296       446       469      2136      2193      2186
 -1       766    8    0    1
 -2       335       181       321      1805      2192      2194
 -1       767    8    0    1
 -2       442       292       440      2125      2122      2195
 -1       768    8    0    1
 -2       441       291       442      2123      2126      2196
 -1       769    8    0    1
 -2       439       289       290      2118      1667      2197
 -1       770    8    0    1
 -2       440       293       443      2121      2128      2198
 -1       771    8    0    1
 -2       319       441       468      2124      2199      2184
 -1       772    8    0    1
 -2       467       318       468      2182      2185      2200
 -1       773    8    0    1
 -2       466       317       467      2180      2183      2201
 -1       774    8    0    1
 -2       465       316       466      2178      2181      2202
 -1       775    8    0    1
 -2       464       315       465      2176      2179      2203
 -1       776    8    0    1
 -2       463       314       464      2174      2177      2204
 -1       777    8    0    1
 -2       462       313       463      2172      2175      2205
 -1       778    8    0    1
 -2       460       311       461      2167      2171      2206
 -1       779    8    0    1
 -2       458       309       471      2162      2207      2208
 -1       780    8    0    1
 -2       309       459       471      2166      2209      2207
 -1       781    8    0    1
 -2       456       307       472      2157      2210      2211
 -1       782    8    0    1
 -2       307       457       472      2161      2212      2210
 -1       783    8    0    1
 -2       454       305       455      2153      2156      2213
 -1       784    8    0    1
 -2       453       304       454      2151      2154      2214
 -1       785    8    0    1
 -2       451       302       473      2146      2215      2216
 -1       786    8    0    1
 -2       302       452       473      2150      2217      2215
 -1       787    8    0    1
 -2       449       300       450      2142      2145      2218
 -1       788    8    0    1
 -2       298       448       447      2141      2219      2137
 -1       789    8    0    1
 -2       448       299       449      2140      2143      2220
 -1       790    8    0    1
 -2       452       303       453      2149      2152      2221
 -1       791    8    0    1
 -2       461       312       462      2170      2173      2222
 -1       792    8    0    1
 -2       334       381       474      1945      2223      2224
 -1       793    8    0    1
 -2       323       324       475      1771      2225      2226
 -1       794    8    0    1
 -2       322       323       476      1768      2227      2228
 -1       795    8    0    1
 -2       323       475       476      2226      2229      2227
 -1       796    8    0    1
 -2       325       326       477      1777      2230      2231
 -1       797    8    0    1
 -2       326       327       478      1780      2232      2233
 -1       798    8    0    1
 -2       326       478       477      2233      2234      2230
 -1       799    8    0    1
 -2       327       328       479      1783      2235      2236
 -1       800    8    0    1
 -2       327       479       478      2236      2237      2232
 -1       801    8    0    1
 -2       328       329       480      1786      2238      2239
 -1       802    8    0    1
 -2       328       480       479      2239      2240      2235
 -1       803    8    0    1
 -2       329       330       481      1789      2241      2242
 -1       804    8    0    1
 -2       329       481       480      2242      2243      2238
 -1       805    8    0    1
 -2       330       331       482      1792      2244      2245
 -1       806    8    0    1
 -2       330       482       481      2245      2246      2241
 -1       807    8    0    1
 -2       381       382       483      1948      2247      2248
 -1       808    8    0    1
 -2       381       483       474      2248      2249      2223
 -1       809    8    0    1
 -2       336       335       484      1809      2250      2251
 -1       810    8    0    1
 -2       469       446       485      2193      2252      2253
 -1       811    8    0    1
 -2       337       336       486      1812      2254      2255
 -1       812    8    0    1
 -2       336       484       486      2251      2256      2254
 -1       813    8    0    1
 -2       338       337       487      1815      2257      2258
 -1       814    8    0    1
 -2       337       486       487      2255      2259      2257
 -1       815    8    0    1
 -2       339       338       488      1818      2260      2261
 -1       816    8    0    1
 -2       338       487       488      2258      2262      2260
 -1       817    8    0    1
 -2       340       339       489      1821      2263      2264
 -1       818    8    0    1
 -2       339       488       489      2261      2265      2263
 -1       819    8    0    1
 -2       341       340       490      1824      2266      2267
 -1       820    8    0    1
 -2       340       489       490      2264      2268      2266
 -1       821    8    0    1
 -2       342       341       491      1827      2269      2270
 -1       822    8    0    1
 -2       341       490       491      2267      2271      2269
 -1       823    8    0    1
 -2       343       342       492      1830      2272      2273
 -1       824    8    0    1
 -2       342       491       492      2270      2274      2272
 -1       825    8    0    1
 -2       344       343       493      1833      2275      2276
 -1       826    8    0    1
 -2       343       492       493      2273      2277      2275
 -1       827    8    0    1
 -2       345       344       494      1836      2278      2279
 -1       828    8    0    1
 -2       344       493       494      2276      2280      2278
 -1       829    8    0    1
 -2       346       345       495      1839      2281      2282
 -1       830    8    0    1
 -2       345       494       495      2279      2283      2281
 -1       831    8    0    1
 -2       347       346       496      1842      2284      2285
 -1       832    8    0    1
 -2       346       495       496      2282      2286      2284
 -1       833    8    0    1
 -2       348       347       497      1845      2287      2288
 -1       834    8    0    1
 -2       347       496       497      2285      2289      2287
 -1       835    8    0    1
 -2       349       348       498      1848      2290      2291
 -1       836    8    0    1
 -2       348       497       498      2288      2292      2290
 -1       837    8    0    1
 -2       350       349       499      1851      2293      2294
 -1       838    8    0    1
 -2       349       498       499      2291      2295      2293
 -1       839    8    0    1
 -2       351       350       500      1854      2296      2297
 -1       840    8    0    1
 -2       350       499       500      2294      2298      2296
 -1       841    8    0    1
 -2       352       351       501      1857      2299      2300
 -1       842    8    0    1
 -2       351       500       501      2297      2301      2299
 -1       843    8    0    1
 -2       353       352       502      1860      2302      2303
 -1       844    8    0    1
 -2       352       501       502      2300      2304      2302
 -1       845    8    0    1
 -2       354       353       503      1863      2305      2306
 -1       846    8    0    1
 -2       353       502       503      2303      2307      2305
 -1       847    8    0    1
 -2       355       354       504      1866      2308      2309
 -1       848    8    0    1
 -2       354       503       504      2306      2310      2308
 -1       849    8    0    1
 -2       356       355       505      1869      2311      2312
 -1       850    8    0    1
 -2       355       504       505      2309      2313      2311
 -1       851    8    0    1
 -2       357       356       506      1872      2314      2315
 -1       852    8    0    1
 -2       356       505       506      2312      2316      2314
 -1       853    8    0    1
 -2       358       357       507      1875      2317      2318
 -1       854    8    0    1
 -2       357       506       507      2315      2319      2317
 -1       855    8    0    1
 -2       359       358       508      1878      2320      2321
 -1       856    8    0    1
 -2       358       507       508      2318      2322      2320
 -1       857    8    0    1
 -2       360       359       509      1881      2323      2324
 -1       858    8    0    1
 -2       359       508       509      2321      2325      2323
 -1       859    8    0    1
 -2       361       360       510      1884      2326      2327
 -1       860    8    0    1
 -2       360       509       510      2324      2328      2326
 -1       861    8    0    1
 -2       362       361       511      1887      2329      2330
 -1       862    8    0    1
 -2       361       510       511      2327      2331      2329
 -1       863    8    0    1
 -2       363       362       512      1890      2332      2333
 -1       864    8    0    1
 -2       362       511       512      2330      2334      2332
 -1       865    8    0    1
 -2       364       363       513      1893      2335      2336
 -1       866    8    0    1
 -2       363       512       513      2333      2337      2335
 -1       867    8    0    1
 -2       365       364       514      1896      2338      2339
 -1       868    8    0    1
 -2       364       513       514      2336      2340      2338
 -1       869    8    0    1
 -2       366       365       515      1899      2341      2342
 -1       870    8    0    1
 -2       365       514       515      2339      2343      2341
 -1       871    8    0    1
 -2       367       366       516      1902      2344      2345
 -1       872    8    0    1
 -2       366       515       516      2342      2346      2344
 -1       873    8    0    1
 -2       368       367       517      1905      2347      2348
 -1       874    8    0    1
 -2       367       516       517      2345      2349      2347
 -1       875    8    0    1
 -2       369       368       518      1908      2350      2351
 -1       876    8    0    1
 -2       368       517       518      2348      2352      2350
 -1       877    8    0    1
 -2       370       369       519      1911      2353      2354
 -1       878    8    0    1
 -2       369       518       519      2351      2355      2353
 -1       879    8    0    1
 -2       371       370       520      1914      2356      2357
 -1       880    8    0    1
 -2       370       519       520      2354      2358      2356
 -1       881    8    0    1
 -2       372       371       521      1917      2359      2360
 -1       882    8    0    1
 -2       371       520       521      2357      2361      2359
 -1       883    8    0    1
 -2       373       372       522      1920      2362      2363
 -1       884    8    0    1
 -2       372       521       522      2360      2364      2362
 -1       885    8    0    1
 -2       374       373       523      1923      2365      2366
 -1       886    8    0    1
 -2       373       522       523      2363      2367      2365
 -1       887    8    0    1
 -2       375       374       524      1926      2368      2369
 -1       888    8    0    1
 -2       374       523       524      2366      2370      2368
 -1       889    8    0    1
 -2       376       375       525      1929      2371      2372
 -1       890    8    0    1
 -2       375       524       525      2369      2373      2371
 -1       891    8    0    1
 -2       377       376       526      1932      2374      2375
 -1       892    8    0    1
 -2       376       525       526      2372      2376      2374
 -1       893    8    0    1
 -2       378       377       527      1935      2377      2378
 -1       894    8    0    1
 -2       377       526       527      2375      2379      2377
 -1       895    8    0    1
 -2       379       378       528      1938      2380      2381
 -1       896    8    0    1
 -2       378       527       528      2378      2382      2380
 -1       897    8    0    1
 -2       383       384       529      1954      2383      2384
 -1       898    8    0    1
 -2       384       385       530      1957      2385      2386
 -1       899    8    0    1
 -2       384       530       529      2386      2387      2383
 -1       900    8    0    1
 -2       385       386       531      1960      2388      2389
 -1       901    8    0    1
 -2       385       531       530      2389      2390      2385
 -1       902    8    0    1
 -2       386       387       532      1963      2391      2392
 -1       903    8    0    1
 -2       386       532       531      2392      2393      2388
 -1       904    8    0    1
 -2       387       388       533      1966      2394      2395
 -1       905    8    0    1
 -2       387       533       532      2395      2396      2391
 -1       906    8    0    1
 -2       388       389       534      1969      2397      2398
 -1       907    8    0    1
 -2       388       534       533      2398      2399      2394
 -1       908    8    0    1
 -2       389       390       535      1972      2400      2401
 -1       909    8    0    1
 -2       389       535       534      2401      2402      2397
 -1       910    8    0    1
 -2       390       391       536      1975      2403      2404
 -1       911    8    0    1
 -2       390       536       535      2404      2405      2400
 -1       912    8    0    1
 -2       391       392       537      1978      2406      2407
 -1       913    8    0    1
 -2       391       537       536      2407      2408      2403
 -1       914    8    0    1
 -2       392       393       538      1981      2409      2410
 -1       915    8    0    1
 -2       392       538       537      2410      2411      2406
 -1       916    8    0    1
 -2       393       394       539      1984      2412      2413
 -1       917    8    0    1
 -2       393       539       538      2413      2414      2409
 -1       918    8    0    1
 -2       394       395       540      1987      2415      2416
 -1       919    8    0    1
 -2       394       540       539      2416      2417      2412
 -1       920    8    0    1
 -2       395       396       541      1990      2418      2419
 -1       921    8    0    1
 -2       395       541       540      2419      2420      2415
 -1       922    8    0    1
 -2       396       397       542      1993      2421      2422
 -1       923    8    0    1
 -2       396       542       541      2422      2423      2418
 -1       924    8    0    1
 -2       397       398       543      1996      2424      2425
 -1       925    8    0    1
 -2       397       543       542      2425      2426      2421
 -1       926    8    0    1
 -2       398       399       544      1999      2427      2428
 -1       927    8    0    1
 -2       398       544       543      2428      2429      2424
 -1       928    8    0    1
 -2       399       400       545      2002      2430      2431
 -1       929    8    0    1
 -2       399       545       544      2431      2432      2427
 -1       930    8    0    1
 -2       400       401       546      2005      2433      2434
 -1       931    8    0    1
 -2       400       546       545      2434      2435      2430
 -1       932    8    0    1
 -2       401       402       547      2008      2436      2437
 -1       933    8    0    1
 -2       401       547       546      2437      2438      2433
 -1       934    8    0    1
 -2       402       403       548      2011      2439      2440
 -1       935    8    0    1
 -2       402       548       547      2440      2441      2436
 -1       936    8    0    1
 -2       403       404       549      2014      2442      2443
 -1       937    8    0    1
 -2       403       549       548      2443      2444      2439
 -1       938    8    0    1
 -2       404       405       550      2017      2445      2446
 -1       939    8    0    1
 -2       404       550       549      2446      2447      2442
 -1       940    8    0    1
 -2       405       406       551      2020      2448      2449
 -1       941    8    0    1
 -2       405       551       550      2449      2450      2445
 -1       942    8    0    1
 -2       406       407       552      2023      2451      2452
 -1       943    8    0    1
 -2       406       552       551      2452      2453      2448
 -1       944    8    0    1
 -2       407       408       553      2026      2454      2455
 -1       945    8    0    1
 -2       407       553       552      2455      2456      2451
 -1       946    8    0    1
 -2       408       409       554      2029      2457      2458
 -1       947    8    0    1
 -2       408       554       553      2458      2459      2454
 -1       948    8    0    1
 -2       409       410       555      2032      2460      2461
 -1       949    8    0    1
 -2       409       555       554      2461      2462      2457
 -1       950    8    0    1
 -2       410       411       556      2035      2463      2464
 -1       951    8    0    1
 -2       410       556       555      2464      2465      2460
 -1       952    8    0    1
 -2       411       412       557      2038      2466      2467
 -1       953    8    0    1
 -2       411       557       556      2467      2468      2463
 -1       954    8    0    1
 -2       412       413       558      2041      2469      2470
 -1       955    8    0    1
 -2       412       558       557      2470      2471      2466
 -1       956    8    0    1
 -2       413       414       559      2044      2472      2473
 -1       957    8    0    1
 -2       413       559       558      2473      2474      2469
 -1       958    8    0    1
 -2       414       415       560      2047      2475      2476
 -1       959    8    0    1
 -2       414       560       559      2476      2477      2472
 -1       960    8    0    1
 -2       415       416       561      2050      2478      2479
 -1       961    8    0    1
 -2       415       561       560      2479      2480      2475
 -1       962    8    0    1
 -2       416       417       562      2053      2481      2482
 -1       963    8    0    1
 -2       416       562       561      2482      2483      2478
 -1       964    8    0    1
 -2       417       418       563      2056      2484      2485
 -1       965    8    0    1
 -2       417       563       562      2485      2486      2481
 -1       966    8    0    1
 -2       418       419       564      2059      2487      2488
 -1       967    8    0    1
 -2       418       564       563      2488      2489      2484
 -1       968    8    0    1
 -2       419       420       565      2062      2490      2491
 -1       969    8    0    1
 -2       419       565       564      2491      2492      2487
 -1       970    8    0    1
 -2       420       421       566      2065      2493      2494
 -1       971    8    0    1
 -2       420       566       565      2494      2495      2490
 -1       972    8    0    1
 -2       421       422       567      2068      2496      2497
 -1       973    8    0    1
 -2       421       567       566      2497      2498      2493
 -1       974    8    0    1
 -2       422       423       568      2071      2499      2500
 -1       975    8    0    1
 -2       422       568       567      2500      2501      2496
 -1       976    8    0    1
 -2       423       424       569      2074      2502      2503
 -1       977    8    0    1
 -2       423       569       568      2503      2504      2499
 -1       978    8    0    1
 -2       424       425       570      2077      2505      2506
 -1       979    8    0    1
 -2       424       570       569      2506      2507      2502
 -1       980    8    0    1
 -2       425       426       429      2080      2089      2508
 -1       981    8    0    1
 -2       430       431       571      2096      2509      2510
 -1       982    8    0    1
 -2       431       432       572      2099      2511      2512
 -1       983    8    0    1
 -2       431       572       571      2512      2513      2509
 -1       984    8    0    1
 -2       428       427       573      2086      2514      2515
 -1       985    8    0    1
 -2       427       430       574      2093      2516      2517
 -1       986    8    0    1
 -2       573       427       574      2514      2517      2518
 -1       987    8    0    1
 -2       430       571       574      2510      2519      2516
 -1       988    8    0    1
 -2       432       433       575      2102      2520      2521
 -1       989    8    0    1
 -2       432       575       572      2521      2522      2511
 -1       990    8    0    1
 -2       433       434       576      2105      2523      2524
 -1       991    8    0    1
 -2       433       576       575      2524      2525      2520
 -1       992    8    0    1
 -2       434       435       577      2108      2526      2527
 -1       993    8    0    1
 -2       434       577       576      2527      2528      2523
 -1       994    8    0    1
 -2       435       436       578      2111      2529      2530
 -1       995    8    0    1
 -2       435       578       577      2530      2531      2526
 -1       996    8    0    1
 -2       436       437       579      2114      2532      2533
 -1       997    8    0    1
 -2       436       579       578      2533      2534      2529
 -1       998    8    0    1
 -2       437       438       580      2117      2535      2536
 -1       999    8    0    1
 -2       437       580       579      2536      2537      2532
 -1      1000    8    0    1
 -2       438       439       581      2120      2538      2539
 -1      1001    8    0    1
 -2       438       581       580      2539      2540      2535
 -1      1002    8    0    1
 -2       441       442       582      2196      2541      2542
 -1      1003    8    0    1
 -2       440       443       583      2198      2543      2544
 -1      1004    8    0    1
 -2       382       383       584      1951      2545      2546
 -1      1005    8    0    1
 -2       383       529       584      2384      2547      2545
 -1      1006    8    0    1
 -2       439       290       380      2197      1941      2548
 -1      1007    8    0    1
 -2       468       441       585      2199      2549      2550
 -1      1008    8    0    1
 -2       441       582       585      2542      2551      2549
 -1      1009    8    0    1
 -2       442       440       586      2195      2552      2553
 -1      1010    8    0    1
 -2       440       583       586      2544      2554      2552
 -1      1011    8    0    1
 -2       335       321       587      2194      2555      2556
 -1      1012    8    0    1
 -2       484       335       587      2250      2556      2557
 -1      1013    8    0    1
 -2       321       320       587      1763      2558      2555
 -1      1014    8    0    1
 -2       467       468       588      2200      2559      2560
 -1      1015    8    0    1
 -2       454       455       589      2213      2561      2562
 -1      1016    8    0    1
 -2       449       450       590      2218      2563      2564
 -1      1017    8    0    1
 -2       324       325       591      1774      2565      2566
 -1      1018    8    0    1
 -2       475       324       591      2225      2566      2567
 -1      1019    8    0    1
 -2       325       477       591      2231      2568      2565
 -1      1020    8    0    1
 -2       448       449       592      2220      2569      2570
 -1      1021    8    0    1
 -2       449       590       592      2564      2571      2569
 -1      1022    8    0    1
 -2       446       447       593      2139      2572      2573
 -1      1023    8    0    1
 -2       452       453       594      2221      2574      2575
 -1      1024    8    0    1
 -2       447       448       595      2219      2576      2577
 -1      1025    8    0    1
 -2       450       451       596      2148      2578      2579
 -1      1026    8    0    1
 -2       461       462       597      2222      2580      2581
 -1      1027    8    0    1
 -2       453       454       598      2214      2582      2583
 -1      1028    8    0    1
 -2       453       598       594      2583      2584      2574
 -1      1029    8    0    1
 -2       455       456       599      2159      2585      2586
 -1      1030    8    0    1
 -2       457       458       600      2164      2587      2588
 -1      1031    8    0    1
 -2       459       460       601      2169      2589      2590
 -1      1032    8    0    1
 -2       460       461       602      2206      2591      2592
 -1      1033    8    0    1
 -2       462       463       603      2205      2593      2594
 -1      1034    8    0    1
 -2       462       603       597      2594      2595      2580
 -1      1035    8    0    1
 -2       463       464       604      2204      2596      2597
 -1      1036    8    0    1
 -2       464       465       605      2203      2598      2599
 -1      1037    8    0    1
 -2       465       466       606      2202      2600      2601
 -1      1038    8    0    1
 -2       465       606       605      2601      2602      2598
 -1      1039    8    0    1
 -2       466       467       607      2201      2603      2604
 -1      1040    8    0    1
 -2       444       469       608      2188      2605      2606
 -1      1041    8    0    1
 -2       333       334       609      1803      2607      2608
 -1      1042    8    0    1
 -2       332       333       609      1798      2608      2609
 -1      1043    8    0    1
 -2       334       474       609      2224      2610      2607
 -1      1044    8    0    1
 -2       448       592       610      2570      2611      2612
 -1      1045    8    0    1
 -2       448       610       595      2612      2613      2576
 -1      1046    8    0    1
 -2       322       476       611      2228      2614      2615
 -1      1047    8    0    1
 -2       322       611       445      2615      2616      2134
 -1      1048    8    0    1
 -2       483       382       584      2247      2546      2617
 -1      1049    8    0    1
 -2       331       332       609      1795      2609      2618
 -1      1050    8    0    1
 -2       443       470       612      2190      2619      2620
 -1      1051    8    0    1
 -2       443       612       583      2620      2621      2543
 -1      1052    8    0    1
 -2       588       468       585      2559      2550      2622
 -1      1053    8    0    1
 -2       469       485       608      2253      2623      2605
 -1      1054    8    0    1
 -2       606       466       607      2600      2604      2624
 -1      1055    8    0    1
 -2       425       429       570      2508      2625      2505
 -1      1056    8    0    1
 -2       429       428       570      2090      2626      2625
 -1      1057    8    0    1
 -2       603       463       604      2593      2597      2627
 -1      1058    8    0    1
 -2       442       586       582      2553      2628      2541
 -1      1059    8    0    1
 -2       602       461       597      2591      2581      2629
 -1      1060    8    0    1
 -2       601       460       602      2589      2592      2630
 -1      1061    8    0    1
 -2       331       609       482      2618      2631      2244
 -1      1062    8    0    1
 -2       590       450       596      2563      2579      2632
 -1      1063    8    0    1
 -2       600       458       613      2587      2633      2634
 -1      1064    8    0    1
 -2       458       471       613      2208      2635      2633
 -1      1065    8    0    1
 -2       587       320       445      2558      2133      2636
 -1      1066    8    0    1
 -2       589       455       599      2561      2586      2637
 -1      1067    8    0    1
 -2       454       589       598      2562      2638      2582
 -1      1068    8    0    1
 -2       596       451       473      2578      2216      2639
 -1      1069    8    0    1
 -2       471       459       601      2209      2590      2640
 -1      1070    8    0    1
 -2       472       457       600      2212      2588      2641
 -1      1071    8    0    1
 -2       446       593       485      2573      2642      2252
 -1      1072    8    0    1
 -2       473       452       614      2217      2643      2644
 -1      1073    8    0    1
 -2       452       594       614      2575      2645      2643
 -1      1074    8    0    1
 -2       467       588       607      2560      2646      2603
 -1      1075    8    0    1
 -2       593       447       595      2572      2577      2647
 -1      1076    8    0    1
 -2       599       456       615      2585      2648      2649
 -1      1077    8    0    1
 -2       456       472       615      2211      2650      2648
 -1      1078    8    0    1
 -2       439       380       616      2548      2651      2652
 -1      1079    8    0    1
 -2       581       439       616      2538      2652      2653
 -1      1080    8    0    1
 -2       380       379       616      1942      2654      2651
 -1      1081    8    0    1
 -2       604       464       605      2596      2599      2655
 -1      1082    8    0    1
 -2       444       608       470      2606      2656      2191
 -1      1083    8    0    1
 -2       570       428       573      2626      2515      2657
 -1      1084    8    0    1
 -2       616       379       528      2654      2381      2658
 -1      1085    8    0    1
 -2       478       479       617      2237      2659      2660
 -1      1086    8    0    1
 -2       477       478       618      2234      2661      2662
 -1      1087    8    0    1
 -2       478       617       618      2660      2663      2661
 -1      1088    8    0    1
 -2       480       481       619      2243      2664      2665
 -1      1089    8    0    1
 -2       481       482       620      2246      2666      2667
 -1      1090    8    0    1
 -2       481       620       619      2667      2668      2664
 -1      1091    8    0    1
 -2       474       483       621      2249      2669      2670
 -1      1092    8    0    1
 -2       590       596       622      2632      2671      2672
 -1      1093    8    0    1
 -2       609       474       482      2610      2673      2631
 -1      1094    8    0    1
 -2       606       607       623      2624      2674      2675
 -1      1095    8    0    1
 -2       608       485       624      2623      2676      2677
 -1      1096    8    0    1
 -2       487       486       625      2259      2678      2679
 -1      1097    8    0    1
 -2       488       487       626      2262      2680      2681
 -1      1098    8    0    1
 -2       487       625       626      2679      2682      2680
 -1      1099    8    0    1
 -2       489       488       627      2265      2683      2684
 -1      1100    8    0    1
 -2       488       626       627      2681      2685      2683
 -1      1101    8    0    1
 -2       490       489       628      2268      2686      2687
 -1      1102    8    0    1
 -2       489       627       628      2684      2688      2686
 -1      1103    8    0    1
 -2       491       490       629      2271      2689      2690
 -1      1104    8    0    1
 -2       490       628       629      2687      2691      2689
 -1      1105    8    0    1
 -2       492       491       630      2274      2692      2693
 -1      1106    8    0    1
 -2       491       629       630      2690      2694      2692
 -1      1107    8    0    1
 -2       493       492       631      2277      2695      2696
 -1      1108    8    0    1
 -2       492       630       631      2693      2697      2695
 -1      1109    8    0    1
 -2       494       493       632      2280      2698      2699
 -1      1110    8    0    1
 -2       493       631       632      2696      2700      2698
 -1      1111    8    0    1
 -2       495       494       633      2283      2701      2702
 -1      1112    8    0    1
 -2       494       632       633      2699      2703      2701
 -1      1113    8    0    1
 -2       496       495       634      2286      2704      2705
 -1      1114    8    0    1
 -2       495       633       634      2702      2706      2704
 -1      1115    8    0    1
 -2       497       496       635      2289      2707      2708
 -1      1116    8    0    1
 -2       496       634       635      2705      2709      2707
 -1      1117    8    0    1
 -2       498       497       636      2292      2710      2711
 -1      1118    8    0    1
 -2       497       635       636      2708      2712      2710
 -1      1119    8    0    1
 -2       499       498       637      2295      2713      2714
 -1      1120    8    0    1
 -2       498       636       637      2711      2715      2713
 -1      1121    8    0    1
 -2       500       499       638      2298      2716      2717
 -1      1122    8    0    1
 -2       499       637       638      2714      2718      2716
 -1      1123    8    0    1
 -2       501       500       639      2301      2719      2720
 -1      1124    8    0    1
 -2       500       638       639      2717      2721      2719
 -1      1125    8    0    1
 -2       502       501       640      2304      2722      2723
 -1      1126    8    0    1
 -2       501       639       640      2720      2724      2722
 -1      1127    8    0    1
 -2       503       502       641      2307      2725      2726
 -1      1128    8    0    1
 -2       502       640       641      2723      2727      2725
 -1      1129    8    0    1
 -2       504       503       602      2310      2728      2729
 -1      1130    8    0    1
 -2       505       504       597      2313      2730      2731
 -1      1131    8    0    1
 -2       506       505       597      2316      2731      2732
 -1      1132    8    0    1
 -2       507       506       642      2319      2733      2734
 -1      1133    8    0    1
 -2       508       507       643      2322      2735      2736
 -1      1134    8    0    1
 -2       507       642       643      2734      2737      2735
 -1      1135    8    0    1
 -2       509       508       644      2325      2738      2739
 -1      1136    8    0    1
 -2       508       643       644      2736      2740      2738
 -1      1137    8    0    1
 -2       510       509       645      2328      2741      2742
 -1      1138    8    0    1
 -2       509       644       645      2739      2743      2741
 -1      1139    8    0    1
 -2       511       510       646      2331      2744      2745
 -1      1140    8    0    1
 -2       510       645       646      2742      2746      2744
 -1      1141    8    0    1
 -2       512       511       647      2334      2747      2748
 -1      1142    8    0    1
 -2       511       646       647      2745      2749      2747
 -1      1143    8    0    1
 -2       513       512       648      2337      2750      2751
 -1      1144    8    0    1
 -2       512       647       648      2748      2752      2750
 -1      1145    8    0    1
 -2       514       513       649      2340      2753      2754
 -1      1146    8    0    1
 -2       513       648       649      2751      2755      2753
 -1      1147    8    0    1
 -2       515       514       650      2343      2756      2757
 -1      1148    8    0    1
 -2       514       649       650      2754      2758      2756
 -1      1149    8    0    1
 -2       516       515       651      2346      2759      2760
 -1      1150    8    0    1
 -2       515       650       651      2757      2761      2759
 -1      1151    8    0    1
 -2       517       516       652      2349      2762      2763
 -1      1152    8    0    1
 -2       516       651       652      2760      2764      2762
 -1      1153    8    0    1
 -2       518       517       653      2352      2765      2766
 -1      1154    8    0    1
 -2       517       652       653      2763      2767      2765
 -1      1155    8    0    1
 -2       519       518       654      2355      2768      2769
 -1      1156    8    0    1
 -2       518       653       654      2766      2770      2768
 -1      1157    8    0    1
 -2       520       519       655      2358      2771      2772
 -1      1158    8    0    1
 -2       519       654       655      2769      2773      2771
 -1      1159    8    0    1
 -2       521       520       656      2361      2774      2775
 -1      1160    8    0    1
 -2       520       655       656      2772      2776      2774
 -1      1161    8    0    1
 -2       522       521       657      2364      2777      2778
 -1      1162    8    0    1
 -2       521       656       657      2775      2779      2777
 -1      1163    8    0    1
 -2       523       522       658      2367      2780      2781
 -1      1164    8    0    1
 -2       522       657       658      2778      2782      2780
 -1      1165    8    0    1
 -2       524       523       659      2370      2783      2784
 -1      1166    8    0    1
 -2       523       658       659      2781      2785      2783
 -1      1167    8    0    1
 -2       525       524       660      2373      2786      2787
 -1      1168    8    0    1
 -2       524       659       660      2784      2788      2786
 -1      1169    8    0    1
 -2       526       525       661      2376      2789      2790
 -1      1170    8    0    1
 -2       525       660       661      2787      2791      2789
 -1      1171    8    0    1
 -2       527       526       662      2379      2792      2793
 -1      1172    8    0    1
 -2       526       661       662      2790      2794      2792
 -1      1173    8    0    1
 -2       528       527       663      2382      2795      2796
 -1      1174    8    0    1
 -2       527       662       663      2793      2797      2795
 -1      1175    8    0    1
 -2       530       531       664      2390      2798      2799
 -1      1176    8    0    1
 -2       603       604       642      2627      2800      2801
 -1      1177    8    0    1
 -2       529       530       665      2387      2802      2803
 -1      1178    8    0    1
 -2       530       664       665      2799      2804      2802
 -1      1179    8    0    1
 -2       532       533       666      2396      2805      2806
 -1      1180    8    0    1
 -2       533       534       667      2399      2807      2808
 -1      1181    8    0    1
 -2       533       667       666      2808      2809      2805
 -1      1182    8    0    1
 -2       534       535       668      2402      2810      2811
 -1      1183    8    0    1
 -2       534       668       667      2811      2812      2807
 -1      1184    8    0    1
 -2       535       536       669      2405      2813      2814
 -1      1185    8    0    1
 -2       535       669       668      2814      2815      2810
 -1      1186    8    0    1
 -2       536       537       670      2408      2816      2817
 -1      1187    8    0    1
 -2       536       670       669      2817      2818      2813
 -1      1188    8    0    1
 -2       537       538       671      2411      2819      2820
 -1      1189    8    0    1
 -2       537       671       670      2820      2821      2816
 -1      1190    8    0    1
 -2       538       539       672      2414      2822      2823
 -1      1191    8    0    1
 -2       538       672       671      2823      2824      2819
 -1      1192    8    0    1
 -2       539       540       673      2417      2825      2826
 -1      1193    8    0    1
 -2       539       673       672      2826      2827      2822
 -1      1194    8    0    1
 -2       540       541       674      2420      2828      2829
 -1      1195    8    0    1
 -2       540       674       673      2829      2830      2825
 -1      1196    8    0    1
 -2       541       542       675      2423      2831      2832
 -1      1197    8    0    1
 -2       541       675       674      2832      2833      2828
 -1      1198    8    0    1
 -2       542       543       676      2426      2834      2835
 -1      1199    8    0    1
 -2       542       676       675      2835      2836      2831
 -1      1200    8    0    1
 -2       543       544       677      2429      2837      2838
 -1      1201    8    0    1
 -2       543       677       676      2838      2839      2834
 -1      1202    8    0    1
 -2       544       545       678      2432      2840      2841
 -1      1203    8    0    1
 -2       544       678       677      2841      2842      2837
 -1      1204    8    0    1
 -2       545       546       679      2435      2843      2844
 -1      1205    8    0    1
 -2       545       679       678      2844      2845      2840
 -1      1206    8    0    1
 -2       546       547       680      2438      2846      2847
 -1      1207    8    0    1
 -2       546       680       679      2847      2848      2843
 -1      1208    8    0    1
 -2       547       548       681      2441      2849      2850
 -1      1209    8    0    1
 -2       547       681       680      2850      2851      2846
 -1      1210    8    0    1
 -2       548       549       682      2444      2852      2853
 -1      1211    8    0    1
 -2       548       682       681      2853      2854      2849
 -1      1212    8    0    1
 -2       549       550       683      2447      2855      2856
 -1      1213    8    0    1
 -2       549       683       682      2856      2857      2852
 -1      1214    8    0    1
 -2       550       551       684      2450      2858      2859
 -1      1215    8    0    1
 -2       550       684       683      2859      2860      2855
 -1      1216    8    0    1
 -2       551       552       685      2453      2861      2862
 -1      1217    8    0    1
 -2       551       685       684      2862      2863      2858
 -1      1218    8    0    1
 -2       552       553       686      2456      2864      2865
 -1      1219    8    0    1
 -2       552       686       685      2865      2866      2861
 -1      1220    8    0    1
 -2       553       554       687      2459      2867      2868
 -1      1221    8    0    1
 -2       553       687       686      2868      2869      2864
 -1      1222    8    0    1
 -2       554       555       688      2462      2870      2871
 -1      1223    8    0    1
 -2       554       688       687      2871      2872      2867
 -1      1224    8    0    1
 -2       555       556       689      2465      2873      2874
 -1      1225    8    0    1
 -2       555       689       688      2874      2875      2870
 -1      1226    8    0    1
 -2       556       557       690      2468      2876      2877
 -1      1227    8    0    1
 -2       556       690       689      2877      2878      2873
 -1      1228    8    0    1
 -2       557       558       691      2471      2879      2880
 -1      1229    8    0    1
 -2       557       691       690      2880      2881      2876
 -1      1230    8    0    1
 -2       558       559       692      2474      2882      2883
 -1      1231    8    0    1
 -2       558       692       691      2883      2884      2879
 -1      1232    8    0    1
 -2       559       560       693      2477      2885      2886
 -1      1233    8    0    1
 -2       559       693       692      2886      2887      2882
 -1      1234    8    0    1
 -2       560       561       694      2480      2888      2889
 -1      1235    8    0    1
 -2       560       694       693      2889      2890      2885
 -1      1236    8    0    1
 -2       561       562       695      2483      2891      2892
 -1      1237    8    0    1
 -2       561       695       694      2892      2893      2888
 -1      1238    8    0    1
 -2       562       563       696      2486      2894      2895
 -1      1239    8    0    1
 -2       562       696       695      2895      2896      2891
 -1      1240    8    0    1
 -2       563       564       697      2489      2897      2898
 -1      1241    8    0    1
 -2       563       697       696      2898      2899      2894
 -1      1242    8    0    1
 -2       564       565       698      2492      2900      2901
 -1      1243    8    0    1
 -2       564       698       697      2901      2902      2897
 -1      1244    8    0    1
 -2       565       566       699      2495      2903      2904
 -1      1245    8    0    1
 -2       565       699       698      2904      2905      2900
 -1      1246    8    0    1
 -2       566       567       700      2498      2906      2907
 -1      1247    8    0    1
 -2       566       700       699      2907      2908      2903
 -1      1248    8    0    1
 -2       567       568       701      2501      2909      2910
 -1      1249    8    0    1
 -2       567       701       700      2910      2911      2906
 -1      1250    8    0    1
 -2       568       569       702      2504      2912      2913
 -1      1251    8    0    1
 -2       568       702       701      2913      2914      2909
 -1      1252    8    0    1
 -2       569       570       703      2507      2915      2916
 -1      1253    8    0    1
 -2       702       569       703      2912      2916      2917
 -1      1254    8    0    1
 -2       570       573       703      2657      2918      2915
 -1      1255    8    0    1
 -2       575       576       704      2525      2919      2920
 -1      1256    8    0    1
 -2       616       528       705      2658      2921      2922
 -1      1257    8    0    1
 -2       581       616       705      2653      2922      2923
 -1      1258    8    0    1
 -2       528       663       705      2796      2924      2921
 -1      1259    8    0    1
 -2       571       572       706      2513      2925      2926
 -1      1260    8    0    1
 -2       576       577       707      2528      2927      2928
 -1      1261    8    0    1
 -2       576       707       704      2928      2929      2919
 -1      1262    8    0    1
 -2       572       575       708      2522      2930      2931
 -1      1263    8    0    1
 -2       706       572       708      2925      2931      2932
 -1      1264    8    0    1
 -2       575       704       708      2920      2933      2930
 -1      1265    8    0    1
 -2       588       585       709      2622      2934      2935
 -1      1266    8    0    1
 -2       577       578       710      2531      2936      2937
 -1      1267    8    0    1
 -2       577       710       707      2937      2938      2927
 -1      1268    8    0    1
 -2       578       579       711      2534      2939      2940
 -1      1269    8    0    1
 -2       578       711       710      2940      2941      2936
 -1      1270    8    0    1
 -2       579       580       712      2537      2942      2943
 -1      1271    8    0    1
 -2       579       712       711      2943      2944      2939
 -1      1272    8    0    1
 -2       580       581       705      2540      2923      2945
 -1      1273    8    0    1
 -2       602       597       504      2629      2730      2729
 -1      1274    8    0    1
 -2       484       587       713      2557      2946      2947
 -1      1275    8    0    1
 -2       585       582       714      2551      2948      2949
 -1      1276    8    0    1
 -2       586       583       715      2554      2950      2951
 -1      1277    8    0    1
 -2       596       473       716      2639      2952      2953
 -1      1278    8    0    1
 -2       582       586       717      2628      2954      2955
 -1      1279    8    0    1
 -2       586       715       717      2951      2956      2954
 -1      1280    8    0    1
 -2       584       529       718      2547      2957      2958
 -1      1281    8    0    1
 -2       529       665       718      2803      2959      2957
 -1      1282    8    0    1
 -2       531       532       719      2393      2960      2961
 -1      1283    8    0    1
 -2       664       531       719      2798      2961      2962
 -1      1284    8    0    1
 -2       532       666       719      2806      2963      2960
 -1      1285    8    0    1
 -2       486       484       720      2256      2964      2965
 -1      1286    8    0    1
 -2       625       486       720      2678      2965      2966
 -1      1287    8    0    1
 -2       484       713       720      2947      2967      2964
 -1      1288    8    0    1
 -2       483       584       721      2617      2968      2969
 -1      1289    8    0    1
 -2       621       483       721      2669      2969      2970
 -1      1290    8    0    1
 -2       584       718       721      2958      2971      2968
 -1      1291    8    0    1
 -2       598       589       722      2638      2972      2973
 -1      1292    8    0    1
 -2       589       599       723      2637      2974      2975
 -1      1293    8    0    1
 -2       479       480       724      2240      2976      2977
 -1      1294    8    0    1
 -2       617       479       724      2659      2977      2978
 -1      1295    8    0    1
 -2       480       619       724      2665      2979      2976
 -1      1296    8    0    1
 -2       607       588       725      2646      2980      2981
 -1      1297    8    0    1
 -2       476       475       726      2229      2982      2983
 -1      1298    8    0    1
 -2       601       602       641      2630      2984      2985
 -1      1299    8    0    1
 -2       592       590       727      2571      2986      2987
 -1      1300    8    0    1
 -2       590       622       727      2672      2988      2986
 -1      1301    8    0    1
 -2       594       598       728      2584      2989      2990
 -1      1302    8    0    1
 -2       471       601       729      2640      2991      2992
 -1      1303    8    0    1
 -2       613       471       729      2635      2992      2993
 -1      1304    8    0    1
 -2       601       641       729      2985      2994      2991
 -1      1305    8    0    1
 -2       485       593       730      2642      2995      2996
 -1      1306    8    0    1
 -2       485       730       624      2996      2997      2676
 -1      1307    8    0    1
 -2       472       600       731      2641      2998      2999
 -1      1308    8    0    1
 -2       587       445       713      2636      3000      2946
 -1      1309    8    0    1
 -2       470       608       732      2656      3001      3002
 -1      1310    8    0    1
 -2       605       606       733      2602      3003      3004
 -1      1311    8    0    1
 -2       593       595       734      2647      3005      3006
 -1      1312    8    0    1
 -2       602       503       641      2728      2726      2984
 -1      1313    8    0    1
 -2       611       476       735      2614      3007      3008
 -1      1314    8    0    1
 -2       476       726       735      2983      3009      3007
 -1      1315    8    0    1
 -2       477       618       736      2662      3010      3011
 -1      1316    8    0    1
 -2       477       736       591      3011      3012      2568
 -1      1317    8    0    1
 -2       722       589       737      2972      3013      3014
 -1      1318    8    0    1
 -2       589       723       737      2975      3015      3013
 -1      1319    8    0    1
 -2       594       728       738      2990      3016      3017
 -1      1320    8    0    1
 -2       594       738       614      3017      3018      2645
 -1      1321    8    0    1
 -2       482       474       621      2673      2670      3019
 -1      1322    8    0    1
 -2       612       470       739      2619      3020      3021
 -1      1323    8    0    1
 -2       470       732       739      3002      3022      3020
 -1      1324    8    0    1
 -2       610       592       740      2611      3023      3024
 -1      1325    8    0    1
 -2       592       727       740      2987      3025      3023
 -1      1326    8    0    1
 -2       623       607       725      2674      2981      3026
 -1      1327    8    0    1
 -2       608       624       732      2677      3027      3001
 -1      1328    8    0    1
 -2       571       706       741      2926      3028      3029
 -1      1329    8    0    1
 -2       571       741       574      3029      3030      2519
 -1      1330    8    0    1
 -2       604       605       643      2655      3031      3032
 -1      1331    8    0    1
 -2       715       583       742      2950      3033      3034
 -1      1332    8    0    1
 -2       583       612       742      2621      3035      3033
 -1      1333    8    0    1
 -2       573       574       743      2518      3036      3037
 -1      1334    8    0    1
 -2       703       573       743      2918      3037      3038
 -1      1335    8    0    1
 -2       574       741       743      3030      3039      3036
 -1      1336    8    0    1
 -2       580       705       744      2945      3040      3041
 -1      1337    8    0    1
 -2       712       580       744      2942      3041      3042
 -1      1338    8    0    1
 -2       705       663       744      2924      3043      3040
 -1      1339    8    0    1
 -2       716       473       614      2952      2644      3044
 -1      1340    8    0    1
 -2       472       731       615      2999      3045      2650
 -1      1341    8    0    1
 -2       714       582       717      2948      2955      3046
 -1      1342    8    0    1
 -2       585       714       709      2949      3047      2934
 -1      1343    8    0    1
 -2       730       593       734      2995      3006      3048
 -1      1344    8    0    1
 -2       734       595       745      3005      3049      3050
 -1      1345    8    0    1
 -2       595       610       745      2613      3051      3049
 -1      1346    8    0    1
 -2       598       722       728      2973      3052      2989
 -1      1347    8    0    1
 -2       596       716       746      2953      3053      3054
 -1      1348    8    0    1
 -2       596       746       622      3054      3055      2671
 -1      1349    8    0    1
 -2       445       611       713      2616      3056      3000
 -1      1350    8    0    1
 -2       482       621       620      3019      3057      2666
 -1      1351    8    0    1
 -2       475       591       747      2567      3058      3059
 -1      1352    8    0    1
 -2       726       475       747      2982      3059      3060
 -1      1353    8    0    1
 -2       591       736       747      3012      3061      3058
 -1      1354    8    0    1
 -2       723       599       748      2974      3062      3063
 -1      1355    8    0    1
 -2       599       615       748      2649      3064      3062
 -1      1356    8    0    1
 -2       600       613       749      2634      3065      3066
 -1      1357    8    0    1
 -2       600       749       731      3066      3067      2998
 -1      1358    8    0    1
 -2       733       606       623      3003      2675      3068
 -1      1359    8    0    1
 -2       725       588       709      2980      2935      3069
 -1      1360    8    0    1
 -2       605       733       643      3004      3070      3031
 -1      1361    8    0    1
 -2       619       620       750      2668      3071      3072
 -1      1362    8    0    1
 -2       732       624       751      3027      3073      3074
 -1      1363    8    0    1
 -2       627       626       752      2685      3075      3076
 -1      1364    8    0    1
 -2       628       627       753      2688      3077      3078
 -1      1365    8    0    1
 -2       627       752       753      3076      3079      3077
 -1      1366    8    0    1
 -2       629       628       754      2691      3080      3081
 -1      1367    8    0    1
 -2       628       753       754      3078      3082      3080
 -1      1368    8    0    1
 -2       630       629       755      2694      3083      3084
 -1      1369    8    0    1
 -2       629       754       755      3081      3085      3083
 -1      1370    8    0    1
 -2       631       630       756      2697      3086      3087
 -1      1371    8    0    1
 -2       630       755       756      3084      3088      3086
 -1      1372    8    0    1
 -2       632       631       757      2700      3089      3090
 -1      1373    8    0    1
 -2       631       756       757      3087      3091      3089
 -1      1374    8    0    1
 -2       633       632       758      2703      3092      3093
 -1      1375    8    0    1
 -2       632       757       758      3090      3094      3092
 -1      1376    8    0    1
 -2       634       633       759      2706      3095      3096
 -1      1377    8    0    1
 -2       633       758       759      3093      3097      3095
 -1      1378    8    0    1
 -2       635       634       760      2709      3098      3099
 -1      1379    8    0    1
 -2       634       759       760      3096      3100      3098
 -1      1380    8    0    1
 -2       636       635       761      2712      3101      3102
 -1      1381    8    0    1
 -2       635       760       761      3099      3103      3101
 -1      1382    8    0    1
 -2       637       636       762      2715      3104      3105
 -1      1383    8    0    1
 -2       636       761       762      3102      3106      3104
 -1      1384    8    0    1
 -2       638       637       763      2718      3107      3108
 -1      1385    8    0    1
 -2       637       762       763      3105      3109      3107
 -1      1386    8    0    1
 -2       639       638       764      2721      3110      3111
 -1      1387    8    0    1
 -2       638       763       764      3108      3112      3110
 -1      1388    8    0    1
 -2       640       639       749      2724      3113      3114
 -1      1389    8    0    1
 -2       641       640       729      2727      3115      2994
 -1      1390    8    0    1
 -2       506       597       603      2732      2595      3116
 -1      1391    8    0    1
 -2       642       506       603      2733      3116      2801
 -1      1392    8    0    1
 -2       644       643       733      2740      3070      3117
 -1      1393    8    0    1
 -2       645       644       765      2743      3118      3119
 -1      1394    8    0    1
 -2       646       645       766      2746      3120      3121
 -1      1395    8    0    1
 -2       645       765       766      3119      3122      3120
 -1      1396    8    0    1
 -2       647       646       767      2749      3123      3124
 -1      1397    8    0    1
 -2       646       766       767      3121      3125      3123
 -1      1398    8    0    1
 -2       648       647       768      2752      3126      3127
 -1      1399    8    0    1
 -2       647       767       768      3124      3128      3126
 -1      1400    8    0    1
 -2       649       648       769      2755      3129      3130
 -1      1401    8    0    1
 -2       648       768       769      3127      3131      3129
 -1      1402    8    0    1
 -2       650       649       770      2758      3132      3133
 -1      1403    8    0    1
 -2       649       769       770      3130      3134      3132
 -1      1404    8    0    1
 -2       651       650       771      2761      3135      3136
 -1      1405    8    0    1
 -2       650       770       771      3133      3137      3135
 -1      1406    8    0    1
 -2       652       651       772      2764      3138      3139
 -1      1407    8    0    1
 -2       651       771       772      3136      3140      3138
 -1      1408    8    0    1
 -2       653       652       773      2767      3141      3142
 -1      1409    8    0    1
 -2       652       772       773      3139      3143      3141
 -1      1410    8    0    1
 -2       654       653       774      2770      3144      3145
 -1      1411    8    0    1
 -2       653       773       774      3142      3146      3144
 -1      1412    8    0    1
 -2       655       654       775      2773      3147      3148
 -1      1413    8    0    1
 -2       654       774       775      3145      3149      3147
 -1      1414    8    0    1
 -2       656       655       776      2776      3150      3151
 -1      1415    8    0    1
 -2       655       775       776      3148      3152      3150
 -1      1416    8    0    1
 -2       657       656       777      2779      3153      3154
 -1      1417    8    0    1
 -2       656       776       777      3151      3155      3153
 -1      1418    8    0    1
 -2       658       657       778      2782      3156      3157
 -1      1419    8    0    1
 -2       657       777       778      3154      3158      3156
 -1      1420    8    0    1
 -2       659       658       779      2785      3159      3160
 -1      1421    8    0    1
 -2       658       778       779      3157      3161      3159
 -1      1422    8    0    1
 -2       660       659       780      2788      3162      3163
 -1      1423    8    0    1
 -2       659       779       780      3160      3164      3162
 -1      1424    8    0    1
 -2       661       660       781      2791      3165      3166
 -1      1425    8    0    1
 -2       660       780       781      3163      3167      3165
 -1      1426    8    0    1
 -2       662       661       782      2794      3168      3169
 -1      1427    8    0    1
 -2       661       781       782      3166      3170      3168
 -1      1428    8    0    1
 -2       663       662       783      2797      3171      3172
 -1      1429    8    0    1
 -2       744       663       783      3043      3172      3173
 -1      1430    8    0    1
 -2       662       782       783      3169      3174      3171
 -1      1431    8    0    1
 -2       644       733       765      3117      3175      3118
 -1      1432    8    0    1
 -2       667       668       784      2812      3176      3177
 -1      1433    8    0    1
 -2       666       667       785      2809      3178      3179
 -1      1434    8    0    1
 -2       667       784       785      3177      3180      3178
 -1      1435    8    0    1
 -2       669       670       786      2818      3181      3182
 -1      1436    8    0    1
 -2       670       671       787      2821      3183      3184
 -1      1437    8    0    1
 -2       670       787       786      3184      3185      3181
 -1      1438    8    0    1
 -2       671       672       788      2824      3186      3187
 -1      1439    8    0    1
 -2       671       788       787      3187      3188      3183
 -1      1440    8    0    1
 -2       672       673       789      2827      3189      3190
 -1      1441    8    0    1
 -2       672       789       788      3190      3191      3186
 -1      1442    8    0    1
 -2       673       674       790      2830      3192      3193
 -1      1443    8    0    1
 -2       673       790       789      3193      3194      3189
 -1      1444    8    0    1
 -2       674       675       791      2833      3195      3196
 -1      1445    8    0    1
 -2       674       791       790      3196      3197      3192
 -1      1446    8    0    1
 -2       675       676       792      2836      3198      3199
 -1      1447    8    0    1
 -2       675       792       791      3199      3200      3195
 -1      1448    8    0    1
 -2       676       677       793      2839      3201      3202
 -1      1449    8    0    1
 -2       676       793       792      3202      3203      3198
 -1      1450    8    0    1
 -2       677       678       794      2842      3204      3205
 -1      1451    8    0    1
 -2       677       794       793      3205      3206      3201
 -1      1452    8    0    1
 -2       678       679       740      2845      3207      3208
 -1      1453    8    0    1
 -2       679       680       745      2848      3209      3210
 -1      1454    8    0    1
 -2       681       682       795      2854      3211      3212
 -1      1455    8    0    1
 -2       682       683       796      2857      3213      3214
 -1      1456    8    0    1
 -2       682       796       795      3214      3215      3211
 -1      1457    8    0    1
 -2       683       684       797      2860      3216      3217
 -1      1458    8    0    1
 -2       683       797       796      3217      3218      3213
 -1      1459    8    0    1
 -2       684       685       798      2863      3219      3220
 -1      1460    8    0    1
 -2       684       798       797      3220      3221      3216
 -1      1461    8    0    1
 -2       685       686       799      2866      3222      3223
 -1      1462    8    0    1
 -2       685       799       798      3223      3224      3219
 -1      1463    8    0    1
 -2       686       687       800      2869      3225      3226
 -1      1464    8    0    1
 -2       686       800       799      3226      3227      3222
 -1      1465    8    0    1
 -2       687       688       801      2872      3228      3229
 -1      1466    8    0    1
 -2       687       801       800      3229      3230      3225
 -1      1467    8    0    1
 -2       688       689       802      2875      3231      3232
 -1      1468    8    0    1
 -2       688       802       801      3232      3233      3228
 -1      1469    8    0    1
 -2       689       690       803      2878      3234      3235
 -1      1470    8    0    1
 -2       689       803       802      3235      3236      3231
 -1      1471    8    0    1
 -2       690       691       804      2881      3237      3238
 -1      1472    8    0    1
 -2       690       804       803      3238      3239      3234
 -1      1473    8    0    1
 -2       691       692       805      2884      3240      3241
 -1      1474    8    0    1
 -2       691       805       804      3241      3242      3237
 -1      1475    8    0    1
 -2       692       693       806      2887      3243      3244
 -1      1476    8    0    1
 -2       692       806       805      3244      3245      3240
 -1      1477    8    0    1
 -2       693       694       807      2890      3246      3247
 -1      1478    8    0    1
 -2       693       807       806      3247      3248      3243
 -1      1479    8    0    1
 -2       694       695       808      2893      3249      3250
 -1      1480    8    0    1
 -2       694       808       807      3250      3251      3246
 -1      1481    8    0    1
 -2       695       696       809      2896      3252      3253
 -1      1482    8    0    1
 -2       695       809       808      3253      3254      3249
 -1      1483    8    0    1
 -2       696       697       810      2899      3255      3256
 -1      1484    8    0    1
 -2       696       810       809      3256      3257      3252
 -1      1485    8    0    1
 -2       697       698       811      2902      3258      3259
 -1      1486    8    0    1
 -2       697       811       810      3259      3260      3255
 -1      1487    8    0    1
 -2       698       699       812      2905      3261      3262
 -1      1488    8    0    1
 -2       698       812       811      3262      3263      3258
 -1      1489    8    0    1
 -2       699       700       813      2908      3264      3265
 -1      1490    8    0    1
 -2       699       813       812      3265      3266      3261
 -1      1491    8    0    1
 -2       700       701       814      2911      3267      3268
 -1      1492    8    0    1
 -2       700       814       813      3268      3269      3264
 -1      1493    8    0    1
 -2       701       702       815      2914      3270      3271
 -1      1494    8    0    1
 -2       701       815       814      3271      3272      3267
 -1      1495    8    0    1
 -2       702       703       816      2917      3273      3274
 -1      1496    8    0    1
 -2       815       702       816      3270      3274      3275
 -1      1497    8    0    1
 -2       703       743       816      3038      3276      3273
 -1      1498    8    0    1
 -2       716       614       817      3044      3277      3278
 -1      1499    8    0    1
 -2       618       617       818      2663      3279      3280
 -1      1500    8    0    1
 -2       710       711       819      2941      3281      3282
 -1      1501    8    0    1
 -2       704       707       820      2929      3283      3284
 -1      1502    8    0    1
 -2       711       712       821      2944      3285      3286
 -1      1503    8    0    1
 -2       711       821       819      3286      3287      3281
 -1      1504    8    0    1
 -2       707       710       822      2938      3288      3289
 -1      1505    8    0    1
 -2       820       707       822      3283      3289      3290
 -1      1506    8    0    1
 -2       710       819       822      3282      3291      3288
 -1      1507    8    0    1
 -2       717       715       823      2956      3292      3293
 -1      1508    8    0    1
 -2       727       622       824      2988      3294      3295
 -1      1509    8    0    1
 -2       668       669       825      2815      3296      3297
 -1      1510    8    0    1
 -2       784       668       825      3176      3297      3298
 -1      1511    8    0    1
 -2       669       786       825      3182      3299      3296
 -1      1512    8    0    1
 -2       709       714       826      3047      3300      3301
 -1      1513    8    0    1
 -2       718       665       827      2959      3302      3303
 -1      1514    8    0    1
 -2       665       664       828      2804      3304      3305
 -1      1515    8    0    1
 -2       665       828       827      3305      3306      3302
 -1      1516    8    0    1
 -2       615       731       829      3045      3307      3308
 -1      1517    8    0    1
 -2       615       829       748      3308      3309      3064
 -1      1518    8    0    1
 -2       626       625       830      2682      3310      3311
 -1      1519    8    0    1
 -2       626       830       752      3311      3312      3075
 -1      1520    8    0    1
 -2       714       717       831      3046      3313      3314
 -1      1521    8    0    1
 -2       624       730       832      2997      3315      3316
 -1      1522    8    0    1
 -2       623       725       833      3026      3317      3318
 -1      1523    8    0    1
 -2       733       623       765      3068      3319      3175
 -1      1524    8    0    1
 -2       730       734       834      3048      3320      3321
 -1      1525    8    0    1
 -2       620       621       835      3057      3322      3323
 -1      1526    8    0    1
 -2       750       620       835      3071      3323      3324
 -1      1527    8    0    1
 -2       621       721       835      2970      3325      3322
 -1      1528    8    0    1
 -2       725       709       836      3069      3326      3327
 -1      1529    8    0    1
 -2       728       722       837      3052      3328      3329
 -1      1530    8    0    1
 -2       713       611       735      3056      3008      3330
 -1      1531    8    0    1
 -2       736       618       838      3010      3331      3332
 -1      1532    8    0    1
 -2       618       818       838      3280      3333      3331
 -1      1533    8    0    1
 -2       737       723       839      3015      3334      3335
 -1      1534    8    0    1
 -2       612       739       742      3021      3336      3035
 -1      1535    8    0    1
 -2       732       751       840      3074      3337      3338
 -1      1536    8    0    1
 -2       732       840       739      3338      3339      3022
 -1      1537    8    0    1
 -2       738       728       841      3016      3340      3341
 -1      1538    8    0    1
 -2       728       837       841      3329      3342      3340
 -1      1539    8    0    1
 -2       740       727       824      3025      3295      3343
 -1      1540    8    0    1
 -2       639       764       749      3111      3344      3113
 -1      1541    8    0    1
 -2       741       706       842      3028      3345      3346
 -1      1542    8    0    1
 -2       735       726       843      3009      3347      3348
 -1      1543    8    0    1
 -2       725       836       833      3327      3349      3317
 -1      1544    8    0    1
 -2       625       720       844      2966      3350      3351
 -1      1545    8    0    1
 -2       625       844       830      3351      3352      3310
 -1      1546    8    0    1
 -2       745       680       845      3209      3353      3354
 -1      1547    8    0    1
 -2       734       745       845      3050      3354      3355
 -1      1548    8    0    1
 -2       680       681       845      2851      3356      3353
 -1      1549    8    0    1
 -2       619       750       846      3072      3357      3358
 -1      1550    8    0    1
 -2       619       846       724      3358      3359      2979
 -1      1551    8    0    1
 -2       709       826       836      3301      3360      3326
 -1      1552    8    0    1
 -2       730       834       832      3321      3361      3315
 -1      1553    8    0    1
 -2       720       713       735      2967      3330      3362
 -1      1554    8    0    1
 -2       826       714       831      3300      3314      3363
 -1      1555    8    0    1
 -2       715       742       847      3034      3364      3365
 -1      1556    8    0    1
 -2       715       847       823      3365      3366      3292
 -1      1557    8    0    1
 -2       664       719       848      2962      3367      3368
 -1      1558    8    0    1
 -2       664       848       828      3368      3369      3304
 -1      1559    8    0    1
 -2       666       785       849      3179      3370      3371
 -1      1560    8    0    1
 -2       666       849       719      3371      3372      2963
 -1      1561    8    0    1
 -2       681       795       845      3212      3373      3356
 -1      1562    8    0    1
 -2       817       614       738      3277      3018      3374
 -1      1563    8    0    1
 -2       818       617       850      3279      3375      3376
 -1      1564    8    0    1
 -2       617       724       850      2978      3377      3375
 -1      1565    8    0    1
 -2       706       708       851      2932      3378      3379
 -1      1566    8    0    1
 -2       706       851       842      3379      3380      3345
 -1      1567    8    0    1
 -2       717       823       831      3293      3381      3313
 -1      1568    8    0    1
 -2       708       704       852      2933      3382      3383
 -1      1569    8    0    1
 -2       851       708       852      3378      3383      3384
 -1      1570    8    0    1
 -2       704       820       852      3284      3385      3382
 -1      1571    8    0    1
 -2       824       622       746      3294      3055      3386
 -1      1572    8    0    1
 -2       745       610       740      3051      3024      3387
 -1      1573    8    0    1
 -2       746       716       853      3053      3388      3389
 -1      1574    8    0    1
 -2       716       817       853      3278      3390      3388
 -1      1575    8    0    1
 -2       829       731       854      3307      3391      3392
 -1      1576    8    0    1
 -2       731       749       854      3067      3393      3391
 -1      1577    8    0    1
 -2       642       604       643      2800      3032      2737
 -1      1578    8    0    1
 -2       624       832       751      3316      3394      3073
 -1      1579    8    0    1
 -2       723       748       839      3063      3395      3334
 -1      1580    8    0    1
 -2       623       833       765      3318      3396      3319
 -1      1581    8    0    1
 -2       712       744       855      3042      3397      3398
 -1      1582    8    0    1
 -2       821       712       855      3285      3398      3399
 -1      1583    8    0    1
 -2       744       783       855      3173      3400      3397
 -1      1584    8    0    1
 -2       721       718       856      2971      3401      3402
 -1      1585    8    0    1
 -2       835       721       856      3325      3402      3403
 -1      1586    8    0    1
 -2       718       827       856      3303      3404      3401
 -1      1587    8    0    1
 -2       726       747       857      3060      3405      3406
 -1      1588    8    0    1
 -2       726       857       843      3406      3407      3347
 -1      1589    8    0    1
 -2       765       833       766      3396      3408      3122
 -1      1590    8    0    1
 -2       742       739       858      3336      3409      3410
 -1      1591    8    0    1
 -2       766       833       859      3408      3411      3412
 -1      1592    8    0    1
 -2       833       836       859      3349      3413      3411
 -1      1593    8    0    1
 -2       831       823       860      3381      3414      3415
 -1      1594    8    0    1
 -2       735       843       844      3348      3416      3417
 -1      1595    8    0    1
 -2       640       749       729      3114      3418      3115
 -1      1596    8    0    1
 -2       754       753       861      3082      3419      3420
 -1      1597    8    0    1
 -2       755       754       862      3085      3421      3422
 -1      1598    8    0    1
 -2       754       861       862      3420      3423      3421
 -1      1599    8    0    1
 -2       756       755       863      3088      3424      3425
 -1      1600    8    0    1
 -2       755       862       863      3422      3426      3424
 -1      1601    8    0    1
 -2       757       756       864      3091      3427      3428
 -1      1602    8    0    1
 -2       756       863       864      3425      3429      3427
 -1      1603    8    0    1
 -2       758       757       865      3094      3430      3431
 -1      1604    8    0    1
 -2       757       864       865      3428      3432      3430
 -1      1605    8    0    1
 -2       759       758       866      3097      3433      3434
 -1      1606    8    0    1
 -2       758       865       866      3431      3435      3433
 -1      1607    8    0    1
 -2       760       759       867      3100      3436      3437
 -1      1608    8    0    1
 -2       759       866       867      3434      3438      3436
 -1      1609    8    0    1
 -2       761       760       868      3103      3439      3440
 -1      1610    8    0    1
 -2       760       867       868      3437      3441      3439
 -1      1611    8    0    1
 -2       762       761       869      3106      3442      3443
 -1      1612    8    0    1
 -2       761       868       869      3440      3444      3442
 -1      1613    8    0    1
 -2       763       762       870      3109      3445      3446
 -1      1614    8    0    1
 -2       762       869       870      3443      3447      3445
 -1      1615    8    0    1
 -2       764       763       871      3112      3448      3449
 -1      1616    8    0    1
 -2       763       870       871      3446      3450      3448
 -1      1617    8    0    1
 -2       817       738       872      3374      3451      3452
 -1      1618    8    0    1
 -2       738       841       872      3341      3453      3451
 -1      1619    8    0    1
 -2       797       798       873      3221      3454      3455
 -1      1620    8    0    1
 -2       767       766       859      3125      3412      3456
 -1      1621    8    0    1
 -2       768       767       874      3128      3457      3458
 -1      1622    8    0    1
 -2       767       859       874      3456      3459      3457
 -1      1623    8    0    1
 -2       769       768       875      3131      3460      3461
 -1      1624    8    0    1
 -2       768       874       875      3458      3462      3460
 -1      1625    8    0    1
 -2       770       769       876      3134      3463      3464
 -1      1626    8    0    1
 -2       769       875       876      3461      3465      3463
 -1      1627    8    0    1
 -2       771       770       877      3137      3466      3467
 -1      1628    8    0    1
 -2       770       876       877      3464      3468      3466
 -1      1629    8    0    1
 -2       772       771       878      3140      3469      3470
 -1      1630    8    0    1
 -2       771       877       878      3467      3471      3469
 -1      1631    8    0    1
 -2       773       772       879      3143      3472      3473
 -1      1632    8    0    1
 -2       772       878       879      3470      3474      3472
 -1      1633    8    0    1
 -2       774       773       880      3146      3475      3476
 -1      1634    8    0    1
 -2       773       879       880      3473      3477      3475
 -1      1635    8    0    1
 -2       775       774       881      3149      3478      3479
 -1      1636    8    0    1
 -2       774       880       881      3476      3480      3478
 -1      1637    8    0    1
 -2       776       775       882      3152      3481      3482
 -1      1638    8    0    1
 -2       775       881       882      3479      3483      3481
 -1      1639    8    0    1
 -2       777       776       883      3155      3484      3485
 -1      1640    8    0    1
 -2       776       882       883      3482      3486      3484
 -1      1641    8    0    1
 -2       778       777       884      3158      3487      3488
 -1      1642    8    0    1
 -2       777       883       884      3485      3489      3487
 -1      1643    8    0    1
 -2       779       778       885      3161      3490      3491
 -1      1644    8    0    1
 -2       778       884       885      3488      3492      3490
 -1      1645    8    0    1
 -2       780       779       886      3164      3493      3494
 -1      1646    8    0    1
 -2       779       885       886      3491      3495      3493
 -1      1647    8    0    1
 -2       781       780       887      3167      3496      3497
 -1      1648    8    0    1
 -2       780       886       887      3494      3498      3496
 -1      1649    8    0    1
 -2       782       781       888      3170      3499      3500
 -1      1650    8    0    1
 -2       781       887       888      3497      3501      3499
 -1      1651    8    0    1
 -2       788       789       889      3191      3502      3503
 -1      1652    8    0    1
 -2       787       788       890      3188      3504      3505
 -1      1653    8    0    1
 -2       788       889       890      3503      3506      3504
 -1      1654    8    0    1
 -2       786       787       891      3185      3507      3508
 -1      1655    8    0    1
 -2       787       890       891      3505      3509      3507
 -1      1656    8    0    1
 -2       789       790       892      3194      3510      3511
 -1      1657    8    0    1
 -2       789       892       889      3511      3512      3502
 -1      1658    8    0    1
 -2       790       791       893      3197      3513      3514
 -1      1659    8    0    1
 -2       790       893       892      3514      3515      3510
 -1      1660    8    0    1
 -2       791       792       894      3200      3516      3517
 -1      1661    8    0    1
 -2       791       894       893      3517      3518      3513
 -1      1662    8    0    1
 -2       793       794       824      3206      3519      3520
 -1      1663    8    0    1
 -2       678       740       794      3208      3521      3204
 -1      1664    8    0    1
 -2       740       679       745      3207      3210      3387
 -1      1665    8    0    1
 -2       798       799       895      3224      3522      3523
 -1      1666    8    0    1
 -2       798       895       873      3523      3524      3454
 -1      1667    8    0    1
 -2       799       800       896      3227      3525      3526
 -1      1668    8    0    1
 -2       799       896       895      3526      3527      3522
 -1      1669    8    0    1
 -2       800       801       897      3230      3528      3529
 -1      1670    8    0    1
 -2       800       897       896      3529      3530      3525
 -1      1671    8    0    1
 -2       801       802       898      3233      3531      3532
 -1      1672    8    0    1
 -2       801       898       897      3532      3533      3528
 -1      1673    8    0    1
 -2       802       803       899      3236      3534      3535
 -1      1674    8    0    1
 -2       802       899       898      3535      3536      3531
 -1      1675    8    0    1
 -2       803       804       900      3239      3537      3538
 -1      1676    8    0    1
 -2       803       900       899      3538      3539      3534
 -1      1677    8    0    1
 -2       804       805       901      3242      3540      3541
 -1      1678    8    0    1
 -2       804       901       900      3541      3542      3537
 -1      1679    8    0    1
 -2       805       806       902      3245      3543      3544
 -1      1680    8    0    1
 -2       805       902       901      3544      3545      3540
 -1      1681    8    0    1
 -2       806       807       903      3248      3546      3547
 -1      1682    8    0    1
 -2       806       903       902      3547      3548      3543
 -1      1683    8    0    1
 -2       807       808       904      3251      3549      3550
 -1      1684    8    0    1
 -2       807       904       903      3550      3551      3546
 -1      1685    8    0    1
 -2       808       809       905      3254      3552      3553
 -1      1686    8    0    1
 -2       808       905       904      3553      3554      3549
 -1      1687    8    0    1
 -2       809       810       906      3257      3555      3556
 -1      1688    8    0    1
 -2       809       906       905      3556      3557      3552
 -1      1689    8    0    1
 -2       810       811       907      3260      3558      3559
 -1      1690    8    0    1
 -2       810       907       906      3559      3560      3555
 -1      1691    8    0    1
 -2       811       812       908      3263      3561      3562
 -1      1692    8    0    1
 -2       811       908       907      3562      3563      3558
 -1      1693    8    0    1
 -2       812       813       909      3266      3564      3565
 -1      1694    8    0    1
 -2       812       909       908      3565      3566      3561
 -1      1695    8    0    1
 -2       813       814       910      3269      3567      3568
 -1      1696    8    0    1
 -2       813       910       909      3568      3569      3564
 -1      1697    8    0    1
 -2       814       815       911      3272      3570      3571
 -1      1698    8    0    1
 -2       814       911       910      3571      3572      3567
 -1      1699    8    0    1
 -2       785       784       912      3180      3573      3574
 -1      1700    8    0    1
 -2       737       839       913      3335      3575      3576
 -1      1701    8    0    1
 -2       743       741       914      3039      3577      3578
 -1      1702    8    0    1
 -2       816       743       914      3276      3578      3579
 -1      1703    8    0    1
 -2       741       842       914      3346      3580      3577
 -1      1704    8    0    1
 -2       824       746       915      3386      3581      3582
 -1      1705    8    0    1
 -2       793       824       915      3520      3582      3583
 -1      1706    8    0    1
 -2       746       853       915      3389      3584      3581
 -1      1707    8    0    1
 -2       819       821       916      3287      3585      3586
 -1      1708    8    0    1
 -2       720       735       844      3362      3417      3350
 -1      1709    8    0    1
 -2       748       829       917      3309      3587      3588
 -1      1710    8    0    1
 -2       827       828       918      3306      3589      3590
 -1      1711    8    0    1
 -2       722       737       919      3014      3591      3592
 -1      1712    8    0    1
 -2       837       722       919      3328      3592      3593
 -1      1713    8    0    1
 -2       737       913       919      3576      3594      3591
 -1      1714    8    0    1
 -2       751       832       920      3394      3595      3596
 -1      1715    8    0    1
 -2       747       736       921      3061      3597      3598
 -1      1716    8    0    1
 -2       747       921       857      3598      3599      3405
 -1      1717    8    0    1
 -2       836       826       922      3360      3600      3601
 -1      1718    8    0    1
 -2       836       922       859      3601      3602      3413
 -1      1719    8    0    1
 -2       734       845       834      3355      3603      3320
 -1      1720    8    0    1
 -2       752       830       923      3312      3604      3605
 -1      1721    8    0    1
 -2       753       752       924      3079      3606      3607
 -1      1722    8    0    1
 -2       753       924       861      3607      3608      3419
 -1      1723    8    0    1
 -2       839       748       917      3395      3588      3609
 -1      1724    8    0    1
 -2       740       824       794      3343      3519      3521
 -1      1725    8    0    1
 -2       826       831       925      3363      3610      3611
 -1      1726    8    0    1
 -2       826       925       922      3611      3612      3600
 -1      1727    8    0    1
 -2       858       739       840      3409      3339      3613
 -1      1728    8    0    1
 -2       782       888       916      3500      3614      3615
 -1      1729    8    0    1
 -2       841       837       926      3342      3616      3617
 -1      1730    8    0    1
 -2       860       823       927      3414      3618      3619
 -1      1731    8    0    1
 -2       782       916       821      3615      3585      3620
 -1      1732    8    0    1
 -2       917       829       928      3587      3621      3622
 -1      1733    8    0    1
 -2       829       854       928      3392      3623      3621
 -1      1734    8    0    1
 -2       831       860       925      3415      3624      3610
 -1      1735    8    0    1
 -2       839       917       929      3609      3625      3626
 -1      1736    8    0    1
 -2       839       929       913      3626      3627      3575
 -1      1737    8    0    1
 -2       817       872       930      3452      3628      3629
 -1      1738    8    0    1
 -2       817       930       853      3629      3630      3390
 -1      1739    8    0    1
 -2       793       915       792      3583      3631      3203
 -1      1740    8    0    1
 -2       820       822       931      3290      3632      3633
 -1      1741    8    0    1
 -2       786       891       932      3508      3634      3635
 -1      1742    8    0    1
 -2       786       932       825      3635      3636      3299
 -1      1743    8    0    1
 -2       847       742       933      3364      3637      3638
 -1      1744    8    0    1
 -2       742       858       933      3410      3639      3637
 -1      1745    8    0    1
 -2       848       719       849      3367      3372      3640
 -1      1746    8    0    1
 -2       849       785       934      3370      3641      3642
 -1      1747    8    0    1
 -2       785       912       934      3574      3643      3641
 -1      1748    8    0    1
 -2       894       792       915      3516      3631      3644
 -1      1749    8    0    1
 -2       820       931       935      3633      3645      3646
 -1      1750    8    0    1
 -2       820       935       852      3646      3647      3385
 -1      1751    8    0    1
 -2       914       842       911      3580      3648      3649
 -1      1752    8    0    1
 -2       724       846       850      3359      3650      3377
 -1      1753    8    0    1
 -2       795       796       832      3215      3651      3652
 -1      1754    8    0    1
 -2       912       784       936      3573      3653      3654
 -1      1755    8    0    1
 -2       784       825       936      3298      3655      3653
 -1      1756    8    0    1
 -2       815       816       914      3275      3579      3656
 -1      1757    8    0    1
 -2       795       832       834      3652      3361      3657
 -1      1758    8    0    1
 -2       911       842       937      3648      3658      3659
 -1      1759    8    0    1
 -2       832       796       920      3651      3660      3595
 -1      1760    8    0    1
 -2       937       842       851      3658      3380      3661
 -1      1761    8    0    1
 -2       795       834       845      3657      3603      3373
 -1      1762    8    0    1
 -2       822       819       938      3291      3662      3663
 -1      1763    8    0    1
 -2       822       938       931      3663      3664      3632
 -1      1764    8    0    1
 -2       749       764       871      3344      3449      3665
 -1      1765    8    0    1
 -2       830       844       939      3352      3666      3667
 -1      1766    8    0    1
 -2       923       830       939      3604      3667      3668
 -1      1767    8    0    1
 -2       844       843       939      3416      3669      3666
 -1      1768    8    0    1
 -2       918       828       940      3589      3670      3671
 -1      1769    8    0    1
 -2       828       848       940      3369      3672      3670
 -1      1770    8    0    1
 -2       815       914       911      3656      3649      3570
 -1      1771    8    0    1
 -2       827       918       941      3590      3673      3674
 -1      1772    8    0    1
 -2       843       857       942      3407      3675      3676
 -1      1773    8    0    1
 -2       843       942       939      3676      3677      3669
 -1      1774    8    0    1
 -2       837       919       926      3593      3678      3616
 -1      1775    8    0    1
 -2       856       827       941      3404      3674      3679
 -1      1776    8    0    1
 -2       921       736       838      3597      3332      3680
 -1      1777    8    0    1
 -2       819       916       938      3586      3681      3662
 -1      1778    8    0    1
 -2       924       752       923      3606      3605      3682
 -1      1779    8    0    1
 -2       818       850       943      3376      3683      3684
 -1      1780    8    0    1
 -2       823       847       927      3366      3685      3618
 -1      1781    8    0    1
 -2       818       943       944      3684      3686      3687
 -1      1782    8    0    1
 -2       818       944       838      3687      3688      3333
 -1      1783    8    0    1
 -2       750       835       945      3324      3689      3690
 -1      1784    8    0    1
 -2       846       750       945      3357      3690      3691
 -1      1785    8    0    1
 -2       835       856       945      3403      3692      3689
 -1      1786    8    0    1
 -2       796       797       840      3218      3693      3694
 -1      1787    8    0    1
 -2       840       797       873      3693      3455      3695
 -1      1788    8    0    1
 -2       916       888       946      3614      3696      3697
 -1      1789    8    0    1
 -2       916       946       938      3697      3698      3681
 -1      1790    8    0    1
 -2       841       926       947      3617      3699      3700
 -1      1791    8    0    1
 -2       841       947       872      3700      3701      3453
 -1      1792    8    0    1
 -2       860       927       948      3619      3702      3703
 -1      1793    8    0    1
 -2       729       749       613      3418      3065      2993
 -1      1794    8    0    1
 -2       863       862       949      3426      3704      3705
 -1      1795    8    0    1
 -2       864       863       950      3429      3706      3707
 -1      1796    8    0    1
 -2       863       949       950      3705      3708      3706
 -1      1797    8    0    1
 -2       865       864       951      3432      3709      3710
 -1      1798    8    0    1
 -2       864       950       951      3707      3711      3709
 -1      1799    8    0    1
 -2       866       865       952      3435      3712      3713
 -1      1800    8    0    1
 -2       865       951       952      3710      3714      3712
 -1      1801    8    0    1
 -2       867       866       953      3438      3715      3716
 -1      1802    8    0    1
 -2       866       952       953      3713      3717      3715
 -1      1803    8    0    1
 -2       868       867       954      3441      3718      3719
 -1      1804    8    0    1
 -2       867       953       954      3716      3720      3718
 -1      1805    8    0    1
 -2       869       868       955      3444      3721      3722
 -1      1806    8    0    1
 -2       868       954       955      3719      3723      3721
 -1      1807    8    0    1
 -2       870       869       956      3447      3724      3725
 -1      1808    8    0    1
 -2       869       955       956      3722      3726      3724
 -1      1809    8    0    1
 -2       923       939       957      3668      3727      3728
 -1      1810    8    0    1
 -2       939       942       957      3677      3729      3727
 -1      1811    8    0    1
 -2       895       896       958      3527      3730      3731
 -1      1812    8    0    1
 -2       874       859       922      3459      3602      3732
 -1      1813    8    0    1
 -2       875       874       959      3462      3733      3734
 -1      1814    8    0    1
 -2       876       875       960      3465      3735      3736
 -1      1815    8    0    1
 -2       875       959       960      3734      3737      3735
 -1      1816    8    0    1
 -2       877       876       961      3468      3738      3739
 -1      1817    8    0    1
 -2       876       960       961      3736      3740      3738
 -1      1818    8    0    1
 -2       878       877       962      3471      3741      3742
 -1      1819    8    0    1
 -2       877       961       962      3739      3743      3741
 -1      1820    8    0    1
 -2       879       878       963      3474      3744      3745
 -1      1821    8    0    1
 -2       878       962       963      3742      3746      3744
 -1      1822    8    0    1
 -2       880       879       964      3477      3747      3748
 -1      1823    8    0    1
 -2       879       963       964      3745      3749      3747
 -1      1824    8    0    1
 -2       881       880       965      3480      3750      3751
 -1      1825    8    0    1
 -2       880       964       965      3748      3752      3750
 -1      1826    8    0    1
 -2       882       881       966      3483      3753      3754
 -1      1827    8    0    1
 -2       881       965       966      3751      3755      3753
 -1      1828    8    0    1
 -2       883       882       967      3486      3756      3757
 -1      1829    8    0    1
 -2       882       966       967      3754      3758      3756
 -1      1830    8    0    1
 -2       884       883       968      3489      3759      3760
 -1      1831    8    0    1
 -2       883       967       968      3757      3761      3759
 -1      1832    8    0    1
 -2       885       884       969      3492      3762      3763
 -1      1833    8    0    1
 -2       884       968       969      3760      3764      3762
 -1      1834    8    0    1
 -2       886       885       970      3495      3765      3766
 -1      1835    8    0    1
 -2       885       969       970      3763      3767      3765
 -1      1836    8    0    1
 -2       887       886       971      3498      3768      3769
 -1      1837    8    0    1
 -2       886       970       971      3766      3770      3768
 -1      1838    8    0    1
 -2       888       887       972      3501      3771      3772
 -1      1839    8    0    1
 -2       946       888       972      3696      3772      3773
 -1      1840    8    0    1
 -2       887       971       972      3769      3774      3771
 -1      1841    8    0    1
 -2       892       893       973      3515      3775      3776
 -1      1842    8    0    1
 -2       783       782       855      3174      3777      3400
 -1      1843    8    0    1
 -2       889       892       974      3512      3778      3779
 -1      1844    8    0    1
 -2       892       973       974      3776      3780      3778
 -1      1845    8    0    1
 -2       891       890       975      3509      3781      3782
 -1      1846    8    0    1
 -2       893       894       930      3518      3783      3784
 -1      1847    8    0    1
 -2       922       925       976      3612      3785      3786
 -1      1848    8    0    1
 -2       850       846       977      3650      3787      3788
 -1      1849    8    0    1
 -2       850       977       943      3788      3789      3683
 -1      1850    8    0    1
 -2       896       897       978      3530      3790      3791
 -1      1851    8    0    1
 -2       896       978       958      3791      3792      3730
 -1      1852    8    0    1
 -2       897       898       979      3533      3793      3794
 -1      1853    8    0    1
 -2       897       979       978      3794      3795      3790
 -1      1854    8    0    1
 -2       898       899       980      3536      3796      3797
 -1      1855    8    0    1
 -2       898       980       979      3797      3798      3793
 -1      1856    8    0    1
 -2       899       900       981      3539      3799      3800
 -1      1857    8    0    1
 -2       899       981       980      3800      3801      3796
 -1      1858    8    0    1
 -2       900       901       982      3542      3802      3803
 -1      1859    8    0    1
 -2       900       982       981      3803      3804      3799
 -1      1860    8    0    1
 -2       901       902       983      3545      3805      3806
 -1      1861    8    0    1
 -2       901       983       982      3806      3807      3802
 -1      1862    8    0    1
 -2       902       903       984      3548      3808      3809
 -1      1863    8    0    1
 -2       902       984       983      3809      3810      3805
 -1      1864    8    0    1
 -2       903       904       985      3551      3811      3812
 -1      1865    8    0    1
 -2       903       985       984      3812      3813      3808
 -1      1866    8    0    1
 -2       904       905       986      3554      3814      3815
 -1      1867    8    0    1
 -2       904       986       985      3815      3816      3811
 -1      1868    8    0    1
 -2       905       906       987      3557      3817      3818
 -1      1869    8    0    1
 -2       905       987       986      3818      3819      3814
 -1      1870    8    0    1
 -2       906       907       988      3560      3820      3821
 -1      1871    8    0    1
 -2       906       988       987      3821      3822      3817
 -1      1872    8    0    1
 -2       907       908       989      3563      3823      3824
 -1      1873    8    0    1
 -2       907       989       988      3824      3825      3820
 -1      1874    8    0    1
 -2       908       909       990      3566      3826      3827
 -1      1875    8    0    1
 -2       908       990       989      3827      3828      3823
 -1      1876    8    0    1
 -2       909       910       991      3569      3829      3830
 -1      1877    8    0    1
 -2       909       991       990      3830      3831      3826
 -1      1878    8    0    1
 -2       910       911       937      3572      3659      3832
 -1      1879    8    0    1
 -2       921       838       992      3680      3833      3834
 -1      1880    8    0    1
 -2       838       944       992      3688      3835      3833
 -1      1881    8    0    1
 -2       941       918       993      3673      3836      3837
 -1      1882    8    0    1
 -2       919       913       994      3594      3838      3839
 -1      1883    8    0    1
 -2       919       994       926      3839      3840      3678
 -1      1884    8    0    1
 -2       848       849       995      3640      3841      3842
 -1      1885    8    0    1
 -2       849       934       995      3642      3843      3841
 -1      1886    8    0    1
 -2       931       938       996      3664      3844      3845
 -1      1887    8    0    1
 -2       938       946       996      3698      3846      3844
 -1      1888    8    0    1
 -2       857       921       997      3599      3847      3848
 -1      1889    8    0    1
 -2       942       857       997      3675      3848      3849
 -1      1890    8    0    1
 -2       921       992       997      3834      3850      3847
 -1      1891    8    0    1
 -2       858       840       873      3613      3695      3851
 -1      1892    8    0    1
 -2       927       847       933      3685      3638      3852
 -1      1893    8    0    1
 -2       851       852       998      3384      3853      3854
 -1      1894    8    0    1
 -2       852       935       998      3647      3855      3853
 -1      1895    8    0    1
 -2       861       924       999      3608      3856      3857
 -1      1896    8    0    1
 -2       890       889      1000      3506      3858      3859
 -1      1897    8    0    1
 -2       975       890      1000      3781      3859      3860
 -1      1898    8    0    1
 -2       889       974      1000      3779      3861      3858
 -1      1899    8    0    1
 -2       873       895       858      3524      3862      3851
 -1      1900    8    0    1
 -2       937       851       998      3661      3854      3863
 -1      1901    8    0    1
 -2       862       861      1001      3423      3864      3865
 -1      1902    8    0    1
 -2       861       999      1001      3857      3866      3864
 -1      1903    8    0    1
 -2       856       941       945      3679      3867      3692
 -1      1904    8    0    1
 -2       924       923      1002      3682      3868      3869
 -1      1905    8    0    1
 -2       999       924      1002      3856      3869      3870
 -1      1906    8    0    1
 -2       923       957      1002      3728      3871      3868
 -1      1907    8    0    1
 -2       925       860      1003      3624      3872      3873
 -1      1908    8    0    1
 -2       976       925      1003      3785      3873      3874
 -1      1909    8    0    1
 -2       860       948      1003      3703      3875      3872
 -1      1910    8    0    1
 -2       910       937       991      3832      3876      3829
 -1      1911    8    0    1
 -2       947       926      1004      3699      3877      3878
 -1      1912    8    0    1
 -2       948       927      1005      3702      3879      3880
 -1      1913    8    0    1
 -2       929       917      1006      3625      3881      3882
 -1      1914    8    0    1
 -2       930       872      1007      3628      3883      3884
 -1      1915    8    0    1
 -2       872       947      1007      3701      3885      3883
 -1      1916    8    0    1
 -2       932       891      1008      3634      3886      3887
 -1      1917    8    0    1
 -2       891       975      1008      3782      3888      3886
 -1      1918    8    0    1
 -2       870       956      1006      3725      3889      3890
 -1      1919    8    0    1
 -2       871       870      1006      3450      3890      3891
 -1      1920    8    0    1
 -2       991       937      1009      3876      3892      3893
 -1      1921    8    0    1
 -2       937       998      1009      3863      3894      3892
 -1      1922    8    0    1
 -2       825       932       936      3636      3895      3655
 -1      1923    8    0    1
 -2       874       922       959      3732      3896      3733
 -1      1924    8    0    1
 -2       930       894       853      3783      3897      3630
 -1      1925    8    0    1
 -2       934       912      1010      3643      3898      3899
 -1      1926    8    0    1
 -2       917       928      1006      3622      3900      3881
 -1      1927    8    0    1
 -2       935       931      1011      3645      3901      3902
 -1      1928    8    0    1
 -2       931       996      1011      3845      3903      3901
 -1      1929    8    0    1
 -2       913       929      1012      3627      3904      3905
 -1      1930    8    0    1
 -2       943       977      1013      3789      3906      3907
 -1      1931    8    0    1
 -2       912       936      1014      3654      3908      3909
 -1      1932    8    0    1
 -2       912      1014      1010      3909      3910      3898
 -1      1933    8    0    1
 -2      1004       926      1015      3877      3911      3912
 -1      1934    8    0    1
 -2       926       994      1015      3840      3913      3911
 -1      1935    8    0    1
 -2       994       913      1012      3838      3905      3914
 -1      1936    8    0    1
 -2       894       915       853      3644      3584      3897
 -1      1937    8    0    1
 -2       993       918      1016      3836      3915      3916
 -1      1938    8    0    1
 -2       918       940      1016      3671      3917      3915
 -1      1939    8    0    1
 -2       848       995       940      3842      3918      3672
 -1      1940    8    0    1
 -2       945       941       977      3867      3919      3920
 -1      1941    8    0    1
 -2       862      1001       949      3865      3921      3704
 -1      1942    8    0    1
 -2       977       846       945      3787      3691      3920
 -1      1943    8    0    1
 -2       858       895       958      3862      3731      3922
 -1      1944    8    0    1
 -2       944       943      1017      3686      3923      3924
 -1      1945    8    0    1
 -2       943      1013      1017      3907      3925      3923
 -1      1946    8    0    1
 -2      1005       927       958      3879      3926      3927
 -1      1947    8    0    1
 -2       973       893      1007      3775      3928      3929
 -1      1948    8    0    1
 -2       871      1006       928      3891      3900      3930
 -1      1949    8    0    1
 -2      1007       893       930      3928      3784      3884
 -1      1950    8    0    1
 -2       948      1005      1018      3880      3931      3932
 -1      1951    8    0    1
 -2       929      1006      1019      3882      3933      3934
 -1      1952    8    0    1
 -2      1012       929      1019      3904      3934      3935
 -1      1953    8    0    1
 -2      1006       956      1019      3889      3936      3933
 -1      1954    8    0    1
 -2       840       751       920      3337      3596      3937
 -1      1955    8    0    1
 -2       782       821       855      3620      3399      3777
 -1      1956    8    0    1
 -2       950       949      1020      3708      3938      3939
 -1      1957    8    0    1
 -2       951       950      1021      3711      3940      3941
 -1      1958    8    0    1
 -2       950      1020      1021      3939      3942      3940
 -1      1959    8    0    1
 -2       952       951      1022      3714      3943      3944
 -1      1960    8    0    1
 -2       951      1021      1022      3941      3945      3943
 -1      1961    8    0    1
 -2       953       952      1023      3717      3946      3947
 -1      1962    8    0    1
 -2       952      1022      1023      3944      3948      3946
 -1      1963    8    0    1
 -2       954       953      1024      3720      3949      3950
 -1      1964    8    0    1
 -2       953      1023      1024      3947      3951      3949
 -1      1965    8    0    1
 -2       955       954      1025      3723      3952      3953
 -1      1966    8    0    1
 -2       954      1024      1025      3950      3954      3952
 -1      1967    8    0    1
 -2       956       955      1026      3726      3955      3956
 -1      1968    8    0    1
 -2       955      1025      1026      3953      3957      3955
 -1      1969    8    0    1
 -2       957       942      1027      3729      3958      3959
 -1      1970    8    0    1
 -2       942       997      1027      3849      3960      3958
 -1      1971    8    0    1
 -2      1013       977       993      3906      3961      3962
 -1      1972    8    0    1
 -2       961       960      1028      3740      3963      3964
 -1      1973    8    0    1
 -2       962       961      1029      3743      3965      3966
 -1      1974    8    0    1
 -2       961      1028      1029      3964      3967      3965
 -1      1975    8    0    1
 -2       963       962      1030      3746      3968      3969
 -1      1976    8    0    1
 -2       962      1029      1030      3966      3970      3968
 -1      1977    8    0    1
 -2       964       963      1031      3749      3971      3972
 -1      1978    8    0    1
 -2       963      1030      1031      3969      3973      3971
 -1      1979    8    0    1
 -2       965       964      1032      3752      3974      3975
 -1      1980    8    0    1
 -2       964      1031      1032      3972      3976      3974
 -1      1981    8    0    1
 -2       966       965      1033      3755      3977      3978
 -1      1982    8    0    1
 -2       965      1032      1033      3975      3979      3977
 -1      1983    8    0    1
 -2       967       966      1034      3758      3980      3981
 -1      1984    8    0    1
 -2       966      1033      1034      3978      3982      3980
 -1      1985    8    0    1
 -2       968       967      1035      3761      3983      3984
 -1      1986    8    0    1
 -2       967      1034      1035      3981      3985      3983
 -1      1987    8    0    1
 -2       969       968      1036      3764      3986      3987
 -1      1988    8    0    1
 -2       968      1035      1036      3984      3988      3986
 -1      1989    8    0    1
 -2       970       969      1037      3767      3989      3990
 -1      1990    8    0    1
 -2       969      1036      1037      3987      3991      3989
 -1      1991    8    0    1
 -2       971       970      1038      3770      3992      3993
 -1      1992    8    0    1
 -2       970      1037      1038      3990      3994      3992
 -1      1993    8    0    1
 -2       974       973      1039      3780      3995      3996
 -1      1994    8    0    1
 -2      1005       958       978      3927      3792      3997
 -1      1995    8    0    1
 -2       979       980      1040      3798      3998      3999
 -1      1996    8    0    1
 -2       934      1010      1041      3899      4000      4001
 -1      1997    8    0    1
 -2       934      1041       995      4001      4002      3843
 -1      1998    8    0    1
 -2       980       981      1042      3801      4003      4004
 -1      1999    8    0    1
 -2       980      1042      1040      4004      4005      3998
 -1      2000    8    0    1
 -2       981       982      1043      3804      4006      4007
 -1      2001    8    0    1
 -2       981      1043      1042      4007      4008      4003
 -1      2002    8    0    1
 -2       982       983      1044      3807      4009      4010
 -1      2003    8    0    1
 -2       982      1044      1043      4010      4011      4006
 -1      2004    8    0    1
 -2       983       984      1045      3810      4012      4013
 -1      2005    8    0    1
 -2       983      1045      1044      4013      4014      4009
 -1      2006    8    0    1
 -2       984       985      1046      3813      4015      4016
 -1      2007    8    0    1
 -2       984      1046      1045      4016      4017      4012
 -1      2008    8    0    1
 -2       985       986      1047      3816      4018      4019
 -1      2009    8    0    1
 -2       985      1047      1046      4019      4020      4015
 -1      2010    8    0    1
 -2       986       987      1048      3819      4021      4022
 -1      2011    8    0    1
 -2       986      1048      1047      4022      4023      4018
 -1      2012    8    0    1
 -2       987       988      1049      3822      4024      4025
 -1      2013    8    0    1
 -2       987      1049      1048      4025      4026      4021
 -1      2014    8    0    1
 -2       988       989      1050      3825      4027      4028
 -1      2015    8    0    1
 -2       988      1050      1049      4028      4029      4024
 -1      2016    8    0    1
 -2       989       990      1051      3828      4030      4031
 -1      2017    8    0    1
 -2       989      1051      1050      4031      4032      4027
 -1      2018    8    0    1
 -2       990       991      1052      3831      4033      4034
 -1      2019    8    0    1
 -2      1051       990      1052      4030      4034      4035
 -1      2020    8    0    1
 -2       991      1009      1052      3893      4036      4033
 -1      2021    8    0    1
 -2       992       944      1053      3835      4037      4038
 -1      2022    8    0    1
 -2       944      1017      1053      3924      4039      4037
 -1      2023    8    0    1
 -2       994      1012      1054      3914      4040      4041
 -1      2024    8    0    1
 -2       994      1054      1015      4041      4042      3913
 -1      2025    8    0    1
 -2       977       941       993      3919      3837      3961
 -1      2026    8    0    1
 -2       949      1001      1055      3921      4043      4044
 -1      2027    8    0    1
 -2       949      1055      1020      4044      4045      3938
 -1      2028    8    0    1
 -2       996       946      1056      3846      4046      4047
 -1      2029    8    0    1
 -2       946       972      1056      3773      4048      4046
 -1      2030    8    0    1
 -2       998       935      1057      3855      4049      4050
 -1      2031    8    0    1
 -2      1009       998      1057      3894      4050      4051
 -1      2032    8    0    1
 -2       935      1011      1057      3902      4052      4049
 -1      2033    8    0    1
 -2       973      1007      1039      3929      4053      3995
 -1      2034    8    0    1
 -2      1001       999      1058      3866      4054      4055
 -1      2035    8    0    1
 -2      1001      1058      1055      4055      4056      4043
 -1      2036    8    0    1
 -2       940       995      1059      3918      4057      4058
 -1      2037    8    0    1
 -2      1016       940      1059      3917      4058      4059
 -1      2038    8    0    1
 -2       995      1041      1059      4002      4060      4057
 -1      2039    8    0    1
 -2       936       932      1060      3895      4061      4062
 -1      2040    8    0    1
 -2      1014       936      1060      3908      4062      4063
 -1      2041    8    0    1
 -2       932      1008      1060      3887      4064      4061
 -1      2042    8    0    1
 -2      1007       947      1039      3885      4065      4053
 -1      2043    8    0    1
 -2      1013       993      1061      3962      4066      4067
 -1      2044    8    0    1
 -2       993      1016      1061      3916      4068      4066
 -1      2045    8    0    1
 -2      1005       978       979      3997      3795      4069
 -1      2046    8    0    1
 -2      1005       979      1040      4069      3999      4070
 -1      2047    8    0    1
 -2      1012      1019      1054      3935      4071      4040
 -1      2048    8    0    1
 -2       960       959      1062      3737      4072      4073
 -1      2049    8    0    1
 -2       928       854       871      3623      4074      3930
 -1      2050    8    0    1
 -2       957      1027      1063      3959      4075      4076
 -1      2051    8    0    1
 -2       957      1063      1002      4076      4077      3871
 -1      2052    8    0    1
 -2      1008       975      1064      3888      4078      4079
 -1      2053    8    0    1
 -2      1005      1040      1018      4070      4080      3931
 -1      2054    8    0    1
 -2       933       858       958      3639      3922      4081
 -1      2055    8    0    1
 -2       974      1039      1065      3996      4082      4083
 -1      2056    8    0    1
 -2       974      1065      1000      4083      4084      3861
 -1      2057    8    0    1
 -2       972       971      1066      3774      4085      4086
 -1      2058    8    0    1
 -2      1056       972      1066      4048      4086      4087
 -1      2059    8    0    1
 -2       971      1038      1066      3993      4088      4085
 -1      2060    8    0    1
 -2       956      1026      1019      3956      4089      3936
 -1      2061    8    0    1
 -2       959       922       976      3896      3786      4090
 -1      2062    8    0    1
 -2       959       976      1062      4090      4091      4072
 -1      2063    8    0    1
 -2      1064       975      1067      4078      4092      4093
 -1      2064    8    0    1
 -2       975      1000      1067      3860      4094      4092
 -1      2065    8    0    1
 -2       933       958       927      4081      3926      3852
 -1      2066    8    0    1
 -2      1062       976      1003      4091      3874      4095
 -1      2067    8    0    1
 -2      1011       996      1068      3903      4096      4097
 -1      2068    8    0    1
 -2       996      1056      1068      4047      4098      4096
 -1      2069    8    0    1
 -2      1041      1010      1069      4000      4099      4100
 -1      2070    8    0    1
 -2      1010      1014      1070      3910      4101      4102
 -1      2071    8    0    1
 -2      1010      1070      1069      4102      4103      4099
 -1      2072    8    0    1
 -2       947      1004      1039      3878      4104      4065
 -1      2073    8    0    1
 -2       960      1062      1028      4073      4105      3963
 -1      2074    8    0    1
 -2       997       992      1071      3850      4106      4107
 -1      2075    8    0    1
 -2      1027       997      1071      3960      4107      4108
 -1      2076    8    0    1
 -2       992      1053      1071      4038      4109      4106
 -1      2077    8    0    1
 -2      1003       948      1072      3875      4110      4111
 -1      2078    8    0    1
 -2      1062      1003      1072      4095      4111      4112
 -1      2079    8    0    1
 -2       948      1018      1072      3932      4113      4110
 -1      2080    8    0    1
 -2      1017      1013      1061      3925      4067      4114
 -1      2081    8    0    1
 -2       999      1002      1063      3870      4077      4115
 -1      2082    8    0    1
 -2      1058       999      1063      4054      4115      4116
 -1      2083    8    0    1
 -2      1039      1004      1073      4104      4117      4118
 -1      2084    8    0    1
 -2      1039      1073      1065      4118      4119      4082
 -1      2085    8    0    1
 -2      1073      1004      1015      4117      3912      4120
 -1      2086    8    0    1
 -2      1029      1028      1074      3967      4121      4122
 -1      2087    8    0    1
 -2      1021      1020      1075      3942      4123      4124
 -1      2088    8    0    1
 -2      1063      1027      1076      4075      4125      4126
 -1      2089    8    0    1
 -2      1027      1071      1076      4108      4127      4125
 -1      2090    8    0    1
 -2      1017      1061      1077      4114      4128      4129
 -1      2091    8    0    1
 -2      1018      1040      1078      4080      4130      4131
 -1      2092    8    0    1
 -2      1040      1042      1078      4005      4132      4130
 -1      2093    8    0    1
 -2      1022      1021      1079      3945      4133      4134
 -1      2094    8    0    1
 -2      1021      1075      1079      4124      4135      4133
 -1      2095    8    0    1
 -2      1023      1022      1080      3948      4136      4137
 -1      2096    8    0    1
 -2      1022      1079      1080      4134      4138      4136
 -1      2097    8    0    1
 -2      1024      1023      1081      3951      4139      4140
 -1      2098    8    0    1
 -2      1023      1080      1081      4137      4141      4139
 -1      2099    8    0    1
 -2      1025      1024      1082      3954      4142      4143
 -1      2100    8    0    1
 -2      1024      1081      1082      4140      4144      4142
 -1      2101    8    0    1
 -2      1026      1025      1083      3957      4145      4146
 -1      2102    8    0    1
 -2      1025      1082      1083      4143      4147      4145
 -1      2103    8    0    1
 -2      1020      1055      1084      4045      4148      4149
 -1      2104    8    0    1
 -2      1020      1084      1075      4149      4150      4123
 -1      2105    8    0    1
 -2      1019      1026      1054      4089      4151      4071
 -1      2106    8    0    1
 -2      1030      1029      1085      3970      4152      4153
 -1      2107    8    0    1
 -2      1029      1074      1085      4122      4154      4152
 -1      2108    8    0    1
 -2      1031      1030      1086      3973      4155      4156
 -1      2109    8    0    1
 -2      1030      1085      1086      4153      4157      4155
 -1      2110    8    0    1
 -2      1032      1031      1087      3976      4158      4159
 -1      2111    8    0    1
 -2      1031      1086      1087      4156      4160      4158
 -1      2112    8    0    1
 -2      1033      1032      1088      3979      4161      4162
 -1      2113    8    0    1
 -2      1032      1087      1088      4159      4163      4161
 -1      2114    8    0    1
 -2      1034      1033      1089      3982      4164      4165
 -1      2115    8    0    1
 -2      1033      1088      1089      4162      4166      4164
 -1      2116    8    0    1
 -2      1035      1034      1090      3985      4167      4168
 -1      2117    8    0    1
 -2      1034      1089      1090      4165      4169      4167
 -1      2118    8    0    1
 -2      1036      1035      1091      3988      4170      4171
 -1      2119    8    0    1
 -2      1035      1090      1091      4168      4172      4170
 -1      2120    8    0    1
 -2      1037      1036      1092      3991      4173      4174
 -1      2121    8    0    1
 -2      1036      1091      1092      4171      4175      4173
 -1      2122    8    0    1
 -2      1038      1037      1093      3994      4176      4177
 -1      2123    8    0    1
 -2      1037      1092      1093      4174      4178      4176
 -1      2124    8    0    1
 -2      1055      1058      1094      4056      4179      4180
 -1      2125    8    0    1
 -2      1055      1094      1084      4180      4181      4148
 -1      2126    8    0    1
 -2      1054      1026      1083      4151      4146      4182
 -1      2127    8    0    1
 -2      1042      1043      1095      4008      4183      4184
 -1      2128    8    0    1
 -2      1042      1095      1078      4184      4185      4132
 -1      2129    8    0    1
 -2      1043      1044      1096      4011      4186      4187
 -1      2130    8    0    1
 -2      1043      1096      1095      4187      4188      4183
 -1      2131    8    0    1
 -2      1044      1045      1097      4014      4189      4190
 -1      2132    8    0    1
 -2      1044      1097      1096      4190      4191      4186
 -1      2133    8    0    1
 -2      1045      1046      1098      4017      4192      4193
 -1      2134    8    0    1
 -2      1045      1098      1097      4193      4194      4189
 -1      2135    8    0    1
 -2      1046      1047      1099      4020      4195      4196
 -1      2136    8    0    1
 -2      1046      1099      1098      4196      4197      4192
 -1      2137    8    0    1
 -2      1047      1048      1100      4023      4198      4199
 -1      2138    8    0    1
 -2      1047      1100      1099      4199      4200      4195
 -1      2139    8    0    1
 -2      1048      1049      1101      4026      4201      4202
 -1      2140    8    0    1
 -2      1048      1101      1100      4202      4203      4198
 -1      2141    8    0    1
 -2      1049      1050      1102      4029      4204      4205
 -1      2142    8    0    1
 -2      1049      1102      1101      4205      4206      4201
 -1      2143    8    0    1
 -2      1050      1051      1103      4032      4207      4208
 -1      2144    8    0    1
 -2      1050      1103      1102      4208      4209      4204
 -1      2145    8    0    1
 -2      1053      1017      1077      4039      4129      4210
 -1      2146    8    0    1
 -2      1015      1054      1104      4042      4211      4212
 -1      2147    8    0    1
 -2      1073      1015      1104      4120      4212      4213
 -1      2148    8    0    1
 -2      1054      1083      1104      4182      4214      4211
 -1      2149    8    0    1
 -2      1028      1062      1072      4105      4112      4215
 -1      2150    8    0    1
 -2      1041      1069      1105      4100      4216      4217
 -1      2151    8    0    1
 -2      1041      1105      1059      4217      4218      4060
 -1      2152    8    0    1
 -2      1008      1064      1106      4079      4219      4220
 -1      2153    8    0    1
 -2      1008      1106      1060      4220      4221      4064
 -1      2154    8    0    1
 -2      1058      1063      1107      4116      4222      4223
 -1      2155    8    0    1
 -2      1094      1058      1107      4179      4223      4224
 -1      2156    8    0    1
 -2      1063      1076      1107      4126      4225      4222
 -1      2157    8    0    1
 -2      1061      1016      1108      4068      4226      4227
 -1      2158    8    0    1
 -2      1077      1061      1108      4128      4227      4228
 -1      2159    8    0    1
 -2      1016      1059      1108      4059      4229      4226
 -1      2160    8    0    1
 -2      1064      1067      1109      4093      4230      4231
 -1      2161    8    0    1
 -2      1018      1078      1074      4131      4232      4233
 -1      2162    8    0    1
 -2      1028      1072      1074      4215      4234      4121
 -1      2163    8    0    1
 -2      1072      1018      1074      4113      4233      4234
 -1      2164    8    0    1
 -2       749       871       854      3665      4074      3393
 -1      2165    8    0    1
 -2      1009      1057      1110      4051      4235      4236
 -1      2166    8    0    1
 -2      1009      1110      1052      4236      4237      4036
 -1      2167    8    0    1
 -2      1066      1038      1111      4088      4238      4239
 -1      2168    8    0    1
 -2      1038      1093      1111      4177      4240      4238
 -1      2169    8    0    1
 -2      1069      1070      1112      4103      4241      4242
 -1      2170    8    0    1
 -2      1014      1060      1113      4063      4243      4244
 -1      2171    8    0    1
 -2      1070      1014      1113      4101      4244      4245
 -1      2172    8    0    1
 -2      1060      1106      1113      4221      4246      4243
 -1      2173    8    0    1
 -2      1051      1052      1114      4035      4247      4248
 -1      2174    8    0    1
 -2      1103      1051      1114      4207      4248      4249
 -1      2175    8    0    1
 -2      1052      1110      1114      4237      4250      4247
 -1      2176    8    0    1
 -2      1071      1053      1076      4109      4251      4127
 -1      2177    8    0    1
 -2      1073      1104      1115      4213      4252      4253
 -1      2178    8    0    1
 -2      1073      1115      1065      4253      4254      4119
 -1      2179    8    0    1
 -2      1076      1053      1077      4251      4210      4255
 -1      2180    8    0    1
 -2      1057      1011      1068      4052      4097      4256
 -1      2181    8    0    1
 -2      1056      1066      1116      4087      4257      4258
 -1      2182    8    0    1
 -2      1068      1056      1116      4098      4258      4259
 -1      2183    8    0    1
 -2      1066      1111      1116      4239      4260      4257
 -1      2184    8    0    1
 -2      1105      1069      1117      4216      4261      4262
 -1      2185    8    0    1
 -2      1069      1112      1117      4242      4263      4261
 -1      2186    8    0    1
 -2      1000      1065      1067      4084      4264      4094
 -1      2187    8    0    1
 -2      1106      1064      1118      4219      4265      4266
 -1      2188    8    0    1
 -2      1064      1109      1118      4231      4267      4265
 -1      2189    8    0    1
 -2      1075      1084      1112      4150      4268      4269
 -1      2190    8    0    1
 -2      1109      1067      1115      4230      4270      4271
 -1      2191    8    0    1
 -2      1080      1079      1119      4138      4272      4273
 -1      2192    8    0    1
 -2      1081      1080      1118      4141      4274      4275
 -1      2193    8    0    1
 -2      1082      1081      1109      4144      4276      4277
 -1      2194    8    0    1
 -2      1085      1074      1095      4154      4278      4279
 -1      2195    8    0    1
 -2      1112      1070      1120      4241      4280      4281
 -1      2196    8    0    1
 -2      1070      1113      1120      4245      4282      4280
 -1      2197    8    0    1
 -2      1086      1085      1096      4157      4283      4284
 -1      2198    8    0    1
 -2      1087      1086      1097      4160      4285      4286
 -1      2199    8    0    1
 -2      1088      1087      1098      4163      4287      4288
 -1      2200    8    0    1
 -2      1089      1088      1099      4166      4289      4290
 -1      2201    8    0    1
 -2      1090      1089      1100      4169      4291      4292
 -1      2202    8    0    1
 -2      1091      1090      1101      4172      4293      4294
 -1      2203    8    0    1
 -2      1092      1091      1102      4175      4295      4296
 -1      2204    8    0    1
 -2      1093      1092      1103      4178      4297      4298
 -1      2205    8    0    1
 -2      1084      1094      1117      4181      4299      4300
 -1      2206    8    0    1
 -2      1096      1097      1086      4191      4285      4284
 -1      2207    8    0    1
 -2      1097      1098      1087      4194      4287      4286
 -1      2208    8    0    1
 -2      1098      1099      1088      4197      4289      4288
 -1      2209    8    0    1
 -2      1099      1100      1089      4200      4291      4290
 -1      2210    8    0    1
 -2      1100      1101      1090      4203      4293      4292
 -1      2211    8    0    1
 -2      1101      1102      1091      4206      4295      4294
 -1      2212    8    0    1
 -2      1102      1103      1092      4209      4297      4296
 -1      2213    8    0    1
 -2      1057      1068      1110      4256      4301      4235
 -1      2214    8    0    1
 -2      1095      1074      1078      4278      4232      4185
 -1      2215    8    0    1
 -2      1109      1081      1118      4276      4275      4267
 -1      2216    8    0    1
 -2      1059      1105      1108      4218      4302      4229
 -1      2217    8    0    1
 -2      1067      1065      1115      4264      4254      4270
 -1      2218    8    0    1
 -2      1095      1096      1085      4188      4283      4279
 -1      2219    8    0    1
 -2      1112      1084      1117      4268      4300      4263
 -1      2220    8    0    1
 -2      1075      1112      1120      4269      4281      4303
 -1      2221    8    0    1
 -2      1076      1077      1107      4255      4304      4225
 -1      2222    8    0    1
 -2      1082      1109      1115      4277      4271      4305
 -1      2223    8    0    1
 -2      1093      1103      1114      4298      4249      4306
 -1      2224    8    0    1
 -2      1077      1108      1121      4228      4307      4308
 -1      2225    8    0    1
 -2      1080      1119      1118      4273      4309      4274
 -1      2226    8    0    1
 -2      1079      1075      1120      4135      4303      4310
 -1      2227    8    0    1
 -2      1083      1082      1115      4147      4305      4311
 -1      2228    8    0    1
 -2      1107      1077      1121      4304      4308      4312
 -1      2229    8    0    1
 -2       920       796       840      3660      3694      3937
 -1      2230    8    0    1
 -2      1105      1117      1121      4262      4313      4314
 -1      2231    8    0    1
 -2      1094      1107      1121      4224      4312      4315
 -1      2232    8    0    1
 -2      1079      1120      1119      4310      4316      4272
 -1      2233    8    0    1
 -2      1108      1105      1121      4302      4314      4307
 -1      2234    8    0    1
 -2      1106      1118      1119      4266      4309      4317
 -1      2235    8    0    1
 -2      1094      1121      1117      4315      4313      4299
 -1      2236    8    0    1
 -2      1093      1114      1111      4306      4318      4240
 -1      2237    8    0    1
 -2      1113      1106      1119      4246      4317      4319
 -1      2238    8    0    1
 -2      1113      1119      1120      4319      4316      4282
 -1      2239    8    0    1
 -2      1110      1068      1116      4301      4259      4320
 -1      2240    8    0    1
 -2      1110      1116      1114      4320      4321      4250
 -1      2241    8    0    1
 -2      1104      1083      1115      4214      4311      4252
 -1      2242    8    0    1
 -2      1111      1114      1116      4318      4321      4260
 -3
    1PSTEP                         1           1           1          
  100CL  101 1.000000000        4321                     0    1           1
 -4  DISP        4    1
 -5  D1          1    2    1    0
 -5  D2          1    2    2    0
 -5  D3          1    2    3    0
 -5  ALL         1    2    0    0    1ALL
 -1         1 7.29316E-03-1.06369E-03-4.56640E-14
 -1         2 9.36125E-03-2.28079E-04-5.44268E-14
 -1         3 1.49114E-02-1.94306E-04-1.79799E-13
 -1         4 1.54856E-02-1.62287E-03-1.87239E-13
 -1         5 0.00000E+00 0.00000E+00 0.00000E+00
 -1         6 0.00000E+00 0.00000E+00 0.00000E+00
 -1         7 0.00000E+00 0.00000E+00 0.00000E+00
 -1         8 0.00000E+00 0.00000E+00 0.00000E+00
 -1         9 0.00000E+00 0.00000E+00 0.00000E+00
 -1        10 0.00000E+00 0.00000E+00 0.00000E+00
 -1        11 0.00000E+00 0.00000E+00 0.00000E+00
 -1        12 0.00000E+00 0.00000E+00 0.00000E+00
 -1        13 0.00000E+00 0.00000E+00 0.00000E+00
 -1        14 0.00000E+00 0.00000E+00 0.00000E+00
 -1        15 0.00000E+00 0.00000E+00 0.00000E+00
 -1        16 0.00000E+00 0.00000E+00 0.00000E+00
 -1        17 0.00000E+00 0.00000E+00 0.00000E+00
 -1        18 0.00000E+00 0.00000E+00 0.00000E+00
 -1        19 0.00000E+00 0.00000E+00 0.00000E+00
 -1        20 0.00000E+00 0.00000E+00 0.00000E+00
 -1        21 0.00000E+00 0.00000E+00 0.00000E+00
 -1        22 0.00000E+00 0.00000E+00 0.00000E+00
 -1        23 4.09190E-04-2.58372E-04 5.45286E-17
 -1        24 7.00127E-04-3.95840E-04-9.18014E-17
 -1        25 9.69834E-04-4.89886E-04-4.34196E-16
 -1        26 1.23460E-03-5.54720E-04-9.70029E-16
 -1        27 1.49921E-03-5.99401E-04-1.69460E-15
 -1        28 1.76601E-03-6.29245E-04-2.60427E-15
 -1        29 2.03640E-03-6.47935E-04-3.69794E-15
 -1        30 2.31130E-03-6.58225E-04-4.97108E-15
 -1        31 2.59154E-03-6.62327E-04-6.41869E-15
 -1        32 2.87796E-03-6.62171E-04-8.03787E-15
 -1        33 3.17157E-03-6.59629E-04-9.82096E-15
 -1        34 3.47359E-03-6.56741E-04-1.17619E-14
 -1        35 3.78548E-03-6.55968E-04-1.38622E-14
 -1        36 4.10883E-03-6.60463E-04-1.61143E-14
 -1        37 4.44507E-03-6.74346E-04-1.85146E-14
 -1        38 4.79498E-03-7.02841E-04-2.10647E-14
 -1        39 5.15768E-03-7.52064E-04-2.37614E-14
 -1        40 5.52936E-03-8.27974E-04-2.66092E-14
 -1        41 5.90195E-03-9.33932E-04-2.96102E-14
 -1        42 6.26298E-03-1.06665E-03-3.27709E-14
 -1        43 6.59830E-03-1.21178E-03-3.61069E-14
 -1        44 6.89875E-03-1.34276E-03-3.96321E-14
 -1        45 7.16793E-03-1.42772E-03-4.33563E-14
 -1        46 7.42451E-03-1.44413E-03-4.72757E-14
 -1        47 7.69403E-03-1.39208E-03-5.13825E-14
 -1        48 7.99507E-03-1.29425E-03-5.56644E-14
 -1        49 8.33113E-03-1.18254E-03-6.01025E-14
 -1        50 8.69301E-03-1.08342E-03-6.46864E-14
 -1        51 9.06661E-03-1.01114E-03-6.93975E-14
 -1        52 9.43958E-03-9.68920E-04-7.42339E-14
 -1        53 9.80401E-03-9.53398E-04-7.91825E-14
 -1        54 1.01563E-02-9.58709E-04-8.42373E-14
 -1        55 1.04958E-02-9.78907E-04-8.94005E-14
 -1        56 1.08234E-02-1.00901E-03-9.46500E-14
 -1        57 1.11410E-02-1.04526E-03-9.99932E-14
 -1        58 1.14503E-02-1.08498E-03-1.05413E-13
 -1        59 1.17531E-02-1.12636E-03-1.10899E-13
 -1        60 1.20508E-02-1.16825E-03-1.16470E-13
 -1        61 1.23448E-02-1.20994E-03-1.22112E-13
 -1        62 1.26360E-02-1.25102E-03-1.27812E-13
 -1        63 1.29252E-02-1.29131E-03-1.33577E-13
 -1        64 1.32130E-02-1.33074E-03-1.39406E-13
 -1        65 1.34998E-02-1.36935E-03-1.45289E-13
 -1        66 1.37860E-02-1.40720E-03-1.51221E-13
 -1        67 1.40718E-02-1.44439E-03-1.57208E-13
 -1        68 1.43574E-02-1.48103E-03-1.63218E-13
 -1        69 1.46430E-02-1.51725E-03-1.69260E-13
 -1        70 1.49285E-02-1.55317E-03-1.75323E-13
 -1        71 1.52142E-02-1.58892E-03-1.81419E-13
 -1        72 4.11641E-04 2.59080E-04 8.03868E-17
 -1        73 7.00038E-04 3.98573E-04-1.97697E-17
 -1        74 9.70503E-04 4.91756E-04-2.96038E-16
 -1        75 1.23562E-03 5.56637E-04-7.50901E-16
 -1        76 1.50040E-03 6.01545E-04-1.38386E-15
 -1        77 1.76732E-03 6.31765E-04-2.19406E-15
 -1        78 2.03772E-03 6.51009E-04-3.17888E-15
 -1        79 2.31252E-03 6.62086E-04-4.33592E-15
 -1        80 2.59239E-03 6.67283E-04-5.66101E-15
 -1        81 2.87797E-03 6.68610E-04-7.15487E-15
 -1        82 3.16993E-03 6.67998E-04-8.82221E-15
 -1        83 3.46890E-03 6.67471E-04-1.06583E-14
 -1        84 3.77551E-03 6.69287E-04-1.26572E-14
 -1        85 4.09010E-03 6.76045E-04-1.48200E-14
 -1        86 4.41252E-03 6.90670E-04-1.71474E-14
 -1        87 4.74171E-03 7.16221E-04-1.96372E-14
 -1        88 5.07518E-03 7.55360E-04-2.22820E-14
 -1        89 5.40869E-03 8.09387E-04-2.50719E-14
 -1        90 5.73625E-03 8.76844E-04-2.80065E-14
 -1        91 6.05101E-03 9.52025E-04-3.10834E-14
 -1        92 6.34727E-03 1.02427E-03-3.43129E-14
 -1        93 6.62327E-03 1.07916E-03-3.77124E-14
 -1        94 6.88322E-03 1.10235E-03-4.12940E-14
 -1        95 7.13707E-03 1.08473E-03-4.50467E-14
 -1        96 7.39714E-03 1.02630E-03-4.89563E-14
 -1        97 7.67342E-03 9.36199E-04-5.30171E-14
 -1        98 7.97015E-03 8.28776E-04-5.72231E-14
 -1        99 8.28559E-03 7.18415E-04-6.15578E-14
 -1       100 8.61409E-03 6.15764E-04-6.60266E-14
 -1       101 8.94889E-03 5.26539E-04-7.06241E-14
 -1       102 9.28413E-03 4.52245E-04-7.53221E-14
 -1       103 9.61573E-03 3.91679E-04-8.01211E-14
 -1       104 9.94142E-03 3.42338E-04-8.50143E-14
 -1       105 1.02604E-02 3.01403E-04-9.00081E-14
 -1       106 1.05726E-02 2.66291E-04-9.51064E-14
 -1       107 1.08789E-02 2.34885E-04-1.00313E-13
 -1       108 1.11800E-02 2.05578E-04-1.05610E-13
 -1       109 1.14769E-02 1.77221E-04-1.10991E-13
 -1       110 1.17705E-02 1.49045E-04-1.16456E-13
 -1       111 1.20616E-02 1.20568E-04-1.21987E-13
 -1       112 1.23508E-02 9.15180E-05-1.27585E-13
 -1       113 1.26386E-02 6.17710E-05-1.33262E-13
 -1       114 1.29255E-02 3.13007E-05-1.39010E-13
 -1       115 1.32117E-02 1.43311E-07-1.44806E-13
 -1       116 1.34975E-02-3.16280E-05-1.50641E-13
 -1       117 1.37832E-02-6.39189E-05-1.56490E-13
 -1       118 1.40687E-02-9.66224E-05-1.62373E-13
 -1       119 1.43543E-02-1.29621E-04-1.68281E-13
 -1       120 1.46399E-02-1.62782E-04-1.74194E-13
 -1       121 1.49440E-02-2.78607E-04-1.80255E-13
 -1       122 1.49766E-02-3.62969E-04-1.80717E-13
 -1       123 1.50094E-02-4.47381E-04-1.81154E-13
 -1       124 1.50424E-02-5.31788E-04-1.81610E-13
 -1       125 1.50756E-02-6.16135E-04-1.82065E-13
 -1       126 1.51085E-02-6.98964E-04-1.82517E-13
 -1       127 1.51421E-02-7.83130E-04-1.82976E-13
 -1       128 1.51758E-02-8.67229E-04-1.83444E-13
 -1       129 1.52097E-02-9.51307E-04-1.83918E-13
 -1       130 1.52437E-02-1.03541E-03-1.84375E-13
 -1       131 1.52778E-02-1.11959E-03-1.84836E-13
 -1       132 1.53115E-02-1.20243E-03-1.85295E-13
 -1       133 1.53461E-02-1.28680E-03-1.85744E-13
 -1       134 1.53809E-02-1.37122E-03-1.86140E-13
 -1       135 1.54159E-02-1.45564E-03-1.86534E-13
 -1       136 1.54510E-02-1.54000E-03-1.86898E-13
 -1       137 9.29887E-03-5.56503E-05-5.41597E-14
 -1       138 9.15328E-03 1.02192E-04-5.35175E-14
 -1       139 8.92394E-03 2.51851E-04-5.25107E-14
 -1       140 8.57841E-03 4.00837E-04-5.10058E-14
 -1       141 8.20914E-03 5.07799E-04-4.94266E-14
 -1       142 7.74454E-03 5.94213E-04-4.74686E-14
 -1       143 7.30446E-03 6.34559E-04-4.56693E-14
 -1       144 6.82981E-03 6.38242E-04-4.37589E-14
 -1       145 6.38144E-03 6.02276E-04-4.19981E-14
 -1       146 5.95312E-03 5.26050E-04-4.03473E-14
 -1       147 5.60703E-03 4.24394E-04-3.90378E-14
 -1       148 5.29501E-03 2.80485E-04-3.78763E-14
 -1       149 5.09433E-03 1.26269E-04-3.71446E-14
 -1       150 4.98965E-03-3.58300E-05-3.67724E-14
 -1       151 4.97904E-03-2.14060E-04-3.67459E-14
 -1       152 5.06121E-03-3.80427E-04-3.70592E-14
 -1       153 5.26306E-03-5.64422E-04-3.78129E-14
 -1       154 5.52810E-03-7.15874E-04-3.88100E-14
 -1       155 5.88918E-03-8.56626E-04-4.01844E-14
 -1       156 6.31079E-03-9.65552E-04-4.17953E-14
 -1       157 6.81857E-03-1.04144E-03-4.37801E-14
 -1       158 7.77394E-03-1.04032E-03-4.76076E-14
 -1       159 8.24155E-03-9.68463E-04-4.95577E-14
 -1       160 8.63081E-03-8.63457E-04-5.12111E-14
 -1       161 8.95978E-03-7.23937E-04-5.26346E-14
 -1       162 9.18873E-03-5.69898E-04-5.36431E-14
 -1       163 9.32209E-03-4.06495E-04-5.42426E-14
 -1       164 2.40229E-04-1.23814E-04-3.58464E-17
 -1       165 2.25473E-04-9.27898E-05-6.38764E-17
 -1       166 2.19834E-04-7.08905E-05-7.92755E-17
 -1       167 2.17013E-04-5.33027E-05-8.76882E-17
 -1       168 2.15424E-04-3.84176E-05-9.18861E-17
 -1       169 2.14476E-04-2.47841E-05-9.36344E-17
 -1       170 2.13971E-04-1.20513E-05-9.39936E-17
 -1       171 2.13816E-04 2.62615E-07-9.33396E-17
 -1       172 2.13986E-04 1.25908E-05-9.17404E-17
 -1       173 2.14509E-04 2.53685E-05-8.89046E-17
 -1       174 2.15460E-04 3.88445E-05-8.46525E-17
 -1       175 2.17101E-04 5.41117E-05-7.77475E-17
 -1       176 2.19979E-04 7.19293E-05-6.66242E-17
 -1       177 2.25632E-04 9.41875E-05-4.82267E-17
 -1       178 2.39166E-04 1.25883E-04-1.72015E-17
 -1       179 2.96908E-04 1.83552E-04 1.59344E-17
 -1       180 4.67661E-04-2.60027E-04-9.83473E-17
 -1       181 7.65631E-04-3.75437E-04-3.81775E-16
 -1       182 1.04985E-03-4.54554E-04-8.48524E-16
 -1       183 1.32827E-03-5.08899E-04-1.49990E-15
 -1       184 1.60478E-03-5.45386E-04-2.33323E-15
 -1       185 1.88175E-03-5.68622E-04-3.34657E-15
 -1       186 2.16071E-03-5.81886E-04-4.53743E-15
 -1       187 2.44278E-03-5.87675E-04-5.90170E-15
 -1       188 2.72889E-03-5.88040E-04-7.43601E-15
 -1       189 3.01993E-03-5.84832E-04-9.13624E-15
 -1       190 3.31684E-03-5.79938E-04-1.09963E-14
 -1       191 3.62062E-03-5.75531E-04-1.30132E-14
 -1       192 3.93235E-03-5.74355E-04-1.51855E-14
 -1       193 4.25304E-03-5.80038E-04-1.75075E-14
 -1       194 4.58345E-03-5.97371E-04-1.99776E-14
 -1       195 4.92367E-03-6.32389E-04-2.25943E-14
 -1       196 5.27257E-03-6.91902E-04-2.53585E-14
 -1       197 5.62714E-03-7.81866E-04-2.82733E-14
 -1       198 5.98198E-03-9.03959E-04-3.13430E-14
 -1       199 6.32962E-03-1.05050E-03-3.45778E-14
 -1       200 6.66274E-03-1.20003E-03-3.79933E-14
 -1       201 6.97842E-03-1.31903E-03-4.16028E-14
 -1       202 7.28186E-03-1.37436E-03-4.54089E-14
 -1       203 7.58543E-03-1.35178E-03-4.94107E-14
 -1       204 7.90143E-03-1.26575E-03-5.35917E-14
 -1       205 8.23506E-03-1.14948E-03-5.79369E-14
 -1       206 8.58333E-03-1.03643E-03-6.24355E-14
 -1       207 8.93894E-03-9.47955E-04-6.70718E-14
 -1       208 9.29452E-03-8.91609E-04-7.18308E-14
 -1       209 9.64476E-03-8.65673E-04-7.67057E-14
 -1       210 9.98677E-03-8.64241E-04-8.16876E-14
 -1       211 1.03196E-02-8.80632E-04-8.67767E-14
 -1       212 1.06434E-02-9.09009E-04-9.19631E-14
 -1       213 1.09591E-02-9.44873E-04-9.72364E-14
 -1       214 1.12679E-02-9.85007E-04-1.02600E-13
 -1       215 1.15711E-02-1.02723E-03-1.08039E-13
 -1       216 1.18697E-02-1.07014E-03-1.13551E-13
 -1       217 1.21648E-02-1.11288E-03-1.19138E-13
 -1       218 1.24571E-02-1.15495E-03-1.24793E-13
 -1       219 1.27473E-02-1.19613E-03-1.30511E-13
 -1       220 1.30361E-02-1.23634E-03-1.36293E-13
 -1       221 1.33237E-02-1.27559E-03-1.42132E-13
 -1       222 1.36106E-02-1.31397E-03-1.48020E-13
 -1       223 1.38970E-02-1.35158E-03-1.53964E-13
 -1       224 1.41830E-02-1.38854E-03-1.59944E-13
 -1       225 1.44689E-02-1.42498E-03-1.65956E-13
 -1       226 1.47546E-02-1.46104E-03-1.72001E-13
 -1       227 1.50403E-02-1.49684E-03-1.78076E-13
 -1       228 6.03250E-04 3.26294E-04-1.11741E-16
 -1       229 8.92336E-04 4.24574E-04-4.05390E-16
 -1       230 1.17182E-03 4.92424E-04-8.71079E-16
 -1       231 1.44750E-03 5.38982E-04-1.51079E-15
 -1       232 1.72262E-03 5.70012E-04-2.32382E-15
 -1       233 1.99911E-03 5.89487E-04-3.30992E-15
 -1       234 2.27822E-03 6.00365E-04-4.46708E-15
 -1       235 2.56085E-03 6.05008E-04-5.79097E-15
 -1       236 2.84774E-03 6.05458E-04-7.28162E-15
 -1       237 3.13952E-03 6.03649E-04-8.94248E-15
 -1       238 3.43678E-03 6.01593E-04-1.07703E-14
 -1       239 3.74001E-03 6.01549E-04-1.27610E-14
 -1       240 4.04949E-03 6.06142E-04-1.49156E-14
 -1       241 4.36512E-03 6.18397E-04-1.72300E-14
 -1       242 4.68619E-03 6.41580E-04-1.97039E-14
 -1       243 5.01109E-03 6.78719E-04-2.23319E-14
 -1       244 5.33712E-03 7.31647E-04-2.51075E-14
 -1       245 5.66046E-03 7.99538E-04-2.80275E-14
 -1       246 5.97674E-03 8.77206E-04-3.10933E-14
 -1       247 6.28216E-03 9.54040E-04-3.43159E-14
 -1       248 6.57520E-03 1.01489E-03-3.77042E-14
 -1       249 6.85800E-03 1.04390E-03-4.12691E-14
 -1       250 7.13642E-03 1.03032E-03-4.50011E-14
 -1       251 7.41805E-03 9.73161E-04-4.88949E-14
 -1       252 7.70924E-03 8.81738E-04-5.29439E-14
 -1       253 8.01287E-03 7.71424E-04-5.71398E-14
 -1       254 8.32803E-03 6.57804E-04-6.14709E-14
 -1       255 8.65126E-03 5.52408E-04-6.59362E-14
 -1       256 8.97826E-03 4.61350E-04-7.05243E-14
 -1       257 9.30516E-03 3.86161E-04-7.52203E-14
 -1       258 9.62918E-03 3.25462E-04-8.00180E-14
 -1       259 9.94865E-03 2.76513E-04-8.49154E-14
 -1       260 1.02629E-02 2.36277E-04-8.99115E-14
 -1       261 1.05719E-02 2.02000E-04-9.50119E-14
 -1       262 1.08760E-02 1.71449E-04-1.00209E-13
 -1       263 1.11759E-02 1.42942E-04-1.05498E-13
 -1       264 1.14722E-02 1.15296E-04-1.10867E-13
 -1       265 1.17657E-02 8.77244E-05-1.16319E-13
 -1       266 1.20569E-02 5.97442E-05-1.21841E-13
 -1       267 1.23464E-02 3.10919E-05-1.27438E-13
 -1       268 1.26346E-02 1.65470E-06-1.33107E-13
 -1       269 1.29219E-02-2.85806E-05-1.38841E-13
 -1       270 1.32086E-02-5.95652E-05-1.44626E-13
 -1       271 1.34947E-02-9.12146E-05-1.50452E-13
 -1       272 1.37807E-02-1.23425E-04-1.56299E-13
 -1       273 1.40664E-02-1.56081E-04-1.62179E-13
 -1       274 1.43521E-02-1.89059E-04-1.68078E-13
 -1       275 1.46378E-02-2.22224E-04-1.73987E-13
 -1       276 1.47128E-02-2.92006E-04-1.75376E-13
 -1       277 1.47455E-02-3.76304E-04-1.75828E-13
 -1       278 1.47784E-02-4.60573E-04-1.76274E-13
 -1       279 1.48115E-02-5.44782E-04-1.76725E-13
 -1       280 1.48443E-02-6.27484E-04-1.77169E-13
 -1       281 1.48779E-02-7.11528E-04-1.77621E-13
 -1       282 1.49116E-02-7.95502E-04-1.78075E-13
 -1       283 1.49454E-02-8.79438E-04-1.78536E-13
 -1       284 1.49793E-02-9.63376E-04-1.78987E-13
 -1       285 1.50133E-02-1.04736E-03-1.79434E-13
 -1       286 1.50470E-02-1.12998E-03-1.79866E-13
 -1       287 1.50814E-02-1.21412E-03-1.80289E-13
 -1       288 1.51160E-02-1.29834E-03-1.80691E-13
 -1       289 1.51509E-02-1.38261E-03-1.81066E-13
 -1       290 1.50956E-02-1.43974E-03-1.79577E-13
 -1       291 9.36330E-03-1.92307E-04-5.62298E-14
 -1       292 9.21794E-03-8.77180E-05-5.55385E-14
 -1       293 8.96771E-03 3.21383E-05-5.46336E-14
 -1       294 8.60275E-03 1.84366E-04-5.33477E-14
 -1       295 8.23470E-03 3.88266E-04-5.11426E-14
 -1       296 7.81690E-03 5.56917E-04-4.91491E-14
 -1       297 7.44357E-03 6.74904E-04-4.67991E-14
 -1       298 7.07129E-03 7.21947E-04-4.46046E-14
 -1       299 6.69733E-03 6.74721E-04-4.24516E-14
 -1       300 6.31182E-03 5.56815E-04-4.04653E-14
 -1       301 5.92457E-03 4.01467E-04-3.88209E-14
 -1       302 5.56387E-03 2.23300E-04-3.72778E-14
 -1       303 5.23588E-03 8.18720E-05-3.63586E-14
 -1       304 5.02943E-03-3.40997E-05-3.57414E-14
 -1       305 4.94258E-03-1.31769E-04-3.53485E-14
 -1       306 4.99797E-03-2.26898E-04-3.56861E-14
 -1       307 5.19343E-03-3.30219E-04-3.60470E-14
 -1       308 5.49233E-03-5.02126E-04-3.72756E-14
 -1       309 5.87591E-03-6.68985E-04-3.84329E-14
 -1       310 6.26021E-03-8.75011E-04-4.03190E-14
 -1       311 6.69927E-03-1.04554E-03-4.23123E-14
 -1       312 7.09384E-03-1.13429E-03-4.46471E-14
 -1       313 7.47814E-03-1.12318E-03-4.69090E-14
 -1       314 7.87064E-03-1.02559E-03-4.93145E-14
 -1       315 8.28609E-03-8.63751E-04-5.13824E-14
 -1       316 8.67340E-03-6.84753E-04-5.32397E-14
 -1       317 9.01051E-03-5.19973E-04-5.47167E-14
 -1       318 9.25167E-03-3.90333E-04-5.56924E-14
 -1       319 9.37908E-03-2.83333E-04-5.64189E-14
 -1       320 4.55987E-04-1.60682E-04-2.69553E-16
 -1       321 4.74467E-04-2.08891E-04-2.23742E-16
 -1       322 4.40792E-04-9.05030E-05-3.13158E-16
 -1       323 4.37516E-04-6.21486E-05-3.21659E-16
 -1       324 4.35614E-04-3.61493E-05-3.25010E-16
 -1       325 4.34743E-04-1.14381E-05-3.24739E-16
 -1       326 4.34772E-04 1.28829E-05-3.21422E-16
 -1       327 4.35708E-04 3.76629E-05-3.14768E-16
 -1       328 4.37643E-04 6.33460E-05-3.04285E-16
 -1       329 4.41009E-04 9.18879E-05-2.88520E-16
 -1       330 4.46627E-04 1.24365E-04-2.65172E-16
 -1       331 4.56473E-04 1.63187E-04-2.29831E-16
 -1       332 4.76073E-04 2.12956E-04-1.76284E-16
 -1       333 5.31656E-04 2.65580E-04-1.53675E-16
 -1       334 8.24334E-04 3.65792E-04-4.56063E-16
 -1       335 8.63758E-04-3.48829E-04-7.06693E-16
 -1       336 1.15092E-03-4.13421E-04-1.29001E-15
 -1       337 1.43508E-03-4.57658E-04-2.05165E-15
 -1       338 1.71796E-03-4.86584E-04-2.98955E-15
 -1       339 2.00092E-03-5.03919E-04-4.10160E-15
 -1       340 2.28505E-03-5.12482E-04-5.38581E-15
 -1       341 2.57121E-03-5.14504E-04-6.83775E-15
 -1       342 2.86014E-03-5.11888E-04-8.45577E-15
 -1       343 3.15256E-03-5.06437E-04-1.02361E-14
 -1       344 3.44916E-03-5.00086E-04-1.21733E-14
 -1       345 3.75072E-03-4.95171E-04-1.42650E-14
 -1       346 4.05809E-03-4.94720E-04-1.65094E-14
 -1       347 4.37219E-03-5.02773E-04-1.89011E-14
 -1       348 4.69407E-03-5.24636E-04-2.14391E-14
 -1       349 5.02475E-03-5.66886E-04-2.41222E-14
 -1       350 5.36494E-03-6.36731E-04-2.69517E-14
 -1       351 5.71423E-03-7.40004E-04-2.99315E-14
 -1       352 6.06965E-03-8.76873E-04-3.30668E-14
 -1       353 6.42457E-03-1.03545E-03-3.63740E-14
 -1       354 6.77053E-03-1.18613E-03-3.98678E-14
 -1       355 7.10384E-03-1.28659E-03-4.35594E-14
 -1       356 7.43085E-03-1.30295E-03-4.74495E-14
 -1       357 7.76432E-03-1.23519E-03-5.15312E-14
 -1       358 8.11062E-03-1.11761E-03-5.57890E-14
 -1       359 8.46594E-03-9.92456E-04-6.02048E-14
 -1       360 8.82182E-03-8.89160E-04-6.47615E-14
 -1       361 9.17171E-03-8.19501E-04-6.94479E-14
 -1       362 9.51274E-03-7.83188E-04-7.42498E-14
 -1       363 9.84456E-03-7.74413E-04-7.91606E-14
 -1       364 1.01679E-02-7.86065E-04-8.41784E-14
 -1       365 1.04840E-02-8.11725E-04-8.92980E-14
 -1       366 1.07939E-02-8.46326E-04-9.45090E-14
 -1       367 1.10985E-02-8.86172E-04-9.98083E-14
 -1       368 1.13989E-02-9.28714E-04-1.05191E-13
 -1       369 1.16958E-02-9.72281E-04-1.10651E-13
 -1       370 1.19899E-02-1.01583E-03-1.16188E-13
 -1       371 1.22818E-02-1.05876E-03-1.21790E-13
 -1       372 1.25719E-02-1.10076E-03-1.27460E-13
 -1       373 1.28608E-02-1.14171E-03-1.33195E-13
 -1       374 1.31487E-02-1.18161E-03-1.38992E-13
 -1       375 1.34358E-02-1.22053E-03-1.44840E-13
 -1       376 1.37225E-02-1.25858E-03-1.50738E-13
 -1       377 1.40088E-02-1.29590E-03-1.56686E-13
 -1       378 1.42948E-02-1.33261E-03-1.62671E-13
 -1       379 1.45807E-02-1.36885E-03-1.68690E-13
 -1       380 1.48381E-02-1.40438E-03-1.74122E-13
 -1       381 1.11048E-03 4.36204E-04-9.25428E-16
 -1       382 1.39252E-03 4.84702E-04-1.56524E-15
 -1       383 1.67294E-03 5.17019E-04-2.37572E-15
 -1       384 1.95351E-03 5.37252E-04-3.35758E-15
 -1       385 2.23551E-03 5.48465E-04-4.50874E-15
 -1       386 2.51986E-03 5.53086E-04-5.82573E-15
 -1       387 2.80729E-03 5.53185E-04-7.30821E-15
 -1       388 3.09845E-03 5.50694E-04-8.95869E-15
 -1       389 3.39388E-03 5.47599E-04-1.07741E-14
 -1       390 3.69409E-03 5.46119E-04-1.27520E-14
 -1       391 3.99944E-03 5.48840E-04-1.48936E-14
 -1       392 4.31012E-03 5.58787E-04-1.71917E-14
 -1       393 4.62592E-03 5.79310E-04-1.96487E-14
 -1       394 4.94611E-03 6.13689E-04-2.22586E-14
 -1       395 5.26916E-03 6.64263E-04-2.50174E-14
 -1       396 5.59255E-03 7.30999E-04-2.79209E-14
 -1       397 5.91291E-03 8.09646E-04-3.09705E-14
 -1       398 6.22663E-03 8.90222E-04-3.41770E-14
 -1       399 6.53132E-03 9.57255E-04-3.75494E-14
 -1       400 6.82755E-03 9.93277E-04-4.10940E-14
 -1       401 7.11950E-03 9.85327E-04-4.48060E-14
 -1       402 7.41341E-03 9.30871E-04-4.86827E-14
 -1       403 7.71464E-03 8.39187E-04-5.27175E-14
 -1       404 8.02521E-03 7.26778E-04-5.68993E-14
 -1       405 8.34379E-03 6.10542E-04-6.12220E-14
 -1       406 8.66709E-03 5.02872E-04-6.56793E-14
 -1       407 8.99158E-03 4.10212E-04-7.02602E-14
 -1       408 9.31446E-03 3.34101E-04-7.49496E-14
 -1       409 9.63389E-03 2.73032E-04-7.97446E-14
 -1       410 9.94893E-03 2.24108E-04-8.46405E-14
 -1       411 1.02593E-02 1.84153E-04-8.96333E-14
 -1       412 1.05652E-02 1.50304E-04-9.47294E-14
 -1       413 1.08670E-02 1.20245E-04-9.99216E-14
 -1       414 1.11652E-02 9.22402E-05-1.05200E-13
 -1       415 1.14605E-02 6.50690E-05-1.10560E-13
 -1       416 1.17533E-02 3.79247E-05-1.15998E-13
 -1       417 1.20442E-02 1.03150E-05-1.21514E-13
 -1       418 1.23335E-02-1.80261E-05-1.27103E-13
 -1       419 1.26217E-02-4.72087E-05-1.32761E-13
 -1       420 1.29091E-02-7.72412E-05-1.38484E-13
 -1       421 1.31958E-02-1.08068E-04-1.44263E-13
 -1       422 1.34822E-02-1.39599E-04-1.50078E-13
 -1       423 1.37682E-02-1.71724E-04-1.55922E-13
 -1       424 1.40541E-02-2.04324E-04-1.61795E-13
 -1       425 1.43399E-02-2.37273E-04-1.67692E-13
 -1       426 1.45264E-02-2.64613E-04-1.71534E-13
 -1       427 1.45475E-02-4.73710E-04-1.71385E-13
 -1       428 1.45145E-02-3.89585E-04-1.70936E-13
 -1       429 1.45204E-02-3.27121E-04-1.71237E-13
 -1       430 1.45802E-02-5.56302E-04-1.71825E-13
 -1       431 1.46137E-02-6.40205E-04-1.72270E-13
 -1       432 1.46474E-02-7.24010E-04-1.72712E-13
 -1       433 1.46812E-02-8.07748E-04-1.73155E-13
 -1       434 1.47150E-02-8.91464E-04-1.73603E-13
 -1       435 1.47490E-02-9.75204E-04-1.74037E-13
 -1       436 1.47825E-02-1.05759E-03-1.74460E-13
 -1       437 1.48168E-02-1.14150E-03-1.74870E-13
 -1       438 1.48512E-02-1.22552E-03-1.75260E-13
 -1       439 1.48860E-02-1.30965E-03-1.75633E-13
 -1       440 9.09495E-03-1.01700E-04-5.69600E-14
 -1       441 9.40519E-03-2.45072E-04-5.82710E-14
 -1       442 9.30641E-03-1.87216E-04-5.79817E-14
 -1       443 8.78452E-03 1.75418E-05-5.60248E-14
 -1       444 8.31578E-03 2.64145E-04-5.31422E-14
 -1       445 4.46268E-04-1.22453E-04-2.97149E-16
 -1       446 7.53981E-03 6.51766E-04-4.82216E-14
 -1       447 7.25571E-03 7.36544E-04-4.59860E-14
 -1       448 6.89021E-03 7.40672E-04-4.30302E-14
 -1       449 6.55316E-03 6.32396E-04-4.08419E-14
 -1       450 6.17117E-03 4.55923E-04-3.87037E-14
 -1       451 5.82937E-03 2.85963E-04-3.71738E-14
 -1       452 5.40052E-03 7.96071E-05-3.53401E-14
 -1       453 5.12477E-03-2.80075E-05-3.46911E-14
 -1       454 4.96125E-03-9.96437E-05-3.41569E-14
 -1       455 4.94235E-03-1.60562E-04-3.42107E-14
 -1       456 5.06720E-03-2.21687E-04-3.45477E-14
 -1       457 5.38719E-03-3.57864E-04-3.55789E-14
 -1       458 5.70758E-03-5.08081E-04-3.66802E-14
 -1       459 6.17347E-03-7.57432E-04-3.86616E-14
 -1       460 6.53602E-03-9.54796E-04-4.05851E-14
 -1       461 6.96109E-03-1.13685E-03-4.33151E-14
 -1       462 7.29484E-03-1.17341E-03-4.59607E-14
 -1       463 7.61584E-03-1.11447E-03-4.84900E-14
 -1       464 8.03875E-03-9.28776E-04-5.14931E-14
 -1       465 8.41945E-03-7.32993E-04-5.36354E-14
 -1       466 8.80395E-03-5.35886E-04-5.58274E-14
 -1       467 9.12860E-03-3.92216E-04-5.73313E-14
 -1       468 9.33320E-03-3.06945E-04-5.82971E-14
 -1       469 7.96474E-03 4.49597E-04-5.10908E-14
 -1       470 8.55339E-03 1.10869E-04-5.57961E-14
 -1       471 5.95818E-03-6.14027E-04-3.68834E-14
 -1       472 5.20604E-03-2.58009E-04-3.40716E-14
 -1       473 5.60603E-03 1.61277E-04-3.52199E-14
 -1       474 9.32322E-04 3.36427E-04-7.89181E-16
 -1       475 6.65173E-04-7.15517E-05-6.87625E-16
 -1       476 6.69737E-04-1.10870E-04-6.76491E-16
 -1       477 6.61921E-04 1.03348E-06-6.87056E-16
 -1       478 6.62797E-04 3.68012E-05-6.77230E-16
 -1       479 6.65354E-04 7.31667E-05-6.61075E-16
 -1       480 6.70031E-04 1.12674E-04-6.36755E-16
 -1       481 6.77622E-04 1.56293E-04-6.02091E-16
 -1       482 6.89900E-04 2.06079E-04-5.52150E-16
 -1       483 1.21906E-03 3.92664E-04-1.37318E-15
 -1       484 9.77698E-04-3.18158E-04-1.06944E-15
 -1       485 7.74199E-03 5.53027E-04-5.04076E-14
 -1       486 1.26441E-03-3.68562E-04-1.76173E-15
 -1       487 1.55060E-03-4.02988E-04-2.62697E-15
 -1       488 1.83639E-03-4.24784E-04-3.66414E-15
 -1       489 2.12224E-03-4.36794E-04-4.87072E-15
 -1       490 2.40865E-03-4.41343E-04-6.24380E-15
 -1       491 2.69608E-03-4.40379E-04-7.78112E-15
 -1       492 2.98494E-03-4.35645E-04-9.48124E-15
 -1       493 3.27566E-03-4.28883E-04-1.13400E-14
 -1       494 3.56869E-03-4.22040E-04-1.33532E-14
 -1       495 3.86464E-03-4.17522E-04-1.55190E-14
 -1       496 4.16438E-03-4.18459E-04-1.78343E-14
 -1       497 4.46929E-03-4.29006E-04-2.02944E-14
 -1       498 4.78151E-03-4.54607E-04-2.28986E-14
 -1       499 5.10411E-03-5.02131E-04-2.56469E-14
 -1       500 5.44081E-03-5.79571E-04-2.85395E-14
 -1       501 5.79437E-03-6.94146E-04-3.15796E-14
 -1       502 6.16292E-03-8.47207E-04-3.47805E-14
 -1       503 6.53625E-03-1.02306E-03-3.81579E-14
 -1       504 6.90104E-03-1.17712E-03-4.17278E-14
 -1       505 7.25284E-03-1.24944E-03-4.55039E-14
 -1       506 7.60411E-03-1.20938E-03-4.94806E-14
 -1       507 7.96932E-03-1.08829E-03-5.36477E-14
 -1       508 8.34302E-03-9.45968E-04-5.79856E-14
 -1       509 8.71161E-03-8.26542E-04-6.24674E-14
 -1       510 9.06534E-03-7.45616E-04-6.70815E-14
 -1       511 9.40239E-03-7.01752E-04-7.18151E-14
 -1       512 9.72550E-03-6.87680E-04-7.66584E-14
 -1       513 1.00384E-02-6.95507E-04-8.16056E-14
 -1       514 1.03443E-02-7.18485E-04-8.66553E-14
 -1       515 1.06452E-02-7.51359E-04-9.18033E-14
 -1       516 1.09426E-02-7.90257E-04-9.70397E-14
 -1       517 1.12374E-02-8.32444E-04-1.02363E-13
 -1       518 1.15301E-02-8.76073E-04-1.07769E-13
 -1       519 1.18212E-02-9.19951E-04-1.13250E-13
 -1       520 1.21111E-02-9.63357E-04-1.18804E-13
 -1       521 1.23999E-02-1.00589E-03-1.24427E-13
 -1       522 1.26879E-02-1.04739E-03-1.30117E-13
 -1       523 1.29752E-02-1.08780E-03-1.35867E-13
 -1       524 1.32621E-02-1.12717E-03-1.41672E-13
 -1       525 1.35486E-02-1.16562E-03-1.47529E-13
 -1       526 1.38349E-02-1.20326E-03-1.53439E-13
 -1       527 1.41210E-02-1.24023E-03-1.59395E-13
 -1       528 1.44069E-02-1.27666E-03-1.65387E-13
 -1       529 1.78921E-03 4.56449E-04-3.04308E-15
 -1       530 2.07399E-03 4.71205E-04-4.12968E-15
 -1       531 2.35961E-03 4.78209E-04-5.38187E-15
 -1       532 2.64669E-03 4.79621E-04-6.79745E-15
 -1       533 2.93579E-03 4.77363E-04-8.37805E-15
 -1       534 3.22745E-03 4.73306E-04-1.01235E-14
 -1       535 3.52219E-03 4.69453E-04-1.20297E-14
 -1       536 3.82059E-03 4.68102E-04-1.40963E-14
 -1       537 4.12326E-03 4.71975E-04-1.63217E-14
 -1       538 4.43086E-03 4.84261E-04-1.87027E-14
 -1       539 4.74396E-03 5.08486E-04-2.12376E-14
 -1       540 5.06283E-03 5.48043E-04-2.39220E-14
 -1       541 5.38700E-03 6.05193E-04-2.67534E-14
 -1       542 5.71460E-03 6.79334E-04-2.97288E-14
 -1       543 6.04202E-03 7.64603E-04-3.28571E-14
 -1       544 6.36456E-03 8.47851E-04-3.61465E-14
 -1       545 6.67885E-03 9.09322E-04-3.96044E-14
 -1       546 6.98595E-03 9.28741E-04-4.32333E-14
 -1       547 7.29162E-03 8.95109E-04-4.70306E-14
 -1       548 7.60272E-03 8.13332E-04-5.09906E-14
 -1       549 7.92235E-03 7.01131E-04-5.51070E-14
 -1       550 8.24864E-03 5.79443E-04-5.93701E-14
 -1       551 8.57709E-03 4.64438E-04-6.37708E-14
 -1       552 8.90352E-03 3.64740E-04-6.83010E-14
 -1       553 9.22540E-03 2.82794E-04-7.29494E-14
 -1       554 9.54182E-03 2.17304E-04-7.77010E-14
 -1       555 9.85285E-03 1.65283E-04-8.25591E-14
 -1       556 1.01591E-02 1.23354E-04-8.75161E-14
 -1       557 1.04611E-02 8.84220E-05-9.25712E-14
 -1       558 1.07597E-02 5.79444E-05-9.77245E-14
 -1       559 1.10554E-02 2.99853E-05-1.02965E-13
 -1       560 1.13489E-02 3.15796E-06-1.08288E-13
 -1       561 1.16404E-02-2.34728E-05-1.13687E-13
 -1       562 1.19304E-02-5.04937E-05-1.19166E-13
 -1       563 1.22193E-02-7.82362E-05-1.24719E-13
 -1       564 1.25073E-02-1.06852E-04-1.30344E-13
 -1       565 1.27946E-02-1.36376E-04-1.36030E-13
 -1       566 1.30813E-02-1.66763E-04-1.41778E-13
 -1       567 1.33678E-02-1.97927E-04-1.47571E-13
 -1       568 1.36539E-02-2.29759E-04-1.53397E-13
 -1       569 1.39399E-02-2.62138E-04-1.59256E-13
 -1       570 1.42257E-02-2.94940E-04-1.65143E-13
 -1       571 1.43497E-02-5.69201E-04-1.66926E-13
 -1       572 1.43833E-02-6.52823E-04-1.67363E-13
 -1       573 1.42835E-02-4.02906E-04-1.66050E-13
 -1       574 1.43165E-02-4.86136E-04-1.66492E-13
 -1       575 1.44171E-02-7.36329E-04-1.67796E-13
 -1       576 1.44509E-02-8.19772E-04-1.68228E-13
 -1       577 1.44848E-02-9.03215E-04-1.68657E-13
 -1       578 1.45182E-02-9.85306E-04-1.69066E-13
 -1       579 1.45523E-02-1.06893E-03-1.69467E-13
 -1       580 1.45866E-02-1.15270E-03-1.69853E-13
 -1       581 1.46211E-02-1.23665E-03-1.70224E-13
 -1       582 9.40847E-03-2.37571E-04-6.06955E-14
 -1       583 9.00570E-03-9.65028E-05-5.88699E-14
 -1       584 1.50450E-03 4.31348E-04-2.12418E-15
 -1       585 9.42824E-03-2.72829E-04-6.07272E-14
 -1       586 9.23014E-03-1.77680E-04-5.99152E-14
 -1       587 7.13586E-04-2.44729E-04-6.02938E-16
 -1       588 9.26466E-03-3.35649E-04-6.00090E-14
 -1       589 4.89462E-03-1.24331E-04-3.24364E-14
 -1       590 6.36858E-03 5.51153E-04-3.88859E-14
 -1       591 6.62682E-04-3.46867E-05-6.90708E-16
 -1       592 6.67746E-03 6.93151E-04-4.10019E-14
 -1       593 7.37976E-03 7.14793E-04-4.73469E-14
 -1       594 5.21289E-03-2.87260E-06-3.34766E-14
 -1       595 7.09374E-03 7.71051E-04-4.46795E-14
 -1       596 5.99793E-03 3.57938E-04-3.66680E-14
 -1       597 7.19309E-03-1.19840E-03-4.50820E-14
 -1       598 5.01682E-03-7.25197E-05-3.29610E-14
 -1       599 4.96543E-03-1.66848E-04-3.29041E-14
 -1       600 5.53621E-03-3.92192E-04-3.47704E-14
 -1       601 6.36948E-03-8.48730E-04-3.86384E-14
 -1       602 6.73035E-03-1.05342E-03-4.09475E-14
 -1       603 7.45495E-03-1.17959E-03-4.75826E-14
 -1       604 7.82205E-03-1.04362E-03-5.08394E-14
 -1       605 8.24652E-03-8.15727E-04-5.41417E-14
 -1       606 8.59196E-03-6.28893E-04-5.63504E-14
 -1       607 8.99444E-03-4.40743E-04-5.87977E-14
 -1       608 8.12627E-03 3.38798E-04-5.32685E-14
 -1       609 7.04352E-04 2.84232E-04-4.26257E-16
 -1       610 6.88395E-03 7.65328E-04-4.25935E-14
 -1       611 6.77131E-04-1.54065E-04-6.55522E-16
 -1       612 8.81546E-03-1.54581E-05-5.86200E-14
 -1       613 5.74482E-03-4.95318E-04-3.49499E-14
 -1       614 5.37474E-03 7.01763E-05-3.33470E-14
 -1       615 5.05162E-03-1.96221E-04-3.24279E-14
 -1       616 1.46008E-02-1.30271E-03-1.69462E-13
 -1       617 8.97767E-04 7.00674E-05-1.15181E-15
 -1       618 8.95185E-04 2.37216E-05-1.17256E-15
 -1       619 9.11728E-04 1.70182E-04-1.07654E-15
 -1       620 9.25021E-04 2.27543E-04-1.01493E-15
 -1       621 1.05034E-03 3.02573E-04-1.16544E-15
 -1       622 6.16332E-03 4.77657E-04-3.66623E-14
 -1       623 8.84173E-03-5.40973E-04-5.97252E-14
 -1       624 7.94687E-03 4.53943E-04-5.30871E-14
 -1       625 1.38492E-03-3.20385E-04-2.26378E-15
 -1       626 1.67146E-03-3.45806E-04-3.22671E-15
 -1       627 1.95806E-03-3.61154E-04-4.35753E-15
 -1       628 2.24456E-03-3.68565E-04-5.65420E-15
 -1       629 2.53093E-03-3.69913E-04-7.11276E-15
 -1       630 2.81722E-03-3.66858E-04-8.73314E-15
 -1       631 3.10349E-03-3.60967E-04-1.05130E-14
 -1       632 3.38985E-03-3.53863E-04-1.24486E-14
 -1       633 3.67652E-03-3.47396E-04-1.45373E-14
 -1       634 3.96399E-03-3.43839E-04-1.67754E-14
 -1       635 4.25331E-03-3.46104E-04-1.91597E-14
 -1       636 4.54648E-03-3.58022E-04-2.16876E-14
 -1       637 4.84707E-03-3.84763E-04-2.43568E-14
 -1       638 5.16077E-03-4.33553E-04-2.71676E-14
 -1       639 5.49451E-03-5.14884E-04-3.01196E-14
 -1       640 5.85773E-03-6.39635E-04-3.32196E-14
 -1       641 6.24651E-03-8.17301E-04-3.64813E-14
 -1       642 7.82652E-03-1.07416E-03-5.15123E-14
 -1       643 8.22807E-03-9.01698E-04-5.57719E-14
 -1       644 8.61684E-03-7.57994E-04-6.01842E-14
 -1       645 8.97885E-03-6.66106E-04-6.47296E-14
 -1       646 9.31339E-03-6.18512E-04-6.93968E-14
 -1       647 9.62736E-03-6.02997E-04-7.41750E-14
 -1       648 9.92829E-03-6.09526E-04-7.90561E-14
 -1       649 1.02218E-02-6.30974E-04-8.40368E-14
 -1       650 1.05115E-02-6.62296E-04-8.91197E-14
 -1       651 1.07993E-02-6.99862E-04-9.42928E-14
 -1       652 1.10863E-02-7.41064E-04-9.95573E-14
 -1       653 1.13729E-02-7.84068E-04-1.04906E-13
 -1       654 1.16594E-02-8.27635E-04-1.10335E-13
 -1       655 1.19457E-02-8.70967E-04-1.15837E-13
 -1       656 1.22320E-02-9.13595E-04-1.21412E-13
 -1       657 1.25182E-02-9.55276E-04-1.27056E-13
 -1       658 1.28043E-02-9.95926E-04-1.32762E-13
 -1       659 1.30904E-02-1.03556E-03-1.38524E-13
 -1       660 1.33763E-02-1.07425E-03-1.44342E-13
 -1       661 1.36623E-02-1.11212E-03-1.50212E-13
 -1       662 1.39481E-02-1.14927E-03-1.56130E-13
 -1       663 1.42339E-02-1.18585E-03-1.62095E-13
 -1       664 2.19623E-03 4.03310E-04-4.92828E-15
 -1       665 1.90967E-03 3.93487E-04-3.74028E-15
 -1       666 2.77076E-03 4.05523E-04-7.79247E-15
 -1       667 3.05942E-03 4.01495E-04-9.46849E-15
 -1       668 3.34959E-03 3.96366E-04-1.13050E-14
 -1       669 3.64187E-03 3.92064E-04-1.33007E-14
 -1       670 3.93707E-03 3.90850E-04-1.54533E-14
 -1       671 4.23633E-03 3.95450E-04-1.77607E-14
 -1       672 4.54111E-03 4.09139E-04-2.02222E-14
 -1       673 4.85317E-03 4.35689E-04-2.28325E-14
 -1       674 5.17409E-03 4.79005E-04-2.55898E-14
 -1       675 5.50440E-03 5.42088E-04-2.84929E-14
 -1       676 5.84214E-03 6.24783E-04-3.15425E-14
 -1       677 6.18187E-03 7.19755E-04-3.47483E-14
 -1       678 6.51606E-03 8.08758E-04-3.81185E-14
 -1       679 6.83949E-03 8.63432E-04-4.16611E-14
 -1       680 7.15683E-03 8.59379E-04-4.53768E-14
 -1       681 7.47701E-03 7.91021E-04-4.92616E-14
 -1       682 7.80720E-03 6.77128E-04-5.33099E-14
 -1       683 8.14564E-03 5.46516E-04-5.75120E-14
 -1       684 8.48519E-03 4.22251E-04-6.18589E-14
 -1       685 8.81908E-03 3.15624E-04-6.63404E-14
 -1       686 9.14408E-03 2.29170E-04-7.09427E-14
 -1       687 9.45990E-03 1.60855E-04-7.56540E-14
 -1       688 9.76785E-03 1.07027E-04-8.04698E-14
 -1       689 1.00697E-02 6.39284E-05-8.53879E-14
 -1       690 1.03671E-02 2.82745E-05-9.04070E-14
 -1       691 1.06612E-02-2.57957E-06-9.55191E-14
 -1       692 1.09530E-02-3.06431E-05-1.00724E-13
 -1       693 1.12432E-02-5.73688E-05-1.06013E-13
 -1       694 1.15323E-02-8.37539E-05-1.11378E-13
 -1       695 1.18204E-02-1.10441E-04-1.16819E-13
 -1       696 1.21079E-02-1.37806E-04-1.22340E-13
 -1       697 1.23949E-02-1.66038E-04-1.27931E-13
 -1       698 1.26815E-02-1.95194E-04-1.33588E-13
 -1       699 1.29679E-02-2.25247E-04-1.39301E-13
 -1       700 1.32540E-02-2.56120E-04-1.45070E-13
 -1       701 1.35400E-02-2.87708E-04-1.50876E-13
 -1       702 1.38260E-02-3.19896E-04-1.56723E-13
 -1       703 1.40548E-02-3.61272E-04-1.61381E-13
 -1       704 1.41870E-02-7.48398E-04-1.62887E-13
 -1       705 1.44275E-02-1.21133E-03-1.66154E-13
 -1       706 1.41193E-02-5.82012E-04-1.62036E-13
 -1       707 1.42209E-02-8.31480E-04-1.63305E-13
 -1       708 1.41532E-02-6.65269E-04-1.62463E-13
 -1       709 9.42348E-03-3.05701E-04-6.29342E-14
 -1       710 1.42542E-02-9.13198E-04-1.63701E-13
 -1       711 1.42881E-02-9.96449E-04-1.64094E-13
 -1       712 1.43221E-02-1.07989E-03-1.64473E-13
 -1       713 8.73424E-04-2.38271E-04-9.67102E-16
 -1       714 9.48421E-03-2.64726E-04-6.30633E-14
 -1       715 9.19904E-03-1.54844E-04-6.24543E-14
 -1       716 5.71352E-03 2.40954E-04-3.42345E-14
 -1       717 9.39618E-03-2.23831E-04-6.32653E-14
 -1       718 1.62319E-03 3.75114E-04-2.71693E-15
 -1       719 2.48315E-03 4.06703E-04-6.27883E-15
 -1       720 1.12825E-03-2.84658E-04-1.54786E-15
 -1       721 1.33666E-03 3.45726E-04-1.85874E-15
 -1       722 4.89056E-03-9.43135E-05-3.11655E-14
 -1       723 4.86598E-03-1.35644E-04-3.09788E-14
 -1       724 9.03079E-04 1.18330E-04-1.12073E-15
 -1       725 9.20347E-03-3.84651E-04-6.18270E-14
 -1       726 9.02691E-04-1.16019E-04-1.17332E-15
 -1       727 6.45224E-03 6.24418E-04-3.86982E-14
 -1       728 5.04941E-03-3.91114E-05-3.16095E-14
 -1       729 6.02321E-03-6.61443E-04-3.57149E-14
 -1       730 7.60707E-03 6.33988E-04-4.99283E-14
 -1       731 5.25998E-03-2.78091E-04-3.23808E-14
 -1       732 8.37360E-03 2.07344E-04-5.61104E-14
 -1       733 8.47559E-03-7.26273E-04-5.71200E-14
 -1       734 7.26244E-03 7.64893E-04-4.64722E-14
 -1       735 9.11132E-04-1.67568E-04-1.14999E-15
 -1       736 8.95116E-04-2.18945E-05-1.18299E-15
 -1       737 4.80028E-03-1.07725E-04-2.97345E-14
 -1       738 5.16979E-03 1.91781E-05-3.14768E-14
 -1       739 8.64922E-03 8.15457E-05-5.89272E-14
 -1       740 6.65737E-03 7.28440E-04-4.02234E-14
 -1       741 1.40859E-02-4.99271E-04-1.61608E-13
 -1       742 9.05574E-03-9.16212E-05-6.21847E-14
 -1       743 1.40702E-02-4.30360E-04-1.61498E-13
 -1       744 1.42780E-02-1.13285E-03-1.63290E-13
 -1       745 7.06204E-03 7.99980E-04-4.43260E-14
 -1       746 5.87228E-03 3.68108E-04-3.42139E-14
 -1       747 8.97542E-04-6.79487E-05-1.18366E-15
 -1       748 4.90267E-03-1.57112E-04-3.05111E-14
 -1       749 5.42900E-03-3.58284E-04-3.25418E-14
 -1       750 1.16164E-03 2.31791E-04-1.61591E-15
 -1       751 8.24324E-03 3.16885E-04-5.63953E-14
 -1       752 1.79567E-03-2.86670E-04-3.84959E-15
 -1       753 2.08175E-03-2.96551E-04-5.06974E-15
 -1       754 2.36728E-03-3.00304E-04-6.45181E-15
 -1       755 2.65184E-03-2.99420E-04-7.99371E-15
 -1       756 2.93509E-03-2.95284E-04-9.69505E-15
 -1       757 3.21675E-03-2.89249E-04-1.15523E-14
 -1       758 3.49661E-03-2.82742E-04-1.35634E-14
 -1       759 3.77460E-03-2.77368E-04-1.57256E-14
 -1       760 4.05101E-03-2.75022E-04-1.80341E-14
 -1       761 4.32684E-03-2.78032E-04-2.04872E-14
 -1       762 4.60433E-03-2.89448E-04-2.30820E-14
 -1       763 4.88793E-03-3.13705E-04-2.58137E-14
 -1       764 5.18645E-03-3.58318E-04-2.86845E-14
 -1       765 8.93284E-03-5.74148E-04-6.23869E-14
 -1       766 9.25698E-03-5.27533E-04-6.69927E-14
 -1       767 9.55510E-03-5.15890E-04-7.17087E-14
 -1       768 9.83864E-03-5.24898E-04-7.65264E-14
 -1       769 1.01159E-02-5.46849E-04-8.14408E-14
 -1       770 1.03913E-02-5.77362E-04-8.64561E-14
 -1       771 1.06671E-02-6.13527E-04-9.15685E-14
 -1       772 1.09442E-02-6.53235E-04-9.67724E-14
 -1       773 1.12229E-02-6.94920E-04-1.02059E-13
 -1       774 1.15032E-02-7.37446E-04-1.07432E-13
 -1       775 1.17848E-02-7.80024E-04-1.12881E-13
 -1       776 1.20675E-02-8.22147E-04-1.18409E-13
 -1       777 1.23510E-02-8.63520E-04-1.24007E-13
 -1       778 1.26351E-02-9.04006E-04-1.29671E-13
 -1       779 1.29198E-02-9.43575E-04-1.35389E-13
 -1       780 1.32047E-02-9.82267E-04-1.41163E-13
 -1       781 1.34900E-02-1.02016E-03-1.46997E-13
 -1       782 1.37754E-02-1.05737E-03-1.52880E-13
 -1       783 1.40266E-02-1.09528E-03-1.58066E-13
 -1       784 3.17859E-03 3.26488E-04-1.05792E-14
 -1       785 2.89216E-03 3.31802E-04-8.81187E-15
 -1       786 3.75376E-03 3.15741E-04-1.45866E-14
 -1       787 4.04439E-03 3.14099E-04-1.68230E-14
 -1       788 4.33922E-03 3.18230E-04-1.92112E-14
 -1       789 4.64077E-03 3.31471E-04-2.17493E-14
 -1       790 4.95225E-03 3.58130E-04-2.44338E-14
 -1       791 5.27702E-03 4.03489E-04-2.72624E-14
 -1       792 5.61694E-03 4.72823E-04-3.02352E-14
 -1       793 5.96947E-03 5.68255E-04-3.33585E-14
 -1       794 6.32616E-03 6.80523E-04-3.66406E-14
 -1       795 7.68497E-03 6.62952E-04-5.15011E-14
 -1       796 8.03921E-03 5.16528E-04-5.56460E-14
 -1       797 8.39498E-03 3.77444E-04-5.99359E-14
 -1       798 8.74014E-03 2.61923E-04-6.43688E-14
 -1       799 9.07090E-03 1.71938E-04-6.89285E-14
 -1       800 9.38732E-03 1.02887E-04-7.35972E-14
 -1       801 9.69239E-03 4.92749E-05-7.83712E-14
 -1       802 9.98946E-03 6.50944E-06-8.32497E-14
 -1       803 1.02813E-02-2.89566E-05-8.82253E-14
 -1       804 1.05700E-02-5.97715E-05-9.33014E-14
 -1       805 1.08568E-02-8.78693E-05-9.84676E-14
 -1       806 1.11427E-02-1.14633E-04-1.03725E-13
 -1       807 1.14282E-02-1.41021E-04-1.09060E-13
 -1       808 1.17135E-02-1.67660E-04-1.14467E-13
 -1       809 1.19988E-02-1.94932E-04-1.19953E-13
 -1       810 1.22842E-02-2.23034E-04-1.25512E-13
 -1       811 1.25696E-02-2.52041E-04-1.31138E-13
 -1       812 1.28551E-02-2.81938E-04-1.36826E-13
 -1       813 1.31407E-02-3.12660E-04-1.42567E-13
 -1       814 1.34263E-02-3.44112E-04-1.48354E-13
 -1       815 1.37120E-02-3.76183E-04-1.54184E-13
 -1       816 1.38911E-02-4.03179E-04-1.57835E-13
 -1       817 5.39574E-03 1.37742E-04-3.17643E-14
 -1       818 1.13414E-03 5.52783E-05-1.77318E-15
 -1       819 1.40242E-02-9.24142E-04-1.58762E-13
 -1       820 1.39572E-02-7.60110E-04-1.57984E-13
 -1       821 1.40580E-02-1.00714E-03-1.59132E-13
 -1       822 1.39907E-02-8.42069E-04-1.58379E-13
 -1       823 9.44518E-03-2.03870E-04-6.67266E-14
 -1       824 6.23462E-03 5.78992E-04-3.63468E-14
 -1       825 3.46555E-03 3.20560E-04-1.25052E-14
 -1       826 9.55505E-03-2.95061E-04-6.58907E-14
 -1       827 1.74610E-03 3.16586E-04-3.34425E-15
 -1       828 2.03280E-03 3.28964E-04-4.46825E-15
 -1       829 5.04335E-03-2.15111E-04-3.04607E-14
 -1       830 1.50965E-03-2.69057E-04-2.79440E-15
 -1       831 9.56525E-03-2.62766E-04-6.65669E-14
 -1       832 7.79971E-03 5.73977E-04-5.24370E-14
 -1       833 9.13365E-03-4.70589E-04-6.35281E-14
 -1       834 7.47702E-03 7.18549E-04-4.89577E-14
 -1       835 1.24730E-03 2.86930E-04-1.74274E-15
 -1       836 9.40777E-03-3.52191E-04-6.49151E-14
 -1       837 4.86649E-03-5.55030E-05-2.93846E-14
 -1       838 1.13237E-03 1.02408E-06-1.79530E-15
 -1       839 4.78275E-03-1.28084E-04-2.90281E-14
 -1       840 8.51130E-03 1.95692E-04-5.92084E-14
 -1       841 4.94350E-03-1.28040E-05-2.92543E-14
 -1       842 1.38555E-02-5.12003E-04-1.56738E-13
 -1       843 1.14765E-03-1.66429E-04-1.77642E-15
 -1       844 1.25389E-03-2.42921E-04-1.99265E-15
 -1       845 7.37237E-03 7.71849E-04-4.78739E-14
 -1       846 1.14827E-03 1.69319E-04-1.68621E-15
 -1       847 9.34390E-03-1.58524E-04-6.64413E-14
 -1       848 2.31941E-03 3.34537E-04-5.75491E-15
 -1       849 2.60584E-03 3.34974E-04-7.20334E-15
 -1       850 1.13932E-03 1.10752E-04-1.73768E-15
 -1       851 1.38895E-02-5.95013E-04-1.57161E-13
 -1       852 1.39234E-02-6.77622E-04-1.57577E-13
 -1       853 5.54850E-03 2.54728E-04-3.17357E-14
 -1       854 5.17844E-03-2.76318E-04-3.06139E-14
 -1       855 1.40423E-02-1.05118E-03-1.58602E-13
 -1       856 1.49648E-03 3.06171E-04-2.47820E-15
 -1       857 1.13892E-03-1.08361E-04-1.79764E-15
 -1       858 8.90360E-03 1.56689E-05-6.27662E-14
 -1       859 9.49058E-03-4.12244E-04-6.84197E-14
 -1       860 9.67160E-03-2.54515E-04-7.03614E-14
 -1       861 2.20699E-03-2.31677E-04-5.80064E-15
 -1       862 2.49046E-03-2.32890E-04-7.26485E-15
 -1       863 2.77196E-03-2.30865E-04-8.88764E-15
 -1       864 3.05084E-03-2.26720E-04-1.06674E-14
 -1       865 3.32648E-03-2.21569E-04-1.25999E-14
 -1       866 3.59830E-03-2.16569E-04-1.46838E-14
 -1       867 3.86580E-03-2.12960E-04-1.69178E-14
 -1       868 4.12874E-03-2.12074E-04-1.92963E-14
 -1       869 4.38734E-03-2.15383E-04-2.18170E-14
 -1       870 4.64294E-03-2.24838E-04-2.44757E-14
 -1       871 4.89914E-03-2.44311E-04-2.72692E-14
 -1       872 5.11940E-03 7.49173E-05-2.95279E-14
 -1       873 8.67892E-03 1.97640E-04-6.23912E-14
 -1       874 9.73918E-03-4.26840E-04-7.31582E-14
 -1       875 9.98839E-03-4.50909E-04-7.79892E-14
 -1       876 1.02416E-02-4.80803E-04-8.29204E-14
 -1       877 1.04997E-02-5.14870E-04-8.79472E-14
 -1       878 1.07627E-02-5.51944E-04-9.30714E-14
 -1       879 1.10302E-02-5.91018E-04-9.82789E-14
 -1       880 1.13015E-02-6.31238E-04-1.03574E-13
 -1       881 1.15761E-02-6.71921E-04-1.08954E-13
 -1       882 1.18533E-02-7.12562E-04-1.14415E-13
 -1       883 1.21326E-02-7.52820E-04-1.19953E-13
 -1       884 1.24136E-02-7.92495E-04-1.25558E-13
 -1       885 1.26959E-02-8.31491E-04-1.31222E-13
 -1       886 1.29791E-02-8.69789E-04-1.36942E-13
 -1       887 1.32631E-02-9.07425E-04-1.42721E-13
 -1       888 1.35476E-02-9.44457E-04-1.48559E-13
 -1       889 4.43092E-03 2.39544E-04-2.06717E-14
 -1       890 4.14261E-03 2.37642E-04-1.82048E-14
 -1       891 3.85845E-03 2.40710E-04-1.58879E-14
 -1       892 4.72700E-03 2.49822E-04-2.32846E-14
 -1       893 5.03581E-03 2.73754E-04-2.60399E-14
 -1       894 5.36364E-03 3.19191E-04-2.89378E-14
 -1       895 9.01544E-03 1.05463E-04-6.69087E-14
 -1       896 9.33078E-03 3.84994E-05-7.15390E-14
 -1       897 9.63088E-03-1.20424E-05-7.62751E-14
 -1       898 9.92116E-03-5.22065E-05-8.11126E-14
 -1       899 1.02057E-02-8.60002E-05-8.60483E-14
 -1       900 1.04874E-02-1.15963E-04-9.10820E-14
 -1       901 1.07679E-02-1.43777E-04-9.62133E-14
 -1       902 1.10483E-02-1.70587E-04-1.01433E-13
 -1       903 1.13292E-02-1.97179E-04-1.06738E-13
 -1       904 1.16108E-02-2.24070E-04-1.12118E-13
 -1       905 1.18932E-02-2.51580E-04-1.17568E-13
 -1       906 1.21763E-02-2.79880E-04-1.23095E-13
 -1       907 1.24600E-02-3.09034E-04-1.28695E-13
 -1       908 1.27442E-02-3.39031E-04-1.34355E-13
 -1       909 1.30288E-02-3.69816E-04-1.40073E-13
 -1       910 1.33138E-02-4.01307E-04-1.45842E-13
 -1       911 1.35990E-02-4.33391E-04-1.51651E-13
 -1       912 3.01126E-03 2.59286E-04-9.85291E-15
 -1       913 4.69392E-03-9.92839E-05-2.76851E-14
 -1       914 1.38732E-02-4.57696E-04-1.57289E-13
 -1       915 5.78260E-03 4.16625E-04-3.25535E-14
 -1       916 1.37943E-02-9.34530E-04-1.53832E-13
 -1       917 4.83404E-03-1.67446E-04-2.84766E-14
 -1       918 1.87185E-03 2.56166E-04-4.00620E-15
 -1       919 4.76061E-03-8.10272E-05-2.85330E-14
 -1       920 8.11242E-03 4.47456E-04-5.61024E-14
 -1       921 1.13394E-03-5.30557E-05-1.80349E-15
 -1       922 9.64845E-03-3.41625E-04-6.94274E-14
 -1       923 1.63730E-03-2.14864E-04-3.35239E-15
 -1       924 1.92230E-03-2.26074E-04-4.49551E-15
 -1       925 9.71042E-03-3.02339E-04-7.01287E-14
 -1       926 4.73420E-03-2.78473E-05-2.70275E-14
 -1       927 9.59442E-03-1.96075E-04-7.09095E-14
 -1       928 4.93006E-03-2.09107E-04-2.86274E-14
 -1       929 4.69132E-03-1.31733E-04-2.71576E-14
 -1       930 5.25484E-03 1.72681E-04-2.94974E-14
 -1       931 1.37275E-02-7.70991E-04-1.53089E-13
 -1       932 3.57603E-03 2.46422E-04-1.37217E-14
 -1       933 9.23076E-03-7.38188E-05-6.70258E-14
 -1       934 2.72770E-03 2.63864E-04-8.15291E-15
 -1       935 1.36937E-02-6.89060E-04-1.52695E-13
 -1       936 3.29391E-03 2.53074E-04-1.17101E-14
 -1       937 1.36044E-02-5.14380E-04-1.51480E-13
 -1       938 1.37609E-02-8.52475E-04-1.53467E-13
 -1       939 1.39142E-03-1.92808E-04-2.50441E-15
 -1       940 2.15775E-03 2.63518E-04-5.22791E-15
 -1       941 1.58607E-03 2.42251E-04-2.94523E-15
 -1       942 1.38054E-03-1.28102E-04-2.53170E-15
 -1       943 1.37819E-03 9.28092E-05-2.48408E-15
 -1       944 1.37391E-03 3.13206E-05-2.52116E-15
 -1       945 1.31950E-03 2.35102E-04-2.07327E-15
 -1       946 1.35146E-02-8.62796E-04-1.48215E-13
 -1       947 4.86242E-03 3.67690E-05-2.72944E-14
 -1       948 9.83727E-03-2.53058E-04-7.47215E-14
 -1       949 2.61480E-03-1.66997E-04-8.09275E-15
 -1       950 2.89256E-03-1.64967E-04-9.79301E-15
 -1       951 3.16639E-03-1.61889E-04-1.16476E-14
 -1       952 3.43533E-03-1.58627E-04-1.36540E-14
 -1       953 3.69838E-03-1.56059E-04-1.58103E-14
 -1       954 3.95440E-03-1.55037E-04-1.81141E-14
 -1       955 4.20208E-03-1.56338E-04-2.05608E-14
 -1       956 4.43982E-03-1.60560E-04-2.31468E-14
 -1       957 1.62448E-03-1.45435E-04-3.38529E-15
 -1       958 9.29571E-03-3.14323E-05-6.94733E-14
 -1       959 9.90750E-03-3.82405E-04-7.54403E-14
 -1       960 1.01387E-02-4.11331E-04-8.03073E-14
 -1       961 1.03807E-02-4.43123E-04-8.52727E-14
 -1       962 1.06315E-02-4.77401E-04-9.03324E-14
 -1       963 1.08895E-02-5.13598E-04-9.54804E-14
 -1       964 1.11533E-02-5.51129E-04-1.00721E-13
 -1       965 1.14220E-02-5.89442E-04-1.06044E-13
 -1       966 1.16945E-02-6.28079E-04-1.11450E-13
 -1       967 1.19701E-02-6.66691E-04-1.16942E-13
 -1       968 1.22483E-02-7.05045E-04-1.22502E-13
 -1       969 1.25284E-02-7.43002E-04-1.28123E-13
 -1       970 1.28100E-02-7.80495E-04-1.33804E-13
 -1       971 1.30927E-02-8.17516E-04-1.39538E-13
 -1       972 1.33035E-02-8.40308E-04-1.43863E-13
 -1       973 4.79465E-03 1.64065E-04-2.48265E-14
 -1       974 4.50905E-03 1.59593E-04-2.21417E-14
 -1       975 3.95635E-03 1.67476E-04-1.72025E-14
 -1       976 9.82677E-03-3.45277E-04-7.32409E-14
 -1       977 1.38670E-03 1.56335E-04-2.42820E-15
 -1       978 9.58555E-03-7.57298E-05-7.41725E-14
 -1       979 9.86491E-03-1.10701E-04-7.89708E-14
 -1       980 1.01391E-02-1.41276E-04-8.38670E-14
 -1       981 1.04117E-02-1.69519E-04-8.88599E-14
 -1       982 1.06845E-02-1.96675E-04-9.39501E-14
 -1       983 1.09584E-02-2.23495E-04-9.91325E-14
 -1       984 1.12339E-02-2.50469E-04-1.04407E-13
 -1       985 1.15111E-02-2.77911E-04-1.09760E-13
 -1       986 1.17900E-02-3.06013E-04-1.15179E-13
 -1       987 1.20703E-02-3.34872E-04-1.20675E-13
 -1       988 1.23519E-02-3.64516E-04-1.26243E-13
 -1       989 1.26345E-02-3.94922E-04-1.31882E-13
 -1       990 1.29180E-02-4.26031E-04-1.37576E-13
 -1       991 1.32021E-02-4.57768E-04-1.43319E-13
 -1       992 1.37379E-03-2.92900E-05-2.54115E-15
 -1       993 1.71513E-03 1.86167E-04-3.54446E-15
 -1       994 4.62886E-03-5.52187E-05-2.62136E-14
 -1       995 2.44315E-03 2.65665E-04-6.61057E-15
 -1       996 1.34816E-02-7.81869E-04-1.47860E-13
 -1       997 1.37582E-03-7.81801E-05-2.54231E-15
 -1       998 1.36597E-02-6.07042E-04-1.52295E-13
 -1       999 2.05125E-03-1.64449E-04-5.16229E-15
 -1      1000 4.23121E-03 1.61857E-04-1.95990E-14
 -1      1001 2.33404E-03-1.67117E-04-6.54904E-15
 -1      1002 1.83779E-03-1.56013E-04-4.22842E-15
 -1      1003 9.85998E-03-3.01710E-04-7.40006E-14
 -1      1004 4.62260E-03 2.05899E-05-2.49503E-14
 -1      1005 9.77720E-03-1.90996E-04-7.52506E-14
 -1      1006 4.68782E-03-1.71959E-04-2.60889E-14
 -1      1007 4.97187E-03 1.13896E-04-2.72655E-14
 -1      1008 3.68185E-03 1.74560E-04-1.49543E-14
 -1      1009 1.32580E-02-5.49420E-04-1.44122E-13
 -1      1010 2.84917E-03 1.94097E-04-9.12710E-15
 -1      1011 1.34480E-02-7.00627E-04-1.47488E-13
 -1      1012 4.55000E-03-9.83181E-05-2.54010E-14
 -1      1013 1.62655E-03 1.34025E-04-3.30041E-15
 -1      1014 3.12875E-03 1.88703E-04-1.09157E-14
 -1      1015 4.50905E-03-1.27749E-05-2.41772E-14
 -1      1016 1.99988E-03 1.94296E-04-4.70092E-15
 -1      1017 1.61913E-03 6.68105E-05-3.35740E-15
 -1      1018 1.00247E-02-2.51848E-04-7.91492E-14
 -1      1019 4.48995E-03-1.26232E-04-2.42721E-14
 -1      1020 2.74158E-03-1.03049E-04-8.93268E-15
 -1      1021 3.01552E-03-1.02090E-04-1.07076E-14
 -1      1022 3.28438E-03-1.01059E-04-1.26353E-14
 -1      1023 3.54694E-03-1.00610E-04-1.47133E-14
 -1      1024 3.80171E-03-1.01390E-04-1.69407E-14
 -1      1025 4.04684E-03-1.04004E-04-1.93138E-14
 -1      1026 4.27963E-03-1.08817E-04-2.18266E-14
 -1      1027 1.61848E-03-9.15585E-05-3.39875E-15
 -1      1028 1.02572E-02-3.78328E-04-8.26133E-14
 -1      1029 1.04972E-02-4.08891E-04-8.76131E-14
 -1      1030 1.07468E-02-4.41500E-04-9.27015E-14
 -1      1031 1.10041E-02-4.75710E-04-9.78831E-14
 -1      1032 1.12675E-02-5.11054E-04-1.03151E-13
 -1      1033 1.15357E-02-5.47110E-04-1.08505E-13
 -1      1034 1.18080E-02-5.83530E-04-1.13945E-13
 -1      1035 1.20834E-02-6.20059E-04-1.19460E-13
 -1      1036 1.23614E-02-6.56523E-04-1.25041E-13
 -1      1037 1.26413E-02-6.92815E-04-1.30678E-13
 -1      1038 1.29229E-02-7.28883E-04-1.36370E-13
 -1      1039 4.57111E-03 8.04934E-05-2.36185E-14
 -1      1040 1.00808E-02-1.93742E-04-8.16825E-14
 -1      1041 2.56757E-03 1.97365E-04-7.49372E-15
 -1      1042 1.03417E-02-2.19712E-04-8.66370E-14
 -1      1043 1.06051E-02-2.46018E-04-9.16851E-14
 -1      1044 1.08715E-02-2.72899E-04-9.68286E-14
 -1      1045 1.11409E-02-3.00473E-04-1.02065E-13
 -1      1046 1.14133E-02-3.28787E-04-1.07391E-13
 -1      1047 1.16884E-02-3.57854E-04-1.12785E-13
 -1      1048 1.19657E-02-3.87659E-04-1.18251E-13
 -1      1049 1.22449E-02-4.18167E-04-1.23790E-13
 -1      1050 1.25257E-02-4.49323E-04-1.29401E-13
 -1      1051 1.28078E-02-4.81063E-04-1.35077E-13
 -1      1052 1.30327E-02-5.15029E-04-1.39585E-13
 -1      1053 1.61648E-03 1.00949E-06-3.39295E-15
 -1      1054 4.40250E-03-6.41223E-05-2.34136E-14
 -1      1055 2.46367E-03-1.03303E-04-7.31267E-15
 -1      1056 1.32708E-02-7.60007E-04-1.43517E-13
 -1      1057 1.33532E-02-6.24921E-04-1.45804E-13
 -1      1058 2.18292E-03-1.02239E-04-5.84824E-15
 -1      1059 2.28430E-03 1.97714E-04-6.01738E-15
 -1      1060 3.40622E-03 1.81936E-04-1.28583E-14
 -1      1061 1.91019E-03 1.41207E-04-4.42210E-15
 -1      1062 1.00303E-02-3.51088E-04-7.77133E-14
 -1      1063 1.83086E-03-9.98221E-05-4.24340E-15
 -1      1064 3.78427E-03 1.05835E-04-1.62027E-14
 -1      1065 4.30996E-03 8.82565E-05-2.10040E-14
 -1      1066 1.30967E-02-7.44545E-04-1.39932E-13
 -1      1067 4.04834E-03 9.71560E-05-1.85309E-14
 -1      1068 1.32373E-02-6.79452E-04-1.43156E-13
 -1      1069 2.69323E-03 1.30239E-04-8.40157E-15
 -1      1070 2.97107E-03 1.26317E-04-1.01222E-14
 -1      1071 1.61631E-03-4.50961E-05-3.40088E-15
 -1      1072 1.00447E-02-3.04747E-04-7.84483E-14
 -1      1073 4.38072E-03 3.28663E-05-2.22723E-14
 -1      1074 1.03526E-02-3.44986E-04-8.49051E-14
 -1      1075 2.87245E-03-4.11298E-05-9.78176E-15
 -1      1076 1.82814E-03-5.12558E-05-4.24573E-15
 -1      1077 1.93124E-03 6.15730E-05-4.62956E-15
 -1      1078 1.02675E-02-2.75494E-04-8.40624E-14
 -1      1079 3.14314E-03-4.21226E-05-1.16296E-14
 -1      1080 3.40823E-03-4.38272E-05-1.36281E-14
 -1      1081 3.66590E-03-4.68596E-05-1.57775E-14
 -1      1082 3.91478E-03-5.15805E-05-1.80741E-14
 -1      1083 4.15219E-03-5.88152E-05-2.05144E-14
 -1      1084 2.59705E-03-4.04661E-05-8.08862E-15
 -1      1085 1.05971E-02-3.73662E-04-8.99377E-14
 -1      1086 1.08500E-02-4.04211E-04-9.50622E-14
 -1      1087 1.11097E-02-4.36248E-04-1.00272E-13
 -1      1088 1.13749E-02-4.69355E-04-1.05576E-13
 -1      1089 1.16445E-02-5.03194E-04-1.10963E-13
 -1      1090 1.19178E-02-5.37504E-04-1.16430E-13
 -1      1091 1.21940E-02-5.72093E-04-1.21965E-13
 -1      1092 1.24726E-02-6.06828E-04-1.27566E-13
 -1      1093 1.27530E-02-6.41621E-04-1.33221E-13
 -1      1094 2.31814E-03-3.97289E-05-6.54921E-15
 -1      1095 1.05178E-02-3.01287E-04-8.90685E-14
 -1      1096 1.07742E-02-3.28718E-04-9.41688E-14
 -1      1097 1.10361E-02-3.57540E-04-9.93584E-14
 -1      1098 1.13026E-02-3.87466E-04-1.04641E-13
 -1      1099 1.15730E-02-4.18279E-04-1.10007E-13
 -1      1100 1.18468E-02-4.49804E-04-1.15450E-13
 -1      1101 1.21232E-02-4.81908E-04-1.20959E-13
 -1      1102 1.24019E-02-5.14482E-04-1.26541E-13
 -1      1103 1.26824E-02-5.47440E-04-1.32186E-13
 -1      1104 4.25225E-03-1.57805E-05-2.13978E-14
 -1      1105 2.41270E-03 1.32082E-04-6.83562E-15
 -1      1106 3.51677E-03 1.13791E-04-1.40236E-14
 -1      1107 2.07356E-03-4.59683E-05-5.33797E-15
 -1      1108 2.10494E-03 1.28523E-04-5.31443E-15
 -1      1109 3.88566E-03 4.13074E-05-1.74647E-14
 -1      1110 1.31281E-02-5.89873E-04-1.41252E-13
 -1      1111 1.29262E-02-6.56686E-04-1.36756E-13
 -1      1112 2.82109E-03 6.48179E-05-9.33114E-15
 -1      1113 3.24578E-03 1.20738E-04-1.19968E-14
 -1      1114 1.29048E-02-5.68636E-04-1.36702E-13
 -1      1115 4.16935E-03 3.24030E-05-2.01774E-14
 -1      1116 1.30816E-02-6.68127E-04-1.39949E-13
 -1      1117 2.54367E-03 6.71302E-05-7.67927E-15
 -1      1118 3.62787E-03 4.94760E-05-1.52045E-14
 -1      1119 3.27817E-03 1.55956E-05-1.25566E-14
 -1      1120 3.09473E-03 6.11053E-05-1.11365E-14
 -1      1121 2.21876E-03 6.10475E-05-5.96938E-15
 -1      1122 0.00000E+00 0.00000E+00 0.00000E+00
 -1      1123 0.00000E+00 0.00000E+00 0.00000E+00
 -1      1124 0.00000E+00 0.00000E+00 0.00000E+00
 -1      1125 0.00000E+00 0.00000E+00 0.00000E+00
 -1      1126 0.00000E+00 0.00000E+00 0.00000E+00
 -1      1127 0.00000E+00 0.00000E+00 0.00000E+00
 -1      1128 0.00000E+00 0.00000E+00 0.00000E+00
 -1      1129 0.00000E+00 0.00000E+00 0.00000E+00
 -1      1130 0.00000E+00 0.00000E+00 0.00000E+00
 -1      1131 0.00000E+00 0.00000E+00 0.00000E+00
 -1      1132 0.00000E+00 0.00000E+00 0.00000E+00
 -1      1133 0.00000E+00 0.00000E+00 0.00000E+00
 -1      1134 0.00000E+00 0.00000E+00 0.00000E+00
 -1      1135 0.00000E+00 0.00000E+00 0.00000E+00
 -1      1136 0.00000E+00 0.00000E+00 0.00000E+00
 -1      1137 0.00000E+00 0.00000E+00 0.00000E+00
 -1      1138 0.00000E+00 0.00000E+00 0.00000E+00
 -1      1139 2.10515E-04-1.47335E-04 2.36898E-17
 -1      1140 5.48971E-04-3.34029E-04-4.55500E-17
 -1      1141 8.30124E-04-4.52410E-04-2.85741E-16
 -1      1142 1.09968E-03-5.30454E-04-7.26592E-16
 -1      1143 1.36580E-03-5.83452E-04-1.35811E-15
 -1      1144 1.63226E-03-6.19201E-04-2.17526E-15
 -1      1145 1.90127E-03-6.42282E-04-3.17671E-15
 -1      1146 2.17417E-03-6.55813E-04-4.35947E-15
 -1      1147 2.45193E-03-6.62175E-04-5.71911E-15
 -1      1148 2.73542E-03-6.63357E-04-7.25231E-15
 -1      1149 3.02557E-03-6.61181E-04-8.95378E-15
 -1      1150 3.32351E-03-6.57521E-04-1.08153E-14
 -1      1151 3.63056E-03-6.54544E-04-1.28352E-14
 -1      1152 3.94821E-03-6.54987E-04-1.50112E-14
 -1      1153 4.27794E-03-6.62458E-04-1.73368E-14
 -1      1154 4.62082E-03-6.81719E-04-1.98123E-14
 -1      1155 4.97680E-03-7.18750E-04-2.24352E-14
 -1      1156 5.34362E-03-7.80253E-04-2.52072E-14
 -1      1157 5.71553E-03-8.71937E-04-2.81318E-14
 -1      1158 6.08249E-03-9.95014E-04-3.12155E-14
 -1      1159 6.43119E-03-1.14115E-03-3.44676E-14
 -1      1160 6.74957E-03-1.28863E-03-3.78993E-14
 -1      1161 7.03423E-03-1.40494E-03-4.15235E-14
 -1      1162 7.29623E-03-1.45897E-03-4.53426E-14
 -1      1163 7.55841E-03-1.43775E-03-4.93531E-14
 -1      1164 7.84353E-03-1.35445E-03-5.35472E-14
 -1      1165 8.16258E-03-1.24025E-03-5.79064E-14
 -1      1166 8.51209E-03-1.12764E-03-6.24134E-14
 -1      1167 8.87999E-03-1.03823E-03-6.70611E-14
 -1      1168 9.25305E-03-9.80225E-04-7.18341E-14
 -1      1169 9.62139E-03-9.52391E-04-7.67239E-14
 -1      1170 9.97944E-03-9.49057E-04-8.17247E-14
 -1      1171 1.03252E-02-9.63653E-04-8.68325E-14
 -1      1172 1.06587E-02-9.90398E-04-9.20371E-14
 -1      1173 1.09813E-02-1.02482E-03-9.73320E-14
 -1      1174 1.12949E-02-1.06372E-03-1.02713E-13
 -1      1175 1.16010E-02-1.10491E-03-1.08166E-13
 -1      1176 1.19014E-02-1.14698E-03-1.13694E-13
 -1      1177 1.21974E-02-1.18904E-03-1.19305E-13
 -1      1178 1.24901E-02-1.23059E-03-1.24975E-13
 -1      1179 1.27804E-02-1.27136E-03-1.30701E-13
 -1      1180 1.30689E-02-1.31126E-03-1.36498E-13
 -1      1181 1.33563E-02-1.35029E-03-1.42357E-13
 -1      1182 1.36428E-02-1.38850E-03-1.48262E-13
 -1      1183 1.39288E-02-1.42599E-03-1.54221E-13
 -1      1184 1.42146E-02-1.46288E-03-1.60219E-13
 -1      1185 1.45002E-02-1.49927E-03-1.66247E-13
 -1      1186 1.47857E-02-1.53529E-03-1.72301E-13
 -1      1187 1.50713E-02-1.57108E-03-1.78378E-13
 -1      1188 1.53499E-02-1.60591E-03-1.84335E-13
 -1      1189 2.27190E-04 1.59641E-04 4.11997E-17
 -1      1190 5.51189E-04 3.38642E-04 9.60874E-18
 -1      1191 8.31155E-04 4.54625E-04-1.79652E-16
 -1      1192 1.10073E-03 5.32273E-04-5.46519E-16
 -1      1193 1.36690E-03 5.85401E-04-1.09133E-15
 -1      1194 1.63345E-03 6.21458E-04-1.81372E-15
 -1      1195 1.90252E-03 6.44995E-04-2.71189E-15
 -1      1196 2.17536E-03 6.59182E-04-3.78170E-15
 -1      1197 2.45286E-03 6.66476E-04-5.02288E-15
 -1      1198 2.73571E-03 6.68950E-04-6.43225E-15
 -1      1199 3.02456E-03 6.68516E-04-8.01349E-15
 -1      1200 3.32008E-03 6.67102E-04-9.76554E-15
 -1      1201 3.62288E-03 6.66820E-04-1.16825E-14
 -1      1202 3.93342E-03 6.70103E-04-1.37626E-14
 -1      1203 4.25181E-03 6.79776E-04-1.60062E-14
 -1      1204 4.57743E-03 6.98988E-04-1.84152E-14
 -1      1205 4.90853E-03 7.30874E-04-2.09818E-14
 -1      1206 5.24180E-03 7.77807E-04-2.36996E-14
 -1      1207 5.57220E-03 8.40129E-04-2.65632E-14
 -1      1208 5.89337E-03 9.14514E-04-2.95708E-14
 -1      1209 6.19902E-03 9.92580E-04-3.27237E-14
 -1      1210 6.48530E-03 1.06093E-03-3.60360E-14
 -1      1211 6.75332E-03 1.10376E-03-3.95257E-14
 -1      1212 7.01016E-03 1.10796E-03-4.31934E-14
 -1      1213 7.26707E-03 1.06842E-03-4.70263E-14
 -1      1214 7.53529E-03 9.90271E-04-5.10107E-14
 -1      1215 7.82194E-03 8.86668E-04-5.51417E-14
 -1      1216 8.12816E-03 7.73418E-04-5.94093E-14
 -1      1217 8.45014E-03 6.63892E-04-6.38090E-14
 -1      1218 8.78167E-03 5.66435E-04-6.83429E-14
 -1      1219 9.11649E-03 4.84368E-04-7.29892E-14
 -1      1220 9.44970E-03 4.17396E-04-7.77407E-14
 -1      1221 9.77818E-03 3.63265E-04-8.25848E-14
 -1      1222 1.01004E-02 3.19035E-04-8.75233E-14
 -1      1223 1.04159E-02 2.81848E-04-9.25688E-14
 -1      1224 1.07252E-02 2.49283E-04-9.77207E-14
 -1      1225 1.10289E-02 2.19461E-04-1.02969E-13
 -1      1226 1.13280E-02 1.91017E-04-1.08310E-13
 -1      1227 1.16234E-02 1.63018E-04-1.13736E-13
 -1      1228 1.19158E-02 1.34862E-04-1.19235E-13
 -1      1229 1.22059E-02 1.06199E-04-1.24799E-13
 -1      1230 1.24945E-02 7.68500E-05-1.30435E-13
 -1      1231 1.27819E-02 4.67566E-05-1.36144E-13
 -1      1232 1.30685E-02 1.59352E-05-1.41913E-13
 -1      1233 1.33546E-02-1.55512E-05-1.47726E-13
 -1      1234 1.36403E-02-4.76136E-05-1.53565E-13
 -1      1235 1.39259E-02-8.01483E-05-1.59431E-13
 -1      1236 1.42115E-02-1.13041E-04-1.65333E-13
 -1      1237 1.44971E-02-1.46164E-04-1.71240E-13
 -1      1238 1.47756E-02-1.78538E-04-1.76999E-13
 -1      1239 1.49277E-02-2.36448E-04-1.80026E-13
 -1      1240 1.49603E-02-3.20775E-04-1.80488E-13
 -1      1241 1.49929E-02-4.05164E-04-1.80933E-13
 -1      1242 1.50258E-02-4.89575E-04-1.81376E-13
 -1      1243 1.50589E-02-5.73953E-04-1.81840E-13
 -1      1244 1.50919E-02-6.57542E-04-1.82292E-13
 -1      1245 1.51252E-02-7.41041E-04-1.82747E-13
 -1      1246 1.51589E-02-8.25176E-04-1.83207E-13
 -1      1247 1.51927E-02-9.09268E-04-1.83683E-13
 -1      1248 1.52266E-02-9.93363E-04-1.84147E-13
 -1      1249 1.52607E-02-1.07751E-03-1.84600E-13
 -1      1250 1.52946E-02-1.16102E-03-1.85060E-13
 -1      1251 1.53287E-02-1.24462E-03-1.85518E-13
 -1      1252 1.53634E-02-1.32902E-03-1.85940E-13
 -1      1253 1.53983E-02-1.41344E-03-1.86336E-13
 -1      1254 1.54334E-02-1.49783E-03-1.86721E-13
 -1      1255 1.54683E-02-1.58144E-03-1.87077E-13
 -1      1256 9.38077E-03-1.54776E-04-5.43581E-14
 -1      1257 9.26034E-03-9.85152E-06-5.39038E-14
 -1      1258 9.04841E-03 1.36377E-04-5.30856E-14
 -1      1259 8.73617E-03 2.94834E-04-5.18454E-14
 -1      1260 8.36004E-03 4.45010E-04-5.02980E-14
 -1      1261 7.94329E-03 5.69105E-04-4.85324E-14
 -1      1262 7.50443E-03 6.53578E-04-4.66471E-14
 -1      1263 7.07006E-03 6.81644E-04-4.47822E-14
 -1      1264 6.63015E-03 6.54996E-04-4.29313E-14
 -1      1265 6.20204E-03 5.75810E-04-4.12050E-14
 -1      1266 5.81042E-03 4.59803E-04-3.97082E-14
 -1      1267 5.45877E-03 3.17855E-04-3.84413E-14
 -1      1268 5.17556E-03 1.64106E-04-3.74824E-14
 -1      1269 5.00044E-03 1.82376E-05-3.69252E-14
 -1      1270 4.93091E-03-1.28359E-04-3.67169E-14
 -1      1271 4.97314E-03-2.75508E-04-3.68725E-14
 -1      1272 5.13288E-03-4.34054E-04-3.74039E-14
 -1      1273 5.39699E-03-6.00704E-04-3.83085E-14
 -1      1274 5.73323E-03-7.62299E-04-3.95152E-14
 -1      1275 6.13557E-03-9.14162E-04-4.10341E-14
 -1      1276 6.59277E-03-1.03409E-03-4.28492E-14
 -1      1277 7.06408E-03-1.09872E-03-4.48035E-14
 -1      1278 7.51754E-03-1.09549E-03-4.67184E-14
 -1      1279 7.97549E-03-1.02672E-03-4.86669E-14
 -1      1280 8.40286E-03-9.09766E-04-5.04692E-14
 -1      1281 8.77904E-03-7.63621E-04-5.20032E-14
 -1      1282 9.08399E-03-6.06307E-04-5.32044E-14
 -1      1283 9.29048E-03-4.54507E-04-5.40014E-14
 -1      1284 9.39334E-03-3.04382E-04-5.43989E-14
 -1      1285 1.66104E-04-1.09521E-04-4.58075E-18
 -1      1286 1.12528E-04-5.62711E-05-3.82046E-17
 -1      1287 1.17474E-04-6.69192E-05-2.88533E-17
 -1      1288 1.08555E-04-4.26686E-05-5.35596E-17
 -1      1289 1.10358E-04-4.88273E-05-4.88298E-17
 -1      1290 2.26431E-04-1.05992E-04-1.14939E-16
 -1      1291 1.07023E-04-3.27273E-05-6.18673E-17
 -1      1292 1.07852E-04-3.74589E-05-5.94685E-17
 -1      1293 2.19423E-04-8.06706E-05-1.42302E-16
 -1      1294 1.06236E-04-2.44959E-05-6.68817E-17
 -1      1295 1.06676E-04-2.84933E-05-6.56891E-17
 -1      1296 2.16227E-04-6.14565E-05-1.58348E-16
 -1      1297 1.05797E-04-1.73632E-05-6.95380E-17
 -1      1298 1.06048E-04-2.08506E-05-6.89688E-17
 -1      1299 2.14506E-04-4.55059E-05-1.67685E-16
 -1      1300 1.05535E-04-1.07291E-05-7.08526E-17
 -1      1301 1.05680E-04-1.39937E-05-7.06900E-17
 -1      1302 2.13486E-04-3.13937E-05-1.72700E-16
 -1      1303 1.05406E-04-4.46031E-06-7.11643E-17
 -1      1304 1.05472E-04-7.56754E-06-7.12592E-17
 -1      1305 2.12891E-04-1.83096E-05-1.74922E-16
 -1      1306 1.05388E-04 1.66187E-06-7.07306E-17
 -1      1307 1.05387E-04-1.39681E-06-7.09881E-17
 -1      1308 2.12617E-04-5.86104E-06-1.75153E-16
 -1      1309 1.05477E-04 7.84361E-06-6.94838E-17
 -1      1310 1.05409E-04 4.72900E-06-6.98497E-17
 -1      1311 2.12623E-04 6.39197E-06-1.73296E-16
 -1      1312 1.05690E-04 1.42977E-05-6.73154E-17
 -1      1313 1.05543E-04 1.10167E-05-6.79795E-17
 -1      1314 2.12910E-04 1.88698E-05-1.69515E-16
 -1      1315 1.06062E-04 2.11425E-05-6.39950E-17
 -1      1316 1.05807E-04 1.76304E-05-6.50386E-17
 -1      1317 2.13515E-04 3.19023E-05-1.63498E-16
 -1      1318 1.06710E-04 2.89265E-05-5.90077E-17
 -1      1319 1.06262E-04 2.48846E-05-6.07289E-17
 -1      1320 2.14557E-04 4.61128E-05-1.54689E-16
 -1      1321 1.07883E-04 3.80405E-05-5.10117E-17
 -1      1322 1.07048E-04 3.32372E-05-5.40746E-17
 -1      1323 2.16321E-04 6.23858E-05-1.41448E-16
 -1      1324 1.10333E-04 4.95627E-05-3.85298E-17
 -1      1325 1.08554E-04 4.33359E-05-4.38966E-17
 -1      1326 2.19510E-04 8.19175E-05-1.21322E-16
 -1      1327 1.16796E-04 6.69564E-05-1.83772E-17
 -1      1328 1.12176E-04 5.70657E-05-2.80808E-17
 -1      1329 2.26413E-04 1.07803E-04-9.11543E-17
 -1      1330 1.56957E-04 1.09089E-04 1.32679E-17
 -1      1331 1.35366E-04 8.53690E-05-6.42390E-18
 -1      1332 2.55696E-04 1.50452E-04-5.49419E-17
 -1      1333 3.33837E-04 2.18805E-04-2.73761E-18
 -1      1334 4.20102E-04-2.59060E-04-6.86029E-17
 -1      1335 5.72857E-04-3.32655E-04-1.48793E-16
 -1      1336 7.19849E-04-3.91667E-04-2.81012E-16
 -1      1337 8.62962E-04-4.39245E-04-4.61152E-16
 -1      1338 6.11107E-04-3.25997E-04-2.67690E-16
 -1      1339 1.00309E-03-4.78457E-04-6.87655E-16
 -1      1340 1.14121E-03-5.10441E-04-9.61877E-16
 -1      1341 9.04458E-04-4.23192E-04-6.42525E-16
 -1      1342 1.27817E-03-5.37035E-04-1.28207E-15
 -1      1343 1.41450E-03-5.58720E-04-1.64899E-15
 -1      1344 1.18761E-03-4.88508E-04-1.20170E-15
 -1      1345 1.55069E-03-5.76531E-04-2.06124E-15
 -1      1346 1.68702E-03-5.90810E-04-2.51921E-15
 -1      1347 1.46605E-03-5.32452E-04-1.94387E-15
 -1      1348 1.82378E-03-6.02156E-04-3.02281E-15
 -1      1349 1.96114E-03-6.10882E-04-3.57144E-15
 -1      1350 1.74329E-03-5.61095E-04-2.86675E-15
 -1      1351 2.09930E-03-6.17368E-04-4.16415E-15
 -1      1352 2.23836E-03-6.21898E-04-4.80155E-15
 -1      1353 2.02154E-03-5.78343E-04-3.96830E-15
 -1      1354 2.37848E-03-6.24734E-04-5.48249E-15
 -1      1355 2.51974E-03-6.26146E-04-6.20610E-15
 -1      1356 2.30226E-03-5.87014E-04-5.24526E-15
 -1      1357 2.66230E-03-6.26331E-04-6.97303E-15
 -1      1358 2.80624E-03-6.25556E-04-7.78192E-15
 -1      1359 2.58651E-03-5.89308E-04-6.69424E-15
 -1      1360 2.95170E-03-6.23994E-04-8.63118E-15
 -1      1361 3.09880E-03-6.21928E-04-9.52182E-15
 -1      1362 2.87524E-03-5.87101E-04-8.31073E-15
 -1      1363 3.24769E-03-6.19543E-04-1.04521E-14
 -1      1364 3.39850E-03-6.17164E-04-1.14217E-14
 -1      1365 3.16936E-03-5.82189E-04-1.00900E-14
 -1      1366 3.55139E-03-6.15027E-04-1.24311E-14
 -1      1367 3.70651E-03-6.13523E-04-1.34792E-14
 -1      1368 3.46983E-03-5.76522E-04-1.20284E-14
 -1      1369 3.86402E-03-6.12993E-04-1.45665E-14
 -1      1370 4.02406E-03-6.13921E-04-1.56910E-14
 -1      1371 3.77769E-03-5.72479E-04-1.41235E-14
 -1      1372 4.18677E-03-6.16811E-04-1.68525E-14
 -1      1373 4.35223E-03-6.22257E-04-1.80514E-14
 -1      1374 4.09393E-03-5.73192E-04-1.63704E-14
 -1      1375 4.52051E-03-6.30982E-04-1.92878E-14
 -1      1376 4.69158E-03-6.43688E-04-2.05613E-14
 -1      1377 4.41937E-03-5.82880E-04-1.87658E-14
 -1      1378 4.86533E-03-6.61332E-04-2.18710E-14
 -1      1379 5.04153E-03-6.84655E-04-2.32177E-14
 -1      1380 4.75440E-03-6.07113E-04-2.13091E-14
 -1      1381 5.21982E-03-7.14745E-04-2.46017E-14
 -1      1382 5.39962E-03-7.52195E-04-2.60235E-14
 -1      1383 5.09848E-03-6.52746E-04-2.39993E-14
 -1      1384 5.58025E-03-7.97877E-04-2.74837E-14
 -1      1385 5.76070E-03-8.51838E-04-2.89832E-14
 -1      1386 5.44966E-03-7.26995E-04-2.68393E-14
 -1      1387 5.93996E-03-9.14068E-04-3.05226E-14
 -1      1388 6.11674E-03-9.83494E-04-3.21028E-14
 -1      1389 5.80396E-03-8.34885E-04-2.98331E-14
 -1      1390 6.28988E-03-1.05839E-03-3.37246E-14
 -1      1391 6.45819E-03-1.13595E-03-3.53928E-14
 -1      1392 6.15525E-03-9.74574E-04-3.29873E-14
 -1      1393 6.62089E-03-1.21238E-03-3.71059E-14
 -1      1394 6.77764E-03-1.28344E-03-3.88648E-14
 -1      1395 6.49612E-03-1.13150E-03-3.63141E-14
 -1      1396 6.92865E-03-1.34418E-03-4.06729E-14
 -1      1397 7.07498E-03-1.39040E-03-4.25304E-14
 -1      1398 6.82097E-03-1.27587E-03-3.98275E-14
 -1      1399 7.21803E-03-1.41847E-03-4.44366E-14
 -1      1400 7.36016E-03-1.42665E-03-4.63907E-14
 -1      1401 7.13042E-03-1.36996E-03-4.35338E-14
 -1      1402 7.50328E-03-1.41496E-03-4.83930E-14
 -1      1403 7.64974E-03-1.38517E-03-5.04414E-14
 -1      1404 7.43339E-03-1.38631E-03-4.74363E-14
 -1      1405 7.80094E-03-1.34092E-03-5.25339E-14
 -1      1406 7.95794E-03-1.28642E-03-5.46701E-14
 -1      1407 7.74306E-03-1.32504E-03-5.15252E-14
 -1      1408 8.12093E-03-1.22661E-03-5.68451E-14
 -1      1409 8.28957E-03-1.16574E-03-5.90577E-14
 -1      1410 8.06834E-03-1.21376E-03-5.57878E-14
 -1      1411 8.46308E-03-1.10762E-03-6.13091E-14
 -1      1412 8.64025E-03-1.05499E-03-6.35958E-14
 -1      1413 8.40978E-03-1.09022E-03-6.02089E-14
 -1      1414 8.81995E-03-1.00958E-03-6.59151E-14
 -1      1415 9.00089E-03-9.72452E-04-6.82672E-14
 -1      1416 8.76178E-03-9.84114E-04-6.47751E-14
 -1      1417 9.18207E-03-9.43596E-04-7.06501E-14
 -1      1418 9.36251E-03-9.22963E-04-7.30617E-14
 -1      1419 9.11698E-03-9.09854E-04-6.94698E-14
 -1      1420 9.54154E-03-9.09676E-04-7.55018E-14
 -1      1421 9.71859E-03-9.03154E-04-7.79710E-14
 -1      1422 9.46934E-03-8.69192E-04-7.42860E-14
 -1      1423 9.89334E-03-9.02315E-04-8.04677E-14
 -1      1424 1.00656E-02-9.06440E-04-8.29898E-14
 -1      1425 9.81501E-03-8.57099E-04-7.92138E-14
 -1      1426 1.02352E-02-9.14586E-04-8.55388E-14
 -1      1427 1.04022E-02-9.26083E-04-8.81106E-14
 -1      1428 1.01521E-02-8.66449E-04-8.42492E-14
 -1      1429 1.05666E-02-9.40230E-04-9.07068E-14
 -1      1430 1.07287E-02-9.56476E-04-9.33278E-14
 -1      1431 1.04804E-02-8.90549E-04-8.93852E-14
 -1      1432 1.08885E-02-9.74351E-04-9.59725E-14
 -1      1433 1.10462E-02-9.93429E-04-9.86359E-14
 -1      1434 1.08002E-02-9.24065E-04-9.46151E-14
 -1      1435 1.12020E-02-1.01342E-03-1.01319E-13
 -1      1436 1.13560E-02-1.03401E-03-1.04023E-13
 -1      1437 1.11126E-02-9.63119E-04-9.99332E-14
 -1      1438 1.15086E-02-1.05504E-03-1.06746E-13
 -1      1439 1.16597E-02-1.07628E-03-1.09488E-13
 -1      1440 1.14187E-02-1.00506E-03-1.05332E-13
 -1      1441 1.18096E-02-1.09764E-03-1.12249E-13
 -1      1442 1.19585E-02-1.11898E-03-1.15029E-13
 -1      1443 1.17198E-02-1.04814E-03-1.10807E-13
 -1      1444 1.21064E-02-1.14027E-03-1.17826E-13
 -1      1445 1.22535E-02-1.16139E-03-1.20643E-13
 -1      1446 1.20167E-02-1.09131E-03-1.16357E-13
 -1      1447 1.23998E-02-1.18235E-03-1.23474E-13
 -1      1448 1.25456E-02-1.20309E-03-1.26319E-13
 -1      1449 1.23105E-02-1.13393E-03-1.21976E-13
 -1      1450 1.26908E-02-1.22361E-03-1.29180E-13
 -1      1451 1.28356E-02-1.24388E-03-1.32057E-13
 -1      1452 1.26019E-02-1.17568E-03-1.27660E-13
 -1      1453 1.29800E-02-1.26393E-03-1.34951E-13
 -1      1454 1.31241E-02-1.28373E-03-1.37863E-13
 -1      1455 1.28915E-02-1.21644E-03-1.33410E-13
 -1      1456 1.32679E-02-1.30330E-03-1.40786E-13
 -1      1457 1.34115E-02-1.32266E-03-1.43722E-13
 -1      1458 1.31798E-02-1.25619E-03-1.39220E-13
 -1      1459 1.35549E-02-1.34181E-03-1.46673E-13
 -1      1460 1.36981E-02-1.36076E-03-1.49633E-13
 -1      1461 1.34671E-02-1.29501E-03-1.45084E-13
 -1      1462 1.38413E-02-1.37953E-03-1.52606E-13
 -1      1463 1.39843E-02-1.39813E-03-1.55592E-13
 -1      1464 1.37537E-02-1.33298E-03-1.50999E-13
 -1      1465 1.41273E-02-1.41659E-03-1.58586E-13
 -1      1466 1.42702E-02-1.43491E-03-1.61587E-13
 -1      1467 1.40400E-02-1.37023E-03-1.56959E-13
 -1      1468 1.44131E-02-1.45311E-03-1.64598E-13
 -1      1469 1.45559E-02-1.47120E-03-1.67617E-13
 -1      1470 1.43259E-02-1.40690E-03-1.62956E-13
 -1      1471 1.46987E-02-1.48922E-03-1.70643E-13
 -1      1472 1.48416E-02-1.50716E-03-1.73674E-13
 -1      1473 1.46117E-02-1.44311E-03-1.68985E-13
 -1      1474 1.49844E-02-1.52505E-03-1.76710E-13
 -1      1475 1.51272E-02-1.54290E-03-1.79755E-13
 -1      1476 1.48975E-02-1.47900E-03-1.75043E-13
 -1      1477 1.53326E-02-1.56447E-03-1.84166E-13
 -1      1478 1.52456E-02-1.51843E-03-1.82486E-13
 -1      1479 6.41093E-04 3.67239E-04-1.13936E-16
 -1      1480 4.91265E-04 3.00401E-04-3.60091E-17
 -1      1481 4.43887E-04 2.62785E-04-7.47557E-17
 -1      1482 9.26542E-04 4.63865E-04-4.01006E-16
 -1      1483 7.85672E-04 4.20106E-04-2.35678E-16
 -1      1484 7.43513E-04 3.84495E-04-2.82679E-16
 -1      1485 1.20195E-03 5.29410E-04-8.61805E-16
 -1      1486 1.06494E-03 4.99738E-04-6.09132E-16
 -1      1487 1.02987E-03 4.66297E-04-6.63112E-16
 -1      1488 1.47383E-03 5.74115E-04-1.49820E-15
 -1      1489 1.33800E-03 5.53979E-04-1.15819E-15
 -1      1490 1.30877E-03 5.21893E-04-1.21637E-15
 -1      1491 1.74574E-03 6.03842E-04-2.31014E-15
 -1      1492 1.60959E-03 5.90605E-04-1.88208E-15
 -1      1493 1.58486E-03 5.59279E-04-1.94301E-15
 -1      1494 2.01972E-03 6.22454E-04-3.29509E-15
 -1      1495 1.88236E-03 6.14353E-04-2.78115E-15
 -1      1496 1.86103E-03 5.83380E-04-2.84260E-15
 -1      1497 2.29704E-03 6.32787E-04-4.45056E-15
 -1      1498 2.15790E-03 6.28501E-04-3.85161E-15
 -1      1499 2.13904E-03 5.97601E-04-3.91382E-15
 -1      1500 2.57858E-03 6.37117E-04-5.77495E-15
 -1      1501 2.43724E-03 6.35564E-04-5.09183E-15
 -1      1502 2.42006E-03 6.04530E-04-5.15390E-15
 -1      1503 2.86506E-03 6.37431E-04-7.26863E-15
 -1      1504 2.72116E-03 6.37643E-04-6.50079E-15
 -1      1505 2.70493E-03 6.06301E-04-6.56137E-15
 -1      1506 3.15714E-03 6.35627E-04-8.93202E-15
 -1      1507 3.01036E-03 6.36656E-04-8.07912E-15
 -1      1508 2.99435E-03 6.04846E-04-8.13766E-15
 -1      1509 3.45541E-03 6.33702E-04-1.07633E-14
 -1      1510 3.30547E-03 6.34530E-04-9.82663E-15
 -1      1511 3.28894E-03 6.02093E-04-9.88183E-15
 -1      1512 3.76037E-03 6.33912E-04-1.27578E-14
 -1      1513 3.60703E-03 6.33373E-04-1.17404E-14
 -1      1514 3.58920E-03 6.00147E-04-1.17907E-14
 -1      1515 4.07225E-03 6.38896E-04-1.49148E-14
 -1      1516 3.91543E-03 6.35625E-04-1.38160E-14
 -1      1517 3.89552E-03 6.01448E-04-1.38628E-14
 -1      1518 4.39083E-03 6.51712E-04-1.72348E-14
 -1      1519 4.23073E-03 6.44141E-04-1.60544E-14
 -1      1520 4.20795E-03 6.08874E-04-1.60959E-14
 -1      1521 4.71513E-03 6.75673E-04-1.97152E-14
 -1      1522 4.55235E-03 6.62145E-04-1.84555E-14
 -1      1523 4.52608E-03 6.25706E-04-1.84898E-14
 -1      1524 5.04306E-03 7.13845E-04-2.23509E-14
 -1      1525 4.87881E-03 6.92913E-04-2.10144E-14
 -1      1526 4.84875E-03 6.55337E-04-2.10407E-14
 -1      1527 5.37124E-03 7.68059E-04-2.51326E-14
 -1      1528 5.20738E-03 7.39044E-04-2.37234E-14
 -1      1529 5.17386E-03 7.00565E-04-2.37425E-14
 -1      1530 5.69507E-03 8.37376E-04-2.80621E-14
 -1      1531 5.53404E-03 8.01183E-04-2.65789E-14
 -1      1532 5.49821E-03 7.62320E-04-2.65908E-14
 -1      1533 6.00944E-03 9.16347E-04-3.11360E-14
 -1      1534 5.85378E-03 8.76320E-04-2.95805E-14
 -1      1535 5.81784E-03 8.37911E-04-2.95847E-14
 -1      1536 6.31015E-03 9.93966E-04-3.43628E-14
 -1      1537 6.16172E-03 9.56253E-04-3.27293E-14
 -1      1538 6.12870E-03 9.19359E-04-3.27287E-14
 -1      1539 6.59590E-03 1.05471E-03-3.77595E-14
 -1      1540 6.45485E-03 1.02743E-03-3.60396E-14
 -1      1541 6.42812E-03 9.93035E-04-3.60345E-14
 -1      1542 6.86968E-03 1.08259E-03-4.13276E-14
 -1      1543 6.73392E-03 1.07345E-03-3.95218E-14
 -1      1544 6.71631E-03 1.04204E-03-3.95105E-14
 -1      1545 7.13865E-03 1.06705E-03-4.50713E-14
 -1      1546 7.00418E-03 1.08035E-03-4.31789E-14
 -1      1547 6.99720E-03 1.05159E-03-4.31584E-14
 -1      1548 7.41176E-03 1.00758E-03-4.89734E-14
 -1      1549 7.27410E-03 1.04226E-03-4.70033E-14
 -1      1550 7.27750E-03 1.01505E-03-4.69732E-14
 -1      1551 7.69650E-03 9.13963E-04-5.30244E-14
 -1      1552 7.55231E-03 9.64055E-04-5.09798E-14
 -1      1553 7.56419E-03 9.37058E-04-5.09444E-14
 -1      1554 7.99629E-03 8.01975E-04-5.72218E-14
 -1      1555 7.84445E-03 8.59227E-04-5.51062E-14
 -1      1556 7.86182E-03 8.31341E-04-5.50647E-14
 -1      1557 8.31021E-03 6.87377E-04-6.15534E-14
 -1      1558 8.15167E-03 7.44211E-04-5.93714E-14
 -1      1559 8.17127E-03 7.14898E-04-5.93271E-14
 -1      1560 8.63430E-03 5.81646E-04-6.60176E-14
 -1      1561 8.47130E-03 6.32968E-04-6.37684E-14
 -1      1562 8.49031E-03 6.02216E-04-6.37230E-14
 -1      1563 8.96356E-03 4.90716E-04-7.06052E-14
 -1      1564 8.79862E-03 5.34210E-04-6.82969E-14
 -1      1565 8.81512E-03 5.02328E-04-6.82475E-14
 -1      1566 9.29341E-03 4.15891E-04-7.53022E-14
 -1      1567 9.12868E-03 4.51371E-04-7.29404E-14
 -1      1568 9.14172E-03 4.18785E-04-7.28881E-14
 -1      1569 9.62047E-03 3.55609E-04-8.01022E-14
 -1      1570 9.45746E-03 3.84109E-04-7.76892E-14
 -1      1571 9.46687E-03 3.51221E-04-7.76351E-14
 -1      1572 9.94272E-03 3.07011E-04-8.49945E-14
 -1      1573 9.78229E-03 3.30048E-04-8.25372E-14
 -1      1574 9.78841E-03 2.97173E-04-8.24830E-14
 -1      1575 1.02593E-02 2.67012E-04-8.99886E-14
 -1      1576 1.01017E-02 2.86118E-04-8.74788E-14
 -1      1577 1.01051E-02 2.53467E-04-8.74284E-14
 -1      1578 1.05701E-02 2.32851E-04-9.50873E-14
 -1      1579 1.04154E-02 2.49349E-04-9.25238E-14
 -1      1580 1.04167E-02 2.17042E-04-9.24751E-14
 -1      1581 1.08755E-02 2.02314E-04-1.00285E-13
 -1      1582 1.07234E-02 2.17242E-04-9.76747E-14
 -1      1583 1.07233E-02 1.85327E-04-9.76225E-14
 -1      1584 1.11764E-02 1.73748E-04-1.05575E-13
 -1      1585 1.10265E-02 1.87865E-04-1.02919E-13
 -1      1586 1.10254E-02 1.56344E-04-1.02864E-13
 -1      1587 1.14733E-02 1.45996E-04-1.10954E-13
 -1      1588 1.13253E-02 1.59825E-04-1.08254E-13
 -1      1589 1.13236E-02 1.28670E-04-1.08194E-13
 -1      1590 1.17671E-02 1.18295E-04-1.16409E-13
 -1      1591 1.16206E-02 1.32173E-04-1.13673E-13
 -1      1592 1.16186E-02 1.01341E-04-1.13605E-13
 -1      1593 1.20585E-02 9.01779E-05-1.21938E-13
 -1      1594 1.19131E-02 1.04308E-04-1.19165E-13
 -1      1595 1.19110E-02 7.37485E-05-1.19094E-13
 -1      1596 1.23480E-02 6.13933E-05-1.27536E-13
 -1      1597 1.22035E-02 7.58783E-05-1.24728E-13
 -1      1598 1.22015E-02 4.55431E-05-1.24653E-13
 -1      1599 1.26362E-02 3.18350E-05-1.33205E-13
 -1      1600 1.24923E-02 4.67133E-05-1.30361E-13
 -1      1601 1.24904E-02 1.65568E-05-1.30285E-13
 -1      1602 1.29234E-02 1.49349E-06-1.38940E-13
 -1      1603 1.27799E-02 1.67602E-05-1.36064E-13
 -1      1604 1.27782E-02-1.32573E-05-1.35982E-13
 -1      1605 1.32099E-02-2.95815E-05-1.44726E-13
 -1      1606 1.30667E-02-1.39569E-05-1.41828E-13
 -1      1607 1.30651E-02-4.38695E-05-1.41740E-13
 -1      1608 1.34960E-02-6.13060E-05-1.50552E-13
 -1      1609 1.33530E-02-4.53687E-05-1.47636E-13
 -1      1610 1.33516E-02-7.52044E-05-1.47544E-13
 -1      1611 1.37819E-02-9.35772E-05-1.56401E-13
 -1      1612 1.36390E-02-7.73801E-05-1.53473E-13
 -1      1613 1.36377E-02-1.07162E-04-1.53378E-13
 -1      1614 1.40676E-02-1.26282E-04-1.62282E-13
 -1      1615 1.39247E-02-1.09883E-04-1.59337E-13
 -1      1616 1.39235E-02-1.39630E-04-1.59242E-13
 -1      1617 1.43532E-02-1.59299E-04-1.68183E-13
 -1      1618 1.42104E-02-1.42760E-04-1.65230E-13
 -1      1619 1.42093E-02-1.72486E-04-1.65130E-13
 -1      1620 1.46389E-02-1.92487E-04-1.74088E-13
 -1      1621 1.44960E-02-1.75881E-04-1.71137E-13
 -1      1622 1.44950E-02-2.05600E-04-1.71033E-13
 -1      1623 1.47919E-02-2.20683E-04-1.77225E-13
 -1      1624 1.48447E-02-3.27472E-04-1.78041E-13
 -1      1625 1.48284E-02-2.85309E-04-1.77814E-13
 -1      1626 1.48774E-02-4.11811E-04-1.78486E-13
 -1      1627 1.48610E-02-3.69642E-04-1.78268E-13
 -1      1628 1.47291E-02-3.34145E-04-1.75595E-13
 -1      1629 1.49103E-02-4.96133E-04-1.78937E-13
 -1      1630 1.48938E-02-4.53977E-04-1.78708E-13
 -1      1631 1.47619E-02-4.18430E-04-1.76043E-13
 -1      1632 1.49435E-02-5.80402E-04-1.79394E-13
 -1      1633 1.49269E-02-5.38276E-04-1.79168E-13
 -1      1634 1.47949E-02-5.02670E-04-1.76495E-13
 -1      1635 1.49763E-02-6.63168E-04-1.79842E-13
 -1      1636 1.49599E-02-6.21795E-04-1.79619E-13
 -1      1637 1.48278E-02-5.86125E-04-1.76947E-13
 -1      1638 1.50099E-02-7.47283E-04-1.80298E-13
 -1      1639 1.49931E-02-7.05235E-04-1.80070E-13
 -1      1640 1.48610E-02-6.69499E-04-1.77395E-13
 -1      1641 1.50436E-02-8.31335E-04-1.80755E-13
 -1      1642 1.50268E-02-7.89315E-04-1.80525E-13
 -1      1643 1.48946E-02-7.53510E-04-1.77845E-13
 -1      1644 1.50775E-02-9.15359E-04-1.81223E-13
 -1      1645 1.50605E-02-8.73349E-04-1.80989E-13
 -1      1646 1.49284E-02-8.37469E-04-1.78299E-13
 -1      1647 1.51114E-02-9.99397E-04-1.81676E-13
 -1      1648 1.50944E-02-9.57374E-04-1.81451E-13
 -1      1649 1.49623E-02-9.21409E-04-1.78756E-13
 -1      1650 1.51455E-02-1.08348E-03-1.82127E-13
 -1      1651 1.51284E-02-1.04143E-03-1.81902E-13
 -1      1652 1.49962E-02-1.00537E-03-1.79204E-13
 -1      1653 1.51792E-02-1.16622E-03-1.82567E-13
 -1      1654 1.51623E-02-1.12484E-03-1.82350E-13
 -1      1655 1.50301E-02-1.08868E-03-1.79643E-13
 -1      1656 1.52136E-02-1.25047E-03-1.83007E-13
 -1      1657 1.51964E-02-1.20833E-03-1.82789E-13
 -1      1658 1.50641E-02-1.17206E-03-1.80074E-13
 -1      1659 1.52484E-02-1.33478E-03-1.83408E-13
 -1      1660 1.52310E-02-1.29262E-03-1.83214E-13
 -1      1661 1.50986E-02-1.25624E-03-1.80489E-13
 -1      1662 1.52833E-02-1.41912E-03-1.83798E-13
 -1      1663 1.52658E-02-1.37695E-03-1.83604E-13
 -1      1664 1.51334E-02-1.34049E-03-1.80880E-13
 -1      1665 1.52733E-02-1.48986E-03-1.83237E-13
 -1      1666 1.52557E-02-1.44770E-03-1.83056E-13
 -1      1667 1.51232E-02-1.41120E-03-1.80328E-13
 -1      1668 1.50679E-02-1.46831E-03-1.78834E-13
 -1      1669 9.37084E-03-1.62077E-04-5.52054E-14
 -1      1670 9.41011E-03-2.07179E-04-5.53404E-14
 -1      1671 9.20132E-03-4.95901E-05-5.45471E-14
 -1      1672 9.29258E-03-1.02212E-04-5.48713E-14
 -1      1673 8.93021E-03 8.20503E-05-5.35986E-14
 -1      1674 9.06598E-03 1.56212E-05-5.41086E-14
 -1      1675 8.54381E-03 2.50499E-04-5.22151E-14
 -1      1676 8.72862E-03 1.61313E-04-5.29747E-14
 -1      1677 8.17293E-03 4.43482E-04-5.03389E-14
 -1      1678 8.34836E-03 3.64368E-04-5.11315E-14
 -1      1679 7.74491E-03 6.06271E-04-4.83707E-14
 -1      1680 7.93828E-03 5.31622E-04-4.93540E-14
 -1      1681 7.36999E-03 7.04349E-04-4.63057E-14
 -1      1682 7.54067E-03 6.68814E-04-4.72059E-14
 -1      1683 6.98621E-03 7.28492E-04-4.42542E-14
 -1      1684 7.16273E-03 7.29537E-04-4.52095E-14
 -1      1685 6.60059E-03 6.64753E-04-4.22929E-14
 -1      1686 6.77612E-03 7.03039E-04-4.31715E-14
 -1      1687 6.20206E-03 5.32962E-04-4.04656E-14
 -1      1688 6.38760E-03 6.01351E-04-4.12867E-14
 -1      1689 5.81837E-03 3.75665E-04-3.89763E-14
 -1      1690 5.98824E-03 4.49890E-04-3.96271E-14
 -1      1691 5.45085E-03 1.96231E-04-3.76098E-14
 -1      1692 5.62349E-03 2.77051E-04-3.81859E-14
 -1      1693 5.14838E-03 5.84782E-05-3.67696E-14
 -1      1694 5.27109E-03 1.20896E-04-3.71319E-14
 -1      1695 4.96847E-03-5.49997E-05-3.62676E-14
 -1      1696 5.03680E-03-6.22208E-06-3.64514E-14
 -1      1697 4.91312E-03-1.55914E-04-3.60565E-14
 -1      1698 4.92134E-03-1.12124E-04-3.60678E-14
 -1      1699 4.99520E-03-2.57927E-04-3.63849E-14
 -1      1700 4.94229E-03-2.11149E-04-3.62280E-14
 -1      1701 5.22625E-03-3.80806E-04-3.69495E-14
 -1      1702 5.10014E-03-3.13941E-04-3.65753E-14
 -1      1703 5.53807E-03-5.55946E-04-3.80771E-14
 -1      1704 5.38632E-03-4.79585E-04-3.75794E-14
 -1      1705 5.93536E-03-7.34594E-04-3.93607E-14
 -1      1706 5.75090E-03-6.42566E-04-3.86774E-14
 -1      1707 6.33110E-03-9.32168E-04-4.11255E-14
 -1      1708 6.14073E-03-8.48061E-04-4.03223E-14
 -1      1709 6.77834E-03-1.08806E-03-4.31259E-14
 -1      1710 6.57791E-03-1.02191E-03-4.21351E-14
 -1      1711 7.17626E-03-1.15269E-03-4.52389E-14
 -1      1712 6.99820E-03-1.13450E-03-4.42997E-14
 -1      1713 7.57394E-03-1.12033E-03-4.73327E-14
 -1      1714 7.38909E-03-1.14622E-03-4.63635E-14
 -1      1715 7.98256E-03-1.00124E-03-4.95026E-14
 -1      1716 7.78975E-03-1.06770E-03-4.85231E-14
 -1      1717 8.39791E-03-8.34750E-04-5.13531E-14
 -1      1718 8.21463E-03-9.15168E-04-5.05221E-14
 -1      1719 8.78510E-03-6.53560E-04-5.29733E-14
 -1      1720 8.60920E-03-7.37906E-04-5.22614E-14
 -1      1721 9.10454E-03-4.93736E-04-5.42006E-14
 -1      1722 8.96792E-03-5.63292E-04-5.36931E-14
 -1      1723 9.32152E-03-3.67637E-04-5.49782E-14
 -1      1724 9.23520E-03-4.21784E-04-5.46773E-14
 -1      1725 9.41839E-03-2.59998E-04-5.54302E-14
 -1      1726 9.39039E-03-3.05155E-04-5.53374E-14
 -1      1727 8.38984E-03 2.60890E-04-5.22851E-14
 -1      1728 8.77782E-03 6.55597E-05-5.40239E-14
 -1      1729 1.47909E-02-2.50411E-04-1.77123E-13
 -1      1730 1.46753E-02-2.57100E-04-1.74677E-13
 -1      1731 9.33369E-03-1.67578E-04-5.58971E-14
 -1      1732 9.11361E-03-6.96675E-05-5.51086E-14
 -1      1733 9.42456E-03-2.38832E-04-5.63307E-14
 -1      1734 7.98159E-03 4.73378E-04-5.01992E-14
 -1      1735 7.60285E-03 6.45982E-04-4.80318E-14
 -1      1736 7.24433E-03 7.42334E-04-4.57656E-14
 -1      1737 6.90270E-03 7.39495E-04-4.35898E-14
 -1      1738 6.54023E-03 6.38417E-04-4.15133E-14
 -1      1739 6.15897E-03 4.73097E-04-3.96886E-14
 -1      1740 5.76873E-03 2.81226E-04-3.80812E-14
 -1      1741 5.39772E-03 1.08620E-04-3.68397E-14
 -1      1742 5.10273E-03-1.51786E-05-3.60611E-14
 -1      1743 4.93732E-03-1.03482E-04-3.55523E-14
 -1      1744 4.91829E-03-1.67408E-04-3.55264E-14
 -1      1745 5.05612E-03-2.46457E-04-3.58819E-14
 -1      1746 5.33109E-03-3.68364E-04-3.66834E-14
 -1      1747 5.70369E-03-5.47001E-04-3.78950E-14
 -1      1748 6.10305E-03-7.57802E-04-3.94274E-14
 -1      1749 6.52321E-03-9.75425E-04-4.13813E-14
 -1      1750 6.91523E-03-1.13090E-03-4.35503E-14
 -1      1751 7.27877E-03-1.17647E-03-4.58489E-14
 -1      1752 7.64790E-03-1.10892E-03-4.81723E-14
 -1      1753 8.03514E-03-9.49174E-04-5.04024E-14
 -1      1754 8.44791E-03-7.50154E-04-5.23511E-14
 -1      1755 8.83415E-03-5.59289E-04-5.40015E-14
 -1      1756 9.15196E-03-4.11109E-04-5.52165E-14
 -1      1757 9.35955E-03-3.07089E-04-5.60613E-14
 -1      1758 2.84537E-04-1.74509E-04-6.42932E-17
 -1      1759 3.32696E-04-1.13890E-04-2.26720E-16
 -1      1760 3.36774E-04-1.30171E-04-2.11663E-16
 -1      1761 3.42516E-04-1.49225E-04-1.93395E-16
 -1      1762 3.51811E-04-1.71307E-04-1.67780E-16
 -1      1763 4.58890E-04-1.84055E-04-3.06843E-16
 -1      1764 3.24893E-04-6.29135E-05-2.58799E-16
 -1      1765 3.26127E-04-7.40074E-05-2.53758E-16
 -1      1766 3.23209E-04-4.19999E-05-2.64952E-16
 -1      1767 3.23958E-04-5.21701E-05-2.62363E-16
 -1      1768 4.36769E-04-7.61134E-05-3.84607E-16
 -1      1769 3.22261E-04-2.26609E-05-2.67310E-16
 -1      1770 3.22665E-04-3.21637E-05-2.66497E-16
 -1      1771 4.34471E-04-4.90173E-05-3.91654E-16
 -1      1772 3.21886E-04-4.12533E-06-2.66619E-16
 -1      1773 3.22010E-04-1.33185E-05-2.67188E-16
 -1      1774 4.33225E-04-2.37314E-05-3.93755E-16
 -1      1775 3.22032E-04 1.42718E-05-2.63122E-16
 -1      1776 3.21893E-04 5.06672E-06-2.65372E-16
 -1      1777 4.32845E-04 7.21361E-07-3.91804E-16
 -1      1778 3.22720E-04 3.31781E-05-2.56956E-16
 -1      1779 3.22298E-04 2.36383E-05-2.60602E-16
 -1      1780 4.33280E-04 2.52086E-05-3.86057E-16
 -1      1781 3.24028E-04 5.29483E-05-2.47130E-16
 -1      1782 3.23272E-04 4.28951E-05-2.52646E-16
 -1      1783 4.34574E-04 5.03788E-05-3.76028E-16
 -1      1784 3.26268E-04 7.51458E-05-2.32643E-16
 -1      1785 3.24984E-04 6.37609E-05-2.40801E-16
 -1      1786 4.36925E-04 7.74008E-05-3.60836E-16
 -1      1787 3.30057E-04 1.00780E-04-2.10959E-16
 -1      1788 3.27876E-04 8.75004E-05-2.23197E-16
 -1      1789 4.40855E-04 1.07801E-04-3.38515E-16
 -1      1790 3.37011E-04 1.32257E-04-1.78582E-16
 -1      1791 3.32902E-04 1.15724E-04-1.96823E-16
 -1      1792 4.47465E-04 1.43310E-04-3.05881E-16
 -1      1793 3.52338E-04 1.74888E-04-1.29955E-16
 -1      1794 3.43095E-04 1.51967E-04-1.57264E-16
 -1      1795 4.59844E-04 1.87425E-04-2.57999E-16
 -1      1796 4.07139E-04 2.30744E-04-9.62365E-17
 -1      1797 3.77905E-04 1.99827E-04-1.18517E-16
 -1      1798 4.95921E-04 2.39875E-04-2.15390E-16
 -1      1799 5.57901E-04 2.98076E-04-1.81048E-16
 -1      1800 3.39664E-04-1.88524E-04-1.18639E-16
 -1      1801 8.53057E-04 3.99311E-04-4.80830E-16
 -1      1802 7.06527E-04 3.53327E-04-3.09973E-16
 -1      1803 6.73229E-04 3.22933E-04-3.31983E-16
 -1      1804 4.58799E-04-2.33077E-04-2.17003E-16
 -1      1805 8.07136E-04-3.66594E-04-5.91351E-16
 -1      1806 9.52672E-04-4.05860E-04-8.31895E-16
 -1      1807 1.09592E-03-4.38462E-04-1.11701E-15
 -1      1808 1.23817E-03-4.65097E-04-1.44787E-15
 -1      1809 1.00494E-03-3.87408E-04-1.02884E-15
 -1      1810 1.37933E-03-4.87118E-04-1.82340E-15
 -1      1811 1.52000E-03-5.04823E-04-2.24374E-15
 -1      1812 1.29175E-03-4.40800E-04-1.70018E-15
 -1      1813 1.66039E-03-5.19102E-04-2.70864E-15
 -1      1814 1.80075E-03-5.30200E-04-3.21803E-15
 -1      1815 1.57597E-03-4.76335E-04-2.54884E-15
 -1      1816 1.94130E-03-5.38701E-04-3.77104E-15
 -1      1817 2.08220E-03-5.44823E-04-4.36760E-15
 -1      1818 1.85932E-03-4.98522E-04-3.57285E-15
 -1      1819 2.22360E-03-5.48971E-04-5.00801E-15
 -1      1820 2.36561E-03-5.51348E-04-5.69065E-15
 -1      1821 2.14315E-03-5.10638E-04-4.77038E-15
 -1      1822 2.50836E-03-5.52254E-04-6.41550E-15
 -1      1823 2.65197E-03-5.51886E-04-7.18268E-15
 -1      1824 2.42849E-03-5.15167E-04-6.13787E-15
 -1      1825 2.79651E-03-5.50490E-04-7.99130E-15
 -1      1826 2.94213E-03-5.48270E-04-8.84027E-15
 -1      1827 2.71620E-03-5.14122E-04-7.67238E-15
 -1      1828 3.08887E-03-5.45465E-04-9.72986E-15
 -1      1829 3.23692E-03-5.42300E-04-1.06590E-14
 -1      1830 3.00700E-03-5.09296E-04-9.37102E-15
 -1      1831 3.38628E-03-5.39049E-04-1.16281E-14
 -1      1832 3.53718E-03-5.35983E-04-1.26359E-14
 -1      1833 3.30161E-03-5.02492E-04-1.12292E-14
 -1      1834 3.68961E-03-5.33460E-04-1.36826E-14
 -1      1835 3.84380E-03-5.31825E-04-1.47676E-14
 -1      1836 3.60074E-03-4.95774E-04-1.32439E-14
 -1      1837 3.99974E-03-5.31575E-04-1.58894E-14
 -1      1838 4.15765E-03-5.33160E-04-1.70491E-14
 -1      1839 3.90518E-03-4.91766E-04-1.54111E-14
 -1      1840 4.31754E-03-5.37268E-04-1.82460E-14
 -1      1841 4.47951E-03-5.44491E-04-1.94797E-14
 -1      1842 4.21579E-03-4.93972E-04-1.77285E-14
 -1      1843 4.64369E-03-5.55724E-04-2.07496E-14
 -1      1844 4.80994E-03-5.71724E-04-2.20562E-14
 -1      1845 4.53351E-03-5.07118E-04-2.01933E-14
 -1      1846 4.97855E-03-5.93531E-04-2.34004E-14
 -1      1847 5.14897E-03-6.22022E-04-2.47803E-14
 -1      1848 4.85943E-03-5.37363E-04-2.28038E-14
 -1      1849 5.32177E-03-6.58144E-04-2.61973E-14
 -1      1850 5.49572E-03-7.02695E-04-2.76524E-14
 -1      1851 5.19455E-03-5.92101E-04-2.55603E-14
 -1      1852 5.67170E-03-7.56041E-04-2.91472E-14
 -1      1853 5.84768E-03-8.18315E-04-3.06807E-14
 -1      1854 5.53940E-03-6.78806E-04-2.84654E-14
 -1      1855 6.02460E-03-8.88589E-04-3.22539E-14
 -1      1856 6.19993E-03-9.65481E-04-3.38691E-14
 -1      1857 5.89267E-03-8.01811E-04-3.15254E-14
 -1      1858 6.37422E-03-1.04610E-03-3.55291E-14
 -1      1859 6.54534E-03-1.12655E-03-3.72349E-14
 -1      1860 6.24968E-03-9.56536E-04-3.47491E-14
 -1      1861 6.71299E-03-1.20210E-03-3.89879E-14
 -1      1862 6.87746E-03-1.26724E-03-4.07878E-14
 -1      1863 6.60168E-03-1.12179E-03-3.81517E-14
 -1      1864 7.03750E-03-1.31720E-03-4.26366E-14
 -1      1865 7.19654E-03-1.34727E-03-4.45348E-14
 -1      1866 6.94067E-03-1.25791E-03-4.17435E-14
 -1      1867 7.35274E-03-1.35544E-03-4.64830E-14
 -1      1868 7.51182E-03-1.34172E-03-4.84778E-14
 -1      1869 7.26736E-03-1.32108E-03-4.55332E-14
 -1      1870 7.67194E-03-1.30817E-03-5.05196E-14
 -1      1871 7.83655E-03-1.25949E-03-5.26061E-14
 -1      1872 7.59407E-03-1.29059E-03-4.95170E-14
 -1      1873 8.00444E-03-1.20042E-03-5.47347E-14
 -1      1874 8.17579E-03-1.13658E-03-5.69042E-14
 -1      1875 7.93335E-03-1.18734E-03-5.36849E-14
 -1      1876 8.35030E-03-1.07267E-03-5.91127E-14
 -1      1877 8.52590E-03-1.01255E-03-6.13575E-14
 -1      1878 8.28577E-03-1.05530E-03-5.80202E-14
 -1      1879 8.70312E-03-9.59055E-04-6.36379E-14
 -1      1880 8.87945E-03-9.13589E-04-6.59511E-14
 -1      1881 8.64319E-03-9.34102E-04-6.25045E-14
 -1      1882 9.05581E-03-8.77057E-04-6.82953E-14
 -1      1883 9.23022E-03-8.49305E-04-7.06705E-14
 -1      1884 8.99701E-03-8.44713E-04-6.71254E-14
 -1      1885 9.40352E-03-8.29957E-04-7.30734E-14
 -1      1886 9.57454E-03-8.18220E-04-7.55046E-14
 -1      1887 9.34257E-03-7.91588E-04-7.18667E-14
 -1      1888 9.74385E-03-8.13155E-04-7.79656E-14
 -1      1889 9.91090E-03-8.13896E-04-8.04528E-14
 -1      1890 9.67869E-03-7.70322E-04-7.67229E-14
 -1      1891 1.00760E-02-8.19418E-04-8.29669E-14
 -1      1892 1.02390E-02-8.28985E-04-8.55048E-14
 -1      1893 1.00059E-02-7.73515E-04-8.16885E-14
 -1      1894 1.04001E-02-8.41727E-04-8.80664E-14
 -1      1895 1.05594E-02-8.57077E-04-9.06531E-14
 -1      1896 1.03254E-02-7.93897E-04-8.67544E-14
 -1      1897 1.07168E-02-8.74388E-04-9.32630E-14
 -1      1898 1.08728E-02-8.93246E-04-9.58968E-14
 -1      1899 1.06383E-02-8.25502E-04-9.19185E-14
 -1      1900 1.10271E-02-9.13211E-04-9.85520E-14
 -1      1901 1.11802E-02-9.33988E-04-1.01224E-13
 -1      1902 1.09455E-02-8.63887E-04-9.71728E-14
 -1      1903 1.13319E-02-9.55299E-04-1.03919E-13
 -1      1904 1.14825E-02-9.76942E-04-1.06634E-13
 -1      1905 1.12481E-02-9.05949E-04-1.02513E-13
 -1      1906 1.16321E-02-9.98752E-04-1.09366E-13
 -1      1907 1.17808E-02-1.02059E-03-1.12119E-13
 -1      1908 1.15468E-02-9.49624E-04-1.07932E-13
 -1      1909 1.19287E-02-1.04238E-03-1.14891E-13
 -1      1910 1.20758E-02-1.06402E-03-1.17679E-13
 -1      1911 1.18424E-02-9.93610E-04-1.13428E-13
 -1      1912 1.22223E-02-1.08549E-03-1.20484E-13
 -1      1913 1.23683E-02-1.10672E-03-1.23307E-13
 -1      1914 1.21354E-02-1.03713E-03-1.18998E-13
 -1      1915 1.25138E-02-1.12771E-03-1.26147E-13
 -1      1916 1.26588E-02-1.14843E-03-1.29001E-13
 -1      1917 1.24265E-02-1.07977E-03-1.24635E-13
 -1      1918 1.28035E-02-1.16890E-03-1.31872E-13
 -1      1919 1.29479E-02-1.18908E-03-1.34759E-13
 -1      1920 1.27161E-02-1.12135E-03-1.30339E-13
 -1      1921 1.30919E-02-1.20902E-03-1.37658E-13
 -1      1922 1.32358E-02-1.22870E-03-1.40574E-13
 -1      1923 1.30046E-02-1.16183E-03-1.36102E-13
 -1      1924 1.33795E-02-1.24814E-03-1.43503E-13
 -1      1925 1.35230E-02-1.26736E-03-1.46442E-13
 -1      1926 1.32921E-02-1.20126E-03-1.41924E-13
 -1      1927 1.36663E-02-1.28637E-03-1.49398E-13
 -1      1928 1.38096E-02-1.30519E-03-1.52362E-13
 -1      1929 1.35791E-02-1.23974E-03-1.47797E-13
 -1      1930 1.39527E-02-1.32384E-03-1.55336E-13
 -1      1931 1.40958E-02-1.34232E-03-1.58322E-13
 -1      1932 1.38655E-02-1.27741E-03-1.53719E-13
 -1      1933 1.42388E-02-1.36066E-03-1.61318E-13
 -1      1934 1.43818E-02-1.37887E-03-1.64323E-13
 -1      1935 1.41517E-02-1.31440E-03-1.59683E-13
 -1      1936 1.45247E-02-1.39698E-03-1.67335E-13
 -1      1937 1.46676E-02-1.41500E-03-1.70355E-13
 -1      1938 1.44377E-02-1.35084E-03-1.65686E-13
 -1      1939 1.47963E-02-1.43275E-03-1.73072E-13
 -1      1940 1.49392E-02-1.45064E-03-1.76103E-13
 -1      1941 1.49668E-02-1.42210E-03-1.76851E-13
 -1      1942 1.47094E-02-1.38668E-03-1.71412E-13
 -1      1943 1.13879E-03 4.68335E-04-9.48663E-16
 -1      1944 9.96604E-04 4.37128E-04-6.93144E-16
 -1      1945 9.64754E-04 4.07854E-04-7.17904E-16
 -1      1946 1.41930E-03 5.15226E-04-1.58836E-15
 -1      1947 1.27935E-03 4.94155E-04-1.24686E-15
 -1      1948 1.25023E-03 4.66194E-04-1.27223E-15
 -1      1949 1.69798E-03 5.46203E-04-2.40025E-15
 -1      1950 1.55867E-03 5.32457E-04-1.97285E-15
 -1      1951 1.53224E-03 5.05441E-04-1.99743E-15
 -1      1952 1.97707E-03 5.65415E-04-3.38373E-15
 -1      1953 1.83736E-03 5.57102E-04-2.87043E-15
 -1      1954 1.81317E-03 5.30682E-04-2.89348E-15
 -1      1955 2.25799E-03 5.75874E-04-4.53646E-15
 -1      1956 2.11723E-03 5.71598E-04-3.93899E-15
 -1      1957 2.09471E-03 5.45508E-04-3.95938E-15
 -1      1958 2.54176E-03 5.79955E-04-5.85622E-15
 -1      1959 2.39947E-03 5.78591E-04-5.17572E-15
 -1      1960 2.37806E-03 5.52625E-04-5.19273E-15
 -1      1961 2.82913E-03 5.79685E-04-7.34436E-15
 -1      1962 2.68495E-03 5.80251E-04-6.57920E-15
 -1      1963 2.66408E-03 5.54233E-04-6.59255E-15
 -1      1964 3.12077E-03 5.76974E-04-8.99935E-15
 -1      1965 2.97438E-03 5.78520E-04-8.15077E-15
 -1      1966 2.95346E-03 5.52285E-04-8.15929E-15
 -1      1967 3.41724E-03 5.73808E-04-1.08201E-14
 -1      1968 3.26836E-03 5.75322E-04-9.88929E-15
 -1      1969 3.24680E-03 5.48698E-04-9.89240E-15
 -1      1970 3.71898E-03 5.72424E-04-1.28047E-14
 -1      1971 3.56741E-03 5.72750E-04-1.17921E-14
 -1      1972 3.54463E-03 5.45545E-04-1.17892E-14
 -1      1973 4.02629E-03 5.75462E-04-1.49504E-14
 -1      1974 3.87192E-03 5.73227E-04-1.38570E-14
 -1      1975 3.84736E-03 5.45225E-04-1.38476E-14
 -1      1976 4.33914E-03 5.86020E-04-1.72566E-14
 -1      1977 4.18204E-03 5.79623E-04-1.60839E-14
 -1      1978 4.15524E-03 5.50585E-04-1.60670E-14
 -1      1979 4.65705E-03 6.07540E-04-1.97201E-14
 -1      1980 4.49754E-03 5.95238E-04-1.84689E-14
 -1      1981 4.46828E-03 5.64931E-04-1.84442E-14
 -1      1982 4.97884E-03 6.43367E-04-2.23388E-14
 -1      1983 4.81761E-03 6.23545E-04-2.10101E-14
 -1      1984 4.78604E-03 5.91801E-04-2.09766E-14
 -1      1985 5.30246E-03 6.95815E-04-2.51048E-14
 -1      1986 5.14067E-03 6.67522E-04-2.37039E-14
 -1      1987 5.10744E-03 6.34351E-04-2.36613E-14
 -1      1988 5.62494E-03 7.64626E-04-2.80172E-14
 -1      1989 5.46418E-03 7.28413E-04-2.65425E-14
 -1      1990 5.43057E-03 6.94163E-04-2.64920E-14
 -1      1991 5.94264E-03 8.45074E-04-3.10784E-14
 -1      1992 5.78475E-03 8.03951E-04-2.95293E-14
 -1      1993 5.75258E-03 7.69460E-04-2.94698E-14
 -1      1994 6.25215E-03 9.26545E-04-3.42937E-14
 -1      1995 6.09868E-03 8.86559E-04-3.26662E-14
 -1      1996 6.06996E-03 8.53144E-04-3.25993E-14
 -1      1997 6.55160E-03 9.93069E-04-3.76767E-14
 -1      1998 6.40314E-03 9.62687E-04-3.59632E-14
 -1      1999 6.37947E-03 9.31820E-04-3.58887E-14
 -1      2000 6.84229E-03 1.02723E-03-4.12279E-14
 -1      2001 6.69770E-03 1.01498E-03-3.94314E-14
 -1      2002 6.67993E-03 9.87624E-04-3.93466E-14
 -1      2003 7.12887E-03 1.01663E-03-4.49502E-14
 -1      2004 6.98550E-03 1.02773E-03-4.30684E-14
 -1      2005 6.97366E-03 1.00377E-03-4.29750E-14
 -1      2006 7.41785E-03 9.59474E-04-4.88366E-14
 -1      2007 7.27244E-03 9.93371E-04-4.68727E-14
 -1      2008 7.26612E-03 9.71631E-04-4.67696E-14
 -1      2009 7.71472E-03 8.65488E-04-5.28742E-14
 -1      2010 7.56492E-03 9.16108E-04-5.08369E-14
 -1      2011 7.56351E-03 8.94978E-04-5.07251E-14
 -1      2012 8.02175E-03 7.51366E-04-5.70621E-14
 -1      2013 7.86691E-03 8.09910E-04-5.49507E-14
 -1      2014 7.86962E-03 7.88135E-04-5.48326E-14
 -1      2015 8.33793E-03 6.34027E-04-6.13869E-14
 -1      2016 8.17889E-03 6.92327E-04-5.92078E-14
 -1      2017 8.18455E-03 6.69346E-04-5.90852E-14
 -1      2018 8.66017E-03 5.25804E-04-6.58454E-14
 -1      2019 8.49860E-03 5.78372E-04-6.35999E-14
 -1      2020 8.50573E-03 5.54188E-04-6.34732E-14
 -1      2021 8.98487E-03 4.33054E-04-7.04246E-14
 -1      2022 8.82252E-03 4.77404E-04-6.81205E-14
 -1      2023 8.82963E-03 4.52291E-04-6.79900E-14
 -1      2024 9.30891E-03 3.57164E-04-7.51150E-14
 -1      2025 9.14722E-03 3.93101E-04-7.27558E-14
 -1      2026 9.15315E-03 3.67388E-04-7.26225E-14
 -1      2027 9.63008E-03 2.96473E-04-7.99118E-14
 -1      2028 9.47002E-03 3.25102E-04-7.75005E-14
 -1      2029 9.47408E-03 2.99075E-04-7.73635E-14
 -1      2030 9.94706E-03 2.47958E-04-8.48071E-14
 -1      2031 9.78918E-03 2.70890E-04-8.23468E-14
 -1      2032 9.79111E-03 2.44767E-04-8.22087E-14
 -1      2033 1.02593E-02 2.08361E-04-8.98020E-14
 -1      2034 1.01038E-02 2.27218E-04-8.72925E-14
 -1      2035 1.01037E-02 2.01152E-04-8.71518E-14
 -1      2036 1.05668E-02 1.74779E-04-9.48979E-14
 -1      2037 1.04137E-02 1.90955E-04-9.23373E-14
 -1      2038 1.04118E-02 1.65045E-04-9.21968E-14
 -1      2039 1.08700E-02 1.44891E-04-1.00089E-13
 -1      2040 1.07189E-02 1.59474E-04-9.74825E-14
 -1      2041 1.07156E-02 1.33774E-04-9.73389E-14
 -1      2042 1.11693E-02 1.16970E-04-1.05370E-13
 -1      2043 1.10201E-02 1.30754E-04-1.02718E-13
 -1      2044 1.10156E-02 1.05288E-04-1.02571E-13
 -1      2045 1.14653E-02 8.98163E-05-1.10737E-13
 -1      2046 1.13177E-02 1.03343E-04-1.08044E-13
 -1      2047 1.13124E-02 7.81102E-05-1.07892E-13
 -1      2048 1.17587E-02 6.26418E-05-1.16181E-13
 -1      2049 1.16123E-02 7.62584E-05-1.13449E-13
 -1      2050 1.16065E-02 5.12449E-05-1.13292E-13
 -1      2051 1.20499E-02 3.49725E-05-1.21701E-13
 -1      2052 1.19045E-02 4.88828E-05-1.18932E-13
 -1      2053 1.18984E-02 2.40654E-05-1.18770E-13
 -1      2054 1.23395E-02 6.55633E-06-1.27294E-13
 -1      2055 1.21949E-02 2.08629E-05-1.24488E-13
 -1      2056 1.21886E-02-3.78548E-06-1.24322E-13
 -1      2057 1.26278E-02-2.27066E-05-1.32954E-13
 -1      2058 1.24838E-02-7.96978E-06-1.30116E-13
 -1      2059 1.24774E-02-3.24766E-05-1.29945E-13
 -1      2060 1.29152E-02-5.28177E-05-1.38678E-13
 -1      2061 1.27716E-02-3.76600E-05-1.35808E-13
 -1      2062 1.27653E-02-6.20516E-05-1.35633E-13
 -1      2063 1.32020E-02-8.37178E-05-1.44455E-13
 -1      2064 1.30587E-02-6.81749E-05-1.41561E-13
 -1      2065 1.30524E-02-9.24749E-05-1.41381E-13
 -1      2066 1.34883E-02-1.15314E-04-1.50272E-13
 -1      2067 1.33452E-02-9.94355E-05-1.47361E-13
 -1      2068 1.33389E-02-1.23665E-04-1.47176E-13
 -1      2069 1.37744E-02-1.47495E-04-1.56118E-13
 -1      2070 1.36314E-02-1.31338E-04-1.53190E-13
 -1      2071 1.36252E-02-1.55515E-04-1.53003E-13
 -1      2072 1.40602E-02-1.80142E-04-1.61994E-13
 -1      2073 1.39173E-02-1.63767E-04-1.59053E-13
 -1      2074 1.39111E-02-1.87906E-04-1.58862E-13
 -1      2075 1.43460E-02-2.13128E-04-1.67888E-13
 -1      2076 1.42031E-02-1.96600E-04-1.64938E-13
 -1      2077 1.41970E-02-2.20715E-04-1.64748E-13
 -1      2078 1.45821E-02-2.43398E-04-1.72759E-13
 -1      2079 1.44392E-02-2.26798E-04-1.69805E-13
 -1      2080 1.44331E-02-2.50903E-04-1.69613E-13
 -1      2081 1.46196E-02-2.78287E-04-1.73450E-13
 -1      2082 1.46795E-02-5.09193E-04-1.74056E-13
 -1      2083 1.46629E-02-4.67126E-04-1.73828E-13
 -1      2084 1.46464E-02-4.25034E-04-1.73602E-13
 -1      2085 1.46299E-02-3.82927E-04-1.73379E-13
 -1      2086 1.45309E-02-4.31639E-04-1.71162E-13
 -1      2087 1.46329E-02-3.51682E-04-1.73529E-13
 -1      2088 1.46166E-02-3.09548E-04-1.73302E-13
 -1      2089 1.45233E-02-2.95846E-04-1.71383E-13
 -1      2090 1.45174E-02-3.58337E-04-1.71085E-13
 -1      2091 1.47122E-02-5.91837E-04-1.74499E-13
 -1      2092 1.46958E-02-5.50528E-04-1.74276E-13
 -1      2093 1.45638E-02-5.15000E-04-1.71607E-13
 -1      2094 1.47457E-02-6.75814E-04-1.74946E-13
 -1      2095 1.47290E-02-6.33837E-04-1.74722E-13
 -1      2096 1.45969E-02-5.98250E-04-1.72049E-13
 -1      2097 1.47794E-02-7.59713E-04-1.75390E-13
 -1      2098 1.47626E-02-7.17771E-04-1.75170E-13
 -1      2099 1.46305E-02-6.82105E-04-1.72493E-13
 -1      2100 1.48132E-02-8.43563E-04-1.75842E-13
 -1      2101 1.47963E-02-8.01641E-04-1.75615E-13
 -1      2102 1.46642E-02-7.65878E-04-1.72933E-13
 -1      2103 1.48471E-02-9.27405E-04-1.76291E-13
 -1      2104 1.48301E-02-8.85482E-04-1.76068E-13
 -1      2105 1.46980E-02-8.49606E-04-1.73379E-13
 -1      2106 1.48811E-02-1.01128E-03-1.76730E-13
 -1      2107 1.48641E-02-9.69335E-04-1.76511E-13
 -1      2108 1.47320E-02-9.33335E-04-1.73819E-13
 -1      2109 1.49147E-02-1.09380E-03-1.77154E-13
 -1      2110 1.48979E-02-1.05253E-03-1.76942E-13
 -1      2111 1.47657E-02-1.01640E-03-1.74246E-13
 -1      2112 1.49490E-02-1.17782E-03-1.77574E-13
 -1      2113 1.49318E-02-1.13580E-03-1.77366E-13
 -1      2114 1.47995E-02-1.09955E-03-1.74662E-13
 -1      2115 1.49835E-02-1.26195E-03-1.77971E-13
 -1      2116 1.49662E-02-1.21987E-03-1.77775E-13
 -1      2117 1.48339E-02-1.18352E-03-1.75066E-13
 -1      2118 1.50184E-02-1.34615E-03-1.78349E-13
 -1      2119 1.50009E-02-1.30404E-03-1.78162E-13
 -1      2120 1.48685E-02-1.26760E-03-1.75451E-13
 -1      2121 9.03395E-03-8.68759E-05-5.58203E-14
 -1      2122 9.16918E-03-1.34539E-04-5.62773E-14
 -1      2123 9.42220E-03-2.33387E-04-5.72608E-14
 -1      2124 9.43068E-03-2.50564E-04-5.73556E-14
 -1      2125 9.28618E-03-1.79206E-04-5.67764E-14
 -1      2126 9.36776E-03-2.06885E-04-5.71239E-14
 -1      2127 8.67269E-03 5.38786E-05-5.47179E-14
 -1      2128 8.85778E-03-2.41185E-05-5.53683E-14
 -1      2129 8.23103E-03 3.02154E-04-5.21900E-14
 -1      2130 8.41883E-03 1.90791E-04-5.32932E-14
 -1      2131 3.27668E-04-8.61665E-05-2.47157E-16
 -1      2132 3.29786E-04-9.92650E-05-2.37901E-16
 -1      2133 4.47001E-04-1.41077E-04-3.46348E-16
 -1      2134 4.40559E-04-1.06175E-04-3.70445E-16
 -1      2135 7.46924E-03 6.95384E-04-4.75730E-14
 -1      2136 7.62511E-03 6.21608E-04-4.87469E-14
 -1      2137 7.17252E-03 7.70183E-04-4.53604E-14
 -1      2138 7.31658E-03 7.43261E-04-4.64596E-14
 -1      2139 7.37737E-03 7.27537E-04-4.71571E-14
 -1      2140 6.83644E-03 7.41263E-04-4.28061E-14
 -1      2141 6.97963E-03 7.71548E-04-4.38794E-14
 -1      2142 6.48972E-03 6.03728E-04-4.07131E-14
 -1      2143 6.65320E-03 6.79007E-04-4.17040E-14
 -1      2144 6.10565E-03 4.08547E-04-3.88129E-14
 -1      2145 6.28448E-03 5.03227E-04-3.96304E-14
 -1      2146 5.73236E-03 2.15656E-04-3.72662E-14
 -1      2147 5.91802E-03 3.12900E-04-3.80352E-14
 -1      2148 6.03586E-03 3.52107E-04-3.79785E-14
 -1      2149 5.32682E-03 3.23093E-05-3.58772E-14
 -1      2150 5.49790E-03 1.00831E-04-3.63324E-14
 -1      2151 5.05571E-03-6.48159E-05-3.52339E-14
 -1      2152 5.17056E-03-2.45527E-05-3.55394E-14
 -1      2153 4.91475E-03-1.22423E-04-3.47672E-14
 -1      2154 4.96522E-03-1.00848E-04-3.49610E-14
 -1      2155 4.93459E-03-1.69196E-04-3.49629E-14
 -1      2156 4.90319E-03-1.49093E-04-3.47931E-14
 -1      2157 5.11003E-03-2.31081E-04-3.53162E-14
 -1      2158 5.00381E-03-1.98782E-04-3.51367E-14
 -1      2159 4.96421E-03-1.69911E-04-3.43985E-14
 -1      2160 5.45201E-03-3.75888E-04-3.64565E-14
 -1      2161 5.28664E-03-3.00172E-04-3.58428E-14
 -1      2162 5.82236E-03-5.49591E-04-3.75991E-14
 -1      2163 5.62948E-03-4.58056E-04-3.70218E-14
 -1      2164 5.55504E-03-3.91419E-04-3.61642E-14
 -1      2165 6.26335E-03-8.04616E-04-3.95489E-14
 -1      2166 6.07497E-03-6.87919E-04-3.86069E-14
 -1      2167 6.65066E-03-1.01830E-03-4.15171E-14
 -1      2168 6.46132E-03-9.15788E-04-4.05239E-14
 -1      2169 6.39420E-03-8.56311E-04-3.96786E-14
 -1      2170 7.03372E-03-1.17533E-03-4.40561E-14
 -1      2171 6.87712E-03-1.12007E-03-4.28887E-14
 -1      2172 7.35933E-03-1.18886E-03-4.65097E-14
 -1      2173 7.20813E-03-1.19655E-03-4.53799E-14
 -1      2174 7.69094E-03-1.09125E-03-4.89685E-14
 -1      2175 7.52879E-03-1.15449E-03-4.77662E-14
 -1      2176 8.09979E-03-8.85425E-04-5.14968E-14
 -1      2177 7.91558E-03-9.85058E-04-5.04563E-14
 -1      2178 8.49943E-03-6.72333E-04-5.34813E-14
 -1      2179 8.30941E-03-7.75553E-04-5.25521E-14
 -1      2180 8.88718E-03-4.78368E-04-5.53027E-14
 -1      2181 8.71024E-03-5.61191E-04-5.45613E-14
 -1      2182 9.20156E-03-3.49479E-04-5.65310E-14
 -1      2183 9.06862E-03-3.99788E-04-5.60398E-14
 -1      2184 9.38934E-03-2.77923E-04-5.73694E-14
 -1      2185 9.31542E-03-3.04731E-04-5.70056E-14
 -1      2186 7.85107E-03 5.07560E-04-5.01743E-14
 -1      2187 8.03875E-03 4.06244E-04-5.11762E-14
 -1      2188 8.10221E-03 3.44899E-04-5.21636E-14
 -1      2189 8.53464E-03 1.01900E-04-5.46143E-14
 -1      2190 8.64791E-03 3.14916E-05-5.59532E-14
 -1      2191 8.40896E-03 1.55952E-04-5.45071E-14
 -1      2192 6.07765E-04-2.92899E-04-3.55971E-16
 -1      2193 7.71342E-03 5.68423E-04-4.97022E-14
 -1      2194 6.64033E-04-2.86312E-04-4.84584E-16
 -1      2195 9.22926E-03-1.78598E-04-5.74918E-14
 -1      2196 9.40234E-03-2.29528E-04-5.81409E-14
 -1      2197 1.49907E-02-1.37470E-03-1.77608E-13
 -1      2198 8.94384E-03-8.20300E-05-5.65247E-14
 -1      2199 9.41965E-03-2.63077E-04-5.82963E-14
 -1      2200 9.25999E-03-3.13542E-04-5.78294E-14
 -1      2201 8.97157E-03-4.20067E-04-5.66018E-14
 -1      2202 8.59153E-03-5.99357E-04-5.47624E-14
 -1      2203 8.18977E-03-8.20188E-04-5.26079E-14
 -1      2204 7.79128E-03-1.04312E-03-5.00378E-14
 -1      2205 7.44000E-03-1.18339E-03-4.72844E-14
 -1      2206 6.78432E-03-1.07685E-03-4.20037E-14
 -1      2207 5.97000E-03-6.04400E-04-3.77118E-14
 -1      2208 5.86586E-03-5.31429E-04-3.68308E-14
 -1      2209 6.09730E-03-6.64094E-04-3.78206E-14
 -1      2210 5.19814E-03-2.45368E-04-3.50855E-14
 -1      2211 5.12079E-03-2.08182E-04-3.43379E-14
 -1      2212 5.29004E-03-2.65205E-04-3.48523E-14
 -1      2213 4.89871E-03-1.33940E-04-3.42006E-14
 -1      2214 5.00702E-03-9.30881E-05-3.44416E-14
 -1      2215 5.62488E-03 1.40316E-04-3.62825E-14
 -1      2216 5.73996E-03 1.87236E-04-3.62283E-14
 -1      2217 5.52023E-03 8.44637E-05-3.53156E-14
 -1      2218 6.40188E-03 5.52189E-04-3.98164E-14
 -1      2219 7.07097E-03 7.83602E-04-4.45543E-14
 -1      2220 6.75532E-03 7.17933E-04-4.19861E-14
 -1      2221 5.24965E-03-1.44203E-05-3.50397E-14
 -1      2222 7.12837E-03-1.19899E-03-4.46970E-14
 -1      2223 1.01766E-03 3.89243E-04-9.09388E-16
 -1      2224 8.72824E-04 3.54838E-04-6.66662E-16
 -1      2225 5.47424E-04-5.27084E-05-5.57199E-16
 -1      2226 5.48659E-04-6.87768E-05-5.54176E-16
 -1      2227 5.50306E-04-8.55261E-05-5.49392E-16
 -1      2228 5.52398E-04-1.03025E-04-5.42643E-16
 -1      2229 6.64997E-04-9.11295E-05-7.47612E-16
 -1      2230 5.45704E-04 8.41135E-06-5.54258E-16
 -1      2231 5.45685E-04-6.63680E-06-5.56955E-16
 -1      2232 5.46631E-04 3.88980E-05-5.45042E-16
 -1      2233 5.46018E-04 2.35705E-05-5.50327E-16
 -1      2234 6.60208E-04 1.88977E-05-7.47950E-16
 -1      2235 5.48807E-04 7.02054E-05-5.29877E-16
 -1      2236 5.47552E-04 5.43396E-05-5.38401E-16
 -1      2237 6.61834E-04 5.49369E-05-7.34168E-16
 -1      2238 5.52646E-04 1.04640E-04-5.07298E-16
 -1      2239 5.50497E-04 8.70408E-05-5.19590E-16
 -1      2240 6.65220E-04 9.28433E-05-7.12321E-16
 -1      2241 5.58924E-04 1.43301E-04-4.74908E-16
 -1      2242 5.55425E-04 1.23365E-04-4.92811E-16
 -1      2243 6.70930E-04 1.34414E-04-6.80852E-16
 -1      2244 5.69425E-04 1.88589E-04-4.28422E-16
 -1      2245 5.63542E-04 1.64983E-04-4.53983E-16
 -1      2246 6.80098E-04 1.81191E-04-6.36400E-16
 -1      2247 1.30424E-03 4.41715E-04-1.52057E-15
 -1      2248 1.16128E-03 4.18095E-04-1.19379E-15
 -1      2249 1.07339E-03 3.69715E-04-1.11062E-15
 -1      2250 9.16386E-04-3.36892E-04-9.37604E-16
 -1      2251 1.06089E-03-3.68120E-04-1.23439E-15
 -1      2252 7.61520E-03 6.17712E-04-4.93659E-14
 -1      2253 7.80680E-03 5.05787E-04-5.08069E-14
 -1      2254 1.20465E-03-3.94226E-04-1.57478E-15
 -1      2255 1.34809E-03-4.15611E-04-1.95942E-15
 -1      2256 1.11890E-03-3.47918E-04-1.44801E-15
 -1      2257 1.49104E-03-4.33112E-04-2.38749E-15
 -1      2258 1.63377E-03-4.47005E-04-2.85939E-15
 -1      2259 1.40625E-03-3.89738E-04-2.22537E-15
 -1      2260 1.77632E-03-4.57937E-04-3.37436E-15
 -1      2261 1.91886E-03-4.66127E-04-3.93224E-15
 -1      2262 1.69284E-03-4.17112E-04-3.17509E-15
 -1      2263 2.06148E-03-4.72053E-04-4.53259E-15
 -1      2264 2.20429E-03-4.75904E-04-5.17578E-15
 -1      2265 1.97906E-03-4.33287E-04-4.29539E-15
 -1      2266 2.34738E-03-4.78039E-04-5.86080E-15
 -1      2267 2.49085E-03-4.78633E-04-6.58712E-15
 -1      2268 2.26546E-03-4.40871E-04-5.58425E-15
 -1      2269 2.63475E-03-4.77973E-04-7.35549E-15
 -1      2270 2.77918E-03-4.76227E-04-8.16444E-15
 -1      2271 2.55258E-03-4.41979E-04-7.03930E-15
 -1      2272 2.92419E-03-4.73654E-04-9.01333E-15
 -1      2273 3.06988E-03-4.70432E-04-9.90268E-15
 -1      2274 2.84086E-03-4.38419E-04-8.65737E-15
 -1      2275 3.21627E-03-4.66828E-04-1.08314E-14
 -1      2276 3.36351E-03-4.63050E-04-1.17997E-14
 -1      2277 3.13073E-03-4.31884E-04-1.04355E-14
 -1      2278 3.51158E-03-4.59415E-04-1.28066E-14
 -1      2279 3.66067E-03-4.56188E-04-1.38517E-14
 -1      2280 3.42262E-03-4.24163E-04-1.23712E-14
 -1      2281 3.81078E-03-4.53777E-04-1.49350E-14
 -1      2282 3.96210E-03-4.52542E-04-1.60552E-14
 -1      2283 3.71704E-03-4.17374E-04-1.44602E-14
 -1      2284 4.11467E-03-4.53021E-04-1.72124E-14
 -1      2285 4.26872E-03-4.55722E-04-1.84074E-14
 -1      2286 4.01470E-03-4.14237E-04-1.66996E-14
 -1      2287 4.42437E-03-4.61328E-04-1.96397E-14
 -1      2288 4.58182E-03-4.70566E-04-2.09068E-14
 -1      2289 4.31670E-03-4.18375E-04-1.90870E-14
 -1      2290 4.74142E-03-4.84236E-04-2.22099E-14
 -1      2291 4.90321E-03-5.03361E-04-2.35504E-14
 -1      2292 4.62484E-03-4.34625E-04-2.16195E-14
 -1      2293 5.06791E-03-5.28743E-04-2.49272E-14
 -1      2294 5.23519E-03-5.61700E-04-2.63389E-14
 -1      2295 4.94187E-03-4.69322E-04-2.42959E-14
 -1      2296 5.40620E-03-6.02794E-04-2.77881E-14
 -1      2297 5.57992E-03-6.53420E-04-2.92768E-14
 -1      2298 5.27163E-03-5.30336E-04-2.71174E-14
 -1      2299 5.75773E-03-7.13465E-04-3.08029E-14
 -1      2300 5.93745E-03-7.83326E-04-3.23679E-14
 -1      2301 5.61807E-03-6.26475E-04-3.00857E-14
 -1      2302 6.12027E-03-8.61546E-04-3.39756E-14
 -1      2303 6.30275E-03-9.46275E-04-3.56265E-14
 -1      2304 5.98235E-03-7.63667E-04-3.32090E-14
 -1      2305 6.48515E-03-1.03404E-03-3.73211E-14
 -1      2306 6.66422E-03-1.11792E-03-3.90642E-14
 -1      2307 6.35791E-03-9.37540E-04-3.64986E-14
 -1      2308 6.83883E-03-1.19278E-03-4.08571E-14
 -1      2309 7.01048E-03-1.25012E-03-4.26964E-14
 -1      2310 6.72872E-03-1.11726E-03-3.99735E-14
 -1      2311 7.17631E-03-1.28619E-03-4.45876E-14
 -1      2312 7.34368E-03-1.29441E-03-4.65285E-14
 -1      2313 7.08112E-03-1.24441E-03-4.36467E-14
 -1      2314 7.50923E-03-1.27465E-03-4.85182E-14
 -1      2315 7.68098E-03-1.23368E-03-5.05555E-14
 -1      2316 7.42394E-03-1.26115E-03-4.75211E-14
 -1      2317 7.85609E-03-1.17498E-03-5.26368E-14
 -1      2318 8.03541E-03-1.10759E-03-5.47625E-14
 -1      2319 7.77652E-03-1.16611E-03-5.15914E-14
 -1      2320 8.21797E-03-1.03668E-03-5.69281E-14
 -1      2321 8.40056E-03-9.68707E-04-5.91339E-14
 -1      2322 8.14808E-03-1.01940E-03-5.58396E-14
 -1      2323 8.58347E-03-9.07160E-04-6.13756E-14
 -1      2324 8.76335E-03-8.54092E-04-6.36505E-14
 -1      2325 8.52371E-03-8.79195E-04-6.02483E-14
 -1      2326 8.94136E-03-8.10907E-04-6.59573E-14
 -1      2327 9.11529E-03-7.77106E-04-6.82965E-14
 -1      2328 8.88806E-03-7.75542E-04-6.47942E-14
 -1      2329 9.28655E-03-7.52809E-04-7.06654E-14
 -1      2330 9.45416E-03-7.36598E-04-7.30608E-14
 -1      2331 9.23476E-03-7.13115E-04-6.94664E-14
 -1      2332 9.61923E-03-7.27940E-04-7.54857E-14
 -1      2333 9.78147E-03-7.25520E-04-7.79376E-14
 -1      2334 9.56493E-03-6.85596E-04-7.42543E-14
 -1      2335 9.94158E-03-7.28550E-04-8.04150E-14
 -1      2336 1.00996E-02-7.36023E-04-8.29203E-14
 -1      2337 9.88257E-03-6.84298E-04-7.91482E-14
 -1      2338 1.02560E-02-7.47159E-04-8.54492E-14
 -1      2339 1.04108E-02-7.61253E-04-8.80006E-14
 -1      2340 1.01915E-02-7.01455E-04-8.41474E-14
 -1      2341 1.05642E-02-7.77652E-04-9.05783E-14
 -1      2342 1.07165E-02-7.95879E-04-9.31790E-14
 -1      2343 1.04946E-02-7.30888E-04-8.92441E-14
 -1      2344 1.08676E-02-8.15444E-04-9.58010E-14
 -1      2345 1.10179E-02-8.36028E-04-9.84460E-14
 -1      2346 1.07935E-02-7.67987E-04-9.44347E-14
 -1      2347 1.11673E-02-8.57293E-04-1.01113E-13
 -1      2348 1.13159E-02-8.79029E-04-1.03797E-13
 -1      2349 1.10896E-02-8.09461E-04-9.97146E-14
 -1      2350 1.14638E-02-9.01017E-04-1.06503E-13
 -1      2351 1.16111E-02-9.23121E-04-1.09227E-13
 -1      2352 1.13833E-02-8.53059E-04-1.05078E-13
 -1      2353 1.17578E-02-9.45212E-04-1.11970E-13
 -1      2354 1.19041E-02-9.67204E-04-1.14734E-13
 -1      2355 1.16752E-02-8.97306E-04-1.10519E-13
 -1      2356 1.20499E-02-9.89031E-04-1.17516E-13
 -1      2357 1.21953E-02-1.01064E-03-1.20312E-13
 -1      2358 1.19658E-02-9.41290E-04-1.16036E-13
 -1      2359 1.23403E-02-1.03200E-03-1.23127E-13
 -1      2360 1.24850E-02-1.05309E-03-1.25961E-13
 -1      2361 1.22552E-02-9.84488E-04-1.21624E-13
 -1      2362 1.26295E-02-1.07391E-03-1.28809E-13
 -1      2363 1.27737E-02-1.09444E-03-1.31671E-13
 -1      2364 1.25436E-02-1.02665E-03-1.27281E-13
 -1      2365 1.29177E-02-1.11470E-03-1.34551E-13
 -1      2366 1.30615E-02-1.13467E-03-1.37441E-13
 -1      2367 1.28313E-02-1.06768E-03-1.32999E-13
 -1      2368 1.32051E-02-1.15440E-03-1.40346E-13
 -1      2369 1.33486E-02-1.17387E-03-1.43268E-13
 -1      2370 1.31185E-02-1.10762E-03-1.38777E-13
 -1      2371 1.34920E-02-1.19312E-03-1.46200E-13
 -1      2372 1.36353E-02-1.21215E-03-1.49146E-13
 -1      2373 1.34053E-02-1.14655E-03-1.44606E-13
 -1      2374 1.37785E-02-1.23099E-03-1.52107E-13
 -1      2375 1.39216E-02-1.24964E-03-1.55073E-13
 -1      2376 1.36917E-02-1.18459E-03-1.50492E-13
 -1      2377 1.40647E-02-1.26813E-03-1.58051E-13
 -1      2378 1.42077E-02-1.28647E-03-1.61042E-13
 -1      2379 1.39778E-02-1.22188E-03-1.56425E-13
 -1      2380 1.43507E-02-1.30469E-03-1.64037E-13
 -1      2381 1.44937E-02-1.32280E-03-1.67045E-13
 -1      2382 1.42639E-02-1.25855E-03-1.62394E-13
 -1      2383 1.87182E-03 4.98946E-04-3.25038E-15
 -1      2384 1.73014E-03 4.89321E-04-2.75448E-15
 -1      2385 2.15565E-03 5.11365E-04-4.36801E-15
 -1      2386 2.01362E-03 5.06226E-04-3.78845E-15
 -1      2387 1.93137E-03 4.66608E-04-3.61403E-15
 -1      2388 2.44090E-03 5.16604E-04-5.65123E-15
 -1      2389 2.29805E-03 5.14760E-04-4.98887E-15
 -1      2390 2.21683E-03 4.76735E-04-4.78269E-15
 -1      2391 2.72830E-03 5.16773E-04-7.10116E-15
 -1      2392 2.58429E-03 5.17212E-04-6.35544E-15
 -1      2393 2.50334E-03 4.80235E-04-6.11627E-15
 -1      2394 3.01849E-03 5.13783E-04-8.71643E-15
 -1      2395 2.87301E-03 5.15564E-04-7.88795E-15
 -1      2396 2.79154E-03 4.79113E-04-7.61451E-15
 -1      2397 3.31202E-03 5.09554E-04-1.04953E-14
 -1      2398 3.16480E-03 5.11707E-04-9.58527E-15
 -1      2399 3.08198E-03 4.75232E-04-9.27727E-15
 -1      2400 3.60941E-03 5.06196E-04-1.24373E-14
 -1      2401 3.46020E-03 5.07632E-04-1.14460E-14
 -1      2402 3.37518E-03 4.70499E-04-1.11022E-14
 -1      2403 3.91113E-03 5.06185E-04-1.45392E-14
 -1      2404 3.75970E-03 5.05613E-04-1.34684E-14
 -1      2405 3.67169E-03 4.67046E-04-1.30886E-14
 -1      2406 4.21758E-03 5.12464E-04-1.68006E-14
 -1      2407 4.06376E-03 5.08350E-04-1.56503E-14
 -1      2408 3.97211E-03 4.67394E-04-1.52343E-14
 -1      2409 4.52903E-03 5.28442E-04-1.92182E-14
 -1      2410 4.37272E-03 5.19029E-04-1.79901E-14
 -1      2411 4.27708E-03 4.74559E-04-1.75363E-14
 -1      2412 4.84547E-03 5.57734E-04-2.17889E-14
 -1      2413 4.68673E-03 5.41214E-04-2.04845E-14
 -1      2414 4.58726E-03 4.92032E-04-1.99941E-14
 -1      2415 5.16636E-03 6.03477E-04-2.45104E-14
 -1      2416 5.00555E-03 5.78399E-04-2.31310E-14
 -1      2417 4.90318E-03 5.23513E-04-2.26026E-14
 -1      2418 5.49031E-03 6.67043E-04-2.73769E-14
 -1      2419 5.32825E-03 6.33051E-04-2.59253E-14
 -1      2420 5.22488E-03 5.72210E-04-2.53601E-14
 -1      2421 5.81471E-03 7.46074E-04-3.03925E-14
 -1      2422 5.65284E-03 7.04967E-04-2.88656E-14
 -1      2423 5.55133E-03 6.39437E-04-2.82639E-14
 -1      2424 6.13581E-03 8.32292E-04-3.35622E-14
 -1      2425 5.97603E-03 7.89069E-04-3.19578E-14
 -1      2426 5.87977E-03 7.22377E-04-3.13168E-14
 -1      2427 6.44983E-03 9.10540E-04-3.68949E-14
 -1      2428 6.29386E-03 8.73623E-04-3.52074E-14
 -1      2429 6.20568E-03 8.11502E-04-3.45266E-14
 -1      2430 6.75518E-03 9.61100E-04-4.03946E-14
 -1      2431 6.60330E-03 9.40533E-04-3.86238E-14
 -1      2432 6.52425E-03 8.89358E-04-3.79012E-14
 -1      2433 7.05462E-03 9.66842E-04-4.40650E-14
 -1      2434 6.90496E-03 9.70316E-04-4.22091E-14
 -1      2435 6.83380E-03 9.33844E-04-4.14441E-14
 -1      2436 7.35434E-03 9.21241E-04-4.79020E-14
 -1      2437 7.20366E-03 9.50310E-04-4.59625E-14
 -1      2438 7.13816E-03 9.27625E-04-4.51567E-14
 -1      2439 7.66051E-03 8.31927E-04-5.18962E-14
 -1      2440 7.50617E-03 8.81010E-04-4.98793E-14
 -1      2441 7.44494E-03 8.66978E-04-4.90341E-14
 -1      2442 7.97545E-03 7.16899E-04-5.60460E-14
 -1      2443 7.81690E-03 7.76348E-04-5.39529E-14
 -1      2444 7.75998E-03 7.64733E-04-5.30722E-14
 -1      2445 8.29734E-03 5.95574E-04-6.03363E-14
 -1      2446 8.13585E-03 6.55975E-04-5.81736E-14
 -1      2447 8.08365E-03 6.42485E-04-5.72616E-14
 -1      2448 8.62239E-03 4.82455E-04-6.47640E-14
 -1      2449 8.45988E-03 5.37371E-04-6.25350E-14
 -1      2450 8.41203E-03 5.20186E-04-6.15941E-14
 -1      2451 8.94693E-03 3.85196E-04-6.93148E-14
 -1      2452 8.78505E-03 4.31634E-04-6.70243E-14
 -1      2453 8.74021E-03 4.10606E-04-6.60581E-14
 -1      2454 9.26851E-03 3.05688E-04-7.39795E-14
 -1      2455 9.10830E-03 3.43262E-04-7.16334E-14
 -1      2456 9.06469E-03 3.18981E-04-7.06448E-14
 -1      2457 9.58589E-03 2.42385E-04-7.87535E-14
 -1      2458 9.42784E-03 2.72174E-04-7.63526E-14
 -1      2459 9.38386E-03 2.45376E-04-7.53427E-14
 -1      2460 9.89865E-03 1.92179E-04-8.36285E-14
 -1      2461 9.74289E-03 2.15844E-04-8.11787E-14
 -1      2462 9.69745E-03 1.87223E-04-8.01468E-14
 -1      2463 1.02069E-02 1.51647E-04-8.86043E-14
 -1      2464 1.00533E-02 1.70891E-04-8.61039E-14
 -1      2465 1.00059E-02 1.41037E-04-8.50537E-14
 -1      2466 1.05110E-02 1.17705E-04-9.36775E-14
 -1      2467 1.03594E-02 1.34010E-04-9.11294E-14
 -1      2468 1.03099E-02 1.03402E-04-9.00595E-14
 -1      2469 1.08114E-02 8.78597E-05-9.88470E-14
 -1      2470 1.06616E-02 1.02393E-04-9.62502E-14
 -1      2471 1.06101E-02 7.14040E-05-9.51613E-14
 -1      2472 1.11087E-02 6.02421E-05-1.04102E-13
 -1      2473 1.09604E-02 7.38623E-05-1.01464E-13
 -1      2474 1.09073E-02 4.27671E-05-1.00355E-13
 -1      2475 1.14033E-02 3.35365E-05-1.09446E-13
 -1      2476 1.12563E-02 4.68379E-05-1.06764E-13
 -1      2477 1.12018E-02 1.58251E-05-1.05637E-13
 -1      2478 1.16957E-02 6.87366E-06-1.14864E-13
 -1      2479 1.15497E-02 2.02410E-05-1.12145E-13
 -1      2480 1.14943E-02-1.05709E-05-1.10999E-13
 -1      2481 1.19864E-02-2.02777E-05-1.20362E-13
 -1      2482 1.18413E-02-6.61566E-06-1.17603E-13
 -1      2483 1.17851E-02-3.71624E-05-1.16437E-13
 -1      2484 1.22757E-02-4.82058E-05-1.25932E-13
 -1      2485 1.21312E-02-3.41308E-05-1.23137E-13
 -1      2486 1.20746E-02-6.43880E-05-1.21955E-13
 -1      2487 1.25640E-02-7.70310E-05-1.31571E-13
 -1      2488 1.24200E-02-6.25002E-05-1.28743E-13
 -1      2489 1.23631E-02-9.24707E-05-1.27542E-13
 -1      2490 1.28515E-02-1.06764E-04-1.37273E-13
 -1      2491 1.27078E-02-9.17834E-05-1.34414E-13
 -1      2492 1.26508E-02-1.21487E-04-1.33198E-13
 -1      2493 1.31383E-02-1.37349E-04-1.43030E-13
 -1      2494 1.29950E-02-1.21953E-04-1.40146E-13
 -1      2495 1.29378E-02-1.51419E-04-1.38913E-13
 -1      2496 1.34248E-02-1.68690E-04-1.48834E-13
 -1      2497 1.32816E-02-1.52930E-04-1.45928E-13
 -1      2498 1.32245E-02-1.82193E-04-1.44682E-13
 -1      2499 1.37110E-02-2.00673E-04-1.54667E-13
 -1      2500 1.35679E-02-1.84607E-04-1.51746E-13
 -1      2501 1.35108E-02-2.13703E-04-1.50491E-13
 -1      2502 1.39969E-02-2.33175E-04-1.60533E-13
 -1      2503 1.38540E-02-2.16865E-04-1.57596E-13
 -1      2504 1.37968E-02-2.45829E-04-1.56333E-13
 -1      2505 1.42828E-02-2.66069E-04-1.66422E-13
 -1      2506 1.41399E-02-2.49579E-04-1.63476E-13
 -1      2507 1.40828E-02-2.78447E-04-1.62204E-13
 -1      2508 1.44301E-02-2.82160E-04-1.69465E-13
 -1      2509 1.44816E-02-6.04644E-04-1.69599E-13
 -1      2510 1.44649E-02-5.62741E-04-1.69379E-13
 -1      2511 1.45153E-02-6.88363E-04-1.70038E-13
 -1      2512 1.44985E-02-6.46517E-04-1.69820E-13
 -1      2513 1.43664E-02-6.11015E-04-1.67150E-13
 -1      2514 1.44155E-02-4.38250E-04-1.68720E-13
 -1      2515 1.43989E-02-3.96212E-04-1.68494E-13
 -1      2516 1.44483E-02-5.21159E-04-1.69159E-13
 -1      2517 1.44319E-02-4.79900E-04-1.68940E-13
 -1      2518 1.42999E-02-4.44516E-04-1.66275E-13
 -1      2519 1.43330E-02-5.27669E-04-1.66713E-13
 -1      2520 1.45491E-02-7.71994E-04-1.70476E-13
 -1      2521 1.45322E-02-7.30187E-04-1.70259E-13
 -1      2522 1.44002E-02-6.94579E-04-1.67587E-13
 -1      2523 1.45829E-02-8.55586E-04-1.70917E-13
 -1      2524 1.45660E-02-8.13792E-04-1.70696E-13
 -1      2525 1.44340E-02-7.78051E-04-1.68021E-13
 -1      2526 1.46168E-02-9.39192E-04-1.71347E-13
 -1      2527 1.45999E-02-8.97384E-04-1.71132E-13
 -1      2528 1.44678E-02-8.61492E-04-1.68451E-13
 -1      2529 1.46503E-02-1.02144E-03-1.71757E-13
 -1      2530 1.46335E-02-9.80308E-04-1.71552E-13
 -1      2531 1.45015E-02-9.44257E-04-1.68866E-13
 -1      2532 1.46844E-02-1.10522E-03-1.72166E-13
 -1      2533 1.46673E-02-1.06332E-03-1.71964E-13
 -1      2534 1.45352E-02-1.02711E-03-1.69271E-13
 -1      2535 1.47188E-02-1.18913E-03-1.72558E-13
 -1      2536 1.47016E-02-1.14716E-03-1.72364E-13
 -1      2537 1.45694E-02-1.11082E-03-1.69667E-13
 -1      2538 1.47535E-02-1.27319E-03-1.72926E-13
 -1      2539 1.47361E-02-1.23114E-03-1.72741E-13
 -1      2540 1.46038E-02-1.19468E-03-1.70043E-13
 -1      2541 9.38573E-03-2.34350E-04-5.93557E-14
 -1      2542 9.43610E-03-2.44573E-04-5.95019E-14
 -1      2543 8.89407E-03-8.00570E-05-5.74741E-14
 -1      2544 9.04724E-03-1.35573E-04-5.79466E-14
 -1      2545 1.58843E-03 4.76814E-04-2.30116E-15
 -1      2546 1.44651E-03 4.61199E-04-1.88957E-15
 -1      2547 1.64623E-03 4.47495E-04-2.61195E-15
 -1      2548 1.48620E-02-1.35704E-03-1.74886E-13
 -1      2549 9.44675E-03-2.56759E-04-5.95127E-14
 -1      2550 9.41147E-03-2.67576E-04-5.95266E-14
 -1      2551 9.46059E-03-2.55242E-04-6.07331E-14
 -1      2552 9.17467E-03-1.77888E-04-5.84599E-14
 -1      2553 9.28480E-03-2.07627E-04-5.89740E-14
 -1      2554 9.13239E-03-1.67329E-04-5.94216E-14
 -1      2555 5.89184E-04-2.32543E-04-4.48819E-16
 -1      2556 7.82273E-04-2.97071E-04-7.14354E-16
 -1      2557 8.42007E-04-2.84988E-04-8.75642E-16
 -1      2558 5.79824E-04-2.04777E-04-4.78025E-16
 -1      2559 9.31648E-03-2.95184E-04-5.91718E-14
 -1      2560 9.20870E-03-3.25072E-04-5.86878E-14
 -1      2561 4.88656E-03-1.35423E-04-3.33427E-14
 -1      2562 4.89582E-03-1.26436E-04-3.33147E-14
 -1      2563 6.31841E-03 5.01185E-04-3.88469E-14
 -1      2564 6.49171E-03 5.99456E-04-3.99107E-14
 -1      2565 5.45958E-04-2.17751E-05-5.58351E-16
 -1      2566 5.46529E-04-3.70609E-05-5.58486E-16
 -1      2567 6.61687E-04-5.30640E-05-7.55296E-16
 -1      2568 6.60154E-04-1.68073E-05-7.54998E-16
 -1      2569 6.65467E-03 6.79836E-04-4.09800E-14
 -1      2570 6.79859E-03 7.42261E-04-4.20655E-14
 -1      2571 6.55425E-03 6.38558E-04-3.99868E-14
 -1      2572 7.30802E-03 7.54167E-04-4.67246E-14
 -1      2573 7.42975E-03 7.07250E-04-4.78428E-14
 -1      2574 5.16467E-03-4.99532E-05-3.41099E-14
 -1      2575 5.30432E-03-2.99232E-06-3.44312E-14
 -1      2576 7.00745E-03 7.88454E-04-4.39082E-14
 -1      2577 7.16167E-03 7.85366E-04-4.53904E-14
 -1      2578 5.95639E-03 2.98420E-04-3.69671E-14
 -1      2579 6.11926E-03 3.90178E-04-3.77246E-14
 -1      2580 7.23568E-03-1.21876E-03-4.55918E-14
 -1      2581 7.09606E-03-1.20034E-03-4.42610E-14
 -1      2582 4.96508E-03-1.05743E-04-3.35821E-14
 -1      2583 5.05334E-03-8.44993E-05-3.38455E-14
 -1      2584 5.09487E-03-6.74564E-05-3.32467E-14
 -1      2585 4.99151E-03-1.66537E-04-3.37471E-14
 -1      2586 4.92618E-03-1.51667E-04-3.35790E-14
 -1      2587 5.63763E-03-4.10184E-04-3.57603E-14
 -1      2588 5.47592E-03-3.36523E-04-3.52123E-14
 -1      2589 6.48567E-03-9.02928E-04-3.96699E-14
 -1      2590 6.31880E-03-7.95561E-04-3.87128E-14
 -1      2591 6.86119E-03-1.11857E-03-4.21898E-14
 -1      2592 6.67956E-03-1.01810E-03-4.08366E-14
 -1      2593 7.50575E-03-1.17505E-03-4.81013E-14
 -1      2594 7.37209E-03-1.20929E-03-4.68373E-14
 -1      2595 7.31877E-03-1.22287E-03-4.63848E-14
 -1      2596 7.88241E-03-9.93591E-04-5.12241E-14
 -1      2597 7.69471E-03-1.09704E-03-4.97176E-14
 -1      2598 8.28644E-03-7.56461E-04-5.39366E-14
 -1      2599 8.10933E-03-8.63206E-04-5.28593E-14
 -1      2600 8.66884E-03-5.48855E-04-5.61264E-14
 -1      2601 8.47648E-03-6.49805E-04-5.50267E-14
 -1      2602 8.39386E-03-7.03853E-04-5.52819E-14
 -1      2603 9.05641E-03-3.79242E-04-5.80933E-14
 -1      2604 8.89081E-03-4.45084E-04-5.73380E-14
 -1      2605 8.01081E-03 3.84523E-04-5.22278E-14
 -1      2606 8.17774E-03 2.83603E-04-5.32581E-14
 -1      2607 7.58293E-04 3.27121E-04-4.93786E-16
 -1      2608 6.11690E-04 2.79469E-04-3.26196E-16
 -1      2609 5.85199E-04 2.52859E-04-3.37526E-16
 -1      2610 8.14635E-04 3.14874E-04-6.44219E-16
 -1      2611 6.80238E-03 7.53501E-04-4.18474E-14
 -1      2612 6.90260E-03 7.76450E-04-4.28723E-14
 -1      2613 6.99083E-03 7.95053E-04-4.36839E-14
 -1      2614 6.70543E-04-1.32380E-04-7.30332E-16
 -1      2615 5.55074E-04-1.21543E-04-5.33427E-16
 -1      2616 5.58448E-04-1.41248E-04-5.21312E-16
 -1      2617 1.36053E-03 4.16461E-04-1.77775E-15
 -1      2618 5.72961E-04 2.22636E-04-3.76245E-16
 -1      2619 8.67526E-03 1.55552E-05-5.72403E-14
 -1      2620 8.78206E-03-3.53770E-05-5.73581E-14
 -1      2621 8.90670E-03-8.43860E-05-5.87803E-14
 -1      2622 9.38733E-03-2.80962E-04-6.03896E-14
 -1      2623 7.90101E-03 4.48521E-04-5.18795E-14
 -1      2624 8.78887E-03-4.98922E-04-5.76024E-14
 -1      2625 1.43730E-02-3.10967E-04-1.68189E-13
 -1      2626 1.43701E-02-3.42201E-04-1.68041E-13
 -1      2627 7.61368E-03-1.14223E-03-4.92537E-14
 -1      2628 9.35539E-03-2.28661E-04-6.03314E-14
 -1      2629 6.97522E-03-1.16855E-03-4.30445E-14
 -1      2630 6.58269E-03-9.64652E-04-3.98424E-14
 -1      2631 6.90512E-04 2.44588E-04-5.47861E-16
 -1      2632 6.21436E-03 4.50356E-04-3.78129E-14
 -1      2633 5.76025E-03-4.66229E-04-3.58593E-14
 -1      2634 5.65756E-03-4.16358E-04-3.49017E-14
 -1      2635 5.87113E-03-5.27113E-04-3.59562E-14
 -1      2636 5.72621E-04-1.79967E-04-5.01416E-16
 -1      2637 4.88753E-03-1.36617E-04-3.26961E-14
 -1      2638 4.91052E-03-1.15298E-04-3.27248E-14
 -1      2639 5.82699E-03 2.35268E-04-3.59802E-14
 -1      2640 6.20061E-03-7.22283E-04-3.78083E-14
 -1      2641 5.36573E-03-2.88111E-04-3.44548E-14
 -1      2642 7.53297E-03 6.59974E-04-4.89198E-14
 -1      2643 5.40301E-03 3.62900E-05-3.43737E-14
 -1      2644 5.49709E-03 8.20403E-05-3.43124E-14
 -1      2645 5.29497E-03 4.26032E-06-3.34453E-14
 -1      2646 9.14522E-03-3.53639E-04-5.94304E-14
 -1      2647 7.22605E-03 7.76928E-04-4.60573E-14
 -1      2648 5.04891E-03-1.79356E-04-3.35121E-14
 -1      2649 4.98705E-03-1.61734E-04-3.26955E-14
 -1      2650 5.11321E-03-1.95768E-04-3.32765E-14
 -1      2651 1.47194E-02-1.35358E-03-1.71795E-13
 -1      2652 1.47433E-02-1.30625E-03-1.72549E-13
 -1      2653 1.46109E-02-1.26971E-03-1.69847E-13
 -1      2654 1.45907E-02-1.33582E-03-1.69085E-13
 -1      2655 8.00155E-03-9.35179E-04-5.25268E-14
 -1      2656 8.31280E-03 2.04619E-04-5.45714E-14
 -1      2657 1.42545E-02-3.48915E-04-1.65603E-13
 -1      2658 1.45038E-02-1.28975E-03-1.67427E-13
 -1      2659 7.79025E-04 7.34023E-05-9.52146E-16
 -1      2660 7.77489E-04 5.25613E-05-9.63124E-16
 -1      2661 7.76443E-04 3.17532E-05-9.71770E-16
 -1      2662 7.75917E-04 1.12336E-05-9.78398E-16
 -1      2663 8.94260E-04 4.68880E-05-1.22481E-15
 -1      2664 7.91916E-04 1.66052E-04-8.80169E-16
 -1      2665 7.87510E-04 1.41248E-04-9.03113E-16
 -1      2666 8.04416E-04 2.20410E-04-8.21459E-16
 -1      2667 7.97517E-04 1.92374E-04-8.53430E-16
 -1      2668 9.15332E-04 1.99092E-04-1.10449E-15
 -1      2669 1.13171E-03 3.49353E-04-1.32206E-15
 -1      2670 9.87732E-04 3.22405E-04-1.02347E-15
 -1      2671 6.11612E-03 4.11287E-04-3.67133E-14
 -1      2672 6.29119E-03 5.10121E-04-3.78139E-14
 -1      2673 8.04265E-04 2.70186E-04-7.25318E-16
 -1      2674 8.90438E-03-4.64107E-04-5.92972E-14
 -1      2675 8.70505E-03-5.55413E-04-5.80642E-14
 -1      2676 7.82025E-03 5.04104E-04-5.17933E-14
 -1      2677 7.99857E-03 3.93621E-04-5.32322E-14
 -1      2678 1.32243E-03-3.46841E-04-2.06250E-15
 -1      2679 1.46607E-03-3.63186E-04-2.49783E-15
 -1      2680 1.60957E-03-3.76393E-04-2.97581E-15
 -1      2681 1.75306E-03-3.86684E-04-3.49623E-15
 -1      2682 1.52696E-03-3.36013E-04-2.77701E-15
 -1      2683 1.89645E-03-3.94517E-04-4.05870E-15
 -1      2684 2.03983E-03-4.00076E-04-4.66284E-15
 -1      2685 1.81404E-03-3.55866E-04-3.82249E-15
 -1      2686 2.18320E-03-4.03738E-04-5.30874E-15
 -1      2687 2.32663E-03-4.05662E-04-5.99621E-15
 -1      2688 2.10095E-03-3.66672E-04-5.03467E-15
 -1      2689 2.47010E-03-4.06159E-04-6.72429E-15
 -1      2690 2.61370E-03-4.05373E-04-7.49359E-15
 -1      2691 2.38765E-03-3.70463E-04-6.41136E-15
 -1      2692 2.75741E-03-4.03574E-04-8.30336E-15
 -1      2693 2.90131E-03-4.00905E-04-9.15258E-15
 -1      2694 2.67415E-03-3.68997E-04-7.95021E-15
 -1      2695 3.04538E-03-3.97625E-04-1.00418E-14
 -1      2696 3.18971E-03-3.93888E-04-1.09701E-14
 -1      2697 2.96053E-03-3.63860E-04-9.65002E-15
 -1      2698 3.33427E-03-3.89977E-04-1.19375E-14
 -1      2699 3.47918E-03-3.86076E-04-1.29441E-14
 -1      2700 3.24685E-03-3.56604E-04-1.15066E-14
 -1      2701 3.62442E-03-3.82521E-04-1.39879E-14
 -1      2702 3.77015E-03-3.79559E-04-1.50698E-14
 -1      2703 3.53328E-03-3.48922E-04-1.35177E-14
 -1      2704 3.91637E-03-3.77602E-04-1.61893E-14
 -1      2705 4.06333E-03-3.77010E-04-1.73446E-14
 -1      2706 3.82013E-03-3.42826E-04-1.56800E-14
 -1      2707 4.21111E-03-3.78277E-04-1.85370E-14
 -1      2708 4.36003E-03-3.81956E-04-1.97670E-14
 -1      2709 4.10816E-03-3.40853E-04-1.79908E-14
 -1      2710 4.51037E-03-3.88605E-04-2.10318E-14
 -1      2711 4.66257E-03-3.99099E-04-2.23321E-14
 -1      2712 4.39887E-03-3.46316E-04-2.04461E-14
 -1      2713 4.81720E-03-4.13992E-04-2.36689E-14
 -1      2714 4.97476E-03-4.34702E-04-2.50411E-14
 -1      2715 4.69516E-03-3.63632E-04-2.30456E-14
 -1      2716 5.13632E-03-4.61694E-04-2.64494E-14
 -1      2717 5.30211E-03-4.97033E-04-2.78929E-14
 -1      2718 5.00199E-03-3.98967E-04-2.57852E-14
 -1      2719 5.47376E-03-5.41071E-04-2.93733E-14
 -1      2720 5.65060E-03-5.96393E-04-3.08915E-14
 -1      2721 5.32656E-03-4.61366E-04-2.86680E-14
 -1      2722 5.83560E-03-6.62236E-04-3.24493E-14
 -1      2723 6.02430E-03-7.40918E-04-3.40466E-14
 -1      2724 5.67848E-03-5.62792E-04-3.16971E-14
 -1      2725 6.21852E-03-8.30346E-04-3.56859E-14
 -1      2726 6.41329E-03-9.28316E-04-3.73679E-14
 -1      2727 6.06188E-03-7.17903E-04-3.48804E-14
 -1      2728 6.64979E-03-1.04222E-03-3.96127E-14
 -1      2729 6.84145E-03-1.13344E-03-4.14058E-14
 -1      2730 7.04364E-03-1.21146E-03-4.34591E-14
 -1      2731 7.22554E-03-1.24313E-03-4.53614E-14
 -1      2732 7.40758E-03-1.23485E-03-4.73154E-14
 -1      2733 7.69395E-03-1.16157E-03-5.05488E-14
 -1      2734 7.88371E-03-1.08699E-03-5.26295E-14
 -1      2735 8.07771E-03-1.00256E-03-5.47530E-14
 -1      2736 8.27225E-03-9.21881E-04-5.69183E-14
 -1      2737 8.01129E-03-9.91648E-04-5.36685E-14
 -1      2738 8.46675E-03-8.49414E-04-5.91220E-14
 -1      2739 8.65521E-03-7.87431E-04-6.13624E-14
 -1      2740 8.41351E-03-8.19096E-04-5.79996E-14
 -1      2741 8.83952E-03-7.38048E-04-6.36360E-14
 -1      2742 9.01649E-03-6.99617E-04-6.59385E-14
 -1      2743 8.79598E-03-6.97907E-04-6.24773E-14
 -1      2744 9.18824E-03-6.72477E-04-6.82715E-14
 -1      2745 9.35416E-03-6.53855E-04-7.06350E-14
 -1      2746 9.14745E-03-6.29461E-04-6.70824E-14
 -1      2747 9.51586E-03-6.43569E-04-7.30274E-14
 -1      2748 9.67361E-03-6.39526E-04-7.54451E-14
 -1      2749 9.47237E-03-6.00515E-04-7.18037E-14
 -1      2750 9.82846E-03-6.41283E-04-7.78879E-14
 -1      2751 9.98092E-03-6.47447E-04-8.03573E-14
 -1      2752 9.77947E-03-5.98408E-04-7.66338E-14
 -1      2753 1.01315E-02-6.57474E-04-8.28538E-14
 -1      2754 1.02808E-02-6.70504E-04-8.53728E-14
 -1      2755 1.00761E-02-6.14350E-04-8.15640E-14
 -1      2756 1.04289E-02-6.86005E-04-8.79167E-14
 -1      2757 1.05763E-02-7.03443E-04-9.04852E-14
 -1      2758 1.03672E-02-6.42289E-04-8.65952E-14
 -1      2759 1.07229E-02-7.22366E-04-9.30768E-14
 -1      2760 1.08690E-02-7.42441E-04-9.56902E-14
 -1      2761 1.06555E-02-6.77956E-04-9.17228E-14
 -1      2762 1.10147E-02-7.63319E-04-9.83244E-14
 -1      2763 1.11601E-02-7.84791E-04-1.00981E-13
 -1      2764 1.09427E-02-7.18288E-04-9.69412E-14
 -1      2765 1.13052E-02-8.06609E-04-1.03659E-13
 -1      2766 1.14500E-02-8.28642E-04-1.06356E-13
 -1      2767 1.12293E-02-7.61109E-04-1.02244E-13
 -1      2768 1.15946E-02-8.50728E-04-1.09075E-13
 -1      2769 1.17391E-02-8.72785E-04-1.11810E-13
 -1      2770 1.15158E-02-8.04924E-04-1.07633E-13
 -1      2771 1.18833E-02-8.94716E-04-1.14565E-13
 -1      2772 1.20274E-02-9.16474E-04-1.17338E-13
 -1      2773 1.18022E-02-8.48753E-04-1.13099E-13
 -1      2774 1.21713E-02-9.38008E-04-1.20128E-13
 -1      2775 1.23151E-02-9.59294E-04-1.22937E-13
 -1      2776 1.20886E-02-8.91997E-04-1.18636E-13
 -1      2777 1.24588E-02-9.80311E-04-1.25761E-13
 -1      2778 1.26024E-02-1.00105E-03-1.28602E-13
 -1      2779 1.23748E-02-9.34328E-04-1.24245E-13
 -1      2780 1.27459E-02-1.02151E-03-1.31458E-13
 -1      2781 1.28893E-02-1.04170E-03-1.34328E-13
 -1      2782 1.26610E-02-9.75606E-04-1.29920E-13
 -1      2783 1.30326E-02-1.06162E-03-1.37214E-13
 -1      2784 1.31759E-02-1.08129E-03-1.40110E-13
 -1      2785 1.29472E-02-1.01581E-03-1.35653E-13
 -1      2786 1.33191E-02-1.10071E-03-1.43022E-13
 -1      2787 1.34622E-02-1.11991E-03-1.45948E-13
 -1      2788 1.32332E-02-1.05501E-03-1.41443E-13
 -1      2789 1.36053E-02-1.13890E-03-1.48886E-13
 -1      2790 1.37484E-02-1.15769E-03-1.51839E-13
 -1      2791 1.35192E-02-1.09330E-03-1.47286E-13
 -1      2792 1.38914E-02-1.17631E-03-1.54801E-13
 -1      2793 1.40344E-02-1.19477E-03-1.57774E-13
 -1      2794 1.38051E-02-1.13081E-03-1.53180E-13
 -1      2795 1.41773E-02-1.21309E-03-1.60756E-13
 -1      2796 1.43203E-02-1.23128E-03-1.63748E-13
 -1      2797 1.40909E-02-1.16766E-03-1.59119E-13
 -1      2798 2.27818E-03 4.41707E-04-5.20376E-15
 -1      2799 2.13488E-03 4.38622E-04-4.57396E-15
 -1      2800 7.79843E-03-1.06866E-03-5.12324E-14
 -1      2801 7.62984E-03-1.15248E-03-4.95824E-14
 -1      2802 1.99171E-03 4.33720E-04-3.98505E-15
 -1      2803 1.84859E-03 4.26822E-04-3.43742E-15
 -1      2804 2.05259E-03 4.00480E-04-4.36311E-15
 -1      2805 2.85385E-03 4.41377E-04-8.13379E-15
 -1      2806 2.70943E-03 4.42925E-04-7.33975E-15
 -1      2807 3.14401E-03 4.36750E-04-9.84292E-15
 -1      2808 2.99868E-03 4.39259E-04-8.96824E-15
 -1      2809 2.91519E-03 4.03709E-04-8.65822E-15
 -1      2810 3.43641E-03 4.31620E-04-1.17134E-14
 -1      2811 3.28989E-03 4.34133E-04-1.07580E-14
 -1      2812 3.20462E-03 3.98450E-04-1.04135E-14
 -1      2813 3.73165E-03 4.28112E-04-1.37436E-14
 -1      2814 3.58363E-03 4.29525E-04-1.27089E-14
 -1      2815 3.49578E-03 3.92988E-04-1.23290E-14
 -1      2816 4.03049E-03 4.28758E-04-1.59315E-14
 -1      2817 3.88057E-03 4.27742E-04-1.48182E-14
 -1      2818 3.78938E-03 3.89406E-04-1.44022E-14
 -1      2819 4.33390E-03 4.36603E-04-1.82751E-14
 -1      2820 4.18158E-03 4.31563E-04-1.70837E-14
 -1      2821 4.08642E-03 3.90208E-04-1.66321E-14
 -1      2822 4.64303E-03 4.55209E-04-2.07717E-14
 -1      2823 4.48773E-03 4.44301E-04-1.95048E-14
 -1      2824 4.38825E-03 3.98443E-04-1.90159E-14
 -1      2825 4.95903E-03 4.88415E-04-2.34179E-14
 -1      2826 4.80021E-03 4.69711E-04-2.20762E-14
 -1      2827 4.69658E-03 4.17755E-04-2.15514E-14
 -1      2828 5.28257E-03 5.39646E-04-2.62114E-14
 -1      2829 5.12000E-03 5.11554E-04-2.47964E-14
 -1      2830 5.01328E-03 4.52226E-04-2.42343E-14
 -1      2831 5.61295E-03 6.10457E-04-2.91515E-14
 -1      2832 5.44723E-03 5.72603E-04-2.76630E-14
 -1      2833 5.33967E-03 5.05774E-04-2.70643E-14
 -1      2834 5.94703E-03 6.97864E-04-3.22435E-14
 -1      2835 5.78005E-03 6.52569E-04-3.06783E-14
 -1      2836 5.67526E-03 5.80553E-04-3.00409E-14
 -1      2837 6.27898E-03 7.90956E-04-3.54926E-14
 -1      2838 6.11380E-03 7.44858E-04-3.38477E-14
 -1      2839 6.01604E-03 6.73543E-04-3.31701E-14
 -1      2840 6.60254E-03 8.69392E-04-3.89083E-14
 -1      2841 6.44202E-03 8.33862E-04-3.71797E-14
 -1      2842 6.35444E-03 7.72061E-04-3.64589E-14
 -1      2843 6.91566E-03 9.07367E-04-4.24931E-14
 -1      2844 6.75967E-03 8.94969E-04-4.06787E-14
 -1      2845 6.68248E-03 8.51250E-04-3.99151E-14
 -1      2846 7.22429E-03 8.87108E-04-4.62493E-14
 -1      2847 7.06927E-03 9.05085E-04-4.43501E-14
 -1      2848 6.99872E-03 8.80655E-04-4.35430E-14
 -1      2849 7.53848E-03 8.09008E-04-5.01693E-14
 -1      2850 7.37995E-03 8.54158E-04-4.81895E-14
 -1      2851 7.31324E-03 8.42544E-04-4.73427E-14
 -1      2852 7.86292E-03 6.92869E-04-5.42516E-14
 -1      2853 7.69931E-03 7.53816E-04-5.21908E-14
 -1      2854 7.63660E-03 7.44911E-04-5.13093E-14
 -1      2855 8.19540E-03 5.64303E-04-5.84831E-14
 -1      2856 8.02864E-03 6.28610E-04-5.63495E-14
 -1      2857 7.97162E-03 6.15559E-04-5.54353E-14
 -1      2858 8.52963E-03 4.42777E-04-6.28564E-14
 -1      2859 8.36294E-03 5.01775E-04-6.06518E-14
 -1      2860 8.31267E-03 4.82865E-04-5.97096E-14
 -1      2861 8.85982E-03 3.38455E-04-6.73564E-14
 -1      2862 8.69565E-03 3.88246E-04-6.50907E-14
 -1      2863 8.65121E-03 3.64662E-04-6.41214E-14
 -1      2864 9.18319E-03 2.53610E-04-7.19772E-14
 -1      2865 9.02258E-03 2.93696E-04-6.96531E-14
 -1      2866 8.98173E-03 2.67242E-04-6.86605E-14
 -1      2867 9.49919E-03 1.86494E-04-7.67096E-14
 -1      2868 9.34217E-03 2.18075E-04-7.43316E-14
 -1      2869 9.30256E-03 1.90021E-04-7.33171E-14
 -1      2870 9.80860E-03 1.33657E-04-8.15450E-14
 -1      2871 9.65469E-03 1.58546E-04-7.91147E-14
 -1      2872 9.61445E-03 1.29605E-04-7.80809E-14
 -1      2873 1.01126E-02 9.14134E-05-8.64817E-14
 -1      2874 9.96122E-03 1.11435E-04-8.40000E-14
 -1      2875 9.91917E-03 8.19537E-05-8.29462E-14
 -1      2876 1.04124E-02 5.64788E-05-9.15158E-14
 -1      2877 1.02630E-02 7.32125E-05-8.89858E-14
 -1      2878 1.02186E-02 4.33815E-05-8.79107E-14
 -1      2879 1.07089E-02 2.61905E-05-9.66466E-14
 -1      2880 1.05610E-02 4.08895E-05-9.40713E-14
 -1      2881 1.05141E-02 1.08440E-05-9.29768E-14
 -1      2882 1.10028E-02-1.46734E-06-1.01866E-13
 -1      2883 1.08561E-02 1.21302E-05-9.92450E-14
 -1      2884 1.08070E-02-1.80177E-05-9.81336E-14
 -1      2885 1.12948E-02-2.79374E-05-1.07171E-13
 -1      2886 1.11490E-02-1.47840E-05-1.04508E-13
 -1      2887 1.10979E-02-4.49388E-05-1.03379E-13
 -1      2888 1.15853E-02-5.41942E-05-1.12553E-13
 -1      2889 1.14402E-02-4.10490E-05-1.09853E-13
 -1      2890 1.13875E-02-7.11347E-05-1.08705E-13
 -1      2891 1.18746E-02-8.08514E-05-1.18013E-13
 -1      2892 1.17300E-02-6.74466E-05-1.15274E-13
 -1      2893 1.16761E-02-9.74087E-05-1.14110E-13
 -1      2894 1.21629E-02-1.08258E-04-1.23549E-13
 -1      2895 1.20188E-02-9.44470E-05-1.20772E-13
 -1      2896 1.19639E-02-1.24252E-04-1.19590E-13
 -1      2897 1.24505E-02-1.36575E-04-1.29154E-13
 -1      2898 1.23068E-02-1.22297E-04-1.26343E-13
 -1      2899 1.22512E-02-1.51931E-04-1.25144E-13
 -1      2900 1.27376E-02-1.65842E-04-1.34825E-13
 -1      2901 1.25941E-02-1.51090E-04-1.31982E-13
 -1      2902 1.25380E-02-1.80550E-04-1.30767E-13
 -1      2903 1.30243E-02-1.96015E-04-1.40555E-13
 -1      2904 1.28810E-02-1.80818E-04-1.37685E-13
 -1      2905 1.28245E-02-2.10115E-04-1.36455E-13
 -1      2906 1.33107E-02-2.27006E-04-1.46331E-13
 -1      2907 1.31675E-02-2.11413E-04-1.43437E-13
 -1      2908 1.31108E-02-2.40562E-04-1.42196E-13
 -1      2909 1.35968E-02-2.58703E-04-1.52148E-13
 -1      2910 1.34538E-02-2.42772E-04-1.49236E-13
 -1      2911 1.33969E-02-2.71793E-04-1.47982E-13
 -1      2912 1.38828E-02-2.90983E-04-1.57999E-13
 -1      2913 1.37398E-02-2.74777E-04-1.55069E-13
 -1      2914 1.36829E-02-3.03692E-04-1.53807E-13
 -1      2915 1.41401E-02-3.28082E-04-1.63267E-13
 -1      2916 1.39972E-02-3.11679E-04-1.60327E-13
 -1      2917 1.39403E-02-3.40509E-04-1.59059E-13
 -1      2918 1.41691E-02-3.82028E-04-1.63720E-13
 -1      2919 1.43189E-02-7.84037E-04-1.65562E-13
 -1      2920 1.43020E-02-7.42397E-04-1.65349E-13
 -1      2921 1.44171E-02-1.24402E-03-1.65773E-13
 -1      2922 1.45141E-02-1.25704E-03-1.67808E-13
 -1      2923 1.45243E-02-1.22404E-03-1.68185E-13
 -1      2924 1.43307E-02-1.19865E-03-1.64125E-13
 -1      2925 1.42513E-02-6.17355E-04-1.64704E-13
 -1      2926 1.42344E-02-5.75607E-04-1.64487E-13
 -1      2927 1.43528E-02-8.67313E-04-1.65983E-13
 -1      2928 1.43358E-02-8.25672E-04-1.65774E-13
 -1      2929 1.42039E-02-7.89938E-04-1.63104E-13
 -1      2930 1.42851E-02-7.00742E-04-1.65136E-13
 -1      2931 1.42682E-02-6.59064E-04-1.64920E-13
 -1      2932 1.41362E-02-6.23652E-04-1.62260E-13
 -1      2933 1.41700E-02-7.06840E-04-1.62685E-13
 -1      2934 9.44725E-03-2.77046E-04-6.18490E-14
 -1      2935 9.36467E-03-2.96388E-04-6.14897E-14
 -1      2936 1.43861E-02-9.49232E-04-1.66383E-13
 -1      2937 1.43694E-02-9.08261E-04-1.66186E-13
 -1      2938 1.42375E-02-8.72332E-04-1.63512E-13
 -1      2939 1.44201E-02-1.03269E-03-1.66782E-13
 -1      2940 1.44031E-02-9.90940E-04-1.66584E-13
 -1      2941 1.42711E-02-9.54811E-04-1.63908E-13
 -1      2942 1.44543E-02-1.11632E-03-1.67167E-13
 -1      2943 1.44372E-02-1.07448E-03-1.66976E-13
 -1      2944 1.43050E-02-1.03816E-03-1.64295E-13
 -1      2945 1.45070E-02-1.18207E-03-1.68008E-13
 -1      2946 7.90057E-04-2.44568E-04-8.33738E-16
 -1      2947 9.21472E-04-2.78618E-04-1.07772E-15
 -1      2948 9.47208E-03-2.56846E-04-6.18991E-14
 -1      2949 9.48158E-03-2.62951E-04-6.19142E-14
 -1      2950 9.10836E-03-1.54300E-04-6.06838E-14
 -1      2951 9.21803E-03-1.88809E-04-6.12142E-14
 -1      2952 5.68727E-03 1.76240E-04-3.47686E-14
 -1      2953 5.87370E-03 2.77099E-04-3.54818E-14
 -1      2954 9.33111E-03-2.22565E-04-6.16094E-14
 -1      2955 9.42085E-03-2.42231E-04-6.20047E-14
 -1      2956 9.31757E-03-2.08547E-04-6.28878E-14
 -1      2957 1.70547E-03 4.17501E-04-2.93113E-15
 -1      2958 1.56224E-03 4.05550E-04-2.46672E-15
 -1      2959 1.76571E-03 3.87016E-04-3.25857E-15
 -1      2960 2.56540E-03 4.43628E-04-6.58707E-15
 -1      2961 2.42166E-03 4.43320E-04-5.87490E-15
 -1      2962 2.33957E-03 4.06465E-04-5.63198E-15
 -1      2963 2.62698E-03 4.06951E-04-7.06386E-15
 -1      2964 1.04992E-03-3.04345E-04-1.35659E-15
 -1      2965 1.19349E-03-3.27763E-04-1.71093E-15
 -1      2966 1.25468E-03-3.05419E-04-1.94353E-15
 -1      2967 9.98076E-04-2.64269E-04-1.29725E-15
 -1      2968 1.41893E-03 3.90442E-04-2.04380E-15
 -1      2969 1.27534E-03 3.71914E-04-1.66210E-15
 -1      2970 1.19154E-03 3.27989E-04-1.54374E-15
 -1      2971 1.47870E-03 3.63763E-04-2.31847E-15
 -1      2972 4.86688E-03-1.15778E-04-3.18286E-14
 -1      2973 4.93128E-03-1.02863E-04-3.20876E-14
 -1      2974 4.89313E-03-1.37863E-04-3.19649E-14
 -1      2975 4.85439E-03-1.28727E-04-3.17331E-14
 -1      2976 7.83952E-04 1.17727E-04-9.22155E-16
 -1      2977 7.81175E-04 9.51418E-05-9.38580E-16
 -1      2978 8.98079E-04 9.42100E-05-1.19788E-15
 -1      2979 9.04806E-04 1.44333E-04-1.15886E-15
 -1      2980 9.23937E-03-3.34773E-04-6.09421E-14
 -1      2981 9.10467E-03-3.80900E-04-6.03344E-14
 -1      2982 7.80911E-04-9.31673E-05-9.78587E-16
 -1      2983 7.83621E-04-1.15640E-04-9.71052E-16
 -1      2984 6.50275E-03-9.38394E-04-3.87360E-14
 -1      2985 6.33516E-03-8.27211E-04-3.76150E-14
 -1      2986 6.44364E-03 5.94055E-04-3.88449E-14
 -1      2987 6.58363E-03 6.69995E-04-3.98934E-14
 -1      2988 6.33158E-03 5.55832E-04-3.77187E-14
 -1      2989 5.02247E-03-7.79139E-05-3.23143E-14
 -1      2990 5.12055E-03-4.98128E-05-3.25676E-14
 -1      2991 6.21602E-03-7.42371E-04-3.72142E-14
 -1      2992 6.02580E-03-6.19110E-04-3.63530E-14
 -1      2993 5.90652E-03-5.60085E-04-3.53787E-14
 -1      2994 6.15874E-03-7.34429E-04-3.61495E-14
 -1      2995 7.47911E-03 6.93063E-04-4.86854E-14
 -1      2996 7.64258E-03 6.05652E-04-5.02256E-14
 -1      2997 7.75385E-03 5.54873E-04-5.15459E-14
 -1      2998 5.39449E-03-2.99109E-04-3.36020E-14
 -1      2999 5.23664E-03-2.37416E-04-3.32597E-14
 -1      3000 6.53780E-04-1.82222E-04-6.45968E-16
 -1      3001 8.22733E-03 2.55992E-04-5.47282E-14
 -1      3002 8.43335E-03 1.38976E-04-5.60003E-14
 -1      3003 8.50437E-03-6.59396E-04-5.67763E-14
 -1      3004 8.33954E-03-7.54847E-04-5.56647E-14
 -1      3005 7.17887E-03 7.92820E-04-4.56248E-14
 -1      3006 7.30457E-03 7.62271E-04-4.69655E-14
 -1      3007 7.87094E-04-1.39018E-04-9.60752E-16
 -1      3008 7.91365E-04-1.63537E-04-9.46725E-16
 -1      3009 9.04334E-04-1.41856E-04-1.22389E-15
 -1      3010 8.92974E-04 9.13581E-07-1.24091E-15
 -1      3011 7.75886E-04-9.22094E-06-9.82843E-16
 -1      3012 7.76350E-04-2.97165E-05-9.85215E-16
 -1      3013 4.83212E-03-1.18420E-04-3.11042E-14
 -1      3014 4.82243E-03-1.08011E-04-3.04794E-14
 -1      3015 4.80931E-03-1.19287E-04-3.03868E-14
 -1      3016 5.10208E-03-3.13088E-05-3.15790E-14
 -1      3017 5.19425E-03-1.89155E-05-3.25054E-14
 -1      3018 5.26921E-03 1.77272E-05-3.24412E-14
 -1      3019 8.66094E-04 2.57737E-04-8.84953E-16
 -1      3020 8.57839E-03 6.88413E-05-5.73992E-14
 -1      3021 8.71738E-03 1.16332E-05-5.88144E-14
 -1      3022 8.49962E-03 1.24606E-04-5.75517E-14
 -1      3023 6.68834E-03 7.24288E-04-4.06694E-14
 -1      3024 6.77950E-03 7.65557E-04-4.14523E-14
 -1      3025 6.57518E-03 6.91004E-04-3.95072E-14
 -1      3026 9.02947E-03-4.31932E-04-6.08028E-14
 -1      3027 8.13170E-03 3.25789E-04-5.46347E-14
 -1      3028 1.41025E-02-5.40653E-04-1.61831E-13
 -1      3029 1.42177E-02-5.34169E-04-1.64270E-13
 -1      3030 1.42011E-02-4.92685E-04-1.64054E-13
 -1      3031 8.20101E-03-8.52623E-04-5.50042E-14
 -1      3032 8.00701E-03-9.68290E-04-5.33287E-14
 -1      3033 9.02317E-03-1.20055E-04-6.05558E-14
 -1      3034 9.13211E-03-1.42232E-04-6.23510E-14
 -1      3035 8.93611E-03-8.03029E-05-6.04275E-14
 -1      3036 1.41933E-02-4.58186E-04-1.63998E-13
 -1      3037 1.41768E-02-4.16609E-04-1.63779E-13
 -1      3038 1.40624E-02-3.95807E-04-1.61448E-13
 -1      3039 1.40780E-02-4.64816E-04-1.61561E-13
 -1      3040 1.43526E-02-1.17210E-03-1.64723E-13
 -1      3041 1.44322E-02-1.14287E-03-1.66575E-13
 -1      3042 1.43000E-02-1.10639E-03-1.63891E-13
 -1      3043 1.42559E-02-1.15937E-03-1.62701E-13
 -1      3044 5.55698E-03 1.29796E-04-3.38288E-14
 -1      3045 5.14340E-03-2.10718E-04-3.24405E-14
 -1      3046 9.47515E-03-2.52583E-04-6.31911E-14
 -1      3047 9.49106E-03-2.75563E-04-6.30230E-14
 -1      3048 7.41714E-03 7.27205E-04-4.82351E-14
 -1      3049 7.07808E-03 8.05450E-04-4.45601E-14
 -1      3050 7.15797E-03 8.05463E-04-4.54426E-14
 -1      3051 6.98211E-03 8.05694E-04-4.35085E-14
 -1      3052 4.94356E-03-8.60468E-05-3.14208E-14
 -1      3053 5.81566E-03 2.93115E-04-3.42681E-14
 -1      3054 5.96454E-03 3.46671E-04-3.54801E-14
 -1      3055 6.03400E-03 4.13537E-04-3.54704E-14
 -1      3056 7.70877E-04-1.94991E-04-8.66264E-16
 -1      3057 9.84223E-04 2.65480E-04-1.14562E-15
 -1      3058 7.77325E-04-5.03875E-05-9.85242E-16
 -1      3059 7.78824E-04-7.15175E-05-9.83195E-16
 -1      3060 8.97783E-04-9.19896E-05-1.24136E-15
 -1      3061 8.94120E-04-4.49153E-05-1.24653E-15
 -1      3062 4.92127E-03-1.46457E-04-3.17303E-14
 -1      3063 4.86333E-03-1.36741E-04-3.07772E-14
 -1      3064 4.95847E-03-1.57373E-04-3.14957E-14
 -1      3065 5.59123E-03-3.98684E-04-3.37751E-14
 -1      3066 5.49454E-03-3.45807E-04-3.36890E-14
 -1      3067 5.34584E-03-2.95026E-04-3.25002E-14
 -1      3068 8.64617E-03-6.12046E-04-5.84535E-14
 -1      3069 9.33889E-03-3.20232E-04-6.24046E-14
 -1      3070 8.32664E-03-8.08656E-04-5.64873E-14
 -1      3071 1.04095E-03 2.32689E-04-1.35323E-15
 -1      3072 1.03371E-03 2.01669E-04-1.39007E-15
 -1      3073 8.07898E-03 3.79154E-04-5.47770E-14
 -1      3074 8.28183E-03 2.53788E-04-5.63003E-14
 -1      3075 1.73229E-03-3.17627E-04-3.58750E-15
 -1      3076 1.87576E-03-3.24708E-04-4.15393E-15
 -1      3077 2.01912E-03-3.29835E-04-4.76164E-15
 -1      3078 2.16242E-03-3.33156E-04-5.41051E-15
 -1      3079 1.93797E-03-2.93299E-04-4.49071E-15
 -1      3080 2.30556E-03-3.34966E-04-6.09983E-15
 -1      3081 2.44858E-03-3.35392E-04-6.82954E-15
 -1      3082 2.22409E-03-2.99653E-04-5.79045E-15
 -1      3083 2.59139E-03-3.34702E-04-7.59984E-15
 -1      3084 2.73405E-03-3.33006E-04-8.41054E-15
 -1      3085 2.50936E-03-3.00591E-04-7.25159E-15
 -1      3086 2.87647E-03-3.30557E-04-9.25976E-15
 -1      3087 3.01870E-03-3.27463E-04-1.01489E-14
 -1      3088 2.79340E-03-2.97542E-04-8.87241E-15
 -1      3089 3.16066E-03-3.23982E-04-1.10776E-14
 -1      3090 3.30244E-03-3.20229E-04-1.20446E-14
 -1      3091 3.07589E-03-2.91854E-04-1.06508E-14
 -1      3092 3.44393E-03-3.16489E-04-1.30495E-14
 -1      3093 3.58526E-03-3.12904E-04-1.40928E-14
 -1      3094 3.35658E-03-2.84886E-04-1.25841E-14
 -1      3095 3.72635E-03-3.09798E-04-1.51730E-14
 -1      3096 3.86740E-03-3.07370E-04-1.62909E-14
 -1      3097 3.63530E-03-2.78114E-04-1.46687E-14
 -1      3098 4.00836E-03-3.05987E-04-1.74460E-14
 -1      3099 4.14955E-03-3.05956E-04-1.86369E-14
 -1      3100 3.91213E-03-2.73238E-04-1.69034E-14
 -1      3101 4.29104E-03-3.07668E-04-1.98640E-14
 -1      3102 4.43337E-03-3.11648E-04-2.11270E-14
 -1      3103 4.18768E-03-2.72284E-04-1.92841E-14
 -1      3104 4.57675E-03-3.18253E-04-2.24242E-14
 -1      3105 4.72210E-03-3.28451E-04-2.37576E-14
 -1      3106 4.46357E-03-2.77774E-04-2.18071E-14
 -1      3107 4.86994E-03-3.42468E-04-2.51270E-14
 -1      3108 5.02171E-03-3.62263E-04-2.65297E-14
 -1      3109 4.74324E-03-2.93129E-04-2.44708E-14
 -1      3110 5.17839E-03-3.88157E-04-2.79673E-14
 -1      3111 5.34176E-03-4.23243E-04-2.94412E-14
 -1      3112 5.03347E-03-3.24017E-04-2.72731E-14
 -1      3113 5.49224E-03-4.25769E-04-3.13797E-14
 -1      3114 5.67016E-03-4.84903E-04-3.29335E-14
 -1      3115 5.95743E-03-6.37973E-04-3.45120E-14
 -1      3116 7.52123E-03-1.21167E-03-4.85924E-14
 -1      3117 8.52818E-03-7.30588E-04-5.86863E-14
 -1      3118 8.76499E-03-6.52586E-04-6.13200E-14
 -1      3119 8.94542E-03-6.10221E-04-6.35933E-14
 -1      3120 9.11710E-03-5.83075E-04-6.58961E-14
 -1      3121 9.28021E-03-5.64834E-04-6.82251E-14
 -1      3122 9.09691E-03-5.33254E-04-6.47095E-14
 -1      3123 9.43697E-03-5.55774E-04-7.05824E-14
 -1      3124 9.58873E-03-5.52587E-04-7.29698E-14
 -1      3125 9.40942E-03-5.09407E-04-6.93682E-14
 -1      3126 9.73665E-03-5.55174E-04-7.53809E-14
 -1      3127 9.88203E-03-5.61593E-04-7.78160E-14
 -1      3128 9.69971E-03-5.11814E-04-7.41322E-14
 -1      3129 1.00255E-02-5.71628E-04-8.02787E-14
 -1      3130 1.01678E-02-5.84317E-04-8.27664E-14
 -1      3131 9.97925E-03-5.29752E-04-7.89990E-14
 -1      3132 1.03092E-02-5.99322E-04-8.52775E-14
 -1      3133 1.04504E-02-6.16122E-04-8.78127E-14
 -1      3134 1.02548E-02-5.57659E-04-8.39650E-14
 -1      3135 1.05913E-02-6.34368E-04-9.03729E-14
 -1      3136 1.07322E-02-6.53759E-04-9.29560E-14
 -1      3137 1.05298E-02-5.92215E-04-8.90280E-14
 -1      3138 1.08731E-02-6.73988E-04-9.55609E-14
 -1      3139 1.10142E-02-6.94873E-04-9.81867E-14
 -1      3140 1.08059E-02-6.31070E-04-9.41858E-14
 -1      3141 1.11555E-02-7.16170E-04-1.00834E-13
 -1      3142 1.12970E-02-7.37767E-04-1.03503E-13
 -1      3143 1.10835E-02-6.72466E-04-9.94298E-14
 -1      3144 1.14386E-02-7.59486E-04-1.06194E-13
 -1      3145 1.15804E-02-7.81258E-04-1.08904E-13
 -1      3146 1.13629E-02-7.15099E-04-1.04759E-13
 -1      3147 1.17223E-02-8.02965E-04-1.11632E-13
 -1      3148 1.18645E-02-8.24565E-04-1.14380E-13
 -1      3149 1.16437E-02-7.58040E-04-1.10170E-13
 -1      3150 1.20067E-02-8.45988E-04-1.17146E-13
 -1      3151 1.21491E-02-8.67212E-04-1.19930E-13
 -1      3152 1.19258E-02-8.00672E-04-1.15658E-13
 -1      3153 1.22915E-02-8.88201E-04-1.22731E-13
 -1      3154 1.24340E-02-9.08945E-04-1.25548E-13
 -1      3155 1.22089E-02-8.42617E-04-1.21220E-13
 -1      3156 1.25766E-02-9.29433E-04-1.28381E-13
 -1      3157 1.27193E-02-9.49665E-04-1.31229E-13
 -1      3158 1.24928E-02-8.83679E-04-1.26848E-13
 -1      3159 1.28619E-02-9.69645E-04-1.34093E-13
 -1      3160 1.30047E-02-9.89377E-04-1.36970E-13
 -1      3161 1.27772E-02-9.23792E-04-1.32537E-13
 -1      3162 1.31474E-02-1.00887E-03-1.39861E-13
 -1      3163 1.32902E-02-1.02815E-03-1.42767E-13
 -1      3164 1.30621E-02-9.62972E-04-1.38284E-13
 -1      3165 1.34331E-02-1.04721E-03-1.45687E-13
 -1      3166 1.35759E-02-1.06608E-03-1.48619E-13
 -1      3167 1.33472E-02-1.00129E-03-1.44090E-13
 -1      3168 1.37187E-02-1.08477E-03-1.51560E-13
 -1      3169 1.38616E-02-1.10329E-03-1.54515E-13
 -1      3170 1.36325E-02-1.03885E-03-1.49945E-13
 -1      3171 1.39873E-02-1.12230E-03-1.57114E-13
 -1      3172 1.41301E-02-1.14056E-03-1.60089E-13
 -1      3173 1.41522E-02-1.11413E-03-1.60685E-13
 -1      3174 1.39009E-02-1.07639E-03-1.55481E-13
 -1      3175 8.70161E-03-6.23515E-04-5.97671E-14
 -1      3176 3.26391E-03 3.60427E-04-1.09891E-14
 -1      3177 3.11966E-03 3.63441E-04-1.00687E-14
 -1      3178 2.97567E-03 3.66216E-04-9.18739E-15
 -1      3179 2.83184E-03 3.68588E-04-8.34706E-15
 -1      3180 3.03528E-03 3.29004E-04-9.72270E-15
 -1      3181 3.84500E-03 3.50926E-04-1.50647E-14
 -1      3182 3.69887E-03 3.52402E-04-1.39871E-14
 -1      3183 4.13992E-03 3.51648E-04-1.73357E-14
 -1      3184 3.99195E-03 3.50544E-04-1.61810E-14
 -1      3185 3.89856E-03 3.12639E-04-1.57307E-14
 -1      3186 4.43994E-03 3.59847E-04-1.97595E-14
 -1      3187 4.28918E-03 3.54563E-04-1.85285E-14
 -1      3188 4.19102E-03 3.12961E-04-1.80421E-14
 -1      3189 4.74742E-03 3.79263E-04-2.23318E-14
 -1      3190 4.59263E-03 3.67821E-04-2.10268E-14
 -1      3191 4.48899E-03 3.20608E-04-2.05045E-14
 -1      3192 5.06504E-03 4.14356E-04-2.50526E-14
 -1      3193 4.90490E-03 3.94457E-04-2.36743E-14
 -1      3194 4.79553E-03 3.39477E-04-2.31149E-14
 -1      3195 5.39489E-03 4.69796E-04-2.79171E-14
 -1      3196 5.22853E-03 4.39136E-04-2.64664E-14
 -1      3197 5.11423E-03 3.74593E-04-2.58713E-14
 -1      3198 5.73689E-03 5.48860E-04-3.09316E-14
 -1      3199 5.56485E-03 5.06230E-04-2.94057E-14
 -1      3200 5.44824E-03 4.31886E-04-2.87727E-14
 -1      3201 6.08612E-03 6.48891E-04-3.40974E-14
 -1      3202 5.91152E-03 5.96898E-04-3.24948E-14
 -1      3203 5.79776E-03 5.16473E-04-3.18220E-14
 -1      3204 6.43245E-03 7.54804E-04-3.74259E-14
 -1      3205 6.26063E-03 7.02999E-04-3.57411E-14
 -1      3206 6.15626E-03 6.25927E-04-3.50257E-14
 -1      3207 6.76558E-03 8.12980E-04-4.10017E-14
 -1      3208 6.59640E-03 7.73389E-04-3.92330E-14
 -1      3209 7.11169E-03 8.41042E-04-4.49100E-14
 -1      3210 6.94975E-03 8.43657E-04-4.30457E-14
 -1      3211 7.74005E-03 6.74623E-04-5.24518E-14
 -1      3212 7.57096E-03 7.39140E-04-5.04240E-14
 -1      3213 8.08632E-03 5.32885E-04-5.66216E-14
 -1      3214 7.91224E-03 6.03896E-04-5.45165E-14
 -1      3215 7.85290E-03 5.95168E-04-5.35974E-14
 -1      3216 8.43542E-03 3.98882E-04-6.09390E-14
 -1      3217 8.26192E-03 4.63449E-04-5.87630E-14
 -1      3218 8.21135E-03 4.44184E-04-5.78141E-14
 -1      3219 8.77629E-03 2.86891E-04-6.53929E-14
 -1      3220 8.60749E-03 3.40006E-04-6.31501E-14
 -1      3221 8.56522E-03 3.13773E-04-6.21755E-14
 -1      3222 9.10509E-03 1.98074E-04-6.99676E-14
 -1      3223 8.94245E-03 2.39813E-04-6.76654E-14
 -1      3224 8.90544E-03 2.10531E-04-6.66695E-14
 -1      3225 9.42179E-03 1.29220E-04-7.46583E-14
 -1      3226 9.26493E-03 1.61548E-04-7.22992E-14
 -1      3227 9.22998E-03 1.31611E-04-7.12812E-14
 -1      3228 9.72861E-03 7.55889E-05-7.94516E-14
 -1      3229 9.57631E-03 1.00853E-04-7.70427E-14
 -1      3230 9.54091E-03 7.12965E-05-7.60028E-14
 -1      3231 1.00282E-02 3.28868E-05-8.43478E-14
 -1      3232 9.87919E-03 5.31391E-05-8.18877E-14
 -1      3233 9.84182E-03 2.41153E-05-8.08280E-14
 -1      3234 1.03229E-02-2.35724E-06-8.93432E-14
 -1      3235 1.01761E-02 1.45327E-05-8.68329E-14
 -1      3236 1.01360E-02-1.41116E-05-8.57541E-14
 -1      3237 1.06144E-02-3.28475E-05-9.44368E-14
 -1      3238 1.04690E-02-1.80541E-05-9.18772E-14
 -1      3239 1.04260E-02-4.65045E-05-9.07789E-14
 -1      3240 1.09039E-02-6.05917E-05-9.96205E-14
 -1      3241 1.07593E-02-4.69633E-05-9.70183E-14
 -1      3242 1.07135E-02-7.53543E-05-9.58981E-14
 -1      3243 1.11920E-02-8.70318E-05-1.04889E-13
 -1      3244 1.10481E-02-7.39076E-05-1.02244E-13
 -1      3245 1.09998E-02-1.02306E-04-1.01109E-13
 -1      3246 1.14794E-02-1.13156E-04-1.10239E-13
 -1      3247 1.13358E-02-1.00090E-04-1.07554E-13
 -1      3248 1.12853E-02-1.28513E-04-1.06402E-13
 -1      3249 1.17662E-02-1.39605E-04-1.15665E-13
 -1      3250 1.16229E-02-1.26314E-04-1.12943E-13
 -1      3251 1.15707E-02-1.54753E-04-1.11774E-13
 -1      3252 1.20527E-02-1.66753E-04-1.21166E-13
 -1      3253 1.19095E-02-1.53077E-04-1.18406E-13
 -1      3254 1.18560E-02-1.81512E-04-1.17221E-13
 -1      3255 1.23390E-02-1.94790E-04-1.26738E-13
 -1      3256 1.21959E-02-1.80655E-04-1.23943E-13
 -1      3257 1.21413E-02-2.09064E-04-1.22741E-13
 -1      3258 1.26252E-02-2.23775E-04-1.32380E-13
 -1      3259 1.24821E-02-2.09164E-04-1.29551E-13
 -1      3260 1.24267E-02-2.37530E-04-1.28334E-13
 -1      3261 1.29112E-02-2.53682E-04-1.38081E-13
 -1      3262 1.27682E-02-2.38617E-04-1.35222E-13
 -1      3263 1.27122E-02-2.66929E-04-1.33992E-13
 -1      3264 1.31971E-02-2.84434E-04-1.43830E-13
 -1      3265 1.30541E-02-2.68958E-04-1.40950E-13
 -1      3266 1.29978E-02-2.97212E-04-1.39704E-13
 -1      3267 1.34830E-02-3.15924E-04-1.49627E-13
 -1      3268 1.33401E-02-3.00093E-04-1.46723E-13
 -1      3269 1.32834E-02-3.28289E-04-1.45467E-13
 -1      3270 1.37688E-02-3.48036E-04-1.55463E-13
 -1      3271 1.36259E-02-3.31909E-04-1.52541E-13
 -1      3272 1.35690E-02-3.60052E-04-1.51275E-13
 -1      3273 1.39728E-02-3.82209E-04-1.59613E-13
 -1      3274 1.38584E-02-3.61530E-04-1.57288E-13
 -1      3275 1.38015E-02-3.89627E-04-1.56015E-13
 -1      3276 1.39806E-02-4.16722E-04-1.59672E-13
 -1      3277 5.39896E-03 8.17431E-05-3.25931E-14
 -1      3278 5.55920E-03 1.65335E-04-3.30269E-14
 -1      3279 1.01367E-03 6.41825E-05-1.50617E-15
 -1      3280 1.01218E-03 3.87198E-05-1.51891E-15
 -1      3281 1.41560E-02-9.60275E-04-1.61431E-13
 -1      3282 1.41391E-02-9.18738E-04-1.61238E-13
 -1      3283 1.40890E-02-7.95742E-04-1.60648E-13
 -1      3284 1.40720E-02-7.54304E-04-1.60443E-13
 -1      3285 1.41899E-02-1.04352E-03-1.61808E-13
 -1      3286 1.41730E-02-1.00187E-03-1.61622E-13
 -1      3287 1.40410E-02-9.65614E-04-1.58959E-13
 -1      3288 1.41224E-02-8.77595E-04-1.61044E-13
 -1      3289 1.41057E-02-8.36834E-04-1.60849E-13
 -1      3290 1.39739E-02-8.01082E-04-1.58192E-13
 -1      3291 1.40074E-02-8.83087E-04-1.58581E-13
 -1      3292 9.33419E-03-1.96432E-04-6.46062E-14
 -1      3293 9.42696E-03-2.25534E-04-6.50189E-14
 -1      3294 6.22365E-03 5.29723E-04-3.65550E-14
 -1      3295 6.35926E-03 6.03881E-04-3.75629E-14
 -1      3296 3.55341E-03 3.54663E-04-1.29483E-14
 -1      3297 3.40845E-03 3.57432E-04-1.19487E-14
 -1      3298 3.32191E-03 3.22756E-04-1.15693E-14
 -1      3299 3.60936E-03 3.16676E-04-1.35721E-14
 -1      3300 9.53842E-03-2.76394E-04-6.44961E-14
 -1      3301 9.50959E-03-2.89062E-04-6.44304E-14
 -1      3302 1.82688E-03 3.56068E-04-3.59338E-15
 -1      3303 1.68329E-03 3.47507E-04-3.07724E-15
 -1      3304 2.11396E-03 3.66942E-04-4.74814E-15
 -1      3305 1.97042E-03 3.62489E-04-4.15041E-15
 -1      3306 1.88868E-03 3.24753E-04-3.93670E-15
 -1      3307 5.14084E-03-2.22779E-04-3.14501E-14
 -1      3308 5.04321E-03-1.85274E-04-3.14745E-14
 -1      3309 4.95498E-03-1.68810E-04-3.05225E-14
 -1      3310 1.44549E-03-2.96450E-04-2.57924E-15
 -1      3311 1.58888E-03-3.08266E-04-3.06246E-15
 -1      3312 1.65149E-03-2.79958E-04-3.35445E-15
 -1      3313 9.50169E-03-2.52545E-04-6.49336E-14
 -1      3314 9.54009E-03-2.65626E-04-6.48335E-14
 -1      3315 7.68854E-03 6.10542E-04-5.12271E-14
 -1      3316 7.84843E-03 5.20346E-04-5.28135E-14
 -1      3317 9.16502E-03-4.07383E-04-6.27063E-14
 -1      3318 8.98905E-03-4.80593E-04-6.16489E-14
 -1      3319 8.87636E-03-5.39391E-04-6.10866E-14
 -1      3320 7.36363E-03 7.59587E-04-4.77560E-14
 -1      3321 7.52348E-03 6.90777E-04-4.94957E-14
 -1      3322 1.14654E-03 2.97897E-04-1.49395E-15
 -1      3323 1.08341E-03 2.60163E-04-1.40891E-15
 -1      3324 1.20215E-03 2.60100E-04-1.73455E-15
 -1      3325 1.28990E-03 3.17611E-04-1.85488E-15
 -1      3326 9.42705E-03-3.13662E-04-6.39468E-14
 -1      3327 9.31837E-03-3.46837E-04-6.33907E-14
 -1      3328 4.86672E-03-8.63987E-05-3.03054E-14
 -1      3329 4.94360E-03-6.53471E-05-3.05218E-14
 -1      3330 8.88617E-04-2.03198E-04-1.12062E-15
 -1      3331 1.01142E-03 1.35216E-05-1.52859E-15
 -1      3332 1.01138E-03-1.15571E-05-1.53520E-15
 -1      3333 1.13111E-03 2.81595E-05-1.84463E-15
 -1      3334 4.81029E-03-1.26249E-04-3.00296E-14
 -1      3335 4.76963E-03-1.16166E-04-2.94150E-14
 -1      3336 8.85567E-03-3.09970E-05-6.05812E-14
 -1      3337 8.36601E-03 2.46986E-04-5.78364E-14
 -1      3338 8.42329E-03 1.86827E-04-5.76983E-14
 -1      3339 8.56287E-03 1.27195E-04-5.91113E-14
 -1      3340 4.99268E-03-4.31323E-05-3.04574E-14
 -1      3341 5.04662E-03-1.64952E-05-3.03920E-14
 -1      3342 4.89366E-03-4.70815E-05-2.93562E-14
 -1      3343 6.46014E-03 6.65529E-04-3.83064E-14
 -1      3344 5.31648E-03-3.41061E-04-3.06323E-14
 -1      3345 1.39874E-02-5.46936E-04-1.59392E-13
 -1      3346 1.39706E-02-5.05633E-04-1.59178E-13
 -1      3347 1.02237E-03-1.41244E-04-1.52021E-15
 -1      3348 1.02709E-03-1.69396E-04-1.50620E-15
 -1      3349 9.28398E-03-3.88095E-04-6.42520E-14
 -1      3350 1.18879E-03-2.65742E-04-1.82178E-15
 -1      3351 1.31702E-03-2.82225E-04-2.18391E-15
 -1      3352 1.38008E-03-2.58056E-04-2.43178E-15
 -1      3353 7.25824E-03 8.31140E-04-4.66680E-14
 -1      3354 7.21758E-03 8.09205E-04-4.61321E-14
 -1      3355 7.31273E-03 7.82737E-04-4.72234E-14
 -1      3356 7.42076E-03 7.90597E-04-4.86154E-14
 -1      3357 1.15246E-03 2.00848E-04-1.70922E-15
 -1      3358 1.02771E-03 1.72167E-04-1.42148E-15
 -1      3359 1.02287E-03 1.43876E-04-1.44845E-15
 -1      3360 9.51009E-03-3.08637E-04-6.54303E-14
 -1      3361 7.62420E-03 6.60995E-04-5.07281E-14
 -1      3362 1.01494E-03-2.24147E-04-1.40582E-15
 -1      3363 9.58744E-03-2.77771E-04-6.62552E-14
 -1      3364 9.20900E-03-1.43647E-04-6.43318E-14
 -1      3365 9.27326E-03-1.72023E-04-6.44700E-14
 -1      3366 9.40324E-03-1.92614E-04-6.66139E-14
 -1      3367 2.40100E-03 3.71092E-04-6.06673E-15
 -1      3368 2.25747E-03 3.69759E-04-5.38709E-15
 -1      3369 2.17565E-03 3.33233E-04-5.14141E-15
 -1      3370 2.74887E-03 3.33818E-04-8.03552E-15
 -1      3371 2.68816E-03 3.70306E-04-7.54702E-15
 -1      3372 2.54454E-03 3.71227E-04-6.78631E-15
 -1      3373 7.52046E-03 7.32459E-04-4.97174E-14
 -1      3374 5.28450E-03 5.68440E-05-3.16614E-14
 -1      3375 1.01592E-03 9.00122E-05-1.49066E-15
 -1      3376 1.13454E-03 8.30591E-05-1.81535E-15
 -1      3377 1.01893E-03 1.16465E-04-1.47140E-15
 -1      3378 1.40212E-02-6.30072E-04-1.59818E-13
 -1      3379 1.40043E-02-5.88530E-04-1.59606E-13
 -1      3380 1.38724E-02-5.53533E-04-1.56958E-13
 -1      3381 9.52846E-03-2.44000E-04-6.66766E-14
 -1      3382 1.40551E-02-7.12947E-04-1.60235E-13
 -1      3383 1.40382E-02-6.71482E-04-1.60027E-13
 -1      3384 1.39064E-02-6.36335E-04-1.57378E-13
 -1      3385 1.39402E-02-7.18872E-04-1.57789E-13
 -1      3386 6.07638E-03 4.73912E-04-3.53169E-14
 -1      3387 6.86999E-03 7.96952E-04-4.22961E-14
 -1      3388 5.64600E-03 2.30891E-04-3.30178E-14
 -1      3389 5.71838E-03 2.97638E-04-3.30037E-14
 -1      3390 5.48280E-03 1.82592E-04-3.17931E-14
 -1      3391 5.21973E-03-2.56331E-04-3.15306E-14
 -1      3392 5.10414E-03-2.27452E-04-3.05752E-14
 -1      3393 5.29991E-03-2.95569E-04-3.16090E-14
 -1      3394 7.99818E-03 4.50495E-04-5.44434E-14
 -1      3395 4.82328E-03-1.33488E-04-2.97997E-14
 -1      3396 9.03126E-03-5.04797E-04-6.29905E-14
 -1      3397 1.41600E-02-1.09201E-03-1.60952E-13
 -1      3398 1.41821E-02-1.06561E-03-1.61545E-13
 -1      3399 1.40501E-02-1.02916E-03-1.58880E-13
 -1      3400 1.40344E-02-1.07324E-03-1.58349E-13
 -1      3401 1.55834E-03 3.41829E-04-2.65067E-15
 -1      3402 1.41475E-03 3.28292E-04-2.21215E-15
 -1      3403 1.37027E-03 2.99156E-04-2.14709E-15
 -1      3404 1.62014E-03 3.13605E-04-2.94675E-15
 -1      3405 1.01561E-03-8.77281E-05-1.53599E-15
 -1      3406 1.01854E-03-1.14081E-04-1.52982E-15
 -1      3407 1.14096E-03-1.37509E-04-1.84774E-15
 -1      3408 9.19032E-03-4.85871E-04-6.52859E-14
 -1      3409 8.77169E-03 3.01210E-05-6.08738E-14
 -1      3410 8.97267E-03-5.32090E-05-6.25135E-14
 -1      3411 9.32489E-03-4.19823E-04-6.59900E-14
 -1      3412 9.38071E-03-4.53606E-04-6.77398E-14
 -1      3413 9.45028E-03-3.69210E-04-6.66880E-14
 -1      3414 9.57395E-03-2.38016E-04-6.85628E-14
 -1      3415 9.62680E-03-2.63028E-04-6.84829E-14
 -1      3416 1.19800E-03-2.04358E-04-1.94324E-15
 -1      3417 1.07916E-03-2.06283E-04-1.60225E-15
 -1      3418 5.73078E-03-4.79011E-04-3.41500E-14
 -1      3419 2.14349E-03-2.64652E-04-5.48319E-15
 -1      3420 2.28605E-03-2.66244E-04-6.17414E-15
 -1      3421 2.42827E-03-2.66718E-04-6.90562E-15
 -1      3422 2.57014E-03-2.66161E-04-7.67707E-15
 -1      3423 2.34826E-03-2.33026E-04-6.56259E-15
 -1      3424 2.71152E-03-2.64806E-04-8.48745E-15
 -1      3425 2.85242E-03-2.62726E-04-9.33718E-15
 -1      3426 2.63092E-03-2.32209E-04-8.10501E-15
 -1      3427 2.99272E-03-2.60159E-04-1.02262E-14
 -1      3428 3.13242E-03-2.57166E-04-1.11544E-14
 -1      3429 2.91120E-03-2.28669E-04-9.80489E-15
 -1      3430 3.27140E-03-2.54001E-04-1.21212E-14
 -1      3431 3.40970E-03-2.50722E-04-1.31250E-14
 -1      3432 3.18843E-03-2.23504E-04-1.16604E-14
 -1      3433 3.54717E-03-2.47606E-04-1.41672E-14
 -1      3434 3.68390E-03-2.44722E-04-1.52466E-14
 -1      3435 3.46199E-03-2.17827E-04-1.36679E-14
 -1      3436 3.81975E-03-2.42373E-04-1.63626E-14
 -1      3437 3.95491E-03-2.40649E-04-1.75163E-14
 -1      3438 3.73133E-03-2.12801E-04-1.58252E-14
 -1      3439 4.08922E-03-2.39868E-04-1.87066E-14
 -1      3440 4.22308E-03-2.40182E-04-1.99320E-14
 -1      3441 3.99602E-03-2.09653E-04-1.81308E-14
 -1      3442 4.35632E-03-2.41890E-04-2.11919E-14
 -1      3443 4.48973E-03-2.45319E-04-2.24873E-14
 -1      3444 4.25598E-03-2.09652E-04-2.05794E-14
 -1      3445 4.62315E-03-2.50704E-04-2.38169E-14
 -1      3446 4.75807E-03-2.58823E-04-2.51829E-14
 -1      3447 4.51192E-03-2.14161E-04-2.31678E-14
 -1      3448 4.89431E-03-2.70019E-04-2.65817E-14
 -1      3449 5.03433E-03-2.85612E-04-2.80138E-14
 -1      3450 4.76616E-03-2.25215E-04-2.58935E-14
 -1      3451 5.14866E-03 3.02238E-05-3.05361E-14
 -1      3452 5.25421E-03 8.68021E-05-3.06752E-14
 -1      3453 5.02452E-03 1.47190E-05-2.94309E-14
 -1      3454 8.70253E-03 2.26671E-04-6.34215E-14
 -1      3455 8.52698E-03 2.83994E-04-6.12016E-14
 -1      3456 9.51946E-03-4.54370E-04-7.00891E-14
 -1      3457 9.65427E-03-4.60286E-04-7.24641E-14
 -1      3458 9.78779E-03-4.68864E-04-7.48630E-14
 -1      3459 9.61988E-03-4.09634E-04-7.08041E-14
 -1      3460 9.91980E-03-4.80266E-04-7.72885E-14
 -1      3461 1.00519E-02-4.93486E-04-7.97385E-14
 -1      3462 9.86724E-03-4.32761E-04-7.55875E-14
 -1      3463 1.01837E-02-5.08434E-04-8.22123E-14
 -1      3464 1.03163E-02-5.24770E-04-8.47104E-14
 -1      3465 1.01172E-02-4.61678E-04-8.04688E-14
 -1      3466 1.04493E-02-5.42242E-04-8.72339E-14
 -1      3467 1.05831E-02-5.60720E-04-8.97807E-14
 -1      3468 1.03720E-02-4.94813E-04-8.54495E-14
 -1      3469 1.07176E-02-5.79923E-04-9.23498E-14
 -1      3470 1.08530E-02-5.99795E-04-9.49411E-14
 -1      3471 1.06320E-02-5.31199E-04-9.05238E-14
 -1      3472 1.09891E-02-6.20080E-04-9.75555E-14
 -1      3473 1.11260E-02-6.40749E-04-1.00190E-13
 -1      3474 1.08968E-02-5.69886E-04-9.56895E-14
 -1      3475 1.12635E-02-6.61595E-04-1.02845E-13
 -1      3476 1.14017E-02-6.82604E-04-1.05523E-13
 -1      3477 1.11659E-02-6.10005E-04-1.00943E-13
 -1      3478 1.15405E-02-7.03619E-04-1.08220E-13
 -1      3479 1.16798E-02-7.24634E-04-1.10937E-13
 -1      3480 1.14387E-02-6.50817E-04-1.06279E-13
 -1      3481 1.18195E-02-7.45541E-04-1.13674E-13
 -1      3482 1.19597E-02-7.66341E-04-1.16432E-13
 -1      3483 1.17145E-02-6.91750E-04-1.11698E-13
 -1      3484 1.21003E-02-7.86964E-04-1.19203E-13
 -1      3485 1.22412E-02-8.07417E-04-1.21995E-13
 -1      3486 1.19927E-02-7.32397E-04-1.17196E-13
 -1      3487 1.23824E-02-8.27659E-04-1.24803E-13
 -1      3488 1.25239E-02-8.47701E-04-1.27625E-13
 -1      3489 1.22729E-02-7.72504E-04-1.22764E-13
 -1      3490 1.26655E-02-8.67524E-04-1.30462E-13
 -1      3491 1.28074E-02-8.87140E-04-1.33316E-13
 -1      3492 1.25545E-02-8.11934E-04-1.28397E-13
 -1      3493 1.29494E-02-9.06546E-04-1.36184E-13
 -1      3494 1.30916E-02-9.25754E-04-1.39065E-13
 -1      3495 1.28373E-02-8.50641E-04-1.34091E-13
 -1      3496 1.32339E-02-9.44770E-04-1.41961E-13
 -1      3497 1.33762E-02-9.63606E-04-1.44872E-13
 -1      3498 1.31209E-02-8.88644E-04-1.39840E-13
 -1      3499 1.35187E-02-9.82275E-04-1.47795E-13
 -1      3500 1.36613E-02-1.00079E-03-1.50729E-13
 -1      3501 1.34052E-02-9.25993E-04-1.45648E-13
 -1      3502 4.53485E-03 2.80687E-04-2.12512E-14
 -1      3503 4.38626E-03 2.76266E-04-1.99827E-14
 -1      3504 4.23955E-03 2.74163E-04-1.87512E-14
 -1      3505 4.09427E-03 2.73679E-04-1.75565E-14
 -1      3506 4.28543E-03 2.35117E-04-1.94622E-14
 -1      3507 3.95008E-03 2.74594E-04-1.63998E-14
 -1      3508 3.80663E-03 2.76477E-04-1.52804E-14
 -1      3509 3.99955E-03 2.36745E-04-1.70720E-14
 -1      3510 4.83979E-03 2.98227E-04-2.38996E-14
 -1      3511 4.68586E-03 2.87629E-04-2.25569E-14
 -1      3512 4.57734E-03 2.39833E-04-2.20012E-14
 -1      3513 5.15906E-03 3.32637E-04-2.66907E-14
 -1      3514 4.99741E-03 3.12727E-04-2.52776E-14
 -1      3515 4.87989E-03 2.55273E-04-2.46852E-14
 -1      3516 5.49734E-03 3.91145E-04-2.96279E-14
 -1      3517 5.32591E-03 3.57942E-04-2.81410E-14
 -1      3518 5.19933E-03 2.87943E-04-2.75124E-14
 -1      3519 6.29572E-03 6.35393E-04-3.65439E-14
 -1      3520 6.11157E-03 5.71143E-04-3.48884E-14
 -1      3521 6.49999E-03 7.10270E-04-3.84650E-14
 -1      3522 9.03903E-03 1.35321E-04-6.79520E-14
 -1      3523 8.87373E-03 1.77872E-04-6.56713E-14
 -1      3524 8.84655E-03 1.42407E-04-6.46716E-14
 -1      3525 9.35657E-03 6.74468E-05-7.26004E-14
 -1      3526 9.19996E-03 9.91008E-05-7.02628E-14
 -1      3527 9.17446E-03 6.44996E-05-6.92428E-14
 -1      3528 9.66009E-03 1.57200E-05-7.73550E-14
 -1      3529 9.50978E-03 4.00892E-05-7.49641E-14
 -1      3530 9.48247E-03 7.65227E-06-7.39248E-14
 -1      3531 9.95427E-03-2.54039E-05-8.22095E-14
 -1      3532 9.80810E-03-5.83719E-06-7.97686E-14
 -1      3533 9.77749E-03-3.62257E-05-7.87095E-14
 -1      3534 1.02427E-02-5.96647E-05-8.71652E-14
 -1      3535 1.00990E-02-4.31725E-05-8.46764E-14
 -1      3536 1.00645E-02-7.21087E-05-8.35961E-14
 -1      3537 1.05280E-02-8.96970E-05-9.22188E-14
 -1      3538 1.03856E-02-7.50708E-05-8.96809E-14
 -1      3539 1.03473E-02-1.03163E-04-8.85805E-14
 -1      3540 1.08117E-02-1.17316E-04-9.73665E-14
 -1      3541 1.06699E-02-1.03717E-04-9.47798E-14
 -1      3542 1.06280E-02-1.31433E-04-9.36619E-14
 -1      3543 1.10949E-02-1.43799E-04-1.02601E-13
 -1      3544 1.09533E-02-1.30641E-04-9.99739E-14
 -1      3545 1.09083E-02-1.58273E-04-9.88348E-14
 -1      3546 1.13781E-02-1.70023E-04-1.07919E-13
 -1      3547 1.12365E-02-1.56907E-04-1.05250E-13
 -1      3548 1.11888E-02-1.84615E-04-1.04097E-13
 -1      3549 1.16616E-02-1.96565E-04-1.13313E-13
 -1      3550 1.15198E-02-1.83233E-04-1.10606E-13
 -1      3551 1.14699E-02-2.11089E-04-1.09437E-13
 -1      3552 1.19455E-02-2.23772E-04-1.18781E-13
 -1      3553 1.18035E-02-2.10074E-04-1.16038E-13
 -1      3554 1.17519E-02-2.38095E-04-1.14852E-13
 -1      3555 1.22298E-02-2.51827E-04-1.24321E-13
 -1      3556 1.20876E-02-2.37690E-04-1.21542E-13
 -1      3557 1.20345E-02-2.65862E-04-1.20341E-13
 -1      3558 1.25144E-02-2.80794E-04-1.29932E-13
 -1      3559 1.23721E-02-2.66198E-04-1.27119E-13
 -1      3560 1.23179E-02-2.94496E-04-1.25903E-13
 -1      3561 1.27994E-02-3.10656E-04-1.35607E-13
 -1      3562 1.26569E-02-2.95617E-04-1.32762E-13
 -1      3563 1.26019E-02-3.24012E-04-1.31533E-13
 -1      3564 1.30845E-02-3.41347E-04-1.41333E-13
 -1      3565 1.29419E-02-3.25904E-04-1.38463E-13
 -1      3566 1.28864E-02-3.54369E-04-1.37221E-13
 -1      3567 1.33699E-02-3.72774E-04-1.47108E-13
 -1      3568 1.32272E-02-3.56976E-04-1.44215E-13
 -1      3569 1.31712E-02-3.85488E-04-1.42962E-13
 -1      3570 1.36553E-02-4.04822E-04-1.52926E-13
 -1      3571 1.35126E-02-3.88726E-04-1.50012E-13
 -1      3572 1.34563E-02-4.17270E-04-1.48749E-13
 -1      3573 3.09414E-03 2.92171E-04-1.02636E-14
 -1      3574 2.95173E-03 2.95126E-04-9.37648E-15
 -1      3575 4.72081E-03-1.11580E-04-2.83884E-14
 -1      3576 4.73475E-03-1.04441E-04-2.87356E-14
 -1      3577 1.39795E-02-4.78431E-04-1.59453E-13
 -1      3578 1.39716E-02-4.44019E-04-1.59399E-13
 -1      3579 1.38821E-02-4.30438E-04-1.57568E-13
 -1      3580 1.38643E-02-4.84861E-04-1.57021E-13
 -1      3581 5.84204E-03 3.85870E-04-3.34249E-14
 -1      3582 6.01829E-03 4.91935E-04-3.44670E-14
 -1      3583 5.88953E-03 4.92542E-04-3.30017E-14
 -1      3584 5.67916E-03 3.28609E-04-3.21878E-14
 -1      3585 1.39260E-02-9.70814E-04-1.56486E-13
 -1      3586 1.39092E-02-9.29416E-04-1.56304E-13
 -1      3587 4.92333E-03-1.75196E-04-2.94966E-14
 -1      3588 4.85952E-03-1.50947E-04-2.95216E-14
 -1      3589 1.95111E-03 2.93117E-04-4.28867E-15
 -1      3590 1.80773E-03 2.87529E-04-3.72276E-15
 -1      3591 4.76373E-03-9.83505E-05-2.91663E-14
 -1      3592 4.81415E-03-9.57714E-05-2.98713E-14
 -1      3593 4.79590E-03-7.74642E-05-2.89934E-14
 -1      3594 4.71013E-03-9.30684E-05-2.81434E-14
 -1      3595 7.94569E-03 5.11562E-04-5.42995E-14
 -1      3596 8.15878E-03 3.81807E-04-5.62956E-14
 -1      3597 1.01206E-03-3.66752E-05-1.53858E-15
 -1      3598 1.01345E-03-6.19786E-05-1.53884E-15
 -1      3599 1.13423E-03-8.07527E-05-1.86137E-15
 -1      3600 9.61133E-03-3.10886E-04-6.76766E-14
 -1      3601 9.54283E-03-3.33634E-04-6.71852E-14
 -1      3602 9.58574E-03-3.63404E-04-6.89536E-14
 -1      3603 7.41640E-03 7.58634E-04-4.84627E-14
 -1      3604 1.57189E-03-2.43198E-04-3.12397E-15
 -1      3605 1.71481E-03-2.51166E-04-3.65260E-15
 -1      3606 1.85777E-03-2.57287E-04-4.22228E-15
 -1      3607 2.00072E-03-2.61705E-04-4.83257E-15
 -1      3608 2.06391E-03-2.29984E-04-5.17914E-15
 -1      3609 4.78996E-03-1.38542E-04-2.87891E-14
 -1      3610 9.65301E-03-2.82980E-04-6.83618E-14
 -1      3611 9.64385E-03-2.95164E-04-6.80225E-14
 -1      3612 9.69826E-03-3.16447E-04-6.98030E-14
 -1      3613 8.70323E-03 8.96714E-05-6.10155E-14
 -1      3614 1.36709E-02-9.39595E-04-1.51204E-13
 -1      3615 1.37847E-02-9.95870E-04-1.53371E-13
 -1      3616 4.79440E-03-5.04507E-05-2.82321E-14
 -1      3617 4.82767E-03-3.15390E-05-2.81674E-14
 -1      3618 9.52256E-03-2.07596E-04-6.88368E-14
 -1      3619 9.64430E-03-2.32984E-04-7.06654E-14
 -1      3620 1.39167E-02-1.03240E-03-1.56016E-13
 -1      3621 4.98058E-03-1.97401E-04-2.95742E-14
 -1      3622 4.87071E-03-1.76245E-04-2.85887E-14
 -1      3623 5.04302E-03-2.23987E-04-2.96500E-14
 -1      3624 9.71231E-03-2.81201E-04-7.02719E-14
 -1      3625 4.74694E-03-1.41183E-04-2.78497E-14
 -1      3626 4.72663E-03-1.24843E-04-2.81214E-14
 -1      3627 4.67396E-03-1.12524E-04-2.74584E-14
 -1      3628 5.18940E-03 1.10991E-04-2.95546E-14
 -1      3629 5.33205E-03 1.41168E-04-3.06639E-14
 -1      3630 5.40295E-03 1.99384E-04-3.06464E-14
 -1      3631 5.70801E-03 4.41183E-04-3.14337E-14
 -1      3632 1.38590E-02-8.06469E-04-1.55740E-13
 -1      3633 1.38423E-02-7.65617E-04-1.55545E-13
 -1      3634 3.71658E-03 2.41952E-04-1.48303E-14
 -1      3635 3.66374E-03 2.79100E-04-1.41995E-14
 -1      3636 3.52115E-03 2.82193E-04-1.31571E-14
 -1      3637 9.13681E-03-9.67457E-05-6.46274E-14
 -1      3638 9.28839E-03-1.28229E-04-6.67687E-14
 -1      3639 9.07138E-03-4.40184E-05-6.49176E-14
 -1      3640 2.46237E-03 3.35722E-04-6.50813E-15
 -1      3641 2.80922E-03 2.97580E-04-8.52988E-15
 -1      3642 2.66655E-03 2.99422E-04-7.72325E-15
 -1      3643 2.86920E-03 2.61692E-04-9.03083E-15
 -1      3644 5.57506E-03 3.56182E-04-3.07617E-14
 -1      3645 1.37106E-02-7.30024E-04-1.52906E-13
 -1      3646 1.38254E-02-7.24512E-04-1.55347E-13
 -1      3647 1.38084E-02-6.83396E-04-1.55145E-13
 -1      3648 1.37272E-02-4.72618E-04-1.54200E-13
 -1      3649 1.37360E-02-4.45481E-04-1.54474E-13
 -1      3650 1.14149E-03 1.40154E-04-1.77115E-15
 -1      3651 7.90976E-03 5.46085E-04-5.40768E-14
 -1      3652 7.72879E-03 6.26934E-04-5.20166E-14
 -1      3653 3.23645E-03 2.88927E-04-1.11895E-14
 -1      3654 3.15228E-03 2.55800E-04-1.08088E-14
 -1      3655 3.37878E-03 2.85529E-04-1.21538E-14
 -1      3656 1.37925E-02-4.16905E-04-1.55744E-13
 -1      3657 7.57303E-03 7.00415E-04-5.02694E-14
 -1      3658 1.37298E-02-5.13193E-04-1.54116E-13
 -1      3659 1.36016E-02-4.73942E-04-1.51576E-13
 -1      3660 8.06540E-03 4.83507E-04-5.59168E-14
 -1      3661 1.37469E-02-5.54601E-04-1.54326E-13
 -1      3662 1.38924E-02-8.88265E-04-1.56117E-13
 -1      3663 1.38757E-02-8.47346E-04-1.55928E-13
 -1      3664 1.37442E-02-8.11711E-04-1.53289E-13
 -1      3665 5.14903E-03-2.70233E-04-2.98910E-14
 -1      3666 1.32067E-03-2.19400E-04-2.29996E-15
 -1      3667 1.44834E-03-2.31047E-04-2.70531E-15
 -1      3668 1.51282E-03-2.05097E-04-2.96833E-15
 -1      3669 1.26752E-03-1.80828E-04-2.18238E-15
 -1      3670 2.09442E-03 2.97036E-04-4.89485E-15
 -1      3671 2.01401E-03 2.61225E-04-4.64839E-15
 -1      3672 2.23767E-03 2.99414E-04-5.54195E-15
 -1      3673 1.72778E-03 2.50942E-04-3.50838E-15
 -1      3674 1.66440E-03 2.79992E-04-3.19693E-15
 -1      3675 1.25771E-03-1.18934E-04-2.20731E-15
 -1      3676 1.26205E-03-1.49465E-04-2.19739E-15
 -1      3677 1.38389E-03-1.60644E-04-2.57690E-15
 -1      3678 4.73603E-03-6.20848E-05-2.78153E-14
 -1      3679 1.53949E-03 2.75402E-04-2.76313E-15
 -1      3680 1.13101E-03-2.60259E-05-1.86008E-15
 -1      3681 1.37775E-02-8.93465E-04-1.53658E-13
 -1      3682 1.77870E-03-2.21891E-04-3.95669E-15
 -1      3683 1.25680E-03 1.03300E-04-2.15179E-15
 -1      3684 1.25394E-03 7.37055E-05-2.17228E-15
 -1      3685 9.47641E-03-1.86915E-04-6.86924E-14
 -1      3686 1.37399E-03 6.21032E-05-2.56137E-15
 -1      3687 1.25200E-03 4.44347E-05-2.18946E-15
 -1      3688 1.25101E-03 1.54484E-05-2.20230E-15
 -1      3689 1.28125E-03 2.62311E-04-1.96096E-15
 -1      3690 1.23873E-03 2.35079E-04-1.89211E-15
 -1      3691 1.23137E-03 2.02247E-04-1.93267E-15
 -1      3692 1.40587E-03 2.71310E-04-2.32720E-15
 -1      3693 8.43061E-03 2.86486E-04-5.96246E-14
 -1      3694 8.24612E-03 3.59878E-04-5.74603E-14
 -1      3695 8.58631E-03 1.88980E-04-6.08371E-14
 -1      3696 1.35311E-02-9.03560E-04-1.48402E-13
 -1      3697 1.36543E-02-8.98617E-04-1.51027E-13
 -1      3698 1.36377E-02-8.57734E-04-1.50847E-13
 -1      3699 4.78802E-03-6.18140E-06-2.72008E-14
 -1      3700 4.90127E-03 1.18060E-06-2.83055E-14
 -1      3701 4.98326E-03 4.16229E-05-2.84388E-14
 -1      3702 9.72631E-03-2.30502E-04-7.28345E-14
 -1      3703 9.75847E-03-2.57255E-04-7.25578E-14
 -1      3704 2.55173E-03-1.99778E-04-7.72608E-15
 -1      3705 2.69196E-03-1.98805E-04-8.53655E-15
 -1      3706 2.83141E-03-1.97350E-04-9.38649E-15
 -1      3707 2.97005E-03-1.95441E-04-1.02751E-14
 -1      3708 2.75332E-03-1.66028E-04-8.97119E-15
 -1      3709 3.10771E-03-1.93302E-04-1.12021E-14
 -1      3710 3.24435E-03-1.90942E-04-1.21678E-14
 -1      3711 3.02913E-03-1.63118E-04-1.07475E-14
 -1      3712 3.37980E-03-1.88607E-04-1.31710E-14
 -1      3713 3.51404E-03-1.86287E-04-1.42115E-14
 -1      3714 3.30041E-03-1.59545E-04-1.26766E-14
 -1      3715 3.64687E-03-1.84258E-04-1.52901E-14
 -1      3716 3.77830E-03-1.82476E-04-1.64048E-14
 -1      3717 3.56615E-03-1.56161E-04-1.47570E-14
 -1      3718 3.90809E-03-1.81249E-04-1.75565E-14
 -1      3719 4.03634E-03-1.80490E-04-1.87456E-14
 -1      3720 3.82524E-03-1.53804E-04-1.69859E-14
 -1      3721 4.16269E-03-1.80534E-04-1.99691E-14
 -1      3722 4.28745E-03-1.81220E-04-2.12272E-14
 -1      3723 4.07638E-03-1.53230E-04-1.93600E-14
 -1      3724 4.41006E-03-1.82917E-04-2.25202E-14
 -1      3725 4.53129E-03-1.85460E-04-2.38479E-14
 -1      3726 4.31801E-03-1.54963E-04-2.18750E-14
 -1      3727 1.50624E-03-1.70933E-04-2.98675E-15
 -1      3728 1.62902E-03-1.80365E-04-3.42632E-15
 -1      3729 1.50087E-03-1.37531E-04-2.99940E-15
 -1      3730 9.31017E-03-1.10793E-06-7.05373E-14
 -1      3731 9.15556E-03 2.79047E-05-6.82188E-14
 -1      3732 9.69708E-03-3.75540E-04-7.13119E-14
 -1      3733 9.83456E-03-3.97127E-04-7.43256E-14
 -1      3734 9.95219E-03-4.11460E-04-7.67392E-14
 -1      3735 1.00714E-02-4.26357E-04-7.91771E-14
 -1      3736 1.01932E-02-4.42268E-04-8.16390E-14
 -1      3737 1.00263E-02-3.93395E-04-7.78879E-14
 -1      3738 1.03167E-02-4.58762E-04-8.41251E-14
 -1      3739 1.04424E-02-4.76100E-04-8.66353E-14
 -1      3740 1.02617E-02-4.24722E-04-8.28051E-14
 -1      3741 1.05696E-02-4.93926E-04-8.91674E-14
 -1      3742 1.06985E-02-5.12402E-04-9.17230E-14
 -1      3743 1.05073E-02-4.58410E-04-8.78172E-14
 -1      3744 1.08289E-02-5.31232E-04-9.43026E-14
 -1      3745 1.09607E-02-5.50513E-04-9.69044E-14
 -1      3746 1.07612E-02-4.94121E-04-9.29204E-14
 -1      3747 1.10937E-02-5.70005E-04-9.95256E-14
 -1      3748 1.12279E-02-5.89768E-04-1.02170E-13
 -1      3749 1.10217E-02-5.31354E-04-9.81146E-14
 -1      3750 1.13631E-02-6.09610E-04-1.04836E-13
 -1      3751 1.14992E-02-6.29575E-04-1.07521E-13
 -1      3752 1.12877E-02-5.69568E-04-1.03396E-13
 -1      3753 1.16362E-02-6.49515E-04-1.10229E-13
 -1      3754 1.17739E-02-6.69465E-04-1.12956E-13
 -1      3755 1.15582E-02-6.08271E-04-1.08762E-13
 -1      3756 1.19123E-02-6.89319E-04-1.15700E-13
 -1      3757 1.20513E-02-7.09105E-04-1.18464E-13
 -1      3758 1.18322E-02-6.47068E-04-1.14209E-13
 -1      3759 1.21908E-02-7.28751E-04-1.21246E-13
 -1      3760 1.23308E-02-7.48283E-04-1.24043E-13
 -1      3761 1.21090E-02-6.85678E-04-1.19731E-13
 -1      3762 1.24712E-02-7.67653E-04-1.26857E-13
 -1      3763 1.26119E-02-7.86887E-04-1.29687E-13
 -1      3764 1.23881E-02-7.23924E-04-1.25321E-13
 -1      3765 1.27530E-02-8.05956E-04-1.32529E-13
 -1      3766 1.28944E-02-8.24883E-04-1.35389E-13
 -1      3767 1.26690E-02-7.61710E-04-1.30973E-13
 -1      3768 1.30360E-02-8.43653E-04-1.38262E-13
 -1      3769 1.31778E-02-8.62285E-04-1.41147E-13
 -1      3770 1.29512E-02-7.99005E-04-1.36683E-13
 -1      3771 1.32833E-02-8.73824E-04-1.43310E-13
 -1      3772 1.34254E-02-8.92211E-04-1.46222E-13
 -1      3773 1.34090E-02-8.51571E-04-1.46050E-13
 -1      3774 1.31980E-02-8.28918E-04-1.41716E-13
 -1      3775 4.91401E-03 2.10874E-04-2.54726E-14
 -1      3776 4.76289E-03 2.02764E-04-2.40946E-14
 -1      3777 1.39088E-02-1.05438E-03-1.55750E-13
 -1      3778 4.61558E-03 1.98409E-04-2.27530E-14
 -1      3779 4.47087E-03 1.96240E-04-2.14466E-14
 -1      3780 4.64918E-03 1.56125E-04-2.35067E-14
 -1      3781 4.04697E-03 1.99280E-04-1.77470E-14
 -1      3782 3.90731E-03 2.02070E-04-1.65876E-14
 -1      3783 5.31903E-03 2.38721E-04-2.92643E-14
 -1      3784 5.15477E-03 2.17247E-04-2.77950E-14
 -1      3785 9.77771E-03-3.20475E-04-7.17006E-14
 -1      3786 9.74667E-03-3.37934E-04-7.13505E-14
 -1      3787 1.26559E-03 1.64769E-04-2.09649E-15
 -1      3788 1.26069E-03 1.33642E-04-2.12676E-15
 -1      3789 1.38036E-03 1.24688E-04-2.51425E-15
 -1      3790 9.60671E-03-4.75205E-05-7.52538E-14
 -1      3791 9.46006E-03-2.55569E-05-7.28826E-14
 -1      3792 9.44311E-03-5.99813E-05-7.18390E-14
 -1      3793 9.89238E-03-8.44888E-05-8.00686E-14
 -1      3794 9.75050E-03-6.67884E-05-7.76497E-14
 -1      3795 9.72734E-03-9.76949E-05-7.65868E-14
 -1      3796 1.01722E-02-1.16061E-04-8.49854E-14
 -1      3797 1.00327E-02-1.00707E-04-8.25149E-14
 -1      3798 1.00036E-02-1.29079E-04-8.14336E-14
 -1      3799 1.04494E-02-1.44710E-04-8.99999E-14
 -1      3800 1.03109E-02-1.30636E-04-8.74818E-14
 -1      3801 1.02765E-02-1.57516E-04-8.63791E-14
 -1      3802 1.07260E-02-1.71818E-04-9.51073E-14
 -1      3803 1.05877E-02-1.58388E-04-9.25414E-14
 -1      3804 1.05488E-02-1.84583E-04-9.14215E-14
 -1      3805 1.10032E-02-1.98317E-04-1.00308E-13
 -1      3806 1.08645E-02-1.85104E-04-9.76964E-14
 -1      3807 1.08218E-02-2.11115E-04-9.65561E-14
 -1      3808 1.12813E-02-2.24832E-04-1.05595E-13
 -1      3809 1.11421E-02-2.11550E-04-1.02940E-13
 -1      3810 1.10963E-02-2.37681E-04-1.01782E-13
 -1      3811 1.15607E-02-2.51775E-04-1.10955E-13
 -1      3812 1.14209E-02-2.38239E-04-1.08265E-13
 -1      3813 1.13725E-02-2.64646E-04-1.07093E-13
 -1      3814 1.18413E-02-2.79396E-04-1.16394E-13
 -1      3815 1.17009E-02-2.65497E-04-1.13666E-13
 -1      3816 1.16504E-02-2.92241E-04-1.12477E-13
 -1      3817 1.21230E-02-3.07825E-04-1.21905E-13
 -1      3818 1.19820E-02-2.93510E-04-1.19142E-13
 -1      3819 1.19300E-02-3.20595E-04-1.17938E-13
 -1      3820 1.24057E-02-3.37104E-04-1.27487E-13
 -1      3821 1.22642E-02-3.22362E-04-1.24686E-13
 -1      3822 1.22109E-02-3.49760E-04-1.23469E-13
 -1      3823 1.26891E-02-3.67212E-04-1.33134E-13
 -1      3824 1.25473E-02-3.52060E-04-1.30302E-13
 -1      3825 1.24930E-02-3.79727E-04-1.29071E-13
 -1      3826 1.29732E-02-3.98088E-04-1.38837E-13
 -1      3827 1.28311E-02-3.82559E-04-1.35980E-13
 -1      3828 1.27761E-02-4.10449E-04-1.34736E-13
 -1      3829 1.32578E-02-4.29649E-04-1.44590E-13
 -1      3830 1.31154E-02-4.13788E-04-1.41708E-13
 -1      3831 1.30599E-02-4.41856E-04-1.40452E-13
 -1      3832 1.34591E-02-4.57736E-04-1.48666E-13
 -1      3833 1.25096E-03-1.33743E-05-2.21108E-15
 -1      3834 1.25182E-03-4.22688E-05-2.21614E-15
 -1      3835 1.37178E-03 1.01307E-06-2.59055E-15
 -1      3836 1.79182E-03 2.21402E-04-3.82765E-15
 -1      3837 1.64905E-03 2.15276E-04-3.29362E-15
 -1      3838 4.64697E-03-8.06752E-05-2.69834E-14
 -1      3839 4.68697E-03-7.25498E-05-2.73990E-14
 -1      3840 4.66924E-03-4.77300E-05-2.66566E-14
 -1      3841 2.52375E-03 3.00434E-04-6.95611E-15
 -1      3842 2.38077E-03 3.00509E-04-6.22901E-15
 -1      3843 2.58508E-03 2.65333E-04-7.41060E-15
 -1      3844 1.36211E-02-8.17104E-04-1.50666E-13
 -1      3845 1.36045E-02-7.76526E-04-1.50484E-13
 -1      3846 1.34981E-02-8.22287E-04-1.48050E-13
 -1      3847 1.25278E-03-6.55662E-05-2.21607E-15
 -1      3848 1.25534E-03-9.49692E-05-2.21374E-15
 -1      3849 1.37629E-03-1.03322E-04-2.59544E-15
 -1      3850 1.37291E-03-5.38225E-05-2.60047E-15
 -1      3851 8.77698E-03 9.90273E-05-6.26239E-14
 -1      3852 9.42583E-03-1.49970E-04-6.89900E-14
 -1      3853 1.37915E-02-6.42253E-04-1.54942E-13
 -1      3854 1.37745E-02-6.01064E-04-1.54738E-13
 -1      3855 1.36767E-02-6.48069E-04-1.52510E-13
 -1      3856 1.98552E-03-1.95806E-04-4.87875E-15
 -1      3857 2.12766E-03-1.98206E-04-5.53072E-15
 -1      3858 4.32834E-03 1.96094E-04-2.01765E-14
 -1      3859 4.18713E-03 1.97145E-04-1.89437E-14
 -1      3860 4.09230E-03 1.62173E-04-1.84252E-14
 -1      3861 4.36811E-03 1.56975E-04-2.08937E-14
 -1      3862 8.94559E-03 5.43211E-05-6.48703E-14
 -1      3863 1.36320E-02-5.60745E-04-1.51900E-13
 -1      3864 2.26947E-03-1.99604E-04-6.22263E-15
 -1      3865 2.41088E-03-2.00060E-04-6.95497E-15
 -1      3866 2.19193E-03-1.66435E-04-5.88695E-15
 -1      3867 1.45120E-03 2.40834E-04-2.54408E-15
 -1      3868 1.73606E-03-1.86646E-04-3.83488E-15
 -1      3869 1.87839E-03-1.91139E-04-4.41685E-15
 -1      3870 1.94348E-03-1.60834E-04-4.73706E-15
 -1      3871 1.72986E-03-1.51413E-04-3.84976E-15
 -1      3872 9.77782E-03-2.80337E-04-7.21984E-14
 -1      3873 9.79324E-03-3.01794E-04-7.20790E-14
 -1      3874 9.85856E-03-3.21631E-04-7.36477E-14
 -1      3875 9.86082E-03-2.80531E-04-7.43893E-14
 -1      3876 1.34031E-02-4.85946E-04-1.47399E-13
 -1      3877 4.67534E-03-9.98976E-06-2.60190E-14
 -1      3878 4.73492E-03 1.99426E-05-2.61479E-14
 -1      3879 9.68779E-03-1.98434E-04-7.30983E-14
 -1      3880 9.81468E-03-2.27435E-04-7.50154E-14
 -1      3881 4.75547E-03-1.61397E-04-2.73077E-14
 -1      3882 4.67886E-03-1.44763E-04-2.66597E-14
 -1      3883 5.04722E-03 8.36669E-05-2.84268E-14
 -1      3884 5.11003E-03 1.30469E-04-2.84102E-14
 -1      3885 4.91416E-03 6.50697E-05-2.73202E-14
 -1      3886 3.76801E-03 2.05373E-04-1.54658E-14
 -1      3887 3.62872E-03 2.08964E-04-1.43813E-14
 -1      3888 3.81807E-03 1.69389E-04-1.61042E-14
 -1      3889 4.55911E-03-1.60646E-04-2.46353E-14
 -1      3890 4.66202E-03-1.91046E-04-2.53178E-14
 -1      3891 4.78062E-03-1.96562E-04-2.67156E-14
 -1      3892 1.34309E-02-5.32081E-04-1.47808E-13
 -1      3893 1.32300E-02-5.03668E-04-1.43737E-13
 -1      3894 1.34587E-02-5.78123E-04-1.48210E-13
 -1      3895 3.43454E-03 2.48802E-04-1.27426E-14
 -1      3896 9.78076E-03-3.56110E-04-7.24396E-14
 -1      3897 5.46585E-03 2.78865E-04-3.03691E-14
 -1      3898 2.92897E-03 2.26239E-04-9.53687E-15
 -1      3899 2.78791E-03 2.28689E-04-8.68415E-15
 -1      3900 4.79842E-03-1.79590E-04-2.73812E-14
 -1      3901 1.35876E-02-7.35724E-04-1.50293E-13
 -1      3902 1.35707E-02-6.94928E-04-1.50101E-13
 -1      3903 1.34648E-02-7.41232E-04-1.47687E-13
 -1      3904 4.60743E-03-1.11981E-04-2.63100E-14
 -1      3905 4.61336E-03-9.79976E-05-2.65682E-14
 -1      3906 1.50503E-03 1.46654E-04-2.90317E-15
 -1      3907 1.50045E-03 1.13485E-04-2.93450E-15
 -1      3908 3.20988E-03 2.19990E-04-1.13590E-14
 -1      3909 3.06961E-03 2.23319E-04-1.04285E-14
 -1      3910 2.98855E-03 1.91309E-04-1.00483E-14
 -1      3911 4.61640E-03-2.53883E-05-2.56223E-14
 -1      3912 4.55797E-03-1.59847E-06-2.46013E-14
 -1      3913 4.56344E-03-3.81657E-05-2.52253E-14
 -1      3914 4.57053E-03-7.87695E-05-2.58465E-14
 -1      3915 1.93464E-03 2.25987E-04-4.40162E-15
 -1      3916 1.85642E-03 1.91392E-04-4.15535E-15
 -1      3917 2.07744E-03 2.29135E-04-5.01545E-15
 -1      3918 2.29993E-03 2.65581E-04-5.94940E-15
 -1      3919 1.48386E-03 1.98961E-04-2.73924E-15
 -1      3920 1.35069E-03 1.96388E-04-2.30665E-15
 -1      3921 2.47393E-03-1.67422E-04-7.35040E-15
 -1      3922 9.10056E-03-2.09152E-05-6.61246E-14
 -1      3923 1.49698E-03 8.09027E-05-2.96035E-15
 -1      3924 1.49465E-03 4.87289E-05-2.98171E-15
 -1      3925 1.62088E-03 1.00484E-04-3.38615E-15
 -1      3926 9.45249E-03-1.28274E-04-7.02272E-14
 -1      3927 9.55261E-03-1.26347E-04-7.23727E-14
 -1      3928 5.01194E-03 1.86975E-04-2.67007E-14
 -1      3929 4.88448E-03 1.32616E-04-2.60748E-14
 -1      3930 4.91114E-03-2.15772E-04-2.79837E-14
 -1      3931 9.90829E-03-2.25682E-04-7.72167E-14
 -1      3932 9.93341E-03-2.54844E-04-7.69505E-14
 -1      3933 4.57615E-03-1.43090E-04-2.52114E-14
 -1      3934 4.58547E-03-1.24655E-04-2.57332E-14
 -1      3935 4.51004E-03-1.09489E-04-2.48722E-14
 -1      3936 4.45833E-03-1.39209E-04-2.37459E-14
 -1      3937 8.29200E-03 3.19983E-04-5.76891E-14
 -1      3938 2.67693E-03-1.34706E-04-8.55959E-15
 -1      3939 2.81532E-03-1.33895E-04-9.40830E-15
 -1      3940 2.95267E-03-1.32898E-04-1.02960E-14
 -1      3941 3.08886E-03-1.31702E-04-1.12218E-14
 -1      3942 2.87811E-03-1.02450E-04-9.84781E-15
 -1      3943 3.22373E-03-1.30517E-04-1.21857E-14
 -1      3944 3.35718E-03-1.29297E-04-1.31878E-14
 -1      3945 3.14946E-03-1.01223E-04-1.16984E-14
 -1      3946 3.48900E-03-1.28298E-04-1.42274E-14
 -1      3947 3.61909E-03-1.27427E-04-1.53040E-14
 -1      3948 3.41499E-03-1.00214E-04-1.37003E-14
 -1      3949 3.74718E-03-1.26983E-04-1.64172E-14
 -1      3950 3.87316E-03-1.26792E-04-1.75676E-14
 -1      3951 3.67331E-03-1.00094E-04-1.58513E-14
 -1      3952 3.99666E-03-1.27232E-04-1.87541E-14
 -1      3953 4.11757E-03-1.27989E-04-1.99762E-14
 -1      3954 3.92268E-03-1.01446E-04-1.81503E-14
 -1      3955 4.23533E-03-1.29527E-04-2.12326E-14
 -1      3956 4.34989E-03-1.31290E-04-2.25234E-14
 -1      3957 4.16075E-03-1.04807E-04-2.05919E-14
 -1      3958 1.49780E-03-1.11238E-04-3.00735E-15
 -1      3959 1.61976E-03-1.18686E-04-3.44900E-15
 -1      3960 1.49548E-03-8.52725E-05-3.01195E-15
 -1      3961 1.54917E-03 1.72486E-04-3.01515E-15
 -1      3962 1.66918E-03 1.60257E-04-3.47686E-15
 -1      3963 1.02051E-02-3.92731E-04-8.14888E-14
 -1      3964 1.03232E-02-4.08497E-04-8.39680E-14
 -1      3965 1.04440E-02-4.24594E-04-8.64702E-14
 -1      3966 1.05673E-02-4.41375E-04-8.89952E-14
 -1      3967 1.03788E-02-3.92426E-04-8.51269E-14
 -1      3968 1.06927E-02-4.58478E-04-9.15436E-14
 -1      3969 1.08201E-02-4.76109E-04-9.41147E-14
 -1      3970 1.06230E-02-4.24257E-04-9.01708E-14
 -1      3971 1.09493E-02-4.93991E-04-9.67076E-14
 -1      3972 1.10800E-02-5.12243E-04-9.93234E-14
 -1      3973 1.08760E-02-4.57874E-04-9.53057E-14
 -1      3974 1.12121E-02-5.30652E-04-1.01962E-13
 -1      3975 1.13455E-02-5.49292E-04-1.04621E-13
 -1      3976 1.11360E-02-4.92834E-04-1.00532E-13
 -1      3977 1.14801E-02-5.68000E-04-1.07300E-13
 -1      3978 1.16156E-02-5.86824E-04-1.10002E-13
 -1      3979 1.14016E-02-5.28687E-04-1.05843E-13
 -1      3980 1.17520E-02-6.05646E-04-1.12723E-13
 -1      3981 1.18893E-02-6.24499E-04-1.15461E-13
 -1      3982 1.16718E-02-5.65049E-04-1.11238E-13
 -1      3983 1.20273E-02-6.43299E-04-1.18221E-13
 -1      3984 1.21659E-02-6.62074E-04-1.20997E-13
 -1      3985 1.19455E-02-6.01619E-04-1.16713E-13
 -1      3986 1.23052E-02-6.80764E-04-1.23788E-13
 -1      3987 1.24449E-02-6.99394E-04-1.26595E-13
 -1      3988 1.22222E-02-6.38186E-04-1.22259E-13
 -1      3989 1.25850E-02-7.17924E-04-1.29418E-13
 -1      3990 1.27256E-02-7.36376E-04-1.32255E-13
 -1      3991 1.25012E-02-6.74614E-04-1.27866E-13
 -1      3992 1.28665E-02-7.54725E-04-1.35107E-13
 -1      3993 1.30077E-02-7.72988E-04-1.37974E-13
 -1      3994 1.27819E-02-7.10826E-04-1.33536E-13
 -1      3995 4.67721E-03 1.13915E-04-2.42612E-14
 -1      3996 4.54001E-03 1.15570E-04-2.29191E-14
 -1      3997 9.68686E-03-1.41289E-04-7.47435E-14
 -1      3998 1.01107E-02-1.70213E-04-8.28015E-14
 -1      3999 9.97724E-03-1.56667E-04-8.03518E-14
 -1      4000 2.70794E-03 1.96003E-04-8.33854E-15
 -1      4001 2.64647E-03 2.30492E-04-7.87151E-15
 -1      4002 2.50465E-03 2.31590E-04-7.09805E-15
 -1      4003 1.03774E-02-1.96713E-04-8.77764E-14
 -1      4004 1.02439E-02-1.83519E-04-8.52753E-14
 -1      4005 1.02129E-02-2.08626E-04-8.41731E-14
 -1      4006 1.06453E-02-2.22983E-04-9.28443E-14
 -1      4007 1.05111E-02-2.09842E-04-9.02995E-14
 -1      4008 1.04744E-02-2.34149E-04-8.91748E-14
 -1      4009 1.09153E-02-2.49489E-04-9.80068E-14
 -1      4010 1.07800E-02-2.36194E-04-9.54145E-14
 -1      4011 1.07389E-02-2.60317E-04-9.42719E-14
 -1      4012 1.11876E-02-2.76493E-04-1.03260E-13
 -1      4013 1.10512E-02-2.62926E-04-1.00623E-13
 -1      4014 1.10065E-02-2.87258E-04-9.94609E-14
 -1      4015 1.14623E-02-3.04154E-04-1.08591E-13
 -1      4016 1.13247E-02-2.90243E-04-1.05915E-13
 -1      4017 1.12772E-02-3.15003E-04-1.04738E-13
 -1      4018 1.17392E-02-3.32562E-04-1.14001E-13
 -1      4019 1.16005E-02-3.18269E-04-1.11287E-13
 -1      4020 1.15508E-02-3.43553E-04-1.10093E-13
 -1      4021 1.20179E-02-3.61751E-04-1.19483E-13
 -1      4022 1.18783E-02-3.47065E-04-1.16732E-13
 -1      4023 1.18269E-02-3.72890E-04-1.15526E-13
 -1      4024 1.22983E-02-3.91710E-04-1.25037E-13
 -1      4025 1.21579E-02-3.76641E-04-1.22253E-13
 -1      4026 1.21051E-02-4.02977E-04-1.21032E-13
 -1      4027 1.25800E-02-4.22398E-04-1.30657E-13
 -1      4028 1.24390E-02-4.06970E-04-1.27838E-13
 -1      4029 1.23851E-02-4.33763E-04-1.26606E-13
 -1      4030 1.28628E-02-4.53751E-04-1.36339E-13
 -1      4031 1.27212E-02-4.37998E-04-1.33490E-13
 -1      4032 1.26666E-02-4.65183E-04-1.32246E-13
 -1      4033 1.31172E-02-4.86604E-04-1.41462E-13
 -1      4034 1.29754E-02-4.70574E-04-1.38594E-13
 -1      4035 1.29202E-02-4.98022E-04-1.37337E-13
 -1      4036 1.31452E-02-5.32190E-04-1.41864E-13
 -1      4037 1.49343E-03 1.68982E-05-2.99808E-15
 -1      4038 1.49335E-03-1.48239E-05-3.00937E-15
 -1      4039 1.61585E-03 3.39221E-05-3.43279E-15
 -1      4040 4.46809E-03-8.12276E-05-2.44372E-14
 -1      4041 4.50732E-03-6.12599E-05-2.48344E-14
 -1      4042 4.44252E-03-4.19797E-05-2.38369E-14
 -1      4043 2.39758E-03-1.35196E-04-6.97817E-15
 -1      4044 2.53765E-03-1.35141E-04-7.74928E-15
 -1      4045 2.60212E-03-1.03273E-04-8.15159E-15
 -1      4046 1.33926E-02-8.11219E-04-1.45875E-13
 -1      4047 1.33761E-02-7.70949E-04-1.45699E-13
 -1      4048 1.32871E-02-8.00089E-04-1.43707E-13
 -1      4049 1.35233E-02-6.56896E-04-1.49256E-13
 -1      4050 1.35063E-02-6.16103E-04-1.49058E-13
 -1      4051 1.33056E-02-5.87160E-04-1.44980E-13
 -1      4052 1.34006E-02-6.62741E-04-1.46659E-13
 -1      4053 4.76325E-03 8.66026E-05-2.54512E-14
 -1      4054 2.11571E-03-1.33635E-04-5.55453E-15
 -1      4055 2.25690E-03-1.34701E-04-6.24671E-15
 -1      4056 2.32261E-03-1.03060E-04-6.61043E-15
 -1      4057 2.36252E-03 2.31794E-04-6.36387E-15
 -1      4058 2.22007E-03 2.31041E-04-5.66937E-15
 -1      4059 2.14131E-03 1.96903E-04-5.39031E-15
 -1      4060 2.42538E-03 1.98140E-04-6.78534E-15
 -1      4061 3.48937E-03 2.12688E-04-1.33354E-14
 -1      4062 3.34976E-03 2.16419E-04-1.23284E-14
 -1      4063 3.26699E-03 1.84818E-04-1.19139E-14
 -1      4064 3.54333E-03 1.77243E-04-1.39330E-14
 -1      4065 4.71681E-03 5.18537E-05-2.54672E-14
 -1      4066 1.81136E-03 1.64685E-04-4.02560E-15
 -1      4067 1.76705E-03 1.38475E-04-3.89466E-15
 -1      4068 1.95362E-03 1.67920E-04-4.61472E-15
 -1      4069 9.81941E-03-1.55269E-04-7.71385E-14
 -1      4070 9.92906E-03-1.95103E-04-7.84734E-14
 -1      4071 4.42974E-03-9.38453E-05-2.38854E-14
 -1      4072 9.97923E-03-3.63467E-04-7.66045E-14
 -1      4073 1.00904E-02-3.78233E-04-7.90358E-14
 -1      4074 5.03386E-03-2.42688E-04-2.89586E-14
 -1      4075 1.72334E-03-9.60971E-05-3.86452E-15
 -1      4076 1.72619E-03-1.23604E-04-3.85903E-15
 -1      4077 1.83275E-03-1.28079E-04-4.29176E-15
 -1      4078 3.86699E-03 1.34243E-04-1.67453E-14
 -1      4079 3.73207E-03 1.38494E-04-1.56205E-14
 -1      4080 1.00553E-02-2.26192E-04-8.04431E-14
 -1      4081 9.26155E-03-5.98460E-05-6.82792E-14
 -1      4082 4.43760E-03 8.04026E-05-2.23339E-14
 -1      4083 4.40459E-03 1.18436E-04-2.16129E-14
 -1      4084 4.26981E-03 1.21879E-04-2.03422E-14
 -1      4085 1.30947E-02-7.80973E-04-1.39758E-13
 -1      4086 1.32000E-02-7.92230E-04-1.41912E-13
 -1      4087 1.31836E-02-7.52279E-04-1.41740E-13
 -1      4088 1.30097E-02-7.36707E-04-1.38169E-13
 -1      4089 4.37992E-03-1.15166E-04-2.30723E-14
 -1      4090 9.87331E-03-3.59764E-04-7.43617E-14
 -1      4091 9.93464E-03-3.45630E-04-7.54931E-14
 -1      4092 4.00137E-03 1.29984E-04-1.79077E-14
 -1      4093 3.91488E-03 9.99869E-05-1.73908E-14
 -1      4094 4.13566E-03 1.25822E-04-1.91067E-14
 -1      4095 9.95218E-03-3.25047E-04-7.58755E-14
 -1      4096 1.33594E-02-7.30485E-04-1.45517E-13
 -1      4097 1.33426E-02-6.90046E-04-1.45332E-13
 -1      4098 1.32541E-02-7.19702E-04-1.43354E-13
 -1      4099 2.76965E-03 1.61934E-04-8.81137E-15
 -1      4100 2.62943E-03 1.63635E-04-7.99324E-15
 -1      4101 3.04816E-03 1.56984E-04-1.05653E-14
 -1      4102 2.90923E-03 1.59715E-04-9.66883E-15
 -1      4103 2.83166E-03 1.28367E-04-9.28997E-15
 -1      4104 4.59451E-03 4.49982E-05-2.43217E-14
 -1      4105 1.01464E-02-3.63242E-04-8.01771E-14
 -1      4106 1.49334E-03-3.71578E-05-3.01236E-15
 -1      4107 1.49430E-03-6.27009E-05-3.01395E-15
 -1      4108 1.61573E-03-6.84479E-05-3.45671E-15
 -1      4109 1.61472E-03-2.20761E-05-3.45363E-15
 -1      4110 9.94915E-03-2.80876E-04-7.66034E-14
 -1      4111 9.95647E-03-3.03912E-04-7.62389E-14
 -1      4112 1.00475E-02-3.27908E-04-7.81103E-14
 -1      4113 1.00422E-02-2.80938E-04-7.88269E-14
 -1      4114 1.76243E-03 1.03512E-04-3.92937E-15
 -1      4115 1.93932E-03-1.32120E-04-4.74708E-15
 -1      4116 2.00597E-03-1.01675E-04-5.06714E-15
 -1      4117 4.49793E-03 2.24107E-05-2.36320E-14
 -1      4118 4.46897E-03 5.11218E-05-2.29816E-14
 -1      4119 4.34284E-03 5.71253E-05-2.16763E-14
 -1      4120 4.44174E-03 6.41049E-06-2.32560E-14
 -1      4121 1.03105E-02-3.61544E-04-8.37860E-14
 -1      4122 1.04294E-02-3.76164E-04-8.62813E-14
 -1      4123 2.80537E-03-7.17687E-05-9.40377E-15
 -1      4124 2.94203E-03-7.16430E-05-1.02899E-14
 -1      4125 1.72178E-03-7.21634E-05-3.86705E-15
 -1      4126 1.82794E-03-7.56457E-05-4.30011E-15
 -1      4127 1.72084E-03-4.83465E-05-3.86679E-15
 -1      4128 1.91875E-03 1.01460E-04-4.58216E-15
 -1      4129 1.77386E-03 6.47959E-05-4.02253E-15
 -1      4130 1.01803E-02-2.37869E-04-8.28978E-14
 -1      4131 1.01483E-02-2.64936E-04-8.16165E-14
 -1      4132 1.03068E-02-2.50021E-04-8.53761E-14
 -1      4133 3.07742E-03-7.15978E-05-1.12138E-14
 -1      4134 3.21141E-03-7.15871E-05-1.21761E-14
 -1      4135 3.00727E-03-4.14898E-05-1.07331E-14
 -1      4136 3.34384E-03-7.17907E-05-1.31761E-14
 -1      4137 3.47452E-03-7.21386E-05-1.42135E-14
 -1      4138 3.27503E-03-4.27317E-05-1.26550E-14
 -1      4139 3.60320E-03-7.29220E-05-1.52883E-14
 -1      4140 3.72974E-03-7.39435E-05-1.63998E-14
 -1      4141 3.53612E-03-4.50815E-05-1.47276E-14
 -1      4142 3.85381E-03-7.55513E-05-1.75483E-14
 -1      4143 3.97518E-03-7.74788E-05-1.87332E-14
 -1      4144 3.78895E-03-4.89230E-05-1.69493E-14
 -1      4145 4.09334E-03-8.02794E-05-1.99538E-14
 -1      4146 4.20797E-03-8.33340E-05-2.12085E-14
 -1      4147 4.03138E-03-5.49080E-05-1.93169E-14
 -1      4148 2.52884E-03-7.17639E-05-7.74732E-15
 -1      4149 2.66760E-03-7.17997E-05-8.55627E-15
 -1      4150 2.73422E-03-4.07468E-05-8.96352E-15
 -1      4151 4.33092E-03-8.51473E-05-2.26572E-14
 -1      4152 1.05511E-02-3.91170E-04-8.88007E-14
 -1      4153 1.06751E-02-4.06828E-04-9.13428E-14
 -1      4154 1.04762E-02-3.59054E-04-8.74331E-14
 -1      4155 1.08012E-02-4.22798E-04-9.39077E-14
 -1      4156 1.09292E-02-4.39264E-04-9.64937E-14
 -1      4157 1.07244E-02-3.88636E-04-9.25114E-14
 -1      4158 1.10589E-02-4.55970E-04-9.91036E-14
 -1      4159 1.11900E-02-4.73025E-04-1.01735E-13
 -1      4160 1.09803E-02-4.19968E-04-9.76807E-14
 -1      4161 1.13225E-02-4.90239E-04-1.04389E-13
 -1      4162 1.14563E-02-5.07684E-04-1.07063E-13
 -1      4163 1.12425E-02-4.52590E-04-1.02938E-13
 -1      4164 1.15911E-02-5.25219E-04-1.09760E-13
 -1      4165 1.17269E-02-5.42894E-04-1.12475E-13
 -1      4166 1.15097E-02-4.86114E-04-1.08283E-13
 -1      4167 1.18635E-02-5.60605E-04-1.15208E-13
 -1      4168 1.20010E-02-5.78390E-04-1.17961E-13
 -1      4169 1.17810E-02-5.20233E-04-1.13708E-13
 -1      4170 1.21391E-02-5.96175E-04-1.20732E-13
 -1      4171 1.22779E-02-6.13988E-04-1.23518E-13
 -1      4172 1.20557E-02-5.54718E-04-1.19207E-13
 -1      4173 1.24172E-02-6.31776E-04-1.26319E-13
 -1      4174 1.25570E-02-6.49565E-04-1.29136E-13
 -1      4175 1.23331E-02-5.89408E-04-1.24775E-13
 -1      4176 1.26973E-02-6.67315E-04-1.31967E-13
 -1      4177 1.28379E-02-6.85046E-04-1.34813E-13
 -1      4178 1.26126E-02-6.24191E-04-1.30403E-13
 -1      4179 2.24901E-03-7.10850E-05-6.24717E-15
 -1      4180 2.38927E-03-7.15208E-05-6.97740E-15
 -1      4181 2.45696E-03-4.01304E-05-7.34783E-15
 -1      4182 4.27456E-03-6.09430E-05-2.19813E-14
 -1      4183 1.05631E-02-2.75475E-04-9.04045E-14
 -1      4184 1.04343E-02-2.62613E-04-8.78788E-14
 -1      4185 1.03941E-02-2.89220E-04-8.65774E-14
 -1      4186 1.08242E-02-3.02229E-04-9.55258E-14
 -1      4187 1.06930E-02-2.88721E-04-9.29541E-14
 -1      4188 1.06469E-02-3.15473E-04-9.16324E-14
 -1      4189 1.10895E-02-3.30139E-04-1.00738E-13
 -1      4190 1.09563E-02-3.16072E-04-9.81207E-14
 -1      4191 1.09057E-02-3.43412E-04-9.67784E-14
 -1      4192 1.13586E-02-3.59042E-04-1.06036E-13
 -1      4193 1.12236E-02-3.44493E-04-1.03379E-13
 -1      4194 1.11696E-02-3.72671E-04-1.02013E-13
 -1      4195 1.16311E-02-3.88807E-04-1.11418E-13
 -1      4196 1.14945E-02-3.73838E-04-1.08717E-13
 -1      4197 1.14379E-02-4.02969E-04-1.07336E-13
 -1      4198 1.19064E-02-4.19329E-04-1.16871E-13
 -1      4199 1.17684E-02-4.03991E-04-1.14135E-13
 -1      4200 1.17098E-02-4.34092E-04-1.12739E-13
 -1      4201 1.21842E-02-4.50515E-04-1.22399E-13
 -1      4202 1.20450E-02-4.34853E-04-1.19625E-13
 -1      4203 1.19849E-02-4.65878E-04-1.18214E-13
 -1      4204 1.24638E-02-4.82280E-04-1.27987E-13
 -1      4205 1.23238E-02-4.66336E-04-1.25185E-13
 -1      4206 1.22624E-02-4.98198E-04-1.23760E-13
 -1      4207 1.27451E-02-5.14548E-04-1.33643E-13
 -1      4208 1.26043E-02-4.98360E-04-1.30808E-13
 -1      4209 1.25420E-02-5.30953E-04-1.29368E-13
 -1      4210 1.77194E-03 3.06149E-05-4.04520E-15
 -1      4211 4.32214E-03-4.16063E-05-2.24367E-14
 -1      4212 4.37553E-03-1.65715E-05-2.28070E-14
 -1      4213 4.30848E-03 5.06851E-06-2.18748E-14
 -1      4214 4.19493E-03-3.81401E-05-2.09965E-14
 -1      4215 1.01584E-02-3.40693E-04-8.05489E-14
 -1      4216 2.55240E-03 1.31481E-04-7.64799E-15
 -1      4217 2.48867E-03 1.64675E-04-7.21360E-15
 -1      4218 2.34740E-03 1.65043E-04-6.47326E-15
 -1      4219 3.64954E-03 1.08903E-04-1.51378E-14
 -1      4220 3.59668E-03 1.42625E-04-1.45338E-14
 -1      4221 3.46058E-03 1.46622E-04-1.34842E-14
 -1      4222 1.95077E-03-7.35148E-05-4.83061E-15
 -1      4223 2.12670E-03-7.40645E-05-5.64330E-15
 -1      4224 2.19495E-03-4.29671E-05-5.97924E-15
 -1      4225 1.94972E-03-4.88565E-05-4.82942E-15
 -1      4226 2.05104E-03 1.61771E-04-5.05774E-15
 -1      4227 2.00655E-03 1.35421E-04-4.91030E-15
 -1      4228 2.01630E-03 9.49147E-05-5.02171E-15
 -1      4229 2.19302E-03 1.63147E-04-5.71479E-15
 -1      4230 3.96228E-03 6.69816E-05-1.80400E-14
 -1      4231 3.83291E-03 7.18230E-05-1.68747E-14
 -1      4232 1.03169E-02-3.11925E-04-8.45117E-14
 -1      4233 1.01976E-02-2.99590E-04-8.20372E-14
 -1      4234 1.02001E-02-3.24654E-04-8.16796E-14
 -1      4235 1.32405E-02-6.07367E-04-1.43538E-13
 -1      4236 1.31929E-02-5.69759E-04-1.42702E-13
 -1      4237 1.30804E-02-5.52451E-04-1.40431E-13
 -1      4238 1.29246E-02-6.92768E-04-1.36586E-13
 -1      4239 1.30114E-02-7.00445E-04-1.38363E-13
 -1      4240 1.28395E-02-6.49152E-04-1.35004E-13
 -1      4241 2.89420E-03 9.53604E-05-9.77324E-15
 -1      4242 2.75588E-03 9.72196E-05-8.91165E-15
 -1      4243 3.32387E-03 1.50394E-04-1.24730E-14
 -1      4244 3.18636E-03 1.53885E-04-1.14998E-14
 -1      4245 3.10788E-03 1.23340E-04-1.10865E-14
 -1      4246 3.38061E-03 1.16812E-04-1.30365E-14
 -1      4247 1.29687E-02-5.42019E-04-1.38157E-13
 -1      4248 1.28564E-02-5.24878E-04-1.35904E-13
 -1      4249 1.27935E-02-5.58052E-04-1.34451E-13
 -1      4250 1.30163E-02-5.79260E-04-1.38986E-13
 -1      4251 1.72055E-03-2.46195E-05-3.86370E-15
 -1      4252 4.20670E-03 6.14806E-06-2.08250E-14
 -1      4253 4.27142E-03 3.02456E-05-2.12514E-14
 -1      4254 4.23398E-03 5.66958E-05-2.06319E-14
 -1      4255 1.87656E-03 4.68127E-06-4.49757E-15
 -1      4256 1.32952E-02-6.52301E-04-1.44497E-13
 -1      4257 1.30892E-02-7.06315E-04-1.39962E-13
 -1      4258 1.31762E-02-7.13909E-04-1.41747E-13
 -1      4259 1.31594E-02-6.73799E-04-1.41567E-13
 -1      4260 1.30038E-02-6.62412E-04-1.38370E-13
 -1      4261 2.61676E-03 9.86034E-05-8.08813E-15
 -1      4262 2.47689E-03 9.95566E-05-7.30371E-15
 -1      4263 2.68181E-03 6.61211E-05-8.53427E-15
 -1      4264 4.17706E-03 9.02443E-05-1.97911E-14
 -1      4265 3.70243E-03 7.62742E-05-1.57467E-14
 -1      4266 3.57055E-03 8.03671E-05-1.46567E-14
 -1      4267 3.75553E-03 4.48380E-05-1.63595E-14
 -1      4268 2.70579E-03 1.23333E-05-8.75652E-15
 -1      4269 2.84333E-03 1.14393E-05-9.61213E-15
 -1      4270 4.10701E-03 6.23328E-05-1.93905E-14
 -1      4271 4.02582E-03 3.59055E-05-1.88390E-14
 -1      4272 3.20832E-03-1.30313E-05-1.21376E-14
 -1      4273 3.34074E-03-1.45035E-05-1.31351E-14
 -1      4274 3.51160E-03 2.68508E-06-1.44611E-14
 -1      4275 3.64046E-03-1.81993E-08-1.55442E-14
 -1      4276 3.76738E-03-3.40379E-06-1.66644E-14
 -1      4277 3.89204E-03-7.12777E-06-1.78206E-14
 -1      4278 1.04385E-02-3.24701E-04-8.70105E-14
 -1      4279 1.05623E-02-3.38356E-04-8.95315E-14
 -1      4280 3.03157E-03 9.31241E-05-1.06738E-14
 -1      4281 2.95738E-03 6.29980E-05-1.02616E-14
 -1      4282 3.16795E-03 9.04543E-05-1.16125E-14
 -1      4283 1.06881E-02-3.52389E-04-9.20759E-14
 -1      4284 1.08156E-02-3.66991E-04-9.46437E-14
 -1      4285 1.09448E-02-3.81884E-04-9.72332E-14
 -1      4286 1.10754E-02-3.97199E-04-9.98458E-14
 -1      4287 1.12074E-02-4.12732E-04-1.02478E-13
 -1      4288 1.13406E-02-4.28578E-04-1.05136E-13
 -1      4289 1.14748E-02-4.44584E-04-1.07812E-13
 -1      4290 1.16100E-02-4.60820E-04-1.10511E-13
 -1      4291 1.17462E-02-4.77169E-04-1.13228E-13
 -1      4292 1.18832E-02-4.93687E-04-1.15961E-13
 -1      4293 1.20209E-02-5.10285E-04-1.18714E-13
 -1      4294 1.21592E-02-5.27004E-04-1.21484E-13
 -1      4295 1.22981E-02-5.43780E-04-1.24270E-13
 -1      4296 1.24376E-02-5.60643E-04-1.27072E-13
 -1      4297 1.25776E-02-5.77546E-04-1.29888E-13
 -1      4298 1.27179E-02-5.94510E-04-1.32720E-13
 -1      4299 2.42793E-03 1.36148E-05-7.16162E-15
 -1      4300 2.56728E-03 1.31013E-05-7.93994E-15
 -1      4301 1.31827E-02-6.34615E-04-1.42218E-13
 -1      4302 2.25808E-03 1.30886E-04-6.10230E-15
 -1      4303 2.97978E-03 1.02386E-05-1.05061E-14
 -1      4304 1.99960E-03 8.17409E-06-5.03662E-15
 -1      4305 4.03001E-03-1.12259E-05-1.91635E-14
 -1      4306 1.28290E-02-6.05421E-04-1.34978E-13
 -1      4307 2.16034E-03 9.49581E-05-5.69159E-15
 -1      4308 2.07404E-03 6.16509E-05-5.33105E-15
 -1      4309 3.45124E-03 3.27297E-05-1.38961E-14
 -1      4310 3.11499E-03 8.89469E-06-1.14378E-14
 -1      4311 4.14937E-03-1.60924E-05-2.03965E-14
 -1      4312 2.14330E-03 7.22142E-06-5.70910E-15
 -1      4313 2.38056E-03 6.43804E-05-6.84830E-15
 -1      4314 2.31393E-03 9.65034E-05-6.44969E-15
 -1      4315 2.26587E-03 1.06482E-05-6.31321E-15
 -1      4316 3.18534E-03 3.79110E-05-1.18837E-14
 -1      4317 3.39213E-03 6.38376E-05-1.33355E-14
 -1      4318 1.29156E-02-6.12700E-04-1.36749E-13
 -1      4319 3.25819E-03 6.68843E-05-1.23305E-14
 -1      4320 1.31049E-02-6.29113E-04-1.40619E-13
 -1      4321 1.29933E-02-6.18249E-04-1.38340E-13
 -3
    1PSTEP                         2           1           1          
  100CL  101 1.000000000        4321                     0    1           1
 -4  STRESS      6    1
 -5  SXX         1    4    1    1
 -5  SYY         1    4    2    2
 -5  SZZ         1    4    3    3
 -5  SXY         1    4    1    2
 -5  SYZ         1    4    2    3
 -5  SZX         1    4    3    1
 -1         1 6.71415E+01 9.22631E-01 3.73229E+00-2.40146E+00-6.20858E-14 1.02798E-12
 -1         2-7.71377E-01-2.43434E+01-3.35329E+00 9.42617E-02 1.25340E-12 8.95499E-14
 -1         3 2.00001E+01 3.30295E-04 1.19794E-03 3.02470E-04-2.52575E-13-3.55755E-13
 -1         4 2.00001E+01 2.69761E-04 1.14868E-03-2.49136E-04 1.09665E-13 1.53902E-13
 -1         5 3.25802E+01 6.10798E+00 2.71491E+00 6.18978E+00-5.78704E-14 3.95560E-12
 -1         6 3.55360E+01 1.21846E+01 5.07901E+00-8.59363E+00-2.34091E-13 3.81145E-12
 -1         7 2.07795E+01 6.08709E+00-1.23359E-01-4.68728E+00-3.51108E-14 7.29486E-13
 -1         8 1.96734E+01 5.93442E+00 5.39917E-02-3.22947E+00-4.69381E-14-2.32594E-13
 -1         9 1.91606E+01 5.77811E+00 5.10586E-02-2.47378E+00-4.05787E-14-7.61882E-13
 -1        10 1.89264E+01 5.70069E+00 5.17803E-02-1.89587E+00-2.67746E-14-1.01729E-12
 -1        11 1.88035E+01 5.65947E+00 4.98015E-02-1.40408E+00-1.79418E-14-1.13653E-12
 -1        12 1.87344E+01 5.63621E+00 4.72745E-02-9.72620E-01-1.01434E-14-1.19166E-12
 -1        13 1.86948E+01 5.62300E+00 4.51942E-02-5.67651E-01-5.15820E-15-1.20126E-12
 -1        14 1.86769E+01 5.61703E+00 4.40780E-02-1.81737E-01 2.18803E-15-1.18641E-12
 -1        15 1.86772E+01 5.61713E+00 4.41254E-02 1.98279E-01 1.10560E-14-1.16465E-12
 -1        16 1.86957E+01 5.62331E+00 4.53519E-02 5.85122E-01 1.39819E-14-1.13628E-12
 -1        17 1.87361E+01 5.63667E+00 4.76185E-02 9.92248E-01 2.02967E-14-1.07763E-12
 -1        18 1.88061E+01 5.66023E+00 5.03623E-02 1.42698E+00 2.75149E-14-9.75145E-13
 -1        19 1.89306E+01 5.70194E+00 5.22324E-02 1.92468E+00 3.65359E-14-8.04395E-13
 -1        20 1.91649E+01 5.78037E+00 5.07110E-02 2.51094E+00 4.95663E-14-4.79161E-13
 -1        21 1.96685E+01 5.94874E+00 4.89361E-02 3.26338E+00 5.25413E-14 1.23123E-13
 -1        22 2.11558E+01 6.36616E+00 1.41696E-01 4.48583E+00 7.82707E-15 1.31337E-12
 -1        23 2.29243E+01-1.37526E+00-9.37442E-01-7.01965E-01-1.57468E-13 2.99351E-12
 -1        24 1.93192E+01-9.95304E-02-3.08475E-01 6.35475E-02-4.54541E-14 2.29779E-12
 -1        25 1.86744E+01-5.69002E-02-6.87341E-02 6.03698E-02-2.28168E-14 1.56900E-12
 -1        26 1.85209E+01-2.32496E-02-7.42431E-03 3.25826E-02-3.90128E-15 1.05112E-12
 -1        27 1.85965E+01-1.35538E-02-1.40058E-04 2.23609E-02-1.47169E-14 7.78693E-13
 -1        28 1.87991E+01-8.65466E-03-7.43685E-04 1.63914E-02-1.10007E-14 5.51095E-13
 -1        29 1.90819E+01-6.26685E-03-1.77073E-03 1.28115E-02-2.50402E-15 2.84816E-13
 -1        30 1.94258E+01-5.28905E-03-2.77019E-03 1.07577E-02 8.22682E-15 1.22174E-13
 -1        31 1.98272E+01-5.16256E-03-4.03841E-03 9.90404E-03-1.04985E-14-1.25267E-13
 -1        32 2.02930E+01-5.52988E-03-5.67080E-03 1.01950E-02 1.66924E-15-2.88415E-13
 -1        33 2.08366E+01-6.07084E-03-7.54940E-03 1.17175E-02 2.74048E-14-3.47702E-13
 -1        34 2.14740E+01-6.38890E-03-9.31800E-03 1.46122E-02 1.75332E-15-3.09201E-13
 -1        35 2.22188E+01-5.90939E-03-1.02206E-02 1.89462E-02-1.51192E-16-4.19782E-13
 -1        36 2.30728E+01-3.79635E-03-8.81627E-03 2.44486E-02 1.49958E-14-3.93121E-13
 -1        37 2.40101E+01 1.03594E-03-2.68469E-03 2.99829E-02-2.44380E-14-3.59450E-13
 -1        38 2.49545E+01 9.63269E-03 1.14678E-02 3.26550E-02-8.98457E-15-4.50143E-13
 -1        39 2.57502E+01 2.20897E-02 3.62441E-02 2.67635E-02-1.37564E-15-4.67477E-13
 -1        40 2.61433E+01 3.59345E-02 6.93260E-02 3.87322E-03 3.71660E-14-4.98247E-13
 -1        41 2.58130E+01 4.43780E-02 9.68728E-02-4.29384E-02 3.04956E-14-6.71092E-13
 -1        42 2.45075E+01 3.74004E-02 9.20246E-02-1.08687E-01-1.45478E-14-7.07184E-13
 -1        43 2.23001E+01 8.43283E-03 2.83555E-02-1.63073E-01-4.64957E-14-6.02143E-13
 -1        44 1.98242E+01-3.45587E-02-8.18270E-02-1.57322E-01 2.83456E-14-5.45279E-13
 -1        45 1.81497E+01-6.75268E-02-1.74437E-01-6.65286E-02-2.80284E-14-5.45619E-13
 -1        46 1.81621E+01-6.73561E-02-1.73751E-01 6.75172E-02 5.89069E-15-9.02695E-13
 -1        47 1.98581E+01-3.42136E-02-8.02714E-02 1.57742E-01-2.15188E-14-1.14041E-12
 -1        48 2.23478E+01 8.64640E-03 2.95643E-02 1.62914E-01 2.80046E-14-1.22312E-12
 -1        49 2.45634E+01 3.72572E-02 9.20061E-02 1.08151E-01 2.93602E-15-1.24012E-12
 -1        50 2.58774E+01 4.39841E-02 9.62997E-02 4.24337E-02-2.14455E-15-1.12037E-12
 -1        51 2.62221E+01 3.53118E-02 6.82783E-02-4.06128E-03 1.44266E-14-1.10988E-12
 -1        52 2.58544E+01 2.13283E-02 3.50700E-02-2.64712E-02-2.06169E-14-1.10849E-12
 -1        53 2.50971E+01 8.78246E-03 1.02846E-02-3.19606E-02 1.61047E-14-1.15351E-12
 -1        54 2.42050E+01 1.13419E-04-3.95456E-03-2.88952E-02-7.89822E-14-1.07537E-12
 -1        55 2.33351E+01-4.78308E-03-1.02551E-02-2.28819E-02-5.71943E-14-9.67641E-13
 -1        56 2.25656E+01-6.92976E-03-1.18608E-02-1.67623E-02-9.85095E-14-8.53327E-13
 -1        57 2.19238E+01-7.37831E-03-1.11571E-02-1.16303E-02 1.05482E-14-9.53726E-13
 -1        58 2.14090E+01-6.91600E-03-9.55231E-03-7.70863E-03 9.62750E-15-8.58050E-13
 -1        59 2.10080E+01-6.04693E-03-7.76425E-03-4.86948E-03-2.56211E-14-7.74368E-13
 -1        60 2.07027E+01-5.06135E-03-6.11016E-03-2.88751E-03-9.15344E-14-1.01923E-12
 -1        61 2.04752E+01-4.11065E-03-4.70169E-03-1.54392E-03 2.22344E-13-5.75267E-13
 -1        62 2.03090E+01-3.26387E-03-3.55517E-03-6.59054E-04-1.58350E-13-2.58443E-13
 -1        63 2.01905E+01-2.54445E-03-2.64798E-03-9.57912E-05-2.37942E-14-7.17004E-13
 -1        64 2.01083E+01-1.95233E-03-1.94516E-03 2.46977E-04 2.24073E-14-1.01831E-12
 -1        65 2.00533E+01-1.47624E-03-1.41135E-03 4.42845E-04-1.38355E-14-6.19602E-13
 -1        66 2.00185E+01-1.10025E-03-1.01565E-03 5.45935E-04 5.99647E-14-9.29091E-13
 -1        67 1.99985E+01-8.06375E-04-7.31831E-04 5.97644E-04 9.65754E-15-1.27897E-12
 -1        68 1.99892E+01-5.73887E-04-5.31870E-04 6.32831E-04 1.76225E-13-9.36975E-13
 -1        69 1.99876E+01-3.75915E-04-3.62625E-04 6.80609E-04-1.03107E-13-4.82615E-13
 -1        70 1.99912E+01-1.73404E-04-1.04832E-04 7.46411E-04 2.24725E-14-9.49858E-14
 -1        71 1.99973E+01 2.58184E-05 5.11082E-04 7.11353E-04 1.22471E-14 3.04844E-13
 -1        72 2.09504E+01-4.03170E-01-9.78697E-01-3.11366E-01 6.47954E-14 3.59449E-12
 -1        73 1.92874E+01-6.59900E-02-2.89925E-01-5.37025E-02 2.87717E-14 2.73902E-12
 -1        74 1.86870E+01-2.10729E-02-6.43248E-02-1.97277E-02 1.35986E-14 2.15521E-12
 -1        75 1.85332E+01-1.07920E-02-1.02840E-02-1.44899E-02 1.22839E-14 1.75894E-12
 -1        76 1.86080E+01-6.42811E-03-1.03360E-03-1.12349E-02 1.25542E-14 1.36161E-12
 -1        77 1.88075E+01-4.24313E-03-6.93872E-04-8.91676E-03-3.29305E-15 1.12687E-12
 -1        78 1.90836E+01-3.14242E-03-1.33813E-03-7.30091E-03-7.48460E-15 1.02903E-12
 -1        79 1.94143E+01-2.61587E-03-1.97621E-03-6.23803E-03 4.22102E-15 8.22213E-13
 -1        80 1.97914E+01-2.35605E-03-2.65742E-03-5.73104E-03 2.90160E-16 6.22378E-13
 -1        81 2.02137E+01-2.11865E-03-3.31718E-03-5.88141E-03 2.02656E-14 5.09882E-13
 -1        82 2.06826E+01-1.65852E-03-3.68166E-03-6.83500E-03 1.90638E-14 3.39088E-13
 -1        83 2.11970E+01-7.02375E-04-3.27592E-03-8.72492E-03-2.57858E-14 3.81929E-13
 -1        84 2.17476E+01 1.04192E-03-1.40822E-03-1.15723E-02 1.21061E-14 3.85704E-13
 -1        85 2.23090E+01 3.81570E-03 2.80188E-03-1.51029E-02-2.27692E-15 2.40469E-13
 -1        86 2.28313E+01 7.64189E-03 1.02124E-02-1.84519E-02 9.49468E-15-1.65415E-14
 -1        87 2.32328E+01 1.20418E-02 2.10777E-02-1.98088E-02 7.75747E-16-2.26774E-13
 -1        88 2.33991E+01 1.57128E-02 3.39714E-02-1.62500E-02-4.74613E-14-2.92672E-13
 -1        89 2.31998E+01 1.64551E-02 4.45116E-02-4.34528E-03 4.64889E-14-3.46532E-13
 -1        90 2.25329E+01 1.18828E-02 4.51152E-02 1.77248E-02-6.14980E-14-2.01979E-13
 -1        91 2.13989E+01 1.19792E-03 2.78945E-02 4.65781E-02-1.94112E-14 2.11692E-13
 -1        92 1.99771E+01-1.28297E-02-8.49797E-03 7.10647E-02-2.84032E-14 2.71415E-13
 -1        93 1.86382E+01-2.41586E-02-5.24656E-02 7.57168E-02 2.85911E-14-6.53644E-15
 -1        94 1.78299E+01-2.70704E-02-8.22265E-02 5.18315E-02 2.14874E-14-4.17151E-13
 -1        95 1.78601E+01-2.02059E-02-8.02756E-02 6.70742E-03 3.19226E-14-5.05553E-13
 -1        96 1.87200E+01-7.61923E-03-4.76632E-02-3.87182E-02 3.77841E-14-2.15199E-13
 -1        97 2.00875E+01 4.77630E-03-3.71304E-03-6.48406E-02-2.53910E-14-1.07601E-13
 -1        98 2.15147E+01 1.27777E-02 3.07617E-02-6.63364E-02-6.55178E-14 2.30184E-13
 -1        99 2.26421E+01 1.53151E-02 4.57999E-02-5.07772E-02-5.88830E-16-1.15503E-13
 -1       100 2.33043E+01 1.36655E-02 4.35516E-02-2.96546E-02 4.12170E-15-1.53120E-13
 -1       101 2.35112E+01 9.92959E-03 3.21968E-02-1.11881E-02-2.02325E-14-1.79635E-13
 -1       102 2.33702E+01 5.84466E-03 1.90084E-02 1.41374E-03 4.34542E-14 1.54507E-14
 -1       103 2.30137E+01 2.41088E-03 8.09074E-03 8.30058E-03-1.10118E-13 4.97602E-13
 -1       104 2.25560E+01-3.02037E-05 6.85718E-04 1.09849E-02 7.21528E-14 8.63890E-13
 -1       105 2.20789E+01-1.52415E-03-3.54462E-03 1.10969E-02 6.67536E-14 4.09539E-13
 -1       106 2.16325E+01-2.27734E-03-5.46763E-03 9.88878E-03-8.74695E-14 1.16047E-13
 -1       107 2.12424E+01-2.52116E-03-5.93770E-03 8.16996E-03 8.61582E-14-1.10612E-13
 -1       108 2.09174E+01-2.45106E-03-5.60261E-03 6.39953E-03 8.03494E-14-5.05817E-13
 -1       109 2.06568E+01-2.21083E-03-4.89042E-03 4.80315E-03 1.41055E-14-5.27601E-13
 -1       110 2.04542E+01-1.89685E-03-4.05771E-03 3.46781E-03-3.44274E-14-6.94183E-13
 -1       111 2.03013E+01-1.56879E-03-3.24496E-03 2.40545E-03 3.80275E-14-5.93722E-13
 -1       112 2.01893E+01-1.26046E-03-2.52046E-03 1.59166E-03-1.42560E-13-3.40405E-13
 -1       113 2.01099E+01-9.88629E-04-1.91044E-03 9.87582E-04 7.69819E-14-1.86834E-13
 -1       114 2.00558E+01-7.59345E-04-1.41867E-03 5.51405E-04-9.15592E-14-1.98906E-13
 -1       115 2.00209E+01-5.71857E-04-1.03818E-03 2.42978E-04 8.48875E-14-3.31584E-13
 -1       116 2.00005E+01-4.20073E-04-7.56286E-04 2.38951E-05 3.49056E-14-5.52101E-13
 -1       117 1.99907E+01-2.93981E-04-5.52320E-04-1.43753E-04 3.93784E-14-9.42715E-13
 -1       118 1.99886E+01-1.78413E-04-3.79014E-04-3.00538E-04 8.96368E-14-1.63439E-12
 -1       119 1.99918E+01-1.41973E-05-9.02171E-05-5.19047E-04-2.09134E-13-1.36360E-12
 -1       120 1.99974E+01 1.12453E-04 4.53161E-04-7.10442E-04 1.64206E-13-7.38896E-13
 -1       121 1.99999E+01-2.59673E-03 3.32567E-04-8.24951E-04-6.01900E-13-1.19092E-13
 -1       122 1.99997E+01-7.67783E-03-2.51105E-04-5.57141E-04 4.49466E-14-1.07605E-13
 -1       123 1.99996E+01-9.42356E-03-4.29762E-04-2.36403E-04 3.27777E-13 1.06630E-13
 -1       124 1.99997E+01-6.93292E-03-3.36534E-04 2.19343E-05-2.93765E-13 1.17173E-13
 -1       125 1.99998E+01-1.31124E-03-1.38452E-04 1.66949E-04-7.72343E-14-1.73780E-13
 -1       126 1.99999E+01 5.34283E-03 5.98969E-05 2.04744E-04-1.24731E-13 2.13644E-13
 -1       127 2.00000E+01 1.11931E-02 2.18044E-04 1.56234E-04-4.16448E-13 3.20910E-14
 -1       128 2.00000E+01 1.44531E-02 3.02783E-04 5.08747E-05-9.37886E-13 9.91990E-14
 -1       129 2.00000E+01 1.42126E-02 2.98995E-04-7.30913E-05-6.23194E-13 2.10483E-13
 -1       130 2.00000E+01 1.05101E-02 2.06616E-04-1.74967E-04-6.12584E-13-1.14639E-13
 -1       131 1.99999E+01 4.33456E-03 4.09392E-05-2.16386E-04-1.38503E-12-2.50191E-13
 -1       132 1.99998E+01-2.46046E-03-1.62762E-04-1.67379E-04-1.78890E-12 2.16776E-13
 -1       133 1.99996E+01-7.98992E-03-3.56693E-04-6.70444E-06-1.10552E-12 9.63533E-14
 -1       134 1.99996E+01-1.02058E-02-4.53873E-04 2.52640E-04-1.15933E-12 1.85521E-14
 -1       135 1.99998E+01-8.08061E-03-2.35801E-04 8.09594E-04-1.26564E-12-1.45858E-13
 -1       136 1.99998E+01-2.79544E-03 3.35475E-04 1.15465E-03-6.23068E-13 8.99260E-14
 -1       137-1.31583E+00-1.95299E+01-3.03631E+00-3.67790E+00 3.35015E-12 6.25642E-13
 -1       138-1.50254E+00-8.69031E+00-2.26214E+00-3.04083E+00 4.36234E-12 2.00692E-12
 -1       139 2.73715E+00 2.90878E+00-1.10191E+00 3.18511E+00 4.57678E-12 3.23547E-12
 -1       140 1.56174E+01 1.04061E+01 3.88133E-01 1.26692E+01 3.35254E-12 3.85703E-12
 -1       141 3.39279E+01 1.00536E+01 1.77278E+00 1.79366E+01 1.95868E-12 3.62371E-12
 -1       142 5.38401E+01 5.15311E+00 2.90933E+00 1.52991E+01 7.52939E-13 2.43539E-12
 -1       143 6.46888E+01 1.21680E+00 3.45680E+00 4.85289E+00 4.76667E-14 3.75394E-13
 -1       144 6.28563E+01 1.94218E+00 3.37461E+00-8.15803E+00 2.99739E-13-1.69478E-12
 -1       145 4.89428E+01 6.65808E+00 2.65215E+00-1.69851E+01 1.32779E-12-3.60906E-12
 -1       146 2.86211E+01 1.08752E+01 1.41888E+00-1.72988E+01 2.98905E-12-4.52610E-12
 -1       147 1.15750E+01 9.49766E+00 2.73635E-02-1.04871E+01 4.06442E-12-4.16406E-12
 -1       148 7.67400E-01 1.09184E-01-1.44908E+00-9.48967E-01 4.44994E-12-2.85644E-12
 -1       149-1.75564E+00-1.26704E+01-2.57311E+00 3.94332E+00 3.17918E-12-1.18390E-12
 -1       150-1.02304E+00-2.22607E+01-3.22180E+00 2.67741E+00 1.75970E-12-3.04797E-13
 -1       151-8.15409E-01-2.39845E+01-3.34055E+00-1.61296E+00-4.83627E-13-6.11525E-14
 -1       152-1.85273E+00-1.68840E+01-2.90871E+00-4.43088E+00-2.26108E-12-7.08697E-13
 -1       153-5.11020E-01-3.83002E+00-1.91004E+00-1.04484E+00-3.65796E-12-2.14359E-12
 -1       154 6.86121E+00 6.65901E+00-6.05235E-01 6.88617E+00-4.14624E-12-3.78098E-12
 -1       155 2.28605E+01 1.08982E+01 9.14362E-01 1.56147E+01-3.20377E-12-4.20730E-12
 -1       156 4.41379E+01 8.07322E+00 2.43285E+00 1.80036E+01-1.52015E-12-3.46323E-12
 -1       157 6.23290E+01 2.77908E+00 3.49239E+00 1.06383E+01-4.81003E-13-1.45511E-12
 -1       158 5.71411E+01 4.44226E+00 3.17852E+00-1.44501E+01-7.82020E-13 3.01431E-12
 -1       159 3.68615E+01 9.60155E+00 1.94825E+00-1.82220E+01-1.91688E-12 3.49504E-12
 -1       160 1.66174E+01 1.05486E+01 4.06181E-01-1.31353E+01-3.59229E-12 4.15201E-12
 -1       161 2.96603E+00 3.56377E+00-1.14653E+00-3.55258E+00-4.51256E-12 3.40217E-12
 -1       162-1.69243E+00-8.59865E+00-2.34810E+00 3.21417E+00-3.64686E-12 1.79110E-12
 -1       163-1.45016E+00-1.98273E+01-3.11029E+00 3.87262E+00-1.64407E-12 3.90167E-13
 -1       164 2.10035E+01 3.68023E+00-5.65546E-02-3.55832E+00-5.41522E-13 2.21937E-13
 -1       165 2.00113E+01 4.20399E+00-4.51376E-02-2.75107E+00-5.03347E-13-3.89071E-13
 -1       166 1.95369E+01 4.48627E+00-3.12763E-02-2.13359E+00-4.12460E-13-7.19610E-13
 -1       167 1.92954E+01 4.63418E+00-2.34202E-02-1.61533E+00-3.05584E-13-8.96824E-13
 -1       168 1.91552E+01 4.72657E+00-1.91284E-02-1.16762E+00-2.04750E-13-9.73510E-13
 -1       169 1.90708E+01 4.78484E+00-1.69288E-02-7.54423E-01-1.15757E-13-9.98332E-13
 -1       170 1.90256E+01 4.81731E+00-1.58577E-02-3.67104E-01-2.19022E-14-1.00038E-12
 -1       171 1.90116E+01 4.82729E+00-1.55478E-02 7.92886E-03 6.04378E-14-9.82534E-13
 -1       172 1.90269E+01 4.81567E+00-1.59005E-02 3.83365E-01 1.50354E-13-9.57436E-13
 -1       173 1.90739E+01 4.78122E+00-1.70047E-02 7.71911E-01 2.28428E-13-9.23429E-13
 -1       174 1.91585E+01 4.72131E+00-1.92407E-02 1.18015E+00 3.16087E-13-8.50401E-13
 -1       175 1.93030E+01 4.62442E+00-2.36077E-02 1.63886E+00 4.18978E-13-7.17001E-13
 -1       176 1.95526E+01 4.46747E+00-3.24187E-02 2.16516E+00 5.06257E-13-5.01337E-13
 -1       177 2.00325E+01 4.18040E+00-4.65731E-02 2.78872E+00 5.69976E-13-1.01502E-13
 -1       178 2.11233E+01 3.45166E+00-5.90434E-02 3.48595E+00 5.44363E-13 6.27047E-13
 -1       179 2.23684E+01 1.13720E+00-3.34608E-01 2.97724E+00 4.18957E-13 1.57838E-12
 -1       180 2.19406E+01 8.53892E-01 7.30624E-04-1.92148E+00-4.64077E-13 9.26842E-13
 -1       181 2.04528E+01 1.90565E-01-9.65618E-03-7.27564E-01-4.21883E-13 7.00033E-13
 -1       182 1.97204E+01 1.05001E-01 1.38753E-02-2.43504E-01-3.11091E-13 5.10275E-13
 -1       183 1.94351E+01 5.32051E-02 1.04114E-02-1.29636E-02-2.07699E-13 3.19094E-13
 -1       184 1.93774E+01 3.14180E-02 5.72715E-03 1.14233E-01-1.70640E-13 1.83873E-13
 -1       185 1.94606E+01 2.16869E-02 3.17333E-03 1.94720E-01-1.52790E-13 9.33769E-14
 -1       186 1.96385E+01 1.82192E-02 2.06539E-03 2.54301E-01-8.71764E-14 1.79750E-14
 -1       187 1.98888E+01 1.85885E-02 1.63380E-03 3.07323E-01-1.12901E-13-5.49313E-14
 -1       188 2.02034E+01 2.14887E-02 1.48364E-03 3.62690E-01-1.31428E-13-6.54984E-14
 -1       189 2.05818E+01 2.58771E-02 1.41759E-03 4.25889E-01-6.44621E-14-1.45612E-13
 -1       190 2.10283E+01 3.04644E-02 1.29272E-03 4.99175E-01 6.92176E-15-2.60509E-13
 -1       191 2.15470E+01 3.31995E-02 9.58595E-04 5.80427E-01-4.61725E-14-2.77313E-13
 -1       192 2.21375E+01 3.06242E-02 2.50703E-04 6.60613E-01-9.91752E-15-2.56337E-13
 -1       193 2.27875E+01 1.71847E-02-9.58589E-04 7.19758E-01 2.94795E-14-2.25842E-13
 -1       194 2.34635E+01-1.49475E-02-2.62838E-03 7.22049E-01-3.80933E-14-1.21998E-13
 -1       195 2.40998E+01-7.39547E-02-4.33573E-03 6.13171E-01-8.53874E-15-9.80869E-14
 -1       196 2.45902E+01-1.61311E-01-5.22041E-03 3.28041E-01 1.26652E-14-9.21385E-14
 -1       197 2.47913E+01-2.56398E-01-4.21838E-03-1.75969E-01 5.96311E-15-7.53165E-14
 -1       198 2.45574E+01-3.01912E-01-1.62722E-03-8.50110E-01-7.04567E-14-2.15401E-14
 -1       199 2.38238E+01-2.10544E-01 8.68613E-04-1.47586E+00 4.04321E-15-3.52062E-14
 -1       200 2.27329E+01 5.92339E-02-9.78388E-04-1.67299E+00-3.62911E-14-2.64268E-14
 -1       201 2.17088E+01 3.94299E-01-5.53790E-03-1.13837E+00-7.91233E-14-2.35084E-13
 -1       202 2.12832E+01 5.56559E-01-8.46053E-03 8.90726E-03-1.05598E-13-3.33902E-13
 -1       203 2.17246E+01 3.92300E-01-4.90380E-03 1.15493E+00-2.02006E-13-4.54078E-13
 -1       204 2.27624E+01 5.72279E-02-4.93459E-05 1.68432E+00-1.75878E-13-5.93475E-13
 -1       205 2.38631E+01-2.11447E-01 7.80695E-04 1.48351E+00 3.05853E-14-7.19017E-13
 -1       206 2.46068E+01-3.00938E-01-1.77816E-03 8.58517E-01 2.16485E-14-8.02690E-13
 -1       207 2.48541E+01-2.53801E-01-4.41257E-03 1.89093E-01 7.31056E-14-8.21340E-13
 -1       208 2.46726E+01-1.57613E-01-5.25018E-03-3.06707E-01 5.63234E-14-6.78755E-13
 -1       209 2.42100E+01-6.99923E-02-4.22329E-03-5.82108E-01-2.77337E-14-6.02681E-13
 -1       210 2.36103E+01-1.06587E-02-2.43844E-03-6.80485E-01 4.33418E-14-5.69731E-13
 -1       211 2.29807E+01 2.19345E-02-7.44338E-04-6.66704E-01 9.64670E-14-3.39259E-13
 -1       212 2.23877E+01 3.58616E-02 4.64959E-04-5.94981E-01 1.05015E-13-3.39252E-13
 -1       213 2.18651E+01 3.88283E-02 1.15160E-03-5.01320E-01 4.76268E-14-8.82017E-14
 -1       214 2.14251E+01 3.62398E-02 1.43294E-03-4.06254E-01-7.38373E-14-1.00017E-13
 -1       215 2.10666E+01 3.13485E-02 1.45445E-03-3.19873E-01 5.38538E-14-3.42104E-13
 -1       216 2.07820E+01 2.59095E-02 1.33473E-03-2.46073E-01-1.36628E-13-3.85937E-13
 -1       217 2.05610E+01 2.07728E-02 1.15368E-03-1.85432E-01 1.97692E-14-2.18179E-13
 -1       218 2.03927E+01 1.62870E-02 9.58612E-04-1.36941E-01 1.40397E-14-5.25169E-13
 -1       219 2.02672E+01 1.25437E-02 7.74406E-04-9.89603E-02-1.96933E-13-3.71709E-13
 -1       220 2.01754E+01 9.51253E-03 6.12172E-04-6.97151E-02-6.26415E-14-3.34593E-13
 -1       221 2.01099E+01 7.11312E-03 4.75166E-04-4.75331E-02 2.72503E-13-2.76907E-13
 -1       222 2.00646E+01 5.25099E-03 3.62349E-04-3.09400E-02-1.50833E-13-6.03064E-14
 -1       223 2.00346E+01 3.83239E-03 2.69880E-04-1.86879E-02-1.04244E-13-4.84025E-14
 -1       224 2.00158E+01 2.76702E-03 1.92283E-04-9.76029E-03 2.34830E-13 1.40407E-14
 -1       225 2.00053E+01 1.95156E-03 1.25935E-04-3.38015E-03 2.30736E-13-2.59780E-13
 -1       226 2.00004E+01 1.21607E-03 8.28349E-05 9.04836E-04 3.67963E-13 6.33038E-14
 -1       227 1.99990E+01 2.50054E-04 6.96399E-05 3.10180E-03 1.55812E-13 4.54778E-13
 -1       228 2.09434E+01 2.75983E-01-5.07571E-02 1.13389E+00 3.93272E-13 1.36370E-12
 -1       229 1.98879E+01 1.27877E-01 8.56044E-03 4.11602E-01 2.94710E-13 1.06113E-12
 -1       230 1.94284E+01 6.09015E-02 1.29182E-02 1.11846E-01 2.39503E-13 7.83356E-13
 -1       231 1.92787E+01 3.22970E-02 7.84554E-03-3.94784E-02 2.02993E-13 6.13511E-13
 -1       232 1.93079E+01 1.94597E-02 4.09463E-03-1.26064E-01 1.09787E-13 4.81544E-13
 -1       233 1.94480E+01 1.34623E-02 2.22260E-03-1.81669E-01 6.78868E-14 3.61153E-13
 -1       234 1.96634E+01 1.09570E-02 1.34317E-03-2.22615E-01 1.27697E-13 2.73348E-13
 -1       235 1.99359E+01 1.03295E-02 8.67485E-04-2.57525E-01 9.69524E-14 1.88937E-13
 -1       236 2.02566E+01 1.04981E-02 5.31037E-04-2.90703E-01 5.38929E-14 1.25828E-13
 -1       237 2.06203E+01 1.04366E-02 2.19967E-04-3.23081E-01 6.13685E-14 1.25814E-13
 -1       238 2.10215E+01 8.93060E-03-1.16847E-04-3.52103E-01 3.42331E-15 1.16938E-13
 -1       239 2.14498E+01 4.44132E-03-4.84489E-04-3.71052E-01 3.17034E-14 5.48005E-14
 -1       240 2.18847E+01-4.87594E-03-8.25480E-04-3.68254E-01 7.47080E-14 5.78032E-14
 -1       241 2.22910E+01-2.08117E-02-9.97073E-04-3.26883E-01 8.84101E-14-3.11866E-14
 -1       242 2.26154E+01-4.40852E-02-7.87251E-04-2.26831E-01 7.03576E-14-1.00503E-14
 -1       243 2.27871E+01-7.23783E-02-1.20652E-05-5.08573E-02-1.82519E-14-8.40964E-14
 -1       244 2.27288E+01-9.77164E-02 1.26016E-03 2.02801E-01 4.44310E-14-7.51169E-14
 -1       245 2.23815E+01-1.05100E-01 2.40717E-03 5.02261E-01-1.48117E-13-2.65686E-14
 -1       246 2.17453E+01-7.64356E-02 2.34389E-03 7.67581E-01-1.36371E-13-2.57737E-14
 -1       247 2.09206E+01-3.51028E-03 2.06914E-04 8.80556E-01 1.36491E-14 4.32467E-15
 -1       248 2.01196E+01 9.52540E-02-3.36637E-03 7.37931E-01 1.51205E-13-3.04565E-14
 -1       249 1.96085E+01 1.73611E-01-5.78333E-03 3.33913E-01 1.73029E-13-2.06254E-13
 -1       250 1.95823E+01 1.86871E-01-4.80646E-03-2.01425E-01 4.81056E-14-3.84888E-13
 -1       251 2.00552E+01 1.26275E-01-1.01641E-03-6.58967E-01-1.45797E-13-3.48898E-13
 -1       252 2.08485E+01 2.94292E-02 2.61309E-03-8.76935E-01-1.65358E-13-9.00486E-14
 -1       253 2.16977E+01-5.41391E-02 4.08070E-03-8.27075E-01-5.73194E-14-4.13098E-14
 -1       254 2.23803E+01-9.67521E-02 3.20687E-03-5.94374E-01 1.44999E-13-4.05110E-14
 -1       255 2.27836E+01-9.95323E-02 1.17674E-03-2.99625E-01-6.11711E-14-5.05869E-14
 -1       256 2.29003E+01-7.87088E-02-5.69845E-04-3.52012E-02-2.14221E-14-7.60909E-14
 -1       257 2.27863E+01-5.06286E-02-1.47782E-03 1.55184E-01-9.90436E-14-1.79716E-13
 -1       258 2.25199E+01-2.53278E-02-1.59570E-03 2.66056E-01-1.77963E-13-4.74664E-14
 -1       259 2.21742E+01-6.72515E-03-1.24863E-03 3.11861E-01 4.82676E-14-1.66898E-13
 -1       260 2.18057E+01 5.00776E-03-7.49563E-04 3.12737E-01 2.20818E-13-1.04055E-13
 -1       261 2.14520E+01 1.12679E-02-2.88088E-04 2.86925E-01-2.56277E-14-1.24372E-13
 -1       262 2.11345E+01 1.37492E-02 5.62152E-05 2.48132E-01 2.47037E-13-2.72934E-13
 -1       263 2.08631E+01 1.38964E-02 2.73383E-04 2.05454E-01 1.19048E-13-3.34456E-13
 -1       264 2.06395E+01 1.27628E-02 3.85135E-04 1.64307E-01-1.17177E-13-3.13599E-13
 -1       265 2.04609E+01 1.10446E-02 4.21598E-04 1.27510E-01 7.85646E-14-2.25846E-13
 -1       266 2.03223E+01 9.16743E-03 4.10195E-04 9.62040E-02-1.13225E-13 1.39184E-14
 -1       267 2.02175E+01 7.37104E-03 3.71947E-04 7.05249E-02-1.16623E-13 1.45288E-13
 -1       268 2.01404E+01 5.77519E-03 3.21331E-04 5.00595E-02 2.52314E-14 1.19570E-13
 -1       269 2.00854E+01 4.42671E-03 2.67261E-04 3.41362E-02 5.27735E-15 5.60661E-14
 -1       270 2.00478E+01 3.33123E-03 2.14181E-04 2.20005E-02 2.43621E-13-3.29894E-13
 -1       271 2.00234E+01 2.47065E-03 1.63337E-04 1.29156E-02 1.43027E-13-3.69793E-13
 -1       272 2.00088E+01 1.80518E-03 1.14126E-04 6.23111E-03 2.60776E-13-3.82865E-13
 -1       273 2.00014E+01 1.28162E-03 7.22555E-05 1.45901E-03 2.10127E-13-4.96450E-13
 -1       274 1.99988E+01 7.83546E-04 7.98289E-05-1.64580E-03-1.80498E-13-4.96150E-13
 -1       275 1.99990E+01-2.64994E-04 1.57056E-04-2.72271E-03-2.90074E-13-4.76334E-13
 -1       276 2.00003E+01-8.86215E-04 5.16799E-05-2.46217E-03-1.64743E-13 4.66361E-13
 -1       277 2.00011E+01 2.24268E-04 9.08931E-06-1.73574E-04 1.24653E-13 9.38713E-14
 -1       278 2.00010E+01 3.45665E-03 9.53174E-07 2.78522E-03 2.25366E-13 5.70446E-15
 -1       279 2.00005E+01 8.47152E-03 1.32634E-06 4.92033E-03 1.39603E-13 1.35826E-13
 -1       280 1.99998E+01 1.42249E-02-9.84760E-06 5.60708E-03-1.71089E-13-2.15046E-13
 -1       281 1.99992E+01 1.96527E-02-2.31636E-05 4.75395E-03-2.37365E-13-2.78711E-13
 -1       282 1.99988E+01 2.34276E-02-3.42277E-05 2.63446E-03-2.03159E-13-6.24183E-14
 -1       283 1.99986E+01 2.46953E-02-3.81499E-05-1.75022E-04-1.78476E-13-2.98198E-14
 -1       284 1.99988E+01 2.31612E-02-3.37264E-05-2.95661E-03-3.72761E-13-2.31463E-13
 -1       285 1.99992E+01 1.91589E-02-2.25523E-05-4.99307E-03-4.00997E-13-3.79207E-13
 -1       286 1.99999E+01 1.36902E-02-8.28514E-06-5.71461E-03-3.70806E-13-2.15991E-13
 -1       287 2.00005E+01 7.79517E-03 1.33231E-06-4.86943E-03-1.68216E-13 3.74445E-13
 -1       288 2.00010E+01 2.83681E-03-2.05217E-06-2.55374E-03-2.59865E-13-1.30070E-13
 -1       289 2.00010E+01 5.87144E-06 3.61515E-05 3.18834E-04-2.94913E-13-8.39987E-14
 -1       290 2.00011E+01 2.71146E-04 2.28027E-05 2.36530E-03 3.29272E-14 2.62159E-13
 -1       291-7.36742E-01-1.02136E+01-8.93513E-01 1.35083E+00 6.76167E-13 1.15184E-12
 -1       292 2.50493E+00-8.49152E+00-8.11262E-01 3.35260E+00 1.50654E-12 1.45436E-12
 -1       293 9.18715E+00-5.05976E+00-4.57581E-01 5.73795E+00 1.71008E-12 1.35086E-12
 -1       294 1.96440E+01-2.40603E+00-9.04723E-02 6.87490E+00 1.32974E-12 9.59816E-13
 -1       295 2.84848E+01 2.58745E+00 3.12044E-01 7.67908E+00 1.47607E-12 1.34004E-12
 -1       296 3.73358E+01 4.62479E+00 5.34470E-01 5.02300E+00 1.07641E-12 5.72015E-13
 -1       297 4.46702E+01 6.28995E+00 9.30782E-01 3.30996E+00 1.08301E-12 2.19075E-13
 -1       298 4.49122E+01 7.07624E+00 8.59488E-01-4.28001E-01 9.75470E-13-5.32779E-13
 -1       299 4.27962E+01 6.10489E+00 8.24056E-01-3.91137E+00 1.29523E-12-1.01288E-12
 -1       300 3.56682E+01 4.29708E+00 5.68377E-01-6.54874E+00 1.49412E-12-1.43918E-12
 -1       301 2.58522E+01 1.82607E+00 2.18118E-01-7.76330E+00 1.64191E-12-1.66750E-12
 -1       302 1.64124E+01-2.70426E+00-1.87740E-01-6.87256E+00 1.45656E-12-1.50674E-12
 -1       303 6.52742E+00-6.18890E+00-6.26832E-01-4.83317E+00 1.41998E-12-1.58889E-12
 -1       304 1.02573E+00-9.54280E+00-8.93944E-01-2.59299E+00 1.00084E-12-1.06344E-12
 -1       305-1.12806E+00-1.00430E+01-8.45846E-01-5.57565E-01 2.95302E-13-1.13123E-12
 -1       306-1.30674E-01-1.03560E+01-9.46872E-01 1.64997E+00-4.49876E-13-1.04385E-12
 -1       307 5.54824E+00-7.19192E+00-5.52428E-01 4.78865E+00-8.31252E-13-1.32795E-12
 -1       308 1.25660E+01-3.58119E+00-3.96217E-01 6.09914E+00-1.39472E-12-1.73785E-12
 -1       309 2.38647E+01-1.03791E+00 2.01717E-02 6.71095E+00-1.29330E-12-1.20196E-12
 -1       310 3.35738E+01 3.45349E+00 4.99879E-01 7.13930E+00-1.56967E-12-1.52012E-12
 -1       311 4.12819E+01 5.61488E+00 6.97991E-01 3.63896E+00-1.37820E-12-5.64992E-13
 -1       312 4.64572E+01 6.80172E+00 1.00343E+00 1.10744E+00-1.16171E-12-2.99621E-14
 -1       313 4.64395E+01 6.39113E+00 1.07193E+00-2.63918E+00-1.02997E-12 6.85021E-13
 -1       314 3.93465E+01 4.81643E+00 6.59912E-01-4.94234E+00-9.66602E-13 1.10589E-12
 -1       315 3.00640E+01 2.53149E+00 3.58600E-01-7.48640E+00-1.64170E-12 1.40454E-12
 -1       316 1.88991E+01-9.51577E-01-1.31179E-01-7.08140E+00-1.79326E-12 1.48975E-12
 -1       317 9.22223E+00-5.08422E+00-5.54962E-01-5.33583E+00-1.46583E-12 1.64249E-12
 -1       318 2.55380E+00-8.66323E+00-8.39069E-01-3.13683E+00-9.93872E-13 1.45912E-12
 -1       319-7.19164E-01-9.80619E+00-8.25210E-01-1.13909E+00-1.15144E-13 1.46738E-12
 -1       320 2.01764E+01 3.02644E+00-1.77370E-02-2.03767E+00-5.23750E-13-3.77966E-13
 -1       321 2.07726E+01 2.20818E+00-1.75381E-02-2.30058E+00-5.83267E-13-1.47174E-14
 -1       322 1.95977E+01 3.73903E+00-1.53688E-02-1.25026E+00-3.07067E-13-7.17826E-13
 -1       323 1.94595E+01 3.91139E+00-1.33386E-02-8.69161E-01-2.03415E-13-7.70833E-13
 -1       324 1.93766E+01 4.01418E+00-1.22674E-02-5.08824E-01-8.29449E-14-7.71988E-13
 -1       325 1.93382E+01 4.06154E+00-1.18090E-02-1.61666E-01 3.16484E-14-7.66677E-13
 -1       326 1.93395E+01 4.05950E+00-1.18294E-02 1.81274E-01 1.31493E-13-7.43867E-13
 -1       327 1.93807E+01 4.00785E+00-1.23239E-02 5.29082E-01 2.34534E-13-7.30378E-13
 -1       328 1.94648E+01 3.90261E+00-1.34171E-02 8.84215E-01 3.30702E-13-6.74740E-13
 -1       329 1.96073E+01 3.72425E+00-1.54060E-02 1.26510E+00 4.47264E-13-5.71344E-13
 -1       330 1.98353E+01 3.43756E+00-1.86711E-02 1.66457E+00 5.42006E-13-4.29377E-13
 -1       331 2.02092E+01 2.96580E+00-2.27082E-02 2.05492E+00 6.17103E-13-1.99531E-13
 -1       332 2.07651E+01 2.12842E+00-3.01335E-02 2.26030E+00 6.25266E-13 2.81867E-13
 -1       333 2.10959E+01 1.18501E+00-2.44757E-02 1.87245E+00 5.48851E-13 7.08504E-13
 -1       334 2.04221E+01 4.93622E-01 8.57263E-03 8.72817E-01 4.36191E-13 5.21551E-13
 -1       335 2.05024E+01 6.85989E-01 1.27696E-02-9.54357E-01-4.55460E-13 7.41001E-14
 -1       336 2.01184E+01 3.57907E-01 7.43669E-03-3.67269E-01-3.51613E-13 3.24514E-14
 -1       337 1.99148E+01 2.08004E-01 4.53527E-03-2.80590E-02-2.72944E-13-2.96425E-14
 -1       338 1.98459E+01 1.34202E-01 2.42149E-03 1.85420E-01-2.08454E-13-7.96992E-14
 -1       339 1.98776E+01 9.94293E-02 1.47635E-03 3.33159E-01-1.48023E-13-1.16811E-13
 -1       340 1.99852E+01 8.71664E-02 1.14556E-03 4.49443E-01-1.23878E-13-1.54615E-13
 -1       341 2.01536E+01 8.90930E-02 1.09001E-03 5.55387E-01-1.09541E-13-1.75809E-13
 -1       342 2.03751E+01 9.98380E-02 1.14989E-03 6.64324E-01-1.42269E-13-1.65159E-13
 -1       343 2.06469E+01 1.14396E-01 1.22607E-03 7.83691E-01-1.02024E-13-2.14388E-13
 -1       344 2.09689E+01 1.26220E-01 1.21224E-03 9.14743E-01-2.80450E-14-2.53132E-13
 -1       345 2.13424E+01 1.25212E-01 9.63542E-04 1.05043E+00-2.17556E-15-2.04539E-13
 -1       346 2.17685E+01 9.55427E-02 2.87205E-04 1.17140E+00 6.52008E-14-7.43092E-14
 -1       347 2.22473E+01 1.42005E-02-1.02426E-03 1.24039E+00 5.24329E-14-9.15707E-14
 -1       348 2.27758E+01-1.46581E-01-3.05915E-03 1.19663E+00-5.54542E-15-7.71414E-14
 -1       349 2.33435E+01-4.06054E-01-5.44736E-03 9.55549E-01 6.58510E-14-2.11578E-14
 -1       350 2.39186E+01-7.40396E-01-7.31661E-03 4.25987E-01 6.16401E-14-7.22870E-14
 -1       351 2.44169E+01-1.02251E+00-7.04231E-03-4.28410E-01 1.22711E-13 1.20685E-13
 -1       352 2.46827E+01-1.00056E+00-7.11423E-03-1.47614E+00-3.76474E-14 2.33941E-13
 -1       353 2.45320E+01-3.82505E-01-8.23531E-03-2.28709E+00-1.41036E-13 1.61555E-13
 -1       354 2.39762E+01 7.73691E-01-1.67147E-02-2.20487E+00-1.79796E-13 1.31232E-13
 -1       355 2.34374E+01 1.79372E+00-1.92334E-02-9.29900E-01-2.73162E-13-2.88372E-14
 -1       356 2.34390E+01 1.79900E+00-1.83045E-02 9.61992E-01-3.98508E-13-3.41688E-13
 -1       357 2.39937E+01 7.68523E-01-1.38658E-02 2.22863E+00-3.09224E-13-6.12202E-13
 -1       358 2.45561E+01-3.87331E-01-8.06614E-03 2.30185E+00-7.47150E-14-7.07822E-13
 -1       359 2.47119E+01-9.98352E-01-7.54401E-03 1.49112E+00 5.96649E-14-6.24321E-13
 -1       360 2.44564E+01-1.01580E+00-8.23942E-03 4.49775E-01 6.96088E-14-5.38963E-13
 -1       361 2.39719E+01-7.27309E-01-7.87342E-03-3.93252E-01 5.28971E-14-5.40912E-13
 -1       362 2.34167E+01-3.91364E-01-5.56018E-03-9.07869E-01 1.62745E-13-5.14025E-13
 -1       363 2.28731E+01-1.30630E-01-2.94457E-03-1.13300E+00 1.13562E-13-3.43998E-13
 -1       364 2.23738E+01 3.16944E-02-8.42917E-04-1.15921E+00 2.05806E-13-9.58681E-14
 -1       365 2.19297E+01 1.14600E-01 4.91791E-04-1.07119E+00 1.18679E-13-3.62392E-15
 -1       366 2.15438E+01 1.45426E-01 1.17855E-03-9.30189E-01 4.17739E-14-1.20130E-16
 -1       367 2.12151E+01 1.46603E-01 1.42413E-03-7.74492E-01-8.69292E-15 6.55966E-14
 -1       368 2.09408E+01 1.33152E-01 1.41111E-03-6.25291E-01-8.81238E-14 1.47358E-13
 -1       369 2.07161E+01 1.14001E-01 1.26898E-03-4.92673E-01-2.16444E-13-1.85558E-14
 -1       370 2.05357E+01 9.39756E-02 1.07780E-03-3.80156E-01-4.54273E-14-9.13151E-14
 -1       371 2.03932E+01 7.54246E-02 8.81764E-04-2.87691E-01-3.94580E-14-3.16025E-13
 -1       372 2.02828E+01 5.93046E-02 7.02376E-04-2.13491E-01 7.84596E-14-1.02731E-13
 -1       373 2.01987E+01 4.58404E-02 5.48120E-04-1.55076E-01-9.99719E-14 1.69620E-13
 -1       374 2.01359E+01 3.49002E-02 4.20500E-04-1.09839E-01 5.67122E-14 1.68631E-13
 -1       375 2.00901E+01 2.61988E-02 3.17630E-04-7.53329E-02 2.33004E-13 7.64792E-14
 -1       376 2.00574E+01 1.94024E-02 2.36350E-04-4.93950E-02-4.70424E-14 4.61677E-13
 -1       377 2.00348E+01 1.41646E-02 1.71757E-04-3.01961E-02 7.83180E-16 3.25145E-13
 -1       378 2.00197E+01 1.01227E-02 1.22121E-04-1.62822E-02 5.17280E-14 2.82202E-13
 -1       379 2.00100E+01 6.83902E-03 9.42524E-05-6.53834E-03 3.99908E-13 4.93920E-13
 -1       380 2.00044E+01 3.68458E-03 2.43707E-05-6.60599E-04 4.49284E-13 3.95914E-13
 -1       381 1.99601E+01 2.38717E-01 1.10133E-02 3.31661E-01 3.52571E-13 4.04468E-13
 -1       382 1.97232E+01 1.31451E-01 6.49823E-03 3.25195E-02 2.74057E-13 2.91897E-13
 -1       383 1.96561E+01 7.98655E-02 3.24897E-03-1.45292E-01 1.84005E-13 2.14792E-13
 -1       384 1.97041E+01 5.45037E-02 1.73821E-03-2.60265E-01 1.32098E-13 1.22501E-13
 -1       385 1.98330E+01 4.27665E-02 1.12342E-03-3.43102E-01 1.82963E-13 9.75500E-15
 -1       386 2.00222E+01 3.83739E-02 8.60118E-04-4.10481E-01 1.30152E-13-3.41713E-16
 -1       387 2.02601E+01 3.72162E-02 7.05091E-04-4.71085E-01 9.98399E-14-7.13045E-14
 -1       388 2.05394E+01 3.56180E-02 5.36592E-04-5.27631E-01 2.81324E-14-7.22102E-14
 -1       389 2.08542E+01 2.94743E-02 2.64229E-04-5.77099E-01 3.86487E-14 6.22251E-16
 -1       390 2.11969E+01 1.38191E-02-1.92300E-04-6.10027E-01 2.44641E-14-6.58387E-15
 -1       391 2.15549E+01-1.70766E-02-8.89687E-04-6.09576E-01 1.28994E-13-2.82477E-14
 -1       392 2.19077E+01-6.85546E-02-1.82180E-03-5.51392E-01 8.83105E-14 3.99818E-14
 -1       393 2.22236E+01-1.42475E-01-2.85959E-03-4.06208E-01 2.24399E-14 6.42840E-14
 -1       394 2.24586E+01-2.31445E-01-3.72932E-03-1.48180E-01 1.28587E-13 7.85043E-14
 -1       395 2.25580E+01-3.11175E-01-3.98089E-03 2.27929E-01 6.35364E-15-3.08133E-14
 -1       396 2.24668E+01-3.36212E-01-3.23909E-03 6.80902E-01-7.06924E-14 1.23807E-14
 -1       397 2.21532E+01-2.50872E-01-1.60252E-03 1.09941E+00-1.36864E-13-8.01104E-14
 -1       398 2.16488E+01-2.65394E-02 5.07006E-04 1.30894E+00-2.32496E-14-1.20572E-13
 -1       399 2.10832E+01 2.86076E-01 2.05525E-03 1.14181E+00 2.41066E-14-8.89974E-14
 -1       400 2.06709E+01 5.43400E-01 3.18306E-03 5.65069E-01 3.00972E-13-2.71613E-14
 -1       401 2.05997E+01 6.01224E-01 4.92355E-03-2.40133E-01 7.53928E-14-1.34919E-13
 -1       402 2.09100E+01 4.18780E-01 5.52895E-03-9.51612E-01-1.49554E-13-2.28236E-13
 -1       403 2.14562E+01 1.09923E-01 3.59490E-03-1.30497E+00-2.12033E-13-3.16963E-13
 -1       404 2.20186E+01-1.64783E-01 5.97048E-04-1.24481E+00-3.42926E-14-4.22244E-13
 -1       405 2.24281E+01-3.10835E-01-2.29829E-03-8.96919E-01 8.24672E-14-2.15151E-13
 -1       406 2.26186E+01-3.26767E-01-4.16310E-03-4.47028E-01-4.24298E-14-1.82638E-13
 -1       407 2.26053E+01-2.62896E-01-4.41356E-03-3.82444E-02 1.07963E-14 1.49387E-13
 -1       408 2.24402E+01-1.72217E-01-3.64413E-03 2.60334E-01-8.56064E-15 2.77757E-13
 -1       409 2.21813E+01-8.84359E-02-2.42462E-03 4.37763E-01-4.66351E-14-1.28407E-13
 -1       410 2.18781E+01-2.55511E-02-1.22856E-03 5.14093E-01 5.19728E-14-2.78617E-13
 -1       411 2.15671E+01 1.49755E-02-2.95626E-04 5.19017E-01 2.33252E-14-1.16562E-13
 -1       412 2.12723E+01 3.72205E-02 3.24430E-04 4.80263E-01 1.62728E-13 7.35844E-14
 -1       413 2.10077E+01 4.65579E-02 6.70529E-04 4.19239E-01 1.88307E-13-7.83306E-14
 -1       414 2.07797E+01 4.77392E-02 8.14976E-04 3.50570E-01 2.00636E-13 5.92093E-14
 -1       415 2.05896E+01 4.43174E-02 8.28199E-04 2.83262E-01-1.19229E-13 1.41969E-13
 -1       416 2.04356E+01 3.86940E-02 7.66010E-04 2.22232E-01 1.41457E-14-1.89411E-15
 -1       417 2.03138E+01 3.23709E-02 6.67535E-04 1.69663E-01-2.92088E-13 2.16164E-14
 -1       418 2.02199E+01 2.62160E-02 5.57779E-04 1.26046E-01-1.67232E-13 1.38034E-13
 -1       419 2.01493E+01 2.06790E-02 4.51318E-04 9.09056E-02 6.11311E-14 3.05833E-13
 -1       420 2.00975E+01 1.59490E-02 3.55666E-04 6.32806E-02 1.21321E-13 3.19206E-13
 -1       421 2.00606E+01 1.20621E-02 2.73322E-04 4.20254E-02 3.75644E-13 1.77394E-13
 -1       422 2.00354E+01 8.96491E-03 2.03650E-04 2.59902E-02 2.49734E-13 2.47880E-13
 -1       423 2.00189E+01 6.52827E-03 1.45572E-04 1.41383E-02 2.41987E-13 6.43149E-15
 -1       424 2.00089E+01 4.54826E-03 9.31187E-05 5.67990E-03 2.07719E-13 2.56841E-13
 -1       425 2.00033E+01 2.64776E-03 5.69425E-05 1.71744E-04-1.72953E-13 4.52930E-13
 -1       426 2.00015E+01 1.23115E-03 1.92658E-05-1.67830E-03-2.25688E-13 3.24573E-13
 -1       427 2.00031E+01 1.61571E-02 2.63393E-05 9.36434E-03 1.75394E-13 4.51103E-14
 -1       428 2.00045E+01 9.30363E-03 3.29556E-05 5.48959E-03-8.71408E-16 3.08840E-13
 -1       429 2.00037E+01 4.34864E-03 2.96450E-05 1.36264E-03-2.40309E-13 6.40858E-13
 -1       430 2.00008E+01 2.34897E-02 8.10910E-06 1.12061E-02-8.83549E-15-6.32806E-13
 -1       431 1.99983E+01 3.04496E-02-1.09342E-05 1.04704E-02-5.86880E-14-1.82440E-13
 -1       432 1.99962E+01 3.58128E-02-2.72611E-05 7.30193E-03 1.54855E-13-2.84839E-14
 -1       433 1.99951E+01 3.87047E-02-3.64967E-05 2.45392E-03-3.55174E-13-1.22132E-13
 -1       434 1.99952E+01 3.86401E-02-3.63075E-05-2.96979E-03-2.40412E-13-8.60958E-14
 -1       435 1.99964E+01 3.56190E-02-2.64750E-05-7.74165E-03-1.06396E-13-3.39858E-13
 -1       436 1.99984E+01 3.02535E-02-9.64723E-06-1.07241E-02-9.26959E-14-2.69332E-13
 -1       437 2.00010E+01 2.32261E-02 7.56447E-06-1.12923E-02 1.58338E-13 5.67809E-13
 -1       438 2.00033E+01 1.57527E-02 2.28488E-05-9.20277E-03 2.83440E-13 1.35462E-13
 -1       439 2.00047E+01 8.75419E-03 2.63729E-05-4.99097E-03 1.17017E-13-4.19144E-13
 -1       440 9.66692E+00-5.39352E+00-4.98659E-02 6.82611E+00 2.15869E-13 7.48852E-13
 -1       441 1.03218E+00-4.49427E+00-7.90675E-02 3.02980E-01-4.41730E-14 1.66542E-12
 -1       442 3.89948E+00-4.62348E+00-4.29928E-02 4.60678E+00-1.45717E-14 1.26207E-12
 -1       443 1.81808E+01-5.39266E+00 2.30545E-02 6.88058E+00 2.30371E-13 1.35662E-13
 -1       444 2.67504E+01-2.54384E+00 2.30316E-02 4.37430E+00 5.95288E-13-1.58221E-13
 -1       445 1.98306E+01 3.45989E+00-1.74926E-02-1.66362E+00-4.31452E-13-6.07970E-13
 -1       446 3.43106E+01 5.50952E+00 2.77714E-02-2.41585E-01 1.04280E-12-6.40377E-13
 -1       447 3.48563E+01 7.77623E+00-4.88026E-03-2.26766E-01 1.18665E-12-6.59729E-13
 -1       448 3.32133E+01 7.26781E+00-9.49950E-02 6.52458E-01 1.16304E-12-6.90642E-13
 -1       449 3.42239E+01 4.14538E+00 4.48051E-02-5.40201E-01 1.12658E-12-5.16948E-13
 -1       450 3.05609E+01-3.31618E-01 2.98977E-02-2.75015E+00 7.88425E-13-4.64823E-13
 -1       451 2.48378E+01-3.29996E+00 8.56159E-03-5.15738E+00 5.26815E-13-3.75922E-13
 -1       452 1.57709E+01-5.44408E+00 6.92766E-03-7.17710E+00 1.83728E-13-8.36627E-13
 -1       453 7.49285E+00-5.37314E+00-6.80054E-02-6.31802E+00 1.09357E-13-1.16866E-12
 -1       454 2.37885E+00-4.63277E+00-7.31071E-02-3.36131E+00 1.19592E-13-9.80979E-13
 -1       455 1.32535E+00-4.76548E+00-1.05623E-01 1.62446E+00 4.01970E-14-1.26515E-12
 -1       456 5.18220E+00-5.06918E+00-6.06404E-02 5.08997E+00 2.43694E-14-1.19438E-12
 -1       457 1.39528E+01-5.70099E+00-6.15856E-02 6.85649E+00-9.00113E-14-1.02274E-12
 -1       458 2.17333E+01-5.05627E+00-2.90395E-02 5.94116E+00-1.54474E-13-5.75109E-13
 -1       459 2.99201E+01-1.57720E+00 2.88755E-04 2.75298E+00-6.98497E-13-2.84522E-13
 -1       460 3.39591E+01 2.39938E+00 2.67063E-02 3.75651E-01-1.15777E-12-7.42045E-14
 -1       461 3.44682E+01 6.89558E+00-1.03131E-02-8.21543E-01-1.44382E-12-1.60337E-13
 -1       462 3.70793E+01 7.88409E+00 1.23613E-01 1.19606E-01-1.26615E-12-7.20136E-14
 -1       463 3.55738E+01 5.73926E+00 6.51201E-02 4.37915E-01-9.51711E-13 7.28861E-14
 -1       464 3.26575E+01 6.53668E-01 1.63261E-02-1.18641E+00-8.21888E-13 3.36009E-13
 -1       465 2.73018E+01-3.14962E+00-1.30418E-03-4.18552E+00-7.88425E-13 3.50206E-13
 -1       466 1.93781E+01-5.55721E+00-2.69460E-02-6.43065E+00-1.69517E-13 4.17874E-13
 -1       467 1.06915E+01-5.53958E+00-2.53262E-02-6.75906E+00 1.38348E-13 1.10344E-12
 -1       468 4.31514E+00-4.48316E+00-8.27142E-03-4.52474E+00 1.21514E-13 1.25415E-12
 -1       469 3.17043E+01 7.38077E-01 2.23603E-02 1.91883E+00 6.43574E-13-1.79495E-13
 -1       470 2.38099E+01-5.39433E+00 1.20424E-03 4.85001E+00 1.16046E-13-3.81108E-13
 -1       471 2.71061E+01-4.68835E+00-3.00250E-02 3.05206E+00-1.80939E-13-1.66506E-13
 -1       472 1.15864E+01-4.73443E+00 6.68315E-02 6.75086E+00 3.00940E-13-1.00926E-12
 -1       473 2.21420E+01-5.62491E+00 1.19065E-02-5.65499E+00-1.07178E-13-2.69087E-13
 -1       474 2.04273E+01 8.53585E-01 4.09374E-03 8.81983E-01 4.45729E-13 5.61902E-14
 -1       475 1.97048E+01 3.21077E+00-5.16943E-03-5.75791E-01-1.33606E-13-6.98417E-13
 -1       476 1.98231E+01 3.01722E+00-5.59716E-03-8.70175E-01-2.43697E-13-6.70147E-13
 -1       477 1.96168E+01 3.34991E+00-4.82103E-03 7.48898E-03 7.00321E-14-6.74553E-13
 -1       478 1.96409E+01 3.31151E+00-4.91132E-03 2.98077E-01 1.70285E-13-6.60226E-13
 -1       479 1.97096E+01 3.20119E+00-5.25571E-03 5.86727E-01 2.65637E-13-6.32629E-13
 -1       480 1.98294E+01 3.00312E+00-5.83927E-03 8.81850E-01 3.87175E-13-5.46019E-13
 -1       481 2.00072E+01 2.69390E+00-6.46687E-03 1.16576E+00 4.64792E-13-4.71968E-13
 -1       482 2.02661E+01 2.22355E+00-5.67273E-03 1.40935E+00 5.22588E-13-2.83788E-13
 -1       483 2.01978E+01 4.89132E-01 5.24596E-03 3.48500E-01 3.70828E-13 2.46391E-14
 -1       484 2.04017E+01 1.00918E+00 2.86577E-03-8.33581E-01-4.01313E-13-2.00055E-13
 -1       485 3.06709E+01 2.02893E+00-1.08060E-01-1.19618E+00 6.80664E-13-8.13960E-13
 -1       486 2.02575E+01 6.02022E-01 2.48163E-03-3.27366E-01-3.35667E-13-2.08907E-13
 -1       487 2.01471E+01 3.83422E-01 1.30153E-03 2.11629E-02-2.63050E-13-2.01727E-13
 -1       488 2.00945E+01 2.68406E-01 7.22502E-04 2.65818E-01-2.12793E-13-2.19847E-13
 -1       489 2.00965E+01 2.13559E-01 4.96056E-04 4.50117E-01-1.58650E-13-2.40367E-13
 -1       490 2.01448E+01 1.96708E-01 4.45450E-04 6.04299E-01-1.28427E-13-2.59163E-13
 -1       491 2.02317E+01 2.04445E-01 4.68565E-04 7.49155E-01-9.13515E-14-2.94444E-13
 -1       492 2.03519E+01 2.26350E-01 5.20021E-04 8.98301E-01-1.33116E-13-2.06743E-13
 -1       493 2.05029E+01 2.51265E-01 5.61209E-04 1.05891E+00-1.04552E-13-2.31383E-13
 -1       494 2.06858E+01 2.63942E-01 5.41381E-04 1.23100E+00 3.75082E-14-2.26795E-13
 -1       495 2.09076E+01 2.41371E-01 3.82758E-04 1.40523E+00 6.19028E-14-2.37872E-13
 -1       496 2.11844E+01 1.49206E-01-2.82006E-05 1.55900E+00 4.37203E-14-2.74478E-13
 -1       497 2.15471E+01-5.92082E-02-8.17409E-04 1.65058E+00 7.14797E-14-1.86738E-13
 -1       498 2.20460E+01-4.34170E-01-1.95493E-03 1.61152E+00 8.23077E-14-1.21071E-14
 -1       499 2.27435E+01-9.96483E-01-2.85617E-03 1.34039E+00 8.68966E-14 1.14101E-13
 -1       500 2.36851E+01-1.66301E+00-2.73313E-03 7.05786E-01 2.00582E-13 1.64033E-13
 -1       501 2.47790E+01-2.09897E+00-1.39661E-03-3.63570E-01 1.93774E-13 2.76277E-13
 -1       502 2.57145E+01-1.71965E+00-1.71381E-02-1.74523E+00-1.22979E-14 5.88648E-13
 -1       503 2.59931E+01 8.19918E-03-2.86954E-02-2.69481E+00-2.47735E-13 5.58157E-13
 -1       504 2.54577E+01 2.58757E+00-1.00710E-01-2.19223E+00-5.26346E-13 1.84228E-13
 -1       505 2.54559E+01 3.69687E+00-6.54461E-02-5.08143E-03-5.94377E-13-2.93506E-13
 -1       506 2.54221E+01 2.56141E+00-1.11047E-01 2.25069E+00-6.89442E-13-6.09551E-13
 -1       507 2.60238E+01 1.33659E-02-4.13684E-02 2.71451E+00-2.07608E-13-7.05839E-13
 -1       508 2.57165E+01-1.71611E+00-1.63765E-02 1.75441E+00 5.45245E-14-6.37678E-13
 -1       509 2.47888E+01-2.08772E+00-5.16466E-03 3.92493E-01 1.07691E-13-6.67161E-13
 -1       510 2.37041E+01-1.63577E+00-4.70504E-03-6.70986E-01 6.40210E-14-4.42473E-13
 -1       511 2.27810E+01-9.68728E-01-3.43754E-03-1.28579E+00 1.80752E-13-2.52791E-13
 -1       512 2.20971E+01-4.03480E-01-2.02885E-03-1.53924E+00 1.98490E-13-3.21508E-13
 -1       513 2.16140E+01-2.56039E-02-7.50780E-04-1.55843E+00 3.39402E-13-1.58086E-13
 -1       514 2.12689E+01 1.85606E-01 5.17370E-05-1.44537E+00 9.14765E-14-3.05350E-13
 -1       515 2.10112E+01 2.79812E-01 4.63165E-04-1.26920E+00 1.67436E-13-2.91280E-13
 -1       516 2.08090E+01 3.02605E-01 6.24790E-04-1.07288E+00 1.22448E-13 1.18985E-14
 -1       517 2.06447E+01 2.86787E-01 6.43317E-04-8.81216E-01-8.26680E-14 6.26742E-14
 -1       518 2.05090E+01 2.53160E-01 5.89601E-04-7.07112E-01-7.74433E-14-7.28608E-14
 -1       519 2.03968E+01 2.13791E-01 5.06431E-04-5.56075E-01-7.07962E-14-7.97283E-14
 -1       520 2.03047E+01 1.75108E-01 4.17455E-04-4.29234E-01-2.50869E-13-8.77632E-14
 -1       521 2.02301E+01 1.40167E-01 3.34407E-04-3.25317E-01 1.01111E-13-1.12228E-13
 -1       522 2.01707E+01 1.10128E-01 2.62179E-04-2.41879E-01 1.86236E-13-6.44924E-14
 -1       523 2.01242E+01 8.51381E-02 2.02026E-04-1.76042E-01 8.72982E-14 1.96382E-13
 -1       524 2.00885E+01 6.48444E-02 1.53078E-04-1.24914E-01-7.93803E-14 1.20669E-13
 -1       525 2.00614E+01 4.86764E-02 1.14072E-04-8.58226E-02 1.52787E-13-1.91440E-13
 -1       526 2.00414E+01 3.59949E-02 8.39529E-05-5.64189E-02-5.83304E-14-1.84852E-13
 -1       527 2.00268E+01 2.60991E-02 6.13342E-05-3.47189E-02-3.80072E-14 6.29942E-14
 -1       528 2.00163E+01 1.82507E-02 5.05300E-05-1.91772E-02 3.63656E-13-2.04223E-14
 -1       529 1.99944E+01 1.94752E-01 1.29583E-03-2.20579E-01 2.11152E-13-2.38610E-14
 -1       530 2.00078E+01 1.41794E-01 7.46183E-04-3.80504E-01 2.41226E-13-7.34392E-14
 -1       531 2.00788E+01 1.16173E-01 5.35312E-04-5.03043E-01 2.04328E-13-1.39468E-13
 -1       532 2.01964E+01 1.05106E-01 4.42253E-04-6.06054E-01 1.12487E-13-1.66489E-13
 -1       533 2.03534E+01 9.87909E-02 3.70825E-04-6.98671E-01 6.97637E-14-1.01875E-13
 -1       534 2.05458E+01 8.76197E-02 2.61052E-04-7.82456E-01 4.48373E-14-1.35162E-13
 -1       535 2.07716E+01 6.06925E-02 5.68243E-05-8.51194E-01 3.72294E-14-1.06730E-13
 -1       536 2.10303E+01 5.34197E-03-2.96207E-04-8.89950E-01 8.32978E-15-3.29591E-14
 -1       537 2.13214E+01-9.17131E-02-8.37185E-04-8.74133E-01 5.25784E-14 2.65763E-14
 -1       538 2.16426E+01-2.40066E-01-1.55175E-03-7.69870E-01-5.12337E-15 8.75893E-14
 -1       539 2.19848E+01-4.36062E-01-2.29776E-03-5.38267E-01 1.45824E-14 1.55463E-13
 -1       540 2.23241E+01-6.47166E-01-2.85788E-03-1.47964E-01 3.73105E-14 2.52198E-13
 -1       541 2.26104E+01-7.94804E-01-2.71549E-03 3.99130E-01-8.04261E-16 3.37092E-13
 -1       542 2.27631E+01-7.53064E-01-1.71908E-03 1.02734E+00-6.48179E-14 3.15333E-13
 -1       543 2.26963E+01-3.98217E-01-8.44102E-04 1.54903E+00-1.23773E-13 2.80543E-13
 -1       544 2.23926E+01 2.74690E-01-5.00067E-04 1.68822E+00 1.01564E-13 1.75650E-13
 -1       545 2.19908E+01 1.02728E+00-1.84908E-03 1.21825E+00 2.02693E-13-1.10508E-13
 -1       546 2.17526E+01 1.45326E+00-1.14549E-03 2.25026E-01 1.58206E-13-6.95198E-14
 -1       547 2.18704E+01 1.26165E+00 2.33697E-03-8.83895E-01 5.02638E-14-9.71770E-14
 -1       548 2.22419E+01 5.93279E-01 8.33419E-04-1.59517E+00 7.50987E-14-3.39150E-13
 -1       549 2.26167E+01-1.50267E-01 1.45413E-04-1.68997E+00-9.96561E-15-5.87412E-13
 -1       550 2.27934E+01-6.43585E-01-1.02514E-03-1.29443E+00 2.10832E-14-6.32019E-13
 -1       551 2.27304E+01-7.97023E-01-2.81719E-03-6.89030E-01-3.91102E-14-6.34351E-13
 -1       552 2.25004E+01-7.05333E-01-3.11856E-03-1.06607E-01-3.02414E-13-2.86612E-13
 -1       553 2.21910E+01-5.03823E-01-2.74836E-03 3.35991E-01-1.46098E-13-1.27222E-13
 -1       554 2.18653E+01-2.91832E-01-1.91886E-03 6.12137E-01 8.29603E-14-5.87753E-14
 -1       555 2.15569E+01-1.19226E-01-1.03754E-03 7.44087E-01 1.01811E-13-3.49659E-14
 -1       556 2.12794E+01 5.72652E-04-3.41968E-04 7.70375E-01-1.17691E-14 7.31751E-15
 -1       557 2.10366E+01 7.26591E-02 1.32148E-04 7.28689E-01-6.56434E-14 7.38763E-14
 -1       558 2.08279E+01 1.08573E-01 4.04911E-04 6.49328E-01 3.66519E-13 2.12143E-13
 -1       559 2.06516E+01 1.20078E-01 5.28539E-04 5.53933E-01 5.76687E-16 1.77140E-13
 -1       560 2.05048E+01 1.16707E-01 5.53428E-04 4.56582E-01 7.33864E-15 3.11865E-13
 -1       561 2.03845E+01 1.05316E-01 5.20202E-04 3.65576E-01 5.40983E-14 2.63661E-13
 -1       562 2.02877E+01 9.04474E-02 4.57773E-04 2.85160E-01-5.02026E-15 1.81485E-13
 -1       563 2.02111E+01 7.49019E-02 3.84912E-04 2.16912E-01-2.38948E-13-3.29680E-14
 -1       564 2.01516E+01 6.02678E-02 3.12728E-04 1.60773E-01-1.35214E-13-5.89066E-14
 -1       565 2.01063E+01 4.73340E-02 2.47005E-04 1.15773E-01-3.19479E-14 1.35022E-13
 -1       566 2.00725E+01 3.63898E-02 1.90347E-04 8.05111E-02 2.29189E-13 1.48978E-13
 -1       567 2.00478E+01 2.74324E-02 1.42205E-04 5.34606E-02 3.31578E-13 4.02078E-13
 -1       568 2.00302E+01 2.02562E-02 1.07953E-04 3.31646E-02 3.45194E-13 4.18913E-13
 -1       569 2.00179E+01 1.45113E-02 8.92077E-05 1.83582E-02-6.16096E-14 5.05440E-13
 -1       570 2.00096E+01 9.54328E-03 6.20438E-05 8.01622E-03-1.68607E-13 7.26190E-13
 -1       571 1.99983E+01 4.14776E-02-2.02247E-06 1.83507E-02 1.39222E-13-2.98666E-13
 -1       572 1.99934E+01 4.98565E-02-9.12607E-06 1.46038E-02 2.91441E-13-4.00378E-14
 -1       573 2.00079E+01 2.09324E-02-7.55758E-06 1.51098E-02-7.70690E-14 1.25057E-13
 -1       574 2.00036E+01 3.14212E-02 3.64312E-06 1.84897E-02-6.49835E-14-3.16176E-13
 -1       575 1.99901E+01 5.53843E-02-1.48896E-05 7.95530E-03-5.71393E-14-4.02144E-13
 -1       576 1.99889E+01 5.73196E-02-1.73396E-05-2.89527E-04-1.24684E-13 1.50700E-13
 -1       577 1.99902E+01 5.53816E-02-1.50256E-05-8.50681E-03-1.00412E-13-1.75131E-13
 -1       578 1.99937E+01 4.99406E-02-9.20415E-06-1.49619E-02 6.91487E-14-3.13931E-13
 -1       579 1.99987E+01 4.15181E-02-5.21046E-06-1.85576E-02 2.43398E-13 1.09102E-13
 -1       580 2.00040E+01 3.13836E-02-6.48103E-06-1.84717E-02 1.38196E-13 2.13575E-13
 -1       581 2.00082E+01 2.09033E-02 1.82349E-05-1.48831E-02 8.01940E-14-2.09028E-13
 -1       582 5.24259E+00-1.46138E+00 1.71095E-01 2.60798E+00-3.32706E-13 1.38034E-12
 -1       583 1.56001E+01-4.61560E+00 1.09501E-01 6.79599E+00-3.09301E-13 2.78132E-13
 -1       584 2.00535E+01 2.96406E-01 2.67654E-03 6.37462E-03 2.78265E-13-9.80601E-15
 -1       585 4.98548E+00-1.52419E+00 1.66377E-01-2.07728E+00-7.33892E-14 1.28927E-12
 -1       586 1.00788E+01-3.08277E+00 1.57899E-01 6.17094E+00-3.47826E-13 8.79657E-13
 -1       587 2.04367E+01 1.77881E+00-5.99147E-03-1.44915E+00-4.91053E-13-2.94908E-13
 -1       588 1.03732E+01-3.40883E+00 1.42401E-01-6.07540E+00 4.72518E-13 1.00030E-12
 -1       589 4.59239E+00-1.34000E+00 1.80959E-01-8.47741E-01-6.85780E-14-1.14814E-12
 -1       590 3.02896E+01 5.67722E-01-9.61787E-02 7.29993E-01 5.24816E-13-2.61874E-14
 -1       591 1.96377E+01 3.31745E+00-4.90667E-03-2.82873E-01-2.86831E-14-6.92136E-13
 -1       592 3.00260E+01 4.39052E+00-1.49472E-01 1.76333E+00 8.06966E-13-1.11501E-13
 -1       593 3.02401E+01 6.07436E+00-1.55431E-01-1.37903E+00 1.14272E-12-8.86041E-13
 -1       594 1.37616E+01-4.43916E+00 1.16592E-01-6.93386E+00-4.31336E-13-8.58064E-13
 -1       595 2.92482E+01 7.16349E+00-1.85320E-01-2.50675E-03 9.86877E-13-5.42263E-13
 -1       596 2.78608E+01-3.65514E+00-4.35317E-02-1.93868E+00 1.30531E-13-3.05866E-14
 -1       597 2.99710E+01 6.94385E+00-1.70748E-01-2.40706E-01-1.20751E-12-2.98326E-13
 -1       598 7.95247E+00-2.94575E+00 1.41304E-01-5.56662E+00-1.72196E-13-8.14099E-13
 -1       599 5.90079E+00-2.26474E+00 1.60908E-01 3.69997E+00 1.80942E-13-1.13355E-12
 -1       600 2.00887E+01-5.66332E+00 5.38630E-02 6.08975E+00 3.60920E-13-4.46840E-13
 -1       601 3.02989E+01-1.29819E+00-1.10741E-01-7.49337E-01-5.98341E-13 1.95101E-13
 -1       602 2.98747E+01 2.88103E+00-1.68129E-01-2.53401E+00-9.71216E-13 3.61398E-13
 -1       603 3.03743E+01 5.95528E+00-1.56914E-01 1.44491E+00-1.06395E-12-5.02695E-13
 -1       604 3.09896E+01 1.97356E+00-1.46356E-01 1.98382E+00-6.35957E-13-3.85705E-13
 -1       605 2.92906E+01-3.06251E+00-8.19605E-02-4.61643E-01-2.24976E-13-4.10921E-13
 -1       606 2.53376E+01-5.36462E+00 1.28957E-02-3.79687E+00-1.71391E-14-1.04777E-15
 -1       607 1.77462E+01-5.26213E+00 7.77929E-02-6.44239E+00 3.58956E-13 4.44863E-13
 -1       608 2.88326E+01-2.53039E+00-6.06739E-02 1.19233E+00 2.72374E-13-6.63844E-13
 -1       609 2.06189E+01 1.31433E+00-9.21924E-04 1.47490E+00 5.55147E-13 1.34073E-13
 -1       610 2.75761E+01 5.74631E+00-1.38327E-01 1.32907E+00 7.56062E-13-6.39610E-14
 -1       611 1.99897E+01 2.71200E+00-9.59024E-03-1.14744E+00-3.50443E-13-5.86594E-13
 -1       612 2.01654E+01-5.07856E+00 5.43123E-02 5.70564E+00-1.90174E-13-2.01020E-13
 -1       613 2.42039E+01-5.38624E+00-2.36780E-02 3.81635E+00 3.41522E-13-1.05740E-13
 -1       614 1.89489E+01-5.07962E+00 6.09733E-02-6.18213E+00-4.80053E-13-2.54952E-13
 -1       615 1.03544E+01-2.60799E+00 1.40426E-01 5.46730E+00 2.87943E-13-9.94704E-13
 -1       616 2.00109E+01 1.34809E-02 4.15164E-05-1.12928E-02 2.49332E-13-1.07876E-13
 -1       617 1.98967E+01 2.60513E+00-1.53557E-03 3.33733E-01 1.89321E-13-5.42485E-13
 -1       618 1.98501E+01 2.69298E+00-1.45547E-03 1.13378E-01 9.33722E-14-5.89646E-13
 -1       619 2.01141E+01 2.15011E+00-1.58331E-03 7.39289E-01 3.66698E-13-4.56039E-13
 -1       620 2.02640E+01 1.74794E+00-2.20482E-03 8.74849E-01 4.08490E-13-3.40476E-13
 -1       621 2.03712E+01 1.09083E+00 2.87282E-03 7.09149E-01 4.15555E-13-1.60409E-13
 -1       622 2.77203E+01-1.89962E+00-7.21931E-02 7.08741E-01 2.35506E-14 2.21018E-13
 -1       623 2.27123E+01-5.08715E+00 4.96509E-02-4.23400E+00 3.91413E-13-1.86154E-13
 -1       624 2.79898E+01-9.92114E-01-7.00408E-02-1.35243E+00 4.16563E-13-7.35325E-13
 -1       625 2.02958E+01 7.86347E-01 6.45330E-04-2.10115E-01-2.90137E-13-3.14419E-13
 -1       626 2.02387E+01 5.42300E-01 2.72502E-04 1.05166E-01-2.39747E-13-2.81301E-13
 -1       627 2.01912E+01 4.08513E-01 1.59593E-04 3.45700E-01-1.71165E-13-2.33863E-13
 -1       628 2.01610E+01 3.46727E-01 1.28910E-04 5.39790E-01-1.63861E-13-2.62487E-13
 -1       629 2.01474E+01 3.33616E-01 1.33892E-04 7.10663E-01-1.33987E-13-2.86331E-13
 -1       630 2.01472E+01 3.52223E-01 1.56877E-04 8.75913E-01-6.23923E-14-2.62365E-13
 -1       631 2.01572E+01 3.87071E-01 1.85503E-04 1.04779E+00-6.71708E-14-1.42190E-13
 -1       632 2.01768E+01 4.19976E-01 2.11303E-04 1.23340E+00-4.78154E-14-7.88190E-14
 -1       633 2.02110E+01 4.25677E-01 2.16583E-04 1.43450E+00 7.38586E-15-1.58370E-13
 -1       634 2.02757E+01 3.66868E-01 1.63646E-04 1.64657E+00 4.56402E-14-1.52987E-13
 -1       635 2.04067E+01 1.89459E-01-2.18548E-05 1.85639E+00 7.54759E-14-1.50830E-13
 -1       636 2.06720E+01-1.78206E-01-4.05321E-04 2.03590E+00 1.58806E-13-2.21194E-13
 -1       637 2.11859E+01-8.12667E-01-5.08706E-04 2.12721E+00 1.71489E-13-2.12534E-13
 -1       638 2.21007E+01-1.73434E+00 1.51928E-03 2.00664E+00 1.79019E-13-1.67557E-14
 -1       639 2.36226E+01-2.78981E+00-8.64791E-03 1.41971E+00 3.25441E-13 1.42066E-13
 -1       640 2.55699E+01-3.43137E+00-2.38917E-02 2.25071E-01 4.38619E-13 3.24572E-13
 -1       641 2.73115E+01-2.27203E+00-6.34860E-02-1.59472E+00-1.98331E-14 6.38755E-13
 -1       642 2.82732E+01 1.42309E+00-1.34561E-01 2.76730E+00-5.21250E-13-5.95017E-13
 -1       643 2.73495E+01-2.26247E+00-5.08935E-02 1.64171E+00 7.17568E-14-6.81868E-13
 -1       644 2.55274E+01-3.35940E+00-5.48334E-03-1.99851E-01 1.01184E-13-6.34852E-13
 -1       645 2.35892E+01-2.75203E+00 9.52713E-04-1.41116E+00 3.45885E-13-3.68577E-13
 -1       646 2.21317E+01-1.69429E+00-1.79779E-04-1.94029E+00 3.10297E-13-2.45728E-13
 -1       647 2.12211E+01-7.68276E-01-8.07652E-04-2.04536E+00 2.06710E-13-1.79975E-13
 -1       648 2.07107E+01-1.31530E-01-3.77325E-04-1.93925E+00 3.08549E-13-8.75777E-14
 -1       649 2.04469E+01 2.39666E-01 3.40880E-06-1.74152E+00 8.29114E-14-1.31281E-13
 -1       650 2.03160E+01 4.20103E-01 1.64206E-04-1.51128E+00 1.32986E-13-8.47174E-14
 -1       651 2.02495E+01 4.79729E-01 2.13735E-04-1.27831E+00 3.33830E-13-1.54020E-13
 -1       652 2.02110E+01 4.70282E-01 2.11836E-04-1.05840E+00 3.97125E-14-2.30502E-13
 -1       653 2.01830E+01 4.25883E-01 1.88749E-04-8.59812E-01-2.15475E-13-1.18970E-15
 -1       654 2.01583E+01 3.67326E-01 1.58887E-04-6.86243E-01-2.50006E-13-2.06846E-13
 -1       655 2.01349E+01 3.06422E-01 1.29049E-04-5.38466E-01-2.79222E-14-2.76960E-13
 -1       656 2.01126E+01 2.49341E-01 1.02222E-04-4.15394E-01-3.04020E-14 7.86943E-14
 -1       657 2.00919E+01 1.98886E-01 7.94299E-05-3.14854E-01 1.08184E-13 1.19009E-13
 -1       658 2.00735E+01 1.55951E-01 6.07607E-05-2.34142E-01 2.18412E-13 1.64707E-13
 -1       659 2.00575E+01 1.20399E-01 4.60288E-05-1.70395E-01-1.50940E-13 2.18440E-14
 -1       660 2.00440E+01 9.15677E-02 3.19845E-05-1.20841E-01 1.02054E-14 7.37098E-14
 -1       661 2.00328E+01 6.85400E-02 2.36074E-05-8.29429E-02-5.64488E-14 1.86523E-14
 -1       662 2.00237E+01 5.05031E-02 3.23775E-05-5.45330E-02 1.03026E-13-3.68560E-14
 -1       663 2.00163E+01 3.60884E-02 1.50369E-05-3.37436E-02 8.14819E-14 3.07833E-13
 -1       664 2.01504E+01 2.49028E-01 2.07255E-04-4.77351E-01 2.59311E-13-2.04745E-13
 -1       665 2.01605E+01 3.21715E-01 2.76711E-04-2.98622E-01 2.41644E-13-2.06014E-13
 -1       666 2.02264E+01 1.95063E-01 1.57148E-04-7.49864E-01 7.08908E-15-1.12308E-13
 -1       667 2.03089E+01 1.79824E-01 1.35628E-04-8.66830E-01 7.29323E-14-4.65953E-14
 -1       668 2.04231E+01 1.50192E-01 9.28884E-05-9.74002E-01-4.17600E-15-2.92024E-14
 -1       669 2.05760E+01 8.67394E-02 5.68889E-06-1.06375E+00-8.19713E-15-1.37260E-14
 -1       670 2.07799E+01-3.25077E-02-1.52279E-04-1.11908E+00 6.36994E-15 4.26433E-14
 -1       671 2.10529E+01-2.29094E-01-4.05713E-04-1.11193E+00-3.14528E-14 2.28282E-14
 -1       672 2.14163E+01-5.15091E-01-7.29601E-04-1.00191E+00-8.04530E-14 1.06991E-13
 -1       673 2.18852E+01-8.74100E-01-9.18684E-04-7.38000E-01-6.36065E-14 1.96168E-13
 -1       674 2.24467E+01-1.23087E+00-1.07223E-03-2.70984E-01-1.06359E-13 3.24742E-13
 -1       675 2.30297E+01-1.42037E+00-6.59329E-04 4.12861E-01-6.76586E-14 3.87381E-13
 -1       676 2.34761E+01-1.18723E+00-8.09478E-04 1.21989E+00-1.19763E-13 3.91950E-13
 -1       677 2.35964E+01-3.29634E-01-5.58450E-03 1.86048E+00 5.06783E-14 3.50651E-13
 -1       678 2.33390E+01 1.02536E+00 8.02804E-04 1.88895E+00 2.89828E-13 4.25841E-13
 -1       679 2.28470E+01 2.30538E+00-2.12339E-02 1.00770E+00 2.98582E-13 2.59460E-13
 -1       680 2.28426E+01 2.53202E+00-9.06761E-03-4.46016E-01 3.49259E-13-4.82956E-14
 -1       681 2.31671E+01 1.62457E+00-1.30026E-02-1.65136E+00 2.43265E-13-5.46587E-13
 -1       682 2.35359E+01 1.99222E-01-8.56253E-03-1.99101E+00 3.84588E-14-5.10378E-13
 -1       683 2.35885E+01-9.13476E-01-1.89277E-03-1.55353E+00-6.83232E-14-4.33885E-13
 -1       684 2.32518E+01-1.37344E+00-2.05607E-03-7.74913E-01 5.16438E-14-3.51424E-13
 -1       685 2.27080E+01-1.31343E+00-9.43245E-04-3.43578E-02-3.05757E-13-3.81773E-13
 -1       686 2.21332E+01-9.94081E-01-1.11798E-03 5.08306E-01-3.58068E-13-5.71499E-13
 -1       687 2.16309E+01-6.16562E-01-9.10075E-04 8.31675E-01-1.03738E-13-3.45167E-13
 -1       688 2.12350E+01-2.91793E-01-5.05451E-04 9.77521E-01 4.68638E-14-1.59440E-13
 -1       689 2.09372E+01-5.54741E-02-2.19423E-04 9.99387E-01 4.48033E-14-2.01166E-14
 -1       690 2.07167E+01 9.49444E-02-1.29626E-05 9.43218E-01-7.76648E-14-7.00136E-14
 -1       691 2.05525E+01 1.76967E-01 1.04872E-04 8.43931E-01 2.26708E-13-2.02131E-13
 -1       692 2.04282E+01 2.10742E-01 1.64149E-04 7.25880E-01 1.78221E-13 1.93136E-14
 -1       693 2.03323E+01 2.13569E-01 1.83921E-04 6.04964E-01-5.83209E-14-1.58433E-14
 -1       694 2.02570E+01 1.98470E-01 1.79454E-04 4.90839E-01-9.01387E-14 1.85563E-13
 -1       695 2.01976E+01 1.74455E-01 1.61888E-04 3.88732E-01-3.27209E-14 3.07436E-13
 -1       696 2.01504E+01 1.47351E-01 1.38674E-04 3.00867E-01-5.48042E-14 5.02341E-13
 -1       697 2.01131E+01 1.20670E-01 1.14512E-04 2.27538E-01-1.99975E-13 2.93666E-13
 -1       698 2.00838E+01 9.63279E-02 9.18907E-05 1.67879E-01-2.21397E-13 1.76183E-14
 -1       699 2.00611E+01 7.51925E-02 7.14271E-05 1.20423E-01 1.13041E-14 1.99168E-13
 -1       700 2.00436E+01 5.74805E-02 5.25114E-05 8.34824E-02 2.04391E-13 2.68172E-13
 -1       701 2.00303E+01 4.30658E-02 4.17916E-05 5.53351E-02 2.44203E-13 4.05908E-13
 -1       702 2.00202E+01 3.14610E-02 5.73242E-05 3.44492E-02-4.85974E-14 7.97207E-13
 -1       703 2.00133E+01 2.62911E-02 3.33205E-05 2.35473E-02-1.54496E-13 4.48750E-13
 -1       704 1.99802E+01 7.90533E-02-7.66153E-06 5.96102E-03 8.09307E-14-2.89067E-13
 -1       705 2.00120E+01 2.80003E-02 2.08124E-07-2.32027E-02 1.65366E-13 8.67769E-14
 -1       706 1.99914E+01 6.43271E-02-4.24587E-06 2.55865E-02 2.14335E-13-9.00864E-14
 -1       707 1.99803E+01 7.91445E-02-6.83494E-06-6.45783E-03 6.94778E-14-1.00080E-13
 -1       708 1.99842E+01 7.38874E-02-4.81661E-06 1.72926E-02 1.58256E-13-5.66123E-13
 -1       709 9.72105E+00-1.05629E+00 1.40799E-01-4.02336E+00 1.94532E-13 6.68611E-13
 -1       710 1.99844E+01 7.42501E-02-5.37513E-06-1.76111E-02 9.85857E-14-1.85164E-13
 -1       711 1.99918E+01 6.47410E-02-1.07125E-05-2.58788E-02 1.27440E-13-2.03013E-14
 -1       712 2.00009E+01 5.18888E-02-1.15098E-05-2.95117E-02 2.87836E-13 1.09686E-13
 -1       713 2.03160E+01 1.73653E+00 1.01632E-04-1.02904E+00-3.79806E-13-4.10306E-13
 -1       714 7.26591E+00-7.30722E-02 1.52492E-01 2.03945E-01-8.92108E-14 1.31745E-12
 -1       715 1.49519E+01-2.62859E+00 1.06442E-01 5.64550E+00-5.64035E-13 2.24671E-13
 -1       716 2.47988E+01-4.89866E+00 1.79780E-02-3.19133E+00-2.87782E-13-4.21885E-15
 -1       717 1.02974E+01-8.58657E-01 1.36341E-01 4.17007E+00-5.34708E-13 1.08505E-12
 -1       718 2.02046E+01 4.57059E-01 6.28782E-04-6.30588E-02 2.56617E-13-1.65251E-13
 -1       719 2.01733E+01 2.12799E-01 1.74410E-04-6.22655E-01 1.48701E-13-1.59357E-13
 -1       720 2.03348E+01 1.15922E+00-1.51545E-04-5.79713E-01-3.29953E-13-3.67940E-13
 -1       721 2.02781E+01 6.92755E-01 1.17399E-03 2.59265E-01 3.48268E-13-1.62765E-13
 -1       722 8.35460E+00-8.13657E-01 1.47902E-01-3.36385E+00-2.10868E-13-8.48731E-13
 -1       723 7.83240E+00-3.01212E-01 1.60042E-01 1.69528E+00 9.46465E-14-9.65290E-13
 -1       724 1.99861E+01 2.42814E+00-1.61167E-03 5.46918E-01 3.03952E-13-5.10764E-13
 -1       725 1.56329E+01-3.41257E+00 9.07203E-02-5.85277E+00 6.42070E-13 7.60877E-13
 -1       726 1.99791E+01 2.44359E+00-1.53161E-03-5.39759E-01-1.55919E-13-5.88122E-13
 -1       727 2.78452E+01 1.15561E+00-1.19763E-01 2.01887E+00 3.16226E-13 2.16792E-13
 -1       728 1.27345E+01-2.59804E+00 1.28612E-01-5.82531E+00-3.68244E-13-6.37636E-13
 -1       729 2.75206E+01-4.18201E+00 3.85068E-02 6.75475E-01 2.01251E-13 3.38424E-13
 -1       730 2.77777E+01 2.72817E+00-1.28305E-01-2.25017E+00 7.49144E-13-7.82437E-13
 -1       731 1.68162E+01-3.89952E+00 1.04274E-01 5.95004E+00 4.30118E-13-5.12004E-13
 -1       732 2.61532E+01-4.40552E+00-3.54311E-02 2.08210E+00-4.41626E-14-6.34739E-13
 -1       733 2.68041E+01-4.34023E+00-2.15007E-02-1.09601E+00 7.73335E-14-6.63811E-13
 -1       734 2.64145E+01 5.27019E+00-1.53771E-01-1.14658E+00 8.45067E-13-2.15971E-13
 -1       735 2.01119E+01 2.17267E+00-1.16537E-03-7.42249E-01-2.57457E-13-5.55945E-13
 -1       736 1.98488E+01 2.69591E+00-1.45446E-03-1.07856E-01 1.69299E-14-6.08615E-13
 -1       737 9.30538E+00 3.09828E-01 1.18095E-01-8.27932E-01-3.60136E-14-8.10064E-13
 -1       738 1.67275E+01-3.54788E+00 7.54441E-02-5.80867E+00-4.86979E-13-4.48849E-13
 -1       739 2.35043E+01-4.80883E+00 3.38552E-02 3.58080E+00-2.32571E-13-7.95088E-13
 -1       740 2.63269E+01 3.05788E+00-1.03771E-01 2.23804E+00 4.64420E-13 2.55171E-13
 -1       741 2.00004E+01 5.15321E-02-1.82491E-05 2.94205E-02 2.12135E-13-4.39563E-13
 -1       742 1.83060E+01-3.58712E+00 5.41963E-02 5.26488E+00-5.50468E-13-1.11621E-13
 -1       743 2.00077E+01 3.87991E-02-2.66143E-06 2.81420E-02 1.83627E-13-1.41337E-13
 -1       744 2.00083E+01 4.49863E-02-3.18128E-06-3.28997E-02 2.06177E-13-5.33112E-14
 -1       745 2.53836E+01 5.08189E+00-1.06418E-01 1.31367E-01 6.67279E-13 1.11142E-13
 -1       746 2.60116E+01-3.72982E+00-2.40702E-02-7.02347E-01-2.13621E-13 1.56925E-13
 -1       747 1.98923E+01 2.61441E+00-1.50875E-03-3.26883E-01-6.73660E-14-5.90207E-13
 -1       748 1.04040E+01-6.84990E-01 1.25414E-01 3.51141E+00 2.21946E-13-9.85295E-13
 -1       749 2.07897E+01-4.66371E+00 2.70307E-02 4.82085E+00 5.16188E-13-1.30172E-13
 -1       750 2.02688E+01 1.42759E+00-3.42660E-04 4.83046E-01 3.32351E-13-3.88582E-13
 -1       751 2.62543E+01-3.01261E+00-3.25474E-02-1.30248E-01-5.35336E-15-5.95553E-13
 -1       752 2.02427E+01 6.72849E-01-3.35893E-05 1.88060E-01-1.71991E-13-3.16912E-13
 -1       753 2.01809E+01 5.40500E-01 1.21234E-05 4.03272E-01-1.71235E-13-2.61875E-13
 -1       754 2.01077E+01 4.85128E-01 1.91615E-05 5.86063E-01-1.73100E-13-2.29589E-13
 -1       755 2.00248E+01 4.84000E-01 3.03413E-05 7.53612E-01-7.45096E-14-2.19370E-13
 -1       756 1.99305E+01 5.17766E-01 4.47814E-05 9.19905E-01-1.88474E-15-2.77046E-13
 -1       757 1.98224E+01 5.66702E-01 6.40495E-05 1.09604E+00 7.80612E-15-1.76561E-13
 -1       758 1.97004E+01 6.06620E-01 8.80678E-05 1.29083E+00-5.31623E-14-9.87177E-14
 -1       759 1.95707E+01 6.04222E-01 1.02861E-04 1.51229E+00 3.31608E-14-1.17391E-13
 -1       760 1.94536E+01 5.11296E-01 6.30599E-05 1.76948E+00 6.35631E-14-1.91997E-13
 -1       761 1.93954E+01 2.58140E-01-1.20534E-04 2.07326E+00 7.83549E-14-1.73849E-13
 -1       762 1.94896E+01-2.49840E-01-2.71419E-04 2.43058E+00 1.49383E-13-1.76795E-13
 -1       763 1.99008E+01-1.12833E+00-3.81394E-04 2.83048E+00 3.28001E-13-1.16027E-13
 -1       764 2.10444E+01-2.47510E+00 2.54688E-02 3.14203E+00 3.90025E-13 4.11563E-14
 -1       765 2.29441E+01-3.97720E+00 2.77800E-02-2.93604E+00 4.19019E-13-2.70924E-13
 -1       766 2.09680E+01-2.39850E+00 1.55557E-02-3.06481E+00 3.57874E-13-5.65010E-14
 -1       767 1.99373E+01-1.08506E+00-1.90315E-04-2.75466E+00 4.37436E-13 1.30140E-13
 -1       768 1.95058E+01-1.96467E-01 4.96340E-04-2.34764E+00 2.53006E-13 7.68951E-14
 -1       769 1.93966E+01 3.20388E-01 5.42310E-04-1.97573E+00 3.25281E-13 6.71365E-14
 -1       770 1.94398E+01 5.79921E-01 4.52612E-04-1.65427E+00 1.11918E-13 1.65729E-13
 -1       771 1.95403E+01 6.75844E-01 3.67721E-04-1.37807E+00 9.35632E-14 2.08919E-13
 -1       772 1.96505E+01 6.75156E-01 2.86468E-04-1.13884E+00 4.92864E-14 1.43385E-13
 -1       773 1.97491E+01 6.22542E-01 2.20898E-04-9.31051E-01-2.62640E-14-4.46756E-14
 -1       774 1.98289E+01 5.46206E-01 1.70118E-04-7.51491E-01-2.55250E-13-6.40860E-14
 -1       775 1.98894E+01 4.63036E-01 1.30743E-04-5.98017E-01-2.31068E-13 1.96993E-13
 -1       776 1.99332E+01 3.82519E-01 1.00022E-04-4.68695E-01 8.14129E-14 1.11312E-13
 -1       777 1.99635E+01 3.09492E-01 7.59453E-05-3.61421E-01 1.51470E-13 2.45157E-13
 -1       778 1.99836E+01 2.45981E-01 5.70301E-05-2.73858E-01 3.21389E-14 2.24718E-13
 -1       779 1.99963E+01 1.92379E-01 4.29080E-05-2.03530E-01-2.32535E-13-1.81177E-13
 -1       780 2.00036E+01 1.48171E-01 2.92404E-05-1.47939E-01-1.52335E-14-2.93258E-13
 -1       781 2.00075E+01 1.12307E-01 4.12971E-05-1.04856E-01-1.50893E-14-3.36459E-13
 -1       782 2.00081E+01 8.41578E-02 4.23037E-05-7.18348E-02 6.98137E-14-1.11611E-13
 -1       783 2.00093E+01 6.23733E-02 1.00034E-04-4.95926E-02 2.07289E-13-7.07119E-14
 -1       784 2.01444E+01 2.73533E-01 4.48319E-05-9.81220E-01-2.88164E-14-3.92254E-14
 -1       785 2.01343E+01 2.99512E-01 4.71336E-05-8.43955E-01 1.79819E-14-1.34461E-13
 -1       786 2.02739E+01 1.09068E-01 2.47788E-05-1.23902E+00-3.66808E-14-1.31968E-14
 -1       787 2.04385E+01-8.95873E-02-3.57791E-05-1.33931E+00-4.24550E-14 1.70153E-14
 -1       788 2.07195E+01-4.07355E-01-1.68770E-04-1.38828E+00-1.14346E-13 1.29125E-13
 -1       789 2.11679E+01-8.60116E-01-3.03136E-04-1.33929E+00-1.26817E-13 9.65642E-14
 -1       790 2.18328E+01-1.41820E+00 3.79083E-04-1.11827E+00-1.58612E-13 1.89101E-13
 -1       791 2.27182E+01-1.95000E+00 5.25858E-04-6.29609E-01-1.29431E-13 2.21518E-13
 -1       792 2.37210E+01-2.17303E+00-1.61271E-03 2.04567E-01-1.19307E-13 2.64565E-13
 -1       793 2.45407E+01-1.60168E+00-7.96741E-03 1.26645E+00-5.54269E-14 2.87145E-13
 -1       794 2.48053E+01 1.53237E-01-1.64314E-02 2.09037E+00 7.40484E-14 3.73903E-13
 -1       795 2.47572E+01 1.09821E+00-3.95277E-02-2.21745E+00 3.16747E-13-3.73249E-13
 -1       796 2.47429E+01-1.04496E+00-3.85509E-02-1.77338E+00-1.62019E-13-7.45706E-13
 -1       797 2.41186E+01-1.97908E+00-5.19509E-03-7.22948E-01-1.26019E-13-5.62304E-13
 -1       798 2.31304E+01-2.05429E+00 1.59110E-03 2.65880E-01-8.88050E-14-1.94787E-13
 -1       799 2.21759E+01-1.60368E+00-1.37281E-04 8.82845E-01-2.29454E-13-2.89817E-13
 -1       800 2.14183E+01-1.02412E+00-4.70611E-04 1.18703E+00-1.94586E-13-5.33864E-13
 -1       801 2.08878E+01-5.17383E-01-7.98389E-05 1.27951E+00-1.14743E-13-2.31853E-13
 -1       802 2.05411E+01-1.41044E-01-5.21412E-05 1.24614E+00-1.21655E-13-1.51528E-13
 -1       803 2.03278E+01 1.05579E-01 2.64563E-05 1.14344E+00-3.58939E-15-3.75748E-14
 -1       804 2.02021E+01 2.46651E-01 4.83130E-05 1.00796E+00 1.46444E-13-2.24336E-13
 -1       805 2.01303E+01 3.11629E-01 5.87672E-05 8.61940E-01-1.36437E-14 2.84774E-13
 -1       806 2.00898E+01 3.26245E-01 6.08182E-05 7.18696E-01 1.62924E-13 1.65166E-13
 -1       807 2.00668E+01 3.10318E-01 5.72948E-05 5.85996E-01-2.04901E-13 1.34224E-13
 -1       808 2.00531E+01 2.77980E-01 5.07986E-05 4.67955E-01-1.04997E-13 1.80899E-13
 -1       809 2.00440E+01 2.38696E-01 4.31251E-05 3.66225E-01 2.86876E-14 1.99550E-13
 -1       810 2.00373E+01 1.98424E-01 3.54573E-05 2.80830E-01-1.48907E-13 2.40657E-14
 -1       811 2.00317E+01 1.60637E-01 2.89515E-05 2.10772E-01 6.21563E-14-3.95556E-14
 -1       812 2.00267E+01 1.27103E-01 2.39747E-05 1.54468E-01 2.07497E-14-2.61498E-13
 -1       813 2.00221E+01 9.84477E-02 1.93103E-05 1.10094E-01-7.37343E-14-1.12330E-13
 -1       814 2.00178E+01 7.47378E-02 1.64709E-05 7.59744E-02 1.62106E-13 1.22791E-13
 -1       815 2.00137E+01 5.54151E-02 1.28129E-05 5.02288E-02 8.25034E-15 1.87837E-13
 -1       816 2.00103E+01 4.67786E-02-3.81403E-05 3.80058E-02 2.90549E-13-3.82064E-14
 -1       817 2.15209E+01-4.37246E+00 4.11656E-02-4.32085E+00-4.24863E-13-1.64648E-13
 -1       818 2.00282E+01 2.10496E+00-2.99810E-04 1.44152E-01 1.08847E-13-4.80161E-13
 -1       819 1.99786E+01 9.43214E-02-6.94818E-06-3.18929E-02-7.19917E-14-1.59758E-13
 -1       820 1.99665E+01 1.07030E-01-6.67296E-06-1.04185E-04-4.70499E-14-1.65698E-13
 -1       821 1.99918E+01 7.93923E-02 5.52562E-05-4.12766E-02 2.35627E-13 4.92672E-13
 -1       822 1.99697E+01 1.03874E-01-4.50556E-06-1.73487E-02-1.01521E-13-1.85757E-13
 -1       823 1.43325E+01-7.25430E-01 5.60521E-02 3.92600E+00-6.97563E-13 4.17685E-13
 -1       824 2.62658E+01-9.14252E-01-5.98138E-02 1.81902E+00 3.52461E-14 3.26485E-13
 -1       825 2.01852E+01 2.19479E-01 4.38159E-05-1.11483E+00-5.66368E-14 3.74253E-14
 -1       826 1.04282E+01 3.94547E-01 8.87609E-02-1.69216E+00 1.69398E-13 9.56964E-13
 -1       827 2.02537E+01 5.90302E-01 6.41068E-06-1.49122E-01 2.44825E-13-2.15747E-13
 -1       828 2.02084E+01 4.42953E-01 6.04339E-05-3.69459E-01 2.33624E-13-2.39043E-13
 -1       829 1.47765E+01-2.02420E+00 9.42360E-02 4.90670E+00 3.47101E-13-6.93660E-13
 -1       830 2.02842E+01 9.13898E-01-5.89194E-05-7.74161E-02-2.16822E-13-3.57073E-13
 -1       831 1.08393E+01 5.72896E-01 7.92553E-02 1.56437E+00-2.87327E-13 8.47974E-13
 -1       832 2.61332E+01 3.23862E-01-5.47029E-02-2.19998E+00 5.48175E-13-5.59741E-13
 -1       833 1.99064E+01-3.43552E+00 5.29243E-02-4.40734E+00 6.88043E-13-6.20441E-14
 -1       834 2.54089E+01 3.05663E+00-7.91787E-02-2.04604E+00 6.48821E-13-2.50699E-13
 -1       835 2.03149E+01 1.04566E+00 4.60396E-04 3.96132E-01 3.53154E-13-2.46627E-13
 -1       836 1.40201E+01-1.41305E+00 7.23289E-02-4.55284E+00 4.16812E-13 3.80047E-13
 -1       837 1.25563E+01-7.83757E-01 8.78551E-02-4.00721E+00-2.39700E-13-5.80539E-13
 -1       838 2.00055E+01 2.15277E+00-3.43617E-04-1.49316E-04 3.23536E-14-5.21504E-13
 -1       839 1.06220E+01 3.90072E-01 9.39591E-02 1.50226E+00 4.84465E-14-7.79179E-13
 -1       840 2.49196E+01-3.87159E+00 5.44159E-04 1.26668E+00-2.59300E-13-6.30962E-13
 -1       841 1.51510E+01-1.68670E+00 5.76041E-02-4.65919E+00-3.11969E-13-5.42099E-13
 -1       842 1.99913E+01 7.82265E-02 6.90537E-06 4.11278E-02 2.70684E-13-1.88760E-13
 -1       843 2.01695E+01 1.76061E+00-8.58623E-04-3.96010E-01-1.81711E-13-5.01865E-13
 -1       844 2.02897E+01 1.26534E+00 1.93416E-04-3.70070E-01-2.69141E-13-4.11591E-13
 -1       845 2.43581E+01 3.11247E+00-5.75627E-02-1.57874E+00 6.48710E-13-5.39013E-14
 -1       846 2.01775E+01 1.74427E+00 9.86901E-05 4.02699E-01 2.91883E-13-4.36895E-13
 -1       847 1.64139E+01-1.59575E+00 1.90086E-02 4.26683E+00-6.80955E-13 1.57437E-13
 -1       848 2.01706E+01 3.62222E-01 4.66303E-05-5.47874E-01 1.51512E-13-2.00298E-13
 -1       849 2.01448E+01 3.21791E-01 4.48633E-05-7.01863E-01 3.92686E-14-1.28027E-13
 -1       850 2.00886E+01 1.96911E+00-2.60176E-04 2.81543E-01 2.16803E-13-4.28355E-13
 -1       851 1.99783E+01 9.34383E-02 3.41976E-06 3.16542E-02 5.86568E-14-1.11818E-13
 -1       852 1.99696E+01 1.03381E-01-1.18454E-05 1.72023E-02 2.27397E-13-6.60085E-13
 -1       853 2.37228E+01-4.07167E+00 4.20785E-03-2.32281E+00-3.03245E-13 4.57438E-14
 -1       854 1.80273E+01-3.05345E+00 6.23723E-02 4.76797E+00 4.32123E-13-2.91503E-13
 -1       855 1.99997E+01 7.15345E-02-4.59562E-05-4.65590E-02 2.77323E-13-1.78692E-13
 -1       856 2.02875E+01 7.70976E-01-1.78497E-04 9.16933E-02 2.94759E-13-2.20651E-13
 -1       857 2.00817E+01 1.98268E+00-5.17792E-04-2.78093E-01-1.02715E-13-5.34348E-13
 -1       858 2.16581E+01-3.69971E+00 1.02596E-02 3.45191E+00-4.19575E-13-6.08174E-13
 -1       859 1.71719E+01-1.16059E+00 2.98037E-02-3.73262E+00 4.86685E-13 1.85923E-13
 -1       860 1.37628E+01 6.00278E-01 2.49420E-02 2.05575E+00-3.55330E-13 5.55036E-13
 -1       861 2.00958E+01 6.55791E-01-3.49881E-05 4.16880E-01-1.16533E-13-2.85451E-13
 -1       862 1.99695E+01 6.17007E-01-1.05723E-05 5.72077E-01-9.77075E-14-2.33627E-13
 -1       863 1.98110E+01 6.33729E-01-5.57048E-06 7.18072E-01-6.96834E-14-1.73767E-13
 -1       864 1.96179E+01 6.85317E-01 1.13097E-06 8.66047E-01 1.62446E-14-2.04536E-13
 -1       865 1.93857E+01 7.49437E-01 9.48359E-06 1.02648E+00 2.07475E-14-2.37446E-13
 -1       866 1.91104E+01 7.99056E-01 1.01117E-05 1.21116E+00-2.20128E-14-1.57015E-13
 -1       867 1.87911E+01 7.98277E-01-4.45396E-05 1.43716E+00 2.10902E-14-1.93176E-13
 -1       868 1.84358E+01 6.96694E-01-2.37693E-04 1.73282E+00 4.58186E-14-1.89154E-13
 -1       869 1.80747E+01 4.18822E-01-4.93267E-04 2.14502E+00 1.14728E-13-1.67558E-13
 -1       870 1.77840E+01-1.41816E-01 1.15404E-03 2.74150E+00 2.72784E-13-1.57287E-13
 -1       871 1.76302E+01-1.08709E+00 3.20038E-02 3.57459E+00 4.13263E-13-1.40134E-13
 -1       872 1.89598E+01-2.97735E+00 3.17665E-02-4.45191E+00-2.85555E-13-3.42429E-13
 -1       873 2.35837E+01-2.95416E+00-1.32521E-02 9.74491E-01-3.64062E-13-6.50578E-13
 -1       874 1.73319E+01-9.01657E-02 3.05983E-03-2.76918E+00 3.59621E-13 5.26840E-14
 -1       875 1.76963E+01 5.11358E-01 5.23196E-04-2.09706E+00 2.43066E-13 1.26681E-13
 -1       876 1.81158E+01 8.09126E-01-1.88307E-04-1.64052E+00 2.81497E-13-7.53195E-16
 -1       877 1.85042E+01 9.24328E-01-1.84025E-04-1.31866E+00 1.85280E-13-6.19506E-14
 -1       878 1.88394E+01 9.28221E-01-1.34900E-04-1.07580E+00 5.78090E-15 9.70989E-14
 -1       879 1.91170E+01 8.68101E-01-9.29858E-05-8.81617E-01-3.37237E-14 5.78447E-14
 -1       880 1.93401E+01 7.75148E-01-6.15505E-05-7.19940E-01-1.79095E-13 2.54754E-13
 -1       881 1.95156E+01 6.69417E-01-3.99649E-05-5.82682E-01-2.68467E-13 3.00008E-13
 -1       882 1.96509E+01 5.63299E-01-2.55565E-05-4.65784E-01-1.42337E-13 2.89307E-13
 -1       883 1.97534E+01 4.63971E-01-1.58664E-05-3.66927E-01 1.29376E-13 3.76177E-13
 -1       884 1.98299E+01 3.75139E-01-9.45893E-06-2.84375E-01 7.34096E-14 5.69591E-14
 -1       885 1.98859E+01 2.98265E-01-5.92249E-06-2.16485E-01-1.10736E-13-5.74156E-14
 -1       886 1.99261E+01 2.33417E-01-7.93911E-06-1.61568E-01-6.65658E-14 1.07364E-13
 -1       887 1.99543E+01 1.79846E-01-5.22111E-06-1.18032E-01-5.28271E-14-8.98916E-15
 -1       888 1.99733E+01 1.36331E-01-3.82757E-05-8.40778E-02 2.23766E-13 1.95276E-13
 -1       889 2.02357E+01-5.75312E-01-2.04023E-04-1.74803E+00-1.20026E-13-1.83141E-15
 -1       890 1.99619E+01-1.31595E-01-3.07734E-05-1.57712E+00-1.27054E-13-1.33937E-14
 -1       891 1.98497E+01 1.46844E-01 3.47270E-05-1.39109E+00-3.43569E-14-5.40442E-14
 -1       892 2.07596E+01-1.21180E+00-6.55830E-04-1.85328E+00-2.32155E-13-1.78390E-14
 -1       893 2.16904E+01-2.02682E+00-9.33596E-04-1.77460E+00-1.84472E-13 3.55565E-14
 -1       894 2.29546E+01-2.80152E+00-1.82098E-03-1.34767E+00-1.06284E-13 8.91722E-14
 -1       895 2.21404E+01-2.30975E+00-2.42712E-03 1.57524E+00-2.29432E-13-3.86776E-13
 -1       896 2.10532E+01-1.45047E+00 9.30879E-04 1.77600E+00-1.78083E-13-2.56207E-13
 -1       897 2.03966E+01-7.45532E-01 8.58731E-04 1.71271E+00-3.90524E-13 3.43703E-15
 -1       898 2.00141E+01-2.16648E-01 1.33750E-04 1.54744E+00-2.26443E-13 1.01373E-13
 -1       899 1.98262E+01 1.29981E-01 1.11187E-04 1.34807E+00-1.25263E-13 1.14070E-13
 -1       900 1.97557E+01 3.31037E-01 4.54278E-05 1.14801E+00 4.65009E-14 2.24049E-13
 -1       901 1.97498E+01 4.28182E-01 2.23326E-05 9.61022E-01 1.44967E-14 1.71735E-13
 -1       902 1.97761E+01 4.55611E-01 1.29333E-05 7.91990E-01 1.79080E-13-1.63240E-13
 -1       903 1.98152E+01 4.39533E-01 7.88275E-06 6.42745E-01-1.06608E-13 9.66517E-14
 -1       904 1.98564E+01 3.98940E-01 5.00144E-06 5.13555E-01-1.94618E-13 9.05079E-14
 -1       905 1.98939E+01 3.46887E-01 3.30753E-06 4.03759E-01-2.22973E-14 7.22700E-14
 -1       906 1.99255E+01 2.91876E-01 2.18634E-06 3.12083E-01 1.30527E-13 2.58637E-14
 -1       907 1.99505E+01 2.39085E-01 1.93859E-06 2.36861E-01-7.30080E-15-3.32468E-13
 -1       908 1.99693E+01 1.91392E-01 2.89985E-06 1.76204E-01-4.82205E-14-6.80560E-14
 -1       909 1.99828E+01 1.49980E-01 4.81539E-06 1.28104E-01-2.94075E-16 3.08638E-14
 -1       910 1.99918E+01 1.14960E-01-5.86971E-05 9.04631E-02 7.78013E-15-2.31703E-13
 -1       911 1.99976E+01 8.66268E-02 3.69055E-05 6.18928E-02 2.09069E-13-1.15399E-13
 -1       912 1.99391E+01 4.14910E-01 1.37314E-05-8.84881E-01-7.34781E-14-1.72892E-13
 -1       913 1.16821E+01 7.62667E-01 5.09296E-02-4.10613E-01 1.28495E-14-6.92151E-13
 -1       914 2.00018E+01 6.22787E-02 1.55774E-05 4.13732E-02 1.89750E-13-3.46183E-13
 -1       915 2.49038E+01-2.98554E+00-4.93225E-03-8.65623E-02-1.78399E-13 1.39147E-13
 -1       916 1.99740E+01 1.15033E-01-3.26852E-05-5.29325E-02 2.79364E-13 3.94206E-13
 -1       917 1.35422E+01-3.29563E-01 6.42195E-02 3.37128E+00 3.46477E-13-7.57982E-13
 -1       918 2.02340E+01 6.93860E-01 8.13972E-05-2.23077E-01 2.24244E-13-3.03339E-13
 -1       919 1.15091E+01 2.61248E-01 7.20979E-02-2.24246E+00-6.89444E-14-6.73638E-13
 -1       920 2.54499E+01-1.47086E+00 3.40166E-02-1.39564E+00-5.68382E-14-7.74433E-13
 -1       921 2.00240E+01 2.11191E+00-5.84927E-04-1.43071E-01-2.47423E-14-5.43501E-13
 -1       922 1.39244E+01 3.38320E-01 3.60140E-02-2.52291E+00 2.81739E-13 2.81628E-13
 -1       923 2.02413E+01 9.94491E-01 9.64674E-05 3.34294E-02-1.64548E-13-3.89094E-13
 -1       924 2.01887E+01 7.73329E-01 3.55237E-05 2.41456E-01-1.08417E-13-3.63824E-13
 -1       925 1.27500E+01 1.01834E+00 3.19756E-02-4.13968E-01-7.26283E-14 4.68640E-13
 -1       926 1.46856E+01-2.77665E-01 3.46196E-02-3.22783E+00-1.00666E-13-4.09769E-13
 -1       927 1.62463E+01-3.52586E-01 6.26821E-03 3.10367E+00-4.64061E-13 1.72276E-13
 -1       928 1.57097E+01-1.11064E+00 7.18263E-02 4.02040E+00 4.27302E-13-5.07044E-13
 -1       929 1.29586E+01 6.02020E-01 4.53611E-02 1.73654E+00 1.68004E-13-5.53527E-13
 -1       930 2.15079E+01-3.33805E+00 1.38329E-02-3.20208E+00-2.62002E-13-1.28860E-13
 -1       931 1.99490E+01 1.39092E-01-2.09588E-05-1.20876E-02-1.96013E-13-2.08311E-13
 -1       932 1.98343E+01 3.03224E-01 2.25281E-05-1.21081E+00 1.02153E-14-8.43268E-14
 -1       933 1.94931E+01-2.22148E+00 3.70976E-02 3.49208E+00-5.43491E-13-2.51825E-13
 -1       934 2.00170E+01 4.37164E-01 1.22559E-05-7.33881E-01-3.62317E-15-2.20146E-13
 -1       935 1.99491E+01 1.38520E-01-3.74501E-05 1.24221E-02-4.82403E-14-8.17047E-13
 -1       936 1.98728E+01 3.80700E-01 9.94273E-06-1.04227E+00-7.88218E-14-1.01346E-13
 -1       937 1.99755E+01 1.12489E-01-2.71631E-05 5.52454E-02 1.75412E-13-3.60867E-13
 -1       938 1.99579E+01 1.30926E-01-5.28619E-06-3.48397E-02-1.46168E-14 2.11436E-14
 -1       939 2.02366E+01 1.31751E+00 1.59492E-04-1.75741E-01-1.73063E-13-4.45877E-13
 -1       940 2.01719E+01 5.50795E-01 1.03429E-05-4.15296E-01 1.85646E-13-2.17152E-13
 -1       941 2.02726E+01 9.33545E-01 5.79594E-05 9.67570E-03 2.45542E-13-3.40175E-13
 -1       942 2.01689E+01 1.52859E+00 1.79034E-04-1.31533E-01-1.35822E-13-4.44074E-13
 -1       943 2.01423E+01 1.60147E+00-4.38311E-05 9.58637E-02 1.74115E-13-3.79105E-13
 -1       944 2.01050E+01 1.69109E+00-2.84570E-07 2.95403E-02 9.08415E-14-4.56033E-13
 -1       945 2.02777E+01 1.22759E+00-4.11517E-06 2.83412E-01 2.70989E-13-3.53706E-13
 -1       946 1.99455E+01 1.61666E-01-1.97577E-06-6.31828E-02 7.10134E-14 4.00237E-13
 -1       947 1.72537E+01-1.46031E+00 2.04338E-02-3.82149E+00-1.79367E-13-4.46413E-13
 -1       948 1.56706E+01 6.77913E-01 5.52828E-03 1.79067E+00-1.80079E-13 3.05256E-13
 -1       949 1.97788E+01 7.31120E-01-5.10432E-05 4.84906E-01 1.91218E-14-2.24935E-13
 -1       950 1.95440E+01 7.67898E-01-5.67025E-05 5.92478E-01-1.60542E-14-1.87491E-13
 -1       951 1.92530E+01 8.37182E-01-5.29932E-05 7.01976E-01-2.57701E-14-1.49828E-13
 -1       952 1.88963E+01 9.15855E-01-9.58515E-05 8.22252E-01 1.49799E-14-1.73002E-13
 -1       953 1.84589E+01 9.79046E-01-1.77492E-04 9.66579E-01 5.20661E-16-2.00556E-13
 -1       954 1.79212E+01 9.94805E-01-3.79203E-04 1.15755E+00-9.25169E-15-2.45484E-13
 -1       955 1.72548E+01 9.24220E-01-1.49762E-04 1.43685E+00 7.33732E-14-2.55066E-13
 -1       956 1.64205E+01 6.98660E-01-6.97084E-04 1.87394E+00 1.17488E-13-3.05787E-13
 -1       957 2.01893E+01 1.18898E+00 5.48194E-05 1.38875E-02-7.93881E-14-4.02257E-13
 -1       958 2.02557E+01-1.81958E+00 1.02588E-02 2.73702E+00-3.75916E-13-4.44702E-13
 -1       959 1.59596E+01 8.20337E-01 4.03642E-03-1.74353E+00 3.25230E-13-6.67916E-14
 -1       960 1.68662E+01 1.04890E+00 2.53729E-04-1.29643E+00 2.17564E-13-1.26542E-13
 -1       961 1.75815E+01 1.12905E+00-1.10761E-04-1.01589E+00 2.88832E-13 3.69567E-15
 -1       962 1.81402E+01 1.11562E+00-6.05125E-05-8.23536E-01 1.18901E-13 9.08913E-14
 -1       963 1.85777E+01 1.04464E+00-6.49158E-05-6.80429E-01-7.51812E-14 2.24602E-15
 -1       964 1.89213E+01 9.41039E-01-4.63975E-05-5.64828E-01-1.60775E-14-1.35229E-13
 -1       965 1.91904E+01 8.22560E-01-3.26805E-05-4.66473E-01-9.68691E-14-1.75906E-13
 -1       966 1.94000E+01 7.01393E-01-2.50973E-05-3.80965E-01 3.44622E-14 2.46427E-13
 -1       967 1.95618E+01 5.85496E-01-2.05701E-05-3.06592E-01 1.15168E-13 4.31227E-13
 -1       968 1.96854E+01 4.79621E-01-1.72173E-05-2.42624E-01 3.25170E-14 4.27022E-13
 -1       969 1.97785E+01 3.86167E-01-1.49117E-05-1.88519E-01-6.09669E-14 3.35240E-13
 -1       970 1.98478E+01 3.05893E-01-2.27644E-05-1.43624E-01-9.77752E-14 3.99166E-13
 -1       971 1.98982E+01 2.38596E-01-4.12249E-05-1.07409E-01-5.44044E-14 5.20992E-13
 -1       972 1.99248E+01 1.97439E-01 4.34074E-06-8.34148E-02-3.03208E-14 8.10281E-13
 -1       973 1.99906E+01-1.47597E+00 6.44451E-03-2.56589E+00-2.18714E-13-1.43427E-13
 -1       974 1.94502E+01-6.54764E-01-1.56889E-03-2.19516E+00-1.20910E-13-3.14886E-14
 -1       975 1.92680E+01 2.31301E-01-1.49601E-04-1.51164E+00-8.44522E-14-1.78579E-13
 -1       976 1.46334E+01 9.43261E-01 2.52297E-03-1.36061E+00 2.37890E-13 1.60741E-13
 -1       977 2.02050E+01 1.42933E+00-1.27933E-04 1.52526E-01 1.97714E-13-3.90086E-13
 -1       978 1.95789E+01-9.08791E-01-9.23673E-04 2.30122E+00-4.64163E-13-3.60527E-13
 -1       979 1.92571E+01-2.19639E-01-2.40547E-03 1.89589E+00-4.68368E-13-3.13930E-13
 -1       980 1.91643E+01 2.07006E-01-1.67116E-05 1.54187E+00-2.31342E-13-2.62851E-13
 -1       981 1.91993E+01 4.48680E-01 1.19464E-05 1.24946E+00-2.02015E-13-7.31347E-14
 -1       982 1.92896E+01 5.66686E-01-1.44892E-05 1.01015E+00 1.39500E-14 2.00754E-13
 -1       983 1.94017E+01 6.00715E-01-1.74537E-05 8.12881E-01 2.78886E-13 2.59731E-13
 -1       984 1.95156E+01 5.81377E-01-1.98533E-05 6.49838E-01 5.38942E-14 2.57426E-13
 -1       985 1.96204E+01 5.31070E-01-2.01727E-05 5.14974E-01-8.99542E-14-8.10237E-14
 -1       986 1.97112E+01 4.65490E-01-1.87871E-05 4.03714E-01-1.73286E-13-3.34435E-13
 -1       987 1.97865E+01 3.95156E-01-1.67060E-05 3.12492E-01-2.47605E-16-3.38921E-14
 -1       988 1.98468E+01 3.26719E-01-1.56040E-05 2.38368E-01 1.35399E-13 5.18637E-14
 -1       989 1.98937E+01 2.63997E-01-1.68547E-05 1.78820E-01-1.35459E-13-1.32202E-13
 -1       990 1.99290E+01 2.08985E-01-1.23612E-05 1.31773E-01-1.47323E-14-2.60369E-13
 -1       991 1.99547E+01 1.62317E-01 5.53430E-05 9.50211E-02 6.04680E-14-1.47037E-13
 -1       992 2.01027E+01 1.69459E+00-1.42012E-04-3.61416E-02-1.34731E-15-4.68795E-13
 -1       993 2.02239E+01 9.83385E-01 1.22951E-04-8.33842E-02 1.96657E-13-3.26200E-13
 -1       994 1.38224E+01 5.22649E-01 2.78037E-02-2.00983E+00-7.29164E-14-5.34689E-13
 -1       995 2.00970E+01 4.74080E-01 5.92395E-06-5.80991E-01 7.35371E-14-2.41735E-13
 -1       996 1.99267E+01 1.77836E-01 2.56875E-06-3.41376E-02 3.96612E-14 1.31831E-13
 -1       997 2.01270E+01 1.63772E+00 8.61263E-05-8.61711E-02-5.62252E-14-4.72432E-13
 -1       998 1.99583E+01 1.29216E-01-1.67397E-05 3.52685E-02-1.01409E-14-3.26498E-13
 -1       999 2.00979E+01 8.38219E-01-3.25756E-04 2.43104E-01-9.06004E-14-3.03880E-13
 -1      1000 1.92702E+01-1.06619E-01-5.18603E-04-1.82455E+00-2.00561E-13-1.02788E-13
 -1      1001 1.99634E+01 7.47652E-01-2.75530E-05 3.71514E-01-7.41286E-14-2.76646E-13
 -1      1002 2.01609E+01 9.82817E-01 4.80350E-04 1.32551E-01-7.04430E-14-3.20519E-13
 -1      1003 1.44439E+01 1.15161E+00 1.09044E-02 4.22802E-01-4.21490E-14 3.10081E-13
 -1      1004 1.66545E+01-2.97424E-01 9.51945E-03-2.82764E+00-6.65854E-14-4.57441E-13
 -1      1005 1.74016E+01-2.76533E-03 2.75161E-03 2.38008E+00-3.84899E-13-1.36171E-14
 -1      1006 1.54181E+01 1.37815E-01 1.96958E-02 2.71052E+00 2.62599E-13-5.41523E-13
 -1      1007 1.95237E+01-2.15255E+00 9.84885E-03-3.40856E+00-2.05402E-13-1.53257E-13
 -1      1008 1.93616E+01 4.18236E-01-3.22805E-05-1.25419E+00-4.86563E-14-2.09547E-13
 -1      1009 1.99238E+01 1.88227E-01-7.59436E-06 6.31941E-02 1.40884E-13-8.73948E-13
 -1      1010 1.98103E+01 5.56275E-01 1.04621E-05-7.10138E-01-3.90679E-14-2.27513E-13
 -1      1011 1.99204E+01 1.82879E-01 8.97218E-05-1.26832E-04-1.05863E-14-4.50328E-13
 -1      1012 1.36956E+01 1.02875E+00 1.67336E-02 2.12659E-01 4.40338E-14-5.29944E-13
 -1      1013 2.01905E+01 1.19391E+00 2.67899E-04-1.87633E-02 1.52468E-13-3.46406E-13
 -1      1014 1.96563E+01 5.41750E-01-2.44432E-05-8.65282E-01-7.56018E-14-2.80672E-13
 -1      1015 1.58072E+01 3.76240E-01 9.30380E-03-2.13318E+00-4.69556E-14-4.07960E-13
 -1      1016 2.01673E+01 7.69295E-01 8.08737E-06-2.63224E-01 1.40875E-13-2.79417E-13
 -1      1017 2.01481E+01 1.31298E+00 3.84506E-04-1.01070E-02 9.48731E-14-3.57283E-13
 -1      1018 1.68864E+01 7.52935E-01 2.34246E-04 1.51093E+00-9.92343E-14-2.49560E-13
 -1      1019 1.49951E+01 9.25736E-01 6.28908E-03 1.27859E+00 7.84525E-14-4.47358E-13
 -1      1020 1.95701E+01 8.16007E-01-1.87515E-04 3.18633E-01-8.91088E-15-3.23785E-13
 -1      1021 1.92675E+01 8.69572E-01-1.38776E-04 3.71947E-01 2.27768E-14-2.97716E-13
 -1      1022 1.88899E+01 9.51505E-01-1.33482E-04 4.21626E-01-2.42778E-15-2.58238E-13
 -1      1023 1.84219E+01 1.03777E+00-2.87461E-04 4.69842E-01-4.08900E-14-2.22421E-13
 -1      1024 1.78309E+01 1.11070E+00-6.22190E-04 5.28550E-01-3.07848E-14-2.68237E-13
 -1      1025 1.70745E+01 1.14462E+00-3.39739E-04 6.07986E-01-1.25570E-14-3.11833E-13
 -1      1026 1.60598E+01 1.12061E+00 2.63832E-03 7.50033E-01 4.58506E-14-3.92134E-13
 -1      1027 2.01520E+01 1.29338E+00-9.91737E-06 3.78520E-03-3.76540E-14-3.67495E-13
 -1      1028 1.67315E+01 1.27258E+00 2.42716E-03-4.33767E-01 2.60980E-13 1.19807E-13
 -1      1029 1.75111E+01 1.23673E+00 1.60284E-04-3.74227E-01 1.40975E-13-8.99474E-14
 -1      1030 1.80945E+01 1.16487E+00-9.88979E-05-3.32957E-01 2.48140E-15-1.09897E-13
 -1      1031 1.85435E+01 1.06180E+00-9.68523E-05-2.97235E-01-8.43768E-14-2.33669E-13
 -1      1032 1.88930E+01 9.41477E-01-6.41340E-05-2.61672E-01-1.85983E-13-2.36186E-13
 -1      1033 1.91661E+01 8.14787E-01-4.19009E-05-2.25606E-01 6.62855E-14-1.44367E-13
 -1      1034 1.93792E+01 6.90073E-01-3.02234E-05-1.90034E-01 1.90559E-13-2.23158E-13
 -1      1035 1.95445E+01 5.73125E-01-2.36433E-05-1.56306E-01 1.12825E-13-7.59066E-14
 -1      1036 1.96713E+01 4.67485E-01-1.86903E-05-1.25555E-01 1.26328E-14-8.92442E-14
 -1      1037 1.97675E+01 3.74891E-01-2.43872E-05-9.84616E-02-1.61831E-13-3.05362E-13
 -1      1038 1.98389E+01 2.96028E-01-4.48401E-05-7.57449E-02 9.57409E-14-4.48571E-14
 -1      1039 1.81576E+01-5.27901E-01 1.69062E-03-2.62147E+00-1.28019E-13-1.80801E-13
 -1      1040 1.83035E+01 3.70945E-01-1.04531E-03 1.66820E+00-3.45333E-13-3.72482E-13
 -1      1041 1.99519E+01 5.81351E-01 8.78653E-07-5.65336E-01 1.73199E-14-1.86775E-13
 -1      1042 1.85112E+01 6.18953E-01-6.99806E-04 1.27653E+00-2.59219E-13-5.34097E-13
 -1      1043 1.87478E+01 7.35335E-01-9.82027E-05 9.86271E-01-2.62386E-13-5.21193E-13
 -1      1044 1.89747E+01 7.62646E-01 1.27003E-06 7.65729E-01-3.15532E-14-3.84988E-13
 -1      1045 1.91799E+01 7.32824E-01 1.79803E-05 5.95967E-01 6.65540E-14-6.06450E-14
 -1      1046 1.93580E+01 6.69336E-01 1.19648E-05 4.63394E-01 2.20442E-13-2.00653E-13
 -1      1047 1.95079E+01 5.88790E-01 5.80642E-06 3.58747E-01-1.04074E-13-4.40884E-13
 -1      1048 1.96309E+01 5.02656E-01 1.73063E-06 2.75705E-01-2.09049E-13-5.86895E-13
 -1      1049 1.97293E+01 4.18469E-01-1.66718E-06 2.09777E-01-2.58051E-13-4.88478E-13
 -1      1050 1.98063E+01 3.40794E-01-1.21363E-05 1.57611E-01 4.17379E-15-2.42251E-13
 -1      1051 1.98652E+01 2.72003E-01-1.50655E-05 1.16866E-01 5.25213E-15-4.82865E-13
 -1      1052 1.98969E+01 2.28154E-01-1.45650E-05 8.70077E-02-1.70734E-14-4.87630E-13
 -1      1053 2.01260E+01 1.35883E+00 4.16613E-05-7.22673E-03 5.91700E-14-3.95680E-13
 -1      1054 1.50566E+01 1.06157E+00 7.43979E-03-6.37345E-01-3.25708E-14-5.14576E-13
 -1      1055 1.98099E+01 8.09404E-01-1.66165E-04 2.57563E-01-3.31979E-14-2.64558E-13
 -1      1056 1.98994E+01 2.17609E-01 2.88466E-06-4.60767E-02-2.39632E-14 6.01749E-14
 -1      1057 1.99167E+01 1.90006E-01 3.36506E-05 3.09423E-02-7.44075E-14-8.65245E-13
 -1      1058 1.99897E+01 8.70973E-01-8.57785E-05 1.87022E-01-4.57838E-14-2.88735E-13
 -1      1059 2.00738E+01 6.43045E-01-5.99672E-05-4.19950E-01 1.04413E-13-2.26660E-13
 -1      1060 1.95011E+01 5.07328E-01-4.78426E-05-1.04356E+00-2.60839E-14-3.04197E-13
 -1      1061 2.01513E+01 9.27532E-01-1.89949E-04-1.65747E-01 1.27381E-13-2.46527E-13
 -1      1062 1.56777E+01 1.22859E+00 5.79128E-03-5.48828E-01 1.70068E-13 1.39309E-14
 -1      1063 2.01266E+01 1.07473E+00-1.21882E-04 8.17926E-02-3.59223E-14-3.81933E-13
 -1      1064 1.87618E+01 5.79505E-01 1.11717E-04-1.21608E+00-7.49219E-14-1.29961E-13
 -1      1065 1.82656E+01 4.87897E-02-4.93606E-04-2.00840E+00-1.67854E-13-1.36181E-13
 -1      1066 1.98718E+01 2.54816E-01-2.55443E-06-5.94675E-02 2.36436E-13 1.31355E-15
 -1      1067 1.84891E+01 3.98744E-01-2.94363E-04-1.55286E+00-1.71382E-13-1.43041E-13
 -1      1068 1.98899E+01 2.24546E-01 7.22499E-05-2.35220E-03 5.84393E-14-3.05428E-13
 -1      1069 1.97550E+01 6.82726E-01-6.09549E-05-4.90364E-01 1.47903E-14-1.96457E-13
 -1      1070 1.95430E+01 6.77975E-01-1.94445E-04-6.21496E-01-1.14722E-14-2.10936E-13
 -1      1071 2.01331E+01 1.34749E+00 1.09269E-03-3.16919E-03 7.10571E-15-4.28911E-13
 -1      1072 1.59139E+01 1.14555E+00-2.36895E-05 6.69111E-01 1.93991E-13 2.11805E-13
 -1      1073 1.71840E+01 2.62288E-01 1.56229E-03-2.04393E+00-6.90297E-14-3.37273E-13
 -1      1074 1.70726E+01 1.23233E+00-2.14155E-03 2.78736E-01 8.37490E-14 2.49782E-14
 -1      1075 1.93758E+01 8.63251E-01-1.98002E-05 7.60781E-02 1.99995E-14-3.15712E-13
 -1      1076 2.01067E+01 1.12801E+00 4.13912E-04 3.52328E-02-2.45330E-14-3.49612E-13
 -1      1077 2.00890E+01 1.02719E+00-3.54628E-04-9.06949E-02 6.01613E-14-3.49612E-13
 -1      1078 1.75399E+01 9.06554E-01 3.96995E-03 1.07900E+00-1.22461E-13-5.24571E-13
 -1      1079 1.90299E+01 9.19639E-01-1.05087E-04 6.18862E-02-8.29291E-15-3.39691E-13
 -1      1080 1.85926E+01 1.00326E+00 1.31407E-03 3.36987E-02-9.48021E-15-3.60737E-13
 -1      1081 1.80399E+01 1.08187E+00 5.64784E-04-2.36836E-02-3.81495E-14-3.49634E-13
 -1      1082 1.73380E+01 1.13733E+00-4.32122E-04-1.17601E-01-9.16205E-14-4.07925E-13
 -1      1083 1.64657E+01 1.12435E+00-1.06673E-03-2.52792E-01-3.24697E-14-4.45581E-13
 -1      1084 1.96597E+01 8.38936E-01 1.81123E-04 7.75059E-02-1.25361E-17-3.59065E-13
 -1      1085 1.77651E+01 1.18120E+00 8.34271E-05 1.64234E-01-9.54978E-14-3.14725E-13
 -1      1086 1.82737E+01 1.10429E+00-2.50239E-04 8.16813E-02-2.03455E-13-5.28501E-13
 -1      1087 1.86714E+01 1.00186E+00-1.81090E-04 3.00836E-02-6.20800E-14-8.20365E-13
 -1      1088 1.89851E+01 8.84790E-01-1.20257E-04-5.93959E-04 1.34211E-13-5.63372E-13
 -1      1089 1.92329E+01 7.62942E-01-8.00228E-05-1.70875E-02 1.66536E-13-3.97540E-13
 -1      1090 1.94278E+01 6.43870E-01-5.24858E-05-2.43233E-02 2.31697E-13-2.87489E-13
 -1      1091 1.95798E+01 5.32803E-01-3.20849E-05-2.58504E-02-1.42166E-13-4.64040E-13
 -1      1092 1.96971E+01 4.32896E-01-2.25163E-05-2.41226E-02-4.08153E-14-4.44445E-13
 -1      1093 1.97855E+01 3.45793E-01-1.18710E-04-2.09204E-02 6.17432E-14-3.12785E-13
 -1      1094 1.98789E+01 8.73276E-01 4.12580E-04 6.62783E-02-1.06694E-14-3.87334E-13
 -1      1095 1.80145E+01 9.79252E-01-1.03727E-03 7.87109E-01-2.44905E-13-6.04613E-13
 -1      1096 1.84265E+01 9.73922E-01 1.26084E-04 5.71494E-01-2.90511E-13-6.02762E-13
 -1      1097 1.87637E+01 9.17811E-01 1.86765E-04 4.19858E-01-2.05634E-13-3.36749E-13
 -1      1098 1.90397E+01 8.32044E-01 1.63063E-04 3.10364E-01 2.72472E-13-4.13778E-13
 -1      1099 1.92643E+01 7.31129E-01 1.28339E-04 2.30158E-01 2.87419E-13-3.12835E-13
 -1      1100 1.94451E+01 6.25789E-01 9.77643E-05 1.70734E-01 4.11458E-14-5.95905E-13
 -1      1101 1.95887E+01 5.23483E-01 7.33575E-05 1.26335E-01-1.59279E-13-6.48816E-13
 -1      1102 1.97012E+01 4.28977E-01 5.68336E-05 9.29836E-02-1.06905E-13-7.67110E-13
 -1      1103 1.97876E+01 3.45160E-01 1.12797E-04 6.79498E-02 2.27944E-15-9.58493E-13
 -1      1104 1.64727E+01 8.51623E-01-3.79775E-03-1.18632E+00-4.67577E-14-4.72631E-13
 -1      1105 1.99324E+01 7.19844E-01-1.25190E-04-3.71134E-01 6.07002E-14-2.40059E-13
 -1      1106 1.90319E+01 6.63325E-01-1.99256E-04-9.67106E-01-1.09995E-13-1.75653E-13
 -1      1107 2.00174E+01 9.64819E-01 2.76670E-05 6.12178E-02-2.92495E-14-3.16423E-13
 -1      1108 2.00762E+01 8.34791E-01-6.52142E-05-2.38378E-01 9.81439E-14-2.23248E-13
 -1      1109 1.80215E+01 7.97659E-01-7.19727E-04-1.04215E+00-9.88557E-14-2.87628E-13
 -1      1110 1.98858E+01 2.32277E-01-4.23167E-05 4.54552E-02 1.81733E-13-1.12732E-12
 -1      1111 1.98304E+01 2.98624E-01 4.39764E-04-1.41074E-02 1.22807E-13-4.91966E-13
 -1      1112 1.95238E+01 7.79392E-01 6.99014E-06-3.45213E-01 3.84605E-14-2.27555E-13
 -1      1113 1.93018E+01 6.80522E-01 2.86058E-04-7.75481E-01-5.83601E-14-2.14801E-13
 -1      1114 1.98416E+01 2.85121E-01-1.49839E-04 5.59959E-02 1.17049E-13-9.61180E-13
 -1      1115 1.74263E+01 6.35378E-01 2.27702E-03-1.50468E+00-1.56609E-13-3.04020E-13
 -1      1116 1.98614E+01 2.59850E-01-2.32074E-05-7.63116E-03 1.80549E-13-3.00668E-13
 -1      1117 1.97626E+01 7.84428E-01-1.40160E-04-2.59500E-01 1.80352E-15-1.77528E-13
 -1      1118 1.84852E+01 8.44364E-01-2.07483E-04-7.77467E-01-1.06519E-13-2.64443E-13
 -1      1119 1.88679E+01 9.06070E-01-1.54009E-03-3.20108E-01-5.21943E-14-2.56482E-13
 -1      1120 1.92313E+01 8.06610E-01 3.86565E-04-4.51705E-01-4.18954E-14-2.00297E-13
 -1      1121 1.99675E+01 8.68780E-01-1.98767E-04-1.59902E-01 2.59641E-14-2.59438E-13
 -1      1122 2.78414E+01 9.04500E+00 2.30840E+00-6.65444E+00-6.40599E-14 2.22791E-12
 -1      1123 2.05253E+01 6.22124E+00 2.12090E-01-3.86263E+00-3.62210E-14 3.46834E-13
 -1      1124 1.94473E+01 5.85764E+00 7.81682E-02-2.83883E+00-2.64511E-14-4.72736E-13
 -1      1125 1.90538E+01 5.73477E+00 6.21052E-02-2.18082E+00-1.81140E-14-8.65930E-13
 -1      1126 1.88704E+01 5.67850E+00 5.79100E-02-1.64755E+00-1.11161E-14-1.05427E-12
 -1      1127 1.87733E+01 5.64838E+00 5.46402E-02-1.18664E+00-6.70297E-15-1.14444E-12
 -1      1128 1.87184E+01 5.63110E+00 5.18816E-02-7.69046E-01-4.08961E-15-1.17606E-12
 -1      1129 1.86894E+01 5.62184E+00 5.00036E-02-3.74167E-01-1.06859E-15-1.17194E-12
 -1      1130 1.86806E+01 5.61899E+00 4.93870E-02 8.24943E-03 2.55536E-15-1.15305E-12
 -1      1131 1.86900E+01 5.62206E+00 5.01287E-02 3.91123E-01 5.17078E-15-1.13211E-12
 -1      1132 1.87197E+01 5.63157E+00 5.21687E-02 7.87494E-01 7.58508E-15-1.08672E-12
 -1      1133 1.87759E+01 5.64938E+00 5.53728E-02 1.20788E+00 1.14908E-14-1.00511E-12
 -1      1134 1.88744E+01 5.67995E+00 5.87845E-02 1.67326E+00 1.59942E-14-8.69189E-13
 -1      1135 1.90579E+01 5.73600E+00 6.20633E-02 2.21397E+00 2.07542E-14-6.17350E-13
 -1      1136 1.94433E+01 5.85462E+00 7.21042E-02 2.87925E+00 2.75890E-14-1.58108E-13
 -1      1137 2.04321E+01 6.17648E+00 1.56125E-01 3.83751E+00 3.26406E-14 7.27047E-13
 -1      1138 2.51144E+01 7.96016E+00 1.41939E+00 5.80745E+00 6.81122E-14 2.52809E-12
 -1      1139 2.86520E+01 3.58746E+00 1.25172E+00-4.18734E+00-2.64677E-13 3.42121E-12
 -1      1140 2.01536E+01-1.78085E-01-6.15718E-01-1.06915E-01-9.40428E-14 2.81281E-12
 -1      1141 1.88073E+01-9.70055E-02-2.35930E-01 6.25537E-02-3.77753E-14 1.93033E-12
 -1      1142 1.85176E+01-4.95665E-02-6.08471E-02 4.02217E-02-2.33095E-14 1.30430E-12
 -1      1143 1.85174E+01-2.70745E-02-1.78624E-02 2.65659E-02-9.12855E-15 9.12728E-13
 -1      1144 1.86736E+01-1.65650E-02-9.01241E-03 1.90989E-02-1.90377E-14 6.97369E-13
 -1      1145 1.89241E+01-1.13475E-02-7.07633E-03 1.46360E-02-9.91362E-15 4.29313E-13
 -1      1146 1.92405E+01-9.00314E-03-6.90877E-03 1.19848E-02 6.60279E-17 1.86641E-13
 -1      1147 1.96134E+01-8.39830E-03-7.81000E-03 1.06356E-02-8.91529E-15 1.54217E-14
 -1      1148 2.00456E+01-8.88207E-03-9.61840E-03 1.04311E-02-4.39655E-15-2.16622E-13
 -1      1149 2.05478E+01-9.95884E-03-1.20552E-02 1.13968E-02 6.44883E-15-3.47843E-13
 -1      1150 2.11357E+01-1.10862E-02-1.45889E-02 1.36405E-02 2.42133E-14-3.02553E-13
 -1      1151 2.18257E+01-1.14982E-02-1.62382E-02 1.72444E-02-7.25581E-15-3.85785E-13
 -1      1152 2.26276E+01-1.00214E-02-1.52371E-02 2.20703E-02 7.36130E-15-4.03649E-13
 -1      1153 2.35328E+01-4.92150E-03-8.64552E-03 2.73707E-02 2.85801E-15-3.71234E-13
 -1      1154 2.44949E+01 6.03288E-03 7.73199E-03 3.11058E-02-3.22382E-14-4.38347E-13
 -1      1155 2.54021E+01 2.48735E-02 3.81272E-02 2.90297E-02 9.67369E-15-4.30510E-13
 -1      1156 2.60486E+01 5.13012E-02 8.26506E-02 1.42237E-02 1.92476E-14-4.66511E-13
 -1      1157 2.61327E+01 7.86906E-02 1.29387E-01-2.07699E-02 1.66976E-14-6.13710E-13
 -1      1158 2.53333E+01 9.01732E-02 1.47889E-01-7.69216E-02 2.57338E-14-7.28029E-13
 -1      1159 2.35155E+01 6.20825E-02 9.69469E-02-1.36984E-01-1.07041E-14-6.62193E-13
 -1      1160 2.10188E+01-1.71981E-02-3.73675E-02-1.61565E-01-8.57712E-15-5.71071E-13
 -1      1161 1.87616E+01-1.13554E-01-1.96653E-01-1.13222E-01 1.83950E-14-5.23512E-13
 -1      1162 1.78469E+01-1.60486E-01-2.70587E-01 4.92077E-04-2.48898E-14-7.09804E-13
 -1      1163 1.87858E+01-1.12951E-01-1.95164E-01 1.13954E-01-4.88498E-15-1.06851E-12
 -1      1164 2.10608E+01-1.63750E-02-3.54978E-02 1.61696E-01-1.16335E-14-1.25802E-12
 -1      1165 2.35678E+01 6.20838E-02 9.75832E-02 1.36663E-01 3.07324E-14-1.19423E-12
 -1      1166 2.53928E+01 8.97516E-02 1.47360E-01 7.64162E-02 4.82774E-15-1.23913E-12
 -1      1167 2.62026E+01 7.77226E-02 1.28038E-01 2.04403E-02 1.88217E-16-1.07404E-12
 -1      1168 2.61378E+01 5.00137E-02 8.08072E-02-1.41420E-02 1.78321E-14-1.12709E-12
 -1      1169 2.55229E+01 2.34647E-02 3.61537E-02-2.84977E-02-2.65699E-14-1.21696E-12
 -1      1170 2.46609E+01 4.49768E-03 5.64606E-03-3.01714E-02-2.49139E-15-1.08616E-12
 -1      1171 2.37584E+01-6.59453E-03-1.09410E-02-2.59889E-02-2.19940E-14-1.08057E-12
 -1      1172 2.29289E+01-1.18081E-02-1.77922E-02-2.01279E-02-7.02442E-14-8.82582E-13
 -1      1173 2.22205E+01-1.33285E-02-1.90345E-02-1.45824E-02-9.96165E-15-9.02587E-13
 -1      1174 2.16433E+01-1.28235E-02-1.75394E-02-1.00556E-02 2.08342E-14-9.56934E-13
 -1      1175 2.11883E+01-1.13723E-02-1.49883E-02-6.63380E-03-1.10052E-14-7.42495E-13
 -1      1176 2.08384E+01-9.60228E-03-1.22513E-02-4.16606E-03-2.36269E-14-9.46732E-13
 -1      1177 2.05753E+01-7.84521E-03-9.72505E-03-2.44488E-03 4.30633E-14-9.42987E-13
 -1      1178 2.03813E+01-6.25700E-03-7.55676E-03-1.27802E-03 3.48871E-14-3.41613E-13
 -1      1179 2.02414E+01-4.89574E-03-5.77208E-03-5.09658E-04-5.97206E-14-4.76116E-13
 -1      1180 2.01430E+01-3.76859E-03-4.34355E-03-2.08857E-05-2.85758E-14-9.28471E-13
 -1      1181 2.00760E+01-2.85836E-03-3.22458E-03 2.76473E-04 5.78230E-14-8.22712E-13
 -1      1182 2.00323E+01-2.13775E-03-2.36568E-03 4.47453E-04-2.22349E-14-6.11940E-13
 -1      1183 2.00059E+01-1.57613E-03-1.72065E-03 5.40922E-04 2.97074E-14-1.17442E-12
 -1      1184 1.99919E+01-1.14106E-03-1.24444E-03 5.95606E-04 4.92974E-14-1.11926E-12
 -1      1185 1.99871E+01-7.96292E-04-8.75794E-04 6.43823E-04 6.17122E-14-7.42720E-13
 -1      1186 1.99886E+01-4.82936E-04-5.00574E-04 6.99748E-04-2.18457E-14-2.20314E-13
 -1      1187 1.99941E+01-2.11818E-04 1.45738E-04 7.77258E-04 7.07918E-15 3.75569E-14
 -1      1188 1.99990E+01 3.30898E-04 8.84082E-04 2.57367E-04 4.34354E-14 2.35592E-13
 -1      1189 2.76419E+01 5.22364E-01 3.64977E-01 1.95593E+00-4.44089E-14 4.00235E-12
 -1      1190 2.00170E+01-6.67482E-02-5.72758E-01 1.28390E-01 2.64927E-14 3.20455E-12
 -1      1191 1.88849E+01-4.15220E-02-1.93100E-01 1.96613E-02 2.17812E-14 2.45824E-12
 -1      1192 1.85502E+01-2.29148E-02-5.18017E-02 2.36727E-03 1.63012E-14 1.98249E-12
 -1      1193 1.85340E+01-1.45650E-02-1.58525E-02-2.71057E-03 1.25145E-14 1.59379E-12
 -1      1194 1.86829E+01-1.03130E-02-8.28509E-03-3.82625E-03 1.05254E-14 1.24295E-12
 -1      1195 1.89268E+01-8.07768E-03-6.83069E-03-3.78554E-03-7.96140E-15 1.09127E-12
 -1      1196 1.92332E+01-6.99707E-03-6.64104E-03-3.42974E-03 1.27034E-14 9.55453E-13
 -1      1197 1.95882E+01-6.58009E-03-6.97467E-03-3.10187E-03 7.46690E-16 7.44902E-13
 -1      1198 1.99879E+01-6.43189E-03-7.59877E-03-3.05465E-03-1.05769E-15 5.93168E-13
 -1      1199 2.04332E+01-6.13162E-03-8.11169E-03-3.54635E-03 2.55575E-14 4.22011E-13
 -1      1200 2.09251E+01-5.16061E-03-7.85062E-03-4.85230E-03 5.60890E-15 3.06095E-13
 -1      1201 2.14595E+01-2.86992E-03-5.85058E-03-7.22860E-03-1.54937E-14 4.24145E-13
 -1      1202 2.20206E+01 1.47462E-03-8.44666E-04-1.08033E-02-3.13077E-16 3.26151E-13
 -1      1203 2.25728E+01 8.48675E-03 8.54772E-03-1.53507E-02-7.89120E-15 1.48879E-13
 -1      1204 2.30517E+01 1.81819E-02 2.32100E-02-1.99276E-02 1.05120E-14-1.52822E-13
 -1      1205 2.33590E+01 2.91980E-02 4.22755E-02-2.24606E-02-1.95417E-15-2.90828E-13
 -1      1206 2.33688E+01 3.79881E-02 6.13738E-02-1.96397E-02 1.00657E-15-2.67125E-13
 -1      1207 2.29554E+01 3.88629E-02 7.14895E-02-7.82998E-03 1.54000E-14-3.86777E-13
 -1      1208 2.20546E+01 2.63135E-02 6.09132E-02 1.43567E-02-3.67479E-14 9.03652E-14
 -1      1209 2.07449E+01-1.59734E-04 2.24355E-02 4.24633E-02-3.17847E-14 2.63803E-13
 -1      1210 1.93034E+01-3.18078E-02-3.67700E-02 6.48489E-02-1.01698E-15 2.23453E-13
 -1      1211 1.81613E+01-5.34813E-02-9.23510E-02 6.78471E-02 1.68580E-14-1.96794E-13
 -1      1212 1.77284E+01-5.41050E-02-1.15705E-01 4.56773E-02 2.70972E-14-5.28102E-13
 -1      1213 1.81743E+01-3.51597E-02-9.46333E-02 6.71368E-03-3.98726E-15-3.65277E-13
 -1      1214 1.93273E+01-9.11119E-03-4.33306E-02-3.12349E-02 3.45503E-14-1.73084E-13
 -1      1215 2.07770E+01 1.18058E-02 1.03467E-02-5.32391E-02-5.52381E-14 5.98965E-14
 -1      1216 2.20961E+01 2.21842E-02 4.53074E-02-5.56486E-02-2.63240E-14 7.40658E-14
 -1      1217 2.30122E+01 2.32452E-02 5.60817E-02-4.42794E-02 1.98916E-14-9.72833E-14
 -1      1218 2.34502E+01 1.89642E-02 4.92463E-02-2.77454E-02 1.19301E-14-2.50959E-13
 -1      1219 2.34762E+01 1.28798E-02 3.46739E-02-1.24894E-02 2.12688E-14-6.27471E-14
 -1      1220 2.32169E+01 7.16814E-03 1.96963E-02-1.37152E-03-8.68619E-15 1.63073E-13
 -1      1221 2.27997E+01 2.73968E-03 7.89272E-03 5.31251E-03-4.07610E-14 8.00545E-13
 -1      1222 2.23244E+01-2.64855E-04 5.27780E-05 8.47869E-03 1.11000E-14 7.07906E-13
 -1      1223 2.18572E+01-2.05656E-03-4.40082E-03 9.30357E-03 5.44494E-14 2.87104E-13
 -1      1224 2.14355E+01-2.94909E-03-6.43602E-03 8.78301E-03-5.02434E-14 2.14516E-14
 -1      1225 2.10761E+01-3.23694E-03-6.94391E-03 7.61840E-03 9.17897E-14-3.66443E-13
 -1      1226 2.07826E+01-3.15317E-03-6.58995E-03 6.24610E-03 3.42758E-14-5.00902E-13
 -1      1227 2.05509E+01-2.86522E-03-5.81701E-03 4.90910E-03-1.66257E-15-5.76248E-13
 -1      1228 2.03735E+01-2.48537E-03-4.89648E-03 3.72493E-03 1.06349E-15-7.04814E-13
 -1      1229 2.02415E+01-2.08432E-03-3.98250E-03 2.73621E-03-2.83058E-14-4.65475E-13
 -1      1230 2.01464E+01-1.70353E-03-3.15455E-03 1.94436E-03-1.35900E-14-1.66651E-13
 -1      1231 2.00801E+01-1.36499E-03-2.44738E-03 1.33031E-03-4.79326E-15-3.28556E-13
 -1      1232 2.00361E+01-1.07806E-03-1.87076E-03 8.66175E-04 2.81886E-14-2.33681E-13
 -1      1233 2.00089E+01-8.42797E-04-1.42016E-03 5.20429E-04 5.60389E-14-4.92762E-13
 -1      1234 1.99941E+01-6.49244E-04-1.07828E-03 2.58980E-04-2.74704E-14-6.67338E-13
 -1      1235 1.99885E+01-4.77232E-04-8.04483E-04 4.30236E-05 7.59811E-14-1.27150E-12
 -1      1236 1.99893E+01-2.68562E-04-4.83154E-04-1.86846E-04-2.83679E-14-1.55713E-12
 -1      1237 1.99943E+01 1.36028E-04 1.63784E-04-4.83953E-04 4.43415E-14-1.02537E-12
 -1      1238 1.99991E+01 2.57853E-04 8.71083E-04-2.52610E-04 3.06735E-15-5.82033E-13
 -1      1239 2.00000E+01-7.94900E-04 7.80790E-04-2.99491E-04-5.10679E-13-9.88345E-14
 -1      1240 1.99997E+01-5.43362E-03-3.14203E-05-6.31734E-04-4.52084E-13-1.20065E-13
 -1      1241 1.99994E+01-9.25576E-03-5.66503E-04-3.93044E-04 5.11070E-13-5.30449E-14
 -1      1242 1.99994E+01-8.86068E-03-5.93048E-04-1.12550E-04-1.45233E-13 1.12030E-13
 -1      1243 1.99996E+01-4.50314E-03-3.48215E-04 8.45521E-05-7.87179E-14 7.90094E-15
 -1      1244 1.99998E+01 2.02764E-03-2.67186E-05 1.76262E-04-2.19010E-13-2.35338E-14
 -1      1245 2.00000E+01 8.64411E-03 2.67674E-04 1.73508E-04-1.82770E-13 3.10656E-14
 -1      1246 2.00002E+01 1.34541E-02 4.69897E-04 9.95996E-05-6.14112E-13 8.47678E-14
 -1      1247 2.00002E+01 1.50497E-02 5.37652E-04-1.11734E-05-9.31664E-13 1.44144E-14
 -1      1248 2.00002E+01 1.29780E-02 4.57903E-04-1.20286E-04-5.58097E-13 9.74771E-14
 -1      1249 2.00000E+01 7.77080E-03 2.43950E-04-1.88183E-04-9.62954E-13-2.08572E-13
 -1      1250 1.99998E+01 9.10467E-04-5.83460E-05-1.82374E-04-1.63538E-12 2.08870E-14
 -1      1251 1.99996E+01-5.64922E-03-3.83810E-04-7.80771E-05-1.71104E-12-5.17056E-15
 -1      1252 1.99994E+01-9.78958E-03-6.17977E-04 1.33139E-04-7.66954E-13 5.52681E-14
 -1      1253 1.99995E+01-9.80435E-03-5.40450E-04 4.88169E-04-1.42721E-12-4.47264E-14
 -1      1254 1.99997E+01-5.35151E-03 1.18275E-04 9.58387E-04-8.61058E-13-9.36948E-14
 -1      1255 2.00000E+01-9.63984E-04 7.37696E-04 3.96750E-04-2.69170E-13 1.96006E-13
 -1      1256-1.09861E+00-2.37053E+01-3.68847E+00-2.09904E+00 2.49728E-12 4.20740E-13
 -1      1257-1.70840E+00-1.52076E+01-3.03142E+00-4.00064E+00 3.93352E-12 1.37484E-12
 -1      1258 9.83291E-02-3.10434E+00-1.86419E+00-5.23195E-01 4.68314E-12 2.74891E-12
 -1      1259 8.66842E+00 7.19172E+00-3.42349E-01 7.85150E+00 4.10805E-12 3.71525E-12
 -1      1260 2.50039E+01 1.10735E+01 1.38618E+00 1.59697E+01 2.76834E-12 3.86291E-12
 -1      1261 4.50675E+01 8.29548E+00 2.85047E+00 1.74286E+01 1.35159E-12 3.26272E-12
 -1      1262 6.16798E+01 3.34140E+00 3.90646E+00 1.07070E+01 3.52579E-13 1.42386E-12
 -1      1263 6.61881E+01 1.81127E+00 4.14453E+00-1.74497E+00 1.39305E-13-6.51784E-13
 -1      1264 5.80170E+01 4.64679E+00 3.70229E+00-1.32858E+01 7.99555E-13-2.79754E-12
 -1      1265 3.97356E+01 9.46414E+00 2.49253E+00-1.80045E+01 2.21301E-12-4.20997E-12
 -1      1266 2.00792E+01 1.09638E+01 9.36345E-01-1.43297E+01 3.63909E-12-4.50862E-12
 -1      1267 5.62696E+00 5.19262E+00-7.42572E-01-5.51532E+00 4.41780E-12-3.62532E-12
 -1      1268-9.38455E-01-6.77764E+00-2.25136E+00 2.17870E+00 3.94373E-12-2.09355E-12
 -1      1269-1.55688E+00-1.88879E+01-3.33293E+00 3.89568E+00 2.52021E-12-7.35162E-13
 -1      1270-9.92649E-01-2.48515E+01-3.75807E+00 6.12176E-01 6.80012E-13-2.27499E-13
 -1      1271-1.39900E+00-2.22292E+01-3.63853E+00-3.52159E+00-1.44396E-12-3.91333E-13
 -1      1272-1.65205E+00-1.11675E+01-2.73369E+00-3.42991E+00-2.98339E-12-1.41626E-12
 -1      1273 2.53884E+00 1.51897E+00-1.40182E+00 2.46738E+00-4.12381E-12-3.12472E-12
 -1      1274 1.45576E+01 9.47257E+00 2.70602E-01 1.13856E+01-3.86047E-12-4.22862E-12
 -1      1275 3.41404E+01 1.02777E+01 2.07860E+00 1.77417E+01-2.39830E-12-3.97593E-12
 -1      1276 5.51226E+01 5.94709E+00 3.61598E+00 1.51581E+01-9.75942E-13-2.65210E-12
 -1      1277 6.74083E+01 1.99611E+00 4.39753E+00 4.37932E+00-1.95059E-13-2.72837E-13
 -1      1278 6.46671E+01 2.71610E+00 4.15734E+00-8.96884E+00-4.43930E-13 2.19169E-12
 -1      1279 4.83474E+01 7.64869E+00 3.10258E+00-1.71877E+01-1.33932E-12 3.32645E-12
 -1      1280 2.70521E+01 1.08974E+01 1.50307E+00-1.63573E+01-2.75402E-12 3.95639E-12
 -1      1281 9.29152E+00 7.60083E+00-3.49374E-01-8.31511E+00-4.22662E-12 4.09517E-12
 -1      1282 8.90676E-02-2.75015E+00-1.94874E+00 4.22192E-01-4.23750E-12 2.70395E-12
 -1      1283-1.86370E+00-1.54061E+01-3.13467E+00 4.24198E+00-2.71805E-12 1.05310E-12
 -1      1284-1.19397E+00-2.38349E+01-3.71867E+00 2.26898E+00-2.65454E-13 2.72470E-13
 -1      1285 2.21919E+01 1.83519E+00-7.22090E-01-2.76625E+00-9.84768E-14 1.82321E-12
 -1      1286 2.03541E+01 4.68251E+00-4.71032E-02-3.26048E+00-2.76487E-13-3.49859E-14
 -1      1287 2.08411E+01 4.79572E+00-1.11451E-01-4.11546E+00-3.59879E-13 3.98820E-13
 -1      1288 1.95526E+01 4.99338E+00-1.89016E-02-2.59986E+00-2.76917E-13-6.50986E-13
 -1      1289 1.98408E+01 5.08710E+00 1.87012E-03-2.99373E+00-3.18086E-13-3.88307E-13
 -1      1290 2.05313E+01 3.94552E+00-2.50912E-02-3.02112E+00-4.85084E-13-3.61239E-14
 -1      1291 1.92137E+01 5.09189E+00-3.45079E-03-2.01294E+00-2.25840E-13-9.52075E-13
 -1      1292 1.93599E+01 5.14626E+00 1.17886E-02-2.30645E+00-2.61045E-13-8.16153E-13
 -1      1293 1.97788E+01 4.36926E+00-2.37579E-02-2.42945E+00-4.36486E-13-5.39811E-13
 -1      1294 1.90369E+01 5.14413E+00 2.88287E-03-1.50939E+00-1.66868E-13-1.09971E-12
 -1      1295 1.91167E+01 5.17431E+00 1.33475E-02-1.75728E+00-1.89406E-13-1.03489E-12
 -1      1296 1.94206E+01 4.56964E+00-1.94427E-02-1.87139E+00-3.37749E-13-7.99225E-13
 -1      1297 1.89360E+01 5.17839E+00 5.80475E-03-1.07038E+00-1.07017E-13-1.16693E-12
 -1      1298 1.89826E+01 5.19596E+00 1.30438E-02-1.28683E+00-1.27168E-13-1.13391E-12
 -1      1299 1.92288E+01 4.68670E+00-1.55449E-02-1.38889E+00-2.44841E-13-9.24823E-13
 -1      1300 1.88766E+01 5.20126E+00 7.30809E-03-6.61324E-01-5.66053E-14-1.18146E-12
 -1      1301 1.89036E+01 5.21132E+00 1.19037E-02-8.64016E-01-7.44751E-14-1.17555E-12
 -1      1302 1.91158E+01 4.76051E+00-1.34371E-02-9.59569E-01-1.55100E-13-9.81753E-13
 -1      1303 1.88470E+01 5.21513E+00 8.41656E-03-2.74612E-01-4.37172E-15-1.17874E-12
 -1      1304 1.88594E+01 5.21970E+00 1.06226E-02-4.67581E-01-2.16710E-14-1.18335E-12
 -1      1305 1.90507E+01 4.80530E+00-1.23157E-02-5.59941E-01-6.45323E-14-9.90482E-13
 -1      1306 1.88420E+01 5.22091E+00 9.50926E-03 1.03089E-01 4.42147E-14-1.15610E-12
 -1      1307 1.88417E+01 5.22080E+00 9.42418E-03-8.68885E-02 2.58304E-14-1.16917E-12
 -1      1308 1.90210E+01 4.82627E+00-1.18516E-02-1.79337E-01 1.92287E-14-9.84567E-13
 -1      1309 1.88606E+01 5.21908E+00 1.07340E-02 4.84454E-01 9.48915E-14-1.12824E-12
 -1      1310 1.88477E+01 5.21427E+00 8.34643E-03 2.91006E-01 7.98759E-14-1.14608E-12
 -1      1311 1.90216E+01 4.82544E+00-1.18755E-02 1.95351E-01 9.82902E-14-9.62976E-13
 -1      1312 1.89060E+01 5.20970E+00 1.20369E-02 8.82547E-01 1.41834E-13-1.07665E-12
 -1      1313 1.88784E+01 5.19951E+00 7.25691E-03 6.78793E-01 1.23020E-13-1.10957E-12
 -1      1314 1.90528E+01 4.80271E+00-1.23837E-02 5.76765E-01 1.78813E-13-9.33333E-13
 -1      1315 1.89856E+01 5.19356E+00 1.32540E-02 1.30444E+00 1.92981E-13-9.87262E-13
 -1      1316 1.89384E+01 5.17562E+00 5.73200E-03 1.08647E+00 1.73405E-13-1.04359E-12
 -1      1317 1.91192E+01 4.75621E+00-1.34238E-02 9.74544E-01 2.60897E-13-8.79952E-13
 -1      1318 1.91233E+01 5.17013E+00 1.36151E-02 1.78334E+00 2.57494E-13-8.33639E-13
 -1      1319 1.90417E+01 5.13918E+00 2.74506E-03 1.53267E+00 2.30892E-13-9.24889E-13
 -1      1320 1.92342E+01 4.67939E+00-1.55947E-02 1.40700E+00 3.46892E-13-7.73812E-13
 -1      1321 1.93695E+01 5.13976E+00 1.13809E-02 2.34066E+00 3.15560E-13-5.57668E-13
 -1      1322 1.92217E+01 5.08346E+00-4.28402E-03 2.04269E+00 2.81112E-13-7.26273E-13
 -1      1323 1.94328E+01 4.55668E+00-1.94085E-02 1.89769E+00 4.39894E-13-6.01012E-13
 -1      1324 1.98652E+01 5.09609E+00 7.60264E-03 3.03200E+00 3.56416E-13-5.56638E-14
 -1      1325 1.95631E+01 4.98440E+00-1.97638E-02 2.64186E+00 3.22083E-13-3.57658E-13
 -1      1326 1.97987E+01 4.34953E+00-2.38842E-02 2.46828E+00 5.13522E-13-2.88519E-13
 -1      1327 2.10747E+01 4.89193E+00 9.35622E-03 4.00963E+00 3.07088E-13 8.88026E-13
 -1      1328 2.03285E+01 4.72565E+00-4.64915E-02 3.36910E+00 3.03244E-13 3.12791E-13
 -1      1329 2.05688E+01 3.90894E+00-2.15577E-02 3.12408E+00 5.36415E-13 2.73795E-13
 -1      1330 2.70869E+01 3.18745E+00 9.18539E-01 4.54657E+00 1.57249E-13 2.65610E-12
 -1      1331 2.19691E+01 3.51140E+00-1.80111E-01 3.84777E+00 1.61066E-13 1.43000E-12
 -1      1332 2.20791E+01 2.55237E+00-3.19789E-02 3.41093E+00 5.01999E-13 1.13887E-12
 -1      1333 2.13577E+01 3.57660E-01-7.60742E-01 1.16518E+00 2.82593E-13 2.54713E-12
 -1      1334 2.19384E+01 1.30330E-01-3.99596E-01-1.26343E+00-2.88991E-13 1.92735E-12
 -1      1335 2.06398E+01 3.05100E-01-1.63553E-01-7.87229E-01-2.69597E-13 1.59340E-12
 -1      1336 2.00592E+01 1.53557E-01-7.28723E-02-3.83844E-01-2.24713E-13 1.45266E-12
 -1      1337 1.96118E+01 9.18838E-02-1.43388E-02-3.11760E-01-2.15800E-13 1.13001E-12
 -1      1338 2.09588E+01 3.67451E-01-1.04055E-01-1.23722E+00-4.75064E-13 8.30266E-13
 -1      1339 1.92759E+01 6.58728E-02 3.36768E-03-1.14757E-01-1.71901E-13 1.01303E-12
 -1      1340 1.91469E+01 4.32767E-02 1.36158E-02-9.61073E-02-1.57027E-13 7.75553E-13
 -1      1341 1.99464E+01 1.34984E-01-3.55638E-02-4.65024E-01-3.73920E-13 6.18717E-13
 -1      1342 1.90137E+01 3.41699E-02 1.34614E-02-1.30790E-03-1.01582E-13 6.72670E-13
 -1      1343 1.90273E+01 2.26635E-02 1.14612E-02 9.56702E-03-1.03330E-13 5.25909E-13
 -1      1344 1.95168E+01 5.89470E-02-9.25426E-03-1.21788E-01-2.62932E-13 4.32970E-13
 -1      1345 1.90072E+01 2.00006E-02 8.99614E-03 6.14488E-02-9.16606E-14 4.72483E-13
 -1      1346 1.90946E+01 1.37413E-02 6.92300E-03 6.82699E-02-8.77952E-14 3.59438E-13
 -1      1347 1.93697E+01 3.01267E-02-4.60501E-03 5.33988E-02-1.88221E-13 2.58578E-13
 -1      1348 1.91430E+01 1.34052E-02 4.90028E-03 1.00987E-01-8.81786E-14 2.98846E-13
 -1      1349 1.92757E+01 9.78550E-03 4.22216E-03 1.05892E-01-7.84479E-14 1.80691E-13
 -1      1350 1.93955E+01 1.83627E-02-3.72826E-03 1.55912E-01-1.72938E-13 1.48131E-13
 -1      1351 1.93702E+01 1.05943E-02 2.64738E-03 1.30134E-01-4.64910E-14 1.45023E-13
 -1      1352 1.95362E+01 8.50430E-03 2.87516E-03 1.34400E-01-4.08454E-14 5.09020E-14
 -1      1353 1.95326E+01 1.38403E-02-3.31402E-03 2.25210E-01-1.16787E-13 7.01067E-14
 -1      1354 1.96661E+01 1.00414E-02 1.45572E-03 1.56081E-01-5.60476E-14 3.16448E-14
 -1      1355 1.98626E+01 8.87627E-03 2.15005E-03 1.60560E-01-6.63848E-14-8.58376E-14
 -1      1356 1.97497E+01 1.31909E-02-3.11107E-03 2.81061E-01-1.01240E-13-3.47385E-14
 -1      1357 2.00243E+01 1.09693E-02 6.96280E-04 1.83353E-01-6.77505E-14-1.04098E-13
 -1      1358 2.02538E+01 1.02967E-02 1.65068E-03 1.88647E-01-6.02246E-14-1.77387E-13
 -1      1359 2.00329E+01 1.49616E-02-3.19548E-03 3.34968E-01-1.25820E-13-7.15081E-14
 -1      1360 2.04476E+01 1.28315E-02 4.76589E-05 2.14817E-01-3.76253E-14-2.23697E-13
 -1      1361 2.07157E+01 1.22254E-02 1.17480E-03 2.21310E-01-1.72616E-14-2.59228E-13
 -1      1362 2.03790E+01 1.82603E-02-3.54940E-03 3.94100E-01-1.05808E-13-1.15197E-13
 -1      1363 2.09441E+01 1.50369E-02-6.53916E-04 2.51778E-01 2.47486E-14-3.02523E-13
 -1      1364 2.12581E+01 1.39556E-02 5.95281E-04 2.59564E-01 1.33647E-14-2.89732E-13
 -1      1365 2.07905E+01 2.21808E-02-4.07224E-03 4.62356E-01-1.64311E-14-2.03856E-13
 -1      1366 2.15237E+01 1.67050E-02-1.48448E-03 2.93418E-01-3.22145E-14-2.85109E-13
 -1      1367 2.18888E+01 1.43720E-02-1.61640E-04 3.02115E-01-3.50592E-14-3.39853E-13
 -1      1368 2.12726E+01 2.53706E-02-4.58968E-03 5.39886E-01-2.03704E-14-2.83134E-13
 -1      1369 2.21919E+01 1.63704E-02-2.40226E-03 3.35527E-01 2.55698E-15-3.24371E-13
 -1      1370 2.26072E+01 1.16661E-02-1.05278E-03 3.43916E-01 8.58341E-15-3.18657E-13
 -1      1371 2.18285E+01 2.55335E-02-4.80973E-03 6.21265E-01-3.08731E-14-2.63962E-13
 -1      1372 2.29417E+01 1.16471E-02-3.12533E-03 3.68418E-01 2.25315E-14-3.15838E-13
 -1      1373 2.33926E+01 3.10132E-03-1.77153E-03 3.73871E-01 4.71482E-15-2.89727E-13
 -1      1374 2.24534E+01 1.88484E-02-4.23553E-03 6.92210E-01 6.53568E-15-2.50128E-13
 -1      1375 2.37414E+01-9.62376E-04-2.93907E-03 3.74276E-01-3.29773E-14-2.67310E-13
 -1      1376 2.41883E+01-1.48223E-02-1.56174E-03 3.72053E-01-3.54956E-14-2.97689E-13
 -1      1377 2.31266E+01-4.08833E-04-2.06386E-03 7.25062E-01-8.58959E-15-1.98747E-13
 -1      1378 2.45169E+01-2.55059E-02-5.74742E-04 3.25342E-01 1.21765E-14-2.74326E-13
 -1      1379 2.48836E+01-4.49523E-02 7.63448E-04 3.08231E-01-8.76382E-15-2.93316E-13
 -1      1380 2.38005E+01-3.90946E-02 2.82561E-03 6.74783E-01-1.62891E-14-9.67880E-14
 -1      1381 2.51355E+01-6.40239E-02 5.35272E-03 1.86948E-01-2.09294E-15-2.81082E-13
 -1      1382 2.53035E+01-8.54415E-02 6.16874E-03 1.46610E-01 5.76449E-15-2.83571E-13
 -1      1383 2.43896E+01-1.01160E-01 1.14925E-02 4.80926E-01-5.42101E-15-8.55670E-14
 -1      1384 2.54012E+01-1.10173E-01 1.48155E-02-6.67290E-02 2.57763E-14-3.10884E-13
 -1      1385 2.52284E+01-1.22749E-01 1.34938E-02-1.34038E-01-1.80047E-14-3.43711E-13
 -1      1386 2.47651E+01-1.77692E-01 2.36762E-02 8.70604E-02 1.98348E-14-1.11345E-13
 -1      1387 2.50926E+01-1.41737E-01 2.35587E-02-4.17761E-01-3.28210E-15-3.47108E-13
 -1      1388 2.44791E+01-1.27259E-01 1.76183E-02-5.00681E-01-5.31918E-14-3.70613E-13
 -1      1389 2.47698E+01-2.34252E-01 3.52125E-02-5.08149E-01-4.84404E-14-6.07596E-14
 -1      1390 2.40731E+01-1.19478E-01 2.27309E-02-7.61151E-01 3.16830E-14-3.72077E-13
 -1      1391 2.30708E+01-6.29748E-02 9.84293E-03-8.22439E-01-2.06449E-14-3.37189E-13
 -1      1392 2.42775E+01-2.09197E-01 3.62744E-02-1.17514E+00-2.84200E-14-4.51618E-14
 -1      1393 2.24711E+01-1.47870E-02 3.64585E-03-9.00697E-01-3.92711E-14-2.99066E-13
 -1      1394 2.13721E+01 7.20252E-02-1.33765E-02-8.88344E-01 2.56479E-15-2.60472E-13
 -1      1395 2.33076E+01-5.26059E-02 1.44145E-02-1.60967E+00-2.64740E-14-4.02629E-14
 -1      1396 2.08096E+01 1.39847E-01-2.68807E-02-6.60895E-01 8.60423E-16-3.88939E-13
 -1      1397 2.00768E+01 2.09344E-01-4.02253E-02-5.52995E-01-2.42653E-14-4.10498E-13
 -1      1398 2.21535E+01 1.96291E-01-3.03673E-02-1.44966E+00-5.67133E-14-1.21139E-13
 -1      1399 1.98434E+01 2.43731E-01-4.78904E-02-7.27050E-02-1.07608E-13-4.45328E-13
 -1      1400 1.98492E+01 2.43530E-01-4.76474E-02 8.22045E-02-9.24538E-14-5.98317E-13
 -1      1401 2.13484E+01 3.96517E-01-6.97177E-02-5.86454E-01-7.65187E-14-2.71488E-13
 -1      1402 2.00907E+01 2.08732E-01-3.97008E-02 5.61704E-01-7.72004E-14-6.77486E-13
 -1      1403 2.08337E+01 1.38880E-01-2.60411E-02 6.69014E-01-6.96630E-14-7.55229E-13
 -1      1404 2.13560E+01 3.94794E-01-6.96657E-02 6.03936E-01-1.76952E-13-4.23041E-13
 -1      1405 2.14031E+01 7.10871E-02-1.24726E-02 8.94367E-01-1.06091E-13-8.46614E-13
 -1      1406 2.25093E+01-1.55859E-02 4.52717E-03 9.06130E-01-6.04326E-14-9.10050E-13
 -1      1407 2.21766E+01 1.95061E-01-2.91597E-02 1.46355E+00-1.92374E-13-5.37397E-13
 -1      1408 2.31139E+01-6.35584E-02 1.02265E-02 8.26381E-01 4.87891E-15-9.37431E-13
 -1      1409 2.41208E+01-1.19676E-01 2.28130E-02 7.64796E-01 4.77916E-15-1.02544E-12
 -1      1410 2.33423E+01-5.40178E-02 1.49041E-02 1.61895E+00-6.86985E-14-6.34465E-13
 -1      1411 2.45318E+01-1.26957E-01 1.75275E-02 5.04547E-01 1.22957E-14-1.02792E-12
 -1      1412 2.51501E+01-1.41000E-01 2.34624E-02 4.21922E-01 2.94851E-14-9.99152E-13
 -1      1413 2.43214E+01-2.09402E-01 3.59884E-02 1.18294E+00 2.94990E-14-8.26136E-13
 -1      1414 2.52926E+01-1.21688E-01 1.32972E-02 1.40177E-01 3.81951E-14-9.59646E-13
 -1      1415 2.54731E+01-1.08769E-01 1.46107E-02 7.35555E-02 5.12385E-14-9.69891E-13
 -1      1416 2.48249E+01-2.32893E-01 3.46538E-02 5.18719E-01 4.57186E-14-8.69351E-13
 -1      1417 2.53851E+01-8.37771E-02 5.95554E-03-1.36381E-01 1.48596E-14-9.06670E-13
 -1      1418 2.52299E+01-6.22350E-02 5.22974E-03-1.75752E-01 3.20716E-14-8.88456E-13
 -1      1419 2.48363E+01-1.75196E-01 2.29899E-02-6.99502E-02 4.37757E-14-7.65877E-13
 -1      1420 2.49921E+01-4.30634E-02 6.35900E-04-2.92958E-01-2.48911E-14-8.49617E-13
 -1      1421 2.46444E+01-2.36273E-02-5.73716E-04-3.09068E-01-1.60119E-14-8.48734E-13
 -1      1422 2.44842E+01-9.80295E-02 1.08837E-02-4.54726E-01 2.11012E-14-6.92733E-13
 -1      1423 2.43344E+01-1.27619E-02-1.63968E-03-3.51386E-01 4.17934E-14-8.28778E-13
 -1      1424 2.39134E+01 1.05896E-03-2.87546E-03-3.52535E-01-4.97811E-15-8.19265E-13
 -1      1425 2.39270E+01-3.57573E-02 2.25288E-03-6.38482E-01-9.70751E-15-5.67551E-13
 -1      1426 2.35883E+01 5.39186E-03-1.86526E-03-3.47323E-01-2.41680E-15-7.08725E-13
 -1      1427 2.31708E+01 1.38513E-02-3.06291E-03-3.40677E-01 4.72767E-14-6.87863E-13
 -1      1428 2.32944E+01 3.24865E-03-2.65142E-03-6.77772E-01 6.04719E-14-4.88436E-13
 -1      1429 2.28654E+01 1.42097E-02-1.21455E-03-3.10903E-01 2.34860E-14-6.45305E-13
 -1      1430 2.24916E+01 1.87392E-02-2.37979E-03-3.01191E-01 4.31231E-15-6.23591E-13
 -1      1431 2.26728E+01 2.29241E-02-4.85898E-03-6.32875E-01 1.20326E-13-3.37214E-13
 -1      1432 2.22235E+01 1.71368E-02-4.31748E-04-2.62115E-01-5.54962E-14-4.44129E-13
 -1      1433 2.19088E+01 1.91542E-02-1.53882E-03-2.51986E-01 4.66033E-15-4.91824E-13
 -1      1434 2.21104E+01 3.00263E-02-5.45776E-03-5.48876E-01 6.30292E-14-2.43619E-13
 -1      1435 2.16838E+01 1.68424E-02 1.70516E-04-2.12298E-01-3.75251E-14-4.90598E-13
 -1      1436 2.14296E+01 1.73986E-02-8.35920E-04-2.03028E-01-2.30311E-14-4.79105E-13
 -1      1437 2.16280E+01 3.01777E-02-5.22378E-03-4.53805E-01-2.43638E-14-5.09241E-14
 -1      1438 2.12469E+01 1.50419E-02 5.31703E-04-1.66984E-01 5.61495E-14-5.99735E-13
 -1      1439 2.10477E+01 1.48197E-02-3.40234E-04-1.59061E-01 2.12716E-14-5.27036E-13
 -1      1440 2.12297E+01 2.70695E-02-4.62375E-03-3.62745E-01-1.38934E-14-2.95352E-13
 -1      1441 2.09031E+01 1.27175E-02 6.95046E-04-1.28296E-01-6.64885E-14-5.68887E-13
 -1      1442 2.07507E+01 1.21273E-02-2.78372E-05-1.21800E-01-6.50164E-14-6.36937E-13
 -1      1443 2.09100E+01 2.28143E-02-3.91027E-03-2.82527E-01-4.75050E-14-3.79432E-13
 -1      1444 2.06387E+01 1.03789E-02 7.26444E-04-9.65497E-02-7.54123E-14-5.65534E-13
 -1      1445 2.05246E+01 9.65357E-03 1.49413E-04-9.13709E-02 1.24928E-13-4.20312E-13
 -1      1446 2.06595E+01 1.84942E-02-3.20889E-03-2.15289E-01-7.12453E-14-3.01347E-13
 -1      1447 2.04396E+01 8.26046E-03 6.82112E-04-7.12034E-02 1.53177E-13-5.44862E-13
 -1      1448 2.03559E+01 7.52549E-03 2.36294E-04-6.71598E-02-7.81305E-14-3.97553E-13
 -1      1449 2.04670E+01 1.45951E-02-2.57578E-03-1.60757E-01 8.44012E-14-4.57845E-13
 -1      1450 2.02926E+01 6.44817E-03 6.01154E-04-5.13823E-02-1.47435E-13-3.62889E-13
 -1      1451 2.02326E+01 5.76618E-03 2.66665E-04-4.82783E-02-8.63888E-14-5.75830E-13
 -1      1452 2.03221E+01 1.12863E-02-2.03102E-03-1.17575E-01-8.23993E-14-4.17021E-13
 -1      1453 2.01865E+01 4.95269E-03 5.07628E-04-3.61441E-02-1.01758E-13-5.58752E-13
 -1      1454 2.01446E+01 4.35089E-03 2.63659E-04-3.37968E-02-4.49009E-14-6.81420E-13
 -1      1455 2.02151E+01 8.58261E-03-1.57671E-03-8.40218E-02-1.79856E-13-3.43876E-13
 -1      1456 2.01119E+01 3.75013E-03 4.14747E-04-2.46039E-02 1.49900E-13-5.93954E-13
 -1      1457 2.00836E+01 3.23619E-03 2.41922E-04-2.28532E-02 1.40897E-13-4.72077E-13
 -1      1458 2.01379E+01 6.43101E-03-1.20649E-03-5.83653E-02 1.17115E-13-2.50110E-13
 -1      1459 2.00611E+01 2.80346E-03 3.28437E-04-1.59840E-02-9.24456E-14-3.35691E-13
 -1      1460 2.00430E+01 2.37431E-03 2.09626E-04-1.46947E-02-6.33221E-14-4.10677E-13
 -1      1461 2.00836E+01 4.75518E-03-9.10521E-04-3.90288E-02 1.12867E-13-1.82271E-13
 -1      1462 2.00282E+01 2.07239E-03 2.49548E-04-9.62738E-03-2.57686E-14-5.56037E-13
 -1      1463 2.00175E+01 1.71847E-03 1.70161E-04-8.68803E-03-3.95066E-14-6.31368E-13
 -1      1464 2.00469E+01 3.47569E-03-6.78255E-04-2.46500E-02-1.67031E-13-9.77306E-14
 -1      1465 2.00084E+01 1.51657E-03 1.75841E-04-4.99780E-03 1.18086E-13-6.74323E-13
 -1      1466 2.00032E+01 1.22291E-03 1.25070E-04-4.31902E-03 2.34690E-13-5.10774E-13
 -1      1467 2.00232E+01 2.51657E-03-4.99259E-04-1.40960E-02 6.75430E-14-3.01472E-14
 -1      1468 1.99981E+01 1.09186E-03 1.06340E-04-1.68190E-03 2.04874E-13-5.79589E-13
 -1      1469 1.99968E+01 8.32153E-04 8.33544E-05-1.19866E-03 7.62846E-15-3.63308E-13
 -1      1470 2.00091E+01 1.80274E-03-3.60686E-04-6.46834E-03 2.65075E-13-1.23463E-13
 -1      1471 1.99946E+01 7.23555E-04 5.49360E-05 5.67664E-04 1.45859E-13-2.70136E-13
 -1      1472 1.99959E+01 4.46855E-04 7.40202E-05 8.80310E-04 2.08504E-13-1.68239E-14
 -1      1473 2.00019E+01 1.22325E-03-2.39098E-04-1.15223E-03 2.78408E-13-2.01705E-13
 -1      1474 1.99954E+01 3.82741E-04 9.54409E-05 1.74103E-03 7.49920E-14 1.38470E-13
 -1      1475 1.99979E+01-6.36379E-05 2.23572E-04 1.90311E-03 1.00839E-13 3.94864E-13
 -1      1476 1.99992E+01 5.37979E-04-1.04025E-04 2.04119E-03 2.28961E-13 3.01286E-13
 -1      1477 1.99988E+01-7.81216E-04 5.14774E-04 9.02152E-04-2.84555E-13 2.81075E-13
 -1      1478 1.99993E+01-1.34605E-03 1.35230E-04 2.35555E-03-2.15080E-13 3.01692E-13
 -1      1479 2.02271E+01 7.53070E-02-1.51053E-01 4.68324E-01 2.26669E-13 2.02597E-12
 -1      1480 2.14727E+01 2.15817E-01-2.28796E-01 7.04075E-01 2.05322E-13 2.39851E-12
 -1      1481 2.16899E+01 8.76464E-01-8.57742E-02 2.03098E+00 4.11518E-13 1.57310E-12
 -1      1482 1.93403E+01 3.29495E-02-2.10199E-02 1.70087E-01 1.59275E-13 1.58961E-12
 -1      1483 1.97391E+01 1.14101E-01-6.20445E-02 2.22313E-01 1.59924E-13 1.84623E-12
 -1      1484 2.03013E+01 1.87069E-01-5.52544E-02 7.55467E-01 3.40061E-13 1.23891E-12
 -1      1485 1.90068E+01 1.62997E-02 5.57860E-03 3.40860E-02 1.28275E-13 1.25208E-12
 -1      1486 1.91205E+01 5.31448E-02 1.33792E-03 6.13369E-02 1.19196E-13 1.44292E-12
 -1      1487 1.95987E+01 7.31301E-02-1.25172E-02 2.64560E-01 2.58940E-13 9.53508E-13
 -1      1488 1.89584E+01 8.93427E-03 6.65777E-03-3.47078E-02 1.09613E-13 9.83056E-13
 -1      1489 1.89410E+01 2.84146E-02 1.13214E-02-1.86719E-02 1.05317E-13 1.15575E-12
 -1      1490 1.93158E+01 3.38236E-02-3.10717E-03 3.97816E-02 2.22133E-13 7.06501E-13
 -1      1491 1.90675E+01 5.67182E-03 4.28640E-03-7.40888E-02 5.39009E-14 7.96013E-13
 -1      1492 1.89804E+01 1.74777E-02 8.73789E-03-6.35696E-02 5.89752E-14 9.02242E-13
 -1      1493 1.92676E+01 1.74821E-02-2.55410E-03-7.98033E-02 1.56969E-13 5.68625E-13
 -1      1494 1.92729E+01 4.20870E-03 2.61840E-03-9.96461E-02 3.78751E-14 6.80165E-13
 -1      1495 1.91439E+01 1.21813E-02 5.60852E-03-9.19076E-02 3.66599E-14 7.32209E-13
 -1      1496 1.93591E+01 1.02280E-02-2.91388E-03-1.51412E-01 8.70152E-14 4.29792E-13
 -1      1497 1.95447E+01 3.67115E-03 1.64372E-03-1.18883E-01 6.86265E-14 5.42054E-13
 -1      1498 1.93863E+01 9.68640E-03 3.69828E-03-1.12431E-01 5.75145E-14 6.32891E-13
 -1      1499 1.95406E+01 7.11125E-03-3.06533E-03-2.00003E-01 1.00429E-13 3.30981E-13
 -1      1500 1.98689E+01 3.61695E-03 9.78895E-04-1.35795E-01 5.97851E-14 4.00804E-13
 -1      1501 1.96862E+01 8.72294E-03 2.60762E-03-1.29726E-01 4.77986E-14 4.81140E-13
 -1      1502 1.97865E+01 6.11397E-03-3.14992E-03-2.38093E-01 1.09363E-13 2.34623E-13
 -1      1503 2.02402E+01 3.70869E-03 4.54784E-04-1.52349E-01 3.80089E-14 3.24702E-13
 -1      1504 2.00345E+01 8.54105E-03 1.91164E-03-1.46162E-01 2.34893E-14 3.64557E-13
 -1      1505 2.00840E+01 6.15723E-03-3.28725E-03-2.72221E-01 7.30115E-14 1.72059E-13
 -1      1506 2.06562E+01 3.58790E-03 6.78787E-05-1.68843E-01 3.96110E-14 2.58946E-13
 -1      1507 2.04276E+01 8.49988E-03 1.39455E-03-1.62424E-01 3.72908E-14 2.97571E-13
 -1      1508 2.04266E+01 6.40138E-03-3.44914E-03-3.05093E-01 6.15868E-14 1.21829E-13
 -1      1509 2.11134E+01 2.80953E-03-8.04929E-05-1.83773E-01-2.28836E-14 2.31052E-13
 -1      1510 2.08629E+01 7.87644E-03 9.68970E-04-1.77478E-01 3.20599E-15 2.12722E-13
 -1      1511 2.08098E+01 5.95989E-03-3.49612E-03-3.36009E-01 5.42012E-14 1.24212E-13
 -1      1512 2.16010E+01 8.11860E-04 2.07590E-04-1.93420E-01 2.04447E-14 2.27667E-13
 -1      1513 2.13341E+01 5.75761E-03 6.23623E-04-1.88246E-01-1.74080E-15 2.17844E-13
 -1      1514 2.12262E+01 3.74541E-03-3.18755E-03-3.60475E-01 5.90592E-15 8.50101E-14
 -1      1515 2.20958E+01-3.04896E-03 1.23090E-03-1.91390E-01 3.57124E-14 1.52895E-13
 -1      1516 2.18253E+01 1.01622E-03 4.19374E-04-1.89169E-01 4.87237E-14 2.08738E-13
 -1      1517 2.16614E+01-1.58588E-03-2.17377E-03-3.69468E-01 7.47578E-14 6.23728E-14
 -1      1518 2.25546E+01-9.32175E-03 3.34336E-03-1.68480E-01 4.87629E-14-7.89299E-16
 -1      1519 2.23053E+01-7.53787E-03 5.01347E-04-1.72012E-01 4.06298E-14 9.56162E-14
 -1      1520 2.20887E+01-1.15017E-02-1.89616E-05-3.48892E-01 6.31470E-14 2.51309E-14
 -1      1521 2.29098E+01-1.80288E-02 6.76790E-03-1.13704E-01 2.91225E-14-1.29655E-13
 -1      1522 2.27210E+01-2.06602E-02 1.07769E-03-1.26560E-01 5.42448E-14-6.07145E-14
 -1      1523 2.24645E+01-2.70656E-02 3.67465E-03-2.80311E-01 8.90425E-14-2.41192E-14
 -1      1524 2.30700E+01-2.79155E-02 1.11817E-02-1.77191E-02-5.50254E-14-1.93873E-13
 -1      1525 2.29954E+01-3.76488E-02 2.29975E-03-4.33110E-02-2.02009E-15-1.58386E-13
 -1      1526 2.27267E+01-4.77671E-02 8.95081E-03-1.44782E-01 5.10494E-14-6.14057E-14
 -1      1527 2.29340E+01-3.55818E-02 1.51201E-02 1.20138E-01 5.26506E-14-2.02704E-13
 -1      1528 2.30332E+01-5.48699E-02 3.98581E-03 8.06800E-02-8.07514E-16-1.87628E-13
 -1      1529 2.27991E+01-6.96133E-02 1.50016E-02 6.79928E-02-2.50676E-14-8.57704E-14
 -1      1530 2.24256E+01-3.53543E-02 1.56143E-02 2.81798E-01-1.19835E-13-1.25393E-13
 -1      1531 2.27430E+01-6.46885E-02 5.23600E-03 2.32831E-01-3.72124E-14-2.03407E-13
 -1      1532 2.26085E+01-8.33270E-02 1.96646E-02 3.44288E-01 6.11403E-15-4.26204E-14
 -1      1533 2.15497E+01-2.13833E-02 9.09216E-03 4.22756E-01-5.86380E-14 1.05756E-13
 -1      1534 2.20806E+01-5.68060E-02 4.35675E-03 3.76777E-01-1.06621E-13-9.04971E-14
 -1      1535 2.21183E+01-7.49853E-02 1.96329E-02 6.29504E-01-1.86649E-13-5.64982E-14
 -1      1536 2.04466E+01 7.25932E-03-5.75677E-03 4.78215E-01-2.97085E-15 1.20147E-13
 -1      1537 2.11050E+01-2.41661E-02-2.82495E-04 4.54324E-01-7.93593E-15 1.02009E-13
 -1      1538 2.13724E+01-3.23807E-02 1.22787E-02 8.24602E-01-5.78532E-14 5.33636E-14
 -1      1539 1.94020E+01 4.13509E-02-2.45437E-02 3.93291E-01 1.22835E-13-6.13398E-15
 -1      1540 2.00170E+01 2.80488E-02-8.35898E-03 4.08212E-01 4.66875E-14 9.65963E-14
 -1      1541 2.05281E+01 4.19235E-02-1.61382E-03 8.16323E-01 5.46403E-14-3.39138E-14
 -1      1542 1.87616E+01 6.38383E-02-3.72534E-02 1.67802E-01 7.82265E-14-3.13994E-13
 -1      1543 1.91303E+01 7.88507E-02-1.60968E-02 2.22860E-01 8.98830E-14-1.26531E-13
 -1      1544 1.98353E+01 1.21233E-01-1.61076E-02 5.46095E-01 1.93404E-13-4.40169E-14
 -1      1545 1.87674E+01 6.15146E-02-3.51445E-02-1.24390E-01 4.70457E-14-4.27566E-13
 -1      1546 1.87514E+01 1.02413E-01-1.82094E-02-4.83230E-02 4.50247E-14-3.81267E-13
 -1      1547 1.95403E+01 1.64041E-01-2.38314E-02 7.43125E-02 1.23641E-13-3.09009E-13
 -1      1548 1.94211E+01 3.57169E-02-1.83551E-02-3.68798E-01-7.74398E-14-2.98386E-13
 -1      1549 1.90248E+01 8.63987E-02-1.22678E-02-3.01945E-01-8.33032E-14-4.10224E-13
 -1      1550 1.97580E+01 1.43072E-01-2.16165E-02-4.27600E-01-5.71279E-14-3.80458E-13
 -1      1551 2.04804E+01 1.79740E-03 3.25167E-03-4.79580E-01-8.73891E-14-1.07567E-13
 -1      1552 1.98492E+01 4.22121E-02-1.35575E-03-4.44513E-01-4.06849E-14-1.59539E-13
 -1      1553 2.04045E+01 6.88647E-02-1.29234E-02-7.69713E-01-1.35053E-13-2.16495E-13
 -1      1554 2.15991E+01-2.40705E-02 1.91461E-02-4.45160E-01-7.65004E-14 8.63337E-14
 -1      1555 2.09366E+01-5.55665E-03 8.48866E-03-4.45552E-01-7.69545E-14-4.83502E-14
 -1      1556 2.12482E+01-1.69433E-02-3.33642E-03-8.55070E-01-1.30230E-13-3.81448E-14
 -1      1557 2.24926E+01-3.49080E-02 2.46373E-02-3.14705E-01 7.02364E-14-8.91023E-14
 -1      1558 2.19646E+01-3.76969E-02 1.32248E-02-3.39284E-01 9.10053E-14 4.61020E-14
 -1      1559 2.20355E+01-7.63960E-02 3.34587E-03-7.12923E-01 1.02126E-13-9.15726E-14
 -1      1560 2.30223E+01-3.30622E-02 2.14736E-02-1.54607E-01-4.57551E-14-1.03261E-13
 -1      1561 2.27081E+01-4.89214E-02 1.25105E-02-1.87962E-01-5.16436E-14-1.42837E-13
 -1      1562 2.25930E+01-9.62643E-02 6.19075E-03-4.47929E-01-1.13173E-14-4.73068E-14
 -1      1563 2.31868E+01-2.46172E-02 1.44191E-02-1.39414E-02-4.79946E-14-1.69397E-13
 -1      1564 2.30854E+01-4.44855E-02 8.61805E-03-4.45776E-02-3.90486E-15-1.30764E-13
 -1      1565 2.28597E+01-8.54606E-02 6.26159E-03-1.67593E-01-6.31700E-15-7.13058E-15
 -1      1566 2.30647E+01-1.48494E-02 7.28187E-03 8.53315E-02-4.13359E-14-6.61814E-14
 -1      1567 2.31284E+01-3.26103E-02 4.20522E-03 6.27588E-02-6.45603E-14-1.83022E-13
 -1      1568 2.28616E+01-6.04676E-02 4.98808E-03 6.00165E-02-7.58577E-14-2.12897E-13
 -1      1569 2.27588E+01-6.63432E-03 1.93957E-03 1.41689E-01-1.36848E-13 1.86390E-13
 -1      1570 2.29268E+01-1.96369E-02 7.95156E-04 1.27943E-01-5.57171E-14-1.76395E-14
 -1      1571 2.26684E+01-3.41915E-02 3.39345E-03 2.10604E-01-1.07926E-13-1.01772E-13
 -1      1572 2.23617E+01-8.86411E-04-1.28894E-03 1.63737E-01 7.83980E-14 3.26123E-13
 -1      1573 2.25801E+01-8.86933E-03-1.18874E-03 1.57269E-01-6.15417E-14 2.44153E-13
 -1      1574 2.23579E+01-1.31720E-02 2.00184E-03 2.88873E-01-1.01966E-13-8.61672E-14
 -1      1575 2.19421E+01 2.56436E-03-2.83163E-03 1.62591E-01 1.83266E-13 1.03893E-13
 -1      1576 2.21717E+01-1.29442E-03-1.99032E-03 1.61212E-01 1.73937E-13 3.43421E-13
 -1      1577 2.19965E+01 9.38285E-04 9.67963E-04 3.12202E-01 1.55899E-13-1.01378E-13
 -1      1578 2.15440E+01 4.27897E-03-3.27644E-03 1.47999E-01-1.38251E-14-1.46914E-14
 -1      1579 2.17603E+01 3.33782E-03-2.04620E-03 1.49727E-01 4.61203E-14 7.70321E-14
 -1      1580 2.16318E+01 8.99796E-03 2.73835E-04 2.99778E-01 8.52771E-14-1.33103E-13
 -1      1581 2.11912E+01 4.84116E-03-3.11496E-03 1.27116E-01 1.91880E-13-2.03823E-13
 -1      1582 2.13814E+01 5.72336E-03-1.73459E-03 1.30460E-01 5.37933E-14-6.94280E-14
 -1      1583 2.12937E+01 1.26540E-02-1.55184E-04 2.67547E-01 8.88068E-14-1.42176E-13
 -1      1584 2.08934E+01 4.71869E-03-2.67890E-03 1.04597E-01 1.02714E-13-4.42722E-13
 -1      1585 2.10526E+01 6.58720E-03-1.30498E-03 1.08557E-01 1.11497E-13-2.46228E-13
 -1      1586 2.09975E+01 1.34862E-02-3.96481E-04 2.26883E-01 2.08210E-13-3.18180E-13
 -1      1587 2.06512E+01 4.23928E-03-2.16320E-03 8.31515E-02-8.21186E-15-3.84348E-13
 -1      1588 2.07795E+01 6.51942E-03-8.90924E-04 8.71173E-02-7.63387E-15-3.51023E-13
 -1      1589 2.07491E+01 1.27092E-02-5.11903E-04 1.85025E-01-1.11901E-14-3.24283E-13
 -1      1590 2.04604E+01 3.61304E-03-1.66893E-03 6.41460E-02-2.02954E-14-4.13952E-13
 -1      1591 2.05605E+01 5.94368E-03-5.48515E-04 6.77857E-02 3.83709E-14-3.74749E-13
 -1      1592 2.05476E+01 1.11490E-02-5.46516E-04 1.46088E-01 4.14016E-14-2.80600E-13
 -1      1593 2.03143E+01 2.96466E-03-1.24044E-03 4.80947E-02-4.23468E-14-3.28505E-13
 -1      1594 2.03902E+01 5.13990E-03-2.90623E-04 5.12569E-02-2.73833E-14-4.26832E-13
 -1      1595 2.03889E+01 9.31995E-03-5.31860E-04 1.12052E-01-1.40569E-14-1.33695E-13
 -1      1596 2.02054E+01 2.36176E-03-8.90892E-04 3.50117E-02-1.54382E-13-1.51938E-13
 -1      1597 2.02614E+01 4.28047E-03-1.09877E-04 3.76556E-02-4.93118E-14-3.00728E-13
 -1      1598 2.02673E+01 7.51628E-03-4.89600E-04 8.35600E-02-1.28312E-13 6.23703E-14
 -1      1599 2.01268E+01 1.83605E-03-6.17904E-04 2.46449E-02 3.68068E-14-4.61531E-14
 -1      1600 2.01667E+01 3.46360E-03 8.28201E-06 2.67928E-02-8.68516E-14-2.08226E-13
 -1      1601 2.01766E+01 5.88907E-03-4.34396E-04 6.04777E-02-7.23820E-14 9.20528E-14
 -1      1602 2.00719E+01 1.39789E-03-4.12702E-04 1.66220E-02-8.48006E-14-8.03298E-14
 -1      1603 2.00993E+01 2.73932E-03 7.89994E-05 1.83288E-02 2.82907E-14-9.37018E-14
 -1      1604 2.01109E+01 4.50153E-03-3.76068E-04 4.22675E-02 3.55603E-14 1.56025E-13
 -1      1605 2.00354E+01 1.04583E-03-2.65200E-04 1.05375E-02 1.61134E-13-3.16052E-13
 -1      1606 2.00532E+01 2.12809E-03 1.14956E-04 1.18721E-02 1.04287E-13-1.43536E-13
 -1      1607 2.00649E+01 3.36648E-03-3.21401E-04 2.82200E-02 1.73585E-13-8.77826E-14
 -1      1608 2.00127E+01 7.71246E-04-1.65919E-04 6.00129E-03 7.94765E-14-4.69900E-13
 -1      1609 2.00234E+01 1.63231E-03 1.25364E-04 7.03595E-03 9.81175E-14-3.54678E-13
 -1      1610 2.00342E+01 2.46972E-03-2.74983E-04 1.75916E-02 1.89610E-13-3.79744E-13
 -1      1611 2.00004E+01 5.57953E-04-1.04063E-04 2.67295E-03 1.43181E-13-5.83404E-13
 -1      1612 2.00057E+01 1.23993E-03 1.16541E-04 3.47403E-03 7.68182E-14-3.99923E-13
 -1      1613 2.00149E+01 1.78082E-03-2.38415E-04 9.68951E-03 1.09342E-13-3.86821E-13
 -1      1614 1.99954E+01 3.82327E-04-5.74338E-05 2.99144E-04 6.54141E-14-1.02501E-12
 -1      1615 1.99969E+01 9.23415E-04 9.63910E-05 9.17841E-04 1.24171E-13-8.14126E-13
 -1      1616 2.00042E+01 1.25076E-03-2.06882E-04 3.94127E-03 3.24314E-13-4.71668E-13
 -1      1617 1.99955E+01 2.00556E-04 3.63004E-05-1.24185E-03-2.67462E-13-9.20668E-13
 -1      1618 1.99944E+01 6.26139E-04 8.97045E-05-7.77269E-04-5.36574E-14-1.03443E-12
 -1      1619 1.99994E+01 8.19966E-04-1.50453E-04-1.31284E-05-8.46042E-15-4.02260E-13
 -1      1620 1.99982E+01-1.70344E-04 2.79529E-04-1.67133E-03-9.55647E-14-5.68293E-13
 -1      1621 1.99959E+01 1.38764E-04 1.57758E-04-1.48165E-03-2.01979E-13-9.03032E-13
 -1      1622 1.99984E+01 1.32377E-04-2.91351E-05-2.21318E-03-2.11701E-13-5.28742E-13
 -1      1623 1.99989E+01-8.35979E-04 4.63456E-04-8.49679E-04-2.49977E-13-3.50850E-13
 -1      1624 2.00002E+01-3.96449E-03-3.30923E-05-1.40935E-03-9.42844E-14 2.71173E-13
 -1      1625 1.99999E+01-2.01626E-03 1.48495E-04-1.49681E-03-3.29809E-13 7.07762E-14
 -1      1626 2.00004E+01-4.19219E-03-1.11600E-04-7.56151E-05 2.67434E-13-1.18267E-14
 -1      1627 2.00003E+01-3.55607E-03-3.44841E-05-4.16870E-04 1.35705E-13-5.66308E-14
 -1      1628 2.00006E+01-6.34376E-04-8.23398E-05-1.41448E-03-3.79499E-14 4.41787E-13
 -1      1629 2.00003E+01-1.46329E-03-9.94484E-05 1.48250E-03-5.10312E-14-2.27103E-14
 -1      1630 2.00004E+01-2.67467E-03-7.12923E-05 1.16694E-03 2.20311E-13 6.52946E-14
 -1      1631 2.00008E+01 1.43474E-03-1.69976E-04 1.31617E-03 2.37106E-13 6.70285E-14
 -1      1632 2.00000E+01 3.65363E-03-6.26452E-05 2.55811E-03 3.22275E-14 3.59326E-14
 -1      1633 2.00002E+01 1.03525E-03-5.27570E-05 2.38784E-03-5.49912E-14 2.05021E-13
 -1      1634 2.00006E+01 5.67447E-03-1.16844E-04 3.91121E-03 1.50380E-13 2.39521E-14
 -1      1635 1.99997E+01 9.65720E-03-3.36124E-05 2.85447E-03-1.63074E-13 1.38605E-13
 -1      1636 1.99999E+01 6.57439E-03-2.48436E-05 2.85673E-03-1.76184E-13-2.69937E-13
 -1      1637 2.00001E+01 1.13037E-02-2.50780E-05 5.33873E-03-9.97366E-14-2.50047E-13
 -1      1638 1.99994E+01 1.51462E-02-1.19145E-05 2.35309E-03-3.13351E-13-1.89501E-13
 -1      1639 1.99996E+01 1.24336E-02-5.84039E-06 2.51281E-03-1.55563E-13 2.06252E-14
 -1      1640 1.99996E+01 1.71669E-02 7.23753E-05 5.25275E-03-2.14501E-13-1.98307E-14
 -1      1641 1.99993E+01 1.85944E-02 9.69717E-07 1.21654E-03-5.23440E-13 2.21696E-14
 -1      1642 1.99994E+01 1.70828E-02 4.60344E-06 1.48339E-03-3.13230E-13 1.43293E-14
 -1      1643 1.99992E+01 2.19942E-02 1.49086E-04 3.74360E-03-1.82248E-13-1.97586E-13
 -1      1644 1.99993E+01 1.91316E-02 5.84246E-06-2.43561E-04-3.75512E-13 7.40807E-14
 -1      1645 1.99992E+01 1.92443E-02 6.73776E-06 5.94593E-05-5.84254E-13 3.59271E-14
 -1      1646 1.99990E+01 2.46406E-02 1.90689E-04 1.24633E-03-2.74128E-13-5.44049E-14
 -1      1647 1.99994E+01 1.66221E-02 2.56917E-06-1.64975E-03-5.55789E-13-1.74374E-13
 -1      1648 1.99993E+01 1.83409E-02 8.75519E-07-1.38882E-03-4.71762E-13 9.41328E-14
 -1      1649 1.99990E+01 2.45032E-02 1.89343E-04-1.58560E-03-2.25889E-13-7.79057E-14
 -1      1650 1.99996E+01 1.17006E-02-9.63200E-06-2.63181E-03-7.88405E-13-2.92770E-13
 -1      1651 1.99995E+01 1.45668E-02-1.29182E-05-2.48486E-03-5.01023E-13-1.87495E-13
 -1      1652 1.99992E+01 2.16029E-02 1.44597E-04-4.02743E-03-4.72086E-13-2.70382E-13
 -1      1653 1.99999E+01 5.75429E-03-2.89994E-05-2.90576E-03-9.81917E-13 5.10785E-14
 -1      1654 1.99997E+01 8.90185E-03-3.66682E-05-2.91778E-03-8.17075E-13-3.11916E-13
 -1      1655 1.99997E+01 1.66331E-02 6.76372E-05-5.42584E-03-3.83351E-13-4.54643E-13
 -1      1656 2.00002E+01 1.86876E-04-5.52289E-05-2.34906E-03-7.23645E-13 1.60901E-13
 -1      1657 2.00001E+01 2.76131E-03-6.84715E-05-2.53876E-03-9.37466E-13 2.35256E-13
 -1      1658 2.00002E+01 1.06773E-02-3.18946E-05-5.37051E-03-3.00574E-13 2.03683E-13
 -1      1659 2.00004E+01-3.37845E-03-8.97210E-05-1.03178E-03-6.76011E-13-9.31217E-14
 -1      1660 2.00003E+01-2.27228E-03-1.03124E-04-1.37065E-03-6.65341E-13 8.65497E-14
 -1      1661 2.00006E+01 5.01054E-03-1.24923E-04-3.77720E-03-3.05114E-13 1.72739E-13
 -1      1662 2.00005E+01-3.99554E-03-2.77507E-05 5.11972E-04-8.06099E-13-1.13748E-13
 -1      1663 2.00004E+01-4.75018E-03-1.28271E-04 1.43252E-04-7.87758E-13 1.15983E-14
 -1      1664 2.00008E+01 9.96535E-04-1.78305E-04-1.04603E-03-2.44837E-13-1.95088E-13
 -1      1665 2.00001E+01-1.72025E-03 9.76181E-05 1.71321E-03-3.44659E-13 1.26403E-13
 -1      1666 2.00003E+01-3.58718E-03-1.15399E-04 1.64781E-03-5.76888E-13 8.10621E-14
 -1      1667 2.00013E+01 3.03411E-04 1.17189E-04 1.32165E-03-1.27202E-13 1.01704E-13
 -1      1668 2.00002E+01 6.28696E-04 1.82994E-04 2.67090E-03 6.68446E-14 3.43270E-13
 -1      1669-5.44594E-01-1.43304E+01-1.63895E+00-8.24389E-01 1.94822E-12 7.86926E-13
 -1      1670-5.70396E-01-1.64066E+01-1.81152E+00 4.50711E-01 1.03489E-12 6.28331E-13
 -1      1671 1.08955E+00-8.35235E+00-1.25632E+00 2.48417E-01 2.85505E-12 1.64824E-12
 -1      1672 4.76137E-01-1.31838E+01-1.73380E+00-1.97502E-01 2.37910E-12 1.01854E-12
 -1      1673 6.33292E+00-1.04590E+00-6.07152E-01 4.25497E+00 3.11728E-12 2.14617E-12
 -1      1674 3.58532E+00-6.35752E+00-1.31547E+00 1.62026E+00 2.99705E-12 1.74316E-12
 -1      1675 1.76650E+01 3.87396E+00 1.91324E-01 9.23271E+00 2.38065E-12 2.30571E-12
 -1      1676 1.12661E+01 3.15138E-01-6.25882E-01 5.59043E+00 2.86438E-12 2.05347E-12
 -1      1677 3.04358E+01 6.53531E+00 9.18694E-01 1.24822E+01 1.76037E-12 2.41629E-12
 -1      1678 2.18069E+01 6.14055E+00 1.28049E-01 1.04337E+01 2.33014E-12 2.57794E-12
 -1      1679 4.43980E+01 4.98344E+00 1.43567E+00 9.97525E+00 9.83602E-13 1.50324E-12
 -1      1680 3.55758E+01 6.39626E+00 7.98977E-01 1.12944E+01 1.42986E-12 2.05702E-12
 -1      1681 5.35237E+01 3.61076E+00 1.81254E+00 4.40439E+00 5.69905E-13 3.45057E-13
 -1      1682 4.86155E+01 4.98138E+00 1.48139E+00 8.95418E+00 8.49251E-13 1.19993E-12
 -1      1683 5.29382E+01 3.93227E+00 1.64491E+00-3.71794E+00 6.12899E-13-9.88210E-13
 -1      1684 5.38115E+01 3.70881E+00 1.72104E+00 1.75909E+00 5.10314E-13-1.13604E-13
 -1      1685 4.53969E+01 5.55433E+00 1.31575E+00-1.01378E+01 1.25025E-12-2.26119E-12
 -1      1686 5.15019E+01 3.94567E+00 1.69713E+00-6.31767E+00 8.55455E-13-1.42175E-12
 -1      1687 3.20389E+01 6.77271E+00 6.69160E-01-1.19084E+01 2.15361E-12-2.91789E-12
 -1      1688 4.12507E+01 5.59231E+00 1.36752E+00-1.15905E+01 1.48001E-12-2.51166E-12
 -1      1689 1.85505E+01 5.33657E+00-7.12586E-02-9.42338E+00 2.73204E-12-2.92455E-12
 -1      1690 2.67309E+01 6.53392E+00 7.68421E-01-1.21373E+01 2.33813E-12-3.04445E-12
 -1      1691 8.40624E+00-1.00510E+00-8.42457E-01-4.38546E+00 2.87903E-12-2.16260E-12
 -1      1692 1.40530E+01 3.39797E+00 2.86048E-03-8.22310E+00 2.78744E-12-2.72404E-12
 -1      1693 2.11549E+00-8.79050E+00-1.51903E+00-5.88580E-01 2.27074E-12-1.44909E-12
 -1      1694 4.12584E+00-2.94603E+00-8.19802E-01-2.76429E+00 2.91123E-12-2.13901E-12
 -1      1695-1.20019E-02-1.50128E+01-1.81375E+00 1.76375E-01 1.37623E-12-6.91044E-13
 -1      1696 2.37073E-01-1.07981E+01-1.43305E+00 4.74792E-01 2.08533E-12-1.07899E-12
 -1      1697-6.99072E-01-1.62036E+01-1.76498E+00-7.65603E-01-4.69069E-14-6.03129E-13
 -1      1698-6.91875E-01-1.54629E+01-1.69877E+00 6.86413E-01 9.66338E-13-6.86229E-13
 -1      1699-4.52258E-01-1.31451E+01-1.60481E+00-1.12945E+00-1.32405E-12-8.15348E-13
 -1      1700-4.24505E-01-1.62879E+01-1.87442E+00-1.91732E-01-4.98324E-13-5.18918E-13
 -1      1701 3.19209E+00-5.51349E+00-9.61884E-01 1.89722E+00-2.15250E-12-1.61537E-12
 -1      1702 1.69120E+00-1.11128E+01-1.52591E+00 3.86274E-01-1.54543E-12-1.01322E-12
 -1      1703 9.88557E+00 1.65456E+00-3.68612E-01 6.18899E+00-2.77289E-12-2.64411E-12
 -1      1704 5.75534E+00-3.21288E+00-1.12869E+00 2.84580E+00-2.49711E-12-1.97209E-12
 -1      1705 2.30925E+01 4.91438E+00 4.52058E-01 1.05983E+01-2.28539E-12-2.60325E-12
 -1      1706 1.54625E+01 2.59714E+00-3.92500E-01 7.30060E+00-2.59182E-12-2.49178E-12
 -1      1707 3.78001E+01 6.00406E+00 1.26432E+00 1.23820E+01-1.59128E-12-2.43960E-12
 -1      1708 2.79477E+01 6.63244E+00 4.21664E-01 1.15479E+01-2.27174E-12-2.77778E-12
 -1      1709 5.03688E+01 4.21836E+00 1.70183E+00 7.25958E+00-9.71279E-13-1.02196E-12
 -1      1710 4.24371E+01 5.87104E+00 1.14091E+00 1.04559E+01-1.33105E-12-1.96765E-12
 -1      1711 5.57280E+01 3.56044E+00 1.95492E+00-2.25537E-01-5.83700E-13 4.15851E-13
 -1      1712 5.34228E+01 4.10794E+00 1.73624E+00 5.29687E+00-7.78738E-13-6.35658E-13
 -1      1713 5.11349E+01 4.68657E+00 1.68408E+00-8.09387E+00-8.82044E-13 1.73750E-12
 -1      1714 5.56702E+01 3.46043E+00 2.01218E+00-2.88509E+00-5.99215E-13 9.14879E-13
 -1      1715 3.79870E+01 6.24894E+00 9.29321E-01-1.13645E+01-1.40027E-12 2.20846E-12
 -1      1716 4.70157E+01 4.74240E+00 1.62419E+00-9.62758E+00-9.21228E-13 1.95766E-12
 -1      1717 2.31881E+01 5.99074E+00 1.23710E-01-1.05564E+01-2.49778E-12 2.67164E-12
 -1      1718 3.26343E+01 6.23900E+00 1.00523E+00-1.25362E+01-1.80811E-12 2.39275E-12
 -1      1719 1.07357E+01 1.32508E+00-7.43705E-01-5.71607E+00-3.06266E-12 2.52254E-12
 -1      1720 1.76977E+01 4.92433E+00 2.09467E-01-9.68776E+00-2.73492E-12 2.78333E-12
 -1      1721 3.51668E+00-6.30695E+00-1.40391E+00-1.30535E+00-2.51033E-12 1.74388E-12
 -1      1722 6.58534E+00-6.80302E-01-6.29498E-01-4.22527E+00-2.96829E-12 2.33824E-12
 -1      1723 4.49649E-01-1.33743E+01-1.76667E+00 4.27143E-01-1.33327E-12 8.90735E-13
 -1      1724 1.08046E+00-8.39515E+00-1.29352E+00-6.56559E-02-2.29883E-12 1.55007E-12
 -1      1725-5.56601E-01-1.61769E+01-1.76628E+00-2.58331E-01 4.49835E-13 7.75879E-13
 -1      1726-5.68432E-01-1.42471E+01-1.62147E+00 9.75477E-01-8.00360E-13 9.17294E-13
 -1      1727 2.38989E+01 1.42628E-01 1.18308E-01 7.09590E+00 1.51068E-12 1.30895E-12
 -1      1728 1.44605E+01-3.57851E+00-2.28692E-01 6.55144E+00 1.63247E-12 1.10323E-12
 -1      1729 1.99995E+01-1.42645E-03 2.48712E-04-1.85486E-03-4.15149E-13-3.10901E-13
 -1      1730 1.99996E+01-4.39430E-04 1.22963E-04-2.63725E-03-2.80844E-13-4.31881E-14
 -1      1731 4.19947E-01-1.01958E+01-1.20196E+00 2.27391E+00 1.08902E-12 1.23712E-12
 -1      1732 5.49386E+00-7.19222E+00-8.38229E-01 4.46319E+00 1.74705E-12 1.58714E-12
 -1      1733-1.22018E+00-1.09346E+01-1.23608E+00 1.15194E-01 2.98539E-13 1.41254E-12
 -1      1734 3.39060E+01 4.03129E+00 7.92094E-01 6.63905E+00 1.25472E-12 1.03695E-12
 -1      1735 4.19196E+01 6.16240E+00 1.19756E+00 4.28554E+00 1.10650E-12 4.45866E-13
 -1      1736 4.63370E+01 7.36273E+00 1.50810E+00 1.45398E+00 1.02296E-12-1.63064E-13
 -1      1737 4.51951E+01 7.37760E+00 1.43278E+00-2.19750E+00 1.14314E-12-7.95031E-13
 -1      1738 4.03889E+01 5.79589E+00 1.18339E+00-5.42575E+00 1.41526E-12-1.30951E-12
 -1      1739 3.14233E+01 3.47003E+00 6.84514E-01-7.37010E+00 1.61510E-12-1.60583E-12
 -1      1740 2.10117E+01-4.24053E-01 7.39474E-03-7.19762E+00 1.62959E-12-1.72184E-12
 -1      1741 1.13341E+01-4.40277E+00-4.27920E-01-6.00796E+00 1.52633E-12-1.61543E-12
 -1      1742 3.36907E+00-8.48584E+00-1.02937E+00-3.59226E+00 1.29030E-12-1.39522E-12
 -1      1743-5.17622E-01-1.06913E+01-1.23056E+00-1.53089E+00 6.21614E-13-1.11255E-12
 -1      1744-1.11071E+00-1.11084E+01-1.26631E+00 5.18987E-01-5.32629E-14-1.12826E-12
 -1      1745 2.19516E+00-9.24322E+00-1.01063E+00 3.17970E+00-7.37188E-13-1.22399E-12
 -1      1746 8.64690E+00-6.03622E+00-7.21034E-01 5.19309E+00-1.11011E-12-1.59911E-12
 -1      1747 1.83741E+01-2.04285E+00-8.88443E-02 6.73018E+00-1.43741E-12-1.62503E-12
 -1      1748 2.87215E+01 1.39729E+00 3.44479E-01 6.84778E+00-1.51751E-12-1.43474E-12
 -1      1749 3.87197E+01 5.03038E+00 1.06772E+00 5.64303E+00-1.44432E-12-1.16662E-12
 -1      1750 4.50104E+01 7.03972E+00 1.40409E+00 2.46039E+00-1.30607E-12-3.21576E-13
 -1      1751 4.79794E+01 7.24626E+00 1.63382E+00-7.73726E-01-1.11533E-12 3.31610E-13
 -1      1752 4.39157E+01 6.31172E+00 1.34884E+00-3.90628E+00-9.98035E-13 8.92508E-13
 -1      1753 3.56985E+01 4.14615E+00 9.02183E-01-6.43490E+00-1.31833E-12 1.40066E-12
 -1      1754 2.47770E+01 1.04351E+00 2.73398E-01-7.41009E+00-1.81821E-12 1.49303E-12
 -1      1755 1.39234E+01-3.17157E+00-4.13584E-01-6.19008E+00-1.70264E-12 1.67510E-12
 -1      1756 5.49678E+00-7.42818E+00-9.47987E-01-4.12691E+00-1.31106E-12 1.67735E-12
 -1      1757 4.30565E-01-1.01417E+01-1.19915E+00-2.04602E+00-5.01210E-13 1.43485E-12
 -1      1758 2.28005E+01 1.97598E+00-2.44118E-02-2.68827E+00-3.57839E-13 1.49147E-12
 -1      1759 1.98529E+01 3.72371E+00-3.56037E-02-2.08552E+00-4.59360E-13-4.80269E-13
 -1      1760 2.00847E+01 3.56642E+00-3.95111E-02-2.37951E+00-5.23821E-13-3.21815E-13
 -1      1761 2.03819E+01 3.17883E+00-4.55009E-02-2.52513E+00-5.30646E-13-1.13146E-13
 -1      1762 2.05899E+01 2.80319E+00-1.41193E-01-2.79671E+00-5.59386E-13 1.72001E-13
 -1      1763 2.04492E+01 2.69853E+00-3.99826E-03-2.15827E+00-5.54797E-13-1.88519E-13
 -1      1764 1.93699E+01 4.22692E+00-2.03954E-02-1.21129E+00-2.56661E-13-7.63153E-13
 -1      1765 1.94495E+01 4.18250E+00-1.69234E-02-1.43117E+00-3.12724E-13-7.24039E-13
 -1      1766 1.92607E+01 4.34399E+00-1.68545E-02-8.13844E-01-1.59328E-13-8.05200E-13
 -1      1767 1.93101E+01 4.31712E+00-1.37461E-02-1.01741E+00-2.08154E-13-7.93431E-13
 -1      1768 1.95340E+01 3.83861E+00-8.64314E-03-1.05845E+00-2.53269E-13-7.50205E-13
 -1      1769 1.91985E+01 4.41275E+00-1.46856E-02-4.39570E-01-5.26388E-14-8.04631E-13
 -1      1770 1.92254E+01 4.39804E+00-1.27812E-02-6.30637E-01-1.01402E-13-8.04148E-13
 -1      1771 1.94221E+01 3.97292E+00-8.47996E-03-6.88163E-01-1.40789E-13-7.74207E-13
 -1      1772 1.91739E+01 4.44226E+00-1.33713E-02-7.81479E-02 5.18616E-14-7.87238E-13
 -1      1773 1.91821E+01 4.43774E+00-1.27925E-02-2.63271E-01 1.90096E-15-7.99995E-13
 -1      1774 1.93609E+01 4.04636E+00-8.35067E-03-3.34846E-01-2.84913E-14-7.76164E-13
 -1      1775 1.91837E+01 4.43601E+00-1.27209E-02 2.81269E-01 1.44304E-13-7.67247E-13
 -1      1776 1.91743E+01 4.44121E+00-1.34750E-02 9.59428E-02 9.58162E-14-7.80393E-13
 -1      1777 1.93422E+01 4.06855E+00-8.31453E-03 9.78326E-03 8.08023E-14-7.58178E-13
 -1      1778 1.92290E+01 4.39312E+00-1.27810E-02 6.49597E-01 2.33833E-13-7.46018E-13
 -1      1779 1.92010E+01 4.40884E+00-1.48053E-02 4.57911E-01 1.94876E-13-7.62595E-13
 -1      1780 1.93635E+01 4.04223E+00-8.40460E-03 3.54757E-01 1.82421E-13-7.39214E-13
 -1      1781 1.93145E+01 4.31010E+00-1.38142E-02 1.03122E+00 3.29119E-13-6.86109E-13
 -1      1782 1.92647E+01 4.33765E+00-1.70233E-02 8.30189E-01 2.78622E-13-7.24483E-13
 -1      1783 1.94269E+01 3.96533E+00-8.50874E-03 7.05825E-01 2.73854E-13-7.04919E-13
 -1      1784 1.94586E+01 4.17003E+00-1.67953E-02 1.45062E+00 4.38519E-13-5.65650E-13
 -1      1785 1.93759E+01 4.21670E+00-2.06753E-02 1.22545E+00 3.76383E-13-6.33892E-13
 -1      1786 1.95410E+01 3.82734E+00-8.71494E-03 1.07350E+00 3.80099E-13-6.23964E-13
 -1      1787 1.96955E+01 3.93896E+00-2.45927E-02 1.91171E+00 5.33316E-13-3.97519E-13
 -1      1788 1.95596E+01 4.02047E+00-2.71085E-02 1.65580E+00 4.76280E-13-4.99632E-13
 -1      1789 1.97285E+01 3.60312E+00-8.35331E-03 1.46367E+00 4.84857E-13-4.98331E-13
 -1      1790 2.01011E+01 3.52644E+00-4.44903E-02 2.40681E+00 6.03507E-13-9.33836E-14
 -1      1791 1.98643E+01 3.69193E+00-3.97286E-02 2.11629E+00 5.53531E-13-2.77143E-13
 -1      1792 2.00326E+01 3.24233E+00-5.12364E-03 1.86098E+00 5.69812E-13-3.10871E-13
 -1      1793 2.09242E+01 2.67590E+00-5.68745E-02 2.80170E+00 5.86042E-13 4.94597E-13
 -1      1794 2.04309E+01 3.09450E+00-5.00808E-02 2.55590E+00 5.82362E-13 1.49096E-13
 -1      1795 2.05405E+01 2.61460E+00 3.20359E-03 2.17727E+00 6.14744E-13 4.43603E-14
 -1      1796 2.17070E+01 1.20864E+00-1.21253E-01 2.28742E+00 4.96374E-13 1.19672E-12
 -1      1797 2.12670E+01 2.25555E+00 7.69319E-05 2.69040E+00 5.36640E-13 7.41129E-13
 -1      1798 2.09471E+01 1.68358E+00-2.22429E-02 2.08396E+00 5.90691E-13 4.93640E-13
 -1      1799 2.09445E+01 7.76944E-01-6.15491E-02 1.48317E+00 4.78693E-13 1.04715E-12
 -1      1800 2.17744E+01 2.44777E+00 9.03064E-02-3.00153E+00-4.77953E-13 6.51576E-13
 -1      1801 2.01283E+01 3.01174E-01-8.20598E-03 6.13348E-01 3.70995E-13 7.93813E-13
 -1      1802 2.06603E+01 4.41883E-01-1.19842E-02 9.91835E-01 3.93033E-13 9.44305E-13
 -1      1803 2.07590E+01 8.45348E-01 1.90990E-03 1.36344E+00 4.85105E-13 6.26674E-13
 -1      1804 2.15009E+01 1.73877E+00 7.90889E-02-2.28571E+00-5.13433E-13 4.52693E-13
 -1      1805 2.05476E+01 5.05468E-01 3.27956E-02-8.68035E-01-4.22867E-13 3.86094E-13
 -1      1806 2.01381E+01 3.60411E-01 8.69597E-03-5.72405E-01-3.73855E-13 2.88150E-13
 -1      1807 1.99619E+01 2.68811E-01 2.77086E-02-3.25385E-01-3.26105E-13 2.73131E-13
 -1      1808 1.97991E+01 1.93198E-01 1.17496E-02-1.79641E-01-2.79920E-13 1.76321E-13
 -1      1809 2.02603E+01 4.98629E-01-6.41512E-03-6.42347E-01-4.06031E-13 6.09781E-14
 -1      1810 1.97018E+01 1.50903E-01 1.71347E-02-3.27843E-02-2.43244E-13 1.57801E-13
 -1      1811 1.96609E+01 1.15272E-01 8.74622E-03 5.00078E-02-2.09773E-13 8.26218E-14
 -1      1812 1.99778E+01 2.68965E-01-6.49258E-03-1.90444E-01-3.19759E-13 6.26495E-15
 -1      1813 1.96285E+01 9.40768E-02 9.36236E-03 1.42240E-01-1.90294E-13 5.43305E-14
 -1      1814 1.96637E+01 7.71200E-02 6.42327E-03 1.95076E-01-1.64003E-13 2.37698E-14
 -1      1815 1.98527E+01 1.61144E-01-5.58829E-03 8.24195E-02-2.48154E-13-6.04380E-14
 -1      1816 1.96803E+01 6.68417E-02 5.11581E-03 2.58863E-01-1.51522E-13 8.51793E-15
 -1      1817 1.97663E+01 5.99952E-02 5.38693E-03 2.97734E-01-1.12008E-13-3.28794E-14
 -1      1818 1.98418E+01 1.09622E-01-4.66338E-03 2.61181E-01-1.84710E-13-8.09585E-14
 -1      1819 1.98198E+01 5.60516E-02 2.93459E-03 3.48134E-01-1.09363E-13-5.83146E-14
 -1      1820 1.99444E+01 5.53790E-02 5.13722E-03 3.81969E-01-1.00908E-13-8.89328E-14
 -1      1821 1.99161E+01 8.77067E-02-3.81004E-03 3.92096E-01-1.46052E-13-1.42181E-13
 -1      1822 2.00276E+01 5.54540E-02 1.81494E-03 4.28265E-01-1.14154E-13-9.24459E-14
 -1      1823 2.01856E+01 5.87605E-02 5.30666E-03 4.62572E-01-1.18541E-13-1.07778E-13
 -1      1824 2.00568E+01 8.33839E-02-3.19467E-03 5.02516E-01-1.17541E-13-1.59771E-13
 -1      1825 2.02949E+01 6.13259E-02 1.23287E-03 5.10641E-01-1.43509E-13-8.61579E-14
 -1      1826 2.04857E+01 6.69355E-02 5.64792E-03 5.48776E-01-1.07412E-13-1.38441E-13
 -1      1827 2.02530E+01 9.00671E-02-2.83943E-03 6.09525E-01-1.21236E-13-1.73650E-13
 -1      1828 2.06198E+01 7.05298E-02 9.11325E-04 6.01904E-01-8.68947E-14-1.64343E-13
 -1      1829 2.08449E+01 7.65485E-02 5.90553E-03 6.45240E-01-4.27093E-14-2.16925E-13
 -1      1830 2.05002E+01 1.02773E-01-2.69160E-03 7.23485E-01-1.33964E-13-1.96889E-13
 -1      1831 2.10040E+01 7.92336E-02 6.82318E-04 7.03960E-01-2.66193E-14-2.51621E-13
 -1      1832 2.12648E+01 8.28694E-02 5.72252E-03 7.51297E-01-1.65538E-14-2.86711E-13
 -1      1833 2.07974E+01 1.15913E-01-2.69241E-03 8.48800E-01-6.98032E-14-2.36353E-13
 -1      1834 2.14500E+01 8.16442E-02 4.40661E-04 8.12376E-01-1.76450E-14-2.53203E-13
 -1      1835 2.17452E+01 7.84332E-02 4.58120E-03 8.58589E-01-1.04120E-14-2.34795E-13
 -1      1836 2.11456E+01 1.21356E-01-2.80996E-03 9.82714E-01-1.00475E-14-2.48209E-13
 -1      1837 2.19577E+01 6.85743E-02 1.53113E-04 9.13132E-01 1.42286E-14-1.93227E-13
 -1      1838 2.22797E+01 5.16297E-02 1.79793E-03 9.47055E-01 5.86512E-14-1.45423E-13
 -1      1839 2.15466E+01 1.06343E-01-3.05461E-03 1.11226E+00 2.51313E-14-1.33547E-13
 -1      1840 2.25207E+01 2.62374E-02-1.01676E-04 9.77798E-01 4.37195E-14-1.45241E-13
 -1      1841 2.28509E+01-1.38205E-02-3.34360E-03 9.79730E-01 1.65970E-14-7.97600E-14
 -1      1842 2.20012E+01 5.16451E-02-3.46677E-03 1.20943E+00 6.76084E-14-8.49774E-14
 -1      1843 2.31205E+01-6.31359E-02-1.10552E-04 9.58304E-01-1.00957E-14-7.22755E-14
 -1      1844 2.34240E+01-1.35792E-01-1.11449E-02 8.98797E-01-5.87681E-15-5.67428E-14
 -1      1845 2.25082E+01-6.79801E-02-4.01655E-03 1.22548E+00 1.60295E-14-1.11233E-13
 -1      1846 2.37184E+01-2.14897E-01 3.65025E-04 7.85533E-01 2.78111E-14-4.35910E-14
 -1      1847 2.39416E+01-3.21634E-01-2.06367E-02 6.29692E-01 5.66569E-14-3.52730E-14
 -1      1848 2.30612E+01-2.75988E-01-4.28663E-03 1.08762E+00 3.54829E-14-5.24750E-14
 -1      1849 2.42447E+01-4.23246E-01 8.81455E-04 3.82135E-01 4.47749E-14-8.60791E-14
 -1      1850 2.43197E+01-5.39828E-01-2.81128E-02 1.06564E-01 4.30836E-14-8.34118E-14
 -1      1851 2.36400E+01-5.69918E-01-3.01473E-03 7.06804E-01 4.11095E-14-3.27106E-14
 -1      1852 2.45851E+01-6.24975E-01-2.76123E-04-2.90612E-01 7.56409E-14-2.14217E-14
 -1      1853 2.44504E+01-6.84214E-01-2.74685E-02-6.61034E-01 2.33702E-14 3.87598E-14
 -1      1854 2.41890E+01-8.73335E-01 2.13107E-03 1.43849E-02 9.67820E-14-3.43660E-14
 -1      1855 2.45894E+01-6.74596E-01-7.41392E-03-1.14197E+00-3.71196E-14 1.59611E-13
 -1      1856 2.42344E+01-5.72218E-01-1.28770E-02-1.49323E+00-3.98353E-14 1.39361E-13
 -1      1857 2.45883E+01-9.93850E-01 1.12803E-02-9.47977E-01 3.62540E-14 1.96874E-13
 -1      1858 2.41412E+01-3.76230E-01-1.99466E-02-1.85422E+00-7.39157E-14 1.07999E-13
 -1      1859 2.36496E+01-5.84897E-02 1.04969E-02-1.97707E+00-9.06775E-14 3.44204E-14
 -1      1860 2.46557E+01-6.65799E-01 1.54947E-02-1.90844E+00-9.97282E-14 2.08816E-13
 -1      1861 2.33338E+01 3.03185E-01-2.98481E-02-1.92468E+00-1.18953E-13 6.41917E-14
 -1      1862 2.28965E+01 7.02291E-01 2.16163E-02-1.64131E+00-1.63997E-13-1.09513E-14
 -1      1863 2.42829E+01 2.14654E-01 6.90531E-04-2.31084E+00-1.47233E-13 1.11922E-13
 -1      1864 2.25924E+01 1.02204E+00-1.77887E-02-1.05334E+00-1.96163E-13-9.29638E-14
 -1      1865 2.24128E+01 1.21715E+00 8.71831E-03-4.19899E-01-1.16740E-13-1.84827E-13
 -1      1866 2.36915E+01 1.26193E+00-3.33259E-02-1.62928E+00-2.34285E-13 7.95751E-14
 -1      1867 2.24123E+01 1.21818E+00 8.36685E-03 4.42567E-01-2.31603E-13-3.54068E-13
 -1      1868 2.26016E+01 1.02126E+00-1.71562E-02 1.07753E+00-3.19220E-13-4.01120E-13
 -1      1869 2.33950E+01 1.78625E+00-4.03954E-02 1.41372E-02-3.20934E-13-1.95422E-13
 -1      1870 2.29131E+01 6.97363E-01 2.28285E-02 1.66164E+00-2.92589E-13-5.50886E-13
 -1      1871 2.33581E+01 2.98730E-01-2.80300E-02 1.94262E+00-2.12040E-13-5.85041E-13
 -1      1872 2.37040E+01 1.26378E+00-2.96364E-02 1.65745E+00-3.64445E-13-4.93320E-13
 -1      1873 2.36767E+01-6.30419E-02 1.09652E-02 1.99088E+00-1.52353E-13-6.46160E-13
 -1      1874 2.41735E+01-3.78912E-01-1.95967E-02 1.86591E+00 6.96665E-15-6.24684E-13
 -1      1875 2.43064E+01 2.09155E-01 2.54253E-03 2.33009E+00-1.90332E-13-6.94146E-13
 -1      1876 2.42683E+01-5.72354E-01-1.34133E-02 1.50436E+00 4.41591E-14-6.29814E-13
 -1      1877 2.46293E+01-6.72268E-01-7.41358E-03 1.15409E+00 5.81861E-14-6.80626E-13
 -1      1878 2.46823E+01-6.67666E-01 1.53877E-02 1.92298E+00-5.83995E-15-6.58801E-13
 -1      1879 2.44952E+01-6.80493E-01-2.80136E-02 6.75847E-01 8.38912E-15-6.24712E-13
 -1      1880 2.46368E+01-6.19327E-01-5.46584E-04 3.08106E-01 6.24396E-14-6.20685E-13
 -1      1881 2.46215E+01-9.90290E-01 9.84149E-03 9.66196E-01 9.09576E-14-6.21269E-13
 -1      1882 2.43782E+01-5.32338E-01-2.84633E-02-8.39398E-02 5.56517E-14-5.98912E-13
 -1      1883 2.43134E+01-4.14411E-01 9.48368E-04-3.54685E-01 8.66859E-14-5.87468E-13
 -1      1884 2.42345E+01-8.63656E-01 9.40517E-04 1.21897E-02 3.07341E-14-5.49853E-13
 -1      1885 2.40200E+01-3.12323E-01-2.06024E-02-5.95472E-01 6.46670E-14-5.37719E-13
 -1      1886 2.38109E+01-2.05143E-01 7.48887E-04-7.45761E-01 4.35121E-14-5.73776E-13
 -1      1887 2.37023E+01-5.56255E-01-3.63049E-03-6.66494E-01 8.37178E-14-4.98981E-13
 -1      1888 2.35284E+01-1.25740E-01-1.09731E-02-8.51813E-01 2.15500E-14-4.00148E-13
 -1      1889 2.32434E+01-5.25286E-02 5.02736E-04-9.05238E-01 3.12716E-14-3.89118E-13
 -1      1890 2.31453E+01-2.61112E-01-4.66792E-03-1.03202E+00 1.88486E-13-4.36340E-13
 -1      1891 2.29882E+01-2.84377E-03-3.13711E-03-9.18756E-01 9.48815E-14-3.70392E-13
 -1      1892 2.26815E+01 3.78751E-02 6.33770E-04-9.10178E-01 1.42424E-13-2.27110E-13
 -1      1893 2.26188E+01-5.17679E-02-4.31011E-03-1.15314E+00 1.10165E-13-2.35900E-13
 -1      1894 2.24576E+01 6.36281E-02 1.97448E-03-8.70837E-01 8.95522E-14-1.51463E-13
 -1      1895 2.21643E+01 8.12137E-02 9.57450E-04-8.29701E-01 9.31721E-14-1.43716E-13
 -1      1896 2.21438E+01 6.93959E-02-3.72814E-03-1.11880E+00 2.01378E-13-5.97122E-14
 -1      1897 2.19717E+01 9.12883E-02 4.69212E-03-7.66059E-01 5.47771E-14-1.24106E-13
 -1      1898 2.17105E+01 9.49516E-02 1.26438E-03-7.12228E-01 9.19924E-14-9.76597E-14
 -1      1899 2.17268E+01 1.25480E-01-3.26946E-03-1.00206E+00 4.11504E-14 2.27904E-14
 -1      1900 2.15476E+01 9.60732E-02 5.72656E-03-6.41979E-01 3.67237E-14 6.13409E-15
 -1      1901 2.13261E+01 9.24708E-02 1.44942E-03-5.87006E-01-3.68538E-14-1.32307E-14
 -1      1902 2.13686E+01 1.41249E-01-2.93040E-03-8.52436E-01 3.32284E-14 5.13522E-15
 -1      1903 2.11906E+01 8.91224E-02 5.74083E-03-5.19834E-01-1.18067E-13 1.02389E-14
 -1      1904 2.10092E+01 8.23889E-02 1.49762E-03-4.69545E-01-7.51643E-14-9.43316E-15
 -1      1905 2.10672E+01 1.35270E-01-2.64337E-03-6.99340E-01-2.79679E-14 8.89561E-14
 -1      1906 2.08986E+01 7.72306E-02 5.22207E-03-4.09993E-01-1.00089E-13-1.35561E-13
 -1      1907 2.07539E+01 6.96768E-02 1.43805E-03-3.66742E-01-2.05892E-13-2.74771E-13
 -1      1908 2.08185E+01 1.19368E-01-2.36372E-03-5.58163E-01-1.54091E-13 9.99328E-14
 -1      1909 2.06652E+01 6.41507E-02 4.48248E-03-3.16346E-01-7.40326E-14-2.72977E-13
 -1      1910 2.05524E+01 5.69417E-02 1.31023E-03-2.80583E-01 2.94409E-14-1.66323E-13
 -1      1911 2.06170E+01 1.00299E-01-2.07735E-03-4.35538E-01-1.28653E-13-1.01761E-13
 -1      1912 2.04825E+01 5.17572E-02 3.70177E-03-2.39271E-01 1.76943E-14-2.28778E-13
 -1      1913 2.03964E+01 4.53995E-02 1.14854E-03-2.10502E-01-1.62412E-14-3.63519E-13
 -1      1914 2.04568E+01 8.15650E-02-1.78852E-03-3.33097E-01-4.99913E-14-1.92856E-13
 -1      1915 2.03422E+01 4.08552E-02 2.97238E-03-1.77427E-01 3.09276E-14-2.42796E-13
 -1      1916 2.02777E+01 3.55030E-02 9.77764E-04-1.54767E-01-3.40656E-14-1.80802E-13
 -1      1917 2.03316E+01 6.47662E-02-1.50801E-03-2.49862E-01 2.50854E-14-2.49565E-13
 -1      1918 2.02365E+01 3.16808E-02 2.33434E-03-1.28784E-01-2.22075E-13-4.69656E-14
 -1      1919 2.01892E+01 2.73129E-02 8.13607E-04-1.11243E-01-6.61129E-14-9.49662E-14
 -1      1920 2.02355E+01 5.04635E-02-1.24624E-03-1.83665E-01-3.07625E-14 7.52642E-14
 -1      1921 2.01585E+01 2.41876E-02 1.79849E-03-9.11630E-02 1.99760E-14-3.28372E-14
 -1      1922 2.01246E+01 2.07050E-02 6.64671E-04-7.77899E-02 1.36664E-13-2.88952E-14
 -1      1923 2.01631E+01 3.86896E-02-1.01045E-03-1.31948E-01-2.14908E-14 1.59738E-13
 -1      1924 2.01022E+01 1.82043E-02 1.36056E-03-6.25025E-02 2.68223E-13-1.46337E-13
 -1      1925 2.00787E+01 1.54813E-02 5.34577E-04-5.24507E-02 1.10965E-13-6.36675E-14
 -1      1926 2.01097E+01 2.92330E-02-8.04105E-04-9.21754E-02 1.21388E-13 1.58283E-13
 -1      1927 2.00627E+01 1.35165E-02 1.00932E-03-4.09788E-02-8.94262E-14 2.20513E-13
 -1      1928 2.00470E+01 1.14227E-02 4.22748E-04-3.35260E-02-6.41556E-14 3.65166E-13
 -1      1929 2.00712E+01 2.17876E-02-6.27309E-04-6.20389E-02 1.61182E-13 1.63333E-13
 -1      1930 2.00359E+01 9.89928E-03 7.30373E-04-2.50462E-02 1.23731E-14 2.47152E-13
 -1      1931 2.00260E+01 8.30446E-03 3.24262E-04-1.96016E-02 1.60172E-13 2.40792E-13
 -1      1932 2.00442E+01 1.60194E-02-4.78585E-04-3.95415E-02-6.80832E-14 4.91824E-13
 -1      1933 2.00187E+01 7.12225E-03 5.08827E-04-1.34567E-02 1.41827E-13 1.45553E-13
 -1      1934 2.00130E+01 5.90006E-03 2.40193E-04-9.57484E-03 1.83054E-13 1.26133E-14
 -1      1935 2.00258E+01 1.15862E-02-3.53149E-04-2.30351E-02 5.67971E-14 1.87009E-13
 -1      1936 2.00082E+01 4.88622E-03 3.20758E-04-5.24810E-03 3.57740E-13 2.10600E-14
 -1      1937 2.00055E+01 3.85304E-03 1.61518E-04-2.67652E-03 4.46371E-13 2.97136E-13
 -1      1938 2.00139E+01 8.15403E-03-2.37620E-04-1.12524E-02 1.80033E-13 3.86438E-13
 -1      1939 2.00027E+01 2.90309E-03 2.15575E-04-5.11123E-05 4.05809E-13 2.96068E-13
 -1      1940 2.00018E+01 1.73681E-03 1.01090E-04 1.20527E-03 3.19745E-13 4.08679E-13
 -1      1941 2.00024E+01 1.66138E-03-1.47021E-04 9.94889E-04 2.59681E-13 3.34231E-13
 -1      1942 2.00065E+01 4.88489E-03-2.33220E-04-3.44676E-03 4.42086E-13 4.22824E-13
 -1      1943 1.96889E+01 1.49243E-01 8.55237E-03 2.05983E-01 3.06533E-13 5.92169E-13
 -1      1944 1.99369E+01 2.09810E-01 1.68711E-02 3.83641E-01 3.13220E-13 7.26242E-13
 -1      1945 2.01516E+01 3.57176E-01-1.93173E-03 5.94447E-01 3.94778E-13 4.72377E-13
 -1      1946 1.95027E+01 8.30414E-02 7.75076E-03-1.35253E-02 2.35873E-13 4.46762E-13
 -1      1947 1.95871E+01 1.11513E-01 1.47584E-02 8.27753E-02 2.54944E-13 5.28991E-13
 -1      1948 1.98041E+01 1.77473E-01-2.47541E-03 1.79270E-01 3.18775E-13 3.58922E-13
 -1      1949 1.94859E+01 5.13805E-02 5.44204E-03-1.42552E-01 1.42951E-13 3.44837E-13
 -1      1950 1.94759E+01 6.58075E-02 9.09303E-03-8.42607E-02 1.89346E-13 4.13227E-13
 -1      1951 1.96628E+01 9.87113E-02-3.47030E-03-5.73933E-02 2.33573E-13 2.60189E-13
 -1      1952 1.95808E+01 3.58246E-02 4.11712E-03-2.26089E-01 8.57279E-14 2.39856E-13
 -1      1953 1.95127E+01 4.33259E-02 5.32081E-03-1.86791E-01 1.15905E-13 3.05910E-13
 -1      1954 1.96607E+01 6.15146E-02-3.65115E-03-2.02782E-01 1.60187E-13 1.83411E-13
 -1      1955 1.97534E+01 2.86872E-02 3.49294E-03-2.87033E-01 1.53841E-13 1.54119E-13
 -1      1956 1.96461E+01 3.24891E-02 3.32478E-03-2.57103E-01 1.06088E-13 1.90868E-13
 -1      1957 1.97539E+01 4.39559E-02-3.31465E-03-3.01164E-01 1.51671E-13 6.59312E-14
 -1      1958 1.99845E+01 2.60796E-02 3.16247E-03-3.37700E-01 1.00924E-13 1.04319E-13
 -1      1959 1.98478E+01 2.79410E-02 2.30471E-03-3.11877E-01 1.29844E-13 1.36311E-13
 -1      1960 1.99158E+01 3.65178E-02-2.91252E-03-3.75975E-01 1.71896E-13 1.39190E-14
 -1      1961 2.02638E+01 2.53648E-02 2.88753E-03-3.84360E-01 6.12991E-14 1.56803E-14
 -1      1962 2.01028E+01 2.65342E-02 1.74102E-03-3.59935E-01 8.32868E-14 6.70194E-14
 -1      1963 2.01310E+01 3.41012E-02-2.62245E-03-4.39832E-01 1.09251E-13-2.12034E-14
 -1      1964 2.05850E+01 2.41012E-02 2.50418E-03-4.28643E-01 2.79350E-14 1.57361E-14
 -1      1965 2.04027E+01 2.57210E-02 1.34261E-03-4.04950E-01 3.89632E-14 7.19520E-15
 -1      1966 2.03908E+01 3.29417E-02-2.45461E-03-4.98446E-01 6.44155E-14-7.89068E-14
 -1      1967 2.09423E+01 1.95092E-02 1.85199E-03-4.67548E-01 3.29542E-14 7.08719E-14
 -1      1968 2.07420E+01 2.28218E-02 9.19089E-04-4.46062E-01 5.45413E-14 5.68066E-14
 -1      1969 2.06890E+01 2.93042E-02-2.35388E-03-5.51729E-01 4.62711E-14-1.54371E-14
 -1      1970 2.13262E+01 8.21625E-03 7.65991E-04-4.92728E-01 2.78834E-14 4.44727E-14
 -1      1971 2.11136E+01 1.46370E-02 3.18713E-04-4.77495E-01 1.48689E-14 7.32353E-14
 -1      1972 2.10194E+01 1.88424E-02-2.23356E-03-5.93542E-01 2.02662E-14-5.87020E-15
 -1      1973 2.17197E+01-1.36191E-02-8.77493E-04-4.89625E-01 1.00894E-13 1.08650E-14
 -1      1974 2.15057E+01-2.62876E-03-5.79276E-04-4.87769E-01 7.68845E-14 9.20683E-15
 -1      1975 2.13725E+01-3.56070E-03-1.97071E-03-6.10850E-01 8.28276E-14-3.30764E-14
 -1      1976 2.20949E+01-4.94220E-02-3.05388E-03-4.37348E-01 9.10229E-14-1.60063E-14
 -1      1977 2.18973E+01-3.28677E-02-1.83661E-03-4.59227E-01 7.25286E-14 4.67950E-14
 -1      1978 2.17323E+01-4.31754E-02-1.38798E-03-5.83130E-01 9.78237E-14 2.50182E-14
 -1      1979 2.24095E+01-9.99511E-02-5.43319E-03-3.11048E-01 2.86932E-14 5.59884E-14
 -1      1980 2.22547E+01-7.84530E-02-3.40150E-03-3.69159E-01 4.57251E-14 1.77753E-14
 -1      1981 2.20729E+01-1.03348E-01-2.42609E-04-4.83477E-01 5.79424E-14 3.78933E-14
 -1      1982 2.26072E+01-1.59269E-01-7.25123E-03-8.94263E-02 6.02261E-14 3.47588E-14
 -1      1983 2.25289E+01-1.36918E-01-5.06427E-03-1.94717E-01 7.93168E-14 6.12743E-14
 -1      1984 2.23564E+01-1.81166E-01 1.72645E-03-2.83857E-01 7.61960E-14 4.54070E-14
 -1      1985 2.26247E+01-2.09726E-01-7.36666E-03 2.30002E-01-3.26128E-15-6.42828E-14
 -1      1986 2.26579E+01-1.95984E-01-6.40733E-03 7.57889E-02-1.92034E-14-5.12475E-14
 -1      1987 2.25325E+01-2.61041E-01 4.61966E-03 3.23459E-02 7.12356E-14 4.42994E-14
 -1      1988 2.24078E+01-2.20023E-01-4.91289E-03 6.08633E-01-9.13072E-14-1.18143E-14
 -1      1989 2.25771E+01-2.29379E-01-6.87690E-03 4.24145E-01-1.10693E-14-2.85470E-14
 -1      1990 2.25439E+01-3.09037E-01 8.03467E-03 4.48817E-01-2.26130E-14-1.47000E-14
 -1      1991 2.19418E+01-1.54350E-01-4.36100E-04 9.48217E-01-1.33910E-13-9.06514E-14
 -1      1992 2.22440E+01-2.00092E-01-5.95804E-03 7.81539E-01-1.63191E-13-8.55418E-14
 -1      1993 2.23431E+01-2.76777E-01 1.04358E-02 8.90713E-01-1.10691E-13-2.04645E-14
 -1      1994 2.12893E+01 1.24204E-03 3.47054E-03 1.10097E+00 1.52170E-14-7.26433E-14
 -1      1995 2.16775E+01-7.96246E-02-3.16615E-03 1.02378E+00-8.67917E-14-6.52881E-14
 -1      1996 2.19253E+01-1.25543E-01 9.30074E-03 1.21423E+00-9.22526E-14-1.16814E-13
 -1      1997 2.06137E+01 2.05990E-01 3.31950E-03 9.33607E-01 9.44522E-14-1.16672E-13
 -1      1998 2.09936E+01 1.17841E-01 1.38424E-03 1.00847E+00 3.43501E-14-1.31607E-13
 -1      1999 2.13704E+01 1.31850E-01 2.99990E-03 1.24328E+00 3.81899E-15-1.14466E-13
 -1      2000 2.01499E+01 3.63710E-01-8.04331E-04 4.33053E-01 2.42749E-13-1.20692E-13
 -1      2001 2.04026E+01 3.14320E-01 6.97957E-03 6.62266E-01 2.20659E-13-3.18790E-14
 -1      2002 2.08571E+01 4.00967E-01-6.44733E-03 8.69796E-01 1.69776E-13-1.56758E-14
 -1      2003 2.00923E+01 3.85182E-01-4.68844E-03-2.40090E-01 5.46143E-14-3.21697E-13
 -1      2004 2.01250E+01 4.06078E-01 1.17268E-02 6.58471E-02 1.43064E-13-2.19877E-13
 -1      2005 2.05999E+01 5.48857E-01-1.16372E-02 1.67451E-01 1.87614E-13-8.93443E-14
 -1      2006 2.04777E+01 2.55685E-01-4.42953E-03-8.20291E-01-1.53011E-13-2.97805E-13
 -1      2007 2.02721E+01 3.37244E-01 1.25345E-02-5.59368E-01-7.63799E-14-3.68387E-13
 -1      2008 2.07218E+01 4.91893E-01-7.96798E-03-6.05703E-01-3.06595E-14-2.04975E-13
 -1      2009 2.11492E+01 5.45172E-02-3.66973E-04-1.09849E+00-2.31731E-13-1.67977E-13
 -1      2010 2.07778E+01 1.51015E-01 8.06092E-03-9.72087E-01-1.81946E-13-2.86143E-13
 -1      2011 2.11650E+01 2.58930E-01-9.67340E-04-1.14467E+00-1.79760E-13-2.79598E-13
 -1      2012 2.18619E+01-1.17076E-01 4.49432E-03-1.03660E+00-3.68989E-14-1.96503E-13
 -1      2013 2.14465E+01-4.90952E-02 9.08423E-04-1.05768E+00-9.69405E-14-2.10252E-13
 -1      2014 2.17355E+01-2.17400E-02 3.89201E-03-1.28789E+00-1.19425E-13-3.81601E-13
 -1      2015 2.24142E+01-2.03759E-01 6.95089E-03-7.41777E-01 1.03467E-13-9.07642E-14
 -1      2016 2.20666E+01-1.80475E-01-5.37124E-03-8.62494E-01 6.45655E-14-1.43432E-13
 -1      2017 2.22318E+01-2.28005E-01 4.52300E-03-1.07592E+00 5.53325E-14-3.31195E-13
 -1      2018 2.27130E+01-2.08763E-01 6.30025E-03-3.67328E-01-7.88449E-14-5.41502E-14
 -1      2019 2.24968E+01-2.20850E-01-8.77768E-03-5.22608E-01-1.71156E-14-7.54791E-14
 -1      2020 2.25358E+01-3.10470E-01 2.33093E-03-6.70399E-01 7.20691E-15-2.39267E-13
 -1      2021 2.27629E+01-1.65330E-01 4.08848E-03-3.05304E-02-3.16891E-14 1.04991E-13
 -1      2022 2.26888E+01-1.94429E-01-9.17764E-03-1.71325E-01-3.70034E-14 9.94589E-14
 -1      2023 2.26244E+01-2.89310E-01 2.21052E-04-2.37967E-01-2.23051E-14-1.41635E-14
 -1      2024 2.26197E+01-1.06753E-01 1.72036E-03 2.12948E-01-6.14482E-14 6.68736E-16
 -1      2025 2.26639E+01-1.37901E-01-7.56966E-03 1.10063E-01-1.45127E-14 9.88714E-14
 -1      2026 2.25333E+01-2.14623E-01-8.53618E-04 1.16041E-01 2.02503E-14 2.59663E-13
 -1      2027 2.23534E+01-5.36220E-02 8.75735E-06 3.55585E-01-1.31944E-13-9.42276E-14
 -1      2028 2.24783E+01-7.89333E-02-5.13948E-03 2.94150E-01-1.05990E-13-1.31335E-13
 -1      2029 2.23185E+01-1.29167E-01-1.06387E-03 3.53010E-01-5.21683E-14 3.80700E-14
 -1      2030 2.20263E+01-1.41763E-02-9.07261E-04 4.15123E-01 3.40884E-14-3.00752E-13
 -1      2031 2.21948E+01-3.13868E-02-2.72265E-03 3.88165E-01-9.09654E-14-2.07187E-13
 -1      2032 2.20344E+01-5.69439E-02-8.64791E-04 4.78528E-01 2.20874E-14-2.04115E-13
 -1      2033 2.16849E+01 1.10130E-02-1.21497E-03 4.16747E-01 9.96193E-14-6.52553E-14
 -1      2034 2.18678E+01 1.12347E-03-7.66540E-04 4.14083E-01 8.93395E-14-1.69041E-13
 -1      2035 2.17245E+01-5.93005E-03-6.16901E-04 5.17983E-01 3.23977E-14-1.98915E-13
 -1      2036 2.13599E+01 2.46800E-02-1.16020E-03 3.83536E-01 4.66605E-14-2.10481E-14
 -1      2037 2.15373E+01 2.02621E-02 5.95901E-04 3.95717E-01 1.20879E-13 2.72948E-14
 -1      2038 2.14194E+01 2.50386E-02-4.55625E-04 5.00231E-01 8.28332E-14 5.32361E-14
 -1      2039 2.10687E+01 3.02696E-02-9.40621E-04 3.33032E-01 1.69258E-13-1.24094E-13
 -1      2040 2.12291E+01 2.94488E-02 1.41031E-03 3.52801E-01 1.85574E-14-9.08659E-14
 -1      2041 2.11380E+01 4.05999E-02-3.90536E-04 4.49820E-01 1.48746E-13-9.81422E-14
 -1      2042 2.08192E+01 3.07849E-02-6.79170E-04 2.77032E-01 1.50244E-13-1.17564E-13
 -1      2043 2.09570E+01 3.20633E-02 1.79631E-03 2.99457E-01 2.19254E-13-9.35361E-14
 -1      2044 2.08907E+01 4.57660E-02-3.86256E-04 3.84689E-01 2.01720E-13 1.92239E-14
 -1      2045 2.06127E+01 2.84557E-02-4.38994E-04 2.22675E-01-2.16205E-13-1.70954E-13
 -1      2046 2.07266E+01 3.07799E-02 1.88552E-03 2.44728E-01-8.66278E-16-1.42301E-13
 -1      2047 2.06812E+01 4.46532E-02-4.04387E-04 3.16573E-01 9.47298E-14 1.17526E-13
 -1      2048 2.04468E+01 2.47827E-02-2.44851E-04 1.73762E-01 9.32969E-14-9.97435E-14
 -1      2049 2.05380E+01 2.74759E-02 1.79081E-03 1.93794E-01-7.66184E-14-1.39165E-13
 -1      2050 2.05090E+01 4.02083E-02-4.19594E-04 2.52373E-01-9.96131E-14 3.65135E-14
 -1      2051 2.03169E+01 2.07014E-02-1.00660E-04 1.31902E-01-2.45874E-13 7.72696E-14
 -1      2052 2.03880E+01 2.33636E-02 1.59704E-03 1.49181E-01-1.12200E-13-9.32026E-14
 -1      2053 2.03713E+01 3.43570E-02-4.20277E-04 1.95594E-01-1.00321E-13 9.04474E-15
 -1      2054 2.02179E+01 1.67503E-02-8.00955E-07 9.73719E-02-1.27706E-13 2.36580E-13
 -1      2055 2.02718E+01 1.91689E-02 1.36232E-03 1.11728E-01-1.88712E-13 1.71375E-13
 -1      2056 2.02638E+01 2.82626E-02-4.04334E-04 1.47547E-01-2.85945E-13 3.85525E-14
 -1      2057 2.01443E+01 1.32069E-02 6.35897E-05 6.97008E-02 5.00227E-14 2.76113E-13
 -1      2058 2.01840E+01 1.52884E-02 1.12321E-03 8.12877E-02-1.78813E-14 2.88576E-13
 -1      2059 2.01819E+01 2.25675E-02-3.74664E-04 1.08223E-01-2.08161E-14 2.26382E-13
 -1      2060 2.00911E+01 1.01863E-02 1.01441E-04 4.80569E-02 5.02955E-14 1.62276E-13
 -1      2061 2.01195E+01 1.19085E-02 9.00476E-04 5.71898E-02 7.28552E-14 3.41963E-13
 -1      2062 2.01211E+01 1.75798E-02-3.35874E-04 7.68935E-02 7.93276E-14 3.37362E-13
 -1      2063 2.00540E+01 7.70845E-03 1.19794E-04 3.14808E-02 2.55933E-13-1.56193E-13
 -1      2064 2.00735E+01 9.08850E-03 7.03821E-04 3.85382E-02 2.12761E-13 3.48905E-14
 -1      2065 2.00772E+01 1.34055E-02-2.92562E-04 5.25021E-02 3.01748E-13 1.76916E-13
 -1      2066 2.00293E+01 5.73547E-03 1.22831E-04 1.90251E-02 2.41632E-13-1.58193E-13
 -1      2067 2.00420E+01 6.81396E-03 5.35642E-04 2.43892E-02 2.29632E-13-1.59914E-13
 -1      2068 2.00465E+01 1.00316E-02-2.49144E-04 3.38989E-02 2.87718E-13 2.91378E-13
 -1      2069 2.00139E+01 4.18073E-03 1.11670E-04 9.84553E-03 2.37990E-13-3.40791E-13
 -1      2070 2.00215E+01 5.01909E-03 3.93754E-04 1.38614E-02 1.47138E-13-2.02550E-13
 -1      2071 2.00260E+01 7.37072E-03-2.07804E-04 1.99881E-02 2.21222E-13 1.97916E-13
 -1      2072 2.00052E+01 2.90096E-03 8.47891E-05 3.31222E-03 2.70010E-13-1.51797E-13
 -1      2073 2.00092E+01 3.57863E-03 2.72755E-04 6.23189E-03 3.38538E-13-1.69925E-13
 -1      2074 2.00130E+01 5.24624E-03-1.71358E-04 9.85500E-03 2.61268E-13 4.06023E-14
 -1      2075 2.00011E+01 1.67357E-03 9.21811E-05-8.31589E-04-1.52316E-13-9.17499E-14
 -1      2076 2.00026E+01 2.28732E-03 1.69413E-04 1.01212E-03-2.15659E-14-3.73035E-14
 -1      2077 2.00054E+01 3.42143E-03-1.26200E-04 2.83876E-03-4.98230E-14 4.06178E-13
 -1      2078 2.00002E+01 3.00036E-04 9.55770E-05-2.21826E-03-3.11282E-13-9.00219E-14
 -1      2079 2.00003E+01 1.26247E-03 9.92171E-05-1.57649E-03-1.84310E-13-1.22997E-13
 -1      2080 2.00021E+01 2.00331E-03-5.48948E-05-7.76558E-04-1.27745E-13 4.11035E-13
 -1      2081 2.00009E+01 1.15469E-04 3.90866E-05-2.12355E-03-2.52106E-13 3.73345E-13
 -1      2082 2.00016E+01 1.22858E-02-6.36955E-05 7.14712E-03 2.69082E-13 6.87412E-14
 -1      2083 2.00022E+01 9.97383E-03 1.33245E-04 5.97943E-03 2.09194E-13 1.13595E-13
 -1      2084 2.00027E+01 6.45005E-03-9.08623E-06 4.19290E-03 1.28743E-13 1.51915E-13
 -1      2085 2.00029E+01 4.85416E-03 1.11471E-04 2.51856E-03 1.07268E-13 2.04161E-13
 -1      2086 2.00037E+01 1.25833E-02-4.50025E-05 7.50522E-03 4.04084E-14 2.02525E-13
 -1      2087 2.00024E+01 2.33801E-03 3.27918E-05 6.46598E-04-9.99769E-14 4.23659E-13
 -1      2088 2.00019E+01 1.56616E-03 6.51611E-05-6.52310E-04-2.26354E-13 5.63415E-13
 -1      2089 2.00027E+01 2.64950E-03 2.56948E-05-1.70870E-04-1.77064E-13 5.08720E-13
 -1      2090 2.00039E+01 6.58711E-03-1.02615E-04 3.31691E-03-1.25508E-13 4.44056E-13
 -1      2091 2.00000E+01 1.87198E-02-1.13036E-04 8.34087E-03-7.65597E-14-5.71042E-13
 -1      2092 2.00009E+01 1.60815E-02 1.04302E-04 8.01214E-03 4.80772E-14-3.14834E-13
 -1      2093 2.00019E+01 1.98417E-02 1.33210E-05 1.04061E-02 5.99458E-14-3.39333E-13
 -1      2094 1.99984E+01 2.48176E-02-1.49135E-04 7.48903E-03-1.60367E-13-2.29512E-13
 -1      2095 1.99992E+01 2.23249E-02 4.10006E-05 8.05596E-03-1.16322E-13-6.75254E-14
 -1      2096 1.99996E+01 2.71894E-02 7.92238E-05 1.09639E-02-8.20406E-15-3.59189E-13
 -1      2097 1.99973E+01 2.93347E-02-1.60824E-04 4.81041E-03-7.04072E-15-7.88128E-14
 -1      2098 1.99978E+01 2.75995E-02-3.28276E-05 6.11241E-03-3.85515E-14-2.17080E-13
 -1      2099 1.99974E+01 3.35421E-02 1.40260E-04 8.98663E-03 5.95583E-14-1.80256E-13
 -1      2100 1.99968E+01 3.14161E-02-1.43490E-04 9.77089E-04-3.18086E-13-1.47703E-13
 -1      2101 1.99969E+01 3.08352E-02-9.86566E-05 2.68113E-03-2.42541E-13-1.77966E-13
 -1      2102 1.99959E+01 3.78043E-02 1.82179E-04 4.93280E-03 5.81696E-15-1.64053E-13
 -1      2103 1.99970E+01 3.06731E-02-9.77313E-05-3.09833E-03-2.64774E-13-1.95504E-13
 -1      2104 1.99968E+01 3.13833E-02-1.43136E-04-1.40955E-03-2.19434E-13 3.80835E-15
 -1      2105 1.99954E+01 3.92662E-02 1.97156E-04-2.59884E-04-4.35934E-13-2.79906E-14
 -1      2106 1.99979E+01 2.72594E-02-3.20208E-05-6.44738E-03-3.23698E-13-3.34890E-13
 -1      2107 1.99973E+01 2.91087E-02-1.58583E-04-5.19277E-03-2.27991E-13-3.15159E-13
 -1      2108 1.99960E+01 3.76758E-02 1.81709E-04-5.41491E-03-1.07179E-13-2.95624E-13
 -1      2109 1.99993E+01 2.19629E-02 4.27890E-05-8.23193E-03-2.51681E-13-2.48047E-13
 -1      2110 1.99985E+01 2.44744E-02-1.47064E-04-7.73731E-03-3.31672E-13-3.52898E-13
 -1      2111 1.99976E+01 3.33426E-02 1.42913E-04-9.33445E-03-1.97548E-13-3.00058E-13
 -1      2112 2.00010E+01 1.56150E-02 1.06509E-04-8.02491E-03 3.66167E-14 5.60281E-13
 -1      2113 2.00001E+01 1.83237E-02-1.12280E-04-8.43989E-03-1.23129E-13 2.23162E-13
 -1      2114 1.99998E+01 2.69593E-02 7.76894E-05-1.11370E-02 5.81534E-14 7.44045E-14
 -1      2115 2.00024E+01 9.46037E-03 1.32845E-04-5.79319E-03 4.78369E-14-1.99956E-14
 -1      2116 2.00017E+01 1.17524E-02-6.29868E-05-7.04512E-03 6.27344E-14 2.38226E-13
 -1      2117 2.00021E+01 1.94967E-02 4.44747E-06-1.03621E-02 2.25173E-13 4.26709E-13
 -1      2118 2.00027E+01 4.14578E-03-2.19437E-05-2.07439E-03-3.48825E-14-2.04109E-13
 -1      2119 2.00029E+01 5.93733E-03 1.27790E-05-3.89047E-03 3.36310E-15-2.53734E-13
 -1      2120 2.00039E+01 1.22311E-02-2.10827E-05-7.21001E-03 1.15446E-13-1.65542E-13
 -1      2121 9.53502E+00-5.20731E+00-1.81037E-01 6.32806E+00 9.79217E-13 1.01358E-12
 -1      2122 6.02551E+00-6.75943E+00-4.39323E-01 5.03307E+00 8.49876E-13 1.21872E-12
 -1      2123 2.66412E-01-7.14614E+00-4.06316E-01 1.05547E+00 3.38493E-13 1.37623E-12
 -1      2124 2.45572E-01-6.91483E+00-3.69153E-01-6.05690E-01-1.02862E-13 1.52245E-12
 -1      2125 3.45297E+00-6.41852E+00-3.05289E-01 4.22056E+00 7.16482E-13 1.29968E-12
 -1      2126 1.61520E+00-7.07939E+00-3.96809E-01 2.85312E+00 3.02203E-13 1.16046E-12
 -1      2127 1.86606E+01-4.05844E+00-9.04020E-02 6.78270E+00 7.30638E-13 4.05453E-13
 -1      2128 1.37729E+01-5.37083E+00-2.98762E-01 6.26631E+00 8.30946E-13 6.79845E-13
 -1      2129 2.76608E+01-2.75448E-02 2.23795E-01 6.05872E+00 1.07925E-12 6.19949E-13
 -1      2130 2.32252E+01-2.35108E+00-4.13029E-02 5.73604E+00 9.02223E-13 5.11924E-13
 -1      2131 1.95506E+01 4.04109E+00-2.51845E-02-1.63323E+00-3.61234E-13-6.71610E-13
 -1      2132 1.96777E+01 3.96215E+00-2.41298E-02-1.88805E+00-4.27111E-13-5.84019E-13
 -1      2133 1.99938E+01 3.25774E+00-1.84960E-02-1.85195E+00-4.61207E-13-5.03214E-13
 -1      2134 1.97169E+01 3.62815E+00-6.25063E-03-1.44858E+00-3.61780E-13-6.60442E-13
 -1      2135 3.89306E+01 5.87868E+00 3.69998E-01 1.65278E+00 1.08874E-12-1.89737E-13
 -1      2136 3.55383E+01 4.81694E+00 9.52387E-02 2.11934E+00 9.98202E-13-9.55902E-14
 -1      2137 3.91731E+01 7.28496E+00 1.93556E-01-1.06302E-01 1.08991E-12-5.54314E-13
 -1      2138 3.93290E+01 6.79530E+00 2.80270E-01 1.14697E+00 1.13776E-12-1.71474E-13
 -1      2139 3.50843E+01 7.04474E+00 2.76807E-01-2.44963E-01 1.13076E-12-5.78204E-13
 -1      2140 3.75810E+01 6.44567E+00 1.70867E-01-1.13867E+00 1.17317E-12-8.18734E-13
 -1      2141 3.83177E+01 7.09907E+00 1.76611E-01-1.91155E-01 1.08835E-12-6.62317E-13
 -1      2142 3.47479E+01 3.91180E+00 1.31550E-01-3.24596E+00 1.25550E-12-9.48353E-13
 -1      2143 3.78758E+01 5.04408E+00 2.69017E-01-2.28739E+00 1.22011E-12-7.43572E-13
 -1      2144 2.82356E+01 3.99050E-01-1.74099E-02-5.12839E+00 1.15979E-12-9.56790E-13
 -1      2145 3.27135E+01 1.98949E+00 2.40706E-01-4.66717E+00 1.14739E-12-9.06386E-13
 -1      2146 2.07745E+01-2.89970E+00-7.62289E-02-6.18029E+00 9.74498E-13-9.43967E-13
 -1      2147 2.53864E+01-6.90813E-01 1.92617E-01-6.53426E+00 1.11805E-12-9.64562E-13
 -1      2148 2.80493E+01-1.76886E+00 1.32646E-01-3.99662E+00 6.79845E-13-4.52582E-13
 -1      2149 1.11571E+01-5.85210E+00-3.79023E-01-5.98494E+00 7.41851E-13-1.18999E-12
 -1      2150 1.59439E+01-4.30576E+00-1.39775E-01-6.92508E+00 7.84706E-13-1.10686E-12
 -1      2151 4.21237E+00-7.17917E+00-4.56335E-01-4.38547E+00 5.35016E-13-1.10076E-12
 -1      2152 7.21288E+00-5.73023E+00-2.45320E-01-5.71797E+00 7.67164E-13-1.28136E-12
 -1      2153 6.91169E-01-7.05150E+00-3.83601E-01-1.79279E+00 1.93873E-13-1.05116E-12
 -1      2154 1.92941E+00-6.92272E+00-3.78555E-01-3.23129E+00 5.20195E-13-9.55069E-13
 -1      2155 7.99358E-01-7.43605E+00-4.45830E-01 1.87574E+00-1.90903E-13-1.12921E-12
 -1      2156 1.55261E-01-7.15072E+00-4.00035E-01 3.61410E-01 1.54446E-13-1.16585E-12
 -1      2157 5.35353E+00-6.15146E+00-2.91009E-01 4.96009E+00-4.09506E-13-1.16668E-12
 -1      2158 2.45893E+00-7.61235E+00-5.21987E-01 3.21178E+00-2.13940E-13-1.13265E-12
 -1      2159 3.05384E+00-5.22141E+00-1.94724E-01 3.37731E+00 2.27318E-14-1.27875E-12
 -1      2160 1.34400E+01-4.74684E+00-1.59286E-01 6.58707E+00-7.43294E-13-1.29349E-12
 -1      2161 9.71309E+00-6.15631E+00-2.84471E-01 5.87331E+00-4.98268E-13-1.21084E-12
 -1      2162 2.23742E+01-3.14411E+00-1.00584E-01 6.19688E+00-7.11431E-13-7.85649E-13
 -1      2163 1.72026E+01-4.43362E+00-2.92672E-01 5.99614E+00-7.54286E-13-1.14253E-12
 -1      2164 1.79484E+01-5.44164E+00-1.52070E-02 6.46292E+00-1.45883E-13-8.56107E-13
 -1      2165 3.16627E+01 9.27082E-01 2.92553E-01 4.98790E+00-1.17495E-12-8.59535E-13
 -1      2166 2.69725E+01-1.29759E+00-1.57723E-02 4.81582E+00-1.00636E-12-7.30860E-13
 -1      2167 3.70032E+01 3.92564E+00 2.03289E-01 2.16664E+00-1.31001E-12-3.13305E-13
 -1      2168 3.38891E+01 2.54670E+00 1.48126E-01 3.50080E+00-1.34984E-12-7.87814E-13
 -1      2169 3.24599E+01 5.73346E-01 2.09402E-01 1.58342E+00-9.35026E-13-2.18825E-13
 -1      2170 3.99232E+01 6.80075E+00 3.83675E-01 4.11108E-01-1.31672E-12-1.08524E-13
 -1      2171 3.75589E+01 5.97144E+00 1.56845E-01 9.72280E-01-1.39322E-12-3.16969E-13
 -1      2172 4.13713E+01 6.92554E+00 4.23933E-01-8.93877E-01-1.10917E-12 3.23991E-13
 -1      2173 4.12647E+01 7.12247E+00 3.57351E-01 3.74291E-01-1.21769E-12-9.53404E-15
 -1      2174 3.71875E+01 4.98687E+00 1.69533E-01-1.93465E+00-9.14657E-13 5.22415E-13
 -1      2175 4.05057E+01 6.04911E+00 4.70453E-01-1.35015E+00-9.68559E-13 4.04010E-13
 -1      2176 3.14084E+01 1.18376E+00 4.47869E-02-4.06639E+00-1.14610E-12 9.12825E-13
 -1      2177 3.54493E+01 2.69060E+00 2.22652E-01-3.15456E+00-9.18224E-13 7.72937E-13
 -1      2178 2.30600E+01-2.25194E+00-1.92535E-01-5.59419E+00-1.20998E-12 8.00693E-13
 -1      2179 2.84254E+01-3.23272E-01 1.59718E-01-5.78913E+00-1.25622E-12 8.70970E-13
 -1      2180 1.43445E+01-5.28348E+00-3.35387E-01-5.96431E+00-7.35745E-13 1.03609E-12
 -1      2181 1.92824E+01-3.31757E+00 3.71662E-03-6.75937E+00-9.42135E-13 8.78853E-13
 -1      2182 6.62267E+00-6.78826E+00-3.98286E-01-4.98739E+00-4.20108E-13 1.27613E-12
 -1      2183 1.02253E+01-5.25025E+00-1.56718E-01-6.21075E+00-6.62470E-13 1.30730E-12
 -1      2184 1.83412E+00-6.76742E+00-3.35061E-01-2.72355E+00-4.88498E-15 1.34270E-12
 -1      2185 3.72015E+00-6.41238E+00-2.96495E-01-4.11081E+00-4.18943E-13 1.33721E-12
 -1      2186 3.40536E+01 2.66414E+00 1.84251E-01 3.57111E+00 8.51909E-13 1.66978E-13
 -1      2187 3.02747E+01 1.30002E+00 7.00437E-02 4.62415E+00 9.83214E-13 5.20362E-13
 -1      2188 2.95932E+01-8.34861E-01 1.46929E-01 3.17075E+00 6.38184E-13-1.25788E-13
 -1      2189 2.20217E+01-4.08374E+00-1.45525E-02 5.77473E+00 5.68989E-13 2.69063E-13
 -1      2190 2.13076E+01-5.12144E+00 1.60051E-01 5.94891E+00 2.19047E-13-1.02252E-13
 -1      2191 2.48973E+01-4.40995E+00-1.84593E-01 4.58138E+00 2.99372E-13-3.39062E-13
 -1      2192 2.07471E+01 1.10880E+00-2.01940E-02-1.56404E+00-4.98129E-13 3.31466E-13
 -1      2193 3.36193E+01 3.29919E+00 1.91022E-01 8.81394E-01 8.56704E-13-4.11227E-13
 -1      2194 2.06545E+01 1.33652E+00-1.83500E-02-1.61040E+00-5.26060E-13 5.19047E-14
 -1      2195 6.63391E+00-5.32127E+00-1.51483E-01 5.71101E+00 9.29257E-14 1.16915E-12
 -1      2196 2.21751E+00-4.88099E+00-1.87511E-01 2.50121E+00 3.81917E-14 1.40882E-12
 -1      2197 2.00031E+01 4.03080E-03 2.84617E-05-1.26318E-03 1.56315E-13-8.88513E-14
 -1      2198 1.40148E+01-5.40363E+00 5.42337E-03 6.98004E+00 2.92211E-13 4.48173E-13
 -1      2199 2.36281E+00-4.78828E+00-1.62309E-01-2.16808E+00 2.83940E-14 1.55931E-12
 -1      2200 7.36759E+00-5.31624E+00-1.23244E-01-5.64676E+00 1.02307E-13 1.27084E-12
 -1      2201 1.50198E+01-5.75284E+00-6.77221E-02-6.66037E+00-3.41949E-14 7.96641E-13
 -1      2202 2.34947E+01-4.42069E+00 3.31168E-02-5.29524E+00-4.97213E-13 3.73923E-13
 -1      2203 3.04709E+01-1.07203E+00 1.84450E-01-2.75460E+00-8.43950E-13 4.04843E-13
 -1      2204 3.47573E+01 3.43116E+00 2.40400E-01-3.74875E-01-9.22318E-13 2.16105E-13
 -1      2205 3.69149E+01 7.27585E+00 3.79067E-01 2.64849E-01-1.07758E-12 7.71605E-14
 -1      2206 3.49846E+01 4.89158E+00 2.30636E-01-2.15858E-01-1.30329E-12-1.59095E-13
 -1      2207 2.57955E+01-3.03941E+00 4.34377E-02 4.74226E+00-6.46483E-13-5.89695E-13
 -1      2208 2.48616E+01-4.55893E+00 1.62680E-01 4.61641E+00-1.72251E-13-3.54994E-13
 -1      2209 2.81277E+01-3.51350E+00-2.11785E-01 2.88042E+00-4.12975E-13-2.29483E-13
 -1      2210 8.93618E+00-5.79242E+00-1.42880E-01 5.90066E+00-2.11609E-13-1.18329E-12
 -1      2211 8.56355E+00-4.69759E+00 9.33593E-02 6.03587E+00 1.25400E-13-1.09032E-12
 -1      2212 1.24274E+01-5.49924E+00-1.57320E-01 6.80356E+00 1.18294E-13-1.03738E-12
 -1      2213 1.56065E+00-5.02518E+00-2.02003E-01-8.87807E-01 7.43988E-14-1.20970E-12
 -1      2214 4.75846E+00-5.31070E+00-1.83392E-01-4.83055E+00 1.27287E-13-1.06537E-12
 -1      2215 1.97229E+01-4.39506E+00-3.64503E-02-6.26461E+00 5.79148E-13-7.89979E-13
 -1      2216 2.31012E+01-4.91385E+00-1.93302E-01-5.36801E+00 1.89904E-13-3.13416E-13
 -1      2217 1.92931E+01-5.26153E+00 1.60504E-01-6.53351E+00 7.36078E-14-5.14734E-13
 -1      2218 3.29378E+01 2.15665E+00 2.38790E-01-1.69056E+00 9.96841E-13-5.49116E-13
 -1      2219 3.47248E+01 7.91933E+00 1.97756E-01 1.90605E-01 1.19621E-12-7.42587E-13
 -1      2220 3.44005E+01 6.09302E+00 2.32391E-01 7.21361E-02 1.13054E-12-6.05932E-13
 -1      2221 1.16092E+01-5.51135E+00-5.26711E-02-6.83905E+00 1.94733E-13-1.05425E-12
 -1      2222 3.63160E+01 7.78674E+00 3.02585E-01-3.63221E-01-1.39272E-12-1.89099E-13
 -1      2223 2.02114E+01 5.23835E-01 4.69794E-03 5.98563E-01 3.94547E-13 2.34933E-13
 -1      2224 2.04588E+01 7.12487E-01 2.08662E-02 8.97535E-01 4.36266E-13 2.92077E-13
 -1      2225 1.95377E+01 3.60601E+00-1.13148E-02-5.45317E-01-1.08005E-13-7.41954E-13
 -1      2226 1.95816E+01 3.55476E+00-1.01126E-02-7.19481E-01-1.70478E-13-7.42973E-13
 -1      2227 1.96375E+01 3.45558E+00-1.31401E-02-8.73512E-01-2.17927E-13-7.20784E-13
 -1      2228 1.97085E+01 3.36778E+00-1.23122E-02-1.05621E+00-2.82537E-13-7.02608E-13
 -1      2229 1.97701E+01 3.13116E+00 8.73250E-04-7.22813E-01-1.79129E-13-6.83911E-13
 -1      2230 1.94769E+01 3.69994E+00-9.47476E-03 9.19931E-02 1.04560E-13-7.12222E-13
 -1      2231 1.94762E+01 3.70094E+00-9.51377E-03-7.46723E-02 4.64483E-14-7.26603E-13
 -1      2232 1.95102E+01 3.65466E+00-9.42611E-03 4.11114E-01 2.11241E-13-6.99225E-13
 -1      2233 1.94880E+01 3.68022E+00-1.01914E-02 2.42295E-01 1.50350E-13-7.05311E-13
 -1      2234 1.96336E+01 3.34312E+00-1.71874E-04 1.52676E-01 1.19382E-13-6.68713E-13
 -1      2235 1.95865E+01 3.54561E+00-1.01961E-02 7.32458E-01 3.02268E-13-6.62817E-13
 -1      2236 1.95421E+01 3.59788E+00-1.14171E-02 5.60810E-01 2.45563E-13-6.94843E-13
 -1      2237 1.96807E+01 3.27001E+00 1.42360E-04 4.42165E-01 2.15123E-13-6.50428E-13
 -1      2238 1.97160E+01 3.35392E+00-1.24476E-02 1.06913E+00 4.24310E-13-5.67057E-13
 -1      2239 1.96435E+01 3.44435E+00-1.32085E-02 8.86771E-01 3.55978E-13-6.16924E-13
 -1      2240 1.97757E+01 3.11931E+00 7.55572E-04 7.34174E-01 3.21889E-13-5.89702E-13
 -1      2241 1.99128E+01 3.04750E+00-1.76175E-02 1.40771E+00 5.06982E-13-4.57946E-13
 -1      2242 1.98047E+01 3.19668E+00-1.55830E-02 1.22048E+00 4.54338E-13-5.31962E-13
 -1      2243 1.99267E+01 2.87174E+00 2.25590E-03 1.02447E+00 4.22381E-13-5.10520E-13
 -1      2244 2.02015E+01 2.56719E+00-2.79090E-02 1.71251E+00 5.79952E-13-2.54033E-13
 -1      2245 2.00462E+01 2.81431E+00-1.74423E-02 1.53750E+00 5.24111E-13-3.60018E-13
 -1      2246 2.01410E+01 2.49669E+00 5.96194E-03 1.28434E+00 4.82578E-13-3.69216E-13
 -1      2247 1.99768E+01 2.95705E-01 5.99076E-03 1.82642E-01 3.23486E-13 1.63794E-13
 -1      2248 2.01108E+01 3.90193E-01 2.03154E-02 3.51425E-01 3.56066E-13 2.22285E-13
 -1      2249 2.02786E+01 6.62331E-01-2.89805E-03 6.02473E-01 4.12487E-13 4.53661E-14
 -1      2250 2.04539E+01 8.78714E-01 1.37477E-02-9.10878E-01-4.21200E-13-6.79496E-14
 -1      2251 2.02610E+01 6.57270E-01-3.44782E-03-5.92431E-01-3.75042E-13-9.22578E-14
 -1      2252 3.22417E+01 3.61481E+00-1.35824E-01-5.90108E-01 8.91398E-13-7.40796E-13
 -1      2253 3.13011E+01 1.46797E+00-1.47618E-02 2.17915E-01 6.77486E-13-5.16698E-13
 -1      2254 2.02087E+01 5.07409E-01 1.61315E-02-3.59774E-01-3.40883E-13-8.21502E-14
 -1      2255 2.00945E+01 3.90707E-01 1.59477E-03-1.71946E-01-3.01043E-13-1.29449E-13
 -1      2256 2.03144E+01 7.94732E-01-1.43292E-03-5.71115E-01-3.74356E-13-1.94523E-13
 -1      2257 2.00483E+01 3.13837E-01 1.08200E-02-1.24849E-02-2.70167E-13-1.15930E-13
 -1      2258 2.00046E+01 2.52344E-01 2.62181E-03 1.07553E-01-2.36673E-13-1.51712E-13
 -1      2259 2.01823E+01 4.83303E-01-4.28560E-03-1.47164E-01-3.05999E-13-2.01365E-13
 -1      2260 1.99827E+01 2.12307E-01 6.35982E-03 2.19309E-01-2.11988E-13-1.44429E-13
 -1      2261 1.99931E+01 1.81656E-01 3.09586E-03 3.02943E-01-1.65410E-13-1.73968E-13
 -1      2262 2.01035E+01 3.19248E-01-4.35048E-03 1.46902E-01-2.41535E-13-2.12480E-13
 -1      2263 1.99958E+01 1.62730E-01 3.53258E-03 3.87163E-01-1.51757E-13-1.90633E-13
 -1      2264 2.00472E+01 1.50766E-01 3.54509E-03 4.52722E-01-1.34566E-13-2.18056E-13
 -1      2265 2.00817E+01 2.35797E-01-3.76068E-03 3.59792E-01-1.93823E-13-2.23880E-13
 -1      2266 2.00712E+01 1.45015E-01 1.78452E-03 5.23587E-01-1.28533E-13-2.20133E-13
 -1      2267 2.01551E+01 1.45081E-01 4.02420E-03 5.82492E-01-1.12825E-13-2.36309E-13
 -1      2268 2.01097E+01 2.01030E-01-3.05426E-03 5.27973E-01-1.45581E-13-2.56210E-13
 -1      2269 2.01971E+01 1.47803E-01 6.85319E-04 6.49729E-01-9.52209E-14-2.50824E-13
 -1      2270 2.03091E+01 1.55456E-01 4.50437E-03 7.09219E-01-1.06635E-13-2.36258E-13
 -1      2271 2.01795E+01 1.97221E-01-2.45416E-03 6.76777E-01-1.11586E-13-2.81078E-13
 -1      2272 2.03669E+01 1.62985E-01 8.53019E-06 7.79201E-01-1.37362E-13-1.90533E-13
 -1      2273 2.05049E+01 1.74167E-01 4.90365E-03 8.43334E-01-1.16018E-13-1.99233E-13
 -1      2274 2.02845E+01 2.12548E-01-2.01231E-03 8.23342E-01-1.09435E-13-2.52472E-13
 -1      2275 2.05777E+01 1.82497E-01-3.37133E-04 9.19389E-01-1.00445E-13-2.23873E-13
 -1      2276 2.07411E+01 1.92141E-01 5.06258E-03 9.88952E-01-5.11136E-14-2.31983E-13
 -1      2277 2.04210E+01 2.36295E-01-1.74781E-03 9.78062E-01-1.30315E-13-2.13932E-13
 -1      2278 2.08302E+01 1.95686E-01-3.32073E-04 1.07095E+00 1.04468E-14-2.08999E-13
 -1      2279 2.10188E+01 1.96281E-01 4.72096E-03 1.14247E+00 2.82795E-14-2.12903E-13
 -1      2280 2.05885E+01 2.55280E-01-1.72808E-03 1.14460E+00-3.45124E-14-2.34207E-13
 -1      2281 2.11286E+01 1.86506E-01 1.65540E-04 1.22560E+00 2.98585E-14-1.81743E-13
 -1      2282 2.13419E+01 1.66531E-01 3.49242E-03 1.28952E+00 6.26306E-14-1.29038E-13
 -1      2283 2.07906E+01 2.50304E-01-2.13582E-03 1.31841E+00 5.39032E-14-2.36749E-13
 -1      2284 2.14820E+01 1.30628E-01 1.43825E-03 1.36219E+00 5.44907E-14-1.49852E-13
 -1      2285 2.17183E+01 7.34223E-02 8.55903E-04 1.40024E+00 5.25930E-14-1.82698E-13
 -1      2286 2.10380E+01 1.92442E-01-3.32881E-03 1.48375E+00 5.39540E-14-2.58256E-13
 -1      2287 2.19065E+01-5.92466E-03 3.88328E-03 1.44084E+00 3.87466E-14-1.62030E-13
 -1      2288 2.21621E+01-1.20933E-01-3.78053E-03 1.42360E+00 2.14048E-14-1.21105E-13
 -1      2289 2.13530E+01 4.06938E-02-5.83538E-03 1.60877E+00 4.51264E-14-2.78056E-13
 -1      2290 2.24261E+01-2.61882E-01 7.83693E-03 1.39659E+00 1.91019E-14-5.40314E-14
 -1      2291 2.26929E+01-4.51006E-01-1.06876E-02 1.28336E+00 5.80196E-14-6.65700E-15
 -1      2292 2.17749E+01-2.54200E-01-1.00979E-02 1.63881E+00 7.99799E-14-9.95178E-14
 -1      2293 2.30656E+01-6.59281E-01 1.30793E-02 1.13667E+00 7.20791E-14 5.25890E-14
 -1      2294 2.33250E+01-9.12235E-01-1.93217E-02 8.83340E-01 8.96141E-14 6.82805E-14
 -1      2295 2.23602E+01-7.28623E-01-1.55809E-02 1.48917E+00 6.81022E-14 3.30613E-14
 -1      2296 2.38234E+01-1.15054E+00 1.67672E-02 5.53883E-01 1.56675E-13 4.75791E-14
 -1      2297 2.40364E+01-1.38304E+00-2.53419E-02 1.38226E-01 1.85409E-13 1.44384E-13
 -1      2298 2.31651E+01-1.34927E+00-1.96806E-02 1.04549E+00 1.32254E-13 1.47455E-13
 -1      2299 2.46078E+01-1.52915E+00 1.24087E-02-4.03713E-01 1.50662E-13 2.46791E-13
 -1      2300 2.47144E+01-1.55878E+00-2.36925E-02-9.27033E-01 5.27607E-14 2.38588E-13
 -1      2301 2.41854E+01-1.90877E+00-1.72327E-02 1.92098E-01 2.19521E-13 1.82080E-13
 -1      2302 2.51699E+01-1.39331E+00-1.76758E-02-1.59272E+00-2.31117E-14 3.62189E-13
 -1      2303 2.51191E+01-9.64706E-01-8.26263E-03-2.02423E+00-1.06853E-13 3.77241E-13
 -1      2304 2.52453E+01-1.91308E+00-1.82222E-03-1.04510E+00 7.42100E-14 4.34651E-13
 -1      2305 2.51994E+01-3.05939E-01-6.28275E-02-2.44608E+00-1.83245E-13 3.32832E-13
 -1      2306 2.50151E+01 5.83693E-01 7.78578E-03-2.44117E+00-2.09794E-13 2.82969E-13
 -1      2307 2.59049E+01-8.13680E-01-4.63729E-03-2.28062E+00-1.36401E-13 6.12808E-13
 -1      2308 2.47351E+01 1.47658E+00-9.69590E-02-2.14677E+00-3.47250E-13 1.56315E-13
 -1      2309 2.45115E+01 2.29236E+00-3.33631E-02-1.53834E+00-4.00735E-13 6.22905E-14
 -1      2310 2.58961E+01 1.27524E+00-2.19412E-02-2.54072E+00-3.82881E-13 3.76678E-13
 -1      2311 2.44013E+01 2.75660E+00-4.95539E-02-4.45360E-01-4.36401E-13-1.87838E-13
 -1      2312 2.44048E+01 2.77544E+00-4.50685E-02 4.57510E-01-4.80185E-13-3.00369E-13
 -1      2313 2.55251E+01 3.22672E+00-5.76108E-02-1.06146E+00-5.55923E-13-9.47471E-14
 -1      2314 2.44945E+01 2.27936E+00-4.26710E-02 1.59514E+00-5.78024E-13-5.29013E-13
 -1      2315 2.47593E+01 1.45915E+00-9.36552E-02 2.17932E+00-4.71734E-13-6.11441E-13
 -1      2316 2.55142E+01 3.30778E+00-4.66875E-02 1.08715E+00-6.81254E-13-4.31643E-13
 -1      2317 2.50260E+01 5.64959E-01 6.28297E-03 2.47139E+00-3.26870E-13-6.63754E-13
 -1      2318 2.52276E+01-3.21178E-01-6.04507E-02 2.46353E+00-1.48574E-13-7.02517E-13
 -1      2319 2.59465E+01 1.32536E+00-1.84249E-02 2.54812E+00-4.54831E-13-6.53887E-13
 -1      2320 2.51322E+01-9.68904E-01-9.54597E-03 2.03668E+00-1.72267E-14-6.54114E-13
 -1      2321 2.51883E+01-1.38972E+00-1.70257E-02 1.60642E+00 6.62805E-14-6.48951E-13
 -1      2322 2.59257E+01-8.33342E-01-2.91502E-03 2.28115E+00-5.83214E-14-6.52367E-13
 -1      2323 2.47345E+01-1.55097E+00-2.52654E-02 9.47999E-01 9.07469E-14-6.34749E-13
 -1      2324 2.46327E+01-1.51969E+00 1.00393E-02 4.28394E-01 1.35852E-13-5.88049E-13
 -1      2325 2.52486E+01-1.90750E+00-4.38161E-03 1.06584E+00 8.65464E-14-6.85039E-13
 -1      2326 2.40684E+01-1.36972E+00-2.71235E-02-1.09140E-01 4.08154E-14-6.12962E-13
 -1      2327 2.38619E+01-1.13233E+00 1.56978E-02-5.18587E-01 6.30357E-14-5.75300E-13
 -1      2328 2.42047E+01-1.88492E+00-1.73874E-02-1.63210E-01 5.80317E-14-5.75082E-13
 -1      2329 2.33708E+01-8.91650E-01-1.98270E-02-8.39411E-01 1.22158E-13-4.61886E-13
 -1      2330 2.31212E+01-6.37897E-01 1.29176E-02-1.08533E+00 2.09036E-13-3.92149E-13
 -1      2331 2.31968E+01-1.32188E+00-2.00189E-02-9.98696E-01 1.50477E-13-3.37340E-13
 -1      2332 2.27554E+01-4.28572E-01-1.08801E-02-1.22352E+00 1.87815E-13-4.76867E-13
 -1      2333 2.25009E+01-2.38301E-01 8.17812E-03-1.32842E+00 2.01169E-13-4.27374E-13
 -1      2334 2.24047E+01-6.99025E-01-1.56913E-02-1.42586E+00 1.48906E-13-2.39783E-13
 -1      2335 2.22445E+01-9.63506E-02-3.81642E-03-1.34595E+00 2.42966E-13-3.07815E-13
 -1      2336 2.20038E+01 1.99583E-02 4.40227E-03-1.35401E+00 2.69360E-13-8.58111E-14
 -1      2337 2.18338E+01-2.22019E-01-1.00827E-02-1.55663E+00 3.25898E-13-2.21278E-13
 -1      2338 2.18240E+01 1.00230E-01 8.02169E-04-1.30311E+00 1.91371E-13-1.48383E-13
 -1      2339 2.16054E+01 1.58678E-01 2.01263E-03-1.25516E+00 1.57772E-13-1.21133E-13
 -1      2340 2.14286E+01 7.56155E-02-5.82599E-03-1.50593E+00 1.86050E-13-2.06920E-13
 -1      2341 2.14743E+01 1.95215E-01 3.38968E-03-1.17166E+00 1.14681E-13-1.07604E-13
 -1      2342 2.12814E+01 2.16017E-01 7.29649E-04-1.09745E+00 6.67556E-14-3.60138E-14
 -1      2343 2.11319E+01 2.29775E-01-3.31020E-03-1.35895E+00 1.34112E-13-3.99049E-13
 -1      2344 2.11810E+01 2.25780E-01 4.56320E-03-1.00350E+00 8.61666E-14 2.35466E-14
 -1      2345 2.10149E+01 2.25091E-01 1.44557E-04-9.21883E-01 6.78134E-14 3.53010E-14
 -1      2346 2.09041E+01 2.88850E-01-2.03910E-03-1.17130E+00 1.45419E-13-8.91044E-14
 -1      2347 2.09349E+01 2.20363E-01 4.84009E-03-8.30083E-01-5.32828E-14 2.88385E-14
 -1      2348 2.07951E+01 2.08992E-01-6.39024E-05-7.51707E-01-3.15101E-14 4.96613E-14
 -1      2349 2.07217E+01 2.92546E-01-1.47089E-03-9.76534E-01 1.23387E-14 8.04354E-14
 -1      2350 2.07299E+01 1.97551E-01 4.59987E-03-6.68482E-01-1.03595E-13-2.29529E-14
 -1      2351 2.06146E+01 1.81991E-01-9.63399E-05-5.98538E-01-1.56651E-13-1.43413E-14
 -1      2352 2.05721E+01 2.67933E-01-1.23485E-03-7.93280E-01-9.77227E-14-4.07996E-14
 -1      2353 2.05611E+01 1.68326E-01 4.09976E-03-5.26548E-01-1.48356E-13 1.63128E-14
 -1      2354 2.04680E+01 1.52148E-01-6.18569E-05-4.66933E-01-1.16850E-13-6.35904E-14
 -1      2355 2.04484E+01 2.31556E-01-1.12431E-03-6.30585E-01-6.67722E-14-5.80812E-14
 -1      2356 2.04244E+01 1.38639E-01 3.50167E-03-4.06665E-01-1.84877E-13-1.58095E-13
 -1      2357 2.03506E+01 1.23620E-01-1.28927E-05-3.57447E-01-1.27448E-13-2.48233E-13
 -1      2358 2.03465E+01 1.92690E-01-1.04224E-03-4.91659E-01-1.62823E-13-1.65678E-13
 -1      2359 2.03153E+01 1.11392E-01 2.89995E-03-3.08222E-01 4.41725E-14-3.15556E-13
 -1      2360 2.02578E+01 9.82824E-02 2.91483E-05-2.68548E-01 1.03084E-13-1.35405E-13
 -1      2361 2.02636E+01 1.56072E-01-9.52771E-04-3.76364E-01-5.45308E-14-6.62634E-14
 -1      2362 2.02298E+01 8.77622E-02 2.34436E-03-2.29139E-01 1.11975E-13-1.48983E-13
 -1      2363 2.01859E+01 7.67545E-02 5.81504E-05-1.97771E-01 8.01305E-14 2.38152E-14
 -1      2364 2.01971E+01 1.23793E-01-8.49277E-04-2.82802E-01 1.08377E-13-5.95783E-14
 -1      2365 2.01640E+01 6.80017E-02 1.85711E-03-1.66760E-01-6.59992E-15 1.38239E-13
 -1      2366 2.01311E+01 5.90081E-02 7.43904E-05-1.42369E-01 1.17508E-13 2.00954E-13
 -1      2367 2.01447E+01 9.64904E-02-7.36450E-04-2.08287E-01 1.03528E-13 7.18721E-14
 -1      2368 2.01142E+01 5.19012E-02 1.44415E-03-1.18348E-01 1.14757E-14 1.30752E-13
 -1      2369 2.00901E+01 4.47064E-02 7.99640E-05-9.96708E-02 6.62624E-15 1.61667E-13
 -1      2370 2.01040E+01 7.40499E-02-6.21720E-04-1.49922E-01 4.95529E-14 1.85842E-13
 -1      2371 2.00774E+01 3.90464E-02 1.10247E-03-8.13477E-02 1.81438E-13-4.68815E-15
 -1      2372 2.00600E+01 3.33916E-02 7.79884E-05-6.72600E-02 1.00615E-13-3.28306E-14
 -1      2373 2.00730E+01 5.60020E-02-5.11096E-04-1.04917E-01 3.13592E-16 3.56649E-14
 -1      2374 2.00507E+01 2.89550E-02 8.25542E-04-5.35023E-02-6.46243E-14 3.85224E-14
 -1      2375 2.00386E+01 2.45656E-02 6.85324E-05-4.30458E-02-7.56425E-14 1.69980E-13
 -1      2376 2.00499E+01 4.17442E-02-4.06624E-04-7.07606E-02 6.34557E-14-3.93250E-13
 -1      2377 2.00317E+01 2.11061E-02 6.04104E-04-3.29050E-02-1.35445E-14 1.12123E-13
 -1      2378 2.00236E+01 1.77088E-02 5.99653E-05-2.53200E-02 6.82816E-14 1.90420E-13
 -1      2379 2.00330E+01 3.05910E-02-3.16914E-04-4.52759E-02-8.35394E-14 3.57859E-14
 -1      2380 2.00187E+01 1.48829E-02 4.06740E-04-1.80244E-02 2.04957E-13 2.27554E-13
 -1      2381 2.00135E+01 1.23092E-02 9.94903E-05-1.27890E-02 3.39889E-13 3.31074E-13
 -1      2382 2.00207E+01 2.19155E-02-2.23689E-04-2.66895E-02 1.91372E-13 5.70699E-14
 -1      2383 1.98574E+01 1.21895E-01 3.97682E-03-2.45686E-01 1.72926E-13 3.09248E-14
 -1      2384 1.98398E+01 1.47576E-01 7.28982E-03-1.78319E-01 2.03572E-13 9.77078E-14
 -1      2385 1.99265E+01 9.17521E-02 3.59555E-03-3.66271E-01 2.14691E-13-5.20937E-14
 -1      2386 1.98658E+01 1.04455E-01 4.18800E-03-3.17347E-01 1.89891E-13 1.49320E-14
 -1      2387 1.99852E+01 1.62416E-01-4.14486E-03-3.02612E-01 2.24664E-13-4.72322E-14
 -1      2388 2.00553E+01 7.78935E-02 3.42400E-03-4.60728E-01 1.65411E-13-8.92530E-14
 -1      2389 1.99628E+01 8.33229E-02 2.44675E-03-4.21032E-01 1.96736E-13-6.93789E-14
 -1      2390 2.00311E+01 1.24454E-01-3.40991E-03-4.42887E-01 2.25924E-13-1.02440E-13
 -1      2391 2.02321E+01 7.21652E-02 3.26162E-03-5.42187E-01 1.16530E-13-1.31989E-13
 -1      2392 2.01143E+01 7.42194E-02 1.46569E-03-5.06852E-01 1.22295E-13-1.02325E-13
 -1      2393 2.01279E+01 1.06975E-01-2.80700E-03-5.55131E-01 1.61804E-13-1.50516E-13
 -1      2394 2.04493E+01 6.78455E-02 2.93835E-03-6.16419E-01 4.76329E-14-8.88645E-14
 -1      2395 2.03106E+01 6.99725E-02 9.27221E-04-5.83842E-01 9.83503E-14-9.61994E-14
 -1      2396 2.02670E+01 9.88446E-02-2.40205E-03-6.52737E-01 9.33416E-14-1.38635E-13
 -1      2397 2.07016E+01 5.79551E-02 2.26100E-03-6.82518E-01 3.51122E-14-8.01022E-14
 -1      2398 2.05456E+01 6.38951E-02 6.68604E-04-6.54216E-01 4.28213E-14-1.05491E-13
 -1      2399 2.04429E+01 9.04843E-02-2.17622E-03-7.41047E-01 5.64826E-14-1.14417E-13
 -1      2400 2.09840E+01 3.43770E-02 1.00351E-03-7.32444E-01 2.98636E-14-7.09496E-14
 -1      2401 2.08152E+01 4.85348E-02 6.01309E-04-7.13389E-01 4.98446E-14-6.14632E-14
 -1      2402 2.06530E+01 7.17452E-02-2.10111E-03-8.17767E-01 5.36897E-14-1.14475E-13
 -1      2403 2.12898E+01-1.22185E-02-1.06251E-03-7.50101E-01 8.06253E-14-4.82123E-14
 -1      2404 2.11150E+01 1.51415E-02 6.75498E-04-7.49166E-01 2.35464E-14-2.76474E-14
 -1      2405 2.08962E+01 3.09279E-02-2.15461E-03-8.72378E-01 1.60944E-14-5.84589E-14
 -1      2406 2.16083E+01-9.10075E-02-4.08005E-03-7.10842E-01 5.78234E-14 3.96785E-14
 -1      2407 2.14384E+01-4.58425E-02 8.49812E-04-7.40817E-01 1.03686E-13 2.28508E-14
 -1      2408 2.11723E+01-4.48758E-02-2.29995E-03-8.85154E-01 3.80358E-14-1.22775E-14
 -1      2409 2.19227E+01-2.06932E-01-7.92251E-03-5.83044E-01 1.73524E-14 7.46578E-14
 -1      2410 2.17736E+01-1.42312E-01 1.04064E-03-6.59249E-01 5.56894E-14 8.41390E-14
 -1      2411 2.14799E+01-1.67024E-01-2.41604E-03-8.26813E-01 2.44537E-14 6.25838E-14
 -1      2412 2.22072E+01-3.52511E-01-1.19222E-02-3.34572E-01 6.11460E-14 9.50911E-14
 -1      2413 2.21003E+01-2.74572E-01 1.03993E-03-4.70542E-01 3.40309E-14 1.05182E-13
 -1      2414 2.18139E+01-3.38331E-01-2.17085E-03-6.60677E-01 1.85962E-14 1.06910E-13
 -1      2415 2.24238E+01-4.95837E-01-1.45565E-02 5.21392E-02 4.88229E-14 1.75232E-13
 -1      2416 2.23840E+01-4.25050E-01 3.55317E-04-1.46558E-01 1.04544E-13 1.75888E-13
 -1      2417 2.21587E+01-5.40270E-01-9.25645E-04-3.50832E-01 1.95395E-15 1.99028E-13
 -1      2418 2.25227E+01-5.70453E-01-1.33857E-02 5.54038E-01-4.49662E-14 1.69213E-13
 -1      2419 2.25723E+01-5.45801E-01-1.64486E-03 3.13538E-01 6.51259E-15 1.96294E-13
 -1      2420 2.24782E+01-7.16800E-01 2.11119E-03 1.18955E-01 3.93544E-14 3.28594E-13
 -1      2421 2.24504E+01-4.83467E-01-6.36957E-03 1.07513E+00-6.95459E-14 1.33534E-13
 -1      2422 2.25982E+01-5.54094E-01-5.50901E-03 8.50503E-01-5.74371E-14 1.63004E-13
 -1      2423 2.27068E+01-7.64891E-01 7.27063E-03 7.12226E-01-4.90448E-14 3.19541E-13
 -1      2424 2.21811E+01-1.65318E-01 5.61591E-03 1.43238E+00-6.02734E-14 7.30566E-14
 -1      2425 2.24059E+01-3.58296E-01-1.06634E-02 1.31582E+00-1.25830E-13 1.09957E-13
 -1      2426 2.27567E+01-5.61694E-01 1.17822E-02 1.29891E+00-9.55486E-14 2.81931E-13
 -1      2427 2.17655E+01 3.42617E-01 1.65286E-02 1.40502E+00 3.33952E-14 5.49014E-14
 -1      2428 2.20080E+01 6.95751E-02-1.34576E-02 1.48777E+00 2.72731E-14 6.88234E-14
 -1      2429 2.25681E+01-4.85562E-02 1.02622E-02 1.64416E+00-1.16589E-14 2.52149E-13
 -1      2430 2.13679E+01 8.27710E-01 1.73320E-02 8.71275E-01 2.46013E-13-6.55955E-14
 -1      2431 2.15399E+01 6.04278E-01-9.79001E-03 1.17499E+00 1.15386E-13-6.79097E-14
 -1      2432 2.21940E+01 6.56467E-01-3.25331E-04 1.48636E+00 1.64660E-13 1.67350E-14
 -1      2433 2.12038E+01 1.02011E+00 7.92250E-03-2.64450E-02 1.07593E-13-2.22766E-14
 -1      2434 2.12378E+01 9.74866E-01 2.87826E-03 3.99878E-01 2.38011E-13-1.51736E-14
 -1      2435 2.18532E+01 1.22412E+00-1.42176E-02 7.43075E-01 1.86312E-13-9.42274E-14
 -1      2436 2.13932E+01 7.90293E-01-3.89323E-03-9.22004E-01-3.42703E-14-1.27164E-13
 -1      2437 2.12704E+01 9.57017E-01 1.77197E-02-5.51452E-01 6.26686E-14-1.26911E-13
 -1      2438 2.17867E+01 1.34101E+00-1.44553E-02-3.40594E-01 8.59772E-14-1.16356E-13
 -1      2439 2.18316E+01 2.88894E-01-1.16804E-02-1.44087E+00-6.54591E-14-3.64641E-13
 -1      2440 2.16033E+01 5.58682E-01 1.99775E-02-1.26495E+00-2.90948E-14-2.27584E-13
 -1      2441 2.20480E+01 9.22592E-01-4.19546E-03-1.26927E+00 6.01372E-14-1.52461E-13
 -1      2442 2.22909E+01-2.02709E-01-1.06976E-02-1.45467E+00-4.57544E-14-5.41031E-13
 -1      2443 2.20428E+01 2.83373E-02 1.07852E-02-1.49533E+00-8.90846E-14-4.98380E-13
 -1      2444 2.24458E+01 2.31195E-01 7.70764E-03-1.67205E+00 1.66436E-14-4.96560E-13
 -1      2445 2.25859E+01-4.93423E-01-5.56559E-03-1.08697E+00 1.32173E-14-4.55078E-13
 -1      2446 2.23922E+01-3.78102E-01-2.02062E-03-1.27279E+00-1.24796E-14-5.78976E-13
 -1      2447 2.27319E+01-3.81906E-01 1.26722E-02-1.50877E+00 1.11159E-14-5.99849E-13
 -1      2448 2.26566E+01-5.55940E-01-1.42670E-03-5.64569E-01-3.76617E-14-4.32804E-13
 -1      2449 2.25556E+01-5.50746E-01-1.13495E-02-7.98026E-01 1.59399E-14-4.48106E-13
 -1      2450 2.27838E+01-7.10413E-01 8.45612E-03-9.94316E-01 2.24430E-14-6.64213E-13
 -1      2451 2.25425E+01-4.67631E-01 1.01140E-03-7.23387E-02-1.34443E-13-1.16234E-13
 -1      2452 2.25355E+01-5.26505E-01-1.43322E-02-2.81880E-01-1.08465E-13-2.53434E-13
 -1      2453 2.26280E+01-7.45763E-01 3.01724E-03-3.92674E-01-1.78813E-13-4.93320E-13
 -1      2454 2.23112E+01-3.19941E-01 1.74738E-03 2.96871E-01-9.11424E-14 1.39841E-13
 -1      2455 2.23793E+01-3.98506E-01-1.27464E-02 1.44733E-01-7.99196E-14-3.26215E-15
 -1      2456 2.23506E+01-6.02845E-01-7.60071E-04 1.22344E-01-2.60491E-13-1.97461E-13
 -1      2457 2.20231E+01-1.75085E-01 1.69652E-03 5.23421E-01 6.97142E-14-6.68103E-14
 -1      2458 2.21406E+01-2.46263E-01-9.11455E-03 4.33398E-01 5.77659E-14 1.92960E-13
 -1      2459 2.20284E+01-3.98055E-01-2.44448E-03 4.81228E-01-1.02991E-14-6.72910E-15
 -1      2460 2.17199E+01-6.17025E-02 1.41739E-03 6.27703E-01 1.09462E-13-1.18195E-13
 -1      2461 2.18631E+01-1.14740E-01-5.22610E-03 5.89367E-01 6.80120E-14-5.41303E-14
 -1      2462 2.17089E+01-2.06711E-01-2.71625E-03 6.83610E-01 6.91246E-14-7.95105E-14
 -1      2463 2.14271E+01 1.44495E-02 1.14516E-03 6.43473E-01-4.25560E-14-1.05547E-13
 -1      2464 2.15775E+01-1.96635E-02-2.01745E-03 6.41773E-01 3.46599E-14-7.30018E-14
 -1      2465 2.14146E+01-6.10685E-02-2.46164E-03 7.60949E-01 6.62504E-14-1.28597E-14
 -1      2466 2.11589E+01 5.85493E-02 9.52698E-04 6.03353E-01 5.61394E-14 3.98701E-14
 -1      2467 2.13037E+01 3.98565E-02 2.53378E-04 6.24216E-01-3.26394E-14-6.11054E-14
 -1      2468 2.11536E+01 3.45545E-02-2.10821E-03 7.51750E-01-4.06211E-14 7.94720E-15
 -1      2469 2.09224E+01 7.90889E-02 8.25838E-04 5.33212E-01 2.64552E-13 4.92753E-14
 -1      2470 2.10539E+01 7.13318E-02 1.65208E-03 5.65697E-01 2.28053E-13 9.60580E-14
 -1      2471 2.09273E+01 8.83894E-02-1.80873E-03 6.90116E-01 1.35241E-13 1.39945E-13
 -1      2472 2.07200E+01 8.41426E-02 7.36888E-04 4.51218E-01 7.13719E-14 6.64194E-14
 -1      2473 2.08343E+01 8.33553E-02 2.36707E-03 4.87780E-01 1.46427E-13 9.81045E-14
 -1      2474 2.07346E+01 1.12063E-01-1.58363E-03 6.01992E-01 2.08468E-13 2.17834E-13
 -1      2475 2.05512E+01 8.00281E-02 6.63484E-04 3.68938E-01-1.71876E-14 3.50539E-13
 -1      2476 2.06472E+01 8.32200E-02 2.60466E-03 4.04876E-01 9.16635E-14 2.12967E-13
 -1      2477 2.05731E+01 1.16202E-01-1.40759E-03 5.05157E-01-2.95387E-14 1.81084E-13
 -1      2478 2.04135E+01 7.11804E-02 5.93992E-04 2.92989E-01 4.71726E-15 1.38104E-13
 -1      2479 2.04918E+01 7.63036E-02 2.54015E-03 3.25697E-01-1.45694E-14 2.96438E-13
 -1      2480 2.04398E+01 1.08977E-01-1.25446E-03 4.10722E-01 6.08273E-14 2.96997E-13
 -1      2481 2.03037E+01 6.04769E-02 5.24663E-04 2.26583E-01-1.30025E-13 1.14882E-13
 -1      2482 2.03659E+01 6.62308E-02 2.30563E-03 2.54873E-01-1.65123E-14 9.93523E-14
 -1      2483 2.03317E+01 9.60560E-02-1.10898E-03 3.24895E-01 1.22931E-14 2.11498E-13
 -1      2484 2.02179E+01 4.96521E-02 4.55923E-04 1.70749E-01-2.17026E-13-8.69794E-15
 -1      2485 2.02661E+01 5.52717E-02 1.99245E-03 1.94321E-01-2.87863E-13 6.62581E-14
 -1      2486 2.02455E+01 8.10857E-02-9.65922E-04 2.50534E-01-1.41268E-13 1.38466E-13
 -1      2487 2.01524E+01 3.96599E-02 3.89576E-04 1.25211E-01-4.80025E-14 9.28401E-14
 -1      2488 2.01888E+01 4.47401E-02 1.65926E-03 1.44286E-01-1.06665E-13 3.06897E-14
 -1      2489 2.01780E+01 6.62382E-02-8.26073E-04 1.88363E-01-1.67756E-13-1.11948E-13
 -1      2490 2.01034E+01 3.09484E-02 3.27349E-04 8.89976E-02 6.62729E-14 1.74741E-13
 -1      2491 2.01303E+01 3.53139E-02 1.34064E-03 1.04060E-01 2.59882E-14 1.69311E-13
 -1      2492 2.01262E+01 5.26865E-02-6.92626E-04 1.37843E-01-1.11547E-13 9.71305E-14
 -1      2493 2.00677E+01 2.36569E-02 2.70332E-04 6.08325E-02 3.04242E-13 2.29179E-13
 -1      2494 2.00869E+01 2.72698E-02 1.05452E-03 7.24733E-02 2.13842E-13 2.35110E-13
 -1      2495 2.00871E+01 4.09603E-02-5.68405E-04 9.77723E-02 1.33966E-13 9.01047E-14
 -1      2496 2.00424E+01 1.77404E-02 2.16736E-04 3.93742E-02 3.06970E-13 3.97899E-13
 -1      2497 2.00557E+01 2.06469E-02 8.07375E-04 4.81929E-02 3.31794E-13 4.05267E-13
 -1      2498 2.00583E+01 3.12004E-02-4.55077E-04 6.66790E-02 2.24712E-13 2.76052E-13
 -1      2499 2.00251E+01 1.30368E-02 1.74202E-04 2.33795E-02 3.03360E-13 2.84082E-13
 -1      2500 2.00339E+01 1.53346E-02 6.00865E-04 2.99143E-02 2.80424E-13 4.85701E-13
 -1      2501 2.00376E+01 2.32977E-02-3.54447E-04 4.30566E-02 3.74611E-13 5.16427E-13
 -1      2502 2.00138E+01 9.19415E-03 1.17108E-04 1.17724E-02 8.64969E-14 3.84312E-13
 -1      2503 2.00192E+01 1.10839E-02 4.23534E-04 1.64511E-02 1.73406E-13 3.33321E-13
 -1      2504 2.00229E+01 1.70117E-02-2.68947E-04 2.55677E-02 1.31985E-13 3.89784E-13
 -1      2505 2.00065E+01 5.83734E-03 6.03470E-05 3.94181E-03-1.64144E-13 5.34980E-13
 -1      2506 2.00097E+01 7.54005E-03 3.03894E-04 7.02754E-03-4.40402E-15 5.27649E-13
 -1      2507 2.00130E+01 1.15629E-02-2.48520E-04 1.29430E-02-8.40427E-14 6.23301E-13
 -1      2508 2.00038E+01 3.84854E-03 1.67889E-04 8.63645E-04-1.45711E-13 5.63375E-13
 -1      2509 1.99978E+01 3.56530E-02-2.15101E-04 1.42604E-02 5.28841E-14-2.79211E-13
 -1      2510 1.99999E+01 3.25154E-02 1.17778E-04 1.47744E-02 1.28177E-13-5.11112E-13
 -1      2511 1.99944E+01 4.24854E-02-2.18021E-04 1.07758E-02 2.33050E-13 2.91339E-14
 -1      2512 1.99961E+01 4.00821E-02 4.46050E-05 1.25907E-02 1.30045E-13-2.12029E-13
 -1      2513 1.99961E+01 4.61087E-02 1.63694E-04 1.66327E-02 1.50598E-13-1.45055E-13
 -1      2514 2.00051E+01 1.84685E-02-1.18178E-04 1.21676E-02 3.74760E-14 5.69862E-14
 -1      2515 2.00064E+01 1.53420E-02 1.50843E-04 1.03060E-02-2.09579E-14 3.29868E-13
 -1      2516 2.00017E+01 2.72397E-02-1.78677E-04 1.47419E-02-9.61055E-14-3.97477E-13
 -1      2517 2.00037E+01 2.39098E-02 1.65452E-04 1.38992E-02-3.66941E-14-1.86193E-13
 -1      2518 2.00059E+01 2.63489E-02 7.34523E-05 1.69462E-02-9.76721E-14-1.46450E-13
 -1      2519 2.00010E+01 3.67249E-02 9.12325E-05 1.85815E-02 1.19383E-13-3.41588E-13
 -1      2520 1.99923E+01 4.67068E-02-1.86208E-04 5.02530E-03-1.19941E-13-2.05628E-13
 -1      2521 1.99932E+01 4.54143E-02-4.24169E-05 7.73960E-03 3.83114E-14-1.38931E-13
 -1      2522 1.99920E+01 5.32069E-02 2.20677E-04 1.13862E-02 8.27188E-14-2.03266E-13
 -1      2523 1.99920E+01 4.77004E-02-1.24668E-04-1.78544E-03-2.34723E-13 5.55318E-14
 -1      2524 1.99919E+01 4.77323E-02-1.24394E-04 1.23885E-03-3.32682E-13 1.26592E-13
 -1      2525 1.99898E+01 5.70217E-02 2.52250E-04 3.86990E-03-2.47366E-14-2.46639E-13
 -1      2526 1.99934E+01 4.53133E-02-4.42375E-05-8.23346E-03-8.36466E-14-2.80076E-13
 -1      2527 1.99924E+01 4.66739E-02-1.85569E-04-5.55724E-03-1.73660E-13-1.82351E-13
 -1      2528 1.99899E+01 5.70268E-02 2.52790E-04-4.43847E-03-1.30627E-13 2.65576E-14
 -1      2529 1.99963E+01 4.00249E-02 4.40870E-05-1.28961E-02-1.59507E-14-2.69008E-13
 -1      2530 1.99946E+01 4.24234E-02-2.18948E-04-1.11723E-02-3.23162E-14-3.24203E-13
 -1      2531 1.99922E+01 5.32536E-02 2.27965E-04-1.18424E-02 8.23020E-15-2.64233E-13
 -1      2532 2.00002E+01 3.24109E-02 1.14530E-04-1.49224E-02 2.10013E-13 3.69886E-13
 -1      2533 1.99981E+01 3.55828E-02-2.15966E-04-1.44926E-02 1.25140E-13-1.06328E-13
 -1      2534 1.99963E+01 4.61901E-02 1.66499E-04-1.69260E-02 1.37160E-13-1.63885E-13
 -1      2535 2.00040E+01 2.35774E-02 1.33545E-04-1.37912E-02 2.38278E-13 2.93444E-13
 -1      2536 2.00021E+01 2.70851E-02-1.62499E-04-1.48065E-02 1.57638E-13 4.70841E-13
 -1      2537 2.00014E+01 3.67517E-02 9.94671E-05-1.86770E-02 2.14238E-13 2.60791E-13
 -1      2538 2.00066E+01 1.48889E-02 1.29882E-04-9.91018E-03 8.89678E-14-3.82232E-13
 -1      2539 2.00055E+01 1.81964E-02-8.93696E-05-1.20181E-02 1.54794E-13-1.65474E-14
 -1      2540 2.00060E+01 2.60944E-02-4.94722E-05-1.68229E-02 9.16562E-14-1.45751E-14
 -1      2541 4.49373E+00-2.98677E+00 5.58546E-02 3.66143E+00-1.89071E-13 1.23879E-12
 -1      2542 3.20708E+00-2.81842E+00 7.45501E-02 1.39437E+00-2.41491E-13 1.45839E-12
 -1      2543 1.66304E+01-5.09323E+00 1.19879E-02 6.82865E+00-4.50473E-14 2.45866E-13
 -1      2544 1.28107E+01-4.96146E+00 4.85060E-02 6.77958E+00-7.17204E-14 3.97890E-13
 -1      2545 1.98662E+01 1.81345E-01 4.83191E-03-7.58824E-02 2.29623E-13 1.03408E-13
 -1      2546 1.99099E+01 2.30545E-01 1.26445E-02 2.65625E-02 2.70871E-13 1.48563E-13
 -1      2547 2.00032E+01 2.37703E-01-4.68110E-03-1.10726E-01 2.50418E-13-1.26236E-14
 -1      2548 2.00049E+01 6.57968E-03 1.70883E-04-2.98602E-03 3.07596E-13 2.83588E-14
 -1      2549 3.08376E+00-2.88432E+00 6.78252E-02-8.20934E-01-5.08621E-14 1.54560E-12
 -1      2550 4.49978E+00-2.98979E+00 4.70944E-02-3.33523E+00 3.74423E-14 1.20537E-12
 -1      2551 5.07994E+00-1.53265E+00 1.76087E-01 2.90127E-01-2.14823E-13 1.46039E-12
 -1      2552 9.81946E+00-4.25435E+00 4.54635E-02 6.56729E+00-9.61731E-14 7.30943E-13
 -1      2553 7.10053E+00-3.71703E+00 8.87312E-02 5.34557E+00-2.44305E-13 1.11861E-12
 -1      2554 1.29243E+01-3.94853E+00 1.40124E-01 6.53441E+00-2.59681E-13 4.81504E-13
 -1      2555 2.05776E+01 1.96598E+00-1.31929E-02-1.82158E+00-5.26336E-13-1.68509E-13
 -1      2556 2.04524E+01 1.22702E+00-8.08750E-03-1.20860E+00-4.82754E-13-1.18532E-13
 -1      2557 2.04282E+01 1.41330E+00 8.14219E-03-1.14144E+00-4.46822E-13-2.27618E-13
 -1      2558 2.03286E+01 2.41468E+00 3.31178E-04-1.75584E+00-5.06054E-13-3.26596E-13
 -1      2559 7.46995E+00-3.83637E+00 9.56727E-02-5.21858E+00 3.24490E-13 1.02660E-12
 -1      2560 1.04377E+01-4.51994E+00 1.83580E-02-6.47357E+00 2.94542E-13 1.12360E-12
 -1      2561 2.96681E+00-2.91976E+00 6.68511E-02 4.59841E-01-8.46545E-15-1.21420E-12
 -1      2562 3.40908E+00-2.89198E+00 6.54626E-02-2.16831E+00 1.86656E-14-1.05732E-12
 -1      2563 3.04590E+01 1.54062E-01-4.69775E-02-8.59586E-01 6.46885E-13-2.73004E-13
 -1      2564 3.19270E+01 2.22054E+00-1.16957E-01-5.86300E-03 8.55843E-13-2.64067E-13
 -1      2565 1.94858E+01 3.68423E+00-1.01265E-02-2.24835E-01 2.74780E-15-7.40869E-13
 -1      2566 1.95065E+01 3.66086E+00-9.40070E-03-3.93361E-01-5.86573E-14-7.35126E-13
 -1      2567 1.96765E+01 3.27783E+00 1.21349E-04-4.29131E-01-8.35613E-14-6.89041E-13
 -1      2568 1.96320E+01 3.34603E+00-1.75085E-04-1.37614E-01 1.63350E-14-6.96288E-13
 -1      2569 3.22130E+01 4.25194E+00-3.76704E-02 7.82115E-01 9.60565E-13-3.84220E-13
 -1      2570 3.14084E+01 5.73477E+00-1.92235E-01 1.16532E+00 9.85212E-13-3.86663E-13
 -1      2571 3.04630E+01 2.63775E+00-2.72999E-02 1.24554E+00 7.24920E-13-1.02890E-13
 -1      2572 3.23327E+01 6.78016E+00-1.46983E-01-6.52127E-01 1.13332E-12-7.85733E-13
 -1      2573 3.21909E+01 5.79329E+00-8.02884E-02-9.60869E-01 1.08807E-12-7.60697E-13
 -1      2574 1.07651E+01-4.85735E+00 3.50976E-02-6.57094E+00-1.77469E-13-1.05543E-12
 -1      2575 1.45452E+01-5.04583E+00 6.61901E-03-7.05334E+00-1.13465E-13-8.55732E-13
 -1      2576 3.11492E+01 7.21755E+00-1.75999E-01 3.59202E-01 1.10750E-12-6.29136E-13
 -1      2577 3.20802E+01 7.43585E+00-9.49025E-02-2.50734E-01 1.12932E-12-6.94882E-13
 -1      2578 2.65641E+01-3.50784E+00-4.80330E-03-3.38384E+00 3.27502E-13-2.27596E-13
 -1      2579 2.88753E+01-2.15894E+00-1.00724E-01-2.41571E+00 4.59521E-13-2.21961E-13
 -1      2580 3.33797E+01 7.12522E+00-1.36314E-01 1.46753E-01-1.29452E-12-3.02182E-13
 -1      2581 3.21160E+01 6.92012E+00-1.59447E-01-6.66908E-01-1.35508E-12-2.17326E-13
 -1      2582 5.20684E+00-3.65992E+00 4.93625E-02-4.41596E+00-3.02258E-14-8.65863E-13
 -1      2583 7.71790E+00-4.16698E+00 2.76947E-02-6.00887E+00-1.30729E-14-9.97064E-13
 -1      2584 1.09285E+01-3.78866E+00 1.31293E-01-6.30423E+00-2.70922E-13-9.04082E-13
 -1      2585 5.49636E+00-3.69848E+00 3.92024E-02 4.45567E+00 1.02945E-13-1.15963E-12
 -1      2586 3.61719E+00-3.42274E+00 3.39993E-02 2.59959E+00 1.17073E-13-1.18172E-12
 -1      2587 2.06479E+01-5.50745E+00-7.39929E-02 5.99883E+00 9.91429E-14-5.47173E-13
 -1      2588 1.72493E+01-5.66725E+00 2.51629E-02 6.35977E+00 1.74194E-13-7.36758E-13
 -1      2589 3.16811E+01 4.57572E-01-1.45432E-01-9.10584E-02-8.65641E-13 5.99520E-14
 -1      2590 3.03053E+01-1.43314E+00-4.43477E-02 7.78964E-01-6.32302E-13-4.67404E-14
 -1      2591 3.18893E+01 4.74208E+00-2.08058E-01-1.48585E+00-1.20515E-12 8.70415E-14
 -1      2592 3.19687E+01 2.65597E+00-8.93946E-02-1.29524E+00-1.01941E-12 1.62759E-13
 -1      2593 3.26645E+01 5.85552E+00-1.40131E-01 1.11991E+00-1.00298E-12-1.96010E-13
 -1      2594 3.33848E+01 6.90642E+00-7.89249E-02 5.67753E-01-1.17001E-12-2.47073E-13
 -1      2595 3.04789E+01 6.74627E+00 7.65453E-03 5.78057E-01-1.15119E-12-4.26270E-13
 -1      2596 3.18984E+01 1.43441E+00-5.98104E-02 6.10651E-01-6.86368E-13-7.25531E-14
 -1      2597 3.29837E+01 3.73687E+00-1.40527E-01 1.08352E+00-7.98722E-13-1.23845E-13
 -1      2598 2.84190E+01-3.06800E+00-4.13398E-02-2.19167E+00-5.04236E-13 2.39808E-14
 -1      2599 3.06019E+01-1.36655E+00-1.34820E-01-9.55038E-01-5.69936E-13-6.10068E-14
 -1      2600 2.24919E+01-5.34417E+00 1.05864E-02-5.01794E+00-8.69305E-14 1.41484E-13
 -1      2601 2.60958E+01-4.41298E+00-5.93615E-02-4.04897E+00-4.00402E-13 2.05447E-13
 -1      2602 2.75683E+01-4.15897E+00 4.24215E-02-2.14036E+00-1.48964E-13-1.59817E-13
 -1      2603 1.43818E+01-5.26756E+00 5.74225E-02-6.52830E+00 3.13971E-13 7.82957E-13
 -1      2604 1.83620E+01-5.51592E+00-3.03894E-02-6.52835E+00 5.91749E-14 4.60791E-13
 -1      2605 2.98956E+01-1.06266E+00-1.23717E-01 1.67023E+00 4.55695E-13-4.20664E-13
 -1      2606 2.79567E+01-2.53384E+00 5.23794E-03 2.62462E+00 4.30433E-13-4.64906E-13
 -1      2607 2.05239E+01 8.82632E-01-6.43060E-03 1.16268E+00 5.01613E-13 3.23386E-13
 -1      2608 2.08586E+01 1.26003E+00-5.73877E-03 1.66686E+00 5.42837E-13 4.08343E-13
 -1      2609 2.06709E+01 1.71962E+00-1.57817E-02 1.85447E+00 5.89218E-13 2.09870E-13
 -1      2610 2.04920E+01 1.07312E+00-9.64269E-03 1.16038E+00 5.12151E-13 1.02796E-13
 -1      2611 2.88475E+01 5.13273E+00-1.23666E-01 1.45622E+00 7.67580E-13-5.55667E-14
 -1      2612 3.03010E+01 6.35413E+00-1.13466E-01 9.96506E-01 9.64256E-13-3.56187E-13
 -1      2613 2.84342E+01 6.46829E+00-1.46518E-01 7.65173E-01 8.57370E-13-2.92696E-13
 -1      2614 1.99185E+01 2.88618E+00 1.51687E-03-1.01131E+00-2.96119E-13-6.32347E-13
 -1      2615 1.97949E+01 3.21008E+00-1.65967E-02-1.20742E+00-3.20552E-13-6.63265E-13
 -1      2616 1.99055E+01 3.05796E+00-1.83758E-02-1.39480E+00-3.95298E-13-6.02999E-13
 -1      2617 2.00999E+01 3.82013E-01-4.26424E-03 1.71067E-01 3.31845E-13 1.65709E-14
 -1      2618 2.04538E+01 2.12576E+00-1.26334E-02 1.80131E+00 5.76785E-13-3.80737E-14
 -1      2619 2.16951E+01-5.29679E+00-4.11351E-02 5.18051E+00-7.79932E-15-2.44339E-13
 -1      2620 1.93855E+01-5.29580E+00 6.96151E-02 6.25875E+00 4.49640E-14-4.85723E-15
 -1      2621 1.80320E+01-4.82839E+00 1.21118E-01 6.34886E+00-2.68230E-13 7.39686E-14
 -1      2622 7.52330E+00-2.49307E+00 1.59050E-01-4.18715E+00 1.98286E-13 1.04941E-12
 -1      2623 3.00219E+01-1.90846E-01-5.65682E-03-7.42617E-02 4.74801E-13-6.98802E-13
 -1      2624 2.17133E+01-5.44516E+00 8.17982E-02-5.18073E+00 1.37446E-13 1.74832E-13
 -1      2625 2.00062E+01 7.09143E-03-1.65547E-05 4.54825E-03-2.25109E-13 5.80945E-13
 -1      2626 2.00070E+01 9.66495E-03 3.32807E-05 6.86768E-03-1.08219E-13 5.38166E-13
 -1      2627 3.10236E+01 4.22900E+00-5.77945E-02 1.69929E+00-8.60229E-13-3.88634E-13
 -1      2628 7.58468E+00-2.36421E+00 1.57518E-01 4.48178E+00-3.39562E-13 1.21006E-12
 -1      2629 3.03824E+01 5.21134E+00-7.65754E-02-1.49836E+00-1.11861E-12 1.21014E-14
 -1      2630 3.04137E+01 1.03836E+00-1.37903E-02-1.64473E+00-8.02719E-13 2.61013E-13
 -1      2631 2.04706E+01 1.82981E+00 1.24085E-02 1.47874E+00 5.38217E-13-8.21513E-14
 -1      2632 2.92940E+01-1.52678E+00-1.41591E-02-5.55127E-01 2.96982E-13-2.32592E-14
 -1      2633 2.33098E+01-5.26670E+00 3.17680E-02 4.83699E+00 1.23901E-13-3.56826E-13
 -1      2634 2.23419E+01-5.47857E+00 6.00822E-02 5.00917E+00 3.45723E-13-3.14316E-13
 -1      2635 2.52520E+01-5.11392E+00-1.37160E-01 3.31774E+00 6.11455E-14-1.20695E-13
 -1      2636 2.01524E+01 2.64008E+00-9.55735E-03-1.59407E+00-4.59733E-13-4.58997E-13
 -1      2637 5.03837E+00-1.90743E+00 1.38768E-01 1.46428E+00 9.64923E-14-1.21586E-12
 -1      2638 5.99087E+00-2.22555E+00 1.33064E-01-3.28966E+00-1.42053E-13-9.66255E-13
 -1      2639 2.53153E+01-4.55992E+00 7.16722E-02-3.95367E+00 8.07132E-14-2.05558E-13
 -1      2640 2.90876E+01-2.84964E+00 2.25562E-02 1.21994E+00-4.24584E-13 4.99600E-15
 -1      2641 1.59600E+01-5.20092E+00 1.03404E-01 6.57061E+00 2.86854E-13-7.32206E-13
 -1      2642 3.07041E+01 4.18209E+00-7.18980E-02-1.29638E+00 9.44411E-13-8.50348E-13
 -1      2643 1.76452E+01-5.24369E+00 1.01645E-01-6.65825E+00-1.78441E-13-5.19647E-13
 -1      2644 2.00957E+01-5.51056E+00-1.13444E-01-5.88074E+00-2.86465E-13-2.82037E-13
 -1      2645 1.64636E+01-4.66802E+00 1.37550E-01-6.62606E+00-4.54525E-13-5.20917E-13
 -1      2646 1.41533E+01-4.38593E+00 1.32810E-01-6.33785E+00 4.69152E-13 8.51069E-13
 -1      2647 3.00052E+01 6.78392E+00-8.11750E-02-6.79066E-01 1.08263E-12-7.14505E-13
 -1      2648 8.04931E+00-3.74873E+00 9.69537E-02 5.31549E+00 1.84103E-13-1.09343E-12
 -1      2649 8.19073E+00-2.42774E+00 1.63017E-01 4.67441E+00 1.96163E-13-1.04816E-12
 -1      2650 1.06620E+01-3.75685E+00 4.82577E-03 6.01413E+00 3.14082E-13-9.67948E-13
 -1      2651 2.00079E+01 8.47010E-03 1.29876E-04-5.92715E-03 2.83178E-13 1.70973E-13
 -1      2652 2.00074E+01 1.10818E-02-1.33283E-04-7.96296E-03 2.07216E-13-2.62509E-13
 -1      2653 2.00098E+01 1.74396E-02 1.33697E-04-1.32081E-02 2.76469E-13-2.05380E-13
 -1      2654 2.00110E+01 1.06063E-02 3.07656E-04-9.11401E-03 2.12029E-13 2.77572E-13
 -1      2655 3.04801E+01-4.93645E-01-2.49832E-02 8.28071E-01-4.44013E-13-3.99458E-13
 -1      2656 2.65378E+01-4.00727E+00 7.98352E-03 3.16566E+00 2.15022E-13-5.19057E-13
 -1      2657 2.00091E+01 1.53641E-02 1.10957E-04 1.17404E-02-1.52627E-13 5.80727E-13
 -1      2658 2.00130E+01 1.54149E-02-2.58573E-04-1.51113E-02 2.78342E-13-8.20828E-14
 -1      2659 1.98000E+01 2.89488E+00-6.07965E-03 4.56385E-01 2.33681E-13-5.84713E-13
 -1      2660 1.97661E+01 2.95066E+00-6.12844E-03 3.19458E-01 1.72634E-13-6.05499E-13
 -1      2661 1.97430E+01 2.99508E+00-5.61215E-03 2.02232E-01 1.32568E-13-6.29145E-13
 -1      2662 1.97310E+01 3.01437E+00-5.69000E-03 6.37754E-02 8.22769E-14-6.27141E-13
 -1      2663 1.98795E+01 2.66477E+00 4.34549E-03 2.23605E-01 1.35464E-13-5.76843E-13
 -1      2664 2.00499E+01 2.40639E+00-1.01611E-02 9.45194E-01 4.23768E-13-4.68181E-13
 -1      2665 1.99715E+01 2.56605E+00-6.95777E-03 8.15601E-01 3.75226E-13-4.98948E-13
 -1      2666 2.02469E+01 1.96259E+00-1.14760E-02 1.12352E+00 4.63083E-13-3.16727E-13
 -1      2667 2.01434E+01 2.21134E+00-5.45909E-03 1.03013E+00 4.36827E-13-4.03553E-13
 -1      2668 2.01991E+01 1.97517E+00 6.56088E-03 8.11792E-01 3.92218E-13-3.99626E-13
 -1      2669 2.02836E+01 7.73560E-01-2.35826E-03 5.23185E-01 3.94477E-13-7.98229E-14
 -1      2670 2.04087E+01 9.89043E-01 9.19098E-03 8.00753E-01 4.26394E-13-5.97650E-14
 -1      2671 2.78153E+01-2.63755E+00-4.19368E-02-5.56578E-01 5.38736E-14 1.06817E-13
 -1      2672 2.88421E+01-8.26829E-01-1.33986E-01 6.29262E-01 2.46907E-13 1.10259E-13
 -1      2673 2.03817E+01 1.52997E+00-1.42701E-03 1.17445E+00 4.92724E-13-1.23432E-13
 -1      2674 2.05006E+01-5.03969E+00 1.36103E-01-5.22421E+00 3.35565E-13 6.71234E-14
 -1      2675 2.37385E+01-5.41224E+00-7.47299E-02-4.09921E+00 1.40721E-13-4.42701E-14
 -1      2676 2.90260E+01 3.13363E-01-1.75713E-01-1.19089E+00 5.49200E-13-7.74408E-13
 -1      2677 2.85594E+01-1.55769E+00 1.05080E-02-2.38700E-01 3.47777E-13-7.21145E-13
 -1      2678 2.02866E+01 7.09780E-01 7.41520E-03-2.75243E-01-3.06252E-13-2.69731E-13
 -1      2679 2.02236E+01 5.73909E-01-1.71987E-03-9.16574E-02-2.68686E-13-2.58841E-13
 -1      2680 2.02033E+01 4.75812E-01 5.96356E-03 5.74684E-02-2.48596E-13-2.54466E-13
 -1      2681 2.01702E+01 3.99246E-01-5.75423E-05 1.87787E-01-2.23770E-13-2.64046E-13
 -1      2682 2.02584E+01 6.59242E-01-1.81519E-03-4.80954E-02-2.71073E-13-2.92739E-13
 -1      2683 2.01510E+01 3.46907E-01 3.70678E-03 3.01439E-01-1.91475E-13-2.31593E-13
 -1      2684 2.01478E+01 3.08429E-01 1.20245E-03 3.99988E-01-1.60587E-13-2.23460E-13
 -1      2685 2.02058E+01 4.71711E-01-2.28570E-03 2.28072E-01-2.06391E-13-2.45130E-13
 -1      2686 2.01345E+01 2.84876E-01 1.86151E-03 4.91852E-01-1.50374E-13-2.36817E-13
 -1      2687 2.01569E+01 2.71610E-01 2.11805E-03 5.73892E-01-1.30113E-13-2.45503E-13
 -1      2688 2.01684E+01 3.74644E-01-2.04976E-03 4.44199E-01-1.71014E-13-2.48635E-13
 -1      2689 2.01498E+01 2.67108E-01 4.58657E-04 6.55344E-01-1.30692E-13-2.60187E-13
 -1      2690 2.01934E+01 2.70640E-01 2.80913E-03 7.31523E-01-1.09921E-13-2.83620E-13
 -1      2691 2.01483E+01 3.37932E-01-1.58356E-03 6.25803E-01-1.58874E-13-2.70404E-13
 -1      2692 2.01916E+01 2.78325E-01-5.82350E-04 8.11129E-01-7.75704E-14-2.73229E-13
 -1      2693 2.02531E+01 2.91949E-01 3.34984E-03 8.88477E-01-9.20597E-14-2.44028E-13
 -1      2694 2.01432E+01 3.41370E-01-1.08146E-03 7.93237E-01-9.07222E-14-2.85525E-13
 -1      2695 2.02555E+01 3.05548E-01-1.29563E-03 9.72161E-01-9.81707E-14-2.00891E-13
 -1      2696 2.03334E+01 3.22227E-01 3.76380E-03 1.05446E+00-8.79884E-14-1.96996E-13
 -1      2697 2.01496E+01 3.68707E-01-6.48802E-04 9.61396E-01-6.65430E-14-1.96488E-13
 -1      2698 2.03403E+01 3.34208E-01-1.63609E-03 1.14555E+00-7.52418E-14-1.70437E-13
 -1      2699 2.04346E+01 3.44669E-01 4.04685E-03 1.23306E+00-6.82608E-15-1.67774E-13
 -1      2700 2.01655E+01 4.03063E-01-4.00533E-04 1.13996E+00-6.11571E-14-1.01034E-13
 -1      2701 2.04494E+01 3.44343E-01-1.44310E-03 1.33205E+00 2.71574E-14-2.00564E-13
 -1      2702 2.05630E+01 3.34955E-01 4.17187E-03 1.42063E+00 4.14599E-14-2.14819E-13
 -1      2703 2.01925E+01 4.22570E-01-5.50628E-04 1.33338E+00-2.07184E-14-1.19497E-13
 -1      2704 2.05948E+01 3.06375E-01-3.88636E-04 1.52442E+00 4.07705E-14-2.13235E-13
 -1      2705 2.07351E+01 2.56911E-01 4.05982E-03 1.60389E+00 5.11697E-14-2.06974E-13
 -1      2706 2.02401E+01 3.95602E-01-1.51504E-03 1.54031E+00 1.34828E-14-1.66229E-13
 -1      2707 2.08037E+01 1.77103E-01 2.08404E-03 1.70412E+00 6.15724E-14-2.27487E-13
 -1      2708 2.09851E+01 5.94873E-02 3.47789E-03 1.75591E+00 9.08026E-14-1.83771E-13
 -1      2709 2.03321E+01 2.75788E-01-4.01889E-03 1.75202E+00 6.53455E-14-1.41558E-13
 -1      2710 2.11272E+01-1.00972E-01 6.81971E-03 1.83527E+00 1.12425E-13-1.79815E-13
 -1      2711 2.13724E+01-3.19715E-01 1.81853E-03 1.82915E+00 1.50292E-13-1.05881E-13
 -1      2712 2.05174E+01-8.70233E-04-9.11267E-03 1.94821E+00 1.03898E-13-2.04299E-13
 -1      2713 2.16483E+01-5.88829E-01 1.49675E-02 1.85338E+00 1.47159E-13-7.63982E-14
 -1      2714 2.19835E+01-9.31888E-01-2.09725E-03 1.74429E+00 1.15125E-13-4.65630E-14
 -1      2715 2.08831E+01-5.10109E-01-1.77890E-02 2.08690E+00 1.79739E-13-2.21342E-13
 -1      2716 2.24744E+01-1.30815E+00 2.74764E-02 1.64596E+00 1.33472E-13 5.36972E-14
 -1      2717 2.29185E+01-1.74564E+00-7.51038E-03 1.37553E+00 1.73393E-13 7.21868E-14
 -1      2718 2.15644E+01-1.30883E+00-3.00448E-02 2.07906E+00 1.74951E-13-1.09461E-13
 -1      2719 2.36753E+01-2.13028E+00 3.94651E-02 1.05801E+00 2.31917E-13 1.31796E-13
 -1      2720 2.42045E+01-2.48287E+00-7.21710E-03 6.00808E-01 2.64896E-13 1.26859E-13
 -1      2721 2.26666E+01-2.31959E+00-5.58840E-02 1.74517E+00 2.27113E-13 6.37095E-14
 -1      2722 2.52330E+01-2.69668E+00 3.29950E-02-1.02605E-01 3.14047E-13 2.87466E-13
 -1      2723 2.56489E+01-2.56308E+00-2.78966E-02-7.72451E-01 1.80847E-13 4.43363E-13
 -1      2724 2.45011E+01-3.16478E+00-5.86278E-02 8.67366E-01 3.97469E-13 1.92551E-13
 -1      2725 2.65298E+01-2.04642E+00-5.57666E-02-1.62912E+00 1.89362E-14 6.28057E-13
 -1      2726 2.66911E+01-9.85590E-01-2.62608E-02-2.14976E+00-1.65645E-13 6.51993E-13
 -1      2727 2.63990E+01-2.83648E+00-2.84450E-02-6.72733E-01 2.27702E-13 4.64614E-13
 -1      2728 2.76565E+01 1.10969E+00-1.39653E-01-2.57545E+00-5.72993E-13 4.78347E-13
 -1      2729 2.74532E+01 2.91255E+00-1.40422E-01-2.40896E+00-7.53717E-13 2.94625E-13
 -1      2730 2.74491E+01 4.71334E+00-1.67068E-01-1.31705E+00-8.54788E-13-1.50019E-14
 -1      2731 2.73702E+01 5.20802E+00-1.54175E-01-1.02494E-01-8.49265E-13-2.48827E-13
 -1      2732 2.74300E+01 4.77252E+00-1.46202E-01 1.13801E+00-8.94063E-13-3.99299E-13
 -1      2733 2.68950E+01 2.28967E+00-5.79893E-02 2.45495E+00-6.54934E-13-5.92040E-13
 -1      2734 2.70963E+01 5.15060E-01-1.31666E-01 2.66232E+00-3.16587E-13-6.20226E-13
 -1      2735 2.67213E+01-9.62124E-01-3.80586E-02 2.16459E+00-2.65066E-14-7.21133E-13
 -1      2736 2.65237E+01-2.01437E+00-4.61050E-02 1.65538E+00 1.06474E-13-6.69156E-13
 -1      2737 2.79613E+01-5.02441E-01-3.62275E-02 2.19758E+00-2.04912E-13-6.28997E-13
 -1      2738 2.56373E+01-2.53170E+00-2.69530E-02 7.78502E-01 7.50771E-14-6.54497E-13
 -1      2739 2.52008E+01-2.65235E+00 2.47324E-02 1.26421E-01 1.01522E-13-6.83528E-13
 -1      2740 2.64037E+01-2.82874E+00-3.50158E-02 7.14066E-01 9.42753E-14-6.44606E-13
 -1      2741 2.42004E+01-2.47426E+00-2.12816E-02-5.28055E-01 1.91887E-13-5.71300E-13
 -1      2742 2.37057E+01-2.11309E+00 3.57726E-02-1.00402E+00 2.09464E-13-3.56528E-13
 -1      2743 2.44336E+01-3.10458E+00-4.01514E-02-8.49468E-01 2.03631E-13-5.60647E-13
 -1      2744 2.29374E+01-1.71128E+00-1.10773E-02-1.32256E+00 2.00557E-13-2.15970E-13
 -1      2745 2.25068E+01-1.27323E+00 2.63615E-02-1.58603E+00 2.58572E-13-2.24140E-13
 -1      2746 2.27413E+01-2.27180E+00-4.01030E-02-1.70348E+00 3.21415E-13-2.60780E-13
 -1      2747 2.20187E+01-8.95285E-01-2.85344E-03-1.67613E+00 1.68083E-13-1.57817E-13
 -1      2748 2.16907E+01-5.50619E-01 1.49540E-02-1.77659E+00 1.85111E-13-1.75783E-13
 -1      2749 2.15967E+01-1.26168E+00-2.97086E-02-2.00505E+00 2.92226E-13-2.42352E-13
 -1      2750 2.14163E+01-2.81150E-01 1.31282E-03-1.74454E+00 3.11271E-13-1.60778E-13
 -1      2751 2.11796E+01-6.01293E-02 7.09492E-03-1.74081E+00 3.71718E-13-1.90657E-13
 -1      2752 2.09205E+01-4.64622E-01-1.77701E-02-1.99785E+00 2.19374E-13-1.11068E-13
 -1      2753 2.10381E+01 1.01207E-01 3.11754E-03-1.65217E+00 1.58154E-13-2.38676E-13
 -1      2754 2.08658E+01 2.20909E-01 2.38767E-03-1.58973E+00 4.72508E-14-2.83704E-13
 -1      2755 2.05570E+01 4.75542E-02-9.03478E-03-1.84256E+00 1.86220E-13-1.05193E-13
 -1      2756 2.07972E+01 3.01586E-01 3.73797E-03-1.47916E+00 1.22147E-13-2.59099E-13
 -1      2757 2.06663E+01 3.52443E-01-1.30664E-04-1.38866E+00 1.97709E-13-2.94856E-13
 -1      2758 2.03726E+01 3.27571E-01-3.92553E-03-1.62698E+00 1.21200E-13-1.32951E-13
 -1      2759 2.06338E+01 3.81195E-01 3.86822E-03-1.27423E+00 2.34475E-13-2.16939E-13
 -1      2760 2.05297E+01 3.90541E-01-1.29267E-03-1.17495E+00 2.09799E-13-1.25974E-13
 -1      2761 2.02801E+01 4.49412E-01-1.36404E-03-1.39452E+00 2.23312E-13-1.02383E-13
 -1      2762 2.05130E+01 3.89405E-01 3.76330E-03-1.06617E+00 7.60102E-14-8.55641E-14
 -1      2763 2.04273E+01 3.76385E-01-1.68768E-03-9.69503E-01 4.77537E-16-5.62559E-14
 -1      2764 2.02299E+01 4.75085E-01-2.72563E-04-1.16761E+00 1.52665E-13-1.56462E-13
 -1      2765 2.04167E+01 3.60056E-01 3.51526E-03-8.71213E-01-1.81598E-13 3.71160E-14
 -1      2766 2.03453E+01 3.36771E-01-1.68568E-03-7.83246E-01-1.34199E-13 2.29839E-14
 -1      2767 2.01972E+01 4.48199E-01 6.90492E-05-9.58110E-01-6.07100E-14-1.90741E-13
 -1      2768 2.03364E+01 3.14197E-01 3.17589E-03-6.97526E-01-8.79060E-14-1.35976E-13
 -1      2769 2.02769E+01 2.87724E-01-1.50317E-03-6.20944E-01-8.92462E-14-1.49415E-13
 -1      2770 2.01706E+01 3.96570E-01 8.00985E-05-7.71938E-01-2.56040E-13-1.03838E-13
 -1      2771 2.02685E+01 2.63952E-01 2.78727E-03-5.48197E-01-1.71490E-14-1.79940E-13
 -1      2772 2.02193E+01 2.38114E-01-1.25875E-03-4.83619E-01-1.68247E-13-1.42960E-13
 -1      2773 2.01462E+01 3.36667E-01-2.00391E-05-6.11275E-01-9.77573E-14-2.97661E-13
 -1      2774 2.02111E+01 2.15759E-01 2.38458E-03-4.23246E-01-1.47588E-13 2.90120E-14
 -1      2775 2.01711E+01 1.92410E-01-1.01252E-03-3.70116E-01 6.43864E-14-3.15548E-14
 -1      2776 2.01229E+01 2.77545E-01-1.29736E-04-4.75923E-01-6.24242E-14-1.32643E-13
 -1      2777 2.01632E+01 1.72648E-01 1.99437E-03-3.20968E-01 7.88069E-14 2.40492E-14
 -1      2778 2.01312E+01 1.52509E-01-7.91524E-04-2.78134E-01 1.34735E-13 1.82281E-14
 -1      2779 2.01012E+01 2.23703E-01-2.10545E-04-3.64224E-01 5.36194E-14 8.37211E-14
 -1      2780 2.01240E+01 1.35713E-01 1.63418E-03-2.38808E-01 1.96938E-13 8.52667E-14
 -1      2781 2.00988E+01 1.18886E-01-6.05119E-04-2.04878E-01 1.64068E-13 1.64190E-13
 -1      2782 2.00816E+01 1.76985E-01-2.54539E-04-2.73719E-01 1.25451E-13 1.26409E-13
 -1      2783 2.00925E+01 1.05003E-01 1.31399E-03-1.73914E-01-3.68018E-14 1.61414E-13
 -1      2784 2.00730E+01 9.12703E-02-4.54683E-04-1.47467E-01-7.91411E-14 4.22515E-14
 -1      2785 2.00644E+01 1.37756E-01-2.66474E-04-2.01611E-01 6.40304E-14 1.30242E-13
 -1      2786 2.00676E+01 8.00345E-02 1.03700E-03-1.23465E-01-3.33231E-14 1.12754E-13
 -1      2787 2.00528E+01 6.90345E-02-3.38575E-04-1.03176E-01 4.99454E-14 7.06168E-15
 -1      2788 2.00497E+01 1.05598E-01-2.56464E-04-1.45074E-01-6.07172E-14-2.08880E-14
 -1      2789 2.00482E+01 6.00866E-02 8.01425E-04-8.48717E-02 3.42678E-14-1.12415E-13
 -1      2790 2.00372E+01 5.14126E-02-2.44784E-04-6.95721E-02-5.16523E-14-1.60018E-13
 -1      2791 2.00375E+01 7.97348E-02-2.30007E-04-1.01442E-01-5.07278E-14 3.55653E-14
 -1      2792 2.00334E+01 4.44161E-02 6.11724E-04-5.58672E-02 5.10742E-15-7.27595E-14
 -1      2793 2.00253E+01 3.76126E-02-1.69482E-04-4.45115E-02-5.56590E-14-1.18446E-14
 -1      2794 2.00276E+01 5.93172E-02-1.66483E-04-6.84236E-02 4.52808E-14 2.59527E-14
 -1      2795 2.00222E+01 3.19916E-02 4.35964E-04-3.45322E-02-5.46673E-14 2.03321E-13
 -1      2796 2.00164E+01 2.68490E-02-4.02220E-05-2.64289E-02 2.03807E-13 1.17895E-13
 -1      2797 2.00193E+01 4.29630E-02-2.06275E-04-4.37891E-02 3.85028E-14 9.73211E-14
 -1      2798 2.01191E+01 1.81617E-01 2.10415E-03-4.92288E-01 2.35919E-13-1.55303E-13
 -1      2799 2.00864E+01 2.01675E-01 2.85812E-03-4.25145E-01 2.49641E-13-1.16359E-13
 -1      2800 2.95597E+01 1.63278E+00-1.56394E-01 2.42935E+00-5.68962E-13-5.28688E-13
 -1      2801 2.92787E+01 3.64968E+00-1.78130E-01 2.26354E+00-8.05134E-13-5.80591E-13
 -1      2802 2.00890E+01 2.28562E-01 1.54507E-03-3.42032E-01 2.37189E-13-1.32583E-13
 -1      2803 2.00874E+01 2.68230E-01 4.88591E-03-2.54388E-01 2.21829E-13-9.78816E-14
 -1      2804 2.01450E+01 2.81414E-01-2.97480E-03-3.89844E-01 2.56216E-13-2.08568E-13
 -1      2805 2.02935E+01 1.47575E-01 2.51919E-03-7.25764E-01 3.54354E-14-1.14840E-13
 -1      2806 2.02153E+01 1.52529E-01 7.33682E-04-6.75816E-01 6.53332E-14-1.21477E-13
 -1      2807 2.04304E+01 1.33902E-01 2.34006E-03-8.25860E-01 5.68735E-14-7.02650E-14
 -1      2808 2.03343E+01 1.41438E-01 4.07845E-04-7.80939E-01 6.20135E-14-6.06647E-14
 -1      2809 2.02617E+01 1.85165E-01-1.98672E-03-8.08721E-01 3.25738E-14-8.87127E-14
 -1      2810 2.05998E+01 1.04172E-01 1.78664E-03-9.13509E-01-4.02618E-16-6.27387E-14
 -1      2811 2.04876E+01 1.21813E-01 5.37637E-04-8.76461E-01 3.18210E-14-5.88671E-14
 -1      2812 2.03603E+01 1.62829E-01-2.07442E-03-9.20944E-01 5.34636E-14-3.38665E-14
 -1      2813 2.08049E+01 4.21670E-02 7.14021E-04-9.77428E-01-1.01868E-14-5.38099E-15
 -1      2814 2.06776E+01 7.86248E-02 1.17100E-03-9.55432E-01-3.54111E-15-4.19693E-14
 -1      2815 2.04933E+01 1.16087E-01-2.49831E-03-1.01993E+00-1.39083E-14-2.62868E-14
 -1      2816 2.10514E+01-6.98878E-02-1.05562E-03-9.96855E-01 1.67324E-14 1.87267E-14
 -1      2817 2.09104E+01-5.28878E-03 2.38292E-03-1.00183E+00 1.30134E-14-2.37740E-14
 -1      2818 2.06701E+01 2.41266E-02-3.36294E-03-1.09343E+00 1.16789E-14-1.11944E-14
 -1      2819 2.13471E+01-2.47497E-01-3.68540E-03-9.40853E-01-3.61463E-14 3.52669E-14
 -1      2820 2.11947E+01-1.47322E-01 4.20301E-03-9.89293E-01 8.97719E-17 2.54516E-14
 -1      2821 2.09056E+01-1.34946E-01-4.73312E-03-1.11901E+00-1.64383E-14 5.17476E-14
 -1      2822 2.16979E+01-4.94182E-01-7.15525E-03-7.69712E-01-3.72150E-14 9.71184E-14
 -1      2823 2.15397E+01-3.58803E-01 6.46425E-03-8.80794E-01-3.78022E-14 5.06801E-14
 -1      2824 2.12198E+01-3.77980E-01-6.46584E-03-1.06251E+00-3.40654E-14 1.71255E-14
 -1      2825 2.20989E+01-7.83293E-01-1.09556E-02-4.42027E-01-3.67278E-14 1.60710E-13
 -1      2826 2.19471E+01-6.31426E-01 8.56494E-03-6.31954E-01-3.07074E-14 1.58994E-13
 -1      2827 2.16322E+01-7.02573E-01-7.87004E-03-8.78098E-01-8.52432E-14 1.75069E-13
 -1      2828 2.25191E+01-1.03336E+00-1.35141E-02 6.62853E-02-3.33769E-14 3.01755E-13
 -1      2829 2.23958E+01-9.15328E-01 8.83846E-03-2.03843E-01-3.35897E-14 2.41475E-13
 -1      2830 2.21471E+01-1.06143E+00-7.41818E-03-5.14811E-01-8.69077E-14 2.48798E-13
 -1      2831 2.28855E+01-1.09077E+00-1.12966E-02 7.24568E-01-6.62734E-14 4.03804E-13
 -1      2832 2.28220E+01-1.09515E+00 4.99330E-03 4.07217E-01-3.66545E-14 3.61809E-13
 -1      2833 2.27275E+01-1.33233E+00-3.06417E-03 6.07400E-02-8.39016E-14 3.54288E-13
 -1      2834 2.30806E+01-7.61341E-01-2.01635E-03 1.38861E+00-1.26641E-13 3.60047E-13
 -1      2835 2.31045E+01-9.87294E-01-5.63640E-03 1.11444E+00-1.18003E-13 3.76727E-13
 -1      2836 2.32626E+01-1.30005E+00 6.80014E-03 8.14424E-01-8.51368E-14 3.99798E-13
 -1      2837 2.30027E+01 4.70997E-02 1.12545E-02 1.77272E+00 8.20385E-14 2.59334E-13
 -1      2838 2.31127E+01-4.23405E-01-2.23128E-02 1.68228E+00-4.91037E-14 3.05252E-13
 -1      2839 2.35694E+01-7.41556E-01 1.39055E-02 1.55722E+00-2.95430E-14 3.58915E-13
 -1      2840 2.26895E+01 1.13781E+00 2.18086E-02 1.54736E+00 2.62528E-13 1.68491E-13
 -1      2841 2.28236E+01 5.71868E-01-3.44092E-02 1.76472E+00 2.23267E-13 2.52396E-13
 -1      2842 2.35059E+01 3.71399E-01 5.34115E-03 1.91689E+00 1.78375E-13 3.58025E-13
 -1      2843 2.23598E+01 1.90143E+00 1.99246E-03 5.99645E-01 2.28045E-13 2.69344E-14
 -1      2844 2.24202E+01 1.57218E+00-4.00958E-02 1.08711E+00 2.49622E-13 9.04217E-14
 -1      2845 2.31358E+01 1.70046E+00 3.55963E-03 1.51161E+00 3.01400E-13 3.92899E-13
 -1      2846 2.23526E+01 1.85252E+00-1.71488E-02-6.69260E-01 2.01389E-13-1.09197E-13
 -1      2847 2.23128E+01 2.00293E+00-2.28768E-03-1.15028E-01 2.41003E-13-1.04111E-13
 -1      2848 2.29097E+01 2.40923E+00-4.80776E-03 2.85043E-01 2.87505E-13 8.66338E-14
 -1      2849 2.26705E+01 1.01727E+00-3.20109E-02-1.60417E+00 1.53967E-13-4.49362E-13
 -1      2850 2.25439E+01 1.51903E+00 2.00823E-02-1.25627E+00 1.64877E-13-3.16947E-13
 -1      2851 2.30273E+01 2.11125E+00-9.80488E-03-1.08703E+00 3.16349E-13-3.41211E-13
 -1      2852 2.30384E+01-4.95591E-02-2.74078E-02-1.81525E+00 1.90903E-14-5.43758E-13
 -1      2853 2.29044E+01 4.83100E-01 1.67696E-02-1.78888E+00 9.97483E-14-4.50681E-13
 -1      2854 2.33849E+01 9.25278E-01-3.75685E-05-1.86811E+00 1.33421E-13-5.28103E-13
 -1      2855 2.31692E+01-8.09226E-01-1.06680E-02-1.40903E+00 6.99787E-15-5.00260E-13
 -1      2856 2.31006E+01-4.79662E-01 4.00239E-03-1.62632E+00-2.51394E-14-4.90295E-13
 -1      2857 2.35998E+01-3.33571E-01 1.37044E-02-1.79932E+00-4.68644E-14-4.53155E-13
 -1      2858 2.29871E+01-1.08032E+00 1.24830E-03-7.29170E-01 7.51265E-15-4.99037E-13
 -1      2859 2.30120E+01-1.00003E+00-9.18444E-03-1.03871E+00 7.75263E-14-4.75141E-13
 -1      2860 2.34363E+01-1.14367E+00 6.16472E-03-1.16607E+00 3.65673E-14-4.16401E-13
 -1      2861 2.26126E+01-9.87823E-01 8.10334E-03-7.50106E-02-3.49766E-13-3.50587E-13
 -1      2862 2.27089E+01-1.07092E+00-1.35915E-02-3.64889E-01-1.67591E-13-4.64160E-13
 -1      2863 2.29755E+01-1.34575E+00-1.81631E-04-3.95936E-01-1.14725E-13-3.69265E-13
 -1      2864 2.21743E+01-7.23698E-01 9.16268E-03 4.15648E-01-1.98241E-13-3.97901E-13
 -1      2865 2.23097E+01-8.72362E-01-1.24235E-02 1.99150E-01-3.28016E-13-4.02640E-13
 -1      2866 2.24045E+01-1.16234E+00-6.09906E-03 2.47660E-01-3.45385E-13-5.35735E-13
 -1      2867 2.17596E+01-4.32755E-01 7.63174E-03 7.16081E-01-3.95226E-14-2.37755E-13
 -1      2868 2.19072E+01-5.80802E-01-8.91809E-03 5.83148E-01-9.08906E-14-2.77184E-13
 -1      2869 2.18629E+01-8.13872E-01-8.04672E-03 6.79246E-01-2.05152E-13-4.43513E-13
 -1      2870 2.14049E+01-1.89912E-01 5.43853E-03 8.56382E-01 4.35453E-14-1.02627E-13
 -1      2871 2.15489E+01-3.07101E-01-5.16417E-03 7.94589E-01 6.53193E-14-1.90426E-13
 -1      2872 2.14167E+01-4.60669E-01-7.01940E-03 9.11181E-01 3.89256E-15-2.42580E-13
 -1      2873 2.11146E+01-1.73108E-02 3.42183E-03 8.81744E-01 5.16438E-14 3.90812E-15
 -1      2874 2.12473E+01-9.72528E-02-2.19643E-03 8.71868E-01 8.95710E-14 1.28130E-14
 -1      2875 2.10740E+01-1.78329E-01-5.29920E-03 9.92764E-01-5.47336E-15-4.73692E-14
 -1      2876 2.08809E+01 8.96670E-02 1.91677E-03 8.33766E-01-9.34177E-14 4.69119E-14
 -1      2877 2.09993E+01 4.23022E-02-1.17099E-04 8.57280E-01-2.73946E-14 1.08487E-14
 -1      2878 2.08185E+01 1.64795E-02-3.71091E-03 9.73842E-01 3.20512E-14-6.89300E-14
 -1      2879 2.06931E+01 1.45628E-01 9.14507E-04 7.45074E-01 2.92992E-13 3.94858E-14
 -1      2880 2.07965E+01 1.22625E-01 1.19536E-03 7.87101E-01 3.65651E-14-2.74403E-14
 -1      2881 2.06286E+01 1.33634E-01-2.53504E-03 8.94848E-01 3.26763E-14-1.23406E-13
 -1      2882 2.05419E+01 1.66316E-01 3.10397E-04 6.38753E-01 6.86540E-14 1.12564E-13
 -1      2883 2.06305E+01 1.59664E-01 1.91947E-03 6.88631E-01 3.06686E-13 1.03924E-13
 -1      2884 2.04859E+01 1.92088E-01-1.76629E-03 7.85336E-01 2.30138E-13-9.93704E-14
 -1      2885 2.04200E+01 1.64875E-01-1.93932E-05 5.29879E-01-1.71644E-14 6.69272E-14
 -1      2886 2.04946E+01 1.68174E-01 2.22849E-03 5.80617E-01-1.40707E-14 1.00440E-13
 -1      2887 2.03767E+01 2.10715E-01-1.29157E-03 6.65320E-01 6.68852E-14 1.52534E-14
 -1      2888 2.03219E+01 1.51002E-01-1.75427E-04 4.27491E-01-3.02824E-14 1.33144E-13
 -1      2889 2.03836E+01 1.59655E-01 2.26099E-03 4.74928E-01-2.41430E-14 1.80412E-13
 -1      2890 2.02917E+01 2.04786E-01-1.00159E-03 5.47493E-01-6.52824E-14 4.37012E-14
 -1      2891 2.02435E+01 1.31286E-01-2.29131E-04 3.36359E-01 2.34766E-14 2.05832E-13
 -1      2892 2.02936E+01 1.42234E-01 2.12312E-03 3.78342E-01 3.20551E-14 2.53693E-13
 -1      2893 2.02247E+01 1.85381E-01-8.16733E-04 4.39226E-01-7.73522E-14 2.36410E-13
 -1      2894 2.01815E+01 1.09904E-01-2.27307E-04 2.58406E-01-1.28944E-13 2.06853E-13
 -1      2895 2.02214E+01 1.21250E-01 1.89233E-03 2.94118E-01-2.97274E-14 3.05096E-13
 -1      2896 2.01717E+01 1.59952E-01-6.87212E-04 3.44192E-01-8.77268E-14 3.67290E-13
 -1      2897 2.01330E+01 8.93131E-02-1.98927E-04 1.93758E-01-1.69224E-13 8.07808E-14
 -1      2898 2.01642E+01 9.99708E-02 1.62222E-03 2.23210E-01-2.10824E-13 2.34008E-14
 -1      2899 2.01297E+01 1.33182E-01-5.85257E-04 2.63610E-01-6.94996E-14 4.15983E-13
 -1      2900 2.00956E+01 7.08033E-02-1.61605E-04 1.41503E-01-1.36485E-13 4.66608E-14
 -1      2901 2.01195E+01 8.02306E-02 1.34777E-03 1.65178E-01-1.79555E-13-1.61410E-14
 -1      2902 2.00967E+01 1.07789E-01-4.97338E-04 1.97167E-01-2.21067E-13 1.89695E-13
 -1      2903 2.00672E+01 5.49124E-02-1.25461E-04 1.00210E-01 1.46002E-13 1.28916E-13
 -1      2904 2.00852E+01 6.29121E-02 1.08979E-03 1.18813E-01 2.18845E-14 1.31723E-13
 -1      2905 2.00710E+01 8.51627E-02-4.18146E-04 1.43677E-01-7.75724E-14 8.36817E-14
 -1      2906 2.00460E+01 4.17298E-02-9.50710E-05 6.82743E-02 2.56594E-13 2.60378E-13
 -1      2907 2.00593E+01 4.83032E-02 8.58588E-04 8.25795E-02 2.09093E-13 2.13863E-13
 -1      2908 2.00511E+01 6.58472E-02-3.44860E-04 1.01549E-01 1.09753E-13 2.78654E-13
 -1      2909 2.00305E+01 3.10819E-02-5.78761E-05 4.41052E-02 3.38018E-13 3.49770E-13
 -1      2910 2.00400E+01 3.63539E-02 6.58950E-04 5.48583E-02 3.38244E-13 3.50940E-13
 -1      2911 2.00360E+01 4.98793E-02-2.77793E-04 6.90724E-02 2.48397E-13 3.33025E-13
 -1      2912 2.00195E+01 2.26521E-02 7.95265E-05 2.63636E-02-8.66469E-14 6.50761E-13
 -1      2913 2.00259E+01 2.66570E-02 4.80900E-04 3.40801E-02 1.65537E-13 5.24486E-13
 -1      2914 2.00244E+01 3.70096E-02-2.11359E-04 4.45763E-02 5.83719E-14 5.58794E-13
 -1      2915 2.00118E+01 1.75579E-02 9.46192E-05 1.56681E-02-1.67810E-13 7.09613E-13
 -1      2916 2.00162E+01 2.09828E-02 3.29393E-04 2.12568E-02-1.55230E-13 5.14492E-13
 -1      2917 2.00159E+01 2.84230E-02-3.28267E-04 2.87992E-02-3.41338E-14 5.94181E-13
 -1      2918 2.00100E+01 2.31290E-02-2.62421E-04 1.91878E-02-1.77140E-13 3.04359E-13
 -1      2919 1.99844E+01 6.77965E-02-1.83019E-04 2.62960E-03 4.59164E-14-1.10891E-13
 -1      2920 1.99852E+01 6.69370E-02-8.13837E-05 7.11768E-03 4.49231E-14-3.38808E-13
 -1      2921 2.00147E+01 2.36653E-02 3.08653E-04-2.14262E-02 2.95693E-13 3.72505E-16
 -1      2922 2.00117E+01 2.05604E-02 3.00663E-05-1.73177E-02 2.75425E-13-1.04914E-13
 -1      2923 2.00099E+01 2.44934E-02-2.47577E-05-1.89703E-02 9.18428E-14-1.00054E-13
 -1      2924 2.00137E+01 3.16742E-02-2.28230E-04-2.82804E-02 1.61391E-13 2.66082E-13
 -1      2925 1.99918E+01 5.66323E-02-2.92570E-04 1.98686E-02 2.37395E-13-7.49669E-14
 -1      2926 1.99953E+01 5.28717E-02 1.13782E-04 2.19940E-02 1.67651E-13-1.62973E-13
 -1      2927 1.99853E+01 6.69724E-02-8.76975E-05-7.64158E-03 6.35667E-15-1.51308E-13
 -1      2928 1.99844E+01 6.78438E-02-1.79949E-04-3.16633E-03-3.06698E-14 1.05356E-13
 -1      2929 1.99806E+01 7.99453E-02 3.38013E-04-2.49231E-04 4.40449E-14-1.49918E-13
 -1      2930 1.99867E+01 6.41855E-02-2.56057E-04 1.23962E-02 8.73694E-15-4.37164E-13
 -1      2931 1.99891E+01 6.17204E-02 2.43422E-05 1.60450E-02 2.44027E-13-2.86256E-13
 -1      2932 1.99881E+01 6.97681E-02 2.60913E-04 2.16122E-02 1.89065E-13-2.92686E-13
 -1      2933 1.99825E+01 7.72641E-02 3.17599E-04 1.17233E-02 9.36847E-14-4.41292E-13
 -1      2934 7.44008E+00-1.23910E+00 1.67160E-01-3.05336E+00 8.14765E-14 9.19015E-13
 -1      2935 9.80440E+00-2.30727E+00 5.64368E-02-5.06547E+00 3.18967E-13 8.11823E-13
 -1      2936 1.99893E+01 6.19370E-02 2.08213E-05-1.63903E-02 6.79493E-14-2.83141E-13
 -1      2937 1.99869E+01 6.43525E-02-2.57147E-04-1.28315E-02 1.20446E-14-1.57255E-13
 -1      2938 1.99827E+01 7.74975E-02 3.24917E-04-1.21279E-02 1.62164E-13-1.56320E-13
 -1      2939 1.99956E+01 5.30823E-02 9.92471E-05-2.22498E-02 1.55408E-13 2.01990E-14
 -1      2940 1.99921E+01 5.68822E-02-2.98671E-04-2.01918E-02 1.41742E-13-1.97324E-13
 -1      2941 1.99884E+01 7.01987E-02 2.72929E-04-2.19357E-02 1.21949E-13-1.79481E-13
 -1      2942 2.00027E+01 4.14316E-02 3.31222E-05-2.39245E-02 1.31957E-13 1.70366E-13
 -1      2943 1.99992E+01 4.63310E-02-2.68738E-04-2.39433E-02 2.61847E-13 1.44129E-13
 -1      2944 1.99964E+01 5.89293E-02 1.73712E-04-2.79588E-02 1.99547E-13 1.02999E-13
 -1      2945 2.00080E+01 3.01921E-02 1.11540E-04-2.10093E-02 1.21346E-13 2.34015E-14
 -1      2946 2.03585E+01 1.74956E+00-9.67789E-03-1.23276E+00-4.28877E-13-3.63005E-13
 -1      2947 2.03362E+01 1.37660E+00-5.97712E-03-9.25061E-01-3.96112E-13-3.17912E-13
 -1      2948 6.16134E+00-8.33130E-01 1.06675E-01 1.42627E+00-2.07240E-13 1.39844E-12
 -1      2949 6.11852E+00-8.19531E-01 1.35194E-01-9.56510E-01-1.28168E-13 1.31264E-12
 -1      2950 1.51254E+01-3.66273E+00 6.17971E-02 6.22233E+00-4.09242E-13 2.47691E-13
 -1      2951 1.27003E+01-2.80524E+00 1.57534E-01 5.84256E+00-4.36151E-13 5.03944E-13
 -1      2952 2.37120E+01-5.07070E+00 9.78325E-02-4.31448E+00-2.11997E-13-1.98092E-13
 -1      2953 2.60253E+01-4.41236E+00-9.57232E-02-2.58738E+00-6.88269E-14-3.29736E-14
 -1      2954 1.00097E+01-2.04036E+00 7.78819E-02 5.17114E+00-4.24938E-13 1.02685E-12
 -1      2955 7.91389E+00-1.08464E+00 1.86734E-01 3.39542E+00-4.03858E-13 1.20270E-12
 -1      2956 1.27103E+01-1.83360E+00 1.33065E-01 4.99615E+00-5.52114E-13 6.88644E-13
 -1      2957 2.01052E+01 3.18436E-01 7.11011E-04-1.44895E-01 2.23057E-13-9.12369E-14
 -1      2958 2.01416E+01 3.90966E-01 7.57274E-03-2.16340E-02 2.65647E-13-8.74194E-14
 -1      2959 2.01709E+01 3.83638E-01-3.26512E-03-1.83841E-01 2.46038E-13-1.87928E-13
 -1      2960 2.01889E+01 1.59208E-01 2.42474E-03-6.16131E-01 1.31641E-13-1.46795E-13
 -1      2961 2.01313E+01 1.68283E-01 1.52206E-03-5.60068E-01 1.91487E-13-1.32725E-13
 -1      2962 2.01534E+01 2.27718E-01-2.51380E-03-5.51034E-01 2.12951E-13-1.83331E-13
 -1      2963 2.01929E+01 2.01304E-01-2.15592E-03-6.86806E-01 7.68699E-14-1.38966E-13
 -1      2964 2.03704E+01 1.09445E+00 4.83589E-03-7.08995E-01-3.58323E-13-2.92397E-13
 -1      2965 2.02917E+01 8.70399E-01-3.99885E-03-4.50786E-01-3.33243E-13-2.92036E-13
 -1      2966 2.03101E+01 9.74837E-01 1.50326E-03-3.90817E-01-3.16320E-13-3.39213E-13
 -1      2967 2.03182E+01 1.45595E+00 1.56413E-03-7.92655E-01-3.61079E-13-3.84528E-13
 -1      2968 2.01723E+01 4.81787E-01-3.14962E-04 1.30165E-01 3.20144E-13-9.38758E-14
 -1      2969 2.02510E+01 6.09881E-01 1.03124E-02 3.12580E-01 3.53525E-13-7.20194E-14
 -1      2970 2.03142E+01 8.86928E-01 1.58077E-05 4.76277E-01 3.85041E-13-1.57962E-13
 -1      2971 2.02302E+01 5.68050E-01-2.54137E-03 9.41686E-02 3.07333E-13-1.58310E-13
 -1      2972 6.46818E+00-1.06304E+00 1.61648E-01-2.16590E+00-1.54599E-13-9.92206E-13
 -1      2973 7.99792E+00-1.89575E+00 1.17709E-01-4.47753E+00-1.90473E-13-8.02552E-13
 -1      2974 6.84606E+00-1.27947E+00 1.56134E-01 2.68771E+00 1.64167E-13-1.07203E-12
 -1      2975 6.17091E+00-8.06699E-01 1.48982E-01 5.00859E-01 1.89519E-14-1.06659E-12
 -1      2976 1.99024E+01 2.70475E+00-7.47850E-03 7.09238E-01 3.51871E-13-5.34706E-13
 -1      2977 1.98456E+01 2.80590E+00-6.68467E-03 5.70944E-01 2.81169E-13-5.67137E-13
 -1      2978 1.99482E+01 2.53419E+00 4.89588E-03 4.40701E-01 2.46984E-13-5.27093E-13
 -1      2979 2.00582E+01 2.31025E+00 5.98894E-03 6.44224E-01 3.35199E-13-4.81218E-13
 -1      2980 1.32374E+01-3.30652E+00 1.75970E-01-5.87108E+00 5.81937E-13 9.26523E-13
 -1      2981 1.63612E+01-4.46521E+00-3.67042E-02-6.19344E+00 5.02737E-13 6.47482E-13
 -1      2982 1.98398E+01 2.81847E+00-6.54031E-03-5.61914E-01-1.36347E-13-6.43291E-13
 -1      2983 1.98959E+01 2.71998E+00-7.18572E-03-6.99650E-01-2.05603E-13-6.30010E-13
 -1      2984 2.85362E+01 5.69437E-02-1.13507E-01-2.17409E+00-5.00142E-13 5.17544E-13
 -1      2985 2.87299E+01-2.00700E+00-1.12642E-01-1.25658E+00-2.80533E-13 4.08382E-13
 -1      2986 2.90922E+01 9.29036E-01-8.48580E-02 1.47449E+00 4.01318E-13 1.00864E-13
 -1      2987 2.87534E+01 2.73108E+00-1.72040E-01 1.88133E+00 5.59830E-13 7.22478E-14
 -1      2988 2.79815E+01-4.44232E-01-7.12908E-02 1.38791E+00 1.58693E-13 2.32342E-13
 -1      2989 1.04981E+01-2.73750E+00 1.56000E-01-5.65472E+00-2.68577E-13-7.30527E-13
 -1      2990 1.30871E+01-3.58265E+00 7.09320E-02-6.38241E+00-4.00735E-13-7.37799E-13
 -1      2991 2.85816E+01-2.88337E+00-1.20076E-01-8.25468E-02-2.05856E-13 2.66800E-13
 -1      2992 2.73629E+01-4.42154E+00-3.45440E-04 1.70321E+00-1.70072E-14 9.75331E-14
 -1      2993 2.61713E+01-4.64687E+00 1.18714E-01 2.22107E+00 2.41238E-13 1.24845E-13
 -1      2994 2.72805E+01-3.02073E+00-1.64960E-02-3.53201E-01 5.29334E-14 4.78589E-13
 -1      2995 2.88265E+01 4.33287E+00-1.92830E-01-1.80501E+00 9.54764E-13-8.21287E-13
 -1      2996 2.92085E+01 2.45825E+00-9.54557E-02-1.82564E+00 6.79068E-13-8.30586E-13
 -1      2997 2.80166E+01 8.48377E-01-6.88989E-02-1.84308E+00 5.79148E-13-7.97126E-13
 -1      2998 1.81468E+01-4.91339E+00-1.71937E-03 6.00742E+00 4.20497E-13-4.21316E-13
 -1      2999 1.44678E+01-4.21092E+00 1.53248E-01 6.27546E+00 3.73590E-13-7.58046E-13
 -1      3000 2.01145E+01 2.56954E+00-2.41091E-03-1.36531E+00-4.10793E-13-4.96343E-13
 -1      3001 2.72615E+01-3.64364E+00-1.32586E-01 1.74020E+00 1.46452E-13-6.60055E-13
 -1      3002 2.51099E+01-4.63545E+00 5.85616E-02 3.43308E+00 8.94701E-14-5.39208E-13
 -1      3003 2.61974E+01-4.67395E+00 4.16145E-02-2.26307E+00 3.93227E-14-3.63626E-13
 -1      3004 2.77945E+01-3.74307E+00-1.09283E-01-7.94087E-01-4.87319E-14-5.67421E-13
 -1      3005 2.76917E+01 6.20562E+00-1.96286E-01-5.32336E-01 9.07219E-13-3.58078E-13
 -1      3006 2.82563E+01 5.70964E+00-1.47312E-01-1.34423E+00 1.03295E-12-5.71383E-13
 -1      3007 1.99640E+01 2.58664E+00-6.10352E-03-8.06862E-01-2.44319E-13-6.09486E-13
 -1      3008 2.00396E+01 2.44623E+00-6.25658E-03-9.34282E-01-3.11473E-13-5.65190E-13
 -1      3009 2.00503E+01 2.32980E+00 6.36163E-03-6.38492E-01-2.06750E-13-5.71009E-13
 -1      3010 1.98553E+01 2.70953E+00 4.19268E-03 2.73395E-03 6.31455E-14-5.88573E-13
 -1      3011 1.97302E+01 3.01588E+00-5.70063E-03-5.36188E-02 4.74750E-14-6.40771E-13
 -1      3012 1.97408E+01 2.99948E+00-5.58850E-03-1.91985E-01-1.46958E-14-6.55703E-13
 -1      3013 7.25882E+00-4.50929E-01 1.81699E-01-8.37502E-01-7.03847E-14-9.61869E-13
 -1      3014 8.78806E+00-2.31622E-01 1.24669E-01-1.98281E+00-1.54113E-13-8.27310E-13
 -1      3015 8.47698E+00-1.24138E-02 1.13321E-01 3.37988E-01 3.12285E-14-8.85736E-13
 -1      3016 1.47651E+01-3.08343E+00 1.04007E-01-5.87123E+00-4.18679E-13-5.32241E-13
 -1      3017 1.54457E+01-3.93835E+00 1.41433E-01-6.30936E+00-4.76522E-13-6.05405E-13
 -1      3018 1.75520E+01-4.37636E+00-1.55221E-02-5.97032E+00-5.14103E-13-3.35537E-13
 -1      3019 2.03300E+01 1.63236E+00-1.78544E-03 1.05905E+00 4.73971E-13-2.08383E-13
 -1      3020 2.36088E+01-5.11462E+00-1.49828E-04 4.19719E+00-3.11140E-14-5.62057E-13
 -1      3021 2.19581E+01-4.84735E+00 8.80881E-02 4.65836E+00-2.26985E-13-5.03394E-13
 -1      3022 2.47230E+01-4.61469E+00-1.16779E-02 2.76710E+00-1.19481E-13-6.51521E-13
 -1      3023 2.81243E+01 3.60075E+00-1.43952E-01 1.98066E+00 5.88765E-13 1.02057E-13
 -1      3024 2.68607E+01 4.39325E+00-1.69617E-01 1.75262E+00 6.07125E-13 5.92651E-14
 -1      3025 2.72367E+01 2.25454E+00-4.67584E-02 2.11503E+00 4.04357E-13 2.12316E-13
 -1      3026 1.93457E+01-4.29723E+00 1.14327E-01-5.12293E+00 5.34933E-13 2.30507E-13
 -1      3027 2.73038E+01-2.80790E+00-5.59098E-02 3.90698E-01 1.63470E-13-6.57890E-13
 -1      3028 1.99960E+01 5.84324E-02 1.50039E-04 2.77387E-02 2.02554E-13-1.85017E-13
 -1      3029 1.99987E+01 4.61549E-02-2.78140E-04 2.36928E-02 1.70804E-13-2.61230E-13
 -1      3030 2.00024E+01 4.15102E-02 1.44529E-04 2.38923E-02 1.54702E-13-4.18589E-13
 -1      3031 2.83473E+01-2.60161E+00-4.31605E-02 7.55228E-01-3.89341E-14-5.66477E-13
 -1      3032 2.88437E+01-4.60782E-01-1.53183E-01 1.81709E+00-3.10828E-13-5.61787E-13
 -1      3033 1.70960E+01-4.00057E+00 1.15555E-01 5.95047E+00-4.34375E-13 1.49700E-13
 -1      3034 1.66356E+01-3.11884E+00 7.66744E-02 5.49958E+00-5.22721E-13 8.67917E-14
 -1      3035 1.90323E+01-4.40418E+00-6.33874E-03 5.52782E+00-3.79377E-13-1.44572E-13
 -1      3036 2.00051E+01 3.47708E-02-2.45967E-04 2.31479E-02 7.22074E-14-1.91730E-13
 -1      3037 2.00082E+01 2.98292E-02 1.37564E-04 2.15651E-02 1.79912E-14-2.47293E-14
 -1      3038 2.00109E+01 3.30297E-02 2.57761E-04 2.60440E-02-4.03684E-14 1.50406E-13
 -1      3039 2.00043E+01 4.55712E-02 1.60679E-04 2.89543E-02 2.25800E-13-3.31424E-13
 -1      3040 2.00101E+01 3.62647E-02-9.60488E-05-2.79969E-02 1.41244E-13 4.65861E-14
 -1      3041 2.00057E+01 3.81161E-02-1.17830E-04-2.53746E-02 1.15684E-13-2.93038E-14
 -1      3042 2.00050E+01 4.90532E-02 2.95054E-04-3.13053E-02 1.99870E-13 1.87682E-14
 -1      3043 2.00128E+01 4.13715E-02 3.82167E-04-3.35907E-02 2.02792E-13 1.15836E-13
 -1      3044 2.21209E+01-5.03914E+00 7.32087E-02-4.79304E+00-3.49859E-13-1.87784E-13
 -1      3045 1.37236E+01-3.27836E+00 1.53117E-01 5.84240E+00 3.27974E-13-8.25728E-13
 -1      3046 8.71312E+00-4.13057E-01 1.72646E-01 2.30579E+00-2.98851E-13 1.20262E-12
 -1      3047 8.45047E+00-4.84698E-01 1.94876E-01-1.96806E+00 5.71210E-14 1.01089E-12
 -1      3048 2.72217E+01 4.14694E+00-1.11892E-01-1.72215E+00 8.39204E-13-4.83391E-13
 -1      3049 2.72418E+01 5.92547E+00-1.75250E-01 6.52568E-02 7.65277E-13-1.75797E-13
 -1      3050 2.59635E+01 5.27714E+00-8.81200E-02-4.77388E-01 7.50427E-13-8.22103E-14
 -1      3051 2.65191E+01 5.50048E+00-1.09634E-01 7.74439E-01 6.94500E-13 2.00014E-14
 -1      3052 1.04923E+01-1.73647E+00 1.54486E-01-4.69844E+00-2.52687E-13-7.64278E-13
 -1      3053 2.53785E+01-4.22194E+00 1.41697E-03-1.94642E+00-2.01429E-13 8.48124E-14
 -1      3054 2.68971E+01-3.72660E+00-1.88756E-02-1.26746E+00-6.54130E-14 8.87623E-14
 -1      3055 2.68057E+01-2.89041E+00-7.15933E-02 6.13347E-03-9.34114E-14 1.90029E-13
 -1      3056 2.01697E+01 2.23383E+00 6.21868E-04-1.10487E+00-3.60776E-13-4.88640E-13
 -1      3057 2.03185E+01 1.43037E+00 2.47361E-03 7.99042E-01 4.12050E-13-2.46340E-13
 -1      3058 1.97624E+01 2.95836E+00-6.08678E-03-3.08519E-01-4.61428E-14-6.30528E-13
 -1      3059 1.97955E+01 2.90439E+00-5.99578E-03-4.47437E-01-1.09308E-13-6.38589E-13
 -1      3060 1.99426E+01 2.54629E+00 4.88474E-03-4.33774E-01-1.10584E-13-5.99730E-13
 -1      3061 1.98766E+01 2.67073E+00 4.33721E-03-2.17501E-01-3.14767E-14-6.01230E-13
 -1      3062 8.38599E+00-1.41344E+00 1.74191E-01 3.56350E+00 2.30309E-13-1.05493E-12
 -1      3063 9.12689E+00-5.35821E-01 1.33849E-01 2.66225E+00 1.41422E-13-1.00253E-12
 -1      3064 1.01614E+01-1.69012E+00 6.45711E-02 4.43412E+00 2.62866E-13-9.60509E-13
 -1      3065 2.22198E+01-5.27016E+00-9.53603E-02 4.43112E+00 4.54636E-13-1.64639E-13
 -1      3066 2.05905E+01-5.06982E+00 1.26735E-01 5.32629E+00 4.56135E-13-3.03958E-13
 -1      3067 1.86934E+01-4.10019E+00 9.94737E-02 5.43017E+00 4.52513E-13-3.06255E-13
 -1      3068 2.48345E+01-4.84985E+00-3.32407E-03-2.70174E+00 1.87836E-13-4.19421E-13
 -1      3069 1.27151E+01-2.20702E+00 1.62585E-01-5.03706E+00 4.05953E-13 7.64944E-13
 -1      3070 2.72605E+01-3.21785E+00-1.63161E-02 2.55529E-01 5.61842E-14-5.75574E-13
 -1      3071 2.02569E+01 1.57728E+00-5.55960E-03 6.70317E-01 3.67481E-13-3.70035E-13
 -1      3072 2.01977E+01 1.77994E+00-1.41367E-03 6.16933E-01 3.42721E-13-4.19128E-13
 -1      3073 2.69744E+01-2.18420E+00-1.24635E-01-6.60778E-01 2.14283E-13-5.88106E-13
 -1      3074 2.63184E+01-3.58861E+00 1.64434E-02 9.52379E-01-6.18516E-14-6.22925E-13
 -1      3075 2.02460E+01 6.15907E-01 2.88631E-03 1.43465E-01-2.07742E-13-2.85497E-13
 -1      3076 2.02177E+01 5.35771E-01-9.71246E-04 2.67679E-01-1.76127E-13-2.88594E-13
 -1      3077 2.01903E+01 4.80062E-01 1.70527E-03 3.72028E-01-1.76141E-13-2.52049E-13
 -1      3078 2.01724E+01 4.41203E-01 2.27557E-04 4.72335E-01-1.80050E-13-2.82443E-13
 -1      3079 2.02086E+01 6.05248E-01-4.26048E-04 2.97465E-01-1.69118E-13-2.86088E-13
 -1      3080 2.01370E+01 4.18735E-01 4.19997E-04 5.61320E-01-1.81010E-13-2.44548E-13
 -1      3081 2.01291E+01 4.08968E-01 1.11328E-03 6.49048E-01-1.58136E-13-2.62695E-13
 -1      3082 2.01420E+01 5.11867E-01-2.67480E-04 4.95681E-01-1.75690E-13-2.47612E-13
 -1      3083 2.00870E+01 4.09317E-01-7.36013E-04 7.31341E-01-9.89888E-14-2.53818E-13
 -1      3084 2.00874E+01 4.19156E-01 1.78043E-03 8.15195E-01-6.44606E-14-2.53554E-13
 -1      3085 2.00654E+01 4.84265E-01 1.02994E-04 6.70188E-01-1.26725E-13-2.16933E-13
 -1      3086 2.00383E+01 4.33706E-01-1.71662E-03 8.97841E-01-3.50839E-14-2.50188E-13
 -1      3087 2.00450E+01 4.54439E-01 2.32196E-03 9.83962E-01-2.86834E-14-2.06127E-13
 -1      3088 1.99785E+01 5.01300E-01 5.90715E-04 8.36584E-01-4.57597E-14-2.51312E-13
 -1      3089 1.99881E+01 4.74313E-01-2.48920E-03 1.07245E+00-4.01334E-14-1.44357E-13
 -1      3090 2.00006E+01 4.95982E-01 2.86225E-03 1.16453E+00-2.91912E-14-1.12320E-13
 -1      3091 1.98792E+01 5.43402E-01 1.07938E-03 1.00740E+00 2.95875E-15-2.42592E-13
 -1      3092 1.99363E+01 5.09981E-01-2.98034E-03 1.26305E+00-6.12773E-14-8.80000E-14
 -1      3093 1.99571E+01 5.19247E-01 3.58175E-03 1.36233E+00-3.14158E-14-1.23635E-13
 -1      3094 1.97656E+01 5.88499E-01 1.40609E-03 1.19254E+00-2.73557E-14-1.30520E-13
 -1      3095 1.98892E+01 5.11557E-01-3.02661E-03 1.47428E+00 6.92990E-15-1.15656E-13
 -1      3096 1.99264E+01 4.89158E-01 4.73994E-03 1.57945E+00 5.81935E-14-1.40339E-13
 -1      3097 1.96401E+01 6.07610E-01 1.27059E-03 1.40033E+00-1.87727E-14-9.42990E-14
 -1      3098 1.98658E+01 4.36720E-01-2.27371E-03 1.70794E+00 5.38849E-14-1.69034E-13
 -1      3099 1.99377E+01 3.54616E-01 6.62162E-03 1.81440E+00 5.20151E-14-1.61349E-13
 -1      3100 1.95143E+01 5.59528E-01 1.08601E-04 1.63919E+00 6.42539E-14-1.54001E-13
 -1      3101 1.99093E+01 2.24806E-01 2.68663E-05 1.96186E+00 6.79538E-14-1.64900E-13
 -1      3102 2.00499E+01 4.42515E-02 9.35992E-03 2.05950E+00 1.20407E-13-1.94431E-13
 -1      3103 1.94187E+01 3.84376E-01-3.11575E-03 1.91905E+00 6.34747E-14-2.15511E-13
 -1      3104 2.01038E+01-2.04367E-01 5.59479E-03 2.22406E+00 1.68872E-13-2.13467E-13
 -1      3105 2.03694E+01-5.29727E-01 1.31374E-02 2.29089E+00 1.74913E-13-2.42295E-13
 -1      3106 1.94183E+01-1.79070E-03-9.98648E-03 2.24931E+00 1.21103E-13-1.72827E-13
 -1      3107 2.05984E+01-9.39821E-01 1.87736E-02 2.45680E+00 2.53920E-13-1.86577E-13
 -1      3108 2.10515E+01-1.45378E+00 1.22222E-02 2.44287E+00 2.63246E-13-7.52907E-14
 -1      3109 1.96336E+01-7.05667E-01-2.28135E-02 2.62745E+00 2.22394E-13-1.64652E-13
 -1      3110 2.16648E+01-2.03441E+00 5.21696E-02 2.51707E+00 2.71299E-13 2.81849E-14
 -1      3111 2.24982E+01-2.63297E+00 3.90879E-02 2.23833E+00 3.49756E-13 1.44201E-13
 -1      3112 2.03284E+01-1.87833E+00-4.29216E-02 3.01384E+00 3.69607E-13-5.92772E-14
 -1      3113 2.26680E+01-3.70697E+00 3.10134E-02 2.94282E+00 4.55313E-13 1.04481E-13
 -1      3114 2.37774E+01-4.18712E+00 3.27820E-02 2.50743E+00 4.82149E-13 1.37735E-13
 -1      3115 2.64702E+01-3.85223E+00-1.38781E-02 5.40756E-01 3.73481E-13 3.64479E-13
 -1      3116 2.75545E+01 3.88110E+00-2.51530E-01 1.95652E+00-8.31460E-13-5.66353E-13
 -1      3117 2.62643E+01-3.81851E+00 3.53589E-02-6.28011E-01 9.30887E-14-5.89157E-13
 -1      3118 2.43148E+01-3.76508E+00-5.45479E-03-1.61464E+00 2.15314E-13-4.27063E-13
 -1      3119 2.34092E+01-3.24813E+00 6.49621E-02-2.10043E+00 3.93120E-13-2.83690E-13
 -1      3120 2.23336E+01-2.62489E+00 8.49508E-03-2.26484E+00 3.67583E-13-2.14983E-13
 -1      3121 2.16438E+01-1.97606E+00 4.50377E-02-2.44606E+00 3.33526E-13-2.12573E-13
 -1      3122 2.17520E+01-3.20117E+00-3.78586E-02-3.01322E+00 3.97069E-13-1.53204E-13
 -1      3123 2.10780E+01-1.40182E+00 1.44925E-02-2.37114E+00 3.54800E-13-1.34559E-13
 -1      3124 2.06213E+01-8.91199E-01 1.87374E-02-2.37415E+00 3.39490E-13-1.10559E-13
 -1      3125 2.03197E+01-1.81427E+00-4.92913E-02-2.92678E+00 3.94153E-13 5.82919E-14
 -1      3126 2.03906E+01-4.78644E-01 1.36851E-02-2.20850E+00 2.16488E-13-1.18646E-13
 -1      3127 2.01257E+01-1.50951E-01 6.42729E-03-2.13172E+00 2.67046E-13-2.00565E-14
 -1      3128 1.96386E+01-6.67090E-01-2.99730E-02-2.54812E+00 3.01873E-13 7.82152E-14
 -1      3129 2.00681E+01 9.97781E-02 9.88233E-03-1.96175E+00 2.90558E-13-1.54890E-14
 -1      3130 1.99269E+01 2.82585E-01 4.78409E-04-1.85352E+00 2.36965E-13 2.67391E-14
 -1      3131 1.94157E+01 4.94550E-02-1.38067E-02-2.15907E+00 3.03817E-13 9.18638E-14
 -1      3132 1.99503E+01 4.14492E-01 6.91083E-03-1.69832E+00 1.25143E-13 8.90995E-14
 -1      3133 1.98770E+01 4.98053E-01-2.15508E-03-1.58089E+00 9.82937E-14 9.36390E-14
 -1      3134 1.94074E+01 4.46328E-01-4.77509E-03-1.81287E+00 2.10977E-13 1.66621E-13
 -1      3135 1.99312E+01 5.51871E-01 4.91017E-03-1.44359E+00 5.66033E-14 9.88818E-14
 -1      3136 1.98915E+01 5.73994E-01-3.13296E-03-1.32767E+00 2.73980E-13 1.35365E-14
 -1      3137 1.94905E+01 6.27988E-01-4.28844E-04-1.51464E+00 8.12808E-14 1.62675E-13
 -1      3138 1.99514E+01 5.80978E-01 3.72613E-03-1.20716E+00 2.49592E-13-6.28654E-14
 -1      3139 1.99267E+01 5.68321E-01-3.30487E-03-1.09858E+00 1.19193E-14-4.03544E-14
 -1      3140 1.95999E+01 6.77009E-01 1.32171E-03-1.25720E+00 1.54884E-13 1.18942E-13
 -1      3141 1.99810E+01 5.49874E-01 3.03899E-03-9.93524E-01 3.56454E-14-2.43562E-13
 -1      3142 1.99621E+01 5.19808E-01-3.09195E-03-8.95487E-01-8.39906E-14-7.81720E-14
 -1      3143 1.97050E+01 6.50554E-01 1.76174E-03-1.03377E+00-2.33856E-14 1.11336E-13
 -1      3144 2.00069E+01 4.89503E-01 2.60367E-03-8.04830E-01-2.36127E-13-9.47322E-14
 -1      3145 1.99902E+01 4.52659E-01-2.71462E-03-7.18879E-01-2.97080E-13-8.32930E-14
 -1      3146 1.97935E+01 5.85771E-01 1.61181E-03-8.40091E-01-1.63773E-13-1.61114E-13
 -1      3147 2.00249E+01 4.18578E-01 2.27680E-03-6.41686E-01-2.96819E-13 5.92641E-14
 -1      3148 2.00093E+01 3.81066E-01-2.28959E-03-5.68181E-01-1.66582E-13 4.89198E-15
 -1      3149 1.98625E+01 5.05572E-01 1.25254E-03-6.73574E-01-1.99159E-13 8.65622E-14
 -1      3150 2.00352E+01 3.47704E-01 1.99015E-03-5.03440E-01 3.13308E-14-3.57662E-14
 -1      3151 2.00206E+01 3.12763E-01-1.87704E-03-4.41925E-01 5.27709E-14 1.66007E-13
 -1      3152 1.99135E+01 4.23311E-01 8.69848E-04-5.32209E-01-1.12914E-13 1.32792E-13
 -1      3153 2.00393E+01 2.82393E-01 1.71911E-03-3.88481E-01-5.61212E-15 1.99589E-13
 -1      3154 2.00260E+01 2.51518E-01-1.50558E-03-3.37984E-01 1.22218E-13 1.70410E-13
 -1      3155 1.99496E+01 3.46212E-01 5.42277E-04-4.13982E-01 9.47678E-14 1.63270E-13
 -1      3156 2.00390E+01 2.25090E-01 1.45999E-03-2.94562E-01 5.88445E-14 1.79266E-13
 -1      3157 2.00272E+01 1.98758E-01-1.18627E-03-2.53835E-01 1.20844E-13 1.82906E-13
 -1      3158 1.99742E+01 2.77716E-01 2.92820E-04-3.16662E-01 1.07764E-13 2.59071E-13
 -1      3159 2.00360E+01 1.76472E-01 1.21703E-03-2.19110E-01 4.34720E-14 1.99544E-14
 -1      3160 2.00259E+01 1.54596E-01-9.19443E-04-1.86803E-01-1.61339E-13-4.12292E-14
 -1      3161 1.99901E+01 2.19018E-01 1.18606E-04-2.37832E-01-6.99647E-14-9.88610E-16
 -1      3162 2.00316E+01 1.36242E-01 9.96683E-04-1.59464E-01-1.40565E-13-1.54286E-13
 -1      3163 2.00231E+01 1.18416E-01-7.13764E-04-1.34240E-01 2.93043E-15-1.48015E-13
 -1      3164 1.99998E+01 1.70040E-01 5.86508E-06-1.75000E-01-1.47056E-13-2.15137E-13
 -1      3165 2.00265E+01 1.03600E-01 8.07220E-04-1.13107E-01 1.69794E-14-1.29804E-13
 -1      3166 2.00196E+01 8.93541E-02-5.20408E-04-9.37496E-02-4.26722E-14-1.16760E-13
 -1      3167 2.00052E+01 1.29916E-01-7.86273E-05-1.25727E-01 2.70257E-15-3.56776E-13
 -1      3168 2.00213E+01 7.72604E-02 5.38362E-04-7.75617E-02-1.18151E-14-4.02668E-14
 -1      3169 2.00161E+01 6.62754E-02-2.81965E-04-6.32028E-02 1.21496E-13-7.29054E-14
 -1      3170 2.00074E+01 9.77018E-02-1.90254E-04-8.78638E-02-1.00364E-14-1.73468E-13
 -1      3171 2.00169E+01 5.72861E-02 4.08746E-04-5.23273E-02 1.38235E-13-8.28075E-14
 -1      3172 2.00128E+01 4.84978E-02-1.69027E-04-4.15937E-02 1.61912E-13 1.14107E-13
 -1      3173 2.00085E+01 5.29681E-02-2.24902E-04-4.10394E-02 2.50348E-13-3.03975E-14
 -1      3174 2.00088E+01 7.28662E-02-4.33110E-06-6.01837E-02 1.39508E-13-8.81892E-14
 -1      3175 2.47035E+01-4.32253E+00-2.68862E-02-2.08858E+00 2.12157E-13-5.16988E-13
 -1      3176 2.02868E+01 2.12125E-01 2.23019E-03-9.78644E-01-2.07644E-14-4.04179E-14
 -1      3177 2.02292E+01 2.28244E-01 4.98434E-05-9.22646E-01 4.25414E-14-7.22129E-14
 -1      3178 2.02244E+01 2.40199E-01 2.10054E-03-8.56444E-01 3.44559E-14-9.92874E-14
 -1      3179 2.01830E+01 2.48951E-01 1.32527E-04-7.95430E-01-6.89146E-16-1.18606E-13
 -1      3180 2.01352E+01 2.85038E-01-1.50373E-03-9.12732E-01 8.41474E-15-1.17839E-13
 -1      3181 2.05311E+01 3.53527E-02 1.76883E-03-1.18062E+00-2.42521E-14 2.87722E-14
 -1      3182 2.04302E+01 1.02928E-01 1.70478E-03-1.14884E+00-1.51715E-14-8.70447E-15
 -1      3183 2.07511E+01-1.65738E-01 8.72768E-04-1.22799E+00-3.73482E-14 7.47552E-14
 -1      3184 2.06180E+01-5.17843E-02 3.80158E-03-1.22501E+00-2.09812E-14 9.90237E-14
 -1      3185 2.03437E+01 5.23574E-03-5.14057E-03-1.29063E+00-4.16618E-14-2.12964E-14
 -1      3186 2.10745E+01-4.72912E-01-9.27041E-04-1.19870E+00-1.11087E-13 1.61191E-13
 -1      3187 2.09003E+01-3.02446E-01 6.99471E-03-1.24329E+00-7.03658E-14 1.06015E-13
 -1      3188 2.05586E+01-2.55984E-01-8.16271E-03-1.36676E+00-7.52713E-14 5.38664E-14
 -1      3189 2.15333E+01-8.86176E-01-4.06634E-03-1.04360E+00-8.92855E-14 1.62719E-13
 -1      3190 2.13127E+01-6.62946E-01 1.12616E-02-1.16016E+00-1.08376E-13 1.81265E-13
 -1      3191 2.09124E+01-6.45783E-01-1.21705E-02-1.36929E+00-1.16166E-13 1.51994E-13
 -1      3192 2.21431E+01-1.35093E+00-8.68024E-03-7.00150E-01-1.53682E-13 2.94508E-13
 -1      3193 2.18849E+01-1.11155E+00 1.60633E-02-9.13982E-01-1.13266E-13 2.29075E-13
 -1      3194 2.14567E+01-1.15706E+00-1.59452E-02-1.23856E+00-1.55351E-13 1.01297E-13
 -1      3195 2.28710E+01-1.71302E+00-1.34010E-02-1.11698E-01-1.02033E-13 2.77104E-13
 -1      3196 2.26079E+01-1.55163E+00 1.79726E-02-4.34824E-01-1.09741E-13 2.83775E-13
 -1      3197 2.22254E+01-1.70645E+00-1.64514E-02-8.88286E-01-1.15952E-13 2.07942E-13
 -1      3198 2.35964E+01-1.68015E+00-1.14241E-02 7.19077E-01-1.07271E-13 2.93208E-13
 -1      3199 2.33875E+01-1.77066E+00 1.03612E-02 3.16566E-01-9.87756E-14 2.93366E-13
 -1      3200 2.31828E+01-2.07807E+00-1.09146E-02-2.31780E-01-1.25375E-13 2.74533E-13
 -1      3201 2.40866E+01-9.05453E-01-1.09898E-03 1.57343E+00-5.45007E-15 3.22098E-13
 -1      3202 2.39913E+01-1.40911E+00-1.28656E-02 1.23432E+00-9.01997E-14 3.41473E-13
 -1      3203 2.41431E+01-1.85832E+00 1.00857E-02 7.44698E-01-9.90956E-14 2.82846E-13
 -1      3204 2.40572E+01 6.40318E-01-7.06760E-04 1.94879E+00 1.65135E-13 4.10064E-13
 -1      3205 2.41718E+01-1.85141E-01-4.29034E-02 1.95663E+00 5.98081E-14 3.81040E-13
 -1      3206 2.47523E+01-7.62569E-01 2.51377E-03 1.72495E+00 2.96291E-15 2.92800E-13
 -1      3207 2.44408E+01 2.88314E+00-4.12623E-02 1.59802E+00 4.14307E-13 3.39747E-13
 -1      3208 2.46508E+01 1.91032E+00-6.17398E-02 2.00772E+00 3.50192E-13 4.09702E-13
 -1      3209 2.39878E+01 3.72033E+00-6.32069E-02-1.65018E-01 4.80595E-13 6.77913E-14
 -1      3210 2.39659E+01 3.63294E+00-8.01546E-02 5.89170E-01 4.69305E-13 2.35402E-13
 -1      3211 2.40905E+01 5.39341E-01-5.64861E-02-2.08401E+00 1.39971E-13-4.49678E-13
 -1      3212 2.39621E+01 1.48922E+00-4.10972E-04-1.92219E+00 2.48336E-13-4.44023E-13
 -1      3213 2.41697E+01-9.96453E-01-7.72933E-03-1.63646E+00-2.07081E-13-4.91911E-13
 -1      3214 2.41439E+01-3.13726E-01 2.77454E-03-1.86476E+00-1.12143E-13-6.13468E-13
 -1      3215 2.47901E+01-3.85535E-03-1.86251E-02-2.00951E+00 1.10112E-13-6.27876E-13
 -1      3216 2.36627E+01-1.66589E+00 4.05604E-03-7.24336E-01-4.92236E-14-3.73086E-13
 -1      3217 2.38150E+01-1.45105E+00-1.70040E-02-1.09563E+00-8.75151E-14-4.91583E-13
 -1      3218 2.44506E+01-1.55215E+00-2.84410E-02-1.24881E+00-1.37329E-13-6.48600E-13
 -1      3219 2.29381E+01-1.64522E+00 1.73996E-02 1.02770E-01-2.25541E-13-2.72042E-13
 -1      3220 2.31825E+01-1.73478E+00-1.46530E-02-2.51288E-01-4.10596E-14-2.66766E-13
 -1      3221 2.35556E+01-2.05453E+00-1.95840E-02-2.13146E-01-9.85644E-14-3.63350E-13
 -1      3222 2.21809E+01-1.26023E+00 1.73750E-02 6.80967E-01-3.42275E-13-4.13839E-13
 -1      3223 2.24408E+01-1.48692E+00-1.16416E-02 4.29532E-01-2.75538E-13-3.20951E-13
 -1      3224 2.26031E+01-1.85391E+00-1.59520E-02 5.91129E-01-1.60386E-13-2.38306E-13
 -1      3225 2.15474E+01-7.91428E-01 1.31955E-02 9.97752E-01-1.73102E-13-4.22418E-13
 -1      3226 2.17804E+01-1.03196E+00-6.54020E-03 8.53547E-01-3.16891E-13-4.99312E-13
 -1      3227 2.17498E+01-1.33488E+00-1.75285E-02 1.04739E+00-2.22104E-13-4.31031E-13
 -1      3228 2.10775E+01-3.85229E-01 8.83006E-03 1.12051E+00-3.43834E-14-2.78284E-13
 -1      3229 2.12651E+01-5.81591E-01-2.43531E-03 1.05967E+00-7.59638E-14-3.33375E-13
 -1      3230 2.11181E+01-7.84074E-01-1.32681E-02 1.24001E+00-1.49045E-13-4.03241E-13
 -1      3231 2.07494E+01-8.64438E-02 5.13570E-03 1.11775E+00-7.49556E-14-1.59673E-13
 -1      3232 2.08931E+01-2.25015E-01-1.64053E-04 1.11452E+00-5.82620E-14-1.98396E-13
 -1      3233 2.06909E+01-3.38236E-01-9.32259E-03 1.26673E+00-1.24124E-13-1.77774E-13
 -1      3234 2.05282E+01 1.06668E-01 2.54072E-03 1.04039E+00-3.17375E-14-1.33382E-13
 -1      3235 2.06365E+01 2.07039E-02 1.07262E-03 1.07306E+00 1.52741E-14-8.05300E-14
 -1      3236 2.04200E+01-2.29809E-02-5.90823E-03 1.19680E+00-6.02430E-14-7.79391E-14
 -1      3237 2.03804E+01 2.14653E-01 8.63398E-04 9.24313E-01 2.22415E-13-2.94975E-13
 -1      3238 2.04625E+01 1.69284E-01 1.67708E-03 9.76594E-01 2.60591E-14-2.28797E-13
 -1      3239 2.02568E+01 1.73236E-01-3.46497E-03 1.07653E+00 4.97994E-14-1.31394E-13
 -1      3240 2.02806E+01 2.61803E-01-1.20578E-04 7.93037E-01 7.09620E-14 2.13320E-13
 -1      3241 2.03439E+01 2.44597E-01 1.92530E-03 8.53642E-01 1.58934E-13 9.59015E-15
 -1      3242 2.01619E+01 2.77627E-01-1.92550E-03 9.35082E-01 7.92039E-14 3.69981E-14
 -1      3243 2.02114E+01 2.69212E-01-6.38422E-04 6.61376E-01 7.91912E-15 1.01988E-13
 -1      3244 2.02612E+01 2.69910E-01 1.98254E-03 7.22883E-01 1.44505E-13 1.78605E-13
 -1      3245 2.01079E+01 3.18164E-01-1.01823E-03 7.90031E-01 7.80714E-14 2.61134E-13
 -1      3246 2.01618E+01 2.53000E-01-8.59792E-04 5.38182E-01-1.37895E-13 2.51631E-13
 -1      3247 2.02015E+01 2.63987E-01 1.92074E-03 5.96052E-01-1.39071E-13 1.13958E-13
 -1      3248 2.00772E+01 3.17876E-01-5.19185E-04 6.51817E-01 6.70566E-15 1.00959E-13
 -1      3249 2.01250E+01 2.24526E-01-9.03118E-04 4.28216E-01-7.67054E-14 2.90441E-13
 -1      3250 2.01568E+01 2.40545E-01 1.78236E-03 4.79971E-01-1.11328E-13 2.89439E-13
 -1      3251 2.00593E+01 2.93906E-01-2.65423E-04 5.26329E-01-2.03143E-13 1.20809E-13
 -1      3252 2.00969E+01 1.91286E-01-8.47653E-04 3.33468E-01-8.38051E-14 3.28137E-13
 -1      3253 2.01224E+01 2.08930E-01 1.59792E-03 3.78048E-01-5.65153E-14 2.83301E-13
 -1      3254 2.00481E+01 2.58155E-01-1.48738E-04 4.16410E-01 3.11444E-14 2.31589E-13
 -1      3255 2.00749E+01 1.57911E-01-7.44005E-04 2.54127E-01-1.35472E-13 2.33902E-13
 -1      3256 2.00953E+01 1.75120E-01 1.39102E-03 2.91397E-01-4.68488E-14 2.93665E-13
 -1      3257 2.00402E+01 2.18392E-01-1.02373E-04 3.22868E-01-8.23168E-14 4.97606E-14
 -1      3258 2.00575E+01 1.27023E-01-6.23293E-04 1.89278E-01-6.75193E-14 6.72197E-14
 -1      3259 2.00737E+01 1.42670E-01 1.17992E-03 2.19665E-01-6.02149E-14 1.98815E-13
 -1      3260 2.00341E+01 1.79364E-01-8.72206E-05 2.45196E-01-3.45086E-14 3.88876E-14
 -1      3261 2.00437E+01 9.98911E-02-5.05827E-04 1.37404E-01-4.04419E-14-1.02242E-14
 -1      3262 2.00564E+01 1.13472E-01 9.78136E-04 1.61633E-01-1.23120E-13-6.82520E-14
 -1      3263 2.00288E+01 1.43704E-01-8.33022E-05 1.82087E-01 4.59232E-14-1.90625E-13
 -1      3264 2.00327E+01 7.68985E-02-4.03075E-04 9.67627E-02 1.09627E-13 1.33504E-13
 -1      3265 2.00426E+01 8.83068E-02 7.92043E-04 1.15670E-01-1.04071E-14 5.59468E-14
 -1      3266 2.00240E+01 1.12619E-01-7.92298E-05 1.31828E-01-1.74830E-14-2.48573E-13
 -1      3267 2.00239E+01 5.80440E-02-3.05822E-04 6.56128E-02 1.81825E-13 3.19641E-13
 -1      3268 2.00315E+01 6.73216E-02 6.23377E-04 8.00592E-02 2.31702E-13 2.27645E-13
 -1      3269 2.00196E+01 8.64706E-02-5.53217E-05 9.26519E-02 5.30452E-14 9.10440E-14
 -1      3270 2.00171E+01 4.30069E-02-7.28158E-05 4.23838E-02-4.74055E-14 5.01218E-13
 -1      3271 2.00226E+01 5.01385E-02 4.60271E-04 5.29749E-02 6.96255E-14 4.31007E-13
 -1      3272 2.00154E+01 6.49828E-02-6.20979E-05 6.27035E-02 7.03267E-14 1.19350E-13
 -1      3273 2.00122E+01 3.64168E-02 8.26843E-05 3.08057E-02 1.24254E-13 1.73687E-13
 -1      3274 2.00158E+01 3.96872E-02 2.83790E-04 3.65293E-02 1.51613E-13 4.05850E-13
 -1      3275 2.00117E+01 5.10780E-02-1.15118E-04 4.40190E-02 1.44268E-13 4.98858E-14
 -1      3276 2.00086E+01 4.23075E-02-2.88438E-04 3.29586E-02 2.01418E-13-1.26246E-13
 -1      3277 2.04735E+01-4.60747E+00 1.24406E-01-5.19977E+00-4.45963E-13-2.22548E-13
 -1      3278 2.29488E+01-4.74894E+00-3.02352E-02-3.78900E+00-3.68358E-13-5.37582E-14
 -1      3279 1.99584E+01 2.34622E+00-4.24849E-03 2.34705E-01 1.50382E-13-5.06671E-13
 -1      3280 1.99364E+01 2.39082E+00-3.88035E-03 1.32722E-01 9.13278E-14-5.40791E-13
 -1      3281 1.99856E+01 7.94417E-02 9.19869E-05-2.90126E-02 4.16660E-14-1.13935E-13
 -1      3282 1.99808E+01 8.36836E-02-3.65951E-04-2.44697E-02 2.60866E-14-1.56188E-13
 -1      3283 1.99733E+01 9.26586E-02-1.67915E-04-3.51398E-03-3.97254E-14-9.14289E-14
 -1      3284 1.99732E+01 9.26151E-02-1.61688E-04 3.15821E-03 1.50747E-14-2.10013E-13
 -1      3285 1.99967E+01 6.53572E-02 6.23154E-05-3.53204E-02 3.10632E-13 2.83217E-13
 -1      3286 1.99912E+01 7.13505E-02-3.47636E-04-3.34605E-02 1.47976E-13 2.65199E-13
 -1      3287 1.99857E+01 8.76721E-02 3.89940E-04-3.70574E-02 9.00222E-14 1.77079E-13
 -1      3288 1.99772E+01 8.87780E-02-3.61059E-05-1.76383E-02 3.36247E-14-1.96650E-13
 -1      3289 1.99746E+01 9.09622E-02-2.78028E-04-1.16281E-02 3.47303E-14-1.46751E-13
 -1      3290 1.99685E+01 1.06501E-01 4.32355E-04-8.78875E-03-8.63224E-14-1.06559E-13
 -1      3291 1.99746E+01 1.00061E-01 3.94128E-04-2.48043E-02-8.74520E-14-2.12626E-13
 -1      3292 1.44700E+01-1.70508E+00 3.22396E-02 4.74506E+00-6.41466E-13 3.09336E-13
 -1      3293 1.25628E+01-7.25203E-01 1.53497E-01 4.02466E+00-6.34777E-13 7.54952E-13
 -1      3294 2.71061E+01-1.26241E+00-1.09869E-02 1.34282E+00 1.52239E-14 2.38240E-13
 -1      3295 2.69268E+01-5.50609E-02-1.62155E-01 1.87078E+00 1.76387E-13 2.37019E-13
 -1      3296 2.03840E+01 1.52281E-01 2.14868E-03-1.09045E+00-3.13323E-14-5.10224E-15
 -1      3297 2.03074E+01 1.87434E-01 5.23583E-04-1.04273E+00-2.94596E-14 1.04224E-15
 -1      3298 2.01597E+01 2.44682E-01-2.05453E-03-1.04826E+00-4.63261E-14 2.77109E-14
 -1      3299 2.02219E+01 1.61571E-01-3.16767E-03-1.17756E+00-4.84625E-14 1.37568E-14
 -1      3300 8.82507E+00 1.45297E-01 9.30717E-02-7.65304E-01 7.22822E-14 1.16940E-12
 -1      3301 9.90880E+00-3.83930E-01 5.21838E-02-2.84579E+00 1.61340E-13 7.96543E-13
 -1      3302 2.02087E+01 4.50441E-01-7.28148E-04-2.25402E-01 2.40115E-13-2.15511E-13
 -1      3303 2.02360E+01 5.33893E-01 3.91117E-03-1.01669E-01 2.54950E-13-1.94678E-13
 -1      3304 2.01820E+01 3.42932E-01 4.15606E-04-4.24804E-01 2.43602E-13-2.41251E-13
 -1      3305 2.01908E+01 3.89713E-01 2.83726E-03-3.30646E-01 2.42419E-13-2.17564E-13
 -1      3306 2.02246E+01 5.13920E-01-1.48546E-03-2.61812E-01 2.46387E-13-2.11573E-13
 -1      3307 1.56037E+01-3.06239E+00 2.60334E-02 5.40906E+00 3.78218E-13-6.06792E-13
 -1      3308 1.28002E+01-2.24136E+00 1.72706E-01 5.17511E+00 3.24796E-13-8.54206E-13
 -1      3309 1.26162E+01-1.39103E+00 1.17985E-01 4.33363E+00 2.78097E-13-8.57370E-13
 -1      3310 2.02936E+01 8.58421E-01 2.82281E-03-1.46901E-01-2.53578E-13-3.33834E-13
 -1      3311 2.02609E+01 7.20372E-01-2.32011E-03 1.46972E-02-2.24802E-13-3.26927E-13
 -1      3312 2.02609E+01 7.90839E-01-1.52427E-04 5.81688E-02-1.93856E-13-3.21130E-13
 -1      3313 1.03102E+01-2.15582E-01 1.92255E-02 2.83290E+00-3.79780E-13 9.84615E-13
 -1      3314 9.20583E+00 3.06120E-01 1.45908E-01 8.95824E-01-1.82801E-13 1.05106E-12
 -1      3315 2.67984E+01 1.37958E+00-1.45454E-01-2.14388E+00 6.55552E-13-6.69232E-13
 -1      3316 2.71609E+01-1.06241E-01 1.80248E-02-1.87385E+00 4.55143E-13-7.15532E-13
 -1      3317 1.80789E+01-3.31278E+00 1.59239E-01-5.06808E+00 6.88352E-13 2.19300E-13
 -1      3318 2.10404E+01-4.31887E+00-2.24097E-02-4.33834E+00 5.54487E-13-1.81619E-13
 -1      3319 2.29330E+01-4.38530E+00 1.11358E-01-3.48373E+00 4.33216E-13-2.72395E-13
 -1      3320 2.58820E+01 4.09497E+00-1.42076E-01-1.61368E+00 7.24740E-13-2.32807E-13
 -1      3321 2.65958E+01 2.98945E+00-7.85853E-02-2.17021E+00 6.91419E-13-5.06810E-13
 -1      3322 2.03363E+01 1.06655E+00-2.58394E-04 5.50365E-01 3.74048E-13-2.14472E-13
 -1      3323 2.02964E+01 1.39155E+00 2.09383E-03 6.34569E-01 3.68198E-13-2.91244E-13
 -1      3324 2.02947E+01 1.24009E+00 1.34753E-03 4.43210E-01 3.43553E-13-3.21701E-13
 -1      3325 2.02873E+01 8.67427E-01-2.90436E-03 3.23796E-01 3.55354E-13-2.06341E-13
 -1      3326 1.20560E+01-1.17859E+00 1.56382E-01-4.25083E+00 2.49537E-13 4.77104E-13
 -1      3327 1.45412E+01-2.56172E+00-3.70360E-02-5.24070E+00 5.00766E-13 5.97841E-13
 -1      3328 1.05214E+01-7.87264E-01 1.17634E-01-3.71597E+00-2.25417E-13-7.03937E-13
 -1      3329 1.25146E+01-1.69847E+00 7.99011E-02-4.89987E+00-3.23908E-13-5.99160E-13
 -1      3330 2.02116E+01 1.97411E+00 8.45625E-04-8.93694E-01-3.16250E-13-4.81979E-13
 -1      3331 1.99247E+01 2.41475E+00-3.90308E-03 5.26862E-02 6.30351E-14-5.51327E-13
 -1      3332 1.99238E+01 2.41609E+00-4.01376E-03-5.00783E-02 2.68145E-14-5.57543E-13
 -1      3333 2.00233E+01 2.14524E+00 5.79306E-03 7.20788E-02 6.57470E-14-5.15875E-13
 -1      3334 9.43144E+00 9.34796E-02 1.84921E-01 1.56465E+00 6.36869E-14-8.78686E-13
 -1      3335 9.86462E+00 3.11908E-01 8.41962E-02 3.79795E-01 9.64506E-16-8.29267E-13
 -1      3336 2.09324E+01-4.31972E+00 5.38960E-02 4.54671E+00-4.09804E-13-5.23442E-13
 -1      3337 2.54308E+01-3.54199E+00-6.29284E-02 6.26757E-01-1.19710E-13-6.07743E-13
 -1      3338 2.54171E+01-4.19932E+00-2.76140E-02 1.75167E+00-1.53655E-13-5.80834E-13
 -1      3339 2.41531E+01-4.18660E+00 4.38969E-02 2.42431E+00-2.16428E-13-6.93678E-13
 -1      3340 1.41066E+01-2.08401E+00 1.31029E-01-5.15654E+00-3.64223E-13-5.66609E-13
 -1      3341 1.57306E+01-2.64503E+00 1.41995E-02-5.21583E+00-3.81910E-13-4.95111E-13
 -1      3342 1.38440E+01-1.25999E+00 6.58273E-02-4.38922E+00-2.73559E-13-5.38659E-13
 -1      3343 2.64152E+01 1.00508E+00-8.07158E-02 2.10243E+00 2.52479E-13 2.64198E-13
 -1      3344 2.07662E+01-3.42648E+00 5.62707E-03 3.87891E+00 4.56689E-13 6.34909E-16
 -1      3345 1.99906E+01 7.07182E-02-3.56177E-04 3.31321E-02 1.88610E-13-1.42264E-13
 -1      3346 1.99963E+01 6.48135E-02 1.23503E-04 3.52065E-02 2.58779E-13-2.64114E-13
 -1      3347 2.00757E+01 2.09231E+00-3.30681E-03-4.73648E-01-1.64228E-13-5.35346E-13
 -1      3348 2.01321E+01 1.94920E+00-6.46970E-03-5.61861E-01-2.18125E-13-5.43805E-13
 -1      3349 1.70515E+01-2.49859E+00 7.45150E-02-4.61783E+00 6.19733E-13 1.94181E-13
 -1      3350 2.03097E+01 1.21474E+00-5.80759E-04-4.77387E-01-2.93287E-13-3.91243E-13
 -1      3351 2.02865E+01 1.02082E+00-3.58918E-03-2.88048E-01-2.83206E-13-3.72196E-13
 -1      3352 2.02850E+01 1.09145E+00 1.30592E-03-2.19759E-01-2.44499E-13-3.86602E-13
 -1      3353 2.35683E+01 2.94142E+00-9.37663E-03-9.80251E-01 5.22291E-13-3.21956E-14
 -1      3354 2.48534E+01 4.15788E+00-8.04007E-02-8.15560E-01 6.68361E-13-1.76179E-14
 -1      3355 2.53631E+01 4.02628E+00-1.28335E-01-1.35602E+00 6.72844E-13-1.34410E-13
 -1      3356 2.37204E+01 2.27188E+00-6.49782E-02-1.58370E+00 4.51816E-13-2.90956E-13
 -1      3357 2.02313E+01 1.60227E+00 5.68253E-03 4.46731E-01 3.11051E-13-4.05646E-13
 -1      3358 2.01362E+01 1.93432E+00-6.16315E-03 5.64433E-01 3.26459E-13-4.50313E-13
 -1      3359 2.00813E+01 2.07560E+00-3.60677E-03 4.79548E-01 2.93632E-13-4.70212E-13
 -1      3360 1.21699E+01-4.10474E-01 1.30784E-01-3.20030E+00 2.49325E-13 5.79668E-13
 -1      3361 2.57911E+01 1.69393E+00-7.30942E-02-2.14795E+00 5.82319E-13-4.04121E-13
 -1      3362 2.02350E+01 1.66616E+00-1.62057E-03-6.78228E-01-2.93429E-13-4.58266E-13
 -1      3363 1.06750E+01 5.51823E-01 1.32365E-01-1.37717E-02-9.56093E-14 9.64895E-13
 -1      3364 1.71973E+01-2.53315E+00 1.99901E-02 4.70597E+00-6.17600E-13 8.40508E-14
 -1      3365 1.57980E+01-2.05229E+00 9.94517E-02 4.85332E+00-6.31030E-13 2.12635E-13
 -1      3366 1.54232E+01-1.23582E+00 2.88692E-02 4.11293E+00-6.81460E-13 2.43854E-13
 -1      3367 2.01747E+01 2.86393E-01 1.23511E-03-5.86541E-01 1.52252E-13-1.74886E-13
 -1      3368 2.01652E+01 3.10291E-01 1.58755E-03-5.10072E-01 2.09369E-13-2.15253E-13
 -1      3369 2.01839E+01 4.00404E-01-1.48663E-03-4.60082E-01 1.87116E-13-2.43504E-13
 -1      3370 2.01353E+01 3.09111E-01-1.33903E-03-7.73233E-01 2.11167E-14-1.26121E-13
 -1      3371 2.01884E+01 2.58490E-01 1.77552E-03-7.27016E-01 5.74551E-15-1.23942E-13
 -1      3372 2.01624E+01 2.70019E-01 6.63162E-04-6.60373E-01 7.84253E-14-1.55580E-13
 -1      3373 2.46117E+01 2.11243E+00-4.62593E-02-1.92681E+00 4.76810E-13-2.15862E-13
 -1      3374 1.92560E+01-4.02690E+00 6.73001E-02-5.15737E+00-4.57676E-13-3.29403E-13
 -1      3375 1.99908E+01 2.27851E+00-3.79200E-03 3.11776E-01 2.03375E-13-4.81726E-13
 -1      3376 2.00652E+01 2.05403E+00 6.00880E-03 2.13346E-01 1.69914E-13-4.50820E-13
 -1      3377 2.00317E+01 2.18833E+00-4.96878E-03 4.09182E-01 2.61259E-13-4.74268E-13
 -1      3378 1.99806E+01 8.30397E-02-3.57297E-04 2.42029E-02 1.37869E-13-3.53832E-13
 -1      3379 1.99853E+01 7.87896E-02 1.07393E-04 2.87085E-02 1.51567E-13-3.68153E-14
 -1      3380 1.99850E+01 8.64550E-02 2.25934E-04 3.67552E-02 1.61020E-13-1.21381E-13
 -1      3381 1.25505E+01-7.72097E-02 7.81560E-02 2.87842E+00-4.47684E-13 6.68077E-13
 -1      3382 1.99745E+01 9.06798E-02-2.82421E-04 1.13045E-02 9.10890E-14-4.44869E-13
 -1      3383 1.99771E+01 8.83668E-02-2.77239E-05 1.74105E-02 1.79893E-13-6.49919E-13
 -1      3384 1.99744E+01 9.92997E-02 3.76547E-04 2.46110E-02 1.34792E-13-5.41154E-13
 -1      3385 1.99685E+01 1.06247E-01 4.22796E-04 8.60558E-03 1.11861E-13-4.15043E-13
 -1      3386 2.62825E+01-2.27496E+00-2.97185E-02 5.72580E-01-1.05547E-13 2.57301E-13
 -1      3387 2.59703E+01 4.32497E+00-8.21226E-02 1.27021E+00 5.80397E-13 1.95451E-13
 -1      3388 2.42751E+01-4.46735E+00 3.43743E-02-2.75180E+00-2.98081E-13 4.29101E-14
 -1      3389 2.48076E+01-3.90251E+00-1.22473E-02-1.50366E+00-2.66280E-13 9.54341E-14
 -1      3390 2.25720E+01-4.22844E+00-3.14341E-03-3.34861E+00-3.75970E-13-7.07680E-14
 -1      3391 1.75166E+01-3.49506E+00 8.89353E-02 5.31866E+00 4.35374E-13-4.18644E-13
 -1      3392 1.63334E+01-2.60715E+00 3.81431E-02 4.88860E+00 3.81070E-13-4.57460E-13
 -1      3393 1.90493E+01-3.87174E+00-3.05980E-02 4.93722E+00 4.45852E-13-2.66634E-13
 -1      3394 2.63804E+01-1.38148E+00-4.00782E-02-1.24084E+00 2.91014E-13-6.25985E-13
 -1      3395 1.03526E+01-1.92407E-01 5.88410E-02 2.45619E+00 1.26373E-13-8.74259E-13
 -1      3396 2.14233E+01-3.78098E+00 8.92350E-03-3.70072E+00 5.42510E-13-1.30694E-13
 -1      3397 2.00042E+01 5.75903E-02-1.83954E-04-3.98097E-02 2.75729E-13-6.05656E-14
 -1      3398 2.00000E+01 6.10933E-02-2.87061E-04-3.78141E-02 3.22962E-13-1.00985E-14
 -1      3399 1.99954E+01 7.58701E-02 3.15433E-05-4.38257E-02 2.57160E-13 1.90905E-13
 -1      3400 2.00048E+01 6.74605E-02 2.55189E-04-4.81978E-02 2.35189E-13-1.89455E-13
 -1      3401 2.02449E+01 6.08550E-01-1.88305E-03 1.25360E-02 2.83754E-13-2.00569E-13
 -1      3402 2.02874E+01 7.40954E-01 3.79774E-03 1.78697E-01 3.23951E-13-1.98595E-13
 -1      3403 2.02953E+01 9.08146E-01-7.66495E-04 2.39842E-01 3.33845E-13-2.24809E-13
 -1      3404 2.02641E+01 6.80293E-01-1.39414E-03-3.20490E-02 2.69888E-13-2.09421E-13
 -1      3405 1.99862E+01 2.29018E+00-3.52652E-03-3.07216E-01-7.34300E-14-5.67582E-13
 -1      3406 2.00255E+01 2.20244E+00-4.95556E-03-4.05573E-01-1.35364E-13-5.61729E-13
 -1      3407 2.01311E+01 1.88762E+00 4.72040E-03-3.37441E-01-1.56594E-13-5.16754E-13
 -1      3408 2.05766E+01-2.79770E+00 9.65614E-02-3.64437E+00 4.99910E-13 2.55317E-14
 -1      3409 2.24010E+01-4.30298E+00-2.12930E-02 3.60070E+00-2.80241E-13-7.18975E-13
 -1      3410 2.00451E+01-3.61847E+00 4.07823E-02 4.40325E+00-4.60854E-13-4.67907E-13
 -1      3411 1.82431E+01-2.35034E+00-3.23386E-02-4.10056E+00 5.82926E-13 1.21764E-13
 -1      3412 1.90825E+01-1.82544E+00 2.25745E-02-3.48406E+00 4.08862E-13 1.55691E-13
 -1      3413 1.57920E+01-1.20885E+00 1.04363E-01-4.09064E+00 5.03736E-13 2.50196E-13
 -1      3414 1.38460E+01-1.31906E-01-2.53183E-02 2.98010E+00-5.52108E-13 5.07049E-13
 -1      3415 1.24787E+01 6.47951E-01 1.03101E-01 1.81643E+00-3.30349E-13 6.33254E-13
 -1      3416 2.02352E+01 1.52280E+00 3.01801E-03-3.89036E-01-2.29037E-13-4.58041E-13
 -1      3417 2.02130E+01 1.70677E+00 9.79914E-04-5.61458E-01-2.64373E-13-4.75437E-13
 -1      3418 2.43831E+01-4.75161E+00 3.79009E-02 2.88984E+00 4.08021E-13 7.19286E-14
 -1      3419 2.01395E+01 6.01002E-01 1.60172E-04 4.09185E-01-1.48823E-13-2.72278E-13
 -1      3420 2.01010E+01 5.68284E-01-4.08878E-04 5.01246E-01-1.43728E-13-2.52202E-13
 -1      3421 2.00384E+01 5.52074E-01-7.44492E-04 5.78871E-01-1.35840E-13-2.24967E-13
 -1      3422 1.99964E+01 5.49765E-01 2.76202E-04 6.62386E-01-8.67022E-14-2.00791E-13
 -1      3423 2.00349E+01 6.37350E-01 1.33721E-03 4.95206E-01-1.06000E-13-2.58081E-13
 -1      3424 1.99162E+01 5.57954E-01-1.75203E-03 7.36394E-01-7.69048E-14-1.90881E-13
 -1      3425 1.98696E+01 5.76154E-01 8.05377E-04 8.18178E-01-4.23702E-14-2.15649E-13
 -1      3426 1.98941E+01 6.26900E-01 1.73814E-03 6.45250E-01-8.33310E-14-2.05410E-13
 -1      3427 1.97708E+01 5.98866E-01-2.74383E-03 8.94330E-01 1.41058E-14-2.49917E-13
 -1      3428 1.97186E+01 6.27368E-01 1.29581E-03 9.79789E-01 3.52864E-14-2.14550E-13
 -1      3429 1.97206E+01 6.61936E-01 2.35023E-03 7.91796E-01-3.44608E-14-1.83862E-13
 -1      3430 1.95992E+01 6.53679E-01-3.73180E-03 1.06342E+00 1.53772E-14-2.19399E-13
 -1      3431 1.95412E+01 6.80466E-01 1.95676E-03 1.15697E+00-5.68878E-15-1.76373E-13
 -1      3432 1.95105E+01 7.20822E-01 3.07790E-03 9.45578E-01 1.47448E-14-2.13992E-13
 -1      3433 1.93992E+01 6.96551E-01-4.75144E-03 1.25392E+00-4.06886E-14-1.22227E-13
 -1      3434 1.93391E+01 7.05827E-01 3.12517E-03 1.35984E+00-1.62302E-14-1.38002E-13
 -1      3435 1.92595E+01 7.78839E-01 3.81659E-03 1.11759E+00 9.18593E-15-1.98593E-13
 -1      3436 1.91742E+01 6.92594E-01-5.82691E-03 1.47817E+00 1.50922E-14-1.58692E-13
 -1      3437 1.91231E+01 6.62187E-01 5.33286E-03 1.60183E+00 5.31665E-14-1.75511E-13
 -1      3438 1.89646E+01 8.04297E-01 4.30494E-03 1.32205E+00-1.42295E-14-1.52075E-13
 -1      3439 1.89393E+01 5.92354E-01-6.82683E-03 1.75448E+00 6.04248E-14-1.92629E-13
 -1      3440 1.89223E+01 4.90117E-01 9.29363E-03 1.90334E+00 6.52828E-14-1.78311E-13
 -1      3441 1.86282E+01 7.53883E-01 4.13401E-03 1.58124E+00 4.13825E-14-2.10624E-13
 -1      3442 1.87357E+01 3.24472E-01-6.93417E-03 2.11049E+00 1.02807E-13-1.73398E-13
 -1      3443 1.88016E+01 1.04116E-01 1.60032E-02 2.29273E+00 1.23800E-13-1.45586E-13
 -1      3444 1.82663E+01 5.64050E-01 2.32638E-03 1.93245E+00 9.88537E-14-1.95207E-13
 -1      3445 1.86550E+01-2.07348E-01-1.90193E-03 2.57950E+00 1.89012E-13-1.33549E-13
 -1      3446 1.88806E+01-6.15908E-01 2.37274E-02 2.80246E+00 3.03822E-13-1.13764E-13
 -1      3447 1.79255E+01 1.39435E-01-2.48696E-03 2.43018E+00 1.64129E-13-1.72592E-13
 -1      3448 1.88677E+01-1.06938E+00 3.47570E-02 3.17544E+00 3.69428E-13-9.35671E-14
 -1      3449 1.92682E+01-1.82899E+00 1.40106E-02 3.48284E+00 4.06029E-13-6.96535E-14
 -1      3450 1.77240E+01-6.67088E-01-1.05853E-02 3.13544E+00 3.59467E-13-1.49274E-13
 -1      3451 1.80221E+01-3.16798E+00 1.13443E-01-5.09998E+00-3.92138E-13-4.29136E-13
 -1      3452 2.00754E+01-3.72490E+00-8.00328E-03-4.39628E+00-3.50397E-13-2.70756E-13
 -1      3453 1.70928E+01-2.39271E+00 4.28051E-02-4.64084E+00-2.96697E-13-4.67907E-13
 -1      3454 2.34436E+01-2.45875E+00 3.44845E-02 5.99928E-01-1.93483E-13-4.22829E-13
 -1      3455 2.39797E+01-2.48396E+00 1.11494E-02 8.50902E-02-2.34930E-13-6.26012E-13
 -1      3456 1.86609E+01-1.08580E+00 3.40723E-02-3.20087E+00 4.89816E-13 2.37867E-13
 -1      3457 1.87084E+01-5.72449E-01 3.32594E-02-2.78863E+00 4.05940E-13 1.53797E-13
 -1      3458 1.84696E+01-1.47190E-01 7.62791E-03-2.55457E+00 3.13227E-13 1.17313E-13
 -1      3459 1.71838E+01-6.79873E-01-2.54905E-02-3.22974E+00 4.05657E-13 3.88231E-14
 -1      3460 1.86395E+01 1.70339E-01 1.98512E-02-2.23427E+00 2.35387E-13 1.45894E-13
 -1      3461 1.85679E+01 4.05547E-01-1.42366E-03-2.04222E+00 2.51304E-13 4.98088E-14
 -1      3462 1.75002E+01 2.12039E-01-2.32828E-03-2.41872E+00 3.28415E-13 1.25585E-13
 -1      3463 1.87708E+01 5.74177E-01 1.10455E-02-1.81335E+00 3.15502E-13 1.43164E-14
 -1      3464 1.87827E+01 6.85369E-01-4.22606E-03-1.65508E+00 2.17086E-13 5.31572E-14
 -1      3465 1.79158E+01 6.64949E-01 1.67302E-03-1.86048E+00 2.52198E-13 6.21515E-14
 -1      3466 1.89754E+01 7.57879E-01 5.92877E-03-1.48864E+00 1.43475E-13 2.12800E-14
 -1      3467 1.90206E+01 7.92437E-01-4.76662E-03-1.35561E+00 1.09801E-13 1.20424E-13
 -1      3468 1.83253E+01 8.72781E-01 3.88215E-03-1.47534E+00 2.38273E-13-7.68210E-14
 -1      3469 1.91888E+01 8.05919E-01 3.34676E-03-1.22783E+00 9.52389E-14 1.50697E-13
 -1      3470 1.92412E+01 7.95268E-01-4.51028E-03-1.11372E+00 8.97374E-14 1.42272E-13
 -1      3471 1.86874E+01 9.32146E-01 4.45063E-03-1.19473E+00 7.55484E-14-1.44100E-14
 -1      3472 1.93814E+01 7.74740E-01 2.11935E-03-1.01072E+00-6.76616E-14 1.18959E-13
 -1      3473 1.94291E+01 7.39789E-01-3.97464E-03-9.11766E-01-8.05496E-14 8.75929E-14
 -1      3474 1.89919E+01 9.03169E-01 4.15762E-03-9.77091E-01 1.73033E-14 8.67739E-14
 -1      3475 1.95424E+01 7.01720E-01 1.58260E-03-8.25953E-01-1.61387E-13 1.58493E-13
 -1      3476 1.95812E+01 6.55822E-01-3.36613E-03-7.40221E-01-2.44585E-13 1.73450E-13
 -1      3477 1.92398E+01 8.25578E-01 3.52175E-03-7.99550E-01-1.04624E-13 1.08194E-13
 -1      3478 1.96707E+01 6.10635E-01 1.35795E-03-6.67630E-01-1.94627E-13 2.35534E-13
 -1      3479 1.96999E+01 5.61947E-01-2.77590E-03-5.94020E-01-1.84205E-13 1.86384E-13
 -1      3480 1.94366E+01 7.25228E-01 2.80869E-03-6.50249E-01-1.81977E-13 3.43633E-13
 -1      3481 1.97693E+01 5.15940E-01 1.24798E-03-5.32531E-01-2.03191E-13 1.56295E-13
 -1      3482 1.97902E+01 4.69162E-01-2.24310E-03-4.70186E-01-7.05059E-14 1.24223E-13
 -1      3483 1.95898E+01 6.18449E-01 2.14622E-03-5.23252E-01-2.40124E-13 2.49615E-13
 -1      3484 1.98431E+01 4.25899E-01 1.16170E-03-4.18489E-01 6.27003E-14 1.67693E-13
 -1      3485 1.98573E+01 3.83493E-01-1.78220E-03-3.66507E-01 1.93129E-13 1.73105E-13
 -1      3486 1.97070E+01 5.15050E-01 1.58573E-03-4.15438E-01-1.30826E-14 3.93646E-13
 -1      3487 1.98969E+01 3.44777E-01 1.06543E-03-3.23575E-01 1.18969E-13 1.56117E-13
 -1      3488 1.99060E+01 3.07803E-01-1.39531E-03-2.80940E-01-6.00830E-15 8.73291E-14
 -1      3489 1.97951E+01 4.20464E-01 1.13821E-03-3.24805E-01 1.49784E-13 2.21824E-13
 -1      3490 1.99352E+01 2.74336E-01 9.53180E-04-2.45810E-01-8.33864E-14 5.38567E-14
 -1      3491 1.99407E+01 2.43013E-01-1.07769E-03-2.11415E-01-2.26830E-13-1.13270E-13
 -1      3492 1.98602E+01 3.37247E-01 7.94600E-04-2.49667E-01-4.61463E-14-4.45878E-14
 -1      3493 1.99618E+01 2.14837E-01 8.32314E-04-1.83125E-01-2.12073E-13-3.95073E-14
 -1      3494 1.99646E+01 1.88869E-01-8.34100E-04-1.55823E-01-2.90392E-14-4.71235E-15
 -1      3495 1.99076E+01 2.66130E-01 5.34240E-04-1.88360E-01-1.05326E-13-1.53994E-14
 -1      3496 1.99797E+01 1.65812E-01 7.64477E-04-1.33423E-01-5.86861E-14-1.62123E-13
 -1      3497 1.99808E+01 1.44511E-01-6.15249E-04-1.12042E-01-6.45498E-14-2.08439E-13
 -1      3498 1.99412E+01 2.06634E-01 3.01136E-04-1.39211E-01-7.47266E-14 6.84028E-14
 -1      3499 1.99914E+01 1.25796E-01 7.24903E-04-9.46839E-02 1.07235E-13-1.24655E-13
 -1      3500 1.99914E+01 1.09502E-01-1.32968E-04-7.85430E-02 1.59371E-13 8.30315E-14
 -1      3501 1.99639E+01 1.57526E-01-1.22197E-04-1.00482E-01 1.18948E-13 2.66113E-14
 -1      3502 2.07186E+01-7.25041E-01 3.81354E-03-1.55200E+00-1.16276E-13 4.79515E-14
 -1      3503 2.04980E+01-4.75486E-01 8.33024E-03-1.55836E+00-1.04020E-13 5.75594E-14
 -1      3504 2.03527E+01-2.71234E-01 4.48922E-03-1.48781E+00-1.26595E-13 1.43231E-14
 -1      3505 2.02118E+01-1.03010E-01 3.95428E-03-1.45284E+00-7.94371E-14-1.55927E-14
 -1      3506 2.00693E+01-3.63673E-01-1.15348E-02-1.66372E+00-1.42736E-13-1.89082E-14
 -1      3507 2.01520E+01 2.92768E-02 4.09050E-03-1.36818E+00-5.00972E-14-4.93709E-14
 -1      3508 2.00678E+01 1.30985E-01 1.34440E-03-1.31230E+00-3.23810E-14-5.20718E-14
 -1      3509 1.98896E+01 2.12143E-03-6.60377E-03-1.48406E+00-7.89773E-14-4.78946E-15
 -1      3510 2.13185E+01-1.33342E+00 1.48867E-03-1.49745E+00-2.07493E-13 4.99089E-14
 -1      3511 2.09974E+01-1.00731E+00 1.50463E-02-1.57964E+00-1.81725E-13 1.89554E-14
 -1      3512 2.04491E+01-9.12721E-01-1.88976E-02-1.80472E+00-1.48890E-13 9.60343E-15
 -1      3513 2.22064E+01-2.01519E+00-3.69859E-03-1.22354E+00-1.55659E-13 1.49370E-13
 -1      3514 2.17845E+01-1.66844E+00 2.44043E-02-1.42889E+00-1.50507E-13 1.31616E-13
 -1      3515 2.11254E+01-1.63814E+00-2.62603E-02-1.83313E+00-2.27823E-13-2.94426E-15
 -1      3516 2.33455E+01-2.54235E+00-1.91857E-02-5.87592E-01-1.12626E-13 1.97724E-13
 -1      3517 2.28956E+01-2.31877E+00 2.91496E-02-9.64138E-01-1.46183E-13 1.61274E-13
 -1      3518 2.22366E+01-2.41086E+00-1.97158E-02-1.55907E+00-1.49060E-13 7.83002E-14
 -1      3519 2.55227E+01-2.49132E-01-8.54238E-03 1.97580E+00 7.96516E-14 3.56843E-13
 -1      3520 2.53396E+01-1.37615E+00-4.87972E-02 1.45392E+00 4.38018E-16 2.99337E-13
 -1      3521 2.55226E+01 1.44205E+00-7.13559E-02 2.18364E+00 2.44235E-13 3.08462E-13
 -1      3522 2.22016E+01-1.89232E+00 3.00616E-02 1.21266E+00-2.06104E-13-3.15279E-13
 -1      3523 2.26555E+01-2.21180E+00-3.09637E-03 9.48678E-01-1.22041E-13-2.46632E-13
 -1      3524 2.27860E+01-2.63068E+00-2.21959E-02 1.28840E+00-2.98142E-13-4.90814E-13
 -1      3525 2.12752E+01-1.20348E+00 1.88906E-02 1.46132E+00-1.38355E-13-3.73581E-13
 -1      3526 2.16368E+01-1.55758E+00-2.04798E-03 1.34571E+00-1.56674E-13-2.85984E-13
 -1      3527 2.14944E+01-1.92969E+00-3.66098E-02 1.70099E+00-1.87536E-13-3.35204E-13
 -1      3528 2.06663E+01-6.10547E-01 1.13359E-02 1.48380E+00-2.77892E-13-7.18309E-14
 -1      3529 2.09263E+01-8.95466E-01 3.43229E-03 1.45820E+00-2.83904E-13-2.47179E-13
 -1      3530 2.06704E+01-1.11743E+00-1.86248E-02 1.74637E+00-3.11391E-13-1.06094E-13
 -1      3531 2.02919E+01-1.68135E-01 5.73080E-03 1.39013E+00-1.69715E-13 3.38233E-14
 -1      3532 2.04642E+01-3.71007E-01 4.15652E-03 1.41966E+00-1.71581E-13 1.85326E-14
 -1      3533 2.01685E+01-4.94375E-01-1.36534E-02 1.63250E+00-2.88526E-13 2.68492E-15
 -1      3534 2.00845E+01 1.22128E-01 2.31291E-03 1.24245E+00-6.67337E-14-1.00801E-15
 -1      3535 2.01926E+01-6.04915E-03 3.99327E-03 1.30069E+00-1.04952E-13 9.37347E-16
 -1      3536 1.98998E+01-5.00225E-02-7.96302E-03 1.44827E+00-1.70527E-13 1.28527E-13
 -1      3537 1.99821E+01 2.89791E-01 3.11334E-04 1.07667E+00 1.13730E-13 3.28279E-14
 -1      3538 2.00472E+01 2.19470E-01 3.37079E-03 1.14759E+00 4.03382E-14 6.42466E-14
 -1      3539 1.97813E+01 2.27424E-01-4.13340E-03 1.24759E+00-6.41648E-14 8.54283E-14
 -1      3540 1.99408E+01 3.69009E-01-7.58646E-04 9.11229E-01-7.33852E-14 2.09740E-13
 -1      3541 1.99792E+01 3.39246E-01 2.71275E-03 9.85433E-01 2.01721E-14-3.32350E-15
 -1      3542 1.97490E+01 3.78514E-01-1.88361E-03 1.05384E+00 4.25429E-14 1.80570E-13
 -1      3543 1.99324E+01 3.89061E-01-1.27401E-03 7.55619E-01 2.18125E-13-6.05421E-14
 -1      3544 1.99552E+01 3.85772E-01 2.21533E-03 8.27438E-01 1.21776E-13 1.60606E-14
 -1      3545 1.97623E+01 4.41872E-01-5.94773E-04 8.75718E-01 7.53534E-14 1.84980E-14
 -1      3546 1.99399E+01 3.72617E-01-1.45751E-03 6.14867E-01-1.06950E-13 8.85440E-14
 -1      3547 1.99538E+01 3.85187E-01 1.84822E-03 6.80987E-01 1.09560E-13 1.18502E-13
 -1      3548 1.97966E+01 4.48044E-01 8.44749E-05 7.16543E-01 5.55894E-14-5.04657E-14
 -1      3549 1.99534E+01 3.36038E-01-1.44713E-03 4.91303E-01-1.84879E-13 7.11731E-16
 -1      3550 1.99626E+01 3.56950E-01 1.56807E-03 5.49976E-01-2.33452E-13 8.79350E-14
 -1      3551 1.98373E+01 4.19876E-01 3.94061E-04 5.77333E-01-1.55796E-13 1.25273E-13
 -1      3552 1.99677E+01 2.90455E-01-1.33065E-03 3.85505E-01 5.62764E-14 2.13670E-13
 -1      3553 1.99743E+01 3.14682E-01 1.34069E-03 4.36054E-01-6.17195E-14 1.38048E-13
 -1      3554 1.98767E+01 3.73547E-01 4.92857E-04 4.57878E-01-1.38830E-13 4.85099E-14
 -1      3555 1.99803E+01 2.43014E-01-1.16420E-03 2.96897E-01-7.59995E-14-1.62349E-14
 -1      3556 1.99855E+01 2.67388E-01 1.14479E-03 3.39367E-01 1.05622E-13 1.14442E-13
 -1      3557 1.99110E+01 3.19930E-01 4.80434E-04 3.57201E-01 9.59197E-14 1.28284E-13
 -1      3558 1.99902E+01 1.97984E-01-9.81190E-04 2.24176E-01-8.31198E-15-1.79354E-13
 -1      3559 1.99946E+01 2.20659E-01 9.69700E-04 2.59072E-01-1.16250E-13-1.85251E-13
 -1      3560 1.99391E+01 2.65916E-01 4.16514E-04 2.73824E-01 4.15888E-14-2.12970E-13
 -1      3561 1.99973E+01 1.57647E-01-8.03239E-04 1.65612E-01 9.21185E-15-1.74539E-13
 -1      3562 2.00011E+01 1.77691E-01 8.12922E-04 1.93711E-01 1.02086E-14-1.59357E-13
 -1      3563 1.99607E+01 2.15559E-01 3.37272E-04 2.05966E-01-7.88681E-15-2.17842E-13
 -1      3564 2.00019E+01 1.22923E-01-6.37180E-04 1.19310E-01-9.47911E-14-9.40459E-14
 -1      3565 2.00053E+01 1.40007E-01 6.75439E-04 1.41483E-01 3.58132E-14-1.52599E-13
 -1      3566 1.99766E+01 1.70896E-01 2.46627E-04 1.51638E-01-2.87901E-14-4.51919E-14
 -1      3567 2.00045E+01 9.37136E-02-5.37887E-04 8.35865E-02 3.53610E-14-1.55238E-14
 -1      3568 2.00075E+01 1.07825E-01 4.94735E-04 1.00494E-01-1.26877E-13-1.98529E-13
 -1      3569 1.99878E+01 1.32659E-01 1.78625E-04 1.08817E-01-2.16862E-14-1.38738E-13
 -1      3570 2.00056E+01 7.02462E-02-2.61367E-04 5.61920E-02 6.78888E-14-1.12622E-13
 -1      3571 2.00080E+01 8.16502E-02 4.00221E-04 6.90782E-02 1.28405E-13-1.24334E-13
 -1      3572 1.99951E+01 1.01471E-01 3.08519E-04 7.59957E-02 1.33263E-13-1.60517E-13
 -1      3573 2.00441E+01 3.45495E-01 2.13127E-03-9.33736E-01-5.31331E-14-1.08702E-13
 -1      3574 2.00378E+01 3.57423E-01-6.14754E-04-8.63735E-01-1.78676E-14-1.48930E-13
 -1      3575 1.10141E+01 5.20038E-01 2.04946E-02 5.06488E-01 3.34533E-14-7.39679E-13
 -1      3576 1.06472E+01 5.70153E-01 1.30586E-01-6.27332E-01 3.36797E-15-7.54119E-13
 -1      3577 2.00006E+01 5.63647E-02-2.93786E-04 3.52853E-02 1.74651E-13-4.24779E-13
 -1      3578 2.00051E+01 5.02703E-02 3.48371E-05 3.47094E-02 2.19045E-13-3.24038E-13
 -1      3579 2.00062E+01 5.46397E-02 4.53475E-05 3.97809E-02 2.32946E-13-2.84515E-13
 -1      3580 1.99964E+01 7.05193E-02 3.58501E-05 4.13825E-02 2.25897E-13-1.70322E-13
 -1      3581 2.54924E+01-3.31120E+00 4.63050E-03-3.89278E-01-2.32083E-13 1.40440E-13
 -1      3582 2.56339E+01-2.04232E+00-2.59894E-02 8.65846E-01-8.87450E-14 2.48176E-13
 -1      3583 2.47122E+01-2.25320E+00-1.14617E-02 6.10673E-01-9.90813E-14 2.11722E-13
 -1      3584 2.43374E+01-3.55022E+00-1.70239E-02-1.23281E+00-2.17451E-13 1.32585E-13
 -1      3585 1.99836E+01 9.73179E-02 2.26838E-04-4.74568E-02 2.46368E-13 4.97884E-13
 -1      3586 1.99752E+01 1.03664E-01-6.25759E-04-4.19929E-02 1.12283E-13 1.00445E-13
 -1      3587 1.39843E+01-1.19216E+00 3.90015E-02 4.10810E+00 3.42915E-13-7.43239E-13
 -1      3588 1.21525E+01-4.13818E-01 1.59966E-01 3.44116E+00 2.84828E-13-8.50833E-13
 -1      3589 2.02213E+01 5.63986E-01-1.02953E-03-2.96607E-01 2.27039E-13-2.44441E-13
 -1      3590 2.02480E+01 6.48344E-01 2.16624E-03-1.84232E-01 2.27256E-13-2.62978E-13
 -1      3591 1.03220E+01 2.51061E-01 6.29944E-02-1.56315E+00-5.32421E-14-7.30513E-13
 -1      3592 1.00851E+01-2.34026E-01 1.30173E-01-2.77068E+00-1.47243E-13-7.71633E-13
 -1      3593 1.20085E+01-2.70863E-01 7.79182E-02-3.08965E+00-1.31251E-13-6.54171E-13
 -1      3594 1.15174E+01 5.01284E-01 4.47933E-02-1.28434E+00-4.97011E-14-6.54414E-13
 -1      3595 2.56873E+01-7.83808E-01-7.63730E-02-1.73051E+00 2.78519E-13-6.19352E-13
 -1      3596 2.59923E+01-2.15267E+00 5.35236E-02-8.08568E-01-4.03427E-14-7.26995E-13
 -1      3597 1.99345E+01 2.39606E+00-3.68227E-03-1.29498E-01 2.03360E-15-5.72768E-13
 -1      3598 1.99545E+01 2.35426E+00-4.31156E-03-2.31334E-01-4.59645E-14-5.62427E-13
 -1      3599 2.00586E+01 2.06384E+00 5.24775E-03-2.10675E-01-6.03426E-14-5.37489E-13
 -1      3600 1.22101E+01 3.69963E-01 5.66368E-02-2.13479E+00 2.55316E-13 6.48620E-13
 -1      3601 1.37317E+01-5.28023E-01-6.17513E-03-3.50846E+00 3.31868E-13 3.08323E-13
 -1      3602 1.55732E+01-3.86608E-01 6.47700E-02-3.20705E+00 3.44551E-13 1.13621E-13
 -1      3603 2.49361E+01 3.16334E+00-2.53367E-02-1.78345E+00 6.57883E-13-1.66693E-13
 -1      3604 2.02625E+01 9.57248E-01 1.38083E-04-2.45528E-02-1.88968E-13-3.65444E-13
 -1      3605 2.02409E+01 8.28336E-01-1.70668E-03 1.09990E-01-1.67451E-13-3.50226E-13
 -1      3606 2.02170E+01 7.27339E-01 7.55658E-04 2.12994E-01-1.36114E-13-3.38045E-13
 -1      3607 2.01840E+01 6.52951E-01-1.08379E-03 3.22137E-01-1.32836E-13-3.05592E-13
 -1      3608 2.01439E+01 7.13894E-01 1.06193E-03 3.30466E-01-1.17314E-13-3.23823E-13
 -1      3609 1.20613E+01 3.14491E-03 7.20944E-02 2.52421E+00 1.99857E-13-7.59559E-13
 -1      3610 1.16504E+01 7.28591E-01-1.10910E-02 5.16613E-01-2.14135E-13 7.13082E-13
 -1      3611 1.16575E+01 7.06789E-01 5.51808E-02-1.03383E+00 3.40743E-14 7.39596E-13
 -1      3612 1.33795E+01 7.21726E-01 7.35189E-02-1.46484E+00 1.23122E-13 4.65301E-13
 -1      3613 2.33549E+01-3.84432E+00 4.24216E-02 2.43924E+00-3.36699E-13-5.59140E-13
 -1      3614 1.99725E+01 1.24839E-01-5.80472E-04-6.79766E-02 1.98432E-13 3.57176E-13
 -1      3615 1.99908E+01 1.01226E-01 3.15082E-04-6.35155E-02 1.52972E-13 1.79747E-13
 -1      3616 1.37601E+01-4.82223E-01 1.04371E-01-3.59745E+00-1.56299E-13-4.89705E-13
 -1      3617 1.47715E+01-1.00231E+00 6.05094E-03-3.90841E+00-1.94018E-13-4.79922E-13
 -1      3618 1.54893E+01-4.62457E-01 9.11264E-02 3.39616E+00-5.88632E-13 2.68754E-13
 -1      3619 1.49795E+01 1.02163E-01 2.41930E-03 2.60488E+00-3.97973E-13 3.60609E-13
 -1      3620 1.99980E+01 8.22649E-02-2.79937E-04-5.61896E-02 1.34251E-13 1.26887E-13
 -1      3621 1.53502E+01-1.46908E+00 1.41108E-01 4.39987E+00 3.78517E-13-6.05155E-13
 -1      3622 1.45762E+01-7.88445E-01 3.61237E-02 3.74577E+00 3.93540E-13-6.65121E-13
 -1      3623 1.68400E+01-2.00201E+00 9.74705E-02 4.35251E+00 4.18209E-13-3.75450E-13
 -1      3624 1.32281E+01 8.58690E-01 5.37330E-02 8.67781E-01-1.96358E-13 5.17038E-13
 -1      3625 1.31253E+01 9.59768E-02 1.60984E-02 2.53910E+00 2.55325E-13-6.49439E-13
 -1      3626 1.19351E+01 5.70381E-01 1.26230E-01 1.63332E+00 1.26181E-13-6.44720E-13
 -1      3627 1.22776E+01 6.80250E-01 5.01383E-02 7.26508E-01 9.54584E-14-6.31821E-13
 -1      3628 2.01728E+01-3.20476E+00-9.80150E-03-3.87466E+00-2.76053E-13-1.99413E-13
 -1      3629 2.15588E+01-3.79865E+00 5.79205E-02-3.73787E+00-3.57995E-13-1.42737E-13
 -1      3630 2.25587E+01-3.69805E+00 6.25950E-03-2.75841E+00-2.91786E-13-6.26209E-14
 -1      3631 2.43145E+01-2.56464E+00 6.06350E-03 5.78102E-02-1.58168E-13 1.79825E-13
 -1      3632 1.99594E+01 1.21068E-01-1.30267E-04-1.49722E-02-1.73446E-13-1.92031E-13
 -1      3633 1.99574E+01 1.22459E-01-2.95582E-04-5.79006E-03-1.08435E-13-1.69808E-13
 -1      3634 1.98337E+01 2.22340E-01-3.53594E-03-1.30044E+00-7.50810E-17-9.07803E-14
 -1      3635 2.00592E+01 2.07692E-01 3.40464E-03-1.22658E+00-4.43876E-15-3.23288E-14
 -1      3636 2.00126E+01 2.62219E-01-3.58613E-05-1.16146E+00-2.24306E-14-9.76053E-15
 -1      3637 1.90015E+01-2.87726E+00 4.91464E-02 4.30120E+00-5.56371E-13-1.87825E-13
 -1      3638 1.79149E+01-1.94160E+00 7.88630E-04 3.92798E+00-6.33878E-13-3.28661E-14
 -1      3639 2.05074E+01-2.93943E+00 2.50089E-02 3.47121E+00-4.28615E-13-4.75544E-13
 -1      3640 2.01529E+01 3.40198E-01-1.38556E-03-6.25609E-01 1.07477E-13-1.56465E-13
 -1      3641 2.00774E+01 3.68831E-01 1.52528E-03-7.89507E-01 1.13936E-14-1.89343E-13
 -1      3642 2.00824E+01 3.80628E-01-2.28638E-04-7.16956E-01 3.06353E-14-1.81304E-13
 -1      3643 1.99767E+01 4.25620E-01-4.25708E-04-8.09291E-01-4.17009E-14-2.09153E-13
 -1      3644 2.38673E+01-2.93091E+00-9.57449E-03-7.56342E-01-1.28952E-13 1.18347E-13
 -1      3645 1.99495E+01 1.40331E-01 5.61218E-04 1.78718E-04-1.23808E-13-4.43176E-13
 -1      3646 1.99574E+01 1.22332E-01-2.56563E-04 5.92968E-03-2.15213E-14-5.00542E-13
 -1      3647 1.99593E+01 1.20516E-01-1.60960E-04 1.51125E-02 1.54112E-13-7.26595E-13
 -1      3648 1.99937E+01 8.20995E-02-2.50225E-04 5.13468E-02 2.69813E-13-6.57375E-14
 -1      3649 2.00000E+01 7.43410E-02 1.13654E-04 5.14032E-02 1.98587E-13-1.36597E-13
 -1      3650 2.01409E+01 1.87300E+00 6.30313E-03 3.42888E-01 2.48297E-13-4.33671E-13
 -1      3651 2.53419E+01-4.96760E-01-6.52093E-02-1.89178E+00 2.61482E-13-6.34559E-13
 -1      3652 2.54624E+01 8.63710E-01 9.55836E-04-2.21465E+00 4.53138E-13-4.18734E-13
 -1      3653 2.00101E+01 3.27138E-01-6.14291E-04-1.01097E+00-5.67351E-14-5.01387E-14
 -1      3654 1.99039E+01 3.97272E-01-8.43516E-04-9.63181E-01-7.15427E-14-1.58229E-13
 -1      3655 2.00323E+01 3.01692E-01 2.72698E-03-1.07957E+00-7.11216E-14-3.32000E-14
 -1      3656 2.00078E+01 5.93645E-02 1.56604E-04 4.59327E-02 1.33124E-13-1.39986E-13
 -1      3657 2.50449E+01 1.95934E+00-9.85105E-02-2.09361E+00 5.20854E-13-2.88238E-13
 -1      3658 1.99840E+01 9.56865E-02 2.51333E-04 4.81160E-02 2.04669E-13-3.47566E-13
 -1      3659 1.99857E+01 9.99452E-02-1.62415E-04 5.89203E-02 2.03648E-13-2.01793E-13
 -1      3660 2.50125E+01-1.24733E+00-2.82346E-02-1.59451E+00-7.13735E-14-7.47859E-13
 -1      3661 1.99757E+01 1.02490E-01-4.74420E-04 4.28924E-02 9.25708E-14-2.35810E-13
 -1      3662 1.99687E+01 1.12349E-01 3.62629E-05-3.35475E-02-5.86339E-14-1.82520E-13
 -1      3663 1.99631E+01 1.16642E-01-4.16091E-04-2.57407E-02-7.35788E-14-1.25927E-13
 -1      3664 1.99540E+01 1.36288E-01 5.31941E-04-2.35977E-02-1.04202E-13-6.10594E-14
 -1      3665 1.87773E+01-2.71805E+00 2.72332E-02 4.21697E+00 4.56560E-13-1.51629E-13
 -1      3666 2.02592E+01 1.29090E+00-1.87945E-03-2.73231E-01-2.19154E-13-4.18076E-13
 -1      3667 2.02594E+01 1.11406E+00-1.53452E-03-1.28047E-01-1.97850E-13-3.96050E-13
 -1      3668 2.02407E+01 1.15443E+00 1.09615E-03-7.17307E-02-1.64323E-13-4.05807E-13
 -1      3669 2.02048E+01 1.54254E+00 1.77325E-03-2.89071E-01-1.74455E-13-4.67176E-13
 -1      3670 2.01934E+01 5.01533E-01 1.28395E-03-3.90559E-01 2.00134E-13-2.29026E-13
 -1      3671 2.02012E+01 6.21504E-01 6.10788E-05-3.20665E-01 2.12749E-13-2.41928E-13
 -1      3672 2.01721E+01 4.54152E-01-6.46565E-06-4.82071E-01 1.54683E-13-2.08702E-13
 -1      3673 2.02514E+01 8.13416E-01 6.11886E-04-1.08553E-01 2.36642E-13-3.38533E-13
 -1      3674 2.02628E+01 7.56467E-01-1.79247E-03-6.84840E-02 2.43476E-13-2.73539E-13
 -1      3675 2.01266E+01 1.75053E+00-6.98266E-04-2.07488E-01-1.18879E-13-4.88591E-13
 -1      3676 2.01631E+01 1.63980E+00-3.55063E-03-2.57113E-01-1.61382E-13-4.82958E-13
 -1      3677 2.02034E+01 1.43404E+00 2.84124E-03-1.53173E-01-1.59037E-13-4.62874E-13
 -1      3678 1.30921E+01-4.43249E-02 3.91286E-02-2.80790E+00-7.71744E-14-5.32262E-13
 -1      3679 2.02858E+01 8.63120E-01 3.48852E-03 5.33109E-02 2.60671E-13-2.68451E-13
 -1      3680 2.00209E+01 2.14869E+00 5.52927E-03-7.17856E-02 9.65924E-15-5.26412E-13
 -1      3681 1.99666E+01 1.24080E-01 4.81887E-04-4.40378E-02 1.69378E-13 1.02208E-13
 -1      3682 2.02166E+01 8.81454E-01 8.72430E-04 1.39063E-01-1.43063E-13-3.79220E-13
 -1      3683 2.01105E+01 1.77619E+00-3.87324E-03 1.84316E-01 2.00804E-13-4.04311E-13
 -1      3684 2.00831E+01 1.84513E+00-2.89338E-03 1.24109E-01 1.38621E-13-4.24793E-13
 -1      3685 1.63109E+01-9.52100E-01 1.20461E-02 3.67321E+00-5.82964E-13 1.51233E-13
 -1      3686 2.01301E+01 1.66218E+00 5.88908E-03 6.29594E-02 1.33053E-13-4.11239E-13
 -1      3687 2.00629E+01 1.88952E+00-3.41153E-03 8.27554E-02 1.04755E-13-4.68289E-13
 -1      3688 2.00519E+01 1.91359E+00-3.32518E-03 1.88400E-02 5.70344E-14-5.00124E-13
 -1      3689 2.02993E+01 1.14551E+00 2.31166E-03 3.43091E-01 3.14783E-13-2.92745E-13
 -1      3690 2.02671E+01 1.32918E+00-1.56302E-03 3.80383E-01 3.05672E-13-3.68918E-13
 -1      3691 2.02277E+01 1.48231E+00-1.62495E-03 3.47535E-01 2.83626E-13-3.97132E-13
 -1      3692 2.02827E+01 9.90531E-01-2.41740E-03 1.88865E-01 2.75742E-13-2.81426E-13
 -1      3693 2.45645E+01-2.80299E+00 6.46096E-03 1.47503E-01-2.29300E-13-7.04036E-13
 -1      3694 2.51016E+01-2.37925E+00-5.44132E-03-4.26907E-01-2.10992E-13-7.11192E-13
 -1      3695 2.40839E+01-3.41078E+00-3.54074E-02 1.15509E+00-3.54678E-13-6.55314E-13
 -1      3696 1.99602E+01 1.50338E-01 5.98936E-04-7.40608E-02 1.23958E-13 2.76532E-13
 -1      3697 1.99608E+01 1.37771E-01 1.03050E-04-5.77387E-02 2.23594E-13 3.23297E-13
 -1      3698 1.99506E+01 1.45476E-01-5.21163E-04-4.83577E-02 6.40630E-14 3.11347E-13
 -1      3699 1.59658E+01-9.00087E-01 2.88221E-02-3.57484E+00-1.27540E-13-4.89268E-13
 -1      3700 1.63246E+01-1.50267E+00 8.39055E-02-4.22897E+00-2.53539E-13-5.42379E-13
 -1      3701 1.79595E+01-2.24942E+00-1.21674E-02-4.14623E+00-2.40658E-13-3.81074E-13
 -1      3702 1.58429E+01 1.62108E-01-2.38212E-02 2.39220E+00-2.60342E-13 2.52311E-13
 -1      3703 1.48757E+01 6.92813E-01 6.33593E-02 1.90107E+00-2.79186E-13 4.57091E-13
 -1      3704 1.98715E+01 6.73653E-01-1.64018E-03 5.29500E-01-3.96028E-14-2.45068E-13
 -1      3705 1.97919E+01 6.81135E-01-6.03512E-04 5.99948E-01-2.10628E-14-2.05382E-13
 -1      3706 1.96733E+01 6.98803E-01-2.55028E-03 6.57082E-01-3.84163E-14-1.75927E-13
 -1      3707 1.95771E+01 7.26097E-01-3.24905E-04 7.27160E-01-5.85569E-15-1.84794E-13
 -1      3708 1.96695E+01 7.52664E-01 3.16188E-03 5.38833E-01-2.93602E-16-1.92223E-13
 -1      3709 1.94292E+01 7.57389E-01-3.63423E-03 7.86793E-01-1.37683E-14-1.63232E-13
 -1      3710 1.93144E+01 7.93550E-01-6.14188E-05 8.61427E-01-1.07176E-14-1.76066E-13
 -1      3711 1.94097E+01 8.06879E-01 4.06144E-03 6.46988E-01-1.02392E-14-1.67839E-13
 -1      3712 1.91323E+01 8.26510E-01-5.02186E-03 9.28384E-01 1.68666E-14-1.98146E-13
 -1      3713 1.89972E+01 8.59074E-01 4.21735E-04 1.01307E+00 2.63254E-14-1.75971E-13
 -1      3714 1.90901E+01 8.82403E-01 5.28592E-03 7.61542E-01-2.54937E-14-1.64893E-13
 -1      3715 1.87729E+01 8.79509E-01-6.97229E-03 1.09436E+00 8.43509E-16-1.85553E-13
 -1      3716 1.86178E+01 8.92895E-01 1.44053E-03 1.19746E+00 6.83985E-15-1.78088E-13
 -1      3717 1.86984E+01 9.55323E-01 6.84754E-03 8.93107E-01 1.80384E-14-1.85787E-13
 -1      3718 1.83406E+01 8.81675E-01-9.87987E-03 1.30480E+00 2.03493E-14-2.21708E-13
 -1      3719 1.81710E+01 8.55377E-01 3.65286E-03 1.44003E+00 1.49809E-14-2.13733E-13
 -1      3720 1.82181E+01 9.97312E-01 8.85649E-03 1.05962E+00-3.37512E-16-2.10026E-13
 -1      3721 1.78250E+01 7.86961E-01-1.40552E-02 1.59482E+00 5.05938E-14-2.23245E-13
 -1      3722 1.76593E+01 6.91147E-01 8.74176E-03 1.78579E+00 8.95608E-14-2.20154E-13
 -1      3723 1.76258E+01 9.73115E-01 1.17230E-02 1.29230E+00 2.82025E-14-2.66555E-13
 -1      3724 1.72240E+01 5.25133E-01-1.89750E-02 2.02781E+00 9.75489E-14-2.38664E-13
 -1      3725 1.71068E+01 3.13611E-01 1.97602E-02 2.30651E+00 1.84442E-13-2.55782E-13
 -1      3726 1.68839E+01 8.31003E-01 1.44452E-02 1.64727E+00 8.27036E-14-2.91928E-13
 -1      3727 2.02095E+01 1.24779E+00-2.53332E-03-7.60622E-02-1.32349E-13-4.37172E-13
 -1      3728 2.02147E+01 1.09943E+00 1.28712E-03 2.44243E-02-1.30577E-13-4.01710E-13
 -1      3729 2.01808E+01 1.35400E+00-1.04767E-04-6.15397E-02-1.01902E-13-4.12725E-13
 -1      3730 2.07301E+01-1.58645E+00 2.86451E-02 2.18879E+00-2.74559E-13-4.28468E-13
 -1      3731 2.12538E+01-2.10723E+00 2.07024E-03 2.13518E+00-2.55068E-13-4.94405E-13
 -1      3732 1.56664E+01 1.01783E-01 9.47109E-03-2.69772E+00 2.99319E-13 4.24175E-14
 -1      3733 1.66300E+01 4.07783E-01 2.07576E-02-2.25043E+00 3.58080E-13-9.01362E-15
 -1      3734 1.67757E+01 6.30762E-01-2.08853E-02-1.93460E+00 3.11199E-13 1.10701E-14
 -1      3735 1.72660E+01 8.04256E-01 8.85284E-03-1.68796E+00 2.49922E-13-6.19654E-15
 -1      3736 1.74620E+01 9.04357E-01-1.59612E-02-1.47766E+00 2.45675E-13-3.20267E-14
 -1      3737 1.64595E+01 9.52776E-01 1.85904E-02-1.50974E+00 2.57624E-13-8.51368E-14
 -1      3738 1.78373E+01 9.80441E-01 3.66339E-03-1.31975E+00 2.22481E-13-3.43352E-14
 -1      3739 1.80223E+01 1.01018E+00-1.12328E-02-1.17352E+00 2.50471E-13-5.68646E-14
 -1      3740 1.72685E+01 1.10553E+00 1.45408E-02-1.15160E+00 2.36252E-13-1.18064E-13
 -1      3741 1.83126E+01 1.02535E+00 1.28894E-03-1.06397E+00 2.12112E-13 5.90031E-14
 -1      3742 1.84743E+01 1.01106E+00-8.01634E-03-9.54401E-01 1.99045E-14 8.37912E-14
 -1      3743 1.78946E+01 1.13466E+00 1.08924E-02-9.16839E-01 2.51980E-13 8.77460E-14
 -1      3744 1.87008E+01 9.88746E-01 2.19996E-04-8.72339E-01-9.46868E-14 3.09345E-14
 -1      3745 1.88355E+01 9.48798E-01-5.95266E-03-7.84560E-01-3.75377E-14 1.72830E-14
 -1      3746 1.83840E+01 1.08946E+00 8.22746E-03-7.50525E-01-1.15966E-15 3.34572E-14
 -1      3747 1.90130E+01 9.05644E-01-1.22555E-04-7.18663E-01 1.03131E-14-1.92112E-15
 -1      3748 1.91215E+01 8.52475E-01-4.58124E-03-6.45030E-01-7.34877E-14 2.99735E-14
 -1      3749 1.87685E+01 9.99993E-01 6.33174E-03-6.21771E-01-3.15179E-14-6.04885E-14
 -1      3750 1.92606E+01 7.99589E-01-1.34762E-04-5.89705E-01-9.99020E-14-8.78177E-16
 -1      3751 1.93457E+01 7.41571E-01-3.62571E-03-5.26558E-01-2.01593E-13 8.24249E-14
 -1      3752 1.90703E+01 8.87301E-01 4.91800E-03-5.15052E-01-6.03004E-14-1.51412E-13
 -1      3753 1.94543E+01 6.86181E-01-2.57403E-05-4.79200E-01-2.37750E-13 2.26290E-13
 -1      3754 1.95197E+01 6.28730E-01-2.91774E-03-4.24856E-01-5.61490E-14 3.66682E-13
 -1      3755 1.93062E+01 7.66204E-01 3.82762E-03-4.23218E-01-8.26766E-14 1.88460E-14
 -1      3756 1.96038E+01 5.75317E-01 1.00667E-04-3.84270E-01 1.67815E-14 4.15725E-13
 -1      3757 1.96531E+01 5.21713E-01-2.36226E-03-3.37864E-01 1.25930E-13 5.19911E-13
 -1      3758 1.94893E+01 6.46676E-01 2.97019E-03-3.43312E-01 9.67516E-14 3.81690E-13
 -1      3759 1.97176E+01 4.72836E-01 2.01104E-04-3.03409E-01 5.05912E-14 4.81181E-13
 -1      3760 1.97540E+01 4.24844E-01-1.90930E-03-2.64319E-01 1.03487E-13 3.02488E-13
 -1      3761 1.96299E+01 5.35010E-01 2.29089E-03-2.74161E-01 8.55119E-14 4.54703E-13
 -1      3762 1.98030E+01 3.81748E-01 2.63384E-04-2.35497E-01-7.73098E-15 2.30770E-13
 -1      3763 1.98294E+01 3.40095E-01-1.53392E-03-2.03105E-01-1.01706E-13 2.00356E-13
 -1      3764 1.97367E+01 4.34737E-01 1.75200E-03-2.15149E-01 2.59748E-14 3.50196E-13
 -1      3765 1.98661E+01 3.03171E-01 2.92306E-04-1.79412E-01-7.65331E-14 1.48927E-13
 -1      3766 1.98848E+01 2.67878E-01-1.23625E-03-1.53025E-01-6.05004E-14 2.77126E-13
 -1      3767 1.98167E+01 3.47386E-01 1.31739E-03-1.65688E-01-1.27029E-13 3.03933E-13
 -1      3768 1.99118E+01 2.37185E-01 3.70063E-04-1.33912E-01-2.53227E-14 2.41058E-13
 -1      3769 1.99247E+01 2.07809E-01-9.47666E-04-1.12844E-01-5.27503E-15 2.67521E-13
 -1      3770 1.98755E+01 2.72958E-01 8.80252E-04-1.25076E-01-9.53876E-14 4.60296E-13
 -1      3771 1.99399E+01 1.90016E-01 5.77751E-04-1.00717E-01 2.80643E-14 3.68710E-13
 -1      3772 1.99487E+01 1.65732E-01-5.35945E-04-8.41979E-02 1.79026E-13 4.63444E-13
 -1      3773 1.99353E+01 1.78657E-01-2.15404E-04-7.30026E-02 1.11581E-14 6.34221E-13
 -1      3774 1.99123E+01 2.18275E-01 3.03943E-04-9.49441E-02-7.30602E-14 6.92063E-13
 -1      3775 2.08685E+01-1.75869E+00 8.71666E-03-2.18800E+00-2.30205E-13-1.08188E-13
 -1      3776 2.04121E+01-1.31948E+00 1.62385E-02-2.18283E+00-2.33880E-13-9.37787E-14
 -1      3777 2.00037E+01 7.83611E-02 1.83554E-04-5.85278E-02 1.39449E-13-1.53187E-13
 -1      3778 2.01321E+01-9.35171E-01 8.57587E-03-2.03814E+00-1.70136E-13-1.72020E-15
 -1      3779 1.98692E+01-6.04282E-01 6.79840E-03-1.95979E+00-1.19010E-13-9.09895E-15
 -1      3780 1.96565E+01-1.10002E+00-2.36821E-02-2.39033E+00-1.54111E-13-6.49758E-14
 -1      3781 1.96262E+01 5.66570E-02 7.20816E-03-1.54852E+00-9.23755E-14-9.33591E-14
 -1      3782 1.95634E+01 1.87227E-01-6.52195E-04-1.44952E+00-4.73530E-14-9.65361E-14
 -1      3783 2.22776E+01-3.09484E+00-7.49406E-03-2.27225E+00-1.53295E-13-3.63987E-14
 -1      3784 2.16851E+01-2.64213E+00 2.54865E-02-2.41853E+00-1.87217E-13-6.77856E-14
 -1      3785 1.36635E+01 9.36341E-01-6.50845E-03-9.17181E-01 8.03705E-14 3.25056E-13
 -1      3786 1.43012E+01 6.49716E-01 2.52448E-02-1.88104E+00 2.37861E-13 2.81485E-13
 -1      3787 2.01849E+01 1.58246E+00-2.83922E-03 2.71523E-01 2.53168E-13-4.13521E-13
 -1      3788 2.01450E+01 1.69242E+00-2.29022E-03 2.21011E-01 1.98821E-13-3.97001E-13
 -1      3789 2.01788E+01 1.53131E+00 5.43518E-03 1.24535E-01 1.82727E-13-3.76749E-13
 -1      3790 2.00214E+01-8.12935E-01 8.78326E-03 1.98178E+00-3.84904E-13-2.29441E-13
 -1      3791 2.03656E+01-1.17200E+00 1.65282E-02 2.02949E+00-3.43615E-13-3.19263E-13
 -1      3792 1.98993E+01-1.32697E+00 1.33731E-02 2.50980E+00-4.39307E-13-3.50495E-13
 -1      3793 1.96498E+01-2.11946E-01 3.98081E-03 1.71397E+00-3.32961E-13-1.88663E-13
 -1      3794 1.98536E+01-4.74796E-01 1.31272E-02 1.81479E+00-3.65672E-13-1.95025E-13
 -1      3795 1.93732E+01-5.86403E-01-2.24497E-02 2.10624E+00-4.34578E-13-3.63928E-13
 -1      3796 1.95022E+01 1.66759E-01 1.22662E-04 1.44213E+00-1.32311E-13-2.02820E-14
 -1      3797 1.96043E+01 1.57250E-03 8.41257E-03 1.54964E+00-2.04990E-13-2.26214E-14
 -1      3798 1.91876E+01-9.31987E-03-7.91819E-03 1.71530E+00-3.79418E-13-2.81260E-13
 -1      3799 1.94788E+01 3.86630E-01-1.50524E-03 1.19834E+00-9.28843E-14 1.45218E-13
 -1      3800 1.95204E+01 2.95497E-01 5.83483E-03 1.30095E+00-1.34960E-13 1.07191E-13
 -1      3801 1.91755E+01 3.26092E-01-3.25083E-03 1.39257E+00-2.08849E-13-2.48759E-13
 -1      3802 1.95185E+01 4.93638E-01-2.13824E-03 9.86228E-01 9.38606E-14 2.92162E-13
 -1      3803 1.95264E+01 4.53577E-01 3.91010E-03 1.07992E+00 4.94627E-15 3.26638E-13
 -1      3804 1.92439E+01 5.07980E-01-8.90852E-04 1.12780E+00-1.27945E-13 5.45781E-14
 -1      3805 1.95866E+01 5.24317E-01-2.31069E-03 8.03534E-01 1.73037E-13 1.07209E-13
 -1      3806 1.95774E+01 5.18142E-01 2.70106E-03 8.87032E-01 2.02457E-13 2.56224E-13
 -1      3807 1.93482E+01 5.85017E-01 4.20544E-04 9.09898E-01 1.80737E-13 2.14936E-13
 -1      3808 1.96628E+01 5.06806E-01-2.24673E-03 6.47516E-01-3.91859E-14 1.33199E-13
 -1      3809 1.96464E+01 5.21484E-01 1.91935E-03 7.20653E-01 1.44346E-13 1.18770E-13
 -1      3810 1.94625E+01 5.92740E-01 1.05045E-03 7.30049E-01 1.51479E-13 3.07746E-13
 -1      3811 1.97358E+01 4.61667E-01-2.06163E-03 5.15441E-01-1.25446E-13 2.23503E-14
 -1      3812 1.97179E+01 4.87815E-01 1.41865E-03 5.78496E-01-1.55482E-13 5.92795E-14
 -1      3813 1.95721E+01 5.57947E-01 1.27501E-03 5.81321E-01-4.24561E-15 1.24029E-13
 -1      3814 1.98002E+01 4.03210E-01-1.81988E-03 4.04783E-01-6.90196E-14-1.76565E-13
 -1      3815 1.97837E+01 4.34391E-01 1.09367E-03 4.58289E-01-1.38138E-13-3.84073E-14
 -1      3816 1.96696E+01 4.99858E-01 1.27565E-03 4.58426E-01-1.47985E-13-2.37122E-13
 -1      3817 1.98540E+01 3.40917E-01-1.55942E-03 3.13173E-01 6.92613E-14 5.70949E-14
 -1      3818 1.98401E+01 3.72933E-01 8.72955E-04 3.57849E-01-9.01240E-15-5.61805E-14
 -1      3819 1.97522E+01 4.31679E-01 1.16112E-03 3.57319E-01-8.17618E-14-2.68622E-13
 -1      3820 1.98970E+01 2.80673E-01-1.30493E-03 2.38337E-01 8.44788E-14-1.31839E-13
 -1      3821 1.98861E+01 3.10980E-01 7.12893E-04 2.75034E-01 1.49739E-13 5.92161E-14
 -1      3822 1.98194E+01 3.62052E-01 9.95566E-04 2.74761E-01 6.59134E-14 1.01233E-13
 -1      3823 1.99301E+01 2.25806E-01-1.07780E-03 1.78078E-01-1.40374E-13-4.38334E-14
 -1      3824 1.99221E+01 2.53024E-01 5.91297E-04 2.07729E-01-6.47264E-14-2.03652E-13
 -1      3825 1.98724E+01 2.96239E-01 8.11790E-04 2.08024E-01 3.77940E-14-7.14913E-14
 -1      3826 1.99547E+01 1.77947E-01-8.76923E-04 1.30197E-01-2.68406E-14-7.42657E-14
 -1      3827 1.99492E+01 2.01608E-01 5.45808E-04 1.53907E-01-7.70303E-14-1.01512E-13
 -1      3828 1.99130E+01 2.37059E-01 6.10360E-04 1.54813E-01-9.99630E-14-1.80337E-13
 -1      3829 1.99720E+01 1.37510E-01-7.33557E-04 9.24628E-02 1.11372E-13-1.97636E-13
 -1      3830 1.99689E+01 1.57550E-01 5.50963E-04 1.11525E-01 8.14500E-14-4.37044E-14
 -1      3831 1.99427E+01 1.85661E-01 2.63324E-04 1.13093E-01 2.15319E-14-2.50900E-13
 -1      3832 1.99833E+01 1.14737E-01 2.35823E-04 7.26668E-02 1.14058E-13-2.83839E-13
 -1      3833 2.00520E+01 1.91636E+00-2.80641E-03-2.26621E-02 2.36527E-14-4.95620E-13
 -1      3834 2.00596E+01 1.89454E+00-3.70968E-03-8.62797E-02-1.75715E-14-5.14521E-13
 -1      3835 2.01098E+01 1.70953E+00 5.90987E-03-3.40515E-03 4.58532E-14-4.58699E-13
 -1      3836 2.02269E+01 8.34928E-01-1.76986E-03-1.52630E-01 2.15334E-13-3.33275E-13
 -1      3837 2.02478E+01 9.61946E-01 3.23726E-04-3.55230E-02 2.21521E-13-3.44620E-13
 -1      3838 1.26746E+01 6.13506E-01 9.50603E-03-1.28771E+00-5.32751E-14-5.97335E-13
 -1      3839 1.28120E+01 4.08716E-01 8.44736E-02-2.14106E+00-7.79567E-14-5.93775E-13
 -1      3840 1.42369E+01 1.07399E-01 2.63471E-02-2.59491E+00-9.68266E-14-4.75543E-13
 -1      3841 2.01223E+01 3.97235E-01 8.40762E-04-6.41989E-01 5.54890E-14-1.98756E-13
 -1      3842 2.01361E+01 4.20827E-01 4.35932E-04-5.63100E-01 1.01012E-13-2.23525E-13
 -1      3843 2.00555E+01 4.55143E-01-2.58157E-04-6.57754E-01 3.94931E-14-2.31366E-13
 -1      3844 1.99428E+01 1.53575E-01-1.11316E-04-3.44390E-02 2.83160E-14 1.94170E-13
 -1      3845 1.99373E+01 1.57628E-01-3.84257E-04-2.25642E-02-8.95285E-14-5.00681E-14
 -1      3846 1.99365E+01 1.71051E-01 5.02526E-04-4.88159E-02 6.94711E-14 3.30298E-13
 -1      3847 2.00751E+01 1.86772E+00-2.09650E-03-1.18072E-01-3.82673E-14-5.18082E-13
 -1      3848 2.00991E+01 1.80227E+00-3.89723E-03-1.77466E-01-7.02123E-14-5.02255E-13
 -1      3849 2.01524E+01 1.59601E+00 4.81998E-03-1.08708E-01-9.62230E-14-4.46065E-13
 -1      3850 2.01213E+01 1.68041E+00 5.64377E-03-6.12266E-02-3.54303E-14-4.72867E-13
 -1      3851 2.27579E+01-3.36666E+00-2.02230E-03 2.17424E+00-4.32852E-13-6.12404E-13
 -1      3852 1.77052E+01-1.34713E+00-1.62118E-02 3.42268E+00-5.60835E-13 1.91158E-14
 -1      3853 1.99631E+01 1.15812E-01-3.80051E-04 2.59544E-02 1.26708E-13-5.42960E-13
 -1      3854 1.99687E+01 1.11181E-01 4.92949E-05 3.36582E-02-4.06365E-15-2.66252E-13
 -1      3855 1.99542E+01 1.35521E-01 6.33146E-04 2.39936E-02 1.33781E-14-6.53007E-13
 -1      3856 2.01428E+01 8.07273E-01-7.12323E-04 2.42598E-01-9.07844E-14-3.41352E-13
 -1      3857 2.00941E+01 7.44498E-01-1.51292E-03 3.29010E-01-9.70001E-14-3.13321E-13
 -1      3858 1.97723E+01-3.33877E-01 9.61035E-03-1.79379E+00-1.79237E-13-6.99070E-14
 -1      3859 1.96279E+01-1.17211E-01 1.71187E-03-1.69582E+00-1.56676E-13-4.76454E-14
 -1      3860 1.92538E+01 5.72996E-02-6.87563E-03-1.66568E+00-1.27288E-13-1.35131E-13
 -1      3861 1.93272E+01-3.90457E-01-1.35335E-02-2.00623E+00-1.74821E-13-8.34913E-14
 -1      3862 2.20087E+01-2.93471E+00 2.46492E-02 2.40409E+00-3.84549E-13-5.20481E-13
 -1      3863 1.99678E+01 1.22293E-01 6.32940E-04 4.56734E-02 1.02575E-13-3.39115E-13
 -1      3864 2.00283E+01 7.02989E-01-7.89769E-04 3.94707E-01-8.30890E-14-2.94602E-13
 -1      3865 1.99638E+01 6.80127E-01-1.00567E-03 4.70555E-01-7.98287E-14-2.74002E-13
 -1      3866 2.00353E+01 7.95922E-01 2.51186E-03 3.08590E-01-9.20448E-14-2.93360E-13
 -1      3867 2.02725E+01 1.07814E+00-3.91991E-04 1.40915E-01 2.60309E-13-3.35477E-13
 -1      3868 2.01998E+01 9.86529E-01-1.42949E-03 8.60867E-02-1.21558E-13-3.61428E-13
 -1      3869 2.01724E+01 8.78456E-01-7.34560E-04 1.87276E-01-9.72023E-14-3.45301E-13
 -1      3870 2.01309E+01 9.10956E-01 1.02854E-03 1.88000E-01-8.06068E-14-3.00130E-13
 -1      3871 2.01760E+01 1.08394E+00 3.34331E-04 7.13509E-02-6.82017E-14-3.65249E-13
 -1      3872 1.39807E+01 8.24730E-01-2.89731E-02 1.19981E+00-1.55024E-13 4.96577E-13
 -1      3873 1.36641E+01 1.11264E+00 4.34814E-02 2.21844E-02-6.08693E-14 3.15257E-13
 -1      3874 1.45524E+01 1.08719E+00 3.40077E-02-4.59936E-01 9.20726E-14 1.76388E-13
 -1      3875 1.50321E+01 9.14707E-01 6.86655E-03 1.15395E+00-1.19970E-13 3.54787E-13
 -1      3876 1.99654E+01 1.36326E-01-1.65419E-04 7.42365E-02 1.47087E-13-2.15246E-13
 -1      3877 1.57292E+01-2.79721E-01 3.38637E-02-3.01435E+00-8.81912E-14-4.46115E-13
 -1      3878 1.68971E+01-8.69199E-01 5.98124E-03-3.30009E+00-1.09850E-13-4.55349E-13
 -1      3879 1.69285E+01-1.00884E-01 5.19302E-02 2.72150E+00-4.26980E-13 5.15289E-14
 -1      3880 1.64805E+01 2.94132E-01-2.36388E-02 2.12114E+00-2.71053E-13 1.02593E-13
 -1      3881 1.46269E+01-5.24173E-02 8.39005E-02 2.99387E+00 3.16200E-13-6.59296E-13
 -1      3882 1.41461E+01 3.19383E-01 3.18760E-03 2.27790E+00 2.03136E-13-5.60468E-13
 -1      3883 1.93477E+01-2.48535E+00 7.12593E-02-3.89168E+00-2.45858E-13-2.29126E-13
 -1      3884 2.04572E+01-2.75183E+00 1.84889E-03-3.30874E+00-2.31080E-13-1.49318E-13
 -1      3885 1.83406E+01-1.83912E+00-4.86285E-03-3.66515E+00-2.02116E-13-2.58476E-13
 -1      3886 1.96122E+01 2.87987E-01 5.19257E-03-1.32468E+00-4.75934E-14-1.43135E-13
 -1      3887 1.95991E+01 3.57484E-01-1.68942E-03-1.23213E+00-2.73751E-14-1.71454E-13
 -1      3888 1.93096E+01 3.23478E-01-2.69386E-03-1.38080E+00-7.39072E-14-1.92787E-13
 -1      3889 1.59689E+01 4.31604E-01 1.90805E-02 2.27306E+00 1.86312E-13-3.96176E-13
 -1      3890 1.65975E+01-2.82366E-02-5.46149E-03 2.74057E+00 2.73676E-13-3.23251E-13
 -1      3891 1.65533E+01-5.32878E-01 2.09059E-02 3.16504E+00 3.46686E-13-3.74857E-13
 -1      3892 1.99505E+01 1.48684E-01-3.66095E-04 6.00682E-02 1.94090E-13-4.60651E-13
 -1      3893 1.99401E+01 1.76864E-01 7.44986E-04 7.96052E-02 1.90550E-14-4.37946E-13
 -1      3894 1.99412E+01 1.57163E-01-4.04767E-04 4.87489E-02 9.49780E-14-5.98373E-13
 -1      3895 1.98495E+01 3.40694E-01-1.81172E-03-1.12607E+00-4.12287E-14-7.58851E-14
 -1      3896 1.50382E+01 5.57603E-01 1.44467E-02-2.09523E+00 3.18057E-13 7.77720E-14
 -1      3897 2.33845E+01-3.37772E+00 2.83709E-02-1.81030E+00-1.81643E-13 5.25695E-14
 -1      3898 1.98755E+01 4.86980E-01 1.48521E-03-7.97556E-01-6.57266E-14-1.81911E-13
 -1      3899 1.99130E+01 4.95902E-01-1.22938E-03-7.22122E-01-3.20575E-14-2.00689E-13
 -1      3900 1.54788E+01-5.16611E-01 1.38534E-02 3.35963E+00 3.58951E-13-5.52211E-13
 -1      3901 1.99346E+01 1.59914E-01-3.02867E-04-6.27632E-03-6.24968E-14-3.07339E-13
 -1      3902 1.99342E+01 1.59348E-01-5.19429E-04 6.25480E-03-9.11534E-14-6.05807E-13
 -1      3903 1.99232E+01 1.81602E-01 3.46227E-04-1.71334E-02 3.95076E-14-1.85357E-13
 -1      3904 1.32534E+01 8.02030E-01 4.88784E-03 9.21184E-01 1.08624E-13-5.52940E-13
 -1      3905 1.27901E+01 9.51655E-01 7.06474E-02-8.46371E-02 3.27195E-14-6.00228E-13
 -1      3906 2.01951E+01 1.30259E+00-2.65643E-03 6.24849E-02 1.75194E-13-3.64359E-13
 -1      3907 2.01660E+01 1.39021E+00-1.93763E-03 4.24845E-02 1.61329E-13-3.69225E-13
 -1      3908 1.97664E+01 4.63927E-01 2.42340E-03-9.53979E-01-8.03900E-14-1.87419E-13
 -1      3909 1.97970E+01 4.76190E-01-1.67633E-03-8.75408E-01-7.53795E-14-2.08906E-13
 -1      3910 1.97354E+01 5.49667E-01 6.57741E-04-7.87028E-01-6.22416E-14-2.53293E-13
 -1      3911 1.52604E+01 4.42950E-02 1.54069E-02-2.66835E+00-8.74383E-14-3.90727E-13
 -1      3912 1.62770E+01 4.01504E-02 2.64749E-02-2.47796E+00-6.98408E-14-4.20749E-13
 -1      3913 1.48080E+01 4.19670E-01-8.17377E-04-2.06085E+00-5.09621E-14-4.58691E-13
 -1      3914 1.37148E+01 8.04155E-01 3.61514E-02-8.84429E-01-2.83805E-14-5.26071E-13
 -1      3915 2.02013E+01 7.34860E-01 4.08026E-04-2.41984E-01 1.82162E-13-2.90201E-13
 -1      3916 2.01974E+01 8.75403E-01 1.00928E-03-1.74610E-01 1.68116E-13-3.01015E-13
 -1      3917 2.01686E+01 6.56968E-01-9.97913E-04-3.38808E-01 1.68119E-13-2.51443E-13
 -1      3918 2.01327E+01 5.11816E-01-1.48013E-04-4.98987E-01 1.33084E-13-2.28122E-13
 -1      3919 2.02394E+01 1.17667E+00-1.89570E-03 8.58392E-02 2.20047E-13-3.81011E-13
 -1      3920 2.02449E+01 1.34368E+00 3.51959E-03 2.20659E-01 2.37513E-13-3.86357E-13
 -1      3921 1.98771E+01 7.41760E-01 2.62662E-03 4.28598E-01-3.11467E-14-2.50989E-13
 -1      3922 2.07961E+01-2.70555E+00-1.13485E-02 3.05144E+00-4.04464E-13-5.39358E-13
 -1      3923 2.01412E+01 1.45009E+00-2.88668E-03 3.80897E-02 1.46475E-13-3.63472E-13
 -1      3924 2.01238E+01 1.49398E+00-2.76209E-03 1.27024E-02 9.75263E-14-4.01626E-13
 -1      3925 2.01719E+01 1.26662E+00 4.25008E-03-1.36900E-02 1.18304E-13-3.54701E-13
 -1      3926 1.82671E+01-1.23271E+00-2.24556E-02 3.06082E+00-4.78693E-13-7.12217E-14
 -1      3927 1.86995E+01-9.44566E-01-1.20874E-02 2.65519E+00-4.13636E-13-1.00228E-13
 -1      3928 2.07223E+01-2.15609E+00-5.52233E-03-2.59014E+00-1.84436E-13-1.00465E-13
 -1      3929 1.97705E+01-1.79868E+00 9.61355E-03-2.96231E+00-2.09539E-13-1.38888E-13
 -1      3930 1.66662E+01-1.15053E+00 2.02754E-02 3.80034E+00 4.16996E-13-3.08444E-13
 -1      3931 1.71155E+01 3.69673E-01-7.82371E-03 1.92752E+00-2.68479E-13-1.40030E-13
 -1      3932 1.63887E+01 7.57569E-01 4.10142E-02 1.62972E+00-1.45264E-13-1.72382E-14
 -1      3933 1.51775E+01 5.51582E-01 1.57019E-02 1.97518E+00 1.57993E-13-4.79493E-13
 -1      3934 1.41273E+01 7.86971E-01 5.65956E-02 1.48493E+00 1.05382E-13-4.92558E-13
 -1      3935 1.42896E+01 9.32501E-01-1.83211E-02 7.60792E-01 6.23303E-14-5.05160E-13
 -1      3936 1.56344E+01 7.68273E-01-3.26945E-02 1.58851E+00 1.11419E-13-3.66269E-13
 -1      3937 2.53756E+01-2.69899E+00 2.50568E-02-1.16780E-01-1.54367E-13-7.11417E-13
 -1      3938 1.96700E+01 7.72341E-01-2.19803E-03 4.03687E-01 1.71133E-14-2.71334E-13
 -1      3939 1.95519E+01 7.89604E-01-1.68534E-03 4.53009E-01-1.11079E-14-2.74957E-13
 -1      3940 1.93993E+01 8.16374E-01-3.01327E-03 4.85067E-01 1.47582E-15-2.58554E-13
 -1      3941 1.92534E+01 8.51455E-01-1.78556E-03 5.33534E-01 5.88304E-15-2.32918E-13
 -1      3942 1.94304E+01 8.47283E-01 4.22395E-03 3.45708E-01 1.46310E-14-3.13789E-13
 -1      3943 1.90628E+01 8.89783E-01-4.15626E-03 5.65765E-01-1.76480E-14-2.19330E-13
 -1      3944 1.88843E+01 9.31141E-01-2.13788E-03 6.17239E-01-3.40586E-15-2.28890E-13
 -1      3945 1.90950E+01 9.16546E-01 5.62995E-03 3.96428E-01 4.50039E-15-2.85099E-13
 -1      3946 1.86464E+01 9.69873E-01-6.00353E-03 6.51812E-01-1.30484E-14-1.99170E-13
 -1      3947 1.84280E+01 1.00707E+00-2.51631E-03 7.12062E-01-1.80218E-14-2.04149E-13
 -1      3948 1.86789E+01 1.00271E+00 7.64478E-03 4.46027E-01-2.17213E-14-2.31779E-13
 -1      3949 1.81271E+01 1.03327E+00-8.91910E-03 7.55621E-01-1.58441E-14-2.55350E-13
 -1      3950 1.78597E+01 1.05222E+00-2.97105E-03 8.34694E-01-1.67602E-14-2.62911E-13
 -1      3951 1.81583E+01 1.08613E+00 1.03732E-02 4.98278E-01-3.73277E-14-2.30046E-13
 -1      3952 1.74708E+01 1.05103E+00-1.34510E-02 8.95486E-01-1.18084E-14-2.99659E-13
 -1      3953 1.71417E+01 1.03971E+00-1.81797E-03 1.01098E+00 4.64464E-14-2.62865E-13
 -1      3954 1.74992E+01 1.14374E+00 1.49319E-02 5.67793E-01-2.18289E-14-2.95379E-13
 -1      3955 1.66232E+01 9.87967E-01-1.93459E-02 1.11414E+00 6.36002E-14-2.98049E-13
 -1      3956 1.62286E+01 9.27388E-01 8.55619E-03 1.29105E+00 8.30646E-14-3.15656E-13
 -1      3957 1.66382E+01 1.15601E+00 2.32034E-02 6.76886E-01 1.91495E-14-3.57904E-13
 -1      3958 2.01562E+01 1.40284E+00-3.39437E-03-6.11417E-02-8.40508E-14-4.02998E-13
 -1      3959 2.01739E+01 1.25059E+00 3.44036E-03 8.87591E-03-5.69046E-14-3.74666E-13
 -1      3960 2.01397E+01 1.45922E+00-1.25616E-03-4.33421E-02-4.86234E-14-4.23866E-13
 -1      3961 2.02167E+01 1.19988E+00 3.42898E-04 3.39229E-02 1.96417E-13-3.51017E-13
 -1      3962 2.02064E+01 1.09177E+00 8.30883E-04-5.10683E-02 1.74543E-13-3.27861E-13
 -1      3963 1.67728E+01 1.15812E+00-3.25161E-03-8.46688E-01 2.20288E-13 2.80536E-14
 -1      3964 1.71279E+01 1.17531E+00-1.39971E-02-7.36790E-01 3.12557E-13 9.27989E-14
 -1      3965 1.75259E+01 1.18190E+00-3.72598E-03-6.84431E-01 2.58241E-13 4.57924E-14
 -1      3966 1.78046E+01 1.16450E+00-9.11898E-03-6.08352E-01 9.49370E-14 6.04693E-14
 -1      3967 1.71791E+01 1.27023E+00 1.94526E-02-4.02899E-01 2.40007E-13-9.27264E-15
 -1      3968 1.81025E+01 1.13813E+00-3.27142E-03-5.70878E-01-8.97541E-15-2.16691E-14
 -1      3969 1.83213E+01 1.09737E+00-6.31333E-03-5.13638E-01-1.61585E-14-2.85014E-14
 -1      3970 1.78384E+01 1.21378E+00 1.19008E-02-3.53311E-01 3.45933E-14-6.92001E-14
 -1      3971 1.85496E+01 1.05087E+00-2.70549E-03-4.83305E-01-5.57215E-14-1.74584E-14
 -1      3972 1.87216E+01 9.96365E-01-4.58697E-03-4.36136E-01-6.93398E-14-2.13808E-13
 -1      3973 1.83446E+01 1.12271E+00 8.49597E-03-3.15152E-01 1.21936E-14-1.53024E-13
 -1      3974 1.88989E+01 9.39233E-01-2.10998E-03-4.09068E-01-1.15416E-13-2.25680E-13
 -1      3975 1.90336E+01 8.78252E-01-3.48899E-03-3.67928E-01-1.35427E-13-2.57040E-13
 -1      3976 1.87372E+01 1.00872E+00 6.37197E-03-2.79557E-01-1.66804E-13-2.51942E-13
 -1      3977 1.91721E+01 8.17182E-01-1.58159E-03-3.42873E-01-4.88042E-14-1.75243E-13
 -1      3978 1.92768E+01 7.55083E-01-2.75195E-03-3.06246E-01 8.77821E-14-8.34805E-15
 -1      3979 1.90438E+01 8.83566E-01 4.90094E-03-2.43693E-01-5.82361E-14-2.29051E-13
 -1      3980 1.93850E+01 6.94775E-01-1.14707E-03-2.83116E-01 1.66613E-13 2.83173E-14
 -1      3981 1.94657E+01 6.35280E-01-2.21754E-03-2.50603E-01 1.54381E-13 8.80638E-14
 -1      3982 1.92835E+01 7.56623E-01 3.81255E-03-2.07804E-01 1.39713E-13-1.86435E-13
 -1      3983 1.95497E+01 5.78802E-01-8.04699E-04-2.29673E-01 9.17828E-14 1.33549E-13
 -1      3984 1.96111E+01 5.24248E-01-1.80123E-03-2.01239E-01 8.59778E-14 1.79459E-13
 -1      3985 1.94702E+01 6.34834E-01 2.97474E-03-1.73091E-01 1.44272E-13-1.94192E-13
 -1      3986 1.96758E+01 4.73383E-01-5.44268E-04-1.82781E-01 4.49477E-14 1.97030E-13
 -1      3987 1.97220E+01 4.25022E-01-1.45978E-03-1.58404E-01 5.92078E-14 1.24248E-13
 -1      3988 1.96142E+01 5.22789E-01 2.31522E-03-1.40807E-01 7.57722E-14-4.58844E-14
 -1      3989 1.97712E+01 3.80597E-01-3.49222E-04-1.42550E-01-1.25689E-13-4.21387E-14
 -1      3990 1.98054E+01 3.38816E-01-1.19786E-03-1.22083E-01-1.47125E-13-5.18286E-14
 -1      3991 1.97242E+01 4.23075E-01 1.78495E-03-1.11881E-01-1.27345E-13-2.23899E-13
 -1      3992 1.98424E+01 3.01325E-01-9.33584E-05-1.08862E-01-1.63066E-14 1.30020E-13
 -1      3993 1.98670E+01 2.66112E-01-9.08571E-04-9.21918E-02-6.17444E-15 2.31188E-13
 -1      3994 1.98070E+01 3.36470E-01 1.26150E-03-8.68844E-02-1.30091E-14-2.68644E-13
 -1      3995 1.90368E+01-1.01773E+00-3.27866E-04-2.64614E+00-1.43365E-13-1.38241E-13
 -1      3996 1.88304E+01-5.85909E-01 5.66611E-03-2.40430E+00-1.10728E-13-1.08734E-13
 -1      3997 1.84528E+01-4.83753E-01-8.80584E-03 2.38633E+00-4.28366E-13-1.26611E-13
 -1      3998 1.87239E+01 2.76863E-01-7.02348E-03 1.59926E+00-3.12488E-13-2.92743E-13
 -1      3999 1.87908E+01 9.24427E-02 7.91993E-03 1.77647E+00-4.33593E-13-2.98886E-13
 -1      4000 1.98828E+01 5.69636E-01 8.60467E-04-6.37566E-01-8.03834E-15-1.95591E-13
 -1      4001 1.99847E+01 5.09291E-01 6.88090E-04-6.49549E-01-7.75140E-15-1.73866E-13
 -1      4002 2.00245E+01 5.28274E-01-6.48731E-04-5.72980E-01 4.75126E-14-2.04142E-13
 -1      4003 1.88509E+01 5.23447E-01-5.73952E-03 1.26306E+00-2.62801E-13-3.36132E-13
 -1      4004 1.88456E+01 4.25376E-01 7.58887E-03 1.40805E+00-3.07174E-13-3.63621E-13
 -1      4005 1.84105E+01 5.00049E-01 1.76017E-03 1.46681E+00-3.16366E-13-4.66140E-13
 -1      4006 1.90135E+01 6.42459E-01-4.83854E-03 9.99357E-01-1.12253E-13-2.32703E-13
 -1      4007 1.89779E+01 6.00317E-01 5.17021E-03 1.11663E+00-2.34117E-13-3.06672E-13
 -1      4008 1.86384E+01 6.81002E-01 2.02653E-03 1.12759E+00-2.65278E-13-5.41360E-13
 -1      4009 1.91831E+01 6.74570E-01-4.11712E-03 7.90848E-01 1.30797E-13-1.47845E-13
 -1      4010 1.91340E+01 6.70226E-01 3.29574E-03 8.86255E-01 5.24369E-15-2.25192E-13
 -1      4011 1.88712E+01 7.53139E-01 2.97892E-03 8.73266E-01-1.10895E-13-4.34864E-13
 -1      4012 1.93431E+01 6.51250E-01-3.48036E-03 6.24489E-01 2.87777E-14 3.10733E-14
 -1      4013 1.92913E+01 6.70553E-01 2.08220E-03 7.02675E-01 1.86615E-13 4.80694E-14
 -1      4014 1.90872E+01 7.51707E-01 3.18941E-03 6.78895E-01 2.59466E-14-2.38497E-13
 -1      4015 1.94851E+01 5.95372E-01-2.92702E-03 4.90648E-01 1.08639E-13-2.04220E-13
 -1      4016 1.94366E+01 6.28022E-01 1.33487E-03 5.55000E-01 1.03983E-13-5.44216E-14
 -1      4017 1.92780E+01 7.04646E-01 3.02404E-03 5.28248E-01 1.24260E-13-8.22790E-14
 -1      4018 1.96060E+01 5.23136E-01-2.44557E-03 3.82503E-01-1.44204E-13-4.10135E-13
 -1      4019 1.95637E+01 5.61914E-01 8.89447E-04 4.35464E-01-2.40241E-14-2.94482E-13
 -1      4020 1.94408E+01 6.32144E-01 2.70502E-03 4.09970E-01 9.83543E-14-3.03111E-13
 -1      4021 1.97057E+01 4.45592E-01-2.02540E-03 2.95160E-01-1.09278E-13-3.51768E-13
 -1      4022 1.96705E+01 4.85632E-01 6.24011E-04 3.38558E-01-2.15386E-13-4.55959E-13
 -1      4023 1.95759E+01 5.48304E-01 2.32887E-03 3.16348E-01-1.40346E-13-5.17990E-13
 -1      4024 1.97856E+01 3.69866E-01-1.65985E-03 2.24932E-01-5.04163E-14-2.61600E-13
 -1      4025 1.97574E+01 4.08092E-01 4.62052E-04 2.60221E-01-8.02062E-14-2.27469E-13
 -1      4026 1.96854E+01 4.62668E-01 1.94502E-03 2.42022E-01-2.64816E-13-5.91059E-13
 -1      4027 1.98480E+01 3.00158E-01-1.34525E-03 1.68878E-01 2.97006E-14-2.29465E-13
 -1      4028 1.98262E+01 3.34840E-01 3.58353E-04 1.97285E-01 1.51900E-13-7.90422E-14
 -1      4029 1.97720E+01 3.81303E-01 1.57634E-03 1.83104E-01-9.26507E-14-2.78375E-13
 -1      4030 1.98956E+01 2.38825E-01-9.90317E-04 1.24656E-01 3.20038E-14-3.84303E-13
 -1      4031 1.98792E+01 2.69041E-01 3.24145E-04 1.47133E-01-1.19047E-13-2.76051E-13
 -1      4032 1.98388E+01 3.07572E-01 1.14964E-03 1.36688E-01-7.53028E-14-3.96919E-13
 -1      4033 1.99256E+01 1.93904E-01-5.64643E-04 9.20364E-02-6.32545E-14-2.59912E-13
 -1      4034 1.99131E+01 2.19715E-01 4.28722E-04 1.09394E-01 5.66621E-16-3.25523E-13
 -1      4035 1.98823E+01 2.50794E-01 5.68040E-04 1.01437E-01 4.88161E-14-5.05707E-13
 -1      4036 1.99106E+01 2.08103E-01 3.01085E-05 7.47367E-02 2.13868E-14-6.89623E-13
 -1      4037 2.01120E+01 1.51732E+00-3.01777E-03 5.29497E-03 7.60874E-14-4.23944E-13
 -1      4038 2.01097E+01 1.51935E+00-3.28928E-03-1.82555E-02 2.77621E-14-4.23314E-13
 -1      4039 2.01451E+01 1.34999E+00 6.11157E-03-8.92871E-03 7.42580E-14-3.80133E-13
 -1      4040 1.43864E+01 1.04250E+00 1.41257E-02-2.23998E-01 8.13824E-15-5.13229E-13
 -1      4041 1.44216E+01 8.11521E-01 1.35397E-02-1.29699E+00-2.55389E-14-5.00895E-13
 -1      4042 1.54201E+01 7.44222E-01 2.33586E-02-1.39606E+00-3.41078E-14-4.49139E-13
 -1      4043 1.98834E+01 7.78355E-01-1.57895E-03 3.15827E-01-5.01547E-14-2.49820E-13
 -1      4044 1.97901E+01 7.67793E-01-1.67745E-03 3.69210E-01-3.25586E-16-2.65489E-13
 -1      4045 1.96990E+01 8.16217E-01 3.47221E-03 2.88394E-01-1.88989E-14-2.99641E-13
 -1      4046 1.99220E+01 1.88902E-01-4.11491E-04-5.53359E-02-2.28169E-14 3.23831E-13
 -1      4047 1.99137E+01 1.97294E-01 5.50164E-05-3.99593E-02 1.06360E-14 1.52149E-13
 -1      4048 1.99123E+01 2.08776E-01 4.67157E-04-6.49742E-02-6.92148E-14 4.58961E-13
 -1      4049 1.99331E+01 1.62971E-01-3.08218E-04 2.13668E-02-8.43380E-14-7.94507E-13
 -1      4050 1.99374E+01 1.57832E-01-5.62973E-04 3.33069E-02-8.28029E-14-5.41600E-13
 -1      4051 1.99209E+01 1.90677E-01 6.89361E-04 4.67735E-02 6.90869E-14-9.49939E-13
 -1      4052 1.99182E+01 1.87439E-01 2.80653E-04 1.53308E-02-6.21919E-14-7.06829E-13
 -1      4053 1.87081E+01-1.31686E+00-1.08989E-02-3.01035E+00-1.53813E-13-1.54711E-13
 -1      4054 2.00425E+01 8.56370E-01-4.52372E-04 2.16300E-01-7.61965E-14-2.87434E-13
 -1      4055 1.99724E+01 8.06310E-01-2.01711E-03 2.77367E-01-7.19641E-14-2.78674E-13
 -1      4056 1.99068E+01 8.43257E-01 3.00247E-03 2.22672E-01-4.40785E-14-2.45059E-13
 -1      4057 2.00850E+01 5.57158E-01-1.83139E-04-5.00299E-01 1.03800E-13-2.18263E-13
 -1      4058 2.01236E+01 5.99013E-01-4.41454E-05-4.17110E-01 1.46473E-13-2.21955E-13
 -1      4059 2.01222E+01 7.06213E-01 1.04019E-03-3.42509E-01 1.22668E-13-2.51092E-13
 -1      4060 2.00145E+01 6.13209E-01 1.05674E-03-4.92990E-01 7.03192E-14-2.11381E-13
 -1      4061 1.96712E+01 4.09317E-01 3.56193E-03-1.12806E+00-2.37513E-14-1.86217E-13
 -1      4062 1.96862E+01 4.41356E-01-1.93209E-03-1.04305E+00-5.62295E-14-1.77214E-13
 -1      4063 1.95800E+01 5.26067E-01 3.89692E-04-9.53296E-01-5.74761E-14-3.09970E-13
 -1      4064 1.94308E+01 4.62619E-01-7.90892E-04-1.14691E+00-2.65289E-14-2.42337E-13
 -1      4065 1.77818E+01-9.43165E-01 3.34231E-02-3.15565E+00-1.38909E-13-2.82512E-13
 -1      4066 2.01881E+01 9.53937E-01-6.31483E-04-1.26927E-01 1.61823E-13-2.80717E-13
 -1      4067 2.01728E+01 1.05596E+00-1.42075E-04-9.37454E-02 1.39549E-13-2.87800E-13
 -1      4068 2.01553E+01 8.49261E-01-1.21925E-03-2.15267E-01 1.39487E-13-2.62145E-13
 -1      4069 1.83968E+01-1.22249E-01 1.94374E-03 2.11839E+00-4.15974E-13-1.43716E-13
 -1      4070 1.79249E+01 1.88051E-01 8.65584E-03 1.98283E+00-3.36929E-13-2.24295E-13
 -1      4071 1.49491E+01 1.01424E+00 8.98564E-03 3.14399E-01 2.50147E-14-5.02681E-13
 -1      4072 1.57991E+01 1.04701E+00 1.46397E-02-1.13285E+00 2.63079E-13 6.32818E-14
 -1      4073 1.62271E+01 1.11128E+00-1.81287E-02-9.52216E-01 1.94152E-13 6.74768E-14
 -1      4074 1.78225E+01-1.89403E+00 1.10083E-01 4.09137E+00 4.28085E-13-2.12906E-13
 -1      4075 2.01387E+01 1.18299E+00-4.06412E-04 4.11219E-02-3.77427E-14-3.58153E-13
 -1      4076 2.01537E+01 1.12944E+00-2.27202E-03 5.01983E-02-5.12286E-14-3.92258E-13
 -1      4077 2.01429E+01 1.03543E+00 1.66423E-03 1.05287E-01-4.57865E-14-3.59487E-13
 -1      4078 1.90207E+01 4.15788E-01 6.77658E-03-1.36488E+00-8.82836E-14-1.51992E-13
 -1      4079 1.90575E+01 4.89863E-01-4.77294E-03-1.23675E+00-5.25122E-14-1.63955E-13
 -1      4080 1.75707E+01 5.18147E-01-2.36335E-02 1.61792E+00-2.06107E-13-2.92978E-13
 -1      4081 1.99177E+01-1.94367E+00 6.09993E-02 3.10005E+00-4.46375E-13-3.53612E-13
 -1      4082 1.82008E+01-2.49998E-01-7.02554E-03-2.30792E+00-1.58531E-13-1.58935E-13
 -1      4083 1.88767E+01-2.84572E-01 1.34824E-02-2.11123E+00-1.75020E-13-1.12195E-13
 -1      4084 1.87754E+01-3.89815E-02-3.56020E-03-1.91473E+00-2.08585E-13-1.17031E-13
 -1      4085 1.98848E+01 2.47530E-01 2.17613E-04-8.35952E-02 9.28041E-14 2.69973E-13
 -1      4086 1.98974E+01 2.25199E-01-5.94757E-04-7.20348E-02 5.18918E-14 4.09299E-13
 -1      4087 1.98868E+01 2.36336E-01 3.69294E-04-5.24145E-02 8.63908E-14 1.53730E-14
 -1      4088 1.98571E+01 2.76174E-01 6.93748E-04-6.72419E-02 1.88918E-13-1.50506E-14
 -1      4089 1.55819E+01 1.05766E+00 2.83632E-02 1.00070E+00 6.50025E-14-4.20656E-13
 -1      4090 1.52789E+01 8.53637E-01-1.69751E-02-1.56068E+00 2.65359E-13 5.96823E-14
 -1      4091 1.51910E+01 1.10802E+00 1.81017E-02-9.35595E-01 2.46516E-13 6.10614E-14
 -1      4092 1.88771E+01 3.04676E-01-4.86720E-03-1.53302E+00-1.38106E-13-1.75067E-13
 -1      4093 1.86297E+01 4.92385E-01 1.01042E-03-1.37882E+00-1.20779E-13-1.33292E-13
 -1      4094 1.88902E+01 1.59327E-01 9.64712E-03-1.69447E+00-1.87370E-13-1.25688E-13
 -1      4095 1.50142E+01 1.15118E+00-1.92747E-02-8.43762E-02 4.33512E-14 5.86042E-14
 -1      4096 1.99076E+01 2.00683E-01-3.54180E-04-1.92387E-02 2.33304E-14-1.64251E-13
 -1      4097 1.99062E+01 2.03763E-01 3.66455E-04-1.27077E-03-1.13677E-14-3.98972E-13
 -1      4098 1.98942E+01 2.21821E-01 1.64955E-04-2.41930E-02 4.13590E-14-1.71454E-13
 -1      4099 1.97818E+01 6.20413E-01 6.03213E-04-5.99532E-01-8.81917E-16-2.37399E-13
 -1      4100 1.98513E+01 6.30453E-01-1.72089E-03-5.28750E-01 2.57645E-14-2.11080E-13
 -1      4101 1.95991E+01 6.11521E-01 1.04103E-03-7.42673E-01-4.11914E-14-2.69445E-13
 -1      4102 1.96740E+01 6.13982E-01-2.40135E-03-6.66826E-01-2.05048E-14-2.38942E-13
 -1      4103 1.96544E+01 6.83026E-01 2.09556E-03-5.54975E-01-1.26757E-16-1.84231E-13
 -1      4104 1.74069E+01-4.36487E-01-7.60600E-03-2.73956E+00-9.43610E-14-3.29164E-13
 -1      4105 1.62693E+01 1.28167E+00 2.72362E-02-4.93435E-01 1.97501E-13 9.93446E-14
 -1      4106 2.01171E+01 1.51160E+00-2.07455E-03-2.12360E-02 6.71064E-15-4.57085E-13
 -1      4107 2.01261E+01 1.48344E+00-3.11866E-03-4.14094E-02-2.95062E-14-4.48977E-13
 -1      4108 2.01443E+01 1.32913E+00 3.29723E-03 7.09451E-04-2.24662E-14-3.95815E-13
 -1      4109 2.01330E+01 1.36381E+00 4.51615E-03-5.70789E-03 3.49495E-14-4.13347E-13
 -1      4110 1.57080E+01 8.79978E-01-2.82207E-02 1.22700E+00-7.12928E-15 2.66098E-13
 -1      4111 1.52689E+01 1.17811E+00 3.22612E-02 5.47268E-01 6.51608E-14 3.10425E-13
 -1      4112 1.57767E+01 1.18458E+00 2.32427E-03 8.26055E-02 1.38860E-13 6.67764E-14
 -1      4113 1.63489E+01 9.26727E-01-1.77360E-02 1.12724E+00 4.94604E-14-4.50022E-14
 -1      4114 2.01467E+01 1.11252E+00-2.59014E-03-8.12408E-02 9.80609E-14-3.13312E-13
 -1      4115 2.01105E+01 9.52403E-01-1.51436E-03 1.57082E-01-5.78333E-14-3.35101E-13
 -1      4116 2.00658E+01 9.68333E-01 1.74384E-03 1.35043E-01-3.42908E-14-3.37106E-13
 -1      4117 1.69170E+01-2.68328E-02-7.18538E-04-2.43163E+00-6.92968E-14-3.84781E-13
 -1      4118 1.76800E+01-1.25578E-01 1.17515E-02-2.33239E+00-1.36358E-13-2.48861E-13
 -1      4119 1.77108E+01 1.45137E-01-7.59362E-03-2.02404E+00-1.06083E-13-2.32411E-13
 -1      4120 1.65011E+01 3.04661E-01-1.75063E-03-2.07847E+00-4.44618E-14-3.67712E-13
 -1      4121 1.68730E+01 1.22966E+00-1.44166E-02-5.87944E-02 1.16191E-13 1.28031E-14
 -1      4122 1.72788E+01 1.21670E+00-8.87836E-03-5.83541E-02 6.64799E-14-1.64288E-13
 -1      4123 1.94699E+01 8.35997E-01-2.61075E-03 2.00106E-01 7.73118E-15-3.17992E-13
 -1      4124 1.93174E+01 8.60661E-01-2.97209E-03 2.20422E-01 1.98813E-14-3.03785E-13
 -1      4125 2.01286E+01 1.20578E+00-1.34276E-03 2.20010E-02-3.46224E-14-3.64261E-13
 -1      4126 2.01148E+01 1.10706E+00 1.04752E-03 5.94446E-02-4.59962E-14-3.59562E-13
 -1      4127 2.01223E+01 1.23169E+00 6.14402E-05 1.51552E-02-9.32541E-15-3.87271E-13
 -1      4128 2.01222E+01 9.85510E-01 2.17461E-03-1.27381E-01 8.28890E-14-3.02187E-13
 -1      4129 2.01221E+01 1.15975E+00-9.46255E-04-5.22681E-02 7.54075E-14-3.49427E-13
 -1      4130 1.79036E+01 6.63372E-01 8.49432E-03 1.37934E+00-2.39874E-13-4.63286E-13
 -1      4131 1.72435E+01 8.49098E-01 1.38348E-02 1.27859E+00-6.36809E-14-3.74829E-13
 -1      4132 1.80029E+01 7.45390E-01-1.11710E-02 1.18745E+00-1.88734E-13-5.65416E-13
 -1      4133 1.91410E+01 8.92592E-01-3.24985E-03 2.22628E-01 1.21387E-15-3.18035E-13
 -1      4134 1.89532E+01 9.31000E-01-3.03360E-03 2.38983E-01 3.33598E-15-3.11332E-13
 -1      4135 1.92194E+01 9.01594E-01 7.21467E-03 6.96955E-02-7.95555E-15-3.38246E-13
 -1      4136 1.87357E+01 9.68859E-01-3.97721E-03 2.29019E-01-1.08803E-14-2.80633E-13
 -1      4137 1.84925E+01 1.00896E+00-6.98615E-03 2.39262E-01-3.59678E-14-2.93501E-13
 -1      4138 1.88458E+01 9.63805E-01 9.59824E-03 4.86134E-02 1.44145E-15-3.37177E-13
 -1      4139 1.82245E+01 1.04968E+00-5.99000E-03 2.30686E-01-3.67648E-14-2.70935E-13
 -1      4140 1.79219E+01 1.08248E+00-8.63685E-03 2.39661E-01-3.01851E-14-2.92972E-13
 -1      4141 1.83569E+01 1.06427E+00 1.69896E-02 1.07469E-02-2.21831E-14-3.37338E-13
 -1      4142 1.75762E+01 1.10547E+00-1.02940E-02 2.20789E-01-6.96809E-14-3.17033E-13
 -1      4143 1.71856E+01 1.11894E+00-1.36787E-02 2.30634E-01-5.72921E-14-3.57070E-13
 -1      4144 1.77664E+01 1.14033E+00 2.74765E-02-6.19611E-02-6.84468E-14-3.56805E-13
 -1      4145 1.67325E+01 1.13023E+00-1.25643E-02 2.07330E-01-2.44803E-14-3.59630E-13
 -1      4146 1.62273E+01 1.11697E+00-1.01799E-02 2.42900E-01 6.48071E-15-4.16554E-13
 -1      4147 1.69706E+01 1.17466E+00 2.89595E-02-1.80489E-01-4.64930E-14-4.42982E-13
 -1      4148 1.97321E+01 8.21190E-01-2.12674E-03 1.68721E-01-2.31984E-14-3.37453E-13
 -1      4149 1.96116E+01 8.22366E-01-2.41730E-03 1.94531E-01-1.77743E-14-3.38707E-13
 -1      4150 1.95369E+01 8.58171E-01 7.42032E-03 7.81054E-02 1.92927E-14-3.10794E-13
 -1      4151 1.54911E+01 1.07221E+00-1.50734E-02 9.71355E-02-1.09027E-15-4.78173E-13
 -1      4152 1.76147E+01 1.19999E+00-8.03391E-03-9.85413E-02 1.59687E-14-2.35134E-13
 -1      4153 1.79138E+01 1.16931E+00-4.97588E-03-9.50993E-02-5.16526E-14-2.35945E-13
 -1      4154 1.74762E+01 1.21359E+00 1.42780E-02 2.23781E-01 2.87639E-16-1.52217E-13
 -1      4155 1.81687E+01 1.12719E+00-5.97150E-03-1.20890E-01-3.21574E-14-3.28718E-13
 -1      4156 1.83979E+01 1.08047E+00-3.65140E-03-1.15399E-01-5.45061E-14-4.31959E-13
 -1      4157 1.80499E+01 1.15184E+00 9.35176E-03 1.22321E-01-1.72820E-13-4.35980E-13
 -1      4158 1.85965E+01 1.02625E+00-4.35793E-03-1.30029E-01-1.14544E-13-5.99052E-13
 -1      4159 1.87744E+01 9.69605E-01-2.77179E-03-1.21511E-01-1.68320E-13-4.77860E-13
 -1      4160 1.84954E+01 1.06044E+00 7.05764E-03 5.56891E-02-1.29761E-13-7.32464E-13
 -1      4161 1.89309E+01 9.08959E-01-3.22467E-03-1.28468E-01 8.77770E-16-3.74896E-13
 -1      4162 1.90698E+01 8.48012E-01-2.18531E-03-1.17478E-01 1.23709E-13-2.73833E-13
 -1      4163 1.88458E+01 9.49113E-01 5.53776E-03 1.46289E-02 4.73688E-14-7.45475E-13
 -1      4164 1.91934E+01 7.85785E-01-2.40604E-03-1.19360E-01 7.80647E-14-3.05133E-13
 -1      4165 1.93016E+01 7.24925E-01-1.76534E-03-1.06954E-01 1.66753E-13-3.47362E-13
 -1      4166 1.91226E+01 8.28404E-01 4.39913E-03-8.91633E-03 9.39818E-14-5.22655E-13
 -1      4167 1.93989E+01 6.64740E-01-1.80057E-03-1.05717E-01 2.33049E-13-3.08316E-13
 -1      4168 1.94827E+01 6.07081E-01-1.43923E-03-9.29545E-02 2.14497E-13-1.90526E-13
 -1      4169 1.93410E+01 7.06928E-01 3.50060E-03-2.07604E-02 2.61725E-13-2.99816E-13
 -1      4170 1.95586E+01 5.51381E-01-1.34511E-03-9.00204E-02-2.23267E-14-2.60619E-13
 -1      4171 1.96230E+01 4.98894E-01-1.16897E-03-7.77497E-02-5.58857E-14-2.86326E-13
 -1      4172 1.95121E+01 5.91030E-01 2.77288E-03-2.51322E-02 1.58159E-14-3.73145E-13
 -1      4173 1.96815E+01 4.49097E-01-9.98139E-04-7.40915E-02-3.66040E-14-3.22790E-13
 -1      4174 1.97303E+01 4.02802E-01-9.48755E-04-6.28896E-02-7.47725E-14-2.48887E-13
 -1      4175 1.96449E+01 4.84880E-01 2.17625E-03-2.50362E-02-9.33378E-14-5.44909E-13
 -1      4176 1.97749E+01 3.59758E-01-6.45135E-04-5.90885E-02-2.02225E-14-2.10855E-13
 -1      4177 1.98107E+01 3.19840E-01-8.95251E-04-4.95525E-02 8.04560E-14-1.58828E-13
 -1      4178 1.97465E+01 3.90656E-01 1.65520E-03-2.25158E-02-3.37890E-15-3.32003E-13
 -1      4179 1.99319E+01 8.69779E-01-1.68614E-03 1.27426E-01-2.32047E-14-3.39767E-13
 -1      4180 1.98414E+01 8.36119E-01-2.19691E-03 1.58622E-01-3.30945E-14-3.31121E-13
 -1      4181 1.97839E+01 8.61773E-01 6.31242E-03 7.21243E-02-6.87227E-15-3.98576E-13
 -1      4182 1.58727E+01 1.09266E+00 2.25157E-02-4.41313E-01-4.37274E-14-4.79551E-13
 -1      4183 1.83693E+01 8.42789E-01-8.57127E-03 8.91420E-01-2.86294E-13-5.82023E-13
 -1      4184 1.82575E+01 8.08468E-01 3.21759E-03 1.03117E+00-2.11943E-13-5.75938E-13
 -1      4185 1.77975E+01 9.39079E-01 3.87582E-03 9.36622E-01-1.93764E-13-5.87740E-13
 -1      4186 1.86895E+01 8.57299E-01-6.48227E-03 6.72709E-01-1.83336E-13-3.83163E-13
 -1      4187 1.85815E+01 8.61286E-01 2.34943E-03 7.76794E-01-2.88931E-13-5.26252E-13
 -1      4188 1.82454E+01 9.84990E-01 7.54104E-03 6.76394E-01-2.61307E-13-6.34093E-13
 -1      4189 1.89623E+01 8.16987E-01-5.11489E-03 5.11228E-01-5.60699E-14-1.68115E-13
 -1      4190 1.88633E+01 8.44302E-01 1.05144E-03 5.90554E-01-1.17164E-13-2.76117E-13
 -1      4191 1.86158E+01 9.52420E-01 6.75749E-03 4.94386E-01-2.76090E-13-4.98579E-13
 -1      4192 1.91910E+01 7.44242E-01-4.10135E-03 3.89587E-01 2.56251E-13-2.37048E-13
 -1      4193 1.91045E+01 7.85078E-01 3.83487E-04 4.51091E-01 1.59263E-13-1.86300E-13
 -1      4194 1.89186E+01 8.80454E-01 5.71448E-03 3.64288E-01 4.96266E-14-3.62233E-13
 -1      4195 1.93796E+01 6.54880E-01-3.31894E-03 2.96640E-01 5.15623E-14-3.12476E-13
 -1      4196 1.93066E+01 7.02064E-01 4.49562E-05 3.44957E-01 2.63010E-13-2.29332E-13
 -1      4197 1.91658E+01 7.86156E-01 4.76278E-03 2.69683E-01 3.00702E-13-3.94332E-13
 -1      4198 1.95327E+01 5.60177E-01-2.69052E-03 2.24962E-01-1.08695E-13-5.20740E-13
 -1      4199 1.94727E+01 6.08654E-01-1.03708E-04 2.63210E-01-1.24623E-13-5.36943E-13
 -1      4200 1.93659E+01 6.82174E-01 3.92431E-03 1.99987E-01 1.67453E-13-4.98393E-13
 -1      4201 1.96548E+01 4.67742E-01-2.17284E-03 1.69424E-01-2.45519E-13-5.70876E-13
 -1      4202 1.96068E+01 5.14156E-01-1.48024E-04 1.99775E-01-1.58830E-13-5.99534E-13
 -1      4203 1.95259E+01 5.77603E-01 3.19095E-03 1.48134E-01-6.93494E-14-6.30440E-13
 -1      4204 1.97504E+01 3.82313E-01-1.73610E-03 1.26371E-01-1.04067E-13-5.36387E-13
 -1      4205 1.97129E+01 4.24632E-01-1.38049E-04 1.50398E-01-2.14064E-13-5.95235E-13
 -1      4206 1.96520E+01 4.78552E-01 2.55529E-03 1.09289E-01-1.54411E-13-6.73756E-13
 -1      4207 1.98243E+01 3.06732E-01-1.14889E-03 9.33868E-02 4.51463E-14-7.53141E-13
 -1      4208 1.97953E+01 3.43657E-01-7.24769E-05 1.11937E-01-5.07109E-14-7.25019E-13
 -1      4209 1.97499E+01 3.88719E-01 2.01597E-03 8.00425E-02-3.83115E-14-9.05938E-13
 -1      4210 2.01077E+01 1.18715E+00-1.32415E-03-4.12098E-02 6.01704E-14-3.73769E-13
 -1      4211 1.57578E+01 9.29947E-01-1.40598E-02-9.37988E-01-4.49523E-14-5.14538E-13
 -1      4212 1.61320E+01 6.18662E-01 8.72696E-04-1.64498E+00-2.43677E-14-4.53269E-13
 -1      4213 1.68603E+01 5.68105E-01 1.61503E-02-1.61641E+00-3.46725E-14-4.12870E-13
 -1      4214 1.64248E+01 9.71652E-01-1.68109E-02-7.26804E-01-5.88464E-14-4.52314E-13
 -1      4215 1.62895E+01 1.20748E+00-7.09318E-03 7.48399E-02 2.29080E-13 6.51172E-14
 -1      4216 1.98486E+01 7.03707E-01 2.14210E-03-4.30587E-01 3.51082E-14-2.31853E-13
 -1      4217 1.99407E+01 6.50009E-01-3.20315E-04-4.67588E-01 4.16696E-14-2.33799E-13
 -1      4218 2.00017E+01 6.81397E-01-1.12980E-03-3.96417E-01 7.71412E-14-2.46982E-13
 -1      4219 1.89098E+01 6.22165E-01 2.57714E-03-1.08769E+00-9.71673E-14-1.75103E-13
 -1      4220 1.92031E+01 5.45184E-01 4.23258E-03-1.11073E+00-7.39564E-14-1.81419E-13
 -1      4221 1.92611E+01 5.75406E-01-5.80192E-03-1.00854E+00-6.18202E-14-2.25652E-13
 -1      4222 2.00730E+01 1.01436E+00-1.26636E-03 7.63922E-02-3.35904E-14-3.53831E-13
 -1      4223 2.00006E+01 9.14948E-01-1.55465E-03 1.22772E-01-2.61576E-14-3.25903E-13
 -1      4224 1.99595E+01 9.27531E-01 6.27000E-03 6.43544E-02-1.61886E-14-3.41078E-13
 -1      4225 2.00661E+01 1.05137E+00 3.00247E-03 4.89739E-02-2.79327E-14-3.05415E-13
 -1      4226 2.01215E+01 8.04388E-01-1.05844E-04-2.51109E-01 1.21647E-13-2.48080E-13
 -1      4227 2.01149E+01 8.87248E-01 1.77819E-03-2.05389E-01 1.16865E-13-2.25024E-13
 -1      4228 2.00790E+01 9.26314E-01-2.57893E-03-1.62200E-01 6.62787E-14-2.86850E-13
 -1      4229 2.00729E+01 7.36421E-01-1.03546E-03-3.27608E-01 9.62219E-14-2.35620E-13
 -1      4230 1.82761E+01 6.10032E-01 8.89327E-03-1.28638E+00-1.29301E-13-1.98583E-13
 -1      4231 1.83880E+01 6.64198E-01-1.14347E-02-1.13358E+00-9.40739E-14-1.89457E-13
 -1      4232 1.72494E+01 1.06030E+00-1.22428E-02 6.88005E-01 1.21556E-14-2.23442E-13
 -1      4233 1.69283E+01 1.01113E+00-4.64682E-03 8.60855E-01 4.79200E-14-8.70174E-14
 -1      4234 1.65879E+01 1.22659E+00 2.91611E-02 4.47558E-01 1.63223E-13 1.14387E-13
 -1      4235 1.99024E+01 2.11734E-01 4.81669E-04 3.78778E-02 5.04999E-14-1.04227E-12
 -1      4236 1.99036E+01 2.09350E-01-6.72510E-04 5.43015E-02 1.85103E-13-1.02299E-12
 -1      4237 1.98911E+01 2.30848E-01 1.22719E-04 6.59390E-02 1.11662E-13-8.69426E-13
 -1      4238 1.98331E+01 2.97658E-01-1.07401E-04-4.49675E-02 1.39350E-13-1.54175E-13
 -1      4239 1.98491E+01 2.75761E-01-6.81477E-04-3.71980E-02 1.98672E-13-1.80349E-13
 -1      4240 1.98104E+01 3.22929E-01 1.05139E-03-1.72607E-02 1.04294E-13-4.83054E-13
 -1      4241 1.95329E+01 7.28788E-01 4.67507E-05-4.81579E-01 9.15777E-15-2.12550E-13
 -1      4242 1.96371E+01 7.25433E-01-3.02381E-03-4.20168E-01 1.57418E-14-2.00877E-13
 -1      4243 1.94036E+01 5.99711E-01 3.11344E-03-9.05149E-01-4.39864E-14-2.95642E-13
 -1      4244 1.94779E+01 6.06032E-01-2.69617E-03-8.19280E-01-6.01807E-14-2.65938E-13
 -1      4245 1.94338E+01 6.80888E-01 3.21934E-03-6.97523E-01-3.21071E-14-2.28607E-13
 -1      4246 1.91731E+01 6.82301E-01 4.28936E-03-8.68530E-01-8.58270E-14-1.73773E-13
 -1      4247 1.98687E+01 2.55176E-01-7.33631E-04 7.18439E-02 1.00877E-13-8.25085E-13
 -1      4248 1.98529E+01 2.78868E-01-6.19516E-05 8.62428E-02 1.32357E-13-7.93016E-13
 -1      4249 1.98187E+01 3.16615E-01 1.52932E-03 6.18265E-02 5.14151E-14-9.37548E-13
 -1      4250 1.98670E+01 2.59252E-01 9.60367E-04 5.04019E-02 1.78097E-13-1.03680E-12
 -1      4251 2.01139E+01 1.23729E+00-2.23620E-03 1.08914E-02 2.76503E-14-3.83165E-13
 -1      4252 1.69904E+01 7.60211E-01 1.72282E-02-1.35824E+00-9.73327E-14-3.78543E-13
 -1      4253 1.73266E+01 4.33453E-01 8.24356E-04-1.76716E+00-1.02942E-13-3.23232E-13
 -1      4254 1.78760E+01 3.36652E-01 8.38684E-03-1.75452E+00-1.47422E-13-1.88940E-13
 -1      4255 2.00905E+01 1.09133E+00 5.47363E-04-2.66444E-02 3.23284E-14-3.51829E-13
 -1      4256 1.99019E+01 2.06881E-01-4.53999E-04 1.49029E-02-8.43146E-15-6.57516E-13
 -1      4257 1.98662E+01 2.57548E-01-3.35264E-05-3.34011E-02 1.95531E-13-1.48881E-13
 -1      4258 1.98793E+01 2.37730E-01-6.58341E-04-2.73457E-02 1.03614E-13-1.47563E-13
 -1      4259 1.98774E+01 2.43246E-01 8.23582E-04-4.77744E-03 1.45568E-13-2.21296E-13
 -1      4260 1.98478E+01 2.79614E-01 8.61556E-04-1.07384E-02 1.35728E-13-4.34975E-13
 -1      4261 1.97575E+01 7.32396E-01-6.27689E-04-3.74037E-01 4.86471E-15-1.91033E-13
 -1      4262 1.98453E+01 7.48497E-01-2.32633E-03-3.16970E-01 3.67611E-14-2.10887E-13
 -1      4263 1.96578E+01 7.88314E-01 5.81371E-03-3.02271E-01 1.96562E-14-2.02654E-13
 -1      4264 1.83730E+01 2.17031E-01-5.12618E-03-1.77561E+00-1.73772E-13-1.28254E-13
 -1      4265 1.86340E+01 7.18545E-01 4.90677E-03-9.87626E-01-9.42069E-14-2.08368E-13
 -1      4266 1.87540E+01 7.37488E-01-8.04973E-03-8.70656E-01-1.02081E-13-2.20857E-13
 -1      4267 1.82981E+01 8.42355E-01 1.58532E-02-9.03957E-01-1.03531E-13-2.90031E-13
 -1      4268 1.95746E+01 8.07495E-01-4.52640E-03-1.30293E-01 3.53313E-14-2.79204E-13
 -1      4269 1.94309E+01 8.19586E-01-4.93891E-03-1.38680E-01 2.75264E-14-2.76162E-13
 -1      4270 1.79632E+01 4.80368E-01-1.47014E-02-1.53485E+00-1.72760E-13-1.91403E-13
 -1      4271 1.77824E+01 7.45475E-01 2.07848E-02-1.25334E+00-1.31026E-13-2.80832E-13
 -1      4272 1.89320E+01 9.04800E-01-8.41634E-03-1.25912E-01-2.49323E-14-2.97875E-13
 -1      4273 1.87107E+01 9.45441E-01-8.36816E-03-1.40287E-01-1.77287E-14-3.46128E-13
 -1      4274 1.84994E+01 9.32312E-01-3.91463E-03-3.69291E-01-5.52460E-14-3.33945E-13
 -1      4275 1.82096E+01 9.46806E-01-1.49432E-02-4.18985E-01-7.35258E-14-3.52430E-13
 -1      4276 1.79602E+01 9.40285E-01-1.29662E-02-5.35422E-01-6.93284E-14-3.55530E-13
 -1      4277 1.76006E+01 9.47079E-01-2.19818E-02-6.03896E-01-9.02414E-14-3.59187E-13
 -1      4278 1.75334E+01 1.09958E+00-6.94929E-03 5.54663E-01-7.39523E-14-2.80473E-13
 -1      4279 1.78735E+01 1.08453E+00-1.01665E-03 4.72010E-01-1.50214E-13-4.38957E-13
 -1      4280 1.93817E+01 7.33994E-01-4.82172E-03-5.39683E-01-1.13278E-14-2.03266E-13
 -1      4281 1.93956E+01 8.00551E-01 6.84601E-03-3.95563E-01 1.26169E-15-2.14159E-13
 -1      4282 1.92557E+01 7.36522E-01-4.21747E-03-6.16442E-01-4.07383E-14-2.08550E-13
 -1      4283 1.80774E+01 1.06619E+00-8.60503E-03 3.79018E-01-1.75768E-13-4.78534E-13
 -1      4284 1.83370E+01 1.04118E+00-1.11289E-03 3.23884E-01-2.76481E-13-5.22238E-13
 -1      4285 1.85041E+01 1.00292E+00-6.52055E-03 2.59353E-01-2.89964E-13-4.41151E-13
 -1      4286 1.87070E+01 9.61127E-01-1.11883E-03 2.22752E-01-9.69711E-14-4.95888E-13
 -1      4287 1.88440E+01 9.10691E-01-5.02453E-03 1.76868E-01 1.28489E-13-5.65937E-13
 -1      4288 1.90040E+01 8.59388E-01-1.02318E-03 1.53080E-01 1.77647E-13-5.23220E-13
 -1      4289 1.91154E+01 8.03004E-01-3.94967E-03 1.20071E-01 1.74480E-13-4.28236E-13
 -1      4290 1.92418E+01 7.47900E-01-8.86526E-04 1.05103E-01 2.20509E-13-3.61246E-13
 -1      4291 1.93316E+01 6.90379E-01-3.13946E-03 8.11047E-02 2.25318E-13-3.74039E-13
 -1      4292 1.94310E+01 6.35668E-01-7.34344E-04 7.21004E-02 1.49806E-13-4.05747E-13
 -1      4293 1.95024E+01 5.80445E-01-2.50174E-03 5.44927E-02-4.64237E-14-4.49041E-13
 -1      4294 1.95800E+01 5.28972E-01-5.83298E-04 4.94156E-02-1.57766E-13-5.02069E-13
 -1      4295 1.96359E+01 4.78266E-01-1.98456E-03 3.63986E-02-1.22544E-13-5.68658E-13
 -1      4296 1.96958E+01 4.31751E-01-4.45415E-04 3.38278E-02-6.57446E-14-5.87770E-13
 -1      4297 1.97388E+01 3.86934E-01-1.51397E-03 2.41451E-02-4.89625E-14-6.56677E-13
 -1      4298 1.97838E+01 3.45879E-01-5.13241E-04 2.31491E-02 2.21954E-14-6.23141E-13
 -1      4299 1.98079E+01 8.27444E-01-3.75762E-03-9.23742E-02 2.87286E-16-2.78992E-13
 -1      4300 1.96957E+01 8.12284E-01-3.99029E-03-9.33356E-02-1.39184E-15-2.72215E-13
 -1      4301 1.98862E+01 2.28531E-01-3.58358E-04 2.17134E-02 1.35577E-13-6.99005E-13
 -1      4302 2.00092E+01 7.78213E-01 2.16331E-03-3.04961E-01 8.71657E-14-2.30655E-13
 -1      4303 1.92845E+01 8.34838E-01-3.98102E-03-1.82203E-01-2.42044E-14-2.63714E-13
 -1      4304 2.00454E+01 9.98925E-01-2.65627E-03-2.15680E-02 1.80342E-14-3.40658E-13
 -1      4305 1.72853E+01 9.04022E-01-1.03927E-02-8.00309E-01-1.12922E-13-3.90921E-13
 -1      4306 1.98113E+01 3.15026E-01-8.05608E-04 1.95245E-02 5.57669E-14-6.41658E-13
 -1      4307 2.00203E+01 8.50834E-01-1.13697E-03-2.00249E-01 6.74017E-14-2.54352E-13
 -1      4308 2.00380E+01 9.52119E-01 4.25484E-03-1.26812E-01 4.20467E-14-3.14804E-13
 -1      4309 1.86930E+01 8.88887E-01 6.55423E-03-5.40082E-01-7.80500E-14-2.30052E-13
 -1      4310 1.91158E+01 8.65468E-01-1.72758E-03-2.01417E-01-4.78123E-14-2.59970E-13
 -1      4311 1.68523E+01 8.75364E-01-1.49319E-02-9.15533E-01-8.20338E-14-4.16256E-13
 -1      4312 1.99818E+01 9.18042E-01-3.44761E-03-4.82171E-02-1.66545E-14-2.94845E-13
 -1      4313 1.98787E+01 8.29146E-01 4.92033E-03-2.08834E-01 2.50087E-14-2.00378E-13
 -1      4314 1.99485E+01 7.91512E-01-1.05720E-03-2.63369E-01 6.26989E-14-2.35268E-13
 -1      4315 1.99111E+01 8.70527E-01-3.91014E-03-4.87595E-02-6.13561E-15-3.08020E-13
 -1      4316 1.90750E+01 8.64656E-01 8.28251E-03-3.89833E-01-5.84445E-14-2.27196E-13
 -1      4317 1.89380E+01 7.95663E-01 2.17317E-03-6.43227E-01-7.62106E-14-2.19655E-13
 -1      4318 1.98329E+01 2.91913E-01-6.14903E-04 2.11990E-02 5.91960E-14-7.80120E-13
 -1      4319 1.90789E+01 7.87563E-01-2.56108E-03-5.60567E-01-6.50960E-14-2.07794E-13
 -1      4320 1.98719E+01 2.45978E-01-5.13131E-04 1.96217E-02 1.79072E-13-6.87155E-13
 -1      4321 1.98498E+01 2.72576E-01-5.00748E-04 2.32410E-02 1.63360E-13-6.19653E-13
 -3
    1PSTEP                         3           1           1          
  100CL  101 1.000000000        4321                     0    1           1
 -4  TOSTRAIN    6    1
 -5  EXX         1    4    1    1
 -5  EYY         1    4    2    2
 -5  EZZ         1    4    3    3
 -5  EXY         1    4    1    2
 -5  EYZ         1    4    2    3
 -5  EZX         1    4    3    1
 -1         1 3.13072E-04-9.68548E-05-7.94617E-05-1.48662E-05-3.84394E-19 6.36323E-18
 -1         2 3.58935E-05-1.10029E-04 1.99102E-05 5.83525E-07 7.75891E-18 5.54251E-19
 -1         3 9.52364E-05-2.85717E-05-2.85664E-05 1.87243E-09-1.56356E-18-2.20229E-18
 -1         4 9.52364E-05-2.85719E-05-2.85664E-05-1.54227E-09 6.78876E-19 9.52727E-19
 -1         5 1.42540E-04-2.13359E-05-4.23407E-05 3.83177E-05-3.58083E-19 2.44865E-17
 -1         6 1.44557E-04 2.56366E-10-4.39864E-05-5.31986E-05-1.44864E-18 2.35945E-17
 -1         7 9.04303E-05-5.22609E-07-3.89683E-05-2.90165E-05-2.18005E-19 4.51580E-18
 -1         8 8.51280E-05 7.71547E-08-3.63255E-05-1.99920E-05-2.90479E-19-1.43989E-18
 -1         9 8.29137E-05 6.95409E-08-3.53836E-05-1.53139E-05-2.51251E-19-4.71644E-18
 -1        10 8.19078E-05 3.44886E-08-3.49350E-05-1.17363E-05-1.65787E-19-6.29748E-18
 -1        11 8.13844E-05 1.65528E-08-3.47100E-05-8.69195E-06-1.11054E-19-7.03565E-18
 -1        12 8.10921E-05 8.14243E-09-3.45900E-05-6.02098E-06-6.28012E-20-7.37692E-18
 -1        13 8.09254E-05 4.77776E-09-3.45245E-05-3.51403E-06-3.19358E-20-7.43637E-18
 -1        14 8.08503E-05 3.53170E-09-3.44957E-05-1.12504E-06 1.35451E-20-7.34446E-18
 -1        15 8.08514E-05 3.53746E-09-3.44960E-05 1.22744E-06 6.84397E-20-7.20976E-18
 -1        16 8.09290E-05 4.73487E-09-3.45255E-05 3.62218E-06 8.65562E-20-7.03409E-18
 -1        17 8.10991E-05 7.41502E-09-3.45915E-05 6.14249E-06 1.25645E-19-6.67101E-18
 -1        18 8.13949E-05 1.56649E-08-3.47121E-05 8.83367E-06 1.70326E-19-6.03661E-18
 -1        19 8.19255E-05 3.37242E-08-3.49406E-05 1.19147E-05 2.26191E-19-4.97960E-18
 -1        20 8.29313E-05 7.46901E-08-3.53946E-05 1.55439E-05 3.06838E-19-2.96623E-18
 -1        21 8.50914E-05 1.59564E-07-3.63630E-05 2.02019E-05 3.25419E-19 7.62199E-19
 -1        22 9.14450E-05-1.09931E-07-3.86423E-05 2.77695E-05 4.88103E-20 8.13036E-18
 -1        23 1.12467E-04-3.79587E-05-3.52484E-05-4.34550E-06-9.74723E-19 1.85311E-17
 -1        24 9.25791E-05-2.76321E-05-2.89256E-05 3.93390E-07-2.81311E-19 1.42244E-17
 -1        25 8.91052E-05-2.68505E-05-2.69237E-05 3.73718E-07-1.41251E-19 9.71281E-18
 -1        26 8.82387E-05-2.65586E-05-2.64606E-05 2.01702E-07-2.41479E-20 6.50692E-18
 -1        27 8.85741E-05-2.66307E-05-2.65477E-05 1.38425E-07-9.11024E-20 4.82049E-18
 -1        28 8.95329E-05-2.68960E-05-2.68470E-05 1.01470E-07-6.81001E-20 3.41154E-18
 -1        29 9.08778E-05-2.72872E-05-2.72594E-05 7.93095E-08-1.55010E-20 1.76314E-18
 -1        30 9.25152E-05-2.77723E-05-2.77567E-05 6.65955E-08 5.09281E-20 7.56318E-19
 -1        31 9.44285E-05-2.83434E-05-2.83365E-05 6.13107E-08-6.49905E-20-7.75462E-19
 -1        32 9.66495E-05-2.90083E-05-2.90092E-05 6.31121E-08 1.03329E-20-1.78542E-18
 -1        33 9.92412E-05-2.97847E-05-2.97938E-05 7.25367E-08 1.69649E-19-2.15245E-18
 -1        34 1.02280E-04-3.06942E-05-3.07124E-05 9.04564E-08 1.08551E-20-1.91412E-18
 -1        35 1.05827E-04-3.17547E-05-3.17814E-05 1.17286E-07-9.36162E-22-2.59863E-18
 -1        36 1.09888E-04-3.29666E-05-3.29977E-05 1.51349E-07 9.28314E-20-2.43362E-18
 -1        37 1.14336E-04-3.42914E-05-3.43144E-05 1.85608E-07-1.51282E-19-2.22516E-18
 -1        38 1.18801E-04-3.56198E-05-3.56085E-05 2.02150E-07-5.56196E-20-2.78656E-18
 -1        39 1.22537E-04-3.67326E-05-3.66449E-05 1.65679E-07-8.51665E-21-2.89391E-18
 -1        40 1.24342E-04-3.72755E-05-3.70688E-05 2.39770E-08 2.30079E-19-3.08438E-18
 -1        41 1.22717E-04-3.68028E-05-3.64778E-05-2.65809E-07 1.88786E-19-4.15442E-18
 -1        42 1.16517E-04-3.49640E-05-3.46259E-05-6.72825E-07-9.00552E-20-4.37776E-18
 -1        43 1.06138E-04-3.18576E-05-3.17343E-05-1.00950E-06-2.87823E-19-3.72763E-18
 -1        44 9.45671E-05-2.83679E-05-2.86605E-05-9.73895E-07 1.75483E-19-3.37559E-18
 -1        45 8.67728E-05-2.60005E-05-2.66623E-05-4.11844E-07-1.73503E-19-3.37764E-18
 -1        46 8.68307E-05-2.60184E-05-2.66770E-05 4.17963E-07 3.64257E-20-5.58800E-18
 -1        47 9.47257E-05-2.84169E-05-2.87020E-05 9.76500E-07-1.33206E-19-7.05986E-18
 -1        48 1.06364E-04-3.19265E-05-3.17970E-05 1.00852E-06 1.73359E-19-7.57163E-18
 -1        49 1.16784E-04-3.50446E-05-3.47057E-05 6.69508E-07 1.81880E-20-7.67684E-18
 -1        50 1.23025E-04-3.68958E-05-3.65719E-05 2.62685E-07-1.32729E-20-6.93560E-18
 -1        51 1.24719E-04-3.73896E-05-3.71855E-05-2.51412E-08 8.93074E-20-6.87067E-18
 -1        52 1.23035E-04-3.68833E-05-3.67983E-05-1.63870E-07-1.27622E-19-6.86207E-18
 -1        53 1.19483E-04-3.58258E-05-3.58165E-05-1.97851E-07 9.96951E-20-7.14081E-18
 -1        54 1.15267E-04-3.45723E-05-3.45975E-05-1.78875E-07-4.88938E-19-6.65708E-18
 -1        55 1.11141E-04-3.33441E-05-3.33779E-05-1.41650E-07-3.54060E-19-5.99012E-18
 -1        56 1.07482E-04-3.22527E-05-3.22832E-05-1.03767E-07-6.09821E-19-5.28250E-18
 -1        57 1.04425E-04-3.13389E-05-3.13623E-05-7.19970E-08 6.52981E-20-5.90405E-18
 -1        58 1.01971E-04-3.06036E-05-3.06199E-05-4.77201E-08 5.95992E-20-5.31175E-18
 -1        59 1.00058E-04-3.00291E-05-3.00397E-05-3.01444E-08-1.58608E-19-4.79371E-18
 -1        60 9.86003E-05-2.95907E-05-2.95972E-05-1.78751E-08-5.66642E-19-6.30949E-18
 -1        61 9.75133E-05-2.92631E-05-2.92667E-05-9.55758E-09 1.37642E-18-3.56117E-18
 -1        62 9.67194E-05-2.90234E-05-2.90252E-05-4.07986E-09-9.80260E-19-1.59989E-18
 -1        63 9.61527E-05-2.88519E-05-2.88526E-05-5.92993E-10-1.47297E-19-4.43860E-18
 -1        64 9.57593E-05-2.87326E-05-2.87326E-05 1.52891E-09 1.38712E-19-6.30380E-18
 -1        65 9.54959E-05-2.86526E-05-2.86522E-05 2.74142E-09-8.56482E-20-3.83563E-18
 -1        66 9.53291E-05-2.86016E-05-2.86011E-05 3.37960E-09 3.71210E-19-5.75152E-18
 -1        67 9.52330E-05-2.85720E-05-2.85716E-05 3.69970E-09 5.97848E-20-7.91746E-18
 -1        68 9.51881E-05-2.85579E-05-2.85577E-05 3.91753E-09 1.09091E-18-5.80032E-18
 -1        69 9.51800E-05-2.85549E-05-2.85549E-05 4.21330E-09-6.38281E-19-2.98762E-18
 -1        70 9.51964E-05-2.85595E-05-2.85590E-05 4.62064E-09 1.39115E-19-5.88007E-19
 -1        71 9.52245E-05-2.85682E-05-2.85652E-05 4.40361E-09 7.58155E-20 1.88713E-18
 -1        72 1.01738E-04-3.04509E-05-3.40137E-05-1.92750E-06 4.01176E-19 2.22516E-17
 -1        73 9.23530E-05-2.74534E-05-2.88397E-05-3.32444E-07 1.78092E-19 1.69559E-17
 -1        74 8.91076E-05-2.67042E-05-2.69719E-05-1.22124E-07 8.41756E-20 1.33418E-17
 -1        75 8.82835E-05-2.65127E-05-2.65096E-05-8.96992E-08 7.60423E-20 1.08886E-17
 -1        76 8.86202E-05-2.66120E-05-2.65786E-05-6.95493E-08 7.77178E-20 8.42902E-18
 -1        77 8.95665E-05-2.68870E-05-2.68651E-05-5.51990E-08-2.03852E-20 6.97586E-18
 -1        78 9.08806E-05-2.72753E-05-2.72642E-05-4.51961E-08-4.63337E-20 6.37016E-18
 -1        79 9.24557E-05-2.77444E-05-2.77404E-05-3.86164E-08 2.61294E-20 5.08989E-18
 -1        80 9.42518E-05-2.82808E-05-2.82827E-05-3.54779E-08 1.79560E-21 3.85283E-18
 -1        81 9.62634E-05-2.88820E-05-2.88894E-05-3.64087E-08 1.25454E-19 3.15641E-18
 -1        82 9.84961E-05-2.95492E-05-2.95617E-05-4.23119E-08 1.18014E-19 2.09911E-18
 -1        83 1.00944E-04-3.02802E-05-3.02961E-05-5.40114E-08-1.59627E-19 2.36433E-18
 -1        84 1.03561E-04-3.10611E-05-3.10762E-05-7.16381E-08 7.49428E-20 2.38768E-18
 -1        85 1.06224E-04-3.18558E-05-3.18621E-05-9.34939E-08-1.40953E-20 1.48861E-18
 -1        86 1.08695E-04-3.25944E-05-3.25785E-05-1.14226E-07 5.87764E-20-1.02395E-19
 -1        87 1.10585E-04-3.31625E-05-3.31066E-05-1.22626E-07 4.79806E-21-1.40383E-18
 -1        88 1.11354E-04-3.34011E-05-3.32880E-05-1.00595E-07-2.93807E-19-1.81177E-18
 -1        89 1.10388E-04-3.31278E-05-3.29542E-05-2.68994E-08 2.87789E-19-2.14522E-18
 -1        90 1.07218E-04-3.21977E-05-3.19920E-05 1.09725E-07-3.80698E-19-1.25038E-18
 -1        91 1.01858E-04-3.06041E-05-3.04388E-05 2.88340E-07-1.20165E-19 1.31044E-18
 -1        92 9.51596E-05-2.85877E-05-2.85609E-05 4.39924E-07-1.75831E-19 1.68014E-18
 -1        93 8.88630E-05-2.66661E-05-2.68414E-05 4.68723E-07 1.76988E-19-4.04988E-20
 -1        94 8.50602E-05-2.54827E-05-2.58241E-05 3.20862E-07 1.33019E-19-2.58237E-18
 -1        95 8.51915E-05-2.54959E-05-2.58678E-05 4.15221E-08 1.97620E-19-3.12956E-18
 -1        96 8.92219E-05-2.67111E-05-2.69590E-05-2.39684E-07 2.33900E-19-1.33212E-18
 -1        97 9.56534E-05-2.86684E-05-2.87210E-05-4.01394E-07-1.57183E-19-6.66059E-19
 -1        98 1.02389E-04-3.07184E-05-3.06071E-05-4.10654E-07-4.05591E-19 1.42495E-18
 -1        99 1.07732E-04-3.23384E-05-3.21497E-05-3.14335E-07-3.64787E-21-7.15068E-19
 -1       100 1.10891E-04-3.32890E-05-3.31040E-05-1.83576E-07 2.55177E-20-9.47863E-19
 -1       101 1.11898E-04-3.35861E-05-3.34483E-05-6.92599E-08-1.25252E-19-1.11203E-18
 -1       102 1.11251E-04-3.33854E-05-3.33039E-05 8.75174E-09 2.69004E-19 9.56386E-20
 -1       103 1.09574E-04-3.28768E-05-3.28416E-05 5.13845E-08-6.81685E-19 3.08039E-18
 -1       104 1.07408E-04-3.22239E-05-3.22195E-05 6.80017E-08 4.46661E-19 5.34787E-18
 -1       105 1.05145E-04-3.15435E-05-3.15560E-05 6.86954E-08 4.13236E-19 2.53523E-18
 -1       106 1.03023E-04-3.09067E-05-3.09264E-05 6.12163E-08-5.41478E-19 7.18383E-19
 -1       107 1.01166E-04-3.03498E-05-3.03709E-05 5.05760E-08 5.33361E-19-6.84738E-19
 -1       108 9.96182E-05-2.98857E-05-2.99052E-05 3.96161E-08 4.97401E-19-3.13125E-18
 -1       109 9.83756E-05-2.95132E-05-2.95298E-05 2.97338E-08 8.73193E-20-3.26610E-18
 -1       110 9.74095E-05-2.92235E-05-2.92369E-05 2.14674E-08-2.13122E-19-4.29732E-18
 -1       111 9.66799E-05-2.90048E-05-2.90151E-05 1.48909E-08 2.35408E-19-3.67542E-18
 -1       112 9.61451E-05-2.88443E-05-2.88521E-05 9.85311E-09-8.82515E-19-2.10727E-18
 -1       113 9.57656E-05-2.87304E-05-2.87361E-05 6.11360E-09 4.76555E-19-1.15659E-18
 -1       114 9.55069E-05-2.86527E-05-2.86568E-05 3.41346E-09-5.66795E-19-1.23132E-18
 -1       115 9.53401E-05-2.86026E-05-2.86055E-05 1.50415E-09 5.25494E-19-2.05267E-18
 -1       116 9.52422E-05-2.85731E-05-2.85752E-05 1.47922E-10 2.16082E-19-3.41777E-18
 -1       117 9.51951E-05-2.85588E-05-2.85604E-05-8.89899E-10 2.43771E-19-5.83586E-18
 -1       118 9.51847E-05-2.85555E-05-2.85567E-05-1.86047E-09 5.54895E-19-1.01177E-17
 -1       119 9.51993E-05-2.85597E-05-2.85602E-05-3.21315E-09-1.29464E-18-8.44136E-18
 -1       120 9.52249E-05-2.85678E-05-2.85657E-05-4.39797E-09 1.01651E-18-4.57412E-18
 -1       121 9.52408E-05-2.85841E-05-2.85660E-05-5.10684E-09-3.72605E-18-7.37235E-19
 -1       122 9.52480E-05-2.86072E-05-2.85612E-05-3.44897E-09 2.78241E-19-6.66127E-19
 -1       123 9.52503E-05-2.86151E-05-2.85595E-05-1.46345E-09 2.02910E-18 6.60092E-19
 -1       124 9.52469E-05-2.86035E-05-2.85626E-05 1.35784E-10-1.81855E-18 7.25357E-19
 -1       125 9.52390E-05-2.85771E-05-2.85699E-05 1.03350E-09-4.78117E-19-1.07578E-18
 -1       126 9.52298E-05-2.85459E-05-2.85786E-05 1.26746E-09-7.72147E-19 1.32256E-18
 -1       127 9.52217E-05-2.85184E-05-2.85863E-05 9.67163E-10-2.57801E-18 1.98658E-19
 -1       128 9.52171E-05-2.85031E-05-2.85907E-05 3.14938E-10-5.80596E-18 6.14089E-19
 -1       129 9.52175E-05-2.85042E-05-2.85903E-05-4.52470E-10-3.85786E-18 1.30299E-18
 -1       130 9.52226E-05-2.85216E-05-2.85854E-05-1.08313E-09-3.79219E-18-7.09668E-19
 -1       131 9.52312E-05-2.85507E-05-2.85772E-05-1.33953E-09-8.57403E-18-1.54880E-18
 -1       132 9.52407E-05-2.85826E-05-2.85683E-05-1.03616E-09-1.10741E-17 1.34195E-18
 -1       133 9.52484E-05-2.86085E-05-2.85612E-05-4.15037E-11-6.84367E-18 5.96473E-19
 -1       134 9.52514E-05-2.86188E-05-2.85584E-05 1.56396E-09-7.17683E-18 1.14846E-19
 -1       135 9.52488E-05-2.86092E-05-2.85607E-05 5.01177E-09-7.83491E-18-9.02927E-19
 -1       136 9.52406E-05-2.85849E-05-2.85655E-05 7.14781E-09-3.85709E-18 5.56685E-19
 -1       137 2.59715E-05-8.67820E-05 1.53209E-05-2.27679E-05 2.07383E-17 3.87301E-18
 -1       138 8.49142E-06-3.60043E-05 3.78913E-06-1.88242E-05 2.70068E-17 1.24239E-17
 -1       139 1.04528E-05 1.15153E-05-1.33128E-05 1.97173E-05 2.83328E-17 2.00294E-17
 -1       140 5.89483E-05 2.66878E-05-3.53282E-05 7.84286E-05 2.07544E-17 2.38774E-17
 -1       141 1.44667E-04-3.12695E-06-5.43889E-05 1.11036E-04 1.21257E-17 2.24328E-17
 -1       142 2.44864E-04-5.65320E-05-7.04221E-05 9.47089E-05 4.66101E-18 1.50763E-17
 -1       143 3.01365E-04-9.15566E-05-7.76899E-05 3.00417E-05 2.95112E-19 2.32405E-18
 -1       144 2.91720E-04-8.53670E-05-7.64997E-05-5.05021E-05 1.85556E-18-1.04914E-17
 -1       145 2.19761E-04-4.20020E-05-6.68006E-05-1.05146E-04 8.21993E-18-2.23418E-17
 -1       146 1.18728E-04 8.87235E-06-4.96666E-05-1.07088E-04 1.85034E-17-2.80186E-17
 -1       147 4.15117E-05 2.86522E-05-2.99734E-05-6.49201E-05 2.51615E-17-2.57769E-17
 -1       148 5.56843E-06 1.49376E-06-8.15266E-06-5.87456E-06 2.75472E-17-1.76822E-17
 -1       149 1.34162E-05-5.41513E-05 8.35569E-06 2.44110E-05 1.96808E-17-7.32863E-18
 -1       150 3.15320E-05-9.99393E-05 1.79206E-05 1.65745E-05 1.08937E-17-1.88689E-18
 -1       151 3.51529E-05-1.08275E-04 1.95211E-05-9.98498E-06-2.99373E-18-3.78438E-19
 -1       152 1.94528E-05-7.35981E-05 1.29158E-05-2.74292E-05-1.39979E-17-4.38710E-18
 -1       153 5.76666E-06-1.47795E-05-2.89394E-06-6.46804E-06-2.26437E-17-1.32709E-17
 -1       154 2.40242E-05 2.27724E-05-2.21967E-05 4.26286E-05-2.56689E-17-2.34065E-17
 -1       155 9.19845E-05 1.79320E-05-4.38726E-05 9.66622E-05-1.98333E-17-2.60454E-17
 -1       156 1.95172E-04-2.80858E-05-6.30024E-05 1.11451E-04-9.41011E-18-2.14401E-17
 -1       157 2.87845E-04-8.07968E-05-7.63811E-05 6.58561E-05-2.97766E-18-9.00862E-18
 -1       158 2.61214E-04-6.50173E-05-7.28404E-05-8.94531E-05-4.84101E-18 1.86589E-17
 -1       159 1.59031E-04-9.72079E-06-5.70984E-05-1.12803E-04-1.18657E-17 2.16375E-17
 -1       160 6.34808E-05 2.59121E-05-3.68744E-05-8.13136E-05-2.22359E-17 2.57036E-17
 -1       161 1.06707E-05 1.43710E-05-1.47879E-05-2.19922E-05-2.79360E-17 2.10606E-17
 -1       162 7.57904E-06-3.51738E-05 3.52010E-06 1.98973E-05-2.25751E-17 1.10868E-17
 -1       163 2.58625E-05-8.79008E-05 1.55855E-05 2.39734E-05-1.01782E-17 2.41537E-18
 -1       164 9.48402E-05-1.23994E-05-3.55318E-05-2.20277E-05-3.35228E-18 1.37383E-18
 -1       165 8.93506E-05-8.50406E-06-3.48082E-05-1.70304E-05-3.11598E-18-2.40855E-18
 -1       166 8.66688E-05-6.50204E-06-3.44678E-05-1.32080E-05-2.55332E-18-4.45471E-18
 -1       167 8.52961E-05-5.46390E-06-3.42967E-05-9.99967E-06-1.89171E-18-5.55176E-18
 -1       168 8.44902E-05-4.82974E-06-3.42079E-05-7.22810E-06-1.26750E-18-6.02649E-18
 -1       169 8.40022E-05-4.43492E-06-3.41602E-05-4.67024E-06-7.16591E-19-6.18016E-18
 -1       170 8.37389E-05-4.21722E-06-3.41368E-05-2.27255E-06-1.35585E-19-6.19284E-18
 -1       171 8.36577E-05-4.15016E-06-3.41296E-05 4.90834E-08 3.74139E-19-6.08236E-18
 -1       172 8.37477E-05-4.22686E-06-3.41366E-05 2.37321E-06 9.30760E-19-5.92698E-18
 -1       173 8.40218E-05-4.45636E-06-3.41596E-05 4.77850E-06 1.41408E-18-5.71644E-18
 -1       174 8.45136E-05-4.85935E-06-3.42056E-05 7.30569E-06 1.95673E-18-5.26438E-18
 -1       175 8.53463E-05-5.52091E-06-3.42944E-05 1.01453E-05 2.59367E-18-4.43858E-18
 -1       176 8.67717E-05-6.61224E-06-3.44687E-05 1.34034E-05 3.13398E-18-3.10350E-18
 -1       177 8.94872E-05-8.64457E-06-3.48116E-05 1.72635E-05 3.52845E-18-6.28353E-19
 -1       178 9.57405E-05-1.36553E-05-3.53882E-05 2.15797E-05 3.36988E-18 3.88187E-18
 -1       179 1.05370E-04-2.60616E-05-3.51728E-05 1.84305E-05 2.59356E-18 9.77063E-18
 -1       180 1.03258E-04-2.72787E-05-3.25601E-05-1.18949E-05-2.87290E-18 5.73764E-18
 -1       181 9.71359E-05-2.82970E-05-2.95365E-05-4.50397E-06-2.61161E-18 4.33353E-18
 -1       182 9.37367E-05-2.76918E-05-2.82559E-05-1.50741E-06-1.92580E-18 3.15887E-18
 -1       183 9.24571E-05-2.75259E-05-2.77908E-05-8.02508E-08-1.28576E-18 1.97534E-18
 -1       184 9.22204E-05-2.75406E-05-2.76997E-05 7.07157E-07-1.05634E-18 1.13826E-18
 -1       185 9.26340E-05-2.77021E-05-2.78167E-05 1.20541E-06-9.45840E-19 5.78051E-19
 -1       186 9.34876E-05-2.79712E-05-2.80712E-05 1.57425E-06-5.39664E-19 1.11276E-19
 -1       187 9.46799E-05-2.83265E-05-2.84314E-05 1.90248E-06-6.98911E-19-3.40053E-19
 -1       188 9.61736E-05-2.87617E-05-2.88856E-05 2.24522E-06-8.13600E-19-4.05466E-19
 -1       189 9.79696E-05-2.92814E-05-2.94328E-05 2.63646E-06-3.99052E-19-9.01408E-19
 -1       190 1.00089E-04-2.98971E-05-3.00777E-05 3.09013E-06 4.28488E-20-1.61267E-18
 -1       191 1.02556E-04-3.06247E-05-3.08243E-05 3.59312E-06-2.85828E-19-1.71670E-18
 -1       192 1.05373E-04-3.14796E-05-3.16676E-05 4.08951E-06-6.13921E-20-1.58684E-18
 -1       193 1.08489E-04-3.24704E-05-3.25827E-05 4.45564E-06 1.82494E-19-1.39807E-18
 -1       194 1.11756E-04-3.35868E-05-3.35105E-05 4.46982E-06-2.35817E-19-7.55226E-19
 -1       195 1.14873E-04-3.47743E-05-3.43433E-05 3.79582E-06-5.28585E-20-6.07202E-19
 -1       196 1.17334E-04-3.58895E-05-3.49233E-05 2.03073E-06 7.84068E-20-5.70382E-19
 -1       197 1.18426E-04-3.66310E-05-3.50699E-05-1.08933E-06 3.69154E-20-4.66247E-19
 -1       198 1.17374E-04-3.65173E-05-3.46584E-05-5.26259E-06-4.36152E-19-1.33358E-19
 -1       199 1.13746E-04-3.50379E-05-3.37292E-05-9.13631E-06 2.50305E-20-2.17952E-19
 -1       200 1.08169E-04-3.21921E-05-3.25649E-05-1.03566E-05-2.24664E-19-1.63583E-19
 -1       201 1.02820E-04-2.91270E-05-3.16022E-05-7.04708E-06-4.89803E-19-1.45528E-18
 -1       202 1.00565E-04-2.77422E-05-3.12399E-05 5.51402E-08-6.53698E-19-2.06702E-18
 -1       203 1.02897E-04-2.91600E-05-3.16189E-05 7.14959E-06-1.25052E-18-2.81096E-18
 -1       204 1.08310E-04-3.22451E-05-3.25996E-05 1.04267E-05-1.08877E-18-3.67393E-18
 -1       205 1.13935E-04-3.50981E-05-3.37843E-05 9.18364E-06 1.89348E-19-4.45107E-18
 -1       206 1.17608E-04-3.65831E-05-3.47311E-05 5.31463E-06 1.34007E-19-4.96903E-18
 -1       207 1.18722E-04-3.67082E-05-3.51643E-05 1.17057E-06 4.52547E-19-5.08449E-18
 -1       208 1.17721E-04-3.59897E-05-3.50465E-05-1.89866E-06 3.48660E-19-4.20182E-18
 -1       209 1.15392E-04-3.49130E-05-3.45059E-05-3.60352E-06-1.71683E-19-3.73088E-18
 -1       210 1.12449E-04-3.37763E-05-3.37254E-05-4.21252E-06 2.68306E-19-3.52691E-18
 -1       211 1.09402E-04-3.27241E-05-3.28645E-05-4.12721E-06 5.97176E-19-2.10018E-18
 -1       212 1.06556E-04-3.18123E-05-3.20314E-05-3.68322E-06 6.50094E-19-2.10013E-18
 -1       213 1.04063E-04-3.10526E-05-3.12859E-05-3.10341E-06 2.94831E-19-5.46012E-19
 -1       214 1.01970E-04-3.04367E-05-3.06522E-05-2.51491E-06-4.57089E-19-6.19151E-19
 -1       215 1.00270E-04-2.99479E-05-3.01329E-05-1.98017E-06 3.33381E-19-2.11779E-18
 -1       216 9.89229E-05-2.95671E-05-2.97192E-05-1.52331E-06-8.45795E-19-2.38913E-18
 -1       217 9.78781E-05-2.92756E-05-2.93970E-05-1.14791E-06 1.22381E-19-1.35063E-18
 -1       218 9.70836E-05-2.90563E-05-2.91512E-05-8.47732E-07 8.69131E-20-3.25105E-18
 -1       219 9.64913E-05-2.88945E-05-2.89673E-05-6.12611E-07-1.21911E-18-2.30106E-18
 -1       220 9.60588E-05-2.87776E-05-2.88327E-05-4.31570E-07-3.87780E-19-2.07129E-18
 -1       221 9.57507E-05-2.86953E-05-2.87364E-05-2.94253E-07 1.68692E-18-1.71419E-18
 -1       222 9.55379E-05-2.86393E-05-2.86696E-05-1.91533E-07-9.33729E-19-3.73325E-19
 -1       223 9.53969E-05-2.86030E-05-2.86250E-05-1.15687E-07-6.45317E-19-2.99634E-19
 -1       224 9.53092E-05-2.85811E-05-2.85971E-05-6.04208E-08 1.45371E-18 8.69186E-20
 -1       225 9.52602E-05-2.85698E-05-2.85811E-05-2.09247E-08 1.42837E-18-1.60816E-18
 -1       226 9.52380E-05-2.85663E-05-2.85733E-05 5.60136E-09 2.27787E-18 3.91880E-19
 -1       227 9.52327E-05-2.85689E-05-2.85700E-05 1.92016E-08 9.64553E-19 2.81529E-18
 -1       228 9.94088E-05-2.85324E-05-3.05551E-05 7.01930E-06 2.43452E-18 8.44195E-18
 -1       229 9.45095E-05-2.78146E-05-2.85532E-05 2.54802E-06 1.82441E-18 6.56888E-18
 -1       230 9.24108E-05-2.74833E-05-2.77804E-05 6.92382E-07 1.48265E-18 4.84938E-18
 -1       231 9.17460E-05-2.73984E-05-2.75498E-05-2.44390E-07 1.25662E-18 3.79793E-18
 -1       232 9.19086E-05-2.74959E-05-2.75910E-05-7.80394E-07 6.79636E-19 2.98099E-18
 -1       233 9.25871E-05-2.77219E-05-2.77915E-05-1.12462E-06 4.20250E-19 2.23571E-18
 -1       234 9.36176E-05-2.80403E-05-2.80998E-05-1.37809E-06 7.90502E-19 1.69215E-18
 -1       235 9.49169E-05-2.84319E-05-2.84905E-05-1.59420E-06 6.00180E-19 1.16961E-18
 -1       236 9.64441E-05-2.88887E-05-2.89504E-05-1.79959E-06 3.33621E-19 7.78937E-19
 -1       237 9.81766E-05-2.94082E-05-2.94714E-05-2.00003E-06 3.79900E-19 7.78844E-19
 -1       238 1.00090E-04-2.99881E-05-3.00441E-05-2.17968E-06 2.11915E-20 7.23904E-19
 -1       239 1.02136E-04-3.06207E-05-3.06512E-05-2.29699E-06 1.96259E-19 3.39241E-19
 -1       240 1.04221E-04-3.12859E-05-3.12608E-05-2.27967E-06 4.62479E-19 3.57826E-19
 -1       241 1.06179E-04-3.19420E-05-3.18193E-05-2.02356E-06 5.47299E-19-1.93061E-19
 -1       242 1.07757E-04-3.25165E-05-3.22485E-05-1.40419E-06 4.35555E-19-6.22164E-20
 -1       243 1.08613E-04-3.28977E-05-3.24497E-05-3.14831E-07-1.12983E-19-5.20597E-19
 -1       244 1.08370E-04-3.29368E-05-3.23241E-05 1.25543E-06 2.75051E-19-4.65005E-19
 -1       245 1.06725E-04-3.24775E-05-3.18120E-05 3.10924E-06-9.16913E-19-1.64470E-19
 -1       246 1.03655E-04-3.14320E-05-3.09443E-05 4.75169E-06-8.44202E-19-1.59537E-19
 -1       247 9.96264E-05-2.99035E-05-2.98805E-05 5.45106E-06 8.44948E-20 2.67543E-20
 -1       248 9.56765E-05-2.82839E-05-2.88944E-05 4.56815E-06 9.36024E-19-1.88528E-19
 -1       249 9.31340E-05-2.71772E-05-2.82877E-05 2.06708E-06 1.07114E-18-1.27680E-18
 -1       250 9.29888E-05-2.70779E-05-2.82645E-05-1.24692E-06 2.97795E-19-2.38264E-18
 -1       251 9.53219E-05-2.80475E-05-2.88355E-05-4.07932E-06-9.02558E-19-2.15984E-18
 -1       252 9.92328E-05-2.96472E-05-2.98132E-05-5.42865E-06-1.02364E-18-5.57447E-19
 -1       253 1.03394E-04-3.12604E-05-3.08999E-05-5.11999E-06-3.54834E-19-2.55721E-19
 -1       254 1.06706E-04-3.24371E-05-3.18183E-05-3.67946E-06 8.97622E-19-2.50776E-19
 -1       255 1.08634E-04-3.30236E-05-3.24002E-05-1.85482E-06-3.78680E-19-3.13156E-19
 -1       256 1.09162E-04-3.30886E-05-3.26049E-05-2.17912E-07-1.32625E-19-4.71036E-19
 -1       257 1.08581E-04-3.27909E-05-3.24866E-05 9.60665E-07-6.13121E-19-1.11252E-18
 -1       258 1.07276E-04-3.22896E-05-3.21427E-05 1.64701E-06-1.10168E-18-2.93839E-19
 -1       259 1.05603E-04-3.17077E-05-3.16738E-05 1.93057E-06 2.98799E-19-1.03318E-18
 -1       260 1.03831E-04-3.11261E-05-3.11618E-05 1.93599E-06 1.36697E-18-6.44150E-19
 -1       261 1.02137E-04-3.05916E-05-3.06632E-05 1.77621E-06-1.58647E-19-7.69923E-19
 -1       262 1.00621E-04-3.01268E-05-3.02116E-05 1.53606E-06 1.52928E-18-1.68959E-18
 -1       263 9.93278E-05-2.97386E-05-2.98229E-05 1.27186E-06 7.36967E-19-2.07044E-18
 -1       264 9.82644E-05-2.94247E-05-2.95014E-05 1.01714E-06-7.25382E-19-1.94133E-18
 -1       265 9.74166E-05-2.91779E-05-2.92437E-05 7.89347E-07 4.86352E-19-1.39810E-18
 -1       266 9.67591E-05-2.89888E-05-2.90430E-05 5.95548E-07-7.00915E-19 8.61614E-20
 -1       267 9.62625E-05-2.88475E-05-2.88908E-05 4.36583E-07-7.21951E-19 8.99399E-19
 -1       268 9.58978E-05-2.87449E-05-2.87787E-05 3.09892E-07 1.56195E-19 7.40193E-19
 -1       269 9.56382E-05-2.86728E-05-2.86985E-05 2.11320E-07 3.26696E-20 3.47076E-19
 -1       270 9.54606E-05-2.86241E-05-2.86434E-05 1.36193E-07 1.50813E-18-2.04220E-18
 -1       271 9.53455E-05-2.85933E-05-2.86075E-05 7.99536E-08 8.85407E-19-2.28919E-18
 -1       272 9.52772E-05-2.85755E-05-2.85860E-05 3.85736E-08 1.61433E-18-2.37012E-18
 -1       273 9.52427E-05-2.85674E-05-2.85749E-05 9.03196E-09 1.30079E-18-3.07326E-18
 -1       274 9.52312E-05-2.85661E-05-2.85705E-05-1.01883E-08-1.11737E-18-3.07140E-18
 -1       275 9.52334E-05-2.85714E-05-2.85688E-05-1.68548E-08-1.79569E-18-2.94873E-18
 -1       276 9.52408E-05-2.85762E-05-2.85704E-05-1.52420E-08-1.01984E-18 2.88699E-18
 -1       277 9.52429E-05-2.85719E-05-2.85733E-05-1.07451E-09 7.71662E-19 5.81108E-19
 -1       278 9.52378E-05-2.85564E-05-2.85778E-05 1.72418E-08 1.39513E-18 3.53133E-20
 -1       279 9.52282E-05-2.85317E-05-2.85842E-05 3.04592E-08 8.64211E-19 8.40825E-19
 -1       280 9.52169E-05-2.85034E-05-2.85915E-05 3.47105E-08-1.05912E-18-1.33124E-18
 -1       281 9.52062E-05-2.84767E-05-2.85985E-05 2.94292E-08-1.46940E-18-1.72535E-18
 -1       282 9.51989E-05-2.84581E-05-2.86033E-05 1.63086E-08-1.25765E-18-3.86399E-19
 -1       283 9.51964E-05-2.84518E-05-2.86050E-05-1.08347E-09-1.10485E-18-1.84599E-19
 -1       284 9.51994E-05-2.84594E-05-2.86030E-05-1.83028E-08-2.30757E-18-1.43287E-18
 -1       285 9.52072E-05-2.84791E-05-2.85978E-05-3.09095E-08-2.48236E-18-2.34747E-18
 -1       286 9.52179E-05-2.85060E-05-2.85908E-05-3.53761E-08-2.29547E-18-1.33708E-18
 -1       287 9.52295E-05-2.85351E-05-2.85833E-05-3.01441E-08-1.04134E-18 2.31799E-18
 -1       288 9.52390E-05-2.85594E-05-2.85770E-05-1.58089E-08-1.60869E-18-8.05195E-19
 -1       289 9.52430E-05-2.85729E-05-2.85727E-05 1.97374E-09-1.82565E-18-5.19992E-19
 -1       290 9.52429E-05-2.85717E-05-2.85733E-05 1.46423E-08 2.03835E-19 1.62289E-18
 -1       291 1.23589E-05-4.63070E-05 1.13885E-05 8.36229E-06 4.18604E-18 7.13096E-18
 -1       292 2.52179E-05-4.28553E-05 4.68912E-06 2.07542E-05 9.32583E-18 9.00311E-18
 -1       293 5.16303E-05-3.65649E-05-8.07523E-06 3.55206E-05 1.05856E-17 8.36254E-18
 -1       294 9.71094E-05-3.93909E-05-2.50565E-05 4.25589E-05 8.23210E-18 5.94194E-18
 -1       295 1.31500E-04-2.88171E-05-4.29029E-05 4.75372E-05 9.13800E-18 8.29690E-18
 -1       296 1.70419E-04-3.20776E-05-5.73986E-05 3.10948E-05 6.66345E-18 3.54060E-18
 -1       297 2.02400E-04-3.51920E-05-6.83679E-05 2.04902E-05 6.70416E-18 1.35642E-18
 -1       298 2.02531E-04-3.16918E-05-7.01764E-05-2.64953E-06 6.03892E-18-3.29825E-18
 -1       299 1.93893E-04-3.32438E-05-6.59347E-05-2.42132E-05 8.01791E-18-6.27037E-18
 -1       300 1.62898E-04-3.13043E-05-5.43867E-05-4.05398E-05 9.24934E-18-8.90930E-18
 -1       301 1.20186E-04-2.85478E-05-3.85018E-05-4.80585E-05 1.01640E-17-1.03217E-17
 -1       302 8.22859E-05-3.60556E-05-2.04771E-05-4.25444E-05 9.01709E-18-9.32774E-18
 -1       303 4.08197E-05-3.79004E-05-3.46852E-06-2.99196E-05 8.79008E-18-9.83609E-18
 -1       304 1.97941E-05-4.56302E-05 7.91036E-06-1.60518E-05 6.19605E-18-6.58325E-18
 -1       305 1.01838E-05-4.50039E-05 1.19308E-05-3.45159E-06 1.82819E-18-7.00327E-18
 -1       306 1.55248E-05-4.77751E-05 1.04721E-05 1.02141E-05-2.78483E-18-6.46212E-18
 -1       307 3.74836E-05-4.13841E-05-2.82498E-07 2.96440E-05-5.14573E-18-8.22061E-18
 -1       308 6.55203E-05-3.44387E-05-1.47223E-05 3.77566E-05-8.63402E-18-1.07578E-17
 -1       309 1.15095E-04-3.90636E-05-3.25136E-05 4.15440E-05-8.00637E-18-7.44034E-18
 -1       310 1.54228E-04-3.22315E-05-5.05158E-05 4.41957E-05-9.71706E-18-9.40948E-18
 -1       311 1.87562E-04-3.32338E-05-6.36717E-05 2.25269E-05-8.53163E-18-3.49782E-18
 -1       312 2.10074E-04-3.54117E-05-7.13059E-05 6.85560E-06-7.19142E-18-1.85712E-19
 -1       313 2.10479E-04-3.74396E-05-7.03680E-05-1.63378E-05-6.37572E-18 4.24067E-18
 -1       314 1.79541E-04-3.42166E-05-5.99474E-05-3.05955E-05-5.98368E-18 6.84720E-18
 -1       315 1.39033E-04-3.14061E-05-4.48573E-05-4.63444E-05-1.01621E-17 8.69395E-18
 -1       316 9.15426E-05-3.13427E-05-2.62640E-05-4.38372E-05-1.11012E-17 9.22228E-18
 -1       317 5.19714E-05-3.65924E-05-8.55413E-06-3.30314E-05-9.07426E-18 1.01677E-17
 -1       318 2.57357E-05-4.37031E-05 4.73219E-06-1.94185E-05-6.15306E-18 9.03276E-18
 -1       319 1.17631E-05-4.44899E-05 1.11066E-05-7.05154E-06-7.12831E-19 9.08348E-18
 -1       320 9.17799E-05-1.43865E-05-3.32314E-05-1.26142E-05-3.24227E-18-2.33980E-18
 -1       321 9.57878E-05-1.91350E-05-3.29133E-05-1.42417E-05-3.61071E-18-9.11487E-20
 -1       322 8.80028E-05-1.01698E-05-3.34113E-05-7.73968E-06-1.90089E-18-4.44368E-18
 -1       323 8.70957E-05-9.15459E-06-3.34505E-05-5.38052E-06-1.25924E-18-4.77181E-18
 -1       324 8.65527E-05-8.54824E-06-3.34739E-05-3.14986E-06-5.13468E-19-4.77898E-18
 -1       325 8.63014E-05-8.26849E-06-3.34844E-05-1.00079E-06 1.95919E-19-4.74608E-18
 -1       326 8.63105E-05-8.28002E-06-3.34835E-05 1.12217E-06 8.14001E-19-4.60489E-18
 -1       327 8.65812E-05-8.58411E-06-3.34709E-05 3.27527E-06 1.45188E-18-4.52139E-18
 -1       328 8.71337E-05-9.20388E-06-3.34460E-05 5.47371E-06 2.04720E-18-4.17696E-18
 -1       329 8.80698E-05-1.02539E-05-3.34042E-05 7.83156E-06 2.76877E-18-3.53687E-18
 -1       330 8.95696E-05-1.19401E-05-3.33358E-05 1.03045E-05 3.35527E-18-2.65804E-18
 -1       331 9.20299E-05-1.47150E-05-3.32153E-05 1.27210E-05 3.82016E-18-1.23521E-18
 -1       332 9.58840E-05-1.94861E-05-3.28486E-05 1.39923E-05 3.87068E-18 1.74487E-18
 -1       333 9.87985E-05-2.44591E-05-3.19464E-05 1.15914E-05 3.39765E-18 4.38597E-18
 -1       334 9.65306E-05-2.68361E-05-2.98388E-05 5.40315E-06 2.70024E-18 3.22864E-18
 -1       335 9.66323E-05-2.60408E-05-3.02083E-05-5.90793E-06-2.81952E-18 4.58719E-19
 -1       336 9.52801E-05-2.70469E-05-2.92165E-05-2.27357E-06-2.17665E-18 2.00888E-19
 -1       337 9.45290E-05-2.74658E-05-2.87253E-05-1.73698E-07-1.68965E-18-1.83498E-19
 -1       338 9.43092E-05-2.77157E-05-2.85315E-05 1.14784E-06-1.29043E-18-4.93376E-19
 -1       339 9.45111E-05-2.79252E-05-2.85316E-05 2.06241E-06-9.16335E-19-7.23115E-19
 -1       340 9.50412E-05-2.81368E-05-2.86693E-05 2.78226E-06-7.66864E-19-9.57142E-19
 -1       341 9.58406E-05-2.83681E-05-2.89129E-05 3.43811E-06-6.78108E-19-1.08834E-18
 -1       342 9.68801E-05-2.86335E-05-2.92445E-05 4.11248E-06-8.80712E-19-1.02241E-18
 -1       343 9.81533E-05-2.89525E-05-2.96531E-05 4.85142E-06-6.31575E-19-1.32717E-18
 -1       344 9.96698E-05-2.93562E-05-3.01301E-05 5.66269E-06-1.73613E-19-1.56701E-18
 -1       345 1.01450E-04-2.98942E-05-3.06634E-05 6.50265E-06-1.34679E-20-1.26620E-18
 -1       346 1.03523E-04-3.06434E-05-3.12330E-05 7.25153E-06 4.03624E-19-4.60009E-19
 -1       347 1.05921E-04-3.17128E-05-3.18071E-05 7.67863E-06 3.24585E-19-5.66866E-19
 -1       348 1.08670E-04-3.32305E-05-3.23420E-05 7.40770E-06-3.43284E-20-4.77542E-19
 -1       349 1.11748E-04-3.52737E-05-3.27938E-05 5.91530E-06 4.07648E-19-1.30978E-19
 -1       350 1.14966E-04-3.76847E-05-3.31466E-05 2.63706E-06 3.81577E-19-4.47491E-19
 -1       351 1.17742E-04-3.97404E-05-3.34541E-05-2.65206E-06 7.59636E-19 7.47100E-19
 -1       352 1.18976E-04-4.00154E-05-3.38655E-05-9.13801E-06-2.33052E-19 1.44821E-18
 -1       353 1.17377E-04-3.68553E-05-3.45384E-05-1.41582E-05-8.73076E-19 1.00010E-18
 -1       354 1.13091E-04-3.05437E-05-3.54366E-05-1.36492E-05-1.11305E-18 8.12391E-19
 -1       355 1.09072E-04-2.49130E-05-3.61361E-05-5.75652E-06-1.69101E-18-1.78525E-19
 -1       356 1.09070E-04-2.48914E-05-3.61414E-05 5.95519E-06-2.46693E-18-2.11521E-18
 -1       357 1.13177E-04-3.05972E-05-3.54406E-05 1.37963E-05-1.91422E-18-3.78982E-18
 -1       358 1.17499E-04-3.69131E-05-3.45653E-05 1.42495E-05-4.62518E-19-4.38176E-18
 -1       359 1.19113E-04-4.00459E-05-3.39124E-05 9.23077E-06 3.69354E-19-3.86485E-18
 -1       360 1.17922E-04-3.97630E-05-3.35258E-05 2.78432E-06 4.30920E-19-3.33644E-18
 -1       361 1.15202E-04-3.76976E-05-3.32440E-05-2.43441E-06 3.27458E-19-3.34850E-18
 -1       362 1.12075E-04-3.53081E-05-3.29198E-05-5.62014E-06 1.00747E-18-3.18206E-18
 -1       363 1.09110E-04-3.32937E-05-3.25032E-05-7.01379E-06 7.03003E-19-2.12951E-18
 -1       364 1.06498E-04-3.18104E-05-3.20118E-05-7.17607E-06 1.27403E-18-5.93469E-19
 -1       365 1.04263E-04-3.07832E-05-3.14896E-05-6.63118E-06 7.34680E-19-2.24331E-20
 -1       366 1.02380E-04-3.00860E-05-3.09789E-05-5.75831E-06 2.58600E-19-7.43842E-22
 -1       367 1.00813E-04-2.96112E-05-3.05099E-05-4.79447E-06-5.38122E-20 4.06074E-19
 -1       368 9.95256E-05-2.92833E-05-3.00989E-05-3.87085E-06-5.45529E-19 9.12216E-19
 -1       369 9.84837E-05-2.90535E-05-2.97513E-05-3.04988E-06-1.33989E-18-1.14870E-19
 -1       370 9.76530E-05-2.88907E-05-2.94658E-05-2.35335E-06-2.81216E-19-5.65284E-19
 -1       371 9.70014E-05-2.87752E-05-2.92367E-05-1.78095E-06-2.44264E-19-1.95635E-18
 -1       372 9.64988E-05-2.86940E-05-2.90567E-05-1.32161E-06 4.85703E-19-6.35954E-19
 -1       373 9.61180E-05-2.86378E-05-2.89181E-05-9.59992E-07-6.18874E-19 1.05003E-18
 -1       374 9.58349E-05-2.86000E-05-2.88135E-05-6.79955E-07 3.51076E-19 1.04391E-18
 -1       375 9.56292E-05-2.85758E-05-2.87360E-05-4.66346E-07 1.44240E-18 4.73443E-19
 -1       376 9.54834E-05-2.85614E-05-2.86800E-05-3.05778E-07-2.91215E-19 2.85800E-18
 -1       377 9.53833E-05-2.85539E-05-2.86406E-05-1.86928E-07 4.84813E-21 2.01280E-18
 -1       378 9.53174E-05-2.85516E-05-2.86135E-05-1.00794E-07 3.20221E-19 1.74697E-18
 -1       379 9.52760E-05-2.85533E-05-2.85951E-05-4.04754E-08 2.47562E-18 3.05760E-18
 -1       380 9.52536E-05-2.85602E-05-2.85828E-05-4.08942E-09 2.78128E-18 2.45089E-18
 -1       381 9.46912E-05-2.73934E-05-2.88030E-05 2.05314E-06 2.18258E-18 2.50385E-18
 -1       382 9.37228E-05-2.75593E-05-2.83328E-05 2.01311E-07 1.69654E-18 1.80698E-18
 -1       383 9.34817E-05-2.77045E-05-2.81787E-05-8.99425E-07 1.13908E-18 1.32966E-18
 -1       384 9.37489E-05-2.78917E-05-2.82184E-05-1.61116E-06 8.17749E-19 7.58341E-19
 -1       385 9.43801E-05-2.81308E-05-2.83886E-05-2.12396E-06 1.13263E-18 6.03881E-20
 -1       386 9.52879E-05-2.84217E-05-2.86539E-05-2.54107E-06 8.05702E-19-2.11541E-21
 -1       387 9.64224E-05-2.87668E-05-2.89928E-05-2.91624E-06 6.18057E-19-4.41409E-19
 -1       388 9.77548E-05-2.91731E-05-2.93903E-05-3.26629E-06 1.74153E-19-4.47016E-19
 -1       389 9.92631E-05-2.96517E-05-2.98325E-05-3.57252E-06 2.39253E-19 3.85259E-21
 -1       390 1.00918E-04-3.02152E-05-3.03019E-05-3.77636E-06 1.51444E-19-4.07581E-20
 -1       391 1.02668E-04-3.08728E-05-3.07726E-05-3.77356E-06 7.98538E-19-1.74865E-19
 -1       392 1.04423E-04-3.16205E-05-3.12074E-05-3.41338E-06 5.46686E-19 2.47506E-19
 -1       393 1.06034E-04-3.24223E-05-3.15581E-05-2.51462E-06 1.38918E-19 3.97948E-19
 -1       394 1.07281E-04-3.31804E-05-3.17708E-05-9.17303E-07 7.96021E-19 4.85978E-19
 -1       395 1.07869E-04-3.37018E-05-3.18002E-05 1.41099E-06 3.93308E-20-1.90749E-19
 -1       396 1.07470E-04-3.36918E-05-3.16306E-05 4.21511E-06-4.37620E-19 7.66432E-20
 -1       397 1.05852E-04-3.28398E-05-3.12967E-05 6.80588E-06-8.47255E-19-4.95930E-19
 -1       398 1.03126E-04-3.10539E-05-3.08865E-05 8.10298E-06-1.43927E-19-7.46393E-19
 -1       399 9.99848E-05-2.87596E-05-3.05178E-05 7.06833E-06 1.49230E-19-5.50934E-19
 -1       400 9.76522E-05-2.69468E-05-3.02911E-05 3.49805E-06 1.86315E-18-1.68140E-19
 -1       401 9.72278E-05-2.65722E-05-3.02636E-05-1.48654E-06 4.66715E-19-8.35215E-19
 -1       402 9.89652E-05-2.78851E-05-3.04433E-05-5.89093E-06-9.25809E-19-1.41289E-18
 -1       403 1.02010E-04-3.01334E-05-3.07916E-05-8.07839E-06-1.31258E-18-1.96216E-18
 -1       404 1.05085E-04-3.22406E-05-3.12168E-05-7.70594E-06-2.12286E-19-2.61389E-18
 -1       405 1.07248E-04-3.35170E-05-3.16071E-05-5.55236E-06 5.10513E-19-1.33189E-18
 -1       406 1.08180E-04-3.38624E-05-3.18653E-05-2.76732E-06-2.62655E-19-1.13062E-18
 -1       407 1.08026E-04-3.35389E-05-3.19387E-05-2.36751E-07 6.68345E-20 9.24779E-19
 -1       408 1.07109E-04-3.28723E-05-3.18287E-05 1.61159E-06-5.29917E-20 1.71945E-18
 -1       409 1.05755E-04-3.21052E-05-3.15728E-05 2.70996E-06-2.88692E-19-7.94904E-19
 -1       410 1.04220E-04-3.13744E-05-3.12238E-05 3.18248E-06 3.21736E-19-1.72477E-18
 -1       411 1.02680E-04-3.07384E-05-3.08329E-05 3.21296E-06 1.44394E-19-7.21577E-19
 -1       412 1.01243E-04-3.02122E-05-3.04406E-05 2.97306E-06 1.00736E-18 4.55522E-19
 -1       413 9.99692E-05-2.97903E-05-3.00743E-05 2.59529E-06 1.16571E-18-4.84904E-19
 -1       414 9.88816E-05-2.94591E-05-2.97496E-05 2.17019E-06 1.24203E-18 3.66534E-19
 -1       415 9.79814E-05-2.92039E-05-2.94731E-05 1.75353E-06-7.38083E-19 8.78857E-19
 -1       416 9.72559E-05-2.90105E-05-2.92453E-05 1.37572E-06 8.75691E-20-1.17256E-20
 -1       417 9.66854E-05-2.88666E-05-2.90628E-05 1.05029E-06-1.80816E-18 1.33816E-19
 -1       418 9.62472E-05-2.87616E-05-2.89204E-05 7.80285E-07-1.03524E-18 8.54495E-19
 -1       419 9.59187E-05-2.86869E-05-2.88121E-05 5.62749E-07 3.78431E-19 1.89325E-18
 -1       420 9.56789E-05-2.86352E-05-2.87318E-05 3.91737E-07 7.51032E-19 1.97604E-18
 -1       421 9.55092E-05-2.86010E-05-2.86740E-05 2.60157E-07 2.32542E-18 1.09815E-18
 -1       422 9.53935E-05-2.85796E-05-2.86338E-05 1.60892E-07 1.54597E-18 1.53450E-18
 -1       423 9.53186E-05-2.85676E-05-2.86071E-05 8.75227E-08 1.49801E-18 3.98140E-20
 -1       424 9.52737E-05-2.85626E-05-2.85901E-05 3.51613E-08 1.28588E-18 1.58997E-18
 -1       425 9.52500E-05-2.85636E-05-2.85797E-05 1.06318E-09-1.07066E-18 2.80385E-18
 -1       426 9.52434E-05-2.85677E-05-2.85752E-05-1.03895E-08-1.39712E-18 2.00926E-18
 -1       427 9.52296E-05-2.84989E-05-2.85988E-05 5.79697E-08 1.08577E-18 2.79254E-19
 -1       428 9.52461E-05-2.85336E-05-2.85910E-05 3.39832E-08-5.39443E-21 1.91187E-18
 -1       429 9.52492E-05-2.85560E-05-2.85827E-05 8.43539E-09-1.48763E-18 3.96722E-18
 -1       430 9.52081E-05-2.84607E-05-2.86060E-05 6.93710E-08-5.46959E-20-3.91737E-18
 -1       431 9.51863E-05-2.84239E-05-2.86125E-05 6.48171E-08-3.63307E-19-1.12939E-18
 -1       432 9.51690E-05-2.83955E-05-2.86173E-05 4.52024E-08 9.58623E-19-1.76329E-19
 -1       433 9.51597E-05-2.83801E-05-2.86199E-05 1.51909E-08-2.19870E-18-7.56058E-19
 -1       434 9.51600E-05-2.83805E-05-2.86199E-05-1.83844E-08-1.48826E-18-5.32974E-19
 -1       435 9.51699E-05-2.83966E-05-2.86172E-05-4.79245E-08-6.58642E-19-2.10388E-18
 -1       436 9.51873E-05-2.84251E-05-2.86124E-05-6.63871E-08-5.73832E-19-1.66729E-18
 -1       437 9.52095E-05-2.84622E-05-2.86059E-05-6.99045E-08 9.80188E-19 3.51501E-18
 -1       438 9.52313E-05-2.85012E-05-2.85985E-05-5.69695E-08 1.75463E-18 8.38573E-19
 -1       439 9.52478E-05-2.85365E-05-2.85905E-05-3.08965E-08 7.24390E-19-2.59470E-18
 -1       440 5.38092E-05-3.94221E-05-6.34232E-06 4.22569E-05 1.33630E-18 4.63565E-18
 -1       441 1.14485E-05-2.27629E-05 4.56934E-06 1.87559E-06-2.73463E-19 1.03100E-17
 -1       442 2.52353E-05-2.75258E-05 8.29558E-07 2.85182E-05-9.02090E-20 7.81335E-18
 -1       443 9.42463E-05-5.16849E-05-1.81591E-05 4.25941E-05 1.42662E-18 8.39820E-19
 -1       444 1.30984E-04-5.03612E-05-3.44711E-05 2.70790E-05 3.68491E-18-9.78958E-19
 -1       445 8.95138E-05-1.18288E-05-3.33554E-05-1.02986E-05-2.67090E-18-3.76362E-18
 -1       446 1.55473E-04-2.28190E-05-5.67536E-05-1.49553E-06 6.45556E-18-3.96411E-18
 -1       447 1.54880E-04-1.27580E-05-6.09268E-05-1.40379E-06 7.34579E-18-4.08389E-18
 -1       448 1.47912E-04-1.27033E-05-5.82825E-05 4.03902E-06 7.19957E-18-4.27545E-18
 -1       449 1.56985E-04-2.92153E-05-5.45999E-05-3.34410E-06 6.97383E-18-3.19988E-18
 -1       450 1.45959E-04-4.52803E-05-4.30424E-05-1.70248E-05 4.88064E-18-2.87758E-18
 -1       451 1.22977E-04-5.12089E-05-3.07276E-05-3.19266E-05 3.26139E-18-2.32722E-18
 -1       452 8.28667E-05-4.84639E-05-1.47195E-05-4.44297E-05 1.13746E-18-5.17913E-18
 -1       453 4.34533E-05-3.61933E-05-3.35199E-06-3.91116E-05 6.76779E-19-7.23467E-18
 -1       454 1.80505E-05-2.53547E-05 2.87177E-06-2.08081E-05 7.40307E-19-6.07270E-18
 -1       455 1.32699E-05-2.44352E-05 4.41150E-06 1.00562E-05 2.48895E-19-7.83241E-18
 -1       456 3.20054E-05-3.14554E-05-4.50227E-07 3.15093E-05 1.50666E-19-7.39407E-18
 -1       457 7.46742E-05-4.69922E-05-1.20816E-05 4.24449E-05-5.57030E-19-6.33128E-18
 -1       458 1.10757E-04-5.50836E-05-2.39626E-05 3.67786E-05-9.56406E-19-3.56003E-18
 -1       459 1.44729E-04-5.02538E-05-4.04884E-05 1.70423E-05-4.32402E-18-1.76098E-18
 -1       460 1.58244E-04-3.71255E-05-5.18135E-05 2.32546E-06-7.16706E-18-4.59092E-19
 -1       461 1.54298E-04-1.63894E-05-5.91402E-05-5.08574E-06-8.93768E-18-9.92723E-19
 -1       462 1.65128E-04-1.56037E-05-6.36448E-05 7.40419E-07-7.83738E-18-4.45804E-19
 -1       463 1.61107E-04-2.35830E-05-5.87086E-05 2.71090E-06-5.89143E-18 4.51680E-19
 -1       464 1.54555E-04-4.35642E-05-4.75097E-05-7.34443E-06-5.08794E-18 2.07989E-18
 -1       465 1.34510E-04-5.39989E-05-3.45093E-05-2.59103E-05-4.88060E-18 2.16777E-18
 -1       466 1.00254E-04-5.41074E-05-1.98724E-05-3.98088E-05-1.04926E-18 2.58681E-18
 -1       467 5.88618E-05-4.16164E-05-7.48049E-06-4.18418E-05 8.56456E-19 6.83079E-18
 -1       468 2.69646E-05-2.75011E-05 2.00641E-07-2.80103E-05 7.52112E-19 7.76348E-18
 -1       469 1.49887E-04-4.18092E-05-4.62398E-05 1.18785E-05 3.98400E-18-1.11099E-18
 -1       470 1.21085E-04-5.97032E-05-2.63022E-05 3.00239E-05 7.18337E-19-2.35917E-18
 -1       471 1.35817E-04-6.10055E-05-3.21683E-05 1.88937E-05-1.12010E-18-1.03057E-18
 -1       472 6.18416E-05-3.91925E-05-9.47035E-06 4.17910E-05 1.86315E-18-6.24777E-18
 -1       473 1.13457E-04-5.84337E-05-2.35391E-05-3.50071E-05-6.63439E-19-1.66577E-18
 -1       474 9.60478E-05-2.51231E-05-3.03818E-05 5.45990E-06 2.75927E-18 3.47843E-19
 -1       475 8.92531E-05-1.28530E-05-3.27612E-05-3.56442E-06-8.27083E-19-4.32354E-18
 -1       476 9.00935E-05-1.39430E-05-3.26557E-05-5.38680E-06-1.50860E-18-4.14853E-18
 -1       477 8.86344E-05-1.20651E-05-3.28325E-05 4.63604E-08 4.33532E-19-4.17580E-18
 -1       478 8.88044E-05-1.22823E-05-3.28125E-05 1.84524E-06 1.05414E-18-4.08711E-18
 -1       479 8.92895E-05-1.29052E-05-3.27547E-05 3.63212E-06 1.64442E-18-3.91628E-18
 -1       480 9.01438E-05-1.40187E-05-3.26457E-05 5.45907E-06 2.39680E-18-3.38012E-18
 -1       481 9.14330E-05-1.57443E-05-3.24609E-05 7.21662E-06 2.87729E-18-2.92170E-18
 -1       482 9.33367E-05-1.83551E-05-3.21550E-05 8.72452E-06 3.23507E-18-1.75678E-18
 -1       483 9.54739E-05-2.65323E-05-2.95278E-05 2.15738E-06 2.29560E-18 1.52526E-19
 -1       484 9.57053E-05-2.43438E-05-3.05734E-05-5.16026E-06-2.48432E-18-1.23843E-18
 -1       485 1.43308E-04-3.39997E-05-4.72287E-05-7.40490E-06 4.21372E-18-5.03868E-18
 -1       486 9.56006E-05-2.60760E-05-2.97875E-05-2.02655E-06-2.07794E-18-1.29323E-18
 -1       487 9.53891E-05-2.69577E-05-2.93232E-05 1.31009E-07-1.62841E-18-1.24879E-18
 -1       488 9.53034E-05-2.74293E-05-2.90864E-05 1.64554E-06-1.31729E-18-1.36096E-18
 -1       489 9.53918E-05-2.76930E-05-2.90120E-05 2.78644E-06-9.82120E-19-1.48798E-18
 -1       490 9.56461E-05-2.78423E-05-2.90572E-05 3.74090E-06-7.95022E-19-1.60435E-18
 -1       491 9.60489E-05-2.79296E-05-2.91923E-05 4.63762E-06-5.65509E-19-1.82275E-18
 -1       492 9.65897E-05-2.79970E-05-2.93950E-05 5.56091E-06-8.24051E-19-1.27984E-18
 -1       493 9.72729E-05-2.80941E-05-2.96461E-05 6.55517E-06-6.47227E-19-1.43237E-18
 -1       494 9.81262E-05-2.82951E-05-2.99257E-05 7.62048E-06 2.32193E-19-1.40397E-18
 -1       495 9.92148E-05-2.87192E-05-3.02111E-05 8.69904E-06 3.83208E-19-1.47254E-18
 -1       496 1.00665E-04-2.95529E-05-3.04767E-05 9.65092E-06 2.70650E-19-1.69915E-18
 -1       497 1.02691E-04-3.10624E-05-3.07009E-05 1.02179E-05 4.42493E-19-1.15600E-18
 -1       498 1.05604E-04-3.35589E-05-3.08833E-05 9.97605E-06 5.09523E-19-7.49487E-20
 -1       499 1.09730E-04-3.72318E-05-3.10808E-05 8.29766E-06 5.37935E-19 7.06343E-19
 -1       500 1.15166E-04-4.17511E-05-3.14732E-05 4.36915E-06 1.24170E-18 1.01544E-18
 -1       501 1.20996E-04-4.53916E-05-3.24066E-05-2.25067E-06 1.19955E-18 1.71029E-18
 -1       502 1.24931E-04-4.48993E-05-3.43599E-05-1.08038E-05-7.61370E-20 3.64401E-18
 -1       503 1.23806E-04-3.70529E-05-3.72813E-05-1.66822E-05-1.53362E-18 3.45526E-18
 -1       504 1.17675E-04-2.39025E-05-4.05443E-05-1.35710E-05-3.25832E-18 1.14045E-18
 -1       505 1.16031E-04-1.86680E-05-4.19585E-05-3.14565E-08-3.67949E-18-1.81694E-18
 -1       506 1.17557E-04-2.39614E-05-4.05052E-05 1.39328E-05-4.26796E-18-3.77340E-18
 -1       507 1.23963E-04-3.70541E-05-3.73929E-05 1.68041E-05-1.28518E-18-4.36948E-18
 -1       508 1.24935E-04-4.48865E-05-3.43643E-05 1.08606E-05 3.37529E-19-3.94753E-18
 -1       509 1.21032E-04-4.53467E-05-3.24547E-05 2.42972E-06 6.66650E-19-4.13005E-18
 -1       510 1.15220E-04-4.16456E-05-3.15485E-05-4.15372E-06 3.96319E-19-2.73912E-18
 -1       511 1.09870E-04-3.71524E-05-3.11768E-05-7.95964E-06 1.11894E-18-1.56489E-18
 -1       512 1.05803E-04-3.34857E-05-3.10005E-05-9.52863E-06 1.22875E-18-1.99029E-18
 -1       513 1.02962E-04-3.09981E-05-3.08442E-05-9.64740E-06 2.10106E-18-9.78630E-19
 -1       514 1.01015E-04-2.95004E-05-3.06491E-05-8.94755E-06 5.66282E-19-1.89026E-18
 -1       515 9.96528E-05-2.86842E-05-3.04135E-05-7.85698E-06 1.03651E-18-1.80316E-18
 -1       516 9.86572E-05-2.82870E-05-3.01564E-05-6.64167E-06 7.58011E-19 7.36577E-20
 -1       517 9.78975E-05-2.81277E-05-2.98991E-05-5.45515E-06-5.11754E-19 3.87983E-19
 -1       518 9.72995E-05-2.80939E-05-2.96575E-05-4.37736E-06-4.79411E-19-4.51043E-19
 -1       519 9.68214E-05-2.81209E-05-2.94413E-05-3.44237E-06-4.38262E-19-4.93556E-19
 -1       520 9.64383E-05-2.81735E-05-2.92549E-05-2.65716E-06-1.55300E-18-5.43296E-19
 -1       521 9.61333E-05-2.82332E-05-2.90989E-05-2.01387E-06 6.25926E-19-6.94743E-19
 -1       522 9.58935E-05-2.82913E-05-2.89714E-05-1.49735E-06 1.15289E-18-3.99239E-19
 -1       523 9.57077E-05-2.83438E-05-2.88696E-05-1.08978E-06 5.40418E-19 1.21570E-18
 -1       524 9.55665E-05-2.83892E-05-2.87897E-05-7.73278E-07-4.91402E-19 7.47000E-19
 -1       525 9.54610E-05-2.84276E-05-2.87282E-05-5.31283E-07 9.45826E-19-1.18511E-18
 -1       526 9.53838E-05-2.84593E-05-2.86816E-05-3.49260E-07-3.61093E-19-1.14432E-18
 -1       527 9.53284E-05-2.84855E-05-2.86467E-05-2.14926E-07-2.35283E-19 3.89964E-19
 -1       528 9.52897E-05-2.85079E-05-2.86206E-05-1.18716E-07 2.25120E-18-1.26424E-19
 -1       529 9.49314E-05-2.76379E-05-2.88355E-05-1.36549E-06 1.30713E-18-1.47711E-19
 -1       530 9.50714E-05-2.79084E-05-2.87815E-05-2.35550E-06 1.49331E-18-4.54624E-19
 -1       531 9.54466E-05-2.81316E-05-2.88474E-05-3.11407E-06 1.26489E-18-8.63372E-19
 -1       532 9.60227E-05-2.83522E-05-2.90001E-05-3.75176E-06 6.96349E-19-1.03065E-18
 -1       533 9.67795E-05-2.86064E-05-2.92157E-05-4.32510E-06 4.31871E-19-6.30656E-19
 -1       534 9.77115E-05-2.89343E-05-2.94750E-05-4.84378E-06 2.77564E-19-8.36720E-19
 -1       535 9.88255E-05-2.93848E-05-2.97601E-05-5.26930E-06 2.30468E-19-6.60708E-19
 -1       536 1.00137E-04-3.00174E-05-3.00523E-05-5.50921E-06 5.15653E-20-2.04032E-19
 -1       537 1.01663E-04-3.08947E-05-3.03321E-05-5.41130E-06 3.25486E-19 1.64520E-19
 -1       538 1.03405E-04-3.20589E-05-3.05824E-05-4.76586E-06-3.17160E-20 5.42219E-19
 -1       539 1.05316E-04-3.34801E-05-3.07949E-05-3.33213E-06 9.02744E-20 9.62388E-19
 -1       540 1.07234E-04-3.49692E-05-3.09807E-05-9.15965E-07 2.30971E-19 1.56123E-18
 -1       541 1.08808E-04-3.60815E-05-3.11781E-05 2.47080E-06-4.97549E-21 2.08676E-18
 -1       542 1.09474E-04-3.61022E-05-3.14511E-05 6.35969E-06-4.01255E-19 1.95206E-18
 -1       543 1.08647E-04-3.43183E-05-3.18584E-05 9.58920E-06-7.66216E-19 1.73669E-18
 -1       544 1.06240E-04-3.06806E-05-3.23842E-05 1.04509E-05 6.28731E-19 1.08736E-18
 -1       545 1.03253E-04-2.65210E-05-3.28918E-05 7.54153E-06 1.25477E-18-6.84102E-19
 -1       546 1.01509E-04-2.41532E-05-3.31567E-05 1.39302E-06 9.79372E-19-4.30362E-19
 -1       547 1.02339E-04-2.52389E-05-3.30347E-05-5.47173E-06 3.11162E-19-6.01571E-19
 -1       548 1.05065E-04-2.89502E-05-3.26177E-05-9.87487E-06 4.64897E-19-2.09950E-18
 -1       549 1.07913E-04-3.30253E-05-3.20942E-05-1.04617E-05-6.16926E-20-3.63636E-18
 -1       550 1.09461E-04-3.56252E-05-3.16475E-05-8.01313E-06 1.30516E-19-3.91250E-18
 -1       551 1.09383E-04-3.62633E-05-3.13468E-05-4.26542E-06-2.42109E-19-3.92694E-18
 -1       552 1.08157E-04-3.54977E-05-3.11506E-05-6.59945E-07-1.87209E-18-1.77426E-18
 -1       553 1.06395E-04-3.40966E-05-3.09947E-05 2.07994E-06-9.04417E-19-7.87567E-19
 -1       554 1.04540E-04-3.26231E-05-3.08284E-05 3.78942E-06 5.13564E-19-3.63847E-19
 -1       555 1.02824E-04-3.13619E-05-3.06302E-05 4.60625E-06 6.30259E-19-2.16456E-19
 -1       556 1.01330E-04-3.03960E-05-3.04016E-05 4.76899E-06-7.28564E-20 4.52990E-20
 -1       557 1.00070E-04-2.97064E-05-3.01554E-05 4.51093E-06-4.06364E-19 4.57330E-19
 -1       558 9.90250E-05-2.92378E-05-2.99074E-05 4.01965E-06 2.26893E-18 1.31327E-18
 -1       559 9.81685E-05-2.89312E-05-2.96713E-05 3.42911E-06 3.56980E-21 1.09658E-18
 -1       560 9.74742E-05-2.87376E-05-2.94566E-05 2.82646E-06 4.54296E-20 1.93059E-18
 -1       561 9.69180E-05-2.86200E-05-2.92687E-05 2.26309E-06 3.34894E-19 1.63219E-18
 -1       562 9.64783E-05-2.85524E-05-2.91095E-05 1.76528E-06-3.10775E-20 1.12348E-18
 -1       563 9.61359E-05-2.85169E-05-2.89782E-05 1.34279E-06-1.47920E-18-2.04088E-19
 -1       564 9.58735E-05-2.85015E-05-2.88726E-05 9.95263E-07-8.37040E-19-3.64660E-19
 -1       565 9.56762E-05-2.84982E-05-2.87897E-05 7.16688E-07-1.97772E-19 8.35852E-19
 -1       566 9.55308E-05-2.85019E-05-2.87260E-05 4.98402E-07 1.41879E-18 9.22247E-19
 -1       567 9.54261E-05-2.85092E-05-2.86782E-05 3.30946E-07 2.05263E-18 2.48906E-18
 -1       568 9.53527E-05-2.85182E-05-2.86430E-05 2.05305E-07 2.13692E-18 2.59327E-18
 -1       569 9.53026E-05-2.85281E-05-2.86174E-05 1.13646E-07-3.81393E-19 3.12891E-18
 -1       570 9.52702E-05-2.85398E-05-2.85985E-05 4.96242E-08-1.04376E-18 4.49546E-18
 -1       571 9.51708E-05-2.83715E-05-2.86283E-05 1.13600E-07 8.61848E-19-1.84888E-18
 -1       572 9.51356E-05-2.83246E-05-2.86333E-05 9.04043E-08 1.80416E-18-2.47853E-19
 -1       573 9.52456E-05-2.84830E-05-2.86126E-05 9.35369E-08-4.77094E-19 7.74164E-19
 -1       574 9.52103E-05-2.84269E-05-2.86214E-05 1.14460E-07-4.02279E-19-1.95728E-18
 -1       575 9.51117E-05-2.82935E-05-2.86364E-05 4.92471E-08-3.53720E-19-2.48946E-18
 -1       576 9.51034E-05-2.82826E-05-2.86376E-05-1.79231E-09-7.71854E-19 9.32902E-19
 -1       577 9.51124E-05-2.82937E-05-2.86366E-05-5.26612E-08-6.21600E-19-1.08415E-18
 -1       578 9.51366E-05-2.83245E-05-2.86338E-05-9.26212E-08 4.28064E-19-1.94338E-18
 -1       579 9.51724E-05-2.83718E-05-2.86289E-05-1.14881E-07 1.50675E-18 6.75394E-19
 -1       580 9.52122E-05-2.84276E-05-2.86220E-05-1.14349E-07 8.55497E-19 1.32213E-18
 -1       581 9.52470E-05-2.84836E-05-2.86128E-05-9.21334E-08 4.96439E-19-1.29399E-18
 -1       582 2.68080E-05-1.46928E-05-4.58699E-06 1.61446E-05-2.05959E-18 8.54540E-18
 -1       583 8.07233E-05-4.44213E-05-1.51707E-05 4.20704E-05-1.91461E-18 1.72175E-18
 -1       584 9.50656E-05-2.72402E-05-2.90585E-05 3.94619E-08 1.72259E-18-6.07047E-20
 -1       585 2.56801E-05-1.46178E-05-4.15243E-06-1.28593E-05-4.54341E-19 7.98117E-18
 -1       586 5.21728E-05-2.93038E-05-9.24247E-06 3.82011E-05-2.15316E-18 5.44526E-18
 -1       587 9.47852E-05-2.07163E-05-3.17650E-05-8.97091E-06-3.03985E-18-1.82562E-18
 -1       588 5.40623E-05-3.12548E-05-9.27094E-06-3.76096E-05 2.92496E-18 6.19218E-18
 -1       589 2.35243E-05-1.32000E-05-3.78455E-06-5.24792E-06-4.24529E-19-7.10745E-18
 -1       590 1.43563E-04-4.04300E-05-4.45399E-05 4.51901E-06 3.24882E-18-1.62207E-19
 -1       591 8.87805E-05-1.22494E-05-3.28164E-05-1.75112E-06-1.77562E-19-4.28465E-18
 -1       592 1.36922E-04-2.17735E-05-4.98782E-05 1.09159E-05 4.99548E-18-6.90332E-19
 -1       593 1.35545E-04-1.40526E-05-5.26179E-05-8.53686E-06 7.07368E-18-5.48507E-18
 -1       594 7.17065E-05-4.09648E-05-1.27626E-05-4.29239E-05-2.67022E-18-5.31182E-18
 -1       595 1.29308E-04-7.40658E-06-5.28992E-05-1.55180E-08 6.10954E-18-3.35690E-18
 -1       596 1.37954E-04-5.71443E-05-3.47868E-05-1.20013E-05 8.07990E-19-1.89524E-19
 -1       597 1.33043E-04-9.50580E-06-5.35486E-05-1.49008E-06-7.47507E-18-1.84678E-18
 -1       598 4.18752E-05-2.55899E-05-6.47957E-06-3.44600E-05-1.06594E-18-5.03979E-18
 -1       599 3.11045E-05-1.94440E-05-4.42814E-06 2.29046E-05 1.12023E-18-7.01767E-18
 -1       600 1.03674E-04-5.57433E-05-2.03512E-05 3.76985E-05 2.23442E-18-2.76618E-18
 -1       601 1.46293E-04-4.93078E-05-4.19569E-05-4.63875E-06-3.70401E-18 1.20782E-18
 -1       602 1.38385E-04-2.87188E-05-4.75945E-05-1.56867E-05-6.01240E-18 2.23749E-18
 -1       603 1.36356E-04-1.48093E-05-5.26467E-05 8.94471E-06-6.58632E-18-3.11195E-18
 -1       604 1.44959E-04-3.46639E-05-4.77871E-05 1.22808E-05-3.93674E-18-2.38784E-18
 -1       605 1.43971E-04-5.63101E-05-3.78591E-05-2.85779E-06-1.39278E-18-2.54390E-18
 -1       606 1.28301E-04-6.17608E-05-2.84714E-05-2.35045E-05-1.05879E-19-6.51157E-21
 -1       607 9.19119E-05-5.05206E-05-1.74639E-05-3.98815E-05 2.22209E-18 2.75389E-18
 -1       608 1.41000E-04-5.31523E-05-3.78636E-05 7.38111E-06 1.68612E-18-4.10949E-18
 -1       609 9.63088E-05-2.31955E-05-3.13375E-05 9.13033E-06 3.43661E-18 8.29972E-19
 -1       610 1.23303E-04-1.18334E-05-4.82621E-05 8.22759E-06 4.68033E-18-3.95922E-19
 -1       611 9.13284E-05-1.56287E-05-3.24766E-05-7.10317E-06-2.16941E-18-3.63130E-18
 -1       612 1.03203E-04-5.30690E-05-2.12940E-05 3.53206E-05-1.17727E-18-1.24446E-18
 -1       613 1.22985E-04-6.01919E-05-2.69951E-05 2.36250E-05 2.11417E-18-6.54598E-19
 -1       614 9.74023E-05-5.13456E-05-1.95229E-05-3.82704E-05-2.97166E-18-1.57827E-18
 -1       615 5.28317E-05-2.74116E-05-1.03976E-05 3.38452E-05 1.78245E-18-6.15756E-18
 -1       616 9.52708E-05-2.85229E-05-2.86061E-05-6.99075E-08 1.54348E-18-6.67805E-19
 -1       617 9.10265E-05-1.60162E-05-3.21527E-05 2.06597E-06 1.17199E-18-3.35824E-18
 -1       618 9.06795E-05-1.55316E-05-3.22114E-05 7.01865E-07 5.78019E-19-3.65019E-18
 -1       619 9.27121E-05-1.84935E-05-3.18136E-05 4.57655E-06 2.27003E-18-2.82310E-18
 -1       620 9.40014E-05-2.06220E-05-3.14562E-05 5.41573E-06 2.52875E-18-2.10771E-18
 -1       621 9.54435E-05-2.39114E-05-3.06464E-05 4.38997E-06 2.57249E-18-9.93010E-19
 -1       622 1.34818E-04-4.85430E-05-3.72304E-05 4.38745E-06 1.45796E-19 1.36830E-18
 -1       623 1.15350E-04-5.67416E-05-2.49424E-05-2.62104E-05 2.42307E-18-1.15238E-18
 -1       624 1.34802E-04-4.46097E-05-3.89016E-05-8.37221E-06 2.57879E-18-4.55198E-18
 -1       625 9.55225E-05-2.52504E-05-3.01143E-05-1.30071E-06-1.79609E-18-1.94640E-18
 -1       626 9.55997E-05-2.63304E-05-2.96858E-05 6.51026E-07-1.48415E-18-1.74139E-18
 -1       627 9.55649E-05-2.68995E-05-2.94274E-05 2.14005E-06-1.05959E-18-1.44772E-18
 -1       628 9.55092E-05-2.71505E-05-2.92961E-05 3.34156E-06-1.01437E-18-1.62492E-18
 -1       629 9.54632E-05-2.71935E-05-2.92580E-05 4.39934E-06-8.29444E-19-1.77253E-18
 -1       630 9.54355E-05-2.71046E-05-2.92841E-05 5.42232E-06-3.86238E-19-1.62417E-18
 -1       631 9.54333E-05-2.69530E-05-2.93480E-05 6.48630E-06-4.15819E-19-8.80222E-19
 -1       632 9.54796E-05-2.68244E-05-2.94229E-05 7.63533E-06-2.96000E-19-4.87927E-19
 -1       633 9.56342E-05-2.68461E-05-2.94799E-05 8.88025E-06 4.57216E-20-9.80385E-19
 -1       634 9.60265E-05-2.72185E-05-2.94886E-05 1.01931E-05 2.82534E-19-9.47060E-19
 -1       635 9.69041E-05-2.82502E-05-2.94232E-05 1.14920E-05 4.67232E-19-9.33712E-19
 -1       636 9.86932E-05-3.03794E-05-2.92788E-05 1.26032E-05 9.83085E-19-1.36930E-18
 -1       637 1.02047E-04-3.41348E-05-2.91071E-05 1.31685E-05 1.06160E-18-1.31569E-18
 -1       638 1.07717E-04-3.98333E-05-2.90875E-05 1.24221E-05 1.10822E-18-1.03727E-19
 -1       639 1.16486E-04-4.70190E-05-2.98022E-05 8.78867E-06 2.01463E-18 8.79448E-19
 -1       640 1.26698E-04-5.28342E-05-3.17402E-05 1.39329E-06 2.71525E-18 2.00926E-18
 -1       641 1.33391E-04-4.97449E-05-3.60730E-05-9.87207E-06-1.22714E-19 3.95421E-18
 -1       642 1.32794E-04-3.34214E-05-4.30640E-05 1.71309E-05-3.22685E-18-3.68343E-18
 -1       643 1.33540E-04-4.97716E-05-3.60809E-05 1.01630E-05 4.44189E-19-4.22104E-18
 -1       644 1.26366E-04-5.24570E-05-3.16947E-05-1.23718E-06 6.26378E-19-3.93004E-18
 -1       645 1.16260E-04-4.68051E-05-2.97628E-05-8.73572E-06 2.14119E-18-2.28166E-18
 -1       646 1.07810E-04-3.96845E-05-2.91971E-05-1.20113E-05 1.92088E-18-1.52117E-18
 -1       647 1.02152E-04-3.39732E-05-2.92222E-05-1.26617E-05 1.27963E-18-1.11413E-18
 -1       648 9.88108E-05-3.02125E-05-2.94006E-05-1.20049E-05 1.91007E-18-5.42147E-19
 -1       649 9.70238E-05-2.80686E-05-2.95522E-05-1.07808E-05 5.13260E-19-8.12694E-19
 -1       650 9.61423E-05-2.70226E-05-2.96222E-05-9.35554E-06 8.23248E-19-5.24441E-19
 -1       651 9.57408E-05-2.66438E-05-2.96122E-05-7.91338E-06 2.06657E-18-9.53455E-19
 -1       652 9.55709E-05-2.66338E-05-2.95437E-05-6.55202E-06 2.45839E-19-1.42691E-18
 -1       653 9.55009E-05-2.68051E-05-2.94404E-05-5.32265E-06-1.33389E-18-7.36482E-21
 -1       654 9.54670E-05-2.70487E-05-2.93216E-05-4.24817E-06-1.54766E-18-1.28047E-18
 -1       655 9.54424E-05-2.73051E-05-2.92012E-05-3.33336E-06-1.72852E-19-1.71451E-18
 -1       656 9.54177E-05-2.75450E-05-2.90879E-05-2.57149E-06-1.88203E-19 4.87155E-19
 -1       657 9.53916E-05-2.77558E-05-2.89865E-05-1.94910E-06 6.69711E-19 7.36723E-19
 -1       658 9.53651E-05-2.79338E-05-2.88989E-05-1.44945E-06 1.35207E-18 1.01962E-18
 -1       659 9.53397E-05-2.80803E-05-2.88253E-05-1.05483E-06-9.34393E-19 1.35225E-19
 -1       660 9.53166E-05-2.81983E-05-2.87649E-05-7.48063E-07 6.31766E-20 4.56299E-19
 -1       661 9.52966E-05-2.82920E-05-2.87162E-05-5.13456E-07-3.49445E-19 1.15467E-19
 -1       662 9.52787E-05-2.83648E-05-2.86773E-05-3.37585E-07 6.37778E-19-2.28156E-19
 -1       663 9.52642E-05-2.84229E-05-2.86462E-05-2.08889E-07 5.04412E-19 1.90563E-18
 -1       664 9.55984E-05-2.76008E-05-2.91411E-05-2.95503E-06 1.60526E-18-1.26747E-18
 -1       665 9.55423E-05-2.72691E-05-2.92590E-05-1.84861E-06 1.49589E-18-1.27532E-18
 -1       666 9.60373E-05-2.79662E-05-2.91728E-05-4.64201E-06 4.38846E-20-6.95238E-19
 -1       667 9.64518E-05-2.81565E-05-2.92689E-05-5.36609E-06 4.51486E-19-2.88447E-19
 -1       668 9.70382E-05-2.84608E-05-2.93900E-05-6.02954E-06-2.58515E-20-1.80777E-19
 -1       669 9.78571E-05-2.89813E-05-2.95182E-05-6.58511E-06-5.07441E-20-8.49707E-20
 -1       670 9.89985E-05-2.98401E-05-2.96398E-05-6.92761E-06 3.94332E-20 2.63983E-19
 -1       671 1.00580E-04-3.11659E-05-2.97502E-05-6.88338E-06-1.94708E-19 1.41317E-19
 -1       672 1.02719E-04-3.30465E-05-2.98624E-05-6.20227E-06-4.98042E-19 6.62326E-19
 -1       673 1.05465E-04-3.54257E-05-3.00203E-05-4.56857E-06-3.93754E-19 1.21437E-18
 -1       674 1.08649E-04-3.79264E-05-3.03134E-05-1.67752E-06-6.58414E-19 2.01031E-18
 -1       675 1.11695E-04-3.96623E-05-3.08736E-05 2.55581E-06-4.18838E-19 2.39807E-18
 -1       676 1.13488E-04-3.91896E-05-3.18451E-05 7.55168E-06-7.41387E-19 2.42636E-18
 -1       677 1.12843E-04-3.52708E-05-3.32648E-05 1.15173E-05 3.13721E-19 2.17070E-18
 -1       678 1.09672E-04-2.84599E-05-3.48024E-05 1.16935E-05 1.79417E-18 2.63617E-18
 -1       679 1.05532E-04-2.16303E-05-3.60331E-05 6.23816E-06 1.84837E-18 1.60617E-18
 -1       680 1.05170E-04-2.05622E-05-3.62927E-05-2.76105E-06 2.16208E-18-2.98950E-19
 -1       681 1.08017E-04-2.53412E-05-3.54786E-05-1.02227E-05 1.50594E-18-3.38364E-18
 -1       682 1.11803E-04-3.26618E-05-3.39481E-05-1.23253E-05 2.38082E-19-3.15949E-18
 -1       683 1.13634E-04-3.80450E-05-3.24019E-05-9.61709E-06-4.22953E-19-2.68595E-18
 -1       684 1.12688E-04-3.97541E-05-3.12646E-05-4.79708E-06 3.19699E-19-2.17548E-18
 -1       685 1.10011E-04-3.86931E-05-3.05682E-05-2.12691E-07-1.89278E-18-2.36336E-18
 -1       686 1.06818E-04-3.63510E-05-3.02041E-05 3.14666E-06-2.21661E-18-3.53785E-18
 -1       687 1.03886E-04-3.38360E-05-3.00248E-05 5.14846E-06-6.42185E-19-2.13675E-18
 -1       688 1.01537E-04-3.17244E-05-2.99212E-05 6.05132E-06 2.90110E-19-9.87013E-19
 -1       689 9.97804E-05-3.01741E-05-2.98321E-05 6.18668E-06 2.77354E-19-1.24531E-19
 -1       690 9.85152E-05-2.91431E-05-2.97310E-05 5.83897E-06-4.80782E-19-4.33418E-19
 -1       691 9.76161E-05-2.85182E-05-2.96130E-05 5.22434E-06 1.40343E-18-1.25129E-18
 -1       692 9.69759E-05-2.81798E-05-2.94834E-05 4.49354E-06 1.10327E-18 1.19560E-19
 -1       693 9.65149E-05-2.80293E-05-2.93503E-05 3.74502E-06-3.61034E-19-9.80777E-20
 -1       694 9.61783E-05-2.79938E-05-2.92213E-05 3.03853E-06-5.58002E-19 1.14872E-18
 -1       695 9.59294E-05-2.80231E-05-2.91021E-05 2.40644E-06-2.02558E-19 1.90317E-18
 -1       696 9.57435E-05-2.80848E-05-2.89961E-05 1.86251E-06-3.39264E-19 3.10973E-18
 -1       697 9.56041E-05-2.81585E-05-2.89048E-05 1.40857E-06-1.23794E-18 1.81793E-18
 -1       698 9.54996E-05-2.82326E-05-2.88284E-05 1.03925E-06-1.37055E-18 1.09066E-19
 -1       699 9.54215E-05-2.83007E-05-2.87658E-05 7.45476E-07 6.99778E-20 1.23295E-18
 -1       700 9.53636E-05-2.83601E-05-2.87156E-05 5.16796E-07 1.26528E-18 1.66011E-18
 -1       701 9.53206E-05-2.84096E-05-2.86760E-05 3.42551E-07 1.51173E-18 2.51277E-18
 -1       702 9.52893E-05-2.84506E-05-2.86450E-05 2.13257E-07-3.00841E-19 4.93509E-18
 -1       703 9.52637E-05-2.84653E-05-2.86278E-05 1.45769E-07-9.56401E-19 2.77798E-18
 -1       704 9.50310E-05-2.81667E-05-2.86561E-05 3.69016E-08 5.00999E-19-1.78946E-18
 -1       705 9.52553E-05-2.84552E-05-2.86286E-05-1.43636E-07 1.02369E-18 5.37190E-19
 -1       706 9.51051E-05-2.82528E-05-2.86510E-05 1.58393E-07 1.32684E-18-5.57678E-19
 -1       707 9.50313E-05-2.81664E-05-2.86564E-05-3.99771E-08 4.30100E-19-6.19546E-19
 -1       708 9.50572E-05-2.81970E-05-2.86544E-05 1.07049E-07 9.79677E-19-3.50457E-18
 -1       709 4.75986E-05-1.91183E-05-1.17078E-05-2.49065E-05 1.20427E-18 4.13908E-18
 -1       710 9.50576E-05-2.81955E-05-2.86552E-05-1.09021E-07 6.10292E-19-1.14626E-18
 -1       711 9.51065E-05-2.82514E-05-2.86522E-05-1.60202E-07 7.88914E-19-1.25675E-19
 -1       712 9.51682E-05-2.83256E-05-2.86469E-05-1.82691E-07 1.78184E-18 6.79006E-19
 -1       713 9.42621E-05-2.07539E-05-3.15032E-05-6.37024E-06-2.35118E-18-2.53999E-18
 -1       714 3.44861E-05-1.09457E-05-9.54934E-06 1.26252E-06-5.52245E-19 8.15576E-18
 -1       715 7.48026E-05-3.40290E-05-1.70979E-05 3.49483E-05-3.49167E-18 1.39085E-18
 -1       716 1.25062E-04-5.87794E-05-2.83431E-05-1.97558E-05-1.78148E-18-2.61521E-20
 -1       717 5.00670E-05-1.89942E-05-1.28346E-05 2.58147E-05-3.31007E-18 6.71689E-18
 -1       718 9.55587E-05-2.66882E-05-2.95137E-05-3.90364E-07 1.58858E-18-1.02298E-18
 -1       719 9.57591E-05-2.78059E-05-2.91222E-05-3.85453E-06 9.20529E-19-9.86495E-19
 -1       720 9.51765E-05-2.35294E-05-3.07064E-05-3.58870E-06-2.04256E-18-2.27772E-18
 -1       721 9.55713E-05-2.56716E-05-2.99528E-05 1.60497E-06 2.15594E-18-1.00759E-18
 -1       722 4.07349E-05-1.60210E-05-1.00685E-05-2.08238E-05-1.30537E-18-5.25409E-18
 -1       723 3.74988E-05-1.28521E-05-9.99673E-06 1.04946E-05 5.85889E-19-5.97561E-18
 -1       724 9.17054E-05-1.69867E-05-3.20280E-05 3.38568E-06 1.88161E-18-3.16187E-18
 -1       725 7.91879E-05-3.87126E-05-1.70256E-05-3.62315E-05 3.97468E-18 4.71019E-18
 -1       726 9.16498E-05-1.69032E-05-3.20397E-05-3.34136E-06-9.65212E-19-3.64076E-18
 -1       727 1.31116E-04-3.41048E-05-4.20000E-05 1.24978E-05 1.95757E-18 1.34212E-18
 -1       728 6.41682E-05-3.07475E-05-1.38682E-05-3.60614E-05-2.27963E-18-3.94733E-18
 -1       729 1.36970E-04-5.92844E-05-3.31574E-05 4.18151E-06 1.24580E-18 2.09500E-18
 -1       730 1.28561E-04-2.65079E-05-4.41909E-05-1.39296E-05 4.63756E-18-4.84365E-18
 -1       731 8.54990E-05-4.27413E-05-1.79559E-05 3.68336E-05 2.66252E-18-3.16954E-18
 -1       732 1.30883E-04-5.82897E-05-3.12368E-05 1.28892E-05-2.73393E-19-3.92933E-18
 -1       733 1.33870E-04-5.89286E-05-3.21936E-05-6.78483E-06 4.78766E-19-4.10934E-18
 -1       734 1.18474E-04-1.24192E-05-4.59961E-05-7.09789E-06 5.23135E-18-1.33696E-18
 -1       735 9.26688E-05-1.83836E-05-3.18406E-05-4.59487E-06-1.59378E-18-3.44157E-18
 -1       736 9.06687E-05-1.55156E-05-3.22136E-05-6.67683E-07 1.04804E-19-3.76762E-18
 -1       737 4.37000E-05-1.19867E-05-1.31737E-05-5.12530E-06-2.22931E-19-5.01470E-18
 -1       738 8.46156E-05-4.08989E-05-1.84688E-05-3.59585E-05-3.01466E-18-2.77859E-18
 -1       739 1.18747E-04-5.65252E-05-2.65466E-05 2.21668E-05-1.43974E-18-4.92197E-18
 -1       740 1.21146E-04-2.29002E-05-4.24723E-05 1.38546E-05 2.87496E-18 1.57964E-18
 -1       741 9.51662E-05-2.83265E-05-2.86457E-05 1.82127E-07 1.31322E-18-2.72111E-18
 -1       742 9.22182E-05-4.33103E-05-2.07688E-05 3.25921E-05-3.40761E-18-6.90967E-19
 -1       743 9.52195E-05-2.83977E-05-2.86379E-05 1.74212E-07 1.13674E-18-8.74941E-19
 -1       744 9.52133E-05-2.83690E-05-2.86475E-05-2.03665E-07 1.27633E-18-3.30022E-19
 -1       745 1.13767E-04-1.19109E-05-4.40289E-05 8.13222E-07 4.13077E-18 6.88029E-19
 -1       746 1.29228E-04-5.48861E-05-3.19458E-05-4.34786E-06-1.32242E-18 9.71467E-19
 -1       747 9.09925E-05-1.59658E-05-3.21596E-05-2.02356E-06-4.17028E-19-3.65366E-18
 -1       748 5.03422E-05-1.83039E-05-1.32871E-05 2.17373E-05 1.37394E-18-6.09938E-18
 -1       749 1.05622E-04-5.19463E-05-2.29084E-05 2.98434E-05 3.19534E-18-8.05793E-19
 -1       750 9.44790E-05-2.21569E-05-3.09964E-05 2.99028E-06 2.05741E-18-2.40551E-18
 -1       751 1.29371E-04-5.18054E-05-3.33574E-05-8.06295E-07-3.31335E-20-3.68678E-18
 -1       752 9.54326E-05-2.57140E-05-2.98795E-05 1.16418E-06-1.06471E-18-1.96184E-18
 -1       753 9.53275E-05-2.62561E-05-2.96020E-05 2.49644E-06-1.06002E-18-1.62113E-18
 -1       754 9.50579E-05-2.64152E-05-2.94183E-05 3.62801E-06-1.07157E-18-1.42126E-18
 -1       755 9.46646E-05-2.63021E-05-2.92981E-05 4.66522E-06-4.61250E-19-1.35800E-18
 -1       756 9.41672E-05-2.60066E-05-2.92115E-05 5.69465E-06-1.16674E-20-1.71505E-18
 -1       757 9.35826E-05-2.56192E-05-2.91269E-05 6.78498E-06 4.83236E-20-1.09300E-18
 -1       758 9.29446E-05-2.52548E-05-2.90096E-05 7.99087E-06-3.29099E-19-6.11110E-19
 -1       759 9.23307E-05-2.50811E-05-2.88209E-05 9.36182E-06 2.05281E-19-7.26704E-19
 -1       760 9.19056E-05-2.53562E-05-2.85210E-05 1.09540E-05 3.93486E-19-1.18855E-18
 -1       761 9.19906E-05-2.64783E-05-2.80771E-05 1.28344E-05 4.85054E-19-1.07621E-18
 -1       762 9.31648E-05-2.90316E-05-2.74866E-05 1.50464E-05 9.24752E-19-1.09445E-18
 -1       763 9.63781E-05-3.38022E-05-2.68196E-05 1.75220E-05 2.03048E-18-7.18265E-19
 -1       764 1.03711E-04-4.18859E-05-2.64062E-05 1.94507E-05 2.41442E-18 2.54788E-19
 -1       765 1.14900E-04-5.17560E-05-2.69633E-05-1.81755E-05 2.59393E-18-1.67715E-18
 -1       766 1.03252E-04-4.13979E-05-2.64538E-05-1.89726E-05 2.21539E-18-3.49768E-19
 -1       767 9.64896E-05-3.36485E-05-2.69326E-05-1.70527E-05 2.70793E-18 8.05629E-19
 -1       768 9.31649E-05-2.88017E-05-2.75824E-05-1.45330E-05 1.56623E-18 4.76017E-19
 -1       769 9.19062E-05-2.61845E-05-2.81645E-05-1.22307E-05 2.01364E-18 4.15607E-19
 -1       770 9.17414E-05-2.50103E-05-2.85975E-05-1.02407E-05 6.92829E-19 1.02594E-18
 -1       771 9.20832E-05-2.46970E-05-2.88785E-05-8.53089E-06 5.79201E-19 1.29331E-18
 -1       772 9.26089E-05-2.48575E-05-2.90353E-05-7.04995E-06 3.05106E-19 8.87619E-19
 -1       773 9.31537E-05-2.52488E-05-2.91013E-05-5.76365E-06-1.62587E-19-2.76563E-19
 -1       774 9.36428E-05-2.57263E-05-2.91065E-05-4.65209E-06-1.58012E-18-3.96723E-19
 -1       775 9.40499E-05-2.62087E-05-2.90743E-05-3.70201E-06-1.43042E-18 1.21948E-18
 -1       776 9.43734E-05-2.66546E-05-2.90220E-05-2.90144E-06 5.03984E-19 6.89072E-19
 -1       777 9.46221E-05-2.70456E-05-2.89611E-05-2.23737E-06 9.37671E-19 1.51764E-18
 -1       778 9.48087E-05-2.73768E-05-2.88992E-05-1.69531E-06 1.98955E-19 1.39111E-18
 -1       779 9.49456E-05-2.76501E-05-2.88408E-05-1.25995E-06-1.43950E-18-1.12157E-18
 -1       780 9.50438E-05-2.78711E-05-2.87882E-05-9.15814E-07-9.43025E-20-1.81541E-18
 -1       781 9.51132E-05-2.80474E-05-2.87423E-05-6.49109E-07-9.34102E-20-2.08284E-18
 -1       782 9.51564E-05-2.81823E-05-2.87030E-05-4.44692E-07 4.32180E-19-6.90927E-19
 -1       783 9.51934E-05-2.82879E-05-2.86734E-05-3.07002E-07 1.28322E-18-4.37740E-19
 -1       784 9.55350E-05-2.74753E-05-2.91683E-05-6.07422E-06-1.78387E-19-2.42824E-19
 -1       785 9.54496E-05-2.73371E-05-2.91909E-05-5.22448E-06 1.11317E-19-8.32376E-19
 -1       786 9.63865E-05-2.84434E-05-2.91184E-05-7.67012E-06-2.27072E-19-8.16948E-20
 -1       787 9.74541E-05-2.96244E-05-2.90700E-05-8.29096E-06-2.62817E-19 1.05332E-19
 -1       788 9.92464E-05-3.15388E-05-2.90181E-05-8.59412E-06-7.07855E-19 7.99344E-19
 -1       789 1.02029E-04-3.43352E-05-2.90126E-05-8.29083E-06-7.85060E-19 5.97779E-19
 -1       790 1.05991E-04-3.79435E-05-2.91618E-05-6.92264E-06-9.81883E-19 1.17063E-18
 -1       791 1.10967E-04-4.17410E-05-2.96663E-05-3.89758E-06-8.01238E-19 1.37130E-18
 -1       792 1.16064E-04-4.42325E-05-3.07904E-05 1.26637E-06-7.38567E-19 1.63779E-18
 -1       793 1.19160E-04-4.26737E-05-3.28079E-05 7.83996E-06-3.43127E-19 1.77757E-18
 -1       794 1.17925E-04-3.46830E-05-3.57333E-05 1.29404E-05 4.58404E-19 2.31462E-18
 -1       795 1.16379E-04-3.00813E-05-3.71245E-05-1.37271E-05 1.96081E-18-2.31057E-18
 -1       796 1.19371E-04-4.02679E-05-3.40377E-05-1.09780E-05-1.00298E-18-4.61627E-18
 -1       797 1.17685E-04-4.38718E-05-3.16526E-05-4.47539E-06-7.80117E-19-3.48093E-18
 -1       798 1.13077E-04-4.28281E-05-3.01012E-05 1.64593E-06-5.49746E-19-1.20582E-18
 -1       799 1.07890E-04-3.93162E-05-2.93895E-05 5.46523E-06-1.42042E-18-1.79410E-18
 -1       800 1.03456E-04-3.54736E-05-2.91368E-05 7.34828E-06-1.20458E-18-3.30487E-18
 -1       801 1.00205E-04-3.23033E-05-2.91009E-05 7.92079E-06-7.10315E-19-1.43528E-18
 -1       802 9.80164E-05-3.00160E-05-2.91432E-05 7.71420E-06-7.53104E-19-9.38030E-19
 -1       803 9.66480E-05-2.85370E-05-2.91904E-05 7.07844E-06-2.22200E-20-2.32606E-19
 -1       804 9.58483E-05-2.76857E-05-2.92123E-05 6.23973E-06 9.06559E-19-1.38875E-18
 -1       805 9.54134E-05-2.72737E-05-2.92025E-05 5.33582E-06-8.44611E-20 1.76288E-18
 -1       806 9.51998E-05-2.71463E-05-2.91656E-05 4.44907E-06 1.00858E-18 1.02245E-18
 -1       807 9.51129E-05-2.71893E-05-2.91099E-05 3.62759E-06-1.26843E-18 8.30909E-19
 -1       808 9.50936E-05-2.73236E-05-2.90441E-05 2.89686E-06-6.49983E-19 1.11985E-18
 -1       809 9.51066E-05-2.74977E-05-2.89751E-05 2.26711E-06 1.77590E-19 1.23531E-18
 -1       810 9.51322E-05-2.76799E-05-2.89080E-05 1.73847E-06-9.21806E-19 1.48978E-19
 -1       811 9.51595E-05-2.78518E-05-2.88461E-05 1.30478E-06 3.84777E-19-2.44868E-19
 -1       812 9.51837E-05-2.80044E-05-2.87910E-05 9.56230E-07 1.28450E-19-1.61880E-18
 -1       813 9.52027E-05-2.81342E-05-2.87436E-05 6.81536E-07-4.56450E-19-6.95379E-19
 -1       814 9.52160E-05-2.82410E-05-2.87035E-05 4.70318E-07 1.00351E-18 7.60136E-19
 -1       815 9.52244E-05-2.83272E-05-2.86702E-05 3.10940E-07 5.10735E-20 1.16280E-18
 -1       816 9.52206E-05-2.83634E-05-2.86532E-05 2.35274E-07 1.79864E-18-2.36516E-19
 -1       817 1.08668E-04-5.16241E-05-2.43017E-05-2.67481E-05-2.63012E-18-1.01925E-18
 -1       818 9.23657E-05-1.85876E-05-3.16202E-05 8.92367E-07 6.73814E-19-2.97243E-18
 -1       819 9.50014E-05-2.80917E-05-2.86756E-05-1.97432E-07-4.45663E-19-9.88980E-19
 -1       820 9.49256E-05-2.80139E-05-2.86765E-05-6.44954E-10-2.91262E-19-1.02575E-18
 -1       821 9.50854E-05-2.81817E-05-2.86728E-05-2.55522E-07 1.45865E-18 3.04987E-18
 -1       822 9.49454E-05-2.80335E-05-2.86765E-05-1.07397E-07-6.28461E-19-1.14992E-18
 -1       823 6.92063E-05-2.40095E-05-1.91718E-05 2.43038E-05-4.31824E-18 2.58566E-18
 -1       824 1.26467E-04-4.17908E-05-3.65014E-05 1.12606E-05 2.18204E-19 2.02113E-18
 -1       825 9.58063E-05-2.77909E-05-2.91493E-05-6.90135E-06-3.50609E-19 2.31681E-19
 -1       826 4.89679E-05-1.31455E-05-1.50385E-05-1.04753E-05 1.04865E-18 5.92404E-18
 -1       827 9.56027E-05-2.61229E-05-2.97771E-05-9.23139E-07 1.51558E-18-1.33558E-18
 -1       828 9.55978E-05-2.67600E-05-2.95017E-05-2.28713E-06 1.44624E-18-1.47979E-18
 -1       829 7.31215E-05-3.08830E-05-1.77689E-05 3.03748E-05 2.14876E-18-4.29410E-18
 -1       830 9.52859E-05-2.46254E-05-3.02832E-05-4.79243E-07-1.34223E-18-2.21045E-18
 -1       831 5.06840E-05-1.28698E-05-1.59257E-05 9.68422E-06-1.77869E-18 5.24937E-18
 -1       832 1.24060E-04-3.57129E-05-3.80564E-05-1.36189E-05 3.39346E-18-3.46505E-18
 -1       833 9.96246E-05-4.48729E-05-2.32778E-05-2.72835E-05 4.25931E-18-3.84070E-19
 -1       834 1.16741E-04-2.16299E-05-4.10421E-05-1.26660E-05 4.01655E-18-1.55191E-18
 -1       835 9.52431E-05-2.40426E-05-3.05129E-05 2.45225E-06 2.18619E-18-1.52674E-18
 -1       836 6.86776E-05-2.68608E-05-1.76656E-05-2.81842E-05 2.58031E-18 2.35262E-18
 -1       837 6.07861E-05-2.17953E-05-1.63996E-05-2.48066E-05-1.48386E-18-3.59383E-18
 -1       838 9.21895E-05-1.83276E-05-3.16564E-05-9.24336E-10 2.00285E-19-3.22836E-18
 -1       839 4.98895E-05-1.34510E-05-1.52841E-05 9.29968E-06 2.99906E-19-4.82353E-18
 -1       840 1.24195E-04-5.40363E-05-3.00660E-05 7.84136E-06-1.60521E-18-3.90596E-18
 -1       841 7.44748E-05-2.97585E-05-1.89604E-05-2.88426E-05-1.93126E-18-3.35584E-18
 -1       842 9.50848E-05-2.81865E-05-2.86707E-05 2.54601E-07 1.67566E-18-1.16852E-18
 -1       843 9.35311E-05-2.04284E-05-3.13328E-05-2.45149E-06-1.12488E-18-3.10678E-18
 -1       844 9.48096E-05-2.29601E-05-3.07920E-05-2.29091E-06-1.66611E-18-2.54794E-18
 -1       845 1.11627E-04-1.98938E-05-3.95178E-05-9.77314E-06 4.01578E-18-3.33665E-19
 -1       846 9.35913E-05-2.05191E-05-3.13163E-05 2.49290E-06 1.80689E-18-2.70459E-18
 -1       847 8.04141E-05-3.10744E-05-2.10783E-05 2.64137E-05-4.21543E-18 9.74564E-19
 -1       848 9.55332E-05-2.70904E-05-2.93324E-05-3.39160E-06 9.37933E-19-1.23994E-18
 -1       849 9.54677E-05-2.72460E-05-2.92377E-05-4.34486E-06 2.43091E-19-7.92550E-19
 -1       850 9.28476E-05-1.93210E-05-3.15123E-05 1.74289E-06 1.34211E-18-2.65172E-18
 -1       851 9.50015E-05-2.80956E-05-2.86740E-05 1.95955E-07 3.63113E-19-6.92206E-19
 -1       852 9.49455E-05-2.80357E-05-2.86757E-05 1.06490E-07 1.40770E-18-4.08624E-18
 -1       853 1.18776E-04-5.32846E-05-2.80530E-05-1.43793E-05-1.87724E-18 2.83180E-19
 -1       854 9.01170E-05-4.03826E-05-2.10941E-05 2.95160E-05 2.67508E-18-1.80455E-18
 -1       855 9.51345E-05-2.82303E-05-2.86734E-05-2.88223E-07 1.71676E-18-1.10619E-18
 -1       856 9.55062E-05-2.53106E-05-3.00845E-05 5.67625E-07 1.82470E-18-1.36594E-18
 -1       857 9.27954E-05-1.92460E-05-3.15230E-05-1.72153E-06-6.35855E-19-3.30787E-18
 -1       858 1.08404E-04-4.85725E-05-2.56060E-05 2.13689E-05-2.59734E-18-3.76489E-18
 -1       859 8.33863E-05-3.01005E-05-2.27313E-05-2.31067E-05 3.01282E-18 1.15094E-18
 -1       860 6.46440E-05-1.68383E-05-2.03999E-05 1.27261E-05-2.19966E-18 3.43595E-18
 -1       861 9.47576E-05-2.55855E-05-2.96453E-05 2.58069E-06-7.21397E-19-1.76708E-18
 -1       862 9.42113E-05-2.55897E-05-2.94093E-05 3.54143E-06-6.04856E-19-1.44626E-18
 -1       863 9.34328E-05-2.52837E-05-2.92068E-05 4.44521E-06-4.31373E-19-1.07570E-18
 -1       864 9.24395E-05-2.47621E-05-2.90046E-05 5.36124E-06 1.00562E-19-1.26617E-18
 -1       865 9.12424E-05-2.41252E-05-2.87645E-05 6.35442E-06 1.28437E-19-1.46991E-18
 -1       866 8.98603E-05-2.34955E-05-2.84420E-05 7.49766E-06-1.36270E-19-9.71996E-19
 -1       867 8.83409E-05-2.30430E-05-2.79850E-05 8.89672E-06 1.30559E-19-1.19585E-18
 -1       868 8.67945E-05-2.30189E-05-2.73332E-05 1.07270E-05 2.83639E-19-1.17095E-18
 -1       869 8.54726E-05-2.38260E-05-2.64217E-05 1.32787E-05 7.10224E-19-1.03727E-18
 -1       870 8.48865E-05-2.60826E-05-2.51976E-05 1.69712E-05 1.68866E-18-9.73682E-19
 -1       871 8.54604E-05-3.04083E-05-2.34806E-05 2.21284E-05 2.55830E-18-8.67501E-19
 -1       872 9.44927E-05-4.13087E-05-2.26808E-05-2.75594E-05-1.76770E-18-2.11982E-18
 -1       873 1.16543E-04-4.77396E-05-2.95339E-05 6.03257E-06-2.25372E-18-4.02738E-18
 -1       874 8.26574E-05-2.51936E-05-2.46165E-05-1.71426E-05 2.22622E-18 3.26136E-19
 -1       875 8.35368E-05-2.28461E-05-2.60084E-05-1.29818E-05 1.50469E-18 7.84216E-19
 -1       876 8.51101E-05-2.20265E-05-2.70365E-05-1.01556E-05 1.74260E-18-4.66230E-21
 -1       877 8.67949E-05-2.20327E-05-2.77559E-05-8.16313E-06 1.14697E-18-3.83504E-19
 -1       878 8.83857E-05-2.24932E-05-2.82401E-05-6.65974E-06 3.57868E-20 6.01089E-19
 -1       879 8.97932E-05-2.31760E-05-2.85505E-05-5.45763E-06-2.08765E-19 3.58087E-19
 -1       880 9.09886E-05-2.39375E-05-2.87364E-05-4.45677E-06-1.10869E-18 1.57705E-18
 -1       881 9.19750E-05-2.46916E-05-2.88359E-05-3.60708E-06-1.66194E-18 1.85719E-18
 -1       882 9.27709E-05-2.53903E-05-2.88775E-05-2.88342E-06-8.81136E-19 1.79095E-18
 -1       883 9.34012E-05-2.60098E-05-2.88821E-05-2.27145E-06 8.00898E-19 2.32871E-18
 -1       884 9.38921E-05-2.65420E-05-2.88644E-05-1.76041E-06 4.54440E-19 3.52604E-19
 -1       885 9.42686E-05-2.69881E-05-2.88345E-05-1.34014E-06-6.85507E-19-3.55430E-19
 -1       886 9.45527E-05-2.73543E-05-2.87993E-05-1.00019E-06-4.12074E-19 6.64635E-19
 -1       887 9.47637E-05-2.76498E-05-2.87631E-05-7.30675E-07-3.27025E-19-5.56472E-20
 -1       888 9.49163E-05-2.78841E-05-2.87283E-05-5.20481E-07 1.38522E-18 1.20885E-18
 -1       889 9.71827E-05-3.16475E-05-2.80873E-05-1.08211E-05-7.43016E-19-1.13363E-20
 -1       890 9.52445E-05-2.91435E-05-2.83291E-05-9.76313E-06-7.86521E-19-8.29137E-20
 -1       891 9.43123E-05-2.76574E-05-2.85663E-05-8.61149E-06-2.12686E-19-3.34559E-19
 -1       892 1.00587E-04-3.54261E-05-2.79285E-05-1.14727E-05-1.43715E-18-1.10432E-19
 -1       893 1.06184E-04-4.06364E-05-2.80952E-05-1.09856E-05-1.14197E-18 2.20109E-19
 -1       894 1.13313E-04-4.61303E-05-2.87989E-05-8.34271E-06-6.57946E-19 5.52014E-19
 -1       895 1.08734E-04-4.26245E-05-2.83411E-05 9.75151E-06-1.42028E-18-2.39432E-18
 -1       896 1.02324E-04-3.69843E-05-2.79994E-05 1.09943E-05-1.10242E-18-1.58605E-18
 -1       897 9.81905E-05-3.26894E-05-2.80689E-05 1.06025E-05-2.41753E-18 2.12788E-20
 -1       898 9.56147E-05-2.96235E-05-2.82815E-05 9.57941E-06-1.40179E-18 6.27545E-19
 -1       899 9.42245E-05-2.77043E-05-2.85083E-05 8.34520E-06-7.75439E-19 7.06150E-19
 -1       900 9.36018E-05-2.66461E-05-2.86951E-05 7.10674E-06 2.87863E-19 1.38697E-18
 -1       901 9.34349E-05-2.61751E-05-2.88256E-05 5.94919E-06 8.97413E-20 1.06312E-18
 -1       902 9.35209E-05-2.60820E-05-2.89024E-05 4.90280E-06 1.10859E-18-1.01053E-18
 -1       903 9.37303E-05-2.62145E-05-2.89353E-05 3.97890E-06-6.59952E-19 5.98320E-19
 -1       904 9.39842E-05-2.64665E-05-2.89361E-05 3.17915E-06-1.20478E-18 5.60287E-19
 -1       905 9.42373E-05-2.67680E-05-2.89154E-05 2.49946E-06-1.38031E-19 4.47386E-19
 -1       906 9.44662E-05-2.70751E-05-2.88819E-05 1.93194E-06 8.08021E-19 1.60109E-19
 -1       907 9.46607E-05-2.73622E-05-2.88422E-05 1.46629E-06-4.51955E-20-2.05814E-18
 -1       908 9.48186E-05-2.76162E-05-2.88010E-05 1.09078E-06-2.98508E-19-4.21299E-19
 -1       909 9.49421E-05-2.78327E-05-2.87611E-05 7.93027E-07-1.82050E-21 1.91061E-19
 -1       910 9.50351E-05-2.80123E-05-2.87243E-05 5.60010E-07 4.81627E-20-1.43435E-18
 -1       911 9.51030E-05-2.81556E-05-2.86916E-05 3.83146E-07 1.29424E-18-7.14377E-19
 -1       912 9.43553E-05-2.65087E-05-2.90771E-05-5.47783E-06-4.54864E-19-1.07028E-18
 -1       913 5.44668E-05-1.31297E-05-1.75357E-05-2.54189E-06 7.95400E-20-4.28469E-18
 -1       914 9.51578E-05-2.82775E-05-2.86629E-05 2.56120E-07 1.17464E-18-2.14304E-18
 -1       915 1.22862E-04-4.97866E-05-3.13353E-05-5.35862E-07-1.10438E-18 8.61389E-19
 -1       916 9.49501E-05-2.79865E-05-2.86988E-05-3.27678E-07 1.72940E-18 2.44032E-18
 -1       917 6.48655E-05-2.10070E-05-1.85693E-05 2.08698E-05 2.14486E-18-4.69230E-18
 -1       918 9.53611E-05-2.56018E-05-2.98966E-05-1.38095E-06 1.38818E-18-1.87781E-18
 -1       919 5.43290E-05-1.53005E-05-1.64715E-05-1.38819E-05-4.26805E-19-4.17010E-18
 -1       920 1.23242E-04-4.34096E-05-3.40937E-05-8.63965E-06-3.51863E-19-4.79411E-18
 -1       921 9.23361E-05-1.85481E-05-3.16255E-05-8.85677E-07-1.53167E-19-3.36453E-18
 -1       922 6.57717E-05-1.83323E-05-2.02038E-05-1.56180E-05 1.74410E-18 1.74342E-18
 -1       923 9.49661E-05-2.41806E-05-3.03363E-05 2.06944E-07-1.01863E-18-2.40868E-18
 -1       924 9.50318E-05-2.51585E-05-2.99456E-05 1.49473E-06-6.71151E-19-2.25224E-18
 -1       925 5.92140E-05-1.34107E-05-1.95168E-05-2.56266E-06-4.49599E-19 2.90112E-18
 -1       926 7.02785E-05-2.23510E-05-2.04179E-05-1.99818E-05-6.23185E-19-2.53665E-18
 -1       927 7.78582E-05-2.48970E-05-2.26755E-05 1.92132E-05-2.87277E-18 1.06647E-18
 -1       928 7.62924E-05-2.78339E-05-2.05138E-05 2.48882E-05 2.64519E-18-3.13887E-18
 -1       929 6.07826E-05-1.57103E-05-1.91563E-05 1.07500E-05 1.04002E-18-3.42661E-18
 -1       930 1.07167E-04-4.66408E-05-2.58910E-05-1.98224E-05-1.62191E-18-7.97700E-19
 -1       931 9.47965E-05-2.78362E-05-2.86974E-05-7.48279E-08-1.21341E-18-1.28955E-18
 -1       932 9.40158E-05-2.68908E-05-2.87678E-05-7.49549E-06 6.32373E-20-5.22023E-19
 -1       933 9.59448E-05-3.84788E-05-2.44971E-05 2.16176E-05-3.36446E-18-1.55892E-18
 -1       934 9.46947E-05-2.65140E-05-2.92202E-05-4.54307E-06-2.24291E-20-1.36281E-18
 -1       935 9.47977E-05-2.78390E-05-2.86967E-05 7.68986E-08-2.98630E-19-5.05791E-18
 -1       936 9.40883E-05-2.65768E-05-2.89335E-05-6.45214E-06-4.87945E-19-6.27378E-19
 -1       937 9.49608E-05-2.80007E-05-2.86973E-05 3.41996E-07 1.08588E-18-2.23394E-18
 -1       938 9.48504E-05-2.78878E-05-2.86983E-05-2.15675E-07-9.04851E-20 1.30889E-19
 -1       939 9.44822E-05-2.26357E-05-3.07908E-05-1.08792E-06-1.07134E-18-2.76019E-18
 -1       940 9.52700E-05-2.61942E-05-2.96039E-05-2.57088E-06 1.14924E-18-1.34427E-18
 -1       941 9.52023E-05-2.45154E-05-3.02942E-05 5.98972E-08 1.52002E-18-2.10585E-18
 -1       942 9.38586E-05-2.15340E-05-3.09956E-05-8.14252E-07-8.40805E-19-2.74903E-18
 -1       943 9.36279E-05-2.11486E-05-3.10627E-05 5.93442E-07 1.07786E-18-2.34684E-18
 -1       944 9.33223E-05-2.06686E-05-3.11373E-05 1.82868E-07 5.62352E-19-2.82306E-18
 -1       945 9.48066E-05-2.31224E-05-3.07218E-05 1.75445E-06 1.67755E-18-2.18961E-18
 -1       946 9.47477E-05-2.77238E-05-2.87246E-05-3.91132E-07 4.39607E-19 2.47765E-18
 -1       947 8.42172E-05-3.16311E-05-2.24646E-05-2.36569E-05-1.11037E-18-2.76352E-18
 -1       948 7.36455E-05-1.91663E-05-2.33287E-05 1.10851E-05-1.11478E-18 1.88968E-18
 -1       949 9.31404E-05-2.47738E-05-2.93001E-05 3.00180E-06 1.18373E-19-1.39246E-18
 -1       950 9.19695E-05-2.42632E-05-2.90172E-05 3.66772E-06-9.93829E-20-1.16066E-18
 -1       951 9.04850E-05-2.35176E-05-2.87005E-05 4.34556E-06-1.59529E-19-9.27509E-19
 -1       952 8.86741E-05-2.26333E-05-2.83035E-05 5.09013E-06 9.27326E-20-1.07097E-18
 -1       953 8.65010E-05-2.17074E-05-2.77693E-05 5.98358E-06 3.22249E-21-1.24154E-18
 -1       954 8.39184E-05-2.08640E-05-2.70247E-05 7.16577E-06-5.72726E-20-1.51966E-18
 -1       955 8.08456E-05-2.02484E-05-2.59707E-05 8.89477E-06 4.54215E-19-1.57898E-18
 -1       956 7.71958E-05-2.01299E-05-2.44593E-05 1.16006E-05 7.27306E-19-1.89297E-18
 -1       957 9.44408E-05-2.31801E-05-3.05401E-05 8.59700E-08-4.91451E-19-2.49017E-18
 -1       958 9.90405E-05-3.76160E-05-2.62885E-05 1.69434E-05-2.32710E-18-2.75293E-18
 -1       959 7.48206E-05-1.88989E-05-2.39522E-05-1.07933E-05 2.01333E-18-4.13474E-19
 -1       960 7.88164E-05-1.91001E-05-2.55918E-05-8.02549E-06 1.34683E-18-7.83351E-19
 -1       961 8.21087E-05-1.97399E-05-2.67299E-05-6.28886E-06 1.78801E-18 2.28786E-20
 -1       962 8.47882E-05-2.06020E-05-2.75086E-05-5.09808E-06 7.36053E-19 5.62660E-19
 -1       963 8.69731E-05-2.15650E-05-2.80322E-05-4.21218E-06-4.65408E-19 1.39043E-20
 -1       964 8.87572E-05-2.25492E-05-2.83750E-05-3.49655E-06-9.95270E-20-8.37135E-19
 -1       965 9.02080E-05-2.34979E-05-2.85902E-05-2.88769E-06-5.99666E-19-1.08895E-18
 -1       966 9.13791E-05-2.43743E-05-2.87164E-05-2.35835E-06 2.13338E-19 1.52550E-18
 -1       967 9.23150E-05-2.51573E-05-2.87819E-05-1.89795E-06 7.12946E-19 2.66950E-18
 -1       968 9.30547E-05-2.58380E-05-2.88072E-05-1.50196E-06 2.01296E-19 2.64347E-18
 -1       969 9.36319E-05-2.64162E-05-2.88068E-05-1.16702E-06-3.77414E-19 2.07529E-18
 -1       970 9.40762E-05-2.68973E-05-2.87911E-05-8.89104E-07-6.05275E-19 2.47103E-18
 -1       971 9.44124E-05-2.72897E-05-2.87670E-05-6.64913E-07-3.36789E-19 3.22519E-18
 -1       972 9.45978E-05-2.75238E-05-2.87460E-05-5.16377E-07-1.87700E-19 5.01603E-18
 -1       973 9.72926E-05-3.55956E-05-2.64188E-05-1.58841E-05-1.35395E-18-8.87889E-19
 -1       974 9.35576E-05-3.09017E-05-2.68581E-05-1.35891E-05-7.48490E-19-1.94930E-19
 -1       975 9.14219E-05-2.64240E-05-2.78568E-05-9.35776E-06-5.22799E-19-1.10549E-18
 -1       976 6.83316E-05-1.64167E-05-2.22403E-05-8.42281E-06 1.47265E-18 9.95059E-19
 -1       977 9.41726E-05-2.20578E-05-3.09068E-05 9.44206E-07 1.22394E-18-2.41482E-18
 -1       978 9.45325E-05-3.22961E-05-2.66760E-05 1.42456E-05-2.87339E-18-2.23184E-18
 -1       979 9.20176E-05-2.85526E-05-2.72078E-05 1.17365E-05-2.89942E-18-1.94338E-18
 -1       980 9.09628E-05-2.63918E-05-2.76734E-05 9.54492E-06-1.43212E-18-1.62717E-18
 -1       981 9.07844E-05-2.52911E-05-2.80685E-05 7.73474E-06-1.25057E-18-4.52738E-19
 -1       982 9.10458E-05-2.48581E-05-2.83662E-05 6.25332E-06 8.63570E-20 1.24276E-18
 -1       983 9.15311E-05-2.48562E-05-2.85750E-05 5.03212E-06 1.72644E-18 1.60786E-18
 -1       984 9.21009E-05-2.51109E-05-2.87101E-05 4.02281E-06 3.33631E-19 1.59359E-18
 -1       985 9.26718E-05-2.55002E-05-2.87879E-05 3.18794E-06-5.56859E-19-5.01575E-19
 -1       986 9.31980E-05-2.59422E-05-2.88239E-05 2.49918E-06-1.07273E-18-2.07031E-18
 -1       987 9.36571E-05-2.63848E-05-2.88311E-05 1.93447E-06-1.53279E-21-2.09808E-19
 -1       988 9.40421E-05-2.67968E-05-2.88195E-05 1.47561E-06 8.38182E-19 3.21061E-19
 -1       989 9.43548E-05-2.71624E-05-2.87968E-05 1.10698E-06-8.38556E-19-8.18395E-19
 -1       990 9.46013E-05-2.74748E-05-2.87686E-05 8.15736E-07-9.12001E-20-1.61181E-18
 -1       991 9.47905E-05-2.77339E-05-2.87384E-05 5.88226E-07 3.74326E-19-9.10226E-19
 -1       992 9.33065E-05-2.06485E-05-3.11397E-05-2.23733E-07-8.34064E-21-2.90206E-18
 -1       993 9.48992E-05-2.42087E-05-3.02955E-05-5.16188E-07 1.21740E-18-2.01933E-18
 -1       994 6.50345E-05-1.72972E-05-2.03605E-05-1.24418E-05-4.51391E-19-3.30997E-18
 -1       995 9.50228E-05-2.64525E-05-2.93873E-05-3.59661E-06 4.55230E-19-1.49646E-18
 -1       996 9.46350E-05-2.76199E-05-2.87208E-05-2.11328E-07 2.45522E-19 8.16098E-19
 -1       997 9.35033E-05-2.09544E-05-3.10921E-05-5.33440E-07-3.48061E-19-2.92458E-18
 -1       998 9.48549E-05-2.78965E-05-2.86965E-05 2.18329E-07-6.27772E-20-2.02118E-18
 -1       999 9.45073E-05-2.47193E-05-2.99103E-05 1.50493E-06-5.60859E-19-1.88116E-18
 -1      1000 9.19158E-05-2.80358E-05-2.73790E-05-1.12948E-05-1.24157E-18-6.36308E-19
 -1      1001 9.39956E-05-2.49588E-05-2.95873E-05 2.29985E-06-4.58891E-19-1.71257E-18
 -1      1002 9.45995E-05-2.41219E-05-3.02030E-05 8.20553E-07-4.36076E-19-1.98416E-18
 -1      1003 6.71198E-05-1.51659E-05-2.22274E-05 2.61734E-06-2.60924E-19 1.91956E-18
 -1      1004 7.97184E-05-2.52220E-05-2.33219E-05-1.75044E-05-4.12197E-19-2.83178E-18
 -1      1005 8.28647E-05-2.48765E-05-2.48423E-05 1.47339E-05-2.38270E-18-8.42914E-20
 -1      1006 7.31944E-05-2.13977E-05-2.21289E-05 1.67794E-05 1.62562E-18-3.35227E-18
 -1      1007 9.60312E-05-3.81554E-05-2.47691E-05-2.11006E-05-1.27153E-18-9.48730E-19
 -1      1008 9.16005E-05-2.56677E-05-2.82570E-05-7.76405E-06-3.01206E-19-1.29720E-18
 -1      1009 9.46065E-05-2.75663E-05-2.87315E-05 3.91202E-07 8.72141E-19-5.41015E-18
 -1      1010 9.35400E-05-2.56515E-05-2.90950E-05-4.39609E-06-2.41849E-19-1.40842E-18
 -1      1011 9.45976E-05-2.75870E-05-2.87185E-05-7.85148E-10-6.55340E-20-2.78775E-18
 -1      1012 6.37234E-05-1.46902E-05-2.09551E-05 1.31646E-06 2.72589E-19-3.28059E-18
 -1      1013 9.44393E-05-2.31587E-05-3.05479E-05-1.16154E-07 9.43850E-19-2.14442E-18
 -1      1014 9.28277E-05-2.55007E-05-2.88545E-05-5.35651E-06-4.68011E-19-1.73749E-18
 -1      1015 7.47216E-05-2.08034E-05-2.30749E-05-1.32054E-05-2.90678E-19-2.52547E-18
 -1      1016 9.49360E-05-2.51472E-05-2.99094E-05-1.62948E-06 8.72080E-19-1.72972E-18
 -1      1017 9.40670E-05-2.25313E-05-3.06568E-05-6.25674E-08 5.87310E-19-2.21175E-18
 -1      1018 7.93354E-05-2.05383E-05-2.51979E-05 9.35340E-06-6.14311E-19-1.54489E-18
 -1      1019 7.00738E-05-1.70223E-05-2.27141E-05 7.91509E-06 4.85653E-19-2.76936E-18
 -1      1020 9.20254E-05-2.40712E-05-2.91239E-05 1.97249E-06-5.51627E-20-2.00438E-18
 -1      1021 9.05082E-05-2.33841E-05-2.87680E-05 2.30253E-06 1.40999E-19-1.84300E-18
 -1      1022 8.85927E-05-2.24544E-05-2.83455E-05 2.61006E-06-1.50292E-20-1.59862E-18
 -1      1023 8.62410E-05-2.13748E-05-2.78008E-05 2.90855E-06-2.53129E-19-1.37689E-18
 -1      1024 8.33232E-05-2.01828E-05-2.70624E-05 3.27198E-06-1.90572E-19-1.66052E-18
 -1      1025 7.96725E-05-1.89411E-05-2.60289E-05 3.76372E-06-7.77334E-20-1.93040E-18
 -1      1026 7.48707E-05-1.76101E-05-2.45309E-05 4.64306E-06 2.83839E-19-2.42750E-18
 -1      1027 9.41140E-05-2.26295E-05-3.06362E-05 2.34322E-08-2.33096E-19-2.27497E-18
 -1      1028 7.78523E-05-1.78457E-05-2.57085E-05-2.68523E-06 1.61559E-18 7.41662E-19
 -1      1029 8.16190E-05-1.91268E-05-2.67818E-05-2.31664E-06 8.72703E-19-5.56817E-19
 -1      1030 8.45006E-05-2.03022E-05-2.75139E-05-2.06116E-06 1.53613E-20-6.80317E-19
 -1      1031 8.67859E-05-2.14344E-05-2.80081E-05-1.84003E-06-5.22332E-19-1.44652E-18
 -1      1032 8.86216E-05-2.25066E-05-2.83352E-05-1.61987E-06-1.15133E-18-1.46210E-18
 -1      1033 9.01033E-05-2.35002E-05-2.85443E-05-1.39661E-06 4.10339E-19-8.93698E-19
 -1      1034 9.12962E-05-2.43985E-05-2.86706E-05-1.17640E-06 1.17965E-18-1.38146E-18
 -1      1035 9.22501E-05-2.51914E-05-2.87395E-05-9.67612E-07 6.98441E-19-4.69898E-19
 -1      1036 9.30051E-05-2.58757E-05-2.87698E-05-7.77244E-07 7.82032E-20-5.52464E-19
 -1      1037 9.35954E-05-2.64540E-05-2.87749E-05-6.09524E-07-1.00181E-18-1.89034E-18
 -1      1038 9.40483E-05-2.69316E-05-2.87645E-05-4.68897E-07 5.92682E-19-2.77687E-19
 -1      1039 8.72167E-05-2.84557E-05-2.51773E-05-1.62282E-05-7.92502E-19-1.11924E-18
 -1      1040 8.66310E-05-2.43799E-05-2.66827E-05 1.03270E-05-2.13778E-18-2.30584E-18
 -1      1041 9.41786E-05-2.57344E-05-2.93332E-05-3.49970E-06 1.07218E-19-1.15623E-18
 -1      1042 8.72654E-05-2.34962E-05-2.73321E-05 7.90234E-06-1.60469E-18-3.30631E-18
 -1      1043 8.82248E-05-2.32808E-05-2.78335E-05 6.10549E-06-1.62429E-18-3.22643E-18
 -1      1044 8.92661E-05-2.34750E-05-2.81962E-05 4.74023E-06-1.95329E-19-2.38326E-18
 -1      1045 9.02860E-05-2.39103E-05-2.84467E-05 3.68932E-06 4.12001E-19-3.75421E-19
 -1      1046 9.12249E-05-2.44670E-05-2.86105E-05 2.86863E-06 1.36464E-18-1.24214E-18
 -1      1047 9.20538E-05-2.50647E-05-2.87096E-05 2.22082E-06-6.44267E-19-2.72928E-18
 -1      1048 9.27622E-05-2.56505E-05-2.87622E-05 1.70674E-06-1.29411E-18-3.63316E-18
 -1      1049 9.33512E-05-2.61920E-05-2.87825E-05 1.29862E-06-1.59746E-18-3.02391E-18
 -1      1050 9.38288E-05-2.66718E-05-2.87816E-05 9.75686E-07 2.58378E-20-1.49965E-18
 -1      1051 9.42074E-05-2.70835E-05-2.87674E-05 7.23454E-07 3.25132E-20-2.98916E-18
 -1      1052 9.44214E-05-2.73377E-05-2.87502E-05 5.38619E-07-1.05693E-19-3.01866E-18
 -1      1053 9.38969E-05-2.22809E-05-3.06924E-05-4.47369E-08 3.66290E-19-2.44945E-18
 -1      1054 7.01709E-05-1.64649E-05-2.29905E-05-3.94547E-06-2.01628E-19-3.18547E-18
 -1      1055 9.31769E-05-2.44454E-05-2.94570E-05 1.59444E-06-2.05510E-19-1.63774E-18
 -1      1056 9.44482E-05-2.73915E-05-2.87386E-05-2.85237E-07-1.48343E-19 3.72511E-19
 -1      1057 9.45699E-05-2.75477E-05-2.87237E-05 1.91547E-07-4.60618E-19-5.35628E-18
 -1      1058 9.39451E-05-2.44092E-05-2.98014E-05 1.15776E-06-2.83423E-19-1.78741E-18
 -1      1059 9.46709E-05-2.56146E-05-2.95957E-05-2.59969E-06 6.46369E-19-1.40313E-18
 -1      1060 9.21378E-05-2.54428E-05-2.85837E-05-6.46015E-06-1.61472E-19-1.88312E-18
 -1      1061 9.46338E-05-2.43705E-05-3.01135E-05-1.02605E-06 7.88551E-19-1.52612E-18
 -1      1062 7.28925E-05-1.65546E-05-2.41243E-05-3.39750E-06 1.05280E-18 8.62410E-20
 -1      1063 9.43060E-05-2.36344E-05-3.02883E-05 5.06335E-07-2.22376E-19-2.36435E-18
 -1      1064 8.85138E-05-2.40432E-05-2.76299E-05-7.52814E-06-4.63802E-19-8.04520E-19
 -1      1065 8.69099E-05-2.58606E-05-2.61657E-05-1.24330E-05-1.03910E-18-8.43026E-19
 -1      1066 9.42636E-05-2.71749E-05-2.87523E-05-3.68132E-07 1.46365E-18 8.13147E-21
 -1      1067 8.74739E-05-2.45137E-05-2.69840E-05-9.61296E-06-1.06094E-18-8.85493E-19
 -1      1068 9.43928E-05-2.73449E-05-2.87345E-05-1.45612E-08 3.61767E-19-1.89074E-18
 -1      1069 9.30962E-05-2.49703E-05-2.91971E-05-3.03559E-06 9.15589E-20-1.21616E-18
 -1      1070 9.20937E-05-2.46899E-05-2.88880E-05-3.84736E-06-7.10181E-20-1.30580E-18
 -1      1071 9.39456E-05-2.23466E-05-3.06814E-05-1.96188E-08 4.39878E-20-2.65516E-18
 -1      1072 7.41439E-05-1.72791E-05-2.43707E-05 4.14212E-06 1.20090E-18 1.31118E-18
 -1      1073 8.14516E-05-2.33018E-05-2.49158E-05-1.26529E-05-4.27326E-19-2.08788E-18
 -1      1074 7.95409E-05-1.85182E-05-2.61602E-05 1.72551E-06 5.18444E-19 1.54627E-19
 -1      1075 9.10325E-05-2.35689E-05-2.89130E-05 4.70960E-07 1.23806E-19-1.95441E-18
 -1      1076 9.41341E-05-2.33530E-05-3.03333E-05 2.18108E-07-1.51871E-19-2.16427E-18
 -1      1077 9.41950E-05-2.38067E-05-3.01677E-05-5.61445E-07 3.72427E-19-2.16426E-18
 -1      1078 8.22224E-05-2.07457E-05-2.63331E-05 6.67954E-06-7.58093E-19-3.24735E-18
 -1      1079 8.93048E-05-2.28061E-05-2.84998E-05 3.83105E-07-5.13367E-20-2.10285E-18
 -1      1080 8.71012E-05-2.17853E-05-2.79879E-05 2.08611E-07-5.86870E-20-2.23314E-18
 -1      1081 8.43581E-05-2.06204E-05-2.73142E-05-1.46613E-07-2.36165E-19-2.16440E-18
 -1      1082 8.09376E-05-1.93521E-05-2.63953E-05-7.28006E-07-5.67174E-19-2.52525E-18
 -1      1083 7.68035E-05-1.81669E-05-2.51338E-05-1.56490E-06-2.01004E-19-2.75836E-18
 -1      1084 9.24187E-05-2.40905E-05-2.92828E-05 4.79799E-07-7.74965E-23-2.22279E-18
 -1      1085 8.29080E-05-1.97540E-05-2.70657E-05 1.01669E-06-5.91177E-19-1.94830E-18
 -1      1086 8.54406E-05-2.08464E-05-2.76841E-05 5.05646E-07-1.25948E-18-3.27168E-18
 -1      1087 8.74807E-05-2.19025E-05-2.81056E-05 1.86232E-07-3.84305E-19-5.07845E-18
 -1      1088 8.91415E-05-2.29082E-05-2.83862E-05-3.67689E-09 8.30831E-19-3.48754E-18
 -1      1089 9.04954E-05-2.38424E-05-2.85659E-05-1.05780E-07 1.03094E-18-2.46096E-18
 -1      1090 9.15936E-05-2.46879E-05-2.86741E-05-1.50573E-07 1.43431E-18-1.77969E-18
 -1      1091 9.24762E-05-2.54340E-05-2.87325E-05-1.60026E-07-8.80077E-19-2.87263E-18
 -1      1092 9.31771E-05-2.60772E-05-2.87572E-05-1.49330E-07-2.52666E-19-2.75132E-18
 -1      1093 9.37229E-05-2.66182E-05-2.87596E-05-1.29507E-07 3.82220E-19-1.93629E-18
 -1      1094 9.34133E-05-2.42406E-05-2.96440E-05 4.10294E-07-6.60481E-20-2.39778E-18
 -1      1095 8.43857E-05-2.10704E-05-2.71388E-05 4.87258E-06-1.51608E-18-3.74284E-18
 -1      1096 8.63538E-05-2.16860E-05-2.77143E-05 3.53782E-06-1.79840E-18-3.73139E-18
 -1      1097 8.80393E-05-2.24350E-05-2.81155E-05 2.59912E-06-1.27297E-18-2.08463E-18
 -1      1098 8.94765E-05-2.32377E-05-2.83875E-05 1.92130E-06 1.68673E-18-2.56148E-18
 -1      1099 9.06901E-05-2.40390E-05-2.85643E-05 1.42479E-06 1.77926E-18-1.93660E-18
 -1      1100 9.17015E-05-2.47989E-05-2.86722E-05 1.05692E-06 2.54712E-19-3.68894E-18
 -1      1101 9.25318E-05-2.54912E-05-2.87314E-05 7.82074E-07-9.86016E-19-4.01648E-18
 -1      1102 9.32022E-05-2.61019E-05-2.87571E-05 5.75613E-07-6.61791E-19-4.74877E-18
 -1      1103 9.37333E-05-2.66245E-05-2.87605E-05 4.20642E-07 1.41108E-20-5.93353E-18
 -1      1104 7.72301E-05-1.94716E-05-2.47671E-05-7.34387E-06-2.89453E-19-2.92581E-18
 -1      1105 9.38879E-05-2.50468E-05-2.95038E-05-2.29750E-06 3.75763E-19-1.48608E-18
 -1      1106 8.96808E-05-2.40295E-05-2.81370E-05-5.98684E-06-6.80919E-19-1.08738E-18
 -1      1107 9.39425E-05-2.40019E-05-2.99744E-05 3.78967E-07-1.81068E-19-1.95881E-18
 -1      1108 9.44085E-05-2.47050E-05-2.98732E-05-1.47567E-06 6.07558E-19-1.38201E-18
 -1      1109 8.46781E-05-2.19456E-05-2.68879E-05-6.45142E-06-6.11964E-19-1.78056E-18
 -1      1110 9.43626E-05-2.73022E-05-2.87403E-05 2.81389E-07 1.12501E-18-6.97863E-18
 -1      1111 9.40033E-05-2.69078E-05-2.87537E-05-8.73316E-08 7.60233E-19-3.04550E-18
 -1      1112 9.18570E-05-2.41797E-05-2.90045E-05-2.13703E-06 2.38089E-19-1.40867E-18
 -1      1113 9.09406E-05-2.43338E-05-2.85448E-05-4.80059E-06-3.61277E-19-1.32972E-18
 -1      1114 9.40766E-05-2.69872E-05-2.87532E-05 3.46641E-07 7.24590E-19-5.95016E-18
 -1      1115 8.20715E-05-2.18724E-05-2.57916E-05-9.31470E-06-9.69480E-19-1.88203E-18
 -1      1116 9.42071E-05-2.71361E-05-2.87448E-05-4.72405E-08 1.11769E-18-1.86128E-18
 -1      1117 9.29870E-05-2.44967E-05-2.93535E-05-1.60643E-06 1.11646E-20-1.09898E-18
 -1      1118 8.68187E-05-2.23863E-05-2.76146E-05-4.81289E-06-6.59404E-19-1.63703E-18
 -1      1119 8.85549E-05-2.26373E-05-2.82558E-05-1.98162E-06-3.23107E-19-1.58775E-18
 -1      1120 9.04247E-05-2.36328E-05-2.86237E-05-2.79627E-06-2.59353E-19-1.23993E-18
 -1      1121 9.38423E-05-2.43876E-05-2.97670E-05-9.89870E-07 1.60730E-19-1.60604E-18
 -1      1122 1.16359E-04 2.56366E-10-4.17025E-05-4.11941E-05-3.96835E-19 1.37918E-17
 -1      1123 8.85492E-05 7.21904E-11-3.71994E-05-2.39115E-05-2.24040E-19 2.14712E-18
 -1      1124 8.41262E-05 4.17537E-11-3.57776E-05-1.75737E-05-1.63848E-19-2.92649E-18
 -1      1125 8.24510E-05 3.20787E-11-3.51165E-05-1.35003E-05-1.12179E-19-5.36051E-18
 -1      1126 8.16642E-05 2.71007E-11-3.47941E-05-1.01991E-05-6.88214E-20-6.52646E-18
 -1      1127 8.12494E-05 2.40511E-11-3.46279E-05-7.34586E-06-4.15046E-20-7.08461E-18
 -1      1128 8.10168E-05 2.21332E-11-3.45380E-05-4.76076E-06-2.53217E-20-7.28042E-18
 -1      1129 8.08947E-05 2.10659E-11-3.44923E-05-2.31627E-06-6.61579E-21-7.25487E-18
 -1      1130 8.08573E-05 2.07368E-11-3.44785E-05 5.10679E-08 1.58165E-20-7.13791E-18
 -1      1131 8.08971E-05 2.11160E-11-3.44929E-05 2.42124E-06 3.20102E-20-7.00828E-18
 -1      1132 8.10219E-05 2.22443E-11-3.45391E-05 4.87496E-06 4.69574E-20-6.72734E-18
 -1      1133 8.12593E-05 2.42214E-11-3.46296E-05 7.47733E-06 7.11309E-20-6.22213E-18
 -1      1134 8.16797E-05 2.74028E-11-3.47977E-05 1.03583E-05 9.90499E-20-5.38070E-18
 -1      1135 8.24691E-05 3.25645E-11-3.51244E-05 1.37055E-05 1.28431E-19-3.82169E-18
 -1      1136 8.41202E-05 4.22154E-11-3.57965E-05 1.78239E-05 1.70836E-19-9.78760E-19
 -1      1137 8.82491E-05 6.70553E-11-3.72688E-05 2.37560E-05 2.02017E-19 4.50076E-18
 -1      1138 1.06193E-04 1.63584E-10-4.04904E-05 3.59509E-05 4.22458E-19 1.56497E-17
 -1      1139 1.29525E-04-2.56365E-05-4.00958E-05-2.59216E-05-1.63827E-18 2.11779E-17
 -1      1140 9.71037E-05-2.87593E-05-3.14685E-05-6.61856E-07-5.82097E-19 1.74127E-17
 -1      1141 9.00340E-05-2.69924E-05-2.78524E-05 3.87237E-07-2.33834E-19 1.19496E-17
 -1      1142 8.83370E-05-2.66029E-05-2.66727E-05 2.48991E-07-1.44297E-19 8.07421E-18
 -1      1143 8.82421E-05-2.65568E-05-2.64998E-05 1.64456E-07-5.65080E-20 5.65024E-18
 -1      1144 8.89585E-05-2.67426E-05-2.66958E-05 1.18231E-07-1.17857E-19 4.31704E-18
 -1      1145 9.01412E-05-2.70784E-05-2.70519E-05 9.06038E-08-6.13694E-20 2.65765E-18
 -1      1146 9.16442E-05-2.75195E-05-2.75065E-05 7.41917E-08 4.10282E-22 1.15542E-18
 -1      1147 9.34204E-05-2.80480E-05-2.80444E-05 6.58395E-08-5.51895E-20 9.54500E-20
 -1      1148 9.54815E-05-2.86651E-05-2.86696E-05 6.45734E-08-2.72176E-20-1.34100E-18
 -1      1149 9.78780E-05-2.93842E-05-2.93971E-05 7.05519E-08 3.99206E-20-2.15332E-18
 -1      1150 1.00683E-04-3.02259E-05-3.02476E-05 8.44410E-08 1.49892E-19-1.87295E-18
 -1      1151 1.03972E-04-3.12112E-05-3.12405E-05 1.06751E-07-4.49184E-20-2.38821E-18
 -1      1152 1.07786E-04-3.23511E-05-3.23834E-05 1.36626E-07 4.55719E-20-2.49877E-18
 -1      1153 1.12080E-04-3.36294E-05-3.36524E-05 1.69438E-07 1.76928E-20-2.29813E-18
 -1      1154 1.16623E-04-3.49751E-05-3.49645E-05 1.92560E-07-1.99570E-19-2.71355E-18
 -1      1155 1.20872E-04-3.62247E-05-3.61427E-05 1.79707E-07 5.98813E-20-2.66508E-18
 -1      1156 1.23849E-04-3.70860E-05-3.68920E-05 8.80515E-08 1.19150E-19-2.88791E-18
 -1      1157 1.24144E-04-3.71425E-05-3.68287E-05-1.28576E-07 1.03364E-19-3.79915E-18
 -1      1158 1.20295E-04-3.59723E-05-3.56150E-05-4.76181E-07 1.59308E-19-4.50680E-18
 -1      1159 1.11752E-04-3.34365E-05-3.32207E-05-8.47999E-07-6.62439E-20-4.09932E-18
 -1      1160 1.00168E-04-3.00554E-05-3.01803E-05-1.00016E-06-5.30984E-20-3.53541E-18
 -1      1161 8.97841E-05-2.70621E-05-2.75765E-05-7.00898E-07 1.13886E-19-3.24085E-18
 -1      1162 8.56011E-05-2.58732E-05-2.65548E-05 3.04619E-09-1.54094E-19-4.39393E-18
 -1      1163 8.98964E-05-2.70959E-05-2.76049E-05 7.05431E-07-3.02417E-20-6.61437E-18
 -1      1164 1.00364E-04-3.01141E-05-3.02325E-05 1.00097E-06-7.20193E-20-7.78804E-18
 -1      1165 1.11999E-04-3.35120E-05-3.32923E-05 8.46010E-07 1.90252E-19-7.39280E-18
 -1      1166 1.20579E-04-3.60585E-05-3.57019E-05 4.73052E-07 2.99109E-20-7.67068E-18
 -1      1167 1.24480E-04-3.72451E-05-3.69336E-05 1.26535E-07 1.17129E-21-6.64884E-18
 -1      1168 1.24279E-04-3.72170E-05-3.70263E-05-8.75460E-08 1.10392E-19-6.97720E-18
 -1      1169 1.21452E-04-3.64012E-05-3.63226E-05-1.76414E-07-1.64482E-19-7.53354E-18
 -1      1170 1.17418E-04-3.52164E-05-3.52093E-05-1.86775E-07-1.54232E-20-6.72388E-18
 -1      1171 1.13160E-04-3.39563E-05-3.39832E-05-1.60884E-07-1.36154E-19-6.68923E-18
 -1      1172 1.09227E-04-3.27863E-05-3.28234E-05-1.24602E-07-4.34844E-19-5.46360E-18
 -1      1173 1.05858E-04-3.17798E-05-3.18152E-05-9.02718E-08-6.16671E-20-5.58744E-18
 -1      1174 1.03107E-04-3.09551E-05-3.09842E-05-6.22490E-08 1.28976E-19-5.92388E-18
 -1      1175 1.00934E-04-3.03017E-05-3.03241E-05-4.10664E-08-6.81274E-20-4.59640E-18
 -1      1176 9.92619E-05-2.97974E-05-2.98138E-05-2.57899E-08-1.46264E-19-5.86073E-18
 -1      1177 9.80026E-05-2.94167E-05-2.94284E-05-1.51350E-08 2.66582E-19-5.83754E-18
 -1      1178 9.70736E-05-2.91352E-05-2.91432E-05-7.91158E-09 2.15968E-19-2.11475E-18
 -1      1179 9.64030E-05-2.89314E-05-2.89368E-05-3.15503E-09-3.69699E-19-2.94738E-18
 -1      1180 9.59308E-05-2.87875E-05-2.87911E-05-1.29293E-10-1.76897E-19-5.74768E-18
 -1      1181 9.56086E-05-2.86890E-05-2.86913E-05 1.71150E-09 3.57952E-19-5.09298E-18
 -1      1182 9.53985E-05-2.86244E-05-2.86258E-05 2.76995E-09-1.37645E-19-3.78820E-18
 -1      1183 9.52708E-05-2.85849E-05-2.85858E-05 3.34856E-09 1.83903E-19-7.27020E-18
 -1      1184 9.52031E-05-2.85636E-05-2.85642E-05 3.68708E-09 3.05174E-19-6.92877E-18
 -1      1185 9.51789E-05-2.85555E-05-2.85560E-05 3.98557E-09 3.82028E-19-4.59779E-18
 -1      1186 9.51851E-05-2.85567E-05-2.85568E-05 4.33177E-09-1.35235E-19-1.36385E-18
 -1      1187 9.52102E-05-2.85643E-05-2.85620E-05 4.81160E-09 4.38235E-20 2.32495E-19
 -1      1188 9.52316E-05-2.85697E-05-2.85663E-05 1.59323E-09 2.68885E-19 1.45843E-18
 -1      1189 1.30360E-04-3.75223E-05-3.84966E-05 1.21082E-05-2.74889E-19 2.47761E-17
 -1      1190 9.62325E-05-2.80953E-05-3.12277E-05 7.94796E-07 1.63980E-19 1.98376E-17
 -1      1191 9.02632E-05-2.69003E-05-2.78386E-05 1.21713E-07 1.34811E-19 1.52176E-17
 -1      1192 8.84411E-05-2.65354E-05-2.67142E-05 1.46545E-08 1.00909E-19 1.22725E-17
 -1      1193 8.83006E-05-2.65238E-05-2.65318E-05-1.67797E-08 7.74704E-20 9.86635E-18
 -1      1194 8.89927E-05-2.67271E-05-2.67146E-05-2.36863E-08 6.51578E-20 7.69445E-18
 -1      1195 9.01488E-05-2.70669E-05-2.70592E-05-2.34343E-08-4.92842E-20 6.75545E-18
 -1      1196 9.16061E-05-2.74998E-05-2.74976E-05-2.12317E-08 7.86396E-20 5.91471E-18
 -1      1197 9.32966E-05-2.80045E-05-2.80070E-05-1.92020E-08 4.62270E-21 4.61129E-18
 -1      1198 9.52007E-05-2.85740E-05-2.85812E-05-1.89097E-08-6.54838E-21 3.67199E-18
 -1      1199 9.73213E-05-2.92079E-05-2.92202E-05-2.19536E-08 1.58214E-19 2.61243E-18
 -1      1200 9.96618E-05-2.99063E-05-2.99230E-05-3.00380E-08 3.47217E-20 1.89488E-18
 -1      1201 1.02200E-04-3.06617E-05-3.06802E-05-4.47485E-08-9.59130E-20 2.62564E-18
 -1      1202 1.04859E-04-3.14498E-05-3.14642E-05-6.68773E-08-1.93811E-21 2.01902E-18
 -1      1203 1.07465E-04-3.22187E-05-3.22183E-05-9.50279E-08-4.88496E-20 9.21612E-19
 -1      1204 1.09711E-04-3.28775E-05-3.28464E-05-1.23361E-07 6.50726E-20-9.46030E-19
 -1      1205 1.11131E-04-3.32914E-05-3.32105E-05-1.39042E-07-1.21000E-20-1.80037E-18
 -1      1206 1.11138E-04-3.32907E-05-3.31460E-05-1.21579E-07 6.23363E-21-1.65362E-18
 -1      1207 1.09154E-04-3.27105E-05-3.25085E-05-4.84713E-08 9.53342E-20-2.39443E-18
 -1      1208 1.04897E-04-3.14683E-05-3.12541E-05 8.88747E-08-2.27488E-19 5.59359E-19
 -1      1209 9.87535E-05-2.96684E-05-2.95285E-05 2.62868E-07-1.96761E-19 1.63303E-18
 -1      1210 9.20189E-05-2.76752E-05-2.77059E-05 4.01446E-07-6.29981E-21 1.38336E-18
 -1      1211 8.66909E-05-2.60675E-05-2.63081E-05 4.20006E-07 1.04357E-19-1.21825E-18
 -1      1212 8.46636E-05-2.54186E-05-2.58000E-05 2.82764E-07 1.67752E-19-3.26920E-18
 -1      1213 8.67299E-05-2.59956E-05-2.63638E-05 4.15609E-08-2.46864E-20-2.26115E-18
 -1      1214 9.21099E-05-2.75920E-05-2.78038E-05-1.93359E-07 2.13881E-19-1.07144E-18
 -1      1215 9.89065E-05-2.96400E-05-2.96490E-05-3.29576E-07-3.41952E-19 3.70842E-19
 -1      1216 1.05123E-04-3.15249E-05-3.13818E-05-3.44491E-07-1.62963E-19 4.58457E-19
 -1      1217 1.09469E-04-3.28440E-05-3.26407E-05-2.74110E-07 1.23134E-19-6.02187E-19
 -1      1218 1.11570E-04-3.34803E-05-3.32929E-05-1.71757E-07 7.38556E-20-1.55358E-18
 -1      1219 1.11724E-04-3.35257E-05-3.33908E-05-7.73153E-08 1.31664E-19-3.88429E-19
 -1      1220 1.10518E-04-3.31611E-05-3.30835E-05-8.49038E-09-5.37700E-20 1.00949E-18
 -1      1221 1.08555E-04-3.25692E-05-3.25373E-05 3.28870E-08-2.52331E-19 4.95575E-18
 -1      1222 1.06307E-04-3.18933E-05-3.18913E-05 5.24871E-08 6.87142E-20 4.38227E-18
 -1      1223 1.04091E-04-3.12280E-05-3.12425E-05 5.75935E-08 3.37067E-19 1.77731E-18
 -1      1224 1.02087E-04-3.06270E-05-3.06486E-05 5.43710E-08-3.11030E-19 1.32792E-19
 -1      1225 1.00377E-04-3.01142E-05-3.01372E-05 4.71616E-08 5.68222E-19-2.26845E-18
 -1      1226 9.89784E-05-2.96950E-05-2.97162E-05 3.86663E-08 2.12183E-19-3.10083E-18
 -1      1227 9.78737E-05-2.93637E-05-2.93820E-05 3.03897E-08-1.02922E-20-3.56725E-18
 -1      1228 9.70270E-05-2.91098E-05-2.91247E-05 2.30591E-08 6.58374E-21-4.36314E-18
 -1      1229 9.63969E-05-2.89207E-05-2.89324E-05 1.69384E-08-1.75225E-19-2.88151E-18
 -1      1230 9.59420E-05-2.87841E-05-2.87931E-05 1.20365E-08-8.41292E-20-1.03165E-18
 -1      1231 9.56251E-05-2.86889E-05-2.86956E-05 8.23528E-09-2.96724E-20-2.03392E-18
 -1      1232 9.54144E-05-2.86255E-05-2.86304E-05 5.36204E-09 1.74500E-19-1.44660E-18
 -1      1233 9.52838E-05-2.85862E-05-2.85897E-05 3.22170E-09 3.46908E-19-3.05043E-18
 -1      1234 9.52127E-05-2.85646E-05-2.85673E-05 1.60321E-09-1.70055E-19-4.13114E-18
 -1      1235 9.51850E-05-2.85561E-05-2.85581E-05 2.66337E-10 4.70359E-19-7.87117E-18
 -1      1236 9.51883E-05-2.85567E-05-2.85581E-05-1.15667E-09-1.75611E-19-9.63940E-18
 -1      1237 9.52107E-05-2.85629E-05-2.85628E-05-2.99590E-09 2.74495E-19-6.34754E-18
 -1      1238 9.52322E-05-2.85702E-05-2.85664E-05-1.56378E-09 1.89883E-20-3.60306E-18
 -1      1239 9.52381E-05-2.85763E-05-2.85666E-05-1.85399E-09-3.16134E-18-6.11833E-19
 -1      1240 9.52443E-05-2.85968E-05-2.85633E-05-3.91073E-09-2.79862E-18-7.43260E-19
 -1      1241 9.52494E-05-2.86139E-05-2.85601E-05-2.43313E-09 3.16377E-18-3.28373E-19
 -1      1242 9.52490E-05-2.86120E-05-2.85608E-05-6.96740E-10-8.99059E-19 6.93518E-19
 -1      1243 9.52432E-05-2.85918E-05-2.85661E-05 5.23418E-10-4.87302E-19 4.89106E-20
 -1      1244 9.52344E-05-2.85615E-05-2.85742E-05 1.09114E-09-1.35577E-18-1.45685E-19
 -1      1245 9.52256E-05-2.85307E-05-2.85826E-05 1.07410E-09-1.13143E-18 1.92311E-19
 -1      1246 9.52191E-05-2.85083E-05-2.85887E-05 6.16569E-10-3.80165E-18 5.24753E-19
 -1      1247 9.52169E-05-2.85009E-05-2.85907E-05-6.91687E-11-5.76744E-18 8.92320E-20
 -1      1248 9.52197E-05-2.85105E-05-2.85880E-05-7.44628E-10-3.45488E-18 6.03430E-19
 -1      1249 9.52268E-05-2.85348E-05-2.85814E-05-1.16494E-09-5.96114E-18-1.29116E-18
 -1      1250 9.52360E-05-2.85668E-05-2.85727E-05-1.12898E-09-1.01238E-17 1.29300E-19
 -1      1251 9.52448E-05-2.85972E-05-2.85646E-05-4.83334E-10-1.05921E-17-3.20082E-20
 -1      1252 9.52503E-05-2.86164E-05-2.85596E-05 8.24196E-10-4.74781E-18 3.42136E-19
 -1      1253 9.52506E-05-2.86167E-05-2.85593E-05 3.02200E-09-8.83511E-18-2.76878E-19
 -1      1254 9.52441E-05-2.85967E-05-2.85628E-05 5.93287E-09-5.33036E-18-5.80016E-19
 -1      1255 9.52384E-05-2.85771E-05-2.85665E-05 2.45607E-09-1.66629E-18 1.21337E-18
 -1      1256 3.39024E-05-1.06044E-04 1.78700E-05-1.29940E-05 1.54592E-17 2.60434E-18
 -1      1257 1.79205E-05-6.56458E-05 9.73030E-06-2.47658E-05 2.43514E-17 8.51078E-18
 -1      1258 7.56614E-06-1.22599E-05-4.58280E-06-3.23883E-06 2.89922E-17 1.70177E-17
 -1      1259 3.14934E-05 2.23519E-05-2.42876E-05 4.86045E-05 2.54313E-17 2.30003E-17
 -1      1260 1.01267E-04 1.50309E-05-4.49383E-05 9.88598E-05 1.71372E-17 2.39117E-17
 -1      1261 1.98684E-04-2.89520E-05-6.26592E-05 1.07891E-04 8.36741E-18 2.01983E-17
 -1      1262 2.83359E-04-7.77832E-05-7.42852E-05 6.62815E-05 2.18270E-18 8.81592E-18
 -1      1263 3.06673E-04-9.18501E-05-7.74061E-05-1.08022E-05 8.62544E-19-4.03410E-18
 -1      1264 2.64344E-04-6.60428E-05-7.18897E-05-8.22457E-05 4.94964E-18-1.73193E-17
 -1      1265 1.72136E-04-1.52585E-05-5.84161E-05-1.11456E-04 1.36995E-17-2.60632E-17
 -1      1266 7.86151E-05 2.21863E-05-3.98884E-05-8.87079E-05 2.25268E-17-2.79063E-17
 -1      1267 2.04378E-05 1.77491E-05-1.89926E-05-3.41424E-05 2.73473E-17-2.24413E-17
 -1      1268 8.42973E-06-2.77176E-05 3.02235E-07 1.34872E-05 2.44149E-17-1.29592E-17
 -1      1269 2.43304E-05-8.29571E-05 1.33358E-05 2.41161E-05 1.56007E-17-4.55090E-18
 -1      1270 3.61439E-05-1.11554E-04 1.90246E-05 3.78966E-06 4.21007E-18-1.40830E-18
 -1      1271 3.02921E-05-9.86571E-05 1.64283E-05-2.18003E-05-8.93874E-18-2.42257E-18
 -1      1272 1.19920E-05-4.69133E-05 5.29612E-06-2.12328E-05-1.84696E-17-8.76849E-18
 -1      1273 1.19223E-05 5.60887E-06-1.24722E-05 1.52742E-05-2.55296E-17-1.93445E-17
 -1      1274 5.54029E-05 2.39244E-05-3.30402E-05 7.04824E-05-2.38982E-17-2.61767E-17
 -1      1275 1.44922E-04-2.79992E-06-5.35564E-05 1.09830E-04-1.48468E-17-2.46165E-17
 -1      1276 2.48827E-04-5.55927E-05-7.00234E-05 9.38361E-05-6.04167E-18-1.64172E-17
 -1      1277 3.11858E-04-9.30744E-05-7.82085E-05 2.71101E-05-1.20771E-18-1.68941E-18
 -1      1278 2.98119E-04-8.53868E-05-7.64649E-05-5.55214E-05-2.74809E-18 1.35669E-17
 -1      1279 2.14867E-04-3.70776E-05-6.52202E-05-1.06400E-04-8.29033E-18 2.05914E-17
 -1      1280 1.11104E-04 1.10994E-05-4.70561E-05-1.01260E-04-1.70474E-17 2.44928E-17
 -1      1281 3.38861E-05 2.34200E-05-2.57956E-05-5.14745E-05-2.61648E-17 2.53517E-17
 -1      1282 7.13683E-06-1.04393E-05-5.47814E-06 2.61357E-06-2.62377E-17 1.67391E-17
 -1      1283 1.76121E-05-6.62221E-05 9.74420E-06 2.62599E-05-1.68263E-17 6.51855E-18
 -1      1284 3.36767E-05-1.06482E-04 1.80476E-05 1.40460E-05-1.64282E-18 1.68676E-18
 -1      1285 1.04086E-04-2.19322E-05-3.77630E-05-1.71244E-05-6.10075E-19 1.12859E-17
 -1      1286 9.03025E-05-6.71239E-06-3.59909E-05-2.01839E-05-1.71148E-18-2.16629E-19
 -1      1287 9.25515E-05-6.77702E-06-3.71548E-05-2.54767E-05-2.22791E-18 2.46878E-18
 -1      1288 8.60011E-05-4.12727E-06-3.51557E-05-1.60944E-05-1.71426E-18-4.02997E-18
 -1      1289 8.72100E-05-4.12236E-06-3.56024E-05-1.85326E-05-1.96909E-18-2.40380E-18
 -1      1290 9.21676E-05-1.05064E-05-3.50864E-05-1.87022E-05-3.00292E-18-2.23617E-19
 -1      1291 8.42244E-05-3.19606E-06-3.47387E-05-1.24610E-05-1.39808E-18-5.89381E-18
 -1      1292 8.48213E-05-3.16782E-06-3.49527E-05-1.42780E-05-1.61601E-18-5.05239E-18
 -1      1293 8.79770E-05-7.41549E-06-3.46104E-05-1.50395E-05-2.70207E-18-3.34170E-18
 -1      1294 8.32988E-05-2.70378E-06-3.45305E-05-9.34385E-06-1.03299E-18-6.80774E-18
 -1      1295 8.36210E-05-2.68906E-06-3.46379E-05-1.08784E-05-1.17253E-18-6.40649E-18
 -1      1296 8.59786E-05-5.95570E-06-3.43643E-05-1.15848E-05-2.09083E-18-4.94757E-18
 -1      1297 8.27656E-05-2.40074E-06-3.44215E-05-6.62616E-06-6.62496E-19-7.22384E-18
 -1      1298 8.29518E-05-2.39392E-06-3.44786E-05-7.96610E-06-7.87231E-19-7.01944E-18
 -1      1299 8.48925E-05-5.12983E-06-3.42390E-05-8.59790E-06-1.51569E-18-5.72510E-18
 -1      1300 8.24477E-05-2.20908E-06-3.43621E-05-4.09391E-06-3.50417E-19-7.31380E-18
 -1      1301 8.25552E-05-2.20627E-06-3.43932E-05-5.34867E-06-4.61041E-19-7.27718E-18
 -1      1302 8.42460E-05-4.61998E-06-3.41730E-05-5.94019E-06-9.60142E-19-6.07751E-18
 -1      1303 8.22856E-05-2.10240E-06-3.43345E-05-1.69998E-06-2.70625E-20-7.29698E-18
 -1      1304 8.23347E-05-2.10141E-06-3.43481E-05-2.89455E-06-1.34155E-19-7.32546E-18
 -1      1305 8.38707E-05-4.31537E-06-3.41387E-05-3.46630E-06-3.99486E-19-6.13159E-18
 -1      1306 8.22517E-05-2.06921E-06-3.43303E-05 6.38170E-07 2.73708E-19-7.15682E-18
 -1      1307 8.22508E-05-2.06929E-06-3.43302E-05-5.37881E-07 1.59901E-19-7.23771E-18
 -1      1308 8.36983E-05-4.17366E-06-3.41239E-05-1.11018E-06 1.19035E-19-6.09496E-18
 -1      1309 8.23413E-05-2.10630E-06-3.43485E-05 2.99900E-06 5.87424E-19-6.98436E-18
 -1      1310 8.22902E-05-2.10740E-06-3.43345E-05 1.80146E-06 4.94469E-19-7.09477E-18
 -1      1311 8.37027E-05-4.17850E-06-3.41238E-05 1.20932E-06 6.08463E-19-5.96129E-18
 -1      1312 8.25691E-05-2.21769E-06-3.43937E-05 5.46338E-06 8.78016E-19-6.66497E-18
 -1      1313 8.24589E-05-2.21994E-06-3.43624E-05 4.20205E-06 7.61549E-19-6.86875E-18
 -1      1314 8.38845E-05-4.33060E-06-3.41383E-05 3.57045E-06 1.10694E-18-5.77776E-18
 -1      1315 8.29691E-05-2.40991E-06-3.44785E-05 8.07511E-06 1.19463E-18-6.11163E-18
 -1      1316 8.27807E-05-2.41719E-06-3.44212E-05 6.72574E-06 1.07346E-18-6.46031E-18
 -1      1317 8.42685E-05-4.64538E-06-3.41717E-05 6.03289E-06 1.61508E-18-5.44730E-18
 -1      1318 8.36579E-05-2.71874E-06-3.46400E-05 1.10397E-05 1.59404E-18-5.16064E-18
 -1      1319 8.33289E-05-2.73402E-06-3.45310E-05 9.48793E-06 1.42933E-18-5.72548E-18
 -1      1320 8.49290E-05-5.17238E-06-3.42366E-05 8.71001E-06 2.14743E-18-4.79024E-18
 -1      1321 8.48770E-05-3.21195E-06-3.49590E-05 1.44898E-05 1.95347E-18-3.45224E-18
 -1      1322 8.42759E-05-3.24650E-06-3.47421E-05 1.26453E-05 1.74026E-18-4.49597E-18
 -1      1323 8.60552E-05-6.03487E-06-3.43631E-05 1.17476E-05 2.72316E-18-3.72057E-18
 -1      1324 8.73053E-05-4.12264E-06-3.56228E-05 1.87695E-05 2.20652E-18-3.44584E-19
 -1      1325 8.60655E-05-4.18389E-06-3.51620E-05 1.63544E-05 1.99389E-18-2.21409E-18
 -1      1326 8.81000E-05-7.53768E-06-3.46112E-05 1.52798E-05 3.17895E-18-1.78607E-18
 -1      1327 9.33538E-05-6.82512E-06-3.70506E-05 2.48215E-05 1.90074E-18 5.49740E-18
 -1      1328 9.01177E-05-6.47116E-06-3.60130E-05 2.08563E-05 1.87729E-18 1.93637E-18
 -1      1329 9.23931E-05-1.07391E-05-3.50708E-05 1.93395E-05 3.32066E-18 1.69486E-18
 -1      1330 1.23120E-04-2.48294E-05-3.88751E-05 2.81455E-05 9.73558E-19 1.64422E-17
 -1      1331 9.98557E-05-1.44062E-05-3.72584E-05 2.38195E-05 9.97275E-19 8.85213E-18
 -1      1332 1.01538E-04-1.93417E-05-3.53401E-05 2.11153E-05 3.10761E-18 7.05028E-18
 -1      1333 1.02279E-04-2.77211E-05-3.46446E-05 7.21302E-06 1.74941E-18 1.57679E-17
 -1      1334 1.04853E-04-3.01491E-05-3.34296E-05-7.82125E-06-1.78893E-18 1.19313E-17
 -1      1335 9.80825E-05-2.77989E-05-3.07001E-05-4.87332E-06-1.66892E-18 9.86386E-18
 -1      1336 9.54050E-05-2.78207E-05-2.92224E-05-2.37618E-06-1.39104E-18 8.99263E-18
 -1      1337 9.32787E-05-2.75588E-05-2.82164E-05-1.92994E-06-1.33590E-18 6.99527E-18
 -1      1338 9.94277E-05-2.80428E-05-3.09616E-05-7.65896E-06-2.94079E-18 5.13972E-18
 -1      1339 9.16911E-05-2.72281E-05-2.76151E-05-7.10403E-07-1.06414E-18 6.27117E-18
 -1      1340 9.10946E-05-2.71661E-05-2.73498E-05-5.94950E-07-9.72063E-19 4.80101E-18
 -1      1341 9.48409E-05-2.78013E-05-2.88571E-05-2.87872E-06-2.31470E-18 3.83016E-18
 -1      1342 9.04736E-05-2.70190E-05-2.71472E-05-8.09650E-09-6.28833E-19 4.16409E-18
 -1      1343 9.05572E-05-2.70902E-05-2.71596E-05 5.92244E-08-6.39659E-19 3.25565E-18
 -1      1344 9.28660E-05-2.75872E-05-2.80094E-05-7.53923E-07-1.62767E-18 2.68028E-18
 -1      1345 9.04689E-05-2.70707E-05-2.71388E-05 3.80398E-07-5.67424E-19 2.92491E-18
 -1      1346 9.08973E-05-2.72225E-05-2.72647E-05 4.22623E-07-5.43496E-19 2.22510E-18
 -1      1347 9.22001E-05-2.75209E-05-2.77359E-05 3.30564E-07-1.16518E-18 1.60073E-18
 -1      1348 9.11312E-05-2.72904E-05-2.73430E-05 6.25157E-07-5.45866E-19 1.85000E-18
 -1      1349 9.17691E-05-2.74962E-05-2.75306E-05 6.55520E-07-4.85629E-19 1.11856E-18
 -1      1350 9.23386E-05-2.76151E-05-2.77518E-05 9.65169E-07-1.07057E-18 9.17003E-19
 -1      1351 9.22200E-05-2.76250E-05-2.76742E-05 8.05590E-07-2.87800E-19 8.97769E-19
 -1      1352 9.30134E-05-2.78725E-05-2.79074E-05 8.31997E-07-2.52850E-19 3.15109E-19
 -1      1353 9.29975E-05-2.78331E-05-2.79393E-05 1.39416E-06-7.22962E-19 4.33997E-19
 -1      1354 9.36319E-05-2.80488E-05-2.81019E-05 9.66217E-07-3.46961E-19 1.95890E-19
 -1      1355 9.45683E-05-2.83360E-05-2.83777E-05 9.93942E-07-4.10952E-19-5.31381E-19
 -1      1356 9.40319E-05-2.81466E-05-2.82475E-05 1.73990E-06-6.26725E-19-2.15049E-19
 -1      1357 9.53373E-05-2.85549E-05-2.86185E-05 1.13505E-06-4.19407E-19-6.44413E-19
 -1      1358 9.64294E-05-2.88873E-05-2.89408E-05 1.16782E-06-3.72819E-19-1.09811E-18
 -1      1359 9.53782E-05-2.85427E-05-2.86551E-05 2.07361E-06-7.78886E-19-4.42670E-19
 -1      1360 9.73510E-05-2.91498E-05-2.92289E-05 1.32982E-06-2.32917E-19-1.38480E-18
 -1      1361 9.86271E-05-2.95373E-05-2.96058E-05 1.37001E-06-1.06857E-19-1.60476E-18
 -1      1362 9.70217E-05-2.90208E-05-2.91558E-05 2.43967E-06-6.55001E-19-7.13120E-19
 -1      1363 9.97135E-05-2.98477E-05-2.99448E-05 1.55863E-06 1.53207E-19-1.87275E-18
 -1      1364 1.01208E-04-3.03030E-05-3.03857E-05 1.60682E-06 8.27363E-20-1.79359E-18
 -1      1365 9.89765E-05-2.95893E-05-2.97518E-05 2.86220E-06-1.01718E-19-1.26196E-18
 -1      1366 1.02472E-04-3.06665E-05-3.07791E-05 1.81640E-06-1.99422E-19-1.76497E-18
 -1      1367 1.04212E-04-3.12010E-05-3.12910E-05 1.87024E-06-2.17032E-19-2.10387E-18
 -1      1368 1.01268E-04-3.02621E-05-3.04475E-05 3.34215E-06-1.26104E-19-1.75273E-18
 -1      1369 1.05656E-04-3.16213E-05-3.17375E-05 2.07707E-06 1.58298E-20-2.00798E-18
 -1      1370 1.07638E-04-3.22390E-05-3.23177E-05 2.12900E-06 5.31339E-20-1.97263E-18
 -1      1371 1.03915E-04-3.10550E-05-3.12429E-05 3.84593E-06-1.91118E-19-1.63405E-18
 -1      1372 1.09234E-04-3.27140E-05-3.28054E-05 2.28069E-06 1.39481E-19-1.95516E-18
 -1      1373 1.11391E-04-3.34007E-05-3.34308E-05 2.31444E-06 2.91883E-20-1.79354E-18
 -1      1374 1.06900E-04-3.19804E-05-3.21233E-05 4.28511E-06 4.04582E-20-1.54842E-18
 -1      1375 1.13060E-04-3.39166E-05-3.39289E-05 2.31695E-06-2.04146E-19-1.65477E-18
 -1      1376 1.15206E-04-3.46230E-05-3.45409E-05 2.30319E-06-2.19735E-19-1.84280E-18
 -1      1377 1.10130E-04-3.30369E-05-3.30472E-05 4.48848E-06-5.31737E-20-1.23035E-18
 -1      1378 1.16784E-04-3.51448E-05-3.49904E-05 2.01402E-06 7.53793E-20-1.69818E-18
 -1      1379 1.18557E-04-3.57632E-05-3.54802E-05 1.90810E-06-5.42498E-20-1.81577E-18
 -1      1380 1.13388E-04-3.41909E-05-3.39314E-05 4.17723E-06-1.00837E-19-5.99170E-19
 -1      1381 1.19777E-04-3.62203E-05-3.57909E-05 1.15730E-06-1.29503E-20-1.74002E-18
 -1      1382 1.20606E-04-3.65635E-05-3.59964E-05 9.07588E-07 3.56945E-20-1.75544E-18
 -1      1383 1.16269E-04-3.53405E-05-3.46431E-05 2.97716E-06-3.35637E-20-5.29700E-19
 -1      1384 1.21094E-04-3.68333E-05-3.60595E-05-4.13084E-07 1.59580E-19-1.92451E-18
 -1      1385 1.20291E-04-3.66444E-05-3.58010E-05-8.29758E-07-1.11438E-19-2.12775E-18
 -1      1386 1.18149E-04-3.62587E-05-3.50121E-05 5.38945E-07 1.22793E-19-6.89276E-19
 -1      1387 1.19657E-04-3.65552E-05-3.55319E-05-2.58614E-06-2.03023E-20-2.14876E-18
 -1      1388 1.16724E-04-3.56014E-05-3.47045E-05-3.09945E-06-3.29297E-19-2.29429E-18
 -1      1389 1.18236E-04-3.65512E-05-3.48831E-05-3.14568E-06-2.99850E-19-3.76152E-19
 -1      1390 1.14772E-04-3.49915E-05-3.41112E-05-4.71189E-06 1.96134E-19-2.30335E-18
 -1      1391 1.09937E-04-3.32722E-05-3.28215E-05-5.09129E-06-1.27803E-19-2.08735E-18
 -1      1392 1.15854E-04-3.57302E-05-3.42106E-05-7.27467E-06-1.75918E-19-2.79600E-19
 -1      1393 1.07021E-04-3.21772E-05-3.20631E-05-5.57575E-06-2.43108E-19-1.85151E-18
 -1      1394 1.01688E-04-3.01695E-05-3.06982E-05-5.49927E-06 1.58786E-20-1.61238E-18
 -1      1395 1.11043E-04-3.35676E-05-3.31527E-05-9.96462E-06-1.63888E-19-2.49266E-19
 -1      1396 9.89321E-05-2.90237E-05-3.00558E-05-4.09125E-06 5.34690E-21-2.40769E-18
 -1      1397 9.53620E-05-2.76267E-05-2.91717E-05-3.42330E-06-1.50203E-19-2.54123E-18
 -1      1398 1.05256E-04-3.06698E-05-3.20729E-05-8.97411E-06-3.51082E-19-7.49889E-19
 -1      1399 9.42126E-05-2.71187E-05-2.89240E-05-4.50078E-07-6.66112E-19-2.75680E-18
 -1      1400 9.42402E-05-2.71283E-05-2.89308E-05 5.08885E-07-5.72356E-19-3.70386E-18
 -1      1401 1.01192E-04-2.85099E-05-3.13961E-05-3.63043E-06-4.73677E-19-1.68066E-18
 -1      1402 9.54285E-05-2.76503E-05-2.91882E-05 3.47722E-06-4.77925E-19-4.19392E-18
 -1      1403 9.90471E-05-2.90640E-05-3.00849E-05 4.14152E-06-4.31246E-19-4.67536E-18
 -1      1404 1.01231E-04-2.85291E-05-3.14043E-05 3.73865E-06-1.09540E-18-2.61881E-18
 -1      1405 1.01836E-04-3.02195E-05-3.07368E-05 5.53656E-06-6.56752E-19-5.24102E-18
 -1      1406 1.07203E-04-3.22368E-05-3.21123E-05 5.60937E-06-3.74107E-19-5.63372E-18
 -1      1407 1.05366E-04-3.07104E-05-3.20984E-05 9.06006E-06-1.19090E-18-3.32672E-18
 -1      1408 1.10143E-04-3.33372E-05-3.28804E-05 5.11569E-06 3.02020E-20-5.80308E-18
 -1      1409 1.15000E-04-3.50608E-05-3.41787E-05 4.73445E-06 2.95932E-20-6.34788E-18
 -1      1410 1.11210E-04-3.36246E-05-3.31980E-05 1.00221E-05-4.25268E-19-3.92767E-18
 -1      1411 1.16974E-04-3.56750E-05-3.47806E-05 3.12339E-06 7.61006E-20-6.36323E-18
 -1      1412 1.19930E-04-3.66337E-05-3.56156E-05 2.61190E-06 1.82536E-19-6.18519E-18
 -1      1413 1.16064E-04-3.57935E-05-3.42744E-05 7.32298E-06 1.82641E-19-5.11420E-18
 -1      1414 1.20596E-04-3.67307E-05-3.58951E-05 8.67765E-07 2.36428E-19-5.94067E-18
 -1      1415 1.21435E-04-3.69289E-05-3.61652E-05 4.55344E-07 3.17174E-19-6.00409E-18
 -1      1416 1.18497E-04-3.66227E-05-3.49665E-05 3.21112E-06 2.83002E-19-5.38170E-18
 -1      1417 1.20993E-04-3.66719E-05-3.61164E-05-8.44263E-07 9.19825E-20-5.61272E-18
 -1      1418 1.20224E-04-3.63466E-05-3.59290E-05-1.08799E-06 1.98550E-19-5.49996E-18
 -1      1419 1.18485E-04-3.63475E-05-3.51206E-05-4.33025E-07 2.70984E-19-4.74114E-18
 -1      1420 1.19071E-04-3.59090E-05-3.56385E-05-1.81355E-06-1.54087E-19-5.25952E-18
 -1      1421 1.17389E-04-3.53180E-05-3.51753E-05-1.91328E-06-9.91161E-20-5.25409E-18
 -1      1422 1.16716E-04-3.54598E-05-3.47856E-05-2.81497E-06 1.30622E-19-4.28836E-18
 -1      1423 1.15899E-04-3.48219E-05-3.47530E-05-2.17525E-06 2.58721E-19-5.13054E-18
 -1      1424 1.13876E-04-3.41528E-05-3.41772E-05-2.18236E-06-3.08166E-20-5.07164E-18
 -1      1425 1.13986E-04-3.43550E-05-3.41197E-05-3.95251E-06-6.00930E-20-3.51342E-18
 -1      1426 1.12320E-04-3.36692E-05-3.37141E-05-2.15010E-06-1.49620E-20-4.38737E-18
 -1      1427 1.10322E-04-3.30308E-05-3.31355E-05-2.10895E-06 2.92666E-19-4.25818E-18
 -1      1428 1.10925E-04-3.32585E-05-3.32950E-05-4.19573E-06 3.74350E-19-3.02366E-18
 -1      1429 1.08864E-04-3.25955E-05-3.26910E-05-1.92464E-06 1.45389E-19-3.99474E-18
 -1      1430 1.07080E-04-3.20382E-05-3.21690E-05-1.86452E-06 2.66964E-20-3.86033E-18
 -1      1431 1.07940E-04-3.22736E-05-3.24456E-05-3.91780E-06 7.44878E-19-2.08751E-18
 -1      1432 1.05802E-04-3.16656E-05-3.17743E-05-1.62262E-06-3.43548E-19-2.74937E-18
 -1      1433 1.04302E-04-3.12049E-05-3.13330E-05-1.55991E-06 2.88488E-20-3.04465E-18
 -1      1434 1.05252E-04-3.14355E-05-3.16551E-05-3.39781E-06 3.90179E-19-1.50812E-18
 -1      1435 1.03232E-04-3.08969E-05-3.10001E-05-1.31422E-06-2.32299E-19-3.03705E-18
 -1      1436 1.02022E-04-3.05297E-05-3.06426E-05-1.25684E-06-1.42573E-19-2.96589E-18
 -1      1437 1.02955E-04-3.07460E-05-3.09651E-05-2.80927E-06-1.50823E-19-3.15247E-19
 -1      1438 1.01153E-04-3.02818E-05-3.03717E-05-1.03371E-06 3.47593E-19-3.71265E-18
 -1      1439 1.00206E-04-2.99971E-05-3.00909E-05-9.84664E-07 1.31681E-19-3.26260E-18
 -1      1440 1.01062E-04-3.01926E-05-3.03888E-05-2.24557E-06-8.60053E-20-1.82837E-18
 -1      1441 9.95194E-05-2.98020E-05-2.98764E-05-7.94214E-07-4.11595E-19-3.52168E-18
 -1      1442 9.87955E-05-2.95860E-05-2.96613E-05-7.54002E-07-4.02481E-19-3.94295E-18
 -1      1443 9.95447E-05-2.97573E-05-2.99227E-05-1.74898E-06-2.94078E-19-2.34886E-18
 -1      1444 9.82639E-05-2.94355E-05-2.94953E-05-5.97689E-07-4.66838E-19-3.50093E-18
 -1      1445 9.77220E-05-2.92751E-05-2.93339E-05-5.65630E-07 7.73368E-19-2.60193E-18
 -1      1446 9.83566E-05-2.94209E-05-2.95552E-05-1.33274E-06-4.41043E-19-1.86548E-18
 -1      1447 9.73187E-05-2.91611E-05-2.92080E-05-4.40783E-07 9.48240E-19-3.37295E-18
 -1      1448 9.69215E-05-2.90443E-05-2.90894E-05-4.15751E-07-4.83664E-19-2.46104E-18
 -1      1449 9.74448E-05-2.91654E-05-2.92717E-05-9.95160E-07 5.22485E-19-2.83428E-18
 -1      1450 9.66216E-05-2.89597E-05-2.89958E-05-3.18081E-07-9.12690E-19-2.24646E-18
 -1      1451 9.63370E-05-2.88766E-05-2.89106E-05-2.98865E-07-5.34787E-19-3.56466E-18
 -1      1452 9.67585E-05-2.89749E-05-2.90573E-05-7.27847E-07-5.10091E-19-2.58156E-18
 -1      1453 9.61186E-05-2.88151E-05-2.88426E-05-2.23749E-07-6.29931E-19-3.45894E-18
 -1      1454 9.59200E-05-2.87576E-05-2.87829E-05-2.09218E-07-2.77958E-19-4.21831E-18
 -1      1455 9.62523E-05-2.88356E-05-2.88985E-05-5.20135E-07-1.11340E-18-2.12876E-18
 -1      1456 9.57649E-05-2.87140E-05-2.87346E-05-1.52310E-07 9.27950E-19-3.67686E-18
 -1      1457 9.56313E-05-2.86758E-05-2.86943E-05-1.41472E-07 8.72219E-19-2.92238E-18
 -1      1458 9.58872E-05-2.87360E-05-2.87833E-05-3.61309E-07 7.25000E-19-1.54830E-18
 -1      1459 9.55246E-05-2.86458E-05-2.86612E-05-9.89484E-08-5.72283E-19-2.07809E-18
 -1      1460 9.54391E-05-2.86218E-05-2.86352E-05-9.09672E-08-3.91994E-19-2.54229E-18
 -1      1461 9.56309E-05-2.86670E-05-2.87021E-05-2.41607E-07 6.98700E-19-1.12834E-18
 -1      1462 9.53688E-05-2.86021E-05-2.86134E-05-5.95981E-08-1.59520E-19-3.44214E-18
 -1      1463 9.53189E-05-2.85885E-05-2.85981E-05-5.37830E-08-2.44565E-19-3.90847E-18
 -1      1464 9.54574E-05-2.86209E-05-2.86466E-05-1.52595E-07-1.03400E-18-6.04999E-19
 -1      1465 9.52755E-05-2.85764E-05-2.85847E-05-3.09388E-08 7.31011E-19-4.17438E-18
 -1      1466 9.52513E-05-2.85703E-05-2.85771E-05-2.67368E-08 1.45284E-18-3.16193E-18
 -1      1467 9.53457E-05-2.85919E-05-2.86105E-05-8.72607E-08 4.18124E-19-1.86626E-19
 -1      1468 9.52275E-05-2.85637E-05-2.85698E-05-1.04118E-08 1.26827E-18-3.58793E-18
 -1      1469 9.52216E-05-2.85630E-05-2.85677E-05-7.42030E-09 4.72237E-20-2.24905E-18
 -1      1470 9.52794E-05-2.85753E-05-2.85887E-05-4.00421E-08 1.64094E-18-7.64292E-19
 -1      1471 9.52114E-05-2.85604E-05-2.85645E-05 3.51411E-09 9.02936E-19-1.67227E-18
 -1      1472 9.52177E-05-2.85635E-05-2.85658E-05 5.44954E-09 1.29074E-18-1.04149E-19
 -1      1473 9.52456E-05-2.85679E-05-2.85770E-05-7.13284E-09 1.72348E-18-1.24865E-18
 -1      1474 9.52155E-05-2.85632E-05-2.85650E-05 1.07778E-08 4.64236E-19 8.57194E-19
 -1      1475 9.52279E-05-2.85691E-05-2.85673E-05 1.17811E-08 6.24240E-19 2.44440E-18
 -1      1476 9.52335E-05-2.85675E-05-2.85715E-05 1.26359E-08 1.41738E-18 1.86510E-18
 -1      1477 9.52329E-05-2.85742E-05-2.85662E-05 5.58475E-09-1.76153E-18 1.73999E-18
 -1      1478 9.52367E-05-2.85771E-05-2.85679E-05 1.45820E-08-1.33144E-18 1.86762E-18
 -1      1479 9.64279E-05-2.83215E-05-2.97228E-05 2.89915E-06 1.40319E-18 1.25417E-17
 -1      1480 1.02269E-04-2.93207E-05-3.20731E-05 4.35856E-06 1.27108E-18 1.48481E-17
 -1      1481 1.02156E-04-2.66894E-05-3.26461E-05 1.25727E-05 2.54745E-18 9.73813E-18
 -1      1482 9.20794E-05-2.74420E-05-2.77761E-05 1.05292E-06 9.85973E-19 9.84041E-18
 -1      1483 9.39212E-05-2.75667E-05-2.86571E-05 1.37623E-06 9.89996E-19 1.14290E-17
 -1      1484 9.64847E-05-2.80322E-05-2.95323E-05 4.67670E-06 2.10517E-18 7.66947E-18
 -1      1485 9.04773E-05-2.70829E-05-2.71493E-05 2.11009E-07 7.94093E-19 7.75099E-18
 -1      1486 9.09723E-05-2.70639E-05-2.73846E-05 3.79704E-07 7.37891E-19 8.93236E-18
 -1      1487 9.32403E-05-2.76320E-05-2.81622E-05 1.63775E-06 1.60298E-18 5.90271E-18
 -1      1488 9.02560E-05-2.70505E-05-2.70646E-05-2.14858E-07 6.78556E-19 6.08557E-18
 -1      1489 9.01384E-05-2.69394E-05-2.70452E-05-1.15588E-07 6.51961E-19 7.15464E-18
 -1      1490 9.19362E-05-2.74285E-05-2.76571E-05 2.46267E-07 1.37510E-18 4.37359E-18
 -1      1491 9.07833E-05-2.72184E-05-2.72270E-05-4.58645E-07 3.33673E-19 4.92769E-18
 -1      1492 9.03456E-05-2.70442E-05-2.70983E-05-3.93526E-07 3.65083E-19 5.58528E-18
 -1      1493 9.17290E-05-2.74382E-05-2.75622E-05-4.94020E-07 9.71712E-19 3.52006E-18
 -1      1494 9.17660E-05-2.75164E-05-2.75263E-05-6.16857E-07 2.34464E-19 4.21053E-18
 -1      1495 9.11358E-05-2.72984E-05-2.73391E-05-5.68952E-07 2.26942E-19 4.53273E-18
 -1      1496 9.21757E-05-2.76030E-05-2.76843E-05-9.37312E-07 5.38667E-19 2.66062E-18
 -1      1497 9.30623E-05-2.79058E-05-2.79184E-05-7.35943E-07 4.24829E-19 3.35557E-18
 -1      1498 9.22964E-05-2.76538E-05-2.76909E-05-6.96000E-07 3.56040E-19 3.91790E-18
 -1      1499 9.30448E-05-2.78769E-05-2.79399E-05-1.23811E-06 6.21702E-19 2.04892E-18
 -1      1500 9.46073E-05-2.83683E-05-2.83847E-05-8.40635E-07 3.70097E-19 2.48116E-18
 -1      1501 9.37278E-05-2.80854E-05-2.81232E-05-8.03067E-07 2.95895E-19 2.97849E-18
 -1      1502 9.42172E-05-2.82328E-05-2.82902E-05-1.47391E-06 6.77012E-19 1.45243E-18
 -1      1503 9.63759E-05-2.88975E-05-2.89177E-05-9.43110E-07 2.35294E-19 2.01006E-18
 -1      1504 9.53876E-05-2.85828E-05-2.86239E-05-9.04814E-07 1.45409E-19 2.25680E-18
 -1      1505 9.56338E-05-2.86574E-05-2.87158E-05-1.68518E-06 4.51973E-19 1.06513E-18
 -1      1506 9.83579E-05-2.94919E-05-2.95137E-05-1.04522E-06 2.45211E-19 1.60298E-18
 -1      1507 9.72602E-05-2.91438E-05-2.91878E-05-1.00548E-06 2.30849E-19 1.84210E-18
 -1      1508 9.72653E-05-2.91455E-05-2.92064E-05-1.88867E-06 3.81253E-19 7.54179E-19
 -1      1509 1.00536E-04-3.01484E-05-3.01663E-05-1.13764E-06-1.41660E-19 1.43032E-18
 -1      1510 9.93347E-05-2.97681E-05-2.98108E-05-1.09867E-06 1.98461E-20 1.31684E-18
 -1      1511 9.90905E-05-2.96948E-05-2.97534E-05-2.08005E-06 3.35533E-19 7.68931E-19
 -1      1512 1.02860E-04-3.08550E-05-3.08588E-05-1.19736E-06 1.26563E-19 1.40936E-18
 -1      1513 1.01582E-04-3.04508E-05-3.04825E-05-1.16533E-06-1.07767E-20 1.34857E-18
 -1      1514 1.01076E-04-3.03007E-05-3.03436E-05-2.23151E-06 3.65601E-20 5.26252E-19
 -1      1515 1.05220E-04-3.15816E-05-3.15551E-05-1.18479E-06 2.21077E-19 9.46493E-19
 -1      1516 1.03928E-04-3.11748E-05-3.11785E-05-1.17105E-06 3.01624E-19 1.29218E-18
 -1      1517 1.03155E-04-3.09493E-05-3.09529E-05-2.28718E-06 4.62786E-19 3.86121E-19
 -1      1518 1.07411E-04-3.22700E-05-3.21916E-05-1.04297E-06 3.01865E-19-4.87706E-21
 -1      1519 1.06226E-04-3.19013E-05-3.18515E-05-1.06483E-06 2.51516E-19 5.91911E-19
 -1      1520 1.05201E-04-3.16100E-05-3.15389E-05-2.15981E-06 3.90909E-19 1.55566E-19
 -1      1521 1.09110E-04-3.28238E-05-3.26703E-05-7.03879E-07 1.80282E-19-8.02630E-19
 -1      1522 1.08223E-04-3.25585E-05-3.24239E-05-7.83466E-07 3.35802E-19-3.75844E-19
 -1      1523 1.07007E-04-3.22263E-05-3.20360E-05-1.73526E-06 5.51220E-19-1.49309E-19
 -1      1524 1.09881E-04-3.31060E-05-3.28640E-05-1.09690E-07-3.40636E-19-1.20016E-18
 -1      1525 1.09552E-04-3.30332E-05-3.27859E-05-2.68116E-07-1.25070E-20-9.80487E-19
 -1      1526 1.08278E-04-3.27070E-05-3.23559E-05-8.96267E-07 3.16029E-19-3.80136E-19
 -1      1527 1.09239E-04-3.29538E-05-3.26400E-05 7.43714E-07 3.25936E-19-1.25481E-18
 -1      1528 1.09755E-04-3.31715E-05-3.28072E-05 4.99448E-07-4.99617E-21-1.16150E-18
 -1      1529 1.08645E-04-3.29230E-05-3.23992E-05 4.20908E-07-1.55179E-19-5.30960E-19
 -1      1530 1.06817E-04-3.22273E-05-3.19118E-05 1.74447E-06-7.41839E-19-7.76253E-19
 -1      1531 1.08385E-04-3.28055E-05-3.23727E-05 1.44133E-06-2.30360E-19-1.25919E-18
 -1      1532 1.07751E-04-3.27228E-05-3.20852E-05 2.13131E-06 3.78518E-20-2.63844E-19
 -1      1533 1.02635E-04-3.09000E-05-3.07114E-05 2.61706E-06-3.63000E-19 6.54704E-19
 -1      1534 1.05221E-04-3.18204E-05-3.14418E-05 2.33243E-06-6.60034E-19-5.60233E-19
 -1      1535 1.05404E-04-3.19826E-05-3.13969E-05 3.89693E-06-1.15544E-18-3.49745E-19
 -1      1536 9.73626E-05-2.91666E-05-2.92472E-05 2.96038E-06-1.83899E-20 7.43748E-19
 -1      1537 1.00535E-04-3.02647E-05-3.01169E-05 2.81248E-06-4.91275E-20 6.31463E-19
 -1      1538 1.01802E-04-3.07038E-05-3.04273E-05 5.10468E-06-3.58138E-19 3.30343E-19
 -1      1539 9.23666E-05-2.74852E-05-2.78931E-05 2.43466E-06 7.60401E-19-3.80106E-20
 -1      1540 9.52910E-05-2.84502E-05-2.86756E-05 2.52703E-06 2.89017E-19 5.98005E-19
 -1      1541 9.76952E-05-2.91239E-05-2.93934E-05 5.05343E-06 3.38244E-19-2.09932E-19
 -1      1542 8.93028E-05-2.64450E-05-2.70708E-05 1.03877E-06 4.84258E-19-1.94377E-18
 -1      1543 9.10070E-05-2.69305E-05-2.75183E-05 1.37961E-06 5.56421E-19-7.83320E-19
 -1      1544 9.43038E-05-2.77359E-05-2.85861E-05 3.38059E-06 1.19728E-18-2.72500E-19
 -1      1545 8.93307E-05-2.64674E-05-2.70657E-05-7.70035E-07 2.91234E-19-2.64685E-18
 -1      1546 8.91723E-05-2.62741E-05-2.70208E-05-2.99142E-07 2.78714E-19-2.36023E-18
 -1      1547 9.28488E-05-2.70995E-05-2.82626E-05 4.60030E-07 7.65427E-19-1.91291E-18
 -1      1548 9.24566E-05-2.75481E-05-2.78829E-05-2.28304E-06-4.79388E-19-1.84714E-18
 -1      1549 9.04885E-05-2.67494E-05-2.73602E-05-1.86918E-06-5.15697E-19-2.53946E-18
 -1      1550 9.39124E-05-2.75136E-05-2.85331E-05-2.64704E-06-3.53636E-19-2.35522E-18
 -1      1551 9.75183E-05-2.92537E-05-2.92447E-05-2.96883E-06-5.40980E-19-6.65874E-19
 -1      1552 9.44615E-05-2.81530E-05-2.84227E-05-2.75175E-06-2.51862E-19-9.87535E-19
 -1      1553 9.70844E-05-2.88029E-05-2.93092E-05-4.76489E-06-8.36045E-19-1.34022E-18
 -1      1554 1.02860E-04-3.09979E-05-3.07303E-05-2.75575E-06-4.73576E-19 5.34451E-19
 -1      1555 9.96937E-05-2.99480E-05-2.98610E-05-2.75818E-06-4.76383E-19-2.99214E-19
 -1      1556 1.01211E-04-3.04305E-05-3.03463E-05-5.29329E-06-8.06187E-19-2.36124E-19
 -1      1557 1.07122E-04-3.23337E-05-3.19651E-05-1.94817E-06 4.34799E-19-5.51630E-19
 -1      1558 1.04628E-04-3.15763E-05-3.12611E-05-2.10033E-06 5.63370E-19 2.85371E-19
 -1      1559 1.05035E-04-3.18478E-05-3.13542E-05-4.41333E-06 6.32211E-19-5.66877E-19
 -1      1560 1.09646E-04-3.30771E-05-3.27395E-05-9.57090E-07-2.83250E-19-6.39245E-19
 -1      1561 1.08186E-04-3.26910E-05-3.23107E-05-1.16358E-06-3.19702E-19-8.84249E-19
 -1      1562 1.07714E-04-3.27430E-05-3.21087E-05-2.77289E-06-7.00589E-20-2.92835E-19
 -1      1563 1.10428E-04-3.32619E-05-3.30202E-05-8.63041E-08-2.97117E-19-1.04865E-18
 -1      1564 1.09982E-04-3.32033E-05-3.28745E-05-2.75957E-07-2.41735E-20-8.09492E-19
 -1      1565 1.08969E-04-3.30726E-05-3.25048E-05-1.03748E-06-3.91091E-20-4.41417E-20
 -1      1566 1.09843E-04-3.30307E-05-3.28937E-05 5.28243E-07-2.55887E-19-4.09699E-19
 -1      1567 1.10176E-04-3.32019E-05-3.29740E-05 3.88507E-07-3.99661E-19-1.13299E-18
 -1      1568 1.08944E-04-3.29545E-05-3.25493E-05 3.71530E-07-4.69607E-19-1.31793E-18
 -1      1569 1.08382E-04-3.25469E-05-3.24938E-05 8.77120E-07-8.47150E-19 1.15384E-18
 -1      1570 1.09202E-04-3.28473E-05-3.27208E-05 7.92025E-07-3.44914E-19-1.09208E-19
 -1      1571 1.07989E-04-3.25511E-05-3.23184E-05 1.30374E-06-6.68110E-19-6.30014E-19
 -1      1572 1.06487E-04-3.19476E-05-3.19501E-05 1.01361E-06 4.85321E-19 2.01886E-18
 -1      1573 1.07539E-04-3.22978E-05-3.22503E-05 9.73572E-07-3.80972E-19 1.51142E-18
 -1      1574 1.06482E-04-3.20055E-05-3.19115E-05 1.78826E-06-6.31215E-19-5.33416E-19
 -1      1575 1.04486E-04-3.13296E-05-3.13630E-05 1.00652E-06 1.13451E-18 6.43143E-19
 -1      1576 1.05584E-04-3.16772E-05-3.16815E-05 9.97981E-07 1.07675E-18 2.12594E-18
 -1      1577 1.04743E-04-3.14205E-05-3.14203E-05 1.93268E-06 9.65091E-19-6.27575E-19
 -1      1578 1.02589E-04-3.07521E-05-3.07989E-05 9.16184E-07-8.55838E-20-9.09634E-20
 -1      1579 1.03619E-04-3.10674E-05-3.11007E-05 9.26885E-07 2.85507E-19 4.76866E-19
 -1      1580 1.02995E-04-3.08602E-05-3.09142E-05 1.85577E-06 5.27905E-19-8.23968E-19
 -1      1581 1.00908E-04-3.02457E-05-3.02949E-05 7.86909E-07 1.18783E-18-1.26176E-18
 -1      1582 1.01810E-04-3.05151E-05-3.05613E-05 8.07610E-07 3.33006E-19-4.29790E-19
 -1      1583 1.01381E-04-3.03590E-05-3.04383E-05 1.65624E-06 5.49757E-19-8.80138E-19
 -1      1584 9.94893E-05-2.98214E-05-2.98672E-05 6.47506E-07 6.35850E-19-2.74066E-18
 -1      1585 1.00243E-04-3.00419E-05-3.00907E-05 6.72016E-07 6.90221E-19-1.52426E-18
 -1      1586 9.99696E-05-2.99317E-05-3.00176E-05 1.40451E-06 1.28892E-18-1.96969E-18
 -1      1587 9.83360E-05-2.94784E-05-2.95181E-05 5.14748E-07-5.08360E-20-2.37929E-18
 -1      1588 9.89419E-05-2.96527E-05-2.96985E-05 5.39298E-07-4.72568E-20-2.17300E-18
 -1      1589 9.87876E-05-2.95803E-05-2.96621E-05 1.14540E-06-6.92706E-20-2.00747E-18
 -1      1590 9.74276E-05-2.92095E-05-2.92422E-05 3.97094E-07-1.25639E-19-2.56256E-18
 -1      1591 9.78996E-05-2.93431E-05-2.93833E-05 4.19626E-07 2.37534E-19-2.31987E-18
 -1      1592 9.78304E-05-2.92998E-05-2.93722E-05 9.04355E-07 2.56294E-19-1.73705E-18
 -1      1593 9.67321E-05-2.90045E-05-2.90305E-05 2.97729E-07-2.62147E-19-2.03360E-18
 -1      1594 9.70892E-05-2.91040E-05-2.91376E-05 3.17304E-07-1.69516E-19-2.64230E-18
 -1      1595 9.70775E-05-2.90819E-05-2.91429E-05 6.93656E-07-8.70194E-20-8.27635E-19
 -1      1596 9.62143E-05-2.88524E-05-2.88725E-05 2.16739E-07-9.55696E-19-9.40566E-19
 -1      1597 9.64767E-05-2.89243E-05-2.89514E-05 2.33106E-07-3.05262E-19-1.86165E-18
 -1      1598 9.65010E-05-2.89168E-05-2.89664E-05 5.17276E-07-7.94317E-19 3.86102E-19
 -1      1599 9.58402E-05-2.87430E-05-2.87581E-05 1.52564E-07 2.27852E-19-2.85710E-19
 -1      1600 9.60269E-05-2.87931E-05-2.88145E-05 1.65860E-07-5.37653E-19-1.28902E-18
 -1      1601 9.60714E-05-2.87951E-05-2.88342E-05 3.74386E-07-4.48078E-19 5.69851E-19
 -1      1602 9.55793E-05-2.86670E-05-2.86782E-05 1.02898E-07-5.24956E-19-4.97280E-19
 -1      1603 9.57070E-05-2.87004E-05-2.87168E-05 1.13464E-07 1.75133E-19-5.80059E-19
 -1      1604 9.57604E-05-2.87079E-05-2.87381E-05 2.61656E-07 2.20136E-19 9.65866E-19
 -1      1605 9.54056E-05-2.86167E-05-2.86248E-05 6.52320E-08 9.97495E-19-1.95651E-18
 -1      1606 9.54883E-05-2.86375E-05-2.86499E-05 7.34941E-08 6.45585E-19-8.88556E-19
 -1      1607 9.55429E-05-2.86477E-05-2.86705E-05 1.74695E-07 1.07457E-18-5.43416E-19
 -1      1608 9.52979E-05-2.85857E-05-2.85915E-05 3.71508E-08 4.91998E-19-2.90890E-18
 -1      1609 9.53468E-05-2.85972E-05-2.86065E-05 4.35559E-08 6.07394E-19-2.19562E-18
 -1      1610 9.53977E-05-2.86081E-05-2.86251E-05 1.08900E-07 1.17377E-18-2.35079E-18
 -1      1611 9.52392E-05-2.85692E-05-2.85732E-05 1.65468E-08 8.86362E-19-3.61155E-18
 -1      1612 9.52632E-05-2.85738E-05-2.85808E-05 2.15059E-08 4.75541E-19-2.47571E-18
 -1      1613 9.53069E-05-2.85839E-05-2.85964E-05 5.99827E-08 6.76877E-19-2.39461E-18
 -1      1614 9.52160E-05-2.85630E-05-2.85657E-05 1.85184E-09 4.04944E-19-6.34529E-18
 -1      1615 9.52220E-05-2.85628E-05-2.85679E-05 5.68187E-09 7.68679E-19-5.03983E-18
 -1      1616 9.52564E-05-2.85711E-05-2.85801E-05 2.43984E-08 2.00766E-18-2.91985E-18
 -1      1617 9.52165E-05-2.85642E-05-2.85652E-05-7.68766E-09-1.65572E-18-5.69938E-18
 -1      1618 9.52106E-05-2.85606E-05-2.85640E-05-4.81166E-09-3.32165E-19-6.40363E-18
 -1      1619 9.52342E-05-2.85664E-05-2.85724E-05-8.12714E-11-5.23740E-20-2.49018E-18
 -1      1620 9.52291E-05-2.85700E-05-2.85672E-05-1.03463E-08-5.91591E-19-3.51801E-18
 -1      1621 9.52182E-05-2.85651E-05-2.85650E-05-9.17211E-09-1.25035E-18-5.59020E-18
 -1      1622 9.52305E-05-2.85685E-05-2.85695E-05-1.37006E-08-1.31053E-18-3.27316E-18
 -1      1623 9.52336E-05-2.85746E-05-2.85665E-05-5.25991E-09-1.54748E-18-2.17193E-18
 -1      1624 9.52446E-05-2.85905E-05-2.85662E-05-8.72458E-09-5.83665E-19 1.67869E-18
 -1      1625 9.52403E-05-2.85811E-05-2.85677E-05-9.26595E-09-2.04168E-18 4.38138E-19
 -1      1626 9.52462E-05-2.85918E-05-2.85666E-05-4.68094E-10 1.65554E-18-7.32128E-20
 -1      1627 9.52448E-05-2.85888E-05-2.85670E-05-2.58063E-09 8.40078E-19-3.50572E-19
 -1      1628 9.52421E-05-2.85752E-05-2.85718E-05-8.75630E-09-2.34928E-19 2.73487E-18
 -1      1629 9.52418E-05-2.85787E-05-2.85702E-05 9.17736E-09-3.15907E-19-1.40588E-19
 -1      1630 9.52438E-05-2.85846E-05-2.85685E-05 7.22390E-09 1.36383E-18 4.04205E-19
 -1      1631 9.52402E-05-2.85655E-05-2.85755E-05 8.14771E-09 1.46780E-18 4.14938E-19
 -1      1632 9.52331E-05-2.85540E-05-2.85770E-05 1.58359E-08 1.99503E-19 2.22440E-19
 -1      1633 9.52375E-05-2.85667E-05-2.85734E-05 1.47819E-08-3.40422E-19 1.26918E-18
 -1      1634 9.52329E-05-2.85451E-05-2.85809E-05 2.42122E-08 9.30927E-19 1.48275E-19
 -1      1635 9.52230E-05-2.85250E-05-2.85850E-05 1.76705E-08-1.00950E-18 8.58034E-19
 -1      1636 9.52281E-05-2.85399E-05-2.85808E-05 1.76845E-08-1.09066E-18-1.67104E-18
 -1      1637 9.52225E-05-2.85177E-05-2.85878E-05 3.30493E-08-6.17417E-19-1.54791E-18
 -1      1638 9.52138E-05-2.84985E-05-2.85923E-05 1.45667E-08-1.93979E-18-1.17310E-18
 -1      1639 9.52183E-05-2.85116E-05-2.85886E-05 1.55555E-08-9.63007E-19 1.27680E-19
 -1      1640 9.52116E-05-2.84892E-05-2.85951E-05 3.25170E-08-1.32786E-18-1.22762E-19
 -1      1641 9.52081E-05-2.84819E-05-2.85970E-05 7.53098E-09-3.24035E-18 1.37241E-19
 -1      1642 9.52106E-05-2.84892E-05-2.85949E-05 9.18291E-09-1.93904E-18 8.87050E-20
 -1      1643 9.52027E-05-2.84658E-05-2.86010E-05 2.31746E-08-1.12820E-18-1.22315E-18
 -1      1644 9.52072E-05-2.84793E-05-2.85977E-05-1.50776E-09-2.32460E-18 4.58595E-19
 -1      1645 9.52070E-05-2.84787E-05-2.85978E-05 3.68081E-10-3.61681E-18 2.22406E-19
 -1      1646 9.51978E-05-2.84529E-05-2.86043E-05 7.71537E-09-1.69698E-18-3.36792E-19
 -1      1647 9.52113E-05-2.84914E-05-2.85943E-05-1.02128E-08-3.44060E-18-1.07946E-18
 -1      1648 9.52085E-05-2.84831E-05-2.85966E-05-8.59748E-09-2.92043E-18 5.82727E-19
 -1      1649 9.51980E-05-2.84536E-05-2.86041E-05-9.81560E-09-1.39836E-18-4.82273E-19
 -1      1650 9.52195E-05-2.85151E-05-2.85876E-05-1.62921E-08-4.88060E-18-1.81238E-18
 -1      1651 9.52148E-05-2.85013E-05-2.85915E-05-1.53825E-08-3.10157E-18-1.16068E-18
 -1      1652 9.52034E-05-2.84677E-05-2.86005E-05-2.49317E-08-2.92244E-18-1.67380E-18
 -1      1653 9.52294E-05-2.85438E-05-2.85796E-05-1.79880E-08-6.07853E-18 3.16200E-19
 -1      1654 9.52242E-05-2.85286E-05-2.85839E-05-1.80624E-08-5.05808E-18-1.93091E-18
 -1      1655 9.52126E-05-2.84918E-05-2.85944E-05-3.35885E-08-2.37313E-18-2.81446E-18
 -1      1656 9.52388E-05-2.85707E-05-2.85722E-05-1.45418E-08-4.47971E-18 9.96055E-19
 -1      1657 9.52345E-05-2.85583E-05-2.85758E-05-1.57161E-08-5.80336E-18 1.45634E-18
 -1      1658 9.52237E-05-2.85208E-05-2.85871E-05-3.32460E-08-1.86070E-18 1.26089E-18
 -1      1659 9.52448E-05-2.85879E-05-2.85676E-05-6.38721E-09-4.18483E-18-5.76468E-19
 -1      1660 9.52431E-05-2.85826E-05-2.85691E-05-8.48496E-09-4.11878E-18 5.35784E-19
 -1      1661 9.52342E-05-2.85483E-05-2.85801E-05-2.33827E-08-1.88880E-18 1.06933E-18
 -1      1662 9.52460E-05-2.85911E-05-2.85665E-05 3.16935E-09-4.99013E-18-7.04156E-19
 -1      1663 9.52469E-05-2.85944E-05-2.85658E-05 8.86799E-10-4.87660E-18 7.17988E-20
 -1      1664 9.52406E-05-2.85675E-05-2.85748E-05-6.47544E-09-1.51566E-18-1.20769E-18
 -1      1665 9.52410E-05-2.85799E-05-2.85687E-05 1.06056E-08-2.13360E-18 7.82497E-19
 -1      1666 9.52449E-05-2.85888E-05-2.85673E-05 1.02007E-08-3.57121E-18 5.01813E-19
 -1      1667 9.52439E-05-2.85721E-05-2.85732E-05 8.18163E-09-7.87438E-19 6.29595E-19
 -1      1668 9.52381E-05-2.85691E-05-2.85718E-05 1.65341E-08 4.13800E-19 2.12500E-18
 -1      1669 2.02201E-05-6.51209E-05 1.34455E-05-5.10336E-06 1.20592E-17 4.87171E-18
 -1      1670 2.33097E-05-7.47238E-05 1.56265E-05 2.79012E-06 6.40643E-18 3.89000E-18
 -1      1671 1.89150E-05-3.95348E-05 4.39296E-06 1.53782E-06 1.76733E-17 1.02033E-17
 -1      1672 2.35782E-05-6.09833E-05 9.89763E-06-1.22263E-06 1.47265E-17 6.30530E-18
 -1      1673 3.25183E-05-1.31602E-05-1.04441E-05 2.63403E-05 1.92963E-17 1.32844E-17
 -1      1674 2.80344E-05-3.35166E-05-2.30385E-06 1.00302E-05 1.85534E-17 1.07912E-17
 -1      1675 7.83113E-05-7.06155E-06-2.98588E-05 5.71549E-05 1.47375E-17 1.42742E-17
 -1      1676 5.40919E-05-1.36996E-05-1.95250E-05 3.46074E-05 1.77318E-17 1.27123E-17
 -1      1677 1.34284E-04-1.36717E-05-4.84412E-05 7.72711E-05 1.08975E-17 1.49586E-17
 -1      1678 9.48875E-05-2.09500E-06-3.93152E-05 6.45894E-05 1.44241E-17 1.59598E-17
 -1      1679 2.02249E-04-4.17460E-05-6.37084E-05 6.17515E-05 6.08890E-18 9.30466E-18
 -1      1680 1.59130E-04-2.15055E-05-5.61554E-05 6.99178E-05 8.85192E-18 1.27334E-17
 -1      1681 2.47127E-04-6.18577E-05-7.29895E-05 2.72653E-05 3.52789E-18 2.13664E-18
 -1      1682 2.22270E-04-4.78461E-05-6.95127E-05 5.54306E-05 5.25727E-18 7.42933E-18
 -1      1683 2.44119E-04-5.92508E-05-7.34107E-05-2.30158E-05 3.79407E-18-6.11727E-18
 -1      1684 2.48488E-04-6.16712E-05-7.39764E-05 1.08896E-05 3.15901E-18-7.03037E-19
 -1      1685 2.06361E-04-4.02832E-05-6.65220E-05-6.27581E-05 7.73966E-18-1.39989E-17
 -1      1686 2.37186E-04-5.72097E-05-7.11292E-05-3.91094E-05 5.29554E-18-8.80067E-18
 -1      1687 1.41935E-04-1.44747E-05-5.22586E-05-7.37189E-05 1.33319E-17-1.80630E-17
 -1      1688 1.86489E-04-3.42531E-05-6.04066E-05-7.17509E-05 9.16236E-18-1.55481E-17
 -1      1689 8.08137E-05-9.86671E-07-3.44637E-05-5.83352E-05 1.69136E-17-1.81011E-17
 -1      1690 1.16858E-04-8.17091E-06-4.38621E-05-7.51358E-05 1.44741E-17-1.88465E-17
 -1      1691 4.26691E-05-1.55916E-05-1.45848E-05-2.71481E-05 1.78224E-17-1.33882E-17
 -1      1692 6.20605E-05-3.89893E-06-2.49163E-05-5.09049E-05 1.72558E-17-1.68636E-17
 -1      1693 2.48017E-05-4.27116E-05 2.30224E-06-3.64359E-06 1.40565E-17-8.97029E-18
 -1      1694 2.50266E-05-1.87516E-05-5.58926E-06-1.71123E-05 1.80215E-17-1.32412E-17
 -1      1695 2.39808E-05-6.88814E-05 1.28271E-05 1.09184E-06 8.51946E-18-4.27794E-18
 -1      1696 1.86020E-05-4.97111E-05 8.26315E-06 2.93919E-06 1.29105E-17-6.67944E-18
 -1      1697 2.23404E-05-7.36397E-05 1.57420E-05-4.73945E-06-2.90268E-19-3.73372E-18
 -1      1698 2.12220E-05-7.02175E-05 1.49888E-05 4.24922E-06 5.98302E-18-4.24851E-18
 -1      1699 1.89177E-05-5.96572E-05 1.17829E-05-6.99184E-06-8.19674E-18-5.04736E-18
 -1      1700 2.39247E-05-7.42773E-05 1.49491E-05-1.18691E-06-3.08426E-18-3.21258E-18
 -1      1701 2.44510E-05-2.94407E-05-1.26412E-06 1.17447E-05-1.33247E-17-1.00007E-17
 -1      1702 2.61086E-05-5.31542E-05 6.19319E-06 2.39122E-06-9.56808E-18-6.27212E-18
 -1      1703 4.52371E-05-5.71680E-06-1.82412E-05 3.83128E-05-1.71685E-17-1.63698E-17
 -1      1704 3.36086E-05-2.19089E-05-9.00681E-06 1.76168E-05-1.54584E-17-1.22083E-17
 -1      1705 1.02298E-04-1.02333E-05-3.78572E-05 6.56087E-05-1.41488E-17-1.61140E-17
 -1      1706 7.04814E-05-9.16122E-06-2.76685E-05 4.51942E-05-1.60453E-17-1.54253E-17
 -1      1707 1.69617E-04-2.72156E-05-5.65569E-05 7.66506E-05-9.85015E-18-1.51026E-17
 -1      1708 1.23007E-04-8.94454E-06-4.73922E-05 7.14872E-05-1.40637E-17-1.71965E-17
 -1      1709 2.31394E-04-5.42992E-05-6.98777E-05 4.49402E-05-6.01245E-18-6.32649E-18
 -1      1710 1.92064E-04-3.42969E-05-6.35787E-05 6.47268E-05-8.23994E-18-1.21803E-17
 -1      1711 2.57492E-04-6.54497E-05-7.53886E-05-1.39618E-06-3.61323E-18 2.57432E-18
 -1      1712 2.46046E-04-5.92371E-05-7.39190E-05 3.27902E-05-4.82131E-18-3.93574E-18
 -1      1713 2.34398E-04-5.31386E-05-7.17254E-05-5.01049E-05-5.45997E-18 1.07556E-17
 -1      1714 2.57278E-04-6.59252E-05-7.48905E-05-1.78601E-05-3.70916E-18 5.66326E-18
 -1      1715 1.70636E-04-2.58379E-05-5.87688E-05-7.03514E-05-8.66726E-18 1.36720E-17
 -1      1716 2.14789E-04-4.69027E-05-6.62058E-05-5.95993E-05-5.70297E-18 1.21185E-17
 -1      1717 1.01685E-04-4.77527E-06-4.10950E-05-6.53491E-05-1.54609E-17 1.65375E-17
 -1      1718 1.45053E-04-1.83470E-05-5.07465E-05-7.76052E-05-1.11927E-17 1.48146E-17
 -1      1719 5.02917E-05-7.96435E-06-2.07711E-05-3.53852E-05-1.89583E-17 1.56151E-17
 -1      1720 7.69407E-05-2.13247E-06-3.13197E-05-5.99719E-05-1.69296E-17 1.72303E-17
 -1      1721 2.77616E-05-3.30513E-05-2.69920E-06-8.08072E-06-1.55397E-17 1.07954E-17
 -1      1722 3.32299E-05-1.17479E-05-1.14334E-05-2.61565E-05-1.83764E-17 1.44754E-17
 -1      1723 2.37711E-05-6.18057E-05 1.00511E-05 2.64422E-06-8.25349E-18 5.51401E-18
 -1      1724 1.89860E-05-3.96725E-05 4.28995E-06-4.06441E-07-1.42302E-17 9.59561E-18
 -1      1725 2.29826E-05-7.37143E-05 1.54941E-05-1.59919E-06 2.78473E-18 4.80331E-18
 -1      1726 1.99626E-05-6.47151E-05 1.34438E-05 6.03867E-06-4.95430E-18 5.67830E-18
 -1      1727 1.13432E-04-3.36312E-05-3.37817E-05 4.39270E-05 9.35209E-18 8.10272E-18
 -1      1728 7.42982E-05-3.73716E-05-1.66346E-05 4.05565E-05 1.01060E-17 6.82963E-18
 -1      1729 9.52375E-05-2.85779E-05-2.85675E-05-1.14824E-08-2.56997E-18-1.92462E-18
 -1      1730 9.52366E-05-2.85731E-05-2.85696E-05-1.63258E-08-1.73856E-18-2.67355E-19
 -1      1731 1.82823E-05-4.74343E-05 8.24189E-06 1.40766E-05 6.74154E-18 7.65845E-18
 -1      1732 3.76333E-05-4.08996E-05-1.56533E-06 2.76292E-05 1.08132E-17 9.82489E-18
 -1      1733 1.15763E-05-4.85604E-05 1.14778E-05 7.13104E-07 1.84828E-18 8.74477E-18
 -1      1734 1.54567E-04-3.03721E-05-5.04243E-05 4.10989E-05 7.76750E-18 6.41882E-18
 -1      1735 1.89103E-04-3.22511E-05-6.29859E-05 2.65295E-05 6.84974E-18 2.76133E-18
 -1      1736 2.07980E-04-3.32895E-05-6.95325E-05 9.00080E-06 6.33242E-18-1.00966E-18
 -1      1737 2.02629E-04-3.14799E-05-6.82812E-05-1.36036E-05 7.07654E-18-4.92168E-18
 -1      1738 1.82358E-04-3.17895E-05-6.03431E-05-3.35880E-05 8.76118E-18-8.10695E-18
 -1      1739 1.43700E-04-2.93443E-05-4.65880E-05-4.56245E-05 9.99774E-18-9.94078E-18
 -1      1740 1.00651E-04-3.20466E-05-2.93758E-05-4.45567E-05 1.00873E-17-1.06582E-17
 -1      1741 6.08729E-05-3.65458E-05-1.19396E-05-3.71921E-05 9.44781E-18-1.00007E-17
 -1      1742 2.96363E-05-4.37512E-05 2.40791E-06-2.22378E-05 7.98667E-18-8.63704E-18
 -1      1743 1.45664E-05-4.84138E-05 1.01530E-05-9.47693E-06 3.84807E-18-6.88722E-18
 -1      1744 1.23891E-05-4.95016E-05 1.14259E-05 3.21277E-06-3.29602E-19-6.98379E-18
 -1      1745 2.51015E-05-4.57075E-05 5.25614E-06 1.96838E-05-4.56381E-18-7.57713E-18
 -1      1746 5.08289E-05-4.00666E-05-7.16303E-06 3.21477E-05-6.87113E-18-9.89874E-18
 -1      1747 9.05411E-05-3.58497E-05-2.37535E-05 4.16630E-05-8.89893E-18-1.00602E-17
 -1      1748 1.34281E-04-3.48691E-05-4.13865E-05 4.23910E-05-9.39444E-18-8.88199E-18
 -1      1749 1.75668E-04-3.28850E-05-5.74157E-05 3.49330E-05-8.94133E-18-7.22180E-18
 -1      1750 2.02273E-04-3.27839E-05-6.76711E-05 1.52310E-05-8.08493E-18-1.99137E-18
 -1      1751 2.15788E-04-3.63701E-05-7.11137E-05-4.78973E-06-6.90417E-18 2.05278E-18
 -1      1752 1.98179E-04-3.46077E-05-6.53303E-05-2.41817E-05-6.17805E-18 5.52520E-18
 -1      1753 1.62781E-04-3.25431E-05-5.26249E-05-3.98351E-05-8.16074E-18 8.66938E-18
 -1      1754 1.16105E-04-3.08172E-05-3.55846E-05-4.58720E-05-1.12550E-17 9.24282E-18
 -1      1755 7.14236E-05-3.44025E-05-1.73292E-05-3.83196E-05-1.05405E-17 1.03706E-17
 -1      1756 3.81411E-05-4.18706E-05-1.75508E-06-2.55475E-05-8.11627E-18 1.03835E-17
 -1      1757 1.82515E-05-4.71958E-05 8.16280E-06-1.26658E-05-3.10268E-18 8.88241E-18
 -1      1758 1.05786E-04-2.31278E-05-3.55112E-05-1.66417E-05-2.21514E-18 9.23308E-18
 -1      1759 8.92689E-05-1.05785E-05-3.38504E-05-1.29103E-05-2.84366E-18-2.97303E-18
 -1      1760 9.06032E-05-1.16531E-05-3.39755E-05-1.47303E-05-3.24270E-18-1.99220E-18
 -1      1761 9.25806E-05-1.39148E-05-3.38749E-05-1.56318E-05-3.28496E-18-7.00390E-19
 -1      1762 9.42444E-05-1.58639E-05-3.40911E-05-1.73130E-05-3.46288E-18 1.06472E-18
 -1      1763 9.35279E-05-1.63573E-05-3.30873E-05-1.33607E-05-3.43446E-18-1.16700E-18
 -1      1764 8.62285E-05-7.51402E-06-3.38069E-05-7.49843E-06-1.58886E-18-4.72426E-18
 -1      1765 8.66657E-05-7.84410E-06-3.38405E-05-8.85964E-06-1.93591E-18-4.48214E-18
 -1      1766 8.55359E-05-6.80552E-06-3.38012E-05-5.03808E-06-9.86321E-19-4.98458E-18
 -1      1767 8.58050E-05-7.00843E-06-3.38186E-05-6.29823E-06-1.28857E-18-4.91171E-18
 -1      1768 8.75478E-05-9.61429E-06-3.34306E-05-6.55230E-06-1.56786E-18-4.64414E-18
 -1      1769 8.51384E-05-6.39233E-06-3.38002E-05-2.72114E-06-3.25860E-19-4.98106E-18
 -1      1770 8.52847E-05-6.50353E-06-3.38086E-05-3.90394E-06-6.27726E-19-4.97807E-18
 -1      1771 8.68227E-05-8.81505E-06-3.34618E-05-4.26006E-06-8.71554E-19-4.79270E-18
 -1      1772 8.49773E-05-6.21855E-06-3.38010E-05-4.83773E-07 3.21048E-19-4.87339E-18
 -1      1773 8.50222E-05-6.25269E-06-3.38036E-05-1.62977E-06 1.17675E-20-4.95232E-18
 -1      1774 8.64261E-05-8.37808E-06-3.34787E-05-2.07286E-06-1.76374E-19-4.80483E-18
 -1      1775 8.50318E-05-6.26321E-06-3.38030E-05 1.74119E-06 8.93312E-19-4.74963E-18
 -1      1776 8.49810E-05-6.22405E-06-3.38006E-05 5.93931E-07 5.93148E-19-4.83101E-18
 -1      1777 8.63052E-05-8.24571E-06-3.34835E-05 6.05631E-08 5.00205E-19-4.69348E-18
 -1      1778 8.53092E-05-6.53216E-06-3.38068E-05 4.02131E-06 1.44754E-18-4.61820E-18
 -1      1779 8.51560E-05-6.41435E-06-3.37988E-05 2.83469E-06 1.20637E-18-4.72083E-18
 -1      1780 8.64445E-05-8.40142E-06-3.34768E-05 2.19611E-06 1.12927E-18-4.57610E-18
 -1      1781 8.58364E-05-7.04816E-06-3.38152E-05 6.38373E-06 2.03740E-18-4.24734E-18
 -1      1782 8.55643E-05-6.84121E-06-3.37987E-05 5.13927E-06 1.72481E-18-4.48488E-18
 -1      1783 8.68565E-05-8.85804E-06-3.34580E-05 4.36939E-06 1.69529E-18-4.36378E-18
 -1      1784 8.67269E-05-7.91674E-06-3.38352E-05 8.98006E-06 2.71464E-18-3.50166E-18
 -1      1785 8.62721E-05-7.57087E-06-3.38022E-05 7.58609E-06 2.32999E-18-3.92408E-18
 -1      1786 8.75973E-05-9.67785E-06-3.34249E-05 6.64550E-06 2.35299E-18-3.86264E-18
 -1      1787 8.81961E-05-9.34433E-06-3.38806E-05 1.18344E-05 3.30148E-18-2.46082E-18
 -1      1788 8.74360E-05-8.75842E-06-3.38149E-05 1.02502E-05 2.94840E-18-3.09294E-18
 -1      1789 8.88097E-05-1.10139E-05-3.33706E-05 9.06083E-06 3.00149E-18-3.08491E-18
 -1      1790 9.07452E-05-1.18597E-05-3.39655E-05 1.48993E-05 3.73600E-18-5.78100E-19
 -1      1791 8.93745E-05-1.07402E-05-3.38410E-05 1.31009E-05 3.42661E-18-1.71567E-18
 -1      1792 9.07688E-05-1.31710E-05-3.32743E-05 1.15204E-05 3.52740E-18-1.92445E-18
 -1      1793 9.58975E-05-1.70681E-05-3.39852E-05 1.73438E-05 3.62788E-18 3.06181E-18
 -1      1794 9.29406E-05-1.43797E-05-3.38461E-05 1.58222E-05 3.60508E-18 9.22975E-19
 -1      1795 9.40720E-05-1.68976E-05-3.30634E-05 1.34783E-05 3.80556E-18 2.74597E-19
 -1      1796 1.01813E-04-2.50813E-05-3.33140E-05 1.41602E-05 3.07282E-18 7.40815E-18
 -1      1797 9.80492E-05-1.96409E-05-3.36033E-05 1.66549E-05 3.32205E-18 4.58806E-18
 -1      1798 9.73747E-05-2.18756E-05-3.24354E-05 1.29007E-05 3.65667E-18 3.05580E-18
 -1      1799 9.87138E-05-2.61331E-05-3.13237E-05 9.18152E-06 2.96332E-18 6.48230E-18
 -1      1800 1.00062E-04-1.95793E-05-3.41731E-05-1.85809E-05-2.95877E-18 4.03357E-18
 -1      1801 9.54304E-05-2.73088E-05-2.92240E-05 3.79692E-06 2.29662E-18 4.91407E-18
 -1      1802 9.77680E-05-2.73933E-05-3.02030E-05 6.13993E-06 2.43313E-18 5.84571E-18
 -1      1803 9.76420E-05-2.56330E-05-3.08542E-05 8.44035E-06 3.00308E-18 3.87943E-18
 -1      1804 9.97883E-05-2.25487E-05-3.28229E-05-1.41496E-05-3.17841E-18 2.80236E-18
 -1      1805 9.70769E-05-2.69936E-05-2.99197E-05-5.37355E-06-2.61770E-18 2.39011E-18
 -1      1806 9.53683E-05-2.70649E-05-2.92421E-05-3.54346E-06-2.31435E-18 1.78380E-18
 -1      1807 9.46328E-05-2.72765E-05-2.87690E-05-2.01429E-06-2.01873E-18 1.69083E-18
 -1      1808 9.39885E-05-2.73812E-05-2.85044E-05-1.11206E-06-1.73284E-18 1.09152E-18
 -1      1809 9.57745E-05-2.65597E-05-2.96862E-05-3.97643E-06-2.51352E-18 3.77482E-19
 -1      1810 9.35778E-05-2.74513E-05-2.82793E-05-2.02950E-07-1.50580E-18 9.76871E-19
 -1      1811 9.34461E-05-2.75506E-05-2.82100E-05 3.09572E-07-1.29859E-18 5.11471E-19
 -1      1812 9.47574E-05-2.72496E-05-2.89549E-05-1.17894E-06-1.97946E-18 3.87882E-20
 -1      1813 9.33215E-05-2.76062E-05-2.81306E-05 8.80534E-07-1.17800E-18 3.36335E-19
 -1      1814 9.35175E-05-2.77330E-05-2.81707E-05 1.20761E-06-1.01526E-18 1.47147E-19
 -1      1815 9.43145E-05-2.75857E-05-2.86178E-05 5.10216E-07-1.53619E-18-3.74137E-19
 -1      1816 9.36128E-05-2.78037E-05-2.81858E-05 1.60248E-06-9.37994E-19 5.27303E-20
 -1      1817 9.40320E-05-2.79596E-05-2.82977E-05 1.84311E-06-6.93379E-19-2.03538E-19
 -1      1818 9.43348E-05-2.78167E-05-2.85242E-05 1.61683E-06-1.14344E-18-5.01172E-19
 -1      1819 9.42959E-05-2.80513E-05-2.83802E-05 2.15512E-06-6.77008E-19-3.60994E-19
 -1      1820 9.48867E-05-2.82356E-05-2.85466E-05 2.36457E-06-6.24665E-19-5.50536E-19
 -1      1821 9.47189E-05-2.80285E-05-2.85951E-05 2.42726E-06-9.04135E-19-8.80166E-19
 -1      1822 9.52877E-05-2.83494E-05-2.86814E-05 2.65117E-06-7.06665E-19-5.72283E-19
 -1      1823 9.60304E-05-2.85644E-05-2.88953E-05 2.86354E-06-7.33826E-19-6.67196E-19
 -1      1824 9.53938E-05-2.82509E-05-2.87869E-05 3.11081E-06-7.27638E-19-9.89059E-19
 -1      1825 9.65530E-05-2.87024E-05-2.90744E-05 3.16111E-06-8.88388E-19-5.33358E-19
 -1      1826 9.74474E-05-2.89547E-05-2.93341E-05 3.39718E-06-6.64930E-19-8.57017E-19
 -1      1827 9.63184E-05-2.85000E-05-2.90751E-05 3.77325E-06-7.50507E-19-1.07497E-18
 -1      1828 9.80874E-05-2.91223E-05-2.95533E-05 3.72607E-06-5.37919E-19-1.01736E-18
 -1      1829 9.91437E-05-2.94224E-05-2.98597E-05 3.99434E-06-2.64390E-19-1.34287E-18
 -1      1830 9.74771E-05-2.87928E-05-2.94457E-05 4.47872E-06-8.29304E-19-1.21884E-18
 -1      1831 9.99048E-05-2.96294E-05-3.01156E-05 4.35785E-06-1.64788E-19-1.55766E-18
 -1      1832 1.01134E-04-2.99919E-05-3.04694E-05 4.65089E-06-1.02476E-19-1.77488E-18
 -1      1833 9.88734E-05-2.91547E-05-2.98889E-05 5.25448E-06-4.32117E-19-1.46314E-18
 -1      1834 1.02025E-04-3.02546E-05-3.07573E-05 5.02899E-06-1.09229E-19-1.56744E-18
 -1      1835 1.03430E-04-3.06976E-05-3.11548E-05 5.31508E-06-6.44556E-20-1.45350E-18
 -1      1836 1.00524E-04-2.96261E-05-3.03948E-05 6.08347E-06-6.21990E-20-1.53653E-18
 -1      1837 1.04462E-04-3.10418E-05-3.14654E-05 5.65272E-06 8.80832E-20-1.19617E-18
 -1      1838 1.06018E-04-3.15849E-05-3.18934E-05 5.86272E-06 3.63080E-19-9.00241E-19
 -1      1839 1.02455E-04-3.02701E-05-3.09473E-05 6.88541E-06 1.55574E-19-8.26719E-19
 -1      1840 1.07204E-04-3.20474E-05-3.22104E-05 6.05304E-06 2.70645E-19-8.99117E-19
 -1      1841 1.08838E-04-3.27051E-05-3.26403E-05 6.06500E-06 1.02743E-19-4.93757E-19
 -1      1842 1.04699E-04-3.11794E-05-3.15205E-05 7.48697E-06 4.18529E-19-5.26052E-19
 -1      1843 1.10188E-04-3.33297E-05-3.29396E-05 5.93236E-06-6.24968E-20-4.47415E-19
 -1      1844 1.11753E-04-3.40936E-05-3.33220E-05 5.56398E-06-3.63794E-20-3.51254E-19
 -1      1845 1.07285E-04-3.24725E-05-3.20765E-05 7.58632E-06 9.92302E-20-6.88583E-19
 -1      1846 1.13251E-04-3.49073E-05-3.35748E-05 4.86282E-06 1.72159E-19-2.69846E-19
 -1      1847 1.14497E-04-3.57045E-05-3.38411E-05 3.89810E-06 3.50725E-19-2.18359E-19
 -1      1848 1.10215E-04-3.42526E-05-3.25707E-05 6.73286E-06 2.19653E-19-3.24845E-19
 -1      1849 1.16054E-04-3.66520E-05-3.40265E-05 2.36560E-06 2.77172E-19-5.32870E-19
 -1      1850 1.16619E-04-3.72728E-05-3.41051E-05 6.59679E-07 2.66716E-19-5.16360E-19
 -1      1851 1.13390E-04-3.64810E-05-3.29716E-05 4.37545E-06 2.54480E-19-2.02492E-19
 -1      1852 1.17965E-04-3.80972E-05-3.42300E-05-1.79903E-06 4.68264E-19-1.32614E-19
 -1      1853 1.17447E-04-3.81481E-05-3.40825E-05-4.09212E-06 1.44684E-19 2.39942E-19
 -1      1854 1.16430E-04-3.87176E-05-3.32980E-05 8.90494E-08 5.99130E-19-2.12744E-19
 -1      1855 1.18067E-04-3.83295E-05-3.41993E-05-7.06931E-06-2.29791E-19 9.88077E-19
 -1      1856 1.16238E-04-3.73270E-05-3.38644E-05-9.24382E-06-2.46599E-19 8.62703E-19
 -1      1857 1.18491E-04-3.98749E-05-3.36527E-05-5.86843E-06 2.24424E-19 1.21875E-18
 -1      1858 1.15524E-04-3.62505E-05-3.40450E-05-1.14785E-05-4.57573E-19 6.68560E-19
 -1      1859 1.12686E-04-3.40787E-05-3.36516E-05-1.22390E-05-5.61338E-19 2.13082E-19
 -1      1860 1.18337E-04-3.84151E-05-3.41975E-05-1.18142E-05-6.17370E-19 1.29267E-18
 -1      1861 1.10723E-04-3.18477E-05-3.39093E-05-1.19147E-05-7.36403E-19 3.97404E-19
 -1      1862 1.07997E-04-2.93959E-05-3.36096E-05-1.01605E-05-1.01520E-18-6.77957E-20
 -1      1863 1.15325E-04-3.36687E-05-3.49932E-05-1.43052E-05-9.11441E-19 6.92854E-19
 -1      1864 1.06148E-04-2.73826E-05-3.38196E-05-6.52070E-06-1.21430E-18-5.75479E-19
 -1      1865 1.04976E-04-2.62347E-05-3.37155E-05-2.59938E-06-7.22651E-19-1.14417E-18
 -1      1866 1.11062E-04-2.77882E-05-3.58064E-05-1.00860E-05-1.45031E-18 4.92607E-19
 -1      1867 1.04973E-04-2.62287E-05-3.37180E-05 2.73970E-06-1.43376E-18-2.19184E-18
 -1      1868 1.06192E-04-2.74004E-05-3.38287E-05 6.67045E-06-1.97610E-18-2.48312E-18
 -1      1869 1.08911E-04-2.48578E-05-3.61656E-05 8.75158E-08-1.98677E-18-1.20975E-18
 -1      1870 1.08081E-04-2.94448E-05-3.36205E-05 1.02864E-05-1.81123E-18-3.41024E-18
 -1      1871 1.10842E-04-3.19062E-05-3.39290E-05 1.20258E-05-1.31262E-18-3.62169E-18
 -1      1872 1.11113E-04-2.78025E-05-3.58094E-05 1.02604E-05-2.25607E-18-3.05389E-18
 -1      1873 1.12821E-04-3.41398E-05-3.36816E-05 1.23245E-05-9.43135E-19-4.00006E-18
 -1      1874 1.15681E-04-3.63099E-05-3.40856E-05 1.15509E-05 4.31226E-20-3.86709E-18
 -1      1875 1.15442E-04-3.37311E-05-3.50101E-05 1.44244E-05-1.17823E-18-4.29709E-18
 -1      1876 1.16400E-04-3.73753E-05-3.39152E-05 9.31271E-06 2.73367E-19-3.89887E-18
 -1      1877 1.18253E-04-3.83753E-05-3.42596E-05 7.14434E-06 3.60201E-19-4.21341E-18
 -1      1878 1.18466E-04-3.84617E-05-3.42333E-05 1.19042E-05-3.61511E-20-4.07829E-18
 -1      1879 1.17656E-04-3.81936E-05-3.41545E-05 4.18381E-06 5.19337E-20-3.86726E-18
 -1      1880 1.18204E-04-3.81438E-05-3.43133E-05 1.90732E-06 3.86532E-19-3.84234E-18
 -1      1881 1.18646E-04-3.99033E-05-3.37120E-05 5.98121E-06 5.63078E-19-3.84595E-18
 -1      1882 1.16888E-04-3.73203E-05-3.42011E-05-5.19627E-07 3.44484E-19-3.70755E-18
 -1      1883 1.16369E-04-3.67081E-05-3.41368E-05-2.19567E-06 5.36615E-19-3.63670E-18
 -1      1884 1.16635E-04-3.87346E-05-3.33824E-05 7.54600E-08 1.90258E-19-3.40385E-18
 -1      1885 1.14857E-04-3.57721E-05-3.39663E-05-3.68625E-06 4.00322E-19-3.32874E-18
 -1      1886 1.13677E-04-3.49935E-05-3.37189E-05-4.61661E-06 2.69360E-19-3.55194E-18
 -1      1887 1.13668E-04-3.65041E-05-3.30831E-05-4.12592E-06 5.18255E-19-3.08893E-18
 -1      1888 1.12235E-04-3.41951E-05-3.34846E-05-5.27313E-06 1.33408E-19-2.47710E-18
 -1      1889 1.10757E-04-3.34557E-05-3.31274E-05-5.60385E-06 1.93585E-19-2.40883E-18
 -1      1890 1.10595E-04-3.43015E-05-3.27139E-05-6.38867E-06 1.16682E-18-2.70115E-18
 -1      1891 1.09476E-04-3.28493E-05-3.28512E-05-5.68754E-06 5.87361E-19-2.29290E-18
 -1      1892 1.07952E-04-3.22227E-05-3.24532E-05-5.63443E-06 8.81673E-19-1.40592E-18
 -1      1893 1.07789E-04-3.25530E-05-3.22592E-05-7.13850E-06 6.81973E-19-1.46034E-18
 -1      1894 1.06847E-04-3.17822E-05-3.21638E-05-5.39089E-06 5.54370E-19-9.37629E-19
 -1      1895 1.05427E-04-3.12779E-05-3.17748E-05-5.13625E-06 5.76780E-19-8.89673E-19
 -1      1896 1.05353E-04-3.12982E-05-3.17509E-05-6.92587E-06 1.24663E-18-3.69646E-19
 -1      1897 1.04490E-04-3.09601E-05-3.14962E-05-4.74227E-06 3.39096E-19-7.68275E-19
 -1      1898 1.03246E-04-3.05647E-05-3.11447E-05-4.40903E-06 5.69477E-19-6.04561E-19
 -1      1899 1.03286E-04-3.04360E-05-3.12331E-05-6.20324E-06 2.54740E-19 1.41084E-19
 -1      1900 1.02462E-04-3.03330E-05-3.08922E-05-3.97415E-06 2.27341E-19 3.79717E-20
 -1      1901 1.01419E-04-3.00276E-05-3.05910E-05-3.63385E-06-2.28140E-19-8.19041E-20
 -1      1902 1.01558E-04-2.98498E-05-3.07423E-05-5.27699E-06 2.05698E-19 3.17888E-20
 -1      1903 1.00772E-04-2.98561E-05-3.03723E-05-3.21802E-06-7.30892E-19 6.33844E-20
 -1      1904 9.99238E-05-2.96229E-05-3.01237E-05-2.90671E-06-4.65301E-19-5.83957E-20
 -1      1905 1.00131E-04-2.94481E-05-3.03018E-05-4.32925E-06-1.73133E-19 5.50681E-19
 -1      1906 9.93993E-05-2.94948E-05-2.99406E-05-2.53805E-06-6.19601E-19-8.39189E-19
 -1      1907 9.87265E-05-2.93187E-05-2.97411E-05-2.27030E-06-1.27456E-18-1.70096E-18
 -1      1908 9.89684E-05-2.91689E-05-2.99224E-05-3.45529E-06-9.53897E-19 6.18631E-19
 -1      1909 9.83076E-05-2.92226E-05-2.95920E-05-1.95834E-06-4.58299E-19-1.68986E-18
 -1      1910 9.77855E-05-2.90913E-05-2.94357E-05-1.73694E-06 1.82253E-19-1.02962E-18
 -1      1911 9.80359E-05-2.89723E-05-2.96060E-05-2.69619E-06-7.96424E-19-6.29948E-19
 -1      1912 9.74564E-05-2.90195E-05-2.93170E-05-1.48120E-06 1.09537E-19-1.41625E-18
 -1      1913 9.70590E-05-2.89231E-05-2.91970E-05-1.30311E-06-1.00541E-19-2.25036E-18
 -1      1914 9.72992E-05-2.88330E-05-2.93490E-05-2.06203E-06-3.09469E-19-1.19387E-18
 -1      1915 9.68050E-05-2.88700E-05-2.91045E-05-1.09836E-06 1.91458E-19-1.50302E-18
 -1      1916 9.65084E-05-2.88005E-05-2.90142E-05-9.58082E-07-2.10882E-19-1.11925E-18
 -1      1917 9.67266E-05-2.87345E-05-2.91448E-05-1.54676E-06 1.55291E-19-1.54493E-18
 -1      1918 9.63157E-05-2.87618E-05-2.89434E-05-7.97237E-07-1.37475E-18-2.90740E-19
 -1      1919 9.60990E-05-2.87128E-05-2.88769E-05-6.88647E-07-4.09270E-19-5.87886E-19
 -1      1920 9.62890E-05-2.86657E-05-2.89858E-05-1.13697E-06-1.90434E-19 4.65921E-19
 -1      1921 9.59557E-05-2.86852E-05-2.88238E-05-5.64343E-07 1.23661E-19-2.03278E-19
 -1      1922 9.58011E-05-2.86518E-05-2.87759E-05-4.81556E-07 8.46017E-19-1.78875E-19
 -1      1923 9.59609E-05-2.86187E-05-2.88645E-05-8.16822E-07-1.33038E-19 9.88854E-19
 -1      1924 9.56968E-05-2.86327E-05-2.87370E-05-3.86920E-07 1.66043E-18-9.05895E-19
 -1      1925 9.55899E-05-2.86109E-05-2.87034E-05-3.24695E-07 6.86926E-19-3.94133E-19
 -1      1926 9.57198E-05-2.85878E-05-2.87737E-05-5.70610E-07 7.51452E-19 9.79846E-19
 -1      1927 9.55159E-05-2.85981E-05-2.86755E-05-2.53679E-07-5.53591E-19 1.36508E-18
 -1      1928 9.54449E-05-2.85848E-05-2.86529E-05-2.07542E-07-3.97154E-19 2.26055E-18
 -1      1929 9.55468E-05-2.85685E-05-2.87072E-05-3.84050E-07 9.97792E-19 1.01111E-18
 -1      1930 9.53941E-05-2.85767E-05-2.86334E-05-1.55048E-07 7.65953E-20 1.52999E-18
 -1      1931 9.53497E-05-2.85695E-05-2.86189E-05-1.21343E-07 9.91538E-19 1.49062E-18
 -1      1932 9.54262E-05-2.85575E-05-2.86597E-05-2.44781E-07-4.21468E-19 3.04462E-18
 -1      1933 9.53161E-05-2.85649E-05-2.86059E-05-8.33036E-08 8.77979E-19 9.01042E-19
 -1      1934 9.52912E-05-2.85622E-05-2.85973E-05-5.92728E-08 1.13319E-18 7.80825E-20
 -1      1935 9.53450E-05-2.85527E-05-2.86266E-05-1.42598E-07 3.51601E-19 1.15768E-18
 -1      1936 9.52699E-05-2.85604E-05-2.85887E-05-3.24882E-08 2.21458E-18 1.30372E-19
 -1      1937 9.52586E-05-2.85612E-05-2.85840E-05-1.65689E-08 2.76325E-18 1.83941E-18
 -1      1938 9.52928E-05-2.85521E-05-2.86040E-05-6.96579E-08 1.11449E-18 2.39224E-18
 -1      1939 9.52467E-05-2.85618E-05-2.85785E-05-3.16409E-10 2.51215E-18 1.83280E-18
 -1      1940 9.52439E-05-2.85658E-05-2.85760E-05 7.46117E-09 1.97937E-18 2.52992E-18
 -1      1941 9.52476E-05-2.85668E-05-2.85780E-05 6.15884E-09 1.60755E-18 2.06905E-18
 -1      1942 9.52623E-05-2.85571E-05-2.85888E-05-2.13371E-08 2.73672E-18 2.61748E-18
 -1      1943 9.35313E-05-2.74286E-05-2.82995E-05 1.27513E-06 1.89758E-18 3.66581E-18
 -1      1944 9.46140E-05-2.75064E-05-2.87007E-05 2.37492E-06 1.93896E-18 4.49579E-18
 -1      1945 9.54524E-05-2.70844E-05-2.93074E-05 3.67991E-06 2.44385E-18 2.92422E-18
 -1      1946 9.27403E-05-2.74766E-05-2.79427E-05-8.37279E-08 1.46017E-18 2.76568E-18
 -1      1947 9.30914E-05-2.74716E-05-2.80705E-05 5.12418E-07 1.57822E-18 3.27471E-18
 -1      1948 9.40552E-05-2.74429E-05-2.85569E-05 1.10977E-06 1.97337E-18 2.22190E-18
 -1      1949 9.27089E-05-2.76001E-05-2.78845E-05-8.82462E-07 8.84938E-19 2.13470E-18
 -1      1950 9.26353E-05-2.75223E-05-2.78734E-05-5.21614E-07 1.17214E-18 2.55807E-18
 -1      1951 9.34965E-05-2.76147E-05-2.82473E-05-3.55292E-07 1.44592E-18 1.61070E-18
 -1      1952 9.31850E-05-2.78079E-05-2.80042E-05-1.39960E-06 5.30698E-19 1.48482E-18
 -1      1953 9.28482E-05-2.76766E-05-2.79119E-05-1.15633E-06 7.17506E-19 1.89373E-18
 -1      1954 9.35398E-05-2.77886E-05-2.81920E-05-1.25532E-06 9.91632E-19 1.13540E-18
 -1      1955 9.40176E-05-2.80875E-05-2.82434E-05-1.77687E-06 9.52348E-19 9.54066E-19
 -1      1956 9.35017E-05-2.79159E-05-2.80964E-05-1.59159E-06 6.56736E-19 1.18156E-18
 -1      1957 9.40080E-05-2.80058E-05-2.82984E-05-1.86435E-06 9.38913E-19 4.08145E-19
 -1      1958 9.51223E-05-2.84295E-05-2.85714E-05-2.09053E-06 6.24766E-19 6.45787E-19
 -1      1959 9.44703E-05-2.82243E-05-2.83830E-05-1.93067E-06 8.03797E-19 8.43831E-19
 -1      1960 9.47889E-05-2.82730E-05-2.85171E-05-2.32746E-06 1.06412E-18 8.61653E-20
 -1      1961 9.64538E-05-2.88316E-05-2.89707E-05-2.37937E-06 3.79469E-19 9.70688E-20
 -1      1962 9.56872E-05-2.85944E-05-2.87479E-05-2.22817E-06 5.15583E-19 4.14882E-19
 -1      1963 9.58171E-05-2.85925E-05-2.88198E-05-2.72277E-06 6.76318E-19-1.31259E-19
 -1      1964 9.79860E-05-2.92960E-05-2.94297E-05-2.65351E-06 1.72931E-19 9.74138E-20
 -1      1965 9.71172E-05-2.90262E-05-2.91771E-05-2.50684E-06 2.41199E-19 4.45412E-20
 -1      1966 9.70554E-05-2.89693E-05-2.91884E-05-3.08562E-06 3.98763E-19-4.88472E-19
 -1      1967 9.96948E-05-2.98273E-05-2.99366E-05-2.89434E-06 2.04002E-19 4.38732E-19
 -1      1968 9.87373E-05-2.95240E-05-2.96596E-05-2.76134E-06 3.37637E-19 3.51659E-19
 -1      1969 9.84805E-05-2.94128E-05-2.96088E-05-3.41547E-06 2.86439E-19-9.55625E-20
 -1      1970 1.01540E-04-3.04279E-05-3.04740E-05-3.05022E-06 1.72611E-19 2.75302E-19
 -1      1971 1.00520E-04-3.00930E-05-3.01817E-05-2.95592E-06 9.20449E-20 4.53359E-19
 -1      1972 1.00069E-04-2.99348E-05-3.00653E-05-3.67431E-06 1.25457E-19-3.63405E-20
 -1      1973 1.03448E-04-3.10918E-05-3.10129E-05-3.03101E-06 6.24582E-19 6.72597E-20
 -1      1974 1.02413E-04-3.07341E-05-3.07214E-05-3.01952E-06 4.75951E-19 5.69927E-20
 -1      1975 1.01782E-04-3.05463E-05-3.05365E-05-3.78145E-06 5.12743E-19-2.04759E-19
 -1      1976 1.05289E-04-3.17951E-05-3.15081E-05-2.70739E-06 5.63474E-19-9.90880E-20
 -1      1977 1.04323E-04-3.14358E-05-3.12437E-05-2.84283E-06 4.48985E-19 2.89684E-19
 -1      1978 1.03551E-04-3.12497E-05-3.09910E-05-3.60986E-06 6.05575E-19 1.54875E-19
 -1      1979 1.06862E-04-3.24817E-05-3.18966E-05-1.92554E-06 1.77629E-19 3.46594E-19
 -1      1980 1.06092E-04-3.21612E-05-3.16966E-05-2.28527E-06 2.83061E-19 1.10037E-19
 -1      1981 1.05257E-04-3.20245E-05-3.13862E-05-2.99295E-06 3.58692E-19 2.34578E-19
 -1      1982 1.07891E-04-3.30441E-05-3.21031E-05-5.53592E-07 3.72833E-19 2.15172E-19
 -1      1983 1.07484E-04-3.28290E-05-3.20127E-05-1.20539E-06 4.91014E-19 3.79317E-19
 -1      1984 1.06715E-04-3.28029E-05-3.16707E-05-1.75721E-06 4.71698E-19 2.81089E-19
 -1      1985 1.08047E-04-3.33092E-05-3.20565E-05 1.42382E-06-2.01931E-20-3.97940E-19
 -1      1986 1.08184E-04-3.32926E-05-3.21190E-05 4.69169E-07-1.18863E-19-3.17248E-19
 -1      1987 1.07664E-04-3.34390E-05-3.17944E-05 2.00236E-07 4.40980E-19 2.74234E-19
 -1      1988 1.07025E-04-3.30518E-05-3.17202E-05 3.76773E-06-5.65229E-19-7.31360E-20
 -1      1989 1.07847E-04-3.33354E-05-3.19580E-05 2.62566E-06-6.85170E-20-1.76719E-19
 -1      1990 1.07782E-04-3.36887E-05-3.17259E-05 2.77839E-06-1.39972E-19-9.09998E-20
 -1      1991 1.04706E-04-3.20798E-05-3.11270E-05 5.86991E-06-8.28961E-19-5.61159E-19
 -1      1992 1.06218E-04-3.27215E-05-3.15197E-05 4.83810E-06-1.01023E-18-5.29535E-19
 -1      1993 1.06776E-04-3.32516E-05-3.14736E-05 5.51394E-06-6.85230E-19-1.26694E-19
 -1      1994 1.01371E-04-3.04123E-05-3.03985E-05 6.81551E-06 9.42022E-20-4.49682E-19
 -1      1995 1.03344E-04-3.13424E-05-3.08691E-05 6.33771E-06-5.37284E-19-4.04141E-19
 -1      1996 1.04572E-04-3.19330E-05-3.10983E-05 7.51666E-06-5.71090E-19-7.23128E-19
 -1      1997 9.78615E-05-2.84720E-05-2.97266E-05 5.77947E-06 5.84704E-19-7.22254E-19
 -1      1998 9.97991E-05-2.94317E-05-3.01526E-05 6.24292E-06 2.12638E-19-8.14700E-19
 -1      1999 1.01571E-04-2.99055E-05-3.07031E-05 7.69652E-06 2.36375E-20-7.08583E-19
 -1      2000 9.54334E-05-2.70525E-05-2.93090E-05 2.68080E-06 1.50274E-18-7.47139E-19
 -1      2001 9.66963E-05-2.76598E-05-2.95624E-05 4.09974E-06 1.36600E-18-1.97339E-19
 -1      2002 9.87557E-05-2.78772E-05-3.03993E-05 5.38445E-06 1.05099E-18-9.70481E-20
 -1      2003 9.51342E-05-2.68624E-05-2.92759E-05-1.48627E-06 3.38098E-19-1.99145E-18
 -1      2004 9.52362E-05-2.68330E-05-2.92742E-05 4.07625E-07 8.85639E-19-1.36115E-18
 -1      2005 9.73275E-05-2.67983E-05-3.02680E-05 1.03660E-06 1.16139E-18-5.53084E-19
 -1      2006 9.71540E-05-2.80300E-05-2.96402E-05-5.07799E-06-9.47214E-19-1.84357E-18
 -1      2007 9.60342E-05-2.73721E-05-2.93822E-05-3.46275E-06-4.72843E-19-2.28049E-18
 -1      2008 9.79841E-05-2.72489E-05-3.03433E-05-3.74959E-06-1.89802E-19-1.26890E-18
 -1      2009 1.00633E-04-2.99530E-05-3.02927E-05-6.80020E-06-1.43452E-18-1.03987E-18
 -1      2010 9.87148E-05-2.89750E-05-2.98600E-05-6.01768E-06-1.12634E-18-1.77136E-18
 -1      2011 1.00417E-04-2.90014E-05-3.06103E-05-7.08603E-06-1.11280E-18-1.73085E-18
 -1      2012 1.04265E-04-3.17952E-05-3.10426E-05-6.41704E-06-2.28416E-19-1.21647E-18
 -1      2013 1.02195E-04-3.08730E-05-3.05634E-05-6.54752E-06-6.00107E-19-1.30156E-18
 -1      2014 1.03528E-04-3.11598E-05-3.10011E-05-7.97265E-06-7.39301E-19-2.36230E-18
 -1      2015 1.07015E-04-3.30004E-05-3.16960E-05-4.59195E-06 6.40502E-19-5.61877E-19
 -1      2016 1.05345E-04-3.23754E-05-3.12915E-05-5.33925E-06 3.99694E-19-8.87929E-19
 -1      2017 1.06185E-04-3.28519E-05-3.14125E-05-6.66046E-06 3.42535E-19-2.05026E-18
 -1      2018 1.08447E-04-3.34503E-05-3.21190E-05-2.27394E-06-4.88083E-19-3.35215E-19
 -1      2019 1.07456E-04-3.31774E-05-3.18646E-05-3.23519E-06-1.05945E-19-4.67245E-19
 -1      2020 1.07753E-04-3.36757E-05-3.17393E-05-4.15009E-06 4.46082E-20-1.48118E-18
 -1      2021 1.08625E-04-3.33115E-05-3.22627E-05-1.88998E-07-1.96171E-19 6.49947E-19
 -1      2022 1.08333E-04-3.33253E-05-3.21785E-05-1.06058E-06-2.29076E-19 6.15699E-19
 -1      2023 1.08148E-04-3.36986E-05-3.19062E-05-1.47313E-06-1.38093E-19-8.76787E-20
 -1      2024 1.07863E-04-3.28246E-05-3.21531E-05 1.31825E-06-3.80391E-19 4.14252E-21
 -1      2025 1.08131E-04-3.30229E-05-3.22161E-05 6.81344E-07-8.98384E-20 6.12059E-19
 -1      2026 1.07609E-04-3.32112E-05-3.18879E-05 7.18352E-07 1.25371E-19 1.60743E-18
 -1      2027 1.06521E-04-3.21888E-05-3.18568E-05 2.20124E-06-8.16799E-19-5.83315E-19
 -1      2028 1.07159E-04-3.24803E-05-3.20235E-05 1.82093E-06-6.56123E-19-8.13026E-19
 -1      2029 1.06464E-04-3.24971E-05-3.17041E-05 2.18530E-06-3.22945E-19 2.35672E-19
 -1      2030 1.04909E-04-3.15323E-05-3.14502E-05 2.56981E-06 2.11025E-19-1.86180E-18
 -1      2031 1.05738E-04-3.18524E-05-3.16749E-05 2.40293E-06-5.63118E-19-1.28258E-18
 -1      2032 1.05008E-04-3.17477E-05-3.14005E-05 2.96232E-06 1.36731E-19-1.26357E-18
 -1      2033 1.03247E-04-3.09242E-05-3.09999E-05 2.57986E-06 6.16691E-19-4.03960E-19
 -1      2034 1.04132E-04-3.12333E-05-3.12450E-05 2.56337E-06 5.53054E-19-1.04645E-18
 -1      2035 1.03459E-04-3.10624E-05-3.10295E-05 3.20656E-06 2.00557E-19-1.23138E-18
 -1      2036 1.01680E-04-3.03949E-05-3.05549E-05 2.37427E-06 2.88849E-19-1.30297E-19
 -1      2037 1.02529E-04-3.06720E-05-3.07937E-05 2.44968E-06 7.48297E-19 1.68968E-19
 -1      2038 1.01962E-04-3.04792E-05-3.06370E-05 3.09667E-06 5.12777E-19 3.29556E-19
 -1      2039 1.00285E-04-2.99527E-05-3.01459E-05 2.06162E-06 1.04779E-18-7.68203E-19
 -1      2040 1.01047E-04-3.01890E-05-3.03626E-05 2.18401E-06 1.14879E-19-5.62503E-19
 -1      2041 1.00600E-04-3.00033E-05-3.02570E-05 2.78460E-06 9.20808E-19-6.07547E-19
 -1      2042 9.90959E-05-2.95941E-05-2.97889E-05 1.71496E-06 9.30081E-19-7.27776E-19
 -1      2043 9.97468E-05-2.97884E-05-2.99758E-05 1.85378E-06 1.35729E-18-5.79032E-19
 -1      2044 9.94148E-05-2.96254E-05-2.99111E-05 2.38141E-06 1.24874E-18 1.19006E-19
 -1      2045 9.81156E-05-2.93105E-05-2.94894E-05 1.37847E-06-1.33841E-18-1.05828E-18
 -1      2046 9.86516E-05-2.94656E-05-2.96445E-05 1.51498E-06-5.36261E-21-8.80913E-19
 -1      2047 9.84187E-05-2.93314E-05-2.96103E-05 1.95974E-06 5.86423E-19 7.27540E-19
 -1      2048 9.73305E-05-2.90913E-05-2.92462E-05 1.07567E-06 5.77553E-19-6.17460E-19
 -1      2049 9.77584E-05-2.92118E-05-2.93708E-05 1.19968E-06-4.74305E-19-8.61500E-19
 -1      2050 9.76053E-05-2.91066E-05-2.93581E-05 1.56231E-06-6.16653E-19 2.26036E-19
 -1      2051 9.67179E-05-2.89255E-05-2.90543E-05 8.16539E-07-1.52208E-18 4.78335E-19
 -1      2052 9.70501E-05-2.90168E-05-2.91515E-05 9.23498E-07-6.94569E-19-5.76968E-19
 -1      2053 9.69578E-05-2.89377E-05-2.91530E-05 1.21082E-06-6.21032E-19 5.59912E-20
 -1      2054 9.62518E-05-2.88030E-05-2.89067E-05 6.02779E-07-7.90557E-19 1.46454E-18
 -1      2055 9.65029E-05-2.88703E-05-2.89806E-05 6.91649E-07-1.16822E-18 1.06089E-18
 -1      2056 9.64546E-05-2.88132E-05-2.89906E-05 9.13387E-07-1.77014E-18 2.38658E-19
 -1      2057 9.59062E-05-2.87148E-05-2.87961E-05 4.31481E-07 3.09665E-19 1.70927E-18
 -1      2058 9.60908E-05-2.87631E-05-2.88508E-05 5.03209E-07-1.10694E-19 1.78642E-18
 -1      2059 9.60728E-05-2.87233E-05-2.88654E-05 6.69950E-07-1.28862E-19 1.40141E-18
 -1      2060 9.56573E-05-2.86532E-05-2.87157E-05 2.97495E-07 3.11354E-19 1.00457E-18
 -1      2061 9.57889E-05-2.86867E-05-2.87549E-05 3.54032E-07 4.51008E-19 2.11691E-18
 -1      2062 9.57902E-05-2.86603E-05-2.87712E-05 4.76007E-07 4.91075E-19 2.08843E-18
 -1      2063 9.54842E-05-2.86121E-05-2.86591E-05 1.94881E-07 1.58435E-18-9.66906E-19
 -1      2064 9.55743E-05-2.86342E-05-2.86861E-05 2.38570E-07 1.31709E-18 2.15989E-19
 -1      2065 9.55869E-05-2.86174E-05-2.87022E-05 3.25013E-07 1.86796E-18 1.09519E-18
 -1      2066 9.53693E-05-2.85862E-05-2.86209E-05 1.17774E-07 1.49582E-18-9.79289E-19
 -1      2067 9.54278E-05-2.85998E-05-2.86387E-05 1.50981E-07 1.42153E-18-9.89942E-19
 -1      2068 9.54456E-05-2.85897E-05-2.86534E-05 2.09850E-07 1.78111E-18 1.80377E-18
 -1      2069 9.52980E-05-2.85715E-05-2.85967E-05 6.09485E-08 1.47327E-18-2.10966E-18
 -1      2070 9.53328E-05-2.85788E-05-2.86075E-05 8.58086E-08 9.10853E-19-1.25388E-18
 -1      2071 9.53515E-05-2.85731E-05-2.86200E-05 1.23736E-07 1.36947E-18 1.22520E-18
 -1      2072 9.52584E-05-2.85651E-05-2.85825E-05 2.05042E-08 1.67149E-18-9.39699E-19
 -1      2073 9.52762E-05-2.85679E-05-2.85883E-05 3.85784E-08 2.09571E-18-1.05191E-18
 -1      2074 9.52927E-05-2.85648E-05-2.85983E-05 6.10072E-08 1.61737E-18 2.51347E-19
 -1      2075 9.52410E-05-2.85652E-05-2.85750E-05-5.14793E-09-9.42910E-19-5.67976E-19
 -1      2076 9.52470E-05-2.85645E-05-2.85776E-05 6.26550E-09-1.33503E-19-2.30926E-19
 -1      2077 9.52593E-05-2.85627E-05-2.85847E-05 1.75733E-08-3.08428E-19 2.51444E-18
 -1      2078 9.52383E-05-2.85704E-05-2.85716E-05-1.37321E-08-1.92699E-18-5.57278E-19
 -1      2079 9.52374E-05-2.85659E-05-2.85731E-05-9.75923E-09-1.14096E-18-7.61409E-19
 -1      2080 9.52453E-05-2.85648E-05-2.85776E-05-4.80726E-09-7.90801E-19 2.54450E-18
 -1      2081 9.52423E-05-2.85722E-05-2.85727E-05-1.31458E-08-1.56066E-18 2.31118E-18
 -1      2082 9.52280E-05-2.85151E-05-2.85915E-05 4.42441E-08 1.66575E-18 4.25541E-19
 -1      2083 9.52343E-05-2.85273E-05-2.85882E-05 3.70155E-08 1.29501E-18 7.03210E-19
 -1      2084 9.52416E-05-2.85445E-05-2.85845E-05 2.59561E-08 7.96982E-19 9.40424E-19
 -1      2085 9.52446E-05-2.85526E-05-2.85819E-05 1.55911E-08 6.64040E-19 1.26386E-18
 -1      2086 9.52377E-05-2.85167E-05-2.85949E-05 4.64609E-08 2.50147E-19 1.25373E-18
 -1      2087 9.52463E-05-2.85638E-05-2.85781E-05 4.00275E-09-6.18904E-19 2.62265E-18
 -1      2088 9.52448E-05-2.85668E-05-2.85761E-05-4.03811E-09-1.40124E-18 3.48781E-18
 -1      2089 9.52471E-05-2.85627E-05-2.85789E-05-1.05777E-09-1.09611E-18 3.14922E-18
 -1      2090 9.52472E-05-2.85454E-05-2.85868E-05 2.05332E-08-7.76955E-19 2.74892E-18
 -1      2091 9.52115E-05-2.84821E-05-2.85987E-05 5.16340E-08-4.73941E-19-3.53502E-18
 -1      2092 9.52191E-05-2.84962E-05-2.85951E-05 4.95989E-08 2.97621E-19-1.94897E-18
 -1      2093 9.52188E-05-2.84797E-05-2.86024E-05 6.44186E-08 3.71093E-19-2.10063E-18
 -1      2094 9.51954E-05-2.84508E-05-2.86054E-05 4.63607E-08-9.92748E-19-1.42079E-18
 -1      2095 9.52025E-05-2.84641E-05-2.86020E-05 4.98702E-08-7.20087E-19-4.18014E-19
 -1      2096 9.51972E-05-2.84415E-05-2.86093E-05 6.78715E-08-5.07870E-20-2.22355E-18
 -1      2097 9.51834E-05-2.84276E-05-2.86102E-05 2.97787E-08-4.35854E-20-4.87889E-19
 -1      2098 9.51884E-05-2.84368E-05-2.86079E-05 3.78387E-08-2.38652E-19-1.34383E-18
 -1      2099 9.51777E-05-2.84082E-05-2.86150E-05 5.56315E-08 3.68694E-19-1.11587E-18
 -1      2100 9.51780E-05-2.84170E-05-2.86124E-05 6.04864E-09-1.96911E-18-9.14353E-19
 -1      2101 9.51796E-05-2.84201E-05-2.86116E-05 1.65975E-08-1.50145E-18-1.10170E-18
 -1      2102 9.51645E-05-2.83859E-05-2.86188E-05 3.05364E-08 3.60097E-20-1.01557E-18
 -1      2103 9.51800E-05-2.84209E-05-2.86114E-05-1.91802E-08-1.63908E-18-1.21026E-18
 -1      2104 9.51781E-05-2.84172E-05-2.86123E-05-8.72580E-09-1.35840E-18 2.35755E-20
 -1      2105 9.51599E-05-2.83782E-05-2.86201E-05-1.60881E-09-2.69864E-18-1.73275E-19
 -1      2106 9.51893E-05-2.84386E-05-2.86075E-05-3.99123E-08-2.00384E-18-2.07313E-18
 -1      2107 9.51841E-05-2.84288E-05-2.86100E-05-3.21457E-08-1.41138E-18-1.95098E-18
 -1      2108 9.51650E-05-2.83866E-05-2.86187E-05-3.35209E-08-6.63486E-19-1.83005E-18
 -1      2109 9.52036E-05-2.84660E-05-2.86017E-05-5.09596E-08-1.55803E-18-1.53553E-18
 -1      2110 9.51964E-05-2.84526E-05-2.86050E-05-4.78976E-08-2.05321E-18-2.18461E-18
 -1      2111 9.51787E-05-2.84094E-05-2.86149E-05-5.77847E-08-1.22292E-18-1.85750E-18
 -1      2112 9.52204E-05-2.84987E-05-2.85947E-05-4.96780E-08 2.26675E-19 3.46841E-18
 -1      2113 9.52127E-05-2.84842E-05-2.85983E-05-5.22469E-08-7.62230E-19 1.38148E-18
 -1      2114 9.51984E-05-2.84428E-05-2.86092E-05-6.89431E-08 3.59997E-19 4.60599E-19
 -1      2115 9.52358E-05-2.85300E-05-2.85877E-05-3.58626E-08 2.96133E-19-1.23782E-19
 -1      2116 9.52295E-05-2.85178E-05-2.85910E-05-4.36127E-08 3.88356E-19 1.47474E-18
 -1      2117 9.52203E-05-2.84816E-05-2.86023E-05-6.41461E-08 1.39393E-18 2.64153E-18
 -1      2118 9.52451E-05-2.85555E-05-2.85813E-05-1.28414E-08-2.15939E-19-1.26353E-18
 -1      2119 9.52432E-05-2.85473E-05-2.85839E-05-2.40838E-08 2.08192E-20-1.57073E-18
 -1      2120 9.52393E-05-2.85187E-05-2.85946E-05-4.46334E-08 7.14664E-19-1.02479E-18
 -1      2121 5.31025E-05-3.81596E-05-7.04451E-06 3.91737E-05 6.06137E-18 6.27448E-18
 -1      2122 3.89768E-05-4.01680E-05-1.04356E-06 3.11571E-05 5.26092E-18 7.54431E-18
 -1      2123 1.20578E-05-3.38294E-05 7.89334E-06 6.53384E-06 2.09545E-18 8.52030E-18
 -1      2124 1.15751E-05-3.27512E-05 7.76964E-06-3.74951E-06-6.36863E-19 9.42409E-18
 -1      2125 2.60482E-05-3.50611E-05 2.78274E-06 2.61273E-05 4.43506E-18 8.04597E-18
 -1      2126 1.83717E-05-3.54519E-05 5.91641E-06 1.76621E-05 1.87067E-18 7.18411E-18
 -1      2127 9.47867E-05-4.58547E-05-2.12906E-05 4.19882E-05 4.52316E-18 2.50955E-18
 -1      2128 7.36845E-05-4.48241E-05-1.34256E-05 3.87914E-05 5.14445E-18 4.20859E-18
 -1      2129 1.31438E-04-3.99663E-05-3.84104E-05 3.75063E-05 6.68097E-18 3.83791E-18
 -1      2130 1.14014E-04-4.43155E-05-3.00169E-05 3.55088E-05 5.58576E-18 3.16917E-18
 -1      2131 8.73610E-05-8.65014E-06-3.38223E-05-1.01105E-05-2.23621E-18-4.15757E-18
 -1      2132 8.80777E-05-9.20917E-06-3.38862E-05-1.16879E-05-2.64402E-18-3.61535E-18
 -1      2133 9.05810E-05-1.30231E-05-3.33046E-05-1.14645E-05-2.85510E-18-3.11515E-18
 -1      2134 8.87157E-05-1.08811E-05-3.33798E-05-8.96740E-06-2.23959E-18-4.08846E-18
 -1      2135 1.76457E-04-2.81500E-05-6.22514E-05 1.02315E-05 6.73942E-18-1.17462E-18
 -1      2136 1.62213E-04-2.79673E-05-5.71969E-05 1.31197E-05 6.17911E-18-5.91653E-19
 -1      2137 1.75855E-04-2.15478E-05-6.54470E-05-6.58063E-07 6.74746E-18-3.43138E-18
 -1      2138 1.77173E-04-2.42261E-05-6.45572E-05 7.10026E-06 7.04308E-18-1.06133E-18
 -1      2139 1.56609E-04-1.69694E-05-5.88662E-05-1.51644E-06 6.99988E-18-3.57914E-18
 -1      2140 1.69505E-04-2.32376E-05-6.20816E-05-7.04890E-06 7.26288E-18-5.06865E-18
 -1      2141 1.72071E-04-2.11868E-05-6.40401E-05-1.18334E-06 6.73730E-18-4.10017E-18
 -1      2142 1.59690E-04-3.12002E-05-5.46017E-05-2.00940E-05 7.77216E-18-5.87036E-18
 -1      2143 1.72771E-04-3.04731E-05-6.00330E-05-1.41600E-05 7.55299E-18-4.60320E-18
 -1      2144 1.33910E-04-3.84115E-05-4.09895E-05-3.17472E-05 7.17903E-18-5.92288E-18
 -1      2145 1.52592E-04-3.76036E-05-4.84294E-05-2.88920E-05 7.10279E-18-5.61032E-18
 -1      2146 1.03178E-04-4.33771E-05-2.58984E-05-3.82590E-05 6.03257E-18-5.84326E-18
 -1      2147 1.21599E-04-3.98311E-05-3.43622E-05-4.04502E-05 6.92068E-18-5.97158E-18
 -1      2148 1.35906E-04-4.86831E-05-3.69118E-05-2.47410E-05 4.20848E-18-2.80156E-18
 -1      2149 6.20308E-05-4.32644E-05-9.38348E-06-3.70496E-05 4.59134E-18-7.36670E-18
 -1      2150 8.22739E-05-4.30809E-05-1.72914E-05-4.28695E-05 4.85773E-18-6.85228E-18
 -1      2151 3.09668E-05-3.95523E-05 2.06527E-06-2.71481E-05 3.31190E-18-6.81417E-18
 -1      2152 4.28835E-05-3.72405E-05-3.28626E-06-3.53969E-05 4.74931E-18-7.93246E-18
 -1      2153 1.39129E-05-3.40180E-05 7.25952E-06-1.10982E-05 1.20035E-18-6.50733E-18
 -1      2154 1.96180E-05-3.51808E-05 5.33066E-06-2.00032E-05 3.22084E-18-5.91314E-18
 -1      2155 1.50663E-05-3.59148E-05 7.35799E-06 1.16117E-05-1.18203E-18-6.99014E-18
 -1      2156 1.15261E-05-3.37014E-05 8.08859E-06 2.23730E-06 9.56141E-19-7.21714E-18
 -1      2157 3.46965E-05-3.65249E-05-2.45850E-07 3.07053E-05-2.53517E-18-7.22265E-18
 -1      2158 2.33297E-05-3.90164E-05 4.87638E-06 1.98825E-05-1.32434E-18-7.01174E-18
 -1      2159 2.22795E-05-2.89483E-05 2.16927E-06 2.09072E-05 1.40819E-19-7.91637E-18
 -1      2160 7.10087E-05-4.15764E-05-1.31773E-05 4.07771E-05-4.60108E-18-8.00700E-18
 -1      2161 5.54539E-05-4.27852E-05-6.43574E-06 3.63586E-05-3.08447E-18-7.49571E-18
 -1      2162 1.11179E-04-4.67914E-05-2.79505E-05 3.83617E-05-4.40457E-18-4.86409E-18
 -1      2163 8.86689E-05-4.52695E-05-1.96350E-05 3.71190E-05-4.67096E-18-7.07273E-18
 -1      2164 9.32639E-05-5.15314E-05-1.79392E-05 4.00086E-05-9.03361E-19-5.29978E-18
 -1      2165 1.49032E-04-4.12356E-05-4.51637E-05 3.08775E-05-7.27347E-18-5.32064E-18
 -1      2166 1.30317E-04-4.46887E-05-3.67536E-05 2.98122E-05-6.23014E-18-4.52400E-18
 -1      2167 1.70307E-04-3.44586E-05-5.75017E-05 1.34126E-05-8.10992E-18-1.93928E-18
 -1      2168 1.57527E-04-3.64975E-05-5.13458E-05 2.16716E-05-8.35630E-18-4.87637E-18
 -1      2169 1.53453E-04-4.39402E-05-4.61931E-05 9.80209E-06-5.78829E-18-1.35398E-18
 -1      2170 1.79847E-04-2.51968E-05-6.49215E-05 2.54495E-06-8.15100E-18-6.72121E-19
 -1      2171 1.70097E-04-2.54442E-05-6.14393E-05 6.01887E-06-8.62449E-18-1.96215E-18
 -1      2172 1.86507E-04-2.67286E-05-6.69767E-05-5.53353E-06-6.86605E-18 2.00556E-18
 -1      2173 1.85813E-04-2.55435E-05-6.74228E-05 2.31704E-06-7.53817E-18-5.92394E-20
 -1      2174 1.69717E-04-2.96202E-05-5.94418E-05-1.19764E-05-5.66263E-18 3.23482E-18
 -1      2175 1.83571E-04-2.97321E-05-6.42666E-05-8.35805E-06-5.99593E-18 2.50086E-18
 -1      2176 1.47809E-04-3.92961E-05-4.63469E-05-2.51729E-05-7.09454E-18 5.64971E-18
 -1      2177 1.64645E-04-3.81476E-05-5.34254E-05-1.95282E-05-5.68423E-18 4.78489E-18
 -1      2178 1.13301E-04-4.33912E-05-3.06426E-05-3.46307E-05-7.48989E-18 4.95768E-18
 -1      2179 1.35593E-04-4.23753E-05-3.93854E-05-3.58375E-05-7.77576E-18 5.39179E-18
 -1      2180 7.63342E-05-4.51725E-05-1.45414E-05-3.69219E-05-4.55492E-18 6.41373E-18
 -1      2181 9.65552E-05-4.33496E-05-2.27893E-05-4.18437E-05-5.83225E-18 5.44092E-18
 -1      2182 4.18030E-05-4.12170E-05-1.66003E-06-3.08743E-05-2.60081E-18 7.89985E-18
 -1      2183 5.64160E-05-3.93848E-05-7.85344E-06-3.84475E-05-4.10091E-18 8.09266E-18
 -1      2184 1.88803E-05-3.43673E-05 5.45205E-06-1.68601E-05-3.04932E-20 8.31109E-18
 -1      2185 2.72991E-05-3.54261E-05 2.43416E-06-2.54479E-05-2.59319E-18 8.27805E-18
 -1      2186 1.58091E-04-3.62249E-05-5.15765E-05 2.21069E-05 5.27368E-18 1.03380E-18
 -1      2187 1.42208E-04-3.71591E-05-4.47732E-05 2.86257E-05 6.08678E-18 3.22084E-18
 -1      2188 1.41903E-04-4.64614E-05-4.03836E-05 1.96285E-05 3.95046E-18-7.78423E-19
 -1      2189 1.10720E-04-5.08852E-05-2.56950E-05 3.57483E-05 3.52281E-18 1.66569E-18
 -1      2190 1.08552E-04-5.50558E-05-2.23609E-05 3.68266E-05 1.35631E-18-6.32892E-19
 -1      2191 1.25122E-04-5.63036E-05-3.01466E-05 2.83609E-05 1.85331E-18-2.09852E-18
 -1      2192 9.72404E-05-2.43298E-05-3.13188E-05-9.68212E-06-3.08365E-18 2.05188E-18
 -1      2193 1.55106E-04-3.25900E-05-5.18311E-05 5.45625E-06 5.30349E-18-2.54533E-18
 -1      2194 9.64715E-05-2.31158E-05-3.15031E-05-9.96912E-06-3.25658E-18 3.21343E-19
 -1      2195 3.94083E-05-3.46000E-05-2.59654E-06 3.53539E-05 5.75135E-19 7.23768E-18
 -1      2196 1.78003E-05-2.61428E-05 2.91207E-06 1.54837E-05 2.36428E-19 8.72190E-18
 -1      2197 9.52469E-05-2.85567E-05-2.85814E-05-7.81971E-09 9.67667E-19-5.50032E-19
 -1      2198 7.44488E-05-4.57604E-05-1.22758E-05 4.32098E-05 1.80884E-18 2.77435E-18
 -1      2199 1.83237E-05-2.59449E-05 2.69207E-06-1.34215E-05 1.75653E-19 9.65279E-18
 -1      2200 4.28544E-05-3.56645E-05-3.51737E-06-3.49561E-05 6.32945E-19 7.86682E-18
 -1      2201 7.98377E-05-4.87545E-05-1.35609E-05-4.12309E-05-2.11335E-19 4.93149E-18
 -1      2202 1.18147E-04-5.46621E-05-2.70909E-05-3.27800E-05-3.07727E-18 2.31473E-18
 -1      2203 1.46368E-04-4.88983E-05-4.11201E-05-1.70523E-05-5.22450E-18 2.50595E-18
 -1      2204 1.60266E-04-3.36578E-05-5.34101E-05-2.32065E-06-5.71006E-18 1.33789E-18
 -1      2205 1.64850E-04-1.86303E-05-6.13246E-05 1.63954E-06-6.66954E-18 4.77938E-19
 -1      2206 1.59276E-04-2.70142E-05-5.58677E-05-1.33626E-06-8.06799E-18-9.84888E-19
 -1      2207 1.27116E-04-5.13861E-05-3.23018E-05 2.93568E-05-4.00244E-18-3.65071E-18
 -1      2208 1.24669E-04-5.74581E-05-2.82291E-05 2.85778E-05-1.06620E-18-2.19720E-18
 -1      2209 1.39263E-04-5.66108E-05-3.61716E-05 1.78312E-05-2.55677E-18-1.42090E-18
 -1      2210 5.10322E-05-4.01448E-05-5.17147E-06 3.65279E-05-1.30951E-18-7.32514E-18
 -1      2211 4.73563E-05-3.47365E-05-5.07822E-06 3.73649E-05 7.76306E-19-6.74958E-18
 -1      2212 6.72587E-05-4.37155E-05-1.06465E-05 4.21173E-05 7.32472E-19-6.42178E-18
 -1      2213 1.48991E-05-2.58704E-05 3.98741E-06-5.49595E-06 4.60680E-19-7.48904E-18
 -1      2214 3.05081E-05-3.18249E-05-8.43906E-08-2.99034E-05 7.87529E-19-6.59500E-18
 -1      2215 1.00249E-04-4.90524E-05-2.20705E-05-3.87809E-05 3.58464E-18-4.89034E-18
 -1      2216 1.17302E-04-5.61249E-05-2.69025E-05-3.32306E-05 1.17547E-18-1.94013E-18
 -1      2217 9.91593E-05-5.28458E-05-1.92809E-05-4.04456E-05 4.55492E-19-3.18651E-18
 -1      2218 1.53425E-04-3.71254E-05-4.89978E-05-1.04654E-05 6.17106E-18-3.39914E-18
 -1      2219 1.53761E-04-1.21783E-05-5.99785E-05 1.17994E-06 7.40476E-18-4.59698E-18
 -1      2220 1.54776E-04-2.04612E-05-5.67412E-05 4.46557E-07 6.99819E-18-3.75109E-18
 -1      2221 6.32304E-05-4.27538E-05-8.96201E-06-4.23370E-05 1.20533E-18-6.52623E-18
 -1      2222 1.61377E-04-1.52326E-05-6.15630E-05-2.24851E-06-8.62110E-18-1.17102E-18
 -1      2223 9.54899E-05-2.63858E-05-2.95995E-05 3.70539E-06 2.44241E-18 1.45435E-18
 -1      2224 9.63752E-05-2.58639E-05-3.01453E-05 5.55617E-06 2.70069E-18 1.80809E-18
 -1      2225 8.79012E-05-1.07233E-05-3.31163E-05-3.37577E-06-6.68601E-19-4.59305E-18
 -1      2226 8.81818E-05-1.10318E-05-3.31001E-05-4.45393E-06-1.05534E-18-4.59935E-18
 -1      2227 8.85943E-05-1.15797E-05-3.30527E-05-5.40745E-06-1.34907E-18-4.46199E-18
 -1      2228 8.90563E-05-1.21003E-05-3.30247E-05-6.53843E-06-1.74904E-18-4.34948E-18
 -1      2229 8.96688E-05-1.33339E-05-3.27119E-05-4.47456E-06-1.10889E-18-4.23373E-18
 -1      2230 8.74753E-05-1.01919E-05-3.31550E-05 5.69481E-07 6.47279E-19-4.40900E-18
 -1      2231 8.74704E-05-1.01860E-05-3.31555E-05-4.62257E-07 2.87537E-19-4.49803E-18
 -1      2232 8.76982E-05-1.04551E-05-3.31375E-05 2.54499E-06 1.30768E-18-4.32853E-18
 -1      2233 8.75571E-05-1.03006E-05-3.31460E-05 1.49992E-06 9.30737E-19-4.36621E-18
 -1      2234 8.87177E-05-1.21281E-05-3.28247E-05 9.45139E-07 7.39030E-19-4.13965E-18
 -1      2235 8.82186E-05-1.10823E-05-3.30945E-05 4.53426E-06 1.87118E-18-4.10315E-18
 -1      2236 8.79340E-05-1.07682E-05-3.31114E-05 3.47168E-06 1.52015E-18-4.30141E-18
 -1      2237 8.90460E-05-1.25440E-05-3.27861E-05 2.73721E-06 1.33171E-18-4.02646E-18
 -1      2238 8.91121E-05-1.21769E-05-3.30163E-05 6.61843E-06 2.62668E-18-3.51034E-18
 -1      2239 8.86387E-05-1.16416E-05-3.30455E-05 5.48954E-06 2.20368E-18-3.81906E-18
 -1      2240 8.97129E-05-1.33983E-05-3.27036E-05 4.54489E-06 1.99265E-18-3.65055E-18
 -1      2241 9.04945E-05-1.39098E-05-3.28843E-05 8.71438E-06 3.13846E-18-2.83489E-18
 -1      2242 8.97637E-05-1.30479E-05-3.29333E-05 7.55533E-06 2.81257E-18-3.29307E-18
 -1      2243 9.07834E-05-1.47950E-05-3.25585E-05 6.34197E-06 2.61474E-18-3.16036E-18
 -1      2244 9.25700E-05-1.65947E-05-3.26596E-05 1.06012E-05 3.59018E-18-1.57260E-18
 -1      2245 9.14626E-05-1.52110E-05-3.27409E-05 9.51787E-06 3.24450E-18-2.22868E-18
 -1      2246 9.23341E-05-1.68923E-05-3.23111E-05 7.95067E-06 2.98738E-18-2.28563E-18
 -1      2247 9.46968E-05-2.71388E-05-2.89323E-05 1.13064E-06 2.00254E-18 1.01396E-18
 -1      2248 9.51793E-05-2.69007E-05-2.91904E-05 2.17549E-06 2.20422E-18 1.37605E-18
 -1      2249 9.56227E-05-2.58113E-05-2.99294E-05 3.72960E-06 2.55349E-18 2.80838E-19
 -1      2250 9.61248E-05-2.50552E-05-3.04098E-05-5.63877E-06-2.60743E-18-4.20638E-19
 -1      2251 9.55470E-05-2.58095E-05-2.98997E-05-3.66743E-06-2.32169E-18-5.71122E-19
 -1      2252 1.48562E-04-2.86522E-05-5.18704E-05-3.65305E-06 5.51821E-18-4.58584E-18
 -1      2253 1.46977E-04-3.77044E-05-4.68832E-05 1.34900E-06 4.19398E-18-3.19882E-18
 -1      2254 9.54840E-05-2.64764E-05-2.95176E-05-2.22717E-06-2.11023E-18-5.08551E-19
 -1      2255 9.51277E-05-2.68482E-05-2.92570E-05-1.06443E-06-1.86359E-18-8.01349E-19
 -1      2256 9.56019E-05-2.52341E-05-3.01627E-05-3.53548E-06-2.31744E-18-1.20419E-18
 -1      2257 9.50045E-05-2.71615E-05-2.90373E-05-7.72876E-08-1.67246E-18-7.17661E-19
 -1      2258 9.48957E-05-2.73801E-05-2.89260E-05 6.65802E-07-1.46512E-18-9.39171E-19
 -1      2259 9.54219E-05-2.65243E-05-2.95427E-05-9.11015E-07-1.89428E-18-1.24655E-18
 -1      2260 9.48434E-05-2.75448E-05-2.88197E-05 1.35763E-06-1.31230E-18-8.94086E-19
 -1      2261 9.49415E-05-2.77010E-05-2.88064E-05 1.87536E-06-1.02397E-18-1.07694E-18
 -1      2262 9.52813E-05-2.71929E-05-2.91961E-05 9.09395E-07-1.49521E-18-1.31535E-18
 -1      2263 9.49806E-05-2.77956E-05-2.87811E-05 2.39672E-06-9.39446E-19-1.18011E-18
 -1      2264 9.52423E-05-2.79260E-05-2.88373E-05 2.80257E-06-8.33028E-19-1.34987E-18
 -1      2265 9.52956E-05-2.75599E-05-2.90429E-05 2.22728E-06-1.19986E-18-1.38592E-18
 -1      2266 9.53673E-05-2.79851E-05-2.88718E-05 3.24125E-06-7.95682E-19-1.36273E-18
 -1      2267 9.57638E-05-2.81079E-05-2.89811E-05 3.60590E-06-6.98442E-19-1.46286E-18
 -1      2268 9.54779E-05-2.77666E-05-2.90299E-05 3.26840E-06-9.01216E-19-1.58606E-18
 -1      2269 9.59646E-05-2.81502E-05-2.90609E-05 4.02213E-06-5.89463E-19-1.55272E-18
 -1      2270 9.64816E-05-2.82792E-05-2.92137E-05 4.39041E-06-6.60120E-19-1.46255E-18
 -1      2271 9.58145E-05-2.78852E-05-2.91213E-05 4.18958E-06-6.90769E-19-1.74001E-18
 -1      2272 9.67524E-05-2.83195E-05-2.93284E-05 4.82363E-06-8.50338E-19-1.17949E-18
 -1      2273 9.73866E-05-2.84704E-05-2.95182E-05 5.22064E-06-7.18209E-19-1.23335E-18
 -1      2274 9.62921E-05-2.79628E-05-2.92911E-05 5.09688E-06-6.77456E-19-1.56292E-18
 -1      2275 9.77289E-05-2.85272E-05-2.96591E-05 5.69145E-06-6.21807E-19-1.38588E-18
 -1      2276 9.84854E-05-2.87224E-05-2.98805E-05 6.12209E-06-3.16418E-19-1.43609E-18
 -1      2277 9.69080E-05-2.80452E-05-2.95188E-05 6.05467E-06-8.06712E-19-1.32434E-18
 -1      2278 9.89123E-05-2.88251E-05-3.00385E-05 6.62966E-06 6.46710E-20-1.29380E-18
 -1      2279 9.98023E-05-2.90989E-05-3.02848E-05 7.07246E-06 1.75063E-19-1.31797E-18
 -1      2280 9.76782E-05-2.81940E-05-2.97850E-05 7.08559E-06-2.13648E-19-1.44985E-18
 -1      2281 1.00346E-04-2.92958E-05-3.04493E-05 7.58707E-06 1.84838E-19-1.12507E-18
 -1      2282 1.01385E-04-2.97004E-05-3.07096E-05 7.98276E-06 3.87713E-19-7.98805E-19
 -1      2283 9.86481E-05-2.85058E-05-3.00685E-05 8.16160E-06 3.33687E-19-1.46559E-18
 -1      2284 1.02106E-04-3.00686E-05-3.08683E-05 8.43258E-06 3.37324E-19-9.27656E-19
 -1      2285 1.03314E-04-3.06778E-05-3.11270E-05 8.66815E-06 3.25576E-19-1.13099E-18
 -1      2286 9.99106E-05-2.91331E-05-3.03450E-05 9.18514E-06 3.34001E-19-1.59873E-18
 -1      2287 1.04320E-04-3.13288E-05-3.12680E-05 8.91948E-06 2.39860E-19-1.00304E-18
 -1      2288 1.05712E-04-3.22307E-05-3.15054E-05 8.81279E-06 1.32507E-19-7.49695E-19
 -1      2289 1.01631E-04-3.03022E-05-3.05902E-05 9.95907E-06 2.79354E-19-1.72130E-18
 -1      2290 1.07154E-04-3.32955E-05-3.16258E-05 8.64555E-06 1.18250E-19-3.34480E-19
 -1      2291 1.08721E-04-3.45508E-05-3.18250E-05 7.94462E-06 3.59165E-19-4.12118E-20
 -1      2292 1.04067E-04-3.23030E-05-3.07919E-05 1.01450E-05 4.95113E-19-6.16062E-19
 -1      2293 1.10759E-04-3.61090E-05-3.19468E-05 7.03652E-06 4.46206E-19 3.25550E-19
 -1      2294 1.12402E-04-3.76378E-05-3.21103E-05 5.46830E-06 5.54744E-19 4.22692E-19
 -1      2295 1.07540E-04-3.53905E-05-3.09765E-05 9.21867E-06 4.21590E-19 2.04666E-19
 -1      2296 1.15065E-04-3.95362E-05-3.23100E-05 3.42880E-06 9.69892E-19 2.94541E-19
 -1      2297 1.16471E-04-4.08875E-05-3.24827E-05 8.55683E-07 1.14778E-18 8.93805E-19
 -1      2298 1.12266E-04-3.94899E-05-3.12591E-05 6.47209E-06 8.18707E-19 9.12822E-19
 -1      2299 1.19347E-04-4.24533E-05-3.29104E-05-2.49917E-06 9.32663E-19 1.52776E-18
 -1      2300 1.19948E-04-4.26952E-05-3.31923E-05-5.73878E-06 3.26617E-19 1.47697E-18
 -1      2301 1.17920E-04-4.36153E-05-3.19058E-05 1.18918E-06 1.35894E-18 1.12716E-18
 -1      2302 1.21873E-04-4.25666E-05-3.40508E-05-9.85967E-06-1.43071E-19 2.24212E-18
 -1      2303 1.21005E-04-4.04665E-05-3.45456E-05-1.25310E-05-6.61467E-19 2.33530E-18
 -1      2304 1.22951E-04-4.51720E-05-3.33404E-05-6.46968E-06 4.59395E-19 2.69069E-18
 -1      2305 1.20524E-04-3.73663E-05-3.58613E-05-1.51424E-05-1.13437E-18 2.06038E-18
 -1      2306 1.18274E-04-3.29674E-05-3.65326E-05-1.51120E-05-1.29874E-18 1.75171E-18
 -1      2307 1.24526E-04-4.08751E-05-3.58667E-05-1.41181E-05-8.44412E-19 3.79357E-18
 -1      2308 1.15815E-04-2.81660E-05-3.79070E-05-1.32895E-05-2.14966E-18 9.67676E-19
 -1      2309 1.13494E-04-2.40528E-05-3.84501E-05-9.52308E-06-2.48075E-18 3.85612E-19
 -1      2310 1.21524E-04-3.08905E-05-3.89206E-05-1.57283E-05-2.37032E-18 2.33180E-18
 -1      2311 1.12329E-04-2.16615E-05-3.90330E-05-2.75699E-06-2.70156E-18-1.16282E-18
 -1      2312 1.12313E-04-2.15833E-05-3.90435E-05 2.83220E-06-2.97261E-18-1.85942E-18
 -1      2313 1.17021E-04-2.10168E-05-4.13484E-05-6.57093E-06-3.44149E-18-5.86531E-19
 -1      2314 1.13445E-04-2.40771E-05-3.84516E-05 9.87466E-06-3.57829E-18-3.27484E-18
 -1      2315 1.15951E-04-2.82883E-05-3.79009E-05 1.34910E-05-2.92030E-18-3.78511E-18
 -1      2316 1.16838E-04-2.06309E-05-4.13967E-05 6.72996E-06-4.21732E-18-2.67206E-18
 -1      2317 1.18356E-04-3.30702E-05-3.65287E-05 1.52991E-05-2.02351E-18-4.10896E-18
 -1      2318 1.20676E-04-3.74824E-05-3.58684E-05 1.52504E-05-9.19759E-19-4.34892E-18
 -1      2319 1.21688E-04-3.07288E-05-3.90475E-05 1.57741E-05-2.81554E-18-4.04786E-18
 -1      2320 1.21075E-04-4.05033E-05-3.45644E-05 1.26080E-05-1.06640E-19-4.04929E-18
 -1      2321 1.21954E-04-4.25767E-05-3.40791E-05 9.94450E-06 4.10300E-19-4.01732E-18
 -1      2322 1.24650E-04-4.10008E-05-3.58601E-05 1.41214E-05-3.61048E-19-4.03847E-18
 -1      2323 1.20035E-04-4.26845E-05-3.32396E-05 5.86857E-06 5.61768E-19-3.92940E-18
 -1      2324 1.19455E-04-4.24406E-05-3.29708E-05 2.65196E-06 8.40991E-19-3.64030E-18
 -1      2325 1.22963E-04-4.51465E-05-3.33653E-05 6.59806E-06 5.35758E-19-4.24072E-18
 -1      2326 1.16607E-04-4.08671E-05-3.25558E-05-6.75629E-07 2.52661E-19-3.79453E-18
 -1      2327 1.15223E-04-3.95029E-05-3.23961E-05-3.21030E-06 3.90222E-19-3.56138E-18
 -1      2328 1.17978E-04-4.35291E-05-3.19682E-05-1.01035E-06 3.59240E-19-3.56003E-18
 -1      2329 1.12591E-04-3.76044E-05-3.22074E-05-5.19635E-06 7.56215E-19-2.85930E-18
 -1      2330 1.10994E-04-3.60863E-05-3.20575E-05-6.71872E-06 1.29403E-18-2.42759E-18
 -1      2331 1.12378E-04-3.94044E-05-3.13453E-05-6.18241E-06 9.31520E-19-2.08830E-18
 -1      2332 1.08987E-04-3.45330E-05-3.19472E-05-7.57418E-06 1.16267E-18-2.95203E-18
 -1      2333 1.07476E-04-3.32905E-05-3.17647E-05-8.22355E-06 1.24534E-18-2.64565E-18
 -1      2334 1.07710E-04-3.53129E-05-3.10828E-05-8.82676E-06 9.21797E-19-1.48437E-18
 -1      2335 1.06069E-04-3.22312E-05-3.16584E-05-8.33205E-06 1.50407E-18-1.90552E-18
 -1      2336 1.04745E-04-3.13452E-05-3.14415E-05-8.38194E-06 1.66747E-18-5.31212E-19
 -1      2337 1.04302E-04-3.22340E-05-3.09220E-05-9.63628E-06 2.01746E-18-1.36982E-18
 -1      2338 1.03779E-04-3.07010E-05-3.13165E-05-8.06685E-06 1.18468E-18-9.18558E-19
 -1      2339 1.02653E-04-3.01121E-05-3.10819E-05-7.77002E-06 9.76685E-19-7.49872E-19
 -1      2340 1.01941E-04-3.02438E-05-3.07480E-05-9.32241E-06 1.15174E-18-1.28093E-18
 -1      2341 1.01975E-04-2.97528E-05-3.09403E-05-7.25314E-06 7.09934E-19-6.66117E-19
 -1      2342 1.01030E-04-2.93744E-05-3.07071E-05-6.79371E-06 4.13250E-19-2.22942E-19
 -1      2343 1.00305E-04-2.90895E-05-3.05324E-05-8.41254E-06 8.30216E-19-2.47031E-18
 -1      2344 1.00533E-04-2.91899E-05-3.05594E-05-6.21213E-06 5.33412E-19 1.45765E-19
 -1      2345 9.97492E-05-2.89496E-05-3.03422E-05-5.70689E-06 4.19797E-19 2.18530E-19
 -1      2346 9.91334E-05-2.84846E-05-3.02853E-05-7.25090E-06 9.00214E-19-5.51599E-19
 -1      2347 9.93682E-05-2.88645E-05-3.01987E-05-5.13861E-06-3.29845E-19 1.78524E-19
 -1      2348 9.87257E-05-2.87120E-05-3.00061E-05-4.65343E-06-1.95060E-19 3.07427E-19
 -1      2349 9.82589E-05-2.82072E-05-3.00273E-05-6.04521E-06 7.63827E-20 4.97933E-19
 -1      2350 9.84248E-05-2.86799E-05-2.98744E-05-4.13822E-06-6.41306E-19-1.42090E-19
 -1      2351 9.79051E-05-2.85827E-05-2.97099E-05-3.70523E-06-9.69747E-19-8.87795E-20
 -1      2352 9.75812E-05-2.81110E-05-2.97773E-05-4.91078E-06-6.04949E-19-2.52569E-19
 -1      2353 9.76638E-05-2.85773E-05-2.95940E-05-3.25958E-06-9.18397E-19 1.00984E-19
 -1      2354 9.72496E-05-2.85155E-05-2.94577E-05-2.89054E-06-7.23355E-19-3.93655E-19
 -1      2355 9.70440E-05-2.81077E-05-2.95481E-05-3.90362E-06-4.13352E-19-3.59550E-19
 -1      2356 9.70558E-05-2.85225E-05-2.93590E-05-2.51745E-06-1.14447E-18-9.78682E-19
 -1      2357 9.67308E-05-2.84835E-05-2.92489E-05-2.21277E-06-7.88963E-19-1.53668E-18
 -1      2358 9.66145E-05-2.81474E-05-2.93467E-05-3.04360E-06-1.00795E-18-1.02563E-18
 -1      2359 9.65763E-05-2.84956E-05-2.91672E-05-1.90804E-06 2.73448E-19-1.95344E-18
 -1      2360 9.63255E-05-2.84718E-05-2.90800E-05-1.66244E-06 6.38137E-19-8.38221E-19
 -1      2361 9.62719E-05-2.82035E-05-2.91756E-05-2.32987E-06-3.37572E-19-4.10202E-19
 -1      2362 9.62038E-05-2.84852E-05-2.90140E-05-1.41848E-06 6.93181E-19-9.22275E-19
 -1      2363 9.60136E-05-2.84716E-05-2.89464E-05-1.22430E-06 4.96045E-19 1.47427E-19
 -1      2364 9.60012E-05-2.82623E-05-2.90339E-05-1.75068E-06 6.70907E-19-3.68818E-19
 -1      2365 9.59192E-05-2.84845E-05-2.88940E-05-1.03233E-06-4.08565E-20 8.55767E-19
 -1      2366 9.57778E-05-2.84778E-05-2.88426E-05-8.81332E-07 7.27430E-19 1.24400E-18
 -1      2367 9.57902E-05-2.83176E-05-2.89194E-05-1.28940E-06 6.40889E-19 4.44923E-19
 -1      2368 9.57059E-05-2.84895E-05-2.88019E-05-7.32631E-07 7.10403E-20 8.09416E-19
 -1      2369 9.56030E-05-2.84873E-05-2.87636E-05-6.17010E-07 4.10197E-20 1.00080E-18
 -1      2370 9.56284E-05-2.83665E-05-2.88287E-05-9.28087E-07 3.06756E-19 1.15045E-18
 -1      2371 9.55492E-05-2.84976E-05-2.87325E-05-5.03581E-07 1.12319E-18-2.90218E-20
 -1      2372 9.54762E-05-2.84983E-05-2.87045E-05-4.16371E-07 6.22855E-19-2.03237E-19
 -1      2373 9.55066E-05-2.84084E-05-2.87582E-05-6.49485E-07 1.94139E-21 2.20783E-19
 -1      2374 9.54368E-05-2.85071E-05-2.86812E-05-3.31205E-07-4.00055E-19 2.38472E-19
 -1      2375 9.53866E-05-2.85097E-05-2.86613E-05-2.66474E-07-4.68263E-19 1.05226E-18
 -1      2376 9.54168E-05-2.84434E-05-2.87043E-05-4.38042E-07 3.92821E-19-2.43441E-18
 -1      2377 9.53583E-05-2.85171E-05-2.86441E-05-2.03698E-07-8.38471E-20 6.94097E-19
 -1      2378 9.53251E-05-2.85209E-05-2.86302E-05-1.56743E-07 4.22695E-19 1.17879E-18
 -1      2379 9.53518E-05-2.84724E-05-2.86637E-05-2.80279E-07-5.17149E-19 2.21532E-19
 -1      2380 9.53051E-05-2.85278E-05-2.86174E-05-1.11580E-07 1.26878E-18 1.40867E-18
 -1      2381 9.52845E-05-2.85322E-05-2.86078E-05-7.91699E-08 2.10407E-18 2.04951E-18
 -1      2382 9.53055E-05-2.84963E-05-2.86333E-05-1.65221E-07 1.18468E-18 3.53290E-19
 -1      2383 9.43792E-05-2.77929E-05-2.85229E-05-1.52091E-06 1.07049E-18 1.91440E-19
 -1      2384 9.42540E-05-2.76503E-05-2.85187E-05-1.10388E-06 1.26021E-18 6.04858E-19
 -1      2385 9.47517E-05-2.80346E-05-2.85803E-05-2.26739E-06 1.32904E-18-3.22485E-19
 -1      2386 9.44438E-05-2.78883E-05-2.85090E-05-1.96453E-06 1.17552E-18 9.24358E-20
 -1      2387 9.49416E-05-2.77710E-05-2.88021E-05-1.87331E-06 1.39078E-18-2.92389E-19
 -1      2388 9.53853E-05-2.82844E-05-2.87454E-05-2.85213E-06 1.02397E-18-5.52518E-19
 -1      2389 9.49382E-05-2.81249E-05-2.86256E-05-2.60639E-06 1.21789E-18-4.29488E-19
 -1      2390 9.52132E-05-2.80183E-05-2.88099E-05-2.74168E-06 1.39858E-18-6.34151E-19
 -1      2391 9.62355E-05-2.85640E-05-2.89905E-05-3.35639E-06 7.21373E-19-8.17073E-19
 -1      2392 9.56745E-05-2.83834E-05-2.88338E-05-3.13765E-06 7.57062E-19-6.33443E-19
 -1      2393 9.56986E-05-2.82408E-05-2.89204E-05-3.43652E-06 1.00164E-18-9.31769E-19
 -1      2394 9.72764E-05-2.88944E-05-2.92962E-05-3.81592E-06 2.94870E-19-5.50114E-19
 -1      2395 9.66159E-05-2.86833E-05-2.91107E-05-3.61426E-06 6.08835E-19-5.95520E-19
 -1      2396 9.63717E-05-2.84787E-05-2.91055E-05-4.04075E-06 5.77829E-19-8.58218E-19
 -1      2397 9.84930E-05-2.93010E-05-2.96457E-05-4.22511E-06 2.17360E-19-4.95871E-19
 -1      2398 9.77439E-05-2.90475E-05-2.94389E-05-4.04991E-06 2.65084E-19-6.53038E-19
 -1      2399 9.72210E-05-2.87702E-05-2.93438E-05-4.58743E-06 3.49654E-19-7.08294E-19
 -1      2400 9.98734E-05-2.98149E-05-3.00215E-05-4.53418E-06 1.84870E-19-4.39212E-19
 -1      2401 9.90496E-05-2.95057E-05-2.98024E-05-4.41622E-06 3.08562E-19-3.80487E-19
 -1      2402 9.82481E-05-2.91596E-05-2.96168E-05-5.06237E-06 3.32366E-19-7.08656E-19
 -1      2403 1.01399E-04-3.04706E-05-3.04016E-05-4.64348E-06 4.99109E-19-2.98457E-19
 -1      2404 1.00525E-04-3.00931E-05-3.01827E-05-4.63770E-06 1.45764E-19-1.71150E-19
 -1      2405 9.94647E-05-2.97014E-05-2.99062E-05-5.40043E-06 9.96319E-20-3.61888E-19
 -1      2406 1.03032E-04-3.12965E-05-3.07584E-05-4.40045E-06 3.57954E-19 2.45630E-19
 -1      2407 1.02152E-04-3.08457E-05-3.05567E-05-4.58601E-06 6.41869E-19 1.41459E-19
 -1      2408 1.00888E-04-3.04565E-05-3.01929E-05-5.47953E-06 2.35459E-19-7.60042E-20
 -1      2409 1.04701E-04-3.22922E-05-3.10602E-05-3.60932E-06 1.07418E-19 4.62168E-19
 -1      2410 1.03886E-04-3.17844E-05-3.08970E-05-4.08106E-06 3.44742E-19 5.20861E-19
 -1      2411 1.02527E-04-3.14775E-05-3.04585E-05-5.11837E-06 1.51381E-19 3.87423E-19
 -1      2412 1.06269E-04-3.33861E-05-3.12777E-05-2.07116E-06 3.78524E-19 5.88659E-19
 -1      2413 1.05630E-04-3.28808E-05-3.11747E-05-2.91288E-06 2.10671E-19 6.51128E-19
 -1      2414 1.04362E-04-3.27708E-05-3.06898E-05-4.08990E-06 1.15121E-19 6.61825E-19
 -1      2415 1.07509E-04-3.43744E-05-3.13950E-05 3.22767E-07 3.02239E-19 1.08477E-18
 -1      2416 1.07197E-04-3.40017E-05-3.13682E-05-9.07266E-07 6.47179E-19 1.08883E-18
 -1      2417 1.06291E-04-3.42267E-05-3.08879E-05-2.17181E-06 1.20983E-20 1.23208E-18
 -1      2418 1.08085E-04-3.48725E-05-3.14240E-05 3.42976E-06-2.78356E-19 1.04751E-18
 -1      2419 1.08269E-04-3.48429E-05-3.14743E-05 1.94095E-06 4.03135E-20 1.21515E-18
 -1      2420 1.08060E-04-3.55280E-05-3.10776E-05 7.36389E-07 2.43626E-19 2.03415E-18
 -1      2421 1.07606E-04-3.43651E-05-3.14117E-05 6.65555E-06-4.30524E-19 8.26638E-19
 -1      2422 1.08410E-04-3.49138E-05-3.15178E-05 5.26502E-06-3.55562E-19 1.00907E-18
 -1      2423 1.09210E-04-3.60910E-05-3.13110E-05 4.40902E-06-3.03607E-19 1.97811E-18
 -1      2424 1.05852E-04-3.24825E-05-3.14243E-05 8.86714E-06-3.73120E-19 4.52256E-19
 -1      2425 1.07222E-04-3.36994E-05-3.15474E-05 8.14556E-06-7.78946E-19 6.80684E-19
 -1      2426 1.09151E-04-3.52011E-05-3.16510E-05 8.04089E-06-5.91495E-19 1.74529E-18
 -1      2427 1.03132E-04-2.94857E-05-3.15043E-05 8.69775E-06 2.06732E-19 3.39869E-19
 -1      2428 1.04720E-04-3.10894E-05-3.16034E-05 9.21003E-06 1.68834E-19 4.26044E-19
 -1      2429 1.07522E-04-3.24860E-05-3.21219E-05 1.01781E-05-7.21752E-20 1.56092E-18
 -1      2430 1.00545E-04-2.66088E-05-3.16255E-05 5.39361E-06 1.52294E-18-4.06066E-19
 -1      2431 1.01721E-04-2.78797E-05-3.16811E-05 7.27376E-06 7.14300E-19-4.20390E-19
 -1      2432 1.04748E-04-2.85792E-05-3.26450E-05 9.20131E-06 1.01933E-18 1.03598E-19
 -1      2433 9.95019E-05-2.54448E-05-3.17107E-05-1.63707E-07 6.66039E-19-1.37905E-19
 -1      2434 9.97357E-05-2.57016E-05-3.17187E-05 2.47543E-06 1.47338E-18-9.39330E-20
 -1      2435 1.02335E-04-2.53695E-05-3.30353E-05 4.59999E-06 1.15335E-18-5.83315E-19
 -1      2436 1.00749E-04-2.67929E-05-3.17093E-05-5.70764E-06-2.12142E-19-7.87211E-19
 -1      2437 9.98953E-05-2.58544E-05-3.16691E-05-3.41375E-06 3.87941E-19-7.85639E-19
 -1      2438 1.01851E-04-2.47174E-05-3.31084E-05-2.10844E-06 5.32244E-19-7.20295E-19
 -1      2439 1.03564E-04-2.97957E-05-3.16564E-05-8.91969E-06-4.05223E-19-2.25731E-18
 -1      2440 1.02046E-04-2.82301E-05-3.15649E-05-7.83066E-06-1.80104E-19-1.40884E-18
 -1      2441 1.03679E-04-2.70979E-05-3.28351E-05-7.85737E-06 3.72279E-19-9.43804E-19
 -1      2442 1.06452E-04-3.27941E-05-3.16054E-05-9.00513E-06-2.83239E-19-3.34924E-18
 -1      2443 1.04910E-04-3.13702E-05-3.14788E-05-9.25682E-06-5.51476E-19-3.08521E-18
 -1      2444 1.06544E-04-3.09755E-05-3.23590E-05-1.03508E-05 1.03032E-19-3.07394E-18
 -1      2445 1.08265E-04-3.46072E-05-3.15871E-05-6.72887E-06 8.18181E-20-2.81716E-18
 -1      2446 1.07173E-04-3.37865E-05-3.14583E-05-7.87919E-06-7.72554E-20-3.58414E-18
 -1      2447 1.08774E-04-3.43108E-05-3.18682E-05-9.34002E-06 6.88115E-20-3.71335E-18
 -1      2448 1.08685E-04-3.50119E-05-3.15792E-05-3.49495E-06-2.33146E-19-2.67926E-18
 -1      2449 1.08211E-04-3.48287E-05-3.14896E-05-4.94016E-06 9.86727E-20-2.77399E-18
 -1      2450 1.09497E-04-3.59433E-05-3.14931E-05-6.15529E-06 1.38937E-19-4.11179E-18
 -1      2451 1.08012E-04-3.44319E-05-3.15308E-05-4.47811E-07-8.32269E-19-7.19545E-19
 -1      2452 1.08085E-04-3.46803E-05-3.15097E-05-1.74497E-06-6.71452E-19-1.56888E-18
 -1      2453 1.08813E-04-3.58812E-05-3.12459E-05-2.43084E-06-1.10693E-18-3.05389E-18
 -1      2454 1.06699E-04-3.33992E-05-3.14078E-05 1.83777E-06-5.64217E-19 8.65682E-19
 -1      2455 1.07156E-04-3.38499E-05-3.14619E-05 8.95968E-07-4.94740E-19-2.01948E-20
 -1      2456 1.07294E-04-3.47991E-05-3.10719E-05 7.57367E-07-1.61256E-18-1.22238E-18
 -1      2457 1.05120E-04-3.22977E-05-3.12034E-05 3.24023E-06 4.31563E-19-4.13589E-19
 -1      2458 1.05796E-04-3.27891E-05-3.13211E-05 2.68294E-06 3.57597E-19 1.19451E-18
 -1      2459 1.05469E-04-3.33612E-05-3.09122E-05 2.97903E-06-6.37566E-20-4.16560E-20
 -1      2460 1.03514E-04-3.13243E-05-3.09335E-05 3.88578E-06 6.77621E-19-7.31684E-19
 -1      2461 1.04281E-04-3.17719E-05-3.10940E-05 3.64847E-06 4.21027E-19-3.35094E-19
 -1      2462 1.03675E-04-3.19932E-05-3.07304E-05 4.23187E-06 4.27914E-19-4.92208E-19
 -1      2463 1.02011E-04-3.05429E-05-3.06253E-05 3.98340E-06-2.63442E-19-6.53384E-19
 -1      2464 1.02781E-04-3.09157E-05-3.08065E-05 3.97288E-06 2.14561E-19-4.51917E-19
 -1      2465 1.02065E-04-3.08796E-05-3.05168E-05 4.71064E-06 4.10122E-19-7.96070E-20
 -1      2466 1.00672E-04-2.99496E-05-3.03061E-05 3.73504E-06 3.47529E-19 2.46815E-19
 -1      2467 1.01389E-04-3.02444E-05-3.04896E-05 3.86419E-06-2.02054E-19-3.78272E-19
 -1      2468 1.00685E-04-3.00518E-05-3.02788E-05 4.65369E-06-2.51464E-19 4.91968E-20
 -1      2469 9.95165E-05-2.95138E-05-2.99983E-05 3.30084E-06 1.63770E-18 3.05038E-19
 -1      2470 1.00152E-04-2.97397E-05-3.01711E-05 3.50193E-06 1.41176E-18 5.94645E-19
 -1      2471 9.95302E-05-2.94727E-05-3.00311E-05 4.27215E-06 8.37208E-19 8.66324E-19
 -1      2472 9.85456E-05-2.92004E-05-2.97168E-05 2.79326E-06 4.41826E-19 4.11168E-19
 -1      2473 9.90887E-05-2.93698E-05-2.98711E-05 3.01959E-06 9.06450E-19 6.07314E-19
 -1      2474 9.85785E-05-2.90850E-05-2.97885E-05 3.72662E-06 1.29052E-18 1.34850E-18
 -1      2475 9.77475E-05-2.89787E-05-2.94700E-05 2.28390E-06-1.06400E-19 2.17000E-18
 -1      2476 9.81972E-05-2.91034E-05-2.96024E-05 2.50638E-06 5.67439E-19 1.31837E-18
 -1      2477 9.78031E-05-2.88348E-05-2.95628E-05 3.12716E-06-1.82859E-19 1.12100E-18
 -1      2478 9.71047E-05-2.88241E-05-2.92610E-05 1.81374E-06 2.92020E-20 8.54930E-19
 -1      2479 9.74673E-05-2.89143E-05-2.93709E-05 2.01622E-06-9.01908E-20 1.83509E-18
 -1      2480 9.71787E-05-2.86790E-05-2.93614E-05 2.54257E-06 3.76550E-19 1.83856E-18
 -1      2481 9.65972E-05-2.87181E-05-2.90892E-05 1.40266E-06-8.04916E-19 7.11175E-19
 -1      2482 9.68825E-05-2.87820E-05-2.91778E-05 1.57778E-06-1.02219E-19 6.15038E-19
 -1      2483 9.66821E-05-2.85863E-05-2.91878E-05 2.01125E-06 7.61004E-20 1.30927E-18
 -1      2484 9.62043E-05-2.86470E-05-2.89515E-05 1.05702E-06-1.34349E-18-5.38444E-20
 -1      2485 9.64237E-05-2.86913E-05-2.90211E-05 1.20294E-06-1.78201E-18 4.10169E-19
 -1      2486 9.62929E-05-2.85347E-05-2.90426E-05 1.55092E-06-8.74515E-19 8.57171E-19
 -1      2487 9.59065E-05-2.86008E-05-2.88439E-05 7.75116E-07-2.97158E-19 5.74725E-19
 -1      2488 9.60711E-05-2.86305E-05-2.88972E-05 8.93199E-07-6.60305E-19 1.89984E-19
 -1      2489 9.59925E-05-2.85092E-05-2.89243E-05 1.16606E-06-1.03849E-18-6.93013E-19
 -1      2490 9.56857E-05-2.85722E-05-2.87618E-05 5.50938E-07 4.10261E-19 1.08173E-18
 -1      2491 9.58061E-05-2.85913E-05-2.88016E-05 6.44183E-07 1.60879E-19 1.04811E-18
 -1      2492 9.57646E-05-2.84998E-05-2.88302E-05 8.53314E-07-6.90529E-19 6.01284E-19
 -1      2493 9.55263E-05-2.85559E-05-2.87006E-05 3.76582E-07 1.88341E-18 1.41873E-18
 -1      2494 9.56116E-05-2.85673E-05-2.87296E-05 4.48644E-07 1.32378E-18 1.45545E-18
 -1      2495 9.55951E-05-2.85000E-05-2.87571E-05 6.05257E-07 8.29311E-19 5.57791E-19
 -1      2496 9.54145E-05-2.85479E-05-2.86563E-05 2.43745E-07 1.90029E-18 2.46319E-18
 -1      2497 9.54728E-05-2.85539E-05-2.86767E-05 2.98337E-07 2.05397E-18 2.50880E-18
 -1      2498 9.54718E-05-2.85055E-05-2.87015E-05 4.12775E-07 1.39107E-18 1.70889E-18
 -1      2499 9.53390E-05-2.85455E-05-2.86251E-05 1.44730E-07 1.87794E-18 1.75861E-18
 -1      2500 9.53768E-05-2.85477E-05-2.86389E-05 1.85184E-07 1.73596E-18 3.00672E-18
 -1      2501 9.53842E-05-2.85137E-05-2.86601E-05 2.66541E-07 2.31902E-18 3.19693E-18
 -1      2502 9.52903E-05-2.85475E-05-2.86037E-05 7.28769E-08 5.35457E-19 2.37908E-18
 -1      2503 9.53130E-05-2.85467E-05-2.86127E-05 1.01840E-07 1.07347E-18 2.06341E-18
 -1      2504 9.53234E-05-2.85228E-05-2.86298E-05 1.58277E-07 8.17050E-19 2.41295E-18
 -1      2505 9.52608E-05-2.85530E-05-2.85888E-05 2.44017E-08-1.01613E-18 3.31178E-18
 -1      2506 9.52733E-05-2.85499E-05-2.85947E-05 4.35038E-08-2.72631E-20 3.26640E-18
 -1      2507 9.52836E-05-2.85345E-05-2.86076E-05 8.01231E-08-5.20264E-19 3.85853E-18
 -1      2508 9.52506E-05-2.85588E-05-2.85816E-05 5.34637E-09-9.02023E-19 3.48756E-18
 -1      2509 9.51772E-05-2.83983E-05-2.86203E-05 8.82785E-08 3.27378E-19-1.72845E-18
 -1      2510 9.51909E-05-2.84166E-05-2.86172E-05 9.14604E-08 7.93478E-19-3.16402E-18
 -1      2511 9.51513E-05-2.83609E-05-2.86252E-05 6.67074E-08 1.44269E-18 1.80353E-19
 -1      2512 9.51622E-05-2.83750E-05-2.86229E-05 7.79425E-08 8.05038E-19-1.31256E-18
 -1      2513 9.51532E-05-2.83465E-05-2.86309E-05 1.02964E-07 9.32273E-19-8.97958E-19
 -1      2514 9.52363E-05-2.84906E-05-2.86057E-05 7.53230E-08 2.31995E-19 3.52771E-19
 -1      2515 9.52462E-05-2.85077E-05-2.86017E-05 6.37992E-08-1.29739E-19 2.04204E-18
 -1      2516 9.52078E-05-2.84440E-05-2.86137E-05 9.12591E-08-5.94939E-19-2.46057E-18
 -1      2517 9.52213E-05-2.84631E-05-2.86101E-05 8.60429E-08-2.27154E-19-1.15262E-18
 -1      2518 9.52283E-05-2.84545E-05-2.86171E-05 1.04905E-07-6.04637E-19-9.06596E-19
 -1      2519 9.51905E-05-2.83982E-05-2.86250E-05 1.15028E-07 7.39036E-19-2.11459E-18
 -1      2520 9.51352E-05-2.83378E-05-2.86281E-05 3.11090E-08-7.42490E-19-1.27293E-18
 -1      2521 9.51411E-05-2.83455E-05-2.86269E-05 4.79118E-08 2.37166E-19-8.60046E-19
 -1      2522 9.51237E-05-2.83070E-05-2.86350E-05 7.04861E-08 5.12069E-19-1.25831E-18
 -1      2523 9.51319E-05-2.83326E-05-2.86287E-05-1.10527E-08-1.45305E-18 3.43768E-19
 -1      2524 9.51317E-05-2.83324E-05-2.86287E-05 7.66908E-09-2.05946E-18 7.83662E-19
 -1      2525 9.51076E-05-2.82857E-05-2.86371E-05 2.39565E-08-1.53132E-19-1.52681E-18
 -1      2526 9.51419E-05-2.83461E-05-2.86269E-05-5.09691E-08-5.17812E-19-1.73380E-18
 -1      2527 9.51356E-05-2.83381E-05-2.86282E-05-3.44020E-08-1.07504E-18-1.12884E-18
 -1      2528 9.51080E-05-2.82857E-05-2.86372E-05-2.74763E-08-8.08642E-19 1.64404E-19
 -1      2529 9.51632E-05-2.83756E-05-2.86231E-05-7.98329E-08-9.87424E-20-1.66529E-18
 -1      2530 9.51522E-05-2.83614E-05-2.86254E-05-6.91621E-08-2.00053E-19-2.00697E-18
 -1      2531 9.51246E-05-2.83070E-05-2.86353E-05-7.33102E-08 5.09489E-20-1.63573E-18
 -1      2532 9.51924E-05-2.84175E-05-2.86174E-05-9.23765E-08 1.30008E-18 2.28977E-18
 -1      2533 9.51784E-05-2.83989E-05-2.86205E-05-8.97164E-08 7.74673E-19-6.58221E-19
 -1      2534 9.51545E-05-2.83465E-05-2.86314E-05-1.04780E-07 8.49086E-19-1.01453E-18
 -1      2535 9.52233E-05-2.84651E-05-2.86102E-05-8.53742E-08 1.47505E-18 1.81656E-18
 -1      2536 9.52097E-05-2.84452E-05-2.86139E-05-9.16596E-08 9.75854E-19 2.91473E-18
 -1      2537 9.51922E-05-2.83986E-05-2.86255E-05-1.15620E-07 1.32624E-18 1.61442E-18
 -1      2538 9.52481E-05-2.85102E-05-2.86015E-05-6.13488E-08 5.50753E-19-2.36620E-18
 -1      2539 9.52384E-05-2.84925E-05-2.86057E-05-7.43977E-08 9.58248E-19-1.02436E-19
 -1      2540 9.52297E-05-2.84557E-05-2.86176E-05-1.04141E-07 5.67395E-19-9.02266E-20
 -1      2541 2.55857E-05-2.07221E-05-1.88683E-06 2.26660E-05-1.17028E-18 7.66882E-18
 -1      2542 1.91916E-05-1.81091E-05-2.00223E-07 8.63183E-06-1.49488E-18 9.02810E-18
 -1      2543 8.64515E-05-4.80284E-05-1.64246E-05 4.22726E-05-2.78886E-19 1.52201E-18
 -1      2544 6.80220E-05-4.19963E-05-1.09823E-05 4.19688E-05-4.44057E-19 2.46317E-18
 -1      2545 9.43348E-05-2.75236E-05-2.86163E-05-4.69748E-07 1.42147E-18 6.40145E-19
 -1      2546 9.44619E-05-2.73630E-05-2.87119E-05 1.64434E-07 1.67682E-18 9.19676E-19
 -1      2547 9.49204E-05-2.74374E-05-2.89379E-05-6.85446E-07 1.55021E-18-7.81471E-20
 -1      2548 9.52520E-05-2.85474E-05-2.85871E-05-1.84849E-08 1.90417E-18 1.75555E-19
 -1      2549 1.87081E-05-1.82371E-05 3.80715E-08-5.08197E-06-3.14884E-19 9.56766E-18
 -1      2550 2.56314E-05-2.07326E-05-1.93288E-06-2.06467E-05 2.31769E-19 7.46151E-18
 -1      2551 2.61281E-05-1.48069E-05-4.22905E-06 1.79602E-06-1.32987E-18 9.04102E-18
 -1      2552 5.27720E-05-3.43515E-05-7.73367E-06 4.06547E-05-5.95464E-19 4.52485E-18
 -1      2553 3.89953E-05-2.79705E-05-4.41104E-06 3.30916E-05-1.51238E-18 6.92492E-18
 -1      2554 6.69848E-05-3.74660E-05-1.21553E-05 4.04511E-05-1.60746E-18 2.98071E-18
 -1      2555 9.51988E-05-2.00159E-05-3.22679E-05-1.12764E-05-3.25827E-18-1.04315E-18
 -1      2556 9.56511E-05-2.33632E-05-3.10091E-05-7.48180E-06-2.98848E-18-7.33768E-19
 -1      2557 9.52464E-05-2.24647E-05-3.11633E-05-7.06606E-06-2.76604E-18-1.40906E-18
 -1      2558 9.33528E-05-1.75429E-05-3.24888E-05-1.08695E-05-3.13271E-18-2.02179E-18
 -1      2559 4.09150E-05-2.90765E-05-4.73524E-06-3.23055E-05 2.00895E-18 6.35486E-18
 -1      2560 5.61340E-05-3.64607E-05-8.36648E-06-4.00745E-05 1.82345E-18 6.95562E-18
 -1      2561 1.82033E-05-1.82374E-05 2.51128E-07 2.84664E-06-5.23043E-20-7.51657E-18
 -1      2562 2.02716E-05-1.87350E-05-4.26993E-07-1.34229E-05 1.15620E-19-6.54502E-18
 -1      2563 1.44890E-04-4.27121E-05-4.39566E-05-5.32124E-06 4.00451E-18-1.69025E-18
 -1      2564 1.49028E-04-3.48689E-05-4.93392E-05-3.62948E-08 5.29787E-18-1.63456E-18
 -1      2565 8.75409E-05-1.02785E-05-3.31483E-05-1.39183E-06 1.70102E-20-4.58634E-18
 -1      2566 8.76719E-05-1.04204E-05-3.31411E-05-2.43509E-06-3.63117E-19-4.55078E-18
 -1      2567 8.90147E-05-1.25007E-05-3.27913E-05-2.65652E-06-5.17284E-19-4.26550E-18
 -1      2568 8.87060E-05-1.21120E-05-3.28266E-05-8.51897E-07 1.01121E-19-4.31035E-18
 -1      2569 1.47375E-04-2.57175E-05-5.22722E-05 4.84167E-06 5.94617E-18-2.37804E-18
 -1      2570 1.41646E-04-1.72861E-05-5.39770E-05 7.21389E-06 6.09906E-18-2.39350E-18
 -1      2571 1.41333E-04-3.09189E-05-4.74168E-05 7.71046E-06 4.48779E-18-6.37181E-19
 -1      2572 1.44489E-04-1.36932E-05-5.65755E-05-4.03698E-06 7.01640E-18-4.86409E-18
 -1      2573 1.45128E-04-1.82851E-05-5.46454E-05-5.94824E-06 6.73561E-18-4.70908E-18
 -1      2574 5.81515E-05-3.85591E-05-8.27257E-06-4.06772E-05-1.09924E-18-6.53359E-18
 -1      2575 7.64619E-05-4.48161E-05-1.35391E-05-4.36635E-05-7.02190E-19-5.29729E-18
 -1      2576 1.38270E-04-9.87812E-06-5.56477E-05 2.22363E-06 6.85631E-18-3.89466E-18
 -1      2577 1.42276E-04-1.02844E-05-5.69034E-05-1.55217E-06 6.99099E-18-4.30160E-18
 -1      2578 1.31514E-04-5.46459E-05-3.29604E-05-2.09476E-05 2.02737E-18-1.40925E-18
 -1      2579 1.40730E-04-5.13872E-05-3.86459E-05-1.49544E-05 2.84465E-18-1.37410E-18
 -1      2580 1.48967E-04-1.35609E-05-5.85133E-05 9.08470E-07-8.01378E-18-1.87065E-18
 -1      2581 1.43275E-04-1.26993E-05-5.65251E-05-4.12848E-06-8.38901E-18-1.34541E-18
 -1      2582 2.99524E-05-2.49371E-05-1.97482E-06-2.73369E-05-1.87406E-19-5.36002E-18
 -1      2583 4.26652E-05-3.09079E-05-4.94086E-06-3.71978E-05-8.13152E-20-6.17275E-18
 -1      2584 5.72651E-05-3.38409E-05-9.57452E-06-3.90262E-05-1.67691E-18-5.59677E-18
 -1      2585 3.14007E-05-2.55198E-05-2.38172E-06 2.75827E-05 6.37604E-19-7.17860E-18
 -1      2586 2.20658E-05-2.15148E-05-1.15879E-07 1.60927E-05 7.24743E-19-7.31540E-18
 -1      2587 1.06297E-04-5.56172E-05-2.19816E-05 3.71356E-05 6.13464E-19-3.38728E-18
 -1      2588 9.01994E-05-5.16646E-05-1.64259E-05 3.93700E-05 1.07848E-18-4.56091E-18
 -1      2589 1.50416E-04-4.28720E-05-4.66049E-05-5.63695E-07-5.35865E-18 3.71212E-19
 -1      2590 1.46422E-04-5.00544E-05-4.14571E-05 4.82216E-06-3.91426E-18-2.89685E-19
 -1      2591 1.45377E-04-2.26776E-05-5.33213E-05-9.19810E-06-7.46045E-18 5.38819E-19
 -1      2592 1.48566E-04-3.28945E-05-4.98895E-05-8.01817E-06-6.31124E-18 1.00776E-18
 -1      2593 1.47380E-04-1.85800E-05-5.56959E-05 6.93277E-06-6.20833E-18-1.21337E-18
 -1      2594 1.49222E-04-1.46921E-05-5.79347E-05 3.51466E-06-7.24256E-18-1.52948E-18
 -1      2595 1.35489E-04-1.14272E-05-5.31424E-05 3.57845E-06-7.12672E-18-2.63883E-18
 -1      2596 1.49933E-04-3.86531E-05-4.79031E-05 3.78022E-06-4.24914E-18-4.49986E-19
 -1      2597 1.51928E-04-2.91243E-05-5.31272E-05 6.70748E-06-4.94455E-18-7.66777E-19
 -1      2598 1.39771E-04-5.51491E-05-3.64126E-05-1.35675E-05-3.12153E-18 1.49078E-19
 -1      2599 1.47868E-04-5.00317E-05-4.24067E-05-5.91214E-06-3.52826E-18-3.77353E-19
 -1      2600 1.14724E-04-5.75948E-05-2.44463E-05-3.10635E-05-5.37654E-19 8.75832E-19
 -1      2601 1.30655E-04-5.82091E-05-3.12581E-05-2.50651E-05-2.47842E-18 1.27182E-18
 -1      2602 1.37158E-04-5.92485E-05-3.32398E-05-1.32498E-05-9.22207E-19-9.89123E-19
 -1      2603 7.59279E-05-4.57111E-05-1.27469E-05-4.04133E-05 1.94394E-18 4.84688E-18
 -1      2604 9.53615E-05-5.24543E-05-1.84963E-05-4.04136E-05 3.65918E-19 2.85248E-18
 -1      2605 1.44055E-04-4.75915E-05-4.17790E-05 1.03395E-05 2.82098E-18-2.60399E-18
 -1      2606 1.36739E-04-5.20115E-05-3.62934E-05 1.62477E-05 2.66450E-18-2.87737E-18
 -1      2607 9.64813E-05-2.51077E-05-3.06114E-05 7.19753E-06 3.10522E-18 2.00192E-18
 -1      2608 9.75350E-05-2.37897E-05-3.16254E-05 1.03187E-05 3.36039E-18 2.52786E-18
 -1      2609 9.59988E-05-2.13187E-05-3.20616E-05 1.14800E-05 3.64754E-18 1.29919E-18
 -1      2610 9.60618E-05-2.41505E-05-3.08533E-05 7.18329E-06 3.17046E-18 6.36359E-19
 -1      2611 1.30213E-04-1.65925E-05-4.91321E-05 9.01472E-06 4.75164E-18-3.43895E-19
 -1      2612 1.35375E-04-1.28673E-05-5.29048E-05 6.16885E-06 5.96925E-18-2.20504E-18
 -1      2613 1.26370E-04-9.60958E-06-5.05584E-05 4.73678E-06 5.30751E-18-1.81202E-18
 -1      2614 9.07246E-05-1.47134E-05-3.25709E-05-6.26047E-06-1.83312E-18-3.91453E-18
 -1      2615 8.96992E-05-1.29686E-05-3.29433E-05-7.47448E-06-1.98437E-18-4.10591E-18
 -1      2616 9.04458E-05-1.38484E-05-3.28924E-05-8.63450E-06-2.44708E-18-3.73285E-18
 -1      2617 9.51743E-05-2.68890E-05-2.92802E-05 1.05899E-06 2.05428E-18 1.02580E-19
 -1      2618 9.43803E-05-1.90790E-05-3.23167E-05 1.11510E-05 3.57057E-18-2.35713E-19
 -1      2619 1.10935E-04-5.61570E-05-2.36220E-05 3.20698E-05-4.84926E-20-1.51259E-18
 -1      2620 9.97778E-05-5.30111E-05-1.97966E-05 3.87447E-05 2.78039E-19-3.00697E-20
 -1      2621 9.25914E-05-4.89254E-05-1.82856E-05 3.93024E-05-1.66071E-18 4.57821E-19
 -1      2622 3.91596E-05-2.28465E-05-6.42867E-06-2.59205E-05 1.22756E-18 6.49590E-18
 -1      2623 1.43242E-04-4.37891E-05-4.26427E-05-4.59716E-07 2.93920E-18-4.32580E-18
 -1      2624 1.11059E-04-5.70652E-05-2.28507E-05-3.20712E-05 8.50845E-19 1.08224E-18
 -1      2625 9.52575E-05-2.85465E-05-2.85905E-05 2.81558E-08-1.39353E-18 3.59633E-18
 -1      2626 9.52577E-05-2.85355E-05-2.85951E-05 4.25142E-08-6.69929E-19 3.33150E-18
 -1      2627 1.41773E-04-2.40988E-05-5.06361E-05 1.05194E-05-5.32466E-18-2.40568E-18
 -1      2628 3.92699E-05-2.23184E-05-6.70772E-06 2.77444E-05-2.10212E-18 7.49074E-18
 -1      2629 1.37343E-04-1.84782E-05-5.12129E-05-9.27556E-06-6.92471E-18 7.49624E-20
 -1      2630 1.43363E-04-3.84838E-05-4.49971E-05-1.01816E-05-4.96933E-18 1.61614E-18
 -1      2631 9.48475E-05-2.05481E-05-3.17987E-05 9.15413E-06 3.33182E-18-5.08551E-19
 -1      2632 1.41696E-04-4.90987E-05-3.97348E-05-3.43650E-06 1.83845E-18-1.43996E-19
 -1      2633 1.18477E-04-5.84246E-05-2.56245E-05 2.99432E-05 7.67200E-19-2.20885E-18
 -1      2634 1.14130E-04-5.80912E-05-2.38043E-05 3.10091E-05 2.14045E-18-1.94580E-18
 -1      2635 1.27749E-04-6.02303E-05-2.94218E-05 2.05384E-05 3.78518E-19-7.46871E-19
 -1      2636 9.22057E-05-1.62036E-05-3.26061E-05-9.86806E-06-2.84597E-18-2.84139E-18
 -1      2637 2.65189E-05-1.64789E-05-3.81198E-06 9.06459E-06 5.97370E-19-7.52716E-18
 -1      2638 3.15172E-05-1.93463E-05-4.74539E-06-2.03645E-05-8.79432E-19-5.98132E-18
 -1      2639 1.26961E-04-5.79811E-05-2.93093E-05-2.44751E-05 4.99538E-19-1.27277E-18
 -1      2640 1.42551E-04-5.51557E-05-3.73754E-05 7.55200E-06-2.62845E-18 3.07049E-20
 -1      2641 8.32820E-05-4.77140E-05-1.48777E-05 4.06752E-05 1.77623E-18-4.53258E-18
 -1      2642 1.40338E-04-2.38456E-05-5.01798E-05-8.02521E-06 5.84622E-18-5.26410E-18
 -1      2643 9.13706E-05-5.03226E-05-1.72324E-05-4.12178E-05-1.10495E-18-3.21685E-18
 -1      2644 1.03728E-04-5.47868E-05-2.13761E-05-3.64046E-05-1.77358E-18-1.74593E-18
 -1      2645 8.48700E-05-4.59445E-05-1.61958E-05-4.10184E-05-2.81384E-18-3.22465E-18
 -1      2646 7.34725E-05-4.12941E-05-1.33209E-05-3.92343E-05 2.90405E-18 5.26844E-18
 -1      2647 1.33307E-04-1.04442E-05-5.29425E-05-4.20374E-06 6.70194E-18-4.42315E-18
 -1      2648 4.35469E-05-2.94886E-05-5.68201E-06 3.29054E-05 1.13968E-18-6.76885E-18
 -1      2649 4.22388E-05-2.34946E-05-7.45656E-06 2.89368E-05 1.21443E-18-6.48870E-18
 -1      2650 5.61313E-05-3.31280E-05-9.84147E-06 3.72303E-05 1.94436E-18-5.99212E-18
 -1      2651 9.52633E-05-2.85425E-05-2.85942E-05-3.66919E-08 1.75300E-18 1.05841E-18
 -1      2652 9.52576E-05-2.85290E-05-2.85984E-05-4.92945E-08 1.28276E-18-1.62505E-18
 -1      2653 9.52595E-05-2.85025E-05-2.86097E-05-8.17646E-08 1.71148E-18-1.27140E-18
 -1      2654 9.52748E-05-2.85370E-05-2.86008E-05-5.64200E-08 1.31256E-18 1.71830E-18
 -1      2655 1.45884E-04-4.58580E-05-4.29567E-05 5.12616E-06-2.74862E-18-2.47312E-18
 -1      2656 1.32084E-04-5.70048E-05-3.21485E-05 1.95970E-05 1.33101E-18-3.21301E-18
 -1      2657 9.52594E-05-2.85115E-05-2.86059E-05 7.26788E-08-9.44836E-19 3.59498E-18
 -1      2658 9.52783E-05-2.85162E-05-2.86132E-05-9.35462E-08 1.72307E-18-5.08132E-19
 -1      2659 9.01589E-05-1.44919E-05-3.24502E-05 2.82524E-06 1.44660E-18-3.61965E-18
 -1      2660 8.99180E-05-1.41778E-05-3.24817E-05 1.97759E-06 1.06868E-18-3.74832E-18
 -1      2661 8.97434E-05-1.39339E-05-3.25096E-05 1.25192E-06 8.20657E-19-3.89471E-18
 -1      2662 8.96589E-05-1.38248E-05-3.25204E-05 3.94800E-07 5.09333E-19-3.88230E-18
 -1      2663 9.08511E-05-1.57161E-05-3.21853E-05 1.38422E-06 8.38587E-19-3.57094E-18
 -1      2664 9.20527E-05-1.71692E-05-3.21288E-05 5.85120E-06 2.62332E-18-2.89827E-18
 -1      2665 9.14467E-05-1.63015E-05-3.22297E-05 5.04896E-06 2.32283E-18-3.08872E-18
 -1      2666 9.36267E-05-1.95621E-05-3.17826E-05 6.95512E-06 2.86671E-18-1.96069E-18
 -1      2667 9.27695E-05-1.82382E-05-3.19613E-05 6.37697E-06 2.70417E-18-2.49819E-18
 -1      2668 9.33551E-05-1.94596E-05-3.16463E-05 5.02538E-06 2.42801E-18-2.47388E-18
 -1      2669 9.54869E-05-2.52896E-05-3.00929E-05 3.23876E-06 2.44200E-18-4.94143E-19
 -1      2670 9.57581E-05-2.44586E-05-3.05244E-05 4.95704E-06 2.63958E-18-3.69976E-19
 -1      2671 1.36282E-04-5.22361E-05-3.61680E-05-3.44548E-06 3.33532E-19 6.61215E-19
 -1      2672 1.38716E-04-4.49488E-05-4.06598E-05 3.89543E-06 1.52847E-18 6.82603E-19
 -1      2673 9.48719E-05-2.18291E-05-3.13091E-05 7.27037E-06 3.05020E-18-7.64103E-19
 -1      2674 1.04627E-04-5.34795E-05-2.14389E-05-3.23404E-05 2.07724E-18 4.15516E-19
 -1      2675 1.20879E-04-5.95780E-05-2.65363E-05-2.53760E-05 8.71173E-19-2.74121E-19
 -1      2676 1.38023E-04-3.97225E-05-4.27501E-05-7.37220E-06 3.39967E-18-4.79410E-18
 -1      2677 1.38207E-04-4.82317E-05-3.85239E-05-1.47767E-06 2.15295E-18-4.46429E-18
 -1      2678 9.55785E-05-2.56116E-05-2.99596E-05-1.70388E-06-1.89585E-18-1.66976E-18
 -1      2679 9.54856E-05-2.61555E-05-2.97190E-05-5.67403E-07-1.66329E-18-1.60235E-18
 -1      2680 9.55180E-05-2.66046E-05-2.95132E-05 3.55757E-07-1.53893E-18-1.57527E-18
 -1      2681 9.54781E-05-2.69133E-05-2.93851E-05 1.16249E-06-1.38524E-18-1.63457E-18
 -1      2682 9.55292E-05-2.57987E-05-2.98909E-05-2.97734E-07-1.67807E-18-1.81220E-18
 -1      2683 9.54560E-05-2.71404E-05-2.92650E-05 1.86605E-06-1.18532E-18-1.43367E-18
 -1      2684 9.54996E-05-2.73156E-05-2.92175E-05 2.47612E-06-9.94111E-19-1.38332E-18
 -1      2685 9.55475E-05-2.66159E-05-2.95502E-05 1.41187E-06-1.27766E-18-1.51747E-18
 -1      2686 9.54687E-05-2.74096E-05-2.91616E-05 3.04480E-06-9.30887E-19-1.46601E-18
 -1      2687 9.55940E-05-2.75052E-05-2.91734E-05 3.55266E-06-8.05459E-19-1.51978E-18
 -1      2688 9.55077E-05-2.70251E-05-2.93570E-05 2.74981E-06-1.05866E-18-1.53917E-18
 -1      2689 9.55692E-05-2.75142E-05-2.91648E-05 4.05689E-06-8.09044E-19-1.61068E-18
 -1      2690 9.57683E-05-2.75629E-05-2.92209E-05 4.52847E-06-6.80461E-19-1.75575E-18
 -1      2691 9.54638E-05-2.71718E-05-2.92736E-05 3.87402E-06-9.83505E-19-1.67393E-18
 -1      2692 9.57536E-05-2.75189E-05-2.92455E-05 5.02128E-06-4.80198E-19-1.69142E-18
 -1      2693 9.60216E-05-2.75476E-05-2.93341E-05 5.50010E-06-5.69893E-19-1.51065E-18
 -1      2694 9.54338E-05-2.71489E-05-2.92688E-05 4.91052E-06-5.61613E-19-1.76754E-18
 -1      2695 9.60203E-05-2.74797E-05-2.93792E-05 6.01814E-06-6.07724E-19-1.24361E-18
 -1      2696 9.63600E-05-2.75187E-05-2.94901E-05 6.52760E-06-5.44691E-19-1.21950E-18
 -1      2697 9.54248E-05-2.70285E-05-2.93150E-05 5.95150E-06-4.11932E-19-1.21636E-18
 -1      2698 9.63837E-05-2.74638E-05-2.95429E-05 7.09151E-06-4.65782E-19-1.05509E-18
 -1      2699 9.68096E-05-2.75568E-05-2.96654E-05 7.63325E-06-4.22565E-20-1.03860E-18
 -1      2700 9.54510E-05-2.68880E-05-2.93856E-05 7.05689E-06-3.78592E-19-6.25448E-19
 -1      2701 9.68882E-05-2.75716E-05-2.97122E-05 8.24604E-06 1.68118E-19-1.24158E-18
 -1      2702 9.74346E-05-2.77867E-05-2.98344E-05 8.79437E-06 2.56657E-19-1.32983E-18
 -1      2703 9.55520E-05-2.68334E-05-2.94528E-05 8.25423E-06-1.28257E-19-7.39743E-19
 -1      2704 9.76333E-05-2.79617E-05-2.98607E-05 9.43686E-06 2.52388E-19-1.32003E-18
 -1      2705 9.83659E-05-2.84040E-05-2.99693E-05 9.92885E-06 3.16765E-19-1.28127E-18
 -1      2706 9.58183E-05-2.70284E-05-2.94867E-05 9.53525E-06 8.34648E-20-1.02904E-18
 -1      2707 9.88093E-05-2.88792E-05-2.99627E-05 1.05493E-05 3.81162E-19-1.40825E-18
 -1      2708 9.98391E-05-2.97004E-05-3.00471E-05 1.08699E-05 5.62112E-19-1.13763E-18
 -1      2709 9.64311E-05-2.77268E-05-2.94589E-05 1.08459E-05 4.04520E-19-8.76312E-19
 -1      2710 1.00740E-04-3.06723E-05-3.00050E-05 1.13612E-05 6.95966E-19-1.11314E-18
 -1      2711 1.02227E-04-3.20570E-05-3.00666E-05 1.13233E-05 9.30378E-19-6.55454E-19
 -1      2712 9.77160E-05-2.93016E-05-2.93527E-05 1.20603E-05 6.43178E-19-1.26471E-18
 -1      2713 1.03907E-04-3.37514E-05-3.00136E-05 1.14733E-05 9.10985E-19-4.72941E-19
 -1      2714 1.06017E-04-3.58395E-05-3.00836E-05 1.07980E-05 7.12679E-19-2.88244E-19
 -1      2715 1.00197E-04-3.22367E-05-2.91890E-05 1.29189E-05 1.11267E-18-1.37021E-18
 -1      2716 1.08850E-04-3.83748E-05-3.01066E-05 1.01893E-05 8.26253E-19 3.32413E-19
 -1      2717 1.11640E-04-4.10426E-05-3.02828E-05 8.51519E-06 1.07339E-18 4.46870E-19
 -1      2718 1.04600E-04-3.69959E-05-2.90796E-05 1.28704E-05 1.08303E-18-6.77613E-19
 -1      2719 1.15726E-04-4.40224E-05-3.05906E-05 6.54958E-06 1.43568E-18 8.15881E-19
 -1      2720 1.18817E-04-4.63908E-05-3.10653E-05 3.71929E-06 1.63983E-18 7.85334E-19
 -1      2721 1.11330E-04-4.33466E-05-2.93332E-05 1.08034E-05 1.40595E-18 3.94400E-19
 -1      2722 1.23963E-04-4.89357E-05-3.20377E-05-6.35175E-07 1.94409E-18 1.77956E-18
 -1      2723 1.25839E-04-4.88065E-05-3.31125E-05-4.78184E-06 1.11952E-18 2.74462E-18
 -1      2724 1.21277E-04-4.99882E-05-3.07596E-05 5.36941E-06 2.46050E-18 1.19200E-18
 -1      2725 1.29335E-04-4.75649E-05-3.52418E-05-1.00850E-05 1.17248E-19 3.88801E-18
 -1      2726 1.28546E-04-4.27860E-05-3.68473E-05-1.33080E-05-1.02544E-18 4.03615E-18
 -1      2727 1.29802E-04-5.11793E-05-3.37962E-05-4.16453E-06 1.40958E-18 2.87619E-18
 -1      2728 1.30312E-04-3.40256E-05-4.17596E-05-1.59433E-05-3.54716E-18 2.96144E-18
 -1      2729 1.26769E-04-2.51490E-05-4.40484E-05-1.49126E-05-4.66578E-18 1.82409E-18
 -1      2730 1.24215E-04-1.65299E-05-4.67419E-05-8.15316E-06-5.29120E-18-9.29089E-20
 -1      2731 1.23114E-04-1.40799E-05-4.72744E-05-6.34485E-07-5.25732E-18-1.54034E-18
 -1      2732 1.24010E-04-1.62506E-05-4.66998E-05 7.04483E-06-5.53451E-18-2.47185E-18
 -1      2733 1.24883E-04-2.74353E-05-4.19685E-05 1.51973E-05-4.05432E-18-3.66493E-18
 -1      2734 1.28482E-04-3.60682E-05-4.00717E-05 1.64810E-05-1.95972E-18-3.83947E-18
 -1      2735 1.28673E-04-4.27004E-05-3.69800E-05 1.33998E-05-1.64086E-19-4.46416E-18
 -1      2736 1.29247E-04-4.74174E-05-3.52329E-05 1.02476E-05 6.59124E-19-4.14236E-18
 -1      2737 1.33918E-04-4.22855E-05-3.93994E-05 1.36041E-05-1.26848E-18-3.89376E-18
 -1      2738 1.25738E-04-4.86419E-05-3.31364E-05 4.81930E-06 4.64756E-19-4.05166E-18
 -1      2739 1.23758E-04-4.86667E-05-3.20943E-05 7.82606E-07 6.28465E-19-4.23137E-18
 -1      2740 1.29823E-04-5.11398E-05-3.38453E-05 4.42041E-06 5.83632E-19-3.99043E-18
 -1      2741 1.18805E-04-4.63237E-05-3.11386E-05-3.26891E-06 1.18787E-18-3.53662E-18
 -1      2742 1.15852E-04-4.39787E-05-3.06762E-05-6.21536E-06 1.29668E-18-2.20708E-18
 -1      2743 1.20843E-04-4.96316E-05-3.06613E-05-5.25861E-06 1.26058E-18-3.47068E-18
 -1      2744 1.11686E-04-4.09008E-05-3.03757E-05-8.18727E-06 1.24154E-18-1.33695E-18
 -1      2745 1.08957E-04-3.82533E-05-3.02082E-05-9.81828E-06 1.60068E-18-1.38753E-18
 -1      2746 1.11595E-04-4.32484E-05-2.94331E-05-1.05454E-05 1.98971E-18-1.61435E-18
 -1      2747 1.06134E-04-3.57144E-05-3.01899E-05-1.03761E-05 1.04051E-18-9.76960E-19
 -1      2748 1.04054E-04-3.36301E-05-3.01289E-05-1.09979E-05 1.14592E-18-1.08818E-18
 -1      2749 1.04686E-04-3.68180E-05-2.91915E-05-1.24122E-05 1.80901E-18-1.50027E-18
 -1      2750 1.02382E-04-3.19354E-05-3.01868E-05-1.07995E-05 1.92692E-18-9.95293E-19
 -1      2751 1.00931E-04-3.05530E-05-3.01368E-05-1.07765E-05 2.30111E-18-1.18025E-18
 -1      2752 1.00310E-04-3.20735E-05-2.93072E-05-1.23676E-05 1.35803E-18-6.87562E-19
 -1      2753 1.00033E-04-2.95770E-05-3.01842E-05-1.02277E-05 9.79049E-19-1.47752E-18
 -1      2754 9.90418E-05-2.87597E-05-3.01124E-05-9.84121E-06 2.92504E-19-1.75626E-18
 -1      2755 9.78355E-05-2.91278E-05-2.94781E-05-1.14063E-05 1.15279E-18-6.51193E-19
 -1      2756 9.85983E-05-2.82796E-05-3.01234E-05-9.15673E-06 7.56148E-19-1.60395E-18
 -1      2757 9.79079E-05-2.78449E-05-3.00275E-05-8.59645E-06 1.22392E-18-1.82530E-18
 -1      2758 9.65501E-05-2.75383E-05-2.95904E-05-1.00718E-05 7.50287E-19-8.23027E-19
 -1      2759 9.77061E-05-2.76672E-05-3.00030E-05-7.88806E-06 1.45151E-18-1.34295E-18
 -1      2760 9.72042E-05-2.74665E-05-2.98921E-05-7.27348E-06 1.29876E-18-7.79841E-19
 -1      2761 9.59316E-05-2.68295E-05-2.96200E-05-8.63276E-06 1.38240E-18-6.33802E-19
 -1      2762 9.71191E-05-2.74553E-05-2.98426E-05-6.60009E-06 4.70538E-19-5.29683E-19
 -1      2763 9.67378E-05-2.73872E-05-2.97276E-05-6.00168E-06 2.95634E-21-3.48251E-19
 -1      2764 9.56547E-05-2.66372E-05-2.95799E-05-7.22804E-06 9.45066E-19-9.68574E-19
 -1      2765 9.67029E-05-2.74571E-05-2.96643E-05-5.39322E-06-1.12418E-18 2.29766E-19
 -1      2766 9.64036E-05-2.74586E-05-2.95538E-05-4.84866E-06-8.30752E-19 1.42281E-19
 -1      2767 9.55367E-05-2.67189E-05-2.94931E-05-5.93116E-06-3.75824E-19-1.18078E-18
 -1      2768 9.63867E-05-2.75604E-05-2.94858E-05-4.31802E-06-5.44179E-19-8.41757E-19
 -1      2769 9.61479E-05-2.75948E-05-2.93852E-05-3.84394E-06-5.52476E-19-9.24949E-19
 -1      2770 9.54839E-05-2.69268E-05-2.93813E-05-4.77866E-06-1.58501E-18-6.42810E-19
 -1      2771 9.61354E-05-2.77020E-05-2.93187E-05-3.39360E-06-1.06161E-19-1.11392E-18
 -1      2772 9.59441E-05-2.77491E-05-2.92309E-05-2.99383E-06-1.04153E-18-8.84989E-19
 -1      2773 9.54531E-05-2.71770E-05-2.92613E-05-3.78408E-06-6.05164E-19-1.84266E-18
 -1      2774 9.59316E-05-2.78489E-05-2.91698E-05-2.62009E-06-9.13641E-19 1.79598E-19
 -1      2775 9.57793E-05-2.78981E-05-2.90955E-05-2.29119E-06 3.98582E-19-1.95339E-19
 -1      2776 9.54272E-05-2.74252E-05-2.91442E-05-2.94619E-06-3.86436E-19-8.21123E-19
 -1      2777 9.57659E-05-2.79853E-05-2.90418E-05-1.98694E-06 4.87852E-19 1.48876E-19
 -1      2778 9.56461E-05-2.80315E-05-2.89805E-05-1.72178E-06 8.34073E-19 1.12841E-19
 -1      2779 9.54010E-05-2.76505E-05-2.90366E-05-2.25472E-06 3.31929E-19 5.18273E-19
 -1      2780 9.56325E-05-2.81047E-05-2.89347E-05-1.47834E-06 1.21914E-18 5.27842E-19
 -1      2781 9.55396E-05-2.81456E-05-2.88853E-05-1.26829E-06 1.01566E-18 1.01641E-18
 -1      2782 9.53743E-05-2.78449E-05-2.89421E-05-1.69445E-06 7.76603E-19 7.82531E-19
 -1      2783 9.55266E-05-2.82054E-05-2.88473E-05-1.07661E-06-2.27820E-19 9.99230E-19
 -1      2784 9.54559E-05-2.82404E-05-2.88082E-05-9.12889E-07-4.89921E-19 2.61557E-19
 -1      2785 9.53484E-05-2.80071E-05-2.88615E-05-1.24807E-06 3.96379E-19 8.06259E-19
 -1      2786 9.54440E-05-2.82883E-05-2.87773E-05-7.64308E-07-2.06286E-19 6.98000E-19
 -1      2787 9.53912E-05-2.83176E-05-2.87470E-05-6.38708E-07 3.09186E-19 4.37151E-20
 -1      2788 9.53245E-05-2.81393E-05-2.87946E-05-8.98076E-07-3.75868E-19-1.29307E-19
 -1      2789 9.53807E-05-2.83553E-05-2.87223E-05-5.25396E-07 2.12134E-19-6.95903E-19
 -1      2790 9.53421E-05-2.83794E-05-2.86992E-05-4.30684E-07-3.19752E-19-9.90589E-19
 -1      2791 9.53033E-05-2.82450E-05-2.87401E-05-6.27973E-07-3.14029E-19 2.20166E-19
 -1      2792 9.53327E-05-2.84085E-05-2.86797E-05-3.45844E-07 3.16174E-20-4.50416E-19
 -1      2793 9.53051E-05-2.84282E-05-2.86621E-05-2.75547E-07-3.44556E-19-7.33237E-20
 -1      2794 9.52848E-05-2.83281E-05-2.86963E-05-4.23575E-07 2.80310E-19 1.60659E-19
 -1      2795 9.52973E-05-2.84514E-05-2.86467E-05-2.13771E-07-3.38417E-19 1.25865E-18
 -1      2796 9.52780E-05-2.84670E-05-2.86334E-05-1.63607E-07 1.26166E-18 7.29826E-19
 -1      2797 9.52691E-05-2.83942E-05-2.86614E-05-2.71076E-07 2.38351E-19 6.02464E-19
 -1      2798 9.55427E-05-2.78797E-05-2.89910E-05-3.04750E-06 1.46045E-18-9.61402E-19
 -1      2799 9.53571E-05-2.77385E-05-2.89693E-05-2.63185E-06 1.54540E-18-7.20318E-19
 -1      2800 1.38651E-04-3.42295E-05-4.53054E-05 1.50388E-05-3.52217E-18-3.27294E-18
 -1      2801 1.34463E-04-2.41928E-05-4.78888E-05 1.40124E-05-4.98437E-18-3.59407E-18
 -1      2802 9.53333E-05-2.76124E-05-2.90178E-05-2.11734E-06 1.46832E-18-8.20751E-19
 -1      2803 9.52641E-05-2.74260E-05-2.90562E-05-1.57478E-06 1.37322E-18-6.05933E-19
 -1      2804 9.55309E-05-2.74343E-05-2.91948E-05-2.41332E-06 1.58610E-18-1.29114E-18
 -1      2805 9.64213E-05-2.82916E-05-2.91895E-05-4.49283E-06 2.19362E-19-7.10916E-19
 -1      2806 9.60443E-05-2.81537E-05-2.90934E-05-4.18362E-06 4.04443E-19-7.52003E-19
 -1      2807 9.70930E-05-2.85520E-05-2.93664E-05-5.11247E-06 3.52074E-19-4.34973E-19
 -1      2808 9.66275E-05-2.83761E-05-2.92492E-05-4.83439E-06 3.83893E-19-3.75544E-19
 -1      2809 9.62224E-05-2.80607E-05-2.92192E-05-5.00637E-06 2.01647E-19-5.49174E-19
 -1      2810 9.79431E-05-2.89348E-05-2.95686E-05-5.65505E-06-2.49230E-21-3.88382E-19
 -1      2811 9.73852E-05-2.86887E-05-2.94395E-05-5.42571E-06 1.96987E-19-3.64415E-19
 -1      2812 9.67242E-05-2.83078E-05-2.93286E-05-5.70108E-06 3.30965E-19-2.09650E-19
 -1      2813 9.90095E-05-2.95215E-05-2.97781E-05-6.05074E-06-6.30611E-20-3.33112E-20
 -1      2814 9.83509E-05-2.91667E-05-2.96462E-05-5.91458E-06-2.19214E-20-2.59810E-19
 -1      2815 9.74250E-05-2.87198E-05-2.94539E-05-6.31384E-06-8.60991E-20-1.62728E-19
 -1      2816 1.00346E-04-3.04047E-05-2.99786E-05-6.17101E-06 1.03582E-19 1.15927E-19
 -1      2817 9.95774E-05-2.99006E-05-2.98531E-05-6.20181E-06 8.05590E-20-1.47172E-19
 -1      2818 9.83994E-05-2.94090E-05-2.95792E-05-6.76883E-06 7.22985E-20-6.92988E-20
 -1      2819 1.02012E-04-3.16692E-05-3.01598E-05-5.82433E-06-2.23762E-19 2.18319E-19
 -1      2820 1.01132E-04-3.09857E-05-3.00477E-05-6.12419E-06 5.55865E-22 1.57557E-19
 -1      2821 9.97501E-05-3.05010E-05-2.96949E-05-6.92720E-06-1.01761E-19 3.20342E-19
 -1      2822 1.04039E-04-3.33400E-05-3.03251E-05-4.76488E-06-2.30375E-19 6.01209E-19
 -1      2823 1.03073E-04-3.24889E-05-3.02277E-05-5.45253E-06-2.34014E-19 3.13734E-19
 -1      2824 1.01596E-04-3.21047E-05-2.98049E-05-6.57742E-06-2.10882E-19 1.06015E-19
 -1      2825 1.06367E-04-3.52841E-05-3.05030E-05-2.73636E-06-2.27365E-19 9.94873E-19
 -1      2826 1.05400E-04-3.43720E-05-3.04102E-05-3.91210E-06-1.90092E-19 9.84248E-19
 -1      2827 1.04025E-04-3.42375E-05-2.99369E-05-5.43584E-06-5.27696E-19 1.08376E-18
 -1      2828 1.08729E-04-3.70717E-05-3.07583E-05 4.10338E-07-2.06620E-19 1.86801E-18
 -1      2829 1.07942E-04-3.63654E-05-3.06444E-05-1.26188E-06-2.07937E-19 1.49484E-18
 -1      2830 1.06989E-04-3.66825E-05-3.01577E-05-3.18693E-06-5.38000E-19 1.54018E-18
 -1      2831 1.10553E-04-3.78716E-05-3.11892E-05 4.48542E-06-4.10262E-19 2.49974E-18
 -1      2832 1.10233E-04-3.78250E-05-3.10145E-05 2.52087E-06-2.26909E-19 2.23977E-18
 -1      2833 1.10134E-04-3.88079E-05-3.05791E-05 3.76010E-07-5.19389E-19 2.19321E-18
 -1      2834 1.10998E-04-3.65949E-05-3.18943E-05 8.59613E-06-7.83966E-19 2.22886E-18
 -1      2835 1.11440E-04-3.76998E-05-3.16229E-05 6.89892E-06-7.30498E-19 2.33212E-18
 -1      2836 1.12622E-04-3.94328E-05-3.13427E-05 5.04167E-06-5.27036E-19 2.47494E-18
 -1      2837 1.09453E-04-3.26527E-05-3.28746E-05 1.09740E-05 5.07859E-19 1.60540E-18
 -1      2838 1.10697E-04-3.50025E-05-3.25195E-05 1.04141E-05-3.03975E-19 1.88966E-18
 -1      2839 1.13275E-04-3.72217E-05-3.25450E-05 9.63990E-06-1.82880E-19 2.22186E-18
 -1      2840 1.06389E-04-2.70266E-05-3.39351E-05 9.57887E-06 1.62518E-18 1.04304E-18
 -1      2841 1.07916E-04-2.98328E-05-3.35860E-05 1.09245E-05 1.38213E-18 1.56245E-18
 -1      2842 1.11395E-04-3.18189E-05-3.40850E-05 1.18665E-05 1.10422E-18 2.21635E-18
 -1      2843 1.03756E-04-2.28909E-05-3.46494E-05 3.71209E-06 1.41173E-18 1.66733E-19
 -1      2844 1.04574E-04-2.44850E-05-3.44658E-05 6.72973E-06 1.54530E-18 5.59748E-19
 -1      2845 1.07736E-04-2.49587E-05-3.54634E-05 9.35758E-06 1.86581E-18 2.43224E-18
 -1      2846 1.03819E-04-2.30863E-05-3.46605E-05-4.14304E-06 1.24670E-18-6.75979E-19
 -1      2847 1.03393E-04-2.23344E-05-3.47476E-05-7.12075E-07 1.49193E-18-6.44493E-19
 -1      2848 1.05659E-04-2.12488E-05-3.61928E-05 1.76455E-06 1.77979E-18 5.36304E-19
 -1      2849 1.06547E-04-2.74966E-05-3.39922E-05-9.93055E-06 9.53127E-19-2.78178E-18
 -1      2850 1.05153E-04-2.50008E-05-3.42800E-05-7.77691E-06 1.02066E-18-1.96205E-18
 -1      2851 1.06652E-04-2.28286E-05-3.59589E-05-6.72924E-06 1.95837E-18-2.11226E-18
 -1      2852 1.09816E-04-3.31088E-05-3.29717E-05-1.12373E-05 1.18178E-19-3.36612E-18
 -1      2853 1.08354E-04-3.04440E-05-3.33308E-05-1.10740E-05 6.17500E-19-2.78994E-18
 -1      2854 1.10035E-04-2.90009E-05-3.47290E-05-1.15645E-05 8.25943E-19-3.26921E-18
 -1      2855 1.11501E-04-3.69370E-05-3.19936E-05-8.72260E-06 4.33145E-20-3.09684E-18
 -1      2856 1.10682E-04-3.52906E-05-3.22965E-05-1.00677E-05-1.55626E-19-3.03516E-18
 -1      2857 1.12837E-04-3.53220E-05-3.31723E-05-1.11386E-05-2.90109E-19-2.80525E-18
 -1      2858 1.11004E-04-3.79848E-05-3.12894E-05-4.51391E-06 4.65066E-20-3.08928E-18
 -1      2859 1.11023E-04-3.76233E-05-3.14894E-05-6.43010E-06 4.79927E-19-2.94135E-18
 -1      2860 1.13226E-04-3.89352E-05-3.18172E-05-7.21850E-06 2.26368E-19-2.57772E-18
 -1      2861 1.09078E-04-3.70191E-05-3.08539E-05-4.64351E-07-2.16522E-18-2.17030E-18
 -1      2862 1.09687E-04-3.75215E-05-3.09761E-05-2.25884E-06-1.03747E-18-2.87337E-18
 -1      2863 1.11330E-04-3.92302E-05-3.09005E-05-2.45103E-06-7.10204E-19-2.28593E-18
 -1      2864 1.06613E-04-3.51368E-05-3.06001E-05 2.57306E-06-1.22720E-18-2.46320E-18
 -1      2865 1.07501E-04-3.60073E-05-3.06839E-05 1.23283E-06-2.03058E-18-2.49253E-18
 -1      2866 1.08357E-04-3.75326E-05-3.03750E-05 1.53314E-06-2.13810E-18-3.31645E-18
 -1      2867 1.04224E-04-3.31568E-05-3.04306E-05 4.43288E-06-2.44664E-19-1.47181E-18
 -1      2868 1.05163E-04-3.40491E-05-3.05088E-05 3.60997E-06-5.62656E-19-1.71590E-18
 -1      2869 1.05283E-04-3.50968E-05-3.01084E-05 4.20486E-06-1.26999E-18-2.74556E-18
 -1      2870 1.02192E-04-3.14905E-05-3.02812E-05 5.30141E-06 2.69567E-19-6.35311E-19
 -1      2871 1.03060E-04-3.22391E-05-3.03700E-05 4.91889E-06 4.04357E-19-1.17883E-18
 -1      2872 1.02652E-04-3.27789E-05-2.99706E-05 5.64064E-06 2.40974E-20-1.50169E-18
 -1      2873 1.00566E-04-3.02511E-05-3.01227E-05 5.45841E-06 3.19700E-19 2.41930E-20
 -1      2874 1.01320E-04-3.08133E-05-3.02248E-05 5.39727E-06 5.54487E-19 7.93186E-20
 -1      2875 1.00615E-04-3.09474E-05-2.98763E-05 6.14568E-06-3.38826E-20-2.93238E-19
 -1      2876 9.93021E-05-2.94056E-05-2.99489E-05 5.16141E-06-5.78300E-19 2.90407E-19
 -1      2877 9.99366E-05-2.97975E-05-3.00601E-05 5.30697E-06-1.69586E-19 6.71588E-20
 -1      2878 9.91173E-05-2.96569E-05-2.97819E-05 6.02854E-06 1.98413E-19-4.26709E-19
 -1      2879 9.83294E-05-2.88695E-05-2.97653E-05 4.61237E-06 1.81376E-18 2.44436E-19
 -1      2880 9.88542E-05-2.91271E-05-2.98788E-05 4.87253E-06 2.26356E-19-1.69868E-19
 -1      2881 9.80442E-05-2.88295E-05-2.96724E-05 5.53954E-06 2.02281E-19-7.63943E-19
 -1      2882 9.75806E-05-2.85540E-05-2.95817E-05 3.95419E-06 4.25000E-19 6.96824E-19
 -1      2883 9.80097E-05-2.87146E-05-2.96911E-05 4.26295E-06 1.89853E-18 6.43337E-19
 -1      2884 9.72801E-05-2.83484E-05-2.95484E-05 4.86160E-06 1.42466E-18-6.15150E-19
 -1      2885 9.70025E-05-2.83863E-05-2.94070E-05 3.28020E-06-1.06256E-19 4.14311E-19
 -1      2886 9.73498E-05-2.84803E-05-2.95076E-05 3.59430E-06-8.71044E-20 6.21774E-19
 -1      2887 9.67328E-05-2.81043E-05-2.94168E-05 4.11865E-06 4.14051E-19 9.44256E-20
 -1      2888 9.65556E-05-2.83120E-05-2.92479E-05 2.64637E-06-1.87462E-19 8.24227E-19
 -1      2889 9.68334E-05-2.83624E-05-2.93367E-05 2.94003E-06-1.49457E-19 1.11684E-18
 -1      2890 9.63359E-05-2.80115E-05-2.92854E-05 3.38924E-06-4.04129E-19 2.70531E-19
 -1      2891 9.62106E-05-2.82938E-05-2.91080E-05 2.08222E-06 1.45331E-19 1.27420E-18
 -1      2892 9.64301E-05-2.83166E-05-2.91840E-05 2.34212E-06 1.98437E-19 1.57048E-18
 -1      2893 9.60444E-05-2.80085E-05-2.91612E-05 2.71902E-06-4.78847E-19 1.46349E-18
 -1      2894 9.59457E-05-2.83070E-05-2.89888E-05 1.59966E-06-7.98225E-19 1.28052E-18
 -1      2895 9.61166E-05-2.83131E-05-2.90519E-05 1.82073E-06-1.84027E-19 1.88869E-18
 -1      2896 9.58281E-05-2.80540E-05-2.90485E-05 2.13071E-06-5.43071E-19 2.27370E-18
 -1      2897 9.57440E-05-2.83358E-05-2.88899E-05 1.19946E-06-1.04758E-18 5.00072E-19
 -1      2898 9.58749E-05-2.83323E-05-2.89411E-05 1.38178E-06-1.30510E-18 1.44862E-19
 -1      2899 9.56664E-05-2.81217E-05-2.89498E-05 1.63187E-06-4.30236E-19 2.57513E-18
 -1      2900 9.55923E-05-2.83706E-05-2.88099E-05 8.75971E-07-8.44904E-19 2.88852E-19
 -1      2901 9.56907E-05-2.83621E-05-2.88504E-05 1.02253E-06-1.11153E-18-9.99203E-20
 -1      2902 9.55454E-05-2.81956E-05-2.88660E-05 1.22056E-06-1.36851E-18 1.17430E-18
 -1      2903 9.54798E-05-2.84057E-05-2.87464E-05 6.20348E-07 9.03823E-19 7.98051E-19
 -1      2904 9.55523E-05-2.83951E-05-2.87778E-05 7.35511E-07 1.35476E-19 8.15425E-19
 -1      2905 9.54551E-05-2.82667E-05-2.87965E-05 8.89430E-07-4.80210E-19 5.18030E-19
 -1      2906 9.53977E-05-2.84383E-05-2.86972E-05 4.22650E-07 1.58844E-18 1.61187E-18
 -1      2907 9.54500E-05-2.84273E-05-2.87210E-05 5.11207E-07 1.29438E-18 1.32392E-18
 -1      2908 9.53880E-05-2.83304E-05-2.87402E-05 6.28635E-07 6.79424E-19 1.72500E-18
 -1      2909 9.53389E-05-2.84669E-05-2.86596E-05 2.73032E-07 2.09249E-18 2.16525E-18
 -1      2910 9.53756E-05-2.84564E-05-2.86773E-05 3.39599E-07 2.09389E-18 2.17249E-18
 -1      2911 9.53384E-05-2.83849E-05-2.86954E-05 4.27591E-07 1.53770E-18 2.06158E-18
 -1      2912 9.52983E-05-2.84915E-05-2.86312E-05 1.63204E-07-5.36385E-19 4.02852E-18
 -1      2913 9.53226E-05-2.84822E-05-2.86442E-05 2.10972E-07 1.02475E-18 3.24682E-18
 -1      2914 9.53016E-05-2.84297E-05-2.86601E-05 2.75948E-07 3.61350E-19 3.45920E-18
 -1      2915 9.52692E-05-2.85048E-05-2.86130E-05 9.69930E-08-1.03882E-18 4.39284E-18
 -1      2916 9.52847E-05-2.84951E-05-2.86229E-05 1.31590E-07-9.60948E-19 3.18495E-18
 -1      2917 9.52736E-05-2.84583E-05-2.86363E-05 1.78281E-07-2.11304E-19 3.67826E-18
 -1      2918 9.52533E-05-2.84753E-05-2.86201E-05 1.18782E-07-1.09658E-18 1.88413E-18
 -1      2919 9.50670E-05-2.82260E-05-2.86468E-05 1.62785E-08 2.84244E-19-6.86469E-19
 -1      2920 9.50720E-05-2.82314E-05-2.86463E-05 4.40619E-08 2.78095E-19-2.09738E-18
 -1      2921 9.52739E-05-2.84802E-05-2.86248E-05-1.32638E-07 1.83048E-18 2.30597E-21
 -1      2922 9.52642E-05-2.84902E-05-2.86173E-05-1.07205E-07 1.70501E-18-6.49470E-19
 -1      2923 9.52502E-05-2.84689E-05-2.86207E-05-1.17435E-07 5.68551E-19-6.19384E-19
 -1      2924 9.52582E-05-2.84398E-05-2.86373E-05-1.75069E-07 9.99088E-19 1.64717E-18
 -1      2925 9.51188E-05-2.82897E-05-2.86421E-05 1.22996E-07 1.46959E-18-4.64081E-19
 -1      2926 9.51398E-05-2.83131E-05-2.86396E-05 1.36153E-07 1.03784E-18-1.00888E-18
 -1      2927 9.50725E-05-2.82314E-05-2.86465E-05-4.73050E-08 3.93508E-20-9.36668E-19
 -1      2928 9.50671E-05-2.82258E-05-2.86469E-05-1.96011E-08-1.89861E-19 6.52203E-19
 -1      2929 9.50312E-05-2.81636E-05-2.86564E-05-1.54286E-09 2.72659E-19-9.28066E-19
 -1      2930 9.50834E-05-2.82464E-05-2.86453E-05 7.67384E-08 5.40858E-20-2.70626E-18
 -1      2931 9.50978E-05-2.82619E-05-2.86438E-05 9.93259E-08 1.51064E-18-1.77206E-18
 -1      2932 9.50812E-05-2.82225E-05-2.86528E-05 1.33790E-07 1.17040E-18-1.81186E-18
 -1      2933 9.50442E-05-2.81790E-05-2.86554E-05 7.25728E-08 5.79953E-19-2.73181E-18
 -1      2934 3.69603E-05-1.67680E-05-8.06254E-06-1.89018E-05 5.04302E-19 5.68931E-18
 -1      2935 4.99031E-05-2.50739E-05-1.04414E-05-3.13577E-05 1.97433E-18 5.02566E-18
 -1      2936 9.50985E-05-2.82612E-05-2.86445E-05-1.01464E-07 4.20639E-19-1.75278E-18
 -1      2937 9.50840E-05-2.82459E-05-2.86458E-05-7.94331E-08 7.45620E-20-9.73481E-19
 -1      2938 9.50446E-05-2.81781E-05-2.86559E-05-7.50778E-08 1.00387E-18-9.67692E-19
 -1      2939 9.51413E-05-2.83125E-05-2.86405E-05-1.37737E-07 9.62048E-19 1.25042E-19
 -1      2940 9.51198E-05-2.82889E-05-2.86429E-05-1.24997E-07 8.77451E-19-1.22153E-18
 -1      2941 9.50821E-05-2.82209E-05-2.86538E-05-1.35793E-07 7.54923E-19-1.11107E-18
 -1      2942 9.51918E-05-2.83781E-05-2.86343E-05-1.48104E-07 8.16874E-19 1.05465E-18
 -1      2943 9.51686E-05-2.83493E-05-2.86378E-05-1.48221E-07 1.62096E-18 8.92228E-19
 -1      2944 9.51367E-05-2.82860E-05-2.86497E-05-1.73078E-07 1.23529E-18 6.37610E-19
 -1      2945 9.52328E-05-2.84392E-05-2.86254E-05-1.30058E-07 7.51190E-19 1.44867E-19
 -1      2946 9.44598E-05-2.07385E-05-3.16291E-05-7.63139E-06-2.65495E-18-2.24717E-18
 -1      2947 9.48808E-05-2.24879E-05-3.10467E-05-5.72657E-06-2.45212E-18-1.96803E-18
 -1      2948 3.03775E-05-1.29216E-05-7.10374E-06 8.82932E-06-1.28294E-18 8.65774E-18
 -1      2949 3.01134E-05-1.28364E-05-6.92620E-06-5.92125E-06-7.93405E-19 8.12601E-18
 -1      2950 7.71699E-05-3.91376E-05-1.60810E-05 3.85192E-05-2.53348E-18 1.53334E-18
 -1      2951 6.42600E-05-3.17266E-05-1.33856E-05 3.61683E-05-2.70013E-18 3.11941E-18
 -1      2952 1.20018E-04-5.81602E-05-2.61645E-05-2.67087E-05-1.31237E-18-1.22640E-18
 -1      2953 1.30370E-04-5.80535E-05-3.13315E-05-1.60171E-05-4.26058E-19-2.04241E-19
 -1      2954 5.04686E-05-2.41268E-05-1.10139E-05 3.20118E-05-2.63057E-18 6.35635E-18
 -1      2955 3.89679E-05-1.67373E-05-8.86687E-06 2.10193E-05-2.50012E-18 7.44521E-18
 -1      2956 6.29548E-05-2.70792E-05-1.49046E-05 3.09285E-05-3.41788E-18 4.26301E-18
 -1      2957 9.52830E-05-2.72063E-05-2.91732E-05-8.96969E-07 1.38083E-18-5.64800E-19
 -1      2958 9.53431E-05-2.69228E-05-2.92962E-05-1.33925E-07 1.64448E-18-5.41169E-19
 -1      2959 9.55083E-05-2.69840E-05-2.93791E-05-1.13806E-06 1.52309E-18-1.16337E-18
 -1      2960 9.59066E-05-2.80866E-05-2.90572E-05-3.81414E-06 8.14918E-19-9.08733E-19
 -1      2961 9.56206E-05-2.79598E-05-2.89921E-05-3.46709E-06 1.18539E-18-8.21632E-19
 -1      2962 9.56470E-05-2.77026E-05-2.91279E-05-3.41117E-06 1.31827E-18-1.13491E-18
 -1      2963 9.58723E-05-2.78854E-05-2.91449E-05-4.25165E-06 4.75861E-19-8.60263E-19
 -1      2964 9.54315E-05-2.38958E-05-3.06410E-05-4.38902E-06-2.21819E-18-1.81008E-18
 -1      2965 9.53896E-05-2.48377E-05-3.02507E-05-2.79058E-06-2.06294E-18-1.80784E-18
 -1      2966 9.53202E-05-2.43746E-05-3.04000E-05-2.41934E-06-1.95817E-18-2.09989E-18
 -1      2967 9.46712E-05-2.20952E-05-3.10985E-05-4.90691E-06-2.23525E-18-2.38041E-18
 -1      2968 9.53706E-05-2.65229E-05-2.95073E-05 8.05786E-07 1.98184E-18-5.81135E-19
 -1      2969 9.55474E-05-2.60406E-05-2.97522E-05 1.93502E-06 2.18849E-18-4.45835E-19
 -1      2970 9.54671E-05-2.47968E-05-3.02872E-05 2.94838E-06 2.38358E-18-9.77862E-19
 -1      2971 9.55263E-05-2.61916E-05-2.97239E-05 5.82949E-07 1.90254E-18-9.80012E-19
 -1      2972 3.20886E-05-1.45333E-05-6.95188E-06-1.34080E-05-9.57041E-19-6.14226E-18
 -1      2973 4.06254E-05-2.06211E-05-8.15687E-06-2.77180E-05-1.17918E-18-4.96848E-18
 -1      2974 3.42050E-05-1.60958E-05-7.20877E-06 1.66382E-05 1.01623E-18-6.63650E-18
 -1      2975 3.03249E-05-1.28698E-05-6.95372E-06 3.10056E-06 1.17314E-19-6.60305E-18
 -1      2976 9.09200E-05-1.55415E-05-3.23315E-05 4.39052E-06 2.17825E-18-3.31009E-18
 -1      2977 9.05039E-05-1.49799E-05-3.23911E-05 3.53441E-06 1.74057E-18-3.51085E-18
 -1      2978 9.13643E-05-1.64369E-05-3.20944E-05 2.72815E-06 1.52895E-18-3.26295E-18
 -1      2979 9.22063E-05-1.76619E-05-3.19264E-05 3.98805E-06 2.07504E-18-2.97897E-18
 -1      2980 6.75072E-05-3.49072E-05-1.33490E-05-3.63448E-05 3.60222E-18 5.73547E-18
 -1      2981 8.43416E-05-4.45836E-05-1.71690E-05-3.83403E-05 3.11210E-18 4.00805E-18
 -1      2982 9.04583E-05-1.49120E-05-3.24001E-05-3.47852E-06-8.44050E-19-3.98228E-18
 -1      2983 9.08668E-05-1.54601E-05-3.23426E-05-4.33117E-06-1.27278E-18-3.90006E-18
 -1      2984 1.35967E-04-4.03326E-05-4.13878E-05-1.34587E-05-3.09617E-18 3.20411E-18
 -1      2985 1.39837E-04-5.04389E-05-3.87119E-05-7.77880E-06-1.73663E-18 2.52818E-18
 -1      2986 1.37328E-04-3.70151E-05-4.32916E-05 9.12778E-06 2.48435E-18 6.24687E-19
 -1      2987 1.33265E-04-2.78253E-05-4.57970E-05 1.16463E-05 3.46564E-18 4.47233E-19
 -1      2988 1.33982E-04-4.19871E-05-3.96784E-05 8.59181E-06 9.82346E-19 1.43837E-18
 -1      2989 5.36786E-05-2.82558E-05-1.03437E-05-3.50054E-05-1.66251E-18-4.52252E-18
 -1      2990 6.73361E-05-3.58574E-05-1.32400E-05-3.95101E-05-2.48096E-18-4.56741E-18
 -1      2991 1.40394E-04-5.43897E-05-3.72835E-05-5.11004E-07-1.27437E-18 1.65161E-18
 -1      2992 1.36617E-04-6.01444E-05-3.27751E-05 1.05437E-05-1.05350E-19 6.03829E-19
 -1      2993 1.31094E-04-5.96851E-05-3.01838E-05 1.37495E-05 1.49332E-18 7.72759E-19
 -1      2994 1.34246E-04-5.33330E-05-3.47353E-05-2.18648E-06 3.27696E-19 2.96276E-18
 -1      2995 1.31355E-04-2.02725E-05-4.82888E-05-1.11739E-05 5.91017E-18-5.08426E-18
 -1      2996 1.35713E-04-2.98842E-05-4.56928E-05-1.13016E-05 4.20361E-18-5.14191E-18
 -1      2997 1.32299E-04-3.58854E-05-4.15638E-05-1.14095E-05 3.58523E-18-4.93460E-18
 -1      2998 9.34351E-05-4.93187E-05-1.89131E-05 3.71888E-05 2.60314E-18-2.60817E-18
 -1      2999 7.46910E-05-4.09392E-05-1.39230E-05 3.88481E-05 2.31261E-18-4.69288E-18
 -1      3000 9.21158E-05-1.64956E-05-3.24172E-05-8.45192E-06-2.54301E-18-3.07259E-18
 -1      3001 1.35211E-04-5.61063E-05-3.43712E-05 1.07727E-05 9.06590E-19-4.08630E-18
 -1      3002 1.26110E-04-5.80286E-05-2.89704E-05 2.12524E-05 5.53801E-19-3.33795E-18
 -1      3003 1.31367E-04-5.97412E-05-3.05496E-05-1.40095E-05 2.43548E-19-2.25088E-18
 -1      3004 1.37858E-04-5.73744E-05-3.48795E-05-4.91578E-06-3.01650E-19-3.51265E-18
 -1      3005 1.23280E-04-9.72857E-06-4.93594E-05-3.29541E-06 5.61668E-18-2.21667E-18
 -1      3006 1.26608E-04-1.29670E-05-4.92243E-05-8.32142E-06 6.39425E-18-3.53721E-18
 -1      3007 9.13802E-05-1.61940E-05-3.22443E-05-4.99486E-06-1.51245E-18-3.77301E-18
 -1      3008 9.19410E-05-1.69703E-05-3.21524E-05-5.78365E-06-1.92817E-18-3.49880E-18
 -1      3009 9.21403E-05-1.75581E-05-3.19413E-05-3.95257E-06-1.27988E-18-3.53482E-18
 -1      3010 9.06724E-05-1.54682E-05-3.22155E-05 1.69244E-08 3.90901E-19-3.64355E-18
 -1      3011 8.96530E-05-1.38165E-05-3.25215E-05-3.31926E-07 2.93893E-19-3.96668E-18
 -1      3012 8.97267E-05-1.39099E-05-3.25127E-05-1.18848E-06-9.09742E-20-4.05911E-18
 -1      3013 3.49504E-05-1.27766E-05-8.86033E-06-5.18453E-06-4.35699E-19-5.95443E-18
 -1      3014 4.20007E-05-1.38354E-05-1.16298E-05-1.22745E-05-9.54044E-19-5.12137E-18
 -1      3015 4.02224E-05-1.23310E-05-1.15526E-05 2.09231E-06 1.93352E-19-5.48306E-18
 -1      3016 7.45662E-05-3.59245E-05-1.61928E-05-3.63457E-05-2.59176E-18-3.29485E-18
 -1      3017 7.89750E-05-4.10213E-05-1.57655E-05-3.90580E-05-2.94990E-18-3.74780E-18
 -1      3018 8.98550E-05-4.58919E-05-1.88962E-05-3.69591E-05-3.18251E-18-2.07714E-18
 -1      3019 9.44803E-05-2.12672E-05-3.13834E-05 6.55605E-06 2.93411E-18-1.28999E-18
 -1      3020 1.19729E-04-5.80819E-05-2.64209E-05 2.59826E-05-1.92700E-19-3.47945E-18
 -1      3021 1.11361E-04-5.45772E-05-2.40245E-05 2.88375E-05-1.40523E-18-3.11623E-18
 -1      3022 1.24338E-04-5.72766E-05-2.87818E-05 1.71297E-05-7.39672E-19-4.03320E-18
 -1      3023 1.28987E-04-2.28255E-05-4.60069E-05 1.22612E-05 3.64457E-18 6.31887E-19
 -1      3024 1.21874E-04-1.72098E-05-4.54561E-05 1.08496E-05 3.75829E-18 3.66871E-19
 -1      3025 1.26545E-04-2.81069E-05-4.23530E-05 1.30930E-05 2.50330E-18 1.31438E-18
 -1      3026 9.80980E-05-4.82631E-05-2.09534E-05-3.17134E-05 3.31148E-18 1.42696E-18
 -1      3027 1.34109E-04-5.22965E-05-3.52604E-05 2.41861E-06 1.01197E-18-4.07275E-18
 -1      3028 9.51353E-05-2.82877E-05-2.86484E-05 1.71716E-07 1.25391E-18-1.14534E-18
 -1      3029 9.51665E-05-2.83494E-05-2.86369E-05 1.46670E-07 1.05736E-18-1.61714E-18
 -1      3030 9.51901E-05-2.83774E-05-2.86335E-05 1.47904E-07 9.57682E-19-2.59126E-18
 -1      3031 1.38766E-04-5.28231E-05-3.69851E-05 4.67522E-06-2.41034E-19-3.50672E-18
 -1      3032 1.38228E-04-4.31806E-05-4.12764E-05 1.12487E-05-1.92414E-18-3.47760E-18
 -1      3033 8.69596E-05-4.36383E-05-1.81575E-05 3.68362E-05-2.68912E-18 9.26654E-19
 -1      3034 8.35632E-05-3.87263E-05-1.89446E-05 3.40450E-05-3.23582E-18 5.37231E-19
 -1      3035 9.69306E-05-4.81522E-05-2.09275E-05 3.42199E-05-2.34861E-18-8.94996E-19
 -1      3036 9.52132E-05-2.84128E-05-2.86296E-05 1.43296E-07 4.46998E-19-1.18690E-18
 -1      3037 9.52344E-05-2.84413E-05-2.86251E-05 1.33498E-07 1.11374E-19-1.53086E-19
 -1      3038 9.52425E-05-2.84301E-05-2.86330E-05 1.61225E-07-2.49899E-19 9.31083E-19
 -1      3039 9.51932E-05-2.83608E-05-2.86419E-05 1.79241E-07 1.39781E-18-2.05167E-18
 -1      3040 9.52344E-05-2.84130E-05-2.86381E-05-1.73314E-07 8.74367E-19 2.88390E-19
 -1      3041 9.52110E-05-2.83979E-05-2.86346E-05-1.57081E-07 7.16141E-19-1.81405E-19
 -1      3042 9.51915E-05-2.83454E-05-2.86473E-05-1.93795E-07 1.23729E-18 1.16184E-19
 -1      3043 9.52395E-05-2.83933E-05-2.86470E-05-2.07942E-07 1.25538E-18 7.17078E-19
 -1      3044 1.12432E-04-5.57018E-05-2.40539E-05-2.96712E-05-2.16576E-18-1.16255E-18
 -1      3045 6.98152E-05-3.54351E-05-1.41927E-05 3.61672E-05 2.03013E-18-5.11142E-18
 -1      3046 4.18345E-05-1.46609E-05-1.10351E-05 1.42739E-05-1.84992E-18 7.44489E-18
 -1      3047 4.06544E-05-1.46586E-05-1.04517E-05-1.21832E-05 3.53530E-19 6.25777E-18
 -1      3048 1.23863E-04-1.89810E-05-4.53452E-05-1.06609E-05 5.19528E-18-2.99251E-18
 -1      3049 1.21508E-04-1.04500E-05-4.82164E-05 4.03970E-07 4.73767E-18-1.08831E-18
 -1      3050 1.16223E-04-1.18356E-05-4.50491E-05-2.95526E-06 4.64555E-18-5.08908E-19
 -1      3051 1.18580E-04-1.15351E-05-4.62643E-05 4.79415E-06 4.29954E-18 1.23812E-19
 -1      3052 5.22234E-05-2.34786E-05-1.17727E-05-2.90856E-05-1.56426E-18-4.73142E-18
 -1      3053 1.26879E-04-5.63614E-05-3.02169E-05-1.20493E-05-1.24691E-18 5.25055E-19
 -1      3054 1.33432E-04-5.61432E-05-3.31906E-05-7.84620E-06-4.04935E-19 5.49513E-19
 -1      3055 1.31878E-04-5.19555E-05-3.45057E-05 3.79691E-08-5.78259E-19 1.17648E-18
 -1      3056 9.28540E-05-1.81774E-05-3.20020E-05-6.83968E-06-2.23338E-18-3.02491E-18
 -1      3057 9.47079E-05-2.22187E-05-3.10581E-05 4.94645E-06 2.55079E-18-1.52496E-18
 -1      3058 8.98889E-05-1.41358E-05-3.24871E-05-1.90988E-06-2.85646E-19-3.90327E-18
 -1      3059 9.01237E-05-1.44403E-05-3.24570E-05-2.76985E-06-6.76668E-19-3.95317E-18
 -1      3060 9.13201E-05-1.63712E-05-3.21037E-05-2.68527E-06-6.84570E-19-3.71261E-18
 -1      3061 9.08291E-05-1.56836E-05-3.21899E-05-1.34644E-06-1.94856E-19-3.72190E-18
 -1      3062 4.17037E-05-1.89595E-05-9.13131E-06 2.20598E-05 1.42587E-18-6.53041E-18
 -1      3063 4.40356E-05-1.57812E-05-1.16356E-05 1.64806E-05 8.75356E-19-6.20600E-18
 -1      3064 5.07099E-05-2.26567E-05-1.17944E-05 2.74493E-05 1.62731E-18-5.94596E-18
 -1      3065 1.13474E-04-5.67024E-05-2.46679E-05 2.74308E-05 2.81427E-18-1.01922E-18
 -1      3066 1.05112E-04-5.37381E-05-2.15689E-05 3.29723E-05 2.82401E-18-1.88168E-18
 -1      3067 9.47316E-05-4.63717E-05-2.03738E-05 3.36154E-05 2.80124E-18-1.89582E-18
 -1      3068 1.25193E-04-5.85677E-05-2.85654E-05-1.67250E-05 1.16282E-18-2.59647E-18
 -1      3069 6.34688E-05-2.89063E-05-1.42374E-05-3.11818E-05 2.51293E-18 4.73534E-18
 -1      3070 1.34432E-04-5.42433E-05-3.44243E-05 1.58185E-06 3.47800E-19-3.56304E-18
 -1      3071 9.42163E-05-2.14197E-05-3.12182E-05 4.14958E-06 2.27488E-18-2.29069E-18
 -1      3072 9.36388E-05-2.03759E-05-3.14034E-05 3.81911E-06 2.12160E-18-2.59461E-18
 -1      3073 1.31748E-04-4.87577E-05-3.60080E-05-4.09053E-06 1.32651E-18-3.64065E-18
 -1      3074 1.30429E-04-5.47098E-05-3.23928E-05 5.89568E-06-3.82912E-19-3.85628E-18
 -1      3075 9.55255E-05-2.59941E-05-2.97890E-05 8.88118E-07-1.28602E-18-1.76736E-18
 -1      3076 9.55109E-05-2.63298E-05-2.96525E-05 1.65706E-06-1.09031E-18-1.78653E-18
 -1      3077 9.54561E-05-2.65597E-05-2.95210E-05 2.30303E-06-1.09040E-18-1.56030E-18
 -1      3078 9.54283E-05-2.67170E-05-2.94469E-05 2.92398E-06-1.11459E-18-1.74846E-18
 -1      3079 9.53674E-05-2.59867E-05-2.97361E-05 1.84145E-06-1.04692E-18-1.77102E-18
 -1      3080 9.52915E-05-2.67737E-05-2.93633E-05 3.47484E-06-1.12054E-18-1.51387E-18
 -1      3081 9.52670E-05-2.68100E-05-2.93348E-05 4.01791E-06-9.78940E-19-1.62621E-18
 -1      3082 9.51834E-05-2.63364E-05-2.95068E-05 3.06850E-06-1.08760E-18-1.53284E-18
 -1      3083 9.50689E-05-2.67456E-05-2.92840E-05 4.52735E-06-6.12788E-19-1.57125E-18
 -1      3084 9.50529E-05-2.67028E-05-2.92866E-05 5.04645E-06-3.99042E-19-1.56962E-18
 -1      3085 9.48574E-05-2.63589E-05-2.93561E-05 4.14879E-06-7.84487E-19-1.34292E-18
 -1      3086 9.48033E-05-2.65584E-05-2.92539E-05 5.55807E-06-2.17186E-19-1.54878E-18
 -1      3087 9.47998E-05-2.64750E-05-2.92738E-05 6.09119E-06-1.77564E-19-1.27603E-18
 -1      3088 9.44189E-05-2.61545E-05-2.92541E-05 5.17886E-06-2.83274E-19-1.55574E-18
 -1      3089 9.45074E-05-2.62922E-05-2.92439E-05 6.63898E-06-2.48445E-19-8.93639E-19
 -1      3090 9.45284E-05-2.62146E-05-2.92672E-05 7.20897E-06-1.80708E-19-6.95317E-19
 -1      3091 9.38849E-05-2.58127E-05-2.91700E-05 6.23626E-06 1.83161E-20-1.50176E-18
 -1      3092 9.42106E-05-2.60477E-05-2.92232E-05 7.81886E-06-3.79336E-19-5.44762E-19
 -1      3093 9.42871E-05-2.60427E-05-2.92349E-05 8.43349E-06-1.94479E-19-7.65361E-19
 -1      3094 9.32791E-05-2.54362E-05-2.90706E-05 7.38238E-06-1.69345E-19-8.07981E-19
 -1      3095 9.39840E-05-2.59728E-05-2.91584E-05 9.12650E-06 4.28991E-20-7.15963E-19
 -1      3096 9.41822E-05-2.61438E-05-2.91425E-05 9.77754E-06 3.60246E-19-8.68765E-19
 -1      3097 9.26542E-05-2.51657E-05-2.89192E-05 8.66873E-06-1.16212E-19-5.83756E-19
 -1      3098 9.39785E-05-2.62969E-05-2.90145E-05 1.05730E-05 3.33573E-19-1.04640E-18
 -1      3099 9.44252E-05-2.68032E-05-2.89574E-05 1.12320E-05 3.21998E-19-9.98827E-19
 -1      3100 9.21257E-05-2.52133E-05-2.86764E-05 1.01474E-05 3.97762E-19-9.53338E-19
 -1      3101 9.44852E-05-2.73715E-05-2.87629E-05 1.21449E-05 4.20666E-19-1.02081E-18
 -1      3102 9.53989E-05-2.84453E-05-2.86613E-05 1.27493E-05 7.45375E-19-1.20362E-18
 -1      3103 9.19255E-05-2.59062E-05-2.83050E-05 1.18798E-05 3.92938E-19-1.33411E-18
 -1      3104 9.60165E-05-2.97009E-05-2.84012E-05 1.37680E-05 1.04540E-18-1.32146E-18
 -1      3105 9.77353E-05-3.16405E-05-2.82799E-05 1.41817E-05 1.08280E-18-1.49992E-18
 -1      3106 9.24847E-05-2.77346E-05-2.77854E-05 1.39243E-05 7.49685E-19-1.06988E-18
 -1      3107 9.94035E-05-3.39285E-05-2.79943E-05 1.52087E-05 1.57188E-18-1.15500E-18
 -1      3108 1.02304E-04-3.70138E-05-2.79385E-05 1.51225E-05 1.62962E-18-4.66089E-19
 -1      3109 9.45340E-05-3.13757E-05-2.71485E-05 1.62652E-05 1.37673E-18-1.01928E-18
 -1      3110 1.05997E-04-4.07119E-05-2.77949E-05 1.55818E-05 1.67947E-18 1.74476E-19
 -1      3111 1.10840E-04-4.47341E-05-2.81928E-05 1.38563E-05 2.16516E-18 8.92640E-19
 -1      3112 9.95463E-05-3.79236E-05-2.65616E-05 1.86571E-05 2.28801E-18-3.66959E-19
 -1      3113 1.13194E-04-5.00794E-05-2.69395E-05 1.82174E-05 2.81855E-18 6.46769E-19
 -1      3114 1.19160E-04-5.39532E-05-2.78300E-05 1.55222E-05 2.98465E-18 8.52664E-19
 -1      3115 1.31572E-04-5.61387E-05-3.23775E-05 3.34754E-06 2.31202E-18 2.25631E-18
 -1      3116 1.26027E-04-2.05228E-05-4.61057E-05 1.21118E-05-5.14721E-18-3.50603E-18
 -1      3117 1.30473E-04-5.57544E-05-3.18971E-05-3.88768E-06 5.76274E-19-3.64719E-18
 -1      3118 1.21171E-04-5.26566E-05-2.93827E-05-9.99540E-06 1.33289E-18-2.64372E-18
 -1      3119 1.16020E-04-4.90019E-05-2.84923E-05-1.30027E-05 2.43361E-18-1.75618E-18
 -1      3120 1.10088E-04-4.44167E-05-2.81148E-05-1.40204E-05 2.27550E-18-1.33083E-18
 -1      3121 1.05825E-04-4.03939E-05-2.78824E-05-1.51423E-05 2.06468E-18-1.31593E-18
 -1      3122 1.08208E-04-4.62638E-05-2.66814E-05-1.86533E-05 2.45804E-18-9.48399E-19
 -1      3123 1.02353E-04-3.68074E-05-2.80398E-05-1.46785E-05 2.19638E-18-8.32985E-19
 -1      3124 9.94430E-05-3.37296E-05-2.80966E-05-1.46971E-05 2.10160E-18-6.84412E-19
 -1      3125 9.94228E-05-3.75971E-05-2.66711E-05-1.81182E-05 2.43998E-18 3.60843E-19
 -1      3126 9.77625E-05-3.14283E-05-2.83805E-05-1.36717E-05 1.34017E-18-7.34472E-19
 -1      3127 9.60434E-05-2.94791E-05-2.85048E-05-1.31964E-05 1.65314E-18-1.24159E-19
 -1      3128 9.45129E-05-3.11889E-05-2.72449E-05-1.57741E-05 1.86874E-18 4.84189E-19
 -1      3129 9.54055E-05-2.82076E-05-2.87641E-05-1.21442E-05 1.79869E-18-9.58831E-20
 -1      3130 9.44855E-05-2.71220E-05-2.88684E-05-1.14742E-05 1.46693E-18 1.65527E-19
 -1      3131 9.24048E-05-2.74815E-05-2.78731E-05-1.33657E-05 1.88077E-18 5.68680E-19
 -1      3132 9.43993E-05-2.65365E-05-2.90596E-05-1.05134E-05 7.74695E-19 5.51568E-19
 -1      3133 9.39440E-05-2.60210E-05-2.91175E-05-9.78647E-06 6.08484E-19 5.79670E-19
 -1      3134 9.17855E-05-2.55927E-05-2.83852E-05-1.12226E-05 1.30605E-18 1.03146E-18
 -1      3135 9.41151E-05-2.58522E-05-2.92381E-05-8.93648E-06 3.50401E-19 6.12125E-19
 -1      3136 9.39061E-05-2.56787E-05-2.92514E-05-8.21891E-06 1.69607E-18 8.37973E-20
 -1      3137 9.19153E-05-2.48525E-05-2.87427E-05-9.37636E-06 5.03167E-19 1.00703E-18
 -1      3138 9.41715E-05-2.57408E-05-2.93143E-05-7.47292E-06 1.54509E-18-3.89167E-19
 -1      3139 9.40818E-05-2.57557E-05-2.92943E-05-6.80074E-06 7.37861E-20-2.49813E-19
 -1      3140 9.23640E-05-2.47779E-05-2.89608E-05-7.78267E-06 9.58806E-19 7.36309E-19
 -1      3141 9.43577E-05-2.59302E-05-2.93153E-05-6.15039E-06 2.20662E-19-1.50777E-18
 -1      3142 9.43196E-05-2.60376E-05-2.92746E-05-5.54349E-06-5.19942E-19-4.83922E-19
 -1      3143 9.29016E-05-2.50547E-05-2.90710E-05-6.39950E-06-1.44768E-19 6.89223E-19
 -1      3144 9.45678E-05-2.62540E-05-2.92681E-05-4.98228E-06-1.46174E-18-5.86437E-19
 -1      3145 9.45486E-05-2.63980E-05-2.92170E-05-4.45020E-06-1.83907E-18-5.15623E-19
 -1      3146 9.34157E-05-2.54894E-05-2.91056E-05-5.20056E-06-1.01383E-18-9.97374E-19
 -1      3147 9.47556E-05-2.66171E-05-2.91942E-05-3.97234E-06-1.83745E-18 3.66873E-19
 -1      3148 9.47414E-05-2.67669E-05-2.91400E-05-3.51731E-06-1.03122E-18 3.02837E-20
 -1      3149 9.38593E-05-2.59693E-05-2.90913E-05-4.16975E-06-1.23289E-18 5.35861E-19
 -1      3150 9.49061E-05-2.69688E-05-2.91090E-05-3.11654E-06 1.93953E-19-2.21410E-19
 -1      3151 9.48923E-05-2.71089E-05-2.90567E-05-2.73572E-06 3.26677E-19 1.02767E-18
 -1      3152 9.42203E-05-2.64334E-05-2.90485E-05-3.29463E-06-6.98992E-19 8.22046E-19
 -1      3153 9.50191E-05-2.72852E-05-2.90227E-05-2.40488E-06-3.47417E-20 1.23555E-18
 -1      3154 9.50047E-05-2.74087E-05-2.89750E-05-2.09228E-06 7.56591E-19 1.05492E-18
 -1      3155 9.45029E-05-2.68516E-05-2.89915E-05-2.56275E-06 5.86658E-19 1.01072E-18
 -1      3156 9.51000E-05-2.75573E-05-2.89417E-05-1.82348E-06 3.64275E-19 1.10974E-18
 -1      3157 9.50856E-05-2.76622E-05-2.88999E-05-1.57136E-06 7.48080E-19 1.13227E-18
 -1      3158 9.47180E-05-2.72125E-05-2.89299E-05-1.96029E-06 6.67108E-19 1.60377E-18
 -1      3159 9.51556E-05-2.77842E-05-2.88692E-05-1.35640E-06 2.69112E-19 1.23527E-19
 -1      3160 9.51419E-05-2.78710E-05-2.88337E-05-1.15640E-06-9.98765E-19-2.55229E-19
 -1      3161 9.48779E-05-2.75145E-05-2.88696E-05-1.47230E-06-4.33115E-19-6.11999E-21
 -1      3162 9.51923E-05-2.79692E-05-2.88064E-05-9.87156E-07-8.70163E-19-9.55102E-19
 -1      3163 9.51798E-05-2.80395E-05-2.87770E-05-8.31008E-07 1.81408E-20-9.16283E-19
 -1      3164 9.49944E-05-2.77615E-05-2.88141E-05-1.08333E-06-9.10350E-19-1.33180E-18
 -1      3165 9.52153E-05-2.81171E-05-2.87535E-05-7.00183E-07 1.05111E-19-8.03546E-19
 -1      3166 9.52043E-05-2.81731E-05-2.87295E-05-5.80355E-07-2.64161E-19-7.22802E-19
 -1      3167 9.50775E-05-2.79601E-05-2.87649E-05-7.78310E-07 1.67303E-20-2.20862E-18
 -1      3168 9.52284E-05-2.82347E-05-2.87097E-05-4.80144E-07-7.31414E-20-2.49271E-19
 -1      3169 9.52204E-05-2.82784E-05-2.86904E-05-3.91256E-07 7.52121E-19-4.51319E-19
 -1      3170 9.51339E-05-2.81164E-05-2.87224E-05-5.43919E-07-6.21303E-20-1.07385E-18
 -1      3171 9.52363E-05-2.83234E-05-2.86755E-05-3.23931E-07 8.55741E-19-5.12618E-19
 -1      3172 9.52301E-05-2.83586E-05-2.86598E-05-2.57485E-07 1.00231E-18 7.06378E-19
 -1      3173 9.52032E-05-2.83310E-05-2.86603E-05-2.54054E-07 1.54977E-18-1.88175E-19
 -1      3174 9.51757E-05-2.82369E-05-2.86880E-05-3.72566E-07 8.63621E-19-5.45933E-19
 -1      3175 1.23849E-04-5.58358E-05-2.92437E-05-1.29293E-05 1.31339E-18-3.20039E-18
 -1      3176 9.62975E-05-2.79742E-05-2.92735E-05-6.05827E-06-1.28541E-19-2.50206E-19
 -1      3177 9.60032E-05-2.78120E-05-2.92246E-05-5.71162E-06 2.63351E-19-4.47032E-19
 -1      3178 9.59606E-05-2.77512E-05-2.92252E-05-5.30179E-06 2.13298E-19-6.14637E-19
 -1      3179 9.57535E-05-2.76475E-05-2.91878E-05-4.92409E-06-4.26598E-21-7.34227E-19
 -1      3180 9.54769E-05-2.74051E-05-2.91789E-05-5.65024E-06 5.20912E-20-7.29482E-19
 -1      3181 9.77141E-05-2.91643E-05-2.93722E-05-7.30860E-06-1.50132E-19 1.78114E-19
 -1      3182 9.71373E-05-2.86983E-05-2.93250E-05-7.11187E-06-9.39184E-20-5.38849E-20
 -1      3183 9.90501E-05-3.04348E-05-2.94034E-05-7.60186E-06-2.31203E-19 4.62770E-19
 -1      3184 9.82494E-05-2.97063E-05-2.93622E-05-7.58337E-06-1.29884E-19 6.13003E-19
 -1      3185 9.68744E-05-2.90301E-05-2.90943E-05-7.98961E-06-2.57906E-19-1.31836E-19
 -1      3186 1.01031E-04-3.23570E-05-2.94352E-05-7.42054E-06-6.87682E-19 9.97848E-19
 -1      3187 9.99471E-05-3.13077E-05-2.93921E-05-7.69658E-06-4.35599E-19 6.56283E-19
 -1      3188 9.82755E-05-3.05767E-05-2.90426E-05-8.46088E-06-4.65965E-19 3.33458E-19
 -1      3189 1.03811E-04-3.49759E-05-2.95152E-05-6.46041E-06-5.52719E-19 1.00730E-18
 -1      3190 1.02420E-04-3.36198E-05-2.94461E-05-7.18195E-06-6.70898E-19 1.12212E-18
 -1      3191 1.00523E-04-3.29326E-05-2.90102E-05-8.47655E-06-7.19124E-19 9.40913E-19
 -1      3192 1.07386E-04-3.80536E-05-2.97445E-05-4.33426E-06-9.51365E-19 1.82315E-18
 -1      3193 1.05779E-04-3.65802E-05-2.95998E-05-5.65798E-06-7.01174E-19 1.41808E-18
 -1      3194 1.03850E-04-3.61395E-05-2.90754E-05-7.66731E-06-9.61697E-19 6.27076E-19
 -1      3195 1.11376E-04-4.08109E-05-3.02895E-05-6.91466E-07-6.31627E-19 1.71541E-18
 -1      3196 1.09848E-04-3.97114E-05-2.99948E-05-2.69177E-06-6.79350E-19 1.75670E-18
 -1      3197 1.08297E-04-3.98531E-05-2.93912E-05-5.49891E-06-7.17800E-19 1.28726E-18
 -1      3198 1.14780E-04-4.16935E-05-3.13633E-05 4.45143E-06-6.64061E-19 1.81510E-18
 -1      3199 1.13884E-04-4.18573E-05-3.08319E-05 1.95969E-06-6.11466E-19 1.81607E-18
 -1      3200 1.13378E-04-4.29982E-05-3.02015E-05-1.43483E-06-7.76125E-19 1.69949E-18
 -1      3201 1.15993E-04-3.87196E-05-3.31212E-05 9.74029E-06-3.37357E-20 1.99394E-18
 -1      3202 1.16275E-04-4.09649E-05-3.23215E-05 7.64106E-06-5.58377E-19 2.11389E-18
 -1      3203 1.17607E-04-4.33536E-05-3.17873E-05 4.61003E-06-6.13450E-19 1.75095E-18
 -1      3204 1.13644E-04-3.13172E-05-3.52855E-05 1.20639E-05 1.02226E-18 2.53850E-18
 -1      3205 1.15430E-04-3.53515E-05-3.44710E-05 1.21125E-05 3.70246E-19 2.35881E-18
 -1      3206 1.18954E-04-3.89953E-05-3.42591E-05 1.06782E-05 1.83436E-20 1.81255E-18
 -1      3207 1.12325E-04-2.11272E-05-3.92306E-05 9.89253E-06 2.56466E-18 2.10318E-18
 -1      3208 1.14744E-04-2.60304E-05-3.82384E-05 1.24287E-05 2.16786E-18 2.53626E-18
 -1      3209 1.09003E-04-1.64621E-05-3.98840E-05-1.02154E-06 2.97507E-18 4.19685E-19
 -1      3210 1.09048E-04-1.68227E-05-3.98085E-05 3.64724E-06 2.90522E-18 1.45725E-18
 -1      3211 1.14027E-04-3.17660E-05-3.54544E-05-1.29010E-05 8.66488E-19-2.78373E-18
 -1      3212 1.11978E-04-2.71394E-05-3.63609E-05-1.18993E-05 1.53731E-18-2.74872E-18
 -1      3213 1.16528E-04-3.92621E-05-3.31414E-05-1.01305E-05-1.28193E-18-3.04516E-18
 -1      3214 1.15415E-04-3.59892E-05-3.40299E-05-1.15438E-05-6.94210E-19-3.79767E-18
 -1      3215 1.18080E-04-3.54062E-05-3.54976E-05-1.24398E-05 6.81637E-19-3.88685E-18
 -1      3216 1.15053E-04-4.17424E-05-3.14047E-05-4.48398E-06-3.04720E-19-2.30958E-18
 -1      3217 1.15502E-04-4.09069E-05-3.20295E-05-6.78248E-06-5.41755E-19-3.04313E-18
 -1      3218 1.18690E-04-4.22801E-05-3.28476E-05-7.73075E-06-8.50143E-19-4.01514E-18
 -1      3219 1.11554E-04-4.06279E-05-3.03355E-05 6.36194E-07-1.39621E-18-1.68407E-18
 -1      3220 1.12892E-04-4.13578E-05-3.07094E-05-1.55559E-06-2.54179E-19-1.65141E-18
 -1      3221 1.15132E-04-4.34063E-05-3.08090E-05-1.31948E-06-6.10162E-19-2.24931E-18
 -1      3222 1.07399E-04-3.77129E-05-2.98039E-05 4.21551E-06-2.11884E-18-2.56186E-18
 -1      3223 1.09002E-04-3.91223E-05-2.99896E-05 2.65901E-06-1.70571E-18-1.98684E-18
 -1      3224 1.10305E-04-4.10955E-05-2.97177E-05 3.65937E-06-9.92862E-19-1.47523E-18
 -1      3225 1.03718E-04-3.45695E-05-2.95885E-05 6.17656E-06-1.07158E-18-2.61497E-18
 -1      3226 1.05200E-04-3.60196E-05-2.96718E-05 5.28386E-06-1.96171E-18-3.09098E-18
 -1      3227 1.05502E-04-3.74026E-05-2.92476E-05 6.48383E-06-1.37493E-18-2.66829E-18
 -1      3228 1.00907E-04-3.19578E-05-2.95184E-05 6.93649E-06-2.12849E-19-1.72271E-18
 -1      3229 1.02097E-04-3.31447E-05-2.95595E-05 6.55986E-06-4.70252E-19-2.06375E-18
 -1      3230 1.01701E-04-3.38834E-05-2.91117E-05 7.67626E-06-9.22658E-19-2.49626E-18
 -1      3231 9.89230E-05-3.00610E-05-2.94941E-05 6.91939E-06-4.64011E-19-9.88450E-19
 -1      3232 9.98126E-05-3.09185E-05-2.95266E-05 6.89942E-06-3.60670E-19-1.22817E-18
 -1      3233 9.90247E-05-3.11558E-05-2.91196E-05 7.84168E-06-7.68389E-19-1.10050E-18
 -1      3234 9.75971E-05-2.88216E-05-2.94662E-05 6.44053E-06-1.96470E-19-8.25696E-19
 -1      3235 9.82378E-05-2.93836E-05-2.95051E-05 6.64276E-06 9.45542E-20-4.98519E-19
 -1      3236 9.72796E-05-2.92725E-05-2.91668E-05 7.40875E-06-3.72933E-19-4.82480E-19
 -1      3237 9.67416E-05-2.80939E-05-2.94174E-05 5.72194E-06 1.37686E-18-1.82604E-18
 -1      3238 9.71962E-05-2.84284E-05-2.94660E-05 6.04558E-06 1.61318E-19-1.41637E-18
 -1      3239 9.62186E-05-2.81085E-05-2.92023E-05 6.66420E-06 3.08282E-19-8.13389E-19
 -1      3240 9.62005E-05-2.77254E-05-2.93469E-05 4.90928E-06 4.39289E-19 1.32055E-18
 -1      3241 9.65235E-05-2.79007E-05-2.94030E-05 5.28445E-06 9.83879E-19 5.93677E-20
 -1      3242 9.56153E-05-2.74780E-05-2.92085E-05 5.78860E-06 4.90310E-19 2.29036E-19
 -1      3243 9.58613E-05-2.75906E-05-2.92611E-05 4.09423E-06 4.90231E-20 6.31352E-19
 -1      3244 9.60933E-05-2.76621E-05-2.93207E-05 4.47499E-06 8.94555E-19 1.10565E-18
 -1      3245 9.52988E-05-2.72090E-05-2.91849E-05 4.89067E-06 4.83299E-19 1.61654E-18
 -1      3246 9.56486E-05-2.75966E-05-2.91681E-05 3.33160E-06-8.53635E-19 1.55771E-18
 -1      3247 9.58176E-05-2.76049E-05-2.92272E-05 3.68985E-06-8.60916E-19 7.05452E-19
 -1      3248 9.51524E-05-2.71673E-05-2.91383E-05 4.03506E-06 4.15112E-20 6.24986E-19
 -1      3249 9.55140E-05-2.76796E-05-2.90751E-05 2.65086E-06-4.74843E-19 1.79797E-18
 -1      3250 9.56387E-05-2.76526E-05-2.91306E-05 2.97125E-06-6.89176E-19 1.79177E-18
 -1      3251 9.51010E-05-2.72562E-05-2.90773E-05 3.25823E-06-1.25755E-18 7.47865E-19
 -1      3252 9.54273E-05-2.77977E-05-2.89871E-05 2.06433E-06-5.18794E-19 2.03132E-18
 -1      3253 9.55203E-05-2.77537E-05-2.90372E-05 2.34030E-06-3.49857E-19 1.75377E-18
 -1      3254 9.50984E-05-2.74106E-05-2.90096E-05 2.57778E-06 1.92799E-19 1.43364E-18
 -1      3255 9.53702E-05-2.79254E-05-2.89075E-05 1.57317E-06-8.38639E-19 1.44796E-18
 -1      3256 9.54398E-05-2.78757E-05-2.89511E-05 1.80389E-06-2.90016E-19 1.81793E-18
 -1      3257 9.51179E-05-2.75888E-05-2.89414E-05 1.99871E-06-5.09580E-19 3.08042E-19
 -1      3258 9.53314E-05-2.80478E-05-2.88380E-05 1.17172E-06-4.17977E-19 4.16122E-19
 -1      3259 9.53836E-05-2.79990E-05-2.88749E-05 1.35983E-06-3.72759E-19 1.23076E-18
 -1      3260 9.51443E-05-2.77659E-05-2.88768E-05 1.51788E-06-2.13625E-19 2.40733E-19
 -1      3261 9.53042E-05-2.81575E-05-2.87790E-05 8.50597E-07-2.50355E-19-6.32925E-20
 -1      3262 9.53432E-05-2.81131E-05-2.88095E-05 1.00059E-06-7.62169E-19-4.22513E-19
 -1      3263 9.51700E-05-2.79281E-05-2.88182E-05 1.12721E-06 2.84286E-19-1.18006E-18
 -1      3264 9.52846E-05-2.82514E-05-2.87299E-05 5.99007E-07 6.78644E-19 8.26451E-19
 -1      3265 9.53135E-05-2.82129E-05-2.87546E-05 7.16049E-07-6.44252E-20 3.46337E-19
 -1      3266 9.51916E-05-2.80693E-05-2.87670E-05 8.16077E-07-1.08228E-19-1.53879E-18
 -1      3267 9.52695E-05-2.83288E-05-2.86900E-05 4.06175E-07 1.12559E-18 1.97873E-18
 -1      3268 9.52910E-05-2.82967E-05-2.87096E-05 4.95604E-07 1.43435E-18 1.40923E-18
 -1      3269 9.52081E-05-2.81876E-05-2.87232E-05 5.73559E-07 3.28375E-19 5.63606E-19
 -1      3270 9.52583E-05-2.83910E-05-2.86577E-05 2.62376E-07-2.93463E-19 3.10278E-18
 -1      3271 9.52736E-05-2.83657E-05-2.86732E-05 3.27940E-07 4.31015E-19 2.66814E-18
 -1      3272 9.52187E-05-2.82839E-05-2.86866E-05 3.88165E-07 4.35356E-19 7.38834E-19
 -1      3273 9.52440E-05-2.84156E-05-2.86405E-05 1.90702E-07 7.69189E-19 1.07521E-18
 -1      3274 9.52562E-05-2.84054E-05-2.86493E-05 2.26134E-07 9.38556E-19 2.51240E-18
 -1      3275 9.52209E-05-2.83447E-05-2.86616E-05 2.72498E-07 8.93087E-19 3.08817E-19
 -1      3276 9.52188E-05-2.83818E-05-2.86455E-05 2.04030E-07 1.24687E-18-7.81524E-19
 -1      3277 1.03897E-04-5.13659E-05-2.20733E-05-3.21891E-05-2.76064E-18-1.37769E-18
 -1      3278 1.16108E-04-5.53549E-05-2.61438E-05-2.34557E-05-2.28024E-18-3.32791E-19
 -1      3279 9.16945E-05-1.73335E-05-3.18840E-05 1.45294E-06 9.30936E-19-3.13654E-18
 -1      3280 9.15253E-05-1.70902E-05-3.19145E-05 8.21611E-07 5.65362E-19-3.34775E-18
 -1      3281 9.50561E-05-2.81727E-05-2.86640E-05-1.79602E-07 2.57932E-19-7.05311E-19
 -1      3282 9.50277E-05-2.81450E-05-2.86653E-05-1.51479E-07 1.61489E-19-9.66878E-19
 -1      3283 9.49787E-05-2.80918E-05-2.86664E-05-2.17532E-08-2.45919E-19-5.65989E-19
 -1      3284 9.49786E-05-2.80919E-05-2.86663E-05 1.95508E-08 9.33193E-20-1.30008E-18
 -1      3285 9.51292E-05-2.82556E-05-2.86599E-05-2.18650E-07 1.92296E-18 1.75325E-18
 -1      3286 9.50948E-05-2.82186E-05-2.86624E-05-2.07136E-07 9.16044E-19 1.64171E-18
 -1      3287 9.50444E-05-2.81341E-05-2.86744E-05-2.29403E-07 5.57280E-19 1.09620E-18
 -1      3288 9.50028E-05-2.81161E-05-2.86659E-05-1.09190E-07 2.08153E-19-1.21736E-18
 -1      3289 9.49875E-05-2.81016E-05-2.86664E-05-7.19832E-08 2.14997E-19-9.08459E-19
 -1      3290 9.49356E-05-2.80200E-05-2.86766E-05-5.44066E-08-5.34377E-19-6.59652E-19
 -1      3291 9.49735E-05-2.80592E-05-2.86762E-05-1.53551E-07-5.41369E-19-1.31625E-18
 -1      3292 7.12944E-05-2.88369E-05-1.80820E-05 2.93742E-05-3.97097E-18 1.91493E-18
 -1      3293 6.06397E-05-2.16195E-05-1.61799E-05 2.49146E-05-3.92957E-18 4.67345E-18
 -1      3294 1.30896E-04-4.47188E-05-3.69719E-05 8.31272E-06 9.41265E-20 1.47490E-18
 -1      3295 1.28533E-04-3.84974E-05-3.91603E-05 1.15810E-05 1.09201E-18 1.46722E-18
 -1      3296 9.68461E-05-2.83979E-05-2.93273E-05-6.75042E-06-1.93961E-19-3.15851E-20
 -1      3297 9.64336E-05-2.81188E-05-2.92759E-05-6.45500E-06-1.82369E-19 6.45191E-21
 -1      3298 9.56518E-05-2.76314E-05-2.91589E-05-6.48925E-06-2.86780E-19 1.71543E-19
 -1      3299 9.60683E-05-2.81145E-05-2.91343E-05-7.28968E-06-3.00006E-19 8.51614E-20
 -1      3300 4.16836E-05-1.20483E-05-1.23716E-05-4.73760E-06 4.47463E-19 7.23927E-18
 -1      3301 4.76587E-05-1.60582E-05-1.33585E-05-1.76168E-05 9.98758E-19 4.93100E-18
 -1      3302 9.55894E-05-2.67236E-05-2.95165E-05-1.39535E-06 1.48642E-18-1.33412E-18
 -1      3303 9.55937E-05-2.63718E-05-2.96527E-05-6.29381E-07 1.57826E-18-1.20515E-18
 -1      3304 9.56141E-05-2.71990E-05-2.93193E-05-2.62974E-06 1.50801E-18-1.49346E-18
 -1      3305 9.55857E-05-2.69922E-05-2.93872E-05-2.04686E-06 1.50069E-18-1.34682E-18
 -1      3306 9.55756E-05-2.64429E-05-2.96335E-05-1.62074E-06 1.52525E-18-1.30974E-18
 -1      3307 7.86410E-05-3.69110E-05-1.77922E-05 3.34847E-05 2.34136E-18-3.75638E-18
 -1      3308 6.39086E-05-2.92059E-05-1.42617E-05 3.20364E-05 2.01070E-18-5.28792E-18
 -1      3309 6.18959E-05-2.48157E-05-1.54742E-05 2.68272E-05 1.72154E-18-5.30751E-18
 -1      3310 9.54057E-05-2.49071E-05-3.02037E-05-9.09388E-07-1.56977E-18-2.06659E-18
 -1      3311 9.54546E-05-2.55105E-05-2.99843E-05 9.09827E-08-1.39163E-18-2.02384E-18
 -1      3312 9.53509E-05-2.51780E-05-3.00746E-05 3.60093E-07-1.20006E-18-1.98795E-18
 -1      3313 4.93767E-05-1.57829E-05-1.43293E-05 1.75370E-05-2.35102E-18 6.09525E-18
 -1      3314 4.31916E-05-1.19019E-05-1.28937E-05 5.54558E-06-1.13161E-18 6.50659E-18
 -1      3315 1.25849E-04-3.15063E-05-4.09469E-05-1.32716E-05 4.05824E-18-4.14284E-18
 -1      3316 1.29464E-04-3.93330E-05-3.85637E-05-1.16000E-05 2.81760E-18-4.42945E-18
 -1      3317 9.05950E-05-4.18296E-05-2.03362E-05-3.13738E-05 4.26126E-18 1.35761E-18
 -1      3318 1.06394E-04-5.05917E-05-2.39946E-05-2.68564E-05 3.43255E-18-1.12428E-18
 -1      3319 1.15310E-04-5.38029E-05-2.59664E-05-2.15659E-05 2.68184E-18-1.68626E-18
 -1      3320 1.17601E-04-1.72714E-05-4.35008E-05-9.98945E-06 4.48673E-18-1.44115E-18
 -1      3321 1.22488E-04-2.36463E-05-4.26389E-05-1.34346E-05 4.28016E-18-3.13746E-18
 -1      3322 9.53161E-05-2.39726E-05-3.05767E-05 3.40702E-06 2.31554E-18-1.32768E-18
 -1      3323 9.46585E-05-2.23714E-05-3.09728E-05 3.92828E-06 2.27932E-18-1.80294E-18
 -1      3324 9.48681E-05-2.30892E-05-3.07576E-05 2.74368E-06 2.12676E-18-1.99149E-18
 -1      3325 9.53714E-05-2.48472E-05-3.02349E-05 2.00445E-06 2.19981E-18-1.27735E-18
 -1      3326 5.88699E-05-2.30586E-05-1.47945E-05-2.63147E-05 1.54478E-18 2.95350E-18
 -1      3327 7.29561E-05-3.29188E-05-1.72898E-05-3.24424E-05 3.09998E-18 3.70085E-18
 -1      3328 5.10584E-05-1.89475E-05-1.33457E-05-2.30036E-05-1.39541E-18-4.35756E-18
 -1      3329 6.19056E-05-2.60801E-05-1.50711E-05-3.03325E-05-2.00519E-18-3.70905E-18
 -1      3330 9.34244E-05-1.94744E-05-3.16898E-05-5.53239E-06-1.95774E-18-2.98368E-18
 -1      3331 9.14355E-05-1.69595E-05-3.19321E-05 3.26153E-07 3.90217E-19-3.41298E-18
 -1      3332 9.14294E-05-1.69517E-05-3.19332E-05-3.10009E-07 1.65995E-19-3.45146E-18
 -1      3333 9.22763E-05-1.83976E-05-3.16418E-05 4.46202E-07 4.07006E-19-3.19351E-18
 -1      3334 4.45139E-05-1.32925E-05-1.27264E-05 9.68595E-06 3.94241E-19-5.43922E-18
 -1      3335 4.64085E-05-1.27273E-05-1.41370E-05 2.35111E-06 5.96894E-21-5.13376E-18
 -1      3336 1.05772E-04-5.05505E-05-2.34757E-05 2.81463E-05-2.53692E-18-3.24033E-18
 -1      3337 1.26249E-04-5.31065E-05-3.15694E-05 3.87993E-06-7.41088E-19-3.76223E-18
 -1      3338 1.27072E-04-5.62675E-05-3.04427E-05 1.08437E-05-9.51165E-19-3.59560E-18
 -1      3339 1.20933E-04-5.45033E-05-2.83145E-05 1.50076E-05-1.33979E-18-4.29420E-18
 -1      3340 6.99643E-05-3.02633E-05-1.65512E-05-3.19215E-05-2.25475E-18-3.50756E-18
 -1      3341 7.86661E-05-3.50880E-05-1.86261E-05-3.22885E-05-2.36417E-18-3.06499E-18
 -1      3342 6.76300E-05-2.58712E-05-1.76638E-05-2.71714E-05-1.69348E-18-3.33450E-18
 -1      3343 1.24466E-04-3.28346E-05-3.95562E-05 1.30151E-05 1.56299E-18 1.63557E-18
 -1      3344 1.03774E-04-4.59906E-05-2.47443E-05 2.40123E-05 2.82712E-18 3.94400E-21
 -1      3345 9.50929E-05-2.82208E-05-2.86607E-05 2.05103E-07 1.16759E-18-8.80680E-19
 -1      3346 9.51278E-05-2.82577E-05-2.86582E-05 2.17945E-07 1.60196E-18-1.63499E-18
 -1      3347 9.26145E-05-1.87115E-05-3.16844E-05-2.93211E-06-1.01665E-18-3.31404E-18
 -1      3348 9.30920E-05-1.94691E-05-3.15756E-05-3.47819E-06-1.35030E-18-3.36641E-18
 -1      3349 8.46608E-05-3.63639E-05-2.04351E-05-2.85866E-05 3.83653E-18 1.20199E-18
 -1      3350 9.49782E-05-2.32285E-05-3.07519E-05-2.95525E-06-1.81559E-18-2.42198E-18
 -1      3351 9.51490E-05-2.41145E-05-3.04560E-05-1.78316E-06-1.75318E-18-2.30407E-18
 -1      3352 9.50342E-05-2.37831E-05-3.05316E-05-1.36041E-06-1.51356E-18-2.39325E-18
 -1      3353 1.08041E-04-1.96488E-05-3.79156E-05-6.06822E-06 3.23323E-18-1.99278E-19
 -1      3354 1.12525E-04-1.55906E-05-4.18275E-05-5.04870E-06 4.13749E-18-1.09029E-19
 -1      3355 1.15208E-04-1.68770E-05-4.25960E-05-8.39439E-06 4.16518E-18-8.32051E-19
 -1      3356 1.09802E-04-2.29750E-05-3.74412E-05-9.80389E-06 2.79693E-18-1.80116E-18
 -1      3357 9.40423E-05-2.12801E-05-3.11637E-05 2.76548E-06 1.92556E-18-2.51114E-18
 -1      3358 9.31320E-05-1.95461E-05-3.15586E-05 3.49411E-06 2.02094E-18-2.78765E-18
 -1      3359 9.26653E-05-1.87986E-05-3.16699E-05 2.96863E-06 1.81772E-18-2.91084E-18
 -1      3360 5.83515E-05-1.95270E-05-1.61764E-05-1.98114E-05 1.54345E-18 3.58840E-18
 -1      3361 1.20499E-04-2.86737E-05-3.96124E-05-1.32968E-05 3.60487E-18-2.50169E-18
 -1      3362 9.39791E-05-2.09707E-05-3.12951E-05-4.19856E-06-1.81646E-18-2.83689E-18
 -1      3363 4.98559E-05-1.28113E-05-1.54080E-05-8.52537E-08-5.91864E-19 5.97306E-18
 -1      3364 8.54823E-05-3.66588E-05-2.08536E-05 2.91322E-05-3.82322E-18 5.20290E-19
 -1      3365 7.80182E-05-3.24834E-05-1.91631E-05 3.00444E-05-3.90633E-18 1.31629E-18
 -1      3366 7.51679E-05-2.79592E-05-2.01302E-05 2.54610E-05-4.21855E-18 1.50952E-18
 -1      3367 9.56592E-05-2.74590E-05-2.92243E-05-3.63097E-06 9.42510E-19-1.08263E-18
 -1      3368 9.55794E-05-2.73322E-05-2.92432E-05-3.15759E-06 1.29610E-18-1.33252E-18
 -1      3369 9.55438E-05-2.69253E-05-2.94132E-05-2.84813E-06 1.15834E-18-1.50741E-18
 -1      3370 9.54429E-05-2.72909E-05-2.92127E-05-4.78668E-06 1.30723E-19-7.80752E-19
 -1      3371 9.57634E-05-2.76122E-05-2.92014E-05-4.50057E-06 3.55673E-20-7.67258E-19
 -1      3372 9.56250E-05-2.75186E-05-2.91861E-05-4.08802E-06 4.85490E-19-9.63117E-19
 -1      3373 1.14247E-04-2.50343E-05-3.83976E-05-1.19278E-05 2.95162E-18-1.33630E-18
 -1      3374 9.73518E-05-4.67804E-05-2.14354E-05-3.19266E-05-2.83333E-18-2.03913E-18
 -1      3375 9.19447E-05-1.77028E-05-3.18314E-05 1.93004E-06 1.25899E-18-2.98211E-18
 -1      3376 9.26054E-05-1.88920E-05-3.15702E-05 1.32071E-06 1.05185E-18-2.79079E-18
 -1      3377 9.22702E-05-1.81891E-05-3.17666E-05 2.53303E-06 1.61732E-18-2.93594E-18
 -1      3378 9.50278E-05-2.81478E-05-2.86641E-05 1.49828E-07 8.53478E-19-2.19039E-18
 -1      3379 9.50555E-05-2.81754E-05-2.86625E-05 1.77719E-07 9.38274E-19-2.27904E-19
 -1      3380 9.50428E-05-2.81386E-05-2.86724E-05 2.27532E-07 9.96788E-19-7.51408E-19
 -1      3381 5.97629E-05-1.84086E-05-1.74468E-05 1.78188E-05-2.77139E-18 4.13569E-18
 -1      3382 9.49874E-05-2.81028E-05-2.86659E-05 6.99803E-08 5.63884E-19-2.75395E-18
 -1      3383 9.50027E-05-2.81178E-05-2.86651E-05 1.07779E-07 1.11362E-18-4.02331E-18
 -1      3384 9.49738E-05-2.80625E-05-2.86749E-05 1.52354E-07 8.34428E-19-3.35000E-18
 -1      3385 9.49356E-05-2.80211E-05-2.86762E-05 5.32726E-08 6.92474E-19-2.56931E-18
 -1      3386 1.28447E-04-4.83371E-05-3.44379E-05 3.54454E-06-6.53393E-19 1.59285E-18
 -1      3387 1.17607E-04-1.63880E-05-4.36701E-05 7.86318E-06 3.59290E-18 1.20988E-18
 -1      3388 1.21929E-04-5.60009E-05-2.81331E-05-1.70350E-05-1.84531E-18 2.65637E-19
 -1      3389 1.23724E-04-5.40053E-05-2.99227E-05-9.30835E-06-1.64842E-18 5.90805E-19
 -1      3390 1.13531E-04-5.23766E-05-2.62200E-05-2.07295E-05-2.32743E-18-4.38081E-19
 -1      3391 8.82782E-05-4.17939E-05-1.96072E-05 3.29251E-05 2.69515E-18-2.59160E-18
 -1      3392 8.14481E-05-3.58029E-05-1.94273E-05 3.02628E-05 2.35915E-18-2.83195E-18
 -1      3393 9.62858E-05-4.56065E-05-2.18280E-05 3.05638E-05 2.76000E-18-1.65060E-18
 -1      3394 1.27652E-04-4.42075E-05-3.59036E-05-7.68142E-06 1.80148E-18-3.87520E-18
 -1      3395 4.94890E-05-1.57897E-05-1.42344E-05 1.52050E-05 7.82275E-19-5.41201E-18
 -1      3396 1.07404E-04-4.86221E-05-2.51608E-05-2.29092E-05 3.35841E-18-8.09022E-19
 -1      3397 9.51759E-05-2.83029E-05-2.86605E-05-2.46441E-07 1.70689E-18-3.74930E-19
 -1      3398 9.51510E-05-2.82800E-05-2.86600E-05-2.34087E-07 1.99929E-18-6.25143E-20
 -1      3399 9.51076E-05-2.82036E-05-2.86730E-05-2.71302E-07 1.59194E-18 1.18179E-18
 -1      3400 9.51641E-05-2.82574E-05-2.86734E-05-2.98367E-07 1.45593E-18-1.17282E-18
 -1      3401 9.55377E-05-2.60208E-05-2.97996E-05 7.76041E-08 1.75657E-18-1.24161E-18
 -1      3402 9.55429E-05-2.54591E-05-3.00225E-05 1.10622E-06 2.00541E-18-1.22940E-18
 -1      3403 9.53481E-05-2.46677E-05-3.02943E-05 1.48474E-06 2.06666E-18-1.39168E-18
 -1      3404 9.55257E-05-2.57072E-05-2.99272E-05-1.98399E-07 1.67074E-18-1.29641E-18
 -1      3405 9.19060E-05-1.76411E-05-3.18403E-05-1.90181E-06-4.54566E-19-3.51361E-18
 -1      3406 9.22204E-05-1.81130E-05-3.17779E-05-2.51069E-06-8.37968E-19-3.47737E-18
 -1      3407 9.31591E-05-1.97768E-05-3.14329E-05-2.08892E-06-9.69389E-19-3.19896E-18
 -1      3408 1.01843E-04-4.28555E-05-2.49386E-05-2.25604E-05 3.09466E-18 1.58044E-19
 -1      3409 1.12849E-04-5.24614E-05-2.59557E-05 2.22901E-05-1.73483E-18-4.45081E-18
 -1      3410 1.00564E-04-4.59250E-05-2.32724E-05 2.72582E-05-2.85289E-18-2.89657E-18
 -1      3411 9.02759E-05-3.72075E-05-2.28580E-05-2.53844E-05 3.60861E-18 7.53701E-19
 -1      3412 9.34445E-05-3.59855E-05-2.45454E-05-2.15680E-05 2.53104E-18 9.63771E-19
 -1      3413 7.67779E-05-2.84655E-05-2.03361E-05-2.53230E-05 3.11840E-18 1.54880E-18
 -1      3414 6.61578E-05-2.03719E-05-1.97121E-05 1.84482E-05-3.41782E-18 3.13889E-18
 -1      3415 5.83493E-05-1.48885E-05-1.82613E-05 1.12445E-05-2.04503E-18 3.92015E-18
 -1      3416 9.41785E-05-2.16604E-05-3.10685E-05-2.40832E-06-1.41785E-18-2.83549E-18
 -1      3417 9.38129E-05-2.07497E-05-3.13093E-05-3.47569E-06-1.63659E-18-2.94318E-18
 -1      3418 1.22844E-04-5.75138E-05-2.78645E-05 1.78895E-05 2.52575E-18 4.45222E-19
 -1      3419 9.50434E-05-2.59090E-05-2.96285E-05 2.53305E-06-9.21285E-19-1.68553E-18
 -1      3420 9.49080E-05-2.60091E-05-2.95296E-05 3.10295E-06-8.89747E-19-1.56125E-18
 -1      3421 9.46334E-05-2.59963E-05-2.94185E-05 3.58349E-06-8.40915E-19-1.39266E-18
 -1      3422 9.44350E-05-2.59487E-05-2.93503E-05 4.10048E-06-5.36728E-19-1.24299E-18
 -1      3423 9.44918E-05-2.55882E-05-2.95254E-05 3.06556E-06-6.56191E-19-1.59764E-18
 -1      3424 9.40443E-05-2.57922E-05-2.92571E-05 4.55863E-06-4.76077E-19-1.18165E-18
 -1      3425 9.37931E-05-2.56427E-05-2.92044E-05 5.06491E-06-2.62292E-19-1.33497E-18
 -1      3426 9.38359E-05-2.54374E-05-2.93075E-05 3.99441E-06-5.15859E-19-1.27158E-18
 -1      3427 9.32953E-05-2.53884E-05-2.91127E-05 5.53633E-06 8.73217E-20-1.54711E-18
 -1      3428 9.29998E-05-2.51837E-05-2.90594E-05 6.06536E-06 2.18440E-19-1.32817E-18
 -1      3429 9.29584E-05-2.50235E-05-2.91066E-05 4.90160E-06-2.13329E-19-1.13820E-18
 -1      3430 9.24010E-05-2.48808E-05-2.89504E-05 6.58309E-06 9.51922E-20-1.35818E-18
 -1      3431 9.20783E-05-2.46784E-05-2.88787E-05 7.16220E-06-3.52158E-20-1.09183E-18
 -1      3432 9.18732E-05-2.44441E-05-2.88873E-05 5.85358E-06 9.12772E-20-1.32471E-18
 -1      3433 9.13889E-05-2.43895E-05-2.87309E-05 7.76233E-06-2.51882E-19-7.56643E-19
 -1      3434 9.10783E-05-2.42707E-05-2.86208E-05 8.41807E-06-1.00473E-19-8.54300E-19
 -1      3435 9.05940E-05-2.38103E-05-2.86081E-05 6.91842E-06 5.68648E-20-1.22939E-18
 -1      3436 9.03245E-05-2.40853E-05-2.84088E-05 9.15060E-06 9.34282E-20-9.82382E-19
 -1      3437 9.01088E-05-2.41731E-05-2.82393E-05 9.91609E-06 3.29126E-19-1.08650E-18
 -1      3438 8.91523E-05-2.32684E-05-2.82207E-05 8.18412E-06-8.80876E-20-9.41418E-19
 -1      3439 8.93509E-05-2.42257E-05-2.79349E-05 1.08611E-05 3.74059E-19-1.19247E-18
 -1      3440 8.93927E-05-2.47112E-05-2.76878E-05 1.17826E-05 4.04131E-19-1.10383E-18
 -1      3441 8.76226E-05-2.30276E-05-2.76689E-05 9.78863E-06 2.56177E-19-1.30386E-18
 -1      3442 8.87640E-05-2.52103E-05-2.72618E-05 1.30649E-05 6.36427E-19-1.07342E-18
 -1      3443 8.93599E-05-2.63865E-05-2.69320E-05 1.41931E-05 7.66383E-19-9.01246E-19
 -1      3444 8.61733E-05-2.34121E-05-2.68894E-05 1.19628E-05 6.11952E-19-1.20843E-18
 -1      3445 8.91324E-05-2.76347E-05-2.63629E-05 1.59684E-05 1.17007E-18-8.26737E-19
 -1      3446 9.07538E-05-2.99391E-05-2.59795E-05 1.73486E-05 1.88080E-18-7.04253E-19
 -1      3447 8.51637E-05-2.49403E-05-2.58189E-05 1.50439E-05 1.01604E-18-1.06842E-18
 -1      3448 9.13243E-05-3.20958E-05-2.52607E-05 1.96575E-05 2.28694E-18-5.79232E-19
 -1      3449 9.43461E-05-3.62555E-05-2.48464E-05 2.15604E-05 2.51352E-18-4.31193E-19
 -1      3450 8.53682E-05-2.84815E-05-2.44174E-05 1.94099E-05 2.22526E-18-9.24082E-19
 -1      3451 9.01830E-05-4.09935E-05-2.06799E-05-3.15713E-05-2.42754E-18-2.65661E-18
 -1      3452 1.00930E-04-4.64053E-05-2.33960E-05-2.72150E-05-2.16915E-18-1.67612E-18
 -1      3453 8.47514E-05-3.58733E-05-2.07963E-05-2.87290E-05-1.83669E-18-2.89654E-18
 -1      3454 1.15099E-04-4.52484E-05-2.98141E-05 3.71384E-06-1.19776E-18-2.61751E-18
 -1      3455 1.17721E-04-4.61009E-05-3.06550E-05 5.26749E-07-1.45432E-18-3.87531E-18
 -1      3456 9.03639E-05-3.18776E-05-2.49450E-05-1.98149E-05 3.03219E-18 1.47251E-18
 -1      3457 8.98581E-05-2.94998E-05-2.57502E-05-1.72629E-05 2.51296E-18 9.52077E-19
 -1      3458 8.81500E-05-2.70970E-05-2.61386E-05-1.58140E-05 1.93903E-18 7.26223E-19
 -1      3459 8.28355E-05-2.77494E-05-2.36985E-05-1.99936E-05 2.51121E-18 2.40339E-19
 -1      3460 8.84878E-05-2.58451E-05-2.67767E-05-1.38312E-05 1.45716E-18 9.03149E-19
 -1      3461 8.78412E-05-2.45924E-05-2.71117E-05-1.26423E-05 1.55569E-18 3.08339E-19
 -1      3462 8.30347E-05-2.39872E-05-2.53143E-05-1.49731E-05 2.03304E-18 7.77434E-19
 -1      3463 8.85489E-05-2.40971E-05-2.75831E-05-1.12255E-05 1.95311E-18 8.86259E-20
 -1      3464 8.84685E-05-2.35628E-05-2.78317E-05-1.02457E-05 1.34386E-18 3.29069E-19
 -1      3465 8.43611E-05-2.24300E-05-2.65360E-05-1.15173E-05 1.56122E-18 3.84747E-19
 -1      3466 8.92680E-05-2.35073E-05-2.81622E-05-9.21538E-06 8.88180E-19 1.31734E-19
 -1      3467 8.94491E-05-2.33920E-05-2.83271E-05-8.39190E-06 6.79723E-19 7.45483E-19
 -1      3468 8.60111E-05-2.20285E-05-2.74074E-05-9.13304E-06 1.47503E-18-4.75559E-19
 -1      3469 9.02191E-05-2.35796E-05-2.85479E-05-7.60086E-06 5.89574E-19 9.32883E-19
 -1      3470 9.04951E-05-2.36940E-05-2.86450E-05-6.89445E-06 5.55518E-19 8.80734E-19
 -1      3471 8.76497E-05-2.22639E-05-2.80067E-05-7.39597E-06 4.67680E-19-8.92040E-20
 -1      3472 9.11824E-05-2.40015E-05-2.87843E-05-6.25682E-06-4.18858E-19 7.36413E-19
 -1      3473 9.14684E-05-2.42274E-05-2.88316E-05-5.64427E-06-4.98641E-19 5.42242E-19
 -1      3474 8.91417E-05-2.28365E-05-2.84018E-05-6.04866E-06 1.07116E-19 5.37172E-19
 -1      3475 9.20543E-05-2.45785E-05-2.89126E-05-5.11304E-06-9.99061E-19 9.81148E-19
 -1      3476 9.23116E-05-2.48453E-05-2.89260E-05-4.58232E-06-1.51410E-18 1.07374E-18
 -1      3477 9.04337E-05-2.35591E-05-2.86481E-05-4.94960E-06-6.47669E-19 6.69773E-19
 -1      3478 9.27956E-05-2.51951E-05-2.89668E-05-4.13295E-06-1.20484E-18 1.45807E-18
 -1      3479 9.30104E-05-2.54629E-05-2.89588E-05-3.67727E-06-1.14032E-18 1.15381E-18
 -1      3480 9.15153E-05-2.43171E-05-2.87893E-05-4.02535E-06-1.12653E-18 2.12725E-18
 -1      3481 9.34007E-05-2.57868E-05-2.89730E-05-3.29662E-06-1.25785E-18 9.67542E-19
 -1      3482 9.35721E-05-2.60344E-05-2.89526E-05-2.91067E-06-4.36465E-19 7.69001E-19
 -1      3483 9.23982E-05-2.50435E-05-2.88587E-05-3.23918E-06-1.48648E-18 1.54524E-18
 -1      3484 9.38808E-05-2.63208E-05-2.89502E-05-2.59064E-06 3.88145E-19 1.03810E-18
 -1      3485 9.40131E-05-2.65388E-05-2.89238E-05-2.26885E-06 1.19556E-18 1.07161E-18
 -1      3486 9.31046E-05-2.57024E-05-2.88810E-05-2.57176E-06-8.09871E-20 2.43686E-18
 -1      3487 9.42531E-05-2.67839E-05-2.89116E-05-2.00308E-06 7.36478E-19 9.66438E-19
 -1      3488 9.43527E-05-2.69694E-05-2.88835E-05-1.73915E-06-3.71943E-20 5.40609E-19
 -1      3489 9.36600E-05-2.62781E-05-2.88739E-05-2.01070E-06 9.27231E-19 1.37319E-18
 -1      3490 9.45364E-05-2.71739E-05-2.88663E-05-1.52168E-06-5.16201E-19 3.33399E-19
 -1      3491 9.46099E-05-2.73279E-05-2.88389E-05-1.30876E-06-1.40419E-18-7.01198E-19
 -1      3492 9.40897E-05-2.67670E-05-2.88498E-05-1.54556E-06-2.85668E-19-2.76020E-19
 -1      3493 9.47481E-05-2.74950E-05-2.88198E-05-1.13363E-06-1.31283E-18-2.44569E-19
 -1      3494 9.48011E-05-2.76203E-05-2.87947E-05-9.64618E-07-1.79766E-19-2.91717E-20
 -1      3495 9.44170E-05-2.71729E-05-2.88170E-05-1.16604E-06-6.52020E-19-9.53296E-20
 -1      3496 9.49033E-05-2.77539E-05-2.87756E-05-8.25955E-07-3.63295E-19-1.00362E-18
 -1      3497 9.49410E-05-2.78549E-05-2.87533E-05-6.93592E-07-3.99594E-19-1.29034E-18
 -1      3498 9.46624E-05-2.75039E-05-2.87812E-05-8.61779E-07-4.62594E-19 4.23446E-19
 -1      3499 9.50164E-05-2.79611E-05-2.87354E-05-5.86138E-07 6.63834E-19-7.71677E-19
 -1      3500 9.50407E-05-2.80375E-05-2.87161E-05-4.86219E-07 9.86581E-19 5.14004E-19
 -1      3501 9.48415E-05-2.77696E-05-2.87455E-05-6.22032E-07 7.36348E-19 1.64737E-19
 -1      3502 9.96903E-05-3.30560E-05-2.85441E-05-9.60760E-06-7.19806E-19 2.96844E-19
 -1      3503 9.82767E-05-3.15589E-05-2.85639E-05-9.64697E-06-6.43934E-19 3.56320E-19
 -1      3504 9.72985E-05-3.03733E-05-2.86664E-05-9.21027E-06-7.83681E-19 8.86671E-20
 -1      3505 9.63880E-05-2.93701E-05-2.87080E-05-8.99379E-06-4.91753E-19-9.65267E-20
 -1      3506 9.61039E-05-3.03857E-05-2.82058E-05-1.02992E-05-8.83604E-19-1.17051E-19
 -1      3507 9.59140E-05-2.86549E-05-2.88109E-05-8.46971E-06-3.10125E-19-3.05629E-19
 -1      3508 9.53719E-05-2.80465E-05-2.88490E-05-8.12377E-06-2.00454E-19-3.22350E-19
 -1      3509 9.47186E-05-2.83941E-05-2.84481E-05-9.18702E-06-4.88907E-19-2.96486E-20
 -1      3510 1.03420E-04-3.68068E-05-2.85431E-05-9.26993E-06-1.28448E-18 3.08962E-19
 -1      3511 1.01405E-04-3.48145E-05-2.84857E-05-9.77875E-06-1.12497E-18 1.17343E-19
 -1      3512 9.87075E-05-3.35323E-05-2.79991E-05-1.11720E-05-9.21700E-19 5.94511E-20
 -1      3513 1.08629E-04-4.13143E-05-2.88623E-05-7.57430E-06-9.63606E-19 9.24669E-19
 -1      3514 1.06084E-04-3.91006E-05-2.86210E-05-8.84548E-06-9.31711E-19 8.14769E-19
 -1      3515 1.02975E-04-3.79422E-05-2.79639E-05-1.13479E-05-1.41033E-18-1.82244E-20
 -1      3516 1.14829E-04-4.54298E-05-2.98102E-05-3.63747E-06-6.97211E-19 1.22401E-18
 -1      3517 1.12297E-04-4.37914E-05-2.92566E-05-5.96847E-06-9.04936E-19 9.98369E-19
 -1      3518 1.09361E-04-4.32187E-05-2.84164E-05-9.65137E-06-9.22746E-19 4.84715E-19
 -1      3519 1.21905E-04-3.76351E-05-3.61458E-05 1.22312E-05 4.93053E-19 2.20904E-18
 -1      3520 1.22700E-04-4.26828E-05-3.44659E-05 9.00043E-06 2.68007E-21 1.85306E-18
 -1      3521 1.19578E-04-2.94920E-05-3.88607E-05 1.35178E-05 1.51193E-18 1.90953E-18
 -1      3522 1.08382E-04-4.07706E-05-2.88702E-05 7.50694E-06-1.27587E-18-1.95172E-18
 -1      3523 1.11047E-04-4.28930E-05-2.92200E-05 5.87277E-06-7.55487E-19-1.52677E-18
 -1      3524 1.12295E-04-4.50468E-05-2.88990E-05 7.97578E-06-1.84564E-18-3.03837E-18
 -1      3525 1.03003E-04-3.61510E-05-2.85839E-05 9.04626E-06-8.56478E-19-2.31265E-18
 -1      3526 1.05261E-04-3.83238E-05-2.86944E-05 8.33061E-06-9.69886E-19-1.77037E-18
 -1      3527 1.05163E-04-3.98429E-05-2.81239E-05 1.05300E-05-1.16094E-18-2.07507E-18
 -1      3528 9.92669E-05-3.24468E-05-2.85971E-05 9.18541E-06-1.72028E-18-4.44666E-19
 -1      3529 1.00923E-04-3.41637E-05-2.85991E-05 9.02697E-06-1.75750E-18-1.53016E-18
 -1      3530 1.00053E-04-3.48236E-05-2.80215E-05 1.08109E-05-1.92766E-18-6.56768E-19
 -1      3531 9.68602E-05-2.97973E-05-2.87210E-05 8.60559E-06-1.05062E-18 2.09382E-19
 -1      3532 9.79727E-05-3.10072E-05-2.86848E-05 8.78834E-06-1.06217E-18 1.14725E-19
 -1      3533 9.67663E-05-3.11468E-05-2.81709E-05 1.01060E-05-1.78612E-18 1.66181E-20
 -1      3534 9.54627E-05-2.81139E-05-2.88556E-05 7.69137E-06-4.13113E-19-6.23994E-21
 -1      3535 9.61581E-05-2.88811E-05-2.88189E-05 8.05187E-06-6.49704E-19 5.80309E-21
 -1      3536 9.48438E-05-2.86551E-05-2.83948E-05 8.96545E-06-1.05564E-18 7.95645E-19
 -1      3537 9.47385E-05-2.71664E-05-2.89584E-05 6.66511E-06 7.04043E-19 2.03220E-19
 -1      3538 9.51445E-05-2.75986E-05-2.89363E-05 7.10415E-06 2.49713E-19 3.97717E-19
 -1      3539 9.38775E-05-2.71701E-05-2.86035E-05 7.72316E-06-3.97210E-19 5.28842E-19
 -1      3540 9.44301E-05-2.67286E-05-2.90176E-05 5.64094E-06-4.54289E-19 1.29839E-18
 -1      3541 9.46505E-05-2.69301E-05-2.90134E-05 6.10030E-06 1.24875E-19-2.05743E-20
 -1      3542 9.35048E-05-2.64077E-05-2.87626E-05 6.52376E-06 2.63361E-19 1.11781E-18
 -1      3543 9.43623E-05-2.66204E-05-2.90368E-05 4.67764E-06 1.35030E-18-3.74785E-19
 -1      3544 9.44703E-05-2.66735E-05-2.90479E-05 5.12223E-06 7.53854E-19 9.94222E-20
 -1      3545 9.34760E-05-2.61269E-05-2.88660E-05 5.42111E-06 4.66473E-19 1.14511E-19
 -1      3546 9.44218E-05-2.67091E-05-2.90248E-05 3.80632E-06-6.62073E-19 5.48129E-19
 -1      3547 9.44653E-05-2.66739E-05-2.90469E-05 4.21564E-06 6.78231E-19 7.33584E-19
 -1      3548 9.36291E-05-2.61474E-05-2.89205E-05 4.43574E-06 3.44125E-19-3.12407E-19
 -1      3549 9.45384E-05-2.69027E-05-2.89919E-05 3.04140E-06-1.14449E-18 4.40580E-21
 -1      3550 9.45476E-05-2.68204E-05-2.90204E-05 3.40461E-06-1.44518E-18 5.44360E-19
 -1      3551 9.38628E-05-2.63401E-05-2.89369E-05 3.57397E-06-9.64452E-19 7.75499E-19
 -1      3552 9.46714E-05-2.71403E-05-2.89466E-05 2.38646E-06 3.48378E-19 1.32272E-18
 -1      3553 9.46642E-05-2.70381E-05-2.89779E-05 2.69938E-06-3.82073E-19 8.54582E-19
 -1      3554 9.41164E-05-2.66171E-05-2.89265E-05 2.83448E-06-8.59426E-19 3.00299E-19
 -1      3555 9.47987E-05-2.73844E-05-2.88960E-05 1.83793E-06-4.70473E-19-1.00502E-19
 -1      3556 9.47853E-05-2.72790E-05-2.89272E-05 2.10084E-06 6.53849E-19 7.08449E-19
 -1      3557 9.43567E-05-2.69215E-05-2.88991E-05 2.21124E-06 5.93789E-19 7.94140E-19
 -1      3558 9.49099E-05-2.76132E-05-2.88449E-05 1.38776E-06-5.14551E-20-1.11029E-18
 -1      3559 9.48956E-05-2.75143E-05-2.88743E-05 1.60378E-06-7.19644E-19-1.14679E-18
 -1      3560 9.45674E-05-2.72187E-05-2.88623E-05 1.69510E-06 2.57454E-19-1.31839E-18
 -1      3561 9.50011E-05-2.78157E-05-2.87966E-05 1.02522E-06 5.70258E-20-1.08048E-18
 -1      3562 9.49885E-05-2.77281E-05-2.88230E-05 1.19917E-06 6.31960E-20-9.86495E-19
 -1      3563 9.47426E-05-2.74893E-05-2.88216E-05 1.27503E-06-4.88232E-20-1.34854E-18
 -1      3564 9.50723E-05-2.79878E-05-2.87527E-05 7.38587E-07-5.86802E-19-5.82189E-19
 -1      3565 9.50625E-05-2.79133E-05-2.87758E-05 8.75849E-07 2.21701E-19-9.44659E-19
 -1      3566 9.48823E-05-2.77246E-05-2.87810E-05 9.38709E-07-1.78225E-19-2.79759E-19
 -1      3567 9.51262E-05-2.81308E-05-2.87142E-05 5.17440E-07 2.18901E-19-9.60995E-20
 -1      3568 9.51193E-05-2.80695E-05-2.87339E-05 6.22107E-07-7.85428E-19-1.22899E-18
 -1      3569 9.49900E-05-2.79225E-05-2.87426E-05 6.73626E-07-1.34248E-19-8.58856E-19
 -1      3570 9.51649E-05-2.82446E-05-2.86811E-05 3.47855E-07 4.20264E-19-6.97184E-19
 -1      3571 9.51592E-05-2.81947E-05-2.86977E-05 4.27627E-07 7.94888E-19-7.69686E-19
 -1      3572 9.50692E-05-2.80816E-05-2.87079E-05 4.70449E-07 8.24961E-19-9.93678E-19
 -1      3573 9.49516E-05-2.69923E-05-2.91179E-05-5.78027E-06-3.28919E-19-6.72916E-19
 -1      3574 9.49084E-05-2.69225E-05-2.91390E-05-5.34693E-06-1.10609E-19-9.21945E-19
 -1      3575 5.16760E-05-1.32874E-05-1.63798E-05 3.13540E-06 2.07087E-19-4.57895E-18
 -1      3576 4.97000E-05-1.26818E-05-1.54030E-05-3.88348E-06 2.08483E-20-4.66837E-18
 -1      3577 9.51608E-05-2.83035E-05-2.86542E-05 2.18433E-07 1.08117E-18-2.62959E-18
 -1      3578 9.51907E-05-2.83394E-05-2.86504E-05 2.14868E-07 1.35599E-18-2.00595E-18
 -1      3579 9.51895E-05-2.83202E-05-2.86581E-05 2.46263E-07 1.44205E-18-1.76128E-18
 -1      3580 9.51200E-05-2.82305E-05-2.86668E-05 2.56178E-07 1.39841E-18-1.05438E-18
 -1      3581 1.26116E-04-5.21919E-05-3.16653E-05-2.40982E-06-1.43671E-18 8.69426E-19
 -1      3582 1.25021E-04-4.63081E-05-3.38260E-05 5.36000E-06-5.49380E-19 1.53633E-18
 -1      3583 1.20912E-04-4.60162E-05-3.21389E-05 3.78035E-06-6.13358E-19 1.31067E-18
 -1      3584 1.20988E-04-5.16492E-05-2.97770E-05-7.63169E-06-1.34613E-18 8.20775E-19
 -1      3585 9.50207E-05-2.80849E-05-2.86859E-05-2.93780E-07 1.52514E-18 3.08214E-18
 -1      3586 9.49726E-05-2.80414E-05-2.86870E-05-2.59956E-07 6.95087E-19 6.21802E-19
 -1      3587 6.82392E-05-2.57102E-05-1.80887E-05 2.54311E-05 2.12281E-18-4.60103E-18
 -1      3588 5.82315E-05-1.95597E-05-1.60077E-05 2.13025E-05 1.76317E-18-5.26701E-18
 -1      3589 9.54878E-05-2.62005E-05-2.96982E-05-1.83614E-06 1.40548E-18-1.51321E-18
 -1      3590 9.54897E-05-2.58414E-05-2.98416E-05-1.14048E-06 1.40682E-18-1.62796E-18
 -1      3591 4.87039E-05-1.36402E-05-1.48044E-05-9.67665E-06-3.29615E-19-4.52220E-18
 -1      3592 4.81728E-05-1.57077E-05-1.34532E-05-1.71518E-05-9.11487E-19-4.77663E-18
 -1      3593 5.74591E-05-1.85562E-05-1.63971E-05-1.91264E-05-8.12503E-19-4.04966E-18
 -1      3594 5.40648E-05-1.41304E-05-1.69563E-05-7.95067E-06-3.07683E-19-4.05109E-18
 -1      3595 1.23549E-04-4.03195E-05-3.59401E-05-1.07127E-05 1.72416E-18-3.83409E-18
 -1      3596 1.26771E-04-4.74591E-05-3.38017E-05-5.00542E-06-2.49716E-19-4.50044E-18
 -1      3597 9.15086E-05-1.70628E-05-3.19183E-05-8.01653E-07 1.25889E-20-3.54571E-18
 -1      3598 9.16645E-05-1.72895E-05-3.18903E-05-1.43207E-06-2.84542E-19-3.48169E-18
 -1      3599 9.25613E-05-1.88348E-05-3.15785E-05-1.30418E-06-3.73549E-19-3.32731E-18
 -1      3600 5.75338E-05-1.57621E-05-1.77018E-05-1.32154E-05 1.58051E-18 4.01525E-18
 -1      3601 6.61521E-05-2.21223E-05-1.88918E-05-2.17190E-05 2.05443E-18 1.90874E-18
 -1      3602 7.46177E-05-2.41809E-05-2.13866E-05-1.98532E-05 2.13292E-18 7.03381E-19
 -1      3603 1.14260E-04-2.05232E-05-4.02627E-05-1.10404E-05 4.07259E-18-1.03187E-18
 -1      3604 9.51203E-05-2.43883E-05-3.03133E-05-1.51994E-07-1.16980E-18-2.26227E-18
 -1      3605 9.52046E-05-2.49687E-05-3.01071E-05 6.80892E-07-1.03660E-18-2.16806E-18
 -1      3606 9.52311E-05-2.54189E-05-2.99168E-05 1.31854E-06-8.42609E-19-2.09266E-18
 -1      3607 9.51831E-05-2.57235E-05-2.97722E-05 1.99418E-06-8.22317E-19-1.89176E-18
 -1      3608 9.49022E-05-2.53791E-05-2.97918E-05 2.04574E-06-7.26230E-19-2.00462E-18
 -1      3609 5.73274E-05-1.73185E-05-1.68917E-05 1.56261E-05 1.23721E-18-4.70199E-18
 -1      3610 5.44531E-05-1.31581E-05-1.77371E-05 3.19808E-06-1.32560E-18 4.41431E-18
 -1      3611 5.44232E-05-1.33667E-05-1.74005E-05-6.39992E-06 2.10931E-19 4.57835E-18
 -1      3612 6.25756E-05-1.57817E-05-1.97945E-05-9.06807E-06 7.62187E-19 2.88044E-18
 -1      3613 1.16645E-04-5.17311E-05-2.76703E-05 1.51001E-05-2.08428E-18-3.46135E-18
 -1      3614 9.49294E-05-2.79368E-05-2.87132E-05-4.20808E-07 1.22839E-18 2.21109E-18
 -1      3615 9.50491E-05-2.80767E-05-2.87013E-05-3.93191E-07 9.46967E-19 1.11272E-18
 -1      3616 6.60643E-05-2.21027E-05-1.84714E-05-2.22699E-05-9.67550E-19-3.03143E-18
 -1      3617 7.17638E-05-2.58837E-05-1.96415E-05-2.41949E-05-1.20111E-18-2.97097E-18
 -1      3618 7.42891E-05-2.44599E-05-2.10330E-05 2.10239E-05-3.64392E-18 1.66371E-18
 -1      3619 7.11816E-05-2.09163E-05-2.15337E-05 1.61254E-05-2.46365E-18 2.23236E-18
 -1      3620 9.51116E-05-2.81765E-05-2.86875E-05-3.47841E-07 8.31080E-19 7.85493E-19
 -1      3621 7.49931E-05-2.91260E-05-1.91582E-05 2.72373E-05 2.34322E-18-3.74624E-18
 -1      3622 7.04854E-05-2.46293E-05-1.95248E-05 2.31881E-05 2.43620E-18-4.11743E-18
 -1      3623 8.29114E-05-3.37298E-05-2.07330E-05 2.69441E-05 2.58891E-18-2.32431E-18
 -1      3624 6.16877E-05-1.48851E-05-1.98682E-05 5.37198E-06-1.21554E-18 3.20074E-18
 -1      3625 6.23411E-05-1.83163E-05-1.88108E-05 1.57182E-05 1.58058E-18-4.02034E-18
 -1      3626 5.58388E-05-1.45144E-05-1.72639E-05 1.01110E-05 7.81136E-19-3.99117E-18
 -1      3627 5.74214E-05-1.43718E-05-1.82725E-05 4.49743E-06 5.90931E-19-3.91123E-18
 -1      3628 1.00653E-04-4.40651E-05-2.42868E-05-2.39860E-05-1.70888E-18-1.23445E-18
 -1      3629 1.08005E-04-4.89699E-05-2.50959E-05-2.31392E-05-2.21614E-18-8.83601E-19
 -1      3630 1.12696E-04-4.98454E-05-2.69140E-05-1.70758E-05-1.80630E-18-3.87653E-19
 -1      3631 1.19438E-04-4.69562E-05-3.10423E-05 3.57873E-07-9.79134E-19 1.11321E-18
 -1      3632 9.48719E-05-2.79367E-05-2.86870E-05-9.26850E-08-1.07371E-18-1.18876E-18
 -1      3633 9.48606E-05-2.79270E-05-2.86869E-05-3.58432E-08-6.71264E-19-1.05119E-18
 -1      3634 9.41336E-05-2.72700E-05-2.86683E-05-8.05033E-06-4.64979E-22-5.61973E-19
 -1      3635 9.52182E-05-2.76718E-05-2.89364E-05-7.59313E-06-2.74779E-20-2.00130E-19
 -1      3636 9.49237E-05-2.73408E-05-2.89643E-05-7.19000E-06-1.38856E-19-6.04222E-20
 -1      3637 9.45236E-05-4.09165E-05-2.28006E-05 2.66265E-05-3.44417E-18-1.16270E-18
 -1      3638 8.80819E-05-3.48396E-05-2.28153E-05 2.43161E-05-3.92401E-18-2.03473E-19
 -1      3639 1.01818E-04-4.33293E-05-2.49781E-05 2.14884E-05-2.65333E-18-2.94384E-18
 -1      3640 9.54821E-05-2.71679E-05-2.92824E-05-3.87282E-06 6.65335E-19-9.68594E-19
 -1      3641 9.50778E-05-2.69279E-05-2.92017E-05-4.88742E-06 7.05317E-20-1.17213E-18
 -1      3642 9.50870E-05-2.68763E-05-2.92340E-05-4.43830E-06 1.89647E-19-1.12236E-18
 -1      3643 9.45195E-05-2.65107E-05-2.91481E-05-5.00990E-06-2.58148E-19-1.29476E-18
 -1      3644 1.17855E-04-4.80392E-05-2.99548E-05-4.68212E-06-7.98269E-19 7.32611E-19
 -1      3645 9.47962E-05-2.78318E-05-2.86970E-05 1.10635E-09-7.66429E-19-2.74347E-18
 -1      3646 9.48609E-05-2.79277E-05-2.86866E-05 3.67075E-08-1.33227E-19-3.09859E-18
 -1      3647 9.48724E-05-2.79392E-05-2.86862E-05 9.35539E-08 9.54029E-19-4.49797E-18
 -1      3648 9.50913E-05-2.81712E-05-2.86810E-05 3.17861E-07 1.67027E-18-4.06947E-19
 -1      3649 9.51318E-05-2.82176E-05-2.86771E-05 3.18210E-07 1.22935E-18-8.45598E-19
 -1      3650 9.32245E-05-1.98627E-05-3.14185E-05 2.12264E-06 1.53707E-18-2.68463E-18
 -1      3651 1.21478E-04-3.84751E-05-3.58036E-05-1.17110E-05 1.61870E-18-3.92822E-18
 -1      3652 1.20014E-04-3.22633E-05-3.76042E-05-1.37097E-05 2.80511E-18-2.59215E-18
 -1      3653 9.48195E-05-2.70271E-05-2.90561E-05-6.25839E-06-3.51217E-19-3.10382E-19
 -1      3654 9.42142E-05-2.65412E-05-2.90057E-05-5.96255E-06-4.42884E-19-9.79515E-19
 -1      3655 9.49570E-05-2.71848E-05-2.90356E-05-6.68307E-06-4.40277E-19-2.05523E-19
 -1      3656 9.51901E-05-2.83001E-05-2.86666E-05 2.84345E-07 8.24104E-19-8.66579E-19
 -1      3657 1.16603E-04-2.63074E-05-3.90466E-05-1.29604E-05 3.22434E-18-1.78427E-18
 -1      3658 9.50247E-05-2.80932E-05-2.86840E-05 2.97861E-07 1.26700E-18-2.15160E-18
 -1      3659 9.50274E-05-2.80748E-05-2.86945E-05 3.64745E-07 1.26068E-18-1.24920E-18
 -1      3660 1.20929E-04-4.16315E-05-3.40846E-05-9.87080E-06-4.41860E-19-4.62958E-18
 -1      3661 9.49768E-05-2.80480E-05-2.86854E-05 2.65524E-07 5.73057E-19-1.45977E-18
 -1      3662 9.49284E-05-2.79918E-05-2.86870E-05-2.07675E-07-3.62972E-19-1.12989E-18
 -1      3663 9.48963E-05-2.79627E-05-2.86873E-05-1.59347E-07-4.55488E-19-7.79547E-19
 -1      3664 9.48236E-05-2.78575E-05-2.86979E-05-1.46081E-07-6.45063E-19-3.77987E-19
 -1      3665 9.32599E-05-3.98068E-05-2.28121E-05 2.61051E-05 2.82631E-18-9.38618E-19
 -1      3666 9.46310E-05-2.27919E-05-3.07948E-05-1.69143E-06-1.35667E-18-2.58809E-18
 -1      3667 9.48841E-05-2.36348E-05-3.05409E-05-7.92674E-07-1.22478E-18-2.45174E-18
 -1      3668 9.47337E-05-2.34196E-05-3.05593E-05-4.44047E-07-1.01723E-18-2.51214E-18
 -1      3669 9.40070E-05-2.15211E-05-3.10591E-05-1.78949E-06-1.07996E-18-2.89204E-18
 -1      3670 9.54407E-05-2.64613E-05-2.95581E-05-2.41775E-06 1.23893E-18-1.41778E-18
 -1      3671 9.53084E-05-2.58994E-05-2.97465E-05-1.98507E-06 1.31702E-18-1.49765E-18
 -1      3672 9.54090E-05-2.66547E-05-2.94661E-05-2.98425E-06 9.57560E-19-1.29196E-18
 -1      3673 9.52723E-05-2.50580E-05-3.00897E-05-6.71996E-07 1.46492E-18-2.09568E-18
 -1      3674 9.54114E-05-2.53421E-05-3.00361E-05-4.23949E-07 1.50723E-18-1.69334E-18
 -1      3675 9.33412E-05-2.04154E-05-3.12564E-05-1.28445E-06-7.35918E-19-3.02461E-18
 -1      3676 9.36771E-05-2.09907E-05-3.11638E-05-1.59165E-06-9.99032E-19-2.98974E-18
 -1      3677 9.41541E-05-2.20374E-05-3.08971E-05-9.48215E-07-9.84517E-19-2.86541E-18
 -1      3678 6.23506E-05-1.89699E-05-1.84533E-05-1.73822E-05-4.77740E-19-3.29488E-18
 -1      3679 9.53612E-05-2.48746E-05-3.01962E-05 3.30020E-07 1.61368E-18-1.66184E-18
 -1      3680 9.22603E-05-1.83774E-05-3.16446E-05-4.44387E-07 5.97958E-20-3.25874E-18
 -1      3681 9.49009E-05-2.79335E-05-2.86986E-05-2.72615E-07 1.04853E-18 6.32717E-19
 -1      3682 9.50088E-05-2.46846E-05-3.01359E-05 8.60864E-07-8.85629E-19-2.34755E-18
 -1      3683 9.32323E-05-2.02657E-05-3.12851E-05 1.14100E-06 1.24307E-18-2.50288E-18
 -1      3684 9.30019E-05-1.98996E-05-3.13398E-05 7.68297E-07 8.58131E-19-2.62967E-18
 -1      3685 7.90139E-05-2.78523E-05-2.18838E-05 2.27389E-05-3.60883E-18 9.36157E-19
 -1      3686 9.34747E-05-2.08506E-05-3.11038E-05 3.89749E-07 8.23662E-19-2.54577E-18
 -1      3687 9.28434E-05-1.96588E-05-3.13769E-05 5.12295E-07 6.48481E-19-2.89893E-18
 -1      3688 9.27564E-05-1.95285E-05-3.13951E-05 1.16628E-07 3.53070E-19-3.09601E-18
 -1      3689 9.50235E-05-2.35475E-05-3.06244E-05 2.12390E-06 1.94865E-18-1.81223E-18
 -1      3690 9.46135E-05-2.26214E-05-3.08593E-05 2.35475E-06 1.89225E-18-2.28378E-18
 -1      3691 9.42073E-05-2.18358E-05-3.10221E-05 2.15141E-06 1.75578E-18-2.45843E-18
 -1      3692 9.51725E-05-2.42550E-05-3.04018E-05 1.16917E-06 1.70697E-18-1.74216E-18
 -1      3693 1.20969E-04-4.84489E-05-3.10571E-05 9.13111E-07-1.41948E-18-4.35833E-18
 -1      3694 1.22938E-04-4.71814E-05-3.24864E-05-2.64276E-06-1.30613E-18-4.40264E-18
 -1      3695 1.19608E-04-5.05968E-05-2.97016E-05 7.15058E-06-2.19564E-18-4.05670E-18
 -1      3696 9.48328E-05-2.77995E-05-2.87264E-05-4.58472E-07 7.67362E-19 1.71186E-18
 -1      3697 9.48543E-05-2.78595E-05-2.87117E-05-3.57430E-07 1.38415E-18 2.00136E-18
 -1      3698 9.47958E-05-2.78074E-05-2.87112E-05-2.99357E-07 3.96581E-19 1.92738E-18
 -1      3699 7.72721E-05-2.71355E-05-2.13851E-05-2.21300E-05-7.89527E-19-3.02883E-18
 -1      3700 7.97631E-05-3.05964E-05-2.07747E-05-2.61793E-05-1.56953E-18-3.35761E-18
 -1      3701 8.87524E-05-3.63506E-05-2.25009E-05-2.56671E-05-1.48979E-18-2.35905E-18
 -1      3702 7.52448E-05-2.18267E-05-2.29777E-05 1.48089E-05-1.61164E-18 1.56193E-18
 -1      3703 6.97565E-05-1.80424E-05-2.19391E-05 1.17685E-05-1.72829E-18 2.82962E-18
 -1      3704 9.36663E-05-2.51777E-05-2.93581E-05 3.27785E-06-2.45160E-19-1.51709E-18
 -1      3705 9.32749E-05-2.50298E-05-2.92500E-05 3.71397E-06-1.30388E-19-1.27141E-18
 -1      3706 9.26876E-05-2.47734E-05-2.91151E-05 4.06765E-06-2.37815E-19-1.08907E-18
 -1      3707 9.21874E-05-2.45092E-05-2.90061E-05 4.50147E-06-3.62497E-20-1.14396E-18
 -1      3708 9.25847E-05-2.45197E-05-2.91595E-05 3.33563E-06-1.81732E-21-1.18995E-18
 -1      3709 9.14434E-05-2.41442E-05-2.88553E-05 4.87062E-06-8.52323E-20-1.01049E-18
 -1      3710 9.08399E-05-2.38131E-05-2.87260E-05 5.33264E-06-6.63469E-20-1.08993E-18
 -1      3711 9.12688E-05-2.38917E-05-2.88615E-05 4.00517E-06-6.33848E-20-1.03900E-18
 -1      3712 8.99329E-05-2.33890E-05-2.85366E-05 5.74714E-06 1.04412E-19-1.22662E-18
 -1      3713 8.92349E-05-2.30486E-05-2.83641E-05 6.27140E-06 1.62966E-19-1.08934E-18
 -1      3714 8.96370E-05-2.30772E-05-2.85069E-05 4.71430E-06-1.57818E-19-1.02077E-18
 -1      3715 8.81483E-05-2.26203E-05-2.81081E-05 6.77464E-06 5.22116E-21-1.14866E-18
 -1      3716 8.73784E-05-2.23470E-05-2.78655E-05 7.41284E-06 4.23421E-20-1.10245E-18
 -1      3717 8.76656E-05-2.21727E-05-2.80442E-05 5.52876E-06 1.11666E-19-1.15011E-18
 -1      3718 8.60905E-05-2.19882E-05-2.75074E-05 8.07733E-06 1.25973E-19-1.37248E-18
 -1      3719 8.53014E-05-2.18906E-05-2.71631E-05 8.91445E-06 9.27389E-20-1.32311E-18
 -1      3720 8.53154E-05-2.12894E-05-2.74084E-05 6.55952E-06-2.09049E-21-1.30016E-18
 -1      3721 8.37766E-05-2.16967E-05-2.66554E-05 9.87272E-06 3.13201E-19-1.38199E-18
 -1      3722 8.30921E-05-2.19489E-05-2.61733E-05 1.10549E-05 5.54424E-19-1.36286E-18
 -1      3723 8.25257E-05-2.05626E-05-2.65141E-05 7.99998E-06 1.74587E-19-1.65010E-18
 -1      3724 8.12960E-05-2.20780E-05-2.54463E-05 1.25531E-05 6.03873E-19-1.47745E-18
 -1      3725 8.09847E-05-2.29731E-05-2.47922E-05 1.42784E-05 1.14178E-18-1.58341E-18
 -1      3726 7.91919E-05-2.01834E-05-2.52383E-05 1.01974E-05 5.11974E-19-1.80717E-18
 -1      3727 9.44570E-05-2.29253E-05-3.06654E-05-4.70862E-07-8.19304E-19-2.70631E-18
 -1      3728 9.46882E-05-2.36447E-05-3.04427E-05 1.51198E-07-8.08332E-19-2.48678E-18
 -1      3729 9.41651E-05-2.23820E-05-3.07646E-05-3.80960E-07-6.30825E-19-2.55496E-18
 -1      3730 1.00940E-04-3.72099E-05-2.72117E-05 1.35496E-05-1.69966E-18-2.65243E-18
 -1      3731 1.04216E-04-4.03999E-05-2.73423E-05 1.32178E-05-1.57900E-18-3.06060E-18
 -1      3732 7.44430E-05-2.19094E-05-2.24809E-05-1.67002E-05 1.85292E-18 2.62567E-19
 -1      3733 7.85781E-05-2.18449E-05-2.42408E-05-1.39312E-05 2.21669E-18-5.57975E-20
 -1      3734 7.90131E-05-2.09318E-05-2.49658E-05-1.19761E-05 1.92647E-18 6.85319E-20
 -1      3735 8.10574E-05-2.08485E-05-2.57725E-05-1.04493E-05 1.54713E-18-3.83593E-20
 -1      3736 8.18834E-05-2.06165E-05-2.63137E-05-9.14740E-06 1.52084E-18-1.98261E-19
 -1      3737 7.69910E-05-1.90031E-05-2.47862E-05-9.34602E-06 1.59481E-18-5.27036E-19
 -1      3738 8.35339E-05-2.08184E-05-2.68651E-05-8.16991E-06 1.37726E-18-2.12550E-19
 -1      3739 8.43936E-05-2.09198E-05-2.72428E-05-7.26467E-06 1.55054E-18-3.52020E-19
 -1      3740 8.06309E-05-1.94256E-05-2.61794E-05-7.12895E-06 1.46251E-18-7.30874E-19
 -1      3741 8.57361E-05-2.12800E-05-2.76195E-05-6.58651E-06 1.31307E-18 3.65257E-19
 -1      3742 8.65399E-05-2.15658E-05-2.78744E-05-5.90820E-06 1.23218E-19 5.18708E-19
 -1      3743 8.35759E-05-2.01761E-05-2.71328E-05-5.67567E-06 1.55988E-18 5.43190E-19
 -1      3744 8.76384E-05-2.20074E-05-2.81268E-05-5.40019E-06-5.86156E-19 1.91500E-19
 -1      3745 8.83457E-05-2.23812E-05-2.82916E-05-4.85680E-06-2.32376E-19 1.06990E-19
 -1      3746 8.59748E-05-2.10867E-05-2.77801E-05-4.64610E-06-7.17972E-21 2.07116E-19
 -1      3747 8.92444E-05-2.28486E-05-2.84558E-05-4.44887E-06 6.38430E-20-1.18927E-20
 -1      3748 8.98433E-05-2.32504E-05-2.85560E-05-3.99304E-06-4.54924E-19 1.85550E-19
 -1      3749 8.79361E-05-2.20593E-05-2.82105E-05-3.84906E-06-1.95111E-19-3.74453E-19
 -1      3750 9.05750E-05-2.37074E-05-2.86580E-05-3.65055E-06-6.18441E-19-5.43659E-21
 -1      3751 9.10683E-05-2.41003E-05-2.87134E-05-3.25965E-06-1.24796E-18 5.10249E-19
 -1      3752 8.95364E-05-2.30251E-05-2.84875E-05-3.18842E-06-3.73289E-19-9.37312E-19
 -1      3753 9.16593E-05-2.45243E-05-2.87722E-05-2.96648E-06-1.47179E-18 1.40085E-18
 -1      3754 9.20568E-05-2.48871E-05-2.87973E-05-2.63006E-06-3.47589E-19 2.26994E-18
 -1      3755 9.08344E-05-2.39372E-05-2.86567E-05-2.61992E-06-5.11808E-19 1.16666E-19
 -1      3756 9.25295E-05-2.52660E-05-2.88269E-05-2.37882E-06 1.03885E-19 2.57353E-18
 -1      3757 9.28441E-05-2.55881E-05-2.88324E-05-2.09154E-06 7.79567E-19 3.21850E-18
 -1      3758 9.18780E-05-2.47667E-05-2.87515E-05-2.12526E-06 5.98939E-19 2.36284E-18
 -1      3759 9.32178E-05-2.59168E-05-2.88426E-05-1.87824E-06 3.13184E-19 2.97874E-18
 -1      3760 9.34627E-05-2.61943E-05-2.88361E-05-1.63626E-06 6.40634E-19 1.87254E-18
 -1      3761 9.27082E-05-2.54983E-05-2.87961E-05-1.69719E-06 5.29359E-19 2.81483E-18
 -1      3762 9.37544E-05-2.64726E-05-2.88341E-05-1.45784E-06-4.78585E-20 1.42858E-18
 -1      3763 9.39422E-05-2.67061E-05-2.88209E-05-1.25732E-06-6.29611E-19 1.24030E-18
 -1      3764 9.33607E-05-2.61276E-05-2.88080E-05-1.33188E-06 1.60796E-19 2.16788E-18
 -1      3765 9.41668E-05-2.69369E-05-2.88118E-05-1.11064E-06-4.73776E-19 9.21928E-19
 -1      3766 9.43085E-05-2.71294E-05-2.87954E-05-9.47299E-07-3.74526E-19 1.71554E-18
 -1      3767 9.38669E-05-2.66572E-05-2.87995E-05-1.02569E-06-7.86372E-19 1.88149E-18
 -1      3768 9.44789E-05-2.73166E-05-2.87825E-05-8.28982E-07-1.56759E-19 1.49227E-18
 -1      3769 9.45839E-05-2.74729E-05-2.87652E-05-6.98556E-07-3.26549E-20 1.65608E-18
 -1      3770 9.42541E-05-2.70951E-05-2.87794E-05-7.74281E-07-5.90494E-19 2.84945E-18
 -1      3771 9.46797E-05-2.75816E-05-2.87543E-05-6.23489E-07 1.73731E-19 2.28249E-18
 -1      3772 9.47578E-05-2.77082E-05-2.87375E-05-5.21225E-07 1.10826E-18 2.86894E-18
 -1      3773 9.46752E-05-2.76280E-05-2.87353E-05-4.51921E-07 6.90737E-20 3.92613E-18
 -1      3774 9.45081E-05-2.74071E-05-2.87565E-05-5.87749E-07-4.52278E-19 4.28420E-18
 -1      3775 1.01874E-04-3.81993E-05-2.72582E-05-1.35448E-05-1.42507E-18-6.69745E-19
 -1      3776 9.90622E-05-3.54666E-05-2.71978E-05-1.35127E-05-1.44783E-18-5.80539E-19
 -1      3777 9.51433E-05-2.82038E-05-2.86877E-05-3.62315E-07 8.63258E-19-9.48303E-19
 -1      3778 9.71908E-05-3.32256E-05-2.73833E-05-1.26171E-05-1.05322E-18-1.06483E-20
 -1      3779 9.54690E-05-3.12719E-05-2.74890E-05-1.21320E-05-7.36725E-19-5.63260E-20
 -1      3780 9.52078E-05-3.32851E-05-2.66221E-05-1.47973E-05-9.54027E-19-4.02235E-19
 -1      3781 9.33670E-05-2.77780E-05-2.80841E-05-9.58607E-06-5.71848E-19-5.77937E-19
 -1      3782 9.28928E-05-2.70553E-05-2.82184E-05-8.97321E-06-2.93138E-19-5.97604E-19
 -1      3783 1.10516E-04-4.65517E-05-2.74396E-05-1.40663E-05-9.48965E-19-2.25326E-19
 -1      3784 1.07000E-04-4.35967E-05-2.70828E-05-1.49718E-05-1.15896E-18-4.19625E-19
 -1      3785 6.37359E-05-1.50512E-05-2.08879E-05-5.67779E-06 4.97528E-19 2.01226E-18
 -1      3786 6.71366E-05-1.73724E-05-2.12382E-05-1.16445E-05 1.47247E-18 1.74252E-18
 -1      3787 9.38620E-05-2.12960E-05-3.11097E-05 1.68086E-06 1.56723E-18-2.55989E-18
 -1      3788 9.35140E-05-2.07162E-05-3.12072E-05 1.36816E-06 1.23080E-18-2.45763E-18
 -1      3789 9.38941E-05-2.15427E-05-3.09885E-05 7.70933E-07 1.13117E-18-2.33226E-18
 -1      3790 9.64888E-05-3.24857E-05-2.73988E-05 1.22682E-05-2.38274E-18-1.42035E-18
 -1      3791 9.86296E-05-3.46982E-05-2.73407E-05 1.25635E-05-2.12714E-18-1.97639E-18
 -1      3792 9.66352E-05-3.47656E-05-2.64682E-05 1.55369E-05-2.71953E-18-2.16973E-18
 -1      3793 9.38677E-05-2.90861E-05-2.77494E-05 1.06103E-05-2.06119E-18-1.16791E-18
 -1      3794 9.52005E-05-3.06420E-05-2.76215E-05 1.12344E-05-2.26368E-18-1.20730E-18
 -1      3795 9.31229E-05-3.04363E-05-2.69451E-05 1.30386E-05-2.69024E-18-2.25289E-18
 -1      3796 9.26294E-05-2.70664E-05-2.80980E-05 8.92746E-06-8.19071E-19-1.25555E-19
 -1      3797 9.33394E-05-2.80106E-05-2.79683E-05 9.59301E-06-1.26898E-18-1.40038E-19
 -1      3798 9.13940E-05-2.74439E-05-2.74352E-05 1.06186E-05-2.34878E-18-1.74113E-18
 -1      3799 9.22060E-05-2.59836E-05-2.83864E-05 7.41830E-06-5.74998E-19 8.98971E-19
 -1      3800 9.25236E-05-2.64874E-05-2.82806E-05 8.05353E-06-8.35468E-19 6.63564E-19
 -1      3801 9.08509E-05-2.58362E-05-2.78750E-05 8.62064E-06-1.29288E-18-1.53994E-18
 -1      3802 9.22432E-05-2.55299E-05-2.85990E-05 6.10522E-06 5.81042E-19 1.80862E-18
 -1      3803 9.23294E-05-2.57406E-05-2.85242E-05 6.68520E-06 3.06199E-20 2.02205E-18
 -1      3804 9.09134E-05-2.50711E-05-2.82213E-05 6.98161E-06-7.92042E-19 3.37865E-19
 -1      3805 9.25239E-05-2.54808E-05-2.87409E-05 4.97426E-06 1.07118E-18 6.63672E-19
 -1      3806 9.24819E-05-2.55043E-05-2.86951E-05 5.49115E-06 1.25330E-18 1.58615E-18
 -1      3807 9.12981E-05-2.48552E-05-2.84741E-05 5.63270E-06 1.11885E-18 1.33055E-18
 -1      3808 9.29114E-05-2.56731E-05-2.88244E-05 4.00843E-06-2.42579E-19 8.24568E-19
 -1      3809 9.28067E-05-2.55858E-05-2.88022E-05 4.46118E-06 8.93571E-19 7.35240E-19
 -1      3810 9.18304E-05-2.49825E-05-2.86454E-05 4.51935E-06 9.37729E-19 1.90509E-18
 -1      3811 9.33233E-05-2.59926E-05-2.88633E-05 3.19083E-06-7.76573E-19 1.38359E-19
 -1      3812 9.31959E-05-2.58475E-05-2.88586E-05 3.58116E-06-9.62509E-19 3.66968E-19
 -1      3813 9.24016E-05-2.53051E-05-2.87511E-05 3.59865E-06-2.62822E-20 7.67797E-19
 -1      3814 9.37132E-05-2.63633E-05-2.88707E-05 2.50580E-06-4.27264E-19-1.09302E-18
 -1      3815 9.35860E-05-2.61955E-05-2.88778E-05 2.83702E-06-8.55137E-19-2.37760E-19
 -1      3816 9.29491E-05-2.57210E-05-2.88075E-05 2.83788E-06-9.16097E-19-1.46790E-18
 -1      3817 9.40579E-05-2.67372E-05-2.88572E-05 1.93869E-06 4.28760E-19 3.53444E-19
 -1      3818 9.39427E-05-2.65684E-05-2.88716E-05 2.21526E-06-5.57910E-20-3.47784E-19
 -1      3819 9.34398E-05-2.61635E-05-2.88286E-05 2.21197E-06-5.06145E-19-1.66290E-18
 -1      3820 9.43484E-05-2.70858E-05-2.88314E-05 1.47542E-06 5.22964E-19-8.16146E-19
 -1      3821 9.42504E-05-2.69289E-05-2.88496E-05 1.70259E-06 9.26954E-19 3.66576E-19
 -1      3822 9.38596E-05-2.65908E-05-2.88260E-05 1.70090E-06 4.08035E-19 6.26683E-19
 -1      3823 9.45843E-05-2.73948E-05-2.87993E-05 1.10239E-06-8.68982E-19-2.71349E-19
 -1      3824 9.45048E-05-2.72561E-05-2.88188E-05 1.28594E-06-4.00687E-19-1.26071E-18
 -1      3825 9.42063E-05-2.69797E-05-2.88085E-05 1.28777E-06 2.33963E-19-4.42565E-19
 -1      3826 9.47696E-05-2.76581E-05-2.87651E-05 8.05982E-07-1.66156E-19-4.59740E-19
 -1      3827 9.47076E-05-2.75397E-05-2.87843E-05 9.52758E-07-4.76854E-19-6.28406E-19
 -1      3828 9.44842E-05-2.73191E-05-2.87829E-05 9.58365E-07-6.18819E-19-1.11637E-18
 -1      3829 9.49093E-05-2.78756E-05-2.87314E-05 5.72389E-07 6.89448E-19-1.22346E-18
 -1      3830 9.48642E-05-2.77776E-05-2.87495E-05 6.90391E-07 5.04214E-19-2.70551E-19
 -1      3831 9.46996E-05-2.76058E-05-2.87535E-05 7.00101E-07 1.33293E-19-1.55319E-18
 -1      3832 9.49943E-05-2.80015E-05-2.87104E-05 4.49842E-07 7.06075E-19-1.75710E-18
 -1      3833 9.27522E-05-1.95162E-05-3.13968E-05-1.40289E-07 1.46422E-19-3.06813E-18
 -1      3834 9.28206E-05-1.96296E-05-3.13807E-05-5.34112E-07-1.08775E-19-3.18513E-18
 -1      3835 9.33104E-05-2.05961E-05-3.11424E-05-2.10795E-08 2.83853E-19-2.83957E-18
 -1      3836 9.51285E-05-2.49172E-05-3.00968E-05-9.44854E-07 1.33302E-18-2.06313E-18
 -1      3837 9.50432E-05-2.43451E-05-3.02980E-05-2.19904E-07 1.37132E-18-2.13336E-18
 -1      3838 5.94652E-05-1.51987E-05-1.89377E-05-7.97153E-06-3.29807E-19-3.69778E-18
 -1      3839 6.03050E-05-1.64773E-05-1.84845E-05-1.32542E-05-4.82610E-19-3.67575E-18
 -1      3840 6.76035E-05-1.98646E-05-2.03663E-05-1.60637E-05-5.99408E-19-2.94382E-18
 -1      3841 9.52516E-05-2.68557E-05-2.93096E-05-3.97422E-06 3.43503E-19-1.23040E-18
 -1      3842 9.52844E-05-2.67626E-05-2.93650E-05-3.48586E-06 6.25312E-19-1.38373E-18
 -1      3843 9.48527E-05-2.64830E-05-2.93022E-05-4.07181E-06 2.44482E-19-1.43226E-18
 -1      3844 9.47464E-05-2.77582E-05-2.87096E-05-2.13194E-07 1.75289E-19 1.20201E-18
 -1      3845 9.47151E-05-2.77308E-05-2.87089E-05-1.39683E-07-5.54224E-19-3.09945E-19
 -1      3846 9.46905E-05-2.76669E-05-2.87226E-05-3.02194E-07 4.30059E-19 2.04470E-18
 -1      3847 9.29306E-05-1.97819E-05-3.13569E-05-7.30923E-07-2.36893E-19-3.20717E-18
 -1      3848 9.31408E-05-2.01252E-05-3.13062E-05-1.09860E-06-4.34648E-19-3.10920E-18
 -1      3849 9.36771E-05-2.11960E-05-3.10463E-05-6.72953E-07-5.95666E-19-2.76135E-18
 -1      3850 9.34071E-05-2.07509E-05-3.11184E-05-3.79022E-07-2.19331E-19-2.92727E-18
 -1      3851 1.13183E-04-4.85401E-05-2.77114E-05 1.34596E-05-2.67956E-18-3.79107E-18
 -1      3852 8.62582E-05-3.16849E-05-2.34459E-05 2.11880E-05-3.47184E-18 1.18333E-19
 -1      3853 9.48976E-05-2.79667E-05-2.86860E-05 1.60670E-07 7.84381E-19-3.36118E-18
 -1      3854 9.49300E-05-2.79973E-05-2.86853E-05 2.08360E-07-2.51559E-20-1.64823E-18
 -1      3855 9.48257E-05-2.78616E-05-2.86967E-05 1.48532E-07 8.28167E-20-4.04243E-18
 -1      3856 9.47659E-05-2.49303E-05-2.99321E-05 1.50180E-06-5.61999E-19-2.11313E-18
 -1      3857 9.46249E-05-2.51585E-05-2.97767E-05 2.03673E-06-6.00477E-19-1.93961E-18
 -1      3858 9.46172E-05-2.98498E-05-2.77234E-05-1.11044E-05-1.10956E-18-4.32758E-19
 -1      3859 9.36312E-05-2.86005E-05-2.78643E-05-1.04980E-05-9.69899E-19-2.94948E-19
 -1      3860 9.16125E-05-2.72227E-05-2.76200E-05-1.03113E-05-7.87973E-19-8.36525E-19
 -1      3861 9.26115E-05-2.94503E-05-2.71170E-05-1.24195E-05-1.08222E-18-5.16850E-19
 -1      3862 1.08961E-04-4.54511E-05-2.71312E-05 1.48825E-05-2.38054E-18-3.22203E-18
 -1      3863 9.49091E-05-2.79440E-05-2.86971E-05 2.82740E-07 6.34988E-19-2.09928E-18
 -1      3864 9.43697E-05-2.52632E-05-2.96199E-05 2.44343E-06-5.14360E-19-1.82373E-18
 -1      3865 9.40954E-05-2.52795E-05-2.94961E-05 2.91296E-06-4.94178E-19-1.69620E-18
 -1      3866 9.42656E-05-2.48354E-05-2.97469E-05 1.91032E-06-5.69801E-19-1.81604E-18
 -1      3867 9.49961E-05-2.38262E-05-3.05028E-05 8.72332E-07 1.61144E-18-2.07676E-18
 -1      3868 9.47823E-05-2.41571E-05-3.02730E-05 5.32917E-07-7.52503E-19-2.23741E-18
 -1      3869 9.48051E-05-2.46335E-05-3.00761E-05 1.15933E-06-6.01728E-19-2.13758E-18
 -1      3870 9.45584E-05-2.44219E-05-3.00548E-05 1.16381E-06-4.98994E-19-1.85795E-18
 -1      3871 9.45273E-05-2.36618E-05-3.03698E-05 4.41696E-07-4.22201E-19-2.26107E-18
 -1      3872 6.54380E-05-1.60038E-05-2.12886E-05 7.42737E-06-9.59675E-19 3.07404E-18
 -1      3873 6.34154E-05-1.42839E-05-2.09025E-05 1.37332E-07-3.76814E-19 1.95162E-18
 -1      3874 6.76956E-05-1.56607E-05-2.21804E-05-2.84722E-06 5.69977E-19 1.09193E-18
 -1      3875 7.02648E-05-1.71285E-05-2.27484E-05 7.14353E-06-7.42673E-19 2.19630E-18
 -1      3876 9.48787E-05-2.78726E-05-2.87175E-05 4.59560E-07 9.10538E-19-1.33248E-18
 -1      3877 7.52520E-05-2.38506E-05-2.19094E-05-1.86603E-05-5.45949E-19-2.76167E-18
 -1      3878 8.16954E-05-2.82863E-05-2.28685E-05-2.04292E-05-6.80022E-19-2.81883E-18
 -1      3879 8.06818E-05-2.47381E-05-2.37921E-05 1.68474E-05-2.64320E-18 3.19002E-19
 -1      3880 7.80924E-05-2.21092E-05-2.40764E-05 1.31309E-05-1.67794E-18 6.35108E-19
 -1      3881 6.96068E-05-2.12650E-05-2.04211E-05 1.85335E-05 1.95743E-18-4.08134E-18
 -1      3882 6.69016E-05-1.86924E-05-2.06498E-05 1.41013E-05 1.25751E-18-3.46958E-18
 -1      3883 9.55804E-05-3.95763E-05-2.37497E-05-2.40913E-05-1.52197E-18-1.41839E-18
 -1      3884 1.01344E-04-4.23312E-05-2.52846E-05-2.04827E-05-1.43049E-18-9.24345E-19
 -1      3885 8.99707E-05-3.49517E-05-2.35968E-05-2.26890E-05-1.25119E-18-1.60008E-18
 -1      3886 9.29727E-05-2.66535E-05-2.84042E-05-8.20038E-06-2.94626E-19-8.86072E-19
 -1      3887 9.28208E-05-2.62940E-05-2.85175E-05-7.62750E-06-1.69465E-19-1.06138E-18
 -1      3888 9.14920E-05-2.60409E-05-2.80600E-05-8.54783E-06-4.57521E-19-1.19345E-18
 -1      3889 7.53986E-05-2.07847E-05-2.33385E-05 1.40713E-05 1.15336E-18-2.45252E-18
 -1      3890 7.90838E-05-2.38374E-05-2.36964E-05 1.69655E-05 1.69419E-18-2.00108E-18
 -1      3891 7.95564E-05-2.62149E-05-2.27867E-05 1.95931E-05 2.14614E-18-2.32053E-18
 -1      3892 9.47904E-05-2.77922E-05-2.87148E-05 3.71851E-07 1.20151E-18-2.85165E-18
 -1      3893 9.46993E-05-2.76447E-05-2.87350E-05 4.92794E-07 1.17960E-19-2.71109E-18
 -1      3894 9.47344E-05-2.77385E-05-2.87139E-05 3.01779E-07 5.87959E-19-3.70421E-18
 -1      3895 9.40372E-05-2.67315E-05-2.88517E-05-6.97088E-06-2.55226E-19-4.69765E-19
 -1      3896 7.07934E-05-1.88486E-05-2.22110E-05-1.29705E-05 1.96892E-18 4.81456E-19
 -1      3897 1.16139E-04-4.95313E-05-2.84460E-05-1.12066E-05-1.12445E-18 3.25428E-19
 -1      3898 9.39473E-05-2.60767E-05-2.90822E-05-4.93725E-06-4.06879E-19-1.12612E-18
 -1      3899 9.41173E-05-2.60840E-05-2.91615E-05-4.47028E-06-1.98451E-19-1.24236E-18
 -1      3900 7.44267E-05-2.45924E-05-2.13086E-05 2.07977E-05 2.22208E-18-3.41841E-18
 -1      3901 9.46988E-05-2.77161E-05-2.87079E-05-3.88534E-08-3.86885E-19-1.90257E-18
 -1      3902 9.46979E-05-2.77179E-05-2.87076E-05 3.87202E-08-5.64283E-19-3.75023E-18
 -1      3903 9.46127E-05-2.75975E-05-2.87196E-05-1.06064E-07 2.44571E-19-1.14745E-18
 -1      3904 6.19585E-05-1.51211E-05-2.00558E-05 5.70257E-06 6.72428E-19-3.42297E-18
 -1      3905 5.94449E-05-1.38408E-05-1.92947E-05-5.23944E-07 2.02543E-19-3.71572E-18
 -1      3906 9.43103E-05-2.26436E-05-3.07237E-05 3.86812E-07 1.08453E-18-2.25555E-18
 -1      3907 9.40453E-05-2.21857E-05-3.08038E-05 2.62999E-07 9.98701E-19-2.28568E-18
 -1      3908 9.34597E-05-2.60321E-05-2.88890E-05-5.90558E-06-4.97652E-19-1.16021E-18
 -1      3909 9.35934E-05-2.60114E-05-2.89696E-05-5.41919E-06-4.66635E-19-1.29323E-18
 -1      3910 9.31917E-05-2.55768E-05-2.89755E-05-4.87208E-06-3.85304E-19-1.56800E-18
 -1      3911 7.25831E-05-2.16116E-05-2.17904E-05-1.65184E-05-5.41294E-19-2.41879E-18
 -1      3912 7.74144E-05-2.30995E-05-2.31842E-05-1.53398E-05-4.32351E-19-2.60464E-18
 -1      3913 6.99158E-05-1.91546E-05-2.17577E-05-1.27576E-05-3.15480E-19-2.83953E-18
 -1      3914 6.41081E-05-1.58149E-05-2.05692E-05-5.47503E-06-1.75687E-19-3.25662E-18
 -1      3915 9.51462E-05-2.53602E-05-2.99068E-05-1.49800E-06 1.12767E-18-1.79648E-18
 -1      3916 9.49261E-05-2.46863E-05-3.00992E-05-1.08092E-06 1.04072E-18-1.86343E-18
 -1      3917 9.51036E-05-2.56824E-05-2.97555E-05-2.09738E-06 1.04074E-18-1.55655E-18
 -1      3918 9.51392E-05-2.63236E-05-2.94929E-05-3.08897E-06 8.23856E-19-1.41218E-18
 -1      3919 9.46999E-05-2.33075E-05-3.06034E-05 5.31386E-07 1.36220E-18-2.35864E-18
 -1      3920 9.44797E-05-2.25278E-05-3.08241E-05 1.36599E-06 1.47032E-18-2.39174E-18
 -1      3921 9.35896E-05-2.48675E-05-2.94431E-05 2.65323E-06-1.92813E-19-1.55374E-18
 -1      3922 1.02910E-04-4.25761E-05-2.58977E-05 1.88899E-05-2.50382E-18-3.33890E-18
 -1      3923 9.38431E-05-2.18639E-05-3.08585E-05 2.35794E-07 9.06750E-19-2.25006E-18
 -1      3924 9.36973E-05-2.16301E-05-3.08957E-05 7.86340E-08 6.03734E-19-2.48626E-18
 -1      3925 9.42414E-05-2.27916E-05-3.06063E-05-8.47474E-08 7.32357E-19-2.19577E-18
 -1      3926 8.87792E-05-3.19338E-05-2.44417E-05 1.89479E-05-2.96334E-18-4.40894E-19
 -1      3927 9.04120E-05-3.11943E-05-2.54218E-05 1.64369E-05-2.56059E-18-6.20458E-19
 -1      3928 1.01766E-04-3.98625E-05-2.65494E-05-1.60342E-05-1.14175E-18-6.21934E-19
 -1      3929 9.67012E-05-3.68225E-05-2.56283E-05-1.83381E-05-1.29715E-18-8.59783E-19
 -1      3930 8.09774E-05-2.93165E-05-2.20687E-05 2.35259E-05 2.58140E-18-1.90945E-18
 -1      3931 8.09857E-05-2.26793E-05-2.50161E-05 1.19323E-05-1.66201E-18-8.66851E-19
 -1      3932 7.69004E-05-1.98635E-05-2.42993E-05 1.00888E-05-8.99255E-19-1.06713E-19
 -1      3933 7.14635E-05-1.90780E-05-2.23954E-05 1.22273E-05 9.78043E-19-2.96828E-18
 -1      3934 6.60679E-05-1.65153E-05-2.10366E-05 9.19244E-06 6.52356E-19-3.04915E-18
 -1      3935 6.67396E-05-1.59470E-05-2.18331E-05 4.70967E-06 3.85853E-19-3.12718E-18
 -1      3936 7.33988E-05-1.86297E-05-2.35881E-05 9.83362E-06 6.89736E-19-2.26737E-18
 -1      3937 1.24656E-04-4.91389E-05-3.22758E-05-7.22924E-07-9.55635E-19-4.40399E-18
 -1      3938 9.25666E-05-2.44191E-05-2.92139E-05 2.49902E-06 1.05939E-19-1.67969E-18
 -1      3939 9.19786E-05-2.41688E-05-2.90673E-05 2.80434E-06-6.87627E-20-1.70211E-18
 -1      3940 9.12156E-05-2.38215E-05-2.88939E-05 3.00280E-06 9.13642E-21-1.60057E-18
 -1      3941 9.04689E-05-2.34477E-05-2.87297E-05 3.30283E-06 3.64191E-20-1.44188E-18
 -1      3942 9.13093E-05-2.37291E-05-2.89480E-05 2.14009E-06 9.05728E-20-1.94250E-18
 -1      3943 8.95102E-05-2.29896E-05-2.85235E-05 3.50235E-06-1.09250E-19-1.35776E-18
 -1      3944 8.85982E-05-2.25406E-05-2.83180E-05 3.82100E-06-2.10832E-20-1.41694E-18
 -1      3945 8.96114E-05-2.29222E-05-2.85612E-05 2.45408E-06 2.78591E-20-1.76490E-18
 -1      3946 8.74156E-05-2.20108E-05-2.80519E-05 4.03502E-06-8.07758E-20-1.23296E-18
 -1      3947 8.63173E-05-2.15265E-05-2.77763E-05 4.40801E-06-1.11563E-19-1.26378E-18
 -1      3948 8.75038E-05-2.19202E-05-2.80802E-05 2.76112E-06-1.34465E-19-1.43482E-18
 -1      3949 8.48562E-05-2.09628E-05-2.74144E-05 4.67765E-06-9.80842E-20-1.58074E-18
 -1      3950 8.35471E-05-2.04990E-05-2.70311E-05 5.16715E-06-1.03754E-19-1.62754E-18
 -1      3951 8.49018E-05-2.07833E-05-2.74427E-05 3.08458E-06-2.31076E-19-1.42410E-18
 -1      3952 8.17119E-05-1.99341E-05-2.65238E-05 5.54348E-06-7.31004E-20-1.85503E-18
 -1      3953 8.01443E-05-1.95345E-05-2.59821E-05 6.25842E-06 2.87526E-19-1.62726E-18
 -1      3954 8.16744E-05-1.95739E-05-2.65617E-05 3.51491E-06-1.35129E-19-1.82854E-18
 -1      3955 7.77744E-05-1.90152E-05-2.52509E-05 6.89709E-06 3.93718E-19-1.84507E-18
 -1      3956 7.59418E-05-1.87798E-05-2.44678E-05 7.99224E-06 5.14209E-19-1.95406E-18
 -1      3957 7.75447E-05-1.82971E-05-2.53097E-05 4.19025E-06 1.18545E-19-2.21560E-18
 -1      3958 9.39829E-05-2.21096E-05-3.08149E-05-3.78496E-07-5.20315E-19-2.49475E-18
 -1      3959 9.42745E-05-2.28695E-05-3.05900E-05 5.49461E-08-3.52267E-19-2.31936E-18
 -1      3960 9.38204E-05-2.18205E-05-3.08616E-05-2.68308E-07-3.01002E-19-2.62393E-18
 -1      3961 9.45553E-05-2.31677E-05-3.05935E-05 2.09999E-07 1.21592E-18-2.17296E-18
 -1      3962 9.46600E-05-2.36685E-05-3.04220E-05-3.16137E-07 1.08050E-18-2.02961E-18
 -1      3963 7.82205E-05-1.84416E-05-2.56310E-05-5.24140E-06 1.36369E-18 1.73668E-19
 -1      3964 7.99024E-05-1.88517E-05-2.62141E-05-4.56108E-06 1.93488E-18 5.74470E-19
 -1      3965 8.17736E-05-1.94036E-05-2.67432E-05-4.23695E-06 1.59864E-18 2.83478E-19
 -1      3966 8.31332E-05-1.98769E-05-2.71421E-05-3.76599E-06 5.87706E-19 3.74333E-19
 -1      3967 7.99627E-05-1.85206E-05-2.62635E-05-2.49414E-06 1.48576E-18-5.74014E-20
 -1      3968 8.45814E-05-2.04365E-05-2.75023E-05-3.53401E-06-5.55617E-20-1.34142E-19
 -1      3969 8.56858E-05-2.09388E-05-2.77711E-05-3.17966E-06-1.00029E-19-1.76437E-19
 -1      3970 8.31940E-05-1.97206E-05-2.71608E-05-2.18716E-06 2.14150E-19-4.28382E-19
 -1      3971 8.68341E-05-2.14915E-05-2.80136E-05-2.99189E-06-3.44943E-19-1.08076E-19
 -1      3972 8.77337E-05-2.19940E-05-2.81904E-05-2.69989E-06-4.29246E-19-1.32357E-18
 -1      3973 8.57394E-05-2.08725E-05-2.77700E-05-1.95094E-06 7.54846E-20-9.47295E-19
 -1      3974 8.86560E-05-2.25229E-05-2.83502E-05-2.53233E-06-7.14481E-19-1.39707E-18
 -1      3975 8.93864E-05-2.30037E-05-2.84621E-05-2.27765E-06-8.38358E-19-1.59120E-18
 -1      3976 8.77744E-05-2.19730E-05-2.81780E-05-1.73059E-06-1.03260E-18-1.55964E-18
 -1      3977 9.01305E-05-2.34951E-05-2.85636E-05-2.12255E-06-3.02121E-19-1.08484E-18
 -1      3978 9.07196E-05-2.39387E-05-2.86301E-05-1.89581E-06 5.43413E-19-5.16784E-20
 -1      3979 8.94155E-05-2.30050E-05-2.84443E-05-1.50857E-06-3.60509E-19-1.41794E-18
 -1      3980 9.13186E-05-2.43827E-05-2.86908E-05-1.75262E-06 1.03142E-18 1.75298E-19
 -1      3981 9.17892E-05-2.47798E-05-2.87262E-05-1.55135E-06 9.55690E-19 5.45157E-19
 -1      3982 9.07401E-05-2.39504E-05-2.86107E-05-1.28640E-06 8.64892E-19-1.15412E-18
 -1      3983 9.22680E-05-2.51708E-05-2.87588E-05-1.42178E-06 5.68179E-19 8.26730E-19
 -1      3984 9.26399E-05-2.55169E-05-2.87734E-05-1.24576E-06 5.32244E-19 1.11094E-18
 -1      3985 9.18039E-05-2.47957E-05-2.87073E-05-1.07152E-06 8.93110E-19-1.20214E-18
 -1      3986 9.30189E-05-2.58533E-05-2.87872E-05-1.13150E-06 2.78248E-19 1.21971E-18
 -1      3987 9.33091E-05-2.61483E-05-2.87884E-05-9.80598E-07 3.66524E-19 7.69152E-19
 -1      3988 9.26510E-05-2.55342E-05-2.87562E-05-8.71661E-07 4.69066E-19-2.84046E-19
 -1      3989 9.36054E-05-2.64317E-05-2.87900E-05-8.82454E-07-7.78078E-19-2.60858E-19
 -1      3990 9.38289E-05-2.66783E-05-2.87831E-05-7.55754E-07-9.10776E-19-3.20844E-19
 -1      3991 9.33179E-05-2.61654E-05-2.87734E-05-6.92596E-07-7.88326E-19-1.38604E-18
 -1      3992 9.40575E-05-2.69113E-05-2.87772E-05-6.73910E-07-1.00946E-19 8.04888E-19
 -1      3993 9.42258E-05-2.71129E-05-2.87659E-05-5.70711E-07-3.82228E-20 1.43117E-18
 -1      3994 9.38365E-05-2.66953E-05-2.87704E-05-5.37856E-07-8.05323E-20-1.66304E-18
 -1      3995 9.21059E-05-3.20414E-05-2.57431E-05-1.63809E-05-8.87505E-19-8.55778E-19
 -1      3996 9.04974E-05-2.96987E-05-2.60366E-05-1.48838E-05-6.85459E-19-6.73115E-19
 -1      3997 8.85739E-05-2.86521E-05-2.57119E-05 1.47725E-05-2.65179E-18-7.83780E-19
 -1      3998 8.87761E-05-2.54201E-05-2.71774E-05 9.90015E-06-1.93445E-18-1.81222E-18
 -1      3999 8.93365E-05-2.64151E-05-2.69383E-05 1.09972E-05-2.68415E-18-1.85025E-18
 -1      4000 9.38652E-05-2.56927E-05-2.92137E-05-3.94684E-06-4.97612E-20-1.21080E-18
 -1      4001 9.44366E-05-2.61253E-05-2.92738E-05-4.02102E-06-4.79849E-20-1.07631E-18
 -1      4002 9.46009E-05-2.60899E-05-2.93642E-05-3.54702E-06 2.94126E-19-1.26374E-18
 -1      4003 8.90267E-05-2.44291E-05-2.77050E-05 7.81896E-06-1.62686E-18-2.08082E-18
 -1      4004 8.91224E-05-2.49075E-05-2.74938E-05 8.71648E-06-1.90156E-18-2.25099E-18
 -1      4005 8.69522E-05-2.39221E-05-2.70067E-05 9.08028E-06-1.95846E-18-2.88562E-18
 -1      4006 8.96297E-05-2.40959E-05-2.81030E-05 6.18649E-06-6.94902E-19-1.44054E-18
 -1      4007 8.95058E-05-2.42600E-05-2.79442E-05 6.91250E-06-1.44930E-18-1.89844E-18
 -1      4008 8.77783E-05-2.33862E-05-2.75894E-05 6.98033E-06-1.64220E-18-3.35128E-18
 -1      4009 9.03904E-05-2.41863E-05-2.83877E-05 4.89573E-06 8.09699E-19-9.15231E-19
 -1      4010 9.01520E-05-2.41474E-05-2.82760E-05 5.48634E-06 3.24608E-20-1.39405E-18
 -1      4011 8.87829E-05-2.33768E-05-2.80206E-05 5.40593E-06-6.86493E-19-2.69202E-18
 -1      4012 9.11844E-05-2.45268E-05-2.85799E-05 3.86589E-06 1.78148E-19 1.92358E-19
 -1      4013 9.09022E-05-2.43688E-05-2.85070E-05 4.34989E-06 1.15523E-18 2.97573E-19
 -1      4014 8.98131E-05-2.36925E-05-2.83262E-05 4.20268E-06 1.60622E-19-1.47641E-18
 -1      4015 9.19397E-05-2.49965E-05-2.87003E-05 3.03734E-06 6.72524E-19-1.26422E-18
 -1      4016 9.16560E-05-2.47778E-05-2.86573E-05 3.43572E-06 6.43703E-19-3.36895E-19
 -1      4017 9.07890E-05-2.41888E-05-2.85322E-05 3.27011E-06 7.69227E-19-5.09346E-19
 -1      4018 9.26182E-05-2.55140E-05-2.87676E-05 2.36787E-06-8.92690E-19-2.53893E-18
 -1      4019 9.23563E-05-2.52736E-05-2.87466E-05 2.69573E-06-1.48721E-19-1.82298E-18
 -1      4020 9.16683E-05-2.47662E-05-2.86627E-05 2.53791E-06 6.08860E-19-1.87640E-18
 -1      4021 9.32031E-05-2.60263E-05-2.87972E-05 1.82718E-06-6.76483E-19-2.17761E-18
 -1      4022 9.29744E-05-2.57891E-05-2.87915E-05 2.09584E-06-1.33334E-18-2.82260E-18
 -1      4023 9.24322E-05-2.53580E-05-2.87378E-05 1.95834E-06-8.68808E-19-3.20661E-18
 -1      4024 9.36912E-05-2.65015E-05-2.88015E-05 1.39243E-06-3.12101E-19-1.61943E-18
 -1      4025 9.34994E-05-2.62823E-05-2.88057E-05 1.61089E-06-4.96515E-19-1.40814E-18
 -1      4026 9.30763E-05-2.59216E-05-2.87737E-05 1.49823E-06-1.63934E-18-3.65894E-18
 -1      4027 9.40875E-05-2.69231E-05-2.87895E-05 1.04544E-06 1.83861E-19-1.42050E-18
 -1      4028 9.39316E-05-2.67292E-05-2.87998E-05 1.22129E-06 9.40331E-19-4.89309E-19
 -1      4029 9.36056E-05-2.64323E-05-2.87830E-05 1.13350E-06-5.73552E-19-1.72328E-18
 -1      4030 9.44014E-05-2.72837E-05-2.87682E-05 7.71680E-07 1.98119E-19-2.37902E-18
 -1      4031 9.42780E-05-2.71182E-05-2.87816E-05 9.10824E-07-7.36957E-19-1.70889E-18
 -1      4032 9.40296E-05-2.68782E-05-2.87751E-05 8.46163E-07-4.66160E-19-2.45712E-18
 -1      4033 9.46074E-05-2.75409E-05-2.87448E-05 5.69749E-07-3.91575E-19-1.60898E-18
 -1      4034 9.45098E-05-2.74016E-05-2.87591E-05 6.77198E-07 3.50766E-21-2.01514E-18
 -1      4035 9.43187E-05-2.72099E-05-2.87589E-05 6.27944E-07 3.02195E-19-3.13057E-18
 -1      4036 9.45152E-05-2.74528E-05-2.87409E-05 4.62656E-07 1.32394E-19-4.26910E-18
 -1      4037 9.36083E-05-2.15018E-05-3.09134E-05 3.27784E-08 4.71017E-19-2.62441E-18
 -1      4038 9.35947E-05-2.14885E-05-3.09143E-05-1.13010E-07 1.71860E-19-2.62051E-18
 -1      4039 9.39917E-05-2.23589E-05-3.06782E-05-5.52730E-08 4.59693E-19-2.35320E-18
 -1      4040 6.69974E-05-1.56080E-05-2.19741E-05-1.38665E-06 5.03794E-20-3.17713E-18
 -1      4041 6.74959E-05-1.67573E-05-2.16972E-05-8.02897E-06-1.58099E-19-3.10079E-18
 -1      4042 7.23326E-05-1.85182E-05-2.29807E-05-8.64226E-06-2.11145E-19-2.78038E-18
 -1      4043 9.35732E-05-2.46962E-05-2.95243E-05 1.95512E-06-3.10481E-19-1.54651E-18
 -1      4044 9.31442E-05-2.46131E-05-2.93764E-05 2.28559E-06-2.01543E-21-1.64351E-18
 -1      4045 9.26338E-05-2.42597E-05-2.92909E-05 1.78530E-06-1.16994E-19-1.85492E-18
 -1      4046 9.45975E-05-2.75599E-05-2.87319E-05-3.42555E-07-1.41248E-19 2.00467E-18
 -1      4047 9.45453E-05-2.75088E-05-2.87298E-05-2.47367E-07 6.58421E-20 9.41875E-19
 -1      4048 9.45216E-05-2.74527E-05-2.87422E-05-4.02221E-07-4.28473E-19 2.84119E-18
 -1      4049 9.46873E-05-2.76994E-05-2.87102E-05 1.32271E-07-5.22092E-19-4.91838E-18
 -1      4050 9.47154E-05-2.77296E-05-2.87102E-05 2.06186E-07-5.12589E-19-3.35276E-18
 -1      4051 9.45880E-05-2.75514E-05-2.87275E-05 2.89550E-07 4.27681E-19-5.88057E-18
 -1      4052 9.45804E-05-2.75624E-05-2.87210E-05 9.49051E-08-3.84997E-19-4.37561E-18
 -1      4053 9.09831E-05-3.29811E-05-2.48966E-05-1.86355E-05-9.52181E-19-9.57730E-19
 -1      4054 9.42179E-05-2.45536E-05-2.98577E-05 1.33900E-06-4.71693E-19-1.77935E-18
 -1      4055 9.39578E-05-2.46896E-05-2.96935E-05 1.71703E-06-4.45492E-19-1.72512E-18
 -1      4056 9.35854E-05-2.44271E-05-2.96287E-05 1.37845E-06-2.72867E-19-1.51703E-18
 -1      4057 9.48471E-05-2.60394E-05-2.94896E-05-3.09709E-06 6.42574E-19-1.35115E-18
 -1      4058 9.49710E-05-2.58955E-05-2.96039E-05-2.58211E-06 9.06736E-19-1.37400E-18
 -1      4059 9.48098E-05-2.53846E-05-2.97500E-05-2.12029E-06 7.59373E-19-1.55438E-18
 -1      4060 9.44295E-05-2.56736E-05-2.94631E-05-3.05184E-06 4.35309E-19-1.30855E-18
 -1      4061 9.30825E-05-2.61577E-05-2.86695E-05-6.98323E-06-1.47032E-19-1.15277E-18
 -1      4062 9.31161E-05-2.60187E-05-2.87629E-05-6.45699E-06-3.48088E-19-1.09704E-18
 -1      4063 9.24860E-05-2.54669E-05-2.87211E-05-5.90136E-06-3.55805E-19-1.91886E-18
 -1      4064 9.18679E-05-2.55542E-05-2.84229E-05-7.09993E-06-1.64227E-19-1.50018E-18
 -1      4065 8.59750E-05-2.99416E-05-2.38961E-05-1.95350E-05-8.59920E-19-1.74888E-18
 -1      4066 9.47719E-05-2.42967E-05-3.02059E-05-7.85736E-07 1.00176E-18-1.73777E-18
 -1      4067 9.45527E-05-2.37897E-05-3.03275E-05-5.80329E-07 8.63873E-19-1.78162E-18
 -1      4068 9.47660E-05-2.47474E-05-3.00123E-05-1.33261E-06 8.63490E-19-1.62280E-18
 -1      4069 8.77759E-05-2.68661E-05-2.60973E-05 1.31138E-05-2.57507E-18-8.89672E-19
 -1      4070 8.50757E-05-2.47239E-05-2.58344E-05 1.22747E-05-2.08575E-18-1.38848E-18
 -1      4071 6.97246E-05-1.65390E-05-2.27620E-05 1.94628E-06 1.54848E-19-3.11184E-18
 -1      4072 7.37173E-05-1.76053E-05-2.39962E-05-7.01288E-06 1.62858E-18 3.91746E-19
 -1      4073 7.57102E-05-1.78638E-05-2.48554E-05-5.89467E-06 1.20190E-18 4.17716E-19
 -1      4074 8.74174E-05-3.46371E-05-2.22307E-05 2.53275E-05 2.65007E-18-1.31801E-18
 -1      4075 9.42092E-05-2.31357E-05-3.04615E-05 2.54564E-07-2.33645E-19-2.21714E-18
 -1      4076 9.43600E-05-2.34096E-05-3.04154E-05 3.10751E-07-3.17130E-19-2.42826E-18
 -1      4077 9.44368E-05-2.38472E-05-3.02468E-05 6.51774E-07-2.83440E-19-2.22539E-18
 -1      4078 8.99710E-05-2.52021E-05-2.77341E-05-8.44927E-06-5.46518E-19-9.40901E-19
 -1      4079 9.00568E-05-2.48854E-05-2.79475E-05-7.65604E-06-3.25076E-19-1.01496E-18
 -1      4080 8.29636E-05-2.25999E-05-2.59538E-05 1.00157E-05-1.27590E-18-1.81367E-18
 -1      4081 9.75357E-05-3.77966E-05-2.53867E-05 1.91908E-05-2.76328E-18-2.18904E-18
 -1      4082 8.70376E-05-2.71816E-05-2.56774E-05-1.42871E-05-9.81382E-19-9.83883E-19
 -1      4083 9.02761E-05-2.83410E-05-2.64959E-05-1.30695E-05-1.08346E-18-6.94544E-19
 -1      4084 8.94676E-05-2.70026E-05-2.67833E-05-1.18531E-05-1.29124E-18-7.24473E-19
 -1      4085 9.43356E-05-2.72285E-05-2.87594E-05-5.17494E-07 5.74502E-19 1.67126E-18
 -1      4086 9.44286E-05-2.73516E-05-2.87494E-05-4.45930E-07 3.21235E-19 2.53375E-18
 -1      4087 9.43608E-05-2.72848E-05-2.87455E-05-3.24471E-07 5.34800E-19 9.51665E-20
 -1      4088 9.41620E-05-2.70531E-05-2.87585E-05-4.16259E-07 1.16949E-18-9.31701E-20
 -1      4089 7.26481E-05-1.72639E-05-2.36358E-05 6.19483E-06 4.02399E-19-2.60406E-18
 -1      4090 7.15614E-05-1.77378E-05-2.31273E-05-9.66134E-06 1.64270E-18 3.69445E-19
 -1      4091 7.07294E-05-1.64510E-05-2.31981E-05-5.79178E-06 1.52606E-18 3.77988E-19
 -1      4092 8.94627E-05-2.55095E-05-2.74257E-05-9.49015E-06-8.54943E-19-1.08375E-18
 -1      4093 8.80080E-05-2.42706E-05-2.73124E-05-8.53555E-06-7.47680E-19-8.25142E-19
 -1      4094 8.97121E-05-2.62411E-05-2.71677E-05-1.04896E-05-1.15991E-18-7.78068E-19
 -1      4095 6.98793E-05-1.59395E-05-2.31852E-05-5.22329E-07 2.68366E-19 3.62795E-19
 -1      4096 9.45118E-05-2.74833E-05-2.87278E-05-1.19097E-07 1.44427E-19-1.01679E-18
 -1      4097 9.44996E-05-2.74676E-05-2.87267E-05-7.86665E-09-7.03717E-20-2.46983E-18
 -1      4098 9.44171E-05-2.73642E-05-2.87364E-05-1.49766E-07 2.56032E-19-1.06138E-18
 -1      4099 9.33120E-05-2.53062E-05-2.91432E-05-3.71139E-06-5.45929E-21-1.46961E-18
 -1      4100 9.36318E-05-2.53544E-05-2.92678E-05-3.27321E-06 1.59494E-19-1.30669E-18
 -1      4101 9.24540E-05-2.50882E-05-2.88674E-05-4.59750E-06-2.54994E-19-1.66800E-18
 -1      4102 9.28120E-05-2.51785E-05-2.89943E-05-4.12797E-06-1.26934E-19-1.47916E-18
 -1      4103 9.26136E-05-2.48282E-05-2.90435E-05-3.43556E-06-7.84633E-22-1.14048E-18
 -1      4104 8.35245E-05-2.69347E-05-2.42797E-05-1.69592E-05-5.84140E-19-2.03768E-18
 -1      4105 7.56030E-05-1.71776E-05-2.49431E-05-3.05460E-06 1.22263E-18 6.14991E-19
 -1      4106 9.36392E-05-2.15377E-05-3.09080E-05-1.31461E-07 4.15419E-20-2.82957E-18
 -1      4107 9.37239E-05-2.16831E-05-3.08856E-05-2.56344E-07-1.82657E-19-2.77938E-18
 -1      4108 9.40219E-05-2.24531E-05-3.06606E-05 4.39184E-09-1.39077E-19-2.45028E-18
 -1      4109 9.39169E-05-2.22736E-05-3.06883E-05-3.53346E-08 2.16353E-19-2.55882E-18
 -1      4110 7.35834E-05-1.82094E-05-2.38316E-05 7.59570E-06-4.41334E-20 1.64728E-18
 -1      4111 7.09799E-05-1.62487E-05-2.33421E-05 3.38785E-06 4.03376E-19 1.92168E-18
 -1      4112 7.34315E-05-1.69006E-05-2.42193E-05 5.11367E-07 8.59609E-19 4.13379E-19
 -1      4113 7.65535E-05-1.89173E-05-2.47640E-05 6.97817E-06 3.06181E-19-2.78583E-19
 -1      4114 9.43513E-05-2.34796E-05-3.03827E-05-5.02920E-07 6.07043E-19-1.93955E-18
 -1      4115 9.44058E-05-2.41918E-05-3.00970E-05 9.72411E-07-3.58016E-19-2.07444E-18
 -1      4116 9.41658E-05-2.40569E-05-3.00405E-05 8.35981E-07-2.12277E-19-2.08684E-18
 -1      4117 8.05963E-05-2.42938E-05-2.41322E-05-1.50529E-05-4.28980E-19-2.38198E-18
 -1      4118 8.43532E-05-2.58720E-05-2.50218E-05-1.44386E-05-8.44123E-19-1.54057E-18
 -1      4119 8.41407E-05-2.45992E-05-2.55447E-05-1.25298E-05-6.56704E-19-1.43873E-18
 -1      4120 7.81437E-05-2.21197E-05-2.40165E-05-1.28667E-05-2.75239E-19-2.27631E-18
 -1      4121 7.86116E-05-1.82282E-05-2.59296E-05-3.63965E-07 7.19281E-19 7.92580E-20
 -1      4122 8.05546E-05-1.88776E-05-2.64644E-05-3.61240E-07 4.11544E-19-1.01702E-18
 -1      4123 9.15232E-05-2.38295E-05-2.90209E-05 1.23875E-06 4.78593E-20-1.96852E-18
 -1      4124 9.07621E-05-2.34936E-05-2.88399E-05 1.36452E-06 1.23075E-19-1.88057E-18
 -1      4125 9.41300E-05-2.30115E-05-3.04841E-05 1.36197E-07-2.14329E-19-2.25495E-18
 -1      4126 9.42017E-05-2.34652E-05-3.03119E-05 3.67991E-07-2.84738E-19-2.22586E-18
 -1      4127 9.40607E-05-2.28810E-05-3.05054E-05 9.38177E-08-5.77285E-20-2.39739E-18
 -1      4128 9.44092E-05-2.40563E-05-3.01436E-05-7.88552E-07 5.13122E-19-1.87068E-18
 -1      4129 9.41640E-05-2.32219E-05-3.04071E-05-3.23564E-07 4.66809E-19-2.16312E-18
 -1      4130 8.42955E-05-2.24298E-05-2.64838E-05 8.53879E-06-1.48494E-18-2.86796E-18
 -1      4131 8.08791E-05-2.06100E-05-2.57807E-05 7.91507E-06-3.94217E-19-2.32037E-18
 -1      4132 8.46791E-05-2.21530E-05-2.68364E-05 7.35091E-06-1.16835E-18-3.50019E-18
 -1      4133 8.98771E-05-2.30892E-05-2.86349E-05 1.37817E-06 7.51432E-21-1.96879E-18
 -1      4134 8.89275E-05-2.26383E-05-2.84204E-05 1.47942E-06 2.06510E-20-1.92730E-18
 -1      4135 9.02226E-05-2.31733E-05-2.87099E-05 4.31448E-07-4.92497E-20-2.09390E-18
 -1      4136 8.78390E-05-2.21459E-05-2.81682E-05 1.41774E-06-6.73544E-20-1.73725E-18
 -1      4137 8.66280E-05-2.16033E-05-2.78925E-05 1.48114E-06-2.22659E-19-1.81691E-18
 -1      4138 8.83511E-05-2.23467E-05-2.82537E-05 3.00940E-07 8.92445E-21-2.08728E-18
 -1      4139 8.52925E-05-2.10280E-05-2.75631E-05 1.42805E-06-2.27593E-19-1.67722E-18
 -1      4140 8.38081E-05-2.04356E-05-2.71902E-05 1.48362E-06-1.86860E-19-1.81363E-18
 -1      4141 8.58690E-05-2.11804E-05-2.76636E-05 6.65287E-08-1.37324E-19-2.08828E-18
 -1      4142 8.21317E-05-1.98300E-05-2.67371E-05 1.36679E-06-4.31357E-19-1.96259E-18
 -1      4143 8.02573E-05-1.92030E-05-2.62145E-05 1.42773E-06-3.54662E-19-2.21043E-18
 -1      4144 8.29338E-05-1.99898E-05-2.68788E-05-3.83569E-07-4.23722E-19-2.20879E-18
 -1      4145 7.80818E-05-1.85035E-05-2.55780E-05 1.28347E-06-1.51546E-19-2.22628E-18
 -1      4146 7.56918E-05-1.78484E-05-2.48260E-05 1.50367E-06 4.01183E-20-2.57867E-18
 -1      4147 7.90927E-05-1.86914E-05-2.57839E-05-1.11732E-06-2.87814E-19-2.74226E-18
 -1      4148 9.27922E-05-2.42752E-05-2.93719E-05 1.04446E-06-1.43609E-19-2.08899E-18
 -1      4149 9.22170E-05-2.40970E-05-2.92028E-05 1.20424E-06-1.10032E-19-2.09676E-18
 -1      4150 9.17964E-05-2.38340E-05-2.91005E-05 4.83509E-07 1.19432E-19-1.92396E-18
 -1      4151 7.22571E-05-1.70029E-05-2.37337E-05 6.01315E-07-6.75310E-21-2.96012E-18
 -1      4152 8.21768E-05-1.94382E-05-2.69164E-05-6.10018E-07 9.88530E-20-1.45559E-18
 -1      4153 8.36403E-05-2.00158E-05-2.72852E-05-5.88710E-07-3.19754E-19-1.46061E-18
 -1      4154 8.14659E-05-1.92074E-05-2.66317E-05 1.38531E-06 1.77927E-21-9.42294E-19
 -1      4155 8.49159E-05-2.05792E-05-2.75940E-05-7.48369E-07-1.99070E-19-2.03492E-18
 -1      4156 8.60705E-05-2.11323E-05-2.78436E-05-7.14377E-07-3.37419E-19-2.67403E-18
 -1      4157 8.42931E-05-2.03140E-05-2.73865E-05 7.57222E-07-1.06984E-18-2.69892E-18
 -1      4158 8.70948E-05-2.16733E-05-2.80532E-05-8.04941E-07-7.09081E-19-3.70842E-18
 -1      4159 8.80208E-05-2.21995E-05-2.82190E-05-7.52211E-07-1.04198E-18-2.95818E-18
 -1      4160 8.65485E-05-2.13824E-05-2.79033E-05 3.44742E-07-8.03285E-19-4.53430E-18
 -1      4161 8.88534E-05-2.27112E-05-2.83580E-05-7.95281E-07 5.43375E-21-2.32079E-18
 -1      4162 8.96003E-05-2.32013E-05-2.84644E-05-7.27246E-07 7.65816E-19-1.69516E-18
 -1      4163 8.83782E-05-2.24109E-05-2.82521E-05 9.05601E-08 2.93236E-19-4.61484E-18
 -1      4164 9.02781E-05-2.36739E-05-2.85532E-05-7.38893E-07 4.83258E-19-1.88892E-18
 -1      4165 9.08795E-05-2.41192E-05-2.86178E-05-6.62099E-07 1.03228E-18-2.15034E-18
 -1      4166 8.98704E-05-2.33796E-05-2.84805E-05-5.51963E-08 5.81792E-19-3.23548E-18
 -1      4167 9.14286E-05-2.45447E-05-2.86709E-05-6.54436E-07 1.44268E-18-1.90862E-18
 -1      4168 9.19097E-05-2.49396E-05-2.87066E-05-5.75433E-07 1.32784E-18-1.17944E-18
 -1      4169 9.10851E-05-2.42687E-05-2.86232E-05-1.28517E-07 1.62020E-18-1.85600E-18
 -1      4170 9.23506E-05-2.53134E-05-2.87350E-05-5.57269E-07-1.38213E-19-1.61336E-18
 -1      4171 9.27317E-05-2.56555E-05-2.87511E-05-4.81307E-07-3.45959E-19-1.77249E-18
 -1      4172 9.20665E-05-2.50640E-05-2.87056E-05-1.55581E-07 9.79081E-20-2.30994E-18
 -1      4173 9.30815E-05-2.59765E-05-2.87628E-05-4.58662E-07-2.26596E-19-1.99823E-18
 -1      4174 9.33796E-05-2.62667E-05-2.87661E-05-3.89316E-07-4.62877E-19-1.54073E-18
 -1      4175 9.28512E-05-2.57582E-05-2.87464E-05-1.54986E-07-5.77805E-19-3.37325E-18
 -1      4176 9.36534E-05-2.65359E-05-2.87669E-05-3.65786E-07-1.25187E-19-1.30530E-18
 -1      4177 9.38808E-05-2.67766E-05-2.87621E-05-3.06754E-07 4.98061E-19-9.83223E-19
 -1      4178 9.34707E-05-2.63514E-05-2.87595E-05-1.39384E-07-2.09170E-20-2.05526E-18
 -1      4179 9.36739E-05-2.43300E-05-2.97248E-05 7.88825E-07-1.43648E-19-2.10332E-18
 -1      4180 9.32916E-05-2.43602E-05-2.95498E-05 9.81946E-07-2.04871E-19-2.04980E-18
 -1      4181 9.29690E-05-2.41681E-05-2.94638E-05 4.46484E-07-4.25415E-20-2.46738E-18
 -1      4182 7.39914E-05-1.75044E-05-2.41291E-05-2.73194E-06-2.70693E-19-2.96865E-18
 -1      4183 8.62810E-05-2.22163E-05-2.74866E-05 5.51832E-06-1.77229E-18-3.60300E-18
 -1      4184 8.57811E-05-2.22369E-05-2.72218E-05 6.38344E-06-1.31203E-18-3.56533E-18
 -1      4185 8.34028E-05-2.09587E-05-2.67480E-05 5.79814E-06-1.19949E-18-3.63839E-18
 -1      4186 8.77822E-05-2.26077E-05-2.79549E-05 4.16439E-06-1.13494E-18-2.37196E-18
 -1      4187 8.72495E-05-2.24470E-05-2.77642E-05 4.80872E-06-1.78862E-18-3.25775E-18
 -1      4188 8.54652E-05-2.13853E-05-2.74361E-05 4.18720E-06-1.61761E-18-3.92534E-18
 -1      4189 8.91371E-05-2.31914E-05-2.82806E-05 3.16474E-06-3.47099E-19-1.04071E-18
 -1      4190 8.86176E-05-2.29286E-05-2.81487E-05 3.65581E-06-7.25300E-19-1.70930E-18
 -1      4191 8.72763E-05-2.20683E-05-2.79224E-05 3.06049E-06-1.70913E-18-3.08644E-18
 -1      4192 9.03284E-05-2.38658E-05-2.84984E-05 2.41173E-06 1.58632E-18-1.46744E-18
 -1      4193 8.98517E-05-2.35542E-05-2.84119E-05 2.79247E-06 9.85917E-19-1.15329E-18
 -1      4194 8.88228E-05-2.28422E-05-2.82572E-05 2.25512E-06 3.07212E-19-2.24239E-18
 -1      4195 9.13531E-05-2.45620E-05-2.86365E-05 1.83634E-06 3.19195E-19-1.93437E-18
 -1      4196 9.09331E-05-2.42377E-05-2.85836E-05 2.13545E-06 1.62816E-18-1.41967E-18
 -1      4197 9.01361E-05-2.36430E-05-2.84802E-05 1.66946E-06 1.86149E-18-2.44111E-18
 -1      4198 9.22164E-05-2.52325E-05-2.87169E-05 1.39262E-06-6.72876E-19-3.22363E-18
 -1      4199 9.18579E-05-2.49197E-05-2.86882E-05 1.62939E-06-7.71474E-19-3.32393E-18
 -1      4200 9.12384E-05-2.44227E-05-2.86214E-05 1.23801E-06 1.03661E-18-3.08529E-18
 -1      4201 9.29290E-05-2.58478E-05-2.87568E-05 1.04882E-06-1.51988E-18-3.53399E-18
 -1      4202 9.26313E-05-2.55611E-05-2.87449E-05 1.23670E-06-9.83233E-19-3.71140E-18
 -1      4203 9.21507E-05-2.51482E-05-2.87041E-05 9.17018E-07-4.29306E-19-3.90272E-18
 -1      4204 9.35058E-05-2.63918E-05-2.87693E-05 7.82299E-07-6.44226E-19-3.32049E-18
 -1      4205 9.32644E-05-2.61390E-05-2.87685E-05 9.31033E-07-1.32516E-18-3.68479E-18
 -1      4206 9.28938E-05-2.57992E-05-2.87458E-05 6.76553E-07-9.55877E-19-4.17087E-18
 -1      4207 9.39647E-05-2.68581E-05-2.87640E-05 5.78108E-07 2.79477E-19-4.66230E-18
 -1      4208 9.37724E-05-2.66424E-05-2.87703E-05 6.92942E-07-3.13925E-19-4.48821E-18
 -1      4209 9.34891E-05-2.63660E-05-2.87599E-05 4.95501E-07-2.37166E-19-5.60818E-18
 -1      4210 9.40567E-05-2.30702E-05-3.04274E-05-2.55108E-07 3.72484E-19-2.31381E-18
 -1      4211 7.37289E-05-1.80628E-05-2.39066E-05-5.80659E-06-2.78277E-19-3.18524E-18
 -1      4212 7.59339E-05-2.01009E-05-2.39253E-05-1.01832E-05-1.50849E-19-2.80595E-18
 -1      4213 7.94526E-05-2.14040E-05-2.48209E-05-1.00064E-05-2.14639E-19-2.55586E-18
 -1      4214 7.68492E-05-1.88131E-05-2.49321E-05-4.49926E-06-3.64286E-19-2.80005E-18
 -1      4215 7.58542E-05-1.75107E-05-2.50295E-05 4.63295E-07 1.41811E-18 4.03107E-19
 -1      4216 9.35089E-05-2.50072E-05-2.93503E-05-2.66554E-06 2.17336E-19-1.43528E-18
 -1      4217 9.40275E-05-2.53910E-05-2.94168E-05-2.89459E-06 2.57955E-19-1.44733E-18
 -1      4218 9.42743E-05-2.53275E-05-2.95526E-05-2.45401E-06 4.77541E-19-1.52893E-18
 -1      4219 8.91541E-05-2.40550E-05-2.78905E-05-6.73335E-06-6.01512E-19-1.08397E-18
 -1      4220 9.06586E-05-2.48430E-05-2.81917E-05-6.87597E-06-4.57825E-19-1.12307E-18
 -1      4221 9.09056E-05-2.47675E-05-2.83654E-05-6.24333E-06-3.82697E-19-1.39689E-18
 -1      4222 9.41385E-05-2.38436E-05-3.01308E-05 4.72904E-07-2.07940E-19-2.19038E-18
 -1      4223 9.39359E-05-2.42131E-05-2.98867E-05 7.60018E-07-1.61928E-19-2.01750E-18
 -1      4224 9.37111E-05-2.41057E-05-2.98087E-05 3.98384E-07-1.00215E-19-2.11143E-18
 -1      4225 9.40467E-05-2.36637E-05-3.01536E-05 3.03172E-07-1.72917E-19-1.89066E-18
 -1      4226 9.46679E-05-2.49145E-05-2.98947E-05-1.55449E-06 7.53050E-19-1.53573E-18
 -1      4227 9.45152E-05-2.45131E-05-2.99946E-05-1.27145E-06 7.23447E-19-1.39301E-18
 -1      4228 9.42945E-05-2.42695E-05-3.00198E-05-1.00410E-06 4.10297E-19-1.77574E-18
 -1      4229 9.45347E-05-2.51673E-05-2.97325E-05-2.02805E-06 5.95660E-19-1.45860E-18
 -1      4230 8.61447E-05-2.32164E-05-2.69378E-05-7.96329E-06-8.00431E-19-1.22933E-18
 -1      4231 8.66294E-05-2.30894E-05-2.72719E-05-7.01737E-06-5.82362E-19-1.17283E-18
 -1      4232 8.06429E-05-1.95755E-05-2.62151E-05 4.25908E-06 7.52503E-20-1.38321E-18
 -1      4233 7.91730E-05-1.93617E-05-2.56499E-05 5.32910E-06 2.96644E-19-5.38672E-19
 -1      4234 7.71960E-05-1.78977E-05-2.53104E-05 2.77060E-06 1.01043E-18 7.08113E-19
 -1      4235 9.44702E-05-2.74244E-05-2.87322E-05 2.34482E-07 3.12618E-19-6.45216E-18
 -1      4236 9.44810E-05-2.74359E-05-2.87360E-05 3.36152E-07 1.14588E-18-6.33278E-18
 -1      4237 9.43898E-05-2.73168E-05-2.87451E-05 4.08194E-07 6.91243E-19-5.38216E-18
 -1      4238 9.40181E-05-2.69154E-05-2.87587E-05-2.78370E-07 8.62641E-19-9.54419E-19
 -1      4239 9.41264E-05-2.70417E-05-2.87530E-05-2.30273E-07 1.22988E-18-1.11645E-18
 -1      4240 9.38725E-05-2.67643E-05-2.87569E-05-1.06852E-07 6.45627E-19-2.99034E-18
 -1      4241 9.19726E-05-2.44338E-05-2.89450E-05-2.98120E-06 5.66912E-20-1.31578E-18
 -1      4242 9.24778E-05-2.45942E-05-2.91037E-05-2.60104E-06 9.74494E-20-1.24352E-18
 -1      4243 9.15367E-05-2.48680E-05-2.85613E-05-5.60330E-06-2.72296E-19-1.83017E-18
 -1      4244 9.18900E-05-2.49359E-05-2.87042E-05-5.07174E-06-3.72547E-19-1.64628E-18
 -1      4245 9.15646E-05-2.45249E-05-2.87199E-05-4.31800E-06-1.98758E-19-1.41518E-18
 -1      4246 9.03196E-05-2.41472E-05-2.83444E-05-5.37661E-06-5.31310E-19-1.07574E-18
 -1      4247 9.42494E-05-2.71677E-05-2.87519E-05 4.44748E-07 6.24475E-19-5.10767E-18
 -1      4248 9.41395E-05-2.70333E-05-2.87600E-05 5.33884E-07 8.19351E-19-4.90914E-18
 -1      4249 9.39201E-05-2.68069E-05-2.87574E-05 3.82735E-07 3.18284E-19-5.80387E-18
 -1      4250 9.42332E-05-2.71483E-05-2.87473E-05 3.12012E-07 1.10251E-18-6.41831E-18
 -1      4251 9.40162E-05-2.28391E-05-3.05124E-05 6.74227E-08 1.71168E-19-2.37197E-18
 -1      4252 7.97961E-05-2.06766E-05-2.52760E-05-8.40817E-06-6.02538E-19-2.34336E-18
 -1      4253 8.18871E-05-2.26894E-05-2.53675E-05-1.09396E-05-6.37264E-19-2.00096E-18
 -1      4254 8.46308E-05-2.39460E-05-2.59781E-05-1.08613E-05-9.12613E-19-1.16963E-18
 -1      4255 9.41093E-05-2.35047E-05-3.02572E-05-1.64942E-07 2.00128E-19-2.17799E-18
 -1      4256 9.44760E-05-2.74455E-05-2.87290E-05 9.22558E-08-5.21948E-20-4.07034E-18
 -1      4257 9.42331E-05-2.71538E-05-2.87484E-05-2.06769E-07 1.21043E-18-9.21647E-19
 -1      4258 9.43247E-05-2.72660E-05-2.87418E-05-1.69283E-07 6.41418E-19-9.13485E-19
 -1      4259 9.43056E-05-2.72391E-05-2.87399E-05-2.95746E-08 9.01137E-19-1.36993E-18
 -1      4260 9.41129E-05-2.70238E-05-2.87494E-05-6.64760E-08 8.40223E-19-2.69270E-18
 -1      4261 9.30381E-05-2.47366E-05-2.92743E-05-2.31547E-06 3.01148E-20-1.18259E-18
 -1      4262 9.34357E-05-2.47829E-05-2.94309E-05-1.96220E-06 2.27568E-19-1.30549E-18
 -1      4263 9.24742E-05-2.43370E-05-2.91811E-05-1.87120E-06 1.21682E-19-1.25452E-18
 -1      4264 8.71876E-05-2.52063E-05-2.65816E-05-1.09919E-05-1.07573E-18-7.93954E-19
 -1      4265 8.77000E-05-2.32054E-05-2.76232E-05-6.11388E-06-5.83186E-19-1.28990E-18
 -1      4266 8.82628E-05-2.32681E-05-2.78833E-05-5.38977E-06-6.31929E-19-1.36721E-18
 -1      4267 8.59078E-05-2.21516E-05-2.72680E-05-5.59593E-06-6.40905E-19-1.79544E-18
 -1      4268 9.20651E-05-2.41120E-05-2.91388E-05-8.06573E-07 2.18718E-19-1.72841E-18
 -1      4269 9.13644E-05-2.38486E-05-2.89528E-05-8.58494E-07 1.70400E-19-1.70958E-18
 -1      4270 8.48739E-05-2.33533E-05-2.64180E-05-9.50146E-06-1.06946E-18-1.18487E-18
 -1      4271 8.35836E-05-2.18833E-05-2.63695E-05-7.75876E-06-8.11117E-19-1.73848E-18
 -1      4272 8.88720E-05-2.27252E-05-2.83784E-05-7.79455E-07-1.54342E-19-1.84399E-18
 -1      4273 8.77597E-05-2.22155E-05-2.81200E-05-8.68442E-07-1.09748E-19-2.14270E-18
 -1      4274 8.67660E-05-2.19825E-05-2.77782E-05-2.28609E-06-3.41998E-19-2.06728E-18
 -1      4275 8.53814E-05-2.14838E-05-2.74375E-05-2.59372E-06-4.55158E-19-2.18171E-18
 -1      4276 8.42001E-05-2.11614E-05-2.70625E-05-3.31451E-06-4.29174E-19-2.20090E-18
 -1      4277 8.24910E-05-2.06025E-05-2.66014E-05-3.73840E-06-5.58640E-19-2.22354E-18
 -1      4278 8.19315E-05-1.98017E-05-2.66517E-05 3.43363E-06-4.57801E-19-1.73626E-18
 -1      4279 8.35640E-05-2.03677E-05-2.70877E-05 2.92197E-06-9.29897E-19-2.71735E-18
 -1      4280 9.12521E-05-2.41860E-05-2.87597E-05-3.34090E-06-7.01241E-20-1.25831E-18
 -1      4281 9.12067E-05-2.39057E-05-2.88191E-05-2.44873E-06 7.81086E-21-1.32574E-18
 -1      4282 9.06476E-05-2.39949E-05-2.85804E-05-3.81607E-06-2.52190E-19-1.29102E-18
 -1      4283 8.45718E-05-2.07354E-05-2.73889E-05 2.34630E-06-1.08808E-18-2.96235E-18
 -1      4284 8.58334E-05-2.12362E-05-2.76885E-05 2.00500E-06-1.71155E-18-3.23290E-18
 -1      4285 8.66912E-05-2.16493E-05-2.78982E-05 1.60552E-06-1.79502E-18-2.73093E-18
 -1      4286 8.77097E-05-2.21460E-05-2.81027E-05 1.37894E-06-6.00297E-19-3.06979E-18
 -1      4287 8.84393E-05-2.25761E-05-2.82449E-05 1.09490E-06 7.95408E-19-3.50342E-18
 -1      4288 8.92689E-05-2.30547E-05-2.83811E-05 9.47636E-07 1.09972E-18-3.23898E-18
 -1      4289 8.98844E-05-2.34783E-05-2.84737E-05 7.43299E-07 1.08012E-18-2.65099E-18
 -1      4290 9.05605E-05-2.39256E-05-2.85610E-05 6.50637E-07 1.36506E-18-2.23629E-18
 -1      4291 9.10735E-05-2.43246E-05-2.86178E-05 5.02077E-07 1.39482E-18-2.31548E-18
 -1      4292 9.16217E-05-2.47306E-05-2.86702E-05 4.46336E-07 9.27370E-19-2.51176E-18
 -1      4293 9.20431E-05-2.50930E-05-2.87017E-05 3.37336E-07-2.87385E-19-2.77977E-18
 -1      4294 9.24834E-05-2.54517E-05-2.87299E-05 3.05906E-07-9.76648E-19-3.10805E-18
 -1      4295 9.28240E-05-2.57710E-05-2.87440E-05 2.25325E-07-7.58606E-19-3.52026E-18
 -1      4296 9.31733E-05-2.60803E-05-2.87558E-05 2.09410E-07-4.06990E-19-3.63857E-18
 -1      4297 9.34439E-05-2.63536E-05-2.87583E-05 1.49470E-07-3.03101E-19-4.06514E-18
 -1      4298 9.37154E-05-2.66149E-05-2.87592E-05 1.43304E-07 1.37400E-19-3.85754E-18
 -1      4299 9.31465E-05-2.43514E-05-2.94969E-05-5.71841E-07 1.77947E-21-1.72709E-18
 -1      4300 9.26346E-05-2.42631E-05-2.93162E-05-5.77792E-07-8.61633E-21-1.68514E-18
 -1      4301 9.43703E-05-2.73201E-05-2.87371E-05 1.34417E-07 8.39285E-19-4.32717E-18
 -1      4302 9.41671E-05-2.48819E-05-2.96860E-05-1.88785E-06 5.39597E-19-1.42786E-18
 -1      4303 9.06440E-05-2.35682E-05-2.87609E-05-1.12792E-06-1.49838E-19-1.63251E-18
 -1      4304 9.40311E-05-2.38757E-05-3.00760E-05-1.33516E-07 1.11641E-19-2.10884E-18
 -1      4305 8.10341E-05-2.03735E-05-2.60342E-05-4.95429E-06-6.99040E-19-2.41999E-18
 -1      4306 9.38906E-05-2.68006E-05-2.87557E-05 1.20866E-07 3.45224E-19-3.97217E-18
 -1      4307 9.41208E-05-2.45472E-05-2.98213E-05-1.23963E-06 4.17249E-19-1.57456E-18
 -1      4308 9.40526E-05-2.40978E-05-2.99656E-05-7.85025E-07 2.60289E-19-1.94879E-18
 -1      4309 8.77353E-05-2.24809E-05-2.79430E-05-3.34337E-06-4.83166E-19-1.42413E-18
 -1      4310 8.97937E-05-2.31845E-05-2.85529E-05-1.24687E-06-2.95982E-19-1.60934E-18
 -1      4311 7.90198E-05-1.98850E-05-2.53963E-05-5.66758E-06-5.07829E-19-2.57682E-18
 -1      4312 9.38448E-05-2.41689E-05-2.98733E-05-2.98487E-07-1.03099E-19-1.82523E-18
 -1      4313 9.34688E-05-2.44568E-05-2.95592E-05-1.29278E-06 1.54816E-19-1.24044E-18
 -1      4314 9.38635E-05-2.47272E-05-2.96336E-05-1.63038E-06 3.88135E-19-1.45642E-18
 -1      4315 9.35768E-05-2.42935E-05-2.97067E-05-3.01845E-07-3.79825E-20-1.90679E-18
 -1      4316 8.95862E-05-2.31444E-05-2.84457E-05-2.41325E-06-3.61800E-19-1.40645E-18
 -1      4317 8.90414E-05-2.32686E-05-2.81807E-05-3.98188E-06-4.71780E-19-1.35977E-18
 -1      4318 9.40263E-05-2.69418E-05-2.87527E-05 1.31232E-07 3.66452E-19-4.82931E-18
 -1      4319 8.97303E-05-2.35016E-05-2.83928E-05-3.47018E-06-4.02975E-19-1.28635E-18
 -1      4320 9.42773E-05-2.72163E-05-2.87422E-05 1.21468E-07 1.10854E-18-4.25382E-18
 -1      4321 9.41341E-05-2.70581E-05-2.87486E-05 1.43873E-07 1.01127E-18-3.83595E-18
 -3
    1PSTEP                         4           1           1          
  100CL  101 1.000000000        4321                     0    1           1
 -4  ERROR       1    1
 -5  STR(%)      1    1    0    0
 -1         1 1.22404E+01
 -1         2 2.53948E+01
 -1         3 2.55339E-03
 -1         4 2.89533E-03
 -1         5 1.40046E+01
 -1         6 1.31088E+01
 -1         7 1.31088E+01
 -1         8 3.60656E+00
 -1         9 1.78953E+00
 -1        10 1.27683E+00
 -1        11 1.03267E+00
 -1        12 8.81395E-01
 -1        13 7.83984E-01
 -1        14 7.21785E-01
 -1        15 7.23980E-01
 -1        16 7.88525E-01
 -1        17 8.82444E-01
 -1        18 1.03936E+00
 -1        19 1.29590E+00
 -1        20 1.80143E+00
 -1        21 3.45033E+00
 -1        22 8.57288E+00
 -1        23 1.31088E+01
 -1        24 4.34591E+00
 -1        25 3.35687E+00
 -1        26 2.12657E+00
 -1        27 1.44117E+00
 -1        28 1.12237E+00
 -1        29 9.04176E-01
 -1        30 7.44086E-01
 -1        31 6.19293E-01
 -1        32 6.24554E-01
 -1        33 7.07654E-01
 -1        34 7.91707E-01
 -1        35 8.92685E-01
 -1        36 1.13835E+00
 -1        37 1.44785E+00
 -1        38 1.71475E+00
 -1        39 1.81323E+00
 -1        40 1.81323E+00
 -1        41 1.76623E+00
 -1        42 2.05697E+00
 -1        43 3.28501E+00
 -1        44 4.91682E+00
 -1        45 4.91682E+00
 -1        46 4.91432E+00
 -1        47 4.91432E+00
 -1        48 3.27245E+00
 -1        49 2.05989E+00
 -1        50 1.76845E+00
 -1        51 1.79539E+00
 -1        52 1.79539E+00
 -1        53 1.69241E+00
 -1        54 1.42527E+00
 -1        55 1.13182E+00
 -1        56 8.96465E-01
 -1        57 6.84356E-01
 -1        58 5.75402E-01
 -1        59 4.66278E-01
 -1        60 3.66830E-01
 -1        61 2.81332E-01
 -1        62 2.10708E-01
 -1        63 1.54078E-01
 -1        64 1.14609E-01
 -1        65 9.40012E-02
 -1        66 7.50132E-02
 -1        67 5.79557E-02
 -1        68 4.27075E-02
 -1        69 2.88040E-02
 -1        70 1.89427E-02
 -1        71 9.53591E-03
 -1        72 1.40046E+01
 -1        73 3.42801E+00
 -1        74 2.44229E+00
 -1        75 1.69647E+00
 -1        76 1.23186E+00
 -1        77 1.04012E+00
 -1        78 8.93905E-01
 -1        79 7.79535E-01
 -1        80 6.86017E-01
 -1        81 6.04044E-01
 -1        82 5.57502E-01
 -1        83 5.70577E-01
 -1        84 5.72691E-01
 -1        85 5.79908E-01
 -1        86 7.33996E-01
 -1        87 8.32323E-01
 -1        88 9.69381E-01
 -1        89 1.16182E+00
 -1        90 1.17562E+00
 -1        91 1.44908E+00
 -1        92 1.81100E+00
 -1        93 2.55742E+00
 -1        94 2.74378E+00
 -1        95 3.14567E+00
 -1        96 3.14567E+00
 -1        97 2.72255E+00
 -1        98 1.79277E+00
 -1        99 1.16285E+00
 -1       100 8.28047E-01
 -1       101 9.08336E-01
 -1       102 9.72313E-01
 -1       103 9.72313E-01
 -1       104 9.13364E-01
 -1       105 7.90351E-01
 -1       106 6.64968E-01
 -1       107 5.41121E-01
 -1       108 4.21396E-01
 -1       109 3.15021E-01
 -1       110 2.45987E-01
 -1       111 1.91078E-01
 -1       112 1.43966E-01
 -1       113 1.05107E-01
 -1       114 7.40454E-02
 -1       115 4.98480E-02
 -1       116 4.02631E-02
 -1       117 3.18235E-02
 -1       118 2.31411E-02
 -1       119 1.65075E-02
 -1       120 9.73401E-03
 -1       121 4.08058E-03
 -1       122 2.78623E-03
 -1       123 2.78623E-03
 -1       124 2.57610E-03
 -1       125 1.51633E-03
 -1       126 1.46835E-03
 -1       127 2.22119E-03
 -1       128 2.45596E-03
 -1       129 2.45596E-03
 -1       130 2.18739E-03
 -1       131 1.38739E-03
 -1       132 1.67819E-03
 -1       133 2.74743E-03
 -1       134 2.74743E-03
 -1       135 2.58029E-03
 -1       136 3.89219E-03
 -1       137 2.48248E+01
 -1       138 4.81989E+01
 -1       139 4.81989E+01
 -1       140 2.17560E+01
 -1       141 1.26404E+01
 -1       142 1.26404E+01
 -1       143 1.22634E+01
 -1       144 1.24796E+01
 -1       145 1.24796E+01
 -1       146 1.21293E+01
 -1       147 2.84317E+01
 -1       148 3.07127E+01
 -1       149 2.90543E+01
 -1       150 2.49253E+01
 -1       151 2.49253E+01
 -1       152 2.46287E+01
 -1       153 4.05435E+01
 -1       154 4.05435E+01
 -1       155 1.51697E+01
 -1       156 1.32103E+01
 -1       157 1.32103E+01
 -1       158 1.25661E+01
 -1       159 1.25661E+01
 -1       160 2.13712E+01
 -1       161 4.83628E+01
 -1       162 4.83628E+01
 -1       163 2.53948E+01
 -1       164 5.99691E+00
 -1       165 2.26055E+00
 -1       166 1.49879E+00
 -1       167 1.14883E+00
 -1       168 9.59705E-01
 -1       169 8.43960E-01
 -1       170 7.68669E-01
 -1       171 7.23558E-01
 -1       172 7.72110E-01
 -1       173 8.46732E-01
 -1       174 9.67369E-01
 -1       175 1.16368E+00
 -1       176 1.51917E+00
 -1       177 2.24662E+00
 -1       178 3.88500E+00
 -1       179 1.40046E+01
 -1       180 4.34591E+00
 -1       181 3.35687E+00
 -1       182 2.12657E+00
 -1       183 1.44679E+00
 -1       184 1.12237E+00
 -1       185 9.04176E-01
 -1       186 7.44086E-01
 -1       187 6.19293E-01
 -1       188 5.50671E-01
 -1       189 6.24554E-01
 -1       190 7.07654E-01
 -1       191 8.06949E-01
 -1       192 1.00308E+00
 -1       193 1.19135E+00
 -1       194 1.44785E+00
 -1       195 1.71475E+00
 -1       196 1.81323E+00
 -1       197 1.76623E+00
 -1       198 1.68981E+00
 -1       199 2.05697E+00
 -1       200 3.28501E+00
 -1       201 4.91682E+00
 -1       202 4.89266E+00
 -1       203 4.91432E+00
 -1       204 3.27245E+00
 -1       205 2.05989E+00
 -1       206 1.69607E+00
 -1       207 1.76845E+00
 -1       208 1.79539E+00
 -1       209 1.69241E+00
 -1       210 1.42527E+00
 -1       211 1.19020E+00
 -1       212 1.03279E+00
 -1       213 8.55035E-01
 -1       214 6.75638E-01
 -1       215 5.13755E-01
 -1       216 3.77485E-01
 -1       217 2.83937E-01
 -1       218 2.19507E-01
 -1       219 1.66036E-01
 -1       220 1.22864E-01
 -1       221 9.40012E-02
 -1       222 7.50132E-02
 -1       223 5.79557E-02
 -1       224 4.27075E-02
 -1       225 2.92103E-02
 -1       226 1.91178E-02
 -1       227 9.53687E-03
 -1       228 3.42801E+00
 -1       229 2.44229E+00
 -1       230 1.69647E+00
 -1       231 1.23186E+00
 -1       232 1.04012E+00
 -1       233 8.93905E-01
 -1       234 7.79535E-01
 -1       235 6.86017E-01
 -1       236 6.04044E-01
 -1       237 5.27448E-01
 -1       238 5.57502E-01
 -1       239 5.70577E-01
 -1       240 5.72691E-01
 -1       241 5.89431E-01
 -1       242 7.33996E-01
 -1       243 8.32323E-01
 -1       244 9.69381E-01
 -1       245 1.16182E+00
 -1       246 1.17562E+00
 -1       247 1.44908E+00
 -1       248 1.86124E+00
 -1       249 2.55742E+00
 -1       250 2.74378E+00
 -1       251 3.14567E+00
 -1       252 2.72255E+00
 -1       253 1.79277E+00
 -1       254 1.16285E+00
 -1       255 7.34901E-01
 -1       256 8.28047E-01
 -1       257 9.08336E-01
 -1       258 9.72313E-01
 -1       259 9.13364E-01
 -1       260 7.90351E-01
 -1       261 6.64968E-01
 -1       262 5.50939E-01
 -1       263 4.42444E-01
 -1       264 3.41399E-01
 -1       265 2.53611E-01
 -1       266 1.91078E-01
 -1       267 1.43966E-01
 -1       268 1.05534E-01
 -1       269 7.66613E-02
 -1       270 5.37462E-02
 -1       271 4.02631E-02
 -1       272 3.18235E-02
 -1       273 2.31411E-02
 -1       274 1.65075E-02
 -1       275 9.73401E-03
 -1       276 4.65852E-03
 -1       277 5.29094E-03
 -1       278 5.29094E-03
 -1       279 4.28440E-03
 -1       280 3.15432E-03
 -1       281 4.85613E-03
 -1       282 5.55983E-03
 -1       283 5.55983E-03
 -1       284 5.55875E-03
 -1       285 4.77468E-03
 -1       286 3.07213E-03
 -1       287 4.49011E-03
 -1       288 5.83573E-03
 -1       289 5.83573E-03
 -1       290 6.47813E-03
 -1       291 2.94055E+01
 -1       292 2.95478E+01
 -1       293 4.81989E+01
 -1       294 2.43119E+01
 -1       295 1.11088E+01
 -1       296 1.26404E+01
 -1       297 1.20882E+01
 -1       298 1.22634E+01
 -1       299 1.24796E+01
 -1       300 1.18992E+01
 -1       301 1.21293E+01
 -1       302 3.07127E+01
 -1       303 3.07127E+01
 -1       304 2.47497E+01
 -1       305 2.73428E+01
 -1       306 2.73428E+01
 -1       307 3.50457E+01
 -1       308 4.05435E+01
 -1       309 1.62425E+01
 -1       310 1.14830E+01
 -1       311 1.32103E+01
 -1       312 1.22404E+01
 -1       313 1.20351E+01
 -1       314 1.25661E+01
 -1       315 1.14562E+01
 -1       316 2.26643E+01
 -1       317 4.83628E+01
 -1       318 3.06095E+01
 -1       319 2.94055E+01
 -1       320 1.02579E+00
 -1       321 2.42688E+00
 -1       322 7.87234E-01
 -1       323 6.82337E-01
 -1       324 6.13865E-01
 -1       325 5.64577E-01
 -1       326 5.67881E-01
 -1       327 6.16747E-01
 -1       328 6.88989E-01
 -1       329 7.88708E-01
 -1       330 9.26875E-01
 -1       331 1.13790E+00
 -1       332 1.29727E+00
 -1       333 2.17147E+00
 -1       334 1.87147E+00
 -1       335 1.72588E+00
 -1       336 1.25234E+00
 -1       337 8.76639E-01
 -1       338 7.06550E-01
 -1       339 6.00533E-01
 -1       340 4.99077E-01
 -1       341 4.03204E-01
 -1       342 4.72297E-01
 -1       343 5.43412E-01
 -1       344 6.95417E-01
 -1       345 8.83412E-01
 -1       346 1.04568E+00
 -1       347 1.18254E+00
 -1       348 1.34158E+00
 -1       349 1.37536E+00
 -1       350 1.30723E+00
 -1       351 1.35934E+00
 -1       352 1.38467E+00
 -1       353 2.01629E+00
 -1       354 2.70768E+00
 -1       355 3.10528E+00
 -1       356 3.08540E+00
 -1       357 2.71266E+00
 -1       358 2.03215E+00
 -1       359 1.35233E+00
 -1       360 1.34363E+00
 -1       361 1.31863E+00
 -1       362 1.37441E+00
 -1       363 1.34322E+00
 -1       364 1.20586E+00
 -1       365 1.08972E+00
 -1       366 9.44303E-01
 -1       367 7.79292E-01
 -1       368 6.19125E-01
 -1       369 4.76684E-01
 -1       370 3.56993E-01
 -1       371 2.60416E-01
 -1       372 1.84910E-01
 -1       373 1.27445E-01
 -1       374 8.87690E-02
 -1       375 6.36093E-02
 -1       376 4.58342E-02
 -1       377 3.42332E-02
 -1       378 2.53437E-02
 -1       379 1.66408E-02
 -1       380 1.14419E-02
 -1       381 1.14070E+00
 -1       382 8.58921E-01
 -1       383 6.49678E-01
 -1       384 5.84811E-01
 -1       385 5.42211E-01
 -1       386 4.95607E-01
 -1       387 4.45761E-01
 -1       388 4.35969E-01
 -1       389 4.65289E-01
 -1       390 5.38216E-01
 -1       391 6.23907E-01
 -1       392 6.52485E-01
 -1       393 6.52485E-01
 -1       394 5.90232E-01
 -1       395 4.66532E-01
 -1       396 5.40089E-01
 -1       397 1.00674E+00
 -1       398 1.47623E+00
 -1       399 1.66848E+00
 -1       400 1.66848E+00
 -1       401 1.65364E+00
 -1       402 1.86475E+00
 -1       403 1.80696E+00
 -1       404 1.35317E+00
 -1       405 8.60705E-01
 -1       406 5.59914E-01
 -1       407 5.33509E-01
 -1       408 6.54504E-01
 -1       409 6.97626E-01
 -1       410 7.07931E-01
 -1       411 6.52769E-01
 -1       412 5.84432E-01
 -1       413 5.04615E-01
 -1       414 4.15499E-01
 -1       415 3.28670E-01
 -1       416 2.50725E-01
 -1       417 1.85056E-01
 -1       418 1.40927E-01
 -1       419 1.05534E-01
 -1       420 7.66613E-02
 -1       421 5.37462E-02
 -1       422 3.59809E-02
 -1       423 2.34689E-02
 -1       424 1.69356E-02
 -1       425 1.13074E-02
 -1       426 4.56205E-03
 -1       427 6.99662E-03
 -1       428 8.28897E-03
 -1       429 8.28897E-03
 -1       430 5.17312E-03
 -1       431 7.54089E-03
 -1       432 8.93247E-03
 -1       433 8.93247E-03
 -1       434 8.92886E-03
 -1       435 8.92886E-03
 -1       436 7.54138E-03
 -1       437 5.30442E-03
 -1       438 7.28733E-03
 -1       439 8.11523E-03
 -1       440 2.95478E+01
 -1       441 3.16176E+01
 -1       442 3.04030E+01
 -1       443 1.68023E+01
 -1       444 9.62234E+00
 -1       445 9.05883E-01
 -1       446 1.00815E+01
 -1       447 1.07653E+01
 -1       448 1.13923E+01
 -1       449 9.25903E+00
 -1       450 6.97188E+00
 -1       451 1.14926E+01
 -1       452 2.05374E+01
 -1       453 2.44304E+01
 -1       454 3.64454E+01
 -1       455 3.64454E+01
 -1       456 2.32617E+01
 -1       457 2.34651E+01
 -1       458 1.40062E+01
 -1       459 7.85068E+00
 -1       460 7.96196E+00
 -1       461 1.10403E+01
 -1       462 1.00319E+01
 -1       463 1.01392E+01
 -1       464 7.28113E+00
 -1       465 9.83815E+00
 -1       466 1.74869E+01
 -1       467 3.06095E+01
 -1       468 3.16176E+01
 -1       469 6.50957E+00
 -1       470 8.75021E+00
 -1       471 7.70538E+00
 -1       472 2.05572E+01
 -1       473 1.05842E+01
 -1       474 1.03187E+00
 -1       475 4.74488E-01
 -1       476 5.09565E-01
 -1       477 4.07122E-01
 -1       478 4.39052E-01
 -1       479 4.75623E-01
 -1       480 5.06468E-01
 -1       481 5.08703E-01
 -1       482 6.04185E-01
 -1       483 8.58921E-01
 -1       484 7.57686E-01
 -1       485 4.60114E+00
 -1       486 6.57473E-01
 -1       487 5.16758E-01
 -1       488 4.07630E-01
 -1       489 3.49372E-01
 -1       490 2.70142E-01
 -1       491 2.98257E-01
 -1       492 4.00109E-01
 -1       493 5.74903E-01
 -1       494 7.63397E-01
 -1       495 9.55827E-01
 -1       496 1.13375E+00
 -1       497 1.26731E+00
 -1       498 1.51220E+00
 -1       499 1.79044E+00
 -1       500 2.03022E+00
 -1       501 2.57596E+00
 -1       502 2.31573E+00
 -1       503 3.29888E+00
 -1       504 6.28188E+00
 -1       505 3.86424E+00
 -1       506 6.72045E+00
 -1       507 2.35571E+00
 -1       508 2.44358E+00
 -1       509 2.40425E+00
 -1       510 1.96302E+00
 -1       511 1.78285E+00
 -1       512 1.52458E+00
 -1       513 1.28768E+00
 -1       514 1.16651E+00
 -1       515 1.00552E+00
 -1       516 8.34797E-01
 -1       517 6.72689E-01
 -1       518 5.28722E-01
 -1       519 4.06533E-01
 -1       520 3.06239E-01
 -1       521 2.26069E-01
 -1       522 1.63422E-01
 -1       523 1.15480E-01
 -1       524 7.95513E-02
 -1       525 5.32257E-02
 -1       526 3.44259E-02
 -1       527 2.18555E-02
 -1       528 1.57095E-02
 -1       529 5.21465E-01
 -1       530 4.47000E-01
 -1       531 3.61417E-01
 -1       532 2.99925E-01
 -1       533 3.39015E-01
 -1       534 3.68529E-01
 -1       535 4.65575E-01
 -1       536 5.51356E-01
 -1       537 6.23907E-01
 -1       538 6.53129E-01
 -1       539 6.52121E-01
 -1       540 6.77187E-01
 -1       541 7.68324E-01
 -1       542 9.41275E-01
 -1       543 1.25274E+00
 -1       544 1.49245E+00
 -1       545 1.83783E+00
 -1       546 1.78296E+00
 -1       547 1.72233E+00
 -1       548 1.59758E+00
 -1       549 1.37105E+00
 -1       550 1.06470E+00
 -1       551 7.51931E-01
 -1       552 7.19643E-01
 -1       553 6.60241E-01
 -1       554 7.04745E-01
 -1       555 6.82963E-01
 -1       556 6.34970E-01
 -1       557 5.76226E-01
 -1       558 5.11660E-01
 -1       559 4.33163E-01
 -1       560 3.52657E-01
 -1       561 2.77564E-01
 -1       562 2.11801E-01
 -1       563 1.56843E-01
 -1       564 1.12629E-01
 -1       565 7.82354E-02
 -1       566 5.23363E-02
 -1       567 3.51634E-02
 -1       568 2.53579E-02
 -1       569 1.78859E-02
 -1       570 1.19785E-02
 -1       571 1.05335E-02
 -1       572 1.30070E-02
 -1       573 8.21891E-03
 -1       574 9.19512E-03
 -1       575 1.32979E-02
 -1       576 1.33726E-02
 -1       577 1.33726E-02
 -1       578 1.31616E-02
 -1       579 1.06005E-02
 -1       580 1.08550E-02
 -1       581 1.08550E-02
 -1       582 3.04030E+01
 -1       583 1.27741E+01
 -1       584 6.49678E-01
 -1       585 3.16176E+01
 -1       586 2.01634E+01
 -1       587 8.40631E-01
 -1       588 1.96182E+01
 -1       589 3.64454E+01
 -1       590 4.40366E+00
 -1       591 4.38636E-01
 -1       592 6.20048E+00
 -1       593 6.76305E+00
 -1       594 1.52915E+01
 -1       595 7.78216E+00
 -1       596 7.08447E+00
 -1       597 8.61413E+00
 -1       598 2.44304E+01
 -1       599 2.32617E+01
 -1       600 1.36899E+01
 -1       601 4.54926E+00
 -1       602 6.28188E+00
 -1       603 8.44594E+00
 -1       604 5.38822E+00
 -1       605 4.97673E+00
 -1       606 9.02993E+00
 -1       607 1.32807E+01
 -1       608 6.11402E+00
 -1       609 1.29344E+00
 -1       610 6.03905E+00
 -1       611 5.44937E-01
 -1       612 8.28769E+00
 -1       613 7.38435E+00
 -1       614 9.54840E+00
 -1       615 1.55964E+01
 -1       616 1.14419E-02
 -1       617 3.44903E-01
 -1       618 3.18552E-01
 -1       619 3.60058E-01
 -1       620 3.48026E-01
 -1       621 5.04395E-01
 -1       622 2.54061E+00
 -1       623 9.09170E+00
 -1       624 3.39566E+00
 -1       625 3.27608E-01
 -1       626 2.79394E-01
 -1       627 1.98757E-01
 -1       628 1.48283E-01
 -1       629 1.67050E-01
 -1       630 2.89670E-01
 -1       631 4.37607E-01
 -1       632 6.13038E-01
 -1       633 8.19646E-01
 -1       634 1.06136E+00
 -1       635 1.33850E+00
 -1       636 1.63950E+00
 -1       637 1.96278E+00
 -1       638 2.58771E+00
 -1       639 3.35541E+00
 -1       640 5.83726E+00
 -1       641 3.42993E+00
 -1       642 4.67028E+00
 -1       643 3.26861E+00
 -1       644 4.43903E+00
 -1       645 3.40612E+00
 -1       646 2.62132E+00
 -1       647 2.00082E+00
 -1       648 1.67098E+00
 -1       649 1.38454E+00
 -1       650 1.12222E+00
 -1       651 8.99657E-01
 -1       652 7.09865E-01
 -1       653 5.55547E-01
 -1       654 4.29745E-01
 -1       655 3.28205E-01
 -1       656 2.47167E-01
 -1       657 1.83306E-01
 -1       658 1.33676E-01
 -1       659 9.56938E-02
 -1       660 6.71109E-02
 -1       661 4.60747E-02
 -1       662 3.07769E-02
 -1       663 1.79346E-02
 -1       664 2.41804E-01
 -1       665 2.88072E-01
 -1       666 2.09179E-01
 -1       667 3.06738E-01
 -1       668 4.15355E-01
 -1       669 5.15743E-01
 -1       670 5.96553E-01
 -1       671 7.13957E-01
 -1       672 8.28612E-01
 -1       673 9.02957E-01
 -1       674 1.07183E+00
 -1       675 1.31189E+00
 -1       676 1.39686E+00
 -1       677 1.53039E+00
 -1       678 2.85724E+00
 -1       679 4.74196E+00
 -1       680 3.24885E+00
 -1       681 2.09313E+00
 -1       682 1.52708E+00
 -1       683 1.67572E+00
 -1       684 1.26470E+00
 -1       685 1.19303E+00
 -1       686 9.29485E-01
 -1       687 8.93830E-01
 -1       688 8.07728E-01
 -1       689 6.98013E-01
 -1       690 6.23704E-01
 -1       691 5.45104E-01
 -1       692 4.62235E-01
 -1       693 3.79705E-01
 -1       694 3.03437E-01
 -1       695 2.36499E-01
 -1       696 1.80002E-01
 -1       697 1.33821E-01
 -1       698 9.71211E-02
 -1       699 6.87158E-02
 -1       700 4.72931E-02
 -1       701 3.16168E-02
 -1       702 2.02705E-02
 -1       703 1.19785E-02
 -1       704 1.92955E-02
 -1       705 1.08550E-02
 -1       706 1.79191E-02
 -1       707 1.94531E-02
 -1       708 1.92955E-02
 -1       709 1.66912E+01
 -1       710 1.94531E-02
 -1       711 1.83844E-02
 -1       712 1.38026E-02
 -1       713 5.44937E-01
 -1       714 1.43346E+01
 -1       715 9.56444E+00
 -1       716 7.89815E+00
 -1       717 1.50546E+01
 -1       718 3.76188E-01
 -1       719 1.74426E-01
 -1       720 3.67617E-01
 -1       721 4.57186E-01
 -1       722 1.75935E+01
 -1       723 1.49467E+01
 -1       724 3.60058E-01
 -1       725 1.14826E+01
 -1       726 3.56245E-01
 -1       727 3.43546E+00
 -1       728 1.16212E+01
 -1       729 7.38435E+00
 -1       730 4.19399E+00
 -1       731 1.23221E+01
 -1       732 3.94106E+00
 -1       733 5.25094E+00
 -1       734 5.87144E+00
 -1       735 3.98698E-01
 -1       736 3.17468E-01
 -1       737 1.36381E+01
 -1       738 7.75842E+00
 -1       739 6.13731E+00
 -1       740 4.74196E+00
 -1       741 1.38321E-02
 -1       742 6.13731E+00
 -1       743 1.14527E-02
 -1       744 1.29684E-02
 -1       745 5.04782E+00
 -1       746 3.85798E+00
 -1       747 3.43159E-01
 -1       748 1.08597E+01
 -1       749 7.38435E+00
 -1       750 2.50023E-01
 -1       751 2.35205E+00
 -1       752 1.31151E-01
 -1       753 1.22774E-01
 -1       754 1.80084E-01
 -1       755 2.66421E-01
 -1       756 3.82001E-01
 -1       757 5.43031E-01
 -1       758 7.36526E-01
 -1       759 9.55840E-01
 -1       760 1.26065E+00
 -1       761 1.68208E+00
 -1       762 2.33409E+00
 -1       763 3.29916E+00
 -1       764 4.69547E+00
 -1       765 4.43903E+00
 -1       766 5.28539E+00
 -1       767 3.63895E+00
 -1       768 2.75964E+00
 -1       769 2.15857E+00
 -1       770 1.65966E+00
 -1       771 1.27499E+00
 -1       772 9.94804E-01
 -1       773 7.75527E-01
 -1       774 5.94824E-01
 -1       775 4.49290E-01
 -1       776 3.35284E-01
 -1       777 2.48694E-01
 -1       778 1.81464E-01
 -1       779 1.29965E-01
 -1       780 9.10376E-02
 -1       781 6.34286E-02
 -1       782 4.55780E-02
 -1       783 2.00955E-02
 -1       784 3.55375E-01
 -1       785 2.44414E-01
 -1       786 6.11893E-01
 -1       787 7.43144E-01
 -1       788 9.12361E-01
 -1       789 1.14481E+00
 -1       790 1.37544E+00
 -1       791 1.62342E+00
 -1       792 2.34360E+00
 -1       793 2.12107E+00
 -1       794 2.75038E+00
 -1       795 2.09313E+00
 -1       796 1.86007E+00
 -1       797 1.67572E+00
 -1       798 1.87168E+00
 -1       799 1.48202E+00
 -1       800 1.25641E+00
 -1       801 1.05651E+00
 -1       802 8.50554E-01
 -1       803 7.34256E-01
 -1       804 6.17001E-01
 -1       805 5.09180E-01
 -1       806 4.09183E-01
 -1       807 3.21945E-01
 -1       808 2.50577E-01
 -1       809 1.91873E-01
 -1       810 1.44472E-01
 -1       811 1.06874E-01
 -1       812 7.75995E-02
 -1       813 5.52516E-02
 -1       814 3.85171E-02
 -1       815 2.60519E-02
 -1       816 1.59885E-02
 -1       817 6.90849E+00
 -1       818 2.65401E-01
 -1       819 2.71998E-02
 -1       820 2.65308E-02
 -1       821 3.29606E-02
 -1       822 2.71998E-02
 -1       823 8.59705E+00
 -1       824 2.33835E+00
 -1       825 4.79429E-01
 -1       826 1.07086E+01
 -1       827 1.93558E-01
 -1       828 1.32134E-01
 -1       829 9.58530E+00
 -1       830 1.51169E-01
 -1       831 1.07086E+01
 -1       832 2.35205E+00
 -1       833 8.43463E+00
 -1       834 3.41811E+00
 -1       835 2.55435E-01
 -1       836 9.40122E+00
 -1       837 9.77255E+00
 -1       838 2.45002E-01
 -1       839 7.40505E+00
 -1       840 3.48391E+00
 -1       841 5.90125E+00
 -1       842 2.19533E-02
 -1       843 2.73427E-01
 -1       844 2.73427E-01
 -1       845 3.24885E+00
 -1       846 2.72311E-01
 -1       847 4.35303E+00
 -1       848 1.09535E-01
 -1       849 1.63851E-01
 -1       850 2.72311E-01
 -1       851 2.64323E-02
 -1       852 2.64323E-02
 -1       853 4.33006E+00
 -1       854 5.64854E+00
 -1       855 2.29591E-02
 -1       856 2.03832E-01
 -1       857 2.72933E-01
 -1       858 5.34290E+00
 -1       859 5.79128E+00
 -1       860 6.74731E+00
 -1       861 1.85302E-01
 -1       862 2.51960E-01
 -1       863 3.55666E-01
 -1       864 5.10170E-01
 -1       865 7.04348E-01
 -1       866 9.49276E-01
 -1       867 1.26065E+00
 -1       868 1.65498E+00
 -1       869 2.27007E+00
 -1       870 3.20854E+00
 -1       871 4.69547E+00
 -1       872 5.90125E+00
 -1       873 3.21633E+00
 -1       874 4.65006E+00
 -1       875 2.75964E+00
 -1       876 2.15857E+00
 -1       877 1.65966E+00
 -1       878 1.27499E+00
 -1       879 9.80174E-01
 -1       880 7.52548E-01
 -1       881 5.75337E-01
 -1       882 4.36704E-01
 -1       883 3.28209E-01
 -1       884 2.43628E-01
 -1       885 1.78170E-01
 -1       886 1.28035E-01
 -1       887 9.01877E-02
 -1       888 6.34286E-02
 -1       889 1.26103E+00
 -1       890 1.00313E+00
 -1       891 7.63126E-01
 -1       892 1.58086E+00
 -1       893 2.61161E+00
 -1       894 2.76700E+00
 -1       895 2.54565E+00
 -1       896 1.72557E+00
 -1       897 1.38091E+00
 -1       898 1.15273E+00
 -1       899 9.16220E-01
 -1       900 7.13384E-01
 -1       901 5.62753E-01
 -1       902 4.53061E-01
 -1       903 3.70595E-01
 -1       904 2.95854E-01
 -1       905 2.30366E-01
 -1       906 1.75185E-01
 -1       907 1.30103E-01
 -1       908 9.42159E-02
 -1       909 6.65241E-02
 -1       910 4.63914E-02
 -1       911 3.11943E-02
 -1       912 3.33297E-01
 -1       913 5.89978E+00
 -1       914 1.92847E-02
 -1       915 2.89048E+00
 -1       916 4.55780E-02
 -1       917 7.40505E+00
 -1       918 1.07599E-01
 -1       919 7.29059E+00
 -1       920 2.08468E+00
 -1       921 2.63726E-01
 -1       922 7.36217E+00
 -1       923 1.33547E-01
 -1       924 1.41487E-01
 -1       925 7.36217E+00
 -1       926 6.55171E+00
 -1       927 5.35310E+00
 -1       928 4.55372E+00
 -1       929 5.55473E+00
 -1       930 3.74373E+00
 -1       931 3.93518E-02
 -1       932 5.79169E-01
 -1       933 5.35310E+00
 -1       934 2.45858E-01
 -1       935 5.10515E-02
 -1       936 4.50648E-01
 -1       937 6.50212E-02
 -1       938 3.93518E-02
 -1       939 1.43819E-01
 -1       940 1.33974E-01
 -1       941 1.31551E-01
 -1       942 1.53019E-01
 -1       943 1.86444E-01
 -1       944 1.79449E-01
 -1       945 1.68025E-01
 -1       946 5.91838E-02
 -1       947 4.35574E+00
 -1       948 3.36919E+00
 -1       949 2.98658E-01
 -1       950 4.25496E-01
 -1       951 5.90200E-01
 -1       952 8.10825E-01
 -1       953 1.11750E+00
 -1       954 1.56627E+00
 -1       955 2.27007E+00
 -1       956 3.20854E+00
 -1       957 1.08593E-01
 -1       958 5.35310E+00
 -1       959 4.58573E+00
 -1       960 2.44579E+00
 -1       961 1.68441E+00
 -1       962 1.19811E+00
 -1       963 8.79277E-01
 -1       964 6.59093E-01
 -1       965 4.99658E-01
 -1       966 3.80104E-01
 -1       967 2.88377E-01
 -1       968 2.17191E-01
 -1       969 1.61798E-01
 -1       970 1.18864E-01
 -1       971 8.60619E-02
 -1       972 6.38774E-02
 -1       973 2.50528E+00
 -1       974 1.95988E+00
 -1       975 1.00022E+00
 -1       976 3.93751E+00
 -1       977 1.86444E-01
 -1       978 3.76455E+00
 -1       979 2.33518E+00
 -1       980 1.18388E+00
 -1       981 8.82859E-01
 -1       982 6.85941E-01
 -1       983 5.62753E-01
 -1       984 4.53061E-01
 -1       985 3.58453E-01
 -1       986 2.79013E-01
 -1       987 2.13637E-01
 -1       988 1.60782E-01
 -1       989 1.18785E-01
 -1       990 8.59341E-02
 -1       991 6.86213E-02
 -1       992 1.71663E-01
 -1       993 1.18485E-01
 -1       994 5.52064E+00
 -1       995 1.80998E-01
 -1       996 5.45528E-02
 -1       997 1.71663E-01
 -1       998 6.50212E-02
 -1       999 1.69422E-01
 -1      1000 1.37165E+00
 -1      1001 2.15666E-01
 -1      1002 1.33547E-01
 -1      1003 3.93751E+00
 -1      1004 3.21888E+00
 -1      1005 3.95219E+00
 -1      1006 4.84186E+00
 -1      1007 3.38876E+00
 -1      1008 7.55093E-01
 -1      1009 6.86213E-02
 -1      1010 3.33297E-01
 -1      1011 3.99534E-02
 -1      1012 4.41477E+00
 -1      1013 1.05922E-01
 -1      1014 4.50648E-01
 -1      1015 3.45184E+00
 -1      1016 1.37271E-01
 -1      1017 1.05922E-01
 -1      1018 2.19557E+00
 -1      1019 3.80405E+00
 -1      1020 3.66359E-01
 -1      1021 4.72851E-01
 -1      1022 6.15471E-01
 -1      1023 8.06486E-01
 -1      1024 1.12513E+00
 -1      1025 1.66921E+00
 -1      1026 2.39069E+00
 -1      1027 9.52479E-02
 -1      1028 1.73406E+00
 -1      1029 1.13982E+00
 -1      1030 8.26901E-01
 -1      1031 6.16221E-01
 -1      1032 4.66445E-01
 -1      1033 3.56020E-01
 -1      1034 2.72733E-01
 -1      1035 2.08246E-01
 -1      1036 1.57824E-01
 -1      1037 1.18290E-01
 -1      1038 8.79031E-02
 -1      1039 2.50528E+00
 -1      1040 2.12247E+00
 -1      1041 2.48365E-01
 -1      1042 1.36175E+00
 -1      1043 1.00996E+00
 -1      1044 7.66957E-01
 -1      1045 5.84894E-01
 -1      1046 4.46894E-01
 -1      1047 3.40808E-01
 -1      1048 2.58497E-01
 -1      1049 1.94373E-01
 -1      1050 1.44414E-01
 -1      1051 1.04857E-01
 -1      1052 7.31137E-02
 -1      1053 1.04562E-01
 -1      1054 3.45184E+00
 -1      1055 2.77405E-01
 -1      1056 6.13024E-02
 -1      1057 5.10515E-02
 -1      1058 2.14532E-01
 -1      1059 1.88868E-01
 -1      1060 6.00640E-01
 -1      1061 1.18485E-01
 -1      1062 2.77587E+00
 -1      1063 1.75041E-01
 -1      1064 1.00022E+00
 -1      1065 1.57181E+00
 -1      1066 6.67965E-02
 -1      1067 1.42287E+00
 -1      1068 4.54852E-02
 -1      1069 3.12903E-01
 -1      1070 4.21012E-01
 -1      1071 8.71482E-02
 -1      1072 2.77587E+00
 -1      1073 2.17185E+00
 -1      1074 1.77432E+00
 -1      1075 4.43941E-01
 -1      1076 1.27633E-01
 -1      1077 1.56368E-01
 -1      1078 1.87218E+00
 -1      1079 5.55317E-01
 -1      1080 7.08193E-01
 -1      1081 9.66228E-01
 -1      1082 1.49517E+00
 -1      1083 2.30268E+00
 -1      1084 3.38187E-01
 -1      1085 1.18278E+00
 -1      1086 8.27207E-01
 -1      1087 5.91033E-01
 -1      1088 4.30046E-01
 -1      1089 3.25743E-01
 -1      1090 2.51045E-01
 -1      1091 1.92219E-01
 -1      1092 1.45665E-01
 -1      1093 1.08823E-01
 -1      1094 2.54699E-01
 -1      1095 1.44644E+00
 -1      1096 1.01811E+00
 -1      1097 7.42952E-01
 -1      1098 5.51410E-01
 -1      1099 4.13644E-01
 -1      1100 3.11575E-01
 -1      1101 2.34387E-01
 -1      1102 1.75329E-01
 -1      1103 1.30021E-01
 -1      1104 2.30268E+00
 -1      1105 2.41623E-01
 -1      1106 7.55093E-01
 -1      1107 1.75041E-01
 -1      1108 1.74538E-01
 -1      1109 1.49517E+00
 -1      1110 5.77960E-02
 -1      1111 5.72127E-02
 -1      1112 3.60082E-01
 -1      1113 6.43296E-01
 -1      1114 8.53804E-02
 -1      1115 2.01693E+00
 -1      1116 4.98349E-02
 -1      1117 2.78517E-01
 -1      1118 9.66228E-01
 -1      1119 6.86101E-01
 -1      1120 5.35582E-01
 -1      1121 2.41623E-01
 -1      1122 1.31088E+01
 -1      1123 8.35770E+00
 -1      1124 2.69805E+00
 -1      1125 1.53318E+00
 -1      1126 1.15475E+00
 -1      1127 9.57033E-01
 -1      1128 8.32689E-01
 -1      1129 7.52884E-01
 -1      1130 7.22882E-01
 -1      1131 7.56253E-01
 -1      1132 8.35485E-01
 -1      1133 9.60904E-01
 -1      1134 1.16763E+00
 -1      1135 1.54867E+00
 -1      1136 2.62588E+00
 -1      1137 6.01160E+00
 -1      1138 1.12888E+01
 -1      1139 1.31088E+01
 -1      1140 8.72737E+00
 -1      1141 3.85139E+00
 -1      1142 2.74172E+00
 -1      1143 1.78387E+00
 -1      1144 1.28177E+00
 -1      1145 1.01327E+00
 -1      1146 8.24131E-01
 -1      1147 6.81689E-01
 -1      1148 6.21923E-01
 -1      1149 6.66104E-01
 -1      1150 7.49680E-01
 -1      1151 8.42196E-01
 -1      1152 1.01552E+00
 -1      1153 1.29310E+00
 -1      1154 1.58130E+00
 -1      1155 1.76399E+00
 -1      1156 1.81323E+00
 -1      1157 1.78973E+00
 -1      1158 1.91160E+00
 -1      1159 2.67099E+00
 -1      1160 4.10091E+00
 -1      1161 4.91682E+00
 -1      1162 4.91557E+00
 -1      1163 4.91432E+00
 -1      1164 4.09338E+00
 -1      1165 2.66617E+00
 -1      1166 1.91417E+00
 -1      1167 1.78192E+00
 -1      1168 1.79539E+00
 -1      1169 1.74390E+00
 -1      1170 1.55884E+00
 -1      1171 1.27855E+00
 -1      1172 1.01414E+00
 -1      1173 7.90411E-01
 -1      1174 6.29879E-01
 -1      1175 5.20840E-01
 -1      1176 4.16554E-01
 -1      1177 3.24081E-01
 -1      1178 2.46020E-01
 -1      1179 1.82393E-01
 -1      1180 1.34343E-01
 -1      1181 1.04305E-01
 -1      1182 8.45072E-02
 -1      1183 6.64845E-02
 -1      1184 5.03316E-02
 -1      1185 3.57558E-02
 -1      1186 2.38733E-02
 -1      1187 1.42393E-02
 -1      1188 6.21562E-03
 -1      1189 1.40046E+01
 -1      1190 8.71633E+00
 -1      1191 2.93515E+00
 -1      1192 2.06938E+00
 -1      1193 1.46417E+00
 -1      1194 1.13599E+00
 -1      1195 9.67012E-01
 -1      1196 8.36720E-01
 -1      1197 7.32776E-01
 -1      1198 6.45030E-01
 -1      1199 5.80773E-01
 -1      1200 5.64040E-01
 -1      1201 5.71634E-01
 -1      1202 5.76299E-01
 -1      1203 6.56952E-01
 -1      1204 7.83159E-01
 -1      1205 9.00852E-01
 -1      1206 1.06560E+00
 -1      1207 1.16872E+00
 -1      1208 1.31235E+00
 -1      1209 1.63004E+00
 -1      1210 2.18421E+00
 -1      1211 2.65060E+00
 -1      1212 2.94472E+00
 -1      1213 3.14567E+00
 -1      1214 2.93411E+00
 -1      1215 2.25766E+00
 -1      1216 1.47781E+00
 -1      1217 9.95446E-01
 -1      1218 8.68191E-01
 -1      1219 9.40324E-01
 -1      1220 9.72313E-01
 -1      1221 9.42838E-01
 -1      1222 8.51858E-01
 -1      1223 7.27660E-01
 -1      1224 6.03045E-01
 -1      1225 4.81259E-01
 -1      1226 3.68209E-01
 -1      1227 2.80504E-01
 -1      1228 2.18533E-01
 -1      1229 1.67522E-01
 -1      1230 1.24537E-01
 -1      1231 8.95764E-02
 -1      1232 6.19467E-02
 -1      1233 4.50556E-02
 -1      1234 3.60433E-02
 -1      1235 2.74823E-02
 -1      1236 1.98243E-02
 -1      1237 1.31208E-02
 -1      1238 6.14370E-03
 -1      1239 3.31698E-03
 -1      1240 3.43340E-03
 -1      1241 2.78623E-03
 -1      1242 2.68116E-03
 -1      1243 2.04621E-03
 -1      1244 1.49234E-03
 -1      1245 1.84477E-03
 -1      1246 2.33857E-03
 -1      1247 2.45596E-03
 -1      1248 2.32167E-03
 -1      1249 1.78739E-03
 -1      1250 1.53279E-03
 -1      1251 2.21281E-03
 -1      1252 2.74743E-03
 -1      1253 2.66386E-03
 -1      1254 3.23624E-03
 -1      1255 3.39376E-03
 -1      1256 2.51098E+01
 -1      1257 3.65119E+01
 -1      1258 4.81989E+01
 -1      1259 3.49775E+01
 -1      1260 1.71982E+01
 -1      1261 1.26404E+01
 -1      1262 1.24519E+01
 -1      1263 1.23715E+01
 -1      1264 1.24796E+01
 -1      1265 1.23044E+01
 -1      1266 2.02805E+01
 -1      1267 2.95722E+01
 -1      1268 2.98835E+01
 -1      1269 2.69898E+01
 -1      1270 2.49253E+01
 -1      1271 2.47770E+01
 -1      1272 3.25861E+01
 -1      1273 4.05435E+01
 -1      1274 2.78566E+01
 -1      1275 1.41900E+01
 -1      1276 1.32103E+01
 -1      1277 1.27254E+01
 -1      1278 1.24033E+01
 -1      1279 1.25661E+01
 -1      1280 1.69686E+01
 -1      1281 3.48670E+01
 -1      1282 4.83628E+01
 -1      1283 3.68788E+01
 -1      1284 2.53948E+01
 -1      1285 1.31088E+01
 -1      1286 4.80174E+00
 -1      1287 9.55287E+00
 -1      1288 2.02504E+00
 -1      1289 2.93356E+00
 -1      1290 4.12873E+00
 -1      1291 1.38781E+00
 -1      1292 1.64416E+00
 -1      1293 1.87967E+00
 -1      1294 1.09075E+00
 -1      1295 1.21283E+00
 -1      1296 1.32381E+00
 -1      1297 9.20550E-01
 -1      1298 9.96188E-01
 -1      1299 1.05427E+00
 -1      1300 8.13972E-01
 -1      1301 8.62678E-01
 -1      1302 9.01833E-01
 -1      1303 7.45227E-01
 -1      1304 7.76326E-01
 -1      1305 8.06315E-01
 -1      1306 7.23769E-01
 -1      1307 7.22672E-01
 -1      1308 7.46114E-01
 -1      1309 7.80318E-01
 -1      1310 7.48045E-01
 -1      1311 7.47834E-01
 -1      1312 8.64588E-01
 -1      1313 8.17629E-01
 -1      1314 8.09421E-01
 -1      1315 1.00337E+00
 -1      1316 9.24906E-01
 -1      1317 9.07050E-01
 -1      1318 1.22979E+00
 -1      1319 1.10152E+00
 -1      1320 1.06552E+00
 -1      1321 1.66030E+00
 -1      1322 1.40753E+00
 -1      1323 1.34142E+00
 -1      1324 2.84848E+00
 -1      1325 2.02403E+00
 -1      1326 1.88289E+00
 -1      1327 6.22894E+00
 -1      1328 3.66767E+00
 -1      1329 3.06581E+00
 -1      1330 1.40046E+01
 -1      1331 1.12888E+01
 -1      1332 8.94482E+00
 -1      1333 1.40046E+01
 -1      1334 8.72737E+00
 -1      1335 4.34591E+00
 -1      1336 3.85139E+00
 -1      1337 3.35687E+00
 -1      1338 3.85139E+00
 -1      1339 2.74172E+00
 -1      1340 2.12657E+00
 -1      1341 2.74172E+00
 -1      1342 1.78668E+00
 -1      1343 1.44398E+00
 -1      1344 1.78668E+00
 -1      1345 1.28177E+00
 -1      1346 1.12237E+00
 -1      1347 1.28458E+00
 -1      1348 1.01327E+00
 -1      1349 9.04176E-01
 -1      1350 1.01327E+00
 -1      1351 8.24131E-01
 -1      1352 7.44086E-01
 -1      1353 8.24131E-01
 -1      1354 6.81689E-01
 -1      1355 6.19293E-01
 -1      1356 6.81689E-01
 -1      1357 5.84982E-01
 -1      1358 5.87612E-01
 -1      1359 5.84982E-01
 -1      1360 6.24554E-01
 -1      1361 6.66104E-01
 -1      1362 5.87612E-01
 -1      1363 7.07654E-01
 -1      1364 7.49680E-01
 -1      1365 6.66104E-01
 -1      1366 7.99328E-01
 -1      1367 8.49817E-01
 -1      1368 7.57301E-01
 -1      1369 9.47884E-01
 -1      1370 1.07072E+00
 -1      1371 9.05016E-01
 -1      1372 1.16485E+00
 -1      1373 1.31960E+00
 -1      1374 1.09722E+00
 -1      1375 1.44785E+00
 -1      1376 1.58130E+00
 -1      1377 1.31960E+00
 -1      1378 1.71475E+00
 -1      1379 1.76399E+00
 -1      1380 1.58130E+00
 -1      1381 1.81323E+00
 -1      1382 1.81323E+00
 -1      1383 1.76399E+00
 -1      1384 1.78973E+00
 -1      1385 1.76623E+00
 -1      1386 1.78973E+00
 -1      1387 1.72802E+00
 -1      1388 1.87339E+00
 -1      1389 1.72802E+00
 -1      1390 2.05697E+00
 -1      1391 2.67099E+00
 -1      1392 1.87339E+00
 -1      1393 3.28501E+00
 -1      1394 4.10091E+00
 -1      1395 2.67099E+00
 -1      1396 4.91682E+00
 -1      1397 4.91682E+00
 -1      1398 4.10091E+00
 -1      1399 4.90474E+00
 -1      1400 4.90349E+00
 -1      1401 4.90474E+00
 -1      1402 4.91432E+00
 -1      1403 4.91432E+00
 -1      1404 4.90349E+00
 -1      1405 4.09338E+00
 -1      1406 3.27245E+00
 -1      1407 4.09338E+00
 -1      1408 2.66617E+00
 -1      1409 2.05989E+00
 -1      1410 2.66617E+00
 -1      1411 1.87798E+00
 -1      1412 1.73226E+00
 -1      1413 1.87798E+00
 -1      1414 1.76845E+00
 -1      1415 1.78192E+00
 -1      1416 1.73226E+00
 -1      1417 1.79539E+00
 -1      1418 1.79539E+00
 -1      1419 1.78192E+00
 -1      1420 1.74390E+00
 -1      1421 1.69241E+00
 -1      1422 1.74390E+00
 -1      1423 1.55884E+00
 -1      1424 1.42527E+00
 -1      1425 1.55884E+00
 -1      1426 1.30774E+00
 -1      1427 1.16101E+00
 -1      1428 1.30774E+00
 -1      1429 1.08230E+00
 -1      1430 9.64625E-01
 -1      1431 1.11149E+00
 -1      1432 8.75750E-01
 -1      1433 7.69696E-01
 -1      1434 9.43910E-01
 -1      1435 6.79997E-01
 -1      1436 6.25520E-01
 -1      1437 7.65336E-01
 -1      1438 5.44578E-01
 -1      1439 4.90016E-01
 -1      1440 5.94697E-01
 -1      1441 4.21881E-01
 -1      1442 3.72158E-01
 -1      1443 4.45620E-01
 -1      1444 3.25383E-01
 -1      1445 2.82634E-01
 -1      1446 3.30711E-01
 -1      1447 2.50419E-01
 -1      1448 2.15107E-01
 -1      1449 2.51722E-01
 -1      1450 1.88372E-01
 -1      1451 1.60057E-01
 -1      1452 1.92771E-01
 -1      1453 1.38471E-01
 -1      1454 1.18736E-01
 -1      1455 1.44450E-01
 -1      1456 1.04305E-01
 -1      1457 9.40012E-02
 -1      1458 1.08433E-01
 -1      1459 8.45072E-02
 -1      1460 7.50132E-02
 -1      1461 8.45072E-02
 -1      1462 6.64845E-02
 -1      1463 5.79557E-02
 -1      1464 6.64845E-02
 -1      1465 5.03316E-02
 -1      1466 4.27075E-02
 -1      1467 5.03316E-02
 -1      1468 3.59589E-02
 -1      1469 2.90072E-02
 -1      1470 3.59589E-02
 -1      1471 2.39609E-02
 -1      1472 1.90302E-02
 -1      1473 2.41641E-02
 -1      1474 1.42398E-02
 -1      1475 9.53639E-03
 -1      1476 1.43274E-02
 -1      1477 6.71405E-03
 -1      1478 6.71453E-03
 -1      1479 3.42801E+00
 -1      1480 8.71633E+00
 -1      1481 8.71633E+00
 -1      1482 2.44229E+00
 -1      1483 2.93515E+00
 -1      1484 2.93515E+00
 -1      1485 1.69647E+00
 -1      1486 2.06938E+00
 -1      1487 2.06938E+00
 -1      1488 1.23186E+00
 -1      1489 1.46417E+00
 -1      1490 1.46417E+00
 -1      1491 1.04012E+00
 -1      1492 1.13599E+00
 -1      1493 1.13599E+00
 -1      1494 8.93905E-01
 -1      1495 9.67012E-01
 -1      1496 9.67012E-01
 -1      1497 7.79535E-01
 -1      1498 8.36720E-01
 -1      1499 8.36720E-01
 -1      1500 6.86017E-01
 -1      1501 7.32776E-01
 -1      1502 7.32776E-01
 -1      1503 6.04044E-01
 -1      1504 6.45030E-01
 -1      1505 6.45030E-01
 -1      1506 5.42475E-01
 -1      1507 5.65746E-01
 -1      1508 5.65746E-01
 -1      1509 5.64040E-01
 -1      1510 5.57502E-01
 -1      1511 5.42475E-01
 -1      1512 5.71634E-01
 -1      1513 5.70577E-01
 -1      1514 5.64040E-01
 -1      1515 5.76299E-01
 -1      1516 5.72691E-01
 -1      1517 5.71634E-01
 -1      1518 6.61713E-01
 -1      1519 5.84669E-01
 -1      1520 5.81061E-01
 -1      1521 7.83159E-01
 -1      1522 7.33996E-01
 -1      1523 6.61713E-01
 -1      1524 9.00852E-01
 -1      1525 8.32323E-01
 -1      1526 7.83159E-01
 -1      1527 1.06560E+00
 -1      1528 9.69381E-01
 -1      1529 9.00852E-01
 -1      1530 1.16872E+00
 -1      1531 1.16182E+00
 -1      1532 1.06560E+00
 -1      1533 1.31235E+00
 -1      1534 1.17562E+00
 -1      1535 1.16872E+00
 -1      1536 1.63004E+00
 -1      1537 1.44908E+00
 -1      1538 1.31235E+00
 -1      1539 2.20933E+00
 -1      1540 1.83612E+00
 -1      1541 1.65516E+00
 -1      1542 2.65060E+00
 -1      1543 2.55742E+00
 -1      1544 2.20933E+00
 -1      1545 2.94472E+00
 -1      1546 2.74378E+00
 -1      1547 2.65060E+00
 -1      1548 3.14567E+00
 -1      1549 3.14567E+00
 -1      1550 2.94472E+00
 -1      1551 2.72255E+00
 -1      1552 2.93411E+00
 -1      1553 2.93411E+00
 -1      1554 1.79277E+00
 -1      1555 2.25766E+00
 -1      1556 2.25766E+00
 -1      1557 1.16285E+00
 -1      1558 1.47781E+00
 -1      1559 1.47781E+00
 -1      1560 7.81474E-01
 -1      1561 9.48873E-01
 -1      1562 9.48873E-01
 -1      1563 8.68191E-01
 -1      1564 8.28047E-01
 -1      1565 7.81474E-01
 -1      1566 9.40324E-01
 -1      1567 9.08336E-01
 -1      1568 8.68191E-01
 -1      1569 9.72313E-01
 -1      1570 9.72313E-01
 -1      1571 9.40324E-01
 -1      1572 9.13364E-01
 -1      1573 9.42838E-01
 -1      1574 9.42838E-01
 -1      1575 7.90351E-01
 -1      1576 8.51858E-01
 -1      1577 8.51858E-01
 -1      1578 6.64968E-01
 -1      1579 7.27660E-01
 -1      1580 7.27660E-01
 -1      1581 5.46030E-01
 -1      1582 6.07953E-01
 -1      1583 6.07953E-01
 -1      1584 4.31920E-01
 -1      1585 4.91782E-01
 -1      1586 4.96691E-01
 -1      1587 3.28210E-01
 -1      1588 3.81398E-01
 -1      1589 3.91921E-01
 -1      1590 2.49799E-01
 -1      1591 2.84316E-01
 -1      1592 2.97505E-01
 -1      1593 1.91078E-01
 -1      1594 2.18533E-01
 -1      1595 2.22345E-01
 -1      1596 1.43966E-01
 -1      1597 1.67522E-01
 -1      1598 1.67522E-01
 -1      1599 1.05321E-01
 -1      1600 1.24750E-01
 -1      1601 1.24750E-01
 -1      1602 7.53533E-02
 -1      1603 9.08843E-02
 -1      1604 9.10978E-02
 -1      1605 5.17971E-02
 -1      1606 6.38958E-02
 -1      1607 6.52037E-02
 -1      1608 4.02631E-02
 -1      1609 4.50556E-02
 -1      1610 4.70046E-02
 -1      1611 3.18235E-02
 -1      1612 3.60433E-02
 -1      1613 3.60433E-02
 -1      1614 2.31411E-02
 -1      1615 2.74823E-02
 -1      1616 2.74823E-02
 -1      1617 1.65075E-02
 -1      1618 1.98243E-02
 -1      1619 1.98243E-02
 -1      1620 9.73401E-03
 -1      1621 1.31208E-02
 -1      1622 1.31208E-02
 -1      1623 6.90729E-03
 -1      1624 3.72238E-03
 -1      1625 4.36955E-03
 -1      1626 4.03858E-03
 -1      1627 4.03858E-03
 -1      1628 4.97473E-03
 -1      1629 3.93352E-03
 -1      1630 4.03858E-03
 -1      1631 5.29094E-03
 -1      1632 2.90036E-03
 -1      1633 3.43025E-03
 -1      1634 4.78767E-03
 -1      1635 2.31134E-03
 -1      1636 2.33532E-03
 -1      1637 3.71936E-03
 -1      1638 3.53866E-03
 -1      1639 3.16224E-03
 -1      1640 4.00523E-03
 -1      1641 4.00789E-03
 -1      1642 3.89051E-03
 -1      1643 5.20798E-03
 -1      1644 4.00789E-03
 -1      1645 4.00789E-03
 -1      1646 5.55983E-03
 -1      1647 3.87307E-03
 -1      1648 4.00735E-03
 -1      1649 5.55929E-03
 -1      1650 3.08104E-03
 -1      1651 3.48104E-03
 -1      1652 5.16672E-03
 -1      1653 2.37516E-03
 -1      1654 2.22976E-03
 -1      1655 3.92341E-03
 -1      1656 3.61877E-03
 -1      1657 3.08415E-03
 -1      1658 3.78112E-03
 -1      1659 4.29158E-03
 -1      1660 4.29158E-03
 -1      1661 5.16292E-03
 -1      1662 4.20801E-03
 -1      1663 4.29158E-03
 -1      1664 5.83573E-03
 -1      1665 5.18516E-03
 -1      1666 4.52921E-03
 -1      1667 6.15693E-03
 -1      1668 8.00750E-03
 -1      1669 2.71151E+01
 -1      1670 2.74001E+01
 -1      1671 3.88733E+01
 -1      1672 2.71863E+01
 -1      1673 4.81989E+01
 -1      1674 4.81989E+01
 -1      1675 2.30340E+01
 -1      1676 3.62554E+01
 -1      1677 1.18746E+01
 -1      1678 1.64324E+01
 -1      1679 1.26404E+01
 -1      1680 1.26404E+01
 -1      1681 1.21758E+01
 -1      1682 1.23643E+01
 -1      1683 1.23715E+01
 -1      1684 1.22634E+01
 -1      1685 1.24796E+01
 -1      1686 1.24796E+01
 -1      1687 1.20143E+01
 -1      1688 1.21894E+01
 -1      1689 2.02805E+01
 -1      1690 1.21293E+01
 -1      1691 3.07127E+01
 -1      1692 2.95722E+01
 -1      1693 2.98835E+01
 -1      1694 3.07127E+01
 -1      1695 2.48375E+01
 -1      1696 2.69020E+01
 -1      1697 2.61341E+01
 -1      1698 2.61341E+01
 -1      1699 2.59857E+01
 -1      1700 2.61341E+01
 -1      1701 3.77946E+01
 -1      1702 2.98372E+01
 -1      1703 4.05435E+01
 -1      1704 4.05435E+01
 -1      1705 1.57061E+01
 -1      1706 2.83930E+01
 -1      1707 1.23467E+01
 -1      1708 1.33264E+01
 -1      1709 1.32103E+01
 -1      1710 1.32103E+01
 -1      1711 1.22404E+01
 -1      1712 1.27254E+01
 -1      1713 1.23006E+01
 -1      1714 1.21378E+01
 -1      1715 1.25661E+01
 -1      1716 1.25661E+01
 -1      1717 1.64137E+01
 -1      1718 1.20111E+01
 -1      1719 3.55135E+01
 -1      1720 2.20177E+01
 -1      1721 4.83628E+01
 -1      1722 4.83628E+01
 -1      1723 2.80021E+01
 -1      1724 3.94861E+01
 -1      1725 2.74001E+01
 -1      1726 2.74001E+01
 -1      1727 1.77103E+01
 -1      1728 3.62554E+01
 -1      1729 6.90729E-03
 -1      1730 7.19626E-03
 -1      1731 2.94766E+01
 -1      1732 3.88733E+01
 -1      1733 2.94055E+01
 -1      1734 1.18746E+01
 -1      1735 1.23643E+01
 -1      1736 1.21758E+01
 -1      1737 1.23715E+01
 -1      1738 1.21894E+01
 -1      1739 1.20143E+01
 -1      1740 2.14210E+01
 -1      1741 3.07127E+01
 -1      1742 2.77312E+01
 -1      1743 2.60463E+01
 -1      1744 2.73428E+01
 -1      1745 3.11943E+01
 -1      1746 3.77946E+01
 -1      1747 2.83930E+01
 -1      1748 1.38627E+01
 -1      1749 1.23467E+01
 -1      1750 1.27254E+01
 -1      1751 1.21378E+01
 -1      1752 1.23006E+01
 -1      1753 1.20111E+01
 -1      1754 1.70602E+01
 -1      1755 3.55135E+01
 -1      1756 3.94861E+01
 -1      1757 3.00075E+01
 -1      1758 9.55287E+00
 -1      1759 1.26229E+00
 -1      1760 1.64317E+00
 -1      1761 2.34372E+00
 -1      1762 4.21190E+00
 -1      1763 1.72634E+00
 -1      1764 8.73469E-01
 -1      1765 9.68030E-01
 -1      1766 7.63149E-01
 -1      1767 8.21021E-01
 -1      1768 7.34785E-01
 -1      1769 6.91267E-01
 -1      1770 7.28913E-01
 -1      1771 6.48101E-01
 -1      1772 6.44067E-01
 -1      1773 6.66623E-01
 -1      1774 5.89221E-01
 -1      1775 6.69996E-01
 -1      1776 6.45720E-01
 -1      1777 5.66229E-01
 -1      1778 7.31739E-01
 -1      1779 6.94429E-01
 -1      1780 5.92314E-01
 -1      1781 8.28179E-01
 -1      1782 7.67860E-01
 -1      1783 6.52868E-01
 -1      1784 9.76193E-01
 -1      1785 8.78038E-01
 -1      1786 7.38848E-01
 -1      1787 1.22302E+00
 -1      1788 1.04528E+00
 -1      1789 8.57791E-01
 -1      1790 1.69226E+00
 -1      1791 1.32853E+00
 -1      1792 1.03239E+00
 -1      1793 2.59114E+00
 -1      1794 1.77195E+00
 -1      1795 1.21758E+00
 -1      1796 8.08806E+00
 -1      1797 3.02824E+00
 -1      1798 1.73437E+00
 -1      1799 2.79974E+00
 -1      1800 5.17141E+00
 -1      1801 2.15688E+00
 -1      1802 2.64974E+00
 -1      1803 2.02147E+00
 -1      1804 3.38640E+00
 -1      1805 2.54137E+00
 -1      1806 1.92622E+00
 -1      1807 1.68945E+00
 -1      1808 1.34956E+00
 -1      1809 1.48911E+00
 -1      1810 1.16171E+00
 -1      1811 9.99503E-01
 -1      1812 1.06449E+00
 -1      1813 9.14459E-01
 -1      1814 8.05363E-01
 -1      1815 7.91594E-01
 -1      1816 7.52355E-01
 -1      1817 6.72309E-01
 -1      1818 6.53542E-01
 -1      1819 6.21581E-01
 -1      1820 5.59185E-01
 -1      1821 5.49805E-01
 -1      1822 5.11248E-01
 -1      1823 4.76937E-01
 -1      1824 4.51140E-01
 -1      1825 5.11484E-01
 -1      1826 5.48425E-01
 -1      1827 4.37750E-01
 -1      1828 5.83983E-01
 -1      1829 6.25533E-01
 -1      1830 5.07854E-01
 -1      1831 7.01535E-01
 -1      1832 7.51183E-01
 -1      1833 6.19414E-01
 -1      1834 8.45181E-01
 -1      1835 9.43248E-01
 -1      1836 7.89415E-01
 -1      1837 1.02438E+00
 -1      1838 1.11852E+00
 -1      1839 9.64547E-01
 -1      1840 1.18694E+00
 -1      1841 1.31519E+00
 -1      1842 1.11411E+00
 -1      1843 1.39472E+00
 -1      1844 1.52816E+00
 -1      1845 1.26206E+00
 -1      1846 1.54505E+00
 -1      1847 1.59429E+00
 -1      1848 1.35847E+00
 -1      1849 1.56023E+00
 -1      1850 1.53673E+00
 -1      1851 1.34130E+00
 -1      1852 1.56278E+00
 -1      1853 1.52457E+00
 -1      1854 1.33328E+00
 -1      1855 1.53724E+00
 -1      1856 1.72082E+00
 -1      1857 1.37200E+00
 -1      1858 2.03663E+00
 -1      1859 2.65065E+00
 -1      1860 1.70048E+00
 -1      1861 2.99635E+00
 -1      1862 3.81225E+00
 -1      1863 2.36198E+00
 -1      1864 4.01105E+00
 -1      1865 3.99897E+00
 -1      1866 2.90648E+00
 -1      1867 3.98903E+00
 -1      1868 3.99986E+00
 -1      1869 3.09534E+00
 -1      1870 3.81349E+00
 -1      1871 2.99256E+00
 -1      1872 2.89903E+00
 -1      1873 2.65230E+00
 -1      1874 2.04602E+00
 -1      1875 2.37241E+00
 -1      1876 1.70611E+00
 -1      1877 1.52420E+00
 -1      1878 1.69224E+00
 -1      1879 1.51985E+00
 -1      1880 1.55604E+00
 -1      1881 1.34798E+00
 -1      1882 1.54354E+00
 -1      1883 1.55701E+00
 -1      1884 1.33113E+00
 -1      1885 1.58490E+00
 -1      1886 1.53341E+00
 -1      1887 1.34652E+00
 -1      1888 1.51782E+00
 -1      1889 1.38425E+00
 -1      1890 1.35882E+00
 -1      1891 1.31557E+00
 -1      1892 1.19803E+00
 -1      1893 1.27454E+00
 -1      1894 1.13996E+00
 -1      1895 1.06125E+00
 -1      1896 1.14779E+00
 -1      1897 9.88544E-01
 -1      1898 8.99669E-01
 -1      1899 1.01701E+00
 -1      1900 8.17163E-01
 -1      1901 7.27465E-01
 -1      1902 8.61797E-01
 -1      1903 6.47381E-01
 -1      1904 5.66440E-01
 -1      1905 6.99208E-01
 -1      1906 4.95219E-01
 -1      1907 4.27085E-01
 -1      1908 5.47904E-01
 -1      1909 3.67239E-01
 -1      1910 3.20465E-01
 -1      1911 4.16839E-01
 -1      1912 2.72176E-01
 -1      1913 2.39961E-01
 -1      1914 3.08705E-01
 -1      1915 2.02208E-01
 -1      1916 1.75473E-01
 -1      1917 2.22663E-01
 -1      1918 1.46740E-01
 -1      1919 1.25155E-01
 -1      1920 1.56177E-01
 -1      1921 1.05816E-01
 -1      1922 9.13851E-02
 -1      1923 1.08107E-01
 -1      1924 7.88052E-02
 -1      1925 6.93113E-02
 -1      1926 7.61891E-02
 -1      1927 6.04237E-02
 -1      1928 5.18950E-02
 -1      1929 5.47218E-02
 -1      1930 4.60945E-02
 -1      1931 3.84704E-02
 -1      1932 4.00337E-02
 -1      1933 3.40256E-02
 -1      1934 2.72770E-02
 -1      1935 2.97884E-02
 -1      1936 2.29255E-02
 -1      1937 1.78793E-02
 -1      1938 2.09923E-02
 -1      1939 1.52799E-02
 -1      1940 1.04894E-02
 -1      1941 8.96000E-03
 -1      1942 1.40413E-02
 -1      1943 1.41859E+00
 -1      1944 1.79149E+00
 -1      1945 1.50609E+00
 -1      1946 1.04539E+00
 -1      1947 1.27770E+00
 -1      1948 9.99811E-01
 -1      1949 8.44899E-01
 -1      1950 9.40771E-01
 -1      1951 7.54300E-01
 -1      1952 7.39358E-01
 -1      1953 8.12465E-01
 -1      1954 6.17245E-01
 -1      1955 6.60873E-01
 -1      1956 7.18058E-01
 -1      1957 5.63511E-01
 -1      1958 5.90812E-01
 -1      1959 6.37571E-01
 -1      1960 5.18909E-01
 -1      1961 5.24903E-01
 -1      1962 5.65889E-01
 -1      1963 4.70684E-01
 -1      1964 4.81708E-01
 -1      1965 5.20006E-01
 -1      1966 4.40865E-01
 -1      1967 5.11396E-01
 -1      1968 4.96369E-01
 -1      1969 4.50629E-01
 -1      1970 5.54397E-01
 -1      1971 5.47859E-01
 -1      1972 5.01752E-01
 -1      1973 5.98299E-01
 -1      1974 5.97242E-01
 -1      1975 5.81061E-01
 -1      1976 6.20958E-01
 -1      1977 6.12588E-01
 -1      1978 6.38196E-01
 -1      1979 6.93240E-01
 -1      1980 6.20958E-01
 -1      1981 6.52485E-01
 -1      1982 7.11277E-01
 -1      1983 6.62114E-01
 -1      1984 6.21358E-01
 -1      1985 7.17956E-01
 -1      1986 6.49427E-01
 -1      1987 5.28382E-01
 -1      1988 8.50952E-01
 -1      1989 7.54735E-01
 -1      1990 5.03311E-01
 -1      1991 1.09118E+00
 -1      1992 1.08428E+00
 -1      1993 7.73414E-01
 -1      1994 1.46266E+00
 -1      1995 1.32593E+00
 -1      1996 1.24149E+00
 -1      1997 1.76486E+00
 -1      1998 1.55878E+00
 -1      1999 1.57236E+00
 -1      2000 2.11295E+00
 -1      2001 1.76486E+00
 -1      2002 1.66848E+00
 -1      2003 2.19871E+00
 -1      2004 2.10553E+00
 -1      2005 1.66106E+00
 -1      2006 2.50521E+00
 -1      2007 2.30427E+00
 -1      2008 1.75919E+00
 -1      2009 2.26475E+00
 -1      2010 2.47631E+00
 -1      2011 1.83586E+00
 -1      2012 1.57297E+00
 -1      2013 2.03786E+00
 -1      2014 1.58006E+00
 -1      2015 1.01178E+00
 -1      2016 1.32674E+00
 -1      2017 1.10694E+00
 -1      2018 6.47407E-01
 -1      2019 8.61380E-01
 -1      2020 7.10309E-01
 -1      2021 6.80778E-01
 -1      2022 6.34205E-01
 -1      2023 5.46711E-01
 -1      2024 7.81420E-01
 -1      2025 7.41275E-01
 -1      2026 5.94006E-01
 -1      2027 8.34969E-01
 -1      2028 8.02981E-01
 -1      2029 6.76065E-01
 -1      2030 8.10648E-01
 -1      2031 8.40122E-01
 -1      2032 7.02779E-01
 -1      2033 7.21560E-01
 -1      2034 7.83067E-01
 -1      2035 6.80350E-01
 -1      2036 6.24700E-01
 -1      2037 6.87392E-01
 -1      2038 6.18600E-01
 -1      2039 5.27777E-01
 -1      2040 5.84792E-01
 -1      2041 5.44524E-01
 -1      2042 4.28971E-01
 -1      2043 4.83219E-01
 -1      2044 4.60057E-01
 -1      2045 3.35035E-01
 -1      2046 3.85557E-01
 -1      2047 3.72085E-01
 -1      2048 2.52168E-01
 -1      2049 2.96062E-01
 -1      2050 2.89698E-01
 -1      2051 1.88067E-01
 -1      2052 2.19333E-01
 -1      2053 2.17891E-01
 -1      2054 1.42447E-01
 -1      2055 1.66003E-01
 -1      2056 1.62991E-01
 -1      2057 1.05534E-01
 -1      2058 1.24750E-01
 -1      2059 1.23231E-01
 -1      2060 7.66613E-02
 -1      2061 9.10978E-02
 -1      2062 9.10978E-02
 -1      2063 5.37462E-02
 -1      2064 6.52037E-02
 -1      2065 6.52037E-02
 -1      2066 3.81220E-02
 -1      2067 4.48635E-02
 -1      2068 4.48635E-02
 -1      2069 2.76462E-02
 -1      2070 3.18660E-02
 -1      2071 2.97249E-02
 -1      2072 2.00384E-02
 -1      2073 2.43795E-02
 -1      2074 2.02022E-02
 -1      2075 1.39075E-02
 -1      2076 1.72243E-02
 -1      2077 1.41215E-02
 -1      2078 7.14803E-03
 -1      2079 1.05348E-02
 -1      2080 7.93473E-03
 -1      2081 4.61029E-03
 -1      2082 5.64051E-03
 -1      2083 6.14378E-03
 -1      2084 6.78995E-03
 -1      2085 6.78995E-03
 -1      2086 7.64279E-03
 -1      2087 6.78995E-03
 -1      2088 6.47375E-03
 -1      2089 6.42551E-03
 -1      2090 8.28897E-03
 -1      2091 4.16372E-03
 -1      2092 4.72876E-03
 -1      2093 6.08487E-03
 -1      2094 6.19851E-03
 -1      2095 5.34760E-03
 -1      2096 6.35701E-03
 -1      2097 7.24615E-03
 -1      2098 6.89430E-03
 -1      2099 8.23668E-03
 -1      2100 7.24615E-03
 -1      2101 7.24615E-03
 -1      2102 8.93247E-03
 -1      2103 7.24380E-03
 -1      2104 7.24434E-03
 -1      2105 8.93066E-03
 -1      2106 6.85177E-03
 -1      2107 7.24380E-03
 -1      2108 8.92886E-03
 -1      2109 5.30676E-03
 -1      2110 6.15803E-03
 -1      2111 8.23512E-03
 -1      2112 4.89726E-03
 -1      2113 4.18827E-03
 -1      2114 6.42290E-03
 -1      2115 6.56153E-03
 -1      2116 5.88872E-03
 -1      2117 6.29587E-03
 -1      2118 6.97548E-03
 -1      2119 6.97548E-03
 -1      2120 7.70128E-03
 -1      2121 3.88733E+01
 -1      2122 2.95478E+01
 -1      2123 3.05115E+01
 -1      2124 3.05115E+01
 -1      2125 2.99754E+01
 -1      2126 2.99042E+01
 -1      2127 2.05571E+01
 -1      2128 3.25006E+01
 -1      2129 1.03655E+01
 -1      2130 1.69671E+01
 -1      2131 1.02735E+00
 -1      2132 1.20234E+00
 -1      2133 9.65834E-01
 -1      2134 8.46558E-01
 -1      2135 1.10848E+01
 -1      2136 1.13610E+01
 -1      2137 1.15143E+01
 -1      2138 1.14268E+01
 -1      2139 1.04234E+01
 -1      2140 1.19359E+01
 -1      2141 1.18278E+01
 -1      2142 1.05791E+01
 -1      2143 1.08693E+01
 -1      2144 9.55059E+00
 -1      2145 9.43554E+00
 -1      2146 2.11026E+01
 -1      2147 1.18110E+01
 -1      2148 9.23224E+00
 -1      2149 2.56250E+01
 -1      2150 2.56250E+01
 -1      2151 2.45900E+01
 -1      2152 2.75715E+01
 -1      2153 3.18941E+01
 -1      2154 3.05975E+01
 -1      2155 3.18941E+01
 -1      2156 3.18941E+01
 -1      2157 2.91537E+01
 -1      2158 2.53023E+01
 -1      2159 2.98536E+01
 -1      2160 3.20043E+01
 -1      2161 2.92554E+01
 -1      2162 1.51243E+01
 -1      2163 2.72749E+01
 -1      2164 1.87356E+01
 -1      2165 9.66685E+00
 -1      2166 1.20466E+01
 -1      2167 1.05861E+01
 -1      2168 9.72249E+00
 -1      2169 7.90632E+00
 -1      2170 1.16403E+01
 -1      2171 1.21253E+01
 -1      2172 1.10335E+01
 -1      2173 1.11362E+01
 -1      2174 1.13527E+01
 -1      2175 1.10871E+01
 -1      2176 9.36864E+00
 -1      2177 9.92362E+00
 -1      2178 1.62512E+01
 -1      2179 1.06472E+01
 -1      2180 3.29248E+01
 -1      2181 2.00756E+01
 -1      2182 3.06095E+01
 -1      2183 3.94861E+01
 -1      2184 3.05115E+01
 -1      2185 3.11136E+01
 -1      2186 9.57500E+00
 -1      2187 8.80916E+00
 -1      2188 8.06595E+00
 -1      2189 1.65311E+01
 -1      2190 1.27763E+01
 -1      2191 9.18627E+00
 -1      2192 2.89188E+00
 -1      2193 8.29551E+00
 -1      2194 2.07638E+00
 -1      2195 2.99754E+01
 -1      2196 3.10103E+01
 -1      2197 7.29668E-03
 -1      2198 2.31750E+01
 -1      2199 3.16176E+01
 -1      2200 3.11136E+01
 -1      2201 2.40482E+01
 -1      2202 1.36625E+01
 -1      2203 8.55964E+00
 -1      2204 8.71018E+00
 -1      2205 1.00855E+01
 -1      2206 9.50111E+00
 -1      2207 1.19739E+01
 -1      2208 1.08558E+01
 -1      2209 7.77803E+00
 -1      2210 2.78015E+01
 -1      2211 2.19095E+01
 -1      2212 2.20112E+01
 -1      2213 3.64454E+01
 -1      2214 3.04379E+01
 -1      2215 2.06484E+01
 -1      2216 1.10384E+01
 -1      2217 1.55608E+01
 -1      2218 8.11546E+00
 -1      2219 1.10788E+01
 -1      2220 1.03257E+01
 -1      2221 2.24839E+01
 -1      2222 1.05361E+01
 -1      2223 1.08629E+00
 -1      2224 1.45167E+00
 -1      2225 5.44176E-01
 -1      2226 5.78412E-01
 -1      2227 5.95951E-01
 -1      2228 6.48399E-01
 -1      2229 4.92026E-01
 -1      2230 4.87501E-01
 -1      2231 4.85849E-01
 -1      2232 5.27900E-01
 -1      2233 5.03467E-01
 -1      2234 4.23087E-01
 -1      2235 5.82306E-01
 -1      2236 5.46185E-01
 -1      2237 4.57337E-01
 -1      2238 6.47588E-01
 -1      2239 5.97728E-01
 -1      2240 4.91045E-01
 -1      2241 7.17789E-01
 -1      2242 6.48705E-01
 -1      2243 5.07585E-01
 -1      2244 8.71043E-01
 -1      2245 7.65530E-01
 -1      2246 5.56444E-01
 -1      2247 8.58921E-01
 -1      2248 9.99811E-01
 -1      2249 9.45397E-01
 -1      2250 1.24178E+00
 -1      2251 1.00501E+00
 -1      2252 7.34130E+00
 -1      2253 5.55535E+00
 -1      2254 9.54904E-01
 -1      2255 7.67056E-01
 -1      2256 7.07580E-01
 -1      2257 6.96698E-01
 -1      2258 6.11654E-01
 -1      2259 5.87115E-01
 -1      2260 5.57090E-01
 -1      2261 5.04081E-01
 -1      2262 4.62194E-01
 -1      2263 4.74953E-01
 -1      2264 4.24225E-01
 -1      2265 3.78501E-01
 -1      2266 3.84610E-01
 -1      2267 3.36673E-01
 -1      2268 3.09757E-01
 -1      2269 3.50730E-01
 -1      2270 3.85277E-01
 -1      2271 2.84200E-01
 -1      2272 4.36203E-01
 -1      2273 4.71760E-01
 -1      2274 3.49183E-01
 -1      2275 5.59157E-01
 -1      2276 6.35160E-01
 -1      2277 4.87506E-01
 -1      2278 7.29407E-01
 -1      2279 8.23404E-01
 -1      2280 6.69150E-01
 -1      2281 9.19620E-01
 -1      2282 1.00075E+00
 -1      2283 8.59612E-01
 -1      2284 1.08971E+00
 -1      2285 1.15814E+00
 -1      2286 1.04479E+00
 -1      2287 1.22492E+00
 -1      2288 1.30444E+00
 -1      2289 1.20053E+00
 -1      2290 1.42689E+00
 -1      2291 1.44378E+00
 -1      2292 1.38975E+00
 -1      2293 1.58290E+00
 -1      2294 1.54884E+00
 -1      2295 1.65132E+00
 -1      2296 1.66873E+00
 -1      2297 1.69478E+00
 -1      2298 1.91033E+00
 -1      2299 1.96765E+00
 -1      2300 1.98032E+00
 -1      2301 2.30309E+00
 -1      2302 1.85020E+00
 -1      2303 2.16601E+00
 -1      2304 2.44585E+00
 -1      2305 2.65759E+00
 -1      2306 3.00328E+00
 -1      2307 2.80731E+00
 -1      2308 4.49478E+00
 -1      2309 4.69358E+00
 -1      2310 4.79038E+00
 -1      2311 3.48476E+00
 -1      2312 3.47482E+00
 -1      2313 5.07306E+00
 -1      2314 4.90293E+00
 -1      2315 4.71656E+00
 -1      2316 5.29234E+00
 -1      2317 2.53419E+00
 -1      2318 2.19393E+00
 -1      2319 4.53808E+00
 -1      2320 2.23787E+00
 -1      2321 1.89796E+00
 -1      2322 2.39965E+00
 -1      2323 1.87829E+00
 -1      2324 1.87394E+00
 -1      2325 2.42392E+00
 -1      2326 1.65332E+00
 -1      2327 1.64083E+00
 -1      2328 2.18364E+00
 -1      2329 1.55074E+00
 -1      2330 1.57863E+00
 -1      2331 1.87293E+00
 -1      2332 1.44950E+00
 -1      2333 1.43390E+00
 -1      2334 1.65371E+00
 -1      2335 1.31545E+00
 -1      2336 1.24677E+00
 -1      2337 1.40613E+00
 -1      2338 1.18619E+00
 -1      2339 1.12812E+00
 -1      2340 1.22710E+00
 -1      2341 1.04762E+00
 -1      2342 9.74913E-01
 -1      2343 1.08601E+00
 -1      2344 8.89550E-01
 -1      2345 8.07044E-01
 -1      2346 9.20160E-01
 -1      2347 7.25991E-01
 -1      2348 6.45907E-01
 -1      2349 7.53743E-01
 -1      2350 5.73923E-01
 -1      2351 5.02703E-01
 -1      2352 6.00706E-01
 -1      2353 4.41609E-01
 -1      2354 3.81763E-01
 -1      2355 4.67628E-01
 -1      2356 3.31616E-01
 -1      2357 2.83327E-01
 -1      2358 3.56386E-01
 -1      2359 2.43242E-01
 -1      2360 2.05489E-01
 -1      2361 2.66154E-01
 -1      2362 1.74166E-01
 -1      2363 1.45433E-01
 -1      2364 1.94745E-01
 -1      2365 1.21463E-01
 -1      2366 1.02125E-01
 -1      2367 1.39451E-01
 -1      2368 8.41601E-02
 -1      2369 7.15803E-02
 -1      2370 9.75157E-02
 -1      2371 5.84175E-02
 -1      2372 4.95300E-02
 -1      2373 6.63885E-02
 -1      2374 4.01301E-02
 -1      2375 3.43295E-02
 -1      2376 4.38258E-02
 -1      2377 2.80443E-02
 -1      2378 2.35996E-02
 -1      2379 2.81407E-02
 -1      2380 2.05266E-02
 -1      2381 1.61751E-02
 -1      2382 1.87825E-02
 -1      2383 5.53138E-01
 -1      2384 5.85572E-01
 -1      2385 4.94605E-01
 -1      2386 5.15905E-01
 -1      2387 4.84232E-01
 -1      2388 4.28512E-01
 -1      2389 4.51814E-01
 -1      2390 4.04209E-01
 -1      2391 3.72843E-01
 -1      2392 3.97766E-01
 -1      2393 3.30671E-01
 -1      2394 3.87492E-01
 -1      2395 3.92388E-01
 -1      2396 3.19470E-01
 -1      2397 4.16909E-01
 -1      2398 4.02249E-01
 -1      2399 3.53772E-01
 -1      2400 5.01895E-01
 -1      2401 4.65432E-01
 -1      2402 4.17052E-01
 -1      2403 5.87632E-01
 -1      2404 5.44786E-01
 -1      2405 5.08466E-01
 -1      2406 6.38196E-01
 -1      2407 6.23907E-01
 -1      2408 5.87632E-01
 -1      2409 6.52807E-01
 -1      2410 6.52807E-01
 -1      2411 6.38518E-01
 -1      2412 6.21176E-01
 -1      2413 6.52303E-01
 -1      2414 6.52625E-01
 -1      2415 5.71859E-01
 -1      2416 6.33709E-01
 -1      2417 6.64654E-01
 -1      2418 6.54207E-01
 -1      2419 6.17428E-01
 -1      2420 7.22756E-01
 -1      2421 9.74007E-01
 -1      2422 7.40682E-01
 -1      2423 8.54800E-01
 -1      2424 1.36449E+00
 -1      2425 1.12974E+00
 -1      2426 1.09701E+00
 -1      2427 1.58046E+00
 -1      2428 1.48434E+00
 -1      2429 1.37260E+00
 -1      2430 1.75316E+00
 -1      2431 1.75316E+00
 -1      2432 1.66514E+00
 -1      2433 1.71830E+00
 -1      2434 1.72572E+00
 -1      2435 1.81040E+00
 -1      2436 1.79354E+00
 -1      2437 1.68798E+00
 -1      2438 1.75264E+00
 -1      2439 1.70227E+00
 -1      2440 1.73117E+00
 -1      2441 1.65995E+00
 -1      2442 1.36211E+00
 -1      2443 1.58901E+00
 -1      2444 1.48432E+00
 -1      2445 9.62703E-01
 -1      2446 1.20893E+00
 -1      2447 1.21788E+00
 -1      2448 6.55923E-01
 -1      2449 8.06318E-01
 -1      2450 9.08317E-01
 -1      2451 6.26576E-01
 -1      2452 6.39778E-01
 -1      2453 7.35787E-01
 -1      2454 6.57372E-01
 -1      2455 5.96875E-01
 -1      2456 6.89942E-01
 -1      2457 7.01186E-01
 -1      2458 6.79624E-01
 -1      2459 6.82493E-01
 -1      2460 6.95447E-01
 -1      2461 6.90294E-01
 -1      2462 6.93854E-01
 -1      2463 6.43870E-01
 -1      2464 6.71451E-01
 -1      2465 6.58966E-01
 -1      2466 5.80329E-01
 -1      2467 6.14497E-01
 -1      2468 6.05598E-01
 -1      2469 5.08138E-01
 -1      2470 5.48046E-01
 -1      2471 5.43943E-01
 -1      2472 4.24331E-01
 -1      2473 4.68889E-01
 -1      2474 4.72412E-01
 -1      2475 3.40664E-01
 -1      2476 3.84078E-01
 -1      2477 3.92910E-01
 -1      2478 2.64145E-01
 -1      2479 3.03117E-01
 -1      2480 3.15111E-01
 -1      2481 1.98428E-01
 -1      2482 2.31263E-01
 -1      2483 2.44682E-01
 -1      2484 1.48885E-01
 -1      2485 1.70949E-01
 -1      2486 1.84322E-01
 -1      2487 1.09082E-01
 -1      2488 1.26778E-01
 -1      2489 1.34736E-01
 -1      2490 7.74483E-02
 -1      2491 9.18848E-02
 -1      2492 9.54323E-02
 -1      2493 5.30412E-02
 -1      2494 6.44988E-02
 -1      2495 6.52858E-02
 -1      2496 3.55721E-02
 -1      2497 4.44548E-02
 -1      2498 4.37498E-02
 -1      2499 2.44134E-02
 -1      2500 3.06694E-02
 -1      2501 3.02607E-02
 -1      2502 1.74107E-02
 -1      2503 2.06774E-02
 -1      2504 2.16219E-02
 -1      2505 1.16429E-02
 -1      2506 1.44570E-02
 -1      2507 1.49322E-02
 -1      2508 9.79819E-03
 -1      2509 9.03721E-03
 -1      2510 7.85333E-03
 -1      2511 1.09697E-02
 -1      2512 1.02739E-02
 -1      2513 1.17703E-02
 -1      2514 7.60776E-03
 -1      2515 8.25394E-03
 -1      2516 7.18412E-03
 -1      2517 8.09587E-03
 -1      2518 8.70702E-03
 -1      2519 9.86433E-03
 -1      2520 1.11152E-02
 -1      2521 1.11152E-02
 -1      2522 1.31525E-02
 -1      2523 1.11507E-02
 -1      2524 1.11525E-02
 -1      2525 1.33353E-02
 -1      2526 1.11507E-02
 -1      2527 1.11507E-02
 -1      2528 1.33726E-02
 -1      2529 1.03515E-02
 -1      2530 1.10452E-02
 -1      2531 1.32671E-02
 -1      2532 7.95245E-03
 -1      2533 9.07093E-03
 -1      2534 1.18810E-02
 -1      2535 9.07118E-03
 -1      2536 8.07972E-03
 -1      2537 1.07278E-02
 -1      2538 9.48513E-03
 -1      2539 9.07118E-03
 -1      2540 1.08550E-02
 -1      2541 3.04030E+01
 -1      2542 3.10103E+01
 -1      2543 1.47882E+01
 -1      2544 2.11609E+01
 -1      2545 6.49678E-01
 -1      2546 7.54300E-01
 -1      2547 5.85572E-01
 -1      2548 9.77855E-03
 -1      2549 3.16176E+01
 -1      2550 3.16176E+01
 -1      2551 3.10103E+01
 -1      2552 2.48556E+01
 -1      2553 2.52832E+01
 -1      2554 1.64687E+01
 -1      2555 1.63376E+00
 -1      2556 1.28325E+00
 -1      2557 7.99159E-01
 -1      2558 9.33209E-01
 -1      2559 2.56179E+01
 -1      2560 2.51138E+01
 -1      2561 3.64454E+01
 -1      2562 3.64454E+01
 -1      2563 5.68777E+00
 -1      2564 6.83135E+00
 -1      2565 5.01606E-01
 -1      2566 5.26251E-01
 -1      2567 4.56562E-01
 -1      2568 4.22879E-01
 -1      2569 7.72976E+00
 -1      2570 8.79638E+00
 -1      2571 5.30207E+00
 -1      2572 8.76419E+00
 -1      2573 8.42225E+00
 -1      2574 1.98609E+01
 -1      2575 1.79144E+01
 -1      2576 9.58722E+00
 -1      2577 9.27375E+00
 -1      2578 9.28854E+00
 -1      2579 7.02818E+00
 -1      2580 9.32300E+00
 -1      2581 9.82719E+00
 -1      2582 3.04379E+01
 -1      2583 2.44304E+01
 -1      2584 1.98609E+01
 -1      2585 2.32617E+01
 -1      2586 2.98536E+01
 -1      2587 1.38480E+01
 -1      2588 1.85775E+01
 -1      2589 6.25561E+00
 -1      2590 6.19997E+00
 -1      2591 8.66107E+00
 -1      2592 7.12192E+00
 -1      2593 9.29258E+00
 -1      2594 9.23891E+00
 -1      2595 8.53004E+00
 -1      2596 6.33468E+00
 -1      2597 7.76372E+00
 -1      2598 7.40744E+00
 -1      2599 6.12893E+00
 -1      2600 1.32584E+01
 -1      2601 9.43404E+00
 -1      2602 7.00333E+00
 -1      2603 2.19451E+01
 -1      2604 1.53838E+01
 -1      2605 6.31179E+00
 -1      2606 7.86818E+00
 -1      2607 1.58246E+00
 -1      2608 1.73246E+00
 -1      2609 1.29535E+00
 -1      2610 1.16266E+00
 -1      2611 6.11976E+00
 -1      2612 8.71566E+00
 -1      2613 6.91060E+00
 -1      2614 5.27251E-01
 -1      2615 6.66085E-01
 -1      2616 7.25410E-01
 -1      2617 7.54300E-01
 -1      2618 1.21567E+00
 -1      2619 8.51895E+00
 -1      2620 1.25450E+01
 -1      2621 1.05309E+01
 -1      2622 2.56179E+01
 -1      2623 5.35758E+00
 -1      2624 1.11553E+01
 -1      2625 1.01337E-02
 -1      2626 1.01337E-02
 -1      2627 6.91708E+00
 -1      2628 2.52832E+01
 -1      2629 7.44801E+00
 -1      2630 5.41557E+00
 -1      2631 9.48811E-01
 -1      2632 5.74407E+00
 -1      2633 1.06953E+01
 -1      2634 1.05371E+01
 -1      2635 7.54486E+00
 -1      2636 8.73257E-01
 -1      2637 2.98536E+01
 -1      2638 3.04379E+01
 -1      2639 8.83432E+00
 -1      2640 6.12732E+00
 -1      2641 1.71236E+01
 -1      2642 5.68209E+00
 -1      2643 1.50429E+01
 -1      2644 1.00663E+01
 -1      2645 1.24199E+01
 -1      2646 1.64494E+01
 -1      2647 7.27260E+00
 -1      2648 1.94291E+01
 -1      2649 1.94291E+01
 -1      2650 1.80768E+01
 -1      2651 1.14419E-02
 -1      2652 9.77855E-03
 -1      2653 1.11485E-02
 -1      2654 1.40413E-02
 -1      2655 5.18248E+00
 -1      2656 7.43212E+00
 -1      2657 1.00987E-02
 -1      2658 1.35757E-02
 -1      2659 4.10263E-01
 -1      2660 3.91978E-01
 -1      2661 3.78802E-01
 -1      2662 3.62837E-01
 -1      2663 3.31728E-01
 -1      2664 4.34381E-01
 -1      2665 4.33263E-01
 -1      2666 4.76106E-01
 -1      2667 4.28365E-01
 -1      2668 3.54042E-01
 -1      2669 6.81658E-01
 -1      2670 7.68134E-01
 -1      2671 4.81254E+00
 -1      2672 3.47214E+00
 -1      2673 8.18030E-01
 -1      2674 1.11862E+01
 -1      2675 9.06081E+00
 -1      2676 3.99840E+00
 -1      2677 4.75484E+00
 -1      2678 4.92540E-01
 -1      2679 4.22183E-01
 -1      2680 3.98076E-01
 -1      2681 3.43512E-01
 -1      2682 3.03501E-01
 -1      2683 3.03193E-01
 -1      2684 2.74065E-01
 -1      2685 2.39076E-01
 -1      2686 2.48828E-01
 -1      2687 2.09213E-01
 -1      2688 1.73520E-01
 -1      2689 2.18596E-01
 -1      2690 2.32653E-01
 -1      2691 1.57666E-01
 -1      2692 2.93963E-01
 -1      2693 3.44890E-01
 -1      2694 2.28360E-01
 -1      2695 4.18858E-01
 -1      2696 5.06255E-01
 -1      2697 3.63638E-01
 -1      2698 5.93970E-01
 -1      2699 6.88217E-01
 -1      2700 5.25322E-01
 -1      2701 7.91521E-01
 -1      2702 8.87736E-01
 -1      2703 7.16342E-01
 -1      2704 1.00859E+00
 -1      2705 1.09755E+00
 -1      2706 9.40503E-01
 -1      2707 1.23613E+00
 -1      2708 1.30290E+00
 -1      2709 1.19993E+00
 -1      2710 1.45340E+00
 -1      2711 1.57585E+00
 -1      2712 1.48900E+00
 -1      2713 1.73749E+00
 -1      2714 1.87661E+00
 -1      2715 1.80114E+00
 -1      2716 2.18908E+00
 -1      2717 2.30896E+00
 -1      2718 2.27524E+00
 -1      2719 2.69281E+00
 -1      2720 2.96568E+00
 -1      2721 2.97156E+00
 -1      2722 4.20661E+00
 -1      2723 4.07650E+00
 -1      2724 4.59633E+00
 -1      2725 2.87283E+00
 -1      2726 3.36441E+00
 -1      2727 4.63359E+00
 -1      2728 4.79038E+00
 -1      2729 6.28188E+00
 -1      2730 7.44801E+00
 -1      2731 6.23918E+00
 -1      2732 7.66729E+00
 -1      2733 5.69537E+00
 -1      2734 3.51300E+00
 -1      2735 2.81216E+00
 -1      2736 2.85610E+00
 -1      2737 3.96944E+00
 -1      2738 3.44131E+00
 -1      2739 3.42164E+00
 -1      2740 3.85382E+00
 -1      2741 2.90518E+00
 -1      2742 2.68457E+00
 -1      2743 3.92257E+00
 -1      2744 2.29217E+00
 -1      2745 2.20208E+00
 -1      2746 3.01372E+00
 -1      2747 1.89183E+00
 -1      2748 1.76270E+00
 -1      2749 2.31107E+00
 -1      2750 1.59778E+00
 -1      2751 1.47933E+00
 -1      2752 1.83590E+00
 -1      2753 1.33611E+00
 -1      2754 1.27552E+00
 -1      2755 1.52776E+00
 -1      2756 1.14437E+00
 -1      2757 1.06387E+00
 -1      2758 1.25338E+00
 -1      2759 9.52590E-01
 -1      2760 8.67227E-01
 -1      2761 1.01094E+00
 -1      2762 7.72331E-01
 -1      2763 6.91277E-01
 -1      2764 8.04761E-01
 -1      2765 6.14118E-01
 -1      2766 5.42134E-01
 -1      2767 6.32706E-01
 -1      2768 4.79233E-01
 -1      2769 4.18139E-01
 -1      2770 4.92646E-01
 -1      2771 3.67369E-01
 -1      2772 3.17222E-01
 -1      2773 3.78975E-01
 -1      2774 2.76703E-01
 -1      2775 2.36618E-01
 -1      2776 2.87686E-01
 -1      2777 2.04687E-01
 -1      2778 1.73364E-01
 -1      2779 2.15236E-01
 -1      2780 1.48549E-01
 -1      2781 1.24578E-01
 -1      2782 1.58491E-01
 -1      2783 1.05587E-01
 -1      2784 8.76225E-02
 -1      2785 1.14685E-01
 -1      2786 7.33311E-02
 -1      2787 6.01683E-02
 -1      2788 8.14024E-02
 -1      2789 4.96502E-02
 -1      2790 4.02503E-02
 -1      2791 5.65928E-02
 -1      2792 3.26014E-02
 -1      2793 2.63162E-02
 -1      2794 3.84258E-02
 -1      2795 1.98950E-02
 -1      2796 1.68220E-02
 -1      2797 2.43557E-02
 -1      2798 3.01610E-01
 -1      2799 3.44402E-01
 -1      2800 5.02925E+00
 -1      2801 6.55811E+00
 -1      2802 3.67536E-01
 -1      2803 4.04768E-01
 -1      2804 2.64938E-01
 -1      2805 2.74097E-01
 -1      2806 2.54552E-01
 -1      2807 3.37633E-01
 -1      2808 3.22876E-01
 -1      2809 2.57958E-01
 -1      2810 4.40465E-01
 -1      2811 3.91942E-01
 -1      2812 3.61046E-01
 -1      2813 5.33550E-01
 -1      2814 4.90659E-01
 -1      2815 4.65549E-01
 -1      2816 6.10230E-01
 -1      2817 5.73955E-01
 -1      2818 5.56148E-01
 -1      2819 6.83543E-01
 -1      2820 6.68932E-01
 -1      2821 6.55255E-01
 -1      2822 7.40367E-01
 -1      2823 7.40870E-01
 -1      2824 7.71284E-01
 -1      2825 7.90072E-01
 -1      2826 7.77539E-01
 -1      2827 8.65785E-01
 -1      2828 9.20075E-01
 -1      2829 8.74506E-01
 -1      2830 9.87391E-01
 -1      2831 1.12658E+00
 -1      2832 1.04011E+00
 -1      2833 1.19186E+00
 -1      2834 1.32480E+00
 -1      2835 1.16907E+00
 -1      2836 1.35437E+00
 -1      2837 1.51142E+00
 -1      2838 1.39157E+00
 -1      2839 1.46362E+00
 -1      2840 2.34754E+00
 -1      2841 2.17484E+00
 -1      2842 2.19381E+00
 -1      2843 3.26246E+00
 -1      2844 3.28990E+00
 -1      2845 3.79960E+00
 -1      2846 2.48559E+00
 -1      2847 2.51590E+00
 -1      2848 3.99540E+00
 -1      2849 1.84535E+00
 -1      2850 1.90773E+00
 -1      2851 2.67099E+00
 -1      2852 1.44907E+00
 -1      2853 1.56233E+00
 -1      2854 1.81010E+00
 -1      2855 1.37021E+00
 -1      2856 1.52339E+00
 -1      2857 1.60140E+00
 -1      2858 1.00831E+00
 -1      2859 1.16470E+00
 -1      2860 1.47021E+00
 -1      2861 9.56335E-01
 -1      2862 9.72479E-01
 -1      2863 1.22886E+00
 -1      2864 7.94863E-01
 -1      2865 8.24564E-01
 -1      2866 1.06126E+00
 -1      2867 7.99288E-01
 -1      2868 7.77036E-01
 -1      2869 9.11658E-01
 -1      2870 7.45346E-01
 -1      2871 7.56237E-01
 -1      2872 8.50779E-01
 -1      2873 6.66492E-01
 -1      2874 6.90488E-01
 -1      2875 7.52871E-01
 -1      2876 5.99965E-01
 -1      2877 6.29337E-01
 -1      2878 6.60859E-01
 -1      2879 5.28382E-01
 -1      2880 5.60665E-01
 -1      2881 5.84404E-01
 -1      2882 4.47699E-01
 -1      2883 4.86948E-01
 -1      2884 5.03669E-01
 -1      2885 3.66181E-01
 -1      2886 4.06434E-01
 -1      2887 4.20970E-01
 -1      2888 2.90501E-01
 -1      2889 3.28047E-01
 -1      2890 3.41571E-01
 -1      2891 2.24150E-01
 -1      2892 2.57032E-01
 -1      2893 2.69968E-01
 -1      2894 1.68422E-01
 -1      2895 1.95901E-01
 -1      2896 2.08250E-01
 -1      2897 1.23225E-01
 -1      2898 1.45332E-01
 -1      2899 1.56911E-01
 -1      2900 8.76782E-02
 -1      2901 1.04875E-01
 -1      2902 1.15471E-01
 -1      2903 6.05260E-02
 -1      2904 7.34756E-02
 -1      2905 8.29185E-02
 -1      2906 4.12282E-02
 -1      2907 4.98147E-02
 -1      2908 5.80044E-02
 -1      2909 2.84874E-02
 -1      2910 3.33901E-02
 -1      2911 3.94549E-02
 -1      2912 1.90782E-02
 -1      2913 2.28142E-02
 -1      2914 2.59436E-02
 -1      2915 1.19785E-02
 -1      2916 1.49322E-02
 -1      2917 1.61245E-02
 -1      2918 1.00987E-02
 -1      2919 1.63340E-02
 -1      2920 1.62967E-02
 -1      2921 1.32823E-02
 -1      2922 1.11485E-02
 -1      2923 1.08550E-02
 -1      2924 1.43948E-02
 -1      2925 1.54630E-02
 -1      2926 1.42263E-02
 -1      2927 1.64128E-02
 -1      2928 1.64128E-02
 -1      2929 1.93743E-02
 -1      2930 1.62967E-02
 -1      2931 1.61512E-02
 -1      2932 1.86073E-02
 -1      2933 1.92955E-02
 -1      2934 2.41544E+01
 -1      2935 1.81547E+01
 -1      2936 1.63073E-02
 -1      2937 1.64128E-02
 -1      2938 1.94531E-02
 -1      2939 1.44924E-02
 -1      2940 1.57730E-02
 -1      2941 1.89187E-02
 -1      2942 1.23288E-02
 -1      2943 1.22016E-02
 -1      2944 1.60935E-02
 -1      2945 1.08550E-02
 -1      2946 6.92784E-01
 -1      2947 6.51311E-01
 -1      2948 2.23688E+01
 -1      2949 2.29761E+01
 -1      2950 1.11693E+01
 -1      2951 1.48639E+01
 -1      2952 9.24116E+00
 -1      2953 7.49131E+00
 -1      2954 1.76090E+01
 -1      2955 2.27288E+01
 -1      2956 1.23095E+01
 -1      2957 4.48826E-01
 -1      2958 5.12933E-01
 -1      2959 3.32130E-01
 -1      2960 2.37175E-01
 -1      2961 2.67922E-01
 -1      2962 2.08115E-01
 -1      2963 1.91803E-01
 -1      2964 5.62651E-01
 -1      2965 5.12545E-01
 -1      2966 3.47612E-01
 -1      2967 4.56277E-01
 -1      2968 5.53432E-01
 -1      2969 6.58053E-01
 -1      2970 4.80790E-01
 -1      2971 4.16687E-01
 -1      2972 2.70194E+01
 -1      2973 2.10119E+01
 -1      2974 1.91042E+01
 -1      2975 2.56960E+01
 -1      2976 4.33263E-01
 -1      2977 4.17840E-01
 -1      2978 3.52481E-01
 -1      2979 3.60058E-01
 -1      2980 1.55504E+01
 -1      2981 1.23816E+01
 -1      2982 4.15366E-01
 -1      2983 4.32905E-01
 -1      2984 4.85590E+00
 -1      2985 3.98960E+00
 -1      2986 3.91956E+00
 -1      2987 4.81797E+00
 -1      2988 2.98804E+00
 -1      2989 1.80258E+01
 -1      2990 1.34563E+01
 -1      2991 5.96681E+00
 -1      2992 7.54486E+00
 -1      2993 7.38435E+00
 -1      2994 5.40714E+00
 -1      2995 5.47852E+00
 -1      2996 4.39756E+00
 -1      2997 3.79483E+00
 -1      2998 1.30060E+01
 -1      2999 1.64397E+01
 -1      3000 7.25410E-01
 -1      3001 5.02754E+00
 -1      3002 6.34563E+00
 -1      3003 7.14044E+00
 -1      3004 5.11384E+00
 -1      3005 6.82680E+00
 -1      3006 6.31724E+00
 -1      3007 4.54132E-01
 -1      3008 4.71817E-01
 -1      3009 3.77472E-01
 -1      3010 3.18010E-01
 -1      3011 3.62295E-01
 -1      3012 3.78052E-01
 -1      3013 2.50417E+01
 -1      3014 1.56158E+01
 -1      3015 1.42924E+01
 -1      3016 9.68982E+00
 -1      3017 1.15249E+01
 -1      3018 8.65341E+00
 -1      3019 5.54290E-01
 -1      3020 7.44376E+00
 -1      3021 7.21250E+00
 -1      3022 5.03918E+00
 -1      3023 5.47122E+00
 -1      3024 5.39051E+00
 -1      3025 4.08871E+00
 -1      3026 1.02871E+01
 -1      3027 3.66836E+00
 -1      3028 1.58756E-02
 -1      3029 1.21828E-02
 -1      3030 1.15136E-02
 -1      3031 4.12267E+00
 -1      3032 4.32842E+00
 -1      3033 9.45573E+00
 -1      3034 7.85088E+00
 -1      3035 7.21250E+00
 -1      3036 1.03239E-02
 -1      3037 9.83580E-03
 -1      3038 1.17156E-02
 -1      3039 1.26424E-02
 -1      3040 1.19117E-02
 -1      3041 1.19117E-02
 -1      3042 1.33855E-02
 -1      3043 1.54515E-02
 -1      3044 8.72328E+00
 -1      3045 1.39593E+01
 -1      3046 1.46946E+01
 -1      3047 1.55129E+01
 -1      3048 5.03272E+00
 -1      3049 6.41499E+00
 -1      3050 5.45963E+00
 -1      3051 5.54343E+00
 -1      3052 1.46073E+01
 -1      3053 5.87806E+00
 -1      3054 5.47122E+00
 -1      3055 3.19929E+00
 -1      3056 5.44937E-01
 -1      3057 4.26211E-01
 -1      3058 3.90898E-01
 -1      3059 4.08823E-01
 -1      3060 3.49702E-01
 -1      3061 3.30313E-01
 -1      3062 1.70607E+01
 -1      3063 1.29032E+01
 -1      3064 1.32281E+01
 -1      3065 7.38435E+00
 -1      3066 1.05371E+01
 -1      3067 9.85322E+00
 -1      3068 7.17132E+00
 -1      3069 1.40869E+01
 -1      3070 4.25978E+00
 -1      3071 2.99025E-01
 -1      3072 3.05041E-01
 -1      3073 2.87385E+00
 -1      3074 3.14655E+00
 -1      3075 2.05273E-01
 -1      3076 1.64954E-01
 -1      3077 1.60765E-01
 -1      3078 1.35528E-01
 -1      3079 1.26963E-01
 -1      3080 1.64184E-01
 -1      3081 1.73567E-01
 -1      3082 1.51429E-01
 -1      3083 2.16735E-01
 -1      3084 2.78045E-01
 -1      3085 2.23253E-01
 -1      3086 3.35835E-01
 -1      3087 4.09804E-01
 -1      3088 3.24211E-01
 -1      3089 4.90319E-01
 -1      3090 5.78035E-01
 -1      3091 4.62516E-01
 -1      3092 6.74782E-01
 -1      3093 7.78086E-01
 -1      3094 6.39779E-01
 -1      3095 8.87743E-01
 -1      3096 1.00860E+00
 -1      3097 8.46183E-01
 -1      3098 1.16101E+00
 -1      3099 1.29958E+00
 -1      3100 1.10824E+00
 -1      3101 1.51029E+00
 -1      3102 1.66079E+00
 -1      3103 1.47137E+00
 -1      3104 1.98680E+00
 -1      3105 2.14843E+00
 -1      3106 2.00809E+00
 -1      3107 2.63097E+00
 -1      3108 2.94343E+00
 -1      3109 2.81663E+00
 -1      3110 3.64159E+00
 -1      3111 4.02544E+00
 -1      3112 3.99731E+00
 -1      3113 5.36988E+00
 -1      3114 6.61081E+00
 -1      3115 6.61081E+00
 -1      3116 7.58320E+00
 -1      3117 4.84499E+00
 -1      3118 4.43903E+00
 -1      3119 3.92257E+00
 -1      3120 4.34575E+00
 -1      3121 3.95336E+00
 -1      3122 4.86221E+00
 -1      3123 3.13013E+00
 -1      3124 2.81989E+00
 -1      3125 4.46217E+00
 -1      3126 2.38023E+00
 -1      3127 2.21531E+00
 -1      3128 3.19930E+00
 -1      3129 1.91477E+00
 -1      3130 1.77155E+00
 -1      3131 2.45910E+00
 -1      3132 1.52210E+00
 -1      3133 1.39094E+00
 -1      3134 1.90911E+00
 -1      3135 1.19861E+00
 -1      3136 1.08732E+00
 -1      3137 1.46732E+00
 -1      3138 9.47230E-01
 -1      3139 8.52334E-01
 -1      3140 1.13490E+00
 -1      3141 7.42696E-01
 -1      3142 6.65537E-01
 -1      3143 8.85165E-01
 -1      3144 5.75186E-01
 -1      3145 5.12285E-01
 -1      3146 6.85176E-01
 -1      3147 4.39517E-01
 -1      3148 3.88747E-01
 -1      3149 5.22057E-01
 -1      3150 3.31745E-01
 -1      3151 2.91226E-01
 -1      3152 3.92287E-01
 -1      3153 2.47930E-01
 -1      3154 2.16000E-01
 -1      3155 2.91989E-01
 -1      3156 1.82385E-01
 -1      3157 1.57570E-01
 -1      3158 2.15079E-01
 -1      3159 1.31821E-01
 -1      3160 1.12829E-01
 -1      3161 1.55714E-01
 -1      3162 9.33657E-02
 -1      3163 7.90743E-02
 -1      3164 1.10501E-01
 -1      3165 6.52698E-02
 -1      3166 5.47517E-02
 -1      3167 7.72331E-02
 -1      3168 4.58264E-02
 -1      3169 3.81775E-02
 -1      3170 5.45033E-02
 -1      3171 2.54362E-02
 -1      3172 1.90150E-02
 -1      3173 1.65319E-02
 -1      3174 3.28368E-02
 -1      3175 4.84499E+00
 -1      3176 3.85365E-01
 -1      3177 3.31056E-01
 -1      3178 2.75576E-01
 -1      3179 2.26797E-01
 -1      3180 2.99895E-01
 -1      3181 6.04223E-01
 -1      3182 5.63818E-01
 -1      3183 7.28550E-01
 -1      3184 6.69849E-01
 -1      3185 6.77518E-01
 -1      3186 8.70486E-01
 -1      3187 8.13159E-01
 -1      3188 8.27752E-01
 -1      3189 1.02389E+00
 -1      3190 9.86713E-01
 -1      3191 1.02859E+00
 -1      3192 1.22363E+00
 -1      3193 1.13920E+00
 -1      3194 1.26013E+00
 -1      3195 1.46766E+00
 -1      3196 1.34763E+00
 -1      3197 1.49943E+00
 -1      3198 1.87023E+00
 -1      3199 1.82774E+00
 -1      3200 1.98351E+00
 -1      3201 1.82573E+00
 -1      3202 1.75897E+00
 -1      3203 2.23234E+00
 -1      3204 2.80381E+00
 -1      3205 2.14038E+00
 -1      3206 2.43573E+00
 -1      3207 4.74196E+00
 -1      3208 3.79960E+00
 -1      3209 4.14833E+00
 -1      3210 4.89489E+00
 -1      3211 1.81010E+00
 -1      3212 2.09313E+00
 -1      3213 1.76790E+00
 -1      3214 1.69357E+00
 -1      3215 1.97660E+00
 -1      3216 1.47021E+00
 -1      3217 1.67572E+00
 -1      3218 1.76790E+00
 -1      3219 1.53235E+00
 -1      3220 1.56819E+00
 -1      3221 1.77370E+00
 -1      3222 1.20575E+00
 -1      3223 1.33752E+00
 -1      3224 1.67685E+00
 -1      3225 1.07512E+00
 -1      3226 1.09295E+00
 -1      3227 1.36922E+00
 -1      3228 9.32117E-01
 -1      3229 9.75168E-01
 -1      3230 1.15646E+00
 -1      3231 7.74284E-01
 -1      3232 8.29141E-01
 -1      3233 9.53529E-01
 -1      3234 6.78980E-01
 -1      3235 7.16134E-01
 -1      3236 7.92405E-01
 -1      3237 5.81052E-01
 -1      3238 6.20353E-01
 -1      3239 6.75628E-01
 -1      3240 4.85707E-01
 -1      3241 5.27142E-01
 -1      3242 5.63090E-01
 -1      3243 3.94444E-01
 -1      3244 4.35709E-01
 -1      3245 4.59182E-01
 -1      3246 3.12691E-01
 -1      3247 3.50825E-01
 -1      3248 3.65564E-01
 -1      3249 2.43538E-01
 -1      3250 2.77007E-01
 -1      3251 2.86261E-01
 -1      3252 1.85937E-01
 -1      3253 2.14186E-01
 -1      3254 2.21225E-01
 -1      3255 1.39146E-01
 -1      3256 1.62237E-01
 -1      3257 1.68173E-01
 -1      3258 1.01998E-01
 -1      3259 1.20347E-01
 -1      3260 1.25673E-01
 -1      3261 7.31576E-02
 -1      3262 8.73603E-02
 -1      3263 9.22368E-02
 -1      3264 5.12723E-02
 -1      3265 6.19837E-02
 -1      3266 6.64255E-02
 -1      3267 3.50669E-02
 -1      3268 4.29051E-02
 -1      3269 4.68844E-02
 -1      3270 2.31612E-02
 -1      3271 2.88343E-02
 -1      3272 3.22845E-02
 -1      3273 1.39835E-02
 -1      3274 1.81295E-02
 -1      3275 2.10202E-02
 -1      3276 1.37206E-02
 -1      3277 8.22845E+00
 -1      3278 7.40332E+00
 -1      3279 3.05152E-01
 -1      3280 2.91977E-01
 -1      3281 2.27921E-02
 -1      3282 2.33264E-02
 -1      3283 2.29920E-02
 -1      3284 2.29131E-02
 -1      3285 2.33816E-02
 -1      3286 2.56725E-02
 -1      3287 3.00802E-02
 -1      3288 2.33264E-02
 -1      3289 2.33264E-02
 -1      3290 2.68653E-02
 -1      3291 2.71998E-02
 -1      3292 9.08075E+00
 -1      3293 1.18258E+01
 -1      3294 2.43948E+00
 -1      3295 2.88691E+00
 -1      3296 4.97586E-01
 -1      3297 4.47392E-01
 -1      3298 4.17402E-01
 -1      3299 5.45661E-01
 -1      3300 1.25216E+01
 -1      3301 1.36999E+01
 -1      3302 2.40815E-01
 -1      3303 2.84873E-01
 -1      3304 1.86969E-01
 -1      3305 2.10103E-01
 -1      3306 1.62846E-01
 -1      3307 1.09537E+01
 -1      3308 1.25909E+01
 -1      3309 1.02225E+01
 -1      3310 2.39388E-01
 -1      3311 2.15282E-01
 -1      3312 1.41160E-01
 -1      3313 1.28816E+01
 -1      3314 1.25216E+01
 -1      3315 3.27302E+00
 -1      3316 2.87385E+00
 -1      3317 9.95859E+00
 -1      3318 8.76316E+00
 -1      3319 6.76537E+00
 -1      3320 4.64478E+00
 -1      3321 3.80605E+00
 -1      3322 3.79915E-01
 -1      3323 3.01730E-01
 -1      3324 2.52729E-01
 -1      3325 3.56310E-01
 -1      3326 1.30462E+01
 -1      3327 1.04419E+01
 -1      3328 1.36830E+01
 -1      3329 1.06969E+01
 -1      3330 4.71817E-01
 -1      3331 2.81777E-01
 -1      3332 2.81235E-01
 -1      3333 2.55201E-01
 -1      3334 1.11759E+01
 -1      3335 1.05216E+01
 -1      3336 6.13731E+00
 -1      3337 2.91798E+00
 -1      3338 3.71248E+00
 -1      3339 4.81061E+00
 -1      3340 8.76123E+00
 -1      3341 6.82984E+00
 -1      3342 7.83690E+00
 -1      3343 3.54016E+00
 -1      3344 6.03991E+00
 -1      3345 1.99362E-02
 -1      3346 1.78927E-02
 -1      3347 3.14836E-01
 -1      3348 3.36062E-01
 -1      3349 8.91792E+00
 -1      3350 3.20522E-01
 -1      3351 3.00517E-01
 -1      3352 2.12298E-01
 -1      3353 3.24885E+00
 -1      3354 4.14833E+00
 -1      3355 4.56014E+00
 -1      3356 2.67099E+00
 -1      3357 2.61167E-01
 -1      3358 3.16184E-01
 -1      3359 3.16184E-01
 -1      3360 1.00549E+01
 -1      3361 2.88508E+00
 -1      3362 3.83158E-01
 -1      3363 1.07086E+01
 -1      3364 5.24517E+00
 -1      3365 6.95873E+00
 -1      3366 6.47504E+00
 -1      3367 1.41981E-01
 -1      3368 1.75669E-01
 -1      3369 1.20835E-01
 -1      3370 2.04132E-01
 -1      3371 1.86515E-01
 -1      3372 1.69138E-01
 -1      3373 2.67099E+00
 -1      3374 7.33345E+00
 -1      3375 3.08607E-01
 -1      3376 2.68856E-01
 -1      3377 3.16184E-01
 -1      3378 2.28639E-02
 -1      3379 2.21757E-02
 -1      3380 2.41928E-02
 -1      3381 9.65281E+00
 -1      3382 2.28639E-02
 -1      3383 2.28639E-02
 -1      3384 2.64323E-02
 -1      3385 2.64816E-02
 -1      3386 3.09816E+00
 -1      3387 4.89489E+00
 -1      3388 6.11411E+00
 -1      3389 4.09402E+00
 -1      3390 5.61928E+00
 -1      3391 8.98532E+00
 -1      3392 7.61692E+00
 -1      3393 6.51645E+00
 -1      3394 2.35205E+00
 -1      3395 9.13236E+00
 -1      3396 6.43683E+00
 -1      3397 1.79638E-02
 -1      3398 1.83809E-02
 -1      3399 2.79599E-02
 -1      3400 2.15273E-02
 -1      3401 2.90010E-01
 -1      3402 3.30509E-01
 -1      3403 2.29633E-01
 -1      3404 1.98695E-01
 -1      3405 3.08046E-01
 -1      3406 3.14589E-01
 -1      3407 2.73180E-01
 -1      3408 6.86001E+00
 -1      3409 5.74010E+00
 -1      3410 5.74010E+00
 -1      3411 7.11295E+00
 -1      3412 5.53834E+00
 -1      3413 7.59625E+00
 -1      3414 7.67218E+00
 -1      3415 8.72794E+00
 -1      3416 2.73427E-01
 -1      3417 3.36062E-01
 -1      3418 7.38435E+00
 -1      3419 1.54038E-01
 -1      3420 1.82693E-01
 -1      3421 2.16022E-01
 -1      3422 2.59190E-01
 -1      3423 2.18631E-01
 -1      3424 3.11044E-01
 -1      3425 3.68834E-01
 -1      3426 3.03813E-01
 -1      3427 4.46086E-01
 -1      3428 5.26601E-01
 -1      3429 4.32918E-01
 -1      3430 6.23690E-01
 -1      3431 7.20437E-01
 -1      3432 6.07259E-01
 -1      3433 8.42901E-01
 -1      3434 9.52558E-01
 -1      3435 8.26812E-01
 -1      3436 1.10824E+00
 -1      3437 1.26065E+00
 -1      3438 1.10496E+00
 -1      3439 1.45781E+00
 -1      3440 1.66853E+00
 -1      3441 1.45781E+00
 -1      3442 1.97608E+00
 -1      3443 2.30208E+00
 -1      3444 1.96252E+00
 -1      3445 2.77131E+00
 -1      3446 3.25385E+00
 -1      3447 2.73930E+00
 -1      3448 3.99731E+00
 -1      3449 4.69547E+00
 -1      3450 3.95200E+00
 -1      3451 6.82984E+00
 -1      3452 6.40487E+00
 -1      3453 5.90125E+00
 -1      3454 2.54400E+00
 -1      3455 2.44603E+00
 -1      3456 4.71512E+00
 -1      3457 4.14451E+00
 -1      3458 3.70485E+00
 -1      3459 5.22067E+00
 -1      3460 2.75964E+00
 -1      3461 2.45910E+00
 -1      3462 3.70485E+00
 -1      3463 2.15857E+00
 -1      3464 1.90911E+00
 -1      3465 2.45910E+00
 -1      3466 1.65966E+00
 -1      3467 1.46732E+00
 -1      3468 1.90911E+00
 -1      3469 1.27499E+00
 -1      3470 1.13490E+00
 -1      3471 1.46732E+00
 -1      3472 9.87489E-01
 -1      3473 8.77851E-01
 -1      3474 1.12758E+00
 -1      3475 7.64038E-01
 -1      3476 6.73686E-01
 -1      3477 8.66361E-01
 -1      3478 5.85081E-01
 -1      3479 5.12313E-01
 -1      3480 6.63942E-01
 -1      3481 4.42997E-01
 -1      3482 3.85994E-01
 -1      3483 5.06020E-01
 -1      3484 3.31747E-01
 -1      3485 2.88451E-01
 -1      3486 3.82456E-01
 -1      3487 2.46161E-01
 -1      3488 2.12546E-01
 -1      3489 2.85918E-01
 -1      3490 1.79817E-01
 -1      3491 1.54067E-01
 -1      3492 2.10899E-01
 -1      3493 1.29000E-01
 -1      3494 1.09536E-01
 -1      3495 1.53102E-01
 -1      3496 9.06127E-02
 -1      3497 7.68082E-02
 -1      3498 1.09111E-01
 -1      3499 6.34286E-02
 -1      3500 5.45033E-02
 -1      3501 7.68082E-02
 -1      3502 1.20292E+00
 -1      3503 1.08669E+00
 -1      3504 9.57743E-01
 -1      3505 8.73135E-01
 -1      3506 1.13208E+00
 -1      3507 7.53135E-01
 -1      3508 6.87509E-01
 -1      3509 8.83126E-01
 -1      3510 1.47815E+00
 -1      3511 1.36284E+00
 -1      3512 1.42095E+00
 -1      3513 2.11752E+00
 -1      3514 1.99353E+00
 -1      3515 2.09624E+00
 -1      3516 2.55530E+00
 -1      3517 2.19521E+00
 -1      3518 2.68931E+00
 -1      3519 2.54436E+00
 -1      3520 2.22971E+00
 -1      3521 3.74617E+00
 -1      3522 2.01383E+00
 -1      3523 2.20866E+00
 -1      3524 2.88099E+00
 -1      3525 1.49099E+00
 -1      3526 1.60379E+00
 -1      3527 2.13561E+00
 -1      3528 1.21871E+00
 -1      3529 1.31866E+00
 -1      3530 1.55324E+00
 -1      3531 1.00164E+00
 -1      3532 1.10462E+00
 -1      3533 1.26682E+00
 -1      3534 8.25238E-01
 -1      3535 8.83387E-01
 -1      3536 1.03447E+00
 -1      3537 6.65193E-01
 -1      3538 7.23820E-01
 -1      3539 8.14802E-01
 -1      3540 5.35966E-01
 -1      3541 5.89877E-01
 -1      3542 6.38069E-01
 -1      3543 4.31122E-01
 -1      3544 4.81120E-01
 -1      3545 5.07907E-01
 -1      3546 3.46270E-01
 -1      3547 3.89889E-01
 -1      3548 4.11828E-01
 -1      3549 2.73215E-01
 -1      3550 3.08899E-01
 -1      3551 3.33224E-01
 -1      3552 2.11119E-01
 -1      3553 2.40471E-01
 -1      3554 2.63110E-01
 -1      3555 1.59828E-01
 -1      3556 1.83529E-01
 -1      3557 2.02775E-01
 -1      3558 1.18488E-01
 -1      3559 1.37287E-01
 -1      3560 1.52644E-01
 -1      3561 8.59077E-02
 -1      3562 1.00545E-01
 -1      3563 1.12159E-01
 -1      3564 6.08879E-02
 -1      3565 7.20618E-02
 -1      3566 8.03700E-02
 -1      3567 4.24543E-02
 -1      3568 5.08215E-02
 -1      3569 5.64578E-02
 -1      3570 2.86231E-02
 -1      3571 3.48557E-02
 -1      3572 3.87928E-02
 -1      3573 3.44336E-01
 -1      3574 2.88855E-01
 -1      3575 6.65241E+00
 -1      3576 9.76895E+00
 -1      3577 1.65584E-02
 -1      3578 1.53687E-02
 -1      3579 1.76366E-02
 -1      3580 2.06190E-02
 -1      3581 3.37423E+00
 -1      3582 2.61441E+00
 -1      3583 2.50578E+00
 -1      3584 3.61027E+00
 -1      3585 3.92693E-02
 -1      3586 3.63889E-02
 -1      3587 8.49518E+00
 -1      3588 9.13236E+00
 -1      3589 1.19866E-01
 -1      3590 1.50578E-01
 -1      3591 1.04644E+01
 -1      3592 1.24420E+01
 -1      3593 8.53157E+00
 -1      3594 6.59518E+00
 -1      3595 2.21837E+00
 -1      3596 2.21837E+00
 -1      3597 2.90597E-01
 -1      3598 3.03443E-01
 -1      3599 2.68330E-01
 -1      3600 9.03537E+00
 -1      3601 8.38169E+00
 -1      3602 6.57672E+00
 -1      3603 3.33348E+00
 -1      3604 1.42358E-01
 -1      3605 1.32349E-01
 -1      3606 1.36319E-01
 -1      3607 1.32130E-01
 -1      3608 1.63394E-01
 -1      3609 7.40505E+00
 -1      3610 9.03537E+00
 -1      3611 9.03537E+00
 -1      3612 7.36217E+00
 -1      3613 4.41340E+00
 -1      3614 5.45033E-02
 -1      3615 4.55780E-02
 -1      3616 8.16213E+00
 -1      3617 6.22648E+00
 -1      3618 6.97507E+00
 -1      3619 6.05020E+00
 -1      3620 3.92693E-02
 -1      3621 7.06951E+00
 -1      3622 5.97938E+00
 -1      3623 5.10113E+00
 -1      3624 7.05474E+00
 -1      3625 6.47989E+00
 -1      3626 6.47989E+00
 -1      3627 5.72725E+00
 -1      3628 4.82249E+00
 -1      3629 5.32611E+00
 -1      3630 4.03690E+00
 -1      3631 2.61704E+00
 -1      3632 3.32758E-02
 -1      3633 3.29413E-02
 -1      3634 6.71148E-01
 -1      3635 5.95531E-01
 -1      3636 5.29299E-01
 -1      3637 5.74521E+00
 -1      3638 4.85306E+00
 -1      3639 5.34800E+00
 -1      3640 1.36693E-01
 -1      3641 2.45136E-01
 -1      3642 2.04854E-01
 -1      3643 2.89577E-01
 -1      3644 2.82874E+00
 -1      3645 4.52017E-02
 -1      3646 3.87912E-02
 -1      3647 3.87419E-02
 -1      3648 2.65738E-02
 -1      3649 2.52395E-02
 -1      3650 2.72311E-01
 -1      3651 2.10606E+00
 -1      3652 2.22259E+00
 -1      3653 4.03012E-01
 -1      3654 3.91972E-01
 -1      3655 4.65039E-01
 -1      3656 2.26683E-02
 -1      3657 2.75562E+00
 -1      3658 4.34873E-02
 -1      3659 4.81077E-02
 -1      3660 1.97238E+00
 -1      3661 4.57268E-02
 -1      3662 3.32758E-02
 -1      3663 3.32758E-02
 -1      3664 3.93518E-02
 -1      3665 6.03991E+00
 -1      3666 2.08623E-01
 -1      3667 1.47494E-01
 -1      3668 1.38683E-01
 -1      3669 2.08623E-01
 -1      3670 1.33054E-01
 -1      3671 1.20786E-01
 -1      3672 1.21755E-01
 -1      3673 1.19575E-01
 -1      3674 1.62554E-01
 -1      3675 2.12976E-01
 -1      3676 2.13223E-01
 -1      3677 1.48419E-01
 -1      3678 6.92115E+00
 -1      3679 1.67692E-01
 -1      3680 2.54364E-01
 -1      3681 4.24649E-02
 -1      3682 1.37517E-01
 -1      3683 2.29377E-01
 -1      3684 2.25923E-01
 -1      3685 4.85306E+00
 -1      3686 1.82947E-01
 -1      3687 2.22425E-01
 -1      3688 2.12225E-01
 -1      3689 2.11730E-01
 -1      3690 2.09024E-01
 -1      3691 2.20168E-01
 -1      3692 1.85929E-01
 -1      3693 2.57981E+00
 -1      3694 2.67199E+00
 -1      3695 3.35012E+00
 -1      3696 6.13062E-02
 -1      3697 5.23809E-02
 -1      3698 4.92678E-02
 -1      3699 5.45373E+00
 -1      3700 5.12850E+00
 -1      3701 5.12850E+00
 -1      3702 4.36114E+00
 -1      3703 5.05825E+00
 -1      3704 2.75309E-01
 -1      3705 3.27162E-01
 -1      3706 3.90581E-01
 -1      3707 4.67833E-01
 -1      3708 3.62077E-01
 -1      3709 5.50185E-01
 -1      3710 6.47274E-01
 -1      3711 5.07848E-01
 -1      3712 7.57587E-01
 -1      3713 8.80051E-01
 -1      3714 7.00513E-01
 -1      3715 1.03339E+00
 -1      3716 1.18907E+00
 -1      3717 9.64162E-01
 -1      3718 1.41346E+00
 -1      3719 1.61062E+00
 -1      3720 1.34189E+00
 -1      3721 1.96252E+00
 -1      3722 2.27007E+00
 -1      3723 1.91817E+00
 -1      3724 2.73930E+00
 -1      3725 3.20854E+00
 -1      3726 2.73930E+00
 -1      3727 1.26206E-01
 -1      3728 1.21070E-01
 -1      3729 1.30806E-01
 -1      3730 3.53933E+00
 -1      3731 3.94937E+00
 -1      3732 6.00611E+00
 -1      3733 4.61790E+00
 -1      3734 3.67269E+00
 -1      3735 2.60272E+00
 -1      3736 2.30218E+00
 -1      3737 3.51576E+00
 -1      3738 1.92149E+00
 -1      3739 1.67203E+00
 -1      3740 2.06510E+00
 -1      3741 1.42888E+00
 -1      3742 1.23655E+00
 -1      3743 1.44126E+00
 -1      3744 1.07713E+00
 -1      3745 9.29725E-01
 -1      3746 1.03869E+00
 -1      3747 8.19633E-01
 -1      3748 7.05820E-01
 -1      3749 7.69185E-01
 -1      3750 6.26103E-01
 -1      3751 5.37497E-01
 -1      3752 5.79375E-01
 -1      3753 4.77720E-01
 -1      3754 4.08404E-01
 -1      3755 4.39881E-01
 -1      3756 3.62540E-01
 -1      3757 3.08293E-01
 -1      3758 3.34241E-01
 -1      3759 2.72700E-01
 -1      3760 2.30409E-01
 -1      3761 2.52784E-01
 -1      3762 2.02713E-01
 -1      3763 1.69984E-01
 -1      3764 1.89494E-01
 -1      3765 1.48517E-01
 -1      3766 1.23449E-01
 -1      3767 1.40331E-01
 -1      3768 1.07048E-01
 -1      3769 8.81248E-02
 -1      3770 1.02463E-01
 -1      3771 7.70325E-02
 -1      3772 6.36530E-02
 -1      3773 6.15306E-02
 -1      3774 7.49696E-02
 -1      3775 2.55845E+00
 -1      3776 2.04307E+00
 -1      3777 3.42686E-02
 -1      3778 1.77037E+00
 -1      3779 1.61045E+00
 -1      3780 2.23258E+00
 -1      3781 1.00168E+00
 -1      3782 8.81675E-01
 -1      3783 3.25537E+00
 -1      3784 3.17767E+00
 -1      3785 5.64984E+00
 -1      3786 5.64984E+00
 -1      3787 2.29377E-01
 -1      3788 2.29377E-01
 -1      3789 1.86444E-01
 -1      3790 2.57273E+00
 -1      3791 2.74506E+00
 -1      3792 4.55882E+00
 -1      3793 1.74395E+00
 -1      3794 1.85804E+00
 -1      3795 3.04986E+00
 -1      3796 1.05005E+00
 -1      3797 1.16830E+00
 -1      3798 1.75953E+00
 -1      3799 7.98121E-01
 -1      3800 8.99539E-01
 -1      3801 1.03337E+00
 -1      3802 6.24347E-01
 -1      3803 6.99662E-01
 -1      3804 7.84400E-01
 -1      3805 5.07907E-01
 -1      3806 5.62753E-01
 -1      3807 6.24347E-01
 -1      3808 4.11828E-01
 -1      3809 4.53061E-01
 -1      3810 5.07907E-01
 -1      3811 3.27153E-01
 -1      3812 3.64524E-01
 -1      3813 4.05757E-01
 -1      3814 2.54689E-01
 -1      3815 2.87433E-01
 -1      3816 3.18733E-01
 -1      3817 1.94411E-01
 -1      3818 2.22001E-01
 -1      3819 2.46325E-01
 -1      3820 1.45442E-01
 -1      3821 1.67983E-01
 -1      3822 1.87209E-01
 -1      3823 1.06501E-01
 -1      3824 1.24444E-01
 -1      3825 1.39784E-01
 -1      3826 7.62291E-02
 -1      3827 9.00750E-02
 -1      3828 1.02360E-01
 -1      3829 5.75064E-02
 -1      3830 6.75727E-02
 -1      3831 7.72777E-02
 -1      3832 5.57063E-02
 -1      3833 2.08332E-01
 -1      3834 2.17695E-01
 -1      3835 1.75556E-01
 -1      3836 1.13042E-01
 -1      3837 1.25018E-01
 -1      3838 5.71021E+00
 -1      3839 6.40562E+00
 -1      3840 6.03618E+00
 -1      3841 1.72424E-01
 -1      3842 1.45266E-01
 -1      3843 2.13428E-01
 -1      3844 4.69523E-02
 -1      3845 4.69523E-02
 -1      3846 5.68683E-02
 -1      3847 2.17695E-01
 -1      3848 2.22298E-01
 -1      3849 1.62341E-01
 -1      3850 1.71663E-01
 -1      3851 4.27961E+00
 -1      3852 5.35310E+00
 -1      3853 4.57268E-02
 -1      3854 4.57268E-02
 -1      3855 5.80364E-02
 -1      3856 1.55455E-01
 -1      3857 1.77362E-01
 -1      3858 1.31634E+00
 -1      3859 1.18739E+00
 -1      3860 1.18593E+00
 -1      3861 1.66576E+00
 -1      3862 3.94427E+00
 -1      3863 6.50212E-02
 -1      3864 2.00484E-01
 -1      3865 2.33813E-01
 -1      3866 1.92544E-01
 -1      3867 1.49788E-01
 -1      3868 1.33547E-01
 -1      3869 1.37517E-01
 -1      3870 1.51485E-01
 -1      3871 1.21070E-01
 -1      3872 5.34241E+00
 -1      3873 5.64984E+00
 -1      3874 3.93751E+00
 -1      3875 3.65335E+00
 -1      3876 6.68212E-02
 -1      3877 4.88529E+00
 -1      3878 3.78731E+00
 -1      3879 4.65265E+00
 -1      3880 3.66069E+00
 -1      3881 6.12346E+00
 -1      3882 5.19830E+00
 -1      3883 4.64501E+00
 -1      3884 3.56625E+00
 -1      3885 3.87225E+00
 -1      3886 7.59110E-01
 -1      3887 6.67131E-01
 -1      3888 8.77659E-01
 -1      3889 4.02520E+00
 -1      3890 4.02520E+00
 -1      3891 4.76866E+00
 -1      3892 6.68212E-02
 -1      3893 6.86213E-02
 -1      3894 6.68212E-02
 -1      3895 5.14908E-01
 -1      3896 5.97395E+00
 -1      3897 3.54853E+00
 -1      3898 3.33297E-01
 -1      3899 2.89577E-01
 -1      3900 4.69779E+00
 -1      3901 3.96526E-02
 -1      3902 4.55025E-02
 -1      3903 4.72531E-02
 -1      3904 4.98475E+00
 -1      3905 5.15728E+00
 -1      3906 1.46183E-01
 -1      3907 1.46183E-01
 -1      3908 4.50648E-01
 -1      3909 3.91972E-01
 -1      3910 3.91972E-01
 -1      3911 5.00178E+00
 -1      3912 3.33536E+00
 -1      3913 4.48624E+00
 -1      3914 4.96771E+00
 -1      3915 1.22435E-01
 -1      3916 1.27878E-01
 -1      3917 1.35622E-01
 -1      3918 1.57486E-01
 -1      3919 1.58998E-01
 -1      3920 1.77235E-01
 -1      3921 2.57162E-01
 -1      3922 5.34800E+00
 -1      3923 1.46183E-01
 -1      3924 1.42685E-01
 -1      3925 1.05922E-01
 -1      3926 5.35310E+00
 -1      3927 4.65265E+00
 -1      3928 3.00019E+00
 -1      3929 2.94702E+00
 -1      3930 4.62459E+00
 -1      3931 3.07388E+00
 -1      3932 2.78238E+00
 -1      3933 4.32296E+00
 -1      3934 4.67939E+00
 -1      3935 4.10941E+00
 -1      3936 3.50629E+00
 -1      3937 2.78429E+00
 -1      3938 3.32508E-01
 -1      3939 3.95927E-01
 -1      3940 4.49174E-01
 -1      3941 5.31525E-01
 -1      3942 4.19605E-01
 -1      3943 6.02836E-01
 -1      3944 7.13148E-01
 -1      3945 5.44161E-01
 -1      3946 8.08656E-01
 -1      3947 9.61992E-01
 -1      3948 7.10979E-01
 -1      3949 1.12131E+00
 -1      3950 1.34570E+00
 -1      3951 9.65806E-01
 -1      3952 1.61774E+00
 -1      3953 1.96964E+00
 -1      3954 1.39717E+00
 -1      3955 2.33038E+00
 -1      3956 2.79961E+00
 -1      3957 2.02995E+00
 -1      3958 1.24133E-01
 -1      3959 1.01920E-01
 -1      3960 1.33456E-01
 -1      3961 1.52465E-01
 -1      3962 1.12203E-01
 -1      3963 2.08993E+00
 -1      3964 1.70924E+00
 -1      3965 1.41211E+00
 -1      3966 1.16896E+00
 -1      3967 1.43694E+00
 -1      3968 1.01251E+00
 -1      3969 8.53089E-01
 -1      3970 9.83359E-01
 -1      3971 7.47749E-01
 -1      3972 6.37657E-01
 -1      3973 7.21561E-01
 -1      3974 5.62769E-01
 -1      3975 4.83051E-01
 -1      3976 5.41333E-01
 -1      3977 4.27839E-01
 -1      3978 3.68062E-01
 -1      3979 4.11232E-01
 -1      3980 3.26419E-01
 -1      3981 2.80555E-01
 -1      3982 3.14377E-01
 -1      3983 2.48312E-01
 -1      3984 2.12718E-01
 -1      3985 2.40490E-01
 -1      3986 1.87507E-01
 -1      3987 1.59811E-01
 -1      3988 1.83035E-01
 -1      3989 1.40044E-01
 -1      3990 1.18577E-01
 -1      3991 1.38057E-01
 -1      3992 1.03383E-01
 -1      3993 8.69825E-02
 -1      3994 1.03097E-01
 -1      3995 2.50528E+00
 -1      3996 2.23258E+00
 -1      3997 3.85837E+00
 -1      3998 1.65318E+00
 -1      3999 2.22882E+00
 -1      4000 2.90831E-01
 -1      4001 2.47111E-01
 -1      4002 2.14681E-01
 -1      4003 1.12231E+00
 -1      4004 1.27282E+00
 -1      4005 1.74211E+00
 -1      4006 8.47952E-01
 -1      4007 9.46411E-01
 -1      4008 1.18586E+00
 -1      4009 6.64855E-01
 -1      4010 7.26449E-01
 -1      4011 8.88460E-01
 -1      4012 5.18978E-01
 -1      4013 5.73824E-01
 -1      4014 6.75926E-01
 -1      4015 4.02673E-01
 -1      4016 4.49977E-01
 -1      4017 5.15894E-01
 -1      4018 3.09910E-01
 -1      4019 3.49630E-01
 -1      4020 3.93851E-01
 -1      4021 2.36067E-01
 -1      4022 2.68755E-01
 -1      4023 2.99652E-01
 -1      4024 1.77577E-01
 -1      4025 2.04005E-01
 -1      4026 2.26435E-01
 -1      4027 1.31600E-01
 -1      4028 1.52598E-01
 -1      4029 1.69393E-01
 -1      4030 9.53956E-02
 -1      4031 1.11821E-01
 -1      4032 1.24636E-01
 -1      4033 7.08675E-02
 -1      4034 7.95239E-02
 -1      4035 8.89855E-02
 -1      4036 7.08675E-02
 -1      4037 1.42006E-01
 -1      4038 1.38113E-01
 -1      4039 1.05242E-01
 -1      4040 3.93331E+00
 -1      4041 4.48624E+00
 -1      4042 3.45184E+00
 -1      4043 2.46535E-01
 -1      4044 2.88032E-01
 -1      4045 3.21882E-01
 -1      4046 6.02431E-02
 -1      4047 5.79276E-02
 -1      4048 6.25899E-02
 -1      4049 5.10515E-02
 -1      4050 5.80364E-02
 -1      4051 5.98364E-02
 -1      4052 4.55025E-02
 -1      4053 2.94702E+00
 -1      4054 1.91977E-01
 -1      4055 2.15099E-01
 -1      4056 2.45969E-01
 -1      4057 1.84933E-01
 -1      4058 1.61421E-01
 -1      4059 1.63069E-01
 -1      4060 2.18616E-01
 -1      4061 5.89905E-01
 -1      4062 5.25644E-01
 -1      4063 5.25644E-01
 -1      4064 6.77867E-01
 -1      4065 3.43051E+00
 -1      4066 1.18485E-01
 -1      4067 1.12203E-01
 -1      4068 1.27878E-01
 -1      4069 3.14369E+00
 -1      4070 3.03733E+00
 -1      4071 3.62795E+00
 -1      4072 3.68080E+00
 -1      4073 2.61083E+00
 -1      4074 5.17200E+00
 -1      4075 1.35144E-01
 -1      4076 1.41817E-01
 -1      4077 1.54294E-01
 -1      4078 1.00022E+00
 -1      4079 8.77659E-01
 -1      4080 2.15902E+00
 -1      4081 5.35310E+00
 -1      4082 2.03855E+00
 -1      4083 1.76585E+00
 -1      4084 1.47173E+00
 -1      4085 7.64292E-02
 -1      4086 6.53370E-02
 -1      4087 6.40495E-02
 -1      4088 7.73498E-02
 -1      4089 3.09737E+00
 -1      4090 4.26162E+00
 -1      4091 3.35669E+00
 -1      4092 1.21155E+00
 -1      4093 1.21155E+00
 -1      4094 1.39726E+00
 -1      4095 3.35669E+00
 -1      4096 5.00190E-02
 -1      4097 4.27193E-02
 -1      4098 5.33938E-02
 -1      4099 3.23100E-01
 -1      4100 2.80634E-01
 -1      4101 4.35830E-01
 -1      4102 3.77154E-01
 -1      4103 3.66957E-01
 -1      4104 2.86208E+00
 -1      4105 2.25497E+00
 -1      4106 1.29406E-01
 -1      4107 1.29406E-01
 -1      4108 9.11980E-02
 -1      4109 9.58553E-02
 -1      4110 3.07253E+00
 -1      4111 3.35669E+00
 -1      4112 2.77587E+00
 -1      4113 2.48572E+00
 -1      4114 1.12203E-01
 -1      4115 1.72232E-01
 -1      4116 1.94786E-01
 -1      4117 2.69536E+00
 -1      4118 2.33856E+00
 -1      4119 1.87183E+00
 -1      4120 2.81185E+00
 -1      4121 1.75419E+00
 -1      4122 1.45707E+00
 -1      4123 4.05150E-01
 -1      4124 4.58396E-01
 -1      4125 1.11440E-01
 -1      4126 1.51337E-01
 -1      4127 1.07390E-01
 -1      4128 1.37427E-01
 -1      4129 1.31145E-01
 -1      4130 1.99733E+00
 -1      4131 2.03388E+00
 -1      4132 1.61697E+00
 -1      4133 5.14084E-01
 -1      4134 5.85394E-01
 -1      4135 4.99629E-01
 -1      4136 6.61832E-01
 -1      4137 7.57340E-01
 -1      4138 6.31755E-01
 -1      4139 8.86357E-01
 -1      4140 1.04568E+00
 -1      4141 8.37211E-01
 -1      4142 1.31015E+00
 -1      4143 1.58219E+00
 -1      4144 1.23070E+00
 -1      4145 1.98594E+00
 -1      4146 2.34668E+00
 -1      4147 1.89892E+00
 -1      4148 3.07796E-01
 -1      4149 3.52273E-01
 -1      4150 3.91064E-01
 -1      4151 2.92127E+00
 -1      4152 1.16130E+00
 -1      4153 1.00484E+00
 -1      4154 1.47855E+00
 -1      4155 8.27054E-01
 -1      4156 7.21714E-01
 -1      4157 1.00499E+00
 -1      4158 6.03627E-01
 -1      4159 5.28739E-01
 -1      4160 7.09120E-01
 -1      4161 4.48245E-01
 -1      4162 3.93033E-01
 -1      4163 5.10540E-01
 -1      4164 3.40881E-01
 -1      4165 2.99238E-01
 -1      4166 3.77894E-01
 -1      4167 2.61889E-01
 -1      4168 2.29645E-01
 -1      4169 2.88394E-01
 -1      4170 2.00232E-01
 -1      4171 1.75021E-01
 -1      4172 2.21632E-01
 -1      4173 1.51744E-01
 -1      4174 1.31978E-01
 -1      4175 1.68942E-01
 -1      4176 1.13557E-01
 -1      4177 9.83632E-02
 -1      4178 1.27244E-01
 -1      4179 2.34615E-01
 -1      4180 2.66052E-01
 -1      4181 2.96443E-01
 -1      4182 2.87726E+00
 -1      4183 1.22820E+00
 -1      4184 1.40410E+00
 -1      4185 1.65931E+00
 -1      4186 8.92536E-01
 -1      4187 1.01404E+00
 -1      4188 1.23228E+00
 -1      4189 6.63923E-01
 -1      4190 7.54954E-01
 -1      4191 8.80533E-01
 -1      4192 4.99152E-01
 -1      4193 5.68152E-01
 -1      4194 6.47181E-01
 -1      4195 3.77226E-01
 -1      4196 4.30269E-01
 -1      4197 4.82527E-01
 -1      4198 2.85036E-01
 -1      4199 3.26191E-01
 -1      4200 3.62609E-01
 -1      4201 2.14380E-01
 -1      4202 2.46442E-01
 -1      4203 2.72981E-01
 -1      4204 1.59872E-01
 -1      4205 1.84851E-01
 -1      4206 2.04858E-01
 -1      4207 1.17439E-01
 -1      4208 1.37217E-01
 -1      4209 1.52675E-01
 -1      4210 1.30465E-01
 -1      4211 2.87726E+00
 -1      4212 2.87726E+00
 -1      4213 2.23726E+00
 -1      4214 2.30268E+00
 -1      4215 2.25497E+00
 -1      4216 2.77263E-01
 -1      4217 2.44994E-01
 -1      4218 2.15245E-01
 -1      4219 8.77659E-01
 -1      4220 7.55093E-01
 -1      4221 6.77867E-01
 -1      4222 1.75041E-01
 -1      4223 1.94786E-01
 -1      4224 2.14870E-01
 -1      4225 1.51337E-01
 -1      4226 1.55904E-01
 -1      4227 1.46511E-01
 -1      4228 1.65453E-01
 -1      4229 1.81703E-01
 -1      4230 1.45902E+00
 -1      4231 1.24770E+00
 -1      4232 1.82325E+00
 -1      4233 1.98494E+00
 -1      4234 2.27510E+00
 -1      4235 5.44237E-02
 -1      4236 6.32086E-02
 -1      4237 6.54549E-02
 -1      4238 7.25579E-02
 -1      4239 6.20046E-02
 -1      4240 8.30179E-02
 -1      4241 3.90547E-01
 -1      4242 3.36492E-01
 -1      4243 6.21968E-01
 -1      4244 5.46972E-01
 -1      4245 5.32154E-01
 -1      4246 6.99194E-01
 -1      4247 7.92471E-02
 -1      4248 9.51188E-02
 -1      4249 1.07701E-01
 -1      4250 7.15882E-02
 -1      4251 1.16098E-01
 -1      4252 2.15981E+00
 -1      4253 2.09439E+00
 -1      4254 1.79437E+00
 -1      4255 1.42001E-01
 -1      4256 4.82683E-02
 -1      4257 5.83157E-02
 -1      4258 5.55687E-02
 -1      4259 4.76600E-02
 -1      4260 5.35238E-02
 -1      4261 2.95710E-01
 -1      4262 2.60070E-01
 -1      4263 3.19299E-01
 -1      4264 1.49734E+00
 -1      4265 9.83226E-01
 -1      4266 8.60660E-01
 -1      4267 1.23070E+00
 -1      4268 3.49134E-01
 -1      4269 4.02011E-01
 -1      4270 1.71990E+00
 -1      4271 1.75605E+00
 -1      4272 6.20709E-01
 -1      4273 6.97147E-01
 -1      4274 8.37211E-01
 -1      4275 9.66228E-01
 -1      4276 1.23070E+00
 -1      4277 1.49517E+00
 -1      4278 1.61038E+00
 -1      4279 1.31461E+00
 -1      4280 4.78297E-01
 -1      4281 4.47832E-01
 -1      4282 5.89439E-01
 -1      4283 1.10045E+00
 -1      4284 9.22661E-01
 -1      4285 7.85080E-01
 -1      4286 6.66993E-01
 -1      4287 5.71222E-01
 -1      4288 4.90728E-01
 -1      4289 4.21845E-01
 -1      4290 3.69693E-01
 -1      4291 3.18659E-01
 -1      4292 2.81310E-01
 -1      4293 2.42716E-01
 -1      4294 2.13303E-01
 -1      4295 1.83774E-01
 -1      4296 1.60497E-01
 -1      4297 1.37843E-01
 -1      4298 1.19422E-01
 -1      4299 2.66608E-01
 -1      4300 3.08352E-01
 -1      4301 5.16406E-02
 -1      4302 2.08081E-01
 -1      4303 4.89762E-01
 -1      4304 1.65705E-01
 -1      4305 1.75605E+00
 -1      4306 9.71018E-02
 -1      4307 2.08081E-01
 -1      4308 1.98996E-01
 -1      4309 8.26165E-01
 -1      4310 5.45450E-01
 -1      4311 2.15981E+00
 -1      4312 2.08332E-01
 -1      4313 2.60070E-01
 -1      4314 2.41623E-01
 -1      4315 2.48161E-01
 -1      4316 6.10842E-01
 -1      4317 7.20597E-01
 -1      4318 7.12965E-02
 -1      4319 6.64699E-01
 -1      4320 5.38154E-02
 -1      4321 6.76076E-02
 -3
 9999
